xi,eta,X,Y,uX,uY,epsilon_X,epsilon_Y,gamma_XY,sigma_XX,sigma_YY,sigma_XY,fx,fy,dxidx,dxidy,detadx,detady,
0.41702,0.7655,3.3362,0.39825,27.907,193.77,-3.543,1.181,-1.4345,-4.724,-3.9191e-13,-0.71727,0,0,0.125,-0,-0,0.66667
0.72032,0.30817,5.7626,-0.28774,-11.671,51.801,4.4217,-1.4739,-1.7075,5.8956,1.1183e-11,-0.85376,0,0,0.125,1.7764e-15,0,0.66667
0.00011437,0.73538,0.000915,0.35307,29.968,466.36,-0.00086127,0.00028663,-1.5595,-0.0011486,-6.8738e-07,-0.77977,0,0,0.125,-0,-0,0.66667
0.30233,0.8122,2.4187,0.4683,36.142,263.15,-3.0204,1.0068,-1.2201,-4.0272,5.0309e-12,-0.61003,0,0,0.125,-1.7579e-16,0,0.66667
0.14676,0.23669,1.174,-0.39496,-32.811,365.4,1.2365,-0.41218,-1.4433,1.6487,3.2316e-09,-0.72167,0,0,0.125,-0,-0,0.66667
0.092339,0.062824,0.73871,-0.65576,-55.391,402.68,1.2918,-0.43059,-0.47384,1.7224,4.6401e-07,-0.23692,0,0,0.125,-2.9606e-16,0,0.66667
0.18626,0.62204,1.4901,0.18307,14.979,338.67,-0.72742,0.24247,-1.8833,-0.9699,-3.4694e-10,-0.94167,0,0,0.125,-0,-0,0.66667
0.34556,0.94394,2.7645,0.66591,49.956,236.56,-4.909,1.6363,-0.42471,-6.5454,1.1555e-12,-0.21236,0,0,0.125,-0,-0,0.66667
0.39677,0.34766,3.1741,-0.22851,-16.309,205.37,1.9342,-0.64473,-1.8132,2.5789,-5.892e-13,-0.90662,0,0,0.125,-0,-0,0.66667
0.53882,0.43363,4.3105,-0.099561,-5.9722,128.12,1.1444,-0.38147,-1.9634,1.5259,3.9413e-14,-0.98171,0,0,0.125,-0,-0,0.66667
0.41919,0.27723,3.3536,-0.33416,-23.348,192.45,2.9883,-0.99611,-1.6039,3.9844,3.153e-14,-0.80193,0,0,0.125,-2.9606e-16,0,0.66667
0.68522,0.69207,5.4818,0.28811,12.899,64.315,-4.2116,1.4039,-1.706,-5.6155,-5.5942e-12,-0.85301,0,0,0.125,-0,-0,0.66667
0.20445,0.18359,1.6356,-0.47461,-38.641,326.66,2.0701,-0.69002,-1.2013,2.7601,5.0482e-12,-0.60067,0,0,0.125,-0,-0,0.66667
0.87812,0.73211,7.0249,0.34817,6.6417,11.489,-6.5223,2.1741,-1.5686,-8.6964,1.0397e-08,-0.7843,0,0,0.125,-2.3685e-15,0,0.66667
0.027388,0.7503,0.2191,0.37544,31.85,447.46,-0.21936,0.07312,-1.4995,-0.29248,4.5082e-07,-0.74974,0,0,0.125,-0,-0,0.66667
0.67047,0.45507,5.3637,-0.067393,-3.1267,69.734,0.96394,-0.32131,-1.9851,1.2852,1.9102e-12,-0.99254,0,0,0.125,-1.9782e-15,0,0.66667
0.4173,0.75403,3.3384,0.38104,26.688,193.59,-3.3922,1.1307,-1.4833,-4.523,3.5461e-13,-0.74165,0,0,0.125,1.1842e-15,0,0.66667
0.55869,0.15501,4.4695,-0.51748,-30.217,118.93,6.1677,-2.0559,-1.0484,8.2237,4.3077e-14,-0.52418,0,0,0.125,-1.2583e-15,0,0.66667
0.14039,0.66052,1.1231,0.24078,20.015,369.67,-0.72111,0.24037,-1.7974,-0.96148,-4.4064e-09,-0.89868,0,0,0.125,-0,-0,0.66667
0.1981,0.29391,1.5848,-0.30913,-25.194,330.8,1.3064,-0.43548,-1.6586,1.7419,2.6107e-10,-0.82932,0,0,0.125,2.9606e-16,0,0.66667
0.80074,0.44476,6.406,-0.082854,-2.4891,27.581,1.4154,-0.47179,-1.9751,1.8871,-1.9698e-10,-0.98755,0,0,0.125,-0,-0,0.66667
0.96826,0.8319,7.7461,0.49785,2.4914,1.8934,-10.284,3.4279,-1.1211,-13.712,-6.1833e-07,-0.56056,0,0,0.125,-0,-0,0.66667
0.31342,0.90051,2.5074,0.60077,46.104,256.34,-4.017,1.339,-0.71915,-5.3559,-2.3288e-12,-0.35958,0,0,0.125,1.4803e-16,0,0.66667
0.69232,0.31828,5.5386,-0.27258,-11.973,61.667,4.0259,-1.342,-1.735,5.3679,5.3477e-12,-0.86748,0,0,0.125,-0,-0,0.66667
0.87639,0.17908,7.0111,-0.48138,-9.3625,12.124,9,-3,-1.1777,12,-6.6985e-09,-0.58884,0,0,0.125,-0,-0,0.66667
0.89461,0.45874,7.1569,-0.061888,-1.0187,8.5231,1.1811,-0.39371,-1.9855,1.5748,1.0571e-08,-0.99277,0,0,0.125,1.1842e-15,0,0.66667
0.085044,0.67898,0.68035,0.26847,22.607,407.59,-0.48708,0.16236,-1.7418,-0.64944,-2.3337e-08,-0.87092,0,0,0.125,7.4015e-17,0,0.66667
0.039055,0.41442,0.31244,-0.12837,-10.865,439.36,0.10695,-0.035651,-1.9395,0.1426,-3.8783e-08,-0.96975,0,0,0.125,-0,-0,0.66667
0.16983,0.056519,1.3586,-0.66522,-55.045,349.96,2.4101,-0.80338,-0.42778,3.2135,-7.8632e-09,-0.21389,0,0,0.125,3.9662e-16,-9.1633e-17,0.66667
0.87814,0.85403,7.0251,0.53104,10.217,11.987,-9.9484,3.3161,-0.99707,-13.264,1.4585e-09,-0.49854,0,0,0.125,-0,-0,0.66667
0.098347,0.88562,0.78677,0.57843,48.745,398.52,-1.2136,0.40453,-0.80912,-1.6181,-3.2574e-08,-0.40456,0,0,0.125,-0,-0,0.66667
0.42111,0.88824,3.3689,0.58236,40.747,191.7,-5.2317,1.7439,-0.79614,-6.9756,1.0156e-12,-0.39807,0,0,0.125,-5.9212e-16,1.4457e-16,0.66667
0.95789,0.4772,7.6631,-0.034205,-0.22074,1.6748,0.69898,-0.23299,-1.9947,0.93197,-8.217e-08,-0.99734,0,0,0.125,2.3685e-15,0,0.66667
0.53317,0.77997,4.2653,0.41995,25.481,131.25,-4.7766,1.5922,-1.375,-6.3688,2.3537e-13,-0.68752,0,0,0.125,5.9212e-16,0,0.66667
0.69188,0.39922,5.535,-0.15117,-6.6402,61.704,2.2313,-0.74376,-1.918,2.9751,3.429e-12,-0.95898,0,0,0.125,-5.9212e-16,0,0.66667
0.31552,0.26626,2.5241,-0.35062,-26.781,254.76,2.36,-0.78667,-1.5626,3.1467,-1.8674e-12,-0.78128,0,0,0.125,-0,-0,0.66667
0.6865,0.27109,5.492,-0.34337,-15.334,63.923,5.0288,-1.6763,-1.5827,6.7051,4.5111e-12,-0.79133,0,0,0.125,-0,-0,0.66667
0.83463,0.64719,6.677,0.22078,5.5985,19.66,-3.9311,1.3104,-1.8248,-5.2415,1.4416e-09,-0.91241,0,0,0.125,5.9212e-16,0,0.66667
0.018288,0.040255,0.14631,-0.68962,-58.765,453.78,0.26905,-0.089687,-0.30931,0.35873,-5.8355e-06,-0.15466,0,0,0.125,-0,-0,0.66667
0.75014,0.38441,6.0012,-0.17338,-6.3739,41.98,2.7746,-0.92487,-1.8961,3.6995,1.128e-11,-0.94805,0,0,0.125,-0,-0,0.66667
0.98886,0.68293,7.9109,0.27439,0.38008,0.47531,-5.7885,1.9295,-1.7318,-7.718,1.3536e-07,-0.8659,0,0,0.125,-0,-0,0.66667
0.74817,0.69364,5.9853,0.29045,10.768,42.739,-4.6359,1.5453,-1.7014,-6.1812,-1.4938e-11,-0.85071,0,0,0.125,-0,-0,0.66667
0.28044,0.87009,2.2436,0.55513,43.499,277.14,-3.3212,1.1071,-0.90697,-4.4283,-2.1303e-12,-0.45349,0,0,0.125,-1.3e-16,-8.2121e-17,0.66667
0.78928,0.78155,6.3142,0.42232,13.419,31.072,-7.111,2.3703,-1.3652,-9.4813,1.1891e-11,-0.6826,0,0,0.125,-0,-0,0.66667
0.10323,0.17645,0.82581,-0.48532,-40.808,395.14,1.0688,-0.35625,-1.1606,1.425,2.7839e-08,-0.5803,0,0,0.125,-0,-0,0.66667
0.44789,0.24052,3.5831,-0.38921,-26.384,176.29,3.719,-1.2397,-1.4599,4.9586,7.6161e-14,-0.72995,0,0,0.125,-0,-0,0.66667
0.9086,0.94322,7.2688,0.66483,9.8141,7.9935,-12.887,4.2956,-0.42936,-17.182,2.1887e-07,-0.21468,0,0,0.125,-0,-0,0.66667
0.29361,0.66536,2.3489,0.24804,19.213,268.5,-1.5537,0.5179,-1.781,-2.0716,5.564e-12,-0.8905,0,0,0.125,-0,-0,0.66667
0.28778,0.26459,2.3022,-0.35312,-27.477,272.28,2.1679,-0.72262,-1.5545,2.8905,-1.085e-11,-0.77724,0,0,0.125,-0,-0,0.66667
0.13003,0.17012,1.0402,-0.49481,-41.347,376.82,1.3726,-0.45753,-1.1278,1.8301,7.1064e-09,-0.56392,0,0,0.125,-0,-0,0.66667
0.019367,0.14803,0.15494,-0.52795,-44.879,453.02,0.21813,-0.07271,-1.0085,0.29084,-1.5362e-06,-0.50423,0,0,0.125,-1.8504e-17,0,0.66667
0.67884,0.90997,5.4307,0.61495,28.177,67.429,-8.9057,2.9686,-0.65415,-11.874,-2.2986e-12,-0.32708,0,0,0.125,2.3685e-15,0,0.66667
0.21163,0.77616,1.693,0.41424,33.597,321.86,-1.8702,0.62339,-1.3884,-2.4936,-1.6156e-11,-0.6942,0,0,0.125,-3.1878e-16,0,0.66667
0.26555,0.28807,2.1244,-0.3179,-25.062,286.51,1.8009,-0.6003,-1.644,2.4012,-1.3917e-11,-0.82201,0,0,0.125,-0,-0,0.66667
0.49157,0.74725,3.9326,0.37088,23.837,152.56,-3.8894,1.2965,-1.5098,-5.1858,-1.9518e-12,-0.75491,0,0,0.125,-0,-0,0.66667
0.053363,0.86256,0.4269,0.54385,46.126,429.5,-0.61912,0.20637,-0.94629,-0.82549,-1.3831e-07,-0.47315,0,0,0.125,1.0821e-17,0,0.66667
0.57412,0.61368,4.5929,0.17051,9.6602,111.13,-2.0884,0.69614,-1.8957,-2.7846,-6.4748e-13,-0.94784,0,0,0.125,-0,-0,0.66667
0.14673,0.9395,1.1738,0.65924,54.957,365.56,-2.0636,0.68786,-0.45399,-2.7514,-1.4182e-08,-0.22699,0,0,0.125,5.9212e-16,0,0.66667
0.58931,0.60561,4.7144,0.15841,8.7351,104.09,-1.9916,0.66385,-1.9095,-2.6554,-8.8307e-13,-0.95477,0,0,0.125,-0,-0,0.66667
0.69976,0.10229,5.5981,-0.59657,-25.852,59.668,8.9057,-2.9686,-0.73433,11.874,2.0064e-12,-0.36716,0,0,0.125,-0,-0,0.66667
0.10233,0.98938,0.81868,0.73408,61.967,395.86,-1.6026,0.5342,-0.081946,-2.1368,-6.8174e-08,-0.040973,0,0,0.125,1.4803e-16,0,0.66667
0.41406,0.98682,3.3124,0.73022,51.607,196.03,-6.4502,2.1501,-0.10182,-8.6003,2.4336e-13,-0.05091,0,0,0.125,5.9212e-16,0,0.66667
0.6944,0.90075,5.5552,0.60113,26.436,61.616,-8.905,2.9683,-0.71367,-11.873,-1.2284e-12,-0.35684,0,0,0.125,-8.8818e-16,0,0.66667
0.41418,0.73179,3.3134,0.34769,24.421,195.35,-3.0721,1.024,-1.5679,-4.0962,3.7925e-13,-0.78396,0,0,0.125,5.9212e-16,0,0.66667
0.049953,0.96362,0.39963,0.69543,59.138,431.89,-0.7411,0.24703,-0.28082,-0.98813,-5.0848e-07,-0.14041,0,0,0.125,1.1102e-16,0,0.66667
0.5359,0.99431,4.2872,0.74146,45.091,130.6,-8.4768,2.8256,-0.044504,-11.302,-1.1822e-12,-0.022252,0,0,0.125,2.9606e-16,0,0.66667
0.66379,0.020758,5.3104,-0.71886,-34.28,73.547,10.18,-3.3933,-0.1605,13.573,3.7303e-13,-0.080251,0,0,0.125,-0,-0,0.66667
0.51489,0.16433,4.1191,-0.50351,-31.414,140.64,5.5307,-1.8436,-1.101,7.3742,3.0584e-12,-0.55048,0,0,0.125,-1.1842e-15,0,0.66667
0.94459,0.88471,7.5568,0.57707,5.1682,3.8032,-11.629,3.8763,-0.81395,-15.505,-1.5667e-07,-0.40697,0,0,0.125,-0,-0,0.66667
0.58656,0.11667,4.6924,-0.575,-32.047,105.99,7.1951,-2.3984,-0.82254,9.5935,2.3803e-13,-0.41127,0,0,0.125,-0,-0,0.66667
0.9034,0.45466,7.2272,-0.068006,-1.0277,7.2746,1.3107,-0.43688,-1.9834,1.7475,-2.858e-09,-0.99169,0,0,0.125,-0,-0,0.66667
0.13747,0.83135,1.0998,0.49702,41.448,371.75,-1.4577,0.48589,-1.1213,-1.9435,-6.5812e-09,-0.56065,0,0,0.125,-0,-0,0.66667
0.13928,0.69424,1.1142,0.29136,24.236,370.44,-0.8657,0.28857,-1.7,-1.1543,-5.3427e-09,-0.84999,0,0,0.125,-0,-0,0.66667
0.80739,0.69526,6.4591,0.29288,8.5557,26.129,-5.0447,1.6816,-1.6938,-6.7263,3.7351e-10,-0.84688,0,0,0.125,2.3685e-15,0,0.66667
0.39768,0.57866,3.1814,0.11799,8.409,204.79,-1.001,0.33367,-1.9482,-1.3347,-5.2836e-13,-0.97412,0,0,0.125,5.9212e-16,0,0.66667
0.16535,0.083831,1.3228,-0.62425,-51.701,352.95,2.2021,-0.73403,-0.61249,2.9361,1.8948e-09,-0.30625,0,0,0.125,-1.4803e-16,0,0.66667
0.92751,0.26774,7.4201,-0.34839,-3.9947,4.7225,6.8936,-2.2979,-1.5666,9.1915,-4.8097e-08,-0.78328,0,0,0.125,-0,-0,0.66667
0.34777,0.76325,2.7821,0.39487,29.454,234.86,-2.9296,0.97653,-1.4446,-3.9061,4.1345e-13,-0.72228,0,0,0.125,-0,-0,0.66667
0.75081,0.874,6.0065,0.56101,20.742,42.533,-8.9858,2.9953,-0.88434,-11.981,5.5096e-11,-0.44217,0,0,0.125,1.3323e-15,0,0.66667
0.726,0.49922,5.808,-0.0011652,-0.046344,49.677,0.018047,-0.0060157,-1.9993,0.024063,1.1714e-12,-0.99963,0,0,0.125,-0,-0,0.66667
0.88331,0.57864,7.0664,0.11796,2.1451,10.301,-2.2228,0.74095,-1.9482,-2.9638,3.9962e-09,-0.97412,0,0,0.125,-1.1842e-15,0,0.66667
0.62367,0.62708,4.9894,0.19062,9.8354,88.899,-2.5363,0.84542,-1.8734,-3.3817,-1.2053e-12,-0.93668,0,0,0.125,-0,-0,0.66667
0.75094,0.38512,6.0075,-0.17233,-6.3175,41.732,2.7607,-0.92023,-1.8963,3.6809,1.1033e-11,-0.94817,0,0,0.125,-0,-0,0.66667
0.3489,0.51957,2.7912,0.029352,2.1827,233.97,-0.21847,0.072825,-1.9953,-0.2913,-1.7555e-12,-0.99767,0,0,0.125,-1.1842e-15,0,0.66667
0.26993,0.39182,2.1594,-0.16228,-12.748,283.61,0.93446,-0.31149,-1.9051,1.2459,-9.0004e-12,-0.95256,0,0,0.125,2.9606e-16,0,0.66667
0.89589,0.25282,7.1671,-0.37077,-6.0818,8.7609,7.0863,-2.3621,-1.5106,9.4484,-2.0939e-08,-0.7553,0,0,0.125,-0,-0,0.66667
0.42809,0.5703,3.4247,0.10546,7.2895,187.22,-0.9631,0.32103,-1.9588,-1.2841,-5.0721e-13,-0.9794,0,0,0.125,-0,-0,0.66667
0.96484,0.92833,7.7187,0.64249,3.6878,2.6487,-13.225,4.4082,-0.53158,-17.633,9.044e-07,-0.26579,0,0,0.125,-0,-0,0.66667
0.66344,0.16741,5.3075,-0.49889,-23.671,73.053,7.061,-2.3537,-1.1129,9.4146,1.8181e-12,-0.55646,0,0,0.125,-0,-0,0.66667
0.6217,0.76088,4.9736,0.39132,20.32,90.005,-5.1901,1.73,-1.4551,-6.9201,-1.1648e-12,-0.72755,0,0,0.125,-1.1842e-15,0,0.66667
0.11475,0.42252,0.91797,-0.11621,-9.7202,387.16,0.28448,-0.094828,-1.9502,0.37931,4.2047e-09,-0.97509,0,0,0.125,-1.4803e-16,0,0.66667
0.94949,0.59068,7.5959,0.13602,1.0662,2.3473,-2.7552,0.9184,-1.9345,-3.6736,-3.4763e-08,-0.96725,0,0,0.125,2.9606e-16,0,0.66667
0.44991,0.59821,3.5993,0.14731,9.9436,174.96,-1.4139,0.47131,-1.9232,-1.8853,-1.3101e-13,-0.96161,0,0,0.125,-0,-0,0.66667
0.57839,0.016081,4.6271,-0.72588,-41.193,110.16,8.9566,-2.9855,-0.12914,11.942,-1.6254e-12,-0.064568,0,0,0.125,2.3685e-15,0,0.66667
0.40814,0.79667,3.2651,0.44501,31.48,198.96,-3.8746,1.2915,-1.2966,-5.1662,9.8965e-13,-0.64829,0,0,0.125,-0,-0,0.66667
0.23703,0.047652,1.8962,-0.67852,-54.576,305.37,3.431,-1.1437,-0.36302,4.5747,-7.3164e-12,-0.18151,0,0,0.125,-0,-0,0.66667
0.90338,0.069426,7.227,-0.64586,-10.038,8.6027,12.447,-4.149,-0.51716,16.596,-2.3841e-08,-0.25858,0,0,0.125,-0,1.0942e-16,0.66667
0.57368,0.45803,4.5894,-0.062959,-3.5679,111.28,0.77052,-0.25684,-1.9847,1.0274,-3.5671e-13,-0.99237,0,0,0.125,-0,-0,0.66667
0.0028703,0.76336,0.022963,0.39504,33.543,464.45,-0.02419,0.0080627,-1.4449,-0.032253,-7.9259e-07,-0.72247,0,0,0.125,4.6259e-18,0,0.66667
0.61714,0.86404,4.9372,0.54606,28.7,92.287,-7.1893,2.3964,-0.93764,-9.5857,-5.4223e-13,-0.46882,0,0,0.125,-5.9212e-16,0,0.66667
0.32664,0.70793,2.6132,0.31189,23.625,247.8,-2.1734,0.72446,-1.6554,-2.8979,1.6211e-12,-0.8277,0,0,0.125,-0,-0,0.66667
0.52706,0.94802,4.2165,0.67203,41.339,134.83,-7.5562,2.5187,-0.39324,-10.075,1.5361e-12,-0.19662,0,0,0.125,-0,-0,0.66667
0.88594,0.046994,7.0875,-0.67951,-12.402,11.29,12.843,-4.2809,-0.35681,17.124,3.6607e-09,-0.17841,0,0,0.125,-0,-0,0.66667
0.35727,0.87399,2.8582,0.56098,41.616,229.28,-4.2757,1.4252,-0.88303,-5.7009,1.0654e-12,-0.44151,0,0,0.125,8.8818e-16,-1.3861e-16,0.66667
0.90854,0.80798,7.2683,0.46198,6.7144,7.2629,-8.9541,2.9847,-1.2423,-11.939,2.8125e-08,-0.62116,0,0,0.125,-0,-0,0.66667
0.62336,0.040489,4.9869,-0.68927,-35.9,90.005,9.1661,-3.0554,-0.31202,12.221,-7.9936e-14,-0.15601,0,0,0.125,-1.1842e-15,0,0.66667
0.015821,0.82076,0.12657,0.48114,40.882,455.48,-0.16239,0.054132,-1.1799,-0.21653,4.1183e-07,-0.58996,0,0,0.125,-0,-0,0.66667
0.92944,0.52135,7.4355,0.032029,0.35346,4.1222,-0.63507,0.21169,-1.9943,-0.84676,2.6442e-08,-0.99714,0,0,0.125,-0,-0,0.66667
0.6909,0.64605,5.5272,0.21908,9.6541,62.126,-3.229,1.0763,-1.8289,-4.3054,-5.3841e-12,-0.91446,0,0,0.125,-0,-0,0.66667
0.99732,0.52553,7.9786,0.038299,-0.0048036,0.04047,-0.81486,0.27162,-1.9954,-1.0865,1.6908e-06,-0.99771,0,0,0.125,1.1842e-15,0,0.66667
0.17234,0.77014,1.3787,0.40521,33.384,348.11,-1.4898,0.4966,-1.4186,-1.9864,-9.8934e-10,-0.70932,0,0,0.125,-0,-0,0.66667
0.13714,0.44245,1.0971,-0.086328,-7.1784,371.86,0.25256,-0.084186,-1.9736,0.33674,5.0903e-09,-0.98679,0,0,0.125,2.9606e-16,0,0.66667
0.9326,0.1066,7.4608,-0.5901,-6.4284,4.9505,11.74,-3.9134,-0.76037,15.654,-1.8127e-07,-0.38019,0,0,0.125,-0,-0,0.66667
0.69682,0.7649,5.5745,0.39735,17.276,60.236,-5.9067,1.9689,-1.4365,-7.8756,-7.5504e-12,-0.71826,0,0,0.125,1.1842e-15,0,0.66667
0.066,0.68562,0.528,0.27842,23.515,420.72,-0.39202,0.13067,-1.725,-0.5227,-1.2174e-08,-0.86249,0,0,0.125,9.2519e-17,0,0.66667
0.75546,0.78652,6.0437,0.42977,15.575,40.762,-6.9265,2.3088,-1.3422,-9.2353,-2.4942e-11,-0.67109,0,0,0.125,-0,-0,0.66667
0.75388,0.82434,6.031,0.48651,17.757,41.385,-7.8245,2.6082,-1.1575,-10.433,-1.6318e-11,-0.57877,0,0,0.125,-0,-0,0.66667
0.92302,0.66459,7.3842,0.24688,2.9901,5.0135,-4.8614,1.6205,-1.7851,-6.4818,1.7765e-08,-0.89257,0,0,0.125,-0,-0,0.66667
0.71152,0.45153,5.6922,-0.072711,-3.0214,54.63,1.1037,-0.3679,-1.9789,1.4716,3.0187e-12,-0.98947,0,0,0.125,-0,-0,0.66667
0.12427,0.41282,0.99417,-0.13077,-10.913,380.64,0.34668,-0.11556,-1.9417,0.46224,7.5344e-09,-0.97087,0,0,0.125,-0,-0,0.66667
0.01988,0.41813,0.15904,-0.12281,-10.406,452.65,0.052085,-0.017362,-1.9452,0.069446,-6.7993e-08,-0.97262,0,0,0.125,-0,-0,0.66667
0.026211,0.61218,0.20969,0.16828,14.256,448.26,-0.094094,0.031365,-1.8977,-0.12546,2.791e-08,-0.94886,0,0,0.125,-3.7007e-17,0,0.66667
0.028306,0.29358,0.22645,-0.30963,-26.25,446.81,0.18698,-0.062325,-1.6589,0.2493,-2.5287e-07,-0.82946,0,0,0.125,-0,-0,0.66667
0.24621,0.89366,1.9697,0.59049,47.203,299.28,-3.1016,1.0339,-0.75938,-4.1354,1.6678e-11,-0.37969,0,0,0.125,-0,-0,0.66667
0.86003,0.69778,6.8802,0.29667,6.4451,14.606,-5.4431,1.8144,-1.6893,-7.2575,5.1651e-09,-0.84466,0,0,0.125,-0,-0,0.66667
0.53883,0.42705,4.3106,-0.10943,-6.5642,128.12,1.2579,-0.41929,-1.9553,1.6772,-1.2917e-12,-0.97766,0,0,0.125,5.9212e-16,0,0.66667
0.55282,0.46517,4.4226,-0.052249,-3.0656,121.24,0.6162,-0.2054,-1.9893,0.8216,4.7995e-13,-0.99465,0,0,0.125,-5.9212e-16,0,0.66667
0.84203,0.49463,6.7362,-0.008057,-0.19536,17.929,0.14473,-0.048244,-2.0014,0.19298,7.7579e-10,-1.0007,0,0,0.125,-3.5527e-15,0,0.66667
0.12417,0.052057,0.99339,-0.67191,-56.375,380.9,1.7799,-0.59331,-0.39682,2.3732,6.2201e-08,-0.19841,0,0,0.125,1.4803e-16,0,0.66667
0.27918,0.28218,2.2335,-0.32673,-25.554,277.75,1.946,-0.64867,-1.6224,2.5947,-1.3545e-11,-0.81122,0,0,0.125,1.1842e-15,0,0.66667
0.58576,0.087677,4.6861,-0.61848,-34.553,106.46,7.7287,-2.5762,-0.63825,10.305,-3.7881e-13,-0.31913,0,0,0.125,5.9212e-16,0,0.66667
0.9696,0.42581,7.7568,-0.11128,-0.50518,1.0119,2.3019,-0.76729,-1.9579,3.0691,2.0323e-07,-0.97896,0,0,0.125,-1.1842e-15,0,0.66667
0.56103,0.82255,4.4882,0.48383,28.127,117.74,-5.7908,1.9303,-1.169,-7.7211,-5.369e-13,-0.58451,0,0,0.125,1.1842e-15,0,0.66667
0.018647,0.95834,0.14918,0.68752,58.584,453.54,-0.2735,0.091171,-0.31918,-0.36466,8.335e-06,-0.15959,0,0,0.125,-0,-0,0.66667
0.80063,0.53649,6.4051,0.054737,1.645,27.599,-0.93492,0.31164,-1.9892,-1.2466,-3.7584e-11,-0.9946,0,0,0.125,-0,-0,0.66667
0.23297,0.36165,1.8638,-0.20753,-16.636,307.67,1.0314,-0.34381,-1.8481,1.3753,8.6445e-12,-0.92405,0,0,0.125,-2.9606e-16,0,0.66667
0.80711,0.7965,6.4568,0.44475,13.061,26.521,-7.6578,2.5526,-1.2949,-10.21,1.8477e-10,-0.64745,0,0,0.125,-1.1842e-15,0,0.66667
0.38786,0.95404,3.1029,0.68106,49.304,211.19,-5.6353,1.8784,-0.35067,-7.5137,7.776e-13,-0.17534,0,0,0.125,-5.9212e-16,-1.4752e-16,0.66667
0.86354,0.49395,6.9083,-0.0090723,-0.19157,13.68,0.16713,-0.05571,-1.9992,0.22284,-7.6473e-09,-0.99959,0,0,0.125,-5.9212e-16,0,0.66667
0.74712,0.21536,5.977,-0.42696,-15.928,43.325,6.8051,-2.2684,-1.3527,9.0735,1.8627e-11,-0.67633,0,0,0.125,-1.2591e-15,0,0.66667
0.55624,0.57963,4.4499,0.11945,6.9713,119.6,-1.4174,0.47247,-1.9472,-1.8899,-2.9521e-13,-0.97359,0,0,0.125,-1.1842e-15,0,0.66667
0.13646,0.13934,1.0916,-0.54099,-45.154,372.46,1.5749,-0.52495,-0.95822,2.0998,9.9824e-10,-0.47911,0,0,0.125,-0,-0,0.66667
0.059918,0.79638,0.47934,0.44457,37.632,424.95,-0.56827,0.18942,-1.2973,-0.75769,-6.5525e-08,-0.64866,0,0,0.125,-0,-0,0.66667
0.12134,0.67439,0.97075,0.26159,21.86,382.67,-0.67717,0.22572,-1.7559,-0.9029,-9.9267e-09,-0.87795,0,0,0.125,-0,-0,0.66667
0.044552,0.78309,0.35642,0.42464,35.995,435.57,-0.40359,0.13453,-1.3605,-0.53812,-3.5135e-08,-0.68024,0,0,0.125,-0,-0,0.66667
0.10749,0.66305,0.85995,0.24457,20.501,392.15,-0.56085,0.18695,-1.7886,-0.74781,-1.3641e-08,-0.89428,0,0,0.125,-0,-0,0.66667
0.22571,0.069303,1.8057,-0.64604,-52.223,312.75,3.1108,-1.0369,-0.51431,4.1477,-3.0003e-12,-0.25715,0,0,0.125,-0,-0,0.66667
0.71299,0.38368,5.7039,-0.17448,-7.2237,54.185,2.6539,-0.88463,-1.8902,3.5385,7.121e-12,-0.94508,0,0,0.125,-0,-0,0.66667
0.55972,0.083583,4.4777,-0.62462,-36.491,118.68,7.4584,-2.4861,-0.61284,9.9446,-2.3648e-12,-0.30642,0,0,0.125,-0,-1.9734e-16,0.66667
0.012556,0.90984,0.10045,0.61475,52.333,457.75,-0.16467,0.054883,-0.6569,-0.21956,-8.8101e-06,-0.32845,0,0,0.125,-0,-1.7615e-16,0.66667
0.071974,0.96087,0.57579,0.69131,58.626,416.7,-1.0615,0.35382,-0.29911,-1.4153,-2.6812e-06,-0.14955,0,0,0.125,-0,-0,0.66667
0.96728,0.87002,7.7382,0.55503,2.9025,2.1534,-11.453,3.8177,-0.90662,-15.271,-5.3354e-07,-0.45331,0,0,0.125,-1.1842e-15,0,0.66667
0.5681,0.29118,4.5448,-0.31323,-17.952,114.1,3.7962,-1.2654,-1.6495,5.0616,3.5238e-13,-0.82475,0,0,0.125,-1.1842e-15,0,0.66667
0.20329,0.30427,1.6263,-0.29359,-23.873,327.33,1.2733,-0.42443,-1.6966,1.6977,1.8779e-10,-0.84829,0,0,0.125,-0,-0,0.66667
0.25233,0.6315,2.0186,0.19724,15.653,295.02,-1.0617,0.35392,-1.8625,-1.4157,7.5957e-12,-0.93126,0,0,0.125,-0,-0,0.66667
0.74383,0.86372,5.9506,0.54558,20.648,44.665,-8.6574,2.8858,-0.93972,-11.543,-2.2231e-11,-0.46986,0,0,0.125,-1.1842e-15,0,0.66667
0.19543,0.70603,1.5634,0.30905,25.215,332.58,-1.2885,0.42949,-1.6582,-1.718,-3.1594e-10,-0.82908,0,0,0.125,-2.9606e-16,0,0.66667
0.58136,0.27133,4.6509,-0.34301,-19.219,107.94,4.2542,-1.4181,-1.5814,5.6722,1.7142e-13,-0.79069,0,0,0.125,-0,-0,0.66667
0.97002,0.50071,7.7602,0.0010632,0.0047371,0.94719,-0.022002,0.0073307,-2.0029,-0.029337,-4.9148e-06,-1.0014,0,0,0.125,-0,-0,0.66667
0.84683,0.79527,6.7746,0.4429,10.523,17.525,-8.0013,2.6671,-1.3022,-10.668,2.4383e-09,-0.65108,0,0,0.125,-0,-0,0.66667
0.23985,0.60418,1.9188,0.15627,12.481,303.15,-0.79961,0.26654,-1.9115,-1.0661,-4.019e-12,-0.95576,0,0,0.125,-0,-0,0.66667
0.49377,0.38588,3.9502,-0.17118,-10.951,151.21,1.8032,-0.60105,-1.8939,2.4042,4.1078e-14,-0.94694,0,0,0.125,-0,-0,0.66667
0.61996,0.74546,4.9596,0.36819,19.18,90.715,-4.8696,1.6232,-1.5172,-6.4928,-1.3296e-12,-0.7586,0,0,0.125,-1.4803e-15,0,0.66667
0.82898,0.13694,6.6318,-0.54459,-14.386,21.64,9.6311,-3.2104,-0.9474,12.841,3.3478e-10,-0.4737,0,0,0.125,-0,-0,0.66667
0.15679,0.99325,1.2543,0.73987,61.572,358.81,-2.4748,0.82492,-0.056424,-3.2997,2.396e-09,-0.028212,0,0,0.125,4.4409e-16,0,0.66667
0.018576,0.083942,0.14861,-0.62409,-53.125,453.58,0.24732,-0.082441,-0.6151,0.32976,-2.5235e-06,-0.30755,0,0,0.125,-1.8504e-17,0,0.66667
0.070022,0.79263,0.56018,0.43894,37.104,417.97,-0.65569,0.21856,-1.3128,-0.87425,-8.8057e-08,-0.65639,0,0,0.125,-0,-0,0.66667
0.48635,0.22987,3.8908,-0.4052,-26.231,155.38,4.2041,-1.4014,-1.417,5.6055,1.1147e-13,-0.70848,0,0,0.125,-0,-0,0.66667
0.60633,0.37903,4.8506,-0.18145,-9.6916,96.447,2.347,-0.78234,-1.8835,3.1294,-1.4984e-12,-0.94176,0,0,0.125,-0,-0,0.66667
0.56885,0.14636,4.5508,-0.53046,-30.463,114.12,6.4374,-2.1458,-0.99763,8.5831,-1.3265e-12,-0.49881,0,0,0.125,-0,-0,0.66667
0.31736,0.37352,2.5389,-0.18972,-14.455,253.51,1.2845,-0.42815,-1.8719,1.7126,-3.5179e-12,-0.93593,0,0,0.125,7.0314e-16,0,0.66667
0.98862,0.025421,7.9089,-0.71187,-1.334,1.9984,15.014,-5.0046,-0.19768,20.018,-4.7973e-05,-0.098841,0,0,0.125,-1.1842e-15,0,0.66667
0.57975,0.7844,4.638,0.4266,23.999,108.82,-5.2761,1.7587,-1.355,-7.0348,-2.2546e-12,-0.6775,0,0,0.125,2.3685e-15,0,0.66667
0.38014,0.34034,3.0411,-0.2395,-17.358,215.2,1.9422,-0.64742,-1.7954,2.5897,-9.3192e-13,-0.8977,0,0,0.125,-8.8818e-16,0,0.66667
0.55095,0.34642,4.4076,-0.23037,-13.569,122.25,2.7077,-0.90256,-1.8114,3.6102,9.3192e-13,-0.90568,0,0,0.125,-2.3685e-15,0,0.66667
0.74533,0.65726,5.9627,0.23588,8.8228,43.549,-3.7507,1.2502,-1.8022,-5.0009,-1.4187e-11,-0.9011,0,0,0.125,-0,-0,0.66667
0.66923,0.98039,5.3539,0.72058,33.918,71.438,-10.288,3.4292,-0.15393,-13.717,-3.3218e-13,-0.076963,0,0,0.125,-0,-0,0.66667
0.26492,0.49757,2.1194,-0.0036445,-0.28704,286.82,0.020598,-0.0068658,-2.0032,0.027463,-4.7175e-12,-1.0016,0,0,0.125,-7.4015e-17,0,0.66667
0.066335,0.40013,0.53068,-0.1498,-12.643,420.48,0.21199,-0.070664,-1.9199,0.28266,-1.3569e-08,-0.95994,0,0,0.125,3.7007e-17,0,0.66667
0.37008,0.11586,2.9607,-0.57621,-42.298,221.58,4.5492,-1.5164,-0.81821,6.0656,4.7828e-13,-0.4091,0,0,0.125,-0,-0,0.66667
0.62972,0.21454,5.0377,-0.4282,-21.882,86.654,5.7524,-1.9175,-1.3475,7.6698,5.8709e-13,-0.67375,0,0,0.125,-5.9212e-16,0,0.66667
0.21017,0.31647,1.6814,-0.2753,-22.315,322.75,1.2344,-0.41145,-1.7292,1.6458,1.0947e-10,-0.86461,0,0,0.125,-0,-0,0.66667
0.75276,0.78244,6.022,0.42366,15.499,41.574,-6.8035,2.2678,-1.3632,-9.0713,-3.1708e-11,-0.68158,0,0,0.125,-0,-0,0.66667
0.066536,0.79272,0.53229,0.43907,37.133,420.38,-0.62324,0.20775,-1.3136,-0.83099,-8.7509e-08,-0.65678,0,0,0.125,1.4803e-16,0,0.66667
0.26032,0.77512,2.0825,0.41268,32.662,289.96,-2.2918,0.76393,-1.3933,-3.0557,7.913e-12,-0.69666,0,0,0.125,2.9606e-16,0,0.66667
0.80475,0.67466,6.438,0.262,7.7437,26.739,-4.498,1.4993,-1.7537,-5.9973,2.9558e-10,-0.87684,0,0,0.125,-0,-0,0.66667
0.19343,0.05046,1.5475,-0.67431,-55.313,334.16,2.7826,-0.92754,-0.38139,3.7101,-4.1517e-10,-0.1907,0,0,0.125,-0,-0,0.66667
0.63946,0.055376,5.1157,-0.66694,-33.559,83.172,9.0982,-3.0327,-0.42045,12.131,1.5632e-13,-0.21022,0,0,0.125,-0,-1.0421e-16,0.66667
0.52467,0.41447,4.1974,-0.1283,-7.8616,135.22,1.436,-0.47867,-1.9397,1.9147,6.0951e-14,-0.96984,0,0,0.125,-1.1842e-15,0,0.66667
0.92481,0.049945,7.3985,-0.67508,-8.2627,6.1136,13.319,-4.4396,-0.37939,17.758,-1.0275e-06,-0.1897,0,0,0.125,-0,-0,0.66667
0.2633,0.1957,2.1064,-0.45646,-36.083,288.06,2.5639,-0.85464,-1.2598,3.4186,-2.2566e-11,-0.62992,0,0,0.125,-0,-0,0.66667
0.065961,0.014927,0.52769,-0.72761,-61.794,420.86,1.0239,-0.34129,-0.11695,1.3652,-2.1703e-07,-0.058477,0,0,0.125,-0,-0,0.66667
0.73507,0.81244,5.8805,0.46866,18.217,47.261,-7.3492,2.4497,-1.2228,-9.7989,-2.3722e-11,-0.61139,0,0,0.125,-1.4248e-15,0,0.66667
0.77218,0.33477,6.1774,-0.24785,-8.4102,35.492,4.0828,-1.3609,-1.7797,5.4438,-9.905e-12,-0.88986,0,0,0.125,-5.9212e-16,0,0.66667
0.90782,0.26441,7.2625,-0.35339,-5.1431,7.0708,6.844,-2.2813,-1.557,9.1253,-2.759e-08,-0.7785,0,0,0.125,-0,-0,0.66667
0.93197,0.019914,7.4558,-0.72013,-8.0436,5.577,14.318,-4.7726,-0.15441,19.09,-6.9951e-07,-0.077205,0,0,0.125,-0,-0,0.66667
0.013952,0.031277,0.11161,-0.70308,-59.935,456.79,0.20926,-0.069724,-0.24495,0.27903,4.4568e-05,-0.12247,0,0,0.125,-0,-0,0.66667
0.23436,0.086751,1.8749,-0.61987,-49.876,307.05,3.0992,-1.0331,-0.63721,4.1323,9.8453e-11,-0.3186,0,0,0.125,-4.4409e-16,1.0292e-16,0.66667
0.61678,0.47309,4.9342,-0.040361,-2.1104,91.796,0.53106,-0.17702,-1.9928,0.70808,-9.9454e-13,-0.9964,0,0,0.125,-0,-0,0.66667
0.94902,0.076726,7.5921,-0.63491,-5.2787,3.6824,12.854,-4.2847,-0.56559,17.139,-3.9394e-07,-0.28279,0,0,0.125,-0,4.3931e-17,0.66667
0.95018,0.57818,7.6014,0.11728,0.90564,2.2777,-2.3772,0.79241,-1.9508,-3.1696,-4.7083e-08,-0.97541,0,0,0.125,-1.1842e-15,0,0.66667
0.55665,0.69103,4.4532,0.28655,16.732,119.54,-3.4028,1.1343,-1.7071,-4.5371,3.0065e-13,-0.85355,0,0,0.125,-0,-0,0.66667
0.91561,0.67466,7.3249,0.26199,3.4801,5.9053,-5.1174,1.7058,-1.7539,-6.8232,2.3208e-08,-0.87695,0,0,0.125,-1.1842e-15,0,0.66667
0.64157,0.022684,5.1325,-0.71597,-35.912,82.458,9.7994,-3.2665,-0.17943,13.066,3.8192e-14,-0.089713,0,0,0.125,-0,-0,0.66667
0.39001,0.92783,3.1201,0.64175,46.333,209.85,-5.3395,1.7798,-0.53803,-7.1193,1.612e-12,-0.26901,0,0,0.125,-5.9212e-16,-1.265e-16,0.66667
0.48599,0.037084,3.8879,-0.69437,-45.2,156.12,7.1991,-2.3997,-0.28731,9.5988,1.803e-13,-0.14366,0,0,0.125,-0,-0,0.66667
0.60431,0.18248,4.8345,-0.47628,-25.634,97.759,6.1401,-2.0467,-1.1926,8.1869,-2.6956e-13,-0.59629,0,0,0.125,9.4994e-16,0,0.66667
0.54955,0.60082,4.3964,0.15123,8.9231,122.87,-1.773,0.591,-1.9191,-2.364,-6.7235e-13,-0.95957,0,0,0.125,-0,-0,0.66667
0.92618,0.76435,7.4095,0.39653,4.6445,4.9828,-7.8348,2.6116,-1.4397,-10.446,6.7636e-08,-0.71985,0,0,0.125,-0,-0,0.66667
0.91873,0.23191,7.3499,-0.40214,-5.1837,5.8357,7.8818,-2.6273,-1.4246,10.509,-4.1972e-08,-0.7123,0,0,0.125,-0,-0,0.66667
0.39488,0.80231,3.159,0.45346,32.494,206.7,-3.8199,1.2733,-1.2679,-5.0933,1.06e-12,-0.63394,0,0,0.125,5.9212e-16,0,0.66667
0.96326,0.9542,7.7061,0.6813,4.1237,2.9162,-14.001,4.6668,-0.34777,-18.667,8.6197e-06,-0.17388,0,0,0.125,-0,-0,0.66667
0.17396,0.49282,1.3916,-0.010764,-0.88443,346.92,0.039945,-0.013315,-2.0006,0.05326,2.8691e-10,-1.0003,0,0,0.125,-0,-0,0.66667
0.12633,0.56279,1.0106,0.094185,7.8548,379.23,-0.25383,0.08461,-1.9714,-0.33844,-4.4057e-10,-0.98569,0,0,0.125,-0,-0,0.66667
0.13508,0.38654,1.0806,-0.17019,-14.164,373.27,0.49043,-0.16348,-1.8953,0.65391,4.3714e-09,-0.94763,0,0,0.125,-0,-0,0.66667
0.50566,0.27933,4.0453,-0.331,-20.868,145.13,3.5707,-1.1902,-1.6099,4.7609,-9.0083e-13,-0.80493,0,0,0.125,-0,-0,0.66667
0.021525,0.19526,0.1722,-0.45711,-38.821,451.52,0.2099,-0.069968,-1.2555,0.27987,-9.2721e-07,-0.62775,0,0,0.125,7.4015e-17,0,0.66667
0.94797,0.55603,7.5838,0.084049,0.67851,2.4295,-1.6998,0.56659,-1.9738,-2.2663,-2.3192e-08,-0.98688,0,0,0.125,-0,-0,0.66667
0.82712,0.79877,6.6169,0.44815,11.912,21.778,-7.9077,2.6359,-1.2876,-10.544,7.1625e-10,-0.64378,0,0,0.125,1.1842e-15,0,0.66667
0.015019,0.87567,0.12015,0.56351,47.932,456.04,-0.18055,0.060183,-0.87465,-0.24073,-3.673e-07,-0.43733,0,0,0.125,-3.7007e-17,0,0.66667
0.1762,0.039335,1.4096,-0.691,-57.074,345.71,2.5974,-0.86579,-0.30143,3.4631,2.8988e-10,-0.15072,0,0,0.125,-0,-0,0.66667
0.33206,0.4427,2.6565,-0.085955,-6.4766,244.33,0.60891,-0.20297,-1.9735,0.81188,-1.9196e-12,-0.98673,0,0,0.125,-0,-0,0.66667
0.131,0.50089,1.048,0.0013316,0.11091,376.04,-0.0037214,0.0012405,-1.9995,-0.0049619,-4.6834e-09,-0.99974,0,0,0.125,-0,-0,0.66667
0.80949,0.9747,6.4759,0.71206,20.905,26.822,-12.297,4.0989,-0.19756,-16.395,1.546e-10,-0.098781,0,0,0.125,-0,-0,0.66667
0.34474,0.29184,2.7579,-0.31224,-23.327,236.64,2.2963,-0.76544,-1.6552,3.0618,-3.6031e-12,-0.8276,0,0,0.125,-0,-0,0.66667
0.94011,0.84743,7.5209,0.52114,5.0102,3.9864,-10.452,3.4839,-1.0354,-13.936,1.8918e-08,-0.51768,0,0,0.125,2.3685e-15,0,0.66667
0.58201,0.85033,4.6561,0.52549,29.496,107.96,-6.5246,2.1749,-1.0178,-8.6995,-2.6645e-13,-0.50888,0,0,0.125,-1.1842e-15,0,0.66667
0.87883,0.39457,7.0307,-0.15814,-2.984,11.069,2.9649,-0.98831,-1.9102,3.9532,-9.1197e-09,-0.95512,0,0,0.125,-0,-0,0.66667
0.84473,0.6288,6.7579,0.1932,4.6169,17.477,-3.4817,1.1606,-1.8699,-4.6422,1.7664e-09,-0.93497,0,0,0.125,-0,-0,0.66667
0.90539,0.41505,7.2431,-0.12742,-1.8879,7.0421,2.4612,-0.8204,-1.9444,3.2816,-1.367e-08,-0.97221,0,0,0.125,-0,-0,0.66667
0.45988,0.91288,3.679,0.61932,41.557,170.05,-6.0761,2.0254,-0.63457,-8.1014,-1.35e-12,-0.31729,0,0,0.125,-0,-0,0.66667
0.54635,0.89228,4.3708,0.58842,35.092,125.06,-6.8582,2.2861,-0.77118,-9.1443,5.0004e-13,-0.38559,0,0,0.125,-0,-0,0.66667
0.7986,0.060767,6.3888,-0.65885,-20.278,29.345,11.225,-3.7416,-0.4588,14.966,8.7653e-10,-0.2294,0,0,0.125,1.6283e-15,0,0.66667
0.28572,0.024953,2.2858,-0.71257,-55.802,273.98,4.3434,-1.4478,-0.1939,5.7911,-6.0161e-12,-0.096951,0,0,0.125,-0,-0,0.66667
0.49025,0.70925,3.922,0.31387,20.195,153.19,-3.2827,1.0942,-1.648,-4.377,-7.5584e-13,-0.824,0,0,0.125,-5.9212e-16,0,0.66667
0.59911,0.031142,4.7929,-0.70329,-38.423,100.65,8.9887,-2.9962,-0.24127,11.985,3.3209e-12,-0.12063,0,0,0.125,-1.4988e-15,0,0.66667
0.015533,0.94002,0.12427,0.66003,56.222,455.69,-0.21871,0.072898,-0.45501,-0.29162,-7.4841e-06,-0.22751,0,0,0.125,-0,-0,0.66667
0.59348,0.86699,4.7479,0.55048,30.281,102.78,-6.9696,2.3232,-0.92552,-9.2928,-9.0861e-13,-0.46276,0,0,0.125,-0,1.2263e-16,0.66667
0.43368,0.57866,3.4694,0.118,8.1081,184.05,-1.0917,0.36389,-1.9496,-1.4556,-1.3157e-12,-0.97478,0,0,0.125,5.9212e-16,0,0.66667
0.80736,0.82224,6.4589,0.48336,14.196,26.561,-8.3252,2.7751,-1.1678,-11.1,2.19e-10,-0.58392,0,0,0.125,-0,-0,0.66667
0.31524,0.61723,2.522,0.17584,13.417,254.83,-1.1826,0.39419,-1.8904,-1.5768,-1.221e-12,-0.94519,0,0,0.125,-0,-0,0.66667
0.89289,0.51368,7.1431,0.020517,0.343,8.7677,-0.3908,0.13027,-1.9989,-0.52107,2.1592e-08,-0.99943,0,0,0.125,-0,-0,0.66667
0.57786,0.70046,4.6229,0.30069,16.943,109.51,-3.7068,1.2356,-1.6811,-4.9423,-1.2628e-12,-0.84057,0,0,0.125,-0,-0,0.66667
0.18401,0.33289,1.4721,-0.25067,-20.536,340.2,0.98402,-0.32801,-1.776,1.312,6.2695e-10,-0.88802,0,0,0.125,-2.9606e-16,0,0.66667
0.78793,0.74957,6.3034,0.37435,11.948,31.328,-6.2925,2.0975,-1.5011,-8.39,9.6745e-11,-0.75057,0,0,0.125,-1.4063e-15,0,0.66667
0.61203,0.16101,4.8962,-0.50849,-26.977,94.426,6.6392,-2.2131,-1.0815,8.8522,-1.2212e-13,-0.54073,0,0,0.125,-0,-0,0.66667
0.053909,0.075316,0.43127,-0.63703,-54.098,429.14,0.73262,-0.24421,-0.55495,0.97683,-2.4175e-07,-0.27747,0,0,0.125,-0,-0,0.66667
0.42019,0.076161,3.3615,-0.63576,-44.568,192.32,5.699,-1.8997,-0.56381,7.5987,-2.919e-12,-0.28191,0,0,0.125,5.9212e-16,-1.4569e-16,0.66667
0.67907,0.014685,5.4326,-0.72797,-33.45,67.707,10.546,-3.5153,-0.11349,14.061,2.6112e-13,-0.056744,0,0,0.125,-0,-0,0.66667
0.9186,0.96902,7.3488,0.70354,9.3264,6.9396,-13.787,4.5957,-0.24123,-18.383,3.5206e-07,-0.12061,0,0,0.125,-0,5.1557e-18,0.66667
0.00040202,0.73607,0.0032162,0.3541,30.056,466.17,-0.0030368,0.0010118,-1.5566,-0.0040493,-6.8078e-07,-0.77829,0,0,0.125,-5.7824e-19,0,0.66667
0.97676,0.16819,7.8141,-0.49772,-1.7887,1.4896,10.371,-3.457,-1.117,13.828,1.5999e-06,-0.5585,0,0,0.125,-0,-0,0.66667
0.37658,0.33489,3.0126,-0.24766,-18.008,217.33,1.9896,-0.66321,-1.7832,2.6528,-7.8437e-13,-0.89162,0,0,0.125,2.9606e-16,0,0.66667
0.97378,0.62236,7.7903,0.18354,0.70979,0.87881,-3.8129,1.271,-1.8798,-5.0839,-1.0456e-07,-0.93988,0,0,0.125,2.9606e-16,0,0.66667
0.60472,0.84913,4.8377,0.5237,28.19,97.681,-6.756,2.252,-1.0241,-9.008,-1.8296e-13,-0.51207,0,0,0.125,-2.3685e-15,0,0.66667
0.82885,0.61039,6.6308,0.16559,4.3311,20.877,-2.9279,0.97598,-1.9045,-3.9039,9.246e-10,-0.95225,0,0,0.125,-0,-0,0.66667
0.57471,0.63837,4.5977,0.20755,11.749,110.88,-2.5446,0.84822,-1.8462,-3.3929,-1.9074e-13,-0.92311,0,0,0.125,-0,-0,0.66667
0.62808,0.19138,5.0246,-0.46293,-23.753,87.418,6.2028,-2.0676,-1.2386,8.2704,6.1995e-13,-0.6193,0,0,0.125,-0,-0,0.66667
0.28558,0.93256,2.2846,0.64883,50.757,273.98,-3.9529,1.3176,-0.50269,-5.2705,8.3422e-13,-0.25134,0,0,0.125,2.9606e-16,0,0.66667
0.58683,0.65822,4.6947,0.23733,13.153,105.29,-2.9711,0.99038,-1.7988,-3.9615,-8.098e-13,-0.8994,0,0,0.125,-2.3685e-15,0,0.66667
0.75002,0.052986,6.0002,-0.67052,-24.952,43.137,10.729,-3.5762,-0.40457,14.305,5.8167e-12,-0.20228,0,0,0.125,5.9212e-16,0,0.66667
0.85831,0.94407,6.8665,0.66611,14.884,16.017,-12.197,4.0656,-0.42455,-16.263,-2.3949e-08,-0.21228,0,0,0.125,-0,-0,0.66667
0.75508,0.10195,6.0407,-0.59707,-21.773,41.339,9.6178,-3.2059,-0.7312,12.824,4.5829e-11,-0.3656,0,0,0.125,-0,-0,0.66667
0.69806,0.58231,5.5845,0.12346,5.3317,59.434,-1.8386,0.61287,-1.9443,-2.4515,-4.1157e-12,-0.97213,0,0,0.125,-0,-0,0.66667
0.86448,0.19316,6.9158,-0.46025,-9.7564,14.158,8.4881,-2.8294,-1.2458,11.317,-3.0501e-09,-0.62291,0,0,0.125,2.3685e-15,0,0.66667
0.32268,0.015682,2.5814,-0.72648,-55.512,250.75,5.001,-1.667,-0.12166,6.668,-1.5072e-12,-0.060832,0,0,0.125,1.1842e-15,0,0.66667
0.67079,0.14898,5.3663,-0.52653,-24.558,70.26,7.5348,-2.5116,-1.0163,10.046,1.3967e-12,-0.50815,0,0,0.125,-5.9212e-16,1.9288e-16,0.66667
0.45087,0.66329,3.607,0.24493,16.524,174.49,-2.3559,0.7853,-1.7875,-3.1412,-1.8652e-14,-0.89377,0,0,0.125,-0,-0,0.66667
0.3821,0.65826,3.0568,0.23738,17.175,214.04,-1.935,0.64501,-1.7987,-2.58,-1.8996e-12,-0.89934,0,0,0.125,-0,-0,0.66667
0.41081,0.60289,3.2865,0.15434,10.861,197.15,-1.3526,0.45088,-1.9142,-1.8035,5.772e-13,-0.9571,0,0,0.125,-0,-0,0.66667
0.40148,0.65624,3.2118,0.23436,16.652,202.62,-2.0073,0.66909,-1.8049,-2.6764,-9.3769e-13,-0.90245,0,0,0.125,2.6599e-16,0,0.66667
0.31738,0.90403,2.5391,0.60605,46.384,253.87,-4.1035,1.3678,-0.69375,-5.4713,-3.8129e-12,-0.34687,0,0,0.125,1.4803e-16,0,0.66667
0.62192,0.25607,4.9754,-0.3659,-18.984,89.866,4.8546,-1.6182,-1.5242,6.4728,2.6867e-13,-0.76211,0,0,0.125,-0,-0,0.66667
0.43025,0.91629,3.442,0.62444,43.31,186.57,-5.7315,1.9105,-0.61154,-7.642,1.6005e-12,-0.30577,0,0,0.125,1.1842e-15,0,0.66667
0.9738,0.26277,7.7904,-0.35584,-1.4093,1.1997,7.3924,-2.4641,-1.5482,9.8565,3.9635e-07,-0.77409,0,0,0.125,-2.3685e-15,0,0.66667
0.6778,0.52651,5.4224,0.039763,1.8112,66.913,-0.57497,0.19166,-1.9932,-0.76662,-1.2632e-12,-0.9966,0,0,0.125,-0,-0,0.66667
0.19857,0.55568,1.5886,0.083525,6.7983,330.42,-0.35382,0.11794,-1.9743,-0.47177,-2.1321e-10,-0.98717,0,0,0.125,-2.9606e-16,0,0.66667
0.4267,0.66776,3.4136,0.25163,17.433,188.09,-2.2906,0.76354,-1.7734,-3.0542,-3.3373e-13,-0.88672,0,0,0.125,-0,-0,0.66667
0.34335,0.20883,2.7468,-0.43675,-32.708,237.61,3.1991,-1.0664,-1.3244,4.2655,-1.4271e-12,-0.66219,0,0,0.125,-0,-0,0.66667
0.79764,0.69944,6.3811,0.29916,9.1396,28.617,-5.0905,1.6968,-1.6838,-6.7874,1.9976e-10,-0.84191,0,0,0.125,-0,-0,0.66667
0.88,0.89083,7.04,0.58625,11.153,11.873,-11.006,3.6686,-0.77636,-14.675,-1.2936e-08,-0.38818,0,0,0.125,-0,-0,0.66667
0.90384,0.68531,7.2307,0.27797,4.2025,7.448,-5.3598,1.7866,-1.7267,-7.1464,2.1349e-08,-0.86336,0,0,0.125,-2.9606e-16,0,0.66667
0.66272,0.6735,5.3018,0.26025,12.321,72.91,-3.6794,1.2265,-1.757,-4.9059,-3.4286e-12,-0.87852,0,0,0.125,-0,-0,0.66667
0.27021,0.57254,2.1617,0.1088,8.5446,283.42,-0.62719,0.20906,-1.9567,-0.83626,7.026e-12,-0.97836,0,0,0.125,-0,-0,0.66667
0.25237,0.90755,2.0189,0.61133,48.725,295.29,-3.2913,1.0971,-0.67286,-4.3884,2.515e-11,-0.33643,0,0,0.125,5.9212e-16,0,0.66667
0.8549,0.60397,6.8392,0.15596,3.4949,15.397,-2.8443,0.94811,-1.9124,-3.7924,3.1419e-09,-0.95618,0,0,0.125,-0,-0,0.66667
0.52771,0.4464,4.2217,-0.080401,-4.9039,133.66,0.90514,-0.30171,-1.9766,1.2069,-2.3306e-12,-0.98829,0,0,0.125,1.1842e-15,0,0.66667
0.80216,0.39913,6.4173,-0.1513,-4.5185,27.265,2.5891,-0.86304,-1.9174,3.4522,-1.1863e-10,-0.95868,0,0,0.125,-5.9212e-16,0,0.66667
0.57249,0.070747,4.5799,-0.64388,-36.838,112.68,7.8638,-2.6213,-0.52441,10.485,-1.1635e-12,-0.26221,0,0,0.125,1.1842e-15,0,0.66667
0.73314,0.94816,5.8651,0.67224,26.454,48.493,-10.514,3.5047,-0.3948,-14.019,1.9442e-12,-0.1974,0,0,0.125,-0,1.3307e-16,0.66667
0.51901,0.096499,4.1521,-0.60525,-37.612,138.74,6.7015,-2.2338,-0.69802,8.9353,-1.9806e-13,-0.34901,0,0,0.125,1.1842e-15,0,0.66667
0.77088,0.68874,6.1671,0.28311,9.6603,35.915,-4.6558,1.5519,-1.7147,-6.2077,1.5713e-11,-0.85736,0,0,0.125,-2.3685e-15,0,0.66667
0.56886,0.32867,4.5509,-0.257,-14.701,113.68,3.1188,-1.0396,-1.763,4.1584,-1.1753e-12,-0.88152,0,0,0.125,1.1842e-15,0,0.66667
0.46571,0.26073,3.7257,-0.3589,-23.822,166.44,3.5657,-1.1886,-1.5418,4.7543,-1.2523e-13,-0.77091,0,0,0.125,-0,-0,0.66667
0.34269,0.83409,2.7415,0.50114,37.58,238.08,-3.6637,1.2212,-1.1089,-4.8849,2.1694e-13,-0.55445,0,0,0.125,-0,-0,0.66667
0.068209,0.32015,0.54567,-0.26978,-22.777,419.2,0.39256,-0.13085,-1.7397,0.52341,1.5655e-08,-0.86987,0,0,0.125,-0,-0,0.66667
0.37792,0.6022,3.0234,0.1533,11.127,216.48,-1.2359,0.41198,-1.9165,-1.6479,-2.4847e-13,-0.95827,0,0,0.125,-0,-0,0.66667
0.079626,0.7934,0.63701,0.44011,37.149,411.35,-0.7476,0.2492,-1.3125,-0.9968,-5.3037e-08,-0.65625,0,0,0.125,-0,-0,0.66667
0.98282,0.91129,7.8625,0.61694,1.6773,1.7252,-12.935,4.3117,-0.64852,-17.247,2.6245e-08,-0.32426,0,0,0.125,-0,8.0103e-17,0.66667
0.18161,0.26992,1.4529,-0.34513,-28.321,341.84,1.3372,-0.44572,-1.5746,1.7829,6.5303e-10,-0.78731,0,0,0.125,2.9606e-16,0,0.66667
0.81186,0.75257,6.4949,0.37885,10.856,25.196,-6.5616,2.1872,-1.4929,-8.7488,4.4841e-10,-0.74647,0,0,0.125,-0,-0,0.66667
0.87496,0.75787,6.9997,0.3868,7.5726,12.111,-7.22,2.4067,-1.4713,-9.6266,9.2483e-09,-0.73566,0,0,0.125,-0,-0,0.66667
0.68841,0.50119,5.5073,0.0017857,0.07912,62.925,-0.026225,0.0087415,-2.0032,-0.034966,2.3099e-12,-1.0016,0,0,0.125,-4.737e-15,0,0.66667
0.56949,0.1455,4.556,-0.53175,-30.505,113.82,6.4603,-2.1534,-0.99257,8.6137,-1.6787e-12,-0.49629,0,0,0.125,5.9212e-16,0,0.66667
0.16097,0.39547,1.2878,-0.15679,-12.946,355.69,0.53844,-0.17948,-1.9113,0.71792,1.299e-09,-0.95563,0,0,0.125,-1.4803e-16,0,0.66667
0.46688,0.13774,3.735,-0.54339,-36.111,166.08,5.4122,-1.8041,-0.95091,7.2163,-2.5344e-12,-0.47546,0,0,0.125,1.1842e-15,0,0.66667
0.34517,0.58735,2.7614,0.13102,9.7744,236.27,-0.96481,0.3216,-1.9407,-1.2864,-2.3321e-12,-0.97037,0,0,0.125,5.9212e-16,0,0.66667
0.22504,0.22191,1.8003,-0.41714,-33.625,313,2.0026,-0.66754,-1.3803,2.6702,2.8308e-11,-0.69015,0,0,0.125,-5.9212e-16,0,0.66667
0.59251,0.67916,4.7401,0.26873,14.745,102.73,-3.3969,1.1323,-1.745,-4.5292,-1.0203e-12,-0.87249,0,0,0.125,-0,-0,0.66667
0.31227,0.47161,2.4982,-0.042588,-3.255,256.66,0.28371,-0.09457,-1.9973,0.37828,-1.1689e-12,-0.99865,0,0,0.125,1.1842e-15,0,0.66667
0.91631,0.91367,7.3304,0.6205,8.3781,6.8515,-12.13,4.0432,-0.62962,-16.173,4.3018e-08,-0.31481,0,0,0.125,-0,-0,0.66667
0.90964,0.17183,7.2771,-0.49225,-7.0852,7.2143,9.5524,-3.1841,-1.1378,12.737,-8.1685e-09,-0.5689,0,0,0.125,-1.1842e-15,0,0.66667
0.25712,0.53442,2.0569,0.051628,4.0843,291.87,-0.28319,0.094396,-1.9893,-0.37758,2.2605e-12,-0.99467,0,0,0.125,5.9212e-16,0,0.66667
0.11089,0.86258,0.88713,0.54387,45.689,389.91,-1.2866,0.42888,-0.94942,-1.7155,-9.3756e-09,-0.47471,0,0,0.125,-0,-0,0.66667
0.19296,0.99456,1.5437,0.74184,60.937,334.54,-3.0538,1.0179,-0.042169,-4.0718,6.5347e-11,-0.021084,0,0,0.125,-8.8818e-16,0,0.66667
0.49958,0.71834,3.9967,0.32751,20.817,148.3,-3.4905,1.1635,-1.6226,-4.654,-2.2227e-13,-0.81131,0,0,0.125,6.6613e-16,0,0.66667
0.72859,0.25635,5.8287,-0.36547,-14.469,49.161,5.6806,-1.8935,-1.5237,7.5742,1.441e-11,-0.76186,0,0,0.125,-2.3685e-15,0,0.66667
0.20819,0.34881,1.6656,-0.22678,-18.393,324.05,1.0072,-0.33575,-1.8163,1.343,1.2494e-10,-0.90813,0,0,0.125,-0,-0,0.66667
0.24803,0.42095,1.9843,-0.11857,-9.4282,297.79,0.62741,-0.20914,-1.9506,0.83655,-7.7036e-12,-0.97531,0,0,0.125,-0,-0,0.66667
0.85167,0.62289,6.8134,0.18434,4.2193,16.061,-3.3492,1.1164,-1.8782,-4.4656,2.3349e-09,-0.93908,0,0,0.125,5.9212e-16,0,0.66667
0.41585,0.92533,3.3268,0.63799,44.924,194.81,-5.6599,1.8866,-0.55084,-7.5465,-8.3045e-14,-0.27542,0,0,0.125,5.9212e-16,0,0.66667
0.61669,0.80406,4.9335,0.45609,23.951,92.289,-6.0003,2.0001,-1.2585,-8.0003,-8.2601e-13,-0.62923,0,0,0.125,-0,-0,0.66667
0.23367,0.01841,1.8693,-0.72239,-58.247,307.62,3.601,-1.2003,-0.14662,4.8013,-6.8821e-11,-0.073311,0,0,0.125,-0,-0,0.66667
0.10197,0.34928,0.81574,-0.22608,-18.972,395.94,0.4918,-0.16393,-1.8167,0.65574,1.4978e-08,-0.90834,0,0,0.125,-0,-0,0.66667
0.51586,0.46645,4.1269,-0.05032,-3.1221,139.68,0.55377,-0.18459,-1.9948,0.73836,-2.3148e-12,-0.99742,0,0,0.125,5.9212e-16,0,0.66667
0.47714,0.213,3.8171,-0.43049,-28.204,160.34,4.382,-1.4607,-1.3395,5.8427,8.9795e-13,-0.66974,0,0,0.125,2.9606e-16,0,0.66667
0.15267,0.02292,1.2214,-0.71562,-59.605,361.58,2.3308,-0.77692,-0.17876,3.1077,-4.3169e-09,-0.089378,0,0,0.125,-0,-0,0.66667
0.62181,0.75101,4.9744,0.37651,19.542,89.933,-4.9945,1.6648,-1.497,-6.6594,-3.7748e-14,-0.74848,0,0,0.125,-2.3685e-15,0,0.66667
0.54401,0.69071,4.3521,0.28607,17.044,125.7,-3.32,1.1067,-1.7099,-4.4267,5.1736e-14,-0.85495,0,0,0.125,-0,-0,0.66667
0.65414,0.1128,5.2331,-0.58081,-28.219,76.951,8.1051,-2.7017,-0.80114,10.807,-1.2257e-13,-0.40057,0,0,0.125,-0,-0,0.66667
0.14455,0.12956,1.1564,-0.55567,-46.28,366.98,1.7135,-0.57116,-0.90202,2.2846,3.1088e-09,-0.45101,0,0,0.125,-0,-0,0.66667
0.75153,0.27947,6.0122,-0.3308,-12.13,41.764,5.3036,-1.7679,-1.6133,7.0715,1.7123e-11,-0.80666,0,0,0.125,1.4803e-16,0,0.66667
0.22205,0.25541,1.7764,-0.36688,-29.601,314.94,1.7379,-0.57931,-1.5216,2.3172,2.0637e-11,-0.76079,0,0,0.125,-0,-0,0.66667
0.51935,0.46352,4.1548,-0.05472,-3.3782,137.9,0.60628,-0.20209,-1.9892,0.80837,-9.1527e-13,-0.99461,0,0,0.125,-5.9212e-16,0,0.66667
0.7853,0.42123,6.2824,-0.11816,-3.7977,31.689,1.9795,-0.65984,-1.9493,2.6394,-4.9492e-11,-0.97463,0,0,0.125,-0,-0,0.66667
0.02233,0.58435,0.17864,0.12653,10.72,450.95,-0.060276,0.020092,-1.9411,-0.080367,8.1722e-08,-0.97057,0,0,0.125,-0,-0,0.66667
0.32436,0.65355,2.5949,0.23033,17.465,249.16,-1.5938,0.53127,-1.8116,-2.1251,1.4441e-12,-0.90582,0,0,0.125,6.6613e-16,0,0.66667
0.87292,0.19874,6.9834,-0.45189,-9.01,12.631,8.4153,-2.8051,-1.2746,11.22,-6.9009e-09,-0.63728,0,0,0.125,-0,-0,0.66667
0.84471,0.51017,6.7577,0.015252,0.36395,17.371,-0.27486,0.091618,-2.0011,-0.36647,-1.161e-09,-1.0005,0,0,0.125,-0,-0,0.66667
0.53844,0.56601,4.3075,0.099019,5.9432,128.31,-1.1374,0.37914,-1.9639,-1.5165,7.4118e-13,-0.98195,0,0,0.125,-1.1842e-15,0,0.66667
0.86661,0.38999,6.9329,-0.16502,-3.4145,13.202,3.0508,-1.0169,-1.9009,4.0677,-4.0459e-09,-0.95045,0,0,0.125,-0,-0,0.66667
0.94981,0.8486,7.5984,0.52291,4.2102,3.1835,-10.595,3.5318,-1.028,-14.127,1.7077e-07,-0.51402,0,0,0.125,-2.3685e-15,0,0.66667
0.82641,0.60697,6.6113,0.16046,4.2518,21.424,-2.8288,0.94295,-1.9094,-3.7718,8.0639e-10,-0.95468,0,0,0.125,-0,-0,0.66667
0.85412,0.52038,6.8329,0.030564,0.68768,15.478,-0.55692,0.18564,-1.9951,-0.74256,4.2059e-10,-0.99754,0,0,0.125,-0,-0,0.66667
0.098743,0.73637,0.78995,0.35456,29.8,398.18,-0.74689,0.24896,-1.5514,-0.99586,-2.4119e-08,-0.77571,0,0,0.125,-1.4803e-16,0,0.66667
0.6513,0.435,5.2104,-0.097499,-4.7347,77.331,1.3547,-0.45157,-1.9658,1.8063,-7.1498e-14,-0.9829,0,0,0.125,1.6283e-15,0,0.66667
0.70352,0.62066,5.6281,0.18099,7.7012,57.519,-2.7164,0.90547,-1.8868,-3.6219,-6.5021e-12,-0.9434,0,0,0.125,-0,-0,0.66667
0.61024,0.35589,4.8819,-0.21617,-11.461,94.751,2.8142,-0.93806,-1.8358,3.7522,-1.1271e-12,-0.91788,0,0,0.125,-0,-0,0.66667
0.79962,0.88475,6.3969,0.57712,17.622,28.799,-9.8449,3.2816,-0.81587,-13.126,-1.6472e-10,-0.40794,0,0,0.125,-0,-0,0.66667
0.034571,0.93998,0.27657,0.65997,56.163,442.51,-0.48675,0.16225,-0.45197,-0.649,-1.0304e-06,-0.22598,0,0,0.125,-0,-0,0.66667
0.77024,0.15509,6.1619,-0.51737,-17.798,36.615,8.5012,-2.8337,-1.0483,11.335,-9.6493e-11,-0.52416,0,0,0.125,-0,-0,0.66667
0.73173,0.61159,5.8538,0.16738,6.5428,47.851,-2.6128,0.87095,-1.9004,-3.4838,-9.6632e-12,-0.9502,0,0,0.125,-1.1842e-15,0,0.66667
0.2597,0.55495,2.0776,0.08243,6.5121,290.21,-0.45668,0.15223,-1.9743,-0.60891,3.5145e-12,-0.98715,0,0,0.125,-0,-0,0.66667
0.25707,0.081222,2.0566,-0.62817,-49.952,292.26,3.445,-1.1483,-0.59481,4.5933,6.9877e-12,-0.2974,0,0,0.125,-0,-0,0.66667
0.6323,0.95857,5.0584,0.68785,35.166,86.216,-9.2786,3.0929,-0.31564,-12.371,8.6153e-14,-0.15782,0,0,0.125,-0,-0,0.66667
0.3453,0.50138,2.7624,0.0020751,0.15475,236.18,-0.015286,0.0050953,-2.0024,-0.020381,-3.8375e-13,-1.0012,0,0,0.125,-0,-0,0.66667
0.79659,0.49989,6.3727,-0.00016278,-0.0049811,28.636,0.0027663,-0.0009221,-2.0042,0.0036884,-1.3943e-10,-1.0021,0,0,0.125,1.8966e-15,0,0.66667
0.44615,0.54442,3.5692,0.066626,4.5152,177.03,-0.63413,0.21138,-1.982,-0.8455,-1.3237e-12,-0.99101,0,0,0.125,-0,-0,0.66667
0.78275,0.6879,6.262,0.28185,9.174,32.57,-4.7066,1.5689,-1.7203,-6.2754,5.3149e-11,-0.86013,0,0,0.125,-0,-0,0.66667
0.99047,0.67713,7.9238,0.2657,0.29446,0.41836,-5.6142,1.8714,-1.7471,-7.4857,1.6507e-07,-0.87356,0,0,0.125,1.1842e-15,0,0.66667
0.30025,0.3487,2.402,-0.22695,-17.5,264.29,1.4537,-0.48456,-1.817,1.9382,-5.9517e-12,-0.90852,0,0,0.125,-0,-0,0.66667
0.14301,0.21311,1.144,-0.43034,-35.803,367.96,1.3129,-0.43762,-1.3425,1.7505,3.8488e-09,-0.67123,0,0,0.125,-2.2204e-16,0,0.66667
0.90131,0.60768,7.2105,0.16153,2.4965,7.6326,-3.1058,1.0353,-1.9056,-4.1411,9.0674e-09,-0.95282,0,0,0.125,-0,-0,0.66667
0.54156,0.77411,4.3325,0.41117,24.628,127.07,-4.7504,1.5835,-1.3976,-6.3338,5.7065e-13,-0.69881,0,0,0.125,8.8818e-16,0,0.66667
0.97474,0.61732,7.7979,0.17598,0.65207,0.82548,-3.6594,1.2198,-1.8883,-4.8792,-6.0824e-08,-0.94415,0,0,0.125,-0,-0,0.66667
0.6366,0.46662,5.0928,-0.050077,-2.5124,83.354,0.68009,-0.2267,-1.9913,0.90679,3.8447e-13,-0.99564,0,0,0.125,-1.6283e-15,0,0.66667
0.99391,0.27526,7.9513,-0.3371,-0.1922,0.49584,7.1478,-2.3826,-1.5945,9.5304,-3.7772e-07,-0.79727,0,0,0.125,5.9212e-16,0,0.66667
0.54607,0.10574,4.3686,-0.59139,-35.287,125.2,6.8894,-2.2965,-0.75844,9.1859,-1.1942e-12,-0.37922,0,0,0.125,1.1842e-15,0,0.66667
0.52643,0.39061,4.2114,-0.16408,-10.03,134.35,1.8427,-0.61423,-1.9027,2.4569,2.1139e-13,-0.95137,0,0,0.125,-1.1842e-15,0,0.66667
0.13543,0.69224,1.0834,0.28837,24.012,373.06,-0.83312,0.27771,-1.7034,-1.1108,-6.267e-09,-0.85172,0,0,0.125,2.9606e-16,0,0.66667
0.35571,0.048348,2.8456,-0.67748,-50.424,230.41,5.141,-1.7137,-0.36726,6.8546,-2.0837e-12,-0.18363,0,0,0.125,-5.9212e-16,-1.9103e-16,0.66667
0.026219,0.56508,0.20975,0.09762,8.2685,448.25,-0.054602,0.018201,-1.9657,-0.072802,5.2269e-07,-0.98283,0,0,0.125,-0,-0,0.66667
0.1604,0.055937,1.2832,-0.6661,-55.296,356.32,2.2792,-0.75974,-0.42188,3.039,3.3368e-10,-0.21094,0,0,0.125,1.4803e-16,0,0.66667
0.74564,0.14103,5.9651,-0.53846,-20.25,44.075,8.5653,-2.8551,-0.96781,11.42,1.6543e-11,-0.4839,0,0,0.125,-1.1842e-15,0,0.66667
0.0304,0.50571,0.2432,0.0085664,0.72532,445.35,-0.0055558,0.0018543,-2.0023,-0.0074065,3.5013e-06,-1.0011,0,0,0.125,-0,-0,0.66667
0.36654,0.95013,2.9323,0.67519,49.8,223.86,-5.2797,1.7599,-0.37689,-7.0396,-4.8939e-13,-0.18845,0,0,0.125,-5.9212e-16,0,0.66667
0.86235,0.0080939,6.8988,-0.73786,-16.128,15.571,13.574,-4.5247,-0.064319,18.099,-1.017e-08,-0.032159,0,0,0.125,4.737e-15,0,0.66667
0.69268,0.3833,5.5414,-0.17505,-7.6738,61.429,2.5867,-0.86222,-1.8897,3.4489,3.7155e-12,-0.94486,0,0,0.125,-0,-0,0.66667
0.69094,0.14015,5.5275,-0.53977,-23.919,62.707,7.9563,-2.6521,-0.9634,10.608,2.0077e-12,-0.4817,0,0,0.125,-0,-0,0.66667
0.18864,0.91449,1.5091,0.62174,51.054,337.32,-2.502,0.83401,-0.62745,-3.336,9.2589e-10,-0.31372,0,0,0.125,5.9212e-16,0,0.66667
0.4419,0.37747,3.5352,-0.18379,-12.52,179.45,1.7326,-0.57754,-1.8798,2.3102,1.401e-12,-0.9399,0,0,0.125,-0,-0,0.66667
0.58158,0.72005,4.6526,0.33007,18.484,107.82,-4.0952,1.3651,-1.6134,-5.4603,-5.4268e-13,-0.80669,0,0,0.125,-0,-0,0.66667
0.98975,0.53793,7.918,0.056899,0.066002,0.19896,-1.2014,0.40047,-1.9872,-1.6019,-2.1915e-06,-0.99362,0,0,0.125,-0,-0,0.66667
0.20391,0.43516,1.6312,-0.097265,-7.8991,326.87,0.4231,-0.14103,-1.9695,0.56414,1.5579e-10,-0.98476,0,0,0.125,1.1102e-16,0,0.66667
0.24773,0.10903,1.9819,-0.58645,-46.839,298.28,3.0994,-1.0331,-0.77748,4.1325,-1.7009e-13,-0.38874,0,0,0.125,-0,-0,0.66667
0.26217,0.87064,2.0974,0.55596,44.035,288.88,-3.1095,1.0365,-0.9012,-4.146,3.8998e-11,-0.4506,0,0,0.125,-1.4803e-16,0,0.66667
0.75017,0.16266,6.0014,-0.50601,-18.719,42.574,8.098,-2.6993,-1.0929,10.797,3.5342e-11,-0.54644,0,0,0.125,-0,-0,0.66667
0.45698,0.75884,3.6558,0.38826,26.047,171.26,-3.7851,1.2617,-1.4634,-5.0468,-1.205e-12,-0.73168,0,0,0.125,-0,-0,0.66667
0.056929,0.63569,0.45544,0.20353,17.201,426.99,-0.24718,0.082395,-1.851,-0.32958,4.0107e-08,-0.9255,0,0,0.125,-0,-0,0.66667
0.50852,0.45822,4.0681,-0.062668,-3.9285,143.46,0.67984,-0.22661,-1.984,0.90646,3.4245e-13,-0.99198,0,0,0.125,-0,-0,0.66667
0.21196,0.051528,1.6957,-0.67271,-54.749,321.85,3.0419,-1.014,-0.38892,4.0558,2.5068e-10,-0.19446,0,0,0.125,2.9606e-16,0,0.66667
0.7986,0.30729,6.3888,-0.28906,-8.7914,28.35,4.9247,-1.6416,-1.7045,6.5663,-2.203e-10,-0.85226,0,0,0.125,1.7764e-15,0,0.66667
0.29733,0.52923,2.3787,0.043851,3.3856,266.08,-0.27815,0.092716,-1.9968,-0.37086,-1.436e-12,-0.99839,0,0,0.125,-2.9606e-16,0,0.66667
0.027606,0.46876,0.22085,-0.046866,-3.9689,447.29,0.027601,-0.009199,-1.9931,0.036802,1.8095e-06,-0.99654,0,0,0.125,-0,-0,0.66667
0.59343,0.62718,4.7475,0.19077,10.442,102.23,-2.4151,0.80504,-1.8744,-3.2202,-1.2705e-12,-0.93718,0,0,0.125,-0,-0,0.66667
0.84384,0.30896,6.7507,-0.28656,-6.8981,17.797,5.1586,-1.7195,-1.7118,6.8782,-2.4377e-09,-0.85592,0,0,0.125,-5.9212e-16,0,0.66667
0.38102,0.89776,3.0481,0.59664,43.394,215.09,-4.8497,1.6166,-0.73262,-6.4663,-2.0224e-12,-0.36631,0,0,0.125,2.9606e-16,0,0.66667
0.74986,0.95443,5.9989,0.68164,25.391,43.227,-10.904,3.6347,-0.3507,-14.539,-2.319e-12,-0.17535,0,0,0.125,1.1842e-15,0,0.66667
0.51114,0.4202,4.0891,-0.11969,-7.4772,142.13,1.3052,-0.43506,-1.9477,1.7402,-9.9332e-13,-0.97386,0,0,0.125,-0,-0,0.66667
0.54095,0.70737,4.3276,0.31106,18.626,127.23,-3.5897,1.1966,-1.6541,-4.7863,1.4433e-13,-0.82705,0,0,0.125,-5.9212e-16,0,0.66667
0.95943,0.57324,7.6755,0.10986,0.68242,1.6091,-2.2485,0.74951,-1.9551,-2.998,1.1898e-07,-0.97757,0,0,0.125,-0,-0,0.66667
0.80396,0.57202,6.4317,0.10803,3.1983,26.776,-1.8528,0.6176,-1.9565,-2.4704,2.4237e-10,-0.97825,0,0,0.125,-0,-0,0.66667
0.032323,0.24778,0.25858,-0.37832,-32.085,444.04,0.26088,-0.086959,-1.4939,0.34784,-2.9645e-07,-0.74696,0,0,0.125,-0,-0,0.66667
0.70939,0.71073,5.6751,0.3161,13.248,55.616,-4.7837,1.5946,-1.643,-6.3783,-9.7051e-12,-0.82152,0,0,0.125,1.1842e-15,0,0.66667
0.465,0.32335,3.72,-0.26497,-17.586,166.73,2.6285,-0.87617,-1.7496,3.5047,-9.8055e-13,-0.87481,0,0,0.125,-0,-0,0.66667
0.94755,0.90312,7.5804,0.60468,5.1475,3.6716,-12.223,4.0744,-0.69917,-16.298,-3.2861e-07,-0.34959,0,0,0.125,2.8053e-16,0,0.66667
0.22143,0.92424,1.7715,0.63635,51.536,315.56,-3.0061,1.002,-0.56017,-4.0081,3.9539e-11,-0.28008,0,0,0.125,-0,-0,0.66667
0.26707,0.027346,2.1366,-0.70898,-56.14,285.91,4.0394,-1.3465,-0.2149,5.3859,-4.6478e-12,-0.10745,0,0,0.125,2.9606e-16,0,0.66667
0.081474,0.59929,0.65179,0.14893,12.541,410.03,-0.25885,0.086285,-1.9212,-0.34514,-1.0736e-08,-0.96062,0,0,0.125,-0,-0,0.66667
0.42862,0.26328,3.429,-0.35508,-24.573,187.09,3.2468,-1.0823,-1.5495,4.3291,-2.2204e-15,-0.77477,0,0,0.125,-0,-0,0.66667
0.10902,0.46135,0.87215,-0.057968,-4.8542,391.08,0.13482,-0.044939,-1.991,0.17976,-7.161e-09,-0.99548,0,0,0.125,1.4803e-16,0,0.66667
0.63379,0.33156,5.0703,-0.25267,-12.77,84.672,3.4163,-1.1388,-1.7709,4.555,4.7962e-14,-0.88543,0,0,0.125,5.9212e-16,0,0.66667
0.80296,0.89313,6.4237,0.58969,17.745,27.989,-10.101,3.3671,-0.7616,-13.468,6.027e-10,-0.3808,0,0,0.125,-1.1842e-15,0,0.66667
0.6968,0.209,5.5744,-0.4365,-18.995,60.323,6.4886,-2.1629,-1.3207,8.6515,4.9765e-12,-0.66034,0,0,0.125,5.9212e-16,0,0.66667
0.76621,0.18089,6.1297,-0.47867,-16.701,37.679,7.8242,-2.6081,-1.1881,10.432,3.4572e-11,-0.59403,0,0,0.125,-0,-0,0.66667
0.34245,0.071596,2.7396,-0.64261,-48.305,238.42,4.6947,-1.5649,-0.53338,6.2596,-1.6347e-12,-0.26669,0,0,0.125,5.9212e-16,0,0.66667
0.84585,0.9988,6.7668,0.74821,18.165,18.818,-13.501,4.5004,-0.011487,-18.002,-3.7063e-09,-0.0057433,0,0,0.125,1.3323e-15,0,0.66667
0.42877,0.20554,3.4302,-0.44169,-30.593,187.11,4.0402,-1.3467,-1.3041,5.3869,5.2536e-13,-0.65207,0,0,0.125,-0,-0,0.66667
0.82401,0.509,6.5921,0.013498,0.36187,21.899,-0.23728,0.079093,-1.9985,-0.31637,3.4025e-11,-0.99926,0,0,0.125,-0,-0,0.66667
0.6265,0.23424,5.012,-0.39864,-20.499,87.965,5.328,-1.776,-1.4361,7.1039,2.5047e-13,-0.71803,0,0,0.125,-0,-0,0.66667
0.14342,0.33686,1.1474,-0.2447,-20.324,367.61,0.74872,-0.24957,-1.7875,0.99829,4.1232e-09,-0.89373,0,0,0.125,-1.4803e-16,0,0.66667
0.078387,0.42365,0.6271,-0.11453,-9.648,412.16,0.19152,-0.063842,-1.9559,0.25537,1.1529e-08,-0.97797,0,0,0.125,-0,-0,0.66667
0.018333,0.35307,0.14666,-0.2204,-18.684,453.73,0.086198,-0.028733,-1.8275,0.11493,-3.1984e-08,-0.91374,0,0,0.125,-0,-0,0.66667
0.066725,0.97154,0.5338,0.70731,60.043,420.32,-1.0068,0.33561,-0.22116,-1.3424,-3.0064e-07,-0.11058,0,0,0.125,-0,-0,0.66667
0.45858,0.0013703,3.6687,-0.74794,-50.4,171.04,7.3172,-2.4391,-0.010537,9.7563,-6.5326e-13,-0.0052684,0,0,0.125,2.3685e-15,0,0.66667
0.11334,0.96778,0.90674,0.70167,59.056,388.31,-1.6966,0.56554,-0.24989,-2.2622,-2.3664e-08,-0.12495,0,0,0.125,2.1279e-16,0,0.66667
0.027783,0.34728,0.22227,-0.22908,-19.412,447.17,0.13578,-0.045259,-1.8137,0.18104,-1.1075e-07,-0.90687,0,0,0.125,-0,-0,0.66667
0.75486,0.18688,6.0389,-0.46968,-17.075,41.041,7.5636,-2.5212,-1.2157,10.085,-1.5086e-11,-0.60783,0,0,0.125,1.2212e-15,0,0.66667
0.39485,0.25428,3.1588,-0.36858,-26.385,206.62,3.1047,-1.0349,-1.5167,4.1396,-1.1349e-12,-0.75834,0,0,0.125,-0,-0,0.66667
0.74694,0.36221,5.9755,-0.20668,-7.6854,43.012,3.2934,-1.0978,-1.8478,4.3912,1.1259e-11,-0.9239,0,0,0.125,-0,-0,0.66667
0.4524,0.14295,3.6192,-0.53558,-36.196,174.01,5.169,-1.723,-0.98213,6.8921,-3.2685e-13,-0.49106,0,0,0.125,-0,-0,0.66667
0.45009,0.72696,3.6007,0.34044,23.008,175.02,-3.2689,1.0896,-1.5879,-4.3585,5.7421e-13,-0.79396,0,0,0.125,-0,-0,0.66667
0.47807,0.38599,3.8246,-0.17101,-11.163,159.58,1.7441,-0.58136,-1.8941,2.3255,2.4081e-13,-0.94703,0,0,0.125,-0,-0,0.66667
0.474,0.36327,3.792,-0.2051,-13.459,161.79,2.074,-0.69133,-1.8488,2.7653,3.7725e-13,-0.92439,0,0,0.125,-0,-0,0.66667
0.80316,0.22394,6.4253,-0.4141,-12.374,27.435,7.0952,-2.3651,-1.389,9.4603,-2.9756e-10,-0.69448,0,0,0.125,-2.3685e-15,0,0.66667
0.40239,0.26003,3.2191,-0.35996,-25.581,202.2,3.09,-1.03,-1.5386,4.12,-3.9413e-13,-0.76928,0,0,0.125,-0,-0,0.66667
0.90469,0.54607,7.2375,0.069107,1.0306,7.1004,-1.3338,0.44459,-1.9841,-1.7784,5.0931e-09,-0.99203,0,0,0.125,1.1842e-15,0,0.66667
0.037061,0.36103,0.29649,-0.20845,-17.651,440.74,0.16481,-0.054936,-1.8436,0.21974,-7.6447e-08,-0.92178,0,0,0.125,-7.4015e-17,0,0.66667
0.77387,0.022193,6.191,-0.71671,-24.496,36.252,11.832,-3.9441,-0.17162,15.777,5.6398e-11,-0.085808,0,0,0.125,-0,-0,0.66667
0.12564,0.30208,1.0051,-0.29688,-24.787,379.74,0.79573,-0.26524,-1.6889,1.061,8.9376e-09,-0.84445,0,0,0.125,-1.4803e-16,0,0.66667
0.61851,0.73591,4.9481,0.35386,18.484,91.315,-4.6692,1.5564,-1.5526,-6.2256,-1.0081e-12,-0.77632,0,0,0.125,-7.3247e-16,0,0.66667
0.010364,0.67108,0.082914,0.25662,21.763,459.25,-0.056739,0.018913,-1.7641,-0.075652,-1.4083e-07,-0.88206,0,0,0.125,-0,-0,0.66667
0.53863,0.61673,4.309,0.1751,10.51,128.25,-2.012,0.67066,-1.8891,-2.6827,-2.0384e-13,-0.94454,0,0,0.125,5.9212e-16,0,0.66667
0.003018,0.17081,0.024144,-0.49378,-41.972,464.35,0.031791,-0.010596,-1.1327,0.042388,1.367e-06,-0.56637,0,0,0.125,-0,2.9469e-16,0.66667
0.95119,0.70633,7.6096,0.30949,2.3652,2.4768,-6.2802,2.0934,-1.6602,-8.3736,-6.3336e-08,-0.83008,0,0,0.125,-0,-0,0.66667
0.9054,0.10992,7.2432,-0.58512,-8.8662,8.0906,11.302,-3.7672,-0.78453,15.069,-3.2603e-08,-0.39227,0,0,0.125,-1.1842e-15,1.4785e-16,0.66667
0.79597,0.86274,6.3677,0.54411,16.864,29.636,-9.2393,3.0798,-0.9492,-12.319,-6.1644e-11,-0.4746,0,0,0.125,1.1842e-15,-1.6395e-16,0.66667
0.91527,0.80119,7.3222,0.45178,6.088,6.3865,-8.8213,2.9404,-1.2722,-11.762,3.5019e-08,-0.63612,0,0,0.125,-0,-0,0.66667
0.14556,0.38076,1.1645,-0.17885,-14.841,366.15,0.55539,-0.18513,-1.8853,0.74052,3.0496e-09,-0.94267,0,0,0.125,-0,-0,0.66667
0.15773,0.45044,1.2618,-0.074336,-6.1426,357.88,0.25013,-0.083378,-1.9815,0.33351,6.4508e-10,-0.99076,0,0,0.125,2.9606e-16,0,0.66667
0.18763,0.90376,1.5011,0.60564,49.739,337.98,-2.4243,0.80809,-0.69976,-3.2323,1.7946e-09,-0.34988,0,0,0.125,-3.3307e-16,0,0.66667
0.6225,0.46076,4.98,-0.058862,-3.0424,89.33,0.78168,-0.26056,-1.9882,1.0422,-7.1426e-13,-0.99409,0,0,0.125,-0,-0,0.66667
0.90581,0.9188,7.2465,0.62819,9.5134,8.2048,-12.139,4.0464,-0.59927,-16.186,5.8431e-08,-0.29964,0,0,0.125,-0,-0,0.66667
0.98996,0.98044,7.9196,0.72066,1.197,2.0105,-15.22,5.0733,-0.15172,-20.293,3.7724e-05,-0.075859,0,0,0.125,-0,-0,0.66667
0.71112,0.40281,5.689,-0.14579,-6.0675,54.811,2.2117,-0.73722,-1.9232,2.9489,5.2263e-12,-0.96158,0,0,0.125,1.4803e-15,0,0.66667
0.7318,0.74508,5.8544,0.36762,14.408,48.106,-5.7392,1.9131,-1.5203,-7.6523,-1.5341e-11,-0.76016,0,0,0.125,2.9606e-16,0,0.66667
0.90929,0.85251,7.2743,0.52876,7.6592,7.3788,-10.257,3.419,-1.0059,-13.676,8.9891e-09,-0.50293,0,0,0.125,-0,-0,0.66667
0.40087,0.68436,3.207,0.27654,19.667,203.01,-2.365,0.78833,-1.7274,-3.1533,-7.5495e-13,-0.86369,0,0,0.125,-0,-0,0.66667
0.24985,0.15918,1.9988,-0.51123,-40.742,296.83,2.7249,-0.90831,-1.0746,3.6332,-3.9953e-11,-0.53728,0,0,0.125,-0,-1.2158e-16,0.66667
0.17343,0.79035,1.3874,0.43553,35.879,347.39,-1.6114,0.53713,-1.3269,-2.1485,-8.4867e-10,-0.66344,0,0,0.125,-0,-0,0.66667
0.11946,0.97041,0.95566,0.70561,59.306,384.14,-1.7982,0.5994,-0.22922,-2.3976,1.2484e-07,-0.11461,0,0,0.125,-2.9606e-16,0,0.66667
0.81261,0.84334,6.5009,0.51501,14.769,25.364,-8.928,2.976,-1.0613,-11.904,-2.6361e-10,-0.53066,0,0,0.125,5.181e-16,0,0.66667
0.14679,0.13326,1.1743,-0.55011,-45.783,365.45,1.7227,-0.57423,-0.92233,2.2969,4.2734e-09,-0.46117,0,0,0.125,-0,-0,0.66667
0.2643,0.72521,2.1144,0.33782,26.656,287.33,-1.9047,0.63491,-1.5961,-2.5396,1.1463e-11,-0.79806,0,0,0.125,-5.9212e-16,0,0.66667
0.81909,0.31561,6.5527,-0.27658,-7.6278,23.269,4.833,-1.611,-1.7269,6.444,-6.8401e-10,-0.86346,0,0,0.125,2.3685e-15,0,0.66667
0.31059,0.5345,2.4847,0.051749,3.9599,257.72,-0.34288,0.11429,-1.9922,-0.45717,-2.6683e-12,-0.99611,0,0,0.125,-0,-0,0.66667
0.98242,0.3513,7.8593,-0.22306,-0.54484,0.5829,4.6749,-1.5583,-1.8242,6.2332,1.805e-08,-0.91209,0,0,0.125,-2.3685e-15,0,0.66667
0.26664,0.95957,2.1331,0.68936,54.581,286.16,-3.9213,1.3071,-0.31227,-5.2284,4.0221e-12,-0.15613,0,0,0.125,2.9606e-16,0,0.66667
0.53365,0.017028,4.2692,-0.72446,-44.186,131.67,8.2477,-2.7492,-0.13411,10.997,7.6916e-13,-0.067056,0,0,0.125,-0,-0,0.66667
0.31447,0.73063,2.5157,0.34595,26.443,255.41,-2.3209,0.77362,-1.5752,-3.0945,1.797e-12,-0.78759,0,0,0.125,-0,-0,0.66667
0.91077,0.55158,7.2862,0.07737,1.081,6.304,-1.5033,0.50109,-1.9775,-2.0044,3.3148e-09,-0.98874,0,0,0.125,1.1842e-15,0,0.66667
0.36656,0.39116,2.9325,-0.16327,-11.969,223.3,1.2767,-0.42558,-1.903,1.7023,-9.2182e-13,-0.95148,0,0,0.125,-4.3409e-16,0,0.66667
0.43359,0.8565,3.4687,0.53476,36.9,184.52,-4.9465,1.6488,-0.98229,-6.5953,8.1979e-13,-0.49115,0,0,0.125,-0,-0,0.66667
0.51229,0.034253,4.0983,-0.69862,-43.916,142.4,7.6352,-2.5451,-0.26516,10.18,1.5117e-12,-0.13258,0,0,0.125,-0,5.2803e-17,0.66667
0.93889,0.72753,7.5111,0.34129,3.293,3.5791,-6.8359,2.2786,-1.5874,-9.1145,1.8354e-08,-0.7937,0,0,0.125,2.3685e-15,0,0.66667
0.030949,0.36445,0.24759,-0.20332,-17.224,444.98,0.13424,-0.044747,-1.8557,0.17899,-9.9792e-08,-0.92785,0,0,0.125,-0,-0,0.66667
0.71688,0.31476,5.735,-0.27786,-11.385,52.962,4.2494,-1.4165,-1.7275,5.6658,1.1719e-11,-0.86373,0,0,0.125,-2.3685e-15,0,0.66667
0.89102,0.85273,7.1282,0.52909,9.1495,9.9353,-10.057,3.3524,-1.0074,-13.409,1.9999e-08,-0.50369,0,0,0.125,-0,-0,0.66667
0.027287,0.27446,0.2183,-0.33831,-28.69,447.52,0.19694,-0.065646,-1.5926,0.26258,-3.3194e-07,-0.79629,0,0,0.125,-0,-0,0.66667
0.52205,0.92251,4.1764,0.63376,39.236,137.26,-7.0583,2.3528,-0.56975,-9.411,6.0396e-14,-0.28488,0,0,0.125,1.1842e-15,0,0.66667
0.32599,0.33953,2.6079,-0.2407,-18.231,248.16,1.6739,-0.55798,-1.7954,2.2319,-1.9732e-12,-0.89768,0,0,0.125,-7.4015e-16,0,0.66667
0.85949,0.25559,6.8759,-0.36662,-8.0112,14.85,6.7222,-2.2407,-1.5256,8.9629,-4.7146e-09,-0.76278,0,0,0.125,-0,-0,0.66667
0.55852,0.69003,4.4681,0.28504,16.594,118.64,-3.3963,1.1321,-1.7113,-4.5284,3.0331e-13,-0.85563,0,0,0.125,-0,-0,0.66667
0.69023,0.86982,5.5218,0.55472,24.638,63.01,-8.1682,2.7227,-0.90656,-10.891,-1.1973e-12,-0.45328,0,0,0.125,-5.9212e-16,0,0.66667
0.45285,0.65775,3.6228,0.23663,15.927,173.39,-2.286,0.76201,-1.8049,-3.0481,-1.5872e-12,-0.90243,0,0,0.125,1.1842e-15,0,0.66667
0.62831,0.027557,5.0265,-0.70866,-36.555,87.962,9.4989,-3.1663,-0.2148,12.665,-3.0287e-13,-0.1074,0,0,0.125,1.1842e-15,0,0.66667
0.2901,0.20927,2.3208,-0.4361,-33.913,270.87,2.6989,-0.89963,-1.3219,3.5985,-8.2272e-12,-0.66093,0,0,0.125,2.9606e-16,0,0.66667
0.0093486,0.28707,0.074789,-0.31939,-27.1,459.96,0.063698,-0.021232,-1.6359,0.08493,2.2604e-07,-0.81793,0,0,0.125,-0,-0,0.66667
0.57676,0.2741,4.614,-0.33885,-19.139,110.07,4.1692,-1.3897,-1.5935,5.559,-3.6948e-13,-0.79675,0,0,0.125,-0,-0,0.66667
0.31144,0.92233,2.4916,0.6335,48.709,257.62,-4.2091,1.403,-0.57466,-5.6121,1.664e-12,-0.28733,0,0,0.125,-5.9212e-16,1.479e-16,0.66667
0.51727,0.83517,4.1381,0.50275,31.261,139.42,-5.5479,1.8493,-1.1026,-7.3972,4.7518e-14,-0.5513,0,0,0.125,5.9212e-16,0,0.66667
0.91641,0.69139,7.3312,0.28708,3.7816,5.8535,-5.6125,1.8708,-1.7061,-7.4833,2.5072e-08,-0.85304,0,0,0.125,2.3685e-15,0,0.66667
0.42647,0.36825,3.4118,-0.19762,-13.689,188.18,1.798,-0.59933,-1.8603,2.3973,-9.6589e-14,-0.93013,0,0,0.125,-2.9606e-16,0,0.66667
0.2474,0.070582,1.9792,-0.64413,-51.503,298.56,3.3996,-1.1332,-0.52521,4.5328,-2.5941e-11,-0.2626,0,0,0.125,5.9212e-16,-1.2343e-16,0.66667
0.37129,0.12777,2.9704,-0.55835,-40.932,220.83,4.4226,-1.4742,-0.89183,5.8969,1.8119e-12,-0.44592,0,0,0.125,-0,-0,0.66667
0.93186,0.72999,7.4549,0.34499,3.7165,4.2642,-6.8583,2.2861,-1.5751,-9.1444,4.2456e-08,-0.78753,0,0,0.125,-0,-0,0.66667
0.93687,0.75732,7.4949,0.38599,3.862,3.8754,-7.7145,2.5715,-1.4729,-10.286,5.038e-08,-0.73643,0,0,0.125,-0,-0,0.66667
0.84433,0.12589,6.7546,-0.56116,-13.604,18.394,10.108,-3.3693,-0.88402,13.477,-4.6647e-09,-0.44201,0,0,0.125,-0,-0,0.66667
0.92021,0.14392,7.3617,-0.53411,-6.8298,6.0687,10.485,-3.4951,-0.98667,13.98,-4.383e-08,-0.49334,0,0,0.125,-0,-2.3029e-17,0.66667
0.2279,0.25044,1.8232,-0.37434,-30.121,311.09,1.82,-0.60667,-1.5012,2.4267,-1.1429e-11,-0.75061,0,0,0.125,-0,-0,0.66667
0.087482,0.79664,0.69986,0.44496,37.511,405.95,-0.83042,0.27681,-1.2939,-1.1072,-2.8389e-08,-0.64697,0,0,0.125,-0,-0,0.66667
0.22731,0.21676,1.8185,-0.42486,-34.213,311.51,2.0603,-0.68675,-1.3573,2.747,2.5682e-11,-0.67863,0,0,0.125,-3.3307e-16,0,0.66667
0.31438,0.036855,2.515,-0.69472,-53.366,255.88,4.6593,-1.5531,-0.28538,6.2124,-6.8212e-13,-0.14269,0,0,0.125,-0,-0,0.66667
0.17477,0.82128,1.3981,0.48193,39.703,346.52,-1.7968,0.59893,-1.1743,-2.3957,-4.6401e-10,-0.58715,0,0,0.125,-0,-0,0.66667
0.60709,0.98884,4.8568,0.73326,39.491,97.198,-9.4967,3.1656,-0.088712,-12.662,-1.422e-12,-0.044356,0,0,0.125,-0,1.3593e-16,0.66667
0.41359,0.46434,3.3087,-0.053489,-3.7526,195.52,0.47194,-0.15731,-1.9884,0.62926,2.2579e-13,-0.99421,0,0,0.125,-8.8818e-16,0,0.66667
0.81635,0.66144,6.5308,0.24216,6.7666,23.866,-4.2174,1.4058,-1.7913,-5.6232,6.6133e-10,-0.89564,0,0,0.125,-0,-0,0.66667
0.18513,0.28239,1.481,-0.32641,-26.745,339.48,1.2892,-0.42972,-1.6229,1.7189,5.3051e-10,-0.81143,0,0,0.125,-0,-0,0.66667
0.70188,0.46054,5.615,-0.059197,-2.5286,58.032,0.88638,-0.29546,-1.9893,1.1818,2.1365e-12,-0.99465,0,0,0.125,-5.9212e-16,0,0.66667
0.24036,0.46871,1.9228,-0.046935,-3.7465,302.8,0.24066,-0.080221,-1.9918,0.32088,7.9793e-12,-0.99592,0,0,0.125,-3.03e-16,0,0.66667
0.57422,0.32472,4.5938,-0.26292,-14.903,111.16,3.2207,-1.0736,-1.7533,4.2943,4.6185e-14,-0.87665,0,0,0.125,-1.1842e-15,0,0.66667
0.34899,0.81063,2.7919,0.46594,34.751,234.19,-3.469,1.1563,-1.2277,-4.6253,-7.9048e-14,-0.61384,0,0,0.125,8.1416e-16,0,0.66667
0.056964,0.93735,0.45572,0.65602,55.709,427.04,-0.79722,0.26574,-0.46964,-1.063,2.8098e-07,-0.23482,0,0,0.125,-3.5851e-17,0,0.66667
0.22881,0.50881,1.8305,0.013219,1.0613,310.37,-0.064528,0.021509,-1.9978,-0.086037,-2.3838e-11,-0.99892,0,0,0.125,-0,-0,0.66667
0.6641,0.47164,5.3128,-0.042542,-2.0044,72.21,0.60271,-0.2009,-1.9924,0.80361,1.008e-12,-0.9962,0,0,0.125,-0,-0,0.66667
0.49725,0.51585,3.978,0.023772,1.5131,149.33,-0.25217,0.084056,-1.9979,-0.33623,-9.6165e-13,-0.99894,0,0,0.125,-0,-0,0.66667
0.51902,0.75746,4.1521,0.3862,23.912,138.34,-4.2761,1.4254,-1.4695,-5.7015,1.1084e-12,-0.73476,0,0,0.125,-0,-0,0.66667
0.17472,0.54071,1.3978,0.06106,5.016,346.4,-0.22759,0.075864,-1.9868,-0.30346,-3.2486e-10,-0.99341,0,0,0.125,-2.9606e-16,0,0.66667
0.57072,0.46964,4.5657,-0.045534,-2.5935,112.67,0.55439,-0.1848,-1.9919,0.73918,-7.1954e-13,-0.99593,0,0,0.125,-0,-0,0.66667
0.99675,0.161,7.974,-0.50851,-0.12101,0.96042,10.813,-3.6043,-1.0809,14.417,-1.4335e-06,-0.54046,0,0,0.125,-0,-0,0.66667
0.81684,0.28888,6.5347,-0.31667,-8.8408,23.872,5.5183,-1.8394,-1.6426,7.3577,-5.8981e-10,-0.82131,0,0,0.125,-0,-0,0.66667
0.59437,0.87103,4.755,0.55654,30.568,102.39,-7.0569,2.3523,-0.90177,-9.4092,-1.6902e-12,-0.45088,0,0,0.125,1.4803e-15,0,0.66667
0.97599,0.78684,7.8079,0.43026,1.5736,1.3049,-8.9584,2.9861,-1.3402,-11.945,-7.9096e-07,-0.67011,0,0,0.125,-2.3685e-15,0,0.66667
0.90156,0.92953,7.2125,0.64429,10.193,8.8442,-12.392,4.1306,-0.52299,-16.522,-7.9301e-08,-0.2615,0,0,0.125,5.9212e-16,0,0.66667
0.59561,0.018087,4.7649,-0.72287,-39.772,102.28,9.185,-3.0617,-0.14284,12.247,1.1147e-12,-0.071421,0,0,0.125,-0,-0,0.66667
0.032426,0.49057,0.25941,-0.014143,-1.1974,443.95,0.0097842,-0.0032623,-2.001,0.013045,-1.4037e-06,-1.0005,0,0,0.125,3.7007e-17,0,0.66667
0.093577,0.53087,0.74862,0.046298,3.8892,401.69,-0.092425,0.030808,-1.9967,-0.12323,-4.7534e-08,-0.99834,0,0,0.125,-0,-0,0.66667
0.065372,0.033657,0.52297,-0.69951,-59.384,421.25,0.97554,-0.32518,-0.2612,1.3007,-8.8568e-07,-0.1306,0,0,0.125,-0,-0,0.66667
0.45173,0.72381,3.6139,0.33571,22.645,174.1,-3.2352,1.0784,-1.6013,-4.3136,2.7978e-13,-0.80064,0,0,0.125,-0,-0,0.66667
0.37543,0.69553,3.0035,0.29329,21.355,218.05,-2.349,0.78301,-1.6969,-3.132,-5.3513e-14,-0.84845,0,0,0.125,-0,-0,0.66667
0.97535,0.64852,7.8028,0.22279,0.8072,0.86286,-4.6356,1.5452,-1.8218,-6.1808,-1.0301e-07,-0.91089,0,0,0.125,-0,-0,0.66667
0.16798,0.89582,1.3439,0.59373,49.106,351.15,-2.1277,0.70923,-0.74582,-2.8369,-4.5729e-09,-0.37291,0,0,0.125,1.4803e-16,0,0.66667
0.97279,0.56419,7.7823,0.09629,0.38586,0.84137,-1.9983,0.66609,-1.9673,-2.6644,-5.4359e-07,-0.98365,0,0,0.125,-2.3685e-15,0,0.66667
0.76747,0.86915,6.1398,0.55372,19.272,37.521,-9.0659,3.022,-0.91124,-12.088,-1.407e-10,-0.45562,0,0,0.125,-0,-0,0.66667
0.82424,0.22624,6.5939,-0.41063,-11.067,22.34,7.2205,-2.4068,-1.3999,9.6273,-7.0796e-10,-0.69997,0,0,0.125,-2.3685e-15,0,0.66667
0.63262,0.8604,5.0609,0.54059,27.518,85.678,-7.2958,2.4319,-0.95862,-9.7277,-9.8588e-14,-0.47931,0,0,0.125,-1.9334e-15,0,0.66667
0.66873,0.36484,5.3499,-0.20274,-9.4542,70.494,2.8924,-0.96413,-1.8536,3.8565,1.4575e-12,-0.92681,0,0,0.125,5.9212e-16,0,0.66667
0.47688,0.74241,3.8151,0.36361,23.81,160.39,-3.6992,1.2331,-1.5281,-4.9323,9.1238e-13,-0.76403,0,0,0.125,-5.9212e-16,0,0.66667
0.013136,0.46859,0.10509,-0.047109,-3.9919,457.33,0.013202,-0.0044034,-1.9939,0.017601,-4.1527e-06,-0.99695,0,0,0.125,5.4933e-18,0,0.66667
0.35301,0.94008,2.824,0.66012,49.224,232.02,-4.9713,1.6571,-0.44968,-6.6283,1.1147e-12,-0.22484,0,0,0.125,-1.1842e-15,0,0.66667
0.49207,0.4744,3.9366,-0.038396,-2.4608,152.06,0.40306,-0.13435,-1.9931,0.53742,-4.7948e-13,-0.99657,0,0,0.125,-0,-0,0.66667
0.73009,0.85606,5.8407,0.53409,21.129,49.058,-8.3186,2.7729,-0.98461,-11.091,-7.6952e-12,-0.4923,0,0,0.125,-0,-0,0.66667
0.46863,0.0050218,3.749,-0.74247,-49.434,165.55,7.4227,-2.4742,-0.043501,9.897,-8.2689e-13,-0.021751,0,0,0.125,-0,-7.9861e-17,0.66667
0.4574,0.88319,3.6592,0.57479,38.648,171.32,-5.6088,1.8696,-0.82446,-7.4784,-6.5237e-13,-0.41223,0,0,0.125,-0,-0,0.66667
0.13766,0.26484,1.1013,-0.35274,-29.37,371.56,1.0359,-0.34531,-1.5573,1.3813,5.3715e-09,-0.77865,0,0,0.125,-0,-0,0.66667
0.010889,0.68672,0.08711,0.28008,23.757,458.89,-0.065062,0.021687,-1.7211,-0.086749,-1.4504e-07,-0.86056,0,0,0.125,1.8504e-17,0,0.66667
0.75828,0.83746,6.0662,0.50619,18.197,40.104,-8.1884,2.7295,-1.0873,-10.918,-4.7937e-11,-0.54365,0,0,0.125,5.9212e-16,0,0.66667
0.31995,0.86043,2.5596,0.54065,41.261,252.18,-3.6903,1.2301,-0.95841,-4.9204,1.2133e-12,-0.47921,0,0,0.125,-0,-0,0.66667
0.98438,0.31945,7.8751,-0.27082,-0.57878,0.59931,5.6873,-1.8958,-1.7426,7.5831,-1.8642e-08,-0.87132,0,0,0.125,-0,-0,0.66667
0.22023,0.4353,1.7619,-0.097057,-7.8248,316.04,0.456,-0.152,-1.9689,0.60801,7.6124e-12,-0.98444,0,0,0.125,-0,-0,0.66667
0.33871,0.50907,2.7097,0.013607,1.02,240.22,-0.098324,0.032775,-1.998,-0.1311,-2.2056e-12,-0.999,0,0,0.125,-1.1842e-15,0,0.66667
0.5239,0.61367,4.1912,0.17051,10.462,135.64,-1.9057,0.63524,-1.8945,-2.541,-6.1395e-13,-0.94723,0,0,0.125,5.9212e-16,0,0.66667
0.75489,0.0091619,6.0391,-0.73626,-27.009,41.895,11.857,-3.9523,-0.071338,15.809,-3.0214e-11,-0.035669,0,0,0.125,-0,-0,0.66667
0.46386,0.37444,3.7109,-0.18835,-12.511,167.3,1.8638,-0.62127,-1.8739,2.4851,3.5649e-13,-0.93694,0,0,0.125,-7.4015e-16,0,0.66667
0.12482,0.28014,0.99858,-0.32978,-27.548,380.31,0.87817,-0.29272,-1.6175,1.1709,9.5197e-09,-0.80873,0,0,0.125,2.2204e-16,0,0.66667
0.3125,0.29996,2.5,-0.30006,-22.958,256.61,2.0004,-0.6668,-1.6828,2.6672,-1.9507e-12,-0.84142,0,0,0.125,-0,-0,0.66667
0.50452,0.52287,4.0362,0.034305,2.1623,145.53,-0.36922,0.12307,-1.9948,-0.4923,-1.2282e-12,-0.9974,0,0,0.125,-0,-0,0.66667
0.67385,0.31868,5.3908,-0.27198,-12.533,68.597,3.9098,-1.3033,-1.7382,5.2131,2.5806e-12,-0.86911,0,0,0.125,-0,-0,0.66667
0.77015,0.54256,6.1612,0.063843,2.1796,35.919,-1.0489,0.34964,-1.9843,-1.3986,-2.0554e-12,-0.99213,0,0,0.125,1.1842e-15,0,0.66667
0.13034,0.17934,1.0427,-0.48099,-40.182,376.6,1.3374,-0.44579,-1.176,1.7832,5.9718e-09,-0.58802,0,0,0.125,-1.4803e-16,0,0.66667
0.022915,0.35841,0.18332,-0.21238,-18,450.55,0.10382,-0.034608,-1.8373,0.13843,-9.534e-08,-0.91867,0,0,0.125,-0,-0,0.66667
0.51908,0.0024929,4.1527,-0.74626,-46.518,139.06,8.2639,-2.7546,-0.020413,11.019,1.4415e-12,-0.010207,0,0,0.125,-0,-0,0.66667
0.80999,0.020865,6.4799,-0.7187,-21.058,26.727,12.419,-4.1397,-0.16372,16.559,-2.3635e-10,-0.081861,0,0,0.125,-0,-1.3138e-16,0.66667
0.012604,0.45379,0.10083,-0.069322,-5.8745,457.7,0.01864,-0.0062142,-1.9826,0.024852,-1.4983e-06,-0.99128,0,0,0.125,-1.8504e-17,0,0.66667
0.67247,0.055898,5.3798,-0.66615,-31.057,70.011,9.5566,-3.1855,-0.4249,12.742,-3.5705e-13,-0.21245,0,0,0.125,-5.9212e-16,0,0.66667
0.68681,0.435,5.4945,-0.097497,-4.3394,63.544,1.4285,-0.47617,-1.9694,1.9047,9.801e-13,-0.98471,0,0,0.125,1.4803e-15,0,0.66667
0.44925,0.28739,3.594,-0.31891,-21.569,175.46,3.0564,-1.0188,-1.638,4.0752,8.6997e-13,-0.81902,0,0,0.125,-1.1842e-15,0,0.66667
0.91479,0.19753,7.3183,-0.4537,-6.1491,6.4513,8.8542,-2.9514,-1.2661,11.806,-3.407e-08,-0.63303,0,0,0.125,2.3685e-15,0,0.66667
0.64436,0.4203,5.1549,-0.11955,-5.8979,80.171,1.6434,-0.54779,-1.9483,2.1912,7.5273e-14,-0.97416,0,0,0.125,-0,-0,0.66667
0.0052398,0.20711,0.041919,-0.43934,-37.321,462.81,0.04911,-0.01637,-1.3121,0.065481,8.2126e-07,-0.65604,0,0,0.125,-0,-0,0.66667
0.48443,0.57285,3.8754,0.10927,7.0738,156.14,-1.1292,0.37641,-1.9606,-1.5057,4.966e-13,-0.98029,0,0,0.125,-0,-0,0.66667
0.85932,0.14044,6.8745,-0.53934,-11.887,15.361,9.8872,-3.2957,-0.96857,13.183,-2.6591e-09,-0.48428,0,0,0.125,1.1842e-15,1.8415e-16,0.66667
0.8304,0.016633,6.6432,-0.72505,-19.179,22.001,12.844,-4.2815,-0.13117,17.126,-4.5782e-11,-0.065583,0,0,0.125,-2.3685e-15,0,0.66667
0.64915,0.8039,5.1932,0.45585,22.339,78.66,-6.3129,2.1043,-1.2592,-8.4172,-1.3407e-12,-0.62962,0,0,0.125,-5.9212e-16,0,0.66667
0.6737,0.39339,5.3896,-0.15991,-7.3634,68.539,2.2983,-0.7661,-1.9099,3.0644,2.3912e-12,-0.95494,0,0,0.125,-1.1842e-15,0,0.66667
0.5785,0.24869,4.628,-0.37697,-21.238,109.31,4.6523,-1.5508,-1.4986,6.2031,2.0961e-13,-0.74929,0,0,0.125,-7.4015e-17,0,0.66667
0.27412,0.80773,2.193,0.46159,36.262,281.1,-2.6993,0.89978,-1.241,-3.5991,2.7276e-12,-0.62049,0,0,0.125,3.1034e-16,0,0.66667
0.56053,0.71072,4.4842,0.31608,18.346,117.71,-3.7797,1.2599,-1.6458,-5.0396,-8.6597e-14,-0.82289,0,0,0.125,-0,-0,0.66667
0.67173,0.62115,5.3738,0.18173,8.4105,69.315,-2.6042,0.86808,-1.8863,-3.4723,-3.4943e-12,-0.94313,0,0,0.125,-0,-0,0.66667
0.35243,0.34464,2.8194,-0.23303,-17.293,231.89,1.7521,-0.58402,-1.8062,2.3361,-3.2861e-12,-0.9031,0,0,0.125,-0,-0,0.66667
0.85583,0.65273,6.8466,0.2291,5.1096,15.301,-4.1829,1.3943,-1.8137,-5.5772,3.8498e-09,-0.90683,0,0,0.125,-4.2683e-17,0,0.66667
0.19504,0.51527,1.5603,0.0229,1.8665,332.78,-0.095284,0.031761,-1.9958,-0.12705,-8.82e-11,-0.99792,0,0,0.125,-5.9212e-16,0,0.66667
0.74732,0.86961,5.9786,0.55441,20.741,43.595,-8.8389,2.9463,-0.90781,-11.785,-3.106e-12,-0.4539,0,0,0.125,-5.9212e-16,0,0.66667
0.2896,0.35335,2.3168,-0.21998,-17.08,271.04,1.3591,-0.45302,-1.8259,1.8121,-7.0715e-12,-0.91296,0,0,0.125,-0,-0,0.66667
0.7738,0.19872,6.1904,-0.45191,-15.305,35.422,7.4601,-2.4867,-1.2717,9.9468,2.5005e-11,-0.63585,0,0,0.125,-0,-0,0.66667
0.42774,0.59783,3.4219,0.14674,10.149,187.44,-1.339,0.44635,-1.9224,-1.7854,-6.6747e-13,-0.96119,0,0,0.125,1.1842e-15,0,0.66667
0.8077,0.9076,6.4616,0.6114,18.017,26.88,-10.535,3.5117,-0.67078,-14.047,3.6763e-10,-0.33539,0,0,0.125,2.3685e-15,0,0.66667
0.35353,0.62332,2.8283,0.18498,13.71,231.19,-1.3951,0.46503,-1.8777,-1.8601,-2.2171e-13,-0.93886,0,0,0.125,-7.6183e-16,0,0.66667
0.21369,0.80105,1.7095,0.45158,36.607,320.52,-2.0587,0.68622,-1.2734,-2.7449,-1.0037e-10,-0.6367,0,0,0.125,-0,-0,0.66667
0.76728,0.81803,6.1383,0.47705,16.576,37.361,-7.8087,2.6029,-1.1925,-10.412,-4.0963e-11,-0.59624,0,0,0.125,-0,-0,0.66667
0.30864,0.73296,2.4691,0.34943,26.818,259.07,-2.3008,0.76693,-1.5649,-3.0677,2.8242e-12,-0.78245,0,0,0.125,-0,-0,0.66667
0.73325,0.037188,5.866,-0.69422,-27.332,48.538,10.859,-3.6198,-0.2886,14.479,3.0642e-13,-0.1443,0,0,0.125,2.3685e-15,0,0.66667
0.74447,0.1909,5.9558,-0.46365,-17.469,44.242,7.3638,-2.4546,-1.2348,9.8184,2.2878e-11,-0.61741,0,0,0.125,-2.3685e-15,0,0.66667
0.2214,0.1725,1.7712,-0.49125,-39.701,315.45,2.3202,-0.77341,-1.1419,3.0936,1.6701e-11,-0.57097,0,0,0.125,-0,-0,0.66667
0.21411,0.83309,1.7129,0.49963,40.518,320.27,-2.2822,0.76072,-1.1112,-3.0429,7.9384e-11,-0.55558,0,0,0.125,-0,-0,0.66667
0.19895,0.49478,1.5916,-0.0078289,-0.63705,330.17,0.033227,-0.011076,-1.9994,0.044303,1.9042e-10,-0.99968,0,0,0.125,-8.8818e-16,0,0.66667
0.14252,0.78951,1.1401,0.43426,36.136,368.29,-1.3203,0.44011,-1.3305,-1.7604,-3.9226e-09,-0.66527,0,0,0.125,-0,-0,0.66667
0.37708,0.70695,3.0167,0.31042,22.573,217.08,-2.4972,0.83239,-1.658,-3.3296,-3.7526e-14,-0.82899,0,0,0.125,-0,-0,0.66667
0.026628,0.82468,0.21302,0.48703,41.366,447.99,-0.27666,0.092221,-1.1553,-0.36888,1.32e-06,-0.57764,0,0,0.125,-0,-0,0.66667
0.11092,0.24085,0.88736,-0.38873,-32.598,389.84,0.91985,-0.30662,-1.4641,1.2265,1.595e-08,-0.73203,0,0,0.125,-0,-0,0.66667
0.67456,0.57903,5.3965,0.11854,5.4451,68.179,-1.7059,0.56862,-1.95,-2.2745,-2.1718e-12,-0.97499,0,0,0.125,-1.1842e-15,0,0.66667
0.79978,0.57762,6.3982,0.11643,3.5139,27.849,-1.9865,0.66216,-1.9516,-2.6486,1.5488e-10,-0.97578,0,0,0.125,-0,-0,0.66667
0.08053,0.70157,0.64424,0.30235,25.485,410.7,-0.51942,0.17314,-1.6752,-0.69256,-2.9234e-08,-0.83759,0,0,0.125,1.4803e-16,0,0.66667
0.2317,0.60343,1.8536,0.15515,12.442,308.49,-0.7669,0.25563,-1.9146,-1.0225,-1.3815e-12,-0.9573,0,0,0.125,-0,-0,0.66667
0.20763,0.26797,1.661,-0.34804,-28.26,324.48,1.5416,-0.51387,-1.568,2.0555,1.2445e-10,-0.78398,0,0,0.125,2.9606e-16,0,0.66667
0.91733,0.93397,7.3387,0.65096,8.7107,6.8556,-12.739,4.2464,-0.49297,-16.986,1.9102e-07,-0.24649,0,0,0.125,-1.1842e-15,0,0.66667
0.71131,0.24993,5.6905,-0.3751,-15.649,55.046,5.692,-1.8973,-1.4991,7.5893,1.0867e-11,-0.74957,0,0,0.125,-1.7579e-15,0,0.66667
0.55388,0.3859,4.4311,-0.17115,-10.03,120.77,2.0224,-0.67412,-1.8938,2.6965,-2.8422e-14,-0.94688,0,0,0.125,-0,-0,0.66667
0.30452,0.53411,2.4361,0.051171,3.932,261.54,-0.33243,0.11081,-1.9895,-0.44324,-2.5642e-12,-0.99476,0,0,0.125,-0,-0,0.66667
0.83485,0.80735,6.6788,0.46103,11.754,20.096,-8.211,2.737,-1.2428,-10.948,4.1904e-10,-0.62142,0,0,0.125,1.1842e-15,0,0.66667
0.43531,0.59396,3.4824,0.14094,9.6688,183.14,-1.3089,0.43629,-1.9314,-1.7452,-1.0747e-13,-0.96571,0,0,0.125,1.1842e-15,0,0.66667
0.92346,0.7841,7.3876,0.42615,5.1856,5.3614,-8.3954,2.7985,-1.3564,-11.194,7.0421e-08,-0.67822,0,0,0.125,2.3685e-15,0,0.66667
0.70605,0.022107,5.6484,-0.71684,-30.64,57.828,10.797,-3.5991,-0.17297,14.396,9.2282e-13,-0.086487,0,0,0.125,-0,-0,0.66667
0.47803,0.36938,3.8243,-0.19593,-12.792,159.61,1.9981,-0.66602,-1.8621,2.6641,2.7356e-12,-0.93105,0,0,0.125,-8.8818e-16,0,0.66667
0.12621,0.48856,1.0097,-0.017157,-1.4308,379.31,0.046195,-0.015398,-2.0005,0.061594,-2.9322e-09,-1.0002,0,0,0.125,-0,-0,0.66667
0.97604,0.25886,7.8083,-0.36171,-1.2993,1.1142,7.5317,-2.5106,-1.5328,10.042,4.0906e-07,-0.76642,0,0,0.125,-0,-0,0.66667
0.15983,0.51478,1.2787,0.022177,1.8312,356.45,-0.075619,0.025206,-1.9975,-0.10083,-3.1351e-10,-0.99874,0,0,0.125,-0,-0,0.66667
0.2026,0.38323,1.6208,-0.17515,-14.236,327.75,0.75704,-0.25235,-1.8935,1.0094,1.9555e-10,-0.94677,0,0,0.125,-0,-0,0.66667
0.43118,0.93483,3.4495,0.65225,45.218,186.1,-5.9997,1.9999,-0.48643,-7.9997,2.9612e-12,-0.24321,0,0,0.125,-1.4803e-16,0,0.66667
0.4042,0.52781,3.2336,0.041718,2.954,200.96,-0.35973,0.11991,-1.9954,-0.47964,-4.3043e-13,-0.99769,0,0,0.125,-0,-0,0.66667
0.14675,0.44714,1.174,-0.079294,-6.575,365.32,0.24825,-0.082749,-1.9758,0.33099,1.3033e-09,-0.98792,0,0,0.125,-0,-0,0.66667
0.72932,0.58857,5.8346,0.13285,5.2316,48.618,-2.067,0.68901,-1.9364,-2.756,-8.4119e-12,-0.96818,0,0,0.125,-1.6028e-16,0,0.66667
0.18875,0.61402,1.51,0.17103,13.98,337,-0.68864,0.22955,-1.8975,-0.91819,-3.586e-10,-0.94876,0,0,0.125,-2.9606e-16,0,0.66667
0.6439,0.80578,5.1512,0.45867,22.745,80.811,-6.3004,2.1001,-1.252,-8.4006,-1.851e-12,-0.62601,0,0,0.125,-0,-0,0.66667
0.75431,0.53135,6.0344,0.047021,1.7021,40.625,-0.75665,0.25222,-1.9926,-1.0089,7.0927e-12,-0.99629,0,0,0.125,2.3685e-15,0,0.66667
0.21073,0.55585,1.6859,0.083768,6.7825,322.33,-0.37659,0.12553,-1.9733,-0.50212,-2.9192e-11,-0.98666,0,0,0.125,1.4803e-16,0,0.66667
0.60095,0.4743,4.8076,-0.038552,-2.0793,98.772,0.49425,-0.16475,-1.9932,0.659,-1.2654e-13,-0.99658,0,0,0.125,-0,-0,0.66667
0.74893,0.92472,5.9914,0.63708,23.768,43.358,-10.179,3.3929,-0.55855,-13.572,-1.8854e-11,-0.27927,0,0,0.125,-2.0711e-15,0,0.66667
0.63822,0.64505,5.1057,0.21758,10.888,82.784,-2.9624,0.98746,-1.832,-3.9498,-2.6128e-12,-0.916,0,0,0.125,5.9212e-16,0,0.66667
0.59713,0.87531,4.777,0.56297,30.767,101.16,-7.1715,2.3905,-0.87415,-9.562,9.2193e-13,-0.43707,0,0,0.125,-2.3685e-15,0,0.66667
0.29548,0.69398,2.3639,0.29098,22.518,267.34,-1.8342,0.6114,-1.7008,-2.4456,7.1976e-12,-0.85038,0,0,0.125,-5.9212e-16,0,0.66667
0.73161,0.43917,5.8529,-0.091241,-3.5661,47.84,1.4241,-0.47468,-1.9716,1.8987,3.6274e-12,-0.98581,0,0,0.125,2.3685e-15,0,0.66667
0.94531,0.6355,7.5625,0.20324,1.7353,2.7634,-4.0987,1.3662,-1.851,-5.465,-4.6918e-08,-0.9255,0,0,0.125,-0,-0,0.66667
0.42556,0.15536,3.4045,-0.51696,-35.967,189.05,4.6933,-1.5644,-1.0504,6.2578,-4.1789e-13,-0.52522,0,0,0.125,-2.9606e-16,0,0.66667
0.78218,0.19467,6.2575,-0.458,-15.004,33.089,7.6424,-2.5475,-1.2564,10.19,-7.3667e-11,-0.62821,0,0,0.125,-0,-0,0.66667
0.056141,0.68805,0.44913,0.28208,23.853,427.54,-0.33783,0.11261,-1.7166,-0.45045,2.7515e-08,-0.85828,0,0,0.125,-1.4803e-16,0,0.66667
0.83527,0.028677,6.6822,-0.70698,-18.193,20.859,12.598,-4.1993,-0.22177,16.797,3.7916e-10,-0.11088,0,0,0.125,-5.9212e-16,0,0.66667
0.19225,0.70737,1.538,0.31106,25.412,334.71,-1.2757,0.42525,-1.6546,-1.701,-3.8177e-10,-0.8273,0,0,0.125,-0,-0,0.66667
0.3951,0.6846,3.1608,0.2769,19.801,206.39,-2.3339,0.77796,-1.7272,-3.1118,-5.9286e-14,-0.86358,0,0,0.125,1.4803e-16,0,0.66667
0.30008,0.27699,2.4006,-0.33451,-25.818,264.46,2.1414,-0.71381,-1.6026,2.8552,-5.9877e-12,-0.80128,0,0,0.125,1.4803e-16,0,0.66667
0.080104,0.11302,0.64083,-0.58048,-49.08,411.07,0.99196,-0.33065,-0.80264,1.3226,-2.6004e-09,-0.40132,0,0,0.125,-0,-0,0.66667
0.90463,0.21641,7.237,-0.42539,-6.4253,7.6745,8.2095,-2.7365,-1.3588,10.946,-2.6772e-08,-0.6794,0,0,0.125,-1.4803e-15,0,0.66667
0.37015,0.67058,2.9612,0.25588,18.711,221.18,-2.0205,0.67352,-1.7657,-2.6941,-2.9798e-13,-0.88283,0,0,0.125,-5.9212e-16,0,0.66667
0.5307,0.84534,4.2456,0.51801,31.596,132.66,-5.8646,1.9549,-1.0495,-7.8195,-2.4243e-12,-0.52476,0,0,0.125,2.3685e-15,1.6192e-16,0.66667
0.49412,0.10752,3.9529,-0.58872,-37.84,151.59,6.2058,-2.0686,-0.76572,8.2744,6.164e-13,-0.38286,0,0,0.125,-0,-0,0.66667
0.13216,0.061087,1.0573,-0.65837,-55.111,375.45,1.8562,-0.61874,-0.45799,2.475,-4.8084e-08,-0.229,0,0,0.125,1.2953e-16,0,0.66667
0.20645,0.38428,1.6516,-0.17358,-14.085,325.19,0.76451,-0.25484,-1.8926,1.0193,1.359e-10,-0.94628,0,0,0.125,-5.9212e-16,0,0.66667
0.076189,0.5681,0.60951,0.10216,8.6083,413.67,-0.16604,0.055348,-1.9642,-0.22139,-5.1906e-08,-0.98212,0,0,0.125,2.9606e-16,0,0.66667
0.50792,0.63661,4.0634,0.20492,12.864,143.84,-2.2204,0.74014,-1.8485,-2.9606,-1.4122e-13,-0.92425,0,0,0.125,-0,-0,0.66667
0.26155,0.1988,2.0924,-0.4518,-35.749,289.19,2.5209,-0.84031,-1.2732,3.3612,-2.1244e-11,-0.63662,0,0,0.125,-5.9212e-16,0,0.66667
0.35706,0.84156,2.8565,0.51235,37.987,229.34,-3.9027,1.3009,-1.0682,-5.2036,1.849e-12,-0.53411,0,0,0.125,2.5374e-16,0,0.66667
0.10807,0.13021,0.86452,-0.55468,-46.634,391.85,1.2788,-0.42625,-0.90811,1.705,-6.9153e-09,-0.45406,0,0,0.125,-0,-0,0.66667
0.78755,0.93291,6.3004,0.64937,20.949,32.218,-10.91,3.6367,-0.49942,-14.547,1.4612e-10,-0.24971,0,0,0.125,2.9606e-16,0,0.66667
0.10658,0.87107,0.85267,0.5566,46.811,392.87,-1.2656,0.42187,-0.89927,-1.6875,1.2434e-08,-0.44963,0,0,0.125,-7.4015e-17,0,0.66667
0.98571,0.9298,7.8857,0.6447,1.463,1.7574,-13.557,4.519,-0.52389,-18.076,1.0229e-05,-0.26195,0,0,0.125,-1.1842e-15,-1.681e-16,0.66667
0.17716,0.15703,1.4173,-0.51445,-42.363,344.93,1.9443,-0.64811,-1.0588,2.5924,8.5441e-12,-0.52939,0,0,0.125,-0,-0,0.66667
0.57241,0.75599,4.5792,0.38399,21.866,112.17,-4.689,1.563,-1.4745,-6.252,-2.9576e-13,-0.73723,0,0,0.125,-0,-0,0.66667
0.044845,0.56263,0.35876,0.093952,7.9471,435.34,-0.089884,0.029961,-1.9708,-0.11985,-2.3002e-07,-0.98542,0,0,0.125,-0,-0,0.66667
0.78712,0.43913,6.2969,-0.0913,-2.9116,31.179,1.5331,-0.51103,-1.9697,2.0441,1.1039e-11,-0.98487,0,0,0.125,-0,-0,0.66667
0.18961,0.30387,1.5168,-0.29419,-24.056,336.47,1.19,-0.39666,-1.6931,1.5866,4.3853e-10,-0.84655,0,0,0.125,-2.9606e-16,0,0.66667
0.5279,0.5253,4.2232,0.037957,2.3143,133.56,-0.42748,0.14249,-1.9949,-0.56997,8.2959e-13,-0.99746,0,0,0.125,-0,-0,0.66667
0.74008,0.36621,5.9206,-0.20069,-7.6368,45.176,3.1685,-1.0562,-1.8552,4.2247,1.0294e-11,-0.9276,0,0,0.125,-5.9212e-16,0,0.66667
0.14993,0.60239,1.1995,0.15358,12.725,363.17,-0.49123,0.16374,-1.9144,-0.65498,-3.0477e-09,-0.95718,0,0,0.125,-0,-0,0.66667
0.55109,0.45316,4.4087,-0.070264,-4.1343,122.08,0.82606,-0.27535,-1.9812,1.1014,3.0759e-13,-0.99062,0,0,0.125,-0,-0,0.66667
0.21662,0.72246,1.7329,0.33368,26.982,318.51,-1.542,0.514,-1.6056,-2.056,-5.535e-11,-0.80278,0,0,0.125,-0,-0,0.66667
0.7592,0.24977,6.0736,-0.37534,-13.404,39.517,6.0791,-2.0264,-1.4986,8.1055,7.1241e-12,-0.7493,0,0,0.125,1.5173e-15,0,0.66667
0.72292,0.084038,5.7833,-0.62394,-25.306,51.712,9.6226,-3.2075,-0.61488,12.83,9.2921e-12,-0.30744,0,0,0.125,5.9212e-16,0,0.66667
0.17655,0.20822,1.4124,-0.43766,-36.015,345.29,1.6484,-0.54947,-1.3176,2.1979,7.047e-10,-0.65882,0,0,0.125,1.4803e-16,0,0.66667
0.86197,0.89903,6.8957,0.59854,13,15.071,-11.006,3.6688,-0.72673,-14.675,2.0019e-08,-0.36337,0,0,0.125,-0,-0,0.66667
0.019775,0.62664,0.1582,0.18996,16.1,452.72,-0.080137,0.026712,-1.8719,-0.10685,5.0196e-08,-0.93596,0,0,0.125,-0,-0,0.66667
0.86024,0.54363,6.8819,0.065447,1.4141,14.311,-1.2011,0.40036,-1.9867,-1.6014,7.4549e-10,-0.99333,0,0,0.125,-0,-0,0.66667
0.5589,0.92791,4.4712,0.64186,37.563,119.11,-7.6531,2.551,-0.53462,-10.204,2.3404e-12,-0.26731,0,0,0.125,-0,-0,0.66667
0.40322,0.88194,3.2258,0.57292,40.801,202,-4.9282,1.6427,-0.83313,-6.571,1.7937e-12,-0.41656,0,0,0.125,-0,-0,0.66667
0.75875,0.73783,6.07,0.35675,12.756,39.616,-5.7746,1.9249,-1.5453,-7.6994,-8.6025e-12,-0.77267,0,0,0.125,2.857e-16,0,0.66667
0.71693,0.2611,5.7354,-0.35836,-14.701,53.076,5.4809,-1.827,-1.5443,7.3079,1.1128e-11,-0.77215,0,0,0.125,-0,-0,0.66667
0.98733,0.60358,7.8986,0.15537,0.24718,0.33752,-3.2725,1.0908,-1.9141,-4.3633,-5.9622e-08,-0.95706,0,0,0.125,-0,-0,0.66667
0.27809,0.4976,2.2247,-0.0035968,-0.28109,278.35,0.021338,-0.0071126,-2.0007,0.028451,-5.7497e-12,-1.0004,0,0,0.125,1.4803e-16,0,0.66667
0.0037937,0.97111,0.030349,0.70667,60.255,463.82,-0.057198,0.019076,-0.22478,-0.076258,1.5512e-05,-0.11239,0,0,0.125,-9.2519e-18,0,0.66667
0.9339,0.071572,7.4712,-0.64264,-6.9102,5.0372,12.804,-4.2678,-0.53111,17.071,1.9282e-07,-0.26555,0,0,0.125,-0,-0,0.66667
0.8579,0.74205,6.8632,0.36307,8.0175,15.145,-6.6448,2.2149,-1.5328,-8.8598,4.4749e-09,-0.76642,0,0,0.125,5.9212e-16,0,0.66667
0.72885,0.92647,5.8308,0.63971,25.488,49.788,-9.9467,3.3156,-0.54327,-13.262,-4.9916e-12,-0.27164,0,0,0.125,-0,-0,0.66667
0.51669,0.65174,4.1335,0.2276,14.117,139.35,-2.5088,0.83627,-1.8183,-3.3451,6.5015e-13,-0.90913,0,0,0.125,5.9212e-16,0,0.66667
0.70696,0.93042,5.6556,0.64563,27.461,57.266,-9.7372,3.2457,-0.51746,-12.983,1.9007e-13,-0.25873,0,0,0.125,-0,-0,0.66667
0.78053,0.45537,6.2442,-0.06695,-2.1938,32.976,1.1148,-0.3716,-1.9861,1.4864,-2.213e-11,-0.99304,0,0,0.125,-0,-0,0.66667
0.37488,0.11087,2.999,-0.58369,-42.675,218.72,4.668,-1.556,-0.79138,6.224,2.8066e-13,-0.39569,0,0,0.125,-5.9212e-16,0,0.66667
0.77032,0.95794,6.1626,0.68691,23.769,37.15,-11.288,3.7628,-0.32103,-15.051,-8.7354e-11,-0.16052,0,0,0.125,1.1842e-15,0,0.66667
0.75062,0.10449,6.005,-0.59326,-21.971,42.69,9.5,-3.1667,-0.75087,12.667,1.5724e-11,-0.37544,0,0,0.125,1.1842e-15,0,0.66667
0.61321,0.0099463,4.9057,-0.73508,-39.123,94.525,9.6162,-3.2054,-0.078048,12.822,9.1216e-13,-0.039024,0,0,0.125,-0,-0,0.66667
0.40187,0.45435,3.2149,-0.068473,-4.8598,202.32,0.58703,-0.19568,-1.982,0.7827,3.9652e-13,-0.99102,0,0,0.125,-0,-0,0.66667
0.69731,0.15606,5.5785,-0.51591,-22.459,60.327,7.6746,-2.5582,-1.0534,10.233,5.3939e-12,-0.52668,0,0,0.125,-1.6838e-15,0,0.66667
0.0031129,0.95616,0.024903,0.68424,58.321,464.29,-0.045445,0.015158,-0.33502,-0.060589,1.4493e-05,-0.16751,0,0,0.125,4.6259e-18,-5.6978e-16,0.66667
0.7749,0.028189,6.1992,-0.70772,-24.083,35.927,11.699,-3.8998,-0.21813,15.599,5.2993e-11,-0.10907,0,0,0.125,-1.3329e-16,0,0.66667
0.89642,0.93699,7.1713,0.65549,10.897,9.6151,-12.535,4.1784,-0.47194,-16.714,-3.1464e-07,-0.23597,0,0,0.125,1.6653e-15,0,0.66667
0.23932,0.059047,1.9145,-0.66143,-53.124,303.85,3.3769,-1.1256,-0.44392,4.5025,-9.291e-12,-0.22196,0,0,0.125,-2.9606e-16,0,0.66667
0.12077,0.26721,0.96614,-0.34919,-29.203,383.08,0.89964,-0.29988,-1.5653,1.1995,1.0807e-08,-0.78263,0,0,0.125,1.4803e-16,0,0.66667
0.22028,0.67864,1.7623,0.26796,21.62,316.06,-1.2593,0.41975,-1.7461,-1.679,-4.6295e-11,-0.87304,0,0,0.125,2.9606e-16,0,0.66667
0.3021,0.87235,2.4168,0.55852,43.166,263.4,-3.5995,1.1998,-0.89029,-4.7994,3.6493e-12,-0.44515,0,0,0.125,-1.4803e-16,0,0.66667
0.88303,0.092388,7.0642,-0.61142,-11.372,11.476,11.518,-3.8393,-0.66994,15.357,3.2957e-08,-0.33497,0,0,0.125,2.7874e-16,0,0.66667
0.54317,0.68644,4.3453,0.27965,16.683,126.1,-3.2405,1.0802,-1.7225,-4.3207,-1.7291e-12,-0.86127,0,0,0.125,1.5543e-15,0,0.66667
0.28671,0.99719,2.2937,0.74578,58.404,273.4,-4.5616,1.5205,-0.021735,-6.0821,4.0767e-13,-0.010868,0,0,0.125,-1.4803e-16,0,0.66667
0.13835,0.8377,1.1068,0.50655,42.238,371.15,-1.4951,0.49838,-1.0886,-1.9935,-7.6883e-09,-0.54431,0,0,0.125,-0,-0,0.66667
0.29014,0.36219,2.3212,-0.20672,-16.044,270.69,1.2796,-0.42652,-1.8459,1.7061,-6.0918e-12,-0.92295,0,0,0.125,-0,-0,0.66667
0.61387,0.33942,4.911,-0.24087,-12.683,93.185,3.1545,-1.0515,-1.7932,4.2059,-1.0756e-12,-0.89662,0,0,0.125,-5.9212e-16,0,0.66667
0.32414,0.4495,2.5931,-0.075744,-5.7407,249.25,0.52377,-0.17459,-1.9786,0.69836,1.0449e-12,-0.98932,0,0,0.125,-5.9212e-16,0,0.66667
0.45736,0.033987,3.6589,-0.69902,-47.119,171.6,6.8203,-2.2734,-0.2626,9.0938,-2.3714e-12,-0.1313,0,0,0.125,-0,-0,0.66667
0.44412,0.15561,3.5529,-0.51659,-35.229,178.58,4.8944,-1.6315,-1.0505,6.5259,5.3468e-13,-0.52527,0,0,0.125,-7.0314e-16,0,0.66667
0.82814,0.28565,6.6251,-0.32153,-8.4674,21.261,5.6804,-1.8935,-1.6362,7.5739,-1.1662e-09,-0.8181,0,0,0.125,-0,-0,0.66667
0.42635,0.15942,3.4108,-0.51088,-35.511,188.59,4.6466,-1.5489,-1.0717,6.1955,-5.52e-13,-0.53587,0,0,0.125,-0,-0,0.66667
0.3457,0.86473,2.7656,0.54709,40.957,236.3,-4.0347,1.3449,-0.93662,-5.3797,3.6637e-13,-0.46831,0,0,0.125,-0,-0,0.66667
0.67497,0.57287,5.3998,0.1093,5.0154,68.018,-1.5739,0.52463,-1.9573,-2.0985,-2.7542e-12,-0.97865,0,0,0.125,-0,-0,0.66667
0.22148,0.31745,1.7719,-0.27382,-22.082,315.27,1.2938,-0.43127,-1.7341,1.7251,4.0498e-11,-0.86705,0,0,0.125,-0,-0,0.66667
0.46725,0.58764,3.738,0.13146,8.6947,165.42,-1.3104,0.4368,-1.9403,-1.7472,-1.9711e-12,-0.97014,0,0,0.125,-0,-0,0.66667
0.31477,0.54619,2.5181,0.06929,5.2869,255.1,-0.46528,0.15509,-1.9833,-0.62038,-4.0714e-12,-0.99163,0,0,0.125,-0,-0,0.66667
0.62686,0.25406,5.0148,-0.36891,-18.947,87.762,4.9333,-1.6444,-1.5178,6.5778,1.6982e-12,-0.75889,0,0,0.125,-2.3685e-15,0,0.66667
0.87736,0.98126,7.0189,0.72189,14.152,12.863,-13.512,4.5038,-0.14743,-18.015,-6.81e-08,-0.073717,0,0,0.125,-0,-0,0.66667
0.44769,0.45122,3.5815,-0.073165,-4.9498,176.17,0.69877,-0.23292,-1.9792,0.9317,3.2857e-13,-0.98958,0,0,0.125,-0,-0,0.66667
0.78446,0.28997,6.2757,-0.31505,-10.189,32.157,5.2724,-1.7575,-1.6469,7.0299,-5.911e-11,-0.82346,0,0,0.125,-0,-0,0.66667
0.45697,0.6921,3.6557,0.28815,19.311,171.16,-2.809,0.93635,-1.7047,-3.7454,-1.0925e-13,-0.85234,0,0,0.125,-0,-0,0.66667
0.65623,0.76542,5.2498,0.39813,19.176,75.697,-5.5736,1.8579,-1.4393,-7.4315,-2.0632e-12,-0.71965,0,0,0.125,-1.1842e-15,0,0.66667
0.13184,0.51895,1.0547,0.028423,2.3667,375.47,-0.079942,0.026647,-1.995,-0.10659,-1.7844e-09,-0.99749,0,0,0.125,-0,-0,0.66667
0.43298,0.21785,3.4639,-0.42323,-29.176,184.7,3.9093,-1.3031,-1.3633,5.2124,-1.7866e-12,-0.68163,0,0,0.125,1.1102e-16,0,0.66667
0.90931,0.84675,7.2745,0.52012,7.5276,7.3471,-10.09,3.3632,-1.0389,-13.453,-7.3984e-09,-0.51944,0,0,0.125,2.3685e-15,0,0.66667
0.60548,0.86881,4.8438,0.55322,29.754,97.412,-7.1459,2.382,-0.91145,-9.5278,-5.5289e-13,-0.45572,0,0,0.125,-5.2966e-16,0,0.66667
0.76677,0.66496,6.1342,0.24743,8.5717,37.056,-4.0475,1.3492,-1.7841,-5.3966,-8.904e-13,-0.89207,0,0,0.125,2.3685e-15,0,0.66667
0.5047,0.22736,4.0376,-0.40896,-25.841,145.74,4.4032,-1.4677,-1.4042,5.8709,1.2381e-12,-0.70211,0,0,0.125,-0,-0,0.66667
0.49806,0.10606,3.9844,-0.59092,-37.786,149.53,6.2786,-2.0929,-0.75918,8.3714,-1.5943e-13,-0.37959,0,0,0.125,1.1842e-15,0,0.66667
0.8429,0.17196,6.7432,-0.49206,-11.993,18.472,8.8482,-2.9494,-1.1409,11.798,-1.4302e-09,-0.57047,0,0,0.125,1.1842e-15,3.6618e-17,0.66667
0.067807,0.71147,0.54246,0.31721,26.792,419.48,-0.45886,0.15295,-1.641,-0.61181,-3.1072e-08,-0.82048,0,0,0.125,7.4015e-17,0,0.66667
0.57327,0.028099,4.5862,-0.70785,-40.507,112.49,8.6569,-2.8856,-0.218,11.543,-1.716e-12,-0.109,0,0,0.125,5.9212e-16,1.7337e-16,0.66667
0.94276,0.023751,7.5421,-0.71437,-6.74,4.5531,14.368,-4.7892,-0.18421,19.157,6.3722e-06,-0.092104,0,0,0.125,-0,-0,0.66667
0.51786,0.7344,4.1429,0.3516,21.797,138.88,-3.8843,1.2948,-1.5608,-5.1791,-6.7413e-13,-0.78041,0,0,0.125,1.1842e-15,0,0.66667
0.19447,0.63393,1.5557,0.2009,16.386,333.19,-0.83346,0.27782,-1.8546,-1.1113,-3.3956e-10,-0.92728,0,0,0.125,-0,-0,0.66667
0.84794,0.077065,6.7835,-0.6344,-15.107,17.921,11.476,-3.8253,-0.56783,15.301,-8.7271e-09,-0.28391,0,0,0.125,-0,-0,0.66667
0.25164,0.59101,2.0131,0.13651,10.834,295.45,-0.73283,0.24428,-1.9358,-0.9771,5.4806e-13,-0.96792,0,0,0.125,3.7007e-16,0,0.66667
0.70073,0.79246,5.6058,0.4387,18.886,58.915,-6.558,2.186,-1.3161,-8.744,-7.4194e-12,-0.65803,0,0,0.125,1.1842e-15,0,0.66667
0.54026,0.24544,4.3221,-0.38183,-22.908,127.67,4.4009,-1.467,-1.4803,5.8678,-8.8196e-13,-0.74014,0,0,0.125,-2.9606e-16,0,0.66667
0.94884,0.28583,7.5907,-0.32125,-2.5803,2.6846,6.5027,-2.1676,-1.6327,8.6702,4.471e-08,-0.81634,0,0,0.125,-2.3685e-15,0,0.66667
0.62434,0.13077,4.9947,-0.55385,-28.693,89.215,7.3768,-2.4589,-0.91207,9.8358,-1.7719e-13,-0.45603,0,0,0.125,-0,9.4132e-17,0.66667
0.83798,0.34362,6.7038,-0.23457,-5.8374,18.953,4.1934,-1.3978,-1.8041,5.5912,-1.6787e-09,-0.90204,0,0,0.125,-1.4895e-15,0,0.66667
0.0079329,0.37144,0.063463,-0.19284,-16.35,460.94,0.032635,-0.010878,-1.8665,0.043514,1.1533e-07,-0.93325,0,0,0.125,-9.2519e-18,0,0.66667
0.98934,0.94382,7.9147,0.66573,1.1223,1.7571,-14.051,4.6837,-0.42316,-18.735,2.5284e-05,-0.21158,0,0,0.125,-2.3685e-15,0,0.66667
0.077715,0.74187,0.62172,0.3628,30.61,412.65,-0.60149,0.2005,-1.5348,-0.80198,-4.6102e-08,-0.76739,0,0,0.125,-0,-0,0.66667
0.32213,0.38509,2.577,-0.17236,-13.087,250.53,1.1845,-0.39483,-1.8926,1.5793,-2.8313e-12,-0.94628,0,0,0.125,5.9212e-16,0,0.66667
0.94615,0.91218,7.5692,0.61827,5.4133,3.8401,-12.48,4.1599,-0.63926,-16.639,-4.8913e-07,-0.31963,0,0,0.125,2.3685e-15,0,0.66667
0.0089391,0.8855,0.071513,0.57825,49.203,460.25,-0.11027,0.036754,-0.8091,-0.14703,-4.7094e-06,-0.40455,0,0,0.125,-0,-0,0.66667
0.82273,0.98629,6.5818,0.72943,20.089,23.75,-12.803,4.2676,-0.10641,-17.07,1.5623e-11,-0.053204,0,0,0.125,-0,-0,0.66667
0.86121,0.52822,6.8897,0.042337,0.90862,14.12,-0.77784,0.25928,-1.9955,-1.0371,-2.6588e-09,-0.99774,0,0,0.125,-0,-0,0.66667
0.43983,0.29252,3.5186,-0.31121,-21.269,180.71,2.9201,-0.97338,-1.656,3.8935,2.5668e-13,-0.82801,0,0,0.125,-0,-0,0.66667
0.25575,0.1184,2.046,-0.57241,-45.511,293.06,3.123,-1.041,-0.83366,4.164,-1.5211e-11,-0.41683,0,0,0.125,1.4803e-16,0,0.66667
0.80269,0.11417,6.4215,-0.57874,-17.429,28.021,9.9103,-3.3034,-0.80731,13.214,-5.7785e-12,-0.40365,0,0,0.125,-0,-0,0.66667
0.47786,0.73687,3.8229,0.3553,23.235,159.85,-3.6221,1.2074,-1.549,-4.8295,8.4577e-13,-0.77451,0,0,0.125,-0,-0,0.66667
0.13434,0.28461,1.0747,-0.32308,-26.918,373.81,0.92591,-0.30864,-1.6278,1.2345,6.4897e-09,-0.81391,0,0,0.125,2.9606e-16,0,0.66667
0.92785,0.61403,7.4228,0.17105,1.9356,4.3825,-3.3857,1.1286,-1.8941,-4.5143,1.6406e-09,-0.94706,0,0,0.125,1.1842e-15,0,0.66667
0.89597,0.088964,7.1678,-0.61655,-10.261,9.5217,11.785,-3.9283,-0.64743,15.713,-2.8466e-08,-0.32372,0,0,0.125,-5.9212e-16,0,0.66667
0.49155,0.9408,3.9324,0.66119,42.704,153.1,-6.9335,2.3112,-0.44438,-9.2446,7.5229e-13,-0.22219,0,0,0.125,-1.1842e-15,0,0.66667
0.8567,0.39533,6.8536,-0.15701,-3.4771,15.048,2.8695,-0.9565,-1.9125,3.826,-3.1239e-09,-0.95623,0,0,0.125,-1.1842e-15,0,0.66667
0.41858,0.024395,3.3486,-0.71341,-50.172,193.4,6.3705,-2.1235,-0.19037,8.494,-4.1389e-12,-0.095186,0,0,0.125,-0,-1.0139e-16,0.66667
0.68346,0.50365,5.4677,0.0054717,0.24561,64.77,-0.079781,0.026594,-1.9998,-0.10637,2.4308e-12,-0.9999,0,0,0.125,-4.737e-15,0,0.66667
0.39799,0.069734,3.1839,-0.6454,-46.253,205.17,5.4797,-1.8266,-0.51717,7.3063,2.2213e-12,-0.25859,0,0,0.125,-0,-0,0.66667
0.50574,0.81307,4.0459,0.46961,29.657,145.29,-5.0667,1.6889,-1.2155,-6.7556,-8.8196e-13,-0.60777,0,0,0.125,-0,-0,0.66667
0.18955,0.90487,1.5164,0.6073,49.839,336.69,-2.4558,0.8186,-0.69059,-3.2744,8.1855e-10,-0.3453,0,0,0.125,-0,-0,0.66667
0.96499,0.28151,7.7199,-0.32774,-1.7694,1.5924,6.747,-2.249,-1.6188,8.996,1.7946e-07,-0.80942,0,0,0.125,-0,-0,0.66667
0.29422,0.28752,2.3537,-0.31873,-24.691,268.16,2.0005,-0.66684,-1.6394,2.6674,-7.2176e-12,-0.81969,0,0,0.125,5.9212e-16,0,0.66667
0.10346,0.97723,0.82768,0.71585,60.395,395.08,-1.58,0.52666,-0.17634,-2.1066,-2.9189e-07,-0.088169,0,0,0.125,-0,-0,0.66667
0.14432,0.60866,1.1545,0.16299,13.528,366.99,-0.5018,0.16727,-1.9047,-0.66906,-3.2326e-09,-0.95235,0,0,0.125,2.9606e-16,0,0.66667
0.014092,0.54121,0.11274,0.061819,5.2383,456.67,-0.018585,0.0061965,-1.9877,-0.02478,2.2044e-06,-0.99385,0,0,0.125,3.7007e-17,0,0.66667
0.71595,0.49463,5.7276,-0.0080557,-0.33036,53.086,0.12304,-0.041013,-2.0003,0.16405,1.4837e-13,-1.0002,0,0,0.125,-0,-0,0.66667
0.5645,0.11561,4.516,-0.57659,-33.386,116.28,6.9436,-2.3145,-0.8188,9.2581,-1.1635e-12,-0.4094,0,0,0.125,-0,-0,0.66667
0.79458,0.78363,6.3566,0.42544,13.215,29.674,-7.2117,2.4039,-1.358,-9.6155,1.2232e-10,-0.67898,0,0,0.125,-0,-0,0.66667
0.50708,0.74487,4.0566,0.36731,23.121,144.44,-3.9734,1.3245,-1.5188,-5.2979,-2.0584e-13,-0.7594,0,0,0.125,2.9606e-16,0,0.66667
0.79182,0.4285,6.3346,-0.10726,-3.3528,29.924,1.8118,-0.60393,-1.9577,2.4157,-6.2325e-11,-0.97887,0,0,0.125,-1.1842e-15,0,0.66667
0.69576,0.66349,5.5661,0.24523,10.668,60.376,-3.6399,1.2133,-1.7844,-4.8533,-6.4933e-12,-0.89219,0,0,0.125,-0,-0,0.66667
0.77785,0.79587,6.2228,0.44381,14.789,34.258,-7.3646,2.4549,-1.299,-9.8195,3.054e-12,-0.64952,0,0,0.125,-0,-0,0.66667
0.40648,0.29458,3.2519,-0.30813,-21.8,199.77,2.672,-0.89067,-1.6651,3.5627,-9.0861e-13,-0.83253,0,0,0.125,-5.9212e-16,0,0.66667
0.64777,0.74779,5.1822,0.37168,18.245,79.061,-5.1363,1.7121,-1.5078,-6.8484,-2.0188e-12,-0.7539,0,0,0.125,-1.7764e-15,0,0.66667
0.17979,0.85284,1.4384,0.52925,43.548,343.17,-2.03,0.67667,-1.002,-2.7067,-3.3001e-10,-0.50102,0,0,0.125,-0,-0,0.66667
0.32182,0.45699,2.5746,-0.064517,-4.8979,250.69,0.44294,-0.14765,-1.9832,0.59059,2.4164e-12,-0.9916,0,0,0.125,-8.5052e-17,0,0.66667
0.1726,0.44045,1.3808,-0.08932,-7.3435,347.83,0.3289,-0.10963,-1.9747,0.43853,8.7061e-10,-0.98737,0,0,0.125,5.9212e-16,0,0.66667
0.40864,0.25108,3.2691,-0.37338,-26.378,198.58,3.255,-1.085,-1.506,4.34,-1.4326e-12,-0.75299,0,0,0.125,1.1842e-15,0,0.66667
0.24142,0.51032,1.9313,0.015473,1.2344,302.1,-0.079693,0.026564,-1.9971,-0.10626,-3.4617e-12,-0.99855,0,0,0.125,-0,-0,0.66667
0.40692,0.045262,3.2554,-0.68211,-48.5,200.05,5.9214,-1.9738,-0.34777,7.8952,-1.3478e-12,-0.17388,0,0,0.125,-0,-0,0.66667
0.97522,0.49627,7.8018,-0.0055942,-0.020096,0.69655,0.11639,-0.038792,-1.9987,0.15518,4.7512e-06,-0.99936,0,0,0.125,3.8488e-15,0,0.66667
0.32032,0.7315,2.5626,0.34725,26.432,251.76,-2.3729,0.79097,-1.569,-3.1639,1.9504e-12,-0.78451,0,0,0.125,-0,-0,0.66667
0.98249,0.52178,7.8599,0.032676,0.077766,0.41026,-0.68488,0.22829,-1.9972,-0.91317,4.6815e-07,-0.99858,0,0,0.125,-0,-0,0.66667
0.63631,0.70967,5.0904,0.3145,15.82,83.697,-4.2692,1.4231,-1.6473,-5.6923,-1.9749e-12,-0.82367,0,0,0.125,-0,-0,0.66667
0.37509,0.51326,3.0007,0.019893,1.4471,218.14,-0.15918,0.053062,-2.0014,-0.21225,-6.2877e-13,-1.0007,0,0,0.125,-0,-0,0.66667
0.85748,0.30267,6.8599,-0.29599,-6.5405,15.089,5.4146,-1.8049,-1.6894,7.2194,-4.5388e-09,-0.84471,0,0,0.125,1.1842e-15,0,0.66667
0.61959,0.36798,4.9567,-0.19803,-10.304,90.662,2.6175,-0.87251,-1.8593,3.4901,2.145e-13,-0.92963,0,0,0.125,-5.9212e-16,0,0.66667
0.25203,0.2038,2.0163,-0.4443,-35.337,295.35,2.3889,-0.79629,-1.2987,3.1851,-1.9028e-11,-0.64934,0,0,0.125,-0,-0,0.66667
0.79286,0.30441,6.3428,-0.29338,-9.1527,29.86,4.9624,-1.6541,-1.6933,6.6165,-1.3489e-10,-0.84664,0,0,0.125,-0,-0,0.66667
0.43294,0.94668,3.4635,0.67002,46.379,185.14,-6.1883,2.0628,-0.40273,-8.251,2.3661e-12,-0.20136,0,0,0.125,-0,-0,0.66667
0.35751,0.30176,2.8601,-0.29737,-21.986,228.84,2.268,-0.756,-1.6865,3.024,-3.1766e-12,-0.84324,0,0,0.125,-0,-0,0.66667
0.33028,0.38914,2.6422,-0.16629,-12.55,245.46,1.1717,-0.39055,-1.9021,1.5622,-7.2042e-13,-0.95106,0,0,0.125,-0,-0,0.66667
0.69737,0.1887,5.579,-0.46695,-20.301,60.186,6.9468,-2.3156,-1.2243,9.2625,3.4985e-12,-0.61213,0,0,0.125,-0,-0,0.66667
0.26865,0.31974,2.1492,-0.27039,-21.271,284.48,1.5497,-0.51656,-1.7402,2.0662,-1.2718e-11,-0.87009,0,0,0.125,-0,-0,0.66667
0.80828,0.67173,6.4662,0.2576,7.4882,25.853,-4.4418,1.4806,-1.7629,-5.9225,3.7235e-10,-0.88143,0,0,0.125,-0,-0,0.66667
0.29529,0.40241,2.3623,-0.14639,-11.321,267.4,0.9222,-0.3074,-1.9258,1.2296,-8.6312e-12,-0.96289,0,0,0.125,7.4015e-16,0,0.66667
0.54412,0.35964,4.353,-0.21055,-12.534,125.57,2.444,-0.81467,-1.8423,3.2587,6.8701e-13,-0.92113,0,0,0.125,-0,-0,0.66667
0.48792,0.019674,3.9034,-0.72049,-46.813,155.16,7.4996,-2.4999,-0.15365,9.9994,-2.669e-13,-0.076827,0,0,0.125,1.1842e-15,0,0.66667
0.85536,0.75373,6.8429,0.38059,8.5509,15.674,-6.9449,2.315,-1.4849,-9.2598,3.8735e-09,-0.74245,0,0,0.125,2.3685e-15,0,0.66667
0.88839,0.49995,7.1071,-7.2455e-05,-0.0012608,9.4529,0.0013732,-0.00045774,-2.002,0.0018309,-1.6688e-08,-1.001,0,0,0.125,-1.5358e-15,0,0.66667
0.18438,0.37194,1.4751,-0.19209,-15.729,339.93,0.75558,-0.25186,-1.8695,1.0074,3.7131e-10,-0.93475,0,0,0.125,-1.4803e-16,0,0.66667
0.58535,0.020792,4.6828,-0.71881,-40.288,106.93,8.9761,-2.992,-0.16079,11.968,8.5176e-13,-0.080396,0,0,0.125,-0,-0,0.66667
0.89821,0.97006,7.1856,0.70509,11.578,9.5752,-13.511,4.5035,-0.2315,-18.014,3.511e-07,-0.11575,0,0,0.125,-2.3685e-15,0,0.66667
0.44612,0.35913,3.5689,-0.21131,-14.329,177.11,2.011,-0.67035,-1.839,2.6814,7.5384e-13,-0.9195,0,0,0.125,-5.9212e-16,0,0.66667
0.92187,0.49659,7.3749,-0.0051189,-0.062601,4.9444,0.10067,-0.033557,-2.0038,0.13423,-2.098e-07,-1.0019,0,0,0.125,-2.3685e-15,0,0.66667
0.27899,0.61758,2.2319,0.17637,13.782,277.8,-1.0497,0.34991,-1.8902,-1.3997,7.2474e-12,-0.9451,0,0,0.125,2.9606e-16,0,0.66667
0.60883,0.34111,4.8706,-0.23833,-12.674,95.393,3.0955,-1.0318,-1.8014,4.1273,-1.1535e-12,-0.90071,0,0,0.125,-5.9212e-16,0,0.66667
0.68245,0.94513,5.4596,0.6677,30.359,66.231,-9.721,3.2403,-0.41366,-12.961,-8.713e-13,-0.20683,0,0,0.125,2.3685e-15,0,0.66667
0.22821,0.027929,1.8256,-0.70811,-57.233,311.18,3.4473,-1.1491,-0.21618,4.5965,-1.0026e-10,-0.10809,0,0,0.125,-2.9606e-16,0,0.66667
0.013768,0.77805,0.11014,0.41707,35.415,456.9,-0.1225,0.040832,-1.3833,-0.16333,2.3147e-08,-0.69166,0,0,0.125,2.313e-17,0,0.66667
0.41672,0.85534,3.3338,0.53301,37.431,194.13,-4.7385,1.5795,-0.98828,-6.318,6.3949e-13,-0.49414,0,0,0.125,-0,-0,0.66667
0.93848,0.86094,7.5079,0.5414,5.3581,4.2058,-10.839,3.6131,-0.9595,-14.453,9.9444e-08,-0.47975,0,0,0.125,-0,-0,0.66667
0.34303,0.36286,2.7442,-0.20571,-15.378,237.62,1.5054,-0.5018,-1.8516,2.0072,-1.5904e-12,-0.9258,0,0,0.125,-0,-0,0.66667
0.77974,0.63537,6.238,0.20306,6.6826,33.297,-3.3778,1.1259,-1.8547,-4.5037,4.2663e-11,-0.92734,0,0,0.125,-0,-0,0.66667
0.17474,0.41445,1.3979,-0.12832,-10.543,346.4,0.47835,-0.15945,-1.9416,0.6378,5.7384e-10,-0.97081,0,0,0.125,-0,-0,0.66667
0.34195,0.60786,2.7356,0.16178,12.101,238.26,-1.1802,0.3934,-1.9077,-1.5736,-5.6466e-13,-0.95387,0,0,0.125,-0,-0,0.66667
0.1446,0.66219,1.1568,0.24329,20.2,366.81,-0.7505,0.25017,-1.7892,-1.0007,-3.9729e-09,-0.89458,0,0,0.125,-0,-0,0.66667
0.71677,0.78186,5.7342,0.42279,17.374,53.258,-6.465,2.155,-1.3666,-8.62,-1.1596e-11,-0.6833,0,0,0.125,-0,-0,0.66667
0.69931,0.22224,5.5945,-0.41665,-17.999,59.377,6.2158,-2.0719,-1.3829,8.2877,5.0173e-12,-0.69143,0,0,0.125,2.3685e-15,0,0.66667
0.6885,0.74969,5.508,0.37453,16.646,63.237,-5.5011,1.8337,-1.5045,-7.3348,-5.5564e-12,-0.75227,0,0,0.125,-1.8504e-17,0,0.66667
0.2534,0.1817,2.0272,-0.47745,-37.961,294.5,2.581,-0.86033,-1.1895,3.4413,-1.2413e-11,-0.59476,0,0,0.125,1.4803e-16,0,0.66667
0.69236,0.64782,5.5389,0.22173,9.7328,61.591,-3.275,1.0917,-1.824,-4.3666,-5.961e-12,-0.912,0,0,0.125,5.9212e-16,0,0.66667
0.2273,0.64085,1.8184,0.21128,16.984,311.41,-1.0245,0.3415,-1.839,-1.366,-2.7107e-11,-0.91951,0,0,0.125,-2.6917e-16,0,0.66667
0.42465,0.073921,3.3972,-0.63912,-44.601,189.78,5.7899,-1.93,-0.54764,7.7199,-1.128e-12,-0.27382,0,0,0.125,-0,-0,0.66667
0.37192,0.44403,2.9754,-0.083958,-6.125,220.05,0.66615,-0.22205,-1.9751,0.8882,-1.8948e-12,-0.98756,0,0,0.125,-0,-0,0.66667
0.35531,0.85665,2.8425,0.53498,39.735,230.43,-4.0551,1.3517,-0.98133,-5.4068,2.2684e-12,-0.49066,0,0,0.125,-0,-0,0.66667
0.057655,0.8131,0.46124,0.46965,39.777,426.52,-0.57766,0.19255,-1.2158,-0.77021,-7.7731e-08,-0.60788,0,0,0.125,-1.4803e-16,0,0.66667
0.63165,0.2477,5.0532,-0.37845,-19.245,85.75,5.0996,-1.6999,-1.4898,6.7995,3.0109e-13,-0.74491,0,0,0.125,-5.9212e-16,0,0.66667
0.70732,0.67901,5.6585,0.26851,11.313,56.273,-4.0517,1.3506,-1.7428,-5.4023,-8.9737e-12,-0.87141,0,0,0.125,-5.9212e-16,0,0.66667
0.61359,0.30847,4.9087,-0.2873,-15.143,93.362,3.7607,-1.2536,-1.7063,5.0142,-1.1235e-13,-0.85313,0,0,0.125,-5.9212e-16,0,0.66667
0.64831,0.033284,5.1865,-0.70007,-34.578,79.652,9.6825,-3.2275,-0.2564,12.91,-2.0606e-12,-0.1282,0,0,0.125,2.3685e-15,0,0.66667
0.16994,0.43088,1.3595,-0.10368,-8.5329,349.63,0.3759,-0.1253,-1.963,0.5012,1.1183e-09,-0.98149,0,0,0.125,-4.7405e-17,0,0.66667
0.14945,0.55898,1.1956,0.088468,7.3297,363.49,-0.28205,0.094017,-1.971,-0.37607,-1.2927e-10,-0.98549,0,0,0.125,-1.778e-16,0,0.66667
0.51418,0.30033,4.1134,-0.2995,-18.654,140.7,3.2853,-1.0951,-1.6823,4.3804,-5.1226e-13,-0.84115,0,0,0.125,5.9212e-16,0,0.66667
0.87533,0.54355,7.0027,0.065318,1.2653,11.595,-1.2197,0.40658,-1.9874,-1.6263,4.4959e-09,-0.99369,0,0,0.125,-0,-0,0.66667
0.18395,0.46484,1.4716,-0.052738,-4.3174,340.2,0.20696,-0.068987,-1.9903,0.27595,4.7543e-10,-0.99516,0,0,0.125,-4.4409e-16,0,0.66667
0.46284,0.77951,3.7027,0.41926,27.945,168.09,-4.1398,1.3799,-1.3743,-5.5197,4.8361e-13,-0.68717,0,0,0.125,8.1416e-16,0,0.66667
0.42893,0.70663,3.4315,0.30994,21.433,186.87,-2.8362,0.94539,-1.6563,-3.7816,-1.201e-12,-0.82813,0,0,0.125,5.9212e-16,0,0.66667
0.49729,0.85799,3.9783,0.53699,34.338,149.82,-5.6968,1.8989,-0.97467,-7.5957,8.2956e-13,-0.48733,0,0,0.125,-0,-0,0.66667
0.16151,0.44092,1.2921,-0.088626,-7.3145,355.32,0.30537,-0.10179,-1.9714,0.40716,1.0787e-09,-0.98568,0,0,0.125,-0,-0,0.66667
0.34244,0.70226,2.7395,0.30339,22.705,238.04,-2.2164,0.7388,-1.674,-2.9552,9.0106e-13,-0.83702,0,0,0.125,-0,-0,0.66667
0.26188,0.69858,2.095,0.29787,23.529,288.87,-1.6641,0.55471,-1.6838,-2.2188,1.2425e-11,-0.84189,0,0,0.125,-0,-0,0.66667
0.84453,0.44797,6.7562,-0.078039,-1.8647,17.426,1.406,-0.46867,-1.9804,1.8747,-4.9114e-10,-0.99022,0,0,0.125,-0,-0,0.66667
0.80033,0.99014,6.4027,0.7352,22.535,29.206,-12.553,4.1842,-0.077682,-16.737,-1.5771e-10,-0.038841,0,0,0.125,-0,-0,0.66667
0.42664,0.4639,3.4131,-0.054156,-3.7487,188.03,0.49291,-0.1643,-1.9889,0.65722,-1.6109e-13,-0.99444,0,0,0.125,8.8818e-16,0,0.66667
0.60702,0.010805,4.8561,-0.73379,-39.526,97.234,9.5024,-3.1675,-0.0859,12.67,2.0428e-14,-0.04295,0,0,0.125,-0,1.3394e-16,0.66667
0.14547,0.5616,1.1637,0.092399,7.6648,366.2,-0.28674,0.095579,-1.9696,-0.38232,-1.2881e-09,-0.9848,0,0,0.125,-5.5511e-17,0,0.66667
0.50961,0.58758,4.0769,0.13137,8.2246,142.92,-1.4282,0.47607,-1.9372,-1.9043,-2.045e-13,-0.96862,0,0,0.125,-0,-0,0.66667
0.29695,0.43294,2.3756,-0.10059,-7.7691,266.33,0.63722,-0.21241,-1.9677,0.84963,-2.2353e-12,-0.98384,0,0,0.125,1.4803e-16,0,0.66667
0.85965,0.31459,6.8772,-0.27812,-6.0543,14.645,5.1004,-1.7001,-1.7288,6.8006,-5.1235e-09,-0.8644,0,0,0.125,-0,-0,0.66667
0.6716,0.41055,5.3728,-0.13418,-6.2096,69.329,1.9224,-0.6408,-1.9394,2.5632,1.8561e-12,-0.96971,0,0,0.125,-0,-0,0.66667
0.63347,0.15335,5.0678,-0.51997,-26.408,85.268,7.027,-2.3423,-1.0375,9.3693,9.4769e-13,-0.51877,0,0,0.125,-1.4408e-15,0,0.66667
0.12475,0.44549,0.99801,-0.081772,-6.8221,380.31,0.21762,-0.072541,-1.9792,0.29017,1.296e-10,-0.98961,0,0,0.125,-0,-0,0.66667
0.47059,0.32321,3.7647,-0.26519,-17.483,163.69,2.6623,-0.88743,-1.7509,3.5497,8.6642e-13,-0.87543,0,0,0.125,-0,-0,0.66667
0.98657,0.73172,7.8926,0.34759,0.63195,0.69846,-7.3156,2.4385,-1.5709,-9.7542,6.0607e-08,-0.78543,0,0,0.125,-0,-0,0.66667
0.9483,0.38557,7.5864,-0.17165,-1.3805,2.4786,3.4725,-1.1575,-1.8939,4.63,3.1414e-08,-0.94694,0,0,0.125,-2.3685e-15,0,0.66667
0.64509,0.87411,5.1607,0.56117,27.815,80.563,-7.7227,2.5742,-0.88048,-10.297,-1.8607e-12,-0.44024,0,0,0.125,1.7023e-15,0,0.66667
0.15172,0.86373,1.2138,0.54559,45.336,362.1,-1.766,0.58866,-0.94037,-2.3546,-3.7267e-09,-0.47018,0,0,0.125,1.4803e-16,0,0.66667
0.63913,0.73845,5.113,0.35768,17.893,82.59,-4.8768,1.6256,-1.5463,-6.5024,-2.1898e-12,-0.77317,0,0,0.125,-0,-0,0.66667
0.56566,0.97989,4.5253,0.71983,41.738,116.1,-8.6865,2.8955,-0.15735,-11.582,-9.7522e-13,-0.078674,0,0,0.125,-0,-0,0.66667
0.46867,0.55926,3.7493,0.088886,5.8678,164.63,-0.8887,0.29623,-1.9758,-1.1849,-1.5588e-13,-0.98789,0,0,0.125,-2.9606e-16,0,0.66667
0.42804,0.5768,3.4243,0.1152,7.9635,187.25,-1.0519,0.35064,-1.9508,-1.4026,3.5949e-13,-0.97538,0,0,0.125,-5.9212e-16,0,0.66667
0.59927,0.50969,4.7942,0.014532,0.78626,99.524,-0.18579,0.061928,-1.9976,-0.24771,-6.7911e-13,-0.99882,0,0,0.125,-0,-0,0.66667
0.84997,0.52678,6.7998,0.040168,0.92799,16.303,-0.72835,0.24278,-1.993,-0.97113,2.0461e-09,-0.99652,0,0,0.125,1.1842e-15,0,0.66667
0.75112,0.24786,6.009,-0.37821,-13.901,41.979,6.0604,-2.0201,-1.4942,8.0805,1.1934e-11,-0.7471,0,0,0.125,-2.9606e-16,0,0.66667
0.57936,0.55503,4.6349,0.082548,4.6321,108.63,-1.0203,0.34009,-1.9776,-1.3604,-5.3602e-13,-0.98881,0,0,0.125,-5.9212e-16,0,0.66667
0.9247,0.55605,7.3976,0.08407,0.99124,4.6497,-1.6584,0.55282,-1.9753,-2.2113,3.5415e-08,-0.98764,0,0,0.125,-5.9212e-16,0,0.66667
0.06474,0.071573,0.51792,-0.64264,-54.509,421.67,0.88756,-0.29585,-0.53225,1.1834,-1.6032e-07,-0.26612,0,0,0.125,1.4803e-16,0,0.66667
0.99135,0.18605,7.9308,-0.47093,-0.52607,0.93074,9.9596,-3.3199,-1.2106,13.279,-6.2334e-07,-0.60531,0,0,0.125,1.4803e-16,0,0.66667
0.052995,0.087282,0.42396,-0.61908,-52.564,429.77,0.6999,-0.2333,-0.63584,0.9332,-3.1573e-07,-0.31792,0,0,0.125,-0,-0,0.66667
0.1995,0.6076,1.596,0.1614,13.135,329.82,-0.68689,0.22896,-1.9066,-0.91585,-1.6288e-10,-0.9533,0,0,0.125,-0,-0,0.66667
0.42275,0.48425,3.382,-0.023632,-1.6424,190.25,0.21313,-0.071044,-1.9998,0.28417,2.6454e-13,-0.99991,0,0,0.125,-0,-0,0.66667
0.10751,0.1584,0.86007,-0.5124,-43.06,392.22,1.1752,-0.39174,-1.0684,1.5669,3.3887e-08,-0.53422,0,0,0.125,-0,-0,0.66667
0.62367,0.27271,4.9894,-0.34093,-17.619,89.077,4.5361,-1.512,-1.5884,6.0481,-6.7235e-13,-0.79418,0,0,0.125,5.9212e-16,0,0.66667
0.047993,0.073561,0.38394,-0.63966,-54.357,433.23,0.65491,-0.2183,-0.54686,0.87321,1.4328e-06,-0.27343,0,0,0.125,-7.4015e-17,0,0.66667
0.28462,0.58312,2.277,0.12468,9.7068,274.18,-0.75706,0.25235,-1.9443,-1.0094,3.6194e-12,-0.97214,0,0,0.125,-2.9606e-16,0,0.66667
0.061037,0.52665,0.48829,0.039981,3.3757,424.14,-0.05206,0.017353,-1.9963,-0.069413,-1.4169e-07,-0.99815,0,0,0.125,-7.4015e-17,0,0.66667
0.70352,0.70154,5.6282,0.30231,12.881,57.665,-4.5372,1.5124,-1.6775,-6.0495,-7.9621e-12,-0.83873,0,0,0.125,-1.1842e-15,0,0.66667
0.66846,0.56295,5.3476,0.094426,4.403,70.525,-1.3465,0.44885,-1.9693,-1.7954,-5.0149e-13,-0.98463,0,0,0.125,-2.3685e-15,0,0.66667
0.37858,0.6871,3.0286,0.28065,20.376,216.16,-2.2666,0.75555,-1.7208,-3.0222,-2.3452e-12,-0.8604,0,0,0.125,5.9212e-16,0,0.66667
0.18819,0.02023,1.5056,-0.71965,-59.202,337.7,2.8893,-0.96309,-0.16073,3.8524,4.6934e-10,-0.080367,0,0,0.125,5.9212e-16,0,0.66667
0.747,0.50918,5.976,0.013767,0.51122,42.878,-0.2194,0.073133,-1.9993,-0.29253,-1.7304e-12,-0.99965,0,0,0.125,-0,-0,0.66667
0.34038,0.80899,2.723,0.46348,34.801,239.45,-3.3655,1.1218,-1.2366,-4.4874,1.4033e-13,-0.61831,0,0,0.125,1.4803e-16,0,0.66667
0.7953,0.52375,6.3624,0.035631,1.0966,28.977,-0.60453,0.20151,-1.997,-0.80604,6.2965e-12,-0.99848,0,0,0.125,-0,-0,0.66667
0.4879,0.56509,3.9032,0.097637,6.2924,154.29,-1.0163,0.33875,-1.9666,-1.355,-4.5919e-13,-0.98328,0,0,0.125,-0,-0,0.66667
0.52567,0.96997,4.2054,0.70495,43.485,135.61,-7.9055,2.6352,-0.23262,-10.541,2.1334e-12,-0.11631,0,0,0.125,-0,-0,0.66667
0.028491,0.57824,0.22793,0.11736,9.9396,446.68,-0.071331,0.023777,-1.9509,-0.095108,1.9261e-07,-0.97545,0,0,0.125,-0,-0,0.66667
0.64423,0.66446,5.1539,0.2467,12.186,80.33,-3.3905,1.1302,-1.7832,-4.5207,-2.3246e-12,-0.8916,0,0,0.125,-0,-0,0.66667
0.35066,0.41714,2.8053,-0.12428,-9.231,232.92,0.92972,-0.30991,-1.943,1.2396,-5.6227e-13,-0.9715,0,0,0.125,-0,-0,0.66667
0.22921,0.98754,1.8336,0.73131,59.106,310.55,-3.5759,1.192,-0.096781,-4.7679,6.4664e-11,-0.048391,0,0,0.125,-2.9606e-16,0,0.66667
0.43388,0.23147,3.4711,-0.40279,-27.734,184.17,3.7283,-1.2428,-1.4224,4.9711,-1.4455e-13,-0.7112,0,0,0.125,-0,-0,0.66667
0.38247,0.74851,3.0597,0.37277,26.993,213.93,-3.0416,1.0139,-1.505,-4.0554,-8.4777e-13,-0.75251,0,0,0.125,7.4015e-16,0,0.66667
0.46979,0.99139,3.7583,0.73708,49.001,164.91,-7.3871,2.4624,-0.070271,-9.8495,2.6348e-12,-0.035135,0,0,0.125,-1.7764e-15,0,0.66667
0.97948,0.35597,7.8359,-0.21605,-0.63317,0.68051,4.5145,-1.5048,-1.8325,6.0194,6.7124e-08,-0.91627,0,0,0.125,-0,-0,0.66667
0.36438,0.42522,2.915,-0.11217,-8.2371,224.59,0.87196,-0.29065,-1.9537,1.1626,-3.4089e-12,-0.97685,0,0,0.125,5.9212e-16,0,0.66667
0.77441,0.93138,6.1953,0.64707,22.006,35.839,-10.69,3.5633,-0.50971,-14.253,3.1353e-13,-0.25485,0,0,0.125,-5.9212e-16,0,0.66667
0.55277,0.45897,4.4221,-0.061552,-3.6119,121.27,0.72584,-0.24195,-1.9848,0.96779,2.478e-13,-0.99239,0,0,0.125,5.9212e-16,0,0.66667
0.88913,0.82647,7.113,0.48971,8.5885,10.096,-9.2888,3.0963,-1.1484,-12.385,1.3475e-08,-0.57422,0,0,0.125,-0,-0,0.66667
0.35495,0.74497,2.8396,0.36746,27.243,230.45,-2.7825,0.92751,-1.5194,-3.71,1.531e-12,-0.75968,0,0,0.125,-0,-0,0.66667
0.24552,0.12662,1.9641,-0.56008,-44.768,299.7,2.9335,-0.97784,-0.88469,3.9114,7.7401e-11,-0.44235,0,0,0.125,5.9212e-16,0,0.66667
0.91102,0.49408,7.2882,-0.0088781,-0.12364,6.2534,0.17255,-0.057515,-1.9989,0.23006,1.2484e-07,-0.99943,0,0,0.125,1.7764e-15,0,0.66667
0.043534,0.66162,0.34827,0.24243,20.521,436.26,-0.22515,0.07505,-1.7912,-0.3002,9.5603e-08,-0.89559,0,0,0.125,-0,-0,0.66667
0.95075,0.70915,7.606,0.31372,2.4208,2.5193,-6.3632,2.1211,-1.6505,-8.4842,-5.9647e-08,-0.82526,0,0,0.125,1.1842e-15,0,0.66667
0.55641,0.5027,4.4513,0.0040521,0.23636,119.5,-0.048099,0.016033,-1.9991,-0.064132,-1.2549e-12,-0.99953,0,0,0.125,-0,-0,0.66667
0.37636,0.60035,3.0109,0.15052,10.941,217.41,-1.2085,0.40284,-1.9213,-1.6114,3.525e-13,-0.96063,0,0,0.125,-0,-0,0.66667
0.99505,0.896,7.9604,0.594,0.37116,1.3211,-12.609,4.2031,-0.74409,-16.812,3.1593e-06,-0.37204,0,0,0.125,-1.1842e-15,1.3052e-16,0.66667
0.058363,0.50854,0.4669,0.012815,1.0823,425.99,-0.015955,0.0053188,-1.9986,-0.021273,6.6623e-07,-0.99931,0,0,0.125,-0,-0,0.66667
0.51671,0.80625,4.1337,0.45937,28.566,139.63,-5.0636,1.6879,-1.2519,-6.7515,1.8652e-14,-0.62594,0,0,0.125,-5.9212e-16,0,0.66667
0.031097,0.74523,0.24878,0.36785,31.197,444.88,-0.24403,0.081345,-1.5224,-0.32538,3.2199e-07,-0.76121,0,0,0.125,-0,-0,0.66667
0.57118,0.0011151,4.5694,-0.74833,-43.022,113.59,9.1184,-3.0395,-0.0081425,12.158,1.8652e-12,-0.0040712,0,0,0.125,-4.737e-15,0,0.66667
0.18047,0.69963,1.4437,0.29944,24.573,342.59,-1.1529,0.38429,-1.679,-1.5371,-6.9106e-10,-0.83951,0,0,0.125,-2.9606e-16,0,0.66667
0.63096,0.3873,5.0477,-0.16904,-8.5888,85.783,2.2754,-0.75847,-1.8965,3.0339,-1.7741e-13,-0.94823,0,0,0.125,-0,-0,0.66667
0.98092,0.77526,7.8474,0.41289,1.1636,1.0577,-8.6402,2.8801,-1.3938,-11.52,-4.8958e-07,-0.69691,0,0,0.125,-0,-0,0.66667
0.8749,0.21868,6.9992,-0.42198,-8.2774,12.209,7.876,-2.6253,-1.3713,10.501,-7.6865e-09,-0.68567,0,0,0.125,-1.6977e-15,0,0.66667
0.45184,0.39203,3.6147,-0.16195,-10.908,173.9,1.5611,-0.52035,-1.9081,2.0814,2.8266e-13,-0.95404,0,0,0.125,-0,-0,0.66667
0.70846,0.7781,5.6677,0.41715,17.562,56.127,-6.3047,2.1016,-1.3806,-8.4063,-5.9535e-12,-0.69029,0,0,0.125,-1.4803e-15,0,0.66667
0.77747,0.31181,6.2198,-0.28228,-9.3865,34.04,4.6819,-1.5606,-1.7173,6.2426,-3.5472e-11,-0.85866,0,0,0.125,1.2583e-15,0,0.66667
0.49484,0.46284,3.9587,-0.055739,-3.5594,150.6,0.58842,-0.19614,-1.9879,0.78456,3.8847e-13,-0.99396,0,0,0.125,-2.9606e-16,0,0.66667
0.52853,0.82472,4.2283,0.48708,29.789,133.69,-5.492,1.8307,-1.1564,-7.3227,-9.6367e-14,-0.57822,0,0,0.125,-0,-0,0.66667
0.15078,0.95618,1.2063,0.68427,56.996,362.83,-2.2011,0.7337,-0.33343,-2.9348,-8.3286e-09,-0.16672,0,0,0.125,-0,-0,0.66667
0.3694,0.86627,2.9552,0.5494,40.336,221.95,-4.3296,1.4432,-0.92522,-5.7728,1.8479e-12,-0.46261,0,0,0.125,-5.9212e-16,0,0.66667
0.14222,0.52989,1.1378,0.044832,3.7222,368.4,-0.13602,0.045341,-1.9953,-0.18136,7.0502e-10,-0.99763,0,0,0.125,2.9606e-16,0,0.66667
0.72689,0.79734,5.8152,0.44601,17.782,49.892,-6.9163,2.3054,-1.2904,-9.2217,-9.8819e-12,-0.64521,0,0,0.125,-1.1842e-15,0,0.66667
0.47701,0.11649,3.8161,-0.57526,-37.781,160.66,5.854,-1.9513,-0.82145,7.8053,-1.132e-12,-0.41073,0,0,0.125,5.9212e-16,0,0.66667
0.44888,0.48481,3.591,-0.02278,-1.5389,175.5,0.21814,-0.072713,-1.9969,0.29085,2.7227e-13,-0.99847,0,0,0.125,-0,-0,0.66667
0.886,0.36503,7.088,-0.20246,-3.6051,9.9563,3.8268,-1.2756,-1.853,5.1024,-9.5704e-09,-0.92652,0,0,0.125,1.1842e-15,0,0.66667
0.52762,0.20483,4.221,-0.44276,-27.096,134.07,4.9837,-1.6612,-1.3022,6.6449,1.7319e-13,-0.65109,0,0,0.125,5.9212e-16,0,0.66667
0.40909,0.21943,3.2727,-0.42085,-29.734,198.37,3.6729,-1.2243,-1.3716,4.8972,-1.3345e-13,-0.68581,0,0,0.125,-1.1842e-15,0,0.66667
0.26889,0.11081,2.1511,-0.58378,-46.08,284.58,3.3488,-1.1163,-0.78772,4.4651,-8.1759e-12,-0.39386,0,0,0.125,-0,-0,0.66667
0.072012,0.5675,0.5761,0.10124,8.5367,416.56,-0.15554,0.051846,-1.9623,-0.20738,-6.2529e-08,-0.98114,0,0,0.125,-0,-0,0.66667
0.41814,0.52188,3.3451,0.032816,2.2916,192.9,-0.29273,0.097575,-1.9956,-0.3903,-1.4642e-12,-0.99778,0,0,0.125,-0,-0,0.66667
0.025753,0.45813,0.20603,-0.062798,-5.3189,448.58,0.034502,-0.0115,-1.9843,0.046003,9.7858e-07,-0.99215,0,0,0.125,-0,-0,0.66667
0.29115,0.94646,2.3292,0.66969,52.223,270.46,-4.1596,1.3865,-0.40379,-5.5461,7.2342e-13,-0.20189,0,0,0.125,-0,-0,0.66667
0.50351,0.52561,4.0281,0.03842,2.425,146.06,-0.41269,0.13756,-1.9947,-0.55026,1.5765e-13,-0.99736,0,0,0.125,-5.9212e-16,0,0.66667
0.96593,0.65248,7.7275,0.22872,1.1862,1.3491,-4.7132,1.5711,-1.8148,-6.2843,-1.0596e-07,-0.9074,0,0,0.125,5.8203e-16,0,0.66667
0.10938,0.024019,0.87506,-0.71397,-60.158,391.03,1.6661,-0.55535,-0.19092,2.2214,1.9386e-07,-0.095462,0,0,0.125,-1.4803e-16,0,0.66667
0.67304,0.12264,5.3843,-0.56604,-26.28,69.497,8.1273,-2.7091,-0.86351,10.836,8.1535e-13,-0.43175,0,0,0.125,2.9606e-16,0,0.66667
0.49993,0.27832,3.9995,-0.33252,-21.127,148.12,3.5464,-1.1821,-1.6108,4.7285,5.4623e-13,-0.8054,0,0,0.125,1.4801e-16,0,0.66667
0.7771,0.67419,6.2168,0.26129,8.6981,34.113,-4.3316,1.4439,-1.7561,-5.7755,3.1619e-11,-0.87807,0,0,0.125,-0,-0,0.66667
0.14361,0.50882,1.1489,0.013232,1.0981,367.45,-0.040538,0.013513,-1.9994,-0.054051,-8.1794e-10,-0.99969,0,0,0.125,-0,-0,0.66667
0.083203,0.96121,0.66562,0.69181,58.565,408.97,-1.228,0.40932,-0.29711,-1.6373,3.1925e-07,-0.14855,0,0,0.125,4.9266e-17,0,0.66667
0.39922,0.32228,3.1937,-0.26658,-18.987,203.97,2.2704,-0.7568,-1.7453,3.0272,2.5824e-13,-0.87265,0,0,0.125,-0,-0,0.66667
0.79696,0.33682,6.3757,-0.24477,-7.493,28.709,4.1615,-1.3872,-1.7903,5.5487,-1.7353e-10,-0.89515,0,0,0.125,-1.1842e-15,0,0.66667
0.19168,0.28407,1.5334,-0.32389,-26.47,335.1,1.3244,-0.44148,-1.627,1.7659,3.7769e-10,-0.81348,0,0,0.125,5.9212e-16,0,0.66667
0.76778,0.65575,6.1422,0.23363,8.0613,36.746,-3.8267,1.2756,-1.808,-5.1023,-2.5364e-12,-0.90398,0,0,0.125,2.9606e-16,0,0.66667
0.2903,0.98991,2.3224,0.73486,57.406,271.1,-4.551,1.517,-0.077966,-6.068,4.8321e-12,-0.038983,0,0,0.125,5.9212e-16,0,0.66667
0.21689,0.72754,1.7351,0.34131,27.597,318.33,-1.5792,0.52641,-1.5869,-2.1057,-5.4942e-11,-0.79343,0,0,0.125,5.9212e-16,0,0.66667
0.016716,0.41989,0.13372,-0.12016,-10.183,454.85,0.04285,-0.014283,-1.9502,0.057134,7.8351e-08,-0.97512,0,0,0.125,-0,-0,0.66667
0.39866,0.24323,3.1893,-0.38515,-27.478,204.4,3.2756,-1.0919,-1.4708,4.3675,-9.1638e-13,-0.7354,0,0,0.125,5.9212e-16,0,0.66667
0.38108,0.80404,3.0487,0.45606,33.098,214.85,-3.7077,1.2359,-1.2588,-4.9435,1.4424e-12,-0.62939,0,0,0.125,-2.9606e-16,0,0.66667
0.65934,0.70888,5.2748,0.31331,14.962,74.316,-4.4071,1.469,-1.6508,-5.8761,-3.8547e-12,-0.8254,0,0,0.125,5.9212e-16,0,0.66667
0.070918,0.10029,0.56735,-0.59956,-50.779,417.4,0.90709,-0.30236,-0.72018,1.2095,3.0435e-07,-0.36009,0,0,0.125,1.4803e-16,0,0.66667
0.1526,0.82149,1.2208,0.48223,40.027,361.47,-1.5699,0.52331,-1.1727,-2.0932,-2.0524e-09,-0.58633,0,0,0.125,-0,-0,0.66667
0.016576,0.39518,0.13261,-0.15723,-13.326,454.94,0.055601,-0.018534,-1.914,0.074134,-1.165e-08,-0.95698,0,0,0.125,-0,-0,0.66667
0.1138,0.9323,0.91037,0.64844,54.522,387.97,-1.5742,0.52473,-0.5044,-2.0989,-3.3886e-08,-0.2522,0,0,0.125,1.4803e-16,0,0.66667
0.65179,0.87058,5.2143,0.55587,27.136,77.829,-7.7292,2.5764,-0.90091,-10.306,-5.6399e-13,-0.45046,0,0,0.125,-5.9212e-16,0,0.66667
0.40266,0.8907,3.2213,0.58605,41.768,202.35,-5.0341,1.678,-0.77806,-6.7122,1.8145e-12,-0.38903,0,0,0.125,-0,-0,0.66667
0.32103,0.24001,2.5682,-0.38998,-29.683,251.35,2.6708,-0.89026,-1.4572,3.5611,-2.3512e-12,-0.72861,0,0,0.125,-0,-0,0.66667
0.55791,0.011784,4.4633,-0.73232,-43.02,119.83,8.7162,-2.9054,-0.091846,11.622,2.907e-12,-0.045923,0,0,0.125,-2.3685e-15,0,0.66667
0.99346,0.25567,7.9477,-0.36649,-0.24495,0.5777,7.7673,-2.5891,-1.521,10.356,-4.2982e-07,-0.76048,0,0,0.125,-0,-0,0.66667
0.83449,0.64213,6.6759,0.2132,5.4096,19.68,-3.7954,1.2651,-1.8363,-5.0606,1.4915e-09,-0.91814,0,0,0.125,-1.1842e-15,0,0.66667
0.69962,0.47152,5.597,-0.042723,-1.8364,58.836,0.63765,-0.21255,-1.9939,0.85021,1.5961e-12,-0.99697,0,0,0.125,-0,-0,0.66667
0.91826,0.45531,7.3461,-0.067028,-0.85807,5.3782,1.3131,-0.43768,-1.9833,1.7507,-1.043e-08,-0.99163,0,0,0.125,-0,-0,0.66667
0.039729,0.58536,0.31783,0.12804,10.836,438.89,-0.10852,0.036173,-1.9398,-0.14469,3.8118e-08,-0.9699,0,0,0.125,-3.7007e-17,0,0.66667
0.070333,0.43132,0.56267,-0.10302,-8.6884,417.71,0.15457,-0.051524,-1.9606,0.2061,5.0762e-08,-0.98029,0,0,0.125,7.8653e-17,0,0.66667
0.47401,0.72245,3.7921,0.33368,21.92,161.91,-3.3742,1.1247,-1.6034,-4.4989,1.9966e-12,-0.80169,0,0,0.125,-1.1842e-15,0,0.66667
0.34917,0.38147,2.7933,-0.1778,-13.224,233.85,1.3244,-0.44147,-1.8864,1.7659,-2.4484e-12,-0.94319,0,0,0.125,-0,-0,0.66667
0.93725,0.73267,7.498,0.34901,3.4607,3.7487,-6.9783,2.3261,-1.5695,-9.3044,2.83e-08,-0.78475,0,0,0.125,-0,-0,0.66667
0.48956,0.74759,3.9165,0.37139,23.932,153.63,-3.8788,1.2929,-1.5091,-5.1717,-1.5632e-12,-0.75455,0,0,0.125,-2.9606e-16,0,0.66667
0.53965,0.95875,4.3172,0.68813,41.556,128.6,-7.9221,2.6407,-0.31431,-10.563,3.2996e-13,-0.15716,0,0,0.125,5.9212e-16,0,0.66667
0.89526,0.38722,7.1621,-0.16917,-2.772,8.5057,3.231,-1.077,-1.8969,4.308,-1.0172e-08,-0.94844,0,0,0.125,-0,-0,0.66667
0.44664,0.48058,3.5731,-0.029131,-1.973,176.76,0.27757,-0.092524,-1.9949,0.37009,9.8543e-13,-0.99746,0,0,0.125,-0,-0,0.66667
0.87703,0.93144,7.0163,0.64717,12.65,12.599,-12.109,4.0362,-0.51204,-16.145,1.083e-07,-0.25602,0,0,0.125,-5.9212e-16,0,0.66667
0.25358,0.91663,2.0287,0.62495,49.788,294.52,-3.3808,1.1269,-0.61075,-4.5078,1.2179e-11,-0.30538,0,0,0.125,-0,-0,0.66667
0.27381,0.97812,2.1905,0.71719,56.576,281.59,-4.1893,1.3964,-0.16916,-5.5857,-1.5454e-12,-0.084578,0,0,0.125,-5.9212e-16,0,0.66667
0.32836,0.54779,2.6269,0.071681,5.4158,246.62,-0.50213,0.16738,-1.9843,-0.6695,-1.8774e-12,-0.99216,0,0,0.125,-5.9212e-16,0,0.66667
0.54756,0.32738,4.3805,-0.25893,-15.337,123.92,3.0246,-1.0082,-1.7637,4.0328,4.5808e-13,-0.88183,0,0,0.125,-0,-0,0.66667
0.22013,0.20872,1.761,-0.43692,-35.308,316.25,2.0518,-0.68393,-1.3227,2.7357,5.3033e-12,-0.66135,0,0,0.125,2.9606e-16,0,0.66667
0.67143,0.24719,5.3714,-0.37921,-17.607,69.695,5.4318,-1.8106,-1.4922,7.2424,2.407e-12,-0.74609,0,0,0.125,-1.4803e-16,0,0.66667
0.14279,0.63638,1.1423,0.20457,16.99,368.03,-0.62316,0.20772,-1.8517,-0.83088,-3.8452e-09,-0.92587,0,0,0.125,-0,-0,0.66667
0.0941,0.72147,0.7528,0.33221,27.941,401.37,-0.6669,0.2223,-1.6112,-0.88919,-2.6223e-08,-0.80561,0,0,0.125,-2.9606e-16,0,0.66667
0.87019,0.14565,6.9615,-0.53152,-10.857,13.351,9.8672,-3.2891,-0.99414,13.156,-3.6182e-09,-0.49707,0,0,0.125,1.1842e-15,0,0.66667
0.23687,0.47229,1.8949,-0.04157,-3.3241,305.08,0.21006,-0.070021,-1.995,0.28009,-1.3406e-12,-0.99749,0,0,0.125,-0,-0,0.66667
0.386,0.6026,3.088,0.15389,11.09,211.68,-1.2673,0.42243,-1.9147,-1.6897,8.149e-14,-0.95734,0,0,0.125,-0,-0,0.66667
0.57154,0.018526,4.5723,-0.72221,-41.466,113.34,8.8059,-2.9353,-0.14334,11.741,-4.0057e-13,-0.071671,0,0,0.125,-0,-0,0.66667
0.5258,0.25784,4.2064,-0.36324,-22.265,134.86,4.0745,-1.3582,-1.5295,5.4327,3.6682e-13,-0.76473,0,0,0.125,-0,-0,0.66667
0.076024,0.90391,0.60819,0.60587,51.279,413.88,-0.98263,0.32754,-0.69654,-1.3102,-2.5342e-07,-0.34827,0,0,0.125,-2.0354e-16,0,0.66667
0.87413,0.35793,6.993,-0.2131,-4.1756,11.93,3.974,-1.3247,-1.8403,5.2986,-7.5204e-09,-0.92017,0,0,0.125,1.1842e-15,0,0.66667
0.95114,0.77545,7.6091,0.41317,3.1936,2.7346,-8.3836,2.7945,-1.3943,-11.178,-2.4645e-09,-0.69715,0,0,0.125,-0,-0,0.66667
0.81251,0.63958,6.5001,0.20937,5.959,24.75,-3.6292,1.2097,-1.847,-4.8389,4.5091e-10,-0.92352,0,0,0.125,1.1842e-15,0,0.66667
0.2838,0.19715,2.2704,-0.45428,-35.475,274.9,2.7504,-0.9168,-1.2666,3.6672,-6.8068e-12,-0.63328,0,0,0.125,-0,-0,0.66667
0.52785,0.54238,4.2228,0.063566,3.8762,133.59,-0.7158,0.2386,-1.9851,-0.9544,1.4982e-12,-0.99256,0,0,0.125,-1.1842e-15,0,0.66667
0.33942,0.6917,2.7153,0.28755,21.568,239.89,-2.0821,0.69405,-1.7056,-2.7762,1.6063e-12,-0.85282,0,0,0.125,-0,-0,0.66667
0.55467,0.71557,4.4373,0.32335,18.95,120.54,-3.8262,1.2754,-1.627,-5.1016,5.3957e-14,-0.81351,0,0,0.125,-8.8818e-16,0,0.66667
0.9744,0.85768,7.7952,0.53653,2.161,1.7308,-11.153,3.7176,-0.97461,-14.871,-2.3057e-06,-0.4873,0,0,0.125,-0,-0,0.66667
0.3117,0.86391,2.4936,0.54586,41.905,257.34,-3.6298,1.2099,-0.9426,-4.8397,1.0552e-12,-0.4713,0,0,0.125,2.9606e-16,0,0.66667
0.6688,0.99836,5.3504,0.74754,35.254,71.701,-10.666,3.5552,-0.014092,-14.221,-2.1556e-12,-0.0070458,0,0,0.125,3.9968e-15,2.9482e-17,0.66667
0.32597,0.8812,2.6077,0.5718,43.47,248.48,-3.9763,1.3254,-0.83852,-5.3017,-3.2507e-13,-0.41926,0,0,0.125,-0,-0,0.66667
0.77448,0.34938,6.1958,-0.22594,-7.5957,34.807,3.733,-1.2443,-1.817,4.9773,-2.3077e-11,-0.90849,0,0,0.125,2.3685e-15,0,0.66667
0.32581,0.25011,2.6065,-0.37483,-28.426,248.37,2.6053,-0.86843,-1.5024,3.4737,-1.8274e-12,-0.75121,0,0,0.125,-0,-0,0.66667
0.88983,0.0015812,7.1186,-0.74763,-13.28,10.999,14.192,-4.7307,-0.015903,18.923,-1.2075e-08,-0.0079516,0,0,0.125,-0,-0,0.66667
0.75171,0.21483,6.0137,-0.42776,-15.708,41.905,6.8597,-2.2866,-1.3513,9.1463,2.6257e-11,-0.67563,0,0,0.125,1.4803e-15,0,0.66667
0.76263,0.35341,6.1011,-0.21989,-7.7334,38.242,3.5775,-1.1925,-1.828,4.77,1.9373e-12,-0.91401,0,0,0.125,-0,-0,0.66667
0.46948,0.0077026,3.7558,-0.73845,-49.112,165.08,7.3959,-2.4653,-0.063561,9.8613,-1.1617e-12,-0.031781,0,0,0.125,-0,-0,0.66667
0.21076,0.13624,1.6861,-0.54563,-44.343,322.53,2.4533,-0.81778,-0.93929,3.2711,2.2348e-10,-0.46964,0,0,0.125,-0,-0,0.66667
0.041475,0.36969,0.3318,-0.19546,-16.544,437.68,0.17294,-0.057648,-1.8631,0.23059,-4.7864e-08,-0.93155,0,0,0.125,7.4015e-17,0,0.66667
0.32183,0.35233,2.5746,-0.22151,-16.826,250.74,1.5208,-0.50693,-1.8238,2.0277,-2.1944e-12,-0.91189,0,0,0.125,-0,-0,0.66667
0.037113,0.12597,0.2969,-0.56104,-47.665,440.74,0.4442,-0.14807,-0.88035,0.59226,5.1354e-07,-0.44018,0,0,0.125,-0,-0,0.66667
0.69386,0.87005,5.5508,0.55508,24.416,61.683,-8.2165,2.7388,-0.90315,-10.955,-3.1646e-12,-0.45158,0,0,0.125,1.4803e-15,0,0.66667
0.67035,0.64044,5.3628,0.21066,9.7849,69.875,-3.0125,1.0042,-1.8433,-4.0167,-3.6744e-12,-0.92164,0,0,0.125,-0,-0,0.66667
0.43047,0.45787,3.4438,-0.063189,-4.3563,185.85,0.58029,-0.19343,-1.9837,0.77372,1.9201e-13,-0.99185,0,0,0.125,5.9212e-16,0,0.66667
0.76779,0.47758,6.1423,-0.033629,-1.1584,36.596,0.55083,-0.18361,-1.9967,0.73443,5.5725e-12,-0.99836,0,0,0.125,-0,-0,0.66667
0.53601,0.77891,4.2881,0.41837,25.276,129.83,-4.784,1.5947,-1.3774,-6.3787,1.608e-12,-0.68869,0,0,0.125,2.9606e-16,0,0.66667
0.03986,0.82285,0.31888,0.48428,41.095,438.83,-0.4118,0.13727,-1.1641,-0.54907,-2.4403e-07,-0.58204,0,0,0.125,-0,-0,0.66667
0.13479,0.60328,1.0783,0.15491,12.893,373.47,-0.44547,0.14849,-1.913,-0.59396,-2.7221e-09,-0.95648,0,0,0.125,-2.9606e-16,0,0.66667
0.19342,0.20712,1.5473,-0.43933,-35.918,333.99,1.8128,-0.60425,-1.3119,2.417,2.0408e-10,-0.65593,0,0,0.125,-0,-0,0.66667
0.33566,0.62815,2.6853,0.19223,14.45,242.14,-1.3765,0.45884,-1.8674,-1.8353,-4.7395e-13,-0.9337,0,0,0.125,-0,-0,0.66667
0.052313,0.9368,0.4185,0.6552,55.667,430.25,-0.73121,0.24374,-0.47337,-0.97495,-1.766e-07,-0.23668,0,0,0.125,-8.3267e-17,0,0.66667
0.60512,0.9105,4.8409,0.61575,33.187,97.729,-7.9488,2.6496,-0.65161,-10.598,-3.6771e-13,-0.3258,0,0,0.125,-0,-0,0.66667
0.51206,0.50377,4.0965,0.0056572,0.35286,141.63,-0.061799,0.0206,-2.0001,-0.082399,5.2641e-13,-1.0001,0,0,0.125,-0,-0,0.66667
0.61746,0.51516,4.9397,0.022739,1.1873,91.497,-0.29953,0.099843,-1.9959,-0.39937,-1.2025e-12,-0.99793,0,0,0.125,-0,-0,0.66667
0.43236,0.26311,3.4588,-0.35534,-24.494,184.97,3.2775,-1.0925,-1.5494,4.37,5.1226e-13,-0.7747,0,0,0.125,-1.1842e-15,0,0.66667
0.8477,0.69687,6.7816,0.29531,6.9456,17.02,-5.3404,1.7801,-1.6892,-7.1205,2.794e-09,-0.84459,0,0,0.125,2.3685e-15,0,0.66667
0.45406,0.85927,3.6325,0.53891,36.354,173.1,-5.2202,1.7401,-0.96911,-6.9603,3.9968e-14,-0.48456,0,0,0.125,5.9212e-16,0,0.66667
0.015404,0.99473,0.12323,0.7421,63.302,455.79,-0.24377,0.081277,-0.045383,-0.32501,3.22e-05,-0.022692,0,0,0.125,3.7007e-17,0,0.66667
0.87307,0.17672,6.9845,-0.48492,-9.6735,12.702,9.0319,-3.0106,-1.1647,12.042,-6.6061e-09,-0.58236,0,0,0.125,-0,-0,0.66667
0.6562,0.87387,5.2496,0.56081,27.105,76.073,-7.8508,2.6169,-0.88606,-10.468,-2.3097e-12,-0.44303,0,0,0.125,1.3323e-15,2.0771e-17,0.66667
0.823,0.49634,6.584,-0.0054941,-0.14807,22.131,0.096463,-0.032154,-1.9992,0.12862,1.1905e-10,-0.9996,0,0,0.125,-2.9606e-16,0,0.66667
0.95178,0.1885,7.6142,-0.46724,-3.586,2.8474,9.4872,-3.1624,-1.2265,12.65,-8.0215e-08,-0.61326,0,0,0.125,-2.3685e-15,0,0.66667
0.050912,0.22251,0.4073,-0.41624,-35.259,431.17,0.45209,-0.1507,-1.3839,0.60279,4.4571e-09,-0.69194,0,0,0.125,-0,-0,0.66667
0.23507,0.51309,1.8806,0.019633,1.5713,306.26,-0.098456,0.032819,-2.0007,-0.13128,-8.5505e-12,-1.0003,0,0,0.125,-1.1842e-15,0,0.66667
0.063343,0.78115,0.50675,0.42172,35.674,422.58,-0.56989,0.18996,-1.3712,-0.75985,-7.1096e-08,-0.68558,0,0,0.125,-2.8334e-17,0,0.66667
0.42166,0.10358,3.3733,-0.59463,-41.591,191.4,5.3489,-1.783,-0.74565,7.1319,-1.1626e-12,-0.37283,0,0,0.125,-0,-0,0.66667
0.86383,0.76362,6.9106,0.39542,8.3974,14.107,-7.287,2.429,-1.4427,-9.716,5.7501e-09,-0.72137,0,0,0.125,-0,-0,0.66667
0.081624,0.43592,0.65299,-0.096121,-8.0926,409.92,0.16738,-0.055792,-1.9678,0.22317,3.68e-09,-0.98391,0,0,0.125,2.0354e-16,0,0.66667
0.47311,0.50473,3.7849,0.0070975,0.46594,162.2,-0.071635,0.023878,-1.9994,-0.095513,1.7552e-12,-0.99968,0,0,0.125,-0,-0,0.66667
0.12554,0.2188,1.0043,-0.4218,-35.258,379.85,1.1297,-0.37656,-1.3713,1.5062,7.6879e-09,-0.68566,0,0,0.125,-0,-0,0.66667
0.77289,0.97313,6.1831,0.7097,24.341,36.505,-11.702,3.9006,-0.20776,-15.602,-7.9618e-11,-0.10388,0,0,0.125,-0,-0,0.66667
0.84142,0.33555,6.7314,-0.24667,-6.0182,18.239,4.4278,-1.4759,-1.7843,5.9037,-2.1422e-09,-0.89215,0,0,0.125,5.9212e-16,0,0.66667
0.043291,0.60541,0.34633,0.15811,13.379,436.42,-0.14602,0.048675,-1.9104,-0.1947,1.0231e-07,-0.95522,0,0,0.125,-7.4015e-17,0,0.66667
0.48644,0.0021087,3.8915,-0.74684,-48.646,156.01,7.7502,-2.5834,-0.018625,10.334,2.1316e-12,-0.0093126,0,0,0.125,-0,-0,0.66667
0.23941,0.54655,1.9153,0.069826,5.5765,303.42,-0.35663,0.11888,-1.981,-0.47551,-5.323e-12,-0.99051,0,0,0.125,-0,-0,0.66667
0.95247,0.93191,7.6198,0.64786,5.0341,3.4776,-13.164,4.3881,-0.51041,-17.552,1.5706e-06,-0.25521,0,0,0.125,5.9212e-16,-8.6995e-17,0.66667
0.94389,0.47782,7.5511,-0.033265,-0.29024,2.7484,0.66984,-0.22328,-1.9942,0.89312,5.7697e-08,-0.99712,0,0,0.125,-0,-0,0.66667
0.61393,0.085434,4.9115,-0.62185,-32.95,93.875,8.1445,-2.7148,-0.62405,10.859,8.2601e-14,-0.31203,0,0,0.125,-0,-0,0.66667
0.97349,0.61607,7.7879,0.1741,0.68125,0.88097,-3.6157,1.2052,-1.891,-4.821,-5.9387e-08,-0.94552,0,0,0.125,1.1842e-15,0,0.66667
0.34486,0.62972,2.7589,0.19458,14.523,236.49,-1.4315,0.47717,-1.8677,-1.9087,-2.1119e-12,-0.93387,0,0,0.125,1.1842e-15,0,0.66667
0.89785,0.7549,7.1828,0.38236,6.1603,8.5051,-7.3237,2.4412,-1.4787,-9.765,2.3177e-08,-0.73936,0,0,0.125,-0,-0,0.66667
0.43459,0.35308,3.4768,-0.22038,-15.136,183.59,2.0432,-0.68107,-1.8273,2.7243,1.6729e-12,-0.91367,0,0,0.125,-1.1842e-15,0,0.66667
0.23581,0.77529,1.8865,0.41293,33.11,305.92,-2.0773,0.69245,-1.3955,-2.7698,1.2468e-12,-0.69777,0,0,0.125,1.4803e-16,0,0.66667
0.94083,0.010293,7.5266,-0.73456,-7.1812,4.8186,14.743,-4.9145,-0.081102,19.658,9.7786e-07,-0.040551,0,0,0.125,-0,-0,0.66667
0.68422,0.89072,5.4737,0.58607,26.465,65.323,-8.5547,2.8516,-0.77818,-11.406,-1.4673e-12,-0.38909,0,0,0.125,-0,-0,0.66667
0.064912,0.063489,0.51929,-0.65477,-55.547,421.56,0.90671,-0.30224,-0.47735,1.2089,-9.7392e-08,-0.23867,0,0,0.125,-0,-0,0.66667
0.87042,0.46582,6.9634,-0.051275,-1.0307,12.443,0.95212,-0.31737,-1.9904,1.2695,-7.0336e-10,-0.99518,0,0,0.125,2.9606e-16,0,0.66667
0.70138,0.054154,5.611,-0.66877,-28.914,59.316,10.007,-3.3355,-0.41098,13.342,5.5067e-14,-0.20549,0,0,0.125,-5.9212e-16,0,0.66667
0.60493,0.14859,4.8394,-0.52712,-28.365,97.596,6.8026,-2.2675,-1.0112,9.0701,1.8319e-12,-0.50558,0,0,0.125,-5.9212e-16,0,0.66667
0.73237,0.14282,5.859,-0.53576,-21.043,48.313,8.3708,-2.7903,-0.98001,11.161,7.077e-12,-0.49001,0,0,0.125,-0,-2.7325e-17,0.66667
0.25344,0.051839,2.0275,-0.67224,-53.603,294.67,3.6346,-1.2115,-0.39271,4.8461,-3.4537e-12,-0.19636,0,0,0.125,-0,-0,0.66667
0.60049,0.24438,4.8039,-0.38344,-20.756,99.291,4.912,-1.6373,-1.4757,6.5493,1.3456e-13,-0.73787,0,0,0.125,-5.9212e-16,0,0.66667
0.81462,0.36459,6.517,-0.20311,-5.7207,24.231,3.5298,-1.1766,-1.854,4.7064,-4.3457e-10,-0.92698,0,0,0.125,1.1842e-15,0,0.66667
0.054114,0.45881,0.43291,-0.061791,-5.2216,428.93,0.071334,-0.023778,-1.9844,0.095111,1.4961e-07,-0.99219,0,0,0.125,-7.4015e-17,0,0.66667
0.13051,0.63453,1.0441,0.2018,16.817,376.39,-0.56185,0.18728,-1.8536,-0.74913,-6.5799e-09,-0.92681,0,0,0.125,-0,-0,0.66667
0.84245,4.7129e-05,6.7396,-0.74993,-18.576,19.526,13.478,-4.4926,-0.0033845,17.97,3.5845e-09,-0.0016922,0,0,0.125,-0,-0,0.66667
0.61835,0.66994,4.9468,0.25492,13.304,91.255,-3.3627,1.1209,-1.7668,-4.4836,-1.7164e-12,-0.88339,0,0,0.125,-0,-0,0.66667
0.53129,0.086083,4.2503,-0.62087,-37.912,132.58,7.0371,-2.3457,-0.63268,9.3828,2.5979e-12,-0.31634,0,0,0.125,-5.9212e-16,0,0.66667
0.24829,0.026404,1.9863,-0.71039,-56.841,298.06,3.7629,-1.2543,-0.20734,5.0172,3.006e-11,-0.10367,0,0,0.125,-0,-0,0.66667
0.29508,0.72698,2.3606,0.34047,26.366,267.63,-2.1433,0.71442,-1.589,-2.8577,5.4705e-12,-0.7945,0,0,0.125,-0,-0,0.66667
0.87269,0.29859,6.9815,-0.30212,-5.999,12.322,5.6247,-1.8749,-1.6758,7.4996,-8.497e-09,-0.83788,0,0,0.125,1.1842e-15,0,0.66667
0.42167,0.72729,3.3733,0.34093,23.762,191.04,-3.0669,1.0223,-1.5897,-4.0892,1.6276e-12,-0.79485,0,0,0.125,-0,-0,0.66667
0.06443,0.31593,0.51544,-0.2761,-23.324,421.81,0.37951,-0.1265,-1.7306,0.50601,5.6821e-09,-0.86532,0,0,0.125,1.4803e-16,0,0.66667
0.89699,0.62131,7.1759,0.18196,2.9344,8.2688,-3.4819,1.1606,-1.8811,-4.6426,1.5449e-08,-0.94057,0,0,0.125,1.4803e-15,0,0.66667
0.20338,0.3474,1.627,-0.2289,-18.603,327.25,0.99313,-0.33104,-1.8173,1.3242,1.5761e-10,-0.90864,0,0,0.125,-5.9212e-16,0,0.66667
0.82623,0.25483,6.6098,-0.36776,-9.7961,21.787,6.4822,-2.1607,-1.5206,8.6429,-9.5974e-10,-0.76031,0,0,0.125,-0,-0,0.66667
0.88177,0.8011,7.0542,0.45164,8.4065,11.146,-8.4959,2.832,-1.2726,-11.328,1.0979e-08,-0.63632,0,0,0.125,-1.1842e-15,0,0.66667
0.48675,0.55523,3.894,0.082852,5.3472,154.89,-0.86033,0.28678,-1.9763,-1.1471,2.9754e-13,-0.98815,0,0,0.125,-0,-0,0.66667
0.59846,0.63226,4.7877,0.19839,10.758,99.969,-2.5329,0.8443,-1.8591,-3.3772,-1.7861e-12,-0.92953,0,0,0.125,-0,-0,0.66667
0.52727,0.58199,4.2181,0.12298,7.5071,133.91,-1.3834,0.46112,-1.9453,-1.8445,4.8417e-13,-0.97264,0,0,0.125,-5.9212e-16,0,0.66667
0.62482,0.66038,4.9986,0.24058,12.389,88.455,-3.2068,1.0689,-1.7978,-4.2757,-1.9829e-12,-0.8989,0,0,0.125,-0,-0,0.66667
0.85504,0.62513,6.8403,0.18769,4.2041,15.402,-3.4236,1.1412,-1.8752,-4.5648,3.1403e-09,-0.93758,0,0,0.125,-0,-0,0.66667
0.28214,0.20789,2.2571,-0.43816,-34.245,275.94,2.6373,-0.8791,-1.3193,3.5164,-1.12e-11,-0.65966,0,0,0.125,-0,-0,0.66667
0.88376,0.97,7.07,0.705,13.126,11.746,-13.292,4.4305,-0.23204,-17.722,-7.4562e-08,-0.11602,0,0,0.125,-0,-0,0.66667
0.56769,0.21751,4.5415,-0.42374,-24.338,114.46,5.1318,-1.7106,-1.3613,6.8424,-1.0956e-12,-0.68066,0,0,0.125,2.2204e-16,0,0.66667
0.1151,0.30608,0.92082,-0.29087,-24.348,386.94,0.71425,-0.23808,-1.6978,0.95233,1.2447e-08,-0.84892,0,0,0.125,2.2204e-16,0,0.66667
0.227,0.74964,1.816,0.37446,30.144,311.68,-1.8134,0.60447,-1.5008,-2.4179,-1.9418e-12,-0.75039,0,0,0.125,9.2519e-18,0,0.66667
0.59598,0.053452,4.7679,-0.66982,-36.777,101.95,8.5163,-2.8388,-0.40541,11.355,2.4905e-12,-0.2027,0,0,0.125,-5.9212e-16,0,0.66667
0.23945,0.71111,1.9156,0.31667,25.322,303.48,-1.6176,0.53921,-1.6422,-2.1568,6.6351e-12,-0.82111,0,0,0.125,2.9606e-16,0,0.66667
0.13142,0.67167,1.0513,0.25751,21.462,375.79,-0.72193,0.24064,-1.7621,-0.96257,-6.5639e-09,-0.88105,0,0,0.125,-2.9606e-16,0,0.66667
0.16185,0.013474,1.2948,-0.72979,-60.621,355.39,2.5198,-0.83993,-0.10448,3.3597,1.0888e-10,-0.052242,0,0,0.125,-0,-0,0.66667
0.84487,0.75115,6.759,0.37672,9.0358,17.763,-6.79,2.2633,-1.4984,-9.0533,2.5714e-09,-0.74919,0,0,0.125,-0,-0,0.66667
0.60218,0.8277,4.8175,0.49155,26.571,98.737,-6.3147,2.1049,-1.1386,-8.4196,-2.343e-12,-0.56932,0,0,0.125,1.1842e-15,0,0.66667
0.96357,0.47857,7.7085,-0.032143,-0.17751,1.3116,0.66074,-0.22025,-1.9948,0.88099,-1.3171e-07,-0.99742,0,0,0.125,-0,-0,0.66667
0.34568,0.0014392,2.7654,-0.74784,-56.188,236.63,5.5149,-1.8383,-0.013554,7.3533,-4.1496e-12,-0.0067769,0,0,0.125,-0,-0,0.66667
0.59563,0.10487,4.765,-0.59269,-32.503,101.91,7.5311,-2.5104,-0.75184,10.041,1.0494e-12,-0.37592,0,0,0.125,-0,-0,0.66667
0.59899,0.77424,4.7919,0.41136,22.341,100.01,-5.2565,1.7522,-1.3971,-7.0087,-2.8244e-13,-0.69856,0,0,0.125,-5.9212e-16,0,0.66667
0.6157,0.73944,4.9256,0.35916,18.868,92.541,-4.7176,1.5725,-1.5394,-6.2902,-1.8403e-12,-0.7697,0,0,0.125,5.9212e-16,0,0.66667
0.059177,0.51101,0.47342,0.016521,1.3952,425.42,-0.020857,0.0069527,-1.9986,-0.027809,5.3138e-07,-0.9993,0,0,0.125,-0,-0,0.66667
0.75032,0.86068,6.0025,0.54102,20.025,42.627,-8.6601,2.8867,-0.96176,-11.547,-3.3262e-12,-0.48088,0,0,0.125,-0,-0,0.66667
0.94821,0.24959,7.5857,-0.37562,-3.0699,2.8621,7.5982,-2.5327,-1.4984,10.131,1.7086e-08,-0.74919,0,0,0.125,4.0708e-16,0,0.66667
0.53468,0.14703,4.2774,-0.52945,-32.109,130.69,6.0392,-2.0131,-1.0029,8.0522,7.2342e-13,-0.50147,0,0,0.125,-0,-0,0.66667
0.19256,0.040148,1.5404,-0.68978,-56.617,334.76,2.8335,-0.9445,-0.30695,3.778,-2.3969e-10,-0.15348,0,0,0.125,-0,-0,0.66667
0.75293,0.76307,6.0234,0.39461,14.418,41.459,-6.3384,2.1128,-1.4461,-8.4512,-1.8179e-11,-0.72306,0,0,0.125,-0,-0,0.66667
0.007319,0.80168,0.058552,0.45253,38.446,461.37,-0.070656,0.023552,-1.2698,-0.094209,-6.7807e-07,-0.63489,0,0,0.125,-9.2519e-18,0,0.66667
0.32826,0.30168,2.626,-0.29748,-22.503,246.79,2.0832,-0.6944,-1.6882,2.7776,-8.4754e-13,-0.84412,0,0,0.125,-2.9606e-16,0,0.66667
0.91761,0.15324,7.3409,-0.52014,-6.8553,6.3236,10.182,-3.394,-1.0379,13.576,-2.1921e-08,-0.51897,0,0,0.125,-5.9212e-16,0,0.66667
0.58837,0.44391,4.7069,-0.084142,-4.6461,104.48,1.0561,-0.35205,-1.9736,1.4082,-1.4921e-12,-0.98681,0,0,0.125,-0,-0,0.66667
0.85519,0.79561,6.8415,0.44341,9.9968,15.863,-8.0896,2.6965,-1.2998,-10.786,3.5095e-09,-0.64988,0,0,0.125,-0,-0,0.66667
0.60467,0.0044579,4.8374,-0.74331,-40.23,98.299,9.5885,-3.1962,-0.034897,12.785,3.3307e-13,-0.017448,0,0,0.125,-0,-0,0.66667
0.82258,0.77852,6.5806,0.41779,11.36,22.74,-7.3314,2.4438,-1.3787,-9.7753,5.6426e-10,-0.68935,0,0,0.125,-5.9212e-16,0,0.66667
0.87948,0.58716,7.0359,0.13073,2.453,10.936,-2.4529,0.81763,-1.9384,-3.2705,8.3501e-09,-0.96922,0,0,0.125,-1.1842e-15,0,0.66667
0.32099,0.4595,2.5679,-0.060748,-4.6145,251.21,0.41598,-0.13866,-1.9849,0.55464,2.0047e-12,-0.99245,0,0,0.125,-2.9606e-16,0,0.66667
0.12295,0.54798,0.98364,0.071976,6.0075,381.54,-0.18879,0.062932,-1.9821,-0.25173,-3.49e-09,-0.99106,0,0,0.125,-0,-0,0.66667
0.7213,0.26492,5.7704,-0.35262,-14.275,51.575,5.4261,-1.8087,-1.558,7.2348,1.1708e-11,-0.77898,0,0,0.125,-0,-0,0.66667
0.44035,0.10761,3.5228,-0.58859,-40.355,180.82,5.5292,-1.8431,-0.76804,7.3723,-8.2778e-13,-0.38402,0,0,0.125,-5.9212e-16,0,0.66667
0.12674,0.14001,1.0139,-0.53999,-45.187,379.08,1.46,-0.48665,-0.9641,1.9466,3.2397e-09,-0.48205,0,0,0.125,-0,-0,0.66667
0.58982,0.35391,4.7186,-0.21914,-12.077,103.9,2.7574,-0.91912,-1.8285,3.6765,-2.2888e-12,-0.91423,0,0,0.125,1.1842e-15,0,0.66667
0.036068,0.35701,0.28855,-0.21448,-18.164,441.43,0.16504,-0.055012,-1.8349,0.22005,-8.6378e-08,-0.91747,0,0,0.125,-0,-0,0.66667
0.20018,0.077774,1.6015,-0.63334,-51.773,329.63,2.7047,-0.90157,-0.57352,3.6063,2.5397e-10,-0.28676,0,0,0.125,-0,-0,0.66667
0.7883,0.20315,6.3064,-0.44528,-14.217,31.391,7.4883,-2.4961,-1.2928,9.9845,-8.4426e-11,-0.64638,0,0,0.125,1.1842e-15,0,0.66667
0.012097,0.52124,0.096774,0.031855,2.6993,458.05,-0.00822,0.0027387,-1.9959,-0.010961,-1.9205e-06,-0.99794,0,0,0.125,-0,-0,0.66667
0.30335,0.88383,2.4268,0.57574,44.471,262.63,-3.7258,1.2419,-0.81959,-4.9678,2.345e-12,-0.40979,0,0,0.125,-0,-0,0.66667
0.021376,0.11118,0.17101,-0.58323,-49.612,451.64,0.26596,-0.088657,-0.78863,0.35462,-4.2986e-06,-0.39432,0,0,0.125,-0,-0,0.66667
0.99748,0.9641,7.9799,0.69615,0.24219,1.7516,-14.814,4.9379,-0.27789,-19.752,-3.0027e-05,-0.13894,0,0,0.125,1.7764e-15,-2.2504e-16,0.66667
0.58203,0.92291,4.6562,0.63436,35.689,108.21,-7.8766,2.6255,-0.5682,-10.502,-3.6637e-13,-0.2841,0,0,0.125,-0,-0,0.66667
0.29338,0.39278,2.347,-0.16083,-12.453,268.61,1.0066,-0.33552,-1.9074,1.3421,-6.0008e-12,-0.95368,0,0,0.125,-5.9212e-16,0,0.66667
0.92895,0.99435,7.4316,0.74152,8.6625,5.986,-14.695,4.8984,-0.043393,-19.594,-1.1176e-07,-0.021697,0,0,0.125,-1.7764e-15,0,0.66667
0.50712,0.12298,4.057,-0.56553,-35.705,144.76,6.1182,-2.0394,-0.86189,8.1576,-1.3345e-12,-0.43095,0,0,0.125,5.9212e-16,0,0.66667
0.45469,0.27625,3.6375,-0.33562,-22.562,172.46,3.2555,-1.0852,-1.6013,4.3407,1.1786e-12,-0.80066,0,0,0.125,-2.9606e-16,0,0.66667
0.58787,0.89535,4.703,0.59303,32.987,105.43,-7.4373,2.4791,-0.74773,-9.9165,-4.2588e-13,-0.37387,0,0,0.125,5.9212e-16,0,0.66667
0.26414,0.19676,2.1131,-0.45486,-35.939,287.52,2.5631,-0.85437,-1.2658,3.4175,-2.1175e-11,-0.63288,0,0,0.125,-0,-0,0.66667
0.30529,0.47737,2.4423,-0.033952,-2.6075,261.05,0.22113,-0.073709,-1.994,0.29483,-2.7856e-12,-0.99699,0,0,0.125,-0,-0,0.66667
0.37165,0.14856,2.9732,-0.52715,-38.615,220.56,4.1796,-1.3932,-1.0118,5.5728,-1.3225e-12,-0.50589,0,0,0.125,5.1612e-16,0,0.66667
0.24445,0.53233,1.9556,0.04849,3.8624,300.12,-0.25287,0.08429,-1.9913,-0.33716,-1.122e-11,-0.99563,0,0,0.125,-0,-0,0.66667
0.58455,0.081756,4.6764,-0.62737,-35.133,107.04,7.8235,-2.6078,-0.59853,10.431,2.0872e-13,-0.29926,0,0,0.125,-5.9212e-16,0,0.66667
0.69585,0.40395,5.5668,-0.14408,-6.2607,60.249,2.1388,-0.71294,-1.9252,2.8518,3.5612e-12,-0.96258,0,0,0.125,-4.4409e-16,0,0.66667
0.071947,0.83129,0.57558,0.49693,42.023,416.66,-0.76273,0.25424,-1.12,-1.017,-1.2811e-07,-0.55999,0,0,0.125,-0,-0,0.66667
0.97108,0.77531,7.7687,0.41296,1.8407,1.4818,-8.5552,2.8517,-1.3946,-11.407,-5.7365e-07,-0.69728,0,0,0.125,1.7764e-15,0,0.66667
0.75307,0.23297,6.0246,-0.40054,-14.629,41.427,6.4349,-2.145,-1.4292,8.5799,2.1045e-11,-0.7146,0,0,0.125,-0,-0,0.66667
0.80616,0.609,6.4493,0.1635,4.7937,26.266,-2.8118,0.93728,-1.9028,-3.7491,2.448e-10,-0.95142,0,0,0.125,1.1842e-15,0,0.66667
0.75164,0.13543,6.0131,-0.54686,-20.152,42.236,8.7688,-2.9229,-0.93784,11.692,-2.2101e-11,-0.46892,0,0,0.125,-0,-0,0.66667
0.080061,0.91817,0.64049,0.62725,53.073,411.11,-1.0713,0.35711,-0.60181,-1.4284,-5.3365e-08,-0.30091,0,0,0.125,-1.4803e-16,0,0.66667
0.4817,0.97358,3.8536,0.71038,46.511,158.44,-7.3,2.4333,-0.2065,-9.7333,1.088e-13,-0.10325,0,0,0.125,-0,-0,0.66667
0.44567,0.80946,3.5654,0.46419,31.576,177.63,-4.4134,1.4711,-1.2327,-5.8845,-9.841e-13,-0.61635,0,0,0.125,2.9606e-16,0,0.66667
0.67247,0.38704,5.3798,-0.16944,-7.8264,69.018,2.4308,-0.81025,-1.9001,3.241,1.382e-12,-0.95007,0,0,0.125,1.1842e-15,0,0.66667
0.44874,0.41832,3.5899,-0.12252,-8.2801,175.61,1.1729,-0.39096,-1.9454,1.5638,-3.9713e-13,-0.97271,0,0,0.125,-0,-0,0.66667
0.70431,0.46385,5.6345,-0.054218,-2.3001,57.162,0.81465,-0.27155,-1.9918,1.0862,2.9146e-12,-0.9959,0,0,0.125,-1.4803e-15,0,0.66667
0.68165,0.037122,5.4532,-0.69432,-31.661,66.622,10.097,-3.3655,-0.28464,13.462,-1.16e-12,-0.14232,0,0,0.125,-0,-0,0.66667
0.69715,0.34295,5.5772,-0.23557,-10.208,59.862,3.5035,-1.1678,-1.8022,4.6714,6.539e-12,-0.90111,0,0,0.125,-1.4803e-15,0,0.66667
0.6186,0.92771,4.9488,0.64156,33.697,91.907,-8.4666,2.8222,-0.53462,-11.289,-8.2068e-13,-0.26731,0,0,0.125,-0,-0,0.66667
0.15098,0.015788,1.2078,-0.72632,-60.54,362.73,2.3394,-0.7798,-0.12256,3.1192,-3.7437e-09,-0.061278,0,0,0.125,-0,-0,0.66667
0.7608,0.8971,6.0864,0.59565,21.28,39.615,-9.6677,3.2226,-0.73723,-12.89,-2.0592e-11,-0.36862,0,0,0.125,-0,-0,0.66667
0.78105,0.38766,6.2484,-0.16851,-5.5141,32.899,2.8077,-0.93591,-1.9017,3.7436,-4.2336e-11,-0.95087,0,0,0.125,-0,-0,0.66667
0.9041,0.31027,7.2328,-0.2846,-4.2924,7.4245,5.4892,-1.8297,-1.7137,7.3189,-2.2012e-08,-0.85685,0,0,0.125,-1.2126e-15,0,0.66667
0.23377,0.61386,1.8701,0.17079,13.683,307.14,-0.85173,0.28391,-1.8986,-1.1356,-1.3134e-11,-0.94928,0,0,0.125,-2.9606e-16,0,0.66667
0.17668,0.77235,1.4134,0.40853,33.605,345.19,-1.5398,0.51326,-1.4054,-2.0531,-6.5583e-10,-0.70269,0,0,0.125,-0,-0,0.66667
0.3911,0.11183,3.1288,-0.58226,-41.951,209.11,4.8581,-1.6194,-0.7969,6.4774,1.7888e-12,-0.39845,0,0,0.125,-5.9212e-16,0,0.66667
0.32056,0.8923,2.5645,0.58845,44.923,251.86,-4.0243,1.3414,-0.76651,-5.3657,-2.1911e-12,-0.38325,0,0,0.125,5.9212e-16,0,0.66667
0.81548,0.81432,6.5238,0.47148,13.312,24.55,-8.2023,2.7341,-1.2106,-10.936,7.4471e-10,-0.60532,0,0,0.125,-0,-0,0.66667
0.61353,0.76502,4.9082,0.39753,20.987,93.554,-5.2031,1.7344,-1.437,-6.9375,-1.6356e-12,-0.71848,0,0,0.125,-0,-0,0.66667
0.76,0.24454,6.08,-0.38319,-13.647,39.292,6.2129,-2.071,-1.4767,8.2838,1.2032e-11,-0.73837,0,0,0.125,-1.1842e-15,0,0.66667
0.42767,0.26015,3.4213,-0.35978,-24.924,187.64,3.2824,-1.0941,-1.538,4.3766,-1.4482e-12,-0.76901,0,0,0.125,-0,-0,0.66667
0.099441,0.071717,0.79552,-0.64242,-54.178,397.8,1.3628,-0.45428,-0.53095,1.8171,-1.1553e-07,-0.26548,0,0,0.125,-0,-0,0.66667
0.11504,0.106,0.92028,-0.59099,-49.633,387.1,1.4503,-0.48345,-0.7563,1.9338,-1.5492e-08,-0.37815,0,0,0.125,-0,-0,0.66667
0.37341,0.33423,2.9873,-0.24865,-18.131,219.23,1.9808,-0.66025,-1.7814,2.641,-1.6855e-12,-0.89071,0,0,0.125,5.9212e-16,0,0.66667
0.19385,0.43896,1.5508,-0.091567,-7.4674,333.58,0.37867,-0.12622,-1.9695,0.50489,2.507e-10,-0.98474,0,0,0.125,-0,-0,0.66667
0.82075,0.95153,6.566,0.67729,18.79,23.995,-11.859,3.9529,-0.36672,-15.812,1.8067e-09,-0.18336,0,0,0.125,1.1842e-15,0,0.66667
0.59964,0.34772,4.7971,-0.22842,-12.362,99.471,2.922,-0.97401,-1.8134,3.896,-6.7413e-13,-0.90672,0,0,0.125,-0,-0,0.66667
0.68885,0.57627,5.5108,0.1144,5.0648,62.797,-1.6812,0.56039,-1.9548,-2.2416,-4.1168e-12,-0.97738,0,0,0.125,1.1842e-15,0,0.66667
0.49111,0.068886,3.9289,-0.64667,-41.776,153.3,6.7752,-2.2584,-0.51151,9.0336,9.7211e-13,-0.25576,0,0,0.125,-0,-0,0.66667
0.088174,0.35836,0.70539,-0.21246,-17.875,405.42,0.39964,-0.13321,-1.8376,0.53285,1.466e-08,-0.91882,0,0,0.125,-1.4803e-16,0,0.66667
0.23508,0.11986,1.8806,-0.57021,-45.829,306.53,2.8596,-0.9532,-0.84672,3.8128,-9.3578e-11,-0.42336,0,0,0.125,-0,-0,0.66667
0.4616,0.87241,3.6928,0.55861,37.366,168.99,-5.5009,1.8336,-0.88943,-7.3346,-2.2813e-12,-0.44471,0,0,0.125,7.4015e-16,0,0.66667
0.19859,0.47505,1.5887,-0.037432,-3.0464,330.41,0.15858,-0.052861,-1.9942,0.21144,-2.1228e-11,-0.99712,0,0,0.125,-0,-0,0.66667
0.025476,0.73998,0.20381,0.35997,30.536,448.78,-0.19564,0.065213,-1.5376,-0.26085,4.1174e-07,-0.76878,0,0,0.125,-0,-0,0.66667
0.7294,0.12544,5.8352,-0.56185,-22.293,49.365,8.7426,-2.9142,-0.87761,11.657,4.4373e-12,-0.4388,0,0,0.125,-2.3685e-15,0,0.66667
0.72492,0.70086,5.7993,0.30128,12.052,50.273,-4.6593,1.5531,-1.6752,-6.2124,-1.4627e-11,-0.83761,0,0,0.125,1.1842e-15,0,0.66667
0.33039,0.98305,2.6431,0.72458,55.053,245.98,-5.1071,1.7024,-0.13362,-6.8094,-1.886e-12,-0.066808,0,0,0.125,1.1842e-15,0,0.66667
0.84349,0.23808,6.748,-0.39288,-9.5065,18.086,7.0697,-2.3566,-1.4538,9.4262,-2.2411e-09,-0.72692,0,0,0.125,1.1842e-15,0,0.66667
0.42844,0.54071,3.4275,0.061058,4.2185,187.01,-0.55808,0.18603,-1.9848,-0.7441,-1.7378e-12,-0.99242,0,0,0.125,-0,-0,0.66667
0.86469,0.079441,6.9175,-0.63084,-13.475,14.693,11.637,-3.8789,-0.58328,15.516,1.6993e-08,-0.29164,0,0,0.125,-1.024e-15,0,0.66667
0.65707,0.87765,5.2565,0.56648,27.328,75.743,-7.9405,2.6468,-0.86208,-10.587,-2.6872e-12,-0.43104,0,0,0.125,2.3685e-15,0,0.66667
0.58104,0.022094,4.6483,-0.71686,-40.484,108.9,8.8858,-2.9619,-0.17288,11.848,5.933e-13,-0.086442,0,0,0.125,-0,-0,0.66667
0.20073,0.024963,1.6058,-0.71255,-58.314,329.34,3.0513,-1.0171,-0.19553,4.0684,-4.5143e-10,-0.097764,0,0,0.125,-2.9606e-16,9.5154e-17,0.66667
0.52955,0.26288,4.2364,-0.35567,-21.679,132.97,4.018,-1.3393,-1.5511,5.3574,-1.6609e-13,-0.77557,0,0,0.125,-0,-0,0.66667
0.89443,0.022617,7.1555,-0.71607,-12.183,10.167,13.664,-4.5545,-0.17625,18.218,-3.0482e-07,-0.088123,0,0,0.125,-0,-0,0.66667
0.30499,0.11459,2.44,-0.57811,-44.607,261.6,3.7615,-1.2538,-0.80957,5.0154,-1.2197e-12,-0.40478,0,0,0.125,-0,-0,0.66667
0.87095,0.42729,6.9676,-0.10906,-2.1848,12.38,2.0263,-0.67545,-1.9568,2.7018,-4.5122e-09,-0.97841,0,0,0.125,-0,-0,0.66667
0.90875,0.95096,7.27,0.67643,9.9806,8.0245,-13.114,4.3712,-0.37325,-17.485,-2.0786e-07,-0.18662,0,0,0.125,-0,-0,0.66667
0.32984,0.76248,2.6388,0.39373,29.776,245.88,-2.7705,0.92351,-1.4497,-3.694,2.1043e-12,-0.72487,0,0,0.125,-0,-0,0.66667
0.68307,0.48428,5.4646,-0.023585,-1.0598,64.918,0.34369,-0.11456,-1.9967,0.45826,-5.7118e-13,-0.99835,0,0,0.125,-1.1842e-15,0,0.66667
0.89922,0.37635,7.1938,-0.18548,-2.9278,7.9527,3.5581,-1.186,-1.8769,4.7441,-1.6426e-08,-0.93843,0,0,0.125,-0,-0,0.66667
0.075697,0.28745,0.60558,-0.31883,-26.898,414.04,0.51486,-0.17162,-1.6394,0.68648,3.7788e-08,-0.81968,0,0,0.125,-1.4803e-16,0,0.66667
0.87859,0.41294,7.0287,-0.13059,-2.4678,11.085,2.4476,-0.81588,-1.9391,3.2635,-8.2094e-09,-0.96957,0,0,0.125,-2.3685e-15,0,0.66667
0.19084,0.084586,1.5267,-0.62312,-51.124,335.85,2.5369,-0.84563,-0.61914,3.3825,-2.2366e-10,-0.30957,0,0,0.125,-1.4803e-16,0,0.66667
0.84977,0.55921,6.7982,0.088809,2.0549,16.362,-1.61,0.53666,-1.971,-2.1466,-3.6225e-11,-0.9855,0,0,0.125,5.4764e-16,0,0.66667
0.66712,0.96114,5.337,0.69171,32.697,72.16,-9.8444,3.2815,-0.29772,-13.126,-5.1159e-13,-0.14886,0,0,0.125,-5.9212e-16,-8.4733e-17,0.66667
0.34434,0.78821,2.7547,0.43231,32.348,236.99,-3.1757,1.0586,-1.3382,-4.2343,6.5459e-13,-0.66909,0,0,0.125,-0,-0,0.66667
0.15138,0.33955,1.211,-0.24068,-19.941,362.21,0.77723,-0.25908,-1.7934,1.0363,3.1497e-09,-0.89669,0,0,0.125,-2.8044e-16,0,0.66667
0.63537,0.43423,5.083,-0.098659,-4.9637,83.886,1.3373,-0.44576,-1.9647,1.783,-1.4915e-12,-0.98236,0,0,0.125,1.4803e-15,0,0.66667
0.84779,0.51011,6.7823,0.01517,0.35524,16.74,-0.27437,0.091457,-1.9983,-0.36583,-1.7687e-09,-0.99915,0,0,0.125,-0,-0,0.66667
0.82185,0.74238,6.5748,0.36357,9.9073,22.785,-6.3744,2.1248,-1.5284,-8.4992,7.9711e-10,-0.76418,0,0,0.125,-5.9212e-16,0,0.66667
0.62824,0.097251,5.0259,-0.60412,-31.081,87.685,8.0967,-2.6989,-0.70286,10.796,-3.5527e-15,-0.35143,0,0,0.125,-0,-0,0.66667
0.9563,0.45302,7.6504,-0.070471,-0.47333,1.7967,1.4377,-0.47923,-1.9819,1.9169,2.4573e-07,-0.99094,0,0,0.125,1.1842e-15,0,0.66667
0.58992,0.12933,4.7194,-0.55601,-30.788,104.4,6.9974,-2.3325,-0.90076,9.3299,2.3173e-12,-0.45038,0,0,0.125,-2.3685e-15,0,0.66667
0.19783,0.60633,1.5827,0.15949,12.988,330.93,-0.67313,0.22438,-1.9079,-0.8975,-1.6711e-10,-0.95393,0,0,0.125,-2.9606e-16,0,0.66667
0.42933,0.40048,3.4346,-0.14928,-10.307,186.53,1.3673,-0.45577,-1.9191,1.8231,-5.9452e-13,-0.95957,0,0,0.125,-2.9606e-16,0,0.66667
0.33675,0.38567,2.694,-0.17149,-12.88,241.47,1.232,-0.41067,-1.8934,1.6427,-2.236e-13,-0.94668,0,0,0.125,-0,-0,0.66667
0.99195,0.13328,7.9356,-0.55008,-0.60488,1.2027,11.641,-3.8802,-0.9222,15.521,-2.065e-06,-0.4611,0,0,0.125,2.3685e-15,0,0.66667
0.38024,0.51084,3.0419,0.016259,1.1773,215.07,-0.13189,0.043962,-1.9975,-0.17585,-2.0743e-12,-0.99874,0,0,0.125,1.1842e-15,0,0.66667
0.9927,0.34129,7.9416,-0.23806,-0.17059,0.31905,5.0416,-1.6805,-1.7974,6.7221,-1.7949e-07,-0.89871,0,0,0.125,1.7742e-15,0,0.66667
0.5188,0.32209,4.1504,-0.26686,-16.507,138.3,2.9536,-0.98453,-1.7466,3.9381,-2.6468e-13,-0.87329,0,0,0.125,-0,-0,0.66667
0.17228,0.28716,1.3782,-0.31926,-26.283,348.11,1.1734,-0.39113,-1.6406,1.5645,1.1347e-09,-0.82031,0,0,0.125,-0,-0,0.66667
0.074574,0.84822,0.59659,0.52233,44.167,414.86,-0.83098,0.27699,-1.0301,-1.108,-1.1566e-07,-0.51503,0,0,0.125,2.9606e-16,0,0.66667
0.37031,0.054253,2.9624,-0.66862,-49.152,221.6,5.282,-1.7607,-0.40938,7.0427,-1.0938e-12,-0.20469,0,0,0.125,2.9606e-16,1.0309e-17,0.66667
0.12342,0.93093,0.98735,0.6464,54.222,381.4,-1.7019,0.56731,-0.51595,-2.2692,-9.836e-08,-0.25797,0,0,0.125,-7.4015e-17,0,0.66667
0.63452,0.92656,5.0761,0.63985,32.516,85.145,-8.6612,2.8871,-0.54244,-11.548,8.5265e-14,-0.27122,0,0,0.125,-0,-0,0.66667
0.41392,0.58092,3.3114,0.12138,8.5139,195.34,-1.0718,0.35726,-1.9454,-1.429,1.2979e-12,-0.97269,0,0,0.125,-0,-0,0.66667
0.99092,0.82789,7.9273,0.49184,0.59554,1.0114,-10.397,3.4657,-1.1377,-13.863,9.2234e-07,-0.56887,0,0,0.125,-0,-0,0.66667
0.92996,0.67625,7.4396,0.26437,2.9146,4.296,-5.2449,1.7483,-1.7493,-6.9932,1.7534e-08,-0.87466,0,0,0.125,-0,-0,0.66667
0.14924,0.067946,1.1939,-0.64808,-53.975,363.85,2.0633,-0.68777,-0.50511,2.7511,2.067e-08,-0.25255,0,0,0.125,-0,-0,0.66667
0.39488,0.58693,3.1591,0.13039,9.318,206.43,-1.0984,0.36615,-1.9389,-1.4646,1.8334e-12,-0.96943,0,0,0.125,-2.9606e-16,0,0.66667
0.46158,0.1635,3.6926,-0.50475,-33.734,168.9,4.9703,-1.6568,-1.0924,6.6271,-7.0166e-13,-0.54618,0,0,0.125,-1.1842e-15,0,0.66667
0.56095,0.38273,4.4876,-0.17591,-10.191,117.37,2.1051,-0.7017,-1.8915,2.8068,8.9728e-13,-0.94573,0,0,0.125,-1.1842e-15,0,0.66667
0.78036,0.11102,6.2429,-0.58348,-19.335,33.955,9.7136,-3.2379,-0.79133,12.951,-3.8205e-11,-0.39567,0,0,0.125,-0,-0,0.66667
0.48719,0.051525,3.8976,-0.67271,-43.703,155.43,6.9918,-2.3306,-0.39094,9.3224,3.8547e-13,-0.19547,0,0,0.125,5.9212e-16,0,0.66667
0.41999,0.21967,3.3599,-0.42049,-29.384,192.09,3.7675,-1.2558,-1.3735,5.0234,-7.4452e-13,-0.68677,0,0,0.125,-0,-0,0.66667
0.262,0.083535,2.096,-0.6247,-49.537,289.07,3.4916,-1.1639,-0.61185,4.6555,1.3468e-11,-0.30593,0,0,0.125,2.9606e-16,0,0.66667
0.91081,0.91739,7.2864,0.62609,8.9949,7.5498,-12.165,4.0551,-0.60499,-16.22,1.0376e-07,-0.3025,0,0,0.125,-0,-0,0.66667
0.022272,0.87417,0.17817,0.56126,47.726,451.02,-0.26667,0.088891,-0.87931,-0.35555,2.7136e-06,-0.43966,0,0,0.125,1.09e-17,0,0.66667
0.82112,0.83692,6.569,0.50538,13.888,23.314,-8.8529,2.951,-1.0902,-11.804,-7.662e-11,-0.54508,0,0,0.125,-5.9212e-16,0,0.66667
0.18847,0.50194,1.5077,0.0029144,0.23816,337.17,-0.011718,0.0039059,-2.003,-0.015624,2.2801e-10,-1.0015,0,0,0.125,-0,-0,0.66667
0.68576,0.925,5.4861,0.63749,28.714,64.903,-9.3262,3.1087,-0.55593,-12.435,-5.6399e-13,-0.27797,0,0,0.125,-0,1.4212e-16,0.66667
0.35521,0.42421,2.8417,-0.11368,-8.4118,230.14,0.86144,-0.28715,-1.9529,1.1486,-1.8799e-12,-0.97646,0,0,0.125,5.9212e-16,0,0.66667
0.97421,0.21512,7.7937,-0.42733,-1.6881,1.3748,8.8812,-2.9604,-1.3499,11.842,7.6165e-07,-0.67495,0,0,0.125,1.4803e-15,0,0.66667
0.12277,0.34332,0.98218,-0.23502,-19.629,381.69,0.61555,-0.20518,-1.8056,0.82074,9.8808e-09,-0.90279,0,0,0.125,7.4015e-17,0,0.66667
0.18757,0.44768,1.5006,-0.078484,-6.4164,337.78,0.31405,-0.10468,-1.9811,0.41874,1.1428e-10,-0.99056,0,0,0.125,-0,-0,0.66667
0.88944,0.40668,7.1155,-0.13999,-2.4165,9.3517,2.6562,-0.8854,-1.9334,3.5416,-4.4109e-09,-0.96669,0,0,0.125,-0,-0,0.66667
0.58341,0.68299,4.6673,0.27449,15.312,106.9,-3.4162,1.1387,-1.7312,-4.555,-1.9065e-12,-0.86561,0,0,0.125,8.8818e-16,0,0.66667
0.30925,0.49185,2.474,-0.012222,-0.93609,258.56,0.080634,-0.026878,-1.9993,0.10751,-4.7679e-12,-0.99966,0,0,0.125,5.9212e-16,0,0.66667
0.00076439,0.73394,0.0061151,0.3509,29.784,465.91,-0.005722,0.0019069,-1.5641,-0.0076295,-6.4792e-07,-0.78206,0,0,0.125,-1.1565e-18,0,0.66667
0.2276,0.98982,1.8208,0.73473,59.432,311.61,-3.5674,1.1891,-0.078609,-4.7566,5.6316e-11,-0.039305,0,0,0.125,-2.653e-17,0,0.66667
0.1454,0.13307,1.1632,-0.5504,-45.826,366.39,1.7073,-0.56911,-0.92175,2.2764,3.6873e-09,-0.46088,0,0,0.125,-0,-0,0.66667
0.20343,0.76535,1.6275,0.39803,32.393,327.29,-1.7274,0.57581,-1.4392,-2.3032,-1.468e-10,-0.7196,0,0,0.125,-0,-0,0.66667
0.89632,0.42788,7.1706,-0.10818,-1.7532,8.2967,2.0686,-0.68953,-1.9567,2.7581,-1.7969e-08,-0.97836,0,0,0.125,-0,-0,0.66667
0.87309,0.6111,6.9848,0.16664,3.2879,12.054,-3.1039,1.0346,-1.902,-4.1386,5.7545e-09,-0.95098,0,0,0.125,1.1842e-15,0,0.66667
0.70029,0.25598,5.6023,-0.36603,-15.754,58.926,5.4683,-1.8228,-1.5241,7.2911,6.5059e-12,-0.76204,0,0,0.125,-0,-0,0.66667
0.4705,0.89405,3.764,0.59107,39.142,164.2,-5.9327,1.9776,-0.75874,-7.9103,-6.1107e-13,-0.37937,0,0,0.125,-0,-0,0.66667
0.82714,0.52335,6.6171,0.035019,0.92345,21.187,-0.61792,0.20597,-1.9977,-0.8239,7.5312e-12,-0.99886,0,0,0.125,-0,-0,0.66667
0.49583,0.3491,3.9666,-0.22635,-14.447,150.17,2.3943,-0.7981,-1.8174,3.1924,-4.0834e-13,-0.9087,0,0,0.125,-0,-0,0.66667
0.36349,0.45188,2.9079,-0.072185,-5.3042,225.12,0.55976,-0.18659,-1.9803,0.74634,3.3334e-13,-0.99017,0,0,0.125,-5.9212e-16,0,0.66667
0.2756,0.65639,2.2048,0.23459,18.374,279.99,-1.3793,0.45976,-1.8041,-1.839,7.3657e-12,-0.90205,0,0,0.125,-1.1842e-15,0,0.66667
0.92474,0.62771,7.3979,0.19157,2.2635,4.7431,-3.7793,1.2598,-1.8705,-5.039,2.2047e-08,-0.93523,0,0,0.125,-0,-0,0.66667
0.38699,0.99597,3.0959,0.74395,53.969,211.82,-6.1419,2.0473,-0.032271,-8.1892,3.042e-13,-0.016135,0,0,0.125,7.4015e-16,0,0.66667
0.49288,0.73206,3.943,0.34809,22.328,151.84,-3.6601,1.22,-1.567,-4.8801,4.8272e-13,-0.78348,0,0,0.125,-1.1842e-15,0,0.66667
0.25444,0.01507,2.0355,-0.72739,-58.027,294.09,3.9483,-1.3161,-0.11741,5.2644,-3.755e-12,-0.058707,0,0,0.125,-0,-0,0.66667
0.88497,0.41636,7.0797,-0.12545,-2.2502,10.04,2.3685,-0.78949,-1.9423,3.158,-6.1493e-09,-0.97117,0,0,0.125,-0,-0,0.66667
0.38326,0.68616,3.0661,0.27924,20.188,213.38,-2.2831,0.76105,-1.7219,-3.0442,-6.1173e-13,-0.86095,0,0,0.125,8.8818e-16,0,0.66667
0.29757,0.93383,2.3806,0.65074,50.519,266.37,-4.1311,1.377,-0.49736,-5.5081,-4.5386e-13,-0.24868,0,0,0.125,4.4409e-16,0,0.66667
0.71759,0.13389,5.7408,-0.54916,-22.582,53.289,8.4069,-2.8023,-0.92953,11.209,3.5225e-12,-0.46476,0,0,0.125,-0,-0,0.66667
0.19087,0.84168,1.527,0.51252,41.983,335.74,-2.0869,0.69565,-1.0667,-2.7826,-2.0127e-10,-0.53335,0,0,0.125,-7.4015e-17,0,0.66667
0.11819,0.2356,0.94554,-0.3966,-33.204,384.86,1,-0.33334,-1.4385,1.3333,1.0587e-08,-0.71926,0,0,0.125,1.4803e-16,0,0.66667
0.837,0.78453,6.696,0.4268,10.737,19.542,-7.6208,2.5403,-1.3512,-10.161,1.5767e-09,-0.6756,0,0,0.125,2.3685e-15,0,0.66667
0.74414,0.8335,5.9531,0.50025,18.888,44.442,-7.9414,2.6471,-1.1084,-10.589,-3.9999e-12,-0.55422,0,0,0.125,-0,-0,0.66667
0.59052,0.41611,4.7242,-0.12584,-6.9223,103.52,1.5853,-0.52843,-1.9434,2.1137,-8.5709e-14,-0.97171,0,0,0.125,-1.1842e-15,0,0.66667
0.24289,0.32033,1.9431,-0.2695,-21.504,301.2,1.3965,-0.46549,-1.7399,1.862,-1.1946e-11,-0.86996,0,0,0.125,-0,-0,0.66667
0.62325,0.69466,4.986,0.292,15.094,89.189,-3.8824,1.2941,-1.6982,-5.1765,-1.7648e-12,-0.84909,0,0,0.125,-0,-0,0.66667
0.63836,0.35986,5.1068,-0.21021,-10.515,82.72,2.8627,-0.95425,-1.8432,3.817,-7.2942e-13,-0.9216,0,0,0.125,1.1842e-15,0,0.66667
0.32757,0.96694,2.6206,0.70041,53.303,247.68,-4.8946,1.6315,-0.25925,-6.5261,-1.2959e-12,-0.12962,0,0,0.125,7.4015e-16,0,0.66667
0.067489,0.1757,0.53991,-0.48644,-41.156,419.73,0.70037,-0.23346,-1.1571,0.93383,1.2132e-07,-0.57857,0,0,0.125,-7.9923e-17,0,0.66667
0.88054,0.92236,7.0443,0.63354,12.039,11.965,-11.901,3.967,-0.57105,-15.868,6.4192e-08,-0.28552,0,0,0.125,-0,-0,0.66667
0.45996,0.381,3.6797,-0.17851,-11.912,169.43,1.7516,-0.58386,-1.8851,2.3354,-2.5602e-13,-0.94256,0,0,0.125,-0,-0,0.66667
0.76387,0.53964,6.111,0.059463,2.0789,37.753,-0.96901,0.323,-1.9886,-1.292,-1.2484e-12,-0.99431,0,0,0.125,-0,-0,0.66667
0.25389,0.063164,2.0311,-0.65525,-52.22,294.36,3.549,-1.183,-0.47397,4.7321,2.1538e-13,-0.23698,0,0,0.125,5.9212e-16,0,0.66667
0.59139,0.72641,4.7311,0.33962,18.688,103.33,-4.2848,1.4283,-1.5906,-5.713,-7.252e-13,-0.79528,0,0,0.125,-0,-0,0.66667
0.4288,0.99946,3.4304,0.74918,52.175,187.66,-6.8532,2.2844,-0.0037104,-9.1377,-3.6309e-12,-0.0018552,0,0,0.125,1.8689e-15,0,0.66667
0.3821,0.59825,3.0568,0.14738,10.657,213.99,-1.2013,0.40044,-1.9214,-1.6018,1.0858e-13,-0.96069,0,0,0.125,-0,-0,0.66667
0.12671,0.80338,1.0137,0.45507,38.041,379.06,-1.2302,0.41005,-1.2648,-1.6402,-7.1259e-09,-0.63242,0,0,0.125,1.4803e-16,0,0.66667
0.24427,0.52402,1.9541,0.036033,2.8704,300.24,-0.18777,0.06259,-1.9939,-0.25036,-6.7176e-12,-0.99697,0,0,0.125,-2.9606e-16,0,0.66667
0.079342,0.41414,0.63473,-0.1288,-10.849,411.5,0.218,-0.072668,-1.9428,0.29067,-2.276e-09,-0.97142,0,0,0.125,1.4803e-16,0,0.66667
0.30286,0.37385,2.4229,-0.18922,-14.562,262.62,1.2225,-0.40751,-1.8721,1.63,-2.6398e-12,-0.93607,0,0,0.125,-1.8504e-16,0,0.66667
0.7417,0.10543,5.9336,-0.59185,-22.591,45.475,9.3649,-3.1216,-0.75234,12.487,4.4702e-12,-0.37617,0,0,0.125,-0,-0,0.66667
0.61502,0.43358,4.9201,-0.09963,-5.2289,92.58,1.3072,-0.43573,-1.9638,1.7429,8.0125e-13,-0.98188,0,0,0.125,-5.9212e-16,0,0.66667
0.67241,0.95375,5.3793,0.68062,31.75,70.08,-9.7634,3.2545,-0.35511,-13.018,-6.7057e-13,-0.17756,0,0,0.125,1.1842e-15,0,0.66667
0.0083831,0.50704,0.067065,0.010559,0.8948,460.63,-0.0018883,0.00062766,-1.9978,-0.0025186,-2.6342e-06,-0.99892,0,0,0.125,-0,-0,0.66667
0.67838,0.84177,5.427,0.51266,23.456,67.324,-7.4193,2.4731,-1.0647,-9.8923,-1.8145e-12,-0.53233,0,0,0.125,1.3323e-15,0,0.66667
0.50318,0.15561,4.0254,-0.51659,-32.763,146.71,5.5453,-1.8484,-1.0522,7.3938,1.7089e-12,-0.52612,0,0,0.125,-1.8504e-16,0,0.66667
0.23091,0.63245,1.8473,0.19867,15.942,309.03,-0.97866,0.32622,-1.8594,-1.3049,-2.2679e-11,-0.92972,0,0,0.125,-0,-0,0.66667
0.1749,0.64107,1.3992,0.21161,17.392,346.31,-0.78955,0.26318,-1.8404,-1.0527,-8.8405e-10,-0.92022,0,0,0.125,2.9606e-16,0,0.66667
0.18498,0.40717,1.4799,-0.13925,-11.398,339.52,0.54952,-0.18317,-1.9327,0.7327,6.4709e-10,-0.96633,0,0,0.125,-0,-0,0.66667
0.84426,0.26408,6.7541,-0.35388,-8.5131,17.839,6.3737,-2.1246,-1.557,8.4983,-2.4748e-09,-0.77849,0,0,0.125,-0,-0,0.66667
0.98259,0.46884,7.8607,-0.046741,-0.11051,0.4107,0.97978,-0.32659,-1.9947,1.3064,1.6319e-06,-0.99736,0,0,0.125,-0,-0,0.66667
0.91374,0.66289,7.3099,0.24434,3.3145,6.1051,-4.7629,1.5876,-1.786,-6.3505,2.2701e-08,-0.893,0,0,0.125,-0,-0,0.66667
0.34737,0.86339,2.779,0.54509,40.752,235.27,-4.0394,1.3465,-0.94286,-5.3859,-1.2479e-13,-0.47143,0,0,0.125,-0,-0,0.66667
0.78022,0.19649,6.2418,-0.45526,-15.032,33.624,7.5777,-2.5259,-1.265,10.104,-3.3341e-11,-0.6325,0,0,0.125,-0,-0,0.66667
0.54645,0.37227,4.3716,-0.1916,-11.363,124.41,2.2336,-0.74453,-1.873,2.9781,8.6264e-13,-0.9365,0,0,0.125,-0,-0,0.66667
0.81644,0.069679,6.5315,-0.64548,-18.268,24.884,11.243,-3.7475,-0.51807,14.99,-2.0551e-09,-0.25903,0,0,0.125,-2.3685e-15,0,0.66667
0.48373,0.58321,3.8698,0.12482,8.0881,156.52,-1.2881,0.42936,-1.9469,-1.7174,-3.7592e-13,-0.97343,0,0,0.125,5.9212e-16,0,0.66667
0.58995,0.62996,4.7196,0.19494,10.739,103.82,-2.4535,0.81782,-1.8647,-3.2713,-4.1722e-13,-0.93237,0,0,0.125,-1.1842e-15,0,0.66667
0.78726,0.50972,6.2981,0.014579,0.46451,31.116,-0.24485,0.081617,-1.9975,-0.32647,-3.9119e-11,-0.99873,0,0,0.125,-0,-0,0.66667
0.10023,0.81408,0.80188,0.47111,39.631,397.19,-1.0074,0.3358,-1.2101,-1.3432,-2.2852e-08,-0.60504,0,0,0.125,2.9606e-16,0,0.66667
0.53701,0.45522,4.2961,-0.067177,-4.0404,129.01,0.76959,-0.25653,-1.982,1.0261,2.0162e-13,-0.99102,0,0,0.125,-1.2281e-15,0,0.66667
0.36598,0.14457,2.9279,-0.53315,-39.248,223.98,4.1626,-1.3875,-0.98727,5.5502,-1.541e-13,-0.49364,0,0,0.125,5.9212e-16,0,0.66667
0.60431,0.53407,4.8345,0.051103,2.7386,97.279,-0.65881,0.2196,-1.9902,-0.87841,-1.3217e-13,-0.9951,0,0,0.125,-0,-0,0.66667
0.9588,0.20666,7.6704,-0.44,-2.8616,2.2696,9.0001,-3,-1.3098,12,-5.6343e-08,-0.6549,0,0,0.125,-0,-0,0.66667
0.39282,0.35104,3.1426,-0.22344,-16.006,207.69,1.8725,-0.62416,-1.8234,2.4966,-1.3124e-12,-0.91168,0,0,0.125,1.1842e-15,0,0.66667
0.39297,0.49951,3.1438,-0.00074152,-0.053071,207.53,0.0062165,-0.0020722,-2.0018,0.0082886,-3.9477e-12,-1.0009,0,0,0.125,-9.2519e-17,0,0.66667
0.79064,0.72275,6.3251,0.33412,10.532,30.522,-5.6355,1.8785,-1.6019,-7.5141,1.0583e-10,-0.80096,0,0,0.125,2.3685e-15,0,0.66667
0.64508,0.77431,5.1606,0.41147,20.333,80.232,-5.6625,1.8875,-1.3972,-7.55,-1.5903e-12,-0.6986,0,0,0.125,-0,-0,0.66667
0.39388,0.72085,3.1511,0.33127,23.727,207.15,-2.7836,0.92787,-1.6106,-3.7115,1.4115e-12,-0.80528,0,0,0.125,-0,-0,0.66667
0.68896,0.11224,5.5116,-0.58164,-25.939,63.553,8.5488,-2.8496,-0.79832,11.398,2.2116e-13,-0.39916,0,0,0.125,-0,-0,0.66667
0.404,0.86863,3.232,0.55295,39.336,201.51,-4.7657,1.5886,-0.91383,-6.3542,1.6365e-12,-0.45691,0,0,0.125,-5.9212e-16,0,0.66667
0.13611,0.82788,1.0889,0.49181,41.027,372.67,-1.4281,0.47603,-1.1386,-1.9041,-6.26e-09,-0.5693,0,0,0.125,-0,-0,0.66667
0.45064,0.73024,3.6051,0.34536,23.327,174.71,-3.3202,1.1067,-1.5762,-4.4269,4.9183e-13,-0.78808,0,0,0.125,-0,-0,0.66667
0.33442,0.15612,2.6754,-0.51582,-38.936,243.18,3.68,-1.2267,-1.0535,4.9067,-5.5616e-12,-0.52676,0,0,0.125,6.1987e-16,0,0.66667
0.21797,0.098926,1.7438,-0.60161,-48.773,317.81,2.7975,-0.9325,-0.71579,3.73,-3.1658e-10,-0.3579,0,0,0.125,-0,-8.1827e-17,0.66667
0.92577,0.86853,7.4062,0.55279,6.5954,5.515,-10.918,3.6392,-0.91309,-14.557,3.7012e-09,-0.45655,0,0,0.125,1.1842e-15,0,0.66667
0.68964,0.32787,5.5171,-0.25819,-11.421,62.635,3.7986,-1.2662,-1.7634,5.0648,4.5373e-12,-0.88171,0,0,0.125,-0,-0,0.66667
0.59882,0.26376,4.7906,-0.35436,-19.235,99.993,4.5269,-1.509,-1.5519,6.0359,-1.4344e-13,-0.77594,0,0,0.125,-0,-0,0.66667
0.74666,0.4945,5.9733,-0.0082528,-0.30681,42.986,0.13146,-0.043819,-1.9999,0.17528,1.791e-12,-0.99994,0,0,0.125,-5.9212e-16,0,0.66667
0.54197,0.058228,4.3358,-0.66266,-39.852,127.39,7.6617,-2.5539,-0.43802,10.216,-1.3416e-12,-0.21901,0,0,0.125,6.1697e-16,0,0.66667
0.70053,0.023018,5.6043,-0.71547,-31.054,59.779,10.693,-3.5642,-0.18031,14.257,4.6185e-14,-0.090155,0,0,0.125,1.1842e-15,-1.1489e-16,0.66667
0.93056,0.8719,7.4445,0.55786,6.2363,5.0322,-11.075,3.6915,-0.89235,-14.766,3.2786e-08,-0.44618,0,0,0.125,-2.0558e-17,0,0.66667
0.86262,0.84342,6.9009,0.51514,11.09,14.666,-9.4798,3.1599,-1.0576,-12.64,1.0029e-08,-0.52879,0,0,0.125,-1.2212e-15,0,0.66667
0.16744,0.97023,1.3395,0.70534,58.454,351.6,-2.5196,0.83985,-0.23114,-3.3594,3.7812e-10,-0.11557,0,0,0.125,-0,-0,0.66667
0.26314,0.15943,2.1051,-0.51085,-40.414,288.22,2.8677,-0.95591,-1.0733,3.8236,1.2775e-11,-0.53665,0,0,0.125,-0,-0,0.66667
0.07161,0.39395,0.57288,-0.15908,-13.416,416.84,0.24302,-0.081007,-1.9079,0.32403,-1.3358e-08,-0.95397,0,0,0.125,-0,-0,0.66667
0.97867,0.66819,7.8294,0.25229,0.77798,0.77152,-5.2674,1.7558,-1.7719,-7.0233,-9.4973e-08,-0.88593,0,0,0.125,-0,-0,0.66667
0.23638,0.23406,1.8911,-0.39891,-31.971,305.53,2.0116,-0.67055,-1.4348,2.6822,-1.0714e-11,-0.71739,0,0,0.125,-0,-0,0.66667
0.6606,0.52562,5.2848,0.038434,1.8261,73.592,-0.54165,0.18055,-1.9942,-0.7222,-1.5176e-12,-0.99708,0,0,0.125,-1.1842e-15,0,0.66667
0.089631,0.50405,0.71705,0.00607,0.51027,404.4,-0.011607,0.003869,-1.9997,-0.015475,1.3906e-07,-0.99983,0,0,0.125,-0,-0,0.66667
0.21077,0.30052,1.6862,-0.29922,-24.252,322.37,1.3454,-0.44848,-1.6794,1.7939,9.5482e-11,-0.83972,0,0,0.125,-2.9606e-16,0,0.66667
0.50282,0.76648,4.0226,0.39971,25.318,146.7,-4.2877,1.4292,-1.4317,-5.7169,-1.2652e-12,-0.71587,0,0,0.125,-0,-0,0.66667
0.10495,0.58318,0.83963,0.12477,10.459,393.88,-0.27936,0.093119,-1.9435,-0.37247,-7.6389e-09,-0.97175,0,0,0.125,-1.4803e-16,0,0.66667
0.38887,0.039187,3.111,-0.69122,-50.004,210.61,5.7343,-1.9114,-0.30245,7.6458,2.1805e-13,-0.15123,0,0,0.125,-0,-1.1219e-16,0.66667
0.53799,0.91496,4.3039,0.62244,37.629,129.25,-7.1438,2.3813,-0.62058,-9.5251,-3.0775e-13,-0.31029,0,0,0.125,-0,-0,0.66667
0.3392,0.51534,2.7136,0.023016,1.7247,239.92,-0.16655,0.055518,-1.9967,-0.22207,-2.529e-12,-0.99836,0,0,0.125,-0,-0,0.66667
0.5559,0.82919,4.4472,0.49379,28.952,120.22,-5.8559,1.952,-1.1309,-7.8079,-1.652e-13,-0.56544,0,0,0.125,-0,-0,0.66667
0.53677,0.033895,4.2941,-0.69916,-42.418,130.05,8.0061,-2.6687,-0.26129,10.675,-9.4058e-13,-0.13065,0,0,0.125,1.1842e-15,0,0.66667
0.39061,0.83169,3.1249,0.49753,35.816,209.27,-4.1459,1.382,-1.1228,-5.5279,1.4206e-12,-0.56142,0,0,0.125,-0,5.5798e-17,0.66667
0.69627,0.89243,5.5702,0.58864,25.747,60.901,-8.7435,2.9145,-0.76581,-11.658,-1.6769e-12,-0.38291,0,0,0.125,-1.1842e-15,0,0.66667
0.67848,0.79131,5.4279,0.43697,19.955,67.111,-6.3248,2.1083,-1.3191,-8.4331,-4.0554e-12,-0.65956,0,0,0.125,-0,-0,0.66667
0.6873,0.86386,5.4984,0.54579,24.423,64.065,-8.0026,2.6675,-0.94364,-10.67,-2.0988e-12,-0.47182,0,0,0.125,-5.9212e-16,1.5466e-16,0.66667
0.56149,0.65652,4.4919,0.23478,13.594,117.16,-2.8123,0.93742,-1.8073,-3.7497,1.1191e-13,-0.90366,0,0,0.125,-0,-0,0.66667
0.35808,0.30396,2.8646,-0.29406,-21.731,228.49,2.2464,-0.74878,-1.6942,2.9951,-2.3972e-12,-0.84711,0,0,0.125,-2.9606e-16,0,0.66667
0.61311,0.44538,4.9049,-0.081924,-4.3157,93.404,1.0715,-0.35718,-1.9757,1.4287,2.1516e-13,-0.98783,0,0,0.125,-0,-0,0.66667
0.93574,0.63888,7.4859,0.20832,2.0992,3.6316,-4.1585,1.3862,-1.8465,-5.5446,-5.643e-09,-0.92327,0,0,0.125,-0,-0,0.66667
0.59689,0.69919,4.7751,0.29879,16.266,100.78,-3.8046,1.2682,-1.6823,-5.0728,-1.6558e-12,-0.84113,0,0,0.125,1.1842e-15,0,0.66667
0.97959,0.40312,7.8367,-0.14533,-0.41945,0.58734,3.037,-1.0123,-1.9245,4.0493,-4.3653e-08,-0.96224,0,0,0.125,-5.9212e-16,0,0.66667
0.44101,0.15857,3.5281,-0.51215,-35.044,180.31,4.8184,-1.6061,-1.0679,6.4245,-7.9048e-13,-0.53395,0,0,0.125,-0,-0,0.66667
0.73961,0.24531,5.9169,-0.38203,-14.602,45.603,6.0278,-2.0093,-1.4802,8.0371,1.7406e-11,-0.74009,0,0,0.125,1.4803e-15,0,0.66667
0.037604,0.66383,0.30083,0.24574,20.812,440.37,-0.19714,0.065713,-1.7836,-0.26285,1.1669e-07,-0.89181,0,0,0.125,-0,-0,0.66667
0.76473,0.82381,6.1178,0.48571,17.044,38.132,-7.924,2.6413,-1.1631,-10.565,-2.1526e-11,-0.58155,0,0,0.125,1.1842e-15,0,0.66667
0.51828,0.58915,4.1463,0.13373,8.2705,138.47,-1.4786,0.49285,-1.9372,-1.9714,-1.1385e-12,-0.96862,0,0,0.125,-0,-0,0.66667
0.0053165,0.49178,0.042532,-0.012323,-1.0444,462.75,0.0013979,-0.00047381,-1.9981,0.0018599,-1.1792e-05,-0.99903,0,0,0.125,9.2519e-18,0,0.66667
0.2772,0.27363,2.2176,-0.33955,-26.591,279.03,2.008,-0.66932,-1.5894,2.6773,-1.4387e-11,-0.79471,0,0,0.125,-0,-0,0.66667
0.53483,0.061645,4.2787,-0.65753,-39.971,130.91,7.5023,-2.5008,-0.46351,10.003,5.9508e-14,-0.23176,0,0,0.125,5.5511e-16,0,0.66667
0.76796,0.28539,6.1437,-0.32192,-11.116,36.825,5.2741,-1.758,-1.6327,7.0321,-3.4208e-12,-0.81635,0,0,0.125,-2.3685e-15,0,0.66667
0.053093,0.26418,0.42474,-0.35374,-29.94,429.66,0.40066,-0.13355,-1.553,0.53421,-1.7039e-08,-0.77651,0,0,0.125,-0,-0,0.66667
0.54905,0.97093,4.3924,0.7064,42.061,124.04,-8.2741,2.758,-0.22747,-11.032,2.3146e-12,-0.11373,0,0,0.125,-0,-0,0.66667
0.80099,0.05329,6.408,-0.67007,-20.414,28.776,11.45,-3.8167,-0.40275,15.267,9.3821e-10,-0.20137,0,0,0.125,-5.9212e-16,0,0.66667
0.64958,0.23505,5.1967,-0.39742,-19.437,78.371,5.5074,-1.8358,-1.4362,7.3432,-2.9488e-13,-0.71811,0,0,0.125,1.1842e-15,0,0.66667
0.93145,0.64322,7.4516,0.21483,2.3123,4.0647,-4.2689,1.423,-1.8339,-5.6919,8.267e-09,-0.91695,0,0,0.125,-0,-0,0.66667
0.074731,0.15584,0.59785,-0.51624,-43.648,414.75,0.82303,-0.27434,-1.0534,1.0974,1.3439e-07,-0.52671,0,0,0.125,1.8504e-17,0,0.66667
0.27681,0.99839,2.2145,0.74758,58.903,279.72,-4.4146,1.4715,-0.012903,-5.8862,-8.3351e-12,-0.0064515,0,0,0.125,7.4015e-17,0,0.66667
0.91924,0.32394,7.3539,-0.26409,-3.3581,5.4762,5.1789,-1.7263,-1.7521,6.9052,-2.3443e-08,-0.87606,0,0,0.125,-0,-0,0.66667
0.76501,0.06597,6.12,-0.65104,-22.949,38.562,10.625,-3.5417,-0.49609,14.167,4.8201e-12,-0.24804,0,0,0.125,-2.3685e-15,5.8454e-17,0.66667
0.59974,0.042532,4.7979,-0.6862,-37.429,100.32,8.7796,-2.9265,-0.32389,11.706,1.5952e-12,-0.16195,0,0,0.125,-0,-0,0.66667
0.83297,0.96011,6.6637,0.69017,17.97,21.289,-12.264,4.0881,-0.30517,-16.352,-3.2276e-09,-0.15258,0,0,0.125,-1.1842e-15,0,0.66667
0.89604,0.64772,7.1683,0.22158,3.609,8.4564,-4.2357,1.4119,-1.824,-5.6476,1.4589e-08,-0.91198,0,0,0.125,-0,-0,0.66667
0.97272,0.57326,7.7818,0.10989,0.4419,0.85429,-2.2803,0.76011,-1.9562,-3.0404,-3.2744e-07,-0.97809,0,0,0.125,-0,-0,0.66667
0.99852,0.68117,7.9882,0.27176,-0.069147,0.28048,-5.7889,1.9296,-1.7391,-7.7185,3.115e-07,-0.86957,0,0,0.125,-0,-9.4139e-17,0.66667
0.13965,0.89621,1.1172,0.59431,49.596,370.32,-1.7706,0.59018,-0.74607,-2.3607,-1.2456e-08,-0.37304,0,0,0.125,-0,-1.2915e-16,0.66667
0.070542,0.73936,0.56434,0.35904,30.324,417.6,-0.54032,0.18011,-1.5395,-0.72042,-5.1423e-08,-0.76976,0,0,0.125,7.4015e-17,0,0.66667
0.073467,0.59449,0.58773,0.14173,11.949,415.55,-0.22213,0.074044,-1.9287,-0.29618,3.2602e-08,-0.96434,0,0,0.125,2.9606e-16,0,0.66667
0.014744,0.80366,0.11795,0.45549,38.692,456.22,-0.14327,0.047756,-1.2644,-0.19102,1.8771e-07,-0.63222,0,0,0.125,-0,-0,0.66667
0.97182,0.12439,7.7746,-0.56341,-2.5283,1.9532,11.681,-3.8936,-0.87255,15.574,2.348e-06,-0.43627,0,0,0.125,1.4803e-15,0,0.66667
0.094767,0.71652,0.75814,0.32478,27.312,400.91,-0.65661,0.21887,-1.6278,-0.87547,-2.5525e-08,-0.81392,0,0,0.125,-2.0354e-16,0,0.66667
0.84174,0.65233,6.7339,0.22849,5.5623,18.147,-4.103,1.3677,-1.8159,-5.4707,2.1783e-09,-0.90795,0,0,0.125,-1.2779e-15,0,0.66667
0.68517,0.82537,5.4814,0.48805,21.931,64.711,-7.1338,2.3779,-1.1534,-9.5117,-3.5945e-12,-0.57671,0,0,0.125,-0,-0,0.66667
0.48756,0.3318,3.9005,-0.2523,-16.281,154.56,2.6243,-0.87475,-1.7733,3.499,1.0869e-12,-0.88664,0,0,0.125,-5.9212e-16,0,0.66667
0.34669,0.97758,2.7736,0.71637,53.746,235.95,-5.2984,1.7661,-0.1754,-7.0645,-6.6169e-14,-0.0877,0,0,0.125,-0,-0,0.66667
0.35365,0.2922,2.8292,-0.3117,-23.121,231.2,2.3516,-0.78387,-1.6528,3.1355,-4.0439e-12,-0.82639,0,0,0.125,-0,-0,0.66667
0.25384,0.15639,2.0307,-0.51542,-40.99,294.24,2.7911,-0.93037,-1.0562,3.7215,-8.4688e-12,-0.52808,0,0,0.125,1.1842e-15,0,0.66667
0.91102,0.86635,7.2881,0.54953,7.8255,7.2315,-10.68,3.56,-0.92511,-14.24,5.5405e-08,-0.46256,0,0,0.125,-1.1842e-15,0,0.66667
0.72564,0.35065,5.8051,-0.22403,-8.9317,49.925,3.468,-1.156,-1.8199,4.624,1.0959e-11,-0.90993,0,0,0.125,-0,-0,0.66667
0.025926,0.00039345,0.20741,-0.74941,-63.906,448.51,0.41447,-0.13815,-0.0028848,0.55262,2.0226e-06,-0.0014424,0,0,0.125,-0,-0,0.66667
0.46152,0.83977,3.6922,0.50966,34.067,168.94,-5.018,1.6727,-1.0751,-6.6906,1.1147e-12,-0.53756,0,0,0.125,-0,-0,0.66667
0.2813,0.90316,2.2504,0.60475,47.398,276.65,-3.6291,1.2097,-0.7036,-4.8389,5.8933e-12,-0.3518,0,0,0.125,-5.9212e-16,0,0.66667
0.028966,0.825,0.23173,0.4875,41.401,446.37,-0.30125,0.10042,-1.1554,-0.40166,1.0694e-06,-0.57769,0,0,0.125,-0,-0,0.66667
0.88468,0.16394,7.0775,-0.50409,-9.1878,10.836,9.5139,-3.1713,-1.0949,12.685,-2.117e-09,-0.54746,0,0,0.125,-0,-0,0.66667
0.77101,0.79759,6.168,0.44638,15.28,36.207,-7.3421,2.4474,-1.2897,-9.7895,-2.061e-11,-0.64487,0,0,0.125,-0,-0,0.66667
0.32974,0.76462,2.6379,0.39694,30.022,245.95,-2.7922,0.93073,-1.4408,-3.7229,1.1202e-12,-0.72039,0,0,0.125,-0,-0,0.66667
0.79656,0.31838,6.3725,-0.27242,-8.3586,28.854,4.6293,-1.5431,-1.7393,6.1725,-1.9232e-10,-0.86964,0,0,0.125,-0,-0,0.66667
0.32464,0.45433,2.5971,-0.0685,-5.1897,248.94,0.4744,-0.15813,-1.9826,0.63254,4.4686e-15,-0.99131,0,0,0.125,5.9212e-16,0,0.66667
0.30788,0.95063,2.4631,0.67594,52.139,259.92,-4.4397,1.4799,-0.37409,-5.9196,1.4211e-12,-0.18705,0,0,0.125,5.9212e-16,-2.612e-17,0.66667
0.92811,0.17568,7.4249,-0.48648,-5.5899,5.0394,9.6322,-3.2107,-1.1565,12.843,-1.1207e-07,-0.57826,0,0,0.125,1.1842e-15,0,0.66667
0.97692,0.72747,7.8153,0.34121,1.1709,1.027,-7.1111,2.3704,-1.5841,-9.4815,-3.2357e-07,-0.79204,0,0,0.125,-0,-0,0.66667
0.52356,0.16551,4.1884,-0.50174,-30.918,136.22,5.604,-1.868,-1.1029,7.4721,1.2261e-12,-0.55144,0,0,0.125,-0,-0,0.66667
0.95194,0.62382,7.6155,0.18573,1.3852,2.2134,-3.7718,1.2573,-1.8802,-5.0291,-4.4479e-08,-0.94012,0,0,0.125,5.9212e-16,0,0.66667
0.888,0.75097,7.104,0.37645,6.6287,9.961,-7.1315,2.3772,-1.4976,-9.5087,1.5424e-08,-0.7488,0,0,0.125,2.3685e-15,0,0.66667
0.51803,0.80664,4.1443,0.45996,28.549,138.95,-5.0832,1.6944,-1.2486,-6.7775,-1.7586e-13,-0.62432,0,0,0.125,5.9212e-16,0,0.66667
0.37275,0.30877,2.982,-0.28685,-20.934,219.65,2.281,-0.76033,-1.7088,3.0413,-1.7806e-12,-0.85438,0,0,0.125,7.4015e-16,0,0.66667
0.71035,0.43003,5.6828,-0.10495,-4.3766,55.053,1.5904,-0.53014,-1.959,2.1206,4.2928e-12,-0.97951,0,0,0.125,-5.9212e-16,0,0.66667
0.45564,0.57075,3.6451,0.10612,7.1151,171.77,-1.0316,0.34386,-1.9604,-1.3754,-1.7227e-12,-0.98021,0,0,0.125,-1.1842e-15,0,0.66667
0.60521,0.28434,4.8417,-0.32348,-17.34,97.096,4.1766,-1.3922,-1.6279,5.5688,-5.2403e-14,-0.81393,0,0,0.125,-0,-0,0.66667
0.99041,0.13647,7.9232,-0.54529,-0.73859,1.2184,11.521,-3.8404,-0.94086,15.362,-1.9429e-06,-0.47043,0,0,0.125,2.3685e-15,0,0.66667
0.77392,0.72618,6.1913,0.33927,11.454,35.143,-5.6015,1.8672,-1.5889,-7.4687,1.3568e-11,-0.79446,0,0,0.125,-0,-0,0.66667
0.33428,0.54121,2.6742,0.061818,4.6499,242.96,-0.44084,0.14695,-1.9846,-0.58779,-2.3862e-12,-0.99228,0,0,0.125,-0,-0,0.66667
0.088998,0.1752,0.71199,-0.4872,-41.081,404.92,0.92501,-0.30834,-1.1546,1.2333,1.1811e-08,-0.57731,0,0,0.125,-0,-0,0.66667
0.18491,0.37657,1.4792,-0.18514,-15.157,339.58,0.73031,-0.24344,-1.8795,0.97374,3.4551e-10,-0.93976,0,0,0.125,5.9212e-16,0,0.66667
0.52685,0.65911,4.2148,0.23866,14.588,134.19,-2.6825,0.89416,-1.7973,-3.5766,-2.0828e-13,-0.89865,0,0,0.125,-0,-0,0.66667
0.4171,0.082519,3.3368,-0.62622,-44.03,194.07,5.5722,-1.8574,-0.6043,7.4296,-5.7154e-13,-0.30215,0,0,0.125,-0,-0,0.66667
0.80066,0.55304,6.4053,0.079561,2.3911,27.601,-1.359,0.45299,-1.9768,-1.8119,1.6911e-10,-0.98842,0,0,0.125,-5.9212e-16,0,0.66667
0.9332,0.76516,7.4656,0.39774,4.216,4.2601,-7.9183,2.6394,-1.4363,-10.558,6.8688e-08,-0.71814,0,0,0.125,-1.1842e-15,0,0.66667
0.17786,0.86688,1.4229,0.55031,45.326,344.48,-2.0881,0.69605,-0.92159,-2.7842,-1.111e-09,-0.46079,0,0,0.125,-2.9606e-16,0,0.66667
0.86007,0.54226,6.8805,0.06339,1.3712,14.342,-1.1631,0.3877,-1.9879,-1.5508,4.1514e-10,-0.99394,0,0,0.125,-0,-0,0.66667
0.95739,0.25631,7.6592,-0.36553,-2.4387,2.1592,7.4658,-2.4886,-1.5243,9.9544,7.6276e-08,-0.76215,0,0,0.125,-0,-0,0.66667
0.95947,0.92697,7.6758,0.64046,4.2391,2.9649,-13.109,4.3698,-0.53963,-17.479,3.9015e-06,-0.26981,0,0,0.125,-0,-0,0.66667
0.037863,0.65843,0.3029,0.23765,20.125,440.19,-0.19196,0.063986,-1.7983,-0.25594,1.1397e-07,-0.89914,0,0,0.125,-0,-0,0.66667
0.057584,0.57954,0.46067,0.11931,10.079,426.53,-0.14656,0.048855,-1.9478,-0.19542,5.5909e-08,-0.97391,0,0,0.125,-0,-0,0.66667
0.0057974,0.91742,0.046379,0.62614,53.318,462.43,-0.077434,0.025808,-0.60424,-0.10325,-4.4673e-06,-0.30212,0,0,0.125,9.2519e-18,2.7205e-16,0.66667
0.31268,0.087831,2.5014,-0.61825,-47.484,256.83,4.1241,-1.3747,-0.64425,5.4988,-7.8471e-13,-0.32213,0,0,0.125,1.4803e-16,0,0.66667
0.055698,0.099408,0.44559,-0.60089,-50.991,427.9,0.71399,-0.238,-0.71469,0.95199,-6.7462e-07,-0.35734,0,0,0.125,-1.4803e-16,0,0.66667
0.29386,0.77346,2.3509,0.41018,31.812,268.45,-2.5715,0.85716,-1.4019,-3.4286,3.4321e-12,-0.70093,0,0,0.125,2.9606e-16,0,0.66667
0.35602,0.66579,2.8481,0.24868,18.402,229.72,-1.8888,0.62959,-1.7798,-2.5183,-5.1692e-13,-0.88988,0,0,0.125,-0,-0,0.66667
0.95368,0.36139,7.6294,-0.20791,-1.4937,2.1138,4.23,-1.41,-1.8485,5.64,6.2071e-08,-0.92426,0,0,0.125,-1.1842e-15,0,0.66667
0.47695,0.64475,3.8156,0.21712,14.197,160.21,-2.2092,0.7364,-1.8302,-2.9456,-9.9298e-13,-0.9151,0,0,0.125,5.9212e-16,0,0.66667
0.27824,0.46086,2.2259,-0.058716,-4.5885,278.25,0.34852,-0.11617,-1.9878,0.4647,-2.6301e-12,-0.99391,0,0,0.125,-0,-0,0.66667
0.50301,0.026034,4.024,-0.71095,-45.276,147.22,7.629,-2.543,-0.20328,10.172,1.2794e-12,-0.10164,0,0,0.125,-5.9212e-16,0,0.66667
0.64336,0.010162,5.1469,-0.73476,-36.73,81.785,10.085,-3.3615,-0.080572,13.446,7.8959e-13,-0.040286,0,0,0.125,-0,-0,0.66667
0.11125,0.8304,0.88997,0.4956,41.605,389.65,-1.1762,0.39206,-1.1274,-1.5682,-1.2959e-08,-0.56372,0,0,0.125,-0,-0,0.66667
0.75806,0.53119,6.0645,0.046778,1.6707,39.485,-0.75649,0.25216,-1.9916,-1.0087,7.6375e-12,-0.99581,0,0,0.125,-1.2627e-15,0,0.66667
0.85195,0.94539,6.8156,0.66809,15.551,17.256,-12.142,4.0475,-0.41113,-16.19,1.5065e-08,-0.20556,0,0,0.125,-0,-0,0.66667
0.84425,0.93885,6.754,0.65828,16.047,18.766,-11.856,3.952,-0.46294,-15.808,1.9616e-08,-0.23147,0,0,0.125,2.3685e-15,0,0.66667
0.89051,0.89533,7.1241,0.593,10.345,10.24,-11.265,3.7551,-0.75261,-15.021,1.6149e-08,-0.37631,0,0,0.125,-1.1842e-15,0,0.66667
0.38184,0.47507,3.0547,-0.0374,-2.7044,214.12,0.30466,-0.10155,-1.9934,0.40621,-7.5251e-13,-0.9967,0,0,0.125,-0,-0,0.66667
0.44381,0.55685,3.5504,0.08528,5.7947,178.35,-0.80741,0.26914,-1.9727,-1.0766,-4.9044e-13,-0.98636,0,0,0.125,-8.8818e-16,0,0.66667
0.10158,0.86618,0.81265,0.54926,46.238,396.29,-1.1903,0.39676,-0.92534,-1.5871,-1.4345e-09,-0.46267,0,0,0.125,1.4803e-16,0,0.66667
0.22581,0.08274,1.8065,-0.62589,-50.575,312.67,3.015,-1.005,-0.60504,4.0201,7.1667e-11,-0.30252,0,0,0.125,-0,-0,0.66667
0.97132,0.04688,7.7706,-0.67968,-3.2082,2.4766,14.084,-4.6946,-0.35751,18.779,2.0472e-05,-0.17876,0,0,0.125,-0,-0,0.66667
0.28462,0.30902,2.277,-0.28648,-22.323,274.25,1.7395,-0.57982,-1.7086,2.3193,-9.554e-12,-0.8543,0,0,0.125,-2.9606e-16,0,0.66667
0.9074,0.24996,7.2592,-0.37507,-5.4891,7.1768,7.2604,-2.4201,-1.503,9.6806,-2.8997e-08,-0.75151,0,0,0.125,4.7647e-16,0,0.66667
0.89055,0.6129,7.1244,0.16935,2.8964,9.2104,-3.2174,1.0725,-1.9009,-4.2898,1.0559e-08,-0.95046,0,0,0.125,-1.1842e-15,0,0.66667
0.9225,0.56707,7.38,0.10061,1.2214,4.9053,-1.98,0.65999,-1.967,-2.6399,4.4314e-08,-0.98348,0,0,0.125,2.3685e-15,0,0.66667
0.15615,0.86908,1.2492,0.55363,45.944,359.11,-1.8442,0.61475,-0.91364,-2.459,-3.0362e-09,-0.45682,0,0,0.125,-2.9606e-16,9.6169e-17,0.66667
0.87972,0.90605,7.0378,0.60908,11.63,12.003,-11.431,3.8103,-0.68116,-15.241,-4.9144e-08,-0.34058,0,0,0.125,5.181e-16,0,0.66667
0.63199,0.72483,5.056,0.33724,17.126,85.537,-4.5469,1.5156,-1.594,-6.0625,-3.1424e-12,-0.79701,0,0,0.125,2.3685e-15,0,0.66667
0.21063,0.48226,1.685,-0.026605,-2.1541,322.4,0.11955,-0.039849,-1.9952,0.1594,7.9894e-12,-0.99761,0,0,0.125,-2.9606e-16,0,0.66667
0.34512,0.46624,2.7609,-0.050647,-3.7777,236.29,0.37288,-0.12429,-1.9933,0.49718,-1.554e-12,-0.99666,0,0,0.125,1.4803e-16,0,0.66667
0.15992,0.33473,1.2794,-0.2479,-20.485,356.43,0.84575,-0.28192,-1.781,1.1277,1.9653e-09,-0.89048,0,0,0.125,-1.4803e-16,0,0.66667
0.44435,0.066272,3.5548,-0.65059,-44.462,178.7,6.1672,-2.0557,-0.49379,8.223,-9.3037e-13,-0.2469,0,0,0.125,-1.1842e-15,0,0.66667
0.083775,0.15423,0.6702,-0.51865,-43.79,408.52,0.92693,-0.30898,-1.0429,1.2359,7.5719e-09,-0.52147,0,0,0.125,1.8504e-16,0,0.66667
0.16532,0.40922,1.3225,-0.13616,-11.225,352.75,0.48022,-0.16007,-1.933,0.64029,6.0516e-10,-0.96651,0,0,0.125,-0,-0,0.66667
0.1972,0.04087,1.5776,-0.68869,-56.42,331.67,2.8972,-0.96575,-0.31185,3.863,-7.2219e-10,-0.15592,0,0,0.125,-0,-0,0.66667
0.69103,0.95754,5.5282,0.68632,30.534,63.117,-10.118,3.3725,-0.32463,-13.49,-1.3953e-12,-0.16231,0,0,0.125,-0,-0,0.66667
0.5738,0.73962,4.5904,0.35943,20.412,111.48,-4.3999,1.4666,-1.5396,-5.8665,-1.7719e-13,-0.76979,0,0,0.125,5.9212e-16,0,0.66667
0.87332,0.79489,6.9866,0.44233,8.789,12.535,-8.241,2.747,-1.3053,-10.988,7.1383e-09,-0.65264,0,0,0.125,-0,-0,0.66667
0.24463,0.058835,1.9571,-0.66175,-53.004,300.38,3.4536,-1.1512,-0.44219,4.6048,-4.7302e-12,-0.2211,0,0,0.125,-2.9606e-16,0,0.66667
0.62961,0.32692,5.0369,-0.25962,-13.239,86.441,3.4872,-1.1624,-1.7589,4.6496,2.0917e-13,-0.87946,0,0,0.125,-0,-0,0.66667
0.034431,0.034899,0.27545,-0.69765,-59.407,442.62,0.51245,-0.17081,-0.27,0.68327,2.5692e-06,-0.135,0,0,0.125,-0,-0,0.66667
0.5162,0.20014,4.1296,-0.4498,-27.987,139.87,4.9533,-1.6511,-1.2829,6.6043,1.3158e-12,-0.64144,0,0,0.125,-0,-0,0.66667
0.86323,0.043143,6.9058,-0.68528,-14.836,15.18,12.62,-4.2066,-0.32939,16.826,7.0157e-09,-0.16469,0,0,0.125,-2.3685e-15,0,0.66667
0.98413,0.86776,7.873,0.55164,1.3349,1.4158,-11.582,3.8605,-0.92108,-15.442,-2.3729e-07,-0.46054,0,0,0.125,-0,-1.1333e-16,0.66667
0.009873,0.063451,0.078984,-0.65482,-55.782,459.61,0.13792,-0.045961,-0.47497,0.18389,1.6603e-05,-0.23749,0,0,0.125,-0,-0,0.66667
0.25284,0.92044,2.0227,0.63067,50.269,295.01,-3.4018,1.1339,-0.58563,-4.5357,1.4254e-11,-0.29282,0,0,0.125,-0,-0,0.66667
0.22385,0.49,1.7908,-0.015003,-1.2074,313.65,0.071648,-0.023883,-1.9977,0.09553,9.0231e-12,-0.99887,0,0,0.125,-2.9606e-16,0,0.66667
0.047538,0.057416,0.3803,-0.66388,-56.439,433.55,0.67326,-0.22442,-0.43578,0.89768,2.0956e-06,-0.21789,0,0,0.125,-1.8504e-17,0,0.66667
0.010172,0.97438,0.08138,0.71158,60.673,459.4,-0.15443,0.051444,-0.19858,-0.20592,-4.7017e-05,-0.099291,0,0,0.125,-0,-0,0.66667
0.4902,0.23232,3.9216,-0.40152,-25.863,153.33,4.1989,-1.3996,-1.4248,5.5986,-3.4728e-13,-0.71242,0,0,0.125,-0,-0,0.66667
0.045482,0.75299,0.36386,0.37948,32.151,434.92,-0.36821,0.12274,-1.4903,-0.49094,4.8564e-08,-0.74515,0,0,0.125,-1.4803e-16,0,0.66667
0.27833,0.47333,2.2266,-0.040001,-3.1258,278.19,0.23751,-0.079171,-1.9949,0.31669,-3.3328e-12,-0.99745,0,0,0.125,-0,-0,0.66667
0.63997,0.40484,5.1198,-0.14274,-7.1115,81.994,1.9488,-0.6496,-1.931,2.5984,-1.1311e-12,-0.96552,0,0,0.125,1.4803e-15,0,0.66667
0.29469,0.98686,2.3575,0.73029,56.884,268.31,-4.5912,1.5304,-0.10417,-6.1216,4.4031e-12,-0.052085,0,0,0.125,-2.9606e-16,0,0.66667
0.26965,0.55357,2.1572,0.080356,6.3121,283.77,-0.46226,0.15409,-1.9763,-0.61634,5.6375e-12,-0.98814,0,0,0.125,-2.9606e-16,0,0.66667
0.59055,0.94633,4.7244,0.66949,37.127,104.41,-8.4345,2.8115,-0.40616,-11.246,-3.2063e-13,-0.20308,0,0,0.125,-0,-0,0.66667
0.38053,0.73494,3.0443,0.35241,25.558,215.06,-2.8609,0.95363,-1.5566,-3.8145,2.8355e-13,-0.77828,0,0,0.125,-0,-0,0.66667
0.70252,0.079398,5.6202,-0.6309,-27.159,58.786,9.4554,-3.1518,-0.5869,12.607,1.0649e-12,-0.29345,0,0,0.125,-0,1.4705e-16,0.66667
0.49612,0.76159,3.969,0.39239,25.076,150.19,-4.153,1.3843,-1.4517,-5.5374,-6.3149e-13,-0.72585,0,0,0.125,-0,-0,0.66667
0.63321,0.63443,5.0657,0.20165,10.199,84.862,-2.724,0.908,-1.8534,-3.632,-1.8461e-12,-0.9267,0,0,0.125,-0,-0,0.66667
0.35339,0.3823,2.8272,-0.17655,-13.086,231.27,1.331,-0.44366,-1.8876,1.7747,-2.0243e-12,-0.94382,0,0,0.125,-0,-0,0.66667
0.28704,0.1526,2.2964,-0.5211,-40.646,272.89,3.191,-1.0637,-1.0335,4.2547,-7.5291e-12,-0.51677,0,0,0.125,-0,-0,0.66667
0.13321,0.33248,1.0657,-0.25128,-20.932,374.57,0.71409,-0.23803,-1.7733,0.95212,5.9073e-09,-0.88666,0,0,0.125,-1.4803e-16,0,0.66667
0.93708,0.22866,7.4966,-0.40701,-4.0656,3.9109,8.1365,-2.7122,-1.4136,10.849,-6.1109e-08,-0.70679,0,0,0.125,-0,-0,0.66667
0.80484,0.9553,6.4387,0.68296,20.46,27.857,-11.726,3.9088,-0.33931,-15.635,-6.314e-10,-0.16966,0,0,0.125,1.1842e-15,0,0.66667
0.93803,0.6871,7.5042,0.28065,2.7355,3.5326,-5.6162,1.8721,-1.7238,-7.4883,-3.6814e-09,-0.86189,0,0,0.125,-1.8504e-16,0,0.66667
0.18538,0.96154,1.483,0.69231,56.987,339.56,-2.7379,0.91265,-0.2968,-3.6506,-1.402e-09,-0.1484,0,0,0.125,-2.9606e-16,1.0509e-16,0.66667
0.93316,0.26448,7.4652,-0.35328,-3.7351,4.154,7.0328,-2.3443,-1.555,9.377,-4.3489e-08,-0.77749,0,0,0.125,-0,-0,0.66667
0.93575,0.86991,7.486,0.55487,5.7421,4.51,-11.077,3.6922,-0.90693,-14.769,1.334e-07,-0.45346,0,0,0.125,5.9212e-16,0,0.66667
0.28354,0.31681,2.2684,-0.27478,-21.424,274.93,1.6621,-0.55404,-1.7327,2.2162,-8.5436e-12,-0.86636,0,0,0.125,-5.9212e-16,0,0.66667
0.27463,0.91549,2.1971,0.62324,49.059,280.94,-3.6515,1.2172,-0.61703,-4.8686,1.0678e-11,-0.30851,0,0,0.125,-0,-0,0.66667
0.55143,0.79023,4.4115,0.43535,25.685,122.28,-5.1214,1.7071,-1.325,-6.8285,1.4655e-14,-0.66251,0,0,0.125,-0,-0,0.66667
0.18529,0.0098651,1.4823,-0.7352,-60.567,339.66,2.9061,-0.96871,-0.078747,3.8748,9.9119e-11,-0.039373,0,0,0.125,-0,-0,0.66667
0.4421,0.6481,3.5368,0.22215,15.133,179.37,-2.0952,0.6984,-1.8235,-2.7936,-2.3006e-12,-0.91175,0,0,0.125,5.9212e-16,0,0.66667
0.18532,0.44149,1.4825,-0.087767,-7.1818,339.29,0.34698,-0.11566,-1.974,0.46264,1.2408e-11,-0.98698,0,0,0.125,-5.9212e-16,0,0.66667
0.94738,0.48968,7.579,-0.015483,-0.12637,2.4546,0.31292,-0.10431,-1.9974,0.41723,2.9286e-07,-0.9987,0,0,0.125,-1.2466e-15,0,0.66667
0.49382,0.18125,3.9506,-0.47812,-30.685,151.53,5.037,-1.679,-1.1857,6.7159,1.013e-12,-0.59287,0,0,0.125,-0,-0,0.66667
0.96392,0.863,7.7113,0.5445,3.1423,2.3032,-11.197,3.7323,-0.94439,-14.929,2.3189e-07,-0.4722,0,0,0.125,-1.1842e-15,0,0.66667
0.64494,0.24706,5.1595,-0.37941,-18.745,80.23,5.2202,-1.7401,-1.488,6.9603,-6.5326e-13,-0.74401,0,0,0.125,1.7764e-15,0,0.66667
0.48432,0.030589,3.8745,-0.70412,-45.942,157.03,7.275,-2.425,-0.24162,9.7,5.1292e-13,-0.12081,0,0,0.125,-3.7007e-16,1.2266e-17,0.66667
0.9677,0.57131,7.7416,0.10697,0.51908,1.1103,-2.2082,0.73608,-1.9612,-2.9443,-1.3437e-07,-0.98062,0,0,0.125,-0,-0,0.66667
0.14319,0.12282,1.1455,-0.56577,-47.147,367.9,1.7283,-0.57609,-0.86318,2.3044,5.3272e-10,-0.43159,0,0,0.125,-3.3307e-16,0,0.66667
0.63233,0.16212,5.0586,-0.50683,-25.796,85.718,6.8369,-2.279,-1.0851,9.1159,2.6912e-13,-0.54253,0,0,0.125,-0,-0,0.66667
0.66189,0.45049,5.2951,-0.074261,-3.5179,73.091,1.0486,-0.34953,-1.9785,1.3981,4.3965e-13,-0.98927,0,0,0.125,-0,-0,0.66667
0.43384,0.045179,3.4707,-0.68223,-47.191,184.66,6.3142,-2.1047,-0.34429,8.419,7.5495e-15,-0.17214,0,0,0.125,-5.9212e-16,0,0.66667
0.059357,0.21843,0.47486,-0.42235,-35.746,425.34,0.53482,-0.17827,-1.3669,0.7131,4.3805e-08,-0.68347,0,0,0.125,-9.9457e-17,0,0.66667
0.49272,0.24179,3.9418,-0.38731,-24.861,151.98,4.0712,-1.3571,-1.4647,5.4282,1.2683e-12,-0.73237,0,0,0.125,-5.9212e-16,0,0.66667
0.46513,0.3874,3.7211,-0.16891,-11.202,166.59,1.676,-0.55868,-1.8978,2.2347,-1.7997e-13,-0.94892,0,0,0.125,-0,-0,0.66667
0.80675,0.077218,6.454,-0.63417,-18.79,27.197,10.914,-3.6382,-0.56811,14.553,-6.1364e-12,-0.28405,0,0,0.125,1.1842e-15,0,0.66667
0.25666,0.18852,2.0533,-0.46722,-37.076,292.37,2.5582,-0.85275,-1.2231,3.411,-2.602e-11,-0.61157,0,0,0.125,-0,-0,0.66667
0.39143,0.80879,3.1314,0.46318,33.302,208.74,-3.8678,1.2893,-1.2401,-5.1571,9.0483e-13,-0.62004,0,0,0.125,-2.9606e-16,0,0.66667
0.24017,0.85135,1.9214,0.52702,42.223,303.15,-2.7003,0.9001,-1.0109,-3.6004,1.6644e-11,-0.50546,0,0,0.125,-0,-0,0.66667
0.68644,0.19003,5.4915,-0.46495,-20.813,64.184,6.8088,-2.2696,-1.2341,9.0784,2.2826e-12,-0.61707,0,0,0.125,-0,-0,0.66667
0.98988,0.85641,7.9191,0.53462,0.76496,1.1902,-11.29,3.7633,-0.98197,-15.053,1.6135e-06,-0.49099,0,0,0.125,-0,-0,0.66667
0.17743,0.94361,1.4194,0.66541,54.912,344.86,-2.5187,0.83957,-0.42445,-3.3583,-1.1591e-09,-0.21222,0,0,0.125,-0,-0,0.66667
0.82145,0.48853,6.5716,-0.017201,-0.46734,22.493,0.30143,-0.10048,-1.9969,0.40191,1.0018e-10,-0.99844,0,0,0.125,-0,-0,0.66667
0.23099,0.85755,1.8479,0.53632,43.171,309.18,-2.6428,0.88095,-0.97668,-3.5238,3.4857e-11,-0.48834,0,0,0.125,-0,-0,0.66667
0.057976,0.97748,0.46381,0.71622,60.875,426.36,-0.88583,0.29528,-0.17508,-1.1811,5.9176e-06,-0.087539,0,0,0.125,-1.4803e-16,0,0.66667
0.13882,0.34127,1.1105,-0.23809,-19.801,370.74,0.70508,-0.23503,-1.8004,0.94011,4.4675e-09,-0.90021,0,0,0.125,1.4803e-16,0,0.66667
0.93515,0.11339,7.4812,-0.57991,-6.0738,4.6618,11.569,-3.8564,-0.80464,15.426,-1.1565e-07,-0.40232,0,0,0.125,-0,-0,0.66667
0.88854,0.56128,7.1083,0.09192,1.5982,9.4555,-1.7424,0.5808,-1.9719,-2.3232,9.7348e-09,-0.98595,0,0,0.125,4.4409e-16,0,0.66667
0.28926,0.57546,2.3141,0.11319,8.7863,271.22,-0.69849,0.23283,-1.9522,-0.93132,3.0221e-12,-0.9761,0,0,0.125,-0,-0,0.66667
0.94776,0.4443,7.5821,-0.083545,-0.67722,2.4458,1.6892,-0.56307,-1.9739,2.2523,2.24e-08,-0.98697,0,0,0.125,-0,-0,0.66667
0.84993,0.76718,6.7994,0.40077,9.3272,16.791,-7.2666,2.4222,-1.4269,-9.6889,2.6082e-09,-0.71343,0,0,0.125,1.7772e-16,0,0.66667
0.43465,0.48949,3.4772,-0.015766,-1.082,183.48,0.14619,-0.048732,-1.9991,0.19493,-1.7625e-12,-0.99955,0,0,0.125,5.9212e-16,0,0.66667
0.46805,0.087219,3.7444,-0.61917,-41.146,165.59,6.1825,-2.0608,-0.63948,8.2433,-2.0268e-12,-0.31974,0,0,0.125,2.9606e-16,9.789e-17,0.66667
0.62985,0.41685,5.0388,-0.12472,-6.3498,86.221,1.6758,-0.55861,-1.9433,2.2344,-8.1279e-13,-0.97166,0,0,0.125,-0,-0,0.66667
0.15803,0.44023,1.2643,-0.089652,-7.4077,357.67,0.30225,-0.10075,-1.9734,0.403,5.3434e-10,-0.98669,0,0,0.125,-0,-0,0.66667
0.014782,0.88683,0.11826,0.58024,49.367,456.2,-0.18298,0.060991,-0.80485,-0.24397,-1.8453e-06,-0.40242,0,0,0.125,-0,-0,0.66667
0.26551,0.85934,2.1241,0.53901,42.601,286.71,-3.0531,1.0177,-0.96974,-4.0708,8.0485e-12,-0.48487,0,0,0.125,5.9212e-16,-1.8519e-16,0.66667
0.015444,0.038171,0.12355,-0.69274,-59.041,455.75,0.22823,-0.076062,-0.29685,0.30431,2.1799e-05,-0.14843,0,0,0.125,3.7007e-17,0,0.66667
0.6745,0.69593,5.396,0.2939,13.525,68.378,-4.229,1.4097,-1.6932,-5.6387,-4.1709e-12,-0.84662,0,0,0.125,-0,-0,0.66667
0.55147,0.95866,4.4118,0.68798,40.79,122.82,-8.0939,2.698,-0.31587,-10.792,2.5944e-12,-0.15793,0,0,0.125,-5.9212e-16,0,0.66667
0.32165,0.38164,2.5732,-0.17753,-13.484,250.83,1.2182,-0.40607,-1.8863,1.6243,-3.5141e-12,-0.94317,0,0,0.125,-0,-0,0.66667
0.7802,0.66475,6.2416,0.24713,8.1231,33.224,-4.1133,1.3711,-1.7848,-5.4844,5.2171e-11,-0.8924,0,0,0.125,-0,-0,0.66667
0.14579,0.21052,1.1663,-0.43423,-36.098,366.07,1.3505,-0.45016,-1.3283,1.8006,3.2617e-09,-0.66414,0,0,0.125,-0,-0,0.66667
0.24488,0.48967,1.959,-0.015494,-1.2338,299.84,0.080943,-0.026981,-1.9977,0.10792,-9.2917e-12,-0.99883,0,0,0.125,-0,-0,0.66667
0.29231,0.29424,2.3385,-0.30865,-23.938,269.36,1.9247,-0.64158,-1.6599,2.5663,-9.2015e-12,-0.82997,0,0,0.125,-0,-0,0.66667
0.19593,0.96608,1.5675,0.69912,57.314,332.52,-2.9222,0.97408,-0.26107,-3.8963,5.626e-10,-0.13053,0,0,0.125,2.9606e-16,0,0.66667
0.087939,0.69379,0.70351,0.29068,24.469,405.6,-0.54533,0.18178,-1.6982,-0.7271,-2.3806e-08,-0.84911,0,0,0.125,-0,-0,0.66667
0.86998,0.84083,6.9598,0.51125,10.448,13.323,-9.4885,3.1628,-1.0701,-12.651,7.7645e-09,-0.53507,0,0,0.125,-2.9606e-16,0,0.66667
0.088189,0.71431,0.70551,0.32146,27.065,405.43,-0.60478,0.20159,-1.6316,-0.80638,-2.7307e-08,-0.81579,0,0,0.125,7.4015e-17,0,0.66667
0.68371,0.98802,5.4697,0.73203,33.246,65.98,-10.677,3.5591,-0.093879,-14.236,6.5281e-13,-0.04694,0,0,0.125,-0,-0,0.66667
0.1204,0.8729,0.96321,0.55935,46.894,383.42,-1.4367,0.4789,-0.88744,-1.9156,-2.0786e-08,-0.44372,0,0,0.125,-1.4803e-16,0,0.66667
0.010699,0.77678,0.085592,0.41517,35.256,459.03,-0.094761,0.031587,-1.3864,-0.12635,-2.5229e-07,-0.69321,0,0,0.125,1.5587e-17,0,0.66667
0.55727,0.74736,4.4581,0.37104,21.666,119.35,-4.4111,1.4704,-1.5099,-5.8815,1.0192e-12,-0.75497,0,0,0.125,-5.9212e-16,0,0.66667
0.90711,0.68399,7.2569,0.27598,4.0328,7.0065,-5.3407,1.7802,-1.732,-7.1209,2.1831e-08,-0.86602,0,0,0.125,-2.9606e-16,0,0.66667
0.86046,0.46222,6.8837,-0.056668,-1.2225,14.266,1.0402,-0.34674,-1.9907,1.387,1.123e-09,-0.99536,0,0,0.125,-0,-0,0.66667
0.33845,0.13298,2.7076,-0.55053,-41.449,240.75,3.975,-1.325,-0.92103,5.2999,-2.3708e-12,-0.46051,0,0,0.125,1.1842e-15,0,0.66667
0.027159,0.41957,0.21727,-0.12065,-10.219,447.6,0.069903,-0.023301,-1.9472,0.093204,-1.6728e-07,-0.97358,0,0,0.125,-0,-0,0.66667
0.80086,0.91678,6.4069,0.62517,19.02,28.645,-10.681,3.5603,-0.6095,-14.241,7.242e-10,-0.30475,0,0,0.125,-2.3685e-15,0,0.66667
0.80598,0.82866,6.4479,0.49299,14.577,26.93,-8.4767,2.8256,-1.1337,-11.302,2.7102e-10,-0.56684,0,0,0.125,-0,-0,0.66667
0.86849,0.85845,6.9479,0.53768,11.122,13.673,-9.962,3.3207,-0.96994,-13.283,2.2331e-09,-0.48497,0,0,0.125,-0,-0,0.66667
0.66965,0.98154,5.3572,0.72232,33.967,71.284,-10.319,3.4396,-0.14533,-13.758,-1.2328e-12,-0.072666,0,0,0.125,2.3685e-15,1.4317e-16,0.66667
0.80778,0.31826,6.4622,-0.27262,-7.9458,26,4.6979,-1.566,-1.7349,6.2639,-3.7264e-10,-0.86747,0,0,0.125,-0,-0,0.66667
0.8975,0.81972,7.18,0.47957,7.7941,8.823,-9.1822,3.0607,-1.1805,-12.243,2.5343e-08,-0.59026,0,0,0.125,-0,-0,0.66667
0.45383,0.59213,3.6306,0.1382,9.2861,172.79,-1.338,0.44599,-1.9355,-1.784,-1.4838e-12,-0.96774,0,0,0.125,8.1416e-16,0,0.66667
0.55783,0.037263,4.4626,-0.6941,-40.742,119.77,8.26,-2.7533,-0.28618,11.013,-6.386e-13,-0.14309,0,0,0.125,-0,-9.6541e-17,0.66667
0.50613,0.7783,4.049,0.41745,26.329,145.01,-4.5074,1.5025,-1.3794,-6.0099,-8.3045e-13,-0.68972,0,0,0.125,1.4803e-16,0,0.66667
0.69198,0.25839,5.5359,-0.36242,-15.955,61.931,5.3501,-1.7834,-1.532,7.1335,4.2926e-12,-0.766,0,0,0.125,-0,-0,0.66667
0.68291,0.80952,5.4633,0.46427,20.975,65.503,-6.7639,2.2546,-1.2333,-9.0185,-3.6877e-12,-0.61665,0,0,0.125,-2.9606e-16,0,0.66667
0.52031,0.51394,4.1625,0.020906,1.2888,137.4,-0.23206,0.077353,-1.997,-0.30941,1.4956e-12,-0.9985,0,0,0.125,-0,-0,0.66667
0.82847,0.8045,6.6277,0.45675,12.057,21.496,-8.0727,2.6909,-1.2611,-10.764,4.8767e-10,-0.63054,0,0,0.125,-1.1842e-15,0,0.66667
0.50578,0.61833,4.0462,0.1775,11.174,144.93,-1.9152,0.63839,-1.8866,-2.5536,-2.1139e-13,-0.9433,0,0,0.125,-8.8818e-16,0,0.66667
0.82486,0.461,6.5989,-0.058505,-1.5617,21.713,1.0295,-0.34317,-1.9877,1.3727,-3.0697e-10,-0.99386,0,0,0.125,-5.9212e-16,0,0.66667
0.28185,0.84183,2.2548,0.51274,40.119,276.2,-3.083,1.0277,-1.0687,-4.1106,1.0417e-11,-0.53434,0,0,0.125,-7.4015e-17,0,0.66667
0.17849,0.86814,1.428,0.55221,45.473,344.06,-2.1027,0.70092,-0.91414,-2.8037,-1.2633e-09,-0.45707,0,0,0.125,-4.234e-17,0,0.66667
0.96987,0.034845,7.759,-0.69773,-3.479,2.6337,14.436,-4.8121,-0.2716,19.249,2.3447e-05,-0.1358,0,0,0.125,-2.3685e-15,0,0.66667
0.74194,0.28037,5.9355,-0.32945,-12.482,44.763,5.2145,-1.7382,-1.6133,6.9527,1.5676e-11,-0.80666,0,0,0.125,-2.4114e-16,0,0.66667
0.25979,0.94876,2.0783,0.67314,53.488,290.56,-3.7307,1.2436,-0.38707,-4.9743,6.0498e-12,-0.19354,0,0,0.125,-0,-0,0.66667
0.58124,0.77911,4.6499,0.41866,23.488,108.11,-5.1913,1.7304,-1.3776,-6.9217,-4.13e-14,-0.68882,0,0,0.125,-1.1842e-15,0,0.66667
0.95526,0.45898,7.6421,-0.06153,-0.42363,1.8658,1.2539,-0.41797,-1.9872,1.6719,4.0559e-07,-0.99361,0,0,0.125,-0,-0,0.66667
0.080754,0.12323,0.64603,-0.56515,-47.769,410.61,0.97361,-0.32454,-0.86571,1.2981,8.7506e-09,-0.43286,0,0,0.125,-2.0354e-16,0,0.66667
0.083534,0.64099,0.66827,0.21149,17.808,408.62,-0.37689,0.12563,-1.8392,-0.50252,-1.3884e-08,-0.91958,0,0,0.125,1.4803e-16,0,0.66667
0.61913,0.73643,4.9531,0.35464,18.502,91.048,-4.6842,1.5614,-1.5509,-6.2456,-1.8514e-12,-0.77543,0,0,0.125,-0,-0,0.66667
0.22449,0.55256,1.7959,0.078845,6.3436,313.23,-0.3776,0.12587,-1.9762,-0.50347,-2.0786e-11,-0.98809,0,0,0.125,2.9606e-16,0,0.66667
0.76518,0.56241,6.1215,0.093611,3.2573,37.38,-1.5281,0.50937,-1.9729,-2.0375,1.7229e-11,-0.98643,0,0,0.125,1.249e-15,0,0.66667
0.56815,0.94366,4.5452,0.66549,38.375,114.77,-8.0661,2.6887,-0.42406,-10.755,-2.5757e-13,-0.21203,0,0,0.125,-0,-0,0.66667
0.66619,0.25035,5.3295,-0.37448,-17.609,71.721,5.3221,-1.774,-1.5011,7.0961,2.5588e-12,-0.75055,0,0,0.125,-2.3685e-15,0,0.66667
0.10781,0.23544,0.86251,-0.39683,-33.303,391.97,0.91273,-0.30424,-1.4411,1.217,1.9389e-08,-0.72056,0,0,0.125,-0,-0,0.66667
0.084283,0.89781,0.67426,0.59672,50.431,408.19,-1.0729,0.35764,-0.73224,-1.4306,6.0087e-08,-0.36612,0,0,0.125,-7.4015e-17,0,0.66667
0.62512,0.98917,5.001,0.73376,38.127,89.395,-9.7853,3.2618,-0.0886,-13.047,-4.5119e-13,-0.0443,0,0,0.125,-0,-0,0.66667
0.40973,0.45098,3.2779,-0.073524,-5.1783,197.75,0.64267,-0.21422,-1.9801,0.85689,-2.4575e-13,-0.99005,0,0,0.125,-5.9212e-16,0,0.66667
0.087253,0.96616,0.69802,0.69923,59.16,406.19,-1.3015,0.43385,-0.26062,-1.7354,1.1619e-06,-0.13031,0,0,0.125,2.1087e-16,0,0.66667
0.37106,0.93628,2.9685,0.65442,48.063,221.12,-5.1804,1.7268,-0.47772,-6.9072,-1.8074e-13,-0.23886,0,0,0.125,-7.7716e-16,1.3668e-16,0.66667
0.67214,0.63611,5.3772,0.20417,9.4409,69.175,-2.9276,0.97585,-1.8545,-3.9034,-3.7723e-12,-0.92724,0,0,0.125,-0,-0,0.66667
0.18959,0.13587,1.5167,-0.54619,-44.783,336.62,2.2091,-0.73636,-0.93994,2.9454,2.0124e-10,-0.46997,0,0,0.125,-2.9606e-16,0,0.66667
0.89573,0.64069,7.1658,0.21103,3.4462,8.4878,-4.0326,1.3442,-1.84,-5.3767,1.5415e-08,-0.91999,0,0,0.125,1.1842e-15,0,0.66667
0.94985,0.518,7.5988,0.026995,0.20955,2.2594,-0.54701,0.18234,-1.9969,-0.72935,-8.5441e-09,-0.99845,0,0,0.125,-0,-0,0.66667
0.96157,0.58244,7.6926,0.12366,0.72526,1.483,-2.5368,0.8456,-1.9435,-3.3824,-5.4278e-10,-0.97174,0,0,0.125,-0,-0,0.66667
0.73008,0.1254,5.8407,-0.5619,-22.247,49.14,8.7517,-2.9172,-0.87776,11.669,6.1036e-12,-0.43888,0,0,0.125,-0,-0,0.66667
0.40629,0.42644,3.2503,-0.11034,-7.7985,199.76,0.95638,-0.31879,-1.9597,1.2752,2.9338e-13,-0.97985,0,0,0.125,5.9212e-16,0,0.66667
0.74375,0.13895,5.95,-0.54158,-20.499,44.678,8.5931,-2.8644,-0.95504,11.457,1.9846e-11,-0.47752,0,0,0.125,-1.1842e-15,0,0.66667
0.28799,0.83096,2.3039,0.49643,38.686,272.27,-3.0499,1.0166,-1.1216,-4.0666,3.4734e-12,-0.5608,0,0,0.125,-0,-0,0.66667
0.31442,0.091493,2.5153,-0.61276,-47.001,255.73,4.1101,-1.37,-0.66688,5.4802,-1.223e-12,-0.33344,0,0,0.125,-1.4803e-16,0,0.66667
0.6059,0.17256,4.8472,-0.49116,-26.362,97.087,6.3486,-2.1162,-1.1416,8.4648,-1.3944e-13,-0.57079,0,0,0.125,1.1842e-15,0,0.66667
0.59485,0.28744,4.7588,-0.31884,-17.428,101.73,4.0461,-1.3487,-1.6407,5.3948,-3.4639e-13,-0.82036,0,0,0.125,-0,-0,0.66667
0.87866,0.75332,7.0293,0.37999,7.2268,11.471,-7.1228,2.3743,-1.4868,-9.497,1.0524e-08,-0.74342,0,0,0.125,2.3685e-15,0,0.66667
0.2546,0.31942,2.0368,-0.27088,-21.479,293.57,1.4713,-0.49042,-1.7382,1.9617,-1.4043e-11,-0.86911,0,0,0.125,-0,-0,0.66667
0.76619,0.078077,6.1295,-0.63289,-22.196,38.152,10.345,-3.4482,-0.57802,13.793,-6.5277e-11,-0.28901,0,0,0.125,-1.1842e-15,0,0.66667
0.94101,0.51154,7.5281,0.017305,0.15898,2.9981,-0.34739,0.1158,-1.9983,-0.46319,-5.1399e-07,-0.99916,0,0,0.125,-4.737e-15,0,0.66667
0.0010329,0.5002,0.0082635,0.00029469,0.024974,465.73,-6.5099e-06,4.5835e-05,-2.0033,1.3153e-05,6.5497e-05,-1.0016,0,0,0.125,-0,-0,0.66667
0.47609,0.0022496,3.8087,-0.74663,-49.267,161.54,7.5832,-2.5277,-0.016922,10.111,-1.4553e-12,-0.0084612,0,0,0.125,-2.3685e-15,0,0.66667
0.65704,0.39292,5.2563,-0.16062,-7.7,75.064,2.2514,-0.75048,-1.9102,3.0019,8.5421e-13,-0.9551,0,0,0.125,-0,-0,0.66667
0.84332,0.68375,6.7466,0.27563,6.6538,17.886,-4.9588,1.6529,-1.7332,-6.6118,2.3682e-09,-0.86661,0,0,0.125,1.4803e-15,0,0.66667
0.18374,0.3694,1.4699,-0.19589,-16.045,340.37,0.76786,-0.25595,-1.8634,1.0238,4.0799e-10,-0.93168,0,0,0.125,2.9606e-16,0,0.66667
0.85616,0.21676,6.8493,-0.42486,-9.5114,15.627,7.76,-2.5867,-1.359,10.347,-3.6116e-09,-0.6795,0,0,0.125,2.9606e-16,0,0.66667
0.36437,0.2435,2.9149,-0.38475,-28.308,224.77,2.9907,-0.99692,-1.4726,3.9877,-1.6229e-12,-0.7363,0,0,0.125,-2.9606e-16,0,0.66667
0.89227,0.051908,7.1382,-0.67214,-11.615,10.292,12.794,-4.2648,-0.39483,17.059,7.9153e-08,-0.19741,0,0,0.125,-1.1842e-15,0,0.66667
0.027712,0.30475,0.22169,-0.29288,-24.828,447.23,0.17315,-0.057715,-1.6947,0.23086,-2.2164e-07,-0.84735,0,0,0.125,-0,-0,0.66667
0.08539,0.79016,0.68312,0.43524,36.701,407.38,-0.79286,0.26429,-1.3245,-1.0571,-3.1209e-08,-0.66225,0,0,0.125,-0,-0,0.66667
0.98141,0.81811,7.8513,0.47717,1.3341,1.2397,-9.9904,3.3301,-1.1908,-13.321,-8.724e-07,-0.59542,0,0,0.125,2.3685e-15,0,0.66667
0.6095,0.99872,4.876,0.74808,40.119,96.187,-9.727,3.2423,-0.014411,-12.969,-1.8305e-12,-0.0072056,0,0,0.125,1.8504e-15,0,0.66667
0.41763,0.48497,3.3411,-0.022552,-1.5757,193.18,0.20093,-0.066976,-1.997,0.26791,1.207e-12,-0.99849,0,0,0.125,-0,-0,0.66667
0.16921,0.92122,1.3537,0.63183,52.265,350.35,-2.2808,0.76028,-0.58055,-3.0411,4.0615e-10,-0.29027,0,0,0.125,-0,-0,0.66667
0.6499,0.91786,5.1992,0.62678,30.784,78.785,-8.6901,2.8967,-0.60116,-11.587,-5.0182e-13,-0.30058,0,0,0.125,-0,-0,0.66667
0.036975,0.71269,0.2958,0.31903,27.034,440.81,-0.25165,0.083884,-1.6368,-0.33553,1.4849e-07,-0.81841,0,0,0.125,-1.8504e-17,0,0.66667
0.31161,0.23791,2.4929,-0.39314,-30.124,257.24,2.6135,-0.87116,-1.4523,3.4846,-5.3273e-12,-0.72617,0,0,0.125,2.9606e-16,0,0.66667
0.32348,0.62892,2.5878,0.19338,14.67,249.7,-1.3345,0.44484,-1.8665,-1.7794,-3.1135e-12,-0.93327,0,0,0.125,-0,-0,0.66667
0.60744,0.66326,4.8595,0.2449,13.059,96.013,-3.1735,1.0578,-1.7879,-4.2314,-2.0235e-12,-0.89396,0,0,0.125,-0,-0,0.66667
0.65083,0.04386,5.2067,-0.68421,-33.588,78.583,9.4998,-3.1666,-0.33374,12.666,-7.7627e-13,-0.16687,0,0,0.125,-0,-0,0.66667
0.84605,0.47027,6.7684,-0.044588,-1.0554,17.099,0.80478,-0.26826,-1.9946,1.073,-2.5703e-09,-0.9973,0,0,0.125,-0,-0,0.66667
0.92758,0.47058,7.4206,-0.044137,-0.5001,4.321,0.8734,-0.29113,-1.9925,1.1645,1.2706e-07,-0.99624,0,0,0.125,-0,-0,0.66667
0.66046,0.88105,5.2837,0.57157,27.359,74.411,-8.0533,2.6844,-0.83786,-10.738,-1.5081e-12,-0.41893,0,0,0.125,-0,-0,0.66667
0.57817,0.20679,4.6254,-0.43982,-24.817,109.57,5.4249,-1.8083,-1.3151,7.2332,-1.8874e-13,-0.65757,0,0,0.125,-0,-0,0.66667
0.39872,0.31854,3.1897,-0.27219,-19.396,204.26,2.3152,-0.77174,-1.7349,3.087,-7.5406e-13,-0.86746,0,0,0.125,-0,-0,0.66667
0.96661,0.9752,7.7329,0.7128,3.9536,2.8771,-14.699,4.8996,-0.19452,-19.598,-3.435e-06,-0.097261,0,0,0.125,-0,-0,0.66667
0.15408,0.1192,1.2326,-0.5712,-47.445,360.52,1.8775,-0.62585,-0.84102,2.5034,2.9494e-09,-0.42051,0,0,0.125,7.4015e-17,-1.8768e-16,0.66667
0.89509,0.2356,7.1607,-0.39661,-6.5621,8.9407,7.5733,-2.5244,-1.4394,10.098,-2.231e-08,-0.71969,0,0,0.125,1.1842e-15,0,0.66667
0.31101,0.59706,2.4881,0.1456,11.141,257.47,-0.96603,0.32201,-1.9268,-1.288,-1.4893e-12,-0.9634,0,0,0.125,-0,-0,0.66667
0.54849,0.67908,4.3879,0.26862,15.89,123.48,-3.1432,1.0477,-1.7448,-4.1909,3.6993e-13,-0.87239,0,0,0.125,-5.9212e-16,0,0.66667
0.68207,0.7577,5.4565,0.38655,17.475,65.658,-5.6246,1.8749,-1.4673,-7.4994,-3.4635e-12,-0.73367,0,0,0.125,-2.3685e-15,0,0.66667
0.23647,0.16106,1.8918,-0.5084,-40.798,305.56,2.5647,-0.85491,-1.0823,3.4196,-6.688e-13,-0.54114,0,0,0.125,-0,-0,0.66667
0.16774,0.67084,1.3419,0.25626,21.12,351.15,-0.91701,0.30567,-1.7654,-1.2227,-1.3197e-09,-0.88268,0,0,0.125,-2.9606e-16,0,0.66667
0.50848,0.47845,4.0679,-0.032325,-2.0264,143.48,0.35065,-0.11688,-1.9943,0.46753,-1.0164e-13,-0.99713,0,0,0.125,-0,-0,0.66667
0.79186,0.48576,6.3349,-0.021359,-0.66731,29.882,0.36082,-0.12027,-1.9968,0.4811,-5.4859e-12,-0.99838,0,0,0.125,-1.1842e-15,0,0.66667
0.69241,0.62988,5.5393,0.19482,8.5483,61.544,-2.8778,0.95927,-1.8643,-3.8371,-5.6648e-12,-0.93213,0,0,0.125,-0,-0,0.66667
0.11897,0.57724,0.95179,0.11586,9.6812,384.27,-0.29408,0.098025,-1.9502,-0.3921,-2.9333e-09,-0.97512,0,0,0.125,-0,-0,0.66667
0.90074,0.34296,7.2059,-0.23556,-3.6684,7.8058,4.5264,-1.5088,-1.8024,6.0353,-1.602e-08,-0.9012,0,0,0.125,1.3323e-15,0,0.66667
0.47974,0.87081,3.8379,0.55622,36.394,159.16,-5.6926,1.8975,-0.89946,-7.5901,-2.3839e-12,-0.44973,0,0,0.125,1.1722e-15,0,0.66667
0.94668,0.024201,7.5734,-0.7137,-6.2825,4.2254,14.414,-4.8046,-0.18728,19.218,4.0763e-06,-0.093642,0,0,0.125,1.1842e-15,0,0.66667
0.55343,0.97461,4.4275,0.71192,42.102,121.93,-8.4054,2.8018,-0.19643,-11.207,1.4397e-12,-0.098213,0,0,0.125,-0,-0,0.66667
0.084802,0.096035,0.67841,-0.60595,-51.213,407.84,1.0962,-0.36541,-0.69355,1.4616,-9.5364e-08,-0.34677,0,0,0.125,-2.9606e-16,0,0.66667
0.20246,0.23104,1.6197,-0.40343,-32.848,327.94,1.7425,-0.58084,-1.4234,2.3234,1.7076e-10,-0.71172,0,0,0.125,2.9606e-16,0,0.66667
0.85424,0.84177,6.8339,0.51266,11.664,16.25,-9.3425,3.1142,-1.0651,-12.457,7.0174e-10,-0.53257,0,0,0.125,-1.4803e-16,0,0.66667
0.70593,0.004859,5.6474,-0.74271,-31.786,57.966,11.185,-3.7284,-0.03933,14.913,4.1505e-12,-0.019665,0,0,0.125,-0,-0,0.66667
0.89494,0.46809,7.1595,-0.047868,-0.78538,8.4691,0.91389,-0.30463,-1.9922,1.2185,2.7533e-08,-0.99608,0,0,0.125,5.181e-16,0,0.66667
0.32915,0.75698,2.6332,0.38547,29.165,246.31,-2.7067,0.90224,-1.4738,-3.609,1.2337e-12,-0.73691,0,0,0.125,-0,-0,0.66667
0.528,0.79567,4.224,0.44351,27.127,133.88,-4.9957,1.6652,-1.3001,-6.661,4.5386e-13,-0.65005,0,0,0.125,-0,-0,0.66667
0.6504,0.75362,5.2032,0.38043,18.566,78.01,-5.2785,1.7595,-1.4844,-7.0381,-2.9137e-12,-0.74222,0,0,0.125,-0,-0,0.66667
0.59429,0.13512,4.7543,-0.54731,-30.06,102.4,6.939,-2.313,-0.93734,9.252,7.8781e-13,-0.46867,0,0,0.125,-0,-0,0.66667
0.23146,0.73631,1.8517,0.35447,28.467,308.73,-1.7503,0.58344,-1.553,-2.3338,-2.4236e-13,-0.77651,0,0,0.125,2.9606e-16,0,0.66667
0.42682,0.53126,3.4146,0.046883,3.2446,187.93,-0.4269,0.1423,-1.9923,-0.5692,-4.7747e-12,-0.99614,0,0,0.125,1.1842e-15,0,0.66667
0.24811,0.18445,1.9849,-0.47333,-37.738,297.93,2.5054,-0.83512,-1.2052,3.3405,1.5563e-12,-0.6026,0,0,0.125,4.4353e-16,0,0.66667
0.84561,0.17353,6.7649,-0.4897,-11.743,17.904,8.8341,-2.9447,-1.1481,11.779,-1.3168e-09,-0.57404,0,0,0.125,1.1842e-15,0,0.66667
0.98668,0.11002,7.8934,-0.58498,-1.1875,1.4721,12.313,-4.1044,-0.78358,16.418,-3.9366e-06,-0.39179,0,0,0.125,-0,-0,0.66667
0.066571,0.30555,0.53257,-0.29168,-24.635,420.33,0.41423,-0.13808,-1.6969,0.55231,1.8972e-08,-0.84846,0,0,0.125,-3.7007e-17,0,0.66667
0.71393,0.62743,5.7114,0.19115,7.8935,53.875,-2.9113,0.97045,-1.8698,-3.8818,-1.025e-11,-0.93488,0,0,0.125,2.3685e-15,0,0.66667
0.33012,0.37162,2.6409,-0.19257,-14.537,245.57,1.3562,-0.45206,-1.8698,1.8083,-6.6902e-13,-0.93489,0,0,0.125,-0,-0,0.66667
0.62544,0.072902,5.0035,-0.64065,-33.183,88.977,8.5479,-2.8493,-0.54323,11.397,-8.0824e-14,-0.27161,0,0,0.125,-1.1842e-15,0,0.66667
0.25813,0.57542,2.065,0.11313,8.9462,291.23,-0.623,0.20767,-1.9522,-0.83066,3.9219e-12,-0.97612,0,0,0.125,-0,-0,0.66667
0.65101,0.80118,5.2081,0.45176,22.044,77.901,-6.2742,2.0914,-1.2727,-8.3656,-1.8399e-12,-0.63637,0,0,0.125,-0,-0,0.66667
0.37115,0.73905,2.9692,0.35858,26.222,220.67,-2.8392,0.94639,-1.542,-3.7855,-2.6026e-12,-0.77101,0,0,0.125,-0,-0,0.66667
0.29482,0.13208,2.3586,-0.55189,-42.853,267.99,3.4711,-1.157,-0.91809,4.6281,-8.56e-12,-0.45905,0,0,0.125,-0,-8.8578e-17,0.66667
0.91176,0.66366,7.2941,0.24549,3.4059,6.3541,-4.7751,1.5917,-1.7843,-6.3667,2.2778e-08,-0.89217,0,0,0.125,-0,-0,0.66667
0.9425,0.05954,7.54,-0.66069,-6.2109,4.3283,13.284,-4.4281,-0.44745,17.712,1.143e-06,-0.22372,0,0,0.125,1.7593e-15,0,0.66667
0.61355,0.56185,4.9084,0.092771,4.883,93.217,-1.2143,0.40476,-1.9698,-1.619,-1.4314e-12,-0.9849,0,0,0.125,-2.2204e-16,0,0.66667
0.21447,0.81936,1.7157,0.47905,38.833,320.02,-2.1918,0.73059,-1.1834,-2.9224,-8.4081e-11,-0.59168,0,0,0.125,-0,-0,0.66667
0.93942,0.099735,7.5154,-0.6004,-5.8938,4.3454,12.033,-4.0108,-0.71961,16.043,4.7474e-07,-0.35981,0,0,0.125,-2.3685e-15,0,0.66667
0.75045,0.25306,6.0036,-0.3704,-13.643,42.17,5.93,-1.9767,-1.5156,7.9067,1.3272e-11,-0.7578,0,0,0.125,-2.3685e-15,0,0.66667
0.75109,0.39933,6.0087,-0.151,-5.5318,41.668,2.4196,-0.80652,-1.921,3.2261,2.7629e-12,-0.9605,0,0,0.125,5.9212e-16,0,0.66667
0.21172,0.16181,1.6938,-0.50729,-41.188,321.86,2.2913,-0.76376,-1.0835,3.055,-1.3073e-10,-0.54173,0,0,0.125,-5.9212e-16,0,0.66667
0.83016,0.75935,6.6413,0.38903,10.153,20.949,-6.8897,2.2966,-1.4627,-9.1862,1.1112e-09,-0.73136,0,0,0.125,-0,-0,0.66667
0.2401,0.054716,1.9208,-0.66793,-53.63,303.35,3.4211,-1.1404,-0.41228,4.5615,-4.7384e-13,-0.20614,0,0,0.125,2.9019e-16,0,0.66667
0.63162,0.51658,5.053,0.024872,1.2612,85.441,-0.33513,0.11171,-1.9956,-0.44684,-4.6174e-13,-0.99781,0,0,0.125,-0,-0,0.66667
0.71074,0.039451,5.6859,-0.69082,-29.11,56.097,10.475,-3.4915,-0.30124,13.966,-2.3626e-13,-0.15062,0,0,0.125,-0,-0,0.66667
0.74238,0.0051089,5.9391,-0.74234,-28.425,45.79,11.757,-3.9189,-0.039134,15.676,1.3499e-11,-0.019567,0,0,0.125,-0,-0,0.66667
0.39026,0.51603,3.1221,0.024048,1.7256,209.13,-0.20022,0.066739,-2.0004,-0.26696,-1.7688e-12,-1.0002,0,0,0.125,1.1842e-15,0,0.66667
0.75983,0.1383,6.0786,-0.54255,-19.418,39.743,8.7945,-2.9315,-0.95146,11.726,-1.0921e-11,-0.47573,0,0,0.125,-1.1842e-15,0,0.66667
0.90294,0.30782,7.2235,-0.28827,-4.4003,7.5905,5.5528,-1.8509,-1.7048,7.4038,-2.1968e-08,-0.8524,0,0,0.125,-0,-0,0.66667
0.58742,0.1235,4.6994,-0.56475,-31.42,105.57,7.0772,-2.3591,-0.86527,9.4363,-8.5754e-13,-0.43264,0,0,0.125,1.4063e-15,0,0.66667
0.09041,0.72567,0.72328,0.3385,28.492,403.9,-0.65288,0.21763,-1.5925,-0.87051,-2.7496e-08,-0.79626,0,0,0.125,-0,-0,0.66667
0.12898,0.73047,1.0318,0.3457,28.85,377.48,-0.95119,0.31706,-1.5741,-1.2682,-7.8882e-09,-0.78707,0,0,0.125,-0,-0,0.66667
0.10526,0.92111,0.8421,0.63166,53.197,393.81,-1.4185,0.47282,-0.58022,-1.8913,1.0338e-07,-0.29011,0,0,0.125,-1.4803e-16,0,0.66667
0.17273,0.0034784,1.3818,-0.74478,-61.653,348.08,2.7444,-0.9148,-0.030591,3.6592,8.8297e-10,-0.015295,0,0,0.125,-0,-0,0.66667
0.12643,0.37235,1.0114,-0.19148,-15.974,379.18,0.51646,-0.17215,-1.872,0.68862,6.173e-09,-0.93599,0,0,0.125,-1.8504e-16,0,0.66667
0.7783,0.32348,6.2264,-0.26478,-8.7725,33.78,4.3963,-1.4654,-1.7506,5.8617,-3.732e-11,-0.8753,0,0,0.125,-0,-0,0.66667
0.039412,0.10507,0.31529,-0.59239,-50.343,439.16,0.49807,-0.16602,-0.75008,0.6641,2.372e-06,-0.37504,0,0,0.125,-7.4015e-17,0,0.66667
0.24156,0.083162,1.9325,-0.62526,-50.131,302.35,3.2221,-1.074,-0.60787,4.2961,-4.2806e-11,-0.30394,0,0,0.125,-2.9606e-16,0,0.66667
0.87907,0.67981,7.0325,0.26972,5.0932,11.179,-5.0582,1.6861,-1.7407,-6.7442,9.9745e-09,-0.87034,0,0,0.125,-5.9212e-16,0,0.66667
0.97352,0.082767,7.7882,-0.62585,-2.6802,2.1304,12.998,-4.3326,-0.60597,17.331,8.7955e-06,-0.30298,0,0,0.125,1.1842e-15,0,0.66667
0.60542,0.22161,4.8434,-0.41759,-22.405,97.153,5.3934,-1.7978,-1.3801,7.1912,2.1583e-13,-0.69005,0,0,0.125,-0,-0,0.66667
0.97624,0.70405,7.8099,0.30608,1.0777,0.97687,-6.3746,2.1249,-1.6646,-8.4994,-2.3748e-07,-0.8323,0,0,0.125,-1.1561e-15,0,0.66667
0.043452,0.4648,0.34761,-0.052801,-4.4665,436.31,0.048945,-0.016315,-1.9904,0.065259,-6.7522e-07,-0.99519,0,0,0.125,9.2519e-17,0,0.66667
0.94857,0.022026,7.5886,-0.71696,-6.0948,4.0911,14.509,-4.8362,-0.17121,19.345,1.2768e-06,-0.085603,0,0,0.125,-0,1.9673e-16,0.66667
0.3113,0.94095,2.4904,0.66142,50.886,257.75,-4.3925,1.4642,-0.44697,-5.8567,8.3045e-14,-0.22349,0,0,0.125,-0,5.8134e-17,0.66667
0.79897,0.10573,6.3918,-0.5914,-18.12,29.011,10.08,-3.3601,-0.75699,13.44,-5.1902e-10,-0.3785,0,0,0.125,-1.1842e-15,0,0.66667
0.81063,0.70618,6.485,0.30926,8.899,25.358,-5.3482,1.7827,-1.6607,-7.1309,4.4389e-10,-0.83035,0,0,0.125,-0,-0,0.66667
0.86,0.018908,6.88,-0.72164,-16.004,15.935,13.24,-4.4132,-0.15058,17.653,-1.2968e-08,-0.075292,0,0,0.125,-0,-0,0.66667
0.45855,0.92955,3.6684,0.64433,43.323,170.83,-6.3031,2.101,-0.52248,-8.4041,-2.2689e-12,-0.26124,0,0,0.125,2.9606e-16,0,0.66667
0.93064,0.47833,7.4452,-0.032503,-0.35247,3.9974,0.64531,-0.2151,-1.9943,0.86041,-2.1246e-08,-0.99714,0,0,0.125,-0,-0,0.66667
0.25789,0.0080365,2.0631,-0.73795,-58.769,291.87,4.06,-1.3533,-0.061873,5.4133,-1.3448e-11,-0.030937,0,0,0.125,-0,-0,0.66667
0.93445,0.98795,7.4756,0.73192,7.9,5.3924,-14.591,4.8636,-0.094971,-19.454,-1.4953e-07,-0.047486,0,0,0.125,-1.1842e-15,0,0.66667
0.61912,0.65454,4.953,0.2318,12.076,90.896,-3.0616,1.0205,-1.8083,-4.0822,-8.1024e-13,-0.90416,0,0,0.125,-1.3323e-15,0,0.66667
0.98544,0.82198,7.8836,0.48298,1.0261,1.1262,-10.154,3.3845,-1.1724,-13.538,-1.3817e-07,-0.58622,0,0,0.125,-0,-0,0.66667
0.032644,0.10689,0.26115,-0.58967,-50.134,443.84,0.41065,-0.13688,-0.76495,0.54753,-8.6161e-07,-0.38248,0,0,0.125,7.4015e-17,0,0.66667
0.72517,0.34428,5.8013,-0.23358,-9.3276,50.096,3.6136,-1.2045,-1.8055,4.8181,1.1112e-11,-0.90273,0,0,0.125,-0,-0,0.66667
0.56555,0.20203,4.5244,-0.44696,-25.773,115.51,5.3927,-1.7976,-1.2893,7.1902,-1.3838e-12,-0.64466,0,0,0.125,1.1842e-15,0,0.66667
0.49242,0.65104,3.9394,0.22656,14.525,151.96,-2.3801,0.79336,-1.8159,-3.1734,2.6068e-13,-0.90797,0,0,0.125,-0,-0,0.66667
0.25922,0.49867,2.0737,-0.0020014,-0.15814,290.51,0.011068,-0.0036892,-1.9993,0.014757,2.1494e-12,-0.99964,0,0,0.125,-1.4803e-16,0,0.66667
0.32683,0.52068,2.6146,0.031027,2.3467,247.57,-0.21633,0.07211,-1.9981,-0.28844,-3.7132e-12,-0.99904,0,0,0.125,-0,-0,0.66667
0.24946,0.52909,1.9957,0.04363,3.466,296.85,-0.23219,0.077397,-1.9967,-0.30959,-8.0592e-12,-0.99836,0,0,0.125,4.4409e-16,0,0.66667
0.21927,0.23406,1.7541,-0.39891,-32.236,316.8,1.866,-0.62199,-1.4365,2.488,2.6267e-11,-0.71823,0,0,0.125,-0,-0,0.66667
0.79966,0.25893,6.3973,-0.3616,-10.963,28.212,6.1687,-2.0562,-1.5353,8.2249,-1.7387e-10,-0.76763,0,0,0.125,-0,-0,0.66667
0.5024,0.67891,4.0192,0.26836,16.984,146.77,-2.8762,0.95874,-1.7445,-3.835,-3.9924e-13,-0.87224,0,0,0.125,5.9212e-16,0,0.66667
0.08319,0.23104,0.66552,-0.40344,-34.021,408.89,0.71599,-0.23866,-1.4197,0.95466,3.5982e-08,-0.70985,0,0,0.125,-0,-0,0.66667
0.77698,0.10713,6.2159,-0.5893,-19.797,34.916,9.768,-3.256,-0.76406,13.024,-2.0205e-11,-0.38203,0,0,0.125,-0,-0,0.66667
0.53365,0.54138,4.2692,0.062073,3.7525,130.68,-0.70667,0.23556,-1.9867,-0.94223,-2.3526e-13,-0.99335,0,0,0.125,-0,-0,0.66667
0.73939,0.45409,5.9151,-0.068865,-2.624,45.304,1.0863,-0.36208,-1.9815,1.4483,4.6363e-12,-0.99075,0,0,0.125,-0,-0,0.66667
0.51539,0.29858,4.1231,-0.30214,-18.786,140.08,3.322,-1.1073,-1.678,4.4293,-5.1537e-13,-0.83902,0,0,0.125,-0,-0,0.66667
0.39995,0.87552,3.1996,0.56327,40.234,203.89,-4.8059,1.602,-0.87139,-6.4079,1.3856e-12,-0.4357,0,0,0.125,1.1842e-15,0,0.66667
0.98625,0.67703,7.89,0.26555,0.48352,0.53164,-5.5871,1.8624,-1.7502,-7.4495,6.8668e-08,-0.87508,0,0,0.125,-0,-0,0.66667
0.028243,0.26881,0.22594,-0.34679,-29.41,446.86,0.20894,-0.069648,-1.5721,0.27859,-3.4774e-07,-0.78607,0,0,0.125,3.7007e-17,0,0.66667
0.93276,0.78051,7.4621,0.42076,4.4977,4.3661,-8.3728,2.7909,-1.3706,-11.164,8.4678e-08,-0.68528,0,0,0.125,-1.4803e-15,0,0.66667
0.93085,0.95752,7.4468,0.68628,7.7534,5.5311,-13.628,4.5427,-0.32337,-18.171,1.6238e-06,-0.16168,0,0,0.125,-0,-0,0.66667
0.39092,0.035116,3.1273,-0.69733,-50.357,209.42,5.8154,-1.9385,-0.27455,7.7539,1.7319e-12,-0.13727,0,0,0.125,-0,-0,0.66667
0.21446,0.23879,1.7157,-0.39182,-31.731,319.97,1.7927,-0.59756,-1.453,2.3902,4.4653e-11,-0.72652,0,0,0.125,-2.9606e-16,0,0.66667
0.61921,0.54579,4.9537,0.068688,3.5742,90.747,-0.90736,0.30245,-1.9813,-1.2098,1.0186e-13,-0.99064,0,0,0.125,-1.1842e-15,0,0.66667
0.17797,0.027285,1.4238,-0.70907,-58.547,344.53,2.6922,-0.89739,-0.21122,3.5896,4.7115e-10,-0.10561,0,0,0.125,4.4409e-16,0,0.66667
0.80321,0.82878,6.4257,0.49317,14.77,27.628,-8.4505,2.8168,-1.1331,-11.267,2.4598e-10,-0.56656,0,0,0.125,-1.1842e-15,0,0.66667
0.25393,0.60618,2.0315,0.15928,12.627,293.96,-0.86285,0.28762,-1.9088,-1.1505,4.3169e-12,-0.95442,0,0,0.125,-0,-0,0.66667
0.29081,0.30107,2.3264,-0.2984,-23.163,270.31,1.8512,-0.61707,-1.6815,2.4683,-8.0361e-12,-0.84074,0,0,0.125,-0,-0,0.66667
0.91592,0.45719,7.3273,-0.064211,-0.84552,5.6577,1.2546,-0.41822,-1.9834,1.6729,-2.4796e-08,-0.99172,0,0,0.125,-0,-0,0.66667
0.90292,0.17205,7.2233,-0.49192,-7.5914,8.1032,9.4754,-3.1585,-1.139,12.634,-2.9088e-08,-0.56951,0,0,0.125,-1.0693e-15,0,0.66667
0.53538,0.76354,4.283,0.39531,23.898,130.11,-4.515,1.505,-1.4433,-6.02,4.5519e-13,-0.72163,0,0,0.125,-0,-0,0.66667
0.86284,0.96779,6.9027,0.70169,15.248,15.321,-12.916,4.3054,-0.25019,-17.221,2.9972e-08,-0.12509,0,0,0.125,1.1842e-15,0,0.66667
0.35253,0.057412,2.8203,-0.66388,-49.527,232.31,4.9929,-1.6643,-0.43148,6.6571,-2.0077e-12,-0.21574,0,0,0.125,-2.9606e-16,0,0.66667
0.99788,0.27712,7.9831,-0.33433,0.035694,0.42365,7.1172,-2.3724,-1.604,9.4896,-5.1388e-07,-0.80198,0,0,0.125,5.9212e-16,-1.7942e-16,0.66667
0.43369,0.56475,3.4695,0.097129,6.6737,184.04,-0.89865,0.29955,-1.9668,-1.1982,-1.6627e-12,-0.98338,0,0,0.125,1.1842e-15,0,0.66667
0.29481,0.87567,2.3585,0.5635,43.763,268.01,-3.544,1.1813,-0.87308,-4.7254,5.9626e-12,-0.43654,0,0,0.125,-0,-0,0.66667
0.041574,0.025527,0.33259,-0.71171,-60.586,437.68,0.63123,-0.2104,-0.19792,0.84164,1.617e-05,-0.098961,0,0,0.125,3.7007e-17,0,0.66667
0.98971,0.39489,7.9177,-0.15766,-0.18762,0.27617,3.3288,-1.1096,-1.91,4.4384,8.6849e-10,-0.95498,0,0,0.125,-0,-0,0.66667
0.46489,0.39844,3.7191,-0.15234,-10.105,166.71,1.5109,-0.50363,-1.9169,2.0145,-1.4999e-13,-0.95847,0,0,0.125,5.9212e-16,0,0.66667
0.73459,0.069634,5.8767,-0.64555,-25.264,47.932,10.116,-3.3722,-0.52142,13.489,-4.1931e-12,-0.26071,0,0,0.125,-0,-0,0.66667
0.64081,0.48597,5.1265,-0.021039,-1.0458,81.603,0.28762,-0.095873,-2.0011,0.38349,1.3181e-13,-1.0006,0,0,0.125,-1.1842e-15,0,0.66667
0.72309,0.824,5.7847,0.486,19.623,51.259,-7.4971,2.499,-1.159,-9.9961,-9.7544e-12,-0.57951,0,0,0.125,-0,-0,0.66667
0.051111,0.13883,0.40889,-0.54175,-45.957,431.06,0.59071,-0.1969,-0.95527,0.78761,2.0762e-07,-0.47764,0,0,0.125,-0,-0,0.66667
0.92005,0.70973,7.3604,0.3146,3.9701,5.4777,-6.1749,2.0583,-1.6491,-8.2332,3.2056e-08,-0.82457,0,0,0.125,-0,-0,0.66667
0.92684,0.90289,7.4147,0.60434,7.1459,5.5973,-11.949,3.9831,-0.70087,-15.932,3.3827e-07,-0.35043,0,0,0.125,-2.9606e-16,0,0.66667
0.552,0.351,4.416,-0.2235,-13.142,121.73,2.632,-0.87732,-1.8212,3.5093,-6.0751e-13,-0.9106,0,0,0.125,-0,-0,0.66667
0.96392,0.17268,7.7113,-0.49098,-2.8054,2.1133,10.096,-3.3654,-1.1414,13.462,-2.7703e-08,-0.57068,0,0,0.125,-0,-0,0.66667
0.28096,0.26945,2.2476,-0.34583,-27.022,276.63,2.0728,-0.69093,-1.5774,2.7637,-1.3642e-11,-0.78869,0,0,0.125,2.9606e-16,0,0.66667
0.60215,0.10684,4.8172,-0.58975,-31.947,98.981,7.5758,-2.5253,-0.76114,10.101,1.8492e-12,-0.38057,0,0,0.125,-0,-0,0.66667
0.39646,0.74668,3.1717,0.37002,26.449,205.67,-3.1296,1.0432,-1.5123,-4.1728,-9.5923e-14,-0.75614,0,0,0.125,-0,-0,0.66667
0.62802,0.93906,5.0242,0.6586,33.946,87.93,-8.8238,2.9413,-0.45881,-11.765,-2.5491e-12,-0.22941,0,0,0.125,2.3685e-15,0,0.66667
0.30063,0.61927,2.4051,0.1789,13.788,264.02,-1.1474,0.38246,-1.886,-1.5298,3.7038e-12,-0.94299,0,0,0.125,-2.9606e-16,0,0.66667
0.81936,0.65098,6.5549,0.22647,6.2313,23.132,-3.9586,1.3195,-1.8162,-5.2782,7.2077e-10,-0.90808,0,0,0.125,-1.7764e-15,0,0.66667
0.069786,0.25627,0.55829,-0.36559,-30.882,418.12,0.54427,-0.18142,-1.5231,0.7257,5.3603e-08,-0.76156,0,0,0.125,-0,-0,0.66667
0.041878,0.59076,0.33502,0.13614,11.52,437.4,-0.12163,0.040543,-1.9336,-0.16217,1.1723e-07,-0.96679,0,0,0.125,-1.8504e-17,0,0.66667
0.049396,0.098127,0.39517,-0.60281,-51.19,432.25,0.63523,-0.21174,-0.70895,0.84698,4.6476e-07,-0.35448,0,0,0.125,-1.4803e-16,0,0.66667
0.15046,0.30816,1.2036,-0.28776,-23.856,362.85,0.92362,-0.30787,-1.7045,1.2315,3.0105e-09,-0.85226,0,0,0.125,7.4015e-17,0,0.66667
0.39535,0.42659,3.1628,-0.11012,-7.8654,206.15,0.92878,-0.30959,-1.9555,1.2384,-2.0939e-13,-0.97777,0,0,0.125,5.9212e-16,0,0.66667
0.95539,0.83906,7.6431,0.50859,3.6255,2.7225,-10.366,3.4553,-1.0815,-13.821,4.6297e-07,-0.54073,0,0,0.125,-1.7764e-15,0,0.66667
0.1108,0.81344,0.88636,0.47016,39.461,389.95,-1.1113,0.37043,-1.2167,-1.4817,-1.3461e-08,-0.60837,0,0,0.125,2.9606e-16,0,0.66667
0.64755,0.082432,5.1804,-0.62635,-30.926,79.735,8.6527,-2.8842,-0.60299,11.537,-3.0287e-13,-0.30149,0,0,0.125,-0,-0,0.66667
0.52762,0.49316,4.221,-0.010262,-0.6259,133.7,0.1155,-0.038502,-1.9994,0.15401,1.0903e-12,-0.99968,0,0,0.125,-1.1842e-15,0,0.66667
0.35324,0.91869,2.8259,0.62803,46.795,231.82,-4.7327,1.5776,-0.59561,-6.3103,-9.3259e-15,-0.29781,0,0,0.125,5.9212e-16,0,0.66667
0.1982,0.10858,1.5856,-0.58714,-48.001,330.91,2.4826,-0.82752,-0.77271,3.3101,4.439e-10,-0.38635,0,0,0.125,-0,-0,0.66667
0.22059,0.94728,1.7648,0.67092,54.387,316.15,-3.1573,1.0524,-0.40052,-4.2098,-4.7946e-11,-0.20026,0,0,0.125,-5.9212e-16,0,0.66667
0.043822,0.39758,0.35057,-0.15362,-12.998,436.05,0.14362,-0.047872,-1.9161,0.19149,-1.1033e-07,-0.95803,0,0,0.125,7.4015e-17,0,0.66667
0.71316,0.25558,5.7053,-0.36662,-15.211,54.388,5.5779,-1.8593,-1.5209,7.4372,9.1562e-12,-0.76046,0,0,0.125,2.3685e-15,0,0.66667
0.65384,0.50928,5.2307,0.013915,0.67165,76.286,-0.19409,0.064697,-1.9998,-0.25879,-2.332e-12,-0.99989,0,0,0.125,2.3685e-15,0,0.66667
0.44377,0.84921,3.5502,0.52382,35.74,178.79,-4.9591,1.653,-1.023,-6.6121,2.2151e-12,-0.51151,0,0,0.125,-0,-0,0.66667
0.71894,0.19793,5.7515,-0.4531,-18.512,52.585,6.9494,-2.3165,-1.2729,9.2659,9.0692e-12,-0.63644,0,0,0.125,-1.1842e-15,0,0.66667
0.10998,0.9803,0.87981,0.72044,60.702,390.63,-1.6903,0.56342,-0.15677,-2.2537,-1.3294e-07,-0.078387,0,0,0.125,-0,-0,0.66667
0.93872,0.75618,7.5098,0.38426,3.7304,3.6986,-7.6953,2.5651,-1.477,-10.26,4.101e-08,-0.73851,0,0,0.125,-0,-0,0.66667
0.84763,0.72608,6.781,0.33912,7.9895,17.118,-6.1321,2.044,-1.5906,-8.1762,2.859e-09,-0.7953,0,0,0.125,-0,-0,0.66667
0.65904,0.61266,5.2723,0.169,8.064,74.275,-2.376,0.79199,-1.8984,-3.168,-3.3162e-12,-0.94919,0,0,0.125,1.1842e-15,0,0.66667
0.37883,0.84554,3.0306,0.51832,37.724,216.27,-4.1889,1.3963,-1.0452,-5.5852,6.9589e-13,-0.52259,0,0,0.125,1.1842e-15,0,0.66667
0.41657,0.50484,3.3325,0.0072589,0.5077,193.8,-0.064508,0.021503,-1.9989,-0.086011,5.3758e-13,-0.99943,0,0,0.125,-0,-0,0.66667
0.48215,0.83986,3.8572,0.50979,33.229,157.78,-5.2436,1.7479,-1.0773,-6.9915,5.7732e-14,-0.53865,0,0,0.125,-0,-0,0.66667
0.93528,0.52966,7.4823,0.044485,0.44957,3.5375,-0.88759,0.29586,-1.9947,-1.1835,6.8766e-08,-0.99735,0,0,0.125,-1.1842e-15,0,0.66667
0.86359,0.77173,6.9087,0.4076,8.6742,14.181,-7.5093,2.5031,-1.4084,-10.012,5.9095e-09,-0.70418,0,0,0.125,-1.1842e-15,0,0.66667
0.47792,0.60191,3.8234,0.15286,9.9793,159.65,-1.5585,0.51951,-1.9152,-2.0781,5.7321e-13,-0.95758,0,0,0.125,-0,-0,0.66667
0.55452,0.99925,4.4361,0.74888,44.253,121.51,-8.859,2.953,-0.0052289,-11.812,-1.9673e-12,-0.0026144,0,0,0.125,-5.9212e-16,0,0.66667
0.8754,0.50913,7.0032,0.0137,0.26518,11.57,-0.25585,0.085283,-2.002,-0.34113,-8.4334e-09,-1.001,0,0,0.125,-0,-0,0.66667
0.94926,0.84801,7.5941,0.52202,4.2484,3.2223,-10.571,3.5238,-1.031,-14.095,1.415e-07,-0.51551,0,0,0.125,2.3685e-15,0,0.66667
0.63918,0.92265,5.1135,0.63397,31.891,83.188,-8.6448,2.8816,-0.57211,-11.526,-1.3589e-13,-0.28605,0,0,0.125,-0,-0,0.66667
0.74852,0.89278,5.9882,0.58917,21.976,43.328,-9.4082,3.1361,-0.76692,-12.544,-4.8459e-12,-0.38346,0,0,0.125,-0,-0,0.66667
0.35162,0.34528,2.813,-0.23209,-17.234,232.38,1.741,-0.58032,-1.8076,2.3213,-1.5078e-12,-0.90378,0,0,0.125,-0,-0,0.66667
0.91803,0.11432,7.3442,-0.57852,-7.625,6.4832,11.33,-3.7767,-0.80922,15.107,3.0067e-09,-0.40461,0,0,0.125,-0,-0,0.66667
0.83675,0.5015,6.694,0.0022474,0.056192,19.053,-0.040119,0.013373,-1.9991,-0.053491,9.9431e-10,-0.99956,0,0,0.125,-0,-0,0.66667
0.55206,0.80849,4.4164,0.46273,27.285,122.02,-5.4497,1.8166,-1.2379,-7.2662,-8.1668e-13,-0.61896,0,0,0.125,-0,-0,0.66667
0.86763,0.79823,6.941,0.44734,9.2691,13.552,-8.28,2.76,-1.2862,-11.04,4.951e-09,-0.6431,0,0,0.125,-0,-0,0.66667
0.84987,0.34178,6.799,-0.23733,-5.4999,16.488,4.303,-1.4343,-1.799,5.7373,-3.3327e-09,-0.89949,0,0,0.125,-1.2287e-15,0,0.66667
0.80841,0.63881,6.4673,0.20822,6.044,25.754,-3.591,1.197,-1.8447,-4.7879,3.754e-10,-0.92237,0,0,0.125,-1.1842e-15,0,0.66667
0.13069,0.59766,1.0455,0.14649,12.204,376.26,-0.40842,0.13614,-1.9227,-0.54456,-3.4184e-09,-0.96137,0,0,0.125,-0,-0,0.66667
0.536,0.071404,4.288,-0.64289,-39,130.29,7.3513,-2.4504,-0.52925,9.8018,1.8483e-12,-0.26463,0,0,0.125,-0,-0,0.66667
0.90078,0.69106,7.2063,0.28659,4.4693,7.8854,-5.5073,1.8358,-1.7072,-7.343,2.117e-08,-0.85358,0,0,0.125,-0,-0,0.66667
0.77083,0.62552,6.1667,0.18828,6.4173,35.808,-3.0962,1.0321,-1.8738,-4.1282,3.3021e-11,-0.93691,0,0,0.125,-2.3685e-15,0,0.66667
0.42071,0.054666,3.3657,-0.668,-46.833,192.08,5.9955,-1.9985,-0.41532,7.9939,-2.6219e-12,-0.20766,0,0,0.125,-2.9606e-16,0,0.66667
0.97788,0.3858,7.823,-0.17131,-0.54483,0.68428,3.5737,-1.1912,-1.8937,4.7649,1.5275e-08,-0.94683,0,0,0.125,-0,-0,0.66667
0.25077,0.43402,2.0062,-0.098967,-7.8574,296.01,0.52946,-0.17649,-1.9681,0.70594,-1.085e-11,-0.98407,0,0,0.125,-0,-0,0.66667
0.33361,0.76528,2.6689,0.39792,30.01,243.56,-2.832,0.944,-1.4352,-3.776,8.5576e-13,-0.71758,0,0,0.125,5.9212e-16,0,0.66667
0.9542,0.5192,7.6336,0.028797,0.20316,1.9319,-0.58619,0.1954,-1.9987,-0.78159,2.9528e-07,-0.99935,0,0,0.125,-0,-0,0.66667
0.80872,0.7709,6.4697,0.40635,11.83,26.029,-7.0106,2.3369,-1.4122,-9.3475,3.3943e-10,-0.70609,0,0,0.125,-0,-0,0.66667
0.90034,0.82369,7.2027,0.48554,7.6824,8.4392,-9.3259,3.1086,-1.1599,-12.435,2.9686e-08,-0.57996,0,0,0.125,-0,-0,0.66667
0.01159,0.9442,0.092717,0.66631,56.769,458.42,-0.16474,0.054895,-0.42092,-0.21966,-2.506e-05,-0.21046,0,0,0.125,-0,-0,0.66667
0.37976,0.85097,3.0381,0.52646,38.29,215.73,-4.2652,1.4217,-1.0135,-5.6869,2.284e-12,-0.50676,0,0,0.125,-0,-0,0.66667
0.23552,0.65821,1.8842,0.23732,19.003,306.01,-1.1924,0.39746,-1.8025,-1.5898,8.0824e-13,-0.90127,0,0,0.125,-0,-0,0.66667
0.29594,0.39715,2.3675,-0.15428,-11.926,266.99,0.97401,-0.32467,-1.9174,1.2987,-4.8879e-12,-0.9587,0,0,0.125,-2.9606e-16,0,0.66667
0.738,0.88047,5.904,0.57071,22.036,46.594,-8.9852,2.9951,-0.84184,-11.98,-3.6589e-11,-0.42092,0,0,0.125,-2.3685e-15,0,0.66667
0.72408,0.13761,5.7927,-0.54358,-21.915,51.079,8.3968,-2.7989,-0.94768,11.196,2.6974e-12,-0.47384,0,0,0.125,-0,-0,0.66667
0.4618,0.40829,3.6944,-0.13757,-9.1582,168.4,1.3553,-0.45177,-1.9318,1.8071,5.6011e-13,-0.96588,0,0,0.125,-0,-0,0.66667
0.36527,0.60157,2.9222,0.15235,11.181,224.06,-1.1872,0.39574,-1.9159,-1.5829,9.4036e-14,-0.95795,0,0,0.125,-0,-0,0.66667
0.58469,0.65981,4.6775,0.23972,13.337,106.27,-2.9901,0.9967,-1.7945,-3.9868,-1.9387e-12,-0.89726,0,0,0.125,-0,-0,0.66667
0.53371,0.97983,4.2697,0.71974,43.89,131.63,-8.1948,2.7316,-0.15841,-10.926,7.2298e-13,-0.079203,0,0,0.125,-0,-0,0.66667
0.55058,0.79119,4.4046,0.43678,25.805,122.69,-5.1303,1.7101,-1.321,-6.8404,5.6399e-13,-0.66052,0,0,0.125,-0,-0,0.66667
0.61548,0.080558,4.9238,-0.62916,-33.242,93.224,8.261,-2.7537,-0.59053,11.015,-1.12e-12,-0.29527,0,0,0.125,1.1842e-15,0,0.66667
0.39565,0.51625,3.1652,0.024378,1.7404,205.96,-0.20576,0.068588,-1.9962,-0.27435,1.2982e-12,-0.99812,0,0,0.125,-1.1842e-15,0,0.66667
0.77172,0.86542,6.1737,0.54813,18.769,36.28,-9.024,3.008,-0.92997,-12.032,-1.2795e-10,-0.46498,0,0,0.125,5.9212e-16,0,0.66667
0.2512,0.54343,2.0096,0.065152,5.171,295.72,-0.34915,0.11638,-1.9864,-0.46553,6.4224e-13,-0.99321,0,0,0.125,5.9212e-16,0,0.66667
0.65576,0.19345,5.2461,-0.45983,-22.198,76.008,6.4328,-2.1443,-1.2511,8.5771,2.2693e-13,-0.62557,0,0,0.125,-0,-0,0.66667
0.9604,0.34749,7.6832,-0.22877,-1.3946,1.6841,4.6872,-1.5624,-1.8126,6.2496,1.0125e-07,-0.90631,0,0,0.125,-0,-0,0.66667
0.0035548,0.57727,0.028438,0.1159,9.8244,463.98,-0.0087897,0.0029304,-1.9515,-0.011719,8.4124e-07,-0.97574,0,0,0.125,-4.6259e-18,0,0.66667
0.72336,0.56502,5.7869,0.09753,3.9118,50.586,-1.5051,0.50168,-1.966,-2.0067,-8.6068e-12,-0.98298,0,0,0.125,2.3685e-15,0,0.66667
0.109,0.47879,0.87196,-0.031812,-2.6639,391.1,0.07397,-0.024657,-1.999,0.098627,-7.99e-10,-0.99951,0,0,0.125,-0,-0,0.66667
0.54379,0.48529,4.3503,-0.022063,-1.3131,125.65,0.25595,-0.085316,-1.9979,0.34126,-1.5956e-12,-0.99894,0,0,0.125,-0,-0,0.66667
0.62692,0.93346,5.0153,0.65019,33.582,88.375,-8.6957,2.8986,-0.49852,-11.594,-1.43e-13,-0.24926,0,0,0.125,2.9606e-16,0,0.66667
0.24295,0.0050485,1.9436,-0.74243,-59.606,301.58,3.8479,-1.2826,-0.038711,5.1305,2.6939e-11,-0.019355,0,0,0.125,1.1842e-15,0,0.66667
0.91384,0.8233,7.3108,0.48495,6.6589,6.6624,-9.4543,3.1514,-1.1617,-12.606,1.6843e-08,-0.58083,0,0,0.125,-0,-0,0.66667
0.62231,0.65042,4.9785,0.22563,11.677,89.514,-2.9954,0.99847,-1.8196,-3.9939,-2.3177e-12,-0.9098,0,0,0.125,1.1842e-15,0,0.66667
0.23169,0.051629,1.8536,-0.67256,-54.234,308.85,3.3243,-1.1081,-0.39181,4.4324,-6.3465e-11,-0.19591,0,0,0.125,-0,-0,0.66667
0.77013,0.68277,6.1611,0.27415,9.3805,36.119,-4.5042,1.5014,-1.7322,-6.0056,1.164e-11,-0.86611,0,0,0.125,-1.1842e-15,0,0.66667
0.10551,0.28883,0.84406,-0.31676,-26.577,393.53,0.71296,-0.23765,-1.6427,0.95062,1.9029e-08,-0.82136,0,0,0.125,-0,-0,0.66667
0.55523,0.22381,4.4418,-0.41429,-24.286,120.41,4.9071,-1.6357,-1.3883,6.5428,-1.017e-12,-0.69413,0,0,0.125,-0,-0,0.66667
0.094956,0.23585,0.75965,-0.39623,-33.34,400.79,0.80265,-0.26755,-1.4432,1.0702,2.7719e-08,-0.72161,0,0,0.125,-0,-0,0.66667
0.58098,0.9953,4.6479,0.74295,41.99,109.01,-9.2083,3.0694,-0.038063,-12.278,1.3296e-12,-0.019032,0,0,0.125,-2.9606e-16,0,0.66667
0.25298,0.54846,2.0238,0.072683,5.7634,294.56,-0.39227,0.13076,-1.9809,-0.52302,2.519e-12,-0.99046,0,0,0.125,2.9606e-16,0,0.66667
0.64947,0.9985,5.1957,0.74775,36.891,79.344,-10.36,3.4534,-0.011182,-13.814,2.3599e-12,-0.0055909,0,0,0.125,-3.7526e-15,0,0.66667
0.71583,0.086208,5.7266,-0.62069,-25.711,54.107,9.4785,-3.1595,-0.6304,12.638,4.1336e-12,-0.3152,0,0,0.125,-5.9212e-16,0,0.66667
0.52419,0.62285,4.1935,0.18428,11.304,135.5,-2.0608,0.68692,-1.8783,-2.7477,6.406e-13,-0.93913,0,0,0.125,1.4803e-16,0,0.66667
0.65752,0.25229,5.2602,-0.37156,-17.835,75.134,5.212,-1.7373,-1.5117,6.9493,2.0299e-12,-0.75586,0,0,0.125,-2.3685e-15,0,0.66667
0.81329,0.72625,6.5064,0.33938,9.6472,24.765,-5.8883,1.9628,-1.5928,-7.8511,4.8959e-10,-0.79642,0,0,0.125,-0,-0,0.66667
0.80751,0.60856,6.4601,0.16283,4.7439,25.929,-2.8051,0.93503,-1.9041,-3.7401,2.7106e-10,-0.95205,0,0,0.125,-0,-0,0.66667
0.61968,0.4162,4.9575,-0.1257,-6.536,90.569,1.6617,-0.5539,-1.9423,2.2156,1.7542e-13,-0.97114,0,0,0.125,-0,-0,0.66667
0.4511,0.030396,3.6088,-0.70441,-47.829,175.06,6.7789,-2.2596,-0.23786,9.0385,-1.9309e-12,-0.11893,0,0,0.125,1.4803e-16,0,0.66667
0.40795,7.8936e-05,3.2636,-0.74988,-53.34,199.59,6.5262,-2.1754,-0.0032057,8.7016,8.6597e-14,-0.0016029,0,0,0.125,-0,-0,0.66667
0.87475,0.32057,6.998,-0.26914,-5.2561,11.907,5.0225,-1.6742,-1.7454,6.6967,-8.6992e-09,-0.87271,0,0,0.125,-0,-0,0.66667
0.70293,0.94575,5.6235,0.66862,28.784,58.763,-10.027,3.3422,-0.4135,-13.369,-1.2434e-12,-0.20675,0,0,0.125,2.3685e-15,0,0.66667
0.18494,0.10528,1.4795,-0.59208,-48.666,339.77,2.3359,-0.77864,-0.75373,3.1146,-1.3448e-09,-0.37687,0,0,0.125,-2.9606e-16,0,0.66667
0.56573,0.46482,4.5259,-0.052771,-3.0313,115.03,0.6369,-0.2123,-1.9905,0.84919,-7.7127e-13,-0.99527,0,0,0.125,8.8818e-16,0,0.66667
0.90881,0.71955,7.2705,0.32933,4.7368,6.8884,-6.3851,2.1284,-1.616,-8.5134,2.6952e-08,-0.80798,0,0,0.125,-0,-0,0.66667
0.15069,0.92776,1.2055,0.64164,53.409,362.86,-2.0627,0.68756,-0.53456,-2.7502,-1.6331e-08,-0.26728,0,0,0.125,1.4803e-16,0,0.66667
0.84552,0.59636,6.7641,0.14453,3.4351,17.266,-2.6071,0.86902,-1.9277,-3.4761,2.7799e-09,-0.96386,0,0,0.125,-0,-0,0.66667
0.8202,0.73389,6.5616,0.35084,9.6379,23.143,-6.1388,2.0463,-1.5601,-8.1851,7.3073e-10,-0.78003,0,0,0.125,-1.1842e-15,0,0.66667
0.49934,0.42485,3.9947,-0.11272,-7.1564,148.26,1.2008,-0.40027,-1.9569,1.6011,-3.505e-13,-0.97847,0,0,0.125,-5.9212e-16,0,0.66667
0.037584,0.2307,0.30067,-0.40395,-34.254,440.39,0.32388,-0.10796,-1.4178,0.43184,-1.1224e-07,-0.7089,0,0,0.125,7.4015e-17,0,0.66667
0.1475,0.010517,1.18,-0.73422,-61.273,365.09,2.3104,-0.77013,-0.081206,3.0805,-1.2835e-09,-0.040603,0,0,0.125,-0,-0,0.66667
0.92264,0.22123,7.3811,-0.41816,-5.1393,5.4306,8.2306,-2.7435,-1.3814,10.974,-6.4461e-08,-0.69072,0,0,0.125,2.3685e-15,0,0.66667
0.044155,0.73004,0.35324,0.34506,29.229,435.84,-0.32503,0.10834,-1.5767,-0.43337,7.7643e-08,-0.78835,0,0,0.125,7.4015e-17,0,0.66667
0.3725,0.76511,2.98,0.39767,29.059,219.9,-3.1602,1.0534,-1.4378,-4.2135,-1.9662e-12,-0.71891,0,0,0.125,5.9212e-16,0,0.66667
0.61904,0.72466,4.9523,0.33699,17.58,91.062,-4.4504,1.4835,-1.5949,-5.9338,-4.6008e-13,-0.79744,0,0,0.125,-2.3685e-15,0,0.66667
0.19695,0.47846,1.5756,-0.032305,-2.6309,331.5,0.13573,-0.045243,-1.9945,0.18097,2.4857e-11,-0.99723,0,0,0.125,-0,-0,0.66667
0.98108,0.74575,7.8486,0.36862,1.0159,0.9313,-7.7151,2.5717,-1.5172,-10.287,-2.8401e-07,-0.7586,0,0,0.125,5.8092e-16,0,0.66667
0.15598,0.58103,1.2478,0.12155,10.051,359.07,-0.40445,0.13482,-1.9501,-0.53926,-1.6602e-09,-0.97504,0,0,0.125,-0,-0,0.66667
0.53968,0.01942,4.3174,-0.72087,-43.566,128.67,8.2995,-2.7665,-0.15017,11.066,2.6645e-14,-0.075086,0,0,0.125,-0,-0,0.66667
0.61801,0.79139,4.9441,0.43708,22.884,91.677,-5.7626,1.9209,-1.3187,-7.6835,-1.0916e-12,-0.65935,0,0,0.125,-0,-0,0.66667
0.23099,0.092722,1.8479,-0.61092,-49.23,309.25,3.0105,-1.0035,-0.67385,4.014,2.16e-10,-0.33693,0,0,0.125,7.4015e-17,1.6034e-19,0.66667
0.46631,0.95131,3.7305,0.67696,45.133,166.66,-6.7344,2.2448,-0.37075,-8.9791,-3.4195e-13,-0.18538,0,0,0.125,-0,-1.4603e-16,0.66667
0.49101,0.89664,3.9281,0.59496,38.401,153.24,-6.2321,2.0774,-0.7395,-8.3094,-2.7622e-13,-0.36975,0,0,0.125,5.9212e-16,0,0.66667
0.76686,0.34878,6.1349,-0.22683,-7.8529,37.004,3.7108,-1.2369,-1.8192,4.9477,1.9584e-13,-0.90962,0,0,0.125,-0,-0,0.66667
0.63428,0.42487,5.0742,-0.1127,-5.6836,84.35,1.5249,-0.50831,-1.9528,2.0333,-8.2723e-13,-0.97639,0,0,0.125,-0,-0,0.66667
0.46755,0.81144,3.7404,0.46716,30.983,165.59,-4.6597,1.5532,-1.2269,-6.2129,2.971e-13,-0.61347,0,0,0.125,1.4803e-16,0,0.66667
0.66694,0.55931,5.3355,0.08897,4.1639,71.113,-1.2659,0.42196,-1.9713,-1.6878,-1.3405e-12,-0.98567,0,0,0.125,4.9351e-16,0,0.66667
0.45338,0.79708,3.627,0.44562,30.042,173.33,-4.3101,1.4367,-1.2965,-5.7468,5.338e-13,-0.64826,0,0,0.125,-0,-0,0.66667
0.52571,0.23067,4.2057,-0.404,-24.779,134.97,4.5309,-1.5103,-1.4179,6.0412,-9.2371e-14,-0.70896,0,0,0.125,-0,-0,0.66667
0.65857,0.084514,5.2685,-0.62323,-30.004,75.304,8.756,-2.9187,-0.61953,11.675,-2.2826e-13,-0.30976,0,0,0.125,-0,-0,0.66667
0.1812,0.9867,1.4496,0.73005,60.23,342.39,-2.822,0.94067,-0.10292,-3.7627,-1.4054e-10,-0.051459,0,0,0.125,-0,-0,0.66667
0.78805,0.58696,6.3044,0.13045,4.1447,30.95,-2.193,0.731,-1.9378,-2.924,9.5237e-11,-0.96891,0,0,0.125,-1.1842e-15,0,0.66667
0.60287,0.88024,4.8229,0.57037,30.842,98.613,-7.3356,2.4452,-0.84191,-9.7807,1.5765e-12,-0.42095,0,0,0.125,-2.3685e-15,0,0.66667
0.98033,0.026902,7.8427,-0.70965,-2.3151,2.2406,14.841,-4.9471,-0.20919,19.789,1.3014e-05,-0.1046,0,0,0.125,-0,-7.0926e-17,0.66667
0.22238,0.37855,1.7791,-0.18218,-14.677,314.64,0.86427,-0.28809,-1.8822,1.1524,3.0654e-11,-0.9411,0,0,0.125,5.9212e-16,0,0.66667
0.46627,0.28498,3.7301,-0.32254,-21.386,166.09,3.2083,-1.0694,-1.6312,4.2777,8.9462e-13,-0.81561,0,0,0.125,-0,-0,0.66667
0.89564,0.66299,7.1651,0.24449,3.9997,8.5491,-4.6714,1.5571,-1.7864,-6.2285,1.4505e-08,-0.89319,0,0,0.125,-2.3685e-15,0,0.66667
0.60143,0.13909,4.8115,-0.54136,-29.335,99.181,6.946,-2.3153,-0.95567,9.2613,1.2852e-12,-0.47784,0,0,0.125,-0,-0,0.66667
0.72596,0.54431,5.8077,0.066464,2.6441,49.701,-1.0293,0.34311,-1.9821,-1.3724,-3.3007e-12,-0.99103,0,0,0.125,-1.1842e-15,0,0.66667
0.41367,0.0111,3.3094,-0.73335,-51.852,196.26,6.4718,-2.1573,-0.085667,8.629,-2.0388e-12,-0.042834,0,0,0.125,-0,-0,0.66667
0.68431,0.48235,5.4745,-0.026469,-1.1856,64.455,0.38641,-0.1288,-1.9971,0.51522,-2.8214e-13,-0.99853,0,0,0.125,-1.1842e-15,0,0.66667
0.94606,0.62019,7.5684,0.18029,1.516,2.6716,-3.6387,1.2129,-1.883,-4.8516,-4.1876e-08,-0.9415,0,0,0.125,-1.7764e-15,0,0.66667
0.20019,0.039015,1.6015,-0.69148,-56.581,329.68,2.953,-0.98435,-0.3001,3.9374,-6.5699e-10,-0.15005,0,0,0.125,-0,1.1057e-16,0.66667
0.80737,0.37334,6.4589,-0.18998,-5.5406,25.993,3.2722,-1.0907,-1.8713,4.363,-3.5838e-10,-0.93567,0,0,0.125,1.6283e-15,0,0.66667
0.96954,0.73929,7.7563,0.35894,1.6762,1.4164,-7.4241,2.4747,-1.544,-9.8988,-3.269e-07,-0.77199,0,0,0.125,-0,-0,0.66667
0.014569,0.13907,0.11655,-0.5414,-46.038,456.35,0.16827,-0.056088,-0.95942,0.22435,4.4338e-07,-0.47971,0,0,0.125,-0,1.7655e-16,0.66667
0.21521,0.82021,1.7217,0.48031,38.923,319.53,-2.2052,0.73506,-1.1794,-2.9402,-7.2275e-11,-0.58971,0,0,0.125,-0,-0,0.66667
0.11738,0.64385,0.93902,0.21577,18.044,385.37,-0.54031,0.1801,-1.8322,-0.72041,-9.3433e-09,-0.91611,0,0,0.125,9.0275e-18,0,0.66667
0.76742,0.097061,6.1394,-0.60441,-21.077,37.696,9.8952,-3.2984,-0.70296,13.194,-1.5261e-10,-0.35148,0,0,0.125,2.3685e-15,0,0.66667
0.081217,0.84402,0.64973,0.51603,43.586,410.28,-0.89409,0.29803,-1.0544,-1.1921,-3.1046e-08,-0.52721,0,0,0.125,2.9606e-16,0,0.66667
0.99841,0.88199,7.9873,0.57298,0.015831,1.1852,-12.204,4.0681,-0.83422,-16.272,-1.5862e-06,-0.41711,0,0,0.125,-0,-0,0.66667
0.38961,0.052719,3.1169,-0.67092,-48.483,210.14,5.5765,-1.8588,-0.4014,7.4353,1.9584e-13,-0.2007,0,0,0.125,-0,1.2732e-16,0.66667
0.9052,0.029718,7.2416,-0.70542,-10.824,8.6169,13.622,-4.5408,-0.23367,18.163,5.3334e-07,-0.11683,0,0,0.125,-5.9212e-16,0,0.66667
0.18858,0.53137,1.5086,0.047056,3.8453,337.1,-0.1893,0.063102,-1.9954,-0.25241,-3.0007e-10,-0.99769,0,0,0.125,-5.9212e-16,0,0.66667
0.44087,0.55179,3.527,0.077681,5.2955,179.99,-0.73061,0.24354,-1.9781,-0.97415,-2.6463e-12,-0.98905,0,0,0.125,5.9212e-16,0,0.66667
0.84481,0.54198,6.7585,0.062974,1.502,17.361,-1.135,0.37832,-1.9877,-1.5133,1.3805e-09,-0.99383,0,0,0.125,-0,-0,0.66667
0.59527,0.9668,4.7622,0.70019,38.525,102.36,-8.8918,2.9639,-0.25919,-11.856,-8.8107e-13,-0.12959,0,0,0.125,1.6283e-15,0,0.66667
0.46216,0.1416,3.6973,-0.53761,-35.925,168.64,5.3005,-1.7668,-0.9702,7.0673,-8.6819e-13,-0.4851,0,0,0.125,-5.9212e-16,0,0.66667
0.51265,0.72997,4.1012,0.34495,21.541,141.54,-3.7725,1.2575,-1.5768,-5.0301,-1.0547e-13,-0.78838,0,0,0.125,-0,-0,0.66667
0.57389,0.35246,4.5911,-0.2213,-12.547,111.28,2.7094,-0.90313,-1.825,3.6125,-4.5808e-13,-0.91249,0,0,0.125,-0,-0,0.66667
0.44032,0.031125,3.5226,-0.70331,-48.331,181.06,6.6065,-2.2022,-0.24275,8.8087,2.9621e-13,-0.12138,0,0,0.125,-3.1456e-16,0,0.66667
0.19356,0.15228,1.5485,-0.52159,-42.684,333.95,2.1538,-0.71792,-1.0316,2.8717,2.5458e-10,-0.5158,0,0,0.125,4.0595e-17,0,0.66667
0.11397,0.72152,0.91173,0.33227,27.83,387.73,-0.80785,0.26928,-1.6072,-1.0771,-1.3985e-08,-0.80359,0,0,0.125,-2.9606e-16,0,0.66667
0.15123,0.92531,1.2098,0.63796,53.092,362.5,-2.0582,0.68607,-0.55134,-2.7443,-1.2699e-08,-0.27567,0,0,0.125,-0,-0,0.66667
0.052491,0.52225,0.41993,0.033374,2.8206,430.05,-0.037372,0.012458,-1.9945,-0.04983,5.3971e-08,-0.99723,0,0,0.125,7.4015e-17,0,0.66667
0.55868,0.15299,4.4694,-0.52052,-30.397,118.94,6.2038,-2.0679,-1.0368,8.2717,-1.6391e-12,-0.51838,0,0,0.125,5.9212e-16,0,0.66667
0.84772,0.018594,6.7818,-0.72211,-17.307,18.324,13.059,-4.353,-0.145,17.412,3.9782e-09,-0.0725,0,0,0.125,-0,-0,0.66667
0.35912,0.44182,2.873,-0.08727,-6.4364,227.76,0.66859,-0.22286,-1.9764,0.89146,-2.3793e-12,-0.98819,0,0,0.125,-0,-0,0.66667
0.075311,0.74036,0.60249,0.36053,30.429,414.31,-0.57925,0.19308,-1.5379,-0.77233,-5.0163e-08,-0.76895,0,0,0.125,-7.4015e-17,0,0.66667
0.42572,0.52558,3.4058,0.038375,2.6588,188.55,-0.34853,0.11618,-1.9945,-0.4647,-1.2759e-12,-0.99725,0,0,0.125,-5.9212e-16,0,0.66667
0.60201,0.12138,4.8161,-0.56792,-30.758,98.988,7.2938,-2.4313,-0.85192,9.725,1.6716e-12,-0.42596,0,0,0.125,-0,-0,0.66667
0.4254,0.76747,3.4032,0.40121,27.874,188.98,-3.6411,1.2137,-1.427,-4.8548,2.135e-12,-0.71348,0,0,0.125,-5.9212e-16,0,0.66667
0.81072,0.40872,6.4858,-0.13693,-3.9274,25.114,2.3682,-0.7894,-1.9353,3.1576,-3.9312e-10,-0.96767,0,0,0.125,2.3685e-15,0,0.66667
0.94189,0.77915,7.5351,0.41873,3.8642,3.5066,-8.4138,2.8046,-1.3766,-11.218,3.5093e-08,-0.68828,0,0,0.125,-1.1842e-15,0,0.66667
0.86991,0.85735,6.9593,0.53603,10.974,13.415,-9.9477,3.3159,-0.97675,-13.264,2.7115e-09,-0.48838,0,0,0.125,-0,-0,0.66667
0.704,0.99253,5.632,0.73879,31.785,58.632,-11.096,3.6986,-0.061595,-14.794,-3.217e-12,-0.030797,0,0,0.125,-0,-0,0.66667
0.4703,0.56065,3.7624,0.090975,5.9938,163.74,-0.91275,0.30425,-1.9729,-1.217,-1.1067e-12,-0.98647,0,0,0.125,-6.6613e-16,0,0.66667
0.6827,0.3637,5.4616,-0.20445,-9.2048,65.159,2.9777,-0.99257,-1.85,3.9703,3.3971e-12,-0.92499,0,0,0.125,-0,-0,0.66667
0.013418,0.92086,0.10735,0.63129,53.753,457.15,-0.18071,0.060229,-0.58339,-0.24095,-1.0415e-05,-0.29169,0,0,0.125,1.8504e-17,0,0.66667
0.98248,0.33626,7.8598,-0.24561,-0.60013,0.61771,5.1479,-1.716,-1.7867,6.8639,1.8062e-08,-0.89333,0,0,0.125,-1.1842e-15,0,0.66667
0.17208,0.80707,1.3766,0.46061,37.974,348.31,-1.6909,0.56363,-1.249,-2.2545,-4.4434e-10,-0.62451,0,0,0.125,7.4015e-17,0,0.66667
0.90626,0.67173,7.2501,0.25759,3.7953,7.0874,-4.9802,1.6601,-1.767,-6.6402,2.081e-08,-0.88348,0,0,0.125,-0,-0,0.66667
0.80711,0.65161,6.4569,0.22742,6.6442,26.101,-3.9158,1.3053,-1.8151,-5.2211,3.3874e-10,-0.90757,0,0,0.125,-1.1842e-15,0,0.66667
0.80014,0.16455,6.4011,-0.50318,-15.287,28.437,8.5891,-2.863,-1.0996,11.452,-3.2458e-10,-0.5498,0,0,0.125,-0,-0,0.66667
0.26894,0.28425,2.1515,-0.32362,-25.464,284.33,1.8567,-0.6189,-1.6282,2.4756,-1.5986e-11,-0.81409,0,0,0.125,-0,-0,0.66667
0.21915,0.7287,1.7532,0.34305,27.709,316.84,-1.6039,0.53462,-1.5842,-2.1385,-4.421e-11,-0.79209,0,0,0.125,-0,-0,0.66667
0.4288,0.18844,3.4304,-0.46735,-32.381,187.13,4.2752,-1.4251,-1.2227,5.7002,1.5015e-12,-0.61135,0,0,0.125,1.1842e-15,0,0.66667
0.84937,0.6116,6.795,0.16739,3.8863,16.503,-3.0331,1.011,-1.8985,-4.0442,2.5286e-09,-0.94926,0,0,0.125,-1.1842e-15,0,0.66667
0.45038,0.84148,3.603,0.51222,34.684,175.09,-4.9215,1.6405,-1.0683,-6.562,1.7941e-12,-0.53413,0,0,0.125,-1.4803e-16,0,0.66667
0.93542,0.86102,7.4834,0.54152,5.6245,4.4931,-10.806,3.6021,-0.95786,-14.409,1.0601e-07,-0.47893,0,0,0.125,-0,-4.5187e-17,0.66667
0.35268,0.9976,2.8214,0.7464,55.767,232.37,-5.6158,1.8719,-0.018159,-7.4877,-1.7302e-12,-0.0090797,0,0,0.125,1.9244e-15,0,0.66667
0.61939,0.70947,4.9551,0.31421,16.375,90.877,-4.1518,1.3839,-1.6474,-5.5358,-1.3434e-12,-0.82368,0,0,0.125,-5.9212e-16,0,0.66667
0.9807,0.23522,7.8456,-0.39716,-1.1289,1.0215,8.3093,-2.7698,-1.4383,11.079,4.2758e-07,-0.71915,0,0,0.125,-1.1842e-15,0,0.66667
0.64346,0.24047,5.1477,-0.38929,-19.299,80.854,5.3439,-1.7813,-1.4612,7.1252,6.013e-13,-0.73061,0,0,0.125,-5.9212e-16,0,0.66667
0.045498,0.82771,0.36399,0.49156,41.696,434.93,-0.47713,0.15904,-1.1421,-0.63617,-2.8494e-07,-0.57104,0,0,0.125,-7.4015e-17,0,0.66667
0.46356,0.81284,3.7085,0.46927,31.273,167.77,-4.6407,1.5469,-1.2169,-6.1876,-7.7272e-13,-0.60847,0,0,0.125,-0,-0,0.66667
0.33475,0.47733,2.678,-0.034,-2.5564,242.66,0.24281,-0.080935,-1.9941,0.32374,-1.2743e-12,-0.99703,0,0,0.125,-0,-0,0.66667
0.53218,0.91172,4.2575,0.61758,37.658,132.13,-7.0115,2.3372,-0.64637,-9.3486,1.4948e-12,-0.32319,0,0,0.125,-1.1842e-15,0,0.66667
0.28475,0.85375,2.278,0.53062,41.453,274.37,-3.2233,1.0744,-0.99842,-4.2977,5.1414e-12,-0.49921,0,0,0.125,-0,-0,0.66667
0.12226,0.55383,0.97809,0.080749,6.741,382.01,-0.21061,0.070204,-1.977,-0.28082,-2.4165e-10,-0.98852,0,0,0.125,-0,-0,0.66667
0.66829,0.66226,5.3463,0.24339,11.367,70.71,-3.47,1.1567,-1.7892,-4.6267,-3.8554e-12,-0.89462,0,0,0.125,-0,-0,0.66667
0.68136,0.011367,5.4509,-0.73295,-33.489,66.863,10.654,-3.5513,-0.08796,14.205,-8.0469e-13,-0.04398,0,0,0.125,2.3685e-15,0,0.66667
0.86714,0.58087,6.9371,0.12131,2.499,13.068,-2.2441,0.74803,-1.9454,-2.9921,4.0404e-09,-0.97271,0,0,0.125,-0,-0,0.66667
0.13238,0.30419,1.0591,-0.29372,-24.479,375.14,0.82949,-0.2765,-1.6914,1.106,7.021e-09,-0.84568,0,0,0.125,-0,-0,0.66667
0.79862,0.13824,6.389,-0.54264,-16.621,28.945,9.2451,-3.0817,-0.9539,12.327,2.0811e-10,-0.47695,0,0,0.125,1.1842e-15,0,0.66667
0.82677,0.76499,6.6141,0.39749,10.567,21.731,-7.0108,2.3369,-1.4395,-9.3477,9.0901e-10,-0.71974,0,0,0.125,-1.1842e-15,0,0.66667
0.64655,0.9649,5.1724,0.69735,34.576,80.359,-9.6186,3.2062,-0.26992,-12.825,6.9544e-13,-0.13496,0,0,0.125,-0,-0,0.66667
0.20492,0.44138,1.6394,-0.087934,-7.138,326.19,0.38442,-0.12814,-1.9743,0.51256,1.1935e-10,-0.98713,0,0,0.125,-0,-0,0.66667
0.26142,0.82186,2.0914,0.48279,38.218,289.3,-2.6925,0.8975,-1.1703,-3.59,1.6955e-11,-0.58516,0,0,0.125,-0,-0,0.66667
0.4185,0.92308,3.348,0.63463,44.565,193.29,-5.6659,1.8886,-0.56738,-7.5545,1.0676e-12,-0.28369,0,0,0.125,-5.9212e-16,0,0.66667
0.5418,0.27956,4.3344,-0.33066,-19.778,126.84,3.8218,-1.2739,-1.611,5.0958,8.3134e-13,-0.80548,0,0,0.125,-1.2583e-15,0,0.66667
0.47744,0.035454,3.8195,-0.69682,-45.852,160.69,7.0973,-2.3658,-0.27225,9.4631,-3.1974e-14,-0.13612,0,0,0.125,1.1842e-15,0,0.66667
0.46746,0.45925,3.7397,-0.06112,-4.0405,165.28,0.60952,-0.20317,-1.9883,0.81269,-1.4134e-12,-0.99415,0,0,0.125,-0,-0,0.66667
0.83984,0.81635,6.7187,0.47452,11.766,19.064,-8.5018,2.8339,-1.1994,-11.336,1.3272e-09,-0.59968,0,0,0.125,-0,-0,0.66667
0.8701,0.53944,6.9608,0.059161,1.1921,12.503,-1.0982,0.36606,-1.9864,-1.4642,7.163e-10,-0.99318,0,0,0.125,-0,-0,0.66667
0.81675,0.19377,6.534,-0.45935,-12.882,24.213,8.0038,-2.6679,-1.2492,10.672,-7.4349e-10,-0.62458,0,0,0.125,-0,-0,0.66667
0.8778,0.82405,7.0224,0.48608,9.3534,11.901,-9.1025,3.0342,-1.1599,-12.137,4.7455e-09,-0.57994,0,0,0.125,-0,-0,0.66667
0.57101,0.2837,4.5681,-0.32445,-18.505,112.74,3.9522,-1.3174,-1.6247,5.2697,-2.002e-12,-0.81234,0,0,0.125,2.3685e-15,0,0.66667
0.96404,0.96126,7.7123,0.69189,4.1102,2.9209,-14.23,4.7432,-0.29688,-18.973,8.3876e-06,-0.14844,0,0,0.125,-0,8.5592e-17,0.66667
0.60654,0.54728,4.8524,0.07092,3.7844,96.291,-0.91768,0.30589,-1.9819,-1.2236,-6.0169e-13,-0.99096,0,0,0.125,-1.1842e-15,0,0.66667
0.60395,0.028511,4.8316,-0.70723,-38.292,98.507,9.1121,-3.0374,-0.22093,12.15,2.2435e-12,-0.11046,0,0,0.125,-1.4803e-15,0,0.66667
0.3193,0.62087,2.5544,0.18131,13.795,252.3,-1.235,0.41168,-1.8818,-1.6467,-1.9876e-12,-0.94091,0,0,0.125,2.9606e-16,0,0.66667
0.6812,0.86354,5.4496,0.5453,24.79,66.34,-7.9245,2.6415,-0.94075,-10.566,-1.7337e-12,-0.47037,0,0,0.125,-5.9212e-16,0,0.66667
0.051966,0.71068,0.41573,0.31601,26.742,430.43,-0.35033,0.11678,-1.6437,-0.46711,4.0302e-08,-0.82183,0,0,0.125,-3.7007e-17,0,0.66667
0.13455,0.95185,1.0764,0.67777,56.717,373.84,-1.9454,0.64848,-0.36462,-2.5939,2.1315e-08,-0.18231,0,0,0.125,-0,-0,0.66667
0.13024,0.96413,1.0419,0.6962,58.345,376.78,-1.9344,0.6448,-0.27574,-2.5792,-3.0621e-09,-0.13787,0,0,0.125,-7.4015e-17,0,0.66667
0.6552,0.63891,5.2416,0.20836,10.035,75.84,-2.9124,0.97079,-1.8473,-3.8832,-2.5384e-12,-0.92363,0,0,0.125,-0,-0,0.66667
0.17533,0.66059,1.4027,0.24089,19.798,346.03,-0.90101,0.30034,-1.7939,-1.2014,-9.4901e-10,-0.89695,0,0,0.125,-0,-0,0.66667
0.34115,0.24595,2.7292,-0.38108,-28.569,238.9,2.7734,-0.92446,-1.4846,3.6979,-2.2569e-12,-0.74231,0,0,0.125,7.4015e-16,0,0.66667
0.044312,0.12878,0.35449,-0.55684,-47.278,435.76,0.52638,-0.17546,-0.89857,0.70185,7.5143e-07,-0.44929,0,0,0.125,-0,-0,0.66667
0.23373,0.73166,1.8699,0.34749,27.873,307.24,-1.7327,0.57757,-1.5728,-2.3103,7.9825e-13,-0.7864,0,0,0.125,-0,-0,0.66667
0.96422,0.46068,7.7138,-0.058979,-0.31947,1.2807,1.2132,-0.4044,-1.9866,1.6176,1.638e-07,-0.99332,0,0,0.125,-0,-0,0.66667
0.50914,0.06572,4.0731,-0.65142,-41.085,143.9,7.0755,-2.3585,-0.49013,9.434,8.149e-13,-0.24506,0,0,0.125,-1.1842e-15,0,0.66667
0.15107,0.61272,1.2086,0.16909,14.006,362.4,-0.54495,0.18165,-1.8967,-0.7266,-2.4182e-09,-0.94836,0,0,0.125,1.4803e-16,0,0.66667
0.52301,0.87148,4.1841,0.55723,34.398,136.61,-6.2173,2.0724,-0.89473,-8.2897,-1.5987e-13,-0.44737,0,0,0.125,-0,-0,0.66667
0.94351,0.70272,7.5481,0.30408,2.7006,3.0879,-6.1206,2.0402,-1.6692,-8.1608,-1.7381e-08,-0.8346,0,0,0.125,1.1842e-15,0,0.66667
0.86569,0.88042,6.9255,0.57063,12.062,14.289,-10.538,3.5128,-0.84087,-14.051,-2.1553e-10,-0.42044,0,0,0.125,-0,-0,0.66667
0.39207,0.75642,3.1365,0.38463,27.611,208.27,-3.2171,1.0724,-1.4757,-4.2894,3.062e-13,-0.73787,0,0,0.125,-0,-0,0.66667
0.28387,0.50436,2.2709,0.0065333,0.50877,274.65,-0.039565,0.013188,-2.0007,-0.052753,-4.9514e-12,-1.0004,0,0,0.125,-0,-0,0.66667
0.76173,0.81043,6.0938,0.46565,16.513,38.966,-7.5669,2.5223,-1.2293,-10.089,-8.9009e-12,-0.61467,0,0,0.125,2.9606e-16,0,0.66667
0.24048,0.032041,1.9239,-0.70194,-56.384,303.13,3.6012,-1.2004,-0.2476,4.8016,1.6422e-11,-0.1238,0,0,0.125,-5.9212e-16,0,0.66667
0.25423,0.79581,2.0339,0.44372,35.248,293.92,-2.4066,0.80218,-1.2988,-3.2087,1.7623e-11,-0.64938,0,0,0.125,-0,-0,0.66667
0.084086,0.81966,0.67269,0.4795,40.462,408.29,-0.86014,0.28671,-1.181,-1.1469,-2.7715e-08,-0.5905,0,0,0.125,-0,-0,0.66667
0.86414,0.49605,6.9132,-0.0059298,-0.12469,13.569,0.10932,-0.036439,-1.9993,0.14576,-8.6957e-09,-0.99966,0,0,0.125,-2.9606e-16,0,0.66667
0.4479,0.29596,3.5832,-0.30606,-20.729,176.2,2.9244,-0.9748,-1.6652,3.8992,1.3545e-12,-0.83261,0,0,0.125,-0,-0,0.66667
0.56179,0.29995,4.4943,-0.30008,-17.378,117.09,3.5964,-1.1988,-1.6819,4.7952,3.6682e-13,-0.84094,0,0,0.125,-5.9212e-16,0,0.66667
0.73671,0.42966,5.8937,-0.10552,-4.0568,46.183,1.6584,-0.55278,-1.9611,2.2111,4.1781e-12,-0.98055,0,0,0.125,1.1842e-15,0,0.66667
0.79649,0.48507,6.3719,-0.022395,-0.68562,28.664,0.38053,-0.12684,-2.0006,0.50737,-4.0885e-11,-1.0003,0,0,0.125,1.1842e-15,0,0.66667
0.44751,0.69123,3.5801,0.28684,19.432,176.4,-2.7384,0.91281,-1.7066,-3.6513,-9.5435e-13,-0.85328,0,0,0.125,-0,-0,0.66667
0.18413,0.0044013,1.473,-0.7434,-61.278,340.44,2.9201,-0.97337,-0.035314,3.8935,-2.0642e-10,-0.017657,0,0,0.125,-0,7.165e-17,0.66667
0.82873,0.32398,6.6299,-0.26403,-6.9217,21.027,4.6679,-1.556,-1.7544,6.2239,-1.1898e-09,-0.87719,0,0,0.125,-0,-0,0.66667
0.030998,0.3266,0.24798,-0.2601,-22.041,444.95,0.172,-0.057335,-1.762,0.22934,-1.4724e-07,-0.88102,0,0,0.125,-0,-0,0.66667
0.94673,0.68627,7.5738,0.2794,2.3322,2.7694,-5.643,1.881,-1.7218,-7.524,-4.1477e-08,-0.86088,0,0,0.125,-1.6283e-15,0,0.66667
0.57698,0.042983,4.6158,-0.68553,-38.958,110.69,8.438,-2.8127,-0.33068,11.251,-1.5721e-12,-0.16534,0,0,0.125,1.1842e-15,-1.3885e-16,0.66667
0.87539,0.58041,7.0031,0.12061,2.3366,11.618,-2.2524,0.75079,-1.9507,-3.0032,5.1765e-09,-0.97536,0,0,0.125,-0,-0,0.66667
0.60857,0.13023,4.8685,-0.55466,-29.655,96.053,7.2009,-2.4003,-0.90879,9.6013,1.0889e-12,-0.4544,0,0,0.125,-0,-0,0.66667
0.25166,0.26359,2.0133,-0.35462,-28.184,295.53,1.9038,-0.63461,-1.5538,2.5385,-1.9566e-11,-0.77692,0,0,0.125,-0,-0,0.66667
0.29613,0.71143,2.369,0.31715,24.538,266.95,-2.0036,0.66785,-1.6448,-2.6714,4.5481e-12,-0.82241,0,0,0.125,-2.9606e-16,0,0.66667
0.53292,0.073298,4.2634,-0.64005,-39.005,131.81,7.2768,-2.4256,-0.54448,9.7024,1.2332e-12,-0.27224,0,0,0.125,-0,-0,0.66667
0.96208,0.35193,7.6966,-0.22211,-1.292,1.5678,4.5586,-1.5195,-1.8228,6.0782,9.3698e-08,-0.9114,0,0,0.125,2.3685e-15,0,0.66667
0.1845,0.1729,1.476,-0.49066,-40.28,339.99,1.9312,-0.64372,-1.1437,2.5749,2.2081e-10,-0.57185,0,0,0.125,-2.9606e-16,0,0.66667
0.5099,0.76365,4.0792,0.39548,24.807,143.03,-4.302,1.434,-1.442,-5.736,-4.4498e-13,-0.72099,0,0,0.125,-0,-0,0.66667
0.34379,0.25253,2.7503,-0.3712,-27.769,237.27,2.7225,-0.90749,-1.5141,3.6299,-6.5858e-13,-0.75706,0,0,0.125,-0,-0,0.66667
0.76973,0.073439,6.1578,-0.63984,-22.149,37.151,10.507,-3.5022,-0.54339,14.009,-4.4865e-11,-0.27169,0,0,0.125,-0,-0,0.66667
0.80287,0.86783,6.4229,0.55175,16.586,27.889,-9.4503,3.1501,-0.91606,-12.6,-5.8288e-10,-0.45803,0,0,0.125,1.0675e-15,0,0.66667
0.42456,0.58573,3.3965,0.12859,8.9225,189.24,-1.1647,0.38823,-1.9415,-1.5529,-8.3233e-13,-0.97077,0,0,0.125,-0,-0,0.66667
0.20412,0.39374,1.633,-0.1594,-12.946,326.74,0.69411,-0.23137,-1.9114,0.92547,1.3512e-10,-0.95569,0,0,0.125,2.9606e-16,0,0.66667
0.067089,0.71998,0.53672,0.32998,27.876,419.98,-0.47228,0.15743,-1.6129,-0.6297,-3.3507e-08,-0.80644,0,0,0.125,-0,-0,0.66667
0.19865,0.22176,1.5892,-0.41736,-34.041,330.49,1.7687,-0.58957,-1.3804,2.3583,2.7752e-10,-0.69021,0,0,0.125,-0,-0,0.66667
0.2724,0.77203,2.1792,0.40805,32.069,282.16,-2.3713,0.79042,-1.4061,-3.1617,1.5166e-11,-0.70303,0,0,0.125,-2.9606e-16,0,0.66667
0.59879,0.40738,4.7903,-0.13893,-7.5263,99.781,1.7747,-0.59157,-1.9312,2.3663,-2.2502e-12,-0.9656,0,0,0.125,-0,-0,0.66667
0.87308,0.074503,6.9847,-0.63825,-12.845,13.234,11.888,-3.9626,-0.55237,15.85,-1.6008e-08,-0.27619,0,0,0.125,-0,1.4008e-16,0.66667
0.12823,0.93562,1.0258,0.65343,54.751,378.13,-1.7875,0.59584,-0.48269,-2.3834,-1.273e-08,-0.24135,0,0,0.125,-3.7007e-17,0,0.66667
0.95819,0.43692,7.6655,-0.09462,-0.60675,1.6811,1.9342,-0.64472,-1.9681,2.5789,-2.6062e-07,-0.98405,0,0,0.125,-1.7023e-15,0,0.66667
0.68317,0.010479,5.4654,-0.73428,-33.397,66.19,10.702,-3.5672,-0.081867,14.269,1.0152e-12,-0.040933,0,0,0.125,-0,1.4862e-16,0.66667
0.74196,0.93562,5.9357,0.65344,24.972,45.595,-10.343,3.4477,-0.48088,-13.791,4.3405e-12,-0.24044,0,0,0.125,-1.3323e-15,0,0.66667
0.98288,0.31946,7.863,-0.27081,-0.64706,0.64926,5.6783,-1.8928,-1.7409,7.5711,2.8522e-08,-0.87044,0,0,0.125,2.3685e-15,0,0.66667
0.4161,0.19303,3.3288,-0.46046,-32.322,194.38,4.0874,-1.3625,-1.2449,5.4499,-2.2142e-12,-0.62245,0,0,0.125,1.1842e-15,0,0.66667
0.53158,0.66128,4.2527,0.24192,14.684,131.82,-2.7435,0.91449,-1.7952,-3.658,-6.1062e-14,-0.89758,0,0,0.125,-0,-0,0.66667
0.67921,0.25117,5.4337,-0.37325,-16.993,66.71,5.4084,-1.8028,-1.5038,7.2112,2.3088e-12,-0.75191,0,0,0.125,2.3685e-15,0,0.66667
0.51288,0.12661,4.103,-0.56008,-35.077,141.78,6.128,-2.0427,-0.88591,8.1707,-7.8204e-13,-0.44295,0,0,0.125,-0,-0,0.66667
0.29911,0.79074,2.3929,0.43611,33.717,265.15,-2.7828,0.92761,-1.3244,-3.7104,6.624e-12,-0.66219,0,0,0.125,-0,-0,0.66667
0.10538,0.15424,0.84308,-0.51865,-43.608,393.67,1.166,-0.38867,-1.0438,1.5547,3.8518e-08,-0.52191,0,0,0.125,2.0354e-16,0,0.66667
0.28493,0.5065,2.2795,0.0097506,0.75881,273.97,-0.059269,0.019756,-1.9994,-0.079026,-3.4434e-12,-0.9997,0,0,0.125,-1.1842e-15,0,0.66667
0.76885,0.78659,6.1508,0.42988,14.83,36.789,-7.051,2.3503,-1.3432,-9.4014,1.301e-11,-0.67158,0,0,0.125,-0,-0,0.66667
0.64078,0.23237,5.1263,-0.40144,-20.024,81.98,5.4877,-1.8292,-1.4297,7.317,1.0418e-12,-0.71486,0,0,0.125,-1.1842e-15,0,0.66667
0.80133,0.75652,6.4106,0.38477,11.585,27.833,-6.5777,2.1926,-1.4728,-8.7703,1.9369e-10,-0.73642,0,0,0.125,-0,-0,0.66667
0.51712,0.86078,4.137,0.54117,33.679,139.57,-5.9702,1.9901,-0.95981,-7.9602,4.7917e-13,-0.4799,0,0,0.125,-5.9212e-16,0,0.66667
0.2321,0.45242,1.8568,-0.071375,-5.7213,308.22,0.35341,-0.1178,-1.9822,0.47121,4.5578e-12,-0.9911,0,0,0.125,-0,-0,0.66667
0.62796,0.61361,5.0237,0.17041,8.7133,87.053,-2.283,0.76099,-1.8966,-3.0439,-1.2306e-12,-0.94829,0,0,0.125,-0,-0,0.66667
0.30401,0.75399,2.432,0.38098,29.341,262.01,-2.4708,0.82361,-1.4826,-3.2944,3.9138e-12,-0.74131,0,0,0.125,-0,-0,0.66667
0.029529,0.3851,0.23623,-0.17236,-14.6,445.96,0.10857,-0.036192,-1.8955,0.14477,-6.9019e-08,-0.94773,0,0,0.125,-0,-0,0.66667
0.90333,0.76211,7.2266,0.39316,6.0066,7.7659,-7.5767,2.5256,-1.4502,-10.102,2.7237e-08,-0.72511,0,0,0.125,-0,-0,0.66667
0.42037,0.25116,3.363,-0.37326,-26.059,191.82,3.3473,-1.1158,-1.5072,4.4631,-9.6989e-13,-0.75359,0,0,0.125,-0,-0,0.66667
0.42613,0.98626,3.409,0.72939,50.916,189.12,-6.6307,2.2102,-0.10721,-8.841,4.5919e-13,-0.053605,0,0,0.125,-0,-0,0.66667
0.74125,0.92708,5.93,0.64063,24.529,45.777,-10.13,3.3768,-0.53875,-13.507,7.6339e-12,-0.26938,0,0,0.125,5.9212e-16,0,0.66667
0.94846,0.77605,7.5877,0.41408,3.3806,2.9448,-8.3784,2.7928,-1.3897,-11.171,5.0983e-09,-0.69483,0,0,0.125,-0,-0,0.66667
0.072516,0.58975,0.58012,0.13462,11.351,416.21,-0.20826,0.069421,-1.9346,-0.27768,1.934e-08,-0.96731,0,0,0.125,4.2938e-17,0,0.66667
0.1727,0.31226,1.3816,-0.2816,-23.172,347.81,1.0375,-0.34584,-1.7216,1.3833,1.1531e-09,-0.86078,0,0,0.125,-3.2382e-17,0,0.66667
0.32236,0.69023,2.5789,0.28534,21.676,250.44,-1.9623,0.65409,-1.7097,-2.6164,-7.4274e-13,-0.85486,0,0,0.125,-1.1842e-15,0,0.66667
0.24842,0.2848,1.9874,-0.3228,-25.692,297.62,1.7107,-0.57025,-1.6316,2.281,-2.2041e-11,-0.81578,0,0,0.125,-5.9212e-16,0,0.66667
0.49549,0.43646,3.964,-0.095311,-6.0817,150.27,1.0075,-0.33583,-1.9678,1.3433,-1.9889e-12,-0.98391,0,0,0.125,8.1416e-16,0,0.66667
0.82446,0.8192,6.5957,0.4788,12.92,22.467,-8.4213,2.8071,-1.1846,-11.228,5.05e-10,-0.59231,0,0,0.125,-0,-0,0.66667
0.85397,0.03393,6.8318,-0.6991,-16.097,16.988,12.736,-4.2454,-0.26159,16.982,-9.4573e-10,-0.1308,0,0,0.125,2.3685e-15,0,0.66667
0.59583,0.3374,4.7666,-0.2439,-13.296,101.2,3.1002,-1.0334,-1.7896,4.1335,-9.5501e-13,-0.8948,0,0,0.125,-0,-0,0.66667
0.24017,0.436,1.9214,-0.096,-7.6644,302.92,0.49188,-0.16396,-1.9667,0.65583,-1.0457e-11,-0.98333,0,0,0.125,7.4015e-17,0,0.66667
0.18649,0.28082,1.4919,-0.32877,-26.925,338.57,1.308,-0.43601,-1.6189,1.744,4.9582e-10,-0.80947,0,0,0.125,9.2519e-17,0,0.66667
0.74339,0.94737,5.9471,0.67106,25.54,45.206,-10.642,3.5474,-0.39691,-14.19,-3.4897e-12,-0.19846,0,0,0.125,-0,-0,0.66667
0.23721,0.38557,1.8977,-0.17164,-13.728,304.88,0.86861,-0.28954,-1.8952,1.1581,4.3487e-13,-0.94762,0,0,0.125,-5.9212e-16,0,0.66667
0.53949,0.81336,4.3159,0.47003,28.269,128.19,-5.4097,1.8032,-1.2137,-7.2129,-1.1018e-12,-0.60685,0,0,0.125,2.3685e-15,0,0.66667
0.74928,0.94237,5.9942,0.66355,24.75,43.341,-10.607,3.5356,-0.43728,-14.142,-7.7298e-12,-0.21864,0,0,0.125,-0,-0,0.66667
0.22825,0.064902,1.826,-0.65265,-52.699,311.09,3.1779,-1.0593,-0.48468,4.2373,-3.8854e-11,-0.24234,0,0,0.125,-0,-0,0.66667
0.1745,0.1187,1.396,-0.57195,-47.181,346.75,2.1292,-0.70973,-0.83747,2.8389,-1.145e-10,-0.41874,0,0,0.125,-0,-0,0.66667
0.039736,0.94292,0.31789,0.66438,56.521,438.94,-0.56319,0.18773,-0.42905,-0.75092,-6.9156e-06,-0.21452,0,0,0.125,-0,-0,0.66667
0.14757,0.19773,1.1806,-0.45341,-37.68,364.87,1.4274,-0.4758,-1.267,1.9032,3.435e-09,-0.63351,0,0,0.125,-0,-0,0.66667
0.85144,0.42452,6.8115,-0.11322,-2.5927,16.043,2.0564,-0.68548,-1.9522,2.7419,-1.2611e-09,-0.97609,0,0,0.125,-1.1842e-15,0,0.66667
0.10464,0.32075,0.83709,-0.26888,-22.556,394.11,0.6002,-0.20007,-1.7418,0.80026,1.7235e-08,-0.87092,0,0,0.125,-2.9606e-16,0,0.66667
0.22365,0.90258,1.7892,0.60387,48.829,314.07,-2.8811,0.96037,-0.70288,-3.8415,-4.2405e-11,-0.35144,0,0,0.125,-0,-0,0.66667
0.032757,0.79283,0.26206,0.43924,37.274,443.74,-0.30695,0.10232,-1.3152,-0.40927,3.6691e-07,-0.65761,0,0,0.125,-0,-0,0.66667
0.67636,0.40079,5.4109,-0.14882,-6.8063,67.513,2.1472,-0.71575,-1.9206,2.863,1.99e-12,-0.96031,0,0,0.125,-2.9606e-16,0,0.66667
0.2317,0.71796,1.8536,0.32695,26.247,308.56,-1.6161,0.5387,-1.6214,-2.1548,-7.0161e-12,-0.81071,0,0,0.125,-1.8504e-17,0,0.66667
0.41359,0.80115,3.3087,0.45172,31.785,195.81,-3.9857,1.3286,-1.2723,-5.3142,6.346e-13,-0.63616,0,0,0.125,-0,-0,0.66667
0.1393,0.71115,1.1144,0.31672,26.351,370.43,-0.94123,0.31374,-1.6451,-1.255,-5.2823e-09,-0.82253,0,0,0.125,1.4803e-16,0,0.66667
0.37722,0.66142,3.0177,0.24214,17.596,216.95,-1.9486,0.64952,-1.7927,-2.5981,-6.5503e-14,-0.89633,0,0,0.125,-0,-0,0.66667
0.42444,0.45268,3.3955,-0.070977,-4.9246,189.29,0.64268,-0.21423,-1.9821,0.8569,-4.7473e-13,-0.99107,0,0,0.125,-0,-0,0.66667
0.47296,0.58658,3.7837,0.12986,8.5293,162.31,-1.3103,0.43677,-1.9393,-1.7471,2.9909e-13,-0.96967,0,0,0.125,-8.8818e-16,0,0.66667
0.42284,0.63929,3.3827,0.20893,14.529,190.26,-1.8847,0.62823,-1.8465,-2.5129,9.8943e-13,-0.92325,0,0,0.125,-5.9212e-16,0,0.66667
0.10276,0.34249,0.82205,-0.23627,-19.825,395.4,0.51794,-0.17265,-1.8008,0.69058,1.4143e-08,-0.90039,0,0,0.125,1.8504e-17,0,0.66667
0.77258,0.81601,6.1806,0.47402,16.14,35.825,-7.8127,2.6042,-1.1999,-10.417,-4.2522e-11,-0.59993,0,0,0.125,-0,-0,0.66667
0.13721,0.82864,1.0976,0.49296,41.111,371.93,-1.4429,0.48098,-1.1353,-1.9239,-6.0027e-09,-0.56765,0,0,0.125,2.9606e-16,0,0.66667
0.42429,0.023122,3.3943,-0.71532,-50.014,190.14,6.4747,-2.1582,-0.18127,8.633,-8.3533e-13,-0.090637,0,0,0.125,-5.9212e-16,0,0.66667
0.27196,0.75338,2.1756,0.38008,29.87,282.42,-2.2051,0.73503,-1.4853,-2.9401,1.0542e-11,-0.74265,0,0,0.125,-0,-0,0.66667
0.30101,0.57008,2.4081,0.10512,8.0972,263.76,-0.67501,0.225,-1.96,-0.90002,-7.7793e-13,-0.98001,0,0,0.125,-0,-0,0.66667
0.67242,0.41213,5.3794,-0.1318,-6.0872,69.011,1.8907,-0.63023,-1.9411,2.5209,1.4659e-12,-0.97055,0,0,0.125,-0,-0,0.66667
0.51779,0.71978,4.1423,0.32968,20.435,138.89,-3.6416,1.2139,-1.6155,-4.8555,3.1264e-13,-0.80774,0,0,0.125,-0,-0,0.66667
0.19009,0.16025,1.5207,-0.50962,-41.756,336.26,2.0666,-0.68887,-1.0775,2.7555,1.5009e-10,-0.53877,0,0,0.125,-0,-0,0.66667
0.46913,0.18239,3.7531,-0.47641,-31.541,164.74,4.7681,-1.5894,-1.1962,6.3574,-1.0929e-12,-0.59808,0,0,0.125,5.9212e-16,0,0.66667
0.33954,0.93038,2.7163,0.64557,48.64,240.21,-4.6762,1.5587,-0.51751,-6.2349,1.6942e-12,-0.25876,0,0,0.125,-2.9606e-16,0,0.66667
0.7045,0.6643,5.636,0.24644,10.464,57.241,-3.7039,1.2346,-1.7857,-4.9385,-8.7106e-12,-0.89285,0,0,0.125,-0,-0,0.66667
0.2261,0.091557,1.8088,-0.61266,-49.489,312.47,2.9551,-0.98504,-0.66437,3.9401,1.3826e-10,-0.33218,0,0,0.125,-7.4015e-17,0,0.66667
0.84499,0.34797,6.7599,-0.22804,-5.4446,17.469,4.1108,-1.3703,-1.8174,5.481,-2.6083e-09,-0.9087,0,0,0.125,-2.3685e-15,0,0.66667
0.52623,0.059024,4.2098,-0.66146,-40.729,135.22,7.4258,-2.4753,-0.44371,9.901,3.1228e-12,-0.22186,0,0,0.125,2.9606e-16,0,0.66667
0.50062,0.94457,4.005,0.66685,42.561,148.36,-7.1219,2.374,-0.42152,-9.4958,3.7392e-13,-0.21076,0,0,0.125,-1.1842e-15,0,0.66667
0.25369,0.24199,2.0295,-0.38701,-30.734,294.24,2.0945,-0.69816,-1.467,2.7927,-1.7809e-11,-0.73351,0,0,0.125,-0,-0,0.66667
0.18616,0.96162,1.4892,0.69243,56.98,339.04,-2.7499,0.91662,-0.29702,-3.6665,-1.2605e-09,-0.14851,0,0,0.125,-1.4803e-16,0,0.66667
0.47182,0.81109,3.7746,0.46664,30.788,163.27,-4.6969,1.5656,-1.2268,-6.2626,1.8963e-12,-0.6134,0,0,0.125,-7.4015e-16,0,0.66667
0.98182,0.50909,7.8546,0.01364,0.033967,0.43083,-0.28569,0.095233,-1.9997,-0.38092,2.5536e-06,-0.99985,0,0,0.125,-4.737e-15,0,0.66667
0.13291,0.039477,1.0632,-0.69078,-57.845,374.97,1.9586,-0.65287,-0.30142,2.6115,5.9221e-09,-0.15071,0,0,0.125,-2.9606e-16,0,0.66667
0.28346,0.057857,2.2677,-0.66321,-51.963,275.35,4.0106,-1.3369,-0.43729,5.3475,-6.4451e-12,-0.21865,0,0,0.125,1.4803e-16,0,0.66667
0.80064,0.10194,6.4051,-0.59708,-18.163,28.603,10.198,-3.3995,-0.73189,13.598,-9.6067e-10,-0.36594,0,0,0.125,2.3685e-15,0,0.66667
0.66478,0.52854,5.3182,0.042809,2.0138,71.946,-0.60712,0.20237,-1.9924,-0.80949,-2.7406e-12,-0.99619,0,0,0.125,-0,-0,0.66667
0.27876,0.71308,2.2301,0.31962,25.003,278.02,-1.9008,0.63358,-1.6376,-2.5343,1.0351e-11,-0.81879,0,0,0.125,1.4803e-16,0,0.66667
0.31465,0.99113,2.5172,0.73669,56.625,255.77,-4.945,1.6483,-0.071102,-6.5934,2.558e-13,-0.035551,0,0,0.125,-0,-0,0.66667
0.41995,0.23498,3.3596,-0.39753,-27.774,192.09,3.5615,-1.1872,-1.4388,4.7486,-2.0628e-13,-0.71938,0,0,0.125,-0,-0,0.66667
0.60279,0.77115,4.8223,0.40672,21.929,98.305,-5.2302,1.7434,-1.4099,-6.9736,-8.2911e-13,-0.70493,0,0,0.125,-0,-0,0.66667
0.71934,0.47355,5.7547,-0.039673,-1.6106,51.928,0.60881,-0.20294,-1.9974,0.81175,1.372e-12,-0.99869,0,0,0.125,-0,-0,0.66667
0.8573,0.41572,6.8584,-0.12642,-2.7874,14.906,2.312,-0.77068,-1.9439,3.0827,-2.2476e-09,-0.97197,0,0,0.125,-0,-0,0.66667
0.68111,0.25069,5.4489,-0.37396,-16.943,65.994,5.4338,-1.8113,-1.5022,7.245,3.7232e-12,-0.7511,0,0,0.125,-0,-0,0.66667
0.23698,0.83918,1.8959,0.50878,40.817,305.23,-2.5722,0.85739,-1.0805,-3.4296,3.1106e-12,-0.54025,0,0,0.125,2.9606e-16,0,0.66667
0.92572,0.51923,7.4058,0.028851,0.33536,4.5178,-0.56978,0.18993,-1.9962,-0.75971,5.9064e-08,-0.99808,0,0,0.125,-0,-0,0.66667
0.7812,0.11394,6.2496,-0.57909,-19.123,33.71,9.6508,-3.2169,-0.81063,12.868,-1.0215e-10,-0.40532,0,0,0.125,-0,-1.354e-16,0.66667
0.30738,0.49613,2.4591,-0.0057996,-0.44475,259.73,0.03803,-0.012677,-1.9992,0.050707,-7.9775e-12,-0.99958,0,0,0.125,1.1272e-15,0,0.66667
0.30497,0.48863,2.4397,-0.01706,-1.3104,261.25,0.11099,-0.036997,-1.9968,0.14799,-2.8048e-12,-0.9984,0,0,0.125,-2.9606e-16,0,0.66667
0.88117,0.86905,7.0493,0.55357,10.413,11.565,-10.406,3.4687,-0.90901,-13.875,1.7296e-08,-0.4545,0,0,0.125,-0,-0,0.66667
0.12608,0.013482,1.0086,-0.72978,-61.262,379.64,1.9629,-0.65429,-0.108,2.6172,-2.5228e-08,-0.053999,0,0,0.125,-0,-0,0.66667
0.63346,0.53289,5.0677,0.049335,2.4919,84.67,-0.6667,0.22223,-1.9904,-0.88893,-3.2725e-12,-0.99522,0,0,0.125,2.3685e-15,0,0.66667
0.27771,0.88961,2.2217,0.58441,45.89,278.92,-3.4624,1.1541,-0.78489,-4.6165,-1.0236e-13,-0.39245,0,0,0.125,5.9212e-16,0,0.66667
0.8272,0.52638,6.6176,0.039564,1.043,21.173,-0.69818,0.23273,-1.997,-0.9309,-6.1202e-11,-0.99849,0,0,0.125,-1.1842e-15,0,0.66667
0.36452,0.116,2.9162,-0.576,-42.483,224.92,4.4793,-1.4931,-0.81896,5.9723,4.0146e-13,-0.40948,0,0,0.125,2.9606e-16,0,0.66667
0.73337,0.36189,5.8669,-0.20717,-8.0588,47.353,3.2412,-1.0804,-1.8491,4.3216,1.1267e-11,-0.92454,0,0,0.125,1.1842e-15,0,0.66667
0.19242,0.32021,1.5393,-0.26968,-22.024,334.58,1.107,-0.369,-1.7403,1.476,3.635e-10,-0.87013,0,0,0.125,-0,-0,0.66667
0.48145,0.39505,3.8516,-0.15742,-10.232,157.76,1.6168,-0.53894,-1.9118,2.1558,-6.9988e-13,-0.95588,0,0,0.125,5.9212e-16,0,0.66667
0.80359,0.072667,6.4288,-0.641,-19.275,28.01,10.989,-3.663,-0.5371,14.652,2.4348e-10,-0.26855,0,0,0.125,-0,-0,0.66667
0.39699,0.93731,3.1759,0.65596,47.064,205.78,-5.5554,1.8518,-0.46964,-7.4072,1.8208e-14,-0.23482,0,0,0.125,-6.6669e-17,0,0.66667
0.16157,0.78485,1.2926,0.42728,35.341,355.38,-1.4728,0.49093,-1.3501,-1.9637,-1.6251e-09,-0.67505,0,0,0.125,-0,-0,0.66667
0.64898,0.91393,5.1919,0.6209,30.554,79.14,-8.5963,2.8654,-0.62744,-11.462,-1.1191e-12,-0.31372,0,0,0.125,1.1842e-15,0,0.66667
0.75333,0.81254,6.0266,0.46881,17.135,41.508,-7.5342,2.5114,-1.2197,-10.046,1.3349e-11,-0.60984,0,0,0.125,2.3685e-15,0,0.66667
0.28019,0.73733,2.2415,0.35599,27.832,277.12,-2.1279,0.70931,-1.5511,-2.8372,1.0725e-11,-0.77553,0,0,0.125,-3.3181e-16,0,0.66667
0.45136,0.10988,3.6109,-0.58519,-39.629,174.67,5.6348,-1.8783,-0.78324,7.5131,-5.6621e-13,-0.39162,0,0,0.125,-5.9212e-16,-1.8729e-16,0.66667
0.90045,0.57259,7.2036,0.10888,1.6956,7.7072,-2.0915,0.69718,-1.9561,-2.7887,1.4551e-08,-0.97805,0,0,0.125,-0,-0,0.66667
0.87199,0.004456,6.9759,-0.74332,-15.193,13.874,13.827,-4.6091,-0.036021,18.437,1.0846e-08,-0.018011,0,0,0.125,-0,-0,0.66667
0.70719,0.87298,5.6575,0.55947,23.72,56.924,-8.4405,2.8135,-0.88729,-11.254,-8.8347e-12,-0.44365,0,0,0.125,-1.6283e-15,0,0.66667
0.5909,0.40418,4.7272,-0.14373,-7.9019,103.35,1.8119,-0.60396,-1.9276,2.4159,1.9218e-13,-0.96381,0,0,0.125,-1.6283e-15,0,0.66667
0.81738,0.75078,6.5391,0.37617,10.489,23.861,-6.5595,2.1865,-1.4968,-8.7459,6.3568e-10,-0.74842,0,0,0.125,-0,-0,0.66667
0.90764,0.010909,7.2612,-0.73364,-11.011,8.4271,14.205,-4.7352,-0.087688,18.941,2.3652e-07,-0.043844,0,0,0.125,-0,-0,0.66667
0.0025076,0.92261,0.02006,0.63392,53.988,464.71,-0.033906,0.011309,-0.57132,-0.045205,1.0431e-05,-0.28566,0,0,0.125,-4.6259e-18,0,0.66667
0.39723,0.48711,3.1778,-0.019334,-1.3782,205.03,0.16384,-0.054614,-1.9965,0.21845,-3.9103e-12,-0.99827,0,0,0.125,-0,-0,0.66667
0.56141,0.24989,4.4913,-0.37516,-21.759,117.37,4.4932,-1.4977,-1.5028,5.9909,7.816e-14,-0.7514,0,0,0.125,-1.3415e-16,0,0.66667
0.73392,0.44019,5.8714,-0.089712,-3.4803,47.081,1.4046,-0.46821,-1.9749,1.8728,3.4693e-12,-0.98744,0,0,0.125,-0,-0,0.66667
0.087473,0.34063,0.69978,-0.23905,-20.118,405.91,0.4461,-0.1487,-1.7958,0.5948,2.2743e-08,-0.8979,0,0,0.125,-3.7007e-17,0,0.66667
0.39975,0.93919,3.198,0.65879,47.145,204.17,-5.6182,1.8727,-0.45609,-7.4909,1.712e-12,-0.22805,0,0,0.125,-0,-0,0.66667
0.27962,0.30149,2.237,-0.29777,-23.277,277.45,1.7763,-0.59209,-1.6858,2.3684,-1.2394e-11,-0.84292,0,0,0.125,-2.9606e-16,0,0.66667
0.42351,0.045443,3.3881,-0.68183,-47.678,190.51,6.1603,-2.0534,-0.34799,8.2137,-2.0473e-12,-0.174,0,0,0.125,-0,-0,0.66667
0.49798,0.49162,3.9838,-0.012567,-0.79909,148.95,0.1335,-0.0445,-2.0004,0.178,3.1852e-13,-1.0002,0,0,0.125,-1.7764e-15,0,0.66667
0.66002,0.99133,5.2801,0.73699,35.479,75.094,-10.377,3.459,-0.068196,-13.836,6.6969e-13,-0.034098,0,0,0.125,-5.9212e-16,0,0.66667
0.49624,0.47526,3.9699,-0.037117,-2.3658,149.87,0.39293,-0.13098,-1.9948,0.52391,-2.4315e-12,-0.99739,0,0,0.125,1.1842e-15,0,0.66667
0.62047,0.63776,4.9637,0.20664,10.733,90.289,-2.7352,0.91175,-1.8468,-3.647,-6.5992e-13,-0.92342,0,0,0.125,-1.1842e-15,0,0.66667
0.58244,0.67442,4.6595,0.26162,14.618,107.33,-3.2508,1.0836,-1.7554,-4.3344,-1.3138e-12,-0.87771,0,0,0.125,-0,-0,0.66667
0.42833,0.77768,3.4267,0.41652,28.854,187.33,-3.8061,1.2687,-1.382,-5.0748,2.7001e-12,-0.69101,0,0,0.125,7.4015e-16,0,0.66667
0.0049764,0.32716,0.039811,-0.25926,-21.99,462.99,0.027524,-0.0091743,-1.7594,0.036698,2.4216e-07,-0.8797,0,0,0.125,-9.2519e-18,0,0.66667
0.19452,0.8919,1.5561,0.58785,48.133,333.36,-2.4394,0.81314,-0.76906,-3.2525,-4.601e-10,-0.38453,0,0,0.125,-0,-0,0.66667
0.32021,0.038666,2.5617,-0.692,-52.936,252.24,4.7271,-1.5757,-0.29553,6.3028,-1.1875e-12,-0.14777,0,0,0.125,-0,-0,0.66667
0.14698,0.086344,1.1758,-0.62048,-51.69,365.37,1.9455,-0.64852,-0.62946,2.5941,-1.5383e-09,-0.31473,0,0,0.125,-0,-0,0.66667
0.59866,0.59796,4.7893,0.14693,7.9622,99.842,-1.8766,0.62552,-1.9226,-2.5021,-2.7202e-12,-0.96128,0,0,0.125,2.3685e-15,0,0.66667
0.6115,0.027467,4.892,-0.7088,-37.823,95.189,9.2465,-3.0822,-0.21514,12.329,-8.8374e-13,-0.10757,0,0,0.125,5.9212e-16,0,0.66667
0.50009,0.58909,4.0007,0.13363,8.476,147.87,-1.4257,0.47523,-1.9401,-1.9009,-1.2546e-13,-0.97006,0,0,0.125,2.9606e-16,0,0.66667
0.32085,0.72846,2.5668,0.3427,26.075,251.43,-2.3457,0.78189,-1.5804,-3.1276,9.2526e-13,-0.7902,0,0,0.125,-0,-0,0.66667
0.65326,0.81442,5.2261,0.47163,22.905,77.037,-6.5727,2.1909,-1.2101,-8.7636,-2.1547e-12,-0.60506,0,0,0.125,-0,-0,0.66667
0.19028,0.88368,1.5223,0.57551,47.194,336.18,-2.3362,0.77874,-0.82253,-3.115,-2.8342e-10,-0.41127,0,0,0.125,5.9212e-16,0,0.66667
0.005881,0.86649,0.047048,0.54974,46.761,462.37,-0.068969,0.022989,-0.92384,-0.09196,-1.6901e-06,-0.46192,0,0,0.125,-4.6259e-18,-1.568e-16,0.66667
0.73494,0.94806,5.8795,0.67209,26.297,47.908,-10.538,3.5125,-0.39627,-14.05,2.1059e-12,-0.19813,0,0,0.125,1.1842e-15,0,0.66667
0.4435,0.12524,3.548,-0.56214,-38.39,179,5.3186,-1.7729,-0.87607,7.0915,-7.7671e-13,-0.43803,0,0,0.125,-0,-0,0.66667
0.69784,0.71755,5.5827,0.32633,14.132,59.738,-4.8582,1.6194,-1.6211,-6.4775,-6.1484e-12,-0.81053,0,0,0.125,-1.4063e-15,0,0.66667
0.18504,0.80562,1.4803,0.45842,37.612,339.6,-1.8097,0.60322,-1.2535,-2.4129,-6.4786e-10,-0.62674,0,0,0.125,-1.4803e-16,0,0.66667
0.06262,0.48742,0.50096,-0.018872,-1.5931,423.04,0.025211,-0.008404,-2.0015,0.033615,-2.3605e-07,-1.0008,0,0,0.125,7.4015e-17,0,0.66667
0.37811,0.25503,3.0249,-0.36746,-26.711,216.52,2.9641,-0.98802,-1.5203,3.9521,-1.092e-12,-0.76014,0,0,0.125,1.1842e-15,0,0.66667
0.696,0.35236,5.568,-0.22147,-9.6259,60.264,3.2883,-1.0961,-1.8237,4.3844,5.1097e-12,-0.91184,0,0,0.125,-0,-0,0.66667
0.10282,0.38054,0.82255,-0.17919,-15.031,395.35,0.39305,-0.13102,-1.8844,0.52407,1.4269e-08,-0.94219,0,0,0.125,-0,-0,0.66667
0.19583,0.081027,1.5667,-0.62846,-51.463,332.52,2.6256,-0.87519,-0.59347,3.5008,3.8536e-10,-0.29674,0,0,0.125,-2.9606e-16,0,0.66667
0.45395,0.55058,3.6316,0.07587,5.0963,172.7,-0.73475,0.24492,-1.9815,-0.97967,-1.6964e-12,-0.99074,0,0,0.125,5.9212e-16,0,0.66667
0.62115,0.86793,4.9692,0.5519,28.777,90.575,-7.3133,2.4378,-0.91654,-9.7511,-9.2015e-13,-0.45827,0,0,0.125,-5.9212e-16,0,0.66667
0.75012,0.59935,6.001,0.14902,5.4777,41.965,-2.3848,0.79493,-1.9245,-3.1797,-3.0829e-12,-0.96224,0,0,0.125,-2.3685e-15,0,0.66667
0.10974,0.20433,0.87788,-0.44351,-37.222,390.67,1.0383,-0.34608,-1.3031,1.3843,1.6872e-08,-0.65154,0,0,0.125,1.4803e-16,0,0.66667
0.62462,0.058156,4.997,-0.66277,-34.406,89.386,8.8316,-2.9439,-0.4415,11.775,2.1316e-14,-0.22075,0,0,0.125,-2.9606e-16,7.0866e-17,0.66667
0.38736,0.64797,3.0989,0.22195,15.98,210.91,-1.8341,0.61138,-1.8247,-2.4455,6.3471e-13,-0.91234,0,0,0.125,5.9212e-16,0,0.66667
0.67009,0.59954,5.3607,0.1493,6.9361,69.923,-2.1343,0.71144,-1.9222,-2.8458,-3.6298e-12,-0.96111,0,0,0.125,-0,-0,0.66667
0.20356,0.092263,1.6285,-0.61161,-49.908,327.36,2.656,-0.88532,-0.67374,3.5413,8.1325e-10,-0.33687,0,0,0.125,-7.4015e-17,0,0.66667
0.52792,0.88719,4.2234,0.58078,35.612,134.18,-6.5409,2.1803,-0.80018,-8.7212,-1.2168e-13,-0.40009,0,0,0.125,-0,-0,0.66667
0.17216,0.54261,1.3773,0.063922,5.256,348.13,-0.23477,0.078258,-1.9881,-0.31303,-3.0369e-10,-0.99406,0,0,0.125,-2.9606e-16,0,0.66667
0.018681,0.21477,0.14945,-0.42784,-36.328,453.49,0.17051,-0.056837,-1.3497,0.22734,-5.3401e-07,-0.67486,0,0,0.125,1.8504e-17,0,0.66667
0.48695,0.3608,3.8956,-0.2088,-13.48,154.85,2.1691,-0.72303,-1.845,2.8921,-6.7035e-13,-0.92252,0,0,0.125,5.9212e-16,0,0.66667
0.18418,0.015697,1.4734,-0.72646,-59.862,340.39,2.8543,-0.95144,-0.12302,3.8058,3.4568e-10,-0.061508,0,0,0.125,5.9212e-16,-1.4803e-16,0.66667
0.63834,0.33396,5.1067,-0.24906,-12.464,82.765,3.3917,-1.1306,-1.78,4.5223,5.5156e-13,-0.88999,0,0,0.125,-0,-0,0.66667
0.53657,0.61863,4.2926,0.17794,10.715,129.28,-2.0369,0.67895,-1.8862,-2.7158,7.1365e-13,-0.94312,0,0,0.125,-0,-0,0.66667
0.77495,0.14834,6.1996,-0.52749,-17.825,35.3,8.7206,-2.9069,-1.009,11.627,-3.1992e-12,-0.50449,0,0,0.125,-5.9212e-16,0,0.66667
0.39296,0.65092,3.1437,0.22637,16.214,207.61,-1.8977,0.63257,-1.8188,-2.5303,6.5059e-14,-0.9094,0,0,0.125,5.9212e-16,0,0.66667
0.98945,0.018834,7.9156,-0.72175,-1.2613,2.0278,15.235,-5.0783,-0.14634,20.313,-3.7696e-05,-0.073168,0,0,0.125,-0,-0,0.66667
0.51521,0.15826,4.1217,-0.5126,-31.972,140.49,5.6341,-1.878,-1.0694,7.5122,2.176e-12,-0.5347,0,0,0.125,-0,-1.2956e-16,0.66667
0.47882,0.23182,3.8306,-0.40227,-26.29,159.4,4.1092,-1.3697,-1.4228,5.4789,-1.2319e-12,-0.7114,0,0,0.125,-0,-0,0.66667
0.74944,0.96057,5.9955,0.69086,25.78,43.389,-11.046,3.6819,-0.30554,-14.727,3.8511e-12,-0.15277,0,0,0.125,-5.9212e-16,0,0.66667
0.57269,0.078966,4.5815,-0.63155,-36.11,112.55,7.7159,-2.572,-0.58003,10.288,-1.5006e-12,-0.29001,0,0,0.125,1.1842e-15,0,0.66667
0.36247,0.14557,2.8997,-0.53165,-39.253,226.09,4.111,-1.3703,-0.99479,5.4814,-3.4284e-13,-0.49739,0,0,0.125,-0,-0,0.66667
0.48924,0.76299,3.914,0.39448,25.438,153.83,-4.1173,1.3724,-1.4452,-5.4897,-1.565e-12,-0.72259,0,0,0.125,1.1842e-15,0,0.66667
0.18914,0.049393,1.5131,-0.67591,-55.54,337.03,2.7273,-0.90909,-0.37662,3.6364,7.7121e-10,-0.18831,0,0,0.125,-0,-0,0.66667
0.39358,0.03785,3.1487,-0.69323,-49.933,207.84,5.8206,-1.9402,-0.29161,7.7608,1.9731e-12,-0.14581,0,0,0.125,-0,-0,0.66667
0.029962,0.78925,0.23969,0.43387,36.822,445.68,-0.27732,0.092442,-1.3324,-0.36977,5.9895e-07,-0.66621,0,0,0.125,-0,-0,0.66667
0.46253,0.54319,3.7002,0.064779,4.3077,167.97,-0.6392,0.21307,-1.9831,-0.85226,-1.1947e-12,-0.99154,0,0,0.125,-0,-0,0.66667
0.27447,0.1732,2.1958,-0.49019,-38.515,280.9,2.8703,-0.95677,-1.1434,3.8271,-1.4061e-11,-0.57172,0,0,0.125,5.9212e-16,0,0.66667
0.52672,0.24332,4.2137,-0.38502,-23.575,134.43,4.3263,-1.4421,-1.4721,5.7684,6.7724e-13,-0.73605,0,0,0.125,-0,-0,0.66667
0.029272,0.34476,0.23418,-0.23287,-19.731,446.14,0.14542,-0.048473,-1.8093,0.19389,-1.1123e-07,-0.90465,0,0,0.125,-7.4015e-17,0,0.66667
0.55509,0.75952,4.4407,0.38928,22.817,120.43,-4.6098,1.5366,-1.4592,-6.1464,4.3032e-13,-0.72958,0,0,0.125,-0,-0,0.66667
0.293,0.15396,2.344,-0.51905,-40.332,269.11,3.2444,-1.0815,-1.0423,4.3259,-3.8411e-12,-0.52117,0,0,0.125,-7.4015e-17,0,0.66667
0.57749,0.82766,4.6199,0.49149,27.79,109.99,-6.0551,2.0184,-1.1432,-8.0735,-2.6068e-13,-0.5716,0,0,0.125,1.1842e-15,0,0.66667
0.73277,0.38579,5.8622,-0.17131,-6.6744,47.513,2.678,-0.89267,-1.8968,3.5707,9.8037e-12,-0.9484,0,0,0.125,-0,-0,0.66667
0.44034,0.74866,3.5227,0.37299,25.493,180.5,-3.5038,1.1679,-1.5066,-4.6718,-1.221e-12,-0.75329,0,0,0.125,7.4015e-16,0,0.66667
0.66316,0.62919,5.3053,0.19379,9.1588,72.667,-2.7416,0.91388,-1.8651,-3.6555,-3.3524e-12,-0.93257,0,0,0.125,-0,-0,0.66667
0.23891,0.21644,1.9113,-0.42534,-34.056,303.9,2.1679,-0.72262,-1.3566,2.8905,-1.5363e-11,-0.67829,0,0,0.125,-3.7007e-16,0,0.66667
0.9986,0.98727,7.9888,0.7309,0.15317,1.914,-15.57,5.1901,-0.10157,-20.761,-4.402e-05,-0.050787,0,0,0.125,-0,-0,0.66667
0.24288,0.21943,1.943,-0.42085,-33.626,301.3,2.1806,-0.72687,-1.3695,2.9075,-2.8663e-11,-0.68477,0,0,0.125,-5.9212e-16,0,0.66667
0.94083,0.90488,7.5266,0.60732,5.8296,4.2474,-12.189,4.0632,-0.68942,-16.253,-7.7313e-07,-0.34471,0,0,0.125,1.4803e-16,0,0.66667
0.21722,0.6298,1.7378,0.1947,15.724,318.06,-0.90223,0.30074,-1.8671,-1.203,-3.8094e-11,-0.93355,0,0,0.125,-0,-0,0.66667
0.49756,0.75145,3.9805,0.37717,24.053,149.42,-4.0036,1.3345,-1.4958,-5.3381,-1.7577e-12,-0.74788,0,0,0.125,1.1842e-15,0,0.66667
0.82118,0.56522,6.5694,0.097829,2.6626,22.583,-1.7138,0.57127,-1.9649,-2.2851,1.7874e-10,-0.98245,0,0,0.125,-0,-0,0.66667
0.71659,0.62571,5.7327,0.18856,7.7249,52.956,-2.8825,0.96085,-1.8756,-3.8434,-8.4281e-12,-0.93778,0,0,0.125,-2.3685e-15,0,0.66667
0.70558,0.075836,5.6446,-0.63625,-27.16,57.72,9.577,-3.1923,-0.56086,12.769,-6.8567e-13,-0.28043,0,0,0.125,1.1842e-15,0,0.66667
0.44044,0.58317,3.5235,0.12475,8.5095,180.25,-1.1722,0.39072,-1.9446,-1.5629,-3.0642e-13,-0.97228,0,0,0.125,-5.9212e-16,0,0.66667
0.75418,0.18171,6.0334,-0.47743,-17.402,41.27,7.6814,-2.5605,-1.1891,10.242,-8.3267e-13,-0.59453,0,0,0.125,5.9212e-16,0,0.66667
0.91995,0.63514,7.3596,0.20271,2.5488,5.299,-3.9782,1.3261,-1.8548,-5.3043,1.3888e-08,-0.92738,0,0,0.125,-0,-0,0.66667
0.44135,0.94394,3.5308,0.66591,45.673,180.41,-6.2699,2.09,-0.42295,-8.3599,6.5326e-13,-0.21148,0,0,0.125,-1.1842e-15,0,0.66667
0.52797,0.39689,4.2237,-0.15466,-9.4325,133.57,1.742,-0.58066,-1.9147,2.3227,-8.0802e-13,-0.95733,0,0,0.125,-0,-0,0.66667
0.066036,0.1883,0.52828,-0.46756,-39.557,420.73,0.65868,-0.21956,-1.2235,0.87823,1.0334e-07,-0.61176,0,0,0.125,-2.9606e-16,0,0.66667
0.39077,0.48207,3.1262,-0.026899,-1.9292,208.83,0.22424,-0.074747,-2.0002,0.29899,-1.4213e-12,-1.0001,0,0,0.125,-5.9212e-16,0,0.66667
0.46724,0.66215,3.7379,0.24322,16.097,165.49,-2.4243,0.80811,-1.7914,-3.2325,7.8781e-13,-0.89571,0,0,0.125,-0,-0,0.66667
0.89514,0.65452,7.1611,0.23177,3.8082,8.6036,-4.426,1.4753,-1.809,-5.9014,1.3374e-08,-0.90449,0,0,0.125,-1.3323e-15,0,0.66667
0.11056,0.3013,0.88446,-0.29806,-24.977,390.06,0.70298,-0.23433,-1.6857,0.93731,1.53e-08,-0.84286,0,0,0.125,-1.4803e-16,0,0.66667
0.73114,0.51735,5.8491,0.026019,1.0182,47.974,-0.40583,0.13528,-1.9971,-0.5411,-1.5864e-12,-0.99855,0,0,0.125,-0,-0,0.66667
0.54547,0.94781,4.3638,0.67172,40.187,125.69,-7.8166,2.6055,-0.39712,-10.422,7.6517e-13,-0.19856,0,0,0.125,-0,-0,0.66667
0.60654,0.59221,4.8523,0.13832,7.3831,96.326,-1.7898,0.59659,-1.9332,-2.3864,-1.513e-12,-0.96658,0,0,0.125,5.181e-16,0,0.66667
0.029783,0.4091,0.23826,-0.13635,-11.548,445.78,0.086631,-0.028877,-1.9362,0.11551,4.2759e-08,-0.96809,0,0,0.125,-7.4015e-17,0,0.66667
0.14675,0.22104,1.174,-0.41844,-34.77,365.41,1.31,-0.43666,-1.3766,1.7467,2.8092e-09,-0.68831,0,0,0.125,5.9212e-16,0,0.66667
0.28398,0.21564,2.2719,-0.42655,-33.295,274.76,2.5841,-0.86138,-1.3541,3.4455,-1.2938e-11,-0.67704,0,0,0.125,-4.4409e-16,0,0.66667
0.004872,0.14516,0.038976,-0.53225,-45.264,463.07,0.05532,-0.018439,-0.99131,0.07376,1.4013e-06,-0.49565,0,0,0.125,-0,2.7107e-16,0.66667
0.66916,0.64221,5.3533,0.21332,9.9379,70.34,-3.0452,1.0151,-1.8381,-4.0602,-3.8545e-12,-0.91907,0,0,0.125,3.918e-16,0,0.66667
0.87026,0.40426,6.9621,-0.14361,-2.8929,12.529,2.6662,-0.88872,-1.9265,3.5549,-3.9187e-09,-0.96324,0,0,0.125,-1.6283e-15,0,0.66667
0.54697,0.56226,4.3757,0.093392,5.5315,124.1,-1.0898,0.36325,-1.9734,-1.453,2.9354e-13,-0.98671,0,0,0.125,-4.0708e-16,0,0.66667
0.54316,0.57776,4.3453,0.11664,6.9506,125.98,-1.3516,0.45054,-1.9508,-1.8021,5.9996e-13,-0.97538,0,0,0.125,-0,-0,0.66667
0.61573,0.47887,4.9258,-0.031693,-1.6607,92.252,0.41631,-0.13877,-1.9945,0.55508,-1.2398e-12,-0.99726,0,0,0.125,-0,-0,0.66667
0.30218,0.58409,2.4175,0.12614,9.7095,263.03,-0.81316,0.27105,-1.9419,-1.0842,-2.3348e-12,-0.97095,0,0,0.125,-0,-0,0.66667
0.36673,0.30941,2.9339,-0.28588,-20.972,223.26,2.2366,-0.74555,-1.7082,2.9822,-1.3369e-12,-0.85411,0,0,0.125,-4.8354e-16,0,0.66667
0.57494,0.057366,4.5995,-0.66395,-37.845,111.58,8.1436,-2.7145,-0.43289,10.858,-7.7272e-13,-0.21645,0,0,0.125,5.9212e-16,0,0.66667
0.80922,0.8387,6.4737,0.50805,14.804,26.173,-8.7706,2.9235,-1.0825,-11.694,2.1952e-10,-0.54124,0,0,0.125,-1.1842e-15,0,0.66667
0.2016,0.013761,1.6128,-0.72936,-59.686,328.78,3.1368,-1.0456,-0.10966,4.1824,-2.5091e-10,-0.054831,0,0,0.125,-5.9212e-16,1.4592e-16,0.66667
0.32752,0.86471,2.6202,0.54707,41.526,247.49,-3.8224,1.2741,-0.93822,-5.0966,-1.4699e-13,-0.46911,0,0,0.125,-0,1.4682e-16,0.66667
0.74292,0.040584,5.9434,-0.68912,-26.286,45.419,10.922,-3.6406,-0.30951,14.563,6.2288e-12,-0.15476,0,0,0.125,-0,-0,0.66667
0.34092,0.65421,2.7274,0.23131,17.323,238.93,-1.6823,0.56078,-1.8109,-2.2431,3.0675e-13,-0.90543,0,0,0.125,-1.4803e-16,0,0.66667
0.047611,0.94025,0.38089,0.66037,56.138,433.5,-0.67074,0.22358,-0.45257,-0.89432,-1.7302e-06,-0.22628,0,0,0.125,-0,-0,0.66667
0.15636,0.26646,1.2509,-0.35032,-29.003,358.87,1.1685,-0.38951,-1.5664,1.558,2.4034e-09,-0.78321,0,0,0.125,-2.9606e-16,0,0.66667
0.19386,0.58058,1.5509,0.12086,9.8574,333.57,-0.49987,0.16662,-1.946,-0.66649,-2.295e-10,-0.97299,0,0,0.125,-2.9606e-16,0,0.66667
0.49511,0.78932,3.9609,0.43398,27.787,150.79,-4.5839,1.528,-1.3292,-6.1119,-3.757e-13,-0.66458,0,0,0.125,-0,-0,0.66667
0.63512,0.63286,5.081,0.19929,10.038,84.057,-2.7002,0.90006,-1.8574,-3.6003,-3.1375e-13,-0.92868,0,0,0.125,-1.1842e-15,0,0.66667
0.88022,0.0020914,7.0418,-0.74686,-14.35,12.507,14.025,-4.6749,-0.016246,18.699,-5.6242e-09,-0.0081231,0,0,0.125,-0,-0,0.66667
0.90254,0.40366,7.2203,-0.14451,-2.2054,7.4457,2.7824,-0.92746,-1.9261,3.7099,-9.0221e-09,-0.96303,0,0,0.125,-2.9606e-16,0,0.66667
0.30716,0.062185,2.4573,-0.65672,-50.664,260.34,4.3033,-1.4344,-0.4664,5.7378,1.4877e-13,-0.2332,0,0,0.125,5.5511e-17,0,0.66667
0.75338,0.33584,6.027,-0.24625,-8.9582,41.065,3.9577,-1.3192,-1.7842,5.2769,8.1697e-12,-0.8921,0,0,0.125,-5.9212e-16,0,0.66667
0.28243,0.7144,2.2594,0.3216,25.101,275.67,-1.9377,0.64588,-1.6346,-2.5835,9.037e-12,-0.81731,0,0,0.125,-0,-0,0.66667
0.36858,0.63641,2.9486,0.20461,14.978,222.1,-1.6088,0.53628,-1.8491,-2.1451,7.2653e-13,-0.92456,0,0,0.125,-5.9212e-16,0,0.66667
0.29273,0.73827,2.3418,0.3574,27.724,269.13,-2.2319,0.74398,-1.5448,-2.9759,6.3818e-12,-0.77238,0,0,0.125,-0,-0,0.66667
0.41369,0.29463,3.3095,-0.30806,-21.639,195.59,2.7187,-0.90624,-1.6603,3.625,-1.5183e-12,-0.83016,0,0,0.125,-0,-0,0.66667
0.21472,0.87385,1.7177,0.56078,45.503,319.92,-2.5687,0.85623,-0.88226,-3.4249,-4.6428e-10,-0.44113,0,0,0.125,-4.0708e-16,0,0.66667
0.31899,0.42615,2.5519,-0.11077,-8.4272,252.47,0.75378,-0.25126,-1.9543,1.005,-1.6284e-12,-0.97717,0,0,0.125,-0,-0,0.66667
0.12192,0.71705,0.97536,0.32558,27.216,382.29,-0.84681,0.28227,-1.6241,-1.1291,-1.0315e-08,-0.81204,0,0,0.125,1.8504e-17,0,0.66667
0.96302,0.1153,7.7041,-0.57705,-3.4374,2.4815,11.855,-3.9517,-0.81435,15.807,-1.0895e-06,-0.40718,0,0,0.125,-1.1842e-15,0,0.66667
0.50398,0.67603,4.0319,0.26404,16.674,145.93,-2.8389,0.9463,-1.7512,-3.7852,1.5987e-13,-0.87559,0,0,0.125,-0,-0,0.66667
0.9231,0.88493,7.3848,0.5774,7.1493,5.8992,-11.371,3.7902,-0.81623,-15.161,2.6973e-08,-0.40811,0,0,0.125,-0,-0,0.66667
0.74616,0.9877,5.9693,0.73155,27.649,44.562,-11.645,3.8816,-0.096317,-15.526,1.0685e-12,-0.048159,0,0,0.125,-0,-0,0.66667
0.45771,0.88457,3.6616,0.57686,38.776,171.16,-5.6327,1.8776,-0.81566,-7.5103,-8.3666e-13,-0.40783,0,0,0.125,-0,-0,0.66667
0.75462,0.99464,6.037,0.74197,27.251,42,-11.945,3.9815,-0.041916,-15.926,2.9281e-11,-0.020958,0,0,0.125,2.2232e-15,0,0.66667
0.62802,0.44552,5.0242,-0.081714,-4.1756,86.977,1.0948,-0.36493,-1.9763,1.4597,-2.5968e-13,-0.98816,0,0,0.125,-0,-0,0.66667
0.30376,0.47262,2.4301,-0.041073,-3.1576,262.02,0.26616,-0.088719,-1.9927,0.35488,-2.3748e-12,-0.99637,0,0,0.125,-0,-0,0.66667
0.52166,0.73312,4.1733,0.34968,21.559,136.94,-3.8915,1.2972,-1.5632,-5.1886,-3.0198e-14,-0.78161,0,0,0.125,-0,-0,0.66667
0.71231,0.97797,5.6985,0.71696,30.102,55.645,-10.895,3.6316,-0.17047,-14.527,-8.038e-13,-0.085233,0,0,0.125,-0,-0,0.66667
0.30531,0.19038,2.4425,-0.46442,-35.769,261.27,3.0249,-1.0083,-1.232,4.0333,-4.8705e-12,-0.61599,0,0,0.125,-0,-0,0.66667
0.012523,0.6668,0.10018,0.2502,21.218,457.76,-0.066843,0.022281,-1.7772,-0.089124,-9.2527e-08,-0.88859,0,0,0.125,-0,-0,0.66667
0.26826,0.88778,2.1461,0.58167,45.928,284.99,-3.3288,1.1096,-0.79707,-4.4385,1.0811e-11,-0.39853,0,0,0.125,-0,-0,0.66667
0.79675,0.20249,6.374,-0.44626,-13.739,29.159,7.5852,-2.5284,-1.2947,10.114,-9.5405e-11,-0.64733,0,0,0.125,-1.1842e-15,0,0.66667
0.92999,0.8512,7.4399,0.52679,5.918,4.9787,-10.452,3.4838,-1.0115,-13.935,1.1996e-07,-0.50573,0,0,0.125,-0,-0,0.66667
0.62533,0.44,5.0026,-0.089998,-4.625,88.126,1.2006,-0.4002,-1.9749,1.6008,6.3238e-13,-0.98744,0,0,0.125,-2.3685e-15,0,0.66667
0.13281,0.95638,1.0625,0.68456,57.319,375.03,-1.9395,0.64651,-0.33154,-2.586,4.3528e-09,-0.16577,0,0,0.125,-0,-0,0.66667
0.75757,0.0092579,6.0606,-0.73611,-26.749,41.087,11.897,-3.9656,-0.071361,15.862,-2.4169e-11,-0.03568,0,0,0.125,-0,-0,0.66667
0.52691,0.42966,4.2152,-0.10552,-6.4439,134.08,1.1861,-0.39536,-1.9596,1.5814,-2.1766e-12,-0.97978,0,0,0.125,-0,-0,0.66667
0.75387,0.1487,6.031,-0.52696,-19.256,41.497,8.4748,-2.8249,-1.0122,11.3,3.4242e-11,-0.50608,0,0,0.125,-0,-0,0.66667
0.85861,0.76819,6.8689,0.40229,8.8539,15.1,-7.3687,2.4562,-1.4266,-9.8249,4.357e-09,-0.71329,0,0,0.125,-0,-0,0.66667
0.94754,0.89185,7.5803,0.58778,4.992,3.6043,-11.882,3.9605,-0.76974,-15.842,-1.3543e-07,-0.38487,0,0,0.125,-0,-0,0.66667
0.65454,0.021498,5.2363,-0.71775,-34.973,77.205,10.022,-3.3408,-0.1694,13.363,-4.2988e-13,-0.084701,0,0,0.125,-0,-0,0.66667
0.85426,0.1742,6.8341,-0.4887,-11.106,16.173,8.9061,-2.9687,-1.1492,11.875,-1.9555e-09,-0.5746,0,0,0.125,1.1842e-15,0,0.66667
0.74259,0.27224,5.9407,-0.34164,-12.919,44.578,5.4122,-1.8041,-1.583,7.2162,1.6306e-11,-0.79151,0,0,0.125,1.1842e-15,0,0.66667
0.7271,0.47237,5.8168,-0.041443,-1.6427,49.313,0.64284,-0.21428,-1.9926,0.85712,2.2653e-12,-0.99631,0,0,0.125,-0,-0,0.66667
0.85879,0.72938,6.8703,0.34407,7.548,14.934,-6.3036,2.1012,-1.5814,-8.4048,4.7999e-09,-0.79071,0,0,0.125,-0,-0,0.66667
0.923,0.33756,7.384,-0.24366,-2.9514,5.0108,4.7978,-1.5993,-1.791,6.397,-1.6618e-08,-0.89552,0,0,0.125,-0,-0,0.66667
0.90208,0.11229,7.2166,-0.58156,-9.1081,8.5271,11.192,-3.7306,-0.79634,14.922,-3.6591e-08,-0.39817,0,0,0.125,-1.1842e-15,0,0.66667
0.39575,0.53705,3.166,0.055571,3.9671,205.9,-0.46917,0.15639,-1.988,-0.62556,-4.6627e-13,-0.994,0,0,0.125,-0,-0,0.66667
0.084021,0.70793,0.67217,0.3119,26.277,408.3,-0.55907,0.18636,-1.6523,-0.74543,-2.8329e-08,-0.82614,0,0,0.125,-7.4015e-17,0,0.66667
0.82957,0.33773,6.6366,-0.24341,-6.3495,20.808,4.3078,-1.4359,-1.7911,5.7437,-1.1085e-09,-0.89557,0,0,0.125,1.7764e-15,0,0.66667
0.53893,0.70795,4.3115,0.31193,18.736,128.23,-3.5863,1.1954,-1.6519,-4.7818,-3.3196e-13,-0.82595,0,0,0.125,5.9212e-16,0,0.66667
0.54208,0.18818,4.3366,-0.46772,-28.018,126.91,5.4089,-1.803,-1.2222,7.2119,5.4268e-13,-0.6111,0,0,0.125,-0,-0,0.66667
0.82518,0.04348,6.6014,-0.68478,-18.579,23.006,12.055,-4.0182,-0.33251,16.073,5.9126e-10,-0.16626,0,0,0.125,-0,-0,0.66667
0.031984,0.64623,0.25587,0.21934,18.581,444.26,-0.14966,0.049887,-1.8311,-0.19955,9.7957e-08,-0.91557,0,0,0.125,-0,-0,0.66667
0.87796,0.85818,7.0237,0.53727,10.355,12.038,-10.063,3.3543,-0.97336,-13.417,5.0723e-09,-0.48668,0,0,0.125,1.1842e-15,0,0.66667
0.034634,0.10827,0.27707,-0.5876,-49.95,442.46,0.43416,-0.14472,-0.77173,0.57887,4.3197e-07,-0.38587,0,0,0.125,7.4015e-17,0,0.66667
0.69319,0.75452,5.5456,0.38179,16.759,61.524,-5.6459,1.882,-1.4807,-7.5279,-5.576e-12,-0.74034,0,0,0.125,-0,-0,0.66667
0.58748,0.6131,4.6999,0.16966,9.3868,104.93,-2.1263,0.70877,-1.8957,-2.8351,-8.7486e-13,-0.94783,0,0,0.125,5.9212e-16,0,0.66667
0.64175,0.98961,5.134,0.73441,36.842,82.444,-10.055,3.3515,-0.08398,-13.406,8.793e-14,-0.04199,0,0,0.125,1.1842e-15,0,0.66667
0.37408,0.89815,2.9926,0.59722,43.704,219.22,-4.7661,1.5887,-0.73396,-6.3548,-5.2758e-13,-0.36698,0,0,0.125,-2.9606e-16,1.137e-16,0.66667
0.27546,0.88701,2.2037,0.58051,45.642,280.36,-3.4114,1.1371,-0.79994,-4.5485,5.4157e-13,-0.39997,0,0,0.125,5.9212e-16,0,0.66667
0.50941,0.79628,4.0753,0.44442,27.914,143.35,-4.8297,1.6099,-1.2957,-6.4396,-4.2322e-13,-0.64783,0,0,0.125,-0,-0,0.66667
0.88582,0.53092,7.0866,0.046373,0.82509,9.8616,-0.87633,0.29211,-1.9925,-1.1684,5.6174e-09,-0.99623,0,0,0.125,-2.2204e-16,0,0.66667
0.56529,0.80762,4.5223,0.46144,26.626,115.67,-5.5647,1.8549,-1.2436,-7.4196,6.084e-13,-0.6218,0,0,0.125,8.8818e-16,0,0.66667
0.66315,0.6661,5.3052,0.24915,11.782,72.728,-3.5247,1.1749,-1.7773,-4.6996,-3.6093e-12,-0.88865,0,0,0.125,-0,-0,0.66667
0.44138,0.72586,3.531,0.33878,23.12,179.87,-3.19,1.0633,-1.5914,-4.2533,9.619e-13,-0.79572,0,0,0.125,-0,-0,0.66667
0.97214,0.95255,7.7771,0.67883,3.1112,2.4335,-14.078,4.6927,-0.36096,-18.771,-2.2226e-05,-0.18048,0,0,0.125,-0,-0,0.66667
0.74252,0.69855,5.9402,0.29783,11.256,44.525,-4.7177,1.5726,-1.6825,-6.2903,-1.4518e-11,-0.84124,0,0,0.125,-1.1842e-15,0,0.66667
0.3549,0.034236,2.8392,-0.69865,-52.055,230.93,5.2896,-1.7632,-0.26428,7.0528,-3.9031e-12,-0.13214,0,0,0.125,-0,-1.2109e-16,0.66667
0.65353,0.85951,5.2282,0.53926,26.211,77.086,-7.5183,2.5061,-0.96595,-10.024,-1.7812e-12,-0.48298,0,0,0.125,4.103e-16,0,0.66667
0.54262,0.68063,4.3409,0.27094,16.176,126.37,-3.1364,1.0455,-1.7383,-4.1819,-5.4623e-13,-0.86915,0,0,0.125,-0,-0,0.66667
0.88406,0.56841,7.0724,0.10262,1.8541,10.17,-1.9354,0.64512,-1.961,-2.5805,5.0526e-10,-0.98052,0,0,0.125,-0,-0,0.66667
0.27505,0.7112,2.2004,0.3168,24.837,280.39,-1.8589,0.61965,-1.6415,-2.4786,1.5264e-11,-0.82076,0,0,0.125,-2.9606e-16,0,0.66667
0.10807,0.49788,0.86454,-0.0031736,-0.2658,391.73,0.0073166,-0.0024388,-2.0025,0.0097555,4.8947e-08,-1.0013,0,0,0.125,-7.4015e-17,0,0.66667
0.19127,0.27824,1.5302,-0.33264,-27.191,335.37,1.3573,-0.45244,-1.6068,1.8098,3.7786e-10,-0.80339,0,0,0.125,4.4409e-16,0,0.66667
0.38705,0.027195,3.0964,-0.70921,-51.409,211.72,5.8559,-1.952,-0.2118,7.8079,-2.3572e-12,-0.1059,0,0,0.125,5.9212e-16,0,0.66667
0.85406,0.008419,6.8325,-0.73737,-17.011,17.138,13.435,-4.4783,-0.065375,17.913,-6.0563e-10,-0.032687,0,0,0.125,-4.737e-15,0,0.66667
0.27084,0.34259,2.1668,-0.23611,-18.546,283.05,1.3642,-0.45475,-1.8015,1.819,-1.4309e-11,-0.90076,0,0,0.125,7.7716e-16,0,0.66667
0.62636,0.29184,5.0109,-0.31224,-16.04,87.887,4.1722,-1.3907,-1.6548,5.563,-3.5971e-14,-0.82739,0,0,0.125,-0,-0,0.66667
0.62355,0.55158,4.9884,0.077368,3.9904,88.883,-1.0292,0.34306,-1.98,-1.3723,-1.4765e-12,-0.99001,0,0,0.125,-0,-0,0.66667
0.40805,0.34272,3.2644,-0.23591,-16.655,198.8,2.0536,-0.68454,-1.8044,2.7382,-2.0688e-12,-0.90219,0,0,0.125,7.7716e-16,0,0.66667
0.050335,0.80148,0.40268,0.45223,38.324,431.58,-0.48561,0.16187,-1.2723,-0.64748,-5.5543e-08,-0.63616,0,0,0.125,-0,-0,0.66667
0.74483,0.34505,5.9587,-0.23243,-8.7079,43.703,3.6932,-1.2311,-1.8076,4.9243,1.5312e-11,-0.90382,0,0,0.125,-2.3685e-15,0,0.66667
0.29573,0.0011921,2.3658,-0.74821,-58.262,267.68,4.7203,-1.5734,-0.012467,6.2938,-2.1183e-12,-0.0062333,0,0,0.125,-0,-0,0.66667
0.39846,0.50377,3.1877,0.0056558,0.4027,204.31,-0.048077,0.016026,-1.9986,-0.064102,-3.6016e-12,-0.99928,0,0,0.125,-0,-0,0.66667
0.37724,0.090199,3.0179,-0.6147,-44.872,217.36,4.947,-1.649,-0.65787,6.596,1.3665e-12,-0.32894,0,0,0.125,-8.8818e-16,0,0.66667
0.6636,0.65591,5.3088,0.23387,11.045,72.532,-3.3109,1.1036,-1.8049,-4.4145,-4.1065e-12,-0.90244,0,0,0.125,4.0708e-16,0,0.66667
0.086333,0.94906,0.69067,0.67359,56.975,406.81,-1.2406,0.41354,-0.38457,-1.6541,1.9004e-07,-0.19229,0,0,0.125,1.4803e-16,0,0.66667
0.54989,0.84911,4.3991,0.52366,31.017,123.19,-6.1431,2.0477,-1.0254,-8.1907,5.5334e-13,-0.51269,0,0,0.125,-0,-0,0.66667
0.015422,0.066782,0.12337,-0.64983,-55.344,455.77,0.21379,-0.071257,-0.50209,0.28505,6.8165e-06,-0.25105,0,0,0.125,3.7007e-17,0,0.66667
0.98304,0.22499,7.8643,-0.41252,-1.0161,0.98231,8.6511,-2.8837,-1.3968,11.535,3.1833e-07,-0.69842,0,0,0.125,2.3685e-15,0,0.66667
0.59843,0.68225,4.7874,0.27337,14.835,100.06,-3.4899,1.1633,-1.7336,-4.6533,-1.1187e-12,-0.86679,0,0,0.125,-0,-0,0.66667
0.38411,0.18432,3.0729,-0.47351,-34.279,213.07,3.8802,-1.2934,-1.2017,5.1736,2.0661e-12,-0.60086,0,0,0.125,-5.9212e-16,0,0.66667
0.14675,0.18052,1.174,-0.47922,-39.847,365.44,1.5003,-0.50008,-1.1819,2.0003,2.6172e-09,-0.59096,0,0,0.125,-1.4803e-16,0,0.66667
0.69688,0.70564,5.575,0.30847,13.39,60.059,-4.5859,1.5286,-1.6596,-6.1145,-7.4993e-12,-0.82982,0,0,0.125,-0,-0,0.66667
0.90581,0.105,7.2465,-0.5925,-8.9462,8.0646,11.449,-3.8165,-0.75426,15.266,-1.634e-08,-0.37713,0,0,0.125,-0,-0,0.66667
0.31811,0.035867,2.5449,-0.6962,-53.341,253.55,4.7246,-1.5749,-0.2756,6.2995,-1.0107e-12,-0.1378,0,0,0.125,-0,-0,0.66667
0.76649,0.77633,6.1319,0.41449,14.422,37.44,-6.7777,2.2592,-1.3918,-9.037,9.809e-12,-0.69588,0,0,0.125,-2.9606e-16,0,0.66667
0.2875,0.49678,2.3,-0.0048277,-0.37509,272.33,0.02961,-0.0098699,-1.9989,0.03948,9.7258e-12,-0.99945,0,0,0.125,7.4015e-17,0,0.66667
0.95723,0.087171,7.6578,-0.61924,-4.3089,3.0211,12.645,-4.2152,-0.63602,16.861,-3.5549e-06,-0.31801,0,0,0.125,-5.9212e-16,0,0.66667
0.70232,0.87702,5.6185,0.56552,24.313,58.665,-8.4731,2.8244,-0.86604,-11.297,-6.2972e-12,-0.43302,0,0,0.125,-0,3.5744e-17,0.66667
0.62502,0.99442,5.0001,0.74162,38.554,89.466,-9.8885,3.2962,-0.048018,-13.185,-2.1405e-13,-0.024009,0,0,0.125,-0,-0,0.66667
0.93073,0.56922,7.4459,0.10383,1.1254,4.0203,-2.0615,0.68717,-1.96,-2.7487,4.1491e-08,-0.98001,0,0,0.125,-0,-0,0.66667
0.26904,0.060942,2.1523,-0.65859,-52.044,284.58,3.78,-1.26,-0.45855,5.04,-5.2782e-12,-0.22927,0,0,0.125,2.5905e-16,0,0.66667
0.92362,0.47562,7.3889,-0.036571,-0.43726,4.7517,0.72059,-0.2402,-1.9966,0.96079,3.7792e-08,-0.99831,0,0,0.125,2.3685e-15,0,0.66667
0.67808,0.036546,5.4247,-0.69518,-31.989,67.967,10.056,-3.3521,-0.28035,13.408,3.7037e-13,-0.14017,0,0,0.125,-2.3685e-15,0,0.66667
0.77136,0.4331,6.1709,-0.10035,-3.4106,35.585,1.6513,-0.55044,-1.9631,2.2018,-3.1972e-11,-0.98157,0,0,0.125,-2.9606e-16,0,0.66667
0.57164,0.27649,4.5731,-0.33526,-19.104,112.46,4.0884,-1.3628,-1.599,5.4512,-3.384e-13,-0.79952,0,0,0.125,2.9606e-16,0,0.66667
0.8339,0.78749,6.6712,0.43123,11.04,20.224,-7.6716,2.5572,-1.3375,-10.229,1.2825e-09,-0.66874,0,0,0.125,-0,-0,0.66667
0.69828,0.39135,5.5863,-0.16297,-7.0353,59.381,2.4277,-0.80924,-1.904,3.237,3.3877e-12,-0.95201,0,0,0.125,1.1842e-15,0,0.66667
0.14661,0.36408,1.1729,-0.20388,-16.913,365.44,0.63765,-0.21255,-1.8503,0.8502,2.9504e-09,-0.92517,0,0,0.125,-1.4803e-16,0,0.66667
0.61246,0.20542,4.8997,-0.44187,-23.394,94.1,5.7734,-1.9245,-1.3054,7.6979,6.2261e-13,-0.6527,0,0,0.125,-0,-0,0.66667
0.27932,0.22966,2.2346,-0.40551,-31.736,277.72,2.4164,-0.80546,-1.4161,3.2218,-1.3479e-11,-0.70807,0,0,0.125,-0,-0,0.66667
0.91588,0.58691,7.327,0.13036,1.7191,5.7041,-2.5471,0.84905,-1.9381,-3.3962,1.0004e-08,-0.96905,0,0,0.125,-1.234e-15,0,0.66667
0.19823,0.49436,1.5859,-0.008458,-0.68845,330.64,0.035769,-0.011923,-1.9989,0.047691,1.9264e-10,-0.99943,0,0,0.125,-0,-0,0.66667
0.28572,0.16717,2.2857,-0.49924,-38.962,273.72,3.043,-1.0143,-1.1126,4.0573,-6.7544e-12,-0.55631,0,0,0.125,-0,-0,0.66667
0.047655,0.83148,0.38124,0.49722,42.17,433.44,-0.50549,0.1685,-1.123,-0.67399,-1.9156e-07,-0.56148,0,0,0.125,7.4015e-17,0,0.66667
0.44758,0.19944,3.5806,-0.45084,-30.597,176.55,4.3048,-1.4349,-1.2755,5.7397,-4.361e-13,-0.63776,0,0,0.125,-0,-0,0.66667
0.55759,0.7771,4.4607,0.41565,24.273,119.27,-4.9442,1.6481,-1.3851,-6.5923,-1.0671e-12,-0.69253,0,0,0.125,1.2183e-15,0,0.66667
0.57356,0.51667,4.5885,0.024998,1.4169,111.33,-0.30588,0.10196,-1.9964,-0.40784,-8.7716e-13,-0.99819,0,0,0.125,-0,-0,0.66667
0.90538,0.20224,7.243,-0.44664,-6.7034,7.634,8.6268,-2.8756,-1.2925,11.502,-2.6383e-08,-0.64626,0,0,0.125,-0,-0,0.66667
0.34741,0.90464,2.7793,0.60696,45.42,235.34,-4.4985,1.4995,-0.69067,-5.998,1.7373e-12,-0.34534,0,0,0.125,-1.4803e-16,0,0.66667
0.44753,0.45731,3.5802,-0.06404,-4.3331,176.26,0.6114,-0.2038,-1.9837,0.81521,-6.6763e-13,-0.99183,0,0,0.125,-0,-0,0.66667
0.85124,0.61128,6.8099,0.16691,3.83,16.129,-3.0311,1.0104,-1.8987,-4.0415,2.7638e-09,-0.94934,0,0,0.125,-0,-0,0.66667
0.57683,0.091069,4.6146,-0.6134,-34.808,110.57,7.5483,-2.5161,-0.6647,10.064,9.4591e-14,-0.33235,0,0,0.125,-4.4409e-16,0,0.66667
0.65399,0.08345,5.2319,-0.62483,-30.402,77.132,8.7175,-2.9058,-0.61241,11.623,2.0339e-13,-0.30621,0,0,0.125,-5.9212e-16,-1.3084e-16,0.66667
0.27836,0.55505,2.2269,0.082573,6.4527,278.18,-0.49035,0.16345,-1.976,-0.6538,3.2304e-12,-0.98799,0,0,0.125,2.9606e-16,0,0.66667
0.48747,0.0074161,3.8998,-0.73888,-48.055,155.44,7.6839,-2.5613,-0.058952,10.245,-7.514e-13,-0.029476,0,0,0.125,2.3685e-15,0,0.66667
0.62095,0.24362,4.9676,-0.38457,-19.998,90.313,5.0944,-1.6981,-1.4737,6.7925,1.1147e-13,-0.73683,0,0,0.125,-0,-0,0.66667
0.13339,0.17423,1.0672,-0.48866,-40.793,374.52,1.3906,-0.46353,-1.1487,1.8541,6.4231e-09,-0.57437,0,0,0.125,-0,-0,0.66667
0.032909,0.9427,0.26327,0.66404,56.52,443.67,-0.4662,0.1554,-0.43386,-0.6216,1.6455e-06,-0.21693,0,0,0.125,7.4015e-17,0,0.66667
0.11341,0.72853,0.90729,0.3428,28.718,388.12,-0.82938,0.27646,-1.5813,-1.1058,-1.4422e-08,-0.79067,0,0,0.125,-0,-0,0.66667
0.47746,0.4321,3.8197,-0.10185,-6.6515,159.87,1.0374,-0.34581,-1.9616,1.3832,1.1852e-12,-0.98081,0,0,0.125,-0,-0,0.66667
0.024027,0.41009,0.19221,-0.13487,-11.426,449.77,0.069128,-0.023043,-1.934,0.09217,2.6701e-08,-0.96701,0,0,0.125,7.4015e-17,0,0.66667
0.62621,0.93658,5.0097,0.65487,33.878,88.689,-8.7485,2.9162,-0.47812,-11.665,-6.91e-13,-0.23906,0,0,0.125,2.2204e-16,0,0.66667
0.097583,0.47113,0.78066,-0.043299,-3.6345,398.93,0.090139,-0.030046,-1.9936,0.12018,4.6206e-09,-0.9968,0,0,0.125,-0,-0,0.66667
0.25096,0.46193,2.0077,-0.057099,-4.5324,295.88,0.3057,-0.1019,-1.9907,0.4076,-9.7186e-13,-0.99533,0,0,0.125,1.4803e-16,0,0.66667
0.42649,0.58072,3.4119,0.12108,8.3843,188.13,-1.1017,0.36723,-1.9465,-1.4689,-5.0127e-13,-0.97324,0,0,0.125,-5.9212e-16,0,0.66667
0.11583,0.15506,0.92661,-0.51741,-43.401,386.52,1.2785,-0.42616,-1.0475,1.7047,-8.3509e-10,-0.52373,0,0,0.125,-1.8504e-16,0,0.66667
0.27055,0.64958,2.1644,0.22436,17.625,283.24,-1.295,0.43166,-1.82,-1.7266,9.0038e-12,-0.90999,0,0,0.125,6.0429e-16,0,0.66667
0.02108,0.41103,0.16864,-0.13346,-11.308,451.82,0.060018,-0.020006,-1.9357,0.080024,-9.5577e-09,-0.96783,0,0,0.125,-0,-0,0.66667
0.98505,0.91164,7.8804,0.61746,1.448,1.6567,-12.975,4.3251,-0.64721,-17.301,5.3285e-06,-0.3236,0,0,0.125,-2.3685e-15,0,0.66667
0.61157,0.91266,4.8926,0.61899,32.949,94.897,-8.0759,2.692,-0.63869,-10.768,-5.8531e-13,-0.31934,0,0,0.125,-0,-0,0.66667
0.37835,0.31733,3.0268,-0.27401,-19.897,216.29,2.2117,-0.73723,-1.7332,2.9489,-4.1611e-13,-0.86662,0,0,0.125,-0,-0,0.66667
0.026528,0.47707,0.21223,-0.034398,-2.9132,448.04,0.019467,-0.0064893,-1.9947,0.025956,-3.1162e-07,-0.99734,0,0,0.125,-0,-0,0.66667
0.38984,0.1005,3.1187,-0.59925,-43.238,209.88,4.9837,-1.6612,-0.72565,6.645,1.8412e-12,-0.36282,0,0,0.125,-0,-1.0026e-16,0.66667
0.45256,0.60277,3.6205,0.15416,10.374,173.5,-1.4883,0.49611,-1.918,-1.9845,-5.9941e-13,-0.95899,0,0,0.125,-0,-0,0.66667
0.931,0.20014,7.448,-0.44978,-4.9457,4.6268,8.9334,-2.9778,-1.2786,11.911,-9.0602e-08,-0.6393,0,0,0.125,-0,-0,0.66667
0.2785,0.23484,2.228,-0.39774,-31.141,278.23,2.3631,-0.78771,-1.4374,3.1508,-1.4071e-11,-0.71871,0,0,0.125,-0,-0,0.66667
0.61478,0.45624,4.9183,-0.065639,-3.4462,92.67,0.86088,-0.28696,-1.9829,1.1478,-3.9202e-13,-0.99147,0,0,0.125,-0,-0,0.66667
0.66517,0.4662,5.3213,-0.050705,-2.383,71.794,0.71951,-0.23984,-1.9899,0.95935,2.8177e-13,-0.99493,0,0,0.125,1.3323e-15,0,0.66667
0.18596,0.22814,1.4877,-0.40778,-33.427,338.96,1.6177,-0.53925,-1.4101,2.157,3.4766e-10,-0.70504,0,0,0.125,-0,-0,0.66667
0.50576,0.12311,4.0461,-0.56534,-35.76,145.46,6.0998,-2.0333,-0.86299,8.133,-6.6169e-14,-0.4315,0,0,0.125,-7.4015e-17,0,0.66667
0.7865,0.58694,6.292,0.13041,4.1709,31.37,-2.1882,0.72939,-1.9383,-2.9176,9.0826e-11,-0.96916,0,0,0.125,-5.9212e-16,0,0.66667
0.096579,0.3125,0.77263,-0.28125,-23.635,399.65,0.57947,-0.19316,-1.7203,0.77263,2.1567e-08,-0.86014,0,0,0.125,2.9606e-16,0,0.66667
0.60604,0.021674,4.8483,-0.71749,-38.703,97.615,9.2762,-3.0921,-0.16929,12.368,1.652e-13,-0.084647,0,0,0.125,1.1842e-15,1.2584e-16,0.66667
0.02606,0.10322,0.20848,-0.59518,-50.625,448.4,0.33089,-0.1103,-0.73904,0.44118,-6.1293e-06,-0.36952,0,0,0.125,-0,-0,0.66667
0.0070467,0.81731,0.056374,0.47597,40.448,461.56,-0.071552,0.02385,-1.1931,-0.095403,-8.9442e-07,-0.59653,0,0,0.125,-0,-0,0.66667
0.059529,0.029081,0.47623,-0.70638,-60.017,425.29,0.89706,-0.29903,-0.22685,1.1961,-8.0695e-06,-0.11343,0,0,0.125,-0,-0,0.66667
0.4814,0.75066,3.8512,0.376,24.485,157.98,-3.8614,1.2871,-1.4986,-5.1486,1.642e-12,-0.7493,0,0,0.125,-1.1842e-15,0,0.66667
0.9257,0.30437,7.4056,-0.29345,-3.4377,4.8003,5.7952,-1.9317,-1.6933,7.7269,-3.2135e-08,-0.84663,0,0,0.125,-0,-0,0.66667
0.40556,0.40507,3.2445,-0.1424,-10.073,200.2,1.232,-0.41067,-1.9314,1.6427,-1.7238e-12,-0.96569,0,0,0.125,3.7007e-17,0,0.66667
0.075033,0.5209,0.60026,0.031349,2.6418,414.47,-0.05018,0.016727,-1.9963,-0.066907,-2.4257e-08,-0.99815,0,0,0.125,-0,-0,0.66667
0.86135,0.6872,6.8908,0.2808,6.043,14.329,-5.1599,1.72,-1.7219,-6.8799,5.5437e-09,-0.86094,0,0,0.125,-2.5905e-16,0,0.66667
0.5193,0.30955,4.1544,-0.28568,-17.662,138.07,3.1649,-1.055,-1.7101,4.2198,3.2929e-13,-0.85505,0,0,0.125,7.4015e-16,0,0.66667
0.31894,0.62751,2.5515,0.19127,14.557,252.53,-1.3014,0.43379,-1.869,-1.7352,-2.5987e-12,-0.93449,0,0,0.125,1.1842e-15,0,0.66667
0.96303,0.80991,7.7043,0.46486,2.7116,2.0804,-9.5504,3.1835,-1.2309,-12.734,-4.8546e-08,-0.61546,0,0,0.125,-2.9606e-16,0,0.66667
0.93826,0.4091,7.5061,-0.13635,-1.3154,3.3102,2.7292,-0.90974,-1.937,3.639,-2.0621e-08,-0.96849,0,0,0.125,-0,-0,0.66667
0.26002,0.97233,2.0802,0.7085,56.326,290.46,-3.9301,1.31,-0.21434,-5.2401,1.6521e-11,-0.10717,0,0,0.125,-0,-0,0.66667
0.20139,0.64727,1.6111,0.22091,17.968,328.57,-0.94909,0.31636,-1.8276,-1.2655,-1.93e-10,-0.91382,0,0,0.125,-1.4803e-16,0,0.66667
0.58891,0.78847,4.7113,0.4327,23.95,104.61,-5.4362,1.8121,-1.3332,-7.2483,-5.0093e-13,-0.66661,0,0,0.125,-0,-0,0.66667
0.84252,0.0061131,6.7401,-0.74083,-18.333,19.471,13.315,-4.4385,-0.050629,17.754,2.1418e-09,-0.025314,0,0,0.125,4.737e-15,0,0.66667
0.33672,0.21691,2.6938,-0.42464,-31.959,241.66,3.0503,-1.0168,-1.3579,4.0671,-1.4342e-12,-0.67897,0,0,0.125,-7.4015e-16,0,0.66667
0.58643,0.57577,4.6914,0.11366,6.2987,105.38,-1.4219,0.47398,-1.9518,-1.8959,-6.2172e-14,-0.97591,0,0,0.125,-0,-0,0.66667
0.16224,0.9534,1.298,0.6801,56.437,355.08,-2.354,0.78466,-0.3534,-3.1386,2.407e-09,-0.1767,0,0,0.125,-0,-0,0.66667
0.19459,0.060445,1.5567,-0.65933,-54.045,333.37,2.7371,-0.91237,-0.45336,3.6495,-7.0228e-10,-0.22668,0,0,0.125,7.4015e-17,0,0.66667
0.76134,0.9671,6.0907,0.70065,25.081,39.825,-11.38,3.7933,-0.25468,-15.173,1.7071e-12,-0.12734,0,0,0.125,1.4803e-15,0,0.66667
0.1501,0.4822,1.2008,-0.026707,-2.2121,363.05,0.085517,-0.028506,-1.9954,0.11402,-1.442e-11,-0.99771,0,0,0.125,2.9606e-16,0,0.66667
0.26591,0.28937,2.1273,-0.31595,-24.903,286.28,1.7923,-0.59742,-1.648,2.3897,-1.4048e-11,-0.824,0,0,0.125,-0,-0,0.66667
0.68949,0.45338,5.516,-0.06993,-3.09,62.537,1.0286,-0.34287,-1.9832,1.3715,1.728e-12,-0.9916,0,0,0.125,-1.1842e-15,0,0.66667
0.015089,0.70277,0.12071,0.30415,25.8,455.98,-0.097909,0.032636,-1.6733,-0.13055,-1.3604e-08,-0.83665,0,0,0.125,-0,-0,0.66667
0.032194,0.21036,0.25756,-0.43446,-36.867,444.13,0.2984,-0.099465,-1.3309,0.39786,-4.0494e-07,-0.66547,0,0,0.125,-3.7007e-17,0,0.66667
0.28753,0.13666,2.3002,-0.54502,-42.513,272.61,3.3431,-1.1144,-0.94185,4.4574,-8.7901e-12,-0.47092,0,0,0.125,-0,-0,0.66667
0.33662,0.26819,2.693,-0.34771,-26.15,241.65,2.497,-0.83234,-1.5679,3.3293,-2.3275e-12,-0.78395,0,0,0.125,-0,-0,0.66667
0.36222,0.8167,2.8977,0.47505,35.053,226.17,-3.6708,1.2236,-1.1983,-4.8944,6.3882e-13,-0.59917,0,0,0.125,-0,-0,0.66667
0.80719,0.88738,6.4575,0.58106,17.142,26.902,-10.006,3.3353,-0.79782,-13.341,2.136e-10,-0.39891,0,0,0.125,-0,-0,0.66667
0.035981,0.10633,0.28785,-0.59051,-50.194,441.53,0.45327,-0.15109,-0.75873,0.60437,1.183e-06,-0.37937,0,0,0.125,-0,-0,0.66667
0.3584,0.41538,2.8672,-0.12693,-9.3684,228.21,0.9705,-0.3235,-1.9447,1.294,-1.471e-12,-0.97234,0,0,0.125,-0,-0,0.66667
0.63828,0.69615,5.1062,0.29422,14.733,82.848,-4.0063,1.3354,-1.6928,-5.3418,-3.1868e-12,-0.84639,0,0,0.125,1.1842e-15,0,0.66667
0.143,0.43995,1.144,-0.09007,-7.477,367.87,0.27478,-0.091594,-1.9726,0.36638,2.7175e-09,-0.98629,0,0,0.125,-0,-0,0.66667
0.85774,0.92906,6.8619,0.64359,14.416,16.036,-11.777,3.9256,-0.52855,-15.702,-1.0757e-08,-0.26428,0,0,0.125,-0,-1.1671e-16,0.66667
0.64556,0.89482,5.1645,0.59223,29.345,80.449,-8.1562,2.7187,-0.75146,-10.875,-4.0856e-13,-0.37573,0,0,0.125,-5.9212e-16,0,0.66667
0.11529,0.65348,0.92235,0.23022,19.262,386.8,-0.56624,0.18875,-1.8107,-0.75499,-1.1465e-08,-0.90536,0,0,0.125,3.7007e-17,0,0.66667
0.2081,0.95595,1.6648,0.68393,55.768,324.42,-3.0363,1.0121,-0.33529,-4.0483,-8.0039e-11,-0.16764,0,0,0.125,-0,-0,0.66667
0.7455,0.23223,5.964,-0.40166,-15.059,43.778,6.388,-2.1293,-1.425,8.5173,1.4002e-11,-0.71252,0,0,0.125,-0,-0,0.66667
0.40341,0.77653,3.2273,0.41479,29.468,201.67,-3.5697,1.1899,-1.3889,-4.7596,1.716e-12,-0.69444,0,0,0.125,-6.4931e-16,0,0.66667
0.48447,0.70486,3.8758,0.30728,19.918,156.26,-3.1759,1.0586,-1.6671,-4.2345,-1.0605e-12,-0.83354,0,0,0.125,5.9212e-16,0,0.66667
0.88746,0.48642,7.0996,-0.020371,-0.35739,9.5993,0.38568,-0.12856,-1.9981,0.51423,-1.708e-09,-0.99904,0,0,0.125,1.1842e-15,0,0.66667
0.13744,0.35178,1.0995,-0.22233,-18.496,371.67,0.65191,-0.2173,-1.8242,0.86921,4.8202e-09,-0.91209,0,0,0.125,-0,-0,0.66667
0.96437,0.15595,7.715,-0.51608,-2.9235,2.1733,10.617,-3.5392,-1.0534,14.157,-9.7531e-08,-0.52668,0,0,0.125,-3.7007e-16,0,0.66667
0.04263,0.63231,0.34104,0.19847,16.798,436.88,-0.18049,0.060165,-1.8592,-0.24066,5.0996e-08,-0.92961,0,0,0.125,-0,-0,0.66667
0.09944,0.69079,0.79552,0.28618,24.037,397.69,-0.6071,0.20237,-1.7079,-0.80947,-2.1039e-08,-0.85397,0,0,0.125,-0,-0,0.66667
0.22324,0.15437,1.7859,-0.51845,-41.878,314.26,2.4691,-0.82302,-1.0443,3.2921,1.4549e-11,-0.52214,0,0,0.125,4.4409e-16,0,0.66667
0.80659,0.14196,6.4527,-0.53706,-15.861,26.911,9.2412,-3.0804,-0.97248,12.322,7.8066e-11,-0.48624,0,0,0.125,-0,-0,0.66667
0.45587,0.70461,3.647,0.30691,20.598,171.78,-2.9848,0.99494,-1.665,-3.9798,-2.8533e-13,-0.83249,0,0,0.125,-0,-0,0.66667
0.65325,0.76015,5.226,0.39022,18.923,76.877,-5.4382,1.8127,-1.4585,-7.2509,-2.2249e-12,-0.72923,0,0,0.125,-0,-0,0.66667
0.17432,0.64782,1.3946,0.22173,18.228,346.7,-0.82456,0.27485,-1.8257,-1.0994,-9.3067e-10,-0.91286,0,0,0.125,-1.4803e-16,0,0.66667
0.16672,0.18163,1.3338,-0.47756,-39.454,351.93,1.6986,-0.56619,-1.1881,2.2647,5.0097e-10,-0.59403,0,0,0.125,2.4675e-16,0,0.66667
0.52085,0.11611,4.1668,-0.57583,-35.669,137.74,6.3983,-2.1328,-0.81964,8.531,1.263e-12,-0.40982,0,0,0.125,-0,-0,0.66667
0.74029,0.50936,5.9223,0.014033,0.53302,45.002,-0.22161,0.073872,-1.9976,-0.29549,1.8501e-12,-0.99879,0,0,0.125,-0,-0,0.66667
0.46247,0.45731,3.6998,-0.064035,-4.2585,168,0.63178,-0.21059,-1.9834,0.84237,-1.4105e-13,-0.99172,0,0,0.125,-5.9212e-16,0,0.66667
0.86961,0.95095,6.9569,0.67642,13.997,13.994,-12.549,4.183,-0.37139,-16.732,-6.1302e-09,-0.18569,0,0,0.125,1.1842e-15,0,0.66667
0.66041,0.42284,5.2833,-0.11573,-5.5027,73.694,1.6305,-0.54351,-1.9512,2.1741,7.7927e-13,-0.97561,0,0,0.125,-0,-0,0.66667
0.24909,0.48536,1.9927,-0.021962,-1.745,297.09,0.11671,-0.038902,-2.0001,0.15561,-1.3222e-12,-1,0,0,0.125,-2.9606e-16,0,0.66667
0.2349,0.11236,1.8792,-0.58147,-46.745,306.65,2.9139,-0.97129,-0.80014,3.8852,-5.165e-11,-0.40007,0,0,0.125,-2.9606e-16,0,0.66667
0.37405,0.95986,2.9924,0.6898,50.565,219.4,-5.5043,1.8348,-0.31023,-7.3391,4.5386e-13,-0.15511,0,0,0.125,-2.9606e-16,0,0.66667
0.75662,0.29089,6.0529,-0.31367,-11.292,40.181,5.063,-1.6877,-1.6482,6.7506,1.4142e-11,-0.82412,0,0,0.125,-0,-0,0.66667
0.93794,0.59003,7.5035,0.13505,1.3098,3.3392,-2.7022,0.90072,-1.9385,-3.6029,1.691e-08,-0.96924,0,0,0.125,-1.4803e-15,0,0.66667
0.86191,0.86889,6.8952,0.55334,11.994,14.922,-10.174,3.3915,-0.91206,-13.566,-3.2897e-09,-0.45603,0,0,0.125,-1.7764e-15,0,0.66667
0.26161,0.10899,2.0929,-0.58651,-46.491,289.28,3.2733,-1.0911,-0.77583,4.3644,-1.2191e-11,-0.38792,0,0,0.125,-5.9212e-16,0,0.66667
0.41228,0.82737,3.2982,0.49105,34.617,196.62,-4.3189,1.4396,-1.1406,-5.7586,2.3941e-12,-0.57031,0,0,0.125,-5.9212e-16,0,0.66667
0.61154,0.33883,4.8924,-0.24176,-12.788,94.204,3.1541,-1.0514,-1.7934,4.2054,-1.2588e-12,-0.8967,0,0,0.125,-5.9212e-16,0,0.66667
0.54683,0.62379,4.3747,0.18569,11.006,124.22,-2.1663,0.72208,-1.8817,-2.8883,-1.3745e-12,-0.94085,0,0,0.125,1.7023e-15,0,0.66667
0.38927,0.98299,3.1142,0.72448,52.426,210.44,-6.0165,2.0055,-0.13505,-8.022,4.4809e-13,-0.067523,0,0,0.125,5.9212e-16,0,0.66667
0.10142,0.62979,0.81137,0.19469,16.337,396.31,-0.42124,0.14041,-1.8637,-0.56166,-1.7129e-08,-0.93187,0,0,0.125,2.9606e-16,0,0.66667
0.71224,0.91716,5.698,0.62575,26.198,55.358,-9.5079,3.1693,-0.60579,-12.677,-1.8812e-12,-0.30289,0,0,0.125,-0,-0,0.66667
0.088135,0.25882,0.70508,-0.36176,-30.469,405.48,0.68019,-0.22673,-1.5331,0.90693,3.0172e-08,-0.76655,0,0,0.125,-0,-0,0.66667
0.86608,0.13337,6.9286,-0.54994,-11.58,14.146,10.161,-3.387,-0.92284,13.548,2.4336e-09,-0.46142,0,0,0.125,2.3685e-15,0,0.66667
0.86345,0.45144,6.9076,-0.072843,-1.5396,13.714,1.3418,-0.44726,-1.98,1.789,-1.8963e-09,-0.99002,0,0,0.125,1.1842e-15,0,0.66667
0.70845,0.56295,5.6676,0.094423,3.9592,55.715,-1.4271,0.47569,-1.9681,-1.9028,-4.7251e-12,-0.98407,0,0,0.125,2.3685e-15,0,0.66667
0.48642,0.019851,3.8914,-0.72022,-46.885,155.95,7.4738,-2.4913,-0.15631,9.9651,1.7621e-12,-0.078153,0,0,0.125,-1.1842e-15,0,0.66667
0.69915,0.99142,5.5932,0.73713,32.14,60.354,-10.994,3.6648,-0.067343,-14.659,-1.3136e-12,-0.033672,0,0,0.125,1.7764e-15,0,0.66667
0.39499,0.35642,3.1599,-0.21538,-15.396,206.41,1.8148,-0.60495,-1.8338,2.4198,-7.4052e-14,-0.91692,0,0,0.125,-5.9212e-16,0,0.66667
0.7975,0.047867,6.38,-0.6782,-20.994,29.704,11.538,-3.8461,-0.36672,15.384,5.2133e-10,-0.18336,0,0,0.125,1.1842e-15,0,0.66667
0.78642,0.17392,6.2913,-0.48912,-15.761,32.014,8.2058,-2.7353,-1.1477,10.941,-5.4445e-13,-0.57386,0,0,0.125,-1.1842e-15,0,0.66667
0.15553,0.89369,1.2442,0.59053,49.042,359.56,-1.9593,0.65311,-0.76214,-2.6125,3.5389e-09,-0.38107,0,0,0.125,-4.8024e-16,1.4235e-16,0.66667
0.31782,0.39291,2.5425,-0.16064,-12.234,253.21,1.0891,-0.36304,-1.9065,1.4522,-3.1625e-12,-0.95326,0,0,0.125,-0,-0,0.66667
0.34398,0.73087,2.7519,0.3463,25.895,237.13,-2.5413,0.84709,-1.5763,-3.3884,1.4675e-12,-0.78814,0,0,0.125,-5.9212e-16,0,0.66667
0.36417,0.16084,2.9134,-0.50873,-37.494,225.04,3.9523,-1.3174,-1.0791,5.2698,6.5103e-13,-0.53955,0,0,0.125,-0,-0,0.66667
0.56665,0.61345,4.5332,0.17017,9.7643,114.65,-2.0571,0.68569,-1.896,-2.7428,-8.1868e-13,-0.948,0,0,0.125,-0,-0,0.66667
0.041687,0.76339,0.3335,0.39508,33.489,437.55,-0.35136,0.11712,-1.4433,-0.46848,3.995e-08,-0.72166,0,0,0.125,-0,-0,0.66667
0.65997,0.70672,5.2798,0.31009,14.786,74.063,-4.3658,1.4553,-1.6573,-5.8211,-3.4333e-12,-0.82867,0,0,0.125,-0,-0,0.66667
0.20163,0.8168,1.6131,0.4752,38.736,328.54,-2.0441,0.68136,-1.1991,-2.7254,3.9825e-11,-0.59954,0,0,0.125,-0,-0,0.66667
0.41646,0.2235,3.3317,-0.41476,-29.086,194.11,3.6849,-1.2283,-1.3874,4.9132,-1.1946e-13,-0.69369,0,0,0.125,-0,-0,0.66667
0.45089,0.16681,3.6071,-0.49979,-33.816,174.78,4.8075,-1.6025,-1.1124,6.41,-6.4837e-13,-0.55619,0,0,0.125,-0,-0,0.66667
0.34873,0.88002,2.7898,0.57003,42.587,234.48,-4.2407,1.4136,-0.84385,-5.6543,2.4158e-13,-0.42192,0,0,0.125,-0,-0,0.66667
0.38328,0.36035,3.0662,-0.20947,-15.136,213.32,1.7128,-0.57093,-1.8417,2.2837,-2.8022e-13,-0.92085,0,0,0.125,5.9212e-16,0,0.66667
0.18031,0.54288,1.4424,0.064326,5.2734,342.65,-0.24743,0.082477,-1.9831,-0.32991,-3.8291e-10,-0.99156,0,0,0.125,2.9606e-16,0,0.66667
0.06813,0.81761,0.54504,0.47642,40.3,419.29,-0.69245,0.23082,-1.1918,-0.92327,-1.0863e-07,-0.59592,0,0,0.125,-0,-0,0.66667
0.55126,0.16418,4.4101,-0.50373,-29.761,122.49,5.924,-1.9747,-1.0969,7.8986,2.025e-13,-0.54845,0,0,0.125,-1.1842e-15,0,0.66667
0.59587,0.4447,4.7669,-0.082947,-4.5172,101.07,1.0544,-0.35147,-1.9765,1.4059,-1.486e-12,-0.98825,0,0,0.125,-0,-0,0.66667
0.1455,0.37933,1.164,-0.181,-15.019,366.19,0.56184,-0.18728,-1.8828,0.74912,3.0424e-09,-0.94142,0,0,0.125,-5.9212e-16,0,0.66667
0.23094,0.15872,1.8475,-0.51192,-41.195,309.19,2.5221,-0.8407,-1.0688,3.3628,8.7312e-11,-0.53438,0,0,0.125,-5.9212e-16,0,0.66667
0.28638,0.74191,2.291,0.36287,28.263,273.18,-2.2169,0.73896,-1.5305,-2.9558,6.9771e-12,-0.76527,0,0,0.125,2.9606e-16,0,0.66667
0.83075,0.99515,6.646,0.74273,19.63,21.999,-13.163,4.3877,-0.039394,-17.551,1.0201e-09,-0.019697,0,0,0.125,5.9212e-16,0,0.66667
0.15342,0.031936,1.2274,-0.7021,-58.451,361.06,2.2979,-0.76598,-0.2487,3.0639,-4.3971e-09,-0.12435,0,0,0.125,-0,-0,0.66667
0.55214,0.032638,4.4171,-0.70104,-41.533,122.53,8.2576,-2.7525,-0.25225,11.01,1.4708e-12,-0.12612,0,0,0.125,-2.3685e-15,0,0.66667
0.56814,0.19799,4.5451,-0.45302,-26.012,114.3,5.4907,-1.8302,-1.2686,7.321,-4.2988e-13,-0.63429,0,0,0.125,-0,-0,0.66667
0.34342,0.76378,2.7474,0.39568,29.616,237.52,-2.8988,0.96628,-1.4458,-3.8651,8.7397e-13,-0.72292,0,0,0.125,-0,-0,0.66667
0.35062,0.99772,2.8049,0.74658,55.872,233.62,-5.5843,1.8614,-0.017224,-7.4457,8.1934e-13,-0.0086122,0,0,0.125,1.8504e-15,0,0.66667
0.95911,0.57855,7.6729,0.11782,0.73832,1.6364,-2.4107,0.80356,-1.9486,-3.2142,4.9652e-08,-0.97431,0,0,0.125,-0,-0,0.66667
0.55334,0.21879,4.4268,-0.42181,-24.805,121.33,4.9793,-1.6598,-1.3669,6.6391,-1.8732e-12,-0.68347,0,0,0.125,-0,-0,0.66667
0.65273,0.84955,5.2218,0.52433,25.523,77.37,-7.3012,2.4337,-1.0225,-9.735,-1.3967e-12,-0.51123,0,0,0.125,-0,-0,0.66667
0.49074,0.44587,3.9259,-0.081192,-5.2131,152.78,0.85001,-0.28334,-1.9748,1.1334,-1.0087e-12,-0.9874,0,0,0.125,1.1842e-15,0,0.66667
0.64665,0.085672,5.1732,-0.62149,-30.744,80.088,8.5736,-2.8579,-0.62502,11.431,-3.8014e-13,-0.31251,0,0,0.125,-0,-0,0.66667
0.60525,0.7387,4.842,0.35805,19.2,97.13,-4.6231,1.541,-1.5432,-6.1642,-2.3883e-12,-0.77158,0,0,0.125,5.9212e-16,0,0.66667
0.14517,0.082599,1.1614,-0.6261,-52.191,366.59,1.9391,-0.64635,-0.60496,2.5854,2.4773e-09,-0.30248,0,0,0.125,-1.4803e-16,0,0.66667
0.33468,0.095343,2.6774,-0.60699,-45.872,243.14,4.3338,-1.4446,-0.68923,5.7784,-3.793e-12,-0.34461,0,0,0.125,-0,-0,0.66667
0.46043,0.92953,3.6835,0.64429,43.225,169.79,-6.3286,2.1095,-0.52219,-8.4381,-9.4236e-13,-0.26109,0,0,0.125,-0,-0,0.66667
0.12782,0.81493,1.0226,0.47239,39.486,378.31,-1.2881,0.42938,-1.2076,-1.7175,-6.5469e-09,-0.6038,0,0,0.125,2.9606e-16,0,0.66667
0.36307,0.98364,2.9046,0.72547,53.719,226.04,-5.6191,1.873,-0.12785,-7.4922,-8.4066e-13,-0.063923,0,0,0.125,-0,-0,0.66667
0.22814,0.20279,1.8251,-0.44581,-35.894,310.98,2.1698,-0.72326,-1.2913,2.893,-1.9073e-11,-0.64563,0,0,0.125,-2.9606e-16,0,0.66667
0.8475,0.71505,6.78,0.32258,7.602,17.111,-5.8323,1.9441,-1.6301,-7.7764,2.8297e-09,-0.81506,0,0,0.125,-2.9606e-16,0,0.66667
0.34147,0.44094,2.7318,-0.08859,-6.6272,238.53,0.64536,-0.21512,-1.9734,0.86048,-2.5365e-12,-0.98672,0,0,0.125,-0,-0,0.66667
0.22679,0.76364,1.8143,0.39547,31.844,311.83,-1.9133,0.63778,-1.4417,-2.5511,-1.9477e-11,-0.72083,0,0,0.125,-0,-0,0.66667
0.40818,0.28952,3.2655,-0.31572,-22.301,198.79,2.7493,-0.91642,-1.6466,3.6657,-7.3941e-13,-0.8233,0,0,0.125,-0,-0,0.66667
0.68306,0.37592,5.4645,-0.18612,-8.37,65.004,2.7121,-0.90404,-1.877,3.6161,1.5228e-12,-0.93851,0,0,0.125,2.3685e-15,0,0.66667
0.065622,0.75153,0.52498,0.3773,31.893,421,-0.52819,0.17606,-1.4948,-0.70426,-5.2824e-08,-0.74741,0,0,0.125,-0,-0,0.66667
0.18073,0.67955,1.4458,0.26933,22.095,342.41,-1.0384,0.34614,-1.7403,-1.3845,-7.0886e-10,-0.87014,0,0,0.125,2.9606e-16,0,0.66667
0.69431,0.14693,5.5545,-0.5296,-23.252,61.45,7.8444,-2.6148,-1.0008,10.459,3.2037e-12,-0.5004,0,0,0.125,-0,-0,0.66667
0.75226,0.021328,6.0181,-0.71801,-26.563,42.626,11.523,-3.8409,-0.16754,15.364,-3.1434e-11,-0.083771,0,0,0.125,1.1842e-15,0,0.66667
0.61775,0.20667,4.942,-0.43999,-23.049,91.794,5.7986,-1.9329,-1.3095,7.7314,8.4333e-13,-0.65474,0,0,0.125,-0,-0,0.66667
0.8792,0.47542,7.0336,-0.036873,-0.69284,10.934,0.6916,-0.23053,-1.9945,0.92214,-6.8228e-09,-0.99727,0,0,0.125,2.3685e-15,0,0.66667
0.1688,0.90146,1.3504,0.6022,49.798,350.61,-2.1686,0.72285,-0.71104,-2.8914,-6.418e-09,-0.35552,0,0,0.125,1.7396e-16,-1.0617e-16,0.66667
0.70355,0.018279,5.6284,-0.72258,-31.109,58.733,10.845,-3.6151,-0.14596,14.46,2.319e-12,-0.07298,0,0,0.125,-2.3685e-15,0,0.66667
0.91726,0.070885,7.3381,-0.64367,-8.6143,6.8335,12.596,-4.1985,-0.52581,16.794,-1.8004e-07,-0.26291,0,0,0.125,-0,-0,0.66667
0.15074,0.52781,1.2059,0.041709,3.4541,362.61,-0.13413,0.044709,-1.993,-0.17884,-2.3422e-09,-0.9965,0,0,0.125,-2.9606e-16,0,0.66667
0.24376,0.012721,1.9501,-0.73092,-58.644,301.03,3.801,-1.267,-0.09844,5.068,2.7924e-11,-0.04922,0,0,0.125,-0,-0,0.66667
0.54668,0.99856,4.3735,0.74785,44.741,125.31,-8.7218,2.9073,-0.015535,-11.629,-1.8359e-12,-0.0077677,0,0,0.125,2.2945e-15,0,0.66667
0.34412,0.48962,2.753,-0.01557,-1.1622,236.9,0.1143,-0.0381,-2.0018,0.1524,1.0481e-13,-1.0009,0,0,0.125,-2.9606e-16,0,0.66667
0.69064,0.82371,5.5251,0.48556,21.507,62.682,-7.1541,2.3847,-1.1614,-9.5388,-4.2668e-12,-0.58069,0,0,0.125,-0,-0,0.66667
0.057568,0.96696,0.46054,0.70045,59.521,426.64,-0.86023,0.28675,-0.2553,-1.147,9.0025e-06,-0.12765,0,0,0.125,-8.3267e-17,0,0.66667
0.16076,0.2414,1.2861,-0.3879,-32.079,355.91,1.3303,-0.44345,-1.464,1.7738,1.8363e-09,-0.732,0,0,0.125,1.4803e-16,0,0.66667
0.71624,0.22011,5.7299,-0.41983,-17.279,53.434,6.415,-2.1383,-1.3748,8.5533,1.0557e-11,-0.68741,0,0,0.125,-0,-0,0.66667
0.97062,0.96997,7.7649,0.70495,3.4351,2.6315,-14.597,4.8657,-0.23522,-19.463,-2.9285e-05,-0.11761,0,0,0.125,-2.3685e-15,0,0.66667
0.92955,0.34051,7.4364,-0.23924,-2.6498,4.2962,4.7443,-1.5814,-1.7953,6.3257,-8.1563e-09,-0.89763,0,0,0.125,-0,-0,0.66667
0.90107,0.20697,7.2085,-0.43954,-6.8859,8.2016,8.4491,-2.8164,-1.3115,11.266,-2.5461e-08,-0.65574,0,0,0.125,-0,-0,0.66667
0.12774,0.17241,1.0219,-0.49138,-41.084,378.37,1.3391,-0.44637,-1.1414,1.7855,6.3589e-09,-0.57069,0,0,0.125,-0,-0,0.66667
0.14593,0.30722,1.1674,-0.28918,-24.007,365.92,0.90025,-0.30008,-1.7017,1.2003,3.7857e-09,-0.85083,0,0,0.125,-2.2204e-16,0,0.66667
0.072265,0.42631,0.57812,-0.11053,-9.3194,416.38,0.1704,-0.056799,-1.9547,0.2272,4.0804e-08,-0.97736,0,0,0.125,-7.4015e-17,0,0.66667
0.54254,0.11519,4.3403,-0.57721,-34.62,126.9,6.6807,-2.2269,-0.81436,8.9076,9.1394e-13,-0.40718,0,0,0.125,-5.9212e-16,0,0.66667
0.88249,0.37526,7.0599,-0.18711,-3.4298,10.5,3.5227,-1.1742,-1.8749,4.6969,-6.4057e-09,-0.93744,0,0,0.125,-0,-0,0.66667
0.53179,0.78252,4.2543,0.42378,25.767,131.94,-4.8077,1.6026,-1.3651,-6.4103,1.3611e-12,-0.68256,0,0,0.125,-0,-0,0.66667
0.78172,0.38596,6.2537,-0.17106,-5.5827,32.716,2.8528,-0.95092,-1.8984,3.8037,-4.3138e-11,-0.9492,0,0,0.125,2.3685e-15,0,0.66667
0.18845,0.301,1.5076,-0.2985,-24.421,337.24,1.2001,-0.40002,-1.685,1.6001,4.6626e-10,-0.84251,0,0,0.125,-2.9606e-16,0,0.66667
0.86311,0.71527,6.9049,0.32291,6.8741,14.08,-5.9457,1.9819,-1.6294,-7.9276,5.8441e-09,-0.8147,0,0,0.125,-1.4803e-15,0,0.66667
0.18742,0.90243,1.4994,0.60365,49.578,338.11,-2.4136,0.80455,-0.70815,-3.2182,1.7202e-09,-0.35407,0,0,0.125,7.4015e-17,6.3463e-17,0.66667
0.054764,0.79497,0.43811,0.44246,37.475,428.51,-0.51693,0.17231,-1.3016,-0.68924,-4.3858e-08,-0.65082,0,0,0.125,-0,-0,0.66667
0.42149,0.62865,3.3719,0.19298,13.437,191.02,-1.7352,0.5784,-1.871,-2.3136,6.1728e-14,-0.9355,0,0,0.125,1.1842e-15,0,0.66667
0.5551,0.16386,4.4408,-0.50421,-29.607,120.63,5.971,-1.9903,-1.0942,7.9613,-4.9827e-13,-0.54712,0,0,0.125,-0,-0,0.66667
0.97074,0.74895,7.7659,0.37342,1.6735,1.3915,-7.7333,2.5778,-1.5063,-10.311,-4.0109e-07,-0.75313,0,0,0.125,-1.3323e-15,0,0.66667
0.091754,0.59239,0.73403,0.13858,11.648,402.95,-0.27126,0.090419,-1.9337,-0.36167,-2.5896e-08,-0.96686,0,0,0.125,-1.8504e-17,0,0.66667
0.27392,0.28359,2.1913,-0.32461,-25.468,281.12,1.8969,-0.6323,-1.6243,2.5292,-1.9204e-11,-0.81214,0,0,0.125,1.1842e-15,0,0.66667
0.10511,0.48108,0.84086,-0.028376,-2.3782,393.76,0.063627,-0.021209,-1.996,0.084837,9.2753e-09,-0.99799,0,0,0.125,-0,-0,0.66667
0.39044,0.77681,3.1235,0.41522,29.862,209.26,-3.4585,1.1528,-1.3905,-4.6113,2.5995e-12,-0.69527,0,0,0.125,-0,-0,0.66667
0.28901,0.22681,2.3121,-0.40979,-31.88,271.54,2.5266,-0.8422,-1.401,3.3688,-5.7552e-12,-0.70051,0,0,0.125,-5.9212e-16,0,0.66667
0.5133,0.075364,4.1064,-0.63695,-39.929,141.73,6.9749,-2.325,-0.55779,9.2999,2.0188e-12,-0.2789,0,0,0.125,-0,1.6849e-16,0.66667
0.34826,0.67315,2.7861,0.25972,19.341,234.45,-1.9296,0.64319,-1.7588,-2.5728,5.1326e-13,-0.8794,0,0,0.125,-5.9212e-16,0,0.66667
0.92823,0.41132,7.4258,-0.13302,-1.4958,4.3042,2.6342,-0.87805,-1.9357,3.5122,1.484e-08,-0.96787,0,0,0.125,-0,-0,0.66667
0.78995,0.43275,6.3196,-0.10088,-3.1787,30.421,1.7,-0.56666,-1.9624,2.2667,-2.9821e-11,-0.9812,0,0,0.125,1.7764e-15,0,0.66667
0.86101,0.8875,6.8881,0.58124,12.694,15.186,-10.676,3.5588,-0.79979,-14.235,4.8346e-09,-0.3999,0,0,0.125,-0,-0,0.66667
0.1295,0.053844,1.036,-0.66923,-56.071,377.27,1.8489,-0.61629,-0.40653,2.4652,-2.6997e-09,-0.20327,0,0,0.125,1.4803e-16,0,0.66667
0.57507,0.27064,4.6006,-0.34403,-19.49,110.86,4.2207,-1.4069,-1.579,5.6275,-3.9968e-13,-0.78948,0,0,0.125,-0,-0,0.66667
0.21478,0.17028,1.7183,-0.49458,-40.094,319.83,2.2662,-0.7554,-1.1292,3.0216,-4.2917e-11,-0.56462,0,0,0.125,-0,-0,0.66667
0.86824,0.10273,6.9459,-0.59591,-12.389,13.921,11.038,-3.6792,-0.7355,14.717,-1.7873e-08,-0.36775,0,0,0.125,-0,-0,0.66667
0.015019,0.60019,0.12016,0.15028,12.737,456.02,-0.048153,0.016051,-1.9224,-0.064204,8.2897e-08,-0.96121,0,0,0.125,-0,-0,0.66667
0.10574,0.29871,0.84595,-0.30193,-25.329,393.36,0.68112,-0.22704,-1.6751,0.90816,1.8495e-08,-0.83754,0,0,0.125,2.2803e-17,0,0.66667
0.37606,0.61931,3.0085,0.17896,13.013,217.61,-1.4357,0.47857,-1.8884,-1.9143,2.0481e-12,-0.9442,0,0,0.125,2.9606e-16,0,0.66667
0.40209,0.93865,3.2168,0.65798,46.981,202.8,-5.6441,1.8814,-0.46098,-7.5255,2.0357e-12,-0.23049,0,0,0.125,-0,-2.01e-19,0.66667
0.27722,0.74272,2.2178,0.36408,28.518,279.03,-2.1532,0.71772,-1.5281,-2.8709,8.1866e-12,-0.76405,0,0,0.125,2.9606e-16,0,0.66667
0.096063,0.90372,0.7685,0.60558,51.077,400.1,-1.2411,0.41368,-0.69754,-1.6547,-1.9877e-08,-0.34877,0,0,0.125,1.8504e-17,0,0.66667
0.11873,0.047085,0.94984,-0.67937,-57.085,384.62,1.7208,-0.5736,-0.35684,2.2944,1.1659e-08,-0.17842,0,0,0.125,1.4803e-16,0,0.66667
0.31794,0.85232,2.5436,0.52849,40.383,253.42,-3.5846,1.1949,-1.0055,-4.7795,2.7622e-12,-0.50273,0,0,0.125,-0,-0,0.66667
0.95079,0.10084,7.6063,-0.59873,-4.7778,3.3954,12.144,-4.0481,-0.72617,16.193,-4.9135e-07,-0.36308,0,0,0.125,-0,-0,0.66667
0.20741,0.15554,1.6593,-0.51669,-42.036,324.73,2.2862,-0.76206,-1.0511,3.0482,-8.7093e-12,-0.52555,0,0,0.125,-3.7007e-16,0,0.66667
0.74728,0.73713,5.9782,0.3557,13.242,43.127,-5.6706,1.8902,-1.5501,-7.5608,-1.713e-11,-0.77505,0,0,0.125,-0,-0,0.66667
0.25819,0.083307,2.0655,-0.62504,-49.67,291.54,3.4427,-1.1476,-0.60883,4.5903,1.1273e-11,-0.30441,0,0,0.125,2.9606e-16,0,0.66667
0.03724,0.51511,0.29792,0.022668,1.9184,440.61,-0.018009,0.0060027,-1.9962,-0.024012,-5.1752e-07,-0.99808,0,0,0.125,-0,-0,0.66667
0.016052,0.10748,0.12842,-0.58878,-50.098,455.32,0.20162,-0.067207,-0.76979,0.26883,6.0703e-07,-0.3849,0,0,0.125,-0,-0,0.66667
0.15271,0.48613,1.2216,-0.020811,-1.7223,361.28,0.067797,-0.022599,-1.9977,0.090396,-8.5692e-10,-0.99887,0,0,0.125,-0,-0,0.66667
0.46208,0.31167,3.6967,-0.2825,-18.818,168.34,2.7849,-0.92828,-1.7156,3.7131,9.5102e-13,-0.85779,0,0,0.125,-7.7716e-16,0,0.66667
0.7559,0.25769,6.0472,-0.36347,-13.132,40.488,5.8613,-1.9538,-1.5287,7.8151,9.2242e-12,-0.76436,0,0,0.125,-0,-0,0.66667
0.72881,0.74553,5.8305,0.36829,14.571,49.091,-5.7262,1.9087,-1.5167,-7.635,-1.226e-11,-0.75836,0,0,0.125,-1.4803e-15,0,0.66667
0.35239,0.71762,2.8191,0.32643,24.242,231.98,-2.454,0.818,-1.6203,-3.272,8.5576e-13,-0.81017,0,0,0.125,-1.6988e-16,0,0.66667
0.47914,0.78415,3.8331,0.42622,27.853,159.26,-4.3567,1.4522,-1.3535,-5.8089,-6.9811e-13,-0.67674,0,0,0.125,1.1842e-15,0,0.66667
0.81407,0.49966,6.5126,-0.00050605,-0.014269,24.243,0.0087885,-0.0029295,-2.0027,0.011718,5.219e-10,-1.0013,0,0,0.125,1.2212e-15,0,0.66667
0.8384,0.92464,6.7072,0.63697,16.044,19.908,-11.393,3.7976,-0.55569,-15.19,-1.6513e-09,-0.27784,0,0,0.125,-0,-0,0.66667
0.31992,0.86752,2.5593,0.55128,42.08,252.22,-3.7625,1.2542,-0.91759,-5.0166,-3.042e-13,-0.45879,0,0,0.125,-0,-0,0.66667
0.004265,0.70859,0.03412,0.31288,26.548,463.49,-0.028468,0.0094891,-1.6509,-0.037958,-3.7617e-07,-0.82545,0,0,0.125,-0,-0,0.66667
0.046931,0.6721,0.37545,0.25816,21.848,433.91,-0.25846,0.086155,-1.7659,-0.34462,7.5872e-08,-0.88293,0,0,0.125,7.4015e-17,0,0.66667
0.73781,0.43735,5.9025,-0.093982,-3.6002,45.823,1.4793,-0.49309,-1.9696,1.9724,5.5045e-13,-0.9848,0,0,0.125,1.3785e-15,0,0.66667
0.27263,0.27182,2.1811,-0.34226,-26.878,281.96,1.9907,-0.66355,-1.5815,2.6542,-1.5097e-11,-0.79075,0,0,0.125,-2.9606e-16,0,0.66667
0.48149,0.45736,3.8519,-0.063954,-4.1552,157.7,0.65692,-0.21897,-1.9853,0.87589,1.9929e-13,-0.99267,0,0,0.125,-0,-0,0.66667
0.19203,0.87317,1.5363,0.55976,45.86,335,-2.2931,0.76438,-0.88588,-3.0575,1.6706e-10,-0.44294,0,0,0.125,3.7007e-17,0,0.66667
0.84711,0.65464,6.7769,0.23197,5.4675,17.038,-4.192,1.3973,-1.8094,-5.5893,2.9509e-09,-0.90472,0,0,0.125,1.6283e-15,0,0.66667
0.50338,0.3426,4.027,-0.2361,-14.918,146.22,2.5354,-0.84515,-1.8026,3.3806,-1.5477e-13,-0.90132,0,0,0.125,-8.8818e-16,0,0.66667
0.52716,0.59032,4.2173,0.13548,8.272,133.97,-1.5237,0.50789,-1.9347,-2.0316,-4.2588e-13,-0.96733,0,0,0.125,5.9212e-16,0,0.66667
0.28808,0.59184,2.3046,0.13776,10.703,271.98,-0.84665,0.28222,-1.9316,-1.1289,3.2357e-12,-0.96581,0,0,0.125,4.2644e-17,0,0.66667
0.512,0.0050055,4.096,-0.74249,-46.741,142.66,8.11,-2.7033,-0.039823,10.813,-1.5277e-12,-0.019912,0,0,0.125,2.3685e-15,0,0.66667
0.0019636,0.26462,0.015709,-0.35307,-29.968,465.08,0.01479,-0.0049298,-1.5574,0.019721,6.0714e-07,-0.77869,0,0,0.125,-0,-0,0.66667
0.2773,0.82272,2.2184,0.48407,37.967,279.08,-2.8636,0.95453,-1.166,-3.8181,6.1886e-12,-0.583,0,0,0.125,-0,-0,0.66667
0.34876,0.43918,2.7901,-0.091233,-6.7859,234.07,0.6788,-0.22627,-1.9701,0.90507,-1.1133e-12,-0.98506,0,0,0.125,-0,-0,0.66667
0.28395,0.056621,2.2716,-0.66507,-52.094,275.04,4.0287,-1.3429,-0.42791,5.3716,-6.0298e-12,-0.21396,0,0,0.125,-0,-0,0.66667
0.085952,0.497,0.68762,-0.0044972,-0.3783,406.94,0.0082464,-0.0027489,-1.9987,0.010995,-1.171e-07,-0.99937,0,0,0.125,-2.2204e-16,0,0.66667
0.52178,0.62559,4.1742,0.18839,11.596,136.72,-2.097,0.69901,-1.8733,-2.796,2.7693e-12,-0.93666,0,0,0.125,-2.3685e-15,0,0.66667
0.78848,0.46064,6.3078,-0.059035,-1.8715,30.797,0.99302,-0.33101,-1.9857,1.324,-6.6904e-11,-0.99286,0,0,0.125,-0,-0,0.66667
0.9426,0.42139,7.5408,-0.11791,-1.0549,2.9034,2.371,-0.79033,-1.9489,3.1613,6.3164e-08,-0.97445,0,0,0.125,-1.1842e-15,0,0.66667
0.49729,0.57243,3.9783,0.10864,6.9161,149.33,-1.1526,0.38419,-1.9582,-1.5368,7.8282e-13,-0.97909,0,0,0.125,-0,-0,0.66667
0.59375,0.57209,4.75,0.10814,5.9127,102.04,-1.3697,0.45658,-1.9616,-1.8263,-5.7898e-13,-0.98079,0,0,0.125,-0,-0,0.66667
0.29086,0.61677,2.3269,0.17516,13.586,270.22,-1.0869,0.36229,-1.8893,-1.4492,5.6176e-12,-0.94463,0,0,0.125,-0,-0,0.66667
0.14916,0.66568,1.1933,0.24852,20.606,363.72,-0.79082,0.26361,-1.7784,-1.0544,-3.3856e-09,-0.8892,0,0,0.125,-0,-0,0.66667
0.13187,0.73447,1.055,0.35171,29.33,375.51,-0.98944,0.32981,-1.558,-1.3193,-6.8778e-09,-0.77898,0,0,0.125,-0,-0,0.66667
0.73236,0.34327,5.8589,-0.2351,-9.1779,47.715,3.6731,-1.2244,-1.8056,4.8975,1.3511e-11,-0.90282,0,0,0.125,-2.9606e-16,0,0.66667
0.73447,0.44013,5.8758,-0.089805,-3.4778,46.903,1.4071,-0.46904,-1.9753,1.8762,3.2858e-12,-0.98764,0,0,0.125,-0,-0,0.66667
0.17935,0.52526,1.4348,0.03789,3.1072,343.29,-0.14497,0.048324,-1.9932,-0.1933,-3.1003e-10,-0.99662,0,0,0.125,-0,-0,0.66667
0.41356,0.24938,3.3085,-0.37593,-26.429,195.74,3.3167,-1.1056,-1.4968,4.4223,-5.711e-13,-0.7484,0,0,0.125,-1.8504e-16,0,0.66667
0.59414,0.30618,4.7532,-0.29072,-15.907,102.01,3.685,-1.2283,-1.7025,4.9133,-3.2618e-13,-0.85124,0,0,0.125,-0,-0,0.66667
0.12528,0.028402,1.0023,-0.7074,-59.372,380.17,1.8906,-0.63022,-0.22444,2.5209,-6.1407e-08,-0.11222,0,0,0.125,-7.4015e-17,0,0.66667
0.78537,0.53462,6.283,0.051929,1.6679,31.638,-0.87005,0.29002,-1.9903,-1.1601,7.8394e-11,-0.99516,0,0,0.125,-0,-0,0.66667
0.61999,0.97729,4.9599,0.71594,37.573,91.531,-9.4694,3.1565,-0.17624,-12.626,-2.1032e-12,-0.088118,0,0,0.125,-0,-0,0.66667
0.61522,0.1438,4.9218,-0.53431,-28.183,93.094,7.0126,-2.3375,-0.98304,9.3502,-3.2285e-13,-0.49152,0,0,0.125,-5.9212e-16,0,0.66667
0.70121,0.72359,5.6097,0.33538,14.391,58.543,-5.017,1.6723,-1.6015,-6.6894,-7.5677e-12,-0.80077,0,0,0.125,-0,-0,0.66667
0.98718,0.23065,7.8975,-0.40402,-0.71081,0.82983,8.5087,-2.8362,-1.4195,11.345,-6.9646e-08,-0.70977,0,0,0.125,-0,-0,0.66667
0.56239,0.94628,4.4992,0.66942,38.977,117.52,-8.0316,2.6772,-0.40974,-10.709,6.0929e-13,-0.20487,0,0,0.125,-0,-1.1965e-16,0.66667
0.86442,0.18481,6.9153,-0.47279,-10.032,14.206,8.7186,-2.9062,-1.2048,11.625,-2.9857e-09,-0.60238,0,0,0.125,-0,-0,0.66667
0.41871,0.46732,3.3497,-0.049024,-3.4215,192.57,0.4379,-0.14597,-1.9924,0.58387,-1.6588e-12,-0.9962,0,0,0.125,-7.4015e-16,0,0.66667
0.65447,0.36218,5.2358,-0.20673,-9.9734,76.133,2.8864,-0.96212,-1.8489,3.8485,1.7795e-12,-0.92445,0,0,0.125,-1.1842e-15,0,0.66667
0.92526,0.89516,7.4021,0.59274,7.1483,5.7211,-11.7,3.9,-0.75029,-15.6,1.9704e-07,-0.37514,0,0,0.125,-0,-0,0.66667
0.66415,0.023376,5.3132,-0.71494,-34.059,73.394,10.13,-3.3765,-0.18075,13.506,-4.1034e-13,-0.090376,0,0,0.125,1.1842e-15,0,0.66667
0.30308,0.34674,2.4246,-0.2299,-17.694,262.5,1.4864,-0.49548,-1.8111,1.9819,-4.4922e-12,-0.90556,0,0,0.125,-0,-0,0.66667
0.61995,0.97933,4.9596,0.71899,37.739,91.56,-9.509,3.1697,-0.1605,-12.679,-1.1351e-12,-0.080249,0,0,0.125,-0,-0,0.66667
0.35132,0.026396,2.8105,-0.71041,-53.096,233.13,5.3243,-1.7748,-0.20411,7.0991,-4.9858e-12,-0.10205,0,0,0.125,2.9606e-16,0,0.66667
0.32237,0.86407,2.5789,0.5461,41.608,250.69,-3.7556,1.2519,-0.93785,-5.0075,1.5974e-12,-0.46892,0,0,0.125,-2.9606e-16,0,0.66667
0.61021,0.77502,4.8816,0.41253,21.927,95.034,-5.3702,1.7901,-1.3974,-7.1603,-1.4371e-12,-0.69869,0,0,0.125,-0,-0,0.66667
0.16032,0.98614,1.2826,0.72922,60.604,356.42,-2.4941,0.83136,-0.10822,-3.3254,2.0427e-10,-0.05411,0,0,0.125,-2.9606e-16,0,0.66667
0.48674,0.56437,3.8939,0.096555,6.2319,154.9,-1.0026,0.3342,-1.9684,-1.3368,-8.6042e-13,-0.9842,0,0,0.125,1.1842e-15,0,0.66667
0.94563,0.87144,7.5651,0.55716,4.8833,3.641,-11.24,3.7466,-0.895,-14.986,1.5692e-07,-0.4475,0,0,0.125,-1.4803e-15,0,0.66667
0.38391,0.026221,3.0713,-0.71067,-51.663,213.57,5.8205,-1.9402,-0.20285,7.7607,-2.7214e-12,-0.10143,0,0,0.125,5.9212e-16,0,0.66667
0.18896,0.3976,1.5117,-0.1536,-12.554,336.86,0.6192,-0.2064,-1.9176,0.8256,3.8139e-10,-0.95879,0,0,0.125,-1.4803e-16,0,0.66667
0.46884,0.25317,3.7507,-0.37025,-24.486,164.75,3.7032,-1.2344,-1.5165,4.9376,-1.5461e-12,-0.75823,0,0,0.125,-0,-0,0.66667
0.84091,0.14734,6.7273,-0.52898,-13.065,19.002,9.4896,-3.1632,-1.0052,12.653,-5.1254e-10,-0.50259,0,0,0.125,-0,-0,0.66667
0.84267,0.0057302,6.7413,-0.7414,-18.332,19.442,13.328,-4.4427,-0.047824,17.771,2.3051e-09,-0.023912,0,0,0.125,-0,8.8666e-17,0.66667
0.8278,0.069263,6.6224,-0.64611,-17.256,22.261,11.41,-3.8034,-0.51876,15.213,2.8043e-09,-0.25938,0,0,0.125,-0,-1.0041e-16,0.66667
0.011476,0.066649,0.091804,-0.65003,-55.367,458.5,0.15913,-0.053032,-0.49741,0.21218,1.5825e-05,-0.24871,0,0,0.125,-0,-0,0.66667
0.26704,0.75264,2.1363,0.37896,29.867,285.59,-2.1589,0.71963,-1.4917,-2.8785,1.3835e-11,-0.74587,0,0,0.125,-0,-0,0.66667
0.99988,0.8338,7.999,0.50071,-0.1513,0.89271,-10.68,3.5601,-1.1116,-14.241,1.2334e-06,-0.55578,0,0,0.125,-0,-9.1162e-18,0.66667
0.11968,0.26451,0.95747,-0.35324,-29.551,383.83,0.9019,-0.30063,-1.5546,1.2025,1.128e-08,-0.77729,0,0,0.125,-0,-0,0.66667
0.49009,0.72365,3.9207,0.33547,21.594,153.3,-3.5074,1.1691,-1.5987,-4.6766,-7.7893e-13,-0.79937,0,0,0.125,-1.1842e-15,0,0.66667
0.79003,0.21443,6.3202,-0.42836,-13.57,30.887,7.2195,-2.4065,-1.3463,9.626,-4.249e-11,-0.67313,0,0,0.125,-1.4803e-15,0,0.66667
0.12221,0.62741,0.97771,0.19111,15.96,382.06,-0.49826,0.16609,-1.8712,-0.66435,-5.5369e-09,-0.93561,0,0,0.125,2.9606e-16,0,0.66667
0.66241,0.7714,5.2993,0.4071,19.329,73.263,-5.7529,1.9176,-1.4089,-7.6705,-2.7378e-12,-0.70445,0,0,0.125,-0,-0,0.66667
0.48808,0.77185,3.9046,0.40777,26.34,154.46,-4.2459,1.4153,-1.4082,-5.6612,-3.8103e-13,-0.7041,0,0,0.125,-0,-0,0.66667
0.19429,0.75179,1.5543,0.37768,30.848,333.37,-1.5654,0.52181,-1.4919,-2.0872,-2.682e-10,-0.74597,0,0,0.125,-0,-0,0.66667
0.87863,0.66892,7.029,0.25339,4.7991,11.225,-4.7495,1.5832,-1.771,-6.3327,1.0046e-08,-0.88548,0,0,0.125,-0,-0,0.66667
0.18149,0.54719,1.4519,0.070791,5.8009,341.86,-0.27408,0.091361,-1.9802,-0.36544,-2.8761e-10,-0.99008,0,0,0.125,-2.9606e-16,0,0.66667
0.63905,0.6496,5.1124,0.22439,11.209,82.444,-3.0592,1.0197,-1.8225,-4.0789,-2.3499e-12,-0.91127,0,0,0.125,5.9212e-16,0,0.66667
0.74083,0.71345,5.9266,0.32018,12.174,45.101,-5.0603,1.6868,-1.6341,-6.747,-1.5168e-11,-0.81705,0,0,0.125,-0,-0,0.66667
0.56267,0.3174,4.5014,-0.2739,-15.834,116.64,3.2878,-1.0959,-1.7367,4.3837,9.8188e-13,-0.86837,0,0,0.125,-1.1842e-15,0,0.66667
0.62884,0.67071,5.0307,0.25606,13.078,86.761,-3.4351,1.145,-1.7659,-4.5801,-1.8923e-12,-0.88296,0,0,0.125,-0,-0,0.66667
0.11897,0.69832,0.95172,0.29748,24.879,384.3,-0.75497,0.25166,-1.6835,-1.0066,-1.0818e-08,-0.84174,0,0,0.125,-0,-0,0.66667
0.30804,0.30569,2.4643,-0.29147,-22.368,259.41,1.9154,-0.63846,-1.6971,2.5538,-4.15e-12,-0.84857,0,0,0.125,-0,-0,0.66667
0.58696,0.82402,4.6957,0.48602,27.021,105.6,-6.0859,2.0286,-1.158,-8.1146,-1.8376e-12,-0.57901,0,0,0.125,1.1842e-15,0,0.66667
0.39546,0.068938,3.1637,-0.64659,-46.45,206.65,5.455,-1.8183,-0.51253,7.2734,2.7378e-12,-0.25626,0,0,0.125,-1.1842e-15,0,0.66667
0.66395,0.084435,5.3116,-0.62335,-29.631,73.185,8.8292,-2.9431,-0.61642,11.772,-3.4639e-14,-0.30821,0,0,0.125,-0,-0,0.66667
0.85195,0.33421,6.8156,-0.24869,-5.6893,16.089,4.52,-1.5067,-1.7781,6.0266,-3.533e-09,-0.88903,0,0,0.125,-0,-0,0.66667
0.19022,0.95525,1.5218,0.68287,56.095,336.31,-2.7711,0.92371,-0.34193,-3.6949,-3.225e-10,-0.17097,0,0,0.125,2.9606e-16,0,0.66667
0.90327,0.37994,7.2262,-0.18009,-2.7302,7.3816,3.4704,-1.1568,-1.8852,4.6271,-1.2502e-08,-0.94258,0,0,0.125,-0,-0,0.66667
0.38318,0.17095,3.0654,-0.49357,-35.771,213.65,4.0347,-1.3449,-1.1315,5.3796,7.0299e-13,-0.56576,0,0,0.125,5.9212e-16,0,0.66667
0.94312,0.51738,7.545,0.026069,0.23066,2.8133,-0.5245,0.17483,-1.9957,-0.69934,-2.6938e-07,-0.99785,0,0,0.125,-0,-0,0.66667
0.61738,0.82548,4.9391,0.48822,25.618,92.053,-6.4303,2.1434,-1.1502,-8.5737,-8.2734e-13,-0.57512,0,0,0.125,-0,-0,0.66667
0.7901,0.40025,6.3208,-0.14963,-4.7138,30.415,2.522,-0.84067,-1.9188,3.3627,-1.183e-10,-0.95942,0,0,0.125,-5.9212e-16,0,0.66667
0.51478,0.39592,4.1182,-0.15612,-9.705,140.28,1.7145,-0.57151,-1.9154,2.286,-3.4517e-13,-0.95768,0,0,0.125,-5.9212e-16,0,0.66667
0.53114,0.32311,4.2492,-0.26534,-16.119,132.06,3.0066,-1.0022,-1.7526,4.0087,2.6645e-15,-0.87631,0,0,0.125,-0,-0,0.66667
0.32759,0.9063,2.6208,0.60945,46.304,247.53,-4.2592,1.4197,-0.68329,-5.679,-1.497e-12,-0.34165,0,0,0.125,-0,-0,0.66667
0.12936,0.2785,1.0349,-0.33225,-27.722,377.21,0.91693,-0.30564,-1.6074,1.2226,7.9063e-09,-0.80369,0,0,0.125,-7.4015e-17,0,0.66667
0.38382,0.86047,3.0706,0.54071,39.192,213.34,-4.4274,1.4758,-0.95826,-5.9033,2.1481e-12,-0.47913,0,0,0.125,-5.9212e-16,0,0.66667
0.21498,0.73514,1.7198,0.35271,28.546,319.61,-1.6176,0.53919,-1.5568,-2.1568,-7.255e-11,-0.77839,0,0,0.125,-2.9606e-16,0,0.66667
0.032865,0.56739,0.26292,0.10109,8.5589,443.64,-0.070875,0.023625,-1.9654,-0.0945,1.4006e-07,-0.98272,0,0,0.125,-0,-0,0.66667
0.27489,0.69785,2.1991,0.29677,23.265,280.49,-1.7404,0.58012,-1.6849,-2.3205,1.3124e-11,-0.84246,0,0,0.125,5.9212e-16,0,0.66667
0.18058,0.11326,1.4446,-0.5801,-47.752,342.68,2.2347,-0.74491,-0.80135,2.9796,-1.6935e-10,-0.40067,0,0,0.125,-0,-0,0.66667
0.87553,0.49453,7.0042,-0.008206,-0.15868,11.548,0.15327,-0.051091,-2.0027,0.20436,1.2659e-08,-1.0014,0,0,0.125,5.9212e-16,0,0.66667
0.081237,0.69773,0.64989,0.2966,24.997,410.21,-0.51402,0.17134,-1.687,-0.68537,-2.7764e-08,-0.8435,0,0,0.125,-0,-0,0.66667
0.1839,0.31932,1.4712,-0.27102,-22.207,340.28,1.0632,-0.35441,-1.7386,1.4176,5.847e-10,-0.8693,0,0,0.125,-0,-0,0.66667
0.70403,0.1336,5.6322,-0.5496,-23.505,58.011,8.2546,-2.7515,-0.92813,11.006,5.1781e-12,-0.46407,0,0,0.125,-0,-0,0.66667
0.91923,0.11438,7.3538,-0.57844,-7.5152,6.3431,11.343,-3.7811,-0.8105,15.124,3.3172e-09,-0.40525,0,0,0.125,1.1842e-15,1.7108e-17,0.66667
0.25146,0.13385,2.0117,-0.54922,-43.755,295.82,2.9463,-0.98209,-0.92895,3.9284,3.4359e-12,-0.46447,0,0,0.125,-0,-0,0.66667
0.021301,0.55831,0.17041,0.087459,7.4095,451.66,-0.039744,0.013248,-1.9718,-0.052992,8.1952e-08,-0.9859,0,0,0.125,-1.8504e-17,0,0.66667
0.9605,0.04349,7.684,-0.68476,-4.4581,3.0998,14.031,-4.6771,-0.33058,18.708,-1.3811e-05,-0.16529,0,0,0.125,-0,-0,0.66667
0.68222,0.17197,5.4578,-0.49205,-22.282,65.825,7.1614,-2.3871,-1.1374,9.5485,2.5313e-12,-0.56869,0,0,0.125,-1.1842e-15,0,0.66667
0.31066,0.6582,2.4853,0.23731,18.171,257.73,-1.5727,0.52425,-1.8018,-2.097,1.7839e-12,-0.90091,0,0,0.125,1.1842e-15,0,0.66667
0.47237,0.20238,3.779,-0.44643,-29.426,162.94,4.4988,-1.4996,-1.2906,5.9984,3.1086e-15,-0.64529,0,0,0.125,-0,-0,0.66667
0.59926,0.48702,4.794,-0.019466,-1.0532,99.531,0.24885,-0.082951,-1.9969,0.3318,3.6847e-13,-0.99843,0,0,0.125,-0,-0,0.66667
0.37387,0.86508,2.9909,0.54762,40.049,219.27,-4.3678,1.4559,-0.93546,-5.8237,6.0396e-13,-0.46773,0,0,0.125,2.9606e-16,1.432e-16,0.66667
0.87449,0.032853,6.9959,-0.70072,-14.016,13.253,13.072,-4.3575,-0.25781,17.43,5.3932e-08,-0.12891,0,0,0.125,2.3685e-15,0,0.66667
0.72617,0.93322,5.8094,0.64983,26.116,50.709,-10.067,3.3557,-0.49715,-13.423,-6.3523e-12,-0.24858,0,0,0.125,-0,-0,0.66667
0.95434,0.26746,7.6347,-0.34881,-2.4966,2.3318,7.1015,-2.3672,-1.5688,9.4687,6.848e-08,-0.78442,0,0,0.125,-0,-0,0.66667
0.35107,0.12445,2.8085,-0.56333,-42.003,233.05,4.219,-1.4063,-0.87099,5.6253,-3.5612e-12,-0.4355,0,0,0.125,-8.1416e-16,0,0.66667
0.93717,0.3407,7.4974,-0.23895,-2.3564,3.5404,4.7774,-1.5925,-1.8006,6.3699,4.635e-09,-0.90028,0,0,0.125,5.9212e-16,0,0.66667
0.4791,0.76559,3.8328,0.39838,26.025,159.24,-4.0717,1.3572,-1.434,-5.429,3.2641e-13,-0.71698,0,0,0.125,5.9212e-16,0,0.66667
0.64232,0.090553,5.1386,-0.61417,-30.668,81.838,8.4159,-2.8053,-0.66079,11.221,-1.6245e-12,-0.3304,0,0,0.125,1.7764e-15,0,0.66667
0.73665,0.31012,5.8932,-0.28482,-10.974,46.387,4.476,-1.492,-1.7131,5.968,1.4162e-11,-0.85655,0,0,0.125,1.3323e-15,0,0.66667
0.80934,0.89091,6.4747,0.58637,17.128,26.389,-10.124,3.3747,-0.77703,-13.499,1.7699e-10,-0.38852,0,0,0.125,1.1842e-15,0,0.66667
0.39626,0.89415,3.1701,0.59122,42.398,206.09,-4.9979,1.666,-0.75538,-6.6638,2.2333e-12,-0.37769,0,0,0.125,-5.9212e-16,0,0.66667
0.44795,0.27074,3.5836,-0.34389,-23.299,176.21,3.2863,-1.0954,-1.578,4.3818,1.1429e-12,-0.78899,0,0,0.125,-5.9212e-16,0,0.66667
0.81728,0.33538,6.5382,-0.24692,-6.8683,23.652,4.3052,-1.4351,-1.7821,5.7402,-6.8216e-10,-0.89103,0,0,0.125,5.9212e-16,0,0.66667
0.71756,0.077759,5.7405,-0.63336,-26.113,53.556,9.6954,-3.2318,-0.57514,12.927,3.8796e-12,-0.28757,0,0,0.125,-0,-0,0.66667
0.94085,0.1697,7.5268,-0.49544,-4.6907,3.8329,9.9443,-3.3148,-1.1267,13.259,-3.6599e-08,-0.56333,0,0,0.125,2.3685e-15,0,0.66667
0.9796,0.28008,7.8368,-0.32988,-0.9817,0.8925,6.8939,-2.298,-1.613,9.1918,2.2295e-07,-0.80651,0,0,0.125,5.9212e-16,0,0.66667
0.17891,0.3144,1.4313,-0.27841,-22.857,343.63,1.0626,-0.35421,-1.7235,1.4168,7.7174e-10,-0.86174,0,0,0.125,-0,-0,0.66667
0.22792,0.78968,1.8234,0.43452,34.984,311.12,-2.1127,0.70425,-1.3269,-2.817,-1.0472e-11,-0.66345,0,0,0.125,-0,-0,0.66667
0.71599,0.98282,5.7279,0.72423,30.091,54.407,-11.062,3.6874,-0.13494,-14.75,6.4926e-13,-0.067472,0,0,0.125,-0,1.4657e-16,0.66667
0.74738,0.39468,5.9791,-0.15798,-5.8626,42.826,2.5188,-0.83961,-1.9114,3.3584,8.9047e-12,-0.95569,0,0,0.125,-0,-0,0.66667
0.60318,0.78779,4.8254,0.43169,23.266,98.175,-5.5549,1.8516,-1.3359,-7.4065,-7.3275e-13,-0.66795,0,0,0.125,-0,-0,0.66667
0.8773,0.2043,7.0184,-0.44355,-8.5503,11.862,8.3014,-2.7671,-1.3008,11.069,-8.4571e-09,-0.65039,0,0,0.125,-0,-0,0.66667
0.25199,0.84827,2.0159,0.5224,41.591,295.45,-2.8083,0.93611,-1.0311,-3.7444,2.3075e-11,-0.51556,0,0,0.125,5.9212e-16,0,0.66667
0.33949,0.70518,2.7159,0.30777,23.087,239.86,-2.229,0.74301,-1.662,-2.972,2.7063e-12,-0.831,0,0,0.125,-0,-0,0.66667
0.49465,0.91912,3.9572,0.62868,40.412,151.4,-6.6342,2.2114,-0.59296,-8.8455,3.153e-13,-0.29648,0,0,0.125,-0,-0,0.66667
0.31503,0.16911,2.5202,-0.49633,-37.988,255.21,3.3357,-1.1119,-1.1242,4.4475,-3.3997e-12,-0.56211,0,0,0.125,5.9212e-16,0,0.66667
0.54544,0.92985,4.3635,0.64477,38.554,125.64,-7.5026,2.5009,-0.52345,-10.003,5.3291e-15,-0.26173,0,0,0.125,5.9212e-16,0,0.66667
0.68248,0.15082,5.4598,-0.52377,-23.72,65.806,7.6258,-2.5419,-1.0237,10.168,1.0987e-12,-0.51185,0,0,0.125,-0,-0,0.66667
0.22037,0.13559,1.7629,-0.54661,-44.23,316.18,2.5697,-0.85657,-0.93881,3.4263,4.0037e-11,-0.4694,0,0,0.125,-0,-0,0.66667
0.48534,0.99547,3.8827,0.74321,48.474,156.59,-7.6951,2.565,-0.038632,-10.26,8.8463e-13,-0.019316,0,0,0.125,-8.8818e-16,0,0.66667
0.99298,0.84286,7.9439,0.51429,0.45492,1.0469,-10.894,3.6315,-1.0589,-14.526,1.4428e-06,-0.52943,0,0,0.125,1.5543e-15,0,0.66667
0.32416,0.68034,2.5933,0.27052,20.521,249.31,-1.8707,0.62358,-1.7393,-2.4943,6.6513e-13,-0.86963,0,0,0.125,-0,-0,0.66667
0.035362,0.8435,0.2829,0.51524,43.754,441.95,-0.38869,0.12956,-1.0566,-0.51826,-5.3863e-08,-0.5283,0,0,0.125,-8.0954e-18,0,0.66667
0.81735,0.041681,6.5388,-0.68748,-19.409,24.831,11.987,-3.9958,-0.31818,15.983,-1.8803e-09,-0.15909,0,0,0.125,-0,-0,0.66667
0.50331,0.40403,4.0265,-0.14396,-9.0918,146.2,1.5457,-0.51524,-1.927,2.061,-1.2429e-12,-0.9635,0,0,0.125,-0,-0,0.66667
0.052784,0.58146,0.42227,0.12218,10.328,429.85,-0.13759,0.045862,-1.945,-0.18345,5.3378e-08,-0.9725,0,0,0.125,7.4015e-17,0,0.66667
0.89031,0.67001,7.1224,0.25501,4.3807,9.3632,-4.8435,1.6145,-1.7713,-6.458,1.4106e-08,-0.88564,0,0,0.125,-0,-0,0.66667
0.40451,0.62195,3.2361,0.18293,12.955,200.82,-1.5786,0.52621,-1.883,-2.1048,1.6477e-12,-0.94149,0,0,0.125,1.4803e-16,0,0.66667
0.92927,0.8715,7.4342,0.55725,6.3429,5.1619,-11.047,3.6824,-0.89465,-14.73,1.6425e-08,-0.44732,0,0,0.125,2.9606e-16,0,0.66667
0.40208,0.55247,3.2166,0.078702,5.5848,202.2,-0.67508,0.22503,-1.977,-0.90011,-1.6431e-13,-0.98851,0,0,0.125,-0,-0,0.66667
0.076832,0.83446,0.61466,0.50168,42.396,413.29,-0.8223,0.2741,-1.1067,-1.0964,-8.8979e-08,-0.55336,0,0,0.125,-0,-0,0.66667
0.2453,0.38432,1.9624,-0.17351,-13.82,299.59,0.90801,-0.30267,-1.8918,1.2107,-1.2038e-11,-0.94588,0,0,0.125,-0,-0,0.66667
0.35026,0.89047,2.8021,0.58571,43.715,233.57,-4.3765,1.4588,-0.7781,-5.8354,1.3243e-12,-0.38905,0,0,0.125,-5.9212e-16,0,0.66667
0.75073,0.17119,6.0058,-0.49321,-18.204,42.368,7.899,-2.633,-1.1371,10.532,2.0241e-11,-0.56853,0,0,0.125,1.1842e-15,0,0.66667
0.18475,0.30903,1.478,-0.28645,-23.466,339.72,1.129,-0.37632,-1.7092,1.5053,5.4322e-10,-0.85459,0,0,0.125,4.2477e-16,0,0.66667
0.43097,0.14895,3.4478,-0.52657,-36.432,185.99,4.8413,-1.6138,-1.0125,6.4551,-2.9354e-13,-0.50623,0,0,0.125,-2.9606e-16,0,0.66667
0.87325,0.71206,6.986,0.31809,6.2929,12.255,-5.9258,1.9753,-1.6416,-7.901,8.8023e-09,-0.82082,0,0,0.125,-0,-0,0.66667
0.53376,0.92753,4.2701,0.64129,39.032,131.4,-7.3023,2.4341,-0.53807,-9.7364,5.1292e-13,-0.26904,0,0,0.125,-5.9212e-16,0,0.66667
0.10315,0.2647,0.82524,-0.35295,-29.637,395.15,0.7767,-0.2589,-1.555,1.0356,2.1211e-08,-0.7775,0,0,0.125,-1.4803e-16,0,0.66667
0.024522,0.50121,0.19618,0.0018121,0.15348,449.43,-0.00094799,0.00031944,-1.9992,-0.0012623,5.1673e-06,-0.99962,0,0,0.125,-0,-0,0.66667
0.70581,0.36035,5.6465,-0.20947,-8.8576,56.734,3.1541,-1.0514,-1.8439,4.2055,5.8855e-12,-0.92197,0,0,0.125,1.1842e-15,0,0.66667
0.97913,0.22948,7.833,-0.40577,-1.263,1.1051,8.4758,-2.8253,-1.413,11.301,5.5247e-07,-0.7065,0,0,0.125,-0,-0,0.66667
0.78517,0.72889,6.2813,0.34334,11.078,32.015,-5.751,1.917,-1.5801,-7.668,6.5605e-11,-0.79003,0,0,0.125,-0,-0,0.66667
0.76473,0.23788,6.1178,-0.39318,-13.764,37.911,6.4144,-2.1381,-1.4522,8.5526,9.6634e-12,-0.7261,0,0,0.125,-0,-0,0.66667
0.67545,0.56173,5.4036,0.092591,4.2432,67.828,-1.3342,0.44473,-1.9703,-1.7789,-2.1118e-12,-0.98515,0,0,0.125,-2.9606e-16,0,0.66667
0.7955,0.18289,6.364,-0.47567,-14.738,29.56,8.0724,-2.6908,-1.1976,10.763,-1.0863e-11,-0.5988,0,0,0.125,-1.7764e-15,0,0.66667
0.040018,0.3316,0.32014,-0.2526,-21.39,438.7,0.21565,-0.071884,-1.771,0.28753,-1.0959e-07,-0.88549,0,0,0.125,-3.7007e-17,0,0.66667
0.26468,0.2003,2.1175,-0.44954,-35.506,287.16,2.5384,-0.84612,-1.2832,3.3845,-1.8993e-11,-0.64162,0,0,0.125,-0,-0,0.66667
0.6954,0.34,5.5632,-0.24,-10.451,60.503,3.5604,-1.1868,-1.7939,4.7472,4.5071e-12,-0.89694,0,0,0.125,1.3901e-15,0,0.66667
0.86699,0.29003,6.9359,-0.31495,-6.5227,13.356,5.8252,-1.9417,-1.6453,7.767,-6.8595e-09,-0.82267,0,0,0.125,-0,-0,0.66667
0.67461,0.86005,5.3969,0.54008,24.961,68.829,-7.7726,2.5909,-0.9628,-10.363,-1.6693e-12,-0.4814,0,0,0.125,-0,-0,0.66667
0.17628,0.12409,1.4102,-0.56386,-46.478,345.55,2.1204,-0.70681,-0.86975,2.8273,7.0748e-10,-0.43487,0,0,0.125,-3.7007e-17,0,0.66667
0.93631,0.74351,7.4905,0.36527,3.6815,3.8765,-7.2961,2.432,-1.5276,-9.7281,4.0545e-08,-0.76382,0,0,0.125,-0,-0,0.66667
0.90338,0.39915,7.227,-0.15127,-2.2893,7.3364,2.9153,-0.97175,-1.9189,3.887,-1.0832e-08,-0.95946,0,0,0.125,-1.1842e-15,0,0.66667
0.086679,0.98346,0.69343,0.7252,61.391,406.6,-1.341,0.447,-0.12785,-1.788,4.5138e-07,-0.063925,0,0,0.125,3.5333e-16,0,0.66667
0.193,0.95178,1.544,0.67766,55.601,334.45,-2.7902,0.93006,-0.36535,-3.7202,3.1951e-10,-0.18268,0,0,0.125,-0,-0,0.66667
0.27519,0.24525,2.2015,-0.38212,-29.973,280.35,2.2434,-0.74779,-1.4796,2.9912,-1.4884e-11,-0.7398,0,0,0.125,-2.9606e-16,0,0.66667
0.73841,0.54548,5.9073,0.068225,2.608,45.617,-1.0747,0.35824,-1.9824,-1.433,-4.4453e-12,-0.99119,0,0,0.125,-1.1842e-15,0,0.66667
0.85937,0.43075,6.875,-0.10387,-2.2582,14.494,1.9043,-0.63476,-1.9651,2.5391,-3.8107e-09,-0.98255,0,0,0.125,-5.9212e-16,0,0.66667
0.57832,0.13276,4.6266,-0.55085,-31.137,109.73,6.7962,-2.2654,-0.92418,9.0616,-5.0715e-13,-0.46209,0,0,0.125,-0,-0,0.66667
0.19965,0.90285,1.5972,0.60427,49.386,329.96,-2.5737,0.85789,-0.70205,-3.4315,-1.3488e-09,-0.35102,0,0,0.125,1.4803e-16,0,0.66667
0.41509,0.24887,3.3207,-0.37669,-26.442,194.86,3.3357,-1.1119,-1.4947,4.4476,-1.0343e-12,-0.74736,0,0,0.125,-6.6613e-16,0,0.66667
0.13786,0.83499,1.1029,0.50248,41.902,371.49,-1.4778,0.4926,-1.1025,-1.9704,-7.321e-09,-0.55123,0,0,0.125,-0,-0,0.66667
0.9174,0.070891,7.3392,-0.64366,-8.6005,6.8174,12.597,-4.1991,-0.52593,16.796,-1.7146e-07,-0.26297,0,0,0.125,-0,-0,0.66667
0.76453,0.35302,6.1162,-0.22047,-7.6994,37.681,3.5959,-1.1986,-1.829,4.7945,1.4966e-13,-0.9145,0,0,0.125,-0,-0,0.66667
0.51021,0.8731,4.0817,0.55965,35.18,143.15,-6.0916,2.0305,-0.88587,-8.1221,4.3876e-13,-0.44293,0,0,0.125,2.9606e-16,0,0.66667
0.45358,0.35125,3.6286,-0.22313,-15.005,172.98,2.1591,-0.71969,-1.8258,2.8788,-1.1946e-12,-0.91288,0,0,0.125,-0,-0,0.66667
0.097842,0.98906,0.78274,0.7336,61.982,398.94,-1.5312,0.51041,-0.085558,-2.0416,3.6828e-08,-0.042779,0,0,0.125,-0,-0,0.66667
0.31868,0.31583,2.5494,-0.27626,-21.041,252.73,1.8781,-0.62603,-1.7276,2.5041,-9.9409e-13,-0.86382,0,0,0.125,-0,-0,0.66667
0.12063,0.30679,0.96506,-0.28982,-24.228,383.16,0.74585,-0.24862,-1.7007,0.99447,1.0088e-08,-0.85037,0,0,0.125,1.4803e-16,0,0.66667
0.78234,0.87581,6.2587,0.56372,18.519,33.347,-9.4084,3.1361,-0.87321,-12.545,3.5468e-10,-0.4366,0,0,0.125,2.3685e-15,0,0.66667
0.54488,0.57959,4.3591,0.11939,7.0954,125.14,-1.3878,0.46261,-1.9499,-1.8504,3.1564e-13,-0.97496,0,0,0.125,-0,-0,0.66667
0.22728,0.29595,1.8182,-0.30608,-24.621,311.46,1.484,-0.49468,-1.6646,1.9787,2.0404e-11,-0.83232,0,0,0.125,-2.9606e-16,0,0.66667
0.2242,0.18597,1.7936,-0.47104,-38.008,313.59,2.253,-0.75099,-1.2107,3.004,-2.4079e-11,-0.60533,0,0,0.125,4.0708e-16,0,0.66667
0.2604,0.82258,2.0832,0.48387,38.326,289.96,-2.688,0.896,-1.166,-3.584,1.6281e-11,-0.583,0,0,0.125,-0,-0,0.66667
0.30887,0.85683,2.471,0.53525,41.164,259.11,-3.5269,1.1756,-0.98059,-4.7026,3.6262e-12,-0.4903,0,0,0.125,-0,-0,0.66667
0.38771,0.72858,3.1016,0.34287,24.702,210.8,-2.8359,0.94531,-1.582,-3.7812,2.6468e-13,-0.79099,0,0,0.125,-0,-0,0.66667
0.29755,0.321,2.3804,-0.2685,-20.747,266.02,1.7044,-0.56812,-1.7461,2.2725,-6.8161e-12,-0.87304,0,0,0.125,5.9212e-16,0,0.66667
0.67956,0.63185,5.4364,0.19777,8.9757,66.338,-2.8671,0.95571,-1.8592,-3.8229,-4.4393e-12,-0.92958,0,0,0.125,-0,-0,0.66667
0.035074,0.57293,0.28059,0.1094,9.2614,442.11,-0.081856,0.027285,-1.9567,-0.10914,-8.8441e-09,-0.97834,0,0,0.125,-7.4015e-17,0,0.66667
0.32811,0.48092,2.6249,-0.028619,-2.1626,246.77,0.20033,-0.066775,-2.0001,0.2671,-3.6716e-13,-1,0,0,0.125,5.9212e-16,0,0.66667
0.74529,0.026481,5.9623,-0.71028,-26.901,44.752,11.293,-3.7644,-0.20558,15.057,1.2212e-12,-0.10279,0,0,0.125,-5.9212e-16,1.8287e-16,0.66667
0.94281,0.52096,7.5425,0.031446,0.27985,2.8418,-0.63248,0.21083,-1.9949,-0.84331,-1.0764e-07,-0.99746,0,0,0.125,-0,-0,0.66667
0.80273,0.23002,6.4219,-0.40498,-12.122,27.522,6.9352,-2.3117,-1.415,9.2469,-2.6987e-10,-0.70751,0,0,0.125,-0,-0,0.66667
0.24083,0.46578,1.9266,-0.051333,-4.0965,302.49,0.26373,-0.08791,-1.9896,0.35164,8.0874e-12,-0.9948,0,0,0.125,2.9606e-16,0,0.66667
0.23292,0.0442,1.8633,-0.6837,-55.11,308.06,3.3972,-1.1324,-0.33916,4.5296,-5.8739e-11,-0.16958,0,0,0.125,-5.9212e-16,0,0.66667
0.19034,0.43366,1.5227,-0.099508,-8.1267,335.93,0.40406,-0.13469,-1.9656,0.53874,1.996e-10,-0.98279,0,0,0.125,-0,-0,0.66667
0.8825,0.96486,7.06,0.69729,13.107,11.914,-13.128,4.3759,-0.26992,-17.503,-8.1662e-08,-0.13496,0,0,0.125,1.1842e-15,0,0.66667
0.23786,0.66532,1.9028,0.24799,19.835,304.49,-1.2583,0.41945,-1.7809,-1.6778,-7.8082e-13,-0.89047,0,0,0.125,-0,-0,0.66667
0.75818,0.80429,6.0654,0.45643,16.392,40.004,-7.3826,2.4609,-1.2574,-9.8435,1.3998e-12,-0.62868,0,0,0.125,5.9212e-16,0,0.66667
0.26105,0.29049,2.0884,-0.31427,-24.839,289.42,1.7502,-0.58339,-1.6477,2.3336,-1.3396e-11,-0.82385,0,0,0.125,5.9212e-16,0,0.66667
0.033082,0.166,0.26465,-0.50099,-42.543,443.52,0.35357,-0.11786,-1.1086,0.47143,-3.7022e-07,-0.55428,0,0,0.125,-0,-0,0.66667
0.73345,0.31348,5.8676,-0.27978,-10.891,47.419,4.3777,-1.4592,-1.7249,5.8369,1.4249e-11,-0.86246,0,0,0.125,-0,-0,0.66667
0.7262,0.072275,5.8096,-0.64159,-25.776,50.672,9.9397,-3.3132,-0.53435,13.253,7.975e-12,-0.26718,0,0,0.125,-1.1842e-15,0,0.66667
0.088959,0.9787,0.71167,0.71805,60.753,405.03,-1.3627,0.45424,-0.16549,-1.8169,8.1893e-07,-0.082743,0,0,0.125,-0,-0,0.66667
0.3267,0.20181,2.6136,-0.44728,-33.926,247.88,3.1174,-1.0391,-1.2899,4.1565,-2.204e-12,-0.64493,0,0,0.125,-0,-0,0.66667
0.94837,0.52731,7.5869,0.040972,0.32791,2.3796,-0.82893,0.27631,-1.9935,-1.1052,1.797e-08,-0.99674,0,0,0.125,5.9212e-16,0,0.66667
0.16295,0.60649,1.3036,0.15974,13.18,354.36,-0.55528,0.18509,-1.9071,-0.74038,-1.1394e-09,-0.95357,0,0,0.125,-0,-0,0.66667
0.086672,0.311,0.69338,-0.2835,-23.868,406.47,0.52419,-0.17473,-1.7134,0.69892,2.3365e-08,-0.85669,0,0,0.125,2.0354e-16,0,0.66667
0.5946,0.10846,4.7568,-0.58732,-32.266,102.36,7.45,-2.4833,-0.77538,9.9334,1.4189e-12,-0.38769,0,0,0.125,-1.1842e-15,0,0.66667
0.93099,0.41975,7.4479,-0.12038,-1.3004,4.0064,2.3908,-0.79694,-1.9463,3.1878,-1.3518e-08,-0.97317,0,0,0.125,-0,-0,0.66667
0.13378,0.9244,1.0702,0.63659,53.247,374.34,-1.8168,0.6056,-0.55692,-2.4224,2.872e-08,-0.27846,0,0,0.125,-1.4803e-16,0,0.66667
0.51301,0.60154,4.1041,0.15231,9.4915,141.18,-1.6669,0.55565,-1.9179,-2.2226,-1.5085e-12,-0.95897,0,0,0.125,1.1842e-15,0,0.66667
0.684,0.41984,5.472,-0.12025,-5.392,64.605,1.7546,-0.58488,-1.9479,2.3395,1.6716e-12,-0.97395,0,0,0.125,-0,-0,0.66667
0.17183,0.15753,1.3746,-0.5137,-42.382,348.51,1.8831,-0.62769,-1.066,2.5107,1.406e-09,-0.53301,0,0,0.125,-5.9212e-16,-1.3611e-16,0.66667
0.01126,0.78351,0.090079,0.42526,36.116,458.64,-0.10215,0.034051,-1.3569,-0.1362,-2.1286e-07,-0.67847,0,0,0.125,-3.7007e-17,0,0.66667
0.88768,0.07628,7.1015,-0.63558,-11.395,10.837,12.036,-4.012,-0.56343,16.048,-1.704e-09,-0.28172,0,0,0.125,-0,-0,0.66667
0.035231,0.98496,0.28185,0.72744,61.972,442.07,-0.54675,0.18225,-0.11749,-0.729,-3.6862e-06,-0.058747,0,0,0.125,-7.4015e-17,0,0.66667
0.25746,0.23209,2.0597,-0.40187,-31.852,291.8,2.2072,-0.73574,-1.4235,2.943,-1.5872e-11,-0.71177,0,0,0.125,-0,-0,0.66667
0.65168,0.14148,5.2135,-0.53778,-26.249,77.825,7.4765,-2.4922,-0.97032,9.9686,-9.7788e-13,-0.48516,0,0,0.125,1.1842e-15,0,0.66667
0.28578,0.30973,2.2863,-0.2854,-22.223,273.5,1.74,-0.58,-1.7102,2.32,-9.6104e-12,-0.85508,0,0,0.125,-1.4803e-16,0,0.66667
0.0097076,0.94142,0.077661,0.66212,56.411,459.72,-0.13712,0.045692,-0.44018,-0.18283,-2.1744e-05,-0.22009,0,0,0.125,-0,-0,0.66667
0.57545,0.82088,4.6036,0.48132,27.307,110.92,-5.9089,1.9696,-1.1766,-7.8785,9.5657e-13,-0.5883,0,0,0.125,-0,-0,0.66667
0.30779,0.67716,2.4623,0.26574,20.393,259.55,-1.7449,0.58164,-1.7476,-2.3266,2.5554e-12,-0.87381,0,0,0.125,-2.9606e-16,0,0.66667
0.15151,0.8789,1.2121,0.56835,47.245,362.26,-1.8371,0.61236,-0.85095,-2.4494,-4.2788e-09,-0.42547,0,0,0.125,-0,-0,0.66667
0.97128,0.84119,7.7703,0.51178,2.3127,1.7875,-10.604,3.5348,-1.07,-14.139,-1.4228e-06,-0.535,0,0,0.125,-2.9606e-16,0,0.66667
0.16497,0.62094,1.3198,0.18141,14.959,352.99,-0.63844,0.21281,-1.8817,-0.85126,-1.5465e-09,-0.94085,0,0,0.125,2.2204e-16,0,0.66667
0.72724,0.38019,5.8179,-0.17972,-7.1264,49.348,2.7882,-0.9294,-1.8837,3.7176,1.0273e-11,-0.94183,0,0,0.125,-0,-0,0.66667
0.89072,0.65823,7.1258,0.23735,4.06,9.2718,-4.5101,1.5034,-1.8038,-6.0135,1.2704e-08,-0.90189,0,0,0.125,2.3685e-15,0,0.66667
0.85872,0.75999,6.8697,0.38998,8.5731,15.051,-7.1441,2.3814,-1.4615,-9.5255,4.39e-09,-0.73077,0,0,0.125,-0,-0,0.66667
0.18426,0.61874,1.4741,0.17811,14.584,340.01,-0.7001,0.23337,-1.8873,-0.93347,-4.0627e-10,-0.94365,0,0,0.125,-1.4803e-16,0,0.66667
0.23681,0.011331,1.8945,-0.733,-59.023,305.57,3.7031,-1.2344,-0.089916,4.9374,-1.8425e-11,-0.044958,0,0,0.125,-0,-0,0.66667
0.018363,0.034815,0.1469,-0.69778,-59.469,453.73,0.27334,-0.091118,-0.2697,0.36445,-6.32e-06,-0.13485,0,0,0.125,-0,-0,0.66667
0.93141,0.11443,7.4512,-0.57836,-6.4017,5.0238,11.492,-3.8306,-0.8088,15.323,-1.394e-07,-0.4044,0,0,0.125,-0,-0,0.66667
0.88712,0.7494,7.097,0.3741,6.6362,10.092,-7.0799,2.36,-1.5033,-9.4399,1.4949e-08,-0.75163,0,0,0.125,-1.4803e-15,0,0.66667
0.59547,0.73087,4.7637,0.34631,18.914,101.49,-4.3993,1.4664,-1.5745,-5.8657,-1.072e-12,-0.78727,0,0,0.125,-0,-0,0.66667
0.10937,0.85699,0.87494,0.53548,44.995,390.95,-1.2494,0.41646,-0.9834,-1.6658,-1.4756e-08,-0.4917,0,0,0.125,-0,-0,0.66667
0.17354,0.94325,1.3883,0.66487,54.944,347.47,-2.4615,0.82051,-0.42984,-3.282,2.8637e-09,-0.21492,0,0,0.125,-0,-0,0.66667
0.57696,0.38179,4.6157,-0.17731,-9.996,109.8,2.1824,-0.72746,-1.8902,2.9099,1.4988e-13,-0.94512,0,0,0.125,-1.1842e-15,0,0.66667
0.25166,0.617,2.0133,0.1755,13.931,295.45,-0.9422,0.31407,-1.8918,-1.2563,7.6765e-12,-0.94591,0,0,0.125,-0,-0,0.66667
0.30017,0.32765,2.4014,-0.25853,-19.94,264.35,1.6555,-0.55184,-1.7618,2.2074,-7.048e-12,-0.8809,0,0,0.125,5.9212e-16,0,0.66667
0.17099,0.40007,1.3679,-0.14989,-12.333,348.93,0.54676,-0.18225,-1.9225,0.72902,5.9761e-10,-0.96126,0,0,0.125,-1.4803e-16,0,0.66667
0.18959,0.45801,1.5167,-0.062984,-5.145,336.42,0.25475,-0.084916,-1.9865,0.33966,1.6523e-10,-0.99327,0,0,0.125,-0,-0,0.66667
0.46342,0.76701,3.7074,0.40052,26.67,167.74,-3.9596,1.3199,-1.4279,-5.2795,7.2187e-13,-0.71394,0,0,0.125,-0,-0,0.66667
0.50987,0.59604,4.079,0.14405,9.016,142.79,-1.5669,0.52231,-1.9255,-2.0892,-1.4386e-12,-0.96276,0,0,0.125,-0,-0,0.66667
0.51158,0.87649,4.0926,0.56473,35.436,142.45,-6.1633,2.0544,-0.86637,-8.2177,-5.8886e-13,-0.43318,0,0,0.125,1.1842e-15,0,0.66667
0.99714,0.3853,7.9771,-0.17205,0.011189,0.143,3.6599,-1.22,-1.8947,4.8798,-2.1989e-07,-0.94737,0,0,0.125,-0,-0,0.66667
0.1296,0.097212,1.0368,-0.60418,-50.567,377.17,1.6704,-0.5568,-0.7017,2.2272,1.2911e-08,-0.35085,0,0,0.125,-2.9606e-16,0,0.66667
0.75617,0.18122,6.0494,-0.47817,-17.307,40.666,7.7136,-2.5712,-1.1856,10.285,2.3039e-12,-0.59279,0,0,0.125,-0,-0,0.66667
0.79376,0.88384,6.3501,0.57575,18.038,30.315,-9.7495,3.2498,-0.82126,-12.999,-5.7847e-11,-0.41063,0,0,0.125,-0,-0,0.66667
0.58488,0.072043,4.6791,-0.64194,-35.939,106.92,8.0097,-2.6699,-0.53287,10.68,2.5491e-13,-0.26643,0,0,0.125,-0,-0,0.66667
0.46274,0.84465,3.7019,0.51697,34.511,168.29,-5.1034,1.7011,-1.0492,-6.8046,8.34e-13,-0.52461,0,0,0.125,-0,-0,0.66667
0.89343,0.92174,7.1474,0.63261,10.787,9.9572,-12.057,4.0191,-0.57693,-16.076,-1.0058e-07,-0.28847,0,0,0.125,-0,-0,0.66667
0.82818,0.56253,6.6254,0.093788,2.4601,20.973,-1.657,0.55234,-1.9733,-2.2094,1.0956e-09,-0.98663,0,0,0.125,2.3685e-15,0,0.66667
0.050291,0.91,0.40233,0.615,52.23,431.64,-0.65982,0.21994,-0.65552,-0.87976,-3.3051e-07,-0.32776,0,0,0.125,-0,-0,0.66667
0.96298,0.69259,7.7039,0.28889,1.6477,1.6291,-5.9348,1.9783,-1.7021,-7.913,-1.3196e-07,-0.85105,0,0,0.125,-0,-0,0.66667
0.0073399,0.77878,0.058719,0.41818,35.514,461.35,-0.06548,0.021826,-1.3772,-0.087306,-5.5143e-07,-0.68858,0,0,0.125,-0,-0,0.66667
0.57313,0.69458,4.5851,0.29187,16.58,111.7,-3.5686,1.1895,-1.696,-4.7582,-1.9775e-12,-0.848,0,0,0.125,-0,-0,0.66667
0.57243,0.39127,4.5794,-0.16309,-9.2663,111.91,1.9917,-0.66389,-1.9035,2.6556,4.1189e-14,-0.95175,0,0,0.125,-1.1842e-15,0,0.66667
0.83438,0.63342,6.675,0.20012,5.0798,19.688,-3.5622,1.1874,-1.8559,-4.7496,1.5867e-09,-0.92793,0,0,0.125,-0,-0,0.66667
0.38472,0.93039,3.0777,0.64559,46.839,212.98,-5.2985,1.7662,-0.51661,-7.0647,5.409e-13,-0.25831,0,0,0.125,2.9606e-16,0,0.66667
0.091041,0.51944,0.72833,0.02916,2.4507,403.43,-0.056634,0.018878,-1.997,-0.075512,1.2879e-08,-0.9985,0,0,0.125,-0,-0,0.66667
0.58169,0.17715,4.6535,-0.48428,-27.178,108.03,6.0096,-2.0032,-1.1655,8.0128,-3.2419e-14,-0.58277,0,0,0.125,-0,-0,0.66667
0.024846,0.30672,0.19877,-0.28992,-24.581,449.21,0.15367,-0.051224,-1.6997,0.20489,-2.1019e-07,-0.84984,0,0,0.125,-0,-0,0.66667
0.3618,0.81508,2.8944,0.47262,34.885,226.42,-3.6478,1.2159,-1.2072,-4.8638,1.519e-12,-0.60358,0,0,0.125,-1.1842e-15,0,0.66667
0.98532,0.54813,7.8825,0.072202,0.13788,0.33111,-1.5177,0.5059,-1.9832,-2.0236,-9.6641e-07,-0.9916,0,0,0.125,-0,-0,0.66667
0.86878,0.45417,6.9502,-0.068743,-1.3987,12.742,1.2741,-0.42469,-1.9811,1.6988,-1.1761e-09,-0.99056,0,0,0.125,-0,-0,0.66667
0.1525,0.53753,1.22,0.056292,4.6592,361.42,-0.18313,0.061045,-1.9884,-0.24418,-2.3498e-09,-0.99422,0,0,0.125,2.9606e-16,0,0.66667
0.79883,0.36958,6.3906,-0.19563,-5.9347,28.164,3.3338,-1.1113,-1.8653,4.4451,-2.4486e-10,-0.93264,0,0,0.125,-5.9212e-16,0,0.66667
0.811,0.21045,6.488,-0.43432,-12.517,25.536,7.5143,-2.5048,-1.3308,10.019,-2.8814e-10,-0.66538,0,0,0.125,-0,-0,0.66667
0.92821,0.0032513,7.4257,-0.74512,-8.7963,6.0804,14.755,-4.9182,-0.02488,19.673,4.5496e-07,-0.01244,0,0,0.125,4.737e-15,0,0.66667
0.22438,0.044699,1.7951,-0.68295,-55.276,313.66,3.2692,-1.0897,-0.33974,4.3589,-5.3542e-11,-0.16987,0,0,0.125,-0,-0,0.66667
0.49897,0.2008,3.9917,-0.4488,-28.595,148.79,4.7773,-1.5924,-1.2855,6.3697,4.8272e-13,-0.64275,0,0,0.125,-0,-0,0.66667
0.82744,0.030681,6.6196,-0.70398,-18.894,22.571,12.427,-4.1422,-0.24154,16.569,4.021e-10,-0.12077,0,0,0.125,9.6219e-16,0,0.66667
0.66733,0.471,5.3387,-0.043495,-2.0334,70.946,0.61921,-0.2064,-1.9931,0.82561,5.953e-13,-0.99657,0,0,0.125,-0,-0,0.66667
0.59394,0.9495,4.7515,0.67425,37.164,102.89,-8.5432,2.8477,-0.38634,-11.391,-2.256e-13,-0.19317,0,0,0.125,-0,-0,0.66667
0.65198,0.6444,5.2158,0.21661,10.511,77.146,-3.0127,1.0042,-1.832,-4.017,-2.4143e-12,-0.91602,0,0,0.125,-0,-0,0.66667
0.23852,0.028947,1.9081,-0.70658,-56.818,304.43,3.5953,-1.1984,-0.22496,4.7938,-3.4339e-12,-0.11248,0,0,0.125,-1.4803e-16,0,0.66667
0.02554,0.77605,0.20432,0.41407,35.143,448.74,-0.22561,0.075203,-1.3892,-0.30081,6.8248e-07,-0.69461,0,0,0.125,-0,-0,0.66667
0.73626,0.50273,5.8901,0.004102,0.15789,46.301,-0.064429,0.021476,-2.0018,-0.085905,4.4077e-12,-1.0009,0,0,0.125,-0,-0,0.66667
0.32679,0.79698,2.6143,0.44547,33.785,247.82,-3.1056,1.0352,-1.2957,-4.1408,2.2879e-12,-0.64786,0,0,0.125,-3.87e-16,0,0.66667
0.37676,0.50623,3.0141,0.0093459,0.67886,217.14,-0.075118,0.025039,-2.0011,-0.10016,7.1584e-13,-1.0006,0,0,0.125,-0,-0,0.66667
0.61262,0.62438,4.9009,0.18657,9.8435,93.683,-2.4383,0.81277,-1.8773,-3.2511,-1.8623e-12,-0.93865,0,0,0.125,3.7007e-17,0,0.66667
0.65717,0.2622,5.2573,-0.35671,-17.132,75.251,5.0009,-1.667,-1.5494,6.6678,1.1529e-12,-0.77471,0,0,0.125,-1.1842e-15,0,0.66667
0.2029,0.44737,1.6232,-0.078939,-6.4133,327.54,0.34169,-0.1139,-1.9807,0.45558,1.3241e-10,-0.99034,0,0,0.125,5.9212e-16,0,0.66667
0.82603,0.012646,6.6083,-0.73103,-19.795,23.004,12.882,-4.2941,-0.10043,17.176,6.0366e-11,-0.050217,0,0,0.125,2.3685e-15,0,0.66667
0.38021,0.38165,3.0417,-0.17752,-12.861,215.13,1.4399,-0.47996,-1.8868,1.9198,9.811e-13,-0.9434,0,0,0.125,-1.1842e-15,0,0.66667
0.63174,0.62914,5.054,0.19371,9.8274,85.472,-2.6107,0.87023,-1.8653,-3.4809,-1.0665e-12,-0.93265,0,0,0.125,-0,-0,0.66667
0.96641,0.9337,7.7313,0.65055,3.5726,2.5965,-13.412,4.4707,-0.49649,-17.883,-7.3338e-07,-0.24824,0,0,0.125,-1.4803e-15,0,0.66667
0.56479,0.17086,4.5183,-0.49371,-28.528,115.97,5.9486,-1.9829,-1.1336,7.9315,-9.9609e-13,-0.56682,0,0,0.125,-0,-0,0.66667
0.35891,0.26251,2.8713,-0.35624,-26.322,228.04,2.7276,-0.90921,-1.5512,3.6368,-2.7209e-12,-0.77558,0,0,0.125,-0,-0,0.66667
0.61897,0.67482,4.9518,0.26223,13.669,90.993,-3.4627,1.1542,-1.7535,-4.6169,-1.2155e-12,-0.87677,0,0,0.125,-1.1842e-15,0,0.66667
0.50179,0.47176,4.0143,-0.042359,-2.6799,146.95,0.45345,-0.15115,-1.9955,0.6046,-7.3502e-13,-0.99776,0,0,0.125,-0,-0,0.66667
0.45238,0.67688,3.619,0.26532,17.872,173.67,-2.5605,0.85349,-1.7518,-3.414,-4.6452e-13,-0.87592,0,0,0.125,-0,-0,0.66667
0.73227,0.793,5.8582,0.4395,17.225,48.103,-6.8657,2.2886,-1.3138,-9.1543,-1.3388e-11,-0.6569,0,0,0.125,1.1842e-15,0,0.66667
0.92451,0.63185,7.3961,0.19778,2.3446,4.7765,-3.9008,1.3003,-1.8614,-5.201,2.0066e-08,-0.93072,0,0,0.125,-2.3685e-15,0,0.66667
0.47927,0.71357,3.8342,0.32035,20.905,159.06,-3.2754,1.0918,-1.6342,-4.3672,1.5707e-12,-0.8171,0,0,0.125,-8.8818e-16,0,0.66667
0.08823,0.94708,0.70584,0.67062,56.703,405.51,-1.2623,0.42076,-0.39934,-1.683,6.4631e-08,-0.19967,0,0,0.125,-0,-0,0.66667
0.56965,0.58594,4.5572,0.12891,7.3578,113.2,-1.5666,0.52221,-1.9391,-2.0888,-2.3255e-12,-0.96954,0,0,0.125,-0,-0,0.66667
0.24495,0.44031,1.9596,-0.089532,-7.1302,299.8,0.46786,-0.15595,-1.971,0.62381,-1.3577e-11,-0.9855,0,0,0.125,-0,-0,0.66667
0.039578,0.20941,0.31662,-0.43588,-36.969,439.02,0.36803,-0.12268,-1.3225,0.4907,5.2153e-09,-0.66123,0,0,0.125,-0,-0,0.66667
0.78814,0.89843,6.3051,0.59764,19.193,31.879,-10.049,3.3495,-0.72823,-13.398,-3.457e-10,-0.36411,0,0,0.125,-0,-0,0.66667
0.27277,0.71393,2.1821,0.3209,25.193,281.86,-1.8673,0.62244,-1.6324,-2.4898,1.2107e-11,-0.81621,0,0,0.125,-1.4803e-16,0,0.66667
0.77707,0.58001,6.2166,0.12002,3.989,33.972,-1.9896,0.66319,-1.9476,-2.6527,2.8188e-11,-0.97382,0,0,0.125,1.1842e-15,0,0.66667
0.48821,0.89328,3.9057,0.58992,38.21,154.71,-6.144,2.048,-0.76176,-8.1921,-3.9524e-13,-0.38088,0,0,0.125,5.9212e-16,0,0.66667
0.31794,0.42023,2.5435,-0.11966,-9.1109,253.13,0.81162,-0.27054,-1.9473,1.0822,-9.7677e-13,-0.97364,0,0,0.125,-5.9212e-16,0,0.66667
0.31403,0.9157,2.5122,0.62356,47.851,255.99,-4.1773,1.3924,-0.61885,-5.5698,-1.4486e-12,-0.30943,0,0,0.125,-0,-0,0.66667
0.042025,0.50116,0.3362,0.0017365,0.14691,437.3,-0.0015569,0.0005173,-1.9999,-0.0020766,-2.4773e-06,-0.99995,0,0,0.125,-2.9606e-16,0,0.66667
0.5344,0.014319,4.2752,-0.72852,-44.389,131.31,8.3055,-2.7685,-0.11247,11.074,-2.7356e-13,-0.056235,0,0,0.125,-0,-0,0.66667
0.82355,0.94548,6.5884,0.66823,18.267,23.311,-11.74,3.9134,-0.41135,-15.654,3.4453e-10,-0.20567,0,0,0.125,-0,-0,0.66667
0.083895,0.67282,0.67116,0.25923,21.832,408.38,-0.46396,0.15465,-1.7591,-0.61862,-2.3011e-08,-0.87956,0,0,0.125,-1.4803e-16,0,0.66667
0.10856,0.37041,0.86847,-0.19438,-16.286,391.41,0.45017,-0.15006,-1.8684,0.60022,1.4329e-08,-0.93419,0,0,0.125,7.4015e-17,0,0.66667
0.52926,0.083308,4.234,-0.62504,-38.285,133.61,7.0572,-2.3524,-0.61172,9.4096,1.6085e-12,-0.30586,0,0,0.125,-0,-1.3174e-16,0.66667
0.66014,0.12242,5.2811,-0.56637,-27.127,74.522,7.9762,-2.6587,-0.85965,10.635,-3.3484e-13,-0.42983,0,0,0.125,1.4803e-16,0,0.66667
0.69475,0.84787,5.558,0.5218,22.878,61.27,-7.7338,2.5779,-1.0305,-10.312,-6.9025e-12,-0.51527,0,0,0.125,2.3685e-15,0,0.66667
0.31322,0.72766,2.5058,0.34148,26.123,256.19,-2.2818,0.7606,-1.5877,-3.0424,3.5352e-12,-0.79384,0,0,0.125,-0,-0,0.66667
0.037778,0.51168,0.30222,0.017517,1.4824,440.24,-0.014117,0.0047052,-1.9969,-0.018823,-8.2625e-07,-0.99843,0,0,0.125,-0,-0,0.66667
0.41456,0.82318,3.3165,0.48476,34.092,195.3,-4.2873,1.4291,-1.1623,-5.7163,2.1236e-12,-0.58117,0,0,0.125,-0,-0,0.66667
0.22604,0.66723,1.8084,0.25085,20.182,312.25,-1.2097,0.40322,-1.7741,-1.6129,-2.1229e-11,-0.88707,0,0,0.125,-0,-0,0.66667
0.0011148,0.8879,0.0089186,0.58185,49.516,465.67,-0.013837,0.0046145,-0.79784,-0.018448,3.4023e-06,-0.39892,0,0,0.125,-0,-0,0.66667
0.68572,0.62398,5.4857,0.18597,8.3058,64.012,-2.7205,0.90684,-1.8793,-3.6274,-4.7367e-12,-0.93966,0,0,0.125,-4.4409e-16,0,0.66667
0.95206,0.33799,7.6165,-0.24301,-1.8136,2.2869,4.9357,-1.6452,-1.7923,6.5809,6.9226e-08,-0.89615,0,0,0.125,-0,-0,0.66667
0.39115,0.18595,3.1292,-0.47108,-33.882,208.91,3.9309,-1.3103,-1.2146,5.2412,5.5733e-13,-0.60729,0,0,0.125,-6.6613e-16,0,0.66667
0.3003,0.96131,2.4024,0.69196,53.662,264.71,-4.4329,1.4776,-0.29738,-5.9106,8.4333e-13,-0.14869,0,0,0.125,2.9606e-16,0,0.66667
0.55375,0.33471,4.43,-0.24793,-14.54,120.9,2.9289,-0.9763,-1.7795,3.9052,-7.0832e-13,-0.88976,0,0,0.125,5.9212e-16,0,0.66667
0.85198,0.46698,6.8158,-0.049526,-1.1298,15.905,0.90016,-0.30005,-1.9903,1.2002,-2.5447e-09,-0.99517,0,0,0.125,-2.9606e-16,0,0.66667
0.79497,0.82856,6.3597,0.49283,15.314,29.747,-8.3581,2.786,-1.1371,-11.144,4.863e-11,-0.56854,0,0,0.125,-0,-0,0.66667
0.68476,0.92505,5.4781,0.63758,28.793,65.276,-9.3139,3.1046,-0.55459,-12.418,-5.7732e-13,-0.2773,0,0,0.125,-0,-0,0.66667
0.43211,0.81786,3.4569,0.47679,32.923,185.27,-4.3952,1.4651,-1.1907,-5.8602,4.5475e-13,-0.59533,0,0,0.125,-0,-0,0.66667
0.69043,0.48274,5.5235,-0.025893,-1.1411,62.18,0.38138,-0.12713,-1.9974,0.5085,-8.6012e-13,-0.99868,0,0,0.125,1.1842e-15,0,0.66667
0.21603,0.31413,1.7282,-0.2788,-22.541,318.88,1.2849,-0.42829,-1.7249,1.7132,6.2179e-11,-0.86245,0,0,0.125,-0,-0,0.66667
0.28394,0.64158,2.2715,0.21237,16.548,274.64,-1.2865,0.42882,-1.8396,-1.7153,8.1406e-12,-0.91979,0,0,0.125,-5.9212e-16,0,0.66667
0.77782,0.85455,6.2226,0.53182,17.771,34.503,-8.8247,2.9416,-0.99387,-11.766,-2.1918e-11,-0.49694,0,0,0.125,-0,-0,0.66667
0.92998,0.58147,7.4398,0.1222,1.3398,4.1118,-2.4245,0.80816,-1.9447,-3.2326,1.1379e-08,-0.97234,0,0,0.125,-1.1842e-15,0,0.66667
0.19005,0.68764,1.5204,0.28146,23.009,336.17,-1.1411,0.38038,-1.7201,-1.5215,-4.3171e-10,-0.86003,0,0,0.125,5.9212e-16,0,0.66667
0.29606,0.87598,2.3685,0.56398,43.765,267.22,-3.5621,1.1874,-0.87246,-4.7494,6.2295e-12,-0.43623,0,0,0.125,-0,1.8058e-17,0.66667
0.0062103,0.86618,0.049682,0.54928,46.721,462.14,-0.07277,0.024256,-0.92551,-0.097027,-1.7689e-06,-0.46275,0,0,0.125,4.6259e-18,0,0.66667
0.43156,0.11637,3.4525,-0.57544,-39.821,185.74,5.2979,-1.766,-0.82097,7.0639,-1.8776e-12,-0.41049,0,0,0.125,-2.9606e-16,0,0.66667
0.2103,0.57264,1.6824,0.10896,8.8248,322.62,-0.48884,0.16295,-1.9557,-0.65179,-4.8685e-11,-0.97786,0,0,0.125,-0,-0,0.66667
0.64142,0.3382,5.1314,-0.2427,-12.063,81.481,3.321,-1.107,-1.7932,4.428,8.2134e-13,-0.89659,0,0,0.125,-5.9212e-16,0,0.66667
0.70959,0.78758,5.6767,0.43136,18.107,55.762,-6.5299,2.1766,-1.3369,-8.7066,-7.4105e-12,-0.66843,0,0,0.125,-0,-0,0.66667
0.11878,0.49182,0.95022,-0.012266,-1.0248,384.39,0.03108,-0.01036,-1.9978,0.041441,-1.5091e-08,-0.99888,0,0,0.125,-7.4015e-17,0,0.66667
0.082144,0.80883,0.65715,0.46325,39.097,409.63,-0.8118,0.2706,-1.2369,-1.0824,-4.2792e-08,-0.61845,0,0,0.125,2.2204e-16,0,0.66667
0.90634,0.57723,7.2507,0.11584,1.6991,6.9069,-2.2398,0.7466,-1.9551,-2.9864,5.2741e-09,-0.97754,0,0,0.125,1.1842e-15,0,0.66667
0.38924,0.23035,3.1139,-0.40447,-29.118,209.96,3.3586,-1.1195,-1.4197,4.4782,-2.5291e-13,-0.70983,0,0,0.125,5.9212e-16,0,0.66667
0.5334,0.67716,4.2672,0.26574,16.089,130.93,-3.0239,1.008,-1.7495,-4.0319,-5.6932e-13,-0.87477,0,0,0.125,-5.9212e-16,0,0.66667
0.96324,0.52363,7.7059,0.035451,0.19768,1.332,-0.72849,0.24283,-1.9941,-0.97132,4.1901e-08,-0.99706,0,0,0.125,-0,-0,0.66667
0.75905,0.78484,6.0724,0.42725,15.284,39.672,-6.9186,2.3062,-1.3498,-9.2248,-2.024e-11,-0.67489,0,0,0.125,-2.3685e-15,0,0.66667
0.32554,0.55126,2.6043,0.076891,5.8216,248.38,-0.53399,0.178,-1.9791,-0.71199,-3.9652e-12,-0.98957,0,0,0.125,-0,-0,0.66667
0.085849,0.29063,0.68679,-0.31406,-26.451,407.04,0.57519,-0.19173,-1.6473,0.76692,2.7535e-08,-0.82363,0,0,0.125,-1.4803e-16,0,0.66667
0.53602,0.83952,4.2882,0.50929,30.812,129.98,-5.8238,1.9413,-1.0772,-7.7651,-2.7756e-13,-0.53859,0,0,0.125,-2.7473e-16,0,0.66667
0.33613,0.32556,2.689,-0.26167,-19.672,241.9,1.8763,-0.62544,-1.7543,2.5018,-2.7979e-12,-0.87715,0,0,0.125,-0,-0,0.66667
0.021685,0.34446,0.17348,-0.23331,-19.777,451.4,0.10793,-0.035978,-1.806,0.14391,-7.1213e-08,-0.90299,0,0,0.125,-0,-0,0.66667
0.77115,0.89637,6.1692,0.59456,20.435,36.588,-9.7812,3.2604,-0.74149,-13.042,9.2284e-11,-0.37074,0,0,0.125,-5.9212e-16,0,0.66667
0.38491,0.65606,3.0793,0.23409,16.893,212.37,-1.9222,0.64074,-1.8049,-2.563,-4.3765e-13,-0.90245,0,0,0.125,9.2519e-18,0,0.66667
0.57132,0.93655,4.5706,0.65483,37.549,113.25,-7.9812,2.6604,-0.47465,-10.642,-1.7568e-12,-0.23733,0,0,0.125,1.3323e-15,0,0.66667
0.75574,0.61748,6.0459,0.17622,6.3516,40.264,-2.841,0.94701,-1.8881,-3.7881,-9.6554e-12,-0.94406,0,0,0.125,-1.1842e-15,0,0.66667
0.94085,0.75185,7.5268,0.37778,3.5365,3.4893,-7.5825,2.5275,-1.4933,-10.11,2.7939e-08,-0.74665,0,0,0.125,-2.3685e-15,0,0.66667
0.61232,0.25147,4.8986,-0.37279,-19.72,94.038,4.8697,-1.6232,-1.507,6.493,-2.6201e-13,-0.75349,0,0,0.125,-0,-0,0.66667
0.3154,0.22927,2.5232,-0.4061,-31.039,254.88,2.7324,-0.9108,-1.4136,3.6432,-2.389e-12,-0.70679,0,0,0.125,-0,-0,0.66667
0.11008,0.74138,0.88061,0.36206,30.36,390.41,-0.85023,0.28341,-1.5363,-1.1336,-1.6698e-08,-0.76813,0,0,0.125,7.4015e-17,0,0.66667
0.073919,0.94857,0.59135,0.67286,57.027,415.36,-1.0611,0.35369,-0.3892,-1.4147,-9.7104e-07,-0.1946,0,0,0.125,-0,-0,0.66667
0.31969,0.41931,2.5575,-0.12103,-9.2037,252.03,0.82544,-0.27515,-1.9457,1.1006,-2.0314e-12,-0.97284,0,0,0.125,-0,-0,0.66667
0.66084,0.3612,5.2867,-0.2082,-9.8955,73.595,2.9352,-0.97839,-1.8445,3.9136,1.9307e-12,-0.92224,0,0,0.125,-1.1842e-15,0,0.66667
0.69515,0.36788,5.5612,-0.19818,-8.6317,60.547,2.939,-0.97967,-1.8586,3.9187,4.8643e-12,-0.92928,0,0,0.125,-5.9212e-16,0,0.66667
0.20772,0.73831,1.6617,0.35747,29.027,324.42,-1.5841,0.52802,-1.5443,-2.1121,-1.2516e-10,-0.77217,0,0,0.125,-0,-0,0.66667
0.082796,0.67823,0.66237,0.26735,22.521,409.13,-0.47222,0.15741,-1.7447,-0.62962,-2.3639e-08,-0.87234,0,0,0.125,-7.4015e-17,0,0.66667
0.30551,0.52817,2.4441,0.042256,3.2447,260.91,-0.27541,0.091802,-1.9925,-0.36721,-9.7422e-15,-0.99625,0,0,0.125,5.9212e-16,0,0.66667
0.54757,0.35916,4.3806,-0.21126,-12.509,123.88,2.4679,-0.82262,-1.8433,3.2905,-4.3521e-13,-0.92166,0,0,0.125,1.1842e-15,0,0.66667
0.75467,0.17376,6.0374,-0.48936,-17.812,41.151,7.8786,-2.6262,-1.1471,10.505,2.2064e-11,-0.57354,0,0,0.125,-0,-0,0.66667
0.52966,0.44107,4.2373,-0.088389,-5.3757,132.69,0.99874,-0.33291,-1.9742,1.3316,-1.9217e-12,-0.98712,0,0,0.125,-0,-0,0.66667
0.28698,0.80929,2.2959,0.46394,36.162,272.88,-2.8404,0.94679,-1.2338,-3.7872,7.5677e-12,-0.61692,0,0,0.125,-1.3708e-16,0,0.66667
0.62418,0.90794,4.9934,0.61191,31.753,89.432,-8.148,2.716,-0.67193,-10.864,1.0472e-12,-0.33596,0,0,0.125,-2.3685e-15,3.0239e-17,0.66667
0.26484,0.15852,2.1187,-0.51222,-40.484,287.12,2.894,-0.96466,-1.0703,3.8586,9.7216e-12,-0.53514,0,0,0.125,-5.9212e-16,0,0.66667
0.65269,0.3553,5.2215,-0.21704,-10.515,76.857,3.0221,-1.0074,-1.8319,4.0295,7.4118e-13,-0.91593,0,0,0.125,-0,-0,0.66667
0.8419,0.89203,6.7352,0.58805,14.481,18.992,-10.562,3.5206,-0.77121,-14.082,8.9489e-11,-0.3856,0,0,0.125,1.1842e-15,1.7745e-16,0.66667
0.63895,0.18698,5.1116,-0.46953,-23.542,82.874,6.4001,-2.1334,-1.2187,8.5334,2.4292e-13,-0.60933,0,0,0.125,-2.9606e-16,0,0.66667
0.56563,0.34366,4.5251,-0.23452,-13.486,115.19,2.8299,-0.94329,-1.8057,3.7732,-2.0628e-13,-0.90285,0,0,0.125,3.7007e-17,0,0.66667
0.30714,0.19339,2.4571,-0.45992,-35.377,260.11,3.0136,-1.0045,-1.2468,4.0181,-4.6101e-12,-0.62339,0,0,0.125,-0,-0,0.66667
0.87678,0.66786,7.0142,0.25179,4.8386,11.534,-4.7096,1.5699,-1.7755,-6.2795,9.4232e-09,-0.88775,0,0,0.125,-0,-0,0.66667
0.98882,0.96964,7.9106,0.70446,1.288,1.9564,-14.86,4.9535,-0.23569,-19.814,5.7164e-05,-0.11784,0,0,0.125,-0,-0,0.66667
0.77748,0.33041,6.2198,-0.25439,-8.4547,33.996,4.2193,-1.4064,-1.769,5.6258,-3.3635e-11,-0.88452,0,0,0.125,-0,-0,0.66667
0.57364,0.040194,4.5892,-0.68971,-39.426,112.26,8.4405,-2.8135,-0.30758,11.254,-1.5987e-12,-0.15379,0,0,0.125,-0,7.542e-17,0.66667
0.14128,0.53468,1.1302,0.052027,4.3208,369.04,-0.15681,0.052269,-1.9935,-0.20907,8.1362e-10,-0.99674,0,0,0.125,5.9212e-16,0,0.66667
0.31493,0.96343,2.5194,0.69515,53.379,255.53,-4.6703,1.5568,-0.28277,-6.2271,1.1391e-12,-0.14138,0,0,0.125,-1.4803e-16,0,0.66667
0.36686,0.80289,2.9349,0.45433,33.384,223.35,-3.5558,1.1853,-1.264,-4.741,7.9847e-13,-0.63201,0,0,0.125,-2.9606e-16,0,0.66667
0.2919,0.9046,2.3352,0.60691,47.255,269.91,-3.7793,1.2598,-0.69011,-5.039,-1.6875e-13,-0.34505,0,0,0.125,8.8818e-16,0,0.66667
0.44595,0.45973,3.5676,-0.06041,-4.0948,177.14,0.57472,-0.19157,-1.9851,0.7663,2.6024e-13,-0.99253,0,0,0.125,-0,-0,0.66667
0.61063,0.26,4.8851,-0.36,-19.104,94.758,4.6897,-1.5632,-1.5408,6.2529,-4.4054e-13,-0.77039,0,0,0.125,-0,-0,0.66667
0.21291,0.26616,1.7033,-0.35077,-28.415,320.97,1.5932,-0.53108,-1.5606,2.1243,8.3525e-11,-0.78028,0,0,0.125,-2.9606e-16,0,0.66667
0.24976,0.47458,1.9981,-0.038133,-3.0289,296.66,0.20318,-0.067728,-1.9981,0.27091,3.6903e-12,-0.99904,0,0,0.125,-5.9212e-16,0,0.66667
0.11215,0.21552,0.8972,-0.42672,-35.787,389.01,1.0209,-0.34032,-1.3535,1.3613,1.4799e-08,-0.67675,0,0,0.125,1.8504e-16,0,0.66667
0.30759,0.83241,2.4607,0.49862,38.361,259.87,-3.2719,1.0906,-1.1146,-4.3625,4.9682e-12,-0.55728,0,0,0.125,-0,-0,0.66667
0.49745,0.16486,3.9796,-0.50271,-32.121,149.67,5.3349,-1.7783,-1.1019,7.1131,7.3896e-13,-0.55093,0,0,0.125,-0,-0,0.66667
0.48981,0.36145,3.9185,-0.20782,-13.368,153.33,2.1716,-0.72387,-1.8446,2.8955,6.0441e-13,-0.92232,0,0,0.125,-5.9212e-16,0,0.66667
0.99558,0.89597,7.9646,0.59395,0.31814,1.3123,-12.615,4.205,-0.74456,-16.82,2.2888e-06,-0.37228,0,0,0.125,-0,-0,0.66667
0.98111,0.77957,7.8489,0.41935,1.1711,1.0697,-8.7771,2.9257,-1.3756,-11.703,-5.0753e-07,-0.68778,0,0,0.125,1.6283e-15,0,0.66667
0.43656,0.84552,3.4925,0.51828,35.64,182.82,-4.827,1.609,-1.048,-6.4359,1.0396e-12,-0.52399,0,0,0.125,-0,-1.6339e-16,0.66667
0.97202,0.93598,7.7762,0.65397,2.9877,2.3246,-13.561,4.5203,-0.48023,-18.081,-9.6805e-06,-0.24011,0,0,0.125,-0,-0,0.66667
0.2144,0.87543,1.7152,0.56315,45.703,320.14,-2.5758,0.85859,-0.87272,-3.4343,-4.7866e-10,-0.43636,0,0,0.125,-5.9212e-16,0,0.66667
0.54112,0.71619,4.329,0.32429,19.416,127.16,-3.7435,1.2478,-1.6253,-4.9914,4.6652e-13,-0.81267,0,0,0.125,-8.8818e-16,0,0.66667
0.45344,0.45992,3.6275,-0.060118,-4.0405,172.98,0.58154,-0.19385,-1.99,0.77538,6.446e-13,-0.99499,0,0,0.125,-5.9212e-16,0,0.66667
0.96761,0.011828,7.7409,-0.73226,-3.9624,2.9204,15.115,-5.0385,-0.095101,20.154,-2.8903e-06,-0.04755,0,0,0.125,-0,1.3929e-16,0.66667
0.83618,0.93103,6.6894,0.64654,16.499,20.42,-11.533,3.8444,-0.51199,-15.378,-5.6404e-09,-0.256,0,0,0.125,-0,-0,0.66667
0.21415,0.084764,1.7132,-0.62285,-50.6,320.36,2.8455,-0.9485,-0.61952,3.794,-3.8262e-10,-0.30976,0,0,0.125,-0,-0,0.66667
0.43954,0.93456,3.5163,0.65184,44.784,181.39,-6.1122,2.0374,-0.49094,-8.1496,1.541e-13,-0.24547,0,0,0.125,1.4803e-16,0,0.66667
0.16848,0.84561,1.3478,0.51841,42.824,350.77,-1.8633,0.62108,-1.0451,-2.4843,-2.0225e-09,-0.52257,0,0,0.125,5.9212e-16,0,0.66667
0.52909,0.96164,4.2327,0.69245,42.489,133.86,-7.8159,2.6053,-0.29607,-10.421,8.0824e-13,-0.14803,0,0,0.125,5.9212e-16,0,0.66667
0.79348,0.27304,6.3479,-0.34044,-10.602,29.778,5.7628,-1.9209,-1.5877,7.6837,-1.3754e-10,-0.79384,0,0,0.125,-5.9212e-16,0,0.66667
0.035879,0.48529,0.28703,-0.022063,-1.8674,441.55,0.016888,-0.0056291,-1.9968,0.022517,2.4719e-07,-0.99842,0,0,0.125,7.4015e-17,0,0.66667
0.19136,0.026703,1.5309,-0.70995,-58.321,335.58,2.8982,-0.96608,-0.20781,3.8643,1.7296e-11,-0.1039,0,0,0.125,-1.4803e-16,0,0.66667
0.97746,0.28172,7.8196,-0.32742,-1.091,0.97245,6.8275,-2.2758,-1.6182,9.1033,2.6678e-07,-0.8091,0,0,0.125,-2.3685e-15,0,0.66667
0.9608,0.01254,7.6864,-0.73119,-4.7751,3.3061,14.987,-4.9957,-0.096847,19.983,-5.4425e-06,-0.048424,0,0,0.125,-0,-0,0.66667
0.55659,0.81711,4.4527,0.47566,27.849,119.85,-5.6479,1.8826,-1.1944,-7.5306,-9.1349e-13,-0.5972,0,0,0.125,-0,-0,0.66667
0.64609,0.68533,5.1687,0.278,13.68,79.607,-3.8317,1.2772,-1.7246,-5.1089,-2.2575e-12,-0.86232,0,0,0.125,-5.9212e-16,0,0.66667
0.27209,0.8454,2.1767,0.5181,40.78,282.46,-3.0074,1.0025,-1.0448,-4.0098,1.5793e-11,-0.5224,0,0,0.125,-0,-0,0.66667
0.95209,0.037442,7.6167,-0.69384,-5.4789,3.7145,14.093,-4.6976,-0.29055,18.79,-5.53e-06,-0.14527,0,0,0.125,-0,9.4079e-17,0.66667
0.66977,0.21161,5.3582,-0.43258,-20.186,70.438,6.181,-2.0603,-1.3356,8.2413,6.4082e-13,-0.66782,0,0,0.125,1.1842e-15,0,0.66667
0.66681,0.019403,5.3345,-0.7209,-34.132,72.379,10.255,-3.4183,-0.15065,13.673,7.6383e-14,-0.075324,0,0,0.125,-0,-0,0.66667
0.011103,0.17334,0.088827,-0.49,-41.644,458.75,0.11607,-0.038688,-1.145,0.15475,5.9051e-07,-0.57248,0,0,0.125,1.8504e-17,0,0.66667
0.85297,0.59001,6.8238,0.13502,3.0627,15.756,-2.4568,0.81895,-1.934,-3.2758,2.8671e-09,-0.96702,0,0,0.125,-1.7764e-15,0,0.66667
0.77833,0.0073443,6.2266,-0.73898,-24.846,35.091,12.27,-4.0901,-0.058537,16.36,-1.9206e-11,-0.029268,0,0,0.125,4.737e-15,-1.0645e-16,0.66667
0.68492,0.67393,5.4794,0.26089,11.685,64.389,-3.8121,1.2707,-1.7581,-5.0827,-5.2136e-12,-0.87903,0,0,0.125,-0,-0,0.66667
0.74078,0.83099,5.9263,0.49649,18.955,45.495,-7.8461,2.6154,-1.1215,-10.462,-1.7844e-12,-0.56074,0,0,0.125,-1.1842e-15,0,0.66667
0.15657,0.33546,1.2526,-0.24681,-20.417,358.69,0.8244,-0.2748,-1.7863,1.0992,2.4289e-09,-0.89313,0,0,0.125,1.4803e-16,0,0.66667
0.71878,0.57047,5.7502,0.1057,4.2995,52.145,-1.6208,0.54028,-1.9636,-2.1611,-6.3132e-12,-0.98178,0,0,0.125,-0,-0,0.66667
0.096818,0.70117,0.77455,0.30175,25.361,399.49,-0.62326,0.20775,-1.6759,-0.83101,-2.2923e-08,-0.83795,0,0,0.125,-0,-0,0.66667
0.70695,0.89364,5.6556,0.59046,25.073,57.097,-8.905,2.9683,-0.75951,-11.873,-4.4844e-12,-0.37976,0,0,0.125,-1.1842e-15,0,0.66667
0.0026318,0.10243,0.021054,-0.59636,-50.761,464.62,0.03348,-0.011161,-0.73583,0.044639,-1.5319e-06,-0.36791,0,0,0.125,-0,-8.3082e-17,0.66667
0.77621,0.89618,6.2096,0.59427,20.029,35.151,-9.8406,3.2802,-0.74289,-13.121,3.7607e-11,-0.37144,0,0,0.125,-0,-0,0.66667
0.49156,0.16976,3.9325,-0.49536,-31.894,152.76,5.1946,-1.7315,-1.1253,6.9262,-6.0307e-13,-0.56265,0,0,0.125,-0,-0,0.66667
0.20439,0.90836,1.6351,0.61254,49.968,326.82,-2.6708,0.89028,-0.66857,-3.5611,-5.9524e-10,-0.33428,0,0,0.125,-0,-0,0.66667
0.72925,0.41868,5.834,-0.12197,-4.804,48.635,1.8976,-0.63253,-1.9455,2.5301,6.41e-12,-0.97274,0,0,0.125,1.1842e-15,0,0.66667
0.31565,0.54415,2.5252,0.066219,5.0493,254.54,-0.44591,0.14864,-1.984,-0.59455,-3.7383e-12,-0.992,0,0,0.125,-5.9212e-16,0,0.66667
0.88382,0.91013,7.0705,0.61519,11.372,11.364,-11.599,3.8664,-0.6531,-15.466,-1.3866e-08,-0.32655,0,0,0.125,-0,-0,0.66667
0.18023,0.3165,1.4419,-0.27525,-22.586,342.74,1.0583,-0.35278,-1.7293,1.4111,7.1547e-10,-0.86464,0,0,0.125,5.9212e-16,0,0.66667
0.93855,0.72397,7.5084,0.33595,3.2584,3.598,-6.7266,2.2422,-1.6011,-8.9688,1.6963e-08,-0.80053,0,0,0.125,-0,-0,0.66667
0.97075,0.41629,7.766,-0.12557,-0.54647,0.96424,2.6004,-0.86681,-1.9447,3.4673,7.0955e-08,-0.97237,0,0,0.125,-0,-0,0.66667
0.30449,0.12282,2.4359,-0.56577,-43.661,261.9,3.6751,-1.225,-0.86085,4.9001,1.054e-12,-0.43042,0,0,0.125,-7.4015e-16,0,0.66667
0.86249,0.39431,6.8999,-0.15854,-3.3765,13.953,2.917,-0.97234,-1.9103,3.8893,-2.8973e-09,-0.95516,0,0,0.125,-0,-0,0.66667
0.84218,0.12743,6.7374,-0.55885,-13.72,18.833,10.041,-3.3469,-0.89179,13.387,-2.0354e-09,-0.4459,0,0,0.125,-2.3685e-15,1.2587e-16,0.66667
0.42461,0.24593,3.3969,-0.3811,-26.492,189.4,3.4522,-1.1507,-1.4844,4.6029,-1.5437e-12,-0.74221,0,0,0.125,5.9212e-16,0,0.66667
0.36368,0.45678,2.9095,-0.064837,-4.7634,225,0.50304,-0.16768,-1.9839,0.67072,3.2158e-13,-0.99194,0,0,0.125,5.9212e-16,0,0.66667
0.28244,0.41166,2.2595,-0.13251,-10.331,275.58,0.79842,-0.26614,-1.9397,1.0646,-8.4714e-12,-0.96987,0,0,0.125,-0,-0,0.66667
0.99324,0.54349,7.9459,0.065233,0.037272,0.12285,-1.3822,0.46074,-1.9827,-1.843,8.3569e-07,-0.99137,0,0,0.125,-0,-0,0.66667
0.25575,0.16402,2.046,-0.50397,-40.031,292.99,2.7497,-0.91656,-1.0954,3.6662,-5.0959e-13,-0.54771,0,0,0.125,-0,-0,0.66667
0.92068,0.42194,7.3654,-0.1171,-1.4557,5.1259,2.2999,-0.76664,-1.9527,3.0666,-5.5768e-09,-0.97634,0,0,0.125,-1.1842e-15,0,0.66667
0.42834,0.66732,3.4267,0.25098,17.358,187.16,-2.2934,0.76448,-1.774,-3.0579,-2.3803e-13,-0.88701,0,0,0.125,-0,-0,0.66667
0.93543,0.38454,7.4834,-0.17318,-1.7513,3.6168,3.456,-1.152,-1.8941,4.608,1.2793e-08,-0.94706,0,0,0.125,-0,-0,0.66667
0.83884,0.035132,6.7108,-0.6973,-17.578,20.054,12.478,-4.1595,-0.27056,16.638,9.6852e-10,-0.13528,0,0,0.125,-0,-0,0.66667
0.15578,0.83278,1.2462,0.49918,41.4,359.33,-1.6589,0.55296,-1.1165,-2.2118,-7.1955e-10,-0.55824,0,0,0.125,-0,-0,0.66667
0.57428,0.88002,4.5943,0.57003,32.46,111.65,-6.9837,2.3279,-0.84449,-9.3116,1.2177e-12,-0.42224,0,0,0.125,-0,-0,0.66667
0.6735,0.33368,5.388,-0.24948,-11.503,68.702,3.5845,-1.1948,-1.7799,4.7794,2.3805e-12,-0.88994,0,0,0.125,5.9212e-16,0,0.66667
0.40582,0.83678,3.2466,0.50516,35.847,200.38,-4.3735,1.4578,-1.0955,-5.8313,8.9928e-13,-0.54776,0,0,0.125,2.9606e-16,0,0.66667
0.004877,0.40127,0.039016,-0.14809,-12.554,463.06,0.015408,-0.0051356,-1.9212,0.020544,3.8637e-07,-0.96062,0,0,0.125,2.313e-18,0,0.66667
0.32533,0.62406,2.6027,0.1861,14.098,248.54,-1.2916,0.43053,-1.8782,-1.7221,-2.1277e-12,-0.93911,0,0,0.125,-7.4015e-17,0,0.66667
0.83894,0.15074,6.7116,-0.52389,-13.084,19.401,9.3763,-3.1254,-1.0233,12.502,-1.0058e-09,-0.51166,0,0,0.125,-0,-0,0.66667
0.062824,0.53924,0.50259,0.058864,4.9691,422.9,-0.078892,0.026297,-1.9906,-0.10519,-9.4953e-08,-0.99528,0,0,0.125,-0,-0,0.66667
0.10542,0.076539,0.84336,-0.63519,-53.496,393.7,1.4285,-0.47617,-0.56443,1.9047,-1.3398e-07,-0.28221,0,0,0.125,1.4803e-16,0,0.66667
0.70179,0.9331,5.6143,0.64965,28.039,59.108,-9.7262,3.2421,-0.50155,-12.968,-1.1839e-12,-0.25078,0,0,0.125,-2.9606e-16,-7.1639e-17,0.66667
0.51416,0.58594,4.1133,0.12891,8.0193,140.58,-1.414,0.47133,-1.9425,-1.8853,-9.6867e-13,-0.97124,0,0,0.125,5.9212e-16,0,0.66667
0.49817,0.097724,3.9853,-0.60341,-38.589,149.49,6.4128,-2.1376,-0.70709,8.5504,2.8955e-13,-0.35354,0,0,0.125,-0,6.8121e-17,0.66667
0.37361,0.13991,2.9889,-0.54014,-39.506,219.41,4.3051,-1.435,-0.96389,5.7401,7.6961e-13,-0.48195,0,0,0.125,-0,-0,0.66667
0.60351,0.94096,4.8281,0.66144,35.799,98.565,-8.516,2.8387,-0.4435,-11.355,-9.1305e-13,-0.22175,0,0,0.125,-0,-0,0.66667
0.85147,0.35039,6.8118,-0.22442,-5.1472,16.151,4.0765,-1.3588,-1.8192,5.4353,-3.2156e-09,-0.90959,0,0,0.125,-0,-0,0.66667
0.27692,0.80696,2.2154,0.46044,36.111,279.3,-2.7202,0.90672,-1.2456,-3.6269,4.2895e-12,-0.62282,0,0,0.125,-1.4803e-16,0,0.66667
0.84476,0.9507,6.7581,0.67605,16.447,18.732,-12.184,4.0612,-0.37662,-16.245,1.2318e-08,-0.18831,0,0,0.125,1.1842e-15,0,0.66667
0.41662,0.63669,3.333,0.20504,14.349,193.83,-1.8224,0.60746,-1.8489,-2.4298,1.34e-13,-0.92444,0,0,0.125,-0,-0,0.66667
0.50098,0.51115,4.0079,0.016729,1.0595,147.37,-0.1788,0.059599,-2.0008,-0.2384,-9.2618e-13,-1.0004,0,0,0.125,-0,-0,0.66667
0.72962,0.98144,5.837,0.72216,28.788,49.825,-11.241,3.7469,-0.14427,-14.988,1.3376e-12,-0.072133,0,0,0.125,-1.1842e-15,0,0.66667
0.25872,0.98466,2.0698,0.72699,57.859,291.32,-4.0126,1.3375,-0.11858,-5.3501,1.5173e-11,-0.059291,0,0,0.125,-0,-0,0.66667
0.92164,0.60261,7.3731,0.15392,1.8918,5.0483,-3.0263,1.0088,-1.9187,-4.035,-1.0248e-09,-0.95934,0,0,0.125,-0,-0,0.66667
0.70207,0.13128,5.6166,-0.55309,-23.786,58.718,8.2838,-2.7613,-0.91454,11.045,3.042e-12,-0.45727,0,0,0.125,2.3685e-15,0,0.66667
0.61893,0.33593,4.9514,-0.2461,-12.828,90.993,3.2495,-1.0832,-1.783,4.3326,-1.154e-12,-0.89152,0,0,0.125,-0,-0,0.66667
0.27301,0.9016,2.1841,0.60241,47.449,281.96,-3.5085,1.1695,-0.70827,-4.678,9.0159e-12,-0.35413,0,0,0.125,2.9606e-16,0,0.66667
0.69585,0.70998,5.5668,0.31498,13.712,60.442,-4.6757,1.5586,-1.6453,-6.2343,-7.0579e-12,-0.82265,0,0,0.125,-0,-0,0.66667
0.25721,0.075316,2.0577,-0.63703,-50.66,292.18,3.4955,-1.1652,-0.55493,4.6607,7.2968e-12,-0.27746,0,0,0.125,-0,-0,0.66667
0.81645,0.36453,6.5316,-0.2032,-5.6714,23.792,3.5393,-1.1798,-1.8523,4.7191,-4.6649e-10,-0.92617,0,0,0.125,1.1842e-15,0,0.66667
0.011472,0.17335,0.09178,-0.48998,-41.642,458.49,0.11992,-0.039973,-1.1452,0.15989,5.2649e-07,-0.57261,0,0,0.125,1.8504e-17,0,0.66667
0.16654,0.077767,1.3323,-0.63335,-52.441,352.16,2.2502,-0.75006,-0.57197,3.0002,-1.651e-09,-0.28599,0,0,0.125,2.9606e-16,0,0.66667
0.55783,0.50684,4.4626,0.010264,0.59732,118.81,-0.12214,0.040714,-1.9987,-0.16286,-4.6386e-13,-0.99935,0,0,0.125,-0,-0,0.66667
0.71228,0.77762,5.6982,0.41642,17.338,54.793,-6.3277,2.1092,-1.3823,-8.4369,-8.0016e-12,-0.69115,0,0,0.125,-0,-0,0.66667
0.49248,0.13862,3.9398,-0.54208,-34.887,152.36,5.6952,-1.8984,-0.95294,7.5936,1.6893e-12,-0.47647,0,0,0.125,-0,-0,0.66667
0.87781,0.14713,7.0225,-0.52931,-10.209,12.037,9.9121,-3.304,-1.004,13.216,-3.9976e-10,-0.50199,0,0,0.125,-0,-0,0.66667
0.97587,0.9162,7.807,0.6243,2.4281,2.0201,-12.997,4.3323,-0.61217,-17.329,-8.7359e-06,-0.30608,0,0,0.125,-0,-0,0.66667
0.46428,0.87242,3.7142,0.55863,37.249,167.52,-5.533,1.8443,-0.89028,-7.3773,-1.4042e-12,-0.44514,0,0,0.125,2.9606e-16,0,0.66667
0.76799,0.93882,6.1439,0.65824,22.952,37.718,-10.784,3.5948,-0.46113,-14.379,-4.5674e-11,-0.23057,0,0,0.125,-0,-0,0.66667
0.49477,0.59227,3.9582,0.13841,8.8414,150.67,-1.4609,0.48696,-1.9316,-1.9478,2.7789e-13,-0.96578,0,0,0.125,2.2204e-16,0,0.66667
0.6651,0.07643,5.3208,-0.63535,-30.129,72.77,9.0149,-3.005,-0.56252,12.02,6.839e-14,-0.28126,0,0,0.125,-0,-0,0.66667
0.22487,0.96408,1.799,0.69613,56.343,313.36,-3.3395,1.1132,-0.27579,-4.4527,5.4708e-11,-0.13789,0,0,0.125,-1.4803e-16,0,0.66667
0.10954,0.38954,0.87633,-0.16569,-13.877,390.73,0.38719,-0.12906,-1.9051,0.51626,9.6887e-09,-0.95254,0,0,0.125,-0,-0,0.66667
0.97901,0.4721,7.8321,-0.041852,-0.12403,0.54272,0.8741,-0.29137,-1.993,1.1655,-2.0643e-07,-0.99652,0,0,0.125,-0,-0,0.66667
0.81499,0.78087,6.52,0.4213,11.903,24.536,-7.3249,2.4416,-1.3707,-9.7666,2.4884e-10,-0.68533,0,0,0.125,1.5543e-15,0,0.66667
0.28538,0.52687,2.2831,0.040305,3.1358,273.68,-0.24539,0.081795,-1.994,-0.32718,1.9877e-13,-0.99698,0,0,0.125,-0,-0,0.66667
0.58583,0.1774,4.6866,-0.48391,-26.957,106.12,6.0477,-2.0159,-1.1653,8.0636,7.5318e-13,-0.58266,0,0,0.125,-5.9212e-16,0,0.66667
0.38007,0.46947,3.0406,-0.045794,-3.3167,215.17,0.37131,-0.12377,-1.9924,0.49508,-6.3188e-13,-0.99622,0,0,0.125,-0,-0,0.66667
0.17634,0.25812,1.4107,-0.36282,-29.836,345.4,1.3649,-0.45497,-1.531,1.8199,8.676e-10,-0.76549,0,0,0.125,-5.9212e-16,0,0.66667
0.41884,0.34825,3.3507,-0.22763,-15.896,192.57,2.0339,-0.67796,-1.8163,2.7119,-1.4815e-12,-0.90814,0,0,0.125,-0,-0,0.66667
0.29719,0.94853,2.3775,0.6728,52.265,266.65,-4.2656,1.4219,-0.39318,-5.6874,-5.7954e-13,-0.19659,0,0,0.125,-0,-0,0.66667
0.016624,0.2961,0.13299,-0.30586,-25.944,454.91,0.10847,-0.036157,-1.669,0.14463,-5.0663e-08,-0.83452,0,0,0.125,-3.7007e-17,0,0.66667
0.38737,0.78577,3.0989,0.42866,30.922,211.09,-3.5424,1.1808,-1.347,-4.7232,1.3016e-12,-0.6735,0,0,0.125,1.1842e-15,0,0.66667
0.92091,0.56351,7.3673,0.09527,1.1804,5.0834,-1.8717,0.6239,-1.9709,-2.4956,3.4552e-08,-0.98546,0,0,0.125,-0,-0,0.66667
0.8282,0.44734,6.6256,-0.078991,-2.0715,20.961,1.3956,-0.46521,-1.9809,1.8608,-7.3448e-10,-0.99043,0,0,0.125,-0,-0,0.66667
0.57407,0.62939,4.5926,0.19409,10.998,111.17,-2.377,0.79233,-1.8658,-3.1693,-3.3396e-13,-0.93292,0,0,0.125,-0,-0,0.66667
0.31865,0.24546,2.5492,-0.38181,-29.108,252.83,2.5955,-0.86515,-1.4805,3.4606,-2.2362e-12,-0.74024,0,0,0.125,4.4409e-16,0,0.66667
0.23126,0.69081,1.8501,0.28621,22.975,308.83,-1.4121,0.47069,-1.7094,-1.8828,-1.3569e-11,-0.85469,0,0,0.125,5.9212e-16,0,0.66667
0.95602,0.77061,7.6482,0.40591,2.8123,2.3596,-8.2786,2.7595,-1.4141,-11.038,-1.5955e-09,-0.70705,0,0,0.125,-0,-0,0.66667
0.56461,0.36265,4.5169,-0.20602,-11.865,115.65,2.4816,-0.82719,-1.8496,3.3087,-1.0214e-13,-0.92481,0,0,0.125,-5.9212e-16,0,0.66667
0.21761,0.47162,1.7408,-0.042574,-3.4362,317.77,0.19764,-0.06588,-1.9962,0.26352,5.3543e-11,-0.99809,0,0,0.125,5.9212e-16,0,0.66667
0.24948,0.63019,1.9959,0.19528,15.52,296.87,-1.0393,0.34644,-1.8674,-1.3858,1.1317e-11,-0.93371,0,0,0.125,-5.9212e-16,0,0.66667
0.9596,0.90128,7.6768,0.60192,3.9417,2.7934,-12.322,4.1074,-0.71045,-16.429,3.0215e-06,-0.35523,0,0,0.125,1.7764e-15,0,0.66667
0.23881,0.26484,1.9105,-0.35274,-28.224,303.91,1.7971,-0.59904,-1.5563,2.3962,-1.0371e-11,-0.77813,0,0,0.125,-0,-0,0.66667
0.10671,0.92568,0.85371,0.63852,53.764,392.82,-1.4536,0.48455,-0.55042,-1.9382,1.4916e-07,-0.27521,0,0,0.125,-1.2637e-16,1.6041e-16,0.66667
0.18396,0.70113,1.4717,0.3017,24.726,340.25,-1.184,0.39467,-1.6757,-1.5787,-5.7024e-10,-0.83783,0,0,0.125,-2.9606e-16,0,0.66667
0.76622,0.043036,6.1298,-0.68545,-24.085,38.33,11.204,-3.7348,-0.33171,14.939,4.11e-11,-0.16585,0,0,0.125,-0,-0,0.66667
0.70876,0.83208,5.6701,0.49812,20.991,56.207,-7.5317,2.5106,-1.116,-10.042,-4.7771e-12,-0.55799,0,0,0.125,1.1842e-15,0,0.66667
0.43794,0.41619,3.5035,-0.12571,-8.5986,181.65,1.1745,-0.39149,-1.9464,1.566,-2.8799e-13,-0.97318,0,0,0.125,-1.1842e-15,0,0.66667
0.7938,0.15426,6.3504,-0.5186,-16.211,30.126,8.7823,-2.9274,-1.0446,11.71,-7.2509e-11,-0.52232,0,0,0.125,-1.3323e-15,0,0.66667
0.51751,0.33621,4.1401,-0.24569,-15.223,138.94,2.7125,-0.90417,-1.7865,3.6167,-8.3622e-13,-0.89326,0,0,0.125,-0,-0,0.66667
0.4136,0.82155,3.3088,0.48233,33.953,195.85,-4.2558,1.4186,-1.1709,-5.6744,6.3105e-13,-0.58543,0,0,0.125,1.1842e-15,0,0.66667
0.11744,0.69551,0.93954,0.29327,24.536,385.34,-0.73477,0.24492,-1.6923,-0.97969,-1.1369e-08,-0.84615,0,0,0.125,-0,-0,0.66667
0.88391,0.27061,7.0713,-0.34409,-6.263,10.532,6.4884,-2.1628,-1.577,8.6512,-1.2937e-08,-0.7885,0,0,0.125,1.1842e-15,0,0.66667
0.27559,0.84032,2.2047,0.51048,40.093,280.2,-3.0013,1.0004,-1.0726,-4.0017,1.7816e-11,-0.53629,0,0,0.125,3.7007e-16,0,0.66667
0.61626,0.071645,4.9301,-0.64253,-33.907,92.922,8.4473,-2.8158,-0.53016,11.263,-1.0587e-12,-0.26508,0,0,0.125,-0,-0,0.66667
0.98458,0.4275,7.8766,-0.10875,-0.22189,0.37765,2.2843,-0.76144,-1.9608,3.0458,-4.1506e-07,-0.9804,0,0,0.125,-0,-0,0.66667
0.18942,0.54934,1.5153,0.074005,6.0457,336.54,-0.29905,0.099682,-1.9812,-0.39873,-1.4807e-10,-0.99061,0,0,0.125,-2.9606e-16,0,0.66667
0.96519,0.74377,7.7215,0.36566,1.972,1.6711,-7.5292,2.5097,-1.5245,-10.039,-2.0803e-07,-0.76223,0,0,0.125,-5.9212e-16,0,0.66667
0.65272,0.27386,5.2217,-0.33921,-16.456,77.006,4.7234,-1.5745,-1.5906,6.2978,4.0457e-13,-0.79531,0,0,0.125,5.9212e-16,0,0.66667
0.12873,0.62091,1.0299,0.18136,15.12,377.6,-0.49808,0.16603,-1.8831,-0.6641,-5.9481e-09,-0.94155,0,0,0.125,-7.4015e-17,0,0.66667
0.77193,0.10576,6.1754,-0.59136,-20.263,36.355,9.7384,-3.2461,-0.75458,12.984,-6.1371e-11,-0.37729,0,0,0.125,1.1842e-15,0,0.66667
0.95178,0.8465,7.6142,0.51975,4.0169,3.0228,-10.553,3.5178,-1.0419,-14.071,2.5803e-07,-0.52096,0,0,0.125,-0,-0,0.66667
0.56278,0.8287,4.5022,0.49305,28.584,116.92,-5.9195,1.9732,-1.1382,-7.8927,3.3307e-13,-0.5691,0,0,0.125,-0,-0,0.66667
0.68856,0.084959,5.5084,-0.62256,-27.825,63.821,9.1449,-3.0483,-0.62384,12.193,2.7889e-13,-0.31192,0,0,0.125,-0,-0,0.66667
0.026348,0.2432,0.21078,-0.3852,-32.682,448.18,0.21652,-0.072173,-1.4714,0.28869,-5.1455e-07,-0.73569,0,0,0.125,-1.8504e-17,0,0.66667
0.98908,0.41068,7.9126,-0.13399,-0.17278,0.26808,2.8271,-0.94238,-1.9356,3.7695,-3.8137e-09,-0.96778,0,0,0.125,-0,-0,0.66667
0.31846,0.66236,2.5477,0.24353,18.547,252.85,-1.6545,0.5515,-1.7877,-2.206,1.548e-12,-0.89387,0,0,0.125,-0,-0,0.66667
0.023904,0.55138,0.19123,0.077066,6.5281,449.86,-0.0393,0.0131,-1.9767,-0.0524,-2.5307e-07,-0.98837,0,0,0.125,-3.7007e-17,0,0.66667
0.80856,0.51856,6.4685,0.027847,0.80652,25.594,-0.48035,0.16012,-1.9963,-0.64047,7.9168e-11,-0.99814,0,0,0.125,-0,-0,0.66667
0.97325,0.66548,7.786,0.24822,0.98899,1.0003,-5.1537,1.7179,-1.7799,-6.8715,-1.3519e-07,-0.88993,0,0,0.125,-0,-0,0.66667
0.73759,0.58605,5.9007,0.12907,4.949,45.914,-2.031,0.677,-1.9407,-2.708,-1.0402e-11,-0.97035,0,0,0.125,-1.1842e-15,0,0.66667
0.0027358,0.94114,0.021886,0.66171,56.38,464.55,-0.038623,0.012883,-0.44408,-0.051493,1.3203e-05,-0.22204,0,0,0.125,9.2519e-18,7.0599e-16,0.66667
0.063361,0.84953,0.50688,0.5243,44.404,422.59,-0.70869,0.23623,-1.0251,-0.94492,-9.8146e-08,-0.51256,0,0,0.125,-0,-0,0.66667
0.58427,0.26975,4.6742,-0.34538,-19.253,106.6,4.3049,-1.435,-1.5739,5.7399,-1.8385e-13,-0.78696,0,0,0.125,5.9212e-16,0,0.66667
0.33572,0.56652,2.6857,0.099784,7.4981,242.08,-0.71465,0.23822,-1.9632,-0.95286,-2.7457e-12,-0.98162,0,0,0.125,-0,-0,0.66667
0.88183,0.85003,7.0547,0.52504,9.8068,11.36,-9.8773,3.2924,-1.0182,-13.17,-1.7302e-10,-0.50912,0,0,0.125,-0,-0,0.66667
0.87367,0.84528,6.9894,0.51792,10.303,12.701,-9.6531,3.2177,-1.0489,-12.871,1.3626e-09,-0.52446,0,0,0.125,-0,-0,0.66667
0.98752,0.56755,7.9002,0.10132,0.15645,0.28335,-2.1346,0.71152,-1.9638,-2.8461,8.2951e-07,-0.98192,0,0,0.125,-2.3685e-15,0,0.66667
0.71583,0.72078,5.7267,0.33118,13.624,53.404,-5.0574,1.6858,-1.6111,-6.7432,-1.2654e-11,-0.80553,0,0,0.125,2.3685e-15,0,0.66667
0.87688,0.53042,7.0151,0.045626,0.87315,11.325,-0.85352,0.28451,-1.9948,-1.138,1.2973e-08,-0.99741,0,0,0.125,-8.8818e-16,0,0.66667
0.31965,0.95201,2.5572,0.67802,51.873,252.56,-4.6235,1.5412,-0.36323,-6.1647,1.1591e-12,-0.18162,0,0,0.125,-0,-0,0.66667
0.11118,0.94499,0.88942,0.66749,56.174,389.78,-1.5831,0.52771,-0.41708,-2.1109,6.5148e-08,-0.20854,0,0,0.125,-0,-0,0.66667
0.86536,0.52211,6.9229,0.033162,0.6914,13.348,-0.61222,0.20407,-1.9944,-0.81629,1.4609e-10,-0.99718,0,0,0.125,-0,-0,0.66667
0.30347,0.93564,2.4278,0.65346,50.535,262.65,-4.2305,1.4102,-0.4809,-5.6407,1.8816e-12,-0.24045,0,0,0.125,6.6613e-16,0,0.66667
0.41933,0.99204,3.3547,0.73806,51.893,193.02,-6.6025,2.2008,-0.063649,-8.8033,-2.9829e-12,-0.031824,0,0,0.125,2.9606e-16,1.1241e-16,0.66667
0.64603,0.073512,5.1682,-0.63973,-31.705,80.394,8.8168,-2.9389,-0.5432,11.756,1.0667e-12,-0.2716,0,0,0.125,-1.1842e-15,0,0.66667
0.6051,0.14723,4.8408,-0.52916,-28.467,97.524,6.8308,-2.2769,-1.0035,9.1077,1.3913e-12,-0.50174,0,0,0.125,-5.9212e-16,0,0.66667
0.42092,0.13332,3.3674,-0.55001,-38.471,191.75,4.939,-1.6463,-0.92647,6.5853,-3.3618e-13,-0.46324,0,0,0.125,-0,-0,0.66667
0.38615,0.62572,3.0892,0.18858,13.59,211.61,-1.5535,0.51785,-1.8737,-2.0714,3.1364e-13,-0.93687,0,0,0.125,-0,-0,0.66667
0.12268,0.35356,0.98145,-0.21966,-18.345,381.74,0.5749,-0.19163,-1.8289,0.76653,8.5448e-09,-0.91447,0,0,0.125,2.9606e-16,0,0.66667
0.53386,0.87758,4.2709,0.56637,34.413,131.18,-6.4504,2.1501,-0.86068,-8.6005,6.2172e-14,-0.43034,0,0,0.125,-0,-0,0.66667
0.23285,0.67426,1.8628,0.26138,20.961,307.77,-1.2984,0.43281,-1.7582,-1.7313,-7.1244e-12,-0.87909,0,0,0.125,-0,-0,0.66667
0.75481,0.99197,6.0385,0.73796,27.081,41.927,-11.883,3.961,-0.06256,-15.844,3.0254e-11,-0.03128,0,0,0.125,-0,-0,0.66667
0.67487,0.33042,5.399,-0.25437,-11.689,68.183,3.6622,-1.2207,-1.7697,4.8829,3.3371e-12,-0.88483,0,0,0.125,-1.1842e-15,0,0.66667
0.071927,0.85321,0.57542,0.52982,44.823,416.68,-0.81298,0.27099,-1.0001,-1.084,-1.0329e-07,-0.50005,0,0,0.125,-0,-0,0.66667
0.98926,0.6389,7.9141,0.20835,0.26751,0.35271,-4.3971,1.4657,-1.8441,-5.8628,1.1596e-07,-0.92205,0,0,0.125,-0,-0,0.66667
0.78046,0.28548,6.2437,-0.32179,-10.58,33.271,5.3577,-1.7859,-1.6346,7.1436,-4.2113e-11,-0.81732,0,0,0.125,-2.3685e-15,0,0.66667
0.22783,0.58834,1.8226,0.13252,10.646,311.04,-0.64407,0.21469,-1.9361,-0.85876,-5.2531e-12,-0.96806,0,0,0.125,2.9606e-16,0,0.66667
0.030743,0.30867,0.24594,-0.287,-24.324,445.12,0.18823,-0.062742,-1.7104,0.25097,-1.848e-07,-0.85518,0,0,0.125,-5.5511e-17,0,0.66667
0.47837,0.3079,3.827,-0.28816,-18.819,159.51,2.9407,-0.98024,-1.7036,3.9209,5.4112e-13,-0.8518,0,0,0.125,8.8818e-16,0,0.66667
0.35274,0.37965,2.8219,-0.18053,-13.389,231.67,1.3585,-0.45283,-1.8828,1.8113,-7.1054e-13,-0.94139,0,0,0.125,-0,-0,0.66667
0.54651,0.75877,4.3721,0.38815,23.064,124.6,-4.5254,1.5085,-1.4671,-6.0339,-1.6387e-13,-0.73354,0,0,0.125,-0,-0,0.66667
0.65966,0.95569,5.2773,0.68353,32.879,75.055,-9.6192,3.2064,-0.33818,-12.826,-1.1013e-12,-0.16909,0,0,0.125,-0,-0,0.66667
0.79722,0.53956,6.3778,0.059346,1.8112,28.482,-1.0093,0.33644,-1.9903,-1.3458,2.4012e-11,-0.99515,0,0,0.125,-0,-0,0.66667
0.013544,0.95853,0.10835,0.68779,58.617,457.07,-0.19873,0.066219,-0.3187,-0.26498,-3.532e-05,-0.15935,0,0,0.125,-0,-0,0.66667
0.7143,0.74003,5.7144,0.36004,14.886,53.984,-5.4864,1.8288,-1.538,-7.3152,-1.1276e-11,-0.76899,0,0,0.125,-0,-0,0.66667
0.29531,0.23865,2.3625,-0.39202,-30.369,267.52,2.4697,-0.82325,-1.4547,3.293,-8.0635e-12,-0.72737,0,0,0.125,-0,-0,0.66667
0.9864,0.49396,7.8912,-0.009055,-0.015584,0.28,0.19055,-0.063523,-2.0009,0.25406,-1.1446e-05,-1.0005,0,0,0.125,-1.7764e-15,0,0.66667
0.84624,0.47034,6.7699,-0.044487,-1.0518,17.061,0.80313,-0.26771,-1.9945,1.0708,-2.5932e-09,-0.99723,0,0,0.125,-0,-0,0.66667
0.5604,0.53674,4.4832,0.055103,3.1935,117.58,-0.65877,0.21959,-1.9904,-0.87836,-7.1465e-13,-0.9952,0,0,0.125,-0,-0,0.66667
0.59777,0.074711,4.7821,-0.63793,-34.882,101.06,8.1351,-2.7117,-0.55204,10.847,2.3954e-12,-0.27602,0,0,0.125,-1.1842e-15,0,0.66667
0.19208,0.76766,1.5366,0.4015,32.83,334.87,-1.6452,0.54839,-1.4255,-2.1936,-3.3718e-10,-0.71273,0,0,0.125,-2.9606e-16,0,0.66667
0.22625,0.24048,1.81,-0.38927,-31.352,312.18,1.8789,-0.6263,-1.4592,2.5052,8.05e-12,-0.72959,0,0,0.125,-0,-0,0.66667
0.15401,0.19809,1.2321,-0.45286,-37.56,360.5,1.4879,-0.49597,-1.2713,1.9839,2.6381e-09,-0.63567,0,0,0.125,-0,-0,0.66667
0.37781,0.86326,3.0225,0.54489,39.71,216.91,-4.3918,1.4639,-0.94426,-5.8558,1.4073e-12,-0.47213,0,0,0.125,5.9212e-16,0,0.66667
0.11196,0.70221,0.89564,0.30331,25.41,389.1,-0.72442,0.24147,-1.6729,-0.96589,-1.4484e-08,-0.83647,0,0,0.125,-0,-0,0.66667
0.51127,0.8317,4.0902,0.49755,31.197,142.48,-5.4268,1.8089,-1.1186,-7.2358,-2.7045e-13,-0.55931,0,0,0.125,5.9212e-16,0,0.66667
0.63848,0.68781,5.1078,0.28172,14.099,82.749,-3.8372,1.2791,-1.7199,-5.1163,-2.4956e-12,-0.85994,0,0,0.125,-0,-0,0.66667
0.12221,0.059733,0.9777,-0.6604,-55.426,382.23,1.7218,-0.57393,-0.45032,2.2957,1.3654e-07,-0.22516,0,0,0.125,7.4015e-17,0,0.66667
0.3442,0.67316,2.7536,0.25974,19.406,236.93,-1.9073,0.63575,-1.7625,-2.543,5.3424e-13,-0.88123,0,0,0.125,-5.9212e-16,0,0.66667
0.070348,0.47901,0.56278,-0.031482,-2.6549,417.7,0.047247,-0.015749,-1.9944,0.062997,3.2072e-08,-0.99719,0,0,0.125,-0,-0,0.66667
0.52576,0.68992,4.2061,0.28488,17.448,134.79,-3.1953,1.0651,-1.7108,-4.2604,-2.2427e-13,-0.85541,0,0,0.125,-0,-0,0.66667
0.65029,0.34471,5.2023,-0.23294,-11.349,77.845,3.2315,-1.0772,-1.8066,4.3087,4.0612e-13,-0.90328,0,0,0.125,-0,-0,0.66667
0.61547,0.05929,4.9238,-0.66107,-34.956,93.316,8.6798,-2.8933,-0.44522,11.573,-1.4708e-12,-0.22261,0,0,0.125,5.9212e-16,0,0.66667
0.81387,0.55144,6.511,0.077167,2.1786,24.31,-1.3398,0.4466,-1.9802,-1.7864,1.2589e-10,-0.99011,0,0,0.125,-1.1842e-15,0,0.66667
0.23557,0.0050586,1.8845,-0.74241,-59.828,306.4,3.7309,-1.2436,-0.042481,4.9746,-2.2656e-11,-0.021241,0,0,0.125,-0,-0,0.66667
0.61818,0.93901,4.9455,0.65851,34.631,92.136,-8.6843,2.8948,-0.45737,-11.579,-9.5568e-13,-0.22869,0,0,0.125,-0,-0,0.66667
0.30283,0.13792,2.4226,-0.54312,-41.945,262.92,3.5087,-1.1696,-0.94923,4.6783,-4.2617e-12,-0.47461,0,0,0.125,-5.9212e-16,0,0.66667
0.088768,0.53462,0.71014,0.051934,4.3666,405,-0.098348,0.032783,-1.9898,-0.13113,-6.3926e-08,-0.99492,0,0,0.125,-0,-0,0.66667
0.30526,0.22629,2.4421,-0.41057,-31.603,261.25,2.6737,-0.89124,-1.3988,3.565,-5.4727e-12,-0.69942,0,0,0.125,-0,-0,0.66667
0.071356,0.71687,0.57085,0.3253,27.463,417.03,-0.49519,0.16506,-1.6229,-0.66026,-3.9257e-08,-0.81143,0,0,0.125,8.4578e-17,0,0.66667
0.95857,0.85906,7.6686,0.53859,3.5768,2.6134,-11.014,3.6713,-0.9668,-14.685,7.4122e-07,-0.4834,0,0,0.125,-0,-0,0.66667
0.72717,0.20937,5.8173,-0.43594,-17.361,49.779,6.7627,-2.2542,-1.3223,9.0169,1.2349e-11,-0.66114,0,0,0.125,-0,-0,0.66667
0.10146,0.13603,0.81169,-0.54595,-45.958,396.38,1.1817,-0.3939,-0.93808,1.5756,5.4172e-09,-0.46904,0,0,0.125,-0,-0,0.66667
0.78627,0.78415,6.2902,0.42623,13.718,31.893,-7.1495,2.3832,-1.3535,-9.5327,-2.8297e-12,-0.67677,0,0,0.125,2.3685e-15,0,0.66667
0.35216,0.82593,2.8172,0.4889,36.381,232.29,-3.6729,1.2243,-1.1479,-4.8972,9.9942e-13,-0.57395,0,0,0.125,-0,-0,0.66667
0.91144,0.56666,7.2915,0.09999,1.3871,6.2327,-1.9442,0.64807,-1.9637,-2.5923,-2.6317e-08,-0.98183,0,0,0.125,-2.3685e-15,0,0.66667
0.4955,0.889,3.964,0.58349,37.432,150.85,-6.1679,2.056,-0.78811,-8.2238,2.3093e-13,-0.39405,0,0,0.125,-0,-0,0.66667
0.87269,0.78984,6.9815,0.43476,8.6764,12.624,-8.0941,2.698,-1.3286,-10.792,7.1114e-09,-0.66429,0,0,0.125,-0,-0,0.66667
0.22053,0.91023,1.7642,0.61535,49.839,316.13,-2.895,0.965,-0.65543,-3.86,1.7485e-10,-0.32771,0,0,0.125,5.9212e-16,0,0.66667
0.36719,0.030129,2.9375,-0.70481,-51.986,223.53,5.5211,-1.8404,-0.23294,7.3614,-1.2697e-12,-0.11647,0,0,0.125,-0,-0,0.66667
0.36684,0.64267,2.9347,0.214,15.689,223.15,-1.6748,0.55825,-1.8349,-2.233,-3.6482e-13,-0.91745,0,0,0.125,-0,-0,0.66667
0.097133,0.2981,0.77706,-0.30285,-25.451,399.27,0.62755,-0.20918,-1.6733,0.83673,2.2861e-08,-0.83664,0,0,0.125,1.4803e-16,0,0.66667
0.33101,0.16031,2.6481,-0.50953,-38.556,245.28,3.5981,-1.1994,-1.0776,4.7975,-3.2281e-12,-0.5388,0,0,0.125,-0,-0,0.66667
0.65971,0.87449,5.2777,0.56174,26.929,74.681,-7.9058,2.6353,-0.87894,-10.541,-1.6547e-12,-0.43947,0,0,0.125,-3.3307e-16,0,0.66667
0.46654,0.36704,3.7323,-0.19944,-13.207,165.84,1.985,-0.66168,-1.8594,2.6467,-3.0231e-13,-0.92968,0,0,0.125,-2.9606e-16,0,0.66667
0.87923,0.12808,7.0339,-0.55787,-10.659,11.897,10.464,-3.488,-0.89332,13.952,-1.9566e-08,-0.44666,0,0,0.125,-0,-0,0.66667
0.26967,0.82695,2.1574,0.49043,38.643,283.99,-2.8214,0.94047,-1.1437,-3.7619,1.2042e-11,-0.57187,0,0,0.125,-0,-0,0.66667
0.35482,0.63572,2.8386,0.20358,15.075,230.42,-1.541,0.51367,-1.8514,-2.0547,-7.3208e-13,-0.9257,0,0,0.125,-0,-0,0.66667
0.32035,0.41546,2.5628,-0.12681,-9.6386,251.62,0.86664,-0.28888,-1.9408,1.1555,-1.7193e-12,-0.9704,0,0,0.125,-5.9212e-16,0,0.66667
0.55174,0.82339,4.4139,0.48509,28.628,122.22,-5.7097,1.9032,-1.1619,-7.6129,-8.038e-14,-0.58097,0,0,0.125,-0,-0,0.66667
0.18822,0.16183,1.5058,-0.50726,-41.592,337.51,2.0368,-0.67894,-1.0878,2.7158,1.1401e-11,-0.5439,0,0,0.125,-0,-0,0.66667
0.17324,0.74696,1.386,0.37045,30.499,347.48,-1.3691,0.45637,-1.5144,-1.8255,-9.7172e-10,-0.75721,0,0,0.125,7.4015e-17,0,0.66667
0.93948,0.53816,7.5159,0.057246,0.54017,3.1466,-1.1474,0.38245,-1.9895,-1.5298,1.9858e-07,-0.99474,0,0,0.125,-0,-0,0.66667
0.37665,0.70871,3.0132,0.31306,22.774,217.34,-2.5155,0.8385,-1.6527,-3.354,7.0211e-13,-0.82634,0,0,0.125,-0,-0,0.66667
0.5871,0.90861,4.6968,0.61292,34.156,105.83,-7.6766,2.5589,-0.66334,-10.235,-1.112e-12,-0.33167,0,0,0.125,2.3685e-15,0,0.66667
0.055152,0.95702,0.44122,0.68553,58.255,428.3,-0.80658,0.26887,-0.32686,-1.0754,5.5455e-06,-0.16343,0,0,0.125,7.4015e-17,0,0.66667
0.14086,0.28325,1.1269,-0.32512,-27.039,369.38,0.97698,-0.32566,-1.6281,1.3026,4.9552e-09,-0.81403,0,0,0.125,-0,-0,0.66667
0.096359,0.44133,0.77087,-0.088012,-7.39,399.78,0.18092,-0.060307,-1.9734,0.24123,2.9623e-10,-0.98672,0,0,0.125,2.9606e-16,0,0.66667
0.81212,0.68719,6.4969,0.28078,8.0169,24.946,-4.8646,1.6215,-1.7237,-6.4862,4.7533e-10,-0.86186,0,0,0.125,4.4409e-16,0,0.66667
0.10315,0.74702,0.82517,0.37053,31.118,395.16,-0.81533,0.27178,-1.5109,-1.0871,-2.1607e-08,-0.75544,0,0,0.125,2.2204e-16,0,0.66667
0.51632,0.57336,4.1305,0.11004,6.8239,139.46,-1.212,0.40401,-1.9591,-1.616,1.1023e-12,-0.97956,0,0,0.125,-1.1842e-15,0,0.66667
0.15558,0.22373,1.2446,-0.41441,-34.339,359.43,1.3754,-0.45847,-1.3922,1.8339,1.9143e-09,-0.69611,0,0,0.125,5.9212e-16,0,0.66667
0.27882,0.89741,2.2305,0.59612,46.786,278.23,-3.5458,1.1819,-0.737,-4.7277,5.306e-12,-0.3685,0,0,0.125,-0,-0,0.66667
0.8826,0.3607,7.0608,-0.20895,-3.8284,10.508,3.9344,-1.3115,-1.8425,5.2458,-8.5986e-09,-0.92123,0,0,0.125,-0,-0,0.66667
0.63159,0.41182,5.0528,-0.13227,-6.7096,85.49,1.7822,-0.59405,-1.9363,2.3762,-8.995e-13,-0.96816,0,0,0.125,-0,-0,0.66667
0.96366,0.48145,7.7093,-0.02782,-0.15319,1.305,0.57193,-0.19064,-1.9956,0.76257,-2.288e-07,-0.99782,0,0,0.125,-0,-0,0.66667
0.59971,0.20392,4.7977,-0.44412,-24.1,99.745,5.6821,-1.894,-1.2967,7.5761,6.2084e-13,-0.64834,0,0,0.125,-0,-0,0.66667
0.0095197,0.90442,0.076158,0.60663,51.639,459.85,-0.1232,0.041059,-0.69083,-0.16426,-8.6798e-06,-0.34542,0,0,0.125,-3.2167e-18,0,0.66667
0.41564,0.27589,3.3251,-0.33617,-23.574,194.5,2.9808,-0.99361,-1.5968,3.9745,-1.6165e-12,-0.79841,0,0,0.125,8.8818e-16,0,0.66667
0.022442,0.69757,0.17953,0.29636,25.131,450.88,-0.14188,0.047295,-1.6857,-0.18918,1.9755e-07,-0.84286,0,0,0.125,-0,-0,0.66667
0.31398,0.27115,2.5119,-0.34327,-26.246,255.71,2.2993,-0.76644,-1.5824,3.0658,-2.3095e-12,-0.79118,0,0,0.125,-0,-0,0.66667
0.48162,0.09111,3.853,-0.61333,-40.079,158.26,6.3018,-2.1006,-0.66354,8.4024,-7.7716e-14,-0.33177,0,0,0.125,2.9606e-16,1.6987e-16,0.66667
0.57546,0.42752,4.6037,-0.10873,-6.1435,110.46,1.3348,-0.44493,-1.9581,1.7797,-1.3286e-12,-0.97907,0,0,0.125,5.9212e-16,0,0.66667
0.23865,0.34422,1.9092,-0.23366,-18.681,303.96,1.1896,-0.39655,-1.8062,1.5862,-1.3558e-12,-0.90312,0,0,0.125,-0,-0,0.66667
0.55829,0.65889,4.4663,0.23833,13.874,118.7,-2.8386,0.94619,-1.798,-3.7848,-2.4127e-12,-0.89901,0,0,0.125,2.3685e-15,0,0.66667
0.39492,0.11675,3.1594,-0.57488,-41.267,206.85,4.8434,-1.6145,-0.82406,6.4578,9.2282e-13,-0.41203,0,0,0.125,-0,-0,0.66667
0.50658,0.6597,4.0527,0.23955,15.07,144.56,-2.5888,0.86294,-1.7948,-3.4518,2.609e-13,-0.89741,0,0,0.125,-0,-0,0.66667
0.19597,0.40206,1.5677,-0.14691,-11.972,332.17,0.61416,-0.20472,-1.9219,0.81888,1.2578e-10,-0.96096,0,0,0.125,5.6012e-16,0,0.66667
0.15675,0.35344,1.254,-0.21984,-18.181,358.56,0.73515,-0.24505,-1.8307,0.9802,2.2813e-09,-0.91533,0,0,0.125,-2.9606e-16,0,0.66667
0.75452,0.037676,6.0361,-0.69349,-25.429,41.845,11.163,-3.7209,-0.28927,14.883,-2.7748e-11,-0.14463,0,0,0.125,2.3685e-15,0,0.66667
0.32997,0.30211,2.6398,-0.29684,-22.426,245.72,2.0896,-0.69653,-1.6876,2.7861,-1.6693e-12,-0.84381,0,0,0.125,-0,-0,0.66667
0.6442,0.52222,5.1536,0.03333,1.6445,80.208,-0.45805,0.15268,-1.9956,-0.61074,-7.892e-13,-0.99779,0,0,0.125,-0,-0,0.66667
0.56546,0.57795,4.5236,0.11692,6.7207,115.19,-1.4105,0.47015,-1.9511,-1.8806,-2.1209e-12,-0.97555,0,0,0.125,-0,-0,0.66667
0.89953,0.93405,7.1962,0.65108,10.509,9.1545,-12.494,4.1647,-0.49162,-16.659,-1.9441e-07,-0.24581,0,0,0.125,-1.214e-15,0,0.66667
0.88068,0.73,7.0455,0.34499,6.4474,11.057,-6.4817,2.1606,-1.575,-8.6423,1.1397e-08,-0.78752,0,0,0.125,-0,-0,0.66667
0.44311,0.61645,3.5449,0.17468,11.883,178.77,-1.6512,0.5504,-1.89,-2.2016,3.3618e-13,-0.94499,0,0,0.125,-5.9212e-16,0,0.66667
0.20474,0.85457,1.6379,0.53186,43.329,326.52,-2.323,0.77433,-0.99536,-3.0973,-9.6667e-11,-0.49768,0,0,0.125,-0,-0,0.66667
0.63219,0.11451,5.0575,-0.57823,-29.485,85.95,7.7984,-2.5995,-0.80912,10.398,3.5705e-13,-0.40456,0,0,0.125,-5.9212e-16,0,0.66667
0.63684,0.6087,5.0947,0.16304,8.1799,83.312,-2.2151,0.73836,-1.9046,-2.9535,-1.5676e-12,-0.95228,0,0,0.125,-0,-0,0.66667
0.69242,0.17986,5.5393,-0.4802,-21.166,62.017,7.0933,-2.3644,-1.179,9.4578,2.9763e-12,-0.58948,0,0,0.125,-5.9212e-16,0,0.66667
0.90747,0.84591,7.2598,0.51887,7.6567,7.5814,-10.045,3.3483,-1.0454,-13.393,-1.9342e-09,-0.52272,0,0,0.125,2.3685e-15,0,0.66667
0.78258,0.79663,6.2606,0.44494,14.547,32.946,-7.4283,2.4761,-1.2974,-9.9044,3.7784e-11,-0.64869,0,0,0.125,1.1842e-15,0,0.66667
0.62529,0.025064,5.0023,-0.7124,-36.982,89.254,9.5031,-3.1677,-0.19863,12.671,5.9686e-13,-0.099317,0,0,0.125,-1.1842e-15,0,0.66667
0.60097,0.25755,4.8077,-0.36368,-19.664,99.047,4.6626,-1.5542,-1.5279,6.2168,-5.1248e-13,-0.76396,0,0,0.125,-0,-0,0.66667
0.21276,0.05614,1.7021,-0.66579,-54.16,321.32,3.0219,-1.0073,-0.42248,4.0292,2.6652e-10,-0.21124,0,0,0.125,2.7401e-16,0,0.66667
0.65137,0.27906,5.2109,-0.33141,-16.126,77.538,4.6053,-1.5351,-1.6092,6.1404,1.2945e-12,-0.80458,0,0,0.125,-2.9606e-16,0,0.66667
0.8145,0.42002,6.516,-0.11997,-3.3775,24.182,2.0845,-0.69484,-1.9494,2.7794,-3.5956e-10,-0.97472,0,0,0.125,-1.1842e-15,0,0.66667
0.92232,0.14444,7.3786,-0.53334,-6.642,5.8255,10.494,-3.498,-0.99105,13.992,-5.5925e-08,-0.49553,0,0,0.125,1.1842e-15,0,0.66667
0.91665,0.8757,7.3332,0.56355,7.5393,6.5906,-11.02,3.6734,-0.87063,-14.694,4.6372e-08,-0.43531,0,0,0.125,-0,-0,0.66667
0.5611,0.10312,4.4888,-0.59532,-34.678,117.95,7.126,-2.3753,-0.74137,9.5014,-1.8288e-12,-0.37068,0,0,0.125,-0,1.3762e-16,0.66667
0.25983,0.23635,2.0787,-0.39548,-31.302,290.26,2.1922,-0.73072,-1.442,2.9229,-1.7631e-11,-0.72099,0,0,0.125,2.9606e-16,0,0.66667
0.3338,0.068058,2.6704,-0.64791,-49.032,243.75,4.6138,-1.5379,-0.5062,6.1517,-3.6282e-12,-0.2531,0,0,0.125,-0,-0,0.66667
0.99776,0.75501,7.9821,0.38251,-0.019195,0.54788,-8.142,2.714,-1.4809,-10.856,7.488e-07,-0.74045,0,0,0.125,-0,-0,0.66667
0.5256,0.8604,4.2048,0.5406,33.236,135.27,-6.0616,2.0205,-0.959,-8.0821,7.1232e-13,-0.4795,0,0,0.125,-0,-0,0.66667
0.81591,0.42173,6.5273,-0.11741,-3.2824,23.842,2.0436,-0.68119,-1.9503,2.7248,-3.3077e-10,-0.97517,0,0,0.125,-0,-0,0.66667
0.59702,0.8014,4.7761,0.4521,24.66,100.97,-5.758,1.9193,-1.2729,-7.6774,-1.4269e-12,-0.63644,0,0,0.125,5.9212e-16,0,0.66667
0.50693,0.080306,4.0554,-0.62954,-39.807,144.99,6.8082,-2.2694,-0.58865,9.0776,1.473e-12,-0.29433,0,0,0.125,5.9212e-16,0,0.66667
0.34854,0.985,2.7883,0.7275,54.514,234.85,-5.4094,1.8031,-0.11665,-7.2125,4.5963e-13,-0.058327,0,0,0.125,-5.9212e-16,0,0.66667
0.53777,0.72092,4.3022,0.33139,19.945,128.83,-3.8018,1.2673,-1.6086,-5.0691,6.3971e-13,-0.80432,0,0,0.125,-0,-0,0.66667
0.0067347,0.70592,0.053878,0.30887,26.206,461.77,-0.044377,0.014792,-1.6586,-0.059169,-2.9528e-07,-0.82932,0,0,0.125,-0,-0,0.66667
0.87669,0.31612,7.0135,-0.27582,-5.3077,11.589,5.1585,-1.7195,-1.7314,6.878,-9.2201e-09,-0.86571,0,0,0.125,-0,-0,0.66667
0.56149,0.035161,4.4919,-0.69726,-40.686,118.02,8.352,-2.784,-0.274,11.136,-7.8337e-13,-0.137,0,0,0.125,-0,-6.4827e-17,0.66667
0.024281,0.35853,0.19425,-0.2122,-17.983,449.6,0.10992,-0.03664,-1.8377,0.14656,-1.0565e-07,-0.91883,0,0,0.125,-3.7007e-17,0,0.66667
0.81817,0.11886,6.5454,-0.57171,-15.988,24.213,9.9789,-3.3263,-0.83657,13.305,-9.1457e-10,-0.41829,0,0,0.125,5.9212e-16,0,0.66667
0.13535,0.077722,1.0828,-0.63342,-52.955,373.27,1.829,-0.60968,-0.5717,2.4387,-2.2853e-08,-0.28585,0,0,0.125,2.9606e-16,0,0.66667
0.030639,0.14839,0.24511,-0.52741,-44.808,445.22,0.34473,-0.11491,-1.0135,0.45964,-1.1416e-06,-0.50676,0,0,0.125,1.8504e-17,0,0.66667
0.46234,0.58827,3.6987,0.13241,8.8091,168.1,-1.306,0.43533,-1.9362,-1.7413,-6.5048e-13,-0.96812,0,0,0.125,-8.8818e-16,0,0.66667
0.96066,0.28815,7.6853,-0.31778,-1.9397,1.8336,6.5125,-2.1708,-1.6392,8.6833,1.2408e-07,-0.81959,0,0,0.125,-2.3685e-15,0,0.66667
0.093614,0.20254,0.74891,-0.44619,-37.573,401.73,0.89108,-0.29703,-1.2949,1.1881,2.6422e-08,-0.64744,0,0,0.125,1.4803e-16,0,0.66667
0.065599,0.53313,0.52479,0.049695,4.1935,420.98,-0.069545,0.023182,-1.9921,-0.092727,-2.3484e-08,-0.99607,0,0,0.125,-1.4803e-16,0,0.66667
0.87994,0.49529,7.0395,-0.0070684,-0.13202,10.808,0.13269,-0.044229,-1.9991,0.17692,2.0469e-08,-0.99953,0,0,0.125,-1.1842e-15,0,0.66667
0.82137,0.55112,6.571,0.076686,2.0848,22.527,-1.3437,0.44791,-1.977,-1.7916,3.0154e-10,-0.9885,0,0,0.125,-0,-0,0.66667
0.81997,0.68595,6.5598,0.27893,7.6585,23.065,-4.8792,1.6264,-1.7225,-6.5056,7.1688e-10,-0.86123,0,0,0.125,-1.3589e-15,0,0.66667
0.46782,0.12852,3.7425,-0.55723,-36.998,165.59,5.5612,-1.8537,-0.89875,7.4149,1.2879e-14,-0.44938,0,0,0.125,-1.1842e-15,0,0.66667
0.42749,0.71754,3.4199,0.32631,22.602,187.7,-2.9759,0.99196,-1.621,-3.9678,4.9538e-13,-0.81049,0,0,0.125,2.2204e-16,0,0.66667
0.40107,0.85402,3.2085,0.53103,37.871,203.19,-4.5435,1.5145,-0.99586,-6.058,4.059e-13,-0.49793,0,0,0.125,-0,-0,0.66667
0.58222,0.013568,4.6577,-0.72965,-41.135,108.4,9.0627,-3.0209,-0.10598,12.084,3.5483e-12,-0.052988,0,0,0.125,-2.3685e-15,0,0.66667
0.72897,0.23493,5.8318,-0.39761,-15.732,49.098,6.1833,-2.0611,-1.4361,8.2444,1.4996e-11,-0.71804,0,0,0.125,-8.6327e-16,0,0.66667
0.78429,0.54908,6.2743,0.073622,2.3755,31.94,-1.2318,0.41061,-1.9804,-1.6424,2.021e-11,-0.9902,0,0,0.125,1.1842e-15,0,0.66667
0.6548,0.36977,5.2384,-0.19535,-9.416,75.989,2.7288,-0.9096,-1.8662,3.6384,2.1405e-13,-0.93311,0,0,0.125,1.1842e-15,0,0.66667
0.56247,0.5296,4.4997,0.044395,2.564,116.59,-0.53271,0.17757,-1.9972,-0.71028,6.0618e-13,-0.99861,0,0,0.125,-8.8818e-16,0,0.66667
0.41239,0.46755,3.2991,-0.048671,-3.4187,196.21,0.4282,-0.14273,-1.991,0.57093,-3.1129e-12,-0.99548,0,0,0.125,-7.4015e-17,0,0.66667
0.31992,0.81286,2.5593,0.4693,35.781,252.12,-3.2029,1.0676,-1.2163,-4.2705,-3.5683e-13,-0.60813,0,0,0.125,1.1842e-15,0,0.66667
0.28625,0.61132,2.29,0.16698,12.989,273.15,-1.0197,0.3399,-1.8993,-1.3596,4.9485e-12,-0.94963,0,0,0.125,-0,-0,0.66667
0.29618,0.59724,2.3694,0.14587,11.274,266.83,-0.92165,0.30722,-1.9274,-1.2289,6.2106e-13,-0.9637,0,0,0.125,-0,-0,0.66667
0.68275,0.51705,5.462,0.025582,1.1505,65.039,-0.37261,0.1242,-1.9962,-0.49682,-5.2983e-13,-0.99809,0,0,0.125,-0,-0,0.66667
0.76244,0.018706,6.0995,-0.72194,-25.762,39.58,11.743,-3.9142,-0.14644,15.657,1.5778e-11,-0.073218,0,0,0.125,-0,-0,0.66667
0.59762,0.58582,4.781,0.12873,6.9889,100.3,-1.6412,0.54708,-1.9405,-2.1883,-1.7211e-12,-0.97026,0,0,0.125,5.9212e-16,0,0.66667
0.22286,0.38373,1.7829,-0.1744,-14.047,314.32,0.82918,-0.27639,-1.891,1.1056,2.8684e-11,-0.94552,0,0,0.125,-0,-0,0.66667
0.1944,0.80605,1.5552,0.45908,37.527,333.35,-1.9038,0.63461,-1.249,-2.5385,-5.8096e-11,-0.62451,0,0,0.125,1.4803e-16,0,0.66667
0.76569,0.602,6.1255,0.153,5.3161,37.272,-2.4992,0.83308,-1.92,-3.3323,-1.2612e-12,-0.95998,0,0,0.125,-0,-0,0.66667
0.97869,0.68049,7.8296,0.27073,0.83661,0.80424,-5.6526,1.8842,-1.738,-7.5368,-1.2607e-07,-0.869,0,0,0.125,-1.1842e-15,0,0.66667
0.01591,0.40263,0.12728,-0.14605,-12.378,455.4,0.049571,-0.016524,-1.9277,0.066095,-8.6197e-08,-0.96385,0,0,0.125,1.8504e-17,0,0.66667
0.2489,0.9486,1.9912,0.6729,53.787,297.62,-3.573,1.191,-0.39174,-4.764,3.11e-12,-0.19587,0,0,0.125,-0,-0,0.66667
0.79231,0.16239,6.3385,-0.50642,-15.926,30.484,8.5599,-2.8533,-1.0874,11.413,1.9734e-11,-0.54368,0,0,0.125,2.3685e-15,0,0.66667
0.71917,0.3993,5.7533,-0.15105,-6.1385,52.042,2.3174,-0.77248,-1.9218,3.0899,6.5361e-12,-0.96088,0,0,0.125,5.9212e-16,0,0.66667
0.24598,0.85955,1.9678,0.53933,43.086,299.38,-2.8301,0.94338,-0.96471,-3.7735,-9.8419e-12,-0.48236,0,0,0.125,-0,-0,0.66667
0.55489,0.017995,4.4391,-0.72301,-42.67,121.26,8.5587,-2.8529,-0.13911,11.412,1.3047e-12,-0.069555,0,0,0.125,-1.1842e-15,0,0.66667
0.58559,0.028822,4.6847,-0.70677,-39.583,106.78,8.8293,-2.9431,-0.22286,11.772,2.5935e-13,-0.11143,0,0,0.125,1.1842e-15,0,0.66667
0.72138,0.0046581,5.7711,-0.74301,-30.401,52.645,11.435,-3.8115,-0.037915,15.246,-8.6615e-12,-0.018958,0,0,0.125,4.737e-15,0,0.66667
0.46367,0.96224,3.7094,0.69336,46.388,168.13,-6.8585,2.2862,-0.28958,-9.1447,-5.8975e-13,-0.14479,0,0,0.125,5.9212e-16,0,0.66667
0.40485,0.39068,3.2388,-0.16398,-11.608,200.62,1.4163,-0.47209,-1.9056,1.8884,-9.7633e-13,-0.9528,0,0,0.125,5.9212e-16,0,0.66667
0.30801,0.84948,2.4641,0.52422,40.333,259.64,-3.4446,1.1482,-1.0222,-4.5928,4.0599e-12,-0.51112,0,0,0.125,-0,-0,0.66667
0.23831,0.48299,1.9065,-0.025513,-2.0386,304.14,0.12971,-0.043235,-1.9967,0.17294,-3.0971e-12,-0.99834,0,0,0.125,5.9212e-16,0,0.66667
0.092503,0.70356,0.74003,0.30534,25.684,402.46,-0.60256,0.20085,-1.6699,-0.80341,-2.4449e-08,-0.83494,0,0,0.125,-0,-0,0.66667
0.64588,0.27362,5.1671,-0.33957,-16.731,79.779,4.6788,-1.5596,-1.5887,6.2384,6.3727e-13,-0.79436,0,0,0.125,-0,-0,0.66667
0.66957,0.9191,5.3566,0.62865,29.485,71.012,-8.9797,2.9932,-0.59519,-11.973,-1.4415e-12,-0.29759,0,0,0.125,-0,-1.9468e-16,0.66667
0.68734,0.37769,5.4987,-0.18346,-8.1585,63.404,2.6901,-0.89671,-1.8842,3.5868,2.2533e-12,-0.9421,0,0,0.125,2.3685e-15,0,0.66667
0.0031457,0.66448,0.025166,0.24672,20.925,464.26,-0.016557,0.0055188,-1.7835,-0.022076,-2.5526e-07,-0.89175,0,0,0.125,-0,-0,0.66667
0.43825,0.44637,3.506,-0.080445,-5.4998,181.46,0.75211,-0.2507,-1.9793,1.0028,-1.8883e-12,-0.98963,0,0,0.125,1.1842e-15,0,0.66667
0.12255,0.69273,0.98043,0.28909,24.155,381.85,-0.75583,0.25194,-1.7038,-1.0078,-9.5281e-09,-0.85188,0,0,0.125,-2.9606e-16,0,0.66667
0.52661,0.36666,4.2129,-0.20001,-12.226,134.28,2.247,-0.749,-1.8567,2.996,-9.9787e-13,-0.92834,0,0,0.125,-0,-0,0.66667
0.97974,0.81182,7.8379,0.46773,1.4342,1.2701,-9.7762,3.2587,-1.2222,-13.035,-9.3311e-07,-0.61112,0,0,0.125,-7.4015e-17,0,0.66667
0.49928,0.56382,3.9942,0.095735,6.078,148.28,-1.0197,0.3399,-1.9708,-1.3596,-7.2542e-13,-0.98541,0,0,0.125,1.1842e-15,0,0.66667
0.37465,0.44306,2.9972,-0.085413,-6.2164,218.41,0.68267,-0.22756,-1.9772,0.91023,-1.1722e-12,-0.98861,0,0,0.125,-0,-0,0.66667
0.81384,0.48757,6.5107,-0.018645,-0.52638,24.301,0.32372,-0.10791,-2.0001,0.43163,9.9191e-11,-1.0001,0,0,0.125,-0,-0,0.66667
0.9682,0.31474,7.7456,-0.27789,-1.3442,1.3092,5.7397,-1.9132,-1.7289,7.653,1.6222e-07,-0.86444,0,0,0.125,2.3685e-15,0,0.66667
0.28712,0.88204,2.297,0.57307,44.731,272.9,-3.5102,1.1701,-0.83087,-4.6803,5.2638e-12,-0.41543,0,0,0.125,-0,-0,0.66667
0.803,0.64524,6.424,0.21786,6.4869,27.122,-3.7321,1.244,-1.8293,-4.9761,2.6272e-10,-0.91467,0,0,0.125,-1.1842e-15,0,0.66667
0.99614,0.49506,7.9691,-0.0074053,-0.00054273,0.054115,0.15737,-0.052439,-1.9996,0.20983,2.5374e-05,-0.99981,0,0,0.125,-0,-0,0.66667
0.11182,0.90163,0.89459,0.60245,50.642,389.3,-1.4372,0.47907,-0.71052,-1.9163,-2.8397e-09,-0.35526,0,0,0.125,-0,-0,0.66667
0.53105,0.46964,4.2484,-0.045537,-2.7635,131.98,0.51589,-0.17196,-1.9968,0.68785,-3.6084e-12,-0.99839,0,0,0.125,-0,-0,0.66667
0.81353,0.69091,6.5082,0.28636,8.121,24.613,-4.9698,1.6566,-1.7111,-6.6265,5.0453e-10,-0.85555,0,0,0.125,-0,-0,0.66667
0.37629,0.50666,3.0104,0.0099884,0.72582,217.42,-0.080183,0.026728,-2.0015,-0.10691,-1.5676e-12,-1.0008,0,0,0.125,-0,-0,0.66667
0.44577,0.54931,3.5662,0.07397,5.0151,177.24,-0.70344,0.23448,-1.9783,-0.93793,-1.8656e-12,-0.98915,0,0,0.125,-0,-0,0.66667
0.7509,0.28924,6.0072,-0.31614,-11.614,41.932,5.0644,-1.6881,-1.6468,6.7525,1.6138e-11,-0.82341,0,0,0.125,-0,-0,0.66667
0.098346,0.82575,0.78677,0.48862,41.128,398.49,-1.0251,0.34172,-1.1497,-1.3669,-3.0127e-08,-0.57487,0,0,0.125,-1.4803e-16,0,0.66667
0.36053,0.12265,2.8842,-0.56603,-41.881,227.31,4.3534,-1.4511,-0.86356,5.8046,-1.7968e-12,-0.43178,0,0,0.125,-2.2204e-16,0,0.66667
0.56371,0.36723,4.5097,-0.19915,-11.486,116.07,2.3949,-0.79832,-1.8608,3.1933,-8.4777e-13,-0.93042,0,0,0.125,-0,-0,0.66667
0.23859,0.27512,1.9087,-0.33732,-26.989,304.05,1.7169,-0.57229,-1.5949,2.2892,-1.059e-11,-0.79744,0,0,0.125,-2.9606e-16,0,0.66667
0.83995,0.80416,6.7196,0.45624,11.297,18.989,-8.1753,2.7251,-1.2593,-10.9,1.3043e-09,-0.62967,0,0,0.125,5.9212e-16,0,0.66667
0.76585,0.22319,6.1268,-0.41521,-14.482,37.63,6.7837,-2.2612,-1.3905,9.045,-6.5485e-12,-0.69525,0,0,0.125,-0,-0,0.66667
0.96554,0.61717,7.7243,0.17575,0.91886,1.2978,-3.6202,1.2067,-1.8901,-4.827,-8.228e-08,-0.94505,0,0,0.125,5.9212e-16,0,0.66667
0.52299,0.88229,4.1839,0.57344,35.41,136.65,-6.3979,2.1326,-0.82903,-8.5305,-1.3709e-12,-0.41451,0,0,0.125,1.1842e-15,0,0.66667
0.10652,0.22447,0.8522,-0.41329,-34.699,392.86,0.93921,-0.31307,-1.3932,1.2523,2.2214e-08,-0.69658,0,0,0.125,-2.9606e-16,0,0.66667
0.93662,0.71312,7.4929,0.31967,3.1958,3.7433,-6.3874,2.1291,-1.6391,-8.5166,1.7713e-08,-0.81957,0,0,0.125,-1.1842e-15,0,0.66667
0.83424,0.32772,6.6739,-0.25842,-6.572,19.798,4.5991,-1.533,-1.7605,6.1321,-1.462e-09,-0.88025,0,0,0.125,-0,-0,0.66667
0.54442,0.65691,4.3553,0.23536,14.007,125.44,-2.7335,0.91117,-1.8048,-3.6447,1.4766e-13,-0.90238,0,0,0.125,-0,-0,0.66667
0.8363,0.67029,6.6904,0.25544,6.4205,19.344,-4.5573,1.5191,-1.7657,-6.0764,1.6046e-09,-0.88286,0,0,0.125,1.1842e-15,0,0.66667
0.88169,0.6626,7.0535,0.24389,4.506,10.706,-4.5875,1.5292,-1.7869,-6.1166,1.1201e-08,-0.89345,0,0,0.125,-0,-0,0.66667
0.77608,0.26882,6.2086,-0.34678,-11.609,34.543,5.7414,-1.9138,-1.5708,7.6551,-1.8133e-11,-0.7854,0,0,0.125,-0,-0,0.66667
0.57125,0.88668,4.57,0.58002,33.207,113.1,-7.0686,2.3562,-0.8017,-9.4248,-6.3505e-14,-0.40085,0,0,0.125,-0,-0,0.66667
0.6153,0.65155,4.9224,0.22733,11.934,92.549,-2.984,0.99466,-1.8151,-3.9786,-1.2055e-12,-0.90755,0,0,0.125,-8.1991e-16,0,0.66667
0.84439,0.16263,6.7551,-0.50605,-12.233,18.205,9.1158,-3.0386,-1.0921,12.154,-2.7077e-11,-0.54607,0,0,0.125,-0,-0,0.66667
0.62222,0.23257,4.9777,-0.40114,-20.811,89.799,5.3247,-1.7749,-1.4277,7.0997,-1.2168e-13,-0.71387,0,0,0.125,-0,-0,0.66667
0.20648,0.93416,1.6518,0.65125,53.11,325.46,-2.8687,0.95623,-0.49245,-3.8249,7.986e-11,-0.24623,0,0,0.125,3.7007e-16,0,0.66667
0.69149,0.20646,5.5319,-0.44031,-19.439,62.267,6.4953,-2.1651,-1.3097,8.6604,3.6788e-12,-0.65485,0,0,0.125,1.1842e-15,0,0.66667
0.53201,0.87383,4.2561,0.56075,34.163,132.09,-6.3643,2.1214,-0.8854,-8.4857,1.2994e-12,-0.4427,0,0,0.125,-8.1416e-16,0,0.66667
0.26325,0.39347,2.106,-0.1598,-12.602,287.93,0.8974,-0.29913,-1.9095,1.1965,-1.3249e-11,-0.95474,0,0,0.125,2.9606e-16,0,0.66667
0.00078654,0.50475,0.0062923,0.0071234,0.6037,465.9,-0.00011988,7.7244e-05,-2.0025,-0.0001412,5.5926e-05,-1.0013,0,0,0.125,-0,-0,0.66667
0.2355,0.038739,1.884,-0.69189,-55.707,306.38,3.476,-1.1587,-0.29988,4.6347,-2.5761e-11,-0.14994,0,0,0.125,-0,-0,0.66667
0.67357,0.21411,5.3885,-0.42884,-19.823,68.969,6.1622,-2.0541,-1.3479,8.2163,2.3088e-12,-0.67393,0,0,0.125,-1.1842e-15,0,0.66667
0.87832,0.45599,7.0266,-0.06602,-1.2494,11.09,1.2371,-0.41235,-1.984,1.6494,-6.6918e-09,-0.99199,0,0,0.125,-1.1842e-15,0,0.66667
0.8307,0.70722,6.6456,0.31083,8.0706,20.666,-5.5085,1.8362,-1.6566,-7.3446,1.3313e-09,-0.82831,0,0,0.125,-1.1842e-15,0,0.66667
0.10811,0.54864,0.86486,0.072964,6.1114,391.71,-0.16828,0.056092,-1.9824,-0.22437,-4.5311e-09,-0.99122,0,0,0.125,-0,-0,0.66667
0.071125,0.11008,0.569,-0.58488,-49.524,417.25,0.88746,-0.29582,-0.78146,1.1833,1.8357e-07,-0.39073,0,0,0.125,-2.3226e-16,0,0.66667
0.76159,0.35928,6.0927,-0.21108,-7.4512,38.541,3.4294,-1.1431,-1.8405,4.5726,3.004e-12,-0.92025,0,0,0.125,-0,-0,0.66667
0.28483,0.901,2.2787,0.60151,47.039,274.39,-3.655,1.2183,-0.71354,-4.8734,3.9655e-12,-0.35677,0,0,0.125,-0,-0,0.66667
0.2718,0.18837,2.1744,-0.46745,-36.776,282.59,2.7105,-0.9035,-1.2225,3.614,-5.6743e-12,-0.61126,0,0,0.125,-0,-0,0.66667
0.0020003,0.0071759,0.016002,-0.73924,-63.069,465.06,0.031849,-0.010612,-0.057778,0.042467,6.2281e-06,-0.028889,0,0,0.125,-9.2519e-18,0,0.66667
0.098539,0.62422,0.78831,0.18633,15.644,398.29,-0.3917,0.13057,-1.8766,-0.52227,-1.5337e-08,-0.93828,0,0,0.125,4.6259e-17,0,0.66667
0.1356,0.41263,1.0848,-0.13105,-10.903,372.92,0.37909,-0.12636,-1.9379,0.50545,2.2526e-09,-0.96895,0,0,0.125,-0,-0,0.66667
0.15936,0.67684,1.2749,0.26526,21.925,356.81,-0.90179,0.3006,-1.7496,-1.2024,-2.0743e-09,-0.87479,0,0,0.125,1.4803e-16,0,0.66667
0.44531,0.34086,3.5625,-0.23871,-16.205,177.58,2.2678,-0.75592,-1.7962,3.0237,-2.9463e-12,-0.89811,0,0,0.125,2.9606e-16,0,0.66667
0.81414,0.92379,6.5131,0.63569,18.186,25.398,-11.041,3.6803,-0.56418,-14.721,1.7996e-10,-0.28209,0,0,0.125,-0,-0,0.66667
0.8123,0.092795,6.4984,-0.61081,-17.611,25.752,10.585,-3.5282,-0.67762,14.113,2.0298e-09,-0.33881,0,0,0.125,-5.181e-16,-1.754e-17,0.66667
0.90999,0.89039,7.2799,0.58558,8.4574,7.4945,-11.368,3.7893,-0.77988,-15.157,-1.0425e-08,-0.38994,0,0,0.125,-1.1842e-15,0,0.66667
0.44359,0.03121,3.5487,-0.70318,-48.148,179.23,6.6544,-2.2181,-0.24154,8.8726,-1.3789e-12,-0.12077,0,0,0.125,-1.9018e-16,0,0.66667
0.70871,0.38419,5.6697,-0.17371,-7.2822,55.677,2.6264,-0.87547,-1.8911,3.5019,6.1562e-12,-0.94556,0,0,0.125,-0,-0,0.66667
0.48833,0.87911,3.9067,0.56867,36.813,154.6,-5.9243,1.9748,-0.85007,-7.8991,-1.227e-12,-0.42503,0,0,0.125,1.1842e-15,0,0.66667
0.049843,0.39337,0.39874,-0.15994,-13.525,431.89,0.17007,-0.056688,-1.9088,0.22675,-3.2945e-08,-0.9544,0,0,0.125,-7.4015e-17,0,0.66667
0.080431,0.2615,0.64345,-0.35774,-30.169,410.78,0.61384,-0.20461,-1.5454,0.81846,3.9567e-08,-0.77268,0,0,0.125,-0,-0,0.66667
0.24594,0.87117,1.9675,0.55676,44.491,299.42,-2.9212,0.97373,-0.89771,-3.8949,-6.884e-11,-0.44886,0,0,0.125,-3.7007e-16,0,0.66667
0.98162,0.37245,7.853,-0.19133,-0.49024,0.56525,4.0067,-1.3356,-1.8709,5.3422,2.1315e-08,-0.93546,0,0,0.125,1.4803e-15,0,0.66667
0.69192,0.28051,5.5353,-0.32923,-14.489,61.899,4.8598,-1.6199,-1.6148,6.4797,5.1545e-12,-0.80741,0,0,0.125,3.7007e-16,0,0.66667
0.26801,0.50003,2.1441,4.1974e-05,0.0033,284.83,-0.00023999,7.9995e-05,-2.0019,-0.00031998,-2.1154e-12,-1.001,0,0,0.125,-0,-0,0.66667
0.70626,0.83926,5.6501,0.50889,21.604,57.113,-7.6674,2.5558,-1.0796,-10.223,-1.2994e-12,-0.53982,0,0,0.125,-5.9212e-16,0,0.66667
0.66135,0.53672,5.2908,0.055081,2.6125,73.3,-0.77712,0.25904,-1.9883,-1.0362,-1.2921e-12,-0.99413,0,0,0.125,-2.3685e-15,0,0.66667
0.04329,0.19648,0.34632,-0.45528,-38.61,436.45,0.42046,-0.14015,-1.2625,0.56061,1.2109e-07,-0.63127,0,0,0.125,-0,-0,0.66667
0.36149,0.42846,2.8919,-0.10731,-7.8994,226.34,0.82756,-0.27585,-1.9598,1.1034,-2.3927e-12,-0.97991,0,0,0.125,-0,-0,0.66667
0.77373,0.27243,6.1898,-0.34136,-11.533,35.201,5.6345,-1.8782,-1.5837,7.5127,-1.2573e-11,-0.79186,0,0,0.125,-0,-0,0.66667
0.078523,0.1796,0.62818,-0.48061,-40.594,412.12,0.80509,-0.26836,-1.1815,1.0735,5.5253e-08,-0.59076,0,0,0.125,-7.4015e-17,0,0.66667
0.88438,0.88156,7.0751,0.57234,10.501,11.114,-10.798,3.5994,-0.83378,-14.398,4.2801e-09,-0.41689,0,0,0.125,-0,-0,0.66667
0.93087,0.21978,7.4469,-0.42033,-4.6197,4.5557,8.3472,-2.7824,-1.3711,11.13,-8.691e-08,-0.68556,0,0,0.125,-0,-0,0.66667
0.85309,0.51708,6.8247,0.025622,0.58032,15.68,-0.4663,0.15543,-1.9956,-0.62174,-1.8022e-11,-0.99779,0,0,0.125,-0,-0,0.66667
0.11738,0.68085,0.93902,0.27127,22.692,385.38,-0.67928,0.22643,-1.7366,-0.9057,-1.1283e-08,-0.86831,0,0,0.125,-0,-0,0.66667
0.56517,0.32986,4.5214,-0.25521,-14.69,115.43,3.0771,-1.0257,-1.7684,4.1028,-1.1346e-12,-0.88419,0,0,0.125,1.1842e-15,0,0.66667
0.70756,0.59401,5.6605,0.14102,5.9299,56.056,-2.1287,0.70956,-1.9296,-2.8382,-5.0766e-12,-0.9648,0,0,0.125,-2.3685e-15,0,0.66667
0.88798,0.39999,7.1038,-0.15002,-2.6234,9.5872,2.8419,-0.9473,-1.9206,3.7892,-8.1036e-09,-0.96028,0,0,0.125,-0,-0,0.66667
0.095776,0.57822,0.76621,0.11733,9.8539,400.18,-0.23974,0.079913,-1.9516,-0.31965,-9.486e-09,-0.9758,0,0,0.125,1.4803e-16,0,0.66667
0.81577,0.54341,6.5262,0.06511,1.8209,23.847,-1.1331,0.3777,-1.9845,-1.5108,3.0551e-10,-0.99223,0,0,0.125,-0,-0,0.66667
0.27802,0.97921,2.2241,0.71882,56.564,278.9,-4.2633,1.4211,-0.16252,-5.6844,-2.8151e-12,-0.081259,0,0,0.125,-0,-0,0.66667
0.59229,0.4139,4.7383,-0.12915,-7.0818,102.71,1.6319,-0.54397,-1.9423,2.1759,-1.2701e-13,-0.97114,0,0,0.125,-1.1842e-15,0,0.66667
0.7198,0.32524,5.7584,-0.26214,-10.645,51.944,4.0253,-1.3418,-1.7573,5.3671,1.0343e-11,-0.87867,0,0,0.125,1.1842e-15,0,0.66667
0.77702,0.94369,6.2162,0.66553,22.421,35.17,-11.032,3.6774,-0.42454,-14.71,-1.8598e-12,-0.21227,0,0,0.125,-0,5.8047e-18,0.66667
0.29466,0.88692,2.3573,0.58039,45.09,268.12,-3.6484,1.2161,-0.80278,-4.8646,4.8677e-12,-0.40139,0,0,0.125,-0,-0,0.66667
0.60738,0.23086,4.859,-0.40372,-21.574,96.264,5.2311,-1.7437,-1.4212,6.9748,1.6209e-13,-0.71058,0,0,0.125,-0,-0,0.66667
0.28747,0.85008,2.2998,0.52512,40.951,272.63,-3.2205,1.0735,-1.0181,-4.2939,1.1826e-12,-0.50903,0,0,0.125,-0,-0,0.66667
0.99832,0.9494,7.9865,0.67409,0.1179,1.634,-14.356,4.7855,-0.38538,-19.142,-3.0903e-05,-0.19269,0,0,0.125,-0,-0,0.66667
0.81451,0.47683,6.516,-0.034749,-0.97782,24.143,0.6038,-0.20127,-1.9967,0.80507,-2.4739e-10,-0.99834,0,0,0.125,-0,-0,0.66667
0.41398,0.67123,3.3118,0.25685,18.029,195.39,-2.2684,0.75612,-1.7631,-3.0245,-7.4118e-13,-0.88157,0,0,0.125,5.9212e-16,0,0.66667
0.87914,0.064453,7.0331,-0.65332,-12.569,12.274,12.253,-4.0843,-0.48254,16.337,-1.5591e-07,-0.24127,0,0,0.125,-0,-0,0.66667
0.7325,0.067974,5.86,-0.64804,-25.532,48.618,10.127,-3.3756,-0.50825,13.502,-3.4106e-13,-0.25413,0,0,0.125,-0,-0,0.66667
0.92875,0.4071,7.43,-0.13935,-1.5557,4.2552,2.761,-0.92035,-1.9303,3.6814,3.0514e-08,-0.96513,0,0,0.125,-0,-0,0.66667
0.17161,0.74723,1.3729,0.37085,30.55,348.58,-1.3577,0.45256,-1.5147,-1.8102,-1.0315e-09,-0.75736,0,0,0.125,-7.4015e-17,0,0.66667
0.29484,0.49468,2.3587,-0.0079807,-0.61716,267.66,0.050197,-0.016732,-2.0011,0.06693,5.9739e-12,-1.0005,0,0,0.125,-5.9212e-16,0,0.66667
0.093737,0.61069,0.74989,0.16603,13.951,401.59,-0.33201,0.11067,-1.9049,-0.44269,-1.2867e-08,-0.95244,0,0,0.125,-0,-0,0.66667
0.31798,0.069938,2.5438,-0.64509,-49.384,253.55,4.376,-1.4587,-0.519,5.8347,-1.3394e-12,-0.2595,0,0,0.125,-0,-0,0.66667
0.38119,0.056603,3.0495,-0.6651,-48.425,215.1,5.4086,-1.8029,-0.42577,7.2114,-2.2884e-12,-0.21289,0,0,0.125,2.9606e-16,0,0.66667
0.63271,0.45312,5.0617,-0.070319,-3.5577,84.991,0.94916,-0.31639,-1.9801,1.2655,-1.7776e-12,-0.99006,0,0,0.125,1.1842e-15,0,0.66667
0.47152,0.25066,3.7722,-0.37401,-24.656,163.3,3.7622,-1.2541,-1.5041,5.0162,-3.3693e-12,-0.75204,0,0,0.125,-0,-0,0.66667
0.71767,0.51415,5.7414,0.021222,0.86584,52.496,-0.32491,0.1083,-2,-0.43321,-1.0588e-12,-0.99999,0,0,0.125,-0,-0,0.66667
0.26922,0.0027919,2.1538,-0.74581,-59.025,284.58,4.2835,-1.4278,-0.022635,5.7114,-1.8443e-12,-0.011318,0,0,0.125,-0,-0,0.66667
0.17306,0.095606,1.3845,-0.60659,-50.09,347.75,2.2395,-0.74649,-0.6945,2.9859,3.065e-09,-0.34725,0,0,0.125,-0,-0,0.66667
0.37912,0.55089,3.033,0.07633,5.5332,215.74,-0.61735,0.20578,-1.9783,-0.82314,-9.1432e-13,-0.98913,0,0,0.125,-0,-0,0.66667
0.43808,0.74618,3.5047,0.36927,25.3,181.76,-3.4511,1.1504,-1.5183,-4.6014,1.1853e-12,-0.75915,0,0,0.125,1.4803e-16,0,0.66667
0.42213,0.089047,3.377,-0.61643,-43.112,191.18,5.5512,-1.8504,-0.65235,7.4016,-1.0605e-12,-0.32617,0,0,0.125,-5.9212e-16,0,0.66667
0.91357,0.6794,7.3086,0.2691,3.6611,6.1675,-5.2447,1.7482,-1.7406,-6.9929,2.3113e-08,-0.87032,0,0,0.125,5.9212e-16,0,0.66667
0.26957,0.055595,2.1565,-0.66661,-52.669,284.25,3.8335,-1.2778,-0.41954,5.1113,-3.7252e-12,-0.20977,0,0,0.125,-4.4409e-16,0,0.66667
0.35204,0.29457,2.8163,-0.30814,-22.887,232.17,2.3142,-0.77141,-1.6601,3.0857,-1.9587e-12,-0.83007,0,0,0.125,-5.9212e-16,0,0.66667
0.21521,0.32759,1.7217,-0.25861,-20.913,319.41,1.1873,-0.39577,-1.7615,1.5831,7.5801e-11,-0.88073,0,0,0.125,2.9606e-16,0,0.66667
0.37192,0.22084,2.9754,-0.41875,-30.622,220.27,3.3225,-1.1075,-1.3774,4.43,1.2661e-12,-0.68871,0,0,0.125,-1.1842e-15,0,0.66667
0.38986,0.3029,3.1188,-0.29565,-21.248,209.49,2.4589,-0.81962,-1.6914,3.2785,-9.0972e-13,-0.8457,0,0,0.125,5.9212e-16,0,0.66667
0.57543,0.20341,4.6034,-0.44489,-25.225,110.86,5.4613,-1.8204,-1.2962,7.2818,-1.231e-12,-0.6481,0,0,0.125,1.1842e-15,0,0.66667
0.27836,0.34648,2.2269,-0.23028,-18.006,278.22,1.3675,-0.45584,-1.8124,1.8234,-1.203e-11,-0.90619,0,0,0.125,1.1842e-15,0,0.66667
0.25949,0.0021308,2.0759,-0.7468,-59.432,290.85,4.1342,-1.3781,-0.01622,5.5122,-1.7039e-11,-0.00811,0,0,0.125,-0,-0,0.66667
0.71906,0.90357,5.7525,0.60536,24.825,52.956,-9.2862,3.0954,-0.70071,-12.382,-5.1754e-12,-0.35035,0,0,0.125,-1.6283e-15,0,0.66667
0.91018,0.030298,7.2814,-0.70455,-10.267,7.9671,13.68,-4.5601,-0.23553,18.241,1.3364e-06,-0.11777,0,0,0.125,-0,-0,0.66667
0.1221,0.40545,0.97677,-0.14182,-11.842,382.13,0.36942,-0.12314,-1.9298,0.49255,1.1099e-08,-0.96489,0,0,0.125,2.7756e-17,0,0.66667
0.18229,0.24035,1.4583,-0.38947,-31.965,341.41,1.5146,-0.50486,-1.4592,2.0195,5.4252e-10,-0.72959,0,0,0.125,-2.9606e-16,0,0.66667
0.13311,0.3601,1.0649,-0.20985,-17.477,374.62,0.59591,-0.19864,-1.8411,0.79454,6.08e-09,-0.92056,0,0,0.125,-2.9606e-16,0,0.66667
0.68361,0.78134,5.4689,0.42201,19.015,65.149,-6.1545,2.0515,-1.3675,-8.206,-4.849e-12,-0.68373,0,0,0.125,-0,-0,0.66667
0.21401,0.72615,1.7121,0.33923,27.464,320.24,-1.5488,0.51626,-1.5898,-2.065,-7.269e-11,-0.79491,0,0,0.125,-0,-0,0.66667
0.60457,0.082913,4.8366,-0.62563,-33.763,97.997,8.0691,-2.6897,-0.60693,10.759,8.3666e-13,-0.30347,0,0,0.125,5.9212e-16,0,0.66667
0.20168,0.51455,1.6134,0.021827,1.7741,328.35,-0.093911,0.031304,-1.9995,-0.12522,-7.2421e-11,-0.99973,0,0,0.125,5.9212e-16,0,0.66667
0.81776,0.27441,6.5421,-0.33839,-9.4085,23.694,5.9033,-1.9678,-1.5917,7.8711,-6.2699e-10,-0.79583,0,0,0.125,-1.1842e-15,0,0.66667
0.31611,0.17578,2.5289,-0.48634,-37.189,254.52,3.2797,-1.0932,-1.1583,4.3729,-3.145e-12,-0.57917,0,0,0.125,2.9606e-16,0,0.66667
0.66962,0.74389,5.3569,0.36583,17.057,70.372,-5.226,1.742,-1.5251,-6.968,-2.9576e-12,-0.76255,0,0,0.125,-5.9212e-16,0,0.66667
0.14873,0.14992,1.1899,-0.52512,-43.663,364.12,1.6662,-0.5554,-1.0178,2.2216,5.0579e-10,-0.50892,0,0,0.125,7.4015e-17,0,0.66667
0.30595,0.71867,2.4476,0.328,25.215,260.75,-2.1408,0.71361,-1.617,-2.8544,3.713e-12,-0.8085,0,0,0.125,8.2625e-16,0,0.66667
0.29724,0.091263,2.3779,-0.61311,-47.577,266.53,3.8878,-1.2959,-0.66711,5.1837,-5.7769e-12,-0.33355,0,0,0.125,4.4409e-16,0,0.66667
0.63508,0.65302,5.0806,0.22952,11.565,84.105,-3.1097,1.0366,-1.8119,-4.1462,-2.5697e-12,-0.90595,0,0,0.125,-2.9606e-16,0,0.66667
0.68088,0.68528,5.447,0.27792,12.581,65.929,-4.0369,1.3456,-1.7245,-5.3825,-4.952e-12,-0.86223,0,0,0.125,4.4409e-16,0,0.66667
0.84525,0.36392,6.762,-0.20412,-4.8635,17.384,3.6806,-1.2269,-1.8531,4.9075,-2.0598e-09,-0.92655,0,0,0.125,-1.1842e-15,0,0.66667
0.18335,0.93796,1.4668,0.65693,54.085,340.89,-2.5695,0.85651,-0.46601,-3.426,-3.7564e-09,-0.233,0,0,0.125,-0,-0,0.66667
0.76043,0.21763,6.0834,-0.42355,-15.075,39.252,6.8711,-2.2904,-1.3619,9.1614,2.0506e-11,-0.68095,0,0,0.125,-1.6638e-15,0,0.66667
0.71194,0.29792,5.6955,-0.30312,-12.608,54.705,4.6038,-1.5346,-1.6711,6.1384,1.0171e-11,-0.83555,0,0,0.125,-8.4311e-16,0,0.66667
0.55754,0.24686,4.4604,-0.37971,-22.165,119.23,4.5163,-1.5054,-1.4869,6.0218,-9.0683e-13,-0.74343,0,0,0.125,-0,-0,0.66667
0.65016,0.73326,5.2013,0.34989,17.077,78.054,-4.853,1.6177,-1.5627,-6.4707,-3.5971e-12,-0.78134,0,0,0.125,1.1842e-15,0,0.66667
0.089995,0.13806,0.71996,-0.5429,-45.802,404.25,1.0423,-0.34744,-0.95116,1.3898,3.9162e-08,-0.47558,0,0,0.125,-1.4803e-16,0,0.66667
0.14688,0.48388,1.175,-0.024173,-2.0041,365.23,0.075741,-0.025247,-1.9958,0.10099,-1.5367e-10,-0.99791,0,0,0.125,-2.9606e-16,0,0.66667
0.41557,0.29715,3.3246,-0.30427,-21.332,194.51,2.6975,-0.89917,-1.6687,3.5967,-2.5049e-12,-0.83436,0,0,0.125,-0,-0,0.66667
0.71137,0.52401,5.691,0.036014,1.497,54.674,-0.54654,0.18218,-1.9936,-0.72872,-2.7207e-12,-0.9968,0,0,0.125,1.1842e-15,0,0.66667
0.16782,0.14053,1.3426,-0.53921,-44.565,351.23,1.9305,-0.64349,-0.96512,2.574,-2.1542e-10,-0.48256,0,0,0.125,-2.9606e-16,0,0.66667
0.38898,0.83404,3.1118,0.50106,36.126,210.23,-4.1579,1.386,-1.1085,-5.5439,8.0513e-13,-0.55426,0,0,0.125,-0,-0,0.66667
0.49795,0.92253,3.9836,0.63379,40.568,149.68,-6.7326,2.2442,-0.5723,-8.9769,3.6549e-13,-0.28615,0,0,0.125,-0,1.4777e-16,0.66667
0.93505,0.55284,7.4804,0.079267,0.80446,3.5749,-1.5812,0.52706,-1.9781,-2.1083,-2.4172e-08,-0.98903,0,0,0.125,-1.1842e-15,0,0.66667
0.055196,0.98,0.44157,0.72,61.22,428.28,-0.84781,0.28261,-0.15465,-1.1304,4.2421e-06,-0.077324,0,0,0.125,-0,-0,0.66667
0.82901,0.96905,6.6321,0.70357,18.727,22.219,-12.443,4.1477,-0.24339,-16.591,-5.1501e-10,-0.12169,0,0,0.125,2.3685e-15,0,0.66667
0.98416,0.73062,7.8733,0.34593,0.7689,0.76865,-7.2629,2.421,-1.5772,-9.6839,-6.0915e-08,-0.78862,0,0,0.125,-0,-0,0.66667
0.26727,0.079996,2.1382,-0.63001,-49.812,285.68,3.5922,-1.1974,-0.58973,4.7896,-6.235e-13,-0.29487,0,0,0.125,2.9606e-16,0,0.66667
0.89006,0.15945,7.1205,-0.51082,-8.8982,10.021,9.6994,-3.2331,-1.0755,12.933,-2.1228e-08,-0.53774,0,0,0.125,-0,-0,0.66667
0.2903,0.47104,2.3224,-0.043437,-3.369,270.55,0.26901,-0.089669,-1.9924,0.35867,-3.341e-12,-0.99618,0,0,0.125,-0,-0,0.66667
0.79901,0.91405,6.3921,0.62108,19.05,29.104,-10.587,3.5289,-0.62936,-14.115,8.9883e-10,-0.31468,0,0,0.125,2.3685e-15,0,0.66667
0.45986,0.085968,3.6789,-0.62105,-41.675,170.06,6.0927,-2.0309,-0.62685,8.1235,-1.4984e-12,-0.31342,0,0,0.125,-2.9606e-16,0,0.66667
0.59761,0.95646,4.7809,0.68469,37.494,101.27,-8.7291,2.9097,-0.33226,-11.639,-6.4038e-13,-0.16613,0,0,0.125,5.9212e-16,0,0.66667
0.23667,0.95245,1.8933,0.67867,54.598,305.6,-3.4265,1.1422,-0.36263,-4.5687,2.0344e-12,-0.18132,0,0,0.125,-0,-0,0.66667
0.68761,0.71755,5.5009,0.32633,14.526,63.481,-4.7869,1.5956,-1.6256,-6.3825,-4.6887e-12,-0.81279,0,0,0.125,-1.5543e-15,0,0.66667
0.14868,0.1198,1.1895,-0.5703,-47.449,364.18,1.8089,-0.60298,-0.84206,2.4119,2.8087e-09,-0.42103,0,0,0.125,-5.9991e-17,0,0.66667
0.55969,0.78058,4.4775,0.42086,24.496,118.27,-5.0251,1.675,-1.3716,-6.7001,8.4377e-15,-0.6858,0,0,0.125,3.0048e-16,0,0.66667
0.49433,0.88877,3.9546,0.58315,37.468,151.47,-6.1497,2.0499,-0.789,-8.1996,-6.6613e-14,-0.3945,0,0,0.125,-0,-0,0.66667
0.83721,0.89265,6.6976,0.58897,14.9,19.988,-10.519,3.5064,-0.7645,-14.026,3.0584e-09,-0.38225,0,0,0.125,-1.1842e-15,0,0.66667
0.48147,0.80111,3.8517,0.45167,29.44,158.05,-4.6392,1.5464,-1.2745,-6.1856,-6.7368e-13,-0.63726,0,0,0.125,5.9212e-16,0,0.66667
0.78473,0.85756,6.2778,0.53634,17.431,32.608,-8.9789,2.993,-0.97651,-11.972,8.2488e-11,-0.48826,0,0,0.125,1.1842e-15,0,0.66667
0.40029,0.63914,3.2024,0.20871,14.844,203.3,-1.7823,0.59411,-1.8431,-2.3765,-2.1982e-13,-0.92156,0,0,0.125,-0,-0,0.66667
0.30791,0.64452,2.4632,0.21677,16.628,259.45,-1.4239,0.47464,-1.8316,-1.8985,2.7925e-12,-0.9158,0,0,0.125,-3.6463e-16,0,0.66667
0.78723,0.13407,6.2978,-0.5489,-17.663,31.969,9.2183,-3.0728,-0.92704,12.291,-2.9178e-10,-0.46352,0,0,0.125,-0,-0,0.66667
0.41846,0.55708,3.3477,0.085616,5.9773,192.72,-0.76432,0.25477,-1.974,-1.0191,1.6393e-12,-0.98701,0,0,0.125,2.9606e-16,0,0.66667
0.49677,0.43418,3.9741,-0.098732,-6.2894,149.6,1.0463,-0.34878,-1.9659,1.3951,-5.0704e-13,-0.98294,0,0,0.125,-5.9212e-16,0,0.66667
0.57732,0.25909,4.6186,-0.36137,-20.397,109.84,4.4507,-1.4836,-1.5379,5.9343,-3.5527e-15,-0.76894,0,0,0.125,-0,-0,0.66667
0.81967,0.76601,6.5573,0.39901,11.006,23.374,-6.9772,2.3257,-1.4316,-9.3029,5.3224e-10,-0.71582,0,0,0.125,1.1842e-15,0,0.66667
0.58132,0.42556,4.6506,-0.11166,-6.2444,107.74,1.3847,-0.46156,-1.9553,1.8463,-7.3985e-13,-0.97764,0,0,0.125,-0,-0,0.66667
0.40614,0.76356,3.2491,0.39534,28.004,200.05,-3.4253,1.1418,-1.4471,-4.5671,1.779e-12,-0.72354,0,0,0.125,-5.9212e-16,0,0.66667
0.16059,0.9862,1.2847,0.7293,60.606,356.24,-2.4985,0.83283,-0.10761,-3.3313,1.4506e-10,-0.053804,0,0,0.125,-0,-0,0.66667
0.70211,0.45597,5.6169,-0.066047,-2.8195,57.95,0.98928,-0.32976,-1.9862,1.319,2.2146e-12,-0.99309,0,0,0.125,-0,-0,0.66667
0.88323,0.45637,7.0659,-0.065439,-1.1901,10.282,1.233,-0.411,-1.9826,1.644,-7.5612e-09,-0.99128,0,0,0.125,1.1842e-15,0,0.66667
0.10838,0.86201,0.86703,0.54302,45.643,391.63,-1.2555,0.4185,-0.95328,-1.674,-7.3932e-09,-0.47664,0,0,0.125,-1.4803e-16,1.6938e-16,0.66667
0.46621,0.14011,3.7297,-0.53984,-35.902,166.43,5.3692,-1.7897,-0.96388,7.1589,-1.6871e-12,-0.48194,0,0,0.125,-5.9212e-16,0,0.66667
0.93454,0.80444,7.4763,0.45665,4.7674,4.2967,-9.1042,3.0347,-1.2586,-12.139,9.6043e-08,-0.62932,0,0,0.125,-0,-0,0.66667
0.56351,0.462,4.5081,-0.056998,-3.2863,116.09,0.68521,-0.2284,-1.9906,0.91361,9.634e-13,-0.99532,0,0,0.125,-8.8818e-16,0,0.66667
0.54525,0.84944,4.362,0.52416,31.274,125.46,-6.0971,2.0324,-1.0248,-8.1294,-4.1078e-13,-0.5124,0,0,0.125,1.1842e-15,0,0.66667
0.063476,0.28965,0.5078,-0.31553,-26.665,422.47,0.42727,-0.14242,-1.6481,0.56969,1.6531e-08,-0.82403,0,0,0.125,-0,-0,0.66667
0.5353,0.3209,4.2824,-0.26865,-16.219,129.99,3.0679,-1.0226,-1.7427,4.0905,2.0628e-13,-0.87133,0,0,0.125,-0,-0,0.66667
0.65454,0.3904,5.2363,-0.16441,-7.9276,76.067,2.2957,-0.76523,-1.9048,3.0609,7.867e-13,-0.95238,0,0,0.125,-0,-0,0.66667
0.14659,0.15396,1.1727,-0.51906,-43.183,365.57,1.6232,-0.54108,-1.0413,2.1643,4.8287e-10,-0.52065,0,0,0.125,-3.3307e-16,0,0.66667
0.95636,0.50805,7.6509,0.012075,0.080914,1.7759,-0.24636,0.082121,-1.9994,-0.32848,1.6368e-06,-0.99968,0,0,0.125,-0,-0,0.66667
0.19615,0.49968,1.5692,-0.00048224,-0.039286,332.03,0.002018,-0.00067266,-1.9994,0.0026906,2.1059e-10,-0.9997,0,0,0.125,9.7145e-16,0,0.66667
0.67393,0.52099,5.3914,0.031492,1.4485,68.393,-0.45276,0.15092,-1.9972,-0.60368,-1.7332e-12,-0.9986,0,0,0.125,1.1842e-15,0,0.66667
0.27434,0.58863,2.1947,0.13294,10.415,280.77,-0.77804,0.25935,-1.9357,-1.0374,6.4286e-12,-0.96785,0,0,0.125,2.9606e-16,0,0.66667
0.10843,0.35218,0.86745,-0.22172,-18.58,391.5,0.51289,-0.17096,-1.8273,0.68385,1.2755e-08,-0.91364,0,0,0.125,-0,-0,0.66667
0.2609,0.33691,2.0872,-0.24463,-19.327,289.48,1.3616,-0.45386,-1.7863,1.8154,-1.8787e-11,-0.89314,0,0,0.125,-0,-0,0.66667
0.33415,0.77339,2.6732,0.41008,30.919,243.23,-2.9233,0.97443,-1.4005,-3.8977,1.8243e-12,-0.70023,0,0,0.125,-2.9606e-16,0,0.66667
0.46473,0.93001,3.7179,0.64502,43.056,167.45,-6.3949,2.1316,-0.5201,-8.5265,-1.4175e-12,-0.26005,0,0,0.125,5.9212e-16,0,0.66667
0.23436,0.72636,1.8749,0.33954,27.225,306.83,-1.6976,0.56585,-1.5934,-2.2634,-8.3289e-13,-0.79671,0,0,0.125,-0,-0,0.66667
0.7275,0.094182,5.82,-0.60873,-24.331,50.133,9.4475,-3.1492,-0.68188,12.597,8.9493e-12,-0.34094,0,0,0.125,-0,-0,0.66667
0.80719,0.53525,6.4575,0.052868,1.5413,25.94,-0.9104,0.30347,-1.9892,-1.2139,5.5404e-11,-0.99462,0,0,0.125,2.3685e-15,0,0.66667
0.79098,0.92435,6.3278,0.63652,20.23,31.257,-10.741,3.5803,-0.55747,-14.321,-1.8244e-11,-0.27874,0,0,0.125,-1.1842e-15,0,0.66667
0.71575,0.49834,5.726,-0.0024972,-0.10247,53.154,0.038131,-0.01271,-2.001,0.050841,-2.6092e-12,-1.0005,0,0,0.125,3.5527e-15,0,0.66667
0.26964,0.72303,2.1571,0.33455,26.316,283.88,-1.9244,0.64148,-1.6019,-2.5659,1.2027e-11,-0.80094,0,0,0.125,5.9212e-16,0,0.66667
0.21046,0.52258,1.6837,0.033873,2.7427,322.51,-0.15208,0.050694,-1.994,-0.20278,-4.0976e-11,-0.99699,0,0,0.125,-2.9606e-16,0,0.66667
0.10913,0.33713,0.87303,-0.24431,-20.472,391.03,0.56876,-0.18959,-1.7909,0.75835,1.3334e-08,-0.89547,0,0,0.125,-2.2204e-16,0,0.66667
0.39668,0.4187,3.1734,-0.12195,-8.6996,205.37,1.032,-0.344,-1.9452,1.376,-2.1205e-14,-0.97258,0,0,0.125,-5.9212e-16,0,0.66667
0.087267,0.25741,0.69813,-0.36388,-30.652,406.07,0.67743,-0.22581,-1.5275,0.90325,3.1077e-08,-0.76376,0,0,0.125,-0,-0,0.66667
0.65539,0.69228,5.2431,0.28842,13.897,75.858,-4.0326,1.3442,-1.7069,-5.3768,-2.9354e-12,-0.85344,0,0,0.125,-0,-0,0.66667
0.94983,0.2142,7.5986,-0.4287,-3.4103,2.8789,8.6867,-2.8956,-1.3469,11.582,-1.95e-08,-0.67343,0,0,0.125,2.3388e-15,0,0.66667
0.75563,0.7108,6.0451,0.31621,11.425,40.483,-5.0973,1.6991,-1.643,-6.7964,-1.4827e-11,-0.8215,0,0,0.125,-5.9212e-16,0,0.66667
0.11689,0.275,0.93513,-0.33749,-28.249,385.73,0.8416,-0.28053,-1.5933,1.1221,1.2455e-08,-0.79667,0,0,0.125,-2.2204e-16,0,0.66667
0.020481,0.45033,0.16385,-0.074498,-6.3114,452.23,0.032551,-0.01085,-1.9788,0.043401,1.4102e-07,-0.98938,0,0,0.125,3.7007e-17,0,0.66667
0.33489,0.45488,2.6791,-0.067687,-5.089,242.58,0.48357,-0.16119,-1.9815,0.64477,-3.7767e-13,-0.99076,0,0,0.125,1.9553e-16,0,0.66667
0.99288,0.53825,7.943,0.057381,0.036232,0.12693,-1.2154,0.40513,-1.9865,-1.6205,7.1733e-07,-0.99327,0,0,0.125,2.3685e-15,0,0.66667
0.31283,0.21314,2.5027,-0.43029,-32.957,256.51,2.8717,-0.95722,-1.3449,3.8289,-2.3632e-12,-0.67243,0,0,0.125,2.9606e-16,0,0.66667
0.73751,0.49241,5.9001,-0.011388,-0.43657,45.897,0.17918,-0.059725,-1.9996,0.2389,-3.6309e-12,-0.99978,0,0,0.125,1.7764e-15,0,0.66667
0.71653,0.9375,5.7322,0.65624,27.159,53.983,-10.031,3.3438,-0.47085,-13.375,-2.8972e-12,-0.23542,0,0,0.125,3.8408e-16,0,0.66667
0.57256,0.67636,4.5805,0.26453,15.038,111.94,-3.2312,1.0771,-1.7495,-4.3082,-1.2039e-12,-0.87473,0,0,0.125,-0,-0,0.66667
0.36765,0.69952,2.9412,0.29928,21.94,222.72,-2.3473,0.78242,-1.6793,-3.1297,-5.1514e-14,-0.83967,0,0,0.125,-0,-0,0.66667
0.20827,0.14151,1.6661,-0.53773,-43.744,324.18,2.3891,-0.79638,-0.97021,3.1855,1.1225e-10,-0.4851,0,0,0.125,-2.9606e-16,0,0.66667
0.98,0.36891,7.84,-0.19664,-0.55768,0.63271,4.1111,-1.3704,-1.8619,5.4815,5.8278e-08,-0.93093,0,0,0.125,2.3566e-15,0,0.66667
0.065894,0.74339,0.52715,0.36508,30.856,420.81,-0.51321,0.17107,-1.526,-0.68428,-4.689e-08,-0.76301,0,0,0.125,3.7007e-17,0,0.66667
0.23623,0.81295,1.8898,0.46942,37.655,305.69,-2.3656,0.78855,-1.2189,-3.1542,2.5887e-11,-0.60943,0,0,0.125,-5.9212e-16,0,0.66667
0.3089,0.77446,2.4712,0.41169,31.611,258.96,-2.713,0.90434,-1.3971,-3.6173,6.4821e-12,-0.69856,0,0,0.125,-0,-0,0.66667
0.9095,0.47248,7.276,-0.041282,-0.58474,6.4532,0.80098,-0.26699,-1.9944,1.068,-4.6252e-08,-0.9972,0,0,0.125,-0,-0,0.66667
0.71337,0.74036,5.707,0.36054,14.948,54.305,-5.4869,1.829,-1.5363,-7.3158,-1.102e-11,-0.76813,0,0,0.125,-0,-0,0.66667
0.26537,0.87586,2.123,0.56379,44.579,286.83,-3.1918,1.0639,-0.87392,-4.2557,3.4499e-11,-0.43696,0,0,0.125,-0,-0,0.66667
0.1645,0.15509,1.316,-0.51737,-42.796,353.45,1.8156,-0.60521,-1.0475,2.4208,2.1537e-09,-0.52373,0,0,0.125,2.9606e-16,0,0.66667
0.8805,0.82132,7.044,0.48199,9.0777,11.442,-9.0536,3.0179,-1.1725,-12.071,6.282e-09,-0.58624,0,0,0.125,-0,-0,0.66667
0.79378,0.65352,6.3503,0.23028,7.1473,29.522,-3.8996,1.2999,-1.8122,-5.1995,1.435e-10,-0.9061,0,0,0.125,1.7153e-15,0,0.66667
0.038387,0.32472,0.3071,-0.26292,-22.268,439.83,0.21531,-0.07177,-1.752,0.28708,-1.1747e-07,-0.87602,0,0,0.125,7.4015e-17,0,0.66667
0.8793,0.76816,7.0344,0.40224,7.6187,11.419,-7.5454,2.5151,-1.4235,-10.061,9.2077e-09,-0.71176,0,0,0.125,1.1842e-15,0,0.66667
0.58794,0.79362,4.7035,0.44043,24.423,105.07,-5.5241,1.8414,-1.3084,-7.3655,-9.8366e-13,-0.65421,0,0,0.125,1.1842e-15,0,0.66667
0.45754,0.80761,3.6603,0.46142,30.965,171.06,-4.5038,1.5013,-1.2425,-6.0051,1.6476e-13,-0.62124,0,0,0.125,2.9606e-16,0,0.66667
0.67385,0.025757,5.3908,-0.71136,-33.098,69.631,10.226,-3.4087,-0.20207,13.635,-2.8688e-13,-0.10103,0,0,0.125,5.9212e-16,0,0.66667
0.039443,0.69116,0.31554,0.28674,24.287,439.1,-0.24127,0.080425,-1.7064,-0.3217,1.1503e-07,-0.85319,0,0,0.125,-0,-0,0.66667
0.33032,0.82292,2.6426,0.48437,36.659,245.68,-3.4133,1.1378,-1.1664,-4.5511,3.0465e-13,-0.58319,0,0,0.125,-0,-0,0.66667
0.088048,0.50142,0.70439,0.0021283,0.17897,405.49,-0.0039978,0.0013327,-1.9995,-0.0053303,1.5614e-07,-0.99974,0,0,0.125,-0,-0,0.66667
0.68364,0.18775,5.4691,-0.46838,-21.122,65.238,6.8309,-2.277,-1.2207,9.1079,2.7676e-12,-0.61034,0,0,0.125,-0,-0,0.66667
0.39801,0.78264,3.1841,0.42395,30.278,204.83,-3.5998,1.1999,-1.3601,-4.7997,3.1894e-12,-0.68003,0,0,0.125,-1.1842e-15,0,0.66667
0.47895,0.36755,3.8316,-0.19868,-12.957,159.12,2.03,-0.67667,-1.8583,2.7067,1.5725e-12,-0.92915,0,0,0.125,-5.9212e-16,0,0.66667
0.2898,0.83643,2.3184,0.50465,39.285,271.12,-3.12,1.04,-1.0927,-4.16,-1.2663e-12,-0.54637,0,0,0.125,4.6766e-16,0,0.66667
0.78829,0.78435,6.3064,0.42652,13.611,31.347,-7.1728,2.3909,-1.352,-9.5638,1.5985e-11,-0.676,0,0,0.125,-0,-0,0.66667
0.046513,0.38134,0.3721,-0.17799,-15.058,434.19,0.17661,-0.058871,-1.8904,0.23549,-4.4333e-08,-0.9452,0,0,0.125,1.4803e-16,0,0.66667
0.28113,0.51985,2.249,0.029777,2.3228,276.4,-0.17858,0.059528,-1.9997,-0.23811,2.6523e-13,-0.99986,0,0,0.125,-0,-0,0.66667
0.5906,0.81796,4.7248,0.47693,26.337,103.93,-6.0091,2.003,-1.1915,-8.0121,-2.9887e-13,-0.59575,0,0,0.125,-0,-0,0.66667
0.79013,0.95734,6.3211,0.686,21.927,31.664,-11.563,3.8545,-0.32467,-15.418,1.8718e-10,-0.16233,0,0,0.125,-0,-0,0.66667
0.6016,0.47447,4.8128,-0.038298,-2.063,98.484,0.49152,-0.16384,-1.9932,0.65537,7.816e-13,-0.99658,0,0,0.125,-1.1842e-15,0,0.66667
0.73049,0.70496,5.8439,0.30744,12.087,48.432,-4.7911,1.597,-1.663,-6.3882,-1.5895e-11,-0.83148,0,0,0.125,1.1842e-15,0,0.66667
0.023528,0.064396,0.18822,-0.65341,-55.635,450.15,0.32796,-0.10933,-0.481,0.43728,-1.0709e-05,-0.2405,0,0,0.125,-7.4015e-17,0,0.66667
0.25492,0.46422,2.0394,-0.053665,-4.2507,293.3,0.29185,-0.097284,-1.989,0.38914,-5.9475e-12,-0.99451,0,0,0.125,2.9606e-16,0,0.66667
0.042092,0.78866,0.33673,0.43298,36.714,437.28,-0.3888,0.1296,-1.3324,-0.5184,-4.9901e-08,-0.66619,0,0,0.125,1.4803e-16,0,0.66667
0.50001,0.50244,4.0001,0.0036639,0.23234,147.88,-0.039082,0.013027,-2.0041,-0.05211,-2.5e-12,-1.002,0,0,0.125,-0,-0,0.66667
0.98914,0.90718,7.9131,0.61078,1.0058,1.5152,-12.888,4.2961,-0.6736,-17.185,9.2217e-06,-0.3368,0,0,0.125,2.3685e-15,0,0.66667
0.013531,0.76749,0.10824,0.40124,34.066,457.06,-0.11582,0.038606,-1.4281,-0.15442,-1.3883e-08,-0.71405,0,0,0.125,2.4804e-18,0,0.66667
0.44088,0.33311,3.527,-0.25033,-17.079,180.07,2.3544,-0.78481,-1.7767,3.1393,-3.475e-13,-0.88837,0,0,0.125,-0,-0,0.66667
0.0047864,0.10515,0.038291,-0.59228,-50.41,463.13,0.060475,-0.020156,-0.75135,0.080634,2.8578e-06,-0.37567,0,0,0.125,-0,-0,0.66667
0.61289,0.027611,4.9031,-0.70858,-37.708,94.582,9.2647,-3.0882,-0.21507,12.353,-1.9211e-12,-0.10753,0,0,0.125,1.7764e-15,0,0.66667
0.18336,0.69746,1.4669,0.29619,24.279,340.65,-1.1586,0.3862,-1.6871,-1.5448,-5.8812e-10,-0.84357,0,0,0.125,-0,-0,0.66667
0.71274,0.82461,5.7019,0.48692,20.278,54.794,-7.4036,2.4679,-1.1551,-9.8715,-7.919e-12,-0.57754,0,0,0.125,1.1842e-15,0,0.66667
0.15965,0.53158,1.2772,0.047376,3.9122,356.58,-0.16136,0.053785,-1.993,-0.21514,-6.851e-10,-0.99651,0,0,0.125,-0,-0,0.66667
0.82858,0.085825,6.6286,-0.62126,-16.504,21.995,10.982,-3.6605,-0.63041,14.642,-3.2093e-09,-0.3152,0,0,0.125,-0,-0,0.66667
0.20618,0.40713,1.6494,-0.1393,-11.303,325.37,0.61272,-0.20424,-1.9322,0.81696,1.0412e-10,-0.96608,0,0,0.125,-5.9212e-16,0,0.66667
0.35222,0.51707,2.8177,0.025604,1.8989,231.95,-0.19239,0.064129,-1.9954,-0.25652,-2.6943e-12,-0.99771,0,0,0.125,-0,-0,0.66667
0.23058,0.27093,1.8446,-0.34361,-27.604,309.31,1.6902,-0.5634,-1.5795,2.2536,1.6999e-12,-0.78974,0,0,0.125,-0,-0,0.66667
0.80768,0.74374,6.4615,0.3656,10.683,26.193,-6.2996,2.0999,-1.5238,-8.3994,3.1556e-10,-0.76191,0,0,0.125,-1.1842e-15,0,0.66667
0.49027,0.032144,3.9222,-0.70178,-45.44,153.87,7.34,-2.4467,-0.24841,9.7867,-4.3032e-13,-0.12421,0,0,0.125,1.1842e-15,0,0.66667
0.87383,0.81098,6.9907,0.46648,9.2439,12.516,-8.6959,2.8986,-1.2292,-11.595,7.8661e-09,-0.61459,0,0,0.125,1.7764e-15,0,0.66667
0.13009,0.090971,1.0407,-0.61354,-51.351,376.84,1.7027,-0.56756,-0.66105,2.2702,1.0279e-08,-0.33052,0,0,0.125,-1.8504e-16,0,0.66667
0.49896,0.47162,3.9917,-0.042576,-2.7039,148.44,0.4532,-0.15107,-1.9963,0.60427,-2.2357e-13,-0.99815,0,0,0.125,-0,-0,0.66667
0.77661,0.80209,6.2129,0.45314,15.178,34.628,-7.5074,2.5025,-1.2687,-10.01,-9.3272e-12,-0.63434,0,0,0.125,-0,-0,0.66667
0.98121,0.96932,7.8497,0.70397,2.1874,2.1815,-14.736,4.912,-0.23902,-19.648,-9.4825e-06,-0.11951,0,0,0.125,-0,-0,0.66667
0.67338,0.02095,5.387,-0.71858,-33.48,69.837,10.323,-3.4409,-0.16538,13.763,3.7303e-14,-0.082689,0,0,0.125,-0,-0,0.66667
0.183,0.38086,1.464,-0.1787,-14.64,340.86,0.69767,-0.23256,-1.8858,0.93022,4.3432e-10,-0.94288,0,0,0.125,-0,-0,0.66667
0.75977,0.56098,6.0782,0.091473,3.2473,38.987,-1.4826,0.49421,-1.9697,-1.9769,-5.6964e-12,-0.98483,0,0,0.125,5.9212e-16,0,0.66667
0.074635,0.33789,0.59708,-0.24317,-20.508,414.76,0.38718,-0.12906,-1.7897,0.51623,1.4538e-08,-0.89486,0,0,0.125,-1.1102e-16,0,0.66667
0.76277,0.55075,6.1022,0.076118,2.6723,38.085,-1.2386,0.41287,-1.9793,-1.6515,3.474e-12,-0.98965,0,0,0.125,-0,-0,0.66667
0.82782,0.7945,6.6225,0.44176,11.696,21.604,-7.8014,2.6005,-1.3087,-10.402,8.1581e-10,-0.65434,0,0,0.125,-0,-0,0.66667
0.55921,0.024074,4.4737,-0.71389,-41.829,119.16,8.5166,-2.8389,-0.18789,11.355,-2.3004e-13,-0.093946,0,0,0.125,-0,-0,0.66667
0.49272,0.55737,3.9418,0.086054,5.511,151.73,-0.90455,0.30152,-1.9722,-1.2061,1.4705e-12,-0.98608,0,0,0.125,-8.8818e-16,0,0.66667
0.93653,0.075036,7.4922,-0.63745,-6.5828,4.7645,12.736,-4.2452,-0.557,16.981,1.6927e-07,-0.2785,0,0,0.125,-0,-0,0.66667
9.6951e-05,0.66354,0.00077561,0.2453,20.805,466.38,-0.00050728,0.00016889,-1.7893,-0.00067647,-2.9648e-07,-0.89465,0,0,0.125,-0,-3.8583e-16,0.66667
0.0095669,0.8698,0.076535,0.55471,47.184,459.82,-0.11321,0.037735,-0.90468,-0.15095,-2.1761e-06,-0.45234,0,0,0.125,-1.3878e-17,0,0.66667
0.25195,0.53254,2.0156,0.048806,3.8721,295.23,-0.26233,0.087444,-1.9936,-0.34978,-3.1788e-12,-0.9968,0,0,0.125,-0,-0,0.66667
0.50568,0.16472,4.0454,-0.50291,-31.78,145.38,5.4253,-1.8084,-1.0992,7.2337,3.3933e-12,-0.54958,0,0,0.125,-1.1842e-15,0,0.66667
0.54042,0.17315,4.3233,-0.49027,-29.455,127.77,5.6523,-1.8841,-1.1432,7.5364,-2.0028e-13,-0.57161,0,0,0.125,5.9212e-16,0,0.66667
0.37129,0.02789,2.9703,-0.70817,-52.055,221.08,5.6093,-1.8698,-0.21708,7.4791,-1.4118e-12,-0.10854,0,0,0.125,-0,-5.6823e-17,0.66667
0.29271,0.66384,2.3417,0.24577,19.047,269.07,-1.5347,0.51156,-1.7845,-2.0462,5.2782e-12,-0.89226,0,0,0.125,-0,-0,0.66667
0.20237,0.94452,1.6189,0.66678,54.487,328.21,-2.8786,0.95953,-0.42168,-3.8381,6.3574e-10,-0.21084,0,0,0.125,-0,-0,0.66667
0.80028,0.0095423,6.4023,-0.73569,-22.556,29.22,12.56,-4.1867,-0.07522,16.747,1.5119e-10,-0.03761,0,0,0.125,-0,-0,0.66667
0.31592,0.62313,2.5274,0.18469,14.086,254.41,-1.2447,0.41492,-1.8794,-1.6597,-2.4524e-12,-0.93969,0,0,0.125,-0,-0,0.66667
0.49247,0.70933,3.9397,0.31399,20.145,152.02,-3.2988,1.0996,-1.6474,-4.3984,-1.2101e-12,-0.82371,0,0,0.125,-0,-0,0.66667
0.81129,0.57736,6.4903,0.11603,3.3183,24.959,-2.0082,0.66941,-1.9535,-2.6777,2.9342e-10,-0.97677,0,0,0.125,-0,-0,0.66667
0.61236,0.76847,4.8989,0.40271,21.311,94.073,-5.2608,1.7536,-1.4231,-7.0144,-1.3638e-12,-0.71156,0,0,0.125,-0,-0,0.66667
0.40861,0.58763,3.2689,0.13144,9.2694,198.42,-1.1458,0.38193,-1.9394,-1.5277,3.7481e-13,-0.96972,0,0,0.125,5.9212e-16,0,0.66667
0.1769,0.2461,1.4152,-0.38085,-31.317,345.02,1.4373,-0.4791,-1.4836,1.9164,7.8879e-10,-0.7418,0,0,0.125,3.7007e-16,0,0.66667
0.39765,0.54835,3.1812,0.072522,5.1681,204.79,-0.61522,0.20507,-1.9791,-0.8203,5.8487e-13,-0.98953,0,0,0.125,-5.9212e-16,0,0.66667
0.48521,0.072983,3.8817,-0.64053,-41.689,156.41,6.6302,-2.2101,-0.54328,8.8403,-8.4377e-14,-0.27164,0,0,0.125,-0,-0,0.66667
0.99058,0.50395,7.9247,0.005929,0.0060194,0.16714,-0.12529,0.041769,-1.9987,-0.16706,7.127e-06,-0.99937,0,0,0.125,-0,-0,0.66667
0.2842,0.34423,2.2736,-0.23366,-18.206,274.49,1.4166,-0.47221,-1.8072,1.8889,-1.0521e-11,-0.9036,0,0,0.125,1.1842e-15,0,0.66667
0.16564,0.37379,1.3251,-0.18931,-15.608,352.55,0.66897,-0.22299,-1.8719,0.89196,1.6696e-09,-0.93597,0,0,0.125,4.0708e-16,0,0.66667
0.22058,0.77582,1.7646,0.41373,33.42,315.94,-1.9469,0.64895,-1.3929,-2.5958,-2.0342e-11,-0.69643,0,0,0.125,4.4409e-16,0,0.66667
0.21147,0.9348,1.6917,0.65219,53.072,322.16,-2.9422,0.98075,-0.4865,-3.923,-1.7252e-10,-0.24325,0,0,0.125,7.4015e-17,0,0.66667
0.076048,0.51227,0.60838,0.018412,1.5514,413.77,-0.029871,0.009957,-1.9994,-0.039829,-1.6215e-07,-0.99969,0,0,0.125,-0,-0,0.66667
0.36491,0.34747,2.9193,-0.22879,-16.803,224.32,1.7811,-0.59368,-1.813,2.3747,-1.1537e-12,-0.90651,0,0,0.125,-0,-0,0.66667
0.28473,0.46319,2.2779,-0.055211,-4.2973,274.09,0.33537,-0.11179,-1.9892,0.44716,-4.7552e-12,-0.99458,0,0,0.125,2.9606e-16,0,0.66667
0.88759,0.059514,7.1007,-0.66073,-11.877,10.955,12.511,-4.1703,-0.44854,16.681,3.1607e-08,-0.22427,0,0,0.125,-1.1842e-15,0,0.66667
0.78026,0.49029,6.2421,-0.014563,-0.47765,33.04,0.24241,-0.080804,-2.0012,0.32322,1.1765e-11,-1.0006,0,0,0.125,1.7764e-15,0,0.66667
0.10906,0.92227,0.87252,0.63341,53.302,391.2,-1.4738,0.49126,-0.57597,-1.965,6.356e-08,-0.28799,0,0,0.125,-0,-1.4793e-16,0.66667
0.8505,0.95279,6.804,0.67918,15.962,17.586,-12.323,4.1077,-0.35766,-16.431,1.0923e-08,-0.17883,0,0,0.125,1.1842e-15,0,0.66667
0.1096,0.88191,0.87679,0.57287,48.158,390.81,-1.3394,0.44648,-0.83628,-1.7859,5.3744e-09,-0.41814,0,0,0.125,-0,-0,0.66667
0.72021,0.23833,5.7617,-0.39251,-15.955,52.023,6.0307,-2.0102,-1.4535,8.0409,1.21e-11,-0.72673,0,0,0.125,-1.1842e-15,0,0.66667
0.57282,0.33338,4.5826,-0.24993,-14.2,111.8,3.0542,-1.0181,-1.7763,4.0723,-4.2344e-13,-0.88816,0,0,0.125,-0,-0,0.66667
0.086808,0.87481,0.69447,0.56221,47.47,406.45,-1.0412,0.34706,-0.87558,-1.3882,-7.8469e-08,-0.43779,0,0,0.125,-7.1702e-17,0,0.66667
0.90533,0.45149,7.2426,-0.072758,-1.0779,7.0155,1.4052,-0.46841,-1.9829,1.8736,-3.0437e-09,-0.99147,0,0,0.125,-1.1842e-15,0,0.66667
0.87457,0.84426,6.9965,0.51639,10.203,12.542,-9.6344,3.2115,-1.0558,-12.846,-6.7987e-10,-0.52792,0,0,0.125,-2.3685e-15,0,0.66667
0.84385,0.23736,6.7508,-0.39396,-9.5128,18.014,7.0922,-2.3641,-1.451,9.4563,-2.2558e-09,-0.72549,0,0,0.125,-1.1842e-15,0,0.66667
0.36957,0.5191,2.9565,0.028647,2.094,221.45,-0.22586,0.075286,-1.9953,-0.30114,-1.7396e-13,-0.99767,0,0,0.125,1.1842e-15,0,0.66667
0.22295,0.43047,1.7836,-0.10429,-8.3972,314.25,0.49602,-0.16534,-1.9607,0.66137,2.2461e-11,-0.98033,0,0,0.125,-1.4803e-16,0,0.66667
0.99711,0.50527,7.9769,0.0079011,-0.00072452,0.038686,-0.16807,0.056001,-2.0003,-0.2241,-3.3337e-05,-1.0001,0,0,0.125,-0,-0,0.66667
0.81734,0.080668,6.5387,-0.629,-17.709,24.61,10.968,-3.6558,-0.59178,14.623,5.1672e-10,-0.29589,0,0,0.125,1.1842e-15,0,0.66667
0.042128,0.96095,0.33703,0.69142,58.836,437.3,-0.6214,0.20712,-0.29913,-0.82855,-1.6899e-05,-0.14956,0,0,0.125,-7.4015e-17,0,0.66667
0.37328,0.13563,2.9862,-0.54655,-39.991,219.62,4.3523,-1.4508,-0.93893,5.8031,1.0703e-12,-0.46947,0,0,0.125,-5.9212e-16,0,0.66667
0.81219,0.50778,6.4975,0.011666,0.332,24.702,-0.20212,0.067375,-2.0024,-0.2695,-1.5039e-10,-1.0012,0,0,0.125,-0,-0,0.66667
0.52838,0.49377,4.2271,-0.0093479,-0.56952,133.31,0.10537,-0.035124,-2.0001,0.14049,-1.5023e-12,-1,0,0,0.125,5.9212e-16,0,0.66667
0.24713,0.68265,1.977,0.27397,21.812,298.44,-1.4444,0.48147,-1.7337,-1.9259,1.2217e-11,-0.86686,0,0,0.125,-0,-0,0.66667
0.79289,0.23283,6.3431,-0.40076,-12.532,30.062,6.7788,-2.2596,-1.4279,9.0384,-8.9023e-11,-0.71395,0,0,0.125,-1.1842e-15,0,0.66667
0.26175,0.72137,2.094,0.33205,26.238,288.97,-1.8542,0.61807,-1.6082,-2.4723,1.2693e-11,-0.80408,0,0,0.125,-0,-0,0.66667
0.00039838,0.38209,0.003187,-0.17686,-14.995,466.17,0.001503,-0.00050088,-1.8917,0.002004,1.6294e-07,-0.94584,0,0,0.125,-0,-0,0.66667
0.23132,0.81532,1.8506,0.47298,38.035,308.91,-2.334,0.77801,-1.2054,-3.1121,5.4879e-11,-0.60269,0,0,0.125,5.9212e-16,0,0.66667
0.99337,0.47712,7.947,-0.034323,-0.018731,0.10925,0.72737,-0.24246,-1.994,0.96983,5.0602e-07,-0.997,0,0,0.125,-0,-0,0.66667
0.6562,0.28182,5.2496,-0.32727,-15.747,75.589,4.5815,-1.5272,-1.6236,6.1086,1.6698e-13,-0.8118,0,0,0.125,-0,-0,0.66667
0.22067,0.98312,1.7653,0.72468,58.8,316.16,-3.4115,1.1372,-0.13345,-4.5486,-6.9984e-11,-0.066727,0,0,0.125,-0,-0,0.66667
0.68614,0.8728,5.4891,0.55921,25.109,64.533,-8.1855,2.7285,-0.89065,-10.914,-2.4434e-12,-0.44532,0,0,0.125,1.1842e-15,-1.2796e-16,0.66667
0.68694,0.31488,5.4955,-0.27768,-12.374,63.661,4.0693,-1.3564,-1.7293,5.4257,4.3361e-12,-0.86463,0,0,0.125,-0,-0,0.66667
0.64074,0.58544,5.1259,0.12817,6.3741,81.667,-1.7519,0.58397,-1.9447,-2.3359,-1.3559e-12,-0.97236,0,0,0.125,-5.9212e-16,0,0.66667
0.070549,0.94505,0.56439,0.66758,56.603,417.68,-1.0047,0.33491,-0.41356,-1.3396,-5.1874e-07,-0.20678,0,0,0.125,-0,-0,0.66667
0.24296,0.21133,1.9437,-0.43301,-34.6,301.25,2.2444,-0.74813,-1.3316,2.9925,-1.9357e-11,-0.66578,0,0,0.125,2.9606e-16,0,0.66667
0.87084,0.17019,6.9667,-0.49472,-10.038,13.12,9.1909,-3.0636,-1.1286,12.254,-6.8292e-09,-0.56432,0,0,0.125,-0,-0,0.66667
0.73474,0.14917,5.8779,-0.52624,-20.508,47.517,8.2485,-2.7495,-1.0183,10.998,-2.3537e-13,-0.50915,0,0,0.125,-5.9212e-16,0,0.66667
0.16782,0.72634,1.3425,0.33951,27.998,351.12,-1.2155,0.40515,-1.5895,-1.6206,-1.3642e-09,-0.79476,0,0,0.125,5.9212e-16,0,0.66667
0.29859,0.30533,2.3887,-0.29201,-22.552,265.37,1.8601,-0.62002,-1.6982,2.4801,-5.8576e-12,-0.84909,0,0,0.125,-2.9606e-16,0,0.66667
0.56272,0.36168,4.5018,-0.20748,-11.987,116.55,2.4907,-0.83024,-1.8496,3.321,-7.7183e-13,-0.9248,0,0,0.125,-0,-0,0.66667
0.82645,0.99167,6.6116,0.73751,19.935,22.938,-13.003,4.3343,-0.067327,-17.337,2.4508e-10,-0.033664,0,0,0.125,-7.9765e-16,0,0.66667
0.20052,0.16403,1.6041,-0.50395,-41.113,329.3,2.1557,-0.71858,-1.0974,2.8743,3.1052e-10,-0.54872,0,0,0.125,-0,-0,0.66667
0.10167,0.99874,0.81332,0.74812,63.177,396.33,-1.6226,0.54085,-0.0091774,-2.1634,6.3379e-08,-0.0045887,0,0,0.125,-1.8504e-17,0,0.66667
0.38187,0.53458,3.055,0.051867,3.7505,214.1,-0.42254,0.14085,-1.9893,-0.56339,-3.4692e-12,-0.99463,0,0,0.125,-0,-0,0.66667
0.91235,0.24369,7.2988,-0.38447,-5.3336,6.5638,7.4831,-2.4944,-1.473,9.9775,-3.0173e-08,-0.73649,0,0,0.125,-0,-0,0.66667
0.26051,0.52966,2.0841,0.044484,3.5125,289.67,-0.24722,0.082408,-1.9927,-0.32963,4.2793e-12,-0.99633,0,0,0.125,3.7007e-16,0,0.66667
0.1083,0.56559,0.86643,0.098388,8.2409,391.57,-0.22732,0.075775,-1.9683,-0.3031,-1.8461e-08,-0.98413,0,0,0.125,-2.9606e-16,0,0.66667
0.055943,0.15873,0.44754,-0.51191,-43.387,427.71,0.61094,-0.20365,-1.0673,0.81458,-1.2737e-08,-0.53365,0,0,0.125,-0,-0,0.66667
0.35167,0.32482,2.8134,-0.26277,-19.516,232.37,1.9714,-0.65713,-1.7523,2.6285,-4.5774e-13,-0.87613,0,0,0.125,-5.9212e-16,0,0.66667
0.037627,0.37532,0.30102,-0.18702,-15.834,440.35,0.15012,-0.050041,-1.8751,0.20016,-5.1039e-08,-0.93757,0,0,0.125,-0,-0,0.66667
0.58303,0.57185,4.6643,0.10778,6.0093,106.94,-1.3406,0.44687,-1.9574,-1.7875,6.2617e-14,-0.97869,0,0,0.125,-0,-0,0.66667
0.67256,0.39057,5.3805,-0.16415,-7.5802,68.981,2.3552,-0.78506,-1.9062,3.1403,1.1939e-12,-0.95311,0,0,0.125,1.1842e-15,0,0.66667
0.46048,0.89103,3.6839,0.58654,39.305,169.65,-5.762,1.9207,-0.77449,-7.6826,-2.0615e-12,-0.38725,0,0,0.125,5.9212e-16,0,0.66667
0.74112,0.92567,5.9289,0.6385,24.457,45.813,-10.095,3.365,-0.54834,-13.46,8.9537e-12,-0.27417,0,0,0.125,-1.1842e-15,0,0.66667
0.50102,0.1426,4.0082,-0.53611,-34.111,147.86,5.7302,-1.9101,-0.97976,7.6402,1.402e-12,-0.48988,0,0,0.125,-0,-0,0.66667
0.70235,0.51993,5.6188,0.029896,1.2753,57.855,-0.44795,0.14932,-1.9989,-0.59727,-1.9298e-12,-0.99944,0,0,0.125,-0,-0,0.66667
0.23064,0.34984,1.8451,-0.22524,-18.079,309.21,1.1083,-0.36942,-1.8194,1.4777,4.0596e-12,-0.90968,0,0,0.125,-0,-0,0.66667
0.74461,0.047222,5.9569,-0.67917,-25.751,44.851,10.789,-3.5962,-0.35813,14.385,5.155e-12,-0.17907,0,0,0.125,-1.1842e-15,0,0.66667
0.50164,0.77911,4.0131,0.41867,26.568,147.35,-4.4804,1.4935,-1.379,-5.9739,5.1648e-13,-0.6895,0,0,0.125,-7.4015e-16,0,0.66667
0.70537,0.68015,5.643,0.27022,11.449,56.963,-4.0663,1.3554,-1.7412,-5.4217,-8.8889e-12,-0.87059,0,0,0.125,-0,-0,0.66667
0.4467,0.08029,3.5736,-0.62956,-42.895,177.35,5.9995,-1.9998,-0.58864,7.9993,-4.2766e-13,-0.29432,0,0,0.125,-5.9212e-16,0,0.66667
0.50594,0.34805,4.0475,-0.22793,-14.351,144.89,2.4601,-0.82005,-1.8142,3.2802,-8.793e-13,-0.90709,0,0,0.125,1.1842e-15,0,0.66667
0.041535,0.68024,0.33228,0.27035,22.893,437.65,-0.23956,0.079852,-1.7388,-0.31941,1.0256e-07,-0.86941,0,0,0.125,7.4015e-17,0,0.66667
0.48931,0.53802,3.9145,0.057029,3.6683,153.53,-0.59531,0.19844,-1.9874,-0.79374,2.3407e-12,-0.99369,0,0,0.125,-1.1842e-15,0,0.66667
0.14229,0.87903,1.1383,0.56854,47.392,368.52,-1.7258,0.57526,-0.85256,-2.3011,5.4275e-10,-0.42628,0,0,0.125,-0,-0,0.66667
0.1425,0.33311,1.14,-0.25034,-20.799,368.24,0.76101,-0.25367,-1.7781,1.0147,4.3102e-09,-0.88903,0,0,0.125,-0,-0,0.66667
0.43335,0.40162,3.4668,-0.14758,-10.145,184.25,1.3643,-0.45477,-1.9223,1.8191,-4.2655e-13,-0.96113,0,0,0.125,-5.9212e-16,0,0.66667
0.57621,0.92844,4.6097,0.64267,36.533,110.93,-7.9,2.6333,-0.53246,-10.533,-8.2423e-13,-0.26623,0,0,0.125,-0,-0,0.66667
0.34305,0.49925,2.7444,-0.0011251,-0.084054,237.56,0.008234,-0.0027447,-2.0036,0.010979,1.9462e-12,-1.0018,0,0,0.125,-1.1842e-15,0,0.66667
0.16049,0.33873,1.2839,-0.2419,-19.984,356.04,0.82822,-0.27607,-1.7915,1.1043,1.8818e-09,-0.89576,0,0,0.125,-7.4015e-17,0,0.66667
0.74141,0.77551,5.9313,0.41326,15.712,45.095,-6.5364,2.1788,-1.3912,-8.7152,-9.9716e-12,-0.6956,0,0,0.125,-5.9212e-16,0,0.66667
0.96309,0.98507,7.7047,0.72761,4.4737,3.1497,-14.949,4.9831,-0.11575,-19.933,5.4438e-06,-0.057875,0,0,0.125,-0,-0,0.66667
0.73364,0.45643,5.8691,-0.065352,-2.5373,47.162,1.0228,-0.34094,-1.9869,1.3638,4.8384e-12,-0.99343,0,0,0.125,-1.1842e-15,0,0.66667
0.077064,0.52718,0.61651,0.040764,3.4342,413.07,-0.067018,0.022339,-1.9966,-0.089358,7.3752e-08,-0.9983,0,0,0.125,-1.4803e-16,0,0.66667
0.84091,0.1331,6.7273,-0.55035,-13.606,19.071,9.8728,-3.2909,-0.92329,13.164,-5.9318e-10,-0.46165,0,0,0.125,-2.3685e-15,0,0.66667
0.067514,0.3904,0.54011,-0.1644,-13.874,419.67,0.23679,-0.07893,-1.9023,0.31572,-1.0953e-08,-0.95113,0,0,0.125,1.4803e-16,0,0.66667
0.43631,0.89494,3.4905,0.5924,40.798,183.09,-5.5141,1.838,-0.75378,-7.3521,1.6094e-12,-0.37689,0,0,0.125,-0,-0,0.66667
0.92886,0.65588,7.4309,0.23382,2.6146,4.3595,-4.6333,1.5444,-1.805,-6.1777,7.2344e-09,-0.9025,0,0,0.125,-1.5543e-15,0,0.66667
0.26318,0.68553,2.1054,0.2783,21.963,288.02,-1.5625,0.52083,-1.7261,-2.0833,1.5326e-11,-0.86304,0,0,0.125,-0,-0,0.66667
0.12795,0.10336,1.0236,-0.59497,-49.811,378.28,1.6241,-0.54135,-0.74135,2.1654,5.7494e-09,-0.37067,0,0,0.125,-0,-0,0.66667
0.76224,0.22871,6.0979,-0.40693,-14.382,38.676,6.6171,-2.2057,-1.4108,8.8228,1.349e-11,-0.70541,0,0,0.125,-0,-0,0.66667
0.92861,0.36518,7.4289,-0.20223,-2.2667,4.3407,4.0062,-1.3354,-1.8526,5.3416,-1.6566e-08,-0.92631,0,0,0.125,1.1842e-15,0,0.66667
0.32577,0.24551,2.6061,-0.38174,-28.953,248.4,2.653,-0.88432,-1.483,3.5373,-1.3418e-12,-0.74149,0,0,0.125,-4.4409e-16,0,0.66667
0.23246,0.2141,1.8597,-0.42885,-34.449,308.13,2.1267,-0.7089,-1.3476,2.8356,1.1583e-11,-0.6738,0,0,0.125,-0,-0,0.66667
0.18249,0.7706,1.4599,0.40591,33.317,341.29,-1.5802,0.52674,-1.4127,-2.1069,-4.1563e-10,-0.70636,0,0,0.125,1.4803e-16,0,0.66667
0.96324,0.61619,7.7059,0.17428,0.97725,1.4321,-3.5813,1.1938,-1.8905,-4.7751,-8.0613e-08,-0.94524,0,0,0.125,-0,-0,0.66667
0.57663,0.98105,4.6131,0.72157,41.069,110.96,-8.8764,2.9588,-0.14993,-11.835,-8.3489e-14,-0.074966,0,0,0.125,-0,-0,0.66667
0.86009,0.31223,6.8807,-0.28165,-6.1137,14.568,5.1679,-1.7226,-1.7216,6.8905,-5.2645e-09,-0.8608,0,0,0.125,1.3138e-15,0,0.66667
0.30834,0.77585,2.4668,0.41378,31.784,259.31,-2.7219,0.90729,-1.3908,-3.6291,6.9296e-12,-0.6954,0,0,0.125,-0,-0,0.66667
0.056436,0.24122,0.45149,-0.38818,-32.853,427.35,0.46736,-0.15579,-1.4625,0.62314,1.6922e-08,-0.73126,0,0,0.125,-7.4015e-17,0,0.66667
0.4538,0.85581,3.6304,0.53372,36.011,173.23,-5.167,1.7223,-0.9893,-6.8894,9.5346e-13,-0.49465,0,0,0.125,-0,-0,0.66667
0.20711,0.3319,1.6569,-0.25215,-20.463,324.78,1.1141,-0.37136,-1.773,1.4854,1.4164e-10,-0.88649,0,0,0.125,-2.9606e-16,0,0.66667
0.51898,0.38886,4.1519,-0.16671,-10.302,138.13,1.8457,-0.61525,-1.9006,2.461,-4.8606e-13,-0.9503,0,0,0.125,-0,-0,0.66667
0.53799,0.30862,4.3039,-0.28707,-17.263,128.67,3.2947,-1.0982,-1.7058,4.3929,1.2879e-14,-0.85288,0,0,0.125,-4.3284e-16,0,0.66667
0.29429,0.54457,2.3543,0.066859,5.1725,268.01,-0.41975,0.13992,-1.9842,-0.55967,-1.9475e-12,-0.99208,0,0,0.125,-5.9212e-16,0,0.66667
0.30745,0.34045,2.4596,-0.23933,-18.367,259.75,1.5698,-0.52326,-1.7958,2.093,-5.9237e-12,-0.89788,0,0,0.125,5.3511e-16,0,0.66667
0.024174,0.36262,0.19339,-0.20608,-17.464,449.67,0.10627,-0.035425,-1.8468,0.1417,-1.0735e-07,-0.92341,0,0,0.125,3.7007e-17,0,0.66667
0.4204,0.86712,3.3632,0.55069,38.539,192.05,-4.9389,1.6463,-0.9233,-6.5852,-3.233e-13,-0.46165,0,0,0.125,-0,-0,0.66667
0.32369,0.11956,2.5895,-0.57066,-43.454,249.9,3.9406,-1.3135,-0.84152,5.2542,-1.8334e-12,-0.42076,0,0,0.125,2.9606e-16,0,0.66667
0.61949,0.2447,4.9559,-0.38296,-19.973,90.94,5.0611,-1.687,-1.4774,6.7481,-4.7518e-14,-0.73872,0,0,0.125,-2.9606e-16,0,0.66667
0.85976,0.64633,6.8781,0.2195,4.768,14.535,-4.0259,1.342,-1.8313,-5.3679,4.3599e-09,-0.91566,0,0,0.125,1.1842e-15,0,0.66667
0.49264,0.092421,3.9411,-0.61137,-39.389,152.41,6.4253,-2.1418,-0.67018,8.567,-3.1575e-13,-0.33509,0,0,0.125,8.1416e-16,0,0.66667
0.082708,0.71921,0.66167,0.32881,27.712,409.21,-0.58017,0.19339,-1.6158,-0.77356,-3.2106e-08,-0.80789,0,0,0.125,-0,-0,0.66667
0.93348,0.034588,7.4678,-0.69812,-7.6075,5.3252,13.902,-4.6342,-0.26711,18.537,-3.1547e-07,-0.13356,0,0,0.125,-0,-5.8183e-17,0.66667
0.80833,0.59907,6.4666,0.1486,4.312,25.714,-2.5625,0.85418,-1.9211,-3.4167,2.7018e-10,-0.96053,0,0,0.125,-0,-0,0.66667
0.36552,0.88209,2.9242,0.57314,42.234,224.31,-4.4692,1.4897,-0.83048,-5.9589,4.805e-13,-0.41524,0,0,0.125,-0,-0,0.66667
0.33073,0.072396,2.6458,-0.64141,-48.646,245.63,4.5255,-1.5085,-0.53748,6.034,-3.253e-12,-0.26874,0,0,0.125,-0,-0,0.66667
0.93793,0.86542,7.5035,0.54812,5.4769,4.2807,-10.968,3.6558,-0.93437,-14.623,1.3557e-07,-0.46718,0,0,0.125,-1.1842e-15,0,0.66667
0.37489,0.79099,2.9992,0.43648,31.843,218.51,-3.4909,1.1636,-1.3256,-4.6545,8.7264e-14,-0.66281,0,0,0.125,-0,-0,0.66667
0.6358,0.63864,5.0864,0.20796,10.46,83.782,-2.8208,0.94026,-1.8447,-3.761,-1.6227e-12,-0.92236,0,0,0.125,-0,-0,0.66667
0.98534,0.328,7.8828,-0.258,-0.5079,0.54519,5.4234,-1.8078,-1.765,7.2312,-4.663e-08,-0.88251,0,0,0.125,-0,-0,0.66667
0.03674,0.65771,0.29392,0.23656,20.035,440.97,-0.18541,0.061804,-1.8006,-0.24721,1.1498e-07,-0.9003,0,0,0.125,-1.4803e-16,0,0.66667
0.31463,0.0093527,2.517,-0.73597,-56.57,255.78,4.9399,-1.6466,-0.074846,6.5866,1.3425e-12,-0.037423,0,0,0.125,1.1842e-15,0,0.66667
0.23124,0.72638,1.8499,0.33958,27.27,308.88,-1.6751,0.55838,-1.59,-2.2335,-4.1149e-12,-0.795,0,0,0.125,5.9212e-16,0,0.66667
0.92237,0.61519,7.3789,0.17279,2.1051,4.9858,-3.4,1.1333,-1.8964,-4.5333,1.1421e-08,-0.94818,0,0,0.125,-1.1842e-15,0,0.66667
0.55114,0.35017,4.4091,-0.22475,-13.234,122.15,2.6425,-0.88082,-1.8198,3.5233,-1.5021e-12,-0.90988,0,0,0.125,1.1842e-15,0,0.66667
0.053714,0.80622,0.42971,0.45934,38.916,429.24,-0.52635,0.17545,-1.2482,-0.7018,-6.105e-08,-0.6241,0,0,0.125,7.4015e-17,0,0.66667
0.75525,0.52341,6.042,0.035118,1.267,40.335,-0.56582,0.18861,-1.9943,-0.75443,2.8689e-12,-0.99715,0,0,0.125,-1.1842e-15,0,0.66667
0.68408,0.71792,5.4727,0.32688,14.686,64.798,-4.7704,1.5901,-1.621,-6.3605,-4.9276e-12,-0.81048,0,0,0.125,2.2204e-16,0,0.66667
0.66217,0.34227,5.2974,-0.23659,-11.212,73.097,3.3421,-1.114,-1.8004,4.4562,4.2055e-13,-0.90019,0,0,0.125,1.3323e-15,0,0.66667
0.95573,0.022927,7.6458,-0.71561,-5.2498,3.5601,14.59,-4.8635,-0.17959,19.454,-1.237e-05,-0.089795,0,0,0.125,-0,-0,0.66667
0.8746,0.64374,6.9968,0.21561,4.2096,11.852,-4.0229,1.341,-1.8372,-5.3639,7.7752e-09,-0.91858,0,0,0.125,-1.1842e-15,0,0.66667
0.75325,0.43548,6.026,-0.096785,-3.5174,40.967,1.5553,-0.51843,-1.9675,2.0737,1.2829e-11,-0.98373,0,0,0.125,1.1842e-15,0,0.66667
0.22267,0.40135,1.7813,-0.14798,-11.919,314.44,0.70294,-0.23431,-1.9219,0.93725,2.361e-11,-0.96097,0,0,0.125,-4.4409e-16,0,0.66667
0.13801,0.47717,1.1041,-0.034245,-2.8467,371.26,0.10083,-0.03361,-1.9962,0.13444,-5.8601e-10,-0.9981,0,0,0.125,-2.9606e-16,0,0.66667
0.22089,0.46397,1.7671,-0.054052,-4.356,315.6,0.25471,-0.084902,-1.9909,0.33961,1.9348e-11,-0.99544,0,0,0.125,-4.4409e-16,0,0.66667
0.20551,0.68147,1.6441,0.27221,22.109,325.85,-1.1934,0.39781,-1.7374,-1.5912,-1.684e-10,-0.8687,0,0,0.125,2.9606e-16,0,0.66667
0.56796,0.424,4.5437,-0.11399,-6.5245,113.99,1.3812,-0.4604,-1.952,1.8416,4.6285e-13,-0.976,0,0,0.125,-5.9212e-16,0,0.66667
0.66304,0.12591,5.3044,-0.56114,-26.689,73.365,7.9373,-2.6458,-0.87973,10.583,2.0517e-12,-0.43986,0,0,0.125,-2.3685e-15,0,0.66667
0.52742,0.039493,4.2193,-0.69076,-42.487,134.7,7.7721,-2.5907,-0.3029,10.363,7.8515e-13,-0.15145,0,0,0.125,-0,-0,0.66667
0.056349,0.29911,0.4508,-0.30134,-25.485,427.4,0.36225,-0.12075,-1.6751,0.483,-1.9165e-08,-0.83755,0,0,0.125,7.4015e-17,0,0.66667
0.36316,0.039103,2.9053,-0.69135,-51.154,225.93,5.3562,-1.7854,-0.30009,7.1416,-2.5917e-12,-0.15004,0,0,0.125,-0,-0,0.66667
0.96773,0.87059,7.7418,0.55588,2.8662,2.1324,-11.476,3.8254,-0.90383,-15.301,-6.6962e-07,-0.45191,0,0,0.125,5.9212e-16,7.4741e-17,0.66667
0.69551,0.87182,5.5641,0.55772,24.425,61.088,-8.2753,2.7584,-0.8928,-11.034,-3.2054e-12,-0.4464,0,0,0.125,1.4803e-15,0,0.66667
0.36974,0.69169,2.9579,0.28754,21.039,221.46,-2.268,0.75601,-1.7052,-3.024,-1.027e-12,-0.8526,0,0,0.125,1.1842e-15,0,0.66667
0.67163,0.61842,5.373,0.17763,8.2225,69.351,-2.5451,0.84835,-1.891,-3.3934,-2.9925e-12,-0.94548,0,0,0.125,-1.1842e-15,0,0.66667
0.26511,0.76073,2.1209,0.3911,30.862,286.84,-2.2119,0.73731,-1.4586,-2.9492,1.5052e-11,-0.72928,0,0,0.125,-0,-0,0.66667
0.077478,0.81861,0.61982,0.47791,40.371,412.84,-0.78991,0.2633,-1.1906,-1.0532,-6.3015e-08,-0.59531,0,0,0.125,-0,-0,0.66667
0.52807,0.090709,4.2245,-0.61394,-37.662,134.18,6.9163,-2.3054,-0.66048,9.2217,1.4251e-12,-0.33024,0,0,0.125,-7.4015e-16,0,0.66667
0.28977,0.06578,2.3182,-0.65133,-50.82,271.32,4.0264,-1.3421,-0.49043,5.3685,-3.0775e-13,-0.24521,0,0,0.125,-0,-0,0.66667
0.48165,0.58499,3.8532,0.12748,8.2826,157.63,-1.3099,0.43664,-1.9425,-1.7465,1.9262e-12,-0.97123,0,0,0.125,-5.9212e-16,0,0.66667
0.90199,0.6359,7.216,0.20385,3.1324,7.5869,-3.9225,1.3075,-1.8512,-5.2301,1.6292e-08,-0.92559,0,0,0.125,-2.3685e-15,0,0.66667
0.65174,0.1193,5.2139,-0.57105,-27.891,77.888,7.9398,-2.6466,-0.83986,10.586,-7.8826e-13,-0.41993,0,0,0.125,-0,-0,0.66667
0.72332,0.28612,5.7866,-0.32082,-12.901,50.84,4.9505,-1.6502,-1.6334,6.6007,1.3508e-11,-0.81672,0,0,0.125,-0,-0,0.66667
0.10259,0.07752,0.82069,-0.63372,-53.403,395.64,1.3869,-0.4623,-0.56987,1.8492,-1.2102e-07,-0.28494,0,0,0.125,-1.4803e-16,0,0.66667
0.47966,0.16321,3.8373,-0.50519,-33.03,159.11,5.1695,-1.7232,-1.0916,6.8926,-1.4486e-12,-0.5458,0,0,0.125,1.1842e-15,0,0.66667
0.40434,0.72655,3.2347,0.33982,24.099,201.04,-2.9313,0.97709,-1.5905,-3.9084,-5.7376e-13,-0.79526,0,0,0.125,-0,-0,0.66667
0.64686,0.2863,5.1749,-0.32055,-15.755,79.352,4.4234,-1.4745,-1.6334,5.8979,3.9124e-13,-0.81668,0,0,0.125,-0,-0,0.66667
0.28774,0.79918,2.3019,0.44878,34.957,272.38,-2.7547,0.91825,-1.2818,-3.673,6.8157e-12,-0.6409,0,0,0.125,2.9606e-16,0,0.66667
0.38306,0.18867,3.0645,-0.46699,-33.835,213.69,3.8163,-1.2721,-1.2238,5.0883,-2.0939e-13,-0.61188,0,0,0.125,1.1842e-15,0,0.66667
0.98102,0.27259,7.8481,-0.34111,-0.93681,0.86549,7.1389,-2.3796,-1.586,9.5185,2.0754e-07,-0.79301,0,0,0.125,-1.1842e-15,0,0.66667
0.11481,0.20952,0.91848,-0.43572,-36.523,387.19,1.0672,-0.35573,-1.3234,1.4229,1.2301e-08,-0.66172,0,0,0.125,-0,-0,0.66667
0.19991,0.41875,1.5993,-0.12187,-9.9148,329.54,0.51974,-0.17325,-1.9468,0.69299,1.2789e-10,-0.97338,0,0,0.125,-0,-0,0.66667
0.23905,0.42839,1.9124,-0.10741,-8.5804,303.66,0.54775,-0.18258,-1.9578,0.73033,-5.8056e-12,-0.97891,0,0,0.125,-2.9606e-16,0,0.66667
0.69665,0.5648,5.5732,0.097198,4.2131,59.927,-1.4446,0.48152,-1.9655,-1.9261,-4.3007e-12,-0.98275,0,0,0.125,2.3685e-15,0,0.66667
0.71369,0.93119,5.7095,0.64679,26.984,54.927,-9.8476,3.2825,-0.51152,-13.13,-5.5245e-13,-0.25576,0,0,0.125,-1.1842e-15,0,0.66667
0.78475,0.092771,6.278,-0.61084,-19.904,32.839,10.226,-3.4088,-0.67409,13.635,6.1588e-10,-0.33705,0,0,0.125,-2.2204e-16,0,0.66667
0.38104,0.80416,3.0484,0.45624,33.112,214.87,-3.7087,1.2362,-1.2582,-4.9449,8.8929e-13,-0.62912,0,0,0.125,-0,-0,0.66667
0.8524,0.41338,6.8192,-0.12993,-2.9579,15.864,2.3627,-0.78758,-1.9382,3.1503,-2.5226e-09,-0.96912,0,0,0.125,-0,-0,0.66667
0.69735,0.60291,5.5788,0.15437,6.6809,59.712,-2.2966,0.76552,-1.9136,-3.0621,-4.7091e-12,-0.9568,0,0,0.125,-0,-0,0.66667
0.71326,0.81707,5.7061,0.47561,19.772,54.587,-7.2369,2.4123,-1.1947,-9.6492,-9.15e-12,-0.59737,0,0,0.125,-0,-0,0.66667
0.82199,0.10694,6.5759,-0.58959,-16.186,23.382,10.339,-3.4463,-0.762,13.785,8.5731e-10,-0.381,0,0,0.125,-1.1842e-15,0,0.66667
0.62892,0.28476,5.0314,-0.32287,-16.5,86.813,4.3319,-1.444,-1.6294,5.7759,-5.1648e-13,-0.81469,0,0,0.125,-0,-0,0.66667
0.42223,0.39104,3.3778,-0.16344,-11.369,190.59,1.4722,-0.49072,-1.9075,1.9629,-1.9885e-12,-0.95373,0,0,0.125,5.9212e-16,0,0.66667
0.030799,0.44358,0.24639,-0.084627,-7.1659,445.08,0.055603,-0.018534,-1.9775,0.074137,-1.6788e-07,-0.98875,0,0,0.125,-0,-0,0.66667
0.59546,0.31477,4.7636,-0.27785,-15.163,101.41,3.5296,-1.1765,-1.7276,4.7061,-6.8456e-13,-0.86382,0,0,0.125,-0,-0,0.66667
0.56376,0.1086,4.5101,-0.5871,-34.043,116.66,7.061,-2.3537,-0.77582,9.4147,-1.5228e-12,-0.38791,0,0,0.125,-0,-0,0.66667
0.60081,0.042332,4.8065,-0.6865,-37.37,99.841,8.7991,-2.933,-0.3222,11.732,1.4149e-12,-0.1611,0,0,0.125,-0,-0,0.66667
0.32285,0.21016,2.5828,-0.43476,-33.064,250.26,2.9945,-0.99815,-1.3265,3.9926,-2.2435e-12,-0.66326,0,0,0.125,-0,-0,0.66667
0.55488,0.28243,4.4391,-0.32636,-19.12,120.44,3.8633,-1.2878,-1.6205,5.151,2.025e-12,-0.81023,0,0,0.125,-2.3685e-15,0,0.66667
0.17166,0.64815,1.3733,0.22223,18.286,348.5,-0.81379,0.27126,-1.8274,-1.0851,-1.0505e-09,-0.91371,0,0,0.125,-0,-0,0.66667
0.64986,0.42536,5.1989,-0.11196,-5.4553,77.923,1.5522,-0.51739,-1.9534,2.0696,1.2652e-12,-0.97669,0,0,0.125,-1.1842e-15,0,0.66667
0.071673,0.80958,0.57339,0.46437,39.256,416.84,-0.71004,0.23668,-1.2323,-0.94672,-8.6491e-08,-0.61613,0,0,0.125,-1.4531e-16,0,0.66667
0.87508,0.94955,7.0006,0.67433,13.403,13.04,-12.589,4.1962,-0.3861,-16.785,4.9247e-08,-0.19305,0,0,0.125,-0,-0,0.66667
0.21614,0.28575,1.7291,-0.32137,-25.989,318.82,1.4818,-0.49394,-1.6337,1.9758,5.6529e-11,-0.81683,0,0,0.125,-0,-0,0.66667
0.29384,0.91009,2.3508,0.61514,47.842,268.69,-3.8561,1.2854,-0.65521,-5.1415,1.0811e-12,-0.32761,0,0,0.125,-0,-0,0.66667
0.88474,0.87537,7.0779,0.56306,10.295,11.025,-10.627,3.5425,-0.87239,-14.17,1.5719e-08,-0.43619,0,0,0.125,-0,-0,0.66667
0.88359,0.66685,7.0687,0.25028,4.5531,10.408,-4.7177,1.5726,-1.7752,-6.2903,1.1746e-08,-0.8876,0,0,0.125,2.3685e-15,0,0.66667
0.83627,0.8254,6.6901,0.4881,12.359,19.866,-8.7079,2.9026,-1.1507,-11.61,1.262e-09,-0.57534,0,0,0.125,1.1842e-15,0,0.66667
0.32694,0.67756,2.6155,0.26634,20.162,247.59,-1.8576,0.6192,-1.7495,-2.4768,1.5428e-12,-0.87473,0,0,0.125,-0,-0,0.66667
0.90234,0.30937,7.2188,-0.28594,-4.3904,7.6675,5.5043,-1.8348,-1.7094,7.3391,-2.164e-08,-0.85469,0,0,0.125,5.6321e-16,0,0.66667
0.7718,0.9036,6.1744,0.6054,20.764,36.437,-9.968,3.3227,-0.69596,-13.291,1.8842e-10,-0.34798,0,0,0.125,1.4803e-15,0,0.66667
0.65808,0.3206,5.2647,-0.2691,-12.882,74.757,3.778,-1.2593,-1.7437,5.0373,1.1406e-12,-0.87183,0,0,0.125,-0,-0,0.66667
0.8998,0.67711,7.1984,0.26566,4.1798,7.986,-5.0996,1.6999,-1.7471,-6.7995,1.8626e-08,-0.87355,0,0,0.125,-1.1842e-15,0,0.66667
0.78313,0.19468,6.2651,-0.45798,-14.945,32.828,7.6513,-2.5504,-1.2554,10.202,-8.8298e-11,-0.62772,0,0,0.125,-0,-0,0.66667
0.42475,0.25533,3.398,-0.367,-25.504,189.31,3.3255,-1.1085,-1.5216,4.434,-1.7559e-12,-0.76081,0,0,0.125,1.1842e-15,0,0.66667
0.32426,0.30159,2.594,-0.29762,-22.58,249.27,2.0588,-0.68625,-1.6842,2.745,-3.8991e-13,-0.84212,0,0,0.125,2.9606e-16,0,0.66667
0.39388,0.39443,3.151,-0.15835,-11.328,207.03,1.3306,-0.44353,-1.9104,1.7741,-1.6145e-12,-0.95521,0,0,0.125,-0,-0,0.66667
0.061412,0.24962,0.4913,-0.37557,-31.764,423.91,0.49205,-0.16402,-1.5016,0.65606,3.7485e-08,-0.75082,0,0,0.125,2.313e-17,0,0.66667
0.36343,0.10731,2.9074,-0.58904,-43.494,225.59,4.5669,-1.5223,-0.76527,6.0892,-3.4373e-13,-0.38264,0,0,0.125,-0,-0,0.66667
0.35304,0.7713,2.8243,0.40695,30.23,231.65,-3.065,1.0217,-1.4093,-4.0866,3.0109e-13,-0.70464,0,0,0.125,-0,-0,0.66667
0.86562,0.6549,6.925,0.23236,4.8482,13.464,-4.2908,1.4303,-1.8074,-5.7211,5.2179e-09,-0.90368,0,0,0.125,-1.4803e-16,0,0.66667
0.8887,0.57654,7.1096,0.11482,1.9942,9.446,-2.1768,0.7256,-1.9538,-2.9024,6.5344e-09,-0.9769,0,0,0.125,-1.1842e-15,0,0.66667
0.96305,0.81396,7.7044,0.47094,2.7484,2.0987,-9.6756,3.2252,-1.2109,-12.901,-2.7317e-08,-0.60545,0,0,0.125,-2.3685e-15,0,0.66667
0.3282,0.027373,2.6256,-0.70894,-53.936,247.31,4.9637,-1.6546,-0.21676,6.6183,-2.4416e-12,-0.10838,0,0,0.125,-0,-0,0.66667
0.69332,0.95508,5.5466,0.68263,30.182,62.267,-10.097,3.3655,-0.34124,-13.462,-1.509e-12,-0.17062,0,0,0.125,-0,-0,0.66667
0.63307,0.5994,5.0645,0.1491,7.5405,84.881,-2.0137,0.67122,-1.9194,-2.6849,-1.5552e-12,-0.95968,0,0,0.125,-0,-0,0.66667
0.24244,0.79486,1.9395,0.4423,35.356,301.6,-2.2876,0.76254,-1.3022,-3.0502,8.608e-12,-0.65108,0,0,0.125,-0,-0,0.66667
0.86999,0.89016,6.9599,0.58524,12.008,13.572,-10.862,3.6206,-0.78059,-14.482,1.0109e-08,-0.39029,0,0,0.125,1.1842e-15,0,0.66667
0.2141,0.29111,1.7128,-0.31333,-25.361,320.17,1.4311,-0.47705,-1.6497,1.9082,6.8405e-11,-0.82486,0,0,0.125,-0,-0,0.66667
0.74771,0.97281,5.9817,0.70922,26.641,43.993,-11.313,3.771,-0.21283,-15.084,7.7209e-12,-0.10641,0,0,0.125,-0,-6.6959e-17,0.66667
0.14466,0.96519,1.1573,0.69778,58.243,366.99,-2.1535,0.71782,-0.26875,-2.8713,-2.4832e-09,-0.13437,0,0,0.125,-7.4015e-17,0,0.66667
0.10682,0.12218,0.85456,-0.56673,-47.667,392.71,1.2915,-0.43049,-0.85923,1.722,-1.3539e-08,-0.42961,0,0,0.125,-0,1.204e-18,0.66667
0.72032,0.95738,5.7626,0.68608,28.103,52.795,-10.543,3.5143,-0.32754,-14.057,-1.0871e-12,-0.16377,0,0,0.125,-0,-0,0.66667
0.52632,0.94254,4.2105,0.66382,40.87,135.18,-7.4534,2.4845,-0.43243,-9.9379,1.1591e-12,-0.21621,0,0,0.125,-0,-0,0.66667
0.44292,0.27849,3.5433,-0.33226,-22.635,179.01,3.1395,-1.0465,-1.6068,4.186,1.2292e-12,-0.80341,0,0,0.125,-1.4803e-16,0,0.66667
0.77818,0.95955,6.2254,0.68933,23.139,34.935,-11.444,3.8146,-0.31039,-15.258,1.2762e-11,-0.1552,0,0,0.125,-1.1842e-15,0,0.66667
0.35874,0.71202,2.8699,0.31804,23.494,228.11,-2.434,0.81133,-1.643,-3.2453,-1.1042e-12,-0.82151,0,0,0.125,5.0848e-16,0,0.66667
0.85335,0.49528,6.8268,-0.007086,-0.16021,15.626,0.129,-0.043,-1.9986,0.172,1.4314e-09,-0.99931,0,0,0.125,1.7764e-15,0,0.66667
0.96217,0.57067,7.6974,0.10601,0.61084,1.4317,-2.176,0.72534,-1.9583,-2.9014,1.0703e-07,-0.97913,0,0,0.125,-0,-0,0.66667
0.97913,0.85427,7.833,0.53141,1.719,1.5151,-11.1,3.7,-0.99436,-14.8,-1.9153e-06,-0.49718,0,0,0.125,-0,-0,0.66667
0.27763,0.48881,2.221,-0.016783,-1.312,278.64,0.0994,-0.033133,-1.9983,0.13253,-4.6709e-12,-0.99916,0,0,0.125,-0,-0,0.66667
0.41501,0.88573,3.3201,0.5786,40.734,195.19,-5.1226,1.7075,-0.80761,-6.8302,8.1446e-13,-0.40381,0,0,0.125,-1.1842e-15,0,0.66667
0.72501,0.30149,5.8001,-0.29776,-11.907,50.236,4.6055,-1.5352,-1.6828,6.1406,1.2558e-11,-0.8414,0,0,0.125,1.1842e-15,0,0.66667
0.89487,0.35344,7.1589,-0.21984,-3.62,8.6264,4.1969,-1.399,-1.8272,5.5959,-1.4274e-08,-0.91359,0,0,0.125,2.3685e-15,0,0.66667
0.71131,0.15703,5.6905,-0.51445,-21.529,55.36,7.8066,-2.6022,-1.0582,10.409,2.0473e-12,-0.52911,0,0,0.125,-0,-0,0.66667
0.75813,0.89858,6.0651,0.59787,21.568,40.421,-9.6697,3.2232,-0.72721,-12.893,-4.2101e-11,-0.36361,0,0,0.125,1.1842e-15,0,0.66667
0.8834,0.36374,7.0672,-0.20439,-3.7197,10.373,3.8519,-1.284,-1.8493,5.1359,-8.4228e-09,-0.92466,0,0,0.125,-1.1842e-15,0,0.66667
0.36695,0.32603,2.9356,-0.26096,-19.136,223.11,2.0428,-0.68094,-1.7556,2.7238,-1.4511e-12,-0.8778,0,0,0.125,-5.9212e-16,0,0.66667
0.54254,0.69403,4.3404,0.29104,17.381,126.42,-3.3686,1.1229,-1.6981,-4.4914,9.2371e-14,-0.84907,0,0,0.125,-0,-0,0.66667
0.53477,0.56825,4.2782,0.10238,6.1794,130.13,-1.168,0.38933,-1.9627,-1.5573,-1.0947e-13,-0.98134,0,0,0.125,-0,-0,0.66667
0.64758,0.45064,5.1807,-0.074034,-3.6255,78.832,1.0228,-0.34093,-1.9783,1.3637,-2.2715e-13,-0.98916,0,0,0.125,1.1842e-15,0,0.66667
0.89518,0.59869,7.1615,0.14804,2.4264,8.4956,-2.8272,0.94239,-1.9215,-3.7695,1.5087e-09,-0.96074,0,0,0.125,-2.3685e-15,0,0.66667
0.60083,0.0087298,4.8066,-0.73691,-40.167,99.986,9.4454,-3.1485,-0.067302,12.594,-7.8426e-13,-0.033651,0,0,0.125,-0,-0,0.66667
0.96994,0.18092,7.7595,-0.47863,-2.2532,1.7414,9.9038,-3.3013,-1.1875,13.205,8.098e-07,-0.59374,0,0,0.125,-1.1842e-15,0,0.66667
0.73214,0.71999,5.8571,0.32998,12.91,47.928,-5.154,1.718,-1.6146,-6.872,-1.5532e-11,-0.80732,0,0,0.125,-0,-0,0.66667
0.41529,0.77649,3.3223,0.41473,29.119,194.78,-3.6743,1.2248,-1.3871,-4.8991,3.7703e-13,-0.69354,0,0,0.125,-6.4228e-16,0,0.66667
0.58114,0.78705,4.6491,0.43058,24.165,108.18,-5.3381,1.7794,-1.3411,-7.1175,2.558e-13,-0.67057,0,0,0.125,-1.1842e-15,0,0.66667
0.92232,0.76645,7.3786,0.39967,4.9258,5.4168,-7.864,2.6213,-1.4344,-10.485,5.5925e-08,-0.71719,0,0,0.125,-0,-0,0.66667
0.6185,0.055975,4.948,-0.66604,-35.011,92.021,8.7881,-2.9294,-0.42116,11.718,-9.992e-13,-0.21058,0,0,0.125,-0,-0,0.66667
0.70993,0.86622,5.6794,0.54933,23.102,55.936,-8.3197,2.7732,-0.92517,-11.093,-7.2991e-12,-0.46259,0,0,0.125,-5.9212e-16,0,0.66667
0.66129,0.83645,5.2903,0.50468,24.072,73.913,-7.1198,2.3733,-1.0932,-9.4931,-2.3239e-12,-0.54661,0,0,0.125,-0,-0,0.66667
0.33615,0.16339,2.6892,-0.50492,-38.057,242.11,3.6208,-1.2069,-1.0917,4.8278,-4.5224e-12,-0.54587,0,0,0.125,-0,-0,0.66667
0.20333,0.68331,1.6267,0.27496,22.355,327.3,-1.1927,0.39758,-1.7347,-1.5903,-2.0053e-10,-0.86736,0,0,0.125,7.4015e-17,0,0.66667
0.40781,0.60288,3.2625,0.15432,10.892,198.89,-1.3426,0.44752,-1.9166,-1.7901,1.3767e-12,-0.95832,0,0,0.125,-1.1842e-15,0,0.66667
0.15077,0.59032,1.2062,0.13548,11.221,362.6,-0.43575,0.14525,-1.9339,-0.581,-2.9658e-09,-0.96697,0,0,0.125,-2.5142e-16,0,0.66667
0.82633,0.26684,6.6107,-0.34973,-9.306,21.725,6.1653,-2.0551,-1.5659,8.2203,-1.0142e-09,-0.78295,0,0,0.125,-0,-0,0.66667
0.71046,0.78904,5.6837,0.43356,18.154,55.463,-6.5713,2.1904,-1.3298,-8.7617,-7.8488e-12,-0.66489,0,0,0.125,-0,-0,0.66667
0.40106,0.61814,3.2084,0.17722,12.592,202.84,-1.5162,0.50541,-1.8872,-2.0216,-1.0536e-12,-0.94358,0,0,0.125,2.3747e-16,0,0.66667
0.17138,0.049424,1.3711,-0.67586,-55.906,348.93,2.4711,-0.82369,-0.37816,3.2948,-4.4951e-09,-0.18908,0,0,0.125,2.9606e-16,1.4409e-16,0.66667
0.8758,0.63445,7.0064,0.20168,3.9003,11.629,-3.7681,1.256,-1.8575,-5.0241,6.7334e-09,-0.92877,0,0,0.125,-0,-0,0.66667
0.63906,0.89305,5.1125,0.58958,29.632,83.115,-8.038,2.6793,-0.76514,-10.717,-1.5898e-12,-0.38257,0,0,0.125,1.1842e-15,1.7085e-16,0.66667
0.9966,0.21687,7.9728,-0.4247,-0.077497,0.68554,9.0294,-3.0098,-1.3594,12.039,-9.1777e-07,-0.67969,0,0,0.125,1.3318e-15,0,0.66667
0.1011,0.98751,0.80878,0.73126,61.742,396.71,-1.5771,0.52572,-0.096486,-2.1029,-6.9677e-08,-0.048243,0,0,0.125,-2.9606e-16,0,0.66667
0.24485,0.66684,1.9588,0.25026,19.945,299.91,-1.3072,0.43573,-1.7758,-1.7429,6.8203e-12,-0.8879,0,0,0.125,-0,-0,0.66667
0.083655,0.23528,0.66924,-0.39709,-33.481,408.57,0.70865,-0.23622,-1.4375,0.94487,3.5002e-08,-0.71876,0,0,0.125,1.4803e-16,0,0.66667
0.74474,0.00090398,5.9579,-0.74864,-28.45,45.073,11.894,-3.9648,-0.0069933,15.859,6.585e-12,-0.0034966,0,0,0.125,4.737e-15,0,0.66667
0.15958,0.2859,1.2766,-0.32115,-26.554,356.68,1.0933,-0.36443,-1.6335,1.4577,2.1226e-09,-0.81677,0,0,0.125,-0,-0,0.66667
0.88166,0.70227,7.0533,0.30341,5.6173,10.813,-5.7067,1.9022,-1.6705,-7.609,1.1189e-08,-0.83525,0,0,0.125,-0,-0,0.66667
0.49148,0.99858,3.9318,0.74787,48.401,153.35,-7.8414,2.6138,-0.010473,-10.455,-4.8583e-13,-0.0052366,0,0,0.125,-1.4803e-16,0,0.66667
0.52617,0.41923,4.2094,-0.12116,-7.4075,134.46,1.36,-0.45333,-1.9462,1.8133,-1.2884e-12,-0.97309,0,0,0.125,-0,-0,0.66667
0.04252,0.78422,0.34016,0.42633,36.146,436.98,-0.38672,0.12891,-1.3536,-0.51563,-3.4453e-08,-0.6768,0,0,0.125,-0,-0,0.66667
0.61405,0.85366,4.9124,0.53049,28.045,93.593,-6.9493,2.3164,-0.99816,-9.2658,-1.3887e-12,-0.49908,0,0,0.125,-0,-0,0.66667
0.22761,0.71451,1.8209,0.32177,25.882,311.25,-1.5624,0.52081,-1.6306,-2.0832,-1.9065e-11,-0.81529,0,0,0.125,7.4015e-17,0,0.66667
0.2135,0.71716,1.708,0.32574,26.375,320.57,-1.4837,0.49456,-1.6224,-1.9782,-7.3052e-11,-0.81118,0,0,0.125,-3.3307e-16,0,0.66667
0.89532,0.2267,7.1625,-0.40995,-6.773,8.9411,7.8301,-2.61,-1.4014,10.44,-2.3841e-08,-0.70069,0,0,0.125,-0,-0,0.66667
0.88801,0.79504,7.1041,0.44257,7.8166,10.129,-8.3841,2.7947,-1.3036,-11.179,1.4853e-08,-0.65181,0,0,0.125,-0,-0,0.66667
0.0052652,0.64798,0.042121,0.22198,18.823,462.79,-0.024933,0.0083109,-1.8234,-0.033244,-1.7532e-07,-0.91172,0,0,0.125,-4.6259e-18,0,0.66667
0.8323,0.28814,6.6584,-0.31778,-8.1803,20.324,5.6425,-1.8808,-1.6403,7.5234,-1.4359e-09,-0.82014,0,0,0.125,-0,-0,0.66667
0.9023,0.90172,7.2184,0.60259,9.4323,8.5764,-11.599,3.8664,-0.70877,-15.466,4.56e-08,-0.35439,0,0,0.125,-0,-0,0.66667
0.51195,0.85414,4.0956,0.53122,33.295,142.2,-5.8017,1.9339,-0.996,-7.7356,4.4764e-13,-0.498,0,0,0.125,-0,-0,0.66667
0.65617,0.66839,5.2494,0.25258,12.143,75.499,-3.5357,1.1786,-1.7761,-4.7143,-3.9531e-12,-0.88803,0,0,0.125,1.1842e-15,0,0.66667
0.76779,0.41411,6.1423,-0.12883,-4.44,36.639,2.1102,-0.7034,-1.9418,2.8136,3.6804e-12,-0.97091,0,0,0.125,-0,-0,0.66667
0.68544,0.83276,5.4835,0.49915,22.42,64.638,-7.2989,2.433,-1.1148,-9.7319,-3.6637e-12,-0.5574,0,0,0.125,-0,-0,0.66667
0.45912,0.97478,3.6729,0.71217,47.921,170.67,-6.9754,2.3251,-0.19529,-9.3005,-3.4817e-13,-0.097643,0,0,0.125,-0,-0,0.66667
0.57345,0.11401,4.5876,-0.57899,-33.023,112.06,7.0831,-2.361,-0.80677,9.4442,-1.2266e-12,-0.40338,0,0,0.125,5.9212e-16,0,0.66667
0.57406,0.77051,4.5925,0.40576,23.047,111.43,-4.9692,1.6564,-1.4137,-6.6256,-3.8902e-13,-0.70683,0,0,0.125,5.9212e-16,0,0.66667
0.84213,0.47502,6.737,-0.037463,-0.90789,17.912,0.67303,-0.22434,-1.9966,0.89738,-9.2809e-10,-0.99829,0,0,0.125,-0,-0,0.66667
0.24044,0.97903,1.9235,0.71854,57.737,303.18,-3.6857,1.2286,-0.1624,-4.9143,-1.3372e-11,-0.0812,0,0,0.125,-5.9212e-16,0,0.66667
0.75723,0.56479,6.0578,0.097187,3.4822,39.756,-1.57,0.52333,-1.9654,-2.0933,-1.2079e-11,-0.98269,0,0,0.125,2.3685e-15,0,0.66667
0.81234,0.75023,6.4987,0.37534,10.729,25.072,-6.5046,2.1682,-1.5034,-8.6728,4.7512e-10,-0.75172,0,0,0.125,-0,-0,0.66667
0.79703,0.80607,6.3763,0.45911,14.122,29.118,-7.8064,2.6021,-1.2538,-10.409,1.3805e-11,-0.62692,0,0,0.125,5.9212e-16,0,0.66667
0.80771,0.26664,6.4617,-0.35005,-10.224,26.156,6.0317,-2.0106,-1.5628,8.0422,-3.3248e-10,-0.78141,0,0,0.125,-9.5652e-16,0,0.66667
0.82928,0.93794,6.6342,0.65691,17.417,21.971,-11.622,3.8739,-0.46876,-15.495,-8.292e-09,-0.23438,0,0,0.125,-0,-0,0.66667
0.41752,0.65419,3.3401,0.23129,16.174,193.33,-2.0601,0.68669,-1.8098,-2.7468,-1.5854e-13,-0.9049,0,0,0.125,-8.1416e-16,0,0.66667
0.61789,0.76972,4.9431,0.40459,21.176,91.671,-5.3331,1.7777,-1.4158,-7.1108,-1.9704e-12,-0.70792,0,0,0.125,-0,-0,0.66667
0.75525,0.51887,6.042,0.028308,1.0213,40.335,-0.45609,0.15203,-1.9955,-0.60813,-8.0561e-13,-0.99774,0,0,0.125,-0,-0,0.66667
0.76977,0.0099375,6.1581,-0.73509,-25.542,37.498,12.071,-4.0238,-0.077781,16.095,6.3632e-11,-0.038891,0,0,0.125,-0,-0,0.66667
0.9586,0.017567,7.6688,-0.72365,-4.9775,3.4076,14.799,-4.9329,-0.13626,19.732,-9.2109e-06,-0.068131,0,0,0.125,-2.2704e-15,0,0.66667
0.97508,0.037552,7.8006,-0.69367,-2.8555,2.3713,14.429,-4.8098,-0.28763,19.239,3.464e-05,-0.14381,0,0,0.125,-0,-0,0.66667
0.56473,0.92279,4.5179,0.63418,36.752,116.31,-7.6405,2.5468,-0.57034,-10.187,3.6238e-13,-0.28517,0,0,0.125,-0,-0,0.66667
0.46574,0.80396,3.7259,0.45595,30.3,166.55,-4.5302,1.5101,-1.2609,-6.0402,1.3545e-12,-0.63043,0,0,0.125,-5.9212e-16,0,0.66667
0.83553,0.050552,6.6842,-0.67417,-17.292,20.669,12.017,-4.0056,-0.38177,16.022,5.5715e-09,-0.19089,0,0,0.125,1.1842e-15,0,0.66667
0.21996,0.088681,1.7597,-0.61698,-49.985,316.51,2.8952,-0.96506,-0.64873,3.8602,-2.2254e-10,-0.32436,0,0,0.125,-0,-0,0.66667
0.7664,0.7811,6.1312,0.42165,14.679,37.484,-6.894,2.298,-1.3715,-9.1919,1.5448e-11,-0.68573,0,0,0.125,2.313e-16,0,0.66667
0.19201,0.95311,1.5361,0.67967,55.789,335.11,-2.7841,0.92803,-0.35615,-3.7121,1.0913e-10,-0.17807,0,0,0.125,-0,-0,0.66667
0.59163,0.43464,4.733,-0.098046,-5.3819,103,1.2375,-0.41249,-1.9674,1.65,-1.8939e-12,-0.98371,0,0,0.125,7.4015e-16,0,0.66667
0.60683,0.4064,4.8547,-0.1404,-7.49,96.196,1.8176,-0.60587,-1.9316,2.4235,-1.9255e-12,-0.96582,0,0,0.125,-0,-0,0.66667
0.44184,0.77908,3.5348,0.41861,28.58,179.71,-3.9459,1.3153,-1.3769,-5.2612,-3.4528e-13,-0.68846,0,0,0.125,-0,-0,0.66667
0.86455,0.66916,6.9164,0.25373,5.3372,13.692,-4.6798,1.5599,-1.7694,-6.2397,5.4658e-09,-0.88472,0,0,0.125,-0,-0,0.66667
0.54348,0.82878,4.3479,0.49316,29.49,126.27,-5.7179,1.906,-1.1346,-7.6239,1.3003e-12,-0.56731,0,0,0.125,-1.1842e-15,0,0.66667
0.49273,0.55387,3.9418,0.080802,5.1745,151.72,-0.84935,0.28312,-1.9748,-1.1325,2.6168e-13,-0.98742,0,0,0.125,5.9212e-16,0,0.66667
0.41813,0.22147,3.345,-0.41779,-29.25,193.16,3.7267,-1.2422,-1.3796,4.9689,1.4162e-12,-0.68982,0,0,0.125,-1.1842e-15,0,0.66667
0.062225,0.86446,0.4978,0.54669,46.321,423.38,-0.72571,0.2419,-0.94008,-0.96762,-1.3345e-07,-0.47004,0,0,0.125,-7.4015e-17,1.492e-16,0.66667
0.36215,0.97278,2.8972,0.70917,52.535,226.57,-5.4789,1.8263,-0.21264,-7.3053,2.303e-12,-0.10632,0,0,0.125,-0,-0,0.66667
0.092815,0.84327,0.74252,0.51491,43.401,402.3,-1.0195,0.33985,-1.0607,-1.3594,2.866e-09,-0.53033,0,0,0.125,-3.7007e-17,0,0.66667
0.56564,0.81434,4.5251,0.47151,27.196,115.52,-5.6897,1.8966,-1.2104,-7.5863,1.2701e-12,-0.6052,0,0,0.125,-0,-0,0.66667
0.6405,0.12523,5.124,-0.56215,-28.147,82.449,7.6813,-2.5604,-0.88078,10.242,1.2736e-12,-0.44039,0,0,0.125,-2.3685e-15,0,0.66667
0.76778,0.55578,6.1423,0.083668,2.8827,36.614,-1.3704,0.45681,-1.9761,-1.8272,2.0193e-11,-0.98804,0,0,0.125,5.9212e-16,0,0.66667
0.63254,0.38361,5.0603,-0.17458,-8.8408,85.123,2.3558,-0.78528,-1.8897,3.1411,3.1486e-13,-0.94484,0,0,0.125,-1.1842e-15,0,0.66667
0.18706,0.16559,1.4965,-0.50162,-41.145,338.28,2.0018,-0.66725,-1.108,2.669,3.1511e-11,-0.55398,0,0,0.125,-0,-0,0.66667
0.75024,0.28735,6.002,-0.31897,-11.746,42.14,5.1053,-1.7018,-1.6415,6.807,1.6035e-11,-0.82073,0,0,0.125,-0,-0,0.66667
0.54886,0.83253,4.3909,0.49879,29.579,123.65,-5.8404,1.9468,-1.1161,-7.7872,8.0158e-13,-0.55806,0,0,0.125,-5.9212e-16,0,0.66667
0.10217,0.51943,0.81736,0.029144,2.4441,395.78,-0.063524,0.021175,-1.9948,-0.084699,-8.7965e-09,-0.9974,0,0,0.125,-0,-0,0.66667
0.024827,0.7116,0.19862,0.3174,26.916,449.23,-0.16811,0.056036,-1.6402,-0.22414,2.7284e-07,-0.82009,0,0,0.125,3.7007e-17,0,0.66667
0.29875,0.048527,2.39,-0.67721,-52.558,265.67,4.316,-1.4387,-0.3701,5.7547,-1.0814e-12,-0.18505,0,0,0.125,5.9212e-16,0,0.66667
0.69002,0.60901,5.5201,0.16351,7.2187,62.398,-2.4069,0.8023,-1.905,-3.2092,-3.6331e-12,-0.95252,0,0,0.125,-1.1842e-15,0,0.66667
0.93279,0.52742,7.4623,0.041127,0.43199,3.7822,-0.81841,0.2728,-1.9935,-1.0912,-1.4684e-08,-0.99674,0,0,0.125,-1.1842e-15,0,0.66667
0.9665,0.089648,7.732,-0.61553,-3.3433,2.4394,12.691,-4.2304,-0.65416,16.922,5.5572e-07,-0.32708,0,0,0.125,1.7764e-15,0,0.66667
0.76455,0.44707,6.1164,-0.079398,-2.7691,37.561,1.295,-0.43167,-1.9794,1.7267,-9.0797e-12,-0.9897,0,0,0.125,-0,-0,0.66667
0.29325,0.24457,2.346,-0.38314,-29.718,268.82,2.3969,-0.79897,-1.478,3.1959,-7.6215e-12,-0.73899,0,0,0.125,-2.7045e-16,0,0.66667
0.62207,0.93099,4.9766,0.64648,33.722,90.43,-8.5793,2.8598,-0.51432,-11.439,-1.0303e-12,-0.25716,0,0,0.125,5.9212e-16,0,0.66667
0.2311,0.31647,1.8488,-0.2753,-22.099,308.93,1.3572,-0.45241,-1.7309,1.8096,9.9648e-12,-0.86546,0,0,0.125,5.9212e-16,0,0.66667
0.75069,0.24721,6.0055,-0.37919,-13.958,42.114,6.0726,-2.0242,-1.4919,8.0968,1.1551e-11,-0.74597,0,0,0.125,5.9212e-16,0,0.66667
0.16587,0.0021379,1.3269,-0.74679,-61.969,352.7,2.6425,-0.88084,-0.016312,3.5234,7.8978e-10,-0.0081559,0,0,0.125,-1.1842e-15,0,0.66667
0.75647,0.56323,6.0518,0.094842,3.4074,39.984,-1.5306,0.51019,-1.9674,-2.0407,-1.3215e-11,-0.98371,0,0,0.125,-0,-0,0.66667
0.86859,0.77441,6.9487,0.41161,8.4571,13.285,-7.6272,2.5424,-1.396,-10.17,7.2127e-09,-0.698,0,0,0.125,1.6985e-15,0,0.66667
0.51951,0.49522,4.1561,-0.0071758,-0.44288,137.81,0.079528,-0.026509,-1.9997,0.10604,4.0613e-13,-0.99983,0,0,0.125,-8.8818e-16,0,0.66667
0.065635,0.96551,0.52508,0.69826,59.274,421.07,-0.97771,0.32591,-0.26705,-1.3036,5.4876e-07,-0.13353,0,0,0.125,3.7007e-17,0,0.66667
0.44889,0.18768,3.5911,-0.46848,-31.755,175.85,4.4864,-1.4955,-1.2201,5.9818,6.1551e-13,-0.61005,0,0,0.125,-0,-0,0.66667
0.83783,0.79776,6.7026,0.44664,11.191,19.415,-7.9831,2.661,-1.2887,-10.644,1.1195e-09,-0.64436,0,0,0.125,-0,-0,0.66667
0.17975,0.31887,1.438,-0.27169,-22.298,343.06,1.0419,-0.34729,-1.7358,1.3892,7.4532e-10,-0.86792,0,0,0.125,-0,-0,0.66667
0.038559,0.64731,0.30847,0.22097,18.711,439.7,-0.18177,0.06059,-1.8244,-0.24236,9.0992e-08,-0.91221,0,0,0.125,-3.7007e-17,0,0.66667
0.73269,0.46514,5.8615,-0.052295,-2.0365,47.469,0.81741,-0.27247,-1.9922,1.0899,3.9627e-12,-0.99609,0,0,0.125,1.4803e-15,0,0.66667
0.56304,0.50767,4.5043,0.011504,0.66373,116.31,-0.13818,0.046059,-2.0022,-0.18424,-2.141e-12,-1.0011,0,0,0.125,-0,-0,0.66667
0.042061,0.4233,0.33649,-0.11506,-9.7352,437.27,0.10324,-0.034413,-1.9514,0.13765,7.1291e-08,-0.9757,0,0,0.125,-0,-0,0.66667
0.98489,0.79755,7.8791,0.44633,0.97447,1.024,-9.3777,3.1259,-1.294,-12.504,-2.0802e-07,-0.64698,0,0,0.125,-1.1842e-15,0,0.66667
0.56933,0.96942,4.5547,0.70413,40.561,114.33,-8.5522,2.8507,-0.23652,-11.403,-7.4785e-13,-0.11826,0,0,0.125,-0,-0,0.66667
0.58516,0.34209,4.6813,-0.23686,-13.167,106.06,2.9568,-0.9856,-1.7996,3.9424,-3.102e-13,-0.89982,0,0,0.125,-1.4803e-15,0,0.66667
0.78991,0.25661,6.3193,-0.36508,-11.553,30.778,6.1521,-2.0507,-1.5244,8.2028,-1.0668e-10,-0.76222,0,0,0.125,-0,-0,0.66667
0.90263,0.44197,7.2211,-0.087045,-1.3259,7.3895,1.6762,-0.55872,-1.9731,2.2349,-4.2415e-09,-0.98656,0,0,0.125,-2.3685e-15,0,0.66667
0.060751,0.48691,0.48601,-0.019642,-1.6585,424.33,0.025456,-0.0084856,-1.9995,0.033941,-3.6575e-07,-0.99975,0,0,0.125,7.4015e-17,0,0.66667
0.34851,0.42516,2.7881,-0.11226,-8.352,234.22,0.83465,-0.27822,-1.9538,1.1129,-6.1506e-13,-0.97688,0,0,0.125,-0,-0,0.66667
0.20009,0.85509,1.6007,0.53263,43.478,329.61,-2.2736,0.75787,-0.99107,-3.0315,-3.1477e-11,-0.49553,0,0,0.125,-0,-0,0.66667
0.46515,0.11181,3.7212,-0.58229,-38.803,167.09,5.7782,-1.9261,-0.79369,7.7043,-1.0507e-12,-0.39685,0,0,0.125,5.9212e-16,0,0.66667
0.091468,0.023298,0.73174,-0.71505,-60.469,403.31,1.3953,-0.4651,-0.18276,1.8604,-8.5517e-07,-0.091379,0,0,0.125,-0,1.1233e-16,0.66667
0.068086,0.34419,0.54469,-0.23372,-19.728,419.28,0.33948,-0.11316,-1.8055,0.45263,3.2646e-09,-0.90276,0,0,0.125,-0,-0,0.66667
0.30089,0.64732,2.4071,0.22098,17.032,263.88,-1.4185,0.47282,-1.8256,-1.8913,2.8647e-12,-0.91281,0,0,0.125,-2.9606e-16,0,0.66667
0.90435,0.165,7.2348,-0.50251,-7.6496,7.9432,9.6947,-3.2316,-1.1032,12.926,-2.3773e-08,-0.55159,0,0,0.125,-0,-0,0.66667
0.97554,0.09895,7.8043,-0.60157,-2.3552,1.9375,12.52,-4.1732,-0.71181,16.693,6.9425e-06,-0.35591,0,0,0.125,-0,-0,0.66667
0.76372,0.42414,6.1098,-0.11379,-3.9816,37.823,1.8539,-0.61798,-1.9547,2.4719,-2.389e-12,-0.97734,0,0,0.125,-0,-0,0.66667
0.00074091,0.7009,0.0059273,0.30134,25.567,465.93,-0.004763,0.0015874,-1.6791,-0.0063508,-4.2307e-07,-0.83956,0,0,0.125,-1.1565e-18,0,0.66667
0.73522,0.5078,5.8817,0.011694,0.45167,46.639,-0.18342,0.061139,-2.0018,-0.24456,1.4667e-12,-1.0009,0,0,0.125,-0,-0,0.66667
0.021993,0.48901,0.17594,-0.016483,-1.3963,451.18,0.0077332,-0.0025789,-1.9971,0.01031,-1.6618e-06,-0.99853,0,0,0.125,-2.6044e-17,0,0.66667
0.16857,0.88915,1.3485,0.58373,48.262,350.75,-2.0991,0.69971,-0.78792,-2.7988,-1.957e-09,-0.39396,0,0,0.125,-0,-0,0.66667
0.010514,0.5907,0.084112,0.13605,11.532,459.15,-0.030516,0.010172,-1.9336,-0.040688,2.2392e-08,-0.96681,0,0,0.125,1.2365e-17,0,0.66667
0.14913,0.66125,1.193,0.24188,20.055,363.74,-0.76951,0.2565,-1.7905,-1.026,-3.4269e-09,-0.89525,0,0,0.125,-0,-0,0.66667
0.68751,0.849,5.5,0.52349,23.4,63.932,-7.678,2.5593,-1.0293,-10.237,-3.4639e-12,-0.51463,0,0,0.125,-2.3685e-15,0,0.66667
0.70202,0.66322,5.6161,0.24483,10.468,58.122,-3.6666,1.2222,-1.7889,-4.8888,-7.8373e-12,-0.89447,0,0,0.125,-0,-0,0.66667
0.37108,0.62406,2.9686,0.18608,13.591,220.59,-1.4731,0.49103,-1.8774,-1.9641,1.1788e-12,-0.93869,0,0,0.125,-7.4015e-17,0,0.66667
0.73119,0.38961,5.8495,-0.16559,-6.4839,48.026,2.583,-0.86101,-1.902,3.444,8.83e-12,-0.95102,0,0,0.125,1.1842e-15,0,0.66667
0.8473,0.93495,6.7784,0.65242,15.612,18.12,-11.793,3.931,-0.487,-15.724,2.6252e-08,-0.2435,0,0,0.125,-0,-0,0.66667
0.13036,0.34722,1.0429,-0.22917,-19.102,376.5,0.63731,-0.21244,-1.8125,0.84975,6.4942e-09,-0.90625,0,0,0.125,2.9606e-16,0,0.66667
0.087407,0.31784,0.69926,-0.27324,-23,405.96,0.50951,-0.16984,-1.7332,0.67934,2.2866e-08,-0.86658,0,0,0.125,-2.9606e-16,0,0.66667
0.37192,0.38719,2.9754,-0.16922,-12.349,220.08,1.3427,-0.44755,-1.8979,1.7902,-2.8821e-12,-0.94894,0,0,0.125,-0,-0,0.66667
0.40388,0.36851,3.2311,-0.19723,-13.978,201.2,1.6994,-0.56647,-1.8625,2.2659,-7.8781e-13,-0.93125,0,0,0.125,-2.9606e-16,0,0.66667
0.2764,0.26887,2.2112,-0.3467,-27.166,279.54,2.0444,-0.68145,-1.5711,2.7258,-1.518e-11,-0.78557,0,0,0.125,-2.9606e-16,0,0.66667
0.75417,0.94955,6.0333,0.67432,24.739,41.88,-10.849,3.6164,-0.38216,-14.466,8.3187e-12,-0.19108,0,0,0.125,-0,-0,0.66667
0.32179,0.38059,2.5743,-0.17911,-13.603,250.74,1.2295,-0.40985,-1.8845,1.6394,-1.7575e-12,-0.94226,0,0,0.125,-0,-0,0.66667
0.80014,0.32556,6.4012,-0.26167,-7.8992,27.91,4.4666,-1.4889,-1.7561,5.9554,-2.2214e-10,-0.87803,0,0,0.125,1.1842e-15,0,0.66667
0.91131,0.010434,7.2905,-0.73435,-10.605,7.9637,14.277,-4.7589,-0.081129,19.036,2.1164e-07,-0.040564,0,0,0.125,-4.737e-15,0,0.66667
0.51315,0.34174,4.1052,-0.23739,-14.799,141.17,2.5988,-0.86626,-1.801,3.4651,7.2653e-13,-0.90052,0,0,0.125,-7.4015e-16,0,0.66667
0.42942,0.85161,3.4354,0.52741,36.551,186.87,-4.8316,1.6105,-1.0091,-6.4422,4.1744e-13,-0.50455,0,0,0.125,-0,-0,0.66667
0.091595,0.89346,0.73276,0.59018,49.809,403.17,-1.1532,0.38441,-0.76202,-1.5376,1.4429e-08,-0.38101,0,0,0.125,-0,1.6798e-16,0.66667
0.27368,0.57463,2.1894,0.11194,8.7731,281.19,-0.65357,0.21786,-1.9532,-0.87143,4.8824e-12,-0.97661,0,0,0.125,-0,-0,0.66667
0.88665,0.22596,7.0932,-0.41106,-7.3337,10.257,7.7753,-2.5918,-1.3987,10.367,-1.3395e-08,-0.69933,0,0,0.125,2.3685e-15,0,0.66667
0.24594,0.84764,1.9676,0.52147,41.65,299.38,-2.736,0.91201,-1.033,-3.648,5.3644e-11,-0.51651,0,0,0.125,-0,-0,0.66667
0.62119,0.40113,4.9695,-0.14831,-7.6889,89.933,1.9654,-0.65512,-1.9216,2.6205,-2.9465e-13,-0.96082,0,0,0.125,-0,-0,0.66667
0.49501,0.13347,3.9601,-0.5498,-35.272,151.04,5.8059,-1.9353,-0.92397,7.7413,1.6342e-12,-0.46198,0,0,0.125,-0,-0,0.66667
0.094373,0.39387,0.75498,-0.15919,-13.375,401.15,0.3205,-0.10683,-1.9121,0.42733,1.3819e-08,-0.95604,0,0,0.125,1.4803e-16,0,0.66667
0.89937,0.2333,7.1949,-0.40005,-6.358,8.3335,7.6756,-2.5585,-1.4287,10.234,-2.5812e-08,-0.71437,0,0,0.125,-0,-0,0.66667
0.067771,0.42028,0.54217,-0.11958,-10.089,419.49,0.17288,-0.057628,-1.9474,0.23051,1.1419e-08,-0.97371,0,0,0.125,-0,-0,0.66667
0.6807,0.99542,5.4456,0.74312,34.022,67.146,-10.791,3.5971,-0.035145,-14.388,3.5794e-13,-0.017572,0,0,0.125,-0,-0,0.66667
0.972,0.03792,7.776,-0.69312,-3.207,2.5079,14.373,-4.7908,-0.29191,19.163,3.0297e-05,-0.14595,0,0,0.125,-0,-0,0.66667
0.70937,0.60707,5.675,0.16061,6.7191,55.433,-2.4305,0.81017,-1.9062,-3.2407,-7.0328e-12,-0.95311,0,0,0.125,-0,-0,0.66667
0.32591,0.44267,2.6073,-0.085998,-6.5095,248.15,0.59792,-0.19931,-1.9748,0.79723,4.6835e-13,-0.98742,0,0,0.125,-0,-0,0.66667
0.07344,0.089115,0.58752,-0.61633,-52.193,415.67,0.96562,-0.32187,-0.64876,1.2875,2.5422e-07,-0.32438,0,0,0.125,-7.4015e-17,0,0.66667
0.57974,0.45462,4.6379,-0.068069,-3.8169,108.45,0.84185,-0.28062,-1.9845,1.1225,-1.046e-12,-0.99226,0,0,0.125,-0,-0,0.66667
0.73352,0.54604,5.8681,0.069061,2.6824,47.205,-1.0807,0.36023,-1.9849,-1.4409,-5.1592e-12,-0.99243,0,0,0.125,1.1842e-15,0,0.66667
0.35885,0.30163,2.8708,-0.29756,-21.976,228.03,2.2779,-0.75931,-1.6876,3.0373,-2.8579e-12,-0.84378,0,0,0.125,-0,-0,0.66667
0.65375,0.45072,5.23,-0.073922,-3.5693,76.334,1.031,-0.34365,-1.9807,1.3746,4.3232e-13,-0.99036,0,0,0.125,-0,-0,0.66667
0.56659,0.28236,4.5327,-0.32645,-18.76,114.83,3.9459,-1.3153,-1.6214,5.2613,-2.1325e-12,-0.81071,0,0,0.125,2.3685e-15,0,0.66667
0.034106,0.81002,0.27285,0.46503,39.469,442.81,-0.33836,0.11279,-1.2321,-0.45114,2.6213e-07,-0.61605,0,0,0.125,-8.3267e-17,0,0.66667
0.92069,0.71045,7.3656,0.31568,3.9517,5.4051,-6.2004,2.0668,-1.6475,-8.2672,3.2896e-08,-0.82375,0,0,0.125,1.1842e-15,0,0.66667
0.38001,0.39284,3.04,-0.16074,-11.647,215.24,1.3031,-0.43437,-1.9065,1.7375,7.2242e-13,-0.95327,0,0,0.125,-5.9212e-16,0,0.66667
0.3794,0.47358,3.0352,-0.039633,-2.8721,215.57,0.32078,-0.10693,-1.9939,0.42771,-1.2604e-13,-0.99696,0,0,0.125,-0,-0,0.66667
0.84636,0.95139,6.7708,0.67708,16.317,18.411,-12.225,4.0751,-0.37001,-16.3,1.3672e-08,-0.185,0,0,0.125,-1.1842e-15,0,0.66667
0.48428,0.74198,3.8742,0.36298,23.548,156.43,-3.75,1.25,-1.5347,-5,7.7049e-14,-0.76737,0,0,0.125,5.9212e-16,0,0.66667
0.45107,0.58382,3.6086,0.12573,8.4751,174.31,-1.2099,0.40331,-1.9445,-1.6132,-1.3139e-12,-0.97227,0,0,0.125,-0,-0,0.66667
0.63986,0.077903,5.1189,-0.63315,-31.802,82.908,8.6426,-2.8809,-0.5766,11.523,-1.2195e-12,-0.2883,0,0,0.125,1.1842e-15,0,0.66667
0.21177,0.37721,1.6942,-0.18419,-14.912,321.66,0.83213,-0.27738,-1.8784,1.1095,5.7057e-11,-0.93919,0,0,0.125,-0,-0,0.66667
0.5283,0.65954,4.2264,0.2393,14.596,133.46,-2.697,0.89901,-1.7972,-3.5961,-1.1844e-12,-0.89858,0,0,0.125,1.1842e-15,0,0.66667
0.66857,0.73875,5.3485,0.35812,16.739,70.765,-5.1078,1.7026,-1.5436,-6.8104,-3.5585e-12,-0.77178,0,0,0.125,-0,-0,0.66667
0.53878,0.53461,4.3102,0.051909,3.1136,128.13,-0.59664,0.19888,-1.9892,-0.79552,-2.2282e-13,-0.99459,0,0,0.125,-0,-0,0.66667
0.70876,0.51033,5.6701,0.015493,0.64889,55.584,-0.23425,0.078084,-1.9974,-0.31234,-2.2551e-12,-0.99872,0,0,0.125,2.3685e-15,0,0.66667
0.59854,0.27236,4.7883,-0.34145,-18.541,100.1,4.3599,-1.4533,-1.5843,5.8132,-3.0242e-13,-0.79213,0,0,0.125,-0,-0,0.66667
0.84141,0.97782,6.7312,0.71673,17.825,19.597,-12.865,4.2884,-0.17404,-17.154,-6.3622e-10,-0.087022,0,0,0.125,-0,-0,0.66667
0.87917,0.69178,7.0334,0.28767,5.4306,11.193,-5.3954,1.7985,-1.7055,-7.1938,1.0005e-08,-0.85275,0,0,0.125,-0,-0,0.66667
0.097839,0.91423,0.78271,0.62134,52.4,398.89,-1.2969,0.4323,-0.62661,-1.7292,4.1501e-09,-0.3133,0,0,0.125,-0,-0,0.66667
0.25859,0.81313,2.0688,0.46969,37.233,291.12,-2.5911,0.86371,-1.2149,-3.4548,2.8981e-11,-0.60747,0,0,0.125,-0,-0,0.66667
0.054656,0.72675,0.43725,0.34013,28.78,428.57,-0.39659,0.1322,-1.5868,-0.52878,1.3883e-08,-0.79339,0,0,0.125,-0,-0,0.66667
0.22889,0.72613,1.8311,0.3392,27.271,310.42,-1.6563,0.5521,-1.5895,-2.2084,-1.0409e-11,-0.79477,0,0,0.125,-0,-0,0.66667
0.72092,0.92251,5.7673,0.63376,25.868,52.417,-9.747,3.249,-0.57232,-12.996,-7.1338e-12,-0.28616,0,0,0.125,-0,-0,0.66667
0.078545,0.26805,0.62836,-0.34793,-29.348,412.08,0.583,-0.19433,-1.572,0.77734,4.0938e-08,-0.78599,0,0,0.125,1.4803e-16,0,0.66667
0.15512,0.29818,1.241,-0.30273,-25.064,359.69,1.0018,-0.33394,-1.6757,1.3358,2.542e-09,-0.83783,0,0,0.125,2.9606e-16,0,0.66667
0.77077,0.53238,6.1661,0.04857,1.6542,35.736,-0.79864,0.26621,-1.9914,-1.0649,-1.952e-11,-0.99569,0,0,0.125,-2.3685e-15,0,0.66667
0.44433,0.61235,3.5546,0.16852,11.448,178.09,-1.5974,0.53247,-1.8969,-2.1299,-1.0029e-12,-0.94843,0,0,0.125,5.9212e-16,0,0.66667
0.29012,0.25853,2.321,-0.36221,-28.145,270.79,2.2418,-0.74726,-1.5317,2.9891,-8.928e-12,-0.76584,0,0,0.125,-0,-0,0.66667
0.64398,0.052056,5.1519,-0.67192,-33.481,81.326,9.231,-3.077,-0.39434,12.308,-1.4655e-13,-0.19717,0,0,0.125,5.9212e-16,0,0.66667
0.88694,0.78263,7.0955,0.42394,7.5496,10.246,-8.0216,2.6739,-1.3615,-10.695,1.3656e-08,-0.68077,0,0,0.125,-2.3685e-15,0,0.66667
0.037605,0.21276,0.30084,-0.43086,-36.546,440.38,0.34566,-0.11522,-1.3385,0.46088,-7.6743e-08,-0.66923,0,0,0.125,1.8504e-17,0,0.66667
0.69309,0.34974,5.5448,-0.22539,-9.8744,61.326,3.3326,-1.1109,-1.8181,4.4435,4.684e-12,-0.90907,0,0,0.125,-0,-0,0.66667
0.66855,0.79927,5.3484,0.4489,21.017,70.946,-6.4024,2.1341,-1.283,-8.5366,-2.025e-12,-0.64148,0,0,0.125,-1.1842e-15,0,0.66667
0.86801,0.95452,6.9441,0.68178,14.275,14.3,-12.625,4.2083,-0.34507,-16.833,-7.1054e-09,-0.17253,0,0,0.125,1.5631e-16,0,0.66667
0.19637,0.81264,1.571,0.46895,38.308,332.04,-1.9646,0.65486,-1.2175,-2.6194,7.6777e-11,-0.60877,0,0,0.125,-0,-0,0.66667
0.71279,0.15627,5.7023,-0.5156,-21.485,54.85,7.8404,-2.6135,-1.0545,10.454,3.2396e-12,-0.52723,0,0,0.125,-0,-0,0.66667
0.1039,0.056099,0.83121,-0.66585,-56.124,394.76,1.4759,-0.49197,-0.42237,1.9679,-1.5754e-07,-0.21119,0,0,0.125,7.4015e-17,0,0.66667
0.056626,0.54676,0.45301,0.070139,5.9254,427.19,-0.08473,0.028243,-1.9805,-0.11297,-9.5184e-08,-0.99026,0,0,0.125,-0,-0,0.66667
0.6808,0.40741,5.4464,-0.13889,-6.2805,65.821,2.0172,-0.67239,-1.9307,2.6896,1.7426e-12,-0.96534,0,0,0.125,-0,-0,0.66667
0.022635,0.96403,0.18108,0.69604,59.309,450.78,-0.3361,0.11205,-0.27601,-0.44812,3.1657e-05,-0.138,0,0,0.125,-0,-0,0.66667
0.044299,0.56065,0.35439,0.090972,7.6955,435.72,-0.085973,0.028658,-1.9719,-0.11463,-1.9322e-07,-0.98597,0,0,0.125,9.2519e-17,0,0.66667
0.036953,0.65012,0.29562,0.22519,19.07,440.82,-0.17752,0.059174,-1.8184,-0.23669,9.9639e-08,-0.9092,0,0,0.125,3.7007e-17,0,0.66667
0.46541,0.98725,3.7233,0.73087,48.837,167.27,-7.2567,2.4189,-0.10017,-9.6755,-1.1373e-12,-0.050087,0,0,0.125,-0,-0,0.66667
0.75787,0.97817,6.063,0.71726,26.016,40.923,-11.597,3.8655,-0.16875,-15.462,2.3993e-11,-0.084377,0,0,0.125,-2.3685e-15,0,0.66667
0.9922,0.35965,7.9376,-0.21052,-0.16604,0.28619,4.4561,-1.4854,-1.8401,5.9414,-1.3828e-07,-0.92006,0,0,0.125,-1.1842e-15,0,0.66667
0.22661,0.051699,1.8129,-0.67245,-54.359,312.19,3.2508,-1.0836,-0.39007,4.3344,-6.9905e-11,-0.19503,0,0,0.125,-2.9606e-16,0,0.66667
0.79238,0.9928,6.339,0.73919,23.461,31.283,-12.495,4.1651,-0.056346,-16.661,1.4094e-11,-0.028173,0,0,0.125,5.9212e-16,1.129e-16,0.66667
0.79525,0.63474,6.362,0.20211,6.2302,29.103,-3.4288,1.1429,-1.856,-4.5718,1.6354e-10,-0.92798,0,0,0.125,-0,-0,0.66667
0.87224,0.73008,6.9779,0.34512,6.8856,12.485,-6.4219,2.1406,-1.5765,-8.5626,8.3344e-09,-0.78825,0,0,0.125,-0,-0,0.66667
0.31426,0.1988,2.514,-0.4518,-34.578,255.64,3.0289,-1.0096,-1.2752,4.0386,-3.8249e-12,-0.63759,0,0,0.125,-0,-0,0.66667
0.13293,0.97676,1.0634,0.71514,59.909,374.97,-2.0279,0.67598,-0.17971,-2.7039,-1.8553e-08,-0.089855,0,0,0.125,-0,-0,0.66667
0.7967,0.4663,6.3736,-0.050555,-1.5464,28.614,0.85925,-0.28642,-1.9948,1.1457,1.9857e-11,-0.9974,0,0,0.125,-2.9606e-16,0,0.66667
0.56746,0.72882,4.5397,0.34323,19.699,114.44,-4.1551,1.385,-1.5797,-5.5401,1.3634e-13,-0.78987,0,0,0.125,-0,-0,0.66667
0.41465,0.95374,3.3172,0.68061,48.023,195.58,-6.0207,2.0069,-0.35067,-8.0276,1.6822e-12,-0.17533,0,0,0.125,5.9212e-16,0,0.66667
0.058642,0.28368,0.46913,-0.32448,-27.44,425.81,0.40593,-0.13531,-1.6259,0.54124,5.3722e-11,-0.81295,0,0,0.125,-1.4803e-16,0,0.66667
0.0065569,0.5739,0.052455,0.11085,9.3952,461.89,-0.015505,0.0051686,-1.9543,-0.020674,2.0792e-07,-0.97713,0,0,0.125,-0,-0,0.66667
0.31602,0.75669,2.5282,0.38504,29.41,254.47,-2.5959,0.86528,-1.4727,-3.4611,1.5479e-12,-0.73635,0,0,0.125,-0,-0,0.66667
0.27146,0.081049,2.1717,-0.62843,-49.565,282.98,3.6393,-1.2131,-0.59393,4.8524,-8.4721e-12,-0.29696,0,0,0.125,-0,-0,0.66667
0.47572,0.10702,3.8058,-0.58947,-38.786,161.38,5.9824,-1.9941,-0.76232,7.9765,-2.8422e-13,-0.38116,0,0,0.125,-0,-0,0.66667
0.92361,0.70004,7.3889,0.30007,3.6155,5.0434,-5.9124,1.9708,-1.6808,-7.8832,3.2887e-08,-0.84038,0,0,0.125,-0,-0,0.66667
0.41668,0.22976,3.3335,-0.40536,-28.418,193.97,3.6034,-1.2011,-1.4142,4.8045,-3.5305e-13,-0.70709,0,0,0.125,-0,-0,0.66667
0.28788,0.10823,2.3031,-0.58766,-45.859,272.44,3.6091,-1.203,-0.76993,4.8122,-5.9899e-12,-0.38497,0,0,0.125,-0,-0,0.66667
0.84525,0.91623,6.762,0.62435,15.102,18.431,-11.258,3.7527,-0.61533,-15.011,-2.4572e-09,-0.30766,0,0,0.125,-0,-0,0.66667
0.30695,0.78329,2.4556,0.42494,32.677,260.2,-2.7826,0.92754,-1.3574,-3.7102,6.2703e-12,-0.67869,0,0,0.125,-0,-0,0.66667
0.91558,0.72742,7.3247,0.34113,4.5494,6.0634,-6.6631,2.221,-1.5845,-8.8841,3.1948e-08,-0.79224,0,0,0.125,-0,-0,0.66667
0.86341,0.41234,6.9073,-0.13149,-2.7815,13.757,2.422,-0.80734,-1.9381,3.2293,-2.0392e-09,-0.96904,0,0,0.125,-0,-0,0.66667
0.63882,0.45407,5.1106,-0.068897,-3.4401,82.437,0.93894,-0.31298,-1.9839,1.2519,3.3601e-13,-0.99195,0,0,0.125,-1.1842e-15,0,0.66667
0.74768,0.11919,5.9814,-0.57122,-21.355,43.535,9.1112,-3.0371,-0.84079,12.148,-7.9217e-12,-0.4204,0,0,0.125,5.9212e-16,0,0.66667
0.15732,0.51803,1.2586,0.02704,2.2346,358.15,-0.090752,0.030251,-1.999,-0.121,-3.8649e-10,-0.99951,0,0,0.125,5.9212e-16,0,0.66667
0.60287,0.40279,4.823,-0.14582,-7.8387,97.957,1.8754,-0.62513,-1.9233,2.5005,-2.1873e-12,-0.96164,0,0,0.125,7.7061e-16,0,0.66667
0.32704,0.77317,2.6163,0.40975,31.058,247.64,-2.8587,0.95292,-1.405,-3.8117,2.1787e-12,-0.70249,0,0,0.125,-0,-0,0.66667
0.48868,0.32935,3.9094,-0.25597,-16.495,153.97,2.6685,-0.88951,-1.7658,3.558,5.9508e-14,-0.8829,0,0,0.125,5.9212e-16,0,0.66667
0.22539,0.050825,1.8031,-0.67376,-54.498,313,3.2396,-1.0799,-0.38385,4.3195,-6.0154e-11,-0.19193,0,0,0.125,-2.9606e-16,0,0.66667
0.90196,0.60304,7.2157,0.15455,2.373,7.5353,-2.9739,0.99129,-1.9141,-3.9652,8.603e-09,-0.95705,0,0,0.125,2.3685e-15,0,0.66667
0.41153,0.42271,3.2923,-0.11593,-8.1512,196.72,1.0178,-0.33926,-1.9505,1.357,-6.0729e-13,-0.97523,0,0,0.125,5.9212e-16,0,0.66667
0.47673,0.70617,3.8139,0.30926,20.243,160.41,-3.1453,1.0484,-1.6577,-4.1937,1.2879e-12,-0.82885,0,0,0.125,-5.9212e-16,0,0.66667
0.7214,0.15836,5.7712,-0.51246,-20.813,51.896,7.8867,-2.6289,-1.0675,10.516,1.9106e-11,-0.53375,0,0,0.125,-0,-0,0.66667
0.1222,0.17644,0.97757,-0.48533,-40.632,382.16,1.2652,-0.42173,-1.1625,1.6869,5.0008e-09,-0.58124,0,0,0.125,1.4803e-16,0,0.66667
0.50307,0.68793,4.0245,0.28189,17.826,146.43,-3.0253,1.0084,-1.7187,-4.0337,-2.0992e-12,-0.85935,0,0,0.125,-0,-0,0.66667
0.81315,0.36156,6.5052,-0.20766,-5.8915,24.592,3.6022,-1.2007,-1.8488,4.803,-4.475e-10,-0.92439,0,0,0.125,-0,-0,0.66667
0.67734,0.69818,5.4187,0.29728,13.583,67.297,-4.2956,1.4319,-1.6841,-5.7275,-4.412e-12,-0.84206,0,0,0.125,-0,-0,0.66667
0.32165,0.80098,2.5732,0.45147,34.371,251.02,-3.0979,1.0326,-1.2733,-4.1305,2.0879e-12,-0.63663,0,0,0.125,-0,-0,0.66667
0.71067,0.039029,5.6853,-0.69146,-29.144,56.125,10.483,-3.4944,-0.29818,13.977,-4.4587e-13,-0.14909,0,0,0.125,-0,-0,0.66667
0.93444,0.58484,7.4755,0.12727,1.3052,3.6669,-2.537,0.84567,-1.9423,-3.3827,1.4821e-09,-0.97117,0,0,0.125,-0,-0,0.66667
0.89478,0.50953,7.1582,0.014295,0.23486,8.4865,-0.27287,0.090955,-1.9984,-0.36382,3.8339e-08,-0.99919,0,0,0.125,-0,-0,0.66667
0.74223,0.14996,5.9379,-0.52505,-19.965,45.11,8.3139,-2.7713,-1.0181,11.085,1.6289e-12,-0.50905,0,0,0.125,-5.9212e-16,0,0.66667
0.2661,0.93073,2.1288,0.64609,51.132,286.45,-3.6677,1.2226,-0.51862,-4.8903,1.6578e-12,-0.25931,0,0,0.125,-2.9606e-16,0,0.66667
0.37249,0.86234,2.9799,0.54351,39.794,220.09,-4.319,1.4397,-0.94981,-5.7586,2.2786e-12,-0.47491,0,0,0.125,-4.4111e-16,0,0.66667
0.55842,0.31668,4.4673,-0.27499,-16.009,118.68,3.2759,-1.092,-1.7309,4.3678,4.6674e-13,-0.86547,0,0,0.125,-0,-0,0.66667
0.38105,0.070133,3.0484,-0.6448,-46.936,215.15,5.2416,-1.7472,-0.52012,6.9888,-1.4255e-12,-0.26006,0,0,0.125,1.1842e-15,0,0.66667
0.45575,0.84494,3.646,0.51742,34.824,172.13,-5.0306,1.6769,-1.0496,-6.7075,2.0943e-12,-0.52478,0,0,0.125,-0,-0,0.66667
0.79353,0.18086,6.3482,-0.47872,-14.962,30.087,8.104,-2.7013,-1.1851,10.805,-4.3284e-11,-0.59257,0,0,0.125,1.1842e-15,0,0.66667
0.10394,0.71371,0.83152,0.32057,26.907,394.6,-0.71082,0.23694,-1.6336,-0.94776,-2.0112e-08,-0.81679,0,0,0.125,1.4803e-16,0,0.66667
0.973,0.92263,7.784,0.63395,2.7765,2.1896,-13.159,4.3863,-0.56985,-17.545,-9.1773e-06,-0.28493,0,0,0.125,-0,-0,0.66667
0.70462,0.8528,5.637,0.52921,22.583,57.747,-7.955,2.6517,-1.0056,-10.607,-2.6841e-12,-0.50282,0,0,0.125,-0,-0,0.66667
0.86473,0.52076,6.9178,0.031139,0.65214,13.465,-0.57444,0.19148,-1.9949,-0.76593,6.8326e-10,-0.99747,0,0,0.125,-0,-0,0.66667
0.78168,0.68811,6.2534,0.28216,9.2244,32.866,-4.7053,1.5684,-1.7208,-6.2737,4.9621e-11,-0.86042,0,0,0.125,-0,-0,0.66667
0.43218,0.39892,3.4575,-0.15162,-10.436,184.91,1.3979,-0.46596,-1.917,1.8638,-5.8242e-13,-0.95849,0,0,0.125,-5.9212e-16,0,0.66667
0.94251,0.66326,7.5401,0.24489,2.206,3.0654,-4.924,1.6413,-1.7856,-6.5654,-1.7208e-08,-0.89282,0,0,0.125,-0,-0,0.66667
0.25309,0.76368,2.0247,0.39553,31.423,294.63,-2.1355,0.71184,-1.4434,-2.8474,1.3287e-11,-0.7217,0,0,0.125,-0,-0,0.66667
0.046248,0.68612,0.36999,0.27918,23.632,434.38,-0.27545,0.091816,-1.7264,-0.36726,8.1177e-08,-0.8632,0,0,0.125,2.535e-17,0,0.66667
0.096878,0.058385,0.77503,-0.66242,-55.911,399.57,1.3691,-0.45635,-0.44031,1.8254,4.3817e-08,-0.22015,0,0,0.125,3.7007e-17,0,0.66667
0.20074,0.92202,1.6059,0.63304,51.736,329.26,-2.7109,0.90363,-0.57537,-3.6145,-2.8255e-10,-0.28769,0,0,0.125,-2.9606e-16,0,0.66667
0.53908,0.92003,4.3126,0.63004,38.031,128.73,-7.2457,2.4152,-0.58634,-9.6609,3.757e-13,-0.29317,0,0,0.125,-0,-0,0.66667
0.2236,0.96428,1.7888,0.69642,56.401,314.19,-3.3221,1.1074,-0.27485,-4.4294,2.9981e-11,-0.13742,0,0,0.125,-4.4409e-16,0,0.66667
0.83532,0.38831,6.6826,-0.16754,-4.2282,19.447,2.9856,-0.99519,-1.898,3.9808,-1.1935e-09,-0.94898,0,0,0.125,-1.1842e-15,0,0.66667
0.0093387,0.58342,0.074709,0.12514,10.606,459.96,-0.02493,0.00831,-1.9424,-0.033241,-1.5261e-07,-0.97121,0,0,0.125,-9.2519e-18,0,0.66667
0.7459,0.015099,5.9672,-0.72735,-27.51,44.627,11.574,-3.858,-0.11784,15.432,-1.8909e-12,-0.058922,0,0,0.125,2.3685e-15,0,0.66667
0.96901,0.0082624,7.7521,-0.73761,-3.8269,2.8747,15.248,-5.0826,-0.068478,20.331,-7.4951e-06,-0.034239,0,0,0.125,-0,-0,0.66667
0.26718,0.74307,2.1375,0.36461,28.73,285.49,-2.0782,0.69274,-1.5289,-2.771,1.2604e-11,-0.76445,0,0,0.125,-4.4409e-16,0,0.66667
0.62382,0.32965,4.9905,-0.25552,-13.188,88.902,3.4005,-1.1335,-1.7693,4.534,-7.0632e-13,-0.88466,0,0,0.125,-0,-0,0.66667
0.71478,0.52636,5.7182,0.039541,1.6273,53.492,-0.60295,0.20098,-1.9942,-0.80393,-2.5698e-12,-0.9971,0,0,0.125,5.9212e-16,0,0.66667
0.32696,0.7978,2.6157,0.4467,33.875,247.72,-3.1158,1.0386,-1.292,-4.1544,2.0453e-12,-0.646,0,0,0.125,2.0492e-16,0,0.66667
0.43313,0.90443,3.465,0.60665,41.933,184.91,-5.6054,1.8685,-0.69152,-7.4739,1.3878e-12,-0.34576,0,0,0.125,2.2204e-16,0,0.66667
0.73441,0.54863,5.8753,0.072945,2.8252,46.915,-1.1429,0.38095,-1.984,-1.5238,-4.4282e-12,-0.99198,0,0,0.125,-0,-0,0.66667
0.13115,0.57227,1.0492,0.10841,9.0301,375.94,-0.30332,0.10111,-1.9564,-0.40443,-5.0715e-09,-0.97819,0,0,0.125,-0,-0,0.66667
0.14369,0.47577,1.1495,-0.036347,-3.0165,367.4,0.11142,-0.037139,-1.9954,0.14855,2.7671e-10,-0.99772,0,0,0.125,-0,-0,0.66667
0.37541,0.69567,3.0033,0.2935,21.371,218.07,-2.3506,0.78352,-1.6965,-3.1341,-1.2821e-12,-0.84824,0,0,0.125,-0,-0,0.66667
0.22841,0.19772,1.8273,-0.45343,-36.506,310.81,2.2094,-0.73647,-1.2672,2.9459,-3.669e-11,-0.63359,0,0,0.125,5.9212e-16,0,0.66667
0.30699,0.88371,2.4559,0.57556,44.348,260.34,-3.7694,1.2565,-0.82064,-5.0258,2.4163e-12,-0.41032,0,0,0.125,-5.9212e-16,0,0.66667
0.15007,0.072026,1.2005,-0.64196,-53.447,363.29,2.0552,-0.68506,-0.53289,2.7402,1.6372e-08,-0.26644,0,0,0.125,-0,-0,0.66667
0.096636,0.18496,0.77309,-0.47256,-39.783,399.66,0.97422,-0.32474,-1.207,1.299,2.6699e-08,-0.60348,0,0,0.125,1.8504e-16,0,0.66667
0.91598,0.64756,7.3279,0.22134,2.9225,5.7955,-4.3251,1.4417,-1.8242,-5.7668,1.6892e-08,-0.91208,0,0,0.125,1.1842e-15,0,0.66667
0.34589,0.11261,2.7671,-0.58109,-43.518,236.23,4.2879,-1.4293,-0.79992,5.7172,-3.4519e-12,-0.39996,0,0,0.125,-5.9212e-16,0,0.66667
0.56597,0.13305,4.5277,-0.55042,-31.776,115.53,6.6458,-2.2153,-0.92251,8.861,3.3396e-13,-0.46125,0,0,0.125,-1.1842e-15,0,0.66667
0.5472,0.55488,4.3776,0.082323,4.874,123.99,-0.961,0.32033,-1.9788,-1.2813,-2.7867e-13,-0.98942,0,0,0.125,-0,-0,0.66667
0.45036,0.74018,3.6029,0.36028,24.347,174.89,-3.4614,1.1538,-1.5386,-4.6152,6.5947e-14,-0.7693,0,0,0.125,-0,-0,0.66667
0.74782,0.86528,5.9826,0.54792,20.459,43.421,-8.7412,2.9137,-0.93323,-11.655,-5.2625e-12,-0.46661,0,0,0.125,-5.9212e-16,0,0.66667
0.33158,0.45399,2.6526,-0.069014,-5.2018,244.63,0.48818,-0.16273,-1.9824,0.65091,-1.8921e-13,-0.99119,0,0,0.125,-5.9212e-16,0,0.66667
0.89248,0.95819,7.1398,0.68728,11.87,10.327,-13.086,4.3619,-0.3214,-17.447,1.4325e-07,-0.1607,0,0,0.125,1.1842e-15,0,0.66667
0.068033,0.51241,0.54427,0.018622,1.5709,419.3,-0.027028,0.0090093,-1.997,-0.036037,-9.0654e-08,-0.99849,0,0,0.125,-0,-0,0.66667
0.57489,0.96135,4.5991,0.69202,39.476,111.69,-8.4872,2.8291,-0.29722,-11.316,-8.0913e-13,-0.14861,0,0,0.125,-0,-1.0703e-16,0.66667
0.33905,0.43135,2.7124,-0.10297,-7.718,240.02,0.74482,-0.24827,-1.9614,0.9931,-1.7953e-12,-0.98072,0,0,0.125,2.9606e-16,0,0.66667
0.3639,0.66764,2.9112,0.25147,18.487,224.94,-1.9522,0.65073,-1.7739,-2.6029,6.9533e-13,-0.88695,0,0,0.125,-0,-0,0.66667
0.3051,0.37781,2.4408,-0.18329,-14.084,261.21,1.193,-0.39766,-1.8794,1.5906,-5.7413e-12,-0.93971,0,0,0.125,1.1842e-15,0,0.66667
0.60359,0.94863,4.8287,0.67295,36.428,98.566,-8.6653,2.8884,-0.388,-11.554,-3.535e-13,-0.194,0,0,0.125,-0,-0,0.66667
0.23441,0.46749,1.8753,-0.048765,-3.9043,306.7,0.24386,-0.081287,-1.9958,0.32515,-1.403e-11,-0.99792,0,0,0.125,2.9606e-16,0,0.66667
0.29431,0.43836,2.3544,-0.092459,-7.1533,268.01,0.58051,-0.1935,-1.9712,0.77401,5.8453e-14,-0.98559,0,0,0.125,1.1842e-15,0,0.66667
0.28549,0.42049,2.284,-0.11926,-9.2795,273.62,0.72636,-0.24212,-1.9482,0.96847,-4.6875e-12,-0.97411,0,0,0.125,-0,-0,0.66667
0.0067954,0.58364,0.054364,0.12547,10.635,461.73,-0.018189,0.0060629,-1.942,-0.024252,-3.5006e-08,-0.97101,0,0,0.125,-9.2519e-18,0,0.66667
0.37162,0.0048918,2.9729,-0.74266,-54.613,220.95,5.8877,-1.9626,-0.039119,7.8503,-1.7764e-13,-0.019559,0,0,0.125,-0,-7.8179e-17,0.66667
0.048897,0.076676,0.39118,-0.63499,-53.951,432.61,0.66238,-0.22079,-0.56694,0.88317,1.0776e-06,-0.28347,0,0,0.125,-0,-0,0.66667
0.87438,0.14969,6.995,-0.52546,-10.402,12.604,9.8017,-3.2672,-1.0209,13.069,-7.9962e-10,-0.51047,0,0,0.125,-5.9212e-16,0,0.66667
0.72182,0.92676,5.7746,0.64014,26.062,52.132,-9.8574,3.2858,-0.5428,-13.143,-7.4909e-12,-0.2714,0,0,0.125,5.9212e-16,0,0.66667
0.59531,0.62135,4.7625,0.18202,9.9281,101.38,-2.3117,0.77056,-1.8842,-3.0822,-1.6656e-12,-0.94212,0,0,0.125,1.1842e-15,0,0.66667
0.74388,0.72732,5.951,0.34099,12.838,44.169,-5.4112,1.8037,-1.5849,-7.215,-1.7121e-11,-0.79244,0,0,0.125,-0,-0,0.66667
0.90109,0.89498,7.2088,0.59247,9.3763,8.7035,-11.389,3.7964,-0.75037,-15.186,4.873e-08,-0.37518,0,0,0.125,-1.1842e-15,0,0.66667
0.69409,0.53893,5.5527,0.058402,2.5488,60.845,-0.86478,0.28826,-1.9861,-1.153,-2.5327e-12,-0.99307,0,0,0.125,-0,-0,0.66667
0.59076,0.78029,4.7261,0.42044,23.188,103.75,-5.2987,1.7662,-1.3727,-7.065,4.3521e-13,-0.68633,0,0,0.125,-1.3323e-15,0,0.66667
0.12426,0.25482,0.99407,-0.36778,-30.736,380.7,0.97493,-0.32498,-1.5219,1.2999,9.7387e-09,-0.76093,0,0,0.125,-0,-0,0.66667
0.40458,0.13421,3.2367,-0.54868,-39.008,201.17,4.7357,-1.5786,-0.9308,6.3143,2.7094e-12,-0.4654,0,0,0.125,-0,-0,0.66667
0.57895,0.47578,4.6316,-0.036332,-2.04,108.81,0.44873,-0.14958,-1.9977,0.59831,-1.6649e-12,-0.99884,0,0,0.125,-0,-0,0.66667
0.60284,0.39327,4.8228,-0.16009,-8.6073,97.98,2.0589,-0.6863,-1.9068,2.7452,-2.0428e-13,-0.95338,0,0,0.125,-1.8981e-15,0,0.66667
0.96078,0.57742,7.6862,0.11613,0.696,1.527,-2.3803,0.79343,-1.9497,-3.1737,6.0054e-08,-0.97487,0,0,0.125,-0,-0,0.66667
0.2055,0.25097,1.644,-0.37355,-30.366,325.9,1.6376,-0.54588,-1.5056,2.1835,1.279e-10,-0.75279,0,0,0.125,-0,-0,0.66667
0.66315,0.28458,5.3052,-0.32312,-15.294,72.826,4.5713,-1.5238,-1.6276,6.0951,2.097e-12,-0.81379,0,0,0.125,-2.3685e-15,0,0.66667
0.25643,0.71292,2.0514,0.31938,25.309,292.41,-1.7472,0.58239,-1.6358,-2.3296,1.2608e-11,-0.81792,0,0,0.125,-0,-0,0.66667
0.41776,0.90282,3.3421,0.60424,42.439,193.65,-5.3851,1.795,-0.70177,-7.1801,2.6201e-14,-0.35088,0,0,0.125,-6.1647e-16,0,0.66667
0.97195,0.79455,7.7756,0.44182,1.9171,1.5245,-9.1611,3.0537,-1.3055,-12.215,-7.7226e-07,-0.65274,0,0,0.125,-0,-0,0.66667
0.33108,0.21938,2.6486,-0.42092,-31.814,245.14,2.973,-0.99099,-1.3713,3.964,-3.1115e-12,-0.68566,0,0,0.125,1.1842e-15,0,0.66667
0.36202,0.80588,2.8962,0.45882,33.854,226.27,-3.5436,1.1812,-1.252,-4.7248,-9.77e-14,-0.62601,0,0,0.125,5.9212e-16,0,0.66667
0.43957,0.88818,3.5165,0.58227,39.952,181.24,-5.4602,1.8201,-0.79508,-7.2803,1.4677e-12,-0.39754,0,0,0.125,-1.1842e-15,0,0.66667
0.040668,0.2298,0.32534,-0.4053,-34.361,438.26,0.35163,-0.11721,-1.414,0.46884,-3.526e-08,-0.70699,0,0,0.125,-0,-0,0.66667
0.39857,0.98348,3.1886,0.72522,52.027,204.99,-6.1664,2.0555,-0.12767,-8.2219,-9.0994e-13,-0.063836,0,0,0.125,9.44e-16,0,0.66667
0.61899,0.75301,4.9519,0.37952,19.813,91.153,-5.0116,1.6705,-1.487,-6.6821,-1.5898e-12,-0.74348,0,0,0.125,-0,-0,0.66667
0.57808,0.34732,4.6246,-0.22902,-12.891,109.32,2.8244,-0.94146,-1.8174,3.7658,-1.1047e-12,-0.90868,0,0,0.125,-0,-0,0.66667
0.87341,0.69227,6.9873,0.2884,5.6929,12.171,-5.3737,1.7912,-1.7061,-7.1649,8.5723e-09,-0.85305,0,0,0.125,-0,-0,0.66667
0.64119,0.48266,5.1295,-0.02601,-1.2919,81.447,0.35578,-0.11859,-1.9998,0.47437,-5.0637e-13,-0.9999,0,0,0.125,-0,-0,0.66667
0.55696,0.28943,4.4556,-0.31585,-18.44,119.43,3.7528,-1.2509,-1.6438,5.0038,1.4089e-12,-0.82191,0,0,0.125,-1.1842e-15,0,0.66667
0.64065,0.67751,5.1252,0.26626,13.26,81.83,-3.6391,1.213,-1.751,-4.8521,-3.0846e-12,-0.87551,0,0,0.125,5.9212e-16,0,0.66667
0.047617,0.81433,0.38093,0.47149,39.976,433.46,-0.47895,0.15965,-1.2129,-0.6386,-9.4589e-08,-0.60644,0,0,0.125,-1.4803e-16,0,0.66667
0.99612,0.68887,7.969,0.28331,0.04548,0.33852,-6.0204,2.0068,-1.7151,-8.0272,2.9775e-07,-0.85753,0,0,0.125,2.3685e-15,0,0.66667
0.15171,0.22945,1.2136,-0.40583,-33.666,362.04,1.3134,-0.43781,-1.4132,1.7512,2.3004e-09,-0.70659,0,0,0.125,-0,-0,0.66667
0.41845,0.81781,3.3476,0.47671,33.391,193.05,-4.2556,1.4185,-1.1921,-5.6741,1.0418e-12,-0.59603,0,0,0.125,-0,-0,0.66667
0.29525,0.80281,2.362,0.45422,35.214,267.61,-2.861,0.95367,-1.2676,-3.8147,8.1626e-12,-0.63382,0,0,0.125,-0,-0,0.66667
0.57722,0.81039,4.6177,0.46559,26.326,110.06,-5.7333,1.9111,-1.2323,-7.6444,1.5321e-13,-0.61614,0,0,0.125,1.3323e-15,0,0.66667
0.55956,0.38471,4.4765,-0.17294,-10.041,118.04,2.0644,-0.68813,-1.8936,2.7525,8.5443e-13,-0.94682,0,0,0.125,-1.1842e-15,0,0.66667
0.35211,0.38676,2.8169,-0.16986,-12.604,232.05,1.276,-0.42533,-1.8952,1.7013,-8.9251e-13,-0.94762,0,0,0.125,-0,-0,0.66667
0.97363,0.5925,7.789,0.13875,0.53804,0.83602,-2.8819,0.96063,-1.9314,-3.8425,9.0391e-08,-0.96571,0,0,0.125,-1.3323e-15,0,0.66667
0.75127,0.074357,6.0102,-0.63846,-23.629,42.64,10.233,-3.4109,-0.55207,13.644,3.0291e-11,-0.27603,0,0,0.125,1.1842e-15,0,0.66667
0.88984,0.47627,7.1187,-0.035598,-0.61167,9.2324,0.67576,-0.22525,-1.9979,0.90101,3.8562e-09,-0.99893,0,0,0.125,-0,-0,0.66667
0.45541,0.35388,3.6433,-0.21918,-14.707,171.96,2.1294,-0.70981,-1.8297,2.8393,-1.2497e-12,-0.91485,0,0,0.125,1.1842e-15,0,0.66667
0.59941,0.38751,4.7952,-0.16873,-9.1318,99.523,2.1576,-0.71921,-1.8969,2.8768,-9.3525e-13,-0.94847,0,0,0.125,-0,-0,0.66667
0.41345,0.26606,3.3076,-0.3509,-24.665,195.77,3.0951,-1.0317,-1.5599,4.1268,-7.5029e-13,-0.77996,0,0,0.125,-0,-0,0.66667
0.30426,0.81819,2.434,0.47729,36.793,261.95,-3.098,1.0327,-1.1884,-4.1306,4.7931e-12,-0.59421,0,0,0.125,-0,-0,0.66667
0.52547,0.88331,4.2038,0.57497,35.378,135.4,-6.4454,2.1485,-0.82301,-8.5939,3.7215e-13,-0.4115,0,0,0.125,-0,-0,0.66667
0.19097,0.46084,1.5277,-0.058738,-4.7955,335.5,0.2393,-0.079766,-1.9875,0.31906,1.3238e-10,-0.99373,0,0,0.125,1.4803e-16,0,0.66667
0.2141,0.36253,1.7128,-0.2062,-16.678,320.12,0.94182,-0.31394,-1.8474,1.2558,5.762e-11,-0.92372,0,0,0.125,-2.9606e-16,0,0.66667
0.51079,0.3033,4.0863,-0.29505,-18.463,142.44,3.2151,-1.0717,-1.6892,4.2867,-3.5327e-13,-0.84461,0,0,0.125,-5.9212e-16,0,0.66667
0.013852,0.4555,0.11082,-0.066746,-5.656,456.83,0.019725,-0.006576,-1.985,0.026299,-1.699e-06,-0.9925,0,0,0.125,-0,-0,0.66667
0.44549,0.60343,3.5639,0.15514,10.525,177.43,-1.4744,0.49147,-1.9124,-1.9659,-3.1775e-13,-0.95618,0,0,0.125,-0,-0,0.66667
0.9967,0.13602,7.9736,-0.54597,-0.1572,1.1012,11.609,-3.8697,-0.93973,15.479,-7.428e-07,-0.46986,0,0,0.125,-0,-1.3517e-16,0.66667
0.82268,0.39534,6.5815,-0.157,-4.2422,22.277,2.7554,-0.91846,-1.9107,3.6738,-7.3591e-10,-0.95535,0,0,0.125,-0,-0,0.66667
0.083461,0.43763,0.66768,-0.093562,-7.8746,408.66,0.16659,-0.055529,-1.9688,0.22212,-1.2537e-08,-0.98439,0,0,0.125,-0,-0,0.66667
0.65589,0.91258,5.2471,0.61887,29.976,76.356,-8.6594,2.8865,-0.64127,-11.546,-6.8479e-13,-0.32063,0,0,0.125,-0,9.5636e-17,0.66667
0.22539,0.92737,1.8031,0.64106,51.824,312.96,-3.0824,1.0275,-0.53685,-4.1099,-1.7462e-11,-0.26843,0,0,0.125,-2.9606e-16,0,0.66667
0.11796,0.88753,0.94365,0.5813,48.779,385.1,-1.4628,0.48759,-0.79635,-1.9504,6.633e-09,-0.39818,0,0,0.125,-0,-0,0.66667
0.34868,0.49436,2.7894,-0.0084663,-0.62968,234.11,0.062976,-0.020992,-1.9988,0.083968,-7.9333e-13,-0.99942,0,0,0.125,2.9606e-16,0,0.66667
0.67717,0.62839,5.4173,0.19259,8.7931,67.24,-2.7821,0.92738,-1.8674,-3.7095,-2.6268e-12,-0.93371,0,0,0.125,-2.3685e-15,0,0.66667
0.55076,0.47968,4.4061,-0.030475,-1.794,122.23,0.35807,-0.11936,-1.9959,0.47743,-1.3899e-12,-0.99793,0,0,0.125,-0,-0,0.66667
0.043963,0.78433,0.3517,0.42649,36.155,435.98,-0.39999,0.13333,-1.3541,-0.53332,-4.1645e-08,-0.67705,0,0,0.125,-0,-0,0.66667
0.85675,0.0087876,6.854,-0.73682,-16.708,16.616,13.467,-4.489,-0.070004,17.956,-4.0933e-09,-0.035002,0,0,0.125,-0,-1.1968e-16,0.66667
0.4776,0.76365,3.8208,0.39548,25.883,160.05,-4.0294,1.3431,-1.4417,-5.3725,2.7311e-13,-0.72086,0,0,0.125,-0,-0,0.66667
0.85678,0.40213,6.8542,-0.1468,-3.2491,15.024,2.6833,-0.89443,-1.9243,3.5777,-2.7574e-09,-0.96216,0,0,0.125,-1.4803e-15,0,0.66667
0.18765,0.18459,1.5012,-0.47311,-38.784,337.87,1.894,-0.63133,-1.208,2.5253,5.2109e-10,-0.60399,0,0,0.125,-3.7007e-16,0,0.66667
0.083733,0.59121,0.66987,0.13681,11.516,408.47,-0.24439,0.081464,-1.9328,-0.32586,-1.5635e-08,-0.96638,0,0,0.125,1.6653e-16,0,0.66667
0.51597,0.75327,4.1278,0.37991,23.623,139.88,-4.1818,1.3939,-1.4904,-5.5757,-3.6815e-13,-0.74518,0,0,0.125,-0,-0,0.66667
0.45454,0.079215,3.6364,-0.63118,-42.625,173,6.1205,-2.0402,-0.58471,8.1607,-8.7308e-13,-0.29235,0,0,0.125,-5.9212e-16,0,0.66667
0.013894,0.80385,0.11116,0.45578,38.718,456.81,-0.1351,0.045033,-1.2626,-0.18013,7.6017e-08,-0.63129,0,0,0.125,9.2519e-18,0,0.66667
0.039355,0.13732,0.31484,-0.54401,-46.2,439.19,0.45674,-0.15224,-0.94551,0.60898,6.6625e-07,-0.47275,0,0,0.125,-0,-0,0.66667
0.093633,0.42198,0.74906,-0.11702,-9.832,401.65,0.23376,-0.077919,-1.9541,0.31168,6.221e-09,-0.97703,0,0,0.125,-0,-0,0.66667
0.040677,0.40013,0.32542,-0.14981,-12.679,438.23,0.13,-0.043335,-1.9187,0.17334,-1.331e-07,-0.95937,0,0,0.125,3.7007e-17,0,0.66667
0.17574,0.76862,1.4059,0.40294,33.155,345.82,-1.5106,0.50355,-1.4218,-2.0142,-7.3963e-10,-0.71091,0,0,0.125,-0,-0,0.66667
0.57554,0.29493,4.6043,-0.3076,-17.405,110.6,3.7767,-1.2589,-1.6636,5.0356,-5.1403e-13,-0.83182,0,0,0.125,-0,-0,0.66667
0.47675,0.54357,3.814,0.065361,4.2719,160.24,-0.66476,0.22159,-1.9826,-0.88635,-1.1685e-12,-0.99129,0,0,0.125,-0,-0,0.66667
0.97977,0.095186,7.8382,-0.60722,-1.9533,1.7913,12.692,-4.2307,-0.68898,16.923,4.9986e-06,-0.34449,0,0,0.125,-0,-0,0.66667
0.070737,0.36442,0.5659,-0.20337,-17.157,417.44,0.30689,-0.1023,-1.8508,0.40919,1.5102e-08,-0.92542,0,0,0.125,7.4015e-17,0,0.66667
0.86742,0.45709,6.9393,-0.06437,-1.3227,12.985,1.1912,-0.39705,-1.9831,1.5882,-1.2849e-10,-0.99154,0,0,0.125,-0,-0,0.66667
0.57852,0.75118,4.6282,0.37678,21.227,109.3,-4.6501,1.55,-1.4991,-6.2001,-5.2136e-13,-0.74955,0,0,0.125,-0,-0,0.66667
0.87648,0.76618,7.0118,0.39927,7.7305,11.884,-7.4657,2.4886,-1.4343,-9.9542,8.8462e-09,-0.71715,0,0,0.125,1.1842e-15,0,0.66667
0.055714,0.13538,0.44571,-0.54694,-46.378,427.88,0.65007,-0.21669,-0.93437,0.86675,1.0183e-07,-0.46718,0,0,0.125,-0,-0,0.66667
0.099154,0.065607,0.79323,-0.65159,-54.962,398,1.3783,-0.45943,-0.48971,1.8377,-1.3187e-07,-0.24486,0,0,0.125,2.9606e-16,0,0.66667
0.86309,0.33672,6.9048,-0.24493,-5.2033,13.947,4.5097,-1.5032,-1.7863,6.013,-4.9346e-09,-0.89317,0,0,0.125,5.9212e-16,0,0.66667
0.57038,0.17495,4.5631,-0.48757,-27.906,113.31,5.9329,-1.9776,-1.1525,7.9105,-4.1611e-13,-0.57626,0,0,0.125,-0,-0,0.66667
0.55849,0.65161,4.468,0.22742,13.233,118.59,-2.7096,0.90321,-1.8159,-3.6128,-1.803e-13,-0.90794,0,0,0.125,-0,-0,0.66667
0.013013,0.89615,0.1041,0.59422,50.569,457.43,-0.16496,0.054982,-0.74474,-0.21994,-5.3896e-06,-0.37237,0,0,0.125,-1.8504e-17,0,0.66667
0.64225,0.11172,5.138,-0.58241,-29.064,81.78,7.9799,-2.66,-0.79494,10.64,-5.52e-13,-0.39747,0,0,0.125,-0,-0,0.66667
0.84766,0.59015,6.7813,0.13523,3.1717,16.819,-2.4454,0.81515,-1.935,-3.2606,2.8442e-09,-0.96749,0,0,0.125,-1.4803e-15,0,0.66667
0.99613,0.38683,7.969,-0.16975,-0.018059,0.15623,3.6073,-1.2024,-1.8967,4.8097,-2.1906e-07,-0.94833,0,0,0.125,-2.3685e-15,0,0.66667
0.43295,0.31054,3.4636,-0.28419,-19.563,184.57,2.6249,-0.87496,-1.7128,3.4998,1.5929e-12,-0.85638,0,0,0.125,-8.1416e-16,0,0.66667
0.31141,0.19017,2.4913,-0.46475,-35.646,257.44,3.0875,-1.0292,-1.2347,4.1167,-5.848e-12,-0.61737,0,0,0.125,-0,-0,0.66667
0.40477,0.16796,3.2382,-0.49806,-35.375,200.98,4.3008,-1.4336,-1.1192,5.7344,6.1506e-13,-0.55961,0,0,0.125,-0,-0,0.66667
0.22803,0.4193,1.8242,-0.12104,-9.7232,310.9,0.58882,-0.19627,-1.9458,0.78509,7.0287e-12,-0.97291,0,0,0.125,-0,-0,0.66667
0.2261,0.81613,1.8088,0.4742,38.23,312.34,-2.2873,0.76242,-1.1992,-3.0497,3.0943e-11,-0.5996,0,0,0.125,-0,-0,0.66667
0.43364,0.22349,3.4691,-0.41477,-28.57,184.32,3.8371,-1.279,-1.3882,5.1161,-5.0404e-13,-0.69409,0,0,0.125,-0,-0,0.66667
0.68454,0.32333,5.4763,-0.265,-11.882,64.538,3.87,-1.29,-1.7502,5.1599,4.0892e-12,-0.87509,0,0,0.125,-0,-0,0.66667
0.66074,0.85717,5.2859,0.53576,25.606,74.208,-7.5519,2.5173,-0.97809,-10.069,-1.1533e-12,-0.48904,0,0,0.125,-1.1842e-15,0,0.66667
0.77249,0.27764,6.1799,-0.33354,-11.322,35.54,5.4967,-1.8322,-1.6032,7.329,-1.2778e-11,-0.80161,0,0,0.125,-2.9606e-16,0,0.66667
0.21681,0.25066,1.7345,-0.37401,-30.251,318.4,1.7299,-0.57665,-1.5048,2.3066,6.6656e-11,-0.75242,0,0,0.125,5.9212e-16,0,0.66667
0.72871,0.40707,5.8297,-0.1394,-5.5002,48.826,2.167,-0.72234,-1.9305,2.8894,8.8862e-12,-0.96527,0,0,0.125,-2.3685e-15,0,0.66667
0.79525,0.59001,6.362,0.13502,4.1588,29.037,-2.2907,0.76355,-1.9371,-3.0542,8.8181e-11,-0.96857,0,0,0.125,2.9606e-16,0,0.66667
0.56181,0.50053,4.4945,0.00080059,0.046286,116.9,-0.0095953,0.0031984,-2.0036,-0.012794,9.0826e-13,-1.0018,0,0,0.125,-4.737e-15,0,0.66667
0.46567,0.96338,3.7254,0.69507,46.394,167.05,-6.9051,2.3017,-0.28256,-9.2068,-1.0569e-12,-0.14128,0,0,0.125,2.9606e-16,8.4235e-17,0.66667
0.1582,0.082714,1.2656,-0.62593,-51.965,357.77,2.1125,-0.70416,-0.60775,2.8166,-1.2649e-09,-0.30388,0,0,0.125,-0,-0,0.66667
0.046453,0.33579,0.37162,-0.24631,-20.845,434.24,0.24409,-0.081364,-1.7871,0.32545,-7.9515e-08,-0.89353,0,0,0.125,7.4015e-17,0,0.66667
0.46383,0.13498,3.7107,-0.54753,-36.522,167.75,5.4179,-1.806,-0.93271,7.2238,-1.4051e-12,-0.46636,0,0,0.125,-0,-0,0.66667
0.6543,0.80689,5.2344,0.46033,22.297,76.593,-6.4255,2.1418,-1.2479,-8.5673,-2.5047e-12,-0.62395,0,0,0.125,3.8742e-16,0,0.66667
0.21255,0.23422,1.7004,-0.39868,-32.317,321.24,1.8077,-0.60257,-1.4328,2.4103,4.0102e-11,-0.71639,0,0,0.125,-0,-0,0.66667
0.39995,0.31306,3.1996,-0.28042,-19.961,203.55,2.3926,-0.79753,-1.7199,3.1901,-1.3891e-12,-0.85995,0,0,0.125,-0,-0,0.66667
0.49764,0.13385,3.9811,-0.54923,-35.112,149.66,5.8307,-1.9436,-0.92802,7.7743,3.9924e-13,-0.46401,0,0,0.125,-0,-0,0.66667
0.9549,0.56247,7.6392,0.093712,0.65117,1.9083,-1.909,0.63635,-1.9713,-2.5454,2.2396e-07,-0.98564,0,0,0.125,1.5728e-16,0,0.66667
0.87745,0.93564,7.0196,0.65347,12.739,12.556,-12.232,4.0774,-0.4832,-16.309,1.432e-07,-0.2416,0,0,0.125,-1.7764e-15,0,0.66667
0.87405,0.9128,6.9924,0.61921,12.357,12.994,-11.546,3.8487,-0.63903,-15.395,-6.2161e-09,-0.31951,0,0,0.125,-0,-0,0.66667
0.9966,0.1661,7.9728,-0.50086,-0.12821,0.93535,10.649,-3.5495,-1.1077,14.198,-1.4061e-06,-0.55383,0,0,0.125,-0,-1.2778e-16,0.66667
0.77345,0.46386,6.1876,-0.054206,-1.827,34.967,0.89442,-0.29814,-1.9881,1.1926,6.4108e-12,-0.99403,0,0,0.125,2.9606e-16,0,0.66667
0.20306,0.40338,1.6245,-0.14493,-11.776,327.44,0.62784,-0.20928,-1.9293,0.83711,8.2424e-11,-0.96463,0,0,0.125,7.4015e-17,0,0.66667
0.83989,0.6164,6.7191,0.1746,4.2929,18.472,-3.1285,1.0428,-1.891,-4.1713,1.5837e-09,-0.94549,0,0,0.125,-1.1842e-15,0,0.66667
0.16625,0.80773,1.33,0.4616,38.134,352.24,-1.6371,0.5457,-1.2413,-2.1828,-3.1542e-10,-0.62067,0,0,0.125,1.4803e-16,0,0.66667
0.88909,0.90186,7.1127,0.6028,10.653,10.493,-11.433,3.8111,-0.70998,-15.244,1.3532e-08,-0.35499,0,0,0.125,1.4803e-15,0,0.66667
0.33858,0.2391,2.7086,-0.39135,-29.401,240.49,2.8267,-0.94225,-1.4539,3.769,-1.6258e-12,-0.72695,0,0,0.125,-0,-0,0.66667
0.28794,0.9023,2.3036,0.60344,47.1,272.42,-3.7068,1.2356,-0.70402,-4.9425,1.9122e-12,-0.35201,0,0,0.125,2.9606e-16,0,0.66667
0.60622,0.68511,4.8498,0.27767,14.847,96.589,-3.5911,1.197,-1.7266,-4.7881,-4.0878e-13,-0.86332,0,0,0.125,-1.4803e-15,0,0.66667
0.060612,0.36258,0.48489,-0.20613,-17.414,424.44,0.26653,-0.088844,-1.8497,0.35538,-2.3857e-08,-0.92485,0,0,0.125,7.4015e-17,0,0.66667
0.90709,0.46791,7.2567,-0.048132,-0.6998,6.7711,0.93141,-0.31047,-1.9951,1.2419,-5.3871e-08,-0.99757,0,0,0.125,4.4409e-16,0,0.66667
0.38107,0.19756,3.0486,-0.45366,-32.923,214.85,3.6881,-1.2294,-1.2664,4.9174,-2.1694e-13,-0.6332,0,0,0.125,1.1842e-15,0,0.66667
0.78998,0.8593,6.3199,0.53894,17.137,31.199,-9.0828,3.0276,-0.96502,-12.11,1.4294e-10,-0.48251,0,0,0.125,-0,-0,0.66667
0.71055,0.77097,5.6844,0.40645,17.005,55.375,-6.1611,2.0537,-1.4105,-8.2148,-8.2312e-12,-0.70526,0,0,0.125,-0,-0,0.66667
0.70415,0.27606,5.6332,-0.3359,-14.295,57.495,5.0459,-1.682,-1.6012,6.7279,7.8111e-12,-0.80061,0,0,0.125,2.9606e-16,0,0.66667
0.53263,0.1956,4.261,-0.45659,-27.742,131.58,5.1881,-1.7294,-1.2604,6.9175,2.931e-13,-0.63018,0,0,0.125,1.1842e-15,0,0.66667
0.46668,0.88395,3.7334,0.57593,38.305,166.25,-5.7338,1.9113,-0.82147,-7.645,-9.952e-13,-0.41073,0,0,0.125,-0,-0,0.66667
0.6454,0.052621,5.1632,-0.67107,-33.334,80.746,9.2396,-3.0799,-0.39753,12.319,3.6415e-14,-0.19876,0,0,0.125,-0,-0,0.66667
0.69158,0.00065314,5.5326,-0.74902,-33.345,63.137,11.051,-3.6836,-0.0056757,14.734,-5.3113e-13,-0.0028378,0,0,0.125,-0,-0,0.66667
0.23582,0.80525,1.8865,0.45787,36.731,305.95,-2.3035,0.76782,-1.2562,-3.0713,1.6585e-11,-0.62812,0,0,0.125,1.4803e-16,0,0.66667
0.75381,0.46888,6.0305,-0.046674,-1.6926,40.777,0.75058,-0.25019,-1.993,1.0008,-8.4985e-12,-0.9965,0,0,0.125,-0,-0,0.66667
0.93662,0.86543,7.4929,0.54814,5.5926,4.4035,-10.953,3.6508,-0.93374,-14.603,1.3152e-07,-0.46687,0,0,0.125,1.1842e-15,-1.3969e-16,0.66667
0.8151,0.45436,6.5208,-0.068458,-1.921,24.01,1.1904,-0.3968,-1.9834,1.5872,-2.4555e-10,-0.99168,0,0,0.125,-0,-0,0.66667
0.73061,0.045553,5.8449,-0.68167,-27.05,49.353,10.625,-3.5416,-0.34693,14.166,1.581e-13,-0.17346,0,0,0.125,-0,-0,0.66667
0.82171,0.12038,6.5737,-0.56942,-15.641,23.378,9.9819,-3.3273,-0.84585,13.309,-8.0238e-10,-0.42292,0,0,0.125,-2.9606e-16,0,0.66667
0.0069549,0.31145,0.055639,-0.28282,-23.992,461.62,0.041963,-0.013988,-1.7148,0.055951,2.3824e-07,-0.85742,0,0,0.125,-2.8912e-18,0,0.66667
0.17482,0.55718,1.3986,0.085764,7.0455,346.34,-0.31986,0.10662,-1.9743,-0.42648,-5.5149e-10,-0.98715,0,0,0.125,-1.4803e-16,0,0.66667
0.34198,0.2631,2.7358,-0.35535,-26.616,238.37,2.5925,-0.86416,-1.5519,3.4566,-2.3443e-12,-0.77594,0,0,0.125,-0,-0,0.66667
0.73352,0.46297,5.8681,-0.055542,-2.1572,47.2,0.86914,-0.28971,-1.9915,1.1589,4.4199e-12,-0.99577,0,0,0.125,5.9212e-16,0,0.66667
0.97837,0.14085,7.827,-0.53873,-1.8148,1.5717,11.244,-3.7481,-0.96605,14.992,2.1658e-06,-0.48302,0,0,0.125,-0,-0,0.66667
0.73288,0.21193,5.863,-0.43211,-16.9,47.888,6.7559,-2.252,-1.3377,9.0079,1.2034e-11,-0.66887,0,0,0.125,-5.9212e-16,0,0.66667
0.47899,0.50457,3.8319,0.006852,0.44655,159.03,-0.070017,0.023339,-1.9989,-0.093356,1.0089e-12,-0.99944,0,0,0.125,-0,-0,0.66667
0.92105,0.61173,7.3684,0.1676,2.0762,5.1297,-3.2932,1.0977,-1.902,-4.391,9.9389e-09,-0.95101,0,0,0.125,-0,-0,0.66667
0.3777,0.35179,3.0216,-0.22231,-16.146,216.65,1.7913,-0.59709,-1.8246,2.3884,-5.8864e-13,-0.9123,0,0,0.125,-0,-0,0.66667
0.64169,0.93411,5.1335,0.65117,32.592,82.205,-8.9141,2.9714,-0.495,-11.885,5.9597e-13,-0.2475,0,0,0.125,-2.9606e-16,0,0.66667
0.0015045,0.80301,0.012036,0.45452,38.618,465.4,-0.014588,0.0048617,-1.2668,-0.019451,-1.2042e-06,-0.63341,0,0,0.125,-2.313e-18,2.5035e-16,0.66667
0.17936,0.05775,1.4349,-0.66338,-54.703,343.56,2.5383,-0.8461,-0.43385,3.3844,2.4542e-09,-0.21692,0,0,0.125,7.4015e-17,0,0.66667
0.29484,0.44,2.3587,-0.089995,-6.9603,267.67,0.56606,-0.18869,-1.9729,0.75475,-2.1856e-12,-0.98647,0,0,0.125,1.1842e-15,0,0.66667
0.38699,0.65195,3.0959,0.22793,16.416,211.13,-1.8817,0.62725,-1.8154,-2.509,6.3727e-13,-0.90768,0,0,0.125,-0,-0,0.66667
0.45982,0.095491,3.6786,-0.60676,-40.707,170.05,5.9521,-1.984,-0.69013,7.9361,-2.5384e-12,-0.34506,0,0,0.125,1.1842e-15,0,0.66667
0.79672,0.59366,6.3738,0.14049,4.2995,28.658,-2.3878,0.79593,-1.9342,-3.1837,6.8406e-11,-0.96711,0,0,0.125,-3.7933e-16,0,0.66667
0.27985,0.23424,2.2388,-0.39865,-31.187,277.38,2.3799,-0.79331,-1.4362,3.1733,-1.3026e-11,-0.71808,0,0,0.125,-5.9212e-16,0,0.66667
0.082662,0.06807,0.66129,-0.6479,-54.813,409.33,1.1425,-0.38084,-0.50681,1.5234,1.8552e-07,-0.2534,0,0,0.125,-0,-0,0.66667
0.52137,0.56691,4.171,0.10036,6.1789,136.88,-1.1163,0.3721,-1.9631,-1.4884,1.5656e-12,-0.98156,0,0,0.125,-1.1842e-15,0,0.66667
0.98115,0.53115,7.8492,0.046732,0.12175,0.46226,-0.97816,0.32605,-1.9934,-1.3042,-6.737e-07,-0.99671,0,0,0.125,-1.3508e-15,0,0.66667
0.40076,0.89873,3.2061,0.59809,42.713,203.47,-5.1134,1.7045,-0.72674,-6.8179,1.9029e-12,-0.36337,0,0,0.125,2.9606e-16,0,0.66667
0.25719,0.32695,2.0575,-0.25957,-20.552,291.89,1.4242,-0.47474,-1.7582,1.899,-1.5636e-11,-0.87908,0,0,0.125,-0,-0,0.66667
0.77634,0.79751,6.2107,0.44627,14.961,34.688,-7.3911,2.4637,-1.2903,-9.8548,-5.2025e-12,-0.64515,0,0,0.125,-1.1842e-15,0,0.66667
0.61558,0.36792,4.9247,-0.19812,-10.392,92.397,2.6018,-0.86726,-1.8589,3.469,-5.711e-13,-0.92943,0,0,0.125,-0,-0,0.66667
0.0075483,0.74472,0.060387,0.36707,31.159,461.21,-0.05911,0.019703,-1.5194,-0.078814,-3.7692e-07,-0.75968,0,0,0.125,4.6259e-18,0,0.66667
0.98621,0.73741,7.8896,0.35612,0.67172,0.73031,-7.4923,2.4974,-1.5499,-9.9898,3.5192e-08,-0.77495,0,0,0.125,1.1842e-15,0,0.66667
0.48892,0.69282,3.9113,0.28922,18.637,153.88,-3.0167,1.0056,-1.7019,-4.0223,-5.4734e-13,-0.85096,0,0,0.125,-1.1842e-15,0,0.66667
0.30402,0.41774,2.4322,-0.12339,-9.4857,261.86,0.80025,-0.26675,-1.9437,1.067,-2.3035e-12,-0.97186,0,0,0.125,-0,-0,0.66667
0.66508,0.70055,5.3206,0.30082,14.168,72.038,-4.2681,1.4227,-1.6761,-5.6908,-4.0865e-12,-0.83804,0,0,0.125,1.1842e-15,0,0.66667
0.28556,0.65862,2.2845,0.23793,18.523,273.62,-1.4495,0.48316,-1.7987,-1.9326,5.1307e-12,-0.89934,0,0,0.125,-0,-0,0.66667
0.46354,0.45538,3.7084,-0.066924,-4.445,167.42,0.66181,-0.2206,-1.9824,0.88241,-6.1889e-13,-0.99119,0,0,0.125,-5.9212e-16,0,0.66667
0.65182,0.80568,5.2146,0.45852,22.335,77.587,-6.3759,2.1253,-1.2517,-8.5012,-2.1236e-12,-0.62585,0,0,0.125,-0,-0,0.66667
0.12188,0.20821,0.97506,-0.43769,-36.627,382.35,1.1381,-0.37936,-1.3186,1.5174,8.3655e-09,-0.6593,0,0,0.125,-0,-0,0.66667
0.46722,0.709,3.7378,0.3135,20.761,165.56,-3.1248,1.0416,-1.6519,-4.1664,-4.1078e-14,-0.82593,0,0,0.125,-0,-0,0.66667
0.73521,0.73287,5.8816,0.3493,13.536,46.961,-5.4786,1.8262,-1.5681,-7.3047,-1.5848e-11,-0.78403,0,0,0.125,-1.1842e-15,0,0.66667
0.96052,0.8993,7.6841,0.59895,3.8296,2.7228,-12.273,4.091,-0.72272,-16.364,2.7272e-06,-0.36136,0,0,0.125,-1.7764e-15,0,0.66667
0.021389,0.63735,0.17112,0.20602,17.461,451.61,-0.094009,0.031336,-1.8472,-0.12535,8.0504e-08,-0.92361,0,0,0.125,-3.7007e-17,0,0.66667
0.83248,0.66735,6.6598,0.25102,6.4456,20.173,-4.458,1.486,-1.7748,-5.944,1.2936e-09,-0.88741,0,0,0.125,-0,-0,0.66667
0.93915,0.50438,7.5132,0.00657,0.062321,3.1665,-0.13163,0.043876,-2.0017,-0.17551,-7.0852e-07,-1.0008,0,0,0.125,-0,-0,0.66667
0.98582,0.81944,7.8865,0.47916,0.98611,1.1021,-10.077,3.359,-1.1853,-13.436,-8.4901e-08,-0.59267,0,0,0.125,-0,-0,0.66667
0.93783,0.14503,7.5027,-0.53245,-5.3197,4.2337,10.653,-3.5509,-0.99459,14.204,-9.0469e-08,-0.49729,0,0,0.125,-0,-0,0.66667
0.12925,0.31695,1.034,-0.27458,-22.901,377.27,0.75712,-0.25237,-1.7316,1.0095,7.6065e-09,-0.86579,0,0,0.125,-2.9606e-16,0,0.66667
0.88602,0.45458,7.0882,-0.068132,-1.2104,9.8382,1.2878,-0.42927,-1.9821,1.7171,-5.9035e-09,-0.99104,0,0,0.125,-1.1842e-15,0,0.66667
0.15286,0.39646,1.2229,-0.15531,-12.857,361.18,0.50648,-0.16883,-1.9138,0.6753,2.6701e-09,-0.95692,0,0,0.125,1.4803e-16,0,0.66667
0.36052,0.3097,2.8841,-0.28545,-21.05,227.01,2.1954,-0.73181,-1.7129,2.9272,-1.495e-12,-0.85646,0,0,0.125,-7.4015e-16,0,0.66667
0.36116,0.066237,2.8893,-0.65064,-48.186,227.06,5.0131,-1.671,-0.49658,6.6841,-1.5645e-12,-0.24829,0,0,0.125,-0,-0,0.66667
0.27979,0.66117,2.2383,0.24175,18.888,277.32,-1.4429,0.48098,-1.7941,-1.9239,6.5535e-12,-0.89707,0,0,0.125,-0,-0,0.66667
0.3548,0.85379,2.8384,0.53068,39.43,230.73,-4.0168,1.3389,-0.99748,-5.3558,2.1063e-12,-0.49874,0,0,0.125,-0,-0,0.66667
0.543,0.856,4.344,0.53399,31.978,126.58,-6.1858,2.0619,-0.98523,-8.2477,3.6815e-13,-0.49262,0,0,0.125,-0,-0,0.66667
0.078517,0.23343,0.62814,-0.39986,-33.744,412.11,0.66977,-0.22326,-1.4339,0.89303,5.2078e-08,-0.71696,0,0,0.125,-0,-0,0.66667
0.37287,0.14908,2.983,-0.52638,-38.517,219.84,4.1871,-1.3957,-1.0158,5.5828,4.6274e-13,-0.5079,0,0,0.125,-0,-0,0.66667
0.58322,0.82772,4.6658,0.49158,27.516,107.33,-6.1163,2.0388,-1.1391,-8.1551,-9.1482e-14,-0.56955,0,0,0.125,-0,-0,0.66667
0.13425,0.012047,1.074,-0.73193,-61.312,374.08,2.0962,-0.69874,-0.093178,2.795,1.1395e-08,-0.046589,0,0,0.125,-0,-0,0.66667
0.24299,0.89676,1.9439,0.59514,47.658,301.38,-3.085,1.0283,-0.73868,-4.1134,3.6499e-11,-0.36934,0,0,0.125,-0,-0,0.66667
0.31278,0.075172,2.5022,-0.63724,-48.955,256.79,4.2521,-1.4174,-0.55877,5.6694,-1.4491e-12,-0.27939,0,0,0.125,5.9212e-16,0,0.66667
0.074534,0.26455,0.59627,-0.35318,-29.81,414.85,0.56157,-0.18719,-1.5557,0.74876,4.8789e-08,-0.77786,0,0,0.125,-0,-0,0.66667
0.80769,0.34351,6.4615,-0.23473,-6.8398,25.966,4.0446,-1.3482,-1.8042,5.3929,-3.4903e-10,-0.9021,0,0,0.125,-1.4803e-15,0,0.66667
0.2634,0.12764,2.1072,-0.55854,-44.21,288.1,3.1385,-1.0462,-0.89233,4.1847,-3.5733e-11,-0.44617,0,0,0.125,-0,-1.2406e-16,0.66667
0.4106,0.45806,3.2848,-0.062905,-4.4265,197.25,0.55102,-0.18367,-1.9848,0.73469,-1.5364e-12,-0.99241,0,0,0.125,-0,-0,0.66667
0.40541,0.83519,3.2433,0.50278,35.691,200.61,-4.3485,1.4495,-1.1034,-5.798,1.5197e-12,-0.55169,0,0,0.125,2.9606e-16,0,0.66667
0.30474,0.99385,2.4379,0.74077,57.332,261.99,-4.8158,1.6053,-0.047253,-6.421,6.608e-13,-0.023627,0,0,0.125,5.9212e-16,0,0.66667
0.12774,0.27162,1.0219,-0.34257,-28.598,378.32,0.93354,-0.31118,-1.5829,1.2447,8.3506e-09,-0.79144,0,0,0.125,-1.4803e-16,0,0.66667
0.89356,0.27205,7.1485,-0.34193,-5.7229,9.0376,6.5181,-2.1727,-1.5843,8.6908,-1.8987e-08,-0.79215,0,0,0.125,-1.1842e-15,0,0.66667
0.68139,0.3169,5.4512,-0.27465,-12.416,65.731,3.9924,-1.3308,-1.7306,5.3231,3.6788e-12,-0.86531,0,0,0.125,-0,-0,0.66667
0.26689,0.1912,2.1351,-0.46321,-36.544,285.75,2.6373,-0.87912,-1.2395,3.5165,-1.746e-11,-0.61973,0,0,0.125,-0,-0,0.66667
0.092431,0.84151,0.73945,0.51226,43.18,402.56,-1.0101,0.3367,-1.0695,-1.3468,3.006e-09,-0.53476,0,0,0.125,2.3091e-16,0,0.66667
0.1235,0.73021,0.98796,0.34532,28.859,381.22,-0.90976,0.30325,-1.5772,-1.213,-9.8355e-09,-0.78862,0,0,0.125,-0,-0,0.66667
0.27644,0.3347,2.2115,-0.24795,-19.412,279.46,1.4622,-0.48741,-1.7802,1.9496,-1.1763e-11,-0.89009,0,0,0.125,-0,-0,0.66667
0.049043,0.94023,0.39235,0.66035,56.128,432.51,-0.6909,0.2303,-0.45112,-0.9212,-9.3415e-07,-0.22556,0,0,0.125,-0,-0,0.66667
0.14515,0.37122,1.1612,-0.19317,-16.031,366.43,0.59813,-0.19938,-1.8669,0.79751,3.1247e-09,-0.93347,0,0,0.125,3.7007e-16,0,0.66667
0.47503,0.7379,3.8002,0.35685,23.419,161.38,-3.6163,1.2054,-1.5452,-4.8217,9.4058e-13,-0.77261,0,0,0.125,-0,-0,0.66667
0.93598,0.14027,7.4878,-0.5396,-5.5552,4.4329,10.774,-3.5915,-0.96581,14.366,-1.0787e-07,-0.4829,0,0,0.125,-0,3.8725e-17,0.66667
0.43407,0.47495,3.4726,-0.037572,-2.5802,183.81,0.34792,-0.11597,-1.9949,0.4639,2.4475e-13,-0.99747,0,0,0.125,-0,-0,0.66667
0.70914,0.71212,5.6731,0.31818,13.345,55.705,-4.8135,1.6045,-1.6386,-6.418,-9.2251e-12,-0.81929,0,0,0.125,5.9212e-16,0,0.66667
0.57031,0.50896,4.5624,0.01344,0.76604,112.86,-0.16352,0.054508,-1.9974,-0.21803,-4.9852e-12,-0.99868,0,0,0.125,2.3685e-15,0,0.66667
0.97624,0.55261,7.81,0.078916,0.27063,0.67304,-1.6435,0.54785,-1.9758,-2.1914,1.7164e-07,-0.9879,0,0,0.125,-0,-0,0.66667
0.17821,0.58353,1.4257,0.1253,10.281,344.06,-0.47636,0.15879,-1.9423,-0.63514,-5.3745e-10,-0.97113,0,0,0.125,-1.4803e-16,0,0.66667
0.73911,0.70115,5.9128,0.30173,11.535,45.621,-4.7575,1.5858,-1.6748,-6.3433,-1.4474e-11,-0.83742,0,0,0.125,-1.1842e-15,0,0.66667
0.35041,0.64576,2.8033,0.21864,16.25,233.11,-1.6344,0.5448,-1.828,-2.1792,-9.6634e-13,-0.91401,0,0,0.125,-0,-0,0.66667
0.99121,0.38334,7.9297,-0.17499,-0.16478,0.26007,3.7004,-1.2335,-1.8893,4.9339,-9.1301e-08,-0.94463,0,0,0.125,-0,-0,0.66667
0.35281,0.13027,2.8225,-0.55459,-41.287,231.97,4.1742,-1.3914,-0.905,5.5656,-5.2141e-12,-0.4525,0,0,0.125,-0,-0,0.66667
0.97878,0.15083,7.8303,-0.52375,-1.7198,1.5003,10.936,-3.6454,-1.0235,14.582,1.867e-06,-0.51175,0,0,0.125,-0,-0,0.66667
0.86037,0.64047,6.883,0.2107,4.5572,14.408,-3.8673,1.2891,-1.8438,-5.1564,4.6267e-09,-0.92191,0,0,0.125,-0,-0,0.66667
0.59774,0.91003,4.7819,0.61505,33.615,101.02,-7.843,2.6143,-0.6549,-10.457,-1.354e-12,-0.32745,0,0,0.125,-0,-0,0.66667
0.027448,0.32369,0.21958,-0.26446,-22.415,447.41,0.15486,-0.051619,-1.7505,0.20648,-1.6757e-07,-0.87527,0,0,0.125,-0,-0,0.66667
0.18553,0.038911,1.4843,-0.69163,-56.927,339.45,2.7375,-0.9125,-0.30023,3.65,1.4082e-09,-0.15011,0,0,0.125,-0,-1.0957e-16,0.66667
0.056512,0.027569,0.45209,-0.70865,-60.234,427.37,0.85433,-0.28478,-0.21345,1.1391,-7.7642e-06,-0.10672,0,0,0.125,-1.1102e-16,0,0.66667
0.79246,0.66157,6.3397,0.24235,7.5667,29.887,-4.0972,1.3657,-1.7906,-5.4629,1.4142e-10,-0.8953,0,0,0.125,-0,-0,0.66667
0.073951,0.96627,0.59161,0.69941,59.303,415.34,-1.1034,0.3678,-0.26077,-1.4712,-3.4716e-06,-0.13038,0,0,0.125,-7.4015e-17,1.2547e-16,0.66667
0.78646,0.98878,6.2917,0.73317,23.848,32.837,-12.301,4.1003,-0.087179,-16.401,1.1428e-10,-0.04359,0,0,0.125,1.1842e-15,0,0.66667
0.027952,0.91755,0.22361,0.62633,53.294,447.09,-0.37348,0.1245,-0.60477,-0.49798,7.968e-06,-0.30239,0,0,0.125,-0,-0,0.66667
0.25521,0.65201,2.0417,0.22802,18.07,293.16,-1.2414,0.41381,-1.8143,-1.6552,1.182e-11,-0.90716,0,0,0.125,2.9606e-16,0,0.66667
0.29758,0.77834,2.3807,0.41751,32.305,266.1,-2.6506,0.88352,-1.3833,-3.5341,5.3195e-12,-0.69167,0,0,0.125,-0,-0,0.66667
0.56461,0.38915,4.5169,-0.16628,-9.5737,115.62,2.0028,-0.66761,-1.9022,2.6704,-1.8163e-12,-0.95109,0,0,0.125,1.1842e-15,0,0.66667
0.56206,0.93534,4.4965,0.653,38.027,117.63,-7.8299,2.61,-0.48747,-10.44,8.1357e-13,-0.24373,0,0,0.125,-5.9212e-16,3.8178e-17,0.66667
0.8874,0.7612,7.0992,0.3918,6.9391,10.091,-7.4173,2.4724,-1.4538,-9.8897,1.4522e-08,-0.72691,0,0,0.125,-0,-0,0.66667
0.63738,0.98187,5.099,0.7228,36.592,84.21,-9.8282,3.2761,-0.14196,-13.104,-7.8426e-13,-0.07098,0,0,0.125,1.1842e-15,0,0.66667
0.16146,0.39915,1.2917,-0.15127,-12.487,355.36,0.52106,-0.17369,-1.9174,0.69475,1.171e-09,-0.95871,0,0,0.125,9.5605e-17,0,0.66667
0.026995,0.37125,0.21596,-0.19313,-16.363,447.72,0.11122,-0.037074,-1.8671,0.1483,-1.2243e-07,-0.93357,0,0,0.125,-9.2519e-18,0,0.66667
0.76198,0.9189,6.0959,0.62835,22.378,39.373,-10.214,3.4048,-0.59541,-13.619,1.9051e-12,-0.29771,0,0,0.125,1.1842e-15,2.4262e-17,0.66667
0.53557,0.25423,4.2846,-0.36866,-22.272,129.98,4.2121,-1.404,-1.5164,5.6161,-1.0201e-12,-0.75821,0,0,0.125,-0,-0,0.66667
0.57863,0.89551,4.629,0.59327,33.546,109.68,-7.3234,2.4411,-0.75098,-9.7645,-5.5955e-13,-0.37549,0,0,0.125,5.9212e-16,0,0.66667
0.41411,0.023823,3.3128,-0.71427,-50.46,195.97,6.31,-2.1033,-0.18421,8.4133,-4.5239e-12,-0.092103,0,0,0.125,5.9212e-16,0,0.66667
0.58982,0.11237,4.7185,-0.58144,-32.22,104.51,7.3161,-2.4387,-0.797,9.7548,3.9524e-14,-0.3985,0,0,0.125,5.9212e-16,0,0.66667
0.40563,0.5458,3.2451,0.068703,4.8583,200.13,-0.59452,0.19817,-1.9853,-0.7927,5.6177e-13,-0.99267,0,0,0.125,-0,-0,0.66667
0.44569,0.43046,3.5655,-0.10431,-7.0733,177.3,0.99179,-0.3306,-1.9595,1.3224,1.0952e-13,-0.97977,0,0,0.125,-2.9606e-16,0,0.66667
0.59274,0.62907,4.7419,0.19361,10.611,102.55,-2.4482,0.81607,-1.8693,-3.2643,-1.3147e-12,-0.93465,0,0,0.125,-0,-0,0.66667
0.49234,0.31065,3.9388,-0.28402,-18.219,152.06,2.9832,-0.99438,-1.7122,3.9775,7.6916e-13,-0.85611,0,0,0.125,6.6613e-16,0,0.66667
0.059103,0.71322,0.47283,0.31983,27.044,425.49,-0.40327,0.13442,-1.6364,-0.53769,-5.825e-10,-0.81818,0,0,0.125,1.1102e-16,0,0.66667
0.97679,0.42932,7.8143,-0.10602,-0.35448,0.667,2.2093,-0.73642,-1.9581,2.9457,3.2317e-07,-0.97906,0,0,0.125,1.1842e-15,0,0.66667
0.85514,0.54424,6.8411,0.066367,1.4836,15.289,-1.2107,0.40358,-1.9832,-1.6143,1.6808e-09,-0.99159,0,0,0.125,-0,-0,0.66667
0.37909,0.50191,3.0327,0.0028618,0.20744,215.76,-0.023144,0.0077146,-2.0002,-0.030858,7.8433e-13,-1.0001,0,0,0.125,-0,-0,0.66667
0.54652,0.047108,4.3722,-0.67934,-40.584,125.2,7.9205,-2.6402,-0.36156,10.561,1.7764e-13,-0.18078,0,0,0.125,-1.1842e-15,0,0.66667
0.93287,0.63826,7.463,0.20739,2.1844,3.9106,-4.1274,1.3758,-1.8457,-5.5032,5.2099e-09,-0.92283,0,0,0.125,2.3685e-15,0,0.66667
0.39797,0.71966,3.1837,0.32949,23.508,204.75,-2.7973,0.93244,-1.6132,-3.7298,-2.0945e-12,-0.80662,0,0,0.125,1.1842e-15,0,0.66667
0.94477,0.71087,7.5582,0.3163,2.7473,3.0058,-6.3751,2.125,-1.6424,-8.5001,-2.0108e-08,-0.82121,0,0,0.125,5.9212e-16,0,0.66667
0.030486,0.42722,0.24389,-0.10918,-9.2454,445.29,0.071005,-0.023669,-1.9598,0.094674,-2.2474e-07,-0.97988,0,0,0.125,-3.7007e-17,0,0.66667
0.7458,0.91331,5.9664,0.61997,23.363,44.275,-9.864,3.288,-0.63269,-13.152,-6.9189e-12,-0.31635,0,0,0.125,-0,-0,0.66667
0.79701,0.45601,6.3761,-0.06599,-2.0159,28.54,1.122,-0.37401,-1.9873,1.496,-6.5229e-11,-0.99365,0,0,0.125,-0,-0,0.66667
0.19384,0.65975,1.5507,0.23962,19.554,333.62,-0.99087,0.33029,-1.7948,-1.3212,-3.0775e-10,-0.89738,0,0,0.125,-5.9212e-16,0,0.66667
0.16287,0.049645,1.3029,-0.67553,-56.042,354.66,2.3471,-0.78238,-0.37531,3.1295,-3.6514e-09,-0.18766,0,0,0.125,-2.9606e-16,0,0.66667
0.59108,0.052066,4.7286,-0.6719,-37.227,104.18,8.4724,-2.8241,-0.39498,11.297,1.2461e-12,-0.19749,0,0,0.125,5.9212e-16,-1.3169e-16,0.66667
0.47969,0.053234,3.8375,-0.67015,-43.948,159.42,6.8579,-2.286,-0.40202,9.1439,-2.7756e-13,-0.20101,0,0,0.125,-5.9212e-16,1.3014e-17,0.66667
0.58654,0.50702,4.6923,0.010534,0.5835,105.3,-0.13181,0.043937,-1.9978,-0.17575,3.5527e-14,-0.99892,0,0,0.125,-0,-0,0.66667
0.13227,0.082697,1.0582,-0.62595,-52.369,375.36,1.7663,-0.58877,-0.60473,2.3551,-6.0685e-09,-0.30237,0,0,0.125,1.4803e-16,0,0.66667
0.27774,0.69664,2.2219,0.29496,23.083,278.66,-1.7476,0.58255,-1.6902,-2.3302,1.1132e-11,-0.84512,0,0,0.125,5.9212e-16,0,0.66667
0.069672,0.33608,0.55738,-0.24588,-20.752,418.18,0.36546,-0.12182,-1.7832,0.48727,9.5606e-09,-0.89161,0,0,0.125,-0,-0,0.66667
0.108,0.11412,0.86397,-0.57882,-48.68,391.91,1.3336,-0.44452,-0.81016,1.7781,4.479e-09,-0.40508,0,0,0.125,1.4803e-16,0,0.66667
0.71638,0.17926,5.731,-0.48111,-19.821,53.527,7.3527,-2.4509,-1.1776,9.8036,7.3133e-12,-0.5888,0,0,0.125,-5.9212e-16,0,0.66667
0.026402,0.13146,0.21122,-0.5528,-46.992,448.15,0.31136,-0.10379,-0.91248,0.41515,-2.5227e-06,-0.45624,0,0,0.125,-0,-0,0.66667
0.53965,0.9154,4.3172,0.6231,37.574,128.43,-7.1735,2.3912,-0.61754,-9.5647,1.485e-12,-0.30877,0,0,0.125,-1.1842e-15,0,0.66667
0.29866,0.76246,2.3893,0.39369,30.431,265.4,-2.5084,0.83612,-1.4498,-3.3445,5.8555e-12,-0.7249,0,0,0.125,-0,-0,0.66667
0.8685,0.39235,6.948,-0.16147,-3.2957,12.859,2.9917,-0.99722,-1.9052,3.9889,-4.1229e-09,-0.95258,0,0,0.125,-0,-0,0.66667
0.54504,0.88012,4.3603,0.57018,34.061,125.66,-6.6298,2.2099,-0.84557,-8.8397,8.6064e-13,-0.42279,0,0,0.125,-0,1.8463e-16,0.66667
0.99755,0.020554,7.9804,-0.71917,-0.26681,1.8664,15.305,-5.1015,-0.1613,20.406,5.1317e-05,-0.08065,0,0,0.125,-0,-3.9989e-16,0.66667
0.56108,0.72499,4.4886,0.33748,19.576,117.48,-4.0395,1.3465,-1.5968,-5.3861,1.7852e-13,-0.79842,0,0,0.125,-0,-0,0.66667
0.5621,0.31103,4.4968,-0.28346,-16.404,116.92,3.399,-1.133,-1.7181,4.5321,-9.861e-13,-0.85905,0,0,0.125,1.2583e-15,0,0.66667
0.33511,0.77139,2.6809,0.40708,30.669,242.64,-2.9102,0.97007,-1.4088,-3.8803,9.7033e-13,-0.70438,0,0,0.125,-2.9606e-16,0,0.66667
0.25232,0.21904,2.0186,-0.42145,-33.505,295.15,2.2686,-0.75621,-1.3704,3.0248,-1.9897e-11,-0.68519,0,0,0.125,-0,-0,0.66667
0.42737,0.8209,3.419,0.48135,33.408,187.96,-4.3886,1.4629,-1.1747,-5.8515,1.485e-12,-0.58734,0,0,0.125,-0,-0,0.66667
0.22718,0.12757,1.8174,-0.55865,-45.066,311.7,2.7075,-0.90249,-0.88926,3.6099,-1.8829e-10,-0.44463,0,0,0.125,5.9212e-16,0,0.66667
0.070876,0.2131,0.56701,-0.43035,-36.371,417.38,0.65071,-0.2169,-1.3399,0.86761,8.719e-08,-0.66996,0,0,0.125,-3.7007e-17,0,0.66667
0.42505,0.76592,3.4004,0.39888,27.721,189.17,-3.617,1.2057,-1.4338,-4.8226,1.3753e-12,-0.71691,0,0,0.125,-0,-0,0.66667
0.10642,0.55692,0.85134,0.085385,7.1545,392.87,-0.19384,0.064615,-1.9745,-0.25846,-1.6505e-08,-0.98724,0,0,0.125,1.4803e-16,0,0.66667
0.72312,0.39708,5.785,-0.15438,-6.1989,50.704,2.3816,-0.79385,-1.9143,3.1754,6.8705e-12,-0.95713,0,0,0.125,5.9212e-16,0,0.66667
0.29839,0.56864,2.3872,0.10296,7.9444,265.42,-0.65539,0.21846,-1.964,-0.87386,-9.7367e-14,-0.98201,0,0,0.125,-5.9212e-16,0,0.66667
0.49036,0.24559,3.9229,-0.38162,-24.57,153.22,3.9921,-1.3307,-1.481,5.3229,5.8398e-13,-0.74052,0,0,0.125,-3.0177e-16,0,0.66667
0.19558,0.42938,1.5647,-0.10593,-8.6327,332.42,0.44197,-0.14732,-1.9582,0.5893,2.5106e-10,-0.9791,0,0,0.125,-2.9606e-16,0,0.66667
0.68083,0.02707,5.4466,-0.7094,-32.432,66.981,10.303,-3.4345,-0.20942,13.738,-1.0658e-14,-0.10471,0,0,0.125,-1.1842e-15,0,0.66667
0.83083,0.60977,6.6466,0.16466,4.2605,20.433,-2.9184,0.97281,-1.9035,-3.8913,9.368e-10,-0.95176,0,0,0.125,-0,-0,0.66667
0.22041,0.50139,1.7633,0.0020806,0.1677,315.92,-0.0097829,0.003261,-2.0023,-0.013044,3.1483e-11,-1.0012,0,0,0.125,-0,-0,0.66667
0.0078087,0.61138,0.062469,0.16707,14.163,461.03,-0.027831,0.0092769,-1.8985,-0.037108,-1.009e-07,-0.94924,0,0,0.125,-9.2519e-18,0,0.66667
0.2509,0.1504,2.0072,-0.5244,-41.776,296.16,2.8069,-0.93564,-1.0247,3.7426,-2.8906e-11,-0.51233,0,0,0.125,-0,-0,0.66667
0.62764,0.88734,5.0211,0.58102,29.914,87.88,-7.7796,2.5932,-0.79977,-10.373,-1.9225e-12,-0.39989,0,0,0.125,1.1842e-15,0,0.66667
0.31082,0.28871,2.4865,-0.31694,-24.281,257.68,2.1015,-0.70051,-1.6442,2.8021,-2.647e-12,-0.82211,0,0,0.125,-0,-0,0.66667
0.83621,0.88998,6.6896,0.58498,14.88,20.189,-10.435,3.4785,-0.781,-13.914,2.6028e-09,-0.3905,0,0,0.125,-1.1842e-15,0,0.66667
0.85274,0.33432,6.8219,-0.24851,-5.6568,15.934,4.5209,-1.507,-1.7785,6.0279,-3.6391e-09,-0.88925,0,0,0.125,-0,-0,0.66667
0.37174,0.67645,2.9739,0.26467,19.329,220.24,-2.099,0.69965,-1.7505,-2.7986,4.5963e-14,-0.87527,0,0,0.125,-0,-0,0.66667
0.36533,0.17567,2.9227,-0.48649,-35.808,224.31,3.7916,-1.2639,-1.1566,5.0555,1.2186e-12,-0.5783,0,0,0.125,-0,-0,0.66667
0.016563,0.1602,0.1325,-0.5097,-43.322,454.97,0.18009,-0.060032,-1.079,0.24012,-6.7818e-07,-0.53949,0,0,0.125,-0,-0,0.66667
0.54968,0.67011,4.3974,0.25516,15.063,122.89,-2.9922,0.99739,-1.7684,-3.9896,-6.2617e-13,-0.88418,0,0,0.125,-0,-0,0.66667
0.15427,0.22486,1.2342,-0.4127,-34.211,360.31,1.3582,-0.45275,-1.3956,1.811,1.9731e-09,-0.69782,0,0,0.125,-0,-0,0.66667
0.11268,0.77965,0.90144,0.41948,35.173,388.64,-1.0084,0.33612,-1.3752,-1.3445,-1.4045e-08,-0.68758,0,0,0.125,-0,-0,0.66667
0.053338,0.17701,0.42671,-0.48449,-41.061,429.51,0.55129,-0.18376,-1.1634,0.73506,5.2285e-08,-0.58172,0,0,0.125,-0,-0,0.66667
0.17928,0.97401,1.4343,0.71102,58.681,343.65,-2.7195,0.90648,-0.20095,-3.6259,-5.4818e-10,-0.10048,0,0,0.125,-0,-0,0.66667
0.15593,0.26048,1.2474,-0.35928,-29.752,359.16,1.1952,-0.39838,-1.5437,1.5935,2.4541e-09,-0.77186,0,0,0.125,-0,-0,0.66667
0.03549,0.11481,0.28392,-0.57778,-49.105,441.87,0.43745,-0.14582,-0.81204,0.58327,6.3229e-07,-0.40602,0,0,0.125,-0,-0,0.66667
0.98243,0.08499,7.8595,-0.62252,-1.737,1.7622,13.047,-4.349,-0.62308,17.396,5.0244e-07,-0.31154,0,0,0.125,-1.1842e-15,-1.1946e-16,0.66667
0.6583,0.74969,5.2664,0.37453,17.946,74.828,-5.2598,1.7533,-1.5034,-7.0131,-2.8861e-12,-0.75171,0,0,0.125,-3.1456e-16,0,0.66667
0.38699,0.55282,3.096,0.07923,5.7027,211.07,-0.65412,0.21804,-1.9771,-0.87215,-1.0439e-12,-0.98856,0,0,0.125,-0,-0,0.66667
0.062485,0.063575,0.49988,-0.65464,-55.553,423.23,0.87265,-0.29088,-0.48063,1.1635,1.4546e-07,-0.24031,0,0,0.125,-0,1.9664e-17,0.66667
0.047245,0.75793,0.37796,0.38689,32.776,433.71,-0.38995,0.12998,-1.4706,-0.51993,3.7553e-08,-0.73531,0,0,0.125,-0,-0,0.66667
0.80495,0.90286,6.4396,0.60428,18.03,27.538,-10.377,3.459,-0.7004,-13.836,1.1108e-09,-0.3502,0,0,0.125,-0,-0,0.66667
0.42278,0.45365,3.3822,-0.069521,-4.8319,190.24,0.62703,-0.20901,-1.9846,0.83605,-1.133e-12,-0.99229,0,0,0.125,5.9212e-16,0,0.66667
0.10826,0.93002,0.86608,0.64504,54.3,391.76,-1.4897,0.49658,-0.52263,-1.9863,1.6849e-07,-0.26131,0,0,0.125,-0,-1.0777e-16,0.66667
0.16703,0.48184,1.3363,-0.027247,-2.2443,351.58,0.09709,-0.032363,-1.9959,0.12945,3.117e-10,-0.99793,0,0,0.125,-2.9606e-16,0,0.66667
0.68019,0.93436,5.4416,0.65155,29.782,67.028,-9.4545,3.1515,-0.48943,-12.606,7.4607e-13,-0.24472,0,0,0.125,-1.1842e-15,0,0.66667
0.42723,0.51986,3.4179,0.029795,2.0611,187.69,-0.27156,0.09052,-1.9952,-0.36208,-1.3997e-12,-0.99759,0,0,0.125,-0,-0,0.66667
0.096808,0.74691,0.77447,0.37036,31.144,399.51,-0.76488,0.25496,-1.513,-1.0198,-2.6222e-08,-0.75651,0,0,0.125,1.8504e-16,0,0.66667
0.39201,0.345,3.1361,-0.2325,-16.668,208.17,1.9443,-0.64812,-1.8105,2.5925,1.2246e-13,-0.90524,0,0,0.125,-0,-0,0.66667
0.044756,0.050428,0.35805,-0.67436,-57.355,435.48,0.64387,-0.21462,-0.38363,0.85849,8.2149e-06,-0.19181,0,0,0.125,-0,-0,0.66667
0.27103,0.50175,2.1682,0.00262,0.20562,282.88,-0.015149,0.0050496,-1.9995,-0.020198,-1.3928e-12,-0.99976,0,0,0.125,-0,-0,0.66667
0.50308,0.93003,4.0246,0.64504,41.014,147.02,-6.9228,2.3076,-0.52069,-9.2304,7.1054e-15,-0.26035,0,0,0.125,-8.8818e-16,0,0.66667
0.45748,0.73319,3.6598,0.34979,23.442,170.94,-3.4138,1.1379,-1.5637,-4.5517,-1.9251e-13,-0.78184,0,0,0.125,-5.9212e-16,0,0.66667
0.76863,0.51012,6.1491,0.015173,0.52098,36.348,-0.2488,0.082935,-1.9991,-0.33174,1.7687e-11,-0.99953,0,0,0.125,-0,-0,0.66667
0.16023,0.065735,1.2818,-0.6514,-54.065,356.42,2.2266,-0.74221,-0.49133,2.9689,2.0971e-10,-0.24567,0,0,0.125,-5.9212e-16,0,0.66667
0.51004,0.47306,4.0804,-0.040405,-2.5274,142.67,0.43964,-0.14655,-1.9932,0.58619,-1.2638e-12,-0.99661,0,0,0.125,1.1842e-15,0,0.66667
0.14153,0.57578,1.1322,0.11367,9.4404,368.88,-0.34318,0.11439,-1.9559,-0.45758,-2.7241e-09,-0.97794,0,0,0.125,-0,-0,0.66667
0.18937,0.87093,1.515,0.55639,45.63,336.78,-2.2477,0.74925,-0.90095,-2.997,-4.3537e-10,-0.45048,0,0,0.125,-3.7007e-16,0,0.66667
0.4099,0.99863,3.2792,0.74795,53.099,198.46,-6.5404,2.1801,-0.011533,-8.7206,9.9476e-14,-0.0057665,0,0,0.125,-2.9606e-16,0,0.66667
0.14586,0.053295,1.1669,-0.67006,-55.883,366.15,2.085,-0.69501,-0.40219,2.7801,5.4414e-09,-0.20109,0,0,0.125,-0,-0,0.66667
0.56233,0.039981,4.4986,-0.69003,-40.201,117.6,8.2778,-2.7593,-0.31007,11.037,-1.4717e-12,-0.15503,0,0,0.125,1.1842e-15,0,0.66667
0.45523,0.75448,3.6419,0.38172,25.658,172.22,-3.7071,1.2357,-1.4833,-4.9428,-1.7342e-13,-0.74164,0,0,0.125,-0,-0,0.66667
0.9421,0.96945,7.5368,0.70417,6.7085,4.5618,-14.152,4.7175,-0.23711,-18.87,-9.2326e-06,-0.11856,0,0,0.125,-0,-0,0.66667
0.66999,0.20952,5.36,-0.43573,-20.323,70.359,6.2279,-2.076,-1.3259,8.3039,1.6183e-12,-0.66297,0,0,0.125,-5.9212e-16,0,0.66667
0.10314,0.39609,0.82514,-0.15587,-13.072,395.12,0.34296,-0.11432,-1.9117,0.45729,4.8822e-09,-0.95587,0,0,0.125,-1.4803e-16,0,0.66667
0.60711,0.34802,4.8569,-0.22797,-12.162,96.144,2.9525,-0.98418,-1.8164,3.9367,-3.6993e-13,-0.90822,0,0,0.125,-0,-0,0.66667
0.42033,0.68516,3.3626,0.27774,19.373,191.75,-2.4905,0.83017,-1.728,-3.3207,5.7288e-14,-0.864,0,0,0.125,7.4015e-16,0,0.66667
0.50063,0.38817,4.0051,-0.16774,-10.633,147.61,1.7915,-0.59715,-1.9021,2.3886,-1.1284e-12,-0.95105,0,0,0.125,1.1842e-15,0,0.66667
0.65581,0.97596,5.2464,0.71395,34.682,76.686,-9.9885,3.3295,-0.19048,-13.318,-1.7941e-13,-0.095241,0,0,0.125,-0,-0,0.66667
0.18572,0.4786,1.4857,-0.032101,-2.6261,339.01,0.12719,-0.042395,-1.9974,0.16958,1.8119e-10,-0.99868,0,0,0.125,-0,-0,0.66667
0.35953,0.58538,2.8763,0.12807,9.4433,227.52,-0.9823,0.32743,-1.9447,-1.3097,1.2665e-12,-0.97237,0,0,0.125,-5.9212e-16,0,0.66667
0.48038,0.92355,3.843,0.63532,41.599,158.98,-6.5108,2.1703,-0.56382,-8.6811,-3.757e-13,-0.28191,0,0,0.125,2.3235e-17,0,0.66667
0.61478,0.10255,4.9183,-0.59617,-31.517,93.437,7.819,-2.6063,-0.73481,10.425,-1.1271e-12,-0.36741,0,0,0.125,1.1842e-15,0,0.66667
0.28556,0.84647,2.2845,0.51971,40.574,273.84,-3.166,1.0553,-1.0396,-4.2213,4.7478e-12,-0.51978,0,0,0.125,-1.1842e-15,0,0.66667
0.50277,0.28156,4.0222,-0.32766,-20.738,146.63,3.5144,-1.1715,-1.6198,4.6858,7.1032e-13,-0.80989,0,0,0.125,-1.1842e-15,0,0.66667
0.27855,0.93816,2.2284,0.65723,51.643,278.48,-3.9055,1.3018,-0.46565,-5.2073,7.9607e-12,-0.23282,0,0,0.125,-1.1842e-15,0,0.66667
0.57239,0.9367,4.5791,0.65505,37.493,112.75,-7.9988,2.6663,-0.47396,-10.665,-9.1616e-13,-0.23698,0,0,0.125,-3.3307e-16,0,0.66667
0.34229,0.29746,2.7383,-0.30381,-22.739,238.13,2.2185,-0.73949,-1.673,2.9579,-2.8573e-12,-0.83648,0,0,0.125,-0,-0,0.66667
0.83916,0.90905,6.7133,0.61358,15.37,19.659,-10.984,3.6614,-0.66115,-14.646,1.6279e-09,-0.33057,0,0,0.125,2.3685e-15,0,0.66667
0.68591,0.55116,5.4873,0.076742,3.4234,63.869,-1.123,0.37432,-1.9802,-1.4973,-2.4025e-12,-0.9901,0,0,0.125,-0,-0,0.66667
0.81613,0.50449,6.529,0.0067357,0.18801,23.75,-0.11727,0.039091,-1.9999,-0.15637,-4.5339e-10,-0.99995,0,0,0.125,-4.737e-15,0,0.66667
0.15425,0.59451,1.234,0.14176,11.729,360.24,-0.46648,0.15549,-1.9307,-0.62197,-2.929e-09,-0.96533,0,0,0.125,5.9212e-16,0,0.66667
0.18519,0.774,1.4815,0.41099,33.701,339.48,-1.6238,0.54125,-1.4002,-2.165,-3.3078e-10,-0.70009,0,0,0.125,1.4803e-16,0,0.66667
0.54259,0.58437,4.3408,0.12656,7.5486,126.27,-1.465,0.48833,-1.9421,-1.9533,1.4333e-13,-0.97104,0,0,0.125,-0,-0,0.66667
0.061398,0.40484,0.49119,-0.14274,-12.054,423.89,0.18697,-0.062322,-1.9305,0.24929,2.7692e-08,-0.96525,0,0,0.125,-8.343e-17,0,0.66667
0.53806,0.35769,4.3045,-0.21347,-12.828,128.57,2.4503,-0.81676,-1.8358,3.2671,7.625e-13,-0.91789,0,0,0.125,-0,-0,0.66667
0.336,0.87976,2.688,0.56965,42.981,242.28,-4.0832,1.3611,-0.84476,-5.4442,2.2014e-12,-0.42238,0,0,0.125,-0,-0,0.66667
0.32445,0.50967,2.5956,0.014503,1.0989,249.05,-0.10039,0.033462,-1.9987,-0.13385,-6.781e-13,-0.99933,0,0,0.125,-0,-0,0.66667
0.22985,0.82909,1.8388,0.49364,39.735,309.89,-2.4206,0.80686,-1.1322,-3.2274,-2.5418e-11,-0.56611,0,0,0.125,-0,-0,0.66667
0.0046867,0.61641,0.037494,0.17461,14.803,463.19,-0.017458,0.0058192,-1.8905,-0.023277,-1.4689e-07,-0.94524,0,0,0.125,4.6259e-18,0,0.66667
0.68707,0.89772,5.4966,0.59658,26.748,64.292,-8.7444,2.9148,-0.73727,-11.659,-1.2701e-12,-0.36863,0,0,0.125,-5.9212e-16,1.1753e-16,0.66667
0.75278,0.68346,6.0222,0.2752,10.037,41.289,-4.4195,1.4732,-1.7315,-5.8926,-1.2958e-11,-0.86576,0,0,0.125,-1.7764e-15,0,0.66667
0.33828,0.13222,2.7063,-0.55167,-41.541,240.85,3.9813,-1.3271,-0.91655,5.3084,-1.0238e-12,-0.45827,0,0,0.125,-0,-0,0.66667
0.4698,0.51337,3.7584,0.02006,1.3223,164,-0.20105,0.067016,-2.0002,-0.26806,-1.0558e-12,-1.0001,0,0,0.125,-0,-0,0.66667
0.79738,0.22182,6.3791,-0.41728,-12.8,28.923,7.0982,-2.3661,-1.3843,9.4643,-1.9873e-10,-0.69213,0,0,0.125,-0,-0,0.66667
0.64747,0.62309,5.1797,0.18463,9.0492,78.945,-2.5502,0.85008,-1.8779,-3.4003,-1.231e-12,-0.93894,0,0,0.125,-2.9606e-16,0,0.66667
0.022978,0.49389,0.18383,-0.0091693,-0.77668,450.5,0.0044947,-0.0015003,-1.998,0.0059918,-3.0922e-06,-0.99902,0,0,0.125,-5.5511e-17,0,0.66667
0.28397,0.53922,2.2718,0.05883,4.5812,274.58,-0.3564,0.1188,-1.988,-0.4752,2.299e-12,-0.994,0,0,0.125,-0,-0,0.66667
0.95439,0.38983,7.6352,-0.16526,-1.1652,2.0077,3.3647,-1.1216,-1.9042,4.4863,6.7283e-08,-0.95212,0,0,0.125,-0,-0,0.66667
0.88315,0.60933,7.0652,0.16399,2.9881,10.366,-3.0897,1.0299,-1.9021,-4.1196,9.4068e-09,-0.95104,0,0,0.125,-0,-0,0.66667
0.32522,0.93694,2.6017,0.65541,49.922,249.07,-4.5472,1.5157,-0.47401,-6.0629,4.7162e-13,-0.23701,0,0,0.125,8.5117e-16,0,0.66667
0.91063,0.54656,7.2851,0.069836,0.97714,6.3181,-1.3567,0.45223,-1.9814,-1.8089,2.0949e-08,-0.99068,0,0,0.125,-0,-0,0.66667
0.47918,0.33199,3.8334,-0.25202,-16.437,159.04,2.5762,-0.85874,-1.7726,3.4349,1.1797e-12,-0.88628,0,0,0.125,-0,-0,0.66667
0.20207,0.0064462,1.6165,-0.74033,-60.584,328.48,3.1914,-1.0638,-0.053417,4.2552,-9.3842e-11,-0.026708,0,0,0.125,-0,-9.6947e-17,0.66667
0.27145,0.14925,2.1716,-0.52613,-41.432,282.88,3.0468,-1.0156,-1.0143,4.0624,-1.0516e-11,-0.50717,0,0,0.125,-0,-0,0.66667
0.24098,0.060174,1.9279,-0.65974,-52.941,302.76,3.3917,-1.1306,-0.45148,4.5222,-6.6775e-12,-0.22574,0,0,0.125,-7.4015e-17,0,0.66667
0.055575,0.050093,0.4446,-0.67486,-57.335,428,0.80012,-0.26671,-0.3785,1.0668,-3.7763e-06,-0.18925,0,0,0.125,-0,-0,0.66667
0.43714,0.88836,3.4971,0.58254,40.076,182.61,-5.4325,1.8108,-0.79588,-7.2433,4.734e-13,-0.39794,0,0,0.125,-0,-1.4492e-16,0.66667
0.90458,0.38064,7.2367,-0.17904,-2.6779,7.2021,3.455,-1.1517,-1.8876,4.6067,-1.1511e-08,-0.94382,0,0,0.125,-0,-0,0.66667
0.52576,0.082671,4.2061,-0.62599,-38.541,135.37,7.0212,-2.3404,-0.60499,9.3616,2.113e-12,-0.3025,0,0,0.125,-0,-0,0.66667
0.54546,0.030784,4.3637,-0.70382,-42.142,125.79,8.19,-2.73,-0.24148,10.92,1.7764e-15,-0.12074,0,0,0.125,-5.9212e-16,-8.7063e-18,0.66667
0.227,0.55039,1.816,0.07558,6.0735,311.57,-0.36601,0.122,-1.9775,-0.48801,-1.5988e-11,-0.98874,0,0,0.125,-0,-0,0.66667
0.046401,0.57717,0.37121,0.11575,9.7905,434.27,-0.11458,0.038194,-1.9547,-0.15278,-6.8053e-09,-0.97733,0,0,0.125,7.4015e-17,0,0.66667
0.12581,0.61854,1.0065,0.17781,14.835,379.6,-0.47721,0.15907,-1.8901,-0.63628,-5.8044e-09,-0.94503,0,0,0.125,2.2204e-16,0,0.66667
0.21513,0.41516,1.721,-0.12727,-10.285,319.42,0.58407,-0.19469,-1.9419,0.77876,7.2923e-11,-0.97096,0,0,0.125,-0,-0,0.66667
0.87339,0.74188,6.9871,0.36282,7.1812,12.324,-6.7601,2.2534,-1.5333,-9.0135,8.7592e-09,-0.76667,0,0,0.125,-0,-0,0.66667
0.98833,0.9501,7.9066,0.67514,1.2623,1.8266,-14.235,4.745,-0.37833,-18.98,3.2417e-05,-0.18916,0,0,0.125,-0,-0,0.66667
0.017766,0.46314,0.14213,-0.055283,-4.6839,454.12,0.020953,-0.006985,-1.9903,0.027937,-9.6846e-07,-0.99514,0,0,0.125,1.8504e-17,0,0.66667
0.44331,0.1646,3.5465,-0.5031,-34.333,179.01,4.7579,-1.586,-1.0985,6.3439,-8.7175e-13,-0.54923,0,0,0.125,-0,-0,0.66667
0.3692,0.049496,2.9536,-0.67576,-49.73,222.27,5.3224,-1.7741,-0.37446,7.0965,-8.2068e-13,-0.18723,0,0,0.125,-5.9212e-16,0,0.66667
0.53646,0.41015,4.2917,-0.13478,-8.1149,129.31,1.5424,-0.51415,-1.9346,2.0566,-1.1702e-12,-0.96732,0,0,0.125,-0,-0,0.66667
0.61652,0.96458,4.9322,0.69687,36.807,92.968,-9.1655,3.0552,-0.27199,-12.221,-3.0269e-12,-0.136,0,0,0.125,1.4803e-15,0,0.66667
0.396,0.60956,3.168,0.16433,11.733,205.79,-1.3883,0.46276,-1.9022,-1.8511,-7.3397e-13,-0.95109,0,0,0.125,5.9212e-16,0,0.66667
0.18386,0.15177,1.4709,-0.52235,-42.91,340.44,2.0489,-0.68296,-1.0299,2.7318,-2.2784e-10,-0.51496,0,0,0.125,2.9606e-16,0,0.66667
0.58527,0.1641,4.6822,-0.50386,-28.106,106.41,6.2911,-2.097,-1.0955,8.3881,4.623e-13,-0.54775,0,0,0.125,-0,-0,0.66667
0.033297,0.65908,0.26637,0.23861,20.214,443.35,-0.1695,0.056499,-1.7992,-0.22599,1.1696e-07,-0.89962,0,0,0.125,-0,-0,0.66667
0.89398,0.57297,7.1518,0.10945,1.813,8.6421,-2.0874,0.6958,-1.957,-2.7832,1.5959e-08,-0.97849,0,0,0.125,-0,-0,0.66667
0.64441,0.81161,5.1553,0.46741,23.156,80.618,-6.4257,2.1419,-1.2238,-8.5677,-1.2061e-12,-0.6119,0,0,0.125,-1.4803e-15,0,0.66667
0.094544,0.090236,0.75635,-0.61465,-51.863,401.15,1.2397,-0.41324,-0.65967,1.6529,-8.1456e-09,-0.32984,0,0,0.125,-3.7007e-17,0,0.66667
0.55137,0.38788,4.411,-0.16818,-9.895,121.99,1.9782,-0.6594,-1.8981,2.6376,9.8033e-13,-0.94906,0,0,0.125,-1.1842e-15,0,0.66667
0.12897,0.86454,1.0318,0.54682,45.736,377.56,-1.5045,0.50151,-0.93599,-2.0061,-1.686e-09,-0.468,0,0,0.125,-0,-0,0.66667
0.11882,0.62957,0.95057,0.19435,16.245,384.38,-0.49265,0.16422,-1.8645,-0.65686,-6.515e-09,-0.93224,0,0,0.125,-0,-0,0.66667
0.26555,0.068562,2.1244,-0.64716,-51.233,286.81,3.6662,-1.2221,-0.51433,4.8882,4.108e-12,-0.25717,0,0,0.125,-5.9212e-16,-9.2578e-17,0.66667
0.76291,0.97716,6.1033,0.71575,25.491,39.418,-11.649,3.883,-0.17879,-15.532,-2.1185e-11,-0.089395,0,0,0.125,-0,-0,0.66667
0.69822,0.50659,5.5858,0.0098848,0.42651,59.337,-0.14724,0.049079,-1.9986,-0.19632,-1.2752e-12,-0.99932,0,0,0.125,-0,-0,0.66667
0.55885,0.20512,4.4708,-0.44233,-25.788,118.71,5.2735,-1.7578,-1.3035,7.0313,-7.7183e-13,-0.65177,0,0,0.125,-0,-0,0.66667
0.25523,0.70714,2.0418,0.31071,24.637,293.19,-1.6918,0.56393,-1.6551,-2.2557,1.2711e-11,-0.82756,0,0,0.125,-0,-0,0.66667
0.51787,0.62492,4.143,0.18738,11.599,138.71,-2.0702,0.69006,-1.8772,-2.7603,2.2435e-12,-0.93859,0,0,0.125,-1.2906e-15,0,0.66667
0.92975,0.75604,7.438,0.38405,4.2774,4.5737,-7.6176,2.5392,-1.4739,-10.157,6.3588e-08,-0.73695,0,0,0.125,-2.3685e-15,0,0.66667
0.18532,0.29997,1.4826,-0.30005,-24.578,339.34,1.1862,-0.39541,-1.6804,1.5816,5.3028e-10,-0.84019,0,0,0.125,-0,-0,0.66667
0.73421,0.71474,5.8737,0.32211,12.516,47.238,-5.0452,1.6817,-1.6347,-6.7269,-1.5542e-11,-0.81736,0,0,0.125,-0,-0,0.66667
0.87218,0.66614,6.9775,0.24921,4.9595,12.319,-4.6369,1.5456,-1.7792,-6.1826,7.6163e-09,-0.88962,0,0,0.125,-2.3685e-15,0,0.66667
0.66946,0.85609,5.3556,0.53414,24.999,70.795,-7.6285,2.5428,-0.98583,-10.171,-2.0481e-12,-0.49291,0,0,0.125,-0,-0,0.66667
0.2037,0.15554,1.6296,-0.51669,-42.103,327.2,2.2453,-0.74842,-1.0545,2.9937,2.5067e-10,-0.52726,0,0,0.125,-3.5157e-16,0,0.66667
0.12917,0.18059,1.0333,-0.47912,-40.037,377.4,1.3202,-0.44008,-1.1832,1.7603,6.1668e-09,-0.59158,0,0,0.125,-1.4803e-16,0,0.66667
0.51503,0.26628,4.1203,-0.35058,-21.821,140.32,3.8519,-1.284,-1.5651,5.1359,-2.1361e-13,-0.78257,0,0,0.125,-0,-0,0.66667
0.13031,0.5904,1.0425,0.13561,11.299,376.52,-0.37698,0.12566,-1.9339,-0.50263,-3.7446e-09,-0.96695,0,0,0.125,1.4803e-16,0,0.66667
0.8257,0.050328,6.6056,-0.67451,-18.241,22.846,11.881,-3.9605,-0.38262,15.842,1.4627e-09,-0.19131,0,0,0.125,-0,-0,0.66667
0.52364,0.82894,4.1892,0.49341,30.396,136.16,-5.5119,1.8373,-1.1321,-7.3493,1.7053e-12,-0.56604,0,0,0.125,-6.2012e-16,0,0.66667
0.29142,0.8793,2.3314,0.56895,44.286,270.16,-3.5372,1.1791,-0.84812,-4.7162,7.9141e-12,-0.42406,0,0,0.125,-0,-0,0.66667
0.56813,0.71415,4.545,0.32122,18.411,114.1,-3.8933,1.2978,-1.6321,-5.191,-5.5955e-14,-0.81604,0,0,0.125,5.9212e-16,0,0.66667
0.26064,0.35571,2.0851,-0.21643,-17.098,289.63,1.2034,-0.40113,-1.8319,1.6045,-1.6264e-11,-0.91596,0,0,0.125,-0,-0,0.66667
0.58447,0.10427,4.6758,-0.5936,-33.221,106.99,7.4014,-2.4671,-0.74524,9.8685,-1.3172e-12,-0.37262,0,0,0.125,1.1842e-15,0,0.66667
0.23212,0.012567,1.857,-0.73115,-59.009,308.64,3.6206,-1.2069,-0.099667,4.8275,-6.8164e-11,-0.049833,0,0,0.125,-0,1.4236e-16,0.66667
0.21905,0.75306,1.7524,0.37959,30.673,316.93,-1.7739,0.59129,-1.4913,-2.3651,-5.0828e-11,-0.74565,0,0,0.125,-0,-0,0.66667
0.51851,0.65488,4.148,0.23231,14.372,138.42,-2.5697,0.85657,-1.8093,-3.4263,-9.075e-13,-0.90465,0,0,0.125,2.2204e-16,0,0.66667
0.83542,0.9508,6.6833,0.67621,17.357,20.701,-12.052,4.0172,-0.37195,-16.069,-5.2707e-09,-0.18598,0,0,0.125,-0,-0,0.66667
0.64477,0.94235,5.1582,0.66352,32.997,80.979,-9.1268,3.0423,-0.43429,-12.169,5.3912e-13,-0.21715,0,0,0.125,-0,-0,0.66667
0.094191,0.083239,0.75353,-0.62514,-52.761,401.4,1.2562,-0.41872,-0.613,1.6749,3.9132e-08,-0.3065,0,0,0.125,-0,-0,0.66667
0.13407,0.96471,1.0725,0.69706,58.358,374.18,-1.9937,0.66456,-0.27116,-2.6582,-1.8762e-08,-0.13558,0,0,0.125,-1.4803e-16,0,0.66667
0.3903,0.50048,3.1224,0.00071809,0.051523,209.11,-0.0059791,0.001993,-2.0041,-0.0079722,2.2105e-12,-1.002,0,0,0.125,-0,-0,0.66667
0.31956,0.072127,2.5565,-0.64181,-49.075,252.56,4.3755,-1.4585,-0.53339,5.8339,-1.116e-12,-0.2667,0,0,0.125,-5.9212e-16,0,0.66667
0.89122,0.96181,7.1298,0.69271,12.101,10.538,-13.17,4.3901,-0.29655,-17.56,1.637e-07,-0.14828,0,0,0.125,-5.9212e-16,0,0.66667
0.89129,0.34245,7.1303,-0.23633,-4.0221,9.1841,4.4936,-1.4979,-1.8049,5.9915,-1.2643e-08,-0.90245,0,0,0.125,-2.9606e-16,0,0.66667
0.029824,0.14414,0.23859,-0.53379,-45.356,445.78,0.33963,-0.11321,-0.98815,0.45283,-1.4654e-06,-0.49408,0,0,0.125,3.7007e-17,0,0.66667
0.21052,0.79144,1.6842,0.43716,35.482,322.61,-1.9633,0.65444,-1.3184,-2.6178,-6.914e-11,-0.65921,0,0,0.125,-0,-0,0.66667
0.38835,0.20918,3.1068,-0.43623,-31.442,210.52,3.6141,-1.2047,-1.324,4.8188,1.1553e-12,-0.66199,0,0,0.125,-2.9606e-16,0,0.66667
0.17637,0.45022,1.411,-0.074676,-6.131,345.29,0.28098,-0.09366,-1.9789,0.37464,3.9609e-10,-0.98943,0,0,0.125,-0,-0,0.66667
0.91869,0.54374,7.3495,0.06561,0.8355,5.327,-1.2859,0.42862,-1.9843,-1.7145,6.932e-09,-0.99214,0,0,0.125,-0,-0,0.66667
0.1896,0.32043,1.5168,-0.26936,-22.022,336.46,1.0895,-0.36316,-1.7429,1.4527,4.3019e-10,-0.87146,0,0,0.125,-0,-0,0.66667
0.73399,0.41842,5.8719,-0.12237,-4.7471,47.078,1.9161,-0.63869,-1.9492,2.5548,8.5395e-12,-0.97462,0,0,0.125,-0,-0,0.66667
0.95692,0.78192,7.6553,0.42288,2.8742,2.3457,-8.6328,2.8776,-1.3648,-11.51,2.805e-08,-0.6824,0,0,0.125,2.3685e-15,0,0.66667
0.47772,0.45006,3.8217,-0.074904,-4.8898,159.73,0.76337,-0.25446,-1.9779,1.0178,3.087e-13,-0.98896,0,0,0.125,-0,-0,0.66667
0.81422,0.39825,6.5138,-0.15262,-4.3042,24.276,2.651,-0.88367,-1.9185,3.5347,-5.3984e-10,-0.95923,0,0,0.125,-5.9212e-16,0,0.66667
0.42822,0.80021,3.4258,0.45031,31.212,187.44,-4.1138,1.3713,-1.277,-5.485,9.8721e-13,-0.63848,0,0,0.125,-0,-0,0.66667
0.81345,0.93087,6.5076,0.6463,18.56,25.603,-11.216,3.7385,-0.51712,-14.954,1.3825e-09,-0.25856,0,0,0.125,1.1842e-15,0,0.66667
0.7617,0.55632,6.0936,0.084486,2.978,38.408,-1.3729,0.45762,-1.9742,-1.8305,1.9162e-12,-0.98711,0,0,0.125,-1.1842e-15,0,0.66667
0.9596,0.20572,7.6768,-0.44142,-2.8135,2.2216,9.0365,-3.0122,-1.3051,12.049,-4.2495e-08,-0.65255,0,0,0.125,-0,-0,0.66667
0.3366,0.22655,2.6928,-0.41017,-30.868,241.72,2.9454,-0.98179,-1.4,3.9271,-2.081e-12,-0.69999,0,0,0.125,-0,-0,0.66667
0.76659,0.68871,6.1328,0.28306,9.8181,37.161,-4.6292,1.5431,-1.7183,-6.1722,3.2339e-12,-0.85913,0,0,0.125,2.3685e-15,0,0.66667
0.92162,0.40088,7.3729,-0.14868,-1.8276,5.0453,2.9232,-0.97438,-1.9247,3.8975,5.5565e-09,-0.96235,0,0,0.125,-1.1842e-15,0,0.66667
0.81077,0.81939,6.4862,0.47909,13.843,25.709,-8.2866,2.7622,-1.1853,-11.049,3.5667e-10,-0.59264,0,0,0.125,-0,-0,0.66667
0.81434,0.89498,6.5147,0.59247,16.901,25.196,-10.293,3.4309,-0.75279,-13.724,-1.228e-09,-0.3764,0,0,0.125,-0,-0,0.66667
0.9483,0.37711,7.5864,-0.18434,-1.4835,2.4939,3.7292,-1.2431,-1.8789,4.9722,4.9701e-08,-0.93946,0,0,0.125,-2.3685e-15,0,0.66667
0.29068,0.29189,2.3255,-0.31216,-24.236,270.4,1.9358,-0.64526,-1.6516,2.5811,-1.0381e-11,-0.82581,0,0,0.125,5.9212e-16,0,0.66667
0.44015,0.95285,3.5212,0.67928,46.664,181.11,-6.3783,2.1261,-0.35936,-8.5044,7.9714e-13,-0.17968,0,0,0.125,-0,-0,0.66667
0.10606,0.80128,0.84846,0.45191,37.962,393.19,-1.0225,0.34083,-1.2734,-1.3633,-1.9045e-08,-0.63671,0,0,0.125,1.4803e-16,0,0.66667
0.87728,0.15756,7.0183,-0.51366,-9.9388,12.074,9.6133,-3.2044,-1.0636,12.818,5.4332e-09,-0.53181,0,0,0.125,-0,-0,0.66667
0.3437,0.89534,2.7496,0.59302,44.497,237.59,-4.3482,1.4494,-0.75261,-5.7975,1.2159e-12,-0.37631,0,0,0.125,-0,-0,0.66667
0.90524,0.92055,7.242,0.63083,9.6105,8.2905,-12.182,4.0608,-0.58675,-16.243,5.6618e-08,-0.29337,0,0,0.125,-0,-0,0.66667
0.20386,0.19547,1.6309,-0.45679,-37.192,327.05,1.9866,-0.66219,-1.2605,2.6488,4.7152e-11,-0.63024,0,0,0.125,-0,-0,0.66667
0.34961,0.80318,2.7968,0.45478,33.897,233.8,-3.3918,1.1306,-1.2629,-4.5225,6.3483e-13,-0.63147,0,0,0.125,-0,-0,0.66667
0.69048,0.77674,5.5238,0.41511,18.367,62.585,-6.1147,2.0382,-1.3879,-8.1529,-6.1866e-12,-0.69393,0,0,0.125,-8.8818e-16,0,0.66667
0.92271,0.56264,7.3817,0.093958,1.1376,4.8783,-1.8495,0.6165,-1.9721,-2.466,6.1953e-08,-0.98607,0,0,0.125,-0,-0,0.66667
0.68795,0.53771,5.5036,0.056569,2.5098,63.106,-0.83022,0.27674,-1.9915,-1.107,-9.5324e-13,-0.99577,0,0,0.125,-2.3685e-15,0,0.66667
0.34009,0.3772,2.7207,-0.1842,-13.8,239.41,1.3365,-0.44549,-1.8798,1.7819,-4.1789e-13,-0.93989,0,0,0.125,-0,-0,0.66667
0.040043,0.92407,0.32035,0.63611,54.09,438.73,-0.5434,0.18113,-0.55913,-0.72453,-3.7368e-06,-0.27956,0,0,0.125,-7.4015e-17,0,0.66667
0.33175,0.17309,2.654,-0.49037,-37.075,244.8,3.4705,-1.1568,-1.1442,4.6273,-3.5534e-12,-0.57212,0,0,0.125,5.9212e-16,0,0.66667
0.47616,0.25174,3.8093,-0.37238,-24.408,160.79,3.7827,-1.2609,-1.506,5.0436,-2.3519e-12,-0.753,0,0,0.125,-0,-0,0.66667
0.7304,0.22495,5.8432,-0.41258,-16.257,48.657,6.4288,-2.1429,-1.3943,8.5717,1.4361e-11,-0.69717,0,0,0.125,-0,-0,0.66667
0.89363,0.85203,7.149,0.52805,8.921,9.5418,-10.067,3.3556,-1.0086,-13.422,2.5162e-08,-0.50431,0,0,0.125,-0,-0,0.66667
0.006309,0.32109,0.050472,-0.26836,-22.763,462.07,0.03612,-0.01204,-1.7422,0.04816,2.3098e-07,-0.87108,0,0,0.125,-0,-0,0.66667
0.076734,0.73156,0.61388,0.34734,29.306,413.33,-0.5686,0.18953,-1.5723,-0.75813,-4.4266e-08,-0.78615,0,0,0.125,-0,-0,0.66667
0.28179,0.26187,2.2543,-0.3572,-27.9,276.1,2.1473,-0.71578,-1.5486,2.8631,-1.396e-11,-0.77432,0,0,0.125,5.9212e-16,0,0.66667
0.53562,0.1882,4.285,-0.46771,-28.294,130.11,5.3443,-1.7814,-1.2225,7.1257,-1.8381e-12,-0.61124,0,0,0.125,2.3685e-15,0,0.66667
0.53579,0.95077,4.2863,0.67616,41.062,130.48,-7.7286,2.5762,-0.37307,-10.305,3.384e-13,-0.18654,0,0,0.125,-0,-0,0.66667
0.42526,0.96481,3.4021,0.69721,48.68,189.55,-6.3253,2.1084,-0.27196,-8.4337,1.9682e-12,-0.13598,0,0,0.125,8.8818e-16,0,0.66667
0.88364,0.033297,7.0691,-0.70005,-13.041,11.743,13.197,-4.3989,-0.25655,17.596,7.2463e-08,-0.12828,0,0,0.125,-2.3685e-15,0,0.66667
0.72735,0.61572,5.8188,0.17358,6.8803,49.303,-2.6935,0.89783,-1.8909,-3.5913,-1.1216e-11,-0.94545,0,0,0.125,1.1842e-15,0,0.66667
0.13596,0.8092,1.0877,0.4638,38.679,372.76,-1.3453,0.44842,-1.2348,-1.7937,-2.639e-09,-0.61738,0,0,0.125,-1.8504e-16,0,0.66667
0.23514,0.12705,1.8811,-0.55942,-44.953,306.48,2.8062,-0.93539,-0.89052,3.7416,-1.0262e-10,-0.44526,0,0,0.125,-5.9212e-16,0,0.66667
0.50531,0.11181,4.0424,-0.58228,-36.866,145.73,6.2769,-2.0923,-0.79276,8.3692,2.1716e-13,-0.39638,0,0,0.125,5.9212e-16,0,0.66667
0.36252,0.11994,2.9001,-0.5701,-42.114,226.12,4.409,-1.4697,-0.84475,5.8786,5.107e-14,-0.42237,0,0,0.125,-4.4409e-16,0,0.66667
0.80862,0.54022,6.469,0.060326,1.7469,25.588,-1.0406,0.34688,-1.9864,-1.3875,1.1749e-10,-0.99319,0,0,0.125,-0,-0,0.66667
0.41934,0.064992,3.3547,-0.65251,-45.797,192.84,5.8373,-1.9458,-0.48742,7.783,-1.724e-12,-0.24371,0,0,0.125,-1.1842e-15,0,0.66667
0.94116,0.03024,7.5293,-0.70464,-6.8193,4.6452,14.148,-4.7159,-0.23527,18.864,8.8653e-06,-0.11764,0,0,0.125,-1.3323e-15,0,0.66667
0.18246,0.41005,1.4597,-0.13493,-11.055,341.21,0.52521,-0.17507,-1.9346,0.70028,6.4783e-10,-0.9673,0,0,0.125,-0,-0,0.66667
0.48279,0.038145,3.8623,-0.69278,-45.279,157.82,7.1353,-2.3784,-0.29506,9.5137,3.2907e-13,-0.14753,0,0,0.125,-0,1.0182e-16,0.66667
0.89425,0.90652,7.154,0.60977,10.303,9.7462,-11.633,3.8776,-0.6788,-15.51,8.3732e-08,-0.3394,0,0,0.125,-0,-0,0.66667
0.065736,0.63568,0.52589,0.20352,17.182,420.9,-0.28541,0.095136,-1.8524,-0.38055,2.6821e-10,-0.92619,0,0,0.125,-0,-0,0.66667
0.27923,0.6332,2.2339,0.1998,15.612,277.65,-1.1902,0.39674,-1.859,-1.587,7.2805e-12,-0.9295,0,0,0.125,-0,-0,0.66667
0.20277,0.21508,1.6222,-0.42737,-34.801,327.75,1.8487,-0.61625,-1.354,2.465,1.8216e-10,-0.67702,0,0,0.125,-2.9606e-16,0,0.66667
0.98481,0.92867,7.8785,0.64301,1.5546,1.7765,-13.509,4.5031,-0.53257,-18.012,7.3126e-06,-0.26628,0,0,0.125,-0,2.4005e-16,0.66667
0.46845,0.39867,3.7476,-0.15199,-10.039,164.77,1.5189,-0.50631,-1.9208,2.0253,-3.8602e-13,-0.96042,0,0,0.125,2.9606e-16,0,0.66667
0.88817,0.87912,7.1054,0.56868,10.106,10.508,-10.775,3.5917,-0.85123,-14.367,-1.7755e-10,-0.42562,0,0,0.125,2.3685e-15,-2.5699e-18,0.66667
0.85393,0.94951,6.8314,0.67427,15.506,16.893,-12.283,4.0944,-0.38178,-16.378,5.1929e-09,-0.19089,0,0,0.125,-0,-0,0.66667
0.10397,0.078431,0.83175,-0.63235,-53.271,394.69,1.4026,-0.46752,-0.57642,1.8701,-1.1337e-07,-0.28821,0,0,0.125,-1.4803e-16,0,0.66667
0.34994,0.82452,2.7995,0.48679,36.288,233.63,-3.6341,1.2114,-1.1555,-4.8455,2.2367e-12,-0.57774,0,0,0.125,-0,-0,0.66667
0.4967,0.0012393,3.9736,-0.74814,-48.089,150.61,7.9274,-2.6425,-0.010779,10.57,5.1608e-12,-0.0053895,0,0,0.125,-0,-0,0.66667
0.8789,0.34239,7.0312,-0.23642,-4.4663,11.155,4.4328,-1.4776,-1.8017,5.9104,-1.0454e-08,-0.90085,0,0,0.125,-5.9212e-16,0,0.66667
0.98185,0.26024,7.8548,-0.35964,-0.94211,0.88065,7.5331,-2.511,-1.5404,10.044,2.2026e-07,-0.7702,0,0,0.125,-0,-0,0.66667
0.33695,0.53122,2.6956,0.046824,3.5148,241.31,-0.33658,0.11219,-1.9917,-0.44877,-1.1998e-12,-0.99584,0,0,0.125,-1.5728e-16,0,0.66667
0.78195,0.077452,6.2556,-0.63382,-20.91,33.687,10.573,-3.5244,-0.57364,14.098,1.5018e-10,-0.28682,0,0,0.125,-0,-0,0.66667
0.85872,0.044453,6.8697,-0.68332,-15.245,16.012,12.518,-4.1727,-0.34192,16.691,1.0301e-08,-0.17096,0,0,0.125,-0,-0,0.66667
0.28125,0.89533,2.25,0.593,46.47,276.67,-3.558,1.186,-0.75277,-4.744,3.5145e-12,-0.37638,0,0,0.125,-0,1.3461e-16,0.66667
0.19893,0.76491,1.5914,0.39737,32.4,330.29,-1.6864,0.56212,-1.4374,-2.2485,-2.2512e-10,-0.71869,0,0,0.125,2.9606e-16,0,0.66667
0.64661,0.71678,5.1729,0.32517,15.992,79.458,-4.4855,1.4952,-1.6233,-5.9806,-2.9177e-12,-0.81167,0,0,0.125,-4.4409e-16,0,0.66667
0.56414,0.77004,4.5131,0.40507,23.398,116.12,-4.8749,1.625,-1.4177,-6.4999,3.4284e-13,-0.70885,0,0,0.125,-0,-0,0.66667
0.15458,0.13706,1.2366,-0.54441,-45.196,360.17,1.7952,-0.59841,-0.94721,2.3937,2.5678e-09,-0.4736,0,0,0.125,2.9606e-16,-5.5809e-17,0.66667
0.74217,0.62283,5.9374,0.18425,6.9611,44.492,-2.9172,0.97239,-1.8783,-3.8895,-9.8337e-12,-0.93913,0,0,0.125,1.3323e-15,0,0.66667
0.36009,0.84422,2.8807,0.51633,38.188,227.51,-3.9664,1.3221,-1.0557,-5.2886,1.7124e-12,-0.52785,0,0,0.125,-0,-0,0.66667
0.60467,0.055232,4.8374,-0.66715,-36.034,98.067,8.6061,-2.8687,-0.41646,11.475,1.3234e-12,-0.20823,0,0,0.125,-0,-8.0074e-18,0.66667
0.006493,0.7986,0.051944,0.44789,38.051,461.94,-0.062041,0.02068,-1.2846,-0.082721,-7.4143e-07,-0.64229,0,0,0.125,-9.2519e-18,0,0.66667
0.59052,0.79943,4.7241,0.44914,24.794,103.91,-5.6581,1.886,-1.2823,-7.5442,-6.1195e-13,-0.64113,0,0,0.125,-0,-0,0.66667
0.73343,0.88798,5.8674,0.58197,22.813,48.105,-9.1057,3.0352,-0.79754,-12.141,-1.4344e-11,-0.39877,0,0,0.125,-0,1.4379e-16,0.66667
0.34567,0.39184,2.7654,-0.16224,-12.1,235.98,1.1964,-0.3988,-1.9071,1.5952,-3.4617e-13,-0.95354,0,0,0.125,-5.9212e-16,0,0.66667
0.75933,0.75572,6.0746,0.38358,13.694,39.494,-6.2136,2.0712,-1.4754,-8.2848,-1.1616e-11,-0.73772,0,0,0.125,-0,-0,0.66667
0.42697,0.74292,3.4158,0.36438,25.263,188.04,-3.319,1.1063,-1.5268,-4.4254,-1.7342e-13,-0.76338,0,0,0.125,2.5282e-16,0,0.66667
0.4232,0.39173,3.3856,-0.16241,-11.286,190.03,1.4662,-0.48875,-1.9075,1.955,-7.0111e-13,-0.95376,0,0,0.125,-5.9212e-16,0,0.66667
0.29935,0.95199,2.3948,0.67798,52.598,265.29,-4.3297,1.4432,-0.36579,-5.773,-2.7001e-13,-0.18289,0,0,0.125,-0,-0,0.66667
0.74106,0.040197,5.9285,-0.6897,-26.471,46.01,10.904,-3.6346,-0.30677,14.538,6.5929e-12,-0.15338,0,0,0.125,-0,-0,0.66667
0.91708,0.19076,7.3367,-0.46386,-6.1248,6.2049,9.0752,-3.0251,-1.2345,12.1,-4.065e-08,-0.61725,0,0,0.125,2.3685e-15,0,0.66667
0.4431,0.36569,3.5448,-0.20147,-13.708,178.79,1.9045,-0.63482,-1.8541,2.5393,9.9143e-13,-0.92703,0,0,0.125,-5.9212e-16,0,0.66667
0.98698,0.79473,7.8959,0.4421,0.80734,0.94849,-9.3086,3.1029,-1.3051,-12.412,4.6536e-08,-0.65255,0,0,0.125,-0,-0,0.66667
0.79949,0.64503,6.3959,0.21755,6.5821,28.019,-3.7104,1.2368,-1.8319,-4.9473,2.0688e-10,-0.91593,0,0,0.125,-1.1842e-15,0,0.66667
0.31124,0.50736,2.4899,0.011042,0.84457,257.31,-0.073319,0.02444,-2.0014,-0.097758,-1.9282e-12,-1.0007,0,0,0.125,1.1842e-15,0,0.66667
0.23311,0.98419,1.8648,0.72628,58.582,307.99,-3.6117,1.2039,-0.12586,-4.8156,6.2434e-11,-0.062932,0,0,0.125,-2.9606e-16,1.4801e-16,0.66667
0.35894,0.13272,2.8715,-0.55092,-40.807,228.25,4.2186,-1.4062,-0.9236,5.6248,-1.7311e-12,-0.4618,0,0,0.125,-0,1.1915e-16,0.66667
0.40467,0.41456,3.2374,-0.12817,-9.0734,200.71,1.1065,-0.36882,-1.943,1.4753,1.9718e-13,-0.97149,0,0,0.125,-1.1842e-15,0,0.66667
0.4959,0.6795,3.9672,0.26925,17.189,150.17,-2.8484,0.94948,-1.7415,-3.7979,-1.8296e-13,-0.87076,0,0,0.125,5.9212e-16,0,0.66667
0.70153,0.37924,5.6123,-0.18114,-7.7506,58.228,2.711,-0.90367,-1.8852,3.6147,4.9014e-12,-0.94262,0,0,0.125,-0,-0,0.66667
0.841,0.2069,6.728,-0.43965,-10.814,18.724,7.8879,-2.6293,-1.3127,10.517,-1.59e-09,-0.65636,0,0,0.125,-1.1842e-15,0,0.66667
0.059074,0.43867,0.47259,-0.091996,-7.7701,425.5,0.11594,-0.038646,-1.9707,0.15458,-1.5197e-07,-0.98535,0,0,0.125,-1.4803e-16,0,0.66667
0.45307,0.78614,3.6246,0.42921,28.939,173.47,-4.1486,1.3829,-1.3486,-5.5314,1.072e-12,-0.67431,0,0,0.125,-1.1842e-15,0,0.66667
0.42756,0.30497,3.4204,-0.29255,-20.256,187.64,2.6684,-0.88946,-1.6942,3.5578,5.2403e-13,-0.84712,0,0,0.125,2.9606e-16,0,0.66667
0.42403,0.4577,3.3923,-0.063455,-4.4045,189.52,0.57402,-0.19134,-1.9863,0.76535,-6.6613e-14,-0.99313,0,0,0.125,-0,-0,0.66667
0.56368,0.41811,4.5094,-0.12283,-7.0816,116.04,1.4771,-0.49236,-1.9479,1.9694,-6.9722e-13,-0.97395,0,0,0.125,-0,-0,0.66667
0.9398,0.21483,7.5184,-0.42776,-4.094,3.7178,8.5761,-2.8587,-1.3507,11.435,-5.329e-08,-0.67533,0,0,0.125,1.4803e-15,0,0.66667
0.33032,0.68057,2.6426,0.27085,20.453,245.49,-1.9086,0.63621,-1.7401,-2.5449,2.4192e-12,-0.87004,0,0,0.125,-2.9606e-16,0,0.66667
0.94897,0.44349,7.5917,-0.084761,-0.67058,2.3502,1.716,-0.57199,-1.9739,2.288,1.2876e-08,-0.98697,0,0,0.125,-2.3685e-15,0,0.66667
0.24588,0.58462,1.9671,0.12693,10.104,299.2,-0.66581,0.22194,-1.9419,-0.88774,-4.3152e-12,-0.97094,0,0,0.125,-0,-0,0.66667
0.54841,0.11128,4.3872,-0.58308,-34.658,124.05,6.8217,-2.2739,-0.79225,9.0955,-1.0676e-12,-0.39613,0,0,0.125,-0,-0,0.66667
0.7134,0.87394,5.7072,0.5609,23.36,54.763,-8.5365,2.8455,-0.88107,-11.382,-6.7892e-12,-0.44053,0,0,0.125,-1.4803e-16,0,0.66667
0.88062,0.85869,7.045,0.53803,10.155,11.601,-10.108,3.3693,-0.96885,-13.477,7.2203e-09,-0.48442,0,0,0.125,-0,-0,0.66667
0.7817,0.32071,6.2536,-0.26893,-8.7891,32.841,4.4847,-1.4949,-1.7456,5.9796,-5.2192e-11,-0.87278,0,0,0.125,-2.3685e-15,0,0.66667
0.96576,0.29485,7.7261,-0.30772,-1.6181,1.5044,6.34,-2.1133,-1.663,8.4533,1.7062e-07,-0.83151,0,0,0.125,-0,-0,0.66667
0.55114,0.15396,4.4091,-0.51907,-30.681,122.58,6.103,-2.0343,-1.042,8.1374,-7.8959e-13,-0.52102,0,0,0.125,-7.4015e-16,0,0.66667
0.90543,0.76401,7.2434,0.39601,5.9229,7.4901,-7.6492,2.5497,-1.4443,-10.199,2.7836e-08,-0.72215,0,0,0.125,1.1842e-15,0,0.66667
0.65468,0.78061,5.2375,0.42091,20.355,76.359,-5.8787,1.9596,-1.3727,-7.8383,-8.9484e-13,-0.68634,0,0,0.125,-1.6653e-15,0,0.66667
0.16901,0.38375,1.3521,-0.17437,-14.359,350.27,0.62871,-0.20957,-1.892,0.83828,1.175e-09,-0.946,0,0,0.125,-0,-0,0.66667
0.030661,0.79387,0.24529,0.4408,37.412,445.19,-0.28833,0.09611,-1.3113,-0.38444,5.6214e-07,-0.65567,0,0,0.125,-0,-0,0.66667
0.76078,0.52148,6.0862,0.03222,1.1393,38.665,-0.52293,0.17431,-1.995,-0.69724,-9.6317e-13,-0.9975,0,0,0.125,1.1842e-15,0,0.66667
0.67762,0.93804,5.421,0.65706,30.235,68.018,-9.4984,3.1661,-0.46463,-12.664,-6.9633e-13,-0.23231,0,0,0.125,2.3685e-15,0,0.66667
0.28831,0.61978,2.3065,0.17967,13.959,271.84,-1.1051,0.36836,-1.8837,-1.4735,6.3757e-12,-0.94186,0,0,0.125,2.9606e-16,0,0.66667
0.10602,0.11989,0.84813,-0.57016,-47.967,393.26,1.2895,-0.42984,-0.8443,1.7194,-6.7028e-09,-0.42215,0,0,0.125,-1.4803e-16,0,0.66667
0.68946,0.0081631,5.5157,-0.73776,-33.015,63.872,10.851,-3.6171,-0.065778,14.468,-1.9185e-13,-0.032889,0,0,0.125,-0,-0,0.66667
0.74945,0.37868,5.9956,-0.18197,-6.7065,42.203,2.9094,-0.96981,-1.8855,3.8793,1.3055e-11,-0.94273,0,0,0.125,-0,-0,0.66667
0.55828,0.81749,4.4663,0.47623,27.806,119.04,-5.6719,1.8906,-1.1932,-7.5625,-6.9722e-13,-0.59661,0,0,0.125,1.1842e-15,0,0.66667
0.66524,0.27045,5.3219,-0.34432,-16.221,72.041,4.8865,-1.6288,-1.5764,6.5153,4.21e-13,-0.78822,0,0,0.125,5.9212e-16,0,0.66667
0.40406,0.16452,3.2325,-0.50321,-35.769,201.4,4.3377,-1.4459,-1.1004,5.7836,4.9916e-13,-0.55021,0,0,0.125,-0,-0,0.66667
0.86609,0.64831,6.9287,0.22247,4.6256,13.366,-4.1105,1.3702,-1.8222,-5.4807,5.6009e-09,-0.91112,0,0,0.125,-5.9212e-16,0,0.66667
0.5324,0.2351,4.2592,-0.39735,-24.129,131.6,4.513,-1.5043,-1.4401,6.0174,5.4179e-14,-0.72006,0,0,0.125,-0,-0,0.66667
0.89484,0.3014,7.1587,-0.29791,-4.9191,8.759,5.687,-1.8957,-1.6834,7.5827,-1.8772e-08,-0.8417,0,0,0.125,-0,-0,0.66667
0.73971,0.030675,5.9177,-0.70399,-27.154,46.492,11.109,-3.7031,-0.23768,14.812,1.0354e-11,-0.11884,0,0,0.125,1.0362e-15,0,0.66667
0.5229,0.73523,4.1832,0.35284,21.716,136.32,-3.936,1.312,-1.5551,-5.248,7.8404e-13,-0.77753,0,0,0.125,-0,-0,0.66667
0.71966,0.35729,5.7573,-0.21406,-8.6916,51.933,3.2865,-1.0955,-1.8389,4.382,9.539e-12,-0.91943,0,0,0.125,-0,-0,0.66667
0.88675,0.58768,7.094,0.13152,2.3239,9.7637,-2.4881,0.82936,-1.9381,-3.3175,6.782e-09,-0.96907,0,0,0.125,-1.7764e-15,0,0.66667
0.19451,0.80572,1.5561,0.45858,37.484,333.27,-1.9029,0.63431,-1.2506,-2.5372,-5.7886e-11,-0.62529,0,0,0.125,1.4803e-16,0,0.66667
0.42981,0.76106,3.4384,0.39159,27.077,186.46,-3.5906,1.1969,-1.4526,-4.7874,-4.5008e-13,-0.72631,0,0,0.125,-0,-0,0.66667
0.85935,0.051229,6.8748,-0.67316,-14.946,15.85,12.341,-4.1136,-0.39184,16.454,2.5736e-08,-0.19592,0,0,0.125,-0,1.3653e-16,0.66667
0.030496,0.3059,0.24397,-0.29115,-24.677,445.3,0.18942,-0.063139,-1.7011,0.25256,-1.9455e-07,-0.85056,0,0,0.125,-1.8504e-17,0,0.66667
0.13308,0.81319,1.0647,0.46978,39.211,374.73,-1.3337,0.44458,-1.2146,-1.7783,-3.2498e-09,-0.60729,0,0,0.125,-0,-0,0.66667
0.40535,0.062281,3.2428,-0.65658,-46.733,200.91,5.6777,-1.8926,-0.47065,7.5703,6.0174e-13,-0.23532,0,0,0.125,6.5688e-16,4.1114e-18,0.66667
0.11236,0.96136,0.89887,0.69205,58.249,388.98,-1.6588,0.55294,-0.2973,-2.2118,-2.8334e-08,-0.14865,0,0,0.125,7.4015e-17,0,0.66667
0.72615,0.042525,5.8092,-0.68621,-27.615,50.841,10.63,-3.5434,-0.32357,14.174,1.3358e-12,-0.16179,0,0,0.125,-0,-0,0.66667
0.97481,0.36479,7.7985,-0.20282,-0.75127,0.85757,4.2177,-1.4059,-1.8519,5.6236,1.141e-07,-0.92595,0,0,0.125,-0,-0,0.66667
0.48907,0.64006,3.9125,0.21009,13.527,153.73,-2.192,0.73066,-1.8416,-2.9226,-2.3537e-13,-0.92079,0,0,0.125,-0,-0,0.66667
0.96027,0.59781,7.6821,0.14672,0.8928,1.5872,-3.0056,1.0019,-1.9221,-4.0074,-1.3789e-07,-0.96107,0,0,0.125,-0,-0,0.66667
0.13577,0.63742,1.0862,0.20613,17.155,372.81,-0.59705,0.19902,-1.8474,-0.79606,-5.6448e-09,-0.92372,0,0,0.125,-0,-0,0.66667
0.70044,0.16041,5.6035,-0.50939,-21.982,59.183,7.6117,-2.5372,-1.0783,10.149,3.5891e-12,-0.53913,0,0,0.125,-0,-0,0.66667
0.58286,0.50707,4.6629,0.010607,0.59143,107,-0.13189,0.043963,-1.9986,-0.17585,2.2694e-12,-0.99931,0,0,0.125,-2.3685e-15,0,0.66667
0.79173,0.15422,6.3339,-0.51867,-16.358,30.673,8.7605,-2.9202,-1.0431,11.681,3.1086e-11,-0.52154,0,0,0.125,-1.0979e-15,0,0.66667
0.5377,0.032374,4.3016,-0.70144,-42.499,129.6,8.0462,-2.6821,-0.24993,10.728,2.0695e-13,-0.12497,0,0,0.125,-0,-0,0.66667
0.97989,0.7481,7.8391,0.37215,1.1006,0.98458,-7.7795,2.5932,-1.5075,-10.373,-3.4775e-07,-0.75377,0,0,0.125,1.4803e-15,0,0.66667
0.43965,0.39214,3.5172,-0.16179,-11.047,180.7,1.5174,-0.50581,-1.9074,2.0232,-6.4593e-13,-0.95369,0,0,0.125,-0,-0,0.66667
0.95027,0.5597,7.6022,0.089546,0.68958,2.2508,-1.8153,0.60511,-1.9724,-2.4204,6.2299e-09,-0.98622,0,0,0.125,2.9606e-16,0,0.66667
0.91828,0.069413,7.3462,-0.64588,-8.5427,6.7232,12.653,-4.2176,-0.5165,16.87,-1.0968e-07,-0.25825,0,0,0.125,2.3685e-15,0,0.66667
0.42387,0.83958,3.391,0.50936,35.496,190,-4.6059,1.5353,-1.079,-6.1412,7.967e-13,-0.53951,0,0,0.125,-0,-0,0.66667
0.41052,0.40633,3.2842,-0.1405,-9.8895,197.31,1.2304,-0.41015,-1.9303,1.6406,-4.885e-13,-0.96513,0,0,0.125,-0,-0,0.66667
0.019947,0.15337,0.15958,-0.51994,-44.193,452.62,0.22126,-0.073753,-1.0387,0.29501,-1.6018e-06,-0.51933,0,0,0.125,3.7007e-17,0,0.66667
0.44849,0.183,3.588,-0.47549,-32.248,176.08,4.5495,-1.5165,-1.1955,6.066,2.5757e-14,-0.59777,0,0,0.125,2.9606e-16,0,0.66667
0.19941,0.66022,1.5953,0.24034,19.567,329.9,-1.0224,0.3408,-1.7947,-1.3632,-1.99e-10,-0.89735,0,0,0.125,-0,-0,0.66667
0.33593,0.65222,2.6874,0.22833,17.165,242,-1.6363,0.54544,-1.8133,-2.1817,-1.4212e-12,-0.90663,0,0,0.125,9.3906e-16,0,0.66667
0.28252,0.058519,2.2601,-0.66222,-51.914,275.95,3.9912,-1.3304,-0.44306,5.3216,-6.5088e-12,-0.22153,0,0,0.125,-4.4409e-16,0,0.66667
0.6702,0.42633,5.3616,-0.11051,-5.1312,69.857,1.58,-0.52666,-1.9576,2.1066,7.3708e-13,-0.97881,0,0,0.125,-0,-0,0.66667
0.44017,0.44975,3.5214,-0.075378,-5.1425,180.38,0.70783,-0.23594,-1.9798,0.94378,-2.6229e-13,-0.98991,0,0,0.125,-0,-0,0.66667
0.60025,0.34235,4.802,-0.23648,-12.785,99.204,3.0282,-1.0094,-1.8004,4.0376,1.3234e-13,-0.90021,0,0,0.125,-1.2583e-15,0,0.66667
0.84352,0.70547,6.7481,0.3082,7.4375,17.902,-5.5461,1.8487,-1.6649,-7.3948,2.4468e-09,-0.83245,0,0,0.125,-0,-0,0.66667
0.83277,0.6182,6.6622,0.1773,4.5394,20.015,-3.1498,1.0499,-1.8873,-4.1998,1.3317e-09,-0.94366,0,0,0.125,5.9212e-16,0,0.66667
0.58556,0.98599,4.6845,0.72899,40.854,106.86,-9.1065,3.0355,-0.1082,-12.142,1.4451e-12,-0.054101,0,0,0.125,-1.1842e-15,0,0.66667
0.44054,0.038786,3.5243,-0.69182,-47.518,180.92,6.5018,-2.1673,-0.29835,8.6691,1.8652e-14,-0.14917,0,0,0.125,-0,-0,0.66667
0.40041,0.82476,3.2033,0.48715,34.741,203.51,-4.1612,1.3871,-1.1543,-5.5483,7.1942e-13,-0.57717,0,0,0.125,-0,-0,0.66667
0.071127,0.73671,0.56902,0.35507,29.985,417.2,-0.53878,0.17959,-1.5495,-0.71837,-5.0165e-08,-0.77476,0,0,0.125,-8.4231e-17,0,0.66667
0.46738,0.98111,3.7391,0.72167,48.099,166.18,-7.1956,2.3985,-0.14955,-9.5942,-4.7384e-13,-0.074777,0,0,0.125,-0,-0,0.66667
0.40304,0.4091,3.2243,-0.13636,-9.6686,201.66,1.1724,-0.39081,-1.9345,1.5632,-1.4941e-12,-0.96727,0,0,0.125,-0,-0,0.66667
0.20153,0.61706,1.6122,0.17558,14.278,328.47,-0.75489,0.25163,-1.8918,-1.0065,-2.1508e-10,-0.94589,0,0,0.125,-0,-0,0.66667
0.80272,0.92677,6.4218,0.64015,19.325,28.226,-10.962,3.6541,-0.54115,-14.617,-1.9825e-10,-0.27058,0,0,0.125,-0,-0,0.66667
0.69815,0.77512,5.5852,0.41268,17.883,59.786,-6.1464,2.0488,-1.3935,-8.1951,-6.95e-12,-0.69674,0,0,0.125,-0,-0,0.66667
0.97541,0.64526,7.8033,0.21789,0.78685,0.8528,-4.5339,1.5113,-1.8292,-6.0452,-1.05e-07,-0.91458,0,0,0.125,1.1842e-15,0,0.66667
0.38552,0.12996,3.0841,-0.55506,-40.179,212.36,4.565,-1.5217,-0.90369,6.0866,-4.2144e-13,-0.45184,0,0,0.125,1.1842e-15,0,0.66667
0.41693,0.73451,3.3354,0.35176,24.639,193.77,-3.1287,1.0429,-1.5584,-4.1717,2.196e-13,-0.77922,0,0,0.125,5.9212e-16,0,0.66667
0.51973,0.99757,4.1579,0.74636,46.481,138.72,-8.2754,2.7585,-0.01945,-11.034,8.6953e-13,-0.0097249,0,0,0.125,-1.9244e-15,0,0.66667
0.35329,0.024974,2.8263,-0.71254,-53.174,231.93,5.3703,-1.7901,-0.19336,7.1604,-3.1135e-12,-0.096681,0,0,0.125,-5.9212e-16,0,0.66667
0.54525,0.83111,4.362,0.49666,29.619,125.41,-5.7772,1.9257,-1.124,-7.7029,1.1191e-13,-0.56198,0,0,0.125,5.9212e-16,0,0.66667
0.88975,0.49816,7.118,-0.0027625,-0.047499,9.242,0.052437,-0.017479,-2.0031,0.069915,-2.778e-08,-1.0016,0,0,0.125,1.7764e-15,0,0.66667
0.73052,0.93548,5.8442,0.65321,25.902,49.284,-10.18,3.3933,-0.48322,-13.573,-2.0686e-12,-0.24161,0,0,0.125,-1.1842e-15,-1.2947e-16,0.66667
0.20651,0.14358,1.6521,-0.53462,-43.522,325.34,2.3553,-0.78511,-0.98317,3.1404,8.529e-11,-0.49158,0,0,0.125,2.9606e-16,0,0.66667
0.80015,0.65123,6.4012,0.22685,6.8437,27.86,-3.8722,1.2907,-1.8173,-5.163,1.96e-10,-0.90864,0,0,0.125,-0,-0,0.66667
0.79531,0.20932,6.3625,-0.43601,-13.504,29.509,7.3977,-2.4659,-1.3254,9.8636,-1.2433e-10,-0.66268,0,0,0.125,-5.9212e-16,0,0.66667
0.79909,0.59601,6.3927,0.14402,4.3613,28.046,-2.4552,0.81839,-1.9279,-3.2736,6.0531e-11,-0.96393,0,0,0.125,2.3685e-15,0,0.66667
0.3168,0.49343,2.5344,-0.0098512,-0.75052,253.82,0.066579,-0.022193,-1.999,0.088772,-4.624e-12,-0.99949,0,0,0.125,2.9606e-16,0,0.66667
0.61295,0.86959,4.9036,0.55439,29.387,94.13,-7.2493,2.4164,-0.90718,-9.6658,-3.4373e-13,-0.45359,0,0,0.125,-2.9606e-16,0,0.66667
0.65229,0.99038,5.2183,0.73556,36.045,78.165,-10.236,3.4119,-0.075471,-13.648,1.2497e-12,-0.037735,0,0,0.125,-1.7764e-15,0,0.66667
0.12023,0.84892,0.9618,0.52339,43.86,383.52,-1.3424,0.44746,-1.0253,-1.7898,2.7943e-09,-0.51263,0,0,0.125,-2.9606e-16,0,0.66667
0.91868,0.46765,7.3494,-0.04853,-0.61798,5.322,0.95111,-0.31704,-1.9926,1.2681,9.7086e-09,-0.99631,0,0,0.125,-2.9606e-16,0,0.66667
0.36814,0.84175,2.9451,0.51262,37.656,222.66,-4.0259,1.342,-1.0647,-5.3679,3.4239e-13,-0.53237,0,0,0.125,6.6613e-16,0,0.66667
0.68838,0.16083,5.507,-0.50876,-22.682,63.572,7.4713,-2.4904,-1.0823,9.9618,3.2747e-12,-0.54117,0,0,0.125,-0,-0,0.66667
0.92834,0.017931,7.4267,-0.7231,-8.4971,5.96,14.321,-4.7736,-0.13877,19.094,-1.5224e-06,-0.069383,0,0,0.125,-0,-0,0.66667
0.67487,0.62506,5.399,0.18759,8.6143,68.112,-2.7008,0.90026,-1.8763,-3.601,-5.1026e-12,-0.93813,0,0,0.125,2.3685e-15,0,0.66667
0.93848,0.4245,7.5078,-0.11325,-1.0879,3.2709,2.2673,-0.75577,-1.9561,3.0231,4.8517e-08,-0.97806,0,0,0.125,1.1842e-15,0,0.66667
0.69911,0.84806,5.5929,0.52209,22.62,59.695,-7.7867,2.5956,-1.0306,-10.382,-4.5923e-12,-0.51532,0,0,0.125,-0,-0,0.66667
0.17086,0.74637,1.3669,0.36955,30.451,349.09,-1.347,0.449,-1.5171,-1.796,-1.0609e-09,-0.75853,0,0,0.125,2.9606e-16,0,0.66667
0.72891,0.18436,5.8312,-0.47346,-18.77,49.29,7.3622,-2.4541,-1.2022,9.8163,9.0354e-12,-0.60112,0,0,0.125,2.158e-16,0,0.66667
0.40572,0.53414,3.2458,0.05121,3.6209,200.08,-0.44325,0.14775,-1.994,-0.59099,2.4203e-14,-0.99702,0,0,0.125,-0,-0,0.66667
0.31857,0.61105,2.5486,0.16657,12.679,252.74,-1.1321,0.37735,-1.8993,-1.5094,-9.2604e-13,-0.94966,0,0,0.125,-0,-0,0.66667
0.78065,0.35957,6.2452,-0.21064,-6.9077,33.055,3.508,-1.1693,-1.8444,4.6774,-5.0677e-11,-0.92218,0,0,0.125,1.1842e-15,0,0.66667
0.79049,0.36944,6.3239,-0.19584,-6.1625,30.355,3.3026,-1.1009,-1.8622,4.4035,-8.8074e-11,-0.9311,0,0,0.125,-5.9212e-16,0,0.66667
0.94901,0.35226,7.5921,-0.22161,-1.7613,2.4882,4.4866,-1.4955,-1.8246,5.9821,5.2024e-08,-0.9123,0,0,0.125,-0,-0,0.66667
0.20319,0.74756,1.6255,0.37134,30.216,327.44,-1.6096,0.53654,-1.5138,-2.1462,-1.4137e-10,-0.75688,0,0,0.125,-2.9606e-16,0,0.66667
0.53266,0.3068,4.2613,-0.2898,-17.569,131.33,3.2931,-1.0977,-1.7033,4.3908,-4.6096e-13,-0.85164,0,0,0.125,8.8818e-16,0,0.66667
0.77212,0.48237,6.177,-0.026439,-0.8957,35.341,0.43551,-0.14517,-1.9954,0.58068,-6.1436e-12,-0.99769,0,0,0.125,-0,-0,0.66667
0.51635,0.57954,4.1308,0.11931,7.3986,139.45,-1.3142,0.43807,-1.9514,-1.7523,-3.5194e-13,-0.97569,0,0,0.125,-0,-0,0.66667
0.22879,0.53442,1.8303,0.051636,4.1456,310.39,-0.25202,0.084008,-1.9897,-0.33603,1.0767e-11,-0.99486,0,0,0.125,-0,-0,0.66667
0.99529,0.92434,7.9623,0.63651,0.40653,1.5023,-13.515,4.505,-0.55805,-18.02,3.085e-07,-0.27902,0,0,0.125,-1.1842e-15,0,0.66667
0.88932,0.73493,7.1146,0.35239,6.1279,9.7012,-6.6856,2.2285,-1.5598,-8.9141,1.6269e-08,-0.77989,0,0,0.125,-0,-0,0.66667
0.57714,0.2361,4.6171,-0.39585,-22.361,109.97,4.8739,-1.6246,-1.4445,6.4985,5.1514e-13,-0.72227,0,0,0.125,-1.1842e-15,0,0.66667
0.53805,0.24345,4.3044,-0.38483,-23.167,128.77,4.4172,-1.4724,-1.4718,5.8896,-6.497e-13,-0.7359,0,0,0.125,-8.8818e-16,0,0.66667
0.83998,0.28499,6.7198,-0.32251,-7.9498,18.673,5.7792,-1.9264,-1.6303,7.7056,-2.0801e-09,-0.81513,0,0,0.125,-0,-0,0.66667
0.91463,0.66044,7.3171,0.24067,3.2307,5.9891,-4.6959,1.5653,-1.7927,-6.2612,2.2354e-08,-0.89635,0,0,0.125,-0,-0,0.66667
0.81959,0.85147,6.5567,0.5272,14.613,23.739,-9.2178,3.0726,-1.0099,-12.29,1.8486e-10,-0.50497,0,0,0.125,-0,-0,0.66667
0.43281,0.67654,3.4625,0.2648,18.229,184.63,-2.445,0.815,-1.7494,-3.26,-2.1259e-12,-0.87468,0,0,0.125,5.9212e-16,0,0.66667
0.85562,0.96994,6.845,0.70491,16.067,16.693,-12.867,4.289,-0.23382,-17.156,4.308e-09,-0.11691,0,0,0.125,-0,2.1662e-17,0.66667
0.22561,0.09507,1.8048,-0.60739,-49.071,312.78,2.9233,-0.97445,-0.68746,3.8978,1.2525e-10,-0.34373,0,0,0.125,-5.9212e-16,0,0.66667
0.54052,0.4383,4.3241,-0.092554,-5.5373,127.28,1.0672,-0.35575,-1.969,1.423,2.1911e-12,-0.98448,0,0,0.125,-2.3685e-15,0,0.66667
0.31515,0.66325,2.5212,0.24488,18.693,254.92,-1.6464,0.54879,-1.7873,-2.1952,1.9493e-12,-0.89364,0,0,0.125,-5.9212e-16,0,0.66667
0.11963,0.32401,0.95708,-0.26399,-22.07,383.84,0.67376,-0.22459,-1.7505,0.89834,1.0483e-08,-0.87527,0,0,0.125,2.9606e-16,0,0.66667
0.14551,0.41987,1.1641,-0.12019,-9.9708,366.17,0.3731,-0.12437,-1.9471,0.49747,1.9971e-09,-0.97355,0,0,0.125,-2.9606e-16,0,0.66667
0.9366,0.14387,7.4928,-0.5342,-5.443,4.3544,10.674,-3.5579,-0.98721,14.232,-1.035e-07,-0.49361,0,0,0.125,-1.1842e-15,0,0.66667
0.19499,0.99856,1.5599,0.74783,61.386,333.19,-3.1109,1.037,-0.010646,-4.1478,6.1456e-11,-0.005323,0,0,0.125,-9.6219e-16,0,0.66667
0.64991,0.17651,5.1993,-0.48524,-23.753,78.417,6.7277,-2.2426,-1.1609,8.9702,2.9265e-13,-0.58043,0,0,0.125,-0,-0,0.66667
0.23912,0.45247,1.913,-0.071301,-5.6953,303.61,0.36373,-0.12124,-1.9804,0.48497,-1.5901e-13,-0.99021,0,0,0.125,2.9606e-16,0,0.66667
0.52547,0.34398,4.2038,-0.23402,-14.333,134.89,2.6234,-0.87447,-1.805,3.4979,1.2315e-12,-0.90249,0,0,0.125,-2.3685e-15,0,0.66667
0.13063,0.85588,1.0451,0.53382,44.622,376.42,-1.4877,0.4959,-0.98497,-1.9836,-3.2634e-09,-0.49249,0,0,0.125,-0,-0,0.66667
0.28954,0.51812,2.3163,0.027185,2.1094,271.03,-0.16792,0.055972,-1.9951,-0.22389,-2.767e-12,-0.99756,0,0,0.125,-0,-0,0.66667
0.40052,0.98596,3.2042,0.72894,52.201,203.86,-6.2284,2.0761,-0.10884,-8.3046,9.7256e-14,-0.054418,0,0,0.125,-0,-0,0.66667
0.70668,0.93804,5.6534,0.65705,27.979,57.401,-9.9056,3.3019,-0.46583,-13.208,-1.3465e-12,-0.23291,0,0,0.125,2.3685e-15,0,0.66667
0.90107,0.40516,7.2086,-0.14226,-2.2031,7.6471,2.7346,-0.91154,-1.9278,3.6462,-5.4734e-09,-0.9639,0,0,0.125,-1.4803e-16,0,0.66667
0.42858,0.59949,3.4286,0.14924,10.312,186.96,-1.3645,0.45483,-1.9193,-1.8193,2.0725e-12,-0.95965,0,0,0.125,-1.1842e-15,0,0.66667
0.71382,0.00089213,5.7106,-0.74866,-31.332,55.242,11.401,-3.8003,-0.0070543,15.201,2.4585e-12,-0.0035271,0,0,0.125,-0,-0,0.66667
0.13909,0.17137,1.1127,-0.49295,-41.088,370.65,1.4627,-0.48755,-1.1371,1.9502,4.9267e-09,-0.56853,0,0,0.125,-0,-0,0.66667
0.10058,0.26769,0.8046,-0.34847,-29.276,396.92,0.74767,-0.24922,-1.5661,0.99689,2.2762e-08,-0.78303,0,0,0.125,-0,-0,0.66667
0.44811,0.26291,3.5849,-0.35564,-24.093,176.13,3.3998,-1.1333,-1.5487,4.533,1.3127e-12,-0.77436,0,0,0.125,-1.1842e-15,0,0.66667
0.76051,0.36574,6.084,-0.20139,-7.1369,38.854,3.2674,-1.0891,-1.8544,4.3565,5.4712e-12,-0.92719,0,0,0.125,-5.9212e-16,0,0.66667
0.23162,0.18404,1.8529,-0.47394,-38.107,308.72,2.3418,-0.7806,-1.2023,3.1224,-5.3407e-11,-0.60113,0,0,0.125,1.4259e-16,0,0.66667
0.80913,0.60592,6.4731,0.15888,4.593,25.523,-2.7425,0.91417,-1.9097,-3.6567,3.076e-10,-0.95486,0,0,0.125,-1.1842e-15,0,0.66667
0.25241,0.45778,2.0193,-0.06333,-5.0232,294.94,0.34101,-0.11367,-1.9861,0.45469,-3.6583e-12,-0.99304,0,0,0.125,-0,-0,0.66667
0.083801,0.94775,0.67041,0.67162,56.831,408.55,-1.2007,0.40023,-0.39448,-1.6009,8.6447e-08,-0.19724,0,0,0.125,-0,-0,0.66667
0.513,0.18077,4.104,-0.47885,-29.943,141.56,5.2406,-1.7469,-1.1853,6.9874,1.5898e-12,-0.59263,0,0,0.125,3.0376e-16,0,0.66667
0.00097781,0.69041,0.0078225,0.28562,24.231,465.77,-0.0059579,0.0019857,-1.7128,-0.007944,-3.5304e-07,-0.85638,0,0,0.125,-0,-3.4355e-16,0.66667
0.70811,0.81301,5.6649,0.46951,19.809,56.366,-7.0927,2.3642,-1.2162,-9.4569,-1.1291e-11,-0.60809,0,0,0.125,-0,-0,0.66667
0.73906,0.29006,5.9125,-0.31491,-12.043,45.658,4.9651,-1.655,-1.6463,6.6201,1.4939e-11,-0.82313,0,0,0.125,-0,-0,0.66667
0.97332,0.83098,7.7866,0.49647,2.0678,1.637,-10.309,3.4363,-1.1223,-13.745,-1.4733e-06,-0.56114,0,0,0.125,-1.1842e-15,0,0.66667
0.66316,0.7083,5.3053,0.31245,14.786,72.805,-4.4204,1.4735,-1.6508,-5.8939,-3.6531e-12,-0.82542,0,0,0.125,-5.9212e-16,0,0.66667
0.49422,0.29566,3.9537,-0.30651,-19.618,151.09,3.2316,-1.0772,-1.664,4.3088,1.8101e-12,-0.83201,0,0,0.125,-0,-0,0.66667
0.073623,0.5094,0.58899,0.014096,1.1881,415.44,-0.02214,0.0073798,-1.9982,-0.02952,-2.4958e-07,-0.9991,0,0,0.125,-0,-0,0.66667
0.5343,0.45209,4.2744,-0.071862,-4.3401,130.36,0.81911,-0.27304,-1.9813,1.0921,-4.7046e-13,-0.99064,0,0,0.125,-0,-0,0.66667
0.14183,0.40311,1.1346,-0.14533,-12.071,368.67,0.43974,-0.14658,-1.9274,0.58632,2.3618e-09,-0.96371,0,0,0.125,-1.4803e-16,0,0.66667
0.80239,0.59772,6.4191,0.14658,4.3728,27.203,-2.5091,0.83636,-1.9227,-3.3454,9.5883e-11,-0.96135,0,0,0.125,-0,-0,0.66667
0.57615,0.058198,4.6092,-0.6627,-37.694,111.02,8.1454,-2.7151,-0.43999,10.861,-6.1906e-13,-0.21999,0,0,0.125,2.9606e-16,7.0286e-17,0.66667
0.21291,0.32221,1.7033,-0.26668,-21.589,320.93,1.2113,-0.40377,-1.7454,1.6151,8.7885e-11,-0.8727,0,0,0.125,-0,-0,0.66667
0.70706,0.23416,5.6564,-0.39877,-16.85,56.583,6.0149,-2.005,-1.4336,8.0199,6.9345e-12,-0.7168,0,0,0.125,1.1842e-15,0,0.66667
0.33301,0.48022,2.6641,-0.029665,-2.2334,243.74,0.21075,-0.070249,-1.9954,0.281,-1.9108e-12,-0.99771,0,0,0.125,-0,-0,0.66667
0.6691,0.6906,5.3528,0.2859,13.332,70.449,-4.081,1.3603,-1.7103,-5.4413,-5.0622e-12,-0.85516,0,0,0.125,2.3685e-15,0,0.66667
0.77955,0.074944,6.2364,-0.63758,-21.241,34.363,10.603,-3.5344,-0.55557,14.138,5.5876e-11,-0.27779,0,0,0.125,1.1842e-15,-1.4189e-16,0.66667
0.086576,0.25356,0.69261,-0.36966,-31.145,406.55,0.68274,-0.22758,-1.5129,0.91033,3.225e-08,-0.75644,0,0,0.125,-2.9606e-16,0,0.66667
0.51066,0.065925,4.0853,-0.65111,-40.979,143.12,7.0932,-2.3644,-0.49206,9.4576,1.5419e-12,-0.24603,0,0,0.125,-1.1842e-15,0,0.66667
0.10367,0.17119,0.82939,-0.49321,-41.471,394.84,1.0908,-0.36361,-1.1332,1.4545,3.1809e-08,-0.56659,0,0,0.125,1.4803e-16,0,0.66667
0.64946,0.12302,5.1957,-0.56547,-27.758,78.794,7.8346,-2.6115,-0.8622,10.446,3.0953e-13,-0.4311,0,0,0.125,-1.4803e-15,0,0.66667
0.3155,0.033824,2.524,-0.69926,-53.678,255.18,4.7065,-1.5688,-0.2623,6.2753,-1.2217e-12,-0.13115,0,0,0.125,1.1842e-15,0,0.66667
0.6435,0.067169,5.148,-0.64925,-32.366,81.456,8.9129,-2.971,-0.50187,11.884,-6.3061e-14,-0.25094,0,0,0.125,-0,-0,0.66667
0.048554,0.67673,0.38843,0.2651,22.433,432.79,-0.2746,0.091532,-1.7512,-0.36613,6.5376e-08,-0.87559,0,0,0.125,-0,-0,0.66667
0.867,0.23599,6.936,-0.39602,-8.2249,13.532,7.3247,-2.4416,-1.4401,9.7663,-6.6389e-09,-0.72005,0,0,0.125,1.1842e-15,0,0.66667
0.47816,0.47888,3.8253,-0.031673,-2.0664,159.48,0.32309,-0.1077,-1.9946,0.43079,-5.0449e-13,-0.99728,0,0,0.125,-0,-0,0.66667
0.79355,0.50768,6.3484,0.011514,0.35707,29.433,-0.19492,0.064972,-1.9994,-0.25989,1.6272e-11,-0.99969,0,0,0.125,4.737e-15,0,0.66667
0.22664,0.019746,1.8131,-0.72038,-58.282,312.23,3.483,-1.161,-0.15266,4.644,-6.2647e-11,-0.076331,0,0,0.125,-0,-0,0.66667
0.33497,0.25484,2.6798,-0.36774,-27.697,242.69,2.6279,-0.87598,-1.5177,3.5039,-1.4948e-12,-0.75887,0,0,0.125,-1.1842e-15,0,0.66667
0.76377,0.9978,6.1102,0.7467,26.544,39.286,-12.167,4.0556,-0.019532,-16.222,-9.6385e-12,-0.0097659,0,0,0.125,-0,-0,0.66667
0.85342,0.91213,6.8274,0.61819,14.215,16.771,-11.255,3.7516,-0.63988,-15.007,-2.5378e-09,-0.31994,0,0,0.125,-0,-0,0.66667
0.43712,0.35022,3.497,-0.22467,-15.389,182.17,2.0951,-0.69837,-1.8235,2.7935,-1.9007e-12,-0.91176,0,0,0.125,1.1842e-15,0,0.66667
0.93033,0.55636,7.4427,0.084533,0.92139,4.0496,-1.6777,0.55924,-1.973,-2.237,1.7717e-08,-0.98648,0,0,0.125,1.7764e-15,0,0.66667
0.57961,0.018522,4.6369,-0.72222,-40.894,109.58,8.9303,-2.9768,-0.1466,11.907,6.2705e-13,-0.0733,0,0,0.125,-0,-0,0.66667
0.049097,0.99358,0.39278,0.74037,63.015,432.49,-0.77547,0.25849,-0.051956,-1.034,2.4589e-06,-0.025978,0,0,0.125,2.2204e-16,0,0.66667
0.45286,0.070823,3.6229,-0.64377,-43.57,173.96,6.2194,-2.0731,-0.52939,8.2926,-1.3349e-12,-0.26469,0,0,0.125,-0,-0,0.66667
0.1604,0.3685,1.2832,-0.19726,-16.292,356.09,0.67498,-0.22499,-1.8611,0.89998,1.8254e-09,-0.93054,0,0,0.125,-2.9606e-16,0,0.66667
0.73282,0.089993,5.8626,-0.61501,-24.179,48.404,9.6148,-3.2049,-0.65718,12.82,-2.5802e-12,-0.32859,0,0,0.125,-3.7516e-16,6.2632e-17,0.66667
0.34735,0.95256,2.7788,0.67885,50.867,235.49,-5.0304,1.6768,-0.3607,-6.7072,5.9863e-13,-0.18035,0,0,0.125,-0,-0,0.66667
0.20118,0.56136,1.6094,0.092041,7.4834,328.69,-0.39502,0.13167,-1.972,-0.52669,-2.488e-10,-0.98599,0,0,0.125,3.5157e-16,0,0.66667
0.84279,0.57898,6.7423,0.11847,2.8615,17.812,-2.1301,0.71003,-1.9518,-2.8401,1.4548e-09,-0.9759,0,0,0.125,-0,-0,0.66667
0.8178,0.15611,6.5424,-0.51584,-14.421,24.125,8.9995,-2.9998,-1.0538,11.999,5.5382e-10,-0.52691,0,0,0.125,-1.6376e-15,0,0.66667
0.34365,0.11076,2.7492,-0.58386,-43.805,237.6,4.2804,-1.4268,-0.79071,5.7071,-2.1134e-12,-0.39536,0,0,0.125,-5.9212e-16,1.4687e-16,0.66667
0.40362,0.40093,3.229,-0.14861,-10.532,201.32,1.2796,-0.42653,-1.9222,1.7061,-2.4036e-13,-0.96111,0,0,0.125,-8.8818e-16,0,0.66667
0.0606,0.29818,0.4848,-0.30274,-25.591,424.46,0.39138,-0.13046,-1.6748,0.52184,4.2528e-10,-0.83741,0,0,0.125,-0,-0,0.66667
0.17888,0.86191,1.4311,0.54286,44.691,343.79,-2.0717,0.69056,-0.94998,-2.7622,-9.6377e-10,-0.47499,0,0,0.125,2.9606e-16,0,0.66667
0.73592,0.10824,5.8874,-0.58764,-22.855,47.314,9.2257,-3.0752,-0.77325,12.301,1.211e-11,-0.38663,0,0,0.125,-0,-0,0.66667
0.56613,0.01939,4.529,-0.72092,-41.769,115.89,8.7068,-2.9023,-0.1514,11.609,-1.3616e-12,-0.075699,0,0,0.125,-0,-0,0.66667
0.82324,0.18884,6.5859,-0.46673,-12.669,22.714,8.197,-2.7323,-1.2253,10.929,-7.5074e-10,-0.61265,0,0,0.125,-0,-0,0.66667
0.50115,0.43709,4.0092,-0.094362,-5.9757,147.3,1.0088,-0.33628,-1.9714,1.3451,4.8106e-13,-0.98572,0,0,0.125,-7.4015e-17,0,0.66667
0.76786,0.59669,6.1429,0.14503,4.9976,36.629,-2.3758,0.79193,-1.9267,-3.1677,-1.0696e-11,-0.96334,0,0,0.125,-0,-0,0.66667
0.50992,0.59353,4.0793,0.1403,8.7802,142.77,-1.5262,0.50873,-1.9297,-2.0349,-3.4832e-12,-0.96487,0,0,0.125,1.3693e-15,0,0.66667
0.56807,0.60153,4.5446,0.1523,8.7172,113.97,-1.8457,0.61523,-1.9161,-2.4609,-2.1404e-12,-0.95804,0,0,0.125,1.1842e-15,0,0.66667
0.18462,0.82906,1.4769,0.49358,40.52,339.91,-1.944,0.648,-1.1335,-2.592,-1.4005e-10,-0.56677,0,0,0.125,-0,-0,0.66667
0.5444,0.11315,4.3552,-0.58028,-34.706,126,6.7393,-2.2464,-0.80298,8.9858,-2.3581e-13,-0.40149,0,0,0.125,5.9212e-16,2.1301e-17,0.66667
0.20103,0.12017,1.6083,-0.56975,-46.513,329.01,2.4435,-0.8145,-0.84711,3.258,-5.1523e-10,-0.42356,0,0,0.125,4.4409e-16,-1.832e-16,0.66667
0.55622,0.11992,4.4498,-0.57011,-33.458,120.23,6.765,-2.255,-0.84302,9.02,-1.1506e-12,-0.42151,0,0,0.125,-2.9606e-16,0,0.66667
0.14144,0.22933,1.1315,-0.406,-33.785,369.01,1.2251,-0.40836,-1.416,1.6334,4.3468e-09,-0.70798,0,0,0.125,-0,-0,0.66667
0.18601,0.67068,1.4881,0.25602,20.959,338.86,-1.0159,0.33865,-1.7681,-1.3546,-5.5171e-10,-0.88403,0,0,0.125,-2.9606e-16,0,0.66667
0.76478,0.26109,6.1183,-0.35837,-12.533,37.823,5.8469,-1.949,-1.5454,7.7958,7.0757e-12,-0.77268,0,0,0.125,-0,-0,0.66667
0.070886,0.28377,0.56709,-0.32434,-27.384,417.36,0.49048,-0.16349,-1.6249,0.65397,3.8514e-08,-0.81245,0,0,0.125,-0,-0,0.66667
0.36931,0.27069,2.9545,-0.34396,-25.19,221.76,2.71,-0.90332,-1.5776,3.6133,-4.1323e-13,-0.7888,0,0,0.125,2.9606e-16,0,0.66667
0.87788,0.1537,7.023,-0.51945,-10.008,11.993,9.7283,-3.2428,-1.0416,12.971,4.9482e-09,-0.52079,0,0,0.125,2.9606e-16,0,0.66667
0.10434,0.81473,0.8347,0.4721,39.681,394.38,-1.0508,0.35028,-1.2071,-1.4011,-1.9307e-08,-0.60357,0,0,0.125,2.9606e-16,0,0.66667
0.35915,0.43564,2.8732,-0.096545,-7.1204,227.75,0.73972,-0.24657,-1.9708,0.9863,-2.9204e-12,-0.9854,0,0,0.125,2.9606e-16,0,0.66667
0.11396,0.97971,0.91168,0.71957,60.572,387.9,-1.7494,0.58313,-0.15776,-2.3325,-5.1886e-09,-0.078878,0,0,0.125,2.9606e-16,0,0.66667
0.87654,0.071392,7.0123,-0.64291,-12.611,12.664,12.022,-4.0074,-0.53173,16.03,-8.2813e-08,-0.26587,0,0,0.125,-0,-0,0.66667
0.12624,0.20061,1.0099,-0.44909,-37.543,379.38,1.2094,-0.40314,-1.2843,1.6126,7.3304e-09,-0.64217,0,0,0.125,-0,-0,0.66667
0.25456,0.13766,2.0364,-0.54352,-43.224,293.8,2.9516,-0.98386,-0.94832,3.9354,-1.357e-11,-0.47416,0,0,0.125,-0,-0,0.66667
0.42191,0.18885,3.3753,-0.46673,-32.571,191.06,4.2009,-1.4003,-1.2298,5.6012,1.8829e-13,-0.61488,0,0,0.125,-0,-0,0.66667
0.66526,0.27306,5.322,-0.34041,-16.035,72.028,4.8311,-1.6104,-1.5862,6.4415,5.9597e-13,-0.7931,0,0,0.125,-0,-0,0.66667
0.34471,0.26224,2.7576,-0.35664,-26.656,236.69,2.6227,-0.87422,-1.5495,3.4969,-2.8799e-12,-0.77477,0,0,0.125,5.9212e-16,0,0.66667
0.2135,0.84467,1.708,0.517,41.948,320.69,-2.3548,0.78493,-1.0494,-3.1397,1.9156e-10,-0.5247,0,0,0.125,-0,-0,0.66667
0.37339,0.58753,2.9871,0.1313,9.5679,219.18,-1.0459,0.34862,-1.9403,-1.3945,-6.3616e-13,-0.97015,0,0,0.125,2.9606e-16,0,0.66667
0.57102,0.974,4.5682,0.71101,40.847,113.55,-8.6614,2.8871,-0.20105,-11.548,-7.9403e-13,-0.10053,0,0,0.125,-0,-0,0.66667
0.99075,0.12581,7.926,-0.56129,-0.7378,1.2728,11.863,-3.9545,-0.87926,15.818,-2.3489e-06,-0.43963,0,0,0.125,2.3685e-15,0,0.66667
0.32717,0.63899,2.6173,0.20849,15.775,247.41,-1.4552,0.48506,-1.8472,-1.9402,1.1126e-12,-0.92358,0,0,0.125,-0,-0,0.66667
0.3622,0.55245,2.8976,0.078675,5.7875,225.9,-0.60792,0.20264,-1.978,-0.81056,2.0237e-12,-0.98901,0,0,0.125,-0,-0,0.66667
0.70624,0.099204,5.6499,-0.60119,-25.589,57.381,9.0578,-3.0193,-0.7152,12.077,3.4337e-12,-0.3576,0,0,0.125,-2.3685e-15,0,0.66667
0.29894,0.44449,2.3915,-0.083263,-6.4222,265.07,0.531,-0.177,-1.9764,0.70799,-2.2651e-12,-0.98819,0,0,0.125,-5.9212e-16,0,0.66667
0.3497,0.51382,2.7976,0.020736,1.541,233.48,-0.1547,0.051566,-1.9965,-0.20626,-1.5827e-12,-0.99824,0,0,0.125,-0,-0,0.66667
0.99471,0.016505,7.9577,-0.72524,-0.62582,1.9393,15.39,-5.13,-0.12812,20.52,-2.4028e-06,-0.064062,0,0,0.125,2.3685e-15,0,0.66667
0.60427,0.94035,4.8341,0.66053,35.697,98.228,-8.5149,2.8383,-0.44819,-11.353,7.0166e-13,-0.2241,0,0,0.125,-2.3685e-15,0,0.66667
0.82881,0.22529,6.6305,-0.41207,-10.841,21.305,7.2859,-2.4286,-1.3989,9.7146,-1.1159e-09,-0.69943,0,0,0.125,-0,-0,0.66667
0.031666,0.037053,0.25333,-0.69442,-59.14,444.53,0.46911,-0.15638,-0.28851,0.62547,-1.2112e-05,-0.14425,0,0,0.125,-7.4015e-17,0,0.66667
0.14549,0.46343,1.1639,-0.054849,-4.5495,366.18,0.17024,-0.056746,-1.9885,0.22699,1.6536e-09,-0.99424,0,0,0.125,7.4015e-17,0,0.66667
0.72773,0.63177,5.8218,0.19765,7.8267,49.201,-3.0685,1.0228,-1.8595,-4.0913,-1.2452e-11,-0.92973,0,0,0.125,-0,-0,0.66667
0.53974,0.8246,4.318,0.4869,29.28,128.1,-5.6064,1.8688,-1.1549,-7.4752,7.3541e-13,-0.57746,0,0,0.125,-0,-0,0.66667
0.99526,0.69767,7.9621,0.29651,0.093127,0.38011,-6.2956,2.0985,-1.6861,-8.3942,3.1905e-07,-0.84305,0,0,0.125,-0,-0,0.66667
0.49563,0.63463,3.965,0.20194,12.89,150.25,-2.1352,0.71174,-1.854,-2.847,-3.3595e-13,-0.92698,0,0,0.125,-0,-0,0.66667
0.3841,0.69951,3.0728,0.29927,21.623,212.89,-2.4523,0.81743,-1.6795,-3.2697,-4.694e-13,-0.83974,0,0,0.125,5.9212e-16,0,0.66667
0.19437,0.49297,1.555,-0.010542,-0.85941,333.22,0.043712,-0.014571,-1.9979,0.058283,1.2664e-10,-0.99895,0,0,0.125,8.8818e-16,0,0.66667
0.59017,0.13924,4.7213,-0.54114,-29.942,104.26,6.813,-2.271,-0.95806,9.084,1.3838e-12,-0.47903,0,0,0.125,-1.1842e-15,0,0.66667
0.76663,0.18293,6.133,-0.47561,-16.567,37.55,7.7784,-2.5928,-1.1982,10.371,4.2109e-11,-0.59912,0,0,0.125,2.9606e-16,0,0.66667
0.92444,0.35378,7.3955,-0.21933,-2.6046,4.8139,4.3255,-1.4418,-1.8292,5.7674,-1.4648e-08,-0.91461,0,0,0.125,-2.3685e-15,0,0.66667
0.13763,0.68109,1.101,0.27163,22.603,371.56,-0.79752,0.26584,-1.7379,-1.0634,-5.5347e-09,-0.86896,0,0,0.125,-7.4015e-17,0,0.66667
0.0080899,0.92709,0.064719,0.64064,54.563,460.84,-0.11056,0.036846,-0.53863,-0.14742,-1.1502e-05,-0.26932,0,0,0.125,-9.2519e-18,0,0.66667
0.47796,0.63293,3.8237,0.1994,13.02,159.65,-2.0332,0.67772,-1.8569,-2.7109,5.1537e-13,-0.92845,0,0,0.125,-0,-0,0.66667
0.18295,0.61762,1.4636,0.17643,14.454,340.89,-0.6886,0.22953,-1.8884,-0.91813,-4.5423e-10,-0.9442,0,0,0.125,-0,-0,0.66667
0.61034,0.9303,4.8827,0.64544,34.463,95.51,-8.404,2.8013,-0.52096,-11.205,-1.0338e-12,-0.26048,0,0,0.125,-0,-0,0.66667
0.62027,0.93104,4.9622,0.64656,33.849,91.203,-8.5556,2.8519,-0.51273,-11.407,-1.35e-12,-0.25636,0,0,0.125,5.9212e-16,0,0.66667
0.40963,0.15897,3.277,-0.51155,-36.168,198.18,4.4703,-1.4901,-1.0701,5.9605,1.4433e-12,-0.53505,0,0,0.125,-0,-0,0.66667
0.67721,0.13441,5.4176,-0.54838,-25.186,67.86,7.9225,-2.6408,-0.92927,10.563,4.1656e-13,-0.46463,0,0,0.125,-0,-0,0.66667
0.19967,0.42881,1.5974,-0.10679,-8.6885,329.69,0.45489,-0.15163,-1.9591,0.60652,2.0873e-10,-0.97955,0,0,0.125,2.9606e-16,0,0.66667
0.80858,0.53504,6.4687,0.052556,1.5221,25.595,-0.90657,0.30219,-1.9901,-1.2088,1.1064e-10,-0.99507,0,0,0.125,-2.3685e-15,0,0.66667
0.05034,0.87518,0.40272,0.56276,47.757,431.59,-0.60436,0.20145,-0.87492,-0.80581,-2.6904e-07,-0.43746,0,0,0.125,-1.4803e-16,0,0.66667
0.17186,0.51451,1.3749,0.021767,1.7899,348.33,-0.079805,0.026602,-2.0012,-0.10641,-2.9915e-10,-1.0006,0,0,0.125,-0,-0,0.66667
0.9806,0.35881,7.8448,-0.21179,-0.58063,0.63147,4.4305,-1.4768,-1.8396,5.9073,5.1135e-08,-0.91981,0,0,0.125,-0,-0,0.66667
0.90038,0.13807,7.203,-0.5429,-8.62,8.6229,10.428,-3.476,-0.9501,13.904,-1.2131e-08,-0.47505,0,0,0.125,-0,-0,0.66667
0.93973,0.94373,7.5178,0.66559,6.5577,4.5933,-13.344,4.4478,-0.4258,-17.791,-1.5471e-06,-0.2129,0,0,0.125,-2.3685e-15,0,0.66667
0.90844,0.39415,7.2676,-0.15877,-2.2788,6.6668,3.077,-1.0257,-1.9108,4.1026,-1.8702e-08,-0.95542,0,0,0.125,-1.1842e-15,0,0.66667
0.44142,0.70962,3.5313,0.31443,21.452,179.83,-2.961,0.98699,-1.6478,-3.9479,-4.3099e-13,-0.82388,0,0,0.125,-0,-0,0.66667
0.9388,0.3666,7.5104,-0.2001,-1.9175,3.3316,4.0076,-1.3359,-1.8593,5.3434,2.5326e-08,-0.92966,0,0,0.125,1.1842e-15,0,0.66667
0.23741,0.2357,1.8993,-0.39645,-31.757,304.86,2.008,-0.66932,-1.4408,2.6773,-1.3932e-11,-0.7204,0,0,0.125,-0,-0,0.66667
0.049514,0.71385,0.39611,0.32078,27.153,432.13,-0.33884,0.11295,-1.6349,-0.45179,5.6967e-08,-0.81746,0,0,0.125,1.8504e-17,0,0.66667
0.55726,0.69712,4.4581,0.29569,17.251,119.26,-3.5152,1.1717,-1.6877,-4.6869,7.3563e-13,-0.84383,0,0,0.125,-1.1842e-15,0,0.66667
0.31332,0.828,2.5066,0.49199,37.698,256.27,-3.2886,1.0962,-1.1412,-4.3848,3.2827e-12,-0.57061,0,0,0.125,-5.9212e-16,0,0.66667
0.53208,0.21201,4.2566,-0.43198,-26.258,131.81,4.9034,-1.6345,-1.3389,6.5379,-5.3424e-13,-0.66946,0,0,0.125,5.9212e-16,0,0.66667
0.47161,0.23088,3.7729,-0.40368,-26.619,163.29,4.0614,-1.3538,-1.4205,5.4152,2.1716e-13,-0.71023,0,0,0.125,-0,-0,0.66667
0.48313,0.64043,3.8651,0.21064,13.666,156.89,-2.171,0.72368,-1.8436,-2.8947,-5.8975e-13,-0.92181,0,0,0.125,-5.9212e-16,0,0.66667
0.57008,0.15658,4.5606,-0.51513,-29.514,113.51,6.2649,-2.0883,-1.0558,8.3532,-1.2186e-12,-0.52791,0,0,0.125,-0,-0,0.66667
0.92344,0.43216,7.3875,-0.10176,-1.2205,4.8007,2.0048,-0.66826,-1.9649,2.673,-5.0165e-08,-0.98247,0,0,0.125,-1.1842e-15,0,0.66667
0.23619,0.67009,1.8895,0.25513,20.425,305.58,-1.2856,0.42852,-1.7693,-1.7141,-2.3479e-12,-0.88467,0,0,0.125,-0,-0,0.66667
0.87608,0.80874,7.0086,0.46311,9.0203,12.123,-8.6554,2.8851,-1.24,-11.541,9.2922e-09,-0.61999,0,0,0.125,1.7764e-15,0,0.66667
0.73384,0.74863,5.8707,0.37294,14.523,47.451,-5.8384,1.9461,-1.5091,-7.7845,-1.6654e-11,-0.75456,0,0,0.125,-1.4803e-15,0,0.66667
0.079211,0.028411,0.63369,-0.70738,-59.939,411.73,1.1954,-0.39845,-0.22353,1.5938,1.3542e-06,-0.11176,0,0,0.125,-1.1102e-16,0,0.66667
0.83539,0.86492,6.6831,0.54738,13.963,20.239,-9.7552,3.2517,-0.93261,-13.007,-1.0919e-09,-0.4663,0,0,0.125,-0,-0,0.66667
0.39764,0.23577,3.1812,-0.39635,-28.307,205.01,3.3623,-1.1208,-1.4392,4.483,-4.3188e-13,-0.7196,0,0,0.125,5.9212e-16,0,0.66667
0.33574,0.080976,2.6859,-0.62854,-47.48,242.53,4.5018,-1.5006,-0.59311,6.0024,-2.1689e-12,-0.29655,0,0,0.125,-5.9212e-16,0,0.66667
0.000393,0.25022,0.003144,-0.37467,-31.808,466.17,0.0031411,-0.0010465,-1.5049,0.0041883,7.9533e-07,-0.75246,0,0,0.125,-0,-8.1857e-18,0.66667
0.24581,0.10531,1.9664,-0.59204,-47.338,299.54,3.1046,-1.0349,-0.75267,4.1394,-2.3842e-11,-0.37633,0,0,0.125,-0,-0,0.66667
0.68795,0.24636,5.5036,-0.38046,-16.936,63.452,5.5837,-1.8612,-1.4887,7.4449,3.8125e-12,-0.74433,0,0,0.125,5.9212e-16,0,0.66667
0.85117,0.098149,6.8094,-0.60278,-14.047,17.157,10.945,-3.6485,-0.70672,14.594,1.1359e-08,-0.35336,0,0,0.125,-0,-0,0.66667
0.24105,0.64252,1.9284,0.21378,17.068,302.38,-1.0993,0.36645,-1.8353,-1.4658,4.2831e-12,-0.91767,0,0,0.125,-2.9606e-16,0,0.66667
0.37094,0.38261,2.9675,-0.17608,-12.861,220.67,1.3934,-0.46446,-1.8891,1.8578,-1.6472e-12,-0.94455,0,0,0.125,-0,-0,0.66667
0.15042,0.20899,1.2034,-0.43651,-36.238,362.93,1.4008,-0.46693,-1.3208,1.8677,2.5912e-09,-0.66039,0,0,0.125,-0,-0,0.66667
0.8035,0.51627,6.428,0.024406,0.72385,26.861,-0.41836,0.13945,-1.9957,-0.55781,7.4518e-11,-0.99785,0,0,0.125,-0,-0,0.66667
0.71702,0.198,5.7362,-0.453,-18.614,53.239,6.9294,-2.3098,-1.2714,9.2392,8.6948e-12,-0.6357,0,0,0.125,-0,-0,0.66667
0.70048,0.76957,5.6038,0.40436,17.407,58.931,-6.0425,2.0142,-1.4187,-8.0567,-6.7124e-12,-0.70937,0,0,0.125,-1.1842e-15,0,0.66667
0.67885,0.33448,5.4308,-0.24828,-11.294,66.658,3.5957,-1.1986,-1.7789,4.7942,3.4126e-12,-0.88943,0,0,0.125,-0,-0,0.66667
0.89205,0.13771,7.1364,-0.54343,-9.3213,9.8298,10.342,-3.4472,-0.95122,13.789,-6.5199e-09,-0.47561,0,0,0.125,-0,-0,0.66667
0.88303,0.78875,7.0642,0.43313,7.9724,10.891,-8.1593,2.7198,-1.3311,-10.879,1.0515e-08,-0.66557,0,0,0.125,-0,-0,0.66667
0.62537,0.21736,5.0029,-0.42396,-21.861,88.492,5.6561,-1.8854,-1.3648,7.5414,3.8014e-13,-0.68238,0,0,0.125,-2.2204e-16,0,0.66667
0.28878,0.70249,2.3102,0.30374,23.609,271.61,-1.8712,0.62374,-1.6697,-2.495,7.8425e-12,-0.83484,0,0,0.125,-5.9212e-16,0,0.66667
0.4031,0.8038,3.2248,0.45569,32.4,201.89,-3.9188,1.3063,-1.2615,-5.225,7.4496e-13,-0.63077,0,0,0.125,2.9606e-16,0,0.66667
0.028957,0.47567,0.23166,-0.036499,-3.0907,446.35,0.022548,-0.0075158,-1.9961,0.030064,1.0356e-07,-0.99804,0,0,0.125,-0,-0,0.66667
0.91648,0.81417,7.3319,0.47126,6.2701,6.2992,-9.2138,3.0713,-1.2099,-12.285,3.6944e-08,-0.60496,0,0,0.125,-2.3685e-15,0,0.66667
0.68745,0.47236,5.4996,-0.041454,-1.8416,63.287,0.60795,-0.20265,-1.9977,0.8106,-4.5602e-13,-0.99887,0,0,0.125,-0,-0,0.66667
0.90817,0.43877,7.2654,-0.091846,-1.3206,6.6484,1.7795,-0.59315,-1.9721,2.3726,2.5754e-08,-0.98605,0,0,0.125,-0,-0,0.66667
0.30209,0.58412,2.4167,0.12619,9.7137,263.09,-0.8132,0.27107,-1.9419,-1.0843,-5.3585e-13,-0.97095,0,0,0.125,-0,-0,0.66667
0.94483,0.029775,7.5586,-0.70534,-6.4109,4.3365,14.217,-4.739,-0.23022,18.956,7.8827e-06,-0.11511,0,0,0.125,-8.8818e-16,0,0.66667
0.86403,0.035656,6.9122,-0.69652,-15.008,15.08,12.839,-4.2795,-0.2745,17.118,-1.9222e-08,-0.13725,0,0,0.125,-0,-0,0.66667
0.88601,0.39178,7.0881,-0.16234,-2.8878,9.9078,3.0684,-1.0228,-1.9049,4.0912,-9.6737e-09,-0.95244,0,0,0.125,-0,-0,0.66667
0.00014133,0.88439,0.0011306,0.57659,49.064,466.35,-0.0017374,0.00058213,-0.82095,-0.002315,4.4967e-06,-0.41047,0,0,0.125,2.8912e-19,4.9785e-16,0.66667
0.37724,0.44442,3.0179,-0.083376,-6.0542,216.87,0.67099,-0.22366,-1.9762,0.89465,-1.2411e-12,-0.98808,0,0,0.125,-0,-0,0.66667
0.12233,0.68876,0.9786,0.28315,23.659,382,-0.7389,0.2463,-1.7163,-0.9852,-9.4846e-09,-0.85817,0,0,0.125,2.9606e-16,0,0.66667
0.93281,0.82875,7.4625,0.49312,5.3015,4.5811,-9.813,3.271,-1.1339,-13.084,1.2849e-07,-0.56697,0,0,0.125,-0,-0,0.66667
0.51371,0.7453,4.1097,0.36795,22.949,141.03,-4.0324,1.3441,-1.5201,-5.3765,3.5261e-13,-0.76006,0,0,0.125,2.9606e-16,0,0.66667
0.48934,0.2351,3.9147,-0.39735,-25.621,153.78,4.148,-1.3827,-1.437,5.5306,-3.0775e-13,-0.71851,0,0,0.125,-0,-0,0.66667
0.48692,0.82297,3.8954,0.48445,31.374,155.2,-5.0323,1.6774,-1.1658,-6.7098,-1.8963e-13,-0.58289,0,0,0.125,-0,-0,0.66667
0.57029,0.091207,4.5623,-0.61319,-35.189,113.63,7.4602,-2.4867,-0.662,9.9469,-1.5183e-12,-0.331,0,0,0.125,7.4015e-16,0,0.66667
0.54451,0.97621,4.3561,0.71431,42.843,126.28,-8.2975,2.7658,-0.18651,-11.063,8.2245e-13,-0.093257,0,0,0.125,-0,-1.0757e-16,0.66667
0.91711,0.83033,7.3369,0.4955,6.5561,6.3008,-9.6944,3.2315,-1.1256,-12.926,2.1003e-08,-0.56278,0,0,0.125,-0,-0,0.66667
0.88438,0.7742,7.0751,0.4113,7.4787,10.616,-7.7599,2.5866,-1.3969,-10.346,1.1335e-08,-0.69847,0,0,0.125,-0,-0,0.66667
0.78372,0.65947,6.2698,0.23921,7.7494,32.242,-3.9994,1.3331,-1.7978,-5.3325,8.295e-11,-0.89888,0,0,0.125,-0,-0,0.66667
0.32273,0.018392,2.5818,-0.72241,-55.195,250.72,4.9737,-1.6579,-0.14268,6.6316,-2.1725e-12,-0.071339,0,0,0.125,1.1842e-15,0,0.66667
0.78444,0.93563,6.2755,0.65345,21.357,33.076,-10.935,3.6451,-0.48265,-14.58,2.1436e-10,-0.24133,0,0,0.125,-1.3323e-15,0,0.66667
0.14519,0.66161,1.1615,0.24242,20.124,366.41,-0.75084,0.25028,-1.7904,-1.0011,-3.8998e-09,-0.89519,0,0,0.125,-0,-0,0.66667
0.86023,0.71005,6.8818,0.31507,6.8394,14.603,-5.7821,1.9274,-1.6492,-7.7094,5.1778e-09,-0.8246,0,0,0.125,-1.1842e-15,0,0.66667
0.773,0.017775,6.184,-0.72334,-24.813,36.526,11.928,-3.9761,-0.13741,15.904,5.9608e-11,-0.068707,0,0,0.125,-0,-0,0.66667
0.77597,0.17559,6.2077,-0.48661,-16.357,34.897,8.0553,-2.6851,-1.1564,10.74,-1.4756e-11,-0.57821,0,0,0.125,-1.1842e-15,0,0.66667
0.5287,0.12477,4.2296,-0.56285,-34.461,133.75,6.3484,-2.1161,-0.8753,8.4645,2.4216e-12,-0.43765,0,0,0.125,7.4015e-17,8.3662e-21,0.66667
0.45019,0.82772,3.6015,0.49158,33.283,175.16,-4.7211,1.5737,-1.1405,-6.2949,1.1529e-12,-0.57025,0,0,0.125,-0,-0,0.66667
0.22663,0.51597,1.8131,0.023962,1.9258,311.81,-0.11585,0.038618,-1.9957,-0.15447,-1.1011e-11,-0.99783,0,0,0.125,-0,-0,0.66667
0.80868,0.1989,6.4694,-0.45165,-13.169,26.15,7.7917,-2.5972,-1.2739,10.389,-2.1248e-10,-0.63695,0,0,0.125,-0,-0,0.66667
0.96593,0.60865,7.7274,0.16297,0.84092,1.2608,-3.3583,1.1194,-1.9054,-4.4777,-8.0813e-08,-0.95269,0,0,0.125,-0,-0,0.66667
0.54353,0.27461,4.3483,-0.33809,-20.17,125.99,3.9203,-1.3068,-1.5935,5.227,4.8783e-13,-0.79677,0,0,0.125,-8.8818e-16,0,0.66667
0.90221,0.12983,7.2177,-0.55525,-8.6676,8.4131,10.687,-3.5623,-0.90353,14.249,-1.4547e-08,-0.45176,0,0,0.125,-0,-0,0.66667
0.28235,0.71523,2.2588,0.32284,25.2,275.72,-1.9446,0.64821,-1.632,-2.5929,9.7933e-12,-0.81599,0,0,0.125,-0,-0,0.66667
0.51776,0.9005,4.142,0.60075,37.396,139.37,-6.6355,2.2118,-0.71795,-8.8473,8.4555e-13,-0.35897,0,0,0.125,-2.9606e-16,0,0.66667
0.32816,0.69209,2.6253,0.28813,21.796,246.84,-2.0171,0.67237,-1.7085,-2.6895,2.2431e-12,-0.85427,0,0,0.125,-0,-0,0.66667
0.9918,0.18077,7.9344,-0.47885,-0.50181,0.94727,10.132,-3.3772,-1.183,13.509,-8.1825e-07,-0.59149,0,0,0.125,-5.9212e-16,0,0.66667
0.25032,0.96076,2.0025,0.69114,55.221,296.72,-3.6907,1.2302,-0.30451,-4.921,-1.5847e-12,-0.15226,0,0,0.125,-0,-0,0.66667
0.67876,0.94686,5.43,0.67029,30.767,67.631,-9.7058,3.2353,-0.4006,-12.941,1.0409e-12,-0.2003,0,0,0.125,-1.1842e-15,0,0.66667
0.7642,0.57436,6.1136,0.11153,3.8957,37.679,-1.8183,0.60611,-1.957,-2.4245,4.1053e-12,-0.97852,0,0,0.125,-1.1842e-15,0,0.66667
0.032227,0.52775,0.25781,0.041622,3.5239,444.09,-0.028616,0.0095382,-1.9966,-0.038154,-4.6353e-07,-0.99828,0,0,0.125,-1.8504e-17,0,0.66667
0.98227,0.045415,7.8582,-0.68188,-1.9759,2.0381,14.289,-4.7629,-0.34728,19.052,1.948e-06,-0.17364,0,0,0.125,-0,-1.4674e-16,0.66667
0.091323,0.52092,0.73058,0.031385,2.6376,403.24,-0.061144,0.020381,-1.9969,-0.081526,1.3945e-09,-0.99843,0,0,0.125,-0,-0,0.66667
0.61407,0.67922,4.9126,0.26883,14.153,93.127,-3.5217,1.1739,-1.7419,-4.6956,-1.5337e-12,-0.87097,0,0,0.125,-0,-0,0.66667
0.14935,0.55675,1.1948,0.085122,7.0527,363.56,-0.27121,0.090404,-1.9727,-0.36162,-4.0223e-10,-0.98634,0,0,0.125,-1.4803e-16,0,0.66667
0.5208,0.53773,4.1664,0.056594,3.4866,137.16,-0.62877,0.20959,-1.9875,-0.83837,1.0749e-12,-0.99374,0,0,0.125,-1.1842e-15,0,0.66667
0.093345,0.67424,0.74676,0.26135,21.974,401.87,-0.52045,0.17348,-1.7596,-0.69393,-2.1075e-08,-0.87978,0,0,0.125,-0,-0,0.66667
0.7812,0.40491,6.2496,-0.14264,-4.6634,32.834,2.3771,-0.79237,-1.9319,3.1695,-7.4211e-11,-0.96596,0,0,0.125,-0,-0,0.66667
0.77293,0.22062,6.1834,-0.41907,-14.228,35.59,6.9101,-2.3034,-1.3746,9.2135,-3.186e-11,-0.68731,0,0,0.125,-0,-0,0.66667
0.59815,0.038863,4.7852,-0.69171,-37.847,101.05,8.8265,-2.9422,-0.29796,11.769,7.6383e-13,-0.14898,0,0,0.125,1.1842e-15,0,0.66667
0.014543,0.58802,0.11635,0.13202,11.189,456.35,-0.040961,0.013654,-1.9403,-0.054615,2.1446e-08,-0.97013,0,0,0.125,9.2519e-18,0,0.66667
0.042024,0.38922,0.33619,-0.16617,-14.063,437.3,0.14897,-0.049658,-1.9003,0.19863,-8.8032e-08,-0.95014,0,0,0.125,-0,-0,0.66667
0.18097,0.21923,1.4478,-0.42116,-34.594,342.31,1.626,-0.54199,-1.3688,2.168,3.4632e-10,-0.68438,0,0,0.125,-0,-0,0.66667
0.97203,0.24904,7.7762,-0.37644,-1.6075,1.3357,7.806,-2.602,-1.4971,10.408,4.4467e-07,-0.74856,0,0,0.125,-2.9606e-16,0,0.66667
0.2546,0.50729,2.0368,0.010938,0.86649,293.51,-0.05941,0.019803,-1.9986,-0.079213,2.7253e-12,-0.99932,0,0,0.125,-1.1842e-15,0,0.66667
0.75101,0.64354,6.0081,0.21531,7.8953,41.756,-3.4497,1.1499,-1.8369,-4.5995,-1.0183e-11,-0.91843,0,0,0.125,-1.1842e-15,0,0.66667
0.28124,0.96917,2.2499,0.70376,55.255,276.82,-4.2223,1.4074,-0.24351,-5.6298,-8.6597e-14,-0.12176,0,0,0.125,-1.1842e-15,-7.913e-18,0.66667
0.25552,0.67688,2.0441,0.26532,21.027,292.97,-1.4463,0.48208,-1.748,-1.9283,1.3566e-11,-0.87402,0,0,0.125,2.9606e-16,0,0.66667
0.25786,0.27749,2.0629,-0.33377,-26.431,291.49,1.8361,-0.61203,-1.6026,2.4481,-1.7196e-11,-0.80129,0,0,0.125,7.4015e-17,0,0.66667
0.29705,0.4832,2.3764,-0.025193,-1.9454,266.25,0.15965,-0.053217,-2.0004,0.21287,3.0753e-13,-1.0002,0,0,0.125,5.9212e-16,0,0.66667
0.0089446,0.51066,0.071557,0.015989,1.355,460.24,-0.0030509,0.0010145,-1.9971,-0.004069,-3.6209e-06,-0.99853,0,0,0.125,-0,-0,0.66667
0.98718,0.13731,7.8974,-0.54404,-1.0327,1.2959,11.457,-3.8191,-0.94755,15.276,-1.2127e-06,-0.47377,0,0,0.125,-0,-0,0.66667
0.56646,0.68432,4.5317,0.27648,15.883,114.84,-3.3411,1.1137,-1.7283,-4.4548,-2.2964e-12,-0.86413,0,0,0.125,2.9606e-16,0,0.66667
0.60184,0.57562,4.8147,0.11344,6.109,98.399,-1.4564,0.48548,-1.952,-1.9419,-1.9028e-12,-0.976,0,0,0.125,1.1842e-15,0,0.66667
0.53826,0.63507,4.3061,0.2026,12.17,128.46,-2.3264,0.77547,-1.852,-3.1019,4.2744e-13,-0.92601,0,0,0.125,-0,-0,0.66667
0.043838,0.35541,0.3507,-0.21688,-18.356,436.05,0.20283,-0.06761,-1.8325,0.27044,-7.5093e-08,-0.91625,0,0,0.125,-0,-0,0.66667
0.47152,0.65166,3.7722,0.22749,14.976,163.15,-2.2883,0.76277,-1.8167,-3.0511,-8.9018e-13,-0.90836,0,0,0.125,-5.9212e-16,0,0.66667
0.53968,0.22309,4.3174,-0.41537,-24.953,128.01,4.7822,-1.5941,-1.3852,6.3762,1.3012e-13,-0.69259,0,0,0.125,-0,-0,0.66667
0.67296,0.38852,5.3836,-0.16722,-7.7146,68.83,2.4007,-0.80023,-1.9022,3.2009,2.3785e-12,-0.95108,0,0,0.125,-1.1842e-15,0,0.66667
0.53417,0.35692,4.2733,-0.21463,-12.974,130.5,2.4458,-0.81526,-1.836,3.2611,1.5787e-13,-0.918,0,0,0.125,-0,-0,0.66667
0.055072,0.75775,0.44058,0.38662,32.726,428.29,-0.45424,0.15141,-1.4667,-0.60565,-8.8208e-09,-0.73333,0,0,0.125,-0,-0,0.66667
0.6201,0.41456,4.9608,-0.12816,-6.6585,90.391,1.6954,-0.56513,-1.9404,2.2605,-2.8466e-13,-0.9702,0,0,0.125,-0,-0,0.66667
0.58118,0.29494,4.6494,-0.30758,-17.232,107.97,3.8135,-1.2712,-1.6633,5.0847,-1.41e-13,-0.83164,0,0,0.125,-0,-0,0.66667
0.5456,0.18404,4.3648,-0.47394,-28.238,125.19,5.5163,-1.8388,-1.2037,7.3551,-4.5874e-13,-0.60187,0,0,0.125,9.0168e-16,0,0.66667
0.84328,0.86172,6.7463,0.54257,13.224,18.55,-9.7609,3.2536,-0.95563,-13.015,1.3338e-09,-0.47781,0,0,0.125,-0,-0,0.66667
0.44739,0.99378,3.5791,0.74067,50.543,177.21,-7.0692,2.3564,-0.048113,-9.4256,-2.1037e-12,-0.024057,0,0,0.125,-2.9606e-16,0,0.66667
0.60357,0.14087,4.8285,-0.5387,-29.071,98.226,6.9363,-2.3121,-0.96623,9.2484,2.0264e-12,-0.48311,0,0,0.125,-7.1477e-16,0,0.66667
0.12361,0.31378,0.9889,-0.27933,-23.332,381.12,0.73661,-0.24554,-1.7252,0.98215,9.1371e-09,-0.86262,0,0,0.125,-0,-0,0.66667
0.25238,0.80233,2.019,0.45349,36.065,295.14,-2.4417,0.81388,-1.2692,-3.2555,1.521e-11,-0.6346,0,0,0.125,-0,-0,0.66667
0.85035,0.95624,6.8028,0.68436,16.104,17.637,-12.415,4.1383,-0.33267,-16.553,7.5257e-09,-0.16633,0,0,0.125,-1.1842e-15,0,0.66667
0.016224,0.75945,0.12979,0.38918,33.035,455.19,-0.1347,0.044901,-1.4639,-0.1796,1.7862e-07,-0.73194,0,0,0.125,-0,-0,0.66667
0.15625,0.92654,1.25,0.63981,53.162,359.1,-2.1327,0.7109,-0.54758,-2.8436,-5.9662e-09,-0.27379,0,0,0.125,-0,-0,0.66667
0.82338,0.089286,6.5871,-0.61607,-16.813,23.153,10.822,-3.6072,-0.64988,14.429,3.2953e-10,-0.32494,0,0,0.125,1.4803e-15,0,0.66667
0.22934,0.86686,1.8347,0.55029,44.34,310.28,-2.6923,0.89743,-0.92207,-3.5897,1.44e-10,-0.46104,0,0,0.125,-1.4803e-16,0,0.66667
0.25919,0.98398,2.0736,0.72597,57.76,291.01,-4.0142,1.3381,-0.12399,-5.3523,1.6072e-11,-0.061995,0,0,0.125,-0,-0,0.66667
0.70079,0.54162,5.6063,0.062433,2.675,58.422,-0.93339,0.31113,-1.9866,-1.2445,-2.2642e-12,-0.99329,0,0,0.125,-1.1842e-15,0,0.66667
0.96653,0.84862,7.7322,0.52293,2.7807,2.0756,-10.782,3.5941,-1.0289,-14.377,-3.2975e-07,-0.51444,0,0,0.125,-0,-0,0.66667
0.19828,0.3819,1.5862,-0.17715,-14.425,330.63,0.74934,-0.24978,-1.8874,0.99912,2.5575e-10,-0.9437,0,0,0.125,5.9212e-16,0,0.66667
0.7475,0.68045,5.98,0.27068,10.055,42.918,-4.3164,1.4388,-1.7401,-5.7552,-1.5044e-11,-0.87006,0,0,0.125,4.4261e-16,0,0.66667
0.14051,0.45118,1.124,-0.073233,-6.0835,369.57,0.21951,-0.073171,-1.9837,0.29268,2.2377e-09,-0.99185,0,0,0.125,-0,-0,0.66667
0.3825,0.61937,3.06,0.17905,12.945,213.77,-1.461,0.48701,-1.8844,-1.9481,-2.3226e-13,-0.94221,0,0,0.125,5.9212e-16,0,0.66667
0.32329,0.091756,2.5863,-0.61237,-46.675,250.2,4.2234,-1.4078,-0.66644,5.6312,-1.6143e-12,-0.33322,0,0,0.125,7.4015e-17,0,0.66667
0.88379,0.90346,7.0703,0.60519,11.183,11.331,-11.41,3.8034,-0.6967,-15.214,-3.3614e-08,-0.34835,0,0,0.125,5.9212e-16,0,0.66667
0.65538,0.015257,5.2431,-0.72711,-35.371,76.899,10.166,-3.3887,-0.12201,13.555,4.2277e-13,-0.061003,0,0,0.125,-0,1.4795e-16,0.66667
0.33358,0.55525,2.6686,0.082877,6.2374,243.4,-0.58977,0.19659,-1.9742,-0.78636,-2.2887e-12,-0.98712,0,0,0.125,-0,-0,0.66667
0.021608,0.10227,0.17286,-0.5966,-50.758,451.48,0.27501,-0.091674,-0.73281,0.36668,-5.4732e-06,-0.3664,0,0,0.125,-0,-0,0.66667
0.36901,0.96566,2.9521,0.69848,51.434,222.43,-5.4986,1.8329,-0.26439,-7.3315,-5.3157e-13,-0.13219,0,0,0.125,9.9743e-16,0,0.66667
0.97218,0.49908,7.7774,-0.001382,-0.0056627,0.83867,0.028663,-0.0095504,-2.0008,0.038219,5.9478e-06,-1.0004,0,0,0.125,4.4409e-16,0,0.66667
0.5291,0.98487,4.2328,0.7273,44.664,133.95,-8.2094,2.7365,-0.11964,-10.946,1.8332e-12,-0.059822,0,0,0.125,-1.1842e-15,0,0.66667
0.74214,0.58376,5.9372,0.12564,4.745,44.453,-1.9892,0.66307,-1.9418,-2.6523,-8.8602e-12,-0.9709,0,0,0.125,-5.9212e-16,0,0.66667
0.34539,0.49914,2.7631,-0.0012893,-0.096145,236.12,0.0095003,-0.0031668,-2.0025,0.012667,-2.9064e-12,-1.0012,0,0,0.125,1.1102e-15,0,0.66667
0.46059,0.39488,3.6847,-0.15769,-10.513,169.07,1.5494,-0.51647,-1.9094,2.0659,1.4111e-13,-0.95471,0,0,0.125,-0,-0,0.66667
0.21164,0.86318,1.6931,0.54477,44.255,321.95,-2.4596,0.81987,-0.94262,-3.2795,-2.2773e-10,-0.47131,0,0,0.125,-2.9606e-16,0,0.66667
0.83696,0.33704,6.6957,-0.24444,-6.1198,19.186,4.3646,-1.4549,-1.7859,5.8194,-1.6054e-09,-0.89294,0,0,0.125,-5.9212e-16,0,0.66667
0.35981,0.72877,2.8785,0.34316,25.333,227.49,-2.634,0.87801,-1.5839,-3.512,1.2359e-12,-0.79194,0,0,0.125,-5.9212e-16,0,0.66667
0.037088,0.10915,0.29671,-0.58628,-49.827,440.76,0.46387,-0.15462,-0.77592,0.61849,1.4838e-06,-0.38796,0,0,0.125,-0,-0,0.66667
0.68899,0.76592,5.5119,0.39888,17.713,63.102,-5.8629,1.9543,-1.4354,-7.8172,-5.8749e-12,-0.7177,0,0,0.125,-0,-0,0.66667
0.15579,0.72701,1.2463,0.34052,28.195,359.25,-1.1317,0.37724,-1.5904,-1.509,-2.4794e-09,-0.7952,0,0,0.125,-0,-0,0.66667
0.79875,0.76671,6.39,0.40006,12.191,28.529,-6.8171,2.2724,-1.4316,-9.0894,1.8843e-10,-0.71582,0,0,0.125,-0,-0,0.66667
0.015262,0.94685,0.1221,0.67028,57.105,455.88,-0.21823,0.072736,-0.40524,-0.29098,-1.2636e-05,-0.20262,0,0,0.125,3.7007e-17,0,0.66667
0.58562,0.11333,4.685,-0.58001,-32.384,106.43,7.2462,-2.4154,-0.80169,9.6616,1.4211e-13,-0.40084,0,0,0.125,-5.9212e-16,0,0.66667
0.49552,0.19856,3.9641,-0.45216,-28.942,150.6,4.7798,-1.5933,-1.2719,6.373,5.7732e-14,-0.63593,0,0,0.125,-0,-0,0.66667
0.99746,0.078256,7.9797,-0.63262,-0.1672,1.4525,13.462,-4.4872,-0.57714,17.949,9.9729e-06,-0.28857,0,0,0.125,-0,5.1932e-16,0.66667
0.13437,0.36215,1.075,-0.20677,-17.214,373.76,0.59272,-0.19757,-1.8459,0.79029,5.9094e-09,-0.92297,0,0,0.125,-1.4803e-16,0,0.66667
0.67255,0.46955,5.3804,-0.045674,-2.108,68.923,0.65533,-0.21844,-1.9962,0.87377,1.5093e-13,-0.99808,0,0,0.125,-0,-0,0.66667
0.094945,0.52203,0.75956,0.033039,2.7747,400.75,-0.06692,0.022307,-1.9978,-0.089227,-8.8195e-09,-0.99892,0,0,0.125,-0,-0,0.66667
0.16177,0.3222,1.2941,-0.2667,-22.027,355.18,0.92039,-0.3068,-1.7455,1.2272,1.8412e-09,-0.87275,0,0,0.125,-0,-0,0.66667
0.98833,0.90904,7.9067,0.61356,1.0964,1.5477,-12.937,4.3122,-0.66159,-17.249,9.33e-06,-0.33079,0,0,0.125,-0,-0,0.66667
0.80667,0.64011,6.4533,0.21017,6.1513,26.19,-3.6167,1.2056,-1.841,-4.8223,3.4382e-10,-0.92049,0,0,0.125,-0,-0,0.66667
0.24464,0.76145,1.9571,0.39217,31.296,300.13,-2.0467,0.68224,-1.4515,-2.729,1.4156e-11,-0.72575,0,0,0.125,-0,-0,0.66667
0.8463,0.39634,6.7704,-0.1555,-3.6786,17.115,2.8074,-0.9358,-1.9143,3.7432,-2.545e-09,-0.95716,0,0,0.125,-0,-0,0.66667
0.0356,0.97938,0.2848,0.71907,61.249,441.81,-0.54612,0.18204,-0.16045,-0.72816,-4.2928e-06,-0.080223,0,0,0.125,7.4015e-17,0,0.66667
0.53561,0.24299,4.2849,-0.38551,-23.294,129.98,4.405,-1.4683,-1.4708,5.8733,-1.9496e-13,-0.7354,0,0,0.125,-8.8818e-16,0,0.66667
0.091475,0.94102,0.7318,0.66153,55.893,403.28,-1.291,0.43032,-0.44534,-1.7213,-3.3278e-07,-0.22267,0,0,0.125,-0,5.9199e-17,0.66667
0.97091,0.67899,7.7672,0.26848,1.1772,1.1508,-5.561,1.8537,-1.7445,-7.4147,-1.7147e-07,-0.87224,0,0,0.125,1.1842e-15,0,0.66667
0.5831,0.53256,4.6648,0.048841,2.7223,106.89,-0.60755,0.20252,-1.9913,-0.81007,-7.5251e-13,-0.99567,0,0,0.125,-0,-0,0.66667
0.55574,0.45343,4.4459,-0.069854,-4.0795,119.83,0.82817,-0.27606,-1.9804,1.1042,2.8683e-13,-0.99022,0,0,0.125,-0,-0,0.66667
0.31797,0.3328,2.5438,-0.2508,-19.108,253.16,1.7013,-0.5671,-1.7747,2.2684,-1.238e-12,-0.88733,0,0,0.125,2.9606e-16,0,0.66667
0.8499,0.65138,6.7992,0.22708,5.26,16.467,-4.1172,1.3724,-1.8154,-5.4896,3.1208e-09,-0.9077,0,0,0.125,-0,-0,0.66667
0.53015,0.10532,4.2412,-0.59202,-36.19,133.09,6.6957,-2.2319,-0.75549,8.9276,1.6693e-12,-0.37775,0,0,0.125,-0,-0,0.66667
0.017098,0.25339,0.13679,-0.36991,-31.394,454.59,0.13493,-0.044977,-1.5156,0.17991,-1.8612e-07,-0.75782,0,0,0.125,-0,-0,0.66667
0.18489,0.92979,1.4792,0.64469,53.034,339.84,-2.5429,0.84764,-0.52268,-3.3906,-1.6916e-09,-0.26134,0,0,0.125,1.4803e-16,0,0.66667
0.43347,0.2063,3.4677,-0.44055,-30.361,184.45,4.0739,-1.358,-1.3089,5.4318,-9.6811e-14,-0.65446,0,0,0.125,5.9212e-16,0,0.66667
0.079976,0.81745,0.63981,0.47618,40.208,411.12,-0.81244,0.27081,-1.1953,-1.0832,-4.6825e-08,-0.59766,0,0,0.125,2.9606e-16,0,0.66667
0.28066,0.34975,2.2453,-0.22538,-17.598,276.75,1.3494,-0.44981,-1.8222,1.7992,-9.6408e-12,-0.91109,0,0,0.125,-0,-0,0.66667
0.2504,0.73175,2.0032,0.34762,27.645,296.35,-1.8569,0.61897,-1.5728,-2.4759,1.3929e-11,-0.78639,0,0,0.125,-5.9212e-16,0,0.66667
0.00060864,0.017586,0.0048691,-0.72362,-61.72,466.02,0.0095065,-0.0032259,-0.14013,0.012647,-8.5551e-05,-0.070067,0,0,0.125,2.313e-18,5.828e-16,0.66667
0.69289,0.69241,5.5431,0.28862,12.661,61.483,-4.2662,1.4221,-1.7028,-5.6883,-6.9647e-12,-0.85141,0,0,0.125,-0,-0,0.66667
0.77389,0.37919,6.1911,-0.18121,-6.1028,34.924,2.9918,-0.99726,-1.8819,3.989,-3.0152e-11,-0.94093,0,0,0.125,-2.3685e-15,0,0.66667
0.82035,0.78334,6.5628,0.425,11.692,23.276,-7.4379,2.4793,-1.3567,-9.9172,4.4048e-10,-0.67837,0,0,0.125,2.3685e-15,0,0.66667
0.85163,0.53326,6.813,0.049896,1.1408,15.974,-0.90652,0.30217,-1.9901,-1.2087,2.6161e-09,-0.99507,0,0,0.125,-0,-0,0.66667
0.15152,0.91505,1.2122,0.62257,51.794,362.29,-2.0125,0.67083,-0.62071,-2.6833,2.8679e-09,-0.31035,0,0,0.125,-0,-0,0.66667
0.89004,0.09805,7.1203,-0.60292,-10.569,10.349,11.448,-3.816,-0.71054,15.264,-2.5902e-08,-0.35527,0,0,0.125,-2.3685e-15,0,0.66667
0.65821,0.5231,5.2657,0.034645,1.6554,74.539,-0.48648,0.16216,-1.9967,-0.64864,-2.0918e-12,-0.99837,0,0,0.125,-0,-0,0.66667
0.69613,0.44381,5.5691,-0.084278,-3.658,60.111,1.2516,-0.4172,-1.9731,1.6688,1.9165e-12,-0.98655,0,0,0.125,-0,-0,0.66667
0.56407,0.79889,4.5126,0.44834,25.917,116.22,-5.3951,1.7984,-1.2864,-7.1935,3.233e-13,-0.64318,0,0,0.125,-0,-0,0.66667
0.93968,0.71298,7.5175,0.31947,3.037,3.4583,-6.4042,2.1347,-1.6382,-8.539,5.7402e-09,-0.8191,0,0,0.125,-1.7764e-15,0,0.66667
0.25185,0.58609,2.0148,0.12913,10.247,295.31,-0.69379,0.23126,-1.9419,-0.92505,5.7282e-13,-0.97094,0,0,0.125,-2.9606e-16,0,0.66667
0.78688,0.73576,6.2951,0.35364,11.332,31.568,-5.9366,1.9789,-1.5534,-7.9154,8.2113e-11,-0.77672,0,0,0.125,-0,-0,0.66667
0.49526,0.56889,3.9621,0.10334,6.5963,150.4,-1.0919,0.36395,-1.9611,-1.4558,1.3711e-12,-0.98056,0,0,0.125,-1.1842e-15,0,0.66667
0.8909,0.55864,7.1272,0.087958,1.4978,9.0911,-1.6717,0.55724,-1.976,-2.2289,1.5432e-08,-0.988,0,0,0.125,-1.1842e-15,0,0.66667
0.2762,0.55276,2.2096,0.079134,6.192,279.56,-0.46628,0.15543,-1.9763,-0.6217,5.41e-12,-0.98816,0,0,0.125,-0,-0,0.66667
0.015247,0.94548,0.12198,0.66822,56.928,455.89,-0.21734,0.072439,-0.41516,-0.28979,-1.1914e-05,-0.20758,0,0,0.125,-0,-0,0.66667
0.064891,0.3386,0.51913,-0.24211,-20.446,421.49,0.33516,-0.11172,-1.7926,0.44688,-2.1046e-10,-0.89628,0,0,0.125,-0,-0,0.66667
0.89964,0.49255,7.1971,-0.01117,-0.17521,7.7844,0.21438,-0.071459,-1.9978,0.28584,-2.8991e-08,-0.99892,0,0,0.125,4.1448e-15,0,0.66667
0.64115,0.15504,5.1292,-0.51744,-25.846,82.071,7.0774,-2.3591,-1.0517,9.4366,-1.4162e-12,-0.52586,0,0,0.125,1.7023e-15,0,0.66667
0.73027,0.016781,5.8421,-0.72483,-28.839,49.623,11.292,-3.764,-0.13087,15.056,1.0791e-12,-0.065437,0,0,0.125,-0,1.4722e-16,0.66667
0.50436,0.53648,4.0349,0.054718,3.4497,145.62,-0.58875,0.19625,-1.9888,-0.785,-2.0495e-13,-0.99441,0,0,0.125,-0,-0,0.66667
0.55757,0.76151,4.4606,0.39226,22.9,119.24,-4.6659,1.5553,-1.4514,-6.2212,-1.2212e-13,-0.72572,0,0,0.125,-0,-0,0.66667
0.36389,0.93027,2.9112,0.6454,47.683,225.41,-5.0103,1.6701,-0.51809,-6.6804,-1.6089e-12,-0.25904,0,0,0.125,-0,-0,0.66667
0.78264,0.24378,6.2611,-0.38433,-12.542,32.792,6.4168,-2.1389,-1.4767,8.5557,-4.8993e-11,-0.73833,0,0,0.125,-1.1842e-15,0,0.66667
0.75687,0.73244,6.0549,0.34866,12.549,40.167,-5.6296,1.8765,-1.5656,-7.5061,-1.1656e-11,-0.78279,0,0,0.125,1.1842e-15,0,0.66667
0.70001,0.70832,5.6,0.31249,13.448,58.937,-4.6665,1.5555,-1.6526,-6.222,-7.7969e-12,-0.82629,0,0,0.125,-0,-0,0.66667
0.96189,0.49649,7.6951,-0.0052605,-0.030488,1.4108,0.10795,-0.035984,-1.9987,0.14393,-1.4451e-06,-0.99935,0,0,0.125,2.9606e-16,0,0.66667
0.76884,0.29903,6.1507,-0.30145,-10.371,36.536,4.9444,-1.6481,-1.6764,6.5925,-8.0189e-12,-0.83821,0,0,0.125,-0,-0,0.66667
0.97792,0.91334,7.8234,0.62001,2.1958,1.9171,-12.935,4.3116,-0.63157,-17.246,-7.2601e-06,-0.31579,0,0,0.125,-0,-0,0.66667
0.59028,0.93306,4.7222,0.64958,36.023,104.48,-8.1799,2.7266,-0.49987,-10.907,9.7522e-13,-0.24994,0,0,0.125,-1.4803e-15,1.0892e-16,0.66667
0.61926,0.066769,4.9541,-0.64985,-34.094,91.647,8.585,-2.8617,-0.49745,11.447,3.6948e-13,-0.24872,0,0,0.125,-2.3685e-15,0,0.66667
0.63905,0.57359,5.1124,0.11038,5.5096,82.357,-1.5049,0.50162,-1.9578,-2.0065,-1.9217e-12,-0.97892,0,0,0.125,-0,-0,0.66667
0.32637,0.88039,2.611,0.57059,43.364,248.23,-3.9728,1.3243,-0.84397,-5.297,-1.4166e-13,-0.42199,0,0,0.125,-0,-0,0.66667
0.033029,0.97528,0.26423,0.71291,60.729,443.59,-0.50233,0.16745,-0.1943,-0.66977,5.0663e-06,-0.097152,0,0,0.125,-0,-0,0.66667
0.78818,0.97779,6.3054,0.71668,23.128,32.308,-12.051,4.0168,-0.17183,-16.067,1.6409e-10,-0.085916,0,0,0.125,-0,-0,0.66667
0.71019,0.37933,5.6815,-0.18101,-7.5562,55.166,2.7424,-0.91414,-1.8821,3.6566,7.7163e-12,-0.94107,0,0,0.125,-2.3685e-15,0,0.66667
0.079032,0.91686,0.63225,0.62529,52.914,411.82,-1.0543,0.35142,-0.61174,-1.4057,-4.2453e-08,-0.30587,0,0,0.125,-0,-0,0.66667
0.14858,0.17761,1.1887,-0.48359,-40.19,364.2,1.5328,-0.51095,-1.1664,2.0438,2.0703e-09,-0.58322,0,0,0.125,1.4803e-16,0,0.66667
0.68634,0.1682,5.4907,-0.4977,-22.302,64.3,7.2873,-2.4291,-1.1208,9.7164,2.1827e-12,-0.56041,0,0,0.125,-0,-0,0.66667
0.53504,0.36214,4.2803,-0.2068,-12.483,130.06,2.3604,-0.7868,-1.8471,3.1472,4.6585e-13,-0.92354,0,0,0.125,-0,-0,0.66667
0.19121,0.097002,1.5297,-0.6045,-49.574,335.58,2.4659,-0.82196,-0.70094,3.2879,3.6797e-11,-0.35047,0,0,0.125,-5.9212e-16,0,0.66667
0.055953,0.99093,0.44763,0.7364,62.627,427.76,-0.87902,0.29301,-0.070011,-1.172,8.4396e-07,-0.035005,0,0,0.125,6.6262e-17,0,0.66667
0.61141,0.67982,4.8913,0.26973,14.276,94.293,-3.5182,1.1727,-1.7423,-4.691,-1.5488e-12,-0.87115,0,0,0.125,5.9212e-16,0,0.66667
0.053612,0.54387,0.42889,0.065798,5.5605,429.27,-0.075254,0.025085,-1.9825,-0.10034,-1.0761e-07,-0.99123,0,0,0.125,-0,-0,0.66667
0.21358,0.92977,1.7086,0.64465,52.403,320.76,-2.9372,0.97907,-0.52113,-3.9163,-5.8797e-11,-0.26056,0,0,0.125,-2.1568e-17,0,0.66667
0.50266,0.99747,4.0213,0.74621,47.583,147.49,-8.002,2.6673,-0.021313,-10.669,1.5543e-13,-0.010657,0,0,0.125,-0,-0,0.66667
0.094031,0.81147,0.75225,0.46721,39.349,401.45,-0.93721,0.3124,-1.2279,-1.2496,-2.9245e-08,-0.61396,0,0,0.125,-1.9429e-16,0,0.66667
0.40891,0.10233,3.2712,-0.5965,-42.263,198.74,5.2035,-1.7345,-0.73519,6.938,-4.361e-13,-0.3676,0,0,0.125,-0,-0,0.66667
0.020116,0.081173,0.16093,-0.62824,-53.479,452.51,0.2696,-0.08987,-0.59536,0.35946,-5.2371e-06,-0.29768,0,0,0.125,-3.7007e-17,0,0.66667
0.11946,0.41425,0.95571,-0.12863,-10.747,383.93,0.32781,-0.10927,-1.9397,0.43708,7.5796e-09,-0.96986,0,0,0.125,-0,-0,0.66667
0.94006,0.55475,7.5205,0.082129,0.76761,3.1053,-1.6471,0.54902,-1.9765,-2.1961,-5.0211e-08,-0.98825,0,0,0.125,1.1842e-15,0,0.66667
0.55886,0.66696,4.4709,0.25044,14.566,118.44,-2.9858,0.99528,-1.7763,-3.9811,-4.6607e-13,-0.88817,0,0,0.125,-0,-0,0.66667
0.68646,0.79412,5.4917,0.44118,19.738,64.125,-6.4608,2.1536,-1.3096,-8.6144,-5.4876e-12,-0.65481,0,0,0.125,1.1842e-15,0,0.66667
0.37777,0.65512,3.0222,0.23268,16.899,216.61,-1.8752,0.62508,-1.8088,-2.5003,-1.0987e-12,-0.90441,0,0,0.125,7.0314e-16,0,0.66667
0.76312,0.33171,6.105,-0.25244,-8.8661,38.138,4.1097,-1.3699,-1.7736,5.4796,5.671e-13,-0.88681,0,0,0.125,1.1842e-15,0,0.66667
0.89639,0.78723,7.1711,0.43084,7.0554,8.8413,-8.2389,2.7463,-1.3387,-10.985,2.4511e-08,-0.66936,0,0,0.125,-2.3685e-15,0,0.66667
0.91019,0.22406,7.2815,-0.41391,-5.8913,6.9134,8.0371,-2.679,-1.3906,10.716,-2.4265e-08,-0.69528,0,0,0.125,2.3685e-15,0,0.66667
0.49649,0.25482,3.9719,-0.36778,-23.485,149.97,3.8954,-1.2985,-1.5192,5.1938,6.3571e-13,-0.75958,0,0,0.125,-0,-0,0.66667
0.76261,0.35026,6.1009,-0.22461,-7.9005,38.254,3.6542,-1.2181,-1.8209,4.8722,2.2427e-12,-0.91043,0,0,0.125,-0,-0,0.66667
0.70896,0.44553,5.6717,-0.081707,-3.4207,55.529,1.2358,-0.41193,-1.9747,1.6477,2.9267e-12,-0.98735,0,0,0.125,-0,-0,0.66667
0.9513,0.46996,7.6104,-0.045058,-0.33921,2.1519,0.91441,-0.3048,-1.995,1.2192,2.195e-07,-0.99749,0,0,0.125,-0,-0,0.66667
0.24155,0.90823,1.9324,0.61234,49.085,302.33,-3.1555,1.0518,-0.66582,-4.2073,5.8491e-11,-0.33291,0,0,0.125,-5.9212e-16,0,0.66667
0.56134,0.021485,4.4907,-0.71777,-41.915,118.15,8.5955,-2.8652,-0.1699,11.461,-6.1551e-13,-0.084948,0,0,0.125,-0,-0,0.66667
0.043773,0.8784,0.35019,0.56761,48.201,436.13,-0.53005,0.17668,-0.85512,-0.70673,-1.0484e-06,-0.42756,0,0,0.125,-0,-0,0.66667
0.92318,0.64989,7.3854,0.22484,2.7153,4.9622,-4.4281,1.476,-1.8222,-5.9041,1.3864e-08,-0.91108,0,0,0.125,-5.9212e-16,0,0.66667
0.94526,0.42456,7.5621,-0.11316,-0.9638,2.672,2.282,-0.76065,-1.9522,3.0426,8.662e-08,-0.97611,0,0,0.125,-2.3036e-15,0,0.66667
0.50091,0.2533,4.0073,-0.37005,-23.492,147.66,3.9544,-1.3181,-1.5159,5.2725,-4.472e-13,-0.75796,0,0,0.125,-0,-0,0.66667
0.58612,0.86306,4.6889,0.5446,30.357,106.12,-6.8095,2.2698,-0.94327,-9.0794,-1.7364e-13,-0.47163,0,0,0.125,-5.9212e-16,0,0.66667
0.77194,0.98008,6.1755,0.72013,24.8,36.815,-11.859,3.953,-0.15417,-15.812,-7.3046e-11,-0.077086,0,0,0.125,-0,-0,0.66667
0.24933,0.27881,1.9946,-0.33178,-26.397,297.03,1.7648,-0.58826,-1.6119,2.353,-2.0634e-11,-0.80593,0,0,0.125,1.4803e-16,0,0.66667
0.37899,0.96089,3.0319,0.69133,50.46,216.46,-5.5895,1.8632,-0.30001,-7.4527,2.0162e-13,-0.15,0,0,0.125,-2.9606e-16,0,0.66667
0.28861,0.30959,2.3088,-0.28561,-22.2,271.71,1.7585,-0.58617,-1.7088,2.3447,-8.5809e-12,-0.8544,0,0,0.125,2.9606e-16,0,0.66667
0.5388,0.6625,4.3104,0.24375,14.634,128.22,-2.8017,0.93392,-1.7871,-3.7357,6.235e-13,-0.89354,0,0,0.125,-1.1842e-15,0,0.66667
0.94896,0.80237,7.5917,0.45355,3.6824,3.021,-9.1819,3.0606,-1.2676,-12.242,5.6106e-08,-0.63382,0,0,0.125,1.1842e-15,0,0.66667
0.3854,0.40379,3.0832,-0.14431,-10.404,212.03,1.1865,-0.39551,-1.9254,1.582,-7.0499e-13,-0.96272,0,0,0.125,8.5425e-16,0,0.66667
0.04501,0.98117,0.36008,0.72176,61.434,435.31,-0.69304,0.23101,-0.14857,-0.92406,-8.2321e-06,-0.074284,0,0,0.125,7.4015e-17,1.4181e-16,0.66667
0.68252,0.34293,5.4601,-0.2356,-10.615,65.26,3.4304,-1.1435,-1.8026,4.5739,3.4124e-12,-0.90128,0,0,0.125,1.1842e-15,0,0.66667
0.49503,0.10967,3.9602,-0.5855,-37.585,151.1,6.1832,-2.0611,-0.77951,8.2443,8.8818e-13,-0.38976,0,0,0.125,-5.9212e-16,0,0.66667
0.29651,0.15754,2.3721,-0.51369,-39.822,266.88,3.2494,-1.0831,-1.0656,4.3326,-3.3029e-12,-0.53281,0,0,0.125,1.1842e-15,0,0.66667
0.41589,0.082411,3.3271,-0.62638,-44.096,194.77,5.5575,-1.8525,-0.60306,7.4099,-1.0587e-12,-0.30153,0,0,0.125,-5.9212e-16,0,0.66667
0.86251,0.61661,6.9001,0.17492,3.7259,13.965,-3.2186,1.0729,-1.8911,-4.2914,4.6138e-09,-0.94557,0,0,0.125,-0,-0,0.66667
0.82102,0.6035,6.5681,0.15525,4.2312,22.663,-2.7192,0.90639,-1.9123,-3.6256,7.1444e-10,-0.95614,0,0,0.125,-0,-0,0.66667
0.17085,0.34657,1.3668,-0.23014,-18.944,349.04,0.8388,-0.2796,-1.8144,1.1184,1.0495e-09,-0.90722,0,0,0.125,5.9212e-16,0,0.66667
0.68513,0.38797,5.4811,-0.16805,-7.5157,64.214,2.4562,-0.81874,-1.8999,3.275,2.8288e-12,-0.94993,0,0,0.125,-0,-0,0.66667
0.99766,0.59578,7.9813,0.14367,-0.023512,0.10346,-3.0577,1.0192,-1.9282,-4.077,8.2905e-07,-0.96408,0,0,0.125,2.3685e-15,0,0.66667
0.78436,0.50897,6.2749,0.013454,0.43392,31.907,-0.22513,0.075044,-1.9992,-0.30018,-4.2821e-11,-0.99962,0,0,0.125,-0,-0,0.66667
0.72505,0.71931,5.8004,0.32896,13.159,50.274,-5.0882,1.6961,-1.6147,-6.7843,-1.446e-11,-0.80736,0,0,0.125,-0,-0,0.66667
0.31002,0.56698,2.4802,0.10047,7.6917,258.08,-0.66447,0.22149,-1.9651,-0.88596,-1.6837e-12,-0.98255,0,0,0.125,-0,-0,0.66667
0.15947,0.76608,1.2758,0.39912,33.025,356.78,-1.3578,0.4526,-1.4331,-1.8104,-1.9347e-09,-0.71656,0,0,0.125,2.9606e-16,0,0.66667
0.86432,0.86753,6.9146,0.55129,11.752,14.47,-10.165,3.3884,-0.91825,-13.554,-3.2064e-09,-0.45913,0,0,0.125,-5.9212e-16,0,0.66667
0.61035,0.2493,4.8828,-0.37605,-19.971,94.91,4.8964,-1.6321,-1.5004,6.5286,9.8721e-13,-0.75022,0,0,0.125,-1.7393e-15,0,0.66667
0.39009,0.15794,3.1207,-0.51309,-36.962,209.59,4.2699,-1.4233,-1.0675,5.6932,-1.5632e-13,-0.53376,0,0,0.125,1.1842e-15,1.3247e-16,0.66667
0.75559,0.31295,6.0447,-0.28057,-10.132,40.439,4.5226,-1.5075,-1.7198,6.0302,1.202e-11,-0.85991,0,0,0.125,2.3685e-15,0,0.66667
0.71863,0.3892,5.749,-0.16619,-6.7658,52.237,2.5479,-0.84929,-1.9045,3.3972,7.6723e-12,-0.95227,0,0,0.125,1.1842e-15,0,0.66667
0.64733,0.20474,5.1787,-0.44288,-21.788,79.373,6.1161,-2.0387,-1.3004,8.1548,5.7465e-13,-0.65021,0,0,0.125,-0,-0,0.66667
0.20726,0.57026,1.6581,0.10539,8.5466,324.64,-0.46599,0.15533,-1.9598,-0.62132,-7.8436e-11,-0.97989,0,0,0.125,-5.9212e-16,0,0.66667
0.88553,0.62153,7.0842,0.18229,3.2575,10.006,-3.4438,1.1479,-1.8812,-4.5917,8.7841e-09,-0.9406,0,0,0.125,-1.7764e-15,0,0.66667
0.71901,0.40706,5.752,-0.1394,-5.6676,52.087,2.1383,-0.71277,-1.935,2.8511,4.9476e-12,-0.9675,0,0,0.125,2.3685e-15,0,0.66667
0.30263,0.44428,2.421,-0.08358,-6.4308,262.73,0.5396,-0.17987,-1.9738,0.71947,-1.0223e-12,-0.98688,0,0,0.125,-0,-0,0.66667
0.063598,0.012423,0.50879,-0.73136,-62.136,422.49,0.99229,-0.33076,-0.099768,1.3231,-6.9847e-07,-0.049884,0,0,0.125,-0,-0,0.66667
0.9128,0.36657,7.3024,-0.20015,-2.7404,6.1587,3.8975,-1.2992,-1.8558,5.1966,-1.0062e-08,-0.92788,0,0,0.125,1.1842e-15,0,0.66667
0.79385,0.23741,6.3508,-0.39389,-12.263,29.793,6.6707,-2.2236,-1.4481,8.8942,-1.0712e-10,-0.72404,0,0,0.125,1.1842e-15,0,0.66667
0.49858,0.0023419,3.9887,-0.74649,-47.861,149.62,7.94,-2.6467,-0.021112,10.587,4.905e-12,-0.010556,0,0,0.125,-0,4.1049e-17,0.66667
0.41393,0.8369,3.3114,0.50535,35.574,195.69,-4.4625,1.4875,-1.0902,-5.95,2.2471e-12,-0.5451,0,0,0.125,-5.0967e-17,0,0.66667
0.61556,0.5883,4.9245,0.13245,6.9447,92.359,-1.7393,0.57977,-1.9363,-2.3191,-1.3095e-12,-0.96814,0,0,0.125,2.9606e-16,0,0.66667
0.39852,0.85424,3.1881,0.53135,37.987,204.68,-4.5174,1.5058,-0.99402,-6.0232,-1.1822e-12,-0.49701,0,0,0.125,1.1842e-15,0,0.66667
0.038918,0.58008,0.31134,0.12013,10.167,439.45,-0.099736,0.033245,-1.9464,-0.13298,-2.7545e-08,-0.97321,0,0,0.125,2.7927e-17,0,0.66667
0.30197,0.0025177,2.4157,-0.74622,-57.867,263.74,4.8072,-1.6024,-0.019618,6.4096,-1.8461e-12,-0.0098092,0,0,0.125,2.3685e-15,0,0.66667
0.24628,0.56327,1.9702,0.0949,7.5525,298.93,-0.4986,0.1662,-1.9686,-0.6648,1.1516e-11,-0.98432,0,0,0.125,-5.9212e-16,0,0.66667
0.9723,0.88177,7.7784,0.57265,2.5301,1.9664,-11.878,3.9594,-0.83383,-15.838,-3.3444e-06,-0.41692,0,0,0.125,2.3685e-15,0,0.66667
0.7675,0.027742,6.14,-0.70839,-24.797,38.047,11.599,-3.8662,-0.21751,15.465,8.5823e-11,-0.10876,0,0,0.125,1.1842e-15,0,0.66667
0.4037,0.24004,3.2296,-0.38994,-27.686,201.47,3.3582,-1.1194,-1.4596,4.4777,-2.6645e-15,-0.72982,0,0,0.125,-5.9212e-16,0,0.66667
0.73663,0.078431,5.893,-0.63235,-24.574,47.228,9.9373,-3.3124,-0.57857,13.25,-1.0813e-11,-0.28928,0,0,0.125,-0,-0,0.66667
0.30266,0.2965,2.4212,-0.30525,-23.513,262.81,1.9709,-0.65696,-1.6668,2.6279,-4.8301e-12,-0.83338,0,0,0.125,-0,-0,0.66667
0.5273,0.84864,4.2184,0.52296,32.061,134.38,-5.8827,1.9609,-1.0274,-7.8436,6.9322e-13,-0.51369,0,0,0.125,-0,-0,0.66667
0.20714,0.25413,1.6571,-0.36881,-29.958,324.81,1.6298,-0.54326,-1.5162,2.173,1.2344e-10,-0.75811,0,0,0.125,-5.9212e-16,0,0.66667
0.25426,0.56078,2.0341,0.091172,7.2247,293.74,-0.49454,0.16485,-1.9706,-0.65938,2.8637e-12,-0.98528,0,0,0.125,1.1102e-16,0,0.66667
0.43402,0.37209,3.4722,-0.19187,-13.184,183.89,1.7766,-0.59219,-1.8695,2.3688,1.4072e-12,-0.93477,0,0,0.125,-8.8818e-16,0,0.66667
0.082426,0.85079,0.65941,0.52618,44.44,409.45,-0.92525,0.30842,-1.0148,-1.2337,-2.8155e-08,-0.50742,0,0,0.125,-0,-0,0.66667
0.85329,0.51655,6.8263,0.024825,0.56153,15.64,-0.45191,0.15064,-1.9958,-0.60254,-7.0848e-11,-0.99788,0,0,0.125,-0,-0,0.66667
0.91633,0.15595,7.3306,-0.51608,-6.9027,6.4619,10.089,-3.3628,-1.0528,13.451,-3.9732e-09,-0.52639,0,0,0.125,-4.4409e-16,0,0.66667
0.21311,0.096913,1.7049,-0.60463,-49.128,321.03,2.7488,-0.91628,-0.69935,3.6651,-5.3709e-10,-0.34968,0,0,0.125,5.9212e-16,0,0.66667
0.47372,0.06042,3.7898,-0.65937,-43.552,162.6,6.6636,-2.2212,-0.45382,8.8848,6.1107e-13,-0.22691,0,0,0.125,-1.4803e-16,0,0.66667
0.84146,0.25392,6.7317,-0.36912,-9.0327,18.456,6.6262,-2.2087,-1.5168,8.8349,-2.1102e-09,-0.7584,0,0,0.125,-0,-0,0.66667
0.28828,0.099731,2.3062,-0.6004,-46.851,272.2,3.6925,-1.2308,-0.71667,4.9233,-5.5769e-12,-0.35834,0,0,0.125,-0,-0,0.66667
0.61071,0.38536,4.8857,-0.17196,-9.1059,94.508,2.2403,-0.74678,-1.8963,2.9871,-5.5556e-13,-0.94817,0,0,0.125,-0,-0,0.66667
0.44205,0.65647,3.5364,0.2347,15.991,179.41,-2.2133,0.73778,-1.8044,-2.9511,-1.7364e-12,-0.9022,0,0,0.125,-0,-0,0.66667
0.39749,0.19711,3.1799,-0.45433,-32.476,205.17,3.8527,-1.2842,-1.2641,5.1369,2.5238e-12,-0.63204,0,0,0.125,-0,-0,0.66667
0.78937,0.74594,6.315,0.36891,11.702,30.928,-6.2125,2.0708,-1.5147,-8.2833,1.0321e-10,-0.75737,0,0,0.125,1.1842e-15,0,0.66667
0.46451,0.95143,3.7161,0.67715,45.243,167.64,-6.7103,2.2368,-0.36846,-8.9471,-6.2617e-14,-0.18423,0,0,0.125,-0,-0,0.66667
0.4648,0.77752,3.7184,0.41628,27.68,167.01,-4.1277,1.3759,-1.3838,-5.5036,9.579e-13,-0.69191,0,0,0.125,-2.9606e-16,0,0.66667
0.99203,0.85349,7.9362,0.53023,0.56376,1.1253,-11.221,3.7405,-0.9983,-14.962,1.6599e-06,-0.49915,0,0,0.125,-0,-0,0.66667
0.96223,0.57661,7.6978,0.11491,0.6613,1.4349,-2.3589,0.7863,-1.9509,-3.1452,5.4886e-08,-0.97545,0,0,0.125,-0,-0,0.66667
0.23508,0.043853,1.8806,-0.68422,-55.093,306.65,3.4314,-1.1438,-0.33751,4.5752,-2.5677e-11,-0.16875,0,0,0.125,-0,-0,0.66667
0.22695,0.52679,1.8156,0.040185,3.2292,311.6,-0.19457,0.064855,-1.9928,-0.25942,3.4494e-12,-0.99642,0,0,0.125,2.9606e-16,0,0.66667
0.66274,0.60061,5.3019,0.15091,7.1373,72.797,-2.1337,0.71123,-1.9174,-2.8449,-2.746e-12,-0.9587,0,0,0.125,-0,-0,0.66667
0.41195,0.8053,3.2956,0.45795,32.28,196.77,-4.0246,1.3415,-1.2529,-5.3661,6.3016e-13,-0.62645,0,0,0.125,-2.9606e-16,0,0.66667
0.71875,0.53795,5.75,0.056932,2.3154,52.132,-0.87296,0.29099,-1.9919,-1.164,-2.8789e-12,-0.99596,0,0,0.125,-0,-0,0.66667
0.73345,0.72526,5.8676,0.33788,13.165,47.511,-5.2869,1.7623,-1.5964,-7.0492,-1.5673e-11,-0.7982,0,0,0.125,-0,-0,0.66667
0.78329,0.81524,6.2664,0.47286,15.427,32.822,-7.9017,2.6339,-1.2067,-10.536,1.0845e-10,-0.60334,0,0,0.125,-0,-0,0.66667
0.26331,0.57555,2.1065,0.11333,8.9353,287.87,-0.63659,0.2122,-1.9547,-0.84879,5.5161e-12,-0.97733,0,0,0.125,-0,-0,0.66667
0.99836,0.56466,7.9869,0.096997,-0.028485,0.053874,-2.0659,0.68862,-1.9688,-2.7545,-3.5023e-06,-0.98438,0,0,0.125,-2.3685e-15,0,0.66667
0.4937,0.89602,3.9496,0.59403,38.206,151.82,-6.2565,2.0855,-0.74342,-8.342,7.6383e-14,-0.37171,0,0,0.125,-0,-0,0.66667
0.083927,0.55091,0.67141,0.076359,6.426,408.34,-0.13672,0.045572,-1.9774,-0.18229,-1.0237e-08,-0.98871,0,0,0.125,-0,-0,0.66667
0.11202,0.027984,0.89613,-0.70802,-59.615,389.22,1.6919,-0.56398,-0.21865,2.2559,8.3691e-08,-0.10932,0,0,0.125,-7.4015e-17,0,0.66667
0.5615,0.33473,4.492,-0.2479,-14.356,117.17,2.9695,-0.98983,-1.7835,3.9593,-8.2556e-13,-0.89173,0,0,0.125,-0,-0,0.66667
0.51011,0.7499,4.0809,0.37486,23.5,142.89,-4.0793,1.3598,-1.5002,-5.4391,6.6613e-14,-0.75011,0,0,0.125,-1.5728e-16,0,0.66667
0.93484,0.86543,7.4787,0.54814,5.7485,4.5732,-10.932,3.6439,-0.93191,-14.576,1.0513e-07,-0.46596,0,0,0.125,-1.1842e-15,0,0.66667
0.90083,0.76864,7.2066,0.40295,6.3149,8.1364,-7.7438,2.5813,-1.4209,-10.325,2.6739e-08,-0.71046,0,0,0.125,-0,-0,0.66667
0.4654,0.73271,3.7232,0.34907,23.176,166.59,-3.4658,1.1553,-1.5662,-4.621,-5.338e-13,-0.78309,0,0,0.125,-0,-0,0.66667
0.20648,0.32326,1.6518,-0.26511,-21.523,325.2,1.1678,-0.38926,-1.7497,1.557,1.493e-10,-0.87483,0,0,0.125,-0,-0,0.66667
0.56442,0.76085,4.5153,0.39128,22.586,115.96,-4.7114,1.5705,-1.4565,-6.2818,-1.4664e-12,-0.72823,0,0,0.125,1.1842e-15,0,0.66667
0.30873,0.30805,2.4699,-0.28792,-22.084,258.97,1.8963,-0.63212,-1.7052,2.5285,-2.1676e-12,-0.85261,0,0,0.125,-1.4803e-16,0,0.66667
0.65059,0.52348,5.2047,0.035213,1.7125,77.602,-0.48872,0.16291,-1.9941,-0.65163,-1.5489e-12,-0.99706,0,0,0.125,-0,-0,0.66667
0.5151,0.81459,4.1208,0.47188,29.417,140.47,-5.1855,1.7285,-1.2118,-6.914,4.4009e-13,-0.60589,0,0,0.125,-0,-6.612e-19,0.66667
0.84318,0.79205,6.7454,0.43807,10.637,18.263,-7.88,2.6267,-1.32,-10.507,1.8381e-09,-0.66,0,0,0.125,-0,-0,0.66667
0.13174,0.20217,1.0539,-0.44674,-37.292,375.63,1.2555,-0.41852,-1.2882,1.6741,5.1778e-09,-0.6441,0,0,0.125,-0,-0,0.66667
0.25101,0.6546,2.0081,0.2319,18.42,295.89,-1.2418,0.41393,-1.8118,-1.6557,5.7767e-12,-0.9059,0,0,0.125,1.4803e-16,0,0.66667
0.59753,0.81349,4.7803,0.47023,25.633,100.78,-5.9942,1.9981,-1.2144,-7.9923,-2.4594e-12,-0.60719,0,0,0.125,2.3685e-15,0,0.66667
0.62521,0.40775,5.0017,-0.13838,-7.1146,88.201,1.8457,-0.61523,-1.9359,2.4609,5.308e-13,-0.96797,0,0,0.125,-2.3685e-15,0,0.66667
0.41259,0.43677,3.3008,-0.09485,-6.6616,196.1,0.83487,-0.27829,-1.9674,1.1132,-2.1111e-13,-0.98372,0,0,0.125,2.2204e-16,0,0.66667
0.90059,0.93606,7.2047,0.65409,10.454,9.0191,-12.567,4.1889,-0.47831,-16.756,-1.5293e-07,-0.23915,0,0,0.125,1.6283e-15,0,0.66667
0.81028,0.22525,6.4822,-0.41213,-11.911,25.658,7.124,-2.3747,-1.397,9.4987,-3.3328e-10,-0.69851,0,0,0.125,-0,-0,0.66667
0.54085,0.42281,4.3268,-0.11579,-6.9243,127.12,1.336,-0.44532,-1.9503,1.7813,-1.3114e-12,-0.97515,0,0,0.125,1.1842e-15,0,0.66667
0.40503,0.63919,3.2402,0.20879,14.782,200.54,-1.8041,0.60136,-1.8464,-2.4054,2.0539e-13,-0.92321,0,0,0.125,-5.9212e-16,0,0.66667
0.39718,0.33766,3.1774,-0.24351,-17.375,205.14,2.0633,-0.68777,-1.7876,2.7511,-9.7544e-13,-0.89382,0,0,0.125,2.9606e-16,0,0.66667
0.11399,0.36409,0.91191,-0.20387,-17.061,387.69,0.49576,-0.16525,-1.8509,0.66102,9.6441e-09,-0.92547,0,0,0.125,1.4803e-16,0,0.66667
0.93724,0.14245,7.498,-0.53632,-5.411,4.302,10.724,-3.5745,-0.97986,14.298,-1.0741e-07,-0.48993,0,0,0.125,-1.1099e-15,1.9217e-16,0.66667
0.23454,0.40188,1.8763,-0.14717,-11.785,306.63,0.73637,-0.24546,-1.9266,0.98183,-7.9286e-12,-0.96328,0,0,0.125,-0,-0,0.66667
0.15282,0.067395,1.2225,-0.64891,-53.985,361.43,2.1155,-0.70517,-0.50296,2.8207,2.2533e-08,-0.25148,0,0,0.125,-0,-0,0.66667
0.51002,0.8732,4.0801,0.55979,35.199,143.25,-6.0907,2.0302,-0.88524,-8.121,2.0961e-13,-0.44262,0,0,0.125,-2.2204e-16,0,0.66667
0.45504,0.037538,3.6404,-0.69369,-46.879,172.86,6.7341,-2.2447,-0.2903,8.9788,-4.496e-12,-0.14515,0,0,0.125,1.1842e-15,0,0.66667
0.074027,0.29194,0.59222,-0.31208,-26.335,415.19,0.49286,-0.16429,-1.6527,0.65714,3.6771e-08,-0.82637,0,0,0.125,-0,-0,0.66667
0.57557,0.92189,4.6046,0.63284,36.006,111.21,-7.7706,2.5902,-0.57611,-10.361,-6.0396e-13,-0.28805,0,0,0.125,-0,-0,0.66667
0.69854,0.76841,5.5883,0.40261,17.425,59.626,-5.9998,1.9999,-1.4223,-7.9997,-6.6169e-12,-0.71114,0,0,0.125,-1.1842e-15,0,0.66667
0.49055,0.93834,3.9244,0.65751,42.517,153.62,-6.8808,2.2936,-0.46233,-9.1745,9.5479e-13,-0.23117,0,0,0.125,-1.1842e-15,0,0.66667
0.072894,0.054061,0.58315,-0.66891,-56.697,416.06,1.0402,-0.34673,-0.40773,1.3869,6.54e-07,-0.20386,0,0,0.125,-0,-0,0.66667
0.17966,0.54278,1.4373,0.064163,5.2613,343.08,-0.24592,0.081975,-1.9832,-0.3279,-3.8863e-10,-0.99159,0,0,0.125,-0,-0,0.66667
0.11594,0.24126,0.92748,-0.38811,-32.508,386.4,0.95992,-0.31997,-1.4626,1.2799,1.2373e-08,-0.73129,0,0,0.125,-0,-0,0.66667
0.58346,0.72576,4.6677,0.33864,18.902,106.96,-4.2151,1.405,-1.591,-5.6201,-9.4413e-13,-0.7955,0,0,0.125,-0,-0,0.66667
0.085088,0.97073,0.6807,0.70609,59.77,407.68,-1.2817,0.42723,-0.2264,-1.7089,8.3135e-07,-0.1132,0,0,0.125,-0,-0,0.66667
0.38405,0.75733,3.0724,0.386,27.915,213,-3.1626,1.0542,-1.4685,-4.2168,1.7852e-13,-0.73427,0,0,0.125,-0,-0,0.66667
0.14716,0.11936,1.1773,-0.57095,-47.526,365.21,1.7924,-0.59747,-0.83947,2.3899,2.0255e-09,-0.41973,0,0,0.125,-2.2204e-16,0,0.66667
0.41149,0.61001,3.2919,0.16502,11.606,196.77,-1.4486,0.48287,-1.9014,-1.9315,8.088e-13,-0.95072,0,0,0.125,-0,-0,0.66667
0.62527,0.24428,5.0022,-0.38358,-19.77,88.46,5.1167,-1.7056,-1.4801,6.8222,8.5976e-13,-0.74004,0,0,0.125,-1.4803e-15,0,0.66667
0.35954,0.71342,2.8763,0.32013,23.634,227.63,-2.4555,0.81849,-1.639,-3.274,-1.521e-13,-0.81952,0,0,0.125,7.4015e-16,0,0.66667
0.89598,0.84621,7.1679,0.51932,8.5818,9.1678,-9.9265,3.3088,-1.0405,-13.235,3.9305e-08,-0.52025,0,0,0.125,-0,-0,0.66667
0.41748,0.10465,3.3398,-0.59303,-41.655,193.79,5.2817,-1.7606,-0.74842,7.0422,-1.1213e-12,-0.37421,0,0,0.125,-0,-0,0.66667
0.93366,0.26282,7.4692,-0.35578,-3.7339,4.1105,7.0863,-2.3621,-1.549,9.4484,-4.3489e-08,-0.77452,0,0,0.125,-0,-0,0.66667
0.82046,0.32313,6.5637,-0.2653,-7.2642,22.929,4.6436,-1.5479,-1.7476,6.1915,-7.6492e-10,-0.8738,0,0,0.125,-0,-0,0.66667
0.11664,0.87196,0.93314,0.55794,46.818,385.98,-1.3884,0.46279,-0.892,-1.8511,-1.8036e-08,-0.446,0,0,0.125,1.8504e-16,0,0.66667
0.10397,0.85778,0.83172,0.53667,45.148,394.65,-1.1903,0.39676,-0.97417,-1.5871,-1.5107e-08,-0.48708,0,0,0.125,-0,-0,0.66667
0.13281,0.066259,1.0625,-0.65061,-54.446,375.01,1.8434,-0.61445,-0.49363,2.4578,-5.0306e-08,-0.24682,0,0,0.125,2.9606e-16,0,0.66667
0.63847,0.46753,5.1077,-0.048698,-2.4333,82.578,0.66331,-0.2211,-1.9934,0.88441,-6.8134e-13,-0.99672,0,0,0.125,-4.4409e-16,0,0.66667
0.68459,0.35949,5.4767,-0.21077,-9.4433,64.456,3.0782,-1.0261,-1.8418,4.1043,4.5057e-12,-0.9209,0,0,0.125,-8.1072e-16,0,0.66667
0.79001,0.30871,6.3201,-0.28694,-9.0608,30.607,4.8359,-1.612,-1.706,6.4479,-1.0425e-10,-0.853,0,0,0.125,-2.9606e-16,0,0.66667
0.54233,0.58307,4.3386,0.1246,7.4348,126.4,-1.4416,0.48053,-1.9436,-1.9221,4.9438e-13,-0.97179,0,0,0.125,-5.9212e-16,0,0.66667
0.67536,0.50057,5.4029,0.00085322,0.039101,67.841,-0.012293,0.0040976,-2.0009,-0.01639,1.185e-12,-1.0004,0,0,0.125,-0,-0,0.66667
0.68675,0.048312,5.494,-0.67753,-30.476,64.663,9.9263,-3.3088,-0.36979,13.235,7.8337e-13,-0.1849,0,0,0.125,-1.1842e-15,-1.4678e-16,0.66667
0.33823,0.9943,2.7058,0.74145,56.022,241.18,-5.35,1.7833,-0.044173,-7.1333,-1.7586e-13,-0.022087,0,0,0.125,-5.9212e-16,0,0.66667
0.65052,0.79776,5.2041,0.44664,21.817,78.089,-6.1984,2.0661,-1.2888,-8.2645,-1.0116e-12,-0.64438,0,0,0.125,-1.1842e-15,0,0.66667
0.4041,0.4784,3.2328,-0.032399,-2.2944,201.02,0.2793,-0.093102,-1.9969,0.37241,-1.1044e-12,-0.99847,0,0,0.125,-0,-0,0.66667
0.64016,0.85952,5.1213,0.53929,27.008,82.531,-7.3649,2.455,-0.96825,-9.8199,-1.0369e-12,-0.48412,0,0,0.125,-0,-1.8432e-16,0.66667
0.93462,0.99731,7.477,0.74597,8.0469,5.4447,-14.874,4.9579,-0.022371,-19.831,8.8637e-07,-0.011186,0,0,0.125,-2.9606e-16,-4.6514e-17,0.66667
0.42997,0.85972,3.4398,0.53958,37.38,186.58,-4.9494,1.6498,-0.96251,-6.5992,-2.9132e-13,-0.48125,0,0,0.125,5.9212e-16,0,0.66667
0.50617,0.36276,4.0493,-0.20586,-12.955,144.75,2.223,-0.74098,-1.8473,2.9639,1.4562e-12,-0.92366,0,0,0.125,-5.9212e-16,0,0.66667
0.33206,0.37787,2.6565,-0.18319,-13.808,244.36,1.2977,-0.43258,-1.8808,1.7303,4.1034e-13,-0.9404,0,0,0.125,-0,-0,0.66667
0.57872,0.95167,4.6298,0.67751,38.378,109.86,-8.3646,2.7882,-0.37009,-11.153,-1.334e-12,-0.18504,0,0,0.125,1.1842e-15,0,0.66667
0.86342,0.55627,6.9074,0.084402,1.7844,13.724,-1.5547,0.51822,-1.9742,-2.0729,4.6993e-09,-0.9871,0,0,0.125,-1.7764e-15,0,0.66667
0.28365,0.12436,2.2692,-0.56347,-44.071,275.1,3.4096,-1.1365,-0.8729,4.5462,-2.5409e-12,-0.43645,0,0,0.125,-6.4763e-16,0,0.66667
0.83439,0.1727,6.6751,-0.49095,-12.563,20.282,8.739,-2.913,-1.1409,11.652,-1.265e-09,-0.57046,0,0,0.125,-0,-0,0.66667
0.51948,0.46244,4.1558,-0.056345,-3.4779,137.83,0.62442,-0.20814,-1.9884,0.83256,-2.0828e-12,-0.99418,0,0,0.125,-2.9606e-16,0,0.66667
0.22608,0.7184,1.8086,0.3276,26.372,312.26,-1.58,0.52667,-1.6178,-2.1067,-2.3535e-11,-0.80888,0,0,0.125,3.7007e-17,0,0.66667
0.41945,0.52088,3.3556,0.031315,2.1838,192.14,-0.28021,0.093405,-1.9969,-0.37362,-9.554e-13,-0.99844,0,0,0.125,-0,-0,0.66667
0.16699,0.77954,1.336,0.4193,34.615,351.71,-1.4938,0.49793,-1.3747,-1.9917,-1.5085e-09,-0.68733,0,0,0.125,-3.7007e-17,0,0.66667
0.91239,0.74393,7.2992,0.3659,5.0684,6.5134,-7.122,2.374,-1.5226,-9.496,3.0982e-08,-0.76128,0,0,0.125,-0,-0,0.66667
0.057947,0.30546,0.46358,-0.29181,-24.673,426.29,0.36074,-0.12025,-1.6963,0.48098,-1.5243e-08,-0.84817,0,0,0.125,-0,-0,0.66667
0.604,0.14348,4.832,-0.53478,-28.833,98.023,6.8909,-2.297,-0.98139,9.1879,1.4126e-12,-0.4907,0,0,0.125,-0,-0,0.66667
0.10395,0.11858,0.83161,-0.57213,-48.154,394.68,1.2688,-0.42292,-0.83494,1.6917,2.0048e-09,-0.41747,0,0,0.125,-1.4803e-16,0,0.66667
0.31348,0.43915,2.5078,-0.09127,-6.9706,255.91,0.61037,-0.20346,-1.9734,0.81383,-5.6216e-13,-0.98671,0,0,0.125,-1.1842e-15,0,0.66667
0.14294,0.17127,1.1435,-0.49309,-41.054,368.03,1.5036,-0.50122,-1.1358,2.0049,2.6861e-09,-0.56789,0,0,0.125,-0,-0,0.66667
0.49951,0.23049,3.9961,-0.40427,-25.723,148.44,4.308,-1.436,-1.4213,5.744,3.5483e-13,-0.71064,0,0,0.125,-0,-0,0.66667
0.6361,0.97022,5.0888,0.70532,35.787,84.685,-9.5713,3.1904,-0.2312,-12.762,8.1712e-13,-0.1156,0,0,0.125,-0,-1.6094e-16,0.66667
0.82926,0.41907,6.634,-0.1214,-3.1666,20.748,2.1476,-0.71586,-1.9492,2.8634,-6.7758e-10,-0.97458,0,0,0.125,-0,-0,0.66667
0.45001,0.058475,3.6001,-0.66229,-44.985,175.57,6.3581,-2.1194,-0.44097,8.4775,-2.3785e-12,-0.22048,0,0,0.125,5.9212e-16,-6.6442e-17,0.66667
0.76945,0.51411,6.1556,0.021163,0.72438,36.112,-0.34739,0.1158,-1.9975,-0.46319,1.0629e-11,-0.99874,0,0,0.125,-0,-0,0.66667
0.59534,0.24004,4.7627,-0.38995,-21.316,101.62,4.9525,-1.6508,-1.4606,6.6034,-6.0396e-14,-0.73029,0,0,0.125,-0,-0,0.66667
0.97226,0.218,7.7781,-0.42299,-1.8062,1.4531,8.7736,-2.9245,-1.3646,11.698,6.763e-07,-0.68232,0,0,0.125,1.3323e-15,0,0.66667
0.11972,0.99152,0.95773,0.73728,61.999,383.98,-1.883,0.62766,-0.065846,-2.5106,2.3118e-08,-0.032923,0,0,0.125,-6.2578e-18,0,0.66667
0.81632,0.66953,6.5305,0.25429,7.1082,23.892,-4.4284,1.4761,-1.7692,-5.9046,6.3011e-10,-0.88459,0,0,0.125,-1.1842e-15,0,0.66667
0.83516,0.099316,6.6812,-0.60103,-15.39,20.472,10.708,-3.5694,-0.71407,14.278,-6.1333e-09,-0.35704,0,0,0.125,-2.3685e-15,0,0.66667
0.79157,0.72079,6.3326,0.33118,10.397,30.267,-5.5926,1.8642,-1.6096,-7.4567,1.1674e-10,-0.80478,0,0,0.125,-2.3685e-15,0,0.66667
0.45482,0.51049,3.6386,0.015738,1.056,172.21,-0.15271,0.050902,-2.0002,-0.20361,-4.4222e-12,-1.0001,0,0,0.125,-0,-0,0.66667
0.52721,0.28593,4.2177,-0.3211,-19.632,134.1,3.6115,-1.2038,-1.6331,4.8153,4.6296e-13,-0.81657,0,0,0.125,-0,-0,0.66667
0.98538,0.67792,7.8831,0.26688,0.52485,0.56026,-5.6101,1.87,-1.7487,-7.4802,4.6785e-08,-0.87433,0,0,0.125,1.1842e-15,0,0.66667
0.94464,0.25478,7.5571,-0.36782,-3.2163,3.1357,7.4125,-2.4708,-1.5175,9.8833,-3.1577e-09,-0.75875,0,0,0.125,2.3685e-15,0,0.66667
0.763,0.89419,6.104,0.59128,20.951,38.949,-9.6245,3.2082,-0.75701,-12.833,-9.3721e-12,-0.37851,0,0,0.125,-1.1842e-15,5.5804e-17,0.66667
0.46026,0.91705,3.6821,0.62558,41.963,169.85,-6.1425,2.0475,-0.60643,-8.19,-3.6682e-13,-0.30322,0,0,0.125,-0,-0,0.66667
0.54024,0.41633,4.3219,-0.12551,-7.5132,127.43,1.4465,-0.48217,-1.942,1.9287,-7.8226e-13,-0.97101,0,0,0.125,-0,-0,0.66667
0.80456,0.51223,6.4365,0.018348,0.54149,26.593,-0.31492,0.10497,-1.9966,-0.4199,1.0738e-10,-0.99829,0,0,0.125,2.3685e-15,0,0.66667
0.27687,0.64853,2.215,0.22279,17.436,279.18,-1.3159,0.43865,-1.8227,-1.7546,8.705e-12,-0.91133,0,0,0.125,-0,-0,0.66667
0.25653,0.92592,2.0523,0.63888,50.828,292.62,-3.4964,1.1655,-0.54668,-4.6619,-1.8452e-12,-0.27334,0,0,0.125,-0,-0,0.66667
0.21386,0.90675,1.7109,0.61013,49.563,320.53,-2.7837,0.92788,-0.67643,-3.7115,6.396e-10,-0.33821,0,0,0.125,-0,-0,0.66667
0.55121,0.32995,4.4096,-0.25507,-15.021,122.14,2.9994,-0.99979,-1.7674,3.9991,-4.0234e-13,-0.88371,0,0,0.125,5.9212e-16,0,0.66667
0.9514,0.80414,7.6112,0.45621,3.5247,2.8415,-9.2594,3.0865,-1.2612,-12.346,6.5692e-08,-0.63061,0,0,0.125,1.1842e-15,0,0.66667
0.23774,0.12669,1.9019,-0.55996,-44.938,304.78,2.84,-0.94665,-0.88588,3.7866,-2.3374e-11,-0.44294,0,0,0.125,-0,-0,0.66667
0.8016,0.91246,6.4128,0.61869,18.755,28.434,-10.58,3.5267,-0.63816,-14.107,1.1049e-09,-0.31908,0,0,0.125,-0,-0,0.66667
0.03041,0.58781,0.24328,0.13171,11.154,445.35,-0.085445,0.028482,-1.9408,-0.11393,-2.4514e-09,-0.97041,0,0,0.125,-5.5511e-17,0,0.66667
0.50622,0.39804,4.0498,-0.15295,-9.6213,144.69,1.6517,-0.55057,-1.9151,2.2023,-4.8961e-14,-0.95756,0,0,0.125,-5.9212e-16,0,0.66667
0.28403,0.33822,2.2722,-0.24266,-18.91,274.6,1.4703,-0.49012,-1.7912,1.9605,-6.36e-12,-0.8956,0,0,0.125,-2.9606e-16,0,0.66667
0.28272,0.82166,2.2618,0.48249,37.717,275.61,-2.9101,0.97004,-1.1737,-3.8802,4.8654e-12,-0.58684,0,0,0.125,5.9212e-16,0,0.66667
0.39197,0.10458,3.1358,-0.59314,-42.708,208.61,4.9599,-1.6533,-0.75054,6.6131,1.168e-12,-0.37527,0,0,0.125,-0,-0,0.66667
0.53546,0.88598,4.2837,0.57897,35.104,130.41,-6.6136,2.2045,-0.80711,-8.8182,-1.7675e-13,-0.40355,0,0,0.125,-0,-0,0.66667
0.77289,0.018424,6.1831,-0.72236,-24.789,36.555,11.91,-3.9702,-0.14245,15.881,6.195e-11,-0.071227,0,0,0.125,-0,-0,0.66667
0.96166,0.024513,7.6933,-0.71323,-4.5378,3.1646,14.632,-4.8774,-0.1896,19.51,-1.2132e-05,-0.094799,0,0,0.125,-0,-0,0.66667
0.15039,0.88174,1.2031,0.57261,47.618,363.03,-1.8371,0.61235,-0.83276,-2.4494,-2.0371e-09,-0.41638,0,0,0.125,-0,-0,0.66667
0.39479,0.2005,3.1583,-0.44925,-32.193,206.75,3.7836,-1.2612,-1.2813,5.0449,1.8963e-12,-0.64064,0,0,0.125,-0,-0,0.66667
0.16274,0.45097,1.3019,-0.073544,-6.067,354.49,0.25533,-0.08511,-1.9786,0.34044,6.3723e-10,-0.98932,0,0,0.125,-2.9606e-16,0,0.66667
0.83664,0.37561,6.6931,-0.18659,-4.6751,19.18,3.3304,-1.1101,-1.8755,4.4405,-1.7339e-09,-0.93776,0,0,0.125,2.3685e-15,0,0.66667
0.084802,0.22377,0.67842,-0.41435,-34.935,407.78,0.7496,-0.24987,-1.3882,0.99947,3.1234e-08,-0.69408,0,0,0.125,-0,-0,0.66667
0.85629,0.9379,6.8503,0.65685,14.864,16.367,-11.999,3.9997,-0.46715,-15.999,-8.2847e-09,-0.23357,0,0,0.125,-0,7.5403e-18,0.66667
0.74085,0.74376,5.9268,0.36563,13.914,45.177,-5.7787,1.9262,-1.5231,-7.705,-2.0223e-11,-0.76156,0,0,0.125,1.0308e-15,0,0.66667
0.85834,0.24122,6.8667,-0.38816,-8.5542,15.119,7.1078,-2.3693,-1.4662,9.477,-4.3169e-09,-0.73311,0,0,0.125,1.1842e-15,0,0.66667
0.88992,0.0033146,7.1194,-0.74503,-13.221,10.973,14.144,-4.7148,-0.029495,18.859,-2.2507e-08,-0.014747,0,0,0.125,-0,-0,0.66667
0.15078,0.44213,1.2062,-0.086804,-7.1889,362.59,0.27921,-0.09307,-1.9722,0.37228,4.6588e-11,-0.98611,0,0,0.125,-0,-0,0.66667
0.55669,0.51067,4.4535,0.016011,0.93352,119.36,-0.19015,0.063382,-1.9973,-0.25353,-1.6137e-12,-0.99865,0,0,0.125,2.3685e-15,0,0.66667
0.30252,0.76637,2.4201,0.39955,30.808,262.97,-2.5786,0.85952,-1.4305,-3.4381,5.4394e-12,-0.71525,0,0,0.125,5.9212e-16,0,0.66667
0.27122,0.35213,2.1698,-0.22181,-17.417,282.8,1.2834,-0.4278,-1.8236,1.7112,-1.3027e-11,-0.91178,0,0,0.125,-5.9212e-16,0,0.66667
0.016434,0.18353,0.13148,-0.47471,-40.331,455.05,0.16643,-0.055478,-1.2016,0.22191,-5.2006e-07,-0.6008,0,0,0.125,-2.7756e-17,0,0.66667
0.51518,0.65322,4.1214,0.22982,14.285,140.12,-2.5259,0.84196,-1.8156,-3.3679,1.3627e-12,-0.90782,0,0,0.125,-1.4803e-16,0,0.66667
0.019049,0.48891,0.1524,-0.016638,-1.4096,453.23,0.006761,-0.0022529,-1.9985,0.0090151,1.1063e-06,-0.99925,0,0,0.125,1.8504e-17,0,0.66667
0.89823,0.79698,7.1858,0.44547,7.1754,8.618,-8.5362,2.8454,-1.2921,-11.382,2.3271e-08,-0.64606,0,0,0.125,1.1842e-15,0,0.66667
0.26698,0.79501,2.1359,0.44252,34.902,285.68,-2.5204,0.84014,-1.305,-3.3606,1.2695e-11,-0.6525,0,0,0.125,-0,-0,0.66667
0.49337,0.90514,3.947,0.60771,39.113,152.02,-6.3963,2.1321,-0.68617,-8.5285,-5.4712e-13,-0.34309,0,0,0.125,1.4803e-16,0,0.66667
0.63642,0.033281,5.0913,-0.70008,-35.491,84.536,9.5049,-3.1683,-0.25748,12.673,1.4708e-12,-0.12874,0,0,0.125,-0,-0,0.66667
0.0014998,0.75922,0.011998,0.38883,33.014,465.4,-0.01244,0.0041462,-1.4638,-0.016587,-8.4145e-07,-0.73191,0,0,0.125,-4.6259e-18,2.4634e-16,0.66667
0.11324,0.90119,0.90591,0.60179,50.569,388.33,-1.4538,0.48459,-0.71217,-1.9384,1.0894e-08,-0.35608,0,0,0.125,2.2204e-16,0,0.66667
0.46654,0.28062,3.7323,-0.32907,-21.813,165.95,3.2752,-1.0917,-1.6169,4.3669,-8.1091e-13,-0.80846,0,0,0.125,8.1416e-16,0,0.66667
0.62328,0.50271,4.9862,0.0040617,0.20958,88.987,-0.054006,0.018002,-2.002,-0.072008,-9.3973e-13,-1.001,0,0,0.125,-0,-0,0.66667
0.81967,0.030365,6.5574,-0.70445,-19.677,24.355,12.318,-4.1061,-0.23479,16.424,-8.8547e-10,-0.1174,0,0,0.125,5.6542e-16,0,0.66667
0.41481,0.35281,3.3184,-0.22079,-15.481,194.88,1.9538,-0.65126,-1.8247,2.6051,-6.9211e-13,-0.91236,0,0,0.125,-1.1842e-15,0,0.66667
0.92685,0.49431,7.4148,-0.0085361,-0.09768,4.3926,0.16878,-0.056261,-1.9988,0.22504,-3.2021e-07,-0.99941,0,0,0.125,-2.3685e-15,0,0.66667
0.59738,0.84056,4.7791,0.51085,27.876,100.93,-6.5103,2.1701,-1.0724,-8.6804,-1.2506e-12,-0.5362,0,0,0.125,1.4803e-16,0,0.66667
0.0018308,0.99116,0.014646,0.73673,62.853,465.18,-0.029041,0.0096869,-0.070915,-0.038719,9.6822e-06,-0.035457,0,0,0.125,2.313e-18,4.8062e-16,0.66667
0.68004,0.8623,5.4403,0.54345,24.778,66.775,-7.8841,2.628,-0.94768,-10.512,-2.8573e-12,-0.47384,0,0,0.125,1.1842e-15,0,0.66667
0.21277,0.50727,1.7022,0.010899,0.88156,320.97,-0.049471,0.01649,-1.998,-0.065961,4.6712e-11,-0.99902,0,0,0.125,1.1842e-15,0,0.66667
0.015256,0.051402,0.12205,-0.6729,-57.331,455.88,0.21899,-0.072987,-0.39261,0.29199,1.3782e-05,-0.19631,0,0,0.125,1.8504e-17,0,0.66667
0.73575,0.59022,5.886,0.13533,5.2206,46.514,-2.1242,0.70807,-1.9371,-2.8323,-1.2506e-11,-0.96857,0,0,0.125,5.9212e-16,0,0.66667
0.55191,0.4465,4.4153,-0.080252,-4.7159,121.69,0.94489,-0.31496,-1.9758,1.2599,3.3595e-13,-0.98788,0,0,0.125,-0,-0,0.66667
0.78362,0.30711,6.269,-0.28934,-9.3852,32.342,4.8369,-1.6123,-1.7033,6.4492,-5.6953e-11,-0.85165,0,0,0.125,-5.9212e-16,0,0.66667
0.088169,0.094568,0.70535,-0.60815,-51.37,405.53,1.1439,-0.3813,-0.68465,1.5252,-1.2747e-07,-0.34233,0,0,0.125,-0,-0,0.66667
0.3557,0.075972,2.8456,-0.63604,-47.304,230.34,4.8264,-1.6088,-0.56079,6.4353,-1.7235e-12,-0.2804,0,0,0.125,5.9212e-16,4.7906e-17,0.66667
0.2997,0.58124,2.3976,0.12186,9.3955,264.59,-0.77913,0.25971,-1.9471,-1.0388,-6.19e-13,-0.97354,0,0,0.125,-0,-0,0.66667
0.569,0.62994,4.552,0.19491,11.141,113.55,-2.3659,0.78865,-1.8636,-3.1546,-4.6607e-13,-0.93178,0,0,0.125,-0,-0,0.66667
0.51015,0.34994,4.0812,-0.22509,-14.089,142.7,2.4497,-0.81656,-1.8186,3.2662,-4.6096e-13,-0.90932,0,0,0.125,-0,-0,0.66667
0.78213,0.84185,6.257,0.51278,16.831,33.252,-8.5559,2.852,-1.0682,-11.408,-1.3621e-10,-0.53411,0,0,0.125,-2.9606e-16,0,0.66667
0.18706,0.10068,1.4965,-0.59898,-49.198,338.35,2.3903,-0.79676,-0.7272,3.187,-1.4475e-09,-0.3636,0,0,0.125,-0,-0,0.66667
0.5765,0.95686,4.612,0.68529,38.977,110.92,-8.4281,2.8094,-0.33128,-11.237,4.8672e-13,-0.16564,0,0,0.125,-1.2748e-15,0,0.66667
0.64438,0.26259,5.155,-0.35611,-17.609,80.422,4.8953,-1.6318,-1.5483,6.5271,1.227e-12,-0.77414,0,0,0.125,-1.1842e-15,0,0.66667
0.45987,0.40907,3.6789,-0.13639,-9.1005,169.46,1.3381,-0.44603,-1.9328,1.7841,5.056e-13,-0.9664,0,0,0.125,-1.1842e-15,0,0.66667
0.55798,0.56017,4.4638,0.09025,5.2517,118.76,-1.0743,0.3581,-1.9709,-1.4324,-1.7208e-12,-0.98545,0,0,0.125,1.4803e-15,0,0.66667
0.97433,0.008785,7.7946,-0.73682,-3.1721,2.6178,15.315,-5.1051,-0.068036,20.42,8.3165e-06,-0.034018,0,0,0.125,-0,-0,0.66667
0.75167,0.15333,6.0134,-0.52,-19.144,42.15,8.3385,-2.7795,-1.0406,11.118,5.2031e-11,-0.52031,0,0,0.125,-2.9606e-16,0,0.66667
0.38099,0.49936,3.0479,-0.00095643,-0.06921,214.62,0.0077736,-0.0025912,-1.9995,0.010365,-1.1279e-12,-0.99977,0,0,0.125,9.0668e-16,0,0.66667
0.43402,0.37278,3.4721,-0.19082,-13.112,183.9,1.7668,-0.58895,-1.8711,2.3558,1.4173e-12,-0.93554,0,0,0.125,-6.6613e-16,0,0.66667
0.71283,0.58404,5.7027,0.12605,5.2195,54.203,-1.9169,0.63898,-1.9417,-2.5559,-5.9681e-12,-0.97087,0,0,0.125,-0,-0,0.66667
0.093712,0.91135,0.7497,0.61703,52.074,401.72,-1.2336,0.41118,-0.64995,-1.6447,5.0636e-09,-0.32498,0,0,0.125,-2.9606e-16,8.0874e-17,0.66667
0.63781,0.83104,5.1025,0.49657,24.973,83.406,-6.7566,2.2522,-1.1232,-9.0088,-8.5798e-13,-0.56158,0,0,0.125,-7.5532e-16,0,0.66667
0.11436,0.68526,0.91487,0.27789,23.263,387.45,-0.67796,0.22599,-1.7251,-0.90394,-1.2708e-08,-0.86253,0,0,0.125,1.8189e-16,0,0.66667
0.10185,0.1612,0.81478,-0.5082,-42.756,396.1,1.1042,-0.36807,-1.0802,1.4723,4.0592e-08,-0.5401,0,0,0.125,-0,-0,0.66667
0.66667,0.38966,5.3334,-0.16551,-7.7546,71.266,2.354,-0.78465,-1.9009,3.1386,2.4647e-12,-0.95044,0,0,0.125,-1.1842e-15,0,0.66667
0.1671,0.48798,1.3368,-0.018033,-1.4854,351.54,0.064285,-0.021428,-1.9974,0.085713,7.5879e-10,-0.99871,0,0,0.125,3.9423e-16,0,0.66667
0.76472,0.57545,6.1177,0.11317,3.9452,37.528,-1.8462,0.61541,-1.9563,-2.4617,3.7804e-12,-0.97814,0,0,0.125,-0,-0,0.66667
0.75059,0.76309,6.0047,0.39463,14.537,42.177,-6.3191,2.1064,-1.4485,-8.4255,-1.6991e-11,-0.72423,0,0,0.125,-0,-0,0.66667
0.31202,0.34367,2.4962,-0.2345,-17.939,256.88,1.5609,-0.52032,-1.8084,2.0813,-3.3257e-12,-0.90422,0,0,0.125,9.4832e-17,0,0.66667
0.57086,0.56405,4.5669,0.096081,5.4719,112.62,-1.1701,0.39004,-1.9663,-1.5602,-8.7275e-13,-0.98314,0,0,0.125,-2.3685e-15,0,0.66667
0.64514,0.68013,5.1611,0.2702,13.323,79.986,-3.7188,1.2396,-1.7395,-4.9584,-2.7989e-12,-0.86976,0,0,0.125,5.9212e-16,0,0.66667
0.81146,0.63461,6.4917,0.20191,5.7752,24.995,-3.4954,1.1651,-1.8569,-4.6605,4.0521e-10,-0.92845,0,0,0.125,-0,-0,0.66667
0.20147,0.54579,1.6117,0.068685,5.5835,328.49,-0.2952,0.098401,-1.9842,-0.3936,-8.4155e-11,-0.99208,0,0,0.125,2.9606e-16,0,0.66667
0.67624,0.97175,5.4099,0.70763,32.725,68.707,-10.209,3.4029,-0.2194,-13.612,6.7679e-13,-0.1097,0,0,0.125,-0,-0,0.66667
0.82289,0.74368,6.5831,0.36552,9.9075,22.548,-6.4167,2.1389,-1.5238,-8.5556,8.3597e-10,-0.76191,0,0,0.125,-1.1842e-15,0,0.66667
0.41439,0.62937,3.3151,0.19406,13.61,195.11,-1.7155,0.57183,-1.8647,-2.2873,1.2845e-13,-0.93235,0,0,0.125,1.1842e-15,0,0.66667
0.4937,0.79912,3.9496,0.44868,28.787,151.55,-4.7256,1.5752,-1.2821,-6.3008,1.7186e-13,-0.64107,0,0,0.125,-5.9212e-16,0,0.66667
0.51425,0.092599,4.114,-0.6111,-38.237,141.18,6.7042,-2.2347,-0.67489,8.9389,9.6856e-13,-0.33745,0,0,0.125,7.6124e-17,0,0.66667
0.93933,0.20945,7.5146,-0.43583,-4.2075,3.784,8.7336,-2.9112,-1.3257,11.645,-6.2499e-08,-0.66283,0,0,0.125,-0,-0,0.66667
0.051651,0.18478,0.41321,-0.47283,-40.075,430.67,0.52101,-0.17367,-1.2047,0.69468,7.0651e-08,-0.60236,0,0,0.125,-0,-0,0.66667
0.57155,0.32931,4.5724,-0.25603,-14.579,112.41,3.1218,-1.0406,-1.7648,4.1625,5.218e-13,-0.88238,0,0,0.125,-1.1842e-15,0,0.66667
0.48976,0.46441,3.9181,-0.05338,-3.4315,153.29,0.55772,-0.18591,-1.989,0.74363,8.4538e-13,-0.99448,0,0,0.125,-5.9818e-16,0,0.66667
0.34383,0.10821,2.7506,-0.58769,-44.089,237.5,4.3107,-1.4369,-0.77479,5.7476,-3.5958e-12,-0.38739,0,0,0.125,5.9212e-16,0,0.66667
0.66992,0.35388,5.3593,-0.21918,-10.192,70.051,3.1324,-1.0441,-1.83,4.1765,2.1807e-12,-0.91501,0,0,0.125,-0,-0,0.66667
0.76944,0.22449,6.1555,-0.41327,-14.219,36.58,6.7836,-2.2612,-1.3925,9.0449,-2.1381e-11,-0.69625,0,0,0.125,-0,-0,0.66667
0.54006,0.79796,4.3205,0.44694,26.847,127.87,-5.1493,1.7164,-1.2875,-6.8658,1.7022e-12,-0.64377,0,0,0.125,-0,-0,0.66667
0.041638,0.089342,0.3331,-0.61599,-52.356,437.62,0.54717,-0.18239,-0.65002,0.72956,3.596e-06,-0.32501,0,0,0.125,-3.7007e-17,0,0.66667
0.23508,0.4534,1.8806,-0.069903,-5.595,306.26,0.35057,-0.11686,-1.9846,0.46742,3.1782e-12,-0.99232,0,0,0.125,-2.9606e-16,0,0.66667
0.02044,0.65854,0.16352,0.2378,20.159,452.27,-0.10369,0.034565,-1.7986,-0.13826,5.9966e-08,-0.89932,0,0,0.125,-0,-0,0.66667
0.32778,0.89207,2.6222,0.58811,44.662,247.38,-4.1124,1.3708,-0.77268,-5.4832,-4.2499e-13,-0.38634,0,0,0.125,-5.9212e-16,1.4676e-16,0.66667
0.46806,0.51805,3.7444,0.02708,1.7888,164.95,-0.2704,0.090134,-1.9995,-0.36053,-4.1178e-13,-0.99973,0,0,0.125,-0,-0,0.66667
0.78457,0.58986,6.2766,0.13479,4.3458,31.9,-2.256,0.752,-1.9358,-3.008,9.5601e-11,-0.96789,0,0,0.125,-2.9606e-16,0,0.66667
0.53227,0.86651,4.2582,0.54976,33.474,131.93,-6.2426,2.0809,-0.92735,-8.3235,8.3045e-14,-0.46368,0,0,0.125,-0,-0,0.66667
0.47743,0.57581,3.8194,0.11372,7.4273,159.9,-1.1582,0.38608,-1.9518,-1.5443,2.5835e-13,-0.97591,0,0,0.125,1.1842e-15,0,0.66667
0.69795,0.16356,5.5836,-0.50466,-21.925,60.067,7.5141,-2.5047,-1.0932,10.019,4.1869e-12,-0.54662,0,0,0.125,-0,-0,0.66667
0.017417,0.65799,0.13934,0.23698,20.092,454.36,-0.088055,0.029352,-1.8025,-0.11741,1.0298e-08,-0.90123,0,0,0.125,-0,-0,0.66667
0.69499,0.7636,5.5599,0.3954,17.277,60.895,-5.8624,1.9541,-1.4419,-7.8165,-5.6306e-12,-0.72093,0,0,0.125,-1.1842e-15,0,0.66667
0.31196,0.66653,2.4957,0.24979,19.111,256.92,-1.6624,0.55412,-1.7806,-2.2165,5.913e-13,-0.89028,0,0,0.125,-0,-0,0.66667
0.55979,0.62212,4.4783,0.18318,10.632,117.93,-2.1875,0.72918,-1.8818,-2.9167,-1.4231e-12,-0.94088,0,0,0.125,4.4409e-16,0,0.66667
0.60681,0.15223,4.8545,-0.52166,-27.967,96.752,6.753,-2.251,-1.0334,9.004,9.1749e-13,-0.51671,0,0,0.125,-5.2888e-16,0,0.66667
0.18214,0.49022,1.4571,-0.014664,-1.2012,341.41,0.056979,-0.018993,-1.9977,0.075972,-2.5985e-10,-0.99884,0,0,0.125,-4.4409e-16,0,0.66667
0.25027,0.47403,2.0022,-0.038954,-3.0932,296.32,0.20798,-0.069327,-1.9979,0.27731,2.1267e-12,-0.99895,0,0,0.125,5.9212e-16,0,0.66667
0.57882,0.25958,4.6305,-0.36063,-20.302,109.14,4.4531,-1.4844,-1.5399,5.9375,-4.774e-13,-0.76993,0,0,0.125,-0,-0,0.66667
0.26262,0.56729,2.101,0.10093,7.961,288.32,-0.56548,0.18849,-1.9643,-0.75397,1.8104e-12,-0.98213,0,0,0.125,-5.9212e-16,0,0.66667
0.23942,0.14642,1.9153,-0.53036,-42.509,303.65,2.7089,-0.90296,-0.99845,3.6118,-1.148e-11,-0.49923,0,0,0.125,2.9606e-16,0,0.66667
0.35903,0.53876,2.8723,0.058144,4.2883,227.81,-0.44534,0.14845,-1.9909,-0.59379,5.1459e-14,-0.99545,0,0,0.125,-0,-0,0.66667
0.90441,0.57822,7.2353,0.11734,1.7559,7.1666,-2.2639,0.75463,-1.9518,-3.0185,9.2856e-09,-0.97589,0,0,0.125,-0,-0,0.66667
0.86921,0.8369,6.9537,0.50535,10.381,13.44,-9.3708,3.1236,-1.0906,-12.494,8.1303e-09,-0.54529,0,0,0.125,-0,-0,0.66667
0.51404,0.81544,4.1123,0.47316,29.541,141.02,-5.1887,1.7296,-1.2061,-6.9183,9.4369e-13,-0.60306,0,0,0.125,-1.1842e-15,0,0.66667
0.051748,0.067147,0.41398,-0.64928,-55.162,430.64,0.71677,-0.23892,-0.50038,0.95569,2.778e-07,-0.25019,0,0,0.125,-0,-0,0.66667
0.80034,0.68407,6.4027,0.2761,8.33,27.883,-4.7142,1.5714,-1.7293,-6.2856,2.4316e-10,-0.86465,0,0,0.125,2.9606e-16,0,0.66667
0.18119,0.35672,1.4495,-0.21492,-17.623,342.08,0.83076,-0.27692,-1.8337,1.1077,6.1739e-10,-0.91685,0,0,0.125,-0,-0,0.66667
0.66874,0.1063,5.3499,-0.59055,-27.726,71.222,8.425,-2.8083,-0.75965,11.233,-6.1107e-13,-0.37983,0,0,0.125,1.1842e-15,-5.2989e-17,0.66667
0.83537,0.12587,6.683,-0.56119,-14.326,20.288,10.001,-3.3337,-0.87946,13.335,2.4613e-09,-0.43973,0,0,0.125,-0,-0,0.66667
0.9648,0.024871,7.7184,-0.71269,-4.1662,2.9775,14.669,-4.8896,-0.19359,19.559,-3.8958e-06,-0.096797,0,0,0.125,1.1842e-15,-9.62e-17,0.66667
0.12685,0.044622,1.0148,-0.68307,-57.283,379.09,1.8484,-0.61614,-0.34182,2.4645,9.0427e-09,-0.17091,0,0,0.125,-0,-0,0.66667
0.52331,0.95731,4.1865,0.68596,42.44,136.75,-7.658,2.5527,-0.32479,-10.211,1.7115e-12,-0.1624,0,0,0.125,-5.9212e-16,0,0.66667
0.85061,0.63851,6.8049,0.20777,4.7897,16.3,-3.7703,1.2568,-1.8443,-5.0271,2.6074e-09,-0.92216,0,0,0.125,-0,-0,0.66667
0.53761,0.51156,4.3009,0.017343,1.0421,128.7,-0.19891,0.066304,-1.9969,-0.26521,-6.2599e-13,-0.99846,0,0,0.125,-0,-0,0.66667
0.73005,0.98469,5.8404,0.72704,28.949,49.704,-11.323,3.7744,-0.11932,-15.098,2.407e-13,-0.059658,0,0,0.125,3.1969e-16,0,0.66667
0.78546,0.66195,6.2837,0.24292,7.8136,31.771,-4.0705,1.3568,-1.7897,-5.4273,9.2605e-11,-0.89484,0,0,0.125,-0,-0,0.66667
0.8366,0.44765,6.6928,-0.078532,-1.9658,19.105,1.4016,-0.4672,-1.976,1.8688,-8.2946e-10,-0.98801,0,0,0.125,2.3685e-15,0,0.66667
0.66653,0.9183,5.3323,0.62745,29.646,72.187,-8.922,2.974,-0.59849,-11.896,-1.3056e-12,-0.29925,0,0,0.125,-0,-0,0.66667
0.89774,0.63682,7.1819,0.20523,3.2879,8.1889,-3.9305,1.3102,-1.8481,-5.2406,1.6485e-08,-0.92404,0,0,0.125,-0,-0,0.66667
0.64779,0.7446,5.1823,0.36689,18.007,79.045,-5.0703,1.6901,-1.5198,-6.7604,-3.0704e-12,-0.75992,0,0,0.125,2.9606e-16,0,0.66667
0.94464,0.42481,7.5571,-0.11278,-0.97179,2.7239,2.2727,-0.75758,-1.9526,3.0303,8.9413e-08,-0.97629,0,0,0.125,-1.1842e-15,0,0.66667
0.6293,0.61683,5.0344,0.17524,8.9355,86.49,-2.3527,0.78422,-1.8899,-3.1369,-1.3118e-12,-0.94497,0,0,0.125,-0,-0,0.66667
0.87243,0.7129,6.9794,0.31936,6.3571,12.4,-5.9438,1.9813,-1.6381,-7.9251,8.5352e-09,-0.81904,0,0,0.125,-5.9212e-16,0,0.66667
0.59566,0.60651,4.7652,0.15977,8.7072,101.21,-2.0302,0.67673,-1.91,-2.7069,-1.1495e-12,-0.95499,0,0,0.125,-0,-0,0.66667
0.34435,0.44667,2.7548,-0.080001,-5.9711,236.77,0.5877,-0.1959,-1.9797,0.7836,-1.134e-12,-0.98984,0,0,0.125,-0,-0,0.66667
0.81346,0.022646,6.5077,-0.71603,-20.633,25.875,12.426,-4.1419,-0.17911,16.568,-6.4622e-10,-0.089557,0,0,0.125,1.1842e-15,0,0.66667
0.43238,0.44689,3.459,-0.079663,-5.4811,184.78,0.73482,-0.24494,-1.976,0.97976,3.9968e-14,-0.98801,0,0,0.125,-0,-0,0.66667
0.12655,0.58318,1.0124,0.12477,10.406,379.09,-0.33683,0.11228,-1.9459,-0.44911,-5.5534e-09,-0.97294,0,0,0.125,1.4803e-16,0,0.66667
0.96857,0.34168,7.7485,-0.23748,-1.1292,1.2178,4.907,-1.6357,-1.8034,6.5427,1.134e-07,-0.90171,0,0,0.125,-5.9212e-16,0,0.66667
0.85256,0.45814,6.8205,-0.062792,-1.4271,15.793,1.1421,-0.38069,-1.9839,1.5227,-1.9215e-09,-0.99197,0,0,0.125,1.1842e-15,0,0.66667
0.56126,0.38188,4.4901,-0.17719,-10.259,117.23,2.1215,-0.70718,-1.8903,2.8287,4.3343e-13,-0.94515,0,0,0.125,-1.1842e-15,0,0.66667
0.67061,0.97878,5.3649,0.71817,33.688,70.897,-10.274,3.4248,-0.16774,-13.699,3.9968e-13,-0.083869,0,0,0.125,-1.1842e-15,1.2904e-16,0.66667
0.99772,0.18062,7.9818,-0.47907,-0.020401,0.84352,10.197,-3.3989,-1.1848,13.596,-1.2947e-06,-0.59242,0,0,0.125,-1.1842e-15,-1.0163e-16,0.66667
0.16131,0.51522,1.2905,0.02283,1.8842,355.45,-0.078565,0.026188,-1.9965,-0.10475,-4.232e-10,-0.99824,0,0,0.125,-5.9212e-16,0,0.66667
0.53454,0.58657,4.2763,0.12986,7.8416,130.26,-1.4809,0.49362,-1.94,-1.9745,-4.9849e-14,-0.96999,0,0,0.125,5.9212e-16,0,0.66667
0.39098,0.9898,3.1278,0.73471,53.094,209.46,-6.1281,2.0427,-0.083386,-8.1708,-1.5543e-13,-0.041693,0,0,0.125,5.9212e-16,0,0.66667
0.54115,0.97415,4.3292,0.71122,42.876,127.92,-8.2107,2.7369,-0.20028,-10.948,7.7005e-13,-0.10014,0,0,0.125,-0,-0,0.66667
0.10338,0.37075,0.82702,-0.19387,-16.261,394.97,0.42756,-0.14252,-1.8652,0.57008,1.7188e-08,-0.93262,0,0,0.125,-3.7007e-17,0,0.66667
0.44074,0.055551,3.5259,-0.66667,-45.757,180.75,6.2684,-2.0895,-0.41973,8.3579,-1.4455e-12,-0.20986,0,0,0.125,2.9606e-16,0,0.66667
0.46146,0.5814,3.6917,0.1221,8.1309,168.57,-1.202,0.40066,-1.9448,-1.6027,-1.7344e-12,-0.97239,0,0,0.125,4.5636e-17,0,0.66667
0.59589,0.23974,4.7671,-0.39039,-21.318,101.37,4.9628,-1.6543,-1.4588,6.617,4.6096e-13,-0.72938,0,0,0.125,-0,-0,0.66667
0.66238,0.4353,5.299,-0.097048,-4.5924,72.908,1.3714,-0.45712,-1.9657,1.8285,1.33e-13,-0.98286,0,0,0.125,2.9606e-16,0,0.66667
0.59015,0.89184,4.7212,0.58776,32.555,104.38,-7.3998,2.4666,-0.7709,-9.8664,2.4647e-13,-0.38545,0,0,0.125,-1.1842e-15,0,0.66667
0.72938,0.65646,5.8351,0.23469,9.249,48.694,-3.6518,1.2173,-1.8042,-4.869,-1.1229e-11,-0.9021,0,0,0.125,-2.3685e-15,0,0.66667
0.5809,0.85343,4.6472,0.53015,29.819,108.48,-6.57,2.19,-1.0008,-8.7599,-7.2653e-13,-0.50039,0,0,0.125,1.1842e-15,0,0.66667
0.4431,0.15497,3.5448,-0.51754,-35.334,179.15,4.8922,-1.6307,-1.0472,6.523,-4.8272e-13,-0.5236,0,0,0.125,2.8764e-16,0,0.66667
0.49679,0.92105,3.9743,0.63158,40.486,150.28,-6.6936,2.2312,-0.58123,-8.9248,5.3602e-13,-0.29061,0,0,0.125,-0,1.8863e-16,0.66667
0.43009,0.22275,3.4407,-0.41587,-28.755,186.33,3.8157,-1.2719,-1.3837,5.0876,8.7463e-13,-0.69187,0,0,0.125,-0,-0,0.66667
0.21007,0.5939,1.6806,0.14084,11.409,322.78,-0.6312,0.2104,-1.9289,-0.8416,-1.2822e-10,-0.96445,0,0,0.125,-5.9212e-16,0,0.66667
0.2268,0.012168,1.8144,-0.73175,-59.21,312.13,3.5405,-1.1802,-0.093939,4.7207,-5.448e-11,-0.046969,0,0,0.125,-0,-0,0.66667
0.45739,0.63807,3.6591,0.2071,13.864,170.86,-2.0208,0.6736,-1.8463,-2.6944,9.7033e-14,-0.92316,0,0,0.125,-0,-0,0.66667
0.43355,0.32222,3.4684,-0.26667,-18.342,184.21,2.4665,-0.82215,-1.7464,3.2886,3.7925e-13,-0.87318,0,0,0.125,-0,-0,0.66667
0.77928,0.45019,6.2343,-0.07471,-2.4605,33.327,1.242,-0.41401,-1.9808,1.6561,-1.464e-11,-0.99041,0,0,0.125,-0,-0,0.66667
0.42086,0.38199,3.3669,-0.17701,-12.332,191.38,1.5892,-0.52975,-1.8908,2.119,-1.2459e-12,-0.94538,0,0,0.125,-0,-0,0.66667
0.67337,0.689,5.3869,0.28349,13.081,68.797,-4.0725,1.3575,-1.7167,-5.4299,-3.8196e-12,-0.85837,0,0,0.125,-0,-0,0.66667
0.16604,0.71684,1.3283,0.32526,26.836,352.32,-1.1521,0.38404,-1.6232,-1.5362,-1.5525e-09,-0.8116,0,0,0.125,4.3166e-16,0,0.66667
0.82406,0.98348,6.5925,0.72522,19.833,23.428,-12.749,4.2498,-0.12888,-16.999,-5.9774e-11,-0.064441,0,0,0.125,-1.1842e-15,0,0.66667
0.68541,0.30098,5.4833,-0.29852,-13.36,64.26,4.365,-1.455,-1.6837,5.82,4.3419e-12,-0.84187,0,0,0.125,-0,-0,0.66667
0.78905,0.74114,6.3124,0.36171,11.487,31,-6.0887,2.0296,-1.5328,-8.1183,1.0032e-10,-0.76641,0,0,0.125,-0,-0,0.66667
0.35948,0.98533,2.8759,0.72799,54.069,228.21,-5.5829,1.861,-0.11843,-7.4439,1.3354e-12,-0.059217,0,0,0.125,-5.9212e-16,0,0.66667
0.66255,0.62731,5.3004,0.19097,9.0383,72.903,-2.6992,0.89973,-1.8695,-3.5989,-2.5815e-12,-0.93473,0,0,0.125,-0,-0,0.66667
0.21709,0.49256,1.7367,-0.011164,-0.90127,318.11,0.051705,-0.017235,-2.001,0.06894,-4.9727e-11,-1.0005,0,0,0.125,-2.9606e-16,0,0.66667
0.22101,0.67497,1.768,0.26245,21.168,315.58,-1.2374,0.41247,-1.7555,-1.6499,-4.5303e-11,-0.87774,0,0,0.125,-2.9606e-16,0,0.66667
0.24246,0.15272,1.9397,-0.52092,-41.681,301.66,2.6944,-0.89813,-1.0339,3.5925,-4.7012e-11,-0.51696,0,0,0.125,-7.4015e-17,0,0.66667
0.26459,0.13852,2.1167,-0.54222,-42.879,287.31,3.0606,-1.0202,-0.95631,4.0808,-1.1682e-11,-0.47816,0,0,0.125,-0,-0,0.66667
0.40841,0.23231,3.2673,-0.40153,-28.381,198.74,3.4984,-1.1661,-1.4272,4.6646,-9.6412e-13,-0.7136,0,0,0.125,-0,-0,0.66667
0.8287,0.83192,6.6296,0.49789,13.147,21.561,-8.802,2.934,-1.1209,-11.736,9.3008e-10,-0.56044,0,0,0.125,-1.1842e-15,0,0.66667
0.94742,0.63041,7.5794,0.19561,1.6028,2.5791,-3.9536,1.3179,-1.8628,-5.2715,-5.3964e-08,-0.93138,0,0,0.125,-0,-0,0.66667
0.63246,0.10229,5.0597,-0.59657,-30.416,85.887,8.0492,-2.6831,-0.73264,10.732,-9.4502e-13,-0.36632,0,0,0.125,1.1842e-15,0,0.66667
0.13474,0.43952,1.0779,-0.090721,-7.5488,373.5,0.26077,-0.086924,-1.97,0.3477,6.2489e-09,-0.98502,0,0,0.125,-0,-0,0.66667
0.41999,0.4292,3.3599,-0.1062,-7.4028,191.84,0.95149,-0.31716,-1.961,1.2687,-9.6273e-13,-0.98049,0,0,0.125,-2.9606e-16,0,0.66667
0.93619,0.74681,7.4895,0.37021,3.74,3.9003,-7.3938,2.4646,-1.5151,-9.8584,4.3684e-08,-0.75754,0,0,0.125,2.9606e-16,0,0.66667
0.32054,0.37835,2.5644,-0.18248,-13.871,251.52,1.2478,-0.41595,-1.8804,1.6638,-1.4951e-12,-0.94018,0,0,0.125,-0,-0,0.66667
0.61928,0.15504,4.9542,-0.51744,-27.063,91.297,6.8361,-2.2787,-1.0475,9.1148,-1.4166e-13,-0.52377,0,0,0.125,-4.4409e-16,0,0.66667
0.93513,0.66733,7.4811,0.25099,2.5585,3.7549,-5.0072,1.6691,-1.7764,-6.6762,1.5133e-09,-0.88819,0,0,0.125,-0,-0,0.66667
0.46068,0.94583,3.6855,0.66875,44.875,169.71,-6.5724,2.1908,-0.40794,-8.7632,-8.8285e-13,-0.20397,0,0,0.125,-0,-0,0.66667
0.5004,0.9102,4.0032,0.61531,39.241,148.35,-6.5685,2.1895,-0.65719,-8.758,8.3755e-13,-0.3286,0,0,0.125,1.1842e-15,0,0.66667
0.91869,0.20322,7.3495,-0.44518,-5.758,5.9594,8.7249,-2.9083,-1.2949,11.633,-4.5657e-08,-0.64744,0,0,0.125,1.1842e-15,0,0.66667
0.92982,0.53804,7.4386,0.057065,0.62638,4.0894,-1.132,0.37732,-1.9867,-1.5093,-9.4334e-08,-0.99333,0,0,0.125,2.3685e-15,0,0.66667
0.90449,0.61406,7.2359,0.1711,2.5612,7.2062,-3.3014,1.1005,-1.8969,-4.4019,1.1485e-08,-0.94844,0,0,0.125,-1.1842e-15,0,0.66667
0.51363,0.47578,4.1091,-0.036323,-2.2607,140.82,0.39801,-0.13267,-1.9964,0.53068,-9.2643e-13,-0.99821,0,0,0.125,-0,-0,0.66667
0.63981,0.044453,5.1185,-0.68332,-34.373,83.077,9.3269,-3.109,-0.34173,12.436,8.713e-13,-0.17086,0,0,0.125,-1.1842e-15,0,0.66667
0.58901,0.51044,4.712,0.015665,0.86385,104.17,-0.19684,0.065612,-1.9978,-0.26245,5.3769e-13,-0.99891,0,0,0.125,-0,-0,0.66667
0.15849,0.46472,1.268,-0.052914,-4.3712,357.36,0.17891,-0.059638,-1.9913,0.23855,9.5762e-10,-0.99566,0,0,0.125,-3.7007e-16,0,0.66667
0.62345,0.88361,4.9876,0.57541,29.878,89.648,-7.6531,2.551,-0.82415,-10.204,-1.2608e-12,-0.41207,0,0,0.125,-0,-0,0.66667
0.31914,0.89431,2.5532,0.59146,45.2,252.75,-4.0269,1.3423,-0.75408,-5.3692,-2.6077e-12,-0.37704,0,0,0.125,-2.9606e-16,0,0.66667
0.13074,0.89931,1.0459,0.59896,50.111,376.39,-1.6705,0.55684,-0.72301,-2.2274,-1.6585e-08,-0.36151,0,0,0.125,7.4015e-17,0,0.66667
0.215,0.12075,1.72,-0.56888,-46.16,319.74,2.6093,-0.86977,-0.84934,3.4791,3.3382e-10,-0.42467,0,0,0.125,1.4803e-16,0,0.66667
0.31366,0.18441,2.5093,-0.47338,-36.255,256.04,3.1676,-1.0559,-1.2058,4.2234,-4.5788e-12,-0.60291,0,0,0.125,1.4803e-16,0,0.66667
0.95145,0.24594,7.6116,-0.38108,-2.9159,2.6245,7.7351,-2.5784,-1.4855,10.313,3.5532e-08,-0.74275,0,0,0.125,-0,-0,0.66667
0.99077,0.53119,7.9261,0.046786,0.046195,0.17034,-0.98888,0.32963,-1.9918,-1.3185,-2.0647e-06,-0.99589,0,0,0.125,1.1195e-15,0,0.66667
0.86689,0.43779,6.9351,-0.093308,-1.9251,13.095,1.7256,-0.5752,-1.9684,2.3008,-6.5275e-09,-0.9842,0,0,0.125,-2.3685e-15,0,0.66667
0.46186,0.90018,3.6949,0.60027,40.17,168.92,-5.9145,1.9715,-0.71726,-7.8859,-1.1795e-12,-0.35863,0,0,0.125,-2.9606e-16,0,0.66667
0.46562,0.73428,3.7249,0.35141,23.326,166.48,-3.4907,1.1636,-1.5605,-4.6542,-6.5103e-13,-0.78024,0,0,0.125,5.9212e-16,0,0.66667
0.76473,0.7609,6.1178,0.39135,13.699,37.907,-6.3845,2.1282,-1.4574,-8.5127,-9.3867e-12,-0.72869,0,0,0.125,-1.1842e-15,0,0.66667
0.098408,0.80443,0.78726,0.45664,38.422,398.44,-0.95867,0.31956,-1.2575,-1.2782,-2.4223e-08,-0.62876,0,0,0.125,-7.4015e-17,0,0.66667
0.99404,0.64014,7.9523,0.21021,0.10028,0.24799,-4.4577,1.4859,-1.8409,-5.9435,1.3997e-07,-0.92044,0,0,0.125,-0,-0,0.66667
0.69221,0.81168,5.5377,0.46752,20.612,62.061,-6.9039,2.3013,-1.2229,-9.2053,-3.0771e-12,-0.61145,0,0,0.125,-2.9606e-16,0,0.66667
0.29929,0.62281,2.3943,0.18422,14.211,264.88,-1.1762,0.39206,-1.8808,-1.5682,5.5222e-12,-0.94039,0,0,0.125,-1.4803e-16,0,0.66667
0.90885,0.68066,7.2708,0.27099,3.8861,6.77,-5.2542,1.7514,-1.7394,-7.0056,2.2023e-08,-0.86972,0,0,0.125,1.1842e-15,0,0.66667
0.55258,0.61331,4.4206,0.16997,9.9813,121.41,-2.0037,0.66789,-1.8955,-2.6716,-1.3267e-12,-0.94773,0,0,0.125,5.9212e-16,0,0.66667
0.08519,0.40236,0.68152,-0.14646,-12.325,407.47,0.26617,-0.088722,-1.9224,0.35489,2.3311e-08,-0.96122,0,0,0.125,3.7007e-17,0,0.66667
0.10825,0.20183,0.86597,-0.44725,-37.55,391.69,1.0328,-0.34427,-1.2903,1.3771,1.7888e-08,-0.64514,0,0,0.125,1.4803e-16,0,0.66667
0.031665,0.03733,0.25332,-0.694,-59.104,444.53,0.46882,-0.15628,-0.29052,0.62508,-1.1979e-05,-0.14526,0,0,0.125,7.4015e-17,0,0.66667
0.21619,0.15132,1.7296,-0.52302,-42.389,318.91,2.4123,-0.80409,-1.0282,3.2164,-1.0777e-10,-0.51411,0,0,0.125,-2.0017e-17,0,0.66667
0.051414,0.59795,0.41131,0.14693,12.423,430.8,-0.16116,0.053719,-1.9228,-0.21488,1.2877e-08,-0.96138,0,0,0.125,-0,-0,0.66667
0.51027,0.037254,4.0822,-0.69412,-43.751,143.42,7.5561,-2.5187,-0.28579,10.075,1.569e-12,-0.14289,0,0,0.125,-0,-0,0.66667
0.08294,0.12949,0.66352,-0.55576,-46.953,409.1,0.98336,-0.32779,-0.90112,1.3111,4.4724e-08,-0.45056,0,0,0.125,-0,-0,0.66667
0.44312,0.93707,3.545,0.6556,44.869,179.39,-6.1976,2.0659,-0.4715,-8.2634,-6.164e-13,-0.23575,0,0,0.125,-1.2953e-16,0,0.66667
0.2362,0.86588,1.8896,0.54883,44.071,305.77,-2.7655,0.92183,-0.93008,-3.6873,3.1803e-11,-0.46504,0,0,0.125,-2.9606e-16,0,0.66667
0.55972,0.38976,4.4778,-0.16536,-9.5983,117.96,1.9745,-0.65818,-1.9026,2.6327,-3.5638e-13,-0.95132,0,0,0.125,-0,-0,0.66667
0.43897,0.0036207,3.5117,-0.74457,-51.287,181.91,6.9726,-2.3242,-0.030998,9.2968,-4.3121e-13,-0.015499,0,0,0.125,-0,-0,0.66667
0.83754,0.77516,6.7003,0.41273,10.346,19.39,-7.3746,2.4582,-1.3929,-9.8327,1.735e-09,-0.69643,0,0,0.125,1.1842e-15,0,0.66667
0.33654,0.45015,2.6924,-0.074772,-5.6147,241.56,0.53684,-0.17895,-1.9779,0.71578,-2.7384e-12,-0.98895,0,0,0.125,5.9212e-16,0,0.66667
0.23023,0.54214,1.8419,0.063215,5.0718,309.44,-0.31049,0.1035,-1.9848,-0.41398,-2.3029e-12,-0.9924,0,0,0.125,-0,-0,0.66667
0.94012,0.40432,7.5209,-0.14353,-1.3423,3.1467,2.8785,-0.95951,-1.9281,3.8381,-3.3627e-08,-0.96403,0,0,0.125,2.9606e-16,0,0.66667
0.46636,0.43249,3.7309,-0.10127,-6.7041,165.89,1.0075,-0.33584,-1.9645,1.3434,6.9911e-13,-0.98227,0,0,0.125,-2.9606e-16,0,0.66667
0.028158,0.27018,0.22526,-0.34473,-29.235,446.92,0.20708,-0.069027,-1.5772,0.27611,-3.4279e-07,-0.7886,0,0,0.125,-3.7007e-17,0,0.66667
0.079436,0.52244,0.63549,0.03366,2.8346,411.43,-0.057042,0.019014,-1.9976,-0.076056,1.2083e-08,-0.9988,0,0,0.125,-0,-0,0.66667
0.55557,0.05728,4.4446,-0.66408,-39.093,120.77,7.8708,-2.6236,-0.43051,10.494,-1.1386e-12,-0.21526,0,0,0.125,-2.9606e-16,0,0.66667
0.21077,0.24305,1.6862,-0.38543,-31.264,322.41,1.7331,-0.57769,-1.47,2.3108,8.0941e-11,-0.73501,0,0,0.125,-2.9606e-16,0,0.66667
0.14824,0.15645,1.1859,-0.51533,-42.85,364.45,1.6297,-0.54322,-1.0551,2.1729,-1.0105e-09,-0.52757,0,0,0.125,-5.9212e-16,0,0.66667
0.19553,0.38159,1.5643,-0.17762,-14.48,332.47,0.74091,-0.24697,-1.8861,0.98788,2.8717e-10,-0.94305,0,0,0.125,-0,-0,0.66667
0.74475,0.91589,5.958,0.62384,23.596,44.617,-9.9115,3.3038,-0.61478,-13.215,-4.6985e-13,-0.30739,0,0,0.125,-0,-0,0.66667
0.94901,0.069248,7.5921,-0.64613,-5.3818,3.731,13.081,-4.3604,-0.51503,17.442,-4.5442e-07,-0.25752,0,0,0.125,-2.3685e-15,-9.1002e-17,0.66667
0.12938,0.50742,1.035,0.01113,0.92733,377.15,-0.030718,0.010239,-1.9987,-0.040958,-1.3884e-09,-0.99937,0,0,0.125,-0,-0,0.66667
0.87978,0.84159,7.0382,0.51239,9.7216,11.655,-9.6168,3.2056,-1.0663,-12.822,-6.3571e-09,-0.53314,0,0,0.125,-1.4803e-16,0,0.66667
0.71192,0.8544,5.6954,0.5316,22.218,55.194,-8.0738,2.6913,-0.99315,-10.765,-5.0342e-12,-0.49657,0,0,0.125,-0,-0,0.66667
0.55684,0.51423,4.4547,0.021348,1.2444,119.29,-0.25359,0.084531,-1.9965,-0.33813,7.5107e-13,-0.99824,0,0,0.125,-2.3685e-15,0,0.66667
0.067019,0.071265,0.53615,-0.6431,-54.532,420.1,0.91947,-0.30649,-0.52844,1.226,-2.1437e-07,-0.26422,0,0,0.125,-0,-0,0.66667
0.78774,0.15648,6.3019,-0.51528,-16.527,31.73,8.6594,-2.8865,-1.0554,11.546,1.9335e-10,-0.52772,0,0,0.125,-0,-0,0.66667
0.81228,0.093668,6.4982,-0.6095,-17.573,25.751,10.562,-3.5206,-0.68346,14.082,2.0985e-09,-0.34173,0,0,0.125,1.4416e-15,0,0.66667
0.75458,0.67652,6.0367,0.26479,9.5944,40.723,-4.2625,1.4208,-1.7495,-5.6833,-1.0956e-11,-0.87473,0,0,0.125,-0,-0,0.66667
0.55049,0.64035,4.4039,0.21052,12.407,122.45,-2.4723,0.8241,-1.8416,-3.2964,-3.2929e-13,-0.92081,0,0,0.125,-0,-0,0.66667
0.6316,0.10491,5.0528,-0.59263,-30.267,86.235,7.9853,-2.6618,-0.7492,10.647,-2.629e-13,-0.3746,0,0,0.125,-0,-0,0.66667
0.43666,0.89167,3.4933,0.58751,40.443,182.88,-5.473,1.8243,-0.77458,-7.2973,9.0727e-13,-0.38729,0,0,0.125,-0,1.4736e-16,0.66667
0.30785,0.48799,2.4628,-0.018015,-1.3811,259.44,0.11831,-0.039438,-1.9975,0.15775,-3.0214e-12,-0.99874,0,0,0.125,-2.9606e-16,0,0.66667
0.20771,0.44408,1.6617,-0.083885,-6.801,324.34,0.37171,-0.1239,-1.9741,0.49561,6.0007e-11,-0.98707,0,0,0.125,-0,-0,0.66667
0.77076,0.66046,6.1661,0.24068,8.2112,35.89,-3.9576,1.3192,-1.7932,-5.2767,5.1972e-12,-0.89662,0,0,0.125,-2.3685e-15,0,0.66667
0.93478,0.97998,7.4782,0.71997,7.7201,5.3031,-14.358,4.7859,-0.15698,-19.144,-8.7065e-07,-0.078489,0,0,0.125,-0,-1.3633e-16,0.66667
0.62152,0.31795,4.9721,-0.27308,-14.163,89.909,3.6208,-1.2069,-1.7349,4.8277,-4.2988e-13,-0.86744,0,0,0.125,-0,-0,0.66667
0.53425,0.80619,4.274,0.45928,27.839,130.78,-5.2346,1.7449,-1.2503,-6.9795,1.4762e-12,-0.62513,0,0,0.125,-8.8818e-16,0,0.66667
0.88327,0.24692,7.0662,-0.37962,-6.9566,10.715,7.1532,-2.3844,-1.4864,9.5376,-1.253e-08,-0.74321,0,0,0.125,1.4457e-15,0,0.66667
0.044803,0.12335,0.35842,-0.56497,-47.971,435.42,0.54,-0.18,-0.86697,0.71999,8.1487e-07,-0.43349,0,0,0.125,8.3267e-17,-1.624e-16,0.66667
0.30268,0.98015,2.4214,0.72022,55.796,263.26,-4.6505,1.5502,-0.15382,-6.2007,-4.8228e-13,-0.076911,0,0,0.125,-0,-0,0.66667
0.38247,0.83569,3.0598,0.50353,36.521,214.09,-4.1085,1.3695,-1.0966,-5.478,1.497e-12,-0.54831,0,0,0.125,2.9606e-16,0,0.66667
0.031099,0.038127,0.2488,-0.69281,-59.003,444.92,0.45965,-0.15323,-0.29665,0.61286,-1.5134e-05,-0.14833,0,0,0.125,-0,1.0163e-16,0.66667
0.51993,0.45172,4.1595,-0.072419,-4.4673,137.6,0.80326,-0.26775,-1.9801,1.071,-1.7349e-12,-0.99005,0,0,0.125,-0,-0,0.66667
0.94058,0.87963,7.5246,0.56945,5.4628,4.1207,-11.426,3.8088,-0.8475,-15.235,2.6781e-08,-0.42375,0,0,0.125,-0,-0,0.66667
0.79725,0.31631,6.378,-0.27554,-8.429,28.68,4.6864,-1.5621,-1.7335,6.2485,-2.036e-10,-0.86673,0,0,0.125,2.3685e-15,0,0.66667
0.53509,0.91167,4.2808,0.6175,37.49,130.68,-7.049,2.3497,-0.64401,-9.3986,-3.3173e-13,-0.32201,0,0,0.125,1.1842e-15,0,0.66667
0.67654,0.87204,5.4123,0.55806,25.679,68.138,-8.0544,2.6848,-0.89236,-10.739,-2.8697e-12,-0.44618,0,0,0.125,1.7764e-15,0,0.66667
0.78523,0.42885,6.2819,-0.10673,-3.4309,31.699,1.7879,-0.59597,-1.9588,2.3839,-1.4387e-11,-0.97939,0,0,0.125,-5.9212e-16,0,0.66667
0.26109,0.27632,2.0887,-0.33552,-26.523,289.4,1.8688,-0.62295,-1.5992,2.4918,-1.5277e-11,-0.79958,0,0,0.125,4.4409e-16,0,0.66667
0.27566,0.85734,2.2053,0.53601,42.11,280.18,-3.1522,1.0507,-0.97663,-4.2029,6.3956e-12,-0.48831,0,0,0.125,-0,-0,0.66667
0.60522,0.35685,4.8418,-0.21473,-11.497,96.965,2.7724,-0.92414,-1.8349,3.6966,-1.6724e-12,-0.91747,0,0,0.125,1.1842e-15,0,0.66667
0.67418,0.58495,5.3934,0.12743,5.8595,68.331,-1.8328,0.61093,-1.9429,-2.4437,-3.3991e-12,-0.97143,0,0,0.125,5.9212e-16,0,0.66667
0.0036135,0.87296,0.028908,0.55944,47.593,463.94,-0.043124,0.014374,-0.88771,-0.057499,-7.3932e-07,-0.44386,0,0,0.125,-5.2042e-18,-7.232e-17,0.66667
0.8557,0.026302,6.8456,-0.71055,-16.194,16.702,12.971,-4.3237,-0.20483,17.295,-3.4018e-09,-0.10242,0,0,0.125,-0,-0,0.66667
0.14491,0.82087,1.1593,0.48131,40.044,366.69,-1.4879,0.49598,-1.1754,-1.9839,-2.537e-09,-0.58772,0,0,0.125,-0,-0,0.66667
0.51235,0.27029,4.0988,-0.34457,-21.526,141.69,3.7662,-1.2554,-1.5775,5.0216,-8.2756e-13,-0.78873,0,0,0.125,-0,-0,0.66667
0.56218,0.13851,4.4974,-0.54223,-31.496,117.31,6.5031,-2.1677,-0.95712,8.6708,-7.061e-13,-0.47856,0,0,0.125,-0,1.7299e-16,0.66667
0.0071911,0.63552,0.057529,0.20328,17.236,461.45,-0.031186,0.010395,-1.851,-0.041582,-1.2758e-07,-0.92549,0,0,0.125,-0,-0,0.66667
0.42885,0.29313,3.4308,-0.31031,-21.46,186.92,2.839,-0.94632,-1.6555,3.7853,1.9806e-13,-0.82774,0,0,0.125,-0,-0,0.66667
0.53374,0.97323,4.2699,0.70985,43.274,131.58,-8.0827,2.6942,-0.20939,-10.777,5.5955e-13,-0.10469,0,0,0.125,1.1842e-15,0,0.66667
0.69071,0.66443,5.5257,0.24665,10.878,62.227,-3.6344,1.2115,-1.7836,-4.8459,-5.7574e-12,-0.89179,0,0,0.125,-0,-0,0.66667
0.90317,0.71305,7.2254,0.31957,4.8727,7.619,-6.1574,2.0525,-1.6372,-8.2099,2.4112e-08,-0.81859,0,0,0.125,1.7764e-15,0,0.66667
0.068561,0.3189,0.54849,-0.27165,-22.934,418.95,0.39732,-0.13244,-1.7362,0.52976,1.7212e-08,-0.86809,0,0,0.125,1.4803e-16,0,0.66667
0.2831,0.42108,2.2648,-0.11838,-9.225,275.15,0.71496,-0.23832,-1.9509,0.95328,-5.6622e-12,-0.97545,0,0,0.125,-0,-0,0.66667
0.52793,0.72903,4.2235,0.34355,20.987,133.76,-3.8692,1.2897,-1.58,-5.159,5.1359e-13,-0.78998,0,0,0.125,-1.1842e-15,0,0.66667
0.29023,0.95158,2.3219,0.67737,52.86,271.06,-4.194,1.398,-0.36644,-5.5921,2.7476e-12,-0.18322,0,0,0.125,-0,-0,0.66667
0.42013,0.45016,3.3611,-0.074766,-5.2107,191.76,0.67011,-0.22337,-1.981,0.89348,-8.6503e-13,-0.99051,0,0,0.125,-0,-0,0.66667
0.98205,0.077172,7.8564,-0.63424,-1.8198,1.8266,13.288,-4.4292,-0.56999,17.717,1.0838e-06,-0.28499,0,0,0.125,-0,-0,0.66667
0.056933,0.4301,0.45547,-0.10486,-8.8588,426.98,0.12736,-0.042452,-1.9595,0.16981,-1.2485e-07,-0.97975,0,0,0.125,-0,-0,0.66667
0.92891,0.067207,7.4313,-0.64919,-7.5011,5.5656,12.865,-4.2883,-0.5001,17.153,3.741e-07,-0.25005,0,0,0.125,-0,-0,0.66667
0.66798,0.90439,5.3438,0.60659,28.544,71.564,-8.644,2.8813,-0.69206,-11.525,-1.2701e-13,-0.34603,0,0,0.125,-1.6283e-15,0,0.66667
0.49858,0.99958,3.9886,0.74937,48.049,149.63,-7.9705,2.6568,-0.0061792,-10.627,-4.3565e-13,-0.0030896,0,0,0.125,8.5117e-16,-7.8994e-18,0.66667
0.4647,0.30432,3.7176,-0.29352,-19.493,166.92,2.9098,-0.96994,-1.693,3.8797,9.7677e-13,-0.84648,0,0,0.125,-2.9606e-16,0,0.66667
0.55893,0.45056,4.4715,-0.074165,-4.3088,118.29,0.88434,-0.29478,-1.9797,1.1791,3.9502e-13,-0.98986,0,0,0.125,-0,-0,0.66667
0.29159,0.22546,2.3327,-0.41181,-31.986,269.9,2.5617,-0.85389,-1.3958,3.4156,-8.8343e-12,-0.69791,0,0,0.125,5.9212e-16,0,0.66667
0.1718,0.26951,1.3744,-0.34574,-28.473,348.44,1.2672,-0.42239,-1.5779,1.6895,1.1249e-09,-0.78895,0,0,0.125,-0,-0,0.66667
0.61974,0.038283,4.9579,-0.69258,-36.341,91.566,9.1566,-3.0522,-0.29331,12.209,-2.168e-12,-0.14665,0,0,0.125,1.1842e-15,0,0.66667
0.98848,0.44304,7.9078,-0.085442,-0.11787,0.2465,1.8018,-0.60059,-1.9736,2.4024,-2.0982e-07,-0.98681,0,0,0.125,-0,-0,0.66667
0.51622,0.018567,4.1298,-0.72215,-45.171,140.45,7.9528,-2.6509,-0.14798,10.604,1.8767e-12,-0.073991,0,0,0.125,-1.1842e-15,0,0.66667
0.67101,0.84887,5.3681,0.5233,24.392,70.168,-7.491,2.497,-1.0289,-9.988,-1.8296e-12,-0.51446,0,0,0.125,-0,-1.8461e-16,0.66667
0.51953,0.52528,4.1563,0.03792,2.3404,137.8,-0.42028,0.14009,-1.9945,-0.56037,1.091e-12,-0.99727,0,0,0.125,-0,-0,0.66667
0.20003,0.51937,1.6002,0.029061,2.3637,329.44,-0.12401,0.041337,-1.9967,-0.16535,-3.191e-11,-0.99834,0,0,0.125,-5.9212e-16,0,0.66667
0.5787,0.99398,4.6296,0.74097,42.044,110.06,-9.1477,3.0492,-0.050664,-12.197,-3.2507e-13,-0.025332,0,0,0.125,2.9606e-16,0,0.66667
0.95788,0.89281,7.663,0.58922,4.0148,2.8539,-12.04,4.0135,-0.76412,-16.054,2.3292e-06,-0.38206,0,0,0.125,-0,-0,0.66667
0.69242,0.21137,5.5394,-0.43295,-19.063,61.908,6.3954,-2.1318,-1.3324,8.5271,4.6922e-12,-0.66621,0,0,0.125,5.9212e-16,0,0.66667
0.027337,0.20901,0.2187,-0.43649,-37.051,447.5,0.25455,-0.084852,-1.3218,0.3394,-7.7651e-07,-0.66092,0,0,0.125,-3.7007e-17,0,0.66667
0.36312,0.53918,2.905,0.058775,4.3201,225.34,-0.4553,0.15177,-1.9872,-0.60707,2.4745e-12,-0.99362,0,0,0.125,-0,-0,0.66667
0.63389,0.62693,5.0711,0.19039,9.6148,84.568,-2.5747,0.85822,-1.8702,-3.4329,-1.3374e-12,-0.93511,0,0,0.125,-0,-0,0.66667
0.56707,0.87729,4.5366,0.56594,32.622,115.04,-6.8465,2.2822,-0.86103,-9.1287,5.52e-13,-0.43051,0,0,0.125,-0,-0,0.66667
0.12133,0.2166,0.97067,-0.4251,-35.573,382.72,1.1004,-0.36679,-1.3579,1.4671,7.8189e-09,-0.67895,0,0,0.125,1.4803e-16,0,0.66667
0.93647,0.038718,7.4918,-0.69192,-7.2034,5.0107,13.823,-4.6078,-0.29985,18.431,2.3627e-06,-0.14992,0,0,0.125,-0,-1.0769e-16,0.66667
0.39384,0.036604,3.1507,-0.69509,-50.057,207.7,5.8401,-1.9467,-0.28235,7.7868,3.0145e-12,-0.14117,0,0,0.125,-0,-0,0.66667
0.72926,0.50845,5.8341,0.01267,0.49877,48.592,-0.19711,0.065703,-1.9981,-0.26281,-6.5004e-13,-0.99905,0,0,0.125,-0,-0,0.66667
0.78569,0.071463,6.2855,-0.64281,-20.892,32.698,10.774,-3.5914,-0.52983,14.366,-2.2137e-11,-0.26491,0,0,0.125,2.3685e-15,0,0.66667
0.21299,0.19504,1.7039,-0.45744,-37.096,320.98,2.0785,-0.69285,-1.2545,2.7714,1.1862e-10,-0.62725,0,0,0.125,-0,-0,0.66667
0.66262,0.018374,5.301,-0.72244,-34.55,74.018,10.212,-3.4041,-0.14221,13.617,-3.1086e-14,-0.071106,0,0,0.125,-0,-0,0.66667
0.52337,0.35384,4.1869,-0.21923,-13.467,135.94,2.4478,-0.81593,-1.827,3.2637,-8.713e-13,-0.91351,0,0,0.125,-0,-0,0.66667
0.1783,0.75623,1.4264,0.38435,31.59,344.09,-1.4619,0.48732,-1.4732,-1.9493,-7.2048e-10,-0.73661,0,0,0.125,5.9212e-16,0,0.66667
0.71844,0.8444,5.7475,0.5166,21.171,52.912,-7.9179,2.6393,-1.0552,-10.557,-1.4304e-11,-0.52758,0,0,0.125,-0,1.5402e-16,0.66667
0.54058,0.53153,4.3246,0.047298,2.8292,127.24,-0.54545,0.18182,-1.9916,-0.72727,-2.7787e-12,-0.99579,0,0,0.125,2.3685e-15,0,0.66667
0.21409,0.65289,1.7128,0.22933,18.551,320.14,-1.0474,0.34915,-1.8126,-1.3966,-1.0244e-10,-0.9063,0,0,0.125,7.4015e-17,0,0.66667
0.41806,0.52392,3.3445,0.035881,2.5058,192.94,-0.32001,0.10667,-1.995,-0.42668,-2.7592e-13,-0.99748,0,0,0.125,-0,-0,0.66667
0.68076,0.60811,5.4461,0.16216,7.3347,65.851,-2.3551,0.78503,-1.9043,-3.1401,-3.7865e-12,-0.95215,0,0,0.125,-0,-0,0.66667
0.99376,0.70561,7.9501,0.30842,0.17785,0.43333,-6.5385,2.1795,-1.6597,-8.718,3.0849e-07,-0.82987,0,0,0.125,-1.1842e-15,0,0.66667
0.54844,0.24087,4.3875,-0.38869,-23.026,123.66,4.5476,-1.5159,-1.4642,6.0635,1.279e-13,-0.73208,0,0,0.125,-5.9212e-16,0,0.66667
0.79392,0.92846,6.3514,0.64269,20.175,30.502,-10.885,3.6284,-0.5314,-14.514,9.5923e-14,-0.2657,0,0,0.125,-0,-1.3414e-16,0.66667
0.33058,0.39259,2.6446,-0.16111,-12.156,245.27,1.1362,-0.37874,-1.9079,1.515,-1.6118e-12,-0.95394,0,0,0.125,-5.9212e-16,0,0.66667
0.51156,0.74819,4.0925,0.37228,23.291,142.14,-4.0628,1.3543,-1.5074,-5.4171,-8.8818e-16,-0.75372,0,0,0.125,6.6613e-16,0,0.66667
0.83503,0.060414,6.6802,-0.65938,-16.947,20.719,11.746,-3.9154,-0.45316,15.661,9.1405e-09,-0.22658,0,0,0.125,-1.5291e-15,0,0.66667
0.97046,0.96762,7.7637,0.70143,3.433,2.6224,-14.522,4.8406,-0.25302,-19.362,-2.8743e-05,-0.12651,0,0,0.125,1.4803e-16,0,0.66667
0.17847,0.99939,1.4278,0.74909,61.885,344.23,-2.8521,0.95069,-0.0042612,-3.8028,-1.2224e-10,-0.0021306,0,0,0.125,4.3484e-16,0,0.66667
0.85131,0.80829,6.8105,0.46244,10.696,16.678,-8.3985,2.7995,-1.2382,-11.198,3.6148e-09,-0.61912,0,0,0.125,-1.2723e-15,0,0.66667
0.9884,0.29136,7.9072,-0.31297,-0.46537,0.56722,6.5991,-2.1997,-1.6509,8.7988,-1.4015e-07,-0.82544,0,0,0.125,-0,-0,0.66667
0.45046,0.0052165,3.6037,-0.74218,-50.472,175.51,7.1322,-2.3774,-0.04223,9.5096,2.9798e-13,-0.021115,0,0,0.125,-0,-0,0.66667
0.30796,0.75736,2.4637,0.38604,29.652,259.53,-2.5362,0.8454,-1.4692,-3.3816,3.8951e-12,-0.73461,0,0,0.125,5.9212e-16,0,0.66667
0.91246,0.27683,7.2997,-0.33475,-4.626,6.4345,6.5162,-2.1721,-1.6004,8.6883,-2.8887e-08,-0.80018,0,0,0.125,-1.1842e-15,0,0.66667
0.21986,0.012547,1.7589,-0.73118,-59.357,316.7,3.4294,-1.1431,-0.10071,4.5726,7.5355e-11,-0.050356,0,0,0.125,-0,-0,0.66667
0.98826,0.78533,7.9061,0.42799,0.68385,0.87028,-9.0233,3.0078,-1.3487,-12.031,1.7146e-07,-0.67433,0,0,0.125,-0,-0,0.66667
0.40154,0.51792,3.2123,0.026887,1.9088,202.51,-0.23032,0.076775,-1.996,-0.3071,6.8302e-13,-0.99799,0,0,0.125,-0,-0,0.66667
0.092234,0.92904,0.73787,0.64356,54.351,402.75,-1.2663,0.4221,-0.52884,-1.6884,-2.9072e-07,-0.26442,0,0,0.125,7.4015e-17,-1.169e-16,0.66667
0.13677,0.28011,1.0942,-0.32983,-27.464,372.16,0.9624,-0.3208,-1.6137,1.2832,5.8495e-09,-0.80685,0,0,0.125,1.2953e-16,0,0.66667
0.47707,0.18478,3.8166,-0.47283,-30.999,160.44,4.8123,-1.6041,-1.204,6.4164,-5.7954e-13,-0.60198,0,0,0.125,1.4803e-16,0,0.66667
0.060948,0.26878,0.48758,-0.34683,-29.327,424.22,0.45095,-0.15032,-1.5734,0.60127,2.0408e-08,-0.78671,0,0,0.125,-0,-0,0.66667
0.25189,0.04275,2.0151,-0.68588,-54.749,295.69,3.6856,-1.2285,-0.32819,4.9141,-1.9049e-12,-0.16409,0,0,0.125,-0,-0,0.66667
0.795,0.45099,6.36,-0.073516,-2.2659,29.067,1.2468,-0.41561,-1.9815,1.6624,-8.6841e-11,-0.99076,0,0,0.125,-0,-0,0.66667
0.78533,0.226,6.2827,-0.411,-13.274,32.112,6.8858,-2.2953,-1.3988,9.181,-3.3125e-12,-0.69938,0,0,0.125,-0,-0,0.66667
0.81082,0.44991,6.4866,-0.075141,-2.1532,25.052,1.2997,-0.43325,-1.9809,1.733,-1.4124e-10,-0.99045,0,0,0.125,1.1842e-15,0,0.66667
0.046263,0.14681,0.3701,-0.52978,-44.956,434.41,0.52286,-0.17429,-1.0045,0.69714,4.6973e-07,-0.50223,0,0,0.125,7.4015e-17,1.9693e-16,0.66667
0.76645,0.18365,6.1316,-0.47452,-16.539,37.598,7.7589,-2.5863,-1.2022,10.345,4.4711e-11,-0.60111,0,0,0.125,-1.7764e-15,0,0.66667
0.80685,0.25212,6.4548,-0.37181,-10.909,26.415,6.3999,-2.1333,-1.5078,8.5332,-2.8684e-10,-0.75392,0,0,0.125,-0,-0,0.66667
0.01605,0.0094212,0.1284,-0.73587,-62.762,455.34,0.25189,-0.083975,-0.077336,0.33585,-1.8102e-05,-0.038668,0,0,0.125,7.4015e-17,0,0.66667
0.39133,0.044415,3.1306,-0.68338,-49.317,209.15,5.7051,-1.9017,-0.34159,7.6068,1.0756e-12,-0.17079,0,0,0.125,-0,-0,0.66667
0.86558,0.98975,6.9246,0.73463,15.703,14.967,-13.565,4.5218,-0.079245,-18.087,9.7873e-09,-0.039623,0,0,0.125,1.1842e-15,0,0.66667
0.95847,0.019304,7.6678,-0.72104,-4.9721,3.4032,14.744,-4.9145,-0.14977,19.658,-1.0684e-05,-0.074883,0,0,0.125,-0,-0,0.66667
0.91959,0.75894,7.3567,0.38841,4.95,5.7,-7.6198,2.5399,-1.4642,-10.16,4.3505e-08,-0.73211,0,0,0.125,-2.3685e-15,0,0.66667
0.54699,0.71422,4.3759,0.32134,19.063,124.28,-3.7497,1.2499,-1.6365,-4.9996,3.042e-13,-0.81824,0,0,0.125,-2.9606e-16,0,0.66667
0.30992,0.40668,2.4794,-0.13998,-10.719,258.15,0.9255,-0.3085,-1.932,1.234,-5.3527e-12,-0.96599,0,0,0.125,1.1842e-15,0,0.66667
0.58926,0.18277,4.7141,-0.47585,-26.34,104.53,5.9819,-1.994,-1.1944,7.9759,8.3267e-13,-0.59718,0,0,0.125,-0,-0,0.66667
0.59599,0.35697,4.7679,-0.21455,-11.69,101.1,2.7279,-0.90929,-1.8367,3.6372,-9.9698e-14,-0.91836,0,0,0.125,-1.1842e-15,0,0.66667
0.66455,0.17444,5.3164,-0.48834,-23.104,72.593,6.9232,-2.3077,-1.1499,9.2309,1.9855e-12,-0.57493,0,0,0.125,-7.8699e-16,0,0.66667
0.59082,0.61068,4.7265,0.16602,9.1297,103.41,-2.0925,0.69751,-1.9017,-2.79,6.6613e-16,-0.95087,0,0,0.125,-1.1842e-15,0,0.66667
0.86806,0.053434,6.9444,-0.66985,-14.01,14.242,12.405,-4.1349,-0.40269,16.539,2.528e-08,-0.20135,0,0,0.125,-1.1842e-15,0,0.66667
0.37398,0.44872,2.9918,-0.076926,-5.6018,218.81,0.61373,-0.20458,-1.9807,0.81831,-8.8196e-13,-0.99036,0,0,0.125,-0,-0,0.66667
0.24402,0.73298,1.9521,0.34947,27.886,300.51,-1.8192,0.60641,-1.5638,-2.4256,8.3529e-12,-0.78188,0,0,0.125,-0,-0,0.66667
0.020487,0.25432,0.16389,-0.36852,-31.271,452.24,0.16106,-0.053688,-1.5165,0.21475,-3.5044e-07,-0.75823,0,0,0.125,-0,-0,0.66667
0.23269,0.16672,1.8615,-0.49991,-40.188,308.03,2.4816,-0.82719,-1.1125,3.3088,2.6117e-11,-0.55625,0,0,0.125,5.9212e-16,0,0.66667
0.1616,0.25634,1.2928,-0.36549,-30.212,355.33,1.26,-0.42001,-1.5238,1.6801,1.7411e-09,-0.76192,0,0,0.125,-0,-0,0.66667
0.23816,0.78434,1.9053,0.42651,34.163,304.39,-2.167,0.72233,-1.3534,-2.8893,1.212e-11,-0.6767,0,0,0.125,-0,-0,0.66667
0.88096,0.085815,7.0477,-0.62128,-11.757,11.847,11.676,-3.8921,-0.62601,15.568,-7.4549e-09,-0.313,0,0,0.125,-5.9212e-16,0,0.66667
0.7316,0.53757,5.8528,0.05635,2.2021,47.829,-0.87948,0.29316,-1.9892,-1.1726,-4.2913e-12,-0.99459,0,0,0.125,-0,-0,0.66667
0.24339,0.12656,1.9471,-0.56017,-44.825,301.08,2.9086,-0.96952,-0.88351,3.8781,7.0305e-11,-0.44176,0,0,0.125,-5.9212e-16,0,0.66667
0.79305,0.58087,6.3444,0.12131,3.7722,29.606,-2.0524,0.68412,-1.9468,-2.7365,8.6646e-11,-0.97339,0,0,0.125,-0,-0,0.66667
0.54412,0.8354,4.353,0.5031,30.059,125.97,-5.8399,1.9466,-1.1003,-7.7866,3.6549e-13,-0.55016,0,0,0.125,-0,-0,0.66667
0.40649,0.91017,3.2519,0.61526,43.709,200.17,-5.3353,1.7784,-0.65763,-7.1138,8.0647e-13,-0.32882,0,0,0.125,1.1842e-15,0,0.66667
0.2058,0.52327,1.6464,0.034898,2.8315,325.6,-0.15322,0.051073,-1.996,-0.20429,-2.1871e-11,-0.99801,0,0,0.125,-0,-0,0.66667
0.31073,0.31513,2.4859,-0.27731,-21.239,257.71,1.8383,-0.61276,-1.7286,2.451,1.7986e-13,-0.86429,0,0,0.125,-1.1842e-15,0,0.66667
0.079247,0.64631,0.63397,0.21946,18.493,411.57,-0.37102,0.12367,-1.8305,-0.4947,-1.4511e-08,-0.91525,0,0,0.125,-7.4015e-17,0,0.66667
0.23362,0.88911,1.869,0.58366,46.953,307.49,-2.9089,0.96965,-0.79073,-3.8786,3.474e-11,-0.39536,0,0,0.125,-0,-0,0.66667
0.66575,0.39219,5.326,-0.16172,-7.5934,71.621,2.2968,-0.7656,-1.905,3.0624,1.2068e-12,-0.95248,0,0,0.125,3.9583e-16,0,0.66667
0.35102,0.56818,2.8082,0.10227,7.5929,232.69,-0.76581,0.25527,-1.9612,-1.0211,-8.1452e-13,-0.98061,0,0,0.125,-0,-0,0.66667
0.81972,0.0065887,6.5578,-0.74012,-20.708,24.494,12.943,-4.3142,-0.050658,17.257,4.5308e-11,-0.025329,0,0,0.125,-0,-0,0.66667
0.66115,0.79381,5.2892,0.44072,21,73.825,-6.2161,2.072,-1.3079,-8.2882,-3.1988e-12,-0.65394,0,0,0.125,1.1842e-15,0,0.66667
0.62435,0.5208,4.9948,0.031199,1.6063,88.53,-0.41555,0.13852,-1.9988,-0.55407,-1.4626e-12,-0.9994,0,0,0.125,-0,-0,0.66667
0.42028,0.53119,3.3622,0.046788,3.2602,191.67,-0.4195,0.13983,-1.9949,-0.55933,-9.9248e-13,-0.99745,0,0,0.125,-3.0069e-16,0,0.66667
0.645,0.33561,5.16,-0.24658,-12.16,80.014,3.393,-1.131,-1.7829,4.524,5.0493e-13,-0.89145,0,0,0.125,-0,-0,0.66667
0.87483,0.76858,6.9986,0.40287,7.9004,12.173,-7.5188,2.5063,-1.4257,-10.025,8.5948e-09,-0.71283,0,0,0.125,1.1842e-15,0,0.66667
0.31127,0.97505,2.4902,0.71258,54.875,257.85,-4.7319,1.5773,-0.19661,-6.3091,-1.7852e-13,-0.098307,0,0,0.125,-0,-0,0.66667
0.34275,0.71128,2.742,0.31692,23.715,237.86,-2.3174,0.77245,-1.645,-3.0898,1.2332e-12,-0.8225,0,0,0.125,-0,-0,0.66667
0.84868,0.79629,6.7894,0.44443,10.441,17.154,-8.0465,2.6822,-1.2961,-10.729,2.7534e-09,-0.64806,0,0,0.125,1.1842e-15,0,0.66667
0.52989,0.1128,4.2392,-0.5808,-35.51,133.19,6.5656,-2.1885,-0.80193,8.7542,1.2803e-12,-0.40096,0,0,0.125,-0,-0,0.66667
0.92369,0.83095,7.3895,0.49643,6.056,5.5486,-9.7823,3.2608,-1.1246,-13.043,9.0171e-08,-0.56229,0,0,0.125,-0,-0,0.66667
0.18755,0.012216,1.5004,-0.73168,-60.219,338.14,2.9275,-0.97584,-0.09945,3.9034,2.8881e-10,-0.049725,0,0,0.125,-0,-0,0.66667
0.21487,0.29796,1.719,-0.30305,-24.519,319.65,1.3892,-0.46306,-1.6725,1.8523,6.4293e-11,-0.83624,0,0,0.125,-0,-0,0.66667
0.86246,0.77279,6.8997,0.40918,8.7768,14.394,-7.5286,2.5095,-1.4047,-10.038,5.6114e-09,-0.70233,0,0,0.125,-5.9212e-16,0,0.66667
0.09949,0.38882,0.79592,-0.16676,-13.997,397.63,0.35395,-0.11798,-1.8992,0.47193,9.9035e-09,-0.9496,0,0,0.125,-0,-0,0.66667
0.47166,0.6585,3.7733,0.23775,15.65,163.08,-2.3922,0.79741,-1.8,-3.1896,7.3697e-13,-0.90001,0,0,0.125,-1.1842e-15,0,0.66667
0.8394,0.98559,6.7152,0.72838,18.337,20.068,-13.043,4.3478,-0.11238,-17.391,-1.2601e-10,-0.056189,0,0,0.125,2.3685e-15,0,0.66667
0.69374,0.010883,5.5499,-0.73368,-32.458,62.294,10.858,-3.6194,-0.084176,14.478,4.6008e-13,-0.042088,0,0,0.125,-2.3685e-15,0,0.66667
0.46224,0.52394,3.6979,0.035911,2.3888,168.13,-0.35413,0.11804,-1.9937,-0.47217,1.1939e-12,-0.99687,0,0,0.125,-5.9212e-16,0,0.66667
0.1652,0.88897,1.3216,0.58345,48.294,353.02,-2.0562,0.6854,-0.78747,-2.7416,-2.347e-09,-0.39374,0,0,0.125,-2.9606e-16,0,0.66667
0.55082,0.30946,4.4065,-0.28581,-16.847,122.37,3.3585,-1.1195,-1.7096,4.478,6.6036e-13,-0.85481,0,0,0.125,-0,-0,0.66667
0.98798,0.64704,7.9038,0.22056,0.33225,0.40534,-4.6487,1.5496,-1.8265,-6.1982,9.4129e-08,-0.91327,0,0,0.125,-0,-0,0.66667
0.80516,0.56896,6.4413,0.10344,3.0453,26.472,-1.7767,0.59224,-1.9603,-2.3689,2.612e-10,-0.98013,0,0,0.125,-0,-0,0.66667
0.054929,0.72349,0.43943,0.33524,28.364,428.38,-0.39284,0.13095,-1.5989,-0.52378,1.479e-08,-0.79947,0,0,0.125,-0,-0,0.66667
0.71093,0.90805,5.6874,0.61207,25.713,55.772,-9.283,3.0943,-0.667,-12.377,-3.1761e-12,-0.3335,0,0,0.125,2.3685e-15,0,0.66667
0.97662,0.88206,7.8129,0.57309,2.1212,1.7758,-11.94,3.98,-0.83046,-15.92,-3.9376e-06,-0.41523,0,0,0.125,-2.3685e-15,0,0.66667
0.19337,0.9309,1.547,0.64634,52.995,334.18,-2.6664,0.88879,-0.51321,-3.5552,2.6225e-10,-0.25661,0,0,0.125,-1.4803e-16,0,0.66667
0.95641,0.80361,7.6513,0.45541,3.1466,2.4777,-9.2919,3.0973,-1.2623,-12.389,1.2174e-07,-0.63117,0,0,0.125,1.1842e-15,0,0.66667
0.23335,0.53065,1.8668,0.045981,3.6834,307.4,-0.2289,0.076299,-1.9957,-0.30519,1.4668e-11,-0.99784,0,0,0.125,7.155e-17,0,0.66667
0.8194,0.5339,6.5552,0.050845,1.3961,22.98,-0.8888,0.29627,-1.9898,-1.1851,5.2013e-10,-0.99488,0,0,0.125,2.3685e-15,0,0.66667
0.14942,0.38342,1.1953,-0.17487,-14.493,363.52,0.55741,-0.1858,-1.8894,0.74322,2.4378e-09,-0.94471,0,0,0.125,-0,-0,0.66667
0.5141,0.23897,4.1128,-0.39154,-24.415,140.86,4.2943,-1.4314,-1.4561,5.7257,1.223e-12,-0.72807,0,0,0.125,-0,-0,0.66667
0.36401,0.67803,2.9121,0.26705,19.633,224.89,-2.0738,0.69127,-1.7453,-2.7651,-8.3622e-13,-0.87263,0,0,0.125,2.9606e-16,0,0.66667
0.67069,0.36763,5.3655,-0.19855,-9.2141,69.732,2.8409,-0.94697,-1.8617,3.7879,2.2848e-12,-0.93087,0,0,0.125,-5.9212e-16,0,0.66667
0.17912,0.55688,1.4329,0.085316,6.9976,343.45,-0.32601,0.10867,-1.9725,-0.43468,-2.0338e-10,-0.98627,0,0,0.125,-0,-0,0.66667
0.57975,0.60444,4.638,0.15665,8.7873,108.49,-1.9375,0.64583,-1.9139,-2.5833,2.9521e-13,-0.95694,0,0,0.125,-1.1842e-15,0,0.66667
0.0024237,0.43417,0.01939,-0.098743,-8.3694,464.76,0.0051055,-0.0017036,-1.9666,0.0068064,-2.7367e-06,-0.98328,0,0,0.125,3.4694e-18,0,0.66667
0.42565,0.52367,3.4052,0.03551,2.4605,188.59,-0.32245,0.10748,-1.9951,-0.42993,-2.0412e-12,-0.99753,0,0,0.125,-0,-0,0.66667
0.51579,0.38209,4.1263,-0.17687,-10.98,139.77,1.9462,-0.64874,-1.892,2.595,-2.5524e-13,-0.94598,0,0,0.125,-0,-0,0.66667
0.8378,0.85272,6.7024,0.52908,13.303,19.662,-9.4563,3.1521,-1.003,-12.608,7.333e-10,-0.5015,0,0,0.125,-0,-0,0.66667
0.75764,0.89539,6.0611,0.59309,21.429,40.554,-9.586,3.1953,-0.74719,-12.781,-3.0052e-11,-0.37359,0,0,0.125,-0,-0,0.66667
0.091892,0.55444,0.73513,0.081655,6.862,402.85,-0.16007,0.053358,-1.9774,-0.21343,7.7492e-09,-0.98871,0,0,0.125,7.4015e-17,0,0.66667
0.62503,0.90707,5.0003,0.61061,31.629,89.064,-8.1419,2.714,-0.67873,-10.856,-2.1796e-12,-0.33937,0,0,0.125,2.3685e-15,0,0.66667
0.66,0.063188,5.28,-0.65522,-31.466,74.832,9.2255,-3.0752,-0.47423,12.301,1.2781e-12,-0.23711,0,0,0.125,-0,-0,0.66667
0.73403,0.095351,5.8722,-0.60697,-23.766,47.987,9.5048,-3.1683,-0.6939,12.673,-5.2651e-12,-0.34695,0,0,0.125,-0,2.8779e-17,0.66667
0.55486,0.55218,4.4389,0.078266,4.5774,120.26,-0.92644,0.30881,-1.9761,-1.2353,-6.3866e-13,-0.98806,0,0,0.125,5.9212e-16,0,0.66667
0.10736,0.98554,0.85884,0.72831,61.409,392.42,-1.668,0.55601,-0.11456,-2.224,-1.5149e-07,-0.057282,0,0,0.125,2.9606e-16,0,0.66667
0.64035,0.87877,5.1228,0.56816,28.462,82.528,-7.7615,2.5872,-0.85577,-10.349,-1.0312e-12,-0.42788,0,0,0.125,-0,-0,0.66667
0.67053,0.61891,5.3642,0.17837,8.279,69.775,-2.5515,0.85048,-1.8888,-3.4019,-3.7754e-12,-0.94439,0,0,0.125,5.9212e-16,0,0.66667
0.25011,0.43582,2.0009,-0.096267,-7.6457,296.44,0.51364,-0.17121,-1.9712,0.68486,-1.2556e-11,-0.98559,0,0,0.125,-2.9606e-16,0,0.66667
0.94828,0.49218,7.5862,-0.011734,-0.094055,2.3816,0.23737,-0.079124,-1.9984,0.3165,1.9496e-07,-0.99919,0,0,0.125,-5.9212e-16,0,0.66667
0.45265,0.40322,3.6212,-0.14518,-9.7685,173.44,1.4019,-0.4673,-1.9285,1.8692,-6.9278e-13,-0.96423,0,0,0.125,7.4015e-16,0,0.66667
0.86672,0.87647,6.9337,0.5647,11.847,14.082,-10.441,3.4804,-0.86531,-13.922,-4.5295e-09,-0.43265,0,0,0.125,-0,-0,0.66667
0.65308,0.72567,5.2246,0.3385,16.408,76.858,-4.7161,1.572,-1.5927,-6.2882,-5.3166e-12,-0.79633,0,0,0.125,2.3685e-15,0,0.66667
0.61654,0.038218,4.9323,-0.69267,-36.581,92.949,9.1105,-3.0368,-0.29232,12.147,-1.8661e-12,-0.14616,0,0,0.125,-0,-0,0.66667
0.5494,0.91583,4.3952,0.62375,37.048,123.66,-7.3107,2.4369,-0.617,-9.7476,9.801e-13,-0.3085,0,0,0.125,1.1842e-15,0,0.66667
0.64757,0.21319,5.1805,-0.43022,-21.149,79.252,5.9434,-1.9811,-1.3404,7.9245,1.3203e-12,-0.67019,0,0,0.125,-1.4803e-15,0,0.66667
0.84434,0.22515,6.7547,-0.41228,-9.9325,17.958,7.4261,-2.4754,-1.3984,9.9015,-1.9602e-09,-0.6992,0,0,0.125,2.3685e-15,0,0.66667
0.77688,0.73211,6.215,0.34816,11.619,34.321,-5.7702,1.9234,-1.5677,-7.6936,2.0651e-11,-0.78387,0,0,0.125,-0,-0,0.66667
0.67263,0.83184,5.381,0.49777,23.096,69.482,-7.1426,2.3809,-1.1211,-9.5235,-1.7786e-12,-0.56054,0,0,0.125,-1.1842e-15,0,0.66667
0.031845,0.21756,0.25476,-0.42366,-35.947,444.37,0.28782,-0.09594,-1.3654,0.38376,-4.0802e-07,-0.68272,0,0,0.125,1.3878e-17,0,0.66667
0.0086948,0.86808,0.069558,0.55212,46.964,460.42,-0.10241,0.034136,-0.91441,-0.13655,-2.1376e-06,-0.4572,0,0,0.125,-0,-0,0.66667
0.35854,0.070706,2.8683,-0.64394,-47.787,228.64,4.9254,-1.6418,-0.52788,6.5672,-2.1796e-12,-0.26394,0,0,0.125,-0,-0,0.66667
0.030634,0.46881,0.24507,-0.046782,-3.9611,445.19,0.030573,-0.01019,-1.996,0.040765,1.2976e-06,-0.99801,0,0,0.125,-0,-0,0.66667
0.51785,0.3809,4.1428,-0.17865,-11.058,138.72,1.9736,-0.65787,-1.8875,2.6315,-3.6149e-13,-0.94377,0,0,0.125,-0,-0,0.66667
0.0035539,0.40624,0.028431,-0.14064,-11.922,463.98,0.010663,-0.0035539,-1.9306,0.014217,6.7691e-07,-0.96531,0,0,0.125,5.8362e-18,0,0.66667
0.48073,0.65258,3.8458,0.22887,14.896,158.19,-2.3472,0.78241,-1.8139,-3.1297,-2.1843e-12,-0.90696,0,0,0.125,-0,-0,0.66667
0.37761,0.94904,3.0209,0.67356,49.205,217.25,-5.4259,1.8086,-0.38704,-7.2346,7.3985e-13,-0.19352,0,0,0.125,-5.9212e-16,0,0.66667
0.95746,0.5817,7.6597,0.12255,0.80117,1.7508,-2.5033,0.83442,-1.9454,-3.3377,1.0558e-09,-0.97271,0,0,0.125,-0,-0,0.66667
0.055854,0.24063,0.44683,-0.38906,-32.93,427.75,0.46358,-0.15453,-1.4599,0.6181,1.403e-08,-0.72995,0,0,0.125,-7.4015e-17,0,0.66667
0.065191,0.52445,0.52153,0.03667,3.0945,421.26,-0.050998,0.016999,-1.9957,-0.067998,-2.5907e-08,-0.99785,0,0,0.125,-0,-0,0.66667
0.84927,0.61228,6.7941,0.16841,3.9126,16.525,-3.0513,1.0171,-1.8974,-4.0683,2.4811e-09,-0.94868,0,0,0.125,1.1842e-15,0,0.66667
0.79526,0.36054,6.3621,-0.2092,-6.449,29.108,3.5491,-1.183,-1.8454,4.7322,-1.5919e-10,-0.92269,0,0,0.125,-0,-0,0.66667
0.93585,0.3409,7.4868,-0.23865,-2.404,3.6662,4.7646,-1.5882,-1.7996,6.3528,2.101e-09,-0.89979,0,0,0.125,-2.9606e-16,0,0.66667
0.078237,0.9913,0.62589,0.73695,62.487,412.41,-1.23,0.41,-0.072058,-1.64,-1.8364e-07,-0.036029,0,0,0.125,-0,-0,0.66667
0.6201,0.32638,4.9608,-0.26043,-13.544,90.504,3.4451,-1.1484,-1.7573,4.5935,-1.3054e-12,-0.87865,0,0,0.125,-0,-0,0.66667
0.5144,0.72858,4.1152,0.34286,21.357,140.64,-3.7626,1.2542,-1.5837,-5.0168,-4.3721e-13,-0.79183,0,0,0.125,1.1842e-15,0,0.66667
0.32157,0.92545,2.5726,0.63817,48.723,251.3,-4.378,1.4593,-0.54986,-5.8374,-9.5834e-13,-0.27493,0,0,0.125,2.9606e-16,0,0.66667
0.61081,0.55516,4.8865,0.082735,4.3783,94.413,-1.0781,0.35936,-1.9773,-1.4375,-8.7652e-13,-0.98865,0,0,0.125,-5.9212e-16,0,0.66667
0.91808,0.6612,7.3446,0.2418,3.1158,5.5758,-4.7358,1.5786,-1.792,-6.3145,2.0513e-08,-0.89599,0,0,0.125,-0,-0,0.66667
0.062566,0.96324,0.50052,0.69486,59.006,423.19,-0.92746,0.30916,-0.28678,-1.2366,3.8681e-06,-0.14339,0,0,0.125,7.4015e-17,0,0.66667
0.65973,0.050748,5.2778,-0.67388,-32.4,74.999,9.4843,-3.1614,-0.38479,12.646,1.2692e-12,-0.19239,0,0,0.125,-5.9212e-16,0,0.66667
0.28517,0.9244,2.2814,0.63661,49.802,274.22,-3.8729,1.291,-0.55808,-5.1639,1.0876e-12,-0.27904,0,0,0.125,2.9606e-16,0,0.66667
0.40545,0.76995,3.2436,0.40493,28.706,200.47,-3.5024,1.1675,-1.419,-4.6699,5.1426e-13,-0.70952,0,0,0.125,5.9212e-16,0,0.66667
0.84969,0.68059,6.7976,0.27088,6.2891,16.575,-4.9103,1.6368,-1.7376,-6.547,3.0886e-09,-0.86881,0,0,0.125,-0,-0,0.66667
0.12173,0.018045,0.97384,-0.72293,-60.746,382.6,1.8774,-0.62579,-0.14125,2.5032,-6.9224e-08,-0.070624,0,0,0.125,-0,1.4448e-16,0.66667
0.84297,0.3251,6.7438,-0.26235,-6.3446,17.938,4.718,-1.5727,-1.7573,6.2907,-2.3292e-09,-0.87863,0,0,0.125,-0,-0,0.66667
0.40424,0.59201,3.2339,0.13801,9.7748,200.96,-1.1902,0.39673,-1.9342,-1.5869,1.8017e-12,-0.9671,0,0,0.125,-8.8818e-16,0,0.66667
0.98389,0.60256,7.8711,0.15384,0.33366,0.44168,-3.229,1.0763,-1.9185,-4.3053,-3.5059e-08,-0.95923,0,0,0.125,-0,-0,0.66667
0.91802,0.68206,7.3441,0.27309,3.5262,5.6357,-5.3483,1.7828,-1.7346,-7.131,2.4365e-08,-0.86729,0,0,0.125,-1.7764e-15,0,0.66667
0.40767,0.91421,3.2614,0.62132,44.094,199.5,-5.4036,1.8012,-0.62901,-7.2049,-5.6666e-13,-0.31451,0,0,0.125,-0,-0,0.66667
0.29792,0.17841,2.3834,-0.48238,-37.345,265.95,3.0659,-1.022,-1.1745,4.0878,-5.6617e-12,-0.58727,0,0,0.125,-2.9606e-16,0,0.66667
0.22095,0.13257,1.7676,-0.55114,-44.587,315.8,2.5978,-0.86594,-0.92082,3.4638,3.8956e-11,-0.46041,0,0,0.125,-0,-0,0.66667
0.21774,0.65951,1.7419,0.23926,19.324,317.73,-1.1114,0.37046,-1.7992,-1.4819,-7.9835e-11,-0.89958,0,0,0.125,5.9212e-16,0,0.66667
0.76874,0.63348,6.1499,0.20022,6.8802,36.426,-3.2836,1.0945,-1.8574,-4.3781,1.9814e-11,-0.9287,0,0,0.125,-2.3685e-15,0,0.66667
0.75544,0.15447,6.0435,-0.51829,-18.829,40.994,8.3528,-2.7843,-1.0444,11.137,6.1785e-11,-0.5222,0,0,0.125,1.7764e-15,0,0.66667
0.97825,0.53983,7.826,0.059749,0.18471,0.5794,-1.2469,0.41564,-1.9856,-1.6626,5.7554e-07,-0.9928,0,0,0.125,-0,-0,0.66667
0.08331,0.51249,0.66648,0.01873,1.5762,408.76,-0.033288,0.011096,-1.9971,-0.044383,2.9452e-08,-0.99855,0,0,0.125,2.9606e-16,0,0.66667
0.22018,0.77882,1.7615,0.41823,33.79,316.2,-1.9645,0.65484,-1.3805,-2.6194,-1.1507e-11,-0.69023,0,0,0.125,3.7007e-16,0,0.66667
0.98371,0.51229,7.8697,0.018433,0.040077,0.36596,-0.38684,0.12895,-2.0009,-0.51578,4.3943e-06,-1.0005,0,0,0.125,-0,-0,0.66667
0.54637,0.6823,4.371,0.27346,16.231,124.52,-3.1874,1.0625,-1.7371,-4.2499,9.3259e-15,-0.86857,0,0,0.125,-2.686e-16,0,0.66667
0.55367,0.87998,4.4294,0.56998,33.587,121.46,-6.7323,2.2441,-0.84347,-8.9765,1.3083e-12,-0.42174,0,0,0.125,-1.1842e-15,0,0.66667
0.34877,0.58031,2.7902,0.12047,8.9611,234.07,-0.89635,0.29878,-1.9468,-1.1951,-4.2433e-13,-0.9734,0,0,0.125,-0,-0,0.66667
0.70379,0.51064,5.6303,0.015955,0.67781,57.342,-0.23955,0.07985,-2.0013,-0.3194,-1.1348e-12,-1.0007,0,0,0.125,-0,-0,0.66667
0.49976,0.33378,3.9981,-0.24933,-15.833,148.12,2.6583,-0.8861,-1.7818,3.5444,-6.7768e-13,-0.89089,0,0,0.125,5.9212e-16,0,0.66667
0.46949,0.67239,3.7559,0.25858,17.069,164.28,-2.5899,0.86331,-1.7642,-3.4533,7.6827e-14,-0.88211,0,0,0.125,-0,-0,0.66667
0.54977,0.23752,4.3982,-0.39371,-23.276,123.02,4.6177,-1.5392,-1.4487,6.1569,-9.6279e-13,-0.72434,0,0,0.125,-0,-0,0.66667
0.02518,0.33842,0.20144,-0.24237,-20.543,448.98,0.1302,-0.0434,-1.7898,0.1736,-1.1609e-07,-0.89491,0,0,0.125,-5.5511e-17,0,0.66667
0.53126,0.33415,4.2501,-0.24877,-15.108,131.99,2.8195,-0.93984,-1.7831,3.7593,7.6161e-14,-0.89155,0,0,0.125,-5.9212e-16,0,0.66667
0.13296,0.9488,1.0637,0.67321,56.355,374.92,-1.9096,0.63653,-0.38643,-2.5461,2.5442e-08,-0.19321,0,0,0.125,-0,-0,0.66667
0.45893,0.75295,3.6714,0.37943,25.394,170.18,-3.7148,1.2383,-1.4873,-4.953,-2.315e-12,-0.74364,0,0,0.125,-0,-0,0.66667
0.082271,0.356,0.65817,-0.21601,-18.192,409.49,0.37912,-0.12637,-1.833,0.50549,1.4898e-08,-0.91651,0,0,0.125,-0,-0,0.66667
0.88896,0.7388,7.1117,0.35819,6.2498,9.7694,-6.793,2.2643,-1.5449,-9.0573,1.6057e-08,-0.77244,0,0,0.125,1.1842e-15,0,0.66667
0.37843,0.63,3.0274,0.19501,14.151,216.2,-1.5743,0.52477,-1.8649,-2.0991,-3.6182e-13,-0.93246,0,0,0.125,-0,-0,0.66667
0.43035,0.13911,3.4428,-0.54134,-37.487,186.36,4.97,-1.6567,-0.95581,6.6266,-2.0322e-12,-0.4779,0,0,0.125,5.9212e-16,0,0.66667
0.74206,0.6167,5.9365,0.17505,6.6156,44.518,-2.7711,0.92371,-1.8891,-3.6949,-9.6756e-12,-0.94456,0,0,0.125,-5.9212e-16,0,0.66667
0.15577,0.78972,1.2462,0.43458,36.016,359.3,-1.4442,0.48139,-1.3312,-1.9256,-1.9048e-09,-0.66558,0,0,0.125,-0,-0,0.66667
0.57502,0.93349,4.6002,0.65024,37.046,111.51,-7.9766,2.6589,-0.49721,-10.635,-3.2907e-13,-0.24861,0,0,0.125,-2.9606e-16,0,0.66667
0.51105,0.038345,4.0884,-0.69248,-43.599,143.02,7.5497,-2.5166,-0.29409,10.066,1.0068e-12,-0.14705,0,0,0.125,-0,-0,0.66667
0.3683,0.76622,2.9464,0.39933,29.287,222.42,-3.1376,1.0459,-1.4308,-4.1834,-2.0894e-13,-0.71541,0,0,0.125,-1.0283e-15,0,0.66667
0.68334,0.18924,5.4667,-0.46614,-21.037,65.346,6.7953,-2.2651,-1.2276,9.0604,2.4825e-12,-0.6138,0,0,0.125,-0,-0,0.66667
0.79449,0.57925,6.3559,0.11887,3.6734,29.227,-2.0148,0.6716,-1.95,-2.6864,9.3396e-11,-0.97498,0,0,0.125,1.1842e-15,0,0.66667
0.46768,0.60175,3.7415,0.15263,10.09,165.19,-1.5228,0.50761,-1.9192,-2.0304,-4.6363e-13,-0.95958,0,0,0.125,-0,-0,0.66667
0.62735,0.076552,5.0188,-0.63517,-32.765,88.147,8.5008,-2.8336,-0.56579,11.334,-7.4873e-13,-0.28289,0,0,0.125,-0,-0,0.66667
0.91254,0.74859,7.3003,0.37289,5.1588,6.5121,-7.2592,2.4197,-1.5049,-9.679,3.1685e-08,-0.75246,0,0,0.125,1.3323e-15,0,0.66667
0.45697,0.46272,3.6558,-0.05592,-3.7429,171.03,0.54515,-0.18172,-1.9886,0.72687,-1.3647e-12,-0.99428,0,0,0.125,8.8818e-16,0,0.66667
0.13502,0.97472,1.0802,0.71208,59.616,373.54,-2.0511,0.6837,-0.19587,-2.7348,-2.6431e-08,-0.097934,0,0,0.125,-0,-0,0.66667
0.54323,0.79162,4.3459,0.43743,26.143,126.29,-5.0693,1.6898,-1.319,-6.7591,3.8147e-13,-0.65952,0,0,0.125,1.1842e-15,0,0.66667
0.43003,0.1151,3.4402,-0.57736,-40.02,186.61,5.2966,-1.7655,-0.81273,7.0622,-1.1666e-12,-0.40636,0,0,0.125,-0,-0,0.66667
0.76831,0.21489,6.1465,-0.42767,-14.783,36.94,7.0098,-2.3366,-1.3506,9.3463,-1.6589e-11,-0.6753,0,0,0.125,1.4803e-15,0,0.66667
0.79767,0.15509,6.3814,-0.51737,-15.899,29.113,8.804,-2.9347,-1.0516,11.739,-3.4904e-10,-0.52582,0,0,0.125,1.1842e-15,0,0.66667
0.17185,0.48559,1.3748,-0.021612,-1.7772,348.34,0.079232,-0.026411,-2.0012,0.10564,2.9936e-10,-1.0006,0,0,0.125,2.9606e-16,0,0.66667
0.43794,0.82676,3.5035,0.49014,33.64,182,-4.5793,1.5264,-1.1482,-6.1057,2.0428e-13,-0.57408,0,0,0.125,5.9212e-16,0,0.66667
0.26682,0.55991,2.1346,0.089865,7.0709,285.6,-0.51153,0.17051,-1.9739,-0.68204,3.7019e-12,-0.98695,0,0,0.125,7.4015e-17,0,0.66667
0.95469,0.45745,7.6375,-0.063826,-0.44542,1.9077,1.2999,-0.4333,-1.9867,1.7332,3.2209e-07,-0.99334,0,0,0.125,1.1842e-15,0,0.66667
0.93687,0.26601,7.495,-0.35098,-3.5021,3.7891,7.0149,-2.3383,-1.5641,9.3532,-3.0839e-08,-0.78205,0,0,0.125,-0,-0,0.66667
0.43435,0.096443,3.4748,-0.60534,-41.787,184.22,5.6091,-1.8697,-0.69785,7.4788,-2.3852e-12,-0.34893,0,0,0.125,-0,1.2361e-16,0.66667
0.43101,0.131,3.4481,-0.5535,-38.311,186.01,5.0894,-1.6965,-0.90921,6.7858,-2.3319e-12,-0.45461,0,0,0.125,-0,-0,0.66667
0.74648,0.33578,5.9718,-0.24633,-9.1789,43.204,3.9228,-1.3076,-1.7839,5.2304,1.3952e-11,-0.89196,0,0,0.125,-0,-0,0.66667
0.59598,0.24476,4.7678,-0.38286,-20.901,101.32,4.8677,-1.6226,-1.4799,6.4902,-4.2855e-13,-0.73997,0,0,0.125,5.9212e-16,0,0.66667
0.25907,0.45586,2.0726,-0.06621,-5.2324,290.61,0.36593,-0.12198,-1.9823,0.48791,-5.2058e-12,-0.99115,0,0,0.125,-1.0742e-17,0,0.66667
0.48317,0.59661,3.8654,0.14491,9.3978,156.83,-1.4937,0.49791,-1.9279,-1.9916,4.0257e-13,-0.96395,0,0,0.125,-0,-0,0.66667
0.89011,0.55187,7.1209,0.077807,1.3342,9.2066,-1.4775,0.49249,-1.9809,-1.97,8.5369e-09,-0.99044,0,0,0.125,-0,-0,0.66667
0.68155,0.04317,5.4524,-0.68525,-31.246,66.626,9.9633,-3.3211,-0.32854,13.284,-1.5321e-12,-0.16427,0,0,0.125,1.1842e-15,0,0.66667
0.56313,0.22848,4.505,-0.40727,-23.566,116.6,4.8927,-1.6309,-1.4126,6.5236,-8.6464e-13,-0.70629,0,0,0.125,-0,-0,0.66667
0.87675,0.15357,7.014,-0.51965,-10.099,12.182,9.7195,-3.2398,-1.0419,12.959,3.8735e-09,-0.52094,0,0,0.125,5.9212e-16,0,0.66667
0.27628,0.88114,2.2102,0.57171,44.922,279.83,-3.3696,1.1232,-0.83688,-4.4928,-4.7822e-12,-0.41844,0,0,0.125,-0,-0,0.66667
0.99685,0.59528,7.9748,0.14292,-0.0035751,0.11495,-3.0394,1.0131,-1.9283,-4.0525,7.0418e-07,-0.96415,0,0,0.125,2.3685e-15,0,0.66667
0.19984,0.7393,1.5987,0.35895,29.245,329.66,-1.5303,0.51009,-1.5415,-2.0404,-1.8884e-10,-0.77075,0,0,0.125,-0,-0,0.66667
0.83979,0.75664,6.7183,0.38496,9.517,18.844,-6.8968,2.2989,-1.4726,-9.1957,1.8939e-09,-0.73631,0,0,0.125,-0,-0,0.66667
0.74234,0.41112,5.9387,-0.13332,-5.0319,44.395,2.1113,-0.70376,-1.9353,2.8151,9.257e-12,-0.96766,0,0,0.125,2.3685e-15,0,0.66667
0.86405,0.17985,6.9124,-0.48022,-10.219,14.294,8.852,-2.9507,-1.179,11.803,-4.2202e-09,-0.58951,0,0,0.125,1.1842e-15,0,0.66667
0.58492,0.37206,4.6793,-0.19191,-10.669,106.13,2.3948,-0.79825,-1.868,3.193,-1.0918e-12,-0.93398,0,0,0.125,-1.4803e-16,0,0.66667
0.23238,0.27996,1.8591,-0.33006,-26.489,308.12,1.6363,-0.54542,-1.6147,2.1817,2.3814e-12,-0.80734,0,0,0.125,-3.3307e-16,0,0.66667
0.48352,0.030188,3.8682,-0.70472,-46.028,157.46,7.2692,-2.4231,-0.23752,9.6923,1.3998e-12,-0.11876,0,0,0.125,-1.5291e-16,1.9438e-17,0.66667
0.86238,0.081894,6.899,-0.62716,-13.607,15.103,11.538,-3.846,-0.60127,15.384,5.9962e-09,-0.30063,0,0,0.125,1.1842e-15,0,0.66667
0.7978,0.10732,6.3824,-0.58902,-18.139,29.304,10.025,-3.3417,-0.76819,13.367,-2.8756e-10,-0.3841,0,0,0.125,1.1842e-15,0,0.66667
0.17351,0.08388,1.3881,-0.62418,-51.548,347.46,2.3104,-0.77015,-0.61594,3.0806,1.5032e-09,-0.30797,0,0,0.125,-0,-0,0.66667
0.99221,0.37599,7.9377,-0.18602,-0.14451,0.25167,3.9374,-1.3125,-1.8762,5.2499,-1.0539e-07,-0.93808,0,0,0.125,2.3685e-15,0,0.66667
0.030412,0.98132,0.2433,0.72197,61.521,445.4,-0.46842,0.15615,-0.14859,-0.62455,1.1379e-05,-0.074294,0,0,0.125,-7.4015e-17,0,0.66667
0.39265,0.79194,3.1412,0.43791,31.439,207.99,-3.6682,1.2227,-1.3189,-4.8909,2.6428e-12,-0.65944,0,0,0.125,-0,-0,0.66667
0.7544,0.023561,6.0352,-0.71466,-26.238,41.96,11.502,-3.8339,-0.18318,15.336,-3.4052e-11,-0.091588,0,0,0.125,1.1842e-15,0,0.66667
0.97374,0.77146,7.7899,0.40719,1.6334,1.3383,-8.4586,2.8195,-1.4091,-11.278,-6.3406e-07,-0.70455,0,0,0.125,1.1842e-15,0,0.66667
0.14213,0.77632,1.137,0.41448,34.487,368.55,-1.2567,0.41891,-1.3911,-1.6756,-4.155e-09,-0.69553,0,0,0.125,-7.4015e-17,0,0.66667
0.92404,0.439,7.3923,-0.091506,-1.0886,4.7275,1.8039,-0.60128,-1.972,2.4051,-6.6086e-08,-0.98602,0,0,0.125,-0,-0,0.66667
0.21902,0.22511,1.7522,-0.41234,-33.331,316.96,1.9267,-0.64222,-1.3986,2.5689,4.1261e-12,-0.69931,0,0,0.125,-0,-0,0.66667
0.55264,0.50474,4.4211,0.0071117,0.41737,121.32,-0.083845,0.027948,-1.9987,-0.11179,-2.4031e-12,-0.99935,0,0,0.125,2.3685e-15,0,0.66667
0.43281,0.30191,3.4625,-0.29714,-20.46,184.66,2.7435,-0.91451,-1.6848,3.658,-3.2419e-14,-0.84239,0,0,0.125,5.9212e-16,0,0.66667
0.80806,0.51426,6.4644,0.021389,0.62096,25.719,-0.36872,0.12291,-1.997,-0.49162,6.743e-11,-0.99852,0,0,0.125,2.3685e-15,0,0.66667
0.13857,0.33453,1.1086,-0.24821,-20.645,370.91,0.73375,-0.24458,-1.7818,0.97833,4.7644e-09,-0.89088,0,0,0.125,-0,-0,0.66667
0.19087,0.099821,1.527,-0.60027,-49.231,335.81,2.4442,-0.81474,-0.71887,3.259,-2.8237e-12,-0.35944,0,0,0.125,-5.9212e-16,0,0.66667
0.56751,0.683,4.5401,0.2745,15.741,114.34,-3.3234,1.1078,-1.7313,-4.4311,-1.1902e-12,-0.86566,0,0,0.125,-8.8818e-16,0,0.66667
0.20995,0.5164,1.6796,0.024601,1.9924,322.84,-0.11019,0.036729,-1.9956,-0.14692,-1.0807e-11,-0.99781,0,0,0.125,-0,-0,0.66667
0.87999,0.035636,7.0399,-0.69655,-13.354,12.316,13.076,-4.3588,-0.27419,17.435,9.482e-08,-0.13709,0,0,0.125,2.3685e-15,0,0.66667
0.57835,0.11715,4.6268,-0.57427,-32.474,109.77,7.0854,-2.3618,-0.83046,9.4473,5.298e-13,-0.41523,0,0,0.125,-5.9212e-16,0,0.66667
0.91176,0.10797,7.294,-0.58805,-8.3334,7.2807,11.438,-3.8127,-0.76864,15.251,3.209e-08,-0.38432,0,0,0.125,-0,-0,0.66667
0.76434,0.49026,6.1147,-0.014611,-0.50986,37.605,0.23824,-0.079413,-2.0008,0.31765,-7.0876e-12,-1.0004,0,0,0.125,1.1842e-15,0,0.66667
0.47494,0.59457,3.7995,0.14186,9.295,161.25,-1.4374,0.47912,-1.9279,-1.9165,8.3589e-13,-0.96395,0,0,0.125,-0,-0,0.66667
0.69241,0.60405,5.5393,0.15608,6.8462,61.512,-2.3055,0.7685,-1.912,-3.074,-4.5199e-12,-0.956,0,0,0.125,-0,-0,0.66667
0.059802,0.57533,0.47842,0.11299,9.5432,424.99,-0.14415,0.048052,-1.9546,-0.19221,6.9897e-08,-0.97729,0,0,0.125,-0,-0,0.66667
0.63126,0.33956,5.0501,-0.24066,-12.227,85.722,3.2409,-1.0803,-1.7929,4.3212,5.5844e-13,-0.89645,0,0,0.125,-5.9212e-16,0,0.66667
0.98405,0.019628,7.8724,-0.72056,-1.9138,2.1702,15.127,-5.0422,-0.15653,20.169,-1.0806e-05,-0.078264,0,0,0.125,-0,1.3831e-16,0.66667
0.11938,0.074443,0.95508,-0.63834,-53.592,384.15,1.6258,-0.54192,-0.54941,2.1677,8.6253e-08,-0.27471,0,0,0.125,-0,-0,0.66667
0.45157,0.058123,3.6125,-0.66282,-44.942,174.72,6.3852,-2.1284,-0.43987,8.5136,-7.5673e-13,-0.21994,0,0,0.125,-0,-7.1321e-17,0.66667
0.018534,0.92438,0.14827,0.63657,54.198,453.61,-0.25169,0.083899,-0.55898,-0.33559,2.429e-06,-0.27949,0,0,0.125,-1.8504e-17,0,0.66667
0.68813,0.68056,5.505,0.27084,12.03,63.21,-3.976,1.3253,-1.7418,-5.3013,-6.4084e-12,-0.87091,0,0,0.125,5.9212e-16,0,0.66667
0.019423,0.87546,0.15538,0.56319,47.898,452.99,-0.23336,0.077788,-0.87289,-0.31114,2.0702e-06,-0.43645,0,0,0.125,-0,-0,0.66667
0.45527,0.64893,3.6422,0.2234,14.993,172.04,-2.1698,0.72325,-1.8235,-2.893,-1.763e-13,-0.91173,0,0,0.125,2.9606e-16,0,0.66667
0.21915,0.61545,1.7532,0.17318,13.973,316.77,-0.80965,0.26988,-1.896,-1.0795,-4.2194e-11,-0.948,0,0,0.125,2.9606e-16,0,0.66667
0.80722,0.053099,6.4577,-0.67035,-19.851,27.216,11.544,-3.848,-0.40074,15.392,2.7296e-10,-0.20037,0,0,0.125,-0,-0,0.66667
0.64564,0.84299,5.1651,0.51448,25.443,80.222,-7.0863,2.3621,-1.0588,-9.4484,-1.0796e-12,-0.52939,0,0,0.125,-3.7007e-16,0,0.66667
0.66627,0.77702,5.3302,0.41553,19.55,71.766,-5.9062,1.9687,-1.3851,-7.8749,-3.5127e-12,-0.69255,0,0,0.125,-1.9761e-16,0,0.66667
0.54989,0.81526,4.3991,0.47289,27.985,123.09,-5.5475,1.8492,-1.2057,-7.3967,-7.2831e-13,-0.60285,0,0,0.125,-0,-0,0.66667
0.25045,0.29479,2.0036,-0.30782,-24.47,296.29,1.6446,-0.54821,-1.6655,2.1928,-1.8138e-11,-0.83273,0,0,0.125,5.9212e-16,0,0.66667
0.81569,0.9147,6.5255,0.62205,17.65,24.976,-10.825,3.6082,-0.62407,-14.433,-1.7057e-09,-0.31203,0,0,0.125,-0,-0,0.66667
0.88012,0.77327,7.041,0.40991,7.7162,11.303,-7.6965,2.5655,-1.4013,-10.262,8.9424e-09,-0.70065,0,0,0.125,-1.1842e-15,0,0.66667
0.43832,0.8791,3.5065,0.56865,39.061,181.92,-5.3173,1.7724,-0.85307,-7.0897,1.5987e-13,-0.42653,0,0,0.125,-0,-0,0.66667
0.58633,0.74113,4.6906,0.3617,20.092,105.67,-4.5243,1.5081,-1.5329,-6.0324,-6.9145e-13,-0.76643,0,0,0.125,-0,-0,0.66667
0.6243,0.18345,4.9944,-0.47483,-24.561,89.05,6.324,-2.108,-1.2013,8.432,1.1986e-12,-0.60065,0,0,0.125,-1.1842e-15,-2.4915e-18,0.66667
0.72761,0.10077,5.8208,-0.59884,-23.921,50.069,9.2954,-3.0985,-0.72324,12.394,6.8532e-12,-0.36162,0,0,0.125,-0,-0,0.66667
0.5909,0.60245,4.7272,0.15368,8.4489,103.36,-1.9372,0.64574,-1.9162,-2.583,-1.239e-13,-0.95808,0,0,0.125,-0,-0,0.66667
0.8066,0.035633,6.4528,-0.69655,-20.712,27.472,11.986,-3.9953,-0.27379,15.981,3.5344e-10,-0.1369,0,0,0.125,-0,-0,0.66667
0.82409,0.10417,6.5927,-0.59375,-16.128,22.913,10.438,-3.4795,-0.74564,13.918,2.8275e-10,-0.37282,0,0,0.125,-0,-0,0.66667
0.55655,0.97893,4.4524,0.71839,42.28,120.45,-8.5295,2.8432,-0.16321,-11.373,1.1884e-12,-0.081605,0,0,0.125,-0,-0,0.66667
0.88295,0.62833,7.0636,0.1925,3.5154,10.43,-3.626,1.2087,-1.867,-4.8346,7.0704e-09,-0.9335,0,0,0.125,2.3685e-15,0,0.66667
0.20294,0.6236,1.6235,0.18541,15.068,327.53,-0.80269,0.26756,-1.8819,-1.0703,-2.2745e-10,-0.94093,0,0,0.125,-2.9606e-16,0,0.66667
0.41362,0.76532,3.3089,0.39798,27.984,195.73,-3.5117,1.1706,-1.4346,-4.6822,1.0312e-12,-0.71728,0,0,0.125,-5.9212e-16,0,0.66667
0.63011,0.75902,5.0409,0.38853,19.825,86.416,-5.2228,1.7409,-1.4619,-6.9637,-2.6219e-12,-0.73095,0,0,0.125,-0,-0,0.66667
0.10257,0.91683,0.82058,0.62525,52.682,395.65,-1.3682,0.45606,-0.60798,-1.8242,4.9082e-08,-0.30399,0,0,0.125,-2.9606e-16,0,0.66667
0.71864,0.8183,5.7491,0.47745,19.535,52.744,-7.3198,2.4399,-1.1929,-9.7598,-6.8345e-12,-0.59646,0,0,0.125,-0,5.0992e-18,0.66667
0.47968,0.89464,3.8375,0.59196,38.761,159.26,-6.0577,2.0192,-0.75271,-8.0769,-1.5907e-12,-0.37636,0,0,0.125,5.9212e-16,0,0.66667
0.37899,0.21618,3.032,-0.42573,-30.943,216.05,3.4421,-1.1474,-1.3557,4.5895,5.7421e-13,-0.67785,0,0,0.125,5.9212e-16,0,0.66667
0.45185,0.012101,3.6148,-0.73185,-49.68,174.72,7.0546,-2.3515,-0.097062,9.4061,-1.8021e-12,-0.048531,0,0,0.125,-0,1.405e-16,0.66667
0.36759,0.15763,2.9407,-0.51356,-37.743,222.99,4.0272,-1.3424,-1.0614,5.3696,2.9932e-13,-0.53069,0,0,0.125,-0,-0,0.66667
0.23954,0.15483,1.9163,-0.51776,-41.489,303.56,2.6458,-0.88194,-1.0465,3.5278,-3.4086e-11,-0.52327,0,0,0.125,-3.7162e-16,0,0.66667
0.91587,0.59212,7.327,0.13818,1.8227,5.7117,-2.6999,0.89998,-1.9315,-3.5999,1.8527e-08,-0.96573,0,0,0.125,-1.1842e-15,0,0.66667
0.79936,0.081268,6.3949,-0.6281,-19.24,29.038,10.711,-3.5703,-0.59749,14.281,-5.479e-10,-0.29875,0,0,0.125,-0,-0,0.66667
0.33394,0.58875,2.6715,0.13313,10.018,243.19,-0.94842,0.31614,-1.9358,-1.2646,-4.6611e-12,-0.9679,0,0,0.125,2.9606e-16,0,0.66667
0.16905,0.84906,1.3524,0.52359,43.246,350.39,-1.8883,0.62943,-1.0258,-2.5177,-1.4644e-09,-0.51292,0,0,0.125,-0,-0,0.66667
0.11663,0.21968,0.93301,-0.42048,-35.225,385.94,1.0462,-0.34872,-1.3706,1.3949,1.0082e-08,-0.6853,0,0,0.125,-2.9606e-16,0,0.66667
0.79533,0.52872,6.3627,0.043074,1.3256,28.97,-0.73084,0.24361,-1.9957,-0.97446,-4.643e-12,-0.99783,0,0,0.125,1.1842e-15,0,0.66667
0.70203,0.63458,5.6162,0.20186,8.6269,58.07,-3.0232,1.0077,-1.8569,-4.031,-7.2162e-12,-0.92846,0,0,0.125,-0,-0,0.66667
0.075233,0.23456,0.60186,-0.39815,-33.617,414.37,0.63902,-0.21301,-1.4361,0.85203,6.4705e-08,-0.71806,0,0,0.125,-0,-0,0.66667
0.11659,0.94458,0.93275,0.66687,56.051,386.07,-1.6587,0.55291,-0.41702,-2.2116,-6.5808e-08,-0.20851,0,0,0.125,-0,-0,0.66667
0.9138,0.083089,7.3104,-0.62537,-8.692,7.1738,12.191,-4.0637,-0.60735,16.255,-9.9772e-08,-0.30368,0,0,0.125,-0,-0,0.66667
0.86977,0.14118,6.9582,-0.53824,-11.031,13.447,9.9871,-3.329,-0.96823,13.316,-2.2345e-09,-0.48411,0,0,0.125,1.1842e-15,0,0.66667
0.29195,0.079273,2.3356,-0.63109,-49.155,269.91,3.9306,-1.3102,-0.58233,5.2408,-1.392e-12,-0.29116,0,0,0.125,-0,-0,0.66667
0.102,0.12575,0.816,-0.56138,-47.262,396.01,1.2216,-0.40718,-0.87875,1.6287,-1.3367e-08,-0.43937,0,0,0.125,2.9606e-16,0,0.66667
0.80889,0.6429,6.4711,0.21435,6.2082,25.642,-3.6988,1.2329,-1.8359,-4.9318,3.8736e-10,-0.91794,0,0,0.125,1.1842e-15,0,0.66667
0.026174,0.61649,0.20939,0.17474,14.805,448.29,-0.097571,0.032524,-1.8901,-0.13009,6.0443e-08,-0.94506,0,0,0.125,-1.8504e-17,0,0.66667
0.63635,0.81808,5.0908,0.47713,24.062,83.971,-6.4772,2.1591,-1.1901,-8.6362,-1.8172e-12,-0.59503,0,0,0.125,-0,-0,0.66667
0.16009,0.3699,1.2807,-0.19515,-16.12,356.3,0.66647,-0.22216,-1.8644,0.88863,1.8193e-09,-0.93221,0,0,0.125,7.4015e-17,0,0.66667
0.69162,0.84504,5.533,0.51757,22.881,62.399,-7.6365,2.5455,-1.0478,-10.182,-6.1604e-12,-0.52392,0,0,0.125,-0,-0,0.66667
0.16802,0.53761,1.3442,0.056421,4.6459,350.92,-0.20224,0.067412,-1.9883,-0.26965,1.9496e-10,-0.99416,0,0,0.125,-0,-0,0.66667
0.34905,0.76668,2.7924,0.40002,29.809,234.08,-2.9787,0.99289,-1.4293,-3.9716,6.1129e-13,-0.71465,0,0,0.125,-0,-0,0.66667
0.12209,0.43894,0.9767,-0.091597,-7.6472,382.13,0.23857,-0.079522,-1.9713,0.31809,-4.0332e-09,-0.98566,0,0,0.125,2.9606e-16,0,0.66667
0.28709,0.0035861,2.2967,-0.74462,-58.298,273.16,4.5604,-1.5201,-0.027627,6.0806,3.4728e-13,-0.013814,0,0,0.125,-0,-0,0.66667
0.1291,0.82795,1.0328,0.49192,41.114,377.45,-1.3548,0.45159,-1.1385,-1.8064,-6.7419e-09,-0.56924,0,0,0.125,-0,-0,0.66667
0.46339,0.60416,3.7071,0.15624,10.383,167.54,-1.5446,0.51486,-1.9116,-2.0594,-1.6251e-12,-0.9558,0,0,0.125,-0,-0,0.66667
0.64941,0.9215,5.1953,0.63225,31.092,79,-8.7592,2.9197,-0.57647,-11.679,-1.1102e-13,-0.28823,0,0,0.125,-0,-0,0.66667
0.39451,0.77,3.1561,0.40499,29.013,206.86,-3.4085,1.1362,-1.416,-4.5447,1.4775e-12,-0.70798,0,0,0.125,5.9212e-16,0,0.66667
0.95296,0.16314,7.6237,-0.50529,-3.8003,2.8852,10.272,-3.4241,-1.0954,13.697,-2.5548e-07,-0.54771,0,0,0.125,-0,-0,0.66667
0.75487,0.80105,6.0389,0.45157,16.408,40.996,-7.272,2.424,-1.2735,-9.6959,-2.8266e-12,-0.63677,0,0,0.125,1.1842e-15,0,0.66667
0.54438,0.34144,4.355,-0.23784,-14.156,125.47,2.7621,-0.92071,-1.8002,3.6828,2.0206e-14,-0.90011,0,0,0.125,7.4015e-16,0,0.66667
0.56352,0.57896,4.5082,0.11844,6.83,116.11,-1.4239,0.47462,-1.9518,-1.8985,-1.6299e-12,-0.97588,0,0,0.125,-0,-0,0.66667
0.3206,0.8383,2.5648,0.50745,38.691,251.74,-3.4707,1.1569,-1.0828,-4.6277,2.0215e-12,-0.54142,0,0,0.125,7.8195e-16,0,0.66667
0.51252,0.96563,4.1002,0.69845,43.891,142.28,-7.6367,2.5456,-0.26615,-10.182,1.7537e-12,-0.13308,0,0,0.125,1.4803e-16,-5.314e-17,0.66667
0.75781,0.73982,6.0625,0.35973,12.907,39.903,-5.8156,1.9385,-1.5378,-7.7541,-8.523e-12,-0.7689,0,0,0.125,-0,-0,0.66667
0.0018096,0.16617,0.014477,-0.50075,-42.568,465.19,0.019331,-0.0064427,-1.1094,0.025775,1.3568e-06,-0.55472,0,0,0.125,-0,2.5657e-16,0.66667
0.48059,0.64674,3.8447,0.22011,14.327,158.26,-2.2567,0.75223,-1.8271,-3.0089,-4.9205e-13,-0.91354,0,0,0.125,-5.9212e-16,0,0.66667
0.90416,0.62556,7.2333,0.18833,2.8301,7.2709,-3.6327,1.2109,-1.876,-4.8436,1.2803e-08,-0.93798,0,0,0.125,-0,-0,0.66667
0.8495,0.90819,6.796,0.61228,14.424,17.525,-11.096,3.6987,-0.66643,-14.795,-1.2864e-08,-0.33321,0,0,0.125,-0,-0,0.66667
0.221,0.75037,1.768,0.37556,30.318,315.64,-1.7706,0.5902,-1.5005,-2.3608,-3.5405e-11,-0.75024,0,0,0.125,-0,-0,0.66667
0.73624,0.14126,5.8899,-0.53811,-20.876,47.065,8.4517,-2.8172,-0.97117,11.269,1.2387e-11,-0.48558,0,0,0.125,-1.1842e-15,0,0.66667
0.58487,0.63432,4.679,0.20148,11.203,106.15,-2.514,0.83799,-1.8537,-3.352,-6.2172e-13,-0.92686,0,0,0.125,-0,-0,0.66667
0.52554,0.11453,4.2043,-0.57821,-35.576,135.38,6.4825,-2.1608,-0.80955,8.6434,1.6849e-12,-0.40477,0,0,0.125,-0,-0,0.66667
0.66144,0.4526,5.2916,-0.071098,-3.3716,73.266,1.0033,-0.33442,-1.9803,1.3377,6.7546e-13,-0.99015,0,0,0.125,-0,-0,0.66667
0.63207,0.60237,5.0565,0.15356,7.7829,85.304,-2.0706,0.69021,-1.9142,-2.7609,-1.833e-12,-0.95712,0,0,0.125,-0,-0,0.66667
0.071417,0.045138,0.57134,-0.68229,-57.857,417.08,1.0395,-0.34651,-0.34262,1.386,1.8381e-06,-0.17131,0,0,0.125,-1.4803e-16,0,0.66667
0.41684,0.78662,3.3347,0.42994,30.145,193.91,-3.8233,1.2744,-1.3419,-5.0977,-4.6185e-14,-0.67093,0,0,0.125,1.1842e-15,0,0.66667
0.1993,0.095559,1.5944,-0.60666,-49.59,330.19,2.5793,-0.85978,-0.69181,3.4391,1.4967e-09,-0.3459,0,0,0.125,-5.9212e-16,0,0.66667
0.70058,0.52862,5.6047,0.042923,1.8401,58.491,-0.64152,0.21384,-1.9947,-0.85537,-2.1879e-12,-0.99735,0,0,0.125,2.9606e-16,0,0.66667
0.27331,0.28183,2.1865,-0.32726,-25.685,281.52,1.9081,-0.63604,-1.6185,2.5442,-1.6995e-11,-0.80924,0,0,0.125,-0,-0,0.66667
0.43642,0.72147,3.4914,0.33221,22.793,182.66,-3.093,1.031,-1.6103,-4.124,1.5474e-12,-0.80516,0,0,0.125,-1.1842e-15,0,0.66667
0.82163,0.66364,6.573,0.24545,6.678,22.627,-4.3023,1.4341,-1.7841,-5.7364,8.4084e-10,-0.89205,0,0,0.125,-2.3685e-15,0,0.66667
0.78306,0.18049,6.2645,-0.47927,-15.654,32.902,8.0064,-2.6688,-1.1846,10.675,-6.9372e-11,-0.59229,0,0,0.125,-1.1842e-15,0,0.66667
0.85416,0.57525,6.8333,0.11288,2.5404,15.506,-2.0569,0.68564,-1.953,-2.7426,1.6579e-09,-0.97651,0,0,0.125,-0,-0,0.66667
0.47905,0.26242,3.8324,-0.35636,-23.27,159.21,3.642,-1.214,-1.5468,4.856,-6.8057e-13,-0.77338,0,0,0.125,-0,-0,0.66667
0.92649,0.15387,7.412,-0.5192,-6.1162,5.3191,10.262,-3.4207,-1.0413,13.683,-1.3581e-07,-0.52066,0,0,0.125,-0,-0,0.66667
0.031555,0.93274,0.25244,0.64911,55.24,444.6,-0.43696,0.14566,-0.50525,-0.58261,3.5906e-06,-0.25262,0,0,0.125,-1.8504e-17,0,0.66667
0.93828,0.7027,7.5063,0.30404,2.9555,3.5546,-6.086,2.0287,-1.6732,-8.1146,5.2753e-09,-0.83661,0,0,0.125,-1.1842e-15,0,0.66667
0.34863,0.066985,2.789,-0.64952,-48.595,234.66,4.8308,-1.6103,-0.49928,6.441,5.4845e-13,-0.24964,0,0,0.125,-1.1842e-15,0,0.66667
0.81282,0.82677,6.5026,0.49016,14.029,25.241,-8.4994,2.8331,-1.1483,-11.333,2.8311e-10,-0.57413,0,0,0.125,1.1842e-15,0,0.66667
0.94832,0.039593,7.5866,-0.69061,-5.8724,3.9857,13.972,-4.6572,-0.30303,18.629,2.7333e-06,-0.15152,0,0,0.125,2.3685e-15,-7.9543e-17,0.66667
0.89181,0.40842,7.1345,-0.13737,-2.3218,8.9878,2.6136,-0.87118,-1.9356,3.4847,-1.4699e-09,-0.9678,0,0,0.125,-2.3685e-15,0,0.66667
0.69802,0.9162,5.5842,0.62431,27.205,60.377,-9.2966,3.0989,-0.61274,-12.395,-2.2595e-12,-0.30637,0,0,0.125,-0,-0,0.66667
0.67018,0.22221,5.3615,-0.41668,-19.418,70.247,5.9574,-1.9858,-1.3846,7.9431,1.3145e-12,-0.6923,0,0,0.125,-0,-0,0.66667
0.97358,0.6843,7.7886,0.27645,1.0908,1.0364,-5.7419,1.914,-1.7278,-7.6558,-1.8853e-07,-0.8639,0,0,0.125,5.843e-16,0,0.66667
0.46511,0.43215,3.7209,-0.10177,-6.7475,166.57,1.0098,-0.3366,-1.9631,1.3464,2.38e-12,-0.98155,0,0,0.125,-5.9212e-16,0,0.66667
0.10402,0.46534,0.83214,-0.051992,-4.3585,394.51,0.11537,-0.038458,-1.9896,0.15383,-2.2532e-08,-0.99482,0,0,0.125,-0,-0,0.66667
0.024147,0.41298,0.19318,-0.13053,-11.058,449.69,0.067243,-0.022415,-1.9377,0.089658,-3.4389e-08,-0.96885,0,0,0.125,-0,-0,0.66667
0.8813,0.92694,7.0504,0.64042,12.102,11.868,-12.041,4.0135,-0.53981,-16.054,9.3891e-08,-0.26991,0,0,0.125,1.1842e-15,0,0.66667
0.026191,0.433,0.20953,-0.1005,-8.5121,448.27,0.056151,-0.018717,-1.9633,0.074868,-4.7839e-07,-0.98165,0,0,0.125,4.6259e-17,0,0.66667
0.95083,0.058909,7.6066,-0.66164,-5.3303,3.6608,13.421,-4.4736,-0.44481,17.894,-8.6224e-07,-0.22241,0,0,0.125,1.7764e-15,0,0.66667
0.56992,0.88755,4.5593,0.58133,33.359,113.73,-7.068,2.356,-0.79619,-9.4239,1.6769e-12,-0.3981,0,0,0.125,-1.1842e-15,0,0.66667
0.65757,0.77338,5.2605,0.41007,19.694,75.186,-5.7525,1.9175,-1.4038,-7.67,-2.6121e-12,-0.70191,0,0,0.125,5.9212e-16,0,0.66667
0.90917,0.27292,7.2734,-0.34062,-4.8826,6.8659,6.6065,-2.2022,-1.5876,8.8087,-2.7451e-08,-0.79379,0,0,0.125,-5.9212e-16,0,0.66667
0.90195,0.84431,7.2156,0.51647,8.0602,8.3149,-9.9377,3.3126,-1.0519,-13.25,3.2329e-08,-0.52596,0,0,0.125,-2.3685e-15,0,0.66667
0.39086,0.59887,3.1268,0.1483,10.639,208.81,-1.2366,0.4122,-1.9252,-1.6488,5.8131e-13,-0.96259,0,0,0.125,-0,-0,0.66667
0.61254,0.039673,4.9003,-0.69049,-36.753,94.679,9.023,-3.0077,-0.3047,12.031,-7.7716e-13,-0.15235,0,0,0.125,-0,-0,0.66667
0.52184,0.63292,4.1747,0.19938,12.273,136.7,-2.2196,0.73988,-1.857,-2.9595,1.3123e-13,-0.92849,0,0,0.125,-0,-0,0.66667
0.81704,0.11365,6.5363,-0.57953,-16.304,24.507,10.101,-3.3671,-0.80458,13.468,1.5733e-11,-0.40229,0,0,0.125,-1.1842e-15,0,0.66667
0.056183,0.87675,0.44946,0.56513,47.93,427.56,-0.67735,0.22578,-0.86368,-0.90313,-9.4338e-08,-0.43184,0,0,0.125,-1.4803e-16,0,0.66667
0.62698,0.98826,5.0158,0.73239,37.91,88.603,-9.7961,3.2654,-0.093502,-13.061,-5.8265e-13,-0.046751,0,0,0.125,-0,-0,0.66667
0.42974,0.92015,3.4379,0.63022,43.739,186.87,-5.7777,1.9259,-0.58551,-7.7037,2.0912e-12,-0.29275,0,0,0.125,5.9212e-16,0,0.66667
0.86093,0.77428,6.8874,0.41142,8.918,14.685,-7.5563,2.5188,-1.3997,-10.075,5.1775e-09,-0.69987,0,0,0.125,-0,-0,0.66667
0.68787,0.75936,5.5029,0.38905,17.324,63.498,-5.7091,1.903,-1.4645,-7.6121,-5.2429e-12,-0.73227,0,0,0.125,-0,-0,0.66667
0.26102,0.80646,2.0882,0.45969,36.387,289.54,-2.5598,0.85326,-1.2479,-3.413,2.5472e-11,-0.62394,0,0,0.125,1.4803e-16,0,0.66667
0.13424,0.024918,1.0739,-0.71262,-59.674,374.08,2.0408,-0.68026,-0.19285,2.721,2.4459e-08,-0.096426,0,0,0.125,-1.4803e-16,0,0.66667
0.54134,0.32024,4.3307,-0.26964,-16.13,126.99,3.114,-1.038,-1.7401,4.152,2.2959e-13,-0.87003,0,0,0.125,-0,-0,0.66667
0.9819,0.96711,7.8552,0.70066,2.0928,2.1414,-14.677,4.8923,-0.25595,-19.569,-3.7214e-06,-0.12797,0,0,0.125,1.3296e-15,0,0.66667
0.34991,0.32517,2.7993,-0.26224,-19.504,233.44,1.9575,-0.65251,-1.7535,2.61,-2.4035e-12,-0.87674,0,0,0.125,5.9212e-16,0,0.66667
0.99541,0.68646,7.9633,0.27969,0.078044,0.34326,-5.9394,1.9798,-1.7219,-7.9192,2.7685e-07,-0.86096,0,0,0.125,2.9606e-16,0,0.66667
0.51808,0.83483,4.1446,0.50225,31.193,139.01,-5.551,1.8503,-1.1036,-7.4013,4.4675e-13,-0.55179,0,0,0.125,-5.9212e-16,0,0.66667
0.19034,0.60302,1.5227,0.15453,12.622,335.94,-0.62746,0.20915,-1.9152,-0.83661,-3.2946e-10,-0.95759,0,0,0.125,-0,-0,0.66667
0.030616,0.62382,0.24493,0.18574,15.733,445.21,-0.12131,0.040437,-1.8809,-0.16175,1.0676e-07,-0.94045,0,0,0.125,3.7007e-17,0,0.66667
0.30302,0.21196,2.4242,-0.43206,-33.315,262.68,2.7931,-0.93102,-1.3347,3.7241,-5.3442e-12,-0.66737,0,0,0.125,2.9606e-16,0,0.66667
0.035078,0.79402,0.28063,0.44102,37.419,442.13,-0.33003,0.11001,-1.3075,-0.44004,1.9825e-07,-0.65377,0,0,0.125,-0,-0,0.66667
0.59005,0.69449,4.7204,0.29174,16.083,103.87,-3.6723,1.2241,-1.697,-4.8964,-1.8587e-12,-0.84852,0,0,0.125,1.1842e-15,0,0.66667
0.70162,0.70425,5.613,0.30638,13.125,58.349,-4.5859,1.5286,-1.6673,-6.1145,-7.8457e-12,-0.83367,0,0,0.125,-0,-0,0.66667
0.66999,0.56748,5.3599,0.10121,4.702,69.934,-1.4467,0.48222,-1.9651,-1.9289,-4.7695e-13,-0.98253,0,0,0.125,-2.3685e-15,0,0.66667
0.35621,0.52222,2.8497,0.033323,2.4634,229.52,-0.25323,0.084409,-1.9959,-0.33763,-2.5025e-12,-0.99795,0,0,0.125,-5.9212e-16,0,0.66667
0.11164,0.33141,0.89316,-0.25288,-21.179,389.3,0.60229,-0.20076,-1.773,0.80306,1.3296e-08,-0.88651,0,0,0.125,-0,-0,0.66667
0.64132,0.80213,5.1306,0.4532,22.599,81.859,-6.2005,2.0668,-1.2719,-8.2673,-2.2085e-12,-0.63596,0,0,0.125,5.9212e-16,0,0.66667
0.063197,0.15304,0.50558,-0.52045,-44.077,422.7,0.70167,-0.23389,-1.04,0.93556,9.7181e-08,-0.52001,0,0,0.125,-9.2519e-17,0,0.66667
0.64436,0.39764,5.1549,-0.15354,-7.5763,80.191,2.1106,-0.70354,-1.9156,2.8142,4.865e-13,-0.95782,0,0,0.125,-5.9212e-16,0,0.66667
0.83529,0.12214,6.6823,-0.56679,-14.479,20.324,10.1,-3.3666,-0.85665,13.467,1.5513e-09,-0.42833,0,0,0.125,-0,-0,0.66667
0.057159,0.43351,0.45727,-0.099729,-8.4253,426.82,0.12161,-0.040537,-1.9638,0.16215,-1.484e-07,-0.9819,0,0,0.125,1.5341e-17,0,0.66667
0.35587,0.93599,2.847,0.65399,48.648,230.27,-4.965,1.655,-0.47996,-6.62,-3.0642e-13,-0.23998,0,0,0.125,8.1416e-16,1.3409e-16,0.66667
0.61872,0.37724,4.9498,-0.18414,-9.5973,91.025,2.4306,-0.8102,-1.8786,3.2408,1.817e-12,-0.93929,0,0,0.125,-2.3685e-15,0,0.66667
0.6386,0.96193,5.1088,0.6929,34.955,83.607,-9.4397,3.1466,-0.29404,-12.586,7.7183e-13,-0.14702,0,0,0.125,-5.9212e-16,0,0.66667
0.19794,0.37041,1.5835,-0.19438,-15.831,330.87,0.8208,-0.2736,-1.8648,1.0944,3.0083e-10,-0.9324,0,0,0.125,-2.5287e-16,0,0.66667
0.62336,0.9519,4.9869,0.67785,35.294,89.969,-9.0143,3.0048,-0.36725,-12.019,-1.1768e-12,-0.18362,0,0,0.125,-0,-0,0.66667
0.55754,0.80246,4.4603,0.45369,26.513,119.36,-5.3963,1.7988,-1.2667,-7.1951,2.7089e-14,-0.63337,0,0,0.125,-0,-0,0.66667
0.88572,0.99214,7.0857,0.73821,13.562,11.588,-13.949,4.6495,-0.061244,-18.598,1.0007e-08,-0.030622,0,0,0.125,-1.7764e-15,0,0.66667
0.69703,0.2449,5.5762,-0.38265,-16.624,60.132,5.69,-1.8967,-1.4781,7.5866,5.8726e-12,-0.73905,0,0,0.125,-5.9212e-16,0,0.66667
0.36426,0.31484,2.9141,-0.27775,-20.416,224.74,2.1583,-0.71945,-1.7254,2.8778,-2.7269e-12,-0.86269,0,0,0.125,-0,-0,0.66667
0.22535,0.15108,1.8028,-0.52338,-42.237,312.88,2.5161,-0.83869,-1.0246,3.3548,2.4725e-11,-0.51232,0,0,0.125,-1.6263e-16,0,0.66667
0.61091,0.73881,4.8873,0.35821,18.998,94.634,-4.6684,1.5561,-1.545,-6.2246,-2.0184e-12,-0.77249,0,0,0.125,5.9212e-16,0,0.66667
0.25557,0.89698,2.0445,0.59547,47.366,293.2,-3.2465,1.0822,-0.73766,-4.3287,5.2371e-12,-0.36883,0,0,0.125,-0,-0,0.66667
0.075813,0.71899,0.60651,0.32849,27.715,413.96,-0.53128,0.17709,-1.6183,-0.70837,-4.0133e-08,-0.80914,0,0,0.125,-2.9606e-16,0,0.66667
0.8227,0.6044,6.5816,0.1566,4.2311,22.272,-2.7485,0.91617,-1.9112,-3.6647,7.3615e-10,-0.95558,0,0,0.125,-0,-0,0.66667
0.22795,0.71192,1.8236,0.31788,25.564,311.02,-1.5459,0.51529,-1.6391,-2.0612,-1.9038e-11,-0.81955,0,0,0.125,-4.4409e-16,0,0.66667
0.37955,0.3177,3.0364,-0.27345,-19.834,215.58,2.2141,-0.73804,-1.7335,2.9522,-2.0681e-12,-0.86675,0,0,0.125,1.1842e-15,0,0.66667
0.84649,0.95893,6.7719,0.68839,16.588,18.431,-12.431,4.1437,-0.31522,-16.575,5.6053e-09,-0.15761,0,0,0.125,1.1842e-15,0,0.66667
0.10315,0.53457,0.82521,0.051858,4.348,395.11,-0.11412,0.038039,-1.9894,-0.15215,2.177e-08,-0.9947,0,0,0.125,-0,-0,0.66667
0.96939,0.034086,7.7551,-0.69887,-3.5414,2.6635,14.453,-4.8176,-0.26665,19.271,2.1015e-05,-0.13333,0,0,0.125,-0,-0,0.66667
0.52282,0.72581,4.1826,0.33872,20.846,136.34,-3.7779,1.2593,-1.5903,-5.0373,-4.4054e-13,-0.79515,0,0,0.125,-0,-0,0.66667
0.67334,0.94224,5.3867,0.66336,30.858,69.67,-9.5288,3.1763,-0.43735,-12.705,-1.1013e-13,-0.21868,0,0,0.125,-0,-0,0.66667
0.73153,0.051846,5.8522,-0.67223,-26.589,49.019,10.491,-3.4969,-0.39324,13.988,-5.0449e-13,-0.19662,0,0,0.125,-0,-0,0.66667
0.98098,0.20338,7.8478,-0.44493,-1.2624,1.1515,9.3113,-3.1038,-1.2955,12.415,6.6337e-07,-0.64774,0,0,0.125,-1.1617e-15,0,0.66667
0.55276,0.046745,4.4221,-0.67988,-40.22,122.17,8.0173,-2.6724,-0.35449,10.69,-1.1147e-12,-0.17724,0,0,0.125,-0,-0,0.66667
0.69972,0.90663,5.5978,0.60995,26.445,59.721,-9.105,3.035,-0.67818,-12.14,-2.8288e-12,-0.33909,0,0,0.125,2.3685e-15,0,0.66667
0.68269,0.78343,5.4615,0.42514,19.202,65.501,-6.1917,2.0639,-1.3571,-8.2556,-3.5141e-12,-0.67854,0,0,0.125,-2.3685e-15,0,0.66667
0.63023,0.75449,5.0419,0.38173,19.471,86.352,-5.1323,1.7108,-1.481,-6.8431,-2.5131e-12,-0.74051,0,0,0.125,-0,-0,0.66667
0.79934,0.48237,6.3948,-0.026446,-0.79936,27.923,0.45097,-0.15032,-1.9977,0.60129,-4.2202e-11,-0.99884,0,0,0.125,1.1842e-15,0,0.66667
0.34565,0.64796,2.7652,0.22194,16.558,236.02,-1.6366,0.54552,-1.8259,-2.1821,2.2982e-14,-0.91296,0,0,0.125,5.9212e-16,0,0.66667
0.48189,0.93812,3.8551,0.65718,42.968,158.22,-6.756,2.252,-0.46611,-9.008,-5.8042e-13,-0.23305,0,0,0.125,-0,1.1503e-17,0.66667
0.078123,0.46139,0.62498,-0.057908,-4.8777,412.34,0.09651,-0.03217,-1.9915,0.12868,-5.104e-08,-0.99573,0,0,0.125,-7.4015e-17,0,0.66667
0.91011,0.19459,7.2808,-0.45811,-6.5449,7.0492,8.8946,-2.9649,-1.2533,11.859,-2.7987e-08,-0.62667,0,0,0.125,2.3685e-15,0,0.66667
0.55923,0.050662,4.4738,-0.67401,-39.453,119.04,8.041,-2.6803,-0.38431,10.721,-4.13e-13,-0.19216,0,0,0.125,-6.6226e-16,-1.3933e-16,0.66667
0.52499,0.16856,4.1999,-0.49716,-30.569,135.49,5.568,-1.856,-1.1192,7.424,1.1622e-12,-0.55958,0,0,0.125,-0,-0,0.66667
0.26695,0.35196,2.1356,-0.22206,-17.481,285.56,1.2647,-0.42155,-1.8263,1.6862,-1.5109e-11,-0.91317,0,0,0.125,-0,-0,0.66667
0.89999,0.16742,7.1999,-0.49887,-7.9267,8.5298,9.5783,-3.1928,-1.1132,12.771,-3.4963e-08,-0.55658,0,0,0.125,-0,-0,0.66667
0.013914,0.98328,0.11131,0.72492,61.82,456.81,-0.21516,0.071706,-0.13247,-0.28689,-2.2763e-05,-0.066235,0,0,0.125,-0,1.473e-16,0.66667
0.097001,0.59699,0.77601,0.14549,12.216,399.34,-0.30107,0.10036,-1.9253,-0.40142,-1.0141e-08,-0.96264,0,0,0.125,-2.9606e-16,0,0.66667
0.060075,0.82778,0.4806,0.49167,41.641,424.85,-0.63012,0.21004,-1.1407,-0.84016,-5.5744e-08,-0.57033,0,0,0.125,-0,-0,0.66667
0.24092,0.83077,1.9274,0.49615,39.718,302.64,-2.55,0.85001,-1.1226,-3.4001,3.0372e-11,-0.56132,0,0,0.125,2.9606e-16,0,0.66667
0.49685,0.89628,3.9748,0.59442,38.074,150.17,-6.3006,2.1002,-0.74345,-8.4008,8.0158e-13,-0.37173,0,0,0.125,-5.9212e-16,0,0.66667
0.46352,0.045407,3.7082,-0.68189,-45.617,168.19,6.7429,-2.2476,-0.34504,8.9905,-2.1902e-12,-0.17252,0,0,0.125,-0,-0,0.66667
0.27055,0.65899,2.1644,0.23849,18.736,283.25,-1.3765,0.45882,-1.7973,-1.8353,1.1085e-11,-0.89867,0,0,0.125,-0,-0,0.66667
0.55511,0.72119,4.4409,0.33179,19.433,120.34,-3.9292,1.3097,-1.6075,-5.2389,-8.1291e-13,-0.80376,0,0,0.125,-0,-0,0.66667
0.22734,0.9578,1.8187,0.6867,55.505,311.73,-3.3304,1.1101,-0.32125,-4.4405,7.9666e-11,-0.16062,0,0,0.125,2.9606e-16,0,0.66667
0.3657,0.53423,2.9256,0.051345,3.7656,223.78,-0.40057,0.13352,-1.9896,-0.53409,5.4027e-12,-0.99481,0,0,0.125,-0,-0,0.66667
0.16996,0.63352,1.3597,0.20028,16.488,349.63,-0.72619,0.24206,-1.8584,-0.96825,-1.2901e-09,-0.9292,0,0,0.125,-0,-0,0.66667
0.66427,0.8092,5.3142,0.46379,21.946,72.647,-6.5725,2.1908,-1.2339,-8.7633,-9.277e-13,-0.61697,0,0,0.125,-1.4803e-15,0,0.66667
0.081667,0.11209,0.65334,-0.58187,-49.187,409.99,1.0138,-0.33792,-0.79548,1.3517,-7.9034e-09,-0.39774,0,0,0.125,1.4803e-16,0,0.66667
0.34329,0.38553,2.7463,-0.1717,-12.83,237.44,1.2575,-0.41916,-1.8977,1.6766,-1.6804e-12,-0.94883,0,0,0.125,5.9212e-16,0,0.66667
0.53103,0.68641,4.2482,0.27962,16.992,132.14,-3.1677,1.0559,-1.7261,-4.2235,-2.8755e-13,-0.86305,0,0,0.125,4.4409e-16,0,0.66667
0.54953,0.13679,4.3962,-0.54482,-32.302,123.41,6.3871,-2.129,-0.94467,8.5161,5.4801e-13,-0.47234,0,0,0.125,-1.1842e-15,0,0.66667
0.36765,0.89809,2.9412,0.59714,43.941,223.07,-4.6835,1.5612,-0.73028,-6.2447,1.3238e-12,-0.36514,0,0,0.125,-2.9606e-16,0,0.66667
0.64375,0.6384,5.15,0.2076,10.262,80.487,-2.8511,0.95035,-1.8464,-3.8014,-2.1334e-12,-0.92318,0,0,0.125,-0,-0,0.66667
0.16445,0.23775,1.3156,-0.39338,-32.494,353.42,1.3801,-0.46002,-1.4476,1.8401,1.5291e-09,-0.72378,0,0,0.125,-4.9081e-16,0,0.66667
0.7243,0.38051,5.7944,-0.17923,-7.1724,50.329,2.7695,-0.92316,-1.8846,3.6926,1.017e-11,-0.94231,0,0,0.125,-0,-0,0.66667
0.92525,0.66774,7.402,0.25161,2.9597,4.7748,-4.9665,1.6555,-1.7744,-6.622,1.8123e-08,-0.8872,0,0,0.125,-0,-0,0.66667
0.98983,0.045843,7.9186,-0.68124,-1.1073,1.819,14.385,-4.7951,-0.3481,19.18,-3.8848e-05,-0.17405,0,0,0.125,-0,-0,0.66667
0.87848,0.077268,7.0279,-0.6341,-12.246,12.305,11.884,-3.9612,-0.56968,15.845,-6.1583e-08,-0.28484,0,0,0.125,-0,-0,0.66667
0.26092,0.73009,2.0874,0.34514,27.288,289.52,-1.9211,0.64038,-1.5751,-2.5615,1.5214e-11,-0.78755,0,0,0.125,-5.9212e-16,0,0.66667
0.038093,0.33015,0.30475,-0.25478,-21.578,440.03,0.20705,-0.069016,-1.767,0.27606,-1.1726e-07,-0.8835,0,0,0.125,-7.4015e-17,0,0.66667
0.97403,0.18866,7.7922,-0.46701,-1.8765,1.5062,9.7041,-3.2347,-1.2243,12.939,1.0351e-06,-0.61213,0,0,0.125,2.3685e-15,0,0.66667
0.55712,0.2772,4.457,-0.3342,-19.51,119.37,3.972,-1.324,-1.602,5.296,1.2443e-12,-0.80102,0,0,0.125,-8.8818e-16,0,0.66667
0.53971,0.13165,4.3177,-0.55252,-33.267,128.25,6.3616,-2.1205,-0.91285,8.4822,7.1543e-13,-0.45643,0,0,0.125,-0,-0,0.66667
0.14646,0.18103,1.1717,-0.47846,-39.787,365.63,1.4949,-0.49831,-1.1847,1.9933,2.6927e-09,-0.59233,0,0,0.125,-0,-0,0.66667
0.91249,0.54032,7.2999,0.060483,0.82872,6.0787,-1.1774,0.39247,-1.9852,-1.5699,4.3076e-08,-0.9926,0,0,0.125,-0,-0,0.66667
0.95761,0.19209,7.6609,-0.46187,-3.1034,2.4161,9.4355,-3.1452,-1.241,12.581,-1.3321e-07,-0.62051,0,0,0.125,-0,-0,0.66667
0.85963,0.29768,6.877,-0.30348,-6.612,14.694,5.5654,-1.8551,-1.6751,7.4206,-5.0562e-09,-0.83755,0,0,0.125,-0,-0,0.66667
0.69276,0.072768,5.5421,-0.64085,-28.34,62.335,9.471,-3.157,-0.53823,12.628,1.0818e-12,-0.26912,0,0,0.125,-0,-0,0.66667
0.3859,0.10849,3.0872,-0.58727,-42.518,212.18,4.8347,-1.6116,-0.77226,6.4463,8.8818e-14,-0.38613,0,0,0.125,-0,-0,0.66667
0.92673,0.36692,7.4138,-0.19962,-2.2966,4.5372,3.9464,-1.3155,-1.8572,5.2619,-1.9415e-08,-0.92858,0,0,0.125,1.1842e-15,0,0.66667
0.85447,0.47745,6.8357,-0.033828,-0.75939,15.41,0.61664,-0.20555,-1.9947,0.82219,-6.069e-10,-0.99734,0,0,0.125,-2.3685e-15,0,0.66667
0.83789,0.0019632,6.7031,-0.74706,-18.99,20.471,13.354,-4.4512,-0.015,17.805,4.9276e-10,-0.0075,0,0,0.125,-4.737e-15,0,0.66667
0.58406,0.01764,4.6725,-0.72354,-40.651,107.53,9.0152,-3.0051,-0.13666,12.02,3.1806e-12,-0.068329,0,0,0.125,-2.3685e-15,0,0.66667
0.069977,0.02375,0.55982,-0.71437,-60.623,418.08,1.0665,-0.35548,-0.18365,1.4219,1.9078e-06,-0.091827,0,0,0.125,-0,-0,0.66667
0.025655,0.76683,0.20524,0.40025,33.965,448.66,-0.21906,0.073019,-1.4285,-0.29208,6.033e-07,-0.71427,0,0,0.125,-0,-0,0.66667
0.2256,0.52562,1.8048,0.038427,3.0899,312.49,-0.18494,0.061648,-1.9932,-0.24659,-3.1014e-12,-0.99661,0,0,0.125,-0,-0,0.66667
0.092302,0.687,0.73842,0.28049,23.591,402.59,-0.55232,0.18411,-1.723,-0.73643,-2.2062e-08,-0.86151,0,0,0.125,-0,-0,0.66667
0.74511,0.67919,5.9608,0.26878,10.066,43.665,-4.2724,1.4241,-1.7419,-5.6966,-1.5058e-11,-0.87096,0,0,0.125,-5.9212e-16,0,0.66667
0.85106,0.74144,6.8084,0.36216,8.3583,16.478,-6.5752,2.1917,-1.5317,-8.767,3.371e-09,-0.76587,0,0,0.125,-1.1842e-15,0,0.66667
0.54047,0.17388,4.3238,-0.48918,-29.386,127.74,5.6402,-1.8801,-1.1471,7.5203,-5.7732e-15,-0.57354,0,0,0.125,5.9212e-16,0,0.66667
0.61127,0.96831,4.8902,0.70246,37.495,95.269,-9.1604,3.0535,-0.2478,-12.214,-2.8191e-12,-0.1239,0,0,0.125,5.5511e-16,0,0.66667
0.47314,0.62937,3.7851,0.19405,12.746,162.25,-1.9587,0.65288,-1.8657,-2.6115,2.76e-13,-0.93285,0,0,0.125,-0,-0,0.66667
0.93519,0.83149,7.4815,0.49723,5.1591,4.3622,-9.9201,3.3067,-1.1213,-13.227,1.2068e-07,-0.56065,0,0,0.125,-1.1075e-15,0,0.66667
0.61281,0.19283,4.9025,-0.46075,-24.385,93.983,6.0235,-2.0078,-1.2453,8.0314,9.5923e-13,-0.62263,0,0,0.125,-0,-0,0.66667
0.62036,0.7915,4.9629,0.43725,22.784,90.663,-5.7867,1.9289,-1.319,-7.7157,-1.8474e-12,-0.65949,0,0,0.125,-0,-0,0.66667
0.85801,0.91771,6.8641,0.62657,13.996,15.919,-11.469,3.823,-0.60548,-15.292,2.182e-09,-0.30274,0,0,0.125,-0,1.3753e-16,0.66667
0.38374,0.13184,3.0699,-0.55224,-40.038,213.41,4.5209,-1.507,-0.91396,6.0279,1.2701e-13,-0.45698,0,0,0.125,-0,-0,0.66667
0.06411,0.67409,0.51288,0.26114,22.059,422.03,-0.35716,0.11905,-1.7585,-0.47621,-1.2516e-09,-0.87927,0,0,0.125,-0,-0,0.66667
0.74015,0.34466,5.9212,-0.23301,-8.868,45.191,3.6791,-1.2264,-1.8065,4.9055,1.5152e-11,-0.90326,0,0,0.125,2.3685e-15,0,0.66667
0.84419,0.26199,6.7535,-0.35702,-8.5931,17.861,6.4297,-2.1432,-1.5492,8.5729,-2.4687e-09,-0.77461,0,0,0.125,-2.3685e-15,0,0.66667
0.52023,0.13977,4.1619,-0.54035,-33.479,137.98,5.9969,-1.999,-0.96045,7.9959,1.7644e-12,-0.48022,0,0,0.125,-0,-0,0.66667
0.46764,0.72691,3.7412,0.34036,22.535,165.36,-3.3956,1.1319,-1.59,-4.5275,2.0051e-13,-0.79501,0,0,0.125,-0,-0,0.66667
0.098624,0.57044,0.78899,0.10566,8.8684,398.22,-0.22231,0.074104,-1.9591,-0.29641,-1.3149e-08,-0.97957,0,0,0.125,-0,-0,0.66667
0.31326,0.64746,2.5061,0.22118,16.904,256.09,-1.4781,0.49271,-1.8283,-1.9709,1.9306e-12,-0.91416,0,0,0.125,2.9606e-16,0,0.66667
0.18739,0.077767,1.4991,-0.63335,-52.042,338.16,2.5319,-0.84395,-0.57651,3.3758,-3.3772e-10,-0.28825,0,0,0.125,2.9606e-16,0,0.66667
0.74742,0.024789,5.9794,-0.71282,-26.806,44.096,11.366,-3.7886,-0.19402,15.155,-7.0566e-12,-0.097008,0,0,0.125,-1.1842e-15,-9.7114e-17,0.66667
0.16037,0.77034,1.2829,0.40551,33.546,356.18,-1.3873,0.46244,-1.4143,-1.8497,-1.8551e-09,-0.70717,0,0,0.125,1.4803e-16,0,0.66667
0.68463,0.69572,5.477,0.29358,13.165,64.543,-4.2879,1.4293,-1.6937,-5.7172,-3.5207e-12,-0.84685,0,0,0.125,-2.3685e-15,0,0.66667
0.44067,0.24092,3.5254,-0.38862,-26.556,180.33,3.6534,-1.2178,-1.4629,4.8712,4.4831e-13,-0.73143,0,0,0.125,-0,-0,0.66667
0.0042513,0.93655,0.03401,0.65482,55.786,463.5,-0.059388,0.019797,-0.47572,-0.079183,2.0272e-06,-0.23786,0,0,0.125,-1.3878e-17,3.5051e-17,0.66667
0.70234,0.12995,5.6187,-0.55508,-23.855,58.628,8.3169,-2.7723,-0.90718,11.089,5.6097e-12,-0.45359,0,0,0.125,-2.3685e-15,-8.2586e-17,0.66667
0.79289,0.32764,6.3431,-0.25855,-8.0594,29.796,4.3733,-1.4578,-1.7613,5.8311,-1.4605e-10,-0.88064,0,0,0.125,1.1842e-15,0,0.66667
0.33849,0.31614,2.7079,-0.27579,-20.698,240.45,1.9915,-0.66383,-1.7288,2.6553,-3.0699e-12,-0.86441,0,0,0.125,-0,-0,0.66667
0.47734,0.20532,3.8187,-0.44202,-28.956,160.25,4.5011,-1.5004,-1.3031,6.0015,1.3602e-12,-0.65155,0,0,0.125,-1.1574e-15,0,0.66667
0.048717,0.11058,0.38973,-0.58413,-49.593,432.72,0.60708,-0.20236,-0.78756,0.80944,4.877e-07,-0.39378,0,0,0.125,-0,-0,0.66667
0.22657,0.15863,1.8126,-0.51205,-41.292,312.06,2.475,-0.825,-1.0667,3.3,7.7484e-11,-0.53333,0,0,0.125,5.9212e-16,0,0.66667
0.69626,0.28613,5.5701,-0.3208,-13.951,60.303,4.765,-1.5883,-1.6327,6.3533,6.3216e-12,-0.81634,0,0,0.125,-0,-0,0.66667
0.14114,0.030166,1.1291,-0.70475,-58.893,369.38,2.122,-0.70732,-0.23777,2.8293,1.4519e-08,-0.11889,0,0,0.125,3.7007e-16,0,0.66667
0.23059,0.78913,1.8447,0.43369,34.872,309.36,-2.1334,0.71115,-1.3307,-2.8446,-1.0916e-11,-0.66537,0,0,0.125,-5.9212e-16,0,0.66667
0.69479,0.574,5.5583,0.11099,4.8359,60.613,-1.6452,0.54839,-1.954,-2.1935,-4.0078e-12,-0.97702,0,0,0.125,1.1842e-15,0,0.66667
0.068365,0.09101,0.54692,-0.61349,-51.988,419.16,0.89475,-0.29825,-0.661,1.193,2.1429e-07,-0.3305,0,0,0.125,9.2519e-17,0,0.66667
0.72933,0.67694,5.8347,0.2654,10.465,48.751,-4.1295,1.3765,-1.7481,-5.5059,-1.3487e-11,-0.87404,0,0,0.125,-0,-0,0.66667
0.62746,0.66786,5.0197,0.25179,12.897,87.344,-3.3704,1.1235,-1.7748,-4.4939,-1.839e-12,-0.88742,0,0,0.125,-0,-0,0.66667
0.65207,0.26076,5.2165,-0.35886,-17.441,77.299,4.992,-1.664,-1.5411,6.656,4.0457e-13,-0.77055,0,0,0.125,-0,-0,0.66667
0.32147,0.049843,2.5717,-0.67524,-51.591,251.43,4.6307,-1.5436,-0.37674,6.1743,-3.0256e-12,-0.18837,0,0,0.125,-0,-0,0.66667
0.53844,0.55079,4.3075,0.076179,4.572,128.3,-0.87505,0.29168,-1.9772,-1.1667,-3.6182e-13,-0.9886,0,0,0.125,5.9212e-16,0,0.66667
0.078783,0.4845,0.63026,-0.023243,-1.9575,411.88,0.039064,-0.013021,-2.0001,0.052085,4.6126e-08,-1.0001,0,0,0.125,1.4803e-16,0,0.66667
0.28452,0.3005,2.2761,-0.29925,-23.322,274.32,1.8163,-0.60544,-1.6812,2.4218,-1.0503e-11,-0.84058,0,0,0.125,-0,-0,0.66667
0.20287,0.72393,1.6229,0.33589,27.326,327.64,-1.4537,0.48455,-1.6022,-1.9382,-1.8815e-10,-0.80109,0,0,0.125,-0,-0,0.66667
0.51135,0.74782,4.0908,0.37173,23.263,142.25,-4.0551,1.3517,-1.5087,-5.4068,2.4158e-13,-0.75435,0,0,0.125,-0,-0,0.66667
0.65221,0.47814,5.2177,-0.032787,-1.5886,76.945,0.45619,-0.15206,-1.9954,0.60825,1.4669e-13,-0.99768,0,0,0.125,-0,-0,0.66667
0.61509,0.40338,4.9207,-0.14493,-7.6071,92.574,1.9018,-0.63392,-1.9245,2.5357,-1.3263e-12,-0.96226,0,0,0.125,1.6283e-15,0,0.66667
0.13364,0.5529,1.0691,0.079344,6.604,374.25,-0.2262,0.075401,-1.9756,-0.3016,-3.3105e-09,-0.98781,0,0,0.125,-0,-0,0.66667
0.18016,0.45509,1.4412,-0.067359,-5.5224,342.75,0.25888,-0.086294,-1.9816,0.34518,3.423e-10,-0.9908,0,0,0.125,2.9606e-16,0,0.66667
0.49726,0.89243,3.9781,0.58865,37.679,149.94,-6.2444,2.0815,-0.7679,-8.3259,5.7554e-13,-0.38395,0,0,0.125,-5.9212e-16,0,0.66667
0.020049,0.61707,0.16039,0.1756,14.882,452.53,-0.075108,0.025036,-1.8894,-0.10014,1.2291e-08,-0.94472,0,0,0.125,1.8504e-17,0,0.66667
0.73614,0.27412,5.8891,-0.33883,-13.088,46.64,5.321,-1.7737,-1.5931,7.0947,1.5815e-11,-0.79657,0,0,0.125,-5.9212e-16,0,0.66667
0.59242,0.081343,4.7394,-0.62799,-34.671,103.45,7.9367,-2.6456,-0.59917,10.582,4.9205e-13,-0.29958,0,0,0.125,5.9212e-16,0,0.66667
0.15883,0.34742,1.2707,-0.22888,-18.917,357.16,0.77553,-0.25851,-1.8148,1.034,2.0975e-09,-0.90739,0,0,0.125,-0,-0,0.66667
0.91731,0.97515,7.3385,0.71273,9.6019,7.1329,-13.948,4.6492,-0.19304,-18.597,-7.5995e-08,-0.096518,0,0,0.125,-0,-1.9004e-16,0.66667
0.54373,0.84745,4.3498,0.52117,31.168,126.2,-6.0453,2.0151,-1.0348,-8.0604,-8.5976e-13,-0.51739,0,0,0.125,1.1842e-15,0,0.66667
0.99776,0.065581,7.9821,-0.65163,-0.15535,1.5352,13.87,-4.6234,-0.49171,18.494,1.5279e-05,-0.24586,0,0,0.125,2.3685e-15,1.5788e-16,0.66667
0.042324,0.2771,0.33859,-0.33435,-28.323,437.11,0.30189,-0.10063,-1.6021,0.40252,-9.7482e-08,-0.80103,0,0,0.125,7.4015e-17,0,0.66667
0.81295,0.48425,6.5036,-0.023619,-0.66972,24.518,0.40962,-0.13654,-2.0003,0.54616,-2.4106e-11,-1.0002,0,0,0.125,-1.1842e-15,0,0.66667
0.077381,0.34908,0.61905,-0.22638,-19.082,412.86,0.37371,-0.12457,-1.8205,0.49828,1.3753e-08,-0.91024,0,0,0.125,-0,-0,0.66667
0.94025,0.052189,7.522,-0.67172,-6.5679,4.5744,13.474,-4.4912,-0.3958,17.965,2.7565e-06,-0.1979,0,0,0.125,-1.1842e-15,0,0.66667
0.36144,0.74681,2.8915,0.37022,27.302,226.53,-2.8546,0.95155,-1.5143,-3.8062,-1.7872e-12,-0.75713,0,0,0.125,-1.4803e-16,0,0.66667
0.66661,0.32439,5.3329,-0.26341,-12.355,71.387,3.746,-1.2487,-1.7516,4.9947,1.0671e-12,-0.87582,0,0,0.125,1.1842e-15,0,0.66667
0.71461,0.3643,5.7169,-0.20355,-8.3897,53.653,3.1031,-1.0344,-1.8517,4.1375,8.0467e-12,-0.92585,0,0,0.125,5.9212e-16,0,0.66667
0.7131,0.18449,5.7048,-0.47327,-19.683,54.637,7.1997,-2.3999,-1.2028,9.5997,8.1237e-12,-0.60141,0,0,0.125,1.4803e-15,0,0.66667
0.69395,0.019381,5.5516,-0.72093,-31.861,62.17,10.673,-3.5576,-0.15,14.23,1.4015e-12,-0.074999,0,0,0.125,-2.3685e-15,0,0.66667
0.01165,0.79441,0.093197,0.44162,37.512,458.37,-0.10975,0.036585,-1.3056,-0.14634,-1.9737e-07,-0.65278,0,0,0.125,-1.8504e-17,0,0.66667
0.22048,0.35625,1.7638,-0.21562,-17.39,315.91,1.0142,-0.33806,-1.8356,1.3523,4.4696e-11,-0.91781,0,0,0.125,-0,-0,0.66667
0.79727,0.76274,6.3782,0.39411,12.087,28.899,-6.7033,2.2344,-1.4502,-8.9377,1.5213e-10,-0.72509,0,0,0.125,-0,-0,0.66667
0.78697,0.43065,6.2958,-0.10403,-3.3198,31.225,1.7465,-0.58216,-1.9601,2.3286,-1.2357e-11,-0.98006,0,0,0.125,5.9212e-16,0,0.66667
0.80166,0.25381,6.4133,-0.36928,-11.097,27.716,6.3156,-2.1052,-1.5146,8.4207,-1.8417e-10,-0.75729,0,0,0.125,-0,-0,0.66667
0.0078286,0.73778,0.062629,0.35666,30.272,461.01,-0.059567,0.019855,-1.5455,-0.079422,-3.4336e-07,-0.77274,0,0,0.125,9.2519e-18,0,0.66667
0.041346,0.66354,0.33077,0.2453,20.769,437.77,-0.21637,0.072124,-1.7847,-0.28849,1.0456e-07,-0.89234,0,0,0.125,-0,-0,0.66667
0.073826,0.71318,0.59061,0.31977,26.985,415.33,-0.50362,0.16787,-1.6359,-0.67149,-3.8793e-08,-0.81795,0,0,0.125,-0,-0,0.66667
0.87375,0.85433,6.99,0.53149,10.575,12.732,-9.907,3.3023,-0.99715,-13.209,2.1762e-09,-0.49857,0,0,0.125,-0,-1.6967e-17,0.66667
0.47744,0.18345,3.8195,-0.47483,-31.117,160.25,4.8363,-1.6121,-1.1971,6.4484,-8.6242e-13,-0.59853,0,0,0.125,-1.4803e-16,0,0.66667
0.73172,0.38486,5.8538,-0.17272,-6.7518,47.857,2.6961,-0.8987,-1.8941,3.5948,9.7673e-12,-0.94707,0,0,0.125,-0,-0,0.66667
0.21832,0.011827,1.7465,-0.73226,-59.488,317.72,3.4104,-1.1368,-0.095937,4.5473,1.0764e-10,-0.047969,0,0,0.125,-0,-0,0.66667
0.66983,0.74717,5.3586,0.37076,17.279,70.298,-5.298,1.766,-1.5129,-7.064,-3.0167e-12,-0.75647,0,0,0.125,-1.1842e-15,0,0.66667
0.44403,0.31563,3.5522,-0.27655,-18.807,178.33,2.6197,-0.87323,-1.727,3.4929,-1.6998e-12,-0.8635,0,0,0.125,1.1842e-15,0,0.66667
0.98864,0.26339,7.9091,-0.35492,-0.52351,0.65926,7.4856,-2.4952,-1.5509,9.9808,-1.6303e-07,-0.77546,0,0,0.125,-0,-0,0.66667
0.28625,0.46239,2.29,-0.05642,-4.3873,273.13,0.34454,-0.11485,-1.9877,0.45938,-4.4243e-12,-0.99383,0,0,0.125,1.4803e-16,0,0.66667
0.10849,0.67679,0.86795,0.26519,22.228,391.47,-0.61379,0.2046,-1.7519,-0.81838,-1.5306e-08,-0.87596,0,0,0.125,-0,-0,0.66667
0.5469,0.11601,4.3752,-0.57598,-34.312,124.76,6.7201,-2.24,-0.8236,8.9601,-3.8192e-13,-0.4118,0,0,0.125,-0,-0,0.66667
0.68117,0.99277,5.4494,0.73916,33.796,66.956,-10.741,3.5804,-0.055777,-14.322,9.0772e-13,-0.027889,0,0,0.125,-1.7764e-15,0,0.66667
0.13472,0.42222,1.0778,-0.11667,-9.7087,373.51,0.33531,-0.11177,-1.9496,0.44708,4.2586e-09,-0.9748,0,0,0.125,-4.556e-16,0,0.66667
0.53924,0.84777,4.314,0.52165,31.413,128.41,-6.001,2.0003,-1.0311,-8.0014,1.0383e-12,-0.51555,0,0,0.125,-1.1842e-15,0,0.66667
0.74439,0.19068,5.9551,-0.46399,-17.487,44.269,7.3683,-2.4561,-1.2337,9.8243,2.1832e-11,-0.61687,0,0,0.125,-0,-0,0.66667
0.11184,0.55352,0.89475,0.080277,6.7183,389.15,-0.19154,0.063847,-1.9775,-0.25539,-7.2668e-09,-0.98876,0,0,0.125,-1.4803e-16,0,0.66667
0.78567,0.93562,6.2854,0.65343,21.248,32.741,-10.952,3.6507,-0.48188,-14.603,2.2797e-10,-0.24094,0,0,0.125,4.4409e-16,0,0.66667
0.54416,0.41552,4.3533,-0.12671,-7.5393,125.5,1.471,-0.49033,-1.9431,1.9613,-5.3801e-13,-0.97155,0,0,0.125,-0,-0,0.66667
0.010525,0.60215,0.084196,0.15322,12.988,459.14,-0.034402,0.011467,-1.9152,-0.045869,3.0421e-08,-0.95761,0,0,0.125,-0,-0,0.66667
0.5891,0.8754,4.7128,0.5631,31.232,104.8,-7.0767,2.3589,-0.87279,-9.4355,-2.5611e-12,-0.43639,0,0,0.125,2.3685e-15,0,0.66667
0.80467,0.79198,6.4374,0.43798,13.006,27.113,-7.5184,2.5061,-1.3158,-10.025,1.8852e-10,-0.65791,0,0,0.125,-0,-0,0.66667
0.99094,0.46195,7.9275,-0.05707,-0.05471,0.16993,1.2065,-0.40216,-1.9868,1.6086,1.3275e-06,-0.99339,0,0,0.125,1.771e-15,0,0.66667
0.99131,0.64842,7.9305,0.22264,0.21034,0.32459,-4.7083,1.5694,-1.8219,-6.2777,1.4317e-07,-0.91097,0,0,0.125,-5.9212e-16,0,0.66667
0.41395,0.13027,3.3116,-0.55459,-39.069,195.76,4.8976,-1.6325,-0.90484,6.5301,1.4664e-12,-0.45242,0,0,0.125,-1.1842e-15,0,0.66667
0.037335,0.10977,0.29868,-0.58534,-49.746,440.59,0.46621,-0.1554,-0.77974,0.62162,1.5263e-06,-0.38987,0,0,0.125,-1.1823e-16,0,0.66667
0.97041,0.53089,7.7633,0.04634,0.20361,0.93444,-0.95933,0.31978,-1.9949,-1.2791,1.4877e-06,-0.99746,0,0,0.125,7.4015e-17,0,0.66667
0.22054,0.39546,1.7643,-0.15682,-12.643,315.85,0.7378,-0.24593,-1.9135,0.98373,3.857e-11,-0.95676,0,0,0.125,-0,-0,0.66667
0.95501,0.65072,7.6401,0.22608,1.5769,2.0443,-4.6061,1.5354,-1.8197,-6.1415,-8.244e-08,-0.90983,0,0,0.125,-0,-0,0.66667
0.96537,0.38426,7.723,-0.17361,-0.91235,1.305,3.5753,-1.1918,-1.8925,4.7671,8.3237e-08,-0.94625,0,0,0.125,-0,-0,0.66667
0.32834,0.055942,2.6267,-0.66609,-50.63,247.15,4.6656,-1.5552,-0.4257,6.2208,-2.4127e-12,-0.21285,0,0,0.125,-0,-0,0.66667
0.76276,0.99924,6.1021,0.74887,26.723,39.594,-12.186,4.0619,-0.007373,-16.248,1.9718e-12,-0.0036865,0,0,0.125,7.4015e-17,-1.3982e-17,0.66667
0.63192,0.10669,5.0554,-0.58996,-30.109,86.095,7.9533,-2.6511,-0.76028,10.604,6.346e-13,-0.38014,0,0,0.125,-1.1842e-15,0,0.66667
0.84643,0.89218,6.7714,0.58827,14.102,18.057,-10.622,3.5408,-0.76952,-14.163,-4.5679e-09,-0.38476,0,0,0.125,-0,-0,0.66667
0.9544,0.37234,7.6352,-0.19148,-1.3518,2.0392,3.8987,-1.2996,-1.8722,5.1983,4.21e-08,-0.93608,0,0,0.125,2.9606e-16,0,0.66667
0.2058,0.9087,1.6464,0.61306,49.98,325.87,-2.6916,0.89721,-0.66484,-3.5888,-2.7785e-10,-0.33242,0,0,0.125,-5.9212e-16,0,0.66667
0.40934,0.34792,3.2748,-0.22812,-16.084,198.04,1.9921,-0.66404,-1.8155,2.6562,-7.6639e-13,-0.90774,0,0,0.125,-0,-0,0.66667
0.72856,0.051773,5.8285,-0.67234,-26.843,49.996,10.45,-3.4833,-0.39094,13.933,2.4034e-12,-0.19547,0,0,0.125,-1.1842e-15,0,0.66667
0.58992,0.70393,4.7194,0.30589,16.87,103.95,-3.8496,1.2832,-1.6664,-5.1328,1.088e-14,-0.83318,0,0,0.125,-1.1842e-15,0,0.66667
0.9412,0.40722,7.5296,-0.13917,-1.2772,3.0455,2.7943,-0.93143,-1.9318,3.7257,-3.6141e-08,-0.96589,0,0,0.125,-0,-0,0.66667
0.44689,0.077457,3.5751,-0.63381,-43.178,177.25,6.0425,-2.0142,-0.56957,8.0567,-1.0307e-12,-0.28479,0,0,0.125,-0,-0,0.66667
0.61758,0.92022,4.9407,0.63033,33.165,92.315,-8.3047,2.7682,-0.58505,-11.073,-8.7663e-13,-0.29252,0,0,0.125,-0,-0,0.66667
0.082488,0.1309,0.65991,-0.55365,-46.777,409.41,0.97429,-0.32476,-0.90948,1.2991,4.0891e-08,-0.45474,0,0,0.125,-2.9606e-16,0,0.66667
0.23041,0.76424,1.8433,0.39636,31.86,309.45,-1.9483,0.64943,-1.4404,-2.5977,-1.1652e-11,-0.7202,0,0,0.125,-0,-0,0.66667
0.12199,0.112,0.97589,-0.582,-48.79,382.35,1.5146,-0.50486,-0.79536,2.0194,-3.6983e-09,-0.39768,0,0,0.125,-0,-2.5614e-17,0.66667
0.76669,0.71463,6.1335,0.32194,11.171,37.197,-5.2657,1.7552,-1.634,-7.0209,1.6742e-12,-0.81699,0,0,0.125,-1.4803e-15,0,0.66667
0.019268,0.29361,0.15415,-0.30959,-26.259,453.08,0.12726,-0.04242,-1.6585,0.16968,-1.5073e-07,-0.82923,0,0,0.125,-0,-0,0.66667
0.941,0.45598,7.528,-0.066025,-0.60701,3.013,1.3254,-0.44181,-1.9838,1.7672,-1.3e-07,-0.99192,0,0,0.125,-1.1842e-15,0,0.66667
0.83589,0.039249,6.6871,-0.69113,-17.708,20.659,12.324,-4.1081,-0.29977,16.433,2.4106e-09,-0.14988,0,0,0.125,-0,-0,0.66667
0.67901,0.97084,5.4321,0.70627,32.435,67.655,-10.231,3.4102,-0.22546,-13.641,5.56e-13,-0.11273,0,0,0.125,-0,-0,0.66667
0.02865,0.93276,0.2292,0.64913,55.252,446.61,-0.39675,0.13226,-0.50263,-0.529,8.6429e-06,-0.25131,0,0,0.125,-0,-0,0.66667
0.2579,0.43741,2.0632,-0.093888,-7.425,291.37,0.51655,-0.17218,-1.968,0.68874,-3.3429e-12,-0.98402,0,0,0.125,1.8041e-16,0,0.66667
0.13628,0.84959,1.0903,0.52439,43.761,372.57,-1.5246,0.5082,-1.0217,-2.0328,-7.4036e-09,-0.51083,0,0,0.125,-0,-0,0.66667
0.7107,0.32717,5.6856,-0.25925,-10.815,55.075,3.9306,-1.3102,-1.7587,5.2408,8.1233e-12,-0.87937,0,0,0.125,1.1842e-15,0,0.66667
0.069466,0.086263,0.55573,-0.62061,-52.589,418.41,0.9197,-0.30657,-0.62879,1.2263,1.2206e-07,-0.31439,0,0,0.125,-0,-0,0.66667
0.88989,0.4529,7.1191,-0.070649,-1.2137,9.237,1.3412,-0.44707,-1.9842,1.7883,-4.5674e-09,-0.99211,0,0,0.125,1.1842e-15,0,0.66667
0.55437,0.26041,4.435,-0.35939,-21.081,120.74,4.2503,-1.4168,-1.5387,5.6671,-8.9262e-14,-0.76933,0,0,0.125,-0,-0,0.66667
0.10339,0.14302,0.82711,-0.53547,-45.052,395.05,1.1811,-0.39369,-0.97853,1.5747,1.6981e-08,-0.48926,0,0,0.125,-0,-0,0.66667
0.46053,0.62673,3.6842,0.1901,12.678,169.12,-1.8676,0.62254,-1.8706,-2.4902,-2.2008e-12,-0.93529,0,0,0.125,1.1842e-15,0,0.66667
0.14199,0.44494,1.1359,-0.082593,-6.8582,368.56,0.25017,-0.083391,-1.9775,0.33357,2.8757e-09,-0.98873,0,0,0.125,-0,-0,0.66667
0.42314,0.39424,3.3851,-0.15863,-11.025,190.06,1.432,-0.47733,-1.912,1.9093,-7.9625e-13,-0.95598,0,0,0.125,-0,-0,0.66667
0.71387,0.435,5.711,-0.097497,-4.024,53.825,1.4848,-0.49494,-1.9658,1.9797,3.4979e-12,-0.98292,0,0,0.125,1.4803e-15,0,0.66667
0.69629,0.95678,5.5703,0.68517,30.055,61.197,-10.178,3.3926,-0.32868,-13.57,-2.2338e-12,-0.16434,0,0,0.125,1.1842e-15,0,0.66667
0.34815,0.67045,2.7852,0.25567,19.041,234.51,-1.8989,0.63297,-1.7663,-2.5319,-4.0901e-13,-0.88314,0,0,0.125,5.9212e-16,0,0.66667
0.34876,0.60419,2.7901,0.15629,11.627,234.09,-1.1628,0.3876,-1.9117,-1.5504,-1.6748e-12,-0.95585,0,0,0.125,5.9212e-16,0,0.66667
0.076125,0.95097,0.609,0.67645,57.315,413.84,-1.0985,0.36618,-0.37365,-1.4647,-9.6975e-07,-0.18683,0,0,0.125,-1.4803e-16,0,0.66667
0.087513,0.65898,0.7001,0.23848,20.069,405.88,-0.44522,0.14841,-1.7969,-0.59362,-2.2755e-08,-0.89843,0,0,0.125,-0,-0,0.66667
0.049881,0.17337,0.39905,-0.48995,-41.541,431.9,0.52137,-0.17379,-1.1462,0.69516,1.0352e-07,-0.57308,0,0,0.125,-0,-0,0.66667
0.074476,0.088519,0.59581,-0.61722,-52.261,414.95,0.98066,-0.32689,-0.64539,1.3075,2.2493e-07,-0.3227,0,0,0.125,3.7007e-17,4.1485e-18,0.66667
0.38509,0.84141,3.0807,0.51212,37.061,212.55,-4.2072,1.4024,-1.0669,-5.6096,2.3737e-12,-0.53343,0,0,0.125,-7.4015e-17,0,0.66667
0.81637,0.95834,6.531,0.68751,19.504,25.063,-11.974,3.9912,-0.31862,-15.965,1.8566e-09,-0.15931,0,0,0.125,-1.1842e-15,0,0.66667
0.34118,0.49237,2.7294,-0.01145,-0.85668,238.7,0.083341,-0.02778,-2,0.11112,-4.4995e-13,-1,0,0,0.125,8.8818e-16,0,0.66667
0.50612,0.15198,4.0489,-0.52203,-32.979,145.19,5.6364,-1.8788,-1.0299,7.5152,1.0401e-12,-0.51496,0,0,0.125,1.1879e-15,0,0.66667
0.62349,0.73148,4.9879,0.34721,17.952,89.165,-4.6183,1.5394,-1.5725,-6.1578,-2.9252e-12,-0.78624,0,0,0.125,1.1842e-15,0,0.66667
0.58529,0.71946,4.6823,0.3292,18.313,106.1,-4.1104,1.3701,-1.614,-5.4805,-3.9169e-13,-0.80699,0,0,0.125,-0,-0,0.66667
0.13388,0.96206,1.071,0.69309,58.025,374.31,-1.9795,0.65983,-0.29034,-2.6393,-1.0945e-08,-0.14517,0,0,0.125,-7.4015e-17,0,0.66667
0.61941,0.69096,4.9553,0.28644,14.922,90.831,-3.785,1.2617,-1.7074,-5.0467,-3.1219e-12,-0.85372,0,0,0.125,2.3685e-15,0,0.66667
0.52236,0.29755,4.1789,-0.30367,-18.694,136.53,3.384,-1.128,-1.6699,4.512,1.8057e-12,-0.83496,0,0,0.125,-6.1859e-16,0,0.66667
0.75148,0.084566,6.0118,-0.62315,-23.034,42.525,9.9901,-3.33,-0.62073,13.32,5.4077e-11,-0.31036,0,0,0.125,-5.9212e-16,0,0.66667
0.67568,0.23686,5.4054,-0.39471,-18.138,68.093,5.6896,-1.8965,-1.4452,7.5861,1.6458e-12,-0.72258,0,0,0.125,1.1842e-15,0,0.66667
0.47896,0.36711,3.8317,-0.19933,-13,159.12,2.0367,-0.67891,-1.8573,2.7156,2.5535e-14,-0.92867,0,0,0.125,-2.9606e-16,0,0.66667
0.95613,0.64978,7.6491,0.22466,1.5257,1.9631,-4.5826,1.5275,-1.8208,-6.1101,-8.4527e-08,-0.91039,0,0,0.125,1.1842e-15,0,0.66667
0.26092,0.3591,2.0873,-0.21135,-16.694,289.45,1.1764,-0.39215,-1.8397,1.5686,-1.5204e-11,-0.91984,0,0,0.125,-5.9212e-16,0,0.66667
0.71065,0.80208,5.6852,0.45312,18.971,55.442,-6.8696,2.2899,-1.2679,-9.1594,-9.8859e-12,-0.63393,0,0,0.125,-0,-0,0.66667
0.20164,0.60542,1.6131,0.15812,12.856,328.39,-0.6802,0.22673,-1.9123,-0.90693,-1.3872e-10,-0.95616,0,0,0.125,-0,-0,0.66667
0.66362,0.81815,5.3089,0.47722,22.623,72.934,-6.7561,2.252,-1.1887,-9.0082,-2.2626e-12,-0.59433,0,0,0.125,-0,-0,0.66667
0.24952,0.23314,1.9961,-0.4003,-31.865,296.96,2.1308,-0.71026,-1.4326,2.841,-1.9659e-11,-0.71628,0,0,0.125,-0,-0,0.66667
0.20625,0.31008,1.65,-0.28489,-23.134,325.36,1.2535,-0.41783,-1.7122,1.6713,1.4917e-10,-0.85611,0,0,0.125,-3.7007e-16,0,0.66667
0.37017,0.025093,2.9614,-0.71236,-52.418,221.76,5.6255,-1.8752,-0.19479,7.5007,-1.358e-12,-0.097393,0,0,0.125,-0,-0,0.66667
0.50886,0.39287,4.0709,-0.16069,-10.072,143.33,1.7444,-0.58147,-1.906,2.3259,-9.9043e-13,-0.95301,0,0,0.125,5.9212e-16,0,0.66667
0.68093,0.94056,5.4474,0.66084,30.159,66.783,-9.5997,3.1999,-0.44617,-12.8,2.5491e-13,-0.22308,0,0,0.125,-0,-0,0.66667
0.3096,0.69843,2.4768,0.29764,22.818,258.44,-1.9658,0.65528,-1.6849,-2.6211,1.586e-12,-0.84246,0,0,0.125,-0,-0,0.66667
0.38234,0.014758,3.0587,-0.72786,-53.007,214.54,5.9368,-1.9789,-0.11404,7.9158,5.0848e-13,-0.057019,0,0,0.125,-0,-0,0.66667
0.76093,0.98273,6.0874,0.7241,25.984,40.037,-11.754,3.9181,-0.13431,-15.672,8.3933e-13,-0.067156,0,0,0.125,-1.1842e-15,0,0.66667
0.33003,0.69773,2.6402,0.29659,22.407,245.69,-2.0882,0.69607,-1.6881,-2.7843,1.3525e-12,-0.84405,0,0,0.125,-0,-0,0.66667
0.063799,0.90406,0.5104,0.60609,51.386,422.31,-0.82492,0.27497,-0.69648,-1.0999,6.8835e-08,-0.34824,0,0,0.125,-9.2519e-17,0,0.66667
0.046104,0.46968,0.36884,-0.045476,-3.846,434.47,0.044729,-0.01491,-1.9961,0.059638,-5.4928e-07,-0.99804,0,0,0.125,-0,-0,0.66667
0.13493,0.090602,1.0794,-0.6141,-51.331,373.55,1.7676,-0.58921,-0.65831,2.3568,2.1277e-08,-0.32915,0,0,0.125,1.8504e-16,0,0.66667
0.46952,0.8339,3.7561,0.50085,33.155,164.57,-5.0166,1.6722,-1.1103,-6.6889,5.107e-14,-0.55513,0,0,0.125,-0,-0,0.66667
0.3841,0.41569,3.0728,-0.12647,-9.1281,212.79,1.0363,-0.34544,-1.9412,1.3817,7.9159e-13,-0.97062,0,0,0.125,-0,-0,0.66667
0.6752,0.17222,5.4016,-0.49167,-22.665,68.483,7.0822,-2.3607,-1.1399,9.4429,1.7413e-12,-0.56994,0,0,0.125,-0,-0,0.66667
0.095395,0.35155,0.76316,-0.22268,-18.71,400.45,0.45317,-0.15106,-1.8251,0.60422,1.7842e-08,-0.91253,0,0,0.125,-0,-0,0.66667
0.1618,0.388,1.2944,-0.168,-13.867,355.13,0.57989,-0.1933,-1.8978,0.77319,1.3826e-09,-0.94892,0,0,0.125,2.9606e-16,0,0.66667
0.96914,0.34178,7.7532,-0.23733,-1.1059,1.187,4.9067,-1.6356,-1.8034,6.5423,1.1421e-07,-0.90172,0,0,0.125,-4.4409e-16,0,0.66667
0.42449,0.22941,3.3959,-0.40589,-28.228,189.51,3.6756,-1.2252,-1.4144,4.9008,-2.367e-13,-0.7072,0,0,0.125,-0,-0,0.66667
0.91605,0.32726,7.3284,-0.25911,-3.4234,5.8463,5.0637,-1.6879,-1.7593,6.7517,-2.3052e-08,-0.87966,0,0,0.125,-0,-0,0.66667
0.23435,0.3619,1.8748,-0.20714,-16.594,306.77,1.0356,-0.3452,-1.8503,1.3808,5.1352e-12,-0.92517,0,0,0.125,2.9606e-16,0,0.66667
0.98255,0.069165,7.8604,-0.64625,-1.811,1.8636,13.546,-4.5154,-0.51634,18.061,-1.8393e-07,-0.25817,0,0,0.125,2.3685e-15,0,0.66667
0.12649,0.55562,1.0119,0.083424,6.9569,379.12,-0.22511,0.075038,-1.9769,-0.30015,-1.0575e-09,-0.98845,0,0,0.125,-0,-0,0.66667
0.77992,0.33681,6.2394,-0.24479,-8.055,33.299,4.0729,-1.3576,-1.7888,5.4306,-5.1217e-11,-0.89438,0,0,0.125,-0,-0,0.66667
0.98063,0.98689,7.8451,0.73033,2.3687,2.3337,-15.279,5.0929,-0.10267,-20.371,-1.2955e-05,-0.051335,0,0,0.125,-1.1842e-15,0,0.66667
0.48703,0.91383,3.8962,0.62075,40.292,155.4,-6.4495,2.1498,-0.63037,-8.5993,2.0739e-13,-0.31519,0,0,0.125,-0,-0,0.66667
0.48989,0.0087591,3.9191,-0.73686,-47.774,154.16,7.7009,-2.567,-0.067936,10.268,1.1995e-12,-0.033968,0,0,0.125,-0,-0,0.66667
0.17515,0.1629,1.4012,-0.50564,-41.664,346.27,1.8893,-0.62977,-1.0909,2.5191,4.0024e-10,-0.54547,0,0,0.125,-0,-0,0.66667
0.60894,0.28507,4.8715,-0.32239,-17.156,95.447,4.1881,-1.396,-1.6338,5.5842,-7.6117e-13,-0.81688,0,0,0.125,-0,-0,0.66667
0.24288,0.012775,1.9431,-0.73084,-58.664,301.61,3.7868,-1.2623,-0.09869,5.0491,2.6308e-11,-0.049345,0,0,0.125,-0,-0,0.66667
0.7168,0.099254,5.7344,-0.60112,-24.815,53.714,9.1921,-3.064,-0.71656,12.256,4.5457e-12,-0.35828,0,0,0.125,-0,9.0518e-17,0.66667
0.47407,0.30264,3.7925,-0.29604,-19.439,161.83,2.9939,-0.99798,-1.6869,3.9919,3.5882e-13,-0.84343,0,0,0.125,-0,-0,0.66667
0.23239,0.26393,1.8591,-0.35411,-28.425,308.13,1.7555,-0.58518,-1.5548,2.3407,-4.7202e-12,-0.77739,0,0,0.125,-0,-0,0.66667
0.46068,0.37624,3.6854,-0.18563,-12.377,169.04,1.8244,-0.60813,-1.8766,2.4325,-1.3767e-14,-0.93831,0,0,0.125,-1.1842e-15,0,0.66667
0.024607,0.50149,0.19686,0.002233,0.18913,449.37,-0.0011722,0.00039418,-1.9992,-0.0015612,5.1589e-06,-0.9996,0,0,0.125,-0,-0,0.66667
0.097131,0.43378,0.77705,-0.099325,-8.3388,399.25,0.20581,-0.068605,-1.9653,0.27442,7.3355e-09,-0.98264,0,0,0.125,-1.8504e-16,0,0.66667
0.10145,0.42528,0.81164,-0.11208,-9.4015,396.28,0.24258,-0.080859,-1.9531,0.32343,1.5346e-08,-0.97656,0,0,0.125,-1.4803e-16,0,0.66667
0.38922,0.12442,3.1138,-0.56338,-40.648,210.18,4.6779,-1.5593,-0.87428,6.2372,1.2834e-13,-0.43714,0,0,0.125,-1.8504e-16,0,0.66667
0.71597,0.010907,5.7277,-0.73364,-30.494,54.449,11.206,-3.7352,-0.086312,14.941,-4.1922e-13,-0.043156,0,0,0.125,-0,1.3453e-16,0.66667
0.052882,0.3437,0.42306,-0.23445,-19.827,429.79,0.26449,-0.088164,-1.8042,0.35266,-3.6983e-08,-0.90212,0,0,0.125,-9.1651e-17,0,0.66667
0.012488,0.55875,0.099904,0.088124,7.468,457.78,-0.023477,0.0078254,-1.9729,-0.031303,-5.0837e-07,-0.98647,0,0,0.125,4.6259e-18,0,0.66667
0.14747,0.85479,1.1798,0.53219,44.272,364.98,-1.6743,0.55809,-0.9909,-2.2324,-2.0667e-09,-0.49545,0,0,0.125,-0,-0,0.66667
0.93668,0.72859,7.4934,0.34288,3.4301,3.789,-6.8516,2.2839,-1.5841,-9.1355,2.7469e-08,-0.79204,0,0,0.125,2.3685e-15,0,0.66667
0.86574,0.22478,6.9259,-0.41283,-8.6568,13.802,7.6245,-2.5415,-1.3926,10.166,-6.582e-09,-0.69628,0,0,0.125,-2.3685e-15,0,0.66667
0.40252,0.88777,3.2202,0.58166,41.458,202.42,-4.9948,1.6649,-0.79623,-6.6597,1.5015e-12,-0.39812,0,0,0.125,5.9212e-16,0,0.66667
0.16129,0.76328,1.2904,0.39492,32.657,355.55,-1.3589,0.45297,-1.4438,-1.8119,-1.7963e-09,-0.72192,0,0,0.125,-0,-0,0.66667
0.35482,0.79219,2.8386,0.43828,32.523,230.6,-3.3176,1.1059,-1.3158,-4.4235,-2.8799e-13,-0.65789,0,0,0.125,-0,-0,0.66667
0.93483,0.33782,7.4787,-0.24327,-2.4905,3.7715,4.8515,-1.6172,-1.7902,6.4687,-6.3973e-10,-0.8951,0,0,0.125,5.9212e-16,0,0.66667
0.64355,0.88129,5.1484,0.57194,28.453,81.22,-7.8522,2.6174,-0.83726,-10.47,-9.7833e-13,-0.41863,0,0,0.125,-0,-0,0.66667
0.47107,0.8897,3.7685,0.58454,38.678,163.88,-5.8743,1.9581,-0.78537,-7.8325,-7.7716e-13,-0.39269,0,0,0.125,-0,-0,0.66667
0.40237,0.24072,3.2189,-0.38892,-27.649,202.24,3.3384,-1.1128,-1.4615,4.4512,-4.2122e-13,-0.73075,0,0,0.125,-2.9606e-16,0,0.66667
0.89655,0.85186,7.1724,0.52779,8.6806,9.1137,-10.095,3.3649,-1.008,-13.46,2.7656e-08,-0.50398,0,0,0.125,-0,-0,0.66667
0.97347,0.04841,7.7878,-0.67739,-2.9532,2.3649,14.068,-4.6892,-0.36706,18.757,2.3708e-05,-0.18353,0,0,0.125,-0,-0,0.66667
0.77868,0.38502,6.2294,-0.17247,-5.6985,33.564,2.8651,-0.95502,-1.8945,3.8201,-3.3773e-11,-0.94724,0,0,0.125,-0,-0,0.66667
0.83334,0.52676,6.6667,0.040142,1.0233,19.801,-0.71365,0.23788,-1.9934,-0.95153,-3.0857e-10,-0.9967,0,0,0.125,-1.1842e-15,0,0.66667
0.30709,0.11486,2.4567,-0.57771,-44.512,260.28,3.7847,-1.2616,-0.81171,5.0463,-4.2499e-13,-0.40586,0,0,0.125,2.9606e-16,0,0.66667
0.93952,0.32229,7.5161,-0.26656,-2.5325,3.3697,5.3427,-1.7809,-1.7482,7.1236,9.2886e-09,-0.87408,0,0,0.125,-0,-0,0.66667
0.4527,0.30996,3.6216,-0.28506,-19.198,173.51,2.753,-0.91766,-1.7146,3.6706,-3.2685e-13,-0.85731,0,0,0.125,-1.6203e-16,0,0.66667
0.17931,0.46583,1.4344,-0.05126,-4.2038,343.32,0.19608,-0.06536,-1.9895,0.26144,4.722e-10,-0.99475,0,0,0.125,-7.4015e-17,0,0.66667
0.5963,0.74654,4.7704,0.36981,20.173,101.15,-4.7044,1.5681,-1.5148,-6.2726,-1.346e-12,-0.75741,0,0,0.125,-0,-0,0.66667
0.6841,0.58017,5.4728,0.12026,5.391,64.566,-1.755,0.58501,-1.948,-2.3401,-4.2606e-12,-0.97398,0,0,0.125,1.1842e-15,0,0.66667
0.43734,0.13403,3.4987,-0.54895,-37.735,182.43,5.1217,-1.7072,-0.93156,6.8289,-1.644e-12,-0.46578,0,0,0.125,-0,1.3407e-16,0.66667
0.37334,0.74478,2.9868,0.36716,26.801,219.36,-2.9244,0.97478,-1.5224,-3.8991,-1.6727e-12,-0.76118,0,0,0.125,-2.9606e-16,0,0.66667
0.70431,0.47125,5.6345,-0.04312,-1.8292,57.158,0.6479,-0.21597,-1.996,0.86386,1.5545e-12,-0.99802,0,0,0.125,-0,-0,0.66667
0.25974,0.13312,2.0779,-0.55031,-43.644,290.45,3.0494,-1.0165,-0.92162,4.0658,-2.86e-11,-0.46081,0,0,0.125,-0,-0,0.66667
0.68635,0.86072,5.4908,0.54109,24.271,64.407,-7.9226,2.6409,-0.96051,-10.564,-3.2596e-12,-0.48026,0,0,0.125,1.1842e-15,-4.3678e-17,0.66667
0.57492,0.71539,4.5994,0.32308,18.303,110.91,-3.9626,1.3209,-1.6294,-5.2834,-1.2403e-12,-0.81471,0,0,0.125,1.4803e-15,0,0.66667
0.33501,0.38039,2.6801,-0.17942,-13.493,242.54,1.2823,-0.42742,-1.884,1.7097,-1.1497e-12,-0.94202,0,0,0.125,-0,-0,0.66667
0.67669,0.88759,5.4135,0.58139,26.759,68.146,-8.3929,2.7976,-0.79671,-11.191,-2.5171e-12,-0.39836,0,0,0.125,1.1842e-15,0,0.66667
0.042896,0.13669,0.34317,-0.54496,-46.268,436.74,0.4987,-0.16623,-0.94311,0.66493,7.7659e-07,-0.47156,0,0,0.125,-0,-0,0.66667
0.54883,0.72644,4.3906,0.33966,20.097,123.4,-3.9769,1.3256,-1.5909,-5.3025,2.8777e-13,-0.79543,0,0,0.125,-1.1842e-15,0,0.66667
0.5956,0.042348,4.7648,-0.68648,-37.734,102.17,8.7225,-2.9075,-0.32531,11.63,1.6938e-12,-0.16266,0,0,0.125,-0,-0,0.66667
0.28722,0.63992,2.2978,0.20988,16.319,272.55,-1.286,0.42866,-1.8414,-1.7146,6.39e-12,-0.92069,0,0,0.125,-0,-0,0.66667
0.35628,0.8629,2.8503,0.54435,40.405,229.85,-4.1375,1.3792,-0.94609,-5.5166,1.9345e-12,-0.47305,0,0,0.125,-5.9212e-16,0,0.66667
0.86302,0.97445,6.9041,0.71167,15.457,15.331,-13.103,4.3675,-0.19906,-17.47,2.7066e-08,-0.099529,0,0,0.125,-0,-0,0.66667
0.61937,0.28437,4.955,-0.32345,-16.859,90.899,4.2738,-1.4246,-1.6272,5.6984,-1.9305e-12,-0.81361,0,0,0.125,2.3685e-15,0,0.66667
0.63994,0.61974,5.1195,0.17961,8.9515,82.034,-2.4521,0.81737,-1.8881,-3.2695,-1.8898e-12,-0.94404,0,0,0.125,5.9212e-16,0,0.66667
0.10461,0.96779,0.83689,0.70168,59.17,394.29,-1.5659,0.52198,-0.24941,-2.0879,-4.4266e-07,-0.1247,0,0,0.125,5.5511e-17,0,0.66667
0.23792,0.6579,1.9033,0.23685,18.943,304.44,-1.2022,0.40072,-1.8012,-1.6029,8.2201e-13,-0.90058,0,0,0.125,-0,-0,0.66667
0.71928,0.009716,5.7542,-0.73543,-30.272,53.327,11.285,-3.7616,-0.079436,15.046,-5.2065e-12,-0.039718,0,0,0.125,2.3685e-15,0,0.66667
0.69947,0.16882,5.5958,-0.49677,-21.488,59.5,7.4128,-2.4709,-1.1218,9.8837,5.0884e-12,-0.5609,0,0,0.125,-1.1842e-15,0,0.66667
0.44662,0.39028,3.573,-0.16458,-11.151,176.8,1.5681,-0.52269,-1.9015,2.0908,-1.4011e-13,-0.95077,0,0,0.125,5.9212e-16,0,0.66667
0.039252,0.45917,0.31402,-0.06124,-5.1823,439.22,0.051281,-0.017094,-1.9846,0.068375,-4.3876e-07,-0.99231,0,0,0.125,-0,-0,0.66667
0.050396,0.52244,0.40317,0.033667,2.846,431.5,-0.036196,0.012065,-1.9956,-0.048261,4.175e-08,-0.99778,0,0,0.125,-7.4015e-17,0,0.66667
0.088504,0.63435,0.70803,0.20153,16.953,405.19,-0.38049,0.12683,-1.8541,-0.50733,-1.0656e-08,-0.92707,0,0,0.125,-0,-0,0.66667
0.86433,0.31429,6.9146,-0.27857,-5.8726,13.774,5.1365,-1.7122,-1.7238,6.8487,-6.1611e-09,-0.86191,0,0,0.125,-0,-0,0.66667
0.13609,0.1409,1.0888,-0.53865,-44.962,372.71,1.5639,-0.5213,-0.96697,2.0852,1.879e-09,-0.48349,0,0,0.125,-0,-0,0.66667
0.65826,0.20135,5.2661,-0.44797,-21.495,74.986,6.2908,-2.0969,-1.2871,8.3878,6.2572e-13,-0.64353,0,0,0.125,-0,-0,0.66667
0.57697,0.18307,4.6157,-0.47539,-26.897,110.2,5.8514,-1.9505,-1.1988,7.8019,1.4877e-13,-0.5994,0,0,0.125,-0,-0,0.66667
0.7266,0.93175,5.8128,0.64763,25.992,50.561,-10.039,3.3462,-0.50709,-13.385,-6.4437e-12,-0.25355,0,0,0.125,-0,-0,0.66667
0.58257,0.65481,4.6606,0.23222,12.968,107.24,-2.8861,0.96202,-1.8083,-3.8481,-1.7202e-12,-0.90417,0,0,0.125,3.7007e-16,0,0.66667
0.17942,0.46234,1.4353,-0.056495,-4.6329,343.24,0.21624,-0.07208,-1.9869,0.28832,4.3668e-10,-0.99347,0,0,0.125,-0,-0,0.66667
0.73408,0.64469,5.8727,0.21704,8.4244,47.13,-3.399,1.133,-1.8351,-4.532,-1.276e-11,-0.91757,0,0,0.125,-1.1842e-15,0,0.66667
0.59544,0.12312,4.7636,-0.56531,-30.994,101.92,7.1811,-2.3937,-0.86592,9.5748,1.422e-12,-0.43296,0,0,0.125,5.9212e-16,0,0.66667
0.54618,0.031394,4.3695,-0.70291,-42.038,125.43,8.1903,-2.7301,-0.24697,10.92,-2.2498e-12,-0.12349,0,0,0.125,2.3685e-15,-2.7213e-18,0.66667
0.72712,0.81886,5.817,0.47829,19.07,49.893,-7.4192,2.4731,-1.185,-9.8922,-9.1553e-12,-0.59248,0,0,0.125,-0,-0,0.66667
0.31395,0.7762,2.5116,0.4143,31.701,255.8,-2.7748,0.92493,-1.3916,-3.6997,6.7275e-12,-0.69582,0,0,0.125,-5.9212e-16,0,0.66667
0.070608,0.36837,0.56486,-0.19745,-16.658,417.53,0.29742,-0.09914,-1.8596,0.39656,1.6167e-08,-0.92982,0,0,0.125,-0,-0,0.66667
0.088214,0.24035,0.70571,-0.38947,-32.81,405.43,0.73295,-0.24432,-1.4591,0.97726,2.8831e-08,-0.72953,0,0,0.125,-0,-0,0.66667
0.32773,0.16596,2.6218,-0.50106,-38.003,247.3,3.5032,-1.1677,-1.11,4.6709,-1.7253e-12,-0.55499,0,0,0.125,-0,-7.0328e-17,0.66667
0.23168,0.27243,1.8535,-0.34135,-27.407,308.58,1.6872,-0.56239,-1.586,2.2495,-2.196e-13,-0.79298,0,0,0.125,-0,-0,0.66667
0.74822,0.79584,5.9857,0.44375,16.5,43.023,-7.0832,2.3611,-1.3007,-9.4443,-1.715e-11,-0.65033,0,0,0.125,-1.1842e-15,0,0.66667
0.60764,0.93684,4.8611,0.65527,35.18,96.724,-8.4942,2.8314,-0.47576,-11.326,-1.9051e-12,-0.23788,0,0,0.125,1.4803e-15,-1.2179e-17,0.66667
0.095431,0.94941,0.76345,0.67411,56.925,400.57,-1.3724,0.45747,-0.38525,-1.8299,-3.146e-08,-0.19263,0,0,0.125,-0,-0,0.66667
0.71985,0.45678,5.7588,-0.064827,-2.6278,51.76,0.99554,-0.33185,-1.9867,1.3274,3.647e-12,-0.99334,0,0,0.125,-1.1842e-15,0,0.66667
0.9161,0.98994,7.3288,0.73492,10.065,7.3814,-14.363,4.7876,-0.077899,-19.15,-4.7047e-08,-0.038949,0,0,0.125,2.3685e-15,0,0.66667
0.82438,0.18212,6.595,-0.47682,-12.871,22.479,8.3858,-2.7953,-1.1915,11.181,-5.34e-10,-0.59573,0,0,0.125,1.7764e-15,0,0.66667
0.67331,0.43523,5.3865,-0.097159,-4.4765,68.65,1.3956,-0.46519,-1.9689,1.8608,6.7035e-13,-0.98443,0,0,0.125,2.9606e-16,0,0.66667
0.77664,0.41129,6.2131,-0.13306,-4.4307,34.102,2.2046,-0.73487,-1.9364,2.9395,-2.5045e-11,-0.9682,0,0,0.125,-0,-0,0.66667
0.15012,0.97693,1.201,0.71539,59.633,363.3,-2.2911,0.76371,-0.17866,-3.0549,4.288e-09,-0.08933,0,0,0.125,2.9606e-16,0,0.66667
0.065513,0.43656,0.5241,-0.095165,-8.0312,421.04,0.133,-0.044334,-1.969,0.17734,-1.5012e-08,-0.98448,0,0,0.125,3.7007e-17,0,0.66667
0.74798,0.59705,5.9838,0.14558,5.3909,42.629,-2.323,0.77434,-1.9263,-3.0973,-5.2627e-12,-0.96313,0,0,0.125,-2.3685e-15,0,0.66667
0.98478,0.3791,7.8783,-0.18135,-0.36781,0.4449,3.8098,-1.2699,-1.8864,5.0798,-6.0565e-08,-0.94319,0,0,0.125,-0,-0,0.66667
0.24024,0.34967,1.9219,-0.22549,-18.012,302.91,1.1557,-0.38523,-1.8179,1.5409,-4.0501e-12,-0.90894,0,0,0.125,-0,-0,0.66667
0.56194,0.65792,4.4955,0.23687,13.706,116.95,-2.8396,0.94655,-1.804,-3.7862,-1.5232e-13,-0.90202,0,0,0.125,-0,-0,0.66667
0.080826,0.021624,0.64661,-0.71756,-60.797,410.62,1.2373,-0.41243,-0.16942,1.6497,4.6471e-07,-0.084712,0,0,0.125,-0,-0,0.66667
0.56119,0.93798,4.4895,0.65697,38.317,118.06,-7.8652,2.6217,-0.46829,-10.487,-4.6674e-13,-0.23414,0,0,0.125,2.3685e-15,-8.9647e-18,0.66667
0.45044,0.053266,3.6035,-0.6701,-45.501,175.36,6.4392,-2.1464,-0.40365,8.5856,-1.7901e-12,-0.20182,0,0,0.125,5.9212e-16,-1.2327e-16,0.66667
0.24055,0.17723,1.9244,-0.48416,-38.76,302.87,2.4846,-0.8282,-1.1647,3.3128,-1.751e-11,-0.58233,0,0,0.125,-0,-0,0.66667
0.56538,0.38539,4.523,-0.17191,-9.8856,115.26,2.0735,-0.69117,-1.8949,2.7647,1.1036e-13,-0.94744,0,0,0.125,-1.1842e-15,0,0.66667
0.65399,0.91808,5.2319,0.62713,30.516,77.139,-8.7496,2.9165,-0.60207,-11.666,4.1744e-13,-0.30104,0,0,0.125,-1.1842e-15,0,0.66667
0.91167,0.98864,7.2934,0.73297,10.542,7.9118,-14.255,4.7518,-0.088123,-19.007,-2.5441e-07,-0.044062,0,0,0.125,-1.1842e-15,0,0.66667
0.78264,0.47761,6.2612,-0.03358,-1.0907,32.381,0.56067,-0.18689,-1.9975,0.74756,-3.2669e-11,-0.99876,0,0,0.125,-0,-0,0.66667
0.97683,0.18807,7.8146,-0.46789,-1.6622,1.3867,9.7503,-3.2501,-1.2209,13,1.0707e-06,-0.61045,0,0,0.125,2.3685e-15,0,0.66667
0.44272,0.24631,3.5417,-0.38053,-25.943,179.17,3.594,-1.198,-1.4844,4.792,3.2241e-13,-0.74221,0,0,0.125,5.9212e-16,0,0.66667
0.14102,0.98614,1.1282,0.72921,60.965,369.48,-2.1938,0.73127,-0.11175,-2.9251,-8.162e-09,-0.055875,0,0,0.125,-2.9606e-16,0,0.66667
0.40997,0.3371,3.2797,-0.24435,-17.219,197.69,2.1371,-0.71237,-1.7874,2.8495,-1.0387e-12,-0.8937,0,0,0.125,-2.9606e-16,0,0.66667
0.7923,0.71937,6.3384,0.32906,10.298,30.071,-5.5619,1.854,-1.6152,-7.4159,1.2226e-10,-0.80758,0,0,0.125,2.3685e-15,0,0.66667
0.21104,0.72377,1.6883,0.33566,27.211,322.21,-1.5112,0.50372,-1.5979,-2.0149,-9.5475e-11,-0.79895,0,0,0.125,5.9212e-16,0,0.66667
0.17738,0.11632,1.4191,-0.57552,-47.428,344.82,2.1778,-0.72595,-0.8208,2.9038,1.6143e-10,-0.4104,0,0,0.125,1.4803e-16,0,0.66667
0.6451,0.96021,5.1608,0.69032,34.331,80.927,-9.5003,3.1668,-0.30462,-12.667,1.581e-13,-0.15231,0,0,0.125,5.9212e-16,0,0.66667
0.94704,0.0022828,7.5763,-0.74658,-6.5656,4.3582,15.083,-5.0278,-0.017408,20.111,7.4166e-07,-0.0087038,0,0,0.125,-0,-0,0.66667
0.40926,0.65573,3.2741,0.2336,16.472,198.09,-2.0395,0.67985,-1.8072,-2.7194,-9.5879e-13,-0.90362,0,0,0.125,-2.4055e-16,0,0.66667
0.69687,0.18304,5.575,-0.47544,-20.703,60.385,7.0682,-2.3561,-1.1951,9.4242,3.1966e-12,-0.59753,0,0,0.125,5.9212e-16,0,0.66667
0.40397,0.80808,3.2318,0.46212,32.832,201.4,-3.9826,1.3275,-1.2419,-5.3101,1.847e-12,-0.62094,0,0,0.125,-8.8818e-16,0,0.66667
0.34982,0.86577,2.7985,0.54866,40.941,233.79,-4.0945,1.3648,-0.92794,-5.4593,-2.176e-14,-0.46397,0,0,0.125,-2.9606e-16,0,0.66667
0.13297,0.8846,1.0638,0.57689,48.22,374.86,-1.6365,0.54549,-0.81464,-2.1819,-5.7363e-09,-0.40732,0,0,0.125,-0,-0,0.66667
0.019913,0.9709,0.1593,0.70634,60.204,452.66,-0.30006,0.10003,-0.22605,-0.40007,1.6822e-05,-0.11303,0,0,0.125,-0,-0,0.66667
0.11967,0.35455,0.95737,-0.21818,-18.235,383.8,0.557,-0.18567,-1.8291,0.74267,9.02e-09,-0.91457,0,0,0.125,-0,-0,0.66667
0.44424,0.55486,3.5539,0.082295,5.5892,178.1,-0.77992,0.25997,-1.9742,-1.0399,-1.7308e-12,-0.98708,0,0,0.125,-2.9606e-16,0,0.66667
0.72978,0.088672,5.8383,-0.61699,-24.493,49.406,9.6058,-3.2019,-0.64583,12.808,4.7615e-12,-0.32292,0,0,0.125,-2.9606e-16,0,0.66667
0.05369,0.22257,0.42952,-0.41615,-35.241,429.25,0.47666,-0.15889,-1.383,0.63554,1.325e-08,-0.6915,0,0,0.125,1.4803e-16,0,0.66667
0.22167,0.46032,1.7733,-0.059516,-4.7947,315.09,0.28145,-0.093816,-1.9875,0.37526,1.1208e-11,-0.99375,0,0,0.125,-1.4803e-16,0,0.66667
0.031064,0.82726,0.24852,0.49088,41.685,444.92,-0.32531,0.10844,-1.1459,-0.43375,7.2029e-07,-0.57295,0,0,0.125,-0,3.3007e-17,0.66667
0.83332,0.0098636,6.6666,-0.7352,-19.154,21.402,13.07,-4.3567,-0.076639,17.427,-6.5873e-10,-0.03832,0,0,0.125,-0,-0,0.66667
0.38188,0.25125,3.055,-0.37313,-27.033,214.28,3.0398,-1.0133,-1.5042,4.053,-1.6698e-13,-0.7521,0,0,0.125,1.1842e-15,0,0.66667
0.28458,0.86424,2.2766,0.54636,42.698,274.49,-3.317,1.1057,-0.93819,-4.4227,4.4005e-12,-0.4691,0,0,0.125,-0,-0,0.66667
0.78367,0.70085,6.2694,0.30128,9.7728,32.348,-5.0369,1.679,-1.6775,-6.7159,5.691e-11,-0.83874,0,0,0.125,-0,-0,0.66667
0.2789,0.33684,2.2312,-0.24474,-19.133,277.88,1.4562,-0.48541,-1.7878,1.9416,-1.0389e-11,-0.8939,0,0,0.125,1.4803e-16,0,0.66667
0.28082,0.65141,2.2465,0.22712,17.732,276.65,-1.3606,0.45354,-1.8197,-1.8142,6.8491e-12,-0.90987,0,0,0.125,-0,-0,0.66667
0.935,0.29637,7.48,-0.30545,-3.1296,3.8685,6.0927,-2.0309,-1.6684,8.1236,-1.8812e-08,-0.83419,0,0,0.125,-0,-0,0.66667
0.16421,0.064978,1.3137,-0.65253,-54.089,353.74,2.286,-0.762,-0.48495,3.048,-7.7932e-09,-0.24248,0,0,0.125,-5.9212e-16,0,0.66667
0.03791,0.5235,0.30328,0.035257,2.9837,440.15,-0.028514,0.0095046,-1.9938,-0.038019,-4.3044e-08,-0.99691,0,0,0.125,-0,-0,0.66667
0.95604,0.13779,7.6483,-0.54331,-3.8358,2.8013,11.081,-3.6937,-0.95023,14.775,-7.256e-07,-0.47512,0,0,0.125,-0,-0,0.66667
0.30613,0.047756,2.4491,-0.67837,-52.39,261.02,4.4303,-1.4768,-0.36168,5.9071,2.601e-12,-0.18084,0,0,0.125,-0,-0,0.66667
0.41408,0.38982,3.3126,-0.16527,-11.594,195.27,1.46,-0.48666,-1.9006,1.9466,-1.3536e-12,-0.95029,0,0,0.125,-0,-0,0.66667
0.79679,0.41034,6.3743,-0.13448,-4.1142,28.634,2.286,-0.76199,-1.9394,3.048,-7.7014e-11,-0.96971,0,0,0.125,-0,-0,0.66667
0.35618,0.37755,2.8495,-0.18367,-13.584,229.58,1.3956,-0.46521,-1.8808,1.8608,-1.7526e-12,-0.94038,0,0,0.125,-0,-0,0.66667
0.10486,0.91812,0.83886,0.62719,52.821,394.08,-1.403,0.46767,-0.60009,-1.8707,6.5257e-08,-0.30005,0,0,0.125,-0,-0,0.66667
0.7889,0.46697,6.3112,-0.049539,-1.5676,30.68,0.83373,-0.27791,-1.9903,1.1116,-8.1768e-11,-0.99516,0,0,0.125,2.9606e-16,0,0.66667
0.12962,0.49695,1.0369,-0.0045743,-0.38111,376.99,0.012649,-0.0042162,-1.9996,0.016865,1.5374e-09,-0.9998,0,0,0.125,1.8504e-16,0,0.66667
0.19804,0.53091,1.5843,0.046363,3.7742,330.77,-0.19588,0.065292,-1.9923,-0.26117,8.9256e-11,-0.99616,0,0,0.125,7.0169e-17,0,0.66667
0.13971,0.60177,1.1177,0.15265,12.687,370.12,-0.45497,0.15166,-1.9193,-0.60662,-2.4564e-09,-0.95965,0,0,0.125,-0,-0,0.66667
0.22166,0.88614,1.7733,0.57921,46.861,315.36,-2.7389,0.91297,-0.80707,-3.6519,-3.5791e-11,-0.40353,0,0,0.125,-0,-0,0.66667
0.23535,0.57571,1.8828,0.11356,9.0893,306.09,-0.57017,0.19006,-1.9559,-0.76023,-7.1042e-12,-0.97794,0,0,0.125,-0,-0,0.66667
0.7264,0.42413,5.8112,-0.11381,-4.5224,49.575,1.7637,-0.58789,-1.9517,2.3516,6.6682e-12,-0.97584,0,0,0.125,-0,-0,0.66667
0.095244,0.43219,0.76195,-0.10171,-8.5424,400.54,0.20666,-0.068888,-1.9651,0.27555,-4.3866e-10,-0.98253,0,0,0.125,2.2204e-16,0,0.66667
0.66824,0.85493,5.346,0.53239,24.99,71.26,-7.5897,2.5299,-0.99153,-10.12,-2.3501e-12,-0.49577,0,0,0.125,-0,-0,0.66667
0.91093,0.42093,7.2875,-0.11861,-1.6552,6.3098,2.305,-0.76833,-1.9485,3.0733,-2.1853e-10,-0.97426,0,0,0.125,-0,-0,0.66667
0.63,0.97624,5.04,0.71437,36.726,87.268,-9.601,3.2003,-0.18437,-12.801,-1.3589e-13,-0.092184,0,0,0.125,-0,-0,0.66667
0.33688,0.39549,2.6951,-0.15677,-11.772,241.38,1.1267,-0.37557,-1.9105,1.5023,-9.2393e-13,-0.95527,0,0,0.125,-0,-0,0.66667
0.83945,0.86837,6.7156,0.55256,13.778,19.386,-9.8954,3.2985,-0.91372,-13.194,-1.9209e-10,-0.45686,0,0,0.125,-5.9212e-16,0,0.66667
0.89856,0.29002,7.1885,-0.31498,-5.0249,8.2532,6.0379,-2.0126,-1.6453,8.0505,-2.1396e-08,-0.82264,0,0,0.125,-0,-0,0.66667
0.49346,0.18092,3.9477,-0.47861,-30.731,151.73,5.0384,-1.6795,-1.1839,6.7179,1.2799e-12,-0.59196,0,0,0.125,-8.8818e-16,0,0.66667
0.56348,0.58696,4.5079,0.13044,7.5228,116.13,-1.568,0.52266,-1.9417,-2.0907,-2.4385e-12,-0.97086,0,0,0.125,5.9212e-16,0,0.66667
0.58066,0.28307,4.6453,-0.32539,-18.251,108.23,4.0308,-1.3436,-1.6249,5.3744,-3.2951e-13,-0.81247,0,0,0.125,-0,-0,0.66667
0.13276,0.87756,1.0621,0.56633,47.333,374.99,-1.6039,0.53465,-0.85851,-2.1386,2.6349e-09,-0.42925,0,0,0.125,-0,-0,0.66667
0.37306,0.47912,2.9845,-0.031325,-2.2828,219.36,0.2493,-0.083101,-1.9973,0.3324,1.4574e-12,-0.99867,0,0,0.125,-0,-0,0.66667
0.81161,0.54168,6.4929,0.06252,1.7845,24.852,-1.0825,0.36083,-1.9881,-1.4433,2.0178e-10,-0.99404,0,0,0.125,-0,-0,0.66667
0.5196,0.27096,4.1568,-0.34356,-21.243,137.98,3.8083,-1.2694,-1.5795,5.0778,7.2387e-13,-0.78974,0,0,0.125,-5.9212e-16,0,0.66667
0.93958,0.2099,7.5167,-0.43515,-4.1829,3.7588,8.7224,-2.9075,-1.3275,11.63,-6.0342e-08,-0.66377,0,0,0.125,-0,-0,0.66667
0.61582,0.15283,4.9265,-0.52076,-27.428,92.803,6.8414,-2.2805,-1.0347,9.1219,-8.2379e-13,-0.51733,0,0,0.125,1.8232e-16,0,0.66667
0.77945,0.17475,6.2356,-0.48788,-16.174,33.923,8.1126,-2.7042,-1.1545,10.817,-2.3904e-11,-0.57726,0,0,0.125,1.1842e-15,0,0.66667
0.24803,0.048347,1.9842,-0.67748,-54.182,298.19,3.5847,-1.1949,-0.3687,4.7796,5.2207e-12,-0.18435,0,0,0.125,-2.9606e-16,1.4672e-16,0.66667
0.55931,0.99284,4.4745,0.73926,43.337,119.19,-8.8208,2.9403,-0.056865,-11.761,-1.1671e-12,-0.028432,0,0,0.125,-5.9212e-16,1.0455e-16,0.66667
0.81064,0.55802,6.4851,0.087028,2.4962,25.101,-1.505,0.50168,-1.9747,-2.0067,1.2764e-10,-0.98733,0,0,0.125,2.2564e-15,0,0.66667
0.15271,0.51122,1.2217,0.016834,1.3932,361.27,-0.054843,0.018281,-1.9984,-0.073124,1.4649e-09,-0.99919,0,0,0.125,-5.9212e-16,0,0.66667
0.54016,0.65967,4.3213,0.23951,14.349,127.55,-2.7599,0.91998,-1.7949,-3.6799,-8.693e-13,-0.89744,0,0,0.125,-0,-0,0.66667
0.6103,0.37096,4.8824,-0.19356,-10.26,94.704,2.5201,-0.84003,-1.8695,3.3601,1.9185e-13,-0.93474,0,0,0.125,-5.9212e-16,0,0.66667
0.18706,0.859,1.4965,0.5385,44.192,338.31,-2.1489,0.7163,-0.97128,-2.8652,-3.4289e-10,-0.48564,0,0,0.125,-0,-0,0.66667
0.63689,0.4807,5.0951,-0.028956,-1.4518,83.231,0.39342,-0.13114,-1.9962,0.52457,-5.4542e-13,-0.99811,0,0,0.125,-0,-0,0.66667
0.067575,0.33906,0.5406,-0.24141,-20.38,419.63,0.34801,-0.116,-1.792,0.46401,4.5544e-09,-0.89598,0,0,0.125,-1.1102e-16,0,0.66667
0.77954,0.66646,6.2363,0.24969,8.2296,33.413,-4.1524,1.3841,-1.7794,-5.5366,4.6553e-11,-0.8897,0,0,0.125,-0,-0,0.66667
0.32597,0.81993,2.6078,0.47989,36.434,248.37,-3.3372,1.1124,-1.1821,-4.4496,1.5239e-12,-0.59104,0,0,0.125,-5.9212e-16,0,0.66667
0.48278,0.54781,3.8623,0.07171,4.6515,157.01,-0.73857,0.24619,-1.9827,-0.98476,-1.2466e-12,-0.99136,0,0,0.125,5.9212e-16,0,0.66667
0.38231,0.48385,3.0585,-0.024218,-1.7505,213.84,0.19752,-0.065841,-1.9956,0.26337,-1.1972e-12,-0.99782,0,0,0.125,5.9212e-16,0,0.66667
0.32698,0.33176,2.6158,-0.25236,-19.101,247.55,1.7603,-0.58677,-1.7751,2.3471,-2.0903e-12,-0.88757,0,0,0.125,-0,-0,0.66667
0.98768,0.060623,7.9014,-0.65907,-1.2897,1.7682,13.887,-4.629,-0.45633,18.516,-1.8121e-05,-0.22816,0,0,0.125,-1.7764e-15,0,0.66667
0.879,0.40083,7.032,-0.14876,-2.8028,11.033,2.7895,-0.92983,-1.921,3.7193,-1.0553e-08,-0.96049,0,0,0.125,-1.1842e-15,0,0.66667
0.30229,0.1537,2.4183,-0.51946,-40.119,263.23,3.3499,-1.1166,-1.04,4.4666,-7.0799e-12,-0.51998,0,0,0.125,8.8818e-16,0,0.66667
0.16065,0.60063,1.2852,0.15094,12.463,355.91,-0.5173,0.17243,-1.9182,-0.68973,-1.2952e-09,-0.95911,0,0,0.125,-5.9212e-16,0,0.66667
0.52931,0.88366,4.2345,0.57549,35.211,133.47,-6.4984,2.1661,-0.82343,-8.6646,5.8442e-13,-0.41171,0,0,0.125,-0,-0,0.66667
0.13806,0.40359,1.1045,-0.14461,-12.023,371.24,0.42591,-0.14197,-1.9269,0.56788,1.3953e-09,-0.96343,0,0,0.125,2.2204e-16,0,0.66667
0.64979,0.46835,5.1983,-0.047474,-2.313,77.927,0.65809,-0.21936,-1.9915,0.87745,1.5363e-12,-0.99573,0,0,0.125,-1.5303e-15,0,0.66667
0.23295,0.057651,1.8636,-0.66352,-53.464,308.02,3.2975,-1.0992,-0.43662,4.3967,-4.3749e-11,-0.21831,0,0,0.125,-2.9606e-16,0,0.66667
0.096557,0.62341,0.77245,0.18512,15.548,399.65,-0.38133,0.12711,-1.8794,-0.50844,-1.3143e-08,-0.93968,0,0,0.125,-1.6653e-16,0,0.66667
0.021993,0.20103,0.17594,-0.44846,-38.082,451.2,0.21041,-0.070136,-1.2828,0.28054,-8.8075e-07,-0.64141,0,0,0.125,-3.7007e-17,0,0.66667
0.85906,0.79039,6.8725,0.43559,9.5706,15.1,-7.9829,2.661,-1.3282,-10.644,4.2292e-09,-0.66408,0,0,0.125,-0,-0,0.66667
0.14271,0.339,1.1417,-0.2415,-20.062,368.09,0.73525,-0.24508,-1.794,0.98033,4.1709e-09,-0.89698,0,0,0.125,-0,-0,0.66667
0.40293,0.079167,3.2234,-0.63125,-45.014,202.27,5.4261,-1.8087,-0.58262,7.2348,1.9749e-12,-0.29131,0,0,0.125,-1.0693e-15,0,0.66667
0.093564,0.2088,0.74852,-0.43681,-36.779,401.76,0.87188,-0.29063,-1.3245,1.1625,2.5728e-08,-0.66224,0,0,0.125,-1.4803e-16,0,0.66667
0.11789,0.31406,0.94315,-0.27891,-23.329,385.03,0.70147,-0.23382,-1.7225,0.93529,1.0998e-08,-0.86127,0,0,0.125,2.9606e-16,0,0.66667
0.37482,0.21334,2.9985,-0.42999,-31.369,218.55,3.4382,-1.1461,-1.346,4.5843,-2.6401e-13,-0.67301,0,0,0.125,-2.9606e-16,0,0.66667
0.16539,0.71545,1.3231,0.32318,26.67,352.76,-1.1403,0.38009,-1.6275,-1.5203,-1.6065e-09,-0.81377,0,0,0.125,-7.4015e-17,0,0.66667
0.71895,0.96239,5.7516,0.69359,28.535,53.286,-10.638,3.546,-0.29279,-14.184,2.7356e-13,-0.1464,0,0,0.125,-1.1842e-15,0,0.66667
0.12585,0.32394,1.0068,-0.26409,-22.044,379.59,0.70905,-0.23635,-1.754,0.9454,8.4477e-09,-0.87698,0,0,0.125,-0,-0,0.66667
0.73883,0.90311,5.9107,0.60467,23.309,46.43,-9.5307,3.1769,-0.69975,-12.708,1.2906e-11,-0.34987,0,0,0.125,1.1842e-15,0,0.66667
0.84138,0.72815,6.7311,0.34223,8.3714,18.415,-6.1428,2.0476,-1.5841,-8.1904,2.1505e-09,-0.79204,0,0,0.125,-0,-0,0.66667
0.082681,0.18035,0.66145,-0.47948,-40.47,409.26,0.84573,-0.28191,-1.1817,1.1276,3.279e-08,-0.59084,0,0,0.125,-1.4803e-16,0,0.66667
0.040078,0.45357,0.32062,-0.069646,-5.8933,438.65,0.059547,-0.019849,-1.9805,0.079396,-2.9309e-07,-0.99027,0,0,0.125,-1.2148e-16,0,0.66667
0.49353,0.80391,3.9483,0.45587,29.258,151.65,-4.7997,1.5999,-1.2593,-6.3996,-1.0223e-12,-0.62964,0,0,0.125,-0,-0,0.66667
0.60076,0.72083,4.8061,0.33125,17.909,99.091,-4.2453,1.4151,-1.6089,-5.6604,-1.0272e-12,-0.80445,0,0,0.125,-0,-0,0.66667
0.684,0.14666,5.472,-0.53002,-23.913,65.253,7.734,-2.578,-1.0007,10.312,1.9833e-12,-0.50036,0,0,0.125,-5.9212e-16,0,0.66667
0.47827,0.095442,3.8262,-0.60684,-39.816,160.04,6.1917,-2.0639,-0.68996,8.2556,1.0392e-13,-0.34498,0,0,0.125,-0,-0,0.66667
0.54316,0.93769,4.3453,0.65654,39.406,126.79,-7.6075,2.5358,-0.46821,-10.143,-2.1494e-13,-0.23411,0,0,0.125,-0,-0,0.66667
0.54961,0.036507,4.3969,-0.69524,-41.349,123.74,8.1517,-2.7172,-0.28204,10.869,-2.1672e-13,-0.14102,0,0,0.125,-0,-0,0.66667
0.71378,0.61642,5.7103,0.17463,7.2133,53.91,-2.6592,0.8864,-1.8903,-3.5456,-8.9007e-12,-0.94515,0,0,0.125,1.1842e-15,0,0.66667
0.15616,0.46235,1.2493,-0.056475,-4.6689,358.94,0.18814,-0.062715,-1.992,0.25086,1.5142e-09,-0.99602,0,0,0.125,-1.4803e-16,0,0.66667
0.021742,0.16427,0.17394,-0.50359,-42.791,451.38,0.23358,-0.077863,-1.0966,0.31145,-1.6172e-06,-0.54832,0,0,0.125,-0,-0,0.66667
0.50805,0.38281,4.0644,-0.17579,-11.032,143.75,1.9053,-0.6351,-1.8883,2.5404,8.7641e-13,-0.94413,0,0,0.125,-0,-0,0.66667
0.95369,0.26879,7.6295,-0.34681,-2.5187,2.3743,7.0561,-2.352,-1.5746,9.4081,6.7847e-08,-0.78729,0,0,0.125,-0,-0,0.66667
0.025153,0.49148,0.20123,-0.012773,-1.0818,448.99,0.0068541,-0.0022872,-1.9977,0.0091376,-3.7856e-06,-0.99886,0,0,0.125,-0,-0,0.66667
0.6128,0.036919,4.9024,-0.69462,-36.958,94.577,9.0809,-3.027,-0.28448,12.108,-3.082e-12,-0.14224,0,0,0.125,2.3685e-15,0,0.66667
0.49388,0.50072,3.9511,0.0010843,0.069325,151.1,-0.011424,0.0038082,-1.9995,-0.015233,-5.2254e-12,-0.99974,0,0,0.125,-0,-0,0.66667
0.9002,0.24539,7.2016,-0.38191,-6.0155,8.1717,7.3343,-2.4448,-1.4802,9.7791,-2.4826e-08,-0.7401,0,0,0.125,-5.9212e-16,0,0.66667
0.023607,0.37281,0.18886,-0.19078,-16.167,450.07,0.096081,-0.032027,-1.8695,0.12811,-1.0676e-07,-0.93477,0,0,0.125,4.1633e-17,0,0.66667
0.65951,0.43161,5.276,-0.10258,-4.8877,74.046,1.4433,-0.4811,-1.9627,1.9244,-4.5719e-13,-0.98136,0,0,0.125,1.1842e-15,0,0.66667
0.65622,0.57281,5.2498,0.10921,5.2439,75.359,-1.5289,0.50964,-1.9607,-2.0386,-1.4118e-12,-0.98033,0,0,0.125,-0,-0,0.66667
0.88375,0.049455,7.07,-0.67582,-12.554,11.62,12.741,-4.2472,-0.37389,16.989,-1.8879e-08,-0.18694,0,0,0.125,-0,-0,0.66667
0.53642,0.59916,4.2914,0.14874,8.957,129.33,-1.7022,0.56739,-1.9204,-2.2695,-3.3851e-13,-0.96018,0,0,0.125,1.1842e-15,0,0.66667
0.69065,0.99089,5.5252,0.73634,32.847,63.431,-10.849,3.6164,-0.072027,-14.465,1.4051e-12,-0.036014,0,0,0.125,-0,-0,0.66667
0.41267,0.89755,3.3013,0.59633,42.093,196.57,-5.2498,1.7499,-0.73382,-6.9997,3.948e-13,-0.36691,0,0,0.125,-2.9606e-16,0,0.66667
0.82659,0.28181,6.6127,-0.32729,-8.6917,21.622,5.7714,-1.9238,-1.6218,7.6952,-1.0644e-09,-0.81089,0,0,0.125,-0,-0,0.66667
0.68501,0.61965,5.4801,0.17948,8.0301,64.269,-2.6228,0.87427,-1.8863,-3.4971,-4.7318e-12,-0.94316,0,0,0.125,2.9606e-16,0,0.66667
0.10801,0.71761,0.8641,0.32642,27.375,391.81,-0.75216,0.25072,-1.6239,-1.0029,-1.7739e-08,-0.81194,0,0,0.125,-1.8504e-16,0,0.66667
0.13989,0.30359,1.1192,-0.29461,-24.503,370.02,0.87925,-0.29308,-1.6937,1.1723,5.1843e-09,-0.84684,0,0,0.125,-1.4803e-16,0,0.66667
0.15807,0.40868,1.2646,-0.13698,-11.32,357.65,0.46193,-0.15398,-1.9353,0.61591,1.8269e-09,-0.96763,0,0,0.125,-0,-0,0.66667
0.12054,0.52979,0.96431,0.044682,3.7315,383.19,-0.1149,0.0383,-1.993,-0.1532,-1.3927e-08,-0.99648,0,0,0.125,-1.1234e-16,0,0.66667
0.23028,0.076924,1.8422,-0.63461,-51.177,309.74,3.1176,-1.0392,-0.56694,4.1568,6.979e-11,-0.28347,0,0,0.125,-0,4.2914e-17,0.66667
0.42336,0.25686,3.3869,-0.36471,-25.382,190.1,3.294,-1.098,-1.5287,4.392,-4.4142e-13,-0.76435,0,0,0.125,-0,-0,0.66667
0.67076,0.025758,5.3661,-0.71136,-33.35,70.817,10.179,-3.3931,-0.203,13.572,5.6843e-14,-0.1015,0,0,0.125,-5.9212e-16,0,0.66667
0.33662,0.78189,2.693,0.42284,31.825,241.72,-3.0365,1.0122,-1.3636,-4.0487,6.8856e-13,-0.6818,0,0,0.125,-0,-0,0.66667
0.51975,0.023978,4.158,-0.71403,-44.432,138.63,7.9173,-2.6391,-0.18657,10.556,1.5885e-12,-0.093284,0,0,0.125,-0,-0,0.66667
0.82112,0.77866,6.569,0.41799,11.451,23.079,-7.322,2.4407,-1.3777,-9.7626,4.6992e-10,-0.68887,0,0,0.125,2.9606e-16,0,0.66667
0.88459,0.13826,7.0767,-0.54262,-9.9199,10.977,10.24,-3.4133,-0.95114,13.653,-1.126e-08,-0.47557,0,0,0.125,-0,-0,0.66667
0.70449,0.98877,5.6359,0.73316,31.493,58.437,-11.019,3.6729,-0.09018,-14.692,-2.7356e-12,-0.04509,0,0,0.125,-0,-0,0.66667
0.83449,0.34166,6.6759,-0.2375,-6.0289,19.712,4.2282,-1.4094,-1.7986,5.6375,-1.3423e-09,-0.8993,0,0,0.125,1.7274e-15,0,0.66667
0.30908,0.21261,2.4726,-0.43108,-33.103,258.87,2.8424,-0.94746,-1.3392,3.7899,-4.6909e-12,-0.66961,0,0,0.125,-2.9606e-16,0,0.66667
0.79062,0.10312,6.3249,-0.59532,-18.918,31.209,10.041,-3.347,-0.73807,13.388,2.0029e-10,-0.36904,0,0,0.125,-0,-0,0.66667
0.91666,0.41763,7.3333,-0.12355,-1.6139,5.6037,2.4161,-0.80535,-1.9441,3.2214,-2.8295e-09,-0.97206,0,0,0.125,-0,-0,0.66667
0.038406,0.24269,0.30724,-0.38596,-32.721,439.82,0.31622,-0.10541,-1.4686,0.42163,-1.139e-07,-0.73428,0,0,0.125,-3.7007e-17,0,0.66667
0.44563,0.91675,3.565,0.62513,42.64,177.93,-5.9429,1.981,-0.60843,-7.9239,3.8902e-13,-0.30421,0,0,0.125,-0,-0,0.66667
0.23993,0.027215,1.9194,-0.70918,-56.989,303.51,3.6299,-1.21,-0.21086,4.8399,8.9664e-12,-0.10543,0,0,0.125,1.4803e-16,0,0.66667
0.49402,0.38969,3.9521,-0.16547,-10.582,151.08,1.7439,-0.5813,-1.9006,2.3252,-2.8477e-13,-0.95032,0,0,0.125,-0,-0,0.66667
0.61748,0.3126,4.9398,-0.28111,-14.701,91.663,3.703,-1.2343,-1.7184,4.9373,8.0602e-13,-0.85921,0,0,0.125,-2.3685e-15,0,0.66667
0.20905,0.67929,1.6724,0.26893,21.809,323.5,-1.1994,0.39979,-1.7412,-1.5991,-1.2702e-10,-0.87061,0,0,0.125,-2.9606e-16,0,0.66667
0.87443,0.52237,6.9954,0.033554,0.65441,11.741,-0.62593,0.20864,-1.9985,-0.83457,3.5641e-09,-0.99924,0,0,0.125,-0,-0,0.66667
0.25589,0.18965,2.0471,-0.46552,-36.956,292.87,2.5413,-0.84709,-1.2288,3.3884,-2.3415e-11,-0.61438,0,0,0.125,-5.9212e-16,0,0.66667
0.71361,0.64632,5.7089,0.21949,9.0747,54.015,-3.3414,1.1138,-1.8272,-4.4552,-9.7529e-12,-0.91362,0,0,0.125,5.9212e-16,0,0.66667
0.85223,0.21904,6.8178,-0.42144,-9.6749,16.385,7.6622,-2.5541,-1.3679,10.216,-2.5329e-09,-0.68394,0,0,0.125,-0,-0,0.66667
0.93241,0.53865,7.4593,0.057971,0.61248,3.8255,-1.1531,0.38437,-1.9869,-1.5375,-4.8313e-08,-0.99343,0,0,0.125,-0,-0,0.66667
0.95573,0.86508,7.6458,0.54762,3.8968,2.839,-11.165,3.7218,-0.93398,-14.887,7.2431e-07,-0.46699,0,0,0.125,1.1842e-15,0,0.66667
0.6802,0.24168,5.4416,-0.38748,-17.601,66.362,5.6227,-1.8742,-1.4643,7.497,2.6343e-12,-0.73213,0,0,0.125,5.9212e-16,0,0.66667
0.62852,0.37471,5.0282,-0.18793,-9.5988,86.83,2.5198,-0.83995,-1.8753,3.3598,-1.1e-12,-0.93767,0,0,0.125,1.6468e-15,0,0.66667
0.59597,0.96345,4.7677,0.69518,38.195,102.04,-8.8385,2.9462,-0.28281,-11.785,1.2719e-12,-0.1414,0,0,0.125,-8.8818e-16,0,0.66667
0.48512,0.090965,3.881,-0.61355,-39.916,156.4,6.3498,-2.1166,-0.66463,8.4664,4.2366e-13,-0.33232,0,0,0.125,1.4803e-16,0,0.66667
0.36043,0.40206,2.8835,-0.14692,-10.826,226.99,1.1297,-0.37656,-1.9258,1.5062,1.3234e-13,-0.96288,0,0,0.125,-8.8818e-16,0,0.66667
0.020765,0.37739,0.16612,-0.18391,-15.586,452.04,0.081472,-0.027158,-1.8793,0.10863,-5.1946e-08,-0.93963,0,0,0.125,7.4015e-17,0,0.66667
0.74867,0.45036,5.9894,-0.074457,-2.7494,42.372,1.1892,-0.3964,-1.9816,1.5856,4.667e-12,-0.99081,0,0,0.125,1.1842e-15,0,0.66667
0.39368,0.29979,3.1494,-0.30031,-21.508,207.24,2.5222,-0.84072,-1.679,3.3629,-1.2279e-13,-0.83951,0,0,0.125,-0,-0,0.66667
0.27934,0.72659,2.2347,0.33988,26.583,277.66,-2.0254,0.67514,-1.5904,-2.7006,1.0682e-11,-0.79518,0,0,0.125,-0,-0,0.66667
0.77753,0.64453,6.2202,0.2168,7.1999,33.933,-3.5961,1.1987,-1.8321,-4.7948,3.8912e-11,-0.91606,0,0,0.125,-0,-0,0.66667
0.66027,0.65236,5.2821,0.22854,10.879,73.843,-3.2192,1.0731,-1.8142,-4.2922,-2.9712e-12,-0.90709,0,0,0.125,-1.4803e-15,0,0.66667
0.9098,0.65141,7.2784,0.22712,3.2184,6.5767,-4.4082,1.4694,-1.8167,-5.8776,2.0225e-08,-0.90833,0,0,0.125,1.7764e-15,0,0.66667
0.12761,0.97485,1.0209,0.71228,59.751,378.58,-1.9391,0.64638,-0.19675,-2.5855,2.2699e-08,-0.098376,0,0,0.125,-0,-0,0.66667
0.38236,0.40878,3.0589,-0.13683,-9.8919,213.83,1.1161,-0.37204,-1.9323,1.4882,2.8821e-13,-0.96617,0,0,0.125,-0,-0,0.66667
0.57738,0.72787,4.6191,0.34181,19.286,109.78,-4.2103,1.4034,-1.5868,-5.6137,3.9746e-13,-0.79342,0,0,0.125,-0,-0,0.66667
0.3545,0.83951,2.836,0.50927,37.836,230.89,-3.8514,1.2838,-1.0772,-5.1352,1.823e-12,-0.5386,0,0,0.125,1.4803e-16,0,0.66667
0.34805,0.89432,2.7844,0.59148,44.229,234.93,-4.3918,1.4639,-0.75493,-5.8557,-1.6165e-13,-0.37746,0,0,0.125,5.9212e-16,0,0.66667
0.48409,0.52926,3.8727,0.04389,2.8421,156.3,-0.45327,0.15109,-1.997,-0.60436,9.634e-14,-0.99849,0,0,0.125,-1.4803e-16,0,0.66667
0.071438,0.10391,0.57151,-0.59414,-50.312,417.04,0.90548,-0.30183,-0.7429,1.2073,2.6072e-07,-0.37145,0,0,0.125,-0,-0,0.66667
0.038686,0.98067,0.30949,0.72101,61.402,439.68,-0.59504,0.19834,-0.14946,-0.7934,-9.1476e-06,-0.07473,0,0,0.125,-7.4015e-17,0,0.66667
0.84061,0.71233,6.7249,0.31849,7.821,18.531,-5.7115,1.9038,-1.6395,-7.6153,2.1458e-09,-0.81974,0,0,0.125,1.1842e-15,0,0.66667
0.0073689,0.070195,0.058951,-0.64471,-54.914,461.34,0.10135,-0.033775,-0.52031,0.13513,1.0335e-05,-0.26015,0,0,0.125,-0,-0,0.66667
0.70376,0.67832,5.6301,0.26748,11.384,57.531,-4.0159,1.3386,-1.748,-5.3545,-8.0749e-12,-0.874,0,0,0.125,-5.9212e-16,0,0.66667
0.44556,0.72811,3.5645,0.34217,23.243,177.54,-3.2524,1.0841,-1.5817,-4.3365,1.6551e-12,-0.79085,0,0,0.125,-0,-0,0.66667
0.96951,0.49011,7.7561,-0.014832,-0.067353,0.97449,0.30678,-0.10226,-2.0014,0.40904,2.5903e-06,-1.0007,0,0,0.125,1.1842e-15,0,0.66667
0.80992,0.38482,6.4794,-0.17278,-4.9767,25.342,2.9853,-0.9951,-1.8941,3.9804,-3.3442e-10,-0.94706,0,0,0.125,-0,-0,0.66667
0.39961,0.44953,3.1969,-0.075708,-5.3851,203.64,0.64542,-0.21514,-1.9775,0.86056,2.891e-13,-0.98876,0,0,0.125,-0,-0,0.66667
0.39383,0.58422,3.1506,0.12632,9.036,207.05,-1.0613,0.35378,-1.943,-1.4151,7.7827e-13,-0.97151,0,0,0.125,-0,-0,0.66667
0.12859,0.28239,1.0288,-0.32642,-27.239,377.73,0.89547,-0.29849,-1.6218,1.194,8.2155e-09,-0.81092,0,0,0.125,-0,-0,0.66667
0.36459,0.98041,2.9167,0.72061,53.286,225.12,-5.6049,1.8683,-0.15204,-7.4732,-5.9819e-13,-0.076019,0,0,0.125,5.9212e-16,0,0.66667
0.20418,0.83573,1.6334,0.5036,41.021,326.86,-2.1936,0.7312,-1.1003,-2.9248,-1.3102e-10,-0.55014,0,0,0.125,-1.4803e-16,0,0.66667
0.31607,0.38714,2.5286,-0.16929,-12.909,254.31,1.1415,-0.38051,-1.8974,1.522,-3.5786e-12,-0.94871,0,0,0.125,5.9212e-16,0,0.66667
0.56232,0.38288,4.4985,-0.17569,-10.155,116.72,2.1075,-0.70251,-1.8933,2.8101,-1.8097e-13,-0.94667,0,0,0.125,-1.1842e-15,0,0.66667
0.86191,0.49465,6.8953,-0.008032,-0.17153,13.983,0.14769,-0.049229,-2.0006,0.19692,-7.3047e-09,-1.0003,0,0,0.125,-2.3685e-15,0,0.66667
0.098202,0.83654,0.78561,0.50481,42.501,398.6,-1.0576,0.35252,-1.0931,-1.4101,-3.2869e-08,-0.54654,0,0,0.125,-7.4015e-17,0,0.66667
0.83006,0.91389,6.6405,0.62084,16.363,21.663,-10.994,3.6646,-0.63063,-14.658,3.7047e-09,-0.31531,0,0,0.125,-0,-0,0.66667
0.92067,0.33557,7.3653,-0.24664,-3.0786,5.2812,4.8442,-1.6147,-1.7855,6.459,-1.9336e-08,-0.89276,0,0,0.125,5.9212e-16,0,0.66667
0.22363,0.2116,1.789,-0.4326,-34.901,313.94,2.0638,-0.68794,-1.3335,2.7517,8.9142e-12,-0.66677,0,0,0.125,1.4803e-16,0,0.66667
0.20085,0.73423,1.6068,0.35135,28.613,328.99,-1.5055,0.50182,-1.5614,-2.0073,-1.8886e-10,-0.78069,0,0,0.125,2.9606e-16,0,0.66667
0.76844,0.32781,6.1475,-0.25828,-8.8926,36.587,4.234,-1.4113,-1.7626,5.6454,-3.8125e-12,-0.88132,0,0,0.125,-1.1842e-15,0,0.66667
0.020528,0.78497,0.16423,0.42745,36.292,452.21,-0.18719,0.062399,-1.3498,-0.24959,6.5922e-07,-0.67488,0,0,0.125,7.4015e-17,0,0.66667
0.48994,0.48942,3.9195,-0.015867,-1.0197,153.19,0.16584,-0.055281,-1.9974,0.22112,-5.4581e-13,-0.9987,0,0,0.125,-1.1842e-15,0,0.66667
0.022375,0.65851,0.179,0.23776,20.154,450.92,-0.11349,0.037831,-1.798,-0.15132,8.354e-08,-0.89902,0,0,0.125,-0,-0,0.66667
0.8073,0.44005,6.4584,-0.089925,-2.6208,25.929,1.5487,-0.51624,-1.9707,2.0649,-2.224e-10,-0.98536,0,0,0.125,-0,-0,0.66667
0.024361,0.43118,0.19489,-0.10322,-8.7441,449.54,0.053646,-0.017882,-1.9605,0.071528,-4.019e-07,-0.98024,0,0,0.125,1.8504e-17,0,0.66667
0.16055,0.69774,1.2844,0.29661,24.512,356.01,-1.0159,0.33864,-1.6861,-1.3546,-2.0453e-09,-0.84307,0,0,0.125,-0,-0,0.66667
0.24613,0.6043,1.9691,0.15645,12.454,299.04,-0.82147,0.27382,-1.9122,-1.0953,-2.1211e-12,-0.95609,0,0,0.125,-0,-0,0.66667
0.99712,0.39689,7.9769,-0.15467,0.010424,0.12318,3.2901,-1.0967,-1.915,4.3868,-5.2331e-07,-0.95749,0,0,0.125,1.1842e-15,0,0.66667
0.42075,0.3075,3.366,-0.28875,-20.135,191.52,2.5919,-0.86395,-1.7058,3.4558,-1.6347e-12,-0.85292,0,0,0.125,-2.9606e-16,0,0.66667
0.072263,0.15535,0.5781,-0.51697,-43.726,416.45,0.79697,-0.26566,-1.0493,1.0626,1.5246e-07,-0.52464,0,0,0.125,-7.4015e-17,0,0.66667
0.25027,0.67356,2.0022,0.26034,20.691,296.38,-1.39,0.46333,-1.7616,-1.8533,1.1839e-11,-0.88079,0,0,0.125,2.9606e-16,0,0.66667
0.41157,0.55579,3.2926,0.083679,5.8829,196.69,-0.73472,0.24491,-1.9739,-0.97962,1.6653e-16,-0.98694,0,0,0.125,2.9606e-16,0,0.66667
0.42026,0.083525,3.3621,-0.62471,-43.782,192.26,5.6009,-1.867,-0.61356,7.4679,-1.0396e-12,-0.30678,0,0,0.125,5.9212e-16,1.3035e-16,0.66667
0.12217,0.044824,0.97737,-0.68276,-57.325,382.27,1.7795,-0.59317,-0.34236,2.3727,1.1225e-09,-0.17118,0,0,0.125,-0,-0,0.66667
0.0095038,0.0064081,0.07603,-0.74039,-63.163,459.87,0.15021,-0.050045,-0.049688,0.20029,3.519e-05,-0.024844,0,0,0.125,3.7007e-17,0,0.66667
0.81546,0.18651,6.5236,-0.47024,-13.277,24.552,8.1805,-2.7268,-1.215,10.907,-7.7518e-10,-0.60749,0,0,0.125,-1.6283e-15,0,0.66667
0.24196,0.10642,1.9356,-0.59036,-47.297,302.05,3.0473,-1.0158,-0.75854,4.063,-2.2495e-11,-0.37927,0,0,0.125,-0,-0,0.66667
0.083424,0.34088,0.6674,-0.23868,-20.101,408.7,0.42479,-0.1416,-1.7968,0.56638,2.1163e-08,-0.89841,0,0,0.125,3.7007e-17,0,0.66667
0.39022,0.95234,3.1218,0.67852,49.012,209.79,-5.6485,1.8828,-0.36546,-7.5313,1.0854e-12,-0.18273,0,0,0.125,-0,-0,0.66667
0.43254,0.22345,3.4603,-0.41482,-28.607,184.94,3.8277,-1.2759,-1.3874,5.1037,-4.6096e-13,-0.6937,0,0,0.125,-0,-0,0.66667
0.5241,0.48992,4.1928,-0.01512,-0.92699,135.48,0.16905,-0.056349,-1.9971,0.2254,-1.6718e-12,-0.99857,0,0,0.125,-5.9212e-16,0,0.66667
0.76031,0.65454,6.0825,0.23181,8.2237,38.947,-3.7599,1.2533,-1.8085,-5.0132,-2.5588e-12,-0.90426,0,0,0.125,-1.6283e-15,0,0.66667
0.78814,0.72111,6.3051,0.33166,10.566,31.187,-5.5764,1.8588,-1.6079,-7.4352,8.4055e-11,-0.80395,0,0,0.125,-2.3685e-15,0,0.66667
0.46938,0.10204,3.755,-0.59694,-39.588,164.82,5.9774,-1.9925,-0.7355,7.9699,-2.5135e-13,-0.36775,0,0,0.125,-1.1842e-15,0,0.66667
0.88477,0.076088,7.0781,-0.63587,-11.68,11.295,12.002,-4.0007,-0.56044,16.003,-4.8634e-08,-0.28022,0,0,0.125,-0,-0,0.66667
0.079143,0.48168,0.63314,-0.027476,-2.3139,411.63,0.046389,-0.015463,-1.999,0.061852,1.7086e-08,-0.9995,0,0,0.125,1.4803e-16,0,0.66667
0.35568,0.0088445,2.8454,-0.73673,-54.899,230.53,5.5902,-1.8634,-0.069594,7.4536,-3.0642e-13,-0.034797,0,0,0.125,-0,-0,0.66667
0.35988,0.66214,2.879,0.24321,17.939,227.37,-1.8672,0.62241,-1.7926,-2.4897,-3.4639e-13,-0.8963,0,0,0.125,-0,-0,0.66667
0.71091,0.88156,5.6873,0.57234,24.017,55.66,-8.6801,2.8934,-0.83357,-11.573,-6.6889e-12,-0.41679,0,0,0.125,-2.3685e-15,0,0.66667
0.84544,0.59199,6.7636,0.13799,3.2807,17.276,-2.4888,0.82959,-1.9345,-3.3183,2.7432e-09,-0.96727,0,0,0.125,-1.3323e-15,0,0.66667
0.72322,0.15864,5.7858,-0.51204,-20.68,51.282,7.9002,-2.6334,-1.0677,10.534,1.8916e-11,-0.53383,0,0,0.125,2.3685e-15,0,0.66667
0.11084,0.96872,0.88673,0.70308,59.209,390.03,-1.6625,0.55417,-0.24526,-2.2167,-1.6077e-07,-0.12263,0,0,0.125,1.8822e-16,0,0.66667
0.59935,0.75124,4.7948,0.37687,20.443,99.789,-4.8187,1.6062,-1.4946,-6.4249,1.3234e-13,-0.74729,0,0,0.125,-2.3685e-15,0,0.66667
0.50962,0.23845,4.077,-0.39233,-24.618,143.16,4.2654,-1.4218,-1.4508,5.6872,6.0307e-13,-0.72541,0,0,0.125,5.9212e-16,0,0.66667
0.60538,0.94861,4.8431,0.67292,36.301,97.77,-8.6907,2.8969,-0.38904,-11.588,-5.4712e-13,-0.19452,0,0,0.125,-0,-0,0.66667
0.012168,0.64615,0.097348,0.21922,18.587,458,-0.056909,0.01897,-1.8287,-0.075879,-9.2253e-08,-0.91433,0,0,0.125,1.8504e-17,0,0.66667
0.2884,0.44757,2.3072,-0.078639,-6.107,271.76,0.48383,-0.16128,-1.976,0.64511,-3.5136e-12,-0.98798,0,0,0.125,-0,-0,0.66667
0.051856,0.0098828,0.41485,-0.73518,-62.549,430.59,0.8133,-0.2711,-0.076883,1.0844,-1.1477e-06,-0.038442,0,0,0.125,-0,-0,0.66667
0.38587,0.56979,3.087,0.10468,7.5429,211.74,-0.86173,0.28724,-1.96,-1.149,-9.4869e-14,-0.98001,0,0,0.125,-0,-0,0.66667
0.75909,0.45802,6.0727,-0.062976,-2.2409,39.181,1.0198,-0.33994,-1.9839,1.3598,-2.1028e-12,-0.99195,0,0,0.125,-0,-0,0.66667
0.276,0.27136,2.208,-0.34296,-26.878,279.8,2.0194,-0.67312,-1.5803,2.6925,-1.5078e-11,-0.79014,0,0,0.125,2.9606e-16,0,0.66667
0.61411,0.69529,4.9129,0.29294,15.425,93.139,-3.8378,1.2793,-1.6938,-5.1171,-2.4916e-12,-0.84691,0,0,0.125,1.1842e-15,0,0.66667
0.62743,0.92974,5.0195,0.64461,33.254,88.139,-8.6283,2.8761,-0.52318,-11.504,-4.9649e-13,-0.26159,0,0,0.125,-0,-0,0.66667
0.25163,0.18691,2.013,-0.46963,-37.371,295.64,2.521,-0.84035,-1.2183,3.3614,-7.5584e-12,-0.60917,0,0,0.125,-3.8858e-16,0,0.66667
0.47504,0.35557,3.8003,-0.21665,-14.2,161.24,2.1956,-0.73187,-1.8311,2.9275,1.9051e-13,-0.91555,0,0,0.125,-0,-0,0.66667
0.1435,0.19964,1.148,-0.45054,-37.486,367.63,1.3792,-0.45973,-1.2781,1.8389,3.5433e-09,-0.63907,0,0,0.125,-0,-0,0.66667
0.070018,0.21387,0.56015,-0.4292,-36.277,417.98,0.64111,-0.2137,-1.3435,0.85481,8.7826e-08,-0.67176,0,0,0.125,-0,-0,0.66667
0.79297,0.32549,6.3437,-0.26177,-8.1577,29.782,4.4282,-1.4761,-1.7554,5.9043,-1.4647e-10,-0.87771,0,0,0.125,1.1842e-15,0,0.66667
0.17947,0.57966,1.4358,0.11949,9.8004,343.21,-0.45752,0.15251,-1.9469,-0.61002,-4.3836e-10,-0.97347,0,0,0.125,-0,-0,0.66667
0.12621,0.82112,1.0097,0.48168,40.283,379.42,-1.2969,0.43229,-1.1768,-1.7292,-6.9526e-09,-0.58841,0,0,0.125,-0,-0,0.66667
0.96712,0.017,7.7369,-0.7245,-3.971,2.9078,14.948,-4.9826,-0.13467,19.93,1.4767e-06,-0.067333,0,0,0.125,-0,1.4688e-16,0.66667
0.055643,0.21923,0.44514,-0.42116,-35.659,427.9,0.49993,-0.16664,-1.3687,0.66658,2.286e-08,-0.68436,0,0,0.125,-0,-0,0.66667
0.68195,0.49211,5.4556,-0.011829,-0.53308,65.341,0.17209,-0.057364,-1.9981,0.22946,-1.2583e-12,-0.99903,0,0,0.125,-0,-0,0.66667
0.37495,0.33703,2.9996,-0.24446,-17.8,218.3,1.9554,-0.65179,-1.7909,2.6072,-1.6419e-12,-0.89546,0,0,0.125,-0,-0,0.66667
0.17349,0.642,1.3879,0.213,17.515,347.26,-0.78832,0.26277,-1.8397,-1.0511,-9.6894e-10,-0.91984,0,0,0.125,-0,-0,0.66667
0.27286,0.16373,2.1829,-0.50441,-39.677,281.95,2.9362,-0.97873,-1.0936,3.9149,-1.6654e-11,-0.54678,0,0,0.125,-0,-0,0.66667
0.7317,0.81412,5.8536,0.47118,18.515,48.366,-7.3549,2.4516,-1.2119,-9.8065,-1.4376e-11,-0.60597,0,0,0.125,-0,-0,0.66667
0.85547,0.51122,6.8438,0.016829,0.37528,15.211,-0.30713,0.10238,-1.9981,-0.4095,1.7958e-10,-0.99906,0,0,0.125,-0,-0,0.66667
0.26883,0.76578,2.1506,0.39867,31.394,284.45,-2.2864,0.76213,-1.4344,-3.0485,1.2589e-11,-0.7172,0,0,0.125,-0,-0,0.66667
0.34714,0.13476,2.7772,-0.54785,-40.967,235.42,4.0573,-1.3524,-0.93243,5.4097,-2.5913e-12,-0.46621,0,0,0.125,-5.9212e-16,0,0.66667
0.40955,0.22527,3.2764,-0.4121,-29.1,198.09,3.6006,-1.2002,-1.3962,4.8008,-4.694e-13,-0.69809,0,0,0.125,-0,-0,0.66667
0.82745,0.94514,6.6196,0.66772,17.886,22.424,-11.787,3.9289,-0.41725,-15.716,-3.9627e-09,-0.20863,0,0,0.125,-0,-0,0.66667
0.74992,0.86114,5.9994,0.54171,20.078,42.751,-8.6664,2.8888,-0.95945,-11.555,-4.1807e-12,-0.47972,0,0,0.125,-0,-0,0.66667
0.20942,0.13551,1.6754,-0.54674,-44.459,323.42,2.4426,-0.81421,-0.93524,3.2568,2.0079e-10,-0.46762,0,0,0.125,-0,-0,0.66667
0.54285,0.51185,4.3428,0.01777,1.0591,126.11,-0.20579,0.068597,-1.9979,-0.27439,-8.8128e-13,-0.99895,0,0,0.125,-0,-0,0.66667
0.76674,0.02665,6.1339,-0.71003,-24.926,38.274,11.614,-3.8713,-0.20989,15.485,7.6936e-11,-0.10494,0,0,0.125,-0,-0,0.66667
0.47874,0.99297,3.8299,0.73945,48.625,160.1,-7.5521,2.5174,-0.054498,-10.069,4.9338e-13,-0.027249,0,0,0.125,-8.8818e-16,0,0.66667
0.5555,0.99862,4.444,0.74793,44.127,121.04,-8.8635,2.9545,-0.010179,-11.818,-1.2541e-12,-0.0050893,0,0,0.125,-2.2204e-16,0,0.66667
0.21251,0.41918,1.7001,-0.12123,-9.8093,321.15,0.54963,-0.18321,-1.9457,0.73284,6.3428e-11,-0.97285,0,0,0.125,-0,-0,0.66667
0.65934,0.47552,5.2747,-0.036724,-1.7501,74.092,0.51656,-0.17219,-1.9954,0.68875,2.4576e-12,-0.99768,0,0,0.125,-2.3685e-15,0,0.66667
0.072077,0.75977,0.57661,0.38966,32.912,416.55,-0.59915,0.19972,-1.4584,-0.79887,-6.6313e-08,-0.72918,0,0,0.125,-0,-0,0.66667
0.36173,0.15698,2.8939,-0.51453,-38.003,226.51,3.9706,-1.3235,-1.0605,5.2942,9.428e-13,-0.53024,0,0,0.125,-1.1842e-15,0,0.66667
0.4004,0.13142,3.2032,-0.55287,-39.467,203.61,4.7225,-1.5742,-0.91182,6.2967,2.6468e-12,-0.45591,0,0,0.125,-0,-0,0.66667
0.60878,0.37436,4.8702,-0.18846,-10.019,95.37,2.4475,-0.81584,-1.8774,3.2634,-7.8648e-13,-0.93872,0,0,0.125,-5.9212e-16,0,0.66667
0.94867,0.29757,7.5894,-0.30364,-2.4436,2.6607,6.1452,-2.0484,-1.6708,8.1936,4.6996e-08,-0.83542,0,0,0.125,-0,-0,0.66667
0.21912,0.78268,1.753,0.42401,34.277,316.91,-1.9821,0.6607,-1.3646,-2.6428,6.9789e-13,-0.68229,0,0,0.125,-5.9212e-16,0,0.66667
0.54416,0.02294,4.3533,-0.71559,-42.945,126.46,8.3071,-2.769,-0.17959,11.076,-1.9629e-13,-0.089796,0,0,0.125,-0,1.1559e-16,0.66667
0.80224,0.70969,6.4179,0.31453,9.4149,27.462,-5.3831,1.7944,-1.6468,-7.1774,2.6709e-10,-0.82338,0,0,0.125,-0,-0,0.66667
0.60296,0.95558,4.8236,0.68337,37.046,98.876,-8.7903,2.9301,-0.33746,-11.72,-5.5955e-13,-0.16873,0,0,0.125,-0,-0,0.66667
0.73883,0.79025,5.9106,0.43538,16.704,45.969,-6.8623,2.2874,-1.325,-9.1497,-1.2477e-11,-0.6625,0,0,0.125,-2.3685e-15,0,0.66667
0.11645,0.041796,0.93163,-0.68731,-57.791,386.18,1.7075,-0.56917,-0.31831,2.2767,-2.8682e-08,-0.15916,0,0,0.125,-0,-0,0.66667
0.83579,0.53313,6.6863,0.04969,1.2494,19.269,-0.88597,0.29532,-1.9902,-1.1813,-3.0998e-10,-0.99512,0,0,0.125,-0,-0,0.66667
0.3113,0.32044,2.4904,-0.26934,-20.619,257.35,1.7887,-0.59623,-1.7439,2.3849,-3.7265e-12,-0.87195,0,0,0.125,-0,-0,0.66667
0.43711,0.48176,3.4969,-0.027365,-1.873,182.1,0.25518,-0.085059,-1.9998,0.34024,2.6007e-14,-0.99989,0,0,0.125,-0,-0,0.66667
0.08488,0.3365,0.67904,-0.24524,-20.649,407.69,0.44408,-0.14803,-1.7844,0.59211,2.2366e-08,-0.89222,0,0,0.125,-7.4015e-17,0,0.66667
0.68718,0.45155,5.4974,-0.072676,-3.2311,63.396,1.0654,-0.35514,-1.9837,1.4205,1.6102e-12,-0.99186,0,0,0.125,-1.1842e-15,0,0.66667
0.84731,0.29003,6.7785,-0.31496,-7.4298,17.136,5.6932,-1.8977,-1.6469,7.591,-2.7925e-09,-0.82343,0,0,0.125,-0,-0,0.66667
0.48369,0.21661,3.8695,-0.42508,-27.619,156.83,4.3863,-1.4621,-1.3608,5.8484,-3.7925e-13,-0.68042,0,0,0.125,-0,-0,0.66667
0.10135,0.10131,0.81081,-0.59804,-50.381,396.47,1.2931,-0.43102,-0.72651,1.7241,6.5046e-08,-0.36325,0,0,0.125,-0,-0,0.66667
0.10296,0.97275,0.82366,0.70912,59.826,395.42,-1.5575,0.51918,-0.21088,-2.0767,-3.585e-07,-0.10544,0,0,0.125,-0,-0,0.66667
0.11563,0.75551,0.92502,0.38327,32.103,386.61,-0.94542,0.31514,-1.4763,-1.2606,-1.286e-08,-0.73816,0,0,0.125,-0,-0,0.66667
0.49491,0.68882,3.9593,0.28323,18.108,150.7,-2.9904,0.9968,-1.7145,-3.9872,1.471e-12,-0.85727,0,0,0.125,-1.1842e-15,0,0.66667
0.62202,0.1323,4.9762,-0.55155,-28.708,90.198,7.3191,-2.4397,-0.91853,9.7587,3.2463e-13,-0.45927,0,0,0.125,-0,-0,0.66667
0.033262,0.19542,0.26609,-0.45687,-38.776,443.39,0.32419,-0.10806,-1.2588,0.43225,-3.378e-07,-0.62941,0,0,0.125,-7.4015e-17,0,0.66667
0.062583,0.89206,0.50067,0.58809,49.855,423.14,-0.78516,0.26172,-0.77314,-1.0469,7.9144e-09,-0.38657,0,0,0.125,-0,-0,0.66667
0.98655,0.59929,7.8924,0.14894,0.25613,0.35317,-3.1345,1.0448,-1.9223,-4.1794,-1.0987e-07,-0.96113,0,0,0.125,-0,-0,0.66667
0.2911,0.77304,2.3288,0.40955,31.819,270.21,-2.5434,0.84781,-1.402,-3.3912,7.216e-12,-0.70102,0,0,0.125,-2.9606e-16,0,0.66667
0.47673,0.10996,3.8139,-0.58506,-38.445,160.83,5.9502,-1.9834,-0.78064,7.9337,1.529e-12,-0.39032,0,0,0.125,-5.6456e-16,0,0.66667
0.63063,0.97467,5.0451,0.712,36.553,86.992,-9.5789,3.193,-0.1963,-12.772,1.6636e-12,-0.098148,0,0,0.125,-2.3685e-15,0,0.66667
0.7149,0.012412,5.7192,-0.73138,-30.493,54.806,11.154,-3.7181,-0.097167,14.873,3.4817e-13,-0.048584,0,0,0.125,-0,-1.4177e-16,0.66667
0.10945,0.82384,0.87557,0.48575,40.79,390.88,-1.1342,0.37805,-1.164,-1.5122,-1.5933e-08,-0.58199,0,0,0.125,-0,-0,0.66667
0.10965,0.56197,0.87724,0.092961,7.7839,390.65,-0.21746,0.072488,-1.9734,-0.28995,-1.617e-08,-0.9867,0,0,0.125,4.6259e-18,0,0.66667
0.91206,0.57352,7.2965,0.11028,1.5194,6.1603,-2.1458,0.71528,-1.9549,-2.8611,-1.2139e-08,-0.97747,0,0,0.125,-0,-0,0.66667
0.32409,0.27996,2.5927,-0.33006,-25.052,249.4,2.2821,-0.76068,-1.613,3.0427,2.8022e-13,-0.8065,0,0,0.125,-7.4015e-16,0,0.66667
0.72386,0.56461,5.7909,0.09692,3.8814,50.417,-1.4967,0.49889,-1.9662,-1.9956,-7.6381e-12,-0.9831,0,0,0.125,-0,-0,0.66667
0.70962,0.68164,5.677,0.27246,11.404,55.469,-4.1246,1.3749,-1.7346,-5.4995,-9.7309e-12,-0.86728,0,0,0.125,5.9212e-16,0,0.66667
0.46881,0.42504,3.7505,-0.11244,-7.4219,164.56,1.1245,-0.37484,-1.9579,1.4994,2.7245e-13,-0.97897,0,0,0.125,5.9212e-16,0,0.66667
0.091311,0.92629,0.73049,0.63944,54.008,403.38,-1.2456,0.4152,-0.54651,-1.6608,-2.6286e-07,-0.27325,0,0,0.125,-0,-0,0.66667
0.88983,0.77926,7.1187,0.41888,7.2739,9.7849,-7.9517,2.6506,-1.3793,-10.602,1.7465e-08,-0.68966,0,0,0.125,-1.4803e-15,0,0.66667
0.83452,0.93591,6.6762,0.65387,16.847,20.807,-11.641,3.8803,-0.4791,-15.521,-9.4908e-09,-0.23955,0,0,0.125,-2.4496e-17,0,0.66667
0.43167,0.451,3.4534,-0.073498,-5.0606,185.18,0.67684,-0.22561,-1.9789,0.90246,-2.9421e-14,-0.98943,0,0,0.125,-0,-0,0.66667
0.4559,0.93917,3.6472,0.65875,44.442,172.32,-6.4069,2.1356,-0.45829,-8.5425,4.4942e-13,-0.22915,0,0,0.125,-1.1842e-15,0,0.66667
0.5459,0.23233,4.3672,-0.40151,-23.885,124.92,4.676,-1.5587,-1.4285,6.2346,-3.8103e-13,-0.71426,0,0,0.125,-0,-0,0.66667
0.3785,0.91044,3.028,0.61566,44.893,216.62,-4.9712,1.6571,-0.65252,-6.6282,-2.1267e-12,-0.32626,0,0,0.125,1.1842e-15,0,0.66667
0.50468,0.78521,4.0374,0.42782,27.04,145.78,-4.6061,1.5354,-1.3487,-6.1415,-1.5983e-12,-0.67436,0,0,0.125,1.1842e-15,0,0.66667
0.47267,0.58678,3.7814,0.13018,8.5528,162.47,-1.3126,0.43755,-1.9393,-1.7502,-3.3751e-14,-0.96963,0,0,0.125,-5.9212e-16,0,0.66667
0.28587,0.35413,2.2869,-0.2188,-17.029,273.42,1.3344,-0.4448,-1.8285,1.7792,-9.0467e-12,-0.91427,0,0,0.125,-5.9212e-16,0,0.66667
0.87249,0.90205,6.9799,0.60307,12.163,13.202,-11.225,3.7417,-0.70785,-14.967,6.4111e-10,-0.35393,0,0,0.125,-2.9606e-16,0,0.66667
0.04716,0.14232,0.37728,-0.53652,-45.529,433.79,0.53979,-0.17993,-0.97906,0.71972,4.009e-07,-0.48953,0,0,0.125,-7.4015e-17,0,0.66667
0.36431,0.56984,2.9145,0.10476,7.693,224.63,-0.81418,0.27139,-1.9599,-1.0856,-1.3783e-12,-0.97993,0,0,0.125,-0,-0,0.66667
0.77404,0.05246,6.1923,-0.67131,-22.886,36.033,11.085,-3.6951,-0.3956,14.78,5.582e-11,-0.1978,0,0,0.125,5.9212e-16,0,0.66667
0.48551,0.055455,3.8841,-0.66682,-43.407,156.31,6.9067,-2.3022,-0.42105,9.2089,-5.5866e-13,-0.21052,0,0,0.125,5.9212e-16,0,0.66667
0.78628,0.75986,6.2902,0.38979,12.532,31.807,-6.5383,2.1794,-1.4584,-8.7178,5.42e-11,-0.72918,0,0,0.125,-0,-0,0.66667
0.48261,0.7558,3.8609,0.3837,24.951,157.35,-3.9504,1.3168,-1.478,-5.2672,7.0055e-13,-0.73901,0,0,0.125,-0,-0,0.66667
0.98946,0.88287,7.9157,0.5743,0.88861,1.3552,-12.123,4.0409,-0.82606,-16.163,4.0342e-06,-0.41303,0,0,0.125,-0,-0,0.66667
0.88404,0.16372,7.0723,-0.50441,-9.2424,10.938,9.513,-3.171,-1.0936,12.684,-8.1076e-10,-0.54682,0,0,0.125,-0,-0,0.66667
0.007732,0.43667,0.061856,-0.094999,-8.0516,461.08,0.01567,-0.0052233,-1.9671,0.020893,3.4367e-08,-0.98357,0,0,0.125,1.1565e-17,0,0.66667
0.47505,0.46144,3.8004,-0.057837,-3.7881,161.16,0.58614,-0.19538,-1.9865,0.78152,-4.7051e-13,-0.99324,0,0,0.125,-8.8818e-16,0,0.66667
0.85741,0.51545,6.8593,0.02318,0.51035,14.837,-0.42399,0.14133,-1.9987,-0.56532,7.6956e-10,-0.99935,0,0,0.125,-0,-0,0.66667
0.34353,0.96147,2.7482,0.69221,52.038,237.85,-5.0729,1.691,-0.29944,-6.7638,-9.6145e-13,-0.14972,0,0,0.125,2.9606e-16,-1.0578e-16,0.66667
0.72899,0.10651,5.8319,-0.59024,-23.469,49.583,9.1793,-3.0598,-0.75956,12.239,5.6231e-12,-0.37978,0,0,0.125,-0,-0,0.66667
0.41832,0.21242,3.3465,-0.43138,-30.201,193.07,3.8496,-1.2832,-1.3382,5.1328,9.9565e-13,-0.6691,0,0,0.125,-2.9606e-16,0,0.66667
0.095764,0.39623,0.76611,-0.15565,-13.074,400.19,0.31799,-0.106,-1.9146,0.42399,1.2121e-08,-0.95732,0,0,0.125,-1.4803e-16,0,0.66667
0.31526,0.041313,2.522,-0.68803,-52.813,255.32,4.6273,-1.5424,-0.31694,6.1698,-2.216e-13,-0.15847,0,0,0.125,-5.9212e-16,0,0.66667
0.31302,0.27078,2.5041,-0.34382,-26.307,256.32,2.2959,-0.76532,-1.5821,3.0613,-1.7466e-12,-0.79105,0,0,0.125,-0,-0,0.66667
0.65455,0.73351,5.2364,0.35026,16.924,76.286,-4.891,1.6303,-1.5647,-6.5213,-3.221e-12,-0.78234,0,0,0.125,-0,-0,0.66667
0.92687,0.083069,7.415,-0.6254,-7.4088,5.6795,12.366,-4.122,-0.60789,16.488,-8.3566e-08,-0.30395,0,0,0.125,-0,-0,0.66667
0.70369,0.96115,5.6295,0.69172,29.738,58.573,-10.384,3.4614,-0.30138,-13.846,2.3714e-13,-0.15069,0,0,0.125,-1.1842e-15,0,0.66667
0.32303,0.79047,2.5843,0.43571,33.132,250.15,-3.0026,1.0009,-1.3236,-4.0035,2.7589e-12,-0.66181,0,0,0.125,-0,-0,0.66667
0.68312,0.04274,5.465,-0.68589,-31.151,66.042,9.9956,-3.3319,-0.32612,13.328,-1.3554e-12,-0.16306,0,0,0.125,1.1842e-15,0,0.66667
0.084102,0.61924,0.67282,0.17887,15.057,408.22,-0.32092,0.10697,-1.8849,-0.42789,-1.1309e-08,-0.94246,0,0,0.125,1.1102e-16,0,0.66667
0.3755,0.39127,3.004,-0.16309,-11.864,217.93,1.3065,-0.4355,-1.9077,1.742,-4.0501e-13,-0.95384,0,0,0.125,-0,-0,0.66667
0.19006,0.68785,1.5205,0.28177,23.035,336.16,-1.1425,0.38082,-1.7194,-1.5233,-4.3246e-10,-0.8597,0,0,0.125,5.9212e-16,0,0.66667
0.69305,0.01768,5.5444,-0.72348,-32.054,62.508,10.697,-3.5656,-0.1371,14.262,1.5632e-13,-0.068552,0,0,0.125,-0,-0,0.66667
0.66211,0.71928,5.2968,0.32893,15.609,73.247,-4.6461,1.5487,-1.6149,-6.1947,-5.2176e-12,-0.80747,0,0,0.125,2.3685e-15,0,0.66667
0.35307,0.8519,2.8246,0.52785,39.273,231.78,-3.9759,1.3253,-1.0076,-5.3012,2.4534e-12,-0.50381,0,0,0.125,-0,-0,0.66667
0.1806,0.83313,1.4448,0.49969,41.088,342.61,-1.9253,0.64175,-1.1101,-2.567,3.1296e-11,-0.55507,0,0,0.125,1.4803e-16,0,0.66667
0.15666,0.13687,1.2533,-0.5447,-45.19,358.76,1.8204,-0.60681,-0.94755,2.4272,1.5709e-09,-0.47377,0,0,0.125,-0,-0,0.66667
0.23699,0.95886,1.8959,0.68829,55.372,305.4,-3.4798,1.1599,-0.31582,-4.6398,2.2717e-12,-0.15791,0,0,0.125,-0,-0,0.66667
0.32846,0.11359,2.6277,-0.57961,-43.988,246.95,4.0614,-1.3538,-0.80809,5.4153,-1.5987e-12,-0.40404,0,0,0.125,-0,-0,0.66667
0.8696,0.45428,6.9568,-0.068585,-1.3872,12.597,1.2724,-0.42412,-1.9815,1.6965,-1.3188e-09,-0.99074,0,0,0.125,-1.0298e-15,0,0.66667
0.12191,0.96751,0.97531,0.70126,58.9,382.46,-1.8239,0.60795,-0.25256,-2.4318,1.1886e-07,-0.12628,0,0,0.125,5.5511e-17,0,0.66667
0.16814,0.20521,1.3451,-0.44219,-36.498,350.95,1.5862,-0.52872,-1.3039,2.1149,8.5289e-10,-0.65196,0,0,0.125,-0,-0,0.66667
0.37046,0.67156,2.9636,0.25733,18.813,221,-2.0337,0.67791,-1.7632,-2.7116,-1.0727e-12,-0.88158,0,0,0.125,-0,-0,0.66667
0.60435,0.0019786,4.8348,-0.74703,-40.461,98.455,9.6313,-3.2104,-0.015457,12.842,-4.1007e-12,-0.0077283,0,0,0.125,4.737e-15,0,0.66667
0.055815,0.26573,0.44652,-0.35141,-29.734,427.77,0.41843,-0.13948,-1.5587,0.55791,-1.6824e-09,-0.77936,0,0,0.125,-0,-0,0.66667
0.24523,0.82851,1.9618,0.49276,39.357,299.82,-2.5779,0.85929,-1.1351,-3.4372,2.7648e-11,-0.56757,0,0,0.125,-2.9606e-16,0,0.66667
0.83397,0.85241,6.6718,0.52862,13.58,20.487,-9.4049,3.135,-1.0048,-12.54,9.4333e-10,-0.5024,0,0,0.125,-0,-0,0.66667
0.66288,0.18898,5.3031,-0.46653,-22.15,73.199,6.5975,-2.1992,-1.2253,8.7966,7.7005e-13,-0.61267,0,0,0.125,-0,-0,0.66667
0.35143,0.16828,2.8114,-0.49759,-37.054,232.74,3.7305,-1.2435,-1.1175,4.974,-1.2104e-12,-0.55873,0,0,0.125,-5.9212e-16,0,0.66667
0.11421,0.84243,0.9137,0.51364,43.1,387.63,-1.2515,0.41717,-1.0618,-1.6687,-3.2724e-09,-0.53091,0,0,0.125,2.0194e-16,0,0.66667
0.3249,0.45829,2.5992,-0.062558,-4.7385,248.77,0.4336,-0.14453,-1.9858,0.57814,6.2286e-13,-0.99288,0,0,0.125,-0,-0,0.66667
0.24452,0.87613,1.9561,0.5642,45.124,300.35,-2.9431,0.98102,-0.86782,-3.9241,-8.1866e-11,-0.43391,0,0,0.125,-5.9212e-16,0,0.66667
0.71057,0.57143,5.6845,0.10715,4.4656,54.98,-1.6242,0.54141,-1.9572,-2.1656,-4.5642e-12,-0.9786,0,0,0.125,-0,-0,0.66667
0.30055,0.45703,2.4044,-0.064461,-4.9665,264.05,0.4133,-0.13777,-1.9845,0.55107,-2.2657e-12,-0.99224,0,0,0.125,-0,-0,0.66667
0.67724,0.78096,5.4179,0.42143,19.3,67.552,-6.0888,2.0296,-1.3684,-8.1183,-4.782e-12,-0.68418,0,0,0.125,1.5358e-15,0,0.66667
0.41266,0.20486,3.3012,-0.44271,-31.177,196.34,3.8973,-1.2991,-1.301,5.1965,-2.0495e-13,-0.65051,0,0,0.125,-0,-0,0.66667
0.34994,0.56267,2.7995,0.094,6.9851,233.35,-0.70174,0.23391,-1.9682,-0.93565,-2.2016e-13,-0.98409,0,0,0.125,-0,-0,0.66667
0.78582,0.50929,6.2866,0.013937,0.44674,31.507,-0.23363,0.077878,-1.9982,-0.31151,-4.333e-11,-0.99909,0,0,0.125,-0,-0,0.66667
0.1854,0.90732,1.4832,0.61098,50.225,339.47,-2.4166,0.80553,-0.67469,-3.2221,3.1212e-09,-0.33734,0,0,0.125,-0,1.9579e-17,0.66667
0.45682,0.96662,3.6546,0.69992,47.21,171.9,-6.8211,2.2737,-0.25857,-9.0949,-1.7009e-13,-0.12928,0,0,0.125,-0,-0,0.66667
0.58351,0.71058,4.6681,0.31587,17.625,106.9,-3.932,1.3107,-1.6438,-5.2427,-1.1136e-12,-0.82192,0,0,0.125,-0,-0,0.66667
0.3212,0.21449,2.5696,-0.42826,-32.606,251.28,2.9346,-0.97819,-1.3466,3.9127,-1.8325e-12,-0.67328,0,0,0.125,-1.0587e-16,0,0.66667
0.70625,0.4274,5.65,-0.1089,-4.5955,56.498,1.6408,-0.54692,-1.9576,2.1877,4.2504e-12,-0.97881,0,0,0.125,-5.9212e-16,0,0.66667
0.91783,0.77585,7.3426,0.41377,5.3966,5.9736,-8.1018,2.7006,-1.3909,-10.802,3.9543e-08,-0.69545,0,0,0.125,2.3198e-15,0,0.66667
0.073071,0.43242,0.58456,-0.10138,-8.5465,415.82,0.15803,-0.052676,-1.9626,0.21071,6.4037e-08,-0.98129,0,0,0.125,-3.7007e-17,0,0.66667
0.18143,0.4371,1.4514,-0.094346,-7.7317,341.9,0.36516,-0.12172,-1.9679,0.48688,-1.2578e-11,-0.98396,0,0,0.125,-6.4763e-17,0,0.66667
0.50911,0.76859,4.0729,0.40288,25.301,143.44,-4.3757,1.4586,-1.4208,-5.8343,-2.3093e-13,-0.71039,0,0,0.125,-0,-0,0.66667
0.79988,0.60458,6.399,0.15687,4.7342,27.853,-2.6769,0.8923,-1.9123,-3.5692,1.3125e-10,-0.95616,0,0,0.125,-2.3685e-15,0,0.66667
0.63096,0.5947,5.0477,0.14205,7.2158,85.764,-1.912,0.63733,-1.9278,-2.5493,-2.4081e-12,-0.96388,0,0,0.125,-0,-0,0.66667
0.019691,0.4018,0.15753,-0.14731,-12.483,452.78,0.061878,-0.020626,-1.9226,0.082505,2.8219e-08,-0.96131,0,0,0.125,-0,-0,0.66667
0.32998,0.85195,2.6399,0.52792,39.988,245.94,-3.7163,1.2388,-1.0102,-4.9551,-7.9559e-13,-0.50509,0,0,0.125,-0,-0,0.66667
0.65383,0.39671,5.2306,-0.15493,-7.4826,76.347,2.1611,-0.72036,-1.9151,2.8814,7.8249e-13,-0.95754,0,0,0.125,-0,-0,0.66667
0.68714,0.81893,5.4971,0.47839,21.382,63.958,-7.0127,2.3376,-1.1893,-9.3503,-3.5176e-12,-0.59465,0,0,0.125,-0,-0,0.66667
0.48225,0.39361,3.858,-0.15958,-10.362,157.33,1.6418,-0.54725,-1.91,2.189,-5.5167e-13,-0.95499,0,0,0.125,-0,-0,0.66667
0.053735,0.41856,0.42988,-0.12216,-10.325,429.19,0.14004,-0.04668,-1.9448,0.18672,-5.2992e-08,-0.97239,0,0,0.125,-0,-0,0.66667
0.62779,0.3525,5.0223,-0.22126,-11.321,87.171,2.9632,-0.98774,-1.8261,3.951,-3.0487e-13,-0.91306,0,0,0.125,-0,-0,0.66667
0.50403,0.181,4.0322,-0.47851,-30.294,146.2,5.1452,-1.7151,-1.1854,6.8603,1.7031e-12,-0.59269,0,0,0.125,-0,-0,0.66667
0.72541,0.45976,5.8033,-0.060359,-2.4052,49.882,0.93408,-0.31136,-1.9852,1.2454,2.5097e-12,-0.99258,0,0,0.125,5.9212e-16,0,0.66667
0.39049,0.88182,3.124,0.57273,41.282,209.45,-4.7712,1.5904,-0.83696,-6.3616,1.9709e-12,-0.41848,0,0,0.125,-0,1.0106e-16,0.66667
0.83573,0.64832,6.6858,0.22248,5.6068,19.423,-3.9666,1.3222,-1.8221,-5.2887,1.5186e-09,-0.91106,0,0,0.125,-0,-0,0.66667
0.3075,0.47001,2.46,-0.044984,-3.4495,259.66,0.2951,-0.098366,-1.9926,0.39346,-8.4438e-13,-0.99631,0,0,0.125,-0,-0,0.66667
0.86379,0.74578,6.9103,0.36867,7.8236,14.052,-6.7936,2.2645,-1.5163,-9.0582,5.4969e-09,-0.75817,0,0,0.125,-5.9212e-16,0,0.66667
0.014481,0.16046,0.11585,-0.50931,-43.292,456.41,0.15734,-0.052445,-1.0801,0.20978,-6.6171e-09,-0.54005,0,0,0.125,3.7007e-17,0,0.66667
0.76274,0.80242,6.1019,0.45363,16.021,38.636,-7.3814,2.4605,-1.2683,-9.8418,-1.0454e-11,-0.63416,0,0,0.125,-0,-0,0.66667
0.82737,0.53621,6.6189,0.054319,1.4307,21.139,-0.95877,0.31959,-1.9922,-1.2784,4.6027e-11,-0.99612,0,0,0.125,-0,-0,0.66667
0.6809,0.065784,5.4472,-0.65132,-29.718,66.763,9.461,-3.1537,-0.49054,12.615,-4.3876e-13,-0.24527,0,0,0.125,-0,-0,0.66667
0.90273,0.99868,7.2219,0.74802,11.811,9.1474,-14.406,4.8019,-0.011226,-19.208,-1.4443e-09,-0.0056132,0,0,0.125,1.4803e-15,-2.3906e-17,0.66667
0.20173,0.82308,1.6139,0.48462,39.507,328.48,-2.0856,0.69522,-1.1663,-2.7809,-4.9134e-11,-0.58317,0,0,0.125,-0,-0,0.66667
0.35195,0.74005,2.8156,0.36007,26.759,232.27,-2.7035,0.90117,-1.5369,-3.6047,1.6827e-12,-0.76847,0,0,0.125,-0,-0,0.66667
0.22914,0.20064,1.8331,-0.44904,-36.138,310.32,2.1951,-0.73169,-1.2814,2.9268,-2.6183e-11,-0.64068,0,0,0.125,-0,-0,0.66667
0.84492,0.2232,6.7593,-0.4152,-9.969,17.845,7.4839,-2.4946,-1.3894,9.9785,-1.9025e-09,-0.6947,0,0,0.125,-0,-0,0.66667
0.74641,0.26853,5.9713,-0.3472,-12.962,43.384,5.5286,-1.8429,-1.5707,7.3715,1.6476e-11,-0.78533,0,0,0.125,1.1842e-15,0,0.66667
0.86905,0.19166,6.9524,-0.46252,-9.4925,13.34,8.5749,-2.8583,-1.2383,11.433,-4.4804e-09,-0.61915,0,0,0.125,-2.3685e-15,0,0.66667
0.34762,0.9859,2.781,0.72885,54.656,235.41,-5.4051,1.8017,-0.11023,-7.2069,-7.3053e-13,-0.055114,0,0,0.125,5.9212e-16,0,0.66667
0.15395,0.34567,1.2316,-0.23149,-19.163,360.46,0.76028,-0.25343,-1.8111,1.0137,2.805e-09,-0.90553,0,0,0.125,-0,-0,0.66667
0.96828,0.26998,7.7463,-0.34503,-1.6794,1.4488,7.1271,-2.3757,-1.5792,9.5028,2.6047e-07,-0.78958,0,0,0.125,-0,-0,0.66667
0.44892,0.38104,3.5914,-0.17843,-12.06,175.53,1.7089,-0.56962,-1.8862,2.2785,1.6872e-12,-0.94312,0,0,0.125,-1.1842e-15,0,0.66667
0.7299,0.33153,5.8392,-0.2527,-9.9448,48.545,3.9349,-1.3116,-1.7717,5.2465,1.1956e-11,-0.88584,0,0,0.125,1.1842e-15,0,0.66667
0.65417,0.049432,5.2333,-0.67585,-32.918,77.217,9.4319,-3.144,-0.37645,12.576,-3.9524e-13,-0.18823,0,0,0.125,1.1842e-15,0,0.66667
0.14285,0.52089,1.1428,0.031338,2.6014,367.97,-0.095501,0.031834,-1.9971,-0.12733,-2.3452e-10,-0.99853,0,0,0.125,-0,-0,0.66667
0.84418,0.86043,6.7534,0.54065,13.106,18.358,-9.7366,3.2455,-0.96306,-12.982,1.4968e-09,-0.48153,0,0,0.125,-1.1842e-15,0,0.66667
0.97846,0.028444,7.8277,-0.70733,-2.5262,2.2991,14.765,-4.9216,-0.22021,19.686,2.5805e-05,-0.11011,0,0,0.125,1.1842e-15,0,0.66667
0.96625,0.22659,7.73,-0.41012,-2.1548,1.7293,8.4538,-2.8179,-1.4025,11.272,2.6923e-07,-0.70125,0,0,0.125,-0,-0,0.66667
0.3364,0.46031,2.6912,-0.059537,-4.471,241.65,0.42727,-0.14242,-1.9855,0.5697,-1.0945e-12,-0.99274,0,0,0.125,-0,-0,0.66667
0.92595,0.6871,7.4076,0.28065,3.2748,4.7495,-5.5439,1.848,-1.7205,-7.3918,2.8861e-08,-0.86023,0,0,0.125,1.2953e-15,0,0.66667
0.13324,0.94588,1.066,0.66881,55.979,374.72,-1.9011,0.63371,-0.40763,-2.5349,3.5723e-08,-0.20382,0,0,0.125,-0,-0,0.66667
0.93972,0.9198,7.5178,0.6297,6.1743,4.4385,-12.624,4.208,-0.59053,-16.832,-5.6339e-07,-0.29526,0,0,0.125,-0,-0,0.66667
0.0441,0.52136,0.3528,0.03204,2.7101,435.86,-0.030143,0.010048,-1.9964,-0.040191,-1.9379e-07,-0.99822,0,0,0.125,-0,-0,0.66667
0.40908,0.77445,3.2726,0.41167,29.083,198.37,-3.5927,1.1976,-1.3978,-4.7902,6.7524e-13,-0.69889,0,0,0.125,-0,-0,0.66667
0.84301,0.25814,6.7441,-0.36279,-8.7952,18.119,6.5244,-2.1748,-1.5344,8.6992,-2.3214e-09,-0.76719,0,0,0.125,-0,-0,0.66667
0.72623,0.86015,5.8098,0.54022,21.634,50.353,-8.3696,2.7899,-0.96007,-11.159,-4.8717e-12,-0.48003,0,0,0.125,-8.6003e-16,0,0.66667
0.72093,0.58245,5.7674,0.12367,4.9982,51.423,-1.902,0.63402,-1.9462,-2.5361,-6.5118e-12,-0.97308,0,0,0.125,-0,-0,0.66667
0.27735,0.50647,2.2188,0.0097109,0.75925,278.82,-0.057457,0.019152,-1.9992,-0.076609,-2.0206e-12,-0.99962,0,0,0.125,-0,-0,0.66667
0.42121,0.15878,3.3697,-0.51183,-35.768,191.52,4.5993,-1.5331,-1.0718,6.1323,1.3278e-12,-0.5359,0,0,0.125,-1.1842e-15,0,0.66667
0.58955,0.098303,4.7164,-0.60255,-33.422,104.69,7.5783,-2.5261,-0.70878,10.104,3.2863e-14,-0.35439,0,0,0.125,-0,-0,0.66667
0.38914,0.70633,3.1131,0.30949,22.261,209.92,-2.5693,0.85642,-1.6606,-3.4257,-6.8834e-15,-0.83031,0,0,0.125,-0,-0,0.66667
0.50598,0.72314,4.0478,0.33472,21.094,144.98,-3.613,1.2043,-1.6005,-4.8173,9.4924e-13,-0.80026,0,0,0.125,-1.1842e-15,0,0.66667
0.54035,0.21788,4.3228,-0.42318,-25.399,127.69,4.8782,-1.6261,-1.3626,6.5042,1.6454e-12,-0.68131,0,0,0.125,-1.5543e-15,0,0.66667
0.82427,0.37278,6.5942,-0.19082,-5.1161,21.945,3.3555,-1.1185,-1.8708,4.474,-7.9968e-10,-0.93541,0,0,0.125,-0,-0,0.66667
0.72498,0.44651,5.7998,-0.080231,-3.2017,50.035,1.2409,-0.41362,-1.9753,1.6545,5.1512e-12,-0.98766,0,0,0.125,-0,-0,0.66667
0.66049,0.41929,5.2839,-0.12107,-5.7554,73.666,1.7059,-0.56863,-1.9467,2.2745,1.4517e-12,-0.97336,0,0,0.125,-1.1842e-15,0,0.66667
0.035884,0.8363,0.28707,0.50445,42.83,441.58,-0.38617,0.12872,-1.0943,-0.51489,-7.8107e-08,-0.54713,0,0,0.125,-0,-0,0.66667
0.15539,0.93296,1.2431,0.64944,53.986,359.69,-2.1528,0.71761,-0.50304,-2.8704,-1.6342e-08,-0.25152,0,0,0.125,1.4803e-16,-7.353e-17,0.66667
0.88653,0.021107,7.0922,-0.71834,-13.087,11.37,13.586,-4.5285,-0.16437,18.114,-1.8265e-08,-0.082187,0,0,0.125,-0,-0,0.66667
0.76576,0.83426,6.126,0.50138,17.535,37.873,-8.1907,2.7302,-1.1092,-10.921,1.6527e-11,-0.55459,0,0,0.125,5.9212e-16,0,0.66667
0.18038,0.79132,1.4431,0.43699,35.908,342.72,-1.6816,0.56054,-1.319,-2.2421,-5.5688e-10,-0.6595,0,0,0.125,2.9606e-16,0,0.66667
0.065156,0.19595,0.52125,-0.45607,-38.585,421.34,0.63394,-0.21131,-1.2608,0.84525,9.5603e-08,-0.63038,0,0,0.125,-0,-0,0.66667
0.16273,0.59753,1.3019,0.1463,12.071,354.5,-0.50789,0.1693,-1.9227,-0.67719,-9.2115e-10,-0.96136,0,0,0.125,-0,-0,0.66667
0.83741,0.24947,6.6992,-0.3758,-9.4162,19.333,6.7135,-2.2378,-1.4973,8.9514,-1.6115e-09,-0.74867,0,0,0.125,7.4015e-17,0,0.66667
0.97311,0.56584,7.7849,0.098756,0.39056,0.82781,-2.0501,0.68338,-1.9651,-2.7335,-5.062e-07,-0.98255,0,0,0.125,-0,-0,0.66667
0.7551,0.55649,6.0408,0.084735,3.0591,40.394,-1.365,0.455,-1.9734,-1.82,-1.0285e-11,-0.98672,0,0,0.125,-0,-0,0.66667
0.7846,0.48547,6.2768,-0.021795,-0.70221,31.841,0.36481,-0.1216,-1.9977,0.48642,9.7707e-12,-0.99885,0,0,0.125,-0,-0,0.66667
0.029384,0.80094,0.23508,0.45141,38.319,446.08,-0.28297,0.094325,-1.2763,-0.3773,7.2336e-07,-0.63816,0,0,0.125,3.7007e-17,0,0.66667
0.87464,0.12655,6.9971,-0.56018,-11.089,12.677,10.452,-3.4841,-0.88809,13.936,-1.1866e-08,-0.44405,0,0,0.125,-0,2.8264e-17,0.66667
0.68115,0.84575,5.4492,0.51863,23.565,66.292,-7.5363,2.5121,-1.0428,-10.048,-2.3586e-12,-0.52141,0,0,0.125,-0,-0,0.66667
0.34905,0.69207,2.7924,0.2881,21.446,233.99,-2.1453,0.71511,-1.704,-2.8604,8.038e-13,-0.85198,0,0,0.125,-1.1842e-15,0,0.66667
0.49958,0.18161,3.9966,-0.47759,-30.417,148.51,5.09,-1.6967,-1.192,6.7867,5.8531e-13,-0.59601,0,0,0.125,-2.9606e-16,-5.2643e-18,0.66667
0.95006,0.90026,7.6005,0.60039,4.8638,3.4581,-12.169,4.0562,-0.71862,-16.225,2.9094e-07,-0.35931,0,0,0.125,5.9212e-16,9.6699e-17,0.66667
0.054088,0.81076,0.4327,0.46613,39.493,428.99,-0.53786,0.17929,-1.2265,-0.71714,-6.8133e-08,-0.61326,0,0,0.125,-9.2519e-18,0,0.66667
0.1917,0.65963,1.5336,0.23944,19.556,335.05,-0.97922,0.32641,-1.796,-1.3056,-3.7342e-10,-0.898,0,0,0.125,-0,-0,0.66667
0.15015,0.93317,1.2012,0.64975,54.101,363.24,-2.0813,0.69376,-0.49778,-2.775,-2.3568e-08,-0.24889,0,0,0.125,3.7007e-16,0,0.66667
0.53825,0.75052,4.306,0.37578,22.612,128.66,-4.3149,1.4383,-1.4973,-5.7532,-5.933e-13,-0.74864,0,0,0.125,-0,-0,0.66667
0.23563,0.25034,1.885,-0.37449,-30.018,306.01,1.8824,-0.62748,-1.5044,2.5099,-1.4732e-11,-0.75218,0,0,0.125,-0,-0,0.66667
0.076734,0.46742,0.61387,-0.048864,-4.1168,413.29,0.07999,-0.026664,-1.9942,0.10665,-1.2204e-07,-0.99708,0,0,0.125,2.0354e-16,0,0.66667
0.515,0.90438,4.12,0.60657,37.91,140.79,-6.6641,2.2214,-0.69526,-8.8855,-2.9621e-13,-0.34763,0,0,0.125,7.4015e-17,0,0.66667
0.83625,0.84836,6.69,0.52254,13.25,19.973,-9.3221,3.1074,-1.0277,-12.429,1.5009e-09,-0.51386,0,0,0.125,-0,-0,0.66667
0.68195,0.55467,5.4556,0.082006,3.6962,65.357,-1.193,0.39768,-1.9746,-1.5907,-2.8301e-12,-0.98732,0,0,0.125,5.9212e-16,0,0.66667
0.036724,0.025988,0.29379,-0.71102,-60.55,441.04,0.55704,-0.18567,-0.20142,0.74272,9.2684e-06,-0.10071,0,0,0.125,-0,-0,0.66667
0.04527,0.03859,0.36216,-0.69211,-58.88,435.13,0.66842,-0.2228,-0.29826,0.89122,1.2726e-05,-0.14913,0,0,0.125,-0,-1.0641e-16,0.66667
0.53809,0.072325,4.3047,-0.64151,-38.792,129.25,7.364,-2.4547,-0.53476,9.8187,5.0049e-13,-0.26738,0,0,0.125,-0,-0,0.66667
0.14142,0.23022,1.1313,-0.40467,-33.674,369.03,1.2208,-0.40695,-1.4198,1.6278,4.3494e-09,-0.70989,0,0,0.125,-0,-0,0.66667
0.70723,0.11713,5.6579,-0.5743,-24.356,56.95,8.6649,-2.8883,-0.82658,11.553,7.6703e-12,-0.41329,0,0,0.125,-5.9212e-16,0,0.66667
0.24745,0.18911,1.9796,-0.46633,-37.19,298.36,2.4617,-0.82056,-1.2282,3.2822,7.5566e-12,-0.61411,0,0,0.125,-0,-0,0.66667
0.43996,0.88505,3.5197,0.57758,39.609,181.01,-5.421,1.807,-0.81425,-7.228,2.4691e-13,-0.40712,0,0,0.125,1.1842e-15,0,0.66667
0.62029,0.35326,4.9623,-0.22011,-11.439,90.379,2.9127,-0.9709,-1.8265,3.8836,-1.1284e-12,-0.91326,0,0,0.125,-0,-0,0.66667
0.97274,0.2423,7.7819,-0.38655,-1.6084,1.3285,8.0216,-2.6739,-1.4681,10.695,5.0739e-07,-0.73405,0,0,0.125,-5.9212e-16,0,0.66667
0.19701,0.49506,1.576,-0.0074058,-0.60311,331.46,0.031125,-0.010375,-1.9985,0.0415,1.8599e-10,-0.99927,0,0,0.125,-0,-0,0.66667
0.91184,0.9253,7.2947,0.63795,9.0726,7.4686,-12.41,4.1366,-0.55116,-16.546,2.7883e-07,-0.27558,0,0,0.125,-0,-0,0.66667
0.35078,0.97482,2.8062,0.71223,53.258,233.46,-5.3298,1.7766,-0.19475,-7.1064,2.7827e-12,-0.097376,0,0,0.125,-0,-0,0.66667
0.16192,0.63754,1.2954,0.2063,17.032,355.06,-0.71265,0.23755,-1.8468,-0.9502,-1.7732e-09,-0.92341,0,0,0.125,-0,-0,0.66667
0.42086,0.34494,3.3669,-0.23258,-16.209,191.41,2.0882,-0.69608,-1.8108,2.7843,-1.1102e-14,-0.90538,0,0,0.125,-1.1842e-15,0,0.66667
0.84148,0.0782,6.7318,-0.6327,-15.654,19.242,11.358,-3.786,-0.57699,15.144,-1.7946e-10,-0.2885,0,0,0.125,1.1842e-15,0,0.66667
0.043786,0.93575,0.35029,0.65362,55.577,436.14,-0.61055,0.20351,-0.48195,-0.81406,-3.7079e-06,-0.24097,0,0,0.125,1.0177e-16,-3.1827e-17,0.66667
0.13697,0.14018,1.0958,-0.53974,-45.042,372.11,1.5771,-0.52571,-0.96339,2.1029,1.5668e-09,-0.48169,0,0,0.125,-2.9606e-16,0,0.66667
0.58994,0.33376,4.7195,-0.24936,-13.744,103.88,3.1382,-1.0461,-1.7782,4.1843,-8.7108e-13,-0.8891,0,0,0.125,-0,-0,0.66667
0.40858,0.96915,3.2686,0.70372,49.977,199.13,-6.1339,2.0446,-0.2411,-8.1785,2.8031e-12,-0.12055,0,0,0.125,-0,-0,0.66667
0.47828,0.54932,3.8262,0.073976,4.8259,159.42,-0.7548,0.2516,-1.9785,-1.0064,-2.1566e-13,-0.98926,0,0,0.125,-5.9212e-16,0,0.66667
0.82205,0.36567,6.5764,-0.20149,-5.4658,22.47,3.5336,-1.1779,-1.8539,4.7115,-6.7288e-10,-0.92694,0,0,0.125,-0,-0,0.66667
0.16727,0.79239,1.3382,0.43858,36.21,351.54,-1.5651,0.52169,-1.3148,-2.0868,-9.9698e-10,-0.65739,0,0,0.125,2.9606e-16,0,0.66667
0.32202,0.70099,2.5762,0.30148,22.911,250.66,-2.0711,0.69037,-1.6748,-2.7615,2.9199e-13,-0.8374,0,0,0.125,5.9212e-16,0,0.66667
0.20551,0.45933,1.6441,-0.061004,-4.9505,325.8,0.26745,-0.089151,-1.9872,0.3566,5.27e-11,-0.99362,0,0,0.125,2.9606e-16,0,0.66667
0.099323,0.71998,0.79458,0.32997,27.724,397.78,-0.69917,0.23306,-1.6124,-0.93222,-2.3188e-08,-0.80622,0,0,0.125,-0,-0,0.66667
0.52436,0.27671,4.1948,-0.33493,-20.566,135.56,3.7467,-1.2489,-1.5998,4.9955,2.093e-12,-0.79988,0,0,0.125,-8.8818e-16,0,0.66667
0.21257,0.6649,1.7006,0.24735,20.025,321.15,-1.1217,0.37391,-1.7807,-1.4956,-1.0984e-10,-0.89036,0,0,0.125,-0,-0,0.66667
0.90438,0.51361,7.235,0.020417,0.30536,7.1283,-0.39391,0.1313,-1.9993,-0.52522,-1.0789e-08,-0.99963,0,0,0.125,-0,-0,0.66667
0.046031,0.22699,0.36825,-0.40952,-34.704,434.55,0.40215,-0.13405,-1.4059,0.53619,-1.788e-09,-0.70296,0,0,0.125,-0,-0,0.66667
0.89727,0.77021,7.1782,0.40531,6.5735,8.6455,-7.7584,2.5861,-1.4139,-10.345,2.4974e-08,-0.70693,0,0,0.125,-0,-0,0.66667
0.58773,0.0021656,4.7019,-0.74675,-41.707,105.92,9.363,-3.121,-0.016525,12.484,1.557e-12,-0.0082627,0,0,0.125,-0,-0,0.66667
0.8616,0.33154,6.8928,-0.25268,-5.4249,14.238,4.6445,-1.5482,-1.7734,6.1927,-4.9136e-09,-0.88671,0,0,0.125,-0,-0,0.66667
0.02917,0.4359,0.23336,-0.096156,-8.1431,446.21,0.059838,-0.019946,-1.969,0.079784,-4.8764e-07,-0.9845,0,0,0.125,-4.1941e-17,0,0.66667
0.33301,0.64438,2.6641,0.21657,16.315,243.79,-1.5386,0.51286,-1.8318,-2.0514,1.4355e-13,-0.91588,0,0,0.125,5.9212e-16,0,0.66667
0.50111,0.48759,4.0089,-0.018616,-1.1788,147.31,0.19901,-0.066336,-2.0004,0.26535,-1.3065e-12,-1.0002,0,0,0.125,5.9212e-16,0,0.66667
0.21711,0.23808,1.7369,-0.39288,-31.779,318.22,1.8197,-0.60657,-1.4522,2.4263,3.5485e-11,-0.72611,0,0,0.125,-0,-0,0.66667
0.4226,0.50424,3.3808,0.0063536,0.44164,190.34,-0.05728,0.019093,-2.0027,-0.076374,-1.7033e-13,-1.0014,0,0,0.125,-0,-0,0.66667
0.029533,0.25831,0.23626,-0.36254,-30.747,445.97,0.22841,-0.076137,-1.5339,0.30455,-3.6434e-07,-0.76696,0,0,0.125,-0,-0,0.66667
0.58718,0.57368,4.6975,0.11053,6.1166,105.03,-1.3845,0.4615,-1.9545,-1.846,2.8566e-13,-0.97727,0,0,0.125,-0,-0,0.66667
0.92973,0.69916,7.4379,0.29873,3.31,4.383,-5.9252,1.9751,-1.6805,-7.9002,3.0214e-08,-0.84025,0,0,0.125,-0,-0,0.66667
0.075808,0.19848,0.60647,-0.45228,-38.205,413.99,0.73145,-0.24382,-1.2731,0.97526,7.1088e-08,-0.63656,0,0,0.125,-0,-0,0.66667
0.84182,0.40509,6.7346,-0.14237,-3.4593,18.033,2.5568,-0.85226,-1.93,3.409,-1.841e-09,-0.96502,0,0,0.125,1.3323e-15,0,0.66667
0.74778,0.026843,5.9822,-0.70973,-26.655,43.974,11.322,-3.774,-0.21023,15.096,-9.4902e-12,-0.10511,0,0,0.125,5.9212e-16,0,0.66667
0.22999,0.47214,1.8399,-0.041792,-3.3533,309.6,0.20505,-0.068349,-1.9935,0.27339,-2.2481e-11,-0.99677,0,0,0.125,-0,-0,0.66667
0.51812,0.92372,4.1449,0.63557,39.572,139.26,-7.0251,2.3417,-0.56385,-9.3668,1.8163e-13,-0.28192,0,0,0.125,5.9212e-16,0,0.66667
0.31376,0.18887,2.5101,-0.4667,-35.737,255.97,3.1238,-1.0413,-1.2284,4.1651,-6.271e-12,-0.61418,0,0,0.125,1.1842e-15,0,0.66667
0.61579,0.20308,4.9263,-0.44539,-23.426,92.658,5.8509,-1.9503,-1.2925,7.8013,3.6771e-13,-0.64627,0,0,0.125,-0,-0,0.66667
0.21317,0.967,1.7054,0.7005,57.007,321.08,-3.1857,1.0619,-0.25476,-4.2475,-2.5964e-10,-0.12738,0,0,0.125,3.7007e-17,0,0.66667
0.43589,0.61309,3.4871,0.16964,11.631,182.83,-1.5774,0.52582,-1.8988,-2.1033,-3.7559e-13,-0.94938,0,0,0.125,-0,-0,0.66667
0.78908,0.60201,6.3126,0.15301,4.8416,30.692,-2.5757,0.85857,-1.9148,-3.4343,1.133e-10,-0.95742,0,0,0.125,-2.3685e-15,0,0.66667
0.46647,0.89657,3.7317,0.59486,39.587,166.4,-5.9196,1.9732,-0.7424,-7.8928,-1.7084e-12,-0.3712,0,0,0.125,5.9212e-16,0,0.66667
0.67355,0.026473,5.3884,-0.71029,-33.071,69.741,10.206,-3.4021,-0.20791,13.608,-8.1712e-13,-0.10395,0,0,0.125,5.9212e-16,0,0.66667
0.88484,0.41989,7.0787,-0.12016,-2.1574,10.057,2.2682,-0.75605,-1.9467,3.0242,-4.9013e-09,-0.97337,0,0,0.125,-0,-0,0.66667
0.93814,0.55829,7.5051,0.08743,0.8442,3.2852,-1.7498,0.58326,-1.9758,-2.333,-8.6188e-08,-0.98791,0,0,0.125,5.9212e-16,0,0.66667
0.98474,0.47971,7.8779,-0.03044,-0.060959,0.33441,0.63947,-0.21316,-1.9993,0.85263,-1.8668e-06,-0.99964,0,0,0.125,-0,-0,0.66667
0.88356,0.40096,7.0685,-0.14857,-2.6973,10.286,2.8004,-0.93345,-1.92,3.7338,-1.0717e-08,-0.96001,0,0,0.125,-1.1842e-15,0,0.66667
0.24358,0.51227,1.9486,0.018398,1.466,300.69,-0.0956,0.031867,-1.9967,-0.12747,-3.0248e-12,-0.99837,0,0,0.125,-0,-0,0.66667
0.4083,0.74213,3.2664,0.36319,25.663,198.76,-3.1636,1.0545,-1.5319,-4.2181,5.8442e-13,-0.76597,0,0,0.125,-0,-0,0.66667
0.37481,0.2551,2.9984,-0.36736,-26.781,218.49,2.9373,-0.97911,-1.5236,3.9164,1.4413e-12,-0.7618,0,0,0.125,-1.1842e-15,0,0.66667
0.15223,0.80743,1.2178,0.46115,38.272,361.72,-1.4976,0.4992,-1.2436,-1.9968,-3.2564e-09,-0.62179,0,0,0.125,-0,-0,0.66667
0.070456,0.32084,0.56365,-0.26874,-22.682,417.65,0.40394,-0.13465,-1.7413,0.53858,1.9961e-08,-0.87064,0,0,0.125,-0,-0,0.66667
0.29574,0.65293,2.3659,0.2294,17.742,267.14,-1.4473,0.48244,-1.8155,-1.9298,4.0957e-12,-0.90773,0,0,0.125,4.4409e-16,0,0.66667
0.85996,0.73063,6.8797,0.34595,7.5303,14.716,-6.3467,2.1156,-1.5767,-8.4622,5.0108e-09,-0.78836,0,0,0.125,-0,-0,0.66667
0.038983,0.89515,0.31187,0.59272,50.372,439.45,-0.49293,0.16431,-0.74872,-0.65724,-2.3058e-06,-0.37436,0,0,0.125,-3.7007e-17,0,0.66667
0.21547,0.85315,1.7237,0.52972,42.95,319.4,-2.4349,0.81164,-1.002,-3.2466,1.2764e-11,-0.501,0,0,0.125,-0,-0,0.66667
0.34655,0.42606,2.7724,-0.11091,-8.2648,235.43,0.82,-0.27333,-1.9562,1.0933,-8.8374e-13,-0.97811,0,0,0.125,-0,-0,0.66667
0.64816,0.53466,5.1853,0.051989,2.5424,78.591,-0.71888,0.23963,-1.9891,-0.9585,-7.4946e-13,-0.99457,0,0,0.125,-0,-0,0.66667
0.56317,0.93398,4.5053,0.65097,37.838,117.1,-7.8209,2.607,-0.49635,-10.428,6.6747e-13,-0.24817,0,0,0.125,-0,-0,0.66667
0.79618,0.04826,6.3695,-0.67761,-21.096,30.042,11.509,-3.8365,-0.36948,15.346,3.3206e-10,-0.18474,0,0,0.125,-2.1271e-15,0,0.66667
0.68696,0.38658,5.4957,-0.17013,-7.5726,63.534,2.4934,-0.83112,-1.8994,3.3245,2.9123e-12,-0.9497,0,0,0.125,-0,-0,0.66667
0.8895,0.80695,7.116,0.46043,8.0357,9.9507,-8.7371,2.9124,-1.2485,-11.649,1.4615e-08,-0.62424,0,0,0.125,-1.7764e-15,0,0.66667
0.4869,0.91927,3.8952,0.6289,40.835,155.49,-6.5326,2.1775,-0.59383,-8.7101,3.1752e-13,-0.29692,0,0,0.125,-0,-0,0.66667
0.53592,0.51386,4.2874,0.020796,1.2528,129.54,-0.23776,0.079253,-1.997,-0.31701,3.5166e-14,-0.99851,0,0,0.125,-0,-0,0.66667
0.83765,0.31094,6.7012,-0.28359,-7.0781,19.1,5.0676,-1.6892,-1.7134,6.7569,-1.8915e-09,-0.85669,0,0,0.125,-1.4803e-16,0,0.66667
0.0056932,0.87851,0.045545,0.56777,48.306,462.5,-0.068956,0.022984,-0.85294,-0.091943,-2.2637e-06,-0.42647,0,0,0.125,-0,-0,0.66667
0.24257,0.67887,1.9406,0.2683,21.411,301.41,-1.3884,0.4628,-1.7421,-1.8512,7.1139e-12,-0.87105,0,0,0.125,2.9606e-16,0,0.66667
0.22151,0.22852,1.7721,-0.40722,-32.877,315.32,1.9243,-0.64144,-1.4105,2.5658,2.0277e-11,-0.70525,0,0,0.125,-0,-0,0.66667
0.56155,0.60838,4.4924,0.16258,9.4082,117.08,-1.9476,0.64921,-1.9077,-2.5968,-2.1958e-12,-0.95387,0,0,0.125,1.1842e-15,0,0.66667
0.71761,0.1372,5.7409,-0.54421,-22.374,53.27,8.3313,-2.7771,-0.94856,11.108,5.306e-12,-0.47428,0,0,0.125,-0,-0,0.66667
0.2525,0.85647,2.02,0.5347,42.565,295.13,-2.8802,0.96007,-0.98362,-3.8403,1.5318e-11,-0.49181,0,0,0.125,-0,-0,0.66667
0.50602,0.12309,4.0482,-0.56537,-35.749,145.33,6.1032,-2.0344,-0.86279,8.1376,1.0156e-12,-0.43139,0,0,0.125,-7.4015e-16,0,0.66667
0.73927,0.39609,5.9142,-0.15586,-5.9442,45.393,2.4581,-0.81935,-1.9123,3.2774,1.1618e-11,-0.95613,0,0,0.125,-0,-0,0.66667
0.7223,0.39672,5.7784,-0.15492,-6.2363,50.98,2.3872,-0.79573,-1.9142,3.1829,7.3312e-12,-0.95708,0,0,0.125,-0,-0,0.66667
0.46831,0.78613,3.7465,0.4292,28.424,165.11,-4.288,1.4293,-1.3482,-5.7173,-6.1284e-14,-0.67408,0,0,0.125,-0,-0,0.66667
0.70619,0.12307,5.6495,-0.56539,-24.043,57.29,8.5179,-2.8393,-0.86434,11.357,8.141e-12,-0.43217,0,0,0.125,1.3323e-15,0,0.66667
0.55907,0.17539,4.4725,-0.48691,-28.399,118.69,5.8073,-1.9358,-1.1565,7.7431,-9.9476e-13,-0.57823,0,0,0.125,5.9212e-16,0,0.66667
0.078411,0.80388,0.62729,0.45581,38.489,412.19,-0.76247,0.25416,-1.2641,-1.0166,-5.7461e-08,-0.63207,0,0,0.125,7.4015e-17,0,0.66667
0.9528,0.75248,7.6224,0.37871,2.8139,2.5175,-7.6979,2.566,-1.4937,-10.264,-4.8426e-08,-0.74687,0,0,0.125,-0,-0,0.66667
0.97565,0.51169,7.8052,0.017535,0.061746,0.67831,-0.36498,0.12166,-1.9968,-0.48664,-2.7935e-06,-0.99839,0,0,0.125,-0,-0,0.66667
0.16201,0.17765,1.2961,-0.48352,-40.013,355.11,1.6712,-0.55706,-1.167,2.2283,1.2446e-09,-0.58351,0,0,0.125,-0,-0,0.66667
0.41783,0.48323,3.3426,-0.025161,-1.7576,193.07,0.22428,-0.074759,-1.9967,0.29903,3.3711e-13,-0.99833,0,0,0.125,-0,-0,0.66667
0.61959,0.84469,4.9567,0.51704,27.025,91.163,-6.8342,2.2781,-1.0492,-9.1123,-1.8079e-12,-0.52459,0,0,0.125,2.3685e-15,0,0.66667
0.56812,0.55051,4.545,0.075765,4.3348,113.91,-0.91827,0.30609,-1.9778,-1.2244,-2.0768e-12,-0.98889,0,0,0.125,5.9212e-16,0,0.66667
0.37473,0.2973,2.9979,-0.30405,-22.154,218.48,2.4307,-0.81022,-1.6739,3.2409,6.6125e-13,-0.83693,0,0,0.125,-1.0359e-15,0,0.66667
0.90355,0.70891,7.2284,0.31336,4.7583,7.5543,-6.0402,2.0134,-1.651,-8.0537,2.3897e-08,-0.82552,0,0,0.125,-1.1842e-15,0,0.66667
0.67718,0.81142,5.4174,0.46713,21.415,67.671,-6.7484,2.2495,-1.2239,-8.9978,-3.4679e-12,-0.61193,0,0,0.125,-4.4409e-16,0,0.66667
0.11263,0.37792,0.90103,-0.18312,-15.327,388.62,0.43998,-0.14666,-1.8814,0.58664,1.0149e-08,-0.94069,0,0,0.125,-2.9606e-16,0,0.66667
0.66956,0.74831,5.3565,0.37246,17.371,70.404,-5.3202,1.7734,-1.5084,-7.0936,-4.249e-12,-0.75419,0,0,0.125,1.7764e-15,0,0.66667
0.21799,0.38985,1.7439,-0.16522,-13.337,317.54,0.76837,-0.25612,-1.9049,1.0245,4.7526e-11,-0.95244,0,0,0.125,2.9606e-16,0,0.66667
0.086095,0.94362,0.68876,0.66542,56.279,406.98,-1.2222,0.40739,-0.42397,-1.6296,-1.126e-07,-0.21198,0,0,0.125,-0,-0,0.66667
0.35993,0.23136,2.8795,-0.40295,-29.763,227.47,3.0941,-1.0314,-1.4249,4.1255,-6.5659e-13,-0.71247,0,0,0.125,-0,-0,0.66667
0.049607,0.068751,0.39686,-0.64687,-54.967,432.12,0.68458,-0.22819,-0.5127,0.91277,8.4952e-07,-0.25635,0,0,0.125,-0,-0,0.66667
0.14662,0.22325,1.1729,-0.41512,-34.494,365.5,1.2984,-0.4328,-1.3861,1.7312,2.8912e-09,-0.69307,0,0,0.125,-0,-0,0.66667
0.45307,0.36716,3.6245,-0.19926,-13.405,173.24,1.9259,-0.64197,-1.8621,2.5679,-5.0482e-13,-0.93104,0,0,0.125,-0,-0,0.66667
0.9832,0.067792,7.8656,-0.64831,-1.7474,1.8513,13.598,-4.5328,-0.50775,18.131,-2.0972e-06,-0.25388,0,0,0.125,-0,-8.3292e-17,0.66667
0.84187,0.3386,6.7349,-0.2421,-5.8905,18.138,4.348,-1.4493,-1.7931,5.7973,-2.2128e-09,-0.89654,0,0,0.125,5.9212e-16,0,0.66667
0.013205,0.20892,0.10564,-0.43663,-37.084,457.29,0.123,-0.041,-1.3226,0.164,2.7378e-08,-0.66128,0,0,0.125,-1.8504e-17,0,0.66667
0.86889,0.16389,6.9512,-0.50417,-10.38,13.492,9.3455,-3.1152,-1.0946,12.461,-8.2181e-09,-0.54731,0,0,0.125,-0,-0,0.66667
0.28341,0.57191,2.2673,0.10787,8.4036,274.95,-0.65218,0.21739,-1.9593,-0.86957,3.0131e-12,-0.97966,0,0,0.125,-0,-0,0.66667
0.19764,0.32075,1.5811,-0.26888,-21.911,331.09,1.1337,-0.37789,-1.7415,1.5116,2.6072e-10,-0.87074,0,0,0.125,-0,-0,0.66667
0.30963,0.38352,2.4771,-0.17472,-13.384,258.35,1.1541,-0.3847,-1.8916,1.5388,-2.4359e-12,-0.9458,0,0,0.125,-0,-0,0.66667
0.52923,0.1359,4.2339,-0.54615,-33.402,133.45,6.1662,-2.0554,-0.94016,8.2217,3.114e-12,-0.47008,0,0,0.125,-1.1842e-15,0,0.66667
0.48269,0.68024,3.8615,0.27037,17.559,157.18,-2.784,0.92802,-1.7415,-3.7121,-1.9762e-14,-0.87074,0,0,0.125,-0,-0,0.66667
0.62987,0.90466,5.039,0.60699,31.125,87.003,-8.1563,2.7188,-0.68981,-10.875,-7.0344e-13,-0.3449,0,0,0.125,-2.9606e-16,0,0.66667
0.16677,0.89205,1.3342,0.58808,48.655,351.97,-2.0923,0.69742,-0.76868,-2.7897,-3.3821e-09,-0.38434,0,0,0.125,2.9606e-16,0,0.66667
0.3743,0.98364,2.9944,0.72546,53.206,219.32,-5.7928,1.9309,-0.13075,-7.7237,-1.0543e-12,-0.065374,0,0,0.125,5.9212e-16,-1.477e-16,0.66667
0.58249,0.14137,4.6599,-0.53794,-30.177,107.77,6.6847,-2.2282,-0.9698,8.9129,-2.2204e-13,-0.4849,0,0,0.125,-0,-0,0.66667
0.81078,0.18814,6.4863,-0.4678,-13.511,25.676,8.0913,-2.6971,-1.2244,10.788,-3.8621e-10,-0.61218,0,0,0.125,2.3685e-15,0,0.66667
0.36845,0.57641,2.9476,0.11461,8.3874,222.14,-0.90089,0.3003,-1.9511,-1.2012,2.7972e-13,-0.97557,0,0,0.125,-0,-0,0.66667
0.83938,0.49715,6.7151,-0.0042777,-0.10534,18.489,0.076599,-0.025533,-1.9998,0.10213,-1.5645e-10,-0.99989,0,0,0.125,2.9606e-16,0,0.66667
0.41681,0.062978,3.3345,-0.65553,-46.13,194.29,5.829,-1.943,-0.47204,7.7719,-4.1487e-12,-0.23602,0,0,0.125,1.1842e-15,0,0.66667
0.94249,0.79262,7.5399,0.43893,4.016,3.5121,-8.8254,2.9418,-1.3135,-11.767,4.8682e-08,-0.65674,0,0,0.125,-0,-0,0.66667
0.29636,0.61458,2.3709,0.17187,13.283,266.72,-1.0866,0.36221,-1.8974,-1.4488,3.4897e-12,-0.9487,0,0,0.125,2.9606e-16,0,0.66667
0.3686,0.15679,2.9488,-0.51481,-37.803,222.38,4.0482,-1.3494,-1.0571,5.3977,-2.5935e-13,-0.52856,0,0,0.125,-0,-0,0.66667
0.65273,0.37856,5.2218,-0.18216,-8.8217,76.81,2.5366,-0.84553,-1.8823,3.3821,-1.1231e-12,-0.94115,0,0,0.125,2.3685e-15,0,0.66667
0.58342,0.50998,4.6673,0.014963,0.83351,106.74,-0.18623,0.062078,-1.9977,-0.24831,-6.1243e-14,-0.99883,0,0,0.125,-0,-0,0.66667
0.35417,0.54389,2.8334,0.065832,4.8749,230.77,-0.4974,0.1658,-1.9829,-0.6632,-3.3459e-12,-0.99146,0,0,0.125,-0,-0,0.66667
0.48431,0.090671,3.8744,-0.61399,-39.987,156.83,6.3437,-2.1146,-0.66351,8.4582,8.9084e-13,-0.33176,0,0,0.125,1.4803e-16,0,0.66667
0.66432,0.93303,5.3146,0.64955,30.872,73.117,-9.2055,3.0685,-0.49844,-12.274,-5.2669e-13,-0.24922,0,0,0.125,-1.4803e-15,0,0.66667
0.05634,0.4518,0.45072,-0.072304,-6.1086,427.39,0.086903,-0.028968,-1.9794,0.11587,7.1027e-08,-0.98968,0,0,0.125,-0,-0,0.66667
0.6064,0.11304,4.8512,-0.58043,-31.181,97.07,7.5088,-2.5029,-0.80191,10.012,1.1147e-12,-0.40095,0,0,0.125,-0,-0,0.66667
0.74678,0.32404,5.9743,-0.26394,-9.8274,43.132,4.205,-1.4017,-1.7519,5.6066,1.452e-11,-0.87596,0,0,0.125,-0,-0,0.66667
0.79397,0.52707,6.3518,0.040601,1.2569,29.327,-0.68769,0.22923,-1.9948,-0.91693,1.8423e-11,-0.9974,0,0,0.125,-8.3611e-16,0,0.66667
0.21378,0.15008,1.7103,-0.52488,-42.586,320.51,2.3938,-0.79794,-1.0195,3.1918,-7.2842e-11,-0.50974,0,0,0.125,-0,-0,0.66667
0.64111,0.51463,5.1288,0.02194,1.0899,81.48,-0.30007,0.10002,-2.0006,-0.40009,8.7688e-13,-1.0003,0,0,0.125,-2.3685e-15,0,0.66667
0.73113,0.92557,5.8491,0.63836,25.251,49.033,-9.9568,3.3189,-0.55069,-13.276,-2.0286e-12,-0.27534,0,0,0.125,-0,-0,0.66667
0.095062,0.31706,0.7605,-0.27441,-23.066,400.69,0.55651,-0.1855,-1.7344,0.74201,2.1249e-08,-0.86721,0,0,0.125,-2.9606e-16,0,0.66667
0.070073,0.1833,0.56058,-0.47505,-40.173,417.95,0.71015,-0.23672,-1.1962,0.94687,1.018e-07,-0.59811,0,0,0.125,-0,-0,0.66667
0.88595,0.6207,7.0876,0.18105,3.2235,9.9372,-3.422,1.1407,-1.8829,-4.5626,9.1453e-09,-0.94144,0,0,0.125,1.4803e-15,0,0.66667
0.36132,0.91635,2.8906,0.62453,46.224,226.92,-4.814,1.6047,-0.61404,-6.4187,-1.1058e-13,-0.30702,0,0,0.125,-0,-0,0.66667
0.70343,0.4219,5.6275,-0.11715,-4.9836,57.502,1.758,-0.58601,-1.9537,2.3441,3.2824e-12,-0.97685,0,0,0.125,1.1842e-15,0,0.66667
0.56015,0.76839,4.4812,0.40258,23.407,118.02,-4.8108,1.6036,-1.424,-6.4144,-8.4821e-14,-0.71202,0,0,0.125,5.9212e-16,0,0.66667
0.33775,0.58366,2.702,0.12549,9.4161,240.83,-0.90421,0.3014,-1.9422,-1.2056,-2.3518e-12,-0.9711,0,0,0.125,-0,-0,0.66667
0.34565,0.51714,2.7652,0.025704,1.9164,235.96,-0.18954,0.06318,-1.9983,-0.25272,-1.1715e-12,-0.99917,0,0,0.125,-1.1842e-15,0,0.66667
0.90546,0.4408,7.2437,-0.088801,-1.3139,7.0057,1.7153,-0.57177,-1.9749,2.2871,9.1768e-09,-0.98747,0,0,0.125,-0,-0,0.66667
0.45348,0.48383,3.6279,-0.024261,-1.6304,172.95,0.2347,-0.078235,-2.0003,0.31294,8.6764e-14,-1.0002,0,0,0.125,5.9212e-16,0,0.66667
0.48253,0.11957,3.8602,-0.57064,-37.217,157.69,5.8742,-1.9581,-0.84366,7.8322,-1.3367e-13,-0.42183,0,0,0.125,-0,-1.8606e-16,0.66667
0.97915,0.53962,7.8332,0.059437,0.17487,0.54347,-1.2415,0.41385,-1.9861,-1.6554,3.4585e-07,-0.99304,0,0,0.125,-0,-0,0.66667
0.41169,0.62297,3.2935,0.18445,12.971,196.66,-1.62,0.53998,-1.8785,-2.1599,1.7175e-12,-0.93925,0,0,0.125,-8.1416e-16,0,0.66667
0.36945,0.28011,2.9556,-0.32984,-24.149,221.67,2.5996,-0.86655,-1.6128,3.4662,-7.9137e-13,-0.80639,0,0,0.125,7.4015e-16,0,0.66667
0.079963,0.4915,0.6397,-0.012749,-1.0735,411.07,0.021748,-0.0072493,-2.0005,0.028997,6.6498e-08,-1.0003,0,0,0.125,-1.4803e-16,0,0.66667
0.38778,0.74477,3.1023,0.36715,26.456,210.78,-3.0373,1.0124,-1.5213,-4.0498,-2.8055e-12,-0.76064,0,0,0.125,8.8818e-16,0,0.66667
0.17793,0.79104,1.4235,0.43657,35.906,344.36,-1.6571,0.55238,-1.3205,-2.2095,-6.4684e-10,-0.66027,0,0,0.125,-2.9606e-16,0,0.66667
0.13134,0.73756,1.0507,0.35634,29.722,375.87,-0.99844,0.33281,-1.5465,-1.3313,-6.9977e-09,-0.77324,0,0,0.125,-0,-0,0.66667
0.36767,0.8591,2.9414,0.53865,39.599,222.97,-4.225,1.4083,-0.96611,-5.6333,1.2124e-13,-0.48305,0,0,0.125,-0,-0,0.66667
0.15881,0.21267,1.2705,-0.431,-35.683,357.25,1.4602,-0.48673,-1.3402,1.9469,1.6833e-09,-0.6701,0,0,0.125,3.7007e-16,0,0.66667
0.30756,0.79601,2.4605,0.44401,34.137,259.83,-2.9133,0.97111,-1.2974,-3.8844,3.9964e-12,-0.64872,0,0,0.125,5.9212e-16,0,0.66667
0.68798,0.24931,5.5038,-0.37603,-16.736,63.432,5.519,-1.8397,-1.5011,7.3587,4.3623e-12,-0.75054,0,0,0.125,-4.811e-16,0,0.66667
0.83844,0.54326,6.7075,0.064885,1.607,18.703,-1.1606,0.38686,-1.9834,-1.5475,4.3642e-10,-0.99168,0,0,0.125,-0,-0,0.66667
0.30482,0.83603,2.4386,0.50405,38.854,261.62,-3.2777,1.0926,-1.0948,-4.3703,6.0572e-12,-0.5474,0,0,0.125,-2.9606e-16,0,0.66667
0.3531,0.206,2.8248,-0.441,-32.772,231.66,3.322,-1.1073,-1.3065,4.4293,-5.6954e-13,-0.65323,0,0,0.125,-1.0103e-15,0,0.66667
0.73064,0.65868,5.8451,0.23802,9.3435,48.283,-3.7101,1.2367,-1.7989,-4.9468,-1.3291e-11,-0.89945,0,0,0.125,-0,-0,0.66667
0.77783,0.81568,6.2227,0.47352,15.794,34.338,-7.8575,2.6192,-1.2032,-10.477,1.2025e-11,-0.60159,0,0,0.125,-0,-0,0.66667
0.17703,0.72441,1.4162,0.33662,27.668,344.92,-1.2713,0.42376,-1.5961,-1.6951,-8.5607e-10,-0.79805,0,0,0.125,-0,-0,0.66667
0.40176,0.086231,3.2141,-0.62065,-44.3,202.93,5.3195,-1.7732,-0.62946,7.0927,1.3642e-12,-0.31473,0,0,0.125,-0,-0,0.66667
0.0029414,0.092431,0.023532,-0.61135,-52.049,464.41,0.038358,-0.012788,-0.67227,0.051143,-2.4296e-06,-0.33613,0,0,0.125,-5.2042e-18,0,0.66667
0.4006,0.34493,3.2048,-0.2326,-16.541,203.14,1.9878,-0.66261,-1.8072,2.6504,-1.9146e-12,-0.90359,0,0,0.125,1.1842e-15,0,0.66667
0.8932,0.77894,7.1456,0.4184,7.0508,9.2754,-7.9727,2.6576,-1.3788,-10.63,2.2398e-08,-0.68941,0,0,0.125,-1.7764e-15,0,0.66667
0.057463,0.40294,0.45971,-0.14558,-12.3,426.61,0.17847,-0.059489,-1.9241,0.23796,3.1503e-08,-0.96203,0,0,0.125,9.2519e-17,0,0.66667
0.38963,0.068362,3.117,-0.64746,-46.766,210.08,5.3817,-1.7939,-0.51184,7.1756,1.6769e-12,-0.25592,0,0,0.125,-0,-0,0.66667
0.26534,0.7912,2.1228,0.4368,34.481,286.73,-2.4726,0.8242,-1.3244,-3.2968,1.0903e-11,-0.66218,0,0,0.125,-0,-0,0.66667
0.036777,0.4591,0.29421,-0.061354,-5.1929,440.93,0.048136,-0.016046,-1.985,0.064181,-2.6306e-07,-0.9925,0,0,0.125,3.7007e-17,0,0.66667
0.4005,0.90449,3.204,0.60674,43.348,203.64,-5.184,1.728,-0.69049,-6.912,1.994e-12,-0.34525,0,0,0.125,2.2204e-16,0,0.66667
0.23781,0.74657,1.9025,0.36985,29.613,304.58,-1.8764,0.62545,-1.514,-2.5018,6.4586e-12,-0.757,0,0,0.125,-0,-0,0.66667
0.83097,0.80227,6.6478,0.45341,11.807,20.929,-8.0377,2.6792,-1.2691,-10.717,4.9626e-10,-0.63453,0,0,0.125,-0,-0,0.66667
0.64363,0.54294,5.149,0.064415,3.1824,80.45,-0.88446,0.29482,-1.985,-1.1793,-5.3518e-13,-0.99251,0,0,0.125,-1.1842e-15,0,0.66667
0.47657,0.7714,3.8125,0.40711,26.682,160.62,-4.139,1.3797,-1.4086,-5.5186,9.1216e-13,-0.70432,0,0,0.125,-0,-0,0.66667
0.70881,0.93015,5.6705,0.64523,27.299,56.616,-9.7566,3.2522,-0.51831,-13.009,-1.8741e-13,-0.25916,0,0,0.125,-0,-0,0.66667
0.099384,0.78849,0.79507,0.43273,36.393,397.76,-0.91747,0.30582,-1.3328,-1.2233,-2.6197e-08,-0.6664,0,0,0.125,-0,-0,0.66667
0.75698,0.54939,6.0558,0.074088,2.6567,39.821,-1.1964,0.39881,-1.9783,-1.5952,-4.1446e-12,-0.98914,0,0,0.125,1.1842e-15,0,0.66667
0.29859,0.16286,2.3887,-0.50571,-39.146,265.55,3.2214,-1.0738,-1.0921,4.2952,-7.5187e-12,-0.54606,0,0,0.125,-0,-0,0.66667
0.50277,0.54955,4.0222,0.074328,4.6964,146.45,-0.79723,0.26574,-1.9803,-1.063,3.8336e-13,-0.99013,0,0,0.125,-5.9212e-16,0,0.66667
0.094178,0.89047,0.75342,0.58571,49.404,401.39,-1.1768,0.39226,-0.78258,-1.569,-3.0091e-08,-0.39129,0,0,0.125,-0,-0,0.66667
0.81456,0.35541,6.5164,-0.21688,-6.1118,24.263,3.7688,-1.2563,-1.8334,5.0251,-5.2012e-10,-0.91669,0,0,0.125,-0,-0,0.66667
0.51047,0.15369,4.0837,-0.51947,-32.62,142.94,5.657,-1.8857,-1.04,7.5427,2.5508e-12,-0.52001,0,0,0.125,7.4015e-16,0,0.66667
0.44197,0.071251,3.5358,-0.64312,-44.06,180.01,6.0638,-2.0213,-0.52837,8.0851,3.3307e-13,-0.26419,0,0,0.125,-1.1842e-15,0,0.66667
0.13489,0.0659,1.0791,-0.65115,-54.46,373.59,1.8738,-0.6246,-0.49156,2.4984,-6.1877e-08,-0.24578,0,0,0.125,2.9606e-16,0,0.66667
0.63488,0.46804,5.079,-0.047942,-2.4142,84.077,0.64932,-0.21644,-1.9914,0.86577,-1.2937e-12,-0.99572,0,0,0.125,1.5913e-15,0,0.66667
0.35231,0.22836,2.8185,-0.40745,-30.286,232.1,3.0624,-1.0208,-1.4077,4.0832,-2.6359e-12,-0.70385,0,0,0.125,-0,-0,0.66667
0.68271,0.11074,5.4617,-0.5839,-26.468,65.881,8.5041,-2.8347,-0.78627,11.339,1.5348e-12,-0.39313,0,0,0.125,-1.9927e-15,0,0.66667
0.76246,0.28724,6.0997,-0.31915,-11.249,38.439,5.1912,-1.7304,-1.638,6.9215,6.9802e-12,-0.81902,0,0,0.125,-0,-0,0.66667
0.0067478,0.4084,0.053982,-0.1374,-11.647,461.76,0.01978,-0.006593,-1.9319,0.026373,1.7809e-07,-0.96597,0,0,0.125,1.8504e-17,0,0.66667
0.25906,0.70363,2.0725,0.30544,24.167,290.7,-1.6881,0.56269,-1.6661,-2.2507,1.1254e-11,-0.83306,0,0,0.125,5.9212e-16,0,0.66667
0.67791,0.25964,5.4233,-0.36053,-16.465,67.18,5.2141,-1.738,-1.536,6.9521,2.9776e-12,-0.76802,0,0,0.125,-0,-0,0.66667
0.3361,0.91638,2.6888,0.62456,47.164,242.3,-4.4782,1.4927,-0.61096,-5.9709,3.0131e-12,-0.30548,0,0,0.125,-0,-0,0.66667
0.75013,0.95869,6.001,0.68803,25.612,43.168,-11.01,3.6701,-0.31979,-14.68,3.1024e-12,-0.1599,0,0,0.125,1.1842e-15,0,0.66667
0.55698,0.90543,4.4558,0.60815,35.675,119.95,-7.2262,2.4087,-0.68467,-9.6349,2.2551e-12,-0.34234,0,0,0.125,-2.5905e-16,0,0.66667
0.85824,0.25463,6.8659,-0.36806,-8.1105,15.09,6.7388,-2.2463,-1.5207,8.9851,-4.4878e-09,-0.76034,0,0,0.125,-0,-0,0.66667
0.57058,0.99432,4.5647,0.74148,42.664,113.85,-9.0256,3.0085,-0.043569,-12.034,-7.1054e-14,-0.021785,0,0,0.125,2.9606e-16,0,0.66667
0.8894,0.98808,7.1152,0.73211,13.035,10.991,-13.891,4.6303,-0.095744,-18.521,6.6523e-08,-0.047872,0,0,0.125,-0,-0,0.66667
0.22748,0.53957,1.8198,0.05935,4.768,311.26,-0.28802,0.096005,-1.9856,-0.38402,2.5918e-13,-0.99281,0,0,0.125,-0,-0,0.66667
0.79398,0.89735,6.3518,0.59602,18.67,30.323,-10.096,3.3652,-0.73699,-13.461,6.8821e-11,-0.3685,0,0,0.125,-0,-7.5705e-17,0.66667
0.033947,0.88993,0.27157,0.58489,49.72,442.94,-0.42358,0.14119,-0.78358,-0.56477,-2.0862e-08,-0.39179,0,0,0.125,7.4015e-17,0,0.66667
0.077267,0.75948,0.61814,0.38922,32.849,412.97,-0.64158,0.21386,-1.4634,-0.85544,-5.4224e-08,-0.73172,0,0,0.125,-0,-0,0.66667
0.3959,0.79709,3.1672,0.44563,31.899,206.09,-3.7638,1.2546,-1.2922,-5.0183,1.5492e-12,-0.64608,0,0,0.125,-0,-0,0.66667
0.18577,0.71553,1.4861,0.3233,26.483,339.05,-1.2812,0.42708,-1.6303,-1.7083,-5.1961e-10,-0.81514,0,0,0.125,-1.9017e-17,0,0.66667
0.94419,0.54458,7.5535,0.066873,0.58044,2.734,-1.347,0.449,-1.9819,-1.796,1.281e-07,-0.99097,0,0,0.125,-0,-0,0.66667
0.77968,0.66242,6.2375,0.24363,8.0243,33.364,-4.0523,1.3508,-1.7906,-5.4031,4.9788e-11,-0.89531,0,0,0.125,-0,-0,0.66667
0.74367,0.74282,5.9493,0.36423,13.73,44.279,-5.7784,1.9261,-1.5267,-7.7046,-1.9407e-11,-0.76335,0,0,0.125,5.9212e-16,0,0.66667
0.492,0.27352,3.936,-0.33972,-21.814,152.3,3.5656,-1.1885,-1.5878,4.7542,1.8967e-12,-0.7939,0,0,0.125,2.9606e-16,0,0.66667
0.49005,0.14433,3.9204,-0.53351,-34.439,153.63,5.5775,-1.8592,-0.98616,7.4367,8.34e-13,-0.49308,0,0,0.125,-5.9212e-16,0,0.66667
0.58111,0.91334,4.6489,0.62002,34.927,108.6,-7.6864,2.5621,-0.63337,-10.248,1.0578e-12,-0.31668,0,0,0.125,-1.1842e-15,0,0.66667
0.59663,0.99058,4.773,0.73588,40.426,101.86,-9.3662,3.1221,-0.074663,-12.488,-2.5118e-12,-0.037331,0,0,0.125,1.7764e-15,0,0.66667
0.89803,0.58576,7.1842,0.12864,2.0517,8.066,-2.4644,0.82146,-1.9393,-3.2858,6.9556e-09,-0.96964,0,0,0.125,-5.9212e-16,0,0.66667
0.12083,0.91703,0.96668,0.62555,52.489,383.15,-1.6125,0.53751,-0.60768,-2.15,-2.4679e-08,-0.30384,0,0,0.125,-2.9606e-16,0,0.66667
0.50961,0.017617,4.0769,-0.72357,-45.68,143.84,7.8665,-2.6222,-0.13645,10.489,5.258e-13,-0.068227,0,0,0.125,-0,-0,0.66667
0.99552,0.23744,7.9642,-0.39384,-0.13391,0.61349,8.3643,-2.7881,-1.4472,11.152,-6.7374e-07,-0.7236,0,0,0.125,-0,2.3911e-17,0.66667
0.48143,0.36443,3.8514,-0.20336,-13.221,157.79,2.0886,-0.69619,-1.8529,2.7848,8.2068e-13,-0.92643,0,0,0.125,-5.9212e-16,0,0.66667
0.83781,0.050104,6.7025,-0.67484,-17.09,20.181,12.062,-4.0206,-0.37882,16.082,2.8108e-09,-0.18941,0,0,0.125,-0,-0,0.66667
0.60366,0.62256,4.8292,0.18384,9.8702,97.636,-2.3675,0.78916,-1.8791,-3.1566,-2.6048e-12,-0.93956,0,0,0.125,1.3323e-15,0,0.66667
0.66437,0.83198,5.315,0.49796,23.574,72.685,-7.0578,2.3526,-1.1161,-9.4104,-2.0539e-12,-0.55807,0,0,0.125,-0,-0,0.66667
0.27246,0.90328,2.1797,0.60492,47.664,282.31,-3.5161,1.172,-0.69783,-4.6881,9.8361e-12,-0.34891,0,0,0.125,3.7007e-16,0,0.66667
0.83093,0.65853,6.6475,0.23779,6.1564,20.496,-4.2152,1.4051,-1.8,-5.6203,1.1211e-09,-0.90002,0,0,0.125,-0,-0,0.66667
0.24447,0.96022,1.9557,0.69033,55.326,300.52,-3.6003,1.2001,-0.30406,-4.8004,-2.7142e-11,-0.15203,0,0,0.125,-2.9606e-16,0,0.66667
0.67336,0.97752,5.3869,0.71628,33.372,69.835,-10.289,3.4298,-0.17724,-13.719,-5.4801e-13,-0.088619,0,0,0.125,1.1842e-15,0,0.66667
0.08813,0.96777,0.70504,0.70165,59.358,405.59,-1.3192,0.43973,-0.24917,-1.7589,1.3171e-06,-0.12458,0,0,0.125,1.6653e-16,0,0.66667
0.018852,0.0022623,0.15082,-0.74661,-63.684,453.4,0.30017,-0.10008,-0.018795,0.40022,-3.3657e-05,-0.0093975,0,0,0.125,-0,-0,0.66667
0.47235,0.33858,3.7788,-0.24213,-15.926,162.72,2.4399,-0.8133,-1.7915,3.2532,5.1581e-13,-0.89576,0,0,0.125,-5.9212e-16,0,0.66667
0.939,0.26801,7.512,-0.34798,-3.3532,3.5846,6.9707,-2.3236,-1.5706,9.2942,-2.1313e-08,-0.7853,0,0,0.125,1.1842e-15,0,0.66667
0.32557,0.055699,2.6046,-0.66645,-50.76,248.86,4.6289,-1.543,-0.42138,6.1719,-3.2472e-12,-0.21069,0,0,0.125,2.9606e-16,0,0.66667
0.32215,0.1398,2.5772,-0.5403,-41.169,250.81,3.7132,-1.2377,-0.96005,4.951,-1.1744e-12,-0.48002,0,0,0.125,-0,-0,0.66667
0.052031,0.84613,0.41625,0.5192,44.027,430.42,-0.5763,0.1921,-1.0411,-0.7684,-7.586e-08,-0.52053,0,0,0.125,-1.4803e-16,0,0.66667
0.67529,0.72947,5.4023,0.34421,15.82,68.153,-4.9587,1.6529,-1.5783,-6.6116,-3.9639e-12,-0.78913,0,0,0.125,-0,-0,0.66667
0.72174,0.55175,5.7739,0.077621,3.1286,51.124,-1.1951,0.39838,-1.9784,-1.5935,-4.6226e-12,-0.98921,0,0,0.125,-5.9212e-16,0,0.66667
0.90372,0.87191,7.2297,0.55787,8.5803,8.2166,-10.755,3.5851,-0.89461,-14.34,2.7706e-08,-0.44731,0,0,0.125,-0,-0,0.66667
0.43715,0.36262,3.4972,-0.20608,-14.114,182.14,1.9218,-0.64061,-1.8515,2.5624,4.2211e-13,-0.92576,0,0,0.125,-0,-0,0.66667
0.10952,0.29585,0.87613,-0.30623,-25.669,390.78,0.71546,-0.23849,-1.6693,0.95395,1.6175e-08,-0.83465,0,0,0.125,-1.4803e-16,0,0.66667
0.037607,0.80895,0.30086,0.46343,39.323,440.39,-0.3718,0.12393,-1.2353,-0.49574,1.4571e-08,-0.61764,0,0,0.125,7.4015e-17,0,0.66667
0.88077,0.71417,7.0462,0.32125,5.9944,10.994,-6.0363,2.0121,-1.632,-8.0484,1.1204e-08,-0.81598,0,0,0.125,1.1136e-15,0,0.66667
0.65226,0.3708,5.218,-0.1938,-9.3966,77.011,2.6967,-0.89892,-1.8663,3.5957,-1.5388e-13,-0.93315,0,0,0.125,-0,-0,0.66667
0.9155,0.93726,7.324,0.65589,8.9695,7.0955,-12.81,4.27,-0.46995,-17.08,3.6384e-07,-0.23498,0,0,0.125,2.0354e-16,0,0.66667
0.8806,0.63529,7.0448,0.20293,3.7787,10.828,-3.8122,1.2707,-1.8519,-5.083,7.3308e-09,-0.92595,0,0,0.125,-2.3685e-15,0,0.66667
0.47024,0.13954,3.7619,-0.54068,-35.784,164.25,5.424,-1.808,-0.96168,7.232,-1.5237e-12,-0.48084,0,0,0.125,-0,-0,0.66667
0.67034,0.30475,5.3627,-0.29287,-13.617,69.977,4.1882,-1.3961,-1.6965,5.5842,2.2529e-12,-0.84826,0,0,0.125,-5.9212e-16,0,0.66667
0.74507,0.65826,5.9605,0.23739,8.8874,43.636,-3.7732,1.2577,-1.7993,-5.031,-1.4915e-11,-0.89966,0,0,0.125,-0,-0,0.66667
0.42221,0.73487,3.3777,0.35231,24.544,190.74,-3.1733,1.0578,-1.5611,-4.2311,-3.0198e-13,-0.78057,0,0,0.125,-0,-0,0.66667
0.15392,0.28192,1.2313,-0.32712,-27.099,360.51,1.0741,-0.35805,-1.6213,1.4322,2.6761e-09,-0.81067,0,0,0.125,-0,-0,0.66667
0.28408,0.90538,2.2727,0.60806,47.579,274.88,-3.6851,1.2284,-0.6867,-4.9135,3.4568e-12,-0.34335,0,0,0.125,-1.8504e-16,0,0.66667
0.54848,0.071755,4.3878,-0.64237,-38.226,124.15,7.5162,-2.5054,-0.53412,10.022,-1.2106e-12,-0.26706,0,0,0.125,-0,-0,0.66667
0.25574,0.98992,2.0459,0.73488,58.591,293.26,-4.0093,1.3364,-0.078129,-5.3457,7.8035e-12,-0.039065,0,0,0.125,-5.9212e-16,0,0.66667
0.89173,0.19672,7.1339,-0.45493,-7.783,9.5961,8.6544,-2.8848,-1.266,11.539,-1.6755e-08,-0.63298,0,0,0.125,-0,-0,0.66667
0.58075,0.82853,4.646,0.4928,27.706,108.48,-6.1055,2.0352,-1.1365,-8.1406,1.8474e-13,-0.56826,0,0,0.125,-0,-0,0.66667
0.71867,0.91353,5.7494,0.62029,25.478,53.134,-9.5101,3.17,-0.63525,-12.68,-5.7572e-12,-0.31762,0,0,0.125,-0,-0,0.66667
0.86203,0.93594,6.8962,0.6539,14.244,15.271,-12.025,4.0084,-0.48103,-16.034,-6.4191e-08,-0.24052,0,0,0.125,-2.9606e-16,0,0.66667
0.89656,0.84404,7.1725,0.51605,8.4804,9.0734,-9.8704,3.2901,-1.0528,-13.161,4.4217e-08,-0.52638,0,0,0.125,-2.3685e-15,0,0.66667
0.95761,0.90462,7.6609,0.60693,4.1756,2.944,-12.399,4.133,-0.69029,-16.532,3.2813e-06,-0.34515,0,0,0.125,1.6283e-15,0,0.66667
0.62751,0.83674,5.0201,0.50511,25.969,87.75,-6.7618,2.2539,-1.0935,-9.0157,-8.5176e-13,-0.54674,0,0,0.125,-0,-0,0.66667
0.99898,0.18864,7.9918,-0.46704,0.085591,0.78705,9.9534,-3.3178,-1.2275,13.271,-1.3028e-06,-0.61377,0,0,0.125,-2.3685e-15,0,0.66667
0.79051,0.61114,6.3241,0.16672,5.2439,30.32,-2.8115,0.93717,-1.8991,-3.7487,1.049e-10,-0.94954,0,0,0.125,1.1842e-15,0,0.66667
0.27082,0.39733,2.1666,-0.15401,-12.092,283.04,0.8898,-0.2966,-1.9143,1.1864,-8.3716e-12,-0.95713,0,0,0.125,-0,-0,0.66667
0.99055,0.66225,7.9244,0.24337,0.2636,0.37644,-5.1428,1.7143,-1.788,-6.8571,1.4707e-07,-0.89399,0,0,0.125,-0,-0,0.66667
0.80151,0.29131,6.412,-0.31303,-9.401,27.646,5.3524,-1.7841,-1.6504,7.1365,-2.5559e-10,-0.82519,0,0,0.125,-0,-0,0.66667
0.25311,0.42333,2.0249,-0.115,-9.1191,294.48,0.62097,-0.20699,-1.9526,0.82797,-8.0887e-12,-0.97629,0,0,0.125,-0,-0,0.66667
0.031897,0.73674,0.25518,0.35511,30.111,444.33,-0.24164,0.080548,-1.5538,-0.32219,2.7305e-07,-0.77688,0,0,0.125,-0,-0,0.66667
0.95281,0.73377,7.6225,0.35066,2.5976,2.4477,-7.1277,2.3759,-1.5653,-9.5036,-6.2204e-08,-0.78265,0,0,0.125,-1.1842e-15,0,0.66667
0.55683,0.15503,4.4547,-0.51746,-30.307,119.82,6.1469,-2.049,-1.0475,8.1959,-6.2839e-13,-0.52375,0,0,0.125,-2.8765e-16,0,0.66667
0.55271,0.82495,4.4217,0.48743,28.723,121.75,-5.7473,1.9158,-1.1534,-7.6631,-5.7288e-14,-0.57668,0,0,0.125,-0,-0,0.66667
0.047378,0.51354,0.37902,0.02031,1.7174,433.59,-0.020528,0.0068422,-2.0008,-0.02737,-4.659e-07,-1.0004,0,0,0.125,1.4803e-16,0,0.66667
0.63904,0.34107,5.1123,-0.2384,-11.911,82.465,3.2501,-1.0834,-1.8001,4.3334,1.4566e-13,-0.90005,0,0,0.125,-1.4803e-16,0,0.66667
0.5001,0.19252,4.0008,-0.46123,-29.347,148.21,4.9208,-1.6403,-1.2472,6.561,-6.7191e-13,-0.62359,0,0,0.125,1.1842e-15,0,0.66667
0.80429,0.95777,6.4344,0.68665,20.625,28.007,-11.782,3.9272,-0.32146,-15.709,-6.5312e-10,-0.16073,0,0,0.125,-1.1842e-15,0,0.66667
0.06955,0.88797,0.5564,0.58195,49.285,418.34,-0.86346,0.28782,-0.79364,-1.1513,-1.633e-07,-0.39682,0,0,0.125,-0,-0,0.66667
0.56293,0.6373,4.5034,0.20595,11.894,116.45,-2.4733,0.82443,-1.8516,-3.2977,-1.2002e-12,-0.92581,0,0,0.125,1.1842e-15,0,0.66667
0.40868,0.27336,3.2694,-0.33996,-24.007,198.52,2.9639,-0.98797,-1.5897,3.9519,-1.2901e-13,-0.79484,0,0,0.125,-2.9606e-16,0,0.66667
0.55177,0.25238,4.4141,-0.37143,-21.882,122.01,4.3721,-1.4574,-1.5091,5.8294,-4.4764e-13,-0.75457,0,0,0.125,-0,-0,0.66667
0.35846,0.49466,2.8677,-0.0080068,-0.59078,228.15,0.06123,-0.02041,-2.0023,0.08164,-2.5937e-13,-1.0011,0,0,0.125,-1.1842e-15,0,0.66667
0.99938,0.97886,7.995,0.7183,0.04185,1.8407,-15.314,5.1046,-0.16768,-20.419,-9.5285e-05,-0.083841,0,0,0.125,-0,-3.8886e-16,0.66667
0.45032,0.75416,3.6026,0.38124,25.77,174.93,-3.6626,1.2209,-1.484,-4.8834,5.2802e-13,-0.74199,0,0,0.125,-0,-0,0.66667
0.34582,0.069376,2.7666,-0.64594,-48.431,236.37,4.7654,-1.5885,-0.51754,6.3539,-2.415e-12,-0.25877,0,0,0.125,-0,-0,0.66667
0.18973,0.48952,1.5178,-0.015713,-1.2834,336.33,0.063596,-0.021199,-1.9997,0.084795,-1.1737e-11,-0.99983,0,0,0.125,2.9606e-16,0,0.66667
0.92353,0.31245,7.3882,-0.28132,-3.3902,5.017,5.5425,-1.8475,-1.7212,7.39,-2.8882e-08,-0.86062,0,0,0.125,1.434e-15,0,0.66667
0.10429,0.64551,0.83435,0.21826,18.306,394.34,-0.48562,0.16187,-1.8291,-0.6475,-1.4734e-08,-0.91456,0,0,0.125,-0,-0,0.66667
0.44034,0.14551,3.5227,-0.53174,-36.423,180.72,4.9952,-1.6651,-0.99464,6.6602,-1.6742e-13,-0.49732,0,0,0.125,-0,-0,0.66667
0.6862,0.70325,5.4896,0.30488,13.617,63.974,-4.4631,1.4877,-1.6708,-5.9508,-6.2279e-12,-0.83541,0,0,0.125,1.1842e-15,0,0.66667
0.14241,0.89648,1.1392,0.59472,49.592,368.45,-1.8068,0.60225,-0.74345,-2.409,-3.7523e-09,-0.37172,0,0,0.125,1.4803e-16,0,0.66667
0.9315,0.088475,7.452,-0.61729,-6.8535,5.1688,12.267,-4.0889,-0.6439,16.356,-1.4925e-07,-0.32195,0,0,0.125,-5.9212e-16,0,0.66667
0.058875,0.82102,0.471,0.48153,40.783,425.68,-0.60481,0.2016,-1.1751,-0.80641,-6.0958e-08,-0.58755,0,0,0.125,-0,-0,0.66667
0.2181,0.50082,1.7448,0.0012249,0.098835,317.44,-0.0056991,0.0018997,-2.0036,-0.0075988,7.0182e-11,-1.0018,0,0,0.125,-0,-0,0.66667
0.077195,0.8302,0.61756,0.49529,41.85,413.04,-0.81566,0.27189,-1.1295,-1.0876,-7.7755e-08,-0.56477,0,0,0.125,-2.3945e-16,0,0.66667
0.41151,0.27601,3.2921,-0.33598,-23.659,196.88,2.9496,-0.98318,-1.5976,3.9327,-4.7562e-13,-0.79882,0,0,0.125,-0,-0,0.66667
0.59726,0.83998,4.7781,0.50996,27.834,100.98,-6.4977,2.1659,-1.0756,-8.6636,-3.717e-13,-0.5378,0,0,0.125,-5.9212e-16,0,0.66667
0.73114,0.79938,5.8491,0.44908,17.668,48.495,-7.0045,2.3348,-1.2825,-9.3394,-1.1962e-11,-0.64124,0,0,0.125,-8.6585e-16,0,0.66667
0.87843,0.5875,7.0275,0.13125,2.4833,11.111,-2.4596,0.81985,-1.9387,-3.2794,8.4132e-09,-0.96935,0,0,0.125,-0,-0,0.66667
0.35325,0.77228,2.826,0.40841,30.335,231.53,-3.0778,1.0259,-1.4052,-4.1037,-1.9429e-13,-0.70259,0,0,0.125,2.9606e-16,0,0.66667
0.70246,0.63224,5.6197,0.19836,8.4666,57.912,-2.9726,0.99087,-1.8626,-3.9635,-5.5898e-12,-0.93132,0,0,0.125,-2.3685e-15,0,0.66667
0.048616,0.39034,0.38893,-0.16448,-13.911,432.74,0.17059,-0.056865,-1.9046,0.22746,-4.2334e-08,-0.95232,0,0,0.125,-0,-0,0.66667
0.81926,0.70255,6.5541,0.30382,8.3765,23.274,-5.31,1.77,-1.6696,-7.08,6.7556e-10,-0.8348,0,0,0.125,-1.1842e-15,0,0.66667
0.31828,0.8403,2.5462,0.51045,38.986,253.19,-3.4659,1.1553,-1.0726,-4.6212,3.1526e-12,-0.53632,0,0,0.125,-0,-0,0.66667
0.22164,0.81954,1.7731,0.47931,38.727,315.28,-2.2664,0.75545,-1.1834,-3.0218,-2.3715e-11,-0.59171,0,0,0.125,-0,-0,0.66667
0.36104,0.19907,2.8883,-0.45139,-33.33,226.86,3.4767,-1.1589,-1.2766,4.6355,-8.8285e-13,-0.63829,0,0,0.125,5.9212e-16,0,0.66667
0.11407,0.92768,0.91256,0.64152,53.93,387.78,-1.5611,0.52038,-0.53548,-2.0815,-3.8192e-08,-0.26774,0,0,0.125,-1.4803e-16,0,0.66667
0.29371,0.39314,2.3496,-0.16029,-12.409,268.41,1.0043,-0.33477,-1.9082,1.3391,-5.649e-12,-0.95411,0,0,0.125,-2.9606e-16,0,0.66667
0.008789,0.091676,0.070312,-0.61249,-52.142,460.36,0.11484,-0.038273,-0.66523,0.15312,9.0511e-06,-0.33262,0,0,0.125,-6.9389e-18,0,0.66667
0.25326,0.0082937,2.0261,-0.73756,-58.887,294.87,3.985,-1.3283,-0.065636,5.3133,-1.5765e-14,-0.032818,0,0,0.125,1.1842e-15,0,0.66667
0.83771,0.76864,6.7017,0.40297,10.088,19.33,-7.2015,2.4005,-1.4207,-9.602,1.7301e-09,-0.71033,0,0,0.125,-1.1842e-15,0,0.66667
0.80776,0.26752,6.462,-0.34872,-10.182,26.141,6.0092,-2.0031,-1.5661,8.0123,-3.3583e-10,-0.78307,0,0,0.125,-0,-0,0.66667
0.38257,0.11092,3.0605,-0.58361,-42.378,214.15,4.7631,-1.5877,-0.78668,6.3508,1.5632e-13,-0.39334,0,0,0.125,-0,-0,0.66667
0.43068,0.60817,3.4454,0.16226,11.188,185.77,-1.4908,0.49694,-1.9042,-1.9878,-6.9167e-13,-0.95209,0,0,0.125,-0,-0,0.66667
0.18259,0.62822,1.4607,0.19233,15.76,341.14,-0.74917,0.24972,-1.868,-0.99889,-4.1331e-10,-0.93398,0,0,0.125,-0,-0,0.66667
0.31687,0.04861,2.535,-0.67708,-51.903,254.29,4.5771,-1.5257,-0.3687,6.1028,-6.8656e-13,-0.18435,0,0,0.125,-0,-0,0.66667
0.41737,0.18496,3.3389,-0.47255,-33.134,193.67,4.2076,-1.4025,-1.2058,5.6101,-1.6502e-12,-0.60292,0,0,0.125,5.9212e-16,0,0.66667
0.066468,0.93124,0.53175,0.64686,54.858,420.48,-0.91725,0.30575,-0.51182,-1.223,2.1644e-07,-0.25591,0,0,0.125,7.4015e-17,0,0.66667
0.33789,0.11261,2.7031,-0.58109,-43.789,241.13,4.1886,-1.3962,-0.79751,5.5848,-7.4163e-14,-0.39876,0,0,0.125,-0,-0,0.66667
0.49567,0.024039,3.9654,-0.71394,-45.916,151.06,7.5494,-2.5165,-0.18691,10.066,1.1302e-12,-0.093457,0,0,0.125,5.9212e-16,-1.927e-16,0.66667
0.0067213,0.86003,0.053771,0.54005,45.93,461.79,-0.077436,0.025811,-0.96081,-0.10325,-1.7501e-06,-0.4804,0,0,0.125,9.2519e-18,0,0.66667
0.43808,0.21982,3.5046,-0.42026,-28.812,181.83,3.9276,-1.3092,-1.3757,5.2368,-8.5798e-13,-0.68783,0,0,0.125,-0,-0,0.66667
0.21869,0.84929,1.7495,0.52393,42.414,317.27,-2.4443,0.81478,-1.0275,-3.2591,7.6871e-11,-0.51376,0,0,0.125,-0,-0,0.66667
0.2134,0.64424,1.7072,0.21636,17.506,320.59,-0.98498,0.32833,-1.8319,-1.3133,-8.4722e-11,-0.91593,0,0,0.125,-0,-0,0.66667
0.24924,0.77146,1.9939,0.40719,32.421,297.14,-2.1651,0.72169,-1.4126,-2.8868,1.9892e-11,-0.70632,0,0,0.125,2.9606e-16,0,0.66667
0.12833,0.62819,1.0266,0.19229,16.034,377.88,-0.52642,0.17547,-1.869,-0.70189,-6.4559e-09,-0.93451,0,0,0.125,-2.9606e-16,0,0.66667
0.94481,0.17354,7.5585,-0.48969,-4.321,3.4718,9.8701,-3.29,-1.1451,13.16,-3.3888e-08,-0.57257,0,0,0.125,1.1842e-15,0,0.66667
0.16907,0.18691,1.3526,-0.46964,-38.764,350.34,1.694,-0.56465,-1.2172,2.2586,4.3362e-11,-0.6086,0,0,0.125,3.0531e-16,0,0.66667
0.56761,0.46806,4.5409,-0.047908,-2.7432,114.14,0.58012,-0.19337,-1.9917,0.77349,-1.1386e-12,-0.99586,0,0,0.125,1.5913e-15,0,0.66667
0.17151,0.68881,1.3721,0.28322,23.316,348.62,-1.0363,0.34542,-1.7187,-1.3817,-1.2374e-09,-0.85933,0,0,0.125,-5.9212e-16,0,0.66667
0.26092,0.90297,2.0873,0.60446,47.946,289.75,-3.3646,1.1215,-0.70048,-4.4861,-1.0593e-11,-0.35024,0,0,0.125,-7.4015e-17,0,0.66667
0.67678,0.24808,5.4142,-0.37788,-17.312,67.644,5.4558,-1.8186,-1.492,7.2744,3.7041e-12,-0.74601,0,0,0.125,-1.4803e-15,0,0.66667
0.50327,0.022845,4.0261,-0.71573,-45.569,147.1,7.6843,-2.5614,-0.17841,10.246,1.1817e-12,-0.089205,0,0,0.125,-0,-0,0.66667
0.15729,0.96524,1.2583,0.69785,58.022,358.44,-2.3416,0.78054,-0.27109,-3.1222,1.0407e-12,-0.13554,0,0,0.125,-2.9606e-16,0,0.66667
0.082507,0.62724,0.66005,0.19085,16.071,409.32,-0.33593,0.11198,-1.8704,-0.4479,-1.0186e-08,-0.93522,0,0,0.125,-2.9606e-16,0,0.66667
0.88189,0.79276,7.0552,0.43914,8.1606,11.091,-8.2619,2.754,-1.3122,-11.016,1.0194e-08,-0.65611,0,0,0.125,-0,-0,0.66667
0.24189,0.88857,1.9351,0.58285,46.692,302.08,-3.0077,1.0026,-0.78987,-4.0103,-1.6103e-12,-0.39493,0,0,0.125,-0,-0,0.66667
0.95897,0.63286,7.6718,0.19929,1.2587,1.7337,-4.0771,1.359,-1.8572,-5.4361,-5.4204e-08,-0.92862,0,0,0.125,-0,-0,0.66667
0.89236,0.43385,7.1389,-0.099221,-1.6677,8.8763,1.8889,-0.62963,-1.9668,2.5185,-1.9576e-08,-0.98342,0,0,0.125,2.9606e-16,0,0.66667
0.15998,0.77837,1.2798,0.41755,34.551,356.45,-1.425,0.47502,-1.3803,-1.9001,-1.8208e-09,-0.69017,0,0,0.125,-0,-0,0.66667
0.50371,0.66382,4.0296,0.24572,15.52,146.06,-2.6405,0.88016,-1.7849,-3.5206,1.6089e-12,-0.89245,0,0,0.125,-1.1842e-15,0,0.66667
0.11892,0.74561,0.95136,0.36841,30.83,384.35,-0.93464,0.31155,-1.5163,-1.2462,-1.1754e-08,-0.75813,0,0,0.125,-0,-0,0.66667
0.11084,0.31804,0.8867,-0.27295,-22.867,389.86,0.6454,-0.21513,-1.737,0.86053,1.4584e-08,-0.86848,0,0,0.125,-0,-0,0.66667
0.6963,0.15929,5.5704,-0.51106,-22.307,60.681,7.5915,-2.5305,-1.0702,10.122,5.0004e-12,-0.53511,0,0,0.125,-0,-0,0.66667
0.27155,0.6912,2.1724,0.28679,22.526,282.62,-1.6614,0.55381,-1.7065,-2.2152,1.1642e-11,-0.85327,0,0,0.125,-0,-0,0.66667
0.96639,0.47602,7.7311,-0.035968,-0.18193,1.148,0.74152,-0.24717,-1.9961,0.98869,-7.2284e-08,-0.99806,0,0,0.125,-2.3685e-15,0,0.66667
0.83925,0.38764,6.714,-0.16853,-4.1588,18.603,3.0174,-1.0058,-1.8977,4.0232,-1.4668e-09,-0.94885,0,0,0.125,1.1842e-15,0,0.66667
0.09252,0.63288,0.74016,0.19931,16.754,402.43,-0.3934,0.13113,-1.8606,-0.52453,-1.178e-08,-0.93028,0,0,0.125,-0,-0,0.66667
0.39056,0.17051,3.1245,-0.49424,-35.579,209.29,4.118,-1.3727,-1.1343,5.4906,1.9642e-12,-0.56715,0,0,0.125,-5.9212e-16,4.3779e-17,0.66667
0.12422,0.48099,0.99374,-0.028517,-2.3793,380.67,0.07557,-0.02519,-1.9991,0.10076,7.6524e-10,-0.99955,0,0,0.125,-0,-0,0.66667
0.55539,0.68838,4.4431,0.28257,16.533,120.14,-3.348,1.116,-1.7154,-4.4639,-2.0799e-12,-0.85768,0,0,0.125,2.3685e-15,0,0.66667
0.16211,0.60796,1.2968,0.16194,13.366,354.93,-0.56004,0.18668,-1.9048,-0.74671,-1.2555e-09,-0.95239,0,0,0.125,-0,-0,0.66667
0.83177,0.049378,6.6541,-0.67593,-17.701,21.495,11.994,-3.998,-0.37474,15.992,6.3915e-09,-0.18737,0,0,0.125,-0,-0,0.66667
0.25769,0.24392,2.0616,-0.38412,-30.436,291.63,2.1117,-0.7039,-1.4737,2.8156,-1.8769e-11,-0.73686,0,0,0.125,-2.9606e-16,0,0.66667
0.51057,0.17655,4.0845,-0.48517,-30.444,142.82,5.2845,-1.7615,-1.1616,7.046,2.2409e-12,-0.58078,0,0,0.125,5.9212e-16,0,0.66667
0.78245,0.19913,6.2596,-0.4513,-14.765,32.997,7.5333,-2.5111,-1.2774,10.044,-5.6484e-11,-0.63868,0,0,0.125,-0,-0,0.66667
0.53834,0.56889,4.3067,0.10334,6.2037,128.36,-1.1868,0.39561,-1.9604,-1.5825,1.5588e-13,-0.98018,0,0,0.125,-0,-0,0.66667
0.52882,0.91703,4.2306,0.62555,38.341,133.83,-7.0572,2.3524,-0.60899,-9.4096,9.3703e-14,-0.30449,0,0,0.125,-0,1.9731e-16,0.66667
0.85484,0.20663,6.8387,-0.44005,-9.9421,15.922,8.025,-2.675,-1.3102,10.7,-3.4458e-09,-0.6551,0,0,0.125,1.1842e-15,0,0.66667
0.2451,0.082677,1.9608,-0.62598,-50.098,300.04,3.2732,-1.0911,-0.6053,4.3642,-5.829e-11,-0.30265,0,0,0.125,-0,-0,0.66667
0.1271,0.87104,1.0168,0.55656,46.58,378.84,-1.5091,0.50303,-0.90005,-2.0121,-5.4414e-09,-0.45003,0,0,0.125,1.4803e-16,0,0.66667
0.56024,0.70531,4.482,0.30797,17.882,117.84,-3.6808,1.2269,-1.6631,-4.9077,2.1982e-14,-0.83157,0,0,0.125,-0,-0,0.66667
0.12838,0.63065,1.027,0.19598,16.342,377.85,-0.53675,0.17892,-1.8635,-0.71566,-6.5764e-09,-0.93175,0,0,0.125,-0,-0,0.66667
0.33116,0.0071143,2.6493,-0.73933,-56.158,245.53,5.2231,-1.741,-0.05666,6.9642,-1.1005e-12,-0.02833,0,0,0.125,-0,-0,0.66667
0.32644,0.60926,2.6115,0.16389,12.404,247.84,-1.1414,0.38045,-1.9054,-1.5218,-1.9649e-12,-0.9527,0,0,0.125,5.9212e-16,0,0.66667
0.94804,0.79681,7.5844,0.44522,3.677,3.0679,-9.0046,3.0015,-1.2935,-12.006,4.4807e-08,-0.64677,0,0,0.125,-0,-0,0.66667
0.37591,0.52619,3.0073,0.039288,2.856,217.65,-0.31507,0.10502,-1.997,-0.4201,-6.8559e-13,-0.99852,0,0,0.125,2.9606e-16,0,0.66667
0.46911,0.15871,3.7529,-0.51194,-33.913,164.81,5.1234,-1.7078,-1.0718,6.8311,-6.1506e-13,-0.5359,0,0,0.125,-0,-0,0.66667
0.94734,0.6721,7.5787,0.25815,2.1261,2.681,-5.2172,1.7391,-1.7611,-6.9563,-4.0211e-08,-0.88055,0,0,0.125,-1.1842e-15,0,0.66667
0.82838,0.15169,6.627,-0.52246,-13.833,21.705,9.233,-3.0777,-1.0329,12.311,-1.2493e-09,-0.51644,0,0,0.125,1.4803e-15,0,0.66667
0.672,0.43977,5.376,-0.090339,-4.1758,69.151,1.2951,-0.4317,-1.975,1.7268,-2.6446e-13,-0.98748,0,0,0.125,2.3685e-15,0,0.66667
0.26731,0.52533,2.1385,0.038,2.9889,285.28,-0.2167,0.072234,-1.9964,-0.28894,3.8358e-12,-0.99821,0,0,0.125,2.9606e-16,0,0.66667
0.13326,0.44762,1.0661,-0.078572,-6.5404,374.5,0.22338,-0.07446,-1.976,0.29784,3.082e-09,-0.98799,0,0,0.125,-0,-0,0.66667
0.33396,0.64467,2.6717,0.217,16.336,243.21,-1.546,0.51534,-1.8307,-2.0614,3.9402e-13,-0.91536,0,0,0.125,-2.9606e-16,0,0.66667
0.15982,0.52645,1.2786,0.039673,3.2759,356.46,-0.13527,0.045089,-1.9945,-0.18035,-5.7956e-10,-0.99723,0,0,0.125,2.9606e-16,0,0.66667
0.9604,0.16475,7.6832,-0.50287,-3.1698,2.3687,10.303,-3.4344,-1.099,13.737,-4.0742e-07,-0.54948,0,0,0.125,-0,-0,0.66667
0.20094,0.87979,1.6075,0.56969,46.51,329.07,-2.4421,0.81403,-0.84726,-3.2561,5.1656e-10,-0.42363,0,0,0.125,-0,-0,0.66667
0.31067,0.37074,2.4853,-0.19389,-14.843,257.71,1.285,-0.42834,-1.868,1.7134,-2.9804e-12,-0.93399,0,0,0.125,-4.4409e-16,0,0.66667
0.66142,0.93218,5.2914,0.64828,31.023,74.252,-9.1474,3.0491,-0.50477,-12.196,-7.3719e-13,-0.25238,0,0,0.125,-2.9606e-16,0,0.66667
0.43762,0.007813,3.501,-0.73828,-50.921,182.65,6.8925,-2.2975,-0.065183,9.1901,-1.2426e-12,-0.032592,0,0,0.125,-0,-0,0.66667
0.58983,0.1248,4.7187,-0.5628,-31.174,104.46,7.0818,-2.3606,-0.87444,9.4424,2.105e-13,-0.43722,0,0,0.125,-4.3484e-16,0,0.66667
0.84885,0.71031,6.7908,0.31547,7.3715,16.825,-5.7127,1.9042,-1.6448,-7.6169,2.9775e-09,-0.82242,0,0,0.125,-0,-0,0.66667
0.58815,0.055265,4.7052,-0.6671,-37.153,105.5,8.3702,-2.7901,-0.41629,11.16,9.2371e-13,-0.20815,0,0,0.125,5.9212e-16,0,0.66667
0.49698,0.79371,3.9758,0.44056,28.141,149.82,-4.6709,1.557,-1.3096,-6.2279,-1.3989e-13,-0.6548,0,0,0.125,-0,-0,0.66667
0.83558,0.56519,6.6846,0.097782,2.4622,19.336,-1.743,0.58101,-1.9649,-2.324,1.4812e-09,-0.98244,0,0,0.125,-2.3685e-15,0,0.66667
0.79797,0.49385,6.3837,-0.009229,-0.28069,28.278,0.15711,-0.05237,-2.0019,0.20948,-1.3674e-10,-1.0009,0,0,0.125,2.3685e-15,0,0.66667
0.98116,0.36389,7.8493,-0.20417,-0.53999,0.59974,4.2736,-1.4245,-1.8514,5.6981,4.0001e-08,-0.92571,0,0,0.125,1.1842e-15,0,0.66667
0.94861,0.49415,7.5888,-0.0087718,-0.069841,2.355,0.17751,-0.059171,-1.999,0.23669,1.4188e-07,-0.99951,0,0,0.125,1.7764e-15,0,0.66667
0.91719,0.27032,7.3375,-0.34452,-4.5089,5.8779,6.7411,-2.247,-1.5767,8.9881,-3.4123e-08,-0.78833,0,0,0.125,-1.1842e-15,0,0.66667
0.49483,0.19346,3.9586,-0.45981,-29.462,150.98,4.8539,-1.618,-1.2472,6.4718,1.33e-12,-0.6236,0,0,0.125,-0,-0,0.66667
0.73715,0.52341,5.8972,0.035108,1.3475,46.014,-0.5521,0.18403,-1.9959,-0.73614,-3.454e-12,-0.99795,0,0,0.125,-1.1842e-15,0,0.66667
0.60052,0.10126,4.8042,-0.59812,-32.506,99.727,7.6626,-2.5542,-0.72627,10.217,1.7684e-12,-0.36313,0,0,0.125,-0,-0,0.66667
0.738,0.39337,5.904,-0.15994,-6.1258,45.805,2.5181,-0.83937,-1.9083,3.3575,1.1692e-11,-0.95414,0,0,0.125,-1.1842e-15,0,0.66667
0.37576,0.6771,3.0061,0.26566,19.333,217.83,-2.1296,0.70985,-1.7512,-2.8394,3.4706e-13,-0.8756,0,0,0.125,-0,-0,0.66667
0.91111,0.45029,7.2889,-0.074558,-1.0378,6.26,1.4492,-0.48306,-1.9787,1.9322,-1.0351e-08,-0.98937,0,0,0.125,-0,-0,0.66667
0.87231,0.5237,6.9785,0.035555,0.70468,12.108,-0.66166,0.22055,-1.9959,-0.88221,2.6978e-09,-0.99795,0,0,0.125,1.1842e-15,0,0.66667
0.70467,0.62868,5.6373,0.19303,8.1874,57.122,-2.9017,0.96724,-1.8696,-3.869,-5.6501e-12,-0.93479,0,0,0.125,-2.3685e-15,0,0.66667
0.26123,0.57984,2.0898,0.11975,9.4535,289.22,-0.66737,0.22246,-1.9477,-0.88983,5.2145e-12,-0.97386,0,0,0.125,-2.9606e-16,0,0.66667
0.50107,0.11302,4.0086,-0.58047,-36.961,147.93,6.2049,-2.0683,-0.80363,8.2732,1.5579e-12,-0.40182,0,0,0.125,-5.9212e-16,0,0.66667
0.21771,0.55662,1.7416,0.084935,6.8554,317.71,-0.39447,0.13149,-1.9766,-0.52596,-1.0514e-12,-0.98831,0,0,0.125,-4.4409e-16,0,0.66667
0.10252,0.64209,0.82016,0.21314,17.883,395.56,-0.46616,0.15539,-1.8363,-0.62155,-1.5804e-08,-0.91813,0,0,0.125,-1.4803e-16,0,0.66667
0.57796,0.31422,4.6237,-0.27866,-15.696,109.43,3.4359,-1.1453,-1.7279,4.5812,-5.993e-13,-0.86397,0,0,0.125,-0,-0,0.66667
0.4796,0.69801,3.8368,0.29701,19.369,158.86,-3.0389,1.013,-1.685,-4.0518,-3.5438e-13,-0.8425,0,0,0.125,1.1842e-15,0,0.66667
0.24749,0.81062,1.9799,0.46593,37.157,298.33,-2.46,0.82001,-1.2295,-3.28,-1.1286e-11,-0.61477,0,0,0.125,-3.7007e-17,0,0.66667
0.44668,0.003778,3.5734,-0.74433,-50.837,177.61,7.0928,-2.3643,-0.028945,9.4571,-7.8337e-13,-0.014473,0,0,0.125,-0,-0,0.66667
0.13839,0.5755,1.1071,0.11325,9.414,371.01,-0.33435,0.11145,-1.9548,-0.44579,-3.8636e-09,-0.9774,0,0,0.125,-0,-0,0.66667
0.5228,0.10844,4.1824,-0.58733,-36.288,136.78,6.5506,-2.1835,-0.77121,8.7341,3.8591e-13,-0.38561,0,0,0.125,1.1842e-15,0,0.66667
0.97037,0.025917,7.763,-0.71112,-3.5007,2.6739,14.721,-4.907,-0.20368,19.628,2.3559e-05,-0.10184,0,0,0.125,1.1842e-15,0,0.66667
0.82378,0.73619,6.5903,0.35428,9.5556,22.318,-6.2262,2.0754,-1.5525,-8.3016,8.8348e-10,-0.77623,0,0,0.125,2.0868e-16,0,0.66667
0.0044396,0.58786,0.035517,0.13179,11.172,463.36,-0.012482,0.0041607,-1.9376,-0.016643,-1.4126e-07,-0.96879,0,0,0.125,2.313e-18,0,0.66667
0.09162,0.85325,0.73296,0.52987,44.681,403.13,-1.0357,0.34522,-1.0024,-1.3809,-1.1608e-08,-0.50122,0,0,0.125,-0,1.3671e-17,0.66667
0.025576,0.10481,0.20461,-0.59279,-50.422,448.73,0.32343,-0.10782,-0.74882,0.43124,-5.9818e-06,-0.37441,0,0,0.125,7.4015e-17,0,0.66667
0.30843,0.74443,2.4674,0.36665,28.148,259.22,-2.4125,0.80415,-1.5216,-3.2166,2.8271e-12,-0.76081,0,0,0.125,7.4015e-16,0,0.66667
0.98064,0.89841,7.8451,0.59762,1.8279,1.7188,-12.502,4.1675,-0.72968,-16.67,-3.6201e-06,-0.36484,0,0,0.125,-0,-0,0.66667
0.4604,0.41938,3.6832,-0.12092,-8.0628,169.16,1.1877,-0.3959,-1.9458,1.5836,-8.3711e-14,-0.97289,0,0,0.125,-0,-0,0.66667
0.40975,0.4452,3.278,-0.082201,-5.7895,197.75,0.71854,-0.23951,-1.9757,0.95805,-1.2651e-13,-0.98785,0,0,0.125,-0,-0,0.66667
0.40822,0.057261,3.2658,-0.66411,-47.143,199.26,5.7835,-1.9278,-0.43322,7.7113,-4.1744e-13,-0.21661,0,0,0.125,-5.9212e-16,0,0.66667
0.82481,0.81368,6.5985,0.47052,12.669,22.362,-8.2793,2.7598,-1.2137,-11.039,5.8948e-10,-0.60686,0,0,0.125,2.3685e-15,0,0.66667
0.58171,0.29952,4.6536,-0.30072,-16.831,107.72,3.7319,-1.244,-1.6777,4.9759,-7.6184e-13,-0.83886,0,0,0.125,-0,-0,0.66667
0.11935,0.27295,0.95481,-0.34058,-28.491,384.05,0.86717,-0.28906,-1.586,1.1562,1.134e-08,-0.79302,0,0,0.125,-0,-0,0.66667
0.44473,0.41263,3.5579,-0.13106,-8.8977,177.84,1.2435,-0.41449,-1.9372,1.6579,3.3196e-14,-0.96862,0,0,0.125,-1.1842e-15,0,0.66667
0.1464,0.00071456,1.1712,-0.74893,-62.537,365.85,2.3391,-0.77971,-0.0053156,3.1188,2.0484e-09,-0.0026578,0,0,0.125,-0,-0,0.66667
0.66607,0.41235,5.3286,-0.13148,-6.1675,71.475,1.8682,-0.62274,-1.9372,2.491,1.6165e-12,-0.96861,0,0,0.125,-0,-0,0.66667
0.12237,0.035943,0.97895,-0.69609,-58.454,382.15,1.8172,-0.60572,-0.27803,2.4229,-8.126e-08,-0.13902,0,0,0.125,-0,-0,0.66667
0.086689,0.37305,0.69351,-0.19043,-16.024,406.44,0.35217,-0.11739,-1.8701,0.46956,6.7001e-09,-0.93506,0,0,0.125,2.0354e-16,0,0.66667
0.70336,0.16039,5.6269,-0.50941,-21.805,58.142,7.6438,-2.5479,-1.0808,10.192,1.8012e-12,-0.54042,0,0,0.125,-0,-0,0.66667
0.41126,0.58077,3.2901,0.12116,8.5212,196.88,-1.063,0.35432,-1.9462,-1.4173,1.2957e-12,-0.97311,0,0,0.125,-0,-0,0.66667
0.99611,0.19017,7.9689,-0.46474,-0.14086,0.81938,9.8759,-3.292,-1.2322,13.168,-1.0569e-06,-0.61612,0,0,0.125,-2.3685e-15,0,0.66667
0.53405,0.89124,4.2724,0.58686,35.663,131.13,-6.6862,2.2287,-0.77527,-8.9149,-5.5778e-13,-0.38764,0,0,0.125,1.1842e-15,0,0.66667
0.77901,0.87135,6.2321,0.55703,18.541,34.246,-9.2572,3.0857,-0.89813,-12.343,6.8143e-11,-0.44907,0,0,0.125,1.4803e-15,-1.1549e-16,0.66667
0.86863,0.22467,6.949,-0.413,-8.4835,13.281,7.6531,-2.551,-1.3921,10.204,-7.2315e-09,-0.69604,0,0,0.125,2.3685e-15,0,0.66667
0.79875,0.9449,6.39,0.66735,20.534,29.34,-11.372,3.7905,-0.41771,-15.162,-7.9879e-10,-0.20885,0,0,0.125,-0,-0,0.66667
0.21409,0.55583,1.7127,0.083748,6.7707,320.11,-0.38249,0.1275,-1.9742,-0.50999,-5.1665e-12,-0.98708,0,0,0.125,-0,-0,0.66667
0.68037,0.69326,5.4429,0.28989,13.142,66.139,-4.2076,1.4025,-1.6996,-5.6101,-4.6403e-12,-0.84981,0,0,0.125,-0,-0,0.66667
0.0046244,0.54912,0.036996,0.073681,6.2447,463.23,-0.0072688,0.0024218,-1.9793,-0.0096923,-1.7484e-06,-0.98965,0,0,0.125,-0,-0,0.66667
0.7958,0.13228,6.3664,-0.55158,-17.112,29.703,9.3642,-3.1214,-0.92031,12.486,1.6325e-10,-0.46015,0,0,0.125,-0,-0,0.66667
0.21583,0.018666,1.7267,-0.722,-58.71,319.34,3.3244,-1.1081,-0.14634,4.4325,1.7072e-10,-0.07317,0,0,0.125,-0,1.4242e-16,0.66667
0.98672,0.63188,7.8938,0.19783,0.33791,0.40754,-4.1643,1.3881,-1.8616,-5.5524,9.0463e-08,-0.93081,0,0,0.125,-0,-0,0.66667
0.94415,0.26021,7.5532,-0.35968,-3.1713,3.1573,7.2446,-2.4149,-1.538,9.6595,-2.4523e-09,-0.76901,0,0,0.125,-2.3685e-15,0,0.66667
0.58512,0.95673,4.6809,0.6851,38.381,106.93,-8.5518,2.8506,-0.329,-11.402,7.8515e-13,-0.1645,0,0,0.125,-6.9292e-16,0,0.66667
0.16047,0.66185,1.2837,0.24278,20.057,356.05,-0.83112,0.27704,-1.7899,-1.1082,-1.8947e-09,-0.89496,0,0,0.125,-0,-0,0.66667
0.7034,0.3659,5.6272,-0.20115,-8.5632,57.58,3.0185,-1.0062,-1.859,4.0246,5.4621e-12,-0.92949,0,0,0.125,5.9212e-16,0,0.66667
0.41745,0.89585,3.3396,0.59377,41.71,193.81,-5.288,1.7627,-0.74529,-7.0506,6.6613e-14,-0.37265,0,0,0.125,-0,-0,0.66667
0.46677,0.78309,3.7342,0.42463,28.172,165.95,-4.2284,1.4095,-1.3608,-5.6378,1.7271e-12,-0.68041,0,0,0.125,-1.1842e-15,0,0.66667
0.30497,0.45951,2.4397,-0.060728,-4.665,261.25,0.3951,-0.1317,-1.9849,0.52679,-2.9887e-12,-0.99244,0,0,0.125,-0,-0,0.66667
0.86917,0.59235,6.9533,0.13853,2.8129,12.718,-2.5687,0.85623,-1.9312,-3.4249,3.2044e-09,-0.96561,0,0,0.125,-0,-0,0.66667
0.46942,0.84225,3.7554,0.51337,33.995,164.64,-5.141,1.7137,-1.0664,-6.8547,2.0961e-13,-0.53319,0,0,0.125,2.9606e-16,0,0.66667
0.80616,0.94861,6.4493,0.67291,20.027,27.488,-11.573,3.8576,-0.38804,-15.43,-4.9371e-10,-0.19402,0,0,0.125,-0,-0,0.66667
0.8068,0.5848,6.4544,0.1272,3.7169,26.077,-2.1893,0.72978,-1.9409,-2.9191,2.2504e-10,-0.97043,0,0,0.125,-5.9212e-16,0,0.66667
0.55703,0.23813,4.4562,-0.39281,-22.953,119.5,4.6678,-1.5559,-1.4496,6.2238,-1.4095e-12,-0.72482,0,0,0.125,5.9212e-16,0,0.66667
0.38613,0.75043,3.089,0.37564,27.112,211.77,-3.0943,1.0314,-1.4985,-4.1258,6.6391e-14,-0.74927,0,0,0.125,-0,-0,0.66667
0.68707,0.25157,5.4965,-0.37265,-16.624,63.764,5.4621,-1.8207,-1.51,7.2828,4.2539e-12,-0.75499,0,0,0.125,-0,-0,0.66667
0.6809,0.43568,5.4472,-0.096483,-4.3607,65.756,1.4015,-0.46717,-1.9661,1.8687,1.2511e-12,-0.98303,0,0,0.125,5.4488e-16,0,0.66667
0.18194,0.85222,1.4555,0.52834,43.437,341.73,-2.0507,0.68357,-1.006,-2.7343,-1.6967e-10,-0.503,0,0,0.125,-0,-0,0.66667
0.76415,0.2725,6.1132,-0.34125,-11.958,37.977,5.563,-1.8543,-1.5874,7.4174,4.3459e-12,-0.7937,0,0,0.125,-0,-0,0.66667
0.16518,0.19291,1.3214,-0.46064,-38.068,352.96,1.6232,-0.54106,-1.2441,2.1642,4.2825e-10,-0.62205,0,0,0.125,-0,-0,0.66667
0.32411,0.22206,2.5929,-0.41691,-31.671,249.46,2.8826,-0.96087,-1.382,3.8435,2.2449e-13,-0.69099,0,0,0.125,-0,-0,0.66667
0.87021,0.71548,6.9617,0.32322,6.5414,12.796,-6.0004,2.0001,-1.6281,-8.0005,7.8285e-09,-0.81405,0,0,0.125,-2.9606e-16,0,0.66667
0.57167,0.5681,4.5733,0.10215,5.8095,112.24,-1.2457,0.41525,-1.9615,-1.661,-2.2098e-12,-0.98073,0,0,0.125,-0,-0,0.66667
0.2566,0.0028742,2.0528,-0.74569,-59.437,292.72,4.082,-1.3607,-0.021886,5.4426,-1.3811e-11,-0.010943,0,0,0.125,-0,-0,0.66667
0.92392,0.57012,7.3914,0.10518,1.2535,4.7492,-2.0731,0.69105,-1.9616,-2.7642,4.5342e-08,-0.98082,0,0,0.125,-0,-0,0.66667
0.66058,0.12216,5.2846,-0.56676,-27.118,74.351,7.9869,-2.6623,-0.85778,10.649,5.9153e-13,-0.42889,0,0,0.125,-4.4409e-16,0,0.66667
0.55451,0.9045,4.4361,0.60674,35.733,121.14,-7.1775,2.3925,-0.69011,-9.57,1.7044e-12,-0.34505,0,0,0.125,-4.4409e-16,0,0.66667
0.99332,0.17595,7.9466,-0.48607,-0.38779,0.94054,10.3,-3.4334,-1.1579,13.734,-1.0958e-06,-0.57894,0,0,0.125,-1.1842e-15,0,0.66667
0.84555,0.95639,6.7644,0.68458,16.585,18.605,-12.349,4.1163,-0.33454,-16.465,7.9836e-09,-0.16727,0,0,0.125,-0,-0,0.66667
0.67719,0.3039,5.4175,-0.29415,-13.445,67.349,4.2496,-1.4165,-1.6909,5.6661,2.8444e-12,-0.84546,0,0,0.125,5.9212e-16,0,0.66667
0.081731,0.85741,0.65384,0.53612,45.29,409.93,-0.93476,0.31159,-0.97729,-1.2464,-3.7386e-08,-0.48864,0,0,0.125,-0,-0,0.66667
0.36445,0.54278,2.9156,0.064174,4.7116,224.54,-0.49894,0.16631,-1.9838,-0.66525,2.8546e-12,-0.99191,0,0,0.125,-5.9212e-16,0,0.66667
0.50217,0.48077,4.0173,-0.028847,-1.8241,146.76,0.30904,-0.10301,-1.9975,0.41205,-9.8041e-13,-0.99877,0,0,0.125,-0,-0,0.66667
0.61766,0.53276,4.9412,0.049133,2.5646,91.417,-0.6474,0.2158,-1.9905,-0.86321,-2.5659e-12,-0.99526,0,0,0.125,2.3685e-15,0,0.66667
0.63988,0.045828,5.119,-0.68126,-34.262,83.043,9.2997,-3.0999,-0.35179,12.4,7.4341e-13,-0.17589,0,0,0.125,-1.1842e-15,-1.4737e-16,0.66667
0.72511,0.27032,5.8009,-0.34452,-13.783,50.278,5.3294,-1.7765,-1.576,7.1058,1.3011e-11,-0.78801,0,0,0.125,-0,-0,0.66667
0.91024,0.80438,7.2819,0.45656,6.5127,7.0276,-8.8658,2.9553,-1.2582,-11.821,2.7797e-08,-0.62909,0,0,0.125,1.1842e-15,0,0.66667
0.56828,0.63492,4.5462,0.20238,11.583,113.9,-2.4535,0.81783,-1.8526,-3.2713,3.2907e-13,-0.92632,0,0,0.125,-0,-0,0.66667
0.98027,0.7613,7.8422,0.39194,1.1406,1.0231,-8.1965,2.7322,-1.4528,-10.929,-4.2517e-07,-0.7264,0,0,0.125,-0,-0,0.66667
0.1132,0.87359,0.90558,0.56038,47.062,388.34,-1.3533,0.45109,-0.88392,-1.8043,-9.5312e-09,-0.44196,0,0,0.125,-1.8504e-17,0,0.66667
0.46568,0.67703,3.7254,0.26555,17.611,166.36,-2.6381,0.87937,-1.7491,-3.5175,5.4623e-13,-0.87453,0,0,0.125,5.9212e-16,0,0.66667
0.10167,0.90383,0.81338,0.60575,51.033,396.26,-1.3139,0.43796,-0.69429,-1.7518,-8.1138e-08,-0.34714,0,0,0.125,-0,-0,0.66667
0.74245,0.35396,5.9396,-0.21906,-8.272,44.441,3.4697,-1.1566,-1.8273,4.6263,1.3071e-11,-0.91364,0,0,0.125,-0,-0,0.66667
0.80683,0.7336,6.4546,0.35039,10.276,26.376,-6.0311,2.0104,-1.5616,-8.0414,3.1144e-10,-0.78078,0,0,0.125,-0,-0,0.66667
0.52316,0.14529,4.1853,-0.53207,-32.823,136.48,5.9383,-1.9794,-0.99128,7.9177,2.0139e-12,-0.49564,0,0,0.125,-0,-0,0.66667
0.43253,0.37518,3.4602,-0.18723,-12.885,184.74,1.7276,-0.57587,-1.8754,2.3035,-2.4347e-13,-0.93771,0,0,0.125,-0,-0,0.66667
0.066995,0.60593,0.53596,0.1589,13.41,420.02,-0.2271,0.075702,-1.9089,-0.30281,1.3424e-08,-0.95447,0,0,0.125,-0,-0,0.66667
0.56461,0.93203,4.5169,0.64805,37.575,116.4,-7.8058,2.6019,-0.50797,-10.408,7.2431e-13,-0.25398,0,0,0.125,-5.9212e-16,0,0.66667
0.25483,0.3156,2.0386,-0.2766,-21.931,293.43,1.5037,-0.50124,-1.7275,2.0049,-1.6365e-11,-0.86376,0,0,0.125,-0,-0,0.66667
0.082332,0.29831,0.65865,-0.30254,-25.494,409.46,0.53138,-0.17713,-1.6734,0.70851,2.798e-08,-0.83669,0,0,0.125,-1.4803e-16,0,0.66667
0.73371,0.39424,5.8697,-0.15864,-6.1615,47.195,2.4832,-0.82772,-1.9127,3.3109,9.4573e-12,-0.95633,0,0,0.125,1.1842e-15,0,0.66667
0.74344,0.52461,5.9475,0.036919,1.3877,44.003,-0.58554,0.19518,-1.9935,-0.78071,-3.3238e-12,-0.99677,0,0,0.125,-1.1842e-15,0,0.66667
0.37108,0.52504,2.9686,0.037562,2.742,220.54,-0.29735,0.099117,-1.9946,-0.39647,2.5234e-12,-0.9973,0,0,0.125,-5.9212e-16,0,0.66667
0.18447,0.35779,1.4758,-0.21331,-17.468,339.88,0.83946,-0.27982,-1.8379,1.1193,5.1796e-10,-0.91894,0,0,0.125,-2.9606e-16,0,0.66667
0.51289,0.28806,4.1031,-0.3179,-19.84,141.38,3.4784,-1.1595,-1.6411,4.6379,-2.1894e-13,-0.82055,0,0,0.125,-0,-0,0.66667
0.093456,0.74398,0.74765,0.36597,30.794,401.82,-0.72964,0.24321,-1.527,-0.97286,-2.8141e-08,-0.76348,0,0,0.125,-1.8678e-17,0,0.66667
0.77844,0.91715,6.2275,0.62572,20.928,34.631,-10.391,3.4637,-0.6079,-13.855,-7.1583e-11,-0.30395,0,0,0.125,-0,-0,0.66667
0.47595,0.27968,3.8076,-0.33048,-21.657,160.85,3.3556,-1.1185,-1.6108,4.4741,1.5867e-12,-0.80539,0,0,0.125,-7.4015e-16,0,0.66667
0.96096,0.35202,7.6877,-0.22197,-1.3318,1.6375,4.5506,-1.5169,-1.8229,6.0674,9.1671e-08,-0.91144,0,0,0.125,-0,-0,0.66667
0.10902,0.097227,0.87216,-0.60416,-50.818,391.22,1.4051,-0.46838,-0.70566,1.8735,4.142e-08,-0.35283,0,0,0.125,-0,-5.8551e-17,0.66667
0.69796,0.66861,5.5837,0.25292,10.938,59.59,-3.7659,1.2553,-1.7709,-5.0212,-7.6477e-12,-0.88546,0,0,0.125,1.1842e-15,0,0.66667
0.80356,0.17973,6.4285,-0.4804,-14.359,27.503,8.2354,-2.7451,-1.1777,10.981,-8.0352e-11,-0.58883,0,0,0.125,-0,-0,0.66667
0.72687,0.99026,5.815,0.73538,29.581,50.782,-11.403,3.8011,-0.075142,-15.204,4.2597e-12,-0.037571,0,0,0.125,2.045e-15,0,0.66667
0.46145,0.58701,3.6916,0.13051,8.6919,168.58,-1.2848,0.42828,-1.9377,-1.7131,-1.5858e-12,-0.96885,0,0,0.125,-3.1888e-16,0,0.66667
0.54611,0.65954,4.3689,0.23931,14.205,124.62,-2.788,0.92934,-1.7994,-3.7174,4.0346e-13,-0.89969,0,0,0.125,-1.1842e-15,0,0.66667
0.61519,0.61921,4.9215,0.17882,9.386,92.553,-2.3469,0.78229,-1.885,-3.1291,-5.7399e-13,-0.94251,0,0,0.125,-1.4803e-15,0,0.66667
0.059105,0.57011,0.47284,0.10517,8.8831,425.47,-0.13261,0.044204,-1.9605,-0.17682,1.1296e-07,-0.98024,0,0,0.125,-0,-0,0.66667
0.99567,0.70411,7.9654,0.30616,0.076759,0.39368,-6.5032,2.1677,-1.6655,-8.671,3.5558e-07,-0.83273,0,0,0.125,-0,-0,0.66667
0.25491,0.65454,2.0393,0.23182,18.374,293.36,-1.2606,0.42021,-1.8087,-1.6808,1.1015e-11,-0.90435,0,0,0.125,-3.3307e-16,0,0.66667
0.64341,0.60733,5.1473,0.16099,7.9612,80.589,-2.2098,0.73659,-1.9077,-2.9464,-2.3446e-12,-0.95386,0,0,0.125,1.1842e-15,0,0.66667
0.12643,0.1123,1.0115,-0.58154,-48.696,379.31,1.5686,-0.52285,-0.79876,2.0914,5.3971e-09,-0.39938,0,0,0.125,1.4803e-16,0,0.66667
0.16786,0.05337,1.3429,-0.66994,-55.479,351.29,2.3991,-0.79971,-0.4034,3.1988,-7.8234e-09,-0.2017,0,0,0.125,1.4803e-16,0,0.66667
0.4911,0.17172,3.9288,-0.49242,-31.722,152.99,5.159,-1.7197,-1.1357,6.8787,5.4534e-13,-0.56783,0,0,0.125,-0,-0,0.66667
0.2885,0.73032,2.308,0.34548,26.868,271.81,-2.1263,0.70877,-1.5735,-2.8351,6.0993e-12,-0.78673,0,0,0.125,5.9212e-16,0,0.66667
0.50424,0.043184,4.0339,-0.68522,-43.539,146.52,7.371,-2.457,-0.32944,9.828,1.2861e-12,-0.16472,0,0,0.125,-0,-0,0.66667
0.10218,0.47686,0.81745,-0.034713,-2.911,395.77,0.075669,-0.025223,-1.9938,0.10089,-1.368e-09,-0.99692,0,0,0.125,-0,-0,0.66667
0.41929,0.31207,3.3544,-0.28189,-19.684,192.35,2.5215,-0.8405,-1.7191,3.362,-2.6872e-12,-0.85956,0,0,0.125,-2.7756e-16,0,0.66667
0.2686,0.46217,2.1488,-0.056748,-4.4602,284.45,0.32517,-0.10839,-1.9888,0.43357,-6.4092e-12,-0.99441,0,0,0.125,2.9606e-16,0,0.66667
0.5819,0.95133,4.6552,0.677,38.136,108.39,-8.4042,2.8014,-0.36951,-11.206,-1.9984e-13,-0.18476,0,0,0.125,-0,-0,0.66667
0.17171,0.71153,1.3736,0.31729,26.125,348.49,-1.1622,0.38741,-1.6452,-1.5497,-1.1771e-09,-0.82261,0,0,0.125,-1.4803e-16,0,0.66667
0.96232,0.3213,7.6986,-0.26806,-1.5548,1.6299,5.503,-1.8343,-1.7427,7.3374,1.2178e-07,-0.87135,0,0,0.125,-0,-0,0.66667
0.54421,0.36037,4.3537,-0.20944,-12.466,125.52,2.4316,-0.81052,-1.844,3.2421,-5.4934e-13,-0.922,0,0,0.125,1.1842e-15,0,0.66667
0.70195,0.51346,5.6156,0.020196,0.86243,57.997,-0.30243,0.10081,-2,-0.40324,3.3873e-13,-1,0,0,0.125,-2.3685e-15,0,0.66667
0.93237,0.113,7.4589,-0.5805,-6.3382,4.936,11.546,-3.8488,-0.80025,15.395,-1.4758e-07,-0.40012,0,0,0.125,-0,-0,0.66667
0.34537,0.84351,2.7629,0.51526,38.566,236.46,-3.7964,1.2655,-1.0587,-5.0618,1.0889e-12,-0.52933,0,0,0.125,6.1062e-16,0,0.66667
0.51572,0.419,4.1257,-0.12149,-7.5412,139.78,1.3367,-0.44556,-1.9504,1.7822,-7.1987e-13,-0.97518,0,0,0.125,-0,-0,0.66667
0.78659,0.039177,6.2927,-0.69124,-22.429,32.634,11.599,-3.8664,-0.29976,15.466,-2.708e-10,-0.14988,0,0,0.125,-0,-0,0.66667
0.06941,0.32548,0.55528,-0.26179,-22.097,418.37,0.38764,-0.12921,-1.7541,0.51685,1.5246e-08,-0.87707,0,0,0.125,-0,-0,0.66667
0.75322,0.42424,6.0258,-0.11364,-4.1308,40.986,1.826,-0.60868,-1.9536,2.4347,6.9337e-12,-0.97681,0,0,0.125,-1.1842e-15,0,0.66667
0.11748,0.95419,0.93984,0.68128,57.264,385.48,-1.7074,0.56915,-0.34741,-2.2766,2.4509e-09,-0.17371,0,0,0.125,-1.4803e-16,0,0.66667
0.38913,0.64055,3.113,0.21082,15.153,209.86,-1.7501,0.58337,-1.8431,-2.3335,2.8122e-13,-0.92154,0,0,0.125,-0,-0,0.66667
0.69699,0.57905,5.5759,0.11858,5.1356,59.816,-1.7632,0.58772,-1.9479,-2.3509,-3.0433e-12,-0.97397,0,0,0.125,-1.1842e-15,0,0.66667
0.059872,0.71595,0.47897,0.32393,27.389,424.96,-0.41374,0.13791,-1.6281,-0.55165,-5.3468e-09,-0.81403,0,0,0.125,1.8504e-17,0,0.66667
0.66498,0.064142,5.3199,-0.65379,-31.028,72.871,9.2748,-3.0916,-0.47936,12.366,7.6561e-13,-0.23968,0,0,0.125,-0,-0,0.66667
0.97191,0.60156,7.7753,0.15234,0.63474,0.9319,-3.1586,1.0529,-1.9175,-4.2115,3.8942e-08,-0.95873,0,0,0.125,-0,-0,0.66667
0.24942,0.25854,1.9954,-0.36219,-28.822,296.99,1.9272,-0.6424,-1.5361,2.5696,-1.6016e-11,-0.76805,0,0,0.125,-0,-0,0.66667
0.25914,0.33311,2.0731,-0.25034,-19.798,290.62,1.3839,-0.46131,-1.7752,1.8453,-1.5675e-11,-0.8876,0,0,0.125,-0,-0,0.66667
0.087231,0.61674,0.69785,0.1751,14.732,406.07,-0.32585,0.10862,-1.8892,-0.43447,-1.2274e-08,-0.9446,0,0,0.125,-1.4803e-16,0,0.66667
0.093025,0.68387,0.7442,0.27581,23.193,402.09,-0.54735,0.18245,-1.7325,-0.72981,-2.1767e-08,-0.86626,0,0,0.125,3.7007e-17,0,0.66667
0.31441,0.11066,2.5152,-0.584,-44.775,255.7,3.9171,-1.3057,-0.78802,5.2228,-8.1313e-13,-0.39401,0,0,0.125,-5.9212e-16,0,0.66667
0.83253,0.30777,6.6602,-0.28835,-7.4079,20.221,5.1212,-1.7071,-1.7039,6.8283,-1.4942e-09,-0.85195,0,0,0.125,-1.1842e-15,0,0.66667
0.51242,0.21617,4.0994,-0.42575,-26.623,141.77,4.6542,-1.5514,-1.3562,6.2055,9.6589e-13,-0.6781,0,0,0.125,8.9186e-16,0,0.66667
0.38564,0.8473,3.0851,0.52094,37.685,212.23,-4.2858,1.4286,-1.0345,-5.7144,1.3554e-12,-0.51724,0,0,0.125,-0,-0,0.66667
0.1825,0.9761,1.46,0.71415,58.872,341.5,-2.7805,0.92683,-0.18547,-3.7073,-6.5398e-10,-0.092736,0,0,0.125,-5.9212e-16,0,0.66667
0.97602,0.47668,7.8081,-0.03498,-0.1211,0.66553,0.72835,-0.24278,-1.9938,0.97113,2.1985e-07,-0.99689,0,0,0.125,-0,-0,0.66667
0.74144,0.91258,5.9315,0.61886,23.663,45.646,-9.7888,3.2629,-0.6366,-13.052,1.3308e-11,-0.3183,0,0,0.125,-0,-0,0.66667
0.34016,0.79368,2.7213,0.44052,33.073,239.56,-3.1968,1.0656,-1.3093,-4.2623,1.1315e-12,-0.65466,0,0,0.125,-0,-0,0.66667
0.92233,0.0018629,7.3787,-0.74721,-9.5163,6.7223,14.702,-4.9008,-0.018509,19.603,6.2006e-07,-0.0092545,0,0,0.125,-0,-0,0.66667
0.58633,0.84497,4.6906,0.51746,28.818,105.96,-6.4726,2.1575,-1.0471,-8.6301,-2.78e-13,-0.52356,0,0,0.125,-0,-0,0.66667
0.2652,0.4424,2.1216,-0.086401,-6.8046,286.65,0.48882,-0.16294,-1.9766,0.65176,-5.0071e-12,-0.98831,0,0,0.125,-0,-0,0.66667
0.48157,0.46284,3.8525,-0.055736,-3.6208,157.66,0.5726,-0.19087,-1.9894,0.76347,-8.033e-13,-0.99472,0,0,0.125,5.9212e-16,0,0.66667
0.43439,0.6225,3.4751,0.18375,12.621,183.68,-1.7028,0.56761,-1.8807,-2.2704,2.73e-13,-0.94036,0,0,0.125,-2.9606e-16,0,0.66667
0.3025,0.62677,2.42,0.19016,14.638,262.85,-1.2272,0.40906,-1.8709,-1.6362,2.469e-12,-0.93544,0,0,0.125,-0,-0,0.66667
0.65676,0.83246,5.2541,0.49869,24.037,75.695,-6.9871,2.329,-1.1181,-9.3162,-1.6449e-12,-0.55907,0,0,0.125,-0,-0,0.66667
0.79219,0.17371,6.3376,-0.48944,-15.391,30.468,8.2716,-2.7572,-1.1468,11.029,-1.6019e-11,-0.5734,0,0,0.125,-1.1842e-15,0,0.66667
0.35326,0.69306,2.8261,0.2896,21.484,231.42,-2.1825,0.72749,-1.7005,-2.91,-1.3027e-12,-0.85023,0,0,0.125,-0,-0,0.66667
0.43787,0.45644,3.503,-0.065336,-4.4685,181.67,0.61032,-0.20344,-1.9873,0.81376,1.6059e-13,-0.99366,0,0,0.125,-0,-0,0.66667
0.96304,0.018192,7.7043,-0.72271,-4.4448,3.1287,14.848,-4.9493,-0.14102,19.797,-6.386e-06,-0.07051,0,0,0.125,-2.2809e-15,0,0.66667
0.25951,0.47543,2.0761,-0.036859,-2.912,290.32,0.20406,-0.06802,-1.9937,0.27208,-6.2571e-12,-0.99684,0,0,0.125,-0,-0,0.66667
0.71926,0.8446,5.7541,0.5169,21.131,52.634,-7.9314,2.6438,-1.0538,-10.575,-1.6318e-11,-0.5269,0,0,0.125,-0,-0,0.66667
0.85114,0.21637,6.8091,-0.42545,-9.836,16.612,7.7252,-2.5751,-1.3554,10.3,-2.437e-09,-0.67768,0,0,0.125,-1.5244e-15,0,0.66667
0.74183,0.96338,5.9347,0.69508,26.615,45.785,-11,3.6667,-0.28064,-14.667,-8.6251e-12,-0.14032,0,0,0.125,-5.9212e-16,0,0.66667
0.21655,0.87343,1.7324,0.56015,45.414,318.71,-2.5878,0.8626,-0.88614,-3.4504,-4.0055e-10,-0.44307,0,0,0.125,3.3307e-16,0,0.66667
0.43531,0.60887,3.4825,0.1633,11.204,183.15,-1.5165,0.5055,-1.9056,-2.022,-8.6597e-14,-0.95279,0,0,0.125,-5.9212e-16,0,0.66667
0.60876,0.65497,4.8701,0.23245,12.362,95.418,-3.0188,1.0063,-1.8114,-4.0251,-2.8153e-12,-0.90572,0,0,0.125,1.7023e-15,0,0.66667
0.59156,0.56195,4.7325,0.09293,5.1016,103.03,-1.1728,0.39092,-1.9713,-1.5637,1.6303e-12,-0.98564,0,0,0.125,-1.3323e-15,0,0.66667
0.95189,0.15731,7.6151,-0.51403,-3.9604,2.9946,10.438,-3.4795,-1.0634,13.918,-2.3217e-07,-0.53169,0,0,0.125,-0,-0,0.66667
0.3584,0.072437,2.8672,-0.64134,-47.597,228.71,4.9037,-1.6346,-0.53943,6.5382,-2.2289e-12,-0.26972,0,0,0.125,5.9212e-16,-1.2841e-16,0.66667
0.53179,0.92257,4.2543,0.63385,38.687,132.36,-7.191,2.397,-0.5737,-9.588,3.6504e-13,-0.28685,0,0,0.125,-0,-0,0.66667
0.39838,0.20662,3.187,-0.44007,-31.425,204.63,3.74,-1.2467,-1.3092,4.9867,8.3444e-13,-0.6546,0,0,0.125,-4.7177e-16,0,0.66667
0.61473,0.051728,4.9178,-0.67241,-35.619,93.672,8.8181,-2.9394,-0.39079,11.757,-3.2063e-13,-0.1954,0,0,0.125,-5.9212e-16,0,0.66667
0.46485,0.25474,3.7188,-0.36788,-24.446,166.92,3.6482,-1.2161,-1.5186,4.8643,-1.2457e-13,-0.75931,0,0,0.125,-1.1842e-15,0,0.66667
0.95549,0.54183,7.6439,0.062752,0.42976,1.8504,-1.2791,0.42638,-1.9864,-1.7055,-3.9004e-07,-0.9932,0,0,0.125,-2.3685e-15,0,0.66667
0.70849,0.44988,5.6679,-0.07518,-3.1517,55.694,1.1363,-0.37876,-1.9782,1.5151,2.127e-12,-0.98909,0,0,0.125,1.1842e-15,0,0.66667
0.49885,0.94631,3.9908,0.66946,42.832,149.29,-7.1244,2.3748,-0.4083,-9.4993,1.1759e-12,-0.20415,0,0,0.125,-1.1842e-15,0,0.66667
0.49291,0.27747,3.9433,-0.33379,-21.407,151.81,3.51,-1.17,-1.6026,4.6799,1.2015e-12,-0.80128,0,0,0.125,7.4015e-16,0,0.66667
0.2485,0.39876,1.988,-0.15187,-12.074,297.5,0.80508,-0.26836,-1.9196,1.0734,-6.8454e-12,-0.95978,0,0,0.125,-0,-0,0.66667
0.21539,0.16364,1.7231,-0.50455,-40.896,319.43,2.3183,-0.77278,-1.0947,3.0911,-1.1765e-10,-0.54736,0,0,0.125,-0,-0,0.66667
0.38386,0.34359,3.0709,-0.23461,-16.947,212.99,1.9213,-0.64042,-1.8038,2.5617,4.8517e-14,-0.90188,0,0,0.125,-6.8464e-16,0,0.66667
0.26942,0.35289,2.1553,-0.22066,-17.345,283.97,1.2683,-0.42275,-1.8262,1.691,-1.4892e-11,-0.91312,0,0,0.125,-0,-0,0.66667
0.29831,0.33635,2.3864,-0.24547,-18.955,265.52,1.5621,-0.52071,-1.7874,2.0828,-5.0107e-12,-0.8937,0,0,0.125,-2.9606e-16,0,0.66667
0.21497,0.020409,1.7198,-0.71939,-58.517,319.91,3.2992,-1.0997,-0.15919,4.3989,1.8136e-10,-0.079594,0,0,0.125,-0,-0,0.66667
0.43072,0.15501,3.4457,-0.51749,-35.808,186.12,4.755,-1.585,-1.0471,6.34,-1.6946e-12,-0.52354,0,0,0.125,-7.4015e-16,0,0.66667
0.23735,0.75909,1.8988,0.38863,31.129,304.89,-1.9678,0.65594,-1.463,-2.6238,7.794e-12,-0.73149,0,0,0.125,-0,-0,0.66667
0.42905,0.17085,3.4324,-0.49372,-34.212,187.03,4.519,-1.5063,-1.131,6.0254,3.8192e-14,-0.56552,0,0,0.125,-0,-0,0.66667
0.73823,0.60584,5.9058,0.15875,6.0757,45.73,-2.5002,0.8334,-1.9095,-3.3336,-1.1654e-11,-0.95475,0,0,0.125,-0,-0,0.66667
0.19031,0.11985,1.5225,-0.57023,-46.757,336.16,2.3151,-0.77171,-0.84447,3.0868,2.9722e-10,-0.42224,0,0,0.125,-4.4409e-16,0,0.66667
0.98048,0.16187,7.8438,-0.50719,-1.5127,1.3765,10.609,-3.5363,-1.0851,14.145,1.3752e-06,-0.54253,0,0,0.125,2.3685e-15,0,0.66667
0.25094,0.1722,2.0075,-0.4917,-39.153,296.1,2.6323,-0.87742,-1.1421,3.5097,-1.3847e-11,-0.57105,0,0,0.125,-0,-0,0.66667
0.091928,0.4598,0.73542,-0.060295,-5.0667,402.82,0.11825,-0.039415,-1.9881,0.15766,3.4908e-08,-0.99407,0,0,0.125,-0,-0,0.66667
0.6622,0.95684,5.2976,0.68526,32.767,74.059,-9.6807,3.2269,-0.32845,-12.908,-9.5302e-13,-0.16422,0,0,0.125,-0,-0,0.66667
0.12414,0.13506,0.99309,-0.54741,-45.843,380.86,1.4497,-0.48322,-0.93658,1.9329,8.5677e-09,-0.46829,0,0,0.125,-0,1.446e-16,0.66667
0.45854,0.48308,3.6684,-0.025377,-1.6954,170.16,0.24825,-0.082749,-1.9959,0.331,-1.5987e-13,-0.99795,0,0,0.125,5.9212e-16,0,0.66667
0.55491,0.83972,4.4393,0.50959,29.935,120.73,-6.0325,2.0108,-1.0753,-8.0434,4.8983e-13,-0.53767,0,0,0.125,-0,-0,0.66667
0.91222,0.64111,7.2977,0.21167,2.9182,6.2466,-4.1191,1.373,-1.8387,-5.4922,1.4335e-08,-0.91934,0,0,0.125,1.1842e-15,0,0.66667
0.84078,0.79813,6.7262,0.44719,11.016,18.79,-8.0211,2.6737,-1.2887,-10.695,1.5123e-09,-0.64434,0,0,0.125,-0,-0,0.66667
0.47647,0.52464,3.8118,0.036956,2.4161,160.39,-0.37564,0.12521,-1.9934,-0.50086,-6.2489e-13,-0.9967,0,0,0.125,-0,-0,0.66667
0.8806,0.82029,7.0448,0.48043,9.0404,11.421,-9.0255,3.0085,-1.1779,-12.034,6.9404e-09,-0.58893,0,0,0.125,-0,-0,0.66667
0.81353,0.16821,6.5082,-0.49769,-14.199,25.091,8.6376,-2.8792,-1.121,11.517,-9.1133e-11,-0.56051,0,0,0.125,-0,-0,0.66667
0.19464,0.39622,1.5571,-0.15566,-12.693,333.06,0.64636,-0.21545,-1.9118,0.86182,1.9496e-10,-0.9559,0,0,0.125,-2.9606e-16,0,0.66667
0.67245,0.58822,5.3796,0.13233,6.1113,69,-1.8984,0.6328,-1.9406,-2.5312,-3.1131e-12,-0.97031,0,0,0.125,-0,-0,0.66667
0.71923,0.41989,5.7538,-0.12017,-4.8817,51.999,1.8438,-0.61461,-1.951,2.4584,5.2143e-12,-0.97548,0,0,0.125,1.1842e-15,0,0.66667
0.65257,0.12506,5.2206,-0.56241,-27.411,77.53,7.8297,-2.6099,-0.8762,10.44,-1.6609e-13,-0.4381,0,0,0.125,-0,-0,0.66667
0.40566,0.80602,3.2453,0.45903,32.557,200.41,-3.9724,1.3241,-1.2536,-5.2966,1.0374e-12,-0.62678,0,0,0.125,-0,-0,0.66667
0.04361,0.98809,0.34888,0.73213,62.336,436.28,-0.68114,0.22705,-0.093744,-0.90819,-3.5293e-06,-0.046872,0,0,0.125,2.237e-17,0,0.66667
0.37899,0.23112,3.0319,-0.40332,-29.306,216.03,3.2609,-1.087,-1.4206,4.3479,-8.9928e-13,-0.71032,0,0,0.125,5.9212e-16,0,0.66667
0.033161,0.86161,0.26529,0.54241,46.084,443.47,-0.38372,0.12791,-0.95463,-0.51163,4.3761e-07,-0.47732,0,0,0.125,-3.7007e-17,0,0.66667
0.2442,0.48693,1.9536,-0.019599,-1.5613,300.28,0.10211,-0.034035,-1.9967,0.13614,-7.4261e-12,-0.99836,0,0,0.125,-0,-0,0.66667
0.84278,0.47684,6.7423,-0.034735,-0.83853,17.775,0.62452,-0.20817,-1.9978,0.83269,-8.99e-10,-0.9989,0,0,0.125,-0,-0,0.66667
0.47471,0.64723,3.7977,0.22085,14.481,161.42,-2.2366,0.74552,-1.8249,-2.9821,-1.2361e-12,-0.91244,0,0,0.125,5.9212e-16,0,0.66667
0.19554,0.60545,1.5643,0.15817,12.893,332.46,-0.65981,0.21994,-1.9089,-0.87974,-1.9575e-10,-0.95443,0,0,0.125,-2.9606e-16,0,0.66667
0.93344,0.088897,7.4675,-0.61665,-6.6554,4.9738,12.28,-4.0932,-0.64766,16.373,-5.727e-08,-0.32383,0,0,0.125,-0,-0,0.66667
0.17584,0.69495,1.4068,0.29243,24.038,345.7,-1.097,0.36567,-1.6954,-1.4627,-9.2765e-10,-0.84768,0,0,0.125,-0,-0,0.66667
0.71019,0.86153,5.6815,0.54229,22.785,55.825,-8.2161,2.7387,-0.95216,-10.955,-6.3256e-12,-0.47608,0,0,0.125,-0,-0,0.66667
0.25216,0.30615,2.0173,-0.29077,-23.091,295.17,1.5642,-0.52139,-1.7004,2.0855,-1.5403e-11,-0.85021,0,0,0.125,1.4803e-16,0,0.66667
0.12576,0.67788,1.006,0.26683,22.273,379.65,-0.71584,0.23861,-1.7491,-0.95445,-8.507e-09,-0.87453,0,0,0.125,-1.4803e-16,0,0.66667
0.42352,0.61043,3.3882,0.16565,11.508,189.85,-1.4967,0.49889,-1.9034,-1.9956,3.3051e-13,-0.95169,0,0,0.125,-5.9212e-16,0,0.66667
0.30687,0.21702,2.455,-0.42447,-32.642,260.25,2.7788,-0.92628,-1.3588,3.7051,-3.7212e-12,-0.67942,0,0,0.125,-8.1416e-16,0,0.66667
0.55624,0.17689,4.4499,-0.48466,-28.397,120.04,5.7512,-1.9171,-1.1629,7.6682,3.3529e-13,-0.58144,0,0,0.125,-5.9212e-16,0,0.66667
0.0056956,0.16886,0.045565,-0.49671,-42.222,462.5,0.060353,-0.020117,-1.1209,0.080471,1.3165e-06,-0.56045,0,0,0.125,-9.2519e-18,0,0.66667
0.40187,0.72846,3.215,0.34268,24.362,202.48,-2.9379,0.97932,-1.5814,-3.9173,8.0669e-13,-0.7907,0,0,0.125,-0,-0,0.66667
0.32437,0.085679,2.595,-0.62148,-47.339,249.54,4.3006,-1.4335,-0.62621,5.7342,-1.2421e-12,-0.3131,0,0,0.125,-0,-0,0.66667
0.20888,0.59186,1.671,0.13778,11.167,323.57,-0.61397,0.20466,-1.9319,-0.81863,-1.189e-10,-0.96594,0,0,0.125,-1.1102e-16,0,0.66667
0.7647,0.14669,6.1176,-0.52996,-18.624,38.263,8.6456,-2.8819,-1.0034,11.527,-8.7512e-12,-0.50169,0,0,0.125,5.9212e-16,-1.9704e-16,0.66667
0.21573,0.59044,1.7258,0.13565,10.961,319.03,-0.62431,0.2081,-1.9353,-0.83241,-1.0038e-10,-0.96764,0,0,0.125,4.4409e-16,0,0.66667
0.36723,0.19459,2.9378,-0.45811,-33.653,223.13,3.589,-1.1963,-1.252,4.7853,7.5007e-13,-0.626,0,0,0.125,-0,-0,0.66667
0.061462,0.39229,0.49169,-0.16157,-13.645,423.85,0.21185,-0.070616,-1.9088,0.28247,-4.151e-09,-0.95441,0,0,0.125,-0,-0,0.66667
0.79907,0.030563,6.3926,-0.70416,-21.672,29.4,12.004,-4.0012,-0.23897,16.005,5.2131e-10,-0.11949,0,0,0.125,-1.3323e-15,0,0.66667
0.85776,0.92974,6.8621,0.64461,14.437,16.036,-11.796,3.9319,-0.52399,-15.728,-1.1877e-08,-0.26199,0,0,0.125,-1.1842e-15,0,0.66667
0.979,0.76823,7.832,0.40235,1.2595,1.1003,-8.4031,2.801,-1.4227,-11.204,-5.3893e-07,-0.71134,0,0,0.125,-1.1842e-15,0,0.66667
0.95064,0.52667,7.6051,0.040011,0.30545,2.2005,-0.81143,0.27048,-1.9953,-1.0819,-1.0259e-07,-0.99764,0,0,0.125,-0,-0,0.66667
0.48709,0.67411,3.8967,0.26117,16.865,154.82,-2.7139,0.90462,-1.7574,-3.6185,-1.8452e-13,-0.87871,0,0,0.125,-0,-0,0.66667
0.29631,0.18938,2.3705,-0.46594,-36.102,266.95,2.9454,-0.98178,-1.2316,3.9271,-7.127e-12,-0.6158,0,0,0.125,-1.1842e-15,0,0.66667
0.69417,0.60314,5.5533,0.15471,6.754,60.869,-2.2911,0.7637,-1.913,-3.0548,-4.6481e-12,-0.95649,0,0,0.125,-0,-0,0.66667
0.72461,0.63265,5.7968,0.19898,7.9565,50.245,-3.0759,1.0253,-1.8577,-4.1012,-1.0916e-11,-0.92884,0,0,0.125,-2.3685e-15,0,0.66667
0.86836,0.68137,6.9468,0.27205,5.5721,13.032,-5.0397,1.6799,-1.7353,-6.7196,6.9191e-09,-0.86765,0,0,0.125,-5.9212e-16,0,0.66667
0.20632,0.21398,1.6506,-0.42903,-34.884,325.39,1.8884,-0.62946,-1.3459,2.5179,1.0238e-10,-0.67294,0,0,0.125,1.4803e-16,0,0.66667
0.39895,0.35357,3.1916,-0.21965,-15.643,204.09,1.8695,-0.62315,-1.8264,2.4926,-2.2238e-13,-0.9132,0,0,0.125,-1.1842e-15,0,0.66667
0.78884,0.11693,6.3107,-0.5746,-18.382,31.615,9.6697,-3.2232,-0.82418,12.893,-1.4723e-10,-0.41209,0,0,0.125,5.9212e-16,0,0.66667
0.22269,0.9841,1.7815,0.72615,58.865,314.83,-3.4497,1.1499,-0.12417,-4.5996,-1.6344e-11,-0.062085,0,0,0.125,-0,-0,0.66667
0.48218,0.71631,3.8574,0.32446,21.096,157.5,-3.3376,1.1125,-1.6273,-4.4501,-2.8155e-13,-0.81365,0,0,0.125,1.4275e-16,0,0.66667
0.78097,0.98027,6.2477,0.7204,23.948,34.284,-12.002,4.0008,-0.15739,-16.003,1.3292e-10,-0.078694,0,0,0.125,-1.1842e-15,0,0.66667
0.60466,0.8741,4.8373,0.56114,30.233,97.794,-7.2384,2.4128,-0.88045,-9.6512,-6.346e-13,-0.44023,0,0,0.125,-3.2532e-16,0,0.66667
0.19904,0.019905,1.5923,-0.72014,-58.985,330.47,3.0579,-1.0193,-0.15508,4.0772,-3.6235e-10,-0.07754,0,0,0.125,-0,-0,0.66667
0.49234,0.79671,3.9387,0.44506,28.604,152.26,-4.6746,1.5582,-1.2934,-6.2328,2.1139e-13,-0.64671,0,0,0.125,-5.9212e-16,0,0.66667
0.98027,0.33228,7.8422,-0.25158,-0.70832,0.70806,5.2611,-1.7537,-1.774,7.0148,6.7578e-08,-0.88698,0,0,0.125,-0,-0,0.66667
0.19192,0.006661,1.5353,-0.74001,-60.81,335.24,3.0298,-1.0099,-0.052174,4.0397,-4.9092e-11,-0.026087,0,0,0.125,-0,-0,0.66667
0.24271,0.98931,1.9417,0.73397,58.924,301.72,-3.8003,1.2668,-0.082478,-5.0671,-2.9255e-11,-0.041239,0,0,0.125,2.9606e-16,0,0.66667
0.41545,0.075015,3.3236,-0.63748,-44.906,195.04,5.65,-1.8833,-0.55303,7.5333,-1.5716e-12,-0.27652,0,0,0.125,-0,-0,0.66667
0.79504,0.88159,6.3603,0.57238,17.83,29.967,-9.7081,3.236,-0.83644,-12.944,-1.5961e-10,-0.41822,0,0,0.125,-2.3685e-15,0,0.66667
0.85992,0.20208,6.8794,-0.44688,-9.7669,14.968,8.198,-2.7327,-1.2922,10.931,-3.7416e-09,-0.64608,0,0,0.125,-1.1842e-15,0,0.66667
0.76878,0.93642,6.1503,0.65463,22.755,37.475,-10.736,3.5788,-0.47731,-14.315,-4.0742e-11,-0.23865,0,0,0.125,4.4409e-16,0,0.66667
0.42266,0.42529,3.3813,-0.11206,-7.7906,190.32,1.0105,-0.33682,-1.9573,1.3473,-2.6723e-13,-0.97867,0,0,0.125,-0,-0,0.66667
0.26259,0.41026,2.1007,-0.1346,-10.618,288.34,0.75405,-0.25135,-1.9362,1.0054,-1.4587e-11,-0.96808,0,0,0.125,-0,-0,0.66667
0.59111,0.54918,4.7289,0.073766,4.0526,103.23,-0.93021,0.31007,-1.9807,-1.2403,-1.431e-12,-0.99033,0,0,0.125,1.1842e-15,0,0.66667
0.55633,0.69535,4.4506,0.29302,17.121,119.7,-3.4776,1.1592,-1.6931,-4.6368,2.2315e-13,-0.84653,0,0,0.125,-0,-0,0.66667
0.32302,0.30077,2.5842,-0.29885,-22.694,250.04,2.0594,-0.68647,-1.6809,2.7459,1.0782e-12,-0.84043,0,0,0.125,-3.8253e-16,0,0.66667
0.2448,0.59919,1.9584,0.14879,11.852,299.91,-0.77704,0.25901,-1.9203,-1.036,-5.7676e-12,-0.96015,0,0,0.125,-0,-0,0.66667
0.62917,0.66007,5.0334,0.2401,12.252,86.604,-3.2227,1.0742,-1.7948,-4.297,-2.2733e-12,-0.89741,0,0,0.125,-0,-0,0.66667
0.36144,0.13262,2.8915,-0.55107,-40.733,226.74,4.2491,-1.4164,-0.92122,5.6655,-1.4513e-12,-0.46061,0,0,0.125,-0,-0,0.66667
0.44656,0.0040602,3.5725,-0.74391,-50.814,177.67,7.087,-2.3623,-0.031113,9.4493,-3.2765e-12,-0.015557,0,0,0.125,-0,-0,0.66667
0.42369,0.47054,3.3895,-0.044197,-3.0688,189.71,0.39948,-0.13316,-1.9952,0.53265,-8.1996e-13,-0.99758,0,0,0.125,-0,-0,0.66667
0.60498,0.78444,4.8399,0.42666,22.915,97.365,-5.5067,1.8356,-1.3525,-7.3422,-8.9351e-13,-0.67626,0,0,0.125,-0,-0,0.66667
0.067117,0.11203,0.53693,-0.58195,-49.301,420.01,0.83325,-0.27775,-0.79446,1.111,1.4848e-07,-0.39723,0,0,0.125,-0,-0,0.66667
0.46478,0.8614,3.7183,0.5421,36.115,167.22,-5.3751,1.7917,-0.9541,-7.1668,-3.2596e-13,-0.47705,0,0,0.125,-0,-0,0.66667
0.93632,0.049022,7.4905,-0.67647,-7.0444,4.9549,13.512,-4.5041,-0.37443,18.016,9.4937e-07,-0.18722,0,0,0.125,1.1842e-15,0,0.66667
0.14808,0.36654,1.1847,-0.20019,-16.6,364.43,0.63243,-0.21081,-1.8556,0.84324,2.5906e-09,-0.92779,0,0,0.125,-1.4803e-16,0,0.66667
0.88159,0.62735,7.0527,0.19102,3.5275,10.65,-3.5926,1.1975,-1.8693,-4.7901,6.3117e-09,-0.93466,0,0,0.125,-2.3685e-15,0,0.66667
0.19859,0.79705,1.5887,0.44558,36.355,330.54,-1.8878,0.62925,-1.2927,-2.517,-9.0922e-11,-0.64634,0,0,0.125,-0,-0,0.66667
0.48283,0.46615,3.8626,-0.050771,-3.293,156.98,0.52296,-0.17432,-1.9931,0.69728,2.3548e-13,-0.99653,0,0,0.125,-2.9606e-16,0,0.66667
0.49097,0.46971,3.9277,-0.045434,-2.916,152.65,0.47587,-0.15862,-1.992,0.63449,-9.4358e-13,-0.99599,0,0,0.125,1.1842e-15,0,0.66667
0.2348,0.76103,1.8784,0.39155,31.404,306.57,-1.9613,0.65377,-1.4574,-2.6151,5.122e-12,-0.72869,0,0,0.125,-0,-0,0.66667
0.59658,0.98386,4.7727,0.72579,39.864,101.85,-9.2372,3.0791,-0.12683,-12.316,-1.7177e-12,-0.063417,0,0,0.125,1.1842e-15,0,0.66667
0.83706,0.94017,6.6965,0.66025,16.778,20.284,-11.79,3.9301,-0.44901,-15.72,-5.9657e-09,-0.22451,0,0,0.125,-0,-0,0.66667
0.24277,0.73399,1.9422,0.35099,28.026,301.32,-1.8178,0.60594,-1.5597,-2.4237,6.4257e-12,-0.77985,0,0,0.125,2.9606e-16,0,0.66667
0.50573,0.24703,4.0458,-0.37945,-23.934,145.16,4.0938,-1.3646,-1.4872,5.4584,4.3254e-13,-0.74362,0,0,0.125,7.4015e-16,0,0.66667
0.46839,0.64587,3.7472,0.21881,14.458,164.84,-2.1864,0.7288,-1.8324,-2.9152,-4.1278e-13,-0.9162,0,0,0.125,-0,-0,0.66667
0.8049,0.69937,6.4392,0.29906,8.8395,26.762,-5.1352,1.7117,-1.6798,-6.8469,3.2287e-10,-0.8399,0,0,0.125,-1.1842e-15,0,0.66667
0.48547,0.79099,3.8837,0.43648,28.3,155.9,-4.5205,1.5068,-1.3244,-6.0273,1.4921e-13,-0.6622,0,0,0.125,-0,-0,0.66667
0.047994,0.56902,0.38395,0.10353,8.755,433.16,-0.106,0.035334,-1.964,-0.14134,-3.1505e-08,-0.98199,0,0,0.125,-0,-0,0.66667
0.29891,0.054888,2.3913,-0.66767,-51.803,265.55,4.2575,-1.4192,-0.416,5.6767,1.2976e-12,-0.208,0,0,0.125,-0,-0,0.66667
0.72163,0.78061,5.7731,0.42092,17.046,51.599,-6.48,2.16,-1.3714,-8.64,-1.5787e-11,-0.6857,0,0,0.125,2.2204e-16,0,0.66667
0.54076,0.55602,4.3261,0.084023,5.0249,127.15,-0.96931,0.3231,-1.9734,-1.2924,-5.8309e-13,-0.98671,0,0,0.125,8.8818e-16,0,0.66667
0.71301,0.79379,5.7041,0.44069,18.319,54.592,-6.7033,2.2344,-1.3076,-8.9378,-9.6896e-12,-0.6538,0,0,0.125,-0,-0,0.66667
0.89043,0.44086,7.1234,-0.088714,-1.5171,9.1639,1.6852,-0.56173,-1.9757,2.2469,-1.4604e-08,-0.98786,0,0,0.125,-2.3685e-15,0,0.66667
0.036948,0.26201,0.29558,-0.35698,-30.26,440.83,0.28138,-0.093794,-1.5451,0.37517,-1.5768e-07,-0.77253,0,0,0.125,-0,-0,0.66667
0.16157,0.6831,1.2926,0.27465,22.687,355.31,-0.94671,0.31557,-1.7309,-1.2623,-1.9103e-09,-0.86545,0,0,0.125,1.4803e-16,0,0.66667
0.20618,0.93382,1.6495,0.65073,53.074,325.66,-2.8623,0.95409,-0.49504,-3.8163,9.4406e-11,-0.24752,0,0,0.125,-4.4409e-16,0,0.66667
0.54819,0.36489,4.3855,-0.20266,-11.987,123.57,2.3701,-0.79003,-1.8555,3.1601,4.4253e-13,-0.92774,0,0,0.125,-5.9212e-16,0,0.66667
0.6875,0.13204,5.5,-0.55194,-24.69,64.009,8.0951,-2.6984,-0.92024,10.794,-4.805e-13,-0.46012,0,0,0.125,2.3685e-15,0,0.66667
0.34233,0.21535,2.7387,-0.42697,-31.997,238.22,3.1182,-1.0394,-1.354,4.1576,-3.5498e-12,-0.67702,0,0,0.125,5.9212e-16,0,0.66667
0.8698,0.73147,6.9584,0.3472,7.0535,12.918,-6.4425,2.1475,-1.5697,-8.5901,7.4621e-09,-0.78486,0,0,0.125,-0,-0,0.66667
0.8792,0.14304,7.0336,-0.53544,-10.219,11.826,10.043,-3.3476,-0.9795,13.39,-4.6526e-09,-0.48975,0,0,0.125,-0,-0,0.66667
0.19012,0.73826,1.521,0.35738,29.233,336.15,-1.4495,0.48317,-1.546,-1.9327,-3.8783e-10,-0.77299,0,0,0.125,-0,-0,0.66667
0.53183,0.077815,4.2546,-0.63328,-38.649,132.34,7.1849,-2.395,-0.57624,9.5799,2.2009e-12,-0.28812,0,0,0.125,-0,-0,0.66667
0.98953,0.23623,7.9163,-0.39565,-0.53656,0.74391,8.3522,-2.7841,-1.4417,11.136,-2.4942e-07,-0.72086,0,0,0.125,1.2396e-17,0,0.66667
0.057573,0.18054,0.46058,-0.4792,-40.591,426.58,0.58856,-0.19619,-1.1825,0.78474,5.7578e-08,-0.59123,0,0,0.125,-1.1102e-16,0,0.66667
0.083431,0.12343,0.66745,-0.56485,-47.722,408.77,1.0054,-0.33512,-0.86519,1.3405,4.2691e-08,-0.43259,0,0,0.125,-7.4015e-17,0,0.66667
0.41763,0.37178,3.341,-0.19233,-13.445,193.24,1.7135,-0.57118,-1.8683,2.2847,-1.1416e-12,-0.93417,0,0,0.125,-5.9212e-16,0,0.66667
0.85461,0.86451,6.8369,0.54677,12.431,16.287,-9.9685,3.3228,-0.93573,-13.291,3.5323e-09,-0.46786,0,0,0.125,1.1842e-15,0,0.66667
0.39859,0.87339,3.1887,0.56008,40.056,204.68,-4.7625,1.5875,-0.88372,-6.35,-2.6779e-13,-0.44186,0,0,0.125,8.1416e-16,0,0.66667
0.0099489,0.23513,0.079591,-0.3973,-33.733,459.55,0.084325,-0.028108,-1.4368,0.11243,2.9104e-07,-0.71842,0,0,0.125,-1.1782e-17,0,0.66667
0.64554,0.83317,5.1643,0.49976,24.712,80.227,-6.8825,2.2942,-1.1106,-9.1766,-1.6604e-12,-0.55528,0,0,0.125,-0,-0,0.66667
0.2938,0.61627,2.3504,0.1744,13.501,268.35,-1.0931,0.36437,-1.8918,-1.4575,5.0755e-12,-0.9459,0,0,0.125,-0,-0,0.66667
0.14993,0.39599,1.1994,-0.15601,-12.926,363.17,0.49899,-0.16633,-1.9115,0.66533,2.9661e-09,-0.95577,0,0,0.125,-1.4803e-16,0,0.66667
0.10779,0.76584,0.86228,0.39876,33.465,391.99,-0.91691,0.30564,-1.4356,-1.2225,-1.9545e-08,-0.71782,0,0,0.125,-0,-0,0.66667
0.8689,0.90366,6.9512,0.60549,12.537,13.839,-11.224,3.7412,-0.69559,-14.965,2.0226e-08,-0.3478,0,0,0.125,-1.2231e-15,0,0.66667
0.0032652,0.16902,0.026122,-0.49647,-42.202,464.18,0.034583,-0.011527,-1.1231,0.046111,1.3818e-06,-0.56157,0,0,0.125,-4.6259e-18,0,0.66667
0.51859,0.51887,4.1487,0.028305,1.7493,138.28,-0.31314,0.10438,-1.9969,-0.41752,6.6558e-13,-0.99846,0,0,0.125,-0,-0,0.66667
0.55082,0.56016,4.4066,0.090235,5.3119,122.22,-1.0603,0.35344,-1.9713,-1.4138,-2.7445e-13,-0.98563,0,0,0.125,-2.9606e-16,0,0.66667
0.11595,0.8304,0.9276,0.4956,41.56,386.43,-1.2259,0.40864,-1.1245,-1.6346,-3.4125e-09,-0.56227,0,0,0.125,1.4803e-16,0,0.66667
0.20004,0.71909,1.6003,0.32864,26.767,329.51,-1.4025,0.46749,-1.6172,-1.87,-2.3054e-10,-0.80862,0,0,0.125,-0,-0,0.66667
0.86222,0.77056,6.8978,0.40584,8.718,14.43,-7.465,2.4883,-1.4144,-9.9533,5.4796e-09,-0.70718,0,0,0.125,1.1842e-15,0,0.66667
0.11697,0.99245,0.93578,0.73867,62.158,385.86,-1.8433,0.61443,-0.05812,-2.4577,7.0507e-09,-0.02906,0,0,0.125,-4.4409e-16,0,0.66667
0.8247,0.20683,6.5976,-0.43975,-11.835,22.306,7.7368,-2.5789,-1.3119,10.316,-7.5225e-10,-0.65593,0,0,0.125,-0,-0,0.66667
0.19309,0.65675,1.5447,0.23513,19.192,334.12,-0.96854,0.32285,-1.8031,-1.2914,-3.279e-10,-0.90157,0,0,0.125,-5.9212e-16,0,0.66667
0.99555,0.84449,7.9644,0.51673,0.23357,1.0092,-10.974,3.6582,-1.0508,-14.633,1.4899e-06,-0.52542,0,0,0.125,-0,1.3638e-17,0.66667
0.47141,0.5506,3.7713,0.075894,4.9932,163.13,-0.76325,0.25442,-1.9796,-1.0177,-9.0161e-13,-0.98979,0,0,0.125,-0,-0,0.66667
0.54727,0.051508,4.3782,-0.67274,-40.137,124.82,7.8543,-2.6181,-0.39338,10.472,-7.2831e-13,-0.19669,0,0,0.125,-5.9212e-16,0,0.66667
0.082274,0.82521,0.65819,0.48782,41.181,409.54,-0.85621,0.2854,-1.1528,-1.1416,-2.9273e-08,-0.57639,0,0,0.125,1.4803e-16,0,0.66667
0.051293,0.18006,0.41035,-0.47992,-40.68,430.92,0.52515,-0.17505,-1.1802,0.7002,7.3131e-08,-0.59012,0,0,0.125,7.4015e-17,0,0.66667
0.20742,0.92561,1.6594,0.63842,52.032,324.82,-2.825,0.94168,-0.54968,-3.7667,-2.0363e-11,-0.27484,0,0,0.125,-0,-0,0.66667
0.16079,0.48158,1.2863,-0.027637,-2.2813,355.8,0.094801,-0.0316,-1.9959,0.1264,4.0599e-10,-0.99797,0,0,0.125,-0,-0,0.66667
0.45106,0.29321,3.6085,-0.31018,-20.933,174.44,2.9847,-0.99492,-1.6585,3.9797,2.6468e-13,-0.82927,0,0,0.125,-0,-0,0.66667
0.62995,0.83047,5.0396,0.49571,25.351,86.696,-6.6617,2.2206,-1.1247,-8.8823,-2.0677e-12,-0.56237,0,0,0.125,1.1842e-15,0,0.66667
0.72633,0.68441,5.8106,0.27661,11.012,49.764,-4.2861,1.4287,-1.7267,-5.7148,-1.3317e-11,-0.86337,0,0,0.125,-0,-0,0.66667
0.45605,0.7094,3.6484,0.3141,21.078,171.69,-3.0559,1.0186,-1.6492,-4.0745,-3.8125e-13,-0.82461,0,0,0.125,5.9212e-16,0,0.66667
0.37693,0.88298,3.0154,0.57448,41.919,217.48,-4.6195,1.5398,-0.82764,-6.1593,-1.5721e-13,-0.41382,0,0,0.125,-0,-0,0.66667
0.064415,0.017369,0.51532,-0.72395,-61.492,421.92,0.99483,-0.33161,-0.13723,1.3264,-1.1367e-06,-0.068613,0,0,0.125,-1.4803e-16,0,0.66667
0.53834,0.38627,4.3067,-0.17059,-10.244,128.4,1.9592,-0.65305,-1.8944,2.6122,5.2403e-14,-0.9472,0,0,0.125,-0,-0,0.66667
0.45104,0.69432,3.6083,0.29148,19.669,174.44,-2.8047,0.93489,-1.6989,-3.7395,-6.0973e-13,-0.84947,0,0,0.125,-0,-0,0.66667
0.40236,0.24368,3.2189,-0.38448,-27.332,202.24,3.3003,-1.1001,-1.474,4.4003,-1.2896e-12,-0.737,0,0,0.125,2.3824e-16,0,0.66667
0.073837,0.21207,0.5907,-0.43189,-36.486,415.34,0.68032,-0.22677,-1.3361,0.90709,8.0915e-08,-0.66804,0,0,0.125,-7.4015e-17,0,0.66667
0.19382,0.35916,1.5505,-0.21126,-17.237,333.62,0.87352,-0.29117,-1.8392,1.1647,3.3501e-10,-0.9196,0,0,0.125,-0,-0,0.66667
0.60843,0.69692,4.8675,0.29538,15.73,95.635,-3.8341,1.278,-1.6918,-5.1121,-2.1856e-12,-0.84588,0,0,0.125,1.1842e-15,0,0.66667
0.91508,0.77214,7.3207,0.40821,5.4971,6.2877,-7.969,2.6563,-1.4056,-10.625,3.1423e-08,-0.7028,0,0,0.125,-1.1842e-15,0,0.66667
0.63152,0.47343,5.0522,-0.039862,-2.0218,85.486,0.53704,-0.17901,-1.993,0.71605,-7.7233e-13,-0.99651,0,0,0.125,-0,-0,0.66667
0.57768,0.17616,4.6214,-0.48577,-27.455,109.89,5.9865,-1.9955,-1.1635,7.9819,-3.4328e-13,-0.58173,0,0,0.125,5.9212e-16,-1.9505e-17,0.66667
0.34238,0.69081,2.739,0.28622,21.418,238.07,-2.0906,0.69686,-1.711,-2.7874,3.644e-12,-0.85551,0,0,0.125,-1.1842e-15,0,0.66667
0.13547,0.12426,1.0838,-0.56361,-47.069,373.15,1.6289,-0.54296,-0.87041,2.1718,-6.7965e-09,-0.43521,0,0,0.125,3.7007e-17,0,0.66667
0.50839,0.27324,4.0671,-0.34014,-21.366,143.73,3.689,-1.2297,-1.5868,4.9187,-3.0442e-13,-0.79338,0,0,0.125,-0,-0,0.66667
0.64626,0.39138,5.1701,-0.16293,-8.0059,79.419,2.2463,-0.74876,-1.9037,2.995,-4.6296e-13,-0.95186,0,0,0.125,1.1842e-15,0,0.66667
0.96752,0.81559,7.7401,0.47339,2.4157,1.8516,-9.7709,3.257,-1.2057,-13.028,-4.289e-07,-0.60285,0,0,0.125,-0,-0,0.66667
0.76195,0.85486,6.0956,0.53229,18.897,39.08,-8.6524,2.8841,-0.99189,-11.537,-2.9452e-12,-0.49595,0,0,0.125,-0,-0,0.66667
0.183,0.64412,1.464,0.21618,17.714,340.87,-0.84396,0.28132,-1.8326,-1.1253,-5.7621e-10,-0.91628,0,0,0.125,-0,-0,0.66667
0.23966,0.22336,1.9173,-0.41496,-33.208,303.4,2.1216,-0.70719,-1.3869,2.8288,-1.9328e-11,-0.69343,0,0,0.125,-0,-0,0.66667
0.95701,0.3396,7.656,-0.2406,-1.6016,1.9281,4.9121,-1.6374,-1.7941,6.5494,9.8321e-08,-0.89706,0,0,0.125,-1.7764e-15,0,0.66667
0.758,0.23111,6.064,-0.40333,-14.475,39.936,6.5222,-2.1741,-1.4194,8.6963,2.1415e-11,-0.70968,0,0,0.125,-0,-0,0.66667
0.19292,0.84703,1.5434,0.52055,42.61,334.38,-2.1424,0.71413,-1.0358,-2.8565,-2.5373e-10,-0.5179,0,0,0.125,-0,-0,0.66667
0.70195,0.38441,5.6156,-0.17338,-7.4094,58.071,2.5964,-0.86547,-1.8948,3.4619,5.0089e-12,-0.94742,0,0,0.125,-0,-0,0.66667
0.83347,0.60193,6.6678,0.15289,3.8979,19.836,-2.7185,0.90616,-1.9155,-3.6246,7.159e-10,-0.95775,0,0,0.125,-0,-0,0.66667
0.43625,0.13515,3.49,-0.54728,-37.664,183.04,5.0933,-1.6978,-0.93665,6.7911,-8.8862e-13,-0.46832,0,0,0.125,-0,-0,0.66667
0.0094767,0.45364,0.075814,-0.069545,-5.8937,459.87,0.01406,-0.0046872,-1.9807,0.018746,-8.5304e-07,-0.99037,0,0,0.125,-1.8504e-17,0,0.66667
0.66811,0.47907,5.3449,-0.031388,-1.4646,70.641,0.44738,-0.14913,-1.9958,0.5965,4.9397e-13,-0.99789,0,0,0.125,-0,-0,0.66667
0.069735,0.47072,0.55788,-0.043927,-3.7047,418.13,0.06535,-0.021783,-1.9922,0.087133,-9.0518e-08,-0.99608,0,0,0.125,-0,-0,0.66667
0.2378,0.35642,1.9024,-0.21538,-17.224,304.51,1.0926,-0.36421,-1.8345,1.4568,-2.264e-12,-0.91723,0,0,0.125,-0,-0,0.66667
0.097031,0.025205,0.77625,-0.71219,-60.161,399.49,1.4742,-0.49141,-0.19665,1.9656,-1.3591e-07,-0.098324,0,0,0.125,1.4803e-16,0,0.66667
0.87047,0.11661,6.9637,-0.57508,-11.752,13.451,10.679,-3.5598,-0.82308,14.239,-6.0213e-09,-0.41154,0,0,0.125,-5.9212e-16,0,0.66667
0.83404,0.4647,6.6723,-0.05295,-1.3446,19.652,0.94213,-0.31404,-1.989,1.2562,3.3066e-10,-0.99449,0,0,0.125,1.9779e-16,0,0.66667
0.23516,0.93252,1.8813,0.64878,52.206,306.55,-3.2548,1.0849,-0.5061,-4.3397,-3.8014e-12,-0.25305,0,0,0.125,-0,-0,0.66667
0.75438,0.78506,6.0351,0.4276,15.555,41.086,-6.8815,2.2938,-1.3496,-9.1754,-2.802e-11,-0.67479,0,0,0.125,-0,-0,0.66667
0.50836,0.37029,4.0669,-0.19457,-12.206,143.6,2.1101,-0.70337,-1.864,2.8135,1.6216e-12,-0.93198,0,0,0.125,-0,-0,0.66667
0.42116,0.14188,3.3692,-0.53718,-37.556,191.59,4.8263,-1.6088,-0.97602,6.4351,-3.9302e-13,-0.48801,0,0,0.125,-0,-1.9028e-16,0.66667
0.21872,0.14525,1.7498,-0.53212,-43.081,317.25,2.4829,-0.82763,-0.99625,3.3105,-2.4208e-11,-0.49812,0,0,0.125,-2.9606e-16,1.9722e-16,0.66667
0.22166,0.93891,1.7733,0.65837,53.333,315.43,-3.1132,1.0377,-0.45999,-4.151,-4.0438e-11,-0.22999,0,0,0.125,5.9212e-16,0,0.66667
0.090802,0.76097,0.72642,0.39146,32.963,403.65,-0.7583,0.25277,-1.455,-1.0111,-2.7291e-08,-0.72751,0,0,0.125,1.4803e-16,0,0.66667
0.24882,0.026728,1.9905,-0.70991,-56.785,297.72,3.7683,-1.2561,-0.21041,5.0244,2.7799e-11,-0.10521,0,0,0.125,-2.9606e-16,7.329e-17,0.66667
0.58965,0.62878,4.7172,0.19316,10.647,103.96,-2.4298,0.80995,-1.8672,-3.2398,3.5527e-13,-0.93359,0,0,0.125,-0,-0,0.66667
0.88221,0.63154,7.0577,0.19731,3.6256,10.556,-3.7135,1.2378,-1.8599,-4.9514,7.2226e-09,-0.92994,0,0,0.125,-2.3685e-15,0,0.66667
0.15505,0.93265,1.2404,0.64898,53.953,359.92,-2.1466,0.71554,-0.50474,-2.8621,-1.7184e-08,-0.25237,0,0,0.125,3.1385e-16,0,0.66667
0.26188,0.66923,2.095,0.25385,20.045,288.85,-1.4182,0.47273,-1.77,-1.8909,1.3774e-11,-0.88502,0,0,0.125,-0,-0,0.66667
0.63358,0.49126,5.0686,-0.01311,-0.662,84.616,0.1772,-0.059067,-1.9975,0.23627,6.8504e-13,-0.99873,0,0,0.125,-0,-0,0.66667
0.1012,0.7394,0.80957,0.35909,30.167,396.5,-0.77523,0.25841,-1.5394,-1.0336,-2.2648e-08,-0.7697,0,0,0.125,-0,-0,0.66667
0.51534,0.57134,4.1227,0.10701,6.6449,139.96,-1.1764,0.39214,-1.9621,-1.5686,1.1905e-12,-0.98107,0,0,0.125,-1.1842e-15,0,0.66667
0.44685,0.77241,3.5748,0.40861,27.738,176.9,-3.8952,1.2984,-1.4046,-5.1936,-1.4446e-12,-0.70229,0,0,0.125,-0,-0,0.66667
0.050434,0.58372,0.40348,0.12559,10.618,431.47,-0.13512,0.045041,-1.9434,-0.18016,4.8757e-08,-0.97169,0,0,0.125,7.4015e-17,0,0.66667
0.76578,0.93336,6.1262,0.65005,22.848,38.333,-10.62,3.5398,-0.50119,-14.159,5.8265e-13,-0.2506,0,0,0.125,-1.1842e-15,0,0.66667
0.095195,0.17618,0.76156,-0.48573,-40.909,400.65,0.98644,-0.32881,-1.1624,1.3152,2.6364e-08,-0.5812,0,0,0.125,-1.4803e-16,0,0.66667
0.33837,0.15823,2.707,-0.51265,-38.578,240.75,3.7006,-1.2335,-1.0651,4.9341,-5.3975e-12,-0.53253,0,0,0.125,1.1842e-15,0,0.66667
0.57897,0.89137,4.6317,0.58705,33.171,109.51,-7.2509,2.417,-0.77648,-9.6678,-4.9338e-13,-0.38824,0,0,0.125,1.1842e-15,0,0.66667
0.85085,0.17392,6.8068,-0.48912,-11.358,16.845,8.8783,-2.9594,-1.1471,11.838,-1.4043e-09,-0.57356,0,0,0.125,-0,-0,0.66667
0.26085,0.13156,2.0868,-0.55266,-43.804,289.73,3.0755,-1.0252,-0.91307,4.1007,-3.0469e-11,-0.45653,0,0,0.125,-0,-0,0.66667
0.81028,0.34521,6.4823,-0.23218,-6.6821,25.323,4.0135,-1.3378,-1.8101,5.3513,-4.4559e-10,-0.90505,0,0,0.125,2.3685e-15,0,0.66667
0.43666,0.88637,3.4933,0.57956,39.89,182.87,-5.3989,1.7996,-0.8077,-7.1985,7.6916e-13,-0.40385,0,0,0.125,-0,-0,0.66667
0.82762,0.9403,6.6209,0.66046,17.669,22.357,-11.661,3.887,-0.45246,-15.548,-4.9158e-09,-0.22623,0,0,0.125,2.3685e-15,-4.8365e-17,0.66667
0.92159,0.2574,7.3727,-0.36391,-4.5164,5.4098,7.1546,-2.3849,-1.5321,9.5395,-4.4746e-08,-0.76607,0,0,0.125,-0,-0,0.66667
0.4382,0.095884,3.5056,-0.60617,-41.671,182.05,5.6667,-1.8889,-0.6968,7.5556,-8.6597e-13,-0.3484,0,0,0.125,-1.1842e-15,0,0.66667
0.26206,0.77643,2.0965,0.41464,32.785,288.83,-2.3181,0.77269,-1.3888,-3.0907,5.0349e-12,-0.69438,0,0,0.125,2.9606e-16,0,0.66667
0.46144,0.92486,3.6915,0.63729,42.7,169.23,-6.2736,2.0912,-0.55371,-8.3648,-1.064e-12,-0.27685,0,0,0.125,5.9212e-16,0,0.66667
0.094812,0.0021036,0.7585,-0.74684,-63.154,401.03,1.5106,-0.50354,-0.019657,2.0141,4.5923e-08,-0.0098283,0,0,0.125,-0,-0,0.66667
0.65878,0.3059,5.2702,-0.29115,-13.918,74.51,4.0918,-1.3639,-1.6992,5.4557,1.5308e-12,-0.84962,0,0,0.125,-1.1842e-15,0,0.66667
0.63235,0.068554,5.0588,-0.64717,-33.046,86.075,8.7304,-2.9101,-0.50919,11.64,-7.0877e-13,-0.25459,0,0,0.125,-0,-0,0.66667
0.4968,0.75362,3.9744,0.38042,24.286,149.82,-4.0319,1.344,-1.486,-5.3758,-3.1086e-14,-0.74298,0,0,0.125,-0,-0,0.66667
0.47016,0.6291,3.7612,0.19365,12.767,163.87,-1.9424,0.64745,-1.8688,-2.5898,-8.9551e-13,-0.93439,0,0,0.125,1.1842e-15,0,0.66667
0.12851,0.39432,1.0281,-0.15852,-13.215,377.76,0.43458,-0.14486,-1.91,0.57944,5.045e-09,-0.95501,0,0,0.125,1.4803e-16,0,0.66667
0.33439,0.65505,2.6751,0.23257,17.504,242.95,-1.6591,0.55303,-1.807,-2.2121,-4.0024e-13,-0.90352,0,0,0.125,8.5117e-16,0,0.66667
0.2686,0.044112,2.1488,-0.68383,-54.077,284.89,3.9184,-1.3061,-0.33707,5.2245,5.8153e-13,-0.16854,0,0,0.125,-0,-0,0.66667
0.53581,0.33024,4.2865,-0.25463,-15.359,129.72,2.9106,-0.97021,-1.7681,3.8808,-3.697e-13,-0.88405,0,0,0.125,-0,-0,0.66667
0.41981,0.20545,3.3585,-0.44183,-30.89,192.23,3.957,-1.319,-1.3065,5.2759,-5.9508e-14,-0.65323,0,0,0.125,-0,-0,0.66667
0.83603,0.20952,6.6883,-0.43572,-11.025,19.773,7.7713,-2.5904,-1.3229,10.362,-1.2598e-09,-0.66147,0,0,0.125,5.9212e-16,0,0.66667
0.70121,0.67707,5.6097,0.26561,11.385,58.438,-3.9733,1.3244,-1.75,-5.2977,-7.6852e-12,-0.875,0,0,0.125,-5.9212e-16,0,0.66667
0.4959,0.20641,3.9672,-0.44038,-28.17,150.38,4.6589,-1.553,-1.3094,6.2118,3.5927e-13,-0.6547,0,0,0.125,-0,-0,0.66667
0.59952,0.74057,4.7962,0.36086,19.564,99.689,-4.6153,1.5384,-1.5353,-6.1538,-1.378e-12,-0.76766,0,0,0.125,-0,-0,0.66667
0.39672,0.19321,3.1737,-0.46018,-32.921,205.63,3.8946,-1.2982,-1.2457,5.1928,1.5923e-12,-0.62285,0,0,0.125,-0,-0,0.66667
0.21745,0.25738,1.7396,-0.36393,-29.424,317.98,1.6882,-0.56274,-1.5309,2.251,5.5116e-11,-0.76544,0,0,0.125,5.9212e-16,0,0.66667
0.74224,0.067516,5.9379,-0.64873,-24.765,45.492,10.272,-3.4241,-0.50214,13.696,-4.2775e-12,-0.25107,0,0,0.125,-2.3685e-15,0,0.66667
0.92264,0.03978,7.3811,-0.69033,-8.7004,6.4204,13.588,-4.5292,-0.30787,18.117,-1.6278e-06,-0.15393,0,0,0.125,-0,-0,0.66667
0.26129,0.86916,2.0903,0.55373,43.879,289.46,-3.0866,1.0289,-0.90918,-4.1154,3.6736e-11,-0.45459,0,0,0.125,-0,-0,0.66667
0.63229,0.85857,5.0583,0.53785,27.395,85.807,-7.255,2.4183,-0.96917,-9.6733,-6.8123e-13,-0.48459,0,0,0.125,-1.1842e-15,0,0.66667
0.70958,0.56351,5.6766,0.095258,3.9812,55.319,-1.442,0.48066,-1.9671,-1.9226,-2.3207e-12,-0.98354,0,0,0.125,-2.3685e-15,0,0.66667
0.73708,0.73766,5.8966,0.35649,13.732,46.367,-5.6055,1.8685,-1.5481,-7.4741,-1.8506e-11,-0.77407,0,0,0.125,1.1842e-15,0,0.66667
0.27022,0.14358,2.1618,-0.53463,-42.137,283.68,3.082,-1.0273,-0.98237,4.1093,-7.6852e-12,-0.49118,0,0,0.125,-2.9606e-16,0,0.66667
0.10234,0.55983,0.81875,0.089748,7.5267,395.66,-0.19595,0.065317,-1.9703,-0.26127,-1.9899e-08,-0.98514,0,0,0.125,-0,-0,0.66667
0.71856,0.61273,5.7484,0.16909,6.8854,52.264,-2.592,0.86401,-1.9011,-3.456,-8.0767e-12,-0.95053,0,0,0.125,-2.0352e-15,0,0.66667
0.44319,0.60296,3.5456,0.15443,10.504,178.71,-1.4601,0.48671,-1.9136,-1.9468,-5.4046e-13,-0.95678,0,0,0.125,-0,-0,0.66667
0.6827,0.5378,5.4616,0.056698,2.5503,65.063,-0.82577,0.27526,-1.9876,-1.101,-1.8019e-12,-0.99381,0,0,0.125,-0,-0,0.66667
0.058429,0.079962,0.46743,-0.63006,-53.473,426.02,0.78536,-0.26179,-0.58746,1.0471,-6.666e-07,-0.29373,0,0,0.125,7.4015e-17,2.8816e-17,0.66667
0.65428,0.65854,5.2343,0.23781,11.481,76.24,-3.3194,1.1065,-1.8008,-4.4259,-1.6558e-12,-0.90038,0,0,0.125,-2.3685e-15,0,0.66667
0.28838,0.50181,2.307,0.0027126,0.21064,271.77,-0.016688,0.0055626,-1.999,-0.02225,1.9688e-12,-0.99952,0,0,0.125,-0,-0,0.66667
0.87785,0.94264,7.0228,0.66396,12.913,12.532,-12.434,4.1447,-0.43313,-16.579,1.1584e-07,-0.21657,0,0,0.125,-0,-0,0.66667
0.1653,0.16239,1.3224,-0.50642,-41.873,352.9,1.7858,-0.59527,-1.0866,2.3811,2.0122e-09,-0.5433,0,0,0.125,-0,-0,0.66667
0.44557,0.6772,3.5646,0.2658,18.043,177.46,-2.5266,0.84219,-1.7467,-3.3688,7.7938e-14,-0.87335,0,0,0.125,-5.9212e-16,0,0.66667
0.96915,0.79812,7.7532,0.44718,2.1497,1.6815,-9.2456,3.0819,-1.2914,-12.327,-5.6228e-07,-0.64569,0,0,0.125,-1.1842e-15,0,0.66667
0.086128,0.09899,0.68902,-0.60151,-50.823,406.93,1.1052,-0.36841,-0.71198,1.4736,-9.2517e-08,-0.35599,0,0,0.125,-0,-0,0.66667
0.40046,0.55068,3.2037,0.076022,5.403,203.15,-0.64948,0.21649,-1.9776,-0.86597,-9.7766e-13,-0.9888,0,0,0.125,-0,-0,0.66667
0.28546,0.22438,2.2837,-0.41343,-32.237,273.8,2.5177,-0.83924,-1.3918,3.357,-8.6604e-12,-0.69588,0,0,0.125,-0,-0,0.66667
0.082679,0.83941,0.66143,0.50912,42.988,409.27,-0.89799,0.29933,-1.0779,-1.1973,-1.5534e-08,-0.53894,0,0,0.125,-1.8504e-16,0,0.66667
0.70977,0.10768,5.6782,-0.58848,-24.787,56.102,8.9107,-2.9702,-0.76651,11.881,4.2624e-12,-0.38325,0,0,0.125,1.1842e-15,0,0.66667
0.56244,0.5588,4.4995,0.088205,5.0951,116.61,-1.0584,0.35278,-1.9762,-1.4111,-1.4371e-12,-0.98808,0,0,0.125,-2.9606e-16,0,0.66667
0.98804,0.26266,7.9043,-0.35601,-0.56129,0.67795,7.5041,-2.5014,-1.5486,10.006,-1.3218e-07,-0.77429,0,0,0.125,-0,-0,0.66667
0.22761,0.11116,1.8209,-0.58326,-47.058,311.44,2.8321,-0.94403,-0.78825,3.7761,-1.8664e-11,-0.39412,0,0,0.125,-5.656e-16,0,0.66667
0.10466,0.077583,0.8373,-0.63363,-53.371,394.22,1.4148,-0.47159,-0.57102,1.8863,-1.2368e-07,-0.28551,0,0,0.125,-0,-0,0.66667
0.46991,0.1978,3.7593,-0.4533,-29.972,164.28,4.5442,-1.5147,-1.2711,6.0589,-3.4328e-13,-0.63553,0,0,0.125,-0,-0,0.66667
0.72526,0.37891,5.8021,-0.18163,-7.2467,50.008,2.8102,-0.93673,-1.8815,3.7469,1.1892e-11,-0.94075,0,0,0.125,-2.3685e-15,0,0.66667
0.20312,0.70621,1.6249,0.30932,25.156,327.46,-1.3403,0.44678,-1.6628,-1.7871,-1.8911e-10,-0.83139,0,0,0.125,-0,-0,0.66667
0.19345,0.1337,1.5476,-0.54945,-44.983,334.04,2.2675,-0.75585,-0.92492,3.0234,-2.957e-10,-0.46246,0,0,0.125,-0,-0,0.66667
0.01645,0.13756,0.1316,-0.54366,-46.229,455.05,0.19078,-0.063595,-0.95101,0.25438,-5.2774e-07,-0.47551,0,0,0.125,-0,-0,0.66667
0.61338,0.56042,4.907,0.090624,4.7717,93.292,-1.1859,0.39528,-1.971,-1.5811,-2.5477e-12,-0.98551,0,0,0.125,1.4803e-15,0,0.66667
0.58667,0.097704,4.6934,-0.60344,-33.646,106,7.5525,-2.5175,-0.70396,10.07,5.3291e-15,-0.35198,0,0,0.125,-0,-0,0.66667
0.46014,0.28463,3.6812,-0.32305,-21.577,169.45,3.1712,-1.0571,-1.6277,4.2283,1.3889e-12,-0.81386,0,0,0.125,-0,-0,0.66667
0.7062,0.97831,5.6496,0.71747,30.655,57.777,-10.809,3.6031,-0.16959,-14.412,-1.6236e-12,-0.084793,0,0,0.125,-0,-0,0.66667
0.059315,0.41156,0.47452,-0.13265,-11.205,425.33,0.16786,-0.055952,-1.9377,0.22381,1.0093e-08,-0.96885,0,0,0.125,-0,-0,0.66667
0.66498,0.37536,5.3198,-0.18695,-8.7965,71.944,2.6522,-0.88406,-1.8751,3.5362,2.9963e-12,-0.93756,0,0,0.125,-2.3685e-15,0,0.66667
0.18851,0.4474,1.5081,-0.078903,-6.4483,337.15,0.31732,-0.10577,-1.9797,0.42309,1.2372e-10,-0.98987,0,0,0.125,-0,-0,0.66667
0.13418,0.26542,1.0735,-0.35187,-29.325,373.93,1.0073,-0.33575,-1.5576,1.343,6.203e-09,-0.77882,0,0,0.125,-0,-0,0.66667
0.89487,0.59422,7.159,0.14133,2.3229,8.5353,-2.6981,0.89936,-1.9294,-3.5974,-1.2802e-09,-0.96468,0,0,0.125,-2.3685e-15,0,0.66667
0.68858,0.36354,5.5086,-0.20469,-9.0748,62.967,3.0069,-1.0023,-1.8527,4.0092,3.5305e-12,-0.92636,0,0,0.125,1.1842e-15,0,0.66667
0.63478,0.56155,5.0783,0.092321,4.6506,84.13,-1.2502,0.41674,-1.9692,-1.6669,-2.804e-12,-0.98461,0,0,0.125,4.4409e-16,0,0.66667
0.062431,0.3765,0.49945,-0.18525,-15.645,423.18,0.24673,-0.082244,-1.8822,0.32898,-2.6817e-08,-0.94109,0,0,0.125,1.4803e-16,0,0.66667
0.10037,0.94613,0.80296,0.66919,56.449,397.18,-1.4329,0.47763,-0.40592,-1.9105,4.7343e-08,-0.20296,0,0,0.125,-0,-0,0.66667
0.41814,0.0010114,3.3452,-0.74848,-52.701,193.72,6.6768,-2.2256,-0.0086934,8.9024,-2.1529e-12,-0.0043467,0,0,0.125,2.3685e-15,0,0.66667
0.77618,0.4522,6.2094,-0.071707,-2.3912,34.199,1.1874,-0.39579,-1.9801,1.5831,-1.349e-11,-0.99003,0,0,0.125,-0,-0,0.66667
0.0092608,0.82901,0.074086,0.49352,41.946,460.03,-0.0975,0.032499,-1.1319,-0.13,-9.2475e-07,-0.56595,0,0,0.125,-0,-0,0.66667
0.46474,0.586,3.7179,0.12901,8.5578,166.78,-1.279,0.42634,-1.9402,-1.7054,-1.6908e-12,-0.97009,0,0,0.125,-2.0879e-17,0,0.66667
0.20022,0.36077,1.6018,-0.20884,-16.994,329.35,0.89207,-0.29736,-1.8447,1.1894,2.2926e-10,-0.92234,0,0,0.125,-2.9606e-16,0,0.66667
0.89358,0.11128,7.1487,-0.58308,-9.8918,9.7428,11.115,-3.7051,-0.79088,14.821,-1.9007e-08,-0.39544,0,0,0.125,-1.1842e-15,0,0.66667
0.59828,0.60656,4.7863,0.15984,8.6686,100.02,-2.0401,0.68005,-1.9078,-2.7202,-1.05e-12,-0.95391,0,0,0.125,-0,-0,0.66667
0.68755,0.3002,5.5004,-0.2997,-13.338,63.463,4.396,-1.4653,-1.6835,5.8613,4.5954e-12,-0.84177,0,0,0.125,-0,-0,0.66667
0.80757,0.22143,6.4606,-0.41786,-12.234,26.338,7.1989,-2.3996,-1.3788,9.5986,-3.2832e-10,-0.68938,0,0,0.125,-0,-0,0.66667
0.5879,0.87413,4.7032,0.56119,31.193,105.34,-7.0383,2.3461,-0.87978,-9.3844,-1.0831e-12,-0.43989,0,0,0.125,-0,-0,0.66667
0.84743,0.9362,6.7794,0.6543,15.647,18.102,-11.829,3.9429,-0.47842,-15.772,2.8311e-08,-0.23921,0,0,0.125,-1.7764e-15,0,0.66667
0.47046,0.23204,3.7637,-0.40194,-26.54,163.91,4.034,-1.3447,-1.4265,5.3787,-1.7852e-13,-0.71325,0,0,0.125,-0,-0,0.66667
0.17437,0.54799,1.395,0.07199,5.9148,346.64,-0.2678,0.089268,-1.9817,-0.35707,-4.6015e-10,-0.99084,0,0,0.125,-2.9606e-16,0,0.66667
0.64155,0.75616,5.1324,0.38425,19.128,81.633,-5.2589,1.753,-1.4774,-7.0119,-2.0504e-12,-0.73871,0,0,0.125,-0,-0,0.66667
0.97645,0.26735,7.8116,-0.34897,-1.2268,1.0655,7.2694,-2.4231,-1.5647,9.6926,3.583e-07,-0.78236,0,0,0.125,1.1842e-15,0,0.66667
0.35024,0.7531,2.8019,0.37965,28.258,233.33,-2.8367,0.94556,-1.4865,-3.7822,1.8112e-12,-0.74323,0,0,0.125,-0,-0,0.66667
0.80271,0.2252,6.4217,-0.41221,-12.343,27.546,7.0588,-2.3529,-1.3945,9.4117,-2.888e-10,-0.69724,0,0,0.125,2.3685e-15,0,0.66667
0.67727,0.43628,5.4182,-0.095581,-4.3601,67.132,1.381,-0.46034,-1.9672,1.8413,2.2482e-12,-0.98358,0,0,0.125,-1.4803e-15,0,0.66667
0.52046,0.0078146,4.1637,-0.73828,-45.921,138.33,8.1973,-2.7324,-0.060903,10.93,2.7889e-12,-0.030452,0,0,0.125,-2.3685e-15,0,0.66667
0.14443,0.17836,1.1555,-0.48246,-40.146,367.01,1.4866,-0.49552,-1.1718,1.9821,2.5109e-09,-0.58588,0,0,0.125,-0,-0,0.66667
0.83883,0.18186,6.7107,-0.47721,-11.903,19.285,8.5398,-2.8466,-1.1894,11.386,-1.1843e-09,-0.5947,0,0,0.125,1.1842e-15,0,0.66667
0.42617,0.24512,3.4094,-0.38231,-26.534,188.51,3.4759,-1.1586,-1.4799,4.6345,-2.4121e-12,-0.73993,0,0,0.125,8.8818e-16,0,0.66667
0.78295,0.31725,6.2636,-0.27413,-8.914,32.503,4.5787,-1.5262,-1.7345,6.105,-5.6249e-11,-0.86726,0,0,0.125,-2.3685e-15,0,0.66667
0.59163,0.19987,4.733,-0.45019,-24.802,103.4,5.6821,-1.894,-1.2799,7.5761,4.996e-13,-0.63996,0,0,0.125,-0,-0,0.66667
0.25054,0.27554,2.0043,-0.33669,-26.77,296.25,1.7995,-0.59985,-1.5998,2.3994,-1.8271e-11,-0.79992,0,0,0.125,-1.4803e-16,0,0.66667
0.17356,0.66649,1.3885,0.24973,20.539,347.22,-0.92467,0.30822,-1.7794,-1.2329,-1.0344e-09,-0.88968,0,0,0.125,-2.9606e-16,0,0.66667
0.73804,0.070876,5.9043,-0.64369,-24.909,46.811,10.135,-3.3783,-0.52635,13.513,-8.9235e-12,-0.26317,0,0,0.125,-0,-0,0.66667
0.11212,0.81803,0.89693,0.47704,40.03,389.05,-1.141,0.38033,-1.1915,-1.5213,-1.2107e-08,-0.59574,0,0,0.125,-0,-0,0.66667
0.21762,0.74417,1.741,0.36626,29.611,317.86,-1.7004,0.5668,-1.5252,-2.2672,-5.8969e-11,-0.76261,0,0,0.125,1.4803e-16,0,0.66667
0.86531,0.047775,6.9224,-0.67834,-14.471,14.771,12.522,-4.174,-0.36194,16.696,2.037e-08,-0.18097,0,0,0.125,-0,-0,0.66667
0.9046,0.7924,7.2368,0.4386,6.6319,7.715,-8.4641,2.8214,-1.3171,-11.285,2.6145e-08,-0.65855,0,0,0.125,-0,-0,0.66667
0.093513,0.8345,0.7481,0.50175,42.28,401.82,-1.001,0.33366,-1.1077,-1.3346,-1.3218e-08,-0.55387,0,0,0.125,-7.4015e-17,-7.3387e-17,0.66667
0.014555,0.89052,0.11644,0.58578,49.842,456.36,-0.18189,0.060628,-0.78154,-0.24252,-2.6175e-06,-0.39077,0,0,0.125,1.8504e-17,0,0.66667
0.30404,0.056843,2.4323,-0.66474,-51.397,262.31,4.3116,-1.4372,-0.42732,5.7488,9.3481e-13,-0.21366,0,0,0.125,1.4803e-16,0,0.66667
0.12829,0.83822,1.0263,0.50733,42.419,378.01,-1.3885,0.46282,-1.085,-1.8513,-5.8848e-09,-0.54251,0,0,0.125,-1.4803e-16,0,0.66667
0.25704,0.59827,2.0563,0.1474,11.665,291.94,-0.80829,0.26943,-1.9214,-1.0777,4.4751e-12,-0.96068,0,0,0.125,5.9212e-16,0,0.66667
0.50233,0.45725,4.0187,-0.064124,-4.054,146.68,0.68718,-0.22906,-1.9858,0.91624,5.3368e-13,-0.99288,0,0,0.125,-5.9212e-16,0,0.66667
0.56141,0.43258,4.4913,-0.10113,-5.8518,117.11,1.2112,-0.40373,-1.966,1.6149,1.0918e-12,-0.983,0,0,0.125,-8.8818e-16,0,0.66667
0.98057,0.62685,7.8445,0.19027,0.52108,0.60266,-3.9802,1.3267,-1.8717,-5.307,-4.3599e-08,-0.93583,0,0,0.125,-0,-0,0.66667
0.42958,0.18921,3.4366,-0.46619,-32.274,186.69,4.2723,-1.4241,-1.2263,5.6964,1.0836e-12,-0.61315,0,0,0.125,1.1842e-15,0,0.66667
0.67931,0.31843,5.4344,-0.27236,-12.379,66.517,3.947,-1.3157,-1.7346,5.2627,3.6351e-12,-0.86731,0,0,0.125,-0,-0,0.66667
0.88941,0.93667,7.1153,0.655,11.588,10.651,-12.428,4.1427,-0.4775,-16.571,-1.2682e-07,-0.23875,0,0,0.125,-1.2583e-15,0,0.66667
0.15189,0.8952,1.2151,0.5928,49.289,362.02,-1.9209,0.64029,-0.7494,-2.5612,7.7172e-09,-0.3747,0,0,0.125,-0,-0,0.66667
0.09317,0.76162,0.74536,0.39243,33.03,402.02,-0.77999,0.26,-1.4547,-1.04,-2.7741e-08,-0.72736,0,0,0.125,1.4803e-16,0,0.66667
0.29675,0.39727,2.374,-0.15409,-11.905,266.47,0.9755,-0.32517,-1.9186,1.3007,-6.0739e-12,-0.95931,0,0,0.125,2.9606e-16,0,0.66667
0.12968,0.40991,1.0374,-0.13513,-11.261,376.95,0.37383,-0.12461,-1.9346,0.49844,4.161e-09,-0.9673,0,0,0.125,2.9606e-16,0,0.66667
0.16102,0.81612,1.2882,0.47418,39.248,355.77,-1.6289,0.54297,-1.2,-2.1719,-1.1345e-09,-0.60001,0,0,0.125,-0,-0,0.66667
0.34358,0.97471,2.7486,0.71206,53.549,237.85,-5.2192,1.7397,-0.20057,-6.9589,3.002e-13,-0.10028,0,0,0.125,-0,-0,0.66667
0.31134,0.46702,2.4907,-0.049475,-3.7839,257.25,0.32861,-0.10954,-1.9941,0.43814,5.6743e-13,-0.99706,0,0,0.125,8.1416e-16,0,0.66667
0.76235,0.29486,6.0988,-0.30771,-10.848,38.45,5.0045,-1.6682,-1.6628,6.6727,6.6773e-12,-0.83141,0,0,0.125,-0,-0,0.66667
0.94892,0.56358,7.5913,0.095363,0.75542,2.3607,-1.9305,0.6435,-1.968,-2.574,-5.7309e-08,-0.98398,0,0,0.125,-2.3685e-15,0,0.66667
0.58072,0.58003,4.6457,0.12005,6.7213,108.02,-1.4872,0.49575,-1.9488,-1.983,-6.95e-14,-0.9744,0,0,0.125,-1.1842e-15,0,0.66667
0.98347,0.50288,7.8678,0.0043156,0.0095518,0.37286,-0.090545,0.030187,-2.0028,-0.12072,7.618e-06,-1.0014,0,0,0.125,-0,-0,0.66667
0.95183,0.40946,7.6146,-0.1358,-1.0129,2.167,2.7576,-0.91919,-1.9368,3.6768,6.8847e-08,-0.96841,0,0,0.125,-0,-0,0.66667
0.25764,0.23644,2.0612,-0.39533,-31.329,291.67,2.1729,-0.72431,-1.442,2.8972,-1.6909e-11,-0.72102,0,0,0.125,-2.9606e-16,0,0.66667
0.30135,0.78665,2.4108,0.42998,33.191,263.73,-2.7643,0.92143,-1.342,-3.6857,6.7404e-12,-0.671,0,0,0.125,-0,-0,0.66667
0.84189,0.8618,6.7352,0.5427,13.335,18.839,-9.7472,3.2491,-0.95356,-12.996,8.0261e-10,-0.47678,0,0,0.125,-1.1842e-15,0,0.66667
0.58489,0.39145,4.6791,-0.16282,-9.0505,106.12,2.0316,-0.67721,-1.9035,2.7088,-7.4385e-13,-0.95177,0,0,0.125,-0,-0,0.66667
0.17505,0.14134,1.4004,-0.53799,-44.349,346.36,2.0091,-0.66969,-0.97043,2.6788,6.2928e-10,-0.48522,0,0,0.125,-0,-0,0.66667
0.052125,0.49578,0.417,-0.0063334,-0.53528,430.3,0.0070427,-0.0023478,-1.999,0.0093902,-2.9917e-07,-0.99951,0,0,0.125,-7.4015e-17,0,0.66667
0.54514,0.32836,4.3611,-0.25746,-15.308,125.11,2.9941,-0.99803,-1.7652,3.9921,-1.1413e-12,-0.88259,0,0,0.125,1.1842e-15,0,0.66667
0.14795,0.34725,1.1836,-0.22912,-19.002,364.53,0.72315,-0.24105,-1.8121,0.9642,3.4182e-09,-0.90605,0,0,0.125,5.9212e-16,0,0.66667
0.77243,0.82979,6.1795,0.49468,16.863,35.922,-8.1516,2.7172,-1.1277,-10.869,3.2116e-11,-0.56387,0,0,0.125,1.1842e-15,0,0.66667
0.60364,0.78353,4.8291,0.42529,22.899,97.959,-5.4767,1.8256,-1.3562,-7.3023,-7.1942e-14,-0.6781,0,0,0.125,-0,-0,0.66667
0.2545,0.086973,2.036,-0.61954,-49.329,293.92,3.3636,-1.1212,-0.63445,4.4848,-4.2715e-12,-0.31722,0,0,0.125,-2.9606e-16,0,0.66667
0.0097104,0.56805,0.077683,0.10207,8.6508,459.71,-0.021145,0.0070479,-1.9617,-0.028193,-5.3094e-07,-0.98083,0,0,0.125,-0,-0,0.66667
0.29272,0.16565,2.3417,-0.50153,-38.968,269.27,3.1318,-1.0439,-1.1048,4.1758,-3.8642e-12,-0.55239,0,0,0.125,-0,-0,0.66667
0.61384,0.18713,4.9107,-0.46931,-24.791,93.555,6.1456,-2.0485,-1.2172,8.1942,1.0756e-12,-0.60859,0,0,0.125,2.2204e-16,0,0.66667
0.19308,0.60797,1.5447,0.16195,13.215,334.1,-0.66711,0.22237,-1.9049,-0.88948,-2.6027e-10,-0.95244,0,0,0.125,-0,-0,0.66667
0.29108,0.9694,2.3287,0.7041,54.943,270.56,-4.3723,1.4574,-0.23695,-5.8297,7.4709e-12,-0.11847,0,0,0.125,-1.1842e-15,0,0.66667
0.98264,0.34097,7.8611,-0.23854,-0.57541,0.60003,5.0005,-1.6668,-1.7997,6.6674,1.0218e-08,-0.89984,0,0,0.125,2.9606e-16,0,0.66667
0.77969,0.5394,6.2375,0.059102,1.9431,33.207,-0.98307,0.32769,-1.989,-1.3108,2.5056e-11,-0.9945,0,0,0.125,-0,-0,0.66667
0.23048,0.27843,1.8438,-0.33235,-26.698,309.37,1.6341,-0.5447,-1.6074,2.1788,8.7816e-12,-0.80371,0,0,0.125,-7.4015e-17,0,0.66667
0.27348,0.64063,2.1878,0.21095,16.542,281.35,-1.2307,0.41024,-1.8395,-1.641,1.031e-11,-0.91974,0,0,0.125,-5.9212e-16,0,0.66667
0.68583,0.59511,5.4867,0.14266,6.3673,63.934,-2.0873,0.69576,-1.93,-2.783,-3.9024e-12,-0.96499,0,0,0.125,-0,-0,0.66667
0.97299,0.56159,7.7839,0.092385,0.36703,0.82912,-1.9176,0.63921,-1.97,-2.5569,-5.1928e-07,-0.98498,0,0,0.125,7.4015e-17,0,0.66667
0.36782,0.57037,2.9426,0.10556,7.7287,222.51,-0.82831,0.2761,-1.9585,-1.1044,-6.2839e-14,-0.97927,0,0,0.125,-0,-0,0.66667
0.02374,0.36914,0.18992,-0.19628,-16.633,449.98,0.099408,-0.033136,-1.8614,0.13254,-1.0699e-07,-0.93069,0,0,0.125,-3.7007e-17,0,0.66667
0.81142,0.74186,6.4914,0.36279,10.413,25.268,-6.28,2.0933,-1.534,-8.3733,4.3294e-10,-0.76699,0,0,0.125,-5.9212e-16,0,0.66667
0.45963,0.17044,3.677,-0.49434,-33.109,169.96,4.8472,-1.6157,-1.129,6.4629,-9.4813e-13,-0.56449,0,0,0.125,-0,-0,0.66667
0.58271,0.16764,4.6617,-0.49854,-27.935,107.58,6.1974,-2.0658,-1.115,8.2632,2.1227e-13,-0.5575,0,0,0.125,-0,-0,0.66667
0.55146,0.5329,4.4117,0.049349,2.9018,121.9,-0.58057,0.19352,-1.9913,-0.77409,-1.1807e-12,-0.99565,0,0,0.125,-0,-0,0.66667
0.63102,0.039716,5.0482,-0.69043,-35.395,86.762,9.2943,-3.0981,-0.30344,12.392,-2.256e-13,-0.15172,0,0,0.125,1.1842e-15,0,0.66667
0.72115,0.65868,5.7692,0.23803,9.6237,51.455,-3.6619,1.2206,-1.8,-4.8825,-1.0554e-11,-0.89999,0,0,0.125,-0,-0,0.66667
0.37326,0.32717,2.9861,-0.25924,-18.907,219.32,2.0643,-0.6881,-1.7619,2.7524,-1.3964e-12,-0.88095,0,0,0.125,-5.9212e-16,0,0.66667
0.86276,0.27615,6.9021,-0.33578,-7.1686,14.171,6.1802,-2.0601,-1.5993,8.2403,-5.6736e-09,-0.79963,0,0,0.125,-1.7764e-15,0,0.66667
0.044935,0.49823,0.35948,-0.0026499,-0.22412,435.28,0.0025402,-0.00084533,-2.002,0.0033876,2.0836e-06,-1.001,0,0,0.125,8.3267e-17,0,0.66667
0.63268,0.76952,5.0615,0.40429,20.522,85.359,-5.4568,1.8189,-1.4167,-7.2757,-2.2795e-12,-0.70833,0,0,0.125,-0,-0,0.66667
0.32943,0.69593,2.6354,0.29389,22.212,246.06,-2.0654,0.68847,-1.6946,-2.7539,1.6571e-12,-0.84728,0,0,0.125,-0,-0,0.66667
0.5372,0.78836,4.2976,0.43254,26.09,129.26,-4.957,1.6523,-1.3333,-6.6094,1.4788e-12,-0.66664,0,0,0.125,-0,-0,0.66667
0.25122,0.80612,2.0098,0.45918,36.543,295.89,-2.461,0.82033,-1.2523,-3.2813,9.9811e-12,-0.62615,0,0,0.125,4.4409e-16,0,0.66667
0.30016,0.31266,2.4012,-0.28101,-21.678,264.37,1.7994,-0.5998,-1.7203,2.3992,-4.974e-12,-0.86017,0,0,0.125,1.1842e-15,0,0.66667
0.68492,0.93824,5.4793,0.65737,29.691,65.278,-9.6051,3.2017,-0.46512,-12.807,-6.1817e-13,-0.23256,0,0,0.125,-0,-0,0.66667
0.30867,0.061581,2.4693,-0.65763,-50.682,259.4,4.3304,-1.4435,-0.46287,5.7739,-1.3851e-12,-0.23143,0,0,0.125,2.5905e-16,-1.5635e-16,0.66667
0.48557,0.87777,3.8846,0.56666,36.812,156.06,-5.8699,1.9566,-0.86089,-7.8266,-5.1958e-13,-0.43045,0,0,0.125,-0,-0,0.66667
0.72351,0.48597,5.7881,-0.021049,-0.84366,50.512,0.32489,-0.1083,-1.9969,0.43319,2.0552e-12,-0.99847,0,0,0.125,-1.1842e-15,0,0.66667
0.93934,0.28048,7.5147,-0.32929,-3.1504,3.5105,6.5987,-2.1996,-1.6168,8.7982,-1.0673e-08,-0.80838,0,0,0.125,-1.4803e-16,0,0.66667
0.18872,0.52448,1.5098,0.036714,3,337,-0.14781,0.049271,-1.9972,-0.19708,-1.9389e-10,-0.99858,0,0,0.125,-0,-0,0.66667
0.52997,0.4294,4.2398,-0.1059,-6.4378,132.54,1.1973,-0.39909,-1.9619,1.5963,-1.9583e-12,-0.98093,0,0,0.125,5.9212e-16,0,0.66667
0.74163,0.24219,5.9331,-0.38671,-14.683,44.968,6.1184,-2.0395,-1.4664,8.1578,1.7025e-11,-0.73322,0,0,0.125,-0,-0,0.66667
0.53447,0.5874,4.2758,0.1311,7.9174,130.29,-1.4948,0.49828,-1.939,-1.9931,6.0563e-13,-0.96949,0,0,0.125,5.9212e-16,0,0.66667
0.78526,0.015055,6.2821,-0.72742,-23.772,33.139,12.186,-4.0619,-0.11756,16.248,-1.4999e-10,-0.05878,0,0,0.125,-0,-0,0.66667
0.74517,0.86547,5.9614,0.5482,20.655,44.249,-8.7147,2.9049,-0.93019,-11.62,-1.9891e-11,-0.4651,0,0,0.125,1.1842e-15,0,0.66667
0.76862,0.49539,6.1489,-0.0069182,-0.23755,36.352,0.11344,-0.037813,-2.0004,0.15125,-2.9551e-11,-1.0002,0,0,0.125,2.0724e-15,0,0.66667
0.77155,0.9836,6.1724,0.72541,25.025,36.947,-11.94,3.98,-0.12702,-15.92,-6.9392e-11,-0.06351,0,0,0.125,6.4316e-16,0,0.66667
0.88414,0.19785,7.0731,-0.45323,-8.2748,10.768,8.5486,-2.8495,-1.2677,11.398,-1.2287e-08,-0.63384,0,0,0.125,-0,-0,0.66667
0.45436,0.36201,3.6349,-0.20699,-13.905,172.53,2.0064,-0.6688,-1.8491,2.6752,3.7259e-13,-0.92455,0,0,0.125,-0,-0,0.66667
0.45973,0.72499,3.6779,0.33749,22.555,169.69,-3.31,1.1033,-1.5935,-4.4133,-8.1424e-13,-0.79673,0,0,0.125,-0,-0,0.66667
0.14676,0.58809,1.1741,0.13214,10.958,365.32,-0.41373,0.13791,-1.9365,-0.55164,-2.6512e-09,-0.96827,0,0,0.125,-0,-0,0.66667
0.23564,0.030415,1.8851,-0.70438,-56.721,306.3,3.5409,-1.1803,-0.2388,4.7212,-4.2651e-11,-0.1194,0,0,0.125,1.4803e-16,0,0.66667
0.26969,0.0085646,2.1575,-0.73715,-58.314,284.26,4.2411,-1.4137,-0.067171,5.6548,3.9524e-13,-0.033586,0,0,0.125,-1.1842e-15,0,0.66667
0.73747,0.54593,5.8997,0.068902,2.6421,45.922,-1.084,0.36133,-1.9827,-1.4453,-4.9588e-12,-0.99136,0,0,0.125,-0,-0,0.66667
0.15702,0.43756,1.2562,-0.093663,-7.7417,358.36,0.31375,-0.10458,-1.9724,0.41833,2.5535e-10,-0.98622,0,0,0.125,-5.9212e-16,0,0.66667
0.72315,0.84583,5.7852,0.51875,20.959,51.324,-8.0028,2.6676,-1.0432,-10.67,-2.0945e-11,-0.52159,0,0,0.125,2.3685e-15,0,0.66667
0.59594,0.15424,4.7675,-0.51863,-28.381,101.59,6.5936,-2.1979,-1.0453,8.7914,3.7303e-14,-0.52266,0,0,0.125,1.3323e-15,0,0.66667
0.9303,0.58654,7.4424,0.12982,1.417,4.0854,-2.5764,0.8588,-1.9383,-3.4352,-5.1209e-09,-0.96915,0,0,0.125,-1.1842e-15,0,0.66667
0.72528,0.87418,5.8022,0.56127,22.557,50.731,-8.6843,2.8948,-0.87927,-11.579,7.8133e-12,-0.43964,0,0,0.125,-1.4803e-16,0,0.66667
0.69888,0.4145,5.591,-0.12825,-5.5262,59.141,1.9122,-0.6374,-1.9407,2.5496,3.5016e-12,-0.97034,0,0,0.125,-0,-0,0.66667
0.075963,0.58761,0.6077,0.13141,11.075,413.83,-0.21296,0.070985,-1.9396,-0.28394,1.0681e-08,-0.96982,0,0,0.125,-3.7007e-17,0,0.66667
0.50651,0.51371,4.0521,0.020562,1.2925,144.5,-0.22218,0.074061,-1.9964,-0.29624,-1.2805e-12,-0.99818,0,0,0.125,-0,-0,0.66667
0.76296,0.79402,6.1037,0.44103,15.559,38.54,-7.1785,2.3928,-1.3084,-9.5713,-7.7085e-12,-0.65421,0,0,0.125,-0,-0,0.66667
0.29181,0.026241,2.3345,-0.71064,-55.435,270.11,4.4239,-1.4746,-0.20355,5.8985,-5.4547e-12,-0.10177,0,0,0.125,2.9606e-16,0,0.66667
0.49858,0.83079,3.9886,0.49618,31.653,149.07,-5.2776,1.7592,-1.1259,-7.0367,2.0339e-13,-0.56293,0,0,0.125,-0,-0,0.66667
0.30177,0.7986,2.4141,0.44789,34.572,263.49,-2.8834,0.96113,-1.2852,-3.8445,5.7443e-12,-0.64258,0,0,0.125,2.3476e-16,0,0.66667
0.4502,0.77404,3.6016,0.41105,27.799,175.04,-3.9479,1.316,-1.3995,-5.2638,-9.5235e-13,-0.69973,0,0,0.125,-0,-0,0.66667
0.24377,0.95846,1.9501,0.68769,55.132,300.98,-3.5762,1.1921,-0.31664,-4.7683,-2.5345e-11,-0.15832,0,0,0.125,-2.9606e-16,0,0.66667
0.5657,0.12472,4.5256,-0.56292,-32.52,115.68,6.7934,-2.2645,-0.87448,9.0579,-6.7368e-13,-0.43724,0,0,0.125,1.8504e-17,0,0.66667
0.94963,0.34226,7.5971,-0.23662,-1.8584,2.4627,4.7936,-1.5979,-1.8016,6.3914,5.2397e-08,-0.90081,0,0,0.125,-1.7764e-15,0,0.66667
0.2179,0.39203,1.7432,-0.16195,-13.074,317.6,0.75282,-0.25094,-1.9086,1.0038,5.1545e-11,-0.95429,0,0,0.125,-0,-0,0.66667
0.4385,0.10384,3.508,-0.59423,-40.829,181.86,5.5589,-1.853,-0.74635,7.4118,-1.4619e-12,-0.37318,0,0,0.125,-0,-0,0.66667
0.76894,0.080707,6.1515,-0.62894,-21.827,37.339,10.317,-3.4391,-0.59301,13.756,-1.1017e-10,-0.29651,0,0,0.125,-0,-0,0.66667
0.14093,0.63588,1.1275,0.20383,16.938,369.3,-0.61282,0.20427,-1.8549,-0.81709,-4.3907e-09,-0.92747,0,0,0.125,-0,-0,0.66667
0.9131,0.24378,7.3048,-0.38434,-5.2868,6.4698,7.4867,-2.4956,-1.4732,9.9823,-3.0981e-08,-0.73659,0,0,0.125,1.7764e-15,0,0.66667
0.39416,0.29986,3.1533,-0.30021,-21.491,206.96,2.5244,-0.84145,-1.6789,3.3658,-8.8374e-14,-0.83944,0,0,0.125,-0,-0,0.66667
0.32525,0.83584,2.602,0.50377,38.279,248.84,-3.4954,1.1651,-1.0979,-4.6606,1.0343e-12,-0.54893,0,0,0.125,-0,-0,0.66667
0.57673,0.40088,4.6138,-0.14868,-8.3837,109.89,1.8292,-0.60974,-1.9234,2.439,-8.6042e-13,-0.96168,0,0,0.125,-2.9606e-16,0,0.66667
0.24807,0.98425,1.9846,0.72637,58.143,298.22,-3.8441,1.2814,-0.1247,-5.1254,-2.8964e-11,-0.062348,0,0,0.125,-5.9212e-16,1.4802e-16,0.66667
0.81192,0.36376,6.4954,-0.20436,-5.8325,24.886,3.5398,-1.1799,-1.8538,4.7197,-4.2015e-10,-0.9269,0,0,0.125,-1.1842e-15,0,0.66667
0.88291,0.59285,7.0632,0.13928,2.5419,10.383,-2.6233,0.87443,-1.9302,-3.4977,1.1084e-08,-0.96512,0,0,0.125,4.4409e-16,0,0.66667
0.83441,0.64376,6.6753,0.21564,5.4741,19.7,-3.8386,1.2795,-1.8326,-5.1181,1.4663e-09,-0.91631,0,0,0.125,-0,-0,0.66667
0.35124,0.25397,2.8099,-0.36904,-27.443,232.72,2.7653,-0.92175,-1.5144,3.687,-8.6864e-13,-0.75721,0,0,0.125,-0,-0,0.66667
0.14604,0.26902,1.1684,-0.34647,-28.776,365.86,1.0795,-0.35982,-1.5714,1.4393,3.8317e-09,-0.78572,0,0,0.125,-0,-0,0.66667
0.60481,0.18451,4.8385,-0.47324,-25.445,97.533,6.106,-2.0353,-1.2034,8.1413,4.7118e-13,-0.60172,0,0,0.125,-0,-0,0.66667
0.9963,0.96892,7.9704,0.70338,0.39349,1.8038,-14.95,4.9833,-0.24179,-19.933,-9.8e-06,-0.12089,0,0,0.125,-2.3685e-15,0,0.66667
0.80367,0.81149,6.4294,0.46724,13.952,27.44,-8.0107,2.6702,-1.2231,-10.681,-6.7092e-11,-0.61153,0,0,0.125,-0,-0,0.66667
0.74154,0.58003,5.9324,0.12004,4.5424,44.64,-1.899,0.63299,-1.9465,-2.5319,-7.9734e-12,-0.97326,0,0,0.125,-0,-0,0.66667
0.38666,0.13967,3.0933,-0.54049,-39.075,211.66,4.4584,-1.4861,-0.96027,5.9445,-4.9738e-13,-0.48014,0,0,0.125,-0,-0,0.66667
0.40617,0.50856,3.2494,0.01284,0.90744,199.81,-0.11126,0.037087,-2.0026,-0.14835,-8.8381e-13,-1.0013,0,0,0.125,-0,-0,0.66667
0.29465,0.0027351,2.3572,-0.7459,-58.119,268.36,4.6885,-1.5628,-0.023339,6.2514,-5.1728e-12,-0.011669,0,0,0.125,-0,-0,0.66667
0.29924,0.72252,2.3939,0.33377,25.775,264.99,-2.1307,0.71024,-1.6051,-2.841,4.7287e-12,-0.80255,0,0,0.125,-0,-0,0.66667
0.65307,0.7729,5.2245,0.40934,19.865,76.986,-5.703,1.901,-1.4041,-7.604,-2.5153e-12,-0.70206,0,0,0.125,5.9212e-16,0,0.66667
0.042617,0.90375,0.34094,0.60563,51.464,436.94,-0.55062,0.18354,-0.69584,-0.73416,-3.1781e-06,-0.34792,0,0,0.125,1.8504e-17,0,0.66667
0.60103,0.23314,4.8083,-0.40028,-21.651,99.076,5.1325,-1.7108,-1.428,6.8433,-1.0303e-12,-0.71402,0,0,0.125,1.1842e-15,0,0.66667
0.45501,0.80477,3.6401,0.45715,30.766,172.44,-4.4375,1.4792,-1.2581,-5.9166,9.9565e-13,-0.62903,0,0,0.125,-2.9606e-16,0,0.66667
0.38402,0.73484,3.0722,0.35227,25.467,212.99,-2.8859,0.96198,-1.5566,-3.8479,-1.0847e-12,-0.7783,0,0,0.125,5.9212e-16,0,0.66667
0.72104,0.75542,5.7683,0.38312,15.531,51.722,-5.8933,1.9644,-1.4791,-7.8577,-1.1306e-11,-0.73956,0,0,0.125,-0,-0,0.66667
0.090843,0.66278,0.72674,0.24417,20.536,403.59,-0.47319,0.15773,-1.7884,-0.63092,-2.2152e-08,-0.89418,0,0,0.125,-0,-0,0.66667
0.24894,0.2326,1.9915,-0.4011,-31.939,297.33,2.1301,-0.71004,-1.4296,2.8401,-2.0241e-11,-0.7148,0,0,0.125,-0,-0,0.66667
0.16059,0.26301,1.2847,-0.35548,-29.391,356.01,1.2178,-0.40595,-1.5495,1.6238,1.8841e-09,-0.77474,0,0,0.125,-2.9606e-16,0,0.66667
0.67252,0.43446,5.3802,-0.098317,-4.5388,68.953,1.4106,-0.47019,-1.9688,1.8808,5.0349e-13,-0.98441,0,0,0.125,5.9212e-16,0,0.66667
0.19789,0.31044,1.5832,-0.28435,-23.172,330.93,1.2004,-0.40014,-1.7121,1.6006,2.7273e-10,-0.85604,0,0,0.125,4.0708e-16,0,0.66667
0.47419,0.44472,3.7935,-0.082925,-5.4373,161.63,0.83887,-0.27962,-1.9742,1.1185,9.7844e-13,-0.98711,0,0,0.125,-0,-0,0.66667
0.95248,0.16332,7.6198,-0.50502,-3.8375,2.9195,10.262,-3.4206,-1.0958,13.682,-2.2942e-07,-0.54788,0,0,0.125,2.3685e-15,0,0.66667
0.79059,0.82106,6.3247,0.4816,15.244,30.872,-8.1226,2.7075,-1.1736,-10.83,5.2016e-11,-0.58679,0,0,0.125,-0,-0,0.66667
0.6679,0.30867,5.3432,-0.287,-13.423,70.917,4.0893,-1.3631,-1.7071,5.4524,1.3238e-12,-0.85353,0,0,0.125,1.4803e-15,0,0.66667
0.85654,0.90607,6.8523,0.60911,13.723,16.134,-11.13,3.71,-0.68233,-14.84,3.5502e-09,-0.34117,0,0,0.125,-7.6669e-17,-1.4633e-16,0.66667
0.28897,0.98897,2.3118,0.73346,57.343,271.94,-4.5216,1.5072,-0.085083,-6.0288,1.4015e-12,-0.042541,0,0,0.125,-2.9606e-16,0,0.66667
0.77802,0.63128,6.2241,0.19692,6.5252,33.773,-3.2684,1.0895,-1.8622,-4.3579,3.7988e-11,-0.93111,0,0,0.125,-0,-0,0.66667
0.019068,0.51385,0.15255,0.02077,1.7596,453.21,-0.0084485,0.0028156,-1.9978,-0.011265,-8.1002e-07,-0.99891,0,0,0.125,-7.4015e-17,0,0.66667
0.87353,0.51688,6.9883,0.025323,0.49725,11.894,-0.47191,0.1573,-1.9989,-0.62921,4.4348e-10,-0.99943,0,0,0.125,-0,-0,0.66667
0.24772,0.057296,1.9818,-0.66406,-53.105,298.37,3.5093,-1.1698,-0.43317,4.6791,-3.2097e-12,-0.21658,0,0,0.125,1.4803e-16,0,0.66667
0.12308,0.25167,0.98462,-0.37249,-31.141,381.51,0.97804,-0.32601,-1.5087,1.304,1.0181e-08,-0.75434,0,0,0.125,-0,-0,0.66667
0.12635,0.28386,1.0108,-0.3242,-27.07,379.26,0.87389,-0.2913,-1.6287,1.1652,8.9736e-09,-0.81436,0,0,0.125,-2.9606e-16,0,0.66667
0.58781,0.20525,4.7024,-0.44212,-24.524,105.13,5.5441,-1.848,-1.303,7.3922,3.1353e-13,-0.65151,0,0,0.125,-0,-0,0.66667
0.89189,0.26146,7.1351,-0.35781,-6.0837,9.3223,6.808,-2.2693,-1.5463,9.0774,-1.8041e-08,-0.77313,0,0,0.125,-0,-0,0.66667
0.092472,0.81384,0.73978,0.47077,39.662,402.52,-0.9287,0.30957,-1.2148,-1.2383,-2.8451e-08,-0.60739,0,0,0.125,-2.9606e-16,0,0.66667
0.48349,0.19925,3.8679,-0.45113,-29.329,156.97,4.6531,-1.551,-1.2783,6.2041,6.4571e-13,-0.63914,0,0,0.125,-0,-0,0.66667
0.88532,0.85798,7.0825,0.53698,9.7547,10.843,-10.142,3.3806,-0.97302,-13.522,9.6778e-09,-0.48651,0,0,0.125,1.1842e-15,0,0.66667
0.95716,0.88716,7.6573,0.58073,4.0195,2.8683,-11.858,3.9527,-0.79988,-15.811,1.8067e-06,-0.39994,0,0,0.125,-0,-0,0.66667
0.99077,0.98505,7.9262,0.72757,1.1154,2.0273,-15.378,5.1261,-0.11585,-20.504,3.2452e-05,-0.057923,0,0,0.125,1.1842e-15,0,0.66667
0.36192,0.079453,2.8953,-0.63082,-46.671,226.57,4.8705,-1.6235,-0.5852,6.494,-1.3078e-12,-0.2926,0,0,0.125,-0,-0,0.66667
0.58532,0.88982,4.6825,0.58474,32.669,106.58,-7.3015,2.4338,-0.78202,-9.7353,-1.3656e-12,-0.39101,0,0,0.125,1.1842e-15,0,0.66667
0.38493,0.55988,3.0794,0.089824,6.4776,212.29,-0.73761,0.24587,-1.9706,-0.98348,3.5422e-13,-0.98529,0,0,0.125,1.4803e-16,0,0.66667
0.13587,0.62579,1.0869,0.18868,15.701,372.74,-0.5469,0.1823,-1.8734,-0.7292,-6.1714e-09,-0.93672,0,0,0.125,-5.9212e-16,0,0.66667
0.76152,0.28575,6.0922,-0.32138,-11.367,38.72,5.2211,-1.7404,-1.6325,6.9614,8.2618e-12,-0.81625,0,0,0.125,-0,-0,0.66667
0.22086,0.91893,1.7669,0.6284,50.898,315.93,-2.9608,0.98693,-0.59651,-3.9477,9.4631e-11,-0.29825,0,0,0.125,-0,-0,0.66667
0.6968,0.81949,5.5744,0.47924,20.874,60.421,-7.1239,2.3746,-1.1818,-9.4985,-4.9321e-12,-0.5909,0,0,0.125,-0,-0,0.66667
0.80946,0.14408,6.4757,-0.53388,-15.553,26.19,9.2193,-3.0731,-0.9863,12.292,-4.3549e-11,-0.49315,0,0,0.125,1.1842e-15,0,0.66667
0.27256,0.92771,2.1805,0.64157,50.58,282.29,-3.7305,1.2435,-0.5345,-4.974,8.9977e-12,-0.26725,0,0,0.125,-2.9606e-16,0,0.66667
0.5085,0.79705,4.068,0.44557,28.023,143.82,-4.8336,1.6112,-1.2918,-6.4448,3.1308e-13,-0.64591,0,0,0.125,-1.1842e-15,0,0.66667
0.42229,0.85988,3.3783,0.53982,37.698,190.95,-4.8632,1.6211,-0.96624,-6.4843,4.7828e-13,-0.48312,0,0,0.125,-0,-0,0.66667
0.054664,0.58636,0.43732,0.12953,10.947,428.55,-0.15106,0.050353,-1.9385,-0.20141,2.1458e-08,-0.96926,0,0,0.125,-0,-0,0.66667
0.74161,0.59326,5.9329,0.13989,5.2934,44.634,-2.2133,0.73775,-1.9297,-2.951,-1.3328e-11,-0.96487,0,0,0.125,5.0854e-16,0,0.66667
0.80872,0.17886,6.4697,-0.48171,-14.057,26.221,8.3108,-2.7703,-1.1744,11.081,-2.5778e-10,-0.58718,0,0,0.125,5.9212e-16,0,0.66667
0.53813,0.90951,4.3051,0.61427,37.12,129.16,-7.0519,2.3506,-0.65724,-9.4025,6.3505e-13,-0.32862,0,0,0.125,-0,-0,0.66667
0.75933,0.96086,6.0747,0.69129,24.917,40.386,-11.198,3.7328,-0.29916,-14.931,1.7243e-11,-0.14958,0,0,0.125,-5.9212e-16,0,0.66667
0.041085,0.10174,0.32868,-0.59739,-50.764,438,0.52361,-0.17453,-0.72956,0.69814,2.8118e-06,-0.36478,0,0,0.125,-0,-0,0.66667
0.18226,0.92309,1.4581,0.63464,52.252,341.59,-2.4676,0.82254,-0.56622,-3.2902,-4.2304e-10,-0.28311,0,0,0.125,-2.9606e-16,0,0.66667
0.5671,0.98912,4.5368,0.73368,42.454,115.46,-8.8761,2.9587,-0.084827,-11.835,7.6739e-13,-0.042414,0,0,0.125,-1.1842e-15,0,0.66667
0.62121,0.67436,4.9696,0.26155,13.572,90.029,-3.4661,1.1554,-1.7559,-4.6215,-7.6339e-13,-0.87795,0,0,0.125,-1.1842e-15,0,0.66667
0.78202,0.95959,6.2562,0.68938,22.789,33.872,-11.501,3.8337,-0.31247,-15.335,1.6105e-10,-0.15623,0,0,0.125,5.9212e-16,0,0.66667
0.60149,0.78602,4.8119,0.42903,23.197,98.923,-5.5053,1.8351,-1.3441,-7.3403,-7.7582e-13,-0.67203,0,0,0.125,-0,-0,0.66667
0.56027,0.64982,4.4821,0.22473,13.038,117.74,-2.686,0.89534,-1.8214,-3.5814,-4.3499e-13,-0.91069,0,0,0.125,-5.5643e-16,0,0.66667
0.66962,0.97796,5.357,0.71694,33.711,71.275,-10.242,3.4139,-0.17305,-13.656,9.0594e-13,-0.086525,0,0,0.125,-1.1842e-15,1.2308e-16,0.66667
0.18539,0.29702,1.4831,-0.30447,-24.94,339.29,1.2042,-0.4014,-1.6709,1.6056,5.2978e-10,-0.83543,0,0,0.125,-0,-0,0.66667
0.14813,0.40063,1.1851,-0.14906,-12.357,364.39,0.47104,-0.15701,-1.9194,0.62805,3.2216e-09,-0.9597,0,0,0.125,8.7712e-17,0,0.66667
0.2334,0.74877,1.8672,0.37315,29.944,307.47,-1.858,0.61933,-1.508,-2.4773,1.1741e-11,-0.75402,0,0,0.125,-1.1102e-16,0,0.66667
0.88661,0.57757,7.0929,0.11635,2.0578,9.7738,-2.2008,0.73359,-1.9508,-2.9344,4.9451e-09,-0.97539,0,0,0.125,-0,-0,0.66667
0.62684,0.65672,5.0147,0.23508,12.054,87.588,-3.1437,1.0479,-1.8058,-4.1916,-3.7317e-12,-0.90292,0,0,0.125,2.3685e-15,0,0.66667
0.65717,0.14509,5.2574,-0.53236,-25.655,75.613,7.4636,-2.4879,-0.99421,9.9514,8.3755e-13,-0.4971,0,0,0.125,-0,-0,0.66667
0.3064,0.70785,2.4512,0.31177,23.957,260.46,-2.0379,0.67931,-1.6525,-2.7172,4.4755e-12,-0.82624,0,0,0.125,-0,-0,0.66667
0.25905,0.83032,2.0724,0.49548,39.281,290.85,-2.7382,0.91273,-1.125,-3.6509,4.0652e-12,-0.56249,0,0,0.125,-0,-0,0.66667
0.59709,0.85008,4.7767,0.52512,28.679,101.09,-6.6889,2.2296,-1.0196,-8.9185,-4.0812e-13,-0.50978,0,0,0.125,-1.1842e-15,0,0.66667
0.21493,0.16032,1.7194,-0.50952,-41.31,319.74,2.3362,-0.77873,-1.0769,3.1149,-1.5989e-10,-0.53847,0,0,0.125,-0,-0,0.66667
0.93549,0.81204,7.4839,0.46806,4.8203,4.2397,-9.3412,3.1137,-1.2232,-12.455,1.0681e-07,-0.61161,0,0,0.125,4.0708e-16,0,0.66667
0.80368,0.67108,6.4294,0.25662,7.6221,27.003,-4.3997,1.4666,-1.7636,-5.8663,2.6753e-10,-0.88182,0,0,0.125,-0,-0,0.66667
0.077647,0.31879,0.62118,-0.27182,-22.918,412.68,0.45026,-0.15009,-1.7402,0.60035,2.5493e-08,-0.8701,0,0,0.125,-0,-0,0.66667
0.17487,0.50876,1.399,0.013146,1.0798,346.3,-0.049042,0.016347,-1.9994,-0.06539,-1.5414e-10,-0.99969,0,0,0.125,-0,-0,0.66667
0.48717,0.46685,3.8973,-0.049732,-3.2077,154.66,0.51686,-0.17229,-1.9924,0.68915,9.6073e-13,-0.99618,0,0,0.125,-1.4803e-16,0,0.66667
0.26934,0.37478,2.1547,-0.18783,-14.763,284,1.0792,-0.35975,-1.8753,1.439,-1.0845e-11,-0.93767,0,0,0.125,6.3375e-16,0,0.66667
0.2902,0.61015,2.3216,0.16523,12.821,270.63,-1.0229,0.34098,-1.9007,-1.3639,3.8951e-12,-0.95037,0,0,0.125,5.9212e-16,0,0.66667
0.96137,0.73957,7.691,0.35936,2.162,1.8849,-7.3702,2.4567,-1.5387,-9.8269,-1.2818e-07,-0.76937,0,0,0.125,1.1842e-15,0,0.66667
0.34206,0.85788,2.7365,0.53682,40.296,238.51,-3.9173,1.3058,-0.97629,-5.223,4.13e-14,-0.48815,0,0,0.125,-0,3.0255e-17,0.66667
0.8359,0.38975,6.6872,-0.16538,-4.1599,19.32,2.9491,-0.98302,-1.9005,3.9321,-1.174e-09,-0.95023,0,0,0.125,-1.1842e-15,0,0.66667
0.34459,0.88581,2.7567,0.57872,43.383,237.02,-4.2543,1.4181,-0.8112,-5.6724,5.0671e-13,-0.4056,0,0,0.125,-0,-0,0.66667
0.72145,0.95561,5.7716,0.68341,27.896,52.406,-10.518,3.5061,-0.33936,-14.024,-1.4317e-12,-0.16968,0,0,0.125,-0,-0,0.66667
0.18399,0.30215,1.4719,-0.29678,-24.322,340.23,1.1649,-0.38831,-1.6863,1.5532,5.6409e-10,-0.84315,0,0,0.125,1.4803e-16,0,0.66667
0.68595,0.46095,5.4876,-0.058575,-2.6125,63.848,0.85717,-0.28572,-1.9893,1.1429,5.4901e-13,-0.99464,0,0,0.125,-5.9212e-16,0,0.66667
0.57425,0.40398,4.594,-0.14402,-8.1563,111.05,1.7644,-0.58813,-1.9265,2.3525,-5.6333e-13,-0.96326,0,0,0.125,1.7001e-16,0,0.66667
0.72788,0.25412,5.823,-0.36881,-14.635,49.402,5.727,-1.909,-1.5151,7.6359,1.3705e-11,-0.75756,0,0,0.125,-2.3685e-15,0,0.66667
0.43689,0.28551,3.4952,-0.32173,-22.061,182.38,2.9987,-0.99955,-1.635,3.9982,4.301e-13,-0.8175,0,0,0.125,-0,-0,0.66667
0.94886,0.7014,7.5909,0.3021,2.4215,2.6423,-6.1152,2.0384,-1.6743,-8.1536,-4.8555e-08,-0.83715,0,0,0.125,-0,-0,0.66667
0.98993,0.48451,7.9195,-0.02324,-0.026181,0.1849,0.49081,-0.1636,-1.9962,0.65441,-3.9334e-06,-0.9981,0,0,0.125,-2.3566e-15,0,0.66667
0.37841,0.39853,3.0272,-0.1522,-11.043,216.19,1.2286,-0.40955,-1.9174,1.6382,5.3346e-13,-0.95871,0,0,0.125,-5.9212e-16,0,0.66667
0.75586,0.011683,6.0469,-0.73248,-26.774,41.586,11.811,-3.9371,-0.090497,15.748,-2.993e-11,-0.045248,0,0,0.125,2.3685e-15,0,0.66667
0.93393,0.78293,7.4714,0.42439,4.4592,4.2616,-8.4554,2.8185,-1.3602,-11.274,8.2855e-08,-0.68011,0,0,0.125,2.3685e-15,0,0.66667
0.81266,0.43779,6.5013,-0.09331,-2.6503,24.61,1.6177,-0.53923,-1.9734,2.1569,-2.9106e-11,-0.98669,0,0,0.125,-0,-0,0.66667
0.44965,0.018959,3.5972,-0.72156,-49.093,175.91,6.9216,-2.3072,-0.14818,9.2288,-8.1002e-13,-0.074088,0,0,0.125,-0,1.4129e-16,0.66667
0.0019673,0.20045,0.015739,-0.44933,-38.174,465.08,0.018857,-0.0062851,-1.2828,0.025144,1.1435e-06,-0.64141,0,0,0.125,-0,-0,0.66667
0.94677,0.115,7.5741,-0.5775,-4.9697,3.6261,11.664,-3.8881,-0.81229,15.552,6.1214e-08,-0.40615,0,0,0.125,-0,-0,0.66667
0.34939,0.57471,2.7951,0.11206,8.3315,233.69,-0.83529,0.27843,-1.9535,-1.1137,-6.2744e-13,-0.97676,0,0,0.125,5.9212e-16,0,0.66667
0.037035,0.09806,0.29628,-0.60291,-51.253,440.8,0.47635,-0.15878,-0.7065,0.63513,2.0937e-06,-0.35325,0,0,0.125,1.4803e-16,0,0.66667
0.24443,0.3046,1.9555,-0.2931,-23.372,300.2,1.5284,-0.50946,-1.6931,2.0378,-1.6755e-11,-0.84655,0,0,0.125,1.4803e-16,0,0.66667
0.96294,0.67631,7.7035,0.26446,1.5066,1.5854,-5.4328,1.8109,-1.7495,-7.2437,-1.2392e-07,-0.87475,0,0,0.125,-1.1842e-15,0,0.66667
0.46377,0.11732,3.7102,-0.57402,-38.309,167.83,5.6792,-1.8931,-0.82729,7.5722,-5.671e-13,-0.41364,0,0,0.125,-2.9606e-16,0,0.66667
0.12421,0.10987,0.99369,-0.5852,-49.033,380.83,1.5507,-0.5169,-0.78426,2.0676,-2.4115e-09,-0.39213,0,0,0.125,-1.4803e-16,1.4788e-16,0.66667
0.66748,0.057237,5.3398,-0.66414,-31.34,71.931,9.4571,-3.1524,-0.43113,12.61,1.6787e-13,-0.21557,0,0,0.125,5.9212e-16,0,0.66667
0.013877,0.98545,0.11102,0.72818,62.102,456.84,-0.21556,0.071841,-0.11562,-0.28742,-1.8085e-05,-0.057809,0,0,0.125,-1.8504e-17,-1.4732e-16,0.66667
0.79892,0.42357,6.3914,-0.11465,-3.4737,28.069,1.9541,-0.65135,-1.9538,2.6054,-1.5235e-10,-0.97691,0,0,0.125,-0,-0,0.66667
0.53493,0.28333,4.2795,-0.32501,-19.644,130.23,3.709,-1.2363,-1.6249,4.9453,-5.6755e-13,-0.81243,0,0,0.125,1.1842e-15,0,0.66667
0.85021,0.49177,6.8017,-0.012342,-0.28468,16.251,0.22386,-0.074619,-1.9977,0.29848,2.0868e-09,-0.99885,0,0,0.125,1.7764e-15,0,0.66667
0.2292,0.39748,1.8336,-0.15379,-12.348,310.14,0.75195,-0.25065,-1.9145,1.0026,-5.9117e-12,-0.95726,0,0,0.125,2.9606e-16,0,0.66667
0.090134,0.75312,0.72107,0.37968,31.971,404.1,-0.73006,0.24335,-1.4877,-0.97342,-2.9133e-08,-0.74387,0,0,0.125,-0,-0,0.66667
0.6928,0.87025,5.5424,0.55538,24.499,62.07,-8.2083,2.7361,-0.90238,-10.944,-1.8776e-12,-0.45119,0,0,0.125,-2.9606e-16,0,0.66667
0.81499,0.88573,6.5199,0.57859,16.442,24.992,-10.06,3.3532,-0.81,-13.413,2.0824e-10,-0.405,0,0,0.125,-0,-0,0.66667
0.63154,0.75341,5.0523,0.38012,19.335,85.796,-5.1213,1.7071,-1.4851,-6.8284,-2.697e-12,-0.74256,0,0,0.125,-0,-0,0.66667
0.77283,0.25272,6.1826,-0.37091,-12.584,35.516,6.1152,-2.0384,-1.5097,8.1537,3.4657e-12,-0.75486,0,0,0.125,-0,-0,0.66667
0.63111,0.69567,5.0489,0.2935,14.925,85.849,-3.9516,1.3172,-1.692,-5.2688,-1.9929e-12,-0.84602,0,0,0.125,-0,-0,0.66667
0.89066,0.21171,7.1253,-0.43243,-7.4599,9.6953,8.2165,-2.7388,-1.3385,10.955,-1.83e-08,-0.66925,0,0,0.125,-5.9212e-16,0,0.66667
0.99276,0.68328,7.9421,0.27491,0.19966,0.38454,-5.8224,1.9408,-1.7299,-7.7632,2.2116e-07,-0.86495,0,0,0.125,-1.7764e-15,0,0.66667
0.17377,0.15252,1.3902,-0.52122,-42.977,347.21,1.9322,-0.64407,-1.0357,2.5763,8.1478e-10,-0.51786,0,0,0.125,-4.4409e-16,0,0.66667
0.54939,0.89922,4.3951,0.59883,35.55,123.6,-7.0185,2.3395,-0.72559,-9.358,2.1054e-12,-0.3628,0,0,0.125,-5.9212e-16,0,0.66667
0.11999,0.51846,0.95995,0.027697,2.3133,383.56,-0.070902,0.023634,-1.9957,-0.094536,1.7272e-09,-0.99785,0,0,0.125,-2.9606e-16,0,0.66667
0.76715,0.62586,6.1372,0.18879,6.5259,36.878,-3.0897,1.0299,-1.8759,-4.1196,2e-11,-0.93794,0,0,0.125,2.3685e-15,0,0.66667
0.22811,0.13594,1.8249,-0.54608,-44.025,311.08,2.6574,-0.8858,-0.93776,3.5432,-1.1706e-10,-0.46888,0,0,0.125,-0,-0,0.66667
0.11092,0.93622,0.88737,0.65434,55.058,389.94,-1.5484,0.51612,-0.48016,-2.0645,1.0403e-07,-0.24008,0,0,0.125,-7.4015e-17,0,0.66667
0.96882,0.67706,7.7506,0.2656,1.2557,1.2531,-5.4894,1.8298,-1.7522,-7.3192,-1.5276e-07,-0.87609,0,0,0.125,-0,-0,0.66667
0.44753,0.59294,3.5802,0.13941,9.4349,176.29,-1.3309,0.44365,-1.9306,-1.7746,-5.4989e-13,-0.96528,0,0,0.125,1.4415e-16,0,0.66667
0.82994,0.93803,6.6395,0.65705,17.359,21.824,-11.633,3.8778,-0.46738,-15.511,-9.2128e-09,-0.23369,0,0,0.125,-0,-0,0.66667
0.025977,0.7558,0.20782,0.38369,32.555,448.43,-0.21264,0.070879,-1.4755,-0.28352,5.0986e-07,-0.73773,0,0,0.125,-0,-0,0.66667
0.090511,0.88705,0.72409,0.58058,49.001,403.91,-1.121,0.37368,-0.8011,-1.4947,-1.4227e-08,-0.40055,0,0,0.125,-1.4803e-16,0,0.66667
0.81523,0.42493,6.5218,-0.1126,-3.1586,24.003,1.9583,-0.65276,-1.9549,2.6111,-2.4901e-10,-0.97744,0,0,0.125,-0,-0,0.66667
0.90936,0.78987,7.2749,0.4348,6.2526,7.077,-8.4351,2.8117,-1.3277,-11.247,2.4215e-08,-0.66387,0,0,0.125,-0,-0,0.66667
0.068241,0.54807,0.54592,0.072099,6.0821,419.16,-0.10496,0.034987,-1.9796,-0.13995,3.0527e-08,-0.98979,0,0,0.125,1.4803e-16,0,0.66667
0.65027,0.57187,5.2022,0.1078,5.2476,77.752,-1.4955,0.4985,-1.9569,-1.994,-1.7584e-12,-0.97847,0,0,0.125,-0,-0,0.66667
0.55332,0.81868,4.4265,0.47802,28.137,121.44,-5.6425,1.8808,-1.186,-7.5234,-1.128e-13,-0.59302,0,0,0.125,-0,-0,0.66667
0.20654,0.83462,1.6523,0.50193,40.843,325.3,-2.2116,0.7372,-1.1039,-2.9488,-2.5342e-11,-0.55194,0,0,0.125,1.4803e-16,0,0.66667
0.4248,0.36788,3.3984,-0.19818,-13.752,189.14,1.796,-0.59867,-1.8606,2.3947,5.9597e-13,-0.9303,0,0,0.125,-2.9606e-16,0,0.66667
0.4726,0.24122,3.7808,-0.38816,-25.559,162.73,3.9136,-1.3045,-1.4636,5.2181,-1.6491e-12,-0.73182,0,0,0.125,-0,-0,0.66667
0.011484,0.19768,0.091873,-0.45348,-38.524,458.48,0.1111,-0.037033,-1.2679,0.14813,2.252e-07,-0.63394,0,0,0.125,-0,-0,0.66667
0.54494,0.030193,4.3596,-0.70471,-42.229,126.04,8.1926,-2.7309,-0.23638,10.923,2.4603e-13,-0.11819,0,0,0.125,-4.4409e-16,-1.9359e-17,0.66667
0.7824,0.56254,6.2592,0.093817,3.0511,32.47,-1.5659,0.52197,-1.9719,-2.0879,-1.7447e-11,-0.98594,0,0,0.125,-0,-0,0.66667
0.91446,0.69653,7.3157,0.2948,3.9741,6.1042,-5.7512,1.9171,-1.689,-7.6682,2.5199e-08,-0.8445,0,0,0.125,-0,-0,0.66667
0.046043,0.5624,0.36834,0.093599,7.9164,434.51,-0.091938,0.030646,-1.9724,-0.12258,-1.8844e-07,-0.9862,0,0,0.125,-1.0987e-16,0,0.66667
0.79178,0.84718,6.3342,0.52077,16.422,30.667,-8.7964,2.9321,-1.0351,-11.729,-1.0064e-11,-0.51755,0,0,0.125,-0,-0,0.66667
0.43939,0.49438,3.5151,-0.0084251,-0.57522,180.81,0.078974,-0.026325,-2.0011,0.1053,-4.5251e-13,-1.0006,0,0,0.125,-5.9212e-16,0,0.66667
0.70462,0.8257,5.637,0.48855,20.827,57.643,-7.3438,2.4479,-1.1525,-9.7918,-7.053e-12,-0.57625,0,0,0.125,1.1842e-15,0,0.66667
0.60938,0.72096,4.8751,0.33144,17.624,95.265,-4.3087,1.4362,-1.6136,-5.745,-3.217e-12,-0.80679,0,0,0.125,2.3685e-15,0,0.66667
0.91416,0.091372,7.3133,-0.61294,-8.4755,7.0803,11.954,-3.9845,-0.66311,15.938,6.9905e-08,-0.33155,0,0,0.125,-2.9606e-16,0,0.66667
0.67954,0.21584,5.4363,-0.42624,-19.408,66.688,6.1792,-2.0597,-1.3528,8.2389,3.3018e-12,-0.67642,0,0,0.125,-1.1842e-15,0,0.66667
0.20458,0.61786,1.6366,0.17679,14.358,326.44,-0.77159,0.2572,-1.8905,-1.0288,-1.7255e-10,-0.94526,0,0,0.125,1.4803e-16,0,0.66667
0.98969,0.11041,7.9176,-0.58438,-0.88862,1.3908,12.338,-4.1128,-0.78399,16.451,-5.5731e-06,-0.392,0,0,0.125,-0,-0,0.66667
0.80836,0.96883,6.4669,0.70325,20.747,27.063,-12.128,4.0425,-0.24211,-16.17,-1.1268e-10,-0.12105,0,0,0.125,-0,-0,0.66667
0.05115,0.84838,0.4092,0.52257,44.319,431.03,-0.57023,0.19008,-1.0286,-0.76031,-1.2685e-07,-0.51432,0,0,0.125,-0,-0,0.66667
0.99025,0.55421,7.922,0.081317,0.087828,0.19853,-1.7178,0.57261,-1.9749,-2.2904,-1.375e-07,-0.98744,0,0,0.125,-0,-0,0.66667
0.084374,0.42204,0.67499,-0.11695,-9.8419,408.03,0.2105,-0.070167,-1.9493,0.28067,-2.7152e-09,-0.97464,0,0,0.125,1.4803e-16,0,0.66667
0.41597,0.6851,3.3278,0.27765,19.453,194.25,-2.4639,0.82131,-1.7251,-3.2852,-1.3387e-12,-0.86257,0,0,0.125,-0,-0,0.66667
0.88805,0.48665,7.1044,-0.020019,-0.34941,9.5066,0.37926,-0.12642,-1.9986,0.50568,-3.5651e-09,-0.99932,0,0,0.125,-0,-0,0.66667
0.76211,0.85011,6.0969,0.52516,18.629,39.012,-8.5383,2.8461,-1.0193,-11.384,-5.6977e-12,-0.50963,0,0,0.125,-0,-0,0.66667
0.67305,0.223,5.3844,-0.4155,-19.227,69.141,5.9659,-1.9886,-1.3885,7.9545,1.6565e-12,-0.69427,0,0,0.125,-0,-0,0.66667
0.53369,0.95804,4.2695,0.68706,41.866,131.55,-7.8224,2.6075,-0.32192,-10.43,4.845e-13,-0.16096,0,0,0.125,5.9212e-16,0,0.66667
0.34698,0.67441,2.7758,0.26161,19.503,235.23,-1.9365,0.64551,-1.7562,-2.582,-3.6893e-13,-0.87809,0,0,0.125,5.9212e-16,0,0.66667
0.89994,0.24899,7.1996,-0.37652,-5.9435,8.1939,7.2287,-2.4096,-1.4953,9.6382,-2.42e-08,-0.74767,0,0,0.125,-5.181e-16,0,0.66667
0.81896,0.76853,6.5517,0.40279,11.152,23.549,-7.0372,2.3457,-1.4211,-9.383,4.7885e-10,-0.71053,0,0,0.125,1.1842e-15,0,0.66667
0.94589,0.56327,7.5671,0.094906,0.79821,2.6061,-1.9151,0.63837,-1.9672,-2.5535,-1.393e-07,-0.98362,0,0,0.125,-0,-0,0.66667
0.39956,0.6123,3.1965,0.16845,11.987,203.71,-1.4359,0.47863,-1.897,-1.9145,9.136e-13,-0.94848,0,0,0.125,-5.9212e-16,0,0.66667
0.23362,0.88896,1.869,0.58343,46.935,307.49,-2.9078,0.96927,-0.79167,-3.8771,3.6901e-11,-0.39583,0,0,0.125,-0,-0,0.66667
0.72322,0.45298,5.7858,-0.070529,-2.8297,50.622,1.0882,-0.36272,-1.981,1.4509,4.5288e-12,-0.99048,0,0,0.125,-1.1842e-15,0,0.66667
0.6891,0.71709,5.5128,0.32564,14.438,62.931,-4.7871,1.5957,-1.6253,-6.3828,-4.6048e-12,-0.81266,0,0,0.125,-1.6283e-15,0,0.66667
0.54337,0.36183,4.3469,-0.20725,-12.352,125.94,2.4024,-0.80081,-1.8466,3.2032,7.8848e-13,-0.9233,0,0,0.125,-0,-0,0.66667
0.53711,0.91797,4.2969,0.62695,37.956,129.7,-7.1838,2.3946,-0.60056,-9.5784,7.6561e-13,-0.30028,0,0,0.125,-0,-0,0.66667
0.80969,0.85471,6.4775,0.53207,15.483,26.128,-9.1906,3.0635,-0.99342,-12.254,4.855e-11,-0.49671,0,0,0.125,-0,-0,0.66667
0.79958,0.93922,6.3967,0.65883,20.189,29.094,-11.238,3.7461,-0.45797,-14.984,-9.9499e-10,-0.22898,0,0,0.125,-2.3685e-15,0,0.66667
0.84777,0.23007,6.7822,-0.40489,-9.5509,17.236,7.3228,-2.4409,-1.4162,9.7637,-2.279e-09,-0.70808,0,0,0.125,-0,-0,0.66667
0.19036,0.017808,1.5229,-0.72329,-59.454,336.26,2.9373,-0.9791,-0.13975,3.9164,1.8038e-10,-0.069875,0,0,0.125,-0,-0,0.66667
0.20027,0.21397,1.6022,-0.42905,-34.976,329.41,1.8331,-0.61104,-1.3461,2.4442,2.1112e-10,-0.67304,0,0,0.125,-0,-0,0.66667
0.77366,0.37533,6.1893,-0.18701,-6.304,34.995,3.0866,-1.0289,-1.875,4.1154,-3.566e-11,-0.9375,0,0,0.125,-2.3685e-15,0,0.66667
0.56553,0.59476,4.5243,0.14214,8.17,115.16,-1.7149,0.57163,-1.9293,-2.2865,-3.0036e-12,-0.96465,0,0,0.125,2.3685e-15,0,0.66667
0.2689,0.094748,2.1512,-0.60788,-48,284.6,3.4872,-1.1624,-0.68711,4.6495,-2.2935e-12,-0.34356,0,0,0.125,-0,-0,0.66667
0.47936,0.47423,3.8348,-0.038656,-2.5182,158.84,0.3953,-0.13177,-1.9938,0.52707,-1.498e-13,-0.99688,0,0,0.125,-0,-0,0.66667
0.67466,0.39539,5.3973,-0.15692,-7.2079,68.168,2.2584,-0.75281,-1.9125,3.0112,1.8874e-12,-0.95623,0,0,0.125,-0,-0,0.66667
0.68423,0.27147,5.4738,-0.34279,-15.399,64.769,5.0038,-1.6679,-1.5819,6.6717,4.0634e-12,-0.79094,0,0,0.125,-0,-0,0.66667
0.82139,0.41112,6.5711,-0.13332,-3.6256,22.557,2.3361,-0.77871,-1.9354,3.1148,-6.496e-10,-0.9677,0,0,0.125,-0,-0,0.66667
0.36466,0.0047454,2.9173,-0.74288,-54.954,225.12,5.7792,-1.9264,-0.036849,7.7057,3.8409e-12,-0.018425,0,0,0.125,-0,-0,0.66667
0.67275,0.24439,5.382,-0.38341,-17.745,69.194,5.5028,-1.8343,-1.4798,7.337,2.7023e-12,-0.73991,0,0,0.125,-5.9212e-16,0,0.66667
0.55308,0.35718,4.4246,-0.21423,-12.574,121.2,2.5277,-0.84257,-1.8348,3.3703,-3.8636e-13,-0.91738,0,0,0.125,-0,-0,0.66667
0.40642,0.13019,3.2513,-0.55471,-39.37,200.11,4.8094,-1.6031,-0.90939,6.4126,1.541e-12,-0.45469,0,0,0.125,-0,-0,0.66667
0.39796,0.34808,3.1837,-0.22788,-16.245,204.68,1.9346,-0.64487,-1.814,2.5795,1.9107e-13,-0.90699,0,0,0.125,-0,-0,0.66667
0.61288,0.81187,4.903,0.4678,24.758,93.968,-6.1164,2.0388,-1.2228,-8.1551,-6.5103e-13,-0.61138,0,0,0.125,-1.4433e-15,0,0.66667
0.061349,0.072785,0.4908,-0.64082,-54.377,424.01,0.8387,-0.27957,-0.54158,1.1183,-2.9944e-07,-0.27079,0,0,0.125,-0,1.3074e-16,0.66667
0.7645,0.67763,6.116,0.26644,9.3121,37.751,-4.3455,1.4485,-1.7493,-5.794,5.5733e-13,-0.87466,0,0,0.125,-0,-0,0.66667
0.23365,0.93904,1.8692,0.65856,53.042,307.56,-3.2826,1.0942,-0.4613,-4.3768,2.6157e-11,-0.23065,0,0,0.125,-0,-0,0.66667
0.16594,0.55642,1.3275,0.084633,6.9744,352.33,-0.2996,0.099868,-1.9732,-0.39947,-1.1624e-09,-0.98658,0,0,0.125,-1.978e-16,0,0.66667
0.42348,0.15657,3.3879,-0.51515,-35.917,190.23,4.654,-1.5513,-1.0591,6.2053,1.4575e-12,-0.52953,0,0,0.125,-1.1842e-15,0,0.66667
0.46845,0.72071,3.7476,0.33106,21.896,164.92,-3.3085,1.1028,-1.6141,-4.4113,-1.3329e-12,-0.80706,0,0,0.125,1.1842e-15,0,0.66667
0.27444,0.64514,2.1955,0.21771,17.063,280.73,-1.2746,0.42488,-1.8294,-1.6995,9.0054e-12,-0.9147,0,0,0.125,-0,-0,0.66667
0.31013,0.37143,2.481,-0.19285,-14.769,258.04,1.2759,-0.42531,-1.869,1.7012,-4.3131e-12,-0.9345,0,0,0.125,6.8394e-16,0,0.66667
0.67315,0.48338,5.3852,-0.024926,-1.1487,68.691,0.35795,-0.11932,-1.9991,0.47726,-2.5871e-13,-0.99957,0,0,0.125,-0,-0,0.66667
0.030054,0.92243,0.24043,0.63365,53.917,445.64,-0.40627,0.13543,-0.57384,-0.54169,5.9709e-06,-0.28692,0,0,0.125,3.7007e-17,-1.4784e-16,0.66667
0.65518,0.84641,5.2415,0.51961,25.149,76.375,-7.2628,2.4209,-1.0428,-9.6837,-2.2782e-13,-0.52138,0,0,0.125,-2.3685e-15,1.7001e-16,0.66667
0.52145,0.99389,4.1716,0.74083,46.017,137.84,-8.2413,2.7471,-0.04727,-10.988,-1.8021e-12,-0.023635,0,0,0.125,2.0724e-15,0,0.66667
0.47871,0.60007,3.8297,0.15011,9.7899,159.22,-1.533,0.511,-1.9186,-2.044,7.2742e-13,-0.95929,0,0,0.125,-0,-0,0.66667
0.72049,0.077973,5.7639,-0.63304,-25.871,52.559,9.7301,-3.2434,-0.57599,12.973,7.0663e-12,-0.28799,0,0,0.125,-0,-0,0.66667
0.68825,0.062768,5.506,-0.65585,-29.365,64.037,9.6296,-3.2099,-0.47423,12.839,7.1232e-13,-0.23711,0,0,0.125,-0,-0,0.66667
0.064811,0.85186,0.51849,0.52779,44.693,421.59,-0.72974,0.24325,-1.0102,-0.97298,-1.0712e-07,-0.50511,0,0,0.125,-0,-0,0.66667
0.80024,0.17718,6.4019,-0.48423,-14.695,28.359,8.2666,-2.7555,-1.1659,11.022,-7.0628e-11,-0.58294,0,0,0.125,-0,-0,0.66667
0.039175,0.31591,0.3134,-0.27613,-23.388,439.28,0.23077,-0.076924,-1.7276,0.3077,-1.1503e-07,-0.86382,0,0,0.125,-0,-0,0.66667
0.027013,0.73317,0.2161,0.34976,29.665,447.71,-0.20156,0.067185,-1.5638,-0.26874,3.7117e-07,-0.78192,0,0,0.125,3.7007e-17,0,0.66667
0.52587,0.23344,4.2069,-0.39983,-24.517,134.88,4.4855,-1.4952,-1.4298,5.9807,5.933e-13,-0.71489,0,0,0.125,-1.1842e-15,0,0.66667
0.7348,0.49708,5.8784,-0.0043849,-0.16959,46.774,0.068736,-0.022912,-2.0034,0.091648,-2.1678e-12,-1.0017,0,0,0.125,-1.7764e-15,0,0.66667
0.50557,0.70884,4.0446,0.31326,19.748,145.16,-3.3787,1.1262,-1.6494,-4.505,-1.9007e-13,-0.82471,0,0,0.125,5.9212e-16,0,0.66667
0.29367,0.9591,2.3493,0.68866,53.634,268.9,-4.3144,1.4381,-0.31354,-5.7525,1.9922e-12,-0.15677,0,0,0.125,2.9606e-16,-1.2635e-16,0.66667
0.18618,0.37326,1.4894,-0.19011,-15.557,338.73,0.75509,-0.2517,-1.8741,1.0068,3.4264e-10,-0.93707,0,0,0.125,-4.0708e-16,0,0.66667
0.66274,0.91465,5.3019,0.62198,29.65,73.653,-8.7938,2.9313,-0.62272,-11.725,-2.2649e-13,-0.31136,0,0,0.125,-1.1842e-15,0,0.66667
0.94213,0.57844,7.537,0.11766,1.0616,2.9446,-2.3649,0.78829,-1.9493,-3.1532,-6.2156e-08,-0.97467,0,0,0.125,-1.1842e-15,0,0.66667
0.15878,0.65999,1.2702,0.23998,19.836,357.2,-0.81287,0.27096,-1.7963,-1.0838,-2.1243e-09,-0.89815,0,0,0.125,-0,-0,0.66667
0.27586,0.95722,2.2069,0.68583,54.005,280.23,-4.0362,1.3454,-0.32589,-5.3816,2.9221e-12,-0.16295,0,0,0.125,2.9606e-16,0,0.66667
0.99109,0.69236,7.9287,0.28855,0.29325,0.44832,-6.1008,2.0336,-1.7026,-8.1344,2.0225e-07,-0.85129,0,0,0.125,-0,-0,0.66667
0.83374,0.1849,6.6699,-0.47265,-12.13,20.371,8.4067,-2.8022,-1.205,11.209,-2.8608e-10,-0.6025,0,0,0.125,-5.9212e-16,0,0.66667
0.75016,0.47517,6.0013,-0.037248,-1.3682,41.9,0.5961,-0.1987,-1.9984,0.7948,-5.8947e-13,-0.99918,0,0,0.125,-2.3685e-15,0,0.66667
0.042073,0.27303,0.33659,-0.34046,-28.844,437.28,0.30558,-0.10186,-1.5867,0.40745,-9.5372e-08,-0.79336,0,0,0.125,-0,-0,0.66667
0.027017,0.59236,0.21614,0.13854,11.735,447.7,-0.079847,0.026616,-1.932,-0.10646,-8.5847e-08,-0.96598,0,0,0.125,-1.8504e-17,0,0.66667
0.48721,0.38564,3.8977,-0.17154,-11.069,154.69,1.783,-0.59433,-1.8954,2.3773,-4.8161e-13,-0.94768,0,0,0.125,-0,-0,0.66667
0.032196,0.75526,0.25757,0.38289,32.474,444.12,-0.26299,0.087663,-1.4812,-0.35065,3.0851e-07,-0.7406,0,0,0.125,-7.4015e-17,0,0.66667
0.10153,0.068736,0.8122,-0.6469,-54.536,396.37,1.4011,-0.46703,-0.5104,1.8681,-2.0537e-07,-0.2552,0,0,0.125,-0,-0,0.66667
0.56329,0.20885,4.5064,-0.43673,-25.274,116.57,5.2482,-1.7494,-1.324,6.9976,-3.4683e-13,-0.66198,0,0,0.125,-0,-0,0.66667
0.4278,0.23171,3.4224,-0.40244,-27.889,187.61,3.6729,-1.2243,-1.4222,4.8972,-4.5808e-13,-0.7111,0,0,0.125,-0,-0,0.66667
0.79087,0.71861,6.3269,0.32791,10.325,30.448,-5.5324,1.8441,-1.6173,-7.3766,1.0734e-10,-0.80867,0,0,0.125,-5.7362e-16,0,0.66667
0.27399,0.50562,2.1919,0.0084336,0.66072,280.98,-0.049295,0.016432,-1.9982,-0.065727,-1.5741e-12,-0.99908,0,0,0.125,-0,-0,0.66667
0.27245,0.50798,2.1796,0.011964,0.93814,281.97,-0.069536,0.023179,-1.9977,-0.092715,-1.2371e-12,-0.99884,0,0,0.125,-0,-0,0.66667
0.40582,0.33431,3.2466,-0.24854,-17.587,200.1,2.1517,-0.71724,-1.783,2.869,-9.992e-13,-0.89149,0,0,0.125,-0,-0,0.66667
0.67323,0.63754,5.3858,0.20631,9.5146,68.759,-2.9631,0.9877,-1.85,-3.9508,-4.4778e-12,-0.92499,0,0,0.125,1.1842e-15,0,0.66667
0.9815,0.87609,7.852,0.56413,1.6219,1.5526,-11.812,3.9374,-0.86972,-15.749,-1.7308e-06,-0.43486,0,0,0.125,2.3685e-15,-1.7873e-19,0.66667
0.39748,0.70174,3.1799,0.30262,21.596,205.01,-2.5661,0.85536,-1.6722,-3.4214,-2.0806e-13,-0.83609,0,0,0.125,-0,-0,0.66667
0.74457,0.49309,5.9566,-0.010359,-0.38785,43.642,0.16454,-0.054848,-1.9983,0.21939,-1.2301e-12,-0.99917,0,0,0.125,1.7764e-15,0,0.66667
0.85672,0.19742,6.8538,-0.45388,-10.135,15.596,8.2954,-2.7651,-1.2677,11.061,-3.4741e-09,-0.63387,0,0,0.125,-0,-0,0.66667
0.67501,0.62333,5.4,0.185,8.4925,68.058,-2.6641,0.88802,-1.8792,-3.5521,-2.2069e-12,-0.93962,0,0,0.125,-1.4803e-15,0,0.66667
0.77949,0.11469,6.2359,-0.57797,-19.216,34.181,9.6111,-3.2037,-0.81328,12.815,-6.7534e-11,-0.40664,0,0,0.125,1.1842e-15,0,0.66667
0.81192,0.48144,6.4954,-0.027839,-0.79335,24.768,0.48221,-0.16074,-1.9995,0.64294,-9.8433e-11,-0.99973,0,0,0.125,-1.1842e-15,0,0.66667
0.59693,0.29305,4.7754,-0.31043,-16.901,100.78,3.9531,-1.3177,-1.657,5.2708,-1.914e-13,-0.8285,0,0,0.125,-0,-0,0.66667
0.439,0.91189,3.512,0.61784,42.446,181.63,-5.7862,1.9287,-0.64455,-7.7149,-3.2196e-13,-0.32228,0,0,0.125,1.1842e-15,0,0.66667
0.16875,0.6492,1.35,0.22381,18.435,350.46,-0.80571,0.26857,-1.822,-1.0743,-1.1898e-09,-0.91099,0,0,0.125,3.9598e-16,0,0.66667
0.78139,0.85571,6.2511,0.53357,17.577,33.515,-8.8944,2.9648,-0.99057,-11.859,-7.125e-12,-0.49529,0,0,0.125,-0,-0,0.66667
0.19409,0.21275,1.5527,-0.43088,-35.215,333.54,1.7841,-0.5947,-1.3384,2.3788,2.5449e-10,-0.66918,0,0,0.125,-2.9606e-16,0,0.66667
0.99872,0.067145,7.9898,-0.64928,-0.046753,1.5126,13.834,-4.6112,-0.50329,18.445,2.227e-05,-0.25165,0,0,0.125,-2.3685e-15,0,0.66667
0.5426,0.83692,4.3408,0.50537,30.267,126.72,-5.85,1.95,-1.0912,-7.8,2.3936e-13,-0.5456,0,0,0.125,-0,-0,0.66667
0.0093665,0.55067,0.074932,0.076006,6.4414,459.94,-0.015188,0.0050628,-1.9775,-0.02025,4.2444e-07,-0.98873,0,0,0.125,-0,-0,0.66667
0.4188,0.72064,3.3504,0.33096,23.133,192.68,-2.9569,0.98565,-1.6115,-3.9426,3.8258e-13,-0.80573,0,0,0.125,-0,-0,0.66667
0.24105,0.44452,1.9284,-0.083227,-6.6414,302.35,0.42799,-0.14266,-1.9737,0.57065,-6.44e-12,-0.98685,0,0,0.125,-5.9212e-16,0,0.66667
0.053138,0.55421,0.4251,0.081314,6.8723,429.6,-0.092178,0.030726,-1.9748,-0.1229,1.3694e-08,-0.98738,0,0,0.125,3.7007e-17,0,0.66667
0.71613,0.503,5.7291,0.0045025,0.18454,53.022,-0.068786,0.022929,-2.001,-0.091715,-1.6397e-12,-1.0005,0,0,0.125,-0,-0,0.66667
0.31649,0.553,2.5319,0.079499,6.0585,254.02,-0.53676,0.17892,-1.9767,-0.71568,-3.1951e-12,-0.98837,0,0,0.125,-2.9606e-16,0,0.66667
0.82107,0.47779,6.5686,-0.033312,-0.90688,22.584,0.5835,-0.1945,-1.9941,0.77801,-1.9854e-10,-0.99705,0,0,0.125,-0,-0,0.66667
0.76442,0.10543,6.1154,-0.59186,-20.863,38.533,9.6518,-3.2173,-0.75604,12.869,5.7643e-13,-0.37802,0,0,0.125,-1.1842e-15,-1.5927e-16,0.66667
0.065672,0.63317,0.52537,0.19975,16.863,420.94,-0.27985,0.093282,-1.8581,-0.37313,1.1572e-09,-0.92903,0,0,0.125,-0,-0,0.66667
0.71272,0.63446,5.7018,0.20169,8.3592,54.303,-3.0667,1.0222,-1.8536,-4.0889,-8.0242e-12,-0.9268,0,0,0.125,-1.1842e-15,0,0.66667
0.19497,0.38152,1.5598,-0.17772,-14.491,332.84,0.73921,-0.2464,-1.886,0.98562,2.9601e-10,-0.94299,0,0,0.125,-0,-0,0.66667
0.77656,0.66816,6.2125,0.25223,8.4136,34.253,-4.1786,1.3929,-1.7724,-5.5715,2.8574e-11,-0.88621,0,0,0.125,1.1842e-15,0,0.66667
0.25043,0.5076,2.0034,0.011397,0.90488,296.22,-0.060888,0.020296,-2.0023,-0.081183,-6.189e-13,-1.0012,0,0,0.125,1.1842e-15,0,0.66667
0.40375,0.97453,3.23,0.7118,50.797,201.95,-6.1309,2.0436,-0.19935,-8.1745,3.7002e-12,-0.099673,0,0,0.125,-1.1842e-15,0,0.66667
0.8833,0.82686,7.0664,0.49029,9.0317,11.014,-9.2388,3.0796,-1.143,-12.318,4.377e-09,-0.57152,0,0,0.125,-0,-0,0.66667
0.65698,0.97919,5.2558,0.71879,34.828,76.235,-10.074,3.3581,-0.16516,-13.432,-7.967e-13,-0.082582,0,0,0.125,-0,-0,0.66667
0.081501,0.95598,0.65201,0.68396,57.91,410.14,-1.1892,0.3964,-0.33611,-1.5856,-3.703e-08,-0.16806,0,0,0.125,-0,-0,0.66667
0.13451,0.37497,1.076,-0.18754,-15.612,373.67,0.53815,-0.17938,-1.8746,0.71754,6.4135e-09,-0.93729,0,0,0.125,-3.1861e-16,0,0.66667
0.007682,0.092827,0.061456,-0.61076,-51.995,461.12,0.10009,-0.033358,-0.67289,0.13345,7.9215e-06,-0.33645,0,0,0.125,-0,-0,0.66667
0.98219,0.018289,7.8575,-0.72257,-2.1464,2.2404,15.14,-5.0467,-0.14407,20.187,2.46e-06,-0.072034,0,0,0.125,-0,-1.4373e-16,0.66667
0.047674,0.90892,0.38139,0.61338,52.105,433.45,-0.62384,0.20795,-0.66532,-0.83178,-1.3043e-06,-0.33266,0,0,0.125,1.4803e-16,0,0.66667
0.10538,0.80014,0.84303,0.45022,37.824,393.65,-1.0121,0.33737,-1.2783,-1.3495,-1.9877e-08,-0.63916,0,0,0.125,-0,-0,0.66667
0.45747,0.79156,3.6597,0.43734,29.341,171.06,-4.2681,1.4227,-1.3189,-5.6908,-4.7384e-13,-0.65944,0,0,0.125,1.1842e-15,0,0.66667
0.054401,0.030179,0.4352,-0.70473,-59.911,428.82,0.81787,-0.27263,-0.23333,1.0905,-7.2935e-06,-0.11666,0,0,0.125,2.7756e-17,0,0.66667
0.28909,0.93075,2.3127,0.64612,50.431,271.75,-3.9847,1.3282,-0.51391,-5.313,-1.4289e-12,-0.25695,0,0,0.125,2.3144e-17,0,0.66667
0.67797,0.15526,5.4238,-0.5171,-23.685,67.488,7.4791,-2.493,-1.0487,9.9721,3.5749e-13,-0.52435,0,0,0.125,-0,-0,0.66667
0.048629,0.10223,0.38903,-0.59665,-50.666,432.78,0.61897,-0.20632,-0.73544,0.8253,6.4132e-07,-0.36772,0,0,0.125,-0,-0,0.66667
0.45797,0.27436,3.6638,-0.33847,-22.667,170.66,3.3068,-1.1023,-1.5917,4.4091,5.0981e-13,-0.79583,0,0,0.125,-2.9606e-16,0,0.66667
0.57276,0.1317,4.5821,-0.55245,-31.53,112.33,6.7503,-2.2501,-0.91362,9.0003,-6.5903e-13,-0.45681,0,0,0.125,-0,-0,0.66667
0.19927,0.979,1.5941,0.7185,58.843,330.32,-3.0544,1.0181,-0.16368,-4.0725,3.8664e-10,-0.08184,0,0,0.125,-0,-0,0.66667
0.18617,0.27618,1.4893,-0.33574,-27.5,338.79,1.3334,-0.44447,-1.6013,1.7779,5.0362e-10,-0.80064,0,0,0.125,1.8425e-16,0,0.66667
0.10269,0.15264,0.8215,-0.52104,-43.836,395.52,1.1414,-0.38047,-1.0335,1.5219,3.7098e-08,-0.51677,0,0,0.125,1.8504e-16,0,0.66667
0.0688,0.62323,0.5504,0.18485,15.598,418.78,-0.27131,0.090435,-1.8777,-0.36174,-9.1902e-09,-0.93887,0,0,0.125,7.4015e-17,0,0.66667
0.16898,0.44195,1.3519,-0.087082,-7.1687,350.27,0.31393,-0.10464,-1.9737,0.41858,1.1927e-09,-0.98684,0,0,0.125,-0,-0,0.66667
0.060817,0.56416,0.48653,0.09624,8.1269,424.29,-0.12486,0.041621,-1.9693,-0.16649,1.3361e-07,-0.98467,0,0,0.125,-0,-0,0.66667
0.55168,0.48582,4.4134,-0.02127,-1.2502,121.79,0.25033,-0.083442,-1.9969,0.33377,-1.4843e-12,-0.99844,0,0,0.125,-0,-0,0.66667
0.80791,0.36717,6.4632,-0.19925,-5.7969,25.869,3.4342,-1.1447,-1.8578,4.5789,-3.6424e-10,-0.92892,0,0,0.125,-5.9212e-16,0,0.66667
0.80434,0.79191,6.4347,0.43787,13.023,27.195,-7.5135,2.5045,-1.3162,-10.018,1.8647e-10,-0.65809,0,0,0.125,-2.3685e-15,0,0.66667
0.63118,0.95628,5.0495,0.68443,35.07,86.676,-9.2159,3.072,-0.33243,-12.288,6.2439e-13,-0.16622,0,0,0.125,-1.1842e-15,0,0.66667
0.54175,0.27632,4.334,-0.33551,-20.071,126.87,3.8776,-1.2925,-1.5989,5.1702,-5.0848e-13,-0.79943,0,0,0.125,2.9606e-16,0,0.66667
0.46714,0.39516,3.7371,-0.15726,-10.404,165.49,1.5672,-0.5224,-1.9132,2.0896,1.5832e-13,-0.95659,0,0,0.125,-0,-0,0.66667
0.96014,0.44631,7.6811,-0.080539,-0.49057,1.5443,1.6497,-0.54989,-1.975,2.1996,5.6279e-08,-0.98751,0,0,0.125,-0,-0,0.66667
0.2899,0.52914,2.3192,0.043714,3.3913,270.8,-0.27035,0.090115,-1.9922,-0.36046,-1.3736e-12,-0.99612,0,0,0.125,7.4015e-16,0,0.66667
0.36643,0.44034,2.9315,-0.089489,-6.5596,223.35,0.69956,-0.23319,-1.9704,0.93274,-2.5902e-12,-0.98521,0,0,0.125,-0,-0,0.66667
0.57534,0.97488,4.6027,0.71232,40.623,111.53,-8.743,2.9143,-0.1964,-11.657,5.4179e-14,-0.098202,0,0,0.125,-0,-0,0.66667
0.51258,0.54727,4.1006,0.07091,4.4202,141.37,-0.7754,0.25847,-1.9818,-1.0339,-3.1636e-13,-0.99088,0,0,0.125,5.9212e-16,0,0.66667
0.67424,0.021483,5.3939,-0.71778,-33.371,69.506,10.324,-3.4414,-0.16864,13.766,-9.8588e-14,-0.084321,0,0,0.125,-0,-0,0.66667
0.77467,0.9113,6.1974,0.61695,20.936,35.659,-10.196,3.3986,-0.64529,-13.594,1.0244e-10,-0.32264,0,0,0.125,-0,-0,0.66667
0.18244,0.86178,1.4595,0.54267,44.616,341.4,-2.1121,0.70404,-0.95129,-2.8162,-9.625e-10,-0.47564,0,0,0.125,-2.9606e-16,0,0.66667
0.6289,0.1619,5.0312,-0.50715,-26,87.166,6.8041,-2.268,-1.0852,9.0722,1.8483e-12,-0.54261,0,0,0.125,-2.3685e-15,0,0.66667
0.69402,0.58745,5.5522,0.13118,5.728,60.903,-1.9422,0.64741,-1.9373,-2.5896,-3.4854e-12,-0.96863,0,0,0.125,-0,-0,0.66667
0.27231,0.79202,2.1785,0.43804,34.439,282.24,-2.5447,0.84822,-1.3157,-3.3929,1.1574e-11,-0.65787,0,0,0.125,-0,-0,0.66667
0.92808,0.17284,7.4246,-0.49073,-5.6433,5.0564,9.7161,-3.2387,-1.1417,12.955,-1.1849e-07,-0.57084,0,0,0.125,1.1842e-15,0,0.66667
0.34525,0.51288,2.762,0.019322,1.441,236.21,-0.14231,0.047437,-1.9998,-0.18975,-4.0523e-12,-0.99991,0,0,0.125,1.1842e-15,0,0.66667
0.63808,0.87711,5.1046,0.56566,28.475,83.46,-7.7,2.5667,-0.86366,-10.267,-1.4433e-12,-0.43183,0,0,0.125,-0,-0,0.66667
0.9258,0.6681,7.4064,0.25216,2.9444,4.7161,-4.9801,1.66,-1.773,-6.6402,1.789e-08,-0.88651,0,0,0.125,-0,-0,0.66667
0.98063,0.70771,7.845,0.31157,0.86959,0.81249,-6.5181,2.1727,-1.6541,-8.6908,-1.5732e-07,-0.82705,0,0,0.125,-1.1842e-15,0,0.66667
0.24873,0.16139,1.9898,-0.50792,-40.501,297.56,2.6951,-0.89837,-1.0848,3.5935,-4.6322e-11,-0.54242,0,0,0.125,-0,-0,0.66667
0.94195,0.0028303,7.5356,-0.74575,-7.1687,4.7762,14.986,-4.9953,-0.022374,19.981,-1.7205e-06,-0.011187,0,0,0.125,-0,-0,0.66667
0.90908,0.0056606,7.2726,-0.74151,-10.973,8.28,14.381,-4.7935,-0.045538,19.174,-1.7221e-08,-0.022769,0,0,0.125,-0,-0,0.66667
0.25098,0.69021,2.0078,0.28532,22.671,295.94,-1.5276,0.50921,-1.7134,-2.0369,1.2247e-11,-0.8567,0,0,0.125,-5.9212e-16,0,0.66667
0.10105,0.12034,0.80842,-0.5695,-47.96,396.67,1.2277,-0.40924,-0.8454,1.6369,6.014e-09,-0.4227,0,0,0.125,1.8504e-16,0,0.66667
0.36236,0.45733,2.8989,-0.064002,-4.7073,225.8,0.49476,-0.16492,-1.9852,0.65967,-1.0248e-12,-0.99262,0,0,0.125,5.9212e-16,0,0.66667
0.92363,0.63064,7.389,0.19596,2.3501,4.8721,-3.8612,1.2871,-1.865,-5.1482,1.9826e-08,-0.9325,0,0,0.125,-0,-0,0.66667
0.84527,0.95444,6.7622,0.68165,16.539,18.651,-12.292,4.0973,-0.34899,-16.389,9.6596e-09,-0.17449,0,0,0.125,-0,-0,0.66667
0.25812,0.29777,2.065,-0.30335,-24.013,291.31,1.6704,-0.55681,-1.6705,2.2272,-1.2624e-11,-0.83526,0,0,0.125,-3.0568e-16,0,0.66667
0.27562,0.96631,2.205,0.69947,55.1,280.41,-4.1128,1.3709,-0.25976,-5.4837,-1.2745e-13,-0.12988,0,0,0.125,6.6613e-16,0,0.66667
0.29828,0.38595,2.3862,-0.17108,-13.205,265.51,1.0886,-0.36287,-1.8973,1.4515,-3.589e-12,-0.94864,0,0,0.125,-0,-0,0.66667
0.081417,0.65253,0.65134,0.22879,19.273,410.08,-0.39738,0.13246,-1.8143,-0.52984,-1.7363e-08,-0.90716,0,0,0.125,7.4015e-17,0,0.66667
0.16833,0.73778,1.3467,0.35666,29.412,350.78,-1.2808,0.42694,-1.547,-1.7078,-1.2438e-09,-0.77352,0,0,0.125,2.9606e-16,0,0.66667
0.61444,0.93696,4.9155,0.65544,34.725,93.75,-8.5915,2.8638,-0.47245,-11.455,-4.059e-13,-0.23622,0,0,0.125,-1.7023e-15,0,0.66667
0.4924,0.90732,3.9392,0.61098,39.377,152.54,-6.4181,2.1394,-0.67188,-8.5574,9.0861e-13,-0.33594,0,0,0.125,-1.1842e-15,0,0.66667
0.41191,0.2003,3.2952,-0.44955,-31.685,196.78,3.9503,-1.3168,-1.2796,5.2671,3.3529e-14,-0.6398,0,0,0.125,-5.9212e-16,0,0.66667
0.5157,0.56419,4.1256,0.096291,5.9763,139.77,-1.0594,0.35312,-1.9712,-1.4125,1.3903e-12,-0.98559,0,0,0.125,1.1842e-15,0,0.66667
0.88736,0.49583,7.0989,-0.0062554,-0.10982,9.6124,0.11842,-0.039473,-2.0002,0.15789,-5.0814e-09,-1.0001,0,0,0.125,-0,-0,0.66667
0.9551,0.1493,7.6408,-0.52605,-3.7848,2.8043,10.719,-3.5729,-1.0172,14.291,-5.7356e-07,-0.5086,0,0,0.125,5.9212e-16,0,0.66667
0.25568,0.73144,2.0454,0.34715,27.528,292.92,-1.8935,0.63118,-1.5696,-2.5247,1.3494e-11,-0.78482,0,0,0.125,-0,-0,0.66667
0.23367,0.23431,1.8693,-0.39854,-31.985,307.32,1.9866,-0.66222,-1.4373,2.6489,-2.5029e-12,-0.71863,0,0,0.125,-2.9606e-16,0,0.66667
0.070154,0.19109,0.56123,-0.46336,-39.178,417.89,0.69347,-0.23116,-1.2353,0.92463,9.1201e-08,-0.61766,0,0,0.125,-0,-0,0.66667
0.2597,0.13872,2.0776,-0.54193,-42.974,290.47,3.0024,-1.0008,-0.95381,4.0032,-1.7224e-11,-0.47691,0,0,0.125,-0,-0,0.66667
0.17421,0.29027,1.3937,-0.31459,-25.879,346.8,1.1692,-0.38973,-1.6487,1.5589,1.0102e-09,-0.82434,0,0,0.125,2.9606e-16,0,0.66667
0.027562,0.31251,0.2205,-0.28124,-23.84,447.33,0.16537,-0.055123,-1.7196,0.22049,-1.9771e-07,-0.85981,0,0,0.125,-0,-0,0.66667
0.17447,0.00024811,1.3958,-0.74963,-62.021,346.92,2.7901,-0.93004,-0.0036575,3.7202,9.1216e-10,-0.0018287,0,0,0.125,-0,-0,0.66667
0.78046,0.34589,6.2436,-0.23116,-7.5885,33.133,3.8487,-1.2829,-1.8132,5.1316,-6.0747e-11,-0.90659,0,0,0.125,2.3685e-15,0,0.66667
0.92026,0.96037,7.3621,0.69055,8.9612,6.6889,-13.557,4.519,-0.30584,-18.076,6.4914e-07,-0.15292,0,0,0.125,5.9212e-16,0,0.66667
0.72159,0.58927,5.7727,0.1339,5.4012,51.206,-2.0613,0.68709,-1.9369,-2.7484,-7.3901e-12,-0.96846,0,0,0.125,1.4803e-15,0,0.66667
0.29842,0.88849,2.3874,0.58273,45.163,265.75,-3.7098,1.2366,-0.7937,-4.9464,4.9574e-12,-0.39685,0,0,0.125,-5.9212e-16,0,0.66667
0.63146,0.25681,5.0517,-0.36478,-18.554,85.807,4.914,-1.638,-1.5253,6.5521,-4.4098e-13,-0.76263,0,0,0.125,-0,-0,0.66667
0.77018,0.0001895,6.1615,-0.74972,-26.026,37.437,12.318,-4.1061,-0.0017805,16.424,4.5969e-11,-0.00089027,0,0,0.125,-0,-0,0.66667
0.4425,0.25967,3.54,-0.3605,-24.577,179.27,3.4031,-1.1344,-1.5365,4.5375,2.7134e-13,-0.76827,0,0,0.125,-0,-0,0.66667
0.61945,0.28477,4.9556,-0.32285,-16.825,90.866,4.2664,-1.4221,-1.6286,5.6885,-6.426e-13,-0.81428,0,0,0.125,-0,-0,0.66667
0.57375,0.57005,4.59,0.10507,5.9544,111.26,-1.2861,0.42869,-1.9599,-1.7147,-3.0437e-12,-0.97995,0,0,0.125,1.1842e-15,0,0.66667
0.90274,0.61167,7.2219,0.16751,2.5523,7.4404,-3.2259,1.0753,-1.8995,-4.3012,1.0849e-08,-0.94977,0,0,0.125,-0,-0,0.66667
0.75239,0.17289,6.0191,-0.49067,-18.004,41.85,7.8757,-2.6252,-1.1442,10.501,2.1219e-11,-0.5721,0,0,0.125,-0,-0,0.66667
0.26495,0.048723,2.1196,-0.67692,-53.635,287.23,3.8262,-1.2754,-0.37286,5.1016,1.1995e-12,-0.18643,0,0,0.125,2.9606e-16,0,0.66667
0.22937,0.136,1.8349,-0.546,-43.991,310.25,2.6716,-0.89055,-0.93855,3.5622,-1.1973e-10,-0.46927,0,0,0.125,-0,-0,0.66667
0.6936,0.33972,5.5488,-0.24042,-10.52,61.158,3.5574,-1.1858,-1.7934,4.7432,4.7251e-12,-0.89669,0,0,0.125,2.9606e-16,0,0.66667
0.23301,0.65629,1.8641,0.23443,18.795,307.66,-1.1653,0.38845,-1.8075,-1.5538,1.6648e-12,-0.90377,0,0,0.125,-0,-0,0.66667
0.62193,0.28459,4.9754,-0.32311,-16.754,89.798,4.2869,-1.429,-1.6295,5.7159,1.5543e-12,-0.81474,0,0,0.125,-2.3685e-15,0,0.66667
0.25494,0.67987,2.0395,0.26981,21.39,293.35,-1.4674,0.48913,-1.74,-1.9565,1.4902e-11,-0.87001,0,0,0.125,-0,-0,0.66667
0.92042,0.50062,7.3634,0.00092674,0.011544,5.1106,-0.018197,0.0060658,-2.0027,-0.024263,1.4718e-07,-1.0014,0,0,0.125,-0,-0,0.66667
0.30256,0.49417,2.4205,-0.0087448,-0.67281,262.77,0.056443,-0.018814,-1.9985,0.075258,-3.4528e-12,-0.99924,0,0,0.125,2.9606e-16,0,0.66667
0.84854,0.45807,6.7883,-0.062901,-1.4664,16.598,1.1387,-0.37955,-1.9846,1.5182,-1.9062e-09,-0.99229,0,0,0.125,1.1842e-15,0,0.66667
0.22971,0.052843,1.8377,-0.67074,-54.138,310.15,3.2869,-1.0956,-0.39919,4.3825,-7.3559e-11,-0.1996,0,0,0.125,-0,-1.4136e-17,0.66667
0.5721,0.47714,4.5768,-0.034287,-1.9482,112.02,0.41846,-0.13949,-1.9942,0.55794,6.4337e-14,-0.99708,0,0,0.125,-0,-0,0.66667
0.1889,0.92066,1.5112,0.631,51.816,337.15,-2.5429,0.84762,-0.58554,-3.3905,3.7156e-10,-0.29277,0,0,0.125,-0,-0,0.66667
0.42001,0.78668,3.3601,0.43001,30.053,192.1,-3.853,1.2843,-1.344,-5.1373,5.2136e-13,-0.67199,0,0,0.125,-0,-0,0.66667
0.37624,0.11005,3.0099,-0.58493,-42.715,217.91,4.6949,-1.565,-0.78487,6.2599,2.6645e-13,-0.39244,0,0,0.125,-0,-0,0.66667
0.039037,0.31379,0.3123,-0.27932,-23.658,439.38,0.23261,-0.077537,-1.7217,0.31015,-1.161e-07,-0.86087,0,0,0.125,1.4803e-16,0,0.66667
0.12795,0.87577,1.0236,0.56366,47.168,378.27,-1.5386,0.51286,-0.87161,-2.0514,-4.4631e-09,-0.43581,0,0,0.125,-0,-0,0.66667
0.75376,0.24184,6.0301,-0.38724,-14.104,41.188,6.2268,-2.0756,-1.4663,8.3025,1.4101e-11,-0.73316,0,0,0.125,5.9212e-16,0,0.66667
0.41261,0.29163,3.3009,-0.31256,-21.98,196.22,2.7513,-0.91709,-1.6507,3.6684,-1.7124e-12,-0.82536,0,0,0.125,-0,-0,0.66667
0.80409,0.41005,6.4327,-0.13493,-3.9933,26.763,2.3145,-0.7715,-1.934,3.086,-1.2699e-10,-0.96699,0,0,0.125,-2.3685e-15,0,0.66667
0.6699,0.66664,5.3592,0.24996,11.628,70.093,-3.5722,1.1907,-1.7786,-4.7629,-3.8192e-12,-0.88932,0,0,0.125,-0,-0,0.66667
0.38282,0.14763,3.0626,-0.52855,-38.338,213.91,4.3166,-1.4389,-1.0047,5.7555,1.4371e-12,-0.50236,0,0,0.125,-2.9606e-16,0,0.66667
0.49483,0.50932,3.9587,0.013973,0.89223,150.6,-0.1475,0.049167,-1.9979,-0.19667,-1.7627e-12,-0.99894,0,0,0.125,-0,-0,0.66667
0.95056,0.12666,7.6044,-0.56,-4.4642,3.2618,11.356,-3.7853,-0.88637,15.141,-3.0435e-07,-0.44318,0,0,0.125,2.3685e-15,0,0.66667
0.94795,0.81977,7.5836,0.47965,3.9849,3.183,-9.6999,3.2333,-1.1808,-12.933,6.638e-08,-0.59038,0,0,0.125,2.3685e-15,0,0.66667
0.48498,0.57913,3.8799,0.1187,7.6789,155.85,-1.2281,0.40936,-1.952,-1.6374,3.0131e-13,-0.97602,0,0,0.125,-0,-0,0.66667
0.71243,0.94193,5.6995,0.66289,27.771,55.413,-10.075,3.3583,-0.43637,-13.433,-1.9753e-12,-0.21818,0,0,0.125,2.3685e-15,0,0.66667
0.74983,0.30181,5.9986,-0.29728,-10.959,42.233,4.7554,-1.5851,-1.6886,6.3405,1.5092e-11,-0.84431,0,0,0.125,-0,-0,0.66667
0.5106,0.31647,4.0848,-0.2753,-17.229,142.52,2.9988,-0.99959,-1.7298,3.9984,5.2891e-13,-0.86492,0,0,0.125,-1.1842e-15,0,0.66667
0.44701,0.71743,3.5761,0.32615,22.116,176.71,-3.1103,1.0368,-1.6212,-4.147,5.2869e-13,-0.81058,0,0,0.125,7.4015e-16,0,0.66667
0.76902,0.19985,6.1522,-0.45023,-15.53,36.789,7.3864,-2.4621,-1.2787,9.8485,2.8326e-11,-0.63935,0,0,0.125,-0,-0,0.66667
0.41563,0.8541,3.325,0.53114,37.34,194.75,-4.7095,1.5698,-0.99502,-6.2793,1.6178e-12,-0.49751,0,0,0.125,-1.1842e-15,0,0.66667
0.50009,0.39768,4.0007,-0.15349,-9.7362,147.88,1.6375,-0.54582,-1.9194,2.1833,-3.1364e-13,-0.95969,0,0,0.125,-0,-0,0.66667
0.08748,0.21866,0.69984,-0.42201,-35.567,405.94,0.78756,-0.26252,-1.3664,1.0501,2.5091e-08,-0.68319,0,0,0.125,-3.4694e-17,0,0.66667
0.90434,0.31461,7.2347,-0.27809,-4.1832,7.3812,5.365,-1.7883,-1.727,7.1534,-2.1477e-08,-0.86349,0,0,0.125,2.3685e-15,0,0.66667
0.45473,0.95554,3.6378,0.68331,46.184,173.01,-6.6287,2.2096,-0.34089,-8.8383,-7.1942e-14,-0.17045,0,0,0.125,-0,-0,0.66667
0.59906,0.65771,4.7924,0.23657,12.818,99.739,-3.0233,1.0078,-1.8006,-4.0311,-2.0004e-12,-0.90032,0,0,0.125,-0,-0,0.66667
0.070556,0.64267,0.56445,0.21401,18.056,417.57,-0.32212,0.10737,-1.8349,-0.4295,-1.217e-08,-0.91744,0,0,0.125,-0,-0,0.66667
0.52944,0.98419,4.2355,0.72629,44.578,133.78,-8.2032,2.7344,-0.12524,-10.938,3.8636e-13,-0.06262,0,0,0.125,-0,-0,0.66667
0.22131,0.21307,1.7705,-0.43039,-34.76,315.47,2.032,-0.67734,-1.3421,2.7094,6.1946e-12,-0.67106,0,0,0.125,-0,-0,0.66667
0.38519,0.50439,3.0815,0.0065848,0.47469,212.13,-0.05411,0.018037,-1.9989,-0.072146,3.9029e-12,-0.99945,0,0,0.125,-2.3685e-15,0,0.66667
0.56,0.28796,4.48,-0.31806,-18.478,117.97,3.7998,-1.2666,-1.641,5.0664,-2.2982e-13,-0.82048,0,0,0.125,1.1842e-15,0,0.66667
0.81503,0.43318,6.5203,-0.10022,-2.8138,24.041,1.7426,-0.58087,-1.9653,2.3235,-4.8313e-11,-0.98263,0,0,0.125,2.9606e-16,0,0.66667
0.26284,0.84909,2.1027,0.52364,41.44,288.42,-2.9362,0.97873,-1.0257,-3.9149,-5.8835e-12,-0.51284,0,0,0.125,-0,-0,0.66667
0.72782,0.47373,5.8225,-0.039407,-1.5585,49.075,0.61186,-0.20395,-1.9931,0.81581,2.0044e-12,-0.99655,0,0,0.125,-0,-0,0.66667
0.49204,0.3654,3.9363,-0.2019,-12.948,152.15,2.1194,-0.70645,-1.853,2.8258,1.1635e-13,-0.9265,0,0,0.125,-0,-0,0.66667
0.30424,0.35736,2.434,-0.21396,-16.453,261.76,1.3887,-0.46291,-1.835,1.8516,-4.0098e-12,-0.91748,0,0,0.125,5.9212e-16,0,0.66667
0.29041,0.19412,2.3233,-0.45881,-35.683,270.69,2.8425,-0.9475,-1.2499,3.79,-9.3567e-12,-0.62497,0,0,0.125,-0,-0,0.66667
0.2411,0.039655,1.9288,-0.69052,-55.437,302.72,3.5517,-1.1839,-0.30282,4.7356,1.8321e-11,-0.15141,0,0,0.125,-5.9212e-16,0,0.66667
0.073163,0.15515,0.58531,-0.51727,-43.746,415.83,0.80737,-0.26912,-1.0485,1.0765,1.4559e-07,-0.52425,0,0,0.125,2.0354e-16,0,0.66667
0.58112,0.341,4.649,-0.2385,-13.354,107.92,2.9567,-0.98558,-1.7986,3.9423,-1.7049e-12,-0.89929,0,0,0.125,-0,-0,0.66667
0.62494,0.43467,4.9995,-0.097991,-5.04,88.297,1.3064,-0.43547,-1.9698,1.7419,-1.1298e-12,-0.98491,0,0,0.125,1.7764e-15,0,0.66667
0.23524,0.52149,1.8819,0.03224,2.5801,306.15,-0.1618,0.053932,-1.9984,-0.21573,-6.1451e-14,-0.99918,0,0,0.125,-0,-0,0.66667
0.56429,0.40065,4.5144,-0.14902,-8.5836,115.76,1.7939,-0.59798,-1.9225,2.3919,-1.2839e-12,-0.96127,0,0,0.125,5.9212e-16,0,0.66667
0.8726,0.7893,6.9808,0.43395,8.666,12.638,-8.0781,2.6927,-1.331,-10.771,7.1178e-09,-0.66552,0,0,0.125,-0,-0,0.66667
0.80766,0.36148,6.4613,-0.20778,-6.0527,25.94,3.58,-1.1933,-1.845,4.7734,-3.6246e-10,-0.92249,0,0,0.125,-0,-0,0.66667
0.40735,0.52843,3.2588,0.042652,3.0109,199.13,-0.37065,0.12355,-1.9962,-0.4942,-3.6643e-13,-0.99811,0,0,0.125,-0,-0,0.66667
0.49622,0.41891,3.9698,-0.12163,-7.7542,149.9,1.2876,-0.4292,-1.9465,1.7168,-5.3013e-13,-0.97327,0,0,0.125,-0,-0,0.66667
0.70639,0.042664,5.6511,-0.686,-29.263,57.601,10.338,-3.4459,-0.32634,13.784,-8.2157e-13,-0.16317,0,0,0.125,-0,-0,0.66667
0.57792,0.82615,4.6234,0.48922,27.64,109.78,-6.0316,2.0105,-1.1517,-8.0422,4.6674e-13,-0.57584,0,0,0.125,-0,-2.8237e-17,0.66667
0.75469,0.004817,6.0375,-0.74277,-27.275,41.982,11.959,-3.9862,-0.037695,15.945,-3.0617e-11,-0.018847,0,0,0.125,-0,-0,0.66667
0.95016,0.2406,7.6013,-0.3891,-3.0614,2.7441,7.8872,-2.6291,-1.4617,10.516,1.9558e-08,-0.73083,0,0,0.125,-0,-0,0.66667
0.17702,0.42636,1.4162,-0.11047,-9.0681,344.86,0.41718,-0.13906,-1.9551,0.55624,4.1288e-10,-0.97753,0,0,0.125,-0,-0,0.66667
0.78926,0.94083,6.3141,0.66124,21.191,31.804,-11.134,3.7112,-0.44413,-14.845,2.094e-10,-0.22207,0,0,0.125,-2.3685e-15,0,0.66667
0.33497,0.19395,2.6797,-0.45907,-34.611,242.78,3.2805,-1.0935,-1.249,4.374,-1.283e-12,-0.62452,0,0,0.125,-0,-0,0.66667
0.56378,0.40497,4.5103,-0.14254,-8.2171,116,1.7144,-0.57146,-1.9305,2.2858,-7.4984e-13,-0.96527,0,0,0.125,3.7007e-16,0,0.66667
0.20689,0.20808,1.6551,-0.43789,-35.599,325.02,1.9327,-0.64423,-1.3175,2.5769,9.7736e-11,-0.65875,0,0,0.125,2.9606e-16,0,0.66667
0.74097,0.045532,5.9278,-0.6817,-26.164,46.009,10.776,-3.592,-0.34551,14.368,4.5874e-12,-0.17275,0,0,0.125,-0,-0,0.66667
0.98,0.51363,7.84,0.020449,0.05717,0.49929,-0.42753,0.14251,-1.9972,-0.57003,2.351e-08,-0.99862,0,0,0.125,-0,-0,0.66667
0.83333,0.19865,6.6666,-0.45203,-11.619,20.404,8.0361,-2.6787,-1.2719,10.715,-5.9351e-10,-0.63595,0,0,0.125,-0,-0,0.66667
0.62051,0.48939,4.9641,-0.015914,-0.82584,90.177,0.21066,-0.070221,-1.9979,0.28088,-2.573e-12,-0.99896,0,0,0.125,1.1842e-15,0,0.66667
0.49211,0.53688,3.9369,0.055317,3.5452,152.05,-0.58074,0.19358,-1.9875,-0.77432,3.7875e-13,-0.99376,0,0,0.125,1.1842e-15,0,0.66667
0.52358,0.46563,4.1886,-0.051553,-3.1633,135.75,0.57583,-0.19194,-1.9893,0.76777,-2.8939e-12,-0.99467,0,0,0.125,1.4803e-16,0,0.66667
0.93153,0.69868,7.4523,0.29802,3.2167,4.1972,-5.9224,1.9741,-1.6823,-7.8965,2.646e-08,-0.84117,0,0,0.125,-0,-0,0.66667
0.15835,0.40239,1.2668,-0.14642,-12.099,357.47,0.49462,-0.16487,-1.9252,0.6595,1.7529e-09,-0.96261,0,0,0.125,-7.4015e-17,0,0.66667
0.59051,0.34256,4.7241,-0.23616,-13.001,103.6,2.9751,-0.9917,-1.8026,3.9668,-1.1613e-12,-0.90131,0,0,0.125,-1.1842e-15,0,0.66667
0.63801,0.24598,5.104,-0.38104,-19.115,83.094,5.1862,-1.7287,-1.4847,6.915,-5.7732e-15,-0.74235,0,0,0.125,-0,-0,0.66667
0.90792,0.27379,7.2634,-0.33932,-4.9292,7.0251,6.5722,-2.1907,-1.592,8.763,-2.699e-08,-0.796,0,0,0.125,-1.1842e-15,0,0.66667
0.2694,0.3406,2.1552,-0.2391,-18.797,283.99,1.3741,-0.45805,-1.7969,1.8322,-1.5551e-11,-0.89845,0,0,0.125,4.4409e-16,0,0.66667
0.71075,0.50843,5.686,0.012651,0.52683,54.887,-0.19183,0.063942,-1.9975,-0.25577,-6.5145e-13,-0.99875,0,0,0.125,-0,-0,0.66667
0.35033,0.7624,2.8026,0.3936,29.299,233.3,-2.9416,0.98053,-1.4471,-3.9221,1.8869e-12,-0.72354,0,0,0.125,-5.9212e-16,0,0.66667
0.36439,0.96919,2.9151,0.70378,52.033,225.21,-5.4709,1.8236,-0.23888,-7.2945,2.4802e-12,-0.11944,0,0,0.125,-0,-0,0.66667
0.081405,0.23915,0.65124,-0.39128,-33.002,410.12,0.67952,-0.22651,-1.4552,0.90602,4.0822e-08,-0.72762,0,0,0.125,-0,-0,0.66667
0.3283,0.55945,2.6264,0.08917,6.7377,246.66,-0.62453,0.20818,-1.9755,-0.8327,-2.6469e-12,-0.98775,0,0,0.125,-0,-0,0.66667
0.32443,0.42529,2.5954,-0.11206,-8.4921,249.07,0.77559,-0.25853,-1.9546,1.0341,-9.5646e-13,-0.97729,0,0,0.125,-0,-0,0.66667
0.029581,0.22891,0.23665,-0.40663,-34.501,445.94,0.25661,-0.085536,-1.4132,0.34214,-5.1288e-07,-0.70661,0,0,0.125,-0,-0,0.66667
0.54957,0.33671,4.3965,-0.24494,-14.461,122.93,2.8717,-0.95724,-1.7871,3.829,-6.5148e-13,-0.89356,0,0,0.125,-0,-0,0.66667
0.70674,0.3877,5.654,-0.16844,-7.101,56.365,2.5397,-0.84655,-1.8984,3.3862,5.1734e-12,-0.94919,0,0,0.125,1.1842e-15,0,0.66667
0.4985,0.88039,3.988,0.57059,36.45,149.25,-6.068,2.0227,-0.84425,-8.0907,-3.2863e-13,-0.42212,0,0,0.125,1.1842e-15,-1.8589e-16,0.66667
0.5273,0.29545,4.2184,-0.30682,-18.753,134.04,3.4515,-1.1505,-1.6643,4.602,6.5725e-13,-0.83213,0,0,0.125,1.1842e-15,0,0.66667
0.10581,0.53832,0.84652,0.057485,4.8171,393.28,-0.12977,0.043255,-1.988,-0.17302,1.5379e-08,-0.994,0,0,0.125,-0,-0,0.66667
0.68474,0.87934,5.478,0.56901,25.648,65.079,-8.3121,2.7707,-0.84957,-11.083,-1.7017e-12,-0.42478,0,0,0.125,-0,2.8568e-18,0.66667
0.47114,0.11289,3.7691,-0.58066,-38.415,163.83,5.8363,-1.9454,-0.80147,7.7817,-7.6561e-13,-0.40073,0,0,0.125,-5.9212e-16,0,0.66667
0.22927,0.8793,1.8342,0.56895,45.858,310.34,-2.7828,0.9276,-0.84825,-3.7104,1.6645e-10,-0.42413,0,0,0.125,-5.9212e-16,0,0.66667
0.85572,0.85186,6.8458,0.52778,11.903,16.01,-9.6349,3.2116,-1.0091,-12.847,2.7654e-09,-0.50457,0,0,0.125,-0,-0,0.66667
0.56519,0.76802,4.5215,0.40204,23.181,115.61,-4.8475,1.6158,-1.4253,-6.4634,1.0392e-13,-0.71264,0,0,0.125,-0,-0,0.66667
0.99916,0.89649,7.9933,0.59473,-0.043826,1.2665,-12.677,4.2256,-0.7445,-16.903,-6.1636e-06,-0.37225,0,0,0.125,-0,-0,0.66667
0.077097,0.31797,0.61678,-0.27304,-23.023,413.06,0.44908,-0.14969,-1.7373,0.59878,2.6112e-08,-0.86864,0,0,0.125,-0,-0,0.66667
0.515,0.17398,4.12,-0.48903,-30.499,140.55,5.3729,-1.791,-1.1518,7.1638,1.8563e-12,-0.57591,0,0,0.125,-0,2.7718e-17,0.66667
0.30396,0.20562,2.4316,-0.44158,-34.031,262.1,2.8633,-0.95445,-1.3045,3.8178,-4.6465e-12,-0.65224,0,0,0.125,-5.9212e-16,0,0.66667
0.86161,0.78636,6.8929,0.42953,9.2746,14.605,-7.8953,2.6318,-1.3451,-10.527,5.112e-09,-0.67256,0,0,0.125,-0,-0,0.66667
0.16178,0.44413,1.2942,-0.083803,-6.9158,355.14,0.28922,-0.096407,-1.9737,0.38563,9.471e-10,-0.98687,0,0,0.125,5.9212e-16,0,0.66667
0.0013843,0.43984,0.011074,-0.090236,-7.6483,465.48,0.0026645,-0.00088991,-1.9735,0.0035518,-2.6196e-06,-0.98675,0,0,0.125,-0,-0,0.66667
0.44299,0.16485,3.5439,-0.50272,-34.319,179.19,4.7509,-1.5836,-1.0999,6.3345,-1.3083e-12,-0.54996,0,0,0.125,1.1842e-15,0,0.66667
0.67716,0.99973,5.4173,0.7496,34.634,68.507,-10.829,3.6096,-0.0020252,-14.438,-1.001e-12,-0.0010126,0,0,0.125,2.1834e-15,0,0.66667
0.96791,0.35873,7.7433,-0.2119,-1.0282,1.2138,4.3755,-1.4585,-1.8422,5.834,9.4236e-08,-0.9211,0,0,0.125,-0,-0,0.66667
0.62011,0.12849,4.9609,-0.55726,-29.121,91.034,7.372,-2.4573,-0.89532,9.8293,-2.6774e-12,-0.44766,0,0,0.125,2.3685e-15,0,0.66667
0.19035,0.92635,1.5228,0.63953,52.494,336.18,-2.5971,0.86569,-0.54571,-3.4628,-2.395e-11,-0.27285,0,0,0.125,-0,-0,0.66667
0.36217,0.29186,2.8974,-0.31221,-22.997,226.03,2.4122,-0.80408,-1.6534,3.2163,-3.014e-12,-0.82672,0,0,0.125,-0,-0,0.66667
0.78006,0.16497,6.2405,-0.50254,-16.628,33.796,8.3629,-2.7876,-1.1038,11.151,2.1258e-11,-0.55191,0,0,0.125,-0,-0,0.66667
0.32974,0.15921,2.6379,-0.51119,-38.719,246.07,3.596,-1.1987,-1.073,4.7946,-5.7145e-12,-0.53649,0,0,0.125,1.1842e-15,0,0.66667
0.16424,0.31847,1.3139,-0.27229,-22.471,353.51,0.95407,-0.31802,-1.7347,1.2721,1.6746e-09,-0.86736,0,0,0.125,-0,-0,0.66667
0.28507,0.99317,2.2806,0.73975,57.984,274.43,-4.4988,1.4996,-0.053894,-5.9984,8.3356e-13,-0.026947,0,0,0.125,-0,-0,0.66667
0.04034,0.82931,0.32272,0.49397,41.92,438.5,-0.42511,0.1417,-1.1303,-0.56681,-3.549e-07,-0.56513,0,0,0.125,-0,-0,0.66667
0.75512,0.97231,6.0409,0.70847,25.939,41.719,-11.413,3.8043,-0.2147,-15.217,3.2723e-11,-0.10735,0,0,0.125,2.3685e-15,0,0.66667
0.28529,0.94636,2.2823,0.66953,52.404,274.19,-4.0749,1.3583,-0.40536,-5.4332,2.8013e-12,-0.20268,0,0,0.125,-0,-0,0.66667
0.7645,0.31156,6.116,-0.28265,-9.8814,37.776,4.6099,-1.5366,-1.719,6.1465,5.0049e-13,-0.85948,0,0,0.125,-1.1842e-15,0,0.66667
0.84257,0.63037,6.7406,0.19556,4.7344,17.93,-3.5152,1.1717,-1.8662,-4.6869,1.8529e-09,-0.9331,0,0,0.125,-2.3685e-15,0,0.66667
0.45502,0.68833,3.6401,0.28249,18.974,172.23,-2.7421,0.91405,-1.7185,-3.6562,-1.6593e-12,-0.85924,0,0,0.125,1.1842e-15,0,0.66667
0.85839,0.65863,6.8671,0.23794,5.2186,14.821,-4.3573,1.4524,-1.8016,-5.8097,4.2377e-09,-0.9008,0,0,0.125,-0,-0,0.66667
0.99143,0.94876,7.9314,0.67314,0.90386,1.7444,-14.237,4.7457,-0.38681,-18.983,2.8748e-05,-0.19341,0,0,0.125,-0,-0,0.66667
0.94175,0.82043,7.534,0.48064,4.4737,3.7049,-9.6564,3.2188,-1.1778,-12.875,5.8372e-08,-0.58891,0,0,0.125,-0,-0,0.66667
0.97927,0.49542,7.8342,-0.0068697,-0.020036,0.52632,0.14352,-0.047838,-1.999,0.19136,7.9387e-07,-0.9995,0,0,0.125,-3.5527e-15,0,0.66667
0.95065,0.89175,7.6052,0.58762,4.6942,3.3613,-11.917,3.9725,-0.7724,-15.89,3.8412e-07,-0.3862,0,0,0.125,1.1842e-15,0,0.66667
0.96389,0.84945,7.7111,0.52417,3.0159,2.2305,-10.779,3.5928,-1.0222,-14.371,1.7605e-07,-0.5111,0,0,0.125,-0,-0,0.66667
0.69794,0.65299,5.5835,0.22948,9.9222,59.571,-3.4168,1.1389,-1.8121,-4.5557,-7.1998e-12,-0.90606,0,0,0.125,1.1842e-15,0,0.66667
0.15618,0.43843,1.2495,-0.092353,-7.6355,358.92,0.30771,-0.10257,-1.974,0.41028,3.3343e-11,-0.987,0,0,0.125,-0,-0,0.66667
0.64676,0.28654,5.1741,-0.32019,-15.741,79.392,4.4178,-1.4726,-1.6342,5.8904,1.7391e-12,-0.81708,0,0,0.125,-2.3685e-15,0,0.66667
0.99073,0.98547,7.9258,0.7282,1.1229,2.0316,-15.391,5.1303,-0.1126,-20.521,3.2483e-05,-0.0563,0,0,0.125,-1.1842e-15,0,0.66667
0.24429,0.35672,1.9543,-0.21492,-17.13,300.26,1.12,-0.37334,-1.8339,1.4934,-9.0562e-12,-0.91695,0,0,0.125,-0,-0,0.66667
0.68176,0.52694,5.4541,0.040405,1.8218,65.413,-0.58766,0.19589,-1.9932,-0.78355,-2.0348e-12,-0.99658,0,0,0.125,1.1842e-15,0,0.66667
0.12926,0.94433,1.0341,0.66649,55.842,377.43,-1.8379,0.61264,-0.4199,-2.4505,8.2487e-10,-0.20995,0,0,0.125,-0,-0,0.66667
0.99818,0.4018,7.9855,-0.1473,0.036999,0.099874,3.1367,-1.0456,-1.9245,4.1822,-8.3054e-07,-0.96225,0,0,0.125,1.7764e-15,0,0.66667
0.41986,0.3835,3.3589,-0.17476,-12.187,191.95,1.5653,-0.52176,-1.8923,2.0871,-1.5092e-12,-0.94616,0,0,0.125,-0,-0,0.66667
0.35068,0.69955,2.8054,0.29933,22.255,233,-2.2393,0.74644,-1.6793,-2.9857,6.4837e-13,-0.83964,0,0,0.125,-5.9212e-16,0,0.66667
0.20659,0.19178,1.6527,-0.46233,-37.601,325.23,2.0376,-0.6792,-1.2402,2.7168,8.2179e-11,-0.62011,0,0,0.125,-5.9212e-16,0,0.66667
0.85016,0.0082616,6.8013,-0.73761,-17.436,17.905,13.378,-4.4593,-0.063789,17.837,2.4604e-09,-0.031894,0,0,0.125,-0,-0,0.66667
0.6124,0.82578,4.8992,0.48866,25.896,94.22,-6.3842,2.1281,-1.1506,-8.5123,-8.1224e-13,-0.57532,0,0,0.125,-0,-0,0.66667
0.57534,0.67458,4.6027,0.26187,14.815,110.64,-3.2141,1.0714,-1.7561,-4.2855,-1.1253e-12,-0.87804,0,0,0.125,-0,-0,0.66667
0.24805,0.19061,1.9844,-0.46409,-36.999,297.96,2.4558,-0.81861,-1.2359,3.2744,3.5456e-12,-0.61796,0,0,0.125,5.9212e-16,0,0.66667
0.13351,0.054195,1.0681,-0.66871,-55.966,374.54,1.9046,-0.63486,-0.40817,2.5394,-3.7371e-08,-0.20409,0,0,0.125,-0,-0,0.66667
0.064967,0.69842,0.51973,0.29763,25.144,421.44,-0.4125,0.1375,-1.6853,-0.54999,-1.5695e-08,-0.84267,0,0,0.125,-1.4803e-16,0,0.66667
0.60725,0.31245,4.858,-0.28132,-15.013,96.138,3.6444,-1.2148,-1.7208,4.8593,7.6605e-13,-0.86038,0,0,0.125,-1.6718e-15,0,0.66667
0.72959,0.57936,5.8367,0.11904,4.6832,48.518,-1.8528,0.61762,-1.9481,-2.4705,-7.7812e-12,-0.97405,0,0,0.125,-0,-0,0.66667
0.4249,0.43766,3.3992,-0.093517,-6.4856,189.03,0.84768,-0.28256,-1.9702,1.1302,-1.0368e-12,-0.98512,0,0,0.125,-0,-0,0.66667
0.099,0.91922,0.792,0.62883,53.026,398.1,-1.3281,0.4427,-0.59232,-1.7708,4.6312e-08,-0.29616,0,0,0.125,-0,-0,0.66667
0.089276,0.6007,0.7142,0.15104,12.702,404.66,-0.28767,0.09589,-1.9181,-0.38356,-2.4886e-08,-0.95903,0,0,0.125,-0,-0,0.66667
0.52952,0.48026,4.2362,-0.029606,-1.8008,132.75,0.33444,-0.11148,-1.9979,0.44592,-7.8354e-13,-0.99893,0,0,0.125,-0,-0,0.66667
0.33597,0.25846,2.6878,-0.36231,-27.265,242.07,2.5968,-0.86559,-1.5313,3.4624,-2.6241e-12,-0.76567,0,0,0.125,-0,-0,0.66667
0.6614,0.58679,5.2912,0.13019,6.1762,73.312,-1.837,0.61233,-1.9386,-2.4493,-2.6055e-12,-0.96928,0,0,0.125,-0,-0,0.66667
0.9539,0.7147,7.6312,0.32206,2.3224,2.303,-6.5538,2.1846,-1.6341,-8.7383,-8.0752e-08,-0.81704,0,0,0.125,-1.7764e-15,0,0.66667
0.048989,0.1339,0.39191,-0.54915,-46.599,432.52,0.57391,-0.1913,-0.92857,0.76522,3.1987e-07,-0.46428,0,0,0.125,1.4803e-16,0,0.66667
0.12125,0.59496,0.97,0.14244,11.896,382.71,-0.36846,0.12282,-1.9284,-0.49127,-1.1405e-08,-0.96421,0,0,0.125,-0,-0,0.66667
0.60823,0.069076,4.8659,-0.64639,-34.656,96.438,8.3873,-2.7958,-0.5165,11.183,4.361e-13,-0.25825,0,0,0.125,-0,-9.838e-17,0.66667
0.29619,0.84512,2.3696,0.51768,40.141,267.08,-3.2711,1.0904,-1.0506,-4.3615,-6.628e-13,-0.52531,0,0,0.125,1.1842e-15,1.6013e-16,0.66667
0.71874,0.77776,5.7499,0.41664,17.019,52.571,-6.3885,2.1295,-1.3867,-8.518,-1.4169e-11,-0.69335,0,0,0.125,1.7764e-15,0,0.66667
0.48481,0.8088,3.8785,0.4632,30.068,156.28,-4.7907,1.5969,-1.2405,-6.3876,1.8741e-13,-0.62024,0,0,0.125,7.4015e-16,0,0.66667
0.95416,0.90269,7.6333,0.60404,4.4933,3.1697,-12.295,4.0985,-0.70535,-16.394,2.0205e-06,-0.35267,0,0,0.125,-0,-0,0.66667
0.35878,0.25036,2.8702,-0.37446,-27.677,228.14,2.8661,-0.95537,-1.5052,3.8215,-2.1203e-12,-0.7526,0,0,0.125,1.1842e-15,0,0.66667
0.72512,0.76654,5.801,0.39981,16.011,50.382,-6.1847,2.0616,-1.4295,-8.2463,-1.4166e-11,-0.71477,0,0,0.125,-0,-0,0.66667
0.59297,0.27261,4.7437,-0.34108,-18.714,102.61,4.3146,-1.4382,-1.5886,5.7528,4.3521e-13,-0.79431,0,0,0.125,-0,-0,0.66667
0.70173,0.86943,5.6138,0.55415,23.855,58.843,-8.2957,2.7652,-0.91007,-11.061,-5.0839e-12,-0.45503,0,0,0.125,-5.9212e-16,0,0.66667
0.28609,0.64282,2.2887,0.21423,16.67,273.28,-1.3075,0.43584,-1.8353,-1.7433,7.2686e-12,-0.91765,0,0,0.125,-2.9606e-16,0,0.66667
0.55036,0.0073181,4.4029,-0.73902,-43.949,123.49,8.6769,-2.8923,-0.057888,11.569,-3.9968e-14,-0.028944,0,0,0.125,-0,-0,0.66667
0.0072068,0.9965,0.057654,0.74475,63.542,461.46,-0.1147,0.038201,-0.026833,-0.15296,-5.0759e-05,-0.013417,0,0,0.125,-9.2519e-18,0,0.66667
0.95089,0.73424,7.6071,0.35136,2.7127,2.5936,-7.1276,2.3759,-1.5614,-9.5035,-4.6357e-08,-0.7807,0,0,0.125,-1.1842e-15,0,0.66667
0.43824,0.37122,3.5059,-0.19317,-13.213,181.52,1.8059,-0.60197,-1.8703,2.4079,1.1655e-12,-0.93514,0,0,0.125,1.4803e-16,0,0.66667
0.35615,0.7316,2.8492,0.34739,25.725,229.71,-2.6394,0.8798,-1.5704,-3.5192,3.0864e-13,-0.78522,0,0,0.125,-0,-0,0.66667
0.10194,0.58169,0.81551,0.12254,10.279,395.94,-0.26649,0.08883,-1.9444,-0.35532,-1.0249e-08,-0.9722,0,0,0.125,-0,-0,0.66667
0.23738,0.33081,1.899,-0.25378,-20.304,304.8,1.2852,-0.42839,-1.7707,1.7136,-3.8354e-12,-0.88536,0,0,0.125,2.9606e-16,0,0.66667
0.29709,0.17858,2.3767,-0.48213,-37.346,266.48,3.0557,-1.0186,-1.1764,4.0742,-5.5593e-12,-0.58822,0,0,0.125,-2.9606e-16,0,0.66667
0.47856,0.18239,3.8285,-0.47641,-31.177,159.65,4.8639,-1.6213,-1.1918,6.4851,-2.9221e-13,-0.59591,0,0,0.125,5.9212e-16,0,0.66667
0.41502,0.63324,3.3201,0.19986,14.009,194.75,-1.7695,0.58983,-1.8561,-2.3593,-3.0242e-13,-0.92807,0,0,0.125,-0,-0,0.66667
0.056184,0.26058,0.44947,-0.35913,-30.388,427.52,0.43045,-0.14348,-1.5395,0.57394,3.9454e-09,-0.76974,0,0,0.125,-1.4803e-16,0,0.66667
0.58894,0.62004,4.7115,0.18006,9.9368,104.27,-2.2623,0.75409,-1.884,-3.0164,-1.2181e-12,-0.94199,0,0,0.125,-0,-0,0.66667
0.067005,0.13597,0.53604,-0.54605,-46.237,420.08,0.78054,-0.26018,-0.93861,1.0407,8.326e-08,-0.46931,0,0,0.125,1.4803e-16,0,0.66667
0.27883,0.90532,2.2306,0.60798,47.725,278.24,-3.6165,1.2055,-0.68743,-4.822,1.171e-11,-0.34372,0,0,0.125,-9.0385e-17,0,0.66667
0.93135,0.66958,7.4508,0.25437,2.7467,4.1361,-5.0541,1.6847,-1.7679,-6.7388,1.1026e-08,-0.88395,0,0,0.125,2.3685e-15,0,0.66667
0.70165,0.30499,5.6132,-0.29252,-12.528,58.316,4.3786,-1.4595,-1.6974,5.8381,7.0095e-12,-0.84868,0,0,0.125,5.9212e-16,0,0.66667
0.68369,0.22207,5.4696,-0.41689,-18.778,65.106,6.0806,-2.0269,-1.3822,8.1075,2.3501e-12,-0.69108,0,0,0.125,2.3685e-15,0,0.66667
0.35623,0.23193,2.8498,-0.4021,-29.791,229.71,3.0558,-1.0186,-1.4247,4.0744,-1.7983e-12,-0.71236,0,0,0.125,-0,-0,0.66667
0.59594,0.52362,4.7675,0.035423,1.9286,101.03,-0.45034,0.15011,-1.9964,-0.60046,-6.6772e-13,-0.99819,0,0,0.125,-0,-0,0.66667
0.82071,0.68626,6.5657,0.27939,7.6423,22.892,-4.8917,1.6306,-1.7216,-6.5223,7.5009e-10,-0.86081,0,0,0.125,-0,-0,0.66667
0.77901,0.60893,6.2321,0.16339,5.3907,33.461,-2.7154,0.90514,-1.9054,-3.6206,3.623e-11,-0.95271,0,0,0.125,-0,-0,0.66667
0.75092,0.77838,6.0073,0.41756,15.372,42.127,-6.6892,2.2297,-1.3829,-8.9189,-2.7953e-11,-0.69147,0,0,0.125,1.1842e-15,0,0.66667
0.53154,0.056081,4.2523,-0.66588,-40.685,132.57,7.5507,-2.5169,-0.4266,10.068,1.3092e-12,-0.2133,0,0,0.125,2.9606e-16,0,0.66667
0.74519,0.8227,5.9615,0.48404,18.203,44.068,-7.695,2.565,-1.1656,-10.26,-1.2615e-11,-0.58281,0,0,0.125,-0,-0,0.66667
0.21772,0.41978,1.7418,-0.12033,-9.7127,317.71,0.55888,-0.18629,-1.9502,0.74517,4.5222e-11,-0.97509,0,0,0.125,-2.9606e-16,0,0.66667
0.51855,0.57939,4.1484,0.11908,7.3614,138.32,-1.3173,0.4391,-1.9493,-1.7564,-3.6759e-13,-0.97466,0,0,0.125,-0,-0,0.66667
0.81265,0.86599,6.5012,0.54898,15.761,25.46,-9.5174,3.1725,-0.93144,-12.69,6.984e-10,-0.46572,0,0,0.125,5.9212e-16,0,0.66667
0.27694,0.25652,2.2155,-0.36522,-28.612,279.21,2.1577,-0.71924,-1.5251,2.877,-1.3896e-11,-0.76254,0,0,0.125,-0,-0,0.66667
0.50368,0.54304,4.0294,0.064559,4.0741,145.98,-0.69369,0.23123,-1.9844,-0.92492,-1.7047e-13,-0.99222,0,0,0.125,-0,-0,0.66667
0.65239,0.09754,5.2191,-0.60369,-29.466,77.716,8.4019,-2.8006,-0.70421,11.203,-1.1902e-13,-0.35211,0,0,0.125,-0,-0,0.66667
0.08124,0.28293,0.64992,-0.32561,-27.448,410.22,0.56431,-0.1881,-1.624,0.75242,3.2925e-08,-0.81199,0,0,0.125,-0,-0,0.66667
0.14553,0.27324,1.1642,-0.34014,-28.253,366.21,1.056,-0.35199,-1.5875,1.408,3.9294e-09,-0.79374,0,0,0.125,1.4803e-16,0,0.66667
0.59348,0.93421,4.7478,0.65132,35.91,103.03,-8.2463,2.7488,-0.4953,-10.995,-1.2577e-12,-0.24765,0,0,0.125,5.9212e-16,-5.576e-17,0.66667
0.41393,0.024229,3.3114,-0.71366,-50.425,196.07,6.3019,-2.1006,-0.18735,8.4025,-4.702e-12,-0.093675,0,0,0.125,-0,-0,0.66667
0.13115,0.39261,1.0492,-0.16109,-13.42,375.95,0.45068,-0.15023,-1.9057,0.60091,4.1868e-09,-0.95285,0,0,0.125,-1.4803e-16,0,0.66667
0.80877,0.86814,6.4702,0.55221,16.151,26.417,-9.5277,3.1759,-0.91544,-12.704,-1.5366e-11,-0.45772,0,0,0.125,1.1842e-15,0,0.66667
0.71564,0.28785,5.7251,-0.31823,-13.096,53.45,4.8584,-1.6195,-1.6401,6.4779,1.0941e-11,-0.82004,0,0,0.125,-0,-0,0.66667
0.97583,0.28545,7.8066,-0.32183,-1.1583,1.0288,6.6997,-2.2332,-1.6304,8.9329,2.774e-07,-0.8152,0,0,0.125,-0,-0,0.66667
0.040034,0.77323,0.32027,0.40984,34.749,438.7,-0.35002,0.11667,-1.401,-0.4667,3.9388e-08,-0.70048,0,0,0.125,-0,-0,0.66667
0.80309,0.78713,6.4247,0.43069,12.88,27.493,-7.3789,2.4596,-1.339,-9.8386,2.3617e-10,-0.66951,0,0,0.125,-0,-0,0.66667
0.49155,0.76403,3.9324,0.39604,25.463,152.61,-4.1531,1.3844,-1.4401,-5.5374,-1.0618e-12,-0.72003,0,0,0.125,-0,-0,0.66667
0.19478,0.51431,1.5582,0.02147,1.7501,332.95,-0.089212,0.029737,-1.9961,-0.11895,-9.6772e-11,-0.99805,0,0,0.125,-0,-0,0.66667
0.14213,0.99615,1.1371,0.74423,62.218,368.74,-2.2566,0.75221,-0.032733,-3.0088,-6.7106e-09,-0.016367,0,0,0.125,7.4015e-17,0,0.66667
0.19893,0.33177,1.5915,-0.25234,-20.551,330.22,1.0709,-0.35697,-1.7725,1.4279,2.1718e-10,-0.88625,0,0,0.125,2.9606e-16,0,0.66667
0.0073553,0.33649,0.058842,-0.24526,-20.8,461.34,0.038485,-0.012828,-1.7843,0.051313,1.8619e-07,-0.89216,0,0,0.125,-4.6259e-18,0,0.66667
0.12102,0.53567,0.96818,0.053511,4.4683,382.86,-0.13815,0.046052,-1.9896,-0.18421,-1.2728e-08,-0.99482,0,0,0.125,-0,-0,0.66667
0.69054,0.31819,5.5243,-0.27271,-12.037,62.322,4.0175,-1.3392,-1.7359,5.3566,4.9543e-12,-0.86795,0,0,0.125,-0,-0,0.66667
0.2922,0.89439,2.3376,0.59159,46.042,269.7,-3.6877,1.2292,-0.75427,-4.9169,2.5411e-12,-0.37713,0,0,0.125,2.9606e-16,0,0.66667
0.49257,0.89587,3.9406,0.5938,38.248,152.41,-6.2397,2.0799,-0.74423,-8.3196,4.1167e-13,-0.37211,0,0,0.125,-0,-0,0.66667
0.88095,0.81143,7.0476,0.46714,8.7598,11.325,-8.7792,2.9264,-1.2236,-11.706,1.1731e-08,-0.61179,0,0,0.125,-1.7764e-15,0,0.66667
0.5238,0.641,4.1904,0.2115,12.983,135.71,-2.3634,0.78779,-1.8387,-3.1511,3.153e-14,-0.91933,0,0,0.125,-0,-0,0.66667
0.70601,0.66852,5.6481,0.25279,10.688,56.712,-3.8074,1.2691,-1.7726,-5.0765,-8.7963e-12,-0.88632,0,0,0.125,-0,-0,0.66667
0.15105,0.79881,1.2084,0.44821,37.207,362.51,-1.4444,0.48145,-1.284,-1.9258,-2.9278e-09,-0.642,0,0,0.125,-0,-0,0.66667
0.43644,0.12165,3.4915,-0.56753,-39.063,182.97,5.2841,-1.7614,-0.85744,7.0455,-3.0953e-13,-0.42872,0,0,0.125,1.4803e-16,5.6695e-17,0.66667
0.89086,0.94844,7.1269,0.67266,11.768,10.505,-12.784,4.2613,-0.39397,-17.045,-8.2212e-08,-0.19699,0,0,0.125,-0,-0,0.66667
0.15977,0.19566,1.2782,-0.45651,-37.793,356.61,1.556,-0.51866,-1.2587,2.0746,1.3609e-09,-0.62934,0,0,0.125,-0,-0,0.66667
0.11866,0.40741,0.94925,-0.13889,-11.607,384.49,0.35157,-0.11719,-1.9308,0.46876,1.1352e-08,-0.96538,0,0,0.125,-0,-0,0.66667
0.82221,0.86054,6.5777,0.54081,14.8,23.17,-9.486,3.162,-0.95811,-12.648,8.3565e-10,-0.47906,0,0,0.125,1.1842e-15,0,0.66667
0.058073,0.36444,0.46459,-0.20334,-17.183,426.19,0.25191,-0.083971,-1.8518,0.33588,-3.623e-08,-0.92592,0,0,0.125,7.4015e-17,0,0.66667
0.23225,0.68184,1.858,0.27276,21.882,308.18,-1.3514,0.45047,-1.7366,-1.8019,-9.5203e-12,-0.86831,0,0,0.125,-2.9606e-16,0,0.66667
0.59496,0.98912,4.7596,0.73367,40.427,102.61,-9.3121,3.104,-0.087707,-12.416,-1.493e-12,-0.043854,0,0,0.125,-0,-0,0.66667
0.71146,0.41434,5.6917,-0.12848,-5.3416,54.681,1.9501,-0.65004,-1.9394,2.6002,5.1036e-12,-0.96971,0,0,0.125,-0,-0,0.66667
0.43296,0.072959,3.4636,-0.64056,-44.314,185.07,5.9165,-1.9722,-0.53988,7.8886,-1.767e-12,-0.26994,0,0,0.125,-0,-0,0.66667
0.47992,0.005084,3.8394,-0.74237,-48.75,159.47,7.6007,-2.5336,-0.039899,10.134,-2.3244e-12,-0.01995,0,0,0.125,-0,-8.4577e-17,0.66667
0.086929,0.78992,0.69543,0.43489,36.661,406.32,-0.80649,0.26883,-1.3257,-1.0753,-2.7837e-08,-0.66283,0,0,0.125,-0,-0,0.66667
0.61004,0.94796,4.8803,0.67194,35.923,95.718,-8.7447,2.9149,-0.3969,-11.66,-1.6094e-12,-0.19845,0,0,0.125,-0,-0,0.66667
0.28032,0.88183,2.2426,0.57274,44.894,277.24,-3.4251,1.1417,-0.83594,-4.5668,-1.2297e-12,-0.41797,0,0,0.125,-5.9212e-16,1.0111e-16,0.66667
0.91892,0.34558,7.3513,-0.23163,-2.9532,5.4612,4.5408,-1.5136,-1.8103,6.0544,-1.7743e-08,-0.90513,0,0,0.125,-0,-0,0.66667
0.23822,0.098807,1.9057,-0.60179,-48.314,304.5,3.0583,-1.0194,-0.71217,4.0777,-6.5683e-12,-0.35609,0,0,0.125,5.9212e-16,0,0.66667
0.75065,0.098175,6.0052,-0.60274,-22.327,42.711,9.6522,-3.2174,-0.71124,12.87,4.5124e-11,-0.35562,0,0,0.125,-2.3685e-15,0,0.66667
0.70514,0.74125,5.6412,0.36188,15.364,57.187,-5.4437,1.8146,-1.5353,-7.2583,-9.1274e-12,-0.76764,0,0,0.125,-0,-0,0.66667
0.12278,0.10137,0.98226,-0.59794,-50.128,381.81,1.5662,-0.52207,-0.72958,2.0883,-2.4568e-08,-0.36479,0,0,0.125,-0,-0,0.66667
0.20873,0.73491,1.6698,0.35236,28.598,323.75,-1.569,0.52301,-1.5567,-2.092,-1.1802e-10,-0.77833,0,0,0.125,-0,-0,0.66667
0.19717,0.33817,1.5774,-0.24274,-19.782,331.39,1.0211,-0.34035,-1.7892,1.3614,2.2988e-10,-0.89459,0,0,0.125,-0,-0,0.66667
0.78433,0.68777,6.2746,0.28165,9.1078,32.136,-4.7127,1.5709,-1.7192,-6.2835,5.9443e-11,-0.8596,0,0,0.125,2.3685e-15,0,0.66667
0.55115,0.047646,4.4092,-0.67853,-40.241,122.95,7.9781,-2.6594,-0.36177,10.637,2.5446e-13,-0.18089,0,0,0.125,-1.1842e-15,0,0.66667
0.50799,0.84727,4.0639,0.5209,32.822,144.22,-5.645,1.8817,-1.034,-7.5267,6.759e-13,-0.51699,0,0,0.125,-0,-0,0.66667
0.74258,0.32315,5.9406,-0.26527,-10.019,44.46,4.2023,-1.4008,-1.7477,5.6031,1.4692e-11,-0.87384,0,0,0.125,1.1842e-15,0,0.66667
0.87749,0.77433,7.0199,0.41149,7.9089,11.745,-7.703,2.5677,-1.3986,-10.271,8.1955e-09,-0.6993,0,0,0.125,5.9212e-16,0,0.66667
0.070046,0.20967,0.56037,-0.4355,-36.812,417.96,0.65076,-0.21692,-1.3237,0.86769,8.7882e-08,-0.66183,0,0,0.125,-7.4015e-17,0,0.66667
0.37632,0.79928,3.0106,0.44891,32.714,217.67,-3.604,1.2013,-1.2848,-4.8053,-8.7708e-13,-0.6424,0,0,0.125,5.9212e-16,0,0.66667
0.34177,0.35177,2.7342,-0.22235,-16.639,238.4,1.6212,-0.54039,-1.8252,2.1615,-2.0044e-12,-0.91261,0,0,0.125,-0,-0,0.66667
0.84428,0.24471,6.7542,-0.38294,-9.2195,17.9,6.8972,-2.2991,-1.4816,9.1963,-2.4307e-09,-0.74079,0,0,0.125,1.1842e-15,0,0.66667
0.76885,0.67753,6.1508,0.2663,9.1554,36.478,-4.3679,1.456,-1.7476,-5.8238,7.0148e-12,-0.87378,0,0,0.125,-5.9212e-16,0,0.66667
0.5325,0.78639,4.26,0.42958,26.095,131.6,-4.88,1.6267,-1.346,-6.5067,1.4433e-13,-0.673,0,0,0.125,1.1842e-15,0,0.66667
0.089548,0.037124,0.71638,-0.69431,-58.715,404.61,1.3264,-0.44213,-0.28544,1.7685,-1.0282e-06,-0.14272,0,0,0.125,-0,-0,0.66667
0.92511,0.70405,7.4009,0.30607,3.6168,4.8902,-6.0405,2.0135,-1.6664,-8.054,3.5163e-08,-0.8332,0,0,0.125,-0,-0,0.66667
0.55794,0.054578,4.4635,-0.66813,-39.185,119.64,7.9526,-2.6509,-0.41181,10.604,-2.0295e-12,-0.2059,0,0,0.125,5.9212e-16,-9.5128e-18,0.66667
0.023909,0.61852,0.19128,0.17778,15.064,449.86,-0.090679,0.030227,-1.8859,-0.12091,5.976e-08,-0.94296,0,0,0.125,3.2661e-17,0,0.66667
0.64606,0.72693,5.1685,0.34039,16.765,79.707,-4.6915,1.5638,-1.5866,-6.2554,-2.8231e-12,-0.7933,0,0,0.125,-0,-0,0.66667
0.27371,0.95235,2.1897,0.67852,53.491,281.6,-3.962,1.3207,-0.36076,-5.2826,3.6151e-12,-0.18038,0,0,0.125,-0,-0,0.66667
0.45368,0.64093,3.6294,0.21139,14.212,172.91,-2.0459,0.68198,-1.8433,-2.7279,-1.1924e-13,-0.92166,0,0,0.125,-0,-0,0.66667
0.89562,0.55546,7.1649,0.083191,1.3567,8.3844,-1.5895,0.52983,-1.9743,-2.1193,1.394e-08,-0.98714,0,0,0.125,-0,-0,0.66667
0.20404,0.24962,1.6323,-0.37557,-30.55,326.87,1.6348,-0.54494,-1.5019,2.1798,1.3045e-10,-0.75093,0,0,0.125,-1.3878e-16,0,0.66667
0.11364,0.12572,0.90911,-0.56142,-47.145,388.04,1.361,-0.45368,-0.87964,1.8147,1.1036e-08,-0.43982,0,0,0.125,-2.9606e-16,0,0.66667
0.61817,0.82868,4.9454,0.49303,25.831,91.723,-6.5018,2.1673,-1.1335,-8.6691,-5.3646e-13,-0.56675,0,0,0.125,-1.1842e-15,0,0.66667
0.67549,0.37953,5.4039,-0.1807,-8.2848,67.87,2.604,-0.868,-1.884,3.472,2.4007e-12,-0.94198,0,0,0.125,-0,-0,0.66667
0.98885,0.48398,7.9108,-0.024031,-0.031466,0.21288,0.50694,-0.16898,-1.9966,0.67592,-4.6652e-06,-0.9983,0,0,0.125,-0,-0,0.66667
0.32157,0.57126,2.5726,0.10689,8.1168,250.86,-0.73326,0.24442,-1.9575,-0.97768,-1.8177e-12,-0.97877,0,0,0.125,-0,-0,0.66667
0.90723,0.6197,7.2578,0.17955,2.6123,6.8495,-3.4751,1.1584,-1.8878,-4.6334,9.8951e-09,-0.9439,0,0,0.125,-0,-0,0.66667
0.59047,0.84133,4.7238,0.512,28.298,104.05,-6.4495,2.1498,-1.0686,-8.5994,-1.2292e-12,-0.5343,0,0,0.125,2.9606e-16,0,0.66667
0.076837,0.81593,0.61469,0.47389,40.034,413.28,-0.7768,0.25893,-1.2039,-1.0357,-6.5823e-08,-0.60194,0,0,0.125,-0,-0,0.66667
0.93059,0.025954,7.4447,-0.71107,-8.0892,5.6726,14.117,-4.7055,-0.20076,18.822,-1.9421e-06,-0.10038,0,0,0.125,-0,-0,0.66667
0.54246,0.74558,4.3397,0.36837,22.021,126.56,-4.263,1.421,-1.5171,-5.684,-5.8087e-13,-0.75854,0,0,0.125,2.9606e-16,0,0.66667
0.47386,0.94375,3.7909,0.66563,43.964,162.54,-6.7289,2.243,-0.4236,-8.9718,1.1857e-13,-0.2118,0,0,0.125,-1.1842e-15,0,0.66667
0.54448,0.051543,4.3558,-0.67268,-40.308,126.18,7.8136,-2.6045,-0.39144,10.418,-4.9782e-13,-0.19572,0,0,0.125,-5.9212e-16,0,0.66667
0.52734,0.99163,4.2187,0.73745,45.415,134.86,-8.2963,2.7654,-0.065726,-11.062,1.0676e-12,-0.032863,0,0,0.125,-5.9212e-16,-1.1608e-16,0.66667
0.66148,0.11325,5.2918,-0.58013,-27.708,74.032,8.1865,-2.7288,-0.80174,10.915,2.2826e-13,-0.40087,0,0,0.125,-0,-0,0.66667
0.64445,0.93366,5.1556,0.65049,32.361,81.072,-8.9431,2.981,-0.49553,-11.924,4.059e-13,-0.24776,0,0,0.125,2.9606e-16,0,0.66667
0.17293,0.29964,1.3835,-0.30054,-24.732,347.66,1.1088,-0.36959,-1.6805,1.4783,1.1021e-09,-0.84025,0,0,0.125,2.9606e-16,0,0.66667
0.50754,0.067573,4.0603,-0.64864,-40.997,144.72,7.0231,-2.341,-0.50254,9.3642,2.6574e-12,-0.25127,0,0,0.125,-1.1842e-15,0,0.66667
0.17819,0.88408,1.4255,0.57612,47.464,344.28,-2.19,0.73001,-0.81803,-2.9201,-1.7468e-10,-0.40901,0,0,0.125,-0,-0,0.66667
0.46566,0.75635,3.7253,0.38453,25.533,166.5,-3.82,1.2733,-1.4745,-5.0933,5.5311e-13,-0.73723,0,0,0.125,-1.1842e-15,0,0.66667
0.095605,0.1393,0.76484,-0.54106,-45.597,400.39,1.1035,-0.36784,-0.95987,1.4714,2.2345e-08,-0.47994,0,0,0.125,-0,-0,0.66667
0.90893,0.29188,7.2715,-0.31218,-4.4804,6.8365,6.0534,-2.0178,-1.6536,8.0712,-2.5372e-08,-0.8268,0,0,0.125,-0,-0,0.66667
0.84302,0.68888,6.7441,0.28332,6.8532,17.963,-5.0953,1.6984,-1.718,-6.7938,2.3555e-09,-0.85899,0,0,0.125,-2.3685e-15,0,0.66667
0.20466,0.17407,1.6373,-0.48889,-39.807,326.53,2.1346,-0.71152,-1.1513,2.8461,3.8157e-11,-0.57563,0,0,0.125,2.9606e-16,0,0.66667
0.22201,0.42071,1.7761,-0.11894,-9.5814,314.87,0.5633,-0.18777,-1.9492,0.75107,2.7754e-11,-0.97459,0,0,0.125,2.9606e-16,0,0.66667
0.56481,0.059662,4.5185,-0.66051,-38.296,116.34,7.9586,-2.6529,-0.45024,10.611,-1.6316e-12,-0.22512,0,0,0.125,1.3323e-15,0,0.66667
0.041276,0.55519,0.33021,0.082792,7.0052,437.82,-0.072903,0.024301,-1.9742,-0.097204,-7.1841e-09,-0.98711,0,0,0.125,-3.7007e-17,0,0.66667
0.97916,0.80337,7.8333,0.45505,1.4339,1.2516,-9.5054,3.1685,-1.2623,-12.674,-8.7309e-07,-0.63116,0,0,0.125,-1.1842e-15,0,0.66667
0.34441,0.22292,2.7553,-0.41563,-31.092,236.93,3.0538,-1.0179,-1.3888,4.0717,-1.5172e-12,-0.69438,0,0,0.125,-0,-0,0.66667
0.29624,0.012106,2.3699,-0.73184,-56.949,267.33,4.6251,-1.5417,-0.097855,6.1669,-1.414e-12,-0.048928,0,0,0.125,-1.1842e-15,0,0.66667
0.92794,0.47992,7.4236,-0.030121,-0.33953,4.2789,0.59629,-0.19876,-1.9949,0.79505,-4.8853e-08,-0.99743,0,0,0.125,-0,-0,0.66667
0.24446,0.30123,1.9557,-0.29816,-23.776,300.19,1.5549,-0.5183,-1.6822,2.0732,-1.8958e-11,-0.8411,0,0,0.125,2.9606e-16,0,0.66667
0.40519,0.92071,3.2415,0.63107,44.903,200.96,-5.4549,1.8183,-0.58559,-7.2733,6.2128e-13,-0.2928,0,0,0.125,5.9212e-16,0,0.66667
0.1838,0.8968,1.4704,0.59519,48.945,340.53,-2.3338,0.77794,-0.73983,-3.1117,1.9006e-09,-0.36991,0,0,0.125,-1.4803e-16,0,0.66667
0.086017,0.79136,0.68814,0.43704,36.85,406.95,-0.80199,0.26733,-1.3188,-1.0693,-2.9988e-08,-0.65939,0,0,0.125,-0,-0,0.66667
0.91325,0.62485,7.306,0.18727,2.5498,6.0853,-3.6486,1.2162,-1.8747,-4.8648,5.85e-09,-0.93736,0,0,0.125,1.6653e-15,0,0.66667
0.27731,0.32441,2.2185,-0.26338,-20.612,278.91,1.5581,-0.51938,-1.7524,2.0775,-1.0059e-11,-0.87621,0,0,0.125,-5.9212e-16,0,0.66667
0.7783,0.62723,6.2264,0.19084,6.3161,33.686,-3.1687,1.0562,-1.8715,-4.2249,3.7013e-11,-0.93574,0,0,0.125,-2.3685e-15,0,0.66667
0.16216,0.50909,1.2972,0.013641,1.1255,354.88,-0.047189,0.01573,-1.9976,-0.062919,-5.8991e-10,-0.99882,0,0,0.125,5.9212e-16,0,0.66667
0.66577,0.30113,5.3261,-0.2983,-14.026,71.765,4.2368,-1.4123,-1.6817,5.649,1.1871e-12,-0.84084,0,0,0.125,-0,-0,0.66667
0.27436,0.80006,2.1949,0.45009,35.348,280.93,-2.6344,0.87812,-1.2776,-3.5125,6.7628e-12,-0.63878,0,0,0.125,-0,-0,0.66667
0.72525,0.54699,5.802,0.070492,2.8106,49.938,-1.0907,0.36355,-1.9802,-1.4542,-5.2096e-12,-0.99009,0,0,0.125,1.1842e-15,0,0.66667
0.057234,0.30616,0.45787,-0.29077,-24.587,426.78,0.35502,-0.11834,-1.6982,0.47337,-1.8917e-08,-0.84912,0,0,0.125,1.1102e-16,0,0.66667
0.66212,0.32105,5.297,-0.26843,-12.727,73.157,3.7916,-1.2639,-1.7422,5.0555,1.2801e-12,-0.87109,0,0,0.125,-0,-0,0.66667
0.056097,0.61804,0.44877,0.17707,14.965,427.56,-0.2119,0.070633,-1.8869,-0.28253,3.2741e-08,-0.94346,0,0,0.125,-3.7007e-17,0,0.66667
0.65752,0.77573,5.2602,0.41359,19.867,75.211,-5.8014,1.9338,-1.3939,-7.7353,-2.3714e-12,-0.69693,0,0,0.125,-2.9606e-16,0,0.66667
0.34971,0.85953,2.7977,0.53929,40.24,233.84,-4.0234,1.3411,-0.9639,-5.3645,7.2697e-13,-0.48195,0,0,0.125,5.9212e-16,0,0.66667
0.73581,0.79016,5.8865,0.43524,16.863,46.94,-6.8321,2.2774,-1.3279,-9.1094,-1.2556e-11,-0.66397,0,0,0.125,-0,-0,0.66667
0.41791,0.029688,3.3433,-0.70547,-49.639,193.76,6.2895,-2.0965,-0.2308,8.386,-5.6368e-12,-0.1154,0,0,0.125,-0,-2.8111e-17,0.66667
0.55544,0.54425,4.4435,0.066382,3.8786,119.97,-0.78659,0.2622,-1.9821,-1.0488,-8.4649e-13,-0.99106,0,0,0.125,-0,-0,0.66667
0.18966,0.79106,1.5173,0.43659,35.747,336.5,-1.7664,0.58881,-1.3229,-2.3553,-2.8174e-10,-0.66147,0,0,0.125,-0,-0,0.66667
0.27767,0.57146,2.2214,0.1072,8.3809,278.62,-0.63501,0.21167,-1.9587,-0.84668,3.8758e-12,-0.97934,0,0,0.125,-5.9212e-16,0,0.66667
0.48609,0.32394,3.8887,-0.26408,-17.076,155.35,2.7385,-0.91285,-1.753,3.6514,2.1649e-12,-0.87651,0,0,0.125,-1.1842e-15,0,0.66667
0.04653,0.67694,0.37224,0.26541,22.464,434.19,-0.26346,0.087821,-1.7522,-0.35128,7.8265e-08,-0.87608,0,0,0.125,-7.4015e-17,0,0.66667
0.84893,0.83095,6.7915,0.49643,11.67,17.251,-8.9907,2.9969,-1.1221,-11.988,4.1405e-10,-0.56105,0,0,0.125,-0,-0,0.66667
0.43861,0.11627,3.5089,-0.57559,-39.53,181.76,5.3859,-1.7953,-0.82388,7.1812,-1.1307e-12,-0.41194,0,0,0.125,-0,-0,0.66667
0.1903,0.8332,1.5224,0.4998,40.943,336.11,-2.0291,0.67635,-1.1118,-2.7054,-2.4022e-10,-0.55591,0,0,0.125,-0,-0,0.66667
0.1496,0.48883,1.1968,-0.016748,-1.3874,363.39,0.053449,-0.017816,-1.997,0.071265,-1.4375e-09,-0.99848,0,0,0.125,-1.4803e-16,0,0.66667
0.12624,0.20331,1.0099,-0.44503,-37.203,379.38,1.1985,-0.3995,-1.2972,1.598,7.2985e-09,-0.64859,0,0,0.125,1.4803e-16,0,0.66667
0.48221,0.23428,3.8577,-0.39858,-25.937,157.58,4.1003,-1.3668,-1.4356,5.467,-4.2633e-13,-0.71778,0,0,0.125,-0,-0,0.66667
0.99442,0.70979,7.9554,0.31468,0.14762,0.43462,-6.6758,2.2253,-1.6463,-8.901,3.4174e-07,-0.82317,0,0,0.125,-0,-0,0.66667
0.83565,0.99353,6.6852,0.7403,19.047,20.92,-13.197,4.3991,-0.04971,-17.597,4.6273e-10,-0.024855,0,0,0.125,-5.9212e-16,0,0.66667
0.87993,0.21715,7.0395,-0.42427,-8.0037,11.371,7.9643,-2.6548,-1.3598,10.619,-8.1876e-09,-0.67988,0,0,0.125,1.7764e-15,0,0.66667
0.51326,0.48015,4.1061,-0.029782,-1.8545,141.01,0.3261,-0.1087,-1.9972,0.4348,-2.3975e-12,-0.9986,0,0,0.125,1.1842e-15,0,0.66667
0.013105,0.87556,0.10484,0.56333,47.92,457.36,-0.15749,0.052497,-0.87333,-0.20999,-1.5132e-06,-0.43667,0,0,0.125,-0,-0,0.66667
0.78924,0.063982,6.3139,-0.65403,-20.954,31.782,11.012,-3.6707,-0.4782,14.683,-1.7688e-10,-0.2391,0,0,0.125,-0,-0,0.66667
0.91445,0.39321,7.3156,-0.16019,-2.1497,5.9073,3.125,-1.0417,-1.9065,4.1667,-1.907e-08,-0.95326,0,0,0.125,1.0132e-16,0,0.66667
0.063162,0.50324,0.5053,0.0048624,0.41043,422.67,-0.0065519,0.0021842,-2.003,-0.0087357,4.2402e-07,-1.0015,0,0,0.125,-0,-0,0.66667
0.17499,0.31232,1.3999,-0.28153,-23.147,346.27,1.051,-0.35033,-1.7194,1.4013,9.9462e-10,-0.85972,0,0,0.125,-3.3769e-16,0,0.66667
0.50956,0.72985,4.0764,0.34477,21.623,143.13,-3.7478,1.2493,-1.5755,-4.9971,1.2508e-12,-0.78773,0,0,0.125,-1.1842e-15,0,0.66667
0.43088,0.94451,3.447,0.66676,46.252,186.3,-6.1289,2.043,-0.41764,-8.1719,2.6454e-12,-0.20882,0,0,0.125,-0,-0,0.66667
0.95888,0.52057,7.671,0.030855,0.19414,1.6079,-0.63118,0.21039,-1.9948,-0.84157,3.3311e-07,-0.99742,0,0,0.125,-0,-0,0.66667
0.98461,0.16511,7.8769,-0.50233,-1.1476,1.2187,10.552,-3.5172,-1.1057,14.069,2.9837e-07,-0.55285,0,0,0.125,-0,-0,0.66667
0.15433,0.54281,1.2346,0.064213,5.3118,360.18,-0.21141,0.070471,-1.9861,-0.28188,-1.4563e-09,-0.99306,0,0,0.125,-0,-0,0.66667
0.3531,0.004495,2.8248,-0.74326,-55.509,232.1,5.5989,-1.8663,-0.034563,7.4652,1.3722e-13,-0.017281,0,0,0.125,-0,-0,0.66667
0.57686,0.067872,4.6149,-0.64819,-36.811,110.65,7.9768,-2.6589,-0.50821,10.636,-5.8531e-13,-0.2541,0,0,0.125,1.1842e-15,-8.4286e-17,0.66667
0.42223,0.36136,3.3778,-0.20796,-14.47,190.61,1.8732,-0.62439,-1.8487,2.4976,-1.774e-12,-0.92435,0,0,0.125,5.9212e-16,0,0.66667
0.5079,0.84339,4.0632,0.51509,32.457,144.26,-5.5811,1.8604,-1.056,-7.4414,1.3767e-14,-0.52799,0,0,0.125,-1.1842e-15,0,0.66667
0.87702,0.051475,7.0162,-0.67279,-13.176,12.707,12.588,-4.1959,-0.39131,16.784,-6.1725e-08,-0.19565,0,0,0.125,1.1842e-15,0,0.66667
0.060464,0.9197,0.48371,0.62954,53.416,424.62,-0.81205,0.27068,-0.59142,-1.0827,5.4631e-07,-0.29571,0,0,0.125,-1.4803e-16,0,0.66667
0.91535,0.011289,7.3228,-0.73307,-10.123,7.4615,14.315,-4.7717,-0.087259,19.087,1.1216e-07,-0.04363,0,0,0.125,-0,-0,0.66667
0.31256,0.86811,2.5005,0.55217,42.368,256.82,-3.6818,1.2273,-0.9193,-4.9091,6.8945e-13,-0.45965,0,0,0.125,2.9606e-16,0,0.66667
0.72914,0.59123,5.8331,0.13685,5.3922,48.681,-2.1287,0.70956,-1.9329,-2.8382,-9.0217e-12,-0.96644,0,0,0.125,1.7764e-15,0,0.66667
0.27511,0.53398,2.2009,0.050977,3.9912,280.26,-0.29918,0.099728,-1.9899,-0.39891,4.3077e-12,-0.99493,0,0,0.125,-0,-0,0.66667
0.72986,0.26527,5.8389,-0.35209,-13.88,48.715,5.4822,-1.8274,-1.5579,7.3096,1.3119e-11,-0.77893,0,0,0.125,1.1842e-15,0,0.66667
0.78436,0.72778,6.2748,0.34168,11.061,32.233,-5.7172,1.9057,-1.5848,-7.623,5.9726e-11,-0.7924,0,0,0.125,-0,-0,0.66667
0.56721,0.29885,4.5376,-0.30172,-17.316,114.51,3.6509,-1.217,-1.6749,4.8679,5.1692e-13,-0.83743,0,0,0.125,-5.9212e-16,0,0.66667
0.11097,0.68494,0.88775,0.27741,23.241,389.77,-0.65672,0.21891,-1.7286,-0.87563,-1.4699e-08,-0.86428,0,0,0.125,-0,-0,0.66667
0.1247,0.32071,0.9976,-0.26894,-22.456,380.38,0.71545,-0.23848,-1.7457,0.95394,8.8438e-09,-0.87286,0,0,0.125,2.9606e-16,0,0.66667
0.85571,0.090777,6.8457,-0.61383,-13.907,16.311,11.206,-3.7352,-0.66057,14.941,-9.2099e-10,-0.33029,0,0,0.125,5.494e-16,-1.3397e-18,0.66667
0.93388,0.010177,7.4711,-0.73474,-7.9992,5.4602,14.638,-4.8793,-0.079991,19.517,-7.3022e-08,-0.039996,0,0,0.125,-0,-0,0.66667
0.64865,0.4219,5.1892,-0.11715,-5.724,78.415,1.6211,-0.54038,-1.9489,2.1615,1.7668e-12,-0.97445,0,0,0.125,-1.9524e-15,0,0.66667
0.18497,0.72501,1.4798,0.33751,27.659,339.59,-1.3319,0.44395,-1.5957,-1.7758,-5.4089e-10,-0.79783,0,0,0.125,-0,-0,0.66667
0.72233,0.58377,5.7786,0.12566,5.0568,50.951,-1.9363,0.64544,-1.9433,-2.5817,-6.5666e-12,-0.97165,0,0,0.125,-0,-0,0.66667
0.22405,0.94462,1.7924,0.66693,53.973,313.87,-3.1877,1.0626,-0.41725,-4.2503,2.355e-11,-0.20863,0,0,0.125,-0,-0,0.66667
0.75275,0.83358,6.022,0.50037,18.342,41.767,-8.0353,2.6784,-1.1099,-10.714,-3.9088e-11,-0.55494,0,0,0.125,-1.1842e-15,0,0.66667
0.99863,0.73645,7.989,0.35467,-0.077577,0.46352,-7.5559,2.5186,-1.554,-10.075,6.4048e-07,-0.777,0,0,0.125,-0,-0,0.66667
0.92131,0.72646,7.3705,0.33969,4.225,5.3863,-6.6764,2.2255,-1.5923,-8.9019,3.8932e-08,-0.79617,0,0,0.125,-0,-0,0.66667
0.52727,0.85522,4.2181,0.53282,32.673,134.41,-5.9934,1.9978,-0.98964,-7.9912,2.5846e-13,-0.49482,0,0,0.125,-0,-0,0.66667
0.62264,0.69028,4.9812,0.28543,14.771,89.439,-3.7913,1.2638,-1.7117,-5.0551,-1.7095e-12,-0.85586,0,0,0.125,-0,-0,0.66667
0.31542,0.25648,2.5233,-0.36528,-27.907,254.83,2.4579,-0.81931,-1.5259,3.2772,-2.4607e-12,-0.76296,0,0,0.125,-0,-0,0.66667
0.88054,0.50339,7.0443,0.0050788,0.094397,10.709,-0.095404,0.031801,-1.9991,-0.1272,-2.1894e-08,-0.99955,0,0,0.125,-0,-0,0.66667
0.86029,0.74133,6.8823,0.36199,7.8663,14.689,-6.6436,2.2145,-1.5362,-8.8581,4.8921e-09,-0.76809,0,0,0.125,1.1842e-15,0,0.66667
0.060565,0.46919,0.48452,-0.04621,-3.902,424.46,0.059706,-0.019902,-1.9947,0.079608,2.9911e-07,-0.99733,0,0,0.125,-0,-0,0.66667
0.54964,0.49547,4.3971,-0.006794,-0.40064,122.78,0.079665,-0.026555,-2.0006,0.10622,-2.4798e-12,-1.0003,0,0,0.125,-2.9606e-16,0,0.66667
0.38057,0.38521,3.0445,-0.17219,-12.47,214.91,1.3979,-0.46598,-1.8929,1.8639,-7.5451e-13,-0.94646,0,0,0.125,-0,-0,0.66667
0.55684,0.59003,4.4547,0.13504,7.874,119.32,-1.6042,0.53472,-1.9342,-2.1389,-1.7324e-12,-0.96712,0,0,0.125,1.6486e-16,0,0.66667
0.18217,0.57512,1.4574,0.11268,9.2318,341.4,-0.4379,0.14597,-1.9531,-0.58387,-2.7437e-10,-0.97657,0,0,0.125,2.9606e-16,0,0.66667
0.79219,0.59841,6.3375,0.14761,4.6085,29.855,-2.4947,0.83155,-1.9219,-3.3262,1.1936e-10,-0.96095,0,0,0.125,-2.3685e-15,0,0.66667
0.11789,0.92298,0.94315,0.63447,53.283,385.17,-1.5957,0.53191,-0.56647,-2.1276,-6.522e-08,-0.28324,0,0,0.125,8.4155e-18,0,0.66667
0.20303,0.13783,1.6242,-0.54325,-44.296,327.66,2.353,-0.78434,-0.95351,3.1373,-1.1734e-10,-0.47675,0,0,0.125,-2.9606e-16,-1.6826e-16,0.66667
0.02395,0.25079,0.1916,-0.37382,-31.717,449.84,0.191,-0.063665,-1.5024,0.25466,-4.5271e-07,-0.7512,0,0,0.125,-7.4015e-17,0,0.66667
0.058498,0.37725,0.46799,-0.18413,-15.558,425.9,0.22978,-0.076595,-1.8796,0.30638,-4.1585e-08,-0.93982,0,0,0.125,-0,-0,0.66667
0.11918,0.33199,0.95342,-0.25201,-21.069,384.15,0.64073,-0.21358,-1.7723,0.85431,1.0803e-08,-0.88616,0,0,0.125,1.4803e-16,0,0.66667
0.45136,0.15015,3.6109,-0.52478,-35.501,174.56,5.0531,-1.6844,-1.0223,6.7375,1.3864e-12,-0.51115,0,0,0.125,-8.8818e-16,0,0.66667
0.89569,0.94915,7.1655,0.67372,11.293,9.7977,-12.873,4.2911,-0.3846,-17.165,-2.6394e-08,-0.1923,0,0,0.125,-0,-0,0.66667
0.10377,0.30876,0.83015,-0.28686,-24.072,394.71,0.63502,-0.21167,-1.7065,0.8467,1.9233e-08,-0.85326,0,0,0.125,-1.4803e-16,0,0.66667
0.99739,0.48015,7.9791,-0.029776,0.0040767,0.037458,0.63356,-0.21118,-1.997,0.84474,8.7462e-06,-0.99849,0,0,0.125,-0,-0,0.66667
0.92242,0.27988,7.3793,-0.33017,-4.0468,5.2394,6.4973,-2.1658,-1.616,8.663,-3.8436e-08,-0.80801,0,0,0.125,-1.6283e-15,0,0.66667
0.12597,0.54934,1.0078,0.074016,6.173,379.48,-0.19891,0.066303,-1.9823,-0.26521,-1.8924e-09,-0.99113,0,0,0.125,-1.4803e-16,0,0.66667
0.56161,0.92168,4.4929,0.63252,36.844,117.8,-7.5782,2.5261,-0.57928,-10.104,1.4264e-12,-0.28964,0,0,0.125,-0,1.4801e-16,0.66667
0.57872,0.79049,4.6298,0.43574,24.561,109.31,-5.3797,1.7932,-1.3273,-7.1729,-4.0901e-13,-0.66367,0,0,0.125,-0,-0,0.66667
0.78149,0.63883,6.2519,0.20824,6.8054,32.819,-3.4718,1.1573,-1.8484,-4.629,4.9823e-11,-0.92421,0,0,0.125,1.1842e-15,0,0.66667
0.099377,0.19821,0.79502,-0.45268,-38.08,397.77,0.95971,-0.3199,-1.2697,1.2796,2.383e-08,-0.63483,0,0,0.125,-0,-0,0.66667
0.089059,0.7685,0.71247,0.40274,33.928,404.85,-0.76518,0.25506,-1.4219,-1.0202,-2.6207e-08,-0.71093,0,0,0.125,1.4803e-16,0,0.66667
0.94471,0.51726,7.5577,0.025891,0.22247,2.6772,-0.52181,0.17394,-1.9954,-0.69575,-2.556e-07,-0.99768,0,0,0.125,-0,-0,0.66667
0.42548,0.32683,3.4038,-0.25975,-18.02,188.79,2.3578,-0.78592,-1.7593,3.1437,4.5608e-13,-0.87966,0,0,0.125,-0,-0,0.66667
0.81916,0.75611,6.5533,0.38416,10.619,23.459,-6.7133,2.2378,-1.4737,-8.9511,6.2984e-10,-0.73686,0,0,0.125,-0,-0,0.66667
0.78299,0.12535,6.2639,-0.56198,-18.411,33.162,9.3872,-3.1291,-0.87956,12.516,-4.0434e-10,-0.43978,0,0,0.125,-2.3685e-15,0,0.66667
0.8379,0.22923,6.7032,-0.40616,-10.158,19.297,7.2601,-2.42,-1.4117,9.6802,-1.7473e-09,-0.70584,0,0,0.125,-0,-0,0.66667
0.13975,0.37112,1.118,-0.19332,-16.069,370.1,0.57636,-0.19212,-1.8699,0.76848,5.006e-09,-0.93494,0,0,0.125,7.4015e-17,0,0.66667
0.091732,0.80778,0.73385,0.46167,38.897,403.03,-0.90347,0.30116,-1.2435,-1.2046,-2.8012e-08,-0.62177,0,0,0.125,-1.4803e-16,0,0.66667
0.44285,0.43537,3.5428,-0.096951,-6.595,178.88,0.91594,-0.30531,-1.9661,1.2213,-1.217e-12,-0.98303,0,0,0.125,2.2204e-16,0,0.66667
0.8081,0.926,6.4648,0.63901,18.818,26.879,-11.016,3.6721,-0.54698,-14.688,-6.2048e-11,-0.27349,0,0,0.125,1.1842e-15,0,0.66667
0.14031,0.93136,1.1225,0.64705,54.031,369.9,-1.9368,0.64561,-0.51452,-2.5824,3.1348e-08,-0.25726,0,0,0.125,2.2204e-16,0,0.66667
0.17975,0.85749,1.438,0.53624,44.128,343.21,-2.0562,0.68541,-0.97532,-2.7417,-6.8148e-10,-0.48766,0,0,0.125,-0,-0,0.66667
0.1606,0.044473,1.2848,-0.68329,-56.736,356.2,2.341,-0.78034,-0.33872,3.1214,-2.4928e-10,-0.16936,0,0,0.125,-0,-0,0.66667
0.23062,0.062793,1.845,-0.65581,-52.896,309.54,3.2265,-1.0755,-0.47154,4.302,-5.5185e-11,-0.23577,0,0,0.125,-5.9212e-16,0,0.66667
0.32804,0.40405,2.6244,-0.14392,-10.879,246.84,1.0072,-0.33574,-1.9304,1.343,-7.3652e-13,-0.9652,0,0,0.125,-8.8818e-16,0,0.66667
0.06778,0.081351,0.54224,-0.62797,-53.231,419.57,0.90803,-0.30268,-0.59618,1.2107,-5.1328e-08,-0.29809,0,0,0.125,-6.2525e-18,0,0.66667
0.38652,0.61918,3.0922,0.17877,12.878,211.38,-1.4741,0.49137,-1.8859,-1.9655,1.1496e-12,-0.94296,0,0,0.125,-0,-0,0.66667
0.28048,0.76723,2.2439,0.40084,31.347,276.97,-2.3985,0.79951,-1.4307,-3.198,1.0497e-11,-0.71533,0,0,0.125,-0,-0,0.66667
0.15318,0.87575,1.2255,0.56363,46.824,361.13,-1.8419,0.61397,-0.87165,-2.4559,-6.1858e-09,-0.43583,0,0,0.125,-5.9212e-16,8.559e-20,0.66667
0.31327,0.55583,2.5062,0.083742,6.3965,256.04,-0.55966,0.18655,-1.9775,-0.74622,-1.5866e-12,-0.98877,0,0,0.125,-0,-0,0.66667
0.49926,0.70099,3.9941,0.30148,19.167,148.44,-3.2111,1.0704,-1.6788,-4.2814,-6.0485e-13,-0.83941,0,0,0.125,-0,-0,0.66667
0.67091,0.26949,5.3673,-0.34577,-16.066,69.837,4.9489,-1.6496,-1.5767,6.5986,2.5127e-12,-0.78835,0,0,0.125,-1.1842e-15,0,0.66667
0.29158,0.70152,2.3326,0.30228,23.454,269.83,-1.8803,0.62675,-1.6734,-2.507,4.7784e-12,-0.83669,0,0,0.125,-0,-0,0.66667
0.48683,0.93705,3.8946,0.65557,42.593,155.58,-6.8086,2.2695,-0.47367,-9.0781,1.8048e-12,-0.23684,0,0,0.125,-7.7716e-16,0,0.66667
0.69406,0.034591,5.5525,-0.69811,-30.821,62.051,10.337,-3.4456,-0.26604,13.782,-3.5971e-13,-0.13302,0,0,0.125,2.3685e-15,0,0.66667
0.94232,0.17582,7.5385,-0.48626,-4.4845,3.6736,9.7753,-3.2584,-1.1578,13.034,-4.3359e-08,-0.57892,0,0,0.125,-0,-0,0.66667
0.11331,0.60785,0.9065,0.16178,13.538,388.15,-0.39108,0.13036,-1.9059,-0.52144,-9.6028e-09,-0.95297,0,0,0.125,-0,-0,0.66667
0.37705,0.53276,3.0164,0.049137,3.5684,216.97,-0.39525,0.13175,-1.9933,-0.52699,-5.3388e-13,-0.99667,0,0,0.125,-0,-0,0.66667
0.86667,0.21037,6.9334,-0.43445,-9.0582,13.689,8.0325,-2.6775,-1.327,10.71,-5.8061e-09,-0.6635,0,0,0.125,-0,-0,0.66667
0.76793,0.81183,6.1434,0.46774,16.209,37.15,-7.6628,2.5543,-1.224,-10.217,-6.3855e-11,-0.61198,0,0,0.125,7.4015e-17,0,0.66667
0.82594,0.12599,6.6075,-0.56102,-15.071,22.379,9.8852,-3.2951,-0.88281,13.18,2.1719e-10,-0.44141,0,0,0.125,-0,-0,0.66667
0.036904,0.38288,0.29523,-0.17568,-14.874,440.85,0.13831,-0.046103,-1.8888,0.18441,-7.7973e-08,-0.94439,0,0,0.125,-0,-0,0.66667
0.80406,0.38067,6.4325,-0.17899,-5.3006,26.81,3.0702,-1.0234,-1.8845,4.0936,-2.9215e-10,-0.94226,0,0,0.125,-0,-0,0.66667
0.095263,0.42336,0.76211,-0.11496,-9.6553,400.53,0.23363,-0.077876,-1.9541,0.3115,7.6958e-09,-0.97705,0,0,0.125,1.4803e-16,0,0.66667
0.35271,0.098327,2.8217,-0.60251,-44.893,232.1,4.5335,-1.5112,-0.70793,6.0447,-2.4389e-12,-0.35397,0,0,0.125,-0,-0,0.66667
0.23302,0.85235,1.8642,0.52852,42.496,307.84,-2.6274,0.87579,-1.0084,-3.5032,-1.9095e-11,-0.50421,0,0,0.125,-0,1.1203e-17,0.66667
0.98438,0.12663,7.875,-0.56006,-1.3368,1.4406,11.761,-3.9204,-0.88902,15.682,1.1954e-07,-0.44451,0,0,0.125,-0,-0,0.66667
0.48234,0.089524,3.8587,-0.61571,-40.2,157.89,6.3357,-2.1119,-0.65353,8.4476,1.6609e-13,-0.32676,0,0,0.125,-0,-0,0.66667
0.28033,0.85604,2.2426,0.53407,41.839,277.19,-3.1939,1.0646,-0.98768,-4.2585,7.8708e-12,-0.49384,0,0,0.125,-0,1.9577e-16,0.66667
0.42077,0.1314,3.3662,-0.5529,-38.68,191.84,4.9631,-1.6544,-0.91521,6.6175,-4.4409e-14,-0.45761,0,0,0.125,-0,-0,0.66667
0.13901,0.42191,1.112,-0.11714,-9.736,370.59,0.34737,-0.11579,-1.9522,0.46316,3.2427e-09,-0.97609,0,0,0.125,1.3144e-16,0,0.66667
0.78121,0.59495,6.2497,0.14243,4.6563,32.83,-2.3737,0.79123,-1.9322,-3.1649,7.4571e-11,-0.96609,0,0,0.125,-0,-0,0.66667
0.82105,0.86609,6.5684,0.54913,15.121,23.464,-9.6184,3.2061,-0.92591,-12.825,1.2107e-09,-0.46295,0,0,0.125,-5.9212e-16,0,0.66667
0.0059699,0.80743,0.047759,0.46114,39.182,462.31,-0.058729,0.019576,-1.2427,-0.078306,-8.4575e-07,-0.62134,0,0,0.125,1.1565e-17,0,0.66667
0.35861,0.90751,2.8689,0.61127,45.334,228.54,-4.6764,1.5588,-0.67483,-6.2352,7.5584e-13,-0.33742,0,0,0.125,1.1842e-15,0,0.66667
0.92793,0.57732,7.4235,0.11597,1.309,4.3215,-2.2958,0.76527,-1.9501,-3.0611,2.7438e-08,-0.97507,0,0,0.125,-0,-0,0.66667
0.55859,0.34121,4.4687,-0.23818,-13.858,118.56,2.8383,-0.94609,-1.7985,3.7844,-3.1242e-13,-0.89924,0,0,0.125,-1.0189e-15,0,0.66667
0.17029,0.65394,1.3624,0.23091,19.011,349.42,-0.8389,0.27963,-1.8127,-1.1185,-1.0734e-09,-0.90633,0,0,0.125,7.4015e-17,0,0.66667
0.39769,0.27575,3.1815,-0.33638,-24.008,204.92,2.8538,-0.95127,-1.5962,3.8051,6.7923e-13,-0.79808,0,0,0.125,-8.8818e-16,0,0.66667
0.63071,0.012783,5.0457,-0.73083,-37.534,87.021,9.8334,-3.2778,-0.099085,13.111,-1.4921e-12,-0.049543,0,0,0.125,2.3685e-15,0,0.66667
0.7635,0.13408,6.108,-0.54888,-19.386,38.67,8.9401,-2.98,-0.92959,11.92,2.8304e-11,-0.4648,0,0,0.125,-0,-7.4487e-17,0.66667
0.98548,0.12831,7.8838,-0.55753,-1.2261,1.3969,11.721,-3.9071,-0.89737,15.628,-6.103e-07,-0.44869,0,0,0.125,-0,-0,0.66667
0.97769,0.7979,7.8215,0.44685,1.5146,1.2844,-9.3201,3.1067,-1.2879,-12.427,-8.8039e-07,-0.64393,0,0,0.125,-0,-0,0.66667
0.44414,0.81817,3.5531,0.47725,32.526,178.51,-4.5219,1.5073,-1.1887,-6.0292,1.3394e-12,-0.59434,0,0,0.125,-1.1842e-15,0,0.66667
0.91798,0.25069,7.3438,-0.37396,-4.8561,5.8529,7.3235,-2.4412,-1.5033,9.7646,-3.9299e-08,-0.75167,0,0,0.125,-0,-0,0.66667
0.72376,0.76704,5.7901,0.40056,16.109,50.84,-6.1848,2.0616,-1.4279,-8.2464,-1.3918e-11,-0.71394,0,0,0.125,-0,-0,0.66667
0.15494,0.29825,1.2395,-0.30262,-25.056,359.81,1.0003,-0.33342,-1.6757,1.3337,2.5563e-09,-0.83785,0,0,0.125,-4.7954e-16,0,0.66667
0.56932,0.47383,4.5545,-0.039254,-2.2412,113.33,0.47676,-0.15892,-1.9931,0.63568,-6.5226e-14,-0.99654,0,0,0.125,-0,-0,0.66667
0.52955,0.08678,4.2364,-0.61983,-37.945,133.45,7.0023,-2.3341,-0.63541,9.3364,7.7272e-13,-0.3177,0,0,0.125,8.8818e-16,-1.0261e-16,0.66667
0.93954,0.47528,7.5163,-0.037087,-0.34952,3.1347,0.74335,-0.24778,-1.9962,0.99113,-7.5571e-08,-0.99811,0,0,0.125,-0,-0,0.66667
0.69262,0.80615,5.541,0.45922,20.22,61.893,-6.7854,2.2618,-1.2491,-9.0473,-3.8969e-12,-0.62455,0,0,0.125,-0,-0,0.66667
0.53942,0.84989,4.3154,0.52484,31.598,128.33,-6.0397,2.0132,-1.0189,-8.0529,-1.2568e-13,-0.50947,0,0,0.125,-0,-0,0.66667
0.91872,0.2421,7.3498,-0.38684,-4.9823,5.7974,7.5819,-2.5273,-1.4679,10.109,-4.1055e-08,-0.73394,0,0,0.125,5.9212e-16,0,0.66667
0.080916,0.2071,0.64733,-0.43935,-37.077,410.46,0.75841,-0.2528,-1.3136,1.0112,4.7053e-08,-0.65682,0,0,0.125,-7.4015e-17,0,0.66667
0.30942,0.1449,2.4754,-0.53265,-40.947,258.76,3.516,-1.172,-0.99099,4.688,-2.7287e-12,-0.49549,0,0,0.125,-0,-0,0.66667
0.36636,0.72165,2.9309,0.33247,24.407,223.52,-2.5984,0.86615,-1.6059,-3.4646,-6.4326e-13,-0.80294,0,0,0.125,-0,-0,0.66667
0.011747,0.3301,0.093976,-0.25485,-21.612,458.29,0.063865,-0.021288,-1.7681,0.085154,1.1111e-07,-0.88406,0,0,0.125,-0,-0,0.66667
0.54516,0.50094,4.3613,0.0014064,0.083524,124.97,-0.016357,0.0054522,-2.0024,-0.021809,-8.8925e-13,-1.0012,0,0,0.125,-0,-0,0.66667
0.38558,0.59638,3.0846,0.14457,10.421,211.93,-1.1892,0.39639,-1.9252,-1.5856,7.826e-13,-0.96261,0,0,0.125,-0,-0,0.66667
0.46514,0.19373,3.7212,-0.4594,-30.553,166.88,4.5587,-1.5196,-1.2494,6.0782,2.8821e-13,-0.62471,0,0,0.125,-0,-0,0.66667
0.052614,0.35369,0.42091,-0.21947,-18.559,429.97,0.24634,-0.082114,-1.827,0.32845,-4.564e-08,-0.91351,0,0,0.125,1.4803e-16,0,0.66667
0.98055,0.26454,7.8444,-0.35319,-1.0007,0.91198,7.3881,-2.4627,-1.5555,9.8508,2.6172e-07,-0.77777,0,0,0.125,-0,-0,0.66667
0.87537,0.80673,7.003,0.4601,9.009,12.234,-8.5922,2.8641,-1.2504,-11.456,8.7444e-09,-0.62521,0,0,0.125,5.9212e-16,0,0.66667
0.31262,0.25213,2.5009,-0.37181,-28.464,256.59,2.4797,-0.82656,-1.5125,3.3062,-3.8312e-12,-0.75624,0,0,0.125,-0,-0,0.66667
0.081769,0.19176,0.65415,-0.46237,-39.024,409.88,0.80656,-0.26885,-1.24,1.0754,4.3948e-08,-0.61998,0,0,0.125,-0,-0,0.66667
0.1066,0.10151,0.85281,-0.59774,-50.3,392.87,1.3594,-0.45312,-0.72991,1.8125,5.1367e-08,-0.36495,0,0,0.125,2.9606e-16,-8.3674e-17,0.66667
0.11128,0.15852,0.89023,-0.51222,-43.009,389.63,1.216,-0.40533,-1.0691,1.6213,1.4986e-08,-0.53453,0,0,0.125,-0,-0,0.66667
0.31416,0.97084,2.5133,0.70625,54.272,256.03,-4.7334,1.5778,-0.22871,-6.3112,1.0112e-12,-0.11436,0,0,0.125,-0,-0,0.66667
0.74672,0.34448,5.9738,-0.23328,-8.684,43.111,3.7162,-1.2387,-1.8075,4.9549,1.3662e-11,-0.90375,0,0,0.125,-2.3685e-15,0,0.66667
0.86782,0.0019669,6.9426,-0.74705,-15.735,14.621,13.831,-4.6102,-0.014738,18.441,2.8715e-09,-0.0073692,0,0,0.125,-0,-0,0.66667
0.45038,0.92507,3.603,0.6376,43.269,175.32,-6.1262,2.0421,-0.55449,-8.1682,-1.8785e-13,-0.27724,0,0,0.125,-0,-1.6527e-16,0.66667
0.7354,0.7774,5.8832,0.41609,16.136,47.031,-6.5279,2.176,-1.387,-8.7039,-1.1387e-11,-0.6935,0,0,0.125,1.7764e-15,0,0.66667
0.19541,0.90556,1.5633,0.60834,49.808,332.78,-2.536,0.84535,-0.68342,-3.3814,-1.3284e-09,-0.34171,0,0,0.125,3.3307e-16,0,0.66667
0.1939,0.052008,1.5512,-0.67199,-55.11,333.84,2.7798,-0.92659,-0.39248,3.7064,-5.1146e-10,-0.19624,0,0,0.125,2.9606e-16,0,0.66667
0.36744,0.091851,2.9395,-0.61222,-45.07,223.22,4.7991,-1.5997,-0.66633,6.3988,-7.9936e-13,-0.33317,0,0,0.125,-5.9212e-16,0,0.66667
0.34924,0.47648,2.7939,-0.035287,-2.6233,233.77,0.2629,-0.087634,-1.9942,0.35054,-1.9128e-12,-0.99708,0,0,0.125,-0,-0,0.66667
0.30208,0.6383,2.4166,0.20745,15.975,263.12,-1.3369,0.44562,-1.8453,-1.7825,2.5846e-12,-0.92265,0,0,0.125,5.9212e-16,0,0.66667
0.54976,0.12317,4.3981,-0.56524,-33.513,123.35,6.6292,-2.2097,-0.86512,8.839,-2.2999e-12,-0.43256,0,0,0.125,1.3323e-15,0,0.66667
0.012695,0.45907,0.10156,-0.061393,-5.2025,457.63,0.016627,-0.0055441,-1.9866,0.022169,-2.4111e-06,-0.99329,0,0,0.125,-0,-0,0.66667
0.35923,0.86273,2.8738,0.54409,40.287,228.07,-4.1697,1.3899,-0.95023,-5.5596,1.9162e-12,-0.47512,0,0,0.125,-5.9212e-16,-1.6406e-16,0.66667
0.68499,0.67585,5.4799,0.26377,11.812,64.367,-3.8545,1.2848,-1.7528,-5.1394,-5.1399e-12,-0.87641,0,0,0.125,-0,-0,0.66667
0.20754,0.64976,1.6603,0.22464,18.224,324.48,-0.9946,0.33153,-1.8198,-1.3261,-1.3742e-10,-0.90992,0,0,0.125,1.4803e-16,0,0.66667
0.18084,0.94673,1.4467,0.6701,55.233,342.58,-2.5852,0.86172,-0.40153,-3.4469,-2.6688e-09,-0.20077,0,0,0.125,-0,-0,0.66667
0.29412,0.78172,2.3529,0.42259,32.773,268.3,-2.6515,0.88383,-1.3665,-3.5353,7.6081e-12,-0.68327,0,0,0.125,-1.1842e-15,0,0.66667
0.0056085,0.85954,0.044868,0.53931,45.868,462.56,-0.064527,0.021508,-0.96395,-0.086036,-1.5531e-06,-0.48197,0,0,0.125,-0,-7.5606e-17,0.66667
0.34478,0.093471,2.7583,-0.60979,-45.729,236.95,4.4853,-1.4951,-0.68114,5.9804,-1.5001e-12,-0.34057,0,0,0.125,2.5905e-16,0,0.66667
0.8284,0.54598,6.6272,0.068969,1.8066,20.91,-1.2189,0.40629,-1.9856,-1.6251,4.3807e-10,-0.99281,0,0,0.125,-0,-0,0.66667
0.022289,0.46279,0.17831,-0.055819,-4.7285,450.98,0.026542,-0.0088469,-1.9874,0.03539,7.9485e-07,-0.99369,0,0,0.125,1.8504e-17,0,0.66667
0.030319,0.51366,0.24255,0.020497,1.7355,445.41,-0.013258,0.0044206,-2.0003,-0.017677,1.9241e-06,-1.0001,0,0,0.125,-0,-0,0.66667
0.37436,0.48691,2.9948,-0.019641,-1.4297,218.58,0.15686,-0.052287,-2.0008,0.20915,5.9443e-13,-1.0004,0,0,0.125,-0,-0,0.66667
0.06536,0.46196,0.52288,-0.057059,-4.8151,421.15,0.07956,-0.02652,-1.9888,0.10608,1.2649e-08,-0.99438,0,0,0.125,-3.7007e-17,0,0.66667
0.85305,0.87188,6.8244,0.55782,12.817,16.629,-10.151,3.3838,-0.89261,-13.535,5.0649e-09,-0.44631,0,0,0.125,-1.1842e-15,0,0.66667
0.36355,0.95926,2.9084,0.68889,50.952,225.69,-5.3428,1.7809,-0.31175,-7.1238,1.6387e-13,-0.15588,0,0,0.125,2.9606e-16,0,0.66667
0.70869,0.054388,5.6695,-0.66842,-28.311,56.735,10.106,-3.3685,-0.40996,13.474,-5.9153e-13,-0.20498,0,0,0.125,-5.9212e-16,0,0.66667
0.34251,0.84271,2.7401,0.51407,38.562,238.21,-3.7562,1.2521,-1.0633,-5.0083,7.2542e-13,-0.53163,0,0,0.125,3.7007e-17,0,0.66667
0.28541,0.31991,2.2833,-0.27014,-21.037,273.73,1.6448,-0.54827,-1.7398,2.1931,-8.7663e-12,-0.86992,0,0,0.125,-5.9212e-16,0,0.66667
0.0054914,0.54289,0.043931,0.064328,5.4519,462.63,-0.0075359,0.0025105,-1.9836,-0.010049,-2.259e-06,-0.99178,0,0,0.125,-0,-0,0.66667
0.27003,0.96627,2.1603,0.69941,55.278,283.99,-4.0291,1.343,-0.2606,-5.3722,2.2258e-12,-0.1303,0,0,0.125,2.9606e-16,0,0.66667
0.55821,0.31488,4.4657,-0.27767,-16.172,118.78,3.3066,-1.1022,-1.7258,4.4089,-6.5947e-13,-0.86292,0,0,0.125,-0,-0,0.66667
0.39521,0.10285,3.1617,-0.59572,-42.767,206.71,5.0226,-1.6742,-0.73707,6.6968,1.541e-13,-0.36854,0,0,0.125,1.1842e-15,0,0.66667
0.84515,0.74048,6.7612,0.36073,8.6332,17.67,-6.5038,2.1679,-1.5388,-8.6718,2.5853e-09,-0.7694,0,0,0.125,-0,-0,0.66667
0.25356,0.77002,2.0285,0.40503,32.173,294.33,-2.1909,0.73031,-1.4161,-2.9212,1.2152e-11,-0.70805,0,0,0.125,-2.9606e-16,0,0.66667
0.92019,0.55431,7.3615,0.081458,1.0183,5.159,-1.5991,0.53303,-1.9777,-2.1321,1.7599e-08,-0.98885,0,0,0.125,5.9212e-16,0,0.66667
0.14496,0.19467,1.1597,-0.458,-38.094,366.64,1.4163,-0.47211,-1.2534,1.8884,3.496e-09,-0.6267,0,0,0.125,-0,-0,0.66667
0.48392,0.9817,3.8713,0.72256,47.189,157.29,-7.4593,2.4864,-0.14605,-9.9458,8.753e-13,-0.073026,0,0,0.125,-0,-0,0.66667
0.20199,0.34741,1.6159,-0.22888,-18.614,328.18,0.98627,-0.32876,-1.8162,1.315,1.6889e-10,-0.90811,0,0,0.125,-5.9212e-16,0,0.66667
0.11218,0.70238,0.89746,0.30357,25.431,388.95,-0.72652,0.24217,-1.6722,-0.96869,-1.4348e-08,-0.83608,0,0,0.125,-1.4803e-16,0,0.66667
0.078936,0.89002,0.63149,0.58504,49.478,411.87,-0.98518,0.32839,-0.78493,-1.3136,-1.1159e-08,-0.39246,0,0,0.125,1.4803e-16,0,0.66667
0.097961,0.085307,0.78369,-0.62204,-52.458,398.81,1.3,-0.43332,-0.6234,1.7333,-7.2609e-09,-0.3117,0,0,0.125,7.4015e-17,0,0.66667
0.44342,0.31687,3.5474,-0.27469,-18.693,178.67,2.5985,-0.86618,-1.7306,3.4647,4.3143e-13,-0.8653,0,0,0.125,-0,-0,0.66667
0.49394,0.86576,3.9515,0.54864,35.246,151.6,-5.7811,1.927,-0.92802,-7.7082,2.4425e-14,-0.46401,0,0,0.125,-0,-0,0.66667
0.29445,0.90543,2.3556,0.60815,47.274,268.29,-3.8202,1.2734,-0.6867,-5.0935,-8.5132e-13,-0.34335,0,0,0.125,7.0314e-16,0,0.66667
0.71033,0.70738,5.6827,0.31106,13,55.277,-4.7138,1.5713,-1.6538,-6.285,-9.3854e-12,-0.82691,0,0,0.125,-0,-0,0.66667
0.0215,0.4948,0.172,-0.007805,-0.66116,451.53,0.0035797,-0.0011944,-1.9986,0.0047724,-1.7481e-06,-0.99928,0,0,0.125,3.4789e-18,0,0.66667
0.30959,0.66677,2.4767,0.25015,19.171,258.41,-1.6522,0.55072,-1.7774,-2.2029,2.3984e-12,-0.88872,0,0,0.125,-0,-0,0.66667
0.84278,0.99771,6.7423,0.74657,18.453,19.441,-13.423,4.4743,-0.021203,-17.897,-3.2028e-09,-0.010602,0,0,0.125,1.6283e-15,4.0184e-17,0.66667
0.54746,0.3655,4.3797,-0.20176,-11.947,123.92,2.3563,-0.78544,-1.8577,3.1418,9.3037e-13,-0.92884,0,0,0.125,-5.9212e-16,0,0.66667
0.05517,0.16096,0.44136,-0.50857,-43.105,428.25,0.59856,-0.19952,-1.0789,0.79808,-6.4854e-10,-0.53947,0,0,0.125,1.4803e-16,0,0.66667
0.51017,0.8193,4.0813,0.47895,30.068,143.02,-5.2127,1.7376,-1.1831,-6.9503,1.8519e-13,-0.59154,0,0,0.125,-0,-0,0.66667
0.29425,0.90758,2.354,0.61137,47.534,268.42,-3.8379,1.2793,-0.67243,-5.1171,1.4508e-12,-0.33622,0,0,0.125,-0,1.5985e-16,0.66667
0.16633,0.020615,1.3306,-0.71908,-59.63,352.37,2.5515,-0.85051,-0.15982,3.402,1.6063e-10,-0.079912,0,0,0.125,2.9606e-16,0,0.66667
0.67928,0.38913,5.4343,-0.1663,-7.5508,66.413,2.41,-0.80333,-1.8994,3.2133,2.0164e-12,-0.94969,0,0,0.125,-0,-0,0.66667
0.19682,0.54707,1.5745,0.070602,5.7505,331.59,-0.29644,0.098814,-1.9802,-0.39526,-1.098e-10,-0.99008,0,0,0.125,-0,-0,0.66667
0.39589,0.89271,3.1671,0.58907,42.257,206.3,-4.9751,1.6584,-0.7645,-6.6334,1.4913e-12,-0.38225,0,0,0.125,-0,-0,0.66667
0.72776,0.28688,5.8221,-0.31969,-12.679,49.352,4.9634,-1.6545,-1.6351,6.6178,1.3985e-11,-0.81757,0,0,0.125,-0,-0,0.66667
0.80994,0.72485,6.4795,0.33727,9.7436,25.58,-5.8275,1.9425,-1.5962,-7.77,4.0361e-10,-0.79812,0,0,0.125,-0,-0,0.66667
0.60148,0.7141,4.8119,0.32115,17.337,98.752,-4.1209,1.3736,-1.6318,-5.4946,-1.8168e-12,-0.81591,0,0,0.125,-0,-0,0.66667
0.13081,0.80871,1.0465,0.46306,38.671,376.27,-1.2922,0.43073,-1.2366,-1.7229,-4.5201e-09,-0.61831,0,0,0.125,-0,-0,0.66667
0.01089,0.87638,0.087124,0.56457,48.028,458.9,-0.13117,0.04372,-0.86661,-0.17489,-2.4896e-06,-0.43331,0,0,0.125,-3.7007e-17,0,0.66667
0.29257,0.67485,2.3406,0.26227,20.331,269.17,-1.637,0.54566,-1.7542,-2.1826,5.1471e-12,-0.87712,0,0,0.125,-0,-0,0.66667
0.48388,0.98115,3.8711,0.72172,47.136,157.31,-7.4503,2.4834,-0.15031,-9.9337,5.1648e-13,-0.075154,0,0,0.125,-0,1.4172e-16,0.66667
0.075671,0.54659,0.60537,0.069881,5.8886,414.03,-0.11281,0.037603,-1.9828,-0.15041,3.0595e-08,-0.99139,0,0,0.125,-1.4803e-16,0,0.66667
0.083491,0.55471,0.66793,0.082062,6.9065,408.64,-0.14616,0.048722,-1.9747,-0.19489,-3.737e-09,-0.98735,0,0,0.125,-0,-0,0.66667
0.97949,0.95961,7.836,0.68942,2.3256,2.1728,-14.406,4.802,-0.30874,-19.208,-1.9845e-05,-0.15437,0,0,0.125,-0,-0,0.66667
0.62427,0.98317,4.9942,0.72475,37.715,89.728,-9.6521,3.2174,-0.13437,-12.869,-9.6101e-13,-0.067186,0,0,0.125,1.1842e-15,-1.4715e-16,0.66667
0.82291,0.23267,6.5833,-0.401,-10.879,22.623,7.0397,-2.3466,-1.4266,9.3863,-6.6386e-10,-0.71328,0,0,0.125,-1.1842e-15,0,0.66667
0.78101,0.77624,6.2481,0.41436,13.623,33.307,-6.9038,2.3013,-1.3929,-9.2051,3.733e-12,-0.69646,0,0,0.125,2.2388e-15,0,0.66667
0.51024,0.88808,4.0819,0.58212,36.607,143.18,-6.3365,2.1122,-0.79338,-8.4486,9.2415e-13,-0.39669,0,0,0.125,-0,-0,0.66667
0.60696,0.87777,4.8557,0.56665,30.399,96.789,-7.3373,2.4458,-0.85967,-9.7831,-1.8492e-12,-0.42984,0,0,0.125,2.3685e-15,0,0.66667
0.28245,0.58043,2.2596,0.12065,9.4055,275.57,-0.72699,0.24233,-1.9497,-0.96932,4.9203e-12,-0.97485,0,0,0.125,-2.9606e-16,0,0.66667
0.936,0.6952,7.488,0.2928,2.9512,3.7476,-5.8465,1.9488,-1.6967,-7.7954,1.0094e-08,-0.84836,0,0,0.125,-0,-0,0.66667
0.61687,0.87202,4.935,0.55803,29.353,92.436,-7.3437,2.4479,-0.89161,-9.7915,-9.5568e-13,-0.44581,0,0,0.125,-1.3323e-15,0,0.66667
0.40685,0.23849,3.2548,-0.39227,-27.766,199.64,3.4047,-1.1349,-1.4551,4.5395,-6.7102e-13,-0.72757,0,0,0.125,-0,-0,0.66667
0.050178,0.86192,0.40143,0.54289,46.059,431.7,-0.58114,0.19371,-0.95156,-0.77486,-2.5093e-07,-0.47578,0,0,0.125,7.4015e-17,0,0.66667
0.10484,0.33565,0.83876,-0.24652,-20.677,393.97,0.55139,-0.1838,-1.7829,0.73519,1.4551e-08,-0.89147,0,0,0.125,7.4015e-17,0,0.66667
0.44394,0.88971,3.5515,0.58457,39.918,178.8,-5.5363,1.8454,-0.78284,-7.3817,8.9706e-13,-0.39142,0,0,0.125,-5.9212e-16,0,0.66667
0.023763,0.31514,0.1901,-0.2773,-23.51,449.96,0.14057,-0.046857,-1.7255,0.18743,-1.7289e-07,-0.86274,0,0,0.125,-0,-0,0.66667
0.28857,0.67346,2.3086,0.26019,20.22,271.71,-1.6018,0.53392,-1.757,-2.1357,6.2896e-12,-0.87852,0,0,0.125,-0,-0,0.66667
0.2149,0.54192,1.7192,0.062874,5.0811,319.57,-0.28824,0.096081,-1.9851,-0.38432,-5.4868e-11,-0.99257,0,0,0.125,-0,-0,0.66667
0.22151,0.077142,1.7721,-0.63429,-51.365,315.51,2.9974,-0.99912,-0.56941,3.9965,-5.3644e-11,-0.2847,0,0,0.125,-0,-0,0.66667
0.19268,0.10631,1.5415,-0.59054,-48.391,334.59,2.4274,-0.80915,-0.75841,3.2366,3.8928e-10,-0.37921,0,0,0.125,-0,-0,0.66667
0.83915,0.32154,6.7132,-0.26769,-6.6212,18.752,4.7922,-1.5974,-1.7441,6.3896,-1.9358e-09,-0.87205,0,0,0.125,2.3685e-15,0,0.66667
0.46604,0.14617,3.7284,-0.53074,-35.299,166.51,5.2768,-1.7589,-0.99857,7.0357,-2.0548e-12,-0.49929,0,0,0.125,-0,-0,0.66667
0.54314,0.98238,4.3451,0.72357,43.5,126.98,-8.3839,2.7946,-0.13764,-11.179,6.7235e-13,-0.068819,0,0,0.125,-0,1.4561e-16,0.66667
0.58082,0.14268,4.6465,-0.53598,-30.154,108.54,6.6412,-2.2137,-0.97855,8.8549,-2.1005e-13,-0.48928,0,0,0.125,-0,-0,0.66667
0.094346,0.70767,0.75477,0.31151,26.195,401.19,-0.62698,0.20899,-1.6573,-0.83598,-2.4674e-08,-0.82863,0,0,0.125,-1.4803e-16,0,0.66667
0.064011,0.39216,0.51209,-0.16175,-13.656,422.09,0.22088,-0.073628,-1.9081,0.29451,-1.0004e-08,-0.95404,0,0,0.125,-0,-0,0.66667
0.98681,0.23433,7.8945,-0.39851,-0.72431,0.8249,8.3894,-2.7965,-1.4355,11.186,-4.2729e-08,-0.71775,0,0,0.125,1.1842e-15,0,0.66667
0.28383,0.89667,2.2707,0.595,46.555,275.03,-3.6028,1.2009,-0.74151,-4.8037,3.6586e-12,-0.37076,0,0,0.125,-0,-0,0.66667
0.1419,0.27554,1.1352,-0.33669,-27.996,368.67,1.0192,-0.33975,-1.599,1.359,4.6827e-09,-0.79948,0,0,0.125,7.4015e-17,0,0.66667
0.018779,0.25641,0.15023,-0.36538,-31.006,453.42,0.14638,-0.048793,-1.5255,0.19517,-2.6761e-07,-0.76273,0,0,0.125,3.7007e-17,0,0.66667
0.87071,0.11263,6.9657,-0.58105,-11.857,13.431,10.793,-3.5977,-0.7984,14.391,-8.0928e-09,-0.3992,0,0,0.125,-0,-0,0.66667
0.17375,0.67566,1.39,0.26349,21.671,347.1,-0.97666,0.32555,-1.7539,-1.3022,-1.0579e-09,-0.87697,0,0,0.125,-2.9606e-16,0,0.66667
0.17154,0.66201,1.3723,0.24301,20,348.58,-0.88928,0.29643,-1.7932,-1.1857,-1.0804e-09,-0.89658,0,0,0.125,-0,-0,0.66667
0.3727,0.75567,2.9816,0.38351,28.015,219.77,-3.0492,1.0164,-1.478,-4.0656,-1.7102e-12,-0.73901,0,0,0.125,-0,-0,0.66667
0.18251,0.071959,1.4601,-0.64206,-52.864,341.43,2.4999,-0.83329,-0.53289,3.3332,1.5873e-09,-0.26644,0,0,0.125,-0,-0,0.66667
0.44101,0.26331,3.5281,-0.35503,-24.243,180.1,3.3402,-1.1134,-1.5511,4.4536,9.7478e-14,-0.77557,0,0,0.125,-0,-0,0.66667
0.57868,0.74507,4.6294,0.36761,20.702,109.22,-4.5381,1.5127,-1.5225,-6.0508,9.015e-14,-0.76126,0,0,0.125,-0,-0,0.66667
0.83616,0.99925,6.6893,0.74887,19.223,20.849,-13.358,4.4528,-0.0052563,-17.811,1.2994e-10,-0.0026281,0,0,0.125,1.3323e-15,0,0.66667
0.58829,0.88145,4.7064,0.57217,31.788,105.18,-7.1809,2.3936,-0.83475,-9.5745,-9.8499e-13,-0.41737,0,0,0.125,-0,-0,0.66667
0.92403,0.29377,7.3923,-0.30934,-3.7085,5.0153,6.0979,-2.0326,-1.6603,8.1305,-3.5351e-08,-0.83013,0,0,0.125,-0,-0,0.66667
0.48128,0.086455,3.8503,-0.62032,-40.558,158.46,6.369,-2.123,-0.63192,8.4921,-4.4409e-14,-0.31596,0,0,0.125,-0,-0,0.66667
0.62184,0.13831,4.9747,-0.54254,-28.243,90.254,7.1973,-2.3991,-0.95301,9.5964,-6.2572e-13,-0.4765,0,0,0.125,-0,-0,0.66667
0.44171,0.99171,3.5337,0.73757,50.645,180.36,-6.9502,2.3167,-0.064926,-9.2669,-1.3625e-12,-0.032463,0,0,0.125,5.9212e-16,0,0.66667
0.91251,0.81749,7.3001,0.47623,6.634,6.8004,-9.2707,3.0902,-1.1923,-12.361,2.4151e-08,-0.59615,0,0,0.125,-0,-0,0.66667
0.71041,0.32137,5.6833,-0.26794,-11.189,55.188,4.0608,-1.3536,-1.7428,5.4144,8.9981e-12,-0.87138,0,0,0.125,-0,-0,0.66667
0.6028,0.34505,4.8224,-0.23242,-12.504,98.062,2.9889,-0.99628,-1.8072,3.9851,-5.9974e-13,-0.9036,0,0,0.125,-0,-0,0.66667
0.84339,0.48622,6.7471,-0.020668,-0.49711,17.646,0.37186,-0.12395,-2.0009,0.49581,1.9334e-10,-1.0005,0,0,0.125,-1.1842e-15,0,0.66667
0.9065,0.013038,7.252,-0.73044,-11.09,8.5619,14.126,-4.7086,-0.10557,18.834,2.8289e-07,-0.052784,0,0,0.125,-0,-0,0.66667
0.57799,0.65976,4.6239,0.23964,13.492,109.38,-2.9548,0.98494,-1.7996,-3.9398,9.055e-13,-0.89978,0,0,0.125,-2.3685e-15,0,0.66667
0.2076,0.6129,1.6608,0.16935,13.735,324.43,-0.75001,0.25,-1.8968,-1,-1.2475e-10,-0.94838,0,0,0.125,-0,-0,0.66667
0.33309,0.014867,2.6647,-0.7277,-55.183,244.32,5.171,-1.7237,-0.11556,6.8946,-3.1513e-12,-0.057778,0,0,0.125,-0,-0,0.66667
0.92001,0.49872,7.3601,-0.0019155,-0.023984,5.1579,0.037595,-0.012532,-2.0021,0.050127,-1.1625e-07,-1.0011,0,0,0.125,-1.6283e-15,0,0.66667
0.49116,0.22704,3.9293,-0.40944,-26.343,152.84,4.2902,-1.4301,-1.4021,5.7202,9.6234e-13,-0.70105,0,0,0.125,-1.1842e-15,0,0.66667
0.84515,0.33226,6.7612,-0.25161,-6.0042,17.469,4.5364,-1.5121,-1.7762,6.0485,-2.6298e-09,-0.88812,0,0,0.125,-1.1842e-15,0,0.66667
0.49158,0.99983,3.9326,0.74975,48.518,153.3,-7.8626,2.6209,-0.00072504,-10.483,-3.6771e-13,-0.00036252,0,0,0.125,-8.8818e-16,0,0.66667
0.048249,0.91957,0.38599,0.62936,53.471,433.05,-0.6478,0.21593,-0.59295,-0.86373,-1.2933e-06,-0.29647,0,0,0.125,-7.4015e-17,0,0.66667
0.58842,0.035467,4.7074,-0.6968,-38.817,105.46,8.7469,-2.9156,-0.2728,11.663,1.7817e-12,-0.1364,0,0,0.125,-0,-0,0.66667
0.97989,0.095195,7.8391,-0.60721,-1.9412,1.7868,12.693,-4.2311,-0.6891,16.924,4.867e-06,-0.34455,0,0,0.125,-2.3685e-15,0,0.66667
0.15147,0.91791,1.2117,0.62686,52.155,362.33,-2.0256,0.67519,-0.60141,-2.7007,-1.4829e-09,-0.3007,0,0,0.125,-0,-0,0.66667
0.62692,0.7816,5.0154,0.4224,21.71,87.828,-5.6493,1.8831,-1.3679,-7.5324,-1.5365e-12,-0.68395,0,0,0.125,-0,-0,0.66667
0.64441,0.94021,5.1553,0.66032,32.861,81.115,-9.0777,3.0259,-0.44995,-12.104,8.7752e-13,-0.22498,0,0,0.125,-0,-0,0.66667
0.10623,0.51827,0.84981,0.027401,2.2959,393,-0.062095,0.020698,-1.9969,-0.082793,-1.0099e-08,-0.99846,0,0,0.125,-2.9606e-16,0,0.66667
0.29898,0.936,2.3918,0.654,50.728,265.49,-4.1713,1.3904,-0.4811,-5.5618,4.0279e-13,-0.24055,0,0,0.125,-2.2204e-16,0,0.66667
0.38954,0.42618,3.1163,-0.11073,-7.9521,209.57,0.9202,-0.30673,-1.9581,1.2269,7.4774e-14,-0.97904,0,0,0.125,-0,-0,0.66667
0.95436,0.18962,7.6349,-0.46557,-3.3765,2.6529,9.4788,-3.1596,-1.232,12.638,-1.205e-07,-0.61599,0,0,0.125,-0,-0,0.66667
0.57675,0.84837,4.614,0.52255,29.601,110.39,-6.4295,2.1432,-1.0312,-8.5727,-1.9806e-13,-0.51561,0,0,0.125,-0,-0,0.66667
0.087358,0.64723,0.69887,0.22084,18.584,405.98,-0.41157,0.13719,-1.8248,-0.54876,-1.7624e-08,-0.91238,0,0,0.125,-7.4015e-17,0,0.66667
0.10716,0.037267,0.85728,-0.6941,-58.492,392.54,1.5868,-0.52892,-0.28804,2.1157,2.6372e-07,-0.14402,0,0,0.125,-0,9.2061e-17,0.66667
0.95368,0.43728,7.6295,-0.094083,-0.67246,1.9968,1.9141,-0.63805,-1.9724,2.5522,-1.756e-07,-0.98619,0,0,0.125,-1.2953e-16,0,0.66667
0.80534,0.53954,6.4428,0.059309,1.7442,26.405,-1.019,0.33966,-1.9856,-1.3586,4.0061e-11,-0.9928,0,0,0.125,-0,-0,0.66667
0.4283,0.67811,3.4264,0.26717,18.48,187.19,-2.4412,0.81372,-1.7443,-3.2549,-4.5342e-13,-0.87217,0,0,0.125,-0,-0,0.66667
0.67249,0.83457,5.3799,0.50186,23.296,69.544,-7.1999,2.4,-1.1069,-9.5999,-1.8239e-12,-0.55345,0,0,0.125,-0,-0,0.66667
0.21193,0.078488,1.6954,-0.63227,-51.424,321.83,2.8586,-0.95286,-0.5764,3.8114,-1.5196e-10,-0.2882,0,0,0.125,4.5085e-17,0,0.66667
0.52016,0.56299,4.1613,0.09449,5.8272,137.49,-1.0485,0.34951,-1.9685,-1.3981,-1.0372e-12,-0.98423,0,0,0.125,2.3685e-15,0,0.66667
0.97554,0.0057962,7.8043,-0.74131,-3.0466,2.5884,15.428,-5.1426,-0.044475,20.57,8.6408e-06,-0.022237,0,0,0.125,-0,-0,0.66667
0.83042,0.74754,6.6434,0.37132,9.6716,20.85,-6.5782,2.1927,-1.5113,-8.7709,1.0979e-09,-0.75564,0,0,0.125,-0,-0,0.66667
0.21598,0.68595,1.7278,0.27893,22.551,318.91,-1.2852,0.42839,-1.7246,-1.7136,-6.4673e-11,-0.86231,0,0,0.125,4.0708e-16,0,0.66667
0.44842,0.3499,3.5874,-0.22516,-15.23,175.84,2.1539,-0.71798,-1.8189,2.8719,-1.2892e-12,-0.90945,0,0,0.125,-0,-0,0.66667
0.57268,0.07627,4.5815,-0.63559,-36.345,112.57,7.7652,-2.5884,-0.56182,10.354,2.0028e-13,-0.28091,0,0,0.125,-1.1842e-15,0,0.66667
0.5708,0.13038,4.5664,-0.55443,-31.75,113.25,6.7514,-2.2505,-0.90549,9.0019,-7.9226e-13,-0.45274,0,0,0.125,-0,-0,0.66667
0.93053,0.94964,7.4442,0.67447,7.644,5.5111,-13.389,4.463,-0.38041,-17.852,9.5771e-07,-0.1902,0,0,0.125,-2.3685e-15,0,0.66667
0.2551,0.60925,2.0408,0.16388,12.983,293.21,-0.89184,0.29728,-1.9028,-1.1891,6.4627e-12,-0.95142,0,0,0.125,-5.9212e-16,0,0.66667
0.65634,0.52892,5.2507,0.04338,2.0819,75.288,-0.60741,0.20247,-1.9973,-0.80988,-2.7444e-12,-0.99867,0,0,0.125,1.4803e-15,0,0.66667
0.78125,0.10612,6.25,-0.59082,-19.514,33.734,9.8469,-3.2823,-0.76186,13.129,6.3976e-11,-0.38093,0,0,0.125,-0,-0,0.66667
0.11597,0.14207,0.92777,-0.53689,-45.046,386.43,1.3283,-0.44277,-0.97293,1.7711,8.7422e-09,-0.48647,0,0,0.125,1.4803e-16,0,0.66667
0.52639,0.76906,4.2111,0.40359,24.73,134.63,-4.5322,1.5107,-1.4194,-6.0429,3.1575e-13,-0.70968,0,0,0.125,5.9212e-16,0,0.66667
0.41234,0.50357,3.2987,0.0053589,0.37641,196.23,-0.04714,0.015713,-1.9989,-0.062853,-2.3868e-12,-0.99943,0,0,0.125,2.3685e-15,0,0.66667
0.50229,0.04608,4.0183,-0.68088,-43.373,147.52,7.296,-2.432,-0.35195,9.728,8.0913e-13,-0.17598,0,0,0.125,-0,-0,0.66667
0.065315,0.70099,0.52252,0.30149,25.47,421.2,-0.42009,0.14003,-1.6767,-0.56012,-1.8401e-08,-0.83834,0,0,0.125,-0,-0,0.66667
0.26954,0.92971,2.1563,0.64456,50.909,284.24,-3.7063,1.2354,-0.52222,-4.9418,5.1947e-12,-0.26111,0,0,0.125,-2.9606e-16,0,0.66667
0.25,0.74757,2,0.37135,29.545,296.62,-1.9806,0.66018,-1.5138,-2.6407,8.0483e-12,-0.7569,0,0,0.125,1.4803e-16,0,0.66667
0.66868,0.45537,5.3494,-0.066951,-3.1199,70.429,0.95506,-0.31835,-1.9836,1.2734,5.2702e-13,-0.9918,0,0,0.125,-0,-0,0.66667
0.050074,0.06621,0.40059,-0.65069,-55.292,431.8,0.69509,-0.2317,-0.49511,0.92679,7.0097e-07,-0.24755,0,0,0.125,-1.4803e-16,0,0.66667
0.97313,0.305,7.7851,-0.2925,-1.1784,1.0888,6.0724,-2.0241,-1.695,8.0966,2.2261e-07,-0.84748,0,0,0.125,1.7764e-15,0,0.66667
0.37569,0.52209,3.0055,0.033132,2.4089,217.78,-0.26554,0.088513,-1.9984,-0.35405,-1.3523e-13,-0.99921,0,0,0.125,-5.9212e-16,0,0.66667
0.87187,0.85284,6.975,0.52926,10.677,13.049,-9.8443,3.2814,-1.0039,-13.126,3.1976e-09,-0.50194,0,0,0.125,-0,-0,0.66667
0.69429,0.93895,5.5543,0.65843,29.014,61.834,-9.7524,3.2508,-0.45776,-13.003,-2.2613e-12,-0.22888,0,0,0.125,-0,-0,0.66667
0.029579,0.41966,0.23663,-0.1205,-10.205,445.92,0.07604,-0.025347,-1.9493,0.10139,-1.2405e-07,-0.97466,0,0,0.125,-0,-0,0.66667
0.087271,0.76168,0.69817,0.39252,33.073,406.08,-0.73078,0.24359,-1.4502,-0.97437,-2.9298e-08,-0.72508,0,0,0.125,1.4803e-16,0,0.66667
0.094963,0.37423,0.75971,-0.18865,-15.85,400.75,0.38218,-0.12739,-1.8764,0.50957,1.1586e-08,-0.93821,0,0,0.125,-5.5511e-17,0,0.66667
0.56423,0.50795,4.5138,0.011919,0.68635,115.75,-0.14347,0.047823,-2.0008,-0.19129,-2.4145e-13,-1.0004,0,0,0.125,-2.3685e-15,0,0.66667
0.56604,0.2336,4.5283,-0.39961,-23.007,115.2,4.8255,-1.6085,-1.4315,6.4339,3.0509e-13,-0.71574,0,0,0.125,-1.1842e-15,0,0.66667
0.31061,0.384,2.4849,-0.174,-13.319,257.73,1.153,-0.38432,-1.8933,1.5373,-3.118e-12,-0.94667,0,0,0.125,-0,-0,0.66667
0.11319,0.87245,0.90555,0.55867,46.917,388.34,-1.3491,0.44969,-0.89051,-1.7988,-9.7965e-09,-0.44526,0,0,0.125,1.4803e-16,0,0.66667
0.76861,0.52494,6.1488,0.037417,1.2849,36.359,-0.61353,0.20451,-1.9953,-0.81803,-1.1128e-11,-0.99766,0,0,0.125,-0,-0,0.66667
0.1382,0.84383,1.1056,0.51574,43.011,371.27,-1.5205,0.50684,-1.0561,-2.0274,-9.4775e-09,-0.52806,0,0,0.125,-5.9212e-16,0,0.66667
0.58503,0.095523,4.6803,-0.60672,-33.931,106.76,7.5722,-2.5241,-0.6903,10.096,-1.1275e-12,-0.34515,0,0,0.125,2.3685e-15,0,0.66667
0.50868,0.97428,4.0694,0.71142,44.958,144.29,-7.7202,2.5734,-0.19893,-10.294,1.8852e-12,-0.099465,0,0,0.125,-1.1842e-15,0,0.66667
0.51012,0.013825,4.081,-0.72926,-46.013,143.59,7.9363,-2.6454,-0.10725,10.582,-2.3288e-12,-0.053623,0,0,0.125,2.3685e-15,0,0.66667
0.35934,0.72806,2.8747,0.34209,25.264,227.77,-2.6224,0.87413,-1.587,-3.4965,4.8184e-14,-0.79352,0,0,0.125,-0,-0,0.66667
0.055479,0.14494,0.44383,-0.53259,-45.154,428.04,0.63035,-0.21012,-0.98932,0.84047,5.1581e-08,-0.49466,0,0,0.125,7.4015e-17,0,0.66667
0.33619,0.049735,2.6896,-0.6754,-51.045,242.32,4.844,-1.6147,-0.37585,6.4587,-2.6343e-12,-0.18793,0,0,0.125,-0,-0,0.66667
0.94985,0.013907,7.5988,-0.72914,-6.0606,4.052,14.775,-4.925,-0.10917,19.7,2.3754e-07,-0.054587,0,0,0.125,4.737e-15,0,0.66667
0.94833,0.78205,7.5867,0.42308,3.466,2.9801,-8.5594,2.8531,-1.3636,-11.413,1.1645e-08,-0.68179,0,0,0.125,-0,-0,0.66667
0.42932,0.44979,3.4346,-0.075315,-5.1988,186.51,0.6898,-0.22993,-1.9776,0.91973,-1.1541e-13,-0.98881,0,0,0.125,-0,-0,0.66667
0.74205,0.14857,5.9364,-0.52714,-20.058,45.175,8.3449,-2.7816,-1.0101,11.126,3.5518e-12,-0.50506,0,0,0.125,-5.9212e-16,0,0.66667
0.55762,0.17284,4.4609,-0.49073,-28.692,119.39,5.8377,-1.9459,-1.1422,7.7836,-5.751e-13,-0.57109,0,0,0.125,-0,-0,0.66667
0.914,0.87556,7.312,0.56334,7.7692,6.9098,-10.984,3.6615,-0.87092,-14.646,7.0606e-08,-0.43546,0,0,0.125,-0,-0,0.66667
0.73641,0.39326,5.8913,-0.16011,-6.1644,46.318,2.5154,-0.83846,-1.9094,3.3539,1.0929e-11,-0.95472,0,0,0.125,-0,-0,0.66667
0.39393,0.63678,3.1514,0.20517,14.68,207.03,-1.7242,0.57474,-1.8499,-2.299,9.0128e-13,-0.92493,0,0,0.125,-0,-0,0.66667
0.060535,0.75189,0.48428,0.37783,31.959,424.51,-0.48794,0.16265,-1.4944,-0.65059,-3.4551e-08,-0.74718,0,0,0.125,-1.4803e-16,0,0.66667
0.81061,0.58738,6.4849,0.13107,3.7612,25.136,-2.2666,0.75554,-1.9402,-3.0222,3.6235e-10,-0.9701,0,0,0.125,-5.9212e-16,0,0.66667
0.31642,0.97422,2.5314,0.71133,54.581,254.63,-4.8017,1.6006,-0.20066,-6.4022,2.188e-12,-0.10033,0,0,0.125,-1.1842e-15,0,0.66667
0.49421,0.68121,3.9536,0.27181,17.392,151.06,-2.8657,0.95524,-1.736,-3.821,6.9944e-14,-0.86798,0,0,0.125,-0,-0,0.66667
0.54153,0.6435,4.3322,0.21525,12.866,126.85,-2.4867,0.8289,-1.8335,-3.3156,-3.697e-13,-0.91677,0,0,0.125,-0,-0,0.66667
0.51753,0.78627,4.1402,0.42941,26.66,139.16,-4.741,1.5803,-1.3458,-6.3213,4.5475e-13,-0.67292,0,0,0.125,-0,-0,0.66667
0.14619,0.13214,1.1695,-0.5518,-45.933,365.86,1.7209,-0.57364,-0.91604,2.2946,4.1613e-09,-0.45802,0,0,0.125,-0,-0,0.66667
0.35934,0.096238,2.8748,-0.60564,-44.885,228.09,4.6429,-1.5476,-0.69988,6.1905,-1.0951e-12,-0.34994,0,0,0.125,1.1842e-15,4.3386e-17,0.66667
0.36131,0.63708,2.8905,0.20562,15.144,226.48,-1.5849,0.52829,-1.8504,-2.1132,-7.3752e-13,-0.9252,0,0,0.125,5.9212e-16,0,0.66667
0.2158,0.83074,1.7264,0.49611,40.201,319.16,-2.2839,0.76131,-1.1246,-3.0452,4.4244e-11,-0.56232,0,0,0.125,-2.9606e-16,0,0.66667
0.036849,0.61652,0.29479,0.17478,14.798,440.89,-0.1374,0.045799,-1.8899,-0.1832,7.9651e-08,-0.94493,0,0,0.125,-0,-0,0.66667
0.92418,0.69037,7.3934,0.28556,3.4127,4.9527,-5.6301,1.8767,-1.7115,-7.5067,3.0075e-08,-0.85574,0,0,0.125,-2.3685e-15,0,0.66667
0.35432,0.80691,2.8345,0.46037,34.186,230.94,-3.4798,1.1599,-1.2455,-4.6398,5.8975e-13,-0.62274,0,0,0.125,-2.9606e-16,0,0.66667
0.1958,0.54138,1.5664,0.062064,5.0571,332.27,-0.25924,0.086414,-1.9842,-0.34566,-5.0226e-11,-0.99212,0,0,0.125,-0,-0,0.66667
0.86409,0.83363,6.9127,0.50044,10.657,14.348,-9.2251,3.075,-1.1083,-12.3,7.9285e-09,-0.55414,0,0,0.125,-1.1842e-15,0,0.66667
0.49805,0.99137,3.9844,0.73706,47.279,149.87,-7.8313,2.6104,-0.069413,-10.442,-4.0767e-13,-0.034706,0,0,0.125,5.9212e-16,-1.1836e-16,0.66667
0.81993,0.12919,6.5594,-0.55622,-15.409,23.751,9.7292,-3.2431,-0.89861,12.972,-1.6248e-09,-0.4493,0,0,0.125,-0,-0,0.66667
0.76332,0.76385,6.1066,0.39578,13.929,38.332,-6.445,2.1483,-1.4433,-8.5933,-1.1362e-11,-0.72167,0,0,0.125,-0,-0,0.66667
0.11672,0.11806,0.9338,-0.57291,-48.083,385.94,1.4266,-0.47554,-0.83121,1.9022,4.752e-09,-0.41561,0,0,0.125,2.2204e-16,0,0.66667
0.51608,0.038475,4.1286,-0.69229,-43.282,140.44,7.6219,-2.5406,-0.29876,10.162,1.4904e-12,-0.14938,0,0,0.125,-0,-0,0.66667
0.33424,0.051297,2.6739,-0.67305,-50.941,243.52,4.7992,-1.5997,-0.3874,6.3989,-2.8937e-12,-0.1937,0,0,0.125,-0,-0,0.66667
0.68594,0.59465,5.4875,0.14198,6.3352,63.892,-2.0777,0.69256,-1.9309,-2.7702,-4.0146e-12,-0.96544,0,0,0.125,-0,-0,0.66667
0.78722,0.7192,6.2977,0.3288,10.515,31.43,-5.5219,1.8406,-1.6152,-7.3626,7.4536e-11,-0.8076,0,0,0.125,-0,-0,0.66667
0.28471,0.056333,2.2777,-0.6655,-52.103,274.56,4.0421,-1.3474,-0.42521,5.3895,-5.548e-12,-0.21261,0,0,0.125,-0,-0,0.66667
0.42001,0.21253,3.36,-0.4312,-30.137,192.1,3.8636,-1.2879,-1.3402,5.1515,-7.7272e-13,-0.67011,0,0,0.125,1.1369e-15,0,0.66667
0.88235,0.1231,7.0588,-0.56535,-10.541,11.414,10.642,-3.5473,-0.86261,14.189,-1.715e-08,-0.4313,0,0,0.125,-1.4803e-15,0,0.66667
0.764,0.17385,6.112,-0.48922,-17.215,38.354,7.9737,-2.6579,-1.15,10.632,1.7638e-11,-0.575,0,0,0.125,-9.0476e-16,0,0.66667
0.2849,0.58467,2.2792,0.127,9.8857,274,-0.77189,0.2573,-1.9421,-1.0292,3.7239e-12,-0.97106,0,0,0.125,-2.9606e-16,0,0.66667
0.72388,0.24783,5.7911,-0.37826,-15.2,50.754,5.8414,-1.9471,-1.4909,7.7885,1.1925e-11,-0.74543,0,0,0.125,-1.6283e-15,0,0.66667
0.02714,0.88026,0.21712,0.57039,48.497,447.64,-0.33025,0.11009,-0.84285,-0.44033,3.3111e-06,-0.42142,0,0,0.125,-0,-0,0.66667
0.5633,0.13067,4.5064,-0.554,-32.128,116.8,6.6574,-2.2191,-0.91133,8.8765,-6.1995e-13,-0.45567,0,0,0.125,-0,-0,0.66667
0.041077,0.30632,0.32862,-0.29052,-24.605,437.96,0.25459,-0.084863,-1.6986,0.33945,-1.0576e-07,-0.84928,0,0,0.125,-3.7007e-17,0,0.66667
0.12608,0.92068,1.0086,0.63102,52.883,379.58,-1.6973,0.56575,-0.58582,-2.263,-1.2189e-08,-0.29291,0,0,0.125,-0,-0,0.66667
0.8206,0.68309,6.5648,0.27464,7.5158,22.911,-4.8078,1.6026,-1.7304,-6.4104,7.538e-10,-0.8652,0,0,0.125,2.9606e-16,0,0.66667
0.68161,0.36204,5.4529,-0.20694,-9.3432,65.572,3.0091,-1.003,-1.8458,4.0121,3.2201e-12,-0.9229,0,0,0.125,-0,-0,0.66667
0.43883,0.27458,3.5107,-0.33813,-23.14,181.3,3.1655,-1.0552,-1.5953,4.2206,6.99e-13,-0.79767,0,0,0.125,-0,-0,0.66667
0.39571,0.61688,3.1657,0.17532,12.521,205.96,-1.48,0.49334,-1.8894,-1.9734,9.72e-13,-0.94472,0,0,0.125,-5.9212e-16,0,0.66667
0.8758,0.4865,7.0064,-0.02025,-0.39078,11.504,0.37834,-0.12611,-2.0005,0.50445,4.8075e-09,-1.0002,0,0,0.125,-1.1842e-15,0,0.66667
0.23877,0.5567,1.9101,0.085047,6.7946,303.84,-0.4332,0.1444,-1.9737,-0.5776,-5.6715e-12,-0.98683,0,0,0.125,2.9606e-16,0,0.66667
0.39398,0.001837,3.1519,-0.74724,-53.864,207.72,6.2806,-2.0935,-0.015387,8.3741,5.9197e-13,-0.0076935,0,0,0.125,-2.3685e-15,0,0.66667
0.14348,0.50665,1.1478,0.0099806,0.82832,367.54,-0.030549,0.010183,-2,-0.040732,-1.0913e-09,-1,0,0,0.125,-0,-0,0.66667
0.67243,0.68583,5.3794,0.27874,12.891,69.153,-3.9986,1.3329,-1.7273,-5.3314,-4.4316e-12,-0.86365,0,0,0.125,2.9606e-16,0,0.66667
0.17561,0.1644,1.4049,-0.5034,-41.471,345.96,1.8859,-0.62864,-1.0985,2.5145,3.2628e-10,-0.54924,0,0,0.125,-5.9212e-16,0,0.66667
0.99975,0.58791,7.998,0.13187,-0.069005,0.064653,-2.8126,0.93752,-1.9414,-3.7501,1.9829e-07,-0.97071,0,0,0.125,-0,-0,0.66667
0.96443,0.061345,7.7155,-0.65798,-3.8346,2.7411,13.538,-4.5126,-0.46086,18.05,-1.8959e-06,-0.23043,0,0,0.125,-1.3375e-15,2.0232e-19,0.66667
0.067754,0.62595,0.54203,0.18893,15.944,419.5,-0.27308,0.091025,-1.8729,-0.3641,-7.4909e-09,-0.93643,0,0,0.125,-2.9606e-16,0,0.66667
0.070849,0.68179,0.56679,0.27268,23.014,417.37,-0.41215,0.13738,-1.734,-0.54953,-2.2238e-08,-0.86701,0,0,0.125,-6.9071e-17,0,0.66667
0.24709,0.98977,1.9767,0.73466,58.846,298.87,-3.8726,1.2909,-0.080938,-5.1634,-3.1037e-11,-0.040469,0,0,0.125,-0,-0,0.66667
0.31125,0.94493,2.49,0.66739,51.352,257.79,-4.4315,1.4772,-0.41816,-5.9087,7.8382e-13,-0.20908,0,0,0.125,-0,-1.0728e-16,0.66667
0.79794,0.47305,6.3835,-0.040429,-1.2298,28.29,0.6882,-0.2294,-1.9967,0.9176,4.1929e-11,-0.99833,0,0,0.125,-2.3685e-15,0,0.66667
0.75286,0.039929,6.0229,-0.69011,-25.449,42.336,11.084,-3.6946,-0.3068,14.778,-1.994e-11,-0.1534,0,0,0.125,-0,-0,0.66667
0.1789,0.62924,1.4312,0.19387,15.908,343.61,-0.73992,0.24664,-1.865,-0.98656,-5.8146e-10,-0.93251,0,0,0.125,-5.9212e-16,0,0.66667
0.74052,0.97561,5.9242,0.71342,27.455,46.269,-11.27,3.7568,-0.1888,-15.027,-1.1353e-11,-0.094402,0,0,0.125,-0,-0,0.66667
0.37683,0.39631,3.0147,-0.15553,-11.301,217.13,1.2503,-0.41678,-1.915,1.6671,-2.3614e-13,-0.95748,0,0,0.125,-2.9606e-16,0,0.66667
0.31534,0.70013,2.5227,0.30019,22.922,254.83,-2.0195,0.67315,-1.6795,-2.6926,4.6296e-13,-0.83973,0,0,0.125,5.9212e-16,0,0.66667
0.20011,0.44566,1.6009,-0.081505,-6.6296,329.4,0.34794,-0.11598,-1.9764,0.46393,1.804e-10,-0.98821,0,0,0.125,-0,-0,0.66667
0.55685,0.91835,4.4548,0.62753,36.835,120.06,-7.4547,2.4849,-0.59804,-9.9396,2.2027e-12,-0.29902,0,0,0.125,-1.1842e-15,0,0.66667
0.50796,0.50437,4.0637,0.0065619,0.41164,143.75,-0.071108,0.023703,-1.9984,-0.094811,-1.7716e-12,-0.99921,0,0,0.125,-0,-0,0.66667
0.90452,0.70466,7.2361,0.30699,4.6147,7.4109,-5.9238,1.9746,-1.6658,-7.8984,2.3872e-08,-0.83289,0,0,0.125,-0,-0,0.66667
0.16445,0.34793,1.3156,-0.22811,-18.818,353.36,0.80026,-0.26675,-1.8136,1.067,1.4614e-09,-0.90681,0,0,0.125,-5.9212e-16,0,0.66667
0.026083,0.59446,0.20866,0.14169,12.003,448.35,-0.078841,0.02628,-1.9285,-0.10512,-1.1217e-07,-0.96423,0,0,0.125,-0,-0,0.66667
0.13921,0.95529,1.1136,0.68293,57.079,370.68,-2.0281,0.67604,-0.34293,-2.7041,1.3439e-08,-0.17146,0,0,0.125,1.4803e-16,0,0.66667
0.036355,0.54886,0.29084,0.073286,6.2031,441.23,-0.056838,0.018946,-1.9793,-0.075784,1.3909e-07,-0.98963,0,0,0.125,-0,-0,0.66667
0.56867,0.14428,4.5494,-0.53358,-30.654,114.21,6.4732,-2.1577,-0.98573,8.6309,-1.1067e-12,-0.49286,0,0,0.125,-0,-0,0.66667
0.77158,0.8076,6.1726,0.4614,15.766,36.08,-7.5948,2.5316,-1.2419,-10.126,-5.3215e-11,-0.62093,0,0,0.125,1.9372e-15,0,0.66667
0.98718,0.43122,7.8974,-0.10317,-0.16529,0.29443,2.1727,-0.72424,-1.9626,2.8969,-7.7461e-07,-0.9813,0,0,0.125,-0,-0,0.66667
0.84725,0.28018,6.778,-0.32974,-7.7844,17.177,5.9598,-1.9866,-1.6142,7.9464,-2.8108e-09,-0.80709,0,0,0.125,1.3323e-15,0,0.66667
0.16958,0.98056,1.3566,0.72084,59.711,350.18,-2.6077,0.86924,-0.15289,-3.477,1.0845e-10,-0.076445,0,0,0.125,-0,-0,0.66667
0.97796,0.71129,7.8237,0.31693,1.0272,0.92827,-6.6121,2.204,-1.6412,-8.8161,-2.3501e-07,-0.8206,0,0,0.125,-5.9212e-16,0,0.66667
0.57851,0.90904,4.6281,0.61356,34.717,109.79,-7.5723,2.5241,-0.66503,-10.096,-3.948e-13,-0.33252,0,0,0.125,-0,-0,0.66667
0.81024,0.79035,6.4819,0.43552,12.598,25.724,-7.528,2.5093,-1.3262,-10.037,2.7798e-10,-0.66311,0,0,0.125,-0,-0,0.66667
0.011419,0.15292,0.091354,-0.52062,-44.263,458.53,0.12683,-0.042275,-1.0362,0.1691,9.9145e-07,-0.51808,0,0,0.125,4.6259e-18,0,0.66667
0.19796,0.603,1.5837,0.15449,12.581,330.84,-0.65244,0.21748,-1.9137,-0.86992,-1.4003e-10,-0.95686,0,0,0.125,-0,-0,0.66667
0.92504,0.52199,7.4003,0.032981,0.38692,4.5932,-0.65085,0.21695,-1.996,-0.8678,5.0621e-09,-0.99798,0,0,0.125,-0,-0,0.66667
0.24256,0.74135,1.9405,0.36202,28.913,301.47,-1.8733,0.62444,-1.5321,-2.4978,5.2285e-12,-0.76603,0,0,0.125,-0,-0,0.66667
0.53957,0.25709,4.3166,-0.36437,-21.878,127.98,4.1942,-1.3981,-1.5262,5.5922,-9.4413e-13,-0.76309,0,0,0.125,-0,-0,0.66667
0.72603,0.70667,5.8083,0.31001,12.36,49.913,-4.8016,1.6005,-1.6561,-6.4022,-1.4727e-11,-0.82805,0,0,0.125,-0,-0,0.66667
0.10091,0.60359,0.80729,0.15539,13.038,396.65,-0.33451,0.1115,-1.9121,-0.44601,-5.8007e-09,-0.95606,0,0,0.125,-2.9606e-16,0,0.66667
0.57273,0.81592,4.5819,0.47388,27.007,112.18,-5.79,1.93,-1.2008,-7.72,1.2657e-12,-0.60039,0,0,0.125,-0,-0,0.66667
0.21267,0.59838,1.7014,0.14757,11.941,321.06,-0.66954,0.22318,-1.9214,-0.89272,-1.1858e-10,-0.96068,0,0,0.125,-5.9212e-16,0,0.66667
0.35815,0.26562,2.8652,-0.35157,-25.993,228.5,2.6862,-0.8954,-1.5619,3.5816,-1.5676e-12,-0.78096,0,0,0.125,-0,-0,0.66667
0.44382,0.0011254,3.5506,-0.74831,-51.276,179.21,7.0852,-2.3617,-0.0083484,9.4469,-2.0086e-12,-0.0041742,0,0,0.125,-0,-0,0.66667
0.74936,0.8214,5.9948,0.48211,17.873,42.764,-7.7071,2.569,-1.176,-10.276,-8.3613e-12,-0.588,0,0,0.125,-0,-0,0.66667
0.91396,0.3715,7.3117,-0.19275,-2.6035,6.0041,3.7583,-1.2528,-1.8666,5.011,-7.7498e-09,-0.93331,0,0,0.125,2.9606e-16,0,0.66667
0.96955,0.19833,7.7564,-0.4525,-2.1482,1.6777,9.3594,-3.1198,-1.274,12.479,6.2132e-07,-0.63701,0,0,0.125,-0,-0,0.66667
0.38163,0.5754,3.053,0.1131,8.1811,214.26,-0.9208,0.30693,-1.9524,-1.2277,9.478e-13,-0.97619,0,0,0.125,-0,-0,0.66667
0.2518,0.72976,2.0144,0.34464,27.386,295.44,-1.8513,0.61709,-1.5786,-2.4684,1.3146e-11,-0.78931,0,0,0.125,-0,-0,0.66667
0.27102,0.27498,2.1681,-0.33753,-26.53,283,1.9515,-0.6505,-1.5937,2.602,-1.5857e-11,-0.79686,0,0,0.125,-1.4803e-16,0,0.66667
0.76456,0.37618,6.1165,-0.18573,-6.4826,37.633,3.0294,-1.0098,-1.8804,4.0392,-1.1453e-11,-0.9402,0,0,0.125,2.3685e-15,0,0.66667
0.84258,0.21958,6.7406,-0.42063,-10.243,18.344,7.5608,-2.5203,-1.3739,10.081,-1.814e-09,-0.68695,0,0,0.125,-0,-0,0.66667
0.16474,0.29683,1.318,-0.30476,-25.152,353.18,1.0711,-0.35703,-1.6675,1.4281,1.6748e-09,-0.83375,0,0,0.125,-0,-0,0.66667
0.029941,0.43297,0.23953,-0.10055,-8.5147,445.67,0.064223,-0.021408,-1.9662,0.085631,-3.7577e-07,-0.98311,0,0,0.125,-3.7007e-17,0,0.66667
0.84738,0.81486,6.779,0.4723,11.197,17.494,-8.5379,2.846,-1.2073,-11.384,3.1262e-09,-0.60365,0,0,0.125,2.3685e-15,0,0.66667
0.15971,0.19924,1.2776,-0.45114,-37.347,356.65,1.5371,-0.51235,-1.2758,2.0494,1.4078e-09,-0.63789,0,0,0.125,-0,-0,0.66667
0.94524,0.14806,7.5619,-0.5279,-4.643,3.5668,10.645,-3.5484,-1.0072,14.194,-4.5022e-08,-0.50361,0,0,0.125,-0,-0,0.66667
0.96751,0.35581,7.7401,-0.21629,-1.0641,1.2419,4.4642,-1.4881,-1.8351,5.9523,9.5398e-08,-0.91757,0,0,0.125,-0,-0,0.66667
0.57819,0.83392,4.6255,0.50088,28.292,109.68,-6.1782,2.0594,-1.111,-8.2376,4.1611e-13,-0.55551,0,0,0.125,-5.9212e-16,0,0.66667
0.48604,0.63591,3.8883,0.20386,13.177,155.33,-2.1138,0.70461,-1.8533,-2.8184,6.4126e-13,-0.92665,0,0,0.125,-0,-0,0.66667
0.35393,0.35613,2.8314,-0.21581,-15.993,230.97,1.6295,-0.54315,-1.8327,2.1726,-1.8069e-12,-0.91633,0,0,0.125,-5.9212e-16,0,0.66667
0.6594,0.29794,5.2752,-0.30309,-14.47,74.28,4.2636,-1.4212,-1.6729,5.6848,1.6143e-12,-0.83647,0,0,0.125,-1.1842e-15,0,0.66667
0.38436,0.38127,3.0749,-0.1781,-12.855,212.66,1.4604,-0.48679,-1.8857,1.9471,-8.36e-14,-0.94287,0,0,0.125,-1.1842e-15,0,0.66667
0.4349,0.90146,3.4792,0.60219,41.543,183.9,-5.587,1.8623,-0.71145,-7.4494,1.3602e-12,-0.35572,0,0,0.125,-3.8549e-17,0,0.66667
0.6133,0.52098,4.9064,0.031468,1.6569,93.31,-0.41172,0.13724,-1.9957,-0.54896,-1.3622e-12,-0.99783,0,0,0.125,-0,-0,0.66667
0.034635,0.203,0.27708,-0.4455,-37.802,442.44,0.32917,-0.10972,-1.2937,0.4389,-2.2651e-07,-0.64685,0,0,0.125,-0,-0,0.66667
0.2188,0.11224,1.7504,-0.58163,-47.121,317.24,2.715,-0.90499,-0.80005,3.62,6.4596e-11,-0.40003,0,0,0.125,-2.9606e-16,0,0.66667
0.020192,0.93538,0.16154,0.65307,55.614,452.46,-0.28131,0.093776,-0.4834,-0.37508,6.5142e-06,-0.2417,0,0,0.125,-0,-0,0.66667
0.76313,0.32398,6.1051,-0.26403,-9.2743,38.151,4.2984,-1.4328,-1.7524,5.7312,1.1791e-12,-0.87619,0,0,0.125,-0,-0,0.66667
0.38987,0.84046,3.1189,0.51069,36.795,209.72,-4.2475,1.4158,-1.0757,-5.6633,-5.107e-14,-0.53785,0,0,0.125,8.8818e-16,0,0.66667
0.42267,0.73317,3.3814,0.34975,24.354,190.48,-3.1537,1.0512,-1.567,-4.2049,2.931e-14,-0.78349,0,0,0.125,5.9212e-16,0,0.66667
0.54968,0.94503,4.3975,0.66754,39.671,123.63,-7.828,2.6093,-0.41588,-10.437,1.5676e-12,-0.20794,0,0,0.125,-0,-0,0.66667
0.38846,0.4312,3.1077,-0.1032,-7.4188,210.21,0.85527,-0.28509,-1.9632,1.1404,-1.7703e-13,-0.98158,0,0,0.125,5.2607e-16,0,0.66667
0.81063,0.04767,6.4851,-0.67849,-19.78,26.408,11.734,-3.9112,-0.3639,15.645,-6.4803e-10,-0.18195,0,0,0.125,-0,1.4765e-16,0.66667
0.4359,0.39591,3.4872,-0.15614,-10.705,182.81,1.452,-0.48399,-1.9145,1.9359,-1.5979e-12,-0.95725,0,0,0.125,-0,-0,0.66667
0.58016,0.32005,4.6413,-0.26993,-15.144,108.4,3.3408,-1.1136,-1.7419,4.4544,-1.3152e-12,-0.87097,0,0,0.125,-0,-0,0.66667
0.97117,0.91384,7.7694,0.62076,2.8961,2.2192,-12.861,4.287,-0.63052,-17.148,-6.7619e-06,-0.31526,0,0,0.125,-0,-0,0.66667
0.9921,0.033589,7.9368,-0.69962,-0.88659,1.8586,14.807,-4.9358,-0.25862,19.743,-4.5764e-05,-0.12931,0,0,0.125,-2.3685e-15,0,0.66667
0.20287,0.55308,1.623,0.079624,6.469,327.55,-0.34461,0.11487,-1.9803,-0.45948,-1.422e-10,-0.99015,0,0,0.125,-0,-0,0.66667
0.44452,0.55972,3.5562,0.089585,6.0825,177.95,-0.84954,0.28318,-1.9704,-1.1327,-1.1193e-12,-0.98518,0,0,0.125,-0,-0,0.66667
0.47475,0.43021,3.798,-0.10468,-6.8594,161.34,1.0602,-0.35339,-1.9595,1.4136,1.0469e-13,-0.97975,0,0,0.125,5.9212e-16,0,0.66667
0.29764,0.31278,2.3811,-0.28082,-21.7,265.97,1.7831,-0.59437,-1.7232,2.3775,-3.5558e-12,-0.86159,0,0,0.125,-0,-0,0.66667
0.2835,0.33054,2.268,-0.25418,-19.816,274.94,1.5373,-0.51244,-1.7706,2.0498,-9.7089e-12,-0.88532,0,0,0.125,2.9606e-16,0,0.66667
0.83962,0.2301,6.717,-0.40485,-10.025,18.927,7.2516,-2.4172,-1.4162,9.6687,-1.8538e-09,-0.70811,0,0,0.125,-0,-0,0.66667
0.96209,0.37044,7.6968,-0.19434,-1.1276,1.5273,3.9887,-1.3296,-1.8644,5.3183,5.6269e-08,-0.93219,0,0,0.125,-1.1842e-15,0,0.66667
0.21069,0.41499,1.6855,-0.12752,-10.326,322.37,0.57314,-0.19105,-1.9402,0.76419,8.6971e-11,-0.97011,0,0,0.125,-0,-0,0.66667
0.89173,0.15768,7.1339,-0.51348,-8.815,9.7761,9.7682,-3.2561,-1.0655,13.024,-3.1202e-08,-0.53274,0,0,0.125,-0,-0,0.66667
0.39198,0.69947,3.1358,0.2992,21.462,208.24,-2.502,0.83398,-1.6831,-3.3359,-1.0869e-12,-0.84153,0,0,0.125,-0,-0,0.66667
0.65143,0.76837,5.2114,0.40255,19.607,77.635,-5.5943,1.8648,-1.4223,-7.459,-2.9905e-12,-0.71117,0,0,0.125,1.1842e-15,0,0.66667
0.28386,0.45812,2.2709,-0.062823,-4.8926,274.65,0.38044,-0.12681,-1.9861,0.50725,-2.6268e-12,-0.99307,0,0,0.125,-0,-0,0.66667
0.94108,0.78644,7.5287,0.42966,4.0247,3.6086,-8.626,2.8753,-1.3436,-11.501,4.7044e-08,-0.6718,0,0,0.125,-0,-0,0.66667
0.78682,0.96331,6.2945,0.69497,22.533,32.588,-11.665,3.8884,-0.28159,-15.554,2.6872e-10,-0.1408,0,0,0.125,-1.1842e-15,0,0.66667
0.19277,0.17672,1.5422,-0.48492,-39.677,334.45,1.9942,-0.66474,-1.1623,2.659,2.2592e-10,-0.58117,0,0,0.125,-2.9606e-16,0,0.66667
0.61504,0.38579,4.9203,-0.17132,-8.9945,92.613,2.2479,-0.74929,-1.8939,2.9972,-8.9373e-13,-0.94695,0,0,0.125,1.1842e-15,0,0.66667
0.9688,0.42481,7.7504,-0.11279,-0.52698,1.0552,2.3311,-0.77704,-1.9577,3.1082,1.4286e-07,-0.97883,0,0,0.125,1.1842e-15,0,0.66667
0.28459,0.53069,2.2767,0.046028,3.5829,274.19,-0.27944,0.093147,-1.9935,-0.37259,2.7231e-12,-0.99673,0,0,0.125,-6.6613e-16,0,0.66667
0.36153,0.84654,2.8923,0.51981,38.402,226.64,-4.0091,1.3364,-1.0409,-5.3455,3.582e-12,-0.52043,0,0,0.125,-1.1842e-15,0,0.66667
0.20361,0.49983,1.6289,-0.00025463,-0.020678,327.06,0.001106,-0.00036868,-2.0039,0.0014747,1.2342e-10,-1.002,0,0,0.125,-5.7824e-16,0,0.66667
0.63877,0.44604,5.1101,-0.080933,-4.0417,82.463,1.1029,-0.36763,-1.9778,1.4705,-3.2641e-13,-0.98889,0,0,0.125,-0,-0,0.66667
0.89282,0.80222,7.1426,0.45332,7.68,9.429,-8.6344,2.8781,-1.2699,-11.513,1.7908e-08,-0.63495,0,0,0.125,-0,-0,0.66667
0.3417,0.99116,2.7336,0.73675,55.513,239.04,-5.3705,1.7902,-0.070915,-7.1607,3.3928e-13,-0.035457,0,0,0.125,4.0465e-16,1.2009e-16,0.66667
0.1244,0.22631,0.99519,-0.41054,-34.323,380.62,1.0895,-0.36317,-1.4033,1.4527,8.2066e-09,-0.70167,0,0,0.125,-0,-0,0.66667
0.34768,0.83832,2.7814,0.50749,37.91,235.04,-3.7641,1.2547,-1.084,-5.0188,2.164e-12,-0.542,0,0,0.125,1.4803e-16,0,0.66667
0.62672,0.4387,5.0138,-0.091952,-4.7118,87.534,1.2294,-0.4098,-1.9723,1.6392,-8.7819e-13,-0.98613,0,0,0.125,-0,-0,0.66667
0.73484,0.11031,5.8787,-0.58453,-22.812,47.654,9.1635,-3.0545,-0.78745,12.218,1.5078e-11,-0.39373,0,0,0.125,-0,-0,0.66667
0.60653,0.35974,4.8522,-0.21039,-11.235,96.382,2.7222,-0.90741,-1.8424,3.6297,-1.2417e-12,-0.92121,0,0,0.125,1.1842e-15,0,0.66667
0.076207,0.20659,0.60965,-0.44012,-37.17,413.71,0.71552,-0.23851,-1.312,0.95403,7.0831e-08,-0.65601,0,0,0.125,-0,-0,0.66667
0.93982,0.37668,7.5186,-0.18498,-1.7414,3.219,3.7088,-1.2363,-1.88,4.9451,3.7089e-08,-0.93998,0,0,0.125,-2.3685e-15,0,0.66667
0.18939,0.16917,1.5151,-0.49625,-40.665,336.72,2.005,-0.66834,-1.1251,2.6734,2.3377e-10,-0.56257,0,0,0.125,-2.9606e-16,0,0.66667
0.57409,0.40738,4.5927,-0.13893,-7.8697,111.12,1.7015,-0.56715,-1.9318,2.2686,-2.2549e-12,-0.96588,0,0,0.125,2.3685e-15,0,0.66667
0.90683,0.96701,7.2547,0.70051,10.567,8.3795,-13.552,4.5173,-0.25875,-18.069,-8.3853e-07,-0.12937,0,0,0.125,-1.4803e-16,0,0.66667
0.97339,0.91148,7.7871,0.61722,2.65,2.0993,-12.817,4.2723,-0.6448,-17.089,-8.0496e-06,-0.3224,0,0,0.125,-0,-0,0.66667
0.85777,0.33699,6.8622,-0.24451,-5.3857,14.949,4.4744,-1.4915,-1.789,5.9658,-4.2775e-09,-0.89448,0,0,0.125,-0,-0,0.66667
0.12909,0.67561,1.0327,0.26341,21.968,377.38,-0.72541,0.2418,-1.7523,-0.96722,-7.3881e-09,-0.87614,0,0,0.125,-0,-0,0.66667
0.90702,0.55242,7.2561,0.078634,1.1445,6.7929,-1.5216,0.50718,-1.9802,-2.0287,-2.951e-09,-0.99008,0,0,0.125,-1.1842e-15,0,0.66667
0.32751,0.93172,2.6201,0.64759,49.237,247.63,-4.5247,1.5082,-0.51171,-6.0329,7.6383e-13,-0.25586,0,0,0.125,1.4803e-16,8.9209e-17,0.66667
0.58239,0.57344,4.6591,0.11016,6.149,107.24,-1.3686,0.45621,-1.9558,-1.8249,4.3654e-13,-0.97789,0,0,0.125,-1.1842e-15,0,0.66667
0.14046,0.33923,1.1237,-0.24115,-20.046,369.63,0.72261,-0.24087,-1.7968,0.96347,4.4021e-09,-0.89839,0,0,0.125,-0,-0,0.66667
0.51272,0.75428,4.1018,0.38142,23.827,141.55,-4.1721,1.3907,-1.4834,-5.5628,-4.4809e-13,-0.74169,0,0,0.125,-0,-0,0.66667
0.46733,0.73781,3.7386,0.35671,23.63,165.55,-3.5563,1.1854,-1.5488,-4.7417,2.558e-13,-0.77442,0,0,0.125,-5.9212e-16,0,0.66667
0.005313,0.8455,0.042504,0.51825,44.065,462.76,-0.058739,0.019579,-1.0446,-0.078319,-1.5052e-06,-0.52231,0,0,0.125,1.8504e-17,-3.264e-16,0.66667
0.28621,0.26495,2.2897,-0.35258,-27.462,273.28,2.1528,-0.71759,-1.5564,2.8704,-1.2485e-11,-0.7782,0,0,0.125,5.9212e-16,0,0.66667
0.14345,0.76977,1.1476,0.40465,33.652,367.65,-1.2383,0.41277,-1.4177,-1.6511,-3.7906e-09,-0.70887,0,0,0.125,1.4803e-16,0,0.66667
0.35352,0.5611,2.8282,0.091657,6.7912,231.16,-0.69126,0.23042,-1.9696,-0.92168,-3.0947e-13,-0.98478,0,0,0.125,2.2204e-16,0,0.66667
0.27167,0.78087,2.1734,0.42131,33.13,282.64,-2.4418,0.81392,-1.3685,-3.2557,1.7721e-11,-0.68424,0,0,0.125,9.2519e-17,0,0.66667
0.47113,0.40292,3.769,-0.14562,-9.5865,163.31,1.4636,-0.48787,-1.9259,1.9515,4.6407e-13,-0.96294,0,0,0.125,2.9606e-16,0,0.66667
0.77155,0.78178,6.1724,0.42266,14.428,35.993,-6.957,2.319,-1.3644,-9.2759,3.1785e-11,-0.68221,0,0,0.125,-0,-0,0.66667
0.020636,0.78947,0.16509,0.43421,36.868,452.14,-0.19116,0.06372,-1.3284,-0.25488,7.1005e-07,-0.66419,0,0,0.125,-0,-0,0.66667
0.22758,0.69633,1.8206,0.29449,23.683,311.26,-1.4298,0.47658,-1.6898,-1.9063,-2.2851e-11,-0.84488,0,0,0.125,-0,-0,0.66667
0.98353,0.72375,7.8682,0.33562,0.77899,0.76472,-7.042,2.3473,-1.6021,-9.3893,-7.8252e-08,-0.80107,0,0,0.125,-0,-0,0.66667
0.059609,0.94837,0.47687,0.67256,57.111,425.22,-0.85527,0.28509,-0.3916,-1.1404,2.9624e-06,-0.1958,0,0,0.125,1.4803e-16,0,0.66667
0.59551,0.4806,4.764,-0.029103,-1.5858,101.22,0.36973,-0.12324,-1.9979,0.49297,-1.2157e-12,-0.99896,0,0,0.125,-0,-0,0.66667
0.99828,0.55498,7.9863,0.082467,-0.023359,0.04566,-1.7563,0.58543,-1.9771,-2.3417,6.2567e-07,-0.98857,0,0,0.125,-0,-0,0.66667
0.60079,0.1093,4.8063,-0.58606,-31.826,99.577,7.5114,-2.5038,-0.77655,10.015,1.7586e-12,-0.38827,0,0,0.125,-0,-0,0.66667
0.052634,0.76507,0.42107,0.3976,33.668,429.98,-0.44645,0.14882,-1.436,-0.59526,-6.298e-10,-0.71799,0,0,0.125,-0,-0,0.66667
0.12467,0.73391,0.99739,0.35087,29.315,380.42,-0.9332,0.31107,-1.5648,-1.2443,-9.4956e-09,-0.78238,0,0,0.125,-0,-0,0.66667
0.89515,0.24952,7.1612,-0.37573,-6.207,8.8807,7.175,-2.3917,-1.4983,9.5667,-2.0536e-08,-0.74914,0,0,0.125,-1.2953e-15,0,0.66667
0.86842,0.58992,6.9473,0.13488,2.7536,12.849,-2.4989,0.83296,-1.9341,-3.3318,3.1142e-09,-0.96705,0,0,0.125,2.9606e-16,0,0.66667
0.54878,0.017173,4.3902,-0.72424,-43.161,124.22,8.4789,-2.8263,-0.13571,11.305,1.1235e-12,-0.067857,0,0,0.125,-0,-0,0.66667
0.26258,0.71088,2.1006,0.31632,24.98,288.43,-1.772,0.59065,-1.6443,-2.3626,1.4181e-11,-0.82214,0,0,0.125,-0,-0,0.66667
0.51035,0.25884,4.0828,-0.36175,-22.667,142.75,3.9385,-1.3128,-1.5333,5.2513,1.13e-12,-0.76664,0,0,0.125,-1.1842e-15,0,0.66667
0.25377,0.88673,2.0302,0.58009,46.177,294.35,-3.1405,1.0468,-0.80274,-4.1873,3.9013e-12,-0.40137,0,0,0.125,-0,-0,0.66667
0.69013,0.83257,5.5211,0.49885,22.131,62.899,-7.3445,2.4482,-1.1153,-9.7926,-4.2801e-12,-0.55766,0,0,0.125,-5.9212e-16,0,0.66667
0.60412,0.32563,4.833,-0.26155,-14.039,97.502,3.3708,-1.1236,-1.7551,4.4944,-1.9762e-13,-0.87754,0,0,0.125,-0,-0,0.66667
0.78798,0.0058695,6.3039,-0.7412,-23.967,32.46,12.46,-4.1532,-0.045141,16.613,-7.2588e-11,-0.02257,0,0,0.125,-0,-0,0.66667
0.48764,0.90576,3.9011,0.60864,39.466,155.05,-6.3317,2.1106,-0.68392,-8.4423,6.7413e-13,-0.34196,0,0,0.125,1.6653e-16,0,0.66667
0.038361,0.48819,0.30688,-0.01771,-1.4987,439.83,0.014493,-0.0048304,-1.9967,0.019324,9.4006e-07,-0.99836,0,0,0.125,-4.5428e-17,0,0.66667
0.79002,0.70615,6.3202,0.30923,9.7683,30.641,-5.2116,1.7372,-1.6579,-6.9488,1.0022e-10,-0.82893,0,0,0.125,-1.1842e-15,0,0.66667
0.20938,0.27453,1.675,-0.33821,-27.438,323.31,1.5107,-0.50355,-1.5918,2.0142,1.0844e-10,-0.79588,0,0,0.125,-0,-0,0.66667
0.22664,0.40856,1.8131,-0.13716,-11.026,311.82,0.66317,-0.22106,-1.932,0.88423,-2.8644e-12,-0.96602,0,0,0.125,-0,-0,0.66667
0.54164,0.76662,4.3331,0.39992,23.948,127.01,-4.6211,1.5404,-1.4296,-6.1614,-7.8559e-13,-0.7148,0,0,0.125,1.1842e-15,0,0.66667
0.82259,0.0084223,6.5808,-0.73737,-20.331,23.816,12.94,-4.3133,-0.065312,17.253,-5.3694e-11,-0.032656,0,0,0.125,-0,-0,0.66667
0.94909,0.71515,7.5927,0.32272,2.579,2.6675,-6.5342,2.1781,-1.6296,-8.7123,-4.6307e-08,-0.81481,0,0,0.125,-1.1842e-15,0,0.66667
0.24077,0.50711,1.9262,0.010662,0.85086,302.52,-0.054765,0.018255,-1.998,-0.07302,1.4251e-12,-0.99898,0,0,0.125,-0,-0,0.66667
0.8962,0.13221,7.1696,-0.55168,-9.1185,9.2474,10.548,-3.5159,-0.91647,14.063,5.5253e-09,-0.45824,0,0,0.125,-0,-0,0.66667
0.91103,0.70208,7.2883,0.30312,4.2498,6.5492,-5.8912,1.9637,-1.6718,-7.8549,2.4945e-08,-0.8359,0,0,0.125,-0,-0,0.66667
0.74442,0.56573,5.9554,0.0986,3.6947,43.716,-1.5659,0.52195,-1.9646,-2.0878,-3.5524e-12,-0.98231,0,0,0.125,-2.3685e-15,0,0.66667
0.37426,0.45901,2.9941,-0.061478,-4.4757,218.64,0.49086,-0.16362,-1.9888,0.65448,4.1994e-13,-0.99438,0,0,0.125,-0,-0,0.66667
0.54785,0.78507,4.3828,0.42761,25.369,124.01,-4.9977,1.6659,-1.3525,-6.6636,2.4292e-13,-0.67626,0,0,0.125,-0,-0,0.66667
0.13763,0.7112,1.1011,0.31681,26.37,371.57,-0.9302,0.31007,-1.6433,-1.2403,-5.6647e-09,-0.82164,0,0,0.125,-0,-0,0.66667
0.57527,0.60766,4.6022,0.16149,9.1299,110.58,-1.9818,0.66061,-1.9071,-2.6425,-1.2906e-12,-0.95355,0,0,0.125,-0,-0,0.66667
0.57561,0.7919,4.6049,0.43786,24.816,110.76,-5.3768,1.7923,-1.3186,-7.169,8.5354e-13,-0.6593,0,0,0.125,-1.1842e-15,0,0.66667
0.58347,0.96086,4.6678,0.69129,38.847,107.71,-8.6048,2.8683,-0.2995,-11.473,-4.4675e-13,-0.14975,0,0,0.125,5.9212e-16,0,0.66667
0.92023,0.62228,7.3618,0.18341,2.2968,5.2426,-3.6007,1.2002,-1.8825,-4.8009,1.4546e-08,-0.94125,0,0,0.125,1.1842e-15,0,0.66667
0.5331,0.60474,4.2648,0.15711,9.5088,130.99,-1.7868,0.59559,-1.9131,-2.3823,4.1323e-13,-0.95656,0,0,0.125,-0,-0,0.66667
0.24089,0.49877,1.9272,-0.0018469,-0.14738,302.44,0.0094915,-0.0031638,-1.9993,0.012655,-9.7715e-12,-0.99964,0,0,0.125,6.2778e-16,0,0.66667
0.54523,0.50459,4.3619,0.0068881,0.40902,124.94,-0.08012,0.026707,-2.0016,-0.10683,-7.9604e-13,-1.0008,0,0,0.125,-0,-0,0.66667
0.12737,0.98434,1.019,0.72651,60.964,378.76,-1.9742,0.65805,-0.12354,-2.6322,1.7271e-08,-0.061768,0,0,0.125,-2.9606e-16,0,0.66667
0.074781,0.44489,0.59825,-0.082665,-6.967,414.64,0.13188,-0.043959,-1.9756,0.17584,2.8212e-08,-0.98779,0,0,0.125,-0,-0,0.66667
0.83061,0.94063,6.6449,0.66094,17.403,21.691,-11.712,3.9039,-0.44801,-15.615,-9.1346e-09,-0.224,0,0,0.125,-0,-0,0.66667
0.72316,0.23692,5.7852,-0.39463,-15.898,51.031,6.088,-2.0293,-1.445,8.1174,1.2168e-11,-0.72251,0,0,0.125,1.1842e-15,0,0.66667
0.083912,0.90251,0.67129,0.60377,51.035,408.45,-1.0808,0.36027,-0.7029,-1.4411,7.4804e-08,-0.35145,0,0,0.125,-1.8504e-16,0,0.66667
0.55758,0.55523,4.4607,0.082841,4.8236,118.94,-0.9854,0.32847,-1.9745,-1.3139,-9.4502e-13,-0.98725,0,0,0.125,3.3015e-16,0,0.66667
0.52511,0.32076,4.2008,-0.26886,-16.48,135.1,3.0119,-1.004,-1.7413,4.0158,6.4326e-13,-0.87064,0,0,0.125,-0,-0,0.66667
0.50731,0.95254,4.0585,0.67881,42.945,144.91,-7.3465,2.4488,-0.3594,-9.7953,5.0182e-13,-0.1797,0,0,0.125,-0,-0,0.66667
0.032405,0.61453,0.25924,0.1718,14.55,443.97,-0.11876,0.039588,-1.8967,-0.15835,8.0309e-08,-0.94836,0,0,0.125,3.7007e-17,0,0.66667
0.96037,0.12888,7.683,-0.55668,-3.5446,2.5652,11.405,-3.8017,-0.89686,15.207,-7.7125e-07,-0.44843,0,0,0.125,2.3685e-15,0,0.66667
0.92765,0.54602,7.4212,0.069027,0.78157,4.3229,-1.366,0.45535,-1.9811,-1.8214,-4.9081e-08,-0.99056,0,0,0.125,1.1842e-15,0,0.66667
0.96441,0.47711,7.7153,-0.03433,-0.1848,1.2616,0.70631,-0.23544,-1.9949,0.94174,-6.2102e-08,-0.99745,0,0,0.125,-0,-0,0.66667
0.53338,0.30599,4.2671,-0.29102,-17.624,130.97,3.3114,-1.1038,-1.6999,4.4152,1.2983e-12,-0.84995,0,0,0.125,-5.9212e-16,0,0.66667
0.12664,0.59951,1.0131,0.14926,12.449,379.03,-0.40325,0.13442,-1.9224,-0.53766,-6.3555e-09,-0.96121,0,0,0.125,-0,-0,0.66667
0.73229,0.44414,5.8583,-0.083789,-3.2676,47.612,1.309,-0.43632,-1.9761,1.7453,4.4165e-12,-0.98805,0,0,0.125,-0,-0,0.66667
0.94973,0.71303,7.5979,0.31954,2.5199,2.6106,-6.4742,2.1581,-1.637,-8.6323,-5.1418e-08,-0.8185,0,0,0.125,-1.7764e-15,0,0.66667
0.25927,0.054636,2.0741,-0.66805,-53.094,290.89,3.695,-1.2317,-0.41151,4.9266,6.7146e-13,-0.20575,0,0,0.125,-0,-0,0.66667
0.28377,0.82477,2.2701,0.48716,38.059,274.95,-2.9491,0.98305,-1.1563,-3.9322,5.1514e-12,-0.57817,0,0,0.125,-5.9212e-16,0,0.66667
0.44706,0.55404,3.5765,0.081064,5.4882,176.53,-0.77312,0.25771,-1.9749,-1.0308,-1.3197e-12,-0.98747,0,0,0.125,-2.9606e-16,0,0.66667
0.15862,0.62229,1.2689,0.18343,15.158,357.29,-0.62071,0.2069,-1.8818,-0.82761,-1.7091e-09,-0.94088,0,0,0.125,-7.4015e-17,0,0.66667
0.56858,0.50253,4.5487,0.0037911,0.21671,113.68,-0.045985,0.015328,-1.9991,-0.061314,-2.8177e-12,-0.99955,0,0,0.125,-0,-0,0.66667
0.44953,0.50934,3.5963,0.014017,0.94624,175.14,-0.13443,0.044809,-1.9988,-0.17923,-6.2314e-12,-0.9994,0,0,0.125,-0,-0,0.66667
0.88742,0.349,7.0994,-0.2265,-3.9867,9.7649,4.288,-1.4293,-1.8179,5.7173,-1.169e-08,-0.90893,0,0,0.125,-0,-0,0.66667
0.21483,0.29622,1.7187,-0.30566,-24.731,319.68,1.4009,-0.46696,-1.6668,1.8678,6.5223e-11,-0.8334,0,0,0.125,2.9606e-16,0,0.66667
0.16795,0.5515,1.3436,0.077251,6.3615,350.97,-0.27678,0.092261,-1.9779,-0.36904,-7.9061e-10,-0.98896,0,0,0.125,1.4803e-16,0,0.66667
0.49563,0.8242,3.9651,0.4863,31.139,150.6,-5.1419,1.714,-1.158,-6.8559,2.5668e-13,-0.57898,0,0,0.125,-0,-0,0.66667
0.51663,0.25116,4.133,-0.37326,-23.186,139.54,4.1138,-1.3713,-1.5078,5.4851,1.3891e-12,-0.75388,0,0,0.125,-0,-0,0.66667
0.4062,0.61194,3.2496,0.16791,11.871,199.84,-1.455,0.485,-1.9026,-1.94,3.0065e-13,-0.95132,0,0,0.125,-0,-0,0.66667
0.2368,0.32077,1.8944,-0.26885,-21.518,305.19,1.3581,-0.4527,-1.7436,1.8108,-3.6838e-12,-0.87178,0,0,0.125,-0,-0,0.66667
0.53636,0.87708,4.2909,0.56562,34.238,129.93,-6.4721,2.1574,-0.86209,-8.6294,4.5564e-13,-0.43105,0,0,0.125,-0,-0,0.66667
0.96214,0.73626,7.6971,0.35439,2.0859,1.8248,-7.2741,2.4247,-1.5513,-9.6988,-1.4132e-07,-0.77565,0,0,0.125,1.1842e-15,0,0.66667
0.25644,0.95506,2.0515,0.68259,54.349,292.74,-3.7342,1.2447,-0.34123,-4.979,1.1769e-11,-0.17061,0,0,0.125,-2.9606e-16,0,0.66667
0.28319,0.24158,2.2655,-0.38763,-30.26,275.23,2.3418,-0.78061,-1.4667,3.1224,-1.2645e-11,-0.73337,0,0,0.125,2.9606e-16,0,0.66667
0.031465,0.052704,0.25172,-0.67094,-57.119,444.67,0.45038,-0.15013,-0.40228,0.6005,-6.4309e-06,-0.20114,0,0,0.125,-3.7007e-17,0,0.66667
0.87611,0.46468,7.0088,-0.052978,-1.0201,11.459,0.99018,-0.33006,-1.9925,1.3202,-1.0005e-08,-0.99624,0,0,0.125,1.7764e-15,0,0.66667
0.27438,0.46598,2.1951,-0.051032,-3.9973,280.72,0.29872,-0.099573,-1.9897,0.39829,-2.4495e-12,-0.99483,0,0,0.125,7.4015e-16,0,0.66667
0.059762,0.85756,0.4781,0.53633,45.451,425.08,-0.68379,0.22793,-0.97714,-0.91172,-5.6179e-08,-0.48857,0,0,0.125,-0,-0,0.66667
0.75205,0.16012,6.0164,-0.50983,-18.739,42.005,8.1795,-2.7265,-1.0773,10.906,5.4023e-11,-0.53866,0,0,0.125,-0,-0,0.66667
0.92919,0.20933,7.4335,-0.436,-4.9142,4.7728,8.6427,-2.8809,-1.3221,11.524,-8.7227e-08,-0.66104,0,0,0.125,-0,-0,0.66667
0.42393,0.7859,3.3914,0.42884,29.85,189.85,-3.8784,1.2928,-1.3475,-5.1712,4.5342e-13,-0.67374,0,0,0.125,1.1842e-15,0,0.66667
0.32511,0.2952,2.6008,-0.30719,-23.294,248.75,2.1306,-0.71019,-1.6641,2.8408,6.5259e-13,-0.83207,0,0,0.125,-0,-0,0.66667
0.68882,0.61071,5.5106,0.16606,7.3549,62.84,-2.4403,0.81343,-1.9032,-3.2537,-4.4547e-12,-0.95162,0,0,0.125,-0,-0,0.66667
0.20706,0.41949,1.6565,-0.12076,-9.7948,324.78,0.53345,-0.17782,-1.9472,0.71127,8.4815e-11,-0.97358,0,0,0.125,-0,-0,0.66667
0.55152,0.052301,4.4121,-0.67155,-39.797,122.75,7.9012,-2.6337,-0.39528,10.535,-1.2155e-12,-0.19764,0,0,0.125,-0,-0,0.66667
0.49453,0.83767,3.9563,0.50651,32.491,151.21,-5.3437,1.7812,-1.0866,-7.125,1.0427e-12,-0.54331,0,0,0.125,5.9212e-16,0,0.66667
0.58736,0.97762,4.6989,0.71643,40.008,106,-8.9771,2.9924,-0.17322,-11.969,5.862e-14,-0.086608,0,0,0.125,1.1842e-15,0,0.66667
0.83524,0.090806,6.6819,-0.61379,-15.719,20.5,10.937,-3.6456,-0.65935,14.582,-5.9034e-09,-0.32967,0,0,0.125,-2.9606e-16,0,0.66667
0.68413,0.90375,5.473,0.60562,27.369,65.413,-8.8389,2.9463,-0.69648,-11.785,-1.6565e-12,-0.34824,0,0,0.125,4.4409e-16,0,0.66667
0.88239,0.43633,7.0591,-0.095512,-1.7496,10.434,1.7979,-0.59932,-1.9667,2.3973,3.0984e-09,-0.98337,0,0,0.125,1.1842e-15,0,0.66667
0.27936,0.75831,2.2348,0.38746,30.317,277.68,-2.3091,0.7697,-1.4673,-3.0788,9.535e-12,-0.73364,0,0,0.125,-0,-0,0.66667
0.24996,0.66143,1.9996,0.24215,19.246,296.58,-1.2912,0.43041,-1.7951,-1.7216,1.046e-11,-0.89756,0,0,0.125,-5.9212e-16,0,0.66667
0.18811,0.33757,1.5049,-0.24365,-19.928,337.45,0.97777,-0.32592,-1.7917,1.3037,4.9965e-10,-0.89584,0,0,0.125,1.4803e-16,0,0.66667
0.008355,0.78295,0.06684,0.42443,36.047,460.65,-0.075651,0.025217,-1.3586,-0.10087,-4.8032e-07,-0.67929,0,0,0.125,-0,-0,0.66667
0.65746,0.6255,5.2596,0.18826,9.0177,74.92,-2.6404,0.88014,-1.877,-3.5206,-2.6392e-12,-0.9385,0,0,0.125,-0,-0,0.66667
0.37182,0.28747,2.9745,-0.3188,-23.291,220.23,2.5288,-0.84292,-1.6388,3.3717,7.5806e-13,-0.81939,0,0,0.125,-0,-0,0.66667
0.16613,0.63802,1.329,0.20704,17.068,352.22,-0.73374,0.24458,-1.8457,-0.97832,-1.5015e-09,-0.92285,0,0,0.125,2.9606e-16,0,0.66667
0.25918,0.63243,2.0734,0.19865,15.705,290.57,-1.0983,0.36611,-1.858,-1.4645,3.8626e-12,-0.92901,0,0,0.125,5.9212e-16,0,0.66667
0.1825,0.91907,1.46,0.62861,51.746,341.43,-2.4474,0.81581,-0.59344,-3.2632,5.6593e-10,-0.29672,0,0,0.125,-2.9606e-16,0,0.66667
0.17807,0.60414,1.4246,0.15621,12.82,344.16,-0.59341,0.1978,-1.9114,-0.79122,-7.2817e-10,-0.95568,0,0,0.125,-2.9606e-16,0,0.66667
0.22777,0.66862,1.8221,0.25292,20.332,311.11,-1.229,0.40966,-1.7704,-1.6386,-1.6338e-11,-0.88522,0,0,0.125,5.9212e-16,0,0.66667
0.096411,0.63322,0.77128,0.19983,16.786,399.75,-0.41101,0.137,-1.8584,-0.54801,-1.5182e-08,-0.92918,0,0,0.125,-0,-0,0.66667
0.54411,0.1649,4.3528,-0.50265,-30.033,125.98,5.8346,-1.9449,-1.1019,7.7794,-4.5652e-13,-0.55093,0,0,0.125,-0,-0,0.66667
0.8362,0.28579,6.6896,-0.32132,-8.0939,19.48,5.7319,-1.9106,-1.6315,7.6425,-1.7362e-09,-0.81574,0,0,0.125,-0,-0,0.66667
0.34664,0.87965,2.7731,0.56948,42.616,235.75,-4.2113,1.4038,-0.84751,-5.6151,-1.0414e-12,-0.42375,0,0,0.125,-0,-0,0.66667
0.9126,0.72889,7.3008,0.34334,4.7392,6.4358,-6.6844,2.2281,-1.579,-8.9125,2.9522e-08,-0.78948,0,0,0.125,2.3685e-15,0,0.66667
0.68392,0.50132,5.4714,0.0019736,0.088485,64.599,-0.028795,0.0095984,-2.0006,-0.038393,-2.0724e-12,-1.0003,0,0,0.125,4.737e-15,0,0.66667
0.82604,0.59318,6.6083,0.13978,3.7102,21.491,-2.4632,0.82105,-1.9326,-3.2842,5.8783e-10,-0.96631,0,0,0.125,1.1842e-15,0,0.66667
0.92485,0.033422,7.3988,-0.69987,-8.5857,6.2207,13.809,-4.6028,-0.25939,18.411,-3.3059e-06,-0.1297,0,0,0.125,-0,-0,0.66667
0.71895,0.17543,5.7516,-0.48685,-19.907,52.664,7.4671,-2.489,-1.16,9.9562,7.6636e-12,-0.57999,0,0,0.125,-0,-0,0.66667
0.77043,0.47319,6.1634,-0.040215,-1.3714,35.832,0.66097,-0.22032,-1.9936,0.88129,1.4174e-11,-0.9968,0,0,0.125,-1.8247e-15,0,0.66667
0.074018,0.61092,0.59214,0.16638,14.028,415.18,-0.26273,0.087575,-1.9005,-0.3503,8.596e-10,-0.95023,0,0,0.125,-0,-0,0.66667
0.18869,0.72992,1.5095,0.34488,28.224,337.1,-1.3882,0.46275,-1.5787,-1.851,-4.3718e-10,-0.78934,0,0,0.125,-2.9606e-16,0,0.66667
0.31405,0.81501,2.5124,0.47252,36.179,255.79,-3.1658,1.0553,-1.2084,-4.221,2.3317e-12,-0.60419,0,0,0.125,-1.1842e-15,0,0.66667
0.33439,0.44806,2.6751,-0.077912,-5.8601,242.89,0.5558,-0.18527,-1.9765,0.74106,-1.6586e-12,-0.98825,0,0,0.125,-0,-0,0.66667
0.4653,0.025686,3.7224,-0.71147,-47.526,167.28,7.0624,-2.3541,-0.20024,9.4166,-2.192e-12,-0.10012,0,0,0.125,-0,8.666e-17,0.66667
0.095259,0.88944,0.76207,0.58416,49.262,400.65,-1.1871,0.39571,-0.78779,-1.5828,-3.5462e-08,-0.3939,0,0,0.125,-0,-0,0.66667
0.34423,0.71265,2.7538,0.31898,23.842,236.96,-2.3424,0.78081,-1.6412,-3.1232,2.5271e-12,-0.82058,0,0,0.125,-0,-0,0.66667
0.073158,0.40136,0.58526,-0.14797,-12.476,415.77,0.23093,-0.076977,-1.9213,0.30791,-2.51e-08,-0.96067,0,0,0.125,-1.1102e-16,0,0.66667
0.32341,0.54665,2.5873,0.06998,5.3065,249.7,-0.48283,0.16094,-1.9811,-0.64377,-5.4707e-12,-0.99055,0,0,0.125,-0,-0,0.66667
0.6615,0.7247,5.292,0.33706,16.019,73.499,-4.7566,1.5855,-1.595,-6.3421,-3.4905e-12,-0.79749,0,0,0.125,-0,-0,0.66667
0.0029211,0.10146,0.023369,-0.59781,-50.886,464.42,0.037251,-0.012418,-0.7295,0.049668,-9.3529e-07,-0.36475,0,0,0.125,-0,-0,0.66667
0.28436,0.25204,2.2749,-0.37194,-29.009,274.47,2.2564,-0.75212,-1.509,3.0085,-1.251e-11,-0.75449,0,0,0.125,-0,-0,0.66667
0.072846,0.45065,0.58277,-0.074032,-6.2411,415.98,0.11505,-0.03835,-1.9788,0.1534,-2.1884e-08,-0.9894,0,0,0.125,-0,-0,0.66667
0.71076,0.6475,5.6861,0.22125,9.2243,55.006,-3.3548,1.1183,-1.824,-4.473,-9.1067e-12,-0.91199,0,0,0.125,-0,-0,0.66667
0.84127,0.39577,6.7301,-0.15634,-3.8119,18.162,2.8058,-0.93527,-1.9134,3.7411,-1.6214e-09,-0.9567,0,0,0.125,-1.1842e-15,0,0.66667
0.97833,0.89073,7.8266,0.5861,2.0109,1.7588,-12.233,4.0775,-0.77658,-16.31,-4.6685e-06,-0.38829,0,0,0.125,-1.1842e-15,0,0.66667
0.61717,0.25578,4.9373,-0.36634,-19.191,91.917,4.8233,-1.6078,-1.5212,6.431,-9.4591e-14,-0.76061,0,0,0.125,-0,-0,0.66667
0.2249,0.6899,1.7992,0.28486,22.936,313.02,-1.3667,0.45557,-1.7106,-1.8223,-3.2205e-11,-0.85532,0,0,0.125,-0,-0,0.66667
0.22831,0.26414,1.8265,-0.35379,-28.456,310.81,1.7232,-0.57439,-1.5529,2.2976,3.7526e-13,-0.77647,0,0,0.125,-0,-0,0.66667
0.49353,0.036673,3.9482,-0.69499,-44.804,152.14,7.3173,-2.4391,-0.2812,9.7563,1.2879e-13,-0.1406,0,0,0.125,-0,-0,0.66667
0.93135,0.709,7.4508,0.31351,3.3963,4.2475,-6.229,2.0763,-1.6487,-8.3053,3.1855e-08,-0.82435,0,0,0.125,1.1842e-15,0,0.66667
0.62806,0.62162,5.0244,0.18244,9.3269,87.022,-2.4444,0.81479,-1.8823,-3.2592,-1.8918e-12,-0.94117,0,0,0.125,5.9212e-16,0,0.66667
0.1814,0.49029,1.4512,-0.01456,-1.1931,341.91,0.056345,-0.018782,-1.9974,0.075127,-2.5111e-10,-0.99872,0,0,0.125,-4.4409e-16,0,0.66667
0.51601,0.12173,4.1281,-0.5674,-35.385,140.19,6.2461,-2.082,-0.85877,8.3281,1.2612e-12,-0.42939,0,0,0.125,-1.4803e-16,0,0.66667
0.40912,0.8039,3.273,0.45585,32.221,198.4,-3.9787,1.3262,-1.2613,-5.3049,4.4942e-13,-0.63064,0,0,0.125,-0,-0,0.66667
0.86907,0.3015,6.9525,-0.29776,-6.0717,12.95,5.5205,-1.8402,-1.6829,7.3606,-7.4251e-09,-0.84146,0,0,0.125,1.1842e-15,0,0.66667
0.10442,0.9808,0.83532,0.7212,60.84,394.43,-1.6065,0.5355,-0.14914,-2.142,-2.4175e-07,-0.074569,0,0,0.125,-0,-0,0.66667
0.21763,0.476,1.741,-0.035993,-2.905,317.76,0.16711,-0.055702,-1.9974,0.22281,3.2377e-11,-0.9987,0,0,0.125,-0,-0,0.66667
0.75933,0.064672,6.0746,-0.65299,-23.502,40.249,10.578,-3.5259,-0.48308,14.104,1.1102e-11,-0.24154,0,0,0.125,-0,-0,0.66667
0.97325,0.54082,7.786,0.061235,0.24037,0.80041,-1.2714,0.4238,-1.9856,-1.6952,1.068e-06,-0.99278,0,0,0.125,-0,-0,0.66667
0.80883,0.11109,6.4706,-0.58336,-17.079,26.504,10.066,-3.3553,-0.78918,13.421,-2.254e-10,-0.39459,0,0,0.125,2.2639e-16,0,0.66667
0.57043,0.53734,4.5635,0.056008,3.1917,112.81,-0.68157,0.22719,-1.9872,-0.90876,-9.6023e-13,-0.99359,0,0,0.125,1.1842e-15,0,0.66667
0.80961,0.67375,6.4768,0.26062,7.5286,25.529,-4.5013,1.5004,-1.7583,-6.0017,4.0921e-10,-0.87914,0,0,0.125,1.1842e-15,0,0.66667
0.37864,0.82315,3.0291,0.48473,35.269,216.34,-3.9155,1.3052,-1.1639,-5.2206,8.6331e-13,-0.58196,0,0,0.125,-0,-0,0.66667
0.23981,0.65583,1.9185,0.23375,18.676,303.2,-1.1958,0.39861,-1.8055,-1.5945,2.2771e-13,-0.90276,0,0,0.125,3.5157e-16,0,0.66667
0.44234,0.028268,3.5387,-0.7076,-48.522,179.94,6.6772,-2.2257,-0.21932,8.903,-1.2084e-12,-0.10966,0,0,0.125,5.9212e-16,0,0.66667
0.29305,0.53837,2.3444,0.05755,4.4559,268.8,-0.35978,0.11993,-1.9878,-0.47971,-1.4016e-12,-0.99389,0,0,0.125,-5.9212e-16,0,0.66667
0.64436,0.15151,5.1549,-0.52273,-25.929,80.765,7.1856,-2.3952,-1.0284,9.5808,1.5632e-13,-0.5142,0,0,0.125,-1.1842e-15,0,0.66667
0.91612,0.28807,7.329,-0.3179,-4.2077,5.9482,6.2131,-2.071,-1.6393,8.2841,-2.9403e-08,-0.81963,0,0,0.125,-2.3685e-15,0,0.66667
0.6714,0.85817,5.3712,0.53725,25.027,70.053,-7.6951,2.565,-0.97603,-10.26,-1.4611e-12,-0.48801,0,0,0.125,-0,-0,0.66667
0.78373,0.73189,6.2698,0.34784,11.291,32.416,-5.8157,1.9386,-1.57,-7.7543,5.7908e-11,-0.78498,0,0,0.125,-0,-0,0.66667
0.9199,0.35328,7.3592,-0.22009,-2.7708,5.329,4.3191,-1.4397,-1.8286,5.7588,-1.4985e-08,-0.91432,0,0,0.125,-0,-0,0.66667
0.73198,0.51299,5.8558,0.019487,0.76056,47.697,-0.3043,0.10143,-1.9989,-0.40573,4.1239e-13,-0.99945,0,0,0.125,-2.3685e-15,0,0.66667
0.45633,0.46793,3.6507,-0.048108,-3.2224,171.38,0.46834,-0.15611,-1.9928,0.62445,-1.2147e-12,-0.9964,0,0,0.125,-2.5905e-16,0,0.66667
0.7422,0.56875,5.9376,0.10312,3.8934,44.423,-1.6328,0.54427,-1.9605,-2.1771,-4.4964e-12,-0.98025,0,0,0.125,-0,-0,0.66667
0.99059,0.28398,7.9247,-0.32403,-0.36426,0.53672,6.8477,-2.2826,-1.6257,9.1302,-2.2856e-07,-0.81287,0,0,0.125,2.3685e-15,0,0.66667
0.67386,0.21786,5.3908,-0.42322,-19.547,68.847,6.084,-2.028,-1.3653,8.112,2.1441e-12,-0.68263,0,0,0.125,-4.4409e-16,0,0.66667
0.72714,0.38533,5.8171,-0.17201,-6.8224,49.374,2.6683,-0.88942,-1.8927,3.5577,9.5417e-12,-0.94636,0,0,0.125,-0,-0,0.66667
0.13533,0.76684,1.0827,0.40027,33.363,373.16,-1.1556,0.3852,-1.4286,-1.5408,-6.0673e-09,-0.7143,0,0,0.125,1.4803e-16,0,0.66667
0.81734,0.63433,6.5388,0.20149,5.5985,23.577,-3.5134,1.1711,-1.8544,-4.6845,4.7629e-10,-0.92719,0,0,0.125,-2.3685e-15,0,0.66667
0.92918,0.5976,7.4334,0.14641,1.6248,4.2167,-2.9021,0.96738,-1.9225,-3.8695,-2.7286e-08,-0.96124,0,0,0.125,-2.3685e-15,0,0.66667
0.082941,0.033855,0.66352,-0.69922,-59.203,409.16,1.2372,-0.4124,-0.26132,1.6496,-2.7868e-07,-0.13066,0,0,0.125,-0,-0,0.66667
0.92221,0.87325,7.3777,0.55988,6.999,5.9329,-11.015,3.6716,-0.88928,-14.687,-2.9995e-08,-0.44464,0,0,0.125,1.4803e-15,0,0.66667
0.76001,0.14426,6.0801,-0.53361,-19.079,39.661,8.6517,-2.8839,-0.9858,11.536,4.5244e-12,-0.4929,0,0,0.125,-9.0004e-16,0,0.66667
0.25267,0.75756,2.0214,0.38634,30.697,294.89,-2.0825,0.69417,-1.4697,-2.7767,1.1009e-11,-0.73485,0,0,0.125,-0,-0,0.66667
0.03478,0.67228,0.27824,0.25841,21.892,442.32,-0.19174,0.063912,-1.7618,-0.25565,1.3091e-07,-0.88091,0,0,0.125,7.4015e-17,0,0.66667
0.59333,0.70625,4.7466,0.30937,16.956,102.41,-3.916,1.3053,-1.6621,-5.2213,-6.1307e-13,-0.83106,0,0,0.125,-7.0264e-16,0,0.66667
0.14,0.62224,1.12,0.18336,15.239,369.93,-0.54762,0.18254,-1.8837,-0.73016,-4.8457e-09,-0.94186,0,0,0.125,7.4015e-17,0,0.66667
0.88064,0.77223,7.0451,0.40835,7.6544,11.214,-7.6716,2.5572,-1.4055,-10.229,9.2556e-09,-0.70276,0,0,0.125,1.1842e-15,0,0.66667
0.64348,0.1922,5.1478,-0.4617,-22.917,80.987,6.338,-2.1127,-1.2427,8.4506,2.2204e-15,-0.62136,0,0,0.125,-0,-0,0.66667
0.041189,0.84822,0.32951,0.52233,44.339,437.91,-0.45897,0.15299,-1.0289,-0.61196,-6.3355e-07,-0.51445,0,0,0.125,-0,-0,0.66667
0.19441,0.39428,1.5553,-0.15858,-12.932,333.21,0.6577,-0.21923,-1.9084,0.87694,2.1306e-10,-0.95422,0,0,0.125,-2.9606e-16,0,0.66667
0.62451,0.53799,4.9961,0.056992,2.9335,88.465,-0.7593,0.2531,-1.9913,-1.0124,-1.4863e-12,-0.99564,0,0,0.125,1.1842e-15,0,0.66667
0.52665,0.45775,4.2132,-0.063379,-3.8715,134.2,0.71208,-0.23736,-1.9844,0.94944,-1.9168e-12,-0.99222,0,0,0.125,-0,-0,0.66667
0.29026,0.019888,2.3221,-0.72017,-56.244,271.11,4.4594,-1.4865,-0.15389,5.9458,-5.1101e-12,-0.076943,0,0,0.125,-0,-0,0.66667
0.39512,0.075653,3.1609,-0.63652,-45.733,206.84,5.3653,-1.7884,-0.55812,7.1538,7.4918e-13,-0.27906,0,0,0.125,5.9212e-16,0,0.66667
0.24657,0.21184,1.9725,-0.43224,-34.473,298.9,2.2736,-0.75787,-1.3356,3.0315,-2.2883e-11,-0.66779,0,0,0.125,-1.4803e-16,0,0.66667
0.99839,0.95592,7.9871,0.68388,0.1206,1.6803,-14.566,4.8553,-0.33815,-19.421,-3.9202e-05,-0.16908,0,0,0.125,-0,-0,0.66667
0.88329,0.29313,7.0664,-0.3103,-5.6697,10.561,5.8471,-1.949,-1.6555,7.7962,-1.205e-08,-0.82773,0,0,0.125,-0,-0,0.66667
0.74097,0.82559,5.9278,0.48839,18.63,45.414,-7.7201,2.5734,-1.1498,-10.293,-9.7828e-12,-0.57489,0,0,0.125,-1.1842e-15,0,0.66667
0.24654,0.84546,1.9723,0.51818,41.373,298.99,-2.7254,0.90846,-1.0459,-3.6338,6.3924e-11,-0.52297,0,0,0.125,-0,-0,0.66667
0.088881,0.35991,0.71105,-0.21013,-17.677,404.93,0.39844,-0.13281,-1.8414,0.53125,1.3943e-08,-0.92072,0,0,0.125,-0,-0,0.66667
0.096131,0.070874,0.76905,-0.64369,-54.322,400.07,1.3201,-0.44003,-0.52739,1.7601,4.8278e-08,-0.26369,0,0,0.125,-0,-0,0.66667
0.88147,0.090076,7.0518,-0.61489,-11.583,11.74,11.563,-3.8543,-0.65454,15.417,2.1789e-08,-0.32727,0,0,0.125,-1.1842e-15,0,0.66667
0.22391,0.4644,1.7913,-0.053407,-4.2979,313.61,0.25511,-0.085038,-1.989,0.34015,-9.0136e-13,-0.99452,0,0,0.125,3.7007e-16,0,0.66667
0.055036,0.94558,0.44029,0.66836,56.781,428.37,-0.78472,0.26158,-0.4098,-1.0463,2.4543e-06,-0.2049,0,0,0.125,-0,-0,0.66667
0.60875,0.47549,4.87,-0.036769,-1.9535,95.309,0.4775,-0.15917,-1.9978,0.63667,-5.4512e-13,-0.99892,0,0,0.125,-0,-0,0.66667
0.75404,0.80218,6.0323,0.45328,16.519,41.251,-7.2915,2.4305,-1.2686,-9.722,-1.4495e-12,-0.63429,0,0,0.125,5.9212e-16,0,0.66667
0.90554,0.18437,7.2443,-0.47345,-7.1061,7.6922,9.1461,-3.0487,-1.2061,12.195,-2.8283e-08,-0.60305,0,0,0.125,-1.1842e-15,-1.4856e-18,0.66667
0.48403,0.70618,3.8722,0.30927,20.058,156.5,-3.1935,1.0645,-1.6624,-4.2579,-2.4691e-13,-0.83122,0,0,0.125,-0,-0,0.66667
0.71854,0.10451,5.7484,-0.59323,-24.356,53.094,9.0936,-3.0312,-0.75153,12.125,3.0553e-12,-0.37576,0,0,0.125,-0,-0,0.66667
0.046842,0.66656,0.37474,0.24983,21.143,433.97,-0.24966,0.083219,-1.7811,-0.33288,7.6831e-08,-0.89057,0,0,0.125,-0,-0,0.66667
0.30454,0.83813,2.4363,0.50719,39.106,261.8,-3.2952,1.0984,-1.0837,-4.3936,6.2841e-12,-0.54187,0,0,0.125,-0,-0,0.66667
0.087153,0.047862,0.69722,-0.67821,-57.362,406.25,1.261,-0.42032,-0.3624,1.6813,-3.7459e-07,-0.1812,0,0,0.125,-2.5124e-16,0,0.66667
0.40034,0.78815,3.2027,0.43223,30.804,203.48,-3.6915,1.2305,-1.3343,-4.9219,1.7943e-12,-0.66714,0,0,0.125,-0,-0,0.66667
0.19936,0.032605,1.5948,-0.70109,-57.397,330.24,2.9817,-0.9939,-0.25285,3.9756,-6.0559e-10,-0.12643,0,0,0.125,-0,-0,0.66667
0.49854,0.11921,3.9883,-0.57118,-36.487,149.23,6.0748,-2.0249,-0.84183,8.0997,1.1284e-12,-0.42091,0,0,0.125,2.9606e-16,-1.8762e-16,0.66667
0.24179,0.37391,1.9343,-0.18913,-15.092,301.89,0.97558,-0.32519,-1.872,1.3008,-1.0512e-11,-0.936,0,0,0.125,3.7007e-17,0,0.66667
0.19127,0.6201,1.5302,0.18014,14.711,335.32,-0.73508,0.24503,-1.8845,-0.9801,-3.3915e-10,-0.94225,0,0,0.125,-3.7007e-16,0,0.66667
0.60179,0.17706,4.8143,-0.48441,-26.202,98.899,6.2189,-2.073,-1.1636,8.2919,1.446e-12,-0.58178,0,0,0.125,-5.9212e-16,0,0.66667
0.48061,0.05945,3.8448,-0.66083,-43.279,158.91,6.7754,-2.2585,-0.44752,9.0339,-1.1355e-12,-0.22376,0,0,0.125,8.8818e-16,0,0.66667
0.38153,0.7681,3.0522,0.40215,29.154,214.52,-3.2732,1.0911,-1.4229,-4.3642,1.2437e-12,-0.71143,0,0,0.125,-0,-0,0.66667
0.41901,0.46244,3.3521,-0.056342,-3.931,192.39,0.50363,-0.16788,-1.9891,0.67151,-1.8488e-12,-0.99455,0,0,0.125,-2.9606e-16,0,0.66667
0.94696,0.10093,7.5757,-0.5986,-5.1484,3.6944,12.093,-4.0309,-0.72438,16.124,3.5742e-07,-0.36219,0,0,0.125,-0,-0,0.66667
0.61125,0.60044,4.89,0.15066,7.9686,94.255,-1.9646,0.65488,-1.9206,-2.6195,-1.1899e-12,-0.96028,0,0,0.125,-0,-0,0.66667
0.2018,0.14639,1.6144,-0.53041,-43.264,328.47,2.2834,-0.76114,-1.0012,3.0446,1.043e-10,-0.50061,0,0,0.125,-0,-0,0.66667
0.26679,0.73983,2.1343,0.35975,28.352,285.74,-2.0475,0.6825,-1.5415,-2.73,1.3086e-11,-0.77076,0,0,0.125,-2.9606e-16,0,0.66667
0.29971,0.4323,2.3977,-0.10155,-7.8288,264.58,0.64926,-0.21642,-1.9639,0.86569,-2.8641e-12,-0.98195,0,0,0.125,-2.9606e-16,0,0.66667
0.71146,0.17728,5.6917,-0.48407,-20.234,55.231,7.3472,-2.4491,-1.1648,9.7963,7.5597e-12,-0.58238,0,0,0.125,-5.9212e-16,0,0.66667
0.50952,0.084347,4.0761,-0.62348,-39.279,143.64,6.777,-2.259,-0.61607,9.0361,1.827e-12,-0.30804,0,0,0.125,5.9212e-16,0,0.66667
0.21262,0.44045,1.7009,-0.089324,-7.2264,321.08,0.40516,-0.13505,-1.9707,0.54021,-1.0199e-11,-0.98535,0,0,0.125,5.9212e-16,0,0.66667
0.58056,0.6026,4.6445,0.15389,8.6201,108.11,-1.906,0.63534,-1.9163,-2.5414,-8.7519e-13,-0.95814,0,0,0.125,-0,-0,0.66667
0.87572,0.12346,7.0058,-0.5648,-11.093,12.509,10.552,-3.5172,-0.86914,14.069,-1.5203e-08,-0.43457,0,0,0.125,-1.3323e-15,0,0.66667
0.12633,0.85927,1.0106,0.5389,45.1,379.36,-1.4524,0.48412,-0.96869,-1.9365,-3.2627e-09,-0.48434,0,0,0.125,-2.9606e-16,0,0.66667
0.99245,0.1879,7.9396,-0.46814,-0.43395,0.89765,9.9117,-3.3039,-1.2201,13.216,-7.0719e-07,-0.61005,0,0,0.125,-2.3685e-15,0,0.66667
0.57331,0.26331,4.5865,-0.35504,-20.178,111.7,4.3423,-1.4474,-1.5503,5.7898,-4.17e-13,-0.77516,0,0,0.125,-0,-0,0.66667
0.075515,0.74022,0.60412,0.36033,30.411,414.17,-0.58048,0.19349,-1.5386,-0.77397,-4.9807e-08,-0.7693,0,0,0.125,-7.4015e-17,0,0.66667
0.9247,0.52843,7.3976,0.04264,0.50256,4.6331,-0.84115,0.28038,-1.9945,-1.1215,-1.0745e-07,-0.99725,0,0,0.125,-0,-0,0.66667
0.6613,0.52629,5.2904,0.039431,1.8703,73.314,-0.55628,0.18543,-1.9936,-0.7417,-2.4392e-12,-0.99681,0,0,0.125,-0,-0,0.66667
0.25836,0.64804,2.0669,0.22205,17.566,291.11,-1.2239,0.40797,-1.8228,-1.6319,1.1947e-11,-0.91139,0,0,0.125,2.9606e-16,0,0.66667
0.011312,0.80925,0.090494,0.46387,39.411,458.6,-0.11194,0.037313,-1.2347,-0.14925,-2.5097e-07,-0.61737,0,0,0.125,-1.9781e-17,0,0.66667
0.82783,0.24416,6.6226,-0.38376,-10.14,21.459,6.7773,-2.2591,-1.4796,9.0364,-9.7544e-10,-0.73978,0,0,0.125,-5.9212e-16,0,0.66667
0.19681,0.63224,1.5745,0.19836,16.164,331.62,-0.83285,0.27762,-1.8585,-1.1105,-3.1292e-10,-0.92924,0,0,0.125,-5.9212e-16,0,0.66667
0.91039,0.78621,7.2831,0.42932,6.1032,6.9301,-8.3381,2.7794,-1.3443,-11.118,2.3949e-08,-0.67215,0,0,0.125,2.3685e-15,0,0.66667
0.26207,0.64751,2.0965,0.22127,17.467,288.71,-1.2371,0.41235,-1.8255,-1.6494,1.2418e-11,-0.91274,0,0,0.125,-0,-0,0.66667
0.30754,0.49221,2.4603,-0.011683,-0.89582,259.63,0.076648,-0.025549,-1.9983,0.1022,-4.5976e-12,-0.99917,0,0,0.125,-0,-0,0.66667
0.429,0.64334,3.432,0.21501,14.856,186.75,-1.9678,0.65593,-1.8334,-2.6237,-1.2723e-13,-0.91671,0,0,0.125,-0,-0,0.66667
0.84952,0.52675,6.7962,0.04013,0.92974,16.393,-0.72728,0.24243,-1.9932,-0.96971,2.0774e-09,-0.9966,0,0,0.125,-0,-0,0.66667
0.37631,0.37417,3.0105,-0.18875,-13.723,217.46,1.5153,-0.50509,-1.8762,2.0203,-9.3248e-13,-0.93808,0,0,0.125,-7.4015e-17,0,0.66667
0.66908,0.8686,5.3527,0.5529,25.912,70.988,-7.892,2.6307,-0.91351,-10.523,-2.6001e-12,-0.45676,0,0,0.125,3.9618e-16,0,0.66667
0.73119,0.59031,5.8495,0.13547,5.3031,48.004,-2.1131,0.70436,-1.9353,-2.8175,-9.9929e-12,-0.96765,0,0,0.125,1.7764e-15,0,0.66667
0.89467,0.62265,7.1574,0.18397,3.0321,8.6093,-3.5114,1.1705,-1.8798,-4.6818,1.5969e-08,-0.9399,0,0,0.125,5.9212e-16,0,0.66667
0.93853,0.92277,7.5082,0.63416,6.3433,4.5656,-12.697,4.2324,-0.57173,-16.929,-3.718e-07,-0.28587,0,0,0.125,1.1842e-15,0,0.66667
0.87235,0.034354,6.9788,-0.69847,-14.191,13.61,12.999,-4.3329,-0.26646,17.331,1.9399e-08,-0.13323,0,0,0.125,-0,-0,0.66667
0.45255,0.87015,3.6204,0.55523,37.53,173.96,-5.3604,1.7868,-0.90688,-7.1472,1.5854e-13,-0.45344,0,0,0.125,-0,-0,0.66667
0.55083,0.5097,4.4067,0.014555,0.85671,122.2,-0.17104,0.057014,-1.9985,-0.22806,-2.7643e-12,-0.99923,0,0,0.125,2.3685e-15,0,0.66667
0.57742,0.59246,4.6194,0.13869,7.8106,109.56,-1.7084,0.56946,-1.9351,-2.2778,-2.8412e-12,-0.96753,0,0,0.125,1.4918e-15,0,0.66667
0.48558,0.16027,3.8846,-0.5096,-33.072,155.95,5.279,-1.7597,-1.079,7.0386,-4.9694e-13,-0.53951,0,0,0.125,-1.1842e-15,0,0.66667
0.91406,0.59597,7.3125,0.14395,1.9399,5.9392,-2.8071,0.9357,-1.9253,-3.7428,2.5845e-08,-0.96264,0,0,0.125,2.3685e-15,0,0.66667
0.78635,0.18571,6.2908,-0.47144,-15.188,31.986,7.9085,-2.6362,-1.2094,10.545,-1.4053e-10,-0.60471,0,0,0.125,-2.9606e-16,0,0.66667
0.093327,0.43908,0.74662,-0.091375,-7.6769,401.86,0.18193,-0.060642,-1.974,0.24257,-1.8437e-08,-0.98702,0,0,0.125,-0,-0,0.66667
0.99093,0.33241,7.9275,-0.25138,-0.25708,0.38135,5.3142,-1.7714,-1.7733,7.0856,-1.6131e-07,-0.88664,0,0,0.125,-0,-0,0.66667
0.19126,0.7397,1.5301,0.35955,29.398,335.39,-1.4671,0.48902,-1.5396,-1.9561,-3.5596e-10,-0.76982,0,0,0.125,2.9606e-16,0,0.66667
0.26939,0.24188,2.1551,-0.38717,-30.475,284.08,2.2251,-0.7417,-1.4665,2.9668,-1.6974e-11,-0.73325,0,0,0.125,2.9606e-16,0,0.66667
0.15118,0.96321,1.2095,0.69481,57.878,362.57,-2.241,0.74699,-0.28255,-2.988,-6.2728e-10,-0.14127,0,0,0.125,-0,-0,0.66667
0.26352,0.17172,2.1081,-0.49243,-38.939,287.95,2.7683,-0.92276,-1.1383,3.691,-7.6912e-12,-0.56915,0,0,0.125,-0,-0,0.66667
0.37276,0.77219,2.9821,0.40828,29.832,219.75,-3.2468,1.0823,-1.408,-4.3291,-3.1131e-13,-0.70398,0,0,0.125,2.9606e-16,0,0.66667
0.97389,0.51343,7.7911,0.02015,0.07688,0.75875,-0.41864,0.13955,-1.9969,-0.55819,-2.7394e-06,-0.99845,0,0,0.125,-4.737e-15,0,0.66667
0.16693,0.92485,1.3354,0.63728,52.762,351.9,-2.2694,0.75648,-0.55447,-3.0259,3.2472e-09,-0.27724,0,0,0.125,-0,-0,0.66667
0.61018,0.0055709,4.8815,-0.74164,-39.714,95.868,9.6542,-3.2181,-0.046907,12.872,1.9673e-12,-0.023454,0,0,0.125,-0,-0,0.66667
0.44789,0.90494,3.5831,0.6074,41.312,176.64,-5.8037,1.9346,-0.6879,-7.7382,-1.191e-12,-0.34395,0,0,0.125,-0,-0,0.66667
0.58703,0.91303,4.6962,0.61954,34.534,105.88,-7.7586,2.5862,-0.63362,-10.345,1.0547e-12,-0.31681,0,0,0.125,-1.1842e-15,0,0.66667
0.053649,0.45305,0.4292,-0.070432,-5.9522,429.25,0.080611,-0.02687,-1.9801,0.10748,7.3373e-08,-0.99007,0,0,0.125,-7.4015e-17,0,0.66667
0.30933,0.17926,2.4746,-0.48111,-36.961,258.76,3.1749,-1.0583,-1.1769,4.2332,-5.3688e-12,-0.58846,0,0,0.125,-0,-0,0.66667
0.090911,0.37388,0.72729,-0.18918,-15.906,403.53,0.3669,-0.1223,-1.874,0.4892,6.9148e-09,-0.93702,0,0,0.125,-1.8504e-16,0,0.66667
0.46345,0.02857,3.7076,-0.70715,-47.337,168.29,6.9915,-2.3305,-0.22143,9.322,-2.0952e-12,-0.11072,0,0,0.125,-5.9212e-16,0,0.66667
0.89199,0.63494,7.1359,0.20241,3.4203,9.0319,-3.8517,1.2839,-1.8558,-5.1356,1.4155e-08,-0.9279,0,0,0.125,-0,-0,0.66667
0.82138,0.32526,6.5711,-0.2621,-7.1421,22.708,4.5928,-1.5309,-1.7536,6.1237,-8.1071e-10,-0.87679,0,0,0.125,-1.1842e-15,0,0.66667
0.87215,0.678,6.9772,0.267,5.3172,12.352,-4.9678,1.6559,-1.7466,-6.6237,7.8496e-09,-0.8733,0,0,0.125,-1.1842e-15,0,0.66667
0.3996,0.87241,3.1968,0.55862,39.912,204.09,-4.7621,1.5874,-0.88948,-6.3494,1.9127e-12,-0.44474,0,0,0.125,-5.9212e-16,0,0.66667
0.50934,0.78161,4.0747,0.42241,26.526,143.36,-4.5899,1.53,-1.3651,-6.1198,5.3024e-13,-0.68255,0,0,0.125,-0,-0,0.66667
0.25721,0.7528,2.0576,0.3792,30.053,291.95,-2.0807,0.69357,-1.4876,-2.7743,1.4013e-11,-0.7438,0,0,0.125,-0,-0,0.66667
0.60699,0.23631,4.8559,-0.39554,-21.15,96.422,5.1218,-1.7073,-1.444,6.8291,1.3638e-12,-0.72199,0,0,0.125,-1.1842e-15,0,0.66667
0.44631,0.86443,3.5705,0.54665,37.206,177.41,-5.2048,1.7349,-0.93546,-6.9398,4.0856e-14,-0.46773,0,0,0.125,-0,-0,0.66667
0.49641,0.1338,3.9713,-0.5493,-35.175,150.31,5.8171,-1.939,-0.92671,7.7562,5.8353e-13,-0.46335,0,0,0.125,-0,-0,0.66667
0.54096,0.077607,4.3277,-0.63359,-38.138,127.81,7.312,-2.4373,-0.57068,9.7493,8.0513e-13,-0.28534,0,0,0.125,-0,-0,0.66667
0.58046,0.78111,4.6437,0.42167,23.69,108.48,-5.2216,1.7405,-1.3697,-6.9621,-2.8999e-13,-0.68487,0,0,0.125,-3.0531e-16,0,0.66667
0.46466,0.17761,3.7173,-0.48359,-32.191,167.19,4.7937,-1.5979,-1.1676,6.3916,-1.4606e-12,-0.58381,0,0,0.125,-5.9212e-16,0,0.66667
0.79849,0.22844,6.3879,-0.40735,-12.43,28.614,6.9389,-2.313,-1.4112,9.2519,-2.0025e-10,-0.70562,0,0,0.125,-0,-0,0.66667
0.40923,0.14912,3.2739,-0.52633,-37.236,198.43,4.595,-1.5317,-1.0152,6.1267,2.7445e-13,-0.50761,0,0,0.125,-2.9606e-16,0,0.66667
0.043632,0.37543,0.34906,-0.18685,-15.812,436.19,0.17392,-0.057974,-1.877,0.2319,-3.562e-08,-0.93848,0,0,0.125,-0,-0,0.66667
0.83341,0.74806,6.6673,0.3721,9.5343,20.191,-6.6157,2.2052,-1.5073,-8.8209,1.2664e-09,-0.75363,0,0,0.125,1.4803e-15,0,0.66667
0.48479,0.98389,3.8783,0.72583,47.354,156.83,-7.5067,2.5022,-0.12918,-10.009,7.8115e-13,-0.064591,0,0,0.125,-5.9212e-16,0,0.66667
0.47847,0.9387,3.8278,0.65805,43.209,160.05,-6.717,2.239,-0.45982,-8.956,-7.9048e-14,-0.22991,0,0,0.125,1.1842e-15,0,0.66667
0.17683,0.54051,1.4147,0.060764,4.9878,344.98,-0.22923,0.07641,-1.9855,-0.30564,-3.8288e-10,-0.99277,0,0,0.125,-0,-0,0.66667
0.443,0.81566,3.544,0.47349,32.309,179.14,-4.4748,1.4916,-1.2021,-5.9664,2.1227e-12,-0.60106,0,0,0.125,-0,-0,0.66667
0.14347,0.67351,1.1478,0.26027,21.619,367.58,-0.79662,0.26554,-1.759,-1.0622,-4.2477e-09,-0.87948,0,0,0.125,-0,-0,0.66667
0.041238,0.90283,0.3299,0.60425,51.351,437.89,-0.53158,0.17719,-0.70095,-0.70878,-3.1976e-06,-0.35047,0,0,0.125,-9.2519e-17,0,0.66667
0.96316,0.75195,7.7053,0.37792,2.1677,1.8216,-7.7654,2.5885,-1.4916,-10.354,-1.6042e-07,-0.7458,0,0,0.125,-0,-0,0.66667
0.26195,0.74864,2.0956,0.37295,29.478,288.87,-2.0842,0.69472,-1.506,-2.7789,1.8015e-11,-0.75301,0,0,0.125,-6.2913e-16,0,0.66667
0.1361,0.86276,1.0888,0.54413,45.422,372.71,-1.5799,0.52662,-0.94596,-2.1065,2.9613e-10,-0.47298,0,0,0.125,1.4803e-16,0,0.66667
0.68806,0.48984,5.5045,-0.015242,-0.676,63.058,0.22373,-0.074577,-2.0016,0.29831,-2.6763e-13,-1.0008,0,0,0.125,-5.9212e-16,0,0.66667
0.37393,0.092253,2.9914,-0.61162,-44.774,219.33,4.879,-1.6263,-0.67291,6.5054,1.6032e-13,-0.33646,0,0,0.125,2.2204e-16,0,0.66667
0.62308,0.2787,4.9846,-0.33195,-17.174,89.316,4.4125,-1.4708,-1.6101,5.8833,-1.1489e-12,-0.80503,0,0,0.125,1.4803e-15,0,0.66667
0.70645,0.33904,5.6516,-0.24144,-10.194,56.545,3.6386,-1.2129,-1.793,4.8515,8.1746e-12,-0.8965,0,0,0.125,-1.4803e-15,0,0.66667
0.66211,0.47136,5.2969,-0.042962,-2.034,72.995,0.60684,-0.20228,-1.9926,0.80912,1.3317e-12,-0.99632,0,0,0.125,-0,-0,0.66667
0.22691,0.73541,1.8153,0.35312,28.421,311.73,-1.7094,0.56979,-1.5544,-2.2792,-9.1567e-12,-0.77718,0,0,0.125,-2.9606e-16,0,0.66667
0.78337,0.81728,6.267,0.47591,15.523,32.808,-7.9534,2.6511,-1.196,-10.605,9.1421e-11,-0.59799,0,0,0.125,-0,-0,0.66667
0.07097,0.90321,0.56776,0.60482,51.228,417.36,-0.91571,0.30524,-0.69819,-1.221,-3.4762e-07,-0.34909,0,0,0.125,1.1102e-16,0,0.66667
0.78814,0.58143,6.3051,0.12214,3.8792,30.919,-2.0537,0.68456,-1.9448,-2.7383,7.026e-11,-0.9724,0,0,0.125,-0,-0,0.66667
0.16235,0.17138,1.2988,-0.49294,-40.792,354.89,1.7072,-0.56907,-1.134,2.2763,1.4963e-09,-0.567,0,0,0.125,2.9606e-16,0,0.66667
0.40501,0.55042,3.2401,0.075625,5.3511,200.49,-0.65342,0.21781,-1.9811,-0.87122,2.0461e-13,-0.99057,0,0,0.125,-5.9212e-16,0,0.66667
0.0061978,0.37221,0.049583,-0.19169,-16.252,462.14,0.025345,-0.0084482,-1.8684,0.033793,9.0746e-08,-0.93421,0,0,0.125,1.8349e-18,0,0.66667
0.16285,0.26133,1.3028,-0.358,-29.578,354.48,1.2438,-0.41459,-1.5422,1.6584,1.6447e-09,-0.77112,0,0,0.125,2.9606e-16,0,0.66667
0.67786,0.57348,5.4229,0.11022,5.0208,66.917,-1.5939,0.5313,-1.9549,-2.1252,-2.7753e-12,-0.97747,0,0,0.125,-0,-0,0.66667
0.75014,0.64889,6.0012,0.22334,8.215,42.033,-3.5741,1.1914,-1.8258,-4.7654,-9.4935e-12,-0.91292,0,0,0.125,-1.1842e-15,0,0.66667
0.91019,0.70456,7.2815,0.30684,4.3428,6.6637,-5.9581,1.986,-1.6642,-7.9441,2.5119e-08,-0.83211,0,0,0.125,-0,-0,0.66667
0.42023,0.48293,3.3618,-0.025606,-1.7843,191.7,0.22955,-0.076517,-1.9986,0.30607,-6.625e-13,-0.99931,0,0,0.125,-0,-0,0.66667
0.61033,0.52186,4.8826,0.032795,1.737,94.613,-0.42701,0.14234,-1.9982,-0.56934,-1.0734e-12,-0.99908,0,0,0.125,-0,-0,0.66667
0.49204,0.39577,3.9363,-0.15634,-10.024,152.12,1.6411,-0.54705,-1.911,2.1882,-4.482e-13,-0.95549,0,0,0.125,-0,-0,0.66667
0.025408,0.65798,0.20327,0.23697,20.084,448.82,-0.12845,0.042817,-1.7997,-0.17127,1.0669e-07,-0.89985,0,0,0.125,7.4015e-17,0,0.66667
0.44827,0.95793,3.5862,0.6869,46.772,176.59,-6.569,2.1897,-0.32098,-8.7586,-7.7938e-13,-0.16049,0,0,0.125,-0,-6.329e-17,0.66667
0.68945,0.66929,5.5156,0.25393,11.238,62.7,-3.7349,1.245,-1.7714,-4.9799,-5.9257e-12,-0.8857,0,0,0.125,-0,-0,0.66667
0.67687,0.89353,5.415,0.59029,27.162,68.101,-8.5238,2.8413,-0.75952,-11.365,-2.2506e-12,-0.37976,0,0,0.125,1.1842e-15,0,0.66667
0.29344,0.72719,2.3475,0.34079,26.419,268.67,-2.1333,0.71111,-1.5868,-2.8444,7.1396e-12,-0.79338,0,0,0.125,-0,-0,0.66667
0.87748,0.2359,7.0198,-0.39615,-7.6098,11.708,7.4158,-2.4719,-1.4421,9.8877,-9.1741e-09,-0.72107,0,0,0.125,1.1842e-15,0,0.66667
0.77122,0.94106,6.1698,0.66159,22.791,36.798,-10.885,3.6283,-0.44287,-14.513,-5.8239e-11,-0.22144,0,0,0.125,-0,-0,0.66667
0.85372,0.43231,6.8298,-0.10153,-2.2912,15.584,1.8492,-0.61639,-1.9622,2.4656,-1.0992e-09,-0.9811,0,0,0.125,1.7764e-15,0,0.66667
0.93715,0.13402,7.4972,-0.54897,-5.5546,4.3564,10.975,-3.6585,-0.93121,14.634,-1.4308e-07,-0.46561,0,0,0.125,-0,-1.3389e-16,0.66667
0.235,0.6695,1.88,0.25426,20.367,306.36,-1.2747,0.4249,-1.7723,-1.6996,-3.2258e-12,-0.88614,0,0,0.125,-0,-0,0.66667
0.71728,0.81253,5.7383,0.4688,19.255,53.187,-7.1736,2.3912,-1.2214,-9.5647,-6.1608e-12,-0.61071,0,0,0.125,-2.3685e-15,0,0.66667
0.043952,0.86911,0.35162,0.55367,47.008,436.01,-0.51915,0.17305,-0.91044,-0.6922,-7.6814e-07,-0.45522,0,0,0.125,-0,-0,0.66667
0.30362,0.79505,2.429,0.44257,34.116,262.31,-2.8667,0.95556,-1.3014,-3.8222,6.7621e-12,-0.6507,0,0,0.125,-0,-0,0.66667
0.48305,0.92466,3.8644,0.63698,41.569,157.55,-6.5641,2.188,-0.55868,-8.7522,-5.3513e-13,-0.27934,0,0,0.125,2.0075e-17,0,0.66667
0.36442,0.80167,2.9154,0.4525,33.318,224.81,-3.5179,1.1726,-1.2705,-4.6905,1.336e-12,-0.63524,0,0,0.125,-0,-0,0.66667
0.19847,0.22597,1.5878,-0.41105,-33.526,330.6,1.7404,-0.58014,-1.3983,2.3205,2.6446e-10,-0.69915,0,0,0.125,-0,-0,0.66667
0.69868,0.42282,5.5895,-0.11577,-4.9907,59.203,1.7256,-0.57521,-1.951,2.3008,2.9068e-12,-0.97551,0,0,0.125,-0,-0,0.66667
0.9253,0.78752,7.4024,0.43128,5.1244,5.1727,-8.5134,2.8378,-1.3386,-11.351,7.8111e-08,-0.6693,0,0,0.125,2.3685e-15,0,0.66667
0.099858,0.00096794,0.79886,-0.74855,-63.237,397.57,1.5946,-0.53154,-0.007182,2.1262,-4.865e-08,-0.003591,0,0,0.125,5.9212e-16,0,0.66667
0.23014,0.6117,1.8411,0.16755,13.447,309.53,-0.82259,0.2742,-1.899,-1.0968,-1.526e-11,-0.94951,0,0,0.125,-0,-0,0.66667
0.28485,0.40123,2.2788,-0.14815,-11.533,274.04,0.90026,-0.30009,-1.922,1.2003,-8.6948e-12,-0.96098,0,0,0.125,-0,-0,0.66667
0.66797,0.87084,5.3438,0.55626,26.142,71.427,-7.9268,2.6423,-0.89973,-10.569,-2.8781e-12,-0.44987,0,0,0.125,8.8818e-16,0,0.66667
0.38662,0.087595,3.0929,-0.61861,-44.782,211.81,5.1022,-1.7007,-0.63894,6.8029,1.1031e-12,-0.31947,0,0,0.125,-0,-5.7418e-18,0.66667
0.7656,0.041936,6.1248,-0.6871,-24.201,38.52,11.222,-3.7407,-0.32446,14.963,3.0594e-11,-0.16223,0,0,0.125,-0,-0,0.66667
0.095646,0.59141,0.76517,0.13712,11.516,400.27,-0.27978,0.09326,-1.9351,-0.37304,-1.4441e-08,-0.96753,0,0,0.125,-1.8504e-16,0,0.66667
0.46018,0.46724,3.6814,-0.049146,-3.2772,169.26,0.48248,-0.16083,-1.9905,0.6433,-1.3896e-12,-0.99527,0,0,0.125,7.4015e-16,0,0.66667
0.29262,0.89562,2.3409,0.59343,46.174,269.44,-3.7045,1.2348,-0.74682,-4.9393,3.4868e-12,-0.37341,0,0,0.125,-0,-0,0.66667
0.51342,0.20598,4.1073,-0.44103,-27.546,141.29,4.8306,-1.6102,-1.3088,6.4408,1.6711e-12,-0.65442,0,0,0.125,-1.2001e-15,0,0.66667
0.13575,0.89206,1.086,0.58809,49.127,372.97,-1.703,0.56768,-0.76876,-2.2707,-1.3937e-08,-0.38438,0,0,0.125,-1.4803e-16,0,0.66667
0.446,0.69126,3.568,0.28688,19.468,177.24,-2.7296,0.90987,-1.7061,-3.6395,-2.1452e-12,-0.85304,0,0,0.125,-0,-0,0.66667
0.51639,0.36523,4.1311,-0.20216,-12.542,139.48,2.2271,-0.74236,-1.8569,2.9694,5.0715e-13,-0.92843,0,0,0.125,-0,-0,0.66667
0.34421,0.82876,2.7537,0.49314,36.932,237.14,-3.6212,1.2071,-1.1377,-4.8282,7.3674e-13,-0.56883,0,0,0.125,-5.9212e-16,0,0.66667
0.55465,0.76869,4.4372,0.40304,23.645,120.66,-4.769,1.5897,-1.4202,-6.3587,-2.9132e-13,-0.71009,0,0,0.125,-0,-0,0.66667
0.71429,0.66933,5.7143,0.25399,10.484,53.821,-3.8703,1.2901,-1.7693,-5.1604,-1.0565e-11,-0.88466,0,0,0.125,-0,-0,0.66667
0.66388,0.75389,5.311,0.38083,18.01,72.636,-5.3937,1.7979,-1.483,-7.1915,-2.792e-12,-0.74149,0,0,0.125,-0,-0,0.66667
0.35567,0.59937,2.8454,0.14906,11.027,229.87,-1.131,0.37701,-1.9208,-1.508,-6.7901e-13,-0.96042,0,0,0.125,-0,-0,0.66667
0.076579,0.96099,0.61263,0.69149,58.601,413.53,-1.1297,0.37656,-0.30136,-1.5062,-2.0606e-06,-0.15068,0,0,0.125,7.4015e-17,0,0.66667
0.83367,0.51761,6.6694,0.026408,0.6719,19.726,-0.46966,0.15655,-1.9957,-0.62621,3.6582e-10,-0.99784,0,0,0.125,2.3685e-15,0,0.66667
0.92624,0.11474,7.41,-0.57789,-6.869,5.558,11.419,-3.8064,-0.8115,15.225,-9.3571e-08,-0.40575,0,0,0.125,1.1842e-15,0,0.66667
0.23416,0.23332,1.8733,-0.40003,-32.097,306.99,1.9983,-0.66611,-1.4337,2.6644,-4.8652e-12,-0.71683,0,0,0.125,-0,-0,0.66667
0.0015237,0.90798,0.01219,0.61196,52.101,465.39,-0.019888,0.0066343,-0.67089,-0.026514,7.7617e-06,-0.33544,0,0,0.125,-4.6259e-18,0,0.66667
0.47964,0.20775,3.8371,-0.43837,-28.633,159.01,4.4855,-1.4952,-1.3154,5.9807,6.4659e-13,-0.6577,0,0,0.125,-5.9212e-16,0,0.66667
0.61534,0.84279,4.9227,0.51418,27.104,92.995,-6.7498,2.2499,-1.0595,-8.9998,-2.268e-12,-0.52973,0,0,0.125,1.4803e-15,0,0.66667
0.65285,0.19172,5.2228,-0.46241,-22.474,77.182,6.4402,-2.1467,-1.24,8.587,-5.782e-13,-0.61999,0,0,0.125,2.3685e-15,0,0.66667
0.60356,0.52104,4.8285,0.031566,1.694,97.608,-0.40644,0.13548,-1.9947,-0.54192,-8.9145e-13,-0.99735,0,0,0.125,-0,-0,0.66667
0.67867,0.19472,5.4293,-0.45792,-20.91,67.087,6.6298,-2.2099,-1.2527,8.8397,2.8546e-12,-0.62636,0,0,0.125,-0,-0,0.66667
0.73325,0.6589,5.866,0.23835,9.2789,47.429,-3.7284,1.2428,-1.8007,-4.9712,-1.3297e-11,-0.90034,0,0,0.125,-2.3685e-15,0,0.66667
0.84341,0.81726,6.7473,0.47589,11.556,18.319,-8.5626,2.8542,-1.1981,-11.417,2.2301e-09,-0.59903,0,0,0.125,-2.3685e-15,0,0.66667
0.57512,0.82441,4.601,0.48662,27.626,111.08,-5.9705,1.9902,-1.1578,-7.9606,6.6702e-13,-0.57891,0,0,0.125,1.1842e-15,0,0.66667
0.033325,0.7909,0.2666,0.43635,37.025,443.35,-0.31022,0.10341,-1.3238,-0.41362,3.199e-07,-0.66189,0,0,0.125,-0,-0,0.66667
0.93264,0.028532,7.4611,-0.7072,-7.8109,5.4502,14.071,-4.6902,-0.22135,18.761,-8.5946e-07,-0.11067,0,0,0.125,-0,1.7042e-16,0.66667
0.41723,0.58885,3.3378,0.13327,9.3173,193.44,-1.1862,0.3954,-1.9362,-1.5816,7.2464e-13,-0.9681,0,0,0.125,-0,-0,0.66667
0.46721,0.33871,3.7377,-0.24194,-16.013,165.51,2.4115,-0.80382,-1.7937,3.2153,-7.1099e-13,-0.89685,0,0,0.125,-0,-0,0.66667
0.61906,0.97474,4.9525,0.7121,37.437,91.918,-9.4045,3.1348,-0.19565,-12.539,-1.8856e-12,-0.097824,0,0,0.125,-0,-0,0.66667
0.27646,0.49105,2.2117,-0.013427,-1.0504,279.39,0.079191,-0.026397,-1.9981,0.10559,-9.877e-12,-0.99907,0,0,0.125,2.9606e-16,0,0.66667
0.90942,0.73548,7.2754,0.35323,5.0527,6.8617,-6.8529,2.2843,-1.5559,-9.1373,2.8161e-08,-0.77796,0,0,0.125,1.1842e-15,0,0.66667
0.6579,0.68892,5.2632,0.28338,13.573,74.847,-3.9773,1.3258,-1.7168,-5.3031,-3.3642e-12,-0.85841,0,0,0.125,-0,-0,0.66667
0.13349,0.75606,1.0679,0.38408,32.026,374.41,-1.0938,0.3646,-1.4739,-1.4584,-6.3102e-09,-0.73693,0,0,0.125,-0,-0,0.66667
0.37351,0.26203,2.9881,-0.35696,-26.05,219.25,2.8443,-0.94811,-1.5482,3.7925,3.5127e-13,-0.77408,0,0,0.125,-5.9212e-16,0,0.66667
0.21324,0.5171,1.7059,0.025649,2.0743,320.66,-0.11668,0.038894,-1.9958,-0.15558,-6.9798e-12,-0.99791,0,0,0.125,-5.0506e-16,0,0.66667
0.44333,0.22543,3.5466,-0.41186,-28.07,178.87,3.8952,-1.2984,-1.3955,5.1936,-6.2417e-13,-0.69773,0,0,0.125,1.1842e-15,0,0.66667
0.20627,0.73535,1.6502,0.35302,28.683,325.38,-1.5535,0.51782,-1.5564,-2.0713,-1.4004e-10,-0.77822,0,0,0.125,-0,-0,0.66667
0.097915,0.20319,0.78332,-0.44521,-37.459,398.77,0.92998,-0.30999,-1.2941,1.24,2.525e-08,-0.64703,0,0,0.125,-0,-0,0.66667
0.32046,0.4094,2.5637,-0.13589,-10.329,251.55,0.92904,-0.30968,-1.9331,1.2387,-3.1915e-12,-0.96656,0,0,0.125,-1.1842e-15,0,0.66667
0.13448,0.34687,1.0759,-0.22969,-19.125,373.69,0.65899,-0.21966,-1.8114,0.87865,5.2561e-09,-0.90572,0,0,0.125,-0,-0,0.66667
0.035025,0.019489,0.2802,-0.72077,-61.398,442.21,0.53856,-0.17952,-0.15208,0.71808,2.8227e-06,-0.076038,0,0,0.125,-0,-0,0.66667
0.49839,0.64258,3.9871,0.21388,13.603,148.81,-2.274,0.758,-1.8384,-3.032,-8.6819e-14,-0.91918,0,0,0.125,5.9212e-16,0,0.66667
0.60463,0.69489,4.8371,0.29233,15.681,97.312,-3.7707,1.2569,-1.6951,-5.0276,-9.1616e-13,-0.84756,0,0,0.125,-0,-0,0.66667
0.19647,0.84492,1.5718,0.51738,42.288,332.01,-2.1685,0.72285,-1.0475,-2.8914,-4.744e-10,-0.52375,0,0,0.125,-5.9212e-16,0,0.66667
0.35053,0.25142,2.8042,-0.37287,-27.745,233.15,2.7883,-0.92943,-1.5049,3.7177,-1.5099e-12,-0.75243,0,0,0.125,-1.1842e-15,0,0.66667
0.45356,0.39422,3.6285,-0.15867,-10.666,172.94,1.5353,-0.51175,-1.9129,2.047,1.6198e-13,-0.95646,0,0,0.125,-5.9212e-16,0,0.66667
0.25284,0.94633,2.0227,0.66949,53.399,295.06,-3.6112,1.2037,-0.40646,-4.8149,7.9032e-12,-0.20323,0,0,0.125,-0,-0,0.66667
0.33803,0.19921,2.7042,-0.45119,-33.934,240.89,3.2537,-1.0846,-1.2744,4.3382,-6.0196e-13,-0.63718,0,0,0.125,-5.9212e-16,0,0.66667
0.26085,0.77415,2.0868,0.41122,32.536,289.61,-2.2883,0.76278,-1.3977,-3.0511,9.5062e-12,-0.69887,0,0,0.125,-4.4409e-16,0,0.66667
0.66262,0.034337,5.3009,-0.69849,-33.381,73.941,9.8738,-3.2913,-0.26423,13.165,1.9202e-12,-0.13212,0,0,0.125,-2.3685e-15,0,0.66667
0.38944,0.52973,3.1155,0.04459,3.202,209.62,-0.37045,0.12348,-1.9958,-0.49394,-3.6882e-12,-0.99788,0,0,0.125,-0,-0,0.66667
0.46579,0.52334,3.7263,0.035004,2.3186,166.19,-0.34783,0.11594,-1.9958,-0.46377,1.7e-13,-0.99788,0,0,0.125,-0,-0,0.66667
0.25898,0.74408,2.0718,0.36611,28.984,290.79,-2.0227,0.67424,-1.5219,-2.6969,1.5851e-11,-0.76094,0,0,0.125,3.0137e-16,0,0.66667
0.57889,0.11708,4.6312,-0.57438,-32.45,109.52,7.0935,-2.3645,-0.82931,9.458,-6.9056e-13,-0.41466,0,0,0.125,-0,-0,0.66667
0.41565,0.79434,3.3252,0.44151,30.998,194.61,-3.915,1.305,-1.3049,-5.22,1.2499e-12,-0.65243,0,0,0.125,-5.9212e-16,0,0.66667
0.45718,0.89451,3.6575,0.59177,39.812,171.47,-5.7716,1.9239,-0.75389,-7.6955,-1.6636e-12,-0.37694,0,0,0.125,5.9212e-16,0,0.66667
0.20956,0.98251,1.6765,0.72377,59.02,323.49,-3.2358,1.0786,-0.13533,-4.3143,-6.2053e-11,-0.067663,0,0,0.125,4.9635e-16,0,0.66667
0.51169,0.50405,4.0935,0.006078,0.37931,141.82,-0.066348,0.022116,-1.9998,-0.088464,3.7674e-13,-0.99989,0,0,0.125,-0,-0,0.66667
0.42103,0.47639,3.3683,-0.035419,-2.466,191.23,0.31814,-0.10605,-1.9978,0.42418,-5.8842e-14,-0.99891,0,0,0.125,-0,-0,0.66667
0.53816,0.18836,4.3053,-0.46746,-28.17,128.84,5.3669,-1.789,-1.2223,7.1558,-1.5699e-12,-0.61116,0,0,0.125,2.3685e-15,0,0.66667
0.51553,0.88346,4.1242,0.5752,35.9,140.45,-6.326,2.1087,-0.82678,-8.4346,8.8818e-14,-0.41339,0,0,0.125,-0,-0,0.66667
0.71232,0.1739,5.6985,-0.48915,-20.398,54.947,7.4332,-2.4777,-1.1471,9.9109,6.0845e-12,-0.57357,0,0,0.125,3.4069e-16,0,0.66667
0.34543,0.73174,2.7634,0.34762,25.965,236.24,-2.5617,0.85388,-1.5713,-3.4155,1.4904e-12,-0.78565,0,0,0.125,-0,-0,0.66667
0.22924,0.70296,1.8339,0.30444,24.466,310.17,-1.4889,0.49629,-1.6688,-1.9852,-1.6505e-11,-0.83438,0,0,0.125,-2.9606e-16,0,0.66667
0.91895,0.74021,7.3516,0.36031,4.6206,5.7066,-7.0636,2.3545,-1.5384,-9.4182,3.898e-08,-0.76918,0,0,0.125,-0,-0,0.66667
0.39408,0.018967,3.1527,-0.72155,-51.979,207.61,6.0662,-2.0221,-0.14825,8.0882,-3.1708e-13,-0.074124,0,0,0.125,1.1842e-15,0,0.66667
0.81515,0.54034,6.5212,0.060503,1.6973,23.996,-1.0521,0.35071,-1.9873,-1.4028,3.5189e-10,-0.99363,0,0,0.125,-2.3685e-15,0,0.66667
0.88049,0.10059,7.0439,-0.59911,-11.363,11.84,11.254,-3.7512,-0.72248,15.005,3.3417e-08,-0.36124,0,0,0.125,-0,-0,0.66667
0.65189,0.73021,5.2151,0.34532,16.786,77.347,-4.8023,1.6008,-1.5749,-6.4031,-3.4737e-12,-0.78743,0,0,0.125,-0,-0,0.66667
0.76748,0.18938,6.1398,-0.46592,-16.173,37.277,7.6285,-2.5428,-1.2302,10.171,5.7149e-11,-0.61509,0,0,0.125,-0,-0,0.66667
0.89753,0.70632,7.1803,0.30949,4.9851,8.3897,-5.9259,1.9753,-1.6573,-7.9011,2.0615e-08,-0.82864,0,0,0.125,-0,-0,0.66667
0.49849,0.80594,3.9879,0.45891,29.262,149.06,-4.8802,1.6267,-1.2529,-6.5069,-9.7522e-13,-0.62643,0,0,0.125,-0,-0,0.66667
0.42176,0.59375,3.3741,0.14062,9.7862,190.85,-1.2653,0.42175,-1.9341,-1.687,2.6679e-13,-0.96707,0,0,0.125,-2.0217e-16,0,0.66667
0.72854,0.76544,5.8283,0.39816,15.776,49.24,-6.1883,2.0628,-1.4344,-8.2511,-1.4167e-11,-0.71718,0,0,0.125,-1.1842e-15,0,0.66667
0.57844,0.42862,4.6276,-0.10707,-6.0182,109.07,1.3212,-0.44041,-1.962,1.7616,-4.2222e-13,-0.98102,0,0,0.125,-0,-0,0.66667
0.070112,0.92544,0.5609,0.63816,54.086,417.97,-0.95452,0.31817,-0.54979,-1.2727,1.7777e-07,-0.2749,0,0,0.125,-0,-0,0.66667
0.80706,0.25358,6.4565,-0.36963,-10.834,26.357,6.3641,-2.1214,-1.5134,8.4854,-2.9476e-10,-0.7567,0,0,0.125,-0,-0,0.66667
0.20204,0.24198,1.6164,-0.38703,-31.512,328.21,1.6682,-0.55607,-1.4694,2.2243,1.5078e-10,-0.73469,0,0,0.125,-0,-0,0.66667
0.21501,0.11833,1.7201,-0.57251,-46.456,319.74,2.626,-0.87534,-0.83428,3.5013,2.4619e-10,-0.41714,0,0,0.125,-2.9606e-16,0,0.66667
0.87429,0.12618,6.9943,-0.56072,-11.13,12.738,10.458,-3.4861,-0.88555,13.944,-1.0886e-08,-0.44278,0,0,0.125,2.3685e-15,-2.1806e-17,0.66667
0.81023,0.13172,6.4819,-0.55242,-16.046,26.059,9.5485,-3.1828,-0.91584,12.731,-2.6616e-10,-0.45792,0,0,0.125,-0,-0,0.66667
0.78716,0.30499,6.2972,-0.29251,-9.3502,31.384,4.9121,-1.6374,-1.6942,6.5494,-7.7745e-11,-0.84712,0,0,0.125,-5.9212e-16,0,0.66667
0.97848,0.71176,7.8278,0.31764,1.0022,0.90893,-6.6304,2.2101,-1.6398,-8.8405,-2.2571e-07,-0.8199,0,0,0.125,-0,-0,0.66667
0.93575,0.91383,7.486,0.62074,6.4742,4.7683,-12.392,4.1305,-0.63127,-16.522,-1.4584e-07,-0.31564,0,0,0.125,-0,-0,0.66667
0.12932,0.10887,1.0345,-0.5867,-49.095,377.35,1.6185,-0.53951,-0.77488,2.1581,9.5537e-09,-0.38744,0,0,0.125,-2.9606e-16,0,0.66667
0.46825,0.41579,3.746,-0.12631,-8.3438,164.87,1.2618,-0.42059,-1.9458,1.6824,1.4029e-12,-0.97289,0,0,0.125,-0,-0,0.66667
0.30416,0.10865,2.4333,-0.58702,-45.326,262.13,3.8091,-1.2697,-0.77248,5.0788,-1.271e-12,-0.38624,0,0,0.125,-0,-0,0.66667
0.89049,0.0028373,7.1239,-0.74574,-13.17,10.89,14.167,-4.7223,-0.026499,18.889,-1.9672e-08,-0.01325,0,0,0.125,-0,-0,0.66667
0.13731,0.18525,1.0985,-0.47213,-39.362,371.85,1.383,-0.46101,-1.2081,1.844,2.5187e-09,-0.60406,0,0,0.125,-3.7007e-17,0,0.66667
0.047972,0.52968,0.38378,0.04452,3.7644,433.18,-0.045562,0.015188,-1.9959,-0.060749,2.9271e-07,-0.99794,0,0,0.125,-3.7007e-17,0,0.66667
0.97746,0.31795,7.8197,-0.27307,-0.90043,0.85882,5.6943,-1.8981,-1.7334,7.5924,1.4973e-07,-0.86668,0,0,0.125,-0,-0,0.66667
0.56486,0.76435,4.5189,0.39653,22.874,115.76,-4.7783,1.5928,-1.4412,-6.3711,-1.0392e-13,-0.72059,0,0,0.125,-0,-0,0.66667
0.28488,0.94533,2.2791,0.668,52.296,274.45,-4.0598,1.3533,-0.41304,-5.413,3.8454e-12,-0.20652,0,0,0.125,-0,-0,0.66667
0.33181,0.20233,2.6544,-0.44651,-33.739,244.72,3.1606,-1.0535,-1.2903,4.2141,-2.6463e-12,-0.64515,0,0,0.125,5.9212e-16,0,0.66667
0.13838,0.077767,1.1071,-0.63335,-52.905,371.21,1.8698,-0.62325,-0.5741,2.493,-1.7107e-08,-0.28705,0,0,0.125,2.9606e-16,-1.4795e-16,0.66667
0.99127,0.13503,7.9301,-0.54745,-0.66321,1.2072,11.577,-3.859,-0.93237,15.436,-2.0299e-06,-0.46619,0,0,0.125,-0,-0,0.66667
0.87071,0.91708,6.9657,0.62562,12.801,13.596,-11.621,3.8737,-0.60727,-15.495,-2.879e-09,-0.30364,0,0,0.125,2.3685e-15,0,0.66667
0.24165,0.65454,1.9332,0.23181,18.504,302,-1.195,0.39834,-1.808,-1.5934,1.4752e-12,-0.904,0,0,0.125,4.4409e-16,0,0.66667
0.33244,0.2656,2.6595,-0.3516,-26.527,244.24,2.4936,-0.83119,-1.5592,3.3248,-1.6043e-12,-0.77959,0,0,0.125,5.9212e-16,0,0.66667
0.16541,0.25694,1.3233,-0.36459,-30.098,352.75,1.2866,-0.42886,-1.5257,1.7155,1.3946e-09,-0.76287,0,0,0.125,-0,-0,0.66667
0.51303,0.97731,4.1043,0.71596,44.978,142.06,-7.836,2.612,-0.17778,-10.448,1.9993e-12,-0.088888,0,0,0.125,-0,-0,0.66667
0.97972,0.097678,7.8377,-0.60348,-1.9436,1.7774,12.613,-4.2044,-0.70459,16.818,4.8574e-06,-0.35229,0,0,0.125,-0,-0,0.66667
0.59628,0.15725,4.7702,-0.51412,-28.114,101.43,6.5399,-2.18,-1.0618,8.7199,-8.0203e-13,-0.53088,0,0,0.125,2.3685e-15,0,0.66667
0.66446,0.059258,5.3157,-0.66111,-31.421,73.098,9.3714,-3.1238,-0.44475,12.495,-4.9027e-13,-0.22238,0,0,0.125,1.4803e-15,0,0.66667
0.67117,0.20017,5.3694,-0.44975,-20.922,69.933,6.4396,-2.1465,-1.2829,8.5862,1.7026e-12,-0.64144,0,0,0.125,-0,-0,0.66667
0.19112,0.94306,1.5289,0.66458,54.556,335.7,-2.7096,0.90321,-0.42952,-3.6128,-2.3642e-10,-0.21476,0,0,0.125,5.9212e-16,0,0.66667
0.24088,0.36424,1.9271,-0.20364,-16.259,302.49,1.0465,-0.34882,-1.8506,1.3953,-7.3013e-12,-0.92528,0,0,0.125,-2.9606e-16,0,0.66667
0.50091,0.16016,4.0073,-0.50976,-32.425,147.87,5.4474,-1.8158,-1.0788,7.2632,2.5282e-12,-0.53939,0,0,0.125,-0,-0,0.66667
0.46695,0.04271,3.7356,-0.68593,-45.705,166.33,6.8329,-2.2776,-0.32798,9.1106,-2.641e-12,-0.16399,0,0,0.125,1.1842e-15,-1.3751e-16,0.66667
0.32409,0.63384,2.5928,0.20076,15.224,249.32,-1.3881,0.46269,-1.8559,-1.8508,-1.4904e-12,-0.92796,0,0,0.125,-0,-0,0.66667
0.72003,0.15895,5.7603,-0.51157,-20.862,52.358,7.8581,-2.6194,-1.072,10.478,1.6993e-11,-0.53599,0,0,0.125,-0,-0,0.66667
0.27597,0.20702,2.2077,-0.43946,-34.477,279.9,2.5873,-0.86242,-1.3117,3.4497,-1.1508e-11,-0.65583,0,0,0.125,2.9606e-16,0,0.66667
0.89558,0.50801,7.1647,0.012018,0.19597,8.3675,-0.22962,0.076539,-1.9983,-0.30615,4.3419e-08,-0.99914,0,0,0.125,-4.737e-15,0,0.66667
0.12274,0.80724,0.98194,0.46085,38.566,381.77,-1.2067,0.40225,-1.2459,-1.609,-9.6498e-09,-0.62296,0,0,0.125,-1.4803e-16,0,0.66667
0.92163,0.81815,7.3731,0.47722,5.9668,5.7174,-9.3828,3.1276,-1.1935,-12.51,5.5729e-08,-0.59677,0,0,0.125,-0,-0,0.66667
0.10352,0.98292,0.82813,0.72438,61.123,395.05,-1.5997,0.53323,-0.13234,-2.1329,-1.9287e-07,-0.066171,0,0,0.125,9.7147e-17,0,0.66667
0.19298,0.15219,1.5439,-0.52172,-42.705,334.34,2.1479,-0.71596,-1.0313,2.8638,2.2445e-10,-0.51566,0,0,0.125,4.4409e-16,0,0.66667
0.45235,0.78545,3.6188,0.42817,28.893,173.87,-4.1319,1.3773,-1.351,-5.5092,-1.7999e-12,-0.67549,0,0,0.125,1.1842e-15,0,0.66667
0.88235,0.31956,7.0588,-0.27066,-4.9777,10.642,5.0948,-1.6983,-1.7377,6.7931,-1.1186e-08,-0.86887,0,0,0.125,-0,-0,0.66667
0.30753,0.56002,2.4602,0.090036,6.9047,259.65,-0.59069,0.1969,-1.9708,-0.78759,-2.1685e-12,-0.98539,0,0,0.125,2.2204e-16,0,0.66667
0.65742,0.57882,5.2594,0.11823,5.661,74.883,-1.6581,0.55271,-1.9518,-2.2109,-1.3207e-12,-0.97588,0,0,0.125,-1.1842e-15,0,0.66667
0.33893,0.81709,2.7115,0.47563,35.759,240.36,-3.4391,1.1464,-1.195,-4.5855,2.3328e-12,-0.59748,0,0,0.125,-1.1842e-15,0,0.66667
0.016138,0.50406,0.12911,0.0060839,0.51547,455.25,-0.0020942,0.00069267,-2.003,-0.002795,-8.1009e-06,-1.0015,0,0,0.125,-7.4015e-17,0,0.66667
0.62443,0.33254,4.9954,-0.25119,-12.947,88.634,3.3461,-1.1154,-1.778,4.4614,-1.2856e-12,-0.88899,0,0,0.125,5.9212e-16,0,0.66667
0.23807,0.99076,1.9046,0.73614,59.241,304.75,-3.7387,1.2462,-0.072682,-4.9849,3.3751e-13,-0.036341,0,0,0.125,2.9606e-16,0,0.66667
0.19454,0.27031,1.5563,-0.34453,-28.129,333.19,1.4298,-0.47661,-1.5758,1.9065,2.8915e-10,-0.78792,0,0,0.125,2.9606e-16,0,0.66667
0.80885,0.463,6.4708,-0.0555,-1.6053,25.529,0.95768,-0.31923,-1.9889,1.2769,-1.2211e-10,-0.99445,0,0,0.125,5.9212e-16,0,0.66667
0.61735,0.18407,4.9388,-0.47389,-24.861,92.037,6.2413,-2.0804,-1.2002,8.3217,1.803e-12,-0.60012,0,0,0.125,-1.4803e-15,0,0.66667
0.79544,0.85,6.3635,0.525,16.298,29.717,-8.9089,2.9696,-1.0218,-11.879,1.4389e-10,-0.51089,0,0,0.125,-0,-0,0.66667
0.26534,0.7397,2.1228,0.35954,28.359,286.67,-2.0353,0.67842,-1.5431,-2.7137,1.4606e-11,-0.77155,0,0,0.125,-2.9606e-16,0,0.66667
0.047177,0.7115,0.37742,0.31725,26.86,433.74,-0.31929,0.10643,-1.6451,-0.42572,7.5613e-08,-0.82257,0,0,0.125,-3.7007e-17,0,0.66667
0.85345,0.52958,6.8276,0.044363,1.0025,15.612,-0.80772,0.26924,-1.9924,-1.077,1.8028e-09,-0.99618,0,0,0.125,2.9606e-16,0,0.66667
0.76433,0.44983,6.1146,-0.07525,-2.6265,37.623,1.227,-0.409,-1.9813,1.636,-6.1953e-12,-0.99063,0,0,0.125,-1.1842e-15,0,0.66667
0.0045005,0.36677,0.036004,-0.19984,-16.944,463.32,0.019187,-0.0063955,-1.857,0.025582,9.1993e-08,-0.92851,0,0,0.125,4.6259e-18,0,0.66667
0.69985,0.38001,5.5988,-0.17998,-7.737,58.831,2.6871,-0.8957,-1.8851,3.5828,4.7851e-12,-0.94253,0,0,0.125,-0,-0,0.66667
0.24166,0.68772,1.9333,0.28158,22.484,302.01,-1.4517,0.48389,-1.7175,-1.9356,9.1056e-12,-0.85873,0,0,0.125,5.9212e-16,0,0.66667
0.35967,0.78951,2.8774,0.43426,32.095,227.66,-3.3321,1.1107,-1.3324,-4.4428,-8.7486e-13,-0.66618,0,0,0.125,-0,-0,0.66667
0.78074,0.57833,6.2459,0.1175,3.8478,32.943,-1.957,0.65233,-1.9532,-2.6093,3.9781e-11,-0.97658,0,0,0.125,-0,-0,0.66667
0.98652,0.59454,7.8921,0.14181,0.24436,0.34687,-2.9845,0.99483,-1.9305,-3.9793,-1.6789e-07,-0.96524,0,0,0.125,-0,-0,0.66667
0.24556,0.09409,1.9645,-0.60886,-48.702,299.72,3.1896,-1.0632,-0.6822,4.2529,-8.8062e-11,-0.3411,0,0,0.125,-0,-0,0.66667
0.4675,0.46054,3.74,-0.059187,-3.9125,165.26,0.5903,-0.19677,-1.9893,0.78706,2.8866e-15,-0.99465,0,0,0.125,-2.9606e-16,0,0.66667
0.40034,0.24305,3.2027,-0.38542,-27.453,203.42,3.2917,-1.0972,-1.4704,4.3889,1.7608e-13,-0.73518,0,0,0.125,-2.9606e-16,0,0.66667
0.55826,0.97012,4.4661,0.70518,41.374,119.59,-8.3984,2.7995,-0.2321,-11.198,1.374e-12,-0.11605,0,0,0.125,-0,1.6016e-16,0.66667
0.52926,0.33967,4.2341,-0.2405,-14.648,132.98,2.7155,-0.90515,-1.7959,3.6206,-1.4719e-12,-0.89794,0,0,0.125,8.8818e-16,0,0.66667
0.65803,0.67544,5.2642,0.26316,12.598,74.772,-3.6942,1.2314,-1.7547,-4.9257,-2.5842e-12,-0.87733,0,0,0.125,-1.1842e-15,0,0.66667
0.49673,0.93022,3.9738,0.64534,41.383,150.34,-6.8386,2.2795,-0.5192,-9.1181,7.8204e-13,-0.2596,0,0,0.125,-8.8818e-16,0,0.66667
0.68538,0.31345,5.4831,-0.27982,-12.521,64.242,4.0914,-1.3638,-1.7236,5.4552,4.293e-12,-0.86179,0,0,0.125,-0,-0,0.66667
0.31286,0.26721,2.5029,-0.34919,-26.722,256.43,2.3306,-0.77687,-1.5689,3.1075,-1.6562e-12,-0.78445,0,0,0.125,-5.9212e-16,0,0.66667
0.21438,0.67299,1.715,0.25948,20.992,319.96,-1.1867,0.39557,-1.7593,-1.5823,-8.8072e-11,-0.87966,0,0,0.125,-2.9606e-16,0,0.66667
0.90718,0.53264,7.2574,0.048955,0.7111,6.7596,-0.94743,0.31581,-1.9946,-1.2632,5.2949e-08,-0.99732,0,0,0.125,-2.3685e-15,0,0.66667
0.5576,0.59978,4.4608,0.14967,8.7169,118.96,-1.7804,0.59347,-1.9194,-2.3739,-9.871e-13,-0.95971,0,0,0.125,-0,-0,0.66667
0.029017,0.013314,0.23214,-0.73003,-62.221,446.37,0.45192,-0.15064,-0.10545,0.60255,-7.4592e-06,-0.052723,0,0,0.125,-1.4803e-16,0,0.66667
0.12197,0.56446,0.97573,0.096696,8.0732,382.22,-0.2516,0.083866,-1.9677,-0.33546,3.8052e-09,-0.98385,0,0,0.125,-0,-0,0.66667
0.6814,0.32724,5.4512,-0.25913,-11.713,65.71,3.7669,-1.2556,-1.7592,5.0225,3.7057e-12,-0.8796,0,0,0.125,-0,-0,0.66667
0.80871,0.53475,6.4697,0.052121,1.5086,25.563,-0.89921,0.29974,-1.9904,-1.199,1.1454e-10,-0.99522,0,0,0.125,2.3685e-15,0,0.66667
0.82348,0.99343,6.5878,0.74015,20.318,23.624,-13.003,4.3342,-0.051333,-17.337,1.4814e-10,-0.025666,0,0,0.125,3.5527e-15,0,0.66667
0.4331,0.96494,3.4648,0.69741,48.294,185.11,-6.4436,2.1479,-0.27032,-8.5915,1.6507e-12,-0.13516,0,0,0.125,4.2428e-16,0,0.66667
0.58043,0.8931,4.6434,0.58965,33.234,108.84,-7.3014,2.4338,-0.76409,-9.7352,7.1987e-13,-0.38204,0,0,0.125,-5.9212e-16,0,0.66667
0.80756,0.54538,6.4605,0.068067,1.981,25.853,-1.1727,0.39089,-1.9819,-1.5636,1.1649e-10,-0.99097,0,0,0.125,1.1842e-15,0,0.66667
0.95758,0.17055,7.6607,-0.49418,-3.3384,2.523,10.095,-3.3651,-1.1304,13.46,-3.9217e-07,-0.56518,0,0,0.125,-0,-0,0.66667
0.87975,0.007039,7.038,-0.73944,-14.251,12.549,13.878,-4.6259,-0.054926,18.504,1.8126e-08,-0.027463,0,0,0.125,-0,-0,0.66667
0.38851,0.84028,3.1081,0.51042,36.821,210.52,-4.2305,1.4102,-1.0752,-5.6406,1.2212e-12,-0.53759,0,0,0.125,7.4015e-16,0,0.66667
0.96148,0.032333,7.6919,-0.7015,-4.4712,3.1185,14.389,-4.7963,-0.2495,19.185,-1.7499e-05,-0.12475,0,0,0.125,-0,-0,0.66667
0.13705,0.30939,1.0964,-0.28591,-23.797,371.96,0.83591,-0.27864,-1.7097,1.1145,5.8864e-09,-0.85484,0,0,0.125,-2.2204e-16,0,0.66667
0.90874,0.8535,7.2699,0.53024,7.7271,7.4554,-10.28,3.4265,-1.0007,-13.706,1.2072e-08,-0.50034,0,0,0.125,-0,-0,0.66667
0.52131,0.26241,4.1705,-0.35639,-21.986,137.13,3.9635,-1.3212,-1.5465,5.2847,2.5024e-13,-0.77327,0,0,0.125,-0,-0,0.66667
0.71489,0.51258,5.7191,0.018864,0.77606,53.451,-0.2877,0.095899,-1.9978,-0.38359,-1.304e-12,-0.99891,0,0,0.125,-0,-0,0.66667
0.78467,0.85618,6.2774,0.53426,17.367,32.618,-8.9434,2.9811,-0.98452,-11.925,5.1942e-11,-0.49226,0,0,0.125,-0,-0,0.66667
0.33468,0.95295,2.6774,0.67943,51.413,243.26,-4.851,1.617,-0.35649,-6.468,-3.9968e-13,-0.17824,0,0,0.125,-5.9212e-16,0,0.66667
0.87769,0.17375,7.0215,-0.48937,-9.427,11.93,9.163,-3.0543,-1.1485,12.217,-3.603e-09,-0.57423,0,0,0.125,-1.1842e-15,0,0.66667
0.25801,0.39871,2.0641,-0.15194,-12.018,291.31,0.83633,-0.27878,-1.9161,1.1151,-1.5218e-11,-0.95803,0,0,0.125,-1.4329e-16,0,0.66667
0.083575,0.99267,0.6686,0.73901,62.609,408.74,-1.3176,0.4392,-0.056856,-1.7568,1.9308e-09,-0.028428,0,0,0.125,-1.4803e-16,0,0.66667
0.75937,0.67058,6.075,0.25587,9.1117,39.261,-4.145,1.3817,-1.7651,-5.5267,-5.5862e-12,-0.88257,0,0,0.125,1.1842e-15,0,0.66667
0.89508,0.6414,7.1607,0.2121,3.4847,8.584,-4.05,1.35,-1.8387,-5.4,1.5055e-08,-0.91936,0,0,0.125,1.1842e-15,0,0.66667
0.92645,0.20862,7.4116,-0.43707,-5.1163,5.0654,8.6383,-2.8794,-1.3196,11.518,-8.1374e-08,-0.65979,0,0,0.125,-1.1842e-15,0,0.66667
0.37407,0.017349,2.9926,-0.72398,-53.106,219.45,5.7775,-1.9258,-0.13815,7.7033,1.3869e-12,-0.069073,0,0,0.125,-1.1842e-15,-1.4623e-16,0.66667
0.34146,0.90198,2.7317,0.60297,45.329,238.97,-4.3923,1.4641,-0.70851,-5.8564,2.5415e-12,-0.35426,0,0,0.125,-0,7.2659e-17,0.66667
0.25569,0.40847,2.0455,-0.13729,-10.872,292.82,0.74886,-0.24962,-1.9323,0.99848,-1.571e-11,-0.96616,0,0,0.125,5.9212e-16,0,0.66667
0.47079,0.10481,3.7663,-0.59278,-39.242,164.05,5.9536,-1.9845,-0.7513,7.9382,-1.2008e-12,-0.37565,0,0,0.125,-0,-0,0.66667
0.96717,0.76345,7.7374,0.39517,2.011,1.6366,-8.1536,2.7179,-1.4458,-10.872,-2.993e-07,-0.7229,0,0,0.125,-0,-0,0.66667
0.49887,0.13493,3.9909,-0.5476,-34.95,149.01,5.8278,-1.9426,-0.93553,7.7705,8.713e-13,-0.46777,0,0,0.125,-0,-0,0.66667
0.23907,0.0486,1.9126,-0.6771,-54.404,304.03,3.4534,-1.1511,-0.36845,4.6045,3.0209e-12,-0.18422,0,0,0.125,-0,-0,0.66667
0.20791,0.67548,1.6633,0.26322,21.356,324.25,-1.1675,0.38917,-1.7522,-1.5567,-1.4164e-10,-0.87611,0,0,0.125,2.9606e-16,0,0.66667
0.92671,0.2321,7.4137,-0.40186,-4.6752,4.9401,7.9446,-2.6482,-1.4243,10.593,-7.1684e-08,-0.71215,0,0,0.125,-0,-0,0.66667
0.68793,0.44692,5.5035,-0.079618,-3.5329,63.118,1.1685,-0.38949,-1.9801,1.558,1.4541e-12,-0.99004,0,0,0.125,-0,-0,0.66667
0.70478,0.51191,5.6383,0.017863,0.75675,56.989,-0.26858,0.089526,-1.9999,-0.35811,-2.1372e-14,-0.99994,0,0,0.125,-2.3685e-15,0,0.66667
0.5889,0.30196,4.7112,-0.29706,-16.412,104.41,3.7319,-1.244,-1.6849,4.9759,-8.0536e-13,-0.84244,0,0,0.125,-0,-0,0.66667
0.61873,0.89418,4.9498,0.59128,31.01,91.717,-7.8046,2.6015,-0.75493,-10.406,-8.4643e-13,-0.37747,0,0,0.125,-0,-0,0.66667
0.045998,0.26669,0.36798,-0.34996,-29.64,434.56,0.34341,-0.11447,-1.5664,0.45788,-6.6946e-08,-0.78318,0,0,0.125,-0,-0,0.66667
0.35616,0.15751,2.8493,-0.51374,-38.119,229.88,3.9034,-1.3011,-1.0625,5.2046,1.7986e-13,-0.53127,0,0,0.125,-0,-0,0.66667
0.079759,0.31915,0.63807,-0.27128,-22.864,411.23,0.46158,-0.15386,-1.7399,0.61544,2.4659e-08,-0.86993,0,0,0.125,-0,-0,0.66667
0.32577,0.26516,2.6062,-0.35227,-26.71,248.37,2.4482,-0.81606,-1.559,3.2642,-6.8145e-13,-0.77951,0,0,0.125,-0,-0,0.66667
0.71057,0.86564,5.6845,0.54846,23.022,55.71,-8.314,2.7713,-0.92844,-11.085,-7.514e-12,-0.46422,0,0,0.125,-0,-0,0.66667
0.072478,0.94864,0.57982,0.67296,57.048,416.35,-1.0405,0.34684,-0.388,-1.3874,-1.0417e-06,-0.194,0,0,0.125,-0,-0,0.66667
0.89901,0.46539,7.1921,-0.051917,-0.81951,7.8815,0.99571,-0.3319,-1.9892,1.3276,1.6143e-08,-0.9946,0,0,0.125,1.1842e-15,0,0.66667
0.35431,0.52119,2.8345,0.031781,2.353,230.68,-0.24022,0.080073,-1.995,-0.32029,-3.5903e-12,-0.99748,0,0,0.125,-0,-0,0.66667
0.089774,0.16373,0.71819,-0.5044,-42.534,404.39,0.96602,-0.32201,-1.0948,1.288,-5.669e-09,-0.5474,0,0,0.125,-0,-0,0.66667
0.10048,0.3792,0.80381,-0.1812,-15.207,396.96,0.38841,-0.12947,-1.882,0.51787,1.466e-08,-0.94098,0,0,0.125,-2.9606e-16,0,0.66667
0.14697,0.39758,1.1758,-0.15364,-12.741,365.18,0.48172,-0.16057,-1.9143,0.64229,3.1516e-09,-0.95714,0,0,0.125,-1.4803e-16,0,0.66667
0.70481,0.67651,5.6384,0.26476,11.235,57.155,-3.9809,1.327,-1.7518,-5.3079,-8.6242e-12,-0.87591,0,0,0.125,-0,-0,0.66667
0.94314,0.62989,7.5451,0.19483,1.7309,2.9369,-3.9201,1.3067,-1.8639,-5.2268,-4.6746e-08,-0.93197,0,0,0.125,-0,-0,0.66667
0.76054,0.50738,6.0843,0.011072,0.39185,38.734,-0.17964,0.05988,-1.9984,-0.23952,-3.3109e-12,-0.99918,0,0,0.125,-0,-0,0.66667
0.39221,0.48698,3.1377,-0.019537,-1.3993,207.98,0.16347,-0.054489,-1.9997,0.21796,-3.1498e-12,-0.99985,0,0,0.125,-0,-0,0.66667
0.76781,0.75678,6.1425,0.38517,13.325,36.991,-6.309,2.103,-1.4735,-8.412,-8.5691e-12,-0.73673,0,0,0.125,-0,-0,0.66667
0.83593,0.072058,6.6874,-0.64191,-16.4,20.456,11.447,-3.8158,-0.53287,15.263,4.4482e-09,-0.26644,0,0,0.125,-0,-0,0.66667
0.061478,0.8206,0.49182,0.4809,40.716,423.88,-0.63071,0.21024,-1.1798,-0.84095,-9.1072e-08,-0.58988,0,0,0.125,-0,-0,0.66667
0.31055,0.99724,2.4844,0.74587,57.504,258.35,-4.9414,1.6471,-0.023767,-6.5885,1.4699e-12,-0.011883,0,0,0.125,-8.8818e-16,0,0.66667
0.74228,0.9939,5.9382,0.74086,28.377,45.817,-11.732,3.9105,-0.046806,-15.642,-1.2505e-11,-0.023403,0,0,0.125,-0,-0,0.66667
0.26043,0.072377,2.0834,-0.64143,-50.923,290.11,3.5637,-1.1879,-0.53562,4.7516,1e-11,-0.26781,0,0,0.125,-0,-0,0.66667
0.91053,0.052706,7.2842,-0.67094,-9.7086,7.7731,13.033,-4.3443,-0.39842,17.377,5.5114e-08,-0.19921,0,0,0.125,-0,-0,0.66667
0.24225,0.72889,1.938,0.34334,27.42,301.66,-1.7744,0.59146,-1.5788,-2.3658,7.7236e-12,-0.78939,0,0,0.125,-0,-0,0.66667
0.78725,0.76106,6.298,0.39159,12.54,31.549,-6.5766,2.1922,-1.4529,-8.7689,5.5013e-11,-0.72645,0,0,0.125,-0,-0,0.66667
0.39894,0.64504,3.1915,0.21756,15.494,204.09,-1.8516,0.6172,-1.8296,-2.4688,-3.0431e-13,-0.91478,0,0,0.125,5.9212e-16,0,0.66667
0.88796,0.10982,7.1037,-0.58527,-10.431,10.601,11.087,-3.6956,-0.78202,14.783,3.4105e-09,-0.39101,0,0,0.125,-0,-0,0.66667
0.28813,0.41267,2.305,-0.131,-10.176,271.94,0.8052,-0.2684,-1.9373,1.0736,-6.9361e-12,-0.96867,0,0,0.125,-0,-0,0.66667
0.57639,0.28541,4.6112,-0.32189,-18.189,110.22,3.9581,-1.3194,-1.6334,5.2775,-6.2794e-13,-0.81668,0,0,0.125,-0,-0,0.66667
0.015374,0.97498,0.12299,0.71246,60.742,455.8,-0.23367,0.077873,-0.19835,-0.31156,-2.4799e-05,-0.099176,0,0,0.125,-0,-0,0.66667
0.80519,0.4797,6.4415,-0.030446,-0.89593,26.437,0.52298,-0.17433,-1.9946,0.6973,-4.8245e-11,-0.99729,0,0,0.125,-0,-0,0.66667
0.033564,0.84901,0.26851,0.52351,44.466,443.19,-0.37485,0.12495,-1.0266,-0.49981,3.1195e-07,-0.51328,0,0,0.125,-0,-0,0.66667
0.64091,0.62328,5.1273,0.18493,9.197,81.638,-2.5284,0.84282,-1.8823,-3.3713,-1.5652e-12,-0.94115,0,0,0.125,1.4803e-16,0,0.66667
0.56365,0.89242,4.5092,0.58864,34.14,116.72,-7.0781,2.3594,-0.76953,-9.4374,7.6827e-13,-0.38477,0,0,0.125,-5.9212e-16,0,0.66667
0.92841,0.097254,7.4273,-0.60412,-6.993,5.4311,11.965,-3.9884,-0.70123,15.954,-3.4632e-07,-0.35061,0,0,0.125,-0,-0,0.66667
0.91911,0.48623,7.3529,-0.020661,-0.26164,5.2641,0.40512,-0.13504,-1.9984,0.54016,-1.4272e-08,-0.99919,0,0,0.125,9.5789e-17,0,0.66667
0.24888,0.1898,1.991,-0.4653,-37.079,297.42,2.4705,-0.82349,-1.233,3.2939,3.8032e-12,-0.61649,0,0,0.125,-0,-0,0.66667
0.26552,0.39479,2.1241,-0.15782,-12.43,286.46,0.89395,-0.29798,-1.9143,1.1919,-1.2e-11,-0.95716,0,0,0.125,-2.9606e-16,0,0.66667
0.65743,0.069376,5.2594,-0.64594,-31.199,75.825,9.0593,-3.0198,-0.51849,12.079,3.4284e-13,-0.25925,0,0,0.125,-0,-0,0.66667
0.28227,0.29315,2.2581,-0.31028,-24.218,275.76,1.8684,-0.62281,-1.6594,2.4912,-1.1174e-11,-0.82971,0,0,0.125,-0,-0,0.66667
0.17582,0.39995,1.4066,-0.15008,-12.327,345.67,0.56293,-0.18764,-1.9195,0.75058,7.2785e-10,-0.95975,0,0,0.125,1.4803e-16,0,0.66667
0.17263,0.92572,1.381,0.63858,52.766,348.06,-2.3517,0.78391,-0.55216,-3.1357,7.186e-10,-0.27608,0,0,0.125,-2.9606e-16,0,0.66667
0.027872,0.40841,0.22298,-0.13738,-11.636,447.11,0.081686,-0.027229,-1.9335,0.10891,6.6842e-08,-0.96677,0,0,0.125,-0,-0,0.66667
0.46709,0.0049423,3.7367,-0.74259,-49.534,166.39,7.3995,-2.4665,-0.041063,9.866,-1.1759e-12,-0.020532,0,0,0.125,-0,-0,0.66667
0.48856,0.11444,3.9085,-0.57834,-37.435,154.5,6.0278,-2.0093,-0.80976,8.0371,1.39e-13,-0.40488,0,0,0.125,5.9212e-16,0,0.66667
0.42371,0.52207,3.3897,0.033105,2.2985,189.7,-0.29924,0.099747,-1.9971,-0.39899,-1.7373e-12,-0.99857,0,0,0.125,-0,-0,0.66667
0.98837,0.83094,7.9069,0.49641,0.81717,1.0898,-10.467,3.489,-1.1228,-13.956,5.7742e-07,-0.5614,0,0,0.125,-0,-0,0.66667
0.64354,0.43627,5.1483,-0.095602,-4.7246,80.498,1.3125,-0.4375,-1.9687,1.75,3.8758e-13,-0.98435,0,0,0.125,-7.4015e-17,0,0.66667
0.56225,0.96832,4.498,0.70247,40.944,117.67,-8.426,2.8087,-0.24964,-11.235,9.3348e-13,-0.12482,0,0,0.125,1.6653e-16,-8.1082e-18,0.66667
0.086457,0.071829,0.69165,-0.64226,-54.296,406.72,1.1846,-0.39486,-0.53135,1.5794,3.2015e-07,-0.26568,0,0,0.125,-0,-0,0.66667
0.45235,0.17326,3.6188,-0.49011,-33.101,173.96,4.7296,-1.5765,-1.1479,6.3062,1.43e-13,-0.57394,0,0,0.125,-5.9212e-16,-3.0724e-17,0.66667
0.069724,0.16381,0.55779,-0.50429,-42.662,418.2,0.7501,-0.25003,-1.094,1.0001,1.4599e-07,-0.54699,0,0,0.125,-0,-0,0.66667
0.48716,0.80888,3.8972,0.46332,29.987,155.04,-4.8151,1.605,-1.2376,-6.4202,-3.0465e-13,-0.61881,0,0,0.125,-1.4803e-16,0,0.66667
0.01559,0.68949,0.12472,0.28424,24.107,455.63,-0.094537,0.031512,-1.7169,-0.12605,-1.109e-08,-0.85845,0,0,0.125,-0,-0,0.66667
0.14153,0.99532,1.1322,0.74299,62.124,369.15,-2.2433,0.74775,-0.039836,-2.991,-7.5049e-09,-0.019918,0,0,0.125,4.4409e-16,0,0.66667
0.61893,0.79952,4.9514,0.44927,23.484,91.304,-5.9321,1.9774,-1.2803,-7.9095,-1.9433e-12,-0.64016,0,0,0.125,1.1842e-15,0,0.66667
0.67615,0.453,5.4092,-0.070506,-3.2251,67.55,1.017,-0.33901,-1.9811,1.356,-3.2196e-15,-0.99054,0,0,0.125,-0,-0,0.66667
0.60372,0.039058,4.8298,-0.69141,-37.435,98.559,8.905,-2.9683,-0.29878,11.873,1.2115e-12,-0.14939,0,0,0.125,-0,-0,0.66667
0.25097,0.0015909,2.0078,-0.74761,-59.775,296.36,4.0028,-1.3343,-0.01577,5.3371,9.0967e-12,-0.007885,0,0,0.125,-0,-0,0.66667
0.066186,0.65806,0.52949,0.23709,20.019,420.59,-0.33477,0.11159,-1.8006,-0.44636,-1.0612e-09,-0.90031,0,0,0.125,1.4803e-16,0,0.66667
0.67727,0.69347,5.4182,0.29021,13.261,67.312,-4.1931,1.3977,-1.6994,-5.5908,-4.782e-12,-0.84969,0,0,0.125,-0,-0,0.66667
0.76834,0.83041,6.1467,0.49562,17.163,37.104,-8.1238,2.7079,-1.1266,-10.832,2.2018e-11,-0.56328,0,0,0.125,-0,-0,0.66667
0.11928,0.61932,0.9542,0.17898,14.957,384.07,-0.45541,0.1518,-1.8849,-0.60721,-6.8029e-09,-0.94243,0,0,0.125,-7.4015e-17,0,0.66667
0.73956,0.43683,5.9165,-0.094753,-3.6088,45.259,1.4949,-0.49831,-1.9679,1.9933,2.2797e-12,-0.98396,0,0,0.125,-1.1295e-15,0,0.66667
0.77319,0.22674,6.1855,-0.40989,-13.9,35.496,6.7611,-2.2537,-1.4007,9.0148,-2.421e-11,-0.70036,0,0,0.125,-2.3685e-15,0,0.66667
0.10997,0.99691,0.87978,0.74537,62.83,390.64,-1.7487,0.5829,-0.02785,-2.3316,-2.1181e-08,-0.013925,0,0,0.125,-4.4409e-16,0,0.66667
0.48647,0.34491,3.8918,-0.23263,-15.031,155.13,2.4143,-0.80476,-1.8095,3.219,1.1213e-13,-0.90476,0,0,0.125,-1.1842e-15,0,0.66667
0.005725,0.5176,0.0458,0.026396,2.237,462.47,-0.003224,0.0010774,-1.9956,-0.0042974,4.0291e-06,-0.99781,0,0,0.125,-0,-0,0.66667
0.62591,0.6763,5.0073,0.26446,13.591,88.016,-3.5312,1.1771,-1.7532,-4.7083,-1.4528e-12,-0.87661,0,0,0.125,-5.9212e-16,0,0.66667
0.85898,0.92844,6.8719,0.64266,14.276,15.797,-11.777,3.9256,-0.53423,-15.702,-1.8169e-08,-0.26711,0,0,0.125,-5.9212e-16,1.2192e-16,0.66667
0.86017,0.92623,6.8814,0.63934,14.089,15.56,-11.732,3.9107,-0.54866,-15.643,-2.1605e-08,-0.27433,0,0,0.125,-0,-0,0.66667
0.93728,0.49991,7.4982,-0.00014202,-0.0013896,3.3404,0.0028397,-0.00094616,-2.0043,0.0037864,5.893e-07,-1.0021,0,0,0.125,-1.3878e-15,0,0.66667
0.78384,0.16209,6.2707,-0.50686,-16.517,32.766,8.4757,-2.8252,-1.0872,11.301,1.271e-10,-0.54361,0,0,0.125,-2.3685e-15,0,0.66667
0.43204,0.63106,3.4563,0.19659,13.537,185.02,-1.8119,0.60397,-1.8614,-2.4159,-5.2647e-13,-0.9307,0,0,0.125,-1.1842e-15,0,0.66667
0.77402,0.82197,6.1921,0.48296,16.357,35.439,-7.9749,2.6583,-1.1686,-10.633,-2.5318e-12,-0.58432,0,0,0.125,-0,-0,0.66667
0.98356,0.79208,7.8684,0.43813,1.0511,1.0413,-9.193,3.0643,-1.3195,-12.257,-3.5199e-07,-0.65976,0,0,0.125,-0,-0,0.66667
0.36725,0.30389,2.938,-0.29416,-21.571,222.96,2.3047,-0.76822,-1.6904,3.0729,-2.1851e-12,-0.84519,0,0,0.125,2.9606e-16,0,0.66667
0.035895,0.38261,0.28716,-0.17608,-14.909,441.55,0.13484,-0.044945,-1.8888,0.17978,-7.9411e-08,-0.94438,0,0,0.125,-0,-0,0.66667
0.50774,0.93897,4.0619,0.65846,41.615,144.64,-7.1323,2.3774,-0.45754,-9.5097,-1.0978e-12,-0.22877,0,0,0.125,-0,-0,0.66667
0.3525,0.28517,2.82,-0.32224,-23.928,231.91,2.4232,-0.80774,-1.6295,3.231,-1.7504e-12,-0.81476,0,0,0.125,-1.1842e-15,0,0.66667
0.17606,0.8255,1.4085,0.48825,40.208,345.65,-1.8339,0.61129,-1.1513,-2.4451,-3.9735e-10,-0.57563,0,0,0.125,-0,-0,0.66667
0.9343,0.093621,7.4744,-0.60957,-6.4895,4.861,12.15,-4.0499,-0.68004,16.2,-1.0071e-07,-0.34002,0,0,0.125,-1.6943e-15,-1.4925e-16,0.66667
0.11962,0.29154,0.95694,-0.31269,-26.151,383.86,0.79795,-0.26598,-1.6507,1.0639,1.0859e-08,-0.82537,0,0,0.125,-0,-0,0.66667
0.65426,0.067241,5.2341,-0.64914,-31.587,77.097,9.0604,-3.0201,-0.50317,12.081,5.5689e-13,-0.25159,0,0,0.125,-0,-0,0.66667
0.16873,0.39863,1.3498,-0.15206,-12.521,350.45,0.54735,-0.18245,-1.9178,0.7298,6.2683e-10,-0.95889,0,0,0.125,-1.4803e-16,0,0.66667
0.79644,0.5388,6.3715,0.058205,1.7825,28.685,-0.98894,0.32965,-1.9907,-1.3186,2.6737e-11,-0.99537,0,0,0.125,-0,-0,0.66667
0.25811,0.11011,2.0648,-0.58483,-46.447,291.55,3.2202,-1.0734,-0.78162,4.2936,-1.0537e-11,-0.39081,0,0,0.125,-0,-0,0.66667
0.69801,0.40249,5.5841,-0.14627,-6.3182,59.467,2.178,-0.72601,-1.9232,2.904,3.0644e-12,-0.96162,0,0,0.125,1.4803e-15,0,0.66667
0.62789,0.78602,5.0231,0.42902,22.008,87.428,-5.7468,1.9156,-1.3461,-7.6624,-3.3928e-13,-0.67307,0,0,0.125,-2.3685e-15,0,0.66667
0.7158,0.76846,5.7264,0.40269,16.589,53.55,-6.1493,2.0498,-1.4232,-8.199,-9.8135e-12,-0.71159,0,0,0.125,-1.1842e-15,0,0.66667
0.25083,0.34714,2.0066,-0.22928,-18.213,296.01,1.2269,-0.40897,-1.816,1.6359,-1.1779e-11,-0.90799,0,0,0.125,-0,-0,0.66667
0.50402,0.10931,4.0322,-0.58603,-37.171,146.4,6.3013,-2.1004,-0.77781,8.4018,1.2199e-12,-0.38891,0,0,0.125,-0,-0,0.66667
0.34213,0.071777,2.7371,-0.64233,-48.297,238.62,4.6883,-1.5628,-0.53425,6.2511,-1.7089e-12,-0.26713,0,0,0.125,-0,1.236e-16,0.66667
0.1803,0.45204,1.4424,-0.071934,-5.8972,342.65,0.27669,-0.092229,-1.9793,0.36891,2.9184e-10,-0.98967,0,0,0.125,-2.9606e-16,0,0.66667
0.47551,0.66229,3.8041,0.24344,15.95,161.01,-2.4695,0.82317,-1.7877,-3.2927,-3.8503e-13,-0.89386,0,0,0.125,-1.1842e-15,0,0.66667
0.91212,0.0070378,7.297,-0.73944,-10.591,7.8865,14.389,-4.7962,-0.054438,19.185,2.5534e-08,-0.027219,0,0,0.125,-0,-0,0.66667
0.56794,0.72272,4.5435,0.33408,19.156,114.2,-4.0477,1.3492,-1.6023,-5.397,1.3411e-13,-0.80115,0,0,0.125,1.1842e-15,0,0.66667
0.63089,0.86916,5.0471,0.55374,28.298,86.436,-7.4527,2.4842,-0.90846,-9.937,-1.6134e-12,-0.45423,0,0,0.125,-0,-0,0.66667
0.54925,0.27158,4.394,-0.34263,-20.259,123.2,4.0147,-1.3382,-1.5831,5.353,7.4429e-13,-0.79153,0,0,0.125,-5.9212e-16,0,0.66667
0.04503,0.67377,0.36024,0.26065,22.064,435.23,-0.25039,0.083465,-1.7592,-0.33386,8.5786e-08,-0.8796,0,0,0.125,7.4015e-17,0,0.66667
0.86867,0.98423,6.9493,0.72634,15.185,14.377,-13.46,4.4868,-0.12207,-17.947,6.3453e-09,-0.061034,0,0,0.125,2.0574e-15,0,0.66667
0.12479,0.15424,0.99835,-0.51864,-43.41,380.4,1.3807,-0.46025,-1.0475,1.841,-1.8039e-09,-0.52377,0,0,0.125,-3.7007e-17,1.6522e-16,0.66667
0.73641,0.81132,5.8913,0.46697,18.072,46.823,-7.3362,2.4454,-1.2267,-9.7816,-2.629e-11,-0.61333,0,0,0.125,-2.9606e-16,0,0.66667
0.45176,0.65296,3.6141,0.22943,15.461,173.99,-2.2112,0.73706,-1.8151,-2.9482,4.8672e-13,-0.90757,0,0,0.125,-0,-0,0.66667
0.71027,0.3137,5.6822,-0.27946,-11.676,55.25,4.2345,-1.4115,-1.7215,5.646,9.3201e-12,-0.86076,0,0,0.125,-0,-0,0.66667
0.86113,0.44997,6.889,-0.075042,-1.6117,14.147,1.3786,-0.45952,-1.9809,1.8381,-2.4915e-09,-0.99044,0,0,0.125,-0,-0,0.66667
0.69657,0.46552,5.5726,-0.051721,-2.242,59.941,0.76858,-0.25619,-1.9894,1.0248,2.5165e-12,-0.9947,0,0,0.125,-1.7764e-15,0,0.66667
0.8539,0.69472,6.8312,0.29208,6.6062,15.776,-5.3207,1.7736,-1.6953,-7.0943,3.7532e-09,-0.84766,0,0,0.125,-0,-0,0.66667
0.48707,0.91018,3.8966,0.61527,39.93,155.37,-6.3932,2.1311,-0.6549,-8.5242,-6.4704e-13,-0.32745,0,0,0.125,-0,-0,0.66667
0.091798,0.17658,0.73438,-0.48514,-40.885,402.99,0.95007,-0.31669,-1.164,1.2668,1.7794e-08,-0.58198,0,0,0.125,-1.4803e-16,0,0.66667
0.37859,0.86533,3.0287,0.54799,39.91,216.45,-4.4259,1.4753,-0.93176,-5.9012,8.3533e-13,-0.46588,0,0,0.125,-5.9212e-16,0,0.66667
0.19142,0.84459,1.5313,0.51689,42.333,335.38,-2.1108,0.70358,-1.0506,-2.8143,-2.1936e-10,-0.52528,0,0,0.125,-0,-0,0.66667
0.76352,0.74686,6.1081,0.3703,13.015,38.221,-6.0315,2.0105,-1.514,-8.042,-1.0526e-11,-0.75701,0,0,0.125,1.4803e-15,0,0.66667
0.69537,0.86598,5.563,0.54896,24.045,61.115,-8.1436,2.7145,-0.9265,-10.858,-2.955e-12,-0.46325,0,0,0.125,-0,-0,0.66667
0.57953,0.73197,4.6362,0.34795,19.561,108.79,-4.3019,1.434,-1.5708,-5.7358,-3.979e-13,-0.78538,0,0,0.125,-0,-0,0.66667
0.76884,0.2495,6.1507,-0.37575,-12.946,36.673,6.1631,-2.0544,-1.4991,8.2174,1.3648e-11,-0.74954,0,0,0.125,5.181e-16,0,0.66667
0.36936,0.33561,2.9549,-0.24659,-18.043,221.65,1.943,-0.64768,-1.7823,2.5907,-7.5151e-13,-0.89115,0,0,0.125,-2.9606e-16,0,0.66667
0.36918,0.26958,2.9534,-0.34564,-25.316,221.84,2.7221,-0.90738,-1.5734,3.6295,-9.5968e-13,-0.78669,0,0,0.125,5.9212e-16,0,0.66667
0.70021,0.80624,5.6017,0.45936,19.812,59.146,-6.8618,2.2873,-1.2501,-9.149,-6.5636e-12,-0.62505,0,0,0.125,-0,-0,0.66667
0.4523,0.48638,3.6184,-0.020432,-1.375,173.6,0.19716,-0.065718,-2.0004,0.26287,4.485e-13,-1.0002,0,0,0.125,-0,-0,0.66667
0.81192,0.41743,6.4953,-0.12386,-3.5317,24.812,2.1454,-0.71513,-1.9477,2.8605,-3.6921e-10,-0.97387,0,0,0.125,2.3685e-15,0,0.66667
0.15461,0.13783,1.2369,-0.54326,-45.099,360.15,1.7919,-0.59729,-0.95166,2.3891,2.3662e-09,-0.47583,0,0,0.125,-0,-5.1433e-17,0.66667
0.58986,0.062843,4.7189,-0.65574,-36.397,104.69,8.2515,-2.7505,-0.47179,11.002,2.16e-12,-0.2359,0,0,0.125,-0,-0,0.66667
0.37357,0.91616,2.9885,0.62424,45.723,219.57,-4.9748,1.6583,-0.61589,-6.6331,-1.3678e-12,-0.30794,0,0,0.125,-0,-1.2822e-16,0.66667
0.24708,0.90333,1.9766,0.605,48.352,298.73,-3.1889,1.063,-0.69945,-4.2519,6.8797e-11,-0.34973,0,0,0.125,7.4015e-17,0,0.66667
0.25433,0.54885,2.0346,0.073281,5.8065,293.69,-0.3976,0.13253,-1.9797,-0.53014,3.1776e-12,-0.98983,0,0,0.125,-0,-0,0.66667
0.74375,0.974,5.95,0.711,27.069,45.24,-11.281,3.7604,-0.20126,-15.042,-6.41e-12,-0.10063,0,0,0.125,-0,-0,0.66667
0.32886,0.76158,2.6309,0.39237,29.694,246.49,-2.7528,0.91758,-1.4547,-3.6703,1.3523e-13,-0.72735,0,0,0.125,-0,-0,0.66667
0.22792,0.93173,1.8233,0.6476,52.295,311.3,-3.1488,1.0496,-0.50739,-4.1983,1.2657e-12,-0.25369,0,0,0.125,-3.0914e-16,0,0.66667
0.90536,0.10871,7.2429,-0.58694,-8.8992,8.1036,11.336,-3.7788,-0.7769,15.115,-3.005e-08,-0.38845,0,0,0.125,-0,-0,0.66667
0.41629,0.82019,3.3304,0.48029,33.716,194.29,-4.2654,1.4218,-1.1784,-5.6872,1.1231e-12,-0.58919,0,0,0.125,-0,-0,0.66667
0.5344,0.68411,4.2752,0.27616,16.697,130.45,-3.1484,1.0495,-1.7294,-4.1978,9.599e-13,-0.86472,0,0,0.125,-7.4015e-16,0,0.66667
0.37206,0.68099,2.9765,0.27149,19.822,220.05,-2.1549,0.71829,-1.7382,-2.8732,8.3977e-13,-0.86912,0,0,0.125,-2.9606e-16,0,0.66667
0.23386,0.78922,1.8709,0.43383,34.827,307.21,-2.1643,0.72144,-1.3335,-2.8858,-4.2579e-12,-0.66674,0,0,0.125,-0,-0,0.66667
0.10234,0.046824,0.81875,-0.67976,-57.328,395.83,1.4841,-0.49472,-0.3548,1.9789,8.1396e-08,-0.1774,0,0,0.125,-1.4803e-16,0,0.66667
0.055182,0.11138,0.44146,-0.58293,-49.457,428.25,0.68623,-0.22874,-0.78955,0.91497,-2.729e-07,-0.39478,0,0,0.125,-0,-0,0.66667
0.87287,0.84851,6.983,0.52276,10.464,12.854,-9.7345,3.2448,-1.0296,-12.979,2.6321e-09,-0.51481,0,0,0.125,-2.3685e-15,0,0.66667
0.17297,0.49719,1.3838,-0.0042215,-0.34699,347.58,0.015577,-0.0051924,-2.0026,0.02077,5.8517e-10,-1.0013,0,0,0.125,5.181e-16,0,0.66667
0.53895,0.14865,4.3116,-0.52702,-31.754,128.57,6.0595,-2.0198,-1.0106,8.0794,4.4009e-13,-0.50529,0,0,0.125,-5.9212e-16,0,0.66667
0.97872,0.76989,7.8298,0.40483,1.287,1.1183,-8.4527,2.8176,-1.4155,-11.27,-5.64e-07,-0.70775,0,0,0.125,-0,-0,0.66667
0.16733,0.61453,1.3386,0.1718,14.155,351.4,-0.61327,0.20442,-1.8938,-0.81769,-1.1842e-09,-0.94692,0,0,0.125,-0,-0,0.66667
0.59576,0.51283,4.7661,0.019248,1.0483,101.1,-0.24463,0.081545,-1.9993,-0.32618,5.8467e-14,-0.99965,0,0,0.125,-0,-0,0.66667
0.75137,0.4879,6.0109,-0.018156,-0.66405,41.523,0.29102,-0.097007,-2.0002,0.38803,4.1323e-12,-1.0001,0,0,0.125,1.1842e-15,0,0.66667
0.079887,0.045654,0.6391,-0.68152,-57.716,411.25,1.1615,-0.38716,-0.34939,1.5486,3.0847e-07,-0.17469,0,0,0.125,-0,-0,0.66667
0.45273,0.53329,3.6218,0.049934,3.3587,173.37,-0.48228,0.16076,-1.9948,-0.64303,2.5832e-13,-0.99741,0,0,0.125,-0,-0,0.66667
0.79183,0.43959,6.3346,-0.090617,-2.8323,29.913,1.5307,-0.51024,-1.9704,2.041,-5.2523e-11,-0.98522,0,0,0.125,-0,-0,0.66667
0.72178,0.43784,5.7742,-0.093233,-3.7576,51.118,1.4356,-0.47853,-1.9704,1.9141,7.8526e-12,-0.98519,0,0,0.125,-2.3685e-15,0,0.66667
0.67856,0.73304,5.4285,0.34957,15.935,66.914,-5.0603,1.6868,-1.5633,-6.7471,-5.1128e-12,-0.78167,0,0,0.125,1.1842e-15,0,0.66667
0.76669,0.72132,6.1335,0.33197,11.521,37.215,-5.4298,1.8099,-1.6109,-7.2397,1.4992e-12,-0.80546,0,0,0.125,-2.3685e-15,0,0.66667
0.5821,0.8082,4.6568,0.4623,25.915,107.79,-5.741,1.9137,-1.2399,-7.6546,2.4913e-13,-0.61997,0,0,0.125,2.9606e-16,0,0.66667
0.3749,0.9999,2.9992,0.74985,54.994,219.01,-5.9972,1.9991,-0.0052524,-7.9962,-7.9936e-15,-0.0026262,0,0,0.125,-1.1681e-16,1.8869e-18,0.66667
0.44709,0.66049,3.5767,0.24073,16.31,176.59,-2.2961,0.76538,-1.7928,-3.0615,-1.5481e-12,-0.89641,0,0,0.125,-0,-0,0.66667
0.28043,0.33445,2.2434,-0.24833,-19.395,276.91,1.4856,-0.4952,-1.7829,1.9808,-1.0877e-11,-0.89144,0,0,0.125,-2.9606e-16,0,0.66667
0.33926,0.57442,2.714,0.11163,8.3661,239.9,-0.80795,0.26932,-1.9544,-1.0773,-2.5716e-12,-0.97721,0,0,0.125,5.9212e-16,0,0.66667
0.88017,0.72153,7.0413,0.3323,6.2331,11.115,-6.2395,2.0798,-1.6068,-8.3193,1.1125e-08,-0.80342,0,0,0.125,2.3685e-15,0,0.66667
0.53635,0.94941,4.2908,0.67411,40.901,130.19,-7.7133,2.5711,-0.38267,-10.284,1.5898e-13,-0.19134,0,0,0.125,-0,-0,0.66667
0.073744,0.57596,0.58995,0.11395,9.6056,415.36,-0.17926,0.059754,-1.9526,-0.23902,-3.1752e-08,-0.97628,0,0,0.125,-1.4803e-16,0,0.66667
0.67227,0.53905,5.3781,0.058574,2.7054,69.036,-0.84005,0.28002,-1.9906,-1.1201,-2.5523e-12,-0.99531,0,0,0.125,-0,-0,0.66667
0.72976,0.45935,5.8381,-0.060976,-2.397,48.437,0.94929,-0.31643,-1.9856,1.2657,4.2084e-12,-0.99281,0,0,0.125,-1.1842e-15,0,0.66667
0.39561,0.54769,3.1649,0.071529,5.1072,205.99,-0.60368,0.20123,-1.9802,-0.80491,-1.0231e-12,-0.99009,0,0,0.125,-0,-0,0.66667
0.34753,0.54108,2.7803,0.061626,4.5879,234.81,-0.4569,0.1523,-1.9858,-0.60919,-3.7317e-12,-0.99291,0,0,0.125,-0,-0,0.66667
0.10753,0.50883,0.86026,0.013243,1.1093,392.1,-0.030381,0.010127,-2.0004,-0.040508,-3.3608e-08,-1.0002,0,0,0.125,-0,-0,0.66667
0.54663,0.89977,4.373,0.59965,35.754,124.95,-6.9928,2.3309,-0.72464,-9.3238,2.0117e-13,-0.36232,0,0,0.125,5.9212e-16,-9.7326e-17,0.66667
0.26282,0.012239,2.1026,-0.73164,-58.1,288.68,4.1022,-1.3674,-0.096632,5.4696,-1.4769e-11,-0.048316,0,0,0.125,-0,-1.4108e-16,0.66667
0.91802,0.83585,7.3441,0.50377,6.5984,6.2205,-9.866,3.2887,-1.0971,-13.155,2.4133e-08,-0.54855,0,0,0.125,-5.9212e-16,0,0.66667
0.85065,0.4232,6.8052,-0.1152,-2.6516,16.203,2.0906,-0.69686,-1.9506,2.7874,-1.3353e-09,-0.9753,0,0,0.125,-1.1842e-15,0,0.66667
0.65361,0.49038,5.2289,-0.014427,-0.69673,76.38,0.20116,-0.067053,-1.9995,0.26821,-1.7844e-13,-0.99974,0,0,0.125,5.9212e-16,0,0.66667
0.87584,0.21553,7.0067,-0.42671,-8.3125,12.063,7.9729,-2.6576,-1.3555,10.631,-7.576e-09,-0.67776,0,0,0.125,-2.9606e-16,0,0.66667
0.96891,0.19836,7.7513,-0.45247,-2.1956,1.7106,9.3525,-3.1175,-1.2749,12.47,5.4828e-07,-0.63747,0,0,0.125,-0,-0,0.66667
0.59079,0.73037,4.7263,0.34556,19.037,103.61,-4.3553,1.4518,-1.5752,-5.807,-1.096e-12,-0.78762,0,0,0.125,-0,-0,0.66667
0.98013,0.033586,7.8411,-0.69962,-2.2957,2.1987,14.629,-4.8762,-0.25965,19.505,1.8503e-05,-0.12983,0,0,0.125,-0,-0,0.66667
0.54926,0.30971,4.3941,-0.28544,-16.867,123.12,3.3447,-1.1149,-1.7117,4.4596,9.7522e-13,-0.85583,0,0,0.125,-1.3323e-15,0,0.66667
0.2936,0.073799,2.3488,-0.6393,-49.749,268.87,4.0042,-1.3347,-0.5464,5.3389,-2.5353e-12,-0.2732,0,0,0.125,-0,6.0335e-17,0.66667
0.49124,0.8718,3.9299,0.55769,35.96,153.04,-5.8445,1.9482,-0.89299,-7.7926,-1.3767e-13,-0.44649,0,0,0.125,-2.9606e-16,0,0.66667
0.40509,0.61358,3.2407,0.17038,12.059,200.48,-1.4724,0.49079,-1.8984,-1.9632,-2.125e-13,-0.94919,0,0,0.125,5.9212e-16,0,0.66667
0.59978,0.57004,4.7982,0.10506,5.6802,99.32,-1.3443,0.4481,-1.9592,-1.7924,-1.2066e-12,-0.97959,0,0,0.125,-0,-0,0.66667
0.4807,0.31034,3.8456,-0.28449,-18.525,158.25,2.9174,-0.97248,-1.7126,3.8899,8.3245e-13,-0.85632,0,0,0.125,-1.4803e-16,0,0.66667
0.2867,0.94749,2.2936,0.67124,52.493,273.29,-4.1055,1.3685,-0.39641,-5.474,1.902e-12,-0.19821,0,0,0.125,-0,-0,0.66667
0.62519,0.16494,5.0015,-0.50259,-25.963,88.731,6.7032,-2.2344,-1.1049,8.9375,7.5495e-14,-0.55244,0,0,0.125,-0,-0,0.66667
0.8054,0.1257,6.4432,-0.56145,-16.688,27.283,9.6468,-3.2156,-0.8785,12.862,6.3752e-10,-0.43925,0,0,0.125,-0,-0,0.66667
0.078748,0.48361,0.62998,-0.024585,-2.0706,411.9,0.041301,-0.013767,-2,0.055068,3.8569e-08,-0.99998,0,0,0.125,1.4803e-16,0,0.66667
0.42362,0.43576,3.389,-0.096361,-6.6919,189.76,0.87085,-0.29028,-1.9692,1.1611,-1.6062e-12,-0.98458,0,0,0.125,-7.4015e-17,0,0.66667
0.645,0.31715,5.16,-0.27427,-13.529,80.047,3.774,-1.258,-1.7321,5.032,3.6038e-13,-0.86604,0,0,0.125,-0,-0,0.66667
0.0072838,0.8853,0.058271,0.57796,49.179,461.4,-0.089806,0.029933,-0.81025,-0.11974,-4.1755e-06,-0.40512,0,0,0.125,-1.8504e-17,0,0.66667
0.87569,0.96509,7.0055,0.69764,13.826,13.036,-13.033,4.3443,-0.27253,-17.377,-6.2133e-08,-0.13627,0,0,0.125,-2.9606e-16,0,0.66667
0.69402,0.26173,5.5522,-0.3574,-15.647,61.178,5.2916,-1.7639,-1.5438,7.0555,5.4778e-12,-0.77188,0,0,0.125,-1.1842e-15,0,0.66667
0.74977,0.22196,5.9982,-0.41706,-15.415,42.48,6.6709,-2.2236,-1.3852,8.8946,2.505e-11,-0.69261,0,0,0.125,-2.3685e-15,0,0.66667
0.5233,0.5541,4.1864,0.081157,4.9822,135.9,-0.90601,0.302,-1.9746,-1.208,1.4701e-12,-0.98732,0,0,0.125,-5.9212e-16,0,0.66667
0.97547,0.29674,7.8037,-0.30489,-1.1124,1.008,6.3448,-2.1149,-1.6673,8.4597,2.4221e-07,-0.83364,0,0,0.125,1.1842e-15,0,0.66667
0.15309,0.88948,1.2247,0.58421,48.551,361.2,-1.9079,0.63598,-0.78601,-2.5439,2.9534e-09,-0.39301,0,0,0.125,2.9606e-16,3.1765e-17,0.66667
0.95582,0.484,7.6465,-0.023994,-0.16295,1.8157,0.48926,-0.16309,-1.9979,0.65235,-7.3822e-07,-0.99894,0,0,0.125,1.1842e-15,0,0.66667
0.9956,0.87184,7.9648,0.55776,0.27264,1.1644,-11.846,3.9488,-0.89367,-15.795,1.1682e-06,-0.44683,0,0,0.125,1.7764e-15,0,0.66667
0.078553,0.7022,0.62843,0.30331,25.574,412.06,-0.50828,0.16943,-1.6753,-0.67771,-3.1039e-08,-0.83763,0,0,0.125,1.4803e-16,0,0.66667
0.33688,0.25567,2.6951,-0.36649,-27.562,241.51,2.6339,-0.87798,-1.5209,3.5119,-1.2936e-12,-0.76045,0,0,0.125,-0,-0,0.66667
0.99274,0.98649,7.9419,0.72974,0.87774,1.9978,-15.455,5.1516,-0.10445,-20.606,2.4844e-05,-0.052227,0,0,0.125,-1.1842e-15,0,0.66667
0.42676,0.4349,3.4141,-0.097643,-6.7587,187.97,0.88896,-0.29632,-1.9657,1.1853,-9.9837e-13,-0.98286,0,0,0.125,-1.4803e-16,0,0.66667
0.82335,0.29932,6.5868,-0.30102,-8.1264,22.316,5.2873,-1.7624,-1.6763,7.0498,-8.7063e-10,-0.83817,0,0,0.125,1.1842e-15,0,0.66667
0.28812,0.71248,2.3049,0.31872,24.788,272.04,-1.959,0.65301,-1.6372,-2.612,6.9541e-12,-0.8186,0,0,0.125,-2.9606e-16,0,0.66667
0.51209,0.28474,4.0968,-0.32289,-20.174,141.8,3.5274,-1.1758,-1.6296,4.7032,-1.863e-13,-0.8148,0,0,0.125,-0,-0,0.66667
0.4661,0.86649,3.7288,0.54973,36.57,166.51,-5.4663,1.8221,-0.92583,-7.2884,-1.0507e-12,-0.46291,0,0,0.125,-0,-0,0.66667
0.33294,0.43147,2.6635,-0.1028,-7.7411,243.79,0.73018,-0.24339,-1.9615,0.97357,-1.4344e-12,-0.98076,0,0,0.125,5.9212e-16,0,0.66667
0.52708,0.20816,4.2167,-0.43776,-26.809,134.33,4.9224,-1.6408,-1.3176,6.5632,2.1982e-13,-0.65882,0,0,0.125,-0,-0,0.66667
0.080511,0.20781,0.64409,-0.43828,-36.989,410.74,0.75278,-0.25093,-1.3174,1.0037,4.8829e-08,-0.65869,0,0,0.125,7.4015e-17,0,0.66667
0.2212,0.53078,1.7696,0.046176,3.7207,315.4,-0.2179,0.072632,-1.9942,-0.29053,-3.1454e-11,-0.99709,0,0,0.125,2.2204e-16,0,0.66667
0.33596,0.6173,2.6877,0.17594,13.222,241.95,-1.261,0.42034,-1.8881,-1.6813,-1.1734e-12,-0.94403,0,0,0.125,2.9606e-16,0,0.66667
0.96887,0.9425,7.751,0.66376,3.3871,2.525,-13.719,4.5731,-0.43707,-18.292,-5.8794e-06,-0.21853,0,0,0.125,-0,-0,0.66667
0.44075,0.56262,3.526,0.09393,6.4043,180.06,-0.8832,0.2944,-1.9698,-1.1776,3.566e-13,-0.98489,0,0,0.125,-1.1842e-15,0,0.66667
0.96131,0.79919,7.6905,0.44878,2.7377,2.1354,-9.2036,3.0679,-1.2816,-12.271,5.1412e-09,-0.64082,0,0,0.125,-0,-0,0.66667
0.57362,0.43295,4.5889,-0.10057,-5.7006,111.32,1.2307,-0.41024,-1.9635,1.6409,2.1394e-13,-0.98176,0,0,0.125,-8.8818e-16,0,0.66667
0.046616,0.072969,0.37292,-0.64055,-54.44,434.18,0.637,-0.21233,-0.5439,0.84933,2.0951e-06,-0.27195,0,0,0.125,-0,-0,0.66667
0.65871,0.64037,5.2697,0.21056,10.058,74.44,-2.9589,0.9863,-1.8425,-3.9452,-2.3306e-12,-0.92125,0,0,0.125,-1.1842e-15,0,0.66667
0.014774,0.088352,0.11819,-0.61747,-52.563,456.21,0.19461,-0.064866,-0.64692,0.25948,5.7306e-06,-0.32346,0,0,0.125,9.2519e-18,0,0.66667
0.74247,0.058514,5.9398,-0.66223,-25.273,45.465,10.489,-3.4964,-0.43937,13.986,-1.4388e-12,-0.21969,0,0,0.125,4.3963e-16,0,0.66667
0.4207,0.057161,3.3656,-0.66426,-46.567,192.08,5.9617,-1.9872,-0.43335,7.949,-1.942e-12,-0.21667,0,0,0.125,-0,8.3882e-17,0.66667
0.53388,0.85369,4.2711,0.53053,32.214,131.09,-6.0425,2.0142,-0.99944,-8.0567,-6.2705e-13,-0.49972,0,0,0.125,-0,-0,0.66667
0.78883,0.89574,6.3107,0.59361,19.005,31.68,-9.9896,3.3299,-0.74499,-13.319,-2.4612e-10,-0.37249,0,0,0.125,1.1842e-15,0,0.66667
0.9056,0.80456,7.2448,0.45685,6.8456,7.6346,-8.826,2.942,-1.2604,-11.768,2.7334e-08,-0.6302,0,0,0.125,-5.9212e-16,0,0.66667
0.98688,0.4475,7.895,-0.078753,-0.12977,0.28746,1.658,-0.55267,-1.9783,2.2107,4.5218e-07,-0.98913,0,0,0.125,-0,-0,0.66667
0.80208,0.46438,6.4166,-0.053425,-1.5951,27.229,0.91416,-0.30472,-1.989,1.2189,4.4822e-11,-0.99451,0,0,0.125,-2.9606e-16,0,0.66667
0.0025426,0.083103,0.020341,-0.62534,-53.251,464.68,0.033914,-0.01131,-0.60983,0.045217,-8.1536e-06,-0.30492,0,0,0.125,-2.313e-18,-6.607e-16,0.66667
0.60009,0.70987,4.8007,0.31481,17.039,99.37,-4.0301,1.3434,-1.6458,-5.3735,-1.9433e-12,-0.82291,0,0,0.125,-0,-0,0.66667
0.28885,0.91693,2.3108,0.62539,48.803,271.87,-3.8537,1.2846,-0.60725,-5.1382,-3.9768e-13,-0.30363,0,0,0.125,5.9212e-16,0,0.66667
0.70972,0.14026,5.6777,-0.53962,-22.702,55.983,8.1701,-2.7234,-0.9625,10.893,5.3522e-12,-0.48125,0,0,0.125,-0,-0,0.66667
0.30554,0.87356,2.4444,0.56034,43.207,261.23,-3.6524,1.2175,-0.8828,-4.8699,7.2298e-13,-0.4414,0,0,0.125,-7.4015e-16,0,0.66667
0.55587,0.94912,4.4469,0.67368,39.649,120.65,-7.9889,2.663,-0.38424,-10.652,2.3861e-12,-0.19212,0,0,0.125,-0,-0,0.66667
0.91807,0.86761,7.3446,0.55142,7.2468,6.3785,-10.8,3.6,-0.91842,-14.4,3.7132e-08,-0.45921,0,0,0.125,-5.9212e-16,0,0.66667
0.24787,0.50561,1.983,0.0084075,0.66845,297.89,-0.044458,0.014819,-2.0009,-0.059278,5.1611e-12,-1.0005,0,0,0.125,-0,-0,0.66667
0.11184,0.14628,0.89473,-0.53058,-44.555,389.26,1.2659,-0.42198,-0.99942,1.6879,1.2674e-08,-0.49971,0,0,0.125,1.4803e-16,0,0.66667
0.51354,0.80635,4.1083,0.45953,28.704,141.25,-5.0344,1.6781,-1.2503,-6.7125,-1.3061e-12,-0.62515,0,0,0.125,3.0408e-16,0,0.66667
0.91372,0.69013,7.3097,0.2852,3.8763,6.1784,-5.5593,1.8531,-1.7097,-7.4124,2.3737e-08,-0.85484,0,0,0.125,-0,-0,0.66667
0.17924,0.021707,1.4339,-0.71744,-59.219,343.69,2.7433,-0.91444,-0.16786,3.6577,3.3905e-10,-0.083929,0,0,0.125,-2.9606e-16,0,0.66667
0.25588,0.41531,2.047,-0.12704,-10.059,292.69,0.69348,-0.23116,-1.9409,0.92463,-1.1287e-11,-0.97047,0,0,0.125,-0,-0,0.66667
0.033996,0.77354,0.27197,0.4103,34.804,442.88,-0.29757,0.099191,-1.4017,-0.39676,2.5683e-07,-0.70087,0,0,0.125,3.7007e-17,0,0.66667
0.015372,0.36256,0.12297,-0.20617,-17.477,455.78,0.067608,-0.022536,-1.8515,0.090144,3.702e-08,-0.92576,0,0,0.125,-0,-0,0.66667
0.54222,0.41705,4.3377,-0.12443,-7.4255,126.45,1.4393,-0.47976,-1.9437,1.919,-4.3254e-13,-0.97183,0,0,0.125,-0,-0,0.66667
0.85536,0.16426,6.8429,-0.50362,-11.371,16.004,9.1898,-3.0633,-1.0975,12.253,-1.737e-09,-0.54877,0,0,0.125,-0,-0,0.66667
0.44652,0.60834,3.5722,0.16251,11.013,176.86,-1.5481,0.51603,-1.9039,-2.0641,-1.5077e-13,-0.95196,0,0,0.125,-5.9212e-16,0,0.66667
0.23564,0.36975,1.8851,-0.19538,-15.64,305.92,0.98214,-0.32738,-1.8664,1.3095,6.6191e-12,-0.93319,0,0,0.125,-4.4409e-16,0,0.66667
0.93653,0.16722,7.4923,-0.49918,-5.073,4.2406,9.9732,-3.3244,-1.1159,13.298,-1.0926e-07,-0.55794,0,0,0.125,2.3685e-15,0,0.66667
0.61921,0.32406,4.9537,-0.26391,-13.75,90.892,3.4861,-1.162,-1.7505,4.6482,-8.0513e-13,-0.87526,0,0,0.125,-0,-0,0.66667
0.86458,0.36069,6.9166,-0.20897,-4.3902,13.624,3.8542,-1.2847,-1.843,5.139,-5.6373e-09,-0.92151,0,0,0.125,-1.1842e-15,0,0.66667
0.12811,0.42107,1.0249,-0.11839,-9.8693,378.02,0.32356,-0.10785,-1.9497,0.43142,4.7447e-09,-0.97487,0,0,0.125,-0,-0,0.66667
0.44124,0.88525,3.5299,0.57787,39.574,180.3,-5.4396,1.8132,-0.81198,-7.2528,1.2523e-13,-0.40599,0,0,0.125,1.1842e-15,0,0.66667
0.85755,0.79179,6.8604,0.43768,9.7141,15.393,-8.0071,2.669,-1.3198,-10.676,3.8781e-09,-0.65991,0,0,0.125,-2.3685e-15,0,0.66667
0.89819,0.44224,7.1855,-0.086644,-1.3789,8.0132,1.6602,-0.55341,-1.9718,2.2136,-1.5548e-08,-0.98592,0,0,0.125,-0,-0,0.66667
0.87726,0.8731,7.0181,0.55965,10.859,12.231,-10.474,3.4913,-0.888,-13.965,1.8375e-08,-0.444,0,0,0.125,-2.9606e-16,0,0.66667
0.62547,0.15694,5.0038,-0.51459,-26.574,88.637,6.8664,-2.2888,-1.0623,9.1552,1.1826e-12,-0.53116,0,0,0.125,-2.3685e-15,0,0.66667
0.75811,0.024344,6.0649,-0.71348,-25.852,40.836,11.539,-3.8464,-0.18825,15.386,-2.1684e-11,-0.094123,0,0,0.125,-1.1842e-15,0,0.66667
0.6755,0.68234,5.404,0.27351,12.552,67.967,-3.9415,1.3138,-1.734,-5.2553,-3.5871e-12,-0.86698,0,0,0.125,-1.1842e-15,0,0.66667
0.84516,0.259,6.7613,-0.3615,-8.6514,17.669,6.5179,-2.1726,-1.5368,8.6906,-2.5886e-09,-0.76842,0,0,0.125,-0,-0,0.66667
0.63245,0.49056,5.0596,-0.014166,-0.71706,85.092,0.19113,-0.063711,-1.9973,0.25484,6.3267e-13,-0.99863,0,0,0.125,-1.7764e-15,0,0.66667
0.17189,0.57356,1.3751,0.11033,9.074,348.32,-0.40459,0.13486,-1.9597,-0.53946,-7.8598e-10,-0.97987,0,0,0.125,-0,-0,0.66667
0.65052,0.90597,5.2042,0.60895,29.853,78.484,-8.4509,2.817,-0.68124,-11.268,-1.1342e-12,-0.34062,0,0,0.125,-5.3661e-16,0,0.66667
0.45534,0.8052,3.6427,0.4578,30.798,172.26,-4.447,1.4823,-1.2557,-5.9294,7.9936e-14,-0.62784,0,0,0.125,5.9212e-16,0,0.66667
0.058851,0.69431,0.47081,0.29147,24.641,425.67,-0.36593,0.12198,-1.6977,-0.48791,1.142e-08,-0.84883,0,0,0.125,-0,-0,0.66667
0.53586,0.73053,4.2869,0.3458,20.876,129.8,-3.9531,1.3177,-1.5735,-5.2708,6.0751e-13,-0.78675,0,0,0.125,-0,-0,0.66667
0.43929,0.37989,3.5143,-0.18017,-12.308,180.92,1.6884,-0.56281,-1.8862,2.2512,-2.0473e-13,-0.94309,0,0,0.125,-0,-0,0.66667
0.87473,0.45892,6.9978,-0.061626,-1.1993,11.698,1.15,-0.38333,-1.9893,1.5333,-4.872e-09,-0.99464,0,0,0.125,-1.1842e-15,0,0.66667
0.66072,0.46659,5.2858,-0.050122,-2.3808,73.545,0.70649,-0.2355,-1.991,0.94198,1.0802e-13,-0.99549,0,0,0.125,1.3323e-15,0,0.66667
0.26079,0.53682,2.0863,0.055233,4.3606,289.5,-0.30729,0.10243,-1.9883,-0.40972,5.7561e-12,-0.99416,0,0,0.125,-0,-0,0.66667
0.21677,0.18658,1.7341,-0.47012,-38.066,318.5,2.174,-0.72467,-1.2163,2.8987,1.2058e-10,-0.60813,0,0,0.125,-3.7007e-16,0,0.66667
0.097323,0.65904,0.77859,0.23855,20.039,399.13,-0.49529,0.1651,-1.798,-0.66039,-1.7561e-08,-0.89902,0,0,0.125,2.9606e-16,0,0.66667
0.46914,0.55838,3.7532,0.087563,5.7771,164.37,-0.87637,0.29212,-1.9761,-1.1685,-3.5633e-13,-0.98803,0,0,0.125,-0,-0,0.66667
0.3498,0.79795,2.7984,0.44692,33.303,233.67,-3.3351,1.1117,-1.2878,-4.4468,7.8537e-13,-0.64389,0,0,0.125,-4.1425e-16,0,0.66667
0.57735,0.45172,4.6188,-0.07242,-4.078,109.57,0.89198,-0.29733,-1.9833,1.1893,4.4409e-15,-0.99164,0,0,0.125,-1.1842e-15,0,0.66667
0.056942,0.55061,0.45554,0.075913,6.413,426.97,-0.092216,0.030739,-1.9777,-0.12295,-2.9403e-08,-0.98887,0,0,0.125,-0,-0,0.66667
0.24992,0.80474,1.9993,0.45711,36.403,296.74,-2.4371,0.81238,-1.2603,-3.2495,4.8532e-12,-0.63014,0,0,0.125,-1.4803e-16,0,0.66667
0.51229,0.63404,4.0984,0.20106,12.545,141.58,-2.1973,0.73244,-1.856,-2.9298,-6.0774e-13,-0.92799,0,0,0.125,-0,-0,0.66667
0.37596,0.96171,3.0077,0.69256,50.686,218.26,-5.5547,1.8516,-0.29681,-7.4062,-7.4163e-13,-0.14841,0,0,0.125,-0,-0,0.66667
0.6269,0.60129,5.0152,0.15194,7.7849,87.49,-2.032,0.67733,-1.9191,-2.7093,-1.1491e-12,-0.95953,0,0,0.125,-0,-0,0.66667
0.37322,0.20451,2.9858,-0.44324,-32.386,219.52,3.5291,-1.1764,-1.3023,4.7054,6.1018e-13,-0.65115,0,0,0.125,5.9212e-16,0,0.66667
0.46031,0.28821,3.6825,-0.31768,-21.213,169.35,3.1196,-1.0399,-1.6394,4.1595,-7.3275e-14,-0.81971,0,0,0.125,-0,-0,0.66667
0.23422,0.70824,1.8737,0.31236,25.042,306.9,-1.5608,0.52025,-1.656,-2.081,-2.7829e-12,-0.82798,0,0,0.125,2.9606e-16,0,0.66667
0.29959,0.60307,2.3967,0.15461,11.923,264.67,-0.98814,0.32938,-1.9152,-1.3175,9.5141e-13,-0.9576,0,0,0.125,5.9212e-16,0,0.66667
0.11528,0.094586,0.92227,-0.60812,-51.082,386.94,1.4956,-0.49854,-0.68465,1.9942,-3.0047e-08,-0.34232,0,0,0.125,-0,-0,0.66667
0.77244,0.28268,6.1795,-0.32598,-11.065,35.54,5.3717,-1.7906,-1.6214,7.1623,-1.6697e-11,-0.81068,0,0,0.125,2.3685e-15,0,0.66667
0.79388,0.78427,6.3511,0.4264,13.285,29.859,-7.2216,2.4072,-1.3543,-9.6288,1.0511e-10,-0.67716,0,0,0.125,2.3685e-15,0,0.66667
0.043936,0.23636,0.35149,-0.39546,-33.514,436,0.37066,-0.12355,-1.4437,0.49422,-2.171e-08,-0.72185,0,0,0.125,-0,-0,0.66667
0.16096,0.63162,1.2877,0.19743,16.303,355.71,-0.67793,0.22598,-1.8605,-0.9039,-1.8141e-09,-0.93025,0,0,0.125,-0,-0,0.66667
0.80286,0.88437,6.4229,0.57656,17.349,27.972,-9.8751,3.2917,-0.8163,-13.167,-1.0927e-10,-0.40815,0,0,0.125,-0,-0,0.66667
0.91048,0.99515,7.2838,0.74272,10.831,8.1082,-14.426,4.8087,-0.038243,-19.235,7.619e-08,-0.019121,0,0,0.125,-2.3685e-15,0,0.66667
0.36919,0.63703,2.9535,0.20554,15.038,221.73,-1.6188,0.53961,-1.8479,-2.1585,-5.9652e-13,-0.92396,0,0,0.125,5.9212e-16,0,0.66667
0.67531,0.033632,5.4025,-0.69955,-32.418,69.034,10.078,-3.3594,-0.26056,13.438,-2.4176e-12,-0.13028,0,0,0.125,2.3685e-15,0,0.66667
0.18999,0.32843,1.5199,-0.25735,-21.036,336.19,1.0431,-0.3477,-1.7646,1.3908,4.1961e-10,-0.88231,0,0,0.125,-2.9606e-16,0,0.66667
0.87123,0.85711,6.9699,0.53567,10.861,13.182,-9.9561,3.3187,-0.9789,-13.275,2.7642e-09,-0.48945,0,0,0.125,1.1842e-15,0,0.66667
0.82471,0.78802,6.5977,0.43203,11.624,22.285,-7.601,2.5337,-1.3362,-10.135,7.5025e-10,-0.66812,0,0,0.125,2.3685e-15,0,0.66667
0.25001,0.37891,2.0001,-0.18163,-14.431,296.52,0.96875,-0.32292,-1.8865,1.2917,-1.6243e-11,-0.94327,0,0,0.125,-0,-0,0.66667
0.59285,0.94613,4.7428,0.66919,36.954,103.37,-8.4636,2.8212,-0.40987,-11.285,-3.0198e-13,-0.20493,0,0,0.125,-0,-0,0.66667
0.73576,0.090402,5.8861,-0.6144,-23.929,47.448,9.6437,-3.2146,-0.66011,12.858,-1.474e-11,-0.33005,0,0,0.125,1.7764e-15,0,0.66667
0.88384,0.16515,7.0707,-0.50228,-9.2173,10.963,9.4706,-3.1569,-1.1011,12.628,-1.0954e-09,-0.55054,0,0,0.125,-0,-0,0.66667
0.46773,0.82289,3.7418,0.48433,32.123,165.52,-4.8327,1.6109,-1.1678,-6.4437,1.124e-12,-0.58389,0,0,0.125,-1.1842e-15,0,0.66667
0.13462,0.68661,1.077,0.27991,23.312,373.61,-0.80388,0.26796,-1.7209,-1.0718,-6.4403e-09,-0.86046,0,0,0.125,-3.7007e-16,0,0.66667
0.1094,0.23772,0.87516,-0.39342,-33.004,390.88,0.91815,-0.30605,-1.4526,1.2242,1.7435e-08,-0.72631,0,0,0.125,1.4803e-16,0,0.66667
0.52968,0.01156,4.2374,-0.73266,-44.96,133.68,8.2789,-2.7596,-0.092547,11.039,1.4939e-12,-0.046273,0,0,0.125,-0,1.3801e-16,0.66667
0.049289,0.51906,0.39431,0.028594,2.4174,432.27,-0.030066,0.010022,-1.9974,-0.040088,-3.1318e-08,-0.99868,0,0,0.125,-0,-0,0.66667
0.6209,0.66251,4.9672,0.24377,12.655,90.142,-3.2289,1.0763,-1.7882,-4.3052,-1.5172e-12,-0.8941,0,0,0.125,-0,-0,0.66667
0.033328,0.056907,0.26663,-0.66464,-56.57,443.38,0.47257,-0.15752,-0.43056,0.63009,-7.7503e-07,-0.21528,0,0,0.125,-3.7007e-17,0,0.66667
0.021184,0.32907,0.16947,-0.2564,-21.738,451.75,0.11587,-0.038624,-1.7644,0.1545,-9.9472e-08,-0.88219,0,0,0.125,3.7007e-17,0,0.66667
0.075209,0.42609,0.60167,-0.11087,-9.3439,414.35,0.17788,-0.059294,-1.9562,0.23718,3.5766e-08,-0.97808,0,0,0.125,-0,-0,0.66667
0.36803,0.49041,2.9442,-0.01438,-1.0525,222.38,0.1129,-0.037634,-1.9973,0.15054,-9.7429e-13,-0.99864,0,0,0.125,-5.9212e-16,0,0.66667
0.38175,0.093219,3.054,-0.61017,-44.36,214.67,4.9693,-1.6564,-0.67562,6.6257,2.4292e-12,-0.33781,0,0,0.125,1.2953e-16,0,0.66667
0.76697,0.43912,6.1358,-0.091327,-3.1564,36.855,1.4943,-0.4981,-1.973,1.9924,-2.6697e-11,-0.98649,0,0,0.125,2.3685e-15,0,0.66667
0.84595,0.37439,6.7676,-0.18842,-4.4692,17.222,3.4003,-1.1334,-1.8757,4.5338,-1.6293e-09,-0.93787,0,0,0.125,4.4409e-16,0,0.66667
0.7272,0.097796,5.8176,-0.60331,-24.133,50.217,9.3595,-3.1198,-0.70453,12.479,9.0061e-12,-0.35226,0,0,0.125,-2.3685e-15,0,0.66667
0.88443,0.38569,7.0755,-0.17147,-3.0918,10.168,3.2353,-1.0784,-1.8935,4.3138,-9.0275e-09,-0.94677,0,0,0.125,-0,-0,0.66667
0.5749,0.039434,4.5992,-0.69085,-39.407,111.68,8.473,-2.8243,-0.30291,11.297,-4.2455e-13,-0.15146,0,0,0.125,-1.1842e-15,-1.1446e-16,0.66667
0.93988,0.11588,7.5191,-0.57618,-5.596,4.2083,11.553,-3.851,-0.82012,15.404,7.314e-08,-0.41006,0,0,0.125,-0,-0,0.66667
0.90679,0.31882,7.2543,-0.27176,-3.984,7.0413,5.2572,-1.7524,-1.7402,7.0096,-2.1568e-08,-0.87011,0,0,0.125,-2.3685e-15,0,0.66667
0.44844,0.65083,3.5875,0.22625,15.304,175.83,-2.1644,0.72147,-1.8173,-2.8859,2.5779e-13,-0.90863,0,0,0.125,-8.8818e-16,0,0.66667
0.47973,0.64494,3.8378,0.21741,14.167,158.72,-2.225,0.74168,-1.8306,-2.9667,-7.3874e-13,-0.91531,0,0,0.125,-0,-0,0.66667
0.85666,0.2846,6.8533,-0.3231,-7.1841,15.299,5.9048,-1.9683,-1.6298,7.873,-4.3709e-09,-0.81489,0,0,0.125,-2.3685e-15,0,0.66667
0.39841,0.34605,3.1872,-0.23092,-16.455,204.42,1.9627,-0.65422,-1.8093,2.6169,8.5798e-13,-0.90467,0,0,0.125,-1.1842e-15,0,0.66667
0.942,0.66282,7.536,0.24423,2.22,3.1092,-4.908,1.636,-1.7871,-6.5439,-1.5439e-08,-0.89356,0,0,0.125,-0,-0,0.66667
0.29331,0.63861,2.3465,0.20792,16.104,268.67,-1.301,0.43367,-1.8456,-1.7347,5.2436e-12,-0.92278,0,0,0.125,-0,-0,0.66667
0.25901,0.26035,2.0721,-0.35948,-28.456,290.77,1.9863,-0.6621,-1.5385,2.6484,-2.094e-11,-0.76927,0,0,0.125,5.9212e-16,0,0.66667
0.10893,0.16492,0.87142,-0.50262,-42.22,391.24,1.168,-0.38933,-1.1044,1.5573,2.3022e-08,-0.55221,0,0,0.125,-0,-0,0.66667
0.24704,0.2299,1.9763,-0.40515,-32.295,298.57,2.1352,-0.71175,-1.4162,2.847,-2.4369e-11,-0.70811,0,0,0.125,5.9212e-16,0,0.66667
0.53775,0.05872,4.302,-0.66192,-40.065,129.47,7.5936,-2.5312,-0.441,10.125,-2.7844e-13,-0.2205,0,0,0.125,5.9212e-16,0,0.66667
0.98024,0.80962,7.8419,0.46443,1.3839,1.2406,-9.712,3.2373,-1.2331,-12.949,-8.6688e-07,-0.61654,0,0,0.125,2.9606e-16,0,0.66667
0.20773,0.99949,1.6618,0.74924,61.175,324.73,-3.3203,1.1068,-0.0042476,-4.427,-6.3523e-11,-0.0021238,0,0,0.125,-4.6259e-17,0,0.66667
0.54702,0.60911,4.3762,0.16367,9.6961,124.11,-1.9099,0.63665,-1.9075,-2.5466,5.2214e-13,-0.95374,0,0,0.125,-1.1842e-15,0,0.66667
0.87839,0.96393,7.0271,0.6959,13.508,12.577,-13.04,4.3468,-0.27831,-17.387,-8.6173e-08,-0.13916,0,0,0.125,5.9212e-16,0,0.66667
0.58966,0.79035,4.7173,0.43552,24.074,104.27,-5.4786,1.8262,-1.3248,-7.3048,-1.5064e-12,-0.66238,0,0,0.125,1.1842e-15,0,0.66667
0.83528,0.30487,6.6822,-0.29269,-7.406,19.628,5.2156,-1.7385,-1.6936,6.9541,-1.6939e-09,-0.84679,0,0,0.125,-5.9212e-16,0,0.66667
0.23929,0.53627,1.9143,0.054402,4.3449,303.5,-0.27771,0.092569,-1.9887,-0.37028,-5.2974e-12,-0.99434,0,0,0.125,-0,-0,0.66667
0.07308,0.85908,0.58464,0.53862,45.565,415.89,-0.83973,0.27991,-0.96683,-1.1196,-6.437e-08,-0.48341,0,0,0.125,-0,-0,0.66667
0.95297,0.91679,7.6237,0.62519,4.7891,3.3439,-12.71,4.2367,-0.61316,-16.947,1.7846e-06,-0.30658,0,0,0.125,-0,1.3236e-16,0.66667
0.11233,0.57609,0.89862,0.11413,9.5516,388.82,-0.2735,0.091167,-1.9534,-0.36467,-5.6321e-09,-0.97671,0,0,0.125,-0,-0,0.66667
0.8024,0.95493,6.4192,0.68239,20.671,28.468,-11.681,3.8937,-0.34249,-15.575,-7.97e-10,-0.17124,0,0,0.125,-0,-0,0.66667
0.65102,0.20137,5.2081,-0.44795,-21.857,77.89,6.2213,-2.0738,-1.2848,8.2951,1.1942e-12,-0.64241,0,0,0.125,-1.1842e-15,0,0.66667
0.86511,0.54174,6.9209,0.062611,1.3079,13.403,-1.1555,0.38518,-1.9843,-1.5407,-6.2995e-10,-0.99215,0,0,0.125,2.3685e-15,0,0.66667
0.62975,0.28445,5.038,-0.32333,-16.495,86.464,4.3438,-1.4479,-1.6279,5.7918,-9.1482e-14,-0.81393,0,0,0.125,-0,-0,0.66667
0.29818,0.96827,2.3854,0.7024,54.559,266.06,-4.4681,1.4894,-0.24873,-5.9574,2.9132e-13,-0.12436,0,0,0.125,-2.4055e-16,0,0.66667
0.93148,0.26834,7.4519,-0.3475,-3.7651,4.3082,6.9053,-2.3018,-1.5687,9.2071,-4.4234e-08,-0.78434,0,0,0.125,-1.1842e-15,0,0.66667
0.6923,0.4791,5.5384,-0.031351,-1.3748,61.494,0.46302,-0.15434,-1.9952,0.61736,1.0688e-12,-0.99758,0,0,0.125,-1.1842e-15,0,0.66667
0.87664,0.56446,7.0131,0.096688,1.8546,11.389,-1.8082,0.60274,-1.969,-2.411,-2.8267e-09,-0.98451,0,0,0.125,-0,-0,0.66667
0.81549,0.062906,6.5239,-0.65564,-18.651,25.148,11.406,-3.8021,-0.47289,15.208,-3.5043e-09,-0.23645,0,0,0.125,-0,-0,0.66667
0.136,0.45519,1.088,-0.067214,-5.5906,372.63,0.19501,-0.065004,-1.9825,0.26002,4.8124e-10,-0.99126,0,0,0.125,-0,-0,0.66667
0.69941,0.6629,5.5953,0.24435,10.524,59.056,-3.646,1.2153,-1.7874,-4.8613,-7.1991e-12,-0.8937,0,0,0.125,-0,-0,0.66667
0.68101,0.63531,5.448,0.20296,9.1774,65.795,-2.9486,0.98288,-1.8516,-3.9315,-4.2737e-12,-0.92579,0,0,0.125,-0,-0,0.66667
0.7558,0.78704,6.0464,0.43056,15.585,40.663,-6.9422,2.3141,-1.3396,-9.2563,-2.4113e-11,-0.66979,0,0,0.125,-0,-0,0.66667
0.79965,0.40427,6.3972,-0.14359,-4.3372,27.901,2.4495,-0.81651,-1.9279,3.266,-5.9837e-11,-0.96393,0,0,0.125,1.6283e-15,0,0.66667
0.94145,0.19147,7.5316,-0.4628,-4.3222,3.6754,9.2949,-3.0983,-1.2384,12.393,-7.7241e-08,-0.6192,0,0,0.125,-2.3685e-15,0,0.66667
0.065147,0.88475,0.52118,0.57712,48.902,421.37,-0.80209,0.26736,-0.81596,-1.0695,-1.2307e-07,-0.40798,0,0,0.125,-0,-0,0.66667
0.50862,0.23227,4.0689,-0.40159,-25.237,143.7,4.3575,-1.4525,-1.4244,5.8099,1.6098e-12,-0.71218,0,0,0.125,-0,-0,0.66667
0.49966,0.59384,3.9973,0.14076,8.9338,148.1,-1.5005,0.50015,-1.9337,-2.0006,-1.7589e-12,-0.96685,0,0,0.125,-0,-0,0.66667
0.70076,0.70143,5.6061,0.30215,12.974,58.649,-4.517,1.5057,-1.6757,-6.0227,-8.177e-12,-0.83783,0,0,0.125,-0,-0,0.66667
0.9956,0.22599,7.9648,-0.41102,-0.13997,0.66107,8.7299,-2.91,-1.3985,11.64,-7.6823e-07,-0.69925,0,0,0.125,-0,-8.7418e-17,0.66667
0.90798,0.076073,7.2638,-0.63589,-9.4226,7.9514,12.317,-4.1058,-0.56317,16.423,-1.9665e-07,-0.28158,0,0,0.125,-0,-0,0.66667
0.29689,0.17247,2.3751,-0.49129,-38.065,266.61,3.1116,-1.0372,-1.1447,4.1488,-6.8974e-12,-0.57235,0,0,0.125,-0,-0,0.66667
0.33575,0.44506,2.686,-0.082416,-6.1925,242.05,0.59032,-0.19677,-1.974,0.7871,-9.5191e-13,-0.987,0,0,0.125,-0,-0,0.66667
0.82017,0.48657,6.5614,-0.020145,-0.55092,22.792,0.35247,-0.11749,-1.9963,0.46996,8.4572e-11,-0.99814,0,0,0.125,-1.1842e-15,0,0.66667
0.36161,0.93164,2.8929,0.64746,47.929,226.78,-4.9948,1.6649,-0.5105,-6.6597,6.3416e-13,-0.25525,0,0,0.125,-0,-0,0.66667
0.32537,0.59323,2.603,0.13985,10.591,248.5,-0.97072,0.32357,-1.9319,-1.2943,8.8313e-13,-0.96597,0,0,0.125,-7.9566e-16,0,0.66667
0.4447,0.12857,3.5576,-0.55714,-37.995,178.32,5.2856,-1.7619,-0.89509,7.0474,-4.2766e-13,-0.44754,0,0,0.125,-0,-0,0.66667
0.27712,0.74117,2.217,0.36175,28.337,279.09,-2.1386,0.71288,-1.5339,-2.8515,8.1435e-12,-0.76694,0,0,0.125,2.9606e-16,0,0.66667
0.74901,0.10613,5.992,-0.59081,-22.001,43.183,9.4404,-3.1468,-0.76064,12.587,6.9713e-12,-0.38032,0,0,0.125,-1.1842e-15,1.4163e-16,0.66667
0.45268,0.27907,3.6214,-0.33139,-22.328,173.57,3.2002,-1.0667,-1.6131,4.267,1.1626e-12,-0.80656,0,0,0.125,-8.8818e-16,0,0.66667
0.16392,0.69707,1.3114,0.29561,24.402,353.73,-1.0338,0.34458,-1.6873,-1.3783,-1.7557e-09,-0.84363,0,0,0.125,-0,-0,0.66667
0.99046,0.051395,7.9237,-0.67291,-1.0137,1.7646,14.218,-4.7395,-0.38812,18.958,-3.0804e-05,-0.19406,0,0,0.125,-0,-0,0.66667
0.338,0.93037,2.704,0.64555,48.696,241.16,-4.6548,1.5516,-0.51682,-6.2064,1.8558e-12,-0.25841,0,0,0.125,-0,-0,0.66667
0.30176,0.57693,2.4141,0.1154,8.8852,263.29,-0.7429,0.24763,-1.9511,-0.99053,-9.9154e-13,-0.97554,0,0,0.125,-0,-0,0.66667
0.22533,0.64868,1.8026,0.22302,17.946,312.71,-1.0721,0.35735,-1.8214,-1.4294,-2.673e-11,-0.91071,0,0,0.125,-2.9606e-16,0,0.66667
0.42574,0.23449,3.406,-0.39826,-27.658,188.78,3.6172,-1.2057,-1.4351,4.8229,-2.9154e-13,-0.71754,0,0,0.125,-0,-0,0.66667
0.69512,0.84104,5.561,0.51156,22.401,61.108,-7.5861,2.5287,-1.0684,-10.115,-7.0033e-12,-0.53419,0,0,0.125,1.8341e-15,0,0.66667
0.60241,0.003976,4.8193,-0.74404,-40.444,99.306,9.5619,-3.1873,-0.030386,12.749,-6.537e-13,-0.015193,0,0,0.125,-0,-0,0.66667
0.18146,0.58104,1.4517,0.12157,9.9631,341.88,-0.47061,0.15687,-1.9455,-0.62747,-4.3466e-10,-0.97274,0,0,0.125,-2.1489e-16,0,0.66667
0.26456,0.74613,2.1165,0.36919,29.136,287.18,-2.0837,0.69457,-1.5179,-2.7783,1.5225e-11,-0.75896,0,0,0.125,7.8326e-17,0,0.66667
0.59825,0.35817,4.786,-0.21275,-11.543,100.08,2.7152,-0.90508,-1.8377,3.6203,-1.2448e-12,-0.91886,0,0,0.125,1.1842e-15,0,0.66667
0.85805,0.25402,6.8644,-0.36897,-8.1413,15.129,6.754,-2.2513,-1.5182,9.0053,-4.4465e-09,-0.75909,0,0,0.125,-0,-0,0.66667
0.41292,0.66773,3.3033,0.2516,17.679,195.99,-2.2163,0.73876,-1.7729,-2.955,-1.3456e-12,-0.88643,0,0,0.125,-0,-0,0.66667
0.21585,0.56912,1.7268,0.10368,8.3761,318.94,-0.47743,0.15914,-1.9621,-0.63658,-6.2989e-12,-0.98105,0,0,0.125,-0,-0,0.66667
0.32339,0.9004,2.5871,0.6006,45.766,250.12,-4.1435,1.3812,-0.7166,-5.5247,-2.4536e-12,-0.3583,0,0,0.125,-5.4866e-16,0,0.66667
0.69169,0.52444,5.5335,0.036663,1.6104,61.719,-0.54101,0.18034,-1.9946,-0.72134,-1.5377e-12,-0.99729,0,0,0.125,-0,-0,0.66667
0.70095,0.91847,5.6076,0.62771,27.137,59.337,-9.3865,3.1288,-0.59953,-12.515,-1.7319e-12,-0.29977,0,0,0.125,-0,-0,0.66667
0.22335,0.13333,1.7868,-0.55001,-44.444,314.21,2.6207,-0.87356,-0.92336,3.4943,-5.8035e-11,-0.46168,0,0,0.125,-0,-0,0.66667
0.3965,0.12683,3.172,-0.55976,-40.112,205.9,4.7347,-1.5782,-0.8853,6.313,2.1574e-12,-0.44265,0,0,0.125,-0,-0,0.66667
0.69933,0.048643,5.5946,-0.67703,-29.446,60.077,10.101,-3.3669,-0.36931,13.468,3.2685e-13,-0.18466,0,0,0.125,-0,1.9199e-16,0.66667
0.72057,0.2263,5.7646,-0.41056,-16.676,51.935,6.3112,-2.1037,-1.4019,8.4149,1.351e-11,-0.70095,0,0,0.125,-0,-0,0.66667
0.13052,0.82631,1.0441,0.48946,40.892,376.48,-1.3628,0.45427,-1.1464,-1.8171,-6.7778e-09,-0.57318,0,0,0.125,-0,-0,0.66667
0.60937,0.96806,4.875,0.70209,37.614,96.099,-9.1272,3.0424,-0.25181,-12.17,-1.2959e-12,-0.12591,0,0,0.125,-2.9606e-16,0,0.66667
0.88607,0.62622,7.0885,0.18934,3.3684,9.9292,-3.579,1.193,-1.8726,-4.772,8.9517e-09,-0.93629,0,0,0.125,-0,-0,0.66667
0.58236,0.70985,4.6589,0.31477,17.6,107.43,-3.9106,1.3035,-1.6468,-5.2142,-4.15e-13,-0.82341,0,0,0.125,-5.9212e-16,0,0.66667
0.30721,0.081108,2.4577,-0.62834,-48.449,260.27,4.118,-1.3727,-0.59454,5.4907,-1.1542e-12,-0.29727,0,0,0.125,-0,-0,0.66667
0.74514,0.96178,5.9611,0.69267,26.23,44.734,-11.011,3.6703,-0.29302,-14.681,-4.6567e-12,-0.14651,0,0,0.125,-1.1842e-15,8.9378e-17,0.66667
0.9777,0.55144,7.8216,0.077155,0.24588,0.61053,-1.6093,0.53642,-1.9768,-2.1457,2.0421e-07,-0.98839,0,0,0.125,1.1842e-15,0,0.66667
0.90462,0.7658,7.237,0.3987,6.0135,7.6048,-7.6943,2.5648,-1.4358,-10.259,2.7637e-08,-0.71789,0,0,0.125,1.1842e-15,0,0.66667
0.8716,0.55652,6.9728,0.084787,1.6898,12.25,-1.5766,0.52552,-1.9744,-2.1021,2.3811e-09,-0.98722,0,0,0.125,1.1842e-15,0,0.66667
0.00029225,0.37539,0.002338,-0.18692,-15.848,466.24,0.0011653,-0.00038851,-1.8799,0.0015537,-1.1767e-07,-0.93996,0,0,0.125,-0,-0,0.66667
0.58262,0.84825,4.6609,0.52237,29.288,107.68,-6.4926,2.1642,-1.0293,-8.6568,-1.8208e-14,-0.51465,0,0,0.125,-0,-0,0.66667
0.26272,0.06977,2.1018,-0.64535,-51.171,288.63,3.617,-1.2057,-0.51945,4.8226,7.1951e-12,-0.25973,0,0,0.125,5.9212e-16,1.1371e-16,0.66667
0.81301,0.72228,6.504,0.33342,9.4896,24.823,-5.7828,1.9276,-1.608,-7.7104,4.8495e-10,-0.80401,0,0,0.125,-0,-0,0.66667
0.52348,0.22613,4.1878,-0.4108,-25.281,136.11,4.5877,-1.5292,-1.3981,6.1169,1.4655e-14,-0.69907,0,0,0.125,-0,-0,0.66667
0.8939,0.33131,7.1512,-0.25303,-4.2079,8.819,4.8252,-1.6084,-1.7719,6.4336,-1.4931e-08,-0.88594,0,0,0.125,1.1842e-15,0,0.66667
0.52374,0.36309,4.19,-0.20536,-12.606,135.74,2.2946,-0.76486,-1.8478,3.0594,-1.4184e-12,-0.92392,0,0,0.125,5.9212e-16,0,0.66667
0.89114,0.12556,7.1291,-0.56165,-9.7234,10.03,10.678,-3.5592,-0.88222,14.237,1.2997e-08,-0.44111,0,0,0.125,-2.3685e-15,0,0.66667
0.44972,0.2729,3.5978,-0.34065,-23.032,175.22,3.2683,-1.0894,-1.5871,4.3577,9.4302e-13,-0.79356,0,0,0.125,5.9212e-16,0,0.66667
0.5615,0.42539,4.492,-0.11191,-6.4751,117.07,1.3406,-0.44685,-1.9572,1.7874,9.2715e-13,-0.9786,0,0,0.125,-0,-0,0.66667
0.81248,0.84382,6.4999,0.51573,14.799,25.397,-8.9392,2.9797,-1.0589,-11.919,-2.6077e-10,-0.52944,0,0,0.125,2.3685e-15,0,0.66667
0.40317,0.14155,3.2254,-0.53767,-38.271,201.97,4.6245,-1.5415,-0.97174,6.166,6.426e-13,-0.48587,0,0,0.125,-0,-0,0.66667
0.56867,0.74954,4.5493,0.37432,21.448,113.92,-4.5411,1.5137,-1.5014,-6.0547,-6.7235e-13,-0.75068,0,0,0.125,4.4409e-16,0,0.66667
0.89846,0.012079,7.1877,-0.73188,-12.019,9.662,14.028,-4.676,-0.093247,18.704,-7.4569e-08,-0.046623,0,0,0.125,-0,-0,0.66667
0.48462,0.68094,3.877,0.27141,17.583,156.14,-2.806,0.93533,-1.7412,-3.7413,-2.7089e-13,-0.87062,0,0,0.125,8.8818e-16,0,0.66667
0.59059,0.70032,4.7247,0.30048,16.55,103.64,-3.7858,1.2619,-1.6786,-5.0478,-1.0127e-12,-0.83928,0,0,0.125,-0,-0,0.66667
0.93638,0.18917,7.491,-0.46624,-4.7345,4.1493,9.3136,-3.1045,-1.23,12.418,-1.0611e-07,-0.61499,0,0,0.125,-0,-0,0.66667
0.88325,0.71393,7.066,0.3209,5.8677,10.589,-6.0466,2.0155,-1.6324,-8.0621,1.2283e-08,-0.8162,0,0,0.125,-5.9212e-16,0,0.66667
0.75772,0.44919,6.0618,-0.076217,-2.7258,39.598,1.232,-0.41068,-1.9771,1.6427,3.805e-12,-0.98857,0,0,0.125,-1.1842e-15,0,0.66667
0.71123,0.3525,5.6898,-0.22125,-9.2117,54.843,3.357,-1.119,-1.824,4.476,7.9023e-12,-0.91199,0,0,0.125,-0,-0,0.66667
0.8192,0.10243,6.5536,-0.59635,-16.61,24.057,10.422,-3.474,-0.73365,13.896,2.0182e-09,-0.36683,0,0,0.125,-0,-0,0.66667
0.10608,0.27711,0.84865,-0.33433,-28.052,393.14,0.75662,-0.25221,-1.6029,1.0088,1.9103e-08,-0.80146,0,0,0.125,-3.7007e-17,0,0.66667
0.38103,0.26441,3.0483,-0.35338,-25.617,214.76,2.8726,-0.95752,-1.554,3.8301,8.8396e-13,-0.77698,0,0,0.125,-0,-0,0.66667
0.54579,0.42325,4.3663,-0.11512,-6.8317,124.69,1.3404,-0.44681,-1.9544,1.7872,1.7686e-13,-0.97722,0,0,0.125,-0,-0,0.66667
0.85851,0.27145,6.8681,-0.34283,-7.5346,14.984,6.2789,-2.093,-1.5842,8.3718,-4.7471e-09,-0.79208,0,0,0.125,1.1842e-15,0,0.66667
0.1464,0.84828,1.1712,0.52243,43.468,365.7,-1.6317,0.54389,-1.0285,-2.1756,-1.0865e-09,-0.51425,0,0,0.125,-5.9212e-16,0,0.66667
0.71404,0.54564,5.7123,0.06846,2.8238,53.756,-1.0428,0.34761,-1.9819,-1.3904,-2.8881e-12,-0.99093,0,0,0.125,-1.1842e-15,0,0.66667
0.59097,0.2553,4.7277,-0.36705,-20.22,103.56,4.6275,-1.5425,-1.5216,6.17,1.5636e-12,-0.76079,0,0,0.125,-1.1842e-15,0,0.66667
0.60872,0.12504,4.8698,-0.56243,-30.067,96.004,7.3038,-2.4346,-0.87903,9.7384,6.3904e-13,-0.43952,0,0,0.125,-0,8.4308e-19,0.66667
0.37262,0.0050429,2.981,-0.74244,-54.549,220.35,5.9018,-1.9673,-0.041135,7.869,1.4144e-12,-0.020567,0,0,0.125,-0,8.0132e-17,0.66667
0.91582,0.18974,7.3266,-0.46539,-6.2376,6.3609,9.0926,-3.0309,-1.2291,12.123,-3.7566e-08,-0.61456,0,0,0.125,-2.3685e-15,0,0.66667
0.71391,0.00034991,5.7112,-0.74948,-31.359,55.216,11.414,-3.8048,-0.0028773,15.219,2.0535e-12,-0.0014387,0,0,0.125,-0,-0,0.66667
0.6683,0.3937,5.3464,-0.15944,-7.4403,70.625,2.2732,-0.75773,-1.9089,3.0309,1.8667e-12,-0.95445,0,0,0.125,-0,-0,0.66667
0.22147,0.53332,1.7717,0.049978,4.0266,315.22,-0.23613,0.078709,-1.9923,-0.31484,-2.7957e-11,-0.99616,0,0,0.125,-5.9212e-16,0,0.66667
0.81288,0.28447,6.503,-0.32329,-9.2051,24.836,5.6063,-1.8688,-1.6319,7.4751,-4.9023e-10,-0.81594,0,0,0.125,-0,-0,0.66667
0.49585,0.80812,3.9668,0.46219,29.576,150.44,-4.8891,1.6297,-1.2402,-6.5188,-1.6178e-12,-0.6201,0,0,0.125,-0,-0,0.66667
0.50837,0.49238,4.067,-0.011432,-0.71675,143.53,0.12398,-0.041328,-1.9977,0.16531,-8.9115e-13,-0.99885,0,0,0.125,-2.9606e-16,0,0.66667
0.084733,0.15079,0.67787,-0.52381,-44.221,407.86,0.94687,-0.31562,-1.023,1.2625,1.0544e-08,-0.51149,0,0,0.125,-7.4015e-17,0,0.66667
0.43727,0.60212,3.4981,0.15318,10.487,182.04,-1.4289,0.47631,-1.9195,-1.9052,-1.2621e-12,-0.95977,0,0,0.125,-0,-0,0.66667
0.8632,0.82505,6.9056,0.48757,10.44,14.473,-8.9786,2.9929,-1.1539,-11.971,5.232e-09,-0.57693,0,0,0.125,-2.3685e-15,0,0.66667
0.68024,0.2775,5.4419,-0.33375,-15.146,66.255,4.8433,-1.6144,-1.6027,6.4577,3.3471e-12,-0.80133,0,0,0.125,5.9212e-16,0,0.66667
0.18942,0.26118,1.5154,-0.35823,-29.311,336.62,1.4476,-0.48255,-1.5445,1.9302,4.0214e-10,-0.77225,0,0,0.125,-2.9606e-16,0,0.66667
0.58407,0.23967,4.6726,-0.3905,-21.789,106.75,4.8657,-1.6219,-1.456,6.4876,3.3307e-13,-0.728,0,0,0.125,-0,-0,0.66667
0.94401,0.98578,7.5521,0.72866,6.7445,4.5171,-14.674,4.8915,-0.11002,-19.566,-2.522e-06,-0.05501,0,0,0.125,1.1842e-15,0,0.66667
0.50746,0.85823,4.0597,0.53735,33.893,144.52,-5.8172,1.9391,-0.97107,-7.7563,-1.4166e-13,-0.48553,0,0,0.125,-0,-0,0.66667
0.9674,0.60625,7.7392,0.15938,0.78343,1.1743,-3.2892,1.0964,-1.911,-4.3856,-6.004e-08,-0.95551,0,0,0.125,-0,-0,0.66667
0.36627,0.70819,2.9301,0.31228,22.922,223.56,-2.4401,0.81335,-1.6512,-3.2534,-2.1116e-13,-0.82561,0,0,0.125,2.9606e-16,0,0.66667
0.29075,0.73922,2.326,0.35882,27.87,270.39,-2.2256,0.74188,-1.5403,-2.9675,6.2428e-12,-0.77015,0,0,0.125,-0,-0,0.66667
0.83985,0.49044,6.7188,-0.014336,-0.35209,18.39,0.25685,-0.085617,-1.9985,0.34247,-2.0047e-10,-0.99926,0,0,0.125,-0,-0,0.66667
0.86973,0.26113,6.9578,-0.3583,-7.2861,12.956,6.648,-2.216,-1.5419,8.864,-7.3432e-09,-0.77096,0,0,0.125,-0,-0,0.66667
0.20167,0.75065,1.6133,0.37597,30.614,328.46,-1.6175,0.53917,-1.5001,-2.1567,-1.4651e-10,-0.75006,0,0,0.125,-0,-0,0.66667
0.71945,0.51063,5.7556,0.015949,0.64721,51.886,-0.24479,0.081595,-2.0013,-0.32638,-3.3119e-12,-1.0006,0,0,0.125,2.3685e-15,0,0.66667
0.59211,0.84253,4.7369,0.51379,28.313,103.32,-6.49,2.1633,-1.0638,-8.6534,-3.0331e-13,-0.53189,0,0,0.125,-1.4063e-15,0,0.66667
0.89451,0.93034,7.1561,0.64551,10.911,9.8502,-12.318,4.1061,-0.51798,-16.424,-2.2744e-07,-0.25899,0,0,0.125,1.1842e-15,0,0.66667
0.14945,0.91249,1.1956,0.61873,51.504,363.69,-1.9726,0.65754,-0.63722,-2.6302,5.5196e-09,-0.31861,0,0,0.125,-0,-0,0.66667
0.76303,0.2317,6.1042,-0.40244,-14.18,38.433,6.5509,-2.1836,-1.4242,8.7346,1.1601e-11,-0.7121,0,0,0.125,-0,-0,0.66667
0.68996,0.26555,5.5196,-0.35167,-15.564,62.658,5.1763,-1.7254,-1.5604,6.9017,4.7042e-12,-0.78021,0,0,0.125,-0,-0,0.66667
0.79502,0.1713,6.3601,-0.49305,-15.318,29.735,8.3624,-2.7875,-1.1364,11.15,-5.0247e-11,-0.56818,0,0,0.125,-0,-0,0.66667
0.45329,0.7585,3.6263,0.38774,26.123,173.3,-3.7495,1.2498,-1.4685,-4.9994,-9.4169e-13,-0.73424,0,0,0.125,-0,-0,0.66667
0.22843,0.5811,1.8274,0.12165,9.7698,310.64,-0.59281,0.1976,-1.9454,-0.79041,-1.1515e-11,-0.97272,0,0,0.125,-0,-0,0.66667
0.28605,0.91735,2.2884,0.62602,48.938,273.65,-3.8203,1.2734,-0.60518,-5.0937,2.3068e-12,-0.30259,0,0,0.125,-0,-0,0.66667
0.3043,0.45483,2.4344,-0.06775,-5.2068,261.68,0.43982,-0.14661,-1.9814,0.58643,-3.1645e-12,-0.9907,0,0,0.125,-0,-0,0.66667
0.84027,0.44294,6.7221,-0.085587,-2.0976,18.323,1.5342,-0.5114,-1.974,2.0456,-7.8978e-10,-0.98699,0,0,0.125,-0,-0,0.66667
0.53716,0.36892,4.2973,-0.19662,-11.83,129,2.2531,-0.75103,-1.8612,3.0041,3.304e-13,-0.9306,0,0,0.125,8.8818e-16,0,0.66667
0.56358,0.94969,4.5087,0.67454,39.203,116.96,-8.1101,2.7034,-0.38384,-10.813,1.3189e-12,-0.19192,0,0,0.125,-1.1842e-15,0,0.66667
0.28417,0.072337,2.2733,-0.64149,-50.22,274.87,3.8889,-1.2963,-0.53681,5.1852,-5.1497e-12,-0.26841,0,0,0.125,-0,-0,0.66667
0.83416,0.37351,6.6733,-0.18973,-4.8212,19.724,3.3763,-1.1254,-1.8714,4.5018,-1.6577e-09,-0.93569,0,0,0.125,1.4803e-15,0,0.66667
0.70493,0.97027,5.6394,0.7054,30.235,58.182,-10.608,3.5361,-0.23295,-14.144,-2.8155e-13,-0.11648,0,0,0.125,-0,-0,0.66667
0.87814,0.99427,7.0251,0.7414,14.47,12.823,-13.889,4.6297,-0.045826,-18.519,-1.658e-08,-0.022913,0,0,0.125,-1.1842e-15,0,0.66667
0.13153,0.58815,1.0522,0.13222,11.013,375.69,-0.371,0.12367,-1.9364,-0.49466,-3.3841e-09,-0.96819,0,0,0.125,-1.4803e-16,0,0.66667
0.8496,0.42671,6.7968,-0.10994,-2.547,16.409,1.9926,-0.6642,-1.9552,2.6568,-8.3281e-10,-0.97761,0,0,0.125,-0,-0,0.66667
0.052112,0.35642,0.4169,-0.21536,-18.212,430.32,0.23943,-0.079809,-1.8334,0.31923,-4.9183e-08,-0.9167,0,0,0.125,7.4015e-17,0,0.66667
0.87713,0.71102,7.017,0.31654,6.0782,11.589,-5.9231,1.9744,-1.6446,-7.8974,9.8988e-09,-0.82232,0,0,0.125,5.9212e-16,0,0.66667
0.23974,0.65169,1.9179,0.22753,18.18,303.24,-1.1637,0.3879,-1.815,-1.5516,2.3215e-13,-0.90749,0,0,0.125,-1.4803e-16,0,0.66667
0.88566,0.19819,7.0853,-0.45272,-8.1612,10.525,8.5538,-2.8513,-1.2698,11.405,-1.3103e-08,-0.63491,0,0,0.125,-0,-0,0.66667
0.37931,0.60389,3.0345,0.15584,11.298,215.65,-1.261,0.42034,-1.9126,-1.6814,2.5623e-12,-0.9563,0,0,0.125,-1.1842e-15,0,0.66667
0.84292,0.60335,6.7433,0.15503,3.7432,17.815,-2.7878,0.92927,-1.9166,-3.7171,1.927e-09,-0.95832,0,0,0.125,-0,-0,0.66667
0.53961,0.25804,4.3169,-0.36294,-21.79,127.96,4.1781,-1.3927,-1.5298,5.5707,-2.7534e-13,-0.76489,0,0,0.125,-1.1842e-15,0,0.66667
0.56418,0.19308,4.5134,-0.46038,-26.614,116.19,5.541,-1.847,-1.248,7.388,-1.5525e-12,-0.62401,0,0,0.125,1.1842e-15,0,0.66667
0.98402,0.10745,7.8722,-0.58883,-1.4612,1.5676,12.361,-4.1203,-0.76967,16.481,-7.1698e-07,-0.38484,0,0,0.125,-2.3685e-15,1.4577e-16,0.66667
0.96375,0.83041,7.71,0.49562,2.848,2.139,-10.19,3.3967,-1.125,-13.587,7.2949e-08,-0.56251,0,0,0.125,1.1842e-15,0,0.66667
0.11432,0.097176,0.91459,-0.60424,-50.764,387.59,1.4737,-0.49123,-0.7013,1.9649,-2.0408e-08,-0.35065,0,0,0.125,2.9606e-16,0,0.66667
0.36415,0.51586,2.9132,0.023785,1.7467,224.71,-0.18478,0.061592,-1.9965,-0.24637,-1.4636e-12,-0.99824,0,0,0.125,-0,-0,0.66667
0.25055,0.26194,2.0044,-0.35709,-28.398,296.26,1.9087,-0.63622,-1.5489,2.5449,-1.7714e-11,-0.77445,0,0,0.125,-0,-0,0.66667
0.4483,0.24406,3.5864,-0.3839,-26.011,176.06,3.6715,-1.2238,-1.4751,4.8953,1.4322e-13,-0.73754,0,0,0.125,8.8818e-16,0,0.66667
0.12635,0.2501,1.0108,-0.37485,-31.313,379.28,1.0104,-0.33681,-1.5033,1.3472,8.9499e-09,-0.75167,0,0,0.125,-0,-0,0.66667
0.51157,0.74802,4.0925,0.37203,23.275,142.13,-4.0601,1.3534,-1.5081,-5.4135,-2.105e-13,-0.75404,0,0,0.125,-1.4803e-16,0,0.66667
0.86558,0.36385,6.9247,-0.20423,-4.26,13.434,3.7713,-1.2571,-1.8498,5.0284,-5.9768e-09,-0.92488,0,0,0.125,-0,-0,0.66667
0.35235,0.12157,2.8188,-0.56765,-42.284,232.27,4.267,-1.4223,-0.85309,5.6893,-2.7116e-12,-0.42654,0,0,0.125,-7.4015e-16,0,0.66667
0.15564,0.32128,1.2451,-0.26808,-22.185,359.33,0.8901,-0.2967,-1.7469,1.1868,2.4701e-09,-0.87346,0,0,0.125,-0,-0,0.66667
0.30726,0.72654,2.4581,0.33981,26.102,259.93,-2.2274,0.74248,-1.5881,-2.9699,3.2991e-12,-0.79406,0,0,0.125,-0,-0,0.66667
0.74287,0.56136,5.943,0.092041,3.4669,44.202,-1.4587,0.48622,-1.9691,-1.9449,-3.0249e-12,-0.98454,0,0,0.125,-0,-0,0.66667
0.091276,0.13024,0.73021,-0.55464,-46.788,403.37,1.08,-0.36,-0.9071,1.44,6.2303e-08,-0.45355,0,0,0.125,-2.9606e-16,0,0.66667
0.73558,0.53741,5.8847,0.056109,2.1647,46.528,-0.88049,0.2935,-1.9909,-1.174,-7.2922e-12,-0.99543,0,0,0.125,2.3685e-15,0,0.66667
0.61392,0.7415,4.9114,0.36226,19.1,93.322,-4.7445,1.5815,-1.5324,-6.3259,-1.7799e-12,-0.76618,0,0,0.125,-0,-0,0.66667
0.74026,0.93412,5.9221,0.65118,25.024,46.129,-10.284,3.4279,-0.49137,-13.711,5.7447e-12,-0.24568,0,0,0.125,5.9212e-16,0,0.66667
0.0090497,0.26556,0.072398,-0.35167,-29.846,460.17,0.067893,-0.022631,-1.5581,0.090524,2.7611e-07,-0.77906,0,0,0.125,1.8504e-17,0,0.66667
0.72047,0.90883,5.7638,0.61324,25.048,52.502,-9.4255,3.1418,-0.66494,-12.567,-9.9512e-12,-0.33247,0,0,0.125,2.3685e-15,0,0.66667
0.32058,0.86544,2.5647,0.54817,41.82,251.8,-3.749,1.2497,-0.92957,-4.9986,8.9928e-14,-0.46478,0,0,0.125,-2.9606e-16,0,0.66667
0.63297,0.80922,5.0638,0.46383,23.555,85.355,-6.2633,2.0878,-1.2338,-8.3511,-1.7857e-12,-0.61691,0,0,0.125,1.874e-16,0,0.66667
0.053837,0.48802,0.43069,-0.017965,-1.5181,429.12,0.020634,-0.0068781,-1.9967,0.027511,-3.7155e-07,-0.99835,0,0,0.125,-7.4015e-17,0,0.66667
0.55643,0.78756,4.4515,0.43133,25.243,119.85,-5.1202,1.7067,-1.3371,-6.8269,3.6726e-13,-0.66853,0,0,0.125,-0,-0,0.66667
0.9416,0.29454,7.5328,-0.30819,-2.8327,3.2629,6.1907,-2.0636,-1.6612,8.2542,6.6978e-09,-0.8306,0,0,0.125,-0,-0,0.66667
0.32009,0.57024,2.5607,0.10537,8.0097,251.78,-0.71948,0.23983,-1.9587,-0.95931,-1.8418e-12,-0.97933,0,0,0.125,-0,-0,0.66667
0.52274,0.47237,4.1819,-0.041452,-2.5466,136.17,0.46226,-0.15409,-1.9926,0.61635,-1.8258e-12,-0.99632,0,0,0.125,-0,-0,0.66667
0.40771,0.63552,3.2617,0.20328,14.353,198.97,-1.7681,0.58937,-1.8544,-2.3575,1.0689e-12,-0.9272,0,0,0.125,-1.1842e-15,0,0.66667
0.56965,0.35774,4.5572,-0.21339,-12.186,113.26,2.5932,-0.8644,-1.8359,3.4576,6.9855e-13,-0.91793,0,0,0.125,-1.1842e-15,0,0.66667
0.068319,0.51919,0.54655,0.028778,2.4275,419.1,-0.041943,0.013981,-1.9952,-0.055925,-4.3547e-08,-0.99759,0,0,0.125,1.4803e-16,0,0.66667
0.36188,0.86321,2.895,0.54482,40.253,226.47,-4.2061,1.402,-0.94482,-5.6081,6.6125e-13,-0.47241,0,0,0.125,5.9212e-16,0,0.66667
0.52066,0.050126,4.1653,-0.67481,-41.899,138.07,7.4954,-2.4985,-0.37934,9.9938,3.6153e-12,-0.18967,0,0,0.125,-1.2087e-15,0,0.66667
0.084824,0.046696,0.6786,-0.67996,-57.535,407.85,1.2304,-0.41015,-0.35393,1.6406,-3.3872e-07,-0.17696,0,0,0.125,1.4803e-16,0,0.66667
0.46765,0.22172,3.7412,-0.41742,-27.662,165.46,4.1644,-1.3881,-1.3831,5.5525,-1.4326e-12,-0.69156,0,0,0.125,1.1842e-15,0,0.66667
0.77223,0.17722,6.1778,-0.48416,-16.513,35.952,7.9762,-2.6587,-1.1645,10.635,4.9245e-12,-0.58227,0,0,0.125,1.1842e-15,0,0.66667
0.443,0.71653,3.544,0.32479,22.123,178.95,-3.0695,1.0232,-1.6243,-4.0927,5.3224e-13,-0.81216,0,0,0.125,7.4015e-16,0,0.66667
0.39093,0.36022,3.1274,-0.20967,-15.045,208.8,1.7486,-0.58286,-1.8462,2.3314,-1.498e-12,-0.9231,0,0,0.125,5.9212e-16,0,0.66667
0.27288,0.33928,2.183,-0.24107,-18.914,281.75,1.4034,-0.46779,-1.792,1.8712,-1.2573e-11,-0.89598,0,0,0.125,-4.4409e-16,0,0.66667
0.051852,0.1545,0.41481,-0.51826,-43.948,430.54,0.57328,-0.19109,-1.0447,0.76437,7.6922e-08,-0.52237,0,0,0.125,9.2519e-17,0,0.66667
0.76182,0.7215,6.0946,0.33225,11.741,38.651,-5.3998,1.7999,-1.6077,-7.1997,-8.8174e-12,-0.80386,0,0,0.125,2.3685e-15,0,0.66667
0.48578,0.75677,3.8862,0.38515,24.945,155.66,-3.9914,1.3305,-1.4743,-5.3219,2.2204e-16,-0.73716,0,0,0.125,-0,-0,0.66667
0.16135,0.88404,1.2908,0.57606,47.74,355.62,-1.9829,0.66095,-0.81871,-2.6438,-1.0719e-09,-0.40936,0,0,0.125,-0,-0,0.66667
0.066079,0.95797,0.52863,0.68696,58.3,420.76,-0.96839,0.3228,-0.32147,-1.2912,-1.0108e-07,-0.16074,0,0,0.125,-7.4015e-17,0,0.66667
0.7579,0.037452,6.0632,-0.69382,-25.139,40.825,11.218,-3.7394,-0.28671,14.957,-2.3317e-11,-0.14335,0,0,0.125,-0,-0,0.66667
0.58841,0.78504,4.7073,0.42755,23.684,104.83,-5.367,1.789,-1.3492,-7.156,-2.5713e-13,-0.67462,0,0,0.125,-0,-0,0.66667
0.55876,0.074462,4.4701,-0.63831,-37.36,119.17,7.6088,-2.5363,-0.55055,10.145,-2.6343e-12,-0.27527,0,0,0.125,1.1842e-15,5.6392e-17,0.66667
0.20632,0.73958,1.6506,0.35938,29.2,325.35,-1.5818,0.52728,-1.5405,-2.1091,-1.3681e-10,-0.77025,0,0,0.125,-0,-0,0.66667
0.59434,0.29369,4.7547,-0.30947,-16.93,101.95,3.9239,-1.308,-1.6617,5.2318,-2.7445e-13,-0.83085,0,0,0.125,-0,-0,0.66667
0.93421,0.46812,7.4737,-0.047826,-0.49152,3.643,0.95316,-0.31772,-1.9929,1.2709,-1.9966e-08,-0.99644,0,0,0.125,1.3323e-15,0,0.66667
0.72548,0.45783,5.8038,-0.063254,-2.5201,49.861,0.97897,-0.32632,-1.9837,1.3053,2.9408e-12,-0.99186,0,0,0.125,-0,-0,0.66667
0.5866,0.51537,4.6928,0.023059,1.2772,105.28,-0.28856,0.096186,-1.9958,-0.38474,-2.6237e-13,-0.99792,0,0,0.125,-0,-0,0.66667
0.8653,0.82494,6.9224,0.48742,10.287,14.089,-8.9975,2.9992,-1.1534,-11.997,5.9043e-09,-0.57668,0,0,0.125,-0,-0,0.66667
0.99657,0.72698,7.9726,0.34047,0.041331,0.4577,-7.2384,2.4128,-1.5876,-9.6512,4.9193e-07,-0.79378,0,0,0.125,-0,-1.0266e-17,0.66667
0.86511,0.50145,6.9209,0.0021719,0.04536,13.392,-0.040085,0.013362,-1.9995,-0.053446,9.5954e-09,-0.99973,0,0,0.125,-0,-0,0.66667
0.17918,0.052346,1.4335,-0.67148,-55.382,343.69,2.5668,-0.85559,-0.39477,3.4224,2.0123e-09,-0.19739,0,0,0.125,-0,-0,0.66667
0.69466,0.17494,5.5573,-0.48758,-21.365,61.215,7.2257,-2.4086,-1.1525,9.6343,4.1505e-12,-0.57625,0,0,0.125,-1.1842e-15,0,0.66667
0.29623,0.45335,2.3698,-0.069972,-5.4065,266.78,0.44219,-0.1474,-1.9847,0.58959,-2.8014e-12,-0.99234,0,0,0.125,5.9212e-16,0,0.66667
0.059534,0.045189,0.47627,-0.68222,-57.941,425.27,0.86645,-0.28882,-0.3449,1.1553,-4.7575e-06,-0.17245,0,0,0.125,-0,-0,0.66667
0.10804,0.69653,0.86435,0.29479,24.717,391.78,-0.67948,0.22649,-1.6926,-0.90597,-1.6958e-08,-0.8463,0,0,0.125,-0,-0,0.66667
0.76279,0.29964,6.1024,-0.30054,-10.576,38.308,4.8906,-1.6302,-1.6787,6.5208,4.9023e-12,-0.83936,0,0,0.125,1.1842e-15,0,0.66667
