xi,eta,X,Y,uX,uY,epsilon_X,epsilon_Y,gamma_XY,sigma_XX,sigma_YY,sigma_XY,fx,fy,dxidx,dxidy,detadx,detady,
0.41702,0.7655,1.2511,0.39825,3.781,12.423,-1.3286,0.44287,-1.4354,-1.7715,3.0043e-13,-0.71769,0,0,0.33333,7.8949e-16,0,0.66667
0.72032,0.30817,2.161,-0.28774,-1.5182,3.8215,1.6581,-0.55271,-1.7062,2.2108,-6.5721e-11,-0.85308,0,0,0.33333,-0,-0,0.66667
0.00011437,0.73538,0.00034312,0.35307,4.0765,28.245,-0.00032304,0.0001077,-1.5567,-0.00043072,2.2356e-08,-0.77834,0,0,0.33333,-0,-0,0.66667
0.30233,0.8122,0.907,0.4683,4.9392,16.501,-1.1327,0.37755,-1.2212,-1.5102,-3.0778e-11,-0.61058,0,0,0.33333,-5.6745e-16,0,0.66667
0.14676,0.23669,0.44027,-0.39496,-4.4709,22.412,0.4637,-0.15457,-1.4446,0.61827,2.5702e-10,-0.72231,0,0,0.33333,1.9737e-16,0,0.66667
0.092339,0.062824,0.27702,-0.65576,-7.712,24.596,0.48442,-0.16147,-0.47233,0.64589,8.4172e-08,-0.23617,0,0,0.33333,3.9475e-16,0,0.66667
0.18626,0.62204,0.55878,0.18307,2.0202,20.839,-0.27278,0.090928,-1.8817,-0.36371,4.1795e-11,-0.94084,0,0,0.33333,-0,-0,0.66667
0.34556,0.94394,1.0367,0.66591,6.9544,15.041,-1.8409,0.61363,-0.42356,-2.4545,1.0991e-13,-0.21178,0,0,0.33333,-0,-0,0.66667
0.39677,0.34766,1.1903,-0.22851,-2.1895,13.057,0.72532,-0.24177,-1.8145,0.96709,2.7838e-12,-0.90726,0,0,0.33333,-0,-0,0.66667
0.53882,0.43363,1.6165,-0.099561,-0.79081,8.4469,0.42916,-0.14305,-1.9649,0.57221,-4.7296e-14,-0.98245,0,0,0.33333,1.9737e-16,0,0.66667
0.41919,0.27723,1.2576,-0.33416,-3.149,12.324,1.1206,-0.37354,-1.6034,1.4942,2.5879e-13,-0.80171,0,0,0.33333,-3.9475e-16,0,0.66667
0.68522,0.69207,2.0557,0.28811,1.6908,4.6065,-1.5794,0.52645,-1.7053,-2.1058,3.1859e-11,-0.85264,0,0,0.33333,-0,-0,0.66667
0.20445,0.18359,0.61336,-0.47461,-5.2912,20.185,0.77628,-0.25876,-1.1998,1.035,3.4397e-10,-0.59988,0,0,0.33333,-0,-0,0.66667
0.87812,0.73211,2.6344,0.34817,0.79706,1.173,-2.4459,0.81529,-1.5685,-3.2612,1.759e-10,-0.78424,0,0,0.33333,-0,-0,0.66667
0.027388,0.7503,0.082163,0.37544,4.3378,27.153,-0.08226,0.02742,-1.4998,-0.10968,-1.9813e-09,-0.74992,0,0,0.33333,-0,-0,0.66667
0.67047,0.45507,2.0114,-0.067393,-0.40618,4.8845,0.36148,-0.12049,-1.9836,0.48197,-7.8704e-12,-0.99178,0,0,0.33333,-4.5011e-18,0,0.66667
0.4173,0.75403,1.2519,0.38104,3.6113,12.406,-1.2721,0.42403,-1.484,-1.6961,2.3204e-14,-0.74201,0,0,0.33333,1.579e-15,0,0.66667
0.55869,0.15501,1.6761,-0.51748,-4.1134,8.0549,2.3129,-0.77097,-1.0487,3.0839,1.0698e-12,-0.52434,0,0,0.33333,1.0856e-15,0,0.66667
0.14039,0.66052,0.42116,0.24078,2.7064,22.643,-0.27042,0.090139,-1.7946,-0.36056,1.0444e-09,-0.89732,0,0,0.33333,-0,-0,0.66667
0.1981,0.29391,0.5943,-0.30913,-3.4143,20.395,0.48992,-0.16331,-1.6596,0.65322,2.1385e-10,-0.82978,0,0,0.33333,-0,-0,0.66667
0.80074,0.44476,2.4022,-0.082854,-0.30901,2.1885,0.53076,-0.17692,-1.9755,0.70768,-1.1837e-10,-0.98773,0,0,0.33333,1.579e-15,0,0.66667
0.96826,0.8319,2.9048,0.49785,0.21076,0.49075,-3.8564,1.2855,-1.1187,-5.1418,6.5227e-10,-0.55934,0,0,0.33333,-1.579e-15,0,0.66667
0.31342,0.90051,0.94027,0.60077,6.3754,16.155,-1.5064,0.50212,-0.71716,-2.0085,-5.6558e-12,-0.35858,0,0,0.33333,5.9212e-16,0,0.66667
0.69232,0.31828,2.077,-0.27258,-1.5652,4.4346,1.5097,-0.50324,-1.7358,2.013,-3.6696e-11,-0.86789,0,0,0.33333,-1.579e-15,0,0.66667
0.87639,0.17908,2.6292,-0.48138,-1.1747,1.3235,3.375,-1.125,-1.1761,4.5,-2.5844e-09,-0.58807,0,0,0.33333,-0,-0,0.66667
0.89461,0.45874,2.6838,-0.061888,-0.11243,0.83832,0.44292,-0.14764,-1.986,0.59056,1.6557e-08,-0.99298,0,0,0.33333,-0,-0,0.66667
0.085044,0.67898,0.25513,0.26847,3.0618,24.843,-0.18266,0.060885,-1.7433,-0.24354,5.5274e-10,-0.87164,0,0,0.33333,-9.8686e-17,0,0.66667
0.039055,0.41442,0.11716,-0.12837,-1.4654,26.68,0.040107,-0.013369,-1.941,0.053476,-4.4031e-08,-0.97049,0,0,0.33333,-0,-0,0.66667
0.16983,0.056519,0.50949,-0.66522,-7.6696,21.573,0.9038,-0.30127,-0.42684,1.2051,-5.018e-11,-0.21342,0,0,0.33333,1.0056e-16,-2.4435e-16,0.66667
0.87814,0.85403,2.6344,0.53104,1.304,1.3609,-3.7306,1.2435,-0.99697,-4.9742,1.3654e-09,-0.49848,0,0,0.33333,-0,-0,0.66667
0.098347,0.88562,0.29504,0.57843,6.7373,24.347,-0.4551,0.1517,-0.80985,-0.6068,-1.0132e-08,-0.40493,0,0,0.33333,-0,-0,0.66667
0.42111,0.88824,1.2633,0.58236,5.6141,12.387,-1.9619,0.65396,-0.79399,-2.6158,1.0651e-12,-0.397,0,0,0.33333,-7.8949e-16,3.8553e-16,0.66667
0.95789,0.4772,2.8737,-0.034205,-0.013935,0.2434,0.26212,-0.087372,-1.9955,0.34949,7.8739e-09,-0.99775,0,0,0.33333,-0,-0,0.66667
0.53317,0.77997,1.5995,0.41995,3.4387,8.7342,-1.7912,0.59707,-1.374,-2.3883,-8.3467e-13,-0.687,0,0,0.33333,1.9737e-16,0,0.66667
0.69188,0.39922,2.0756,-0.15117,-0.86107,4.3974,0.83673,-0.27891,-1.9186,1.1156,-2.5208e-11,-0.9593,0,0,0.33333,1.1842e-15,0,0.66667
0.31552,0.26626,0.94655,-0.35062,-3.6287,15.979,0.885,-0.295,-1.5624,1.18,3.074e-11,-0.78119,0,0,0.33333,-3.9475e-16,0,0.66667
0.6865,0.27109,2.0595,-0.34337,-2.0202,4.6087,1.8858,-0.6286,-1.5807,2.5144,-3.259e-11,-0.79037,0,0,0.33333,7.8949e-16,0,0.66667
0.83463,0.64719,2.5039,0.22078,0.6862,1.6874,-1.4742,0.49139,-1.8262,-1.9656,-1.1661e-11,-0.9131,0,0,0.33333,-7.8949e-16,0,0.66667
0.018288,0.040255,0.054865,-0.68962,-8.2105,27.526,0.10089,-0.033631,-0.30889,0.13452,-2.5585e-07,-0.15444,0,0,0.33333,-0,-0,0.66667
0.75014,0.38441,2.2504,-0.17338,-0.81406,3.1522,1.0405,-0.34682,-1.8933,1.3873,-6.916e-11,-0.94664,0,0,0.33333,1.579e-15,0,0.66667
0.98886,0.68293,2.9666,0.27439,-0.065687,0.15106,-2.1707,0.72356,-1.7325,-2.8942,-1.6016e-08,-0.86624,0,0,0.33333,-1.579e-15,0,0.66667
0.74817,0.69364,2.2445,0.29045,1.3904,3.2459,-1.7385,0.57949,-1.7003,-2.318,1.0636e-10,-0.85014,0,0,0.33333,-0,-0,0.66667
0.28044,0.87009,0.84133,0.55513,5.9912,17.342,-1.2455,0.41515,-0.90487,-1.6606,-3.2627e-11,-0.45243,0,0,0.33333,5.608e-16,-2.1899e-16,0.66667
0.78928,0.78155,2.3678,0.42232,1.7425,2.5695,-2.6666,0.88888,-1.3667,-3.5555,2.8563e-10,-0.68334,0,0,0.33333,-0,-0,0.66667
0.10323,0.17645,0.30968,-0.48532,-5.5973,24.141,0.40078,-0.13359,-1.1619,0.53438,1.3908e-09,-0.58095,0,0,0.33333,-0,-0,0.66667
0.44789,0.24052,1.3437,-0.38921,-3.5677,11.391,1.3946,-0.46487,-1.4609,1.8595,-7.9614e-13,-0.73045,0,0,0.33333,3.9475e-16,0,0.66667
0.9086,0.94322,2.7258,0.66483,1.3087,1.2155,-4.8325,1.6108,-0.42866,-6.4434,6.2246e-08,-0.21433,0,0,0.33333,-0,-0,0.66667
0.29361,0.66536,0.88084,0.24804,2.5911,16.76,-0.58264,0.19421,-1.781,-0.77685,-4.6863e-11,-0.89049,0,0,0.33333,-0,-0,0.66667
0.28778,0.26459,0.86333,-0.35312,-3.7262,17.001,0.81295,-0.27098,-1.5559,1.0839,5.8202e-11,-0.77793,0,0,0.33333,3.9475e-16,0,0.66667
0.13003,0.17012,0.39009,-0.49481,-5.6744,23.085,0.51472,-0.17157,-1.1288,0.68629,2.3022e-09,-0.56438,0,0,0.33333,-0,-0,0.66667
0.019367,0.14803,0.058101,-0.52795,-6.1776,27.478,0.081798,-0.027266,-1.0087,0.10906,6.1204e-08,-0.50437,0,0,0.33333,-0,-0,0.66667
0.67884,0.90997,2.0365,0.61495,3.8613,5.023,-3.3396,1.1132,-0.65559,-4.4528,2.9654e-12,-0.32779,0,0,0.33333,-0,-0,0.66667
0.21163,0.77616,0.63488,0.41424,4.5803,19.894,-0.70132,0.23377,-1.3899,-0.93509,-2.7297e-10,-0.69493,0,0,0.33333,1.2531e-16,0,0.66667
0.26555,0.28807,0.79664,-0.3179,-3.3937,17.822,0.67533,-0.22511,-1.6411,0.90045,8.9475e-11,-0.82056,0,0,0.33333,-0,-0,0.66667
0.49157,0.74725,1.4747,0.37088,3.2117,9.9798,-1.4585,0.48617,-1.5113,-1.9447,1.8441e-13,-0.75564,0,0,0.33333,3.9475e-16,0,0.66667
0.053363,0.86256,0.16009,0.54385,6.3571,26.125,-0.23217,0.077389,-0.94765,-0.30956,-4.5493e-08,-0.47383,0,0,0.33333,-1.6188e-16,0,0.66667
0.57412,0.61368,1.7224,0.17051,1.2774,7.4348,-0.78316,0.26105,-1.8961,-1.0442,5.7804e-13,-0.94806,0,0,0.33333,-0,-0,0.66667
0.14673,0.9395,0.44019,0.65924,7.6532,22.467,-0.77384,0.25795,-0.45526,-1.0318,-1.5271e-09,-0.22763,0,0,0.33333,-0,-0,0.66667
0.58931,0.60561,1.7679,0.15841,1.1525,7.006,-0.74683,0.24894,-1.9102,-0.99578,1.3328e-12,-0.9551,0,0,0.33333,-0,-0,0.66667
0.69976,0.10229,2.0993,-0.59657,-3.5256,4.5285,3.3396,-1.1132,-0.73437,4.4528,-1.0234e-11,-0.36719,0,0,0.33333,-0,-0,0.66667
0.10233,0.98938,0.307,0.73408,8.6987,24.217,-0.60097,0.20032,-0.083395,-0.80129,3.8028e-08,-0.041697,0,0,0.33333,1.9737e-16,0,0.66667
0.41406,0.98682,1.2422,0.73022,7.2382,12.73,-2.4188,0.80628,-0.10331,-3.2251,5.9064e-14,-0.051656,0,0,0.33333,-7.8949e-16,0,0.66667
0.6944,0.90075,2.0832,0.60113,3.6098,4.653,-3.3394,1.1131,-0.7151,-4.4525,7.6674e-12,-0.35755,0,0,0.33333,-1.1842e-15,0,0.66667
0.41418,0.73179,1.2425,0.34769,3.2973,12.499,-1.152,0.38401,-1.5694,-1.5361,-2.961e-13,-0.78471,0,0,0.33333,-0,-0,0.66667
0.049953,0.96362,0.14986,0.69543,8.2675,26.273,-0.27791,0.092637,-0.28068,-0.37055,-2.0039e-07,-0.14034,0,0,0.33333,9.8686e-17,0,0.66667
0.5359,0.99431,1.6077,0.74146,6.3325,8.9198,-3.1788,1.0596,-0.045261,-4.2384,-1.3634e-13,-0.022631,0,0,0.33333,1.1842e-15,0,0.66667
0.66379,0.020758,1.9914,-0.71886,-4.7913,5.4994,3.8174,-1.2725,-0.16199,5.0899,1.0125e-13,-0.080995,0,0,0.33333,-0,-0,0.66667
0.51489,0.16433,1.5447,-0.50351,-4.2789,9.3378,2.074,-0.69133,-1.0988,2.7653,5.036e-13,-0.54939,0,0,0.33333,-1.579e-15,0,0.66667
0.94459,0.88471,2.8338,0.57707,0.60875,0.76335,-4.3608,1.4536,-0.8154,-5.8144,-1.552e-08,-0.4077,0,0,0.33333,1.579e-15,0,0.66667
0.58656,0.11667,1.7597,-0.575,-4.3878,7.3214,2.6982,-0.89939,-0.824,3.5975,1.0862e-12,-0.412,0,0,0.33333,-0,-0,0.66667
0.9034,0.45466,2.7102,-0.068006,-0.1107,0.74122,0.4915,-0.16383,-1.9831,0.65533,4.619e-09,-0.99153,0,0,0.33333,-0,-0,0.66667
0.13747,0.83135,0.41242,0.49702,5.6889,22.793,-0.54662,0.18221,-1.1212,-0.72883,-2.2471e-09,-0.5606,0,0,0.33333,1.9737e-16,0,0.66667
0.13928,0.69424,0.41783,0.29136,3.2842,22.692,-0.32464,0.10821,-1.6984,-0.43285,-4.4622e-10,-0.8492,0,0,0.33333,-0,-0,0.66667
0.80739,0.69526,2.4222,0.29288,1.0787,2.1607,-1.8918,0.63059,-1.6947,-2.5224,2.0626e-10,-0.84735,0,0,0.33333,-0,-0,0.66667
0.39768,0.57866,1.193,0.11799,1.1248,13.006,-0.37537,0.12512,-1.9497,-0.5005,-1.9502e-12,-0.97485,0,0,0.33333,-7.8949e-16,0,0.66667
0.16535,0.083831,0.49606,-0.62425,-7.1743,21.735,0.82578,-0.27526,-0.61386,1.101,8.4168e-10,-0.30693,0,0,0.33333,-0,-0,0.66667
0.92751,0.26774,2.7825,-0.34839,-0.42479,0.6428,2.5851,-0.8617,-1.5677,3.4468,4.9935e-09,-0.78385,0,0,0.33333,1.579e-15,0,0.66667
0.34777,0.76325,1.0433,0.39487,3.9989,14.829,-1.0986,0.3662,-1.445,-1.4648,-1.0997e-11,-0.7225,0,0,0.33333,7.8949e-16,0,0.66667
0.75081,0.874,2.2524,0.56101,2.7929,3.4238,-3.3697,1.1232,-0.88224,-4.4929,8.1662e-11,-0.44112,0,0,0.33333,2.1711e-15,0,0.66667
0.726,0.49922,2.178,-0.0011652,-0.0059319,3.6204,0.0067677,-0.0022559,-2.0007,0.0090236,1.5376e-12,-1.0004,0,0,0.33333,1.579e-15,0,0.66667
0.88331,0.57864,2.6499,0.11796,0.24398,0.9835,-0.83356,0.27785,-1.9497,-1.1114,-1.8531e-09,-0.97486,0,0,0.33333,-0,-0,0.66667
0.62367,0.62708,1.871,0.19062,1.2937,6.0885,-0.9511,0.31703,-1.8718,-1.2681,5.4826e-12,-0.93589,0,0,0.33333,-0,-0,0.66667
0.75094,0.38512,2.2528,-0.17233,-0.80658,3.1359,1.0353,-0.34509,-1.8944,1.3803,-6.9444e-11,-0.94719,0,0,0.33333,-0,-0,0.66667
0.3489,0.51957,1.0467,0.029352,0.29226,14.717,-0.081928,0.027309,-1.9963,-0.10924,-2.315e-12,-0.99816,0,0,0.33333,-0,-0,0.66667
0.26993,0.39182,0.80978,-0.16228,-1.7152,17.631,0.35042,-0.11681,-1.9057,0.46723,5.1005e-11,-0.95286,0,0,0.33333,3.9475e-16,0,0.66667
0.89589,0.25282,2.6877,-0.37077,-0.71481,0.98338,2.6574,-0.88579,-1.5116,3.5431,1.1941e-09,-0.75581,0,0,0.33333,-3.158e-15,0,0.66667
0.42809,0.5703,1.2843,0.10546,0.97326,11.967,-0.36116,0.12039,-1.9601,-0.48155,-4.9194e-13,-0.98005,0,0,0.33333,7.8949e-16,0,0.66667
0.96484,0.92833,2.8945,0.64249,0.43289,0.72445,-4.9592,1.6531,-0.53195,-6.6123,-2.4572e-07,-0.26597,0,0,0.33333,-0,-0,0.66667
0.66344,0.16741,1.9903,-0.49889,-3.1894,5.2708,2.6479,-0.88262,-1.1144,3.5305,-8.2105e-12,-0.55719,0,0,0.33333,-1.579e-15,0,0.66667
0.6217,0.76088,1.8651,0.39132,2.7148,6.2372,-1.9463,0.64876,-1.4551,-2.595,3.3196e-12,-0.72755,0,0,0.33333,-0,-0,0.66667
0.11475,0.42252,0.34424,-0.11621,-1.31,23.652,0.10668,-0.03556,-1.9512,0.14224,-2.4284e-09,-0.97562,0,0,0.33333,-0,-0,0.66667
0.94949,0.59068,2.8485,0.13602,0.083996,0.3284,-1.0332,0.3444,-1.9347,-1.3776,-3.7827e-08,-0.96736,0,0,0.33333,-1.9737e-15,0,0.66667
0.44991,0.59821,1.3497,0.14731,1.3273,11.247,-0.53023,0.17674,-1.9232,-0.70697,-1.5932e-14,-0.96158,0,0,0.33333,-0,-0,0.66667
0.57839,0.016081,1.7352,-0.72588,-5.7698,7.698,3.3587,-1.1196,-0.12645,4.4783,1.1702e-13,-0.063225,0,0,0.33333,-0,-0,0.66667
0.40814,0.79667,1.2244,0.44501,4.2824,12.746,-1.453,0.48433,-1.2955,-1.9373,4.5663e-13,-0.64775,0,0,0.33333,-0,-0,0.66667
0.23703,0.047652,0.71108,-0.67852,-7.613,19.015,1.2866,-0.42888,-0.36256,1.7155,2.0099e-11,-0.18128,0,0,0.33333,-0,-0,0.66667
0.90338,0.069426,2.7101,-0.64586,-1.328,1.2383,4.6677,-1.5559,-0.51686,6.2235,-1.2421e-08,-0.25843,0,0,0.33333,-0,2.9178e-16,0.66667
0.57368,0.45803,1.721,-0.062959,-0.47039,7.4281,0.28894,-0.096315,-1.9854,0.38526,-2.9657e-13,-0.9927,0,0,0.33333,-7.8949e-16,0,0.66667
0.0028703,0.76336,0.008611,0.39504,4.5739,28.135,-0.0090712,0.0030237,-1.4446,-0.012095,-1.726e-08,-0.72232,0,0,0.33333,-0,-0,0.66667
0.61714,0.86404,1.8514,0.54606,3.9073,6.4759,-2.696,0.89866,-0.93914,-3.5946,-4.5897e-13,-0.46957,0,0,0.33333,-0,-0,0.66667
0.32664,0.70793,0.97993,0.31189,3.1929,15.563,-0.81502,0.27167,-1.654,-1.0867,-2.4057e-11,-0.82698,0,0,0.33333,-0,-0,0.66667
0.52706,0.94802,1.5812,0.67203,5.7468,9.1102,-2.8336,0.94452,-0.39377,-3.7781,-2.5269e-13,-0.19689,0,0,0.33333,1.579e-15,0,0.66667
0.88594,0.046994,2.6578,-0.67951,-1.683,1.4807,4.816,-1.6053,-0.35759,6.4214,-6.0405e-10,-0.17879,0,0,0.33333,1.579e-15,0,0.66667
0.35727,0.87399,1.0718,0.56098,5.7284,14.567,-1.6034,0.53446,-0.88213,-2.1378,-8.8218e-13,-0.44107,0,0,0.33333,-2.4672e-16,-3.6961e-16,0.66667
0.90854,0.80798,2.7256,0.46198,0.8005,0.93925,-3.3578,1.1193,-1.2416,-4.477,6.2228e-09,-0.62079,0,0,0.33333,1.9737e-15,0,0.66667
0.62336,0.040489,1.8701,-0.68927,-4.9947,6.4613,3.4373,-1.1458,-0.31072,4.5831,2.7933e-13,-0.15536,0,0,0.33333,-0,-0,0.66667
0.015821,0.82076,0.047464,0.48114,5.6071,27.618,-0.060898,0.020299,-1.1772,-0.081197,2.096e-08,-0.58858,0,0,0.33333,-0,-0,0.66667
0.92944,0.52135,2.7883,0.032029,0.033682,0.47619,-0.23815,0.079384,-1.9958,-0.31753,3.4028e-08,-0.99788,0,0,0.33333,-0,-0,0.66667
0.6909,0.64605,2.0727,0.21908,1.2572,4.4431,-1.2109,0.40363,-1.829,-1.6145,3.2118e-11,-0.91449,0,0,0.33333,-7.8949e-16,0,0.66667
0.99732,0.52553,2.992,0.038299,-0.019821,0.013586,-0.30557,0.10186,-1.995,-0.40743,4.4868e-06,-0.9975,0,0,0.33333,-0,-0,0.66667
0.17234,0.77014,0.51702,0.40521,4.5508,21.412,-0.55868,0.18623,-1.4162,-0.7449,-4.7528e-10,-0.70808,0,0,0.33333,-1.9737e-16,0,0.66667
0.13714,0.44245,0.41141,-0.086328,-0.96676,22.763,0.094709,-0.03157,-1.9737,0.12628,3.6563e-09,-0.98686,0,0,0.33333,3.9475e-16,0,0.66667
0.9326,0.1066,2.7978,-0.5901,-0.7913,0.87935,4.4026,-1.4675,-0.76124,5.8701,-4.6311e-08,-0.38062,0,0,0.33333,-0,-0,0.66667
0.69682,0.7649,2.0905,0.39735,2.2862,4.4099,-2.215,0.73834,-1.4379,-2.9534,3.8335e-11,-0.71893,0,0,0.33333,-0,-0,0.66667
0.066,0.68562,0.198,0.27842,3.1865,25.604,-0.14701,0.049003,-1.7251,-0.19601,2.3715e-10,-0.86255,0,0,0.33333,1.3569e-16,0,0.66667
0.75546,0.78652,2.2664,0.42977,2.0455,3.2026,-2.5974,0.86581,-1.3433,-3.4632,1.4452e-10,-0.67163,0,0,0.33333,-0,-0,0.66667
0.75388,0.82434,2.2616,0.48651,2.3558,3.2858,-2.9342,0.97806,-1.1579,-3.9122,1.2702e-10,-0.57894,0,0,0.33333,-0,-0,0.66667
0.92302,0.66459,2.7691,0.24688,0.31012,0.60999,-1.823,0.60767,-1.7834,-2.4307,-1.3606e-08,-0.89169,0,0,0.33333,-0,-0,0.66667
0.71152,0.45153,2.1346,-0.072711,-0.38878,3.9388,0.41389,-0.13796,-1.9804,0.55185,-1.8141e-11,-0.99021,0,0,0.33333,-0,-0,0.66667
0.12427,0.41282,0.37281,-0.13077,-1.471,23.274,0.13,-0.043335,-1.9396,0.17334,5.1511e-09,-0.96978,0,0,0.33333,-3.9475e-16,0,0.66667
0.01988,0.41813,0.05964,-0.12281,-1.4034,27.45,0.019531,-0.0065106,-1.9458,0.026041,-4.7025e-07,-0.97291,0,0,0.33333,-4.9343e-17,0,0.66667
0.026211,0.61218,0.078633,0.16828,1.9247,27.196,-0.035285,0.011762,-1.8987,-0.047047,-1.9034e-07,-0.94933,0,0,0.33333,-0,-0,0.66667
0.028306,0.29358,0.084919,-0.30963,-3.5627,27.115,0.070116,-0.023372,-1.6587,0.093487,1.4422e-09,-0.82934,0,0,0.33333,-0,-0,0.66667
0.24621,0.89366,0.73863,0.59049,6.5254,18.634,-1.1631,0.3877,-0.75968,-1.5508,-6.4942e-11,-0.37984,0,0,0.33333,3.9475e-16,0,0.66667
0.86003,0.69778,2.5801,0.29667,0.78088,1.3682,-2.0412,0.68039,-1.6871,-2.7216,1.5809e-10,-0.84353,0,0,0.33333,-0,-0,0.66667
0.53883,0.42705,1.6165,-0.10943,-0.8694,8.448,0.47171,-0.15724,-1.9568,0.62894,5.3874e-14,-0.9784,0,0,0.33333,-7.8949e-16,0,0.66667
0.55282,0.46517,1.6585,-0.052249,-0.40504,8.0283,0.23107,-0.077025,-1.9905,0.3081,3.4472e-14,-0.99527,0,0,0.33333,-9.8686e-16,0,0.66667
0.84203,0.49463,2.5261,-0.008057,-0.023429,1.5225,0.054274,-0.018091,-2.0001,0.072366,9.5209e-10,-1.0001,0,0,0.33333,-3.9475e-16,0,0.66667
0.12417,0.052057,0.37252,-0.67191,-7.8613,23.35,0.66747,-0.22249,-0.39474,0.88996,6.0826e-09,-0.19737,0,0,0.33333,-0,-0,0.66667
0.27918,0.28218,0.83755,-0.32673,-3.4608,17.314,0.72975,-0.24325,-1.6215,0.973,7.0613e-11,-0.81076,0,0,0.33333,-7.8949e-16,0,0.66667
0.58576,0.087677,1.7573,-0.61848,-4.7598,7.3837,2.8983,-0.96609,-0.63974,3.8644,8.7841e-13,-0.31987,0,0,0.33333,3.9475e-16,0,0.66667
0.9696,0.42581,2.9088,-0.11128,-0.01648,0.17817,0.8632,-0.28773,-1.9558,1.1509,5.2467e-07,-0.97792,0,0,0.33333,-0,-0,0.66667
0.56103,0.82255,1.6831,0.48383,3.8137,7.9627,-2.1716,0.72385,-1.1676,-2.8954,-1.1378e-12,-0.58378,0,0,0.33333,-0,-0,0.66667
0.018647,0.95834,0.055942,0.68752,8.1833,27.511,-0.10256,0.034187,-0.31902,-0.13675,7.1402e-07,-0.15951,0,0,0.33333,-0,-0,0.66667
0.80063,0.53649,2.4019,0.054737,0.20403,2.1863,-0.35059,0.11686,-1.9895,-0.46746,-5.0619e-11,-0.99474,0,0,0.33333,-1.579e-15,0,0.66667
0.23297,0.36165,0.69892,-0.20753,-2.2434,19.038,0.38679,-0.12893,-1.8466,0.51572,1.0174e-10,-0.92329,0,0,0.33333,3.9475e-16,0,0.66667
0.80711,0.7965,2.4213,0.44475,1.6922,2.286,-2.8717,0.95722,-1.296,-3.8289,4.1456e-10,-0.64798,0,0,0.33333,-0,-0,0.66667
0.38786,0.95404,1.1636,0.68106,6.8735,13.579,-2.1132,0.70441,-0.35029,-2.8177,3.8614e-13,-0.17515,0,0,0.33333,-7.8949e-16,-3.934e-16,0.66667
0.86354,0.49395,2.5906,-0.0090723,-0.022388,1.2199,0.062674,-0.020891,-1.9997,0.083566,-8.0925e-09,-0.99985,0,0,0.33333,-7.8949e-16,0,0.66667
0.74712,0.21536,2.2414,-0.42696,-2.0953,3.3644,2.5519,-0.85064,-1.3524,3.4026,-1.21e-10,-0.67618,0,0,0.33333,2.2119e-16,0,0.66667
0.55624,0.57963,1.6687,0.11945,0.92198,7.9371,-0.53153,0.17718,-1.9485,-0.70871,9.0317e-14,-0.97425,0,0,0.33333,7.8949e-16,0,0.66667
0.13646,0.13934,0.40937,-0.54099,-6.2197,22.841,0.59057,-0.19686,-0.95874,0.78743,1.317e-09,-0.47937,0,0,0.33333,1.9737e-16,0,0.66667
0.059918,0.79638,0.17975,0.44457,5.1474,25.857,-0.2131,0.071033,-1.2968,-0.28413,1.8209e-09,-0.6484,0,0,0.33333,-0,-0,0.66667
0.12134,0.67439,0.36403,0.26159,2.9589,23.398,-0.25394,0.084647,-1.7561,-0.33859,1.8367e-10,-0.87807,0,0,0.33333,-1.9737e-16,0,0.66667
0.044552,0.78309,0.13366,0.42464,4.9172,26.469,-0.15135,0.050449,-1.3598,-0.2018,-5.1383e-09,-0.67988,0,0,0.33333,-0,-0,0.66667
0.10749,0.66305,0.32248,0.24457,2.7735,23.947,-0.21032,0.070107,-1.7875,-0.28043,5.5592e-09,-0.89374,0,0,0.33333,3.9475e-16,0,0.66667
0.22571,0.069303,0.67713,-0.64604,-7.2604,19.429,1.1665,-0.38885,-0.51574,1.5554,5.3761e-11,-0.25787,0,0,0.33333,-0,-0,0.66667
0.71299,0.38368,2.139,-0.17448,-0.93311,3.9305,0.99521,-0.33174,-1.8913,1.3269,-4.127e-11,-0.94567,0,0,0.33333,-0,-0,0.66667
0.55972,0.083583,1.6792,-0.62462,-5.0356,8.1168,2.7969,-0.9323,-0.61248,3.7292,6.4371e-13,-0.30624,0,0,0.33333,-7.8949e-16,-5.2625e-16,0.66667
0.012556,0.90984,0.037668,0.61475,7.2582,27.751,-0.061752,0.020584,-0.65675,-0.082336,-4.2895e-07,-0.32837,0,0,0.33333,4.9343e-17,-4.6975e-16,0.66667
0.071974,0.96087,0.21592,0.69131,8.1921,25.403,-0.39805,0.13268,-0.3004,-0.53074,-1.9592e-07,-0.1502,0,0,0.33333,4.9343e-17,0,0.66667
0.96728,0.87002,2.9018,0.55503,0.28232,0.5745,-4.2949,1.4316,-0.90516,-5.7265,3.0566e-09,-0.45258,0,0,0.33333,1.1842e-15,0,0.66667
0.5681,0.29118,1.7043,-0.31323,-2.3948,7.6584,1.4236,-0.47452,-1.6506,1.8981,2.6967e-13,-0.82531,0,0,0.33333,-0,-0,0.66667
0.20329,0.30427,0.60988,-0.29359,-3.2325,20.192,0.47749,-0.15916,-1.6938,0.63665,1.9167e-10,-0.84689,0,0,0.33333,-0,-0,0.66667
0.25233,0.6315,0.75698,0.19724,2.1091,18.3,-0.39816,0.13272,-1.8618,-0.53087,-7.6857e-11,-0.9309,0,0,0.33333,-0,-0,0.66667
0.74383,0.86372,2.2315,0.54558,2.7748,3.5447,-3.2465,1.0822,-0.94101,-4.3287,7.1476e-11,-0.47051,0,0,0.33333,-7.8949e-16,0,0.66667
0.19543,0.70603,0.58629,0.30905,3.4173,20.498,-0.48318,0.16106,-1.6597,-0.64423,-2.2101e-10,-0.82983,0,0,0.33333,1.9737e-16,0,0.66667
0.58136,0.27133,1.7441,-0.34301,-2.5667,7.2993,1.5953,-0.53177,-1.5813,2.1271,-5.1625e-14,-0.79066,0,0,0.33333,-0,-0,0.66667
0.97002,0.50071,2.9101,0.0010632,0.0001322,0.15945,-0.0082506,0.0027447,-2.0012,-0.011004,-8.2404e-06,-1.0006,0,0,0.33333,-0,-0,0.66667
0.84683,0.79527,2.5405,0.4429,1.3352,1.6739,-3.0005,1.0002,-1.302,-4.0006,8.4287e-10,-0.65101,0,0,0.33333,-1.579e-15,0,0.66667
0.23985,0.60418,0.71954,0.15627,1.6802,18.77,-0.29985,0.099951,-1.9126,-0.3998,-7.3843e-11,-0.95631,0,0,0.33333,-0,-0,0.66667
0.49377,0.38588,1.4813,-0.17118,-1.4587,9.8397,0.67618,-0.22539,-1.8952,0.90158,-2.6923e-14,-0.94759,0,0,0.33333,-7.8949e-16,0,0.66667
0.61996,0.74546,1.8599,0.36819,2.5571,6.2682,-1.8261,0.6087,-1.5181,-2.4348,3.561e-12,-0.75907,0,0,0.33333,-0,-0,0.66667
0.82898,0.13694,2.4869,-0.54459,-1.8939,2.0475,3.6117,-1.2039,-0.94535,4.8156,-7.5637e-10,-0.47267,0,0,0.33333,-1.579e-15,0,0.66667
0.15679,0.99325,0.47037,0.73987,8.6486,22.1,-0.92804,0.30935,-0.054039,-1.2374,-1.0772e-09,-0.02702,0,0,0.33333,9.8686e-17,0,0.66667
0.018576,0.083942,0.055729,-0.62409,-7.3745,27.512,0.092747,-0.030915,-0.61487,0.12366,3.3858e-07,-0.30744,0,0,0.33333,-0,-0,0.66667
0.070022,0.79263,0.21007,0.43894,5.0731,25.454,-0.24588,0.081961,-1.3143,-0.32784,7.3184e-09,-0.65714,0,0,0.33333,-1.9737e-16,0,0.66667
0.48635,0.22987,1.459,-0.4052,-3.5449,10.162,1.5765,-0.52551,-1.416,2.1021,-3.022e-13,-0.70798,0,0,0.33333,-0,-0,0.66667
0.60633,0.37903,1.819,-0.18145,-1.2772,6.5468,0.88014,-0.29338,-1.8833,1.1735,-3.078e-12,-0.94167,0,0,0.33333,1.579e-15,0,0.66667
0.56885,0.14636,1.7066,-0.53046,-4.151,7.7761,2.414,-0.80467,-0.99896,3.2187,1.197e-12,-0.49948,0,0,0.33333,-7.8949e-16,0,0.66667
0.31736,0.37352,0.95209,-0.18972,-1.9437,15.875,0.48167,-0.16056,-1.8727,0.64223,2.4872e-11,-0.93636,0,0,0.33333,-9.8686e-17,0,0.66667
0.98862,0.025421,2.9658,-0.71187,-0.15223,0.72101,5.6301,-1.8767,-0.19821,7.5068,-2.7916e-06,-0.099105,0,0,0.33333,-1.579e-15,0,0.66667
0.57975,0.7844,1.7392,0.4266,3.2302,7.3942,-1.9785,0.65951,-1.3537,-2.638,-7.7771e-13,-0.67684,0,0,0.33333,-1.579e-15,0,0.66667
0.38014,0.34034,1.1404,-0.2395,-2.3332,13.638,0.72834,-0.24278,-1.7964,0.97112,5.3e-12,-0.89819,0,0,0.33333,-9.8686e-17,0,0.66667
0.55095,0.34642,1.6528,-0.23037,-1.8036,8.1202,1.0154,-0.33846,-1.8118,1.3538,1.5632e-13,-0.90592,0,0,0.33333,-0,-0,0.66667
0.74533,0.65726,2.236,0.23588,1.1342,3.2742,-1.4065,0.46883,-1.803,-1.8753,8.6588e-11,-0.90148,0,0,0.33333,-0,-0,0.66667
0.66923,0.98039,2.0077,0.72058,4.7419,5.3735,-3.8579,1.286,-0.15346,-5.1438,-1.0547e-13,-0.076729,0,0,0.33333,-0,-0,0.66667
0.26492,0.49757,0.79476,-0.0036445,-0.038536,17.81,0.0077241,-0.0025747,-2.001,0.010299,5.534e-12,-1.0005,0,0,0.33333,-9.8686e-17,0,0.66667
0.066335,0.40013,0.199,-0.1498,-1.7058,25.586,0.079497,-0.026499,-1.9202,0.106,-2.268e-08,-0.96011,0,0,0.33333,-0,-0,0.66667
0.37008,0.11586,1.1103,-0.57621,-5.8297,14.126,1.706,-0.56865,-0.81909,2.2746,-1.0514e-13,-0.40954,0,0,0.33333,-3.9475e-16,0,0.66667
0.62972,0.21454,1.8892,-0.4282,-2.9324,6.0543,2.1571,-0.71905,-1.3483,2.8762,-3.6844e-12,-0.67415,0,0,0.33333,-3.9475e-16,0,0.66667
0.21017,0.31647,0.63052,-0.2753,-3.0187,19.923,0.46288,-0.15429,-1.7307,0.61718,1.5555e-10,-0.86534,0,0,0.33333,-0,-0,0.66667
0.75276,0.78244,2.2583,0.42366,2.0349,3.2502,-2.5513,0.85043,-1.3628,-3.4017,1.3693e-10,-0.68139,0,0,0.33333,-3.158e-15,0,0.66667
0.066536,0.79272,0.19961,0.43907,5.0772,25.593,-0.23372,0.077905,-1.314,-0.31162,8.7594e-09,-0.65701,0,0,0.33333,-0,-0,0.66667
0.26032,0.77512,0.78095,0.41268,4.4488,18.043,-0.85942,0.28647,-1.3944,-1.1459,-1.0395e-10,-0.69718,0,0,0.33333,-0,-0,0.66667
0.80475,0.67466,2.4143,0.262,0.97366,2.1865,-1.6867,0.56225,-1.7552,-2.249,1.4817e-10,-0.87759,0,0,0.33333,-0,-0,0.66667
0.19343,0.05046,0.5803,-0.67431,-7.7136,20.668,1.0435,-0.34783,-0.38263,1.3913,1.0277e-10,-0.19131,0,0,0.33333,-0,-0,0.66667
0.63946,0.055376,1.9184,-0.66694,-4.6492,6.0287,3.4118,-1.1373,-0.4187,4.5491,3.828e-13,-0.20935,0,0,0.33333,-0,-2.779e-16,0.66667
0.52467,0.41447,1.574,-0.1283,-1.0431,8.8767,0.53851,-0.1795,-1.9411,0.71801,1.2235e-13,-0.97053,0,0,0.33333,-0,-0,0.66667
0.92481,0.049945,2.7744,-0.67508,-1.0977,1.08,4.9946,-1.6649,-0.37914,6.6594,-1.2209e-09,-0.18957,0,0,0.33333,-0,-0,0.66667
0.2633,0.1957,0.78989,-0.45646,-4.9301,17.944,0.96147,-0.32049,-1.2591,1.282,8.9383e-11,-0.62956,0,0,0.33333,-0,-0,0.66667
0.065961,0.014927,0.19788,-0.72761,-8.6684,25.645,0.38395,-0.12798,-0.11705,0.51193,-3.0239e-08,-0.058527,0,0,0.33333,-1.9737e-16,0,0.66667
0.73507,0.81244,2.2052,0.46866,2.4185,3.6449,-2.7559,0.91865,-1.2206,-3.6746,8.3371e-11,-0.61028,0,0,0.33333,-6.2913e-16,0,0.66667
0.77218,0.33477,2.3165,-0.24785,-1.072,2.7581,1.5311,-0.51035,-1.7811,2.0414,-1.1934e-10,-0.89055,0,0,0.33333,-0,-0,0.66667
0.90782,0.26441,2.7234,-0.35339,-0.58543,0.83947,2.5665,-0.8555,-1.5556,3.422,8.6756e-10,-0.77782,0,0,0.33333,-0,-0,0.66667
0.93197,0.019914,2.7959,-0.72013,-1.1029,1.0964,5.3691,-1.7897,-0.15552,7.1588,4.9969e-08,-0.077758,0,0,0.33333,-0,-0,0.66667
0.013952,0.031277,0.041855,-0.70308,-8.3857,27.698,0.078475,-0.026153,-0.24372,0.10464,8.7117e-06,-0.12186,0,0,0.33333,4.9343e-17,0,0.66667
0.23436,0.086751,0.70309,-0.61987,-6.9153,19.091,1.1622,-0.3874,-0.63424,1.5496,7.1954e-11,-0.31712,0,0,0.33333,-3.9475e-16,2.7444e-16,0.66667
0.61678,0.47309,1.8503,-0.040361,-0.27661,6.2416,0.19915,-0.066383,-1.9943,0.26553,-1.3084e-12,-0.99714,0,0,0.33333,-0,-0,0.66667
0.94902,0.076726,2.847,-0.63491,-0.65213,0.81875,4.8203,-1.6068,-0.56608,6.4271,-1.3927e-07,-0.28304,0,0,0.33333,1.579e-15,1.1715e-16,0.66667
0.95018,0.57818,2.8505,0.11728,0.070004,0.31706,-0.89146,0.29715,-1.9506,-1.1886,-1.0083e-07,-0.97528,0,0,0.33333,-0,-0,0.66667
0.55665,0.69103,1.67,0.28655,2.2303,7.9755,-1.2761,0.42535,-1.7083,-1.7014,-4.0956e-13,-0.85416,0,0,0.33333,-0,-0,0.66667
0.91561,0.67466,2.7468,0.26199,0.37408,0.69166,-1.919,0.63968,-1.7552,-2.5587,2.9963e-09,-0.87761,0,0,0.33333,1.579e-15,0,0.66667
0.64157,0.022684,1.9247,-0.71597,-5.0182,6.0343,3.6748,-1.2249,-0.17746,4.8997,2.0717e-13,-0.088728,0,0,0.33333,-0,-0,0.66667
0.39001,0.92783,1.17,0.64175,6.4294,13.478,-2.0023,0.66743,-0.53572,-2.6697,6.3261e-13,-0.26786,0,0,0.33333,-0,-3.3733e-16,0.66667
0.48599,0.037084,1.458,-0.69437,-6.3066,10.379,2.6997,-0.89989,-0.28599,3.5996,-3.3307e-14,-0.143,0,0,0.33333,-0,-0,0.66667
0.60431,0.18248,1.8129,-0.47628,-3.4623,6.7575,2.3026,-0.76752,-1.1935,3.0701,2.6579e-13,-0.59676,0,0,0.33333,-4.3167e-16,0,0.66667
0.54955,0.60082,1.6486,0.15123,1.1821,8.139,-0.66487,0.22162,-1.9187,-0.8865,-6.0507e-15,-0.95935,0,0,0.33333,-0,-0,0.66667
0.92618,0.76435,2.7785,0.39653,0.50992,0.69924,-2.938,0.97935,-1.4403,-3.9174,-3.061e-10,-0.72015,0,0,0.33333,-0,-0,0.66667
0.91873,0.23191,2.7562,-0.40214,-0.58533,0.7748,2.9557,-0.98523,-1.4245,3.9409,4.1352e-09,-0.71225,0,0,0.33333,-1.579e-15,0,0.66667
0.39488,0.80231,1.1846,0.45346,4.4252,13.203,-1.4325,0.47749,-1.2684,-1.91,-2.3126e-13,-0.63422,0,0,0.33333,-0,-0,0.66667
0.96326,0.9542,2.8898,0.6813,0.5202,0.80029,-5.2502,1.7501,-0.34886,-7.0003,5.5275e-07,-0.17443,0,0,0.33333,-1.579e-15,0,0.66667
0.17396,0.49282,0.52187,-0.010764,-0.11897,21.311,0.014979,-0.0049931,-1.9997,0.019972,2.7508e-10,-0.99983,0,0,0.33333,5.9212e-16,0,0.66667
0.12633,0.56279,0.37899,0.094185,1.0581,23.191,-0.095187,0.031729,-1.9698,-0.12692,4.5473e-09,-0.9849,0,0,0.33333,-3.9475e-16,0,0.66667
0.13508,0.38654,0.40524,-0.17019,-1.9108,22.848,0.18391,-0.061304,-1.8964,0.24522,3.2685e-10,-0.94819,0,0,0.33333,-0,-0,0.66667
0.50566,0.27933,1.517,-0.331,-2.8009,9.5225,1.339,-0.44633,-1.611,1.7853,2.145e-13,-0.8055,0,0,0.33333,-1.1842e-15,0,0.66667
0.021525,0.19526,0.064574,-0.45711,-5.3152,27.39,0.078714,-0.026238,-1.2567,0.10495,3.4382e-08,-0.62837,0,0,0.33333,-0,-0,0.66667
0.94797,0.55603,2.8439,0.084049,0.053815,0.32582,-0.63741,0.21247,-1.9747,-0.84988,1.7333e-08,-0.98737,0,0,0.33333,-0,-0,0.66667
0.82712,0.79877,2.4813,0.44815,1.5307,1.9702,-2.9654,0.98846,-1.2857,-3.9539,6.4109e-10,-0.64283,0,0,0.33333,-1.579e-15,0,0.66667
0.015019,0.87567,0.045057,0.56351,6.6174,27.652,-0.067706,0.022569,-0.87234,-0.090275,-6.1869e-08,-0.43617,0,0,0.33333,-4.9343e-17,0,0.66667
0.1762,0.039335,0.52859,-0.691,-7.9736,21.336,0.97401,-0.32467,-0.30203,1.2987,1.1715e-10,-0.15102,0,0,0.33333,-0,-0,0.66667
0.33206,0.4427,0.99619,-0.085955,-0.86825,15.327,0.22834,-0.076113,-1.9739,0.30445,9.5017e-12,-0.98693,0,0,0.33333,-0,-0,0.66667
0.131,0.50089,0.39299,0.0013316,0.014927,23.004,-0.0013955,0.00046517,-2.0007,-0.0018607,-4.689e-09,-1.0004,0,0,0.33333,-0,-0,0.66667
0.80949,0.9747,2.4285,0.71206,2.9046,2.5805,-4.6112,1.5371,-0.19736,-6.1483,6.2528e-12,-0.098681,0,0,0.33333,-0,-0,0.66667
0.34474,0.29184,1.0342,-0.31224,-3.151,14.911,0.86112,-0.28704,-1.6533,1.1482,1.4914e-11,-0.82664,0,0,0.33333,-0,-0,0.66667
0.94011,0.84743,2.8203,0.52114,0.56944,0.72153,-3.9194,1.3065,-1.0349,-5.2259,-5.6393e-08,-0.51743,0,0,0.33333,-0,-0,0.66667
0.58201,0.85033,1.746,0.52549,4.0137,7.404,-2.4467,0.81558,-1.0181,-3.2623,-1.2375e-12,-0.50906,0,0,0.33333,-0,-0,0.66667
0.87883,0.39457,2.6365,-0.15814,-0.34387,1.0515,1.1118,-0.37061,-1.9106,1.4825,-3.5977e-09,-0.95528,0,0,0.33333,-0,-0,0.66667
0.84473,0.6288,2.5342,0.1932,0.55882,1.5249,-1.3056,0.43521,-1.868,-1.7408,-6.9616e-10,-0.934,0,0,0.33333,-0,-0,0.66667
0.90539,0.41505,2.7162,-0.12742,-0.20346,0.73374,0.92295,-0.30765,-1.9424,1.2306,-1.7346e-08,-0.97118,0,0,0.33333,1.579e-15,0,0.66667
0.45988,0.91288,1.3796,0.61932,5.7452,11.142,-2.2785,0.75951,-0.63598,-3.038,4.3321e-13,-0.31799,0,0,0.33333,-0,-0,0.66667
0.54635,0.89228,1.639,0.58842,4.8214,8.4687,-2.5718,0.85728,-0.76878,-3.4291,-7.1054e-13,-0.38439,0,0,0.33333,-7.8949e-16,0,0.66667
0.7986,0.060767,2.3958,-0.65885,-2.7761,2.6803,4.2093,-1.4031,-0.45758,5.6124,-3.9738e-11,-0.22879,0,0,0.33333,1.579e-15,0,0.66667
0.28572,0.024953,0.85716,-0.71257,-7.8123,17.223,1.6288,-0.54292,-0.19457,2.1717,5.1348e-13,-0.097287,0,0,0.33333,-3.9475e-16,0,0.66667
0.49025,0.70925,1.4708,0.31387,2.7102,9.9957,-1.231,0.41034,-1.6492,-1.6414,1.4422e-13,-0.82461,0,0,0.33333,3.9475e-16,0,0.66667
0.59911,0.031142,1.7973,-0.70329,-5.3607,7.1114,3.3708,-1.1236,-0.24232,4.4944,2.236e-13,-0.12116,0,0,0.33333,-6.9081e-16,0,0.66667
0.015533,0.94002,0.0466,0.66003,7.8316,27.634,-0.082017,0.02734,-0.45216,-0.10935,1.9924e-06,-0.22608,0,0,0.33333,-0,-0,0.66667
0.59348,0.86699,1.7804,0.55048,4.131,7.1106,-2.6136,0.8712,-0.92284,-3.4848,-1.118e-12,-0.46142,0,0,0.33333,3.9475e-16,3.27e-16,0.66667
0.43368,0.57866,1.301,0.118,1.0825,11.781,-0.40938,0.13646,-1.9499,-0.54583,-3.1583e-13,-0.97494,0,0,0.33333,7.8949e-16,0,0.66667
0.80736,0.82224,2.4221,0.48336,1.8546,2.3204,-3.122,1.0407,-1.1688,-4.1626,4.8118e-10,-0.5844,0,0,0.33333,-0,-0,0.66667
0.31524,0.61723,0.94573,0.17584,1.8035,15.95,-0.44346,0.14782,-1.89,-0.59129,-2.4661e-11,-0.94499,0,0,0.33333,-0,-0,0.66667
0.89289,0.51368,2.6787,0.020517,0.037956,0.854,-0.14655,0.048851,-1.9981,-0.1954,2.2808e-08,-0.99904,0,0,0.33333,-0,-0,0.66667
0.57786,0.70046,1.7336,0.30069,2.2562,7.3764,-1.39,0.46334,-1.6785,-1.8534,2.3792e-13,-0.83923,0,0,0.33333,-0,-0,0.66667
0.18401,0.33289,0.55203,-0.25067,-2.7763,20.934,0.36901,-0.123,-1.7762,0.49201,2.0255e-10,-0.88808,0,0,0.33333,-0,-0,0.66667
0.78793,0.74957,2.3638,0.37435,1.5393,2.5531,-2.3597,0.78657,-1.5025,-3.1463,2.4812e-10,-0.75127,0,0,0.33333,1.9737e-16,0,0.66667
0.61203,0.16101,1.8361,-0.50849,-3.6559,6.5778,2.4897,-0.8299,-1.081,3.3196,2.84e-13,-0.5405,0,0,0.33333,-0,-0,0.66667
0.053909,0.075316,0.16173,-0.63703,-7.5186,26.111,0.27473,-0.091577,-0.5564,0.36631,2.1302e-07,-0.2782,0,0,0.33333,-0,-0,0.66667
0.42019,0.076161,1.2606,-0.63576,-6.1777,12.454,2.1371,-0.71238,-0.56255,2.8495,-6.6036e-13,-0.28127,0,0,0.33333,-0,-3.8851e-16,0.66667
0.67907,0.014685,2.0372,-0.72797,-4.6828,5.155,3.9547,-1.3182,-0.11495,5.273,1.3056e-13,-0.057476,0,0,0.33333,-3.158e-15,0,0.66667
0.9186,0.96902,2.7558,0.70354,1.2692,1.1842,-5.1702,1.7234,-0.24121,-6.8935,5.3431e-08,-0.12061,0,0,0.33333,-0,1.3748e-17,0.66667
0.00040202,0.73607,0.0012061,0.3541,4.0887,28.234,-0.0011389,0.00037963,-1.554,-0.0015185,2.0292e-08,-0.77702,0,0,0.33333,-0,-0,0.66667
0.97676,0.16819,2.9303,-0.49772,-0.11192,0.44068,3.8892,-1.2964,-1.1185,5.1856,7.1945e-08,-0.55925,0,0,0.33333,-1.579e-15,0,0.66667
0.37658,0.33489,1.1297,-0.24766,-2.4217,13.764,0.74611,-0.2487,-1.7819,0.99482,5.8882e-12,-0.89095,0,0,0.33333,-0,-0,0.66667
0.97378,0.62236,2.9214,0.18354,0.013319,0.17968,-1.4298,0.47661,-1.8807,-1.9064,-2.255e-07,-0.94034,0,0,0.33333,1.7764e-15,0,0.66667
0.60472,0.84913,1.8141,0.5237,3.8297,6.7849,-2.5335,0.8445,-1.0249,-3.378,-7.6494e-13,-0.51245,0,0,0.33333,-0,-0,0.66667
0.82885,0.61039,2.4865,0.16559,0.53009,1.7521,-1.098,0.36599,-1.9023,-1.464,1.5063e-10,-0.95115,0,0,0.33333,-1.579e-15,0,0.66667
0.57471,0.63837,1.7241,0.20755,1.5562,7.4288,-0.95424,0.31808,-1.8463,-1.2723,5.2475e-13,-0.92315,0,0,0.33333,-0,-0,0.66667
0.62808,0.19138,1.8842,-0.46293,-3.1966,6.1226,2.3261,-0.77535,-1.2384,3.1014,-2.2504e-12,-0.61922,0,0,0.33333,-0,-0,0.66667
0.28558,0.93256,0.85673,0.64883,7.0558,17.195,-1.4823,0.49411,-0.50329,-1.9764,-6.6983e-12,-0.25164,0,0,0.33333,-0,-0,0.66667
0.58683,0.65822,1.7605,0.23733,1.7426,7.0991,-1.1142,0.37139,-1.8002,-1.4856,1.173e-12,-0.90012,0,0,0.33333,-0,-0,0.66667
0.75002,0.052986,2.2501,-0.67052,-3.4415,3.5742,4.0232,-1.3411,-0.40161,5.3643,-1.6061e-11,-0.2008,0,0,0.33333,-0,-0,0.66667
0.85831,0.94407,2.5749,0.66611,2.0226,1.7985,-4.5738,1.5246,-0.4227,-6.0985,-4.5571e-10,-0.21135,0,0,0.33333,-0,-0,0.66667
0.75508,0.10195,2.2652,-0.59707,-2.9522,3.383,3.6067,-1.2022,-0.73214,4.8089,-6.1226e-11,-0.36607,0,0,0.33333,-1.579e-15,0,0.66667
0.69806,0.58231,2.0942,0.12346,0.68956,4.2492,-0.68948,0.22983,-1.9452,-0.91931,2.3555e-11,-0.9726,0,0,0.33333,-0,-0,0.66667
0.86448,0.19316,2.5934,-0.46025,-1.2282,1.4514,3.183,-1.061,-1.2468,4.2441,2.3636e-11,-0.62339,0,0,0.33333,-0,-0,0.66667
0.32268,0.015682,0.96804,-0.72648,-7.7838,15.892,1.8754,-0.62512,-0.12274,2.5005,-1.2701e-13,-0.061372,0,0,0.33333,7.8949e-16,0,0.66667
0.67079,0.14898,2.0124,-0.52653,-3.3196,5.1206,2.8255,-0.94185,-1.0145,3.7674,-8.3737e-12,-0.50724,0,0,0.33333,-0,5.1435e-16,0.66667
0.45087,0.66329,1.3526,0.24493,2.214,11.238,-0.88347,0.29449,-1.7868,-1.178,2.6779e-13,-0.89339,0,0,0.33333,-0,-0,0.66667
0.3821,0.65826,1.1463,0.23738,2.3081,13.569,-0.72564,0.24188,-1.8001,-0.96752,-4.9611e-12,-0.90007,0,0,0.33333,1.579e-15,0,0.66667
0.41081,0.60289,1.2324,0.15434,1.4533,12.56,-0.50724,0.16908,-1.9149,-0.67632,-1.4017e-12,-0.95746,0,0,0.33333,7.8949e-16,0,0.66667
0.40148,0.65624,1.2044,0.23436,2.2357,12.896,-0.75273,0.25091,-1.8057,-1.0036,-2.2363e-12,-0.90286,0,0,0.33333,2.6561e-16,0,0.66667
0.31738,0.90403,0.95215,0.60605,6.4173,16.014,-1.5388,0.51293,-0.69461,-2.0517,-4.1482e-12,-0.34731,0,0,0.33333,-1.9737e-16,0,0.66667
0.62192,0.25607,1.8658,-0.3659,-2.5299,6.2153,1.8205,-0.60683,-1.5241,2.4273,-4.1076e-12,-0.76203,0,0,0.33333,1.579e-15,0,0.66667
0.43025,0.91629,1.2907,0.62444,5.9944,12.112,-2.1493,0.71644,-0.61301,-2.8657,6.8412e-13,-0.3065,0,0,0.33333,-0,-0,0.66667
0.9738,0.26277,2.9214,-0.35584,-0.059959,0.30024,2.7721,-0.92405,-1.5491,3.6962,-2.1208e-09,-0.77456,0,0,0.33333,-0,-0,0.66667
0.6778,0.52651,2.0334,0.039763,0.23482,4.7066,-0.21561,0.071871,-1.9944,-0.28748,5.4006e-12,-0.99722,0,0,0.33333,-0,-0,0.66667
0.19857,0.55568,0.59571,0.083525,0.91466,20.353,-0.13268,0.044228,-1.9751,-0.17691,-1.223e-10,-0.98753,0,0,0.33333,1.9737e-16,0,0.66667
0.4267,0.66776,1.2801,0.25163,2.3396,12.044,-0.85898,0.28633,-1.7743,-1.1453,-4.3521e-13,-0.88714,0,0,0.33333,-0,-0,0.66667
0.34335,0.20883,1.03,-0.43675,-4.4548,15.003,1.1997,-0.39989,-1.3218,1.5995,1.034e-11,-0.66092,0,0,0.33333,-0,-0,0.66667
0.79764,0.69944,2.3929,0.29916,1.1592,2.33,-1.909,0.63632,-1.6817,-2.5453,1.9652e-10,-0.84084,0,0,0.33333,-0,-0,0.66667
0.88,0.89083,2.64,0.58625,1.4541,1.4109,-4.1272,1.3757,-0.77727,-5.5029,1.8576e-09,-0.38863,0,0,0.33333,-1.579e-15,0,0.66667
0.90384,0.68531,2.7115,0.27797,0.47078,0.82399,-2.0099,0.66997,-1.7261,-2.6799,-2.8124e-09,-0.86304,0,0,0.33333,5.9212e-16,0,0.66667
0.66272,0.6735,1.9882,0.26025,1.6179,5.1282,-1.3798,0.45993,-1.7584,-1.8397,1.8083e-11,-0.8792,0,0,0.33333,7.8949e-16,0,0.66667
0.27021,0.57254,0.81062,0.1088,1.1482,17.615,-0.2352,0.078399,-1.9574,-0.3136,-3.5135e-11,-0.97872,0,0,0.33333,-0,-0,0.66667
0.25237,0.90755,0.7571,0.61133,6.7491,18.411,-1.2342,0.41141,-0.67218,-1.6456,-4.0461e-11,-0.33609,0,0,0.33333,-0,-0,0.66667
0.8549,0.60397,2.5647,0.15596,0.41667,1.3657,-1.0666,0.35554,-1.913,-1.4222,4.656e-10,-0.95652,0,0,0.33333,-0,-0,0.66667
0.52771,0.4464,1.5831,-0.080401,-0.64977,8.7775,0.33943,-0.11314,-1.9767,0.45257,3.5805e-15,-0.98837,0,0,0.33333,1.579e-15,0,0.66667
0.80216,0.39913,2.4065,-0.1513,-0.56265,2.1814,0.97092,-0.32364,-1.9184,1.2946,-3.4366e-11,-0.95919,0,0,0.33333,7.8949e-16,0,0.66667
0.57249,0.070747,1.7175,-0.64388,-5.0955,7.7753,2.9489,-0.98297,-0.52556,3.9319,5.9619e-13,-0.26278,0,0,0.33333,-0,-0,0.66667
0.73314,0.94816,2.1994,0.67224,3.6538,3.9115,-3.9428,1.3143,-0.39312,-5.257,7.6452e-12,-0.19656,0,0,0.33333,-1.579e-15,3.5484e-16,0.66667
0.51901,0.096499,1.557,-0.60525,-5.1834,9.291,2.5131,-0.83769,-0.69808,3.3507,3.1264e-13,-0.34904,0,0,0.33333,-0,-0,0.66667
0.77088,0.68874,2.3127,0.28311,1.2368,2.8016,-1.7459,0.58198,-1.7157,-2.3279,1.4827e-10,-0.85787,0,0,0.33333,-0,-0,0.66667
0.56886,0.32867,1.7066,-0.257,-1.9537,7.6125,1.1696,-0.38985,-1.7644,1.5594,-1.3423e-13,-0.88219,0,0,0.33333,-7.8949e-16,0,0.66667
0.46571,0.26073,1.3971,-0.3589,-3.2113,10.797,1.3372,-0.44572,-1.5416,1.7829,-5.9319e-13,-0.77082,0,0,0.33333,-0,-0,0.66667
0.34269,0.83409,1.0281,0.50114,5.1456,15.054,-1.3739,0.45796,-1.107,-1.8318,-6.4162e-12,-0.55352,0,0,0.33333,-0,-0,0.66667
0.068209,0.32015,0.20463,-0.26978,-3.0852,25.515,0.14721,-0.04907,-1.7409,0.19628,-2.3095e-09,-0.87046,0,0,0.33333,-0,-0,0.66667
0.37792,0.6022,1.1338,0.1533,1.4911,13.698,-0.46347,0.15449,-1.9163,-0.61796,-4.664e-12,-0.95814,0,0,0.33333,-0,-0,0.66667
0.079626,0.7934,0.23888,0.44011,5.0795,25.072,-0.28035,0.09345,-1.3111,-0.3738,2.8846e-11,-0.65553,0,0,0.33333,-0,-0,0.66667
0.98282,0.91129,2.9485,0.61694,0.13586,0.58236,-4.8507,1.6169,-0.64716,-6.4676,2.2898e-07,-0.32358,0,0,0.33333,-0,2.1361e-16,0.66667
0.18161,0.26992,0.54484,-0.34513,-3.8462,21.041,0.50144,-0.16715,-1.5758,0.66858,3.1765e-10,-0.78792,0,0,0.33333,-0,-0,0.66667
0.81186,0.75257,2.4356,0.37885,1.3851,2.1493,-2.4606,0.8202,-1.4907,-3.2808,3.4651e-10,-0.74533,0,0,0.33333,-3.158e-15,0,0.66667
0.87496,0.75787,2.6249,0.3868,0.92256,1.2453,-2.7075,0.90249,-1.4684,-3.61,2.3529e-10,-0.73419,0,0,0.33333,1.579e-15,0,0.66667
0.68841,0.50119,2.0652,0.0017857,0.01023,4.4563,-0.0098342,0.0032781,-2.0012,-0.013112,-1.2546e-13,-1.0006,0,0,0.33333,3.158e-15,0,0.66667
0.56949,0.1455,1.7085,-0.53175,-4.1572,7.759,2.4226,-0.80754,-0.99401,3.2301,1.1142e-12,-0.49701,0,0,0.33333,7.8949e-16,0,0.66667
0.16097,0.39547,0.48291,-0.15679,-1.7453,21.826,0.20191,-0.067305,-1.9121,0.26922,-5.5327e-11,-0.95603,0,0,0.33333,1.9737e-16,0,0.66667
0.46688,0.13774,1.4006,-0.54339,-4.9487,10.863,2.0296,-0.67653,-0.94981,2.7061,-5.822e-13,-0.47491,0,0,0.33333,-0,-0,0.66667
0.34517,0.58735,1.0355,0.13102,1.3109,14.858,-0.3618,0.1206,-1.9392,-0.48241,-1.0052e-11,-0.96962,0,0,0.33333,-1.9737e-16,0,0.66667
0.22504,0.22191,0.67512,-0.41714,-4.5841,19.381,0.75098,-0.25033,-1.3816,1.0013,2.2162e-10,-0.69081,0,0,0.33333,-0,-0,0.66667
0.59251,0.67916,1.7775,0.26873,1.956,6.9546,-1.2738,0.42461,-1.7433,-1.6984,1.4038e-12,-0.87165,0,0,0.33333,3.9475e-16,0,0.66667
0.31227,0.47161,0.93681,-0.042588,-0.43646,16.047,0.10639,-0.035464,-1.9946,0.14186,7.136e-12,-0.99728,0,0,0.33333,7.8949e-16,0,0.66667
0.91631,0.91367,2.7489,0.6205,1.08,1.0712,-4.5486,1.5162,-0.63074,-6.0648,1.2364e-08,-0.31537,0,0,0.33333,-3.158e-15,0,0.66667
0.90964,0.17183,2.7289,-0.49225,-0.85589,0.96305,3.5822,-1.1941,-1.1379,4.7762,4.142e-09,-0.56893,0,0,0.33333,-0,-0,0.66667
0.25712,0.53442,0.77135,0.051628,0.5486,18.106,-0.1062,0.035398,-1.9908,-0.14159,-1.8988e-11,-0.9954,0,0,0.33333,-0,-0,0.66667
0.11089,0.86258,0.33267,0.54387,6.2958,23.847,-0.48249,0.16083,-0.948,-0.64332,-3.4987e-09,-0.474,0,0,0.33333,1.9737e-16,0,0.66667
0.19296,0.99456,0.57889,0.74184,8.5613,20.711,-1.1452,0.38173,-0.043256,-1.5269,7.8316e-11,-0.021628,0,0,0.33333,5.9212e-16,0,0.66667
0.49958,0.71834,1.4988,0.32751,2.7946,9.7094,-1.3089,0.43631,-1.6201,-1.7452,-6.5836e-14,-0.81005,0,0,0.33333,2.9606e-16,0,0.66667
0.72859,0.25635,2.1858,-0.36547,-1.895,3.6953,2.1302,-0.71008,-1.5249,2.8403,-8.295e-11,-0.76246,0,0,0.33333,-0,-0,0.66667
0.20819,0.34881,0.62458,-0.22678,-2.4832,19.993,0.37771,-0.1259,-1.8172,0.50362,1.2985e-10,-0.9086,0,0,0.33333,-0,-0,0.66667
0.24803,0.42095,0.7441,-0.11857,-1.2679,18.454,0.23528,-0.078426,-1.9496,0.31371,5.1483e-11,-0.97481,0,0,0.33333,-0,-0,0.66667
0.85167,0.62289,2.555,0.18434,0.50651,1.4219,-1.2559,0.41865,-1.8796,-1.6746,-7.7973e-10,-0.93982,0,0,0.33333,5.9212e-16,0,0.66667
0.41585,0.92533,1.2475,0.63799,6.2291,12.601,-2.1225,0.70748,-0.5521,-2.8299,6.033e-13,-0.27605,0,0,0.33333,-0,-0,0.66667
0.61669,0.80406,1.8501,0.45609,3.224,6.4138,-2.2501,0.75003,-1.2599,-3.0001,1.0778e-12,-0.62997,0,0,0.33333,-0,-0,0.66667
0.23367,0.01841,0.701,-0.72239,-8.1649,19.161,1.3504,-0.45013,-0.14441,1.8005,1.1152e-12,-0.072206,0,0,0.33333,-0,-0,0.66667
0.10197,0.34928,0.3059,-0.22608,-2.5649,24.165,0.18443,-0.061475,-1.8182,0.2459,-4.3726e-09,-0.90908,0,0,0.33333,-0,-0,0.66667
0.51586,0.46645,1.5476,-0.05032,-0.41393,9.1358,0.20766,-0.069221,-1.9921,0.27688,1.3227e-13,-0.99606,0,0,0.33333,-1.0856e-15,0,0.66667
0.47714,0.213,1.4314,-0.43049,-3.8214,10.467,1.6433,-0.54775,-1.3409,2.191,-5.218e-13,-0.67047,0,0,0.33333,-0,-0,0.66667
0.15267,0.02292,0.45801,-0.71562,-8.3499,22.252,0.87404,-0.29135,-0.17893,1.1654,9.1686e-11,-0.089467,0,0,0.33333,-0,-0,0.66667
0.62181,0.75101,1.8654,0.37651,2.607,6.2248,-1.8729,0.62431,-1.4969,-2.4973,3.7328e-12,-0.74845,0,0,0.33333,-0,-0,0.66667
0.54401,0.69071,1.632,0.28607,2.2743,8.3449,-1.245,0.415,-1.7096,-1.66,-4.6485e-13,-0.85479,0,0,0.33333,-0,-0,0.66667
0.65414,0.1128,1.9624,-0.58081,-3.8517,5.574,3.0394,-1.0131,-0.80025,4.0525,-1.5969e-12,-0.40012,0,0,0.33333,-7.8949e-16,0,0.66667
0.14455,0.12956,0.43364,-0.55567,-6.3825,22.528,0.64255,-0.21418,-0.9024,0.85674,1.865e-09,-0.4512,0,0,0.33333,-0,-0,0.66667
0.75153,0.27947,2.2546,-0.3308,-1.5722,3.2042,1.9889,-0.66295,-1.6119,2.6518,-1.2493e-10,-0.80596,0,0,0.33333,9.8686e-16,0,0.66667
0.22205,0.25541,0.66615,-0.36688,-4.0227,19.484,0.65172,-0.21724,-1.5216,0.86896,2.0572e-10,-0.76079,0,0,0.33333,-0,-0,0.66667
0.51935,0.46352,1.5581,-0.05472,-0.44778,9.0292,0.22735,-0.075784,-1.9895,0.30314,1.2006e-13,-0.99475,0,0,0.33333,-7.8949e-16,0,0.66667
0.7853,0.42123,2.3559,-0.11816,-0.47629,2.4679,0.74232,-0.24744,-1.9497,0.98976,-7.0215e-11,-0.97486,0,0,0.33333,-0,-0,0.66667
0.02233,0.58435,0.066991,0.12653,1.4459,27.352,-0.022603,0.0075344,-1.9426,-0.030137,2.3212e-07,-0.97128,0,0,0.33333,-0,-0,0.66667
0.32436,0.65355,0.97309,0.23033,2.3515,15.627,-0.59768,0.19923,-1.8119,-0.79691,-2.3863e-11,-0.90596,0,0,0.33333,-4.9343e-16,0,0.66667
0.87292,0.19874,2.6188,-0.45189,-1.1227,1.3345,3.1557,-1.0519,-1.2736,4.2077,-7.6044e-10,-0.63682,0,0,0.33333,-0,-0,0.66667
0.84471,0.51017,2.5341,0.015252,0.043534,1.4834,-0.10307,0.034357,-1.9991,-0.13743,-1.506e-09,-0.99957,0,0,0.33333,-0,-0,0.66667
0.53844,0.56601,1.6153,0.099019,0.78698,8.458,-0.42653,0.14218,-1.9654,-0.56871,-1.2568e-13,-0.98268,0,0,0.33333,1.579e-15,0,0.66667
0.86661,0.38999,2.5998,-0.16502,-0.40145,1.2105,1.144,-0.38135,-1.9024,1.5254,6.3467e-10,-0.95119,0,0,0.33333,-1.579e-15,0,0.66667
0.94981,0.8486,2.8494,0.52291,0.45735,0.64878,-3.9733,1.3244,-1.028,-5.2977,-4.318e-09,-0.51402,0,0,0.33333,-0,-0,0.66667
0.82641,0.60697,2.4792,0.16046,0.52116,1.7882,-1.0608,0.35361,-1.9081,-1.4144,1.184e-10,-0.95407,0,0,0.33333,1.579e-15,0,0.66667
0.85412,0.52038,2.5623,0.030564,0.081411,1.35,-0.20884,0.069615,-1.9961,-0.27846,-1.9166e-10,-0.99805,0,0,0.33333,-0,-0,0.66667
0.098743,0.73637,0.29623,0.35456,4.0527,24.304,-0.28009,0.093362,-1.5523,-0.37345,2.2436e-09,-0.77616,0,0,0.33333,-0,-0,0.66667
0.6513,0.435,1.9539,-0.097499,-0.61777,5.3586,0.50801,-0.16934,-1.9667,0.67735,-7.2892e-12,-0.98335,0,0,0.33333,-0,-0,0.66667
0.70352,0.62066,2.1106,0.18099,0.99754,4.1425,-1.0187,0.33955,-1.8843,-1.3582,3.6235e-11,-0.94213,0,0,0.33333,3.9475e-16,0,0.66667
0.61024,0.35589,1.8307,-0.21617,-1.5124,6.4528,1.0553,-0.35177,-1.8337,1.4071,-3.6317e-12,-0.91685,0,0,0.33333,-0,-0,0.66667
0.79962,0.88475,2.3988,0.57712,2.3601,2.5557,-3.6918,1.2306,-0.81548,-4.9224,2.7769e-10,-0.40774,0,0,0.33333,1.579e-15,0,0.66667
0.034571,0.93998,0.10371,0.65997,7.8233,26.879,-0.18253,0.060843,-0.45197,-0.24337,-1.9919e-07,-0.22598,0,0,0.33333,-9.8686e-17,0,0.66667
0.77024,0.15509,2.3107,-0.51737,-2.367,3.0063,3.188,-1.0627,-1.0491,4.2506,-1.8686e-10,-0.52453,0,0,0.33333,-1.579e-15,0,0.66667
0.73173,0.61159,2.1952,0.16738,0.84035,3.5267,-0.97982,0.32661,-1.8999,-1.3064,5.3684e-11,-0.94996,0,0,0.33333,-0,-0,0.66667
0.2597,0.55495,0.7791,0.08243,0.87495,18.01,-0.17125,0.057085,-1.9755,-0.22834,-3.237e-11,-0.98776,0,0,0.33333,3.9475e-16,0,0.66667
0.25707,0.081222,0.77121,-0.62817,-6.9305,18.242,1.2919,-0.43062,-0.59626,1.7225,2.8556e-11,-0.29813,0,0,0.33333,-0,-0,0.66667
0.6323,0.95857,1.8969,0.68785,4.8904,6.2323,-3.4795,1.1598,-0.31711,-4.6393,-3.1575e-13,-0.15855,0,0,0.33333,-7.8949e-16,0,0.66667
0.3453,0.50138,1.0359,0.0020751,0.02072,14.846,-0.0057322,0.0019107,-2.0011,-0.0076429,-1.3735e-13,-1.0005,0,0,0.33333,1.579e-15,0,0.66667
0.79659,0.49989,2.3898,-0.00016278,-0.00061871,2.253,0.0010374,-0.00034579,-2.0016,0.0013831,-1.4485e-10,-1.0008,0,0,0.33333,5.0577e-15,0,0.66667
0.44615,0.54442,1.3384,0.066626,0.60181,11.361,-0.2378,0.079266,-1.9835,-0.31706,5.3568e-14,-0.99173,0,0,0.33333,-7.8949e-16,0,0.66667
0.78275,0.6879,2.3482,0.28185,1.1688,2.5823,-1.765,0.58832,-1.7188,-2.3533,1.4299e-10,-0.85941,0,0,0.33333,-0,-0,0.66667
0.99047,0.67713,2.9714,0.2657,-0.075065,0.13698,-2.1053,0.70178,-1.7484,-2.8071,8.1e-09,-0.8742,0,0,0.33333,-0,-0,0.66667
0.30025,0.3487,0.90075,-0.22695,-2.3576,16.51,0.54513,-0.18171,-1.8171,0.72684,3.9295e-11,-0.90854,0,0,0.33333,-7.8949e-16,0,0.66667
0.14301,0.21311,0.42902,-0.43034,-4.89,22.564,0.49232,-0.16411,-1.3418,0.65643,8.9702e-10,-0.6709,0,0,0.33333,2.9606e-16,0,0.66667
0.90131,0.60768,2.7039,0.16153,0.27386,0.7899,-1.1647,0.38823,-1.9065,-1.5529,-6.284e-09,-0.95327,0,0,0.33333,-1.579e-15,0,0.66667
0.54156,0.77411,1.6247,0.41117,3.3192,8.4803,-1.7814,0.5938,-1.3987,-2.3752,-9.106e-13,-0.69933,0,0,0.33333,-0,-0,0.66667
0.97474,0.61732,2.9242,0.17598,0.0083391,0.17038,-1.3723,0.45743,-1.8896,-1.8297,1.1826e-09,-0.94478,0,0,0.33333,7.8949e-16,0,0.66667
0.6366,0.46662,1.9098,-0.050077,-0.32831,5.7247,0.25503,-0.085011,-1.9917,0.34005,-2.5994e-12,-0.99586,0,0,0.33333,-9.8686e-16,0,0.66667
0.99391,0.27526,2.9817,-0.3371,0.10783,0.1778,2.6804,-0.89347,-1.5958,3.5739,-1.9105e-09,-0.79791,0,0,0.33333,1.579e-15,0,0.66667
0.54607,0.10574,1.6382,-0.59139,-4.85,8.4793,2.5835,-0.86118,-0.75633,3.4447,7.5251e-13,-0.37816,0,0,0.33333,-1.579e-15,0,0.66667
0.52643,0.39061,1.5793,-0.16408,-1.3322,8.8309,0.69101,-0.23034,-1.9036,0.92134,1.8913e-13,-0.95178,0,0,0.33333,-0,-0,0.66667
0.13543,0.69224,0.40628,0.28837,3.2536,22.844,-0.31242,0.10414,-1.7044,-0.41656,-8.1109e-10,-0.85222,0,0,0.33333,-0,-0,0.66667
0.35571,0.048348,1.0671,-0.67748,-7.0284,14.691,1.9279,-0.64262,-0.36749,2.5705,-3.5538e-13,-0.18375,0,0,0.33333,3.9475e-16,-5.0941e-16,0.66667
0.026219,0.56508,0.078656,0.09762,1.1146,27.195,-0.020476,0.0068265,-1.9666,-0.027301,1.8769e-06,-0.98329,0,0,0.33333,-0,-0,0.66667
0.1604,0.055937,0.48119,-0.6661,-7.7054,21.938,0.85471,-0.2849,-0.42238,1.1396,5.133e-10,-0.21119,0,0,0.33333,1.9737e-16,0,0.66667
0.74564,0.14103,2.2369,-0.53846,-2.7169,3.501,3.212,-1.0707,-0.96843,4.2826,-7.9394e-11,-0.48421,0,0,0.33333,-0,-0,0.66667
0.0304,0.50571,0.091199,0.0085664,0.097701,27.027,-0.0020838,0.00069839,-2.0002,-0.0027765,5.6715e-06,-1.0001,0,0,0.33333,-0,-0,0.66667
0.36654,0.95013,1.0996,0.67519,6.939,14.31,-1.9799,0.65996,-0.37835,-2.6398,3.0542e-13,-0.18918,0,0,0.33333,-0,-0,0.66667
0.86235,0.0080939,2.587,-0.73786,-2.2561,1.8619,5.0903,-1.6968,-0.064092,6.7871,6.2467e-09,-0.032046,0,0,0.33333,-0,-0,0.66667
0.69268,0.3833,2.078,-0.17505,-0.99616,4.3862,0.97,-0.32333,-1.8907,1.2933,-2.8555e-11,-0.94535,0,0,0.33333,-0,-0,0.66667
0.69094,0.14015,2.0728,-0.53977,-3.2332,4.6663,2.9836,-0.99453,-0.9635,3.9781,-1.4944e-11,-0.48175,0,0,0.33333,-0,-0,0.66667
0.18864,0.91449,0.56591,0.62174,7.0819,20.835,-0.93826,0.31275,-0.62567,-1.251,-2.517e-10,-0.31284,0,0,0.33333,-0,-0,0.66667
0.4419,0.37747,1.3257,-0.18379,-1.674,11.519,0.64973,-0.21658,-1.8804,0.86631,1.1929e-13,-0.94022,0,0,0.33333,-0,-0,0.66667
0.58158,0.72005,1.7447,0.33007,2.4659,7.2865,-1.5357,0.5119,-1.6135,-2.0476,1.5388e-13,-0.80674,0,0,0.33333,-0,-0,0.66667
0.98975,0.53793,2.9693,0.056899,-0.019082,0.051592,-0.45053,0.15017,-1.9883,-0.6007,-3.9581e-06,-0.99415,0,0,0.33333,-0,-0,0.66667
0.20391,0.43516,0.61172,-0.097265,-1.0629,20.147,0.15866,-0.052888,-1.9674,0.21155,1.1123e-10,-0.98369,0,0,0.33333,9.8686e-17,0,0.66667
0.24773,0.10903,0.7432,-0.58645,-6.4726,18.575,1.1623,-0.38742,-0.77672,1.5497,6.5531e-11,-0.38836,0,0,0.33333,-3.9475e-16,0,0.66667
0.26217,0.87064,0.78652,0.55596,6.0669,18.022,-1.1661,0.38869,-0.9013,-1.5548,-5.4616e-11,-0.45065,0,0,0.33333,-0,-0,0.66667
0.75017,0.16266,2.2505,-0.50601,-2.4942,3.3777,3.0368,-1.0123,-1.0901,4.049,-1.0706e-10,-0.54505,0,0,0.33333,1.579e-15,0,0.66667
0.45698,0.75884,1.3709,0.38826,3.5204,11.094,-1.4194,0.47314,-1.4637,-1.8926,7.8915e-13,-0.73185,0,0,0.33333,-0,-0,0.66667
0.056929,0.63569,0.17079,0.20353,2.3244,25.964,-0.092694,0.030898,-1.8521,-0.12359,6.6611e-08,-0.92607,0,0,0.33333,-9.8686e-17,0,0.66667
0.50852,0.45822,1.5255,-0.062668,-0.52125,9.3628,0.25494,-0.08498,-1.9854,0.33992,1.0697e-13,-0.99271,0,0,0.33333,-7.8949e-16,0,0.66667
0.21196,0.051528,0.63588,-0.67271,-7.6331,19.961,1.1407,-0.38023,-0.39033,1.5209,6.5612e-11,-0.19517,0,0,0.33333,1.9737e-16,0,0.66667
0.7986,0.30729,2.3958,-0.28906,-1.1129,2.307,1.8468,-0.61559,-1.7033,2.4624,-2.0587e-10,-0.85165,0,0,0.33333,3.9475e-16,0,0.66667
0.29733,0.52923,0.89199,0.043851,0.4542,16.599,-0.10431,0.034768,-1.9943,-0.13907,-9.319e-12,-0.99715,0,0,0.33333,-4.9343e-16,0,0.66667
0.027606,0.46876,0.082818,-0.046866,-0.53473,27.139,0.01035,-0.0034473,-1.9933,0.013801,4.0413e-06,-0.99665,0,0,0.33333,9.8686e-17,0,0.66667
0.59343,0.62718,1.7803,0.19077,1.379,6.901,-0.90567,0.30189,-1.8717,-1.2076,1.7325e-12,-0.93586,0,0,0.33333,-0,-0,0.66667
0.84384,0.30896,2.5315,-0.28656,-0.84736,1.5883,1.9345,-0.64483,-1.709,2.5793,2.0261e-10,-0.85448,0,0,0.33333,1.9737e-15,0,0.66667
0.38102,0.89776,1.143,0.59664,5.9925,13.759,-1.8186,0.60621,-0.73388,-2.4248,6.1073e-13,-0.36694,0,0,0.33333,3.9475e-16,0,0.66667
0.74986,0.95443,2.2496,0.68164,3.5112,3.5924,-4.0891,1.363,-0.34787,-5.4521,1.1024e-11,-0.17394,0,0,0.33333,-0,-0,0.66667
0.51114,0.4202,1.5334,-0.11969,-0.99301,9.2888,0.48944,-0.16315,-1.9484,0.65259,1.3162e-13,-0.9742,0,0,0.33333,-7.8949e-16,0,0.66667
0.54095,0.70737,1.6229,0.31106,2.4902,8.4461,-1.3461,0.44871,-1.6553,-1.7949,-6.4804e-13,-0.82766,0,0,0.33333,-0,-0,0.66667
0.95943,0.57324,2.8783,0.10986,0.042072,0.24628,-0.8432,0.28107,-1.9565,-1.1243,3.7271e-07,-0.97824,0,0,0.33333,-0,-0,0.66667
0.80396,0.57202,2.4119,0.10803,0.39673,2.1388,-0.6948,0.2316,-1.958,-0.9264,1.2529e-10,-0.97898,0,0,0.33333,-0,-0,0.66667
0.032323,0.24778,0.096969,-0.37832,-4.3706,26.956,0.097829,-0.03261,-1.4921,0.13044,1.9422e-09,-0.74604,0,0,0.33333,-0,-0,0.66667
0.70939,0.71073,2.1282,0.3161,1.7327,4.0755,-1.7939,0.59797,-1.6444,-2.3919,5.4523e-11,-0.82218,0,0,0.33333,7.8949e-16,0,0.66667
0.465,0.32335,1.395,-0.26497,-2.3569,10.784,0.98569,-0.32856,-1.7499,1.3143,-2.9265e-13,-0.87496,0,0,0.33333,-0,-0,0.66667
0.94755,0.90312,2.8426,0.60468,0.61778,0.78217,-4.5837,1.5279,-0.7003,-6.1116,-1.5251e-07,-0.35015,0,0,0.33333,6.7528e-16,0,0.66667
0.22143,0.92424,0.6643,0.63635,7.1579,19.587,-1.1273,0.37576,-0.55973,-1.503,-8.1591e-11,-0.27986,0,0,0.33333,3.9475e-16,0,0.66667
0.26707,0.027346,0.80122,-0.70898,-7.8569,17.908,1.5148,-0.50493,-0.21342,2.0197,1.5692e-12,-0.10671,0,0,0.33333,1.9737e-16,0,0.66667
0.081474,0.59929,0.24442,0.14893,1.6918,24.98,-0.097071,0.032357,-1.9213,-0.12943,-1.2625e-09,-0.96064,0,0,0.33333,-0,-0,0.66667
0.42862,0.26328,1.2859,-0.35508,-3.3175,12.015,1.2176,-0.40585,-1.5509,1.6234,-3.8214e-13,-0.77547,0,0,0.33333,-7.8949e-16,0,0.66667
0.10902,0.46135,0.32706,-0.057968,-0.65373,23.878,0.050557,-0.016852,-1.9884,0.067409,-1.2053e-08,-0.99419,0,0,0.33333,-9.8686e-17,0,0.66667
0.63379,0.33156,1.9014,-0.25267,-1.6834,5.849,1.2811,-0.42703,-1.7723,1.7081,-8.1749e-12,-0.88615,0,0,0.33333,7.8949e-16,0,0.66667
0.80296,0.89313,2.4089,0.58969,2.3825,2.5155,-3.788,1.2627,-0.76288,-5.0507,3.2811e-10,-0.38144,0,0,0.33333,-0,-0,0.66667
0.6968,0.209,2.0904,-0.4365,-2.5264,4.4406,2.4332,-0.81108,-1.322,3.2443,-3.4242e-11,-0.661,0,0,0.33333,-7.8949e-16,0,0.66667
0.76621,0.18089,2.2986,-0.47867,-2.2063,3.042,2.9341,-0.97802,-1.1857,3.9121,-1.742e-10,-0.59286,0,0,0.33333,1.1842e-15,0,0.66667
0.34245,0.071596,1.0274,-0.64261,-6.7073,15.137,1.7605,-0.58684,-0.53175,2.3473,9.3925e-14,-0.26588,0,0,0.33333,-0,-0,0.66667
0.84585,0.9988,2.5376,0.74821,2.5526,2.098,-5.063,1.6877,-0.010587,-6.7506,3.0908e-09,-0.0052933,0,0,0.33333,-5.033e-15,0,0.66667
0.42877,0.20554,1.2863,-0.44169,-4.1576,12.049,1.5151,-0.50502,-1.3056,2.0201,-9.8876e-13,-0.65279,0,0,0.33333,7.8949e-16,0,0.66667
0.82401,0.509,2.472,0.013498,0.04412,1.7978,-0.08898,0.02966,-1.999,-0.11864,-1.0167e-11,-0.9995,0,0,0.33333,-0,-0,0.66667
0.6265,0.23424,1.8795,-0.39864,-2.7393,6.1171,1.998,-0.66599,-1.4346,2.664,-4.0086e-12,-0.71732,0,0,0.33333,-0,-0,0.66667
0.14342,0.33686,0.43027,-0.2447,-2.7485,22.524,0.28077,-0.09359,-1.7871,0.37436,-9.8611e-11,-0.89356,0,0,0.33333,9.8686e-17,0,0.66667
0.078387,0.42365,0.23516,-0.11453,-1.3007,25.102,0.071822,-0.023941,-1.9533,0.095762,4.8357e-10,-0.97663,0,0,0.33333,-0,-0,0.66667
0.018333,0.35307,0.054998,-0.2204,-2.5265,27.513,0.032324,-0.010775,-1.8271,0.043099,-7.6372e-08,-0.91353,0,0,0.33333,-4.9343e-17,0,0.66667
0.066725,0.97154,0.20017,0.70731,8.4043,25.612,-0.37756,0.12585,-0.2217,-0.50341,1.956e-08,-0.11085,0,0,0.33333,-0,-0,0.66667
0.45858,0.0013703,1.3758,-0.74794,-7.0854,11.291,2.744,-0.91465,-0.011623,3.6586,1.299e-13,-0.0058113,0,0,0.33333,-0,-0,0.66667
0.11334,0.96778,0.34003,0.70167,8.2609,23.78,-0.63623,0.21208,-0.2503,-0.84831,-3.3672e-09,-0.12515,0,0,0.33333,2.0971e-16,0,0.66667
0.027783,0.34728,0.08335,-0.22908,-2.6257,27.134,0.050917,-0.016972,-1.8139,0.067889,6.3878e-08,-0.90693,0,0,0.33333,9.8686e-17,0,0.66667
0.75486,0.18688,2.2646,-0.46968,-2.258,3.2504,2.8363,-0.94545,-1.2165,3.7818,-1.398e-10,-0.60826,0,0,0.33333,2.0231e-15,0,0.66667
0.39485,0.25428,1.1846,-0.36858,-3.5703,13.168,1.1643,-0.38809,-1.5172,1.5524,1.632e-12,-0.75861,0,0,0.33333,-0,-0,0.66667
0.74694,0.36221,2.2408,-0.20668,-0.98502,3.229,1.235,-0.41167,-1.8476,1.6467,-7.9518e-11,-0.92382,0,0,0.33333,-7.8949e-16,0,0.66667
0.4524,0.14295,1.3572,-0.53558,-4.9585,11.325,1.9384,-0.64613,-0.97993,2.5845,-8.4521e-13,-0.48996,0,0,0.33333,-0,-0,0.66667
0.45009,0.72696,1.3503,0.34044,3.1,11.298,-1.2258,0.40861,-1.5877,-1.6344,5.711e-13,-0.79387,0,0,0.33333,7.8949e-16,0,0.66667
0.47807,0.38599,1.4342,-0.17101,-1.4885,10.337,0.65403,-0.21801,-1.8954,0.87204,-1.0886e-13,-0.94769,0,0,0.33333,-0,-0,0.66667
0.474,0.36327,1.422,-0.2051,-1.7975,10.476,0.77775,-0.25925,-1.8498,1.037,-1.4383e-13,-0.9249,0,0,0.33333,-0,-0,0.66667
0.80316,0.22394,2.4095,-0.4141,-1.5958,2.3235,2.6607,-0.8869,-1.3903,3.5476,-3.8553e-10,-0.69514,0,0,0.33333,-0,-0,0.66667
0.40239,0.26003,1.2072,-0.35996,-3.4585,12.905,1.1587,-0.38625,-1.5389,1.545,1.0361e-12,-0.76945,0,0,0.33333,-0,-0,0.66667
0.90469,0.54607,2.7141,0.069107,0.11058,0.7275,-0.50016,0.16672,-1.9827,-0.66688,-3.6885e-09,-0.99134,0,0,0.33333,-0,-0,0.66667
0.037061,0.36103,0.11118,-0.20845,-2.3857,26.761,0.061803,-0.020601,-1.8448,0.082404,7.8096e-08,-0.92238,0,0,0.33333,-0,-0,0.66667
0.77387,0.022193,2.3216,-0.71671,-3.4135,3.1931,4.4372,-1.4791,-0.17309,5.9162,-5.5502e-12,-0.086547,0,0,0.33333,-0,-0,0.66667
0.12564,0.30208,0.37692,-0.29688,-3.3602,23.231,0.2984,-0.099466,-1.6866,0.39786,-5.1598e-10,-0.84331,0,0,0.33333,1.9737e-16,0,0.66667
0.61851,0.73591,1.8555,0.35386,2.4614,6.2975,-1.7509,0.58365,-1.554,-2.3346,3.7206e-12,-0.777,0,0,0.33333,-1.522e-15,0,0.66667
0.010364,0.67108,0.031093,0.25662,2.9469,27.834,-0.021277,0.0070924,-1.7651,-0.02837,-3.7185e-08,-0.88256,0,0,0.33333,-0,-0,0.66667
0.53863,0.61673,1.6159,0.1751,1.395,8.4675,-0.7545,0.2515,-1.8906,-1.006,-1.3312e-13,-0.94528,0,0,0.33333,-7.8949e-16,0,0.66667
0.003018,0.17081,0.0090539,-0.49378,-5.7621,28.13,0.011922,-0.0039739,-1.1326,0.015896,6.3933e-08,-0.56628,0,0,0.33333,-0,7.8584e-16,0.66667
0.95119,0.70633,2.8536,0.30949,0.20388,0.41326,-2.3551,0.78503,-1.6591,-3.1401,-6.4965e-09,-0.82955,0,0,0.33333,-1.579e-15,0,0.66667
0.9054,0.10992,2.7162,-0.58512,-1.132,1.1273,4.2382,-1.4127,-0.78247,5.6509,-1.1116e-08,-0.39123,0,0,0.33333,-0,3.9427e-16,0.66667
0.79597,0.86274,2.3879,0.54411,2.2422,2.5781,-3.4647,1.1549,-0.9472,-4.6197,3.2501e-10,-0.4736,0,0,0.33333,7.8949e-16,-4.3721e-16,0.66667
0.91527,0.80119,2.7458,0.45178,0.71183,0.86029,-3.308,1.1027,-1.2736,-4.4107,3.2571e-09,-0.63682,0,0,0.33333,-0,-0,0.66667
0.14556,0.38076,0.43667,-0.17885,-2.0024,22.434,0.20827,-0.069423,-1.8862,0.27769,5.4564e-11,-0.94311,0,0,0.33333,-0,-0,0.66667
0.15773,0.45044,0.47319,-0.074336,-0.8269,21.95,0.0938,-0.031267,-1.9801,0.12507,-1.388e-10,-0.99004,0,0,0.33333,-0,-0,0.66667
0.18763,0.90376,0.5629,0.60564,6.8889,20.869,-0.9091,0.30303,-0.69693,-1.2121,-2.7103e-10,-0.34847,0,0,0.33333,4.4409e-16,0,0.66667
0.6225,0.46076,1.8675,-0.058862,-0.3985,6.092,0.29313,-0.09771,-1.9876,0.39084,-2.1565e-12,-0.99381,0,0,0.33333,-3.9475e-16,0,0.66667
0.90581,0.9188,2.7174,0.62819,1.2438,1.1863,-4.5522,1.5174,-0.59678,-6.0696,-3.517e-09,-0.29839,0,0,0.33333,-0,-0,0.66667
0.98996,0.98044,2.9699,0.72066,0.14062,0.73183,-5.7074,1.9025,-0.15276,-7.6099,-1.7075e-06,-0.076379,0,0,0.33333,1.579e-15,0,0.66667
0.71112,0.40281,2.1334,-0.14579,-0.78292,3.9628,0.82937,-0.27646,-1.9247,1.1058,-3.4224e-11,-0.96233,0,0,0.33333,-9.8686e-16,0,0.66667
0.7318,0.74508,2.1954,0.36762,1.8861,3.6297,-2.1522,0.7174,-1.5198,-2.8696,8.8809e-11,-0.7599,0,0,0.33333,-0,-0,0.66667
0.90929,0.85251,2.7279,0.52876,0.94376,1.0117,-3.8464,1.2821,-1.0057,-5.1286,-4.7303e-09,-0.50284,0,0,0.33333,-0,-0,0.66667
0.40087,0.68436,1.2026,0.27654,2.6459,12.929,-0.88687,0.29562,-1.7284,-1.1825,-2.0265e-12,-0.86422,0,0,0.33333,2.9606e-16,0,0.66667
0.24985,0.15918,0.74955,-0.51123,-5.5921,18.468,1.0219,-0.34062,-1.0718,1.3625,1.0424e-10,-0.53588,0,0,0.33333,7.8949e-16,-3.242e-16,0.66667
0.17343,0.79035,0.52029,0.43553,4.9008,21.376,-0.60427,0.20142,-1.3255,-0.8057,-6.2946e-10,-0.66275,0,0,0.33333,-0,-0,0.66667
0.11946,0.97041,0.35837,0.70561,8.2993,23.542,-0.67432,0.22477,-0.23033,-0.8991,8.8589e-09,-0.11517,0,0,0.33333,-0,-0,0.66667
0.81261,0.84334,2.4378,0.51501,1.9404,2.269,-3.348,1.116,-1.0585,-4.464,4.5581e-10,-0.52923,0,0,0.33333,2.0724e-15,0,0.66667
0.14679,0.13326,0.44038,-0.55011,-6.3108,22.439,0.64601,-0.21534,-0.92363,0.86135,2.1743e-09,-0.46181,0,0,0.33333,-0,-0,0.66667
0.2643,0.72521,0.79289,0.33782,3.6135,17.874,-0.71427,0.23809,-1.5945,-0.95236,-9.4079e-11,-0.79726,0,0,0.33333,-0,-0,0.66667
0.81909,0.31561,2.4573,-0.27658,-0.95287,1.9596,1.8124,-0.60413,-1.7283,2.4165,-8.4998e-11,-0.86415,0,0,0.33333,-0,-0,0.66667
0.31059,0.5345,0.93176,0.051749,0.53103,16.109,-0.12858,0.04286,-1.9912,-0.17144,-9.0592e-12,-0.99558,0,0,0.33333,-0,-0,0.66667
0.98242,0.3513,2.9473,-0.22306,0.025304,0.15096,1.7531,-0.58436,-1.8232,2.3374,5.0637e-08,-0.91158,0,0,0.33333,-0,-0,0.66667
0.26664,0.95957,0.79992,0.68936,7.6218,17.914,-1.4705,0.49016,-0.31037,-1.9606,-4.9466e-12,-0.15518,0,0,0.33333,1.9737e-16,0,0.66667
0.53365,0.017028,1.601,-0.72446,-6.1894,8.9676,3.0929,-1.031,-0.13346,4.1238,-8.7264e-14,-0.06673,0,0,0.33333,1.579e-15,0,0.66667
0.31447,0.73063,0.9434,0.34595,3.582,16.016,-0.87032,0.29011,-1.5742,-1.1604,-3.174e-11,-0.78708,0,0,0.33333,-0,-0,0.66667
0.91077,0.55158,2.7323,0.07737,0.11364,0.66457,-0.56373,0.18791,-1.9782,-0.75164,-1.1283e-08,-0.98909,0,0,0.33333,-0,-0,0.66667
0.36656,0.39116,1.0997,-0.16327,-1.6052,14.1,0.47877,-0.15959,-1.9044,0.63836,6.9562e-12,-0.95221,0,0,0.33333,-1.2236e-15,0,0.66667
0.43359,0.8565,1.3008,0.53476,5.0573,11.941,-1.8549,0.61831,-0.98267,-2.4732,1.1215e-12,-0.49133,0,0,0.33333,-0,-0,0.66667
0.51229,0.034253,1.5369,-0.69862,-6.1293,9.577,2.8632,-0.95439,-0.26518,3.8176,1.088e-13,-0.13259,0,0,0.33333,-1.579e-15,1.4081e-16,0.66667
0.93889,0.72753,2.8167,0.34129,0.32742,0.53726,-2.5635,0.85448,-1.5859,-3.4179,1.0805e-09,-0.79293,0,0,0.33333,-0,-0,0.66667
0.030949,0.36445,0.092847,-0.20332,-2.3276,27.006,0.050341,-0.01678,-1.8531,0.067121,-4.4536e-08,-0.92653,0,0,0.33333,-0,-0,0.66667
0.71688,0.31476,2.1506,-0.27786,-1.4809,3.8904,1.5935,-0.53117,-1.7264,2.1247,-6.0881e-11,-0.86318,0,0,0.33333,1.579e-15,0,0.66667
0.89102,0.85273,2.6731,0.52909,1.1534,1.2078,-3.7714,1.2571,-1.0048,-5.0286,6.9674e-09,-0.50242,0,0,0.33333,-0,-0,0.66667
0.027287,0.27446,0.081862,-0.33831,-3.8994,27.156,0.073851,-0.024617,-1.593,0.098468,3.4635e-09,-0.79649,0,0,0.33333,-0,-0,0.66667
0.52205,0.92251,1.5662,0.63376,5.4268,9.2244,-2.6469,0.88229,-0.5711,-3.5291,-2.1605e-13,-0.28555,0,0,0.33333,-0,-0,0.66667
0.32599,0.33953,0.97797,-0.2407,-2.4555,15.57,0.62773,-0.20924,-1.7945,0.83697,2.3539e-11,-0.89724,0,0,0.33333,1.9737e-16,0,0.66667
0.85949,0.25559,2.5785,-0.36662,-0.98671,1.4287,2.5208,-0.84028,-1.5227,3.3611,-2.0333e-10,-0.76135,0,0,0.33333,-0,-0,0.66667
0.55852,0.69003,1.6755,0.28504,2.2113,7.9209,-1.2736,0.42454,-1.7117,-1.6982,-4.7506e-13,-0.85584,0,0,0.33333,1.579e-15,0,0.66667
0.69023,0.86982,2.0707,0.55472,3.3388,4.6975,-3.0631,1.021,-0.90615,-4.0841,1.2354e-11,-0.45308,0,0,0.33333,-7.8949e-16,0,0.66667
0.45285,0.65775,1.3586,0.23663,2.1329,11.171,-0.85727,0.28576,-1.8022,-1.143,9.0206e-14,-0.90109,0,0,0.33333,1.579e-15,0,0.66667
0.62831,0.027557,1.8849,-0.70866,-5.1025,6.3577,3.5621,-1.1874,-0.21481,4.7494,2.2626e-13,-0.1074,0,0,0.33333,-0,-0,0.66667
0.2901,0.20927,0.87029,-0.4361,-4.6244,16.94,1.0121,-0.33736,-1.3233,1.3494,4.8614e-11,-0.66163,0,0,0.33333,-3.9475e-16,0,0.66667
0.0093486,0.28707,0.028046,-0.31939,-3.6798,27.875,0.023887,-0.0079622,-1.6372,0.031849,5.4528e-09,-0.81859,0,0,0.33333,-0,-0,0.66667
0.57676,0.2741,1.7303,-0.33885,-2.5563,7.4261,1.5635,-0.52115,-1.5919,2.0846,1.3589e-13,-0.79597,0,0,0.33333,-0,-0,0.66667
0.31144,0.92233,0.93433,0.6335,6.7588,16.244,-1.5784,0.52613,-0.5728,-2.1045,-3.4208e-12,-0.2864,0,0,0.33333,-0,3.944e-16,0.66667
0.51727,0.83517,1.5518,0.50275,4.2573,9.2651,-2.0804,0.69348,-1.1013,-2.7739,-4.6607e-13,-0.55065,0,0,0.33333,3.9475e-16,0,0.66667
0.91641,0.69139,2.7492,0.28708,0.40896,0.70054,-2.1047,0.70156,-1.7072,-2.8062,-5.9523e-09,-0.85359,0,0,0.33333,-3.158e-15,0,0.66667
0.42647,0.36825,1.2794,-0.19762,-1.8328,12.037,0.67424,-0.22475,-1.861,0.89899,6.759e-13,-0.9305,0,0,0.33333,-3.9475e-16,0,0.66667
0.2474,0.070582,0.74219,-0.64413,-7.1579,18.611,1.2748,-0.42495,-0.52471,1.6998,3.1473e-11,-0.26235,0,0,0.33333,-0,-3.2914e-16,0.66667
0.37129,0.12777,1.1139,-0.55835,-5.6313,14.074,1.6585,-0.55283,-0.89209,2.2113,-2.0761e-14,-0.44604,0,0,0.33333,-0,-0,0.66667
0.93186,0.72999,2.7956,0.34499,0.38629,0.60082,-2.5719,0.85729,-1.5762,-3.4291,-5.4619e-09,-0.7881,0,0,0.33333,1.579e-15,0,0.66667
0.93687,0.75732,2.8106,0.38599,0.40084,0.59488,-2.8929,0.96431,-1.4706,-3.8573,-4.7996e-10,-0.73528,0,0,0.33333,-0,-0,0.66667
0.84433,0.12589,2.533,-0.56116,-1.7893,1.8432,3.7904,-1.2635,-0.88168,5.0539,-2.2537e-09,-0.44084,0,0,0.33333,3.158e-15,0,0.66667
0.92021,0.14392,2.7606,-0.53411,-0.82849,0.91226,3.932,-1.3107,-0.9854,5.2426,-9.4507e-09,-0.4927,0,0,0.33333,-0,-6.1411e-17,0.66667
0.2279,0.25044,0.6837,-0.37434,-4.0948,19.262,0.6825,-0.2275,-1.5026,0.91,1.9221e-10,-0.75129,0,0,0.33333,7.8949e-16,0,0.66667
0.087482,0.79664,0.26245,0.44496,5.1305,24.76,-0.31141,0.1038,-1.2953,-0.41521,-1.7153e-09,-0.64763,0,0,0.33333,-0,-0,0.66667
0.22731,0.21676,0.68193,-0.42486,-4.6666,19.296,0.7726,-0.25753,-1.3587,1.0301,2.1364e-10,-0.67935,0,0,0.33333,-1.4803e-16,0,0.66667
0.31438,0.036855,0.94313,-0.69472,-7.4551,16.171,1.7472,-0.58241,-0.28428,2.3296,2.1594e-13,-0.14214,0,0,0.33333,-7.8949e-16,0,0.66667
0.17477,0.82128,0.5243,0.48193,5.4414,21.334,-0.6738,0.2246,-1.174,-0.89839,-6.4724e-10,-0.58701,0,0,0.33333,-0,-0,0.66667
0.60709,0.98884,1.8213,0.73326,5.5372,6.9347,-3.5613,1.1871,-0.08796,-4.7484,-1.2323e-13,-0.04398,0,0,0.33333,1.579e-15,3.6248e-16,0.66667
0.41359,0.46434,1.2408,-0.053489,-0.50103,12.454,0.17698,-0.058993,-1.9899,0.23597,6.5062e-13,-0.99495,0,0,0.33333,-3.9475e-16,0,0.66667
0.81635,0.66144,2.4491,0.24216,0.8428,1.9842,-1.5815,0.52718,-1.7916,-2.1087,2.481e-10,-0.89581,0,0,0.33333,-3.158e-15,0,0.66667
0.18513,0.28239,0.55539,-0.32641,-3.6284,20.901,0.48343,-0.16114,-1.6222,0.64458,2.7894e-10,-0.81109,0,0,0.33333,-7.8949e-16,0,0.66667
0.70188,0.46054,2.1056,-0.059197,-0.3261,4.1519,0.33239,-0.1108,-1.9876,0.44319,-1.2609e-11,-0.99381,0,0,0.33333,7.8949e-16,0,0.66667
0.24036,0.46871,0.72107,-0.046935,-0.50341,18.743,0.090249,-0.030083,-1.9931,0.12033,2.6811e-11,-0.99655,0,0,0.33333,4.8726e-16,0,0.66667
0.57422,0.32472,1.7227,-0.26292,-1.9802,7.4626,1.2078,-0.40259,-1.7537,1.6104,-3.6682e-13,-0.87683,0,0,0.33333,-0,-0,0.66667
0.34899,0.81063,1.047,0.46594,4.7434,14.814,-1.3009,0.43362,-1.2287,-1.7345,-6.8873e-12,-0.61434,0,0,0.33333,9.8686e-17,0,0.66667
0.056964,0.93735,0.17089,0.65602,7.7568,25.992,-0.29896,0.099652,-0.47076,-0.39861,-5.46e-07,-0.23538,0,0,0.33333,-3.7007e-17,0,0.66667
0.22881,0.50881,0.68644,0.013219,0.14261,19.184,-0.024198,0.008066,-1.999,-0.032264,-3.1099e-11,-0.99948,0,0,0.33333,-7.8949e-16,0,0.66667
0.6641,0.47164,1.9923,-0.042542,-0.26062,5.0362,0.22602,-0.075339,-1.9939,0.30136,-4.4294e-12,-0.99694,0,0,0.33333,-0,-0,0.66667
0.49725,0.51585,1.4918,0.023772,0.20087,9.7114,-0.094563,0.031521,-1.9975,-0.12608,1.4352e-13,-0.99874,0,0,0.33333,-1.579e-15,0,0.66667
0.51902,0.75746,1.557,0.3862,3.2204,9.1406,-1.6035,0.53451,-1.4696,-2.138,-5.1203e-13,-0.73479,0,0,0.33333,-0,-0,0.66667
0.17472,0.54071,0.52416,0.06106,0.67496,21.282,-0.085347,0.028449,-1.9865,-0.1138,-5.0444e-11,-0.99325,0,0,0.33333,-0,-0,0.66667
0.57072,0.46964,1.7121,-0.045534,-0.34197,7.511,0.20789,-0.069298,-1.9933,0.27719,-1.5242e-13,-0.99667,0,0,0.33333,-0,-0,0.66667
0.99675,0.161,2.9903,-0.50851,0.12071,0.35783,4.0548,-1.3516,-1.0809,5.4064,-7.4635e-08,-0.54044,0,0,0.33333,-0,-0,0.66667
0.81684,0.28888,2.4505,-0.31667,-1.1128,2.0217,2.0694,-0.68978,-1.6432,2.7591,-2.3419e-10,-0.82161,0,0,0.33333,-0,-0,0.66667
0.59437,0.87103,1.7831,0.55654,4.1732,7.0917,-2.6463,0.88211,-0.89947,-3.5285,-1.1338e-12,-0.44973,0,0,0.33333,1.9737e-16,0,0.66667
0.97599,0.78684,2.928,0.43026,0.076576,0.36354,-3.3594,1.1198,-1.3417,-4.4792,6.674e-10,-0.67084,0,0,0.33333,-0,-0,0.66667
0.90156,0.92953,2.7047,0.64429,1.3487,1.2547,-4.6469,1.549,-0.52377,-6.1959,8.1825e-10,-0.26189,0,0,0.33333,-0,-0,0.66667
0.59561,0.018087,1.7868,-0.72287,-5.5672,7.2272,3.4444,-1.1481,-0.14173,4.5925,1.5588e-13,-0.070867,0,0,0.33333,-0,-0,0.66667
0.032426,0.49057,0.097279,-0.014143,-0.16129,26.945,0.0036698,-0.0012247,-1.9993,0.0048924,-2.0567e-06,-0.99964,0,0,0.33333,-4.9343e-17,0,0.66667
0.093577,0.53087,0.28073,0.046298,0.52381,24.494,-0.034659,0.011553,-1.9939,-0.046212,-6.9564e-08,-0.99695,0,0,0.33333,-1.9121e-16,0,0.66667
0.065372,0.033657,0.19612,-0.69951,-8.3052,25.665,0.36583,-0.12194,-0.2609,0.48777,-9.6425e-08,-0.13045,0,0,0.33333,-0,-0,0.66667
0.45173,0.72381,1.3552,0.33571,3.0498,11.242,-1.2132,0.4044,-1.5998,-1.6176,5.7854e-13,-0.79988,0,0,0.33333,-0,-0,0.66667
0.37543,0.69553,1.1263,0.29329,2.8785,13.817,-0.88089,0.29363,-1.6944,-1.1745,-5.8339e-12,-0.8472,0,0,0.33333,-0,-0,0.66667
0.97535,0.64852,2.9261,0.22279,0.011689,0.191,-1.7383,0.57945,-1.8232,-2.3178,-5.8057e-09,-0.91158,0,0,0.33333,-0,-0,0.66667
0.16798,0.89582,0.50395,0.59373,6.7944,21.625,-0.79789,0.26596,-0.74619,-1.0639,-9.9857e-10,-0.37309,0,0,0.33333,-1.9737e-16,0,0.66667
0.97279,0.56419,2.9184,0.09629,0.0067853,0.15409,-0.74935,0.24978,-1.9677,-0.99914,-1.9378e-06,-0.98387,0,0,0.33333,-0,-0,0.66667
0.76747,0.86915,2.3024,0.55372,2.5839,3.0976,-3.3997,1.1332,-0.91013,-4.533,1.3026e-10,-0.45506,0,0,0.33333,-3.9475e-16,0,0.66667
0.82424,0.22624,2.4727,-0.41063,-1.4122,1.9793,2.7077,-0.90256,-1.4003,3.6102,-4.5415e-10,-0.70015,0,0,0.33333,-1.579e-15,0,0.66667
0.63262,0.8604,1.8978,0.54059,3.7395,6.0718,-2.7359,0.91197,-0.96011,-3.6479,7.2098e-13,-0.48006,0,0,0.33333,4.0324e-17,0,0.66667
0.66873,0.36484,2.0062,-0.20274,-1.2353,4.9589,1.0846,-0.36155,-1.8535,1.4462,-1.9046e-11,-0.92675,0,0,0.33333,7.8949e-16,0,0.66667
0.47688,0.74241,1.4306,0.36361,3.2088,10.441,-1.3872,0.4624,-1.5295,-1.8496,4.2388e-13,-0.76477,0,0,0.33333,-0,-0,0.66667
0.013136,0.46859,0.039409,-0.047109,-0.53784,27.721,0.0049494,-0.0016559,-1.9933,0.0065961,-9.1612e-06,-0.99665,0,0,0.33333,-3.1418e-17,0,0.66667
0.35301,0.94008,1.059,0.66012,6.8476,14.774,-1.8642,0.62141,-0.45102,-2.4856,3.0753e-13,-0.22551,0,0,0.33333,-0,-0,0.66667
0.49207,0.4744,1.4762,-0.038396,-0.32685,9.8748,0.15115,-0.050383,-1.9946,0.20153,4.2896e-14,-0.99732,0,0,0.33333,-1.579e-15,0,0.66667
0.73009,0.85606,2.1903,0.53409,2.8393,3.8115,-3.1195,1.0398,-0.98519,-4.1593,5.2543e-11,-0.49259,0,0,0.33333,1.579e-15,0,0.66667
0.46863,0.0050218,1.4059,-0.74247,-6.9443,10.967,2.7835,-0.92784,-0.040656,3.7114,8.9706e-14,-0.020328,0,0,0.33333,-0,-2.1296e-16,0.66667
0.4574,0.88319,1.3722,0.57479,5.316,11.189,-2.1033,0.7011,-0.82503,-2.8044,6.4371e-13,-0.41252,0,0,0.33333,-0,-0,0.66667
0.13766,0.26484,0.41299,-0.35274,-3.9925,22.763,0.38848,-0.12949,-1.5571,0.51797,-1.1718e-10,-0.77853,0,0,0.33333,-1.9737e-16,0,0.66667
0.010889,0.68672,0.032666,0.28008,3.22,27.813,-0.024398,0.0081327,-1.7219,-0.032531,3.8857e-08,-0.86096,0,0,0.33333,-1.8504e-17,0,0.66667
0.75828,0.83746,2.2748,0.50619,2.4209,3.2203,-3.0706,1.0235,-1.0888,-4.0942,1.3141e-10,-0.54439,0,0,0.33333,1.1842e-15,0,0.66667
0.31995,0.86043,0.95986,0.54065,5.6722,15.89,-1.3839,0.46129,-0.9599,-1.8451,-1.0241e-11,-0.47995,0,0,0.33333,3.9475e-16,0,0.66667
0.98438,0.31945,2.9532,-0.27082,0.036665,0.17137,2.1327,-0.71092,-1.7397,2.8437,-1.7629e-08,-0.86983,0,0,0.33333,-0,-0,0.66667
0.22023,0.4353,0.6607,-0.097057,-1.0525,19.517,0.171,-0.057001,-1.9674,0.228,4.4281e-11,-0.98372,0,0,0.33333,4.4409e-16,0,0.66667
0.33871,0.50907,1.0161,0.013607,0.13662,15.083,-0.036872,0.012291,-1.9989,-0.049162,-1.3658e-12,-0.99946,0,0,0.33333,-0,-0,0.66667
0.5239,0.61367,1.5717,0.17051,1.3902,8.909,-0.71464,0.23821,-1.8959,-0.95286,-2.2055e-13,-0.94797,0,0,0.33333,-0,-0,0.66667
0.75489,0.0091619,2.2647,-0.73626,-3.7847,3.5734,4.4464,-1.4821,-0.072204,5.9285,-8.2561e-12,-0.036102,0,0,0.33333,3.158e-15,0,0.66667
0.46386,0.37444,1.3916,-0.18835,-1.6709,10.799,0.69893,-0.23298,-1.8747,0.93191,-6.9056e-14,-0.93737,0,0,0.33333,-1.1102e-15,0,0.66667
0.12482,0.28014,0.37447,-0.32978,-3.7406,23.267,0.32931,-0.10977,-1.6147,0.43909,3.1613e-10,-0.80734,0,0,0.33333,3.7007e-17,0,0.66667
0.3125,0.29996,0.9375,-0.30006,-3.1021,16.076,0.75015,-0.25005,-1.6799,1.0002,3.3726e-11,-0.83993,0,0,0.33333,-0,-0,0.66667
0.50452,0.52287,1.5136,0.034305,0.28691,9.4849,-0.13846,0.046153,-1.9955,-0.18461,-1.1213e-13,-0.99775,0,0,0.33333,-0,-0,0.66667
0.67385,0.31868,2.0215,-0.27198,-1.644,4.8658,1.4662,-0.48873,-1.7372,1.9549,-2.4286e-11,-0.8686,0,0,0.33333,-0,-0,0.66667
0.77015,0.54256,2.3104,0.063843,0.27473,2.7372,-0.39335,0.13112,-1.985,-0.52447,2.7566e-11,-0.99248,0,0,0.33333,-1.579e-15,0,0.66667
0.13034,0.17934,0.39101,-0.48099,-5.5086,23.071,0.50152,-0.16717,-1.1771,0.66869,1.5492e-09,-0.58854,0,0,0.33333,-9.8686e-17,0,0.66667
0.022915,0.35841,0.068745,-0.21238,-2.4333,27.329,0.038934,-0.012978,-1.8388,0.051912,-1.3114e-07,-0.91941,0,0,0.33333,-0,-0,0.66667
0.51908,0.0024929,1.5572,-0.74626,-6.5379,9.4208,3.099,-1.033,-0.020514,4.132,-1.8585e-13,-0.010257,0,0,0.33333,-0,-0,0.66667
0.80999,0.020865,2.43,-0.7187,-2.9318,2.5828,4.6571,-1.5524,-0.16315,6.2095,-1.5952e-11,-0.081576,0,0,0.33333,-0,-3.5035e-16,0.66667
0.012604,0.45379,0.037811,-0.069322,-0.79164,27.743,0.0069924,-0.0023322,-1.9824,0.0093225,-2.1701e-06,-0.99119,0,0,0.33333,2.4672e-17,0,0.66667
0.67247,0.055898,2.0174,-0.66615,-4.2969,5.2302,3.5837,-1.1946,-0.42257,4.7783,-3.4861e-13,-0.21128,0,0,0.33333,-0,-0,0.66667
0.68681,0.435,2.0604,-0.097497,-0.56217,4.5023,0.53569,-0.17856,-1.9672,0.71426,-1.5537e-11,-0.9836,0,0,0.33333,-1.9737e-16,0,0.66667
0.44925,0.28739,1.3477,-0.31891,-2.9022,11.317,1.1462,-0.38205,-1.6384,1.5282,-4.8972e-13,-0.81919,0,0,0.33333,-0,-0,0.66667
0.91479,0.19753,2.7444,-0.4537,-0.72052,0.86719,3.3203,-1.1068,-1.2675,4.4271,-3.9371e-09,-0.63376,0,0,0.33333,-0,-0,0.66667
0.64436,0.4203,1.9331,-0.11955,-0.77098,5.5372,0.61626,-0.20542,-1.9486,0.82168,-7.2362e-12,-0.97429,0,0,0.33333,-0,-0,0.66667
0.0052398,0.20711,0.01572,-0.43934,-5.1036,28.04,0.018416,-0.0061388,-1.3131,0.024555,-1.4971e-09,-0.65655,0,0,0.33333,-0,-0,0.66667
0.48443,0.57285,1.4533,0.10927,0.94113,10.124,-0.42347,0.14116,-1.9577,-0.56462,4.4298e-14,-0.97883,0,0,0.33333,-0,-0,0.66667
0.85932,0.14044,2.578,-0.53934,-1.541,1.6103,3.7077,-1.2359,-0.96565,4.9436,-2.0175e-09,-0.48282,0,0,0.33333,-1.579e-15,4.9107e-16,0.66667
0.8304,0.016633,2.4912,-0.72505,-2.6733,2.2798,4.8167,-1.6056,-0.13041,6.4222,2.8841e-10,-0.065204,0,0,0.33333,-0,-0,0.66667
0.64915,0.8039,1.9475,0.45585,2.9974,5.5841,-2.3673,0.78911,-1.2607,-3.1564,6.8692e-12,-0.63035,0,0,0.33333,-7.8949e-16,0,0.66667
0.6737,0.39339,2.0211,-0.15991,-0.95895,4.8259,0.86186,-0.28729,-1.9087,1.1492,-1.8072e-11,-0.95437,0,0,0.33333,-0,-0,0.66667
0.5785,0.24869,1.7355,-0.37697,-2.8454,7.3982,1.7446,-0.58154,-1.496,2.3261,3.8369e-13,-0.74801,0,0,0.33333,-7.8949e-16,0,0.66667
0.27412,0.80773,0.82236,0.46159,4.9556,17.542,-1.0123,0.33742,-1.2424,-1.3497,-6.7677e-11,-0.62122,0,0,0.33333,1.6231e-16,0,0.66667
0.56053,0.71072,1.6816,0.31608,2.4496,7.8767,-1.4174,0.47246,-1.6448,-1.8898,-4.7395e-13,-0.82239,0,0,0.33333,-0,-0,0.66667
0.67173,0.62115,2.0152,0.18173,1.097,4.8796,-0.97658,0.32553,-1.8834,-1.3021,1.9066e-11,-0.94172,0,0,0.33333,9.8686e-16,0,0.66667
0.35243,0.34464,1.0573,-0.23303,-2.3262,14.616,0.65702,-0.21901,-1.8076,0.87603,1.2235e-11,-0.90382,0,0,0.33333,-0,-0,0.66667
0.85583,0.65273,2.5675,0.2291,0.61441,1.3849,-1.5686,0.52286,-1.8138,-2.0914,-2.6794e-10,-0.9069,0,0,0.33333,1.4376e-15,0,0.66667
0.19504,0.51527,0.58511,0.0229,0.25101,20.489,-0.035732,0.011911,-1.9973,-0.047642,-7.6681e-11,-0.99866,0,0,0.33333,-0,-0,0.66667
0.74732,0.86961,2.242,0.55441,2.7907,3.485,-3.3146,1.1049,-0.90737,-4.4194,7.5195e-11,-0.45368,0,0,0.33333,-1.1842e-15,0,0.66667
0.2896,0.35335,0.86881,-0.21998,-2.3011,16.904,0.50965,-0.16988,-1.8274,0.67953,4.687e-11,-0.9137,0,0,0.33333,-0,-0,0.66667
0.7738,0.19872,2.3214,-0.45191,-2.008,2.8752,2.7975,-0.93251,-1.2732,3.73,-2.1255e-10,-0.63659,0,0,0.33333,-1.579e-15,0,0.66667
0.42774,0.59783,1.2832,0.14674,1.3564,11.985,-0.50214,0.16738,-1.9236,-0.66952,-5.2264e-13,-0.9618,0,0,0.33333,-0,-0,0.66667
0.8077,0.9076,2.4231,0.6114,2.4308,2.4658,-3.9506,1.3169,-0.67161,-5.2675,3.127e-10,-0.3358,0,0,0.33333,-0,-0,0.66667
0.35353,0.62332,1.0606,0.18498,1.8409,14.567,-0.52316,0.17439,-1.8789,-0.69755,-1.0603e-11,-0.93947,0,0,0.33333,5.2334e-17,0,0.66667
0.21369,0.80105,0.64108,0.45158,5.0036,19.824,-0.772,0.25733,-1.2743,-1.0293,-2.9429e-10,-0.63717,0,0,0.33333,1.9737e-16,0,0.66667
0.76728,0.81803,2.3019,0.47705,2.1887,3.0203,-2.9282,0.97608,-1.1912,-3.9043,1.786e-10,-0.5956,0,0,0.33333,1.579e-15,0,0.66667
0.30864,0.73296,0.92593,0.34943,3.6342,16.23,-0.8628,0.2876,-1.5652,-1.1504,-3.6347e-11,-0.78262,0,0,0.33333,-0,-0,0.66667
0.73325,0.037188,2.1997,-0.69422,-3.7937,3.9388,4.0723,-1.3574,-0.28682,5.4297,-4.0385e-12,-0.14341,0,0,0.33333,1.579e-15,0,0.66667
0.74447,0.1909,2.2334,-0.46365,-2.313,3.4498,2.7614,-0.92048,-1.2359,3.6819,-1.0681e-10,-0.61797,0,0,0.33333,-0,-0,0.66667
0.2214,0.1725,0.66419,-0.49125,-5.4424,19.54,0.87008,-0.29003,-1.1415,1.1601,2.3768e-10,-0.57074,0,0,0.33333,-0,-0,0.66667
0.21411,0.83309,0.64234,0.49963,5.5586,19.821,-0.85581,0.28527,-1.1119,-1.1411,-2.6742e-10,-0.55595,0,0,0.33333,-0,-0,0.66667
0.19895,0.49478,0.59684,-0.0078289,-0.085657,20.337,0.01246,-0.0041534,-1.9999,0.016614,2.0107e-10,-0.99994,0,0,0.33333,1.9737e-16,0,0.66667
0.14252,0.78951,0.42756,0.43426,4.9369,22.584,-0.49512,0.16504,-1.3295,-0.66016,-9.6761e-10,-0.66473,0,0,0.33333,-3.9475e-16,0,0.66667
0.37708,0.70695,1.1312,0.31042,3.0453,13.764,-0.93644,0.31215,-1.6571,-1.2486,-5.2533e-12,-0.82853,0,0,0.33333,3.9475e-16,0,0.66667
0.026628,0.82468,0.079884,0.48703,5.6759,27.187,-0.10375,0.034583,-1.156,-0.13833,1.7118e-08,-0.57802,0,0,0.33333,-0,-0,0.66667
0.11092,0.24085,0.33276,-0.38873,-4.4415,23.824,0.34494,-0.11498,-1.4627,0.45993,-9.0263e-10,-0.73133,0,0,0.33333,-0,-0,0.66667
0.67456,0.57903,2.0237,0.11854,0.70778,4.7948,-0.6397,0.21323,-1.9495,-0.85294,1.4348e-11,-0.97477,0,0,0.33333,-7.8949e-16,0,0.66667
0.79978,0.57762,2.3993,0.11643,0.43719,2.2123,-0.74493,0.24831,-1.9513,-0.99324,8.3999e-11,-0.97564,0,0,0.33333,-0,-0,0.66667
0.08053,0.70157,0.24159,0.30235,3.4569,25.025,-0.19478,0.064928,-1.6745,-0.25971,3.2655e-09,-0.83726,0,0,0.33333,-0,-0,0.66667
0.2317,0.60343,0.69511,0.15515,1.6752,19.081,-0.28759,0.095862,-1.9142,-0.38345,-7.252e-11,-0.95708,0,0,0.33333,-0,-0,0.66667
0.20763,0.26797,0.62288,-0.34804,-3.8372,20.034,0.5781,-0.1927,-1.5687,0.77081,2.4144e-10,-0.78433,0,0,0.33333,3.9475e-16,0,0.66667
0.91733,0.93397,2.752,0.65096,1.1445,1.1089,-4.7772,1.5924,-0.49368,-6.3696,2.9527e-08,-0.24684,0,0,0.33333,3.9475e-16,0,0.66667
0.71131,0.24993,2.1339,-0.3751,-2.0596,4.0719,2.1345,-0.7115,-1.5006,2.846,-5.6837e-11,-0.75031,0,0,0.33333,-1.8504e-16,0,0.66667
0.55388,0.3859,1.6617,-0.17115,-1.3291,8.0169,0.75839,-0.2528,-1.8952,1.0112,-6.6058e-15,-0.9476,0,0,0.33333,-0,-0,0.66667
0.30452,0.53411,0.91355,0.051171,0.5274,16.333,-0.12466,0.041554,-1.991,-0.16621,-9.9336e-12,-0.99551,0,0,0.33333,7.8949e-16,0,0.66667
0.83485,0.80735,2.5046,0.46103,1.5091,1.8662,-3.0791,1.0264,-1.2443,-4.1055,5.6227e-10,-0.62213,0,0,0.33333,-1.9737e-15,0,0.66667
0.43531,0.59396,1.3059,0.14094,1.2915,11.73,-0.49083,0.16361,-1.9306,-0.65444,-1.541e-13,-0.9653,0,0,0.33333,-0,-0,0.66667
0.92346,0.7841,2.7704,0.42615,0.58457,0.75446,-3.1483,1.0494,-1.3551,-4.1977,2.0289e-09,-0.67754,0,0,0.33333,-0,-0,0.66667
0.70605,0.022107,2.1182,-0.71684,-4.2777,4.5388,4.049,-1.3497,-0.17271,5.3987,-3.6593e-13,-0.086357,0,0,0.33333,-0,-0,0.66667
0.47803,0.36938,1.4341,-0.19593,-1.7074,10.345,0.74927,-0.24976,-1.8634,0.99903,-1.5177e-13,-0.93171,0,0,0.33333,-3.9475e-16,0,0.66667
0.12621,0.48856,0.37863,-0.017157,-0.1926,23.194,0.017323,-0.0057744,-1.9988,0.023098,-3.895e-09,-0.99939,0,0,0.33333,-3.9475e-16,0,0.66667
0.97604,0.25886,2.9281,-0.36171,-0.043562,0.29258,2.8244,-0.94147,-1.5343,3.7659,-3.4578e-09,-0.76715,0,0,0.33333,-0,-0,0.66667
0.15983,0.51478,0.4795,0.022177,0.2464,21.866,-0.028357,0.0094524,-1.9977,-0.03781,-9.1226e-11,-0.99883,0,0,0.33333,-0,-0,0.66667
0.2026,0.38323,0.60781,-0.17515,-1.919,20.203,0.28389,-0.09463,-1.8911,0.37852,1.385e-10,-0.94556,0,0,0.33333,-0,-0,0.66667
0.43118,0.93483,1.2935,0.65225,6.2791,12.101,-2.2499,0.74997,-0.48775,-2.9999,3.8858e-13,-0.24388,0,0,0.33333,1.9737e-16,0,0.66667
0.4042,0.52781,1.2126,0.041718,0.39457,12.774,-0.1349,0.044966,-1.9944,-0.17986,-7.3962e-13,-0.99722,0,0,0.33333,3.9475e-16,0,0.66667
0.14675,0.44714,0.44025,-0.079294,-0.8853,22.382,0.093092,-0.031031,-1.9771,0.12412,1.0117e-10,-0.98856,0,0,0.33333,-0,-0,0.66667
0.72932,0.58857,2.188,0.13285,0.67119,3.5672,-0.77514,0.25838,-1.9373,-1.0335,4.2224e-11,-0.96864,0,0,0.33333,-7.5239e-16,0,0.66667
0.18875,0.61402,0.56624,0.17103,1.8846,20.741,-0.25824,0.086081,-1.8959,-0.34432,-5.78e-11,-0.94793,0,0,0.33333,1.9737e-16,0,0.66667
0.6439,0.80578,1.9317,0.45867,3.0545,5.7173,-2.3627,0.78755,-1.252,-3.1502,5.3466e-12,-0.626,0,0,0.33333,-0,-0,0.66667
0.75431,0.53135,2.2629,0.047021,0.21588,3.0416,-0.28375,0.094582,-1.9932,-0.37833,2.9754e-11,-0.99658,0,0,0.33333,-3.158e-15,0,0.66667
0.21073,0.55585,0.6322,0.083768,0.91232,19.882,-0.14122,0.047073,-1.9748,-0.18829,-3.938e-11,-0.9874,0,0,0.33333,-0,-0,0.66667
0.60095,0.4743,1.8029,-0.038552,-0.27313,6.6672,0.18534,-0.061781,-1.9946,0.24713,-6.4729e-13,-0.99731,0,0,0.33333,-1.579e-15,0,0.66667
0.74893,0.92472,2.2468,0.63708,3.2534,3.5517,-3.817,1.2723,-0.55671,-5.0893,2.9946e-11,-0.27835,0,0,0.33333,-9.7417e-17,0,0.66667
0.63822,0.64505,1.9147,0.21758,1.4312,5.7215,-1.1109,0.3703,-1.8314,-1.4812,8.9542e-12,-0.91568,0,0,0.33333,-0,-0,0.66667
0.59713,0.87531,1.7914,0.56297,4.2034,7.0229,-2.6893,0.89643,-0.8742,-3.5857,-1.1138e-12,-0.4371,0,0,0.33333,-0,-0,0.66667
0.29548,0.69398,0.88645,0.29098,3.0427,16.7,-0.68783,0.22928,-1.6992,-0.9171,-4.8692e-11,-0.84961,0,0,0.33333,7.8949e-16,0,0.66667
0.73161,0.43917,2.1948,-0.091241,-0.45642,3.5101,0.53402,-0.17801,-1.9713,0.71203,-3.1255e-11,-0.98563,0,0,0.33333,-0,-0,0.66667
0.94531,0.6355,2.8359,0.20324,0.14963,0.39022,-1.537,0.51234,-1.8525,-2.0494,-6.7084e-08,-0.92625,0,0,0.33333,-0,-0,0.66667
0.42556,0.15536,1.2767,-0.51696,-4.9218,12.198,1.76,-0.58667,-1.0507,2.3467,-1.0778e-12,-0.52534,0,0,0.33333,-2.9606e-16,0,0.66667
0.78218,0.19467,2.3465,-0.458,-1.9659,2.7285,2.8659,-0.95529,-1.2544,3.8212,-2.7018e-10,-0.62722,0,0,0.33333,-0,-0,0.66667
0.056141,0.68805,0.16842,0.28208,3.233,25.998,-0.12669,0.042229,-1.7179,-0.16892,2.4965e-08,-0.85895,0,0,0.33333,-1.9737e-16,0,0.66667
0.83527,0.028677,2.5058,-0.70698,-2.5189,2.18,4.7242,-1.5747,-0.22322,6.2989,-3.877e-10,-0.11161,0,0,0.33333,-7.8949e-16,0,0.66667
0.19225,0.70737,0.57675,0.31106,3.4445,20.622,-0.4784,0.15947,-1.6554,-0.63787,-2.2762e-10,-0.8277,0,0,0.33333,1.9737e-16,0,0.66667
0.3951,0.6846,1.1853,0.2769,2.6646,13.128,-0.87521,0.29174,-1.7278,-1.1669,-2.7163e-12,-0.86392,0,0,0.33333,-1.9737e-16,0,0.66667
0.30008,0.27699,0.90024,-0.33451,-3.4963,16.541,0.80304,-0.26768,-1.6025,1.0707,4.4824e-11,-0.80125,0,0,0.33333,4.9343e-16,0,0.66667
0.080104,0.11302,0.24031,-0.58048,-6.7852,25.068,0.37199,-0.124,-0.80163,0.49598,-9.0892e-09,-0.40082,0,0,0.33333,9.8686e-17,0,0.66667
0.90463,0.21641,2.7139,-0.42539,-0.75891,0.9406,3.0786,-1.0262,-1.3575,4.1047,2.6721e-09,-0.67874,0,0,0.33333,-3.9475e-16,0,0.66667
0.37015,0.67058,1.1105,0.25588,2.5179,13.992,-0.75771,0.25257,-1.7665,-1.0103,-7.2017e-12,-0.88326,0,0,0.33333,-0,-0,0.66667
0.5307,0.84534,1.5921,0.51801,4.3073,8.8729,-2.1992,0.73308,-1.0471,-2.9323,-5.6355e-13,-0.52357,0,0,0.33333,-1.579e-15,4.3178e-16,0.66667
0.49412,0.10752,1.4823,-0.58872,-5.208,10.038,2.3272,-0.77572,-0.76694,3.1029,-6.5947e-14,-0.38347,0,0,0.33333,-0,-0,0.66667
0.13216,0.061087,0.39648,-0.65837,-7.6743,23.035,0.69609,-0.23203,-0.45945,0.92811,-1.0685e-09,-0.22973,0,0,0.33333,4.9343e-17,0,0.66667
0.20645,0.38428,0.61936,-0.17358,-1.8984,20.054,0.28669,-0.095564,-1.8926,0.38226,1.1255e-10,-0.94629,0,0,0.33333,-0,-0,0.66667
0.076189,0.5681,0.22857,0.10216,1.1603,25.19,-0.062266,0.020755,-1.9632,-0.083021,-1.053e-07,-0.9816,0,0,0.33333,-1.9737e-16,0,0.66667
0.50792,0.63661,1.5238,0.20492,1.714,9.407,-0.83266,0.27755,-1.85,-1.1102,-1.2157e-13,-0.925,0,0,0.33333,-0,-0,0.66667
0.26155,0.1988,0.78465,-0.4518,-4.8828,18.009,0.94535,-0.31512,-1.2737,1.2605,9.4137e-11,-0.63685,0,0,0.33333,-0,-0,0.66667
0.35706,0.84156,1.0712,0.51235,5.2049,14.55,-1.4635,0.48784,-1.0675,-1.9513,-2.775e-12,-0.53374,0,0,0.33333,2.044e-16,0,0.66667
0.10807,0.13021,0.3242,-0.55468,-6.4319,23.96,0.47954,-0.15985,-0.9065,0.63938,-5.7948e-09,-0.45325,0,0,0.33333,-0,-0,0.66667
0.78755,0.93291,2.3627,0.64937,2.8645,2.8555,-4.0913,1.3638,-0.50075,-5.4551,1.0898e-10,-0.25037,0,0,0.33333,3.9475e-16,0,0.66667
0.10658,0.87107,0.31975,0.5566,6.4575,24.019,-0.4746,0.1582,-0.89891,-0.6328,9.3144e-09,-0.44946,0,0,0.33333,4.9343e-17,0,0.66667
0.98571,0.9298,2.9571,0.6447,0.12136,0.61431,-5.0839,1.6946,-0.52232,-6.7785,-1.1682e-06,-0.26116,0,0,0.33333,-1.579e-15,-4.4827e-16,0.66667
0.17716,0.15703,0.53148,-0.51445,-5.8207,21.249,0.72912,-0.24304,-1.0598,0.97216,6.7266e-10,-0.5299,0,0,0.33333,-0,-0,0.66667
0.57241,0.75599,1.7172,0.38399,2.9328,7.5738,-1.7584,0.58613,-1.4756,-2.3445,-6.0851e-13,-0.73781,0,0,0.33333,-0,-0,0.66667
0.044845,0.56263,0.13454,0.093952,1.0712,26.447,-0.033706,0.011235,-1.9699,-0.044942,-7.3097e-07,-0.98494,0,0,0.33333,-1.9737e-16,0,0.66667
0.78712,0.43913,2.3613,-0.0913,-0.36435,2.4292,0.57491,-0.19164,-1.971,0.76655,-2.0568e-11,-0.98548,0,0,0.33333,3.158e-15,0,0.66667
0.18961,0.30387,0.56882,-0.29419,-3.2582,20.722,0.44624,-0.14875,-1.6922,0.59499,1.8916e-10,-0.8461,0,0,0.33333,1.9737e-16,0,0.66667
0.5279,0.5253,1.5837,0.037957,0.30647,8.7683,-0.1603,0.053434,-1.995,-0.21374,4.8253e-14,-0.99748,0,0,0.33333,-0,-0,0.66667
0.74008,0.36621,2.2202,-0.20069,-0.98053,3.3658,1.1882,-0.39606,-1.8564,1.5843,-7.1417e-11,-0.92818,0,0,0.33333,-7.8949e-16,0,0.66667
0.14993,0.60239,0.44979,0.15358,1.7157,22.26,-0.18421,0.061404,-1.9157,-0.24562,-9.9892e-10,-0.95784,0,0,0.33333,-0,-0,0.66667
0.55109,0.45316,1.6533,-0.070264,-0.54647,8.0807,0.30977,-0.10326,-1.9818,0.41303,-2.9143e-14,-0.99089,0,0,0.33333,7.8949e-16,0,0.66667
0.21662,0.72246,0.64985,0.33368,3.6602,19.685,-0.57825,0.19275,-1.6047,-0.771,-2.0502e-10,-0.80234,0,0,0.33333,-0,-0,0.66667
0.7592,0.24977,2.2776,-0.37534,-1.7439,3.086,2.2797,-0.75989,-1.5,3.0396,-1.5317e-10,-0.74998,0,0,0.33333,-7.4015e-17,0,0.66667
0.72292,0.084038,2.1687,-0.62394,-3.4623,4.0615,3.6085,-1.2028,-0.6154,4.8113,-1.5097e-11,-0.3077,0,0,0.33333,-0,-0,0.66667
0.17655,0.20822,0.52965,-0.43766,-4.9199,21.255,0.61815,-0.20605,-1.3184,0.82421,5.8864e-10,-0.65921,0,0,0.33333,-0,-0,0.66667
0.86197,0.89903,2.5859,0.59854,1.7192,1.6527,-4.1274,1.3758,-0.72622,-5.5032,4.3298e-09,-0.36311,0,0,0.33333,-0,-0,0.66667
0.019775,0.62664,0.059325,0.18996,2.1749,27.455,-0.030051,0.010017,-1.8724,-0.040068,2.7588e-07,-0.93621,0,0,0.33333,-4.9343e-17,0,0.66667
0.86024,0.54363,2.5807,0.065447,0.1663,1.2694,-0.4504,0.15013,-1.9846,-0.60053,-5.7886e-10,-0.99231,0,0,0.33333,-1.579e-15,0,0.66667
0.5589,0.92791,1.6767,0.64186,5.1962,8.1562,-2.8699,0.95664,-0.5348,-3.8266,-4.4431e-13,-0.2674,0,0,0.33333,-0,-0,0.66667
0.40322,0.88194,1.2097,0.57292,5.618,12.984,-1.8481,0.61603,-0.83294,-2.4641,1.0439e-12,-0.41647,0,0,0.33333,-0,-0,0.66667
0.75875,0.73783,2.2762,0.35675,1.6554,3.0809,-2.1655,0.72182,-1.5468,-2.8873,1.4739e-10,-0.77338,0,0,0.33333,-1.688e-15,0,0.66667
0.71693,0.2611,2.1508,-0.35836,-1.9287,3.9383,2.0553,-0.68511,-1.5432,2.7404,-6.4578e-11,-0.77158,0,0,0.33333,-0,-0,0.66667
0.98733,0.60358,2.962,0.15537,-0.039787,0.091395,-1.2272,0.40906,-1.9139,-1.6362,-5.1183e-08,-0.95694,0,0,0.33333,-0,-0,0.66667
0.27809,0.4976,0.83426,-0.0035968,-0.037722,17.315,0.0080017,-0.0026672,-2.0006,0.010669,-1.2759e-12,-1.0003,0,0,0.33333,-5.9212e-16,0,0.66667
0.0037937,0.97111,0.011381,0.70667,8.4336,28.1,-0.021444,0.0071567,-0.22506,-0.028588,1.3087e-05,-0.11253,0,0,0.33333,-0,-0,0.66667
0.9339,0.071572,2.8017,-0.64264,-0.88612,0.94898,4.8013,-1.6004,-0.5313,6.4018,-2.5502e-09,-0.26565,0,0,0.33333,-0,-0,0.66667
0.8579,0.74205,2.5737,0.36307,0.98811,1.4472,-2.4918,0.8306,-1.5314,-3.3224,2.6158e-10,-0.76569,0,0,0.33333,7.8949e-16,0,0.66667
0.72885,0.92647,2.1866,0.63971,3.4969,3.9576,-3.73,1.2433,-0.54438,-4.9733,1.4355e-11,-0.27219,0,0,0.33333,7.8949e-16,0,0.66667
0.51669,0.65174,1.5501,0.2276,1.8816,9.1442,-0.9408,0.3136,-1.8164,-1.2544,-1.7086e-13,-0.9082,0,0,0.33333,-9.8686e-16,0,0.66667
0.70696,0.93042,2.1209,0.64563,3.7779,4.4279,-3.6515,1.2172,-0.51779,-4.8686,5.224e-12,-0.2589,0,0,0.33333,3.9475e-16,0,0.66667
0.78053,0.45537,2.3416,-0.06695,-0.2752,2.5446,0.41805,-0.13935,-1.9839,0.5574,-4.26e-11,-0.99194,0,0,0.33333,1.579e-15,0,0.66667
0.37488,0.11087,1.1246,-0.58369,-5.8857,13.964,1.7505,-0.5835,-0.78854,2.334,-3.8869e-13,-0.39427,0,0,0.33333,7.8949e-16,0,0.66667
0.77032,0.95794,2.311,0.68691,3.287,3.2144,-4.2331,1.411,-0.32181,-5.6442,2.4377e-11,-0.16091,0,0,0.33333,-0,-0,0.66667
0.75062,0.10449,2.2519,-0.59326,-2.9784,3.4648,3.5625,-1.1875,-0.74858,4.75,-5.7009e-11,-0.37429,0,0,0.33333,-1.579e-15,0,0.66667
0.61321,0.0099463,1.8396,-0.73508,-5.4871,6.7771,3.6061,-1.202,-0.078381,4.8081,7.1054e-14,-0.03919,0,0,0.33333,-0,-0,0.66667
0.40187,0.45435,1.2056,-0.068473,-0.64937,12.856,0.22013,-0.073378,-1.9827,0.29351,1.0509e-12,-0.99133,0,0,0.33333,-0,-0,0.66667
0.69731,0.15606,2.0919,-0.51591,-3.0221,4.4995,2.878,-0.95932,-1.0546,3.8373,-2.2455e-11,-0.52728,0,0,0.33333,6.7847e-16,0,0.66667
0.0031129,0.95616,0.0093386,0.68424,8.1439,28.127,-0.01704,0.0056875,-0.33485,-0.022717,1.0959e-05,-0.16743,0,0,0.33333,-3.084e-18,-1.5194e-15,0.66667
0.7749,0.028189,2.3247,-0.70772,-3.3479,3.1615,4.3873,-1.4624,-0.21947,5.8497,-1.1367e-11,-0.10973,0,0,0.33333,2.0378e-15,0,0.66667
0.89642,0.93699,2.6892,0.65549,1.4549,1.3267,-4.7007,1.5669,-0.47313,-6.2676,-2.6031e-08,-0.23657,0,0,0.33333,9.8686e-17,0,0.66667
0.23932,0.059047,0.71795,-0.66143,-7.3968,18.922,1.2663,-0.42211,-0.4448,1.6884,2.6917e-11,-0.2224,0,0,0.33333,-9.8686e-17,0,0.66667
0.12077,0.26721,0.3623,-0.34919,-3.9696,23.43,0.33737,-0.11246,-1.5658,0.44982,2.5698e-10,-0.78291,0,0,0.33333,-0,-0,0.66667
0.22028,0.67864,0.66085,0.26796,2.9232,19.533,-0.47222,0.15741,-1.7447,-0.62963,-1.4044e-10,-0.87234,0,0,0.33333,-1.9737e-16,0,0.66667
0.3021,0.87235,0.90629,0.55852,5.9455,16.547,-1.3498,0.44994,-0.89129,-1.7998,-1.5326e-11,-0.44565,0,0,0.33333,-4.9343e-16,0,0.66667
0.88303,0.092388,2.6491,-0.61142,-1.4964,1.4106,4.3192,-1.4397,-0.67143,5.7589,2.7724e-09,-0.33571,0,0,0.33333,3.2809e-16,0,0.66667
0.54317,0.68644,1.6295,0.27965,2.2253,8.3672,-1.2152,0.40506,-1.7228,-1.6203,-5.0726e-13,-0.8614,0,0,0.33333,-8.3884e-16,0,0.66667
0.28671,0.99719,0.86013,0.74578,8.2089,17.205,-1.7106,0.5702,-0.022822,-2.2808,2.9254e-13,-0.011411,0,0,0.33333,1.9737e-16,0,0.66667
0.13835,0.8377,0.41506,0.50655,5.8016,22.76,-0.56067,0.18689,-1.0879,-0.74756,-3.0244e-09,-0.54393,0,0,0.33333,-0,-0,0.66667
0.29014,0.36219,0.87043,-0.20672,-2.1604,16.881,0.47983,-0.15994,-1.8473,0.63978,4.4592e-11,-0.92366,0,0,0.33333,-0,-0,0.66667
0.61387,0.33942,1.8416,-0.24087,-1.6752,6.3651,1.1829,-0.39431,-1.7939,1.5772,-4.1601e-12,-0.89696,0,0,0.33333,-7.8949e-16,0,0.66667
0.32414,0.4495,0.97242,-0.075744,-0.7697,15.615,0.19641,-0.065471,-1.9791,0.26188,9.7862e-12,-0.98953,0,0,0.33333,7.8949e-16,0,0.66667
0.45736,0.033987,1.3721,-0.69902,-6.5801,11.287,2.5576,-0.85254,-0.26316,3.4102,-1.5188e-13,-0.13158,0,0,0.33333,-0,-0,0.66667
0.44412,0.15561,1.3324,-0.51659,-4.818,11.583,1.8354,-0.6118,-1.0519,2.4472,-8.7974e-13,-0.52596,0,0,0.33333,-1.0609e-15,0,0.66667
0.82814,0.28565,2.4844,-0.32153,-1.0592,1.847,2.1302,-0.71005,-1.6332,2.8402,-1.378e-10,-0.81661,0,0,0.33333,-0,-0,0.66667
0.42635,0.15942,1.279,-0.51088,-4.8564,12.168,1.7425,-0.58083,-1.0724,2.3233,-1.1008e-12,-0.53621,0,0,0.33333,-1.579e-15,0,0.66667
0.3457,0.86473,1.0371,0.54709,5.6312,14.969,-1.513,0.50434,-0.93559,-2.0174,-3.0818e-12,-0.4678,0,0,0.33333,-0,-0,0.66667
0.67497,0.57287,2.0249,0.1093,0.65166,4.7832,-0.59021,0.19674,-1.9572,-0.78694,1.345e-11,-0.97858,0,0,0.33333,-0,-0,0.66667
0.22148,0.31745,0.66445,-0.27382,-2.9863,19.488,0.48518,-0.16173,-1.7337,0.6469,1.4373e-10,-0.86685,0,0,0.33333,-0,-0,0.66667
0.46725,0.58764,1.4017,0.13146,1.1588,10.678,-0.49141,0.1638,-1.9388,-0.65521,8.6098e-14,-0.96942,0,0,0.33333,3.9475e-16,0,0.66667
0.31477,0.54619,0.9443,0.06929,0.70903,15.957,-0.17448,0.058161,-1.9825,-0.23264,-1.0918e-11,-0.99124,0,0,0.33333,-0,-0,0.66667
0.62686,0.25406,1.8806,-0.36891,-2.5242,6.0887,1.85,-0.61667,-1.5167,2.4667,-4.9335e-12,-0.75833,0,0,0.33333,-0,-0,0.66667
0.87736,0.98126,2.6321,0.72189,1.9635,1.6501,-5.0668,1.6889,-0.14675,-6.7558,3.7345e-09,-0.073373,0,0,0.33333,-3.158e-15,0,0.66667
0.44769,0.45122,1.3431,-0.073165,-0.65974,11.31,0.26204,-0.087347,-1.9802,0.34939,1.4619e-13,-0.99012,0,0,0.33333,-7.8949e-16,0,0.66667
0.78446,0.28997,2.3534,-0.31505,-1.3028,2.5722,1.9772,-0.65905,-1.6469,2.6362,-1.8872e-10,-0.82343,0,0,0.33333,-0,-0,0.66667
0.45697,0.6921,1.3709,0.28815,2.5924,11.053,-1.0534,0.35113,-1.705,-1.4045,4.9882e-13,-0.85251,0,0,0.33333,-0,-0,0.66667
0.65623,0.76542,1.9687,0.39813,2.5533,5.3666,-2.0901,0.6967,-1.4363,-2.7868,1.2241e-11,-0.71817,0,0,0.33333,7.8949e-16,0,0.66667
0.13184,0.51895,0.39552,0.028423,0.31859,22.971,-0.029978,0.0099928,-1.9964,-0.039971,-1.2916e-09,-0.9982,0,0,0.33333,-0,-0,0.66667
0.43298,0.21785,1.2989,-0.42323,-3.9583,11.9,1.466,-0.48866,-1.364,1.9547,-8.2523e-13,-0.68198,0,0,0.33333,-2.4672e-16,0,0.66667
0.90931,0.84675,2.7279,0.52012,0.92322,1.0005,-3.7836,1.2612,-1.0387,-5.0448,-1.5509e-08,-0.51936,0,0,0.33333,3.158e-15,0,0.66667
0.60548,0.86881,1.8164,0.55322,4.0577,6.7902,-2.6797,0.89323,-0.91182,-3.5729,-9.0572e-13,-0.45591,0,0,0.33333,3.5852e-16,0,0.66667
0.76677,0.66496,2.3003,0.24743,1.0948,2.8598,-1.5178,0.50594,-1.7824,-2.0237,1.148e-10,-0.89119,0,0,0.33333,-0,-0,0.66667
0.5047,0.22736,1.5141,-0.40896,-3.4898,9.591,1.6512,-0.5504,-1.405,2.2016,7.3386e-14,-0.7025,0,0,0.33333,-0,-0,0.66667
0.49806,0.10606,1.4942,-0.59092,-5.2013,9.9177,2.3545,-0.78482,-0.75815,3.1393,2.8866e-15,-0.37907,0,0,0.33333,-0,-0,0.66667
0.8429,0.17196,2.5287,-0.49206,-1.5461,1.7818,3.3181,-1.106,-1.1389,4.4241,-1.1212e-09,-0.56944,0,0,0.33333,1.579e-15,9.7647e-17,0.66667
0.067807,0.71147,0.20342,0.31721,3.6371,25.534,-0.17207,0.057357,-1.642,-0.22943,-4.4891e-10,-0.82099,0,0,0.33333,-4.9343e-17,0,0.66667
0.57327,0.028099,1.7198,-0.70785,-5.6576,7.8196,3.2463,-1.0821,-0.21885,4.3284,1.2568e-13,-0.10943,0,0,0.33333,-0,4.6232e-16,0.66667
0.94276,0.023751,2.8283,-0.71437,-0.91459,1.0004,5.3879,-1.796,-0.18522,7.1838,1.9985e-07,-0.092611,0,0,0.33333,1.579e-15,0,0.66667
0.51786,0.7344,1.5536,0.3516,2.9276,9.158,-1.4566,0.48554,-1.56,-1.9422,-4.3676e-13,-0.78001,0,0,0.33333,7.8949e-16,0,0.66667
0.19447,0.63393,0.5834,0.2009,2.2109,20.521,-0.31255,0.10418,-1.856,-0.41673,-1.5444e-10,-0.928,0,0,0.33333,-3.9475e-16,0,0.66667
0.84794,0.077065,2.5438,-0.6344,-2.0339,1.8915,4.3035,-1.4345,-0.56836,5.738,-1.1393e-09,-0.28418,0,0,0.33333,-0,-0,0.66667
0.25164,0.59101,0.75492,0.13651,1.4574,18.319,-0.27481,0.091604,-1.9345,-0.36641,-5.8024e-11,-0.96727,0,0,0.33333,5.9212e-16,0,0.66667
0.70073,0.79246,2.1022,0.4387,2.5111,4.3544,-2.4592,0.81975,-1.3154,-3.279,3.7911e-11,-0.6577,0,0,0.33333,-1.579e-15,0,0.66667
0.54026,0.24544,1.6208,-0.38183,-3.0796,8.5018,1.6503,-0.55011,-1.4817,2.2004,8.7308e-13,-0.74083,0,0,0.33333,-1.1842e-15,0,0.66667
0.94884,0.28583,2.8465,-0.32125,-0.23137,0.44064,2.4385,-0.81283,-1.6333,3.2513,7.5869e-10,-0.81663,0,0,0.33333,-3.158e-15,0,0.66667
0.62434,0.13077,1.873,-0.55385,-3.9087,6.2962,2.7663,-0.92211,-0.90981,3.6884,2.8288e-13,-0.4549,0,0,0.33333,-1.579e-15,2.5102e-16,0.66667
0.83798,0.34362,2.5139,-0.23457,-0.7148,1.6441,1.5725,-0.52418,-1.8053,2.0967,1.1932e-10,-0.90264,0,0,0.33333,-2.2821e-15,0,0.66667
0.0079329,0.37144,0.023799,-0.19284,-2.2089,27.931,0.012238,-0.0040795,-1.868,0.016318,-6.7991e-08,-0.93399,0,0,0.33333,1.542e-17,0,0.66667
0.98934,0.94382,2.968,0.66573,0.087045,0.63401,-5.2691,1.7564,-0.42406,-7.0255,-8.9865e-07,-0.21203,0,0,0.33333,-3.158e-15,0,0.66667
0.077715,0.74187,0.23314,0.3628,4.1652,25.141,-0.22556,0.075186,-1.5322,-0.30074,1.0762e-09,-0.76612,0,0,0.33333,4.9343e-17,0,0.66667
0.32213,0.38509,0.96639,-0.17236,-1.7585,15.698,0.44419,-0.14806,-1.8938,0.59225,2.0964e-11,-0.9469,0,0,0.33333,-0,-0,0.66667
0.94615,0.91218,2.8385,0.61827,0.66194,0.8136,-4.6798,1.5599,-0.64071,-6.2398,-5.851e-08,-0.32035,0,0,0.33333,-3.158e-15,0,0.66667
0.0089391,0.8855,0.026817,0.57825,6.8017,27.894,-0.041352,0.013784,-0.8105,-0.055136,-8.1834e-08,-0.40525,0,0,0.33333,2.4672e-17,0,0.66667
0.82273,0.98629,2.4682,0.72943,2.8053,2.4015,-4.801,1.6003,-0.10747,-6.4013,1.4695e-10,-0.053735,0,0,0.33333,-0,-0,0.66667
0.86121,0.52822,2.5836,0.042337,0.10662,1.2533,-0.29169,0.09723,-1.9944,-0.38892,-3.836e-09,-0.99718,0,0,0.33333,7.8949e-16,0,0.66667
0.43983,0.29252,1.3195,-0.31121,-2.8618,11.625,1.095,-0.36502,-1.6553,1.4601,-3.4162e-13,-0.82766,0,0,0.33333,-0,-0,0.66667
0.25575,0.1184,0.76724,-0.57241,-6.2802,18.269,1.1711,-0.39037,-0.83483,1.5615,5.8651e-11,-0.41742,0,0,0.33333,-1.9737e-16,0,0.66667
0.80269,0.11417,2.4081,-0.57874,-2.3336,2.5064,3.7164,-1.2388,-0.80851,4.9552,-3.1441e-10,-0.40425,0,0,0.33333,-0,-0,0.66667
0.47786,0.73687,1.4336,0.3553,3.1293,10.406,-1.3583,0.45276,-1.5504,-1.8111,4.1689e-13,-0.7752,0,0,0.33333,-7.8949e-16,0,0.66667
0.13434,0.28461,0.40302,-0.32308,-3.6535,22.891,0.34722,-0.11574,-1.6291,0.46295,-4.461e-10,-0.81457,0,0,0.33333,-3.9475e-16,0,0.66667
0.92785,0.61403,2.7835,0.17105,0.19092,0.52573,-1.2696,0.42321,-1.8954,-1.6929,-2.517e-09,-0.94768,0,0,0.33333,-0,-0,0.66667
0.89597,0.088964,2.6879,-0.61655,-1.3427,1.2723,4.4193,-1.4731,-0.64848,5.8924,-2.3648e-08,-0.32424,0,0,0.33333,7.8949e-16,0,0.66667
0.49155,0.9408,1.4746,0.66119,5.9313,10.177,-2.6001,0.86669,-0.44584,-3.4667,1.3323e-14,-0.22292,0,0,0.33333,-0,-0,0.66667
0.8567,0.39533,2.5701,-0.15701,-0.4137,1.3411,1.0761,-0.35869,-1.912,1.4348,-1.8462e-10,-0.956,0,0,0.33333,-0,-0,0.66667
0.41858,0.024395,1.2557,-0.71341,-7.0213,12.566,2.3889,-0.79631,-0.19037,3.1852,-2.9043e-13,-0.095184,0,0,0.33333,-0,-2.7039e-16,0.66667
0.68346,0.50365,2.0504,0.0054717,0.031793,4.5717,-0.029918,0.0099726,-2.0003,-0.03989,6.3887e-13,-1.0001,0,0,0.33333,3.158e-15,0,0.66667
0.39799,0.069734,1.194,-0.6454,-6.4204,13.208,2.0549,-0.68497,-0.51865,2.7399,-7.6428e-13,-0.25932,0,0,0.33333,-0,-0,0.66667
0.50574,0.81307,1.5172,0.46961,4.0274,9.5949,-1.9,0.63333,-1.2167,-2.5333,-3.4284e-13,-0.60836,0,0,0.33333,1.579e-15,0,0.66667
0.18955,0.90487,0.56866,0.6073,6.9038,20.795,-0.92092,0.30697,-0.68965,-1.2279,-2.9213e-10,-0.34483,0,0,0.33333,-5.9212e-16,0,0.66667
0.96499,0.28151,2.895,-0.32774,-0.11589,0.33062,2.5301,-0.84338,-1.6191,3.3735,4.5982e-09,-0.80956,0,0,0.33333,-3.158e-15,0,0.66667
0.29422,0.28752,0.88265,-0.31873,-3.3413,16.753,0.75019,-0.25006,-1.6389,1.0003,5.0876e-11,-0.81946,0,0,0.33333,-7.8949e-16,0,0.66667
0.10346,0.97723,0.31038,0.71585,8.4611,24.17,-0.59249,0.1975,-0.17757,-0.78999,-4.8846e-09,-0.088783,0,0,0.33333,-0,-0,0.66667
0.14432,0.60866,0.43295,0.16299,1.8245,22.482,-0.18817,0.062725,-1.9049,-0.2509,-4.2043e-10,-0.95247,0,0,0.33333,-1.9737e-16,0,0.66667
0.014092,0.54121,0.042277,0.061819,0.70586,27.683,-0.0069716,0.0023264,-1.9863,-0.0092941,3.8817e-06,-0.99315,0,0,0.33333,-0,-0,0.66667
0.71595,0.49463,2.1478,-0.0080557,-0.042415,3.837,0.04614,-0.01538,-2,0.061519,-1.9117e-12,-1,0,0,0.33333,3.9475e-16,0,0.66667
0.5645,0.11561,1.6935,-0.57659,-4.5767,7.9377,2.6039,-0.86795,-0.81782,3.4718,9.8299e-13,-0.40891,0,0,0.33333,-0,-0,0.66667
0.79458,0.78363,2.3837,0.42544,1.7137,2.4799,-2.7044,0.90146,-1.3572,-3.6058,3.3306e-10,-0.67861,0,0,0.33333,-0,-0,0.66667
0.50708,0.74487,1.5212,0.36731,3.1115,9.4959,-1.49,0.49668,-1.5203,-1.9867,-2.4059e-13,-0.76013,0,0,0.33333,9.8686e-16,0,0.66667
0.79182,0.4285,2.3755,-0.10726,-0.41881,2.3488,0.67942,-0.22647,-1.9587,0.9059,-5.9358e-11,-0.97934,0,0,0.33333,-0,-0,0.66667
0.69576,0.66349,2.0873,0.24523,1.3904,4.343,-1.365,0.45499,-1.7859,-1.82,3.7632e-11,-0.89293,0,0,0.33333,1.579e-15,0,0.66667
0.77785,0.79587,2.3335,0.44381,1.9352,2.7935,-2.7617,0.92058,-1.2991,-3.6823,2.3343e-10,-0.64955,0,0,0.33333,1.579e-15,0,0.66667
0.40648,0.29458,1.2194,-0.30813,-2.9372,12.746,1.002,-0.334,-1.6623,1.336,1.3333e-12,-0.83116,0,0,0.33333,-7.8949e-16,0,0.66667
0.64777,0.74779,1.9433,0.37168,2.4251,5.5583,-1.9261,0.64204,-1.5093,-2.5682,1.0412e-11,-0.75463,0,0,0.33333,-9.8686e-16,0,0.66667
0.17979,0.85284,0.53938,0.52925,5.9908,21.15,-0.76126,0.25375,-1.0035,-1.015,-6.3067e-10,-0.50177,0,0,0.33333,3.9475e-16,0,0.66667
0.32182,0.45699,0.96546,-0.064517,-0.65666,15.698,0.1661,-0.055368,-1.9845,0.22147,8.9019e-12,-0.99226,0,0,0.33333,-7.7586e-16,0,0.66667
0.1726,0.44045,0.51781,-0.08932,-0.98855,21.366,0.12334,-0.041112,-1.9725,0.16445,4.2207e-10,-0.98627,0,0,0.33333,-0,-0,0.66667
0.40864,0.25108,1.2259,-0.37338,-3.5686,12.697,1.2206,-0.40688,-1.5053,1.6275,3.8913e-13,-0.75266,0,0,0.33333,-0,-0,0.66667
0.24142,0.51032,0.72426,0.015473,0.16583,18.702,-0.029885,0.0099616,-1.9985,-0.039846,-1.7807e-12,-0.99927,0,0,0.33333,-0,-0,0.66667
0.40692,0.045262,1.2208,-0.68211,-6.7612,12.932,2.2205,-0.74017,-0.34552,2.9607,-5.0093e-13,-0.17276,0,0,0.33333,7.8949e-16,0,0.66667
0.97522,0.49627,2.9257,-0.0055942,-1.8078e-05,0.12726,0.043646,-0.014544,-2.0001,0.058197,7.4044e-06,-1,0,0,0.33333,7.8949e-16,0,0.66667
0.32032,0.7315,0.96096,0.34725,3.5803,15.803,-0.88984,0.29661,-1.5705,-1.1864,-2.7399e-11,-0.78526,0,0,0.33333,-0,-0,0.66667
0.98249,0.52178,2.9475,0.032676,-0.0054096,0.086784,-0.25683,0.085611,-1.9961,-0.34245,-3.1537e-07,-0.99804,0,0,0.33333,-1.579e-15,0,0.66667
0.63631,0.70967,1.9089,0.3145,2.0948,5.8142,-1.601,0.53365,-1.6479,-2.1346,8.2817e-12,-0.82397,0,0,0.33333,-0,-0,0.66667
0.37509,0.51326,1.1253,0.019893,0.19353,13.786,-0.059694,0.019898,-1.9985,-0.079592,-8.8665e-13,-0.99927,0,0,0.33333,-0,-0,0.66667
0.85748,0.30267,2.5725,-0.29599,-0.79449,1.4023,2.0305,-0.67682,-1.6883,2.7073,7.4841e-11,-0.84417,0,0,0.33333,-0,-0,0.66667
0.61959,0.36798,1.8588,-0.19803,-1.3566,6.1983,0.98158,-0.32719,-1.8603,1.3088,-4.9911e-12,-0.93017,0,0,0.33333,-0,-0,0.66667
0.25203,0.2038,0.7561,-0.4443,-4.8247,18.364,0.89582,-0.29861,-1.2977,1.1944,1.2024e-10,-0.64886,0,0,0.33333,-0,-0,0.66667
0.79286,0.30441,2.3786,-0.29338,-1.1625,2.4094,1.8609,-0.6203,-1.6937,2.4812,-1.7488e-10,-0.84686,0,0,0.33333,-0,-0,0.66667
0.43294,0.94668,1.2988,0.67002,6.4542,12.057,-2.3206,0.77353,-0.40344,-3.0941,4.0012e-13,-0.20172,0,0,0.33333,-0,-0,0.66667
0.35751,0.30176,1.0725,-0.29737,-2.9661,14.451,0.8505,-0.2835,-1.6854,1.134,1.0514e-11,-0.84268,0,0,0.33333,-3.9475e-16,0,0.66667
0.33028,0.38914,0.99083,-0.16629,-1.6856,15.401,0.43937,-0.14646,-1.9013,0.58583,1.708e-11,-0.95063,0,0,0.33333,-0,-0,0.66667
0.69737,0.1887,2.0921,-0.46695,-2.7115,4.4534,2.6051,-0.86836,-1.2254,3.4734,-3.0645e-11,-0.61272,0,0,0.33333,-0,-0,0.66667
0.26865,0.31974,0.80595,-0.27039,-2.8733,17.696,0.58113,-0.19371,-1.74,0.77484,7.7748e-11,-0.87,0,0,0.33333,-0,-0,0.66667
0.80828,0.67173,2.4248,0.2576,0.93913,2.125,-1.6657,0.55523,-1.7634,-2.2209,1.3384e-10,-0.8817,0,0,0.33333,-0,-0,0.66667
0.29529,0.40241,0.88587,-0.14639,-1.5214,16.682,0.34582,-0.11527,-1.9244,0.4611,3.0903e-11,-0.96221,0,0,0.33333,-4.9343e-16,0,0.66667
0.54412,0.35964,1.6324,-0.21055,-1.6654,8.3144,0.9165,-0.3055,-1.8419,1.222,1.6509e-13,-0.92094,0,0,0.33333,7.8949e-16,0,0.66667
0.48792,0.019674,1.4638,-0.72049,-6.5551,10.343,2.8123,-0.93745,-0.15381,3.7498,1.0658e-14,-0.076905,0,0,0.33333,-0,-0,0.66667
0.85536,0.75373,2.5661,0.38059,1.0608,1.4968,-2.6043,0.86811,-1.4853,-3.4724,2.3021e-10,-0.74267,0,0,0.33333,-0,-0,0.66667
0.88839,0.49995,2.6652,-7.2455e-05,-0.00014091,0.90615,0.00051494,-0.00017166,-2.0013,0.00068658,-2.1468e-08,-1.0006,0,0,0.33333,4.3175e-17,0,0.66667
0.18438,0.37194,0.55315,-0.19209,-2.122,20.913,0.28334,-0.094448,-1.8694,0.37779,-6.591e-11,-0.93468,0,0,0.33333,2.4672e-16,0,0.66667
0.58535,0.020792,1.756,-0.71881,-5.6361,7.4997,3.366,-1.122,-0.16226,4.4881,1.8541e-13,-0.081129,0,0,0.33333,-0,-0,0.66667
0.89821,0.97006,2.6946,0.70509,1.5871,1.3884,-5.0665,1.6888,-0.23299,-6.7553,2.5896e-08,-0.1165,0,0,0.33333,-0,-0,0.66667
0.44612,0.35913,1.3384,-0.21131,-1.9175,11.386,0.75414,-0.25138,-1.8404,1.0055,7.0388e-14,-0.92022,0,0,0.33333,-7.8949e-16,0,0.66667
0.92187,0.49659,2.7656,-0.0051189,-0.0062339,0.54613,0.037752,-0.012584,-2.0009,0.050336,-2.8823e-07,-1.0004,0,0,0.33333,2.3685e-15,0,0.66667
0.27899,0.61758,0.83697,0.17637,1.8546,17.293,-0.39365,0.13122,-1.8894,-0.52487,-4.7401e-11,-0.94471,0,0,0.33333,-0,-0,0.66667
0.60883,0.34111,1.8265,-0.23833,-1.6748,6.4988,1.1608,-0.38694,-1.799,1.5477,-3.5123e-12,-0.89952,0,0,0.33333,9.8686e-16,0,0.66667
0.68245,0.94513,2.0474,0.6677,4.1999,5.0011,-3.6454,1.2151,-0.41459,-4.8605,8.5199e-13,-0.2073,0,0,0.33333,-0,-0,0.66667
0.22821,0.027929,0.68462,-0.70811,-8.0099,19.36,1.2928,-0.43092,-0.21747,1.7237,1.4148e-11,-0.10873,0,0,0.33333,-0,-0,0.66667
0.013768,0.77805,0.041303,0.41707,4.8359,27.699,-0.045936,0.015312,-1.3822,-0.061248,8.8079e-09,-0.6911,0,0,0.33333,3.7007e-17,0,0.66667
0.41672,0.85534,1.2502,0.53301,5.1315,12.503,-1.7769,0.59231,-0.98926,-2.3693,1.1762e-12,-0.49463,0,0,0.33333,-0,-0,0.66667
0.93848,0.86094,2.8154,0.5414,0.62351,0.76168,-4.0648,1.3549,-0.95757,-5.4197,6.2944e-09,-0.47878,0,0,0.33333,-0,-0,0.66667
0.34303,0.36286,1.0291,-0.20571,-2.0671,14.947,0.56453,-0.18818,-1.8494,0.7527,1.4511e-11,-0.9247,0,0,0.33333,-0,-0,0.66667
0.77974,0.63537,2.3392,0.20306,0.8454,2.5972,-1.2667,0.42222,-1.8533,-1.6889,1.0767e-10,-0.92663,0,0,0.33333,-0,-0,0.66667
0.17474,0.41445,0.52421,-0.12832,-1.4202,21.285,0.17938,-0.059793,-1.9413,0.23917,3.4309e-12,-0.97066,0,0,0.33333,-0,-0,0.66667
0.34195,0.60786,1.0259,0.16178,1.6244,14.978,-0.44258,0.14753,-1.9066,-0.5901,-1.2846e-11,-0.95329,0,0,0.33333,-0,-0,0.66667
0.1446,0.66219,0.43379,0.24329,2.7315,22.478,-0.28144,0.093812,-1.7896,-0.37525,-8.4493e-11,-0.89478,0,0,0.33333,-3.9475e-16,0,0.66667
0.71677,0.78186,2.1503,0.42279,2.2987,3.9898,-2.4244,0.80812,-1.3656,-3.2325,6.0068e-11,-0.6828,0,0,0.33333,-0,-0,0.66667
0.69931,0.22224,2.0979,-0.41665,-2.3867,4.3685,2.3309,-0.77697,-1.3832,3.1079,-3.9255e-11,-0.69159,0,0,0.33333,-0,-0,0.66667
0.6885,0.74969,2.0655,0.37453,2.1999,4.5832,-2.0629,0.68764,-1.5026,-2.7506,3.2873e-11,-0.75132,0,0,0.33333,7.6482e-16,0,0.66667
0.2534,0.1817,0.76019,-0.47745,-5.1959,18.323,0.96787,-0.32262,-1.1896,1.2905,1.0954e-10,-0.59479,0,0,0.33333,-0,-0,0.66667
0.69236,0.64782,2.0771,0.22173,1.2672,4.4106,-1.2281,0.40937,-1.8249,-1.6375,3.3301e-11,-0.91243,0,0,0.33333,7.8949e-16,0,0.66667
0.2273,0.64085,0.68189,0.21128,2.2909,19.256,-0.38418,0.12806,-1.8405,-0.51224,-1.0988e-10,-0.92024,0,0,0.33333,-2.6917e-16,0,0.66667
0.42465,0.073921,1.2739,-0.63912,-6.1843,12.308,2.1712,-0.72374,-0.54727,2.8949,-6.5836e-13,-0.27363,0,0,0.33333,-0,-0,0.66667
0.37192,0.44403,1.1158,-0.083958,-0.81977,13.901,0.24981,-0.083269,-1.975,0.33307,3.5388e-12,-0.98749,0,0,0.33333,7.8949e-16,0,0.66667
0.35531,0.85665,1.0659,0.53498,5.456,14.623,-1.5207,0.50689,-0.98179,-2.0276,-2.2551e-12,-0.49089,0,0,0.33333,-0,-0,0.66667
0.057655,0.8131,0.17296,0.46965,5.4506,25.949,-0.21662,0.072207,-1.2166,-0.28883,-2.0123e-08,-0.60831,0,0,0.33333,1.9737e-16,0,0.66667
0.63165,0.2477,1.8949,-0.37845,-2.5649,5.971,1.9124,-0.63745,-1.4912,2.5498,-5.6963e-12,-0.74561,0,0,0.33333,9.8686e-16,0,0.66667
0.70732,0.67901,2.1219,0.26851,1.4736,4.0949,-1.5194,0.50646,-1.7433,-2.0259,4.9662e-11,-0.87167,0,0,0.33333,-0,-0,0.66667
0.61359,0.30847,1.8408,-0.2873,-2.0066,6.3927,1.4102,-0.47008,-1.7068,1.8803,-3.8116e-12,-0.85341,0,0,0.33333,-3.9475e-16,0,0.66667
0.64831,0.033284,1.9449,-0.70007,-4.8174,5.849,3.6309,-1.2103,-0.25789,4.8412,1.0658e-13,-0.12894,0,0,0.33333,1.579e-15,0,0.66667
0.16994,0.43088,0.50982,-0.10368,-1.1489,21.471,0.14096,-0.046987,-1.9619,0.18795,4.9122e-10,-0.98097,0,0,0.33333,-9.6748e-17,0,0.66667
0.14945,0.55898,0.44834,0.088468,0.98702,22.276,-0.10577,0.035257,-1.9724,-0.14103,1.1312e-09,-0.9862,0,0,0.33333,-5.4441e-17,0,0.66667
0.51418,0.30033,1.5425,-0.2995,-2.497,9.2472,1.232,-0.41066,-1.6808,1.6426,2.8733e-13,-0.84041,0,0,0.33333,7.8949e-16,0,0.66667
0.87533,0.54355,2.626,0.065318,0.14543,1.0711,-0.4574,0.15247,-1.9848,-0.60986,1.8912e-09,-0.99238,0,0,0.33333,-1.579e-15,0,0.66667
0.18395,0.46484,0.55186,-0.052738,-0.58082,20.921,0.07761,-0.02587,-1.9905,0.10348,3.1725e-10,-0.99524,0,0,0.33333,-1.9737e-16,0,0.66667
0.46284,0.77951,1.3885,0.41926,3.7853,10.919,-1.5524,0.51747,-1.3756,-2.0699,7.2131e-13,-0.68779,0,0,0.33333,7.8949e-16,0,0.66667
0.42893,0.70663,1.2868,0.30994,2.8851,11.987,-1.0636,0.35452,-1.6577,-1.4181,1.4233e-13,-0.82886,0,0,0.33333,-0,-0,0.66667
0.49729,0.85799,1.4919,0.53699,4.6976,9.901,-2.1363,0.7121,-0.97425,-2.8484,3.1752e-14,-0.48713,0,0,0.33333,-0,-0,0.66667
0.16151,0.44092,0.48453,-0.088626,-0.9848,21.801,0.11451,-0.038171,-1.9724,0.15268,2.413e-10,-0.98619,0,0,0.33333,-3.9475e-16,0,0.66667
0.34244,0.70226,1.0273,0.30339,3.0657,14.991,-0.83114,0.27705,-1.6724,-1.1082,-1.6096e-11,-0.83621,0,0,0.33333,-0,-0,0.66667
0.26188,0.69858,0.78564,0.29787,3.1829,17.956,-0.62405,0.20802,-1.6841,-0.83207,-9.2635e-11,-0.84203,0,0,0.33333,-0,-0,0.66667
0.84453,0.44797,2.5336,-0.078039,-0.22353,1.4927,0.52725,-0.17575,-1.9783,0.703,4.3331e-10,-0.98916,0,0,0.33333,-1.579e-15,0,0.66667
0.80033,0.99014,2.401,0.7352,3.1546,2.7651,-4.7073,1.5691,-0.077783,-6.2763,-1.1078e-10,-0.038891,0,0,0.33333,-2.3685e-15,0,0.66667
0.42664,0.4639,1.2799,-0.054156,-0.50015,12.011,0.18484,-0.061614,-1.9897,0.24646,2.7477e-13,-0.99484,0,0,0.33333,1.9737e-16,0,0.66667
0.60702,0.010805,1.821,-0.73379,-5.5427,6.9374,3.5634,-1.1878,-0.085211,4.7512,9.2371e-14,-0.042606,0,0,0.33333,-0,3.5718e-16,0.66667
0.14547,0.5616,0.4364,0.092399,1.0322,22.434,-0.10753,0.035842,-1.9705,-0.14337,8.6026e-11,-0.98523,0,0,0.33333,-6.1679e-17,0,0.66667
0.50961,0.58758,1.5288,0.13137,1.0927,9.338,-0.53558,0.17853,-1.9385,-0.71411,-1.5438e-13,-0.96924,0,0,0.33333,3.9475e-16,0,0.66667
0.29695,0.43294,0.89084,-0.10059,-1.043,16.616,0.23896,-0.079652,-1.9648,0.31861,2.1636e-11,-0.98239,0,0,0.33333,5.9212e-16,0,0.66667
0.85965,0.31459,2.579,-0.27812,-0.73114,1.3611,1.9127,-0.63755,-1.7261,2.5502,-6.4681e-10,-0.86307,0,0,0.33333,-0,-0,0.66667
0.6716,0.41055,2.0148,-0.13418,-0.80812,4.8693,0.7209,-0.2403,-1.9368,0.9612,-1.5132e-11,-0.96838,0,0,0.33333,-0,-0,0.66667
0.63347,0.15335,1.9004,-0.51997,-3.5782,6.0315,2.6351,-0.87837,-1.039,3.5135,-1.2648e-12,-0.5195,0,0,0.33333,1.1744e-15,0,0.66667
0.12475,0.44549,0.37425,-0.081772,-0.91886,23.253,0.081609,-0.027203,-1.9765,0.10881,-4.6006e-09,-0.98825,0,0,0.33333,-0,-0,0.66667
0.47059,0.32321,1.4118,-0.26519,-2.3422,10.604,0.99836,-0.33279,-1.7497,1.3311,-2.5185e-13,-0.87487,0,0,0.33333,-0,-0,0.66667
0.98657,0.73172,2.9597,0.34759,-0.047953,0.22245,-2.7434,0.91445,-1.57,-3.6578,1.3035e-08,-0.78502,0,0,0.33333,1.579e-15,0,0.66667
0.9483,0.38557,2.8449,-0.17165,-0.1126,0.35155,1.3022,-0.43406,-1.8947,1.7362,-3.7109e-08,-0.94736,0,0,0.33333,-0,-0,0.66667
0.64509,0.87411,1.9353,0.56117,3.7877,5.7775,-2.896,0.96534,-0.88115,-3.8614,1.1089e-12,-0.44057,0,0,0.33333,9.8686e-17,0,0.66667
0.15172,0.86373,0.45517,0.54559,6.2465,22.245,-0.66224,0.22075,-0.94107,-0.88298,-1.9394e-09,-0.47053,0,0,0.33333,1.9737e-16,0,0.66667
0.63913,0.73845,1.9174,0.35768,2.3777,5.767,-1.8288,0.6096,-1.5449,-2.4384,8.0609e-12,-0.77246,0,0,0.33333,7.8949e-16,0,0.66667
0.56566,0.97989,1.697,0.71983,5.8409,8.0449,-3.2574,1.0858,-0.15725,-4.3433,-5.862e-14,-0.078627,0,0,0.33333,-0,-0,0.66667
0.46867,0.55926,1.406,0.088886,0.78123,10.626,-0.33326,0.11109,-1.9729,-0.44435,9.6062e-14,-0.98644,0,0,0.33333,-0,-0,0.66667
0.42804,0.5768,1.2841,0.1152,1.0635,11.97,-0.39447,0.13149,-1.952,-0.52596,-5.5159e-13,-0.97602,0,0,0.33333,7.8949e-16,0,0.66667
0.59927,0.50969,1.7978,0.014532,0.10328,6.7121,-0.06967,0.023223,-1.9987,-0.092893,2.5079e-13,-0.99937,0,0,0.33333,-0,-0,0.66667
0.84997,0.52678,2.5499,0.040168,0.11042,1.4093,-0.27313,0.091044,-1.9944,-0.36418,1.3651e-09,-0.99718,0,0,0.33333,1.579e-15,0,0.66667
0.75112,0.24786,2.2534,-0.37821,-1.8134,3.2459,2.2727,-0.75755,-1.4924,3.0302,-1.3192e-10,-0.7462,0,0,0.33333,-1.7764e-15,0,0.66667
0.57936,0.55503,1.7381,0.082548,0.61052,7.2696,-0.3826,0.12753,-1.9759,-0.51014,5.666e-13,-0.98797,0,0,0.33333,-0,-0,0.66667
0.9247,0.55605,2.7741,0.08407,0.097784,0.5277,-0.62192,0.20731,-1.9749,-0.82922,9.7584e-08,-0.98747,0,0,0.33333,-0,-0,0.66667
0.06474,0.071573,0.19422,-0.64264,-7.5797,25.683,0.33284,-0.11095,-0.53146,0.44378,4.8045e-08,-0.26573,0,0,0.33333,-0,-0,0.66667
0.99135,0.18605,2.974,-0.47093,0.069021,0.3326,3.7348,-1.2449,-1.2121,4.9798,-3.3391e-08,-0.60603,0,0,0.33333,-2.1711e-15,0,0.66667
0.052995,0.087282,0.15898,-0.61908,-7.293,26.146,0.26246,-0.087487,-0.63712,0.34995,-2.1391e-08,-0.31856,0,0,0.33333,-4.9343e-17,0,0.66667
0.1995,0.6076,0.59849,0.1614,1.7699,20.323,-0.25758,0.085861,-1.9068,-0.34344,-8.2481e-11,-0.9534,0,0,0.33333,-0,-0,0.66667
0.42275,0.48425,1.2683,-0.023632,-0.21913,12.141,0.079924,-0.026641,-1.9978,0.10657,2.4084e-13,-0.99889,0,0,0.33333,-0,-0,0.66667
0.10751,0.1584,0.32253,-0.5124,-5.9184,23.975,0.4407,-0.1469,-1.0673,0.58761,1.0655e-08,-0.53367,0,0,0.33333,-3.9475e-16,0,0.66667
0.62367,0.27271,1.871,-0.34093,-2.3421,6.155,1.701,-0.56701,-1.5868,2.268,-4.8995e-12,-0.79338,0,0,0.33333,-0,-0,0.66667
0.047993,0.073561,0.14398,-0.63966,-7.5565,26.346,0.24559,-0.081864,-0.54507,0.32745,-3.4478e-08,-0.27253,0,0,0.33333,-0,-0,0.66667
0.28462,0.58312,0.85387,0.12468,1.3042,17.076,-0.2839,0.094632,-1.9443,-0.37853,-3.2342e-11,-0.97216,0,0,0.33333,-3.9475e-16,0,0.66667
0.061037,0.52665,0.18311,0.039981,0.45473,25.796,-0.019523,0.0065073,-1.9948,-0.02603,-3.3942e-07,-0.99742,0,0,0.33333,-0,-0,0.66667
0.70352,0.70154,2.1106,0.30231,1.6845,4.1975,-1.7014,0.56714,-1.6749,-2.2686,4.7876e-11,-0.83746,0,0,0.33333,-0,-0,0.66667
0.66846,0.56295,2.0054,0.094426,0.57259,4.9369,-0.50495,0.16832,-1.9693,-0.67327,1.0335e-11,-0.98466,0,0,0.33333,-0,-0,0.66667
0.37858,0.6871,1.1357,0.28065,2.7443,13.703,-0.84999,0.28333,-1.721,-1.1333,-5.3904e-12,-0.86048,0,0,0.33333,-1.8504e-16,0,0.66667
0.18819,0.02023,0.56458,-0.71965,-8.2967,20.885,1.0835,-0.36116,-0.15851,1.4446,3.1426e-11,-0.079255,0,0,0.33333,-0,-0,0.66667
0.747,0.50918,2.241,0.013767,0.064987,3.1853,-0.082275,0.027425,-1.9991,-0.1097,4.87e-12,-0.99954,0,0,0.33333,-3.158e-15,0,0.66667
0.34038,0.80899,1.0211,0.46348,4.7503,15.12,-1.2621,0.42069,-1.2367,-1.6828,-9.5235e-12,-0.61834,0,0,0.33333,-1.9737e-16,0,0.66667
0.7953,0.52375,2.3859,0.035631,0.1364,2.2768,-0.2267,0.075567,-1.9956,-0.30227,6.8791e-12,-0.9978,0,0,0.33333,-1.579e-15,0,0.66667
0.4879,0.56509,1.4637,0.097637,0.83674,10.012,-0.3811,0.12703,-1.9667,-0.50813,1.6948e-13,-0.98335,0,0,0.33333,-1.579e-15,0,0.66667
0.52567,0.96997,1.577,0.70495,6.0739,9.1832,-2.9646,0.98819,-0.23375,-3.9528,-2.2582e-13,-0.11687,0,0,0.33333,-0,-0,0.66667
0.028491,0.57824,0.085473,0.11736,1.3404,27.104,-0.026749,0.0089167,-1.9505,-0.035666,4.566e-07,-0.97526,0,0,0.33333,-4.9343e-17,0,0.66667
0.64423,0.66446,1.9327,0.2467,1.6034,5.5805,-1.2714,0.42381,-1.7834,-1.6953,1.1008e-11,-0.8917,0,0,0.33333,-0,-0,0.66667
0.35066,0.41714,1.052,-0.12428,-1.2375,14.661,0.34865,-0.11622,-1.9444,0.46486,8.4286e-12,-0.97222,0,0,0.33333,7.8949e-16,0,0.66667
0.22921,0.98754,0.68762,0.73131,8.2937,19.332,-1.341,0.44699,-0.097761,-1.788,1.0846e-11,-0.048881,0,0,0.33333,-3.9475e-16,0,0.66667
0.43388,0.23147,1.3017,-0.40279,-3.7564,11.86,1.3981,-0.46604,-1.4226,1.8642,-8.5143e-13,-0.7113,0,0,0.33333,-0,-0,0.66667
0.38247,0.74851,1.1474,0.37277,3.6552,13.598,-1.1406,0.38019,-1.5065,-1.5208,-3.2325e-12,-0.75326,0,0,0.33333,2.9606e-16,0,0.66667
0.46979,0.99139,1.4094,0.73708,6.8782,10.925,-2.7702,0.92339,-0.068398,-3.6936,6.0618e-14,-0.034199,0,0,0.33333,-1.1842e-15,0,0.66667
0.97948,0.35597,2.9385,-0.21605,0.010277,0.16321,1.693,-0.56432,-1.8334,2.2573,1.1123e-07,-0.9167,0,0,0.33333,1.579e-15,0,0.66667
0.36438,0.42522,1.0931,-0.11217,-1.1034,14.17,0.32698,-0.10899,-1.9546,0.43598,5.5532e-12,-0.97731,0,0,0.33333,-0,-0,0.66667
0.77441,0.93138,2.3232,0.64707,3.0117,3.0854,-4.0088,1.3363,-0.51113,-5.345,5.2465e-11,-0.25557,0,0,0.33333,-3.9475e-16,0,0.66667
0.55277,0.45897,1.6583,-0.061552,-0.47727,8.0307,0.27219,-0.09073,-1.986,0.36292,-6.9111e-14,-0.993,0,0,0.33333,-0,-0,0.66667
0.88913,0.82647,2.6674,0.48971,1.0669,1.1816,-3.4833,1.1611,-1.147,-4.6444,3.3108e-10,-0.57351,0,0,0.33333,-1.579e-15,0,0.66667
0.35495,0.74497,1.0649,0.36746,3.6911,14.564,-1.0435,0.34782,-1.52,-1.3913,-9.6338e-12,-0.76001,0,0,0.33333,-1.9737e-16,0,0.66667
0.24552,0.12662,0.73656,-0.56008,-6.1713,18.648,1.1001,-0.36669,-0.88537,1.4668,9.2118e-11,-0.44268,0,0,0.33333,-0,-0,0.66667
0.91102,0.49408,2.7331,-0.0088781,-0.012933,0.65484,0.064705,-0.021568,-1.9997,0.086273,1.5362e-07,-0.99984,0,0,0.33333,2.3685e-15,0,0.66667
0.043534,0.66162,0.1306,0.24243,2.777,26.502,-0.084431,0.028144,-1.7912,-0.11257,5.5209e-08,-0.8956,0,0,0.33333,-0,-0,0.66667
0.95075,0.70915,2.8523,0.31372,0.21069,0.41994,-2.3862,0.7954,-1.6498,-3.1816,-5.7347e-09,-0.82492,0,0,0.33333,7.8949e-16,0,0.66667
0.55641,0.5027,1.6692,0.0040521,0.031204,7.9217,-0.018037,0.0060123,-2.0003,-0.024049,9.3418e-14,-1.0002,0,0,0.33333,-0,-0,0.66667
0.37636,0.60035,1.1291,0.15052,1.4661,13.752,-0.4532,0.15107,-1.9197,-0.60427,-4.8027e-12,-0.95985,0,0,0.33333,-0,-0,0.66667
0.99505,0.896,2.9852,0.594,-0.058791,0.49002,-4.7285,1.5762,-0.74497,-6.3046,-1.4941e-07,-0.37248,0,0,0.33333,-7.8949e-16,3.4806e-16,0.66667
0.058363,0.50854,0.17509,0.012815,0.14577,25.903,-0.0059831,0.001995,-1.9991,-0.0079772,9.2952e-07,-0.99956,0,0,0.33333,-0,-0,0.66667
0.51671,0.80625,1.5501,0.45937,3.8732,9.2534,-1.8989,0.63296,-1.2501,-2.5318,-5.7032e-13,-0.62503,0,0,0.33333,3.9475e-16,0,0.66667
0.031097,0.74523,0.093291,0.36785,4.247,27.004,-0.091512,0.030504,-1.5196,-0.12202,1.0633e-09,-0.7598,0,0,0.33333,1.2336e-17,0,0.66667
0.57118,0.0011151,1.7135,-0.74833,-6.0484,7.9227,3.4194,-1.1398,-0.0095798,4.5592,-1.1458e-13,-0.0047899,0,0,0.33333,3.158e-15,0,0.66667
0.18047,0.69963,0.54141,0.29944,3.3295,21.078,-0.43232,0.14411,-1.6805,-0.57643,-1.375e-10,-0.84023,0,0,0.33333,-0,-0,0.66667
0.63096,0.3873,1.8929,-0.16904,-1.1274,5.8922,0.85328,-0.28443,-1.8977,1.1377,-6.4759e-12,-0.94885,0,0,0.33333,-0,-0,0.66667
0.98092,0.77526,2.9428,0.41289,0.019379,0.31706,-3.2401,1.08,-1.3939,-4.3201,-7.4284e-09,-0.69696,0,0,0.33333,-7.8949e-16,0,0.66667
0.8749,0.21868,2.6247,-0.42198,-1.0194,1.2793,2.9535,-0.9845,-1.3685,3.938,4.9298e-10,-0.68424,0,0,0.33333,6.723e-16,0,0.66667
0.45184,0.39203,1.3555,-0.16195,-1.4566,11.186,0.5854,-0.19513,-1.9065,0.78053,2.548e-14,-0.95323,0,0,0.33333,-0,-0,0.66667
0.70846,0.7781,2.1254,0.41715,2.3253,4.1659,-2.3643,0.78809,-1.3816,-3.1524,4.9368e-11,-0.69082,0,0,0.33333,1.9737e-16,0,0.66667
0.77747,0.31181,2.3324,-0.28228,-1.1985,2.6788,1.7557,-0.58524,-1.7176,2.341,-1.5026e-10,-0.85881,0,0,0.33333,-3.454e-16,0,0.66667
0.49484,0.46284,1.4845,-0.055739,-0.47274,9.7887,0.22066,-0.073552,-1.9889,0.29421,-5.0793e-15,-0.99444,0,0,0.33333,-0,-0,0.66667
0.52853,0.82472,1.5856,0.48708,4.0479,8.9155,-2.0595,0.6865,-1.156,-2.746,-7.1165e-13,-0.57802,0,0,0.33333,-0,-0,0.66667
0.15078,0.95618,0.45235,0.68427,7.9576,22.316,-0.82542,0.27514,-0.33452,-1.1006,-2.1546e-10,-0.16726,0,0,0.33333,-0,-0,0.66667
0.3694,0.86627,1.1082,0.5494,5.5447,14.135,-1.6236,0.5412,-0.92635,-2.1648,-3.9346e-13,-0.46318,0,0,0.33333,-0,-0,0.66667
0.14222,0.52989,0.42666,0.044832,0.50104,22.56,-0.051008,0.017003,-1.9939,-0.068011,1.8136e-09,-0.99696,0,0,0.33333,9.8686e-17,0,0.66667
0.72689,0.79734,2.1807,0.44601,2.356,3.7942,-2.5936,0.86453,-1.2919,-3.4581,7.2126e-11,-0.64596,0,0,0.33333,-0,-0,0.66667
0.47701,0.11649,1.431,-0.57526,-5.1942,10.563,2.1952,-0.73175,-0.82293,2.927,-4.4498e-13,-0.41147,0,0,0.33333,3.9475e-16,0,0.66667
0.44888,0.48481,1.3466,-0.02278,-0.205,11.268,0.081802,-0.027267,-1.9975,0.10907,-2.5001e-14,-0.99875,0,0,0.33333,7.8949e-16,0,0.66667
0.886,0.36503,2.658,-0.20246,-0.41287,0.98303,1.435,-0.47835,-1.8538,1.9134,2.2664e-09,-0.92689,0,0,0.33333,-0,-0,0.66667
0.52762,0.20483,1.5829,-0.44276,-3.6658,8.9138,1.8689,-0.62296,-1.3024,2.4918,6.0507e-13,-0.6512,0,0,0.33333,7.8949e-16,0,0.66667
0.40909,0.21943,1.2273,-0.42085,-4.0368,12.702,1.3773,-0.45911,-1.3713,1.8364,-4.7695e-13,-0.68565,0,0,0.33333,1.579e-15,0,0.66667
0.26889,0.11081,0.80668,-0.58378,-6.3647,17.783,1.2558,-0.4186,-0.7877,1.6744,3.4785e-11,-0.39385,0,0,0.33333,-0,-0,0.66667
0.072012,0.5675,0.21604,0.10124,1.1506,25.357,-0.058327,0.019442,-1.9636,-0.077769,-1.3365e-07,-0.98178,0,0,0.33333,-1.9737e-16,0,0.66667
0.41814,0.52188,1.2544,0.032816,0.30584,12.298,-0.10977,0.036591,-1.9958,-0.14636,-2.1816e-13,-0.99792,0,0,0.33333,-0,-0,0.66667
0.025753,0.45813,0.07726,-0.062798,-0.7167,27.214,0.012939,-0.0043114,-1.9854,0.017252,2.1611e-06,-0.9927,0,0,0.33333,2.4672e-17,0,0.66667
0.29115,0.94646,0.87346,0.66969,7.2758,17.001,-1.5599,0.51995,-0.40496,-2.0798,-3.2648e-12,-0.20248,0,0,0.33333,-0,-0,0.66667
0.50351,0.52561,1.5105,0.03842,0.32181,9.5165,-0.15476,0.051587,-1.9949,-0.20635,-1.0057e-13,-0.99743,0,0,0.33333,-7.8949e-16,0,0.66667
0.96593,0.65248,2.8978,0.22872,0.062812,0.25347,-1.7675,0.58915,-1.8145,-2.3566,1.3389e-08,-0.90723,0,0,0.33333,-1.0877e-16,0,0.66667
0.10938,0.024019,0.32815,-0.71397,-8.4261,23.937,0.62477,-0.20826,-0.18795,0.83303,9.703e-09,-0.093974,0,0,0.33333,-1.9737e-16,0,0.66667
0.67304,0.12264,2.0191,-0.56604,-3.5734,5.1061,3.0477,-1.0159,-0.86176,4.0636,-5.3748e-12,-0.43088,0,0,0.33333,-1.1842e-15,0,0.66667
0.49993,0.27832,1.4998,-0.33252,-2.8371,9.7008,1.3299,-0.4433,-1.6079,1.7732,4.0079e-14,-0.80395,0,0,0.33333,1.4801e-16,0,0.66667
0.7771,0.67419,2.3313,0.26129,1.1081,2.6738,-1.6244,0.54145,-1.7566,-2.1658,1.3529e-10,-0.87832,0,0,0.33333,-0,-0,0.66667
0.14361,0.50882,0.43082,0.013232,0.14779,22.505,-0.015202,0.0050672,-1.9992,-0.020269,-7.0507e-10,-0.99958,0,0,0.33333,-0,-0,0.66667
0.083203,0.96121,0.24961,0.69181,8.184,24.961,-0.46048,0.15349,-0.29805,-0.61398,1.3776e-08,-0.14902,0,0,0.33333,1.973e-16,0,0.66667
0.39922,0.32228,1.1977,-0.26658,-2.5533,12.983,0.8514,-0.2838,-1.7468,1.1352,2.3917e-12,-0.87338,0,0,0.33333,-0,-0,0.66667
0.79696,0.33682,2.3909,-0.24477,-0.94407,2.3102,1.5606,-0.52019,-1.7874,2.0808,-1.236e-10,-0.89371,0,0,0.33333,-0,-0,0.66667
0.19168,0.28407,0.57503,-0.32389,-3.5902,20.646,0.49666,-0.16555,-1.6275,0.66221,2.3501e-10,-0.81374,0,0,0.33333,-0,-0,0.66667
0.76778,0.65575,2.3033,0.23363,1.0279,2.8339,-1.435,0.47834,-1.8071,-1.9134,1.0348e-10,-0.90355,0,0,0.33333,2.9606e-16,0,0.66667
0.2903,0.98991,0.87089,0.73486,8.0581,17.068,-1.7066,0.56888,-0.079346,-2.2755,2.4047e-13,-0.039673,0,0,0.33333,3.9475e-16,0,0.66667
0.21689,0.72754,0.65067,0.34131,3.7452,19.676,-0.59222,0.19741,-1.5857,-0.78962,-2.0775e-10,-0.79287,0,0,0.33333,-0,-0,0.66667
0.016716,0.41989,0.050147,-0.12016,-1.3733,27.578,0.016067,-0.005356,-1.9484,0.021423,-3.6452e-07,-0.97421,0,0,0.33333,-0,-0,0.66667
0.39866,0.24323,1.196,-0.38515,-3.7219,13.043,1.2284,-0.40945,-1.4723,1.6378,1.0009e-12,-0.73615,0,0,0.33333,-3.9475e-16,0,0.66667
0.38108,0.80404,1.1432,0.45606,4.5103,13.681,-1.3904,0.46346,-1.2601,-1.8538,-1.3693e-12,-0.63003,0,0,0.33333,-3.9475e-16,0,0.66667
0.65934,0.70888,1.978,0.31331,1.9744,5.2374,-1.6527,0.55089,-1.6507,-2.2035,1.6567e-11,-0.82533,0,0,0.33333,-0,-0,0.66667
0.070918,0.10029,0.21276,-0.59956,-7.0323,25.434,0.34016,-0.11339,-0.72164,0.45355,1.0111e-07,-0.36082,0,0,0.33333,-0,-0,0.66667
0.1526,0.82149,0.45781,0.48223,5.487,22.198,-0.58872,0.19624,-1.1729,-0.78496,-1.2789e-09,-0.58644,0,0,0.33333,3.9475e-16,0,0.66667
0.016576,0.39518,0.049728,-0.15723,-1.7986,27.583,0.02085,-0.0069499,-1.912,0.027801,2.9014e-07,-0.956,0,0,0.33333,-0,-0,0.66667
0.1138,0.9323,0.34139,0.64844,7.5851,23.751,-0.59032,0.19677,-0.50504,-0.7871,-5.6367e-09,-0.25252,0,0,0.33333,2.4672e-16,0,0.66667
0.65179,0.87058,1.9554,0.55587,3.6905,5.6068,-2.8985,0.96615,-0.90158,-3.8646,2.1978e-12,-0.45079,0,0,0.33333,-7.8949e-16,0,0.66667
0.40266,0.8907,1.208,0.58605,5.7592,13.011,-1.8878,0.62927,-0.77824,-2.5171,9.6012e-13,-0.38912,0,0,0.33333,-0,-0,0.66667
0.32103,0.24001,0.96308,-0.38998,-4.0315,15.791,1.0015,-0.33385,-1.4587,1.3354,2.4515e-11,-0.72934,0,0,0.33333,3.9475e-16,0,0.66667
0.55791,0.011784,1.6737,-0.73232,-6.0326,8.2769,3.2686,-1.0895,-0.092576,4.3581,-4.7073e-14,-0.046288,0,0,0.33333,3.158e-15,0,0.66667
0.99346,0.25567,2.9804,-0.36649,0.1054,0.20724,2.9127,-0.97091,-1.5223,3.8837,-6.1205e-10,-0.76117,0,0,0.33333,3.158e-15,0,0.66667
0.83449,0.64213,2.5035,0.2132,0.66249,1.6858,-1.4233,0.47443,-1.8376,-1.8977,1.3672e-10,-0.91881,0,0,0.33333,1.579e-15,0,0.66667
0.69962,0.47152,2.0989,-0.042723,-0.2369,4.2012,0.23912,-0.079707,-1.9941,0.31883,-8.7879e-12,-0.99704,0,0,0.33333,-0,-0,0.66667
0.91826,0.45531,2.7548,-0.067028,-0.087332,0.58689,0.49239,-0.16413,-1.9835,0.65653,-2.1711e-08,-0.99173,0,0,0.33333,1.579e-15,0,0.66667
0.039729,0.58536,0.11919,0.12804,1.4615,26.653,-0.040695,0.013565,-1.9413,-0.05426,5.8269e-08,-0.97063,0,0,0.33333,4.9343e-17,0,0.66667
0.070333,0.43132,0.211,-0.10302,-1.1711,25.424,0.057965,-0.019321,-1.9621,0.077286,1.0971e-07,-0.98104,0,0,0.33333,4.1646e-17,0,0.66667
0.47401,0.72245,1.422,0.33368,2.9483,10.52,-1.2653,0.42177,-1.6044,-1.6871,5.0293e-13,-0.80219,0,0,0.33333,-0,-0,0.66667
0.34917,0.38147,1.0475,-0.1778,-1.7756,14.722,0.49665,-0.16555,-1.8874,0.6622,1.1481e-11,-0.94372,0,0,0.33333,-0,-0,0.66667
0.93725,0.73267,2.8118,0.34901,0.3496,0.55767,-2.6169,0.87229,-1.5668,-3.4892,-2.6982e-09,-0.7834,0,0,0.33333,1.579e-15,0,0.66667
0.48956,0.74759,1.4687,0.37139,3.225,10.043,-1.4545,0.48485,-1.5101,-1.9394,1.9684e-13,-0.75504,0,0,0.33333,8.8818e-16,0,0.66667
0.53965,0.95875,1.6189,0.68813,5.7893,8.7557,-2.9708,0.99026,-0.31578,-3.961,-2.1361e-13,-0.15789,0,0,0.33333,7.8949e-16,0,0.66667
0.89526,0.38722,2.6858,-0.16917,-0.30933,0.86045,1.2116,-0.40388,-1.8976,1.6155,-2.5148e-10,-0.94882,0,0,0.33333,1.579e-15,0,0.66667
0.44664,0.48058,1.3399,-0.029131,-0.26288,11.343,0.10409,-0.034696,-1.9963,0.13879,7.3407e-14,-0.99815,0,0,0.33333,-7.8949e-16,0,0.66667
0.87703,0.93144,2.6311,0.64717,1.6961,1.5344,-4.5407,1.5136,-0.51108,-6.0543,9.6649e-09,-0.25554,0,0,0.33333,-7.8949e-16,0,0.66667
0.25358,0.91663,0.76075,0.62495,6.9057,18.371,-1.2678,0.4226,-0.61093,-1.6904,-3.3277e-11,-0.30547,0,0,0.33333,-0,-0,0.66667
0.27381,0.97812,0.82143,0.71719,7.9252,17.663,-1.571,0.52366,-0.17064,-2.0946,-1.015e-12,-0.085319,0,0,0.33333,-0,-0,0.66667
0.32836,0.54779,0.98508,0.071681,0.726,15.461,-0.1883,0.062766,-1.9816,-0.25106,-8.5449e-12,-0.99081,0,0,0.33333,3.9475e-16,0,0.66667
0.54756,0.32738,1.6427,-0.25893,-2.0425,8.2296,1.1342,-0.37808,-1.7614,1.5123,3.4628e-13,-0.88071,0,0,0.33333,-7.8949e-16,0,0.66667
0.22013,0.20872,0.66039,-0.43692,-4.8206,19.574,0.76942,-0.25647,-1.3212,1.0259,2.4267e-10,-0.66058,0,0,0.33333,1.9737e-16,0,0.66667
0.67143,0.24719,2.0143,-0.37921,-2.3344,4.986,2.0369,-0.67898,-1.4897,2.7159,-2.0709e-11,-0.74484,0,0,0.33333,-9.8686e-16,0,0.66667
0.14279,0.63638,0.42838,0.20457,2.2943,22.545,-0.23368,0.077895,-1.8509,-0.31158,6.4389e-11,-0.92545,0,0,0.33333,-0,-0,0.66667
0.0941,0.72147,0.2823,0.33221,3.7954,24.486,-0.25009,0.083362,-1.6086,-0.33345,-2.4642e-10,-0.80431,0,0,0.33333,-0,-0,0.66667
0.87019,0.14565,2.6106,-0.53152,-1.3941,1.4598,3.7002,-1.2334,-0.99497,4.9336,-1.7408e-09,-0.49749,0,0,0.33333,-0,-0,0.66667
0.23687,0.47229,0.71061,-0.04157,-0.44669,18.876,0.078774,-0.026258,-1.9944,0.10503,1.8058e-11,-0.9972,0,0,0.33333,-0,-0,0.66667
0.386,0.6026,1.158,0.15389,1.4856,13.416,-0.47523,0.15841,-1.9154,-0.63364,-3.5532e-12,-0.95771,0,0,0.33333,-0,-0,0.66667
0.57154,0.018526,1.7146,-0.72221,-5.8049,7.8833,3.3022,-1.1007,-0.14472,4.4029,1.0925e-13,-0.072361,0,0,0.33333,-0,-0,0.66667
0.5258,0.25784,1.5774,-0.36324,-2.9916,8.9234,1.5279,-0.50931,-1.5305,2.0372,5.6077e-13,-0.76527,0,0,0.33333,-0,-0,0.66667
0.076024,0.90391,0.22807,0.60587,7.1057,25.233,-0.36849,0.12283,-0.69564,-0.49131,-1.2218e-07,-0.34782,0,0,0.33333,-0,-0,0.66667
0.87413,0.35793,2.6224,-0.2131,-0.48899,1.1344,1.4902,-0.49674,-1.8383,1.987,-4.9624e-10,-0.91915,0,0,0.33333,-0,-0,0.66667
0.95114,0.77545,2.8534,0.41317,0.30484,0.50872,-3.1438,1.0479,-1.3933,-4.1918,-5.7009e-09,-0.69665,0,0,0.33333,-7.8949e-16,0,0.66667
0.81251,0.63958,2.4375,0.20937,0.7412,2.0308,-1.3609,0.45365,-1.8441,-1.8146,1.2389e-10,-0.92203,0,0,0.33333,-1.579e-15,0,0.66667
0.2838,0.19715,0.85141,-0.45428,-4.8445,17.179,1.0314,-0.3438,-1.266,1.3752,5.391e-11,-0.63301,0,0,0.33333,-7.8949e-16,0,0.66667
0.52785,0.54238,1.5835,0.063566,0.51345,8.7718,-0.26843,0.089475,-1.9852,-0.3579,-1.9512e-14,-0.9926,0,0,0.33333,-0,-0,0.66667
0.33942,0.6917,1.0183,0.28755,2.91,15.095,-0.7808,0.26027,-1.7062,-1.0411,-1.7573e-11,-0.85312,0,0,0.33333,-7.8949e-16,0,0.66667
0.55467,0.71557,1.664,0.32335,2.5329,8.0497,-1.4348,0.47827,-1.6285,-1.9131,-5.167e-13,-0.81426,0,0,0.33333,1.9737e-16,0,0.66667
0.9744,0.85768,2.9232,0.53653,0.17257,0.50616,-4.1823,1.3941,-0.97576,-5.5765,8.2586e-08,-0.48788,0,0,0.33333,-1.579e-15,0,0.66667
0.3117,0.86391,0.93511,0.54586,5.7642,16.191,-1.3612,0.45372,-0.94049,-1.8149,-1.2974e-11,-0.47024,0,0,0.33333,3.9475e-16,0,0.66667
0.6688,0.99836,2.0064,0.74754,4.9552,5.419,-3.9996,1.3332,-0.01394,-5.3328,3.9968e-15,-0.00697,0,0,0.33333,7.8949e-16,7.8618e-17,0.66667
0.32597,0.8812,0.9779,0.5718,5.9929,15.688,-1.4911,0.49704,-0.83766,-1.9882,-5.315e-12,-0.41883,0,0,0.33333,-0,-0,0.66667
0.77448,0.34938,2.3234,-0.22594,-0.96517,2.7045,1.3999,-0.46662,-1.8184,1.8665,-1.135e-10,-0.9092,0,0,0.33333,1.579e-15,0,0.66667
0.32581,0.25011,0.97743,-0.37483,-3.8564,15.612,0.97698,-0.32566,-1.5017,1.3026,2.2497e-11,-0.75085,0,0,0.33333,-0,-0,0.66667
0.88983,0.0015812,2.6695,-0.74763,-1.8652,1.5523,5.3221,-1.774,-0.013787,7.0961,2.6111e-08,-0.0068934,0,0,0.33333,-0,-0,0.66667
0.75171,0.21483,2.2551,-0.42776,-2.0642,3.2743,2.5724,-0.85746,-1.35,3.4299,-1.3333e-10,-0.675,0,0,0.33333,-3.9475e-16,0,0.66667
0.76263,0.35341,2.2879,-0.21989,-0.98676,2.9259,1.3416,-0.44719,-1.8278,1.7887,-9.9379e-11,-0.9139,0,0,0.33333,-0,-0,0.66667
0.46948,0.0077026,1.4084,-0.73845,-6.8951,10.937,2.7735,-0.92449,-0.061374,3.698,-1.3545e-14,-0.030687,0,0,0.33333,-0,-0,0.66667
0.21076,0.13624,0.63229,-0.54563,-6.1069,19.963,0.92,-0.30667,-0.94078,1.2267,2.7583e-10,-0.47039,0,0,0.33333,-0,-0,0.66667
0.041475,0.36969,0.12443,-0.19546,-2.2352,26.584,0.064854,-0.021618,-1.8642,0.086472,1.6017e-07,-0.93208,0,0,0.33333,4.9343e-17,0,0.66667
0.32183,0.35233,0.96549,-0.22151,-2.2648,15.717,0.5703,-0.1901,-1.8251,0.7604,2.4753e-11,-0.91255,0,0,0.33333,-7.8949e-16,0,0.66667
0.037113,0.12597,0.11134,-0.56104,-6.5791,26.772,0.16657,-0.055525,-0.88156,0.2221,-1.837e-07,-0.44078,0,0,0.33333,9.8686e-17,0,0.66667
0.69386,0.87005,2.0816,0.55508,3.3077,4.6159,-3.0812,1.0271,-0.90449,-4.1082,1.3923e-11,-0.45224,0,0,0.33333,7.8949e-16,0,0.66667
0.67035,0.64044,2.0111,0.21066,1.2787,4.9229,-1.1297,0.37657,-1.8419,-1.5063,2.0107e-11,-0.92094,0,0,0.33333,-0,-0,0.66667
0.43047,0.45787,1.2914,-0.063189,-0.58115,11.883,0.21761,-0.072536,-1.9852,0.29014,2.2381e-13,-0.99258,0,0,0.33333,3.9475e-16,0,0.66667
0.76779,0.47758,2.3034,-0.033629,-0.14608,2.779,0.20656,-0.068853,-1.9959,0.27541,-1.468e-11,-0.99794,0,0,0.33333,-0,-0,0.66667
0.53601,0.77891,1.608,0.41837,3.4099,8.6487,-1.794,0.598,-1.3782,-2.392,-8.4022e-13,-0.6891,0,0,0.33333,-1.9737e-16,0,0.66667
0.03986,0.82285,0.11958,0.48428,5.6374,26.659,-0.15443,0.051475,-1.1655,-0.2059,-3.0544e-10,-0.58276,0,0,0.33333,-9.8686e-17,0,0.66667
0.13479,0.60328,0.40438,0.15491,1.7387,22.858,-0.16705,0.055683,-1.9142,-0.22273,1.9809e-09,-0.95708,0,0,0.33333,-0,-0,0.66667
0.19342,0.20712,0.58025,-0.43933,-4.9063,20.602,0.67978,-0.22659,-1.3131,0.90638,4.0808e-10,-0.65655,0,0,0.33333,1.9737e-16,0,0.66667
0.33566,0.62815,1.007,0.19223,1.9421,15.21,-0.51619,0.17206,-1.8689,-0.68825,-1.6818e-11,-0.93445,0,0,0.33333,-0,-0,0.66667
0.052313,0.9368,0.15694,0.6552,7.7504,26.176,-0.2742,0.091401,-0.47445,-0.36561,-2.4584e-07,-0.23723,0,0,0.33333,-3.3923e-17,0,0.66667
0.60512,0.9105,1.8154,0.61575,4.5663,6.8588,-2.9808,0.9936,-0.65217,-3.9744,-9.6234e-13,-0.32609,0,0,0.33333,1.579e-15,0,0.66667
0.51206,0.50377,1.5362,0.0056572,0.046782,9.2508,-0.023175,0.0077249,-2.0003,-0.0309,-7.8642e-14,-1.0001,0,0,0.33333,-0,-0,0.66667
0.61746,0.51516,1.8524,0.022739,0.15558,6.2226,-0.11232,0.037441,-1.9974,-0.14976,7.3196e-13,-0.99868,0,0,0.33333,-0,-0,0.66667
0.43236,0.26311,1.2971,-0.35534,-3.3063,11.89,1.2291,-0.40969,-1.5504,1.6388,-4.8495e-13,-0.77518,0,0,0.33333,-0,-0,0.66667
0.8477,0.69687,2.5431,0.29531,0.85164,1.5385,-2.0026,0.66755,-1.6896,-2.6702,-2.6032e-10,-0.84479,0,0,0.33333,-0,-0,0.66667
0.45406,0.85927,1.3622,0.53891,4.9816,11.273,-1.9576,0.65253,-0.96714,-2.6101,7.7127e-13,-0.48357,0,0,0.33333,7.8949e-16,0,0.66667
0.015404,0.99473,0.046211,0.7421,8.894,27.641,-0.091444,0.030495,-0.042555,-0.12192,2.0271e-05,-0.021277,0,0,0.33333,1.2336e-17,0,0.66667
0.87307,0.17672,2.6192,-0.48492,-1.2189,1.3687,3.3869,-1.129,-1.1637,4.5159,-2.1841e-09,-0.58184,0,0,0.33333,-7.8949e-16,0,0.66667
0.6562,0.87387,1.9686,0.56081,3.6877,5.5038,-2.944,0.98135,-0.88313,-3.9254,2.5466e-12,-0.44157,0,0,0.33333,-1.0856e-15,5.5388e-17,0.66667
0.823,0.49634,2.469,-0.0054941,-0.018064,1.8135,0.036174,-0.012058,-2.0002,0.048231,1.412e-10,-1.0001,0,0,0.33333,-1.579e-15,0,0.66667
0.95178,0.1885,2.8553,-0.46724,-0.36097,0.56438,3.5577,-1.1859,-1.2249,4.7436,1.2105e-08,-0.61247,0,0,0.33333,-3.158e-15,0,0.66667
0.050912,0.22251,0.15274,-0.41624,-4.8139,26.214,0.16953,-0.056511,-1.3843,0.22604,-8.6718e-09,-0.69216,0,0,0.33333,-0,-0,0.66667
0.23507,0.51309,0.70522,0.019633,0.21113,18.944,-0.036921,0.012307,-1.9985,-0.049228,-1.6572e-11,-0.99923,0,0,0.33333,-0,-0,0.66667
0.063343,0.78115,0.19003,0.42172,4.8722,25.718,-0.21371,0.071236,-1.3691,-0.28494,7.2145e-09,-0.68455,0,0,0.33333,-2.7756e-17,0,0.66667
0.42166,0.10358,1.265,-0.59463,-5.7381,12.377,2.0059,-0.66862,-0.74291,2.6745,-9.4103e-13,-0.37146,0,0,0.33333,-0,-0,0.66667
0.86383,0.76362,2.5915,0.39542,1.0378,1.396,-2.7326,0.91088,-1.4434,-3.6435,5.6614e-10,-0.7217,0,0,0.33333,-0,-0,0.66667
0.081624,0.43592,0.24487,-0.096121,-1.0906,24.972,0.062766,-0.020922,-1.9679,0.083689,1.0143e-08,-0.98397,0,0,0.33333,1.2336e-17,0,0.66667
0.47311,0.50473,1.4193,0.0070975,0.061961,10.478,-0.026863,0.0089544,-2,-0.035818,1.0296e-13,-0.99999,0,0,0.33333,-0,-0,0.66667
0.12554,0.2188,0.37663,-0.4218,-4.8136,23.25,0.42363,-0.14121,-1.3689,0.56484,-3.5412e-10,-0.68447,0,0,0.33333,-3.9475e-16,0,0.66667
0.77289,0.97313,2.3187,0.7097,3.3858,3.2006,-4.3881,1.4627,-0.20923,-5.8509,1.2021e-11,-0.10461,0,0,0.33333,-1.579e-15,0,0.66667
0.84142,0.33555,2.5243,-0.24667,-0.73602,1.5997,1.6604,-0.55347,-1.7836,2.2139,-6.7243e-11,-0.8918,0,0,0.33333,-0,-0,0.66667
0.043291,0.60541,0.12987,0.15811,1.8057,26.51,-0.054759,0.018253,-1.9106,-0.073012,1.7635e-07,-0.95531,0,0,0.33333,-0,-0,0.66667
0.48644,0.0021087,1.4593,-0.74684,-6.8377,10.414,2.9063,-0.96878,-0.017695,3.8751,-4.6407e-14,-0.0088476,0,0,0.33333,3.158e-15,0,0.66667
0.23941,0.54655,0.71823,0.069826,0.7495,18.78,-0.13374,0.044579,-1.9819,-0.17831,-3.5038e-11,-0.99097,0,0,0.33333,-3.9475e-16,0,0.66667
0.95247,0.93191,2.8574,0.64786,0.62549,0.81505,-4.9366,1.6455,-0.50815,-6.5821,-2.5839e-07,-0.25407,0,0,0.33333,-1.579e-15,-2.3199e-16,0.66667
0.94389,0.47782,2.8317,-0.033265,-0.024176,0.35106,0.25119,-0.08373,-1.9956,0.33492,7.2237e-09,-0.99779,0,0,0.33333,-0,-0,0.66667
0.61393,0.085434,1.8418,-0.62185,-4.5362,6.6325,3.0542,-1.0181,-0.62477,4.0723,7.9181e-13,-0.31238,0,0,0.33333,-3.9475e-16,0,0.66667
0.97349,0.61607,2.9205,0.1741,0.013231,0.1771,-1.3559,0.45197,-1.8918,-1.8079,2.4276e-08,-0.94592,0,0,0.33333,7.8949e-16,0,0.66667
0.34486,0.62972,1.0346,0.19458,1.9514,14.879,-0.53682,0.17894,-1.8659,-0.71576,-1.3531e-11,-0.93297,0,0,0.33333,-0,-0,0.66667
0.89785,0.7549,2.6936,0.38236,0.72443,0.972,-2.7464,0.91547,-1.4802,-3.6619,-5.0415e-10,-0.74009,0,0,0.33333,-0,-0,0.66667
0.43459,0.35308,1.3038,-0.22038,-2.0276,11.771,0.7662,-0.2554,-1.8271,1.0216,2.6101e-13,-0.91354,0,0,0.33333,-0,-0,0.66667
0.23581,0.77529,0.70744,0.41293,4.5118,18.969,-0.77901,0.25967,-1.3941,-1.0387,-1.7572e-10,-0.69703,0,0,0.33333,-1.9737e-16,0,0.66667
0.94083,0.010293,2.8225,-0.73456,-0.99485,1.0519,5.5288,-1.8429,-0.081122,7.3717,-7.6333e-07,-0.040561,0,0,0.33333,-3.158e-15,0,0.66667
0.68422,0.89072,2.0527,0.58607,3.6073,4.8674,-3.208,1.0693,-0.77817,-4.2774,6.6875e-12,-0.38908,0,0,0.33333,-0,-0,0.66667
0.064912,0.063489,0.19473,-0.65477,-7.7333,25.678,0.34002,-0.11334,-0.4767,0.45335,1.4231e-07,-0.23835,0,0,0.33333,1.9737e-16,0,0.66667
0.87042,0.46582,2.6113,-0.051275,-0.11935,1.1321,0.35705,-0.11902,-1.9911,0.47606,4.7995e-10,-0.99555,0,0,0.33333,3.9475e-16,0,0.66667
0.70138,0.054154,2.1041,-0.66877,-3.9974,4.5781,3.7525,-1.2508,-0.40977,5.0033,-2.3117e-12,-0.20488,0,0,0.33333,-0,-0,0.66667
0.60493,0.14859,1.8148,-0.52712,-3.8551,6.7822,2.551,-0.85032,-1.0118,3.4013,7.5451e-13,-0.50591,0,0,0.33333,-7.8949e-16,0,0.66667
0.73237,0.14282,2.1971,-0.53576,-2.8277,3.7661,3.139,-1.0463,-0.97903,4.1854,-5.5689e-11,-0.48951,0,0,0.33333,-0,-7.2866e-17,0.66667
0.25344,0.051839,0.76032,-0.67224,-7.4716,18.397,1.363,-0.45433,-0.3928,1.8173,1.3269e-11,-0.1964,0,0,0.33333,-0,-0,0.66667
0.60049,0.24438,1.8015,-0.38344,-2.7769,6.7964,1.842,-0.614,-1.4772,2.456,-9.0816e-13,-0.73858,0,0,0.33333,1.1842e-15,0,0.66667
0.81462,0.36459,2.4439,-0.20311,-0.71011,1.9934,1.3237,-0.44122,-1.8531,1.7649,-4.5267e-11,-0.92654,0,0,0.33333,-0,-0,0.66667
0.054114,0.45881,0.16234,-0.061791,-0.70352,26.074,0.02675,-0.0089165,-1.9858,0.035667,3.0927e-07,-0.99292,0,0,0.33333,-0,-0,0.66667
0.13051,0.63453,0.39153,0.2018,2.2711,23.031,-0.21069,0.070231,-1.8547,-0.28092,-9.6448e-10,-0.92736,0,0,0.33333,-0,-0,0.66667
0.84245,4.7129e-05,2.5273,-0.74993,-2.6122,2.148,5.0542,-1.6847,-0.0017702,6.7389,-1.0463e-09,-0.0008851,0,0,0.33333,-0,-0,0.66667
0.61835,0.66994,1.855,0.25492,1.7579,6.2523,-1.261,0.42034,-1.7682,-1.6814,4.7957e-12,-0.88409,0,0,0.33333,-0,-0,0.66667
0.53129,0.086083,1.5939,-0.62087,-5.2335,8.9383,2.6389,-0.87964,-0.62974,3.5185,3.515e-13,-0.31487,0,0,0.33333,-0,-0,0.66667
0.24829,0.026404,0.74487,-0.71039,-7.9566,18.607,1.4111,-0.47036,-0.2061,1.8814,7.2875e-13,-0.10305,0,0,0.33333,1.9737e-16,0,0.66667
0.29508,0.72698,0.88524,0.34047,3.5722,16.727,-0.80372,0.26791,-1.5878,-1.0716,-4.9995e-11,-0.79392,0,0,0.33333,-0,-0,0.66667
0.87269,0.29859,2.6181,-0.30212,-0.71674,1.206,2.1093,-0.70309,-1.675,2.8123,2.9462e-11,-0.83751,0,0,0.33333,1.579e-15,0,0.66667
0.42167,0.72729,1.265,0.34093,3.206,12.243,-1.1501,0.38336,-1.587,-1.5334,-5.4401e-15,-0.79348,0,0,0.33333,7.8949e-16,0,0.66667
0.06443,0.31593,0.19329,-0.2761,-3.1602,25.666,0.14231,-0.047438,-1.7296,0.18975,-7.0653e-09,-0.8648,0,0,0.33333,-0,-0,0.66667
0.89699,0.62131,2.691,0.18196,0.32681,0.84633,-1.3057,0.43524,-1.8825,-1.741,9.9217e-09,-0.94124,0,0,0.33333,-3.9475e-16,0,0.66667
0.20338,0.3474,0.61014,-0.2289,-2.5121,20.179,0.37242,-0.12414,-1.8146,0.49657,9.8248e-11,-0.90729,0,0,0.33333,7.8949e-16,0,0.66667
0.82623,0.25483,2.4787,-0.36776,-1.2375,1.9116,2.4308,-0.81027,-1.5195,3.2411,-3.5489e-10,-0.75977,0,0,0.33333,3.158e-15,0,0.66667
0.88177,0.8011,2.6453,0.45164,1.0379,1.2257,-3.186,1.062,-1.2741,-4.248,2.2397e-09,-0.63703,0,0,0.33333,7.8949e-16,0,0.66667
0.48675,0.55523,1.4603,0.082852,0.71093,10.047,-0.32262,0.10754,-1.9756,-0.43017,7.4579e-14,-0.98781,0,0,0.33333,-7.8949e-16,0,0.66667
0.59846,0.63226,1.7954,0.19839,1.4204,6.7654,-0.94983,0.31661,-1.8598,-1.2664,2.2035e-12,-0.92992,0,0,0.33333,-0,-0,0.66667
0.52727,0.58199,1.5818,0.12298,0.9957,8.7972,-0.51876,0.17292,-1.9457,-0.69168,-8.5043e-14,-0.97284,0,0,0.33333,-7.8949e-16,0,0.66667
0.62482,0.66038,1.8745,0.24058,1.634,6.0763,-1.2025,0.40085,-1.795,-1.6034,6.1059e-12,-0.89751,0,0,0.33333,-0,-0,0.66667
0.85504,0.62513,2.5651,0.18769,0.50301,1.3761,-1.2838,0.42795,-1.8758,-1.7118,-8.7667e-11,-0.93788,0,0,0.33333,-0,-0,0.66667
0.28214,0.20789,0.84642,-0.43816,-4.6711,17.236,0.98899,-0.32966,-1.3173,1.3186,5.911e-11,-0.65865,0,0,0.33333,-0,-0,0.66667
0.88376,0.97,2.6513,0.705,1.8047,1.5473,-4.9844,1.6615,-0.23346,-6.6458,-4.6921e-09,-0.11673,0,0,0.33333,-0,-0,0.66667
0.56769,0.21751,1.7031,-0.42374,-3.2779,7.7318,1.9244,-0.64147,-1.3623,2.5659,9.1893e-13,-0.68115,0,0,0.33333,1.9737e-16,0,0.66667
0.1151,0.30608,0.34531,-0.29087,-3.3001,23.648,0.26784,-0.089281,-1.699,0.35713,-1.8287e-09,-0.8495,0,0,0.33333,-9.8686e-17,0,0.66667
0.227,0.74964,0.681,0.37446,4.098,19.296,-0.68003,0.22668,-1.5023,-0.9067,-1.9553e-10,-0.75113,0,0,0.33333,4.1942e-16,0,0.66667
0.59598,0.053452,1.7879,-0.66982,-5.1038,7.1585,3.1936,-1.0645,-0.40462,4.2582,4.7051e-13,-0.20231,0,0,0.33333,-0,-0,0.66667
0.23945,0.71111,0.71834,0.31667,3.4304,18.809,-0.60661,0.2022,-1.6432,-0.80881,-1.3751e-10,-0.82158,0,0,0.33333,-0,-0,0.66667
0.13142,0.67167,0.39425,0.25751,2.9042,22.999,-0.27072,0.090241,-1.7634,-0.36096,8.2615e-10,-0.88172,0,0,0.33333,-1.9737e-16,0,0.66667
0.16185,0.013474,0.48554,-0.72979,-8.5054,21.901,0.94492,-0.31497,-0.10562,1.2599,-3.0004e-10,-0.052809,0,0,0.33333,-0,-0,0.66667
0.84487,0.75115,2.5346,0.37672,1.1295,1.6407,-2.5463,0.84875,-1.4966,-3.395,3.6922e-10,-0.74829,0,0,0.33333,-0,-0,0.66667
0.60218,0.8277,1.8066,0.49155,3.596,6.8265,-2.368,0.78934,-1.1401,-3.1574,-5.3291e-13,-0.57005,0,0,0.33333,-7.8949e-16,0,0.66667
0.96357,0.47857,2.8907,-0.032143,-0.0088822,0.20337,0.24778,-0.082593,-1.9958,0.33037,-4.0794e-07,-0.99792,0,0,0.33333,-0,-0,0.66667
0.34568,0.0014392,1.037,-0.74784,-7.8992,15.09,2.0681,-0.68937,-0.012508,2.7575,6.3505e-14,-0.0062538,0,0,0.33333,-0,-0,0.66667
0.59563,0.10487,1.7869,-0.59269,-4.4592,7.0908,2.8242,-0.94139,-0.75075,3.7656,1.0278e-12,-0.37538,0,0,0.33333,-0,-0,0.66667
0.59899,0.77424,1.797,0.41136,2.9975,6.8549,-1.9712,0.65707,-1.3981,-2.6283,3.8014e-13,-0.69906,0,0,0.33333,-0,-0,0.66667
0.6157,0.73944,1.8471,0.35916,2.5146,6.3747,-1.7691,0.5897,-1.5407,-2.3588,3.0774e-12,-0.77037,0,0,0.33333,7.8949e-16,0,0.66667
0.059177,0.51101,0.17753,0.016521,0.18792,25.871,-0.0078214,0.0026076,-1.9986,-0.010428,7.2145e-07,-0.9993,0,0,0.33333,-0,-0,0.66667
0.75032,0.86068,2.251,0.54102,2.6859,3.4115,-3.2475,1.0825,-0.95913,-4.33,8.9715e-11,-0.47957,0,0,0.33333,1.579e-15,0,0.66667
0.94821,0.24959,2.8446,-0.37562,-0.29064,0.49338,2.8493,-0.94977,-1.4993,3.7991,1.4342e-09,-0.74963,0,0,0.33333,1.9737e-15,0,0.66667
0.53468,0.14703,1.604,-0.52945,-4.3821,8.7633,2.2647,-0.75489,-1.003,3.0196,6.8812e-13,-0.50151,0,0,0.33333,3.9475e-16,0,0.66667
0.19256,0.040148,0.57767,-0.68978,-7.9084,20.707,1.0626,-0.35419,-0.30789,1.4168,7.9706e-11,-0.15394,0,0,0.33333,3.9475e-16,0,0.66667
0.75293,0.76307,2.2588,0.39461,1.8844,3.223,-2.3769,0.7923,-1.4459,-3.1692,1.3667e-10,-0.72293,0,0,0.33333,-0,-0,0.66667
0.007319,0.80168,0.021957,0.45253,5.2621,27.957,-0.026496,0.008832,-1.2712,-0.035328,-1.2932e-08,-0.63562,0,0,0.33333,-0,-0,0.66667
0.32826,0.30168,0.98477,-0.29748,-3.0389,15.501,0.7812,-0.2604,-1.6854,1.0416,2.3268e-11,-0.8427,0,0,0.33333,-0,-0,0.66667
0.91761,0.15324,2.7528,-0.52014,-0.82869,0.91886,3.8183,-1.2728,-1.0385,5.091,1.3255e-09,-0.51925,0,0,0.33333,-3.9475e-16,0,0.66667
0.58837,0.44391,1.7651,-0.084142,-0.61171,7.0179,0.39605,-0.13202,-1.9747,0.52807,-7.5379e-13,-0.98734,0,0,0.33333,-1.579e-15,0,0.66667
0.85519,0.79561,2.5656,0.44341,1.2612,1.5581,-3.0336,1.0112,-1.3003,-4.0448,1.0231e-09,-0.65015,0,0,0.33333,-1.579e-15,0,0.66667
0.60467,0.0044579,1.814,-0.74331,-5.6507,7.0104,3.5957,-1.1986,-0.03568,4.7942,1.1835e-13,-0.01784,0,0,0.33333,-0,-0,0.66667
0.82258,0.77852,2.4677,0.41779,1.4531,2.0117,-2.7493,0.91643,-1.3798,-3.6657,4.6199e-10,-0.6899,0,0,0.33333,1.9737e-15,0,0.66667
0.87948,0.58716,2.6385,0.13073,0.28141,1.0341,-0.91983,0.30661,-1.9391,-1.2264,5.6224e-09,-0.96956,0,0,0.33333,-7.8949e-16,0,0.66667
0.32099,0.4595,0.96296,-0.060748,-0.61866,15.729,0.15599,-0.051998,-1.9864,0.20799,8.4397e-12,-0.99318,0,0,0.33333,3.9475e-16,0,0.66667
0.12295,0.54798,0.36886,0.071976,0.80905,23.324,-0.070798,0.023599,-1.9812,-0.094397,8.6369e-11,-0.99059,0,0,0.33333,1.9737e-16,0,0.66667
0.7213,0.26492,2.1639,-0.35262,-1.8697,3.8405,2.0348,-0.67826,-1.5574,2.713,-7.0848e-11,-0.77871,0,0,0.33333,-1.579e-15,0,0.66667
0.44035,0.10761,1.321,-0.58859,-5.5616,11.754,2.0735,-0.69116,-0.76773,2.7646,-7.967e-13,-0.38386,0,0,0.33333,-7.8949e-16,0,0.66667
0.12674,0.14001,0.38021,-0.53999,-6.224,23.223,0.54748,-0.18249,-0.96288,0.72998,2.0538e-09,-0.48144,0,0,0.33333,-0,-0,0.66667
0.58982,0.35391,1.7695,-0.21914,-1.5979,7.0097,1.034,-0.34467,-1.8288,1.3787,-1.5091e-12,-0.91442,0,0,0.33333,-0,-0,0.66667
0.036068,0.35701,0.1082,-0.21448,-2.4556,26.801,0.061889,-0.020629,-1.8358,0.082518,5.3028e-08,-0.91788,0,0,0.33333,4.9343e-17,0,0.66667
0.20018,0.077774,0.60055,-0.63334,-7.1895,20.396,1.0143,-0.33809,-0.57327,1.3524,1.7576e-10,-0.28664,0,0,0.33333,-0,-0,0.66667
0.7883,0.20315,2.3649,-0.44528,-1.8547,2.6077,2.8081,-0.93604,-1.2942,3.7442,-3.0121e-10,-0.64711,0,0,0.33333,-0,-0,0.66667
0.012097,0.52124,0.03629,0.031855,0.36366,27.763,-0.0030789,0.0010251,-1.996,-0.0041057,-1.7968e-06,-0.99801,0,0,0.33333,-0,-0,0.66667
0.30335,0.88383,0.91004,0.57574,6.1352,16.509,-1.3972,0.46573,-0.82095,-1.8629,-1.232e-11,-0.41047,0,0,0.33333,-0,-0,0.66667
0.021376,0.11118,0.064128,-0.58323,-6.8611,27.399,0.099736,-0.033246,-0.78981,0.13298,-3.8846e-07,-0.39491,0,0,0.33333,-0,-0,0.66667
0.99748,0.9641,2.9925,0.69615,-0.014251,0.65545,-5.5552,1.8517,-0.27727,-7.4069,-2.2661e-05,-0.13863,0,0,0.33333,1.579e-15,-6.001e-16,0.66667
0.58203,0.92291,1.7461,0.63436,4.9283,7.5016,-2.9537,0.98458,-0.56857,-3.9383,-7.1676e-13,-0.28428,0,0,0.33333,-0,-0,0.66667
0.29338,0.39278,0.88013,-0.16083,-1.6743,16.755,0.37746,-0.12582,-1.9075,0.50328,3.4548e-11,-0.95374,0,0,0.33333,-0,-0,0.66667
0.92895,0.99435,2.7868,0.74152,1.2098,1.1604,-5.5107,1.8369,-0.044844,-7.3476,-3.8387e-07,-0.022422,0,0,0.33333,-2.3685e-15,0,0.66667
0.50712,0.12298,1.5214,-0.56553,-4.8988,9.6197,2.2943,-0.76477,-0.86335,3.0591,1.4166e-13,-0.43167,0,0,0.33333,-1.9737e-16,0,0.66667
0.45469,0.27625,1.3641,-0.33562,-3.0382,11.145,1.2208,-0.40694,-1.5999,1.6278,-5.9408e-13,-0.79997,0,0,0.33333,-7.8949e-16,0,0.66667
0.58787,0.89535,1.7636,0.59303,4.5274,7.3018,-2.789,0.92967,-0.74895,-3.7187,-1.0705e-12,-0.37448,0,0,0.33333,7.8949e-16,0,0.66667
0.26414,0.19676,0.79241,-0.45486,-4.9098,17.912,0.96116,-0.32039,-1.2643,1.2816,8.8158e-11,-0.63216,0,0,0.33333,-0,-0,0.66667
0.30529,0.47737,0.91586,-0.033952,-0.3497,16.304,0.082922,-0.027641,-1.9954,0.11056,6.449e-12,-0.99772,0,0,0.33333,-0,-0,0.66667
0.37165,0.14856,1.115,-0.52715,-5.2965,14.045,1.5674,-0.52245,-1.0118,2.0898,7.2919e-13,-0.5059,0,0,0.33333,-1.7468e-16,0,0.66667
0.24445,0.53233,0.73334,0.04849,0.51894,18.587,-0.094827,0.031609,-1.9924,-0.12644,-3.0167e-11,-0.99618,0,0,0.33333,-0,-0,0.66667
0.58455,0.081756,1.7536,-0.62737,-4.8461,7.4256,2.9338,-0.97793,-0.59988,3.9117,8.3022e-13,-0.29994,0,0,0.33333,-7.8949e-16,0,0.66667
0.69585,0.40395,2.0875,-0.14408,-0.81084,4.3046,0.80206,-0.26735,-1.9266,1.0694,-2.6183e-11,-0.96331,0,0,0.33333,1.9737e-16,0,0.66667
0.071947,0.83129,0.21584,0.49693,5.7697,25.382,-0.28602,0.095341,-1.1213,-0.38136,-1.3284e-08,-0.56064,0,0,0.33333,-9.8686e-17,0,0.66667
0.97108,0.77531,2.9132,0.41296,0.1146,0.37352,-3.2082,1.0694,-1.3938,-4.2776,-7.6533e-10,-0.69692,0,0,0.33333,-0,-0,0.66667
0.75307,0.23297,2.2592,-0.40054,-1.9137,3.2249,2.4131,-0.80436,-1.429,3.2175,-1.3723e-10,-0.71452,0,0,0.33333,-0,-0,0.66667
0.80616,0.609,2.4185,0.1635,0.59604,2.1178,-1.0544,0.35148,-1.9042,-1.4059,8.188e-11,-0.95208,0,0,0.33333,-0,-0,0.66667
0.75164,0.13543,2.2549,-0.54686,-2.7054,3.392,3.2883,-1.0961,-0.93654,4.3844,-9.057e-11,-0.46827,0,0,0.33333,-0,-0,0.66667
0.080061,0.91817,0.24018,0.62725,7.3688,25.076,-0.40175,0.13392,-0.60077,-0.53566,-3.9967e-08,-0.30039,0,0,0.33333,-0,-0,0.66667
0.4817,0.97358,1.4451,0.71038,6.5039,10.527,-2.7375,0.9125,-0.20606,-3.65,3.5527e-15,-0.10303,0,0,0.33333,-0,-0,0.66667
0.44567,0.80946,1.337,0.46419,4.2968,11.502,-1.655,0.55167,-1.2342,-2.2067,9.9409e-13,-0.61709,0,0,0.33333,9.8686e-16,0,0.66667
0.67247,0.38704,2.0174,-0.16944,-1.02,4.858,0.91153,-0.30384,-1.8978,1.2154,-1.8381e-11,-0.94891,0,0,0.33333,-1.579e-15,0,0.66667
0.44874,0.41832,1.3462,-0.12252,-1.1046,11.282,0.43983,-0.14661,-1.946,0.58644,1.0539e-13,-0.97302,0,0,0.33333,-7.8949e-16,0,0.66667
0.70431,0.46385,2.1129,-0.054218,-0.29641,4.0967,0.30549,-0.10183,-1.9901,0.40732,-1.188e-11,-0.99503,0,0,0.33333,-0,-0,0.66667
0.68165,0.037122,2.0449,-0.69432,-4.4026,5.0526,3.7862,-1.2621,-0.28585,5.0483,-4.7029e-13,-0.14292,0,0,0.33333,1.579e-15,0,0.66667
0.69715,0.34295,2.0914,-0.23557,-1.3291,4.3073,1.3138,-0.43794,-1.8035,1.7518,-3.8225e-11,-0.90173,0,0,0.33333,-6.9081e-16,0,0.66667
0.6186,0.92771,1.8558,0.64156,4.6523,6.5314,-3.175,1.0583,-0.53596,-4.2333,-6.1107e-13,-0.26798,0,0,0.33333,-7.8949e-16,0,0.66667
0.15098,0.015788,0.45294,-0.72632,-8.4908,22.321,0.87728,-0.29243,-0.12357,1.1697,1.3749e-09,-0.061787,0,0,0.33333,-0,-0,0.66667
0.7608,0.8971,2.2824,0.59565,2.8822,3.272,-3.6254,1.2085,-0.73807,-4.8339,7.6674e-11,-0.36903,0,0,0.33333,7.8949e-16,0,0.66667
0.78105,0.38766,2.3431,-0.16851,-0.69522,2.56,1.0529,-0.35097,-1.899,1.4039,-8.6123e-11,-0.94949,0,0,0.33333,-0,-0,0.66667
0.9041,0.31027,2.7123,-0.2846,-0.48149,0.82568,2.0584,-0.68615,-1.7128,2.7446,2.1897e-09,-0.85642,0,0,0.33333,-1.7061e-15,0,0.66667
0.23377,0.61386,0.70131,0.17079,1.843,19.003,-0.3194,0.10647,-1.8962,-0.42587,-8.6907e-11,-0.94812,0,0,0.33333,3.9475e-16,0,0.66667
0.17668,0.77235,0.53004,0.40853,4.5817,21.244,-0.57742,0.19247,-1.4062,-0.7699,-4.3304e-10,-0.70311,0,0,0.33333,-1.9737e-16,0,0.66667
0.3911,0.11183,1.1733,-0.58226,-5.7834,13.403,1.8218,-0.60726,-0.79445,2.429,-8.3278e-13,-0.39722,0,0,0.33333,-0,-0,0.66667
0.32056,0.8923,0.96169,0.58845,6.2039,15.891,-1.5091,0.50303,-0.768,-2.0121,-5.4069e-12,-0.384,0,0,0.33333,-3.9475e-16,0,0.66667
0.81548,0.81432,2.4464,0.47148,1.729,2.1763,-3.0759,1.0253,-1.2104,-4.1012,6.6187e-10,-0.60521,0,0,0.33333,-0,-0,0.66667
0.61353,0.76502,1.8406,0.39753,2.808,6.4561,-1.9512,0.65039,-1.4375,-2.6015,2.0179e-12,-0.71873,0,0,0.33333,-0,-0,0.66667
0.76,0.24454,2.28,-0.38319,-1.7771,3.0765,2.3298,-0.77661,-1.4779,3.1064,-1.5567e-10,-0.73894,0,0,0.33333,-0,-0,0.66667
0.42767,0.26015,1.283,-0.35978,-3.3661,12.049,1.2309,-0.4103,-1.5392,1.6412,-3.8081e-13,-0.76961,0,0,0.33333,-0,-0,0.66667
0.099441,0.071717,0.29832,-0.64242,-7.5331,24.314,0.51106,-0.17035,-0.53212,0.68142,-3.126e-09,-0.26606,0,0,0.33333,-0,-0,0.66667
0.11504,0.106,0.34511,-0.59099,-6.8674,23.692,0.54388,-0.18129,-0.75746,0.72517,1.2209e-09,-0.37873,0,0,0.33333,-1.9737e-16,0,0.66667
0.37341,0.33423,1.1202,-0.24865,-2.4387,13.876,0.74278,-0.24759,-1.7801,0.99038,6.5923e-12,-0.89004,0,0,0.33333,-0,-0,0.66667
0.19385,0.43896,0.58154,-0.091567,-1.0049,20.537,0.142,-0.047333,-1.9708,0.18933,1.2309e-10,-0.9854,0,0,0.33333,-0,-0,0.66667
0.82075,0.95153,2.4622,0.67729,2.5797,2.3514,-4.4471,1.4824,-0.3682,-5.9294,1.8911e-10,-0.1841,0,0,0.33333,-0,-0,0.66667
0.59964,0.34772,1.7989,-0.22842,-1.6346,6.7436,1.0958,-0.36525,-1.8147,1.461,-2.3337e-12,-0.90733,0,0,0.33333,-0,-0,0.66667
0.68885,0.57627,2.0665,0.1144,0.65622,4.4583,-0.63044,0.21015,-1.9532,-0.84059,1.8518e-11,-0.97659,0,0,0.33333,-0,-0,0.66667
0.49111,0.068886,1.4733,-0.64667,-5.7916,10.178,2.5407,-0.8469,-0.51292,3.3876,-1.8474e-13,-0.25646,0,0,0.33333,-0,-0,0.66667
0.088174,0.35836,0.26452,-0.21246,-2.4157,24.715,0.14986,-0.049955,-1.8388,0.19982,-7.3876e-09,-0.91938,0,0,0.33333,-0,-0,0.66667
0.23508,0.11986,0.70523,-0.57021,-6.324,19.046,1.0723,-0.35745,-0.84451,1.4298,1.0874e-10,-0.42225,0,0,0.33333,3.9475e-16,0,0.66667
0.4616,0.87241,1.3848,0.55861,5.1299,11.043,-2.0628,0.68761,-0.89089,-2.7505,6.8079e-13,-0.44544,0,0,0.33333,1.0856e-15,0,0.66667
0.19859,0.47505,0.59577,-0.037432,-0.40969,20.351,0.059469,-0.019823,-1.9949,0.079292,-2.5498e-11,-0.99747,0,0,0.33333,-0,-0,0.66667
0.025476,0.73998,0.076429,0.35997,4.1552,27.229,-0.073365,0.024455,-1.5387,-0.097819,-2.4595e-09,-0.76937,0,0,0.33333,-0,-0,0.66667
0.7294,0.12544,2.1882,-0.56185,-3.0114,3.8554,3.2785,-1.0928,-0.87851,4.3713,-4.0887e-11,-0.43926,0,0,0.33333,-0,-0,0.66667
0.72492,0.70086,2.1748,0.30128,1.5681,3.7312,-1.7472,0.58242,-1.6765,-2.3297,7.277e-11,-0.83825,0,0,0.33333,-0,-0,0.66667
0.33039,0.98305,0.99118,0.72458,7.7176,15.616,-1.9152,0.63839,-0.13285,-2.5535,1.0114e-13,-0.066426,0,0,0.33333,-0,-0,0.66667
0.84349,0.23808,2.5305,-0.39288,-1.1939,1.6745,2.6511,-0.88371,-1.4512,3.5348,-4.9446e-10,-0.72558,0,0,0.33333,-7.8949e-16,0,0.66667
0.42844,0.54071,1.2853,0.061058,0.56281,11.951,-0.20928,0.069759,-1.9862,-0.27904,-2.059e-13,-0.99311,0,0,0.33333,-7.8949e-16,0,0.66667
0.86469,0.079441,2.5941,-0.63084,-1.8024,1.6633,4.3638,-1.4546,-0.58431,5.8184,-1.8937e-09,-0.29216,0,0,0.33333,-1.024e-15,0,0.66667
0.65707,0.87765,1.9712,0.56648,3.721,5.4884,-2.9777,0.99257,-0.85998,-3.9703,2.4398e-12,-0.42999,0,0,0.33333,-0,-0,0.66667
0.58104,0.022094,1.7431,-0.71686,-5.662,7.6153,3.3322,-1.1107,-0.17261,4.4429,1.1502e-13,-0.086307,0,0,0.33333,-0,-0,0.66667
0.20073,0.024963,0.60218,-0.71255,-8.1657,20.404,1.1442,-0.38141,-0.19487,1.5256,4.1452e-11,-0.097435,0,0,0.33333,-0,2.5375e-16,0.66667
0.52955,0.26288,1.5886,-0.35567,-2.9104,8.807,1.5068,-0.50226,-1.5499,2.009,6.2483e-13,-0.77495,0,0,0.33333,-7.8949e-16,0,0.66667
0.89443,0.022617,2.6833,-0.71607,-1.6816,1.4473,5.1238,-1.7079,-0.17656,6.8318,-6.1957e-09,-0.088281,0,0,0.33333,-0,-0,0.66667
0.30499,0.11459,0.91498,-0.57811,-6.1552,16.45,1.4106,-0.47019,-0.81105,1.8808,1.1325e-11,-0.40553,0,0,0.33333,-0,-0,0.66667
0.87095,0.42729,2.6128,-0.10906,-0.25372,1.1361,0.75988,-0.25329,-1.9573,1.0132,-1.1519e-09,-0.97864,0,0,0.33333,-0,-0,0.66667
0.90875,0.95096,2.7262,0.67643,1.3403,1.2329,-4.9177,1.6392,-0.37266,-6.5569,1.6378e-08,-0.18633,0,0,0.33333,-0,-0,0.66667
0.32984,0.76248,0.98953,0.39373,4.0443,15.473,-1.0389,0.34632,-1.4485,-1.3853,-1.9063e-11,-0.72426,0,0,0.33333,-0,-0,0.66667
0.68307,0.48428,2.0492,-0.023585,-0.13722,4.5814,0.12889,-0.042962,-1.9973,0.17185,-3.5761e-12,-0.99867,0,0,0.33333,-1.579e-15,0,0.66667
0.89922,0.37635,2.6977,-0.18548,-0.32443,0.8229,1.3343,-0.44476,-1.8783,1.779,-9.1163e-09,-0.93915,0,0,0.33333,-0,-0,0.66667
0.075697,0.28745,0.22709,-0.31883,-3.6516,25.219,0.19307,-0.064358,-1.6387,0.25743,-4.114e-09,-0.81937,0,0,0.33333,-0,-0,0.66667
0.87859,0.41294,2.6358,-0.13059,-0.28356,1.0452,0.91786,-0.30595,-1.9393,1.2238,-5.7061e-09,-0.96966,0,0,0.33333,-0,-0,0.66667
0.19084,0.084586,0.57252,-0.62312,-7.0925,20.751,0.95133,-0.31711,-0.61917,1.2684,2.5994e-10,-0.30958,0,0,0.33333,-0,-0,0.66667
0.84977,0.55921,2.5493,0.088809,0.24508,1.4192,-0.60374,0.20125,-1.9722,-0.80499,-1.2836e-09,-0.98612,0,0,0.33333,-1.7221e-15,0,0.66667
0.66712,0.96114,2.0014,0.69171,4.5462,5.3869,-3.6916,1.2305,-0.29853,-4.9222,-3.5527e-15,-0.14926,0,0,0.33333,-0,-2.2596e-16,0.66667
0.34434,0.78821,1.033,0.43231,4.4042,14.966,-1.1909,0.39696,-1.3358,-1.5878,-1.0196e-11,-0.66792,0,0,0.33333,-0,-0,0.66667
0.15138,0.33955,0.45413,-0.24068,-2.696,22.21,0.29146,-0.097153,-1.7942,0.38861,7.3524e-10,-0.89712,0,0,0.33333,-2.0643e-16,0,0.66667
0.63537,0.43423,1.9061,-0.098659,-0.64941,5.7625,0.50148,-0.16716,-1.9657,0.66864,-4.8838e-12,-0.98286,0,0,0.33333,-9.8686e-16,0,0.66667
0.84779,0.51011,2.5434,0.01517,0.042351,1.4389,-0.10289,0.034296,-1.9988,-0.13719,-2.1624e-09,-0.99938,0,0,0.33333,-0,-0,0.66667
0.82185,0.74238,2.4655,0.36357,1.2538,1.9767,-2.3904,0.7968,-1.5297,-3.1872,3.5303e-10,-0.76484,0,0,0.33333,-0,-0,0.66667
0.62824,0.097251,1.8847,-0.60412,-4.2645,6.2445,3.0363,-1.0121,-0.70281,4.0484,5.4023e-13,-0.35141,0,0,0.33333,-0,-0,0.66667
0.9563,0.45302,2.8689,-0.070471,-0.031547,0.25979,0.53913,-0.17971,-1.9818,0.71884,2.4008e-07,-0.99089,0,0,0.33333,-1.579e-15,0,0.66667
0.58992,0.12933,1.7698,-0.55601,-4.2041,7.2123,2.624,-0.87467,-0.90108,3.4987,1.1047e-12,-0.45054,0,0,0.33333,-0,-0,0.66667
0.19783,0.60633,0.5935,0.15949,1.7502,20.387,-0.25242,0.084141,-1.9089,-0.33656,-7.0156e-11,-0.95444,0,0,0.33333,-0,-0,0.66667
0.42933,0.40048,1.288,-0.14928,-1.3776,11.932,0.51274,-0.17091,-1.9206,0.68365,5.8525e-13,-0.96031,0,0,0.33333,-1.9737e-16,0,0.66667
0.33675,0.38567,1.0102,-0.17149,-1.7298,15.167,0.462,-0.154,-1.8948,0.616,1.5007e-11,-0.9474,0,0,0.33333,7.8949e-16,0,0.66667
0.99195,0.13328,2.9758,-0.55008,0.042349,0.43677,4.3652,-1.4551,-0.92369,5.8203,-6.0528e-08,-0.46184,0,0,0.33333,3.158e-15,0,0.66667
0.38024,0.51084,1.1407,0.016259,0.15741,13.605,-0.049457,0.016486,-1.9985,-0.065943,-4.7085e-13,-0.99924,0,0,0.33333,-0,-0,0.66667
0.9927,0.34129,2.9781,-0.23806,0.08333,0.10795,1.8906,-0.6302,-1.7989,2.5208,-4.0398e-08,-0.89945,0,0,0.33333,-1.4825e-15,0,0.66667
0.5188,0.32209,1.5564,-0.26686,-2.2044,9.0931,1.1076,-0.3692,-1.7465,1.4768,3.3917e-13,-0.87324,0,0,0.33333,-0,-0,0.66667
0.17228,0.28716,0.51684,-0.31926,-3.5649,21.401,0.44002,-0.14667,-1.6381,0.58669,1.4391e-10,-0.81905,0,0,0.33333,-0,-0,0.66667
0.074574,0.84822,0.22372,0.52233,6.0762,25.28,-0.31162,0.10387,-1.0302,-0.41549,-2.2978e-08,-0.51511,0,0,0.33333,1.9737e-16,0,0.66667
0.37031,0.054253,1.1109,-0.66862,-6.8432,14.175,1.9808,-0.66025,-0.41016,2.641,-5.8176e-13,-0.20508,0,0,0.33333,3.9475e-16,2.749e-17,0.66667
0.12342,0.93093,0.37026,0.6464,7.5417,23.374,-0.63823,0.21274,-0.51459,-0.85097,-8.7596e-09,-0.2573,0,0,0.33333,-0,-0,0.66667
0.63452,0.92656,1.9036,0.63985,4.4852,6.1226,-3.248,1.0827,-0.54372,-4.3306,-4.6074e-13,-0.27186,0,0,0.33333,-0,-0,0.66667
0.41392,0.58092,1.2418,0.12138,1.138,12.449,-0.40192,0.13397,-1.9469,-0.53589,-1.0113e-12,-0.97343,0,0,0.33333,-0,-0,0.66667
0.99092,0.82789,2.9727,0.49184,-0.056776,0.36117,-3.8989,1.2996,-1.1391,-5.1986,1.5948e-09,-0.56955,0,0,0.33333,-0,-0,0.66667
0.92996,0.67625,2.7899,0.26437,0.29381,0.55685,-1.9668,0.65561,-1.7508,-2.6225,-5.5394e-09,-0.87541,0,0,0.33333,-1.579e-15,0,0.66667
0.14924,0.067946,0.44771,-0.64808,-7.508,22.367,0.77374,-0.25791,-0.50655,1.0316,1.9764e-09,-0.25328,0,0,0.33333,-3.9475e-16,0,0.66667
0.39488,0.58693,1.1846,0.13039,1.247,13.104,-0.41191,0.1373,-1.9394,-0.54922,-2.3678e-12,-0.96971,0,0,0.33333,-3.9475e-16,0,0.66667
0.46158,0.1635,1.3847,-0.50475,-4.6055,11.008,1.8639,-0.62129,-1.0938,2.4851,-7.8948e-13,-0.54691,0,0,0.33333,-0,-0,0.66667
0.56095,0.38273,1.6828,-0.17591,-1.3497,7.8131,0.78942,-0.26314,-1.8901,1.0526,-1.5549e-13,-0.94503,0,0,0.33333,-0,-0,0.66667
0.78036,0.11102,2.3411,-0.58348,-2.6035,2.8972,3.6426,-1.2142,-0.78931,4.8568,-1.6547e-10,-0.39465,0,0,0.33333,-1.579e-15,0,0.66667
0.48719,0.051525,1.4616,-0.67271,-6.0798,10.322,2.6219,-0.87398,-0.3906,3.4959,-2.1538e-14,-0.1953,0,0,0.33333,-0,-0,0.66667
0.41999,0.21967,1.26,-0.42049,-3.9876,12.333,1.4128,-0.47094,-1.3725,1.8838,-8.2245e-13,-0.68623,0,0,0.33333,1.579e-15,0,0.66667
0.262,0.083535,0.786,-0.6247,-6.8702,18.057,1.3094,-0.43645,-0.61206,1.7458,2.5854e-11,-0.30603,0,0,0.33333,3.9475e-16,0,0.66667
0.91081,0.91739,2.7324,0.62609,1.1698,1.133,-4.562,1.5207,-0.60571,-6.0826,1.9437e-09,-0.30285,0,0,0.33333,-0,-0,0.66667
0.022272,0.87417,0.066815,0.56126,6.5877,27.363,-0.1,0.033333,-0.88071,-0.13333,-3.3961e-07,-0.44035,0,0,0.33333,-6.3115e-17,0,0.66667
0.82112,0.83692,2.4634,0.50538,1.8146,2.1231,-3.3198,1.1066,-1.0916,-4.4264,5.8785e-10,-0.54581,0,0,0.33333,-0,-0,0.66667
0.18847,0.50194,0.56541,0.0029144,0.032027,20.744,-0.0043941,0.0014647,-2.001,-0.0058588,2.579e-10,-1.0005,0,0,0.33333,-0,-0,0.66667
0.68576,0.925,2.0573,0.63749,3.9493,4.8897,-3.4973,1.1658,-0.55472,-4.6631,2.7121e-12,-0.27736,0,0,0.33333,-0,3.7899e-16,0.66667
0.35521,0.42421,1.0656,-0.11368,-1.1272,14.497,0.32304,-0.10768,-1.9534,0.43072,7.0231e-12,-0.97672,0,0,0.33333,-0,-0,0.66667
0.97421,0.21512,2.9226,-0.42733,-0.092706,0.37052,3.3305,-1.1102,-1.351,4.4406,3.1599e-09,-0.67549,0,0,0.33333,-1.579e-15,0,0.66667
0.12277,0.34332,0.36832,-0.23502,-2.6541,23.34,0.23083,-0.076944,-1.8048,0.30778,3.7851e-09,-0.90239,0,0,0.33333,-2.2204e-16,0,0.66667
0.18757,0.44768,0.56271,-0.078484,-0.8634,20.781,0.11777,-0.039257,-1.9782,0.15703,-8.8326e-12,-0.98911,0,0,0.33333,-0,-0,0.66667
0.88944,0.40668,2.6683,-0.13999,-0.27209,0.91692,0.99608,-0.33203,-1.9317,1.3281,9.6554e-09,-0.96583,0,0,0.33333,-0,-0,0.66667
0.58341,0.68299,1.7502,0.27449,2.0341,7.2093,-1.2811,0.42703,-1.7322,-1.7081,6.9389e-13,-0.86612,0,0,0.33333,-0,-0,0.66667
0.30925,0.49185,0.92774,-0.012222,-0.12551,16.158,0.030238,-0.010079,-1.9993,0.040317,1.8866e-12,-0.99965,0,0,0.33333,-1.1842e-15,0,0.66667
0.00076439,0.73394,0.0022932,0.3509,4.051,28.219,-0.0021458,0.00071528,-1.562,-0.0028611,2.0837e-08,-0.78099,0,0,0.33333,1.542e-18,0,0.66667
0.2276,0.98982,0.68279,0.73473,8.3428,19.394,-1.3378,0.44593,-0.080023,-1.7837,1.3817e-11,-0.040011,0,0,0.33333,4.669e-16,0,0.66667
0.1454,0.13307,0.43621,-0.5504,-6.317,22.493,0.64024,-0.21341,-0.92257,0.85366,2.0435e-09,-0.46128,0,0,0.33333,-0,-0,0.66667
0.20343,0.76535,0.6103,0.39803,4.4119,20.206,-0.64778,0.21593,-1.4366,-0.86371,-3.0282e-10,-0.71828,0,0,0.33333,-0,-0,0.66667
0.89632,0.42788,2.689,-0.10818,-0.19343,0.8282,0.77573,-0.25858,-1.9579,1.0343,-1.6428e-08,-0.97894,0,0,0.33333,-0,-0,0.66667
0.87309,0.6111,2.6193,0.16664,0.38294,1.1269,-1.164,0.38799,-1.9009,-1.552,-1.0038e-09,-0.95044,0,0,0.33333,-0,-0,0.66667
0.70029,0.25598,2.1009,-0.36603,-2.0757,4.3096,2.0506,-0.68354,-1.5238,2.7342,-4.4222e-11,-0.76188,0,0,0.33333,-1.579e-15,0,0.66667
0.4705,0.89405,1.4115,0.59107,5.3921,10.781,-2.2248,0.74159,-0.75753,-2.9664,4.1966e-13,-0.37877,0,0,0.33333,-0,-0,0.66667
0.82714,0.52335,2.4814,0.035019,0.11235,1.7498,-0.23172,0.07724,-1.9958,-0.30896,-1.1229e-10,-0.9979,0,0,0.33333,-0,-0,0.66667
0.49583,0.3491,1.4875,-0.22635,-1.9285,9.7896,0.89786,-0.29929,-1.8179,1.1971,1.521e-14,-0.90896,0,0,0.33333,-0,-0,0.66667
0.36349,0.45188,1.0905,-0.072185,-0.71006,14.198,0.20991,-0.069969,-1.9808,0.27988,3.777e-12,-0.99042,0,0,0.33333,-0,-0,0.66667
0.2756,0.65639,0.82681,0.23459,2.4778,17.428,-0.51723,0.17241,-1.8053,-0.68964,-6.351e-11,-0.90263,0,0,0.33333,-7.8949e-16,0,0.66667
0.92474,0.62771,2.7742,0.19157,0.22854,0.56388,-1.4172,0.47241,-1.8702,-1.8896,5.399e-08,-0.93508,0,0,0.33333,-0,-0,0.66667
0.38699,0.99597,1.161,0.74395,7.5834,13.655,-2.3032,0.76773,-0.032483,-3.0709,1.088e-13,-0.016242,0,0,0.33333,-0,-0,0.66667
0.49288,0.73206,1.4786,0.34809,3.003,9.928,-1.3725,0.45751,-1.5684,-1.83,1.3878e-13,-0.78421,0,0,0.33333,-7.8949e-16,0,0.66667
0.25444,0.01507,0.76331,-0.72739,-8.1385,18.386,1.4806,-0.49354,-0.11807,1.9742,1.1768e-12,-0.059036,0,0,0.33333,-0,-0,0.66667
0.88497,0.41636,2.6549,-0.12545,-0.2553,0.96557,0.88818,-0.29606,-1.9435,1.1842,4.5156e-10,-0.97175,0,0,0.33333,-0,-0,0.66667
0.38326,0.68616,1.1498,0.27924,2.7183,13.539,-0.85618,0.28539,-1.7234,-1.1416,-4.5343e-12,-0.86169,0,0,0.33333,-2.9606e-16,0,0.66667
0.29757,0.93383,0.89272,0.65074,7.0236,16.757,-1.5492,0.51638,-0.49515,-2.0655,-3.7766e-12,-0.24757,0,0,0.33333,5.9212e-16,0,0.66667
0.71759,0.13389,2.1528,-0.54916,-3.0479,4.0896,3.1526,-1.0509,-0.92777,4.2035,-3.214e-11,-0.46388,0,0,0.33333,1.579e-15,0,0.66667
0.19087,0.84168,0.57261,0.51252,5.7669,20.718,-0.7826,0.26087,-1.0667,-1.0435,-4.9759e-10,-0.53337,0,0,0.33333,1.4803e-16,0,0.66667
0.11819,0.2356,0.35458,-0.3966,-4.5261,23.537,0.375,-0.125,-1.4399,0.5,-7.3658e-10,-0.71997,0,0,0.33333,1.9737e-16,0,0.66667
0.837,0.78453,2.511,0.4268,1.3652,1.8006,-2.8578,0.95261,-1.3526,-3.8104,6.6083e-10,-0.6763,0,0,0.33333,-0,-0,0.66667
0.74414,0.8335,2.2324,0.50025,2.5169,3.4915,-2.978,0.99268,-1.1097,-3.9707,9.3944e-11,-0.55483,0,0,0.33333,-0,-0,0.66667
0.59052,0.41611,1.7716,-0.12584,-0.91215,6.9651,0.59448,-0.19816,-1.9434,0.79264,-1.3385e-12,-0.97168,0,0,0.33333,-0,-0,0.66667
0.24289,0.32033,0.72867,-0.2695,-2.9063,18.669,0.52368,-0.17456,-1.7414,0.69824,1.1372e-10,-0.87069,0,0,0.33333,-0,-0,0.66667
0.62325,0.69466,1.8697,0.292,1.9984,6.1403,-1.4559,0.4853,-1.697,-1.9412,5.5392e-12,-0.84849,0,0,0.33333,-0,-0,0.66667
0.63836,0.35986,1.9151,-0.21021,-1.3816,5.7153,1.0735,-0.35784,-1.8424,1.4314,-8.9433e-12,-0.92122,0,0,0.33333,-0,-0,0.66667
0.32757,0.96694,0.98271,0.70041,7.4509,15.701,-1.8355,0.61182,-0.25688,-2.4473,6.3283e-14,-0.12844,0,0,0.33333,3.9475e-16,0,0.66667
0.067489,0.1757,0.20247,-0.48644,-5.6463,25.559,0.26264,-0.087546,-1.158,0.35018,2.3555e-09,-0.57902,0,0,0.33333,1.8763e-17,0,0.66667
0.88054,0.92236,2.6416,0.63354,1.602,1.4722,-4.4628,1.4876,-0.57216,-5.9504,5.2466e-09,-0.28608,0,0,0.33333,-0,-0,0.66667
0.45996,0.381,1.3799,-0.17851,-1.5907,10.924,0.65684,-0.21895,-1.8866,0.87579,-1.0059e-13,-0.94328,0,0,0.33333,-0,-0,0.66667
0.76387,0.53964,2.2916,0.059463,0.26272,2.8564,-0.36338,0.12113,-1.9874,-0.48451,2.7693e-11,-0.99371,0,0,0.33333,1.579e-15,0,0.66667
0.25389,0.063164,0.76167,-0.65525,-7.2657,18.373,1.3309,-0.44363,-0.47433,1.7745,1.7286e-11,-0.23717,0,0,0.33333,-7.8949e-16,0,0.66667
0.59139,0.72641,1.7742,0.33962,2.4926,7.0196,-1.6068,0.53559,-1.5899,-2.1424,7.8171e-13,-0.79494,0,0,0.33333,-1.579e-15,0,0.66667
0.4288,0.99946,1.2864,0.74918,7.3363,12.258,-2.57,0.85666,-0.005144,-3.4266,-2.5846e-13,-0.002572,0,0,0.33333,-1.3076e-15,0,0.66667
0.3821,0.59825,1.1463,0.14738,1.4277,13.551,-0.4505,0.15017,-1.9228,-0.60067,-3.9524e-12,-0.96142,0,0,0.33333,-0,-0,0.66667
0.12671,0.80338,0.38014,0.45507,5.2054,23.209,-0.46131,0.15377,-1.2636,-0.61508,-1.016e-09,-0.63181,0,0,0.33333,9.8686e-17,0,0.66667
0.24427,0.52402,0.7328,0.036033,0.38563,18.594,-0.070413,0.023471,-1.9951,-0.093885,-1.9211e-11,-0.99756,0,0,0.33333,3.9475e-16,0,0.66667
0.079342,0.41414,0.23802,-0.1288,-1.4629,25.064,0.081751,-0.02725,-1.9411,0.109,-3.7097e-08,-0.97057,0,0,0.33333,-0,-0,0.66667
0.30286,0.37385,0.90857,-0.18922,-1.959,16.408,0.45845,-0.15282,-1.8734,0.61127,3.3009e-11,-0.9367,0,0,0.33333,-1.9737e-16,0,0.66667
0.7417,0.10543,2.2251,-0.59185,-3.0649,3.6392,3.5119,-1.1706,-0.75382,4.6825,-4.4736e-11,-0.37691,0,0,0.33333,-1.579e-15,0,0.66667
0.61502,0.43358,1.845,-0.09963,-0.68625,6.2953,0.49019,-0.1634,-1.9649,0.65359,-2.6789e-12,-0.98245,0,0,0.33333,-9.8686e-16,0,0.66667
0.67241,0.95375,2.0172,0.68062,4.4046,5.249,-3.6613,1.2204,-0.35272,-4.8817,2.0117e-13,-0.17636,0,0,0.33333,-0,-0,0.66667
0.0083831,0.50704,0.025149,0.010559,0.12053,27.913,-0.00070699,0.00023555,-1.9993,-0.00094272,-1.6673e-07,-0.99965,0,0,0.33333,4.9343e-17,0,0.66667
0.67838,0.84177,2.0351,0.51266,3.1615,4.9293,-2.7822,0.92741,-1.066,-3.7096,1.2408e-11,-0.53302,0,0,0.33333,-9.8686e-16,0,0.66667
0.50318,0.15561,1.5095,-0.51659,-4.4711,9.7048,2.0795,-0.69317,-1.0522,2.7727,1.6542e-13,-0.52608,0,0,0.33333,-9.3752e-16,0,0.66667
0.23091,0.63245,0.69273,0.19867,2.1492,19.116,-0.367,0.12233,-1.8595,-0.48933,-1.0569e-10,-0.92977,0,0,0.33333,-0,-0,0.66667
0.1749,0.64107,0.52469,0.21161,2.3481,21.285,-0.29608,0.098694,-1.8402,-0.39478,-5.2467e-11,-0.92012,0,0,0.33333,-3.9475e-16,0,0.66667
0.18498,0.40717,0.55495,-0.13925,-1.5354,20.885,0.20607,-0.06869,-1.9321,0.27476,3.3191e-10,-0.96605,0,0,0.33333,-0,-0,0.66667
0.84426,0.26408,2.5328,-0.35388,-1.0593,1.6307,2.3902,-0.79672,-1.5546,3.1869,-2.3635e-10,-0.77728,0,0,0.33333,-1.579e-15,0,0.66667
0.98259,0.46884,2.9478,-0.046741,0.0077991,0.087705,0.36742,-0.12247,-1.9935,0.4899,3.8798e-06,-0.99677,0,0,0.33333,-0,-0,0.66667
0.91374,0.66289,2.7412,0.24434,0.35661,0.69951,-1.7861,0.59536,-1.7875,-2.3814,1.1553e-08,-0.89374,0,0,0.33333,-0,-0,0.66667
0.34737,0.86339,1.0421,0.54509,5.6018,14.909,-1.5148,0.50493,-0.94307,-2.0197,-2.9255e-12,-0.47153,0,0,0.33333,-0,-0,0.66667
0.78022,0.19649,2.3407,-0.45526,-1.9697,2.7611,2.8416,-0.94721,-1.2631,3.7888,-2.5278e-10,-0.63156,0,0,0.33333,-0,-0,0.66667
0.54645,0.37227,1.6394,-0.1916,-1.5081,8.2401,0.8376,-0.2792,-1.8705,1.1168,1.5909e-13,-0.93524,0,0,0.33333,-0,-0,0.66667
0.81644,0.069679,2.4493,-0.64548,-2.485,2.3724,4.216,-1.4053,-0.51846,5.6213,-3.8733e-10,-0.25923,0,0,0.33333,-0,-0,0.66667
0.48373,0.58321,1.4512,0.12482,1.0766,10.148,-0.48303,0.16101,-1.9446,-0.64403,7.1082e-14,-0.97229,0,0,0.33333,-0,-0,0.66667
0.58995,0.62996,1.7699,0.19494,1.4191,6.9983,-0.92004,0.30668,-1.8651,-1.2267,1.468e-12,-0.93253,0,0,0.33333,-0,-0,0.66667
0.78726,0.50972,2.3618,0.014579,0.058012,2.4181,-0.091819,0.030606,-1.9987,-0.12243,-4.34e-11,-0.99936,0,0,0.33333,-0,-0,0.66667
0.10023,0.81408,0.3007,0.47111,5.4302,24.257,-0.37778,0.12593,-1.2114,-0.5037,3.0373e-09,-0.60572,0,0,0.33333,-3.9475e-16,0,0.66667
0.53701,0.45522,1.611,-0.067177,-0.53478,8.497,0.28859,-0.096198,-1.9832,0.38479,5.4512e-14,-0.99161,0,0,0.33333,1.5355e-16,0,0.66667
0.36598,0.14457,1.098,-0.53315,-5.387,14.246,1.561,-0.52033,-0.98866,2.0813,1.126e-12,-0.49433,0,0,0.33333,-0,-0,0.66667
0.60431,0.53407,1.8129,0.051103,0.35961,6.577,-0.24705,0.082351,-1.9911,-0.3294,8.8814e-13,-0.99557,0,0,0.33333,1.579e-15,0,0.66667
0.9588,0.20666,2.8764,-0.44,-0.25776,0.48285,3.375,-1.125,-1.311,4.5,8.8176e-09,-0.65548,0,0,0.33333,1.579e-15,0,0.66667
0.39282,0.35104,1.1785,-0.22344,-2.1488,13.192,0.70217,-0.23406,-1.8225,0.93623,3.3834e-12,-0.91127,0,0,0.33333,-0,-0,0.66667
0.39297,0.49951,1.1789,-0.00074152,-0.0070907,13.161,0.0023312,-0.00077706,-2.0011,0.0031082,6.4521e-13,-1.0006,0,0,0.33333,-2.4425e-15,0,0.66667
0.79064,0.72275,2.3719,0.33412,1.3469,2.4753,-2.1133,0.70444,-1.6032,-2.8178,2.2142e-10,-0.80162,0,0,0.33333,-0,-0,0.66667
0.64508,0.77431,1.9352,0.41147,2.7152,5.6524,-2.1234,0.70781,-1.3979,-2.8313,7.8026e-12,-0.69893,0,0,0.33333,-7.8949e-16,0,0.66667
0.39388,0.72085,1.1817,0.33127,3.203,13.187,-1.0439,0.34795,-1.6105,-1.3918,-2.4361e-12,-0.80526,0,0,0.33333,-0,-0,0.66667
0.68896,0.11224,2.0669,-0.58164,-3.5315,4.7546,3.2058,-1.0686,-0.79685,4.2744,-8.6067e-12,-0.39842,0,0,0.33333,7.8949e-16,0,0.66667
0.404,0.86863,1.212,0.55295,5.4051,12.945,-1.7871,0.59571,-0.91305,-2.3828,1.0458e-12,-0.45653,0,0,0.33333,1.9737e-16,0,0.66667
0.13611,0.82788,0.40834,0.49181,5.6289,22.846,-0.53554,0.17851,-1.1393,-0.71405,-1.9055e-09,-0.56965,0,0,0.33333,-0,-0,0.66667
0.45064,0.73024,1.3519,0.34536,3.1439,11.281,-1.2451,0.41502,-1.5756,-1.6601,5.5012e-13,-0.78778,0,0,0.33333,7.8949e-16,0,0.66667
0.33442,0.15612,1.0033,-0.51582,-5.3391,15.357,1.38,-0.46,-1.0548,1.84,7.4004e-12,-0.52742,0,0,0.33333,-5.6128e-16,0,0.66667
0.21797,0.098926,0.65391,-0.60161,-6.7512,19.706,1.0491,-0.34969,-0.71366,1.3987,1.2894e-10,-0.35683,0,0,0.33333,-0,-2.1821e-16,0.66667
0.92577,0.86853,2.7773,0.55279,0.80092,0.88608,-4.0941,1.3647,-0.91346,-5.4588,-5.2485e-08,-0.45673,0,0,0.33333,-0,-0,0.66667
0.68964,0.32787,2.0689,-0.25819,-1.492,4.4892,1.4245,-0.47482,-1.7626,1.8993,-3.3936e-11,-0.88128,0,0,0.33333,-1.579e-15,0,0.66667
0.59882,0.26376,1.7965,-0.35436,-2.567,6.8245,1.6976,-0.56587,-1.5528,2.2635,-1.1886e-12,-0.77641,0,0,0.33333,-0,-0,0.66667
0.74666,0.4945,2.24,-0.0082528,-0.039004,3.1922,0.049296,-0.016432,-1.9999,0.065728,-2.5257e-12,-0.99995,0,0,0.33333,-3.9475e-16,0,0.66667
0.54197,0.058228,1.6259,-0.66266,-5.5314,8.6633,2.8731,-0.95771,-0.43889,3.8308,2.84e-13,-0.21944,0,0,0.33333,-4.6858e-16,0,0.66667
0.70053,0.023018,2.1016,-0.71547,-4.3347,4.6571,4.0097,-1.3366,-0.1798,5.3463,-2.3181e-13,-0.089901,0,0,0.33333,-0,-3.0637e-16,0.66667
0.93056,0.8719,2.7917,0.55786,0.75205,0.85082,-4.153,1.3843,-0.89379,-5.5373,-5.4793e-08,-0.44689,0,0,0.33333,-1.6982e-15,0,0.66667
0.86262,0.84342,2.5879,0.51514,1.4231,1.5374,-3.5549,1.185,-1.0575,-4.7399,4.1007e-09,-0.52877,0,0,0.33333,-4.1942e-16,0,0.66667
0.16744,0.97023,0.50233,0.70534,8.1793,21.678,-0.94483,0.31494,-0.2318,-1.2598,-5.2913e-10,-0.1159,0,0,0.33333,-0,-0,0.66667
0.26314,0.15943,0.78942,-0.51085,-5.546,17.969,1.0754,-0.35847,-1.0727,1.4339,7.4399e-11,-0.53636,0,0,0.33333,-7.8949e-16,0,0.66667
0.07161,0.39395,0.21483,-0.15908,-1.8105,25.375,0.091133,-0.030378,-1.9093,0.12151,-5.0343e-08,-0.95465,0,0,0.33333,-0,-0,0.66667
0.97867,0.66819,2.936,0.25229,-0.0027606,0.18996,-1.9753,0.65843,-1.773,-2.6337,7.5867e-08,-0.88651,0,0,0.33333,-1.579e-15,0,0.66667
0.23638,0.23406,0.70915,-0.39891,-4.3526,18.944,0.75437,-0.25146,-1.4338,1.0058,1.6955e-10,-0.7169,0,0,0.33333,-3.9475e-16,0,0.66667
0.6606,0.52562,1.9818,0.038434,0.23759,5.1216,-0.20312,0.067706,-1.9948,-0.27082,3.6681e-12,-0.99739,0,0,0.33333,-0,-0,0.66667
0.089631,0.50405,0.26889,0.00607,0.06871,24.651,-0.0043525,0.0014509,-2.0002,-0.0058033,1.7223e-07,-1.0001,0,0,0.33333,-0,-0,0.66667
0.21077,0.30052,0.63231,-0.29922,-3.2844,19.904,0.50454,-0.16818,-1.6809,0.67272,1.7242e-10,-0.84047,0,0,0.33333,-0,-0,0.66667
0.50282,0.76648,1.5085,0.39971,3.4169,9.644,-1.6079,0.53596,-1.4314,-2.1438,-1.017e-13,-0.71571,0,0,0.33333,-0,-0,0.66667
0.10495,0.58318,0.31486,0.12477,1.41,24.042,-0.10476,0.034919,-1.9442,-0.13968,4.6651e-09,-0.97208,0,0,0.33333,-9.8686e-17,0,0.66667
0.38887,0.039187,1.1666,-0.69122,-6.9796,13.551,2.1504,-0.71679,-0.30125,2.8672,-3.9968e-13,-0.15063,0,0,0.33333,7.8949e-16,-2.9918e-16,0.66667
0.53799,0.91496,1.614,0.62244,5.1945,8.7424,-2.6789,0.89298,-0.62199,-3.5719,-4.3254e-13,-0.31099,0,0,0.33333,-0,-0,0.66667
0.3392,0.51534,1.0176,0.023016,0.231,15.066,-0.062458,0.020819,-1.9974,-0.083277,-2.2405e-12,-0.99872,0,0,0.33333,-0,-0,0.66667
0.5559,0.82919,1.6677,0.49379,3.9312,8.1172,-2.196,0.73199,-1.1323,-2.928,-1.2086e-12,-0.56614,0,0,0.33333,7.8949e-16,0,0.66667
0.53677,0.033895,1.6103,-0.69916,-5.9192,8.8508,3.0023,-1.0008,-0.2624,4.003,1.5321e-13,-0.1312,0,0,0.33333,-1.579e-15,0,0.66667
0.39061,0.83169,1.1718,0.49753,4.8969,13.372,-1.5547,0.51824,-1.1199,-2.073,2.3603e-13,-0.55994,0,0,0.33333,-0,1.4879e-16,0.66667
0.69627,0.89243,2.0888,0.58864,3.5074,4.5974,-3.2788,1.0929,-0.76724,-4.3718,1.0204e-11,-0.38362,0,0,0.33333,-7.8949e-16,0,0.66667
0.67848,0.79131,2.0354,0.43697,2.6614,4.8618,-2.3718,0.79061,-1.3205,-3.1624,2.0405e-11,-0.66025,0,0,0.33333,-0,-0,0.66667
0.6873,0.86386,2.0619,0.54579,3.3058,4.7551,-3.001,1.0003,-0.94088,-4.0013,1.2343e-11,-0.47044,0,0,0.33333,-0,4.1242e-16,0.66667
0.56149,0.65652,1.6845,0.23478,1.8056,7.8155,-1.0546,0.35153,-1.8054,-1.4061,8.0047e-14,-0.90271,0,0,0.33333,-1.579e-15,0,0.66667
0.35808,0.30396,1.0742,-0.29406,-2.9311,14.43,0.84238,-0.28079,-1.6926,1.1232,1.0362e-11,-0.84629,0,0,0.33333,3.9475e-16,0,0.66667
0.61311,0.44538,1.8393,-0.081924,-0.56632,6.3434,0.40183,-0.13394,-1.9759,0.53577,-2.1639e-12,-0.98797,0,0,0.33333,-0,-0,0.66667
0.93574,0.63888,2.8072,0.20832,0.19882,0.47275,-1.5594,0.51981,-1.8454,-2.0792,6.3187e-09,-0.92268,0,0,0.33333,1.579e-15,0,0.66667
0.59689,0.69919,1.7907,0.29879,2.1614,6.8482,-1.4267,0.47558,-1.6821,-1.9023,1.6126e-12,-0.84107,0,0,0.33333,-0,-0,0.66667
0.97959,0.40312,2.9388,-0.14533,0.011135,0.12922,1.1389,-0.37963,-1.9253,1.5185,-6.1399e-07,-0.96265,0,0,0.33333,1.9737e-15,0,0.66667
0.44101,0.15857,1.323,-0.51215,-4.7911,11.683,1.8069,-0.6023,-1.068,2.4092,-1.0536e-12,-0.53402,0,0,0.33333,-0,-0,0.66667
0.73961,0.24531,2.2188,-0.38203,-1.9116,3.4796,2.2604,-0.75348,-1.4812,3.0139,-1.0446e-10,-0.74059,0,0,0.33333,1.1842e-15,0,0.66667
0.037604,0.66383,0.11281,0.24574,2.8168,26.74,-0.073927,0.024642,-1.7849,-0.098569,4.9894e-08,-0.89247,0,0,0.33333,-0,-0,0.66667
0.76473,0.82381,2.2942,0.48571,2.2555,3.0769,-2.9715,0.9905,-1.1611,-3.962,1.6611e-10,-0.58054,0,0,0.33333,-0,-0,0.66667
0.51828,0.58915,1.5548,0.13373,1.0981,9.0721,-0.55446,0.18482,-1.9368,-0.73928,-1.123e-13,-0.96839,0,0,0.33333,-9.8686e-16,0,0.66667
0.0053165,0.49178,0.01595,-0.012323,-0.14068,28.036,0.00052429,-0.00019588,-1.9991,0.0006885,-3.1674e-05,-0.99955,0,0,0.33333,-0,-0,0.66667
0.2772,0.27363,0.8316,-0.33955,-3.604,17.391,0.75299,-0.251,-1.5899,1.004,7.3339e-11,-0.79494,0,0,0.33333,-1.9737e-16,0,0.66667
0.53483,0.061645,1.6045,-0.65753,-5.5446,8.8671,2.8134,-0.93778,-0.46369,3.7511,1.9651e-13,-0.23185,0,0,0.33333,-1.9737e-16,0,0.66667
0.76796,0.28539,2.3039,-0.32192,-1.4316,2.8806,1.9778,-0.65926,-1.632,2.637,-1.5371e-10,-0.816,0,0,0.33333,1.579e-15,0,0.66667
0.053093,0.26418,0.15928,-0.35374,-4.0724,26.124,0.15025,-0.050082,-1.5543,0.20033,3.6453e-09,-0.77716,0,0,0.33333,-9.8686e-17,0,0.66667
0.54905,0.97093,1.6472,0.7064,5.8748,8.5021,-3.1028,1.0343,-0.22663,-4.1371,-2.3448e-13,-0.11332,0,0,0.33333,-0,-0,0.66667
0.80099,0.05329,2.403,-0.67007,-2.803,2.6564,4.2937,-1.4312,-0.40324,5.725,-5.939e-11,-0.20162,0,0,0.33333,-0,-0,0.66667
0.64958,0.23505,1.9487,-0.39742,-2.59,5.5302,2.0653,-0.68843,-1.4376,2.7537,-9.9087e-12,-0.71881,0,0,0.33333,-0,-0,0.66667
0.93145,0.64322,2.7943,0.21483,0.22631,0.51399,-1.6008,0.53362,-1.8352,-2.1345,1.2819e-08,-0.91758,0,0,0.33333,-1.579e-15,0,0.66667
0.074731,0.15584,0.22419,-0.51624,-6.0018,25.274,0.30863,-0.10288,-1.0535,0.41151,3.5498e-08,-0.52674,0,0,0.33333,1.542e-17,0,0.66667
0.27681,0.99839,0.83042,0.74758,8.2808,17.569,-1.6555,0.55183,-0.013563,-2.2073,-1.3883e-12,-0.0067814,0,0,0.33333,-7.8949e-16,0,0.66667
0.91924,0.32394,2.7577,-0.26409,-0.35627,0.65721,1.9421,-0.64736,-1.7517,2.5895,-3.3772e-09,-0.87583,0,0,0.33333,-0,-0,0.66667
0.76501,0.06597,2.295,-0.65104,-3.1468,3.2634,3.9844,-1.3281,-0.49379,5.3126,-3.3092e-11,-0.24689,0,0,0.33333,-0,1.5588e-16,0.66667
0.59974,0.042532,1.7992,-0.6862,-5.2074,7.0756,3.2923,-1.0974,-0.32514,4.3898,3.2818e-13,-0.16257,0,0,0.33333,-0,-0,0.66667
0.83297,0.96011,2.4989,0.69017,2.474,2.1874,-4.5991,1.533,-0.30601,-6.1321,4.1188e-10,-0.15301,0,0,0.33333,-0,-0,0.66667
0.89604,0.64772,2.6881,0.22158,0.40613,0.87604,-1.5884,0.52946,-1.825,-2.1178,-3.0399e-09,-0.91252,0,0,0.33333,-0,-0,0.66667
0.97272,0.57326,2.9182,0.10989,0.0082346,0.15814,-0.85512,0.28504,-1.9566,-1.1402,-1.0573e-06,-0.9783,0,0,0.33333,-1.579e-15,0,0.66667
0.99852,0.68117,2.9956,0.27176,-0.12806,0.10469,-2.1708,0.72361,-1.7377,-2.8944,9.0333e-09,-0.86884,0,0,0.33333,-7.8949e-16,-2.5104e-16,0.66667
0.13965,0.89621,0.41895,0.59431,6.8636,22.728,-0.66396,0.22132,-0.74414,-0.88528,-3.037e-09,-0.37207,0,0,0.33333,1.9737e-16,-3.444e-16,0.66667
0.070542,0.73936,0.21163,0.35904,4.1256,25.427,-0.20262,0.06754,-1.541,-0.27016,4.4272e-09,-0.77051,0,0,0.33333,9.8686e-17,0,0.66667
0.073467,0.59449,0.2204,0.14173,1.6119,25.3,-0.083299,0.027767,-1.9294,-0.11107,1.1782e-07,-0.96472,0,0,0.33333,1.9737e-16,0,0.66667
0.014744,0.80366,0.044231,0.45549,5.297,27.661,-0.053725,0.017908,-1.2624,-0.071634,-4.0186e-08,-0.6312,0,0,0.33333,1.2336e-17,0,0.66667
0.97182,0.12439,2.9155,-0.56341,-0.23249,0.55939,4.3803,-1.4601,-0.87239,5.8404,-2.8008e-07,-0.4362,0,0,0.33333,-9.8686e-17,0,0.66667
0.094767,0.71652,0.2843,0.32478,3.7084,24.459,-0.24623,0.082076,-1.6259,-0.3283,-5.9077e-10,-0.81297,0,0,0.33333,9.8686e-17,0,0.66667
0.84174,0.65233,2.5252,0.22849,0.67829,1.5853,-1.5386,0.51288,-1.8149,-2.0515,2.8866e-10,-0.90746,0,0,0.33333,4.9841e-16,0,0.66667
0.68517,0.82537,2.0555,0.48805,2.943,4.7493,-2.6752,0.89173,-1.1527,-3.5669,1.8894e-11,-0.57635,0,0,0.33333,-0,-0,0.66667
0.48756,0.3318,1.4627,-0.2523,-2.1774,10.058,0.98409,-0.32803,-1.7732,1.3121,-1.3861e-13,-0.8866,0,0,0.33333,7.8949e-16,0,0.66667
0.34669,0.97758,1.0401,0.71637,7.5265,15.033,-1.9869,0.66229,-0.17515,-2.6492,2.5036e-13,-0.087577,0,0,0.33333,-0,-0,0.66667
0.35365,0.2922,1.0609,-0.3117,-3.1222,14.592,0.88185,-0.29395,-1.654,1.1758,1.1625e-11,-0.82698,0,0,0.33333,-7.8949e-16,0,0.66667
0.25384,0.15639,0.76152,-0.51542,-5.6278,18.319,1.0467,-0.34889,-1.0565,1.3956,9.3158e-11,-0.52825,0,0,0.33333,-7.8949e-16,0,0.66667
0.91102,0.86635,2.7331,0.54953,0.97288,1.0216,-4.005,1.335,-0.92592,-5.3401,2.669e-08,-0.46296,0,0,0.33333,-0,-0,0.66667
0.72564,0.35065,2.1769,-0.22403,-1.1537,3.6765,1.3005,-0.4335,-1.8213,1.734,-6.2032e-11,-0.91064,0,0,0.33333,-0,-0,0.66667
0.025926,0.00039345,0.077777,-0.74941,-8.9862,27.226,0.15543,-0.051804,-0.0040284,0.20724,9.3469e-06,-0.0020142,0,0,0.33333,-1.9737e-16,0,0.66667
0.46152,0.83977,1.3846,0.50966,4.6532,11.013,-1.8817,0.62725,-1.0766,-2.509,8.703e-13,-0.53829,0,0,0.33333,3.9475e-16,0,0.66667
0.2813,0.90316,0.8439,0.60475,6.5593,17.332,-1.3609,0.45364,-0.70068,-1.8146,-1.692e-11,-0.35034,0,0,0.33333,1.9737e-16,0,0.66667
0.028966,0.825,0.086899,0.4875,5.6808,27.094,-0.11297,0.037656,-1.1546,-0.15062,3.975e-09,-0.57732,0,0,0.33333,-4.9343e-17,0,0.66667
0.88468,0.16394,2.654,-0.50409,-1.1535,1.2502,3.5677,-1.1892,-1.0962,4.7569,3.3719e-10,-0.54808,0,0,0.33333,-3.158e-15,0,0.66667
0.77101,0.79759,2.313,0.44638,2.0042,2.9217,-2.7533,0.91776,-1.2908,-3.6711,2.0073e-10,-0.6454,0,0,0.33333,-1.579e-15,0,0.66667
0.32974,0.76462,0.98921,0.39694,4.0787,15.478,-1.0471,0.34902,-1.4394,-1.3961,-1.9033e-11,-0.71972,0,0,0.33333,-0,-0,0.66667
0.79656,0.31838,2.3897,-0.27242,-1.0569,2.3324,1.736,-0.57867,-1.7367,2.3147,-1.8401e-10,-0.86833,0,0,0.33333,-0,-0,0.66667
0.32464,0.45433,0.97391,-0.0685,-0.69574,15.596,0.1779,-0.0593,-1.9827,0.2372,8.9146e-12,-0.99137,0,0,0.33333,-3.9475e-16,0,0.66667
0.30788,0.95063,0.92365,0.67594,7.2684,16.396,-1.6649,0.55496,-0.37483,-2.2198,-1.363e-12,-0.18742,0,0,0.33333,7.8949e-16,-6.9655e-17,0.66667
0.92811,0.17568,2.7843,-0.48648,-0.64481,0.78,3.6121,-1.204,-1.1578,4.8161,-8.0536e-11,-0.57892,0,0,0.33333,-0,-0,0.66667
0.97692,0.72747,2.9307,0.34121,0.029005,0.26879,-2.6667,0.88889,-1.5856,-3.5556,7.4785e-09,-0.79278,0,0,0.33333,-0,-0,0.66667
0.52356,0.16551,1.5707,-0.50174,-4.2088,9.0748,2.1015,-0.70051,-1.1044,2.802,5.8265e-13,-0.55219,0,0,0.33333,-0,-0,0.66667
0.95194,0.62382,2.8558,0.18573,0.10741,0.32989,-1.4144,0.47148,-1.8785,-1.8859,7.723e-08,-0.93926,0,0,0.33333,1.9737e-15,0,0.66667
0.888,0.75097,2.664,0.37645,0.79099,1.0786,-2.6743,0.89144,-1.4971,-3.5658,-5.9416e-10,-0.74856,0,0,0.33333,-0,-0,0.66667
0.51803,0.80664,1.5541,0.45996,3.8709,9.2135,-1.9062,0.63539,-1.248,-2.5416,-5.258e-13,-0.62399,0,0,0.33333,-0,-0,0.66667
0.37275,0.30877,1.1182,-0.28685,-2.821,13.909,0.85537,-0.28512,-1.708,1.1405,6.6261e-12,-0.854,0,0,0.33333,-0,-0,0.66667
0.71035,0.43003,2.1311,-0.10495,-0.56387,3.97,0.59641,-0.1988,-1.9605,0.79521,-2.5491e-11,-0.98025,0,0,0.33333,-0,-0,0.66667
0.45564,0.57075,1.3669,0.10612,0.94843,11.052,-0.38684,0.12895,-1.9599,-0.51578,3.8358e-14,-0.97993,0,0,0.33333,-0,-0,0.66667
0.60521,0.28434,1.8156,-0.32348,-2.3064,6.6348,1.5662,-0.52207,-1.6284,2.0883,-2.2914e-12,-0.81419,0,0,0.33333,-0,-0,0.66667
0.99041,0.13647,2.9712,-0.54529,0.024987,0.43673,4.3205,-1.4402,-0.94212,5.7607,-6.6636e-08,-0.47106,0,0,0.33333,-1.579e-15,0,0.66667
0.77392,0.72618,2.3217,0.33927,1.4754,2.7811,-2.1006,0.70019,-1.5904,-2.8007,1.7541e-10,-0.79519,0,0,0.33333,-0,-0,0.66667
0.33428,0.54121,1.0028,0.061818,0.62311,15.245,-0.16532,0.055105,-1.9859,-0.22042,-6.4349e-12,-0.99293,0,0,0.33333,-0,-0,0.66667
0.088998,0.1752,0.26699,-0.4872,-5.6358,24.704,0.34688,-0.11563,-1.1554,0.4625,-2.1352e-09,-0.57771,0,0,0.33333,-0,-0,0.66667
0.18491,0.37657,0.55472,-0.18514,-2.0443,20.892,0.27386,-0.091288,-1.879,0.36515,-8.0617e-11,-0.93951,0,0,0.33333,-7.8949e-16,0,0.66667
0.52685,0.65911,1.5806,0.23866,1.9439,8.8391,-1.0059,0.33531,-1.7979,-1.3412,-2.2804e-13,-0.89897,0,0,0.33333,-0,-0,0.66667
0.4171,0.082519,1.2513,-0.62622,-6.0967,12.551,2.0896,-0.69653,-0.60511,2.7861,-8.2068e-13,-0.30256,0,0,0.33333,-0,-0,0.66667
0.80066,0.55304,2.402,0.079561,0.29681,2.1894,-0.50961,0.16987,-1.9771,-0.67948,9.8463e-11,-0.98857,0,0,0.33333,-0,-0,0.66667
0.9332,0.76516,2.7996,0.39774,0.44957,0.63778,-2.9694,0.98978,-1.4369,-3.9591,6.8492e-10,-0.71843,0,0,0.33333,-0,-0,0.66667
0.17786,0.86688,0.53359,0.55031,6.2467,21.23,-0.78305,0.26102,-0.92284,-1.0441,-7.5396e-10,-0.46142,0,0,0.33333,1.9737e-16,0,0.66667
0.86007,0.54226,2.5802,0.06339,0.16128,1.2714,-0.43616,0.14539,-1.9857,-0.58154,-9.0048e-10,-0.99283,0,0,0.33333,1.579e-15,0,0.66667
0.95739,0.25631,2.8722,-0.36553,-0.20323,0.41605,2.7997,-0.93322,-1.5249,3.7329,1.2245e-09,-0.76244,0,0,0.33333,-0,-0,0.66667
0.95947,0.92697,2.8784,0.64046,0.50919,0.75533,-4.916,1.6387,-0.54096,-6.5547,-5.2626e-07,-0.27048,0,0,0.33333,7.8949e-16,0,0.66667
0.037863,0.65843,0.11359,0.23765,2.723,26.73,-0.071984,0.023995,-1.7997,-0.095978,6.3391e-08,-0.89983,0,0,0.33333,9.8686e-17,0,0.66667
0.057584,0.57954,0.17275,0.11931,1.3591,25.936,-0.054962,0.018321,-1.9487,-0.073282,6.0166e-08,-0.97434,0,0,0.33333,-9.8686e-17,0,0.66667
0.0057974,0.91742,0.017392,0.62614,7.4027,28.02,-0.029039,0.0096795,-0.60543,-0.038719,-5.2519e-07,-0.30271,0,0,0.33333,-0,7.2545e-16,0.66667
0.31268,0.087831,0.93804,-0.61825,-6.5781,16.191,1.5465,-0.51551,-0.64148,2.062,4.071e-12,-0.32074,0,0,0.33333,-1.9737e-16,0,0.66667
0.055698,0.099408,0.1671,-0.60089,-7.0628,26.037,0.26775,-0.089249,-0.7161,0.357,-2.1112e-07,-0.35805,0,0,0.33333,-0,-0,0.66667
0.29386,0.77346,0.88159,0.41018,4.3294,16.792,-0.9643,0.32143,-1.4017,-1.2857,-4.7368e-11,-0.70083,0,0,0.33333,1.9737e-16,0,0.66667
0.35602,0.66579,1.068,0.24868,2.4768,14.491,-0.70829,0.2361,-1.7798,-0.94438,-1.1001e-11,-0.8899,0,0,0.33333,-0,-0,0.66667
0.95368,0.36139,2.861,-0.20791,-0.11383,0.32789,1.5862,-0.52875,-1.8462,2.115,-1.5089e-08,-0.92308,0,0,0.33333,-0,-0,0.66667
0.47695,0.64475,1.4309,0.21712,1.8967,10.385,-0.82845,0.27615,-1.8317,-1.1046,1.9024e-13,-0.91585,0,0,0.33333,-0,-0,0.66667
0.27824,0.46086,0.83472,-0.058716,-0.616,17.311,0.1307,-0.043565,-1.9876,0.17426,1.8003e-11,-0.99381,0,0,0.33333,1.9737e-16,0,0.66667
0.50301,0.026034,1.509,-0.71095,-6.3308,9.8702,2.8609,-0.95363,-0.20307,3.8145,-1.4655e-14,-0.10154,0,0,0.33333,-0,-0,0.66667
0.64336,0.010162,1.9301,-0.73476,-5.1504,6.0134,3.7817,-1.2606,-0.080172,5.0423,1.2612e-13,-0.040086,0,0,0.33333,-0,-0,0.66667
0.11125,0.8304,0.33374,0.4956,5.7107,23.825,-0.44106,0.14702,-1.1263,-0.58808,-1.1325e-09,-0.56317,0,0,0.33333,-0,-0,0.66667
0.75806,0.53119,2.2742,0.046778,0.21158,2.9677,-0.28368,0.094562,-1.9931,-0.37825,2.8345e-11,-0.99655,0,0,0.33333,1.0996e-15,0,0.66667
0.85195,0.94539,2.5558,0.66809,2.1177,1.8864,-4.5534,1.5178,-0.41261,-6.0712,1.2703e-09,-0.2063,0,0,0.33333,-0,-0,0.66667
0.84425,0.93885,2.5327,0.65828,2.1809,1.9777,-4.446,1.482,-0.46051,-5.928,1.7162e-09,-0.23026,0,0,0.33333,-0,-0,0.66667
0.89051,0.89533,2.6715,0.593,1.3433,1.2987,-4.2245,1.4082,-0.74976,-5.6327,8.4748e-09,-0.37488,0,0,0.33333,-7.8949e-16,0,0.66667
0.38184,0.47507,1.1455,-0.0374,-0.3616,13.55,0.11425,-0.038082,-1.9948,0.15233,1.3248e-12,-0.99742,0,0,0.33333,-0,-0,0.66667
0.44381,0.55685,1.3314,0.08528,0.77269,11.44,-0.30278,0.10093,-1.9741,-0.40371,2.3148e-14,-0.98703,0,0,0.33333,-7.8949e-16,0,0.66667
0.10158,0.86618,0.30474,0.54926,6.3746,24.215,-0.44636,0.14879,-0.92683,-0.59515,5.5528e-09,-0.46342,0,0,0.33333,-0,-0,0.66667
0.22581,0.08274,0.67742,-0.62589,-7.0169,19.417,1.1306,-0.37688,-0.60649,1.5075,8.4452e-11,-0.30325,0,0,0.33333,-0,-0,0.66667
0.97132,0.04688,2.914,-0.67968,-0.39026,0.7495,5.2815,-1.7605,-0.35698,7.042,1.2987e-06,-0.17849,0,0,0.33333,-0,-0,0.66667
0.28462,0.30902,0.85387,-0.28648,-3.0165,17.102,0.6523,-0.21743,-1.7087,0.86974,6.006e-11,-0.85433,0,0,0.33333,-9.8686e-17,0,0.66667
0.9074,0.24996,2.7222,-0.37507,-0.63091,0.86295,2.7227,-0.90756,-1.5012,3.6302,1.1283e-09,-0.75062,0,0,0.33333,-1.8935e-15,0,0.66667
0.89055,0.6129,2.6717,0.16935,0.32675,0.91471,-1.2065,0.40217,-1.898,-1.6087,3.7019e-09,-0.94901,0,0,0.33333,-0,-0,0.66667
0.9225,0.56707,2.7675,0.10061,0.12223,0.55242,-0.74248,0.24749,-1.9647,-0.98998,8.9749e-08,-0.98234,0,0,0.33333,-0,-0,0.66667
0.15615,0.86908,0.46845,0.55363,6.3346,22.074,-0.69159,0.23053,-0.91077,-0.92212,-1.7625e-09,-0.45539,0,0,0.33333,2.9606e-16,2.5645e-16,0.66667
0.87972,0.90605,2.6392,0.60908,1.5315,1.4462,-4.2865,1.4288,-0.68195,-5.7154,-7.0661e-09,-0.34098,0,0,0.33333,5.181e-16,0,0.66667
0.63199,0.72483,1.896,0.33724,2.2735,5.9372,-1.7051,0.56836,-1.5955,-2.2734,6.6355e-12,-0.79773,0,0,0.33333,1.579e-15,0,0.66667
0.21063,0.48226,0.63188,-0.026605,-0.2896,19.885,0.04483,-0.014943,-1.9967,0.059773,4.6485e-12,-0.99835,0,0,0.33333,-3.9475e-16,0,0.66667
0.34512,0.46624,1.0353,-0.050647,-0.50596,14.854,0.13983,-0.046611,-1.9918,0.18644,4.4078e-12,-0.99588,0,0,0.33333,-5.9212e-16,0,0.66667
0.15992,0.33473,0.47976,-0.2479,-2.7699,21.875,0.31715,-0.10572,-1.7812,0.42287,-1.3473e-11,-0.89059,0,0,0.33333,-0,-0,0.66667
0.44435,0.066272,1.333,-0.65059,-6.1717,11.669,2.3127,-0.77091,-0.49522,3.0836,-3.4572e-13,-0.24761,0,0,0.33333,-1.579e-15,0,0.66667
0.083775,0.15423,0.25132,-0.51865,-6.0223,24.915,0.3476,-0.11587,-1.0441,0.46347,-8.2484e-09,-0.52205,0,0,0.33333,-1.2336e-16,0,0.66667
0.16532,0.40922,0.49596,-0.13616,-1.5125,21.654,0.18008,-0.060027,-1.9344,0.24011,-3.6834e-10,-0.9672,0,0,0.33333,-0,-0,0.66667
0.1972,0.04087,0.59159,-0.68869,-7.88,20.53,1.0865,-0.36215,-0.31308,1.4486,9.0765e-11,-0.15654,0,0,0.33333,3.9475e-16,0,0.66667
0.69103,0.95754,2.0731,0.68632,4.2379,4.8299,-3.7941,1.2647,-0.32478,-5.0588,8.098e-13,-0.16239,0,0,0.33333,-0,-0,0.66667
0.5738,0.73962,1.7214,0.35943,2.7316,7.5204,-1.65,0.54998,-1.5402,-2.1999,-4.1833e-13,-0.77009,0,0,0.33333,-7.8949e-16,0,0.66667
0.87332,0.79489,2.62,0.44233,1.0913,1.3195,-3.0904,1.0301,-1.304,-4.1205,3.5848e-10,-0.652,0,0,0.33333,-0,-0,0.66667
0.24463,0.058835,0.7339,-0.66175,-7.3802,18.722,1.2951,-0.4317,-0.44324,1.7268,2.5145e-11,-0.22162,0,0,0.33333,9.8686e-17,0,0.66667
0.62961,0.32692,1.8888,-0.25962,-1.7472,5.9598,1.3077,-0.4359,-1.7597,1.7436,-7.1162e-12,-0.87983,0,0,0.33333,-0,-0,0.66667
0.034431,0.034899,0.10329,-0.69765,-8.3071,26.887,0.19217,-0.064056,-0.2699,0.25622,-3.1839e-07,-0.13495,0,0,0.33333,9.8686e-17,0,0.66667
0.5162,0.20014,1.5486,-0.4498,-3.7913,9.2628,1.8575,-0.61916,-1.2805,2.4766,4.1478e-13,-0.64027,0,0,0.33333,-0,-0,0.66667
0.86323,0.043143,2.5897,-0.68528,-2.0296,1.7645,4.7324,-1.5775,-0.32973,6.3099,-1.6006e-09,-0.16486,0,0,0.33333,-0,-0,0.66667
0.98413,0.86776,2.9524,0.55164,0.060788,0.47579,-4.3431,1.4477,-0.91838,-5.7908,1.7561e-07,-0.45919,0,0,0.33333,-7.8949e-16,-3.0222e-16,0.66667
0.009873,0.063451,0.029619,-0.65482,-7.7663,27.858,0.05172,-0.017241,-0.47615,0.068959,-1.7473e-06,-0.23808,0,0,0.33333,-2.4672e-17,0,0.66667
0.25284,0.92044,0.75852,0.63067,6.9764,18.401,-1.2757,0.42522,-0.58531,-1.7009,-3.1324e-11,-0.29266,0,0,0.33333,3.9475e-16,0,0.66667
0.22385,0.49,0.67155,-0.015003,-0.16227,19.375,0.026868,-0.008956,-1.9987,0.035824,1.5957e-11,-0.99935,0,0,0.33333,-0,-0,0.66667
0.047538,0.057416,0.14261,-0.66388,-7.8647,26.366,0.25247,-0.084158,-0.43353,0.33663,-3.7904e-07,-0.21677,0,0,0.33333,-2.4672e-17,0,0.66667
0.010172,0.97438,0.030517,0.71158,8.4966,27.847,-0.057909,0.019301,-0.19963,-0.077213,-2.508e-06,-0.099816,0,0,0.33333,-0,-0,0.66667
0.4902,0.23232,1.4706,-0.40152,-3.4934,10.038,1.5746,-0.52486,-1.426,2.0995,-2.0139e-13,-0.71302,0,0,0.33333,-0,-0,0.66667
0.045482,0.75299,0.13645,0.37948,4.3797,26.429,-0.13808,0.046026,-1.4888,-0.1841,2.2867e-09,-0.74438,0,0,0.33333,9.8686e-17,0,0.66667
0.27833,0.47333,0.83498,-0.040001,-0.41957,17.307,0.089068,-0.029689,-1.9946,0.11876,1.2585e-11,-0.99732,0,0,0.33333,-0,-0,0.66667
0.63997,0.40484,1.9199,-0.14274,-0.93109,5.6538,0.7308,-0.2436,-1.9288,0.9744,-7.5167e-12,-0.96439,0,0,0.33333,-7.8949e-16,0,0.66667
0.29469,0.98686,0.88408,0.73029,7.9804,16.905,-1.7217,0.5739,-0.10334,-2.2956,7.7161e-14,-0.051669,0,0,0.33333,-0,-0,0.66667
0.26965,0.55357,0.80896,0.080356,0.84782,17.634,-0.17335,0.057782,-1.9767,-0.23113,-2.6717e-11,-0.98836,0,0,0.33333,-1.9737e-16,0,0.66667
0.59055,0.94633,1.7716,0.66949,5.1528,7.3048,-3.1629,1.0543,-0.40609,-4.2172,-4.5119e-13,-0.20305,0,0,0.33333,-0,-0,0.66667
0.38053,0.73494,1.1416,0.35241,3.4564,13.658,-1.0728,0.35761,-1.5577,-1.4304,-3.9342e-12,-0.77884,0,0,0.33333,-0,-0,0.66667
0.70252,0.079398,2.1076,-0.6309,-3.7267,4.507,3.5458,-1.1819,-0.58457,4.7277,-6.3969e-12,-0.29229,0,0,0.33333,-7.8949e-16,3.9212e-16,0.66667
0.49612,0.76159,1.4884,0.39239,3.3834,9.8482,-1.5574,0.51913,-1.452,-2.0765,6.2172e-15,-0.72602,0,0,0.33333,7.8949e-16,0,0.66667
0.63321,0.63443,1.8996,0.20165,1.3404,5.8443,-1.0215,0.3405,-1.8549,-1.362,7.4567e-12,-0.92744,0,0,0.33333,-0,-0,0.66667
0.35339,0.3823,1.0602,-0.17655,-1.7567,14.57,0.49912,-0.16637,-1.8889,0.66549,1.0199e-11,-0.94445,0,0,0.33333,-0,-0,0.66667
0.28704,0.1526,0.86113,-0.5211,-5.5808,17.084,1.1966,-0.39888,-1.0347,1.5955,3.4923e-11,-0.51736,0,0,0.33333,-0,-0,0.66667
0.13321,0.33248,0.39962,-0.25128,-2.8318,22.928,0.26778,-0.089261,-1.7748,0.35704,-1.1479e-09,-0.8874,0,0,0.33333,-1.9737e-16,0,0.66667
0.93708,0.22866,2.8112,-0.40701,-0.42778,0.61392,3.0512,-1.0171,-1.4111,4.0683,2.8489e-09,-0.70554,0,0,0.33333,-1.579e-15,0,0.66667
0.80484,0.9553,2.4145,0.68296,2.8187,2.612,-4.3973,1.4658,-0.3408,-5.8631,9.0547e-11,-0.1704,0,0,0.33333,-0,-0,0.66667
0.93803,0.6871,2.8141,0.28065,0.2637,0.49729,-2.1061,0.70203,-1.7214,-2.8081,-1.694e-08,-0.86069,0,0,0.33333,2.2204e-15,0,0.66667
0.18538,0.96154,0.55614,0.69231,7.9625,20.983,-1.0267,0.34224,-0.29592,-1.369,1.2678e-11,-0.14796,0,0,0.33333,1.9737e-16,2.8024e-16,0.66667
0.93316,0.26448,2.7995,-0.35328,-0.38745,0.59664,2.6373,-0.8791,-1.5556,3.5164,4.9248e-09,-0.7778,0,0,0.33333,-0,-0,0.66667
0.93575,0.86991,2.8073,0.55487,0.68157,0.8026,-4.1538,1.3846,-0.90572,-5.5384,1.1529e-08,-0.45286,0,0,0.33333,1.9737e-15,0,0.66667
0.28354,0.31681,0.85063,-0.27478,-2.8935,17.139,0.6233,-0.20777,-1.732,0.83106,5.9962e-11,-0.86599,0,0,0.33333,-0,-0,0.66667
0.27463,0.91549,0.8239,0.62324,6.8023,17.587,-1.3693,0.45643,-0.61841,-1.8257,-1.6757e-11,-0.30921,0,0,0.33333,-0,-0,0.66667
0.55143,0.79023,1.6543,0.43535,3.4672,8.2064,-1.9205,0.64017,-1.3257,-2.5607,-1.0385e-12,-0.66287,0,0,0.33333,-0,-0,0.66667
0.18529,0.0098651,0.55587,-0.7352,-8.5028,21.002,1.0898,-0.36327,-0.077937,1.4531,2.8126e-10,-0.038969,0,0,0.33333,-0,-0,0.66667
0.4421,0.6481,1.3263,0.22215,2.0266,11.521,-0.7857,0.2619,-1.8242,-1.0476,2.0317e-14,-0.91212,0,0,0.33333,-3.9475e-16,0,0.66667
0.18532,0.44149,0.55595,-0.087767,-0.96655,20.869,0.13012,-0.043373,-1.9731,0.17349,-1.2659e-10,-0.98656,0,0,0.33333,-0,-0,0.66667
0.94738,0.48968,2.8421,-0.015483,-0.010008,0.3219,0.11735,-0.039115,-1.9986,0.15646,3.8626e-07,-0.99929,0,0,0.33333,1.1219e-15,0,0.66667
0.49382,0.18125,1.4815,-0.47812,-4.1727,9.9692,1.8889,-0.62962,-1.187,2.5185,-7.1831e-14,-0.59352,0,0,0.33333,-0,-0,0.66667
0.96392,0.863,2.8918,0.5445,0.31281,0.5807,-4.1988,1.3996,-0.94523,-5.5984,-1.1559e-07,-0.47262,0,0,0.33333,-0,-0,0.66667
0.64494,0.24706,1.9348,-0.37941,-2.4945,5.634,1.9576,-0.65253,-1.4886,2.6101,-9.1626e-12,-0.74431,0,0,0.33333,-0,-0,0.66667
0.48432,0.030589,1.4529,-0.70412,-6.4188,10.44,2.7281,-0.90937,-0.2387,3.6375,-8.5043e-14,-0.11935,0,0,0.33333,-4.9343e-17,3.2709e-17,0.66667
0.9677,0.57131,2.9031,0.10697,0.020461,0.18922,-0.82809,0.27603,-1.9594,-1.1041,-3.7873e-07,-0.97969,0,0,0.33333,-0,-0,0.66667
0.14319,0.12282,0.42957,-0.56577,-6.5078,22.583,0.6481,-0.21603,-0.86265,0.86414,1.1847e-09,-0.43133,0,0,0.33333,7.4015e-17,0,0.66667
0.63233,0.16212,1.897,-0.50683,-3.4895,6.0493,2.5639,-0.85462,-1.0865,3.4185,-1.5414e-12,-0.54327,0,0,0.33333,-0,-0,0.66667
0.66189,0.45049,1.9857,-0.074261,-0.45784,5.0935,0.39322,-0.13107,-1.9797,0.52429,-7.1346e-12,-0.98984,0,0,0.33333,-0,-0,0.66667
0.43384,0.045179,1.3015,-0.68223,-6.5772,12.037,2.3678,-0.78928,-0.34452,3.1571,-3.7836e-13,-0.17226,0,0,0.33333,7.8949e-16,0,0.66667
0.059357,0.21843,0.17807,-0.42235,-4.8822,25.877,0.20056,-0.066853,-1.3668,0.26741,-1.3093e-08,-0.68342,0,0,0.33333,-9.8686e-17,0,0.66667
0.49272,0.24179,1.4782,-0.38731,-3.3537,9.9519,1.5267,-0.5089,-1.4662,2.0356,-2.1338e-13,-0.73311,0,0,0.33333,3.9475e-16,0,0.66667
0.46513,0.3874,1.3954,-0.16891,-1.4948,10.754,0.62851,-0.2095,-1.898,0.83802,-1.0264e-13,-0.94902,0,0,0.33333,-0,-0,0.66667
0.80675,0.077218,2.4202,-0.63417,-2.5517,2.5118,4.0929,-1.3643,-0.56929,5.4572,-2.1089e-10,-0.28464,0,0,0.33333,-0,-0,0.66667
0.25666,0.18852,0.76998,-0.46722,-5.0706,18.197,0.95934,-0.31978,-1.2245,1.2791,1.0336e-10,-0.61226,0,0,0.33333,-7.8949e-16,0,0.66667
0.39143,0.80879,1.1743,0.46318,4.5394,13.327,-1.4504,0.48348,-1.238,-1.9339,-2.1971e-13,-0.61899,0,0,0.33333,1.9737e-16,0,0.66667
0.24017,0.85135,0.72052,0.52702,5.8039,18.838,-1.0126,0.33754,-1.0121,-1.3502,-1.2736e-10,-0.50606,0,0,0.33333,-0,-0,0.66667
0.68644,0.19003,2.0593,-0.46495,-2.7834,4.7,2.5533,-0.8511,-1.2323,3.4044,-2.2586e-11,-0.61615,0,0,0.33333,-0,-0,0.66667
0.98988,0.85641,2.9697,0.53462,-0.024254,0.4239,-4.2337,1.4112,-0.98308,-5.6449,5.0478e-08,-0.49154,0,0,0.33333,-0,-0,0.66667
0.17743,0.94361,0.53229,0.66541,7.651,21.28,-0.94451,0.31484,-0.42557,-1.2594,-2.7662e-10,-0.21278,0,0,0.33333,3.9475e-16,0,0.66667
0.82145,0.48853,2.4643,-0.017201,-0.057098,1.8386,0.11304,-0.037679,-1.9983,0.15072,1.7666e-10,-0.99914,0,0,0.33333,-0,-0,0.66667
0.23099,0.85755,0.69297,0.53632,5.9396,19.189,-0.99107,0.33036,-0.97674,-1.3214,-1.5723e-10,-0.48837,0,0,0.33333,-3.9475e-16,0,0.66667
0.057976,0.97748,0.17393,0.71622,8.5289,25.958,-0.33219,0.11073,-0.17578,-0.44291,1.2443e-07,-0.087888,0,0,0.33333,-0,-0,0.66667
0.13882,0.34127,0.41645,-0.23809,-2.6771,22.705,0.26441,-0.088135,-1.7993,0.35254,-1.6792e-09,-0.89964,0,0,0.33333,2.4672e-16,0,0.66667
0.93515,0.11339,2.8055,-0.57991,-0.73723,0.84303,4.3384,-1.4461,-0.80394,5.7846,-3.278e-08,-0.40197,0,0,0.33333,-0,-0,0.66667
0.88854,0.56128,2.6656,0.09192,0.17937,0.91431,-0.65339,0.2178,-1.971,-0.87119,9.4936e-09,-0.9855,0,0,0.33333,1.9737e-15,0,0.66667
0.28926,0.57546,0.86778,0.11319,1.1801,16.903,-0.26193,0.087311,-1.9537,-0.34925,-2.7424e-11,-0.97684,0,0,0.33333,-0,-0,0.66667
0.94776,0.4443,2.8433,-0.083545,-0.053877,0.32734,0.63345,-0.21115,-1.975,0.8446,-1.4041e-08,-0.98749,0,0,0.33333,-0,-0,0.66667
0.84993,0.76718,2.5498,0.40077,1.1681,1.59,-2.725,0.90833,-1.4282,-3.6333,2.985e-10,-0.71408,0,0,0.33333,-2.5855e-15,0,0.66667
0.43465,0.48949,1.304,-0.015766,-0.14425,11.741,0.054823,-0.018274,-1.9988,0.073097,3.4403e-14,-0.99939,0,0,0.33333,-0,-0,0.66667
0.46805,0.087219,1.4041,-0.61917,-5.6873,10.881,2.3184,-0.77281,-0.63726,3.0912,-3.9146e-13,-0.31863,0,0,0.33333,7.8949e-16,2.6104e-16,0.66667
0.62985,0.41685,1.8896,-0.12472,-0.83215,5.9099,0.62843,-0.20948,-1.9442,0.83791,-5.0646e-12,-0.97208,0,0,0.33333,-0,-0,0.66667
0.15803,0.44023,0.4741,-0.089652,-0.99741,21.938,0.11334,-0.037781,-1.9722,0.15112,-4.4534e-10,-0.9861,0,0,0.33333,-0,-0,0.66667
0.014782,0.88683,0.044346,0.58024,6.8255,27.662,-0.068617,0.022872,-0.80278,-0.091489,1.7848e-07,-0.40139,0,0,0.33333,2.4672e-17,0,0.66667
0.26551,0.85934,0.79654,0.53901,5.8601,17.891,-1.1449,0.38164,-0.96689,-1.5266,-5.8085e-11,-0.48344,0,0,0.33333,-0,-4.9385e-16,0.66667
0.015444,0.038171,0.046331,-0.69274,-8.2516,27.638,0.085587,-0.028527,-0.29412,0.11412,3.5388e-06,-0.14706,0,0,0.33333,-0,-0,0.66667
0.6745,0.69593,2.0235,0.2939,1.7772,4.8614,-1.5859,0.52863,-1.6928,-2.1145,2.4732e-11,-0.84638,0,0,0.33333,-0,-0,0.66667
0.55147,0.95866,1.6544,0.68798,5.6814,8.4139,-3.0352,1.0117,-0.3166,-4.047,-2.4247e-13,-0.1583,0,0,0.33333,-0,-0,0.66667
0.32165,0.38164,0.96494,-0.17753,-1.8122,15.717,0.45683,-0.15228,-1.8877,0.6091,2.1684e-11,-0.94385,0,0,0.33333,-0,-0,0.66667
0.7802,0.66475,2.3406,0.24713,1.0319,2.6094,-1.5425,0.51417,-1.7829,-2.0567,1.3605e-10,-0.89147,0,0,0.33333,-0,-0,0.66667
0.14579,0.21052,0.43736,-0.43423,-4.9316,22.456,0.50643,-0.16881,-1.3292,0.67524,8.355e-10,-0.66462,0,0,0.33333,-1.9737e-16,0,0.66667
0.24488,0.48967,0.73464,-0.015494,-0.16574,18.57,0.030354,-0.010118,-1.9986,0.040472,-1.3658e-12,-0.99931,0,0,0.33333,1.9737e-16,0,0.66667
0.29231,0.29424,0.87694,-0.30865,-3.2377,16.821,0.72177,-0.24059,-1.6606,0.96236,5.2543e-11,-0.83032,0,0,0.33333,-0,-0,0.66667
0.19593,0.96608,0.5878,0.69912,8.0139,20.582,-1.0958,0.36528,-0.26253,-1.4611,-9.2499e-11,-0.13127,0,0,0.33333,-4.9343e-17,0,0.66667
0.087939,0.69379,0.26382,0.29068,3.3171,24.729,-0.2045,0.068166,-1.6994,-0.27266,8.0281e-09,-0.84971,0,0,0.33333,-1.9737e-16,0,0.66667
0.86998,0.84083,2.6099,0.51125,1.332,1.438,-3.5582,1.1861,-1.0711,-4.7443,2.687e-09,-0.53554,0,0,0.33333,-1.7764e-15,0,0.66667
0.088189,0.71431,0.26457,0.32146,3.6745,24.721,-0.22679,0.075598,-1.6327,-0.30239,-7.3358e-10,-0.81635,0,0,0.33333,-0,-0,0.66667
0.68371,0.98802,2.0511,0.73203,4.6578,5.0544,-4.004,1.3347,-0.094184,-5.3386,4.7518e-14,-0.047092,0,0,0.33333,-7.8949e-16,0,0.66667
0.1204,0.8729,0.3612,0.55935,6.47,23.475,-0.53877,0.17959,-0.88817,-0.71835,-1.0746e-08,-0.44409,0,0,0.33333,2.4672e-16,0,0.66667
0.010699,0.77678,0.032097,0.41517,4.8135,27.822,-0.035535,0.011845,-1.3873,-0.04738,5.8223e-09,-0.69365,0,0,0.33333,1.2503e-17,0,0.66667
0.55727,0.74736,1.6718,0.37104,2.9063,7.9989,-1.6542,0.55139,-1.5109,-2.2055,-8.652e-13,-0.75547,0,0,0.33333,-0,-0,0.66667
0.90711,0.68399,2.7213,0.27598,0.4475,0.78792,-2.0028,0.66758,-1.73,-2.6703,-6.9153e-09,-0.86499,0,0,0.33333,-3.9475e-16,0,0.66667
0.86046,0.46222,2.5814,-0.056668,-0.14367,1.2651,0.39009,-0.13003,-1.9889,0.52011,2.4721e-09,-0.99445,0,0,0.33333,1.579e-15,0,0.66667
0.33845,0.13298,1.0154,-0.55053,-5.7015,15.229,1.4906,-0.49687,-0.92206,1.9875,4.2183e-12,-0.46103,0,0,0.33333,-0,-0,0.66667
0.027159,0.41957,0.081476,-0.12065,-1.3782,27.158,0.026214,-0.0087382,-1.9476,0.034952,-3.7576e-07,-0.97382,0,0,0.33333,-4.9343e-17,0,0.66667
0.80086,0.91678,2.4026,0.62517,2.5791,2.5966,-4.0054,1.3351,-0.60992,-5.3405,2.3177e-10,-0.30496,0,0,0.33333,-0,-0,0.66667
0.80598,0.82866,2.418,0.49299,1.9095,2.3532,-3.1788,1.0596,-1.1351,-4.2384,4.7628e-10,-0.56753,0,0,0.33333,-1.579e-15,0,0.66667
0.86849,0.85845,2.6055,0.53768,1.433,1.489,-3.7357,1.2452,-0.97131,-4.981,1.5559e-09,-0.48565,0,0,0.33333,-1.579e-15,0,0.66667
0.66965,0.98154,2.0089,0.72232,4.7504,5.366,-3.8696,1.2899,-0.14454,-5.1594,-1.3989e-14,-0.072269,0,0,0.33333,-1.579e-15,3.8179e-16,0.66667
0.80778,0.31826,2.4233,-0.27262,-0.99878,2.1419,1.7617,-0.58724,-1.7357,2.349,-1.5892e-10,-0.86787,0,0,0.33333,1.579e-15,0,0.66667
0.8975,0.81972,2.6925,0.47957,0.95393,1.0762,-3.4433,1.1478,-1.1819,-4.5911,-7.6351e-10,-0.59097,0,0,0.33333,-0,-0,0.66667
0.45383,0.59213,1.3615,0.1382,1.2389,11.117,-0.50174,0.16725,-1.9333,-0.66899,-6.4948e-15,-0.96663,0,0,0.33333,-7.8949e-16,0,0.66667
0.55783,0.037263,1.6735,-0.6941,-5.6794,8.2388,3.0975,-1.0325,-0.28695,4.13,2.2338e-13,-0.14347,0,0,0.33333,-1.579e-15,-2.5744e-16,0.66667
0.50613,0.7783,1.5184,0.41745,3.5581,9.5517,-1.6903,0.56343,-1.3807,-2.2537,-1.6698e-13,-0.69037,0,0,0.33333,-1.9737e-16,0,0.66667
0.69198,0.25839,2.076,-0.36242,-2.1045,4.495,2.0063,-0.66876,-1.5327,2.6751,-3.6319e-11,-0.76634,0,0,0.33333,-0,-0,0.66667
0.68291,0.80952,2.0487,0.46427,2.806,4.781,-2.5364,0.84548,-1.234,-3.3819,2.0364e-11,-0.61701,0,0,0.33333,-1.1842e-15,0,0.66667
0.52031,0.51394,1.5609,0.020906,0.17077,8.998,-0.087023,0.029008,-1.9978,-0.11603,-1.0501e-13,-0.99888,0,0,0.33333,1.579e-15,0,0.66667
0.82847,0.8045,2.4854,0.45675,1.5515,1.9581,-3.0272,1.0091,-1.2585,-4.0363,6.0122e-10,-0.62924,0,0,0.33333,-0,-0,0.66667
0.50578,0.61833,1.5173,0.1775,1.4873,9.4662,-0.71819,0.2394,-1.8878,-0.95758,-1.4405e-13,-0.94389,0,0,0.33333,3.9475e-16,0,0.66667
0.82486,0.461,2.4746,-0.058505,-0.19046,1.7879,0.38607,-0.12869,-1.9877,0.51476,-5.1229e-11,-0.99385,0,0,0.33333,-0,-0,0.66667
0.28185,0.84183,0.84554,0.51274,5.5049,17.273,-1.1561,0.38537,-1.0663,-1.5415,-4.2746e-11,-0.53317,0,0,0.33333,-1.4803e-16,0,0.66667
0.17849,0.86814,0.53548,0.55221,6.2679,21.206,-0.78853,0.26284,-0.91553,-1.0514,-7.5772e-10,-0.45777,0,0,0.33333,-9.1683e-17,0,0.66667
0.96987,0.034845,2.9096,-0.69773,-0.44219,0.78995,5.4137,-1.8046,-0.26978,7.2182,3.305e-06,-0.13489,0,0,0.33333,3.158e-15,0,0.66667
0.74194,0.28037,2.2258,-0.32945,-1.6221,3.3953,1.9555,-0.65182,-1.6148,2.6073,-1.0403e-10,-0.8074,0,0,0.33333,-1.8201e-15,0,0.66667
0.25979,0.94876,0.77938,0.67314,7.4561,18.161,-1.399,0.46634,-0.38828,-1.8653,-9.7515e-12,-0.19414,0,0,0.33333,-0,-0,0.66667
0.58124,0.77911,1.7437,0.41866,3.1586,7.3474,-1.9467,0.64891,-1.3775,-2.5956,-7.3952e-13,-0.68876,0,0,0.33333,2.9606e-16,0,0.66667
0.95526,0.45898,2.8658,-0.06153,-0.028932,0.26593,0.47022,-0.15674,-1.9864,0.62696,5.9477e-07,-0.99318,0,0,0.33333,7.8949e-16,0,0.66667
0.080754,0.12323,0.24226,-0.56515,-6.5951,25.04,0.3651,-0.1217,-0.86523,0.4868,-9.9069e-09,-0.43262,0,0,0.33333,-0,-0,0.66667
0.083534,0.64099,0.2506,0.21149,2.4066,24.9,-0.14133,0.047112,-1.8402,-0.18845,9.8621e-09,-0.92011,0,0,0.33333,-0,-0,0.66667
0.61913,0.73643,1.8574,0.35464,2.4638,6.2816,-1.7566,0.58552,-1.5521,-2.3421,3.7476e-12,-0.77604,0,0,0.33333,-0,-0,0.66667
0.22449,0.55256,0.67348,0.078845,0.85298,19.352,-0.1416,0.047201,-1.9774,-0.1888,-4.5546e-11,-0.98868,0,0,0.33333,1.9737e-16,0,0.66667
0.76518,0.56241,2.2956,0.093611,0.41186,2.8365,-0.57304,0.19101,-1.9704,-0.76405,5.6672e-11,-0.98518,0,0,0.33333,2.0292e-15,0,0.66667
0.56815,0.94366,1.7045,0.66549,5.3255,7.9181,-3.0248,1.0083,-0.4252,-4.0331,-4.1078e-13,-0.2126,0,0,0.33333,-1.579e-15,0,0.66667
0.66619,0.25035,1.9986,-0.37448,-2.3354,5.1084,1.9958,-0.66526,-1.5023,2.661,-1.8024e-11,-0.75113,0,0,0.33333,-1.579e-15,0,0.66667
0.10781,0.23544,0.32344,-0.39683,-4.54,23.948,0.34227,-0.11409,-1.4397,0.45636,-2.5367e-10,-0.71987,0,0,0.33333,-1.9737e-16,0,0.66667
0.084283,0.89781,0.25285,0.59672,6.982,24.905,-0.40235,0.13412,-0.73354,-0.53646,1.6968e-08,-0.36677,0,0,0.33333,-0,-0,0.66667
0.62512,0.98917,1.8754,0.73376,5.3459,6.469,-3.6695,1.2232,-0.085753,-4.8927,1.6209e-14,-0.042877,0,0,0.33333,-7.8949e-16,0,0.66667
0.40973,0.45098,1.2292,-0.073524,-0.69169,12.587,0.241,-0.080333,-1.9802,0.32133,9.0485e-13,-0.99011,0,0,0.33333,-0,-0,0.66667
0.087253,0.96616,0.26176,0.69923,8.2736,24.803,-0.48808,0.16269,-0.26198,-0.65077,7.8616e-08,-0.13099,0,0,0.33333,1.1603e-18,0,0.66667
0.37106,0.93628,1.1132,0.65442,6.6806,14.14,-1.9426,0.64755,-0.47811,-2.5902,5.2891e-13,-0.23905,0,0,0.33333,1.1842e-15,3.6449e-16,0.66667
0.67214,0.63611,2.0164,0.20417,1.2329,4.8775,-1.0978,0.36594,-1.8518,-1.4638,2.0626e-11,-0.9259,0,0,0.33333,-0,-0,0.66667
0.18959,0.13587,0.56876,-0.54619,-6.1691,20.776,0.82841,-0.27614,-0.93903,1.1045,4.9114e-10,-0.46952,0,0,0.33333,-0,-0,0.66667
0.89573,0.64069,2.6872,0.21103,0.38722,0.87414,-1.5122,0.50407,-1.8409,-2.0163,2.7967e-09,-0.92047,0,0,0.33333,-0,-0,0.66667
0.94985,0.518,2.8495,0.026995,0.015954,0.30312,-0.20513,0.068377,-1.9969,-0.27351,-6.0386e-08,-0.99844,0,0,0.33333,-0,-0,0.66667
0.96157,0.58244,2.8847,0.12366,0.041686,0.2354,-0.95129,0.3171,-1.9449,-1.2684,7.7877e-08,-0.97247,0,0,0.33333,-1.579e-15,0,0.66667
0.73008,0.1254,2.1902,-0.5619,-3.005,3.8413,3.2819,-1.094,-0.87834,4.3759,-4.1627e-11,-0.43917,0,0,0.33333,-0,-0,0.66667
0.40629,0.42644,1.2189,-0.11034,-1.0425,12.708,0.35864,-0.11955,-1.9568,0.47819,1.3696e-12,-0.97838,0,0,0.33333,-0,-0,0.66667
0.74375,0.13895,2.2312,-0.54158,-2.7528,3.5419,3.2224,-1.0741,-0.95636,4.2965,-7.3467e-11,-0.47818,0,0,0.33333,-0,-0,0.66667
0.28799,0.83096,0.86396,0.49643,5.3004,17.04,-1.1437,0.38124,-1.123,-1.525,-3.9647e-11,-0.5615,0,0,0.33333,-0,-0,0.66667
0.31442,0.091493,0.94325,-0.61276,-6.5074,16.125,1.5413,-0.51377,-0.66583,2.0551,4.1317e-12,-0.33291,0,0,0.33333,-5.9212e-16,0,0.66667
0.6059,0.17256,1.8177,-0.49116,-3.5665,6.7267,2.3807,-0.79358,-1.1417,3.1743,3.2285e-13,-0.57084,0,0,0.33333,-0,-0,0.66667
0.59485,0.28744,1.7845,-0.31884,-2.3199,6.9138,1.5173,-0.50576,-1.6389,2.0231,-1.2917e-12,-0.81945,0,0,0.33333,-0,-0,0.66667
0.87866,0.75332,2.636,0.37999,0.87467,1.1934,-2.671,0.89034,-1.4871,-3.5614,-1.2398e-10,-0.74353,0,0,0.33333,-0,-0,0.66667
0.2546,0.31942,0.7638,-0.27088,-2.9024,18.225,0.55172,-0.18391,-1.739,0.73563,9.7093e-11,-0.86948,0,0,0.33333,-0,-0,0.66667
0.76619,0.078077,2.2986,-0.63289,-3.0299,3.2175,3.8793,-1.2931,-0.57566,5.1724,-5.7438e-11,-0.28783,0,0,0.33333,-1.579e-15,0,0.66667
0.94101,0.51154,2.823,0.017305,0.013683,0.37386,-0.13027,0.043424,-1.9985,-0.1737,-6.9409e-07,-0.99923,0,0,0.33333,-3.158e-15,0,0.66667
0.0010329,0.5002,0.0030988,0.00029469,0.003364,28.208,-2.5023e-06,0.00010284,-2.0013,4.7667e-05,0.00015301,-1.0007,0,0,0.33333,-0,-0,0.66667
0.47609,0.0022496,1.4283,-0.74663,-6.9248,10.736,2.8437,-0.94789,-0.018398,3.7916,1.2124e-13,-0.0091989,0,0,0.33333,-0,-0,0.66667
0.65704,0.39292,1.9711,-0.16062,-1.006,5.2305,0.84429,-0.28143,-1.9081,1.1257,-1.2497e-11,-0.95404,0,0,0.33333,7.8949e-16,0,0.66667
0.84332,0.68375,2.53,0.27563,0.81618,1.5889,-1.8596,0.61985,-1.7307,-2.4794,-2.395e-10,-0.86535,0,0,0.33333,3.9475e-16,0,0.66667
0.18374,0.3694,0.55122,-0.19589,-2.1649,20.938,0.28795,-0.095982,-1.8636,0.38393,-3.8755e-11,-0.93182,0,0,0.33333,-9.8686e-17,0,0.66667
0.85616,0.21676,2.5685,-0.42486,-1.1929,1.5265,2.91,-0.97,-1.3589,3.88,-7.3281e-10,-0.67947,0,0,0.33333,-1.7764e-15,0,0.66667
0.36437,0.2435,1.0931,-0.38475,-3.8387,14.237,1.1215,-0.37384,-1.4735,1.4954,6.411e-12,-0.73676,0,0,0.33333,-5.9212e-16,0,0.66667
0.89227,0.051908,2.6768,-0.67214,-1.567,1.3981,4.7978,-1.5993,-0.39353,6.3971,6.9873e-09,-0.19677,0,0,0.33333,-0,-0,0.66667
0.027712,0.30475,0.083135,-0.29288,-3.367,27.138,0.064929,-0.021643,-1.6949,0.086572,-1.1537e-08,-0.84743,0,0,0.33333,-0,-0,0.66667
0.08539,0.79016,0.25617,0.43524,5.0164,24.842,-0.29732,0.099107,-1.326,-0.39643,1.1203e-09,-0.66298,0,0,0.33333,-0,-0,0.66667
0.98141,0.81811,2.9442,0.47717,0.045227,0.38931,-3.7464,1.2488,-1.1906,-4.9952,8.2784e-10,-0.5953,0,0,0.33333,-0,-0,0.66667
0.6095,0.99872,1.8285,0.74808,5.6398,6.8894,-3.6476,1.2159,-0.011572,-4.8635,5.9286e-14,-0.0057858,0,0,0.33333,2.9606e-16,0,0.66667
0.41763,0.48497,1.2529,-0.022552,-0.21028,12.315,0.075349,-0.025116,-1.9975,0.10046,1.5481e-13,-0.99877,0,0,0.33333,-7.8949e-16,0,0.66667
0.16921,0.92122,0.50764,0.63183,7.2579,21.587,-0.85532,0.28511,-0.58009,-1.1404,-5.7363e-10,-0.29005,0,0,0.33333,-0,-0,0.66667
0.6499,0.91786,1.9497,0.62678,4.2343,5.7259,-3.2588,1.0863,-0.6025,-4.345,6.6613e-14,-0.30125,0,0,0.33333,1.579e-15,0,0.66667
0.036975,0.71269,0.11093,0.31903,3.6707,26.767,-0.094369,0.031456,-1.638,-0.12583,-1.2639e-09,-0.819,0,0,0.33333,-2.4672e-17,0,0.66667
0.31161,0.23791,0.93484,-0.39314,-4.0932,16.135,0.98006,-0.32669,-1.4503,1.3067,3.1425e-11,-0.72516,0,0,0.33333,3.9475e-16,0,0.66667
0.32348,0.62892,0.97044,0.19338,1.9725,15.652,-0.50045,0.16682,-1.8673,-0.66726,-2.2215e-11,-0.93365,0,0,0.33333,-0,-0,0.66667
0.60744,0.66326,1.8223,0.2449,1.7268,6.5387,-1.1901,0.39669,-1.7869,-1.5868,3.2555e-12,-0.89344,0,0,0.33333,-1.579e-15,0,0.66667
0.65083,0.04386,1.9525,-0.68421,-4.6657,5.7684,3.5624,-1.1875,-0.33481,4.7499,2.105e-13,-0.16741,0,0,0.33333,-0,-0,0.66667
0.84605,0.47027,2.5382,-0.044588,-0.12614,1.4659,0.30179,-0.1006,-1.9939,0.40239,-1.994e-09,-0.99694,0,0,0.33333,-0,-0,0.66667
0.92758,0.47058,2.7827,-0.044137,-0.04828,0.49443,0.32753,-0.10917,-1.9936,0.4367,1.9767e-07,-0.99682,0,0,0.33333,-0,-0,0.66667
0.66046,0.88105,1.9814,0.57157,3.7272,5.4114,-3.02,1.0067,-0.8384,-4.0267,2.754e-12,-0.4192,0,0,0.33333,1.579e-15,0,0.66667
0.57817,0.20679,1.7345,-0.43982,-3.3452,7.4469,2.0343,-0.67811,-1.3122,2.7124,8.8507e-13,-0.65611,0,0,0.33333,-0,-0,0.66667
0.39872,0.31854,1.1961,-0.27219,-2.6092,13.002,0.86821,-0.2894,-1.7364,1.1576,2.3875e-12,-0.86821,0,0,0.33333,-0,-0,0.66667
0.96661,0.9752,2.8998,0.7128,0.52141,0.83641,-5.512,1.8373,-0.19364,-7.3494,-9.3757e-07,-0.096818,0,0,0.33333,-0,-0,0.66667
0.15408,0.1192,0.46224,-0.5712,-6.5517,22.159,0.70408,-0.23469,-0.84018,0.93877,2.1465e-09,-0.42009,0,0,0.33333,9.8686e-17,-5.0047e-16,0.66667
0.89509,0.2356,2.6853,-0.39661,-0.77958,1.016,2.84,-0.94666,-1.4401,3.7866,-2.9118e-10,-0.72003,0,0,0.33333,1.579e-15,0,0.66667
0.31101,0.59706,0.93304,0.1456,1.4964,16.102,-0.36226,0.12075,-1.9254,-0.48301,-2.3292e-11,-0.96268,0,0,0.33333,-7.8949e-16,0,0.66667
0.54849,0.67908,1.6455,0.26862,2.1171,8.2062,-1.1787,0.3929,-1.7434,-1.5716,-3.8092e-13,-0.87172,0,0,0.33333,3.9475e-16,0,0.66667
0.68207,0.7577,2.0462,0.38655,2.3151,4.7404,-2.1092,0.70307,-1.4684,-2.8123,2.6952e-11,-0.73421,0,0,0.33333,-0,-0,0.66667
0.23647,0.16106,0.70941,-0.5084,-5.5994,18.972,0.96178,-0.32059,-1.0814,1.2824,1.5468e-10,-0.54069,0,0,0.33333,-0,-0,0.66667
0.16774,0.67084,0.50321,0.25626,2.8566,21.57,-0.34388,0.11463,-1.7659,-0.4585,-1.1703e-11,-0.88293,0,0,0.33333,-0,-0,0.66667
0.50848,0.47845,1.5254,-0.032325,-0.26879,9.3619,0.13149,-0.043831,-1.9957,0.17532,8.8735e-14,-0.99786,0,0,0.33333,-0,-0,0.66667
0.79186,0.48576,2.3756,-0.021359,-0.083141,2.3364,0.13531,-0.045103,-1.9977,0.18041,-2.8302e-12,-0.99884,0,0,0.33333,-1.579e-15,0,0.66667
0.69241,0.62988,2.0772,0.19482,1.111,4.399,-1.0792,0.35973,-1.8651,-1.4389,3.0674e-11,-0.93257,0,0,0.33333,-0,-0,0.66667
0.11897,0.57724,0.35692,0.11586,1.3047,23.484,-0.11028,0.03676,-1.9515,-0.14704,2.2532e-09,-0.97575,0,0,0.33333,-1.9737e-16,0,0.66667
0.90074,0.34296,2.7022,-0.23556,-0.40944,0.83143,1.6974,-0.5658,-1.8035,2.2632,5.2094e-09,-0.90175,0,0,0.33333,-1.7764e-15,0,0.66667
0.47974,0.87081,1.4392,0.55622,4.9925,10.463,-2.1347,0.71157,-0.90021,-2.8463,4.5564e-13,-0.45011,0,0,0.33333,-7.028e-16,0,0.66667
0.94668,0.024201,2.84,-0.7137,-0.84968,0.97011,5.4051,-1.8017,-0.18864,7.2068,1.223e-08,-0.094322,0,0,0.33333,-1.579e-15,0,0.66667
0.55343,0.97461,1.6603,0.71192,5.8853,8.3824,-3.152,1.0507,-0.1978,-4.2027,-2.1849e-13,-0.098902,0,0,0.33333,-0,-0,0.66667
0.084802,0.096035,0.25441,-0.60595,-7.0963,24.886,0.41108,-0.13703,-0.69494,0.54811,-2.6272e-08,-0.34747,0,0,0.33333,-0,-0,0.66667
0.20246,0.23104,0.60739,-0.40343,-4.4755,20.244,0.65344,-0.21781,-1.4212,0.87126,3.2026e-10,-0.71059,0,0,0.33333,-0,-0,0.66667
0.85424,0.84177,2.5627,0.51266,1.5034,1.6465,-3.5035,1.1678,-1.0661,-4.6713,1.1731e-09,-0.53306,0,0,0.33333,7.8949e-16,0,0.66667
0.70593,0.004859,2.1178,-0.74271,-4.4627,4.5771,4.1944,-1.3981,-0.038982,5.5925,5.6088e-13,-0.019491,0,0,0.33333,-0,-0,0.66667
0.89494,0.46809,2.6848,-0.047868,-0.086546,0.83268,0.34271,-0.11424,-1.9928,0.45695,3.8783e-08,-0.99638,0,0,0.33333,4.9343e-16,0,0.66667
0.32915,0.75698,0.98744,0.38547,3.9591,15.495,-1.015,0.33834,-1.4719,-1.3534,-1.9972e-11,-0.73597,0,0,0.33333,-7.8949e-16,0,0.66667
0.528,0.79567,1.584,0.44351,3.6702,8.9028,-1.8734,0.62447,-1.3001,-2.4979,-7.4318e-13,-0.65003,0,0,0.33333,7.8949e-16,0,0.66667
0.6504,0.75362,1.9512,0.38043,2.4692,5.4985,-1.9795,0.65982,-1.4857,-2.6393,1.0921e-11,-0.74283,0,0,0.33333,-0,-0,0.66667
0.59429,0.13512,1.7829,-0.54731,-4.0989,7.0859,2.6021,-0.86737,-0.93495,3.4695,1.0763e-12,-0.46748,0,0,0.33333,-0,-0,0.66667
0.23146,0.73631,0.69439,0.35447,3.8652,19.121,-0.65637,0.21879,-1.5528,-0.87516,-1.7144e-10,-0.77638,0,0,0.33333,-0,-0,0.66667
0.42682,0.53126,1.2805,0.046883,0.43287,12.005,-0.16009,0.053362,-1.9932,-0.21345,-1.176e-13,-0.99659,0,0,0.33333,-0,-0,0.66667
0.24811,0.18445,0.74433,-0.47333,-5.1642,18.521,0.93951,-0.31317,-1.2041,1.2527,1.2826e-10,-0.60206,0,0,0.33333,1.7214e-16,0,0.66667
0.84561,0.17353,2.5368,-0.4897,-1.5105,1.7404,3.3128,-1.1043,-1.147,4.4171,-1.1067e-09,-0.57349,0,0,0.33333,-0,-0,0.66667
0.98668,0.11002,2.96,-0.58498,-0.052149,0.51316,4.6175,-1.5392,-0.78285,6.1566,4.5634e-08,-0.39143,0,0,0.33333,-0,-0,0.66667
0.066571,0.30555,0.19971,-0.29168,-3.3402,25.582,0.15534,-0.051779,-1.6974,0.20712,5.1673e-09,-0.84869,0,0,0.33333,4.9343e-17,0,0.66667
0.71393,0.62743,2.1418,0.19115,1.0204,3.9158,-1.0918,0.36392,-1.8706,-1.4557,4.5191e-11,-0.9353,0,0,0.33333,-0,-0,0.66667
0.33012,0.37162,0.99035,-0.19257,-1.9541,15.411,0.50857,-0.16952,-1.8688,0.6781,1.9165e-11,-0.93439,0,0,0.33333,-3.9475e-16,0,0.66667
0.62544,0.072902,1.8763,-0.64065,-4.5795,6.3543,3.2055,-1.0685,-0.54073,4.274,5.7532e-13,-0.27037,0,0,0.33333,-0,-0,0.66667
0.25813,0.57542,0.77439,0.11313,1.2026,18.071,-0.23362,0.077874,-1.9537,-0.3115,-4.3727e-11,-0.97687,0,0,0.33333,-0,-0,0.66667
0.65101,0.80118,1.953,0.45176,2.9557,5.5349,-2.3528,0.78427,-1.2737,-3.1371,7.5504e-12,-0.63687,0,0,0.33333,-0,-0,0.66667
0.37115,0.73905,1.1134,0.35858,3.5489,13.988,-1.0647,0.35489,-1.5424,-1.4196,-5.6266e-12,-0.77118,0,0,0.33333,-0,-0,0.66667
0.29482,0.13208,0.88446,-0.55189,-5.8994,16.811,1.3017,-0.43389,-0.91715,1.7355,2.0906e-11,-0.45858,0,0,0.33333,-0,-2.3621e-16,0.66667
0.91176,0.66366,2.7353,0.24549,0.36907,0.72031,-1.7906,0.59688,-1.7854,-2.3875,1.1641e-08,-0.89272,0,0,0.33333,-0,-0,0.66667
0.9425,0.05954,2.8275,-0.66069,-0.79923,0.90967,4.9816,-1.6605,-0.44836,6.6421,-4.1788e-07,-0.22418,0,0,0.33333,6.7378e-16,0,0.66667
0.61355,0.56185,1.8407,0.092771,0.64089,6.3333,-0.45536,0.15179,-1.9703,-0.60714,2.4261e-12,-0.98516,0,0,0.33333,-9.8686e-16,0,0.66667
0.21447,0.81936,0.6434,0.47905,5.3187,19.802,-0.82192,0.27397,-1.1839,-1.0959,-2.9225e-10,-0.59196,0,0,0.33333,-0,-0,0.66667
0.93942,0.099735,2.8183,-0.6004,-0.72072,0.83844,4.5122,-1.5041,-0.71856,6.0163,1.5866e-07,-0.35928,0,0,0.33333,-0,-0,0.66667
0.75045,0.25306,2.2514,-0.3704,-1.7782,3.2532,2.2238,-0.74125,-1.5131,2.965,-1.2911e-10,-0.75656,0,0,0.33333,-0,-0,0.66667
0.75109,0.39933,2.2533,-0.151,-0.70528,3.1261,0.90734,-0.30245,-1.9192,1.2098,-6.5632e-11,-0.95959,0,0,0.33333,3.9475e-16,0,0.66667
0.21172,0.16181,0.63516,-0.50729,-5.6541,19.915,0.85923,-0.28641,-1.0849,1.1456,2.7706e-10,-0.54245,0,0,0.33333,-0,-0,0.66667
0.83016,0.75935,2.4905,0.38903,1.2852,1.869,-2.5836,0.86121,-1.4618,-3.4448,4.2329e-10,-0.73088,0,0,0.33333,1.579e-15,0,0.66667
0.2401,0.054716,0.72029,-0.66793,-7.4725,18.895,1.2829,-0.42764,-0.41345,1.7106,2.3906e-11,-0.20672,0,0,0.33333,5.3691e-16,0,0.66667
0.63162,0.51658,1.8949,0.024872,0.1649,5.8516,-0.12567,0.041892,-1.997,-0.16757,1.1653e-12,-0.99851,0,0,0.33333,-0,-0,0.66667
0.71074,0.039451,2.1322,-0.69082,-4.0412,4.4034,3.928,-1.3093,-0.30273,5.2373,-1.9451e-12,-0.15137,0,0,0.33333,-0,-0,0.66667
0.74238,0.0051089,2.2272,-0.74234,-3.9897,3.8244,4.4088,-1.4696,-0.040623,5.8784,3.0775e-12,-0.020312,0,0,0.33333,-0,-0,0.66667
0.39026,0.51603,1.1708,0.024048,0.23061,13.255,-0.075082,0.025027,-1.9978,-0.10011,-5.2621e-13,-0.9989,0,0,0.33333,-0,-0,0.66667
0.75983,0.1383,2.2795,-0.54255,-2.6009,3.2293,3.298,-1.0993,-0.95265,4.3973,-1.1739e-10,-0.47633,0,0,0.33333,-0,-0,0.66667
0.90294,0.30782,2.7088,-0.28827,-0.49562,0.84077,2.0823,-0.6941,-1.7048,2.7764,2.5423e-10,-0.8524,0,0,0.33333,-7.8949e-16,0,0.66667
0.58742,0.1235,1.7623,-0.56475,-4.2958,7.2885,2.6539,-0.88465,-0.8666,3.5386,1.1711e-12,-0.4333,0,0,0.33333,-9.8686e-17,0,0.66667
0.09041,0.72567,0.27123,0.3385,3.8716,24.634,-0.24483,0.08161,-1.5926,-0.32644,-1.2225e-09,-0.79628,0,0,0.33333,-0,-0,0.66667
0.12898,0.73047,0.38693,0.3457,3.9206,23.105,-0.35669,0.1189,-1.5746,-0.47559,4.4899e-10,-0.78728,0,0,0.33333,-1.9737e-16,0,0.66667
0.10526,0.92111,0.31579,0.63166,7.3888,24.083,-0.53192,0.17731,-0.5807,-0.70923,-3.9009e-09,-0.29035,0,0,0.33333,-0,-0,0.66667
0.17273,0.0034784,0.51818,-0.74478,-8.6647,21.487,1.0292,-0.34305,-0.02853,1.3722,-4.6255e-10,-0.014265,0,0,0.33333,-7.8949e-16,0,0.66667
0.12643,0.37235,0.37929,-0.19148,-2.1566,23.192,0.19367,-0.064558,-1.8705,0.25823,-2.107e-09,-0.93524,0,0,0.33333,-2.9606e-16,0,0.66667
0.7783,0.32348,2.3349,-0.26478,-1.1175,2.6536,1.6486,-0.54954,-1.7504,2.1981,-1.3815e-10,-0.87518,0,0,0.33333,-0,-0,0.66667
0.039412,0.10507,0.11823,-0.59239,-6.9677,26.683,0.18678,-0.062259,-0.75156,0.24904,1.9933e-07,-0.37578,0,0,0.33333,9.8686e-17,0,0.66667
0.24156,0.083162,0.72468,-0.62526,-6.954,18.822,1.2083,-0.40276,-0.60934,1.6111,4.9394e-11,-0.30467,0,0,0.33333,-1.9737e-16,0,0.66667
0.87907,0.67981,2.6372,0.26972,0.59852,1.1045,-1.8968,0.63227,-1.7411,-2.5291,-1.3736e-09,-0.87057,0,0,0.33333,-7.8949e-16,0,0.66667
0.97352,0.082767,2.9206,-0.62585,-0.28163,0.64598,4.8742,-1.6247,-0.60678,6.499,-4.0776e-08,-0.30339,0,0,0.33333,-0,-0,0.66667
0.60542,0.22161,1.8163,-0.41759,-3.0062,6.6854,2.0225,-0.67418,-1.3805,2.6967,-7.6161e-13,-0.69025,0,0,0.33333,-0,-0,0.66667
0.97624,0.70405,2.9287,0.30608,0.023669,0.2431,-2.3905,0.79682,-1.6661,-3.1873,-1.0481e-08,-0.83304,0,0,0.33333,-2.7351e-15,0,0.66667
0.043452,0.4648,0.13035,-0.052801,-0.60176,26.502,0.018354,-0.0061189,-1.9905,0.024472,-1.1829e-06,-0.99523,0,0,0.33333,-0,-0,0.66667
0.94857,0.022026,2.8457,-0.71696,-0.82612,0.96228,5.4407,-1.8136,-0.17192,7.2543,-1.9146e-07,-0.085962,0,0,0.33333,-0,5.246e-16,0.66667
0.3113,0.94095,0.93389,0.66142,7.0822,16.264,-1.6472,0.54906,-0.44526,-2.1962,-1.4733e-12,-0.22263,0,0,0.33333,-7.8949e-16,1.5502e-16,0.66667
0.79897,0.10573,2.3969,-0.5914,-2.436,2.5843,3.7801,-1.26,-0.75609,5.0402,-2.8509e-10,-0.37804,0,0,0.33333,-0,-0,0.66667
0.81063,0.70618,2.4319,0.30926,1.1228,2.1177,-2.0056,0.66853,-1.6596,-2.6741,2.2741e-10,-0.8298,0,0,0.33333,-7.8949e-16,0,0.66667
0.86,0.018908,2.58,-0.72164,-2.2238,1.8648,4.9649,-1.655,-0.14829,6.6198,5.6968e-10,-0.074143,0,0,0.33333,3.158e-15,0,0.66667
0.45855,0.92955,1.3757,0.64433,6.0077,11.204,-2.3637,0.78788,-0.52356,-3.1515,3.4639e-13,-0.26178,0,0,0.33333,-0,-0,0.66667
0.93064,0.47833,2.7919,-0.032503,-0.033306,0.46524,0.24199,-0.080664,-1.9957,0.32265,-3.8356e-08,-0.99785,0,0,0.33333,-0,-0,0.66667
0.25789,0.0080365,0.77368,-0.73795,-8.2527,18.263,1.5225,-0.5075,-0.063365,2.03,-2.219e-12,-0.031682,0,0,0.33333,-0,-0,0.66667
0.93445,0.98795,2.8033,0.73192,1.0935,1.0974,-5.4715,1.8238,-0.0948,-7.2954,2.0592e-08,-0.0474,0,0,0.33333,-1.579e-15,0,0.66667
0.61912,0.65454,1.8574,0.2318,1.5931,6.2226,-1.1481,0.3827,-1.8095,-1.5308,5.0236e-12,-0.90477,0,0,0.33333,9.8686e-17,0,0.66667
0.98544,0.82198,2.9563,0.48298,0.0025803,0.37594,-3.8076,1.2692,-1.1706,-5.0768,-1.9884e-08,-0.5853,0,0,0.33333,-0,-0,0.66667
0.032644,0.10689,0.097932,-0.58967,-6.9372,26.952,0.15399,-0.051331,-0.76342,0.20532,-4.6249e-08,-0.38171,0,0,0.33333,-4.9343e-17,0,0.66667
0.72517,0.34428,2.1755,-0.23358,-1.206,3.6909,1.3551,-0.4517,-1.8068,1.8068,-6.3952e-11,-0.9034,0,0,0.33333,-0,-0,0.66667
0.56555,0.20203,1.6967,-0.44696,-3.4799,7.8078,2.0222,-0.67408,-1.2892,2.6963,1.0381e-12,-0.64458,0,0,0.33333,7.8949e-16,0,0.66667
0.49242,0.65104,1.4773,0.22656,1.9394,9.8965,-0.89253,0.29751,-1.8174,-1.19,9.1704e-14,-0.90872,0,0,0.33333,-9.8686e-16,0,0.66667
0.25922,0.49867,0.77765,-0.0020014,-0.021234,18.025,0.0041504,-0.0013835,-2.0006,0.0055339,6.5181e-12,-1.0003,0,0,0.33333,-1.4803e-16,0,0.66667
0.32683,0.52068,0.98049,0.031027,0.31449,15.514,-0.081124,0.027041,-1.9965,-0.10817,-3.9559e-12,-0.99823,0,0,0.33333,-0,-0,0.66667
0.24946,0.52909,0.74839,0.04363,0.46561,18.396,-0.087071,0.029024,-1.9943,-0.1161,-2.4019e-11,-0.99716,0,0,0.33333,2.9606e-16,0,0.66667
0.21927,0.23406,0.6578,-0.39891,-4.3899,19.597,0.69974,-0.23325,-1.434,0.93298,2.3732e-10,-0.71702,0,0,0.33333,-0,-0,0.66667
0.79966,0.25893,2.399,-0.3616,-1.4026,2.3392,2.3133,-0.77109,-1.5349,3.0844,-2.6826e-10,-0.76745,0,0,0.33333,-0,-0,0.66667
0.5024,0.67891,1.5072,0.26836,2.271,9.5985,-1.0786,0.35953,-1.7438,-1.4381,-4.7184e-14,-0.87191,0,0,0.33333,-3.9475e-16,0,0.66667
0.08319,0.23104,0.24957,-0.40344,-4.6406,24.927,0.2685,-0.089499,-1.4206,0.358,-4.6086e-09,-0.71032,0,0,0.33333,-0,-0,0.66667
0.77698,0.10713,2.331,-0.5893,-2.6709,2.965,3.663,-1.221,-0.76463,4.884,-1.3942e-10,-0.38231,0,0,0.33333,-0,-0,0.66667
0.53365,0.54138,1.6009,0.062073,0.49678,8.597,-0.265,0.088334,-1.986,-0.35334,-2.8894e-14,-0.99302,0,0,0.33333,-0,-0,0.66667
0.73939,0.45409,2.2182,-0.068865,-0.33477,3.3449,0.40734,-0.13578,-1.9824,0.54313,-2.5446e-11,-0.99121,0,0,0.33333,-0,-0,0.66667
0.51539,0.29858,1.5462,-0.30214,-2.5149,9.211,1.2457,-0.41525,-1.6753,1.661,2.8721e-13,-0.83766,0,0,0.33333,7.8949e-16,0,0.66667
0.39995,0.87552,1.1998,0.56327,5.5348,13.089,-1.8022,0.60074,-0.87272,-2.403,1.001e-12,-0.43636,0,0,0.33333,1.579e-15,0,0.66667
0.98625,0.67703,2.9587,0.26555,-0.048432,0.15795,-2.0952,0.69839,-1.7491,-2.7936,2.9596e-08,-0.87454,0,0,0.33333,-0,-0,0.66667
0.028243,0.26881,0.084728,-0.34679,-3.9991,27.118,0.078354,-0.026118,-1.5719,0.10447,8.1109e-10,-0.78597,0,0,0.33333,-0,-0,0.66667
0.93276,0.78051,2.7983,0.42076,0.48796,0.66504,-3.1398,1.0466,-1.3714,-4.1864,7.3028e-11,-0.68568,0,0,0.33333,-2.2698e-15,0,0.66667
0.93085,0.95752,2.7926,0.68628,1.0344,1.0466,-5.1106,1.7035,-0.32476,-6.8141,1.2295e-07,-0.16238,0,0,0.33333,1.579e-15,0,0.66667
0.39092,0.035116,1.1728,-0.69733,-7.034,13.486,2.1808,-0.72693,-0.27189,2.9077,-2.4958e-13,-0.13595,0,0,0.33333,-0,-0,0.66667
0.21446,0.23879,0.64339,-0.39182,-4.3194,19.78,0.67225,-0.22408,-1.4536,0.89633,2.4802e-10,-0.72681,0,0,0.33333,-0,-0,0.66667
0.61921,0.54579,1.8576,0.068688,0.46848,6.1796,-0.34026,0.11342,-1.9825,-0.45368,2.1348e-12,-0.99123,0,0,0.33333,-0,-0,0.66667
0.17797,0.027285,0.53392,-0.70907,-8.1954,21.274,1.0096,-0.33652,-0.2125,1.3461,2.0193e-11,-0.10625,0,0,0.33333,-1.9737e-16,0,0.66667
0.80321,0.82878,2.4096,0.49317,1.9367,2.3995,-3.1689,1.0563,-1.1345,-4.2252,4.4421e-10,-0.56723,0,0,0.33333,-1.579e-15,0,0.66667
0.25393,0.60618,0.7618,0.15928,1.6994,18.234,-0.32357,0.10786,-1.9092,-0.43142,-6.232e-11,-0.95462,0,0,0.33333,3.9475e-16,0,0.66667
0.29081,0.30107,0.87242,-0.2984,-3.1314,16.875,0.69421,-0.2314,-1.6828,0.92561,5.3828e-11,-0.84138,0,0,0.33333,-0,-0,0.66667
0.91592,0.45719,2.7477,-0.064211,-0.086946,0.60978,0.47049,-0.15683,-1.9847,0.62732,-3.4883e-08,-0.99234,0,0,0.33333,-1.579e-15,0,0.66667
0.90292,0.17205,2.7088,-0.49192,-0.92702,1.0322,3.5533,-1.1844,-1.139,4.7377,-3.2179e-09,-0.56952,0,0,0.33333,-1.0693e-15,0,0.66667
0.53538,0.76354,1.6061,0.39531,3.2175,8.654,-1.6931,0.56438,-1.4438,-2.2575,-8.0236e-13,-0.72188,0,0,0.33333,-0,-0,0.66667
0.86284,0.96779,2.5885,0.70169,2.1004,1.7957,-4.8435,1.6145,-0.25029,-6.458,4.2698e-09,-0.12515,0,0,0.33333,1.9737e-15,0,0.66667
0.35253,0.057412,1.0576,-0.66388,-6.8927,14.793,1.8723,-0.62411,-0.4329,2.4964,-4.4875e-13,-0.21645,0,0,0.33333,-0,-0,0.66667
0.99788,0.27712,2.9937,-0.33433,0.13932,0.15787,2.669,-0.88965,-1.6031,3.5586,1.7716e-08,-0.80154,0,0,0.33333,1.9737e-15,-4.7847e-16,0.66667
0.43369,0.56475,1.3011,0.097129,0.89062,11.778,-0.33699,0.11233,-1.9671,-0.44932,-2.3559e-13,-0.98354,0,0,0.33333,-0,-0,0.66667
0.29481,0.87567,0.88444,0.5635,6.0311,16.816,-1.329,0.443,-0.87215,-1.772,-1.8408e-11,-0.43607,0,0,0.33333,-0,-0,0.66667
0.041574,0.025527,0.12472,-0.71171,-8.4844,26.606,0.23671,-0.078903,-0.19895,0.31561,1.0011e-06,-0.099476,0,0,0.33333,4.9343e-17,0,0.66667
0.98971,0.39489,2.9691,-0.15766,0.049161,0.080344,1.2483,-0.4161,-1.911,1.6644,5.7596e-08,-0.9555,0,0,0.33333,-1.579e-15,0,0.66667
0.46489,0.39844,1.3947,-0.15234,-1.3478,10.758,0.56659,-0.18886,-1.9173,0.75545,-6.3727e-14,-0.95864,0,0,0.33333,-3.9475e-16,0,0.66667
0.73459,0.069634,2.2038,-0.64555,-3.4688,3.8478,3.7937,-1.2646,-0.51867,5.0582,-1.436e-11,-0.25933,0,0,0.33333,-0,-0,0.66667
0.64081,0.48597,1.9224,-0.021039,-0.13653,5.6155,0.10786,-0.035952,-1.9983,0.14381,-1.253e-12,-0.99916,0,0,0.33333,-7.8949e-16,0,0.66667
0.72309,0.824,2.1693,0.486,2.6182,3.9102,-2.8114,0.93714,-1.1596,-3.7486,5.6681e-11,-0.57981,0,0,0.33333,-0,-0,0.66667
0.051111,0.13883,0.15333,-0.54175,-6.3329,26.214,0.22151,-0.073838,-0.95583,0.29535,2.6312e-08,-0.47791,0,0,0.33333,9.8686e-17,0,0.66667
0.92005,0.70973,2.7601,0.3146,0.42834,0.68523,-2.3156,0.77186,-1.648,-3.0874,-3.6801e-09,-0.82401,0,0,0.33333,-0,-0,0.66667
0.92684,0.90289,2.7805,0.60434,0.89865,0.95024,-4.481,1.4937,-0.70176,-5.9747,1.3124e-07,-0.35088,0,0,0.33333,-2.3685e-15,0,0.66667
0.552,0.351,1.656,-0.2235,-1.746,8.0873,0.98698,-0.32899,-1.8222,1.316,1.0014e-13,-0.91108,0,0,0.33333,-0,-0,0.66667
0.96392,0.17268,2.8917,-0.49098,-0.25386,0.50948,3.7861,-1.262,-1.1422,5.0481,-2.1213e-08,-0.5711,0,0,0.33333,-0,-0,0.66667
0.28096,0.26945,0.84287,-0.34583,-3.6635,17.252,0.7773,-0.2591,-1.5747,1.0364,6.7853e-11,-0.78737,0,0,0.33333,-0,-0,0.66667
0.60215,0.10684,1.8064,-0.58975,-4.3797,6.9128,2.8409,-0.94697,-0.76261,3.7879,9.6989e-13,-0.38131,0,0,0.33333,-0,-0,0.66667
0.39646,0.74668,1.1894,0.37002,3.579,13.113,-1.1736,0.3912,-1.5135,-1.5648,-1.4142e-12,-0.75674,0,0,0.33333,-1.9737e-16,0,0.66667
0.62802,0.93906,1.8841,0.6586,4.6981,6.3077,-3.3089,1.103,-0.45862,-4.4119,-4.5386e-13,-0.22931,0,0,0.33333,-1.579e-15,0,0.66667
0.30063,0.61927,0.9019,0.1789,1.8543,16.488,-0.43026,0.14342,-1.8863,-0.57368,-3.3141e-11,-0.94314,0,0,0.33333,3.9475e-16,0,0.66667
0.81936,0.65098,2.4581,0.22647,0.77311,1.9278,-1.4845,0.49483,-1.8176,-1.9793,1.9558e-10,-0.90879,0,0,0.33333,3.9475e-16,0,0.66667
0.069786,0.25627,0.20936,-0.36559,-4.2031,25.458,0.2041,-0.068034,-1.5246,0.27214,-3.7854e-09,-0.76229,0,0,0.33333,-0,-0,0.66667
0.041878,0.59076,0.12563,0.13614,1.5541,26.566,-0.045611,0.015204,-1.9345,-0.060814,3.3579e-07,-0.96725,0,0,0.33333,7.4015e-17,0,0.66667
0.049396,0.098127,0.14819,-0.60281,-7.0916,26.287,0.23821,-0.079404,-0.70839,0.31762,-2.1786e-09,-0.3542,0,0,0.33333,-0,-0,0.66667
0.15046,0.30816,0.45137,-0.28776,-3.2318,22.252,0.34636,-0.11545,-1.7057,0.46181,-4.521e-10,-0.85285,0,0,0.33333,1.9737e-16,0,0.66667
0.39535,0.42659,1.1861,-0.11012,-1.052,13.085,0.34829,-0.1161,-1.9563,0.46439,2.0536e-12,-0.97817,0,0,0.33333,-0,-0,0.66667
0.95539,0.83906,2.8662,0.50859,0.37213,0.58967,-3.8872,1.2957,-1.0807,-5.183,4.374e-08,-0.54034,0,0,0.33333,3.9475e-16,0,0.66667
0.1108,0.81344,0.33239,0.47016,5.4062,23.839,-0.41673,0.13891,-1.2152,-0.55564,1.3595e-09,-0.60761,0,0,0.33333,-0,-0,0.66667
0.64755,0.082432,1.9427,-0.62635,-4.2539,5.7831,3.2448,-1.0816,-0.60442,4.3264,-1.9318e-14,-0.30221,0,0,0.33333,-7.8949e-16,0,0.66667
0.52762,0.49316,1.5829,-0.010262,-0.08287,8.7759,0.043314,-0.014438,-1.9996,0.057752,4.8867e-14,-0.99978,0,0,0.33333,3.9475e-16,0,0.66667
0.35324,0.91869,1.0597,0.62803,6.4865,14.747,-1.7748,0.59159,-0.5969,-2.3664,-8.6042e-14,-0.29845,0,0,0.33333,-0,-0,0.66667
0.1982,0.10858,0.5946,-0.58714,-6.6363,20.457,0.93096,-0.31032,-0.77359,1.2413,3.1273e-10,-0.3868,0,0,0.33333,-0,-0,0.66667
0.22059,0.94728,0.66178,0.67092,7.581,19.632,-1.184,0.39467,-0.3994,-1.5787,-4.7229e-11,-0.1997,0,0,0.33333,-0,-0,0.66667
0.043822,0.39758,0.13146,-0.15362,-1.7541,26.489,0.053856,-0.017952,-1.9159,0.071808,-2.3042e-07,-0.95794,0,0,0.33333,4.9343e-17,0,0.66667
0.71316,0.25558,2.1395,-0.36662,-1.9991,4.0256,2.0917,-0.69723,-1.522,2.7889,-5.9294e-11,-0.76102,0,0,0.33333,-0,-0,0.66667
0.65384,0.50928,1.9615,0.013915,0.087474,5.2874,-0.072784,0.024261,-1.9991,-0.097045,1.113e-12,-0.99957,0,0,0.33333,-0,-0,0.66667
0.44377,0.84921,1.3313,0.52382,4.8915,11.599,-1.8596,0.61988,-1.0243,-2.4795,1.0874e-12,-0.51217,0,0,0.33333,-1.579e-15,0,0.66667
0.71894,0.19793,2.1568,-0.4531,-2.459,3.9687,2.606,-0.86867,-1.2701,3.4747,-5.8038e-11,-0.63506,0,0,0.33333,-0,-0,0.66667
0.10998,0.9803,0.32993,0.72044,8.5083,23.916,-0.63385,0.21128,-0.15445,-0.84514,-1.6073e-09,-0.077227,0,0,0.33333,-0,-0,0.66667
0.93872,0.75618,2.8162,0.38426,0.38252,0.57768,-2.8857,0.96191,-1.4753,-3.8476,-1.3771e-09,-0.73766,0,0,0.33333,-0,-0,0.66667
0.84763,0.72608,2.5429,0.33912,0.98827,1.5709,-2.2996,0.76652,-1.591,-3.0661,3.4871e-10,-0.79548,0,0,0.33333,-1.579e-15,0,0.66667
0.65904,0.61266,1.9771,0.169,1.0536,5.1838,-0.89099,0.297,-1.898,-1.188,1.3449e-11,-0.94901,0,0,0.33333,-0,-0,0.66667
0.37883,0.84554,1.1365,0.51832,5.1692,13.79,-1.5708,0.52361,-1.0455,-2.0944,-1.1302e-13,-0.52276,0,0,0.33333,-0,-0,0.66667
0.41657,0.50484,1.2497,0.0072589,0.067753,12.351,-0.024191,0.0080636,-1.9999,-0.032254,-2.2607e-13,-0.99994,0,0,0.33333,-0,-0,0.66667
0.48215,0.83986,1.4465,0.50979,4.5353,10.355,-1.9664,0.65545,-1.0765,-2.6218,3.0564e-13,-0.53825,0,0,0.33333,9.8686e-16,0,0.66667
0.93528,0.52966,2.8059,0.044485,0.041002,0.42503,-0.33285,0.11095,-1.9939,-0.44379,1.8009e-07,-0.99695,0,0,0.33333,-3.9475e-16,0,0.66667
0.86359,0.77173,2.5908,0.4076,1.0758,1.4104,-2.816,0.93866,-1.4089,-3.7547,8.7154e-10,-0.70445,0,0,0.33333,-0,-0,0.66667
0.47792,0.60191,1.4338,0.15286,1.3299,10.338,-0.58445,0.19482,-1.9165,-0.77927,1.6376e-13,-0.95826,0,0,0.33333,-0,-0,0.66667
0.55452,0.99925,1.6636,0.74888,6.2219,8.3914,-3.3221,1.1074,-0.0067188,-4.4295,6.839e-14,-0.0033594,0,0,0.33333,9.3752e-16,0,0.66667
0.8754,0.50913,2.6262,0.0137,0.030421,1.0654,-0.095943,0.031981,-1.9995,-0.12792,-9.9887e-09,-0.99974,0,0,0.33333,-3.158e-15,0,0.66667
0.94926,0.84801,2.8478,0.52202,0.46252,0.65163,-3.9643,1.3214,-1.0314,-5.2857,-1.231e-08,-0.51568,0,0,0.33333,-0,-0,0.66667
0.63918,0.92265,1.9176,0.63397,4.3939,5.9991,-3.2418,1.0806,-0.57062,-4.3224,-3.6282e-13,-0.28531,0,0,0.33333,7.8949e-16,0,0.66667
0.74852,0.89278,2.2456,0.58917,2.9773,3.5011,-3.5281,1.176,-0.76547,-4.7041,5.6771e-11,-0.38274,0,0,0.33333,7.8949e-16,0,0.66667
0.35162,0.34528,1.0549,-0.23209,-2.3183,14.644,0.65286,-0.21762,-1.8091,0.87048,1.229e-11,-0.90453,0,0,0.33333,1.579e-15,0,0.66667
0.91803,0.11432,2.7541,-0.57852,-0.9548,0.99333,4.2488,-1.4163,-0.80956,5.665,5.4563e-09,-0.40478,0,0,0.33333,-0,-0,0.66667
0.83675,0.5015,2.5103,0.0022474,0.0067735,1.601,-0.015044,0.0050148,-2.0006,-0.020059,1.0138e-09,-1.0003,0,0,0.33333,-0,-0,0.66667
0.55206,0.80849,1.6562,0.46273,3.6933,8.2063,-2.0436,0.68121,-1.2389,-2.7248,-1.0583e-12,-0.61945,0,0,0.33333,1.9737e-16,0,0.66667
0.86763,0.79823,2.6029,0.44734,1.159,1.3971,-3.105,1.035,-1.2877,-4.14,3.2094e-10,-0.64384,0,0,0.33333,1.579e-15,0,0.66667
0.84987,0.34178,2.5496,-0.23733,-0.66635,1.4726,1.6136,-0.53787,-1.8003,2.1515,-7.9897e-10,-0.90013,0,0,0.33333,-2.1169e-15,0,0.66667
0.80841,0.63881,2.4252,0.20822,0.7536,2.098,-1.3466,0.44887,-1.8452,-1.7955,1.3828e-10,-0.92261,0,0,0.33333,1.579e-15,0,0.66667
0.13069,0.59766,0.39208,0.14649,1.6456,23.02,-0.15316,0.051053,-1.9239,-0.20421,1.5045e-09,-0.96195,0,0,0.33333,-0,-0,0.66667
0.536,0.071404,1.608,-0.64289,-5.3988,8.8192,2.7567,-0.91891,-0.53006,3.6757,2.7267e-13,-0.26503,0,0,0.33333,-0,-0,0.66667
0.90078,0.69106,2.7023,0.28659,0.5058,0.86298,-2.0652,0.68841,-1.7082,-2.7536,1.6361e-09,-0.85412,0,0,0.33333,-0,-0,0.66667
0.77083,0.62552,2.3125,0.18828,0.81399,2.7566,-1.1611,0.38702,-1.8748,-1.5481,1.0759e-10,-0.93741,0,0,0.33333,-0,-0,0.66667
0.42071,0.054666,1.2621,-0.668,-6.5166,12.46,2.2483,-0.74943,-0.41356,2.9977,-4.5097e-13,-0.20678,0,0,0.33333,-3.9475e-16,0,0.66667
0.97788,0.3858,2.9336,-0.17131,0.004776,0.14975,1.3401,-0.44671,-1.895,1.7869,-2.0263e-07,-0.94751,0,0,0.33333,1.579e-15,0,0.66667
0.25077,0.43402,0.75232,-0.098967,-1.0562,18.349,0.19855,-0.066182,-1.966,0.26473,3.9655e-11,-0.98299,0,0,0.33333,5.9212e-16,0,0.66667
0.33361,0.76528,1.0008,0.39792,4.0768,15.338,-1.062,0.354,-1.4363,-1.416,-1.6805e-11,-0.71813,0,0,0.33333,-0,-0,0.66667
0.9542,0.5192,2.8626,0.028797,0.014158,0.27006,-0.21982,0.073274,-1.9969,-0.2931,2.9126e-07,-0.99844,0,0,0.33333,-0,-0,0.66667
0.80872,0.7709,2.4261,0.40635,1.5196,2.2243,-2.629,0.87633,-1.4125,-3.5053,3.9445e-10,-0.70624,0,0,0.33333,-0,-0,0.66667
0.90034,0.82369,2.701,0.48554,0.93894,1.0522,-3.4972,1.1657,-1.1611,-4.663,2.3523e-09,-0.58057,0,0,0.33333,-0,-0,0.66667
0.01159,0.9442,0.034769,0.66631,7.9127,27.79,-0.061776,0.020593,-0.42138,-0.082367,9.646e-07,-0.21069,0,0,0.33333,-0,-0,0.66667
0.37976,0.85097,1.1393,0.52646,5.2506,13.762,-1.5994,0.53315,-1.0143,-2.1326,-2.8089e-14,-0.50717,0,0,0.33333,-0,-0,0.66667
0.23552,0.65821,0.70657,0.23732,2.5652,18.945,-0.44714,0.14905,-1.8008,-0.59619,-1.0745e-10,-0.90039,0,0,0.33333,-0,-0,0.66667
0.29594,0.39715,0.88781,-0.15428,-1.603,16.659,0.36525,-0.12175,-1.9154,0.487,3.1943e-11,-0.95771,0,0,0.33333,3.9475e-16,0,0.66667
0.738,0.88047,2.214,0.57071,2.9784,3.6895,-3.3694,1.1231,-0.84205,-4.4926,4.821e-11,-0.42102,0,0,0.33333,-0,-0,0.66667
0.72408,0.13761,2.1723,-0.54358,-2.9525,3.9465,3.1488,-1.0496,-0.94872,4.1984,-4.0937e-11,-0.47436,0,0,0.33333,-0,-0,0.66667
0.4618,0.40829,1.3854,-0.13757,-1.2212,10.856,0.50824,-0.16941,-1.9332,0.67765,5.6788e-14,-0.9666,0,0,0.33333,-0,-0,0.66667
0.36527,0.60157,1.0958,0.15235,1.4991,14.144,-0.4452,0.1484,-1.9171,-0.5936,-6.6749e-12,-0.95856,0,0,0.33333,-0,-0,0.66667
0.58469,0.65981,1.7541,0.23972,1.7676,7.1596,-1.1213,0.37376,-1.7959,-1.4951,1.0595e-12,-0.89795,0,0,0.33333,-1.579e-15,0,0.66667
0.53371,0.97983,1.6011,0.71974,6.1435,8.9612,-3.0731,1.0244,-0.15779,-4.0974,-8.9706e-14,-0.078897,0,0,0.33333,-0,-0,0.66667
0.55058,0.79119,1.6517,0.43678,3.4841,8.232,-1.9239,0.64129,-1.3213,-2.5651,-1.0438e-12,-0.66065,0,0,0.33333,-0,-0,0.66667
0.61548,0.080558,1.8464,-0.62916,-4.5812,6.5997,3.0979,-1.0326,-0.59181,4.1305,6.6591e-13,-0.2959,0,0,0.33333,7.8949e-16,0,0.66667
0.39565,0.51625,1.1869,0.024378,0.23254,13.069,-0.077162,0.025721,-1.9972,-0.10288,-4.9734e-13,-0.99858,0,0,0.33333,-0,-0,0.66667
0.77172,0.86542,2.3152,0.54813,2.5113,3.0126,-3.384,1.128,-0.93124,-4.512,1.5338e-10,-0.46562,0,0,0.33333,-0,-0,0.66667
0.2512,0.54343,0.75361,0.065152,0.69476,18.331,-0.13093,0.043643,-1.9847,-0.17457,-2.8417e-11,-0.99235,0,0,0.33333,-0,-0,0.66667
0.65576,0.19345,1.9673,-0.45983,-2.9777,5.4244,2.4123,-0.8041,-1.2487,3.2164,-8.6036e-12,-0.62435,0,0,0.33333,1.579e-15,0,0.66667
0.9604,0.34749,2.8812,-0.22877,-0.092105,0.29105,1.7577,-0.5859,-1.8141,2.3436,4.2739e-08,-0.90705,0,0,0.33333,-0,-0,0.66667
0.0035548,0.57727,0.010664,0.1159,1.3248,28.107,-0.0032964,0.0011003,-1.9516,-0.0043945,2.244e-06,-0.97582,0,0,0.33333,-6.1679e-18,0,0.66667
0.72336,0.56502,2.1701,0.09753,0.50203,3.6859,-0.56439,0.18813,-1.9667,-0.75253,2.8155e-11,-0.98335,0,0,0.33333,-0,-0,0.66667
0.109,0.47879,0.32699,-0.031812,-0.35869,23.879,0.027739,-0.0092463,-1.9965,0.036985,-5.237e-09,-0.99823,0,0,0.33333,-0,-0,0.66667
0.54379,0.48529,1.6314,-0.022063,-0.17361,8.2925,0.09598,-0.031993,-1.9977,0.12797,7.6779e-14,-0.99886,0,0,0.33333,7.8949e-16,0,0.66667
0.62692,0.93346,1.8807,0.65019,4.6415,6.3267,-3.2609,1.087,-0.49746,-4.3479,-5.9597e-13,-0.24873,0,0,0.33333,1.9737e-16,0,0.66667
0.24295,0.0050485,0.72884,-0.74243,-8.3746,18.822,1.443,-0.48099,-0.04016,1.924,8.8283e-12,-0.02008,0,0,0.33333,1.579e-15,0,0.66667
0.91384,0.8233,2.7415,0.48495,0.79494,0.91227,-3.5454,1.1818,-1.1632,-4.7272,-2.9751e-09,-0.58158,0,0,0.33333,-1.579e-15,0,0.66667
0.62231,0.65042,1.8669,0.22563,1.5393,6.1362,-1.1233,0.37443,-1.8192,-1.4977,5.598e-12,-0.90958,0,0,0.33333,-7.8949e-16,0,0.66667
0.23169,0.051629,0.69508,-0.67256,-7.5606,19.213,1.2466,-0.41554,-0.39137,1.6622,2.4646e-11,-0.19569,0,0,0.33333,-1.9737e-16,0,0.66667
0.77013,0.68277,2.3104,0.27415,1.2001,2.8106,-1.6891,0.56302,-1.7329,-2.2521,1.4031e-10,-0.86646,0,0,0.33333,1.1842e-15,0,0.66667
0.10551,0.28883,0.31652,-0.31676,-3.607,24.032,0.26736,-0.089121,-1.6431,0.35648,-1.3946e-09,-0.82154,0,0,0.33333,-0,-0,0.66667
0.55523,0.22381,1.6657,-0.41429,-3.2709,8.0832,1.8402,-0.61339,-1.3897,2.4536,9.8788e-13,-0.69486,0,0,0.33333,-0,-0,0.66667
0.094956,0.23585,0.28487,-0.39623,-4.5452,24.458,0.30099,-0.10033,-1.4415,0.40132,-4.2476e-10,-0.72076,0,0,0.33333,-1.9737e-16,0,0.66667
0.58098,0.9953,1.743,0.74295,5.8979,7.6462,-3.4531,1.151,-0.037756,-4.6042,-5.2625e-14,-0.018878,0,0,0.33333,-7.8949e-16,0,0.66667
0.25298,0.54846,0.75894,0.072683,0.77438,18.264,-0.1471,0.049033,-1.9807,-0.19613,-2.9778e-11,-0.99035,0,0,0.33333,-0,-0,0.66667
0.64947,0.9985,1.9484,0.74775,5.1855,5.8805,-3.8851,1.295,-0.012596,-5.1801,-3.8636e-14,-0.0062981,0,0,0.33333,9.8432e-16,0,0.66667
0.71583,0.086208,2.1475,-0.62069,-3.5176,4.2072,3.5544,-1.1848,-0.63014,4.7393,-1.2415e-11,-0.31507,0,0,0.33333,-0,-0,0.66667
0.52419,0.62285,1.5726,0.18428,1.5028,8.9036,-0.77279,0.2576,-1.8797,-1.0304,-2.1599e-13,-0.93986,0,0,0.33333,-1.9737e-16,0,0.66667
0.65752,0.25229,1.9726,-0.37156,-2.3675,5.317,1.9545,-0.6515,-1.5101,2.606,-1.4064e-11,-0.75503,0,0,0.33333,-0,-0,0.66667
0.81329,0.72625,2.4399,0.33938,1.2213,2.0952,-2.2081,0.73604,-1.5907,-2.9442,2.7568e-10,-0.79536,0,0,0.33333,-0,-0,0.66667
0.80751,0.60856,2.4225,0.16283,0.58933,2.0949,-1.0519,0.35064,-1.905,-1.4026,8.0748e-11,-0.95251,0,0,0.33333,-0,-0,0.66667
0.61968,0.4162,1.859,-0.1257,-0.85789,6.1764,0.62314,-0.20771,-1.9433,0.83085,-3.7386e-12,-0.97165,0,0,0.33333,-0,-0,0.66667
0.4511,0.030396,1.3533,-0.70441,-6.6843,11.493,2.5421,-0.84736,-0.23689,3.3894,3.1974e-14,-0.11845,0,0,0.33333,4.9343e-16,0,0.66667
0.40795,7.8936e-05,1.2238,-0.74988,-7.5009,12.951,2.4473,-0.81577,-0.0019577,3.2631,1.692e-13,-0.00097887,0,0,0.33333,-0,-0,0.66667
0.87475,0.32057,2.6242,-0.26914,-0.62161,1.158,1.8834,-0.62781,-1.7427,2.5112,1.3996e-09,-0.87136,0,0,0.33333,-0,-0,0.66667
0.70293,0.94575,2.1088,0.66862,3.9789,4.5439,-3.76,1.2533,-0.41073,-5.0133,2.3193e-12,-0.20537,0,0,0.33333,-0,-0,0.66667
0.18494,0.10528,0.55481,-0.59208,-6.7318,20.969,0.87597,-0.29199,-0.7532,1.168,3.9581e-10,-0.3766,0,0,0.33333,-3.9475e-16,0,0.66667
0.56573,0.46482,1.6972,-0.052771,-0.39995,7.6541,0.23884,-0.079612,-1.9905,0.31845,-9.8199e-14,-0.99525,0,0,0.33333,-9.8686e-16,0,0.66667
0.90881,0.71955,2.7264,0.32933,0.53284,0.80926,-2.3944,0.79813,-1.6154,-3.1925,2.1548e-09,-0.80771,0,0,0.33333,-0,-0,0.66667
0.15069,0.92776,0.45207,0.64164,7.4245,22.309,-0.77351,0.25784,-0.53568,-1.0313,-1.6609e-09,-0.26784,0,0,0.33333,-0,-0,0.66667
0.84552,0.59636,2.5366,0.14453,0.41329,1.495,-0.97765,0.32588,-1.9265,-1.3035,1.3397e-09,-0.96327,0,0,0.33333,-0,-0,0.66667
0.8202,0.73389,2.4606,0.35084,1.2179,1.9928,-2.3021,0.76735,-1.5615,-3.0694,3.3166e-10,-0.78077,0,0,0.33333,1.579e-15,0,0.66667
0.49934,0.42485,1.498,-0.11272,-0.95113,9.6541,0.4503,-0.1501,-1.9547,0.6004,1.2546e-14,-0.97734,0,0,0.33333,7.8949e-16,0,0.66667
0.037584,0.2307,0.11275,-0.40395,-4.6733,26.746,0.12146,-0.040485,-1.4191,0.16194,5.7126e-09,-0.70956,0,0,0.33333,-0,-0,0.66667
0.1475,0.010517,0.44251,-0.73422,-8.6012,22.458,0.8664,-0.2888,-0.082633,1.1552,1.7253e-09,-0.041317,0,0,0.33333,-0,-0,0.66667
0.92264,0.22123,2.7679,-0.41816,-0.57825,0.75378,3.0865,-1.0288,-1.3793,4.1153,-1.1617e-09,-0.68964,0,0,0.33333,3.158e-15,0,0.66667
0.044155,0.73004,0.13246,0.34506,3.9739,26.481,-0.12189,0.040629,-1.5763,-0.16252,2.2839e-09,-0.78815,0,0,0.33333,-0,-0,0.66667
0.3725,0.76511,1.1175,0.39767,3.9432,13.956,-1.1851,0.39502,-1.4372,-1.5801,-4.2244e-12,-0.71862,0,0,0.33333,-7.8949e-16,0,0.66667
0.61904,0.72466,1.8571,0.33699,2.3373,6.2741,-1.6689,0.55629,-1.5961,-2.2252,4.0635e-12,-0.79806,0,0,0.33333,-0,-0,0.66667
0.19695,0.47846,0.59084,-0.032305,-0.35382,20.415,0.050899,-0.016966,-1.9958,0.067865,1.8286e-11,-0.99788,0,0,0.33333,-0,-0,0.66667
0.98108,0.74575,2.9432,0.36862,0.0027219,0.27097,-2.8932,0.96439,-1.5172,-3.8576,4.4808e-09,-0.7586,0,0,0.33333,2.9494e-15,0,0.66667
0.15598,0.58103,0.46793,0.12155,1.3541,22.021,-0.15167,0.050556,-1.9474,-0.20222,-4.6681e-10,-0.9737,0,0,0.33333,-0,-0,0.66667
0.53968,0.01942,1.619,-0.72087,-6.0989,8.788,3.1123,-1.0374,-0.15164,4.1497,1.9762e-14,-0.075818,0,0,0.33333,-0,-0,0.66667
0.61801,0.79139,1.854,0.43708,3.0734,6.365,-2.161,0.72033,-1.3201,-2.8813,1.6651e-12,-0.66007,0,0,0.33333,-0,-0,0.66667
0.23099,0.092722,0.69297,-0.61092,-6.8199,19.215,1.1289,-0.37631,-0.67391,1.5052,9.4082e-11,-0.33695,0,0,0.33333,-5.181e-16,4.2756e-19,0.66667
0.46631,0.95131,1.3989,0.67696,6.2839,10.983,-2.5254,0.84179,-0.37013,-3.3672,1.9318e-13,-0.18506,0,0,0.33333,7.8949e-16,-3.894e-16,0.66667
0.49101,0.89664,1.473,0.59496,5.2896,10.139,-2.337,0.77901,-0.74089,-3.116,1.7164e-13,-0.37044,0,0,0.33333,-7.8949e-16,0,0.66667
0.76686,0.34878,2.3006,-0.22683,-1.001,2.8481,1.3916,-0.46385,-1.8176,1.8554,-1.0255e-10,-0.90878,0,0,0.33333,-1.579e-15,0,0.66667
0.63428,0.42487,1.9028,-0.1127,-0.74404,5.7931,0.57185,-0.19062,-1.9541,0.76247,-5.2841e-12,-0.97706,0,0,0.33333,-0,-0,0.66667
0.46755,0.81144,1.4027,0.46716,4.2137,10.794,-1.7474,0.58246,-1.2252,-2.3298,5.4212e-13,-0.61262,0,0,0.33333,9.3752e-16,0,0.66667
0.66694,0.55931,2.0008,0.08897,0.54157,4.9726,-0.4747,0.15823,-1.9722,-0.63294,9.4366e-12,-0.98611,0,0,0.33333,-9.8678e-16,0,0.66667
0.45338,0.79708,1.3601,0.44562,4.0801,11.24,-1.6163,0.53876,-1.2938,-2.155,9.1849e-13,-0.64691,0,0,0.33333,-0,-0,0.66667
0.52571,0.23067,1.5771,-0.404,-3.3409,8.948,1.6991,-0.56636,-1.419,2.2655,6.5681e-13,-0.70951,0,0,0.33333,-7.8949e-16,0,0.66667
0.65857,0.084514,1.9757,-0.62323,-4.1226,5.5112,3.2835,-1.0945,-0.6188,4.378,-6.5192e-13,-0.3094,0,0,0.33333,-0,-0,0.66667
0.1812,0.9867,0.54359,0.73005,8.4506,21.157,-1.0583,0.35275,-0.10424,-1.411,-2.6156e-10,-0.052121,0,0,0.33333,1.9737e-16,0,0.66667
0.78805,0.58696,2.3641,0.13045,0.51945,2.4216,-0.82238,0.27413,-1.9392,-1.0965,9.5892e-11,-0.96962,0,0,0.33333,-0,-0,0.66667
0.60287,0.88024,1.8086,0.57037,4.2165,6.8755,-2.7508,0.91694,-0.84327,-3.6678,-1.0143e-12,-0.42164,0,0,0.33333,-0,-0,0.66667
0.98033,0.026902,2.941,-0.70965,-0.28832,0.75568,5.5655,-1.8552,-0.20967,7.4207,-1.2422e-07,-0.10483,0,0,0.33333,1.579e-15,-1.8914e-16,0.66667
0.22238,0.37855,0.66715,-0.18218,-1.978,19.441,0.3241,-0.10803,-1.8824,0.43214,9.4358e-11,-0.94121,0,0,0.33333,-0,-0,0.66667
0.46627,0.28498,1.3988,-0.32254,-2.8756,10.764,1.2031,-0.40103,-1.6306,1.6041,-5.3413e-13,-0.81532,0,0,0.33333,1.579e-15,0,0.66667
0.89564,0.66299,2.6869,0.24449,0.45292,0.89332,-1.7518,0.58393,-1.7873,-2.3357,-7.2703e-09,-0.89365,0,0,0.33333,-0,-0,0.66667
0.60143,0.13909,1.8043,-0.54136,-3.9952,6.8879,2.6047,-0.86825,-0.95716,3.473,8.3911e-13,-0.47858,0,0,0.33333,7.8949e-16,0,0.66667
0.72596,0.54431,2.1779,0.066464,0.33877,3.6255,-0.386,0.12867,-1.9835,-0.51467,2.1017e-11,-0.99177,0,0,0.33333,-0,-0,0.66667
0.41367,0.0111,1.241,-0.73335,-7.2755,12.746,2.4269,-0.80897,-0.087148,3.2359,1.4477e-13,-0.043574,0,0,0.33333,-1.579e-15,0,0.66667
0.68431,0.48235,2.0529,-0.026469,-0.15347,4.5526,0.14491,-0.048302,-1.997,0.19321,-4.1675e-12,-0.99849,0,0,0.33333,-0,-0,0.66667
0.94606,0.62019,2.8382,0.18029,0.12803,0.37314,-1.3645,0.45484,-1.8844,-1.8193,-4.2236e-08,-0.94222,0,0,0.33333,-1.9737e-15,0,0.66667
0.20019,0.039015,0.60056,-0.69148,-7.9047,20.416,1.1074,-0.36913,-0.29985,1.4765,8.6644e-11,-0.14992,0,0,0.33333,-0,2.9485e-16,0.66667
0.80737,0.37334,2.4221,-0.18998,-0.69002,2.1077,1.2271,-0.40903,-1.8723,1.6361,-1.3445e-10,-0.93615,0,0,0.33333,3.9475e-16,0,0.66667
0.96954,0.73929,2.9086,0.35894,0.096999,0.32908,-2.784,0.92801,-1.5419,-3.712,-2.0298e-09,-0.77093,0,0,0.33333,-0,-0,0.66667
0.014569,0.13907,0.043706,-0.5414,-6.3442,27.669,0.0631,-0.021033,-0.95757,0.084134,1.4773e-07,-0.47878,0,0,0.33333,-2.4672e-17,4.7081e-16,0.66667
0.21521,0.82021,0.64563,0.48031,5.3315,19.774,-0.82694,0.27565,-1.1796,-1.1026,-2.8605e-10,-0.58979,0,0,0.33333,-0,-0,0.66667
0.11738,0.64385,0.35213,0.21577,2.4382,23.552,-0.20262,0.067538,-1.8337,-0.27015,1.037e-09,-0.91686,0,0,0.33333,-1.39e-16,0,0.66667
0.76742,0.097061,2.3023,-0.60441,-2.8578,3.1586,3.7107,-1.2369,-0.7018,4.9476,-9.3745e-11,-0.3509,0,0,0.33333,3.158e-15,0,0.66667
0.081217,0.84402,0.24365,0.51603,5.9931,25.016,-0.33528,0.11176,-1.0543,-0.44705,-7.4527e-10,-0.52714,0,0,0.33333,-1.9737e-16,0,0.66667
0.99841,0.88199,2.9952,0.57298,-0.11737,0.44388,-4.5766,1.5255,-0.83286,-6.1021,-1.0836e-08,-0.41643,0,0,0.33333,3.158e-15,0,0.66667
0.38961,0.052719,1.1688,-0.67092,-6.7507,13.512,2.0912,-0.69706,-0.3995,2.7883,-5.4046e-13,-0.19975,0,0,0.33333,-3.9475e-16,3.3952e-16,0.66667
0.9052,0.029718,2.7156,-0.70542,-1.4814,1.3168,5.1084,-1.7028,-0.2318,6.8112,3.9911e-08,-0.1159,0,0,0.33333,-1.579e-15,0,0.66667
0.18858,0.53137,0.56573,0.047056,0.51725,20.741,-0.070989,0.023663,-1.9935,-0.094652,-1.9309e-10,-0.99677,0,0,0.33333,-0,-0,0.66667
0.44087,0.55179,1.3226,0.077681,0.70616,11.537,-0.27398,0.091326,-1.9781,-0.36531,-6.9e-14,-0.98907,0,0,0.33333,3.9475e-16,0,0.66667
0.84481,0.54198,2.5344,0.062974,0.17987,1.4862,-0.42561,0.14187,-1.9858,-0.56748,6.4393e-10,-0.9929,0,0,0.33333,-0,-0,0.66667
0.59527,0.9668,1.7858,0.70019,5.3726,7.2107,-3.3344,1.1115,-0.25778,-4.4459,-1.4166e-13,-0.12889,0,0,0.33333,-7.8949e-16,0,0.66667
0.46216,0.1416,1.3865,-0.53761,-4.9209,11.011,1.9877,-0.66256,-0.97158,2.6502,-7.3985e-13,-0.48579,0,0,0.33333,7.8949e-16,0,0.66667
0.51265,0.72997,1.5379,0.34495,2.8929,9.3139,-1.4147,0.47157,-1.5765,-1.8863,-3.0254e-13,-0.78826,0,0,0.33333,-0,-0,0.66667
0.57389,0.35246,1.7217,-0.2213,-1.6632,7.4567,1.016,-0.33867,-1.8255,1.3547,-5.258e-13,-0.91277,0,0,0.33333,-0,-0,0.66667
0.44032,0.031125,1.321,-0.70331,-6.754,11.842,2.4775,-0.82582,-0.24242,3.3033,-4.996e-14,-0.12121,0,0,0.33333,-3.2073e-16,0,0.66667
0.19356,0.15228,0.58068,-0.52159,-5.8674,20.616,0.80766,-0.26922,-1.0329,1.0769,4.8224e-10,-0.51644,0,0,0.33333,-2.8014e-16,0,0.66667
0.11397,0.72152,0.3419,0.33227,3.7797,23.697,-0.30294,0.10098,-1.6079,-0.40392,1.1923e-10,-0.80396,0,0,0.33333,3.9475e-16,0,0.66667
0.15123,0.92531,0.45368,0.63796,7.3776,22.287,-0.77182,0.25727,-0.55226,-1.0291,-1.4179e-09,-0.27613,0,0,0.33333,-1.9737e-16,0,0.66667
0.052491,0.52225,0.15747,0.033374,0.37996,26.139,-0.014014,0.0046715,-1.9956,-0.018686,7.6277e-08,-0.9978,0,0,0.33333,-0,-0,0.66667
0.55868,0.15299,1.676,-0.52052,-4.1393,8.0576,2.3264,-0.77548,-1.0371,3.1019,1.0776e-12,-0.51855,0,0,0.33333,9.8686e-16,0,0.66667
0.84772,0.018594,2.5432,-0.72211,-2.4074,2.029,4.8972,-1.6324,-0.14541,6.5296,-8.3835e-10,-0.072705,0,0,0.33333,-0,-0,0.66667
0.35912,0.44182,1.0774,-0.08727,-0.86197,14.355,0.25072,-0.083574,-1.9737,0.3343,5.1805e-12,-0.98684,0,0,0.33333,7.8949e-16,0,0.66667
0.075311,0.74036,0.22593,0.36053,4.1402,25.237,-0.21722,0.072406,-1.5376,-0.28962,2.5352e-09,-0.76878,0,0,0.33333,9.8686e-17,0,0.66667
0.42572,0.52558,1.2772,0.038375,0.35472,12.041,-0.1307,0.043566,-1.9948,-0.17426,-1.3162e-13,-0.99742,0,0,0.33333,-0,-0,0.66667
0.60201,0.12138,1.806,-0.56792,-4.2039,6.8962,2.7352,-0.91172,-0.85339,3.6469,1.0665e-12,-0.4267,0,0,0.33333,-1.1842e-15,0,0.66667
0.4254,0.76747,1.2762,0.40121,3.7762,12.143,-1.3654,0.45513,-1.4271,-1.8205,6.769e-13,-0.71355,0,0,0.33333,-0,-0,0.66667
0.81072,0.40872,2.4322,-0.13693,-0.48594,2.0331,0.88808,-0.29603,-1.9342,1.1841,-1.7198e-10,-0.96709,0,0,0.33333,-0,-0,0.66667
0.94189,0.77915,2.8257,0.41873,0.39893,0.5864,-3.1552,1.0517,-1.3772,-4.2069,-1.2778e-08,-0.6886,0,0,0.33333,-1.9737e-15,0,0.66667
0.86991,0.85735,2.6097,0.53603,1.4117,1.469,-3.7304,1.2435,-0.9777,-4.9738,1.6307e-09,-0.48885,0,0,0.33333,1.579e-15,0,0.66667
0.704,0.99253,2.112,0.73879,4.4588,4.6133,-4.1609,1.387,-0.059557,-5.5478,-3.6326e-13,-0.029778,0,0,0.33333,2.3685e-15,0,0.66667
0.4703,0.56065,1.4109,0.090975,0.79795,10.574,-0.34228,0.11409,-1.9716,-0.45638,6.789e-14,-0.98578,0,0,0.33333,-2.9606e-16,0,0.66667
0.6827,0.3637,2.0481,-0.20445,-1.1996,4.6277,1.1166,-0.37222,-1.8508,1.4889,-2.5995e-11,-0.9254,0,0,0.33333,7.8949e-16,0,0.66667
0.013418,0.92086,0.040255,0.63129,7.4668,27.717,-0.067768,0.02259,-0.58259,-0.090357,2.2714e-07,-0.29129,0,0,0.33333,-2.4672e-17,0,0.66667
0.98248,0.33626,2.9474,-0.24561,0.025532,0.16448,1.9305,-0.64349,-1.7856,2.574,-9.4955e-08,-0.89279,0,0,0.33333,7.8949e-16,0,0.66667
0.17208,0.80707,0.51623,0.46061,5.1963,21.434,-0.63408,0.21136,-1.2463,-0.84544,-5.9754e-10,-0.62313,0,0,0.33333,-0,-0,0.66667
0.90626,0.67173,2.7188,0.25759,0.41982,0.78502,-1.8676,0.62252,-1.764,-2.4901,-1.4922e-09,-0.882,0,0,0.33333,1.579e-15,0,0.66667
0.80711,0.65161,2.4213,0.22742,0.83082,2.1288,-1.4684,0.48948,-1.8162,-1.9579,1.225e-10,-0.9081,0,0,0.33333,7.8949e-16,0,0.66667
0.80014,0.16455,2.4004,-0.50318,-2.011,2.4617,3.2209,-1.0736,-1.0996,4.2946,-4.3267e-10,-0.54979,0,0,0.33333,-1.579e-15,0,0.66667
0.26894,0.28425,0.80681,-0.32362,-3.4489,17.696,0.69626,-0.23209,-1.6282,0.92835,8.5091e-11,-0.81409,0,0,0.33333,-0,-0,0.66667
0.21915,0.7287,0.65746,0.34305,3.7606,19.59,-0.60145,0.20048,-1.5816,-0.80193,-1.9911e-10,-0.79082,0,0,0.33333,-0,-0,0.66667
0.4288,0.18844,1.2864,-0.46735,-4.4102,12.062,1.6032,-0.5344,-1.2241,2.1376,-1.0841e-12,-0.61206,0,0,0.33333,-0,-0,0.66667
0.84937,0.6116,2.5481,0.16739,0.46679,1.4477,-1.1374,0.37914,-1.8997,-1.5166,1.1539e-10,-0.94983,0,0,0.33333,-1.579e-15,0,0.66667
0.45038,0.84148,1.3511,0.51222,4.7404,11.376,-1.8456,0.61518,-1.0679,-2.4607,1.0086e-12,-0.53393,0,0,0.33333,1.0856e-15,0,0.66667
0.93542,0.86102,2.8063,0.54152,0.66101,0.78712,-4.0524,1.3508,-0.95694,-5.4032,-1.7538e-08,-0.47847,0,0,0.33333,-0,-1.205e-16,0.66667
0.35268,0.9976,1.058,0.7464,7.8386,14.843,-2.1059,0.70198,-0.01956,-2.8079,-1.0436e-14,-0.00978,0,0,0.33333,-1.2829e-15,0,0.66667
0.61939,0.70947,1.8582,0.31421,2.1728,6.2525,-1.5569,0.51898,-1.6485,-2.0759,4.4827e-12,-0.82425,0,0,0.33333,-0,-0,0.66667
0.9807,0.23522,2.9421,-0.39716,-0.015489,0.30161,3.116,-1.0387,-1.4385,4.1546,4.3776e-09,-0.71927,0,0,0.33333,-0,-0,0.66667
0.64346,0.24047,1.9304,-0.38929,-2.5714,5.6777,2.004,-0.66799,-1.4609,2.6719,-8.3633e-12,-0.73045,0,0,0.33333,-0,-0,0.66667
0.045498,0.82771,0.13649,0.49156,5.723,26.434,-0.17892,0.059641,-1.1405,-0.23856,7.9894e-09,-0.57027,0,0,0.33333,-9.8686e-17,0,0.66667
0.46356,0.81284,1.3907,0.46927,4.2546,10.923,-1.7403,0.58009,-1.2179,-2.3203,8.0713e-13,-0.60896,0,0,0.33333,-0,-0,0.66667
0.33475,0.47733,1.0043,-0.034,-0.34249,15.227,0.091052,-0.030351,-1.9954,0.1214,3.7512e-12,-0.99772,0,0,0.33333,-7.8949e-16,0,0.66667
0.53218,0.91172,1.5965,0.61758,5.196,8.909,-2.6293,0.87643,-0.64439,-3.5057,-3.7814e-13,-0.3222,0,0,0.33333,-0,-0,0.66667
0.28475,0.85375,0.85424,0.53062,5.6965,17.173,-1.2087,0.40291,-0.99855,-1.6116,-3.4907e-11,-0.49927,0,0,0.33333,-0,-0,0.66667
0.12226,0.55383,0.36678,0.080749,0.90795,23.352,-0.07898,0.026327,-1.9767,-0.10531,4.7979e-09,-0.98833,0,0,0.33333,1.9737e-16,0,0.66667
0.66829,0.66226,2.0049,0.24339,1.4893,4.9857,-1.3013,0.43375,-1.7894,-1.735,2.0567e-11,-0.89471,0,0,0.33333,-0,-0,0.66667
0.68136,0.011367,2.0441,-0.73295,-4.6929,5.1092,3.9952,-1.3317,-0.089247,5.327,3.5083e-14,-0.044623,0,0,0.33333,-0,-0,0.66667
0.86714,0.58087,2.6014,0.12131,0.29221,1.189,-0.84153,0.28051,-1.9469,-1.122,4.3072e-10,-0.97346,0,0,0.33333,1.579e-15,0,0.66667
0.13238,0.30419,0.39714,-0.29372,-3.3178,22.965,0.31106,-0.10369,-1.6928,0.41475,5.1311e-10,-0.84641,0,0,0.33333,9.8686e-17,0,0.66667
0.79862,0.13824,2.3959,-0.54264,-2.2077,2.5313,3.4669,-1.1556,-0.95269,4.6226,-3.429e-10,-0.47635,0,0,0.33333,-0,-0,0.66667
0.82677,0.76499,2.4803,0.39749,1.3427,1.9283,-2.629,0.87635,-1.4379,-3.5054,4.1837e-10,-0.71896,0,0,0.33333,-0,-0,0.66667
0.64655,0.9649,1.9396,0.69735,4.815,5.8889,-3.607,1.2023,-0.27115,-4.8093,-2.1094e-13,-0.13557,0,0,0.33333,-7.8949e-16,0,0.66667
0.20492,0.44138,0.61477,-0.087934,-0.96031,20.107,0.14416,-0.048052,-1.9731,0.19221,9.0813e-11,-0.98655,0,0,0.33333,-0,-0,0.66667
0.26142,0.82186,0.78426,0.48279,5.2326,18.023,-1.0097,0.33656,-1.1709,-1.3463,-8.6497e-11,-0.58543,0,0,0.33333,-0,-0,0.66667
0.4185,0.92308,1.2555,0.63463,6.1766,12.51,-2.1247,0.70824,-0.56743,-2.8329,6.1862e-13,-0.28372,0,0,0.33333,-7.8949e-16,0,0.66667
0.5418,0.27956,1.6254,-0.33066,-2.6477,8.4301,1.4332,-0.47773,-1.6119,1.9109,5.1148e-13,-0.80595,0,0,0.33333,1.1842e-15,0,0.66667
0.47744,0.035454,1.4323,-0.69682,-6.4002,10.648,2.6615,-0.88717,-0.27368,3.5487,-7.4829e-14,-0.13684,0,0,0.33333,1.579e-15,0,0.66667
0.46746,0.45925,1.4024,-0.06112,-0.53775,10.663,0.22857,-0.07619,-1.9867,0.30476,5.4151e-14,-0.99334,0,0,0.33333,-0,-0,0.66667
0.83984,0.81635,2.5195,0.47452,1.5119,1.807,-3.1882,1.0627,-1.1997,-4.2509,9.5667e-10,-0.59987,0,0,0.33333,-0,-0,0.66667
0.8701,0.53944,2.6103,0.059161,0.13816,1.1373,-0.41181,0.13727,-1.9872,-0.54908,-1.0221e-09,-0.99362,0,0,0.33333,-0,-0,0.66667
0.81675,0.19377,2.4503,-0.45935,-1.6677,2.1436,3.0014,-1.0005,-1.2497,4.0019,-6.3237e-10,-0.62486,0,0,0.33333,-0,-0,0.66667
0.8778,0.82405,2.6334,0.48608,1.174,1.3115,-3.4134,1.1378,-1.1595,-4.5512,1.8479e-09,-0.57977,0,0,0.33333,-0,-0,0.66667
0.57101,0.2837,1.713,-0.32445,-2.4701,7.5812,1.4821,-0.49403,-1.6261,1.9761,2.9332e-13,-0.81307,0,0,0.33333,-0,-0,0.66667
0.96404,0.96126,2.8921,0.69189,0.52635,0.81418,-5.3361,1.7787,-0.29766,-7.1148,5.0599e-07,-0.14883,0,0,0.33333,-7.8949e-16,2.2825e-16,0.66667
0.60654,0.54728,1.8196,0.07092,0.49695,6.5184,-0.34413,0.11471,-1.9816,-0.45884,1.4213e-12,-0.9908,0,0,0.33333,-0,-0,0.66667
0.60395,0.028511,1.8118,-0.70723,-5.3455,6.9874,3.4171,-1.139,-0.222,4.5561,2.3981e-13,-0.111,0,0,0.33333,-1.1842e-15,0,0.66667
0.3193,0.62087,0.95789,0.18131,1.8543,15.803,-0.46314,0.15438,-1.8832,-0.61752,-2.3142e-11,-0.94162,0,0,0.33333,-0,-0,0.66667
0.6812,0.86354,2.0436,0.5453,3.3572,4.8949,-2.9717,0.99057,-0.94207,-3.9623,9.9971e-12,-0.47103,0,0,0.33333,-7.8949e-16,0,0.66667
0.051966,0.71068,0.1559,0.31601,3.6303,26.167,-0.13137,0.043792,-1.6446,-0.17517,3.4091e-09,-0.8223,0,0,0.33333,-0,-0,0.66667
0.13455,0.95185,0.40364,0.67777,7.9136,22.946,-0.72954,0.24318,-0.36589,-0.97272,-6.7073e-10,-0.18294,0,0,0.33333,-0,-0,0.66667
0.13024,0.96413,0.39073,0.6962,8.1565,23.118,-0.7254,0.2418,-0.27675,-0.9672,-1.5209e-09,-0.13837,0,0,0.33333,-4.9343e-17,0,0.66667
0.6552,0.63891,1.9656,0.20836,1.3148,5.2913,-1.0921,0.36405,-1.8454,-1.4562,1.3962e-11,-0.9227,0,0,0.33333,-1.579e-15,0,0.66667
0.17533,0.66059,0.526,0.24089,2.6757,21.271,-0.33788,0.11263,-1.794,-0.45051,-1.0959e-10,-0.897,0,0,0.33333,-3.9475e-16,0,0.66667
0.34115,0.24595,1.0234,-0.38108,-3.8758,15.061,1.04,-0.34667,-1.4841,1.3867,1.4357e-11,-0.74206,0,0,0.33333,-0,-0,0.66667
0.044312,0.12878,0.13293,-0.55684,-6.5231,26.486,0.19739,-0.065798,-0.89804,0.26319,-1.9859e-07,-0.44902,0,0,0.33333,-0,-0,0.66667
0.23373,0.73166,0.7012,0.34749,3.7829,19.033,-0.64976,0.21659,-1.5705,-0.86635,-1.6339e-10,-0.78526,0,0,0.33333,-0,-0,0.66667
0.96422,0.46068,2.8927,-0.058979,-0.015538,0.20205,0.45495,-0.15165,-1.9873,0.6066,2.0831e-07,-0.99367,0,0,0.33333,7.8949e-16,0,0.66667
0.50914,0.06572,1.5274,-0.65142,-5.6974,9.629,2.6533,-0.88444,-0.49149,3.5377,2.1982e-14,-0.24575,0,0,0.33333,-0,-0,0.66667
0.15107,0.61272,0.45322,0.16909,1.8891,22.216,-0.20436,0.068119,-1.8977,-0.27247,1.9983e-11,-0.94885,0,0,0.33333,-0,-0,0.66667
0.52301,0.87148,1.569,0.55723,4.712,9.1322,-2.3315,0.77716,-0.89621,-3.1086,-4.8539e-13,-0.44811,0,0,0.33333,3.9475e-16,0,0.66667
0.94351,0.70272,2.8305,0.30408,0.2524,0.46912,-2.2952,0.76507,-1.6705,-3.0603,-9.0095e-09,-0.83523,0,0,0.33333,-0,-0,0.66667
0.86569,0.88042,2.5971,0.57063,1.5757,1.567,-3.9519,1.3173,-0.8422,-5.2692,5.8746e-10,-0.4211,0,0,0.33333,-0,-0,0.66667
0.39207,0.75642,1.1762,0.38463,3.7407,13.27,-1.2064,0.40213,-1.4743,-1.6085,-1.6414e-12,-0.73713,0,0,0.33333,-0,-0,0.66667
0.28387,0.50436,0.8516,0.0065333,0.068267,17.099,-0.014837,0.0049456,-2.0002,-0.019782,-1.5193e-12,-1.0001,0,0,0.33333,-1.579e-15,0,0.66667
0.76173,0.81043,2.2852,0.46565,2.1786,3.1144,-2.8376,0.94586,-1.2297,-3.7834,1.6325e-10,-0.61486,0,0,0.33333,1.9737e-15,0,0.66667
0.24048,0.032041,0.72145,-0.70194,-7.8853,18.895,1.3504,-0.45015,-0.24888,1.8006,3.3599e-12,-0.12444,0,0,0.33333,-7.8949e-16,0,0.66667
0.25423,0.79581,0.7627,0.44372,4.8122,18.281,-0.90246,0.30082,-1.2993,-1.2033,-1.1403e-10,-0.64966,0,0,0.33333,-0,-0,0.66667
0.084086,0.81966,0.25226,0.4795,5.5479,24.898,-0.32255,0.10752,-1.1822,-0.43007,1.8646e-09,-0.59112,0,0,0.33333,-0,-0,0.66667
0.86414,0.49605,2.5924,-0.0059298,-0.014558,1.2118,0.040994,-0.013665,-2.0001,0.054659,-9.2601e-09,-1.0001,0,0,0.33333,-1.9737e-15,0,0.66667
0.4479,0.29596,1.3437,-0.30606,-2.7871,11.356,1.0967,-0.36555,-1.6662,1.4622,-4.6063e-13,-0.83311,0,0,0.33333,-0,-0,0.66667
0.56179,0.29995,1.6854,-0.30008,-2.3175,7.8332,1.3487,-0.44955,-1.6797,1.7982,3.0176e-13,-0.83984,0,0,0.33333,-0,-0,0.66667
0.73671,0.42966,2.2101,-0.10552,-0.51864,3.4065,0.62188,-0.20729,-1.9604,0.82918,-3.8961e-11,-0.98019,0,0,0.33333,-0,-0,0.66667
0.79649,0.48507,2.3895,-0.022395,-0.085199,2.2553,0.1427,-0.047566,-1.9981,0.19026,-4.7058e-11,-0.99903,0,0,0.33333,-0,-0,0.66667
0.44751,0.69123,1.3425,0.28684,2.6099,11.362,-1.0269,0.3423,-1.7077,-1.3692,3.6826e-13,-0.85384,0,0,0.33333,-0,-0,0.66667
0.18413,0.0044013,0.55238,-0.7434,-8.6107,21.049,1.095,-0.36501,-0.03536,1.4601,4.3462e-10,-0.01768,0,0,0.33333,-0,1.9107e-16,0.66667
0.82873,0.32398,2.4862,-0.26403,-0.85741,1.8006,1.7505,-0.58349,-1.7521,2.334,-1.8298e-10,-0.87603,0,0,0.33333,-0,-0,0.66667
0.030998,0.3266,0.092994,-0.2601,-2.9848,27.005,0.064501,-0.0215,-1.7593,0.086002,-1.0051e-08,-0.87967,0,0,0.33333,4.9343e-17,0,0.66667
0.94673,0.68627,2.8402,0.2794,0.20734,0.42529,-2.1161,0.70538,-1.7231,-2.8215,-1.6136e-08,-0.86155,0,0,0.33333,6.9081e-16,0,0.66667
0.57698,0.042983,1.7309,-0.68553,-5.4219,7.6931,3.1643,-1.0548,-0.32891,4.219,2.72e-13,-0.16446,0,0,0.33333,-0,-3.7026e-16,0.66667
0.87539,0.58041,2.6262,0.12061,0.26969,1.0824,-0.84464,0.28155,-1.9482,-1.1262,2.0397e-09,-0.97408,0,0,0.33333,1.579e-15,0,0.66667
0.60857,0.13023,1.8257,-0.55466,-4.0443,6.7095,2.7004,-0.90012,-0.90669,3.6005,7.5984e-13,-0.45334,0,0,0.33333,1.579e-15,0,0.66667
0.25166,0.26359,0.75498,-0.35462,-3.8253,18.354,0.71394,-0.23798,-1.5525,0.95192,1.2098e-10,-0.77627,0,0,0.33333,-0,-0,0.66667
0.29613,0.71143,0.88839,0.31715,3.3201,16.682,-0.75134,0.25045,-1.6426,-1.0018,-4.8787e-11,-0.82132,0,0,0.33333,-0,-0,0.66667
0.53292,0.073298,1.5988,-0.64005,-5.3978,8.9072,2.7288,-0.9096,-0.5432,3.6384,3.0265e-13,-0.2716,0,0,0.33333,-0,-0,0.66667
0.96208,0.35193,2.8862,-0.22211,-0.080118,0.27556,1.7095,-0.56983,-1.8242,2.2793,-1.0568e-08,-0.91209,0,0,0.33333,-0,-0,0.66667
0.1845,0.1729,0.55349,-0.49066,-5.5237,20.959,0.72419,-0.2414,-1.1435,0.96559,5.6759e-10,-0.57175,0,0,0.33333,-0,-0,0.66667
0.5099,0.76365,1.5297,0.39548,3.3453,9.4238,-1.6132,0.53775,-1.4432,-2.151,-2.6035e-13,-0.72158,0,0,0.33333,-7.8949e-16,0,0.66667
0.34379,0.25253,1.0314,-0.3712,-3.7645,14.963,1.0209,-0.34031,-1.5112,1.3612,1.369e-11,-0.75559,0,0,0.33333,-0,-0,0.66667
0.76973,0.073439,2.3092,-0.63984,-3.0274,3.1613,3.94,-1.3133,-0.54387,5.2534,-5.3023e-11,-0.27193,0,0,0.33333,-0,-0,0.66667
0.80287,0.86783,2.4086,0.55175,2.2055,2.4708,-3.5439,1.1813,-0.91731,-4.7251,3.3858e-10,-0.45866,0,0,0.33333,-3.141e-16,0,0.66667
0.42456,0.58573,1.2737,0.12859,1.1922,12.089,-0.43676,0.14559,-1.9411,-0.58235,-6.4099e-13,-0.97056,0,0,0.33333,3.9475e-16,0,0.66667
0.20412,0.39374,0.61237,-0.1594,-1.7443,20.143,0.26029,-0.086763,-1.9095,0.34705,9.5523e-11,-0.95474,0,0,0.33333,-1.9737e-16,0,0.66667
0.067089,0.71998,0.20127,0.32998,3.7867,25.563,-0.1771,0.059034,-1.6136,-0.23614,4.0649e-09,-0.80681,0,0,0.33333,-0,-0,0.66667
0.19865,0.22176,0.59594,-0.41736,-4.6426,20.395,0.66326,-0.22109,-1.3811,0.88435,3.8169e-10,-0.69055,0,0,0.33333,-0,-0,0.66667
0.2724,0.77203,0.8172,0.40805,4.3657,17.589,-0.88922,0.29641,-1.4075,-1.1856,-7.8971e-11,-0.70374,0,0,0.33333,-1.9737e-16,0,0.66667
0.59879,0.40738,1.7964,-0.13893,-0.99114,6.7405,0.66551,-0.22184,-1.9321,0.88735,-1.9951e-12,-0.96606,0,0,0.33333,-0,-0,0.66667
0.87308,0.074503,2.6193,-0.63825,-1.718,1.569,4.4579,-1.486,-0.55131,5.9439,-2.4377e-09,-0.27566,0,0,0.33333,-0,3.7353e-16,0.66667
0.12823,0.93562,0.38469,0.65343,7.6204,23.187,-0.67032,0.22344,-0.48265,-0.89376,-3.3641e-09,-0.24132,0,0,0.33333,-2.4672e-16,0,0.66667
0.95819,0.43692,2.8746,-0.09462,-0.038646,0.25119,0.72531,-0.24177,-1.969,0.96708,-7.7776e-07,-0.98451,0,0,0.33333,5.4278e-16,0,0.66667
0.68317,0.010479,2.0495,-0.73428,-4.6812,5.0697,4.0131,-1.3377,-0.082469,5.3508,2.2204e-15,-0.041234,0,0,0.33333,-0,3.9631e-16,0.66667
0.74196,0.93562,2.2259,0.65344,3.4327,3.7099,-3.8786,1.2929,-0.48236,-5.1715,1.4274e-11,-0.24118,0,0,0.33333,1.7764e-15,0,0.66667
0.98288,0.31946,2.9486,-0.27081,0.027058,0.17936,2.1294,-0.70979,-1.7394,2.8392,-1.5728e-08,-0.86972,0,0,0.33333,-0,-0,0.66667
0.4161,0.19303,1.2483,-0.46046,-4.4015,12.484,1.5328,-0.51093,-1.2461,2.0437,-9.1338e-13,-0.62305,0,0,0.33333,-0,-0,0.66667
0.53158,0.66128,1.5948,0.24192,1.9562,8.6978,-1.0288,0.34293,-1.7926,-1.3717,-2.2582e-13,-0.89628,0,0,0.33333,-1.579e-15,0,0.66667
0.67921,0.25117,2.0376,-0.37325,-2.2489,4.7979,2.0281,-0.67605,-1.5053,2.7042,-2.5973e-11,-0.75265,0,0,0.33333,1.579e-15,0,0.66667
0.51288,0.12661,1.5386,-0.56008,-4.8086,9.4402,2.298,-0.76601,-0.88552,3.064,1.7231e-13,-0.44276,0,0,0.33333,-0,-0,0.66667
0.29911,0.79074,0.89734,0.43611,4.5967,16.608,-1.0436,0.34785,-1.3236,-1.3914,-3.8507e-11,-0.6618,0,0,0.33333,-0,-0,0.66667
0.10538,0.15424,0.31615,-0.51865,-5.9968,24.06,0.43726,-0.14575,-1.0442,0.58301,1.1899e-08,-0.52212,0,0,0.33333,-9.8686e-17,0,0.66667
0.28493,0.5065,0.8548,0.0097506,0.10182,17.059,-0.022226,0.0074087,-1.9996,-0.029635,-2.7665e-12,-0.99982,0,0,0.33333,-0,-0,0.66667
0.76885,0.78659,2.3066,0.42988,1.9408,2.9471,-2.6441,0.88138,-1.3431,-3.5255,1.9684e-10,-0.67156,0,0,0.33333,-0,-0,0.66667
0.64078,0.23237,1.9223,-0.40144,-2.6722,5.7535,2.0579,-0.68596,-1.4269,2.7439,-7.1276e-12,-0.71346,0,0,0.33333,-0,-0,0.66667
0.80133,0.75652,2.404,0.38477,1.487,2.3293,-2.4666,0.82222,-1.4735,-3.2889,3.132e-10,-0.73675,0,0,0.33333,-0,-0,0.66667
0.51712,0.86078,1.5514,0.54117,4.6061,9.2972,-2.2388,0.74627,-0.95837,-2.9851,-4.1145e-13,-0.47919,0,0,0.33333,-0,-0,0.66667
0.2321,0.45242,0.6963,-0.071375,-0.7691,19.06,0.13253,-0.044176,-1.9814,0.17671,3.753e-11,-0.99072,0,0,0.33333,3.9475e-16,0,0.66667
0.62796,0.61361,1.8839,0.17041,1.1443,5.9704,-0.85611,0.28537,-1.8963,-1.1415,5.8612e-12,-0.94817,0,0,0.33333,-0,-0,0.66667
0.30401,0.75399,0.91202,0.38098,3.9843,16.41,-0.92656,0.30885,-1.4841,-1.2354,-3.911e-11,-0.74204,0,0,0.33333,-7.8949e-16,0,0.66667
0.029529,0.3851,0.088586,-0.17236,-1.9712,27.063,0.040715,-0.013572,-1.8942,0.054287,-3.0879e-08,-0.94711,0,0,0.33333,-0,-0,0.66667
0.90333,0.76211,2.71,0.39316,0.70175,0.9226,-2.8413,0.94709,-1.4499,-3.7884,-6.2033e-11,-0.72497,0,0,0.33333,1.579e-15,0,0.66667
0.42037,0.25116,1.2611,-0.37326,-3.5238,12.3,1.2552,-0.41842,-1.5058,1.6737,-2.6368e-13,-0.75288,0,0,0.33333,-0,-0,0.66667
0.42613,0.98626,1.2784,0.72939,7.1402,12.329,-2.4865,0.82884,-0.10777,-3.3154,6.1284e-14,-0.053887,0,0,0.33333,-0,-0,0.66667
0.74125,0.92708,2.2238,0.64063,3.3625,3.7076,-3.7989,1.2663,-0.54018,-5.0652,2.0816e-11,-0.27009,0,0,0.33333,-7.8949e-16,0,0.66667
0.94846,0.77605,2.8454,0.41408,0.3311,0.52988,-3.1419,1.0473,-1.3904,-4.1892,-9.4821e-09,-0.69521,0,0,0.33333,-1.1842e-15,0,0.66667
0.072516,0.58975,0.21755,0.13462,1.531,25.338,-0.078099,0.026033,-1.9358,-0.10413,7.8454e-08,-0.96788,0,0,0.33333,-8.042e-17,0,0.66667
0.1727,0.31226,0.5181,-0.2816,-3.1373,21.379,0.38907,-0.12969,-1.7195,0.51876,2.503e-10,-0.85974,0,0,0.33333,5.6128e-16,0,0.66667
0.32236,0.69023,0.96707,0.28534,2.9259,15.712,-0.73585,0.24528,-1.7109,-0.98114,-2.6824e-11,-0.85546,0,0,0.33333,-7.8949e-16,0,0.66667
0.24842,0.2848,0.74527,-0.3228,-3.4811,18.469,0.64153,-0.21384,-1.6302,0.85537,1.2299e-10,-0.81509,0,0,0.33333,-0,-0,0.66667
0.49549,0.43646,1.4865,-0.095311,-0.80822,9.7721,0.37781,-0.12594,-1.9685,0.50374,1.3406e-13,-0.98425,0,0,0.33333,-0,-0,0.66667
0.82446,0.8192,2.4734,0.4788,1.6746,2.0425,-3.158,1.0527,-1.1849,-4.2106,6.4627e-10,-0.59243,0,0,0.33333,-0,-0,0.66667
0.85397,0.03393,2.5619,-0.6991,-2.2178,1.9074,4.7761,-1.592,-0.26266,6.3682,3.2519e-11,-0.13133,0,0,0.33333,-3.158e-15,0,0.66667
0.59583,0.3374,1.7875,-0.2439,-1.7605,6.8534,1.1626,-0.38752,-1.7887,1.5501,-1.9253e-12,-0.89434,0,0,0.33333,-0,-0,0.66667
0.24017,0.436,0.72052,-0.096,-1.0305,18.752,0.18445,-0.061484,-1.9679,0.24594,4.3471e-11,-0.98393,0,0,0.33333,-1.4803e-16,0,0.66667
0.18649,0.28082,0.55948,-0.32877,-3.6531,20.848,0.49051,-0.1635,-1.617,0.65401,2.7673e-10,-0.80852,0,0,0.33333,-4.8726e-16,0,0.66667
0.74339,0.94737,2.2302,0.67106,3.5245,3.7047,-3.9909,1.3303,-0.3983,-5.3212,1.1652e-11,-0.19915,0,0,0.33333,-0,-0,0.66667
0.23721,0.38557,0.71164,-0.17164,-1.8489,18.872,0.32573,-0.10858,-1.8949,0.43431,8.2733e-11,-0.94746,0,0,0.33333,-0,-0,0.66667
0.53949,0.81336,1.6185,0.47003,3.8323,8.5786,-2.0286,0.67621,-1.2152,-2.7048,-9.6367e-13,-0.60759,0,0,0.33333,-0,-0,0.66667
0.74928,0.94237,2.2478,0.66355,3.4081,3.5793,-3.9775,1.3258,-0.43508,-5.3033,1.8092e-11,-0.21754,0,0,0.33333,-0,-0,0.66667
0.22825,0.064902,0.68475,-0.65265,-7.3313,19.335,1.1917,-0.39724,-0.48596,1.589,3.5835e-11,-0.24298,0,0,0.33333,-0,-0,0.66667
0.1745,0.1187,0.5235,-0.57195,-6.5148,21.366,0.79845,-0.26615,-0.83699,1.0646,6.14e-10,-0.4185,0,0,0.33333,-1.9737e-16,0,0.66667
0.039736,0.94292,0.11921,0.66438,7.8765,26.675,-0.2112,0.070399,-0.4305,-0.2816,3.2942e-07,-0.21525,0,0,0.33333,-0,-0,0.66667
0.14757,0.19773,0.44271,-0.45341,-5.1546,22.389,0.53527,-0.17842,-1.2685,0.7137,1.2336e-09,-0.63423,0,0,0.33333,-0,-0,0.66667
0.85144,0.42452,2.5543,-0.11322,-0.30914,1.4011,0.77117,-0.25706,-1.9537,1.0282,4.0071e-10,-0.97683,0,0,0.33333,-1.579e-15,0,0.66667
0.10464,0.32075,0.31391,-0.26888,-3.0545,24.062,0.22507,-0.075025,-1.7426,0.3001,6.3559e-10,-0.87131,0,0,0.33333,-0,-0,0.66667
0.22365,0.90258,0.67094,0.60387,6.76,19.491,-1.0804,0.36014,-0.70374,-1.4405,-1.1824e-10,-0.35187,0,0,0.33333,3.9475e-16,0,0.66667
0.032757,0.79283,0.098272,0.43924,5.0969,26.94,-0.11511,0.038369,-1.3138,-0.15348,1.0164e-08,-0.65689,0,0,0.33333,-4.9343e-17,0,0.66667
0.67636,0.40079,2.0291,-0.14882,-0.88547,4.7595,0.80522,-0.26841,-1.9213,1.0736,-1.8118e-11,-0.96065,0,0,0.33333,-0,-0,0.66667
0.2317,0.71796,0.69511,0.32695,3.5582,19.106,-0.60604,0.20201,-1.621,-0.80805,-1.5648e-10,-0.81049,0,0,0.33333,-5.9212e-16,0,0.66667
0.41359,0.80115,1.2408,0.45172,4.3255,12.564,-1.4946,0.49821,-1.2738,-1.9928,7.6739e-13,-0.6369,0,0,0.33333,-3.9475e-16,0,0.66667
0.1393,0.71115,0.4179,0.31672,3.5751,22.694,-0.35296,0.11765,-1.6435,-0.47061,3.1487e-10,-0.82173,0,0,0.33333,9.8686e-17,0,0.66667
0.37722,0.66142,1.1317,0.24214,2.3657,13.741,-0.73071,0.24357,-1.7919,-0.97428,-5.8485e-12,-0.89593,0,0,0.33333,7.8949e-16,0,0.66667
0.42444,0.45268,1.2733,-0.070977,-0.65726,12.087,0.241,-0.080335,-1.9816,0.32134,4.5089e-13,-0.9908,0,0,0.33333,-0,-0,0.66667
0.47296,0.58658,1.4189,0.12986,1.1363,10.493,-0.49137,0.16379,-1.9399,-0.65516,8.4543e-14,-0.96994,0,0,0.33333,-0,-0,0.66667
0.42284,0.63929,1.2685,0.20893,1.9465,12.162,-0.70676,0.23559,-1.8446,-0.94234,-7.615e-13,-0.92228,0,0,0.33333,-0,-0,0.66667
0.10276,0.34249,0.30827,-0.23627,-2.6812,24.135,0.19423,-0.064742,-1.8022,0.25897,-9.3922e-09,-0.90108,0,0,0.33333,-2.7139e-16,0,0.66667
0.77258,0.81601,2.3177,0.47402,2.127,2.9188,-2.9297,0.97658,-1.2013,-3.9063,2.0465e-10,-0.60065,0,0,0.33333,-0,-0,0.66667
0.13721,0.82864,0.41162,0.49296,5.6408,22.803,-0.5411,0.18037,-1.1354,-0.72146,-1.8936e-09,-0.56769,0,0,0.33333,-1.9737e-16,0,0.66667
0.42429,0.023122,1.2729,-0.71532,-7.0008,12.378,2.428,-0.80934,-0.18063,3.2374,-1.3789e-13,-0.090316,0,0,0.33333,-7.8949e-16,0,0.66667
0.27196,0.75338,0.81587,0.38008,4.0588,17.598,-0.82691,0.27564,-1.4866,-1.1026,-8.1899e-11,-0.74332,0,0,0.33333,-0,-0,0.66667
0.30101,0.57008,0.90302,0.10512,1.087,16.466,-0.25313,0.084377,-1.9605,-0.33751,-2.0832e-11,-0.98026,0,0,0.33333,-0,-0,0.66667
0.67242,0.41213,2.0173,-0.1318,-0.79198,4.8491,0.70901,-0.23634,-1.9387,0.94534,-1.5139e-11,-0.96936,0,0,0.33333,-0,-0,0.66667
0.51779,0.71978,1.5534,0.32968,2.7403,9.15,-1.3656,0.4552,-1.6146,-1.8208,-3.9035e-13,-0.80731,0,0,0.33333,-0,-0,0.66667
0.19009,0.16025,0.57026,-0.50962,-5.7345,20.747,0.77498,-0.25833,-1.077,1.0333,4.9897e-10,-0.53852,0,0,0.33333,3.9475e-16,0,0.66667
0.46913,0.18239,1.4074,-0.47641,-4.293,10.748,1.788,-0.59601,-1.1936,2.384,-7.524e-13,-0.59681,0,0,0.33333,-1.9737e-16,0,0.66667
0.33954,0.93038,1.0186,0.64557,6.7561,15.242,-1.7536,0.58452,-0.51805,-2.3381,-3.6338e-13,-0.25903,0,0,0.33333,3.9475e-16,0,0.66667
0.7045,0.6643,2.1135,0.24644,1.3613,4.1469,-1.3889,0.46298,-1.7841,-1.8519,4.497e-11,-0.89207,0,0,0.33333,-1.579e-15,0,0.66667
0.2261,0.091557,0.67829,-0.61266,-6.8572,19.402,1.1082,-0.36939,-0.66584,1.4776,1.0297e-10,-0.33292,0,0,0.33333,5.4278e-16,0,0.66667
0.84499,0.34797,2.535,-0.22804,-0.66191,1.5377,1.5415,-0.51385,-1.8157,2.0554,-5.9619e-10,-0.90786,0,0,0.33333,-0,-0,0.66667
0.52623,0.059024,1.5787,-0.66146,-5.6538,9.1249,2.7847,-0.92822,-0.44463,3.7129,6.9944e-14,-0.22232,0,0,0.33333,-0,-0,0.66667
0.50062,0.94457,1.5019,0.66685,5.9152,9.9025,-2.6707,0.89023,-0.41921,-3.5609,-1.128e-13,-0.20961,0,0,0.33333,-0,-0,0.66667
0.25369,0.24199,0.76106,-0.38701,-4.1796,18.286,0.78543,-0.26181,-1.4673,1.0472,1.2017e-10,-0.73363,0,0,0.33333,3.9475e-16,0,0.66667
0.18616,0.96162,0.55847,0.69243,7.9616,20.954,-1.0312,0.34373,-0.29544,-1.3749,8.0987e-12,-0.14772,0,0,0.33333,-0,-0,0.66667
0.47182,0.81109,1.4155,0.46664,4.1863,10.657,-1.7613,0.58711,-1.2266,-2.3485,4.8572e-13,-0.61332,0,0,0.33333,7.8949e-16,0,0.66667
0.98182,0.50909,2.9455,0.01364,-0.0020628,0.089311,-0.10714,0.035716,-1.9992,-0.14285,5.0764e-06,-0.99958,0,0,0.33333,-0,-0,0.66667
0.13291,0.039477,0.39872,-0.69078,-8.0819,23.013,0.73448,-0.24483,-0.30292,0.9793,2.423e-09,-0.15146,0,0,0.33333,-0,-0,0.66667
0.28346,0.057857,0.85039,-0.66321,-7.2347,17.28,1.504,-0.50132,-0.43648,2.0053,5.1094e-12,-0.21824,0,0,0.33333,-3.9475e-16,0,0.66667
0.80064,0.10194,2.4019,-0.59708,-2.4445,2.5636,3.8244,-1.2748,-0.73218,5.0992,-3.1152e-10,-0.36609,0,0,0.33333,-0,-0,0.66667
0.66478,0.52854,1.9943,0.042809,0.2618,5.0198,-0.22767,0.07589,-1.9938,-0.30356,4.5185e-12,-0.99692,0,0,0.33333,-7.8949e-16,0,0.66667
0.27876,0.71308,0.83628,0.31962,3.3849,17.328,-0.71278,0.23759,-1.637,-0.95038,-7.0109e-11,-0.81849,0,0,0.33333,-3.9475e-16,0,0.66667
0.31465,0.99113,0.94394,0.73669,7.95,16.187,-1.8544,0.61813,-0.07024,-2.4725,-9.6811e-14,-0.03512,0,0,0.33333,1.1842e-15,0,0.66667
0.41995,0.23498,1.2598,-0.39753,-3.7624,12.324,1.3356,-0.44518,-1.4377,1.7807,-4.7906e-13,-0.71885,0,0,0.33333,-0,-0,0.66667
0.60279,0.77115,1.8084,0.40672,2.9398,6.7491,-1.9613,0.65378,-1.4112,-2.6151,7.0854e-13,-0.70562,0,0,0.33333,-0,-0,0.66667
0.71934,0.47355,2.158,-0.039673,-0.20666,3.7648,0.2283,-0.076101,-1.995,0.30441,-1.1948e-11,-0.99752,0,0,0.33333,-0,-0,0.66667
0.8573,0.41572,2.5719,-0.12642,-0.33042,1.3229,0.86701,-0.289,-1.943,1.156,6.5064e-10,-0.97151,0,0,0.33333,-0,-0,0.66667
0.68111,0.25069,2.0433,-0.37396,-2.2418,4.754,2.0377,-0.67922,-1.5035,2.7169,-2.7248e-11,-0.75177,0,0,0.33333,1.579e-15,0,0.66667
0.23698,0.83918,0.71095,0.50878,5.6022,18.953,-0.96457,0.32152,-1.08,-1.2861,-1.5204e-10,-0.54,0,0,0.33333,4.9343e-16,0,0.66667
0.92572,0.51923,2.7772,0.028851,0.032721,0.51042,-0.21367,0.071222,-1.9965,-0.28489,5.793e-08,-0.99825,0,0,0.33333,3.158e-15,0,0.66667
0.7812,0.11394,2.3436,-0.57909,-2.5719,2.877,3.6191,-1.2064,-0.80771,4.8254,-1.7988e-10,-0.40386,0,0,0.33333,-0,-3.6106e-16,0.66667
0.30738,0.49613,0.92214,-0.0057996,-0.059632,16.226,0.014261,-0.0047538,-2.0001,0.019015,5.0861e-13,-1.0001,0,0,0.33333,-4.0243e-16,0,0.66667
0.30497,0.48863,0.9149,-0.01706,-0.17573,16.316,0.041622,-0.013874,-1.9983,0.055496,2.8686e-12,-0.99914,0,0,0.33333,-3.9475e-16,0,0.66667
0.88117,0.86905,2.6435,0.55357,1.338,1.3533,-3.9023,1.3008,-0.9103,-5.2031,8.9351e-09,-0.45515,0,0,0.33333,-0,-0,0.66667
0.12608,0.013482,0.37824,-0.72978,-8.5955,23.289,0.73607,-0.24536,-0.10616,0.98143,3.0997e-09,-0.053082,0,0,0.33333,3.9475e-16,0,0.66667
0.63346,0.53289,1.9004,0.049335,0.3258,5.8055,-0.25001,0.083338,-1.9919,-0.33335,2.3427e-12,-0.99595,0,0,0.33333,1.579e-15,0,0.66667
0.27771,0.88961,0.83314,0.58441,6.3382,17.456,-1.2984,0.4328,-0.78505,-1.7312,-2.6207e-11,-0.39252,0,0,0.33333,-0,-0,0.66667
0.8272,0.52638,2.4816,0.039564,0.12689,1.7492,-0.26182,0.087272,-1.995,-0.34909,-2.0877e-10,-0.9975,0,0,0.33333,-0,-0,0.66667
0.36452,0.116,1.0936,-0.576,-5.8557,14.32,1.6797,-0.55991,-0.81993,2.2396,1.853e-13,-0.40997,0,0,0.33333,-0,-0,0.66667
0.73337,0.36189,2.2001,-0.20717,-1.0373,3.5071,1.2154,-0.40515,-1.8472,1.6206,-6.559e-11,-0.92359,0,0,0.33333,-0,-0,0.66667
0.19242,0.32021,0.57725,-0.26968,-2.9794,20.609,0.41513,-0.13838,-1.7411,0.5535,1.5468e-10,-0.87057,0,0,0.33333,3.9475e-16,0,0.66667
0.48145,0.39505,1.4443,-0.15742,-1.3634,10.227,0.60631,-0.2021,-1.9115,0.80841,-8.9595e-14,-0.95575,0,0,0.33333,-0,-0,0.66667
0.80359,0.072667,2.4108,-0.641,-2.624,2.5727,4.1208,-1.3736,-0.5385,5.4944,-1.4735e-10,-0.26925,0,0,0.33333,-0,-0,0.66667
0.39699,0.93731,1.191,0.65596,6.541,13.25,-2.0833,0.69442,-0.47097,-2.7777,6.5681e-13,-0.23549,0,0,0.33333,-8.5616e-16,0,0.66667
0.16157,0.78485,0.48472,0.42728,4.8252,21.837,-0.5523,0.1841,-1.3511,-0.7364,-6.3208e-10,-0.67557,0,0,0.33333,-0,-0,0.66667
0.64898,0.91393,1.9469,0.6209,4.1987,5.7421,-3.2236,1.0745,-0.62891,-4.2982,1.5787e-13,-0.31445,0,0,0.33333,-0,-0,0.66667
0.75333,0.81254,2.26,0.46881,2.2665,3.2795,-2.8253,0.94177,-1.2197,-3.7671,1.3522e-10,-0.60985,0,0,0.33333,-3.158e-15,0,0.66667
0.28019,0.73733,0.84058,0.35599,3.7757,17.284,-0.79797,0.26599,-1.5492,-1.064,-6.8827e-11,-0.7746,0,0,0.33333,-3.3181e-16,0,0.66667
0.45136,0.10988,1.3541,-0.58519,-5.4581,11.392,2.113,-0.70435,-0.78205,2.8174,-6.3927e-13,-0.39103,0,0,0.33333,-7.8949e-16,-4.9945e-16,0.66667
0.90045,0.57259,2.7013,0.10888,0.18501,0.78226,-0.78433,0.26144,-1.9573,-1.0458,1.153e-08,-0.97865,0,0,0.33333,-0,-0,0.66667
0.87199,0.004456,2.616,-0.74332,-2.1299,1.7512,5.1853,-1.7284,-0.035825,6.9137,-1.0094e-09,-0.017912,0,0,0.33333,-0,-0,0.66667
0.70719,0.87298,2.1216,0.55947,3.2113,4.3249,-3.1652,1.0551,-0.88775,-4.2202,2.0386e-11,-0.44388,0,0,0.33333,7.8949e-16,0,0.66667
0.5909,0.40418,1.7727,-0.14373,-1.0418,6.9584,0.67946,-0.22649,-1.9273,0.90594,-1.48e-12,-0.96366,0,0,0.33333,9.8686e-17,0,0.66667
0.81738,0.75078,2.4521,0.37617,1.3339,2.0578,-2.4598,0.81993,-1.4977,-3.2797,3.5433e-10,-0.74885,0,0,0.33333,-3.158e-15,0,0.66667
0.90764,0.010909,2.7229,-0.73364,-1.5326,1.3415,5.327,-1.7757,-0.086159,7.1027,-7.3762e-08,-0.04308,0,0,0.33333,-0,-0,0.66667
0.0025076,0.92261,0.0075227,0.63392,7.5013,28.15,-0.012716,0.0042367,-0.57073,-0.016956,-2.964e-06,-0.28536,0,0,0.33333,-0,-0,0.66667
0.39723,0.48711,1.1917,-0.019334,-0.18413,13.014,0.06144,-0.02048,-1.9979,0.08192,6.7237e-13,-0.99896,0,0,0.33333,-3.9475e-16,0,0.66667
0.56141,0.24989,1.6842,-0.37516,-2.9189,7.882,1.6849,-0.56165,-1.501,2.2466,7.4674e-13,-0.75049,0,0,0.33333,-1.2953e-16,0,0.66667
0.73392,0.44019,2.2018,-0.089712,-0.44509,3.4613,0.52673,-0.17558,-1.9724,0.70231,-3.2451e-11,-0.9862,0,0,0.33333,-0,-0,0.66667
0.087473,0.34063,0.26242,-0.23905,-2.7214,24.744,0.16729,-0.055762,-1.7971,0.22305,1.5235e-08,-0.89856,0,0,0.33333,-2.4672e-17,0,0.66667
0.39975,0.93919,1.1993,0.65879,6.5543,13.158,-2.1068,0.70228,-0.45746,-2.8091,4.9694e-13,-0.22873,0,0,0.33333,-0,-0,0.66667
0.27962,0.30149,0.83886,-0.29777,-3.1475,17.291,0.6661,-0.22203,-1.6845,0.88813,6.6813e-11,-0.84227,0,0,0.33333,-0,-0,0.66667
0.42351,0.045443,1.2705,-0.68183,-6.6455,12.378,2.3101,-0.77004,-0.34669,3.0801,-4.5297e-13,-0.17334,0,0,0.33333,7.8949e-16,0,0.66667
0.49798,0.49162,1.4939,-0.012567,-0.10607,9.6883,0.050063,-0.016688,-1.9994,0.066751,7.6647e-14,-0.9997,0,0,0.33333,1.1842e-15,0,0.66667
0.66002,0.99133,1.98,0.73699,4.9766,5.6126,-3.8914,1.2971,-0.068487,-5.1886,-2.2871e-14,-0.034244,0,0,0.33333,-0,-0,0.66667
0.49624,0.47526,1.4887,-0.037117,-0.31413,9.7438,0.14735,-0.049117,-1.9951,0.19647,2.7339e-15,-0.99753,0,0,0.33333,-0,-0,0.66667
0.62047,0.63776,1.8614,0.20664,1.4137,6.1779,-1.0257,0.34191,-1.8475,-1.3676,5.0756e-12,-0.92377,0,0,0.33333,-0,-0,0.66667
0.58244,0.67442,1.7473,0.26162,1.9404,7.231,-1.219,0.40635,-1.756,-1.6254,7.0333e-13,-0.87801,0,0,0.33333,7.8949e-16,0,0.66667
0.42833,0.77768,1.285,0.41652,3.9132,12.052,-1.4273,0.47576,-1.3834,-1.903,9.0905e-13,-0.69169,0,0,0.33333,-7.8949e-16,0,0.66667
0.0049764,0.32716,0.014929,-0.25926,-2.9779,28.05,0.010321,-0.0034404,-1.7603,0.013762,-9.6433e-09,-0.88015,0,0,0.33333,-0,-0,0.66667
0.19452,0.8919,0.58355,0.58785,6.6551,20.599,-0.91478,0.30493,-0.7705,-1.2197,-3.5573e-10,-0.38525,0,0,0.33333,-3.9475e-16,0,0.66667
0.32021,0.038666,0.96062,-0.692,-7.3926,15.96,1.7727,-0.59089,-0.29702,2.3636,1.1147e-13,-0.14851,0,0,0.33333,-0,-0,0.66667
0.14698,0.086344,0.44093,-0.62048,-7.1707,22.448,0.72958,-0.24319,-0.63079,0.97277,1.1014e-09,-0.3154,0,0,0.33333,-0,-0,0.66667
0.59866,0.59796,1.796,0.14693,1.0489,6.7457,-0.70372,0.23457,-1.9234,-0.93829,2.0666e-12,-0.96172,0,0,0.33333,-1.579e-15,0,0.66667
0.6115,0.027467,1.8345,-0.7088,-5.2809,6.7907,3.4674,-1.1558,-0.21426,4.6233,1.6387e-13,-0.10713,0,0,0.33333,-0,-0,0.66667
0.50009,0.58909,1.5003,0.13363,1.1271,9.634,-0.53464,0.17821,-1.9372,-0.71285,-1.058e-13,-0.96862,0,0,0.33333,1.1842e-15,0,0.66667
0.32085,0.72846,0.96255,0.3427,3.5308,15.782,-0.87963,0.29321,-1.5819,-1.1728,-2.7169e-11,-0.79093,0,0,0.33333,-0,-0,0.66667
0.65326,0.81442,1.9598,0.47163,3.078,5.4954,-2.4648,0.82159,-1.2099,-3.2863,7.0144e-12,-0.60495,0,0,0.33333,1.579e-15,0,0.66667
0.19028,0.88368,0.57085,0.57551,6.5181,20.758,-0.87609,0.29203,-0.82217,-1.1681,-4.5762e-10,-0.41109,0,0,0.33333,-0,-0,0.66667
0.005881,0.86649,0.017643,0.54974,6.4482,28.016,-0.025864,0.0086213,-0.92505,-0.034485,-5.4982e-08,-0.46253,0,0,0.33333,-6.1679e-18,-4.1812e-16,0.66667
0.73494,0.94806,2.2048,0.67209,3.6316,3.8749,-3.9516,1.3172,-0.39391,-5.2688,7.9812e-12,-0.19696,0,0,0.33333,-0,-0,0.66667
0.4435,0.12524,1.3305,-0.56214,-5.2751,11.633,1.9945,-0.66483,-0.87732,2.6593,-9.6079e-13,-0.43866,0,0,0.33333,-0,-0,0.66667
0.69784,0.71755,2.0935,0.32633,1.8546,4.339,-1.8218,0.60727,-1.6221,-2.4291,4.2846e-11,-0.81104,0,0,0.33333,9.8686e-16,0,0.66667
0.18504,0.80562,0.55513,0.45842,5.1452,20.93,-0.67862,0.22621,-1.2529,-0.90483,-5.9565e-10,-0.62643,0,0,0.33333,-9.8686e-17,0,0.66667
0.06262,0.48742,0.18786,-0.018872,-0.21458,25.733,0.0094545,-0.0031517,-1.9987,0.012606,-2.7502e-07,-0.99935,0,0,0.33333,-0,-0,0.66667
0.37811,0.25503,1.1343,-0.36746,-3.6162,13.748,1.1115,-0.37051,-1.5201,1.482,3.9933e-12,-0.76007,0,0,0.33333,-0,-0,0.66667
0.696,0.35236,2.088,-0.22147,-1.2523,4.3274,1.2331,-0.41104,-1.8251,1.6442,-3.5845e-11,-0.91257,0,0,0.33333,-0,-0,0.66667
0.10282,0.38054,0.30846,-0.17919,-2.029,24.129,0.14739,-0.049131,-1.8857,0.19652,7.2524e-09,-0.94287,0,0,0.33333,-0,-0,0.66667
0.19583,0.081027,0.5875,-0.62846,-7.1431,20.561,0.98459,-0.3282,-0.59494,1.3128,2.2754e-10,-0.29747,0,0,0.33333,-1.9737e-16,0,0.66667
0.45395,0.55058,1.3619,0.07587,0.67902,11.104,-0.27553,0.091844,-1.9794,-0.36738,-1.249e-14,-0.9897,0,0,0.33333,-0,-0,0.66667
0.62115,0.86793,1.8634,0.5519,3.92,6.3769,-2.7425,0.91417,-0.91688,-3.6567,-3.1952e-13,-0.45844,0,0,0.33333,-1.1842e-15,0,0.66667
0.75012,0.59935,2.2504,0.14902,0.69854,3.1447,-0.8943,0.2981,-1.9216,-1.1924,6.3863e-11,-0.96082,0,0,0.33333,-0,-0,0.66667
0.10974,0.20433,0.32921,-0.44351,-5.0897,23.878,0.38934,-0.12978,-1.3005,0.51913,7.1812e-10,-0.65025,0,0,0.33333,-0,-0,0.66667
0.62462,0.058156,1.8739,-0.66277,-4.7655,6.3991,3.3118,-1.1039,-0.43893,4.4158,4.5408e-13,-0.21947,0,0,0.33333,1.1842e-15,1.8898e-16,0.66667
0.38736,0.64797,1.1621,0.22195,2.1456,13.382,-0.6878,0.22927,-1.8247,-0.91707,-4.0288e-12,-0.91233,0,0,0.33333,-0,-0,0.66667
0.67009,0.59954,2.0103,0.1493,0.90351,4.9094,-0.80037,0.26679,-1.921,-1.0672,1.5913e-11,-0.96052,0,0,0.33333,-1.579e-15,0,0.66667
0.20356,0.092263,0.61068,-0.61161,-6.9156,20.259,0.99599,-0.332,-0.67124,1.328,2.4901e-10,-0.33562,0,0,0.33333,4.9343e-16,0,0.66667
0.52792,0.88719,1.5838,0.58078,4.8914,9.0043,-2.4528,0.81761,-0.8002,-3.2705,-5.2025e-13,-0.4001,0,0,0.33333,7.8949e-16,0,0.66667
0.17216,0.54261,0.51649,0.063922,0.70731,21.383,-0.08804,0.029347,-1.9855,-0.11739,2.0801e-11,-0.99273,0,0,0.33333,-0,-0,0.66667
0.018681,0.21477,0.056043,-0.42784,-4.964,27.503,0.063941,-0.021314,-1.3496,0.085254,2.1184e-09,-0.67478,0,0,0.33333,3.7007e-17,0,0.66667
0.48695,0.3608,1.4609,-0.2088,-1.7991,10.064,0.81341,-0.27114,-1.8445,1.0846,-3.9246e-14,-0.92226,0,0,0.33333,-7.8949e-16,0,0.66667
0.18418,0.015697,0.55253,-0.72646,-8.3956,21.041,1.0704,-0.35679,-0.12303,1.4272,1.914e-10,-0.061515,0,0,0.33333,-0,-3.9474e-16,0.66667
0.63834,0.33396,1.915,-0.24906,-1.6416,5.7308,1.2719,-0.42396,-1.7792,1.6959,-9.3365e-12,-0.88962,0,0,0.33333,-0,-0,0.66667
0.53657,0.61863,1.6097,0.17794,1.4226,8.5294,-0.76382,0.25461,-1.8873,-1.0184,-1.471e-13,-0.94364,0,0,0.33333,-3.9475e-16,0,0.66667
0.77495,0.14834,2.3248,-0.52749,-2.373,2.9306,3.2702,-1.0901,-1.0103,4.3603,-1.939e-10,-0.50515,0,0,0.33333,-0,-0,0.66667
0.39296,0.65092,1.1789,0.22637,2.177,13.188,-0.71164,0.23721,-1.8181,-0.94886,-3.3124e-12,-0.90904,0,0,0.33333,-1.9737e-16,0,0.66667
0.98945,0.018834,2.9684,-0.72175,-0.15062,0.73605,5.7131,-1.9044,-0.14718,7.6175,2.9521e-06,-0.073592,0,0,0.33333,3.158e-15,0,0.66667
0.51521,0.15826,1.5456,-0.5126,-4.3591,9.3343,2.1128,-0.70427,-1.0669,2.8171,3.9324e-13,-0.53344,0,0,0.33333,-0,-3.4549e-16,0.66667
0.47882,0.23182,1.4365,-0.40227,-3.5534,10.398,1.5409,-0.51364,-1.4239,2.0546,-4.492e-13,-0.71196,0,0,0.33333,7.8949e-16,0,0.66667
0.74944,0.96057,2.2483,0.69086,3.5729,3.6131,-4.1421,1.3807,-0.30318,-5.5228,6.4388e-12,-0.15159,0,0,0.33333,-0,-0,0.66667
0.57269,0.078966,1.7181,-0.63155,-4.9859,7.7578,2.8935,-0.96448,-0.5811,3.8579,6.5858e-13,-0.29055,0,0,0.33333,-0,-0,0.66667
0.36247,0.14557,1.0874,-0.53165,-5.3873,14.369,1.5416,-0.51388,-0.99465,2.0555,1.5365e-12,-0.49732,0,0,0.33333,3.9475e-16,0,0.66667
0.48924,0.76299,1.4677,0.39448,3.4342,10.065,-1.544,0.51466,-1.446,-2.0586,2.5824e-13,-0.72302,0,0,0.33333,-7.8949e-16,0,0.66667
0.18914,0.049393,0.56742,-0.67591,-7.7467,20.834,1.0227,-0.34091,-0.37531,1.3636,1.4309e-10,-0.18766,0,0,0.33333,-0,-0,0.66667
0.39358,0.03785,1.1808,-0.69323,-6.9712,13.392,2.1827,-0.72758,-0.29138,2.9103,-3.6215e-13,-0.14569,0,0,0.33333,7.8949e-16,0,0.66667
0.029962,0.78925,0.089885,0.43387,5.0334,27.052,-0.104,0.034666,-1.3308,-0.13866,5.8279e-09,-0.66539,0,0,0.33333,-0,-0,0.66667
0.46253,0.54319,1.3876,0.064779,0.57354,10.823,-0.2397,0.079899,-1.9844,-0.3196,-1.1766e-13,-0.9922,0,0,0.33333,-0,-0,0.66667
0.27447,0.1732,0.82342,-0.49019,-5.2754,17.538,1.0764,-0.35879,-1.1448,1.4352,5.9248e-11,-0.57242,0,0,0.33333,-0,-0,0.66667
0.52672,0.24332,1.5801,-0.38502,-3.1731,8.9073,1.6224,-0.54079,-1.4728,2.1632,6.225e-13,-0.7364,0,0,0.33333,-3.9475e-16,0,0.66667
0.029272,0.34476,0.087816,-0.23287,-2.6693,27.074,0.054532,-0.018177,-1.8083,0.072709,7.5967e-08,-0.90414,0,0,0.33333,-9.8686e-17,0,0.66667
0.55509,0.75952,1.6653,0.38928,3.0661,8.0723,-1.7287,0.57623,-1.4606,-2.3049,-9.5501e-13,-0.73032,0,0,0.33333,-0,-0,0.66667
0.293,0.15396,0.87899,-0.51905,-5.5362,16.864,1.2167,-0.40555,-1.0427,1.6222,2.9684e-11,-0.52135,0,0,0.33333,-9.8686e-17,0,0.66667
0.57749,0.82766,1.7325,0.49149,3.7674,7.5031,-2.2707,0.75689,-1.1409,-3.0276,-1.1087e-12,-0.57045,0,0,0.33333,-7.8949e-16,0,0.66667
0.73277,0.38579,2.1983,-0.17131,-0.85719,3.5062,1.0043,-0.33475,-1.8955,1.339,-5.5886e-11,-0.94773,0,0,0.33333,-0,-0,0.66667
0.44034,0.74866,1.321,0.37299,3.4443,11.633,-1.3139,0.43798,-1.5063,-1.7519,7.695e-13,-0.75313,0,0,0.33333,1.1349e-15,0,0.66667
0.66316,0.62919,1.9895,0.19379,1.1973,5.0908,-1.0281,0.34271,-1.8666,-1.3708,1.6259e-11,-0.93329,0,0,0.33333,-0,-0,0.66667
0.23891,0.21644,0.71673,-0.42534,-4.6445,18.855,0.81295,-0.27098,-1.3573,1.0839,1.658e-10,-0.67865,0,0,0.33333,3.9475e-16,0,0.66667
0.9986,0.98727,2.9958,0.7309,0.0031188,0.71731,-5.839,1.9464,-0.10032,-7.7853,6.7308e-05,-0.05016,0,0,0.33333,-1.579e-15,0,0.66667
0.24288,0.21943,0.72864,-0.42085,-4.5841,18.703,0.81773,-0.27258,-1.371,1.0903,1.511e-10,-0.6855,0,0,0.33333,-0,-0,0.66667
0.94083,0.90488,2.8225,0.60732,0.71498,0.83772,-4.5711,1.5237,-0.68944,-6.0947,-2.6027e-07,-0.34472,0,0,0.33333,-6.9081e-16,0,0.66667
0.21722,0.6298,0.65166,0.1947,2.1202,19.641,-0.33834,0.11278,-1.8657,-0.45112,-8.7964e-11,-0.93285,0,0,0.33333,-0,-0,0.66667
0.49756,0.75145,1.4927,0.37717,3.2412,9.7956,-1.5013,0.50045,-1.4951,-2.0018,9.2704e-14,-0.74756,0,0,0.33333,-1.579e-15,0,0.66667
0.82118,0.56522,2.4635,0.097829,0.32622,1.8531,-0.64268,0.21423,-1.9663,-0.85691,-7.9973e-11,-0.98317,0,0,0.33333,-0,-0,0.66667
0.71659,0.62571,2.1498,0.18856,0.99777,3.8569,-1.081,0.36032,-1.8747,-1.4413,4.6647e-11,-0.93736,0,0,0.33333,-0,-0,0.66667
0.70558,0.075836,2.1167,-0.63625,-3.7299,4.4464,3.5914,-1.1971,-0.56024,4.7885,-6.4575e-12,-0.28012,0,0,0.33333,-0,-0,0.66667
0.44044,0.58317,1.3213,0.12475,1.1358,11.557,-0.43956,0.14652,-1.9443,-0.58608,-1.9265e-13,-0.97216,0,0,0.33333,-0,-0,0.66667
0.75418,0.18171,2.2625,-0.47743,-2.3049,3.2712,2.8805,-0.96017,-1.1896,3.8407,-1.3306e-10,-0.59479,0,0,0.33333,-3.9475e-16,0,0.66667
0.91995,0.63514,2.7599,0.20271,0.26422,0.61511,-1.4918,0.49728,-1.8537,-1.9891,-8.7746e-10,-0.92686,0,0,0.33333,-0,-0,0.66667
0.44135,0.94394,1.3241,0.66591,6.3522,11.778,-2.3512,0.78374,-0.42329,-3.1349,2.5802e-13,-0.21165,0,0,0.33333,-0,-0,0.66667
0.52797,0.39689,1.5839,-0.15466,-1.2522,8.7823,0.65325,-0.21775,-1.9147,0.871,1.2296e-13,-0.95733,0,0,0.33333,7.8949e-16,0,0.66667
0.066036,0.1883,0.19811,-0.46756,-5.4195,25.615,0.247,-0.082334,-1.2237,0.32934,-9.4664e-09,-0.61183,0,0,0.33333,-0,-0,0.66667
0.39077,0.48207,1.1723,-0.026899,-0.25783,13.238,0.084091,-0.02803,-1.9974,0.11212,7.7314e-13,-0.99868,0,0,0.33333,-0,-0,0.66667
0.46724,0.66215,1.4017,0.24322,2.1545,10.705,-0.90913,0.30304,-1.79,-1.2122,2.7822e-13,-0.895,0,0,0.33333,-0,-0,0.66667
0.89514,0.65452,2.6854,0.23177,0.43043,0.8918,-1.6598,0.55325,-1.8097,-2.213,-9.1203e-09,-0.90483,0,0,0.33333,1.9737e-16,0,0.66667
0.11056,0.3013,0.33167,-0.29806,-3.3865,23.829,0.26362,-0.087873,-1.684,0.35149,-6.3515e-10,-0.84199,0,0,0.33333,-9.8686e-17,0,0.66667
0.73114,0.51735,2.1934,0.026019,0.13016,3.5124,-0.15219,0.050728,-1.9971,-0.20291,8.8436e-12,-0.99853,0,0,0.33333,-0,-0,0.66667
0.54547,0.94781,1.6364,0.67172,5.5847,8.5705,-2.9312,0.97707,-0.3956,-3.9083,-2.2093e-13,-0.1978,0,0,0.33333,-0,-0,0.66667
0.60654,0.59221,1.8196,0.13832,0.97126,6.53,-0.67116,0.22372,-1.9328,-0.89489,2.58e-12,-0.96642,0,0,0.33333,-2.9606e-16,0,0.66667
0.029783,0.4091,0.089349,-0.13635,-1.5578,27.052,0.032487,-0.010829,-1.9347,0.043316,5.9106e-07,-0.96736,0,0,0.33333,9.8686e-17,0,0.66667
0.14675,0.22104,0.44024,-0.41844,-4.7451,22.416,0.49125,-0.16375,-1.3779,0.65499,4.0266e-10,-0.68895,0,0,0.33333,-0,-0,0.66667
0.28398,0.21564,0.85195,-0.42655,-4.5374,17.163,0.96905,-0.32302,-1.3537,1.2921,5.836e-11,-0.67684,0,0,0.33333,1.9737e-16,0,0.66667
0.004872,0.14516,0.014616,-0.53225,-6.2328,28.056,0.020745,-0.0069151,-0.99217,0.02766,2.1273e-08,-0.49608,0,0,0.33333,-0,7.2286e-16,0.66667
0.66916,0.64221,2.0075,0.21332,1.2992,4.9526,-1.1419,0.38065,-1.8377,-1.5226,1.9706e-11,-0.91886,0,0,0.33333,-2.9501e-18,0,0.66667
0.87026,0.40426,2.6108,-0.14361,-0.33746,1.1551,0.99981,-0.33327,-1.9273,1.3331,6.9951e-10,-0.96364,0,0,0.33333,1.579e-15,0,0.66667
0.54697,0.56226,1.6409,0.093392,0.73178,8.2046,-0.40866,0.13622,-1.9705,-0.54488,4.0606e-14,-0.98527,0,0,0.33333,3.8241e-16,0,0.66667
0.54316,0.57776,1.6295,0.11664,0.92037,8.3205,-0.50685,0.16895,-1.951,-0.6758,-1.0003e-13,-0.97551,0,0,0.33333,7.8949e-16,0,0.66667
0.61573,0.47887,1.8472,-0.031693,-0.21768,6.269,0.15612,-0.052039,-1.9959,0.20815,-9.9058e-13,-0.99793,0,0,0.33333,-0,-0,0.66667
0.30218,0.58409,0.90654,0.12614,1.304,16.425,-0.30494,0.10165,-1.9429,-0.40658,-2.4009e-11,-0.97147,0,0,0.33333,-0,-0,0.66667
0.36673,0.30941,1.1002,-0.28588,-2.8267,14.121,0.83874,-0.27958,-1.7097,1.1183,8.1345e-12,-0.85485,0,0,0.33333,-4.8354e-16,0,0.66667
0.57494,0.057366,1.7248,-0.66395,-5.25,7.7272,3.0539,-1.018,-0.43281,4.0718,4.5297e-13,-0.21641,0,0,0.33333,3.9475e-16,0,0.66667
0.80922,0.8387,2.4276,0.50805,1.944,2.3163,-3.289,1.0963,-1.0825,-4.3853,5.0249e-10,-0.54123,0,0,0.33333,-1.579e-15,0,0.66667
0.2016,0.013761,0.60479,-0.72936,-8.3735,20.377,1.1763,-0.3921,-0.10826,1.5684,-5.2686e-11,-0.054129,0,0,0.33333,-7.8949e-16,3.8913e-16,0.66667
0.32752,0.86471,0.98257,0.54707,5.7112,15.619,-1.4334,0.47781,-0.9359,-1.9112,-7.1686e-12,-0.46795,0,0,0.33333,-3.9475e-16,3.9151e-16,0.66667
0.74292,0.040584,2.2288,-0.68912,-3.6427,3.7383,4.0957,-1.3652,-0.31096,5.461,-7.478e-12,-0.15548,0,0,0.33333,-0,-0,0.66667
0.34092,0.65421,1.0228,0.23131,2.3311,15.028,-0.63088,0.21029,-1.8105,-0.84117,-1.6208e-11,-0.90527,0,0,0.33333,-9.8686e-17,0,0.66667
0.047611,0.94025,0.14283,0.66037,7.82,26.363,-0.25153,0.083843,-0.45039,-0.33537,4.2959e-07,-0.2252,0,0,0.33333,-0,-0,0.66667
0.15636,0.26646,0.46907,-0.35032,-3.9413,22.028,0.4382,-0.14607,-1.5636,0.58426,2.0992e-10,-0.78178,0,0,0.33333,-0,-0,0.66667
0.19386,0.58058,0.58159,0.12086,1.3272,20.538,-0.18745,0.062483,-1.9473,-0.24993,-9.156e-11,-0.97366,0,0,0.33333,-1.9737e-16,0,0.66667
0.49511,0.78932,1.4853,0.43398,3.7628,9.9025,-1.719,0.57299,-1.33,-2.292,6.8168e-14,-0.66502,0,0,0.33333,-0,-0,0.66667
0.63512,0.63286,1.9054,0.19929,1.3187,5.7942,-1.0126,0.33752,-1.8585,-1.3501,7.8162e-12,-0.92923,0,0,0.33333,1.579e-15,0,0.66667
0.88022,0.0020914,2.6407,-0.74686,-2.0148,1.6596,5.2592,-1.7531,-0.017245,7.0123,-2.6485e-08,-0.0086226,0,0,0.33333,-0,-0,0.66667
0.90254,0.40366,2.7076,-0.14451,-0.24038,0.77021,1.0434,-0.3478,-1.9263,1.3912,1.6912e-10,-0.96316,0,0,0.33333,1.9737e-16,0,0.66667
0.30716,0.062185,0.92148,-0.65672,-7.0478,16.411,1.6138,-0.53792,-0.46745,2.1517,1.7475e-12,-0.23372,0,0,0.33333,7.4015e-17,0,0.66667
0.75338,0.33584,2.2601,-0.24625,-1.1496,3.1186,1.4841,-0.49471,-1.7842,1.9788,-1.0245e-10,-0.89212,0,0,0.33333,-0,-0,0.66667
0.28243,0.7144,0.84728,0.3216,3.3982,17.192,-0.72662,0.24221,-1.6329,-0.96883,-6.5449e-11,-0.81644,0,0,0.33333,-0,-0,0.66667
0.36858,0.63641,1.1057,0.20461,2.0113,14.036,-0.60332,0.20111,-1.8505,-0.80442,-7.3016e-12,-0.92524,0,0,0.33333,-0,-0,0.66667
0.29273,0.73827,0.87818,0.3574,3.7602,16.819,-0.83697,0.27899,-1.5453,-1.116,-5.2211e-11,-0.77264,0,0,0.33333,-0,-0,0.66667
0.41369,0.29463,1.2411,-0.30806,-2.9146,12.501,1.0195,-0.33984,-1.6618,1.3594,8.4399e-13,-0.8309,0,0,0.33333,-7.8949e-16,0,0.66667
0.21472,0.87385,0.64415,0.56078,6.2749,19.817,-0.96326,0.32109,-0.8827,-1.2844,-2.4963e-10,-0.44135,0,0,0.33333,-3.9475e-16,0,0.66667
0.31899,0.42615,0.95696,-0.11077,-1.1308,15.806,0.28267,-0.094223,-1.9557,0.37689,1.5559e-11,-0.97786,0,0,0.33333,-0,-0,0.66667
0.12192,0.71705,0.36576,0.32558,3.6947,23.382,-0.31755,0.10585,-1.6239,-0.42341,-5.4312e-10,-0.81196,0,0,0.33333,2.2204e-16,0,0.66667
0.96302,0.1153,2.8891,-0.57705,-0.36535,0.63337,4.4457,-1.4819,-0.81553,5.9276,-1.4977e-08,-0.40776,0,0,0.33333,7.8949e-16,0,0.66667
0.50398,0.67603,1.5119,0.26404,2.2288,9.5477,-1.0646,0.35486,-1.7516,-1.4194,-9.4369e-14,-0.8758,0,0,0.33333,-0,-0,0.66667
0.9231,0.88493,2.7693,0.5774,0.88748,0.94459,-4.264,1.4213,-0.81454,-5.6853,-1.7061e-08,-0.40727,0,0,0.33333,-0,-0,0.66667
0.74616,0.9877,2.2385,0.73155,3.8703,3.7346,-4.3668,1.4556,-0.096652,-5.8224,8.5842e-13,-0.048326,0,0,0.33333,-7.8949e-16,0,0.66667
0.45771,0.88457,1.3731,0.57686,5.3347,11.181,-2.1123,0.70409,-0.81639,-2.8164,5.7176e-13,-0.40819,0,0,0.33333,7.8949e-16,0,0.66667
0.75462,0.99464,2.2639,0.74197,3.8242,3.587,-4.4792,1.4931,-0.042661,-5.9723,9.2011e-12,-0.021331,0,0,0.33333,-1.1322e-15,0,0.66667
0.62802,0.44552,1.8841,-0.081714,-0.54672,5.9501,0.41054,-0.13685,-1.9761,0.54739,-3.416e-12,-0.98806,0,0,0.33333,1.579e-15,0,0.66667
0.30376,0.47262,0.91128,-0.041073,-0.42351,16.361,0.099809,-0.03327,-1.9942,0.13308,8.0873e-12,-0.99708,0,0,0.33333,-0,-0,0.66667
0.52166,0.73312,1.565,0.34968,2.8946,9.0418,-1.4593,0.48643,-1.5645,-1.9457,-5.4812e-13,-0.78224,0,0,0.33333,7.8949e-16,0,0.66667
0.71231,0.97797,2.1369,0.71696,4.2022,4.4047,-4.0856,1.3619,-0.17182,-5.4475,4.1656e-13,-0.085909,0,0,0.33333,1.579e-15,0,0.66667
0.30531,0.19038,0.91594,-0.46442,-4.8865,16.39,1.1344,-0.37812,-1.2334,1.5125,2.8702e-11,-0.61672,0,0,0.33333,7.8949e-16,0,0.66667
0.012523,0.6668,0.037569,0.2502,2.8723,27.747,-0.025066,0.0083553,-1.777,-0.033422,-6.831e-08,-0.88852,0,0,0.33333,-0,-0,0.66667
0.26826,0.88778,0.80479,0.58167,6.3425,17.805,-1.2483,0.41611,-0.79659,-1.6644,-3.6463e-11,-0.3983,0,0,0.33333,-3.9475e-16,0,0.66667
0.79675,0.20249,2.3902,-0.44626,-1.7875,2.4619,2.8444,-0.94815,-1.2918,3.7926,-3.575e-10,-0.64591,0,0,0.33333,-1.579e-15,0,0.66667
0.92999,0.8512,2.79,0.52679,0.69842,0.81396,-3.9193,1.3064,-1.0129,-5.2258,6.2451e-10,-0.50647,0,0,0.33333,-0,-0,0.66667
0.62533,0.44,1.876,-0.089998,-0.60592,6.0215,0.45023,-0.15008,-1.9723,0.6003,-3.4984e-12,-0.98613,0,0,0.33333,1.579e-15,0,0.66667
0.13281,0.95638,0.39842,0.68456,8.0032,23.016,-0.72732,0.24244,-0.33303,-0.96976,-1.7809e-09,-0.16652,0,0,0.33333,-1.9737e-16,0,0.66667
0.75757,0.0092579,2.2727,-0.73611,-3.748,3.5225,4.4613,-1.4871,-0.072848,5.9483,-7.4385e-12,-0.036424,0,0,0.33333,-0,-0,0.66667
0.52691,0.42966,1.5807,-0.10552,-0.85432,8.8053,0.44478,-0.14826,-1.9602,0.59303,1.6487e-13,-0.98008,0,0,0.33333,-3.9475e-16,0,0.66667
0.75387,0.1487,2.2616,-0.52696,-2.5741,3.3271,3.178,-1.0593,-1.0125,4.2374,-1.0614e-10,-0.50626,0,0,0.33333,7.8949e-16,0,0.66667
0.85861,0.76819,2.5758,0.40229,1.1014,1.4719,-2.7633,0.92109,-1.4244,-3.6843,3.9025e-10,-0.71221,0,0,0.33333,1.579e-15,0,0.66667
0.94754,0.89185,2.8426,0.58778,0.58833,0.75677,-4.4556,1.4852,-0.77087,-5.9408,-1.0522e-07,-0.38543,0,0,0.33333,-0,-0,0.66667
0.65454,0.021498,1.9636,-0.71775,-4.8878,5.7195,3.7584,-1.2528,-0.16816,5.0112,1.6542e-13,-0.084082,0,0,0.33333,-0,-0,0.66667
0.85426,0.1742,2.5628,-0.4887,-1.4208,1.6189,3.3398,-1.1133,-1.1502,4.4531,-1.0335e-09,-0.57508,0,0,0.33333,-0,-0,0.66667
0.74259,0.27224,2.2278,-0.34164,-1.681,3.3903,2.0296,-0.67652,-1.5845,2.7061,-1.0652e-10,-0.79225,0,0,0.33333,-0,-0,0.66667
0.7271,0.47237,2.1813,-0.041443,-0.2103,3.5987,0.24106,-0.080355,-1.9941,0.32142,-1.3831e-11,-0.99705,0,0,0.33333,-1.579e-15,0,0.66667
0.85879,0.72938,2.5764,0.34407,0.92525,1.4197,-2.3638,0.78795,-1.5791,-3.1518,7.4656e-11,-0.78954,0,0,0.33333,1.579e-15,0,0.66667
0.923,0.33756,2.769,-0.24366,-0.30579,0.60825,1.7992,-0.59972,-1.7893,2.3989,1.7165e-08,-0.89463,0,0,0.33333,-7.8949e-16,0,0.66667
0.90208,0.11229,2.7062,-0.58156,-1.1646,1.1569,4.1969,-1.399,-0.79687,5.5959,-1.1582e-08,-0.39843,0,0,0.33333,1.579e-15,0,0.66667
0.39575,0.53705,1.1873,0.055571,0.53017,13.066,-0.17594,0.058646,-1.989,-0.23458,-1.1528e-12,-0.99448,0,0,0.33333,-7.8949e-16,0,0.66667
0.084021,0.70793,0.25206,0.3119,3.5659,24.886,-0.20965,0.069884,-1.6535,-0.27953,3.1155e-09,-0.82675,0,0,0.33333,-0,-0,0.66667
0.82957,0.33773,2.4887,-0.24341,-0.78373,1.7761,1.6154,-0.53847,-1.7897,2.1539,1.0081e-10,-0.89483,0,0,0.33333,1.9737e-15,0,0.66667
0.53893,0.70795,1.6168,0.31193,2.5055,8.5063,-1.3449,0.44829,-1.6534,-1.7932,-6.3261e-13,-0.8267,0,0,0.33333,7.8949e-16,0,0.66667
0.54208,0.18818,1.6262,-0.46772,-3.7967,8.501,2.0283,-0.67611,-1.223,2.7045,9.9831e-13,-0.61151,0,0,0.33333,-0,-0,0.66667
0.82518,0.04348,2.4755,-0.68478,-2.5556,2.2951,4.5205,-1.5068,-0.33227,6.0273,-1.6448e-10,-0.16613,0,0,0.33333,-0,-0,0.66667
0.031984,0.64623,0.095953,0.21934,2.5124,26.965,-0.056123,0.018708,-1.829,-0.074831,-4.6033e-08,-0.91448,0,0,0.33333,2.4672e-17,0,0.66667
0.87796,0.85818,2.6339,0.53727,1.325,1.3709,-3.7736,1.2579,-0.97313,-5.0315,3.1562e-09,-0.48656,0,0,0.33333,-1.579e-15,0,0.66667
0.034634,0.10827,0.1039,-0.5876,-6.9104,26.872,0.16281,-0.054269,-0.77178,0.21708,5.5684e-08,-0.38589,0,0,0.33333,-0,-0,0.66667
0.69319,0.75452,2.0796,0.38179,2.215,4.4808,-2.1172,0.70574,-1.4818,-2.823,3.6293e-11,-0.74092,0,0,0.33333,-0,-0,0.66667
0.58748,0.6131,1.7625,0.16966,1.2393,7.0595,-0.79737,0.26579,-1.897,-1.0632,1.259e-12,-0.94849,0,0,0.33333,7.8949e-16,0,0.66667
0.64175,0.98961,1.9252,0.73441,5.1658,6.0527,-3.7705,1.2568,-0.082192,-5.0273,-6.5725e-14,-0.041096,0,0,0.33333,7.8949e-16,0,0.66667
0.37408,0.89815,1.1222,0.59722,6.0363,13.999,-1.7873,0.59576,-0.73197,-2.383,4.9394e-13,-0.36598,0,0,0.33333,3.9475e-16,3.0319e-16,0.66667
0.27546,0.88701,0.82639,0.58051,6.3018,17.537,-1.2793,0.42642,-0.80113,-1.7057,-2.9503e-11,-0.40057,0,0,0.33333,-0,-0,0.66667
0.50941,0.79628,1.5282,0.44442,3.7809,9.4667,-1.8111,0.60371,-1.297,-2.4148,-3.1497e-13,-0.64848,0,0,0.33333,-0,-0,0.66667
0.88582,0.53092,2.6575,0.046373,0.092872,0.93924,-0.32862,0.10954,-1.9933,-0.43817,2.7367e-09,-0.99664,0,0,0.33333,1.2829e-15,0,0.66667
0.56529,0.80762,1.6959,0.46144,3.6005,7.8252,-2.0868,0.69559,-1.2432,-2.7824,-1.0405e-12,-0.62162,0,0,0.33333,-7.8949e-16,0,0.66667
0.66315,0.6661,1.9894,0.24915,1.5457,5.1127,-1.3218,0.44059,-1.7787,-1.7624,1.8228e-11,-0.88936,0,0,0.33333,-1.579e-15,0,0.66667
0.44138,0.72586,1.3241,0.33878,3.1161,11.584,-1.1963,0.39875,-1.5918,-1.595,5.3735e-13,-0.7959,0,0,0.33333,-0,-0,0.66667
0.97214,0.95255,2.9164,0.67883,0.37599,0.74338,-5.2793,1.7598,-0.36101,-7.0391,-1.3881e-06,-0.1805,0,0,0.33333,-1.579e-15,0,0.66667
0.74252,0.69855,2.2276,0.29783,1.4571,3.3639,-1.7691,0.58971,-1.684,-2.3589,9.9491e-11,-0.84198,0,0,0.33333,-0,-0,0.66667
0.3549,0.034236,1.0647,-0.69865,-7.2739,14.733,1.9836,-0.6612,-0.26495,2.6448,-2.0872e-13,-0.13248,0,0,0.33333,7.8949e-16,-3.229e-16,0.66667
0.65353,0.85951,1.9606,0.53926,3.5553,5.5483,-2.8194,0.93979,-0.96554,-3.7592,3.3429e-12,-0.48277,0,0,0.33333,-7.7394e-16,0,0.66667
0.54262,0.68063,1.6278,0.27094,2.1566,8.38,-1.1761,0.39205,-1.7389,-1.5682,-4.1245e-13,-0.86943,0,0,0.33333,-3.9475e-16,0,0.66667
0.88406,0.56841,2.6522,0.10262,0.21025,0.97042,-0.72576,0.24192,-1.9624,-0.96768,-5.5245e-09,-0.98121,0,0,0.33333,-0,-0,0.66667
0.27505,0.7112,0.82516,0.3168,3.3622,17.466,-0.69711,0.23237,-1.6428,-0.92947,-7.4836e-11,-0.82141,0,0,0.33333,-0,-0,0.66667
0.10807,0.49788,0.3242,-0.0031736,-0.035784,23.915,0.0027437,-0.00091453,-2.0009,0.0036583,5.8065e-08,-1.0005,0,0,0.33333,-7.4015e-17,0,0.66667
0.19127,0.27824,0.57382,-0.33264,-3.6898,20.663,0.509,-0.16967,-1.6071,0.67866,2.4015e-10,-0.80354,0,0,0.33333,2.4672e-16,0,0.66667
0.38705,0.027195,1.1611,-0.70921,-7.1918,13.627,2.196,-0.73199,-0.21198,2.928,-2.2116e-13,-0.10599,0,0,0.33333,-3.9475e-16,0,0.66667
0.85406,0.008419,2.5622,-0.73737,-2.3799,1.9688,5.0381,-1.6794,-0.06641,6.7174,-1.2571e-09,-0.033205,0,0,0.33333,3.158e-15,0,0.66667
0.27084,0.34259,0.81253,-0.23611,-2.5014,17.607,0.51159,-0.17053,-1.8025,0.68212,6.8666e-11,-0.90126,0,0,0.33333,-2.4672e-17,0,0.66667
0.62636,0.29184,1.8791,-0.31224,-2.1263,6.0693,1.5646,-0.52153,-1.6532,2.0861,-5.9455e-12,-0.82661,0,0,0.33333,-0,-0,0.66667
0.62355,0.55158,1.8707,0.077368,0.52279,6.0664,-0.38595,0.12865,-1.9785,-0.51459,2.7744e-12,-0.98927,0,0,0.33333,-7.8949e-16,0,0.66667
0.40805,0.34272,1.2241,-0.23591,-2.2356,12.672,0.77011,-0.2567,-1.8032,1.0268,1.6044e-12,-0.90161,0,0,0.33333,-7.8949e-16,0,0.66667
0.050335,0.80148,0.15101,0.45223,5.2451,26.239,-0.1821,0.060701,-1.2724,-0.2428,-4.2546e-09,-0.63621,0,0,0.33333,-4.9343e-17,0,0.66667
0.74483,0.34505,2.2345,-0.23243,-1.1192,3.2827,1.385,-0.46165,-1.8086,1.8466,-8.4955e-11,-0.90431,0,0,0.33333,-0,-0,0.66667
0.29573,0.0011921,0.88718,-0.74821,-8.1913,16.878,1.7701,-0.59004,-0.010703,2.3602,-4.0279e-13,-0.0053514,0,0,0.33333,-0,-0,0.66667
0.39846,0.50377,1.1954,0.0056558,0.05379,12.971,-0.018029,0.0060096,-2.0001,-0.024038,1.4511e-13,-1,0,0,0.33333,-0,-0,0.66667
0.37724,0.090199,1.1317,-0.6147,-6.209,13.9,1.8551,-0.61837,-0.65709,2.4735,-7.6505e-13,-0.32854,0,0,0.33333,1.9737e-16,0,0.66667
0.6636,0.65591,1.9908,0.23387,1.4474,5.0951,-1.2416,0.41386,-1.8064,-1.6554,1.8195e-11,-0.90318,0,0,0.33333,-3.9475e-16,0,0.66667
0.086333,0.94906,0.259,0.67359,7.9469,24.835,-0.46523,0.15508,-0.38605,-0.6203,-1.4122e-08,-0.19303,0,0,0.33333,-0,-0,0.66667
0.54989,0.84911,1.6497,0.52366,4.2272,8.3133,-2.3036,0.76788,-1.0252,-3.0715,-1.1389e-12,-0.5126,0,0,0.33333,-0,-0,0.66667
0.015422,0.066782,0.046265,-0.64983,-7.7016,27.638,0.080172,-0.026725,-0.49936,0.10689,-1.3249e-06,-0.24968,0,0,0.33333,-0,-0,0.66667
0.98304,0.22499,2.9491,-0.41252,0.0013355,0.30543,3.2441,-1.0814,-1.3953,4.3255,7.9308e-09,-0.69763,0,0,0.33333,-0,-0,0.66667
0.59843,0.68225,1.7953,0.27337,1.9674,6.7946,-1.3087,0.43624,-1.7343,-1.745,1.9176e-12,-0.86717,0,0,0.33333,3.9475e-16,0,0.66667
0.38411,0.18432,1.1523,-0.47351,-4.6777,13.584,1.4551,-0.48502,-1.2031,1.9401,7.0799e-13,-0.60154,0,0,0.33333,-3.9475e-16,0,0.66667
0.14675,0.18052,0.44024,-0.47922,-5.4614,22.426,0.56259,-0.18753,-1.1832,0.75013,1.1784e-09,-0.59161,0,0,0.33333,-0,-0,0.66667
0.69688,0.70564,2.0906,0.30847,1.7545,4.3502,-1.7197,0.57324,-1.6609,-2.2929,4.151e-11,-0.83047,0,0,0.33333,-7.8949e-16,0,0.66667
0.90581,0.105,2.7174,-0.5925,-1.1464,1.1337,4.2935,-1.4312,-0.75177,5.7247,-1.8718e-09,-0.37588,0,0,0.33333,-0,-0,0.66667
0.31811,0.035867,0.95433,-0.6962,-7.4528,16.038,1.7717,-0.59058,-0.27674,2.3623,3.5083e-14,-0.13837,0,0,0.33333,-0,-0,0.66667
0.76649,0.77633,2.2995,0.41449,1.8838,2.9781,-2.5416,0.84722,-1.3897,-3.3889,1.8594e-10,-0.69485,0,0,0.33333,-0,-0,0.66667
0.2875,0.49678,0.86249,-0.0048277,-0.050324,16.963,0.011104,-0.0037012,-2.0002,0.014805,2.0653e-12,-1.0001,0,0,0.33333,4.9343e-16,0,0.66667
0.95723,0.087171,2.8717,-0.61924,-0.50714,0.73613,4.742,-1.5807,-0.6365,6.3227,-1.9316e-07,-0.31825,0,0,0.33333,-0,-0,0.66667
0.70232,0.87702,2.1069,0.56552,3.2966,4.4383,-3.1774,1.0591,-0.86394,-4.2366,1.6412e-11,-0.43197,0,0,0.33333,-0,9.5318e-17,0.66667
0.62502,0.99442,1.875,0.74162,5.4133,6.4814,-3.7082,1.2361,-0.045052,-4.9443,1.0747e-13,-0.022526,0,0,0.33333,-0,-0,0.66667
0.93073,0.56922,2.7922,0.10383,0.10721,0.47648,-0.77307,0.25769,-1.9614,-1.0308,9.1577e-08,-0.98071,0,0,0.33333,-0,-0,0.66667
0.26904,0.060942,0.80713,-0.65859,-7.2431,17.81,1.4175,-0.4725,-0.45863,1.89,8.9146e-12,-0.22931,0,0,0.33333,4.9343e-17,0,0.66667
0.92362,0.47562,2.7708,-0.036571,-0.043205,0.53097,0.27022,-0.090074,-1.9954,0.3603,8.3482e-08,-0.9977,0,0,0.33333,-0,-0,0.66667
0.67808,0.036546,2.0342,-0.69518,-4.4494,5.1355,3.7711,-1.257,-0.28165,5.0282,-2.8288e-13,-0.14082,0,0,0.33333,-0,-0,0.66667
0.77136,0.4331,2.3141,-0.10035,-0.43021,2.7205,0.61925,-0.20642,-1.9643,0.82567,-6.6465e-11,-0.98216,0,0,0.33333,-3.9475e-16,0,0.66667
0.57164,0.27649,1.7149,-0.33526,-2.552,7.5688,1.5332,-0.51105,-1.6004,2.0442,3.2785e-13,-0.8002,0,0,0.33333,3.9475e-16,0,0.66667
0.8339,0.78749,2.5017,0.43123,1.4079,1.8508,-2.8768,0.95894,-1.3387,-3.8358,6.6946e-10,-0.66933,0,0,0.33333,-0,-0,0.66667
0.69828,0.39135,2.0948,-0.16297,-0.9115,4.2547,0.91039,-0.30346,-1.9049,1.2139,-3.0042e-11,-0.95243,0,0,0.33333,-7.8949e-16,0,0.66667
0.14661,0.36408,0.43983,-0.20388,-2.2838,22.395,0.23912,-0.079706,-1.8516,0.31883,-4.4873e-10,-0.9258,0,0,0.33333,-0,-0,0.66667
0.61246,0.20542,1.8374,-0.44187,-3.1452,6.5148,2.165,-0.72168,-1.3053,2.8867,-9.2903e-13,-0.65263,0,0,0.33333,-7.8949e-16,0,0.66667
0.27932,0.22966,0.83796,-0.40551,-4.3191,17.33,0.90614,-0.30205,-1.4151,1.2082,6.7595e-11,-0.70754,0,0,0.33333,7.8949e-16,0,0.66667
0.91588,0.58691,2.7476,0.13036,0.17838,0.62588,-0.95518,0.31839,-1.9393,-1.2736,4.3571e-09,-0.96967,0,0,0.33333,5.4231e-16,0,0.66667
0.19823,0.49436,0.5947,-0.008458,-0.09257,20.365,0.013413,-0.0044711,-1.9997,0.017884,1.969e-10,-0.99987,0,0,0.33333,-0,-0,0.66667
0.28572,0.16717,0.85715,-0.49924,-5.3396,17.125,1.1411,-0.38037,-1.1133,1.5215,4.1626e-11,-0.55665,0,0,0.33333,-0,-0,0.66667
0.047655,0.83148,0.14296,0.49722,5.7905,26.349,-0.18956,0.063186,-1.1208,-0.25275,1.5978e-08,-0.56041,0,0,0.33333,-4.9343e-17,0,0.66667
0.44758,0.19944,1.3427,-0.45084,-4.1584,11.432,1.6143,-0.5381,-1.2766,2.1524,-9.3991e-13,-0.63832,0,0,0.33333,-0,-0,0.66667
0.55759,0.7771,1.6728,0.41565,3.2691,8.0158,-1.8541,0.61803,-1.3859,-2.4721,-1.0729e-12,-0.69297,0,0,0.33333,3.3016e-16,0,0.66667
0.57356,0.51667,1.7207,0.024998,0.18673,7.4289,-0.1147,0.038235,-1.9971,-0.15294,1.2544e-13,-0.99855,0,0,0.33333,-0,-0,0.66667
0.90538,0.20224,2.7161,-0.44664,-0.79817,0.95512,3.235,-1.0783,-1.2905,4.3134,1.5715e-09,-0.64524,0,0,0.33333,-0,-0,0.66667
0.34741,0.90464,1.0422,0.60696,6.2822,14.94,-1.6869,0.56231,-0.6909,-2.2492,-5.2158e-13,-0.34545,0,0,0.33333,-1.4803e-16,0,0.66667
0.44753,0.45731,1.3426,-0.06404,-0.57748,11.315,0.22928,-0.076426,-1.9848,0.3057,1.4923e-13,-0.99239,0,0,0.33333,-0,-0,0.66667
0.85124,0.61128,2.5537,0.16691,0.45906,1.421,-1.1367,0.37889,-1.9002,-1.5155,2.3579e-10,-0.95008,0,0,0.33333,-1.579e-15,0,0.66667
0.57683,0.091069,1.7305,-0.6134,-4.7931,7.6252,2.8306,-0.94353,-0.66307,3.7741,8.4066e-13,-0.33154,0,0,0.33333,-1.9737e-16,0,0.66667
0.65399,0.08345,1.962,-0.62483,-4.1795,5.6238,3.2691,-1.0897,-0.61164,4.3587,-3.1197e-13,-0.30582,0,0,0.33333,-7.8949e-16,-3.4891e-16,0.66667
0.27836,0.55505,0.83508,0.082573,0.86652,17.307,-0.18388,0.061293,-1.9757,-0.24517,-2.3746e-11,-0.98785,0,0,0.33333,1.9737e-16,0,0.66667
0.48747,0.0074161,1.4624,-0.73888,-6.7469,10.374,2.8814,-0.96048,-0.058813,3.8419,1.0392e-13,-0.029407,0,0,0.33333,-0,-0,0.66667
0.62095,0.24362,1.8629,-0.38457,-2.6701,6.2522,1.9104,-0.6368,-1.4741,2.5472,-3.4567e-12,-0.73706,0,0,0.33333,3.9475e-16,0,0.66667
0.13339,0.17423,0.40018,-0.48866,-5.5955,22.952,0.52148,-0.17383,-1.1502,0.6953,1.8314e-09,-0.5751,0,0,0.33333,-1.9737e-16,0,0.66667
0.032909,0.9427,0.098726,0.66404,7.8762,26.945,-0.17482,0.058274,-0.43257,-0.2331,-5.6143e-07,-0.21628,0,0,0.33333,-0,-0,0.66667
0.11341,0.72853,0.34023,0.3428,3.9025,23.72,-0.31102,0.10367,-1.5818,-0.41469,-5.1792e-11,-0.79089,0,0,0.33333,1.9737e-16,0,0.66667
0.47746,0.4321,1.4324,-0.10185,-0.88525,10.345,0.38903,-0.12968,-1.963,0.51871,-6.2145e-14,-0.98152,0,0,0.33333,3.9475e-16,0,0.66667
0.024027,0.41009,0.07208,-0.13487,-1.5413,27.284,0.025923,-0.0086405,-1.9355,0.034564,4.4666e-07,-0.96775,0,0,0.33333,-0,-0,0.66667
0.62621,0.93658,1.8786,0.65487,4.6861,6.3499,-3.2807,1.0936,-0.47642,-4.3742,-5.8975e-13,-0.23821,0,0,0.33333,2.4672e-16,0,0.66667
0.097583,0.47113,0.29275,-0.043299,-0.48947,24.334,0.033802,-0.011267,-1.9939,0.045069,8.6171e-09,-0.99697,0,0,0.33333,-0,-0,0.66667
0.25096,0.46193,0.75288,-0.057099,-0.60891,18.34,0.11464,-0.038212,-1.9887,0.15285,2.6174e-11,-0.99435,0,0,0.33333,1.9737e-16,0,0.66667
0.42649,0.58072,1.2795,0.12108,1.1199,12.023,-0.41313,0.13771,-1.9472,-0.55084,-5.0207e-13,-0.97361,0,0,0.33333,-7.8949e-16,0,0.66667
0.11583,0.15506,0.34748,-0.51741,-5.9674,23.648,0.47944,-0.15981,-1.0488,0.63925,-3.6761e-10,-0.52441,0,0,0.33333,1.2336e-17,0,0.66667
0.27055,0.64958,0.81166,0.22436,2.3761,17.616,-0.48562,0.16187,-1.8209,-0.64749,-6.5874e-11,-0.91043,0,0,0.33333,5.5494e-16,0,0.66667
0.02108,0.41103,0.063239,-0.13346,-1.5254,27.402,0.022506,-0.0075018,-1.9367,0.030008,1.5519e-07,-0.96837,0,0,0.33333,-0,-0,0.66667
0.98505,0.91164,2.9551,0.61746,0.10389,0.5723,-4.8658,1.6219,-0.64497,-6.4877,4.4068e-07,-0.32248,0,0,0.33333,3.158e-15,0,0.66667
0.61157,0.91266,1.8347,0.61899,4.5345,6.6915,-3.0284,1.0095,-0.63787,-4.0379,-8.6797e-13,-0.31893,0,0,0.33333,1.579e-15,0,0.66667
0.37835,0.31733,1.1351,-0.27401,-2.6789,13.709,0.82939,-0.27646,-1.7333,1.1059,5.4903e-12,-0.86664,0,0,0.33333,-7.8949e-16,0,0.66667
0.026528,0.47707,0.079585,-0.034398,-0.39247,27.182,0.0072992,-0.0024331,-1.9955,0.0097323,-2.9788e-08,-0.99773,0,0,0.33333,-0,-0,0.66667
0.38984,0.1005,1.1695,-0.59925,-5.9718,13.457,1.8689,-0.62296,-0.72352,2.4919,-7.9148e-13,-0.36176,0,0,0.33333,-0,-2.6735e-16,0.66667
0.45256,0.60277,1.3577,0.15416,1.3849,11.161,-0.55813,0.18604,-1.9156,-0.74417,-2.0761e-14,-0.95781,0,0,0.33333,-0,-0,0.66667
0.931,0.20014,2.793,-0.44978,-0.55111,0.7118,3.35,-1.1167,-1.28,4.4667,1.282e-08,-0.63998,0,0,0.33333,-0,-0,0.66667
0.2785,0.23484,0.83551,-0.39774,-4.2359,17.358,0.88617,-0.29539,-1.437,1.1816,6.9423e-11,-0.71851,0,0,0.33333,3.9475e-16,0,0.66667
0.61478,0.45624,1.8443,-0.065639,-0.45197,6.2969,0.32283,-0.10761,-1.984,0.43044,-1.85e-12,-0.992,0,0,0.33333,-7.8949e-16,0,0.66667
0.66517,0.4662,1.9955,-0.050705,-0.3098,5.0109,0.26982,-0.089939,-1.9913,0.35976,-5.356e-12,-0.99563,0,0,0.33333,-0,-0,0.66667
0.18596,0.22814,0.55788,-0.40778,-4.5566,20.883,0.60665,-0.20222,-1.4087,0.80887,3.9419e-10,-0.70434,0,0,0.33333,-0,-0,0.66667
0.50576,0.12311,1.5173,-0.56534,-4.9063,9.661,2.2874,-0.76247,-0.86418,3.0499,3.4639e-14,-0.43209,0,0,0.33333,3.9475e-16,0,0.66667
0.7865,0.58694,2.3595,0.13041,0.52314,2.4494,-0.82057,0.27352,-1.9393,-1.0941,9.8178e-11,-0.96967,0,0,0.33333,-0,-0,0.66667
0.096579,0.3125,0.28974,-0.28125,-3.2025,24.384,0.2173,-0.072434,-1.7199,0.28974,-1.7595e-09,-0.85997,0,0,0.33333,-0,-0,0.66667
0.60604,0.021674,1.8181,-0.71749,-5.4121,6.9441,3.4786,-1.1595,-0.16932,4.6381,7.2831e-14,-0.084659,0,0,0.33333,1.579e-15,3.3558e-16,0.66667
0.02606,0.10322,0.07818,-0.59518,-7.0087,27.214,0.12408,-0.041361,-0.74003,0.16544,-6.7036e-07,-0.37001,0,0,0.33333,-4.9343e-17,0,0.66667
0.0070467,0.81731,0.02114,0.47597,5.5455,27.968,-0.026832,0.008944,-1.1945,-0.035776,-2.4792e-08,-0.59726,0,0,0.33333,-0,-0,0.66667
0.059529,0.029081,0.17859,-0.70638,-8.4,25.896,0.3364,-0.11213,-0.22662,0.44853,-6.3812e-07,-0.11331,0,0,0.33333,-2.4672e-17,0,0.66667
0.4814,0.75066,1.4442,0.376,3.3021,10.303,-1.448,0.48268,-1.4984,-1.9307,2.619e-13,-0.74919,0,0,0.33333,-0,-0,0.66667
0.9257,0.30437,2.7771,-0.29345,-0.35884,0.61584,2.1732,-0.7244,-1.6936,2.8976,-8.4691e-09,-0.84679,0,0,0.33333,-7.8949e-16,0,0.66667
0.40556,0.40507,1.2167,-0.1424,-1.3477,12.738,0.46201,-0.154,-1.9292,0.61601,1.6653e-12,-0.96458,0,0,0.33333,8.3884e-16,0,0.66667
0.075033,0.5209,0.2251,0.031349,0.35582,25.235,-0.018818,0.0062725,-1.9962,-0.02509,-6.4347e-09,-0.99808,0,0,0.33333,-0,-0,0.66667
0.86135,0.6872,2.5841,0.2808,0.72877,1.3399,-1.935,0.64499,-1.7209,-2.5799,9.4095e-10,-0.86044,0,0,0.33333,5.181e-16,0,0.66667
0.5193,0.30955,1.5579,-0.28568,-2.3612,9.0852,1.1868,-0.39561,-1.7103,1.5824,4.6063e-13,-0.85517,0,0,0.33333,-0,-0,0.66667
0.31894,0.62751,0.95681,0.19127,1.9574,15.818,-0.48802,0.16267,-1.8703,-0.65069,-2.4331e-11,-0.93517,0,0,0.33333,-0,-0,0.66667
0.96303,0.80991,2.8891,0.46486,0.23782,0.48318,-3.5814,1.1938,-1.2321,-4.7752,-3.0232e-08,-0.61605,0,0,0.33333,-2.1711e-15,0,0.66667
0.93826,0.4091,2.8148,-0.13635,-0.11889,0.42004,1.0235,-0.34115,-1.9348,1.3646,-1.5281e-07,-0.96741,0,0,0.33333,-0,-0,0.66667
0.26002,0.97233,0.78006,0.7085,7.8827,18.169,-1.4738,0.49126,-0.21548,-1.965,-3.2921e-12,-0.10774,0,0,0.33333,-0,-0,0.66667
0.20139,0.64727,0.60418,0.22091,2.4257,20.255,-0.35591,0.11864,-1.8264,-0.47455,-1.0184e-10,-0.91321,0,0,0.33333,-1.9737e-16,0,0.66667
0.58891,0.78847,1.7667,0.4327,3.2232,7.1443,-2.0386,0.67953,-1.3341,-2.7181,-5.187e-13,-0.66704,0,0,0.33333,-0,-0,0.66667
0.84252,0.0061131,2.5276,-0.74083,-2.569,2.1318,4.9933,-1.6644,-0.048945,6.6577,-8.197e-10,-0.024472,0,0,0.33333,-0,-0,0.66667
0.33672,0.21691,1.0102,-0.42464,-4.3496,15.236,1.1439,-0.38129,-1.3594,1.5252,1.3724e-11,-0.6797,0,0,0.33333,4.9343e-17,0,0.66667
0.58643,0.57577,1.7593,0.11366,0.83009,7.0764,-0.53323,0.17774,-1.9533,-0.71097,9.614e-13,-0.97665,0,0,0.33333,-0,-0,0.66667
0.16224,0.9534,0.48673,0.6801,7.8759,21.871,-0.88274,0.29425,-0.35465,-1.177,-3.4253e-10,-0.17733,0,0,0.33333,-1.9737e-16,0,0.66667
0.19459,0.060445,0.58378,-0.65933,-7.525,20.619,1.0264,-0.34214,-0.45481,1.3686,8.6071e-11,-0.22741,0,0,0.33333,4.4409e-16,0,0.66667
0.76134,0.9671,2.284,0.70065,3.4823,3.4001,-4.2674,1.4225,-0.25526,-5.6899,6.4411e-12,-0.12763,0,0,0.33333,7.8949e-16,0,0.66667
0.1501,0.4822,0.4503,-0.026707,-0.2977,22.249,0.032069,-0.01069,-1.9967,0.042759,-5.3711e-10,-0.99836,0,0,0.33333,-3.9475e-16,0,0.66667
0.26591,0.28937,0.79772,-0.31595,-3.3717,17.808,0.6721,-0.22403,-1.6453,0.89614,8.8659e-11,-0.82267,0,0,0.33333,-0,-0,0.66667
0.68949,0.45338,2.0685,-0.06993,-0.39978,4.4358,0.38573,-0.12858,-1.9822,0.51431,-1.1973e-11,-0.9911,0,0,0.33333,1.579e-15,0,0.66667
0.015089,0.70277,0.045268,0.30415,3.5008,27.645,-0.036716,0.012239,-1.6709,-0.048954,2.4042e-08,-0.83545,0,0,0.33333,-0,-0,0.66667
0.032194,0.21036,0.096583,-0.43446,-5.0398,26.963,0.1119,-0.037299,-1.329,0.1492,-8.2108e-09,-0.66449,0,0,0.33333,-0,-0,0.66667
0.28753,0.13666,0.86258,-0.54502,-5.8495,17.076,1.2537,-0.41788,-0.94317,1.6715,2.8309e-11,-0.47158,0,0,0.33333,-0,-0,0.66667
0.33662,0.26819,1.0099,-0.34771,-3.5405,15.213,0.93638,-0.31213,-1.5694,1.2485,1.7698e-11,-0.78468,0,0,0.33333,-0,-0,0.66667
0.36222,0.8167,1.0866,0.47505,4.7867,14.35,-1.3766,0.45885,-1.198,-1.8354,-3.568e-12,-0.59901,0,0,0.33333,-0,-0,0.66667
0.80719,0.88738,2.4216,0.58106,2.2941,2.4351,-3.7522,1.2507,-0.79885,-5.003,3.8632e-10,-0.39943,0,0,0.33333,-0,-0,0.66667
0.035981,0.10633,0.10794,-0.59051,-6.9461,26.819,0.16998,-0.056659,-0.75953,0.22664,1.0346e-07,-0.37976,0,0,0.33333,-0,-0,0.66667
0.3584,0.41538,1.0752,-0.12693,-1.2556,14.385,0.36394,-0.12131,-1.9428,0.48525,7.1498e-12,-0.97138,0,0,0.33333,-0,-0,0.66667
0.63828,0.69615,1.9148,0.29422,1.9471,5.7534,-1.5024,0.50079,-1.6921,-2.0032,9.1784e-12,-0.84604,0,0,0.33333,-0,-0,0.66667
0.143,0.43995,0.42901,-0.09007,-1.007,22.531,0.10304,-0.034348,-1.9719,0.13739,1.3574e-09,-0.98596,0,0,0.33333,3.9475e-16,0,0.66667
0.85774,0.92906,2.5732,0.64359,1.9421,1.7724,-4.4163,1.4721,-0.52725,-5.8884,8.6284e-10,-0.26362,0,0,0.33333,7.8949e-16,-3.1121e-16,0.66667
0.64556,0.89482,1.9367,0.59223,4.0149,5.7964,-3.0586,1.0195,-0.75235,-4.0781,5.0049e-13,-0.37617,0,0,0.33333,-0,-0,0.66667
0.11529,0.65348,0.34588,0.23022,2.6042,23.636,-0.21234,0.07078,-1.8119,-0.28312,-1.0197e-09,-0.90597,0,0,0.33333,2.2204e-16,0,0.66667
0.2081,0.95595,0.62429,0.68393,7.7846,20.112,-1.1386,0.37953,-0.33619,-1.5181,-4.7325e-11,-0.16809,0,0,0.33333,-3.9475e-16,0,0.66667
0.7455,0.23223,2.2365,-0.40166,-1.9741,3.3759,2.3955,-0.7985,-1.4257,3.194,-1.1804e-10,-0.71287,0,0,0.33333,-0,-0,0.66667
0.40341,0.77653,1.2102,0.41479,3.9996,12.893,-1.3386,0.44622,-1.3886,-1.7849,-1.058e-13,-0.69428,0,0,0.33333,2.3886e-16,0,0.66667
0.48447,0.70486,1.4534,0.30728,2.6728,10.176,-1.191,0.39699,-1.6642,-1.5879,1.6864e-13,-0.8321,0,0,0.33333,-0,-0,0.66667
0.88746,0.48642,2.6624,-0.020371,-0.040052,0.91769,0.14463,-0.04821,-1.998,0.19284,-4.9325e-10,-0.999,0,0,0.33333,1.579e-15,0,0.66667
0.13744,0.35178,0.41233,-0.22233,-2.4993,22.758,0.24446,-0.081488,-1.8241,0.32595,-9.7204e-10,-0.91205,0,0,0.33333,-0,-0,0.66667
0.96437,0.15595,2.8931,-0.51608,-0.27491,0.53904,3.9816,-1.3272,-1.054,5.3087,-3.1035e-08,-0.52699,0,0,0.33333,1.9491e-15,0,0.66667
0.04263,0.63231,0.12789,0.19847,2.2696,26.537,-0.067685,0.022562,-1.8598,-0.090247,-1.3323e-07,-0.92989,0,0,0.33333,-9.8686e-17,0,0.66667
0.09944,0.69079,0.29832,0.28618,3.2576,24.27,-0.22766,0.075887,-1.7091,-0.30355,-1.8149e-09,-0.85456,0,0,0.33333,-0,-0,0.66667
0.22324,0.15437,0.66972,-0.51845,-5.7534,19.478,0.9259,-0.30863,-1.045,1.2345,2.1223e-10,-0.52248,0,0,0.33333,-1.4803e-16,0,0.66667
0.80659,0.14196,2.4198,-0.53706,-2.0993,2.3921,3.4655,-1.1552,-0.97371,4.6206,-4.3409e-10,-0.48686,0,0,0.33333,1.579e-15,0,0.66667
0.45587,0.70461,1.3676,0.30691,2.7685,11.095,-1.1193,0.3731,-1.6646,-1.4924,5.0426e-13,-0.83229,0,0,0.33333,-7.8949e-16,0,0.66667
0.65325,0.76015,1.9598,0.39022,2.5184,5.4345,-2.0393,0.67977,-1.4583,-2.7191,1.1468e-11,-0.72913,0,0,0.33333,1.579e-15,0,0.66667
0.17432,0.64782,0.52296,0.22173,2.4618,21.309,-0.30921,0.10307,-1.8251,-0.41228,-2.1095e-11,-0.91255,0,0,0.33333,-1.9737e-16,0,0.66667
0.16672,0.18163,0.50017,-0.47756,-5.4058,21.646,0.63696,-0.21232,-1.189,0.84928,6.6646e-10,-0.59452,0,0,0.33333,-1.9734e-16,0,0.66667
0.52085,0.11611,1.5625,-0.57583,-4.8975,9.2117,2.3994,-0.79978,-0.82064,3.1991,2.5135e-13,-0.41032,0,0,0.33333,-0,-0,0.66667
0.74029,0.50936,2.2209,0.014033,0.067919,3.3219,-0.083106,0.027702,-1.9988,-0.11081,8.895e-12,-0.9994,0,0,0.33333,-3.158e-15,0,0.66667
0.46247,0.45731,1.3874,-0.064035,-0.56698,10.825,0.23692,-0.078972,-1.9848,0.31589,2.4911e-14,-0.99238,0,0,0.33333,-0,-0,0.66667
0.86961,0.95095,2.6088,0.67642,1.9051,1.6701,-4.7058,1.5686,-0.37245,-6.2744,1.6216e-09,-0.18622,0,0,0.33333,-0,-0,0.66667
0.66041,0.42284,1.9812,-0.11573,-0.71718,5.1366,0.61145,-0.20382,-1.9517,0.81527,-1.0378e-11,-0.97586,0,0,0.33333,7.8949e-16,0,0.66667
0.24909,0.48536,0.74727,-0.021962,-0.23439,18.41,0.043765,-0.014588,-1.998,0.058353,6.3742e-12,-0.99902,0,0,0.33333,3.9475e-16,0,0.66667
0.2349,0.11236,0.70471,-0.58147,-6.4573,19.057,1.0927,-0.36423,-0.79774,1.4569,1.0084e-10,-0.39887,0,0,0.33333,-3.9475e-16,0,0.66667
0.37405,0.95986,1.1221,0.6898,7.0574,14.06,-2.0641,0.68804,-0.30827,-2.7522,2.0783e-13,-0.15413,0,0,0.33333,-0,-0,0.66667
0.75662,0.29089,2.2698,-0.31367,-1.4583,3.0931,1.8986,-0.63287,-1.6496,2.5315,-1.2853e-10,-0.82482,0,0,0.33333,-0,-0,0.66667
0.93794,0.59003,2.8138,0.13505,0.11869,0.42236,-1.0133,0.33777,-1.936,-1.3511,1.3905e-07,-0.96799,0,0,0.33333,1.9737e-15,0,0.66667
0.86191,0.86889,2.5857,0.55334,1.5602,1.5937,-3.8154,1.2718,-0.91151,-5.0872,7.8312e-11,-0.45575,0,0,0.33333,1.579e-15,0,0.66667
0.26161,0.10899,0.78483,-0.58651,-6.4235,18.055,1.2275,-0.40917,-0.77627,1.6367,4.2646e-11,-0.38813,0,0,0.33333,-3.9475e-16,0,0.66667
0.41228,0.82737,1.2368,0.49105,4.7273,12.629,-1.6196,0.53986,-1.1419,-2.1595,9.4358e-13,-0.57094,0,0,0.33333,7.8949e-16,0,0.66667
0.61154,0.33883,1.8346,-0.24176,-1.6898,6.4275,1.1828,-0.39426,-1.7926,1.577,-3.8337e-12,-0.89628,0,0,0.33333,-3.9475e-16,0,0.66667
0.54683,0.62379,1.6405,0.18569,1.4603,8.2273,-0.81234,0.27078,-1.8788,-1.0831,-8.0491e-14,-0.93938,0,0,0.33333,9.8686e-17,0,0.66667
0.38927,0.98299,1.1678,0.72448,7.3481,13.562,-2.2562,0.75206,-0.13348,-3.0082,8.0158e-14,-0.066738,0,0,0.33333,7.8949e-16,0,0.66667
0.10142,0.62979,0.30426,0.19469,2.2064,24.185,-0.15797,0.052656,-1.8652,-0.21062,-1.0005e-08,-0.93262,0,0,0.33333,-0,-0,0.66667
0.71224,0.91716,2.1367,0.62575,3.5888,4.2898,-3.5655,1.1885,-0.60715,-4.754,1.014e-11,-0.30358,0,0,0.33333,1.579e-15,0,0.66667
0.088135,0.25882,0.26441,-0.36176,-4.1455,24.726,0.25507,-0.085024,-1.5342,0.3401,-2.1765e-10,-0.76712,0,0,0.33333,-0,-0,0.66667
0.86608,0.13337,2.5982,-0.54994,-1.5009,1.5353,3.8103,-1.2701,-0.92424,5.0805,-3.9368e-10,-0.46212,0,0,0.33333,-0,-0,0.66667
0.86345,0.45144,2.5903,-0.072843,-0.18033,1.2272,0.50317,-0.16772,-1.9805,0.67089,-3.5815e-10,-0.99025,0,0,0.33333,-0,-0,0.66667
0.70845,0.56295,2.1254,0.094423,0.51017,4.0102,-0.53515,0.17838,-1.9692,-0.71353,2.2713e-11,-0.98459,0,0,0.33333,-3.158e-15,0,0.66667
0.48642,0.019851,1.4593,-0.72022,-6.5651,10.389,2.8027,-0.93423,-0.15536,3.7369,-3.9968e-14,-0.077681,0,0,0.33333,1.579e-15,0,0.66667
0.69915,0.99142,2.0974,0.73713,4.5072,4.7168,-4.1229,1.3743,-0.067757,-5.4972,1.0836e-13,-0.033879,0,0,0.33333,-7.8949e-16,0,0.66667
0.39499,0.35642,1.185,-0.21538,-2.066,13.116,0.68057,-0.22686,-1.8345,0.90742,3.0058e-12,-0.91723,0,0,0.33333,-0,-0,0.66667
0.7975,0.047867,2.3925,-0.6782,-2.8903,2.7264,4.3269,-1.4423,-0.36442,5.7692,-6.3072e-11,-0.18221,0,0,0.33333,-1.579e-15,0,0.66667
0.78642,0.17392,2.3593,-0.48912,-2.0755,2.6839,3.0772,-1.0257,-1.1487,4.1029,-2.8353e-10,-0.57435,0,0,0.33333,-1.579e-15,0,0.66667
0.15553,0.89369,0.46659,0.59053,6.784,22.107,-0.73475,0.24492,-0.75995,-0.97967,-1.0395e-09,-0.37997,0,0,0.33333,-3.8156e-16,3.796e-16,0.66667
0.31782,0.39291,0.95345,-0.16064,-1.6435,15.854,0.40842,-0.13614,-1.9076,0.54456,2.1739e-11,-0.95378,0,0,0.33333,-3.9475e-16,0,0.66667
0.34398,0.73087,1.0319,0.3463,3.505,14.948,-0.95297,0.31766,-1.5736,-1.2706,-1.4443e-11,-0.78678,0,0,0.33333,-0,-0,0.66667
0.36417,0.16084,1.0925,-0.50873,-5.135,14.297,1.4821,-0.49404,-1.0799,1.9762,1.9128e-12,-0.53997,0,0,0.33333,-0,-0,0.66667
0.56665,0.61345,1.6999,0.17017,1.2922,7.6477,-0.7714,0.25713,-1.8965,-1.0285,3.5738e-13,-0.94825,0,0,0.33333,-7.8949e-16,0,0.66667
0.041687,0.76339,0.12506,0.39508,4.5663,26.582,-0.13176,0.04392,-1.4443,-0.17568,-1.2168e-09,-0.72216,0,0,0.33333,-0,-0,0.66667
0.65997,0.70672,1.9799,0.31009,1.9503,5.2203,-1.6372,0.54573,-1.6576,-2.1829,1.6879e-11,-0.8288,0,0,0.33333,7.8949e-16,0,0.66667
0.20163,0.8168,0.6049,0.4752,5.3047,20.293,-0.76653,0.25551,-1.1977,-1.022,-3.5491e-10,-0.59883,0,0,0.33333,-7.8949e-16,0,0.66667
0.41646,0.2235,1.2494,-0.41476,-3.9459,12.45,1.3818,-0.46061,-1.3884,1.8425,-5.0571e-13,-0.69422,0,0,0.33333,-0,-0,0.66667
0.45089,0.16681,1.3527,-0.49979,-4.6161,11.352,1.8028,-0.60094,-1.1116,2.4037,-9.2981e-13,-0.5558,0,0,0.33333,7.8949e-16,0,0.66667
0.34873,0.88002,1.0462,0.57003,5.8681,14.874,-1.5903,0.53009,-0.84475,-2.1204,-1.6358e-12,-0.42237,0,0,0.33333,-0,-0,0.66667
0.38328,0.36035,1.1498,-0.20947,-2.0317,13.521,0.64229,-0.2141,-1.8432,0.85639,4.6002e-12,-0.92159,0,0,0.33333,7.8949e-16,0,0.66667
0.18031,0.54288,0.54092,0.064326,0.70956,21.064,-0.092787,0.030929,-1.9846,-0.12372,-1.7403e-10,-0.9923,0,0,0.33333,-3.9475e-16,0,0.66667
0.06813,0.81761,0.20439,0.47642,5.5247,25.532,-0.25967,0.086556,-1.193,-0.34622,7.601e-09,-0.59649,0,0,0.33333,1.9737e-16,0,0.66667
0.55126,0.16418,1.6538,-0.50373,-4.0466,8.2586,2.2215,-0.74049,-1.0975,2.962,1.0489e-12,-0.54877,0,0,0.33333,-0,-0,0.66667
0.59587,0.4447,1.7876,-0.082947,-0.59416,6.8106,0.3954,-0.1318,-1.9756,0.5272,-1.1018e-12,-0.9878,0,0,0.33333,-1.579e-15,0,0.66667
0.1455,0.37933,0.4365,-0.181,-2.0266,22.437,0.21069,-0.07023,-1.8837,0.28092,-7.9172e-12,-0.94185,0,0,0.33333,3.9475e-16,0,0.66667
0.23094,0.15872,0.69283,-0.51192,-5.6559,19.183,0.94579,-0.31526,-1.0688,1.2611,1.8358e-10,-0.53442,0,0,0.33333,-0,-0,0.66667
0.28638,0.74191,0.85913,0.36287,3.8352,17.055,-0.83133,0.27711,-1.5315,-1.1084,-6.0112e-11,-0.76575,0,0,0.33333,-0,-0,0.66667
0.83075,0.99515,2.4923,0.74273,2.7533,2.3034,-4.9362,1.6454,-0.038913,-6.5816,-1.0613e-09,-0.019457,0,0,0.33333,3.9475e-16,0,0.66667
0.15342,0.031936,0.46026,-0.7021,-8.1762,22.219,0.86173,-0.28724,-0.24837,1.149,-1.1901e-09,-0.12419,0,0,0.33333,-0,-0,0.66667
0.55214,0.032638,1.6564,-0.70104,-5.7963,8.4081,3.0966,-1.0322,-0.25326,4.1288,4.9516e-14,-0.12663,0,0,0.33333,1.579e-15,0,0.66667
0.56814,0.19799,1.7044,-0.45302,-3.5137,7.7385,2.059,-0.68634,-1.2697,2.7454,1.0936e-12,-0.63487,0,0,0.33333,-0,-0,0.66667
0.34342,0.76378,1.0303,0.39568,4.0216,14.985,-1.0871,0.36235,-1.4432,-1.4494,-1.2576e-11,-0.72161,0,0,0.33333,-0,-0,0.66667
0.35062,0.99772,1.0519,0.74658,7.8536,14.915,-2.0941,0.69804,-0.018651,-2.7921,1.2679e-13,-0.0093254,0,0,0.33333,1.9737e-16,0,0.66667
0.95911,0.57855,2.8773,0.11782,0.046222,0.25089,-0.90401,0.30134,-1.9499,-1.2053,1.7419e-07,-0.97494,0,0,0.33333,-0,-0,0.66667
0.55334,0.21879,1.66,-0.42181,-3.3436,8.1423,1.8672,-0.62241,-1.3683,2.4897,1.0125e-12,-0.68415,0,0,0.33333,-0,-0,0.66667
0.65273,0.84955,1.9582,0.52433,3.4548,5.5541,-2.738,0.91265,-1.0226,-3.6506,3.7816e-12,-0.5113,0,0,0.33333,1.579e-15,0,0.66667
0.49074,0.44587,1.4722,-0.081192,-0.69287,9.9202,0.31875,-0.10625,-1.9761,0.42501,-1.9068e-14,-0.98807,0,0,0.33333,1.579e-15,0,0.66667
0.64665,0.085672,1.9399,-0.62149,-4.2257,5.8002,3.2151,-1.0717,-0.62628,4.2868,1.3323e-15,-0.31314,0,0,0.33333,-7.8949e-16,0,0.66667
0.60525,0.7387,1.8158,0.35805,2.5614,6.6528,-1.7337,0.57789,-1.5437,-2.3116,1.7288e-12,-0.77183,0,0,0.33333,-7.8949e-16,0,0.66667
0.14517,0.082599,0.43552,-0.6261,-7.2442,22.519,0.72715,-0.24238,-0.60567,0.96953,1.6321e-09,-0.30283,0,0,0.33333,-0,-0,0.66667
0.33468,0.095343,1.004,-0.60699,-6.3458,15.393,1.6252,-0.54172,-0.6906,2.1669,1.57e-12,-0.3453,0,0,0.33333,7.8949e-16,0,0.66667
0.46043,0.92953,1.3813,0.64429,5.9939,11.144,-2.3732,0.79107,-0.52366,-3.1643,3.2729e-13,-0.26183,0,0,0.33333,7.8949e-16,0,0.66667
0.12782,0.81493,0.38346,0.47239,5.4098,23.168,-0.48305,0.16102,-1.2073,-0.64407,-1.7262e-09,-0.60364,0,0,0.33333,3.9475e-16,0,0.66667
0.36307,0.98364,1.0892,0.72547,7.5308,14.465,-2.1072,0.70239,-0.1281,-2.8096,1.6653e-13,-0.064049,0,0,0.33333,-0,-0,0.66667
0.22814,0.20279,0.68442,-0.44581,-4.9031,19.27,0.81366,-0.27122,-1.2926,1.0849,2.0467e-10,-0.64628,0,0,0.33333,3.9475e-16,0,0.66667
0.8475,0.71505,2.5425,0.32258,0.93725,1.5603,-2.1871,0.72903,-1.6304,-2.9161,2.7499e-10,-0.8152,0,0,0.33333,-7.8949e-16,0,0.66667
0.34147,0.44094,1.0244,-0.08859,-0.88817,14.987,0.24201,-0.08067,-1.9727,0.32268,7.8941e-12,-0.98634,0,0,0.33333,-0,-0,0.66667
0.22679,0.76364,0.68037,0.39547,4.335,19.309,-0.7175,0.23917,-1.4432,-0.95666,-2.0574e-10,-0.72158,0,0,0.33333,-0,-0,0.66667
0.40818,0.28952,1.2245,-0.31572,-3.0059,12.691,1.031,-0.34366,-1.6456,1.3746,1.0074e-12,-0.82278,0,0,0.33333,-0,-0,0.66667
0.68306,0.37592,2.0492,-0.18612,-1.0895,4.6126,1.017,-0.33901,-1.8777,1.3561,-2.4766e-11,-0.93884,0,0,0.33333,-0,-0,0.66667
0.065622,0.75153,0.19687,0.3773,4.3437,25.625,-0.19807,0.066024,-1.4947,-0.2641,1.6608e-09,-0.74735,0,0,0.33333,-0,-0,0.66667
0.18073,0.67955,0.54219,0.26933,2.9895,21.064,-0.3894,0.1298,-1.7417,-0.5192,-1.2516e-10,-0.87085,0,0,0.33333,-1.9737e-16,0,0.66667
0.69431,0.14693,2.0829,-0.5296,-3.1367,4.5802,2.9417,-0.98056,-1.0022,3.9222,-1.8346e-11,-0.50111,0,0,0.33333,-0,-0,0.66667
0.75226,0.021328,2.2568,-0.71801,-3.7054,3.5971,4.321,-1.4403,-0.16677,5.7613,-2.8315e-12,-0.083385,0,0,0.33333,1.579e-15,0,0.66667
0.61775,0.20667,1.8533,-0.43999,-3.0967,6.3738,2.1745,-0.72482,-1.3109,2.8993,-1.5725e-12,-0.65547,0,0,0.33333,-0,-0,0.66667
0.8792,0.47542,2.6376,-0.036873,-0.078995,1.0192,0.25935,-0.086451,-1.9951,0.3458,-6.4883e-09,-0.99754,0,0,0.33333,-0,-0,0.66667
0.1688,0.90146,0.5064,0.6022,6.8957,21.595,-0.81321,0.27107,-0.71089,-1.0843,-1.1392e-09,-0.35544,0,0,0.33333,9.995e-17,-2.8311e-16,0.66667
0.70355,0.018279,2.1106,-0.72258,-4.3488,4.6009,4.067,-1.3557,-0.14345,5.4226,-1.3634e-13,-0.071723,0,0,0.33333,-0,-0,0.66667
0.91726,0.070885,2.7518,-0.64367,-1.1264,1.098,4.7233,-1.5744,-0.52656,6.2978,-3.429e-08,-0.26328,0,0,0.33333,-0,-0,0.66667
0.15074,0.52781,0.45222,0.041709,0.46489,22.224,-0.050298,0.016766,-1.9941,-0.067064,-1.6706e-09,-0.99705,0,0,0.33333,1.9737e-16,0,0.66667
0.24376,0.012721,0.73129,-0.73092,-8.2284,18.786,1.4254,-0.47512,-0.09975,1.9005,7.3612e-12,-0.049875,0,0,0.33333,-0,-0,0.66667
0.54668,0.99856,1.6401,0.74785,6.2896,8.6142,-3.2707,1.0902,-0.012767,-4.3609,1.4411e-13,-0.0063835,0,0,0.33333,-8.8818e-16,0,0.66667
0.34412,0.48962,1.0324,-0.01557,-0.15563,14.888,0.042863,-0.014288,-1.9992,0.057151,1.5274e-12,-0.99959,0,0,0.33333,-3.9475e-16,0,0.66667
0.69064,0.82371,2.0719,0.48556,2.883,4.622,-2.6828,0.89427,-1.1613,-3.5771,2.2698e-11,-0.58064,0,0,0.33333,-1.579e-15,0,0.66667
0.057568,0.96696,0.1727,0.70045,8.3253,25.973,-0.32258,0.10753,-0.25618,-0.43011,7.4337e-07,-0.12809,0,0,0.33333,2.4672e-17,0,0.66667
0.16076,0.2414,0.48229,-0.3879,-4.3687,21.861,0.49888,-0.16629,-1.4647,0.66517,4.8273e-10,-0.73234,0,0,0.33333,1.9737e-16,0,0.66667
0.71624,0.22011,2.1487,-0.41983,-2.2854,3.9989,2.4056,-0.80187,-1.3742,3.2075,-5.9667e-11,-0.68712,0,0,0.33333,-0,-0,0.66667
0.97062,0.96997,2.9119,0.70495,0.44188,0.79879,-5.4739,1.8246,-0.2341,-7.2986,-4.0917e-06,-0.11705,0,0,0.33333,-0,-0,0.66667
0.92955,0.34051,2.7887,-0.23924,-0.2649,0.54483,1.7791,-0.59303,-1.7968,2.3721,2.8425e-08,-0.89838,0,0,0.33333,3.9475e-16,0,0.66667
0.90107,0.20697,2.7032,-0.43954,-0.82367,0.99331,3.1684,-1.0561,-1.3125,4.2246,1.9715e-09,-0.65623,0,0,0.33333,-0,-0,0.66667
0.12774,0.17241,0.38323,-0.49138,-5.6368,23.174,0.50217,-0.16739,-1.141,0.66956,2.1087e-09,-0.57049,0,0,0.33333,-0,-0,0.66667
0.14593,0.30722,0.43779,-0.28918,-3.2526,22.43,0.33759,-0.11253,-1.7027,0.45013,-2.7579e-10,-0.85134,0,0,0.33333,-0,-0,0.66667
0.072265,0.42631,0.21679,-0.11053,-1.2563,25.347,0.063899,-0.0213,-1.9559,0.085198,7.9559e-08,-0.97797,0,0,0.33333,-0,-0,0.66667
0.54254,0.11519,1.6276,-0.57721,-4.7504,8.5701,2.5053,-0.83509,-0.81497,3.3404,6.9367e-13,-0.40748,0,0,0.33333,-7.8949e-16,0,0.66667
0.88249,0.37526,2.6475,-0.18711,-0.39436,1.0183,1.321,-0.44034,-1.8764,1.7613,6.1421e-09,-0.93818,0,0,0.33333,-3.158e-15,0,0.66667
0.53179,0.78252,1.5954,0.42378,3.4789,8.7774,-1.8029,0.60097,-1.3627,-2.4039,-7.8482e-13,-0.68136,0,0,0.33333,-0,-0,0.66667
0.78172,0.38596,2.3451,-0.17106,-0.70377,2.5487,1.0698,-0.3566,-1.8959,1.4264,-8.5144e-11,-0.94797,0,0,0.33333,-0,-0,0.66667
0.18845,0.301,0.56536,-0.2985,-3.3082,20.767,0.45003,-0.15001,-1.6831,0.60003,1.9482e-10,-0.84153,0,0,0.33333,-0,-0,0.66667
0.86311,0.71527,2.5893,0.32291,0.83481,1.3456,-2.2296,0.74322,-1.6297,-2.9729,-4.7044e-10,-0.81484,0,0,0.33333,7.8949e-16,0,0.66667
0.18742,0.90243,0.56227,0.60365,6.8654,20.876,-0.90512,0.30171,-0.70525,-1.2068,-2.8686e-10,-0.35263,0,0,0.33333,-0,1.6924e-16,0.66667
0.054764,0.79497,0.16429,0.44246,5.1253,26.062,-0.19385,0.064616,-1.3031,-0.25846,-2.4846e-09,-0.65157,0,0,0.33333,-0,-0,0.66667
0.42149,0.62865,1.2645,0.19298,1.7992,12.204,-0.6507,0.2169,-1.8684,-0.8676,-7.4618e-13,-0.93422,0,0,0.33333,-0,-0,0.66667
0.5551,0.16386,1.6653,-0.50421,-4.0249,8.1478,2.2391,-0.74637,-1.0957,2.9855,1.0865e-12,-0.54786,0,0,0.33333,-0,-0,0.66667
0.97074,0.74895,2.9122,0.37342,0.094551,0.33535,-2.9,0.96666,-1.5053,-3.8666,1.2193e-09,-0.75264,0,0,0.33333,-4.9343e-16,0,0.66667
0.091754,0.59239,0.27526,0.13858,1.5709,24.569,-0.10172,0.033907,-1.9327,-0.13563,-4.5016e-08,-0.96637,0,0,0.33333,-2.0971e-16,0,0.66667
0.27392,0.28359,0.82175,-0.32461,-3.4492,17.51,0.71134,-0.23711,-1.6258,0.94846,7.7678e-11,-0.81288,0,0,0.33333,-0,-0,0.66667
0.10511,0.48108,0.31532,-0.028376,-0.32023,24.033,0.02386,-0.0079534,-1.9965,0.031814,7.4734e-09,-0.99827,0,0,0.33333,-0,-0,0.66667
0.39044,0.77681,1.1713,0.41522,4.0551,13.339,-1.2969,0.43231,-1.3878,-1.7292,-1.0794e-12,-0.69388,0,0,0.33333,-9.8686e-16,0,0.66667
0.28901,0.22681,0.86703,-0.40979,-4.3391,16.972,0.94747,-0.31582,-1.4025,1.2633,5.3279e-11,-0.70125,0,0,0.33333,-0,-0,0.66667
0.5133,0.075364,1.5399,-0.63695,-5.526,9.4902,2.6156,-0.87186,-0.55708,3.4875,1.2546e-13,-0.27854,0,0,0.33333,-0,4.4931e-16,0.66667
0.34826,0.67315,1.0448,0.25972,2.6053,14.771,-0.72359,0.2412,-1.7595,-0.96478,-1.3704e-11,-0.87975,0,0,0.33333,-3.9475e-16,0,0.66667
0.92823,0.41132,2.7847,-0.13302,-0.14576,0.50794,0.98781,-0.32927,-1.9371,1.3171,6.2323e-08,-0.96854,0,0,0.33333,-0,-0,0.66667
0.78995,0.43275,2.3698,-0.10088,-0.39735,2.3806,0.6375,-0.2125,-1.9638,0.85,-4.2614e-11,-0.98192,0,0,0.33333,-3.9475e-16,0,0.66667
0.86101,0.8875,2.583,0.58124,1.6687,1.6418,-4.0037,1.3346,-0.79849,-5.3382,1.4503e-09,-0.39924,0,0,0.33333,1.579e-15,0,0.66667
0.1295,0.053844,0.3885,-0.66923,-7.8166,23.141,0.69333,-0.23111,-0.40722,0.92444,2.0239e-09,-0.20361,0,0,0.33333,-9.8686e-17,0,0.66667
0.57507,0.27064,1.7252,-0.34403,-2.6047,7.4763,1.5827,-0.52758,-1.5788,2.1103,2.5568e-13,-0.7894,0,0,0.33333,-7.8949e-16,0,0.66667
0.21478,0.17028,0.64435,-0.49458,-5.4981,19.794,0.84982,-0.28327,-1.1297,1.1331,2.6971e-10,-0.56483,0,0,0.33333,3.9475e-16,0,0.66667
0.86824,0.10273,2.6047,-0.59591,-1.6321,1.5686,4.1391,-1.3797,-0.73691,5.5188,-4.2979e-09,-0.36846,0,0,0.33333,-0,-0,0.66667
0.015019,0.60019,0.045058,0.15028,1.7188,27.646,-0.018057,0.006019,-1.9201,-0.024076,-2.0321e-08,-0.96005,0,0,0.33333,-0,-0,0.66667
0.10574,0.29871,0.31723,-0.30193,-3.4351,24.021,0.25542,-0.08514,-1.6753,0.34056,7.9645e-10,-0.83764,0,0,0.33333,-1.2523e-16,0,0.66667
0.37606,0.61931,1.1282,0.17896,1.7454,13.768,-0.5384,0.17947,-1.8866,-0.71786,-5.4297e-12,-0.94328,0,0,0.33333,1.9737e-16,0,0.66667
0.40209,0.93865,1.2063,0.65798,6.5307,13.078,-2.1165,0.70552,-0.46149,-2.8221,5.9508e-13,-0.23075,0,0,0.33333,-0,-5.36e-19,0.66667
0.27722,0.74272,0.83166,0.36408,3.8708,17.397,-0.80744,0.26915,-1.5285,-1.0766,-7.3299e-11,-0.76427,0,0,0.33333,-1.9737e-16,0,0.66667
0.096063,0.90372,0.28819,0.60558,7.077,24.441,-0.46539,0.15513,-0.69681,-0.62053,2.4524e-09,-0.34841,0,0,0.33333,2.4672e-17,0,0.66667
0.11873,0.047085,0.35619,-0.67937,-7.9664,23.564,0.6453,-0.2151,-0.35816,0.8604,1.7039e-09,-0.17908,0,0,0.33333,-0,-0,0.66667
0.31794,0.85232,0.95383,0.52849,5.5455,15.957,-1.3442,0.44808,-1.0065,-1.7923,-1.234e-11,-0.50327,0,0,0.33333,-0,-0,0.66667
0.95079,0.10084,2.8524,-0.59873,-0.56302,0.74932,4.5542,-1.5181,-0.72546,6.0722,1.9502e-08,-0.36273,0,0,0.33333,-0,-0,0.66667
0.20741,0.15554,0.62222,-0.51669,-5.7752,20.083,0.85731,-0.28577,-1.0517,1.1431,3.2842e-10,-0.52584,0,0,0.33333,-1.4803e-16,0,0.66667
0.74728,0.73713,2.2418,0.3557,1.724,3.3057,-2.1265,0.70882,-1.5497,-2.8353,1.1839e-10,-0.77485,0,0,0.33333,-7.8949e-16,0,0.66667
0.25819,0.083307,0.77457,-0.62504,-6.8891,18.199,1.291,-0.43034,-0.61031,1.7214,2.9058e-11,-0.30515,0,0,0.33333,-0,-0,0.66667
0.03724,0.51511,0.11172,0.022668,0.25843,26.752,-0.0067538,0.0022506,-1.9974,-0.0090053,-9.3268e-07,-0.9987,0,0,0.33333,-9.8686e-17,0,0.66667
0.016052,0.10748,0.048157,-0.58878,-6.9317,27.611,0.075609,-0.025203,-0.76729,0.10081,-2.7989e-07,-0.38365,0,0,0.33333,-0,-0,0.66667
0.15271,0.48613,0.45812,-0.020811,-0.23178,22.146,0.025424,-0.0084746,-1.9979,0.033898,-1.2968e-09,-0.99894,0,0,0.33333,-0,-0,0.66667
0.46208,0.31167,1.3863,-0.2825,-2.5248,10.884,1.0443,-0.34811,-1.717,1.3924,-4.482e-13,-0.85849,0,0,0.33333,1.1842e-15,0,0.66667
0.7559,0.25769,2.2677,-0.36347,-1.7072,3.1411,2.198,-0.73266,-1.5299,2.9307,-1.4144e-10,-0.76497,0,0,0.33333,-1.579e-15,0,0.66667
0.72881,0.74553,2.1864,0.36829,1.909,3.6925,-2.1473,0.71578,-1.5178,-2.8631,8.3296e-11,-0.75892,0,0,0.33333,1.1842e-15,0,0.66667
0.35239,0.71762,1.0572,0.32643,3.2764,14.641,-0.92025,0.30675,-1.6218,-1.227,-1.1772e-11,-0.8109,0,0,0.33333,-5.3995e-16,0,0.66667
0.47914,0.78415,1.4374,0.42622,3.7721,10.401,-1.6338,0.54459,-1.3545,-2.1783,2.8599e-13,-0.67724,0,0,0.33333,1.579e-15,0,0.66667
0.81407,0.49966,2.4422,-0.00050605,-0.0017524,1.9575,0.0032957,-0.0010986,-2.0013,0.0043943,5.4651e-10,-1.0006,0,0,0.33333,-5.0577e-15,0,0.66667
0.8384,0.92464,2.5152,0.63697,2.1672,2.0298,-4.2723,1.4241,-0.55673,-5.6964,5.4381e-10,-0.27837,0,0,0.33333,1.579e-15,0,0.66667
0.31992,0.86752,0.95975,0.55128,5.7905,15.896,-1.4109,0.47031,-0.91907,-1.8812,-9.0378e-12,-0.45953,0,0,0.33333,-5.9212e-16,0,0.66667
0.004265,0.70859,0.012795,0.31288,3.6038,28.079,-0.010676,0.0035585,-1.6515,-0.014234,-9.335e-09,-0.82574,0,0,0.33333,-0,-0,0.66667
0.046931,0.6721,0.14079,0.25816,2.9583,26.366,-0.096924,0.032308,-1.7629,-0.12923,-7.2e-09,-0.88147,0,0,0.33333,-0,-0,0.66667
0.73781,0.43735,2.2134,-0.093982,-0.4599,3.3815,0.55473,-0.18491,-1.9697,0.73963,-3.6945e-11,-0.98484,0,0,0.33333,-1.7764e-15,0,0.66667
0.27263,0.27182,0.8179,-0.34226,-3.6438,17.562,0.7465,-0.24883,-1.5829,0.99533,8.0275e-11,-0.79147,0,0,0.33333,3.9475e-16,0,0.66667
0.48149,0.45736,1.4445,-0.063954,-0.55249,10.212,0.24634,-0.082115,-1.9851,0.32846,1.3335e-13,-0.99253,0,0,0.33333,-0,-0,0.66667
0.19203,0.87317,0.57609,0.55976,6.3248,20.686,-0.85993,0.28664,-0.88658,-1.1466,-4.3343e-10,-0.44329,0,0,0.33333,-0,-0,0.66667
0.84711,0.65464,2.5413,0.23197,0.66372,1.5091,-1.572,0.524,-1.8095,-2.096,8.2209e-10,-0.90474,0,0,0.33333,1.7764e-15,0,0.66667
0.50338,0.3426,1.5101,-0.2361,-1.9912,9.5571,0.95079,-0.31693,-1.8027,1.2677,8.0325e-14,-0.90134,0,0,0.33333,-0,-0,0.66667
0.52716,0.59032,1.5815,0.13548,1.0976,8.8027,-0.57138,0.19046,-1.9351,-0.76184,-9.72e-14,-0.96756,0,0,0.33333,3.9475e-16,0,0.66667
0.28808,0.59184,0.86424,0.13776,1.4383,16.949,-0.31749,0.10583,-1.933,-0.42333,-3.3225e-11,-0.96652,0,0,0.33333,-6.6989e-18,0,0.66667
0.512,0.0050055,1.536,-0.74249,-6.5656,9.629,3.0412,-1.0137,-0.04003,4.055,-2.9066e-13,-0.020015,0,0,0.33333,3.158e-15,0,0.66667
0.0019636,0.26462,0.0058909,-0.35307,-4.0766,28.171,0.0055465,-0.0018488,-1.5564,0.0073953,-1.4478e-08,-0.77818,0,0,0.33333,-0,-0,0.66667
0.2773,0.82272,0.83189,0.48407,5.1975,17.431,-1.0738,0.35795,-1.1664,-1.4318,-5.6861e-11,-0.5832,0,0,0.33333,-0,-0,0.66667
0.34876,0.43918,1.0463,-0.091233,-0.9092,14.725,0.25455,-0.08485,-1.971,0.3394,6.8259e-12,-0.98552,0,0,0.33333,7.8949e-16,0,0.66667
0.28395,0.056621,0.85185,-0.66507,-7.2544,17.263,1.5108,-0.50359,-0.42749,2.0144,4.7399e-12,-0.21374,0,0,0.33333,-3.9475e-16,0,0.66667
0.085952,0.497,0.25786,-0.0044972,-0.050941,24.798,0.0030924,-0.0010309,-2.0002,0.0041231,-1.3931e-07,-1.0001,0,0,0.33333,-0,-0,0.66667
0.52178,0.62559,1.5653,0.18839,1.5422,8.9777,-0.78639,0.26213,-1.8746,-1.0485,-1.8574e-13,-0.93731,0,0,0.33333,-1.579e-15,0,0.66667
0.78848,0.46064,2.3654,-0.059035,-0.23377,2.3997,0.37238,-0.12413,-1.9872,0.49651,-6.4189e-11,-0.9936,0,0,0.33333,-0,-0,0.66667
0.9426,0.42139,2.8278,-0.11791,-0.090694,0.37777,0.88912,-0.29637,-1.9498,1.1855,8.2244e-08,-0.97492,0,0,0.33333,-0,-0,0.66667
0.49729,0.57243,1.4919,0.10864,0.91926,9.7177,-0.43221,0.14407,-1.9578,-0.57628,1.6376e-15,-0.97888,0,0,0.33333,-0,-0,0.66667
0.59375,0.57209,1.7813,0.10814,0.77839,6.8726,-0.51365,0.17122,-1.9586,-0.68486,1.2964e-12,-0.9793,0,0,0.33333,-0,-0,0.66667
0.29086,0.61677,0.87258,0.17516,1.8275,16.85,-0.40758,0.13586,-1.8905,-0.54344,-3.8894e-11,-0.94526,0,0,0.33333,3.9475e-16,0,0.66667
0.14916,0.66568,0.44748,0.24852,2.7869,22.298,-0.29656,0.098852,-1.7799,-0.39541,-4.6902e-10,-0.88993,0,0,0.33333,-0,-0,0.66667
0.13187,0.73447,0.39562,0.35171,3.987,22.991,-0.37104,0.12368,-1.5594,-0.49472,4.1931e-10,-0.77969,0,0,0.33333,1.9737e-16,0,0.66667
0.73236,0.34327,2.1971,-0.2351,-1.1844,3.5401,1.3774,-0.45914,-1.8047,1.8366,-7.1201e-11,-0.90234,0,0,0.33333,-2.9606e-16,0,0.66667
0.73447,0.44013,2.2034,-0.089805,-0.44469,3.45,0.52767,-0.17589,-1.9724,0.70356,-3.2943e-11,-0.9862,0,0,0.33333,-0,-0,0.66667
0.17935,0.52526,0.53805,0.03789,0.41801,21.101,-0.054365,0.018122,-1.9947,-0.072486,-1.397e-10,-0.99737,0,0,0.33333,-0,-0,0.66667
0.41356,0.24938,1.2407,-0.37593,-3.5755,12.531,1.2438,-0.41459,-1.4983,1.6584,5.318e-14,-0.74913,0,0,0.33333,-1.727e-16,0,0.66667
0.59414,0.30618,1.7824,-0.29072,-2.113,6.9195,1.3819,-0.46062,-1.6999,1.8425,-1.5021e-12,-0.84997,0,0,0.33333,1.1842e-15,0,0.66667
0.12528,0.028402,0.37585,-0.7074,-8.31,23.315,0.70899,-0.23633,-0.22177,0.94532,-4.6449e-09,-0.11089,0,0,0.33333,-0,-0,0.66667
0.78537,0.53462,2.3561,0.051929,0.20864,2.4547,-0.32627,0.10876,-1.9908,-0.43503,7.5971e-11,-0.99541,0,0,0.33333,-0,-0,0.66667
0.61999,0.97729,1.86,0.71594,5.2518,6.5789,-3.551,1.1837,-0.17715,-4.7347,-1.541e-13,-0.088575,0,0,0.33333,-0,-0,0.66667
0.61522,0.1438,1.8457,-0.53431,-3.8314,6.5158,2.6297,-0.87658,-0.98425,3.5063,3.8569e-13,-0.49213,0,0,0.33333,-0,-0,0.66667
0.70121,0.72359,2.1036,0.33538,1.8892,4.2689,-1.8814,0.62713,-1.6005,-2.5085,4.61e-11,-0.80024,0,0,0.33333,-0,-0,0.66667
0.98718,0.23065,2.9615,-0.40402,0.043801,0.27521,3.1908,-1.0636,-1.4192,4.2543,6.1521e-09,-0.7096,0,0,0.33333,1.579e-15,0,0.66667
0.56239,0.94628,1.6872,0.66942,5.4129,8.0842,-3.0118,1.0039,-0.40688,-4.0158,-3.7814e-13,-0.20344,0,0,0.33333,-0,-3.1906e-16,0.66667
0.86442,0.18481,2.5932,-0.47279,-1.268,1.4657,3.2695,-1.0898,-1.2057,4.3593,-8.947e-11,-0.60284,0,0,0.33333,-1.7764e-15,0,0.66667
0.41871,0.46732,1.2561,-0.049024,-0.45667,12.279,0.16421,-0.054738,-1.9923,0.21895,4.8915e-13,-0.99616,0,0,0.33333,3.9475e-16,0,0.66667
0.65447,0.36218,1.9634,-0.20673,-1.3067,5.3088,1.0824,-0.3608,-1.8477,1.4432,-1.3641e-11,-0.92386,0,0,0.33333,-7.8949e-16,0,0.66667
0.92526,0.89516,2.7758,0.59274,0.8937,0.94716,-4.3875,1.4625,-0.75034,-5.85,6.513e-08,-0.37517,0,0,0.33333,7.8949e-16,0,0.66667
0.66415,0.023376,1.9925,-0.71494,-4.7569,5.486,3.7986,-1.2662,-0.18224,5.0648,1.0814e-13,-0.091122,0,0,0.33333,-0,-0,0.66667
0.30308,0.34674,0.90924,-0.2299,-2.3838,16.406,0.55742,-0.18581,-1.8124,0.74322,3.7538e-11,-0.90621,0,0,0.33333,-0,-0,0.66667
0.61995,0.97933,1.8598,0.71899,5.2779,6.5837,-3.5659,1.1886,-0.16143,-4.7545,-1.2479e-13,-0.080716,0,0,0.33333,-0,-0,0.66667
0.35132,0.026396,1.054,-0.71041,-7.4301,14.866,1.9966,-0.66554,-0.2056,2.6622,-1.491e-13,-0.1028,0,0,0.33333,3.9475e-16,0,0.66667
0.32237,0.86407,0.9671,0.5461,5.7225,15.805,-1.4084,0.46945,-0.93903,-1.8778,-8.8392e-12,-0.46951,0,0,0.33333,3.9475e-16,0,0.66667
0.61021,0.77502,1.8306,0.41253,2.9393,6.5542,-2.0138,0.67128,-1.3953,-2.6851,1.3634e-12,-0.69765,0,0,0.33333,-3.9475e-16,0,0.66667
0.16032,0.98614,0.48097,0.72922,8.5024,21.96,-0.93528,0.31176,-0.10869,-1.247,8.2425e-11,-0.054344,0,0,0.33333,-0,-0,0.66667
0.48674,0.56437,1.4602,0.096555,0.82876,10.049,-0.37598,0.12533,-1.9677,-0.5013,8.0408e-14,-0.98386,0,0,0.33333,-0,-0,0.66667
0.94563,0.87144,2.8369,0.55716,0.56156,0.72692,-4.2149,1.405,-0.89648,-5.6199,9.2135e-08,-0.44824,0,0,0.33333,-0,-0,0.66667
0.38391,0.026221,1.1517,-0.71067,-7.2287,13.735,2.1827,-0.72756,-0.20426,2.9102,-2.4314e-13,-0.10213,0,0,0.33333,-0,-0,0.66667
0.18896,0.3976,0.56689,-0.1536,-1.6916,20.731,0.2322,-0.0774,-1.9161,0.3096,1.2492e-10,-0.95806,0,0,0.33333,-0,-0,0.66667
0.46884,0.25317,1.4065,-0.37025,-3.303,10.702,1.3887,-0.4629,-1.5136,1.8516,-6.1884e-13,-0.75679,0,0,0.33333,-0,-0,0.66667
0.84091,0.14734,2.5227,-0.52898,-1.704,1.8527,3.5586,-1.1862,-1.0049,4.7448,-9.6705e-10,-0.50243,0,0,0.33333,-0,-0,0.66667
0.84267,0.0057302,2.528,-0.7414,-2.5694,2.1306,4.9981,-1.666,-0.045994,6.6641,-9.0152e-10,-0.022997,0,0,0.33333,-0,2.3644e-16,0.66667
0.8278,0.069263,2.4834,-0.64611,-2.3431,2.1988,4.2788,-1.4263,-0.51613,5.7051,-2.3959e-10,-0.25807,0,0,0.33333,-0,-2.6776e-16,0.66667
0.011476,0.066649,0.034427,-0.65003,-7.7049,27.795,0.059675,-0.019893,-0.49793,0.079566,-1.8918e-06,-0.24896,0,0,0.33333,-0,-0,0.66667
0.26704,0.75264,0.80112,0.37896,4.0586,17.781,-0.80959,0.26986,-1.4902,-1.0794,-9.1345e-11,-0.74512,0,0,0.33333,-7.8949e-16,0,0.66667
0.99988,0.8338,2.9996,0.50071,-0.1604,0.33476,-4.0051,1.335,-1.1087,-5.3402,1.2496e-07,-0.55436,0,0,0.33333,7.8949e-16,-2.431e-17,0.66667
0.11968,0.26451,0.35905,-0.35324,-4.0178,23.473,0.33821,-0.11274,-1.5556,0.45095,2.5387e-10,-0.77781,0,0,0.33333,-0,-0,0.66667
0.49009,0.72365,1.4703,0.33547,2.9022,10.01,-1.3153,0.43843,-1.5999,-1.7537,1.1546e-13,-0.79995,0,0,0.33333,-0,-0,0.66667
0.79003,0.21443,2.3701,-0.42836,-1.7637,2.5618,2.7073,-0.90244,-1.3477,3.6098,-2.9726e-10,-0.67384,0,0,0.33333,1.1842e-15,0,0.66667
0.12221,0.62741,0.36664,0.19111,2.1548,23.359,-0.18685,0.062283,-1.8709,-0.24913,6.1015e-09,-0.93543,0,0,0.33333,-0,-0,0.66667
0.66241,0.7714,1.9872,0.4071,2.5741,5.2223,-2.1573,0.71911,-1.4102,-2.8765,1.4326e-11,-0.70509,0,0,0.33333,-7.8949e-16,0,0.66667
0.48808,0.77185,1.4642,0.40777,3.56,10.108,-1.5922,0.53074,-1.4084,-2.1229,2.307e-13,-0.70422,0,0,0.33333,-0,-0,0.66667
0.19429,0.75179,0.58287,0.37768,4.1966,20.555,-0.58704,0.19568,-1.4934,-0.78272,-3.1802e-10,-0.74668,0,0,0.33333,-7.8949e-16,0,0.66667
0.87863,0.66892,2.6359,0.25339,0.56235,1.0999,-1.7811,0.59369,-1.7712,-2.3748,1.0976e-09,-0.88559,0,0,0.33333,-0,-0,0.66667
0.18149,0.54719,0.54446,0.070791,0.78058,21.018,-0.10278,0.03426,-1.9814,-0.13704,-9.6843e-11,-0.9907,0,0,0.33333,3.9475e-16,0,0.66667
0.63905,0.6496,1.9172,0.22439,1.4739,5.7028,-1.1472,0.3824,-1.8212,-1.5296,9.3261e-12,-0.91059,0,0,0.33333,-1.1842e-15,0,0.66667
0.74083,0.71345,2.2225,0.32018,1.5808,3.412,-1.8976,0.63253,-1.6355,-2.5301,1.0047e-10,-0.81773,0,0,0.33333,-3.9475e-16,0,0.66667
0.56267,0.3174,1.688,-0.2739,-2.1077,7.7964,1.2329,-0.41098,-1.734,1.6439,1.3234e-13,-0.86698,0,0,0.33333,-0,-0,0.66667
0.62884,0.67071,1.8865,0.25606,1.7257,5.9781,-1.2882,0.42939,-1.7663,-1.7175,6.9462e-12,-0.88313,0,0,0.33333,-0,-0,0.66667
0.11897,0.69832,0.3569,0.29748,3.3729,23.496,-0.28311,0.094371,-1.6847,-0.37749,1.8484e-09,-0.84237,0,0,0.33333,-0,-0,0.66667
0.30804,0.30569,0.92411,-0.29147,-3.0214,16.237,0.71827,-0.23942,-1.6978,0.95769,3.7191e-11,-0.8489,0,0,0.33333,-3.9475e-16,0,0.66667
0.58696,0.82402,1.7609,0.48602,3.6585,7.2363,-2.2822,0.76074,-1.1594,-3.043,-1.0034e-12,-0.57971,0,0,0.33333,-0,-0,0.66667
0.39546,0.068938,1.1864,-0.64659,-6.4488,13.295,2.0456,-0.68188,-0.51337,2.7275,-7.3319e-13,-0.25668,0,0,0.33333,-0,-0,0.66667
0.66395,0.084435,1.9918,-0.62335,-4.0703,5.3824,3.311,-1.1037,-0.61791,4.4146,-1.0578e-12,-0.30896,0,0,0.33333,-7.8949e-16,0,0.66667
0.85195,0.33421,2.5559,-0.24869,-0.68909,1.4495,1.695,-0.56499,-1.7795,2.26,-4.2122e-10,-0.88977,0,0,0.33333,-0,-0,0.66667
0.19022,0.95525,0.57067,0.68287,7.8298,20.794,-1.0392,0.34639,-0.34153,-1.3856,-9.893e-11,-0.17076,0,0,0.33333,-1.9737e-16,0,0.66667
0.90327,0.37994,2.7098,-0.18009,-0.29887,0.77612,1.3014,-0.43379,-1.8849,1.7352,6.0836e-09,-0.94247,0,0,0.33333,-0,-0,0.66667
0.38318,0.17095,1.1495,-0.49357,-4.89,13.627,1.513,-0.50433,-1.133,2.0173,4.2921e-13,-0.5665,0,0,0.33333,-0,-0,0.66667
0.94312,0.51738,2.8294,0.026069,0.019385,0.35682,-0.19669,0.065563,-1.9968,-0.26225,-3.2706e-07,-0.99842,0,0,0.33333,-3.158e-15,0,0.66667
0.61738,0.82548,1.8521,0.48822,3.4614,6.4204,-2.4114,0.80378,-1.1517,-3.2151,4.7162e-13,-0.57587,0,0,0.33333,-0,-0,0.66667
0.7901,0.40025,2.3703,-0.14963,-0.59085,2.3909,0.94575,-0.31525,-1.9202,1.261,-1.0771e-10,-0.96012,0,0,0.33333,-0,-0,0.66667
0.51478,0.39592,1.5443,-0.15612,-1.2899,9.184,0.64295,-0.21432,-1.9133,0.85727,1.108e-13,-0.95665,0,0,0.33333,7.8949e-16,0,0.66667
0.53114,0.32311,1.5934,-0.26534,-2.1504,8.7194,1.1275,-0.37582,-1.7498,1.5033,3.5183e-13,-0.87488,0,0,0.33333,-0,-0,0.66667
0.32759,0.9063,0.98278,0.60945,6.4077,15.648,-1.5972,0.5324,-0.6809,-2.1296,-2.1234e-12,-0.34045,0,0,0.33333,-7.8949e-16,0,0.66667
0.12936,0.2785,0.38809,-0.33225,-3.7645,23.088,0.34385,-0.11462,-1.608,0.45847,-3.8291e-10,-0.804,0,0,0.33333,2.4672e-16,0,0.66667
0.38382,0.86047,1.1515,0.54071,5.3812,13.629,-1.6603,0.55343,-0.95968,-2.2137,4.1589e-13,-0.47984,0,0,0.33333,-0,-0,0.66667
0.21498,0.73514,0.64493,0.35271,3.8766,19.752,-0.60659,0.2022,-1.5571,-0.80878,-2.2256e-10,-0.77853,0,0,0.33333,-0,-0,0.66667
0.032865,0.56739,0.098596,0.10109,1.1538,26.928,-0.026578,0.0088597,-1.9641,-0.035437,5.0847e-07,-0.98206,0,0,0.33333,-0,-0,0.66667
0.27489,0.69785,0.82466,0.29677,3.1462,17.467,-0.65263,0.21754,-1.6863,-0.87018,-7.2729e-11,-0.84313,0,0,0.33333,-0,-0,0.66667
0.18058,0.11326,0.54173,-0.5801,-6.5983,21.133,0.83802,-0.27934,-0.80278,1.1174,5.8081e-10,-0.40139,0,0,0.33333,-1.9737e-16,0,0.66667
0.87553,0.49453,2.6266,-0.008206,-0.018197,1.0637,0.057477,-0.019159,-2.0003,0.076636,1.4636e-08,-1.0002,0,0,0.33333,1.9737e-15,0,0.66667
0.081237,0.69773,0.24371,0.2966,3.3898,24.996,-0.19276,0.064253,-1.6869,-0.25701,3.3704e-09,-0.84343,0,0,0.33333,-0,-0,0.66667
0.1839,0.31932,0.55169,-0.27102,-3.0048,20.941,0.39871,-0.1329,-1.7388,0.53161,1.0369e-10,-0.86939,0,0,0.33333,3.9475e-16,0,0.66667
0.70403,0.1336,2.1121,-0.5496,-3.1778,4.3838,3.0955,-1.0318,-0.92612,4.1273,-2.0746e-11,-0.46306,0,0,0.33333,-0,-0,0.66667
0.91923,0.11438,2.7577,-0.57844,-0.93934,0.98193,4.2537,-1.4179,-0.81004,5.6716,9.0613e-09,-0.40502,0,0,0.33333,-0,4.562e-17,0.66667
0.25146,0.13385,0.75438,-0.54922,-6.0253,18.421,1.1049,-0.36828,-0.92748,1.4731,8.1022e-11,-0.46374,0,0,0.33333,-0,-0,0.66667
0.021301,0.55831,0.063903,0.087459,0.99871,27.393,-0.014906,0.0049688,-1.973,-0.019874,3.6675e-07,-0.98648,0,0,0.33333,-1.2336e-17,0,0.66667
0.9605,0.04349,2.8815,-0.68476,-0.5698,0.82378,5.2618,-1.7539,-0.33206,7.0157,-9.4876e-07,-0.16603,0,0,0.33333,-1.579e-15,0,0.66667
0.68222,0.17197,2.0467,-0.49205,-2.993,4.8211,2.6855,-0.89517,-1.1384,3.5807,-1.6787e-11,-0.5692,0,0,0.33333,1.579e-15,0,0.66667
0.31066,0.6582,0.93199,0.23731,2.4483,16.129,-0.58978,0.19659,-1.8007,-0.78637,-3.2825e-11,-0.90035,0,0,0.33333,-0,-0,0.66667
0.47237,0.20238,1.4171,-0.44643,-3.9936,10.627,1.687,-0.56235,-1.2908,2.2494,-6.336e-13,-0.6454,0,0,0.33333,-0,-0,0.66667
0.59926,0.48702,1.7978,-0.019466,-0.13836,6.7126,0.09332,-0.031107,-1.998,0.12443,-3.1998e-13,-0.99898,0,0,0.33333,7.8949e-16,0,0.66667
0.37387,0.86508,1.1216,0.54762,5.5038,13.978,-1.6379,0.54597,-0.93368,-2.1839,-4.13e-14,-0.46684,0,0,0.33333,-0,3.8187e-16,0.66667
0.87449,0.032853,2.6235,-0.70072,-1.9264,1.6493,4.9022,-1.6341,-0.25539,6.5362,4.9926e-09,-0.1277,0,0,0.33333,-0,-0,0.66667
0.72617,0.93322,2.1785,0.64983,3.5914,4.0256,-3.7751,1.2584,-0.49864,-5.0335,1.0381e-11,-0.24932,0,0,0.33333,-0,-0,0.66667
0.95434,0.26746,2.863,-0.34881,-0.21404,0.42278,2.6631,-0.88769,-1.5671,3.5507,-2.0474e-10,-0.78357,0,0,0.33333,-0,-0,0.66667
0.35107,0.12445,1.0532,-0.56333,-5.7836,14.787,1.5821,-0.52737,-0.87247,2.1095,1.4841e-12,-0.43623,0,0,0.33333,3.454e-16,0,0.66667
0.93717,0.3407,2.8115,-0.23895,-0.22374,0.47748,1.7915,-0.59717,-1.7979,2.3887,-2.2692e-08,-0.89897,0,0,0.33333,-3.9475e-16,0,0.66667
0.4791,0.76559,1.4373,0.39838,3.5164,10.387,-1.5269,0.50897,-1.435,-2.0359,3.8802e-13,-0.71749,0,0,0.33333,7.8949e-16,0,0.66667
0.64232,0.090553,1.927,-0.61417,-4.2113,5.8997,3.156,-1.052,-0.65954,4.208,1.6676e-13,-0.32977,0,0,0.33333,1.9737e-16,0,0.66667
0.73665,0.31012,2.2099,-0.28482,-1.421,3.4765,1.6785,-0.5595,-1.7123,2.238,-8.8462e-11,-0.85617,0,0,0.33333,-9.8686e-16,0,0.66667
0.80934,0.89091,2.428,0.58637,2.2944,2.4068,-3.7966,1.2655,-0.77694,-5.0621,4.0643e-10,-0.38847,0,0,0.33333,-0,-0,0.66667
0.39626,0.89415,1.1888,0.59122,5.85,13.232,-1.8742,0.62474,-0.75653,-2.4989,9.3014e-13,-0.37826,0,0,0.33333,3.9475e-16,0,0.66667
0.44795,0.27074,1.3438,-0.34389,-3.1402,11.369,1.2324,-0.41079,-1.579,1.6432,-6.1551e-13,-0.78948,0,0,0.33333,-0,-0,0.66667
0.81728,0.33538,2.4518,-0.24692,-0.85548,1.9718,1.6144,-0.53815,-1.7829,2.1526,-2.2727e-10,-0.89144,0,0,0.33333,-0,-0,0.66667
0.71756,0.077759,2.1527,-0.63336,-3.581,4.1857,3.6358,-1.2119,-0.57342,4.8477,-1.0771e-11,-0.28671,0,0,0.33333,-0,-0,0.66667
0.94085,0.1697,2.8225,-0.49544,-0.51965,0.68279,3.7291,-1.243,-1.1267,4.9721,2.9076e-08,-0.56335,0,0,0.33333,-1.579e-15,0,0.66667
0.9796,0.28008,2.9388,-0.32988,-0.0046739,0.24373,2.5852,-0.86173,-1.6138,3.4469,-1.204e-08,-0.80692,0,0,0.33333,-2.9606e-16,0,0.66667
0.17891,0.3144,0.53674,-0.27841,-3.0939,21.136,0.39848,-0.13283,-1.7249,0.53131,9.6274e-11,-0.86246,0,0,0.33333,-0,-0,0.66667
0.22792,0.78968,0.68376,0.43452,4.775,19.276,-0.79228,0.26409,-1.3283,-1.0564,-2.0834e-10,-0.66413,0,0,0.33333,-0,-0,0.66667
0.71599,0.98282,2.148,0.72423,4.2071,4.3368,-4.1483,1.3828,-0.13457,-5.5311,4.1078e-13,-0.067283,0,0,0.33333,-0,3.9085e-16,0.66667
0.74738,0.39468,2.2421,-0.15798,-0.74874,3.2024,0.94456,-0.31485,-1.9109,1.2594,-6.279e-11,-0.95544,0,0,0.33333,-0,-0,0.66667
0.60318,0.78779,1.8095,0.43169,3.1271,6.7553,-2.0831,0.69436,-1.3372,-2.7774,2.9909e-13,-0.6686,0,0,0.33333,1.579e-15,0,0.66667
0.8773,0.2043,2.6319,-0.44355,-1.0578,1.2714,3.113,-1.0377,-1.3,4.1507,-9.2871e-10,-0.65002,0,0,0.33333,-1.579e-15,0,0.66667
0.25199,0.84827,0.75597,0.5224,5.7139,18.391,-1.0531,0.35104,-1.0301,-1.4042,-9.3646e-11,-0.51507,0,0,0.33333,-0,-0,0.66667
0.33949,0.70518,1.0185,0.30777,3.1183,15.098,-0.83588,0.27863,-1.6626,-1.1145,-1.7296e-11,-0.83128,0,0,0.33333,-0,-0,0.66667
0.49465,0.91912,1.4839,0.62868,5.5893,10.053,-2.4878,0.82927,-0.59401,-3.3171,2.4425e-15,-0.297,0,0,0.33333,7.8949e-16,0,0.66667
0.31503,0.16911,0.94508,-0.49633,-5.2022,16.049,1.2509,-0.41696,-1.1237,1.6678,1.7653e-11,-0.56184,0,0,0.33333,-0,-0,0.66667
0.54544,0.92985,1.6363,0.64477,5.3373,8.5457,-2.8135,0.93782,-0.52196,-3.7513,-4.1167e-13,-0.26098,0,0,0.33333,-0,-0,0.66667
0.68248,0.15082,2.0474,-0.52377,-3.2012,4.8445,2.8597,-0.95322,-1.0246,3.8129,-1.3006e-11,-0.51231,0,0,0.33333,-0,-0,0.66667
0.22037,0.13559,0.6611,-0.54661,-6.0913,19.596,0.96364,-0.32121,-0.93748,1.2849,2.029e-10,-0.46874,0,0,0.33333,-3.9475e-16,0,0.66667
0.48534,0.99547,1.456,0.74321,6.8099,10.444,-2.8856,0.96188,-0.036683,-3.8475,-1.7519e-13,-0.018342,0,0,0.33333,-0,-0,0.66667
0.99298,0.84286,2.9789,0.51429,-0.072611,0.38177,-4.0854,1.3618,-1.0603,-5.4472,2.0557e-09,-0.53015,0,0,0.33333,2.3685e-15,0,0.66667
0.32416,0.68034,0.97248,0.27052,2.7678,15.643,-0.70153,0.23384,-1.7397,-0.93537,-2.5454e-11,-0.86984,0,0,0.33333,5.9212e-16,0,0.66667
0.035362,0.8435,0.10609,0.51524,6.0165,26.84,-0.14576,0.048587,-1.0571,-0.19435,-3.0129e-08,-0.52854,0,0,0.33333,-5.7824e-17,0,0.66667
0.81735,0.041681,2.4521,-0.68748,-2.6743,2.4192,4.4953,-1.4984,-0.31903,5.9937,-5.1096e-11,-0.15951,0,0,0.33333,-0,-0,0.66667
0.50331,0.40403,1.5099,-0.14396,-1.209,9.5358,0.57965,-0.19322,-1.927,0.77287,4.8128e-14,-0.9635,0,0,0.33333,-7.8949e-16,0,0.66667
0.052784,0.58146,0.15835,0.12218,1.3928,26.128,-0.051595,0.017198,-1.9462,-0.068793,7.9775e-08,-0.97311,0,0,0.33333,-0,-0,0.66667
0.89031,0.67001,2.6709,0.25501,0.50298,0.96075,-1.8163,0.60544,-1.7687,-2.4218,-6.642e-10,-0.88433,0,0,0.33333,-0,-0,0.66667
0.40451,0.62195,1.2135,0.18293,1.7356,12.781,-0.59198,0.19733,-1.8818,-0.78931,-1.9665e-12,-0.94088,0,0,0.33333,1.9737e-16,0,0.66667
0.92927,0.8715,2.7878,0.55725,0.76684,0.86117,-4.1427,1.3809,-0.89613,-5.5236,-6.2174e-08,-0.44806,0,0,0.33333,7.8949e-16,0,0.66667
0.40208,0.55247,1.2062,0.078702,0.74634,12.85,-0.25315,0.084385,-1.9775,-0.33754,-1.1806e-12,-0.98877,0,0,0.33333,-3.9475e-16,0,0.66667
0.076832,0.83446,0.2305,0.50168,5.823,25.189,-0.30836,0.10279,-1.1051,-0.41115,-1.0309e-08,-0.55255,0,0,0.33333,-0,-0,0.66667
0.2453,0.38432,0.7359,-0.17351,-1.8611,18.564,0.3405,-0.1135,-1.8925,0.454,7.3223e-11,-0.94627,0,0,0.33333,-0,-0,0.66667
0.35026,0.89047,1.0508,0.58571,6.0329,14.828,-1.6412,0.54707,-0.77947,-2.1883,-1.0461e-12,-0.38973,0,0,0.33333,-0,-0,0.66667
0.75073,0.17119,2.2522,-0.49321,-2.4196,3.3539,2.9621,-0.98738,-1.1349,3.9495,-1.1477e-10,-0.56744,0,0,0.33333,1.579e-15,0,0.66667
0.18475,0.30903,0.55424,-0.28645,-3.1773,20.91,0.42337,-0.14112,-1.7088,0.56449,9.1775e-11,-0.85439,0,0,0.33333,5.4696e-17,0,0.66667
0.43097,0.14895,1.2929,-0.52657,-4.9894,12.023,1.8155,-0.60517,-1.0138,2.4207,-1.0612e-12,-0.50691,0,0,0.33333,-3.9475e-16,0,0.66667
0.87325,0.71206,2.6197,0.31809,0.75416,1.2105,-2.2222,0.74072,-1.6404,-2.9629,1.3927e-10,-0.82022,0,0,0.33333,7.8949e-16,0,0.66667
0.53376,0.92753,1.6013,0.64129,5.4025,8.8836,-2.7384,0.91279,-0.53751,-3.6512,-3.0487e-13,-0.26875,0,0,0.33333,-7.8949e-16,0,0.66667
0.10315,0.2647,0.30946,-0.35295,-4.03,24.128,0.29126,-0.097088,-1.5563,0.38835,-2.0364e-09,-0.77815,0,0,0.33333,-0,-0,0.66667
0.024522,0.50121,0.073567,0.0018121,0.020674,27.263,-0.00035523,0.00012365,-2.0006,-0.00047103,7.8549e-06,-1.0003,0,0,0.33333,-0,-0,0.66667
0.70581,0.36035,2.1174,-0.20947,-1.1488,4.1018,1.1828,-0.39426,-1.8435,1.577,-4.171e-11,-0.92175,0,0,0.33333,-0,-0,0.66667
0.97913,0.22948,2.9374,-0.40577,-0.033736,0.31924,3.1784,-1.0595,-1.414,4.2379,5.3166e-09,-0.707,0,0,0.33333,1.579e-15,0,0.66667
0.78517,0.72889,2.3555,0.34334,1.4218,2.579,-2.1566,0.71887,-1.5804,-2.8755,2.1636e-10,-0.79022,0,0,0.33333,-0,-0,0.66667
0.76473,0.23788,2.2942,-0.39318,-1.7926,2.994,2.4054,-0.8018,-1.4502,3.2072,-1.7203e-10,-0.72509,0,0,0.33333,-0,-0,0.66667
0.67545,0.56173,2.0263,0.092591,0.55099,4.7689,-0.50032,0.16677,-1.9705,-0.66709,1.182e-11,-0.98523,0,0,0.33333,-1.0856e-15,0,0.66667
0.7955,0.18289,2.3865,-0.47567,-1.93,2.512,3.0272,-1.0091,-1.1961,4.0362,-3.4363e-10,-0.59803,0,0,0.33333,-1.579e-15,0,0.66667
0.040018,0.3316,0.12005,-0.2526,-2.8957,26.643,0.080869,-0.026956,-1.7724,0.10783,-3.9327e-08,-0.8862,0,0,0.33333,-0,-0,0.66667
0.26468,0.2003,0.79404,-0.44954,-4.8486,17.89,0.95189,-0.3173,-1.2813,1.2692,8.8154e-11,-0.64063,0,0,0.33333,-0,-0,0.66667
0.6954,0.34,2.0862,-0.24,-1.3616,4.349,1.3352,-0.44505,-1.7954,1.7802,-3.7211e-11,-0.89769,0,0,0.33333,-1.8887e-16,0,0.66667
0.86699,0.29003,2.601,-0.31495,-0.78722,1.2886,2.1845,-0.72815,-1.6468,2.9126,8.5921e-11,-0.82341,0,0,0.33333,-0,-0,0.66667
0.67461,0.86005,2.0238,0.54008,3.3798,5.0436,-2.9147,0.97158,-0.9624,-3.8863,8.3091e-12,-0.4812,0,0,0.33333,-0,-0,0.66667
0.17628,0.12409,0.52883,-0.56386,-6.4131,21.295,0.79516,-0.26505,-0.87038,1.0602,7.0744e-10,-0.43519,0,0,0.33333,-4.9343e-17,0,0.66667
0.93631,0.74351,2.8089,0.36527,0.37804,0.58019,-2.736,0.91201,-1.5259,-3.6481,-3.4403e-09,-0.76295,0,0,0.33333,-0,-0,0.66667
0.90338,0.39915,2.7101,-0.15127,-0.24918,0.76346,1.0932,-0.36441,-1.9186,1.4576,-5.3736e-10,-0.95931,0,0,0.33333,-0,-0,0.66667
0.086679,0.98346,0.26004,0.7252,8.6094,24.83,-0.50287,0.16762,-0.1293,-0.6705,-5.3047e-08,-0.064651,0,0,0.33333,2.053e-16,0,0.66667
0.193,0.95178,0.579,0.67766,7.7565,20.686,-1.0463,0.34877,-0.36645,-1.3951,-1.0303e-10,-0.18323,0,0,0.33333,-0,-0,0.66667
0.27519,0.24525,0.82558,-0.38212,-4.0732,17.477,0.84126,-0.28042,-1.4809,1.1217,7.6179e-11,-0.74044,0,0,0.33333,1.9737e-16,0,0.66667
0.73841,0.54548,2.2152,0.068225,0.33283,3.3649,-0.40302,0.13434,-1.9828,-0.53737,2.4738e-11,-0.99141,0,0,0.33333,1.579e-15,0,0.66667
0.85937,0.43075,2.5781,-0.10387,-0.26648,1.2886,0.71411,-0.23804,-1.9621,0.95215,-1.7188e-09,-0.98105,0,0,0.33333,-0,-0,0.66667
0.57832,0.13276,1.735,-0.55085,-4.2514,7.5276,2.5486,-0.84952,-0.92142,3.3981,1.1788e-12,-0.46071,0,0,0.33333,-0,-0,0.66667
0.19965,0.90285,0.59894,0.60427,6.8386,20.407,-0.96512,0.32171,-0.70216,-1.2868,-3.1766e-10,-0.35108,0,0,0.33333,9.8686e-17,0,0.66667
0.41509,0.24887,1.2453,-0.37669,-3.5772,12.479,1.2509,-0.41697,-1.4961,1.6679,7.7716e-15,-0.74807,0,0,0.33333,-2.9606e-16,0,0.66667
0.13786,0.83499,0.41358,0.50248,5.7537,22.779,-0.55418,0.18473,-1.1021,-0.7389,-2.718e-09,-0.55104,0,0,0.33333,-9.8686e-17,0,0.66667
0.9174,0.070891,2.7522,-0.64366,-1.1244,1.0967,4.724,-1.5747,-0.52661,6.2986,-3.2869e-08,-0.2633,0,0,0.33333,-0,-0,0.66667
0.76453,0.35302,2.2936,-0.22047,-0.98176,2.8897,1.3485,-0.44949,-1.8272,1.7979,-1.0043e-10,-0.91359,0,0,0.33333,-0,-0,0.66667
0.51021,0.8731,1.5306,0.55965,4.8229,9.5208,-2.2843,0.76145,-0.88693,-3.0458,-2.7023e-13,-0.44347,0,0,0.33333,2.9606e-16,0,0.66667
0.45358,0.35125,1.3607,-0.22313,-2.0081,11.143,0.80965,-0.26988,-1.8233,1.0795,-1.6026e-13,-0.91164,0,0,0.33333,1.579e-15,0,0.66667
0.097842,0.98906,0.29353,0.7336,8.7004,24.393,-0.57421,0.1914,-0.086035,-0.76562,8.592e-09,-0.043017,0,0,0.33333,9.8686e-17,0,0.66667
0.31868,0.31583,0.95603,-0.27626,-2.8391,15.844,0.70429,-0.23476,-1.7289,0.93905,2.8955e-11,-0.86446,0,0,0.33333,-0,-0,0.66667
0.12063,0.30679,0.3619,-0.28982,-3.2834,23.429,0.27969,-0.093231,-1.7014,0.37292,-2.3468e-09,-0.85068,0,0,0.33333,-0,-0,0.66667
0.78234,0.87581,2.347,0.56372,2.4813,2.8384,-3.5281,1.176,-0.87139,-4.7042,2.2269e-10,-0.43569,0,0,0.33333,-3.158e-15,0,0.66667
0.54488,0.57959,1.6347,0.11939,0.93945,8.2701,-0.52043,0.17348,-1.9489,-0.69391,1.6986e-14,-0.97446,0,0,0.33333,-7.8949e-16,0,0.66667
0.22728,0.29595,0.68183,-0.30608,-3.3344,19.271,0.55651,-0.1855,-1.6661,0.74202,1.6017e-10,-0.83305,0,0,0.33333,-0,-0,0.66667
0.2242,0.18597,0.67261,-0.47104,-5.2019,19.427,0.84487,-0.28162,-1.2117,1.1265,2.2603e-10,-0.60587,0,0,0.33333,1.9737e-16,0,0.66667
0.2604,0.82258,0.78119,0.48387,5.248,18.062,-1.008,0.336,-1.167,-1.344,-8.8464e-11,-0.5835,0,0,0.33333,-0,-0,0.66667
0.30887,0.85683,0.92662,0.53525,5.657,16.289,-1.3226,0.44086,-0.9808,-1.7635,-1.5787e-11,-0.4904,0,0,0.33333,-0,-0,0.66667
0.38771,0.72858,1.1631,0.34287,3.3378,13.405,-1.0635,0.35449,-1.5817,-1.418,-3.0747e-12,-0.79085,0,0,0.33333,7.8949e-16,0,0.66667
0.29755,0.321,0.89265,-0.2685,-2.8002,16.618,0.63913,-0.21304,-1.7438,0.85218,4.5364e-11,-0.87191,0,0,0.33333,-0,-0,0.66667
0.67956,0.63185,2.0387,0.19777,1.1699,4.6991,-1.0752,0.35839,-1.8607,-1.4336,2.3775e-11,-0.93033,0,0,0.33333,-0,-0,0.66667
0.035074,0.57293,0.10522,0.1094,1.2487,26.839,-0.030696,0.010232,-1.957,-0.040929,-7.3894e-08,-0.97851,0,0,0.33333,-0,-0,0.66667
0.32811,0.48092,0.98433,-0.028619,-0.28979,15.468,0.075122,-0.025041,-1.9971,0.10016,3.6546e-12,-0.99854,0,0,0.33333,-0,-0,0.66667
0.74529,0.026481,2.2359,-0.71028,-3.7462,3.7211,4.2349,-1.4116,-0.20636,5.6466,-2.2147e-12,-0.10318,0,0,0.33333,-0,4.8765e-16,0.66667
0.94281,0.52096,2.8284,0.031446,0.023622,0.35981,-0.23718,0.07906,-1.9959,-0.31624,-7.1572e-08,-0.99797,0,0,0.33333,1.579e-15,0,0.66667
0.80273,0.23002,2.4082,-0.40498,-1.5609,2.3227,2.6007,-0.8669,-1.4162,3.4676,-3.6428e-10,-0.70812,0,0,0.33333,-0,-0,0.66667
0.24083,0.46578,0.72248,-0.051333,-0.55046,18.725,0.098898,-0.032966,-1.991,0.13186,2.8803e-11,-0.99548,0,0,0.33333,4.9343e-16,0,0.66667
0.23292,0.0442,0.69875,-0.6837,-7.6919,19.172,1.274,-0.42465,-0.33769,1.6986,2.18e-11,-0.16885,0,0,0.33333,-0,-0,0.66667
0.19034,0.43366,0.57101,-0.099508,-1.0938,20.674,0.15152,-0.050507,-1.9652,0.20203,4.9347e-11,-0.98262,0,0,0.33333,1.9737e-16,0,0.66667
0.8825,0.96486,2.6475,0.69729,1.7957,1.5491,-4.9228,1.6409,-0.27141,-6.5638,-6.3132e-09,-0.1357,0,0,0.33333,-0,-0,0.66667
0.23786,0.66532,0.71357,0.24799,2.6786,18.857,-0.47188,0.15729,-1.7811,-0.62917,-1.1316e-10,-0.89053,0,0,0.33333,-0,-0,0.66667
0.75818,0.80429,2.2745,0.45643,2.1611,3.1738,-2.7685,0.92283,-1.2588,-3.6913,1.5206e-10,-0.62942,0,0,0.33333,-7.8949e-16,0,0.66667
0.26105,0.29049,0.78315,-0.31427,-3.3631,17.991,0.65632,-0.21877,-1.6484,0.87509,9.6422e-11,-0.82422,0,0,0.33333,7.8949e-16,0,0.66667
0.033082,0.166,0.099246,-0.50099,-5.8435,26.93,0.13259,-0.044197,-1.1074,0.17679,9.6771e-09,-0.55372,0,0,0.33333,-0,-0,0.66667
0.73345,0.31348,2.2003,-0.27978,-1.4108,3.5399,1.6416,-0.54721,-1.7229,2.1888,-8.2666e-11,-0.86147,0,0,0.33333,-3.158e-15,0,0.66667
0.7262,0.072275,2.1786,-0.64159,-3.5384,4.0147,3.7274,-1.2425,-0.53584,4.9698,-1.2696e-11,-0.26792,0,0,0.33333,-0,-0,0.66667
0.088959,0.9787,0.26688,0.71805,8.5134,24.739,-0.51101,0.17034,-0.16631,-0.68135,-1.8365e-09,-0.083154,0,0,0.33333,-1.9737e-16,0,0.66667
0.3267,0.20181,0.9801,-0.44728,-4.6264,15.606,1.169,-0.38967,-1.2884,1.5587,1.6686e-11,-0.64418,0,0,0.33333,-0,-0,0.66667
0.94837,0.52731,2.8451,0.040972,0.025638,0.3159,-0.31085,0.10362,-1.9943,-0.41446,2.0668e-08,-0.99714,0,0,0.33333,-7.8949e-16,0,0.66667
0.16295,0.60649,0.48885,0.15974,1.777,21.749,-0.20823,0.06941,-1.9085,-0.27764,9.6036e-11,-0.95427,0,0,0.33333,-0,-0,0.66667
0.086672,0.311,0.26002,-0.2835,-3.2346,24.779,0.19657,-0.065523,-1.7148,0.26209,-9.4699e-09,-0.85742,0,0,0.33333,1.2336e-17,0,0.66667
0.5946,0.10846,1.7838,-0.58732,-4.4235,7.1134,2.7938,-0.93125,-0.77332,3.725,1.0196e-12,-0.38666,0,0,0.33333,-0,-0,0.66667
0.93099,0.41975,2.793,-0.12038,-0.12409,0.47878,0.89656,-0.29885,-1.9477,1.1954,-3.1941e-08,-0.97386,0,0,0.33333,-0,-0,0.66667
0.13378,0.9244,0.40133,0.63659,7.3986,22.966,-0.6813,0.2271,-0.55835,-0.9084,-7.2587e-10,-0.27917,0,0,0.33333,-0,-0,0.66667
0.51301,0.60154,1.539,0.15231,1.2615,9.2373,-0.6251,0.20837,-1.9175,-0.83347,-1.5526e-13,-0.95873,0,0,0.33333,-0,-0,0.66667
0.684,0.41984,2.052,-0.12025,-0.69952,4.5724,0.65799,-0.21933,-1.948,0.87732,-1.7705e-11,-0.97401,0,0,0.33333,-0,-0,0.66667
0.17183,0.15753,0.51549,-0.5137,-5.8233,21.455,0.70615,-0.23538,-1.0631,0.94153,1.0708e-09,-0.53155,0,0,0.33333,3.9475e-16,-3.6295e-16,0.66667
0.01126,0.78351,0.03378,0.42526,4.9342,27.8,-0.038307,0.012769,-1.3576,-0.051076,3.1783e-09,-0.67879,0,0,0.33333,-0,-0,0.66667
0.88768,0.07628,2.663,-0.63558,-1.5126,1.3926,4.5136,-1.5045,-0.56318,6.0181,-6.4547e-09,-0.28159,0,0,0.33333,-0,-0,0.66667
0.035231,0.98496,0.10569,0.72744,8.6933,26.857,-0.20503,0.068343,-0.1179,-0.27337,2.4825e-07,-0.058948,0,0,0.33333,4.9343e-17,0,0.66667
0.25746,0.23209,0.77237,-0.40187,-4.3356,18.148,0.82771,-0.2759,-1.425,1.1036,1.1089e-10,-0.71251,0,0,0.33333,3.9475e-16,0,0.66667
0.65168,0.14148,1.9551,-0.53778,-3.5602,5.5922,2.8037,-0.93456,-0.97104,3.7382,-3.1446e-12,-0.48552,0,0,0.33333,7.8949e-16,0,0.66667
0.28578,0.30973,0.85735,-0.2854,-3.0027,17.058,0.6525,-0.2175,-1.7109,0.87,5.8672e-11,-0.85543,0,0,0.33333,-5.9212e-16,0,0.66667
0.0097076,0.94142,0.029123,0.66212,7.8595,27.865,-0.05142,0.017141,-0.44141,-0.06856,1.1336e-06,-0.2207,0,0,0.33333,-0,-0,0.66667
0.57545,0.82088,1.7264,0.48132,3.6981,7.5525,-2.2158,0.73861,-1.1761,-2.9544,-1.0969e-12,-0.58807,0,0,0.33333,-0,-0,0.66667
0.30779,0.67716,0.92338,0.26574,2.7512,16.24,-0.65435,0.21812,-1.7484,-0.87246,-3.6323e-11,-0.8742,0,0,0.33333,-0,-0,0.66667
0.15151,0.8789,0.45454,0.56835,6.5225,22.259,-0.6889,0.22963,-0.85174,-0.91854,-2.4607e-09,-0.42587,0,0,0.33333,-0,-0,0.66667
0.97128,0.84119,2.9138,0.51178,0.18813,0.49064,-3.9767,1.3256,-1.0695,-5.3022,-8.5279e-08,-0.53473,0,0,0.33333,1.9737e-16,0,0.66667
0.16497,0.62094,0.49492,0.18141,2.018,21.671,-0.23942,0.079805,-1.8831,-0.31922,-4.0573e-10,-0.94156,0,0,0.33333,-1.9737e-16,0,0.66667
0.72724,0.38019,2.1817,-0.17972,-0.91723,3.6255,1.0456,-0.34853,-1.8851,1.3941,-5.3011e-11,-0.94256,0,0,0.33333,-0,-0,0.66667
0.89072,0.65823,2.6722,0.23735,0.46387,0.94555,-1.6913,0.56376,-1.8009,-2.2551,-5.79e-09,-0.90045,0,0,0.33333,-0,-0,0.66667
0.85872,0.75999,2.5761,0.38998,1.063,1.4594,-2.679,0.89301,-1.4593,-3.5721,2.1731e-10,-0.72964,0,0,0.33333,1.579e-15,0,0.66667
0.18426,0.61874,0.55277,0.17811,1.9667,20.917,-0.26254,0.087513,-1.8873,-0.35005,2.0938e-11,-0.94363,0,0,0.33333,9.8686e-17,0,0.66667
0.23681,0.011331,0.71043,-0.733,-8.2836,19.047,1.3887,-0.46288,-0.089286,1.8515,8.582e-14,-0.044643,0,0,0.33333,-7.8949e-16,0,0.66667
0.018363,0.034815,0.055088,-0.69778,-8.3158,27.523,0.1025,-0.034168,-0.26933,0.13667,6.6873e-07,-0.13466,0,0,0.33333,-0,-0,0.66667
0.93141,0.11443,2.7942,-0.57836,-0.78272,0.87244,4.3095,-1.4365,-0.81008,5.746,-1.8055e-08,-0.40504,0,0,0.33333,7.8949e-16,0,0.66667
0.88712,0.7494,2.6614,0.3741,0.79234,1.0867,-2.655,0.88499,-1.5034,-3.54,-4.2733e-10,-0.75169,0,0,0.33333,1.6777e-15,0,0.66667
0.59547,0.73087,1.7864,0.34631,2.5232,6.9114,-1.6497,0.54991,-1.5733,-2.1996,9.68e-13,-0.78665,0,0,0.33333,-0,-0,0.66667
0.10937,0.85699,0.3281,0.53548,6.1958,23.905,-0.46852,0.15617,-0.98043,-0.62469,-5.2008e-09,-0.49021,0,0,0.33333,1.9737e-16,0,0.66667
0.17354,0.94325,0.52063,0.66487,7.6551,21.43,-0.92307,0.30769,-0.42856,-1.2308,-1.2654e-10,-0.21428,0,0,0.33333,-0,-0,0.66667
0.57696,0.38179,1.7309,-0.17731,-1.3218,7.3563,0.8184,-0.2728,-1.8885,1.0912,-7.9325e-13,-0.94424,0,0,0.33333,-0,-0,0.66667
0.25166,0.617,0.75497,0.1755,1.8759,18.322,-0.35333,0.11778,-1.8905,-0.4711,-6.9069e-11,-0.94527,0,0,0.33333,-0,-0,0.66667
0.30017,0.32765,0.90052,-0.25853,-2.6899,16.519,0.62082,-0.20694,-1.7618,0.82777,4.2137e-11,-0.88089,0,0,0.33333,-3.9475e-16,0,0.66667
0.17099,0.40007,0.51296,-0.14989,-1.6622,21.433,0.20504,-0.068345,-1.9205,0.27338,-1.8367e-10,-0.96025,0,0,0.33333,-2.9606e-16,0,0.66667
0.18959,0.45801,0.56878,-0.062984,-0.69216,20.702,0.09553,-0.031843,-1.9856,0.12737,6.8871e-11,-0.99282,0,0,0.33333,-1.9737e-16,0,0.66667
0.46342,0.76701,1.3903,0.40052,3.607,10.891,-1.4849,0.49495,-1.4289,-1.9798,7.7482e-13,-0.71446,0,0,0.33333,-0,-0,0.66667
0.50987,0.59604,1.5296,0.14405,1.1983,9.3323,-0.5876,0.19587,-1.9267,-0.78346,-2.2526e-13,-0.96335,0,0,0.33333,1.579e-15,0,0.66667
0.51158,0.87649,1.5347,0.56473,4.8605,9.4831,-2.3112,0.77041,-0.86682,-3.0816,-2.9399e-13,-0.43341,0,0,0.33333,-0,-0,0.66667
0.99714,0.3853,2.9914,-0.17205,0.083279,0.051809,1.3724,-0.45748,-1.8944,1.8299,-2.2423e-07,-0.94722,0,0,0.33333,-0,-0,0.66667
0.1296,0.097212,0.38879,-0.60418,-7.0047,23.123,0.6264,-0.2088,-0.70244,0.8352,3.4928e-09,-0.35122,0,0,0.33333,3.9475e-16,0,0.66667
0.75617,0.18122,2.2685,-0.47817,-2.2915,3.2332,2.8926,-0.9642,-1.1869,3.8568,-1.3899e-10,-0.59344,0,0,0.33333,-3.9475e-16,0,0.66667
0.79376,0.88384,2.3813,0.57575,2.4181,2.6534,-3.6561,1.2187,-0.82114,-4.8748,2.5041e-10,-0.41057,0,0,0.33333,-1.579e-15,0,0.66667
0.58488,0.072043,1.7546,-0.64194,-4.9679,7.4308,3.0037,-1.0012,-0.53428,4.0049,6.6769e-13,-0.26714,0,0,0.33333,-0,-0,0.66667
0.46274,0.84465,1.3882,0.51697,4.717,10.979,-1.9138,0.63793,-1.0505,-2.5517,8.6875e-13,-0.52524,0,0,0.33333,1.579e-15,0,0.66667
0.89343,0.92174,2.6803,0.63261,1.4254,1.324,-4.5215,1.5072,-0.57658,-6.0287,3.9149e-09,-0.28829,0,0,0.33333,-1.579e-15,0,0.66667
0.82818,0.56253,2.4845,0.093788,0.29967,1.7419,-0.62138,0.20713,-1.9703,-0.82851,5.8585e-10,-0.98517,0,0,0.33333,3.158e-15,0,0.66667
0.050291,0.91,0.15087,0.615,7.2438,26.253,-0.24743,0.082477,-0.6556,-0.32991,-3.9621e-08,-0.3278,0,0,0.33333,-0,-0,0.66667
0.96298,0.69259,2.889,0.28889,0.10837,0.31319,-2.2255,0.74185,-1.7033,-2.9674,2.1906e-08,-0.85164,0,0,0.33333,-0,-0,0.66667
0.0073399,0.77878,0.02202,0.41818,4.8497,27.956,-0.024555,0.008185,-1.3786,-0.03274,-1.5799e-09,-0.68932,0,0,0.33333,-4.6259e-18,0,0.66667
0.57313,0.69458,1.7194,0.29187,2.2075,7.5057,-1.3382,0.44608,-1.6969,-1.7843,8.1601e-14,-0.84845,0,0,0.33333,-0,-0,0.66667
0.57243,0.39127,1.7173,-0.16309,-1.2252,7.4808,0.74688,-0.24896,-1.9047,0.99584,-5.5572e-13,-0.95233,0,0,0.33333,-0,-0,0.66667
0.83438,0.63342,2.5031,0.20012,0.62117,1.6814,-1.3358,0.44528,-1.8572,-1.7811,3.8108e-10,-0.92859,0,0,0.33333,-0,-0,0.66667
0.38472,0.93039,1.1541,0.64559,6.5029,13.662,-1.9869,0.66231,-0.51784,-2.6493,6.0052e-13,-0.25892,0,0,0.33333,-0,-0,0.66667
0.091041,0.51944,0.27312,0.02916,0.33004,24.595,-0.021238,0.0070793,-1.9966,-0.028317,8.2214e-09,-0.99829,0,0,0.33333,-0,-0,0.66667
0.58169,0.17715,1.7451,-0.48428,-3.6803,7.3808,2.2536,-0.7512,-1.1657,3.0048,9.8588e-13,-0.58286,0,0,0.33333,7.8949e-16,0,0.66667
0.024846,0.30672,0.074538,-0.28992,-3.333,27.253,0.057626,-0.019209,-1.701,0.076835,-2.2914e-08,-0.85052,0,0,0.33333,1.2336e-17,0,0.66667
0.3618,0.81508,1.0854,0.47262,4.7628,14.364,-1.3679,0.45598,-1.2065,-1.8239,-3.6599e-12,-0.60326,0,0,0.33333,-0,-0,0.66667
0.98532,0.54813,2.956,0.072202,-0.016469,0.076973,-0.56913,0.18971,-1.9812,-0.75885,-8.9312e-07,-0.99061,0,0,0.33333,-0,-0,0.66667
0.86878,0.45417,2.6063,-0.068743,-0.16252,1.1559,0.47778,-0.15926,-1.9824,0.63704,9.2673e-10,-0.99121,0,0,0.33333,1.579e-15,0,0.66667
0.1525,0.53753,0.45749,0.056292,0.62714,22.155,-0.068675,0.022892,-1.9887,-0.091567,-1.5952e-09,-0.99436,0,0,0.33333,-0,-0,0.66667
0.79883,0.36958,2.3965,-0.19563,-0.74316,2.255,1.2502,-0.41673,-1.8643,1.6669,-1.6375e-10,-0.93213,0,0,0.33333,-3.9475e-16,0,0.66667
0.811,0.21045,2.433,-0.43432,-1.6155,2.2122,2.8179,-0.93929,-1.3293,3.7572,-4.2475e-10,-0.66467,0,0,0.33333,-0,-0,0.66667
0.92821,0.0032513,2.7846,-0.74512,-1.2322,1.1734,5.533,-1.8443,-0.02621,7.3774,4.6905e-07,-0.013105,0,0,0.33333,-0,-0,0.66667
0.22438,0.044699,0.67315,-0.68295,-7.7147,19.494,1.2259,-0.40865,-0.34089,1.6346,2.9119e-11,-0.17044,0,0,0.33333,3.9475e-16,0,0.66667
0.49897,0.2008,1.4969,-0.4488,-3.8767,9.7913,1.7915,-0.59716,-1.2836,2.3887,-1.8652e-14,-0.64181,0,0,0.33333,-0,-0,0.66667
0.82744,0.030681,2.4823,-0.70398,-2.615,2.2904,4.66,-1.5533,-0.2393,6.2134,-3.3388e-10,-0.11965,0,0,0.33333,-1.4803e-15,0,0.66667
0.66733,0.471,2.002,-0.043495,-0.26422,4.9577,0.2322,-0.077401,-1.9938,0.3096,-4.9216e-12,-0.99692,0,0,0.33333,1.579e-15,0,0.66667
0.59394,0.9495,1.7818,0.67425,5.1614,7.2183,-3.2037,1.0679,-0.38356,-4.2716,-4.4476e-13,-0.19178,0,0,0.33333,-0,-0,0.66667
0.65198,0.6444,1.9559,0.21661,1.3786,5.3744,-1.1298,0.37659,-1.8326,-1.5064,1.299e-11,-0.91631,0,0,0.33333,-0,-0,0.66667
0.23852,0.028947,0.71555,-0.70658,-7.9502,18.971,1.3482,-0.44942,-0.22546,1.7977,5.1005e-12,-0.11273,0,0,0.33333,4.9343e-16,0,0.66667
0.02554,0.77605,0.07662,0.41407,4.7977,27.228,-0.084603,0.028201,-1.3904,-0.1128,4.1668e-09,-0.69519,0,0,0.33333,-0,-0,0.66667
0.73626,0.50273,2.2088,0.004102,0.020144,3.4049,-0.024161,0.0080536,-2.0007,-0.032214,6.3317e-12,-1.0004,0,0,0.33333,-0,-0,0.66667
0.32679,0.79698,0.98038,0.44547,4.6065,15.602,-1.1646,0.3882,-1.2941,-1.5528,-1.6786e-11,-0.64706,0,0,0.33333,-3.87e-16,0,0.66667
0.37676,0.50623,1.1303,0.0093459,0.090776,13.727,-0.028169,0.0093897,-1.9999,-0.037559,-2.5863e-13,-0.99997,0,0,0.33333,-0,-0,0.66667
0.61262,0.62438,1.8378,0.18657,1.2965,6.3796,-0.91436,0.30479,-1.8773,-1.2191,3.7856e-12,-0.93863,0,0,0.33333,4.9343e-17,0,0.66667
0.65717,0.2622,1.9715,-0.35671,-2.2709,5.3163,1.8753,-0.62511,-1.5474,2.5004,-1.451e-11,-0.77372,0,0,0.33333,-0,-0,0.66667
0.2029,0.44737,0.6087,-0.078939,-0.86274,20.185,0.12813,-0.042711,-1.978,0.17084,8.7451e-11,-0.98898,0,0,0.33333,-0,-0,0.66667
0.82603,0.012646,2.4781,-0.73103,-2.7654,2.3543,4.8308,-1.6103,-0.099528,6.4411,7.4319e-11,-0.049764,0,0,0.33333,-0,-0,0.66667
0.38021,0.38165,1.1406,-0.17752,-1.7245,13.622,0.53995,-0.17998,-1.8878,0.71993,4.7165e-12,-0.94389,0,0,0.33333,7.8949e-16,0,0.66667
0.63174,0.62914,1.8952,0.19371,1.2913,5.8795,-0.97901,0.32634,-1.8667,-1.3053,7.0897e-12,-0.93335,0,0,0.33333,-0,-0,0.66667
0.96641,0.9337,2.8992,0.65055,0.42165,0.72824,-5.0296,1.6765,-0.49577,-6.7061,2.0925e-07,-0.24789,0,0,0.33333,-0,-0,0.66667
0.56479,0.17086,1.6944,-0.49371,-3.8715,7.8628,2.2307,-0.74358,-1.1329,2.9743,1.1968e-12,-0.56644,0,0,0.33333,-7.8949e-16,0,0.66667
0.35891,0.26251,1.0767,-0.35624,-3.5632,14.419,1.0229,-0.34095,-1.5487,1.3638,8.8342e-12,-0.77434,0,0,0.33333,-0,-0,0.66667
0.61897,0.67482,1.8569,0.26223,1.8069,6.2389,-1.2985,0.43283,-1.7548,-1.7313,4.9531e-12,-0.8774,0,0,0.33333,-7.8949e-16,0,0.66667
0.50179,0.47176,1.5054,-0.042359,-0.35569,9.5702,0.17004,-0.056681,-1.9944,0.22673,4.774e-14,-0.99718,0,0,0.33333,-0,-0,0.66667
0.45238,0.67688,1.3571,0.26532,2.3968,11.195,-0.96018,0.32006,-1.7497,-1.2802,3.4261e-13,-0.87484,0,0,0.33333,-0,-0,0.66667
0.73227,0.793,2.1968,0.4395,2.2776,3.6766,-2.5746,0.85821,-1.3129,-3.4329,8.3878e-11,-0.65645,0,0,0.33333,-0,-0,0.66667
0.92451,0.63185,2.7735,0.19778,0.23745,0.56904,-1.4628,0.4876,-1.861,-1.9504,3.7618e-08,-0.93048,0,0,0.33333,-0,-0,0.66667
0.47927,0.71357,1.4378,0.32035,2.8084,10.346,-1.2283,0.40943,-1.6352,-1.6377,3.6837e-13,-0.81758,0,0,0.33333,-0,-0,0.66667
0.08823,0.94708,0.26469,0.67062,7.9064,24.76,-0.47335,0.15778,-0.40045,-0.63114,-3.4025e-08,-0.20022,0,0,0.33333,-0,-0,0.66667
0.56965,0.58594,1.709,0.12891,0.97199,7.5523,-0.58749,0.19583,-1.9405,-0.78331,4.3637e-13,-0.97027,0,0,0.33333,-0,-0,0.66667
0.24495,0.44031,0.73485,-0.089532,-0.95844,18.57,0.17545,-0.058482,-1.9719,0.23393,3.5558e-11,-0.98596,0,0,0.33333,7.8949e-16,0,0.66667
0.039578,0.20941,0.11873,-0.43588,-5.054,26.668,0.13801,-0.046003,-1.3239,0.18401,-6.0218e-09,-0.66197,0,0,0.33333,4.9343e-17,0,0.66667
0.78814,0.89843,2.3644,0.59764,2.5896,2.7775,-3.7682,1.2561,-0.72966,-5.0243,1.6494e-10,-0.36483,0,0,0.33333,-7.8949e-16,0,0.66667
0.27277,0.71393,0.8183,0.3209,3.4113,17.552,-0.70024,0.23341,-1.6339,-0.93366,-7.8737e-11,-0.81694,0,0,0.33333,3.9475e-16,0,0.66667
0.77707,0.58001,2.3312,0.12002,0.50233,2.6185,-0.74608,0.24869,-1.9482,-0.99478,6.9294e-11,-0.97408,0,0,0.33333,-0,-0,0.66667
0.48821,0.89328,1.4646,0.58992,5.2605,10.222,-2.304,0.768,-0.76209,-3.072,1.8252e-13,-0.38105,0,0,0.33333,-0,-0,0.66667
0.31794,0.42023,0.95381,-0.11966,-1.2228,15.845,0.30436,-0.10145,-1.9484,0.40581,1.7081e-11,-0.97418,0,0,0.33333,-0,-0,0.66667
0.31403,0.9157,0.94208,0.62356,6.6325,16.145,-1.5665,0.52217,-0.61745,-2.0887,-3.7197e-12,-0.30872,0,0,0.33333,-0,-0,0.66667
0.042025,0.50116,0.12607,0.0017365,0.019787,26.559,-0.0005838,0.00019192,-2.0007,-0.00077975,-4.0255e-06,-1.0004,0,0,0.33333,-0,-0,0.66667
0.5344,0.014319,1.6032,-0.72852,-6.2216,8.95,3.1146,-1.0382,-0.11237,4.1528,2.4647e-14,-0.056184,0,0,0.33333,-0,-0,0.66667
0.82355,0.94548,2.4707,0.66823,2.4998,2.2951,-4.4026,1.4675,-0.41207,-5.8701,2.3107e-10,-0.20603,0,0,0.33333,-1.579e-15,0,0.66667
0.083895,0.67282,0.25169,0.25923,2.9557,24.888,-0.17399,0.057995,-1.7603,-0.23198,-4.1373e-09,-0.88015,0,0,0.33333,-0,-0,0.66667
0.10856,0.37041,0.32568,-0.19438,-2.1993,23.901,0.16881,-0.056271,-1.8663,0.22508,7.8328e-09,-0.93314,0,0,0.33333,9.8686e-17,0,0.66667
0.52926,0.083308,1.5878,-0.62504,-5.2881,9.0021,2.6464,-0.88215,-0.61073,3.5286,2.6623e-13,-0.30536,0,0,0.33333,7.8949e-16,-3.513e-16,0.66667
0.66014,0.12242,1.9804,-0.56637,-3.6927,5.4138,2.9911,-0.99703,-0.86002,3.9881,-2.9781e-12,-0.43001,0,0,0.33333,9.8686e-16,0,0.66667
0.69475,0.84787,2.0842,0.5218,3.0823,4.5627,-2.9002,0.96672,-1.032,-3.8669,1.9698e-11,-0.51601,0,0,0.33333,-0,-0,0.66667
0.31322,0.72766,0.93967,0.34148,3.5379,16.06,-0.85568,0.28523,-1.5855,-1.1409,-3.297e-11,-0.79275,0,0,0.33333,-0,-0,0.66667
0.037778,0.51168,0.11333,0.017517,0.19969,26.73,-0.0052943,0.0017639,-1.9982,-0.0070596,-1.3791e-06,-0.99911,0,0,0.33333,-0,-0,0.66667
0.41456,0.82318,1.2437,0.48476,4.6528,12.549,-1.6077,0.53591,-1.1638,-2.1436,9.6712e-13,-0.58191,0,0,0.33333,-0,-0,0.66667
0.22604,0.66723,0.67813,0.25085,2.7264,19.309,-0.45362,0.15121,-1.7756,-0.60483,-1.2455e-10,-0.8878,0,0,0.33333,-0,-0,0.66667
0.0011148,0.8879,0.0033445,0.58185,6.8471,28.206,-0.0051898,0.0017301,-0.79604,-0.0069196,3.168e-07,-0.39802,0,0,0.33333,-0,-0,0.66667
0.68572,0.62398,2.0571,0.18597,1.0805,4.5507,-1.0202,0.34007,-1.8781,-1.3603,2.608e-11,-0.93907,0,0,0.33333,2.9606e-16,0,0.66667
0.95206,0.33799,2.8562,-0.24301,-0.146,0.3601,1.8509,-0.61696,-1.7904,2.4678,8.3682e-09,-0.89522,0,0,0.33333,-7.8949e-16,0,0.66667
0.39115,0.18595,1.1735,-0.47108,-4.6216,13.34,1.4741,-0.49137,-1.2122,1.9655,8.36e-14,-0.60609,0,0,0.33333,-2.4672e-16,0,0.66667
0.3003,0.96131,0.9009,0.69196,7.4947,16.68,-1.6624,0.55412,-0.29746,-2.2165,-1.0481e-12,-0.14873,0,0,0.33333,-0,-0,0.66667
0.55375,0.33471,1.6613,-0.24793,-1.934,8.0445,1.0983,-0.36611,-1.7809,1.4645,1.8496e-13,-0.89047,0,0,0.33333,-7.8949e-16,0,0.66667
0.85198,0.46698,2.5559,-0.049526,-0.13416,1.3818,0.33756,-0.11252,-1.9918,0.45008,-1.6716e-09,-0.99591,0,0,0.33333,-1.7764e-15,0,0.66667
0.79497,0.82856,2.3849,0.49283,2.0132,2.5388,-3.1343,1.0448,-1.136,-4.1791,3.4651e-10,-0.56801,0,0,0.33333,1.579e-15,0,0.66667
0.68476,0.92505,2.0543,0.63758,3.9604,4.9126,-3.4927,1.1642,-0.5542,-4.6569,2.516e-12,-0.2771,0,0,0.33333,7.8949e-16,0,0.66667
0.43211,0.81786,1.2963,0.47679,4.4874,11.957,-1.6482,0.5494,-1.1917,-2.1976,1.1288e-12,-0.59586,0,0,0.33333,-0,-0,0.66667
0.69043,0.48274,2.0713,-0.025893,-0.14751,4.4102,0.14302,-0.047672,-1.9971,0.19069,-4.5083e-12,-0.99855,0,0,0.33333,-0,-0,0.66667
0.21603,0.31413,0.64808,-0.2788,-3.0494,19.698,0.48183,-0.16061,-1.7245,0.64244,1.4266e-10,-0.86224,0,0,0.33333,-0,-0,0.66667
0.28394,0.64158,0.85183,0.21237,2.2291,17.113,-0.48242,0.16081,-1.8391,-0.64323,-5.0739e-11,-0.91957,0,0,0.33333,-0,-0,0.66667
0.77782,0.85455,2.3335,0.53182,2.3665,2.8831,-3.3093,1.1031,-0.99396,-4.4124,2.0231e-10,-0.49698,0,0,0.33333,-1.579e-15,0,0.66667
0.92998,0.58147,2.7899,0.1222,0.12878,0.48848,-0.90918,0.30306,-1.9462,-1.2122,1.8528e-08,-0.97308,0,0,0.33333,-1.579e-15,0,0.66667
0.19005,0.68764,0.57015,0.28146,3.1145,20.703,-0.42793,0.14264,-1.7195,-0.57057,-1.4917e-10,-0.85976,0,0,0.33333,7.8949e-16,0,0.66667
0.29606,0.87598,0.88819,0.56398,6.0315,16.77,-1.3358,0.44526,-0.87036,-1.781,-1.7513e-11,-0.43518,0,0,0.33333,-0,4.8156e-17,0.66667
0.0062103,0.86618,0.018631,0.54928,6.4425,28.003,-0.027289,0.0090964,-0.92681,-0.036386,-5.3713e-08,-0.46341,0,0,0.33333,-6.1679e-18,0,0.66667
0.43156,0.11637,1.2947,-0.57544,-5.4812,12.035,1.9867,-0.66224,-0.8222,2.649,-1.029e-12,-0.4111,0,0,0.33333,3.9475e-16,0,0.66667
0.2103,0.57264,0.63089,0.10896,1.1875,19.901,-0.18332,0.061105,-1.9572,-0.24442,-5.36e-11,-0.97859,0,0,0.33333,-0,-0,0.66667
0.64142,0.3382,1.9243,-0.2427,-1.5874,5.6498,1.2454,-0.41512,-1.7911,1.6605,-1.0193e-11,-0.89553,0,0,0.33333,-7.8949e-16,0,0.66667
0.70959,0.78758,2.1288,0.43136,2.4016,4.1526,-2.4487,0.81624,-1.3382,-3.265,4.88e-11,-0.66911,0,0,0.33333,-1.579e-15,0,0.66667
0.11878,0.49182,0.35633,-0.012266,-0.13795,23.489,0.011655,-0.0038851,-1.9991,0.01554,-1.7281e-08,-0.99953,0,0,0.33333,-2.9606e-16,0,0.66667
0.082144,0.80883,0.24643,0.46325,5.3543,24.974,-0.30442,0.10147,-1.2373,-0.4059,-6.4607e-10,-0.61867,0,0,0.33333,1.2336e-16,0,0.66667
0.90634,0.57723,2.719,0.11584,0.18225,0.72026,-0.83992,0.27997,-1.9522,-1.1199,2.5438e-09,-0.9761,0,0,0.33333,1.579e-15,0,0.66667
0.38924,0.23035,1.1677,-0.40447,-3.951,13.376,1.2595,-0.41983,-1.4181,1.6793,1.6309e-12,-0.70906,0,0,0.33333,-0,-0,0.66667
0.5334,0.67716,1.6002,0.26574,2.146,8.6519,-1.134,0.37799,-1.7487,-1.5119,-3.6948e-13,-0.87434,0,0,0.33333,-7.8949e-16,0,0.66667
0.96324,0.52363,2.8897,0.035451,0.010072,0.20588,-0.27318,0.091061,-1.9952,-0.36424,2.4342e-07,-0.99762,0,0,0.33333,-0,-0,0.66667
0.75905,0.78484,2.2772,0.42725,2.0047,3.1309,-2.5945,0.86482,-1.3512,-3.4593,1.5739e-10,-0.67558,0,0,0.33333,-0,-0,0.66667
0.32554,0.55126,0.97662,0.076891,0.78053,15.564,-0.20025,0.066749,-1.9786,-0.267,-9.6706e-12,-0.98931,0,0,0.33333,-0,-0,0.66667
0.085849,0.29063,0.25755,-0.31406,-3.5899,24.813,0.2157,-0.071898,-1.6488,0.28759,-2.1099e-09,-0.82438,0,0,0.33333,-1.9737e-16,0,0.66667
0.53602,0.83952,1.6081,0.50929,4.1954,8.7085,-2.1839,0.72797,-1.078,-2.9119,-8.5709e-13,-0.539,0,0,0.33333,-7.7356e-17,0,0.66667
0.33613,0.32556,1.0084,-0.26167,-2.6512,15.207,0.70362,-0.23454,-1.7558,0.93816,1.8862e-11,-0.87789,0,0,0.33333,-0,-0,0.66667
0.021685,0.34446,0.065056,-0.23331,-2.6755,27.379,0.040475,-0.013492,-1.8072,0.053967,1.0795e-07,-0.90362,0,0,0.33333,-0,-0,0.66667
0.77115,0.89637,2.3135,0.59456,2.763,3.0776,-3.668,1.2227,-0.7426,-4.8906,1.1291e-10,-0.3713,0,0,0.33333,-0,-0,0.66667
0.38491,0.65606,1.1547,0.23409,2.2697,13.47,-0.72083,0.24028,-1.8061,-0.96111,-4.5128e-12,-0.90303,0,0,0.33333,7.9566e-16,0,0.66667
0.57132,0.93655,1.714,0.65483,5.2023,7.8188,-2.993,0.99765,-0.47607,-3.9906,-5.7843e-13,-0.23803,0,0,0.33333,-2.9606e-16,0,0.66667
0.75574,0.61748,2.2672,0.17622,0.80974,3.0423,-1.0654,0.35513,-1.8893,-1.4205,7.4391e-11,-0.94464,0,0,0.33333,-0,-0,0.66667
0.94085,0.75185,2.8225,0.37778,0.35599,0.55391,-2.8434,0.94781,-1.4933,-3.7912,-1.6794e-09,-0.74666,0,0,0.33333,3.158e-15,0,0.66667
0.61232,0.25147,1.837,-0.37279,-2.6325,6.4725,1.8261,-0.60872,-1.5067,2.4349,-2.3878e-12,-0.75337,0,0,0.33333,-0,-0,0.66667
0.3154,0.22927,0.94619,-0.4061,-4.221,16.001,1.0246,-0.34155,-1.4133,1.3662,2.7465e-11,-0.70665,0,0,0.33333,-0,-0,0.66667
0.11008,0.74138,0.33023,0.36206,4.1301,23.855,-0.31884,0.10628,-1.534,-0.42512,2.7139e-10,-0.76702,0,0,0.33333,-0,-0,0.66667
0.073919,0.94857,0.22176,0.67286,7.9536,25.324,-0.3979,0.13263,-0.38974,-0.53053,1.1655e-08,-0.19487,0,0,0.33333,-0,-0,0.66667
0.31969,0.41931,0.95907,-0.12103,-1.2352,15.781,0.30954,-0.10318,-1.9472,0.41272,1.6622e-11,-0.97358,0,0,0.33333,-0,-0,0.66667
0.66084,0.3612,1.9825,-0.2082,-1.2952,5.1525,1.1007,-0.3669,-1.8452,1.4676,-1.5974e-11,-0.92261,0,0,0.33333,-0,-0,0.66667
0.69515,0.36788,2.0855,-0.19818,-1.1214,4.3376,1.1021,-0.36738,-1.86,1.4695,-3.2758e-11,-0.93002,0,0,0.33333,3.9475e-16,0,0.66667
0.20772,0.73831,0.62315,0.35747,3.9434,20.032,-0.59402,0.19801,-1.5451,-0.79203,-2.5107e-10,-0.77254,0,0,0.33333,-0,-0,0.66667
0.082796,0.67823,0.24839,0.26735,3.05,24.932,-0.17708,0.059027,-1.7455,-0.23611,-1.6695e-09,-0.87273,0,0,0.33333,-0,-0,0.66667
0.30551,0.52817,0.91653,0.042256,0.43518,16.296,-0.10328,0.034426,-1.9939,-0.1377,-8.0234e-12,-0.99697,0,0,0.33333,1.9737e-16,0,0.66667
0.54757,0.35916,1.6427,-0.21126,-1.6616,8.2129,0.92545,-0.30848,-1.8411,1.2339,1.3922e-13,-0.92055,0,0,0.33333,-0,-0,0.66667
0.75467,0.17376,2.264,-0.48936,-2.364,3.2732,2.9545,-0.98482,-1.1479,3.9393,-1.2788e-10,-0.57393,0,0,0.33333,-7.8949e-16,0,0.66667
0.52966,0.44107,1.589,-0.088389,-0.71227,8.7199,0.37453,-0.12484,-1.9729,0.49937,1.2235e-13,-0.98644,0,0,0.33333,-1.579e-15,0,0.66667
0.28698,0.80929,0.86095,0.46394,4.9417,17.065,-1.0651,0.35505,-1.235,-1.4202,-4.7669e-11,-0.61751,0,0,0.33333,-4.0847e-16,0,0.66667
0.62418,0.90794,1.8725,0.61191,4.3627,6.3565,-3.0555,1.0185,-0.66983,-4.074,-7.3208e-13,-0.33492,0,0,0.33333,-0,8.0636e-17,0.66667
0.26484,0.15852,0.79451,-0.51222,-5.5561,17.906,1.0852,-0.36175,-1.0682,1.447,7.0444e-11,-0.53408,0,0,0.33333,-0,-0,0.66667
0.65269,0.3553,1.9581,-0.21704,-1.379,5.3567,1.1333,-0.37777,-1.832,1.5111,-1.3322e-11,-0.91601,0,0,0.33333,-0,-0,0.66667
0.8419,0.89203,2.5257,0.58805,1.9228,1.9126,-3.9606,1.3202,-0.7701,-5.2809,1.1867e-09,-0.38505,0,0,0.33333,-0,4.7321e-16,0.66667
0.63895,0.18698,1.9168,-0.46953,-3.1675,5.8504,2.4,-0.80001,-1.2174,3.2,-3.8229e-12,-0.6087,0,0,0.33333,-3.454e-16,0,0.66667
0.56563,0.34366,1.6969,-0.23452,-1.7904,7.6964,1.0612,-0.35373,-1.8056,1.4149,-1.8185e-13,-0.90279,0,0,0.33333,4.3175e-17,0,0.66667
0.30714,0.19339,0.92143,-0.45992,-4.831,16.322,1.1301,-0.3767,-1.2478,1.5068,2.7726e-11,-0.62391,0,0,0.33333,-0,-0,0.66667
0.87678,0.66786,2.6303,0.25179,0.56842,1.122,-1.7661,0.5887,-1.7743,-2.3548,8.39e-10,-0.88716,0,0,0.33333,-0,-0,0.66667
0.98882,0.96964,2.9665,0.70446,0.13954,0.70626,-5.5726,1.8576,-0.23637,-7.4302,7.158e-06,-0.11818,0,0,0.33333,-0,-0,0.66667
0.77748,0.33041,2.3324,-0.25439,-1.0761,2.6631,1.5823,-0.52742,-1.7693,2.1097,-1.3202e-10,-0.88466,0,0,0.33333,7.8949e-16,0,0.66667
0.57364,0.040194,1.7209,-0.68971,-5.4909,7.7899,3.1652,-1.0551,-0.30826,4.2202,2.4181e-13,-0.15413,0,0,0.33333,-0,2.0112e-16,0.66667
0.14128,0.53468,0.42384,0.052027,0.58165,22.598,-0.058802,0.019601,-1.9912,-0.078403,2.05e-09,-0.99561,0,0,0.33333,-0,-0,0.66667
0.31493,0.96343,0.94479,0.69515,7.4573,16.152,-1.7514,0.58379,-0.28213,-2.3352,-2.961e-13,-0.14107,0,0,0.33333,-1.9737e-16,0,0.66667
0.36686,0.80289,1.1006,0.45433,4.5505,14.177,-1.3334,0.44447,-1.2655,-1.7779,-3.5203e-12,-0.63275,0,0,0.33333,-0,-0,0.66667
0.2919,0.9046,0.87569,0.60691,6.5402,16.943,-1.4172,0.47241,-0.69101,-1.8896,-1.1626e-11,-0.34551,0,0,0.33333,1.4803e-16,0,0.66667
0.44595,0.45973,1.3379,-0.06041,-0.54574,11.367,0.21552,-0.07184,-1.9865,0.28736,1.4341e-13,-0.99326,0,0,0.33333,-0,-0,0.66667
0.61063,0.26,1.8319,-0.36,-2.5476,6.5098,1.7586,-0.58621,-1.5391,2.3448,-2.4185e-12,-0.76956,0,0,0.33333,-0,-0,0.66667
0.21291,0.26616,0.63874,-0.35077,-3.8585,19.831,0.59747,-0.19916,-1.5618,0.79662,2.2881e-10,-0.78088,0,0,0.33333,-3.9475e-16,0,0.66667
0.24976,0.47458,0.74928,-0.038133,-0.40687,18.385,0.076193,-0.025398,-1.9954,0.10159,1.9282e-11,-0.99769,0,0,0.33333,-0,-0,0.66667
0.11215,0.21552,0.33645,-0.42672,-4.8879,23.78,0.38285,-0.12762,-1.3531,0.51047,5.1925e-10,-0.67657,0,0,0.33333,-9.8686e-17,0,0.66667
0.30759,0.83241,0.92277,0.49862,5.255,16.321,-1.227,0.40899,-1.1154,-1.6359,-2.1971e-11,-0.55771,0,0,0.33333,3.9475e-16,0,0.66667
0.49745,0.16486,1.4923,-0.50271,-4.3782,9.8725,2.0006,-0.66686,-1.1013,2.6674,-2.7534e-14,-0.55066,0,0,0.33333,-0,-0,0.66667
0.48981,0.36145,1.4694,-0.20782,-1.7837,9.9736,0.81435,-0.27145,-1.8457,1.0858,-8.8818e-14,-0.92286,0,0,0.33333,7.8949e-16,0,0.66667
0.99558,0.89597,2.9867,0.59395,-0.066267,0.48779,-4.7306,1.5769,-0.7452,-6.3075,-2.2241e-07,-0.3726,0,0,0.33333,7.8949e-16,0,0.66667
0.98111,0.77957,2.9433,0.41935,0.020192,0.3231,-3.2914,1.0971,-1.3755,-4.3885,-8.1902e-09,-0.68777,0,0,0.33333,1.579e-15,0,0.66667
0.43656,0.84552,1.3097,0.51828,4.8761,11.833,-1.8101,0.60337,-1.046,-2.4135,1.2232e-12,-0.52301,0,0,0.33333,-0,-4.3572e-16,0.66667
0.97202,0.93598,2.9161,0.65397,0.34156,0.70111,-5.0854,1.6951,-0.4802,-6.7805,1.7862e-06,-0.2401,0,0,0.33333,-7.8949e-16,0,0.66667
0.2144,0.87543,0.64319,0.56315,6.3039,19.829,-0.96591,0.32197,-0.87334,-1.2879,-2.5036e-10,-0.43667,0,0,0.33333,-7.8949e-16,0,0.66667
0.54112,0.71619,1.6234,0.32429,2.5982,8.4471,-1.4038,0.46794,-1.6265,-1.8718,-7.5229e-13,-0.81326,0,0,0.33333,3.9475e-16,0,0.66667
0.45344,0.45992,1.3603,-0.060118,-0.53824,11.12,0.21808,-0.072692,-1.9873,0.29077,2.4092e-14,-0.99367,0,0,0.33333,-0,-0,0.66667
0.96761,0.011828,2.9028,-0.73226,-0.54006,0.8668,5.6683,-1.8894,-0.093328,7.5578,-1.7217e-06,-0.046664,0,0,0.33333,-0,3.7144e-16,0.66667
0.83618,0.93103,2.5085,0.64654,2.237,2.0757,-4.325,1.4417,-0.51348,-5.7667,2.2565e-10,-0.25674,0,0,0.33333,7.8949e-16,0,0.66667
0.21415,0.084764,0.64244,-0.62285,-7.0187,19.859,1.0671,-0.35569,-0.62025,1.4227,1.1504e-10,-0.31013,0,0,0.33333,-0,-0,0.66667
0.43954,0.93456,1.3186,0.65184,6.2178,11.827,-2.2921,0.76402,-0.48999,-3.0561,3.5483e-13,-0.24499,0,0,0.33333,1.9737e-16,0,0.66667
0.16848,0.84561,0.50543,0.51841,5.8864,21.587,-0.69872,0.23291,-1.0452,-0.93163,-1.2694e-09,-0.5226,0,0,0.33333,-0,-0,0.66667
0.52909,0.96164,1.5873,0.69245,5.9237,9.0698,-2.9309,0.97698,-0.29522,-3.9079,-2.0783e-13,-0.14761,0,0,0.33333,-0,-0,0.66667
0.79348,0.27304,2.3805,-0.34044,-1.3554,2.43,2.161,-0.72035,-1.5877,2.8814,-2.329e-10,-0.79386,0,0,0.33333,-0,-0,0.66667
0.035879,0.48529,0.10764,-0.022063,-0.25156,26.806,0.0063335,-0.0021108,-1.9976,0.0084448,5.7026e-07,-0.99879,0,0,0.33333,-0,-0,0.66667
0.19136,0.026703,0.57408,-0.70995,-8.1643,20.76,1.0868,-0.36228,-0.20815,1.4491,1.3925e-11,-0.10408,0,0,0.33333,1.9737e-16,0,0.66667
0.97746,0.28172,2.9324,-0.32742,-0.020566,0.25369,2.5603,-0.85344,-1.6196,3.4138,-9.8091e-09,-0.80982,0,0,0.33333,3.158e-15,0,0.66667
0.9608,0.01254,2.8824,-0.73119,-0.65334,0.90612,5.6202,-1.8734,-0.098319,7.4936,1.4328e-06,-0.049159,0,0,0.33333,-0,-0,0.66667
0.55659,0.81711,1.6698,0.47566,3.7738,8.0842,-2.118,0.70599,-1.1956,-2.824,-1.1391e-12,-0.59782,0,0,0.33333,-0,-0,0.66667
0.64609,0.68533,1.9383,0.278,1.8035,5.5478,-1.4369,0.47896,-1.7257,-1.9159,1.1696e-11,-0.86287,0,0,0.33333,1.1842e-15,0,0.66667
0.27209,0.8454,0.81628,0.5181,5.5989,17.637,-1.1278,0.37592,-1.0462,-1.5037,-5.494e-11,-0.52308,0,0,0.33333,-0,-0,0.66667
0.95209,0.037442,2.8563,-0.69384,-0.72033,0.89605,5.2848,-1.7616,-0.28868,7.0464,-6.0235e-07,-0.14434,0,0,0.33333,-0,2.5088e-16,0.66667
0.66977,0.21161,2.0093,-0.43258,-2.6939,5.0642,2.3179,-0.77262,-1.3347,3.0905,-1.6158e-11,-0.66737,0,0,0.33333,-1.1842e-15,0,0.66667
0.66681,0.019403,2.0004,-0.7209,-4.7723,5.4308,3.8456,-1.2819,-0.15159,5.1275,7.6383e-14,-0.075794,0,0,0.33333,-0,-0,0.66667
0.011103,0.17334,0.03331,-0.49,-5.7154,27.807,0.043525,-0.014508,-1.1457,0.058033,-1.2917e-08,-0.57283,0,0,0.33333,-0,-0,0.66667
0.85297,0.59001,2.5589,0.13502,0.36521,1.3857,-0.92132,0.30711,-1.9354,-1.2284,7.095e-10,-0.96769,0,0,0.33333,1.1842e-15,0,0.66667
0.77833,0.0073443,2.335,-0.73898,-3.4832,3.1471,4.6014,-1.5338,-0.058276,6.1351,-4.7362e-12,-0.029138,0,0,0.33333,-0,-2.8388e-16,0.66667
0.68492,0.67393,2.0548,0.26089,1.5282,4.5997,-1.4295,0.47651,-1.7575,-1.906,3.0714e-11,-0.87877,0,0,0.33333,-0,-0,0.66667
0.74078,0.83099,2.2223,0.49649,2.5257,3.5551,-2.9423,0.98077,-1.1228,-3.9231,8.7084e-11,-0.56142,0,0,0.33333,7.8949e-16,0,0.66667
0.15657,0.33546,0.46972,-0.24681,-2.7607,22.007,0.30915,-0.10305,-1.7836,0.4122,2.0603e-10,-0.89182,0,0,0.33333,9.8686e-17,0,0.66667
0.71878,0.57047,2.1563,0.1057,0.55267,3.7862,-0.60781,0.2026,-1.9606,-0.81042,2.8846e-11,-0.9803,0,0,0.33333,-0,-0,0.66667
0.096818,0.70117,0.29046,0.30175,3.4395,24.376,-0.23372,0.077907,-1.6757,-0.31163,-3.9216e-10,-0.83787,0,0,0.33333,-1.9737e-16,0,0.66667
0.70695,0.89364,2.1208,0.59046,3.4134,4.3637,-3.3394,1.1131,-0.75984,-4.4525,1.4555e-11,-0.37992,0,0,0.33333,-7.8949e-16,0,0.66667
0.0026318,0.10243,0.0078954,-0.59636,-7.0283,28.145,0.012556,-0.0041857,-0.73534,0.016741,-6.1281e-07,-0.36767,0,0,0.33333,6.1679e-18,-2.2155e-16,0.66667
0.77621,0.89618,2.3286,0.59427,2.7057,2.9851,-3.6902,1.2301,-0.74382,-4.9203,1.3007e-10,-0.37191,0,0,0.33333,7.8949e-16,0,0.66667
0.49156,0.16976,1.4747,-0.49536,-4.3451,10.051,1.948,-0.64933,-1.1268,2.5973,-1.8918e-13,-0.56338,0,0,0.33333,-0,-0,0.66667
0.20439,0.90836,0.61316,0.61254,6.9245,20.228,-1.0016,0.33385,-0.66691,-1.3354,-2.3034e-10,-0.33346,0,0,0.33333,-0,-0,0.66667
0.72925,0.41868,2.1877,-0.12197,-0.61603,3.5661,0.7116,-0.2372,-1.9464,0.94879,-3.8827e-11,-0.97322,0,0,0.33333,-0,-0,0.66667
0.31565,0.54415,0.94696,0.066219,0.67712,15.924,-0.16722,0.055739,-1.9839,-0.22296,-1.0279e-11,-0.99195,0,0,0.33333,-0,-0,0.66667
0.88382,0.91013,2.6515,0.61519,1.4983,1.4069,-4.3498,1.4499,-0.65452,-5.7997,2.2889e-10,-0.32726,0,0,0.33333,-0,-0,0.66667
0.18023,0.3165,0.5407,-0.27525,-3.0568,21.084,0.39688,-0.13229,-1.7308,0.52917,9.8171e-11,-0.86538,0,0,0.33333,-0,-0,0.66667
0.93855,0.72397,2.8157,0.33595,0.32358,0.53555,-2.5225,0.84083,-1.5992,-3.3633,2.2493e-09,-0.7996,0,0,0.33333,-0,-0,0.66667
0.97075,0.41629,2.9123,-0.12557,-0.015669,0.17522,0.97517,-0.32506,-1.9437,1.3002,-8.422e-08,-0.97187,0,0,0.33333,-0,-0,0.66667
0.30449,0.12282,0.91346,-0.56577,-6.0176,16.463,1.3781,-0.45938,-0.86234,1.8375,1.3154e-11,-0.43117,0,0,0.33333,9.8686e-17,0,0.66667
0.86249,0.39431,2.5875,-0.15854,-0.39889,1.2629,1.0939,-0.36463,-1.9102,1.4585,1.1272e-09,-0.95509,0,0,0.33333,-0,-0,0.66667
0.84218,0.12743,2.5265,-0.55885,-1.8047,1.8709,3.7652,-1.2551,-0.89043,5.0203,-1.6151e-09,-0.44521,0,0,0.33333,-0,3.3566e-16,0.66667
0.42461,0.24593,1.2738,-0.3811,-3.5838,12.16,1.2946,-0.43152,-1.484,1.7261,-6.1451e-13,-0.74202,0,0,0.33333,1.9737e-16,0,0.66667
0.36368,0.45678,1.0911,-0.064837,-0.63759,14.191,0.18864,-0.06288,-1.9845,0.25152,3.4072e-12,-0.99224,0,0,0.33333,-0,-0,0.66667
0.28244,0.41166,0.84731,-0.13251,-1.3884,17.159,0.29941,-0.099802,-1.938,0.39921,3.5551e-11,-0.96901,0,0,0.33333,7.8949e-16,0,0.66667
0.99324,0.54349,2.9797,0.065233,-0.027215,0.036021,-0.51834,0.17278,-1.9841,-0.69112,2.8798e-06,-0.99207,0,0,0.33333,1.579e-15,0,0.66667
0.25575,0.16402,0.76725,-0.50397,-5.4908,18.243,1.0311,-0.34371,-1.0966,1.3748,9.3072e-11,-0.5483,0,0,0.33333,-0,-0,0.66667
0.92068,0.42194,2.762,-0.1171,-0.14744,0.5745,0.86247,-0.28749,-1.951,1.15,1.2021e-08,-0.97548,0,0,0.33333,1.579e-15,0,0.66667
0.42834,0.66732,1.285,0.25098,2.3292,11.989,-0.86004,0.28668,-1.7754,-1.1467,-3.5383e-13,-0.88769,0,0,0.33333,-0,-0,0.66667
0.93543,0.38454,2.8063,-0.17318,-0.16409,0.45872,1.296,-0.432,-1.8932,1.728,3.4606e-08,-0.9466,0,0,0.33333,-0,-0,0.66667
0.83884,0.035132,2.5165,-0.6973,-2.4245,2.1135,4.6794,-1.5598,-0.27143,6.2392,-2.3473e-10,-0.13572,0,0,0.33333,-0,-0,0.66667
0.15578,0.83278,0.46733,0.49918,5.6826,22.077,-0.62208,0.20736,-1.114,-0.82944,-9.5545e-10,-0.55701,0,0,0.33333,-1.9737e-16,0,0.66667
0.57428,0.88002,1.7229,0.57003,4.444,7.6567,-2.6189,0.87296,-0.84482,-3.4919,-1.1646e-12,-0.42241,0,0,0.33333,-0,-0,0.66667
0.6735,0.33368,2.0205,-0.24948,-1.5063,4.8635,1.3442,-0.44807,-1.7786,1.7923,-2.3427e-11,-0.88928,0,0,0.33333,-0,-0,0.66667
0.40582,0.83678,1.2175,0.50516,4.9026,12.856,-1.64,0.54668,-1.093,-2.1867,8.8829e-13,-0.54651,0,0,0.33333,3.9475e-16,0,0.66667
0.004877,0.40127,0.014631,-0.14809,-1.694,28.054,0.0057779,-0.0019256,-1.9221,0.007704,5.182e-07,-0.96105,0,0,0.33333,-3.084e-18,0,0.66667
0.32533,0.62406,0.97599,0.1861,1.8949,15.584,-0.48435,0.16145,-1.8779,-0.64579,-2.0809e-11,-0.93893,0,0,0.33333,-5.181e-16,0,0.66667
0.83894,0.15074,2.5168,-0.52389,-1.7054,1.8752,3.5161,-1.172,-1.0241,4.6882,-1.0643e-09,-0.51207,0,0,0.33333,3.9475e-16,0,0.66667
0.062824,0.53924,0.18847,0.058864,0.66945,25.725,-0.029584,0.0098613,-1.9879,-0.039446,-1.6255e-07,-0.99397,0,0,0.33333,-0,-0,0.66667
0.10542,0.076539,0.31626,-0.63519,-7.4328,24.078,0.53569,-0.17856,-0.56483,0.71426,-7.0454e-10,-0.28241,0,0,0.33333,-1.9737e-16,0,0.66667
0.70179,0.9331,2.1054,0.64965,3.8617,4.5456,-3.6473,1.2158,-0.49997,-4.8631,3.648e-12,-0.24998,0,0,0.33333,7.8949e-16,-1.9104e-16,0.66667
0.51416,0.58594,1.5425,0.12891,1.065,9.1976,-0.53024,0.17675,-1.941,-0.70699,-5.9952e-14,-0.97051,0,0,0.33333,-3.9475e-16,0,0.66667
0.49817,0.097724,1.4945,-0.60341,-5.3198,9.9242,2.4048,-0.8016,-0.70596,3.2064,-3.7303e-14,-0.35298,0,0,0.33333,-0,1.8166e-16,0.66667
0.37361,0.13991,1.1208,-0.54014,-5.4253,13.983,1.6144,-0.53813,-0.96236,2.1525,2.8633e-13,-0.48118,0,0,0.33333,-0,-0,0.66667
0.60351,0.94096,1.8105,0.66144,4.9605,6.9484,-3.1935,1.0645,-0.44471,-4.258,-5.6866e-13,-0.22235,0,0,0.33333,-0,-0,0.66667
0.85147,0.35039,2.5544,-0.22442,-0.6214,1.4433,1.5287,-0.50956,-1.8207,2.0383,-2.5963e-10,-0.91034,0,0,0.33333,-0,-0,0.66667
0.27692,0.80696,0.83077,0.46044,4.9343,17.437,-1.0201,0.34002,-1.2462,-1.3601,-6.3186e-11,-0.62312,0,0,0.33333,1.9737e-16,0,0.66667
0.84476,0.9507,2.5343,0.67605,2.2494,1.9972,-4.5688,1.5229,-0.37472,-6.0918,8.0362e-10,-0.18736,0,0,0.33333,1.579e-15,0,0.66667
0.41662,0.63669,1.2499,0.20504,1.9227,12.372,-0.68339,0.2278,-1.8499,-0.91118,-1.0336e-12,-0.92495,0,0,0.33333,-0,-0,0.66667
0.50098,0.51115,1.503,0.016729,0.14061,9.5945,-0.067049,0.02235,-1.9989,-0.089398,-1.573e-14,-0.99945,0,0,0.33333,1.579e-15,0,0.66667
0.72962,0.98144,2.1889,0.72216,4.0219,4.051,-4.2153,1.4051,-0.14507,-5.6203,1.1031e-12,-0.072536,0,0,0.33333,1.579e-15,0,0.66667
0.25872,0.98466,0.77617,0.72699,8.1144,18.227,-1.5047,0.50157,-0.12001,-2.0063,3.7081e-14,-0.060007,0,0,0.33333,3.9475e-16,0,0.66667
0.92164,0.60261,2.7649,0.15392,0.19212,0.57745,-1.1349,0.37828,-1.916,-1.5131,-2.3312e-08,-0.95798,0,0,0.33333,1.579e-15,0,0.66667
0.70207,0.13128,2.1062,-0.55309,-3.2185,4.4307,3.1064,-1.0355,-0.91269,4.1419,-1.8831e-11,-0.45634,0,0,0.33333,1.579e-15,0,0.66667
0.61893,0.33593,1.8568,-0.2461,-1.6938,6.2332,1.2186,-0.40618,-1.7843,1.6247,-4.9973e-12,-0.89215,0,0,0.33333,3.9475e-16,0,0.66667
0.27301,0.9016,0.81903,0.60241,6.5654,17.638,-1.3157,0.43857,-0.70975,-1.7543,-2.3639e-11,-0.35487,0,0,0.33333,-9.8686e-17,0,0.66667
0.69585,0.70998,2.0875,0.31498,1.7982,4.3773,-1.7534,0.58447,-1.6468,-2.3379,4.066e-11,-0.82339,0,0,0.33333,7.8949e-16,0,0.66667
0.25721,0.075316,0.77164,-0.63703,-7.0351,18.24,1.3108,-0.43694,-0.55639,1.7478,2.4e-11,-0.2782,0,0,0.33333,3.9475e-16,0,0.66667
0.81645,0.36453,2.4494,-0.2032,-0.70315,1.9636,1.3272,-0.44242,-1.8527,1.7697,-2.3713e-11,-0.92637,0,0,0.33333,-0,-0,0.66667
0.011472,0.17335,0.034417,-0.48998,-5.7152,27.792,0.04497,-0.01499,-1.1457,0.05996,-1.6024e-08,-0.57287,0,0,0.33333,-0,-0,0.66667
0.16654,0.077767,0.49961,-0.63335,-7.2834,21.691,0.84381,-0.28127,-0.57302,1.1251,5.3725e-10,-0.28651,0,0,0.33333,-0,-0,0.66667
0.55783,0.50684,1.6735,0.010264,0.078849,7.8804,-0.045804,0.015268,-1.9995,-0.061072,-1.0626e-13,-0.99973,0,0,0.33333,3.158e-15,0,0.66667
0.71228,0.77762,2.1368,0.41642,2.2938,4.0818,-2.3729,0.79096,-1.3837,-3.1638,5.4351e-11,-0.69183,0,0,0.33333,-3.9475e-16,0,0.66667
0.49248,0.13862,1.4774,-0.54208,-4.7762,10.054,2.1357,-0.7119,-0.95443,2.8476,-1.3434e-13,-0.47721,0,0,0.33333,-0,-0,0.66667
0.87781,0.14713,2.6334,-0.52931,-1.3024,1.3628,3.7171,-1.239,-1.0036,4.9561,-8.0089e-10,-0.50182,0,0,0.33333,-0,-0,0.66667
0.97587,0.9162,2.9276,0.6243,0.24534,0.63047,-4.8739,1.6246,-0.61363,-6.4985,7.8363e-08,-0.30681,0,0,0.33333,-1.579e-15,0,0.66667
0.46428,0.87242,1.3928,0.55863,5.1135,10.957,-2.0749,0.69162,-0.89095,-2.7665,6.8145e-13,-0.44548,0,0,0.33333,-8.8818e-16,0,0.66667
0.76799,0.93882,2.304,0.65824,3.1519,3.2177,-4.0441,1.348,-0.46045,-5.3922,2.4685e-11,-0.23022,0,0,0.33333,-0,-0,0.66667
0.49477,0.59227,1.4843,0.13841,1.1763,9.8015,-0.54783,0.18261,-1.9326,-0.73044,-9.609e-14,-0.96628,0,0,0.33333,-1.9737e-16,0,0.66667
0.6651,0.07643,1.9953,-0.63535,-4.147,5.3683,3.3806,-1.1269,-0.56393,4.5075,-8.5576e-13,-0.28196,0,0,0.33333,-0,-0,0.66667
0.22487,0.96408,0.67462,0.69613,7.8748,19.481,-1.2523,0.41744,-0.27707,-1.6698,-1.9636e-11,-0.13853,0,0,0.33333,9.8686e-17,0,0.66667
0.10954,0.38954,0.32863,-0.16569,-1.8725,23.861,0.1452,-0.048399,-1.9023,0.1936,2.0005e-09,-0.95114,0,0,0.33333,-0,-0,0.66667
0.97901,0.4721,2.937,-0.041852,0.0034705,0.10725,0.32779,-0.10926,-1.9941,0.43705,-1.5229e-07,-0.99704,0,0,0.33333,-0,-0,0.66667
0.81499,0.78087,2.445,0.4213,1.5294,2.1353,-2.7468,0.91562,-1.3701,-3.6625,3.9636e-10,-0.68503,0,0,0.33333,2.3438e-15,0,0.66667
0.28538,0.52687,0.85615,0.040305,0.42083,17.043,-0.09202,0.030673,-1.9945,-0.12269,-1.0809e-11,-0.99723,0,0,0.33333,3.9475e-16,0,0.66667
0.58583,0.1774,1.7575,-0.48391,-3.6492,7.266,2.2679,-0.75596,-1.1668,3.0239,9.5968e-13,-0.58341,0,0,0.33333,-7.8949e-16,0,0.66667
0.38007,0.46947,1.1402,-0.045794,-0.44354,13.612,0.13924,-0.046414,-1.9934,0.18565,1.6589e-12,-0.99669,0,0,0.33333,-0,-0,0.66667
0.17634,0.25812,0.52901,-0.36282,-4.0564,21.249,0.51184,-0.17061,-1.5317,0.68245,3.5362e-10,-0.76583,0,0,0.33333,-0,-0,0.66667
0.41884,0.34825,1.2565,-0.22763,-2.1318,12.303,0.76271,-0.25424,-1.8161,1.0169,8.1068e-13,-0.90805,0,0,0.33333,-0,-0,0.66667
0.29719,0.94853,0.89156,0.6728,7.2839,16.783,-1.5996,0.5332,-0.39054,-2.1328,-2.3099e-12,-0.19527,0,0,0.33333,-0,-0,0.66667
0.016624,0.2961,0.049872,-0.30586,-3.5205,27.583,0.040677,-0.013559,-1.6671,0.054236,-2.133e-08,-0.83357,0,0,0.33333,-0,-0,0.66667
0.38737,0.78577,1.1621,0.42866,4.2037,13.451,-1.3284,0.4428,-1.347,-1.7712,-1.2657e-12,-0.67349,0,0,0.33333,-0,-0,0.66667
0.92091,0.56351,2.7627,0.09527,0.119,0.5665,-0.70188,0.23396,-1.969,-0.93584,7.7336e-08,-0.98449,0,0,0.33333,3.158e-15,0,0.66667
0.8282,0.44734,2.4846,-0.078991,-0.25215,1.7387,0.52336,-0.17445,-1.978,0.69781,-3.0814e-10,-0.98898,0,0,0.33333,1.579e-15,0,0.66667
0.57407,0.62939,1.7222,0.19409,1.4559,7.4426,-0.89138,0.29713,-1.8663,-1.1885,5.1675e-13,-0.93315,0,0,0.33333,1.579e-15,0,0.66667
0.31865,0.24546,0.95594,-0.38181,-3.9515,15.875,0.97329,-0.32443,-1.4818,1.2977,2.6777e-11,-0.74088,0,0,0.33333,-0,-0,0.66667
0.23126,0.69081,0.69379,0.28621,3.1082,19.115,-0.52953,0.17651,-1.7092,-0.70604,-1.4572e-10,-0.85462,0,0,0.33333,-0,-0,0.66667
0.95602,0.77061,2.8681,0.40591,0.25161,0.46555,-3.1045,1.0348,-1.4138,-4.1393,9.5003e-10,-0.70691,0,0,0.33333,-0,-0,0.66667
0.56461,0.36265,1.6938,-0.20602,-1.573,7.7163,0.93059,-0.3102,-1.8487,1.2408,-2.5169e-13,-0.92437,0,0,0.33333,-0,-0,0.66667
0.21761,0.47162,0.65282,-0.042574,-0.46195,19.616,0.074115,-0.024705,-1.9944,0.09882,5.8204e-11,-0.99721,0,0,0.33333,-0,-0,0.66667
0.24948,0.63019,0.74845,0.19528,2.0913,18.407,-0.38975,0.12992,-1.865,-0.51966,-7.723e-11,-0.9325,0,0,0.33333,-0,-0,0.66667
0.9596,0.90128,2.8788,0.60192,0.44692,0.69324,-4.6208,1.5403,-0.71181,-6.161,3.4085e-07,-0.35591,0,0,0.33333,1.579e-15,0,0.66667
0.23881,0.26484,0.71644,-0.35274,-3.8313,18.841,0.67392,-0.22464,-1.5569,0.89856,1.5279e-10,-0.77846,0,0,0.33333,-0,-0,0.66667
0.10671,0.92568,0.32014,0.63852,7.4725,24.027,-0.54512,0.18171,-0.54996,-0.72682,3.5388e-09,-0.27498,0,0,0.33333,-2.7688e-17,4.2776e-16,0.66667
0.18396,0.70113,0.55189,0.3017,3.3503,20.943,-0.44401,0.148,-1.6758,-0.59201,-1.6612e-10,-0.8379,0,0,0.33333,-0,-0,0.66667
0.76622,0.043036,2.2987,-0.68545,-3.3304,3.2877,4.2016,-1.4005,-0.32938,5.6022,-2.0258e-11,-0.16469,0,0,0.33333,-0,-0,0.66667
0.70876,0.83208,2.1263,0.49812,2.8123,4.2293,-2.8244,0.94147,-1.1171,-3.7659,3.5666e-11,-0.55857,0,0,0.33333,-0,-0,0.66667
0.43794,0.41619,1.3138,-0.12571,-1.1479,11.64,0.44043,-0.14681,-1.9439,0.58724,2.7942e-13,-0.97194,0,0,0.33333,-0,-0,0.66667
0.7938,0.15426,2.3814,-0.5186,-2.1439,2.5864,3.2934,-1.0978,-1.0445,4.3911,-3.4653e-10,-0.52225,0,0,0.33333,-2.1711e-15,0,0.66667
0.51751,0.33621,1.5525,-0.24569,-2.0307,9.125,1.0172,-0.33906,-1.7854,1.3563,2.4392e-13,-0.89272,0,0,0.33333,-0,-0,0.66667
0.4136,0.82155,1.2408,0.48233,4.6328,12.58,-1.5959,0.53197,-1.1723,-2.1279,9.75e-13,-0.58616,0,0,0.33333,7.8949e-16,0,0.66667
0.11744,0.69551,0.35233,0.29327,3.3258,23.556,-0.27554,0.091846,-1.6938,-0.36738,2.1275e-09,-0.84689,0,0,0.33333,-0,-0,0.66667
0.88391,0.27061,2.6517,-0.34409,-0.74455,1.0993,2.4331,-0.81105,-1.5784,3.2442,-3.5652e-10,-0.78921,0,0,0.33333,7.8949e-16,0,0.66667
0.27559,0.84032,0.82678,0.51048,5.5007,17.504,-1.1255,0.37516,-1.0737,-1.5006,-5.1473e-11,-0.53687,0,0,0.33333,-3.9475e-16,0,0.66667
0.61626,0.071645,1.8488,-0.64253,-4.6824,6.5932,3.1677,-1.0559,-0.53159,4.2237,6.346e-13,-0.26579,0,0,0.33333,-0,-0,0.66667
0.98458,0.4275,2.9537,-0.10875,0.022172,0.089577,0.85662,-0.28554,-1.9581,1.1422,-4.4854e-07,-0.97903,0,0,0.33333,7.8949e-16,0,0.66667
0.18942,0.54934,0.56825,0.074005,0.81345,20.709,-0.11214,0.037381,-1.9802,-0.14952,-3.2559e-11,-0.99009,0,0,0.33333,-0,-0,0.66667
0.96519,0.74377,2.8956,0.36566,0.13759,0.36314,-2.8234,0.94114,-1.5246,-3.7646,-2.4919e-09,-0.76231,0,0,0.33333,-7.8949e-16,0,0.66667
0.65272,0.27386,1.9581,-0.33921,-2.1789,5.4153,1.7713,-0.59042,-1.5908,2.3617,-1.324e-11,-0.79538,0,0,0.33333,-1.1842e-15,0,0.66667
0.12873,0.62091,0.38619,0.18136,2.0407,23.1,-0.18678,0.06226,-1.8834,-0.24904,6.3529e-10,-0.94168,0,0,0.33333,2.4672e-16,0,0.66667
0.77193,0.10576,2.3158,-0.59136,-2.7373,3.0595,3.6519,-1.2173,-0.75591,4.8692,-1.1793e-10,-0.37795,0,0,0.33333,-0,-0,0.66667
0.95178,0.8465,2.8553,0.51975,0.42946,0.63015,-3.9575,1.3192,-1.0403,-5.2766,1.5442e-08,-0.52017,0,0,0.33333,-0,-0,0.66667
0.56278,0.8287,1.6883,0.49305,3.8793,7.9194,-2.2198,0.73994,-1.1355,-2.9597,-1.2161e-12,-0.56777,0,0,0.33333,-0,-0,0.66667
0.68856,0.084959,2.0657,-0.62256,-3.8159,4.8089,3.4293,-1.1431,-0.62199,4.5725,-4.138e-12,-0.31099,0,0,0.33333,-7.8949e-16,0,0.66667
0.026348,0.2432,0.079044,-0.3852,-4.4538,27.195,0.081194,-0.027065,-1.4723,0.10826,1.8539e-09,-0.73613,0,0,0.33333,2.4672e-17,0,0.66667
0.98908,0.41068,2.9672,-0.13399,0.040722,0.07438,1.0602,-0.35339,-1.9363,1.4136,2.3136e-07,-0.96817,0,0,0.33333,3.158e-15,0,0.66667
0.31846,0.66236,0.95537,0.24353,2.4989,15.845,-0.62044,0.20681,-1.789,-0.82725,-2.7896e-11,-0.89449,0,0,0.33333,7.8949e-16,0,0.66667
0.023904,0.55138,0.071711,0.077066,0.87979,27.288,-0.014739,0.0049126,-1.9782,-0.019652,-5.0077e-07,-0.98911,0,0,0.33333,2.4672e-17,0,0.66667
0.80856,0.51856,2.4257,0.027847,0.099478,2.0496,-0.18013,0.060044,-1.9967,-0.24018,3.9042e-11,-0.99833,0,0,0.33333,1.579e-15,0,0.66667
0.97325,0.66548,2.9198,0.24822,0.028271,0.21915,-1.9326,0.64421,-1.7805,-2.5768,5.7908e-08,-0.89027,0,0,0.33333,-0,-0,0.66667
0.73759,0.58605,2.2128,0.12907,0.63317,3.3937,-0.76162,0.25387,-1.9406,-1.0155,4.497e-11,-0.97032,0,0,0.33333,-0,-0,0.66667
0.0027358,0.94114,0.0082074,0.66171,7.855,28.141,-0.014484,0.0048255,-0.44365,-0.019313,-3.7864e-06,-0.22182,0,0,0.33333,-0,1.8827e-15,0.66667
0.063361,0.84953,0.19008,0.5243,6.1099,25.726,-0.26576,0.088586,-1.0231,-0.35434,3.5598e-08,-0.51153,0,0,0.33333,-0,-0,0.66667
0.58427,0.26975,1.7528,-0.34538,-2.571,7.2195,1.6143,-0.53812,-1.5752,2.1525,-2.7511e-13,-0.78761,0,0,0.33333,7.8949e-16,0,0.66667
0.33572,0.56652,1.0071,0.099784,1.0053,15.196,-0.26799,0.089331,-1.9647,-0.35732,-1.0023e-11,-0.98236,0,0,0.33333,-0,-0,0.66667
0.88183,0.85003,2.6455,0.52504,1.2449,1.3092,-3.704,1.2347,-1.0197,-4.9387,5.3347e-10,-0.50983,0,0,0.33333,-0,-0,0.66667
0.87367,0.84528,2.621,0.51792,1.3131,1.3997,-3.6199,1.2066,-1.0473,-4.8266,1.774e-10,-0.52367,0,0,0.33333,-0,-0,0.66667
0.98752,0.56755,2.9626,0.10132,-0.02787,0.072143,-0.80046,0.26682,-1.9637,-1.0673,1.8004e-06,-0.98187,0,0,0.33333,-0,-0,0.66667
0.71583,0.72078,2.1475,0.33118,1.7822,3.9441,-1.8965,0.63218,-1.6108,-2.5287,6.324e-11,-0.8054,0,0,0.33333,-0,-0,0.66667
0.87688,0.53042,2.6307,0.045626,0.1,1.049,-0.32007,0.10669,-1.9937,-0.42676,1.3521e-08,-0.99687,0,0,0.33333,1.579e-15,0,0.66667
0.31965,0.95201,0.95895,0.67802,7.2326,15.972,-1.7338,0.57794,-0.36469,-2.3118,-6.5037e-13,-0.18235,0,0,0.33333,7.8949e-16,0,0.66667
0.11118,0.94499,0.33353,0.66749,7.8299,23.858,-0.59368,0.19789,-0.41592,-0.79157,4.4169e-09,-0.20796,0,0,0.33333,-0,-0,0.66667
0.86536,0.52211,2.5961,0.033162,0.080641,1.1967,-0.22958,0.076527,-1.9956,-0.30611,-5.5621e-10,-0.99781,0,0,0.33333,-0,-0,0.66667
0.30347,0.93564,0.91042,0.65346,7.0275,16.543,-1.5865,0.52882,-0.48228,-2.1153,-2.8343e-12,-0.24114,0,0,0.33333,-9.8686e-17,0,0.66667
0.41933,0.99204,1.258,0.73806,7.2858,12.561,-2.4759,0.82531,-0.063104,-3.3013,4.6851e-14,-0.031552,0,0,0.33333,-0,2.9975e-16,0.66667
0.64603,0.073512,1.9381,-0.63973,-4.3712,5.8353,3.3063,-1.1021,-0.54427,4.4084,1.7186e-13,-0.27213,0,0,0.33333,-0,-0,0.66667
0.6051,0.14723,1.8153,-0.52916,-3.8699,6.7793,2.5615,-0.85385,-1.0041,3.4154,7.3674e-13,-0.50203,0,0,0.33333,-0,-0,0.66667
0.42092,0.13332,1.2628,-0.55001,-5.2825,12.373,1.8521,-0.61737,-0.92452,2.4695,-1.1655e-12,-0.46226,0,0,0.33333,7.8949e-16,0,0.66667
0.38615,0.62572,1.1585,0.18858,1.8225,13.417,-0.58258,0.19419,-1.8744,-0.77677,-4.09e-12,-0.93721,0,0,0.33333,-0,-0,0.66667
0.12268,0.35356,0.36804,-0.21966,-2.4791,23.342,0.21559,-0.071862,-1.8282,0.28745,1.0719e-09,-0.91411,0,0,0.33333,-0,-0,0.66667
0.53386,0.87758,1.6016,0.56637,4.7174,8.8162,-2.4189,0.8063,-0.86019,-3.2252,-6.3638e-13,-0.43009,0,0,0.33333,-1.579e-15,0,0.66667
0.23285,0.67426,0.69856,0.26138,2.8326,19.05,-0.48692,0.16231,-1.7568,-0.64922,-1.2647e-10,-0.87839,0,0,0.33333,-3.9475e-16,0,0.66667
0.75481,0.99197,2.2644,0.73796,3.7965,3.5775,-4.4562,1.4854,-0.06339,-5.9415,8.5603e-12,-0.031695,0,0,0.33333,7.8949e-16,0,0.66667
0.67487,0.33042,2.0246,-0.25437,-1.5309,4.8331,1.3733,-0.45778,-1.7694,1.8311,-2.4301e-11,-0.88472,0,0,0.33333,-0,-0,0.66667
0.071927,0.85321,0.21578,0.52982,6.1701,25.386,-0.30487,0.10162,-1.0014,-0.40649,6.2314e-10,-0.5007,0,0,0.33333,-0,-0,0.66667
0.98926,0.6389,2.9678,0.20835,-0.058767,0.10701,-1.6489,0.54963,-1.845,-2.1985,-6.4114e-08,-0.92248,0,0,0.33333,1.579e-15,0,0.66667
0.78046,0.28548,2.3414,-0.32179,-1.3562,2.649,2.0091,-0.66971,-1.6325,2.6788,-1.875e-10,-0.81626,0,0,0.33333,-0,-0,0.66667
0.22783,0.58834,0.68348,0.13252,1.4328,19.227,-0.24153,0.080509,-1.9375,-0.32204,-6.1738e-11,-0.96875,0,0,0.33333,4.9343e-16,0,0.66667
0.030743,0.30867,0.092228,-0.287,-3.2978,27.016,0.070585,-0.023528,-1.7079,0.094113,-5.5965e-09,-0.85397,0,0,0.33333,-4.9343e-17,0,0.66667
0.47837,0.3079,1.4351,-0.28816,-2.5233,10.362,1.1028,-0.36759,-1.7048,1.4704,-2.7134e-13,-0.85242,0,0,0.33333,9.8686e-16,0,0.66667
0.35274,0.37965,1.0582,-0.18053,-1.7976,14.594,0.50944,-0.16981,-1.8842,0.67925,1.057e-11,-0.94209,0,0,0.33333,-0,-0,0.66667
0.54651,0.75877,1.6395,0.38815,3.1009,8.3214,-1.697,0.56568,-1.4645,-2.2627,-9.1527e-13,-0.73225,0,0,0.33333,1.579e-15,0,0.66667
0.65966,0.95569,1.979,0.68353,4.5655,5.5541,-3.6072,1.2024,-0.33826,-4.8096,-8.2601e-14,-0.16913,0,0,0.33333,7.8949e-16,0,0.66667
0.79722,0.53956,2.3917,0.059346,0.22513,2.2458,-0.37849,0.12616,-1.9877,-0.50466,4.446e-12,-0.99385,0,0,0.33333,-1.579e-15,0,0.66667
0.013544,0.95853,0.040633,0.68779,8.1882,27.713,-0.074523,0.024839,-0.31781,-0.099365,-3.7403e-06,-0.15891,0,0,0.33333,1.2336e-17,0,0.66667
0.7143,0.74003,2.1429,0.36004,1.9545,3.9964,-2.0574,0.6858,-1.5386,-2.7432,6.0816e-11,-0.76932,0,0,0.33333,-7.8949e-16,0,0.66667
0.29531,0.23865,0.88594,-0.39202,-4.1278,16.733,0.92615,-0.30872,-1.4534,1.2349,4.7272e-11,-0.72668,0,0,0.33333,-0,-0,0.66667
0.9864,0.49396,2.9592,-0.009055,0.0023516,0.064519,0.071458,-0.023834,-1.9999,0.09527,-2.1653e-05,-0.99997,0,0,0.33333,2.3685e-15,0,0.66667
0.84624,0.47034,2.5387,-0.044487,-0.12569,1.4632,0.30117,-0.10039,-1.9939,0.40157,-2.0106e-09,-0.99693,0,0,0.33333,-0,-0,0.66667
0.5604,0.53674,1.6812,0.055103,0.4216,7.808,-0.24704,0.082346,-1.9895,-0.32938,1.5452e-13,-0.99475,0,0,0.33333,-1.579e-15,0,0.66667
0.59777,0.074711,1.7933,-0.63793,-4.8169,7.0774,3.0507,-1.0169,-0.55248,4.0676,7.5451e-13,-0.27624,0,0,0.33333,-0,-0,0.66667
0.19208,0.76766,0.57623,0.4015,4.4731,20.645,-0.61694,0.20565,-1.4262,-0.82259,-3.8433e-10,-0.71309,0,0,0.33333,-3.9475e-16,0,0.66667
0.22625,0.24048,0.67875,-0.38927,-4.2663,19.328,0.70459,-0.23486,-1.4607,0.93946,2.0516e-10,-0.73033,0,0,0.33333,-1.9737e-16,0,0.66667
0.15401,0.19809,0.46204,-0.45286,-5.1376,22.137,0.55797,-0.18599,-1.2706,0.74396,1.0801e-09,-0.63528,0,0,0.33333,-0,-0,0.66667
0.37781,0.86326,1.1334,0.54489,5.4553,13.84,-1.6469,0.54898,-0.94392,-2.1959,1.8097e-13,-0.47196,0,0,0.33333,-0,-0,0.66667
0.11196,0.70221,0.33587,0.30331,3.4461,23.774,-0.27166,0.090552,-1.6724,-0.36221,1.2505e-09,-0.83621,0,0,0.33333,-1.9737e-16,0,0.66667
0.51127,0.8317,1.5338,0.49755,4.2474,9.4438,-2.0351,0.67836,-1.1192,-2.7134,-4.1256e-13,-0.55961,0,0,0.33333,-0,-0,0.66667
0.63848,0.68781,1.9154,0.28172,1.8613,5.7422,-1.439,0.47965,-1.719,-1.9186,9.4635e-12,-0.85951,0,0,0.33333,-0,-0,0.66667
0.12221,0.059733,0.36664,-0.6604,-7.7199,23.424,0.64567,-0.21522,-0.44996,0.8609,1.2812e-08,-0.22498,0,0,0.33333,4.9343e-17,0,0.66667
0.3442,0.67316,1.0326,0.25974,2.6143,14.916,-0.71522,0.23841,-1.76,-0.95363,-1.5348e-11,-0.87998,0,0,0.33333,-0,-0,0.66667
0.070348,0.47901,0.21104,-0.031482,-0.35759,25.423,0.017718,-0.0059059,-1.9959,0.023624,4.3656e-08,-0.99793,0,0,0.33333,-0,-0,0.66667
0.52576,0.68992,1.5773,0.28488,2.3314,8.889,-1.1982,0.39941,-1.7119,-1.5976,-4.3088e-13,-0.85596,0,0,0.33333,-1.579e-15,0,0.66667
0.65029,0.34471,1.9509,-0.23294,-1.4905,5.4228,1.2118,-0.40394,-1.8078,1.6158,-1.2923e-11,-0.9039,0,0,0.33333,-0,-0,0.66667
0.61547,0.05929,1.8464,-0.66107,-4.8418,6.6336,3.2549,-1.085,-0.4465,4.3399,4.5586e-13,-0.22325,0,0,0.33333,1.1842e-15,0,0.66667
0.81387,0.55144,2.4416,0.077167,0.2681,1.9673,-0.50243,0.16748,-1.9787,-0.6699,-6.7752e-12,-0.98933,0,0,0.33333,-0,-0,0.66667
0.23557,0.0050586,0.7067,-0.74241,-8.4059,19.098,1.3991,-0.46637,-0.040758,1.8655,-8.1004e-12,-0.020379,0,0,0.33333,-0,-0,0.66667
0.61818,0.93901,1.8545,0.65851,4.7943,6.5604,-3.2566,1.0855,-0.45879,-4.3422,-6.2639e-13,-0.2294,0,0,0.33333,-0,-0,0.66667
0.30283,0.13792,0.90849,-0.54312,-5.7691,16.514,1.3158,-0.43859,-0.95047,1.7544,1.7791e-11,-0.47523,0,0,0.33333,-0,-0,0.66667
0.088768,0.53462,0.2663,0.051934,0.58814,24.686,-0.03688,0.012293,-1.9907,-0.049174,-8.8626e-08,-0.99537,0,0,0.33333,1.9737e-16,0,0.66667
0.30526,0.22629,0.91578,-0.41057,-4.3,16.373,1.0026,-0.33422,-1.4003,1.3369,3.5255e-11,-0.70015,0,0,0.33333,-0,-0,0.66667
0.071356,0.71687,0.21407,0.3253,3.7297,25.392,-0.1857,0.061899,-1.6243,-0.2476,5.6624e-09,-0.81214,0,0,0.33333,-1.0046e-16,0,0.66667
0.95857,0.85906,2.8757,0.53859,0.37222,0.60773,-4.1302,1.3767,-0.96788,-5.5069,-8.837e-08,-0.48394,0,0,0.33333,-1.579e-15,0,0.66667
0.72717,0.20937,2.1815,-0.43594,-2.2968,3.7799,2.536,-0.84533,-1.3238,3.3813,-7.4519e-11,-0.66188,0,0,0.33333,7.8949e-16,0,0.66667
0.10146,0.13603,0.30438,-0.54595,-6.3342,24.219,0.44314,-0.14771,-0.93957,0.59085,-4.1823e-09,-0.46978,0,0,0.33333,-0,-0,0.66667
0.78627,0.78415,2.3588,0.42623,1.7844,2.6262,-2.6811,0.89369,-1.3545,-3.5747,2.7006e-10,-0.67723,0,0,0.33333,-0,-0,0.66667
0.35216,0.82593,1.0565,0.4889,4.9752,14.712,-1.3773,0.45911,-1.1494,-1.8365,-4.8761e-12,-0.57469,0,0,0.33333,-0,-0,0.66667
0.91144,0.56666,2.7343,0.09999,0.14583,0.66259,-0.72908,0.24303,-1.9646,-0.9721,-5.9268e-08,-0.98232,0,0,0.33333,-0,-0,0.66667
0.4955,0.889,1.4865,0.58349,5.1485,9.991,-2.313,0.77099,-0.78879,-3.0839,-1.2879e-14,-0.3944,0,0,0.33333,-0,-0,0.66667
0.87269,0.78984,2.6181,0.43476,1.0754,1.3197,-3.0353,1.0118,-1.3278,-4.0471,1.7975e-10,-0.66392,0,0,0.33333,-0,-0,0.66667
0.22053,0.91023,0.66159,0.61535,6.9077,19.614,-1.0856,0.36187,-0.65425,-1.4475,-1.0547e-10,-0.32713,0,0,0.33333,-0,-0,0.66667
0.36719,0.030129,1.1016,-0.70481,-7.2693,14.308,2.0704,-0.69013,-0.23443,2.7605,-4.4031e-13,-0.11721,0,0,0.33333,6.9081e-16,0,0.66667
0.36684,0.64267,1.1005,0.214,2.1078,14.1,-0.62803,0.20934,-1.8364,-0.83738,-7.6953e-12,-0.91819,0,0,0.33333,-3.9475e-16,0,0.66667
0.097133,0.2981,0.2914,-0.30285,-3.452,24.363,0.23533,-0.078444,-1.6733,0.31378,5.1626e-10,-0.83666,0,0,0.33333,-0,-0,0.66667
0.33101,0.16031,0.99304,-0.50953,-5.2844,15.476,1.3493,-0.44977,-1.0773,1.7991,9.0657e-12,-0.53865,0,0,0.33333,7.8949e-16,0,0.66667
0.65971,0.87449,1.9791,0.56174,3.6633,5.4196,-2.9647,0.98823,-0.87905,-3.9529,3.0607e-12,-0.43952,0,0,0.33333,-1.0856e-15,0,0.66667
0.46654,0.36704,1.3996,-0.19944,-1.7643,10.715,0.74439,-0.24813,-1.8585,0.99252,-1.6753e-13,-0.92927,0,0,0.33333,-0,-0,0.66667
0.87923,0.12808,2.6377,-0.55787,-1.374,1.382,3.924,-1.308,-0.89387,5.232,-1.0209e-08,-0.44693,0,0,0.33333,-3.158e-15,0,0.66667
0.26967,0.82695,0.80901,0.49043,5.2934,17.718,-1.058,0.35268,-1.1442,-1.4107,-6.7667e-11,-0.57209,0,0,0.33333,3.9475e-16,0,0.66667
0.35482,0.63572,1.0645,0.20358,2.0254,14.524,-0.57788,0.19263,-1.8521,-0.7705,-1.0714e-11,-0.92606,0,0,0.33333,7.8949e-16,0,0.66667
0.32035,0.41546,0.96106,-0.12681,-1.2937,15.757,0.32499,-0.10833,-1.9423,0.43332,1.703e-11,-0.97115,0,0,0.33333,-0,-0,0.66667
0.55174,0.82339,1.6552,0.48509,3.8844,8.2311,-2.1411,0.71371,-1.1628,-2.8548,-1.08e-12,-0.5814,0,0,0.33333,-0,-0,0.66667
0.18822,0.16183,0.56466,-0.50726,-5.7109,20.819,0.76381,-0.2546,-1.0856,1.0184,4.9808e-10,-0.54281,0,0,0.33333,-0,-0,0.66667
0.17324,0.74696,0.51973,0.37045,4.1486,21.371,-0.51342,0.17114,-1.5129,-0.68456,-3.5588e-10,-0.75643,0,0,0.33333,4.9343e-17,0,0.66667
0.93948,0.53816,2.8184,0.057246,0.047426,0.39049,-0.43026,0.14342,-1.9885,-0.57368,3.5811e-07,-0.99424,0,0,0.33333,-0,-0,0.66667
0.37665,0.70871,1.1299,0.31306,3.073,13.78,-0.94331,0.31444,-1.6514,-1.2578,-5.3158e-12,-0.82569,0,0,0.33333,-0,-0,0.66667
0.5871,0.90861,1.7613,0.61292,4.7011,7.3417,-2.8787,0.95958,-0.66473,-3.8383,-9.599e-13,-0.33237,0,0,0.33333,-0,-0,0.66667
0.055152,0.95702,0.16546,0.68553,8.1356,26.067,-0.30247,0.10082,-0.32833,-0.40329,3.136e-07,-0.16417,0,0,0.33333,-0,-0,0.66667
0.14086,0.28325,0.42257,-0.32512,-3.67,22.634,0.36637,-0.12212,-1.6253,0.48849,-3.5208e-10,-0.81267,0,0,0.33333,-3.9475e-16,0,0.66667
0.096359,0.44133,0.28908,-0.088012,-0.99571,24.383,0.067846,-0.022615,-1.9729,0.090461,-1.4154e-08,-0.98647,0,0,0.33333,-0,-0,0.66667
0.81212,0.68719,2.4363,0.28078,1.0063,2.0751,-1.8242,0.60808,-1.7212,-2.4323,1.075e-10,-0.86059,0,0,0.33333,3.9475e-16,0,0.66667
0.10315,0.74702,0.30944,0.37053,4.2356,24.13,-0.30575,0.10192,-1.5122,-0.40766,1.284e-09,-0.7561,0,0,0.33333,-1.9737e-16,0,0.66667
0.51632,0.57336,1.5489,0.11004,0.90563,9.1283,-0.45451,0.1515,-1.9569,-0.60602,-7.3358e-14,-0.97845,0,0,0.33333,-0,-0,0.66667
0.15558,0.22373,0.46673,-0.41441,-4.6846,22.069,0.51578,-0.17193,-1.39,0.68771,4.3127e-10,-0.69499,0,0,0.33333,-0,-0,0.66667
0.27882,0.89741,0.83645,0.59612,6.4693,17.42,-1.3297,0.44322,-0.73637,-1.7729,-2.1406e-11,-0.36818,0,0,0.33333,1.9737e-16,0,0.66667
0.8826,0.3607,2.6478,-0.20895,-0.44175,1.0271,1.4754,-0.49179,-1.844,1.9672,2.4643e-09,-0.92198,0,0,0.33333,1.579e-15,0,0.66667
0.63159,0.41182,1.8948,-0.13227,-0.8793,5.8665,0.66831,-0.22277,-1.9377,0.89108,-5.685e-12,-0.96885,0,0,0.33333,1.579e-15,0,0.66667
0.96366,0.48145,2.891,-0.02782,-0.0076173,0.20239,0.21447,-0.071491,-1.9966,0.28596,-5.5277e-07,-0.99829,0,0,0.33333,3.158e-15,0,0.66667
0.59971,0.20392,1.7991,-0.44412,-3.2445,6.8575,2.1308,-0.71026,-1.2979,2.841,3.5527e-14,-0.64896,0,0,0.33333,7.8949e-16,0,0.66667
0.0095197,0.90442,0.028559,0.60663,7.1565,27.872,-0.0462,0.0154,-0.69211,-0.0616,-3.7412e-07,-0.34606,0,0,0.33333,-1.5553e-17,0,0.66667
0.41564,0.27589,1.2469,-0.33617,-3.1804,12.445,1.1178,-0.37261,-1.5981,1.4904,3.5472e-13,-0.79907,0,0,0.33333,3.9475e-16,0,0.66667
0.022442,0.69757,0.067325,0.29636,3.4086,27.349,-0.053206,0.017735,-1.6871,-0.070942,2.2523e-08,-0.84357,0,0,0.33333,-0,-0,0.66667
0.31398,0.27115,0.94195,-0.34327,-3.5548,16.033,0.86225,-0.28742,-1.5809,1.1497,3.2143e-11,-0.79046,0,0,0.33333,-0,-0,0.66667
0.48162,0.09111,1.4449,-0.61333,-5.5343,10.447,2.3632,-0.78773,-0.66315,3.1509,-1.9273e-13,-0.33157,0,0,0.33333,3.9475e-16,4.5298e-16,0.66667
0.57546,0.42752,1.7264,-0.10873,-0.81056,7.3836,0.50054,-0.16685,-1.9577,0.66739,-6.3322e-13,-0.97885,0,0,0.33333,7.8949e-16,0,0.66667
0.23865,0.34422,0.71595,-0.23366,-2.5212,18.825,0.44611,-0.1487,-1.8068,0.59482,1.0562e-10,-0.90341,0,0,0.33333,-0,-0,0.66667
0.55829,0.65889,1.6749,0.23833,1.8436,7.9094,-1.0645,0.35482,-1.7986,-1.4193,-8.1268e-14,-0.89928,0,0,0.33333,1.579e-15,0,0.66667
0.39492,0.11675,1.1848,-0.57488,-5.6843,13.268,1.8163,-0.60542,-0.82464,2.4217,-9.0983e-13,-0.41232,0,0,0.33333,-3.9475e-16,0,0.66667
0.50658,0.6597,1.5197,0.23955,2.0114,9.4588,-0.97081,0.3236,-1.7962,-1.2944,-1.5626e-13,-0.89811,0,0,0.33333,1.579e-15,0,0.66667
0.19597,0.40206,0.5879,-0.14691,-1.6128,20.458,0.23031,-0.07677,-1.9234,0.30708,2.4931e-11,-0.96169,0,0,0.33333,1.1604e-16,0,0.66667
0.15675,0.35344,0.47025,-0.21984,-2.456,21.997,0.27568,-0.091893,-1.8282,0.36757,3.2378e-10,-0.91412,0,0,0.33333,3.9475e-16,0,0.66667
0.75452,0.037676,2.2636,-0.69349,-3.5256,3.519,4.186,-1.3953,-0.28996,5.5813,-5.5898e-12,-0.14498,0,0,0.33333,1.579e-15,0,0.66667
0.32997,0.30211,0.98992,-0.29684,-3.0282,15.438,0.7836,-0.2612,-1.6865,1.0448,2.2304e-11,-0.84325,0,0,0.33333,-3.9475e-16,0,0.66667
0.6442,0.52222,1.9326,0.03333,0.21458,5.5301,-0.17177,0.057257,-1.9958,-0.22903,2.1315e-12,-0.99788,0,0,0.33333,-0,-0,0.66667
0.56546,0.57795,1.6964,0.11692,0.88791,7.6703,-0.52892,0.17631,-1.9509,-0.70523,3.1602e-13,-0.97543,0,0,0.33333,-0,-0,0.66667
0.89953,0.93405,2.6986,0.65108,1.3975,1.2866,-4.6853,1.5618,-0.49302,-6.2471,-1.0462e-08,-0.24651,0,0,0.33333,-5.2318e-16,0,0.66667
0.88068,0.73,2.6421,0.34499,0.77032,1.139,-2.4306,0.81021,-1.5762,-3.2409,4.0717e-10,-0.7881,0,0,0.33333,-0,-0,0.66667
0.44311,0.61645,1.3293,0.17468,1.5882,11.477,-0.6192,0.2064,-1.8911,-0.82561,-1.8574e-13,-0.94555,0,0,0.33333,-0,-0,0.66667
0.20474,0.85457,0.61421,0.53186,5.9606,20.19,-0.87112,0.29037,-0.99403,-1.1615,-3.4765e-10,-0.49702,0,0,0.33333,-0,-0,0.66667
0.63219,0.11451,1.8966,-0.57823,-4.0287,6.1181,2.9244,-0.97481,-0.81058,3.8992,8.8818e-14,-0.40529,0,0,0.33333,-7.8949e-16,0,0.66667
0.63684,0.6087,1.9105,0.16304,1.0724,5.7392,-0.83066,0.27689,-1.9049,-1.1075,7.3953e-12,-0.95243,0,0,0.33333,-0,-0,0.66667
0.69242,0.17986,2.0773,-0.4802,-2.8344,4.5768,2.66,-0.88667,-1.1798,3.5467,-2.47e-11,-0.58992,0,0,0.33333,-0,-0,0.66667
0.90747,0.84591,2.7224,0.51887,0.9411,1.0177,-3.7669,1.2556,-1.0437,-5.0225,-1.4399e-08,-0.52187,0,0,0.33333,-0,-0,0.66667
0.78258,0.79663,2.3477,0.44494,1.9011,2.709,-2.7856,0.92854,-1.2958,-3.7142,2.6224e-10,-0.6479,0,0,0.33333,1.579e-15,0,0.66667
0.62529,0.025064,1.8759,-0.7124,-5.1657,6.4389,3.5637,-1.1879,-0.19598,4.7516,2.105e-13,-0.097988,0,0,0.33333,-7.8949e-16,0,0.66667
0.60097,0.25755,1.8029,-0.36368,-2.6257,6.7716,1.7485,-0.58282,-1.5294,2.3313,-1.2084e-12,-0.76469,0,0,0.33333,-0,-0,0.66667
0.21276,0.05614,0.63828,-0.66579,-7.5455,19.928,1.1332,-0.37774,-0.42373,1.511,8.1352e-11,-0.21187,0,0,0.33333,-7.1394e-17,0,0.66667
0.65137,0.27906,1.9541,-0.33141,-2.1341,5.4442,1.727,-0.57566,-1.61,2.3026,-1.2928e-11,-0.80501,0,0,0.33333,-9.8686e-16,0,0.66667
0.8145,0.42002,2.4435,-0.11997,-0.41636,1.9662,0.7817,-0.26057,-1.9484,1.0423,-1.1893e-10,-0.97422,0,0,0.33333,-0,-0,0.66667
0.92232,0.14444,2.767,-0.53334,-0.80187,0.89152,3.9353,-1.3118,-0.98857,5.247,-8.581e-09,-0.49428,0,0,0.33333,-0,-0,0.66667
0.91665,0.8757,2.75,0.56355,0.93721,0.98554,-4.1326,1.3775,-0.87163,-5.5102,1.7739e-08,-0.43581,0,0,0.33333,-0,-0,0.66667
0.5611,0.10312,1.6833,-0.59532,-4.7663,8.0507,2.6723,-0.89075,-0.73985,3.563,7.6805e-13,-0.36992,0,0,0.33333,-0,3.6698e-16,0.66667
0.25983,0.23635,0.7795,-0.39548,-4.2588,18.056,0.82206,-0.27402,-1.4432,1.0961,1.054e-10,-0.72159,0,0,0.33333,-3.9475e-16,0,0.66667
0.3338,0.068058,1.0014,-0.64791,-6.8128,15.448,1.7302,-0.57673,-0.50736,2.3069,4.6674e-13,-0.25368,0,0,0.33333,7.8949e-16,0,0.66667
0.99776,0.75501,2.9933,0.38251,-0.14458,0.20434,-3.0532,1.0177,-1.4801,-4.071,9.9658e-09,-0.74006,0,0,0.33333,3.158e-15,0,0.66667
0.5256,0.8604,1.5768,0.5406,4.5436,9.0419,-2.2731,0.7577,-0.96015,-3.0308,-5.218e-13,-0.48007,0,0,0.33333,-0,-0,0.66667
0.81591,0.42173,2.4477,-0.11741,-0.40417,1.9426,0.76634,-0.25545,-1.9504,1.0218,-7.972e-11,-0.9752,0,0,0.33333,-1.579e-15,0,0.66667
0.59702,0.8014,1.791,0.4521,3.3236,6.9363,-2.1593,0.71976,-1.2729,-2.879,-3.6349e-13,-0.63643,0,0,0.33333,-0,-0,0.66667
0.50693,0.080306,1.5208,-0.62954,-5.5047,9.6772,2.5531,-0.85102,-0.59009,3.4041,3.7081e-14,-0.29504,0,0,0.33333,-0,-0,0.66667
0.34854,0.985,1.0456,0.7275,7.6445,14.975,-2.0285,0.67617,-0.11748,-2.7047,7.1942e-14,-0.058738,0,0,0.33333,7.8949e-16,0,0.66667
0.53777,0.72092,1.6133,0.33139,2.671,8.5497,-1.4257,0.47523,-1.61,-1.9009,-6.3871e-13,-0.80501,0,0,0.33333,-1.579e-15,0,0.66667
0.0067347,0.70592,0.020204,0.30887,3.5567,27.98,-0.016641,0.0055471,-1.66,-0.022188,-1.9346e-09,-0.83002,0,0,0.33333,1.2336e-17,0,0.66667
0.87669,0.31612,2.6301,-0.27582,-0.62683,1.1379,1.9344,-0.64481,-1.7302,2.5792,2.1429e-09,-0.86508,0,0,0.33333,-0,-0,0.66667
0.56149,0.035161,1.6845,-0.69726,-5.674,8.1384,3.132,-1.044,-0.2721,4.176,1.6964e-13,-0.13605,0,0,0.33333,-0,-1.7287e-16,0.66667
0.024281,0.35853,0.072844,-0.2122,-2.431,27.274,0.04122,-0.01374,-1.8391,0.05496,-1.182e-07,-0.91955,0,0,0.33333,-0,-0,0.66667
0.81817,0.11886,2.4545,-0.57171,-2.1283,2.2474,3.7421,-1.2474,-0.83773,4.9894,-6.7867e-10,-0.41886,0,0,0.33333,-1.1842e-15,0,0.66667
0.13535,0.077722,0.40606,-0.63342,-7.3558,22.904,0.68589,-0.22863,-0.57271,0.91452,1.3571e-09,-0.28636,0,0,0.33333,1.9737e-16,0,0.66667
0.030639,0.14839,0.091916,-0.52741,-6.1674,27.028,0.12927,-0.043091,-1.0112,0.17236,-6.6875e-08,-0.50561,0,0,0.33333,2.4672e-17,0,0.66667
0.46234,0.58827,1.387,0.13241,1.1745,10.838,-0.48975,0.16325,-1.9376,-0.653,6.9555e-14,-0.9688,0,0,0.33333,-0,-0,0.66667
0.96066,0.28815,2.882,-0.31778,-0.14207,0.35155,2.4422,-0.81406,-1.6407,3.2563,-3.0187e-10,-0.82034,0,0,0.33333,-0,-0,0.66667
0.093614,0.20254,0.28084,-0.44619,-5.1392,24.517,0.33416,-0.11139,-1.292,0.44554,-1.2076e-09,-0.64602,0,0,0.33333,1.9737e-16,0,0.66667
0.065599,0.53313,0.1968,0.049695,0.56491,25.613,-0.026079,0.0086931,-1.992,-0.034772,-8.4331e-08,-0.996,0,0,0.33333,1.9737e-16,0,0.66667
0.87994,0.49529,2.6398,-0.0070684,-0.015018,1.0085,0.049758,-0.016586,-1.9999,0.066344,2.3088e-08,-0.99997,0,0,0.33333,3.9475e-16,0,0.66667
0.82137,0.55112,2.4641,0.076686,0.25513,1.8459,-0.5039,0.16797,-1.9784,-0.67187,6.5739e-11,-0.98921,0,0,0.33333,-0,-0,0.66667
0.81997,0.68595,2.4599,0.27893,0.95649,1.947,-1.8297,0.6099,-1.7239,-2.4396,7.9584e-11,-0.86197,0,0,0.33333,-5.6943e-16,0,0.66667
0.46782,0.12852,1.4035,-0.55723,-5.0777,10.843,2.0854,-0.69515,-0.89677,2.7806,-6.6791e-13,-0.44839,0,0,0.33333,1.579e-15,0,0.66667
0.42749,0.71754,1.2825,0.32631,3.0458,12.042,-1.116,0.37199,-1.6221,-1.4879,1.2468e-13,-0.81106,0,0,0.33333,-1.9737e-16,0,0.66667
0.40107,0.85402,1.2032,0.53103,5.1928,13.032,-1.7038,0.56794,-0.99685,-2.2718,9.6301e-13,-0.49842,0,0,0.33333,-0,-0,0.66667
0.58222,0.013568,1.7466,-0.72965,-5.765,7.5974,3.3985,-1.1328,-0.10645,4.5313,2.2649e-14,-0.053226,0,0,0.33333,1.579e-15,0,0.66667
0.72897,0.23493,2.1869,-0.39761,-2.0691,3.7111,2.3187,-0.77292,-1.4372,3.0917,-8.1925e-11,-0.71858,0,0,0.33333,-2.4423e-15,0,0.66667
0.78429,0.54908,2.3529,0.073622,0.2975,2.4771,-0.46193,0.15398,-1.9802,-0.61591,4.2175e-11,-0.99011,0,0,0.33333,-0,-0,0.66667
0.6548,0.36977,1.9644,-0.19535,-1.2328,5.2967,1.0233,-0.3411,-1.8647,1.3644,-1.3408e-11,-0.93237,0,0,0.33333,-1.1842e-15,0,0.66667
0.56247,0.5296,1.6874,0.044395,0.33839,7.7476,-0.19977,0.066588,-1.9943,-0.26635,4.4478e-14,-0.99714,0,0,0.33333,1.9737e-16,0,0.66667
0.41239,0.46755,1.2372,-0.048671,-0.45645,12.494,0.16057,-0.053525,-1.9923,0.2141,6.7492e-13,-0.99613,0,0,0.33333,-4.9343e-17,0,0.66667
0.31992,0.81286,0.95975,0.4693,4.8886,15.86,-1.2011,0.40036,-1.2177,-1.6014,-1.8128e-11,-0.60887,0,0,0.33333,-0,-0,0.66667
0.28625,0.61132,0.85874,0.16698,1.747,17.021,-0.38238,0.12746,-1.9002,-0.50985,-4.0167e-11,-0.95008,0,0,0.33333,-3.9475e-16,0,0.66667
0.29618,0.59724,0.88853,0.14587,1.515,16.649,-0.34562,0.11521,-1.9252,-0.46083,-3.0199e-11,-0.96259,0,0,0.33333,-0,-0,0.66667
0.68275,0.51705,2.0483,0.025582,0.14898,4.589,-0.13973,0.046577,-1.997,-0.18631,3.826e-12,-0.99849,0,0,0.33333,-0,-0,0.66667
0.76244,0.018706,2.2873,-0.72194,-3.5963,3.4102,4.4035,-1.4678,-0.14636,5.8713,-3.9897e-12,-0.073178,0,0,0.33333,-0,-0,0.66667
0.59762,0.58582,1.7929,0.12873,0.92018,6.7703,-0.61546,0.20515,-1.9409,-0.82061,1.7169e-12,-0.97043,0,0,0.33333,3.9475e-16,0,0.66667
0.22286,0.38373,0.66859,-0.1744,-1.8926,19.422,0.31094,-0.10365,-1.8915,0.41459,9.0853e-11,-0.94577,0,0,0.33333,-0,-0,0.66667
0.1944,0.80605,0.58319,0.45908,5.1333,20.568,-0.71394,0.23798,-1.2504,-0.95192,-4.1146e-10,-0.62522,0,0,0.33333,9.8686e-17,0,0.66667
0.76569,0.602,2.2971,0.153,0.67407,2.8419,-0.93721,0.3124,-1.9171,-1.2496,7.1453e-11,-0.95853,0,0,0.33333,-0,-0,0.66667
0.97869,0.68049,2.9361,0.27073,-0.0003798,0.20242,-2.1197,0.70657,-1.7392,-2.8263,8.8616e-09,-0.86958,0,0,0.33333,1.579e-15,0,0.66667
0.01591,0.40263,0.04773,-0.14605,-1.6702,27.61,0.018589,-0.0061962,-1.925,0.024785,3.0748e-08,-0.96252,0,0,0.33333,-3.7007e-17,0,0.66667
0.2489,0.9486,0.74669,0.6729,7.498,18.567,-1.3399,0.44662,-0.38993,-1.7865,-1.6155e-11,-0.19497,0,0,0.33333,3.9475e-16,0,0.66667
0.79231,0.16239,2.3769,-0.50642,-2.1014,2.5989,3.21,-1.07,-1.0881,4.2799,-3.2157e-10,-0.54404,0,0,0.33333,-0,-0,0.66667
0.71917,0.3993,2.1575,-0.15105,-0.79058,3.7889,0.86904,-0.28968,-1.9192,1.1587,-4.0852e-11,-0.95962,0,0,0.33333,-0,-0,0.66667
0.24598,0.85955,0.73794,0.53933,5.9284,18.623,-1.0613,0.35377,-0.96515,-1.4151,-1.0098e-10,-0.48257,0,0,0.33333,-0,-0,0.66667
0.55489,0.017995,1.6647,-0.72301,-5.9749,8.3526,3.2095,-1.0698,-0.1406,4.2794,2.4647e-14,-0.070299,0,0,0.33333,1.579e-15,0,0.66667
0.58559,0.028822,1.7568,-0.70677,-5.5267,7.4798,3.311,-1.1037,-0.22434,4.4146,1.8874e-13,-0.11217,0,0,0.33333,-0,-0,0.66667
0.72138,0.0046581,2.1642,-0.74301,-4.2682,4.2501,4.288,-1.4293,-0.037441,5.7173,-1.1009e-12,-0.018721,0,0,0.33333,-0,-0,0.66667
0.46367,0.96224,1.391,0.69336,6.4727,11.081,-2.5719,0.85732,-0.29053,-3.4293,1.1235e-13,-0.14526,0,0,0.33333,3.9475e-16,0,0.66667
0.40485,0.39068,1.2145,-0.16398,-1.5542,12.766,0.5311,-0.17703,-1.9041,0.70813,1.9453e-12,-0.95204,0,0,0.33333,7.8949e-16,0,0.66667
0.30801,0.84948,0.92403,0.52422,5.5374,16.316,-1.2917,0.43057,-1.0229,-1.7223,-1.778e-11,-0.51146,0,0,0.33333,-0,-0,0.66667
0.23831,0.48299,0.71493,-0.025513,-0.2739,18.821,0.048639,-0.016213,-1.9971,0.064853,1.2041e-11,-0.99853,0,0,0.33333,-3.9475e-16,0,0.66667
0.092503,0.70356,0.27751,0.30534,3.4841,24.548,-0.22596,0.07532,-1.6682,-0.30128,1.4642e-09,-0.83411,0,0,0.33333,-0,-0,0.66667
0.64588,0.27362,1.9377,-0.33957,-2.2174,5.5858,1.7546,-0.58485,-1.5897,2.3394,-1.0756e-11,-0.79487,0,0,0.33333,3.9475e-16,0,0.66667
0.66957,0.9191,2.0087,0.62865,4.0526,5.2548,-3.3674,1.1225,-0.59445,-4.4899,1.3438e-12,-0.29723,0,0,0.33333,-0,-5.1916e-16,0.66667
0.68734,0.37769,2.062,-0.18346,-1.0608,4.512,1.0088,-0.33627,-1.8814,1.3451,-2.6728e-11,-0.94069,0,0,0.33333,-0,-0,0.66667
0.0031457,0.66448,0.0094372,0.24672,2.8322,28.124,-0.0062089,0.0020696,-1.7834,-0.0082785,3.7227e-08,-0.8917,0,0,0.33333,-0,-0,0.66667
0.43825,0.44637,1.3148,-0.080445,-0.73355,11.624,0.28204,-0.094014,-1.9771,0.37606,1.6553e-13,-0.98855,0,0,0.33333,-0,-0,0.66667
0.12255,0.69273,0.36766,0.28909,3.2734,23.353,-0.28343,0.094478,-1.7031,-0.37791,2.0795e-09,-0.85157,0,0,0.33333,-0,-0,0.66667
0.52661,0.36666,1.5798,-0.20001,-1.6262,8.8345,0.84263,-0.28088,-1.8574,1.1235,1.9845e-13,-0.92872,0,0,0.33333,-0,-0,0.66667
0.97974,0.81182,2.9392,0.46773,0.058406,0.38658,-3.6661,1.222,-1.223,-4.8881,4.5665e-08,-0.6115,0,0,0.33333,-0,-0,0.66667
0.49928,0.56382,1.4978,0.095735,0.80751,9.6537,-0.38239,0.12746,-1.9686,-0.50985,-3.9441e-14,-0.98432,0,0,0.33333,1.579e-15,0,0.66667
0.37465,0.44306,1.1239,-0.085413,-0.83192,13.805,0.256,-0.085334,-1.9746,0.34133,3.2795e-12,-0.98731,0,0,0.33333,-0,-0,0.66667
0.81384,0.48757,2.4415,-0.018645,-0.064678,1.9617,0.12139,-0.040465,-1.9985,0.16186,1.7718e-10,-0.99926,0,0,0.33333,-7.8949e-16,0,0.66667
0.9682,0.31474,2.9046,-0.27789,-0.068857,0.27085,2.1524,-0.71747,-1.7265,2.8699,9.8111e-09,-0.86326,0,0,0.33333,-3.158e-15,0,0.66667
0.28712,0.88204,0.86137,0.57307,6.1707,17.103,-1.3163,0.43878,-0.83208,-1.7551,-2.1836e-11,-0.41604,0,0,0.33333,-0,-0,0.66667
0.803,0.64524,2.409,0.21786,0.81222,2.1934,-1.3995,0.46651,-1.8306,-1.866,1.1819e-10,-0.91531,0,0,0.33333,7.8949e-16,0,0.66667
0.99614,0.49506,2.9884,-0.0074053,0.0036398,0.017008,0.059013,-0.019629,-2,0.078705,6.2702e-05,-0.99998,0,0,0.33333,-0,-0,0.66667
0.11182,0.90163,0.33547,0.60245,7.0143,23.82,-0.53895,0.17965,-0.7099,-0.7186,-8.2407e-09,-0.35495,0,0,0.33333,-4.9343e-17,0,0.66667
0.53105,0.46964,1.5931,-0.045537,-0.36588,8.6739,0.19346,-0.064486,-1.994,0.25794,1.1988e-13,-0.99701,0,0,0.33333,-0,-0,0.66667
0.81353,0.69091,2.4406,0.28636,1.0194,2.0555,-1.8637,0.62123,-1.7092,-2.4849,1.1154e-10,-0.85461,0,0,0.33333,-0,-0,0.66667
0.37629,0.50666,1.1289,0.0099884,0.097058,13.744,-0.030069,0.010023,-1.9999,-0.040091,-4.5175e-13,-0.99995,0,0,0.33333,-0,-0,0.66667
0.44577,0.54931,1.3373,0.07397,0.66853,11.374,-0.26379,0.087931,-1.9798,-0.35172,-3.636e-15,-0.98989,0,0,0.33333,-7.8949e-16,0,0.66667
0.7509,0.28924,2.2527,-0.31614,-1.503,3.207,1.8991,-0.63304,-1.6448,2.5322,-1.1928e-10,-0.8224,0,0,0.33333,-1.579e-15,0,0.66667
0.098346,0.82575,0.29504,0.48862,5.6427,24.334,-0.38443,0.12814,-1.1505,-0.51257,-3.1928e-09,-0.57523,0,0,0.33333,1.9737e-16,0,0.66667
0.36053,0.12265,1.0816,-0.56603,-5.7673,14.455,1.6325,-0.54418,-0.8618,2.1767,5.9119e-13,-0.4309,0,0,0.33333,-1.9737e-16,0,0.66667
0.56371,0.36723,1.6911,-0.19915,-1.5224,7.7401,0.89811,-0.29937,-1.8591,1.1975,-2.5996e-13,-0.92956,0,0,0.33333,3.9475e-16,0,0.66667
0.23859,0.27512,0.71576,-0.33732,-3.6604,18.846,0.64383,-0.21461,-1.5954,0.85844,1.481e-10,-0.79771,0,0,0.33333,-0,-0,0.66667
0.83995,0.80416,2.5199,0.45624,1.4446,1.7863,-3.0658,1.0219,-1.2596,-4.0877,7.4516e-10,-0.62982,0,0,0.33333,7.8949e-16,0,0.66667
0.76585,0.22319,2.2976,-0.41521,-1.8922,2.9909,2.5439,-0.84797,-1.3878,3.3919,-1.8353e-10,-0.69389,0,0,0.33333,-0,-0,0.66667
0.96554,0.61717,2.8966,0.17575,0.045953,0.22846,-1.3576,0.45253,-1.89,-1.8101,-6.5589e-08,-0.94502,0,0,0.33333,7.8949e-16,0,0.66667
0.52299,0.88229,1.569,0.57344,4.8601,9.1456,-2.3992,0.79973,-0.8305,-3.1989,-4.321e-13,-0.41525,0,0,0.33333,-0,-0,0.66667
0.10652,0.22447,0.31957,-0.41329,-4.7353,24.001,0.3522,-0.1174,-1.3929,0.4696,1.2786e-09,-0.69643,0,0,0.33333,-0,-0,0.66667
0.93662,0.71312,2.8099,0.31967,0.31828,0.53857,-2.3953,0.79843,-1.6371,-3.1937,3.3458e-09,-0.81856,0,0,0.33333,-1.579e-15,0,0.66667
0.83424,0.32772,2.5027,-0.25842,-0.81002,1.7133,1.7247,-0.57489,-1.7618,2.2995,-8.871e-12,-0.88089,0,0,0.33333,-0,-0,0.66667
0.54442,0.65691,1.6333,0.23536,1.8634,8.3137,-1.0251,0.34169,-1.8041,-1.3668,-1.9229e-13,-0.90207,0,0,0.33333,-0,-0,0.66667
0.8363,0.67029,2.5089,0.25544,0.78969,1.6805,-1.709,0.56966,-1.7672,-2.2786,-4.9733e-11,-0.88361,0,0,0.33333,-0,-0,0.66667
0.88169,0.6626,2.6451,0.24389,0.52432,1.0568,-1.7203,0.57344,-1.7883,-2.2937,2.7082e-09,-0.89415,0,0,0.33333,-0,-0,0.66667
0.77608,0.26882,2.3282,-0.34678,-1.4959,2.7464,2.153,-0.71767,-1.5718,2.8707,-1.8551e-10,-0.78589,0,0,0.33333,-7.8949e-16,0,0.66667
0.57125,0.88668,1.7138,0.58002,4.5529,7.7503,-2.6507,0.88357,-0.80312,-3.5343,-9.881e-13,-0.40156,0,0,0.33333,-0,-0,0.66667
0.6153,0.65155,1.8459,0.22733,1.5747,6.322,-1.119,0.373,-1.8163,-1.492,4.2955e-12,-0.90816,0,0,0.33333,7.5908e-16,0,0.66667
0.84439,0.16263,2.5332,-0.50605,-1.5821,1.7762,3.4184,-1.1395,-1.0899,4.5579,-7.6743e-10,-0.54493,0,0,0.33333,-0,-0,0.66667
0.62222,0.23257,1.8666,-0.40114,-2.783,6.23,1.9968,-0.66559,-1.4274,2.6624,-3.2008e-12,-0.71368,0,0,0.33333,-0,-0,0.66667
0.20648,0.93416,0.61944,0.65125,7.3883,20.162,-1.0758,0.35859,-0.49249,-1.4343,-9.8071e-11,-0.24624,0,0,0.33333,-0,-0,0.66667
0.69149,0.20646,2.0745,-0.44031,-2.5889,4.564,2.4357,-0.81191,-1.3101,3.2477,-2.9198e-11,-0.65506,0,0,0.33333,-0,-0,0.66667
0.53201,0.87383,1.596,0.56075,4.6801,8.8665,-2.3866,0.79553,-0.88325,-3.1821,-6.6569e-13,-0.44163,0,0,0.33333,3.454e-16,0,0.66667
0.26325,0.39347,0.78974,-0.1598,-1.6957,17.882,0.33653,-0.11218,-1.9088,0.4487,5.4952e-11,-0.9544,0,0,0.33333,-0,-0,0.66667
0.00078654,0.50475,0.0023596,0.0071234,0.081321,28.218,-4.6305e-05,0.00010199,-2.0004,-1.8463e-05,0.00012983,-1.0002,0,0,0.33333,-0,-0,0.66667
0.2355,0.038739,0.70649,-0.69189,-7.7821,19.078,1.3035,-0.4345,-0.29809,1.738,1.5843e-11,-0.14905,0,0,0.33333,-0,-0,0.66667
0.67357,0.21411,2.0207,-0.42884,-2.643,4.9712,2.3108,-0.77028,-1.3466,3.0811,-1.8449e-11,-0.6733,0,0,0.33333,-3.9475e-16,0,0.66667
0.87832,0.45599,2.635,-0.06602,-0.14285,1.0336,0.4639,-0.15463,-1.984,0.61853,-4.1604e-09,-0.99199,0,0,0.33333,-0,-0,0.66667
0.8307,0.70722,2.4921,0.31083,1.0059,1.8001,-2.0657,0.68856,-1.6561,-2.7542,1.7472e-10,-0.82805,0,0,0.33333,-7.8949e-16,0,0.66667
0.10811,0.54864,0.32432,0.072964,0.82318,23.915,-0.063104,0.021035,-1.9808,-0.084139,-4.0924e-09,-0.9904,0,0,0.33333,1.9737e-16,0,0.66667
0.071125,0.11008,0.21337,-0.58488,-6.8494,25.424,0.3328,-0.11093,-0.7829,0.44373,3.8959e-08,-0.39145,0,0,0.33333,-8.4229e-17,0,0.66667
0.76159,0.35928,2.2848,-0.21108,-0.95039,2.942,1.286,-0.42868,-1.8409,1.7147,-9.5101e-11,-0.92047,0,0,0.33333,1.579e-15,0,0.66667
0.28483,0.901,0.8545,0.60151,6.5073,17.2,-1.3706,0.45688,-0.71372,-1.8275,-1.6102e-11,-0.35686,0,0,0.33333,-0,-0,0.66667
0.2718,0.18837,0.81541,-0.46745,-5.0283,17.63,1.0164,-0.33881,-1.2238,1.3553,7.071e-11,-0.61191,0,0,0.33333,-0,-0,0.66667
0.0020003,0.0071759,0.0060009,-0.73924,-8.8585,28.171,0.011835,-0.0038854,-0.057068,0.01581,8.9329e-05,-0.028534,0,0,0.33333,-0,-0,0.66667
0.098539,0.62422,0.29562,0.18633,2.1123,24.3,-0.14689,0.048963,-1.8774,-0.19585,-2.8776e-09,-0.93869,0,0,0.33333,2.4672e-16,0,0.66667
0.1356,0.41263,0.40679,-0.13105,-1.4696,22.825,0.14216,-0.047386,-1.9388,0.18954,-2.0698e-09,-0.96941,0,0,0.33333,-0,-0,0.66667
0.15936,0.67684,0.47808,0.26526,2.9669,21.899,-0.33817,0.11272,-1.7495,-0.45089,5.0988e-11,-0.87473,0,0,0.33333,-1.9737e-16,0,0.66667
0.44531,0.34086,1.3359,-0.23871,-2.1713,11.42,0.85041,-0.28347,-1.7977,1.1339,-1.2035e-13,-0.89886,0,0,0.33333,1.0856e-15,0,0.66667
0.81414,0.92379,2.4424,0.63569,2.4677,2.3952,-4.1403,1.3801,-0.56287,-5.5204,2.9624e-10,-0.28144,0,0,0.33333,-1.579e-15,0,0.66667
0.8123,0.092795,2.4369,-0.61081,-2.3734,2.3908,3.9693,-1.3231,-0.67486,5.2923,-2.3549e-10,-0.33743,0,0,0.33333,-2.0724e-15,-4.6774e-17,0.66667
0.90999,0.89039,2.73,0.58558,1.0747,1.0815,-4.263,1.421,-0.78015,-5.684,-1.7988e-09,-0.39008,0,0,0.33333,-1.579e-15,0,0.66667
0.44359,0.03121,1.3308,-0.70318,-6.7282,11.735,2.4954,-0.83181,-0.24281,3.3272,-1.2879e-13,-0.12141,0,0,0.33333,-1.9018e-16,0,0.66667
0.70871,0.38419,2.1261,-0.17371,-0.94165,4.0245,0.9849,-0.3283,-1.8922,1.3132,-3.826e-11,-0.94612,0,0,0.33333,-0,-0,0.66667
0.48833,0.87911,1.465,0.56867,5.0557,10.203,-2.2216,0.74054,-0.85047,-2.9622,1.5254e-13,-0.42523,0,0,0.33333,-0,-0,0.66667
0.049843,0.39337,0.14953,-0.15994,-1.8255,26.247,0.063775,-0.021258,-1.9086,0.085033,4.3737e-08,-0.95428,0,0,0.33333,-0,-0,0.66667
0.080431,0.2615,0.24129,-0.35774,-4.104,25.033,0.23019,-0.07673,-1.5446,0.30692,-2.4045e-11,-0.77231,0,0,0.33333,1.9737e-16,0,0.66667
0.24594,0.87117,0.73783,0.55676,6.1312,18.631,-1.0954,0.36515,-0.89817,-1.4606,-9.2874e-11,-0.44908,0,0,0.33333,-3.9475e-16,0,0.66667
0.98162,0.37245,2.9449,-0.19133,0.020733,0.1381,1.5025,-0.50083,-1.8705,2.0033,2.3579e-07,-0.93527,0,0,0.33333,7.8949e-16,0,0.66667
0.69192,0.28051,2.0758,-0.32923,-1.9043,4.4754,1.8224,-0.60747,-1.6155,2.4299,-3.7591e-11,-0.80774,0,0,0.33333,1.1349e-15,0,0.66667
0.26801,0.50003,0.80402,4.1974e-05,0.00044298,17.694,-8.9995e-05,2.9998e-05,-2.0012,-0.00011999,-1.6496e-12,-1.0006,0,0,0.33333,-0,-0,0.66667
0.70626,0.83926,2.1188,0.50889,2.9004,4.2942,-2.8753,0.95843,-1.0795,-3.8337,3.102e-11,-0.53977,0,0,0.33333,7.8949e-16,0,0.66667
0.66135,0.53672,1.984,0.055081,0.33991,5.1046,-0.29142,0.09714,-1.9892,-0.38856,5.2703e-12,-0.9946,0,0,0.33333,-0,-0,0.66667
0.04329,0.19648,0.12987,-0.45528,-5.2854,26.521,0.15767,-0.052557,-1.2627,0.21023,-2.1901e-08,-0.63136,0,0,0.33333,-0,-0,0.66667
0.36149,0.42846,1.0845,-0.10731,-1.0582,14.273,0.31034,-0.10345,-1.9589,0.41378,5.7733e-12,-0.97947,0,0,0.33333,-0,-0,0.66667
0.77373,0.27243,2.3212,-0.34136,-1.4861,2.786,2.1129,-0.70431,-1.5852,2.8173,-1.7608e-10,-0.7926,0,0,0.33333,7.8949e-16,0,0.66667
0.078523,0.1796,0.23557,-0.48061,-5.5665,25.119,0.30191,-0.10064,-1.179,0.40255,-1.0736e-08,-0.5895,0,0,0.33333,-9.8686e-17,0,0.66667
0.88438,0.88156,2.6532,0.57234,1.3569,1.3403,-4.0493,1.3498,-0.83509,-5.3991,5.0705e-09,-0.41755,0,0,0.33333,-0,-0,0.66667
0.93087,0.21978,2.7926,-0.42033,-0.50511,0.68118,3.1302,-1.0434,-1.3725,4.1736,-2.1792e-09,-0.68625,0,0,0.33333,-0,-0,0.66667
0.85309,0.51708,2.5593,0.025622,0.068779,1.3641,-0.17486,0.058288,-1.9969,-0.23315,-5.3289e-10,-0.99845,0,0,0.33333,-0,-0,0.66667
0.11738,0.68085,0.35213,0.27127,3.0729,23.556,-0.25473,0.084909,-1.7381,-0.33964,1.1082e-09,-0.86905,0,0,0.33333,-9.8686e-17,0,0.66667
0.56517,0.32986,1.6955,-0.25521,-1.9527,7.7172,1.1539,-0.38464,-1.7679,1.5386,-5.2625e-14,-0.88397,0,0,0.33333,-0,-0,0.66667
0.70756,0.59401,2.1227,0.14102,0.76569,4.0403,-0.79825,0.26608,-1.9303,-1.0643,3.1233e-11,-0.96513,0,0,0.33333,-0,-0,0.66667
0.88798,0.39999,2.6639,-0.15002,-0.29672,0.93761,1.0657,-0.35524,-1.9201,1.4209,1.0864e-09,-0.96005,0,0,0.33333,1.579e-15,0,0.66667
0.095776,0.57822,0.28733,0.11733,1.3283,24.407,-0.089902,0.029967,-1.9506,-0.11987,-6.9691e-09,-0.97532,0,0,0.33333,1.9737e-16,0,0.66667
0.81577,0.54341,2.4473,0.06511,0.22367,1.9344,-0.42492,0.14164,-1.9844,-0.56656,1.4999e-10,-0.99222,0,0,0.33333,-0,-0,0.66667
0.27802,0.97921,0.83405,0.71882,7.925,17.509,-1.5987,0.53292,-0.16247,-2.1317,-7.2919e-13,-0.081236,0,0,0.33333,-0,-0,0.66667
0.59229,0.4139,1.7769,-0.12915,-0.93305,6.9169,0.61197,-0.20399,-1.9408,0.81596,-1.4441e-12,-0.9704,0,0,0.33333,-0,-0,0.66667
0.7198,0.32524,2.1594,-0.26214,-1.3817,3.8193,1.5095,-0.50317,-1.7555,2.0127,-6.1928e-11,-0.87773,0,0,0.33333,-0,-0,0.66667
0.77702,0.94369,2.3311,0.66553,3.082,3.0635,-4.1371,1.379,-0.42509,-5.5161,4.3979e-11,-0.21254,0,0,0.33333,-0,1.5479e-17,0.66667
0.29466,0.88692,0.88399,0.58039,6.2241,16.829,-1.3682,0.45605,-0.80197,-1.8242,-1.5594e-11,-0.40099,0,0,0.33333,-0,-0,0.66667
0.60738,0.23086,1.8221,-0.40372,-2.8901,6.6239,1.9617,-0.65389,-1.4202,2.6156,-1.2088e-12,-0.71008,0,0,0.33333,-0,-0,0.66667
0.28747,0.85008,0.86242,0.52512,5.6246,17.07,-1.2077,0.40256,-1.0194,-1.6102,-3.3473e-11,-0.50968,0,0,0.33333,-0,-0,0.66667
0.99832,0.9494,2.995,0.67409,-0.04836,0.61211,-5.3837,1.7946,-0.38407,-7.1782,-6.0605e-06,-0.19203,0,0,0.33333,-0,-0,0.66667
0.81451,0.47683,2.4435,-0.034749,-0.12013,1.9518,0.22643,-0.075476,-1.9957,0.3019,-1.2278e-10,-0.99785,0,0,0.33333,-1.579e-15,0,0.66667
0.41398,0.67123,1.2419,0.25685,2.4217,12.475,-0.85064,0.28355,-1.7646,-1.1342,-1.0778e-12,-0.88231,0,0,0.33333,-0,-0,0.66667
0.87914,0.064453,2.6374,-0.65332,-1.6886,1.5186,4.5949,-1.5316,-0.48305,6.1265,-1.4355e-08,-0.24152,0,0,0.33333,-0,-0,0.66667
0.7325,0.067974,2.1975,-0.64804,-3.5082,3.8933,3.7975,-1.2658,-0.50716,5.0634,-1.2702e-11,-0.25358,0,0,0.33333,-1.579e-15,0,0.66667
0.92875,0.4071,2.7862,-0.13935,-0.15133,0.5053,1.0354,-0.34513,-1.9317,1.3805,1.0161e-07,-0.96584,0,0,0.33333,-0,-0,0.66667
0.17161,0.74723,0.51483,0.37085,4.1557,21.435,-0.50913,0.16971,-1.512,-0.67884,-3.5083e-10,-0.75602,0,0,0.33333,-2.9606e-16,0,0.66667
0.29484,0.49468,0.88451,-0.0079807,-0.082784,16.69,0.018824,-0.0062747,-2.0001,0.025099,2.6575e-12,-1.0001,0,0,0.33333,-1.1842e-15,0,0.66667
0.093737,0.61069,0.28121,0.16603,1.8828,24.49,-0.12451,0.041502,-1.9019,-0.16601,4.9999e-09,-0.95096,0,0,0.33333,-0,-0,0.66667
0.31798,0.069938,0.95394,-0.64509,-6.8605,16.014,1.641,-0.54701,-0.5201,2.188,1.6708e-12,-0.26005,0,0,0.33333,-0,-0,0.66667
0.38119,0.056603,1.1436,-0.6651,-6.7386,13.797,2.0282,-0.67607,-0.42707,2.7043,-6.4926e-13,-0.21354,0,0,0.33333,-3.9475e-16,0,0.66667
0.63271,0.45312,1.8981,-0.070319,-0.46537,5.827,0.35594,-0.11865,-1.9816,0.47458,-3.2729e-12,-0.9908,0,0,0.33333,-7.8949e-16,0,0.66667
0.47152,0.25066,1.4146,-0.37401,-3.3263,10.617,1.4108,-0.47027,-1.5037,1.8811,-5.167e-13,-0.75185,0,0,0.33333,-1.579e-15,0,0.66667
0.71767,0.51415,2.153,0.021222,0.11113,3.7999,-0.12184,0.040614,-1.9981,-0.16246,5.6062e-12,-0.99907,0,0,0.33333,-0,-0,0.66667
0.26922,0.0027919,0.80767,-0.74581,-8.2962,17.848,1.6063,-0.53544,-0.022825,2.1418,-1.7364e-13,-0.011413,0,0,0.33333,1.579e-15,0,0.66667
0.17306,0.095606,0.51917,-0.60659,-6.9387,21.432,0.8398,-0.27993,-0.69277,1.1197,8.2766e-10,-0.34638,0,0,0.33333,-3.9475e-16,0,0.66667
0.37912,0.55089,1.1374,0.07633,0.74024,13.647,-0.23151,0.077169,-1.9787,-0.30868,-2.6067e-12,-0.98937,0,0,0.33333,3.9475e-16,0,0.66667
0.43808,0.74618,1.3142,0.36927,3.4176,11.706,-1.2942,0.43138,-1.516,-1.7255,7.0621e-13,-0.75798,0,0,0.33333,5.9212e-16,0,0.66667
0.42213,0.089047,1.2664,-0.61643,-5.9624,12.376,2.0817,-0.6939,-0.64965,2.7756,-8.7064e-13,-0.32482,0,0,0.33333,-0,-0,0.66667
0.91357,0.6794,2.7407,0.2691,0.39732,0.71672,-1.9667,0.65558,-1.7421,-2.6223,-1.9218e-09,-0.87105,0,0,0.33333,1.579e-15,0,0.66667
0.26957,0.055595,0.8087,-0.66661,-7.3363,17.795,1.4376,-0.47919,-0.41993,1.9168,7.9416e-12,-0.20997,0,0,0.33333,-1.9737e-16,0,0.66667
0.35204,0.29457,1.0561,-0.30814,-3.09,14.648,0.86784,-0.28928,-1.6616,1.1571,1.208e-11,-0.83081,0,0,0.33333,-0,-0,0.66667
0.21521,0.32759,0.64563,-0.25861,-2.8267,19.727,0.44524,-0.14841,-1.7616,0.59366,1.4843e-10,-0.88081,0,0,0.33333,-3.9475e-16,0,0.66667
0.37192,0.22084,1.1158,-0.41875,-4.1618,13.984,1.2459,-0.41531,-1.3773,1.6612,3.6374e-12,-0.68864,0,0,0.33333,-0,-0,0.66667
0.38986,0.3029,1.1696,-0.29565,-2.8629,13.315,0.92207,-0.30736,-1.6893,1.2294,3.2548e-12,-0.84463,0,0,0.33333,3.9475e-16,0,0.66667
0.57543,0.20341,1.7263,-0.44489,-3.4027,7.5273,2.048,-0.68266,-1.2958,2.7307,9.4835e-13,-0.64789,0,0,0.33333,-0,-0,0.66667
0.27836,0.34648,0.83509,-0.23028,-2.4276,17.324,0.51282,-0.17094,-1.8121,0.68376,5.9745e-11,-0.90605,0,0,0.33333,-0,-0,0.66667
0.25949,0.0021308,0.77848,-0.7468,-8.3545,18.208,1.5503,-0.51677,-0.017505,2.0671,-4.8476e-12,-0.0087525,0,0,0.33333,-0,-0,0.66667
0.71906,0.90357,2.1572,0.60536,3.3852,4.1206,-3.4823,1.1608,-0.69807,-4.6431,1.6886e-11,-0.34904,0,0,0.33333,-7.8949e-16,0,0.66667
0.91018,0.030298,2.7305,-0.70455,-1.4023,1.2659,5.1301,-1.71,-0.23592,6.8402,9.404e-08,-0.11796,0,0,0.33333,-1.579e-15,0,0.66667
0.1221,0.40545,0.36629,-0.14182,-1.5968,23.361,0.13853,-0.046177,-1.9295,0.18471,9.6138e-09,-0.96475,0,0,0.33333,-6.1679e-17,0,0.66667
0.18229,0.24035,0.54687,-0.38947,-4.3524,21.022,0.56797,-0.18932,-1.4602,0.7573,3.6954e-10,-0.73009,0,0,0.33333,-0,-0,0.66667
0.13311,0.3601,0.39933,-0.20985,-2.3608,22.928,0.22347,-0.074488,-1.8426,0.29795,7.1742e-10,-0.92131,0,0,0.33333,-0,-0,0.66667
0.68361,0.78134,2.0508,0.42201,2.5294,4.7307,-2.3079,0.76931,-1.3678,-3.0773,2.5153e-11,-0.68391,0,0,0.33333,3.158e-15,0,0.66667
0.21401,0.72615,0.64203,0.33923,3.7269,19.787,-0.58079,0.1936,-1.5906,-0.77438,-2.1687e-10,-0.79531,0,0,0.33333,-0,-0,0.66667
0.60457,0.082913,1.8137,-0.62563,-4.6525,6.8832,3.0259,-1.0086,-0.60776,4.0345,8.4022e-13,-0.30388,0,0,0.33333,-7.8949e-16,0,0.66667
0.20168,0.51455,0.60504,0.021827,0.23855,20.231,-0.035217,0.011739,-1.998,-0.046956,-7.4024e-11,-0.99899,0,0,0.33333,-0,-0,0.66667
0.81776,0.27441,2.4533,-0.33839,-1.188,2.0224,2.2137,-0.73791,-1.5927,2.9517,-3.0442e-10,-0.79634,0,0,0.33333,-0,-0,0.66667
0.31611,0.17578,0.94832,-0.48634,-5.0885,16.005,1.2299,-0.40996,-1.1585,1.6398,1.841e-11,-0.57927,0,0,0.33333,-0,-0,0.66667
0.66962,0.74389,2.0089,0.36583,2.259,5.0204,-1.9597,0.65325,-1.5243,-2.613,2.0236e-11,-0.76217,0,0,0.33333,-0,-0,0.66667
0.14873,0.14992,0.4462,-0.52512,-6.0059,22.358,0.62483,-0.20828,-1.0193,0.8331,1.0951e-09,-0.50967,0,0,0.33333,-2.9606e-16,0,0.66667
0.30595,0.71867,0.91784,0.328,3.4129,16.323,-0.80281,0.2676,-1.6184,-1.0704,-3.951e-11,-0.80918,0,0,0.33333,3.367e-17,0,0.66667
0.29724,0.091263,0.89172,-0.61311,-6.5886,16.75,1.4579,-0.48597,-0.66453,1.9439,8.5616e-12,-0.33227,0,0,0.33333,-1.9737e-16,0,0.66667
0.63508,0.65302,1.9052,0.22952,1.5221,5.8064,-1.1661,0.38871,-1.813,-1.5548,8.3875e-12,-0.90651,0,0,0.33333,-9.8686e-16,0,0.66667
0.68088,0.68528,2.0426,0.27792,1.649,4.7025,-1.5138,0.50461,-1.7258,-2.0184,2.8704e-11,-0.86292,0,0,0.33333,-1.1842e-15,0,0.66667
0.84525,0.36392,2.5357,-0.20412,-0.58918,1.5223,1.3802,-0.46008,-1.8517,1.8403,2.7731e-10,-0.92584,0,0,0.33333,-0,-0,0.66667
0.18335,0.93796,0.55004,0.65693,7.529,21.05,-0.96357,0.32119,-0.46652,-1.2848,-4.3747e-10,-0.23326,0,0,0.33333,7.8949e-16,0,0.66667
0.76043,0.21763,2.2813,-0.42355,-1.9753,3.1012,2.5767,-0.85888,-1.3629,3.4355,-1.6303e-10,-0.68144,0,0,0.33333,6.06e-16,0,0.66667
0.71194,0.29792,2.1358,-0.30312,-1.6458,4.0119,1.7264,-0.57547,-1.6725,2.3019,-5.6865e-11,-0.83626,0,0,0.33333,-1.6326e-15,0,0.66667
0.55754,0.24686,1.6726,-0.37971,-2.9753,7.9958,1.6936,-0.56454,-1.4877,2.2582,8.6364e-13,-0.74387,0,0,0.33333,-0,-0,0.66667
0.65016,0.73326,1.9505,0.34989,2.2642,5.485,-1.8199,0.60663,-1.564,-2.4265,1.1831e-11,-0.78198,0,0,0.33333,1.579e-15,0,0.66667
0.089995,0.13806,0.26999,-0.5429,-6.3113,24.672,0.39087,-0.13029,-0.95145,0.52116,1.5702e-08,-0.47572,0,0,0.33333,-0,-0,0.66667
0.14688,0.48388,0.44063,-0.024173,-0.26973,22.376,0.028403,-0.0094676,-1.9971,0.037871,-6.371e-10,-0.99857,0,0,0.33333,1.9737e-16,0,0.66667
0.41557,0.29715,1.2467,-0.30427,-2.8724,12.436,1.0116,-0.33719,-1.67,1.3488,7.2831e-13,-0.83502,0,0,0.33333,7.8949e-16,0,0.66667
0.71137,0.52401,2.1341,0.036014,0.19251,3.9384,-0.20495,0.068317,-1.9951,-0.27327,8.9163e-12,-0.99753,0,0,0.33333,7.8949e-16,0,0.66667
0.16782,0.14053,0.50346,-0.53921,-6.1364,21.617,0.72393,-0.24131,-0.96558,0.96524,8.4403e-10,-0.48279,0,0,0.33333,-0,-0,0.66667
0.38898,0.83404,1.1669,0.50106,4.9412,13.43,-1.5592,0.51974,-1.1072,-2.079,1.1025e-13,-0.55361,0,0,0.33333,-0,-0,0.66667
0.49795,0.92253,1.4938,0.63379,5.614,9.956,-2.5247,0.84158,-0.57136,-3.3663,-3.1086e-14,-0.28568,0,0,0.33333,7.8949e-16,3.9406e-16,0.66667
0.93505,0.55284,2.8051,0.079267,0.073838,0.43249,-0.59295,0.19765,-1.9774,-0.7906,-7.5233e-08,-0.98872,0,0,0.33333,7.8949e-16,0,0.66667
0.055196,0.98,0.16559,0.72,8.5807,26.069,-0.31793,0.10598,-0.15612,-0.42391,-1.4055e-07,-0.078062,0,0,0.33333,-0,-0,0.66667
0.82901,0.96905,2.487,0.70357,2.5912,2.2665,-4.6661,1.5554,-0.24136,-6.2215,4.7926e-10,-0.12068,0,0,0.33333,-0,-0,0.66667
0.98416,0.73062,2.9525,0.34593,-0.028397,0.23333,-2.7236,0.90787,-1.5745,-3.6315,1.322e-08,-0.78725,0,0,0.33333,-0,-0,0.66667
0.26727,0.079996,0.80182,-0.63001,-6.9118,17.863,1.3471,-0.44902,-0.58844,1.7961,1.9622e-11,-0.29422,0,0,0.33333,-0,-0,0.66667
0.89006,0.15945,2.6702,-0.51082,-1.114,1.1961,3.6373,-1.2124,-1.0731,4.8497,-6.2919e-09,-0.53656,0,0,0.33333,-0,-0,0.66667
0.2903,0.47104,0.8709,-0.043437,-0.45206,16.86,0.10088,-0.033626,-1.9937,0.1345,1.0433e-11,-0.99687,0,0,0.33333,7.8949e-16,0,0.66667
0.79901,0.91405,2.397,0.62108,2.581,2.622,-3.97,1.3233,-0.62849,-5.2933,2.4221e-10,-0.31424,0,0,0.33333,-0,-0,0.66667
0.45986,0.085968,1.3796,-0.62105,-5.7627,11.144,2.2847,-0.76158,-0.62825,3.0463,-3.5838e-13,-0.31413,0,0,0.33333,3.9475e-16,0,0.66667
0.59761,0.95646,1.7928,0.68469,5.2154,7.1309,-3.2734,1.0911,-0.3326,-4.3646,-3.082e-13,-0.1663,0,0,0.33333,-7.8949e-16,0,0.66667
0.23667,0.95245,0.71,0.67867,7.6162,19.029,-1.285,0.42832,-0.36189,-1.7133,-2.029e-11,-0.18095,0,0,0.33333,3.9475e-16,0,0.66667
0.68761,0.71755,2.0628,0.32633,1.9101,4.5725,-1.7951,0.59836,-1.6227,-2.3935,3.3977e-11,-0.81136,0,0,0.33333,7.8949e-16,0,0.66667
0.14868,0.1198,0.44605,-0.5703,-6.5519,22.369,0.67836,-0.22612,-0.84355,0.90447,2.1941e-09,-0.42177,0,0,0.33333,2.8541e-16,0,0.66667
0.55969,0.78058,1.6791,0.42086,3.3001,7.9587,-1.8844,0.62814,-1.3713,-2.5126,-1.0364e-12,-0.68563,0,0,0.33333,2.8814e-16,0,0.66667
0.49433,0.88877,1.483,0.58315,5.1533,10.027,-2.3061,0.76871,-0.79016,-3.0748,-1.8208e-14,-0.39508,0,0,0.33333,7.8949e-16,0,0.66667
0.83721,0.89265,2.5116,0.58897,1.9821,1.9814,-3.9447,1.3149,-0.76587,-5.2596,1.0786e-09,-0.38294,0,0,0.33333,-0,-0,0.66667
0.48147,0.80111,1.4444,0.45167,3.9957,10.341,-1.7397,0.5799,-1.2743,-2.3196,4.5108e-13,-0.63713,0,0,0.33333,-7.8949e-16,0,0.66667
0.78473,0.85756,2.3542,0.53634,2.3199,2.7644,-3.3671,1.1224,-0.97663,-4.4894,2.4134e-10,-0.48831,0,0,0.33333,-0,-0,0.66667
0.40029,0.63914,1.2009,0.20871,1.9909,12.931,-0.66838,0.22279,-1.8444,-0.89117,-2.3568e-12,-0.92218,0,0,0.33333,-7.8949e-16,0,0.66667
0.30791,0.64452,0.92372,0.21677,2.2388,16.226,-0.53397,0.17799,-1.8323,-0.71195,-3.2777e-11,-0.91617,0,0,0.33333,-3.6463e-16,0,0.66667
0.78723,0.13407,2.3617,-0.5489,-2.3561,2.7347,3.4568,-1.1523,-0.92829,4.6091,-2.6128e-10,-0.46414,0,0,0.33333,1.579e-15,0,0.66667
0.41846,0.55708,1.2554,0.085616,0.7982,12.29,-0.28662,0.09554,-1.9741,-0.38216,-6.6219e-13,-0.98704,0,0,0.33333,9.8686e-16,0,0.66667
0.49677,0.43418,1.4903,-0.098732,-0.83581,9.7327,0.39237,-0.13079,-1.9658,0.52317,8.4127e-14,-0.98292,0,0,0.33333,9.8686e-16,0,0.66667
0.57732,0.25909,1.732,-0.36137,-2.7293,7.4224,1.669,-0.55634,-1.5358,2.2254,2.8966e-13,-0.76788,0,0,0.33333,-0,-0,0.66667
0.81967,0.76601,2.459,0.39901,1.4043,2.0408,-2.6165,0.87215,-1.4331,-3.4886,3.8283e-10,-0.71656,0,0,0.33333,-0,-0,0.66667
0.58132,0.42556,1.744,-0.11166,-0.82339,7.2189,0.51926,-0.17309,-1.9552,0.69235,-7.8026e-13,-0.97761,0,0,0.33333,-7.8949e-16,0,0.66667
0.40614,0.76356,1.2184,0.39534,3.795,12.791,-1.2845,0.42817,-1.4442,-1.7127,-1.9751e-13,-0.72211,0,0,0.33333,-7.8949e-16,0,0.66667
0.16059,0.9862,0.48176,0.7293,8.5028,21.95,-0.93693,0.31231,-0.10821,-1.2492,1.2263e-10,-0.054107,0,0,0.33333,1.9737e-16,0,0.66667
0.70211,0.45597,2.1063,-0.066047,-0.36363,4.1475,0.37098,-0.12366,-1.9843,0.49464,-1.4136e-11,-0.99214,0,0,0.33333,-0,-0,0.66667
0.88323,0.45637,2.6497,-0.065439,-0.13479,0.97304,0.46238,-0.15413,-1.984,0.61651,-5.3423e-09,-0.99202,0,0,0.33333,1.579e-15,0,0.66667
0.10838,0.86201,0.32514,0.54302,6.289,23.946,-0.47081,0.15694,-0.95137,-0.62775,-1.0313e-09,-0.47568,0,0,0.33333,-0,4.5168e-16,0.66667
0.46621,0.14011,1.3986,-0.53984,-4.9183,10.882,2.0135,-0.67115,-0.96333,2.6846,-5.9464e-13,-0.48167,0,0,0.33333,-7.8949e-16,0,0.66667
0.93454,0.80444,2.8036,0.45665,0.52636,0.68898,-3.4141,1.138,-1.2584,-4.5521,-9.5457e-09,-0.62921,0,0,0.33333,1.579e-15,0,0.66667
0.56351,0.462,1.6905,-0.056998,-0.43372,7.7185,0.25695,-0.085651,-1.9887,0.3426,-2.1441e-13,-0.99437,0,0,0.33333,7.8949e-16,0,0.66667
0.54525,0.84944,1.6358,0.52416,4.2635,8.4485,-2.2864,0.76213,-1.0235,-3.0485,-9.2637e-13,-0.51174,0,0,0.33333,-0,-0,0.66667
0.063476,0.28965,0.19043,-0.31553,-3.6196,25.707,0.16023,-0.053409,-1.6461,0.21363,3.3817e-09,-0.82307,0,0,0.33333,1.9737e-16,0,0.66667
0.5353,0.3209,1.6059,-0.26865,-2.1634,8.5963,1.1505,-0.38348,-1.7431,1.5339,3.9191e-13,-0.87156,0,0,0.33333,-0,-0,0.66667
0.65454,0.3904,1.9636,-0.16441,-1.0364,5.2934,0.86089,-0.28696,-1.9035,1.1479,-1.1918e-11,-0.95176,0,0,0.33333,-0,-0,0.66667
0.14659,0.15396,0.43978,-0.51906,-5.9371,22.44,0.60872,-0.20291,-1.0425,0.81162,1.1636e-09,-0.52127,0,0,0.33333,4.9343e-17,0,0.66667
0.95636,0.50805,2.8691,0.012075,0.0053227,0.25318,-0.092385,0.030797,-1.9993,-0.12318,2.5932e-06,-0.99966,0,0,0.33333,-0,-0,0.66667
0.19615,0.49968,0.58845,-0.00048224,-0.0052824,20.445,0.00075674,-0.00025225,-2.0008,0.001009,2.2432e-10,-1.0004,0,0,0.33333,5.7978e-16,0,0.66667
0.67393,0.52099,2.0218,0.031492,0.18793,4.7983,-0.16978,0.056595,-1.9963,-0.22638,4.0355e-12,-0.99813,0,0,0.33333,-1.579e-15,0,0.66667
0.27434,0.58863,0.82302,0.13294,1.4001,17.462,-0.29176,0.097255,-1.9371,-0.38902,-4.0481e-11,-0.96857,0,0,0.33333,-0,-0,0.66667
0.10843,0.35218,0.32529,-0.22172,-2.5114,23.908,0.19233,-0.064111,-1.8253,0.25645,-4.3102e-09,-0.91266,0,0,0.33333,-0,-0,0.66667
0.2609,0.33691,0.7827,-0.24463,-2.6082,17.983,0.51059,-0.1702,-1.7871,0.68079,8.0561e-11,-0.89353,0,0,0.33333,1.9737e-16,0,0.66667
0.33415,0.77339,1.0025,0.41008,4.2038,15.323,-1.0962,0.36541,-1.4017,-1.4616,-1.5844e-11,-0.70086,0,0,0.33333,3.9475e-16,0,0.66667
0.46473,0.93001,1.3942,0.64502,5.9706,11.007,-2.3981,0.79936,-0.52053,-3.1975,3.2818e-13,-0.26027,0,0,0.33333,-3.9475e-16,0,0.66667
0.23436,0.72636,0.70307,0.33954,3.6932,19.008,-0.63658,0.21219,-1.5905,-0.84878,-1.584e-10,-0.79523,0,0,0.33333,-0,-0,0.66667
0.7275,0.094182,2.1825,-0.60873,-3.3174,3.9479,3.5428,-1.1809,-0.6833,4.7238,-2.137e-11,-0.34165,0,0,0.33333,-0,-0,0.66667
0.80719,0.53525,2.4216,0.052868,0.19037,2.0747,-0.3414,0.1138,-1.9903,-0.4552,8.4054e-12,-0.99514,0,0,0.33333,-0,-0,0.66667
0.79098,0.92435,2.3729,0.63652,2.7556,2.7789,-4.0278,1.3426,-0.5587,-5.3704,1.3046e-10,-0.27935,0,0,0.33333,-7.8949e-16,0,0.66667
0.71575,0.49834,2.1472,-0.0024972,-0.013156,3.8412,0.014299,-0.0047663,-2.0008,0.019065,-4.3485e-13,-1.0004,0,0,0.33333,2.0724e-15,0,0.66667
0.26964,0.72303,0.80893,0.33455,3.5663,17.672,-0.72166,0.24055,-1.6023,-0.96222,-8.487e-11,-0.80116,0,0,0.33333,-0,-0,0.66667
0.21046,0.52258,0.63137,0.033873,0.36876,19.891,-0.057031,0.01901,-1.9954,-0.076041,-2.7469e-11,-0.99772,0,0,0.33333,-0,-0,0.66667
0.10913,0.33713,0.32738,-0.24431,-2.7694,23.882,0.21329,-0.071095,-1.7882,0.28438,-3.8197e-09,-0.89411,0,0,0.33333,-9.8686e-17,0,0.66667
0.39668,0.4187,1.19,-0.12195,-1.1639,13.04,0.387,-0.129,-1.9464,0.516,2.1227e-12,-0.97321,0,0,0.33333,-0,-0,0.66667
0.087267,0.25741,0.2618,-0.36388,-4.171,24.761,0.25404,-0.084679,-1.5289,0.33872,-2.7879e-10,-0.76444,0,0,0.33333,1.9737e-16,0,0.66667
0.65539,0.69228,1.9662,0.28842,1.831,5.3214,-1.5122,0.50407,-1.7048,-2.0163,1.5218e-11,-0.85241,0,0,0.33333,-0,-0,0.66667
0.94983,0.2142,2.8495,-0.4287,-0.33487,0.53508,3.2575,-1.0858,-1.3468,4.3433,2.3748e-09,-0.67342,0,0,0.33333,1.6767e-16,0,0.66667
0.75563,0.7108,2.2669,0.31621,1.4762,3.1139,-1.9115,0.63716,-1.6441,-2.5487,1.2782e-10,-0.82207,0,0,0.33333,-7.8949e-16,0,0.66667
0.11689,0.275,0.35068,-0.33749,-3.8376,23.582,0.3156,-0.1052,-1.5948,0.4208,4.2196e-10,-0.79741,0,0,0.33333,-9.8686e-17,0,0.66667
0.020481,0.45033,0.061444,-0.074498,-0.85057,27.426,0.012209,-0.0040691,-1.9796,0.016279,7.4193e-07,-0.98981,0,0,0.33333,-0,-0,0.66667
0.33489,0.45488,1.0047,-0.067687,-0.68198,15.223,0.18134,-0.060447,-1.9829,0.24179,7.2199e-12,-0.99147,0,0,0.33333,-7.9133e-16,0,0.66667
0.99288,0.53825,2.9786,0.057381,-0.023506,0.036457,-0.45578,0.15193,-1.988,-0.6077,2.7301e-06,-0.994,0,0,0.33333,-0,-0,0.66667
0.31283,0.21314,0.9385,-0.43029,-4.4898,16.103,1.0769,-0.35896,-1.3422,1.4358,2.7204e-11,-0.67112,0,0,0.33333,-0,-0,0.66667
0.73751,0.49241,2.2125,-0.011388,-0.055681,3.3792,0.067191,-0.022397,-1.9994,0.089588,-8.1835e-12,-0.99972,0,0,0.33333,-7.8949e-16,0,0.66667
0.71653,0.9375,2.1496,0.65624,3.7421,4.2356,-3.7617,1.2539,-0.47005,-5.0157,5.4186e-12,-0.23502,0,0,0.33333,3.8398e-16,0,0.66667
0.57256,0.67636,1.7177,0.26453,1.9987,7.5103,-1.2117,0.4039,-1.7506,-1.6156,1.7253e-13,-0.87529,0,0,0.33333,7.8949e-16,0,0.66667
0.36765,0.69952,1.1029,0.29928,2.9591,14.092,-0.88022,0.29341,-1.6808,-1.1736,-7.5139e-12,-0.84041,0,0,0.33333,-0,-0,0.66667
0.20827,0.14151,0.6248,-0.53773,-6.0205,20.056,0.89593,-0.29864,-0.97117,1.1946,3.0028e-10,-0.48559,0,0,0.33333,-0,-0,0.66667
0.98,0.36891,2.94,-0.19664,0.01338,0.14983,1.5417,-0.51389,-1.8625,2.0556,2.5688e-07,-0.93124,0,0,0.33333,2.1593e-15,0,0.66667
0.065894,0.74339,0.19768,0.36508,4.1995,25.613,-0.19245,0.064151,-1.5261,-0.25661,3.8442e-09,-0.76304,0,0,0.33333,-9.8686e-17,0,0.66667
0.23623,0.81295,0.70868,0.46942,5.1521,18.969,-0.88712,0.29571,-1.2177,-1.1828,-1.6974e-10,-0.60887,0,0,0.33333,7.8949e-16,0,0.66667
0.3089,0.77446,0.9267,0.41169,4.3011,16.24,-1.0174,0.33913,-1.3973,-1.3565,-3.2094e-11,-0.69865,0,0,0.33333,-5.9212e-16,0,0.66667
0.9095,0.47248,2.7285,-0.041282,-0.0616,0.67261,0.30037,-0.10012,-1.9944,0.40049,-6.9479e-08,-0.99718,0,0,0.33333,-0,-0,0.66667
0.71337,0.74036,2.1401,0.36054,1.963,4.0169,-2.0576,0.68586,-1.5373,-2.7434,5.9546e-11,-0.76866,0,0,0.33333,-0,-0,0.66667
0.26537,0.87586,0.79612,0.56379,6.146,17.906,-1.1969,0.39897,-0.87122,-1.5959,-4.6429e-11,-0.43561,0,0,0.33333,-7.8949e-16,0,0.66667
0.1645,0.15509,0.4935,-0.51737,-5.8822,21.741,0.68086,-0.22695,-1.0489,0.90782,1.3106e-09,-0.52447,0,0,0.33333,-9.8686e-17,0,0.66667
0.8805,0.82132,2.6415,0.48199,1.1347,1.2742,-3.3951,1.1317,-1.1736,-4.5268,2.0085e-09,-0.58679,0,0,0.33333,1.579e-15,0,0.66667
0.79378,0.65352,2.3813,0.23028,0.90053,2.3582,-1.4624,0.48745,-1.8121,-1.9498,1.2136e-10,-0.90603,0,0,0.33333,2.3501e-16,0,0.66667
0.038387,0.32472,0.11516,-0.26292,-3.0158,26.709,0.080741,-0.026914,-1.7535,0.10765,-1.7177e-08,-0.87675,0,0,0.33333,-0,-0,0.66667
0.8793,0.76816,2.6379,0.40224,0.92774,1.206,-2.8295,0.94318,-1.4241,-3.7727,-6.069e-10,-0.71205,0,0,0.33333,-0,-0,0.66667
0.58794,0.79362,1.7638,0.44043,3.2899,7.1763,-2.0715,0.69052,-1.3096,-2.7621,-7.121e-13,-0.65481,0,0,0.33333,1.579e-15,0,0.66667
0.45754,0.80761,1.3726,0.46142,4.2106,11.113,-1.6889,0.56298,-1.2431,-2.2519,8.7153e-13,-0.62156,0,0,0.33333,3.9475e-16,0,0.66667
0.67385,0.025757,2.0216,-0.71136,-4.6186,5.2539,3.8348,-1.2783,-0.20106,5.1131,1.8652e-14,-0.10053,0,0,0.33333,-0,-0,0.66667
0.039443,0.69116,0.11833,0.28674,3.2927,26.667,-0.090478,0.030159,-1.7079,-0.12064,-2.6569e-08,-0.85393,0,0,0.33333,-9.8686e-17,0,0.66667
0.33032,0.82292,0.99096,0.48437,5.0136,15.49,-1.28,0.42666,-1.1656,-1.7067,-1.171e-11,-0.58278,0,0,0.33333,-0,-0,0.66667
0.088048,0.50142,0.26415,0.0021283,0.024098,24.714,-0.0014992,0.00049985,-2.0006,-0.0019988,1.9133e-07,-1.0003,0,0,0.33333,-0,-0,0.66667
0.68364,0.18775,2.0509,-0.46838,-2.827,4.7676,2.5616,-0.85386,-1.221,3.4155,-2.0424e-11,-0.61051,0,0,0.33333,3.158e-15,0,0.66667
0.39801,0.78264,1.194,0.42395,4.1132,13.082,-1.3499,0.44997,-1.3615,-1.7999,-3.2252e-13,-0.68077,0,0,0.33333,-0,-0,0.66667
0.47895,0.36755,1.4369,-0.19868,-1.7294,10.316,0.76125,-0.25375,-1.8594,1.015,-1.4744e-13,-0.92969,0,0,0.33333,3.9475e-16,0,0.66667
0.2898,0.83643,0.86941,0.50465,5.3861,16.976,-1.17,0.39,-1.0942,-1.56,-3.5961e-11,-0.54709,0,0,0.33333,-2.2315e-16,0,0.66667
0.78829,0.78435,2.3649,0.42652,1.7694,2.5906,-2.6898,0.8966,-1.3535,-3.5864,2.831e-10,-0.67673,0,0,0.33333,-0,-0,0.66667
0.046513,0.38134,0.13954,-0.17799,-2.0333,26.381,0.06623,-0.022077,-1.8878,0.088307,1.0595e-07,-0.94391,0,0,0.33333,-0,-0,0.66667
0.28113,0.51985,0.84338,0.029777,0.31175,17.202,-0.066969,0.022323,-1.9969,-0.089292,-8.3408e-12,-0.99843,0,0,0.33333,-0,-0,0.66667
0.5906,0.81796,1.7718,0.47693,3.5612,7.1297,-2.2534,0.75113,-1.1914,-3.0045,-8.8574e-13,-0.5957,0,0,0.33333,-0,-0,0.66667
0.79013,0.95734,2.3704,0.686,3.0273,2.8624,-4.3363,1.4454,-0.32607,-5.7817,3.7951e-11,-0.16304,0,0,0.33333,-0,-0,0.66667
0.6016,0.47447,1.8048,-0.038298,-0.27097,6.6496,0.18432,-0.061441,-1.9947,0.24576,-7.0437e-13,-0.99733,0,0,0.33333,-0,-0,0.66667
0.73049,0.70496,2.1915,0.30744,1.5715,3.6175,-1.7967,0.59889,-1.6633,-2.3956,8.1498e-11,-0.83166,0,0,0.33333,-0,-0,0.66667
0.023528,0.064396,0.070584,-0.65341,-7.7447,27.317,0.12299,-0.040994,-0.4825,0.16398,1.59e-06,-0.24125,0,0,0.33333,-0,-0,0.66667
0.25492,0.46422,0.76477,-0.053665,-0.57099,18.189,0.10944,-0.036482,-1.9899,0.14593,2.1309e-11,-0.99495,0,0,0.33333,-4.9343e-16,0,0.66667
0.042092,0.78866,0.12628,0.43298,5.0182,26.567,-0.1458,0.0486,-1.3332,-0.1944,9.3725e-10,-0.6666,0,0,0.33333,-0,-0,0.66667
0.50001,0.50244,1.5,0.0036639,0.030834,9.6246,-0.014656,0.0048853,-2.0011,-0.019541,1.7532e-13,-1.0005,0,0,0.33333,-0,-0,0.66667
0.98914,0.90718,2.9674,0.61078,0.038324,0.54238,-4.8332,1.6111,-0.67441,-6.4442,4.8285e-07,-0.33721,0,0,0.33333,-0,-0,0.66667
0.013531,0.76749,0.040592,0.40124,4.6469,27.708,-0.043432,0.014477,-1.4272,-0.057909,6.1779e-09,-0.71359,0,0,0.33333,8.6483e-18,0,0.66667
0.44088,0.33311,1.3226,-0.25033,-2.2903,11.57,0.88291,-0.2943,-1.7768,1.1772,-2.82e-14,-0.8884,0,0,0.33333,-3.9475e-16,0,0.66667
0.0047864,0.10515,0.014359,-0.59228,-6.9771,28.06,0.022679,-0.0075598,-0.75216,0.030239,-1.4491e-07,-0.37608,0,0,0.33333,-0,-0,0.66667
0.61289,0.027611,1.8387,-0.70858,-5.2646,6.7542,3.4743,-1.1581,-0.2152,4.6323,1.9895e-13,-0.1076,0,0,0.33333,-3.9475e-16,0,0.66667
0.18336,0.69746,0.55008,0.29619,3.289,20.965,-0.43448,0.14483,-1.6876,-0.5793,-1.3358e-10,-0.84382,0,0,0.33333,-0,-0,0.66667
0.71274,0.82461,2.1382,0.48692,2.7104,4.1323,-2.7764,0.92545,-1.1563,-3.7018,4.2502e-11,-0.57817,0,0,0.33333,-0,-0,0.66667
0.15965,0.53158,0.47895,0.047376,0.5265,21.873,-0.060508,0.020169,-1.9931,-0.080678,-3.1708e-10,-0.99654,0,0,0.33333,-3.9475e-16,0,0.66667
0.82858,0.085825,2.4857,-0.62126,-2.2232,2.1524,4.1181,-1.3727,-0.62793,5.4908,-8.1021e-10,-0.31396,0,0,0.33333,7.8949e-16,0,0.66667
0.20618,0.40713,0.61853,-0.1393,-1.5221,20.062,0.22977,-0.07659,-1.932,0.30636,7.2168e-11,-0.96599,0,0,0.33333,-0,-0,0.66667
0.35222,0.51707,1.0566,0.025604,0.25422,14.598,-0.072145,0.024048,-1.9969,-0.096194,-1.7976e-12,-0.99844,0,0,0.33333,-0,-0,0.66667
0.23058,0.27093,0.69174,-0.34361,-3.7457,19.153,0.63383,-0.21128,-1.5798,0.84511,1.6738e-10,-0.78989,0,0,0.33333,1.9737e-16,0,0.66667
0.80768,0.74374,2.4231,0.3656,1.3626,2.2074,-2.3623,0.78745,-1.5246,-3.1498,2.9133e-10,-0.76232,0,0,0.33333,1.1842e-15,0,0.66667
0.49027,0.032144,1.4708,-0.70178,-6.3463,10.253,2.7525,-0.9175,-0.24964,3.67,7.3275e-15,-0.12482,0,0,0.33333,-0,-0,0.66667
0.87383,0.81098,2.6215,0.46648,1.1565,1.3387,-3.261,1.087,-1.2274,-4.348,2.1329e-09,-0.61371,0,0,0.33333,-2.3685e-15,0,0.66667
0.13009,0.090971,0.39026,-0.61354,-7.1195,23.106,0.63851,-0.21284,-0.66199,0.85134,3.2245e-09,-0.331,0,0,0.33333,1.9737e-16,0,0.66667
0.49896,0.47162,1.4969,-0.042576,-0.35896,9.6588,0.16995,-0.05665,-1.9944,0.2266,-3.321e-14,-0.99722,0,0,0.33333,-0,-0,0.66667
0.77661,0.80209,2.3298,0.45314,1.9902,2.8247,-2.8153,0.93843,-1.2694,-3.7537,2.2809e-10,-0.63472,0,0,0.33333,7.8949e-16,0,0.66667
0.98121,0.96932,2.9436,0.70397,0.26562,0.74085,-5.526,1.842,-0.23896,-7.368,8.8329e-07,-0.11948,0,0,0.33333,-0,-0,0.66667
0.67338,0.02095,2.0201,-0.71858,-4.6786,5.2742,3.871,-1.2903,-0.16395,5.1613,1.0214e-14,-0.081976,0,0,0.33333,-0,-0,0.66667
0.183,0.38086,0.549,-0.1787,-1.9743,20.966,0.26163,-0.087209,-1.8864,0.34883,-2.4783e-11,-0.94322,0,0,0.33333,-0,-0,0.66667
0.75977,0.56098,2.2793,0.091473,0.41147,2.9406,-0.55599,0.18533,-1.9709,-0.74132,4.1606e-11,-0.98544,0,0,0.33333,-1.6777e-15,0,0.66667
0.074635,0.33789,0.22391,-0.24317,-2.7748,25.257,0.14519,-0.048397,-1.7898,0.19359,-2.495e-08,-0.89492,0,0,0.33333,-4.9343e-17,0,0.66667
0.76277,0.55075,2.2883,0.076118,0.33803,2.8799,-0.46448,0.15483,-1.979,-0.61931,3.9284e-11,-0.98949,0,0,0.33333,-0,-0,0.66667
0.82782,0.7945,2.4834,0.44176,1.5001,1.9532,-2.9255,0.97518,-1.306,-3.9007,6.4985e-10,-0.65302,0,0,0.33333,1.579e-15,0,0.66667
0.55921,0.024074,1.6776,-0.71389,-5.8486,8.2203,3.1937,-1.0646,-0.18788,4.2583,5.4179e-14,-0.093942,0,0,0.33333,-0,-0,0.66667
0.49272,0.55737,1.4782,0.086054,0.73242,9.8583,-0.33921,0.11307,-1.9736,-0.45228,3.8802e-14,-0.98682,0,0,0.33333,3.9475e-16,0,0.66667
0.93653,0.075036,2.8096,-0.63745,-0.837,0.91912,4.7759,-1.592,-0.55506,6.3678,-4.3197e-08,-0.27753,0,0,0.33333,-0,-0,0.66667
9.6951e-05,0.66354,0.00029085,0.2453,2.8159,28.246,-0.00019027,6.3493e-05,-1.7864,-0.00025366,1.0275e-07,-0.89322,0,0,0.33333,-0,-1.0289e-15,0.66667
0.0095669,0.8698,0.028701,0.55471,6.5093,27.869,-0.042454,0.014151,-0.90594,-0.056606,-7.2355e-08,-0.45297,0,0,0.33333,-1.8504e-17,0,0.66667
0.25195,0.53254,0.75585,0.048806,0.52015,18.302,-0.098374,0.032791,-1.9926,-0.13117,-2.3351e-11,-0.99628,0,0,0.33333,-0,-0,0.66667
0.50568,0.16472,1.517,-0.50291,-4.3303,9.6187,2.0345,-0.67816,-1.1003,2.7127,2.1649e-13,-0.55016,0,0,0.33333,-0,-0,0.66667
0.54042,0.17315,1.6212,-0.49027,-4.0013,8.5654,2.1196,-0.70654,-1.1446,2.8262,9.1016e-13,-0.57229,0,0,0.33333,-0,-0,0.66667
0.37129,0.02789,1.1139,-0.70817,-7.2817,14.168,2.1035,-0.70116,-0.21734,2.8047,-3.8503e-13,-0.10867,0,0,0.33333,-1.9737e-16,-1.5153e-16,0.66667
0.29271,0.66384,0.87813,0.24577,2.5685,16.793,-0.57551,0.19184,-1.785,-0.76734,-4.7507e-11,-0.89252,0,0,0.33333,-0,-0,0.66667
0.20237,0.94452,0.6071,0.66678,7.5921,20.324,-1.0795,0.35982,-0.41952,-1.4393,-5.3457e-11,-0.20976,0,0,0.33333,-0,-0,0.66667
0.80028,0.0095423,2.4008,-0.73569,-3.158,2.7667,4.7101,-1.57,-0.075288,6.2801,1.1376e-10,-0.037644,0,0,0.33333,3.158e-15,0,0.66667
0.31592,0.62313,0.94777,0.18469,1.8939,15.927,-0.46678,0.15559,-1.8795,-0.62237,-2.5245e-11,-0.93973,0,0,0.33333,-4.4409e-16,0,0.66667
0.49247,0.70933,1.4774,0.31399,2.703,9.9261,-1.237,0.41235,-1.6489,-1.6494,5.54e-14,-0.82446,0,0,0.33333,3.9475e-16,0,0.66667
0.81129,0.57736,2.4339,0.11603,0.40986,2.0179,-0.75309,0.25103,-1.9518,-1.0041,9.993e-11,-0.97592,0,0,0.33333,1.579e-15,0,0.66667
0.61236,0.76847,1.8371,0.40271,2.8532,6.4905,-1.9728,0.6576,-1.4229,-2.6304,1.75e-12,-0.71145,0,0,0.33333,-0,-0,0.66667
0.40861,0.58763,1.2258,0.13144,1.2396,12.632,-0.42967,0.14322,-1.9387,-0.57289,-1.4107e-12,-0.96937,0,0,0.33333,-0,-0,0.66667
0.1769,0.2461,0.53071,-0.38085,-4.2622,21.23,0.53899,-0.17966,-1.4845,0.71865,3.625e-10,-0.74227,0,0,0.33333,-2.9606e-16,0,0.66667
0.39765,0.54835,1.193,0.072522,0.69075,13.002,-0.23071,0.076903,-1.9805,-0.30761,-1.4367e-12,-0.99025,0,0,0.33333,7.8949e-16,0,0.66667
0.48521,0.072983,1.4556,-0.64053,-5.7756,10.356,2.4863,-0.82878,-0.54121,3.3151,-1.2035e-13,-0.2706,0,0,0.33333,-0,-0,0.66667
0.99058,0.50395,2.9718,0.005929,-0.0021294,0.04324,-0.046986,0.015669,-2,-0.062645,9.8455e-06,-1,0,0,0.33333,-0,-0,0.66667
0.2842,0.34423,0.85259,-0.23366,-2.4544,17.107,0.53124,-0.17708,-1.807,0.70832,5.4411e-11,-0.90348,0,0,0.33333,-7.8949e-16,0,0.66667
0.16564,0.37379,0.49692,-0.18931,-2.106,21.645,0.25086,-0.083621,-1.8732,0.33448,5.6938e-10,-0.93662,0,0,0.33333,1.9737e-16,0,0.66667
0.22058,0.77582,0.66173,0.41373,4.5553,19.551,-0.73007,0.24336,-1.3917,-0.97343,-2.3744e-10,-0.69586,0,0,0.33333,4.9343e-16,0,0.66667
0.21147,0.9348,0.6344,0.65219,7.3836,19.972,-1.1033,0.36778,-0.48797,-1.4711,-1.074e-10,-0.24399,0,0,0.33333,-5.4278e-16,0,0.66667
0.076048,0.51227,0.22814,0.018412,0.20893,25.194,-0.011202,0.0037338,-1.9985,-0.014936,-2.0313e-07,-0.99923,0,0,0.33333,-0,-0,0.66667
0.36491,0.34747,1.0947,-0.22879,-2.2588,14.171,0.66789,-0.22263,-1.8141,0.89053,8.3163e-12,-0.90706,0,0,0.33333,7.8949e-16,0,0.66667
0.28473,0.46319,0.8542,-0.055211,-0.57678,17.068,0.12576,-0.041921,-1.9893,0.16768,1.4956e-11,-0.99464,0,0,0.33333,-0,-0,0.66667
0.88759,0.059514,2.6628,-0.66073,-1.5961,1.4323,4.6916,-1.5639,-0.44836,6.2555,1.4131e-09,-0.22418,0,0,0.33333,-3.9475e-16,0,0.66667
0.78026,0.49029,2.3408,-0.014563,-0.059868,2.5451,0.090905,-0.030302,-1.9992,0.12121,1.2262e-11,-0.99962,0,0,0.33333,-7.8949e-16,0,0.66667
0.10906,0.92227,0.32719,0.63341,7.4046,23.934,-0.55266,0.18422,-0.57334,-0.73688,-6.4743e-09,-0.28667,0,0,0.33333,-1.9737e-16,-3.9449e-16,0.66667
0.8505,0.95279,2.5515,0.67918,2.1834,1.9229,-4.6212,1.5404,-0.35907,-6.1615,5.9982e-10,-0.17954,0,0,0.33333,1.579e-15,0,0.66667
0.1096,0.88191,0.3288,0.57287,6.6526,23.902,-0.50229,0.16743,-0.83355,-0.66971,2.9883e-09,-0.41678,0,0,0.33333,-0,-0,0.66667
0.72021,0.23833,2.1606,-0.39251,-2.1007,3.8924,2.2615,-0.75384,-1.452,3.0153,-6.8007e-11,-0.726,0,0,0.33333,7.8949e-16,0,0.66667
0.57282,0.33338,1.7185,-0.24993,-1.8855,7.497,1.1453,-0.38178,-1.7774,1.5271,-3.6371e-13,-0.88868,0,0,0.33333,-7.8949e-16,0,0.66667
0.086808,0.87481,0.26043,0.56221,6.552,24.8,-0.39044,0.13015,-0.87702,-0.52058,-4.0866e-08,-0.43851,0,0,0.33333,-2.6985e-16,0,0.66667
0.90533,0.45149,2.716,-0.072758,-0.11545,0.72122,0.52696,-0.17565,-1.981,0.70261,9.2156e-09,-0.99048,0,0,0.33333,-0,-0,0.66667
0.87457,0.84426,2.6237,0.51639,1.2986,1.3868,-3.6129,1.2043,-1.0533,-4.8172,-6.8053e-10,-0.52667,0,0,0.33333,-0,-0,0.66667
0.84385,0.23736,2.5316,-0.39396,-1.1947,1.6703,2.6596,-0.88653,-1.4481,3.5461,-4.9104e-10,-0.72406,0,0,0.33333,-0,-0,0.66667
0.36957,0.5191,1.1087,0.028647,0.28013,13.981,-0.084696,0.028232,-1.9964,-0.11293,-1.3794e-12,-0.99821,0,0,0.33333,-0,-0,0.66667
0.22295,0.43047,0.66885,-0.10429,-1.1296,19.412,0.18601,-0.062003,-1.9612,0.24801,6.1011e-11,-0.9806,0,0,0.33333,-0,-0,0.66667
0.99711,0.50527,2.9913,0.0079011,-0.0040666,0.012659,-0.063025,0.020955,-2,-0.08406,-8.0101e-05,-0.99999,0,0,0.33333,-0,-0,0.66667
0.81734,0.080668,2.452,-0.629,-2.3968,2.3355,4.1128,-1.3709,-0.59263,5.4838,-3.1354e-10,-0.29631,0,0,0.33333,-0,-0,0.66667
0.042128,0.96095,0.12638,0.69142,8.2218,26.582,-0.23303,0.077675,-0.29994,-0.3107,-1.453e-06,-0.14997,0,0,0.33333,4.9343e-17,0,0.66667
0.37328,0.13563,1.1198,-0.54655,-5.4952,13.998,1.6321,-0.54404,-0.9377,2.1762,1.5954e-13,-0.46885,0,0,0.33333,-0,-0,0.66667
0.81219,0.50778,2.4366,0.011666,0.040836,1.9887,-0.075797,0.025266,-1.9998,-0.10106,-1.9879e-10,-0.9999,0,0,0.33333,-0,-0,0.66667
0.52838,0.49377,1.5852,-0.0093479,-0.075399,8.7528,0.039514,-0.013171,-1.9998,0.052686,8.5695e-15,-0.99989,0,0,0.33333,1.579e-15,0,0.66667
0.24713,0.68265,0.74139,0.27397,2.9484,18.509,-0.54165,0.18055,-1.7334,-0.7222,-1.0771e-10,-0.86671,0,0,0.33333,5.9212e-16,0,0.66667
0.79289,0.23283,2.3787,-0.40076,-1.6187,2.4876,2.5421,-0.84735,-1.4283,3.3894,-2.8455e-10,-0.71416,0,0,0.33333,-0,-0,0.66667
0.26175,0.72137,0.78525,0.33205,3.5559,17.968,-0.69532,0.23177,-1.6085,-0.9271,-9.8032e-11,-0.80426,0,0,0.33333,-0,-0,0.66667
0.00039838,0.38209,0.0011951,-0.17686,-2.0249,28.234,0.00056326,-0.00018761,-1.8891,0.00075109,2.1288e-07,-0.94457,0,0,0.33333,-7.7099e-19,0,0.66667
0.23132,0.81532,0.69396,0.47298,5.2058,19.157,-0.87526,0.29175,-1.2052,-1.167,-1.8575e-10,-0.6026,0,0,0.33333,-0,-0,0.66667
0.99337,0.47712,2.9801,-0.034323,0.014532,0.031315,0.27277,-0.09092,-1.9954,0.36369,2.4766e-06,-0.9977,0,0,0.33333,-0,-0,0.66667
0.6562,0.28182,1.9686,-0.32727,-2.0816,5.3223,1.718,-0.57268,-1.6207,2.2907,-1.5069e-11,-0.81034,0,0,0.33333,-1.579e-15,0,0.66667
0.22067,0.98312,0.662,0.72468,8.2446,19.652,-1.2793,0.42643,-0.1324,-1.7057,-8.2089e-12,-0.066199,0,0,0.33333,-0,-0,0.66667
0.68614,0.8728,2.0584,0.55921,3.4064,4.7953,-3.0695,1.0232,-0.88909,-4.0927,9.948e-12,-0.44454,0,0,0.33333,9.8686e-16,-3.4122e-16,0.66667
0.68694,0.31488,2.0608,-0.27768,-1.62,4.5613,1.526,-0.50866,-1.7269,2.0346,-3.31e-11,-0.86345,0,0,0.33333,1.579e-15,0,0.66667
0.64074,0.58544,1.9222,0.12817,0.83399,5.6308,-0.65697,0.21899,-1.9419,-0.87596,6.9592e-12,-0.97093,0,0,0.33333,-7.8949e-16,0,0.66667
0.070549,0.94505,0.21165,0.66758,7.8902,25.457,-0.37678,0.12559,-0.41505,-0.50237,2.7288e-08,-0.20753,0,0,0.33333,-1.9737e-16,0,0.66667
0.24296,0.21133,0.72889,-0.43301,-4.721,18.704,0.84165,-0.28055,-1.333,1.1222,1.4988e-10,-0.6665,0,0,0.33333,-1.9737e-16,0,0.66667
0.87084,0.17019,2.6125,-0.49472,-1.2715,1.4079,3.4466,-1.1489,-1.1291,4.5954,-2.2309e-09,-0.56457,0,0,0.33333,-0,-0,0.66667
0.73474,0.14917,2.2042,-0.52624,-2.75,3.7077,3.0932,-1.0311,-1.0157,4.1243,-6.4012e-11,-0.50786,0,0,0.33333,-0,-0,0.66667
0.16782,0.72634,0.50345,0.33951,3.8019,21.578,-0.4558,0.15193,-1.59,-0.60773,-1.6415e-10,-0.79499,0,0,0.33333,-0,-0,0.66667
0.29859,0.30533,0.89577,-0.29201,-3.0472,16.585,0.69753,-0.23251,-1.697,0.93004,4.5625e-11,-0.84848,0,0,0.33333,3.9475e-16,0,0.66667
0.56272,0.36168,1.6882,-0.20748,-1.5896,7.771,0.93402,-0.31134,-1.8469,1.2454,-2.1927e-13,-0.92343,0,0,0.33333,7.8949e-16,0,0.66667
0.82645,0.99167,2.4793,0.73751,2.7912,2.3586,-4.8761,1.6254,-0.066061,-6.5015,-2.0318e-10,-0.03303,0,0,0.33333,9.7871e-16,0,0.66667
0.20052,0.16403,0.60155,-0.50395,-5.643,20.344,0.8084,-0.26947,-1.097,1.0779,4.2616e-10,-0.54848,0,0,0.33333,-0,-0,0.66667
0.10167,0.99874,0.305,0.74812,8.8824,24.246,-0.60846,0.20282,-0.010669,-0.81128,6.4642e-08,-0.0053343,0,0,0.33333,3.9475e-16,0,0.66667
0.38187,0.53458,1.1456,0.051867,0.50153,13.549,-0.15845,0.052817,-1.9907,-0.21127,-1.7346e-12,-0.99535,0,0,0.33333,-0,-0,0.66667
0.91235,0.24369,2.7371,-0.38447,-0.60795,0.82078,2.8062,-0.93539,-1.4743,3.7416,2.3289e-09,-0.73713,0,0,0.33333,-1.579e-15,0,0.66667
0.26051,0.52966,0.78154,0.044484,0.47172,17.977,-0.092709,0.030903,-1.9936,-0.12361,-1.4642e-11,-0.99681,0,0,0.33333,-1.9737e-16,0,0.66667
0.1083,0.56559,0.32491,0.098388,1.1104,23.907,-0.085247,0.028416,-1.9664,-0.11366,-2.0608e-08,-0.98321,0,0,0.33333,3.9475e-16,0,0.66667
0.055943,0.15873,0.16783,-0.51191,-5.9642,26.02,0.2291,-0.076367,-1.0687,0.30547,-7.2674e-08,-0.53434,0,0,0.33333,-0,-0,0.66667
0.35167,0.32482,1.055,-0.26277,-2.6288,14.65,0.73927,-0.24642,-1.7538,0.9857,1.2578e-11,-0.87688,0,0,0.33333,-0,-0,0.66667
0.037627,0.37532,0.11288,-0.18702,-2.1387,26.738,0.056296,-0.018765,-1.8765,0.075061,1.4108e-07,-0.93825,0,0,0.33333,-0,-0,0.66667
0.58303,0.57185,1.7491,0.10778,0.79215,7.1702,-0.50272,0.16757,-1.9583,-0.6703,8.1302e-13,-0.97913,0,0,0.33333,-0,-0,0.66667
0.67256,0.39057,2.0177,-0.16415,-0.98762,4.8544,0.8832,-0.2944,-1.904,1.1776,-1.8014e-11,-0.952,0,0,0.33333,-0,-0,0.66667
0.46048,0.89103,1.3815,0.58654,5.4131,11.098,-2.1607,0.72025,-0.77597,-2.881,4.754e-13,-0.38798,0,0,0.33333,7.8949e-16,0,0.66667
0.74112,0.92567,2.2234,0.6385,3.3511,3.7076,-3.7856,1.2619,-0.54975,-5.0475,2.1768e-11,-0.27487,0,0,0.33333,-0,-0,0.66667
0.50102,0.1426,1.5031,-0.53611,-4.6654,9.785,2.1488,-0.71627,-0.97787,2.8651,6.6835e-14,-0.48893,0,0,0.33333,-7.8949e-16,0,0.66667
0.70235,0.51993,2.1071,0.029896,0.16437,4.1388,-0.16798,0.055994,-1.9967,-0.22397,6.4126e-12,-0.99837,0,0,0.33333,-0,-0,0.66667
0.23064,0.34984,0.69192,-0.22524,-2.4396,19.13,0.4156,-0.13853,-1.8196,0.55413,1.0486e-10,-0.90982,0,0,0.33333,-0,-0,0.66667
0.74461,0.047222,2.2338,-0.67917,-3.56,3.6915,4.0457,-1.3486,-0.35919,5.3943,-1.0377e-11,-0.1796,0,0,0.33333,-0,-0,0.66667
0.50164,0.77911,1.5049,0.41867,3.5916,9.6911,-1.6801,0.56005,-1.3777,-2.2402,-1.0181e-13,-0.68885,0,0,0.33333,-0,-0,0.66667
0.70537,0.68015,2.1161,0.27022,1.4921,4.139,-1.5249,0.50829,-1.7404,-2.0332,4.8022e-11,-0.8702,0,0,0.33333,3.9475e-16,0,0.66667
0.4467,0.08029,1.3401,-0.62956,-5.9388,11.576,2.2498,-0.74993,-0.58999,2.9997,-4.8028e-13,-0.295,0,0,0.33333,-7.8949e-16,0,0.66667
0.50594,0.34805,1.5178,-0.22793,-1.9144,9.475,0.92255,-0.30752,-1.8154,1.2301,1.4166e-13,-0.9077,0,0,0.33333,-0,-0,0.66667
0.041535,0.68024,0.12461,0.27035,3.1014,26.583,-0.089833,0.029944,-1.7399,-0.11978,-7.4082e-09,-0.86993,0,0,0.33333,2.4672e-17,0,0.66667
0.48931,0.53802,1.4679,0.057029,0.48742,9.9632,-0.22324,0.074413,-1.9883,-0.29765,3.8053e-14,-0.99414,0,0,0.33333,-0,-0,0.66667
0.14229,0.87903,0.42686,0.56854,6.5433,22.619,-0.64717,0.21572,-0.85128,-0.8629,-8.8756e-10,-0.42564,0,0,0.33333,-0,-0,0.66667
0.1425,0.33311,0.42749,-0.25034,-2.8133,22.561,0.28538,-0.095126,-1.777,0.3805,-9.5207e-11,-0.88848,0,0,0.33333,-0,-0,0.66667
0.43335,0.40162,1.3001,-0.14758,-1.3556,11.797,0.51161,-0.17054,-1.9228,0.68215,4.6757e-13,-0.96138,0,0,0.33333,5.9212e-16,0,0.66667
0.57621,0.92844,1.7286,0.64267,5.0518,7.6705,-2.9625,0.9875,-0.5314,-3.95,-6.4171e-13,-0.2657,0,0,0.33333,-0,-0,0.66667
0.34305,0.49925,1.0291,-0.0011251,-0.011255,14.927,0.0030878,-0.0010293,-2.0013,0.004117,1.1378e-13,-1.0007,0,0,0.33333,-1.1842e-15,0,0.66667
0.16049,0.33873,0.48147,-0.2419,-2.7016,21.852,0.31058,-0.10353,-1.7921,0.41411,-1.9288e-11,-0.89604,0,0,0.33333,-0,-0,0.66667
0.74141,0.77551,2.2242,0.41326,2.0653,3.4676,-2.4512,0.81705,-1.3927,-3.2682,1.0786e-10,-0.69633,0,0,0.33333,-3.9475e-16,0,0.66667
0.96309,0.98507,2.8893,0.72761,0.60766,0.88513,-5.606,1.8687,-0.11689,-7.4747,-6.9876e-07,-0.058443,0,0,0.33333,-0,-0,0.66667
0.73364,0.45643,2.2009,-0.065352,-0.3243,3.4635,0.38356,-0.12785,-1.9847,0.51142,-2.2601e-11,-0.99234,0,0,0.33333,-0,-0,0.66667
0.077064,0.52718,0.23119,0.040764,0.46256,25.154,-0.025132,0.0083774,-1.9948,-0.033509,1.3346e-07,-0.99738,0,0,0.33333,-0,-0,0.66667
0.84091,0.1331,2.5227,-0.55035,-1.786,1.8786,3.7023,-1.2341,-0.92297,4.9364,-1.1873e-09,-0.46149,0,0,0.33333,-0,-0,0.66667
0.067514,0.3904,0.20254,-0.1644,-1.8726,25.539,0.088797,-0.029599,-1.9032,0.1184,-3.2125e-08,-0.95159,0,0,0.33333,-0,-0,0.66667
0.43631,0.89494,1.3089,0.5924,5.6256,11.889,-2.0678,0.68926,-0.75205,-2.757,8.0136e-13,-0.37602,0,0,0.33333,-0,-0,0.66667
0.92886,0.65588,2.7866,0.23382,0.26186,0.5479,-1.7375,0.57916,-1.8064,-2.3166,-3.3006e-08,-0.90322,0,0,0.33333,-2.3191e-15,0,0.66667
0.26318,0.68553,0.78954,0.2783,2.9683,17.903,-0.58594,0.19531,-1.7255,-0.78125,-8.7786e-11,-0.86273,0,0,0.33333,-5.4278e-16,0,0.66667
0.12795,0.10336,0.38386,-0.59497,-6.8941,23.185,0.60902,-0.20301,-0.74111,0.81203,3.0388e-09,-0.37055,0,0,0.33333,-0,-0,0.66667
0.76224,0.22871,2.2867,-0.40693,-1.8785,3.0526,2.4814,-0.82714,-1.4109,3.3085,-1.6623e-10,-0.70544,0,0,0.33333,1.579e-15,0,0.66667
0.92861,0.36518,2.7858,-0.20223,-0.22474,0.53317,1.5023,-0.50078,-1.854,2.0031,-3.5425e-08,-0.92701,0,0,0.33333,-0,-0,0.66667
0.32577,0.24551,0.97731,-0.38174,-3.9297,15.616,0.99486,-0.33162,-1.4823,1.3265,2.2212e-11,-0.74114,0,0,0.33333,-5.9212e-16,0,0.66667
0.23246,0.2141,0.69737,-0.42885,-4.6997,19.101,0.79751,-0.26584,-1.3465,1.0633,1.9234e-10,-0.67327,0,0,0.33333,-4.9343e-16,0,0.66667
0.18249,0.7706,0.54746,0.40591,4.5413,21.018,-0.59258,0.19753,-1.4136,-0.7901,-3.8911e-10,-0.70682,0,0,0.33333,-1.9737e-16,0,0.66667
0.96324,0.61619,2.8897,0.17428,0.054781,0.24332,-1.343,0.44767,-1.8916,-1.7907,-3.8036e-08,-0.94579,0,0,0.33333,7.8949e-16,0,0.66667
0.57663,0.98105,1.7299,0.72157,5.7484,7.7416,-3.3287,1.1096,-0.14849,-4.4382,-9.0816e-14,-0.074247,0,0,0.33333,-0,-0,0.66667
0.86009,0.31223,2.5803,-0.28165,-0.73846,1.3574,1.938,-0.64598,-1.7194,2.5839,-7.6562e-10,-0.8597,0,0,0.33333,-2.4672e-16,0,0.66667
0.30834,0.77585,0.92503,0.41378,4.3254,16.261,-1.0207,0.34023,-1.3913,-1.3609,-3.2398e-11,-0.69566,0,0,0.33333,1.9737e-16,0,0.66667
0.056436,0.24122,0.16931,-0.38818,-4.4775,25.992,0.17526,-0.058419,-1.4638,0.23368,-4.5596e-09,-0.7319,0,0,0.33333,-0,-0,0.66667
0.4538,0.85581,1.3614,0.53372,4.932,11.278,-1.9376,0.64588,-0.98706,-2.5835,8.7907e-13,-0.49353,0,0,0.33333,-0,-0,0.66667
0.20711,0.3319,0.62133,-0.25215,-2.7655,20.038,0.41778,-0.13926,-1.7734,0.55704,1.5392e-10,-0.8867,0,0,0.33333,-0,-0,0.66667
0.51898,0.38886,1.557,-0.16671,-1.3692,9.0576,0.69215,-0.23072,-1.9006,0.92287,1.3756e-13,-0.95032,0,0,0.33333,-0,-0,0.66667
0.53799,0.30862,1.614,-0.28707,-2.3048,8.5236,1.2355,-0.41183,-1.7072,1.6473,4.5042e-13,-0.85358,0,0,0.33333,1.5928e-16,0,0.66667
0.29429,0.54457,0.88286,0.066859,0.69413,16.712,-0.15741,0.052469,-1.9837,-0.20988,-1.5189e-11,-0.99183,0,0,0.33333,-0,-0,0.66667
0.30745,0.34045,0.92236,-0.23933,-2.4751,16.247,0.58866,-0.19622,-1.7967,0.78488,3.5263e-11,-0.89834,0,0,0.33333,2.884e-16,0,0.66667
0.024174,0.36262,0.072521,-0.20608,-2.3603,27.279,0.039853,-0.013284,-1.8483,0.053137,-1.7958e-07,-0.92414,0,0,0.33333,-0,-0,0.66667
0.4204,0.86712,1.2612,0.55069,5.2923,12.39,-1.8521,0.61736,-0.92184,-2.4694,1.0862e-12,-0.46092,0,0,0.33333,3.9475e-16,0,0.66667
0.32369,0.11956,0.97107,-0.57066,-5.9902,15.769,1.4777,-0.49258,-0.84218,1.9703,5.9429e-12,-0.42109,0,0,0.33333,1.9737e-16,0,0.66667
0.61949,0.2447,1.8585,-0.38296,-2.6667,6.2895,1.8979,-0.63263,-1.4786,2.5305,-3.1746e-12,-0.73928,0,0,0.33333,-7.8949e-16,0,0.66667
0.85976,0.64633,2.5793,0.2195,0.56989,1.3261,-1.5097,0.50324,-1.8288,-2.013,-7.7078e-10,-0.91439,0,0,0.33333,-0,-0,0.66667
0.49264,0.092421,1.4779,-0.61137,-5.4363,10.101,2.4095,-0.80316,-0.67165,3.2126,-9.8144e-14,-0.33583,0,0,0.33333,-7.8949e-16,0,0.66667
0.082708,0.71921,0.24812,0.32881,3.7638,24.94,-0.21757,0.072522,-1.6165,-0.29009,-2.2952e-10,-0.80825,0,0,0.33333,-0,-0,0.66667
0.93348,0.034588,2.8004,-0.69812,-1.0231,1.0451,5.2134,-1.7378,-0.26755,6.9512,-1.1873e-08,-0.13377,0,0,0.33333,-0,-1.5515e-16,0.66667
0.80833,0.59907,2.425,0.1486,0.53479,2.0765,-0.96096,0.32032,-1.9216,-1.2813,8.6408e-11,-0.96079,0,0,0.33333,-3.158e-15,0,0.66667
0.36552,0.88209,1.0966,0.57314,5.8197,14.284,-1.6759,0.55865,-0.83177,-2.2346,-2.256e-13,-0.41589,0,0,0.33333,7.8949e-16,0,0.66667
0.33073,0.072396,0.99219,-0.64141,-6.7545,15.554,1.6971,-0.56568,-0.53698,2.2627,8.7674e-13,-0.26849,0,0,0.33333,7.8949e-16,0,0.66667
0.93793,0.86542,2.8138,0.54812,0.64218,0.77531,-4.1128,1.3709,-0.93187,-5.4838,2.4771e-08,-0.46593,0,0,0.33333,-0,-0,0.66667
0.37489,0.79099,1.1247,0.43648,4.3332,13.888,-1.3091,0.43636,-1.3228,-1.7454,-2.6379e-12,-0.66138,0,0,0.33333,-0,-0,0.66667
0.6358,0.63864,1.9074,0.20796,1.3748,5.7799,-1.0578,0.3526,-1.8455,-1.4104,8.2316e-12,-0.92277,0,0,0.33333,-1.579e-15,0,0.66667
0.98534,0.328,2.956,-0.258,0.042608,0.15743,2.0338,-0.67793,-1.7631,2.7117,-6.067e-08,-0.88153,0,0,0.33333,-0,-0,0.66667
0.03674,0.65771,0.11022,0.23656,2.7106,26.775,-0.069529,0.023176,-1.8017,-0.092705,5.3852e-08,-0.90084,0,0,0.33333,-0,-0,0.66667
0.31463,0.0093527,0.94389,-0.73597,-7.9415,16.187,1.8525,-0.61749,-0.073971,2.47,3.0198e-13,-0.036985,0,0,0.33333,-1.579e-15,0,0.66667
0.23124,0.72638,0.69371,0.33958,3.6996,19.127,-0.62818,0.20939,-1.5899,-0.83757,-1.6407e-10,-0.79495,0,0,0.33333,-0,-0,0.66667
0.92237,0.61519,2.7671,0.17279,0.21401,0.57802,-1.275,0.425,-1.8939,-1.7,2.1313e-08,-0.94696,0,0,0.33333,-0,-0,0.66667
0.55114,0.35017,1.6534,-0.22475,-1.7584,8.1128,0.99093,-0.33031,-1.8203,1.3212,2.1927e-13,-0.91017,0,0,0.33333,-1.579e-15,0,0.66667
0.053714,0.80622,0.16114,0.45934,5.3287,26.105,-0.19738,0.065793,-1.2496,-0.26317,-1.2469e-08,-0.62481,0,0,0.33333,-9.8686e-17,0,0.66667
0.75525,0.52341,2.2657,0.035118,0.16061,3.022,-0.21218,0.070728,-1.9953,-0.28291,1.8202e-11,-0.99765,0,0,0.33333,-0,-0,0.66667
0.68408,0.71792,2.0523,0.32688,1.9325,4.6547,-1.7889,0.5963,-1.621,-2.3852,3.119e-11,-0.81052,0,0,0.33333,2.4672e-16,0,0.66667
0.66217,0.34227,1.9865,-0.23659,-1.4699,5.1311,1.2533,-0.41777,-1.8016,1.6711,-1.7645e-11,-0.90081,0,0,0.33333,-2.9606e-16,0,0.66667
0.95573,0.022927,2.8672,-0.71561,-0.7061,0.91023,5.4714,-1.8238,-0.1791,7.2952,-5.8984e-07,-0.089549,0,0,0.33333,-0,-0,0.66667
0.8746,0.64374,2.6238,0.21561,0.49283,1.1296,-1.5086,0.50286,-1.8346,-2.0114,7.8426e-10,-0.91731,0,0,0.33333,-1.579e-15,0,0.66667
0.75325,0.43548,2.2598,-0.096785,-0.44693,3.0697,0.58323,-0.19441,-1.9674,0.77764,-3.7414e-11,-0.98371,0,0,0.33333,-3.9475e-16,0,0.66667
0.22267,0.40135,0.668,-0.14798,-1.6048,19.427,0.2636,-0.087867,-1.9223,0.35147,8.0422e-11,-0.96116,0,0,0.33333,-0,-0,0.66667
0.13801,0.47717,0.41404,-0.034245,-0.38318,22.727,0.037811,-0.012604,-1.9957,0.050414,-1.359e-09,-0.99785,0,0,0.33333,-0,-0,0.66667
0.22089,0.46397,0.66267,-0.054052,-0.5856,19.489,0.095515,-0.031838,-1.99,0.12735,4.1119e-11,-0.995,0,0,0.33333,9.8686e-17,0,0.66667
0.20551,0.68147,0.61653,0.27221,2.9907,20.103,-0.44753,0.14918,-1.7367,-0.59671,-1.7403e-10,-0.86836,0,0,0.33333,-0,-0,0.66667
0.56796,0.424,1.7039,-0.11399,-0.86168,7.5979,0.51795,-0.17265,-1.9531,0.6906,-3.7181e-13,-0.97654,0,0,0.33333,-0,-0,0.66667
0.66304,0.12591,1.9891,-0.56114,-3.6293,5.3388,2.9765,-0.99216,-0.88114,3.9687,-3.7328e-12,-0.44057,0,0,0.33333,-0,-0,0.66667
0.52742,0.039493,1.5823,-0.69076,-5.9222,9.1175,2.9146,-0.97152,-0.30323,3.8861,1.279e-13,-0.15161,0,0,0.33333,-1.579e-15,0,0.66667
0.056349,0.29911,0.16905,-0.30134,-3.4572,25.991,0.13584,-0.045281,-1.6764,0.18112,-1.1094e-08,-0.8382,0,0,0.33333,-9.8686e-17,0,0.66667
0.36316,0.039103,1.0895,-0.69135,-7.1414,14.439,2.0086,-0.66952,-0.30039,2.6781,-3.646e-13,-0.1502,0,0,0.33333,-7.8949e-16,0,0.66667
0.96773,0.87059,2.9032,0.55588,0.27748,0.57296,-4.3035,1.4345,-0.90193,-5.7381,3.4042e-08,-0.45097,0,0,0.33333,1.579e-15,1.9931e-16,0.66667
0.69551,0.87182,2.0865,0.55772,3.3098,4.5814,-3.1032,1.0344,-0.89429,-4.1376,1.4285e-11,-0.44715,0,0,0.33333,-0,-0,0.66667
0.36974,0.69169,1.1092,0.28754,2.8357,14.015,-0.85051,0.2835,-1.7062,-1.134,-7.1045e-12,-0.85311,0,0,0.33333,-0,-0,0.66667
0.67163,0.61842,2.0149,0.17763,1.0722,4.8808,-0.95439,0.31813,-1.8883,-1.2725,1.874e-11,-0.94413,0,0,0.33333,-1.1842e-15,0,0.66667
0.26511,0.76073,0.79533,0.3911,4.1972,17.857,-0.82947,0.27649,-1.4561,-1.106,-9.43e-11,-0.72807,0,0,0.33333,-0,-0,0.66667
0.077478,0.81861,0.23243,0.47791,5.5349,25.161,-0.29622,0.098739,-1.1884,-0.39496,1.282e-08,-0.59418,0,0,0.33333,-0,-0,0.66667
0.52807,0.090709,1.5842,-0.61394,-5.1947,9.0277,2.5936,-0.86453,-0.6604,3.4581,3.7059e-13,-0.3302,0,0,0.33333,7.8949e-16,0,0.66667
0.28977,0.06578,0.86931,-0.65133,-7.0663,17.043,1.5099,-0.50329,-0.49188,2.0132,4.9792e-12,-0.24594,0,0,0.33333,-7.8949e-16,0,0.66667
0.48165,0.58499,1.445,0.12748,1.1027,10.215,-0.49122,0.16374,-1.942,-0.65496,1.0042e-13,-0.97102,0,0,0.33333,-7.8949e-16,0,0.66667
0.90199,0.6359,2.706,0.20385,0.34585,0.80098,-1.471,0.49032,-1.8517,-1.9613,3.3557e-09,-0.92587,0,0,0.33333,-1.579e-15,0,0.66667
0.65174,0.1193,1.9552,-0.57105,-3.8018,5.6229,2.9774,-0.99247,-0.84055,3.9699,-1.6489e-12,-0.42027,0,0,0.33333,-0,-0,0.66667
0.72332,0.28612,2.17,-0.32082,-1.6828,3.7769,1.8565,-0.61882,-1.6342,2.4753,-7.2917e-11,-0.81708,0,0,0.33333,-0,-0,0.66667
0.10259,0.07752,0.30776,-0.63372,-7.4189,24.189,0.52009,-0.17336,-0.57129,0.69345,-3.562e-10,-0.28564,0,0,0.33333,1.9737e-16,0,0.66667
0.47966,0.16321,1.439,-0.50519,-4.5066,10.431,1.9386,-0.64619,-1.0924,2.5847,-2.5824e-13,-0.54619,0,0,0.33333,-0,-0,0.66667
0.40434,0.72655,1.213,0.33982,3.2536,12.831,-1.0992,0.36641,-1.5894,-1.4656,-1.1207e-12,-0.79472,0,0,0.33333,-0,-0,0.66667
0.64686,0.2863,1.9406,-0.32055,-2.0842,5.5505,1.6588,-0.55293,-1.6347,2.2117,-1.1597e-11,-0.81733,0,0,0.33333,1.579e-15,0,0.66667
0.28774,0.79918,0.86321,0.44878,4.7714,17.032,-1.033,0.34434,-1.2832,-1.3774,-4.9301e-11,-0.64158,0,0,0.33333,-3.9475e-16,0,0.66667
0.38306,0.18867,1.1492,-0.46699,-4.6148,13.618,1.4311,-0.47703,-1.2253,1.9081,8.209e-13,-0.61263,0,0,0.33333,-0,-0,0.66667
0.98102,0.27259,2.9431,-0.34111,0.0038916,0.24577,2.6771,-0.89236,-1.5861,3.5694,-1.1479e-08,-0.79303,0,0,0.33333,1.579e-15,0,0.66667
0.11481,0.20952,0.34443,-0.43572,-4.9913,23.676,0.4002,-0.1334,-1.3245,0.5336,7.7148e-10,-0.66226,0,0,0.33333,9.8686e-17,0,0.66667
0.19991,0.41875,0.59972,-0.12187,-1.3348,20.304,0.1949,-0.064968,-1.9467,0.25987,6.3329e-11,-0.97335,0,0,0.33333,-0,-0,0.66667
0.23905,0.42839,0.71714,-0.10741,-1.1539,18.796,0.20541,-0.068468,-1.9586,0.27387,5.0495e-11,-0.97929,0,0,0.33333,1.9737e-16,0,0.66667
0.69665,0.5648,2.09,0.097198,0.54455,4.2757,-0.54171,0.18057,-1.9669,-0.72228,1.8428e-11,-0.98343,0,0,0.33333,1.579e-15,0,0.66667
0.71369,0.93119,2.1411,0.64679,3.7115,4.2843,-3.6929,1.231,-0.51246,-4.9238,6.751e-12,-0.25623,0,0,0.33333,-1.1842e-15,0,0.66667
0.78475,0.092771,2.3543,-0.61084,-2.696,2.8534,3.8349,-1.2783,-0.67423,5.1132,-1.1231e-10,-0.33711,0,0,0.33333,2.0724e-15,0,0.66667
0.38104,0.80416,1.1431,0.45624,4.5123,13.683,-1.3908,0.46359,-1.2595,-1.8544,-1.3061e-12,-0.62975,0,0,0.33333,-0,-0,0.66667
0.8524,0.41338,2.5572,-0.12993,-0.35278,1.3921,0.88602,-0.29534,-1.9397,1.1814,-5.2602e-10,-0.96984,0,0,0.33333,-0,-0,0.66667
0.69735,0.60291,2.092,0.15437,0.86539,4.2733,-0.86121,0.28707,-1.9148,-1.1483,2.8211e-11,-0.9574,0,0,0.33333,-0,-0,0.66667
0.71326,0.81707,2.1398,0.47561,2.6379,4.1108,-2.7138,0.90462,-1.1958,-3.6185,4.5584e-11,-0.59792,0,0,0.33333,1.579e-15,0,0.66667
0.82199,0.10694,2.466,-0.58959,-2.1633,2.2106,3.8771,-1.2924,-0.76329,5.1695,-5.204e-10,-0.38165,0,0,0.33333,-0,-0,0.66667
0.62892,0.28476,1.8868,-0.32287,-2.1885,6.0084,1.6245,-0.54149,-1.6298,2.1659,-6.368e-12,-0.81488,0,0,0.33333,1.579e-15,0,0.66667
0.42223,0.39104,1.2667,-0.16344,-1.5208,12.174,0.55206,-0.18402,-1.9049,0.73608,7.5701e-13,-0.95244,0,0,0.33333,7.8949e-16,0,0.66667
0.030799,0.44358,0.092396,-0.084627,-0.96583,27.011,0.020851,-0.0069508,-1.975,0.0278,-9.4531e-07,-0.9875,0,0,0.33333,-0,-0,0.66667
0.59546,0.31477,1.7864,-0.27785,-2.0122,6.8777,1.3236,-0.44119,-1.7264,1.7648,-1.6986e-12,-0.8632,0,0,0.33333,-0,-0,0.66667
0.56376,0.1086,1.6913,-0.5871,-4.6734,7.9678,2.6479,-0.88262,-0.77417,3.5305,9.035e-13,-0.38708,0,0,0.33333,-0,-0,0.66667
0.60081,0.042332,1.8024,-0.6865,-5.1994,7.0475,3.2997,-1.0999,-0.32365,4.3995,3.8858e-13,-0.16183,0,0,0.33333,-1.579e-15,0,0.66667
0.32285,0.21016,0.96856,-0.43476,-4.505,15.74,1.1229,-0.37431,-1.3275,1.4972,1.9921e-11,-0.66377,0,0,0.33333,-0,-0,0.66667
0.55488,0.28243,1.6646,-0.32636,-2.5562,8.0449,1.4487,-0.48291,-1.6219,1.9316,4.7351e-13,-0.81097,0,0,0.33333,-0,-0,0.66667
0.17166,0.64815,0.51497,0.22223,2.4699,21.413,-0.30517,0.10172,-1.8247,-0.40689,6.6885e-11,-0.91234,0,0,0.33333,-0,-0,0.66667
0.64986,0.42536,1.9496,-0.11196,-0.71227,5.3974,0.58207,-0.19402,-1.9547,0.77609,-7.8103e-12,-0.97736,0,0,0.33333,-7.8949e-16,0,0.66667
0.071673,0.80958,0.21502,0.46437,5.3768,25.39,-0.26626,0.088755,-1.2336,-0.35502,2.0867e-08,-0.61681,0,0,0.33333,1.4458e-16,0,0.66667
0.87508,0.94955,2.6252,0.67433,1.8201,1.5999,-4.7207,1.5736,-0.3832,-6.2943,4.8728e-09,-0.1916,0,0,0.33333,1.579e-15,0,0.66667
0.21614,0.28575,0.64841,-0.32137,-3.5232,19.701,0.55568,-0.18523,-1.6332,0.74091,1.9604e-10,-0.81658,0,0,0.33333,-0,-0,0.66667
0.29384,0.91009,0.88153,0.61514,6.6268,16.875,-1.446,0.48201,-0.65503,-1.9281,-9.6303e-12,-0.32751,0,0,0.33333,-0,-0,0.66667
0.88474,0.87537,2.6542,0.56306,1.3245,1.3238,-3.9853,1.3284,-0.87361,-5.3137,7.5236e-09,-0.4368,0,0,0.33333,-0,-0,0.66667
0.88359,0.66685,2.6508,0.25028,0.52878,1.0374,-1.7691,0.58971,-1.7767,-2.3589,1.6123e-09,-0.88833,0,0,0.33333,1.579e-15,0,0.66667
0.83627,0.8254,2.5088,0.4881,1.5969,1.8739,-3.2655,1.0885,-1.1522,-4.3539,9.5465e-10,-0.57608,0,0,0.33333,-0,-0,0.66667
0.32694,0.67756,0.98081,0.26634,2.7187,15.541,-0.6966,0.2322,-1.7477,-0.9288,-2.3759e-11,-0.87386,0,0,0.33333,-0,-0,0.66667
0.90234,0.30937,2.707,-0.28594,-0.49489,0.84555,2.0641,-0.68804,-1.7098,2.7522,-1.7315e-10,-0.85488,0,0,0.33333,-1.3118e-15,0,0.66667
0.7718,0.9036,2.3154,0.6054,2.8143,3.0791,-3.738,1.246,-0.69726,-4.984,1.0702e-10,-0.34863,0,0,0.33333,-1.7764e-15,0,0.66667
0.65808,0.3206,1.9742,-0.2691,-1.694,5.2457,1.4167,-0.47225,-1.7425,1.889,-1.6311e-11,-0.87127,0,0,0.33333,-0,-0,0.66667
0.8998,0.67711,2.6994,0.26566,0.47132,0.85986,-1.9124,0.63745,-1.7485,-2.5498,-1.8599e-09,-0.87423,0,0,0.33333,7.8949e-16,0,0.66667
0.78313,0.19468,2.3494,-0.45798,-1.9577,2.7115,2.8693,-0.95642,-1.2544,3.8257,-2.7753e-10,-0.62718,0,0,0.33333,-0,-0,0.66667
0.42475,0.25533,1.2742,-0.367,-3.4466,12.15,1.2471,-0.41569,-1.5213,1.6627,-4.4431e-13,-0.76066,0,0,0.33333,-0,-0,0.66667
0.32426,0.30159,0.97277,-0.29762,-3.0496,15.646,0.77203,-0.25734,-1.6846,1.0294,2.558e-11,-0.84229,0,0,0.33333,-3.9475e-16,0,0.66667
0.39388,0.39443,1.1816,-0.15835,-1.5172,13.143,0.49897,-0.16632,-1.9104,0.66529,2.8196e-12,-0.95519,0,0,0.33333,3.9475e-16,0,0.66667
0.061412,0.24962,0.18424,-0.37557,-4.3257,25.792,0.18452,-0.061506,-1.4998,0.24602,-1.5491e-09,-0.74991,0,0,0.33333,1.2336e-16,0,0.66667
0.36343,0.10731,1.0903,-0.58904,-6.0032,14.366,1.7126,-0.57087,-0.76573,2.2835,8.7708e-14,-0.38287,0,0,0.33333,-0,-0,0.66667
0.35304,0.7713,1.0591,0.40695,4.1072,14.646,-1.1494,0.38312,-1.4106,-1.5325,-8.5533e-12,-0.70531,0,0,0.33333,-0,-0,0.66667
0.86562,0.6549,2.5969,0.23236,0.57647,1.2543,-1.6091,0.53636,-1.8087,-2.1454,-1.9519e-09,-0.90434,0,0,0.33333,-1.7764e-15,0,0.66667
0.8887,0.57654,2.6661,0.11482,0.22422,0.91806,-0.8163,0.2721,-1.9527,-1.0884,-1.0933e-09,-0.97637,0,0,0.33333,-1.579e-15,0,0.66667
0.96305,0.81396,2.8892,0.47094,0.24349,0.49036,-3.6283,1.2094,-1.2121,-4.8378,-2.5863e-08,-0.60603,0,0,0.33333,-0,-0,0.66667
0.3282,0.027373,0.9846,-0.70894,-7.5469,15.684,1.8614,-0.62046,-0.21386,2.4819,-2.9854e-13,-0.10693,0,0,0.33333,-0,-0,0.66667
0.69332,0.95508,2.08,0.68263,4.1856,4.7739,-3.7862,1.2621,-0.34244,-5.0483,1.0587e-12,-0.17122,0,0,0.33333,7.8949e-16,0,0.66667
0.63307,0.5994,1.8992,0.1491,0.98859,5.8324,-0.75512,0.25171,-1.9208,-1.0068,6.2593e-12,-0.96042,0,0,0.33333,-0,-0,0.66667
0.24244,0.79486,0.72733,0.4423,4.8273,18.726,-0.85786,0.28595,-1.3037,-1.1438,-1.5115e-10,-0.65183,0,0,0.33333,-3.9475e-16,0,0.66667
0.86999,0.89016,2.61,0.58524,1.5739,1.532,-4.0732,1.3577,-0.7815,-5.4309,3.5582e-09,-0.39075,0,0,0.33333,-0,-0,0.66667
0.2141,0.29111,0.64231,-0.31333,-3.4367,19.778,0.53668,-0.17889,-1.6505,0.71557,1.8836e-10,-0.82523,0,0,0.33333,-0,-0,0.66667
0.74771,0.97281,2.2431,0.70922,3.7088,3.6723,-4.2423,1.4141,-0.21208,-5.6564,1.4881e-12,-0.10604,0,0,0.33333,-0,-1.7856e-16,0.66667
0.14466,0.96519,0.43399,0.69778,8.1434,22.558,-0.80755,0.26918,-0.2692,-1.0767,-4.323e-10,-0.1346,0,0,0.33333,-2.4672e-16,0,0.66667
0.10682,0.12218,0.32046,-0.56673,-6.5813,24.011,0.4843,-0.16143,-0.85869,0.64573,-9.4135e-09,-0.42935,0,0,0.33333,2.2204e-16,3.2108e-18,0.66667
0.72032,0.95738,2.161,0.68608,3.8958,4.1941,-3.9536,1.3179,-0.32618,-5.2714,3.0658e-12,-0.16309,0,0,0.33333,-0,-0,0.66667
0.52632,0.94254,1.579,0.66382,5.6753,9.1245,-2.795,0.93167,-0.43331,-3.7267,-1.108e-13,-0.21666,0,0,0.33333,-0,-0,0.66667
0.44292,0.27849,1.3287,-0.33226,-3.0492,11.53,1.1773,-0.39244,-1.6079,1.5698,-4.7817e-13,-0.80394,0,0,0.33333,2.9606e-16,0,0.66667
0.77818,0.95955,2.3345,0.68933,3.2003,3.0761,-4.2914,1.4305,-0.31024,-5.7218,2.2469e-11,-0.15512,0,0,0.33333,-7.8949e-16,0,0.66667
0.35874,0.71202,1.0762,0.31804,3.1731,14.413,-0.91275,0.30425,-1.6407,-1.217,-9.8411e-12,-0.82036,0,0,0.33333,6.0716e-16,0,0.66667
0.85335,0.49528,2.56,-0.007086,-0.018973,1.3597,0.048375,-0.016125,-1.9999,0.064499,1.5858e-09,-0.99994,0,0,0.33333,-0,-0,0.66667
0.96217,0.57067,2.8865,0.10601,0.033814,0.22605,-0.81601,0.272,-1.9596,-1.088,3.282e-07,-0.97982,0,0,0.33333,-0,-0,0.66667
0.97913,0.85427,2.9374,0.53141,0.10908,0.47296,-4.1625,1.3875,-0.99537,-5.55,8.7512e-08,-0.49769,0,0,0.33333,1.579e-15,0,0.66667
0.27763,0.48881,0.83288,-0.016783,-0.17608,17.332,0.037275,-0.012425,-1.9985,0.0497,3.6504e-12,-0.99927,0,0,0.33333,-0,-0,0.66667
0.41501,0.88573,1.245,0.5786,5.6107,12.589,-1.921,0.64033,-0.80904,-2.5613,1.0264e-12,-0.40452,0,0,0.33333,-7.8949e-16,0,0.66667
0.72501,0.30149,2.175,-0.29776,-1.5487,3.7272,1.7271,-0.57569,-1.6841,2.3027,-7.2552e-11,-0.84206,0,0,0.33333,7.8949e-16,0,0.66667
0.89487,0.35344,2.6846,-0.21984,-0.40833,0.88845,1.5738,-0.52461,-1.8277,2.0984,2.5769e-09,-0.91387,0,0,0.33333,-0,-0,0.66667
0.71131,0.15703,2.1339,-0.51445,-2.891,4.1895,2.9275,-0.97583,-1.0597,3.9033,-3.4621e-11,-0.52985,0,0,0.33333,-3.158e-15,0,0.66667
0.75813,0.89858,2.2744,0.59787,2.9237,3.3255,-3.6261,1.2087,-0.7287,-4.8348,6.7429e-11,-0.36435,0,0,0.33333,-7.8949e-16,0,0.66667
0.8834,0.36374,2.6502,-0.20439,-0.42823,1.0151,1.4445,-0.48149,-1.8508,1.926,3.2177e-09,-0.9254,0,0,0.33333,-0,-0,0.66667
0.36695,0.32603,1.1008,-0.26096,-2.576,14.107,0.76606,-0.25535,-1.7571,1.0214,7.9673e-12,-0.87854,0,0,0.33333,-0,-0,0.66667
0.54254,0.69403,1.6276,0.29104,2.3202,8.3903,-1.2632,0.42107,-1.6987,-1.6843,-5.8675e-13,-0.84937,0,0,0.33333,-0,-0,0.66667
0.53477,0.56825,1.6043,0.10238,0.81861,8.5682,-0.438,0.146,-1.9628,-0.584,-1.2243e-13,-0.98141,0,0,0.33333,1.579e-15,0,0.66667
0.64758,0.45064,1.9427,-0.074034,-0.47308,5.4484,0.38355,-0.12785,-1.9797,0.5114,-5.1059e-12,-0.98987,0,0,0.33333,-0,-0,0.66667
0.89518,0.59869,2.6856,0.14804,0.26989,0.85332,-1.0602,0.3534,-1.9222,-1.4136,-1.7876e-08,-0.96109,0,0,0.33333,-0,-0,0.66667
0.60083,0.0087298,1.8025,-0.73691,-5.6358,7.1045,3.542,-1.1807,-0.068754,4.7227,1.4766e-13,-0.034377,0,0,0.33333,-0,-0,0.66667
0.96994,0.18092,2.9098,-0.47863,-0.17463,0.45623,3.7139,-1.238,-1.1858,4.9519,-1.5063e-08,-0.59288,0,0,0.33333,7.8949e-16,0,0.66667
0.73214,0.71999,2.1964,0.32998,1.682,3.5971,-1.9327,0.64425,-1.6138,-2.577,8.742e-11,-0.80692,0,0,0.33333,-3.158e-15,0,0.66667
0.41529,0.77649,1.2459,0.41473,3.9505,12.489,-1.3779,0.45929,-1.3885,-1.8372,5.0226e-13,-0.69423,0,0,0.33333,-3.4622e-16,0,0.66667
0.58114,0.78705,1.7434,0.43058,3.2536,7.358,-2.0018,0.66727,-1.3409,-2.6691,-7.2764e-13,-0.67047,0,0,0.33333,-1.579e-15,0,0.66667
0.92232,0.76645,2.767,0.39967,0.54923,0.73817,-2.949,0.983,-1.4319,-3.932,-2.5933e-09,-0.71594,0,0,0.33333,-0,-0,0.66667
0.6185,0.055975,1.8555,-0.66604,-4.8529,6.5604,3.2956,-1.0985,-0.42252,4.3941,4.9205e-13,-0.21126,0,0,0.33333,-7.8949e-16,0,0.66667
0.70993,0.86622,2.1298,0.54933,3.1211,4.2546,-3.1199,1.04,-0.92659,-4.1598,2.5002e-11,-0.46329,0,0,0.33333,-0,-0,0.66667
0.66129,0.83645,1.9839,0.50468,3.2467,5.3278,-2.6699,0.88998,-1.0942,-3.5599,7.0328e-12,-0.54708,0,0,0.33333,1.1842e-15,0,0.66667
0.33615,0.16339,1.0084,-0.50492,-5.2133,15.29,1.3578,-0.4526,-1.0932,1.8104,7.8917e-12,-0.54662,0,0,0.33333,-0,-0,0.66667
0.20333,0.68331,0.61,0.27496,3.0243,20.187,-0.44728,0.14909,-1.732,-0.59637,-1.8867e-10,-0.86599,0,0,0.33333,9.8686e-17,0,0.66667
0.40781,0.60288,1.2234,0.15432,1.4576,12.662,-0.50346,0.16782,-1.9153,-0.67129,-1.6022e-12,-0.95764,0,0,0.33333,-0,-0,0.66667
0.15077,0.59032,0.45231,0.13548,1.5123,22.226,-0.16341,0.054469,-1.935,-0.21787,-1.386e-09,-0.96752,0,0,0.33333,9.398e-17,0,0.66667
0.82633,0.26684,2.479,-0.34973,-1.1715,1.8958,2.312,-0.77066,-1.5647,3.0826,-3.1296e-10,-0.78237,0,0,0.33333,-1.579e-15,0,0.66667
0.71046,0.78904,2.1314,0.43356,2.4082,4.1353,-2.4642,0.82141,-1.3313,-3.2857,4.9482e-11,-0.66563,0,0,0.33333,-0,-0,0.66667
0.40106,0.61814,1.2032,0.17722,1.6869,12.898,-0.56859,0.18953,-1.8881,-0.75812,-2.304e-12,-0.94407,0,0,0.33333,2.3747e-16,0,0.66667
0.17138,0.049424,0.51415,-0.67586,-7.7981,21.517,0.92665,-0.30888,-0.37573,1.2355,1.2567e-10,-0.18786,0,0,0.33333,1.9737e-16,3.8424e-16,0.66667
0.8758,0.63445,2.6274,0.20168,0.45468,1.1077,-1.413,0.47101,-1.8554,-1.884,-2.1111e-09,-0.92771,0,0,0.33333,-0,-0,0.66667
0.63906,0.89305,1.9172,0.58958,4.0541,5.9558,-3.0142,1.0047,-0.76377,-4.019,1.017e-13,-0.38188,0,0,0.33333,7.8949e-16,4.5561e-16,0.66667
0.9966,0.21687,2.9898,-0.4247,0.13374,0.25453,3.386,-1.1287,-1.3594,4.5147,-1.2457e-08,-0.67972,0,0,0.33333,-1.8262e-15,0,0.66667
0.1011,0.98751,0.30329,0.73126,8.6644,24.265,-0.59143,0.19714,-0.097962,-0.78857,2.7955e-08,-0.048981,0,0,0.33333,-0,-0,0.66667
0.24485,0.66684,0.73455,0.25026,2.6933,18.591,-0.4902,0.1634,-1.7768,-0.6536,-1.0618e-10,-0.88839,0,0,0.33333,-0,-0,0.66667
0.083655,0.23528,0.25096,-0.39709,-4.565,24.907,0.26575,-0.088582,-1.4386,0.35433,-4.2719e-09,-0.71931,0,0,0.33333,-0,-0,0.66667
0.74474,0.00090398,2.2342,-0.74864,-3.9994,3.7874,4.4604,-1.4868,-0.0080068,5.9472,2.9012e-12,-0.0040034,0,0,0.33333,-0,-0,0.66667
0.15958,0.2859,0.47873,-0.32115,-3.6027,21.898,0.40999,-0.13666,-1.6336,0.54665,2.0987e-10,-0.81678,0,0,0.33333,-3.9475e-16,0,0.66667
0.88166,0.70227,2.645,0.30341,0.66272,1.0954,-2.14,0.71334,-1.6719,-2.8534,-1.4409e-09,-0.83595,0,0,0.33333,-1.579e-15,0,0.66667
0.49148,0.99858,1.4744,0.74787,6.8042,10.259,-2.9405,0.98017,-0.011928,-3.9207,-6.7057e-14,-0.0059642,0,0,0.33333,-9.8686e-16,0,0.66667
0.52617,0.41923,1.5785,-0.12116,-0.98254,8.8301,0.50999,-0.17,-1.9471,0.67999,9.4591e-14,-0.97357,0,0,0.33333,-0,-0,0.66667
0.04252,0.78422,0.12756,0.42633,4.9384,26.55,-0.14502,0.04834,-1.3542,-0.19336,-4.876e-09,-0.6771,0,0,0.33333,9.8686e-17,0,0.66667
0.61405,0.85366,1.8422,0.53049,3.8109,6.5432,-2.606,0.86866,-0.99893,-3.4747,-4.9583e-13,-0.49946,0,0,0.33333,-0,-0,0.66667
0.22761,0.71451,0.68284,0.32177,3.508,19.261,-0.58591,0.1953,-1.632,-0.78121,-1.6467e-10,-0.81599,0,0,0.33333,-0,-0,0.66667
0.2135,0.71716,0.64051,0.32574,3.5766,19.803,-0.55638,0.18546,-1.6234,-0.74184,-2.0655e-10,-0.81168,0,0,0.33333,4.4409e-16,0,0.66667
0.89532,0.2267,2.686,-0.40995,-0.80835,1.0262,2.9363,-0.97877,-1.4022,3.9151,-1.2593e-09,-0.70108,0,0,0.33333,-0,-0,0.66667
0.88801,0.79504,2.664,0.44257,0.9546,1.1425,-3.144,1.048,-1.3031,-4.192,1.0893e-09,-0.65156,0,0,0.33333,-0,-0,0.66667
0.0052652,0.64798,0.015796,0.22198,2.5455,28.038,-0.00935,0.0031167,-1.8245,-0.012467,1.6396e-09,-0.91223,0,0,0.33333,-0,-0,0.66667
0.8323,0.28814,2.4969,-0.31778,-1.0197,1.7806,2.1159,-0.70532,-1.6408,2.8213,-1.4917e-10,-0.82041,0,0,0.33333,-0,-0,0.66667
0.9023,0.90172,2.7069,0.60259,1.2193,1.1845,-4.3497,1.4499,-0.70917,-5.7996,1.0128e-08,-0.35458,0,0,0.33333,7.8949e-16,0,0.66667
0.51195,0.85414,1.5358,0.53122,4.5495,9.4468,-2.1756,0.72521,-0.99624,-2.9009,-3.6704e-13,-0.49812,0,0,0.33333,-0,-0,0.66667
0.65617,0.66839,1.9685,0.25258,1.5953,5.2851,-1.3259,0.44197,-1.7732,-1.7679,1.5313e-11,-0.88658,0,0,0.33333,-0,-0,0.66667
0.76779,0.41411,2.3034,-0.12883,-0.56171,2.7949,0.79133,-0.26378,-1.941,1.0551,-5.8449e-11,-0.97049,0,0,0.33333,-0,-0,0.66667
0.68544,0.83276,2.0563,0.49915,3.0134,4.7532,-2.7371,0.91236,-1.1139,-3.6494,1.755e-11,-0.55694,0,0,0.33333,7.8949e-16,0,0.66667
0.45912,0.97478,1.3773,0.71217,6.7038,11.242,-2.6158,0.87192,-0.19653,-3.4877,4.5963e-14,-0.098267,0,0,0.33333,-0,-0,0.66667
0.57345,0.11401,1.7204,-0.57899,-4.5266,7.6878,2.6562,-0.88539,-0.80754,3.5416,1.0454e-12,-0.40377,0,0,0.33333,-0,-0,0.66667
0.57406,0.77051,1.7222,0.40576,3.0971,7.5403,-1.8635,0.62115,-1.4141,-2.4846,-7.1787e-13,-0.70706,0,0,0.33333,-7.8949e-16,0,0.66667
0.84213,0.47502,2.5264,-0.037463,-0.10894,1.5225,0.25239,-0.084129,-1.9953,0.33652,-5.3984e-10,-0.99763,0,0,0.33333,-0,-0,0.66667
0.24044,0.97903,0.72133,0.71854,8.0896,18.905,-1.3821,0.46071,-0.16367,-1.8429,-4.7741e-12,-0.081834,0,0,0.33333,3.9475e-16,0,0.66667
0.75723,0.56479,2.2717,0.097187,0.44179,2.9914,-0.58874,0.19625,-1.9669,-0.78499,4.0221e-11,-0.98343,0,0,0.33333,-0,-0,0.66667
0.81234,0.75023,2.437,0.37534,1.3678,2.1387,-2.4392,0.81308,-1.5006,-3.2523,3.371e-10,-0.75032,0,0,0.33333,-0,-0,0.66667
0.79703,0.80607,2.3911,0.45911,1.842,2.4693,-2.9274,0.9758,-1.251,-3.9032,3.5271e-10,-0.62551,0,0,0.33333,-3.9475e-16,0,0.66667
0.80771,0.26664,2.4231,-0.35005,-1.3004,2.195,2.2619,-0.75396,-1.5636,3.0158,-2.5774e-10,-0.78182,0,0,0.33333,-9.5652e-16,0,0.66667
0.82928,0.93794,2.4878,0.65691,2.3726,2.1922,-4.3581,1.4527,-0.467,-5.8108,-1.3238e-10,-0.2335,0,0,0.33333,3.158e-15,0,0.66667
0.41752,0.65419,1.2525,0.23129,2.1696,12.348,-0.77253,0.25751,-1.8104,-1.03,-9.1466e-13,-0.90521,0,0,0.33333,-8.8818e-16,0,0.66667
0.61789,0.76972,1.8537,0.40459,2.8341,6.3457,-1.9999,0.66664,-1.4173,-2.6666,2.3865e-12,-0.70865,0,0,0.33333,7.8949e-16,0,0.66667
0.75525,0.51887,2.2657,0.028308,0.12945,3.0216,-0.17104,0.057012,-1.9965,-0.22805,1.1495e-11,-0.99824,0,0,0.33333,-0,-0,0.66667
0.76977,0.0099375,2.3093,-0.73509,-3.5774,3.2949,4.5268,-1.5089,-0.078284,6.0357,1.5403e-11,-0.039142,0,0,0.33333,-0,-0,0.66667
0.9586,0.017567,2.8758,-0.72365,-0.67491,0.90609,5.5496,-1.8498,-0.13734,7.3994,6.757e-07,-0.068672,0,0,0.33333,-5.4284e-15,0,0.66667
0.97508,0.037552,2.9252,-0.69367,-0.35129,0.75369,5.4111,-1.8037,-0.28896,7.2147,3.8311e-06,-0.14448,0,0,0.33333,-0,-0,0.66667
0.56473,0.92279,1.6942,0.63418,5.0777,7.9836,-2.8652,0.95506,-0.56955,-3.8202,-5.7332e-13,-0.28478,0,0,0.33333,-7.8949e-16,0,0.66667
0.46574,0.80396,1.3972,0.45595,4.1169,10.845,-1.6988,0.56627,-1.2607,-2.2651,7.3086e-13,-0.63033,0,0,0.33333,-3.9475e-16,0,0.66667
0.83553,0.050552,2.5066,-0.67417,-2.3669,2.1258,4.5063,-1.5021,-0.38325,6.0084,-2.0926e-10,-0.19163,0,0,0.33333,-7.8949e-16,0,0.66667
0.21996,0.088681,0.65988,-0.61698,-6.9292,19.636,1.0857,-0.3619,-0.64702,1.4476,1.0389e-10,-0.32351,0,0,0.33333,3.9475e-16,0,0.66667
0.7664,0.7811,2.2992,0.42165,1.9196,2.986,-2.5852,0.86174,-1.3693,-3.447,1.8884e-10,-0.68465,0,0,0.33333,2.2204e-16,0,0.66667
0.19201,0.95311,0.57603,0.67967,7.7844,20.725,-1.044,0.34801,-0.35684,-1.392,-1.0501e-10,-0.17842,0,0,0.33333,-0,-0,0.66667
0.59163,0.43464,1.7749,-0.098046,-0.70851,6.9296,0.46405,-0.15468,-1.9665,0.61874,-1.0935e-12,-0.98327,0,0,0.33333,-3.9475e-16,0,0.66667
0.60683,0.4064,1.8205,-0.1404,-0.98537,6.5225,0.6816,-0.2272,-1.9311,0.90881,-2.6996e-12,-0.96555,0,0,0.33333,1.579e-15,0,0.66667
0.44184,0.77908,1.3255,0.41861,3.8746,11.604,-1.4797,0.49323,-1.3775,-1.9729,1.0396e-12,-0.68876,0,0,0.33333,-7.8949e-16,0,0.66667
0.86455,0.66916,2.5937,0.25373,0.6379,1.2805,-1.7549,0.58497,-1.7704,-2.3399,-9.2568e-10,-0.88521,0,0,0.33333,-0,-0,0.66667
0.54348,0.82878,1.6304,0.49316,4.0067,8.4774,-2.1442,0.71474,-1.1347,-2.8589,-9.8677e-13,-0.56734,0,0,0.33333,-0,-0,0.66667
0.49273,0.55387,1.4782,0.080802,0.68763,9.8574,-0.31851,0.10617,-1.9763,-0.42468,-2.5258e-14,-0.98816,0,0,0.33333,7.8949e-16,0,0.66667
0.41813,0.22147,1.2544,-0.41779,-3.9689,12.395,1.3975,-0.46584,-1.3799,1.8633,-7.2897e-13,-0.68997,0,0,0.33333,1.579e-15,0,0.66667
0.062225,0.86446,0.18668,0.54669,6.3854,25.773,-0.27214,0.090714,-0.93741,-0.36286,-1.6597e-08,-0.4687,0,0,0.33333,-0,3.9788e-16,0.66667
0.36215,0.97278,1.0864,0.70917,7.3501,14.486,-2.0546,0.68487,-0.21227,-2.7395,2.4292e-13,-0.10613,0,0,0.33333,-0,-0,0.66667
0.092815,0.84327,0.27845,0.51491,5.9669,24.557,-0.38233,0.12744,-1.0587,-0.50977,1.5385e-08,-0.52934,0,0,0.33333,-3.7007e-17,0,0.66667
0.56564,0.81434,1.6969,0.47151,3.6815,7.8224,-2.1336,0.71121,-1.2103,-2.8449,-1.106e-12,-0.60515,0,0,0.33333,-1.579e-15,0,0.66667
0.6405,0.12523,1.9215,-0.56215,-3.8347,5.8928,2.8805,-0.96016,-0.87794,3.8406,-6.6058e-13,-0.43897,0,0,0.33333,-0,-0,0.66667
0.76778,0.55578,2.3033,0.083668,0.36396,2.7851,-0.51391,0.1713,-1.9752,-0.68521,5.2409e-11,-0.98762,0,0,0.33333,-0,-0,0.66667
0.63254,0.38361,1.8976,-0.17458,-1.1605,5.8531,0.88344,-0.29448,-1.8912,1.1779,-6.9594e-12,-0.94558,0,0,0.33333,1.579e-15,0,0.66667
0.18706,0.16559,0.56118,-0.50162,-5.647,20.862,0.75066,-0.25022,-1.1055,1.0009,5.1505e-10,-0.55274,0,0,0.33333,-0,-0,0.66667
0.75024,0.28735,2.2507,-0.31897,-1.5208,3.2219,1.9145,-0.63816,-1.6387,2.5526,-1.1902e-10,-0.81937,0,0,0.33333,-0,-0,0.66667
0.54886,0.83253,1.6466,0.49879,4.0201,8.3246,-2.1901,0.73005,-1.1151,-2.9202,-1.0296e-12,-0.55756,0,0,0.33333,-0,-0,0.66667
0.10217,0.51943,0.30651,0.029144,0.32911,24.151,-0.023822,0.0079405,-1.9963,-0.031762,-8.2659e-09,-0.99814,0,0,0.33333,-0,-0,0.66667
0.024827,0.7116,0.074481,0.3174,3.6544,27.254,-0.06304,0.021013,-1.6415,-0.084054,-7.9448e-10,-0.82076,0,0,0.33333,-0,-0,0.66667
0.29875,0.048527,0.89624,-0.67721,-7.3283,16.728,1.6185,-0.5395,-0.369,2.158,1.964e-12,-0.1845,0,0,0.33333,-3.9475e-16,0,0.66667
0.69002,0.60901,2.07,0.16351,0.93706,4.4439,-0.90259,0.30086,-1.9045,-1.2035,2.5607e-11,-0.95223,0,0,0.33333,1.579e-15,0,0.66667
0.93279,0.52742,2.7984,0.041127,0.040198,0.44674,-0.3069,0.1023,-1.9943,-0.40921,1.8052e-08,-0.99713,0,0,0.33333,-0,-0,0.66667
0.9665,0.089648,2.8995,-0.61553,-0.36942,0.67059,4.7592,-1.5864,-0.65338,6.3457,3.1964e-07,-0.32669,0,0,0.33333,2.3685e-15,0,0.66667
0.76455,0.44707,2.2936,-0.079398,-0.35006,2.8462,0.48563,-0.16188,-1.9776,0.64751,-4.3738e-11,-0.98879,0,0,0.33333,-0,-0,0.66667
0.29325,0.24457,0.87975,-0.38314,-4.0371,16.807,0.89884,-0.29961,-1.4782,1.1985,5.0288e-11,-0.73909,0,0,0.33333,7.6576e-16,0,0.66667
0.62207,0.93099,1.8662,0.64648,4.6588,6.447,-3.2172,1.0724,-0.51406,-4.2897,-6.3927e-13,-0.25703,0,0,0.33333,1.1842e-15,0,0.66667
0.2311,0.31647,0.69329,-0.2753,-2.9882,19.12,0.50896,-0.16965,-1.7309,0.67862,1.3995e-10,-0.86546,0,0,0.33333,-0,-0,0.66667
0.75069,0.24721,2.2521,-0.37919,-1.8214,3.2551,2.2772,-0.75907,-1.4897,3.0363,-1.3099e-10,-0.74486,0,0,0.33333,-1.9737e-16,0,0.66667
0.16587,0.0021379,0.4976,-0.74679,-8.7113,21.752,0.99095,-0.33032,-0.017565,1.3213,-1.3829e-09,-0.0087825,0,0,0.33333,-0,-0,0.66667
0.75647,0.56323,2.2694,0.094842,0.43238,3.0058,-0.57396,0.19132,-1.9688,-0.76528,3.8035e-11,-0.98439,0,0,0.33333,-3.158e-15,0,0.66667
0.86859,0.77441,2.6058,0.41161,1.0451,1.3492,-2.8602,0.95339,-1.3973,-3.8136,8.6481e-10,-0.69867,0,0,0.33333,-2.7518e-16,0,0.66667
0.51951,0.49522,1.5585,-0.0071758,-0.058679,9.0224,0.029823,-0.009941,-2,0.039764,7.9357e-14,-1,0,0,0.33333,1.3816e-15,0,0.66667
0.065635,0.96551,0.1969,0.69826,8.2888,25.654,-0.36664,0.12221,-0.26694,-0.48886,5.9991e-08,-0.13347,0,0,0.33333,-1.2336e-16,0,0.66667
0.44889,0.18768,1.3467,-0.46848,-4.3223,11.399,1.6824,-0.56079,-1.2207,2.2432,-1.1584e-12,-0.61033,0,0,0.33333,1.579e-15,0,0.66667
0.83783,0.79776,2.5135,0.44664,1.4293,1.8077,-2.9937,0.99789,-1.2899,-3.9916,6.2638e-10,-0.64497,0,0,0.33333,-1.579e-15,0,0.66667
0.17975,0.31887,0.53926,-0.27169,-3.0173,21.102,0.3907,-0.13023,-1.7373,0.52093,1.2046e-10,-0.86866,0,0,0.33333,3.9475e-16,0,0.66667
0.038559,0.64731,0.11568,0.22097,2.53,26.701,-0.068164,0.022721,-1.8259,-0.090885,-1.3611e-08,-0.91294,0,0,0.33333,-0,-0,0.66667
0.73269,0.46514,2.1981,-0.052295,-0.26029,3.4818,0.30653,-0.10218,-1.9909,0.40871,-1.7407e-11,-0.99546,0,0,0.33333,-7.8949e-16,0,0.66667
0.56304,0.50767,1.6891,0.011504,0.087568,7.7296,-0.051816,0.017272,-1.9998,-0.069088,5.7003e-15,-0.9999,0,0,0.33333,-0,-0,0.66667
0.042061,0.4233,0.12618,-0.11506,-1.3127,26.559,0.038715,-0.012905,-1.9522,0.05162,2.2459e-07,-0.97612,0,0,0.33333,-4.9343e-17,0,0.66667
0.98489,0.79755,2.9547,0.44633,-0.0074692,0.33401,-3.5166,1.1722,-1.2915,-4.6889,3.1686e-08,-0.64577,0,0,0.33333,-1.579e-15,0,0.66667
0.56933,0.96942,1.708,0.70413,5.662,7.9252,-3.2071,1.069,-0.23794,-4.2761,-1.5099e-13,-0.11897,0,0,0.33333,1.579e-15,0,0.66667
0.58516,0.34209,1.7555,-0.23686,-1.7447,7.1456,1.1088,-0.3696,-1.8011,1.4784,-1.1533e-12,-0.90054,0,0,0.33333,7.8949e-16,0,0.66667
0.78991,0.25661,2.3697,-0.36508,-1.4849,2.511,2.307,-0.76901,-1.5259,3.076,-2.491e-10,-0.76294,0,0,0.33333,-0,-0,0.66667
0.90263,0.44197,2.7079,-0.087045,-0.14341,0.75313,0.62856,-0.20952,-1.9733,0.83808,6.4434e-09,-0.98666,0,0,0.33333,-0,-0,0.66667
0.060751,0.48691,0.18225,-0.019642,-0.22338,25.808,0.0095462,-0.0031824,-1.9983,0.012728,-4.6374e-07,-0.99915,0,0,0.33333,9.8686e-17,0,0.66667
0.34851,0.42516,1.0455,-0.11226,-1.1195,14.736,0.313,-0.10433,-1.9546,0.41733,8.1899e-12,-0.97728,0,0,0.33333,-0,-0,0.66667
0.20009,0.85509,0.60028,0.53263,5.9817,20.368,-0.85261,0.2842,-0.99088,-1.1368,-3.9273e-10,-0.49544,0,0,0.33333,-0,-0,0.66667
0.46515,0.11181,1.3955,-0.58229,-5.3407,10.946,2.1668,-0.72228,-0.79388,2.8891,-4.6674e-13,-0.39694,0,0,0.33333,-0,-0,0.66667
0.091468,0.023298,0.2744,-0.71505,-8.4709,24.64,0.52324,-0.17441,-0.18201,0.69765,-2.3569e-08,-0.091003,0,0,0.33333,-0,2.9955e-16,0.66667
0.068086,0.34419,0.20426,-0.23372,-2.6685,25.518,0.1273,-0.042434,-1.8066,0.16974,-1.8812e-08,-0.90332,0,0,0.33333,1.9737e-16,0,0.66667
0.30089,0.64732,0.90267,0.22098,2.294,16.486,-0.53192,0.17731,-1.8261,-0.70923,-3.8127e-11,-0.91303,0,0,0.33333,-0,-0,0.66667
0.90435,0.165,2.713,-0.50251,-0.9369,1.0299,3.6355,-1.2118,-1.1021,4.8474,-2.7451e-10,-0.55106,0,0,0.33333,-0,-0,0.66667
0.97554,0.09895,2.9266,-0.60157,-0.22366,0.59603,4.6949,-1.565,-0.71323,6.2599,8.8322e-07,-0.35662,0,0,0.33333,-3.158e-15,0,0.66667
0.76372,0.42414,2.2912,-0.11379,-0.50418,2.8689,0.69522,-0.23174,-1.9536,0.92696,-5.5736e-11,-0.9768,0,0,0.33333,-0,-0,0.66667
0.00074091,0.7009,0.0022227,0.30134,3.4687,28.22,-0.0017862,0.00059536,-1.6769,-0.0023816,-4.441e-08,-0.83847,0,0,0.33333,-0,-0,0.66667
0.73522,0.5078,2.2056,0.011694,0.05765,3.4267,-0.068781,0.022927,-1.9997,-0.091708,7.1886e-12,-0.99986,0,0,0.33333,-3.158e-15,0,0.66667
0.021993,0.48901,0.065978,-0.016483,-0.18809,27.365,0.0028973,-0.00096745,-1.9984,0.0038622,-2.5472e-06,-0.9992,0,0,0.33333,-5.0716e-17,0,0.66667
0.16857,0.88915,0.5057,0.58373,6.6715,21.599,-0.78717,0.26239,-0.78792,-1.0496,-7.657e-10,-0.39396,0,0,0.33333,-0,-0,0.66667
0.010514,0.5907,0.031542,0.13605,1.5557,27.827,-0.011443,0.0038144,-1.9346,-0.015257,2.5802e-07,-0.96728,0,0,0.33333,-3.0551e-18,0,0.66667
0.14913,0.66125,0.44738,0.24188,2.7116,22.299,-0.28857,0.096189,-1.792,-0.38475,-6.2797e-10,-0.89598,0,0,0.33333,-0,-0,0.66667
0.68751,0.849,2.0625,0.52349,3.1561,4.7286,-2.8792,0.95975,-1.0263,-3.839,1.5418e-11,-0.51314,0,0,0.33333,-0,-0,0.66667
0.70202,0.66322,2.1061,0.24483,1.3624,4.2016,-1.375,0.45833,-1.7871,-1.8333,4.2787e-11,-0.89356,0,0,0.33333,-1.579e-15,0,0.66667
0.37108,0.62406,1.1132,0.18608,1.8237,13.944,-0.55241,0.18414,-1.8778,-0.73655,-6.4734e-12,-0.93888,0,0,0.33333,2.9606e-16,0,0.66667
0.73119,0.38961,2.1936,-0.16559,-0.83283,3.5374,0.96863,-0.32288,-1.902,1.2915,-5.2801e-11,-0.95098,0,0,0.33333,-0,-0,0.66667
0.8473,0.93495,2.5419,0.65242,2.1158,1.9265,-4.4224,1.4741,-0.48716,-5.8965,2.1858e-09,-0.24358,0,0,0.33333,1.7764e-15,0,0.66667
0.13036,0.34722,0.39107,-0.22917,-2.5821,23.039,0.23899,-0.079664,-1.8136,0.31866,-5.5632e-10,-0.90678,0,0,0.33333,-0,-0,0.66667
0.087407,0.31784,0.26222,-0.27324,-3.1156,24.749,0.19107,-0.063688,-1.7345,0.25475,-5.1922e-09,-0.86725,0,0,0.33333,1.9737e-16,0,0.66667
0.37192,0.38719,1.1158,-0.16922,-1.6561,13.912,0.5035,-0.16783,-1.8977,0.67133,5.9999e-12,-0.94886,0,0,0.33333,-0,-0,0.66667
0.40388,0.36851,1.2117,-0.19723,-1.8736,12.805,0.63728,-0.21243,-1.8618,0.8497,2.1651e-12,-0.93091,0,0,0.33333,-0,-0,0.66667
0.2764,0.26887,0.82921,-0.3467,-3.6835,17.422,0.76664,-0.25555,-1.572,1.0222,7.4415e-11,-0.78599,0,0,0.33333,3.9475e-16,0,0.66667
0.75417,0.94955,2.2625,0.67432,3.4141,3.4993,-4.0684,1.3561,-0.38268,-5.4246,1.7458e-11,-0.19134,0,0,0.33333,-0,-0,0.66667
0.32179,0.38059,0.96536,-0.17911,-1.8282,15.712,0.46108,-0.15369,-1.8859,0.61477,2.1782e-11,-0.94293,0,0,0.33333,-0,-0,0.66667
0.80014,0.32556,2.4004,-0.26167,-0.99562,2.2646,1.675,-0.55832,-1.756,2.2333,-1.5855e-10,-0.87802,0,0,0.33333,-0,-0,0.66667
0.91131,0.010434,2.7339,-0.73435,-1.4761,1.307,5.3538,-1.7846,-0.082064,7.1383,-1.1257e-07,-0.041032,0,0,0.33333,3.158e-15,0,0.66667
0.51315,0.34174,1.5394,-0.23739,-1.974,9.2558,0.97455,-0.32485,-1.8004,1.2994,1.0342e-13,-0.90022,0,0,0.33333,1.9737e-16,0,0.66667
0.42942,0.85161,1.2883,0.52741,5.0063,12.075,-1.8119,0.60395,-1.0106,-2.4158,1.1769e-12,-0.50529,0,0,0.33333,-0,-0,0.66667
0.091595,0.89346,0.27478,0.59018,6.8917,24.615,-0.43246,0.14415,-0.76117,-0.57662,6.5416e-09,-0.38058,0,0,0.33333,-0,4.4795e-16,0.66667
0.27368,0.57463,0.82103,0.11194,1.1788,17.485,-0.24509,0.081696,-1.9547,-0.32678,-3.4118e-11,-0.97736,0,0,0.33333,-0,-0,0.66667
0.88665,0.22596,2.6599,-0.41106,-0.88714,1.1266,2.9157,-0.97191,-1.3991,3.8876,6.8803e-10,-0.69954,0,0,0.33333,-0,-0,0.66667
0.24594,0.84764,0.73783,0.52147,5.7219,18.618,-1.026,0.342,-1.0335,-1.368,-1.0939e-10,-0.51674,0,0,0.33333,7.8949e-16,0,0.66667
0.62119,0.40113,1.8636,-0.14831,-1.0098,6.1418,0.73701,-0.24567,-1.9219,0.98268,-4.4613e-12,-0.96097,0,0,0.33333,7.8949e-16,0,0.66667
0.49501,0.13347,1.485,-0.5498,-4.8326,9.981,2.1772,-0.72574,-0.92488,2.903,-7.816e-14,-0.46244,0,0,0.33333,-0,-0,0.66667
0.094373,0.39387,0.28312,-0.15919,-1.8046,24.465,0.12019,-0.040063,-1.9098,0.16025,1.8252e-09,-0.95489,0,0,0.33333,-0,-0,0.66667
0.89937,0.2333,2.6981,-0.40005,-0.75061,0.97193,2.8783,-0.95945,-1.4302,3.8378,-6.512e-10,-0.71509,0,0,0.33333,-1.579e-15,0,0.66667
0.067771,0.42028,0.20331,-0.11958,-1.3604,25.527,0.064832,-0.021611,-1.9484,0.086442,3.7955e-08,-0.97422,0,0,0.33333,-0,-0,0.66667
0.6807,0.99542,2.0421,0.74312,4.7776,5.1378,-4.0468,1.3489,-0.036561,-5.3957,3.1086e-14,-0.018281,0,0,0.33333,-3.9475e-16,0,0.66667
0.972,0.03792,2.916,-0.69312,-0.40029,0.76959,5.3897,-1.7966,-0.29185,7.1863,3.5309e-06,-0.14593,0,0,0.33333,-0,-0,0.66667
0.70937,0.60707,2.1281,0.16061,0.86805,4.0057,-0.91144,0.30381,-1.9075,-1.2152,3.601e-11,-0.95377,0,0,0.33333,-0,-0,0.66667
0.32591,0.44267,0.97773,-0.085998,-0.87287,15.551,0.22422,-0.07474,-1.974,0.29896,1.0922e-11,-0.98702,0,0,0.33333,-7.8949e-16,0,0.66667
0.07344,0.089115,0.22032,-0.61633,-7.2393,25.336,0.36211,-0.1207,-0.64954,0.48281,1.0317e-07,-0.32477,0,0,0.33333,-0,-0,0.66667
0.57974,0.45462,1.7392,-0.068069,-0.50291,7.2573,0.3157,-0.10523,-1.9832,0.42093,-5.1428e-13,-0.99159,0,0,0.33333,-0,-0,0.66667
0.73352,0.54604,2.2006,0.069061,0.34289,3.4666,-0.40526,0.13509,-1.9828,-0.54035,2.4021e-11,-0.99141,0,0,0.33333,-1.579e-15,0,0.66667
0.35885,0.30163,1.0765,-0.29756,-2.9647,14.403,0.85423,-0.28474,-1.6852,1.139,1.0143e-11,-0.84258,0,0,0.33333,-3.9475e-16,0,0.66667
0.65375,0.45072,1.9613,-0.073922,-0.46524,5.2942,0.38661,-0.12887,-1.9801,0.51548,-5.9287e-12,-0.99007,0,0,0.33333,-0,-0,0.66667
0.56659,0.28236,1.6998,-0.32645,-2.5055,7.7079,1.4797,-0.49324,-1.6219,1.973,4.5142e-13,-0.81095,0,0,0.33333,-0,-0,0.66667
0.034106,0.81002,0.10232,0.46503,5.4069,26.888,-0.12688,0.042295,-1.2318,-0.16918,1.5826e-08,-0.6159,0,0,0.33333,1.2336e-17,0,0.66667
0.92069,0.71045,2.7621,0.31568,0.4255,0.67982,-2.3252,0.77505,-1.6458,-3.1002,-3.8936e-09,-0.82288,0,0,0.33333,1.579e-15,0,0.66667
0.38001,0.39284,1.14,-0.16074,-1.5609,13.626,0.48867,-0.16289,-1.9074,0.65155,4.509e-12,-0.95372,0,0,0.33333,-3.9475e-16,0,0.66667
0.3794,0.47358,1.1382,-0.039633,-0.38408,13.635,0.12029,-0.040098,-1.9946,0.16039,1.5823e-12,-0.99728,0,0,0.33333,-0,-0,0.66667
0.84636,0.95139,2.5391,0.67708,2.2319,1.9766,-4.5844,1.5281,-0.36951,-6.1126,7.8174e-10,-0.18475,0,0,0.33333,-1.579e-15,0,0.66667
0.48428,0.74198,1.4528,0.36298,3.172,10.206,-1.4062,0.46875,-1.5319,-1.875,2.7767e-13,-0.76593,0,0,0.33333,-3.9475e-16,0,0.66667
0.45107,0.58382,1.3532,0.12573,1.1305,11.205,-0.45372,0.15124,-1.9436,-0.60496,1.8041e-14,-0.9718,0,0,0.33333,-0,-0,0.66667
0.63986,0.077903,1.9196,-0.63315,-4.381,5.9814,3.241,-1.0803,-0.57445,4.3213,3.3462e-13,-0.28723,0,0,0.33333,-7.8949e-16,0,0.66667
0.21177,0.37721,0.63531,-0.18419,-2.0102,19.85,0.31205,-0.10402,-1.8798,0.41606,8.0375e-11,-0.93992,0,0,0.33333,7.8949e-16,0,0.66667
0.5283,0.65954,1.5849,0.2393,1.9448,8.7956,-1.0114,0.33713,-1.7969,-1.3485,-2.8288e-13,-0.89846,0,0,0.33333,-0,-0,0.66667
0.66857,0.73875,2.0057,0.35812,2.2153,5.0405,-1.9154,0.63848,-1.5436,-2.5539,1.9919e-11,-0.77178,0,0,0.33333,-0,-0,0.66667
0.53878,0.53461,1.6163,0.051909,0.41195,8.4429,-0.22374,0.07458,-1.9907,-0.29832,-8.1837e-14,-0.99533,0,0,0.33333,-0,-0,0.66667
0.70876,0.51033,2.1263,0.015493,0.083483,3.9951,-0.087845,0.029282,-1.9986,-0.11713,4.3222e-12,-0.99929,0,0,0.33333,-3.158e-15,0,0.66667
0.59854,0.27236,1.7956,-0.34145,-2.4716,6.825,1.635,-0.54499,-1.5851,2.18,-1.3882e-12,-0.79254,0,0,0.33333,7.8949e-16,0,0.66667
0.84141,0.97782,2.5242,0.71673,2.4755,2.1079,-4.8245,1.6082,-0.17334,-6.4327,2.8644e-13,-0.086672,0,0,0.33333,-0,-0,0.66667
0.87917,0.69178,2.6375,0.28767,0.64069,1.1149,-2.0233,0.67442,-1.706,-2.6977,-2.5164e-09,-0.85301,0,0,0.33333,-0,-0,0.66667
0.097839,0.91423,0.29352,0.62134,7.271,24.374,-0.48633,0.16211,-0.62708,-0.64844,-2.6018e-09,-0.31354,0,0,0.33333,-0,-0,0.66667
0.25859,0.81313,0.77578,0.46969,5.0928,18.125,-0.97167,0.32389,-1.2164,-1.2956,-9.7413e-11,-0.60819,0,0,0.33333,7.8949e-16,0,0.66667
0.054656,0.72675,0.16397,0.34013,3.9117,26.06,-0.14872,0.049573,-1.5883,-0.19829,-5.6947e-09,-0.79413,0,0,0.33333,-0,-0,0.66667
0.22889,0.72613,0.68668,0.3392,3.6997,19.216,-0.62112,0.20704,-1.5906,-0.82816,-1.6883e-10,-0.79532,0,0,0.33333,-0,-0,0.66667
0.72092,0.92251,2.1628,0.63376,3.5469,4.1153,-3.6551,1.2184,-0.57147,-4.8735,1.2032e-11,-0.28574,0,0,0.33333,1.579e-15,0,0.66667
0.078545,0.26805,0.23564,-0.34793,-3.9901,25.107,0.21863,-0.072875,-1.5695,0.2915,-8.6451e-10,-0.78473,0,0,0.33333,-0,-0,0.66667
0.15512,0.29818,0.46536,-0.30273,-3.3976,22.07,0.37568,-0.12523,-1.6739,0.50091,3.2825e-11,-0.83694,0,0,0.33333,-1.9737e-16,0,0.66667
0.77077,0.53238,2.3123,0.04857,0.20837,2.7238,-0.29949,0.09983,-1.9924,-0.39932,7.6704e-12,-0.99618,0,0,0.33333,3.158e-15,0,0.66667
0.44433,0.61235,1.333,0.16852,1.5297,11.435,-0.59903,0.19968,-1.8983,-0.79871,-8.9095e-14,-0.94914,0,0,0.33333,-0,-0,0.66667
0.29012,0.25853,0.87036,-0.36221,-3.8186,16.916,0.84067,-0.28022,-1.5331,1.1209,5.511e-11,-0.76654,0,0,0.33333,-0,-0,0.66667
0.64398,0.052056,1.932,-0.67192,-4.6418,5.9221,3.4616,-1.1539,-0.39438,4.6155,3.9035e-13,-0.19719,0,0,0.33333,-7.8949e-16,0,0.66667
0.88694,0.78263,2.6608,0.42394,0.91704,1.1359,-3.0081,1.0027,-1.3618,-4.0108,4.1605e-11,-0.68089,0,0,0.33333,-3.158e-15,0,0.66667
0.037605,0.21276,0.11282,-0.43086,-4.9946,26.746,0.12962,-0.043207,-1.3398,0.17283,-2.0164e-09,-0.6699,0,0,0.33333,-4.9343e-17,0,0.66667
0.69309,0.34974,2.0793,-0.22539,-1.2858,4.3953,1.2497,-0.41658,-1.8193,1.6663,-3.4303e-11,-0.90964,0,0,0.33333,1.579e-15,0,0.66667
0.66855,0.79927,2.0057,0.4489,2.8111,5.1062,-2.4009,0.8003,-1.283,-3.2012,1.42e-11,-0.64149,0,0,0.33333,-7.8949e-16,0,0.66667
0.86801,0.95452,2.604,0.68178,1.9481,1.6985,-4.7343,1.5781,-0.34651,-6.3124,1.5657e-09,-0.17325,0,0,0.33333,5.5105e-16,0,0.66667
0.19637,0.81264,0.58912,0.46895,5.2438,20.494,-0.73671,0.24557,-1.219,-0.98228,-3.9092e-10,-0.60948,0,0,0.33333,7.8949e-16,0,0.66667
0.71279,0.15627,2.1384,-0.5156,-2.885,4.1586,2.9401,-0.98004,-1.0557,3.9202,-3.605e-11,-0.52785,0,0,0.33333,3.158e-15,0,0.66667
0.1039,0.056099,0.3117,-0.66585,-7.8217,24.143,0.55346,-0.18449,-0.42346,0.73795,-1.3097e-08,-0.21173,0,0,0.33333,9.8686e-17,0,0.66667
0.056626,0.54676,0.16988,0.070139,0.79841,25.973,-0.031774,0.010591,-1.9817,-0.042365,-1.663e-07,-0.99087,0,0,0.33333,-9.8686e-17,0,0.66667
0.6808,0.40741,2.0424,-0.13889,-0.81596,4.6519,0.75644,-0.25215,-1.9321,1.0086,-1.882e-11,-0.96604,0,0,0.33333,-1.579e-15,0,0.66667
0.022635,0.96403,0.067904,0.69604,8.2919,27.354,-0.12604,0.042015,-0.27746,-0.16805,3.2775e-06,-0.13873,0,0,0.33333,3.7007e-17,0,0.66667
0.044299,0.56065,0.1329,0.090972,1.0372,26.468,-0.03224,0.010746,-1.9714,-0.042987,-6.7034e-07,-0.98571,0,0,0.33333,-4.9343e-17,0,0.66667
0.036953,0.65012,0.11086,0.22519,2.579,26.766,-0.06657,0.02219,-1.8196,-0.088761,4.2307e-10,-0.90979,0,0,0.33333,-4.9343e-17,0,0.66667
0.46541,0.98725,1.3962,0.73087,6.8493,11.058,-2.7212,0.90708,-0.1002,-3.6283,7.9048e-14,-0.0501,0,0,0.33333,-0,-0,0.66667
0.75787,0.97817,2.2736,0.71726,3.6278,3.4892,-4.3487,1.4496,-0.17025,-5.7983,4.2339e-12,-0.085123,0,0,0.33333,-0,-0,0.66667
0.9922,0.35965,2.9766,-0.21052,0.073868,0.093967,1.671,-0.55701,-1.8416,2.228,3.0519e-08,-0.9208,0,0,0.33333,-0,-0,0.66667
0.22661,0.051699,0.67982,-0.67245,-7.5781,19.405,1.2191,-0.40635,-0.39156,1.6254,3.1376e-11,-0.19578,0,0,0.33333,1.9737e-16,0,0.66667
0.79238,0.9928,2.3771,0.73919,3.2886,2.9041,-4.6858,1.5619,-0.05703,-6.2477,1.6062e-11,-0.028515,0,0,0.33333,1.579e-15,3.0106e-16,0.66667
0.79525,0.63474,2.3857,0.20211,0.78216,2.3198,-1.2858,0.4286,-1.8547,-1.7144,1.2104e-10,-0.92733,0,0,0.33333,-0,-0,0.66667
0.87224,0.73008,2.6167,0.34512,0.83191,1.2441,-2.4082,0.80274,-1.5761,-3.211,-4.0066e-10,-0.78806,0,0,0.33333,-0,-0,0.66667
0.31426,0.1988,0.94277,-0.4518,-4.7183,16.059,1.1359,-0.37862,-1.274,1.5145,2.3702e-11,-0.63699,0,0,0.33333,-7.8949e-16,0,0.66667
0.13293,0.97676,0.39878,0.71514,8.3921,23.019,-0.76048,0.25349,-0.1812,-1.014,-2.9797e-10,-0.0906,0,0,0.33333,-0,-0,0.66667
0.7967,0.4663,2.3901,-0.050555,-0.19223,2.2538,0.32222,-0.10741,-1.992,0.42962,2.622e-11,-0.99601,0,0,0.33333,3.9475e-16,0,0.66667
0.56746,0.72882,1.7024,0.34323,2.6342,7.6915,-1.5582,0.51938,-1.5806,-2.0775,-5.5744e-13,-0.79032,0,0,0.33333,1.579e-15,0,0.66667
0.41465,0.95374,1.244,0.68061,6.693,12.672,-2.2578,0.75258,-0.35214,-3.0103,2.6179e-13,-0.17607,0,0,0.33333,-7.8949e-16,0,0.66667
0.058642,0.28368,0.17593,-0.32448,-3.7265,25.9,0.15222,-0.050741,-1.6262,0.20296,5.7788e-09,-0.81312,0,0,0.33333,-0,-0,0.66667
0.0065569,0.5739,0.019671,0.11085,1.2669,27.986,-0.0058144,0.0019386,-1.9556,-0.0077523,6.9922e-07,-0.97782,0,0,0.33333,-0,-0,0.66667
0.31602,0.75669,0.94807,0.38504,3.9936,15.971,-0.97344,0.32448,-1.4728,-1.2979,-2.8718e-11,-0.73642,0,0,0.33333,-0,-0,0.66667
0.27146,0.081049,0.81438,-0.62843,-6.8762,17.707,1.3647,-0.45491,-0.59513,1.8196,1.7479e-11,-0.29757,0,0,0.33333,-0,-0,0.66667
0.47572,0.10702,1.4272,-0.58947,-5.3414,10.614,2.2434,-0.7478,-0.76376,2.9912,-3.0376e-13,-0.38188,0,0,0.33333,-7.8949e-16,0,0.66667
0.92361,0.70004,2.7708,0.30007,0.38208,0.64025,-2.2172,0.73905,-1.6796,-2.9562,2.4538e-09,-0.83978,0,0,0.33333,1.579e-15,0,0.66667
0.41668,0.22976,1.2501,-0.40536,-3.8524,12.438,1.3513,-0.45042,-1.4152,1.8017,-4.4564e-13,-0.70759,0,0,0.33333,-0,-0,0.66667
0.28788,0.10823,0.86365,-0.58766,-6.3351,17.082,1.3534,-0.45114,-0.77133,1.8046,1.8028e-11,-0.38566,0,0,0.33333,-3.9475e-16,0,0.66667
0.84525,0.91623,2.5357,0.62435,2.0276,1.9147,-4.2218,1.4073,-0.6139,-5.6291,4.2084e-10,-0.30695,0,0,0.33333,-0,-0,0.66667
0.30695,0.78329,0.92085,0.42494,4.4505,16.316,-1.0435,0.34783,-1.3585,-1.3913,-3.2646e-11,-0.67925,0,0,0.33333,-0,-0,0.66667
0.91558,0.72742,2.7468,0.34113,0.50412,0.75015,-2.4987,0.83289,-1.5858,-3.3315,1.3088e-09,-0.7929,0,0,0.33333,-0,-0,0.66667
0.86341,0.41234,2.5902,-0.13149,-0.32727,1.2414,0.90825,-0.30275,-1.9385,1.211,2.2687e-09,-0.96926,0,0,0.33333,3.158e-15,0,0.66667
0.63882,0.45407,1.9165,-0.068897,-0.44952,5.6699,0.3521,-0.11737,-1.9827,0.46947,-3.8743e-12,-0.99137,0,0,0.33333,7.8949e-16,0,0.66667
0.74768,0.11919,2.243,-0.57122,-2.8828,3.4969,3.4167,-1.1389,-0.84008,4.5556,-6.6908e-11,-0.42004,0,0,0.33333,1.1842e-15,0,0.66667
0.15732,0.51803,0.47197,0.02704,0.3007,21.965,-0.034032,0.011344,-1.9972,-0.045376,-2.5573e-11,-0.99859,0,0,0.33333,-0,-0,0.66667
0.60287,0.40279,1.8086,-0.14582,-1.032,6.6308,0.70327,-0.23442,-1.9246,0.9377,-2.4017e-12,-0.96232,0,0,0.33333,9.6798e-16,0,0.66667
0.32704,0.77317,0.98111,0.40975,4.2234,15.58,-1.072,0.35734,-1.4032,-1.4294,-1.9644e-11,-0.70158,0,0,0.33333,-0,-0,0.66667
0.48868,0.32935,1.466,-0.25597,-2.2062,10.024,1.0007,-0.33357,-1.7664,1.3343,-8.0491e-14,-0.88319,0,0,0.33333,-0,-0,0.66667
0.22539,0.050825,0.67616,-0.67376,-7.5986,19.452,1.2149,-0.40495,-0.38525,1.6198,3.3068e-11,-0.19262,0,0,0.33333,3.9475e-16,0,0.66667
0.90196,0.60304,2.7059,0.15455,0.25951,0.78014,-1.1152,0.37174,-1.9147,-1.4869,-5.4648e-09,-0.95734,0,0,0.33333,-0,-0,0.66667
0.41153,0.42271,1.2346,-0.11593,-1.0895,12.53,0.38167,-0.12722,-1.9515,0.50889,1.153e-12,-0.97574,0,0,0.33333,-0,-0,0.66667
0.47673,0.70617,1.4302,0.30926,2.7179,10.422,-1.1795,0.39316,-1.6592,-1.5726,3.8203e-13,-0.8296,0,0,0.33333,-0,-0,0.66667
0.7214,0.15836,2.1642,-0.51246,-2.7898,3.9713,2.9575,-0.98584,-1.067,3.9434,-4.6633e-11,-0.53352,0,0,0.33333,-0,-0,0.66667
0.1222,0.17644,0.36659,-0.48533,-5.5725,23.392,0.47445,-0.15815,-1.1621,0.6326,1.9504e-09,-0.58106,0,0,0.33333,-0,-0,0.66667
0.50307,0.68793,1.5092,0.28189,2.3854,9.5827,-1.1345,0.37816,-1.7185,-1.5126,-3.1752e-14,-0.85927,0,0,0.33333,-0,-0,0.66667
0.81315,0.36156,2.4394,-0.20766,-0.73237,2.0195,1.3508,-0.45028,-1.8465,1.8011,-1.034e-10,-0.92326,0,0,0.33333,-0,-0,0.66667
0.67734,0.69818,2.032,0.29728,1.7845,4.7959,-1.6109,0.53695,-1.6852,-2.1478,2.644e-11,-0.8426,0,0,0.33333,-0,-0,0.66667
0.32165,0.80098,0.96495,0.45147,4.6892,15.79,-1.1617,0.38724,-1.2746,-1.549,-1.9008e-11,-0.63731,0,0,0.33333,-0,-0,0.66667
0.71067,0.039029,2.132,-0.69146,-4.0464,4.4058,3.9312,-1.3104,-0.29966,5.2415,-1.8905e-12,-0.14983,0,0,0.33333,-0,-0,0.66667
0.93444,0.58484,2.8033,0.12727,0.12159,0.45016,-0.95138,0.31713,-1.9422,-1.2685,4.2275e-08,-0.97109,0,0,0.33333,-7.8949e-16,0,0.66667
0.89478,0.50953,2.6843,0.014295,0.02586,0.83205,-0.10232,0.034108,-1.9989,-0.13643,4.3483e-08,-0.99944,0,0,0.33333,-3.158e-15,0,0.66667
0.74223,0.14996,2.2267,-0.52505,-2.6734,3.5548,3.1177,-1.0392,-1.0196,4.1569,-7.9173e-11,-0.5098,0,0,0.33333,-0,-0,0.66667
0.2661,0.93073,0.7983,0.64609,7.1069,17.914,-1.3754,0.45847,-0.51617,-1.8339,-1.3935e-11,-0.25808,0,0,0.33333,1.9737e-16,0,0.66667
0.37249,0.86234,1.1175,0.54351,5.4667,14.024,-1.6196,0.53987,-0.94925,-2.1595,-1.4377e-13,-0.47462,0,0,0.33333,-4.4111e-16,0,0.66667
0.55842,0.31668,1.6753,-0.27499,-2.132,7.9196,1.2285,-0.40948,-1.7314,1.6379,2.5446e-13,-0.86571,0,0,0.33333,-0,-0,0.66667
0.38105,0.070133,1.1431,-0.6448,-6.516,13.788,1.9656,-0.6552,-0.52138,2.6208,-6.2239e-13,-0.26069,0,0,0.33333,-0,-0,0.66667
0.45575,0.84494,1.3672,0.51742,4.7612,11.205,-1.8865,0.62883,-1.0491,-2.5153,9.2504e-13,-0.52454,0,0,0.33333,1.579e-15,0,0.66667
0.79353,0.18086,2.3806,-0.47872,-1.9618,2.5491,3.039,-1.013,-1.1852,4.052,-3.3507e-10,-0.59258,0,0,0.33333,-0,-0,0.66667
0.10394,0.71371,0.31182,0.32057,3.6524,24.094,-0.26656,0.088853,-1.6347,-0.35541,1.7882e-09,-0.81733,0,0,0.33333,-0,-0,0.66667
0.973,0.92263,2.919,0.63395,0.29971,0.66215,-4.9346,1.6449,-0.57041,-6.5795,5.3736e-07,-0.28521,0,0,0.33333,-0,-0,0.66667
0.70462,0.8528,2.1139,0.52921,3.0425,4.3502,-2.9831,0.99437,-1.0042,-3.9775,2.5542e-11,-0.5021,0,0,0.33333,-0,-0,0.66667
0.86473,0.52076,2.5942,0.031139,0.076128,1.2051,-0.21542,0.071806,-1.996,-0.28722,7.415e-11,-0.998,0,0,0.33333,-0,-0,0.66667
0.78168,0.68811,2.345,0.28216,1.1758,2.6019,-1.7645,0.58816,-1.7183,-2.3526,1.4465e-10,-0.85917,0,0,0.33333,-0,-0,0.66667
0.43218,0.39892,1.2966,-0.15162,-1.3947,11.837,0.52421,-0.17474,-1.918,0.69894,5.4928e-13,-0.95901,0,0,0.33333,-3.9475e-16,0,0.66667
0.94251,0.66326,2.8275,0.24489,0.20055,0.43639,-1.8465,0.6155,-1.7866,-2.462,4.067e-08,-0.89328,0,0,0.33333,-0,-0,0.66667
0.25309,0.76368,0.75926,0.39553,4.2757,18.311,-0.80082,0.26694,-1.4432,-1.0678,-1.2194e-10,-0.72162,0,0,0.33333,-0,-0,0.66667
0.046248,0.68612,0.13875,0.27918,3.2027,26.394,-0.10329,0.034431,-1.7241,-0.13772,-1.9464e-08,-0.86205,0,0,0.33333,3.1518e-17,0,0.66667
0.096878,0.058385,0.29063,-0.66242,-7.7895,24.418,0.51339,-0.17113,-0.44019,0.68453,2.1263e-08,-0.22009,0,0,0.33333,-1.4803e-16,0,0.66667
0.20074,0.92202,0.60221,0.63304,7.1841,20.375,-1.0166,0.33886,-0.5747,-1.3555,-1.7536e-10,-0.28735,0,0,0.33333,-3.9475e-16,0,0.66667
0.53908,0.92003,1.6172,0.63004,5.2552,8.7173,-2.7171,0.90571,-0.58783,-3.6228,-4.412e-13,-0.29392,0,0,0.33333,-0,-0,0.66667
0.2236,0.96428,0.67081,0.69642,7.8833,19.529,-1.2458,0.41526,-0.2757,-1.661,-1.7106e-11,-0.13785,0,0,0.33333,1.9737e-16,0,0.66667
0.83532,0.38831,2.506,-0.16754,-0.51479,1.6538,1.1196,-0.3732,-1.8994,1.4928,-5.8916e-11,-0.94971,0,0,0.33333,-0,-0,0.66667
0.0093387,0.58342,0.028016,0.12514,1.4306,27.874,-0.0093483,0.0031161,-1.9437,-0.012464,-2.6517e-08,-0.97187,0,0,0.33333,1.2336e-17,0,0.66667
0.7459,0.015099,2.2377,-0.72735,-3.8469,3.7336,4.3403,-1.4468,-0.11832,5.787,-1.152e-12,-0.059162,0,0,0.33333,3.158e-15,0,0.66667
0.96901,0.0082624,2.907,-0.73761,-0.52604,0.86887,5.718,-1.906,-0.065802,7.624,-4.4276e-06,-0.032901,0,0,0.33333,-0,-0,0.66667
0.26718,0.74307,0.80155,0.36461,3.9005,17.772,-0.77934,0.25978,-1.5275,-1.0391,-9.0777e-11,-0.76376,0,0,0.33333,-0,-0,0.66667
0.62382,0.32965,1.8714,-0.25552,-1.7413,6.1088,1.2752,-0.42506,-1.7676,1.7002,-5.9138e-12,-0.88379,0,0,0.33333,7.8949e-16,0,0.66667
0.71478,0.52636,2.1443,0.039541,0.20907,3.8639,-0.22611,0.075369,-1.9946,-0.30147,1.0516e-11,-0.99731,0,0,0.33333,7.8949e-16,0,0.66667
0.32696,0.7978,0.98087,0.4467,4.6192,15.596,-1.1684,0.38947,-1.2902,-1.5579,-1.6536e-11,-0.64512,0,0,0.33333,-7.8194e-16,0,0.66667
0.43313,0.90443,1.2994,0.60665,5.7917,12.004,-2.102,0.70068,-0.69214,-2.8027,7.2453e-13,-0.34607,0,0,0.33333,9.8686e-16,0,0.66667
0.73441,0.54863,2.2032,0.072945,0.36107,3.4485,-0.42857,0.14286,-1.981,-0.57143,2.583e-11,-0.99051,0,0,0.33333,7.8949e-16,0,0.66667
0.13115,0.57227,0.39345,0.10841,1.2166,23,-0.11375,0.037915,-1.9577,-0.15166,-2.0158e-09,-0.97883,0,0,0.33333,-3.9475e-16,0,0.66667
0.14369,0.47577,0.43106,-0.036347,-0.40602,22.502,0.041781,-0.013927,-1.9953,0.055708,-4.9974e-10,-0.99764,0,0,0.33333,-0,-0,0.66667
0.37541,0.69567,1.1262,0.2935,2.8807,13.818,-0.88146,0.29382,-1.6939,-1.1753,-5.8463e-12,-0.84697,0,0,0.33333,-0,-0,0.66667
0.22841,0.19772,0.68523,-0.45343,-4.9894,19.262,0.82853,-0.27618,-1.2684,1.1047,2.0196e-10,-0.63421,0,0,0.33333,-0,-0,0.66667
0.30699,0.88371,0.92096,0.57556,6.1178,16.377,-1.4135,0.47117,-0.82174,-1.8847,-1.0711e-11,-0.41087,0,0,0.33333,-0,-0,0.66667
0.15007,0.072026,0.4502,-0.64196,-7.4299,22.333,0.77069,-0.2569,-0.53418,1.0276,1.6979e-09,-0.26709,0,0,0.33333,-0,-0,0.66667
0.096636,0.18496,0.28991,-0.47256,-5.4516,24.4,0.36533,-0.12178,-1.2067,0.48711,1.3052e-09,-0.60333,0,0,0.33333,-2.2204e-16,0,0.66667
0.91598,0.64756,2.748,0.22134,0.30969,0.6639,-1.6219,0.54064,-1.8254,-2.1626,-2.7792e-09,-0.91269,0,0,0.33333,-0,-0,0.66667
0.34589,0.11261,1.0377,-0.58109,-6.0033,14.98,1.608,-0.53599,-0.79905,2.144,1.6441e-12,-0.39953,0,0,0.33333,-3.9475e-16,0,0.66667
0.56597,0.13305,1.6979,-0.55042,-4.3412,7.8739,2.4922,-0.83072,-0.92261,3.3229,1.1022e-12,-0.46131,0,0,0.33333,-0,-0,0.66667
0.5472,0.55488,1.6416,0.082323,0.64464,8.1963,-0.36037,0.12012,-1.9762,-0.4805,5.6677e-14,-0.98811,0,0,0.33333,-3.9475e-16,0,0.66667
0.45036,0.74018,1.3511,0.36028,3.2848,11.297,-1.298,0.43268,-1.5382,-1.7307,7.1321e-13,-0.76911,0,0,0.33333,-0,-0,0.66667
0.74782,0.86528,2.2435,0.54792,2.749,3.4681,-3.2779,1.0926,-0.93239,-4.3706,7.9746e-11,-0.4662,0,0,0.33333,7.8949e-16,0,0.66667
0.33158,0.45399,0.99473,-0.069014,-0.6972,15.344,0.18307,-0.061023,-1.9825,0.24409,7.7807e-12,-0.99124,0,0,0.33333,-3.9475e-16,0,0.66667
0.89248,0.95819,2.6774,0.68728,1.614,1.4203,-4.9071,1.6357,-0.32029,-6.5428,1.2154e-08,-0.16015,0,0,0.33333,7.8949e-16,0,0.66667
0.068033,0.51241,0.2041,0.018622,0.21157,25.515,-0.010136,0.0033785,-1.9981,-0.013514,-1.3069e-07,-0.99904,0,0,0.33333,1.9737e-16,0,0.66667
0.57489,0.96135,1.7247,0.69202,5.4997,7.7578,-3.1827,1.0609,-0.29718,-4.2436,-1.4588e-13,-0.14859,0,0,0.33333,-7.8949e-16,-2.8543e-16,0.66667
0.33905,0.43135,1.0172,-0.10297,-1.0347,15.076,0.27931,-0.093103,-1.9622,0.37241,9.5866e-12,-0.98111,0,0,0.33333,-1.9737e-16,0,0.66667
0.3639,0.66764,1.0917,0.25147,2.4878,14.212,-0.73207,0.24402,-1.7746,-0.97609,-8.7468e-12,-0.8873,0,0,0.33333,-0,-0,0.66667
0.3051,0.37781,0.91529,-0.18329,-1.8942,16.324,0.44736,-0.14912,-1.8809,0.59649,3.0901e-11,-0.94045,0,0,0.33333,-0,-0,0.66667
0.60359,0.94863,1.8108,0.67295,5.0569,6.9589,-3.2495,1.0832,-0.3892,-4.3326,-4.5941e-13,-0.1946,0,0,0.33333,-0,-0,0.66667
0.23441,0.46749,0.70322,-0.048765,-0.5247,18.97,0.091448,-0.030483,-1.9929,0.12193,1.4457e-11,-0.99645,0,0,0.33333,5.181e-16,0,0.66667
0.29431,0.43836,0.88292,-0.092459,-0.96029,16.713,0.21769,-0.072563,-1.9706,0.29025,2.143e-11,-0.98532,0,0,0.33333,-0,-0,0.66667
0.28549,0.42049,0.85648,-0.11926,-1.2467,17.043,0.27238,-0.090794,-1.9488,0.36318,3.0524e-11,-0.97439,0,0,0.33333,-0,-0,0.66667
0.0067954,0.58364,0.020386,0.12547,1.4344,27.977,-0.0068206,0.0022737,-1.9434,-0.009094,2.3362e-07,-0.97172,0,0,0.33333,-0,-0,0.66667
0.37162,0.0048918,1.1149,-0.74266,-7.6728,14.181,2.2079,-0.73597,-0.039171,2.9439,1.4766e-13,-0.019585,0,0,0.33333,-0,-2.0848e-16,0.66667
0.048897,0.076676,0.14669,-0.63499,-7.4967,26.31,0.24839,-0.082798,-0.56597,0.33119,7.4102e-08,-0.28299,0,0,0.33333,9.8686e-17,0,0.66667
0.87438,0.14969,2.6231,-0.52546,-1.3287,1.4001,3.6756,-1.2252,-1.0186,4.9008,-2.7431e-10,-0.50932,0,0,0.33333,7.8949e-16,0,0.66667
0.72182,0.92676,2.1655,0.64014,3.5779,4.1041,-3.6965,1.2322,-0.54264,-4.9287,1.1154e-11,-0.27132,0,0,0.33333,-7.8949e-16,0,0.66667
0.59531,0.62135,1.7859,0.18202,1.3103,6.8468,-0.86688,0.28896,-1.8829,-1.1558,1.861e-12,-0.94143,0,0,0.33333,1.1842e-15,0,0.66667
0.74388,0.72732,2.2316,0.34099,1.6698,3.3638,-2.0292,0.6764,-1.5862,-2.7056,1.09e-10,-0.79308,0,0,0.33333,-0,-0,0.66667
0.90109,0.89498,2.7033,0.59247,1.2069,1.1826,-4.271,1.4237,-0.75134,-5.6946,1.4479e-08,-0.37567,0,0,0.33333,-0,-0,0.66667
0.69409,0.53893,2.0823,0.058402,0.32933,4.3286,-0.32429,0.1081,-1.9875,-0.43239,1.0903e-11,-0.99376,0,0,0.33333,-1.579e-15,0,0.66667
0.59076,0.78029,1.7723,0.42044,3.1163,7.0853,-1.987,0.66234,-1.3725,-2.6494,-3.4328e-13,-0.68623,0,0,0.33333,2.9606e-16,0,0.66667
0.12426,0.25482,0.37278,-0.36778,-4.1822,23.294,0.3656,-0.12187,-1.5197,0.48746,-1.7273e-10,-0.75984,0,0,0.33333,-0,-0,0.66667
0.40458,0.13421,1.2137,-0.54868,-5.3577,12.923,1.7759,-0.59196,-0.92952,2.3679,-1.0255e-12,-0.46476,0,0,0.33333,-0,-0,0.66667
0.57895,0.47578,1.7369,-0.036332,-0.26871,7.2769,0.16827,-0.056091,-1.9956,0.22437,-2.8298e-13,-0.9978,0,0,0.33333,-0,-0,0.66667
0.60284,0.39327,1.8085,-0.16009,-1.1338,6.6352,0.77208,-0.25736,-1.9081,1.0294,-2.4438e-12,-0.95406,0,0,0.33333,7.5581e-17,0,0.66667
0.96078,0.57742,2.8823,0.11613,0.041054,0.23863,-0.8926,0.29753,-1.9512,-1.1901,2.2461e-07,-0.97562,0,0,0.33333,-0,-0,0.66667
0.2055,0.25097,0.6165,-0.37355,-4.1294,20.121,0.61411,-0.2047,-1.5049,0.81881,2.7058e-10,-0.75246,0,0,0.33333,-0,-0,0.66667
0.66315,0.28458,1.9895,-0.32312,-2.0188,5.1501,1.7142,-0.57141,-1.629,2.2857,-1.8352e-11,-0.81451,0,0,0.33333,1.579e-15,0,0.66667
0.25643,0.71292,0.76929,0.31938,3.4281,18.166,-0.65519,0.2184,-1.6372,-0.87359,-1.0571e-10,-0.8186,0,0,0.33333,-1.9737e-16,0,0.66667
0.41776,0.90282,1.2533,0.60424,5.8617,12.513,-2.0194,0.67314,-0.70226,-2.6925,8.6975e-13,-0.35113,0,0,0.33333,-7.3691e-17,0,0.66667
0.97195,0.79455,2.9159,0.44182,0.12497,0.40024,-3.4354,1.1451,-1.3054,-4.5806,1.4671e-09,-0.65271,0,0,0.33333,1.579e-15,0,0.66667
0.33108,0.21938,0.99323,-0.42092,-4.3292,15.438,1.1149,-0.37162,-1.3711,1.4865,1.6758e-11,-0.68554,0,0,0.33333,-7.8949e-16,0,0.66667
0.36202,0.80588,1.0861,0.45882,4.6168,14.35,-1.3288,0.44295,-1.2516,-1.7718,-4.178e-12,-0.62578,0,0,0.33333,-5.9212e-16,0,0.66667
0.43957,0.88818,1.3187,0.58227,5.5022,11.775,-2.0476,0.68253,-0.79415,-2.7301,7.907e-13,-0.39708,0,0,0.33333,7.8949e-16,0,0.66667
0.040668,0.2298,0.122,-0.4053,-4.6882,26.623,0.13186,-0.043954,-1.4153,0.17582,4.3732e-09,-0.70764,0,0,0.33333,-0,-0,0.66667
0.39857,0.98348,1.1957,0.72522,7.2927,13.247,-2.3124,0.7708,-0.12916,-3.0832,-2.7978e-14,-0.064581,0,0,0.33333,1.7335e-15,0,0.66667
0.61899,0.75301,1.857,0.37952,2.6446,6.3006,-1.8793,0.62645,-1.4882,-2.5058,3.2012e-12,-0.7441,0,0,0.33333,-0,-0,0.66667
0.57808,0.34732,1.7342,-0.22902,-1.7087,7.3409,1.0591,-0.35305,-1.8144,1.4122,-8.1557e-13,-0.90722,0,0,0.33333,1.579e-15,0,0.66667
0.87341,0.69227,2.6202,0.2884,0.67736,1.1874,-2.0151,0.67171,-1.7047,-2.6868,-7.3756e-10,-0.85237,0,0,0.33333,-0,-0,0.66667
0.64119,0.48266,1.9236,-0.02601,-0.16865,5.6061,0.13342,-0.044472,-1.9974,0.17789,-1.6152e-12,-0.99872,0,0,0.33333,-0,-0,0.66667
0.55696,0.28943,1.6709,-0.31585,-2.4629,7.9798,1.4073,-0.4691,-1.6449,1.8764,5.0171e-13,-0.82247,0,0,0.33333,-1.579e-15,0,0.66667
0.64065,0.67751,1.9219,0.26626,1.748,5.6798,-1.3646,0.45488,-1.7481,-1.8195,1.0073e-11,-0.87403,0,0,0.33333,-7.8949e-16,0,0.66667
0.047617,0.81433,0.14285,0.47149,5.4787,26.349,-0.17961,0.059869,-1.2107,-0.23948,2.125e-08,-0.60535,0,0,0.33333,-0,-0,0.66667
0.99612,0.68887,2.9884,0.28331,-0.11536,0.12363,-2.2576,0.75255,-1.7154,-3.0102,1.8953e-08,-0.85771,0,0,0.33333,-0,-0,0.66667
0.15171,0.22945,0.45512,-0.40583,-4.5905,22.219,0.49253,-0.16418,-1.4139,0.65671,3.2627e-10,-0.70695,0,0,0.33333,-0,-0,0.66667
0.41845,0.81781,1.2553,0.47671,4.5532,12.414,-1.5958,0.53195,-1.1921,-2.1278,1.0474e-12,-0.59607,0,0,0.33333,-0,-0,0.66667
0.29525,0.80281,0.88575,0.45422,4.8077,16.756,-1.0729,0.35763,-1.2663,-1.4305,-3.9824e-11,-0.63316,0,0,0.33333,3.9475e-16,0,0.66667
0.57722,0.81039,1.7317,0.46559,3.5587,7.4917,-2.15,0.71666,-1.2303,-2.8666,-1.0498e-12,-0.61514,0,0,0.33333,-9.8686e-17,0,0.66667
0.55956,0.38471,1.6787,-0.17294,-1.3299,7.8524,0.77414,-0.25805,-1.8934,1.0322,-2.1633e-13,-0.94669,0,0,0.33333,1.579e-15,0,0.66667
0.35211,0.38676,1.0563,-0.16986,-1.6916,14.615,0.47849,-0.1595,-1.8967,0.63799,1.0345e-11,-0.94835,0,0,0.33333,-7.8949e-16,0,0.66667
0.97363,0.5925,2.9209,0.13875,0.0084903,0.16188,-1.0807,0.36024,-1.9323,-1.4409,7.9953e-07,-0.96614,0,0,0.33333,1.6777e-15,0,0.66667
0.75127,0.074357,2.2538,-0.63846,-3.2348,3.5079,3.8373,-1.2791,-0.55042,5.1164,-3.2181e-11,-0.27521,0,0,0.33333,-0,-0,0.66667
0.88984,0.47627,2.6695,-0.035598,-0.068216,0.89049,0.25341,-0.08447,-1.9957,0.33788,8.8992e-09,-0.99787,0,0,0.33333,-0,-0,0.66667
0.45541,0.35388,1.3662,-0.21918,-1.9678,11.082,0.79854,-0.26618,-1.829,1.0647,-6.6003e-14,-0.91448,0,0,0.33333,-7.8949e-16,0,0.66667
0.59941,0.38751,1.7982,-0.16873,-1.2039,6.731,0.80911,-0.2697,-1.8981,1.0788,-2.2026e-12,-0.94904,0,0,0.33333,-0,-0,0.66667
0.41345,0.26606,1.2404,-0.3509,-3.3311,12.525,1.1607,-0.38689,-1.5614,1.5475,3.5971e-13,-0.78069,0,0,0.33333,7.8949e-16,0,0.66667
0.30426,0.81819,0.91277,0.47729,5.0316,16.434,-1.1617,0.38725,-1.1899,-1.549,-2.786e-11,-0.59495,0,0,0.33333,-0,-0,0.66667
0.52547,0.88331,1.5764,0.57497,4.8562,9.0725,-2.417,0.80567,-0.82419,-3.2227,-5.0182e-13,-0.4121,0,0,0.33333,-0,-0,0.66667
0.19097,0.46084,0.5729,-0.058738,-0.6451,20.648,0.089737,-0.029912,-1.9876,0.11965,5.2318e-11,-0.99378,0,0,0.33333,-0,-0,0.66667
0.2141,0.36253,0.64231,-0.2062,-2.2498,19.762,0.35318,-0.11773,-1.8482,0.47091,1.0525e-10,-0.9241,0,0,0.33333,-0,-0,0.66667
0.51079,0.3033,1.5324,-0.29505,-2.4713,9.3493,1.2056,-0.40188,-1.6901,1.6075,3.0342e-13,-0.84503,0,0,0.33333,-3.9475e-16,0,0.66667
0.013852,0.4555,0.041556,-0.066746,-0.76217,27.693,0.0073994,-0.0024682,-1.9838,0.009865,-2.6089e-06,-0.99191,0,0,0.33333,-0,-0,0.66667
0.44549,0.60343,1.3365,0.15514,1.4056,11.394,-0.55291,0.1843,-1.9139,-0.73721,-5.8897e-14,-0.95693,0,0,0.33333,-0,-0,0.66667
0.9967,0.13602,2.9901,-0.54597,0.10655,0.41055,4.3534,-1.4511,-0.93972,5.8045,-4.9415e-08,-0.46986,0,0,0.33333,-0,-3.6045e-16,0.66667
0.82268,0.39534,2.468,-0.157,-0.52131,1.8456,1.0333,-0.34442,-1.9118,1.3777,-1.7204e-10,-0.95589,0,0,0.33333,-7.8949e-16,0,0.66667
0.083461,0.43763,0.25038,-0.093562,-1.0612,24.899,0.06247,-0.020823,-1.9698,0.083293,-2.2721e-08,-0.98491,0,0,0.33333,-0,-0,0.66667
0.65589,0.91258,1.9677,0.61887,4.1164,5.5713,-3.2473,1.0824,-0.63868,-4.3297,4.8184e-13,-0.31934,0,0,0.33333,1.579e-15,2.5503e-16,0.66667
0.22539,0.92737,0.67618,0.64106,7.2011,19.439,-1.1559,0.38531,-0.53824,-1.5412,-6.2627e-11,-0.26912,0,0,0.33333,-1.9737e-16,0,0.66667
0.11796,0.88753,0.35387,0.5813,6.7432,23.575,-0.54854,0.18285,-0.7978,-0.73139,-3.3629e-09,-0.3989,0,0,0.33333,-0,-0,0.66667
0.34868,0.49436,1.046,-0.0084663,-0.084301,14.724,0.023616,-0.007872,-1.9997,0.031488,7.193e-13,-0.99986,0,0,0.33333,1.9737e-16,0,0.66667
0.67717,0.62839,2.0315,0.19259,1.1464,4.7537,-1.0433,0.34777,-1.8684,-1.3911,2.2292e-11,-0.93422,0,0,0.33333,-1.579e-15,0,0.66667
0.55076,0.47968,1.6523,-0.030475,-0.23703,8.0872,0.13428,-0.044759,-1.9962,0.17904,-4.1286e-14,-0.99811,0,0,0.33333,-0,-0,0.66667
0.043963,0.78433,0.13189,0.42649,4.9397,26.492,-0.15,0.049999,-1.3538,-0.2,-4.5799e-09,-0.67692,0,0,0.33333,-0,-0,0.66667
0.85675,0.0087876,2.5703,-0.73682,-2.3367,1.9324,5.0502,-1.6834,-0.06952,6.7336,5.2616e-10,-0.03476,0,0,0.33333,-0,-3.1916e-16,0.66667
0.4776,0.76365,1.4328,0.39548,3.4967,10.434,-1.511,0.50367,-1.4431,-2.0147,3.7481e-13,-0.72157,0,0,0.33333,7.8949e-16,0,0.66667
0.85678,0.40213,2.5703,-0.1468,-0.38613,1.3365,1.0062,-0.33541,-1.9238,1.3416,3.1663e-10,-0.96191,0,0,0.33333,-1.579e-15,0,0.66667
0.18765,0.18459,0.56296,-0.47311,-5.3112,20.832,0.71025,-0.23675,-1.2052,0.947,5.9181e-10,-0.60259,0,0,0.33333,1.9737e-16,0,0.66667
0.083733,0.59121,0.2512,0.13681,1.5531,24.889,-0.091647,0.030549,-1.9339,-0.1222,-1.4365e-08,-0.96694,0,0,0.33333,-2.4672e-17,0,0.66667
0.51597,0.75327,1.5479,0.37991,3.1804,9.2299,-1.5682,0.52272,-1.4878,-2.0909,-4.6119e-13,-0.74388,0,0,0.33333,-0,-0,0.66667
0.45454,0.079215,1.3636,-0.63118,-5.9018,11.323,2.2952,-0.76506,-0.5832,3.0603,-4.0679e-13,-0.2916,0,0,0.33333,-0,-0,0.66667
0.013894,0.80385,0.041683,0.45578,5.3006,27.695,-0.050662,0.016887,-1.2614,-0.06755,-4.0225e-08,-0.63068,0,0,0.33333,-0,-0,0.66667
0.039355,0.13732,0.11806,-0.54401,-6.3677,26.682,0.17128,-0.057092,-0.94699,0.22837,-1.3661e-07,-0.4735,0,0,0.33333,-0,-0,0.66667
0.093633,0.42198,0.2809,-0.11702,-1.3254,24.493,0.087659,-0.02922,-1.9512,0.11688,4.5432e-09,-0.9756,0,0,0.33333,-1.9737e-16,0,0.66667
0.040677,0.40013,0.12203,-0.14981,-1.7109,26.615,0.048752,-0.016251,-1.92,0.065002,-3.1663e-07,-0.96002,0,0,0.33333,-0,-0,0.66667
0.17574,0.76862,0.52722,0.40294,4.5187,21.28,-0.56649,0.18883,-1.4222,-0.75532,-4.201e-10,-0.71108,0,0,0.33333,-0,-0,0.66667
0.57554,0.29493,1.7266,-0.3076,-2.3193,7.445,1.4163,-0.47209,-1.6631,1.8884,-1.5543e-14,-0.83156,0,0,0.33333,-7.8949e-16,0,0.66667
0.47675,0.54357,1.4303,0.065361,0.56822,10.364,-0.24929,0.083096,-1.9841,-0.33238,-2.3953e-14,-0.99204,0,0,0.33333,-0,-0,0.66667
0.97977,0.095186,2.9393,-0.60722,-0.16981,0.58229,4.7595,-1.5865,-0.68972,6.346,6.9833e-07,-0.34486,0,0,0.33333,3.158e-15,0,0.66667
0.070737,0.36442,0.21221,-0.20337,-2.3183,25.411,0.11508,-0.038361,-1.8523,0.15345,3.2629e-08,-0.92616,0,0,0.33333,9.8686e-17,0,0.66667
0.86742,0.45709,2.6022,-0.06437,-0.15397,1.1731,0.44669,-0.1489,-1.9846,0.59558,1.697e-09,-0.99228,0,0,0.33333,7.8949e-16,0,0.66667
0.57852,0.75118,1.7356,0.37678,2.8438,7.3975,-1.7438,0.58126,-1.4966,-2.325,-4.9627e-13,-0.74828,0,0,0.33333,1.579e-15,0,0.66667
0.87648,0.76618,2.6294,0.39927,0.94367,1.238,-2.7996,0.93321,-1.4328,-3.7328,-7.7144e-11,-0.71642,0,0,0.33333,-0,-0,0.66667
0.055714,0.13538,0.16714,-0.54694,-6.3935,26.032,0.24377,-0.081258,-0.93578,0.32503,6.481e-08,-0.46789,0,0,0.33333,-9.8686e-17,0,0.66667
0.099154,0.065607,0.29746,-0.65159,-7.649,24.327,0.51686,-0.17229,-0.49078,0.68914,-2.5375e-09,-0.24539,0,0,0.33333,-0,-0,0.66667
0.86309,0.33672,2.5893,-0.24493,-0.62203,1.2948,1.6912,-0.56372,-1.7866,2.2549,1.4526e-09,-0.89331,0,0,0.33333,7.8949e-16,0,0.66667
0.57038,0.17495,1.7112,-0.48757,-3.7831,7.6996,2.2248,-0.74161,-1.154,2.9664,1.1906e-12,-0.577,0,0,0.33333,-0,-0,0.66667
0.55849,0.65161,1.6755,0.22742,1.7574,7.8996,-1.0161,0.3387,-1.8163,-1.3548,-7.3386e-14,-0.90815,0,0,0.33333,1.1842e-15,0,0.66667
0.013013,0.89615,0.039038,0.59422,7.0004,27.732,-0.061859,0.02062,-0.74426,-0.082479,-9.9803e-08,-0.37213,0,0,0.33333,-0,-0,0.66667
0.64225,0.11172,1.9268,-0.58241,-3.9712,5.8689,2.9925,-0.99748,-0.79362,3.9899,-4.7895e-13,-0.39681,0,0,0.33333,-0,-0,0.66667
0.84766,0.59015,2.543,0.13523,0.38044,1.4611,-0.91704,0.30568,-1.9354,-1.2227,1.4203e-09,-0.96768,0,0,0.33333,-7.8949e-16,0,0.66667
0.99613,0.38683,2.9884,-0.16975,0.078193,0.055274,1.3527,-0.45091,-1.897,1.8036,-2.0821e-07,-0.94851,0,0,0.33333,-0,-0,0.66667
0.43295,0.31054,1.2989,-0.28419,-2.629,11.844,0.98433,-0.32811,-1.7135,1.3124,3.8858e-15,-0.85673,0,0,0.33333,-7.8949e-16,0,0.66667
0.31141,0.19017,0.93423,-0.46475,-4.8692,16.168,1.1578,-0.38594,-1.2329,1.5438,2.4123e-11,-0.61646,0,0,0.33333,7.8949e-16,0,0.66667
0.40477,0.16796,1.2143,-0.49806,-4.8351,12.888,1.6128,-0.5376,-1.1178,2.1504,-8.3888e-13,-0.55889,0,0,0.33333,-0,-0,0.66667
0.22803,0.4193,0.68408,-0.12104,-1.3082,19.219,0.22081,-0.073602,-1.9472,0.29441,6.358e-11,-0.97358,0,0,0.33333,-0,-0,0.66667
0.2261,0.81613,0.6783,0.4742,5.2334,19.356,-0.85772,0.28591,-1.2007,-1.1436,-2.1312e-10,-0.60034,0,0,0.33333,-0,-0,0.66667
0.43364,0.22349,1.3009,-0.41477,-3.8733,11.874,1.4389,-0.47963,-1.3885,1.9185,-8.5609e-13,-0.69426,0,0,0.33333,-0,-0,0.66667
0.68454,0.32333,2.0536,-0.265,-1.5546,4.6106,1.4512,-0.48374,-1.7499,1.935,-3.0676e-11,-0.87497,0,0,0.33333,-0,-0,0.66667
0.66074,0.85717,1.9822,0.53576,3.4693,5.3697,-2.832,0.94399,-0.97877,-3.776,4.9472e-12,-0.48938,0,0,0.33333,-0,-0,0.66667
0.77249,0.27764,2.3175,-0.33354,-1.458,2.8036,2.0613,-0.68709,-1.6046,2.7484,-1.688e-10,-0.80232,0,0,0.33333,-1.9737e-15,0,0.66667
0.21681,0.25066,0.65044,-0.37401,-4.1132,19.686,0.64873,-0.21624,-1.5038,0.86497,2.3122e-10,-0.7519,0,0,0.33333,-0,-0,0.66667
0.72871,0.40707,2.1861,-0.1394,-0.706,3.5819,0.81263,-0.27088,-1.9317,1.0835,-4.4031e-11,-0.96584,0,0,0.33333,-3.158e-15,0,0.66667
0.79525,0.59001,2.3858,0.13502,0.51935,2.2957,-0.859,0.28633,-1.9358,-1.1453,5.4663e-11,-0.96791,0,0,0.33333,1.9737e-15,0,0.66667
0.56181,0.50053,1.6854,0.00080059,0.0061069,7.765,-0.0035983,0.0011994,-2.0014,-0.0047977,5.3351e-14,-1.0007,0,0,0.33333,-0,-0,0.66667
0.46567,0.96338,1.397,0.69507,6.475,11.018,-2.5894,0.86313,-0.28241,-3.4525,1.8829e-13,-0.1412,0,0,0.33333,-9.8686e-16,2.2463e-16,0.66667
0.1582,0.082714,0.4746,-0.62593,-7.2123,22.013,0.79217,-0.26406,-0.60673,1.0562,5.9596e-10,-0.30336,0,0,0.33333,-0,-0,0.66667
0.046453,0.33579,0.13936,-0.24631,-2.8211,26.385,0.091534,-0.030511,-1.7845,0.12205,-1.9306e-08,-0.89227,0,0,0.33333,4.9343e-17,0,0.66667
0.46383,0.13498,1.3915,-0.54753,-5.0077,10.964,2.0317,-0.67723,-0.93359,2.7089,-6.3682e-13,-0.4668,0,0,0.33333,-0,-0,0.66667
0.6543,0.80689,1.9629,0.46033,2.9917,5.4606,-2.4095,0.80318,-1.2469,-3.2127,8.0236e-12,-0.62344,0,0,0.33333,7.8217e-16,0,0.66667
0.21255,0.23422,0.63764,-0.39868,-4.4011,19.855,0.6779,-0.22597,-1.4341,0.90386,2.5807e-10,-0.71705,0,0,0.33333,-3.9475e-16,0,0.66667
0.39995,0.31306,1.1998,-0.28042,-2.686,12.962,0.89722,-0.29907,-1.7212,1.1963,2.1019e-12,-0.86061,0,0,0.33333,1.579e-15,0,0.66667
0.49764,0.13385,1.4929,-0.54923,-4.81,9.8991,2.1865,-0.72884,-0.92733,2.9154,-5.4623e-14,-0.46367,0,0,0.33333,-0,-0,0.66667
0.9549,0.56247,2.8647,0.093712,0.045326,0.27495,-0.71589,0.23863,-1.9701,-0.95452,7.172e-07,-0.98505,0,0,0.33333,-2.2112e-15,0,0.66667
0.87745,0.93564,2.6323,0.65347,1.7125,1.5391,-4.587,1.529,-0.48257,-6.1161,1.3243e-08,-0.24129,0,0,0.33333,-1.9737e-16,0,0.66667
0.87405,0.9128,2.6221,0.61921,1.6389,1.5292,-4.3297,1.4432,-0.63707,-5.773,-6.8327e-10,-0.31853,0,0,0.33333,-0,-0,0.66667
0.9966,0.1661,2.9898,-0.50086,0.12107,0.3482,3.9932,-1.3311,-1.1077,5.3243,-6.8478e-08,-0.55386,0,0,0.33333,-0,-3.4076e-16,0.66667
0.77345,0.46386,2.3204,-0.054206,-0.22988,2.674,0.33541,-0.1118,-1.9895,0.44721,-1.8921e-11,-0.99477,0,0,0.33333,7.8949e-16,0,0.66667
0.20306,0.40338,0.60918,-0.14493,-1.5861,20.183,0.23544,-0.078479,-1.9264,0.31392,4.1648e-11,-0.96318,0,0,0.33333,4.9343e-17,0,0.66667
0.83989,0.6164,2.5197,0.1746,0.52091,1.5883,-1.1732,0.39106,-1.8913,-1.5642,-4.7458e-11,-0.94566,0,0,0.33333,-0,-0,0.66667
0.16625,0.80773,0.49874,0.4616,5.2188,21.661,-0.61392,0.20464,-1.2425,-0.81856,-5.3909e-10,-0.62124,0,0,0.33333,9.8686e-17,0,0.66667
0.88909,0.90186,2.6673,0.6028,1.3911,1.3286,-4.2875,1.4292,-0.70858,-5.7167,1.1275e-08,-0.35429,0,0,0.33333,3.9475e-16,0,0.66667
0.33858,0.2391,1.0157,-0.39135,-3.9917,15.157,1.06,-0.35334,-1.4549,1.4134,1.4871e-11,-0.72744,0,0,0.33333,-3.9475e-16,0,0.66667
0.28794,0.9023,0.86383,0.60344,6.5168,17.087,-1.3901,0.46336,-0.70542,-1.8534,-1.4332e-11,-0.35271,0,0,0.33333,-0,-0,0.66667
0.60622,0.68511,1.8187,0.27767,1.9677,6.5853,-1.3466,0.44888,-1.7265,-1.7955,2.8035e-12,-0.86327,0,0,0.33333,7.8949e-16,0,0.66667
0.060612,0.36258,0.18183,-0.20613,-2.3533,25.816,0.09995,-0.033317,-1.8486,0.13327,-3.2601e-08,-0.9243,0,0,0.33333,-0,-0,0.66667
0.90709,0.46791,2.7213,-0.048132,-0.07438,0.69882,0.34928,-0.11643,-1.9931,0.4657,-7.733e-08,-0.99653,0,0,0.33333,-1.9737e-15,0,0.66667
0.38107,0.19756,1.1432,-0.45366,-4.4856,13.681,1.383,-0.46101,-1.2677,1.844,1.5102e-12,-0.63384,0,0,0.33333,-7.8949e-16,0,0.66667
0.78998,0.8593,2.3699,0.53894,2.2792,2.6752,-3.406,1.1353,-0.96645,-4.5414,2.8378e-10,-0.48323,0,0,0.33333,-1.579e-15,0,0.66667
0.71055,0.77097,2.1316,0.40645,2.2475,4.1118,-2.3104,0.77014,-1.412,-3.0806,5.2943e-11,-0.706,0,0,0.33333,-7.8949e-16,0,0.66667
0.70415,0.27606,2.1124,-0.3359,-1.8756,4.2036,1.8922,-0.63074,-1.5993,2.5229,-4.9248e-11,-0.79966,0,0,0.33333,-0,-0,0.66667
0.53263,0.1956,1.5979,-0.45659,-3.7571,8.7731,1.9456,-0.64852,-1.2588,2.5941,8.421e-13,-0.62941,0,0,0.33333,-1.579e-15,0,0.66667
0.46668,0.88395,1.4,0.57593,5.2681,10.892,-2.1502,0.71672,-0.82054,-2.8669,5.6866e-13,-0.41027,0,0,0.33333,-7.8949e-16,0,0.66667
0.6454,0.052621,1.9362,-0.67107,-4.6205,5.8863,3.4649,-1.155,-0.39834,4.6198,3.344e-13,-0.19917,0,0,0.33333,-0,-0,0.66667
0.69158,0.00065314,2.0747,-0.74902,-4.6882,4.9005,4.144,-1.3813,-0.0061445,5.5254,5.3735e-14,-0.0030722,0,0,0.33333,-6.3159e-15,0,0.66667
0.23582,0.80525,0.70745,0.45787,5.0214,18.982,-0.86379,0.28793,-1.2548,-1.1517,-1.7376e-10,-0.62738,0,0,0.33333,-0,-0,0.66667
0.75381,0.46888,2.2614,-0.046674,-0.21471,3.0514,0.28147,-0.093823,-1.9933,0.37529,-2.9355e-11,-0.99666,0,0,0.33333,-0,-0,0.66667
0.93662,0.86543,2.8099,0.54814,0.65845,0.78617,-4.1072,1.3691,-0.93171,-5.4763,5.9875e-09,-0.46586,0,0,0.33333,7.8949e-16,-3.7251e-16,0.66667
0.8151,0.45436,2.4453,-0.068458,-0.23611,1.9459,0.4464,-0.1488,-1.9829,0.5952,-9.9563e-11,-0.99143,0,0,0.33333,-0,-0,0.66667
0.73061,0.045553,2.1918,-0.68167,-3.7445,3.9755,3.9843,-1.3281,-0.34722,5.3124,-5.6706e-12,-0.17361,0,0,0.33333,-1.579e-15,0,0.66667
0.82171,0.12038,2.4651,-0.56942,-2.0786,2.1893,3.7432,-1.2477,-0.8472,4.9909,-7.0006e-10,-0.4236,0,0,0.33333,-7.8949e-16,0,0.66667
0.0069549,0.31145,0.020865,-0.28282,-3.2522,27.971,0.015736,-0.0052454,-1.7163,0.020982,-1.73e-08,-0.85814,0,0,0.33333,1.542e-17,0,0.66667
0.17482,0.55718,0.52447,0.085764,0.94834,21.279,-0.11995,0.039983,-1.9741,-0.15993,-1.9707e-10,-0.98703,0,0,0.33333,-1.9737e-16,0,0.66667
0.34198,0.2631,1.0259,-0.35535,-3.6047,15.023,0.97218,-0.32406,-1.5507,1.2962,1.4937e-11,-0.77535,0,0,0.33333,-0,-0,0.66667
0.73352,0.46297,2.2006,-0.055542,-0.27566,3.4649,0.32593,-0.10864,-1.9895,0.43457,-1.8644e-11,-0.99474,0,0,0.33333,-3.9475e-16,0,0.66667
0.97837,0.14085,2.9351,-0.53873,-0.12449,0.48723,4.2166,-1.4055,-0.9673,5.6222,-1.5869e-07,-0.48365,0,0,0.33333,-0,-0,0.66667
0.73288,0.21193,2.1986,-0.43211,-2.2318,3.6578,2.5335,-0.84449,-1.3363,3.378,-8.6712e-11,-0.66816,0,0,0.33333,-7.8949e-16,0,0.66667
0.47899,0.50457,1.437,0.006852,0.059357,10.289,-0.026256,0.0087521,-1.9999,-0.035008,-3.223e-13,-0.99997,0,0,0.33333,3.158e-15,0,0.66667
0.92105,0.61173,2.7632,0.1676,0.21214,0.5885,-1.235,0.41165,-1.8999,-1.6466,1.1745e-08,-0.94997,0,0,0.33333,-0,-0,0.66667
0.3777,0.35179,1.1331,-0.22231,-2.1689,13.719,0.67173,-0.22391,-1.8242,0.89563,5.614e-12,-0.91209,0,0,0.33333,-0,-0,0.66667
0.64169,0.93411,1.9251,0.65117,4.503,5.9555,-3.3428,1.1143,-0.49315,-4.4571,-4.1633e-13,-0.24658,0,0,0.33333,-1.9737e-16,0,0.66667
0.0015045,0.80301,0.0045134,0.45452,5.2865,28.19,-0.0054705,0.0018235,-1.2654,-0.007294,4.0218e-08,-0.63269,0,0,0.33333,1.542e-18,6.6761e-16,0.66667
0.17936,0.05775,0.53808,-0.66338,-7.6202,21.205,0.95186,-0.31729,-0.43533,1.2691,3.3958e-10,-0.21767,0,0,0.33333,-0,-0,0.66667
0.29484,0.44,0.88452,-0.089995,-0.93433,16.693,0.21227,-0.070758,-1.972,0.28303,2.0639e-11,-0.986,0,0,0.33333,-0,-0,0.66667
0.38699,0.65195,1.161,0.22793,2.2049,13.396,-0.70565,0.23522,-1.8156,-0.94087,-4.1581e-12,-0.90779,0,0,0.33333,9.8686e-16,0,0.66667
0.45982,0.095491,1.3795,-0.60676,-5.6194,11.135,2.232,-0.74401,-0.69153,2.976,-5.4157e-13,-0.34576,0,0,0.33333,1.579e-15,0,0.66667
0.79672,0.59366,2.3902,0.14049,0.53666,2.2717,-0.89542,0.29847,-1.9314,-1.1939,2.897e-11,-0.9657,0,0,0.33333,1.9861e-15,0,0.66667
0.27985,0.23424,0.83954,-0.39865,-4.2423,17.309,0.89248,-0.29749,-1.4346,1.19,6.7286e-11,-0.71732,0,0,0.33333,3.9475e-16,0,0.66667
0.082662,0.06807,0.24798,-0.6479,-7.6257,24.976,0.42845,-0.14282,-0.50751,0.57126,3.1595e-08,-0.25376,0,0,0.33333,-0,-0,0.66667
0.52137,0.56691,1.5641,0.10036,0.81949,8.9725,-0.41861,0.13954,-1.9643,-0.55815,-1.2898e-13,-0.98215,0,0,0.33333,-0,-0,0.66667
0.98115,0.53115,2.9435,0.046732,-0.0062143,0.09567,-0.36681,0.12227,-1.9934,-0.48908,-1.739e-06,-0.99668,0,0,0.33333,9.8686e-16,0,0.66667
0.40076,0.89873,1.2023,0.59809,5.8974,13.083,-1.9175,0.63917,-0.72784,-2.5567,9.7555e-13,-0.36392,0,0,0.33333,-0,-0,0.66667
0.25719,0.32695,0.77157,-0.25957,-2.7756,18.125,0.53408,-0.17803,-1.7596,0.71211,8.999e-11,-0.87982,0,0,0.33333,-0,-0,0.66667
0.77634,0.79751,2.329,0.44627,1.9594,2.8233,-2.7717,0.92388,-1.2912,-3.6955,2.2577e-10,-0.64559,0,0,0.33333,-0,-0,0.66667
0.61558,0.36792,1.8468,-0.19812,-1.369,6.3042,0.97567,-0.32522,-1.8602,1.3009,-4.3474e-12,-0.93008,0,0,0.33333,3.9475e-16,0,0.66667
0.0075483,0.74472,0.022645,0.36707,4.2418,27.948,-0.022166,0.0073888,-1.5208,-0.029555,-1.6884e-09,-0.76042,0,0,0.33333,-1.542e-17,0,0.66667
0.98621,0.73741,2.9586,0.35612,-0.043808,0.2322,-2.8096,0.93654,-1.5488,-3.7462,1.0163e-08,-0.77438,0,0,0.33333,-1.579e-15,0,0.66667
0.48892,0.69282,1.4668,0.28922,2.4974,10.028,-1.1313,0.37709,-1.7026,-1.5083,-2.5313e-14,-0.85132,0,0,0.33333,1.579e-15,0,0.66667
0.30402,0.41774,0.91207,-0.12339,-1.2737,16.356,0.30009,-0.10003,-1.9452,0.40013,2.277e-11,-0.97259,0,0,0.33333,-0,-0,0.66667
0.66508,0.70055,1.9952,0.30082,1.8658,5.0911,-1.6005,0.53351,-1.6775,-2.1341,1.9426e-11,-0.83875,0,0,0.33333,-0,-0,0.66667
0.28556,0.65862,0.85668,0.23793,2.4975,17.057,-0.54356,0.18119,-1.7993,-0.72474,-5.3414e-11,-0.89964,0,0,0.33333,-0,-0,0.66667
0.46354,0.45538,1.3906,-0.066924,-0.5918,10.79,0.24818,-0.082726,-1.9834,0.3309,1.1657e-15,-0.99169,0,0,0.33333,7.8949e-16,0,0.66667
0.65182,0.80568,1.9555,0.45852,2.997,5.5202,-2.391,0.79699,-1.2524,-3.188,7.3626e-12,-0.62618,0,0,0.33333,1.1842e-15,0,0.66667
0.12188,0.20821,0.36565,-0.43769,-5.0059,23.397,0.42677,-0.14226,-1.3185,0.56903,4.3462e-10,-0.65924,0,0,0.33333,-0,-0,0.66667
0.46722,0.709,1.4017,0.3135,2.7898,10.729,-1.1718,0.3906,-1.6505,-1.5624,4.4398e-13,-0.82523,0,0,0.33333,3.9475e-16,0,0.66667
0.73521,0.73287,2.2056,0.3493,1.7664,3.5464,-2.0545,0.68482,-1.566,-2.7393,9.3864e-11,-0.78299,0,0,0.33333,-0,-0,0.66667
0.96052,0.8993,2.8816,0.59895,0.42978,0.68261,-4.6024,1.5341,-0.72419,-6.1366,2.817e-07,-0.3621,0,0,0.33333,1.579e-15,0,0.66667
0.021389,0.63735,0.064168,0.20602,2.36,27.39,-0.035253,0.011751,-1.8484,-0.047004,2.0051e-07,-0.9242,0,0,0.33333,-0,-0,0.66667
0.83248,0.66735,2.4974,0.25102,0.79466,1.7358,-1.6718,0.55725,-1.7754,-2.229,-7.1283e-11,-0.88772,0,0,0.33333,-0,-0,0.66667
0.93915,0.50438,2.8174,0.00657,0.0054667,0.38929,-0.049361,0.016453,-2.0004,-0.065816,-1.0213e-06,-1.0002,0,0,0.33333,-0,-0,0.66667
0.98582,0.81944,2.9575,0.47916,-0.0034913,0.36926,-3.7789,1.2596,-1.1839,-5.0386,-2.1758e-09,-0.59193,0,0,0.33333,-0,-0,0.66667
0.93783,0.14503,2.8135,-0.53245,-0.61569,0.75497,3.9948,-1.3316,-0.99198,5.3264,2.7196e-08,-0.49599,0,0,0.33333,-0,-0,0.66667
0.12925,0.31695,0.38775,-0.27458,-3.1012,23.087,0.28392,-0.09464,-1.7321,0.37856,-4.192e-10,-0.86607,0,0,0.33333,-0,-0,0.66667
0.88602,0.45458,2.6581,-0.068132,-0.13634,0.93982,0.48293,-0.16098,-1.9828,0.64391,-3.7603e-09,-0.99141,0,0,0.33333,-0,-0,0.66667
0.15286,0.39646,0.45859,-0.15531,-1.7335,22.145,0.18993,-0.06331,-1.9139,0.25324,8.0638e-10,-0.95695,0,0,0.33333,-1.9737e-16,0,0.66667
0.36052,0.3097,1.0815,-0.28545,-2.8378,14.341,0.82328,-0.27443,-1.7112,1.0977,9.8065e-12,-0.85558,0,0,0.33333,-0,-0,0.66667
0.36116,0.066237,1.0835,-0.65064,-6.6954,14.482,1.8799,-0.62663,-0.49541,2.5065,-6.1451e-13,-0.2477,0,0,0.33333,7.8949e-16,0,0.66667
0.27979,0.66117,0.83936,0.24175,2.5475,17.273,-0.5411,0.18037,-1.7927,-0.72147,-5.9998e-11,-0.89634,0,0,0.33333,-7.8949e-16,0,0.66667
0.3548,0.85379,1.0644,0.53068,5.4119,14.638,-1.5063,0.5021,-0.9982,-2.0084,-2.4768e-12,-0.4991,0,0,0.33333,-0,-0,0.66667
0.543,0.856,1.629,0.53399,4.365,8.5219,-2.3197,0.77323,-0.98559,-3.0929,-8.3866e-13,-0.49279,0,0,0.33333,-7.8949e-16,0,0.66667
0.078517,0.23343,0.23555,-0.39986,-4.6018,25.112,0.25117,-0.083722,-1.4314,0.33489,-3.1832e-09,-0.71568,0,0,0.33333,9.8686e-17,0,0.66667
0.37287,0.14908,1.1186,-0.52638,-5.2825,14.002,1.5702,-0.52339,-1.0149,2.0936,5.3246e-13,-0.50746,0,0,0.33333,3.9475e-16,0,0.66667
0.58322,0.82772,1.7497,0.49158,3.7289,7.3439,-2.2936,0.76454,-1.1401,-3.0581,-1.0221e-12,-0.57003,0,0,0.33333,-7.8949e-16,0,0.66667
0.13425,0.012047,0.40275,-0.73193,-8.6045,22.971,0.78609,-0.26203,-0.094519,1.0481,-4.846e-09,-0.047259,0,0,0.33333,-0,-0,0.66667
0.24299,0.89676,0.72896,0.59514,6.5914,18.757,-1.1569,0.38563,-0.74012,-1.5425,-6.7298e-11,-0.37006,0,0,0.33333,-3.9475e-16,0,0.66667
0.31278,0.075172,0.93834,-0.63724,-6.7954,16.197,1.5945,-0.53151,-0.5561,2.126,2.8463e-12,-0.27805,0,0,0.33333,-0,-0,0.66667
0.074534,0.26455,0.2236,-0.35318,-4.0542,25.267,0.21059,-0.070196,-1.5559,0.28078,-3.5185e-09,-0.77796,0,0,0.33333,-9.8686e-17,0,0.66667
0.80769,0.34351,2.4231,-0.23473,-0.85571,2.1227,1.5167,-0.50558,-1.805,2.0223,-1.1897e-10,-0.90252,0,0,0.33333,-2.2945e-15,0,0.66667
0.2634,0.12764,0.79019,-0.55854,-6.0923,17.977,1.1769,-0.39231,-0.89154,1.5693,5.1374e-11,-0.44577,0,0,0.33333,-0,-3.3082e-16,0.66667
0.4106,0.45806,1.2318,-0.062905,-0.59116,12.556,0.20663,-0.068877,-1.9854,0.27551,7.3447e-13,-0.99272,0,0,0.33333,3.9475e-16,0,0.66667
0.40541,0.83519,1.2162,0.50278,4.8803,12.868,-1.6307,0.54356,-1.1013,-2.1742,8.8707e-13,-0.55065,0,0,0.33333,3.9475e-16,0,0.66667
0.30474,0.99385,0.91421,0.74077,8.0532,16.547,-1.8059,0.60197,-0.048745,-2.4079,-1.1213e-14,-0.024372,0,0,0.33333,-0,-0,0.66667
0.12774,0.27162,0.38321,-0.34257,-3.8857,23.154,0.35008,-0.11669,-1.5825,0.46677,-3.7914e-10,-0.79124,0,0,0.33333,-9.8686e-17,0,0.66667
0.89356,0.27205,2.6807,-0.34193,-0.669,0.98506,2.4443,-0.81476,-1.5841,3.2591,1.8864e-09,-0.79203,0,0,0.33333,-7.8949e-16,0,0.66667
0.68139,0.3169,2.0442,-0.27465,-1.6268,4.6888,1.4971,-0.49905,-1.7319,1.9962,-2.893e-11,-0.86595,0,0,0.33333,-0,-0,0.66667
0.26689,0.1912,0.80067,-0.46321,-4.9954,17.812,0.98901,-0.32967,-1.2378,1.3187,8.0971e-11,-0.61891,0,0,0.33333,-0,-0,0.66667
0.092431,0.84151,0.27729,0.51226,5.9352,24.571,-0.37879,0.12626,-1.0679,-0.50506,1.4427e-08,-0.53396,0,0,0.33333,-9.5993e-17,0,0.66667
0.1235,0.73021,0.37049,0.34532,3.9219,23.322,-0.34116,0.11372,-1.5758,-0.45488,-3.0827e-11,-0.7879,0,0,0.33333,1.9737e-16,0,0.66667
0.27644,0.3347,0.82931,-0.24795,-2.6192,17.4,0.54833,-0.18278,-1.781,0.73111,6.4493e-11,-0.8905,0,0,0.33333,1.9737e-16,0,0.66667
0.049043,0.94023,0.14713,0.66035,7.8186,26.306,-0.25909,0.086363,-0.45028,-0.34545,2.1853e-07,-0.22514,0,0,0.33333,-0,-0,0.66667
0.14515,0.37122,0.43544,-0.19317,-2.1639,22.452,0.2243,-0.074767,-1.8676,0.29907,-2.4282e-10,-0.93381,0,0,0.33333,-4.9343e-17,0,0.66667
0.47503,0.7379,1.4251,0.35685,3.1549,10.497,-1.3561,0.45204,-1.5465,-1.8081,4.7085e-13,-0.77327,0,0,0.33333,-0,-0,0.66667
0.93598,0.14027,2.8079,-0.5396,-0.65072,0.77986,4.0404,-1.3468,-0.9644,5.3872,1.7668e-08,-0.4822,0,0,0.33333,1.579e-15,1.0327e-16,0.66667
0.43407,0.47495,1.3022,-0.037572,-0.34406,11.761,0.13047,-0.04349,-1.995,0.17396,2.8137e-13,-0.99751,0,0,0.33333,-1.579e-15,0,0.66667
0.70914,0.71212,2.1274,0.31818,1.7459,4.0822,-1.8051,0.60169,-1.6398,-2.4067,5.4333e-11,-0.81992,0,0,0.33333,1.1842e-15,0,0.66667
0.57031,0.50896,1.7109,0.01344,0.10099,7.5212,-0.061321,0.02044,-1.9989,-0.081762,4.4346e-14,-0.99943,0,0,0.33333,-0,-0,0.66667
0.97624,0.55261,2.9287,0.078916,-0.0010617,0.12922,-0.61633,0.20544,-1.9773,-0.82177,2.8358e-07,-0.98864,0,0,0.33333,7.8949e-16,0,0.66667
0.17821,0.58353,0.53463,0.1253,1.3848,21.149,-0.17863,0.059545,-1.9436,-0.23818,-1.0566e-10,-0.9718,0,0,0.33333,1.9737e-16,0,0.66667
0.73911,0.70115,2.2173,0.30173,1.4953,3.4358,-1.7841,0.59469,-1.6756,-2.3787,9.4537e-11,-0.83782,0,0,0.33333,-0,-0,0.66667
0.35041,0.64576,1.0512,0.21864,2.1848,14.685,-0.6129,0.2043,-1.8294,-0.8172,-1.2337e-11,-0.91471,0,0,0.33333,-0,-0,0.66667
0.99121,0.38334,2.9736,-0.17499,0.059772,0.08059,1.3876,-0.46255,-1.8907,1.8502,8.6655e-10,-0.94534,0,0,0.33333,-0,-0,0.66667
0.35281,0.13027,1.0584,-0.55459,-5.6801,14.721,1.5653,-0.52177,-0.90638,2.0871,1.6472e-12,-0.45319,0,0,0.33333,-0,-0,0.66667
0.97878,0.15083,2.9363,-0.52375,-0.10734,0.46426,4.1011,-1.367,-1.0246,5.4682,1.0636e-08,-0.51231,0,0,0.33333,-0,-0,0.66667
0.86037,0.64047,2.5811,0.2107,0.54357,1.3135,-1.4502,0.48341,-1.8419,-1.9336,-1.7851e-11,-0.92095,0,0,0.33333,-0,-0,0.66667
0.59774,0.91003,1.7932,0.61505,4.6261,7.0554,-2.9411,0.98037,-0.65532,-3.9215,-9.6279e-13,-0.32766,0,0,0.33333,-0,-0,0.66667
0.027448,0.32369,0.082344,-0.26446,-3.0361,27.148,0.058071,-0.019357,-1.7508,0.077428,7.678e-09,-0.87542,0,0,0.33333,-0,-0,0.66667
0.18553,0.038911,0.5566,-0.69163,-7.9536,20.977,1.0266,-0.34219,-0.29922,1.3687,-3.4567e-12,-0.14961,0,0,0.33333,-0,-2.9219e-16,0.66667
0.056512,0.027569,0.16954,-0.70865,-8.4323,26.015,0.32038,-0.10679,-0.21469,0.42717,-4.7179e-07,-0.10735,0,0,0.33333,-0,-0,0.66667
0.79246,0.66157,2.3774,0.24235,0.95526,2.3874,-1.5364,0.51215,-1.7912,-2.0486,1.4468e-10,-0.89562,0,0,0.33333,-1.579e-15,0,0.66667
0.073951,0.96627,0.22185,0.69941,8.2938,25.327,-0.41377,0.13792,-0.26129,-0.5517,-2.8555e-07,-0.13064,0,0,0.33333,-1.2336e-16,3.3459e-16,0.66667
0.78646,0.98878,2.3594,0.73317,3.3373,2.9959,-4.6128,1.5376,-0.088175,-6.1505,4.7183e-11,-0.044087,0,0,0.33333,7.8949e-16,0,0.66667
0.027952,0.91755,0.083856,0.62633,7.3995,27.14,-0.14006,0.046685,-0.60477,-0.18674,3.7425e-08,-0.30238,0,0,0.33333,-0,-0,0.66667
0.25521,0.65201,0.76562,0.22802,2.4373,18.195,-0.46554,0.15518,-1.8153,-0.62071,-8.3896e-11,-0.90766,0,0,0.33333,9.8686e-17,0,0.66667
0.29758,0.77834,0.89275,0.41751,4.3984,16.658,-0.99396,0.33132,-1.3811,-1.3253,-4.2597e-11,-0.69056,0,0,0.33333,3.9475e-16,0,0.66667
0.56461,0.38915,1.6938,-0.16628,-1.267,7.7052,0.75106,-0.25035,-1.9013,1.0014,-1.9512e-13,-0.95064,0,0,0.33333,-7.8949e-16,0,0.66667
0.56206,0.93534,1.6862,0.653,5.2684,8.0773,-2.9362,0.97874,-0.48497,-3.915,-4.0701e-13,-0.24249,0,0,0.33333,-9.8686e-17,1.0181e-16,0.66667
0.8874,0.7612,2.6622,0.3918,0.833,1.0995,-2.7815,0.92716,-1.4538,-3.7086,-8.9554e-10,-0.72689,0,0,0.33333,-1.579e-15,0,0.66667
0.63738,0.98187,1.9121,0.7228,5.1199,6.1468,-3.6856,1.2285,-0.14192,-4.9141,-1.0836e-13,-0.070962,0,0,0.33333,-0,-0,0.66667
0.16146,0.39915,0.48439,-0.15127,-1.6833,21.807,0.1954,-0.065133,-1.9184,0.26053,-9.0264e-11,-0.95921,0,0,0.33333,3.9166e-16,0,0.66667
0.026995,0.37125,0.080984,-0.19313,-2.2107,27.165,0.041708,-0.013903,-1.8677,0.055611,-2.6198e-07,-0.93385,0,0,0.33333,-6.1679e-17,0,0.66667
0.76198,0.9189,2.2859,0.62835,3.053,3.2904,-3.8303,1.2768,-0.59563,-5.1071,5.419e-11,-0.29782,0,0,0.33333,-0,6.4698e-17,0.66667
0.53557,0.25423,1.6067,-0.36866,-2.9919,8.6338,1.5795,-0.52651,-1.517,2.1061,7.7116e-13,-0.7585,0,0,0.33333,-0,-0,0.66667
0.57863,0.89551,1.7359,0.59327,4.6061,7.5565,-2.7463,0.91542,-0.74855,-3.6617,-9.8743e-13,-0.37428,0,0,0.33333,-0,-0,0.66667
0.41411,0.023823,1.2423,-0.71427,-7.0626,12.716,2.3662,-0.78875,-0.1857,3.155,-2.8844e-13,-0.092849,0,0,0.33333,-0,-0,0.66667
0.58982,0.11237,1.7694,-0.58144,-4.4147,7.238,2.7435,-0.91452,-0.79739,3.6581,1.1113e-12,-0.39869,0,0,0.33333,-7.8949e-16,0,0.66667
0.40563,0.5458,1.2169,0.068703,0.64905,12.727,-0.22295,0.074315,-1.983,-0.29726,-9.638e-13,-0.99152,0,0,0.33333,-0,-0,0.66667
0.44569,0.43046,1.3371,-0.10431,-0.9434,11.38,0.37192,-0.12397,-1.961,0.4959,5.8342e-14,-0.98051,0,0,0.33333,3.9475e-16,0,0.66667
0.59274,0.62907,1.7782,0.19361,1.4016,6.9209,-0.91808,0.30603,-1.8674,-1.2241,1.6346e-12,-0.9337,0,0,0.33333,1.579e-15,0,0.66667
0.49234,0.31065,1.477,-0.28402,-2.4401,9.9182,1.1187,-0.37289,-1.7137,1.4916,-1.6331e-13,-0.85685,0,0,0.33333,1.0856e-15,0,0.66667
0.059103,0.71322,0.17731,0.31983,3.672,25.882,-0.15123,0.050409,-1.6364,-0.20163,-3.4487e-09,-0.81821,0,0,0.33333,4.9343e-17,0,0.66667
0.97679,0.42932,2.9304,-0.10602,0.0022413,0.13253,0.82847,-0.27616,-1.9596,1.1046,1.3008e-06,-0.9798,0,0,0.33333,-7.8949e-16,0,0.66667
0.85514,0.54424,2.5654,0.066367,0.17561,1.3397,-0.45403,0.15134,-1.9837,-0.60537,5.4311e-10,-0.99186,0,0,0.33333,1.579e-15,0,0.66667
0.37909,0.50191,1.1373,0.0028618,0.027734,13.646,-0.0086789,0.002893,-2.0006,-0.011572,-2.2083e-13,-1.0003,0,0,0.33333,-0,-0,0.66667
0.54652,0.047108,1.6396,-0.67934,-5.646,8.5476,2.9702,-0.99007,-0.35896,3.9603,1.5365e-13,-0.17948,0,0,0.33333,-0,-0,0.66667
0.93287,0.63826,2.7986,0.20739,0.21117,0.49736,-1.5478,0.51592,-1.8464,-2.0637,1.8626e-08,-0.92321,0,0,0.33333,-0,-0,0.66667
0.39797,0.71966,1.1939,0.32949,3.1725,13.046,-1.049,0.34966,-1.6147,-1.3987,-1.7354e-12,-0.80735,0,0,0.33333,-1.579e-15,0,0.66667
0.94477,0.71087,2.8343,0.3163,0.25598,0.46852,-2.3907,0.79689,-1.6439,-3.1875,-1.1007e-09,-0.82194,0,0,0.33333,7.8949e-16,0,0.66667
0.030486,0.42722,0.091459,-0.10918,-1.2466,27.024,0.026627,-0.0088762,-1.9576,0.035503,-6.2824e-07,-0.9788,0,0,0.33333,-0,-0,0.66667
0.7458,0.91331,2.2374,0.61997,3.1871,3.5917,-3.699,1.233,-0.63323,-4.932,3.4992e-11,-0.31661,0,0,0.33333,-1.579e-15,0,0.66667
0.79701,0.45601,2.391,-0.06599,-0.25066,2.2504,0.42076,-0.14025,-1.9845,0.56101,-3.5609e-11,-0.99223,0,0,0.33333,-0,-0,0.66667
0.19384,0.65975,0.58151,0.23962,2.6419,20.55,-0.37158,0.12386,-1.7961,-0.49544,-1.0376e-10,-0.89804,0,0,0.33333,-0,-0,0.66667
0.16287,0.049645,0.4886,-0.67553,-7.817,21.846,0.88017,-0.29339,-0.3767,1.1736,2.985e-10,-0.18835,0,0,0.33333,-0,-0,0.66667
0.59108,0.052066,1.7732,-0.6719,-5.1685,7.293,3.1772,-1.0591,-0.39454,4.2362,4.3832e-13,-0.19727,0,0,0.33333,-0,-3.5117e-16,0.66667
0.47969,0.053234,1.4391,-0.67015,-6.1125,10.554,2.5717,-0.85724,-0.40279,3.429,-8.9706e-14,-0.2014,0,0,0.33333,3.9475e-16,3.4703e-17,0.66667
0.58654,0.50702,1.7596,0.010534,0.076771,7.0632,-0.049429,0.016476,-1.9993,-0.065906,1.0417e-13,-0.99966,0,0,0.33333,-0,-0,0.66667
0.13227,0.082697,0.39681,-0.62595,-7.2692,23.023,0.66236,-0.22079,-0.6062,0.88315,2.4798e-09,-0.3031,0,0,0.33333,-1.9737e-16,0,0.66667
0.27774,0.69664,0.83321,0.29496,3.121,17.36,-0.65536,0.21845,-1.6904,-0.87382,-6.8834e-11,-0.84519,0,0,0.33333,-0,-0,0.66667
0.069672,0.33608,0.20902,-0.24588,-2.8082,25.455,0.13705,-0.045682,-1.7847,0.18273,-2.1602e-08,-0.89234,0,0,0.33333,-0,-0,0.66667
0.108,0.11412,0.32399,-0.57882,-6.7283,23.966,0.50009,-0.1667,-0.80861,0.66678,3.1146e-10,-0.40431,0,0,0.33333,-0,-0,0.66667
0.71638,0.17926,2.1491,-0.48111,-2.6453,4.0486,2.7573,-0.91909,-1.1769,3.6764,-4.863e-11,-0.58846,0,0,0.33333,-0,-0,0.66667
0.026402,0.13146,0.079206,-0.5528,-6.4818,27.198,0.11676,-0.03892,-0.91333,0.15568,2.3413e-07,-0.45666,0,0,0.33333,-0,-0,0.66667
0.53965,0.9154,1.619,0.6231,5.1871,8.6943,-2.6901,0.89669,-0.61901,-3.5868,-5.0182e-13,-0.3095,0,0,0.33333,-0,-0,0.66667
0.29866,0.76246,0.89599,0.39369,4.1364,16.61,-0.94063,0.31354,-1.4486,-1.2542,-4.3451e-11,-0.72431,0,0,0.33333,-0,-0,0.66667
0.8685,0.39235,2.6055,-0.16147,-0.38627,1.1843,1.1219,-0.37396,-1.9065,1.4958,1.063e-09,-0.95326,0,0,0.33333,-0,-0,0.66667
0.54504,0.88012,1.6351,0.57018,4.6692,8.4914,-2.4862,0.82873,-0.84444,-3.3149,-7.7893e-13,-0.42222,0,0,0.33333,-1.579e-15,4.9233e-16,0.66667
0.99755,0.020554,2.9926,-0.71917,-0.0084881,0.69855,5.7392,-1.9131,-0.16078,7.6523,-1.7409e-05,-0.08039,0,0,0.33333,3.158e-15,-1.0664e-15,0.66667
0.56108,0.72499,1.6832,0.33748,2.6179,7.8715,-1.5148,0.50494,-1.5953,-2.0198,-6.5126e-13,-0.79767,0,0,0.33333,1.579e-15,0,0.66667
0.5621,0.31103,1.6863,-0.28346,-2.185,7.8169,1.2746,-0.42488,-1.7156,1.6995,2.9621e-13,-0.85778,0,0,0.33333,-1.1842e-15,0,0.66667
0.33511,0.77139,1.0053,0.40708,4.1689,15.288,-1.0913,0.36378,-1.4102,-1.4551,-1.5571e-11,-0.7051,0,0,0.33333,-3.9475e-16,0,0.66667
0.25232,0.21904,0.75697,-0.42145,-4.5672,18.346,0.85073,-0.28358,-1.3697,1.1343,1.2368e-10,-0.68483,0,0,0.33333,-0,-0,0.66667
0.42737,0.8209,1.2821,0.48135,4.5561,12.117,-1.6457,0.54858,-1.1758,-2.1943,1.1369e-12,-0.58789,0,0,0.33333,-0,-0,0.66667
0.22718,0.12757,0.68153,-0.55865,-6.2128,19.341,1.0153,-0.33843,-0.89072,1.3537,1.4656e-10,-0.44536,0,0,0.33333,-0,-0,0.66667
0.070876,0.2131,0.21263,-0.43035,-4.9699,25.419,0.24401,-0.081338,-1.3414,0.32535,-1.7485e-09,-0.67069,0,0,0.33333,-0,-0,0.66667
0.42505,0.76592,1.2752,0.39888,3.7549,12.153,-1.3564,0.45212,-1.4337,-1.8085,6.0651e-13,-0.71687,0,0,0.33333,-0,-0,0.66667
0.10642,0.55692,0.31925,0.085385,0.96386,23.982,-0.072692,0.024231,-1.9743,-0.096922,-2.0308e-08,-0.98713,0,0,0.33333,-9.8686e-17,0,0.66667
0.72312,0.39708,2.1694,-0.15438,-0.79761,3.7048,0.89308,-0.29769,-1.9149,1.1908,-4.4291e-11,-0.95744,0,0,0.33333,-0,-0,0.66667
0.29839,0.56864,0.89518,0.10296,1.0665,16.563,-0.24577,0.081924,-1.9626,-0.3277,-2.1597e-11,-0.9813,0,0,0.33333,-0,-0,0.66667
0.49036,0.24559,1.4711,-0.38162,-3.3133,10.023,1.4971,-0.49902,-1.4823,1.9961,-2.7978e-13,-0.74115,0,0,0.33333,-1.0439e-16,0,0.66667
0.19558,0.42938,0.58675,-0.10593,-1.1619,20.47,0.16574,-0.055247,-1.9597,0.22099,1.3061e-10,-0.97984,0,0,0.33333,-0,-0,0.66667
0.68083,0.02707,2.0425,-0.7094,-4.5233,5.0905,3.8638,-1.2879,-0.21082,5.1517,-9.0594e-14,-0.10541,0,0,0.33333,7.8949e-16,0,0.66667
0.83083,0.60977,2.4925,0.16466,0.52057,1.7212,-1.0944,0.36481,-1.9031,-1.4592,8.1244e-11,-0.95155,0,0,0.33333,-0,-0,0.66667
0.22041,0.50139,0.66122,0.0020806,0.022538,19.507,-0.0036686,0.0012229,-2.001,-0.0048914,2.9687e-11,-1.0005,0,0,0.33333,-0,-0,0.66667
0.0078087,0.61138,0.023426,0.16707,1.9121,27.936,-0.010437,0.0034789,-1.9,-0.013916,-3.0935e-08,-0.94999,0,0,0.33333,-0,-0,0.66667
0.2509,0.1504,0.75271,-0.5244,-5.7403,18.433,1.0526,-0.35087,-1.0227,1.4035,9.5154e-11,-0.51133,0,0,0.33333,-0,-0,0.66667
0.62764,0.88734,1.8829,0.58102,4.0901,6.2371,-2.9173,0.97245,-0.7993,-3.8898,-3.1619e-13,-0.39965,0,0,0.33333,-1.579e-15,0,0.66667
0.31082,0.28871,0.93245,-0.31694,-3.284,16.142,0.78808,-0.26269,-1.6429,1.0508,3.5132e-11,-0.82147,0,0,0.33333,-0,-0,0.66667
0.83621,0.88998,2.5086,0.58498,1.9776,1.9907,-3.9133,1.3044,-0.78249,-5.2177,9.9709e-10,-0.39125,0,0,0.33333,-0,-0,0.66667
0.85274,0.33432,2.5582,-0.24851,-0.68459,1.4384,1.6953,-0.56511,-1.7799,2.2605,-3.7929e-10,-0.88994,0,0,0.33333,-7.8949e-16,0,0.66667
0.37174,0.67645,1.1152,0.26467,2.602,13.939,-0.78711,0.26237,-1.7505,-1.0495,-6.7943e-12,-0.87526,0,0,0.33333,-0,-0,0.66667
0.36533,0.17567,1.096,-0.48649,-4.8943,14.246,1.4218,-0.47395,-1.1578,1.8958,2.6305e-12,-0.57892,0,0,0.33333,3.9475e-16,0,0.66667
0.016563,0.1602,0.049688,-0.5097,-5.9547,27.589,0.067535,-0.022512,-1.077,0.090047,-8.2013e-08,-0.5385,0,0,0.33333,4.9343e-17,0,0.66667
0.54968,0.67011,1.649,0.25516,2.0052,8.1661,-1.1221,0.37402,-1.768,-1.4961,-2.8499e-13,-0.88401,0,0,0.33333,-7.8949e-16,0,0.66667
0.15427,0.22486,0.46281,-0.4127,-4.6667,22.12,0.50934,-0.16978,-1.3946,0.67912,3.8286e-10,-0.69732,0,0,0.33333,-3.9475e-16,0,0.66667
0.11268,0.77965,0.33804,0.41948,4.8017,23.758,-0.37814,0.12605,-1.3752,-0.50418,1.7384e-10,-0.68758,0,0,0.33333,-2.9606e-16,0,0.66667
0.053338,0.17701,0.16001,-0.48449,-5.6327,26.122,0.20673,-0.068912,-1.1648,0.27565,-1.9119e-08,-0.5824,0,0,0.33333,-4.9343e-17,0,0.66667
0.17928,0.97401,0.53785,0.71102,8.216,21.224,-1.0198,0.33993,-0.20243,-1.3597,-1.0029e-11,-0.10122,0,0,0.33333,-0,-0,0.66667
0.15593,0.26048,0.46779,-0.35928,-4.045,22.046,0.44818,-0.14939,-1.5411,0.59758,2.4487e-10,-0.77054,0,0,0.33333,3.9475e-16,0,0.66667
0.03549,0.11481,0.10647,-0.57778,-6.7876,26.838,0.16405,-0.054682,-0.81259,0.21873,3.7637e-08,-0.4063,0,0,0.33333,-0,-0,0.66667
0.98243,0.08499,2.9473,-0.62252,-0.1472,0.59333,4.8926,-1.6309,-0.62206,6.5235,-3.4899e-07,-0.31103,0,0,0.33333,7.8949e-16,-3.1855e-16,0.66667
0.6583,0.74969,1.9749,0.37453,2.3827,5.2998,-1.9724,0.65748,-1.5025,-2.6299,1.4287e-11,-0.75124,0,0,0.33333,-1.0856e-15,0,0.66667
0.38699,0.55282,1.161,0.07923,0.76268,13.372,-0.24529,0.081764,-1.9773,-0.32706,-2.0867e-12,-0.98866,0,0,0.33333,-0,-0,0.66667
0.062485,0.063575,0.18746,-0.65464,-7.734,25.774,0.32724,-0.10908,-0.47766,0.43632,3.4277e-07,-0.23883,0,0,0.33333,-0,5.2437e-17,0.66667
0.047245,0.75793,0.14174,0.38689,4.4667,26.359,-0.14623,0.048744,-1.468,-0.19498,4.6007e-09,-0.73402,0,0,0.33333,-0,-0,0.66667
0.80495,0.90286,2.4149,0.60428,2.4292,2.5014,-3.8914,1.2971,-0.70189,-5.1885,3.4493e-10,-0.35094,0,0,0.33333,7.8949e-16,0,0.66667
0.42278,0.45365,1.2683,-0.069521,-0.64493,12.143,0.23514,-0.078379,-1.9826,0.31352,4.7556e-13,-0.99129,0,0,0.33333,-0,-0,0.66667
0.10826,0.93002,0.32478,0.64504,7.5518,23.968,-0.55865,0.18622,-0.52083,-0.74487,8.1241e-09,-0.26041,0,0,0.33333,-9.8686e-17,-2.8739e-16,0.66667
0.16703,0.48184,0.5011,-0.027247,-0.30197,21.583,0.036409,-0.012136,-1.9967,0.048545,2.3546e-10,-0.99835,0,0,0.33333,-0,-0,0.66667
0.68019,0.93436,2.0406,0.65155,4.108,5.0336,-3.5454,1.1818,-0.49091,-4.7272,1.1713e-12,-0.24545,0,0,0.33333,1.9737e-16,0,0.66667
0.42723,0.51986,1.2817,0.029795,0.27493,11.99,-0.10183,0.033945,-1.9962,-0.13578,-1.4495e-13,-0.99811,0,0,0.33333,-0,-0,0.66667
0.096808,0.74691,0.29042,0.37036,4.2393,24.382,-0.28683,0.09561,-1.5129,-0.38244,1.5406e-09,-0.75643,0,0,0.33333,-9.8686e-17,0,0.66667
0.39201,0.345,1.176,-0.2325,-2.2386,13.223,0.72913,-0.24304,-1.8089,0.97217,3.6608e-12,-0.90447,0,0,0.33333,-1.579e-15,0,0.66667
0.044756,0.050428,0.13427,-0.67436,-8.0007,26.477,0.24145,-0.080484,-0.38275,0.32193,7.3308e-08,-0.19137,0,0,0.33333,-0,-0,0.66667
0.27103,0.50175,0.81308,0.00262,0.0276,17.58,-0.0056808,0.0018936,-2.0006,-0.0075743,2.3679e-14,-1.0003,0,0,0.33333,-0,-0,0.66667
0.50308,0.93003,1.5092,0.64504,5.6835,9.808,-2.596,0.86535,-0.52054,-3.4614,-1.1213e-13,-0.26027,0,0,0.33333,3.9475e-16,0,0.66667
0.45748,0.73319,1.3724,0.34979,3.1594,11.06,-1.2802,0.42673,-1.5643,-1.7069,6.0263e-13,-0.78215,0,0,0.33333,-0,-0,0.66667
0.76863,0.51012,2.3059,0.015173,0.065655,2.762,-0.093302,0.031101,-1.9989,-0.1244,2.8031e-11,-0.99943,0,0,0.33333,-0,-0,0.66667
0.16023,0.065735,0.48069,-0.6514,-7.5227,21.941,0.83499,-0.27833,-0.49175,1.1133,5.784e-10,-0.24587,0,0,0.33333,-0,-0,0.66667
0.51004,0.47306,1.5301,-0.040405,-0.33523,9.3141,0.16486,-0.054955,-1.9943,0.21982,1.3356e-13,-0.99717,0,0,0.33333,-0,-0,0.66667
0.14153,0.57578,0.42458,0.11367,1.2719,22.59,-0.12869,0.042898,-1.9539,-0.17159,-1.5943e-10,-0.97693,0,0,0.33333,-1.9737e-16,0,0.66667
0.18937,0.87093,0.56811,0.55639,6.2913,20.788,-0.84291,0.28097,-0.89985,-1.1239,-5.2288e-10,-0.44993,0,0,0.33333,9.8686e-17,0,0.66667
0.4099,0.99863,1.2297,0.74795,7.465,12.884,-2.4527,0.81755,-0.011754,-3.2702,1.9384e-13,-0.0058768,0,0,0.33333,-3.454e-16,0,0.66667
0.14586,0.053295,0.43759,-0.67006,-7.7907,22.504,0.78189,-0.26063,-0.40319,1.0425,8.077e-10,-0.2016,0,0,0.33333,-1.9737e-16,0,0.66667
0.56233,0.039981,1.687,-0.69003,-5.6002,8.1071,3.1042,-1.0347,-0.30728,4.1389,1.8985e-13,-0.15364,0,0,0.33333,-0,-0,0.66667
0.45523,0.75448,1.3657,0.38172,3.4663,11.147,-1.3902,0.46338,-1.4824,-1.8535,7.1088e-13,-0.74119,0,0,0.33333,1.579e-15,0,0.66667
0.9421,0.96945,2.8263,0.70417,0.90157,0.98731,-5.3072,1.7691,-0.23784,-7.0762,-7.6547e-07,-0.11892,0,0,0.33333,-0,-0,0.66667
0.66999,0.20952,2.01,-0.43573,-2.7132,5.0614,2.3355,-0.77849,-1.3248,3.114,-1.6016e-11,-0.66242,0,0,0.33333,-0,-0,0.66667
0.10314,0.39609,0.30943,-0.15587,-1.7635,24.115,0.12861,-0.042871,-1.913,0.17148,-1.162e-08,-0.95652,0,0,0.33333,-0,-0,0.66667
0.60711,0.34802,1.8213,-0.22797,-1.6066,6.5412,1.1072,-0.36907,-1.8157,1.4763,-3.2983e-12,-0.90784,0,0,0.33333,1.579e-15,0,0.66667
0.42033,0.68516,1.261,0.27774,2.6043,12.266,-0.93394,0.31131,-1.7266,-1.2453,-4.6146e-13,-0.86331,0,0,0.33333,-1.0856e-15,0,0.66667
0.50063,0.38817,1.5019,-0.16774,-1.4154,9.624,0.6718,-0.22393,-1.8998,0.89573,3.153e-14,-0.9499,0,0,0.33333,7.8949e-16,0,0.66667
0.65581,0.97596,1.9674,0.71395,4.8436,5.6841,-3.7457,1.2486,-0.18799,-4.9942,-1.2967e-13,-0.093996,0,0,0.33333,-0,-0,0.66667
0.18572,0.4786,0.55715,-0.032101,-0.35324,20.852,0.047694,-0.015898,-1.9962,0.063593,7.0744e-11,-0.9981,0,0,0.33333,-0,-0,0.66667
0.35953,0.58538,1.0786,0.12807,1.2656,14.344,-0.36836,0.12279,-1.9419,-0.49115,-6.9187e-12,-0.97097,0,0,0.33333,-0,-0,0.66667
0.48038,0.92355,1.4411,0.63532,5.7599,10.503,-2.4416,0.81385,-0.56425,-3.2554,1.8696e-13,-0.28212,0,0,0.33333,-5.6888e-16,0,0.66667
0.61478,0.10255,1.8443,-0.59617,-4.3221,6.5847,2.9321,-0.97737,-0.73588,3.9095,7.9448e-13,-0.36794,0,0,0.33333,-0,-0,0.66667
0.28556,0.84647,0.85667,0.51971,5.5704,17.139,-1.1873,0.39575,-1.0402,-1.583,-3.6773e-11,-0.52008,0,0,0.33333,-0,-0,0.66667
0.50277,0.28156,1.5083,-0.32766,-2.7833,9.6104,1.3179,-0.4393,-1.6194,1.7572,7.272e-14,-0.80971,0,0,0.33333,-0,-0,0.66667
0.27855,0.93816,0.83564,0.65723,7.1859,17.458,-1.4646,0.48819,-0.46522,-1.9527,-7.1618e-12,-0.23261,0,0,0.33333,-7.8949e-16,0,0.66667
0.57239,0.9367,1.7172,0.65505,5.1946,7.7892,-2.9995,0.99984,-0.47514,-3.9994,-5.8464e-13,-0.23757,0,0,0.33333,-1.1842e-15,0,0.66667
0.34229,0.29746,1.0269,-0.30381,-3.0704,14.996,0.83192,-0.27731,-1.6715,1.1092,1.6112e-11,-0.83575,0,0,0.33333,-0,-0,0.66667
0.83916,0.90905,2.5175,0.61358,2.0596,1.9862,-4.1191,1.373,-0.66188,-5.4922,8.9647e-10,-0.33094,0,0,0.33333,-0,-0,0.66667
0.68591,0.55116,2.0577,0.076742,0.44335,4.5199,-0.42111,0.14037,-1.9788,-0.56148,1.206e-11,-0.98942,0,0,0.33333,-0,-0,0.66667
0.81613,0.50449,2.4484,0.0067357,0.023058,1.924,-0.043978,0.014659,-2.0001,-0.058637,-5.0409e-10,-1.0001,0,0,0.33333,-0,-0,0.66667
0.15425,0.59451,0.46274,0.14176,1.5809,22.09,-0.17493,0.058309,-1.9297,-0.23324,-1.5696e-09,-0.96484,0,0,0.33333,-0,-0,0.66667
0.18519,0.774,0.55558,0.41099,4.595,20.914,-0.60891,0.20297,-1.3995,-0.81188,-3.9371e-10,-0.69973,0,0,0.33333,-0,-0,0.66667
0.54259,0.58437,1.6278,0.12656,0.99988,8.3391,-0.54937,0.18312,-1.9427,-0.73249,-9.72e-14,-0.97133,0,0,0.33333,-0,-0,0.66667
0.061398,0.40484,0.18419,-0.14274,-1.6262,25.783,0.070112,-0.023371,-1.9287,0.093483,1.6863e-07,-0.96435,0,0,0.33333,9.0888e-18,0,0.66667
0.53806,0.35769,1.6142,-0.21347,-1.7056,8.4951,0.91886,-0.30629,-1.8372,1.2251,1.9185e-13,-0.9186,0,0,0.33333,-0,-0,0.66667
0.336,0.87976,1.008,0.56965,5.9234,15.327,-1.5312,0.5104,-0.84625,-2.0416,-3.4635e-12,-0.42312,0,0,0.33333,-7.8949e-16,0,0.66667
0.32445,0.50967,0.97336,0.014503,0.14725,15.601,-0.037645,0.012548,-1.9989,-0.050193,-2.0888e-12,-0.99945,0,0,0.33333,-1.579e-15,0,0.66667
0.22985,0.82909,0.68956,0.49364,5.4475,19.219,-0.90771,0.30257,-1.1329,-1.2103,-1.9001e-10,-0.56646,0,0,0.33333,-3.9475e-16,0,0.66667
0.0046867,0.61641,0.01406,0.17461,1.9989,28.062,-0.0065467,0.0021822,-1.8912,-0.0087289,-7.6108e-08,-0.94562,0,0,0.33333,-3.084e-18,0,0.66667
0.68707,0.89772,2.0612,0.59658,3.6516,4.8135,-3.2791,1.093,-0.73476,-4.3722,6.251e-12,-0.36738,0,0,0.33333,-7.8949e-16,3.134e-16,0.66667
0.75278,0.68346,2.2583,0.2752,1.2921,3.1456,-1.6573,0.55243,-1.7312,-2.2097,1.0749e-10,-0.86558,0,0,0.33333,-0,-0,0.66667
0.33828,0.13222,1.0149,-0.55167,-5.7148,15.236,1.493,-0.49766,-0.91764,1.9906,4.0833e-12,-0.45882,0,0,0.33333,-0,-0,0.66667
0.4698,0.51337,1.4094,0.02006,0.17589,10.585,-0.075393,0.025131,-1.9983,-0.10052,-9.5347e-14,-0.99917,0,0,0.33333,1.579e-15,0,0.66667
0.79738,0.22182,2.3921,-0.41728,-1.6555,2.4244,2.6618,-0.88728,-1.3818,3.5491,-3.4801e-10,-0.69092,0,0,0.33333,-0,-0,0.66667
0.64747,0.62309,1.9424,0.18463,1.1856,5.476,-0.95634,0.31878,-1.8793,-1.2751,1.0758e-11,-0.93965,0,0,0.33333,2.9606e-16,0,0.66667
0.022978,0.49389,0.068935,-0.0091693,-0.10462,27.325,0.0016839,-0.00056436,-1.9995,0.0022437,-4.562e-06,-0.99976,0,0,0.33333,2.4672e-17,0,0.66667
0.28397,0.53922,0.85192,0.05883,0.61492,17.096,-0.13365,0.04455,-1.9876,-0.1782,-1.605e-11,-0.9938,0,0,0.33333,-0,-0,0.66667
0.95439,0.38983,2.8632,-0.16526,-0.085034,0.30231,1.2618,-0.42059,-1.9026,1.6824,1.6159e-08,-0.9513,0,0,0.33333,-1.579e-15,0,0.66667
0.88315,0.60933,2.6495,0.16399,0.34192,1.0006,-1.1586,0.38621,-1.9036,-1.5448,2.2923e-09,-0.95178,0,0,0.33333,-0,-0,0.66667
0.32522,0.93694,0.97565,0.65541,6.9427,15.759,-1.7052,0.5684,-0.47374,-2.2736,-4.6685e-13,-0.23687,0,0,0.33333,7.4015e-17,0,0.66667
0.91063,0.54656,2.7319,0.069836,0.10271,0.66467,-0.50876,0.16959,-1.982,-0.67834,1.8082e-08,-0.99099,0,0,0.33333,1.579e-15,0,0.66667
0.47918,0.33199,1.4375,-0.25202,-2.1994,10.324,0.96608,-0.32203,-1.7736,1.2881,-1.5232e-13,-0.88678,0,0,0.33333,-7.8949e-16,0,0.66667
0.20207,0.0064462,0.60621,-0.74033,-8.5102,20.363,1.1968,-0.39893,-0.051561,1.5957,-1.0647e-10,-0.025781,0,0,0.33333,-0,-2.5852e-16,0.66667
0.27145,0.14925,0.81435,-0.52613,-5.6924,17.664,1.1425,-0.38085,-1.0155,1.5234,5.301e-11,-0.50777,0,0,0.33333,-0,-0,0.66667
0.24098,0.060174,0.72295,-0.65974,-7.3701,18.858,1.2719,-0.42396,-0.45287,1.6958,2.7684e-11,-0.22643,0,0,0.33333,4.4409e-16,0,0.66667
0.055575,0.050093,0.16673,-0.67486,-7.9984,26.049,0.30004,-0.10002,-0.37994,0.40006,-5.1169e-08,-0.18997,0,0,0.33333,-9.8686e-17,0,0.66667
0.43714,0.88836,1.3114,0.58254,5.5199,11.855,-2.0372,0.67906,-0.79331,-2.7163,7.998e-13,-0.39665,0,0,0.33333,7.8949e-16,-3.8644e-16,0.66667
0.90458,0.38064,2.7137,-0.17904,-0.29195,0.76152,1.2956,-0.43188,-1.8864,1.7275,1.0694e-08,-0.94318,0,0,0.33333,-3.158e-15,0,0.66667
0.52576,0.082671,1.5773,-0.62599,-5.3247,9.1069,2.633,-0.87765,-0.60609,3.5106,2.6867e-13,-0.30305,0,0,0.33333,-0,-0,0.66667
0.54546,0.030784,1.6364,-0.70382,-5.8841,8.6031,3.0712,-1.0237,-0.23997,4.095,-1.3101e-14,-0.11999,0,0,0.33333,2.4672e-16,-2.3217e-17,0.66667
0.227,0.55039,0.681,0.07558,0.81659,19.255,-0.13725,0.045751,-1.979,-0.183,-4.3256e-11,-0.98948,0,0,0.33333,-0,-0,0.66667
0.046401,0.57717,0.1392,0.11575,1.3201,26.384,-0.042968,0.014323,-1.9522,-0.057291,-4.916e-09,-0.9761,0,0,0.33333,9.8686e-17,0,0.66667
0.12581,0.61854,0.37742,0.17781,2.002,23.215,-0.17895,0.059652,-1.888,-0.23861,2.6761e-09,-0.94398,0,0,0.33333,1.9737e-16,0,0.66667
0.21513,0.41516,0.64538,-0.12727,-1.3844,19.715,0.21903,-0.073009,-1.9421,0.29204,9.1478e-11,-0.97106,0,0,0.33333,-0,-0,0.66667
0.87339,0.74188,2.6202,0.36282,0.87054,1.2441,-2.5351,0.84502,-1.532,-3.3801,-3.1228e-10,-0.766,0,0,0.33333,-7.8949e-16,0,0.66667
0.98833,0.9501,2.965,0.67514,0.11332,0.65515,-5.3381,1.7794,-0.37874,-7.1175,7.9031e-07,-0.18937,0,0,0.33333,-0,-0,0.66667
0.017766,0.46314,0.053299,-0.055283,-0.63111,27.535,0.0078582,-0.0026205,-1.9894,0.010477,-1.725e-06,-0.9947,0,0,0.33333,1.2336e-17,0,0.66667
0.44331,0.1646,1.3299,-0.5031,-4.6893,11.602,1.7842,-0.59474,-1.0997,2.379,-9.5701e-13,-0.54983,0,0,0.33333,-7.8949e-16,0,0.66667
0.3692,0.049496,1.1076,-0.67576,-6.9296,14.218,1.9959,-0.6653,-0.37566,2.6612,-5.0648e-13,-0.18783,0,0,0.33333,-3.9475e-16,0,0.66667
0.53646,0.41015,1.6094,-0.13478,-1.0758,8.523,0.57842,-0.19281,-1.9356,0.77122,8.9762e-14,-0.96782,0,0,0.33333,-0,-0,0.66667
0.61652,0.96458,1.8496,0.69687,5.1283,6.6462,-3.4371,1.1457,-0.27345,-4.5828,-2.3492e-13,-0.13673,0,0,0.33333,-1.9737e-16,0,0.66667
0.396,0.60956,1.188,0.16433,1.5715,13.07,-0.52061,0.17354,-1.9032,-0.69415,-2.6063e-12,-0.95162,0,0,0.33333,-0,-0,0.66667
0.18386,0.15177,0.55159,-0.52235,-5.8994,20.991,0.76833,-0.25611,-1.0301,1.0244,4.835e-10,-0.51507,0,0,0.33333,-2.9606e-16,0,0.66667
0.58527,0.1641,1.7558,-0.50386,-3.8139,7.2966,2.3592,-0.78638,-1.097,3.1455,1.052e-12,-0.54848,0,0,0.33333,-0,-0,0.66667
0.033297,0.65908,0.09989,0.23861,2.7351,26.913,-0.063561,0.021187,-1.7983,-0.084748,4.1521e-09,-0.89914,0,0,0.33333,-0,-0,0.66667
0.89398,0.57297,2.6819,0.10945,0.20125,0.85524,-0.78278,0.26093,-1.957,-1.0437,1.2935e-08,-0.97851,0,0,0.33333,-0,-0,0.66667
0.64441,0.81161,1.9332,0.46741,3.113,5.7114,-2.4097,0.80322,-1.2241,-3.2129,4.996e-12,-0.61205,0,0,0.33333,8.3884e-16,0,0.66667
0.094544,0.090236,0.28363,-0.61465,-7.1921,24.502,0.46489,-0.15496,-0.65755,0.61985,-1.8114e-08,-0.32878,0,0,0.33333,4.9343e-17,0,0.66667
0.55137,0.38788,1.6541,-0.16818,-1.3114,8.0895,0.74183,-0.24728,-1.8988,0.9891,-3.1641e-14,-0.9494,0,0,0.33333,7.8949e-16,0,0.66667
0.12897,0.86454,0.38692,0.54682,6.3032,23.136,-0.5642,0.18807,-0.93641,-0.75227,-1.8922e-09,-0.4682,0,0,0.33333,-1.9737e-16,0,0.66667
0.11882,0.62957,0.35646,0.19435,2.1935,23.494,-0.18474,0.061581,-1.8658,-0.24632,5.6769e-09,-0.93289,0,0,0.33333,3.9475e-16,0,0.66667
0.26555,0.068562,0.79665,-0.64716,-7.1218,17.935,1.3748,-0.45827,-0.51143,1.8331,1.3605e-11,-0.25572,0,0,0.33333,-0,-2.4688e-16,0.66667
0.76291,0.97716,2.2887,0.71575,3.5527,3.3925,-4.3684,1.4561,-0.17838,-5.8245,5.2398e-12,-0.089189,0,0,0.33333,-0,-0,0.66667
0.69822,0.50659,2.0947,0.0098848,0.05502,4.2314,-0.055214,0.018405,-1.9995,-0.073619,1.8862e-12,-0.99976,0,0,0.33333,-0,-0,0.66667
0.55885,0.20512,1.6766,-0.44233,-3.4819,7.9964,1.9776,-0.65919,-1.3038,2.6367,1.0438e-12,-0.65188,0,0,0.33333,7.8949e-16,0,0.66667
0.25523,0.70714,0.76568,0.31071,3.3356,18.209,-0.63442,0.21147,-1.6561,-0.84589,-1.0631e-10,-0.82806,0,0,0.33333,-0,-0,0.66667
0.51787,0.62492,1.5536,0.18738,1.5431,9.0967,-0.77632,0.25877,-1.8764,-1.0351,-2.684e-13,-0.9382,0,0,0.33333,1.0732e-15,0,0.66667
0.92975,0.75604,2.7893,0.38405,0.45947,0.6549,-2.8566,0.9522,-1.4754,-3.8088,-9.6985e-10,-0.7377,0,0,0.33333,-0,-0,0.66667
0.18532,0.29997,0.55596,-0.30005,-3.3299,20.89,0.44483,-0.14828,-1.6795,0.59311,1.6954e-10,-0.83977,0,0,0.33333,1.9737e-16,0,0.66667
0.73421,0.71474,2.2026,0.32211,1.6284,3.5491,-1.8919,0.63065,-1.6319,-2.5226,8.9601e-11,-0.81597,0,0,0.33333,-0,-0,0.66667
0.87218,0.66614,2.6165,0.24921,0.5863,1.1785,-1.7389,0.57962,-1.7789,-2.3185,-4.6852e-10,-0.88945,0,0,0.33333,-0,-0,0.66667
0.66946,0.85609,2.0084,0.53414,3.3835,5.1594,-2.8607,0.95356,-0.98519,-3.8142,7.3064e-12,-0.49259,0,0,0.33333,-0,-0,0.66667
0.2037,0.15554,0.61109,-0.51669,-5.7846,20.225,0.84198,-0.28066,-1.0522,1.1226,3.9746e-10,-0.52608,0,0,0.33333,2.4672e-17,0,0.66667
0.12917,0.18059,0.3875,-0.47912,-5.4881,23.116,0.49509,-0.16503,-1.1837,0.66012,1.657e-09,-0.59184,0,0,0.33333,-0,-0,0.66667
0.51503,0.26628,1.5451,-0.35058,-2.9312,9.2437,1.4445,-0.48149,-1.5628,1.926,2.8633e-13,-0.78141,0,0,0.33333,7.8949e-16,0,0.66667
0.13031,0.5904,0.39092,0.13561,1.5231,23.035,-0.14137,0.047122,-1.9349,-0.18849,4.9153e-10,-0.96747,0,0,0.33333,2.4672e-16,0,0.66667
0.8257,0.050328,2.4771,-0.67451,-2.5005,2.2718,4.4555,-1.4852,-0.38198,5.9407,-1.6532e-10,-0.19099,0,0,0.33333,7.8949e-16,0,0.66667
0.52364,0.82894,1.5709,0.49341,4.1341,9.0663,-2.067,0.68899,-1.1336,-2.756,-5.58e-13,-0.56679,0,0,0.33333,-1.4096e-15,0,0.66667
0.29142,0.8793,0.87427,0.56895,6.1067,16.943,-1.3264,0.44215,-0.84921,-1.7686,-1.9557e-11,-0.4246,0,0,0.33333,-7.8949e-16,0,0.66667
0.56813,0.71415,1.7044,0.32122,2.4575,7.6615,-1.46,0.48666,-1.6332,-1.9466,-3.8547e-13,-0.81661,0,0,0.33333,-0,-0,0.66667
0.26064,0.35571,0.78191,-0.21643,-2.305,17.988,0.45128,-0.15043,-1.8328,0.6017,7.4121e-11,-0.91641,0,0,0.33333,-3.9475e-16,0,0.66667
0.58447,0.10427,1.7534,-0.5936,-4.5605,7.3956,2.7755,-0.92517,-0.74657,3.7007,9.8899e-13,-0.37329,0,0,0.33333,-0,-0,0.66667
0.23212,0.012567,0.69637,-0.73115,-8.2799,19.223,1.3577,-0.45258,-0.098892,1.8103,-8.896e-12,-0.049446,0,0,0.33333,-7.8949e-16,3.7962e-16,0.66667
0.21905,0.75306,0.65716,0.37959,4.1718,19.601,-0.6652,0.22173,-1.4887,-0.88693,-2.2748e-10,-0.74433,0,0,0.33333,-0,-0,0.66667
0.51851,0.65488,1.5555,0.23231,1.9158,9.0902,-0.96365,0.32122,-1.809,-1.2849,-1.9795e-13,-0.9045,0,0,0.33333,1.9737e-16,0,0.66667
0.83542,0.9508,2.5062,0.67621,2.3774,2.1305,-4.5193,1.5064,-0.37343,-6.0258,2.3282e-10,-0.18671,0,0,0.33333,-1.579e-15,0,0.66667
0.64477,0.94235,1.9343,0.66352,4.568,5.8931,-3.4225,1.1408,-0.4348,-4.5634,-3.4417e-13,-0.2174,0,0,0.33333,-0,-0,0.66667
0.094191,0.083239,0.28257,-0.62514,-7.3238,24.518,0.47106,-0.15702,-0.61051,0.62808,-8.2246e-09,-0.30525,0,0,0.33333,-0,-0,0.66667
0.13407,0.96471,0.4022,0.69706,8.159,22.97,-0.74763,0.24921,-0.27254,-0.99684,-3.3779e-09,-0.13627,0,0,0.33333,-2.4672e-16,0,0.66667
0.3903,0.50048,1.1709,0.00071809,0.0068847,13.254,-0.0022422,0.00074739,-2.0015,-0.0029896,4.025e-14,-1.0007,0,0,0.33333,-0,-0,0.66667
0.31956,0.072127,0.95869,-0.64181,-6.815,15.955,1.6408,-0.54693,-0.53484,2.1877,1.7886e-12,-0.26742,0,0,0.33333,-0,-0,0.66667
0.89122,0.96181,2.6737,0.69271,1.6507,1.443,-4.9388,1.6463,-0.29422,-6.5851,1.4914e-08,-0.14711,0,0,0.33333,-0,-0,0.66667
0.89129,0.34245,2.6739,-0.23633,-0.4589,0.9384,1.6851,-0.5617,-1.8027,2.2468,6.9855e-09,-0.90133,0,0,0.33333,-3.9475e-16,0,0.66667
0.029824,0.14414,0.089472,-0.53379,-6.2462,27.061,0.12736,-0.042453,-0.98665,0.16981,-2.6013e-08,-0.49333,0,0,0.33333,-4.9343e-17,0,0.66667
0.21052,0.79144,0.63157,0.43716,4.845,19.942,-0.73625,0.24542,-1.3199,-0.98166,-3.0221e-10,-0.65995,0,0,0.33333,-0,-0,0.66667
0.38835,0.20918,1.1651,-0.43623,-4.2768,13.42,1.3553,-0.45176,-1.3232,1.807,1.0605e-12,-0.66161,0,0,0.33333,-0,-0,0.66667
0.17637,0.45022,0.52912,-0.074676,-0.8251,21.218,0.10537,-0.035122,-1.9795,0.14049,1.1851e-10,-0.98977,0,0,0.33333,-0,-0,0.66667
0.91869,0.54374,2.7561,0.06561,0.084852,0.58243,-0.4822,0.16073,-1.9842,-0.64294,1.7213e-08,-0.9921,0,0,0.33333,-0,-0,0.66667
0.1896,0.32043,0.5688,-0.26936,-2.9793,20.719,0.40856,-0.13619,-1.742,0.54475,1.3202e-10,-0.87101,0,0,0.33333,3.9475e-16,0,0.66667
0.73399,0.41842,2.202,-0.12237,-0.60785,3.4668,0.71853,-0.23951,-1.9467,0.95804,-4.1376e-11,-0.97335,0,0,0.33333,-0,-0,0.66667
0.95692,0.78192,2.8707,0.42288,0.25959,0.47714,-3.2373,1.0791,-1.3651,-4.3164,7.0795e-09,-0.68255,0,0,0.33333,-0,-0,0.66667
0.47772,0.45006,1.4332,-0.074904,-0.65046,10.334,0.28626,-0.095421,-1.9793,0.38168,6.7668e-14,-0.98966,0,0,0.33333,-7.8949e-16,0,0.66667
0.81422,0.39825,2.4427,-0.15262,-0.53194,1.9804,0.99413,-0.33138,-1.9172,1.3255,-2.0661e-10,-0.95861,0,0,0.33333,7.8949e-16,0,0.66667
0.42822,0.80021,1.2847,0.45031,4.2449,12.072,-1.5427,0.51422,-1.2783,-2.0569,9.4891e-13,-0.63915,0,0,0.33333,-0,-0,0.66667
0.81345,0.93087,2.4403,0.6463,2.5267,2.4208,-4.2058,1.4019,-0.51516,-5.6078,3.222e-10,-0.25758,0,0,0.33333,-0,-0,0.66667
0.7617,0.55632,2.2851,0.084486,0.37697,2.902,-0.51482,0.17161,-1.9746,-0.68643,4.2284e-11,-0.98731,0,0,0.33333,7.8949e-16,0,0.66667
0.9596,0.20572,2.8788,-0.44142,-0.25102,0.47894,3.3887,-1.1296,-1.3065,4.5182,1.1198e-08,-0.65323,0,0,0.33333,-0,-0,0.66667
0.3366,0.22655,1.0098,-0.41017,-4.1967,15.235,1.1045,-0.36817,-1.4014,1.4727,1.4639e-11,-0.70072,0,0,0.33333,-0,-0,0.66667
0.76659,0.68871,2.2998,0.28306,1.259,2.8825,-1.7359,0.57865,-1.7163,-2.3146,1.3952e-10,-0.85816,0,0,0.33333,3.158e-15,0,0.66667
0.92162,0.40088,2.7649,-0.14868,-0.1854,0.57568,1.0962,-0.36539,-1.922,1.4616,4.0096e-08,-0.96101,0,0,0.33333,-3.9475e-16,0,0.66667
0.81077,0.81939,2.4323,0.47909,1.8045,2.2601,-3.1075,1.0358,-1.1841,-4.1433,5.4466e-10,-0.59203,0,0,0.33333,-0,-0,0.66667
0.81434,0.89498,2.443,0.59247,2.265,2.3343,-3.8598,1.2866,-0.75167,-5.1464,3.899e-10,-0.37583,0,0,0.33333,-0,-0,0.66667
0.9483,0.37711,2.8449,-0.18434,-0.12179,0.35727,1.3984,-0.46615,-1.8798,1.8646,3.0669e-08,-0.93988,0,0,0.33333,-0,-0,0.66667
0.29068,0.29189,0.87205,-0.31216,-3.2789,16.883,0.72592,-0.24197,-1.6529,0.9679,5.4551e-11,-0.82646,0,0,0.33333,-0,-0,0.66667
0.44015,0.95285,1.3204,0.67928,6.501,11.828,-2.3919,0.79729,-0.3589,-3.1892,1.9984e-13,-0.17945,0,0,0.33333,-0,-0,0.66667
0.10606,0.80128,0.31817,0.45191,5.1941,24.024,-0.38343,0.12781,-1.2734,-0.51124,2.2348e-09,-0.63671,0,0,0.33333,-9.8686e-17,0,0.66667
0.87728,0.15756,2.6318,-0.51366,-1.2609,1.3501,3.605,-1.2017,-1.0629,4.8067,2.3066e-09,-0.53143,0,0,0.33333,-0,-0,0.66667
0.3437,0.89534,1.0311,0.59302,6.1459,15.064,-1.6306,0.54352,-0.74969,-2.1741,-1.4612e-12,-0.37484,0,0,0.33333,-3.9475e-16,0,0.66667
0.90524,0.92055,2.7157,0.63083,1.259,1.196,-4.5684,1.5228,-0.58484,-6.0912,8.5099e-10,-0.29242,0,0,0.33333,-0,-0,0.66667
0.20386,0.19547,0.61157,-0.45679,-5.0861,20.203,0.74497,-0.24832,-1.2583,0.99329,3.5155e-10,-0.62915,0,0,0.33333,-0,-0,0.66667
0.34961,0.80318,1.0488,0.45478,4.6226,14.788,-1.2719,0.42398,-1.2641,-1.6959,-7.353e-12,-0.63207,0,0,0.33333,3.9475e-16,0,0.66667
0.69048,0.77674,2.0714,0.41511,2.4385,4.5672,-2.293,0.76434,-1.3876,-3.0573,3.119e-11,-0.69382,0,0,0.33333,-1.1842e-15,0,0.66667
0.92271,0.56264,2.7681,0.093958,0.11361,0.54889,-0.69357,0.23119,-1.9701,-0.92475,1.3895e-07,-0.98503,0,0,0.33333,-0,-0,0.66667
0.68795,0.53771,2.0638,0.056569,0.32475,4.4701,-0.31133,0.10378,-1.989,-0.41511,9.3997e-12,-0.99452,0,0,0.33333,1.579e-15,0,0.66667
0.34009,0.3772,1.0203,-0.1842,-1.8538,15.049,0.50117,-0.16706,-1.88,0.66823,1.4625e-11,-0.94001,0,0,0.33333,-0,-0,0.66667
0.040043,0.92407,0.12013,0.63611,7.5169,26.661,-0.20377,0.067925,-0.56055,-0.2717,4.0362e-07,-0.28027,0,0,0.33333,-4.9343e-17,0,0.66667
0.33175,0.17309,0.99525,-0.49037,-5.073,15.442,1.3014,-0.43381,-1.1444,1.7352,1.0624e-11,-0.57222,0,0,0.33333,3.9475e-16,0,0.66667
0.47616,0.25174,1.4285,-0.37238,-3.2918,10.468,1.4185,-0.47284,-1.5075,1.8914,-5.1636e-13,-0.75374,0,0,0.33333,-0,-0,0.66667
0.7304,0.22495,2.1912,-0.41258,-2.1419,3.6931,2.4108,-0.8036,-1.3947,3.2144,-8.3845e-11,-0.69737,0,0,0.33333,-0,-0,0.66667
0.89363,0.85203,2.6809,0.52805,1.121,1.1772,-3.775,1.2583,-1.0084,-5.0334,6.9604e-09,-0.50421,0,0,0.33333,-1.579e-15,0,0.66667
0.006309,0.32109,0.018927,-0.26836,-3.0837,27.997,0.013545,-0.004515,-1.7435,0.01806,-5.9972e-09,-0.87175,0,0,0.33333,-1.2336e-17,0,0.66667
0.076734,0.73156,0.2302,0.34734,3.9844,25.179,-0.21322,0.071074,-1.5708,-0.2843,2.5082e-09,-0.78539,0,0,0.33333,-0,-0,0.66667
0.28179,0.26187,0.84537,-0.3572,-3.785,17.224,0.80525,-0.26842,-1.5463,1.0737,6.6483e-11,-0.77313,0,0,0.33333,-0,-0,0.66667
0.53562,0.1882,1.6069,-0.46771,-3.8356,8.6915,2.0041,-0.66803,-1.2231,2.6721,9.6811e-13,-0.61156,0,0,0.33333,-0,-0,0.66667
0.53579,0.95077,1.6074,0.67616,5.7108,8.8569,-2.8982,0.96607,-0.37378,-3.8643,-2.1072e-13,-0.18689,0,0,0.33333,-7.8949e-16,0,0.66667
0.42526,0.96481,1.2758,0.69721,6.7982,12.332,-2.372,0.79066,-0.27202,-3.1626,1.4211e-13,-0.13601,0,0,0.33333,5.9212e-16,0,0.66667
0.88364,0.033297,2.6509,-0.70005,-1.7887,1.5405,4.9488,-1.6496,-0.25799,6.5983,5.3439e-09,-0.129,0,0,0.33333,-0,-0,0.66667
0.72735,0.61572,2.1821,0.17358,0.88518,3.6209,-1.0101,0.33669,-1.8923,-1.3467,5.1601e-11,-0.94617,0,0,0.33333,-0,-0,0.66667
0.13596,0.8092,0.40788,0.4638,5.2957,22.847,-0.50448,0.16816,-1.2355,-0.67263,1.3892e-10,-0.61776,0,0,0.33333,-4.9343e-17,0,0.66667
0.23514,0.12705,0.70541,-0.55942,-6.1971,19.04,1.0523,-0.35077,-0.88836,1.4031,1.1764e-10,-0.44418,0,0,0.33333,-0,-0,0.66667
0.50531,0.11181,1.5159,-0.58228,-5.0683,9.6881,2.3538,-0.78461,-0.79379,3.1384,4.6407e-14,-0.3969,0,0,0.33333,7.8949e-16,0,0.66667
0.36252,0.11994,1.0876,-0.5701,-5.8017,14.387,1.6534,-0.55112,-0.84464,2.2045,4.2188e-13,-0.42232,0,0,0.33333,1.9737e-16,0,0.66667
0.80862,0.54022,2.4259,0.060326,0.2156,2.0517,-0.39024,0.13008,-1.9867,-0.52032,4.2377e-11,-0.99337,0,0,0.33333,-0,-0,0.66667
0.41934,0.064992,1.258,-0.65251,-6.3608,12.495,2.189,-0.72966,-0.48687,2.9186,-4.4076e-13,-0.24343,0,0,0.33333,-1.579e-15,0,0.66667
0.94116,0.03024,2.8235,-0.70464,-0.91753,0.99531,5.3054,-1.7685,-0.2355,7.0739,7.4065e-07,-0.11775,0,0,0.33333,-5.9212e-16,0,0.66667
0.18246,0.41005,0.54737,-0.13493,-1.4891,20.983,0.19695,-0.065651,-1.9355,0.2626,2.9102e-10,-0.96776,0,0,0.33333,-0,-0,0.66667
0.48279,0.038145,1.4484,-0.69278,-6.3164,10.477,2.6757,-0.89191,-0.29371,3.5676,-9.992e-15,-0.14685,0,0,0.33333,-0,2.7153e-16,0.66667
0.89425,0.90652,2.6827,0.60977,1.3452,1.2812,-4.3623,1.4541,-0.67901,-5.8164,3.3254e-08,-0.3395,0,0,0.33333,3.158e-15,0,0.66667
0.065736,0.63568,0.19721,0.20352,2.3217,25.611,-0.10703,0.035676,-1.8523,-0.1427,-1.1224e-08,-0.92617,0,0,0.33333,-0,-0,0.66667
0.27923,0.6332,0.83769,0.1998,2.1024,17.287,-0.44633,0.14878,-1.858,-0.59511,-5.2062e-11,-0.92902,0,0,0.33333,-0,-0,0.66667
0.20277,0.21508,0.60832,-0.42737,-4.7493,20.238,0.69328,-0.23109,-1.3514,0.92437,3.6012e-10,-0.67572,0,0,0.33333,-9.8686e-17,0,0.66667
0.98481,0.92867,2.9544,0.64301,0.13321,0.61571,-5.0659,1.6886,-0.53009,-6.7546,-7.1079e-07,-0.26505,0,0,0.33333,-0,6.4013e-16,0.66667
0.46845,0.39867,1.4054,-0.15199,-1.3386,10.643,0.5696,-0.18987,-1.9182,0.75947,-1.224e-13,-0.95909,0,0,0.33333,7.8949e-16,0,0.66667
0.88817,0.87912,2.6645,0.56868,1.2999,1.2917,-4.0407,1.3469,-0.85062,-5.3875,3.1661e-10,-0.42531,0,0,0.33333,-0,-6.8531e-18,0.66667
0.85393,0.94951,2.5618,0.67427,2.1158,1.8692,-4.6062,1.5354,-0.38287,-6.1416,6.8318e-10,-0.19143,0,0,0.33333,-0,-0,0.66667
0.10397,0.078431,0.31191,-0.63235,-7.3996,24.134,0.52596,-0.17532,-0.57749,0.70128,1.9919e-09,-0.28875,0,0,0.33333,-0,-0,0.66667
0.34994,0.82452,1.0498,0.48679,4.9618,14.79,-1.3628,0.45426,-1.1568,-1.817,-5.5281e-12,-0.57839,0,0,0.33333,-0,-0,0.66667
0.4967,0.0012393,1.4901,-0.74814,-6.7607,10.099,2.9728,-0.99093,-0.010781,3.9637,-7.5051e-14,-0.0053903,0,0,0.33333,3.158e-15,0,0.66667
0.8789,0.34239,2.6367,-0.23642,-0.52134,1.0869,1.6623,-0.5541,-1.8021,2.2164,-3.962e-09,-0.90103,0,0,0.33333,-5.9212e-16,0,0.66667
0.98185,0.26024,2.9456,-0.35964,0.0063441,0.25823,2.8249,-0.94164,-1.5398,3.7665,-7.7303e-09,-0.76992,0,0,0.33333,-0,-0,0.66667
0.33695,0.53122,1.0108,0.046824,0.47088,15.148,-0.12622,0.042073,-1.9931,-0.16829,-4.6654e-12,-0.99655,0,0,0.33333,-9.4986e-16,0,0.66667
0.78195,0.077452,2.3458,-0.63382,-2.8496,2.9328,3.9649,-1.3216,-0.57142,5.2866,-9.5535e-11,-0.28571,0,0,0.33333,-0,-0,0.66667
0.85872,0.044453,2.5762,-0.68332,-2.0856,1.8198,4.6942,-1.5647,-0.33965,6.259,-5.9192e-10,-0.16983,0,0,0.33333,-1.579e-15,0,0.66667
0.28125,0.89533,0.84375,0.593,6.4234,17.329,-1.3342,0.44475,-0.74979,-1.779,-2.0793e-11,-0.37489,0,0,0.33333,-0,3.5895e-16,0.66667
0.19893,0.76491,0.59678,0.39737,4.413,20.38,-0.63238,0.21079,-1.4379,-0.84318,-3.3749e-10,-0.71896,0,0,0.33333,3.9475e-16,0,0.66667
0.64661,0.71678,1.9398,0.32517,2.1165,5.5592,-1.6821,0.56068,-1.6246,-2.2427,1.1278e-11,-0.8123,0,0,0.33333,2.9606e-16,0,0.66667
0.56414,0.77004,1.6924,0.40507,3.1465,7.8213,-1.8281,0.60937,-1.4164,-2.4375,-9.3681e-13,-0.7082,0,0,0.33333,-0,-0,0.66667
0.15458,0.13706,0.46373,-0.54441,-6.2265,22.134,0.67322,-0.22441,-0.94594,0.89762,1.5878e-09,-0.47297,0,0,0.33333,-0,-1.4882e-16,0.66667
0.74217,0.62283,2.2265,0.18425,0.89213,3.3168,-1.0939,0.36465,-1.8798,-1.4586,6.8735e-11,-0.93988,0,0,0.33333,-9.8686e-16,0,0.66667
0.36009,0.84422,1.0803,0.51633,5.2341,14.445,-1.4874,0.4958,-1.0535,-1.9832,-1.9059e-12,-0.52675,0,0,0.33333,-1.579e-15,0,0.66667
0.60467,0.055232,1.814,-0.66715,-4.9974,6.9238,3.2273,-1.0758,-0.41724,4.303,5.2314e-13,-0.20862,0,0,0.33333,-3.9475e-16,-2.1353e-17,0.66667
0.006493,0.7986,0.019479,0.44789,5.2064,27.99,-0.023265,0.0077551,-1.2859,-0.03102,-5.2939e-09,-0.64297,0,0,0.33333,-1.2336e-17,0,0.66667
0.59052,0.79943,1.7715,0.44914,3.3422,7.1116,-2.1218,0.70727,-1.2822,-2.8291,-5.8598e-13,-0.64111,0,0,0.33333,-7.8949e-16,0,0.66667
0.73343,0.88798,2.2003,0.58197,3.092,3.795,-3.4147,1.1382,-0.79557,-4.5529,3.8089e-11,-0.39779,0,0,0.33333,-0,3.8343e-16,0.66667
0.34567,0.39184,1.037,-0.16224,-1.624,14.844,0.44865,-0.14955,-1.906,0.59819,1.1791e-11,-0.95301,0,0,0.33333,3.9475e-16,0,0.66667
0.75933,0.75572,2.278,0.38358,1.7837,3.0897,-2.3301,0.7767,-1.4768,-3.1068,1.5367e-10,-0.73838,0,0,0.33333,1.579e-15,0,0.66667
0.42697,0.74292,1.2809,0.36438,3.4131,12.074,-1.2446,0.41488,-1.5277,-1.6595,4.8594e-13,-0.76385,0,0,0.33333,-1.4193e-16,0,0.66667
0.4232,0.39173,1.2696,-0.16241,-1.5095,12.141,0.54984,-0.18328,-1.9059,0.73312,7.388e-13,-0.95296,0,0,0.33333,7.8949e-16,0,0.66667
0.29935,0.95199,0.89806,0.67798,7.3344,16.706,-1.6236,0.54121,-0.36519,-2.1649,-1.9108e-12,-0.1826,0,0,0.33333,3.9475e-16,0,0.66667
0.74106,0.040197,2.2232,-0.6897,-3.6692,3.776,4.0889,-1.363,-0.30816,5.4519,-7.0837e-12,-0.15408,0,0,0.33333,-0,-0,0.66667
0.91708,0.19076,2.7513,-0.46386,-0.71772,0.85615,3.4032,-1.1344,-1.2353,4.5376,-2.2311e-09,-0.61766,0,0,0.33333,-3.158e-15,0,0.66667
0.4431,0.36569,1.3293,-0.20147,-1.8339,11.483,0.71417,-0.23806,-1.8552,0.95223,6.9611e-14,-0.9276,0,0,0.33333,-0,-0,0.66667
0.98698,0.79473,2.961,0.4421,-0.031085,0.31859,-3.4907,1.1636,-1.3046,-4.6543,2.336e-08,-0.65231,0,0,0.33333,-1.579e-15,0,0.66667
0.79949,0.64503,2.3985,0.21755,0.82572,2.2533,-1.3914,0.46381,-1.8314,-1.8552,1.101e-10,-0.91569,0,0,0.33333,-0,-0,0.66667
0.31124,0.50736,0.93371,0.011042,0.11323,16.085,-0.027494,0.0091648,-1.9997,-0.036659,-1.5208e-12,-0.99987,0,0,0.33333,-0,-0,0.66667
0.23311,0.98419,0.69932,0.72628,8.2154,19.183,-1.3544,0.45146,-0.12422,-1.8059,2.6356e-12,-0.062108,0,0,0.33333,-0,3.9469e-16,0.66667
0.35894,0.13272,1.0768,-0.55092,-5.6114,14.503,1.582,-0.52732,-0.92111,2.1093,1.2313e-12,-0.46055,0,0,0.33333,-0,3.1773e-16,0.66667
0.40467,0.41456,1.214,-0.12817,-1.2136,12.766,0.41492,-0.13831,-1.9416,0.55323,1.6169e-12,-0.97081,0,0,0.33333,-0,-0,0.66667
0.4959,0.6795,1.4877,0.26925,2.2996,9.8014,-1.0682,0.35606,-1.742,-1.4242,2.5424e-14,-0.871,0,0,0.33333,-0,-0,0.66667
0.70153,0.37924,2.1046,-0.18114,-1.0044,4.1871,1.0166,-0.33888,-1.8839,1.3555,-3.4909e-11,-0.94194,0,0,0.33333,-0,-0,0.66667
0.841,0.2069,2.523,-0.43965,-1.376,1.7544,2.958,-0.98599,-1.3123,3.944,-6.2394e-10,-0.65616,0,0,0.33333,7.8949e-16,0,0.66667
0.059074,0.43867,0.17722,-0.091996,-1.0472,25.875,0.043477,-0.014492,-1.9708,0.057969,-3.6962e-07,-0.98539,0,0,0.33333,1.9737e-16,0,0.66667
0.45307,0.78614,1.3592,0.42921,3.9249,11.241,-1.5557,0.51857,-1.3457,-2.0743,8.9695e-13,-0.67285,0,0,0.33333,-0,-0,0.66667
0.42756,0.30497,1.2827,-0.29255,-2.7241,12.028,1.0006,-0.33355,-1.6954,1.3342,1.7109e-13,-0.8477,0,0,0.33333,-0,-0,0.66667
0.42403,0.4577,1.2721,-0.063455,-0.58779,12.1,0.21526,-0.071752,-1.9854,0.28701,4.3671e-13,-0.9927,0,0,0.33333,-0,-0,0.66667
0.56368,0.41811,1.691,-0.12283,-0.93593,7.7225,0.5539,-0.18463,-1.9462,0.73854,-2.4636e-13,-0.97308,0,0,0.33333,-0,-0,0.66667
0.9398,0.21483,2.8194,-0.42776,-0.43104,0.61296,3.2161,-1.072,-1.3499,4.2881,1.0728e-08,-0.67496,0,0,0.33333,-3.9475e-16,0,0.66667
0.33032,0.68057,0.99096,0.27085,2.7582,15.419,-0.71574,0.23858,-1.7393,-0.95432,-2.2086e-11,-0.86963,0,0,0.33333,3.9475e-16,0,0.66667
0.94897,0.44349,2.8469,-0.084761,-0.052356,0.31813,0.64349,-0.2145,-1.9745,0.85798,-6.7167e-08,-0.98723,0,0,0.33333,-0,-0,0.66667
0.24588,0.58462,0.73765,0.12693,1.3591,18.537,-0.24968,0.083226,-1.9424,-0.3329,-5.8192e-11,-0.97118,0,0,0.33333,-0,-0,0.66667
0.54841,0.11128,1.6452,-0.58308,-4.7581,8.4045,2.5581,-0.85271,-0.79085,3.4108,6.9633e-13,-0.39542,0,0,0.33333,7.8949e-16,0,0.66667
0.7134,0.87394,2.1402,0.5609,3.1611,4.1918,-3.2012,1.0671,-0.88212,-4.2683,2.4789e-11,-0.44106,0,0,0.33333,-1.9737e-16,0,0.66667
0.88062,0.85869,2.6419,0.53803,1.2972,1.3399,-3.7904,1.2635,-0.96999,-5.0539,4.2286e-09,-0.48499,0,0,0.33333,-0,-0,0.66667
0.7817,0.32071,2.3451,-0.26893,-1.1185,2.5939,1.6818,-0.56059,-1.7431,2.2424,-1.4058e-10,-0.87154,0,0,0.33333,-0,-0,0.66667
0.96576,0.29485,2.8973,-0.30772,-0.099251,0.30917,2.3775,-0.7925,-1.6628,3.17,-1.0269e-08,-0.8314,0,0,0.33333,-0,-0,0.66667
0.55114,0.15396,1.6534,-0.51907,-4.179,8.2735,2.2886,-0.76288,-1.0426,3.0515,1.0529e-12,-0.52131,0,0,0.33333,-1.1842e-15,0,0.66667
0.90543,0.76401,2.7163,0.39601,0.68974,0.9031,-2.8684,0.95615,-1.4422,-3.8246,-5.2468e-10,-0.7211,0,0,0.33333,-0,-0,0.66667
0.65468,0.78061,1.9641,0.42091,2.7178,5.4209,-2.2045,0.73484,-1.3713,-2.9393,1.0487e-11,-0.68565,0,0,0.33333,-9.8686e-17,0,0.66667
0.16901,0.38375,0.50703,-0.17437,-1.9365,21.512,0.23577,-0.078589,-1.8917,0.31436,3.1274e-10,-0.94585,0,0,0.33333,-0,-0,0.66667
0.030661,0.79387,0.091982,0.4408,5.1164,27.024,-0.10812,0.036041,-1.309,-0.14416,6.9908e-09,-0.6545,0,0,0.33333,-4.9343e-17,0,0.66667
0.76078,0.52148,2.2823,0.03222,0.1441,2.9136,-0.1961,0.065366,-1.9958,-0.26147,1.5396e-11,-0.99792,0,0,0.33333,-0,-0,0.66667
0.67762,0.93804,2.0329,0.65706,4.1752,5.0996,-3.5619,1.1873,-0.46581,-4.7492,7.0854e-13,-0.2329,0,0,0.33333,-1.579e-15,0,0.66667
0.28831,0.61978,0.86494,0.17967,1.878,16.945,-0.41441,0.13814,-1.8852,-0.55255,-4.143e-11,-0.94259,0,0,0.33333,1.9737e-16,0,0.66667
0.10602,0.11989,0.31805,-0.57016,-6.6247,24.043,0.48357,-0.16119,-0.84434,0.64476,-6.5961e-09,-0.42217,0,0,0.33333,9.8686e-17,0,0.66667
0.68946,0.0081631,2.0684,-0.73776,-4.6308,4.9324,4.0692,-1.3564,-0.064758,5.4256,-1.1724e-13,-0.032379,0,0,0.33333,-0,-0,0.66667
0.74945,0.37868,2.2484,-0.18197,-0.85725,3.169,1.091,-0.36368,-1.8831,1.4547,-7.1165e-11,-0.94154,0,0,0.33333,-0,-0,0.66667
0.55828,0.81749,1.6748,0.47623,3.7678,8.036,-2.127,0.70899,-1.1938,-2.8359,-1.1564e-12,-0.59688,0,0,0.33333,-0,-0,0.66667
0.66524,0.27045,1.9957,-0.34432,-2.1448,5.1121,1.8324,-0.61081,-1.5778,2.4432,-1.8688e-11,-0.78892,0,0,0.33333,-0,-0,0.66667
0.40406,0.16452,1.2122,-0.50321,-4.8913,12.915,1.6266,-0.54221,-1.0996,2.1688,-7.7738e-13,-0.5498,0,0,0.33333,-0,-0,0.66667
0.86609,0.64831,2.5983,0.22247,0.54877,1.243,-1.5414,0.51381,-1.8236,-2.0552,-6.9822e-10,-0.91182,0,0,0.33333,-0,-0,0.66667
0.5324,0.2351,1.5972,-0.39735,-3.2499,8.7438,1.6924,-0.56413,-1.4384,2.2565,6.6624e-13,-0.71918,0,0,0.33333,7.8949e-16,0,0.66667
0.89484,0.3014,2.6845,-0.29791,-0.56597,0.93698,2.1326,-0.71087,-1.6839,2.8435,-1.6009e-09,-0.84197,0,0,0.33333,-0,-0,0.66667
0.73971,0.030675,2.2191,-0.70399,-3.7766,3.8224,4.166,-1.3887,-0.23872,5.5546,-3.6424e-12,-0.11936,0,0,0.33333,-1.3816e-15,0,0.66667
0.5229,0.73523,1.5687,0.35284,2.9161,9.0057,-1.476,0.492,-1.5565,-1.968,-5.0049e-13,-0.77827,0,0,0.33333,-0,-0,0.66667
0.71966,0.35729,2.159,-0.21406,-1.1237,3.8003,1.2324,-0.41081,-1.8369,1.6432,-5.4189e-11,-0.91843,0,0,0.33333,-0,-0,0.66667
0.88675,0.58768,2.6602,0.13152,0.2629,0.9461,-0.93303,0.31101,-1.9385,-1.244,-1.7521e-09,-0.96925,0,0,0.33333,7.8949e-16,0,0.66667
0.19451,0.80572,0.58353,0.45858,5.1273,20.564,-0.71359,0.23786,-1.252,-0.95146,-4.0955e-10,-0.62601,0,0,0.33333,-1.9737e-16,0,0.66667
0.42981,0.76106,1.2894,0.39159,3.6649,11.991,-1.3465,0.44882,-1.4541,-1.7953,6.799e-13,-0.72705,0,0,0.33333,7.8949e-16,0,0.66667
0.85935,0.051229,2.5781,-0.67316,-2.0361,1.7957,4.6278,-1.5426,-0.38888,6.1704,3.3203e-10,-0.19444,0,0,0.33333,-0,3.6409e-16,0.66667
0.030496,0.3059,0.091489,-0.29115,-3.3463,27.026,0.071031,-0.023677,-1.699,0.094708,-2.8235e-09,-0.84948,0,0,0.33333,2.4672e-17,0,0.66667
0.13308,0.81319,0.39925,0.46978,5.371,22.961,-0.50015,0.16672,-1.2161,-0.66687,-4.5728e-11,-0.60803,0,0,0.33333,3.9475e-16,0,0.66667
0.40535,0.062281,1.216,-0.65658,-6.4949,12.967,2.1291,-0.70971,-0.46864,2.8388,-6.477e-13,-0.23432,0,0,0.33333,2.7139e-16,1.0964e-17,0.66667
0.11236,0.96136,0.33708,0.69205,8.1397,23.816,-0.62206,0.20735,-0.29708,-0.82942,-3.5882e-09,-0.14854,0,0,0.33333,-0,-0,0.66667
0.72615,0.042525,2.1785,-0.68621,-3.8273,4.0731,3.9864,-1.3288,-0.32505,5.3151,-4.0115e-12,-0.16253,0,0,0.33333,-0,-0,0.66667
0.97481,0.36479,2.9244,-0.20282,-0.011408,0.18317,1.5817,-0.52722,-1.8532,2.1089,1.974e-07,-0.92659,0,0,0.33333,-0,-0,0.66667
0.48907,0.64006,1.4672,0.21009,1.8052,9.9976,-0.822,0.274,-1.8424,-1.096,1.5143e-13,-0.92118,0,0,0.33333,-7.8949e-16,0,0.66667
0.96027,0.59781,2.8808,0.14672,0.054812,0.2525,-1.1271,0.3757,-1.9236,-1.5028,-3.3453e-07,-0.9618,0,0,0.33333,-0,-0,0.66667
0.13577,0.63742,0.40731,0.20613,2.3168,22.823,-0.22389,0.074631,-1.8483,-0.29852,-1.0167e-09,-0.92414,0,0,0.33333,1.9737e-16,0,0.66667
0.70044,0.16041,2.1013,-0.50939,-2.9536,4.4233,2.8544,-0.95147,-1.0778,3.8059,-2.6054e-11,-0.53891,0,0,0.33333,1.579e-15,0,0.66667
0.58286,0.50707,1.7486,0.010607,0.07785,7.1662,-0.049458,0.016486,-1.9994,-0.065944,1.5886e-13,-0.99971,0,0,0.33333,-0,-0,0.66667
0.79173,0.15422,2.3752,-0.51867,-2.1647,2.6222,3.2852,-1.0951,-1.0441,4.3802,-3.1369e-10,-0.52203,0,0,0.33333,2.344e-16,0,0.66667
0.5377,0.032374,1.6131,-0.70144,-5.9324,8.8258,3.0173,-1.0058,-0.25129,4.0231,7.6605e-14,-0.12564,0,0,0.33333,-0,-0,0.66667
0.97989,0.7481,2.9397,0.37215,0.014148,0.28086,-2.9173,0.97244,-1.5082,-3.8897,3.15e-09,-0.75411,0,0,0.33333,3.9475e-16,0,0.66667
0.43965,0.39214,1.319,-0.16179,-1.4762,11.589,0.56904,-0.18968,-1.9065,0.75872,2.5524e-13,-0.95326,0,0,0.33333,-0,-0,0.66667
0.95027,0.5597,2.8508,0.089546,0.052726,0.30905,-0.68074,0.22691,-1.9721,-0.90766,1.3403e-07,-0.98606,0,0,0.33333,-0,-0,0.66667
0.91828,0.069413,2.7548,-0.64588,-1.1177,1.092,4.7448,-1.5816,-0.51669,6.3264,-1.9757e-08,-0.25835,0,0,0.33333,-0,-0,0.66667
0.42387,0.83958,1.2716,0.50936,4.8541,12.25,-1.7272,0.57574,-1.078,-2.303,1.2909e-12,-0.53901,0,0,0.33333,-1.9737e-16,0,0.66667
0.41052,0.40633,1.2316,-0.1405,-1.3228,12.568,0.46142,-0.15381,-1.9308,0.61522,1.3669e-12,-0.96542,0,0,0.33333,-0,-0,0.66667
0.019947,0.15337,0.059841,-0.51994,-6.0793,27.454,0.082971,-0.027657,-1.0393,0.11063,-5.1947e-08,-0.51963,0,0,0.33333,3.084e-17,0,0.66667
0.44849,0.183,1.3455,-0.47549,-4.3923,11.416,1.7061,-0.56868,-1.1963,2.2747,-1.0817e-12,-0.59814,0,0,0.33333,-1.9737e-16,0,0.66667
0.19941,0.66022,0.59823,0.24034,2.6436,20.334,-0.38341,0.1278,-1.795,-0.51121,-8.7965e-11,-0.89748,0,0,0.33333,-0,-0,0.66667
0.33593,0.65222,1.0078,0.22833,2.3099,15.207,-0.61361,0.20454,-1.8148,-0.81815,-1.8143e-11,-0.90738,0,0,0.33333,1.9891e-16,0,0.66667
0.28252,0.058519,0.84755,-0.66222,-7.2273,17.315,1.4967,-0.4989,-0.4414,1.9956,5.3427e-12,-0.2207,0,0,0.33333,1.9737e-16,0,0.66667
0.6702,0.42633,2.0106,-0.11051,-0.66738,4.8978,0.59249,-0.1975,-1.9564,0.78998,-1.2387e-11,-0.97818,0,0,0.33333,7.8949e-16,0,0.66667
0.44017,0.44975,1.3205,-0.075378,-0.68576,11.56,0.26544,-0.088479,-1.9794,0.35392,1.5332e-13,-0.98969,0,0,0.33333,7.8949e-16,0,0.66667
0.60025,0.34235,1.8007,-0.23648,-1.6911,6.73,1.1356,-0.37853,-1.8018,1.5141,-2.4771e-12,-0.90089,0,0,0.33333,1.0856e-15,0,0.66667
0.84352,0.70547,2.5306,0.3082,0.91749,1.6074,-2.0798,0.69326,-1.6622,-2.7731,1.7638e-10,-0.83109,0,0,0.33333,-0,-0,0.66667
0.83277,0.6182,2.4983,0.1773,0.55444,1.6962,-1.1812,0.39373,-1.8881,-1.5749,3.682e-10,-0.94404,0,0,0.33333,-0,-0,0.66667
0.58556,0.98599,1.7567,0.72899,5.725,7.5055,-3.4149,1.1383,-0.10968,-4.5532,-7.0832e-14,-0.054841,0,0,0.33333,7.8949e-16,0,0.66667
0.44054,0.038786,1.3216,-0.69182,-6.6305,11.825,2.4382,-0.81273,-0.29817,3.2509,-2.6068e-13,-0.14908,0,0,0.33333,-0,-0,0.66667
0.40041,0.82476,1.2012,0.48715,4.7442,13.031,-1.5605,0.52015,-1.1555,-2.0806,5.4745e-13,-0.57777,0,0,0.33333,-0,-0,0.66667
0.071127,0.73671,0.21338,0.35507,4.0786,25.403,-0.20204,0.067347,-1.551,-0.26939,4.7118e-09,-0.77548,0,0,0.33333,-8.4231e-17,0,0.66667
0.46738,0.98111,1.4021,0.72167,6.7371,10.988,-2.6984,0.89945,-0.148,-3.5978,1.1013e-13,-0.074001,0,0,0.33333,-7.8949e-16,0,0.66667
0.40304,0.4091,1.2091,-0.13636,-1.2936,12.823,0.43966,-0.14655,-1.9345,0.58621,1.8723e-12,-0.96724,0,0,0.33333,-0,-0,0.66667
0.20153,0.61706,0.60459,0.17558,1.9246,20.245,-0.28308,0.094362,-1.8904,-0.37745,-1.4349e-10,-0.94522,0,0,0.33333,-1.9737e-16,0,0.66667
0.80272,0.92677,2.4082,0.64015,2.6305,2.5859,-4.1109,1.3703,-0.54236,-5.4812,1.4645e-10,-0.27118,0,0,0.33333,-0,-0,0.66667
0.69815,0.77512,2.0944,0.41268,2.3706,4.3915,-2.3049,0.76829,-1.3944,-3.0732,3.8346e-11,-0.6972,0,0,0.33333,-0,-0,0.66667
0.97541,0.64526,2.9262,0.21789,0.010647,0.18785,-1.7002,0.56674,-1.8306,-2.267,-5.6912e-08,-0.91528,0,0,0.33333,-1.579e-15,0,0.66667
0.38552,0.12996,1.1565,-0.55506,-5.5243,13.579,1.7119,-0.57062,-0.90464,2.2825,-6.4382e-13,-0.45232,0,0,0.33333,-0,-0,0.66667
0.41693,0.73451,1.2508,0.35176,3.3273,12.407,-1.1733,0.39109,-1.5593,-1.5644,-1.1147e-13,-0.77966,0,0,0.33333,-0,-0,0.66667
0.51973,0.99757,1.5592,0.74636,6.5328,9.4014,-3.1033,1.0344,-0.019937,-4.1377,1.3367e-13,-0.0099683,0,0,0.33333,-2.9606e-16,0,0.66667
0.35329,0.024974,1.0599,-0.71254,-7.4428,14.798,2.0139,-0.67129,-0.19463,2.6851,-1.0769e-13,-0.097317,0,0,0.33333,-3.9475e-16,0,0.66667
0.54525,0.83111,1.6357,0.49666,4.0254,8.4283,-2.1664,0.72215,-1.1226,-2.8886,-9.8854e-13,-0.56132,0,0,0.33333,-0,-0,0.66667
0.88975,0.49816,2.6693,-0.0027625,-0.0052925,0.89004,0.019664,-0.0065546,-2.0011,0.026218,-3.3716e-08,-1.0005,0,0,0.33333,-2.7632e-15,0,0.66667
0.73052,0.93548,2.1916,0.65321,3.5634,3.9404,-3.8175,1.2725,-0.48356,-5.09,1.027e-11,-0.24178,0,0,0.33333,3.9475e-16,-3.4525e-16,0.66667
0.20651,0.14358,0.61954,-0.53462,-5.9885,20.122,0.88325,-0.29442,-0.98322,1.1777,3.2154e-10,-0.49161,0,0,0.33333,-0,-0,0.66667
0.80015,0.65123,2.4005,0.22685,0.85909,2.2463,-1.4521,0.48403,-1.8173,-1.9361,8.7166e-11,-0.90863,0,0,0.33333,1.579e-15,0,0.66667
0.79531,0.20932,2.3859,-0.43601,-1.7544,2.477,2.7741,-0.92471,-1.324,3.6988,-3.4576e-10,-0.66199,0,0,0.33333,7.8949e-16,0,0.66667
0.79909,0.59601,2.3973,0.14402,0.54377,2.2318,-0.92069,0.3069,-1.9271,-1.2276,1.1637e-11,-0.96353,0,0,0.33333,3.158e-15,0,0.66667
0.3168,0.49343,0.95041,-0.0098512,-0.1006,15.88,0.024967,-0.0083224,-1.9996,0.033289,1.6487e-12,-0.99978,0,0,0.33333,5.9212e-16,0,0.66667
0.61295,0.86959,1.8389,0.55439,4.0065,6.5934,-2.7185,0.90617,-0.90735,-3.6247,-7.6539e-13,-0.45368,0,0,0.33333,7.8949e-16,0,0.66667
0.65229,0.99038,1.9569,0.73556,5.0548,5.7963,-3.8384,1.2795,-0.075874,-5.1179,-1.6431e-14,-0.037937,0,0,0.33333,-7.8949e-16,0,0.66667
0.12023,0.84892,0.36068,0.52339,6.0332,23.476,-0.50339,0.1678,-1.0261,-0.67119,6.5104e-10,-0.51304,0,0,0.33333,-0,-0,0.66667
0.91868,0.46765,2.756,-0.04853,-0.062677,0.58015,0.35667,-0.11889,-1.9925,0.47555,2.4627e-08,-0.99627,0,0,0.33333,-1.7764e-15,0,0.66667
0.36814,0.84175,1.1044,0.51262,5.1585,14.16,-1.5097,0.50324,-1.0662,-2.013,-1.1797e-12,-0.53308,0,0,0.33333,9.8686e-16,0,0.66667
0.68838,0.16083,2.0651,-0.50876,-3.0519,4.6948,2.8017,-0.93392,-1.0803,3.7357,-1.7945e-11,-0.54016,0,0,0.33333,1.579e-15,0,0.66667
0.92834,0.017931,2.785,-0.7231,-1.1694,1.1322,5.3703,-1.7901,-0.14012,7.1604,8.3264e-08,-0.070062,0,0,0.33333,-0,-0,0.66667
0.67487,0.62506,2.0246,0.18759,1.1232,4.8065,-1.0128,0.3376,-1.876,-1.3504,2.0932e-11,-0.93802,0,0,0.33333,-0,-0,0.66667
0.93848,0.4245,2.8154,-0.11325,-0.097514,0.41098,0.85024,-0.28341,-1.9542,1.1337,5.4864e-08,-0.9771,0,0,0.33333,-1.579e-15,0,0.66667
0.69911,0.84806,2.0973,0.52209,3.0461,4.4653,-2.92,0.97333,-1.0311,-3.8933,2.2623e-11,-0.51554,0,0,0.33333,-0,-0,0.66667
0.17086,0.74637,0.51257,0.36955,4.1419,21.464,-0.50513,0.16838,-1.5152,-0.6735,-3.442e-10,-0.75758,0,0,0.33333,-4.9343e-17,0,0.66667
0.72891,0.18436,2.1867,-0.47346,-2.4968,3.7766,2.7608,-0.92028,-1.2033,3.6811,-7.0122e-11,-0.60167,0,0,0.33333,2.158e-16,0,0.66667
0.40572,0.53414,1.2172,0.05121,0.48363,12.723,-0.16622,0.055406,-1.9916,-0.22162,-7.3279e-13,-0.99582,0,0,0.33333,-0,-0,0.66667
0.31857,0.61105,0.95572,0.16657,1.7036,15.827,-0.42452,0.14151,-1.9006,-0.56603,-2.1985e-11,-0.95029,0,0,0.33333,3.9475e-16,0,0.66667
0.78065,0.35957,2.3419,-0.21064,-0.87412,2.584,1.3155,-0.4385,-1.842,1.754,-1.1616e-10,-0.92102,0,0,0.33333,1.579e-15,0,0.66667
0.79049,0.36944,2.3715,-0.19584,-0.77512,2.4007,1.2385,-0.41282,-1.8636,1.6513,-9.6469e-11,-0.93178,0,0,0.33333,-0,-0,0.66667
0.94901,0.35226,2.847,-0.22161,-0.14629,0.37084,1.6825,-0.56082,-1.8251,2.2433,1.6851e-08,-0.91255,0,0,0.33333,-0,-0,0.66667
0.20319,0.74756,0.60956,0.37134,4.1086,20.21,-0.60361,0.2012,-1.5108,-0.80481,-2.7674e-10,-0.75542,0,0,0.33333,-9.8686e-17,0,0.66667
0.53266,0.3068,1.598,-0.2898,-2.3471,8.6835,1.2349,-0.41164,-1.7018,1.6466,4.0379e-13,-0.85088,0,0,0.33333,1.1842e-15,0,0.66667
0.77212,0.48237,2.3164,-0.026439,-0.11272,2.6966,0.16332,-0.054439,-1.9967,0.21775,-2.1265e-11,-0.99837,0,0,0.33333,1.579e-15,0,0.66667
0.51635,0.57954,1.549,0.11931,0.98213,9.1288,-0.49283,0.16428,-1.9492,-0.6571,-7.5162e-14,-0.9746,0,0,0.33333,-7.8949e-16,0,0.66667
0.22879,0.53442,0.68636,0.051636,0.55722,19.186,-0.094509,0.031503,-1.9909,-0.12601,-1.2273e-11,-0.99543,0,0,0.33333,-0,-0,0.66667
0.99529,0.92434,2.9859,0.63651,-0.032087,0.55847,-5.0681,1.6894,-0.55882,-6.7575,1.7308e-06,-0.27941,0,0,0.33333,-0,-0,0.66667
0.88932,0.73493,2.668,0.35239,0.72408,1.0424,-2.5071,0.8357,-1.5582,-3.3428,-2.0766e-10,-0.77909,0,0,0.33333,-0,-0,0.66667
0.57714,0.2361,1.7314,-0.39585,-3.0014,7.4475,1.8277,-0.60924,-1.4426,2.437,5.1459e-13,-0.72131,0,0,0.33333,7.8949e-16,0,0.66667
0.53805,0.24345,1.6141,-0.38483,-3.1157,8.569,1.6564,-0.55215,-1.4732,2.2086,7.2198e-13,-0.73661,0,0,0.33333,7.8949e-16,0,0.66667
0.83998,0.28499,2.5199,-0.32251,-0.98617,1.6693,2.1672,-0.7224,-1.6306,2.8896,-1.971e-10,-0.81528,0,0,0.33333,-0,-0,0.66667
0.91463,0.66044,2.7439,0.24067,0.34609,0.68832,-1.761,0.58699,-1.7942,-2.348,1.191e-08,-0.89708,0,0,0.33333,-0,-0,0.66667
0.81959,0.85147,2.4588,0.5272,1.9213,2.1718,-3.4567,1.1522,-1.0114,-4.6089,5.981e-10,-0.5057,0,0,0.33333,-0,-0,0.66667
0.43281,0.67654,1.2984,0.2648,2.4472,11.843,-0.91688,0.30563,-1.7501,-1.2225,-1.3545e-14,-0.87507,0,0,0.33333,-0,-0,0.66667
0.85562,0.96994,2.5669,0.70491,2.2183,1.8948,-4.8251,1.6084,-0.23411,-6.4334,5.9993e-10,-0.11705,0,0,0.33333,-0,5.7765e-17,0.66667
0.22561,0.09507,0.67682,-0.60739,-6.7958,19.418,1.0963,-0.36542,-0.68888,1.4617,1.1066e-10,-0.34444,0,0,0.33333,-7.8949e-16,0,0.66667
0.54052,0.4383,1.6215,-0.092554,-0.733,8.3954,0.40022,-0.13341,-1.9703,0.53362,-7.6633e-14,-0.98515,0,0,0.33333,1.579e-15,0,0.66667
0.31515,0.66325,0.94545,0.24488,2.5191,15.966,-0.61739,0.2058,-1.7868,-0.82318,-3.0135e-11,-0.89341,0,0,0.33333,-0,-0,0.66667
0.11963,0.32401,0.3589,-0.26399,-2.9876,23.466,0.25266,-0.08422,-1.7516,0.33688,-3.1621e-10,-0.87579,0,0,0.33333,1.9737e-16,0,0.66667
0.14551,0.41987,0.43654,-0.12019,-1.3434,22.433,0.13991,-0.046638,-1.948,0.18655,-1.6721e-10,-0.97398,0,0,0.33333,1.9737e-16,0,0.66667
0.9366,0.14387,2.8098,-0.5342,-0.63348,0.76742,4.0027,-1.3342,-0.9852,5.3369,2.4822e-08,-0.4926,0,0,0.33333,-0,-0,0.66667
0.19499,0.99856,0.58498,0.74783,8.6303,20.636,-1.1666,0.38886,-0.012131,-1.5554,1.7227e-10,-0.0060653,0,0,0.33333,6.1679e-16,0,0.66667
0.64991,0.17651,1.9497,-0.48524,-3.1988,5.5893,2.5229,-0.84096,-1.1622,3.3638,-5.4723e-12,-0.5811,0,0,0.33333,-7.8949e-16,0,0.66667
0.23912,0.45247,0.71736,-0.071301,-0.76548,18.791,0.1364,-0.045466,-1.9812,0.18186,3.5744e-11,-0.99061,0,0,0.33333,-3.9475e-16,0,0.66667
0.52547,0.34398,1.5764,-0.23402,-1.9096,8.8793,0.98378,-0.32793,-1.8062,1.3117,1.1419e-13,-0.90308,0,0,0.33333,1.579e-15,0,0.66667
0.13063,0.85588,0.3919,0.53382,6.1429,23.068,-0.55788,0.18596,-0.98612,-0.74384,-1.7413e-09,-0.49306,0,0,0.33333,-0,-0,0.66667
0.28954,0.51812,0.86862,0.027185,0.28303,16.888,-0.062968,0.020989,-1.9966,-0.083958,-6.9406e-12,-0.9983,0,0,0.33333,-0,-0,0.66667
0.40052,0.98596,1.2016,0.72894,7.3205,13.184,-2.3357,0.77855,-0.11001,-3.1142,1.3323e-14,-0.055004,0,0,0.33333,-0,-0,0.66667
0.70668,0.93804,2.12,0.65705,3.858,4.4479,-3.7146,1.2382,-0.46599,-4.9528,3.2168e-12,-0.23299,0,0,0.33333,-0,-0,0.66667
0.90107,0.40516,2.7032,-0.14226,-0.24106,0.78549,1.0255,-0.34183,-1.9288,1.3673,7.6344e-09,-0.9644,0,0,0.33333,6.9081e-16,0,0.66667
0.42858,0.59949,1.2857,0.14924,1.3783,11.957,-0.51169,0.17056,-1.9207,-0.68225,-3.7598e-13,-0.96035,0,0,0.33333,-1.579e-15,0,0.66667
0.71382,0.00089213,2.1415,-0.74866,-4.4047,4.4168,4.2753,-1.4251,-0.0079361,5.7004,5.7998e-13,-0.0039681,0,0,0.33333,-0,-0,0.66667
0.13909,0.17137,0.41726,-0.49295,-5.6376,22.729,0.5485,-0.18283,-1.1357,0.73133,1.6174e-09,-0.56784,0,0,0.33333,1.9737e-16,0,0.66667
0.10058,0.26769,0.30173,-0.34847,-3.9799,24.23,0.28038,-0.093459,-1.5675,0.37384,-2.389e-09,-0.78374,0,0,0.33333,-1.9737e-16,0,0.66667
0.44811,0.26291,1.3443,-0.35564,-3.2499,11.369,1.2749,-0.42497,-1.5496,1.6999,-6.5692e-13,-0.77482,0,0,0.33333,7.8949e-16,0,0.66667
0.76051,0.36574,2.2815,-0.20139,-0.90994,2.959,1.2253,-0.40843,-1.8553,1.6337,-8.9713e-11,-0.92767,0,0,0.33333,-7.8949e-16,0,0.66667
0.23162,0.18404,0.69485,-0.47394,-5.2161,19.146,0.87818,-0.29273,-1.2019,1.1709,1.8385e-10,-0.60094,0,0,0.33333,-4.2486e-16,0,0.66667
0.80913,0.60592,2.4274,0.15888,0.56982,2.0665,-1.0284,0.34281,-1.9098,-1.3712,8.6482e-11,-0.95488,0,0,0.33333,-0,-0,0.66667
0.25241,0.45778,0.75722,-0.06333,-0.67486,18.285,0.12788,-0.042627,-1.9854,0.17051,2.6825e-11,-0.99271,0,0,0.33333,3.9475e-16,0,0.66667
0.083801,0.94775,0.2514,0.67162,7.9252,24.934,-0.45026,0.15009,-0.39564,-0.60035,-6.482e-09,-0.19782,0,0,0.33333,-0,-0,0.66667
0.513,0.18077,1.539,-0.47885,-4.0685,9.3786,1.9652,-0.65507,-1.1848,2.6203,3.4739e-13,-0.59239,0,0,0.33333,3.0376e-16,0,0.66667
0.00097781,0.69041,0.0029334,0.28562,3.285,28.211,-0.0022342,0.0007447,-1.7108,-0.002979,-6.392e-08,-0.85541,0,0,0.33333,-0,-9.1613e-16,0.66667
0.70811,0.81301,2.1243,0.46951,2.6425,4.2174,-2.6598,0.88658,-1.2171,-3.5463,4.0788e-11,-0.60854,0,0,0.33333,-3.158e-15,0,0.66667
0.73906,0.29006,2.2172,-0.31491,-1.5635,3.4447,1.8619,-0.62063,-1.647,2.4825,-9.6593e-11,-0.82352,0,0,0.33333,1.579e-15,0,0.66667
0.97332,0.83098,2.92,0.49647,0.15096,0.45866,-3.8658,1.2886,-1.123,-5.1544,-4.7635e-08,-0.5615,0,0,0.33333,-0,-0,0.66667
0.66316,0.7083,1.9895,0.31245,1.9498,5.1438,-1.6577,0.55255,-1.6523,-2.2102,1.8398e-11,-0.82613,0,0,0.33333,-7.8949e-16,0,0.66667
0.49422,0.29566,1.4827,-0.30651,-2.6308,9.8682,1.2119,-0.40395,-1.6652,1.6158,-7.8826e-15,-0.83261,0,0,0.33333,-7.8949e-16,0,0.66667
0.073623,0.5094,0.22087,0.014096,0.16001,25.291,-0.0083025,0.0027673,-1.9989,-0.01107,-3.2788e-07,-0.99944,0,0,0.33333,-0,-0,0.66667
0.5343,0.45209,1.6029,-0.071862,-0.57464,8.5786,0.30716,-0.10239,-1.9811,0.40955,3.4195e-14,-0.99055,0,0,0.33333,-0,-0,0.66667
0.14183,0.40311,0.42549,-0.14533,-1.6273,22.58,0.1649,-0.054967,-1.9257,0.21987,-1.1106e-09,-0.96285,0,0,0.33333,-2.4672e-16,0,0.66667
0.80239,0.59772,2.4072,0.14658,0.54424,2.176,-0.9409,0.31363,-1.9238,-1.2545,1.4828e-11,-0.9619,0,0,0.33333,-3.158e-15,0,0.66667
0.57615,0.058198,1.7284,-0.6627,-5.2279,7.6924,3.0545,-1.0182,-0.43898,4.0727,4.6096e-13,-0.21949,0,0,0.33333,-0,1.8743e-16,0.66667
0.21291,0.32221,0.63874,-0.26668,-2.9192,19.816,0.45424,-0.15141,-1.7466,0.60566,1.5076e-10,-0.8733,0,0,0.33333,-0,-0,0.66667
0.70706,0.23416,2.1212,-0.39877,-2.2261,4.1826,2.2556,-0.75187,-1.434,3.0075,-4.9401e-11,-0.71699,0,0,0.33333,1.579e-15,0,0.66667
0.33301,0.48022,0.99903,-0.029665,-0.29923,15.29,0.07903,-0.026343,-1.9963,0.10537,3.3688e-12,-0.99814,0,0,0.33333,-0,-0,0.66667
0.6691,0.6906,2.0073,0.2859,1.7523,4.9863,-1.5304,0.51012,-1.71,-2.0405,2.1721e-11,-0.85498,0,0,0.33333,-0,-0,0.66667
0.77955,0.074944,2.3387,-0.63758,-2.8984,2.9804,3.9762,-1.3254,-0.55432,5.3016,-8.3606e-11,-0.27716,0,0,0.33333,-0,-3.7838e-16,0.66667
0.086576,0.25356,0.25973,-0.36966,-4.2394,24.789,0.25603,-0.085343,-1.5144,0.34137,-7.6912e-10,-0.75718,0,0,0.33333,1.9737e-16,0,0.66667
0.51066,0.065925,1.532,-0.65111,-5.6823,9.5827,2.66,-0.88665,-0.49295,3.5466,-6.7946e-14,-0.24648,0,0,0.33333,1.579e-15,0,0.66667
0.10367,0.17119,0.31102,-0.49321,-5.6916,24.124,0.40906,-0.13635,-1.1343,0.54542,4.4981e-09,-0.56717,0,0,0.33333,-1.9737e-16,0,0.66667
0.64946,0.12302,1.9484,-0.56547,-3.7811,5.6734,2.938,-0.97933,-0.86361,3.9173,-1.4651e-12,-0.43181,0,0,0.33333,-8.8818e-16,0,0.66667
0.3155,0.033824,0.94649,-0.69926,-7.5026,16.134,1.7649,-0.58831,-0.26209,2.3532,-1.0014e-13,-0.13105,0,0,0.33333,-0,-0,0.66667
0.6435,0.067169,1.9305,-0.64925,-4.4699,5.9084,3.3423,-1.1141,-0.50158,4.4564,3.8614e-13,-0.25079,0,0,0.33333,-0,-0,0.66667
0.048554,0.67673,0.14566,0.2651,3.0384,26.302,-0.10297,0.034324,-1.7499,-0.1373,-1.3655e-08,-0.87496,0,0,0.33333,-0,-0,0.66667
0.867,0.23599,2.601,-0.39602,-1.0135,1.3552,2.7468,-0.91559,-1.4416,3.6624,-6.3909e-10,-0.72079,0,0,0.33333,-0,-0,0.66667
0.47816,0.47888,1.4345,-0.031673,-0.27474,10.317,0.12116,-0.040386,-1.9959,0.16155,1.5195e-13,-0.99793,0,0,0.33333,-0,-0,0.66667
0.79355,0.50768,2.3807,0.011514,0.044439,2.3063,-0.073094,0.024365,-1.9994,-0.097458,2.016e-11,-0.9997,0,0,0.33333,-3.158e-15,0,0.66667
0.22664,0.019746,0.67991,-0.72038,-8.168,19.424,1.3061,-0.43537,-0.15415,1.7415,1.9795e-12,-0.077077,0,0,0.33333,7.8949e-16,0,0.66667
0.33497,0.25484,1.0049,-0.36774,-3.7548,15.279,0.98548,-0.32849,-1.5192,1.314,1.7772e-11,-0.75959,0,0,0.33333,-0,-0,0.66667
0.76377,0.9978,2.2913,0.7467,3.7295,3.4225,-4.5625,1.5208,-0.018417,-6.0833,-7.9501e-12,-0.0092084,0,0,0.33333,-2.9606e-15,0,0.66667
0.85342,0.91213,2.5603,0.61819,1.8997,1.7935,-4.2206,1.4069,-0.64112,-5.6275,1.1402e-09,-0.32056,0,0,0.33333,-0,-0,0.66667
0.43712,0.35022,1.3114,-0.22467,-2.0616,11.687,0.78567,-0.26189,-1.821,1.0476,2.05e-13,-0.91048,0,0,0.33333,-1.579e-15,0,0.66667
0.93033,0.55636,2.791,0.084533,0.087738,0.47562,-0.62915,0.20972,-1.9744,-0.83886,4.637e-08,-0.98721,0,0,0.33333,-1.579e-15,0,0.66667
0.57961,0.018522,1.7388,-0.72222,-5.7244,7.6603,3.3489,-1.1163,-0.14516,4.4651,1.2568e-13,-0.07258,0,0,0.33333,-0,-0,0.66667
0.049097,0.99358,0.14729,0.74037,8.8521,26.311,-0.2908,0.096935,-0.051161,-0.38774,6.8098e-07,-0.02558,0,0,0.33333,-7.4015e-17,0,0.66667
0.45286,0.070823,1.3586,-0.64377,-6.042,11.387,2.3323,-0.77743,-0.5267,3.1097,-4.1123e-13,-0.26335,0,0,0.33333,7.8949e-16,0,0.66667
0.1604,0.3685,0.4812,-0.19726,-2.1991,21.852,0.25312,-0.084373,-1.8616,0.33749,1.5279e-10,-0.93079,0,0,0.33333,-0,-0,0.66667
0.73282,0.089993,2.1985,-0.61501,-3.2992,3.846,3.6056,-1.2019,-0.6558,4.8074,-2.459e-11,-0.3279,0,0,0.33333,1.4012e-15,1.6702e-16,0.66667
0.34735,0.95256,1.0421,0.67885,7.0917,14.985,-1.8864,0.6288,-0.36089,-2.5152,1.2657e-13,-0.18044,0,0,0.33333,7.8949e-16,0,0.66667
0.20118,0.56136,0.60353,0.092041,1.0069,20.253,-0.14813,0.049377,-1.9709,-0.19751,-1.6055e-10,-0.98547,0,0,0.33333,5.6745e-16,0,0.66667
0.84279,0.57898,2.5284,0.11847,0.34449,1.5271,-0.79878,0.26626,-1.9498,-1.065,3.1536e-10,-0.97492,0,0,0.33333,1.579e-15,0,0.66667
0.8178,0.15611,2.4534,-0.51584,-1.8916,2.1871,3.3748,-1.1249,-1.0548,4.4998,-4.6888e-10,-0.52742,0,0,0.33333,2.3191e-15,0,0.66667
0.34365,0.11076,1.0309,-0.58386,-6.0447,15.061,1.6051,-0.53504,-0.78785,2.1402,1.7277e-12,-0.39392,0,0,0.33333,-0,3.9165e-16,0.66667
0.40362,0.40093,1.2109,-0.14861,-1.4095,12.805,0.47985,-0.15995,-1.9217,0.6398,1.9139e-12,-0.96087,0,0,0.33333,-5.9212e-16,0,0.66667
0.0606,0.29818,0.1818,-0.30274,-3.4717,25.821,0.14677,-0.048922,-1.6738,0.19569,-4.2998e-09,-0.83688,0,0,0.33333,-0,-0,0.66667
0.17888,0.86191,0.53665,0.54286,6.1551,21.189,-0.77688,0.25896,-0.95142,-1.0358,-7.2276e-10,-0.47571,0,0,0.33333,1.9737e-16,0,0.66667
0.73592,0.10824,2.2078,-0.58764,-3.1003,3.7508,3.4596,-1.1532,-0.77186,4.6128,-3.8854e-11,-0.38593,0,0,0.33333,-0,-0,0.66667
0.56613,0.01939,1.6984,-0.72092,-5.8463,8.0329,3.2651,-1.0884,-0.15161,4.3534,9.881e-14,-0.075804,0,0,0.33333,-0,-0,0.66667
0.82324,0.18884,2.4697,-0.46673,-1.6382,2.0489,3.0739,-1.0246,-1.2262,4.0985,-6.7609e-10,-0.61308,0,0,0.33333,-0,-0,0.66667
0.50115,0.43709,1.5035,-0.094362,-0.79378,9.595,0.37832,-0.12611,-1.9697,0.50442,2.8227e-14,-0.98484,0,0,0.33333,3.454e-16,0,0.66667
0.76786,0.59669,2.3036,0.14503,0.63279,2.798,-0.89092,0.29697,-1.9259,-1.1879,6.1827e-11,-0.96295,0,0,0.33333,-0,-0,0.66667
0.50992,0.59353,1.5298,0.1403,1.1668,9.3302,-0.57232,0.19077,-1.9309,-0.7631,-6.3782e-14,-0.96546,0,0,0.33333,-1.0115e-15,0,0.66667
0.56807,0.60153,1.7042,0.1523,1.1526,7.6026,-0.69214,0.23071,-1.9172,-0.92285,3.631e-13,-0.9586,0,0,0.33333,-0,-0,0.66667
0.18462,0.82906,0.55385,0.49358,5.5579,20.955,-0.729,0.243,-1.1333,-0.972,-5.5222e-10,-0.56663,0,0,0.33333,3.9475e-16,0,0.66667
0.5444,0.11315,1.6332,-0.58028,-4.7638,8.5184,2.5272,-0.84242,-0.80238,3.3697,6.5103e-13,-0.40119,0,0,0.33333,7.8949e-16,5.6803e-17,0.66667
0.20103,0.12017,0.6031,-0.56975,-6.4201,20.343,0.91631,-0.30544,-0.8462,1.2217,2.6722e-10,-0.4231,0,0,0.33333,-9.8686e-17,-4.8853e-16,0.66667
0.55622,0.11992,1.6687,-0.57011,-4.5844,8.1682,2.5369,-0.84562,-0.84434,3.3825,9.7833e-13,-0.42217,0,0,0.33333,-7.8949e-16,0,0.66667
0.14144,0.22933,0.42432,-0.406,-4.6071,22.622,0.4594,-0.15313,-1.4139,0.61253,4.6508e-10,-0.70694,0,0,0.33333,-0,-0,0.66667
0.18601,0.67068,0.55803,0.25602,2.834,20.857,-0.38098,0.12699,-1.7666,-0.50797,-1.59e-10,-0.88331,0,0,0.33333,-3.9475e-16,0,0.66667
0.76478,0.26109,2.2944,-0.35837,-1.6238,2.9662,2.1926,-0.73086,-1.5433,2.9234,-1.6419e-10,-0.77164,0,0,0.33333,-0,-0,0.66667
0.070886,0.28377,0.21266,-0.32434,-3.7187,25.411,0.18393,-0.06131,-1.6264,0.24524,-4.95e-09,-0.81318,0,0,0.33333,-1.9737e-16,0,0.66667
0.36931,0.27069,1.1079,-0.34396,-3.4061,14.048,1.0162,-0.33875,-1.5788,1.355,6.3807e-12,-0.78938,0,0,0.33333,-3.9475e-16,0,0.66667
0.87788,0.1537,2.6336,-0.51945,-1.2718,1.3499,3.6481,-1.216,-1.0413,4.8642,1.8848e-09,-0.52064,0,0,0.33333,1.9737e-15,0,0.66667
0.10434,0.81473,0.31301,0.4721,5.4373,24.095,-0.39406,0.13135,-1.2081,-0.52542,4.4075e-09,-0.60404,0,0,0.33333,-0,-0,0.66667
0.35915,0.43564,1.0775,-0.096545,-0.95371,14.354,0.2774,-0.092465,-1.9681,0.36986,5.7665e-12,-0.98403,0,0,0.33333,-8.8818e-16,0,0.66667
0.11396,0.97971,0.34188,0.71957,8.4893,23.76,-0.65602,0.21867,-0.15848,-0.87469,-3.7243e-09,-0.079242,0,0,0.33333,-0,-0,0.66667
0.87654,0.071392,2.6296,-0.64291,-1.6879,1.5339,4.5083,-1.5028,-0.53034,6.0111,-7.1223e-09,-0.26517,0,0,0.33333,-0,-0,0.66667
0.12624,0.20061,0.37871,-0.44909,-5.1351,23.227,0.45353,-0.15118,-1.2827,0.60471,7.2796e-10,-0.64133,0,0,0.33333,-0,-0,0.66667
0.25456,0.13766,0.76367,-0.54352,-5.949,18.302,1.1068,-0.36895,-0.94903,1.4758,7.6272e-11,-0.47452,0,0,0.33333,3.9475e-16,0,0.66667
0.42191,0.18885,1.2657,-0.46673,-4.437,12.292,1.5753,-0.52511,-1.2268,2.1004,-9.5079e-13,-0.61341,0,0,0.33333,-0,-0,0.66667
0.66526,0.27306,1.9958,-0.34041,-2.1194,5.1093,1.8117,-0.60389,-1.5876,2.4156,-1.8803e-11,-0.79379,0,0,0.33333,-0,-0,0.66667
0.34471,0.26224,1.0341,-0.35664,-3.6102,14.926,0.98349,-0.32783,-1.5476,1.3113,1.3802e-11,-0.77379,0,0,0.33333,-0,-0,0.66667
0.2135,0.84467,0.6405,0.517,5.7629,19.849,-0.88304,0.29435,-1.0504,-1.1774,-2.5386e-10,-0.52521,0,0,0.33333,7.8949e-16,0,0.66667
0.37339,0.58753,1.1202,0.1313,1.2817,13.855,-0.3922,0.13073,-1.939,-0.52294,-4.8292e-12,-0.96949,0,0,0.33333,-0,-0,0.66667
0.57102,0.974,1.7131,0.71101,5.708,7.8855,-3.248,1.0827,-0.20251,-4.3307,-1.0103e-13,-0.10125,0,0,0.33333,1.579e-15,0,0.66667
0.99075,0.12581,2.9723,-0.56129,0.020027,0.45854,4.4488,-1.4829,-0.8806,5.9317,-7.0063e-08,-0.4403,0,0,0.33333,-0,-0,0.66667
0.32717,0.63899,0.9815,0.20849,2.1219,15.521,-0.54569,0.1819,-1.8452,-0.72759,-2.1211e-11,-0.92261,0,0,0.33333,-0,-0,0.66667
0.3622,0.55245,1.0866,0.078675,0.77486,14.245,-0.22797,0.07599,-1.9777,-0.30396,-4.2159e-12,-0.98885,0,0,0.33333,-0,-0,0.66667
0.70624,0.099204,2.1187,-0.60119,-3.4907,4.3913,3.3967,-1.1322,-0.71507,4.5289,-1.2058e-11,-0.35754,0,0,0.33333,-0,-0,0.66667
0.29894,0.44449,0.89681,-0.083263,-0.86191,16.541,0.19912,-0.066374,-1.9755,0.2655,1.7541e-11,-0.98773,0,0,0.33333,-0,-0,0.66667
0.3497,0.51382,1.0491,0.020736,0.20632,14.688,-0.058012,0.019337,-1.9977,-0.077349,-1.4501e-12,-0.99886,0,0,0.33333,-0,-0,0.66667
0.99471,0.016505,2.9841,-0.72524,-0.064402,0.72109,5.7712,-1.9238,-0.12914,7.695,-1.591e-05,-0.064572,0,0,0.33333,3.158e-15,0,0.66667
0.60427,0.94035,1.8128,0.66053,4.9457,6.9275,-3.1931,1.0644,-0.44915,-4.2574,-6.4304e-13,-0.22457,0,0,0.33333,1.579e-15,0,0.66667
0.82881,0.22529,2.4864,-0.41207,-1.3803,1.91,2.7322,-0.91074,-1.3966,3.643,-5.5932e-10,-0.69832,0,0,0.33333,1.579e-15,0,0.66667
0.031666,0.037053,0.094997,-0.69442,-8.2669,26.996,0.17591,-0.058639,-0.28596,0.23455,-1.7734e-06,-0.14298,0,0,0.33333,-0,-0,0.66667
0.14549,0.46343,0.43647,-0.054849,-0.61242,22.432,0.06384,-0.02128,-1.9893,0.08512,6.2878e-10,-0.99467,0,0,0.33333,-9.8686e-17,0,0.66667
0.72773,0.63177,2.1832,0.19765,1.0084,3.6216,-1.1507,0.38356,-1.8609,-1.5342,5.7564e-11,-0.93043,0,0,0.33333,-0,-0,0.66667
0.53974,0.8246,1.6192,0.4869,3.9763,8.5828,-2.1024,0.7008,-1.1564,-2.8032,-9.2237e-13,-0.57819,0,0,0.33333,-0,-0,0.66667
0.99526,0.69767,2.9858,0.29651,-0.11232,0.1376,-2.3609,0.78695,-1.6869,-3.1478,1.095e-08,-0.84345,0,0,0.33333,-0,-0,0.66667
0.49563,0.63463,1.4869,0.20194,1.7188,9.7889,-0.80071,0.2669,-1.8546,-1.0676,2.6923e-14,-0.92729,0,0,0.33333,-0,-0,0.66667
0.3841,0.69951,1.1523,0.29927,2.9146,13.516,-0.91961,0.30654,-1.6808,-1.2261,-4.1275e-12,-0.84042,0,0,0.33333,-0,-0,0.66667
0.19437,0.49297,0.58312,-0.010542,-0.11557,20.515,0.016392,-0.005464,-1.9993,0.021856,1.2265e-10,-0.99966,0,0,0.33333,-1.9737e-16,0,0.66667
0.59017,0.13924,1.7705,-0.54114,-4.0806,7.1929,2.5549,-0.85163,-0.95824,3.4065,1.0747e-12,-0.47912,0,0,0.33333,-0,-0,0.66667
0.76663,0.18293,2.2999,-0.47561,-2.1872,3.0312,2.9169,-0.9723,-1.1963,3.8892,-1.7653e-10,-0.59816,0,0,0.33333,-0,-0,0.66667
0.92444,0.35378,2.7733,-0.21933,-0.26572,0.58079,1.6221,-0.54069,-1.8287,2.1628,8.6152e-09,-0.91435,0,0,0.33333,1.579e-15,0,0.66667
0.13763,0.68109,0.41288,0.27163,3.0602,22.755,-0.29907,0.099689,-1.7377,-0.39876,-4.8089e-10,-0.86886,0,0,0.33333,-9.8686e-17,0,0.66667
0.0080899,0.92709,0.02427,0.64064,7.5861,27.929,-0.041462,0.013821,-0.54012,-0.055282,1.173e-07,-0.27006,0,0,0.33333,-0,-0,0.66667
0.47796,0.63293,1.4339,0.1994,1.7381,10.348,-0.76244,0.25415,-1.8583,-1.0166,7.3552e-14,-0.92913,0,0,0.33333,1.579e-15,0,0.66667
0.18295,0.61762,0.54884,0.17643,1.9491,20.967,-0.25822,0.086075,-1.8891,-0.3443,1.0658e-12,-0.94456,0,0,0.33333,1.9737e-16,0,0.66667
0.61034,0.9303,1.831,0.64544,4.7624,6.7512,-3.1515,1.0505,-0.51901,-4.202,-6.6014e-13,-0.2595,0,0,0.33333,-3.9475e-16,0,0.66667
0.62027,0.93104,1.8608,0.64656,4.6768,6.4936,-3.2083,1.0694,-0.51352,-4.2778,-6.628e-13,-0.25676,0,0,0.33333,3.9475e-16,0,0.66667
0.40963,0.15897,1.2289,-0.51155,-4.949,12.73,1.6764,-0.55879,-1.0702,2.2352,-1.1707e-12,-0.53508,0,0,0.33333,1.579e-15,0,0.66667
0.67721,0.13441,2.0316,-0.54838,-3.4138,4.9909,2.9709,-0.99031,-0.93031,3.9612,-8.3324e-12,-0.46515,0,0,0.33333,-0,-0,0.66667
0.19967,0.42881,0.59901,-0.10679,-1.1694,20.312,0.17058,-0.056861,-1.9592,0.22744,1.2656e-10,-0.9796,0,0,0.33333,-0,-0,0.66667
0.80858,0.53504,2.4257,0.052556,0.18782,2.0514,-0.33996,0.11332,-1.9905,-0.45329,4.7303e-11,-0.99526,0,0,0.33333,-0,-0,0.66667
0.05034,0.87518,0.15102,0.56276,6.5926,26.247,-0.22664,0.075545,-0.87503,-0.30218,9.2841e-09,-0.43751,0,0,0.33333,-0,-0,0.66667
0.17186,0.51451,0.51559,0.021767,0.2408,21.394,-0.029927,0.0099756,-1.9982,-0.039903,-2.6027e-10,-0.99912,0,0,0.33333,-0,-0,0.66667
0.9806,0.35881,2.9418,-0.21179,0.016051,0.15454,1.6614,-0.55381,-1.8399,2.2152,1.5576e-07,-0.91995,0,0,0.33333,-0,-0,0.66667
0.90038,0.13807,2.7011,-0.5429,-1.0826,1.1227,3.9105,-1.3035,-0.95132,5.214,2.1505e-09,-0.47566,0,0,0.33333,-1.579e-15,0,0.66667
0.93973,0.94373,2.8192,0.66559,0.85129,0.93938,-5.0038,1.6679,-0.42501,-6.6718,2.889e-07,-0.2125,0,0,0.33333,-0,-0,0.66667
0.90844,0.39415,2.7253,-0.15877,-0.24443,0.7122,1.1539,-0.38462,-1.91,1.5385,-1.3816e-08,-0.95501,0,0,0.33333,1.579e-15,0,0.66667
0.44142,0.70962,1.3243,0.31443,2.8868,11.573,-1.1104,0.37012,-1.6481,-1.4805,3.3762e-13,-0.82407,0,0,0.33333,3.9475e-16,0,0.66667
0.9388,0.3666,2.8164,-0.2001,-0.17647,0.44227,1.5028,-0.50094,-1.8577,2.0038,4.9499e-08,-0.92885,0,0,0.33333,7.8949e-16,0,0.66667
0.23741,0.2357,0.71224,-0.39645,-4.3226,18.904,0.75299,-0.251,-1.4406,1.004,1.6544e-10,-0.72031,0,0,0.33333,3.9475e-16,0,0.66667
0.049514,0.71385,0.14854,0.32078,3.687,26.265,-0.12707,0.042355,-1.6344,-0.16942,2.8171e-09,-0.81722,0,0,0.33333,7.4015e-17,0,0.66667
0.55726,0.69712,1.6718,0.29569,2.3007,7.9617,-1.3182,0.4394,-1.6887,-1.7576,-4.2244e-13,-0.84433,0,0,0.33333,-0,-0,0.66667
0.31332,0.828,0.93996,0.49199,5.1608,16.109,-1.2332,0.41107,-1.1391,-1.6443,-1.9318e-11,-0.56956,0,0,0.33333,3.9475e-16,0,0.66667
0.53208,0.21201,1.5962,-0.43198,-3.5478,8.7739,1.8388,-0.61293,-1.3368,2.4517,7.6505e-13,-0.66842,0,0,0.33333,-7.8949e-16,0,0.66667
0.47161,0.23088,1.4148,-0.40368,-3.5995,10.629,1.523,-0.50768,-1.4202,2.0307,-6.2961e-13,-0.71008,0,0,0.33333,-0,-0,0.66667
0.48313,0.64043,1.4494,0.21064,1.8245,10.186,-0.81414,0.27138,-1.8419,-1.0855,1.1291e-13,-0.92097,0,0,0.33333,-0,-0,0.66667
0.57008,0.15658,1.7102,-0.51513,-4.0139,7.7293,2.3493,-0.78311,-1.0573,3.1324,1.2015e-12,-0.52866,0,0,0.33333,-0,-0,0.66667
0.92344,0.43216,2.7703,-0.10176,-0.12155,0.54373,0.75179,-0.2506,-1.9636,1.0024,-1.0165e-07,-0.98179,0,0,0.33333,1.579e-15,0,0.66667
0.23619,0.67009,0.70858,0.25513,2.7592,18.922,-0.48209,0.1607,-1.7682,-0.64278,-1.1872e-10,-0.8841,0,0,0.33333,-0,-0,0.66667
0.87608,0.80874,2.6282,0.46311,1.1249,1.3072,-3.2458,1.0819,-1.2381,-4.3277,2.7853e-09,-0.61907,0,0,0.33333,-0,-0,0.66667
0.73384,0.74863,2.2015,0.37294,1.9015,3.5914,-2.1894,0.7298,-1.5067,-2.9192,9.3118e-11,-0.75336,0,0,0.33333,-9.8686e-17,0,0.66667
0.079211,0.028411,0.23763,-0.70738,-8.3898,25.121,0.44826,-0.14942,-0.2217,0.59768,1.2185e-07,-0.11085,0,0,0.33333,-0,-0,0.66667
0.83539,0.86492,2.5062,0.54738,1.8353,1.9553,-3.6582,1.2194,-0.93408,-4.8776,7.4894e-10,-0.46704,0,0,0.33333,-7.8949e-16,0,0.66667
0.39764,0.23577,1.1929,-0.39635,-3.8375,13.083,1.2609,-0.42028,-1.4407,1.6811,9.2948e-13,-0.72033,0,0,0.33333,-0,-0,0.66667
0.33574,0.080976,1.0072,-0.62854,-6.5831,15.368,1.6882,-0.56273,-0.5946,2.2509,9.7733e-13,-0.2973,0,0,0.33333,-0,-0,0.66667
0.000393,0.25022,0.001179,-0.37467,-4.3321,28.234,0.001178,-0.00039266,-1.5024,0.0015706,1.773e-09,-0.75119,0,0,0.33333,-1.542e-18,-2.1828e-17,0.66667
0.24581,0.10531,0.73742,-0.59204,-6.5451,18.649,1.1642,-0.38807,-0.7532,1.5523,6.4247e-11,-0.3766,0,0,0.33333,-3.9475e-16,0,0.66667
0.68795,0.24636,2.0638,-0.38046,-2.24,4.5999,2.0939,-0.69796,-1.4862,2.7918,-3.2077e-11,-0.74309,0,0,0.33333,-3.9475e-16,0,0.66667
0.85117,0.098149,2.5535,-0.60278,-1.8683,1.8027,4.1045,-1.3682,-0.7082,5.4727,-3.6042e-10,-0.3541,0,0,0.33333,-0,-0,0.66667
0.24105,0.64252,0.72315,0.21378,2.3017,18.731,-0.41225,0.13742,-1.8367,-0.54967,-9.4069e-11,-0.91836,0,0,0.33333,3.9475e-16,0,0.66667
0.37094,0.38261,1.1128,-0.17608,-1.7252,13.947,0.52252,-0.17417,-1.8896,0.69669,6.3667e-12,-0.94478,0,0,0.33333,-0,-0,0.66667
0.15042,0.20899,0.45127,-0.43651,-4.9513,22.275,0.5253,-0.1751,-1.322,0.70039,7.5092e-10,-0.66099,0,0,0.33333,-0,-0,0.66667
0.8035,0.51627,2.4105,0.024406,0.08957,2.1348,-0.15688,0.052295,-1.9971,-0.20918,7.421e-11,-0.99854,0,0,0.33333,3.158e-15,0,0.66667
0.71702,0.198,2.1511,-0.453,-2.4734,4.0096,2.5985,-0.86617,-1.2702,3.4647,-5.5152e-11,-0.63508,0,0,0.33333,-0,-0,0.66667
0.70048,0.76957,2.1014,0.40436,2.3041,4.3329,-2.2659,0.75531,-1.4183,-3.0213,4.1498e-11,-0.70913,0,0,0.33333,-7.8949e-16,0,0.66667
0.67885,0.33448,2.0366,-0.24828,-1.4774,4.736,1.3484,-0.44946,-1.7803,1.7978,-2.6372e-11,-0.89015,0,0,0.33333,-0,-0,0.66667
0.89205,0.13771,2.6761,-0.54343,-1.1814,1.2145,3.8781,-1.2927,-0.94972,5.1708,-2.4995e-10,-0.47486,0,0,0.33333,-1.579e-15,0,0.66667
0.88303,0.78875,2.6491,0.43313,0.9764,1.1913,-3.0597,1.0199,-1.3326,-4.0797,3.2357e-10,-0.66631,0,0,0.33333,-3.158e-15,0,0.66667
0.62537,0.21736,1.8761,-0.42396,-2.9296,6.1637,2.121,-0.70701,-1.3622,2.828,-3.0131e-12,-0.6811,0,0,0.33333,-9.8686e-16,0,0.66667
0.28878,0.70249,0.86634,0.30374,3.1928,16.951,-0.70171,0.2339,-1.6712,-0.93561,-5.6145e-11,-0.83558,0,0,0.33333,-0,-0,0.66667
0.4031,0.8038,1.2093,0.45569,4.4121,12.923,-1.4695,0.48984,-1.2614,-1.9594,2.3392e-13,-0.63072,0,0,0.33333,-0,-0,0.66667
0.028957,0.47567,0.086872,-0.036499,-0.41639,27.085,0.0084553,-0.0028178,-1.9953,0.011274,9.161e-07,-0.99767,0,0,0.33333,-0,-0,0.66667
0.91648,0.81417,2.7495,0.47126,0.73877,0.87043,-3.4552,1.1517,-1.211,-4.6069,1.8673e-09,-0.6055,0,0,0.33333,-0,-0,0.66667
0.68745,0.47236,2.0623,-0.041454,-0.23826,4.4803,0.22798,-0.075993,-1.9948,0.30397,-7.0539e-12,-0.9974,0,0,0.33333,-0,-0,0.66667
0.90817,0.43877,2.7245,-0.091846,-0.14035,0.69477,0.66729,-0.22243,-1.9711,0.88973,6.2035e-08,-0.98553,0,0,0.33333,3.158e-15,0,0.66667
0.30209,0.58412,0.90626,0.12619,1.3045,16.428,-0.30495,0.10165,-1.9429,-0.4066,-2.4055e-11,-0.97145,0,0,0.33333,-0,-0,0.66667
0.94483,0.029775,2.8345,-0.70534,-0.86067,0.9688,5.3314,-1.7771,-0.2317,7.1085,5.4202e-07,-0.11585,0,0,0.33333,1.579e-15,0,0.66667
0.86403,0.035656,2.5921,-0.69652,-2.0625,1.7721,4.8145,-1.6048,-0.27526,6.4193,-3.5167e-09,-0.13763,0,0,0.33333,-3.158e-15,0,0.66667
0.88601,0.39178,2.658,-0.16234,-0.32853,0.96556,1.1507,-0.38355,-1.9056,1.5342,-2.3713e-09,-0.95281,0,0,0.33333,1.579e-15,0,0.66667
0.00014133,0.88439,0.00042399,0.57659,6.7815,28.244,-0.00065246,0.00021762,-0.81812,-0.00086987,2.038e-07,-0.40906,0,0,0.33333,3.8549e-19,1.3276e-15,0.66667
0.37724,0.44442,1.1317,-0.083376,-0.8101,13.714,0.25162,-0.083874,-1.9754,0.33549,3.0665e-12,-0.98769,0,0,0.33333,-7.8949e-16,0,0.66667
0.12233,0.68876,0.36698,0.28315,3.2053,23.361,-0.27709,0.092362,-1.7159,-0.36945,2.7089e-09,-0.85795,0,0,0.33333,-0,-0,0.66667
0.93281,0.82875,2.7984,0.49312,0.60519,0.74689,-3.6799,1.2266,-1.1347,-4.9065,6.0589e-09,-0.56736,0,0,0.33333,-0,-0,0.66667
0.51371,0.7453,1.5411,0.36795,3.0872,9.2928,-1.5121,0.50405,-1.5191,-2.0162,-3.4883e-13,-0.75953,0,0,0.33333,1.9737e-16,0,0.66667
0.48934,0.2351,1.468,-0.39735,-3.4597,10.063,1.5555,-0.51849,-1.4379,2.074,-1.9573e-13,-0.71896,0,0,0.33333,-7.8949e-16,0,0.66667
0.48692,0.82297,1.4608,0.48445,4.2704,10.189,-1.8871,0.62904,-1.1652,-2.5162,2.8566e-13,-0.58262,0,0,0.33333,-0,-0,0.66667
0.57029,0.091207,1.7109,-0.61319,-4.8465,7.8074,2.7976,-0.93252,-0.66349,3.7301,7.2897e-13,-0.33175,0,0,0.33333,1.1842e-15,0,0.66667
0.54451,0.97621,1.6335,0.71431,5.9916,8.6413,-3.1116,1.0372,-0.18583,-4.1488,-8.7264e-14,-0.092916,0,0,0.33333,-0,-2.8685e-16,0.66667
0.91711,0.83033,2.7513,0.4955,0.78198,0.89301,-3.6354,1.2118,-1.1264,-4.8472,-8.2403e-09,-0.56319,0,0,0.33333,-0,-0,0.66667
0.88438,0.7742,2.6532,0.4113,0.90752,1.1535,-2.91,0.96998,-1.3983,-3.8799,-9.3985e-10,-0.69913,0,0,0.33333,-7.8949e-16,0,0.66667
0.78372,0.65947,2.3512,0.23921,0.98204,2.5416,-1.4998,0.49993,-1.7972,-1.9997,1.5135e-10,-0.89858,0,0,0.33333,3.158e-15,0,0.66667
0.32273,0.018392,0.96818,-0.72241,-7.7356,15.888,1.8651,-0.62171,-0.14374,2.4868,-4.7851e-14,-0.071872,0,0,0.33333,-0,-0,0.66667
0.78444,0.93563,2.3533,0.65345,2.9244,2.9154,-4.1007,1.3669,-0.48258,-5.4676,9.7782e-11,-0.24129,0,0,0.33333,1.7764e-15,0,0.66667
0.14519,0.66161,0.43556,0.24242,2.7211,22.454,-0.28157,0.093855,-1.7911,-0.37542,-1.7482e-10,-0.89555,0,0,0.33333,-0,-0,0.66667
0.86023,0.71005,2.5807,0.31507,0.83172,1.3785,-2.1683,0.72276,-1.6471,-2.891,-2.9399e-10,-0.82357,0,0,0.33333,7.8949e-16,0,0.66667
0.773,0.017775,2.319,-0.72334,-3.464,3.2187,4.4731,-1.491,-0.13889,5.9642,9.317e-13,-0.069446,0,0,0.33333,-0,-0,0.66667
0.77597,0.17559,2.3279,-0.48661,-2.1589,2.8691,3.0207,-1.0069,-1.1574,4.0276,-2.2301e-10,-0.57872,0,0,0.33333,-0,-0,0.66667
0.5287,0.12477,1.5861,-0.56285,-4.7229,8.9666,2.3806,-0.79354,-0.87477,3.1742,3.3795e-13,-0.43738,0,0,0.33333,8.7584e-16,2.231e-20,0.66667
0.45019,0.82772,1.3506,0.49158,4.5399,11.37,-1.7704,0.59014,-1.1403,-2.3606,9.9099e-13,-0.57013,0,0,0.33333,-0,-0,0.66667
0.22663,0.51597,0.67989,0.023962,0.25882,19.268,-0.043445,0.014482,-1.9971,-0.057927,-2.2346e-11,-0.99857,0,0,0.33333,-0,-0,0.66667
0.80868,0.1989,2.426,-0.45165,-1.7075,2.2668,2.9219,-0.97396,-1.2742,3.8959,-4.417e-10,-0.63711,0,0,0.33333,-0,-0,0.66667
0.96593,0.60865,2.8978,0.16297,0.040414,0.22032,-1.2594,0.41979,-1.9051,-1.6792,-7.0554e-08,-0.95253,0,0,0.33333,-1.579e-15,0,0.66667
0.54353,0.27461,1.6306,-0.33809,-2.7014,8.3826,1.4701,-0.49003,-1.5936,1.9601,6.708e-13,-0.79679,0,0,0.33333,3.9475e-16,0,0.66667
0.90221,0.12983,2.7066,-0.55525,-1.0931,1.1196,4.0076,-1.3359,-0.90398,5.3435,-1.6458e-09,-0.45199,0,0,0.33333,-0,-0,0.66667
0.28235,0.71523,0.84705,0.32284,3.4118,17.195,-0.72924,0.24308,-1.6302,-0.97232,-6.5622e-11,-0.81508,0,0,0.33333,-4.9343e-16,0,0.66667
0.51776,0.9005,1.5533,0.60075,5.1509,9.325,-2.4883,0.82944,-0.71707,-3.3178,-3.022e-13,-0.35853,0,0,0.33333,-0,-0,0.66667
0.32816,0.69209,0.98449,0.28813,2.9419,15.502,-0.75642,0.25214,-1.7056,-1.0086,-2.3457e-11,-0.8528,0,0,0.33333,-7.8949e-16,0,0.66667
0.9918,0.18077,2.9754,-0.47885,0.071631,0.34048,3.7994,-1.2665,-1.1845,5.0659,-2.331e-08,-0.59223,0,0,0.33333,1.579e-15,0,0.66667
0.25032,0.96076,0.75095,0.69114,7.7132,18.522,-1.384,0.46134,-0.30189,-1.8454,-6.2139e-12,-0.15094,0,0,0.33333,-0,-0,0.66667
0.67876,0.94686,2.0363,0.67029,4.259,5.0892,-3.6397,1.2132,-0.40202,-4.8529,6.1173e-13,-0.20101,0,0,0.33333,-0,-0,0.66667
0.7642,0.57436,2.2926,0.11153,0.49315,2.8591,-0.68188,0.22729,-1.9555,-0.90917,5.5729e-11,-0.97777,0,0,0.33333,-0,-0,0.66667
0.032227,0.52775,0.09668,0.041622,0.47475,26.953,-0.010731,0.0035761,-1.9946,-0.014309,-1.4735e-06,-0.99731,0,0,0.33333,2.4672e-17,0,0.66667
0.98227,0.045415,2.9468,-0.68188,-0.21859,0.69555,5.3583,-1.7861,-0.34641,7.1444,5.9057e-07,-0.1732,0,0,0.33333,1.579e-15,-3.913e-16,0.66667
0.091323,0.52092,0.27397,0.031385,0.35521,24.584,-0.022929,0.0076431,-1.9962,-0.030572,-6.9583e-09,-0.99811,0,0,0.33333,-0,-0,0.66667
0.61407,0.67922,1.8422,0.26883,1.8728,6.3714,-1.3206,0.44022,-1.7427,-1.7609,4.0685e-12,-0.87136,0,0,0.33333,-0,-0,0.66667
0.14935,0.55675,0.44805,0.085122,0.94967,22.28,-0.1017,0.033902,-1.9741,-0.13561,8.1254e-10,-0.98706,0,0,0.33333,-0,-0,0.66667
0.5208,0.53773,1.5624,0.056594,0.4621,8.9852,-0.23579,0.078597,-1.9885,-0.31439,-8.7499e-14,-0.99423,0,0,0.33333,-0,-0,0.66667
0.093345,0.67424,0.28004,0.26135,2.975,24.511,-0.19517,0.065056,-1.757,-0.26022,2.4149e-09,-0.87851,0,0,0.33333,-9.8686e-17,0,0.66667
0.7812,0.40491,2.3436,-0.14264,-0.58687,2.5488,0.89142,-0.29714,-1.929,1.1886,-1.0198e-10,-0.9645,0,0,0.33333,-5.9212e-16,0,0.66667
0.77293,0.22062,2.3188,-0.41907,-1.8564,2.8617,2.5913,-0.86376,-1.3761,3.455,-2.1421e-10,-0.68805,0,0,0.33333,-3.158e-15,0,0.66667
0.59815,0.038863,1.7944,-0.69171,-5.2704,7.1242,3.3099,-1.1033,-0.2986,4.4133,2.7223e-13,-0.1493,0,0,0.33333,-0,-0,0.66667
0.014543,0.58802,0.04363,0.13202,1.5093,27.665,-0.015359,0.0051199,-1.9384,-0.020479,3.4628e-07,-0.96922,0,0,0.33333,-1.2336e-17,0,0.66667
0.042024,0.38922,0.12607,-0.16617,-1.8983,26.561,0.055865,-0.018622,-1.9011,0.074487,-8.2829e-08,-0.95056,0,0,0.33333,-0,-0,0.66667
0.18097,0.21923,0.54291,-0.42116,-4.7202,21.08,0.60974,-0.20325,-1.3701,0.81299,4.2277e-10,-0.68507,0,0,0.33333,-0,-0,0.66667
0.97203,0.24904,2.9161,-0.37644,-0.084884,0.33042,2.9273,-0.97576,-1.4971,3.903,-2.025e-09,-0.74855,0,0,0.33333,-2.9606e-16,0,0.66667
0.2546,0.50729,0.7638,0.010938,0.11636,18.2,-0.022279,0.0074262,-1.9994,-0.029705,-5.3197e-12,-0.99969,0,0,0.33333,-0,-0,0.66667
0.75101,0.64354,2.253,0.21531,1.0112,3.1513,-1.2936,0.43121,-1.835,-1.7248,8.7303e-11,-0.91748,0,0,0.33333,-0,-0,0.66667
0.28124,0.96917,0.84371,0.70376,7.7281,17.383,-1.5834,0.52779,-0.24054,-2.1112,-1.3123e-13,-0.12027,0,0,0.33333,7.8949e-16,-2.1101e-17,0.66667
0.25552,0.67688,0.76656,0.26532,2.8405,18.19,-0.54234,0.18078,-1.7491,-0.72313,-9.3955e-11,-0.87457,0,0,0.33333,-0,-0,0.66667
0.25786,0.27749,0.77359,-0.33377,-3.5827,18.115,0.68853,-0.22951,-1.6041,0.91804,1.0502e-10,-0.80204,0,0,0.33333,3.9475e-16,0,0.66667
0.29705,0.4832,0.89116,-0.025193,-0.26096,16.608,0.059869,-0.019956,-1.9976,0.079825,5.6508e-12,-0.99882,0,0,0.33333,-0,-0,0.66667
0.0089446,0.51066,0.026834,0.015989,0.18253,27.89,-0.0011423,0.00037865,-1.9985,-0.0015242,-3.1975e-06,-0.99923,0,0,0.33333,-0,-0,0.66667
0.98718,0.13731,2.9615,-0.54404,-0.016,0.44997,4.2965,-1.4322,-0.9472,5.7287,-1.142e-07,-0.4736,0,0,0.33333,-0,-0,0.66667
0.56646,0.68432,1.6994,0.27648,2.1138,7.6889,-1.2529,0.41764,-1.7287,-1.6705,-1.3156e-13,-0.86433,0,0,0.33333,1.1842e-15,0,0.66667
0.60184,0.57562,1.8055,0.11344,0.80352,6.6521,-0.54617,0.18206,-1.9535,-0.72822,1.8172e-12,-0.97674,0,0,0.33333,-0,-0,0.66667
0.53826,0.63507,1.6148,0.2026,1.6173,8.4858,-0.87241,0.2908,-1.8535,-1.1632,-1.7936e-13,-0.92673,0,0,0.33333,-0,-0,0.66667
0.043838,0.35541,0.13151,-0.21688,-2.4817,26.489,0.076061,-0.025354,-1.8323,0.10141,3.8331e-09,-0.91616,0,0,0.33333,-0,-0,0.66667
0.47152,0.65166,1.4146,0.22749,2.0024,10.562,-0.85812,0.28604,-1.8163,-1.1442,2.5535e-13,-0.90817,0,0,0.33333,-5.9212e-16,0,0.66667
0.53968,0.22309,1.619,-0.41537,-3.3647,8.5383,1.7933,-0.59777,-1.3866,2.3911,8.2678e-13,-0.69332,0,0,0.33333,-1.579e-15,0,0.66667
0.67296,0.38852,2.0189,-0.16722,-1.0052,4.8458,0.90026,-0.30009,-1.9003,1.2004,-1.8437e-11,-0.95017,0,0,0.33333,-0,-0,0.66667
0.53417,0.35692,1.6025,-0.21463,-1.7257,8.6115,0.91717,-0.30572,-1.8357,1.2229,2.0434e-13,-0.91787,0,0,0.33333,-0,-0,0.66667
0.055072,0.75775,0.16522,0.38662,4.4598,26.046,-0.17034,0.056779,-1.4681,-0.22712,4.6051e-09,-0.73407,0,0,0.33333,-0,-0,0.66667
0.6201,0.41456,1.8603,-0.12816,-0.87398,6.1659,0.63578,-0.21193,-1.9413,0.8477,-3.8792e-12,-0.97063,0,0,0.33333,-0,-0,0.66667
0.58118,0.29494,1.7435,-0.30758,-2.2951,7.2866,1.4301,-0.47669,-1.6631,1.9068,-3.1553e-13,-0.83155,0,0,0.33333,-7.8949e-16,0,0.66667
0.5456,0.18404,1.6368,-0.47394,-3.8282,8.4021,2.0686,-0.68954,-1.2021,2.7582,1.0179e-12,-0.60105,0,0,0.33333,5.5627e-16,0,0.66667
0.84328,0.86172,2.5298,0.54257,1.73,1.8351,-3.6603,1.2201,-0.95316,-4.8805,1.2464e-09,-0.47658,0,0,0.33333,1.579e-15,0,0.66667
0.44739,0.99378,1.3422,0.74067,7.0984,11.644,-2.6509,0.88365,-0.04929,-3.5346,-1.6787e-13,-0.024645,0,0,0.33333,1.1842e-15,0,0.66667
0.60357,0.14087,1.8107,-0.5387,-3.9573,6.8285,2.6011,-0.86704,-0.96743,3.4682,8.7375e-13,-0.48371,0,0,0.33333,-7.1477e-16,0,0.66667
0.12361,0.31378,0.37084,-0.27933,-3.1604,23.31,0.27623,-0.092077,-1.7237,0.36831,-2.4016e-09,-0.86185,0,0,0.33333,-0,-0,0.66667
0.25238,0.80233,0.75714,0.45349,4.9275,18.354,-0.91562,0.30521,-1.2685,-1.2208,-1.1786e-10,-0.63426,0,0,0.33333,3.9475e-16,0,0.66667
0.85035,0.95624,2.5511,0.68436,2.2071,1.933,-4.6556,1.5519,-0.33405,-6.2074,2.214e-10,-0.16703,0,0,0.33333,-1.579e-15,0,0.66667
0.016224,0.75945,0.048673,0.38918,4.503,27.6,-0.050513,0.016838,-1.4616,-0.067351,3.8383e-09,-0.73078,0,0,0.33333,4.9343e-17,0,0.66667
0.15625,0.92654,0.46875,0.63981,7.3886,22.092,-0.79976,0.26659,-0.5446,-1.0663,-9.5267e-10,-0.2723,0,0,0.33333,-0,-0,0.66667
0.82338,0.089286,2.4702,-0.61607,-2.2639,2.2241,4.0581,-1.3527,-0.65068,5.4108,-4.9434e-10,-0.32534,0,0,0.33333,-7.8949e-16,0,0.66667
0.22934,0.86686,0.68801,0.55029,6.1079,19.256,-1.0096,0.33654,-0.923,-1.3461,-1.4623e-10,-0.4615,0,0,0.33333,1.9737e-16,0,0.66667
0.25919,0.98398,0.77758,0.72597,8.0996,18.208,-1.5053,0.50178,-0.12534,-2.0071,-2.6268e-13,-0.062671,0,0,0.33333,-0,-0,0.66667
0.70079,0.54162,2.1024,0.062433,0.34509,4.1768,-0.35002,0.11667,-1.9859,-0.4667,1.2932e-11,-0.99294,0,0,0.33333,-0,-0,0.66667
0.96653,0.84862,2.8996,0.52293,0.25633,0.53456,-4.0434,1.3478,-1.0281,-5.3912,-4.3017e-08,-0.51404,0,0,0.33333,-3.158e-15,0,0.66667
0.19828,0.3819,0.59484,-0.17715,-1.9447,20.371,0.281,-0.093667,-1.8882,0.37467,1.5058e-10,-0.94412,0,0,0.33333,-0,-0,0.66667
0.7475,0.68045,2.2425,0.27068,1.2959,3.2482,-1.6186,0.53955,-1.7395,-2.1582,9.9255e-11,-0.86977,0,0,0.33333,1.2321e-15,0,0.66667
0.14051,0.45118,0.42152,-0.073233,-0.81913,22.629,0.082317,-0.027439,-1.9809,0.10976,9.5005e-10,-0.99043,0,0,0.33333,1.9737e-16,0,0.66667
0.3825,0.61937,1.1475,0.17905,1.7358,13.542,-0.54789,0.18263,-1.8859,-0.73052,-4.3827e-12,-0.94295,0,0,0.33333,-0,-0,0.66667
0.32329,0.091756,0.96987,-0.61237,-6.4613,15.805,1.5838,-0.52792,-0.66729,2.1117,2.6671e-12,-0.33364,0,0,0.33333,5.4278e-16,0,0.66667
0.88379,0.90346,2.6514,0.60519,1.4667,1.3929,-4.2788,1.4263,-0.69812,-5.7051,-1.7785e-09,-0.34906,0,0,0.33333,3.9475e-16,0,0.66667
0.65538,0.015257,1.9661,-0.72711,-4.9521,5.7109,3.8123,-1.2708,-0.11996,5.0831,9.7256e-14,-0.059981,0,0,0.33333,-0,3.9453e-16,0.66667
0.33358,0.55525,1.0007,0.082877,0.83611,15.272,-0.22116,0.073722,-1.9753,-0.29489,-8.8622e-12,-0.98766,0,0,0.33333,3.9475e-16,0,0.66667
0.021608,0.10227,0.064824,-0.5966,-7.028,27.391,0.10313,-0.034377,-0.73406,0.13751,-6.9758e-07,-0.36703,0,0,0.33333,4.9343e-17,0,0.66667
0.36901,0.96566,1.107,0.69848,7.1864,14.24,-2.062,0.68733,-0.26564,-2.7493,1.6276e-13,-0.13282,0,0,0.33333,7.0137e-16,0,0.66667
0.97218,0.49908,2.9165,-0.001382,-0.00010228,0.14583,0.010749,-0.0035764,-2.0009,0.014335,9.7561e-06,-1.0005,0,0,0.33333,-2.7632e-15,0,0.66667
0.5291,0.98487,1.5873,0.7273,6.2591,9.1044,-3.0785,1.0262,-0.11879,-4.1047,-5.6843e-14,-0.059393,0,0,0.33333,7.8949e-16,0,0.66667
0.74214,0.58376,2.2264,0.12564,0.60606,3.2994,-0.74595,0.24865,-1.9433,-0.9946,4.7287e-11,-0.97164,0,0,0.33333,-7.8949e-16,0,0.66667
0.34539,0.49914,1.0362,-0.0012893,-0.012873,14.843,0.0035626,-0.0011875,-2.0012,0.0047501,2.4725e-13,-1.0006,0,0,0.33333,-1.2829e-15,0,0.66667
0.46059,0.39488,1.3818,-0.15769,-1.4029,10.899,0.58103,-0.19368,-1.9109,0.77471,-5.4068e-14,-0.95545,0,0,0.33333,-0,-0,0.66667
0.21164,0.86318,0.63491,0.54477,6.0944,19.929,-0.92235,0.30745,-0.94408,-1.2298,-2.6974e-10,-0.47204,0,0,0.33333,-0,-0,0.66667
0.83696,0.33704,2.5109,-0.24444,-0.75107,1.6645,1.6367,-0.54557,-1.7873,2.1823,1.3719e-10,-0.89365,0,0,0.33333,7.8949e-16,0,0.66667
0.35981,0.72877,1.0794,0.34316,3.4265,14.383,-0.98776,0.32925,-1.5814,-1.317,-8.9796e-12,-0.79069,0,0,0.33333,-0,-0,0.66667
0.037088,0.10915,0.11126,-0.58628,-6.8926,26.775,0.17395,-0.057984,-0.77712,0.23193,1.0451e-07,-0.38856,0,0,0.33333,4.9343e-17,0,0.66667
0.68899,0.76592,2.067,0.39888,2.3475,4.5892,-2.1986,0.73286,-1.434,-2.9315,3.1321e-11,-0.71698,0,0,0.33333,-0,-0,0.66667
0.15579,0.72701,0.46737,0.34052,3.8294,22.049,-0.4244,0.14147,-1.5879,-0.56586,-2.4575e-10,-0.79396,0,0,0.33333,-0,-0,0.66667
0.79875,0.76671,2.3963,0.40006,1.5709,2.386,-2.5564,0.85213,-1.4305,-3.4085,3.2417e-10,-0.71527,0,0,0.33333,1.579e-15,0,0.66667
0.015262,0.94685,0.045787,0.67028,7.9628,27.645,-0.081837,0.02728,-0.4027,-0.10912,1.0678e-06,-0.20135,0,0,0.33333,-0,-0,0.66667
0.58562,0.11333,1.7569,-0.58001,-4.4371,7.3515,2.7173,-0.90578,-0.80317,3.6231,1.0278e-12,-0.40159,0,0,0.33333,7.8949e-16,0,0.66667
0.49552,0.19856,1.4865,-0.45216,-3.9258,9.9006,1.7924,-0.59747,-1.2725,2.3899,-1.0292e-13,-0.63627,0,0,0.33333,-0,-0,0.66667
0.99746,0.078256,2.9924,-0.63262,0.067986,0.54327,5.0481,-1.6827,-0.57658,6.7308,-2.6922e-06,-0.28829,0,0,0.33333,1.579e-15,1.3849e-15,0.66667
0.13437,0.36215,0.40311,-0.20677,-2.325,22.878,0.22227,-0.07409,-1.8473,0.29636,1.0119e-09,-0.92363,0,0,0.33333,-0,-0,0.66667
0.67255,0.46955,2.0177,-0.045674,-0.27363,4.8322,0.24575,-0.081916,-1.9939,0.32766,-5.6996e-12,-0.99696,0,0,0.33333,-0,-0,0.66667
0.094945,0.52203,0.28484,0.033039,0.37366,24.439,-0.025095,0.008365,-1.9961,-0.03346,-1.7545e-08,-0.99806,0,0,0.33333,-0,-0,0.66667
0.16177,0.3222,0.48531,-0.2667,-2.9807,21.805,0.34515,-0.11505,-1.7466,0.46019,2.7577e-11,-0.8733,0,0,0.33333,-0,-0,0.66667
0.98833,0.90904,2.965,0.61356,0.052446,0.55056,-4.8512,1.6171,-0.662,-6.4683,4.4095e-07,-0.331,0,0,0.33333,3.158e-15,0,0.66667
0.80667,0.64011,2.42,0.21017,0.76794,2.1281,-1.3563,0.45209,-1.8422,-1.8084,1.4129e-10,-0.92109,0,0,0.33333,-0,-0,0.66667
0.24464,0.76145,0.73392,0.39217,4.2582,18.629,-0.76753,0.25584,-1.4525,-1.0234,-1.4333e-10,-0.72627,0,0,0.33333,3.9475e-16,0,0.66667
0.8463,0.39634,2.5389,-0.1555,-0.4427,1.4874,1.0528,-0.35093,-1.9138,1.4037,-7.1945e-10,-0.95689,0,0,0.33333,-0,-0,0.66667
0.0356,0.97938,0.1068,0.71907,8.5841,26.842,-0.20479,0.068264,-0.16105,-0.27306,3.6543e-07,-0.080523,0,0,0.33333,-0,-0,0.66667
0.53561,0.24299,1.6068,-0.38551,-3.1336,8.6418,1.6519,-0.55062,-1.4714,2.2025,7.2986e-13,-0.73571,0,0,0.33333,-0,-0,0.66667
0.091475,0.94102,0.27442,0.66153,7.7863,24.631,-0.48411,0.16137,-0.44458,-0.64548,-7.447e-08,-0.22229,0,0,0.33333,-0,1.5786e-16,0.66667
0.97091,0.67899,2.9127,0.26848,0.048204,0.24714,-2.0854,0.69512,-1.7436,-2.7805,-7.836e-09,-0.87181,0,0,0.33333,-1.579e-15,0,0.66667
0.5831,0.53256,1.7493,0.048841,0.35844,7.1611,-0.22783,0.075944,-1.9922,-0.30378,4.0151e-13,-0.99612,0,0,0.33333,-0,-0,0.66667
0.55574,0.45343,1.6672,-0.069854,-0.53896,7.9447,0.31057,-0.10352,-1.9819,0.41409,-3.1114e-14,-0.99093,0,0,0.33333,-7.8949e-16,0,0.66667
0.31797,0.3328,0.95392,-0.2508,-2.5754,15.864,0.63798,-0.21266,-1.7758,0.85064,2.8501e-11,-0.88788,0,0,0.33333,-0,-0,0.66667
0.8499,0.65138,2.5497,0.22708,0.63629,1.4668,-1.5439,0.51465,-1.8167,-2.0586,5.1227e-10,-0.90835,0,0,0.33333,-1.1842e-15,0,0.66667
0.53015,0.10532,1.5905,-0.59202,-4.9773,8.9471,2.5109,-0.83696,-0.75368,3.3478,4.4209e-13,-0.37684,0,0,0.33333,-0,-0,0.66667
0.017098,0.25339,0.051295,-0.36991,-4.2744,27.565,0.050599,-0.016866,-1.5142,0.067465,4.3703e-09,-0.75709,0,0,0.33333,-0,-0,0.66667
0.18489,0.92979,0.55468,0.64469,7.3736,20.986,-0.95359,0.31786,-0.52219,-1.2715,-3.5832e-10,-0.26109,0,0,0.33333,-1.9737e-16,0,0.66667
0.43347,0.2063,1.3004,-0.44055,-4.1249,11.892,1.5277,-0.50924,-1.3094,2.0369,-9.5091e-13,-0.65468,0,0,0.33333,-0,-0,0.66667
0.079976,0.81745,0.23993,0.47618,5.5118,25.061,-0.30466,0.10155,-1.1942,-0.40622,8.2676e-09,-0.5971,0,0,0.33333,-0,-0,0.66667
0.28066,0.34975,0.84197,-0.22538,-2.3719,17.238,0.50603,-0.16868,-1.8199,0.67471,5.6478e-11,-0.90993,0,0,0.33333,-0,-0,0.66667
0.2504,0.73175,0.75119,0.34762,3.7507,18.4,-0.69634,0.23211,-1.5702,-0.92846,-1.229e-10,-0.78512,0,0,0.33333,-0,-0,0.66667
0.00060864,0.017586,0.0018259,-0.72362,-8.6543,28.226,0.0035195,-0.0011432,-0.13807,0.0047076,4.4987e-05,-0.069034,0,0,0.33333,-0,1.5541e-15,0.66667
0.69289,0.69241,2.0787,0.28862,1.6572,4.4301,-1.5998,0.53328,-1.7039,-2.1331,3.7747e-11,-0.85194,0,0,0.33333,-1.579e-15,0,0.66667
0.77389,0.37919,2.3217,-0.18121,-0.77268,2.6967,1.1219,-0.37397,-1.8833,1.4959,-9.9765e-11,-0.94167,0,0,0.33333,-0,-0,0.66667
0.82035,0.78334,2.461,0.425,1.4995,2.0534,-2.7892,0.92974,-1.3582,-3.7189,4.6317e-10,-0.67912,0,0,0.33333,3.158e-15,0,0.66667
0.85163,0.53326,2.5549,0.049896,0.13551,1.3867,-0.33994,0.11331,-1.9916,-0.45326,1.7568e-09,-0.99582,0,0,0.33333,-0,-0,0.66667
0.15152,0.91505,0.45457,0.62257,7.1864,22.271,-0.75468,0.25156,-0.6215,-1.0062,-4.5641e-10,-0.31075,0,0,0.33333,-0,-0,0.66667
0.89004,0.09805,2.6701,-0.60292,-1.3793,1.3181,4.293,-1.431,-0.7082,5.724,-1.4686e-08,-0.3541,0,0,0.33333,-3.158e-15,0,0.66667
0.65821,0.5231,1.9746,0.034645,0.21546,5.18,-0.18243,0.06081,-1.9957,-0.24324,3.0778e-12,-0.99786,0,0,0.33333,1.579e-15,0,0.66667
0.69613,0.44381,2.0884,-0.084278,-0.4727,4.2854,0.46935,-0.15645,-1.9745,0.6258,-1.6129e-11,-0.98727,0,0,0.33333,1.579e-15,0,0.66667
0.56407,0.79889,1.6922,0.44834,3.5002,7.851,-2.0232,0.67439,-1.285,-2.6975,-1.0674e-12,-0.64249,0,0,0.33333,-0,-0,0.66667
0.93968,0.71298,2.819,0.31947,0.29599,0.51256,-2.4016,0.80053,-1.6374,-3.2021,3.7048e-09,-0.81868,0,0,0.33333,-0,-0,0.66667
0.25185,0.58609,0.75554,0.12913,1.3782,18.31,-0.26017,0.086724,-1.9408,-0.34689,-5.4276e-11,-0.97038,0,0,0.33333,-1.9737e-16,0,0.66667
0.78688,0.73576,2.3607,0.35364,1.4556,2.5559,-2.2262,0.74207,-1.5546,-2.9683,2.2992e-10,-0.77729,0,0,0.33333,-1.579e-15,0,0.66667
0.49526,0.56889,1.4858,0.10334,0.87678,9.7806,-0.40945,0.13648,-1.9619,-0.54593,8.743e-15,-0.98096,0,0,0.33333,-0,-0,0.66667
0.8909,0.55864,2.6727,0.087958,0.16715,0.88578,-0.62689,0.20896,-1.9733,-0.83586,1.8441e-08,-0.98666,0,0,0.33333,1.9737e-15,0,0.66667
0.2762,0.55276,0.8286,0.079134,0.83152,17.388,-0.17485,0.058285,-1.9773,-0.23314,-2.3584e-11,-0.98863,0,0,0.33333,3.9475e-16,0,0.66667
0.015247,0.94548,0.045741,0.66822,7.9364,27.645,-0.081503,0.027168,-0.41263,-0.10867,1.3241e-06,-0.20632,0,0,0.33333,-0,-0,0.66667
0.064891,0.3386,0.19467,-0.24211,-2.7665,25.646,0.12568,-0.041895,-1.7919,0.16758,-4.1022e-11,-0.89595,0,0,0.33333,-9.8686e-17,0,0.66667
0.89964,0.49255,2.6989,-0.01117,-0.019036,0.7772,0.080392,-0.026797,-1.9992,0.10719,-3.2267e-08,-0.99961,0,0,0.33333,-0,-0,0.66667
0.64115,0.15504,1.9235,-0.51744,-3.4986,5.8353,2.654,-0.88468,-1.0493,3.5387,-2.2877e-12,-0.52466,0,0,0.33333,8.8818e-16,0,0.66667
0.73027,0.016781,2.1908,-0.72483,-4.0315,4.0416,4.2346,-1.4115,-0.13136,5.6461,-8.8063e-13,-0.06568,0,0,0.33333,-3.158e-15,3.9258e-16,0.66667
0.50436,0.53648,1.5131,0.054718,0.45783,9.491,-0.22078,0.073594,-1.9894,-0.29438,-1.9282e-13,-0.99472,0,0,0.33333,-0,-0,0.66667
0.55757,0.76151,1.6727,0.39226,3.0775,8.0021,-1.7497,0.58324,-1.4523,-2.3329,-9.5068e-13,-0.72616,0,0,0.33333,-0,-0,0.66667
0.36389,0.93027,1.0917,0.6454,6.6215,14.384,-1.8789,0.62628,-0.51878,-2.5051,4.7484e-13,-0.25939,0,0,0.33333,-0,-0,0.66667
0.78264,0.24378,2.3479,-0.38433,-1.6217,2.6556,2.4063,-0.8021,-1.4751,3.2084,-2.3528e-10,-0.73756,0,0,0.33333,-7.8949e-16,0,0.66667
0.75687,0.73244,2.2706,0.34866,1.6277,3.1116,-2.1111,0.7037,-1.567,-2.8148,1.4049e-10,-0.7835,0,0,0.33333,-0,-0,0.66667
0.70001,0.70832,2.1,0.31249,1.7617,4.282,-1.7499,0.58331,-1.6525,-2.3332,4.4599e-11,-0.82623,0,0,0.33333,-7.8949e-16,0,0.66667
0.96189,0.49649,2.8857,-0.0052605,-0.0016469,0.21361,0.04048,-0.013495,-2.0001,0.053973,-2.2936e-06,-1.0001,0,0,0.33333,-2.7632e-15,0,0.66667
0.76884,0.29903,2.3065,-0.30145,-1.3317,2.851,1.8541,-0.61804,-1.6764,2.4722,-1.4949e-10,-0.83819,0,0,0.33333,-0,-0,0.66667
0.97792,0.91334,2.9338,0.62001,0.21038,0.61247,-4.8505,1.6168,-0.63293,-6.4674,-9.3751e-08,-0.31647,0,0,0.33333,-0,-0,0.66667
0.59028,0.93306,1.7708,0.64958,4.9844,7.2915,-3.0675,1.0225,-0.49998,-4.09,-6.0929e-13,-0.24999,0,0,0.33333,3.9475e-16,2.9047e-16,0.66667
0.61926,0.066769,1.8578,-0.64985,-4.7132,6.5232,3.2194,-1.0731,-0.49863,4.2925,5.7332e-13,-0.24931,0,0,0.33333,1.579e-15,0,0.66667
0.63905,0.57359,1.9172,0.11038,0.72065,5.6703,-0.56432,0.18811,-1.9565,-0.75243,5.7619e-12,-0.97824,0,0,0.33333,1.579e-15,0,0.66667
0.32637,0.88039,0.97911,0.57059,5.9775,15.672,-1.4898,0.4966,-0.84277,-1.9864,-5.3313e-12,-0.42139,0,0,0.33333,-0,-0,0.66667
0.033029,0.97528,0.099087,0.71291,8.5055,26.943,-0.18837,0.062792,-0.19311,-0.25116,1.0565e-06,-0.096554,0,0,0.33333,-0,-0,0.66667
0.78818,0.97779,2.3645,0.71668,3.2212,2.9413,-4.519,1.5063,-0.17327,-6.0253,1.5052e-11,-0.086633,0,0,0.33333,1.579e-15,0,0.66667
0.71019,0.37933,2.1306,-0.18101,-0.97714,3.9943,1.0284,-0.3428,-1.8836,1.3712,-4.0801e-11,-0.9418,0,0,0.33333,1.579e-15,0,0.66667
0.079032,0.91686,0.2371,0.62529,7.3454,25.116,-0.39534,0.13178,-0.60974,-0.52713,-5.0143e-08,-0.30487,0,0,0.33333,-0,-0,0.66667
0.14858,0.17761,0.44575,-0.48359,-5.5101,22.355,0.57482,-0.19161,-1.1679,0.76642,1.1637e-09,-0.58396,0,0,0.33333,-0,-0,0.66667
0.68634,0.1682,2.059,-0.4977,-2.9966,4.7312,2.7327,-0.91091,-1.1191,3.6437,-1.8309e-11,-0.55954,0,0,0.33333,-0,-0,0.66667
0.53504,0.36214,1.6051,-0.2068,-1.6597,8.5832,0.88515,-0.29505,-1.8474,1.1802,1.8663e-13,-0.92369,0,0,0.33333,7.8949e-16,0,0.66667
0.19121,0.097002,0.57364,-0.6045,-6.8652,20.731,0.92471,-0.30824,-0.7012,1.2329,3.2909e-10,-0.3506,0,0,0.33333,-0,-0,0.66667
0.055953,0.99093,0.16786,0.7364,8.7937,26.04,-0.32963,0.10988,-0.071391,-0.43951,-8.517e-07,-0.035696,0,0,0.33333,6.6262e-17,0,0.66667
0.61141,0.67982,1.8342,0.26973,1.8898,6.4427,-1.3193,0.43978,-1.7413,-1.7591,3.6461e-12,-0.87067,0,0,0.33333,-0,-0,0.66667
0.053612,0.54387,0.16083,0.065798,0.74922,26.094,-0.028221,0.0094067,-1.9839,-0.037627,-2.4196e-07,-0.99194,0,0,0.33333,-9.8686e-17,0,0.66667
0.21358,0.92977,0.64073,0.64465,7.2847,19.889,-1.1015,0.36715,-0.52211,-1.4686,-1.0941e-10,-0.26105,0,0,0.33333,1.2646e-16,0,0.66667
0.50266,0.99747,1.508,0.74621,6.6876,9.9151,-3.0007,1.0002,-0.02086,-4.001,1.2856e-13,-0.01043,0,0,0.33333,-1.579e-15,0,0.66667
0.094031,0.81147,0.28209,0.46721,5.3901,24.503,-0.35146,0.11715,-1.2252,-0.46861,-4.7992e-09,-0.61262,0,0,0.33333,2.9606e-16,0,0.66667
0.40891,0.10233,1.2267,-0.5965,-5.8333,12.806,1.9513,-0.65043,-0.73474,2.6017,-9.4658e-13,-0.36737,0,0,0.33333,-0,-0,0.66667
0.020116,0.081173,0.060347,-0.62824,-7.4265,27.451,0.1011,-0.0337,-0.59605,0.1348,4.4801e-07,-0.29803,0,0,0.33333,2.4672e-17,0,0.66667
0.11946,0.41425,0.35839,-0.12863,-1.4487,23.465,0.12293,-0.040977,-1.9408,0.16391,4.1589e-09,-0.97041,0,0,0.33333,-0,-0,0.66667
0.94006,0.55475,2.8202,0.082129,0.067273,0.38993,-0.61765,0.20588,-1.976,-0.82353,-1.6236e-07,-0.98798,0,0,0.33333,-7.8949e-16,0,0.66667
0.55886,0.66696,1.6766,0.25044,1.9369,7.8971,-1.1197,0.37323,-1.7766,-1.4929,-1.8852e-13,-0.88828,0,0,0.33333,1.579e-15,0,0.66667
0.68646,0.79412,2.0594,0.44118,2.6311,4.6798,-2.4228,0.8076,-1.3077,-3.2304,2.5326e-11,-0.65387,0,0,0.33333,-0,-0,0.66667
0.37777,0.65512,1.1333,0.23268,2.2711,13.719,-0.70321,0.2344,-1.8085,-0.93761,-5.7249e-12,-0.90423,0,0,0.33333,-9.8686e-17,0,0.66667
0.76312,0.33171,2.2894,-0.25244,-1.1346,2.9321,1.5411,-0.51371,-1.773,2.0548,-1.1615e-10,-0.88652,0,0,0.33333,-7.8949e-16,0,0.66667
0.89639,0.78723,2.6892,0.43084,0.84746,1.0353,-3.0896,1.0299,-1.3399,-4.1195,5.3843e-10,-0.66995,0,0,0.33333,-0,-0,0.66667
0.91019,0.22406,2.7306,-0.41391,-0.68418,0.87126,3.0139,-1.0046,-1.391,4.0186,5.1016e-09,-0.69548,0,0,0.33333,-3.158e-15,0,0.66667
0.49649,0.25482,1.4895,-0.36778,-3.1625,9.8246,1.4608,-0.48692,-1.5193,1.9477,3.5083e-14,-0.75965,0,0,0.33333,-1.579e-15,0,0.66667
0.76261,0.35026,2.2878,-0.22461,-1.0085,2.9284,1.3703,-0.45677,-1.8207,1.8271,-1.0124e-10,-0.91033,0,0,0.33333,-1.579e-15,0,0.66667
0.70896,0.44553,2.1269,-0.081707,-0.44057,3.9967,0.46342,-0.15447,-1.9759,0.61789,-1.9689e-11,-0.98795,0,0,0.33333,-0,-0,0.66667
0.9513,0.46996,2.8539,-0.045058,-0.025197,0.29357,0.34291,-0.1143,-1.9939,0.45721,4.3742e-07,-0.99693,0,0,0.33333,-0,-0,0.66667
0.24155,0.90823,0.72466,0.61234,6.8003,18.817,-1.1833,0.39444,-0.66729,-1.5778,-5.5722e-11,-0.33364,0,0,0.33333,-0,-0,0.66667
0.56134,0.021485,1.684,-0.71777,-5.864,8.1642,3.2233,-1.0744,-0.16814,4.2978,5.6843e-14,-0.084072,0,0,0.33333,-0,-0,0.66667
0.043773,0.8784,0.13132,0.56761,6.6568,26.508,-0.19877,0.066256,-0.85498,-0.26502,1.9923e-07,-0.42749,0,0,0.33333,-9.8686e-17,0,0.66667
0.92318,0.64989,2.7695,0.22484,0.27926,0.59573,-1.6605,0.55351,-1.8206,-2.214,-1.8711e-08,-0.91028,0,0,0.33333,-0,-0,0.66667
0.94526,0.42456,2.8358,-0.11316,-0.080096,0.35471,0.85573,-0.28524,-1.9537,1.141,1.6055e-07,-0.97685,0,0,0.33333,4.5958e-16,0,0.66667
0.50091,0.2533,1.5027,-0.37005,-3.1632,9.6881,1.4829,-0.4943,-1.5139,1.9772,-3.908e-14,-0.75696,0,0,0.33333,-0,-0,0.66667
0.58612,0.86306,1.7584,0.5446,4.1399,7.3068,-2.5536,0.85119,-0.94476,-3.4048,-1.1589e-12,-0.47238,0,0,0.33333,-0,-0,0.66667
0.77194,0.98008,2.3158,0.72013,3.4593,3.233,-4.4472,1.4824,-0.1555,-5.9295,1.9189e-12,-0.07775,0,0,0.33333,-0,-0,0.66667
0.24933,0.27881,0.74799,-0.33178,-3.5782,18.437,0.66179,-0.2206,-1.6096,0.88239,1.2331e-10,-0.80481,0,0,0.33333,1.9737e-16,0,0.66667
0.37899,0.96089,1.137,0.69133,7.0438,13.89,-2.0961,0.69869,-0.30043,-2.7948,2.4358e-13,-0.15021,0,0,0.33333,-3.9475e-16,0,0.66667
0.28861,0.30959,0.86582,-0.28561,-2.9994,16.953,0.65944,-0.21981,-1.7103,0.87925,5.5583e-11,-0.85514,0,0,0.33333,4.9343e-16,0,0.66667
0.5388,0.6625,1.6164,0.24375,1.9486,8.4829,-1.0507,0.35022,-1.7886,-1.4009,-3.6338e-13,-0.89428,0,0,0.33333,1.579e-15,0,0.66667
0.94896,0.80237,2.8469,0.45355,0.37362,0.56941,-3.4432,1.1477,-1.2681,-4.5909,5.8144e-09,-0.63407,0,0,0.33333,7.8949e-16,0,0.66667
0.3854,0.40379,1.1562,-0.14431,-1.3935,13.435,0.44495,-0.14832,-1.9264,0.59326,3.5847e-12,-0.96322,0,0,0.33333,-2.8064e-16,0,0.66667
0.04501,0.98117,0.13503,0.72176,8.6124,26.471,-0.25989,0.08663,-0.14747,-0.34652,1.3028e-07,-0.073734,0,0,0.33333,-0,3.7816e-16,0.66667
0.68252,0.34293,2.0476,-0.2356,-1.3863,4.6444,1.2864,-0.4288,-1.8035,1.7152,-2.8142e-11,-0.90173,0,0,0.33333,-1.1349e-15,0,0.66667
0.49503,0.10967,1.4851,-0.5855,-5.1708,10.007,2.3187,-0.7729,-0.78041,3.0916,-7.9492e-14,-0.39021,0,0,0.33333,-0,-0,0.66667
0.29651,0.15754,0.88954,-0.51369,-5.4633,16.733,1.2185,-0.40618,-1.063,1.6247,2.7693e-11,-0.53152,0,0,0.33333,-7.8949e-16,0,0.66667
0.41589,0.082411,1.2477,-0.62638,-6.106,12.591,2.084,-0.69468,-0.60431,2.7787,-7.7383e-13,-0.30216,0,0,0.33333,-0,-0,0.66667
0.86251,0.61661,2.5875,0.17492,0.44103,1.2688,-1.207,0.40232,-1.891,-1.6093,1.3088e-09,-0.94551,0,0,0.33333,-7.8949e-16,0,0.66667
0.82102,0.6035,2.4631,0.15525,0.52051,1.8715,-1.0197,0.3399,-1.9137,-1.3596,2.0367e-10,-0.95687,0,0,0.33333,-0,-0,0.66667
0.17085,0.34657,0.51254,-0.23014,-2.5595,21.445,0.31455,-0.10485,-1.8126,0.4194,-1.75e-10,-0.90628,0,0,0.33333,-0,-0,0.66667
0.68513,0.38797,2.0554,-0.16805,-0.97688,4.5585,0.92109,-0.30703,-1.8992,1.2281,-2.3793e-11,-0.94959,0,0,0.33333,-1.579e-15,0,0.66667
0.99766,0.59578,2.993,0.14367,-0.072686,0.037583,-1.1466,0.38222,-1.9275,-1.5289,1.3652e-06,-0.96373,0,0,0.33333,3.158e-15,0,0.66667
0.78436,0.50897,2.3531,0.013454,0.054274,2.4704,-0.084425,0.028142,-1.9991,-0.11257,-4.7013e-11,-0.99956,0,0,0.33333,-0,-0,0.66667
0.72505,0.71931,2.1751,0.32896,1.7174,3.7453,-1.9081,0.63603,-1.616,-2.5441,7.6189e-11,-0.80802,0,0,0.33333,3.158e-15,0,0.66667
0.31002,0.56698,0.93006,0.10047,1.0322,16.133,-0.24918,0.083059,-1.9645,-0.33224,-1.6856e-11,-0.98225,0,0,0.33333,-0,-0,0.66667
0.15947,0.76608,0.47841,0.39912,4.5007,21.914,-0.50918,0.16973,-1.4331,-0.67891,-5.5304e-10,-0.71653,0,0,0.33333,-0,-0,0.66667
0.86432,0.86753,2.593,0.55129,1.5255,1.5596,-3.8119,1.2706,-0.91914,-5.0826,1.1456e-10,-0.45957,0,0,0.33333,-7.8949e-16,0,0.66667
0.61035,0.2493,1.831,-0.37605,-2.6673,6.5271,1.8362,-0.61205,-1.4985,2.4482,-2.0455e-12,-0.74925,0,0,0.33333,-1.9737e-16,0,0.66667
0.39009,0.15794,1.1703,-0.51309,-5.061,13.398,1.6012,-0.53374,-1.0651,2.135,-5.268e-13,-0.53256,0,0,0.33333,1.579e-15,3.5325e-16,0.66667
0.75559,0.31295,2.2668,-0.28057,-1.3039,3.0933,1.696,-0.56533,-1.721,2.2613,-1.1317e-10,-0.86048,0,0,0.33333,-0,-0,0.66667
0.71863,0.3892,2.1559,-0.16619,-0.87222,3.8051,0.95545,-0.31848,-1.9017,1.2739,-4.3457e-11,-0.95085,0,0,0.33333,-0,-0,0.66667
0.64733,0.20474,1.942,-0.44288,-2.9193,5.6192,2.2935,-0.76451,-1.3018,3.0581,-7.0426e-12,-0.65091,0,0,0.33333,-7.8949e-16,0,0.66667
0.20726,0.57026,0.62179,0.10539,1.1501,20.018,-0.17475,0.058249,-1.9603,-0.233,-6.4032e-11,-0.98014,0,0,0.33333,-0,-0,0.66667
0.88553,0.62153,2.6566,0.18229,0.37211,0.97948,-1.2914,0.43047,-1.8822,-1.7219,-1.0653e-09,-0.94108,0,0,0.33333,1.579e-15,0,0.66667
0.71901,0.40706,2.157,-0.1394,-0.72953,3.7891,0.80186,-0.26729,-1.9323,1.0691,-3.8538e-11,-0.96615,0,0,0.33333,3.158e-15,0,0.66667
0.30263,0.44428,0.90789,-0.08358,-0.86296,16.405,0.20235,-0.067451,-1.9749,0.2698,1.6358e-11,-0.98747,0,0,0.33333,-7.8949e-16,0,0.66667
0.063598,0.012423,0.1908,-0.73136,-8.7199,25.739,0.37211,-0.12404,-0.097951,0.49615,1.7277e-07,-0.048976,0,0,0.33333,1.9737e-16,0,0.66667
0.9128,0.36657,2.7384,-0.20015,-0.29218,0.68517,1.4615,-0.48718,-1.8571,1.9487,2.1223e-08,-0.92857,0,0,0.33333,-0,-0,0.66667
0.79385,0.23741,2.3816,-0.39389,-1.5815,2.4651,2.5015,-0.83383,-1.4479,3.3353,-2.8224e-10,-0.72395,0,0,0.33333,-0,-0,0.66667
0.49858,0.0023419,1.4958,-0.74649,-6.727,10.04,2.9775,-0.9925,-0.019604,3.97,1.9718e-13,-0.0098018,0,0,0.33333,-0,1.0946e-16,0.66667
0.41393,0.8369,1.2418,0.50535,4.8643,12.581,-1.6734,0.55781,-1.0917,-2.2312,1.0995e-12,-0.54585,0,0,0.33333,-1.4965e-16,0,0.66667
0.61556,0.5883,1.8467,0.13245,0.91228,6.287,-0.65224,0.21741,-1.9376,-0.86965,3.3407e-12,-0.96878,0,0,0.33333,-0,-0,0.66667
0.39852,0.85424,1.1955,0.53135,5.2092,13.119,-1.694,0.56467,-0.99551,-2.2587,7.8482e-13,-0.49775,0,0,0.33333,-0,-0,0.66667
0.038918,0.58008,0.11675,0.12013,1.3711,26.685,-0.037401,0.012467,-1.9479,-0.049868,-1.4306e-07,-0.97395,0,0,0.33333,-4.6088e-17,0,0.66667
0.30197,0.0025177,0.9059,-0.74622,-8.1338,16.65,1.8027,-0.6009,-0.020568,2.4036,2.6801e-13,-0.010284,0,0,0.33333,-1.579e-15,0,0.66667
0.24628,0.56327,0.73884,0.0949,1.0153,18.519,-0.18698,0.062325,-1.9689,-0.2493,-3.6287e-11,-0.98446,0,0,0.33333,-7.8949e-16,0,0.66667
0.9723,0.88177,2.9169,0.57265,0.23608,0.5702,-4.4543,1.4848,-0.83399,-5.9391,5.8072e-08,-0.417,0,0,0.33333,-0,-0,0.66667
0.7675,0.027742,2.3025,-0.70839,-3.4487,3.2969,4.3495,-1.4498,-0.21642,5.7993,-1.277e-11,-0.10821,0,0,0.33333,7.8949e-16,0,0.66667
0.4037,0.24004,1.2111,-0.38994,-3.7507,12.873,1.2593,-0.41978,-1.4591,1.6791,5.1303e-13,-0.72955,0,0,0.33333,-0,-0,0.66667
0.73663,0.078431,2.2099,-0.63235,-3.3641,3.79,3.7265,-1.2422,-0.57779,4.9686,-2.131e-11,-0.2889,0,0,0.33333,-1.579e-15,0,0.66667
0.30266,0.2965,0.90797,-0.30525,-3.1789,16.438,0.73908,-0.24636,-1.6679,0.98544,4.1947e-11,-0.83397,0,0,0.33333,3.9475e-16,0,0.66667
0.5273,0.84864,1.5819,0.52296,4.3739,8.9779,-2.206,0.73534,-1.0278,-2.9414,-6.8723e-13,-0.51389,0,0,0.33333,1.579e-15,0,0.66667
0.20714,0.25413,0.62143,-0.36881,-4.0727,20.057,0.61117,-0.20372,-1.5167,0.81489,2.6216e-10,-0.75833,0,0,0.33333,-0,-0,0.66667
0.25426,0.56078,0.76278,0.091172,0.97094,18.216,-0.18545,0.061817,-1.9711,-0.24727,-3.6893e-11,-0.98557,0,0,0.33333,4.9343e-17,0,0.66667
0.43402,0.37209,1.3021,-0.19187,-1.7641,11.783,0.66621,-0.22207,-1.8696,0.88829,2.8716e-13,-0.93482,0,0,0.33333,1.1842e-15,0,0.66667
0.082426,0.85079,0.24728,0.52618,6.1154,24.97,-0.34697,0.11566,-1.0154,-0.46262,-3.8724e-09,-0.50772,0,0,0.33333,-1.9737e-16,0,0.66667
0.85329,0.51655,2.5599,0.024825,0.066535,1.3612,-0.16946,0.056488,-1.997,-0.22595,-5.6896e-10,-0.99852,0,0,0.33333,-0,-0,0.66667
0.91633,0.15595,2.749,-0.51608,-0.83448,0.92601,3.7832,-1.2611,-1.0539,5.0443,1.1228e-08,-0.52695,0,0,0.33333,1.9244e-15,0,0.66667
0.21311,0.096913,0.63932,-0.60463,-6.8026,19.892,1.0308,-0.3436,-0.7005,1.3744,1.3689e-10,-0.35025,0,0,0.33333,7.8949e-16,0,0.66667
0.47372,0.06042,1.4212,-0.65937,-6.0494,10.733,2.4989,-0.83295,-0.45472,3.3318,-1.5965e-13,-0.22736,0,0,0.33333,-8.8818e-16,0,0.66667
0.84146,0.25392,2.5244,-0.36912,-1.13,1.6837,2.4848,-0.82827,-1.5161,3.3131,-2.946e-10,-0.75803,0,0,0.33333,-0,-0,0.66667
0.28828,0.099731,0.86484,-0.6004,-6.4803,17.073,1.3847,-0.46156,-0.71812,1.8462,1.4727e-11,-0.35906,0,0,0.33333,7.8949e-16,0,0.66667
0.61071,0.38536,1.8321,-0.17196,-1.1988,6.4263,0.84013,-0.28004,-1.8947,1.1202,-3.4279e-12,-0.94737,0,0,0.33333,-0,-0,0.66667
0.44205,0.65647,1.3261,0.2347,2.1426,11.527,-0.83,0.27667,-1.8051,-1.1067,3.1475e-14,-0.90256,0,0,0.33333,-0,-0,0.66667
0.39749,0.19711,1.1925,-0.45433,-4.4228,13.114,1.4448,-0.48158,-1.2655,1.9263,5.5955e-14,-0.63276,0,0,0.33333,-0,-0,0.66667
0.78937,0.74594,2.3681,0.36891,1.5053,2.5233,-2.3297,0.77656,-1.5162,-3.1062,2.4976e-10,-0.75811,0,0,0.33333,7.8949e-16,0,0.66667
0.46451,0.95143,1.3935,0.67715,6.2995,11.04,-2.5164,0.83879,-0.36901,-3.3552,2.327e-13,-0.18451,0,0,0.33333,-0,-0,0.66667
0.4648,0.77752,1.3944,0.41628,3.7481,10.854,-1.5479,0.51597,-1.3842,-2.0639,8.6597e-13,-0.69211,0,0,0.33333,-1.1842e-15,0,0.66667
0.99203,0.85349,2.9761,0.53023,-0.053674,0.40804,-4.2081,1.4027,-0.99979,-5.6107,2.2262e-08,-0.49989,0,0,0.33333,-0,-0,0.66667
0.96223,0.57661,2.8867,0.11491,0.03674,0.22818,-0.88459,0.29486,-1.9523,-1.1795,2.2517e-07,-0.97614,0,0,0.33333,1.579e-15,0,0.66667
0.23508,0.043853,0.70524,-0.68422,-7.69,19.091,1.2868,-0.42893,-0.33529,1.7157,1.9161e-11,-0.16765,0,0,0.33333,3.9475e-16,0,0.66667
0.22695,0.52679,0.68086,0.040185,0.43402,19.256,-0.072962,0.024321,-1.9943,-0.097283,-1.3832e-11,-0.99716,0,0,0.33333,-0,-0,0.66667
0.66274,0.60061,1.9882,0.15091,0.93108,5.088,-0.80014,0.26671,-1.9188,-1.0668,1.3518e-11,-0.95938,0,0,0.33333,-0,-0,0.66667
0.41195,0.8053,1.2358,0.45795,4.3953,12.623,-1.5092,0.50307,-1.2541,-2.0123,7.5728e-13,-0.62703,0,0,0.33333,-0,-0,0.66667
0.71875,0.53795,2.1563,0.056932,0.29722,3.779,-0.32736,0.10912,-1.989,-0.43648,1.6423e-11,-0.99448,0,0,0.33333,-0,-0,0.66667
0.73345,0.72526,2.2004,0.33788,1.7163,3.5749,-1.9826,0.66086,-1.5944,-2.6434,9.0091e-11,-0.79721,0,0,0.33333,-1.579e-15,0,0.66667
0.78329,0.81524,2.3499,0.47286,2.0267,2.723,-2.9631,0.98771,-1.2057,-3.9508,2.8539e-10,-0.60286,0,0,0.33333,3.158e-15,0,0.66667
0.26331,0.57555,0.78994,0.11333,1.201,17.875,-0.23872,0.079574,-1.9539,-0.3183,-4.0754e-11,-0.97697,0,0,0.33333,-3.9475e-16,0,0.66667
0.99836,0.56466,2.9951,0.096997,-0.051819,0.019599,-0.7747,0.25823,-1.9675,-1.0329,-8.5429e-06,-0.98373,0,0,0.33333,-0,-0,0.66667
0.4937,0.89602,1.4811,0.59403,5.2618,10.055,-2.3462,0.78207,-0.74474,-3.1283,3.8858e-14,-0.37237,0,0,0.33333,-3.9475e-16,0,0.66667
0.083927,0.55091,0.25178,0.076359,0.86578,24.88,-0.051268,0.017089,-1.9786,-0.068358,-1.4378e-08,-0.98931,0,0,0.33333,-0,-0,0.66667
0.11202,0.027984,0.33605,-0.70802,-8.3447,23.833,0.63448,-0.21149,-0.21818,0.84597,7.7364e-09,-0.10909,0,0,0.33333,-0,-0,0.66667
0.5615,0.33473,1.6845,-0.2479,-1.9081,7.82,1.1136,-0.37119,-1.7815,1.4847,2.9643e-14,-0.89077,0,0,0.33333,3.9475e-16,0,0.66667
0.51011,0.7499,1.5303,0.37486,3.1637,9.4065,-1.5297,0.50991,-1.5013,-2.0397,-2.135e-13,-0.75066,0,0,0.33333,-1.542e-16,0,0.66667
0.93484,0.86543,2.8045,0.54814,0.68038,0.80101,-4.0994,1.3665,-0.93146,-5.4658,-1.3783e-08,-0.46573,0,0,0.33333,7.8949e-16,0,0.66667
0.90083,0.76864,2.7025,0.40295,0.74434,0.95889,-2.9039,0.96798,-1.422,-3.8719,5.6281e-10,-0.711,0,0,0.33333,-1.579e-15,0,0.66667
0.4654,0.73271,1.3962,0.34907,3.122,10.803,-1.2997,0.43322,-1.5662,-1.7329,4.6552e-13,-0.7831,0,0,0.33333,7.8949e-16,0,0.66667
0.20648,0.32326,0.61943,-0.26511,-2.9104,20.064,0.43792,-0.14597,-1.7497,0.58389,1.6539e-10,-0.87485,0,0,0.33333,-0,-0,0.66667
0.56442,0.76085,1.6933,0.39128,3.0334,7.8051,-1.7668,0.58892,-1.4554,-2.3557,-8.3455e-13,-0.7277,0,0,0.33333,-0,-0,0.66667
0.30873,0.30805,0.9262,-0.28792,-2.9825,16.211,0.71113,-0.23704,-1.7055,0.94817,3.6583e-11,-0.85275,0,0,0.33333,-5.9212e-16,0,0.66667
0.65059,0.52348,1.9518,0.035213,0.22321,5.3694,-0.18327,0.061091,-1.9953,-0.24436,2.6574e-12,-0.99763,0,0,0.33333,-0,-0,0.66667
0.5151,0.81459,1.5453,0.47188,3.9938,9.3101,-1.9445,0.64818,-1.2094,-2.5927,-5.0338e-13,-0.60469,0,0,0.33333,1.579e-15,-1.7632e-18,0.66667
0.84318,0.79205,2.5295,0.43807,1.3511,1.7213,-2.955,0.98499,-1.3176,-3.94,6.0595e-10,-0.65882,0,0,0.33333,-0,-0,0.66667
0.13174,0.20217,0.39522,-0.44674,-5.0997,23.01,0.47083,-0.15694,-1.2896,0.62777,3.3296e-10,-0.6448,0,0,0.33333,-0,-0,0.66667
0.25101,0.6546,0.75302,0.2319,2.4852,18.355,-0.46567,0.15522,-1.8099,-0.6209,-9.2013e-11,-0.90495,0,0,0.33333,5.4278e-16,0,0.66667
0.59753,0.81349,1.7926,0.47023,3.4616,6.9357,-2.2478,0.74927,-1.2147,-2.9971,-6.0152e-13,-0.60734,0,0,0.33333,-1.579e-15,0,0.66667
0.62521,0.40775,1.8756,-0.13838,-0.93348,6.0338,0.69213,-0.23071,-1.9332,0.92285,-4.9185e-12,-0.9666,0,0,0.33333,1.579e-15,0,0.66667
0.41259,0.43677,1.2378,-0.09485,-0.89,12.491,0.31308,-0.10436,-1.9688,0.41744,8.7441e-13,-0.98439,0,0,0.33333,1.0115e-15,0,0.66667
0.90059,0.93606,2.7018,0.65409,1.3916,1.2802,-4.7126,1.5709,-0.47946,-6.2834,-4.2511e-09,-0.23973,0,0,0.33333,7.8949e-16,0,0.66667
0.81028,0.22525,2.4308,-0.41213,-1.5308,2.2037,2.6715,-0.8905,-1.3962,3.562,-4.0342e-10,-0.69812,0,0,0.33333,-0,-0,0.66667
0.54085,0.42281,1.6225,-0.11579,-0.91707,8.389,0.50098,-0.16699,-1.9516,0.66798,3.0864e-14,-0.97578,0,0,0.33333,-7.8949e-16,0,0.66667
0.40503,0.63919,1.2151,0.20879,1.9821,12.768,-0.67653,0.22551,-1.8447,-0.90204,-1.9174e-12,-0.92236,0,0,0.33333,-0,-0,0.66667
0.39718,0.33766,1.1915,-0.24351,-2.3341,13.047,0.77374,-0.25791,-1.789,1.0317,2.7275e-12,-0.8945,0,0,0.33333,1.9737e-16,0,0.66667
0.11399,0.36409,0.34197,-0.20387,-2.3045,23.686,0.18591,-0.06197,-1.8517,0.24788,-2.2531e-09,-0.92584,0,0,0.33333,-0,-0,0.66667
0.93724,0.14245,2.8117,-0.53632,-0.62955,0.76497,4.0213,-1.3404,-0.97716,5.3618,2.0414e-08,-0.48858,0,0,0.33333,4.6906e-16,5.1245e-16,0.66667
0.23454,0.40188,0.70361,-0.14717,-1.5864,18.972,0.27614,-0.092047,-1.9238,0.36819,6.6764e-11,-0.96188,0,0,0.33333,-9.8686e-17,0,0.66667
0.15282,0.067395,0.45845,-0.64891,-7.5099,22.228,0.79331,-0.26444,-0.50305,1.0577,1.9578e-09,-0.25152,0,0,0.33333,-0,-0,0.66667
0.51002,0.8732,1.53,0.55979,4.8256,9.5269,-2.284,0.76134,-0.88638,-3.0454,-2.0117e-13,-0.44319,0,0,0.33333,1.0856e-15,0,0.66667
0.45504,0.037538,1.3651,-0.69369,-6.5422,11.357,2.5253,-0.84176,-0.28924,3.3671,-5.6177e-14,-0.14462,0,0,0.33333,-0,-0,0.66667
0.074027,0.29194,0.22208,-0.31208,-3.574,25.285,0.18482,-0.061607,-1.6532,0.24643,-5.9691e-10,-0.82661,0,0,0.33333,-0,-0,0.66667
0.57557,0.92189,1.7267,0.63284,4.9719,7.6787,-2.914,0.97132,-0.57557,-3.8853,-7.2475e-13,-0.28779,0,0,0.33333,-0,-0,0.66667
0.69854,0.76841,2.0956,0.40261,2.3067,4.3751,-2.2499,0.74998,-1.423,-2.9999,3.9566e-11,-0.71151,0,0,0.33333,-0,-0,0.66667
0.49055,0.93834,1.4716,0.65751,5.9027,10.205,-2.5803,0.8601,-0.46363,-3.4404,9.4147e-14,-0.23181,0,0,0.33333,1.579e-15,0,0.66667
0.072894,0.054061,0.21868,-0.66891,-7.9044,25.364,0.39007,-0.13002,-0.40873,0.5201,-4.6492e-08,-0.20437,0,0,0.33333,4.9343e-17,0,0.66667
0.17966,0.54278,0.53899,0.064163,0.70794,21.089,-0.092222,0.030741,-1.9847,-0.12296,-1.7151e-10,-0.99233,0,0,0.33333,3.9475e-16,0,0.66667
0.11594,0.24126,0.34781,-0.38811,-4.429,23.626,0.35997,-0.11999,-1.464,0.47996,-7.0462e-10,-0.73198,0,0,0.33333,-0,-0,0.66667
0.58346,0.72576,1.7504,0.33864,2.523,7.2384,-1.5807,0.52688,-1.592,-2.1075,1.6642e-13,-0.79602,0,0,0.33333,-0,-0,0.66667
0.085088,0.97073,0.25526,0.70609,8.3649,24.889,-0.48064,0.16021,-0.22784,-0.64085,4.1285e-08,-0.11392,0,0,0.33333,1.9737e-16,0,0.66667
0.38405,0.75733,1.1522,0.386,3.7833,13.548,-1.186,0.39532,-1.4699,-1.5813,-2.7052e-12,-0.73496,0,0,0.33333,-0,-0,0.66667
0.14716,0.11936,0.44147,-0.57095,-6.563,22.429,0.67216,-0.22405,-0.84084,0.89621,1.9798e-09,-0.42042,0,0,0.33333,2.9606e-16,0,0.66667
0.41149,0.61001,1.2345,0.16502,1.5533,12.539,-0.54322,0.18107,-1.9024,-0.7243,-1.3281e-12,-0.95122,0,0,0.33333,-0,-0,0.66667
0.62527,0.24428,1.8758,-0.38358,-2.6381,6.1389,1.9187,-0.63958,-1.4774,2.5583,-4.2483e-12,-0.73871,0,0,0.33333,-3.9475e-16,0,0.66667
0.35954,0.71342,1.0786,0.32013,3.1923,14.385,-0.9208,0.30693,-1.6362,-1.2277,-9.5028e-12,-0.81812,0,0,0.33333,-5.9212e-16,0,0.66667
0.89598,0.84621,2.688,0.51932,1.0713,1.1402,-3.7224,1.2408,-1.0416,-4.9632,1.1203e-08,-0.52078,0,0,0.33333,-0,-0,0.66667
0.41748,0.10465,1.2524,-0.59303,-5.7464,12.515,1.9806,-0.66021,-0.74906,2.6408,-9.3936e-13,-0.37453,0,0,0.33333,-0,-0,0.66667
0.93366,0.26282,2.801,-0.35578,-0.38687,0.59449,2.6574,-0.88579,-1.5494,3.5432,4.7085e-09,-0.77469,0,0,0.33333,1.579e-15,0,0.66667
0.82046,0.32313,2.4614,-0.2653,-0.90518,1.9311,1.7414,-0.58045,-1.7491,2.3218,-1.5076e-10,-0.87455,0,0,0.33333,1.579e-15,0,0.66667
0.11664,0.87196,0.34993,0.55794,6.4588,23.623,-0.52063,0.17354,-0.89347,-0.69418,-8.8749e-09,-0.44674,0,0,0.33333,4.9343e-17,0,0.66667
0.10397,0.85778,0.3119,0.53667,6.2176,24.119,-0.44636,0.14879,-0.97524,-0.59514,-8.3914e-10,-0.48762,0,0,0.33333,-0,-0,0.66667
0.13281,0.066259,0.39843,-0.65061,-7.5757,23.007,0.69126,-0.23042,-0.49512,0.92168,-1.2057e-09,-0.24756,0,0,0.33333,-3.9475e-16,0,0.66667
0.63847,0.46753,1.9154,-0.048698,-0.31787,5.6769,0.24874,-0.082913,-1.9926,0.33165,-2.861e-12,-0.9963,0,0,0.33333,1.1842e-15,0,0.66667
0.68459,0.35949,2.0538,-0.21077,-1.2306,4.5859,1.1543,-0.38478,-1.8415,1.5391,-2.7482e-11,-0.92076,0,0,0.33333,-2.3897e-15,0,0.66667
0.79001,0.30871,2.37,-0.28694,-1.1514,2.4555,1.8135,-0.60449,-1.7074,2.418,-1.597e-10,-0.85372,0,0,0.33333,-0,-0,0.66667
0.54233,0.58307,1.627,0.1246,0.98478,8.3467,-0.5406,0.1802,-1.9443,-0.7208,-1.1069e-13,-0.97214,0,0,0.33333,7.8949e-16,0,0.66667
0.67536,0.50057,2.0261,0.00085322,0.0050701,4.7633,-0.0046098,0.0015366,-2.001,-0.0061464,2.947e-13,-1.0005,0,0,0.33333,-3.158e-15,0,0.66667
0.68675,0.048312,2.0603,-0.67753,-4.2232,4.9153,3.7224,-1.2408,-0.36763,4.9632,-9.055e-13,-0.18381,0,0,0.33333,-0,-3.9141e-16,0.66667
0.33823,0.9943,1.0147,0.74145,7.8697,15.348,-2.0062,0.66875,-0.04528,-2.675,1.8296e-13,-0.02264,0,0,0.33333,-5.9212e-16,0,0.66667
0.65052,0.79776,1.9515,0.44664,2.9235,5.5431,-2.3244,0.7748,-1.2899,-3.0992,7.6941e-12,-0.64497,0,0,0.33333,-0,-0,0.66667
0.4041,0.4784,1.2123,-0.032399,-0.30644,12.778,0.10474,-0.034913,-1.9961,0.13965,4.8539e-13,-0.99804,0,0,0.33333,-0,-0,0.66667
0.64016,0.85952,1.9205,0.53929,3.6674,5.8798,-2.7619,0.92062,-0.96578,-3.6825,1.4191e-12,-0.48289,0,0,0.33333,7.8949e-16,-4.9153e-16,0.66667
0.93462,0.99731,2.8039,0.74597,1.1276,1.1218,-5.5776,1.8592,-0.022077,-7.4368,1.87e-07,-0.011039,0,0,0.33333,-1.9737e-15,-1.2404e-16,0.66667
0.42997,0.85972,1.2899,0.53958,5.1261,12.064,-1.856,0.61868,-0.96399,-2.4747,1.0409e-12,-0.482,0,0,0.33333,7.8949e-16,0,0.66667
0.50617,0.36276,1.5185,-0.20586,-1.7264,9.4616,0.83361,-0.27787,-1.8486,1.1115,7.3275e-14,-0.92431,0,0,0.33333,-0,-0,0.66667
0.33206,0.37787,0.99619,-0.18319,-1.8554,15.339,0.48665,-0.16222,-1.8812,0.64886,1.755e-11,-0.94059,0,0,0.33333,7.8949e-16,0,0.66667
0.57872,0.95167,1.7362,0.67751,5.3345,7.6366,-3.1367,1.0456,-0.36776,-4.1823,-3.2352e-13,-0.18388,0,0,0.33333,-7.8949e-16,0,0.66667
0.86342,0.55627,2.5903,0.084402,0.20916,1.2296,-0.58299,0.19433,-1.9746,-0.77733,3.1913e-09,-0.98732,0,0,0.33333,7.8949e-16,0,0.66667
0.28365,0.12436,0.85095,-0.56347,-6.0744,17.227,1.2786,-0.42621,-0.87224,1.7048,2.6821e-11,-0.43612,0,0,0.33333,5.181e-16,0,0.66667
0.83439,0.1727,2.5032,-0.49095,-1.6261,1.9048,3.2771,-1.0924,-1.1422,4.3695,-9.4688e-10,-0.57112,0,0,0.33333,-0,-0,0.66667
0.51948,0.46244,1.5584,-0.056345,-0.46099,9.0254,0.23416,-0.078053,-1.9887,0.31221,4.8128e-14,-0.99435,0,0,0.33333,-0,-0,0.66667
0.22608,0.7184,0.67823,0.3276,3.5756,19.321,-0.5925,0.1975,-1.6192,-0.79,-1.7037e-10,-0.80962,0,0,0.33333,4.4409e-16,0,0.66667
0.41945,0.52088,1.2583,0.031315,0.29144,12.253,-0.10508,0.035027,-1.9962,-0.14011,-2.6941e-13,-0.99812,0,0,0.33333,-0,-0,0.66667
0.16699,0.77954,0.50098,0.4193,4.7232,21.623,-0.56017,0.18672,-1.3755,-0.7469,-7.001e-10,-0.68776,0,0,0.33333,-2.4672e-17,0,0.66667
0.91239,0.74393,2.7372,0.3659,0.57298,0.80341,-2.6707,0.89025,-1.5238,-3.561,-4.8616e-10,-0.76192,0,0,0.33333,-7.8949e-16,0,0.66667
0.057947,0.30546,0.17384,-0.29181,-3.3455,25.927,0.13528,-0.045092,-1.6971,0.18037,-1.6953e-08,-0.84853,0,0,0.33333,-9.8686e-17,0,0.66667
0.604,0.14348,1.812,-0.53478,-3.9229,6.8134,2.5841,-0.86136,-0.98245,3.4455,8.3444e-13,-0.49122,0,0,0.33333,-7.8949e-16,0,0.66667
0.10395,0.11858,0.31186,-0.57213,-6.6518,24.125,0.47579,-0.1586,-0.83601,0.63438,-3.4715e-09,-0.41801,0,0,0.33333,-0,-0,0.66667
0.31348,0.43915,0.94043,-0.09127,-0.93516,16.006,0.22889,-0.076296,-1.9715,0.30519,1.4573e-11,-0.98575,0,0,0.33333,-0,-0,0.66667
0.14294,0.17127,0.42882,-0.49309,-5.6329,22.578,0.56387,-0.18796,-1.1351,0.75182,1.1704e-09,-0.56753,0,0,0.33333,1.9737e-16,0,0.66667
0.49951,0.23049,1.4985,-0.40427,-3.4735,9.7491,1.6155,-0.5385,-1.4188,2.154,2.9865e-14,-0.70942,0,0,0.33333,-7.8949e-16,0,0.66667
0.6361,0.97022,1.9083,0.70532,4.9917,6.1575,-3.5892,1.1964,-0.2319,-4.7856,-2.7822e-13,-0.11595,0,0,0.33333,-0,-4.2917e-16,0.66667
0.82926,0.41907,2.4878,-0.1214,-0.38604,1.7318,0.80535,-0.26845,-1.9474,1.0738,1.9516e-11,-0.97369,0,0,0.33333,-0,-0,0.66667
0.45001,0.058475,1.35,-0.66229,-6.2529,11.494,2.3843,-0.79477,-0.44084,3.1791,-3.4439e-13,-0.22042,0,0,0.33333,-9.8686e-16,-1.7718e-16,0.66667
0.76945,0.51411,2.3083,0.021163,0.091265,2.7468,-0.13027,0.043424,-1.9978,-0.17369,2.4465e-11,-0.9989,0,0,0.33333,-0,-0,0.66667
0.59534,0.24004,1.786,-0.38995,-2.8549,6.9404,1.8572,-0.61907,-1.4592,2.4763,-3.4805e-13,-0.72961,0,0,0.33333,-7.8949e-16,0,0.66667
0.97226,0.218,2.9168,-0.42299,-0.1094,0.37726,3.2901,-1.0967,-1.3648,4.3868,5.0139e-09,-0.68239,0,0,0.33333,4.9343e-16,0,0.66667
0.11972,0.99152,0.35915,0.73728,8.7061,23.539,-0.70612,0.23537,-0.066869,-0.94149,-1.8416e-08,-0.033435,0,0,0.33333,4.3783e-16,0,0.66667
0.81632,0.66953,2.449,0.25429,0.88677,1.9913,-1.6607,0.55356,-1.7695,-2.2142,1.8602e-10,-0.88475,0,0,0.33333,-0,-0,0.66667
0.83516,0.099316,2.5055,-0.60103,-2.0564,2.0273,4.0156,-1.3385,-0.71552,5.3541,-1.2095e-09,-0.35776,0,0,0.33333,-0,-0,0.66667
0.79157,0.72079,2.3747,0.33118,1.3285,2.4568,-2.0972,0.69907,-1.6106,-2.7963,2.1811e-10,-0.80529,0,0,0.33333,3.158e-15,0,0.66667
0.45482,0.51049,1.3645,0.015738,0.14061,11.072,-0.057265,0.019088,-1.9989,-0.076354,7.2782e-14,-0.99947,0,0,0.33333,-0,-0,0.66667
0.52721,0.28593,1.5816,-0.3211,-2.6293,8.8608,1.3543,-0.45143,-1.6336,1.8057,5.0548e-13,-0.8168,0,0,0.33333,-0,-0,0.66667
0.98538,0.67792,2.9562,0.26688,-0.043034,0.16334,-2.1038,0.70127,-1.7468,-2.8051,2.9176e-08,-0.87338,0,0,0.33333,7.8949e-16,0,0.66667
0.94464,0.25478,2.8339,-0.36782,-0.31226,0.51401,2.7797,-0.92656,-1.519,3.7062,-2.1155e-10,-0.75948,0,0,0.33333,-3.158e-15,0,0.66667
0.763,0.89419,2.289,0.59128,2.8341,3.2252,-3.6092,1.2031,-0.75653,-4.8122,8.7018e-11,-0.37827,0,0,0.33333,7.8949e-16,1.4881e-16,0.66667
0.46026,0.91705,1.3808,0.62558,5.8056,11.135,-2.3034,0.76781,-0.60789,-3.0713,3.4772e-13,-0.30395,0,0,0.33333,-0,-0,0.66667
0.54024,0.41633,1.6207,-0.12551,-0.99539,8.4089,0.54244,-0.18081,-1.9434,0.72325,9.6589e-14,-0.9717,0,0,0.33333,-1.579e-15,0,0.66667
0.80456,0.51223,2.4137,0.018348,0.066953,2.1165,-0.1181,0.039366,-1.9981,-0.15746,1.054e-10,-0.99904,0,0,0.33333,-0,-0,0.66667
0.27687,0.64853,0.83061,0.22279,2.3501,17.379,-0.49348,0.16449,-1.8233,-0.65797,-5.9433e-11,-0.91164,0,0,0.33333,1.9737e-16,0,0.66667
0.25653,0.92592,0.7696,0.63888,7.0598,18.267,-1.3112,0.43705,-0.54805,-1.7482,-2.3573e-11,-0.27402,0,0,0.33333,-0,-0,0.66667
0.21386,0.90675,0.64158,0.61013,6.8664,19.866,-1.0439,0.34796,-0.67729,-1.3918,-1.1885e-10,-0.33865,0,0,0.33333,-0,-0,0.66667
0.55121,0.32995,1.6536,-0.25507,-1.9993,8.1214,1.1248,-0.37492,-1.768,1.4997,2.9343e-13,-0.88402,0,0,0.33333,-0,-0,0.66667
0.9514,0.80414,2.8542,0.45621,0.35159,0.55425,-3.4723,1.1574,-1.26,-4.6297,-1.8529e-09,-0.63,0,0,0.33333,7.8949e-16,0,0.66667
0.23774,0.12669,0.71321,-0.55996,-6.1952,18.942,1.065,-0.35499,-0.88592,1.42,1.1132e-10,-0.44296,0,0,0.33333,7.8949e-16,0,0.66667
0.8016,0.91246,2.4048,0.61869,2.5384,2.5757,-3.9675,1.3225,-0.63895,-5.29,2.7694e-10,-0.31947,0,0,0.33333,1.579e-15,0,0.66667
0.03041,0.58781,0.09123,0.13171,1.5046,27.027,-0.032043,0.010681,-1.9387,-0.042724,-4.1158e-07,-0.96937,0,0,0.33333,-2.4672e-17,0,0.66667
0.50622,0.39804,1.5187,-0.15295,-1.2795,9.4471,0.61939,-0.20646,-1.9164,0.82586,2.9032e-14,-0.95821,0,0,0.33333,7.8949e-16,0,0.66667
0.28403,0.33822,0.85208,-0.24266,-2.5503,17.115,0.55138,-0.18379,-1.7908,0.73517,5.548e-11,-0.89542,0,0,0.33333,5.9212e-16,0,0.66667
0.28272,0.82166,0.84817,0.48249,5.1622,17.229,-1.0913,0.36376,-1.1722,-1.4551,-4.9643e-11,-0.58611,0,0,0.33333,-0,-0,0.66667
0.39197,0.10458,1.1759,-0.59314,-5.8945,13.38,1.8599,-0.61998,-0.74897,2.4799,-8.4543e-13,-0.37449,0,0,0.33333,-0,-0,0.66667
0.53546,0.88598,1.6064,0.57897,4.8192,8.7794,-2.4801,0.8267,-0.80765,-3.3068,-6.4304e-13,-0.40382,0,0,0.33333,-0,-0,0.66667
0.77289,0.018424,2.3187,-0.72236,-3.4598,3.2193,4.4664,-1.4888,-0.14392,5.9552,1.0214e-14,-0.071962,0,0,0.33333,-0,-0,0.66667
0.96166,0.024513,2.885,-0.71323,-0.60393,0.86746,5.4871,-1.829,-0.19104,7.3161,-3.5763e-07,-0.095522,0,0,0.33333,-1.579e-15,0,0.66667
0.15039,0.88174,0.45116,0.57261,6.5766,22.304,-0.6889,0.22963,-0.83398,-0.91853,-2.133e-09,-0.41699,0,0,0.33333,-0,-0,0.66667
0.39479,0.2005,1.1844,-0.44925,-4.3827,13.204,1.4189,-0.47296,-1.2818,1.8918,2.4403e-13,-0.6409,0,0,0.33333,-0,-0,0.66667
0.16274,0.45097,0.48822,-0.073544,-0.81667,21.753,0.095748,-0.031916,-1.98,0.12766,3.7944e-11,-0.99,0,0,0.33333,-0,-0,0.66667
0.83664,0.37561,2.5099,-0.18659,-0.56969,1.6415,1.2489,-0.41629,-1.877,1.6652,-4.251e-10,-0.93849,0,0,0.33333,3.158e-15,0,0.66667
0.084802,0.22377,0.25441,-0.41435,-4.7685,24.863,0.2811,-0.0937,-1.3896,0.3748,-5.3733e-09,-0.69478,0,0,0.33333,1.9737e-16,0,0.66667
0.85629,0.9379,2.5689,0.65685,2.0135,1.8113,-4.4996,1.4999,-0.467,-5.9995,3.6324e-10,-0.2335,0,0,0.33333,3.158e-15,2.0107e-17,0.66667
0.74085,0.74376,2.2225,0.36563,1.8169,3.4424,-2.167,0.72234,-1.5245,-2.8894,1.059e-10,-0.76224,0,0,0.33333,1.6229e-15,0,0.66667
0.85834,0.24122,2.575,-0.38816,-1.0605,1.4629,2.6654,-0.88847,-1.4643,3.5539,-2.0363e-10,-0.73217,0,0,0.33333,-0,-0,0.66667
0.88992,0.0033146,2.6698,-0.74503,-1.8542,1.5467,5.3041,-1.768,-0.027282,7.0722,2.4361e-08,-0.013641,0,0,0.33333,-0,-0,0.66667
0.15078,0.44213,0.45233,-0.086804,-0.96801,22.224,0.1047,-0.034901,-1.9733,0.1396,-1.1523e-09,-0.98665,0,0,0.33333,-3.9475e-16,0,0.66667
0.55669,0.51067,1.6701,0.016011,0.12325,7.9138,-0.071304,0.023768,-1.9985,-0.095073,2.6826e-14,-0.99925,0,0,0.33333,-0,-0,0.66667
0.30252,0.76637,0.90755,0.39955,4.1889,16.47,-0.96696,0.32232,-1.4316,-1.2893,-3.8924e-11,-0.71582,0,0,0.33333,-3.9475e-16,0,0.66667
0.27122,0.35213,0.81367,-0.22181,-2.3478,17.59,0.48128,-0.16043,-1.8247,0.6417,6.4575e-11,-0.91234,0,0,0.33333,-0,-0,0.66667
0.016434,0.18353,0.049303,-0.47471,-5.529,27.594,0.062412,-0.020804,-1.1995,0.083216,1.0572e-08,-0.59975,0,0,0.33333,-0,-0,0.66667
0.51518,0.65322,1.5455,0.22982,1.9044,9.1911,-0.94721,0.31574,-1.8131,-1.2629,-1.838e-13,-0.90657,0,0,0.33333,9.8686e-16,0,0.66667
0.019049,0.48891,0.057148,-0.016638,-0.18988,27.483,0.0025315,-0.00084237,-1.9986,0.0033761,2.1868e-06,-0.99929,0,0,0.33333,-2.4672e-17,0,0.66667
0.89823,0.79698,2.6947,0.44547,0.86452,1.0304,-3.2011,1.067,-1.2936,-4.2681,-2.2677e-09,-0.64681,0,0,0.33333,1.579e-15,0,0.66667
0.26698,0.79501,0.80095,0.44252,4.7635,17.802,-0.94516,0.31505,-1.3034,-1.2602,-8.5102e-11,-0.65172,0,0,0.33333,-0,-0,0.66667
0.49337,0.90514,1.4801,0.60771,5.3957,10.076,-2.3986,0.79954,-0.68756,-3.1982,1.7231e-13,-0.34378,0,0,0.33333,-1.0856e-15,0,0.66667
0.63642,0.033281,1.9093,-0.70008,-4.9458,6.1433,3.5643,-1.1881,-0.25802,4.7525,3.173e-13,-0.12901,0,0,0.33333,-0,-0,0.66667
0.0014998,0.75922,0.0044993,0.38883,4.5001,28.19,-0.0046652,0.0015551,-1.4624,-0.0062203,-1.7242e-08,-0.73119,0,0,0.33333,-0,6.5691e-16,0.66667
0.11324,0.90119,0.33972,0.60179,7.0038,23.764,-0.54517,0.18172,-0.71252,-0.72689,-4.2692e-09,-0.35626,0,0,0.33333,1.9737e-16,0,0.66667
0.46654,0.28062,1.3996,-0.32907,-2.9343,10.758,1.2282,-0.4094,-1.6161,1.6376,-4.21e-13,-0.80806,0,0,0.33333,-1.1596e-15,0,0.66667
0.62328,0.50271,1.8698,0.0040617,0.027433,6.0686,-0.020252,0.0067508,-2.0007,-0.027003,1.2566e-13,-1.0004,0,0,0.33333,-0,-0,0.66667
0.81967,0.030365,2.459,-0.70445,-2.7255,2.409,4.6194,-1.5398,-0.23625,6.1591,9.9122e-11,-0.11813,0,0,0.33333,5.1608e-16,0,0.66667
0.41481,0.35281,1.2444,-0.22079,-2.076,12.438,0.73267,-0.24422,-1.8262,0.9769,1.2306e-12,-0.91309,0,0,0.33333,-0,-0,0.66667
0.92685,0.49431,2.7806,-0.0085361,-0.0094533,0.49887,0.063294,-0.021098,-1.9997,0.084392,-4.2571e-07,-0.99986,0,0,0.33333,2.3685e-15,0,0.66667
0.59738,0.84056,1.7921,0.51085,3.7828,6.9714,-2.4414,0.81379,-1.0726,-3.2552,-9.0261e-13,-0.53631,0,0,0.33333,-0,-0,0.66667
0.0018308,0.99116,0.0054924,0.73673,8.8257,28.178,-0.010794,0.0035426,-0.07006,-0.01442,-8.3195e-05,-0.03503,0,0,0.33333,4.6259e-18,1.2817e-15,0.66667
0.68004,0.8623,2.0401,0.54345,3.355,4.9201,-2.9565,0.98551,-0.94916,-3.942,9.7609e-12,-0.47458,0,0,0.33333,7.8949e-16,0,0.66667
0.21277,0.50727,0.63832,0.010899,0.1185,19.801,-0.018552,0.0061839,-1.9993,-0.024736,5.7752e-11,-0.99965,0,0,0.33333,-7.8949e-16,0,0.66667
0.015256,0.051402,0.045767,-0.6729,-7.9963,27.645,0.082121,-0.027374,-0.39008,0.10949,-6.8965e-07,-0.19504,0,0,0.33333,2.4672e-17,0,0.66667
0.73575,0.59022,2.2072,0.13533,0.66852,3.4334,-0.79658,0.26553,-1.9356,-1.0621,4.5572e-11,-0.96779,0,0,0.33333,-3.9475e-16,0,0.66667
0.55191,0.4465,1.6557,-0.080252,-0.62341,8.0577,0.35433,-0.11811,-1.9767,0.47245,-3.8192e-14,-0.98834,0,0,0.33333,-0,-0,0.66667
0.78362,0.30711,2.3509,-0.28934,-1.1963,2.571,1.8138,-0.60462,-1.7026,2.4185,-1.5365e-10,-0.85131,0,0,0.33333,1.1842e-15,0,0.66667
0.088169,0.094568,0.26451,-0.60815,-7.1195,24.753,0.42896,-0.14299,-0.68578,0.57195,-4.9944e-08,-0.34289,0,0,0.33333,-3.9475e-16,0,0.66667
0.3557,0.075972,1.0671,-0.63604,-6.5626,14.665,1.8099,-0.60331,-0.56103,2.4132,-3.6371e-13,-0.28051,0,0,0.33333,-0,1.2775e-16,0.66667
0.2997,0.58124,0.8991,0.12186,1.2618,16.516,-0.29217,0.097391,-1.9468,-0.38957,-2.4384e-11,-0.97338,0,0,0.33333,3.9475e-16,0,0.66667
0.569,0.62994,1.707,0.19491,1.4756,7.5871,-0.88723,0.29574,-1.8649,-1.183,3.5683e-13,-0.93247,0,0,0.33333,-0,-0,0.66667
0.51015,0.34994,1.5305,-0.22509,-1.8786,9.344,0.91863,-0.30621,-1.8197,1.2248,1.2479e-13,-0.90987,0,0,0.33333,-0,-0,0.66667
0.78213,0.84185,2.3464,0.51278,2.2299,2.7849,-3.2085,1.0695,-1.0662,-4.278,2.3335e-10,-0.53309,0,0,0.33333,1.9737e-16,0,0.66667
0.18706,0.10068,0.56117,-0.59898,-6.8097,20.889,0.89635,-0.29878,-0.72471,1.1951,3.2811e-10,-0.36236,0,0,0.33333,-0,-0,0.66667
0.5765,0.95686,1.7295,0.68529,5.4244,7.7062,-3.1605,1.0535,-0.32997,-4.2141,-2.3004e-13,-0.16498,0,0,0.33333,-6.8271e-16,0,0.66667
0.64438,0.26259,1.9331,-0.35611,-2.338,5.6335,1.8357,-0.61192,-1.5486,2.4477,-9.7573e-12,-0.77428,0,0,0.33333,-0,-0,0.66667
0.45987,0.40907,1.3796,-0.13639,-1.2137,10.919,0.50178,-0.16726,-1.9342,0.66904,-1.3767e-13,-0.9671,0,0,0.33333,1.579e-15,0,0.66667
0.55798,0.56017,1.6739,0.09025,0.69394,7.8821,-0.40286,0.13429,-1.9716,-0.53715,1.1127e-13,-0.9858,0,0,0.33333,7.8949e-16,0,0.66667
0.97433,0.008785,2.923,-0.73682,-0.43322,0.83793,5.7432,-1.9144,-0.069234,7.6577,-5.8291e-06,-0.034617,0,0,0.33333,-0,-0,0.66667
0.75167,0.15333,2.255,-0.52,-2.5568,3.3626,3.1269,-1.0423,-1.0394,4.1693,-1.0333e-10,-0.51968,0,0,0.33333,-0,-0,0.66667
0.38099,0.49936,1.143,-0.00095643,-0.0092523,13.579,0.0029151,-0.0009717,-2.0008,0.0038868,-3.845e-14,-1.0004,0,0,0.33333,2.4918e-15,0,0.66667
0.43402,0.37278,1.302,-0.19082,-1.7544,11.783,0.66256,-0.22085,-1.8712,0.88342,3.6188e-13,-0.9356,0,0,0.33333,-1.9737e-16,0,0.66667
0.71283,0.58404,2.1385,0.12605,0.67258,3.9202,-0.71885,0.23962,-1.943,-0.95846,3.0996e-11,-0.97149,0,0,0.33333,-0,-0,0.66667
0.093712,0.91135,0.28114,0.61703,7.223,24.536,-0.46258,0.15419,-0.64701,-0.61678,2.2186e-08,-0.32351,0,0,0.33333,1.9737e-16,2.1566e-16,0.66667
0.63781,0.83104,1.9134,0.49657,3.3721,5.9014,-2.5337,0.84457,-1.1228,-3.3783,2.6883e-12,-0.56141,0,0,0.33333,-1.5448e-15,0,0.66667
0.11436,0.68526,0.34308,0.27789,3.1512,23.677,-0.25423,0.084745,-1.726,-0.33898,1.0433e-09,-0.86298,0,0,0.33333,-2.1286e-16,0,0.66667
0.10185,0.1612,0.30554,-0.5082,-5.8748,24.198,0.41408,-0.13803,-1.0817,0.5521,9.5695e-09,-0.54084,0,0,0.33333,-3.9475e-16,0,0.66667
0.66667,0.38966,2,-0.16551,-1.0116,4.9965,0.88274,-0.29425,-1.9019,1.177,-1.5865e-11,-0.95094,0,0,0.33333,-0,-0,0.66667
0.1671,0.48798,0.5013,-0.018033,-0.19984,21.58,0.024107,-0.0080356,-1.9982,0.032143,7.3321e-10,-0.99912,0,0,0.33333,-5.1302e-19,0,0.66667
0.76472,0.57545,2.2942,0.11317,0.49935,2.8496,-0.69234,0.23078,-1.9543,-0.92312,5.6621e-11,-0.97714,0,0,0.33333,-1.579e-15,0,0.66667
0.75059,0.76309,2.2518,0.39463,1.9012,3.2691,-2.3697,0.78989,-1.4461,-3.1596,1.3112e-10,-0.72306,0,0,0.33333,-0,-0,0.66667
0.31202,0.34367,0.93606,-0.2345,-2.4166,16.079,0.58535,-0.19512,-1.806,0.78047,3.1896e-11,-0.903,0,0,0.33333,9.2519e-17,0,0.66667
0.57086,0.56405,1.7126,0.096081,0.72211,7.5122,-0.4388,0.14627,-1.9678,-0.58506,5.5037e-13,-0.98388,0,0,0.33333,-1.579e-15,0,0.66667
0.64514,0.68013,1.9354,0.2702,1.7557,5.568,-1.3945,0.46485,-1.7402,-1.8594,1.1392e-11,-0.8701,0,0,0.33333,-0,-0,0.66667
0.81146,0.63461,2.4344,0.20191,0.71825,2.0446,-1.3108,0.43692,-1.855,-1.7477,9.4751e-11,-0.92752,0,0,0.33333,-0,-0,0.66667
0.20147,0.54579,0.6044,0.068685,0.75103,20.24,-0.1107,0.0369,-1.9829,-0.1476,-3.9975e-11,-0.99144,0,0,0.33333,3.9475e-16,0,0.66667
0.67624,0.97175,2.0287,0.70763,4.563,5.1937,-3.8282,1.2761,-0.22002,-5.1043,-4.3299e-14,-0.11001,0,0,0.33333,-0,-0,0.66667
0.82289,0.74368,2.4687,0.36552,1.2535,1.9619,-2.4063,0.80209,-1.5248,-3.2083,3.5572e-10,-0.76242,0,0,0.33333,7.8949e-16,0,0.66667
0.41439,0.62937,1.2432,0.19406,1.8232,12.446,-0.64331,0.21444,-1.8662,-0.85775,-1.177e-12,-0.93309,0,0,0.33333,-0,-0,0.66667
0.4937,0.79912,1.4811,0.44868,3.9038,9.9552,-1.7721,0.5907,-1.2835,-2.3628,7.6827e-14,-0.64174,0,0,0.33333,-0,-0,0.66667
0.51425,0.092599,1.5427,-0.6111,-5.2741,9.4395,2.5141,-0.83802,-0.67334,3.3521,1.8896e-13,-0.33667,0,0,0.33333,7.6124e-17,0,0.66667
0.93933,0.20945,2.818,-0.43583,-0.44698,0.62559,3.2751,-1.0917,-1.3245,4.3668,7.7741e-09,-0.66226,0,0,0.33333,-7.8949e-16,0,0.66667
0.051651,0.18478,0.15495,-0.47283,-5.4927,26.188,0.19538,-0.065126,-1.2055,0.2605,-5.6136e-10,-0.60277,0,0,0.33333,-1.4803e-16,0,0.66667
0.57155,0.32931,1.7147,-0.25603,-1.9368,7.5355,1.1707,-0.39023,-1.7661,1.5609,-2.548e-13,-0.88307,0,0,0.33333,-7.8949e-16,0,0.66667
0.48976,0.46441,1.4693,-0.05338,-0.45592,9.9487,0.20915,-0.069715,-1.99,0.27886,-5.3388e-14,-0.99501,0,0,0.33333,2.9e-16,0,0.66667
0.34383,0.10821,1.0315,-0.58769,-6.0863,15.057,1.6165,-0.53884,-0.77189,2.1554,1.6098e-12,-0.38595,0,0,0.33333,-0,-0,0.66667
0.66992,0.35388,2.0098,-0.21918,-1.3328,4.9366,1.1746,-0.39155,-1.829,1.5662,-2.0365e-11,-0.9145,0,0,0.33333,-1.579e-15,0,0.66667
0.76944,0.22449,2.3083,-0.41327,-1.8553,2.9217,2.5439,-0.84795,-1.3928,3.3918,-1.978e-10,-0.69641,0,0,0.33333,1.579e-15,0,0.66667
0.54006,0.79796,1.6202,0.44694,3.6309,8.5466,-1.931,0.64367,-1.289,-2.5747,-9.8055e-13,-0.64448,0,0,0.33333,7.8949e-16,0,0.66667
0.041638,0.089342,0.12491,-0.61599,-7.2621,26.596,0.20519,-0.068396,-0.65102,0.27358,2.6501e-07,-0.32551,0,0,0.33333,-7.4015e-17,0,0.66667
0.23508,0.4534,0.70524,-0.069903,-0.75205,18.945,0.13146,-0.043821,-1.9824,0.17528,3.6136e-11,-0.99121,0,0,0.33333,3.9475e-16,0,0.66667
0.02044,0.65854,0.061319,0.2378,2.7277,27.429,-0.038885,0.012962,-1.7995,-0.051847,-1.1443e-07,-0.89973,0,0,0.33333,-0,-0,0.66667
0.32778,0.89207,0.98333,0.58811,6.167,15.631,-1.5422,0.51405,-0.77009,-2.0562,-3.8154e-12,-0.38504,0,0,0.33333,-0,3.9135e-16,0.66667
0.46806,0.51805,1.4042,0.02708,0.238,10.642,-0.1014,0.0338,-1.9972,-0.1352,-4.3368e-15,-0.99861,0,0,0.33333,-0,-0,0.66667
0.78457,0.58986,2.3537,0.13479,0.54575,2.4854,-0.846,0.282,-1.9358,-1.128,1.0797e-10,-0.9679,0,0,0.33333,-1.9737e-15,0,0.66667
0.53227,0.86651,1.5968,0.54976,4.5797,8.8501,-2.341,0.78033,-0.92547,-3.1213,-6.8856e-13,-0.46273,0,0,0.33333,7.8949e-16,0,0.66667
0.47743,0.57581,1.4323,0.11372,0.98877,10.348,-0.43434,0.14478,-1.9533,-0.57912,1.1288e-13,-0.97663,0,0,0.33333,-7.8949e-16,0,0.66667
0.69795,0.16356,2.0938,-0.50466,-2.9448,4.4745,2.8178,-0.93927,-1.0942,3.7571,-2.4819e-11,-0.54712,0,0,0.33333,-1.579e-15,0,0.66667
0.017417,0.65799,0.052252,0.23698,2.7185,27.55,-0.033021,0.011007,-1.8013,-0.044028,-1.038e-07,-0.90064,0,0,0.33333,-0,-0,0.66667
0.69499,0.7636,2.085,0.3954,2.2864,4.4498,-2.1984,0.73279,-1.4433,-2.9312,3.6739e-11,-0.72167,0,0,0.33333,-0,-0,0.66667
0.31196,0.66653,0.93588,0.24979,2.5762,16.084,-0.62339,0.2078,-1.7782,-0.83119,-3.2601e-11,-0.88909,0,0,0.33333,-0,-0,0.66667
0.55979,0.62212,1.6794,0.18318,1.4088,7.8485,-0.82033,0.27344,-1.8813,-1.0938,5.2791e-14,-0.94067,0,0,0.33333,9.8686e-16,0,0.66667
0.60681,0.15223,1.8204,-0.52166,-3.7978,6.7274,2.5324,-0.84413,-1.0329,3.3765,5.9774e-13,-0.51644,0,0,0.33333,1.5435e-15,0,0.66667
0.18214,0.49022,0.54643,-0.014664,-0.16157,20.991,0.021367,-0.0071224,-1.9987,0.02849,-3.3165e-10,-0.99937,0,0,0.33333,-1.9737e-16,0,0.66667
0.25027,0.47403,0.75082,-0.038954,-0.41551,18.365,0.077993,-0.025998,-1.9952,0.10399,1.9457e-11,-0.99761,0,0,0.33333,-0,-0,0.66667
0.57882,0.25958,1.7365,-0.36063,-2.716,7.38,1.6699,-0.55664,-1.5376,2.2266,1.9673e-13,-0.76881,0,0,0.33333,-0,-0,0.66667
0.26262,0.56729,0.78787,0.10093,1.0698,17.9,-0.21206,0.070685,-1.9641,-0.28274,-3.8186e-11,-0.98203,0,0,0.33333,-0,-0,0.66667
0.23942,0.14642,0.71825,-0.53036,-5.8449,18.868,1.0158,-0.33861,-0.99938,1.3544,1.2829e-10,-0.49969,0,0,0.33333,-1.9737e-16,0,0.66667
0.35903,0.53876,1.0771,0.058144,0.57407,14.356,-0.167,0.055668,-1.9883,-0.22267,-3.5547e-12,-0.99415,0,0,0.33333,-0,-0,0.66667
0.90441,0.57822,2.7132,0.11734,0.18955,0.74132,-0.84895,0.28298,-1.9507,-1.1319,6.8751e-09,-0.97533,0,0,0.33333,-0,-0,0.66667
0.86921,0.8369,2.6076,0.50535,1.3216,1.4408,-3.514,1.1713,-1.0918,-4.6854,2.8075e-09,-0.54588,0,0,0.33333,1.579e-15,0,0.66667
0.51404,0.81544,1.5421,0.47316,4.0114,9.3434,-1.9458,0.64859,-1.2048,-2.5943,-3.9146e-13,-0.60238,0,0,0.33333,-0,-0,0.66667
0.051748,0.067147,0.15524,-0.64928,-7.6756,26.198,0.26879,-0.089596,-0.50124,0.35839,1.9321e-07,-0.25062,0,0,0.33333,-0,-0,0.66667
0.80034,0.68407,2.401,0.2761,1.0518,2.2695,-1.7678,0.58927,-1.7294,-2.3571,2.0197e-10,-0.8647,0,0,0.33333,-1.9737e-15,0,0.66667
0.18119,0.35672,0.54357,-0.21492,-2.3793,21.04,0.31153,-0.10384,-1.835,0.41538,1.0608e-10,-0.91751,0,0,0.33333,-0,-0,0.66667
0.66874,0.1063,2.0062,-0.59055,-3.7864,5.233,3.1594,-1.0531,-0.75954,4.2125,-3.1206e-12,-0.37977,0,0,0.33333,-0,-1.413e-16,0.66667
0.83537,0.12587,2.5061,-0.56119,-1.8907,1.9726,3.7504,-1.2501,-0.88093,5.0006,-5.5994e-10,-0.44047,0,0,0.33333,-0,-0,0.66667
0.9648,0.024871,2.8944,-0.71269,-0.55121,0.84711,5.5008,-1.8336,-0.19398,7.3345,3.5119e-07,-0.096991,0,0,0.33333,-1.579e-15,-2.5653e-16,0.66667
0.12685,0.044622,0.38054,-0.68307,-7.997,23.248,0.69315,-0.23105,-0.3407,0.9242,1.735e-09,-0.17035,0,0,0.33333,1.9737e-16,0,0.66667
0.52331,0.95731,1.5699,0.68596,5.9118,9.2348,-2.8718,0.95725,-0.32628,-3.829,-1.1657e-13,-0.16314,0,0,0.33333,-0,-0,0.66667
0.85061,0.63851,2.5518,0.20777,0.57739,1.4473,-1.4139,0.47129,-1.8457,-1.8852,-3.969e-10,-0.92287,0,0,0.33333,-0,-0,0.66667
0.53761,0.51156,1.6128,0.017343,0.13785,8.476,-0.074592,0.024864,-1.9983,-0.099456,-5.0016e-14,-0.99913,0,0,0.33333,-0,-0,0.66667
0.73005,0.98469,2.1901,0.72704,4.049,4.0492,-4.2462,1.4154,-0.11992,-5.6616,1.0338e-12,-0.059959,0,0,0.33333,-8.6455e-16,0,0.66667
0.78546,0.66195,2.3564,0.24292,0.98978,2.5121,-1.5264,0.50881,-1.7902,-2.0353,1.5412e-10,-0.89511,0,0,0.33333,-0,-0,0.66667
0.8366,0.44765,2.5098,-0.078532,-0.23751,1.6102,0.5256,-0.1752,-1.9775,0.70079,-1.8775e-10,-0.98874,0,0,0.33333,-0,-0,0.66667
0.66653,0.9183,1.9996,0.62745,4.0745,5.3254,-3.3457,1.1152,-0.59954,-4.461,1.1724e-12,-0.29977,0,0,0.33333,-1.579e-15,0,0.66667
0.89774,0.63682,2.6932,0.20523,0.36717,0.84865,-1.4739,0.49131,-1.8495,-1.9652,6.2529e-09,-0.92477,0,0,0.33333,-0,-0,0.66667
0.64779,0.7446,1.9434,0.36689,2.3924,5.5547,-1.9014,0.63379,-1.5213,-2.5352,1.0552e-11,-0.76065,0,0,0.33333,-0,-0,0.66667
0.94464,0.42481,2.8339,-0.11278,-0.081399,0.35961,0.85228,-0.28409,-1.954,1.1364,1.6549e-07,-0.97701,0,0,0.33333,1.579e-15,0,0.66667
0.6293,0.61683,1.8879,0.17524,1.1735,5.9371,-0.88225,0.29408,-1.8905,-1.1763,6.2589e-12,-0.94526,0,0,0.33333,-7.8949e-16,0,0.66667
0.87243,0.7129,2.6173,0.31936,0.7629,1.2218,-2.2289,0.74298,-1.6376,-2.9719,7.1191e-11,-0.81878,0,0,0.33333,-0,-0,0.66667
0.59566,0.60651,1.787,0.15977,1.148,6.8312,-0.76133,0.25378,-1.9089,-1.0151,1.8222e-12,-0.95445,0,0,0.33333,-0,-0,0.66667
0.34435,0.44667,1.033,-0.080001,-0.80005,14.883,0.22039,-0.073462,-1.9773,0.29385,6.7671e-12,-0.98867,0,0,0.33333,-0,-0,0.66667
0.81346,0.022646,2.4404,-0.71603,-2.8697,2.5237,4.6597,-1.5532,-0.17716,6.2129,-1.6546e-11,-0.08858,0,0,0.33333,-0,-0,0.66667
0.43238,0.44689,1.2971,-0.079663,-0.7313,11.82,0.27556,-0.091853,-1.977,0.36741,2.5674e-13,-0.98849,0,0,0.33333,-0,-0,0.66667
0.12655,0.58318,0.37964,0.12477,1.4025,23.183,-0.12631,0.042104,-1.9445,-0.16841,-2.4082e-09,-0.97224,0,0,0.33333,-0,-0,0.66667
0.96857,0.34168,2.9057,-0.23748,-0.051685,0.24161,1.8401,-0.61338,-1.8006,2.4535,-3.7277e-08,-0.90032,0,0,0.33333,1.9737e-16,0,0.66667
0.85256,0.45814,2.5577,-0.062792,-0.16943,1.3752,0.42827,-0.14276,-1.9854,0.57103,-9.0461e-10,-0.99268,0,0,0.33333,-7.8949e-16,0,0.66667
0.56126,0.38188,1.6838,-0.17719,-1.3589,7.8044,0.79558,-0.26519,-1.8886,1.0608,-1.9523e-13,-0.94431,0,0,0.33333,-0,-0,0.66667
0.67061,0.97878,2.0118,0.71817,4.7075,5.3381,-3.8529,1.2843,-0.16608,-5.1372,-8.4599e-14,-0.083042,0,0,0.33333,-0,3.4412e-16,0.66667
0.99772,0.18062,2.9932,-0.47907,0.1393,0.31517,3.8238,-1.2746,-1.1841,5.0984,-1.9542e-08,-0.59204,0,0,0.33333,1.579e-15,-2.7101e-16,0.66667
0.16131,0.51522,0.48393,0.02283,0.25353,21.808,-0.029462,0.0098206,-1.9974,-0.039282,-2.4957e-10,-0.99871,0,0,0.33333,-0,-0,0.66667
0.53454,0.58657,1.6036,0.12986,1.0396,8.5796,-0.55533,0.18511,-1.94,-0.74044,-1.8291e-13,-0.96999,0,0,0.33333,3.9475e-16,0,0.66667
0.39098,0.9898,1.1729,0.73471,7.4514,13.512,-2.298,0.76601,-0.080799,-3.064,-1.0747e-13,-0.040399,0,0,0.33333,-0,-0,0.66667
0.54115,0.97415,1.6234,0.71122,5.9936,8.7354,-3.079,1.0263,-0.20145,-4.1053,-1.1302e-13,-0.10072,0,0,0.33333,-0,-0,0.66667
0.10338,0.37075,0.31013,-0.19387,-2.196,24.107,0.16034,-0.053445,-1.8665,0.21378,1.215e-08,-0.93325,0,0,0.33333,9.8686e-17,0,0.66667
0.44074,0.055551,1.3222,-0.66667,-6.3644,11.799,2.3506,-0.78355,-0.41969,3.1342,-3.4239e-13,-0.20984,0,0,0.33333,-7.8949e-16,0,0.66667
0.46146,0.5814,1.3844,0.1221,1.0838,10.864,-0.45075,0.15025,-1.9463,-0.601,1.4636e-13,-0.97313,0,0,0.33333,-5.4648e-16,0,0.66667
0.59589,0.23974,1.7877,-0.39039,-2.8552,6.9256,1.861,-0.62035,-1.4579,2.4814,-4.3143e-13,-0.72895,0,0,0.33333,7.8949e-16,0,0.66667
0.66238,0.4353,1.9871,-0.097048,-0.59796,5.085,0.51426,-0.17142,-1.967,0.68568,-9.3303e-12,-0.9835,0,0,0.33333,1.1842e-15,0,0.66667
0.59015,0.89184,1.7704,0.58776,4.4644,7.2347,-2.7749,0.92498,-0.7711,-3.6999,-1.0651e-12,-0.38555,0,0,0.33333,7.8949e-16,0,0.66667
0.72938,0.65646,2.1881,0.23469,1.1945,3.6023,-1.3694,0.45647,-1.8051,-1.8259,6.8332e-11,-0.90256,0,0,0.33333,-3.158e-15,0,0.66667
0.5809,0.85343,1.7427,0.53015,4.0603,7.4387,-2.4637,0.82125,-1.0004,-3.285,-1.2059e-12,-0.5002,0,0,0.33333,-0,-0,0.66667
0.4431,0.15497,1.3293,-0.51754,-4.833,11.617,1.8346,-0.61153,-1.0483,2.4461,-9.5668e-13,-0.52417,0,0,0.33333,-8.7193e-16,0,0.66667
0.49679,0.92105,1.4904,0.63158,5.6013,9.9898,-2.5101,0.8367,-0.58117,-3.3468,9.881e-14,-0.29058,0,0,0.33333,-7.8949e-16,5.03e-16,0.66667
0.43009,0.22275,1.2903,-0.41587,-3.8993,11.993,1.4309,-0.47696,-1.3852,1.9078,-9.2515e-13,-0.69261,0,0,0.33333,-0,-0,0.66667
0.21007,0.5939,0.63022,0.14084,1.5363,19.911,-0.2367,0.0789,-1.9303,-0.3156,-1.1028e-10,-0.96517,0,0,0.33333,-7.8949e-16,0,0.66667
0.2268,0.012168,0.6804,-0.73175,-8.3088,19.423,1.3277,-0.44256,-0.095427,1.7703,-9.5888e-12,-0.047713,0,0,0.33333,-0,-0,0.66667
0.45739,0.63807,1.3722,0.2071,1.8537,11.015,-0.7578,0.2526,-1.8469,-1.0104,1.8119e-13,-0.92344,0,0,0.33333,-0,-0,0.66667
0.43355,0.32222,1.3007,-0.26667,-2.4626,11.819,0.92492,-0.30831,-1.7468,1.2332,5.7676e-14,-0.87338,0,0,0.33333,-0,-0,0.66667
0.77928,0.45019,2.3379,-0.07471,-0.30893,2.5686,0.46576,-0.15525,-1.9798,0.62102,-4.0021e-11,-0.98991,0,0,0.33333,-0,-0,0.66667
0.42086,0.38199,1.2626,-0.17701,-1.6504,12.223,0.59596,-0.19865,-1.8889,0.79462,9.1716e-13,-0.94443,0,0,0.33333,-0,-0,0.66667
0.67337,0.689,2.0201,0.28349,1.7177,4.8829,-1.5272,0.50906,-1.7153,-2.0362,2.4089e-11,-0.85765,0,0,0.33333,1.579e-15,0,0.66667
0.16604,0.71684,0.49812,0.32526,3.6414,21.645,-0.43204,0.14401,-1.6244,-0.57606,-1.0899e-10,-0.8122,0,0,0.33333,2.4579e-17,0,0.66667
0.82406,0.98348,2.4722,0.72522,2.7654,2.3747,-4.781,1.5937,-0.12934,-6.3746,8.102e-11,-0.064672,0,0,0.33333,-1.579e-15,0,0.66667
0.68541,0.30098,2.0562,-0.29852,-1.7528,4.6077,1.6369,-0.54563,-1.6828,2.1825,-3.2149e-11,-0.84142,0,0,0.33333,-0,-0,0.66667
0.78905,0.74114,2.3672,0.36171,1.4762,2.5235,-2.2833,0.76109,-1.5343,-3.0444,2.4364e-10,-0.76716,0,0,0.33333,-0,-0,0.66667
0.35948,0.98533,1.0785,0.72799,7.5824,14.592,-2.0936,0.69787,-0.11558,-2.7915,2.6645e-14,-0.057788,0,0,0.33333,7.8949e-16,0,0.66667
0.66255,0.62731,1.9876,0.19097,1.1815,5.1047,-1.0122,0.3374,-1.8708,-1.3496,1.5874e-11,-0.93539,0,0,0.33333,1.579e-15,0,0.66667
0.21709,0.49256,0.65127,-0.011164,-0.12114,19.635,0.019389,-0.0064631,-1.9997,0.025852,-4.7329e-11,-0.99983,0,0,0.33333,-0,-0,0.66667
0.22101,0.67497,0.66302,0.26245,2.8613,19.504,-0.46403,0.15468,-1.7547,-0.6187,-1.3785e-10,-0.87736,0,0,0.33333,-0,-0,0.66667
0.24246,0.15272,0.72737,-0.52092,-5.7262,18.75,1.0104,-0.3368,-1.0354,1.3472,1.218e-10,-0.5177,0,0,0.33333,4.9343e-16,0,0.66667
0.26459,0.13852,0.79376,-0.54222,-5.9001,17.926,1.1477,-0.38257,-0.95444,1.5303,5.7779e-11,-0.47722,0,0,0.33333,-0,-0,0.66667
0.40841,0.23231,1.2252,-0.40153,-3.8476,12.717,1.3119,-0.4373,-1.4264,1.7492,1.7542e-14,-0.71318,0,0,0.33333,7.8949e-16,0,0.66667
0.8287,0.83192,2.4861,0.49789,1.7092,1.998,-3.3008,1.1003,-1.1185,-4.401,8.495e-10,-0.55927,0,0,0.33333,-0,-0,0.66667
0.94742,0.63041,2.8423,0.19561,0.13401,0.36959,-1.4826,0.4942,-1.8639,-1.9768,-6.7247e-08,-0.93196,0,0,0.33333,-0,-0,0.66667
0.63246,0.10229,1.8974,-0.59657,-4.1675,6.1295,3.0185,-1.0062,-0.73412,4.0246,2.9798e-13,-0.36706,0,0,0.33333,-0,-0,0.66667
0.13474,0.43952,0.40422,-0.090721,-1.0167,22.858,0.097789,-0.032596,-1.9713,0.13039,4.5031e-09,-0.98563,0,0,0.33333,3.9475e-16,0,0.66667
0.41999,0.4292,1.26,-0.1062,-0.98885,12.241,0.35681,-0.11894,-1.9599,0.47575,7.0921e-13,-0.97994,0,0,0.33333,-0,-0,0.66667
0.93619,0.74681,2.8086,0.37021,0.38557,0.58578,-2.7727,0.92423,-1.5135,-3.6969,-2.8199e-09,-0.75673,0,0,0.33333,-3.9475e-16,0,0.66667
0.32054,0.37835,0.96163,-0.18248,-1.8646,15.758,0.46794,-0.15598,-1.8818,0.62392,2.2638e-11,-0.94092,0,0,0.33333,-7.8949e-16,0,0.66667
0.61928,0.15504,1.8578,-0.51744,-3.6698,6.395,2.5635,-0.85451,-1.0487,3.418,-6.2617e-14,-0.52436,0,0,0.33333,1.1842e-15,0,0.66667
0.93513,0.66733,2.8054,0.25099,0.24805,0.50243,-1.8777,0.6259,-1.7757,-2.5036,-5.4495e-09,-0.88785,0,0,0.33333,-0,-0,0.66667
0.46068,0.94583,1.382,0.66875,6.2419,11.155,-2.4646,0.82155,-0.40943,-3.2862,2.5913e-13,-0.20471,0,0,0.33333,-0,-0,0.66667
0.5004,0.9102,1.5012,0.61531,5.4175,9.8651,-2.4632,0.82106,-0.65465,-3.2843,1.0614e-13,-0.32733,0,0,0.33333,-1.579e-15,0,0.66667
0.91869,0.20322,2.7561,-0.44518,-0.66518,0.81984,3.2718,-1.0906,-1.2948,4.3624,-4.7482e-10,-0.6474,0,0,0.33333,-0,-0,0.66667
0.92982,0.53804,2.7895,0.057065,0.059639,0.47543,-0.42449,0.1415,-1.9882,-0.56598,-1.3634e-07,-0.99408,0,0,0.33333,-0,-0,0.66667
0.90449,0.61406,2.7135,0.1711,0.27887,0.7592,-1.238,0.41268,-1.8957,-1.6507,-7.8729e-09,-0.94785,0,0,0.33333,7.8949e-16,0,0.66667
0.51363,0.47578,1.5409,-0.036323,-0.29975,9.2032,0.14925,-0.049751,-1.9954,0.199,7.0735e-14,-0.99771,0,0,0.33333,1.579e-15,0,0.66667
0.63981,0.044453,1.9194,-0.68332,-4.7755,6.0389,3.4976,-1.1659,-0.33963,4.6634,3.475e-13,-0.16981,0,0,0.33333,-0,-0,0.66667
0.58901,0.51044,1.767,0.015665,0.11363,6.9948,-0.073814,0.024605,-1.9986,-0.098418,1.5375e-13,-0.99931,0,0,0.33333,-0,-0,0.66667
0.15849,0.46472,0.47548,-0.052914,-0.5883,21.919,0.067093,-0.022364,-1.9905,0.089457,4.7716e-10,-0.99527,0,0,0.33333,2.4672e-16,0,0.66667
0.62345,0.88361,1.8703,0.57541,4.083,6.3393,-2.8699,0.95664,-0.82276,-3.8266,-4.8006e-13,-0.41138,0,0,0.33333,-0,-0,0.66667
0.31914,0.89431,0.95743,0.59146,6.2442,15.943,-1.5101,0.50336,-0.75547,-2.0135,-5.4183e-12,-0.37774,0,0,0.33333,-0,-0,0.66667
0.13074,0.89931,0.39221,0.59896,6.9382,23.077,-0.62645,0.20882,-0.72419,-0.83526,-4.1677e-09,-0.36209,0,0,0.33333,9.8686e-17,0,0.66667
0.215,0.12075,0.64501,-0.56888,-6.3701,19.808,0.97849,-0.32616,-0.84961,1.3047,2.3008e-10,-0.42481,0,0,0.33333,-9.8686e-17,0,0.66667
0.31366,0.18441,0.94098,-0.47338,-4.9556,16.089,1.1878,-0.39595,-1.2041,1.5838,2.1634e-11,-0.60203,0,0,0.33333,4.9343e-16,0,0.66667
0.95145,0.24594,2.8544,-0.38108,-0.26833,0.47404,2.9007,-0.96689,-1.4842,3.8676,3.4134e-09,-0.74211,0,0,0.33333,1.579e-15,0,0.66667
0.99077,0.53119,2.9723,0.046786,-0.016866,0.045188,-0.37083,0.12361,-1.9931,-0.49444,-3.9017e-06,-0.99656,0,0,0.33333,3.3307e-16,0,0.66667
0.86689,0.43779,2.6007,-0.093308,-0.22467,1.1854,0.6471,-0.2157,-1.9699,0.8628,-4.4075e-09,-0.98494,0,0,0.33333,-0,-0,0.66667
0.46186,0.90018,1.3856,0.60027,5.5408,11.064,-2.2179,0.73931,-0.71869,-2.9572,4.5519e-13,-0.35935,0,0,0.33333,-3.9475e-16,0,0.66667
0.46562,0.73428,1.3969,0.35141,3.1427,10.797,-1.309,0.43633,-1.5604,-1.7453,5.3879e-13,-0.78018,0,0,0.33333,7.8949e-16,0,0.66667
0.76473,0.7609,2.2942,0.39135,1.7837,2.9925,-2.3942,0.79807,-1.4554,-3.1923,1.7162e-10,-0.72769,0,0,0.33333,-0,-0,0.66667
0.098408,0.80443,0.29522,0.45664,5.259,24.328,-0.3595,0.11983,-1.2583,-0.47933,2.5779e-09,-0.62914,0,0,0.33333,9.8686e-17,0,0.66667
0.99404,0.64014,2.9821,0.21021,-0.082997,0.085182,-1.6716,0.55721,-1.8421,-2.2288,-2.4849e-08,-0.92106,0,0,0.33333,-0,-0,0.66667
0.69221,0.81168,2.0766,0.46752,2.7553,4.5703,-2.589,0.86299,-1.2237,-3.452,2.6335e-11,-0.61185,0,0,0.33333,-2.4672e-16,0,0.66667
0.29929,0.62281,0.89786,0.18422,1.9116,16.539,-0.44107,0.14702,-1.8801,-0.58809,-3.492e-11,-0.94007,0,0,0.33333,-4.9343e-16,0,0.66667
0.90885,0.68066,2.7265,0.27099,0.42838,0.7664,-1.9703,0.65677,-1.7389,-2.6271,-5.3074e-09,-0.86947,0,0,0.33333,-0,-0,0.66667
0.55258,0.61331,1.6577,0.16997,1.3228,8.0547,-0.75137,0.25046,-1.8966,-1.0018,-1.6931e-14,-0.94831,0,0,0.33333,-7.8949e-16,0,0.66667
0.08519,0.40236,0.25557,-0.14646,-1.6625,24.831,0.099813,-0.033271,-1.9239,0.13308,3.3062e-08,-0.96195,0,0,0.33333,4.9343e-17,0,0.66667
0.10825,0.20183,0.32474,-0.44725,-5.136,23.937,0.3873,-0.1291,-1.2885,0.51641,-3.8557e-10,-0.64425,0,0,0.33333,-0,-0,0.66667
0.031665,0.03733,0.094995,-0.694,-8.2615,26.996,0.1758,-0.058603,-0.28798,0.23441,-1.7241e-06,-0.14399,0,0,0.33333,-9.8686e-17,0,0.66667
0.21619,0.15132,0.64858,-0.52302,-5.8262,19.748,0.9046,-0.30153,-1.0277,1.2061,2.3511e-10,-0.51384,0,0,0.33333,6.2145e-16,0,0.66667
0.051414,0.59795,0.15424,0.14693,1.6761,26.184,-0.060434,0.020145,-1.9235,-0.080579,-6.8446e-08,-0.96173,0,0,0.33333,-0,-0,0.66667
0.51027,0.037254,1.5308,-0.69412,-6.1025,9.6337,2.8335,-0.94451,-0.28683,3.778,-7.5495e-15,-0.14342,0,0,0.33333,-0,-0,0.66667
0.08294,0.12949,0.24882,-0.55576,-6.4771,24.953,0.36876,-0.12292,-0.90195,0.49168,1.6298e-08,-0.45098,0,0,0.33333,-1.9737e-16,0,0.66667
0.44312,0.93707,1.3294,0.6556,6.2322,11.712,-2.3241,0.7747,-0.47264,-3.0988,9.6811e-14,-0.23632,0,0,0.33333,1.0609e-15,0,0.66667
0.2362,0.86588,0.7086,0.54883,6.0698,18.996,-1.0371,0.34569,-0.92895,-1.3828,-1.2578e-10,-0.46447,0,0,0.33333,1.9737e-16,0,0.66667
0.55972,0.38976,1.6792,-0.16536,-1.2709,7.8459,0.74045,-0.24682,-1.9023,0.98727,-1.35e-13,-0.95114,0,0,0.33333,-7.8949e-16,0,0.66667
0.43897,0.0036207,1.3169,-0.74457,-7.2069,11.921,2.6147,-0.87158,-0.029538,3.4863,1.0991e-13,-0.014769,0,0,0.33333,-0,-0,0.66667
0.83754,0.77516,2.5126,0.41273,1.3107,1.7794,-2.7655,0.92182,-1.3942,-3.6873,6.4226e-10,-0.69708,0,0,0.33333,7.8949e-16,0,0.66667
0.33654,0.45015,1.0096,-0.074772,-0.75246,15.164,0.20131,-0.067105,-1.9794,0.26842,7.5327e-12,-0.98969,0,0,0.33333,-0,-0,0.66667
0.23023,0.54214,0.69069,0.063215,0.68175,19.131,-0.11643,0.038811,-1.9853,-0.15524,-2.6823e-11,-0.99265,0,0,0.33333,-0,-0,0.66667
0.94012,0.40432,2.8203,-0.14353,-0.11944,0.40685,1.0795,-0.35982,-1.9276,1.4393,-1.9765e-07,-0.96379,0,0,0.33333,-3.9475e-16,0,0.66667
0.46636,0.43249,1.3991,-0.10127,-0.89292,10.702,0.37782,-0.12594,-1.9639,0.50377,2.4425e-15,-0.98193,0,0,0.33333,3.9475e-16,0,0.66667
0.028158,0.27018,0.084473,-0.34473,-3.9749,27.121,0.077655,-0.025885,-1.5771,0.10354,1.206e-09,-0.78853,0,0,0.33333,-2.4672e-17,0,0.66667
0.079436,0.52244,0.23831,0.03366,0.38178,25.059,-0.021391,0.0071302,-1.996,-0.028521,3.8898e-08,-0.99799,0,0,0.33333,-0,-0,0.66667
0.55557,0.05728,1.6667,-0.66408,-5.4256,8.2727,2.9516,-0.98385,-0.43195,3.9354,3.7947e-13,-0.21597,0,0,0.33333,-7.8949e-16,0,0.66667
0.21077,0.24305,0.63231,-0.38543,-4.2542,19.921,0.6499,-0.21663,-1.4715,0.86654,2.5765e-10,-0.73575,0,0,0.33333,-0,-0,0.66667
0.14824,0.15645,0.44471,-0.51533,-5.8894,22.375,0.61112,-0.20371,-1.0566,0.81483,6.6484e-10,-0.52831,0,0,0.33333,-3.9475e-16,0,0.66667
0.19553,0.38159,0.5866,-0.17762,-1.9521,20.478,0.27784,-0.092614,-1.8876,0.37046,1.3837e-10,-0.94379,0,0,0.33333,-3.9475e-16,0,0.66667
0.74475,0.91589,2.2342,0.62384,3.2218,3.6172,-3.7168,1.2389,-0.61579,-4.9558,3.2215e-11,-0.30789,0,0,0.33333,-0,-0,0.66667
0.94901,0.069248,2.847,-0.64613,-0.67332,0.83695,4.9055,-1.6352,-0.51552,6.5406,-1.3589e-07,-0.25776,0,0,0.33333,-0,-2.4267e-16,0.66667
0.12938,0.50742,0.38813,0.01113,0.12482,23.069,-0.011519,0.0038398,-1.9994,-0.015359,-9.5415e-10,-0.99968,0,0,0.33333,-0,-0,0.66667
0.87978,0.84159,2.6393,0.51239,1.2301,1.3184,-3.6063,1.2021,-1.0671,-4.8084,-2.6061e-09,-0.53355,0,0,0.33333,2.3685e-15,0,0.66667
0.71192,0.8544,2.1358,0.5316,2.9917,4.1933,-3.0277,1.0092,-0.99457,-4.0369,3.1219e-11,-0.49728,0,0,0.33333,-0,-0,0.66667
0.55684,0.51423,1.6705,0.021348,0.16429,7.9093,-0.095098,0.031699,-1.9976,-0.1268,-6.5066e-14,-0.99882,0,0,0.33333,1.579e-15,0,0.66667
0.067019,0.071265,0.20106,-0.6431,-7.5833,25.593,0.3448,-0.11493,-0.52913,0.45973,-2.2878e-08,-0.26457,0,0,0.33333,-0,-0,0.66667
0.78774,0.15648,2.3632,-0.51528,-2.1877,2.6882,3.2473,-1.0824,-1.0568,4.3297,-2.65e-10,-0.5284,0,0,0.33333,-3.158e-15,0,0.66667
0.81228,0.093668,2.4368,-0.6095,-2.3675,2.3894,3.9607,-1.3202,-0.68072,5.2809,-2.3539e-10,-0.34036,0,0,0.33333,2.2341e-15,0,0.66667
0.75458,0.67652,2.2637,0.26479,1.233,3.1045,-1.5984,0.53281,-1.7502,-2.1312,1.081e-10,-0.87509,0,0,0.33333,-7.8949e-16,0,0.66667
0.55049,0.64035,1.6515,0.21052,1.6476,8.1272,-0.92711,0.30904,-1.8418,-1.2362,-1.5082e-13,-0.92091,0,0,0.33333,7.8949e-16,0,0.66667
0.6316,0.10491,1.8948,-0.59263,-4.1447,6.1472,2.9945,-0.99816,-0.75059,3.9926,2.9043e-13,-0.37529,0,0,0.33333,-0,-0,0.66667
0.43666,0.89167,1.31,0.58751,5.5734,11.874,-2.0524,0.68412,-0.77251,-2.7365,7.1387e-13,-0.38625,0,0,0.33333,7.8949e-16,3.9296e-16,0.66667
0.30785,0.48799,0.92354,-0.018015,-0.18519,16.209,0.044368,-0.014789,-1.9982,0.059157,2.871e-12,-0.99912,0,0,0.33333,-0,-0,0.66667
0.20771,0.44408,0.62313,-0.083885,-0.91487,19.999,0.13939,-0.046463,-1.9749,0.18585,5.7815e-11,-0.98743,0,0,0.33333,3.9475e-16,0,0.66667
0.77076,0.66046,2.3123,0.24068,1.0465,2.7811,-1.4841,0.49469,-1.7942,-1.9788,1.1135e-10,-0.89711,0,0,0.33333,-0,-0,0.66667
0.93478,0.97998,2.8043,0.71997,1.0573,1.0731,-5.3841,1.7947,-0.15657,-7.1788,-6.1213e-08,-0.078284,0,0,0.33333,-1.579e-15,-3.6355e-16,0.66667
0.62152,0.31795,1.8645,-0.27308,-1.873,6.1768,1.3578,-0.4526,-1.735,1.8104,-5.3696e-12,-0.86749,0,0,0.33333,-0,-0,0.66667
0.53425,0.80619,1.6027,0.45928,3.7709,8.7266,-1.963,0.65432,-1.2501,-2.6173,-8.7286e-13,-0.62503,0,0,0.33333,-0,-0,0.66667
0.88327,0.24692,2.6498,-0.37962,-0.83672,1.1373,2.6824,-0.89415,-1.4879,3.5766,4.0497e-10,-0.74395,0,0,0.33333,-1.7122e-15,0,0.66667
0.044803,0.12335,0.13441,-0.56497,-6.6235,26.467,0.2025,-0.0675,-0.86605,0.27,-2.1791e-07,-0.43302,0,0,0.33333,-1.8504e-17,-4.3306e-16,0.66667
0.30268,0.98015,0.90803,0.72022,7.8182,16.609,-1.744,0.58132,-0.15502,-2.3253,-1.6265e-13,-0.077508,0,0,0.33333,7.8949e-16,0,0.66667
0.38247,0.83569,1.1474,0.50353,4.9971,13.656,-1.5407,0.51356,-1.0981,-2.0542,-1.5055e-13,-0.54905,0,0,0.33333,-3.9475e-16,0,0.66667
0.031099,0.038127,0.093298,-0.69281,-8.2464,27.019,0.17237,-0.057457,-0.29382,0.22982,-1.9504e-06,-0.14691,0,0,0.33333,-0,2.7102e-16,0.66667
0.51993,0.45172,1.5598,-0.072419,-0.59225,9.013,0.30122,-0.10041,-1.9807,0.40163,8.496e-14,-0.99035,0,0,0.33333,-0,-0,0.66667
0.94058,0.87963,2.8217,0.56945,0.64731,0.78382,-4.2849,1.4283,-0.84735,-5.7131,8.2135e-08,-0.42367,0,0,0.33333,-0,-0,0.66667
0.79725,0.31631,2.3917,-0.27554,-1.0658,2.3223,1.7574,-0.58579,-1.7309,2.3432,-1.9227e-10,-0.86544,0,0,0.33333,-0,-0,0.66667
0.53509,0.91167,1.6053,0.6175,5.1723,8.823,-2.6434,0.88112,-0.64435,-3.5245,-4.6985e-13,-0.32218,0,0,0.33333,-0,-0,0.66667
0.67654,0.87204,2.0296,0.55806,3.4863,5.016,-3.0204,1.0068,-0.89312,-4.0272,6.9442e-12,-0.44656,0,0,0.33333,-0,-0,0.66667
0.78523,0.42885,2.3557,-0.10673,-0.43005,2.4663,0.67047,-0.22349,-1.9592,0.89396,-4.3842e-11,-0.9796,0,0,0.33333,-7.8949e-16,0,0.66667
0.26109,0.27632,0.78328,-0.33552,-3.5952,17.994,0.70081,-0.2336,-1.5999,0.93442,9.9153e-11,-0.79993,0,0,0.33333,3.9475e-16,0,0.66667
0.27566,0.85734,0.82699,0.53601,5.7903,17.512,-1.1821,0.39402,-0.97776,-1.5761,-4.3722e-11,-0.48888,0,0,0.33333,-0,-0,0.66667
0.60522,0.35685,1.8157,-0.21473,-1.5179,6.5872,1.0397,-0.34655,-1.8355,1.3862,-2.9947e-12,-0.91773,0,0,0.33333,-0,-0,0.66667
0.67418,0.58495,2.0225,0.12743,0.76196,4.806,-0.6873,0.2291,-1.9421,-0.9164,1.5171e-11,-0.97107,0,0,0.33333,-0,-0,0.66667
0.0036135,0.87296,0.01084,0.55944,6.5684,28.106,-0.016172,0.0053907,-0.88791,-0.021563,-1.1832e-07,-0.44395,0,0,0.33333,6.9389e-18,-1.9285e-16,0.66667
0.8557,0.026302,2.5671,-0.71055,-2.2407,1.9028,4.8641,-1.6214,-0.20507,6.4855,-5.6291e-10,-0.10254,0,0,0.33333,-7.8949e-16,0,0.66667
0.14491,0.82087,0.43474,0.48131,5.4893,22.499,-0.55798,0.18599,-1.176,-0.74397,-1.0352e-09,-0.58801,0,0,0.33333,-0,-0,0.66667
0.51235,0.27029,1.5371,-0.34457,-2.8908,9.3229,1.4123,-0.47077,-1.5774,1.8831,2.7434e-13,-0.78872,0,0,0.33333,-0,-0,0.66667
0.56218,0.13851,1.6865,-0.54223,-4.2994,7.9747,2.4387,-0.81289,-0.95449,3.2516,1.0991e-12,-0.47725,0,0,0.33333,-0,4.613e-16,0.66667
0.0071911,0.63552,0.021573,0.20328,2.3294,27.961,-0.011695,0.0038983,-1.8524,-0.015593,4.5668e-08,-0.92622,0,0,0.33333,-0,-0,0.66667
0.42885,0.29313,1.2866,-0.31031,-2.8889,11.99,1.0646,-0.35487,-1.6569,1.4195,-7.2164e-15,-0.82846,0,0,0.33333,-0,-0,0.66667
0.53374,0.97323,1.6012,0.70985,6.0484,8.9501,-3.031,1.0103,-0.2088,-4.0413,-1.4944e-13,-0.1044,0,0,0.33333,-0,-0,0.66667
0.69071,0.66443,2.0721,0.24665,1.4194,4.4593,-1.3629,0.4543,-1.7835,-1.8172,3.408e-11,-0.89176,0,0,0.33333,-0,-0,0.66667
0.90317,0.71305,2.7095,0.31957,0.55411,0.86111,-2.309,0.76968,-1.637,-3.0787,-3.6538e-11,-0.81852,0,0,0.33333,-7.8949e-16,0,0.66667
0.068561,0.3189,0.20568,-0.27165,-3.1068,25.501,0.149,-0.049665,-1.7374,0.19866,-1.3699e-11,-0.86872,0,0,0.33333,-0,-0,0.66667
0.2831,0.42108,0.8493,-0.11838,-1.2394,17.133,0.26811,-0.08937,-1.9498,0.35748,3.1593e-11,-0.97489,0,0,0.33333,-3.9475e-16,0,0.66667
0.52793,0.72903,1.5838,0.34355,2.8152,8.8495,-1.451,0.48366,-1.58,-1.9346,-5.6577e-13,-0.78999,0,0,0.33333,-0,-0,0.66667
0.29023,0.95158,0.8707,0.67737,7.3709,17.039,-1.5728,0.52426,-0.36783,-2.097,-3.0139e-12,-0.18392,0,0,0.33333,-0,-0,0.66667
0.42013,0.45016,1.2604,-0.074766,-0.69565,12.233,0.25129,-0.083764,-1.9798,0.33506,5.734e-13,-0.98991,0,0,0.33333,-0,-0,0.66667
0.98205,0.077172,2.9462,-0.63424,-0.16534,0.61453,4.9829,-1.661,-0.56928,6.6438,-4.3087e-07,-0.28464,0,0,0.33333,-1.579e-15,0,0.66667
0.056933,0.4301,0.1708,-0.10486,-1.1942,25.961,0.047759,-0.01592,-1.9606,0.063678,-2.6415e-07,-0.98031,0,0,0.33333,-4.9343e-17,0,0.66667
0.92891,0.067207,2.7867,-0.64919,-0.97325,1.0017,4.8243,-1.6081,-0.50155,6.4324,1.2697e-07,-0.25077,0,0,0.33333,-0,-0,0.66667
0.66798,0.90439,2.0039,0.60659,3.9088,5.2682,-3.2415,1.0805,-0.69243,-4.322,1.8874e-12,-0.34622,0,0,0.33333,-9.8686e-16,0,0.66667
0.49858,0.99958,1.4957,0.74937,6.7563,10.043,-2.989,0.99632,-0.0046739,-3.9853,-6.8834e-14,-0.002337,0,0,0.33333,2.4178e-15,-2.1065e-17,0.66667
0.4647,0.30432,1.3941,-0.29352,-2.6166,10.804,1.0912,-0.36373,-1.6934,1.4549,-3.9069e-13,-0.84671,0,0,0.33333,-0,-0,0.66667
0.55893,0.45056,1.6768,-0.074165,-0.56911,7.8524,0.33163,-0.11054,-1.9799,0.44217,-1.4053e-13,-0.98995,0,0,0.33333,-0,-0,0.66667
0.29159,0.22546,0.87476,-0.41181,-4.3538,16.877,0.96063,-0.32021,-1.3968,1.2808,4.9871e-11,-0.69842,0,0,0.33333,-0,-0,0.66667
0.1718,0.26951,0.5154,-0.34574,-3.8676,21.423,0.47519,-0.1584,-1.575,0.63358,2.7621e-10,-0.7875,0,0,0.33333,-0,-0,0.66667
0.61974,0.038283,1.8592,-0.69258,-5.0594,6.5581,3.4337,-1.1446,-0.29432,4.5783,2.7867e-13,-0.14716,0,0,0.33333,-0,-0,0.66667
0.98848,0.44304,2.9654,-0.085442,0.025697,0.063351,0.67566,-0.22522,-1.9741,0.90088,-1.2402e-06,-0.98705,0,0,0.33333,-0,-0,0.66667
0.51622,0.018567,1.5487,-0.72215,-6.3258,9.4818,2.9823,-0.9941,-0.14565,3.9764,-1.0747e-13,-0.072827,0,0,0.33333,1.579e-15,0,0.66667
0.67101,0.84887,2.013,0.5233,3.2956,5.1124,-2.8091,0.93637,-1.0269,-3.7455,8.6595e-12,-0.51343,0,0,0.33333,-0,-4.9229e-16,0.66667
0.51953,0.52528,1.5586,0.03792,0.31016,9.0226,-0.1576,0.052535,-1.9949,-0.21014,-3.7192e-15,-0.99745,0,0,0.33333,-7.8949e-16,0,0.66667
0.20003,0.51937,0.60009,0.029061,0.31785,20.295,-0.046504,0.015501,-1.9965,-0.062005,-3.5293e-11,-0.99827,0,0,0.33333,-0,-0,0.66667
0.5787,0.99398,1.7361,0.74097,5.9036,7.7067,-3.4304,1.1435,-0.04831,-4.5739,1.3767e-14,-0.024155,0,0,0.33333,-1.1842e-15,0,0.66667
0.95788,0.89281,2.8736,0.58922,0.45152,0.68538,-4.5152,1.5051,-0.76493,-6.0202,1.4311e-07,-0.38246,0,0,0.33333,-0,-0,0.66667
0.69242,0.21137,2.0773,-0.43295,-2.536,4.5368,2.3983,-0.79942,-1.3333,3.1977,-3.0842e-11,-0.66665,0,0,0.33333,-7.8949e-16,0,0.66667
0.027337,0.20901,0.082011,-0.43649,-5.0655,27.157,0.095457,-0.031819,-1.3222,0.12728,2.2048e-10,-0.6611,0,0,0.33333,-0,-0,0.66667
0.36312,0.53918,1.0894,0.058775,0.57823,14.211,-0.17074,0.056913,-1.9875,-0.22765,-3.0709e-12,-0.99376,0,0,0.33333,-7.8949e-16,0,0.66667
0.63389,0.62693,1.9017,0.19039,1.2628,5.8232,-0.9655,0.32183,-1.8716,-1.2873,7.4479e-12,-0.93581,0,0,0.33333,-0,-0,0.66667
0.56707,0.87729,1.7012,0.56594,4.4652,7.8557,-2.5674,0.85581,-0.86175,-3.4233,-1.0894e-12,-0.43087,0,0,0.33333,-0,-0,0.66667
0.12133,0.2166,0.364,-0.4251,-4.8578,23.417,0.41263,-0.13754,-1.3581,0.55018,-8.2098e-10,-0.67907,0,0,0.33333,-4.9343e-17,0,0.66667
0.93647,0.038718,2.8094,-0.69192,-0.96134,1.01,5.1837,-1.7279,-0.29796,6.9117,1.4377e-07,-0.14898,0,0,0.33333,-0,-2.8717e-16,0.66667
0.39384,0.036604,1.1815,-0.69509,-6.9902,13.385,2.19,-0.73001,-0.28229,2.9201,-2.9488e-13,-0.14114,0,0,0.33333,-0,-0,0.66667
0.72926,0.50845,2.1878,0.01267,0.063786,3.5514,-0.073915,0.024638,-1.9991,-0.098554,3.7508e-12,-0.99953,0,0,0.33333,-0,-0,0.66667
0.78569,0.071463,2.3571,-0.64281,-2.8525,2.879,4.0404,-1.3468,-0.53048,5.3871,-1.0758e-10,-0.26524,0,0,0.33333,1.579e-15,0,0.66667
0.21299,0.19504,0.63898,-0.45744,-5.0727,19.852,0.77945,-0.25982,-1.2557,1.0393,3.0442e-10,-0.62784,0,0,0.33333,-3.9475e-16,0,0.66667
0.66262,0.018374,1.9879,-0.72244,-4.8324,5.5318,3.8296,-1.2765,-0.14355,5.1062,9.9698e-14,-0.071776,0,0,0.33333,-0,-0,0.66667
0.52337,0.35384,1.5701,-0.21923,-1.7932,8.9383,0.91792,-0.30597,-1.8285,1.2239,2.5374e-13,-0.91425,0,0,0.33333,-1.579e-15,0,0.66667
0.1783,0.75623,0.53489,0.38435,4.3003,21.177,-0.54823,0.18274,-1.4746,-0.73097,-3.6557e-10,-0.73729,0,0,0.33333,-0,-0,0.66667
0.71844,0.8444,2.1553,0.5166,2.8411,4.0383,-2.9692,0.98973,-1.0525,-3.9589,4.2024e-11,-0.52626,0,0,0.33333,-0,4.1072e-16,0.66667
0.54058,0.53153,1.6217,0.047298,0.37424,8.389,-0.20455,0.068182,-1.9929,-0.27273,2.2218e-14,-0.99645,0,0,0.33333,-1.579e-15,0,0.66667
0.21409,0.65289,0.64228,0.22933,2.5046,19.765,-0.39279,0.13093,-1.8134,-0.52372,-1.4784e-10,-0.90668,0,0,0.33333,9.8686e-17,0,0.66667
0.41806,0.52392,1.2542,0.035881,0.33444,12.301,-0.12,0.040001,-1.9953,-0.16001,-2.7092e-13,-0.99764,0,0,0.33333,-0,-0,0.66667
0.68076,0.60811,2.0423,0.16216,0.95395,4.6591,-0.88315,0.29438,-1.9057,-1.1775,2.1096e-11,-0.95286,0,0,0.33333,-0,-0,0.66667
0.99376,0.70561,2.9813,0.30842,-0.10345,0.15395,-2.4519,0.81731,-1.6611,-3.2692,3.6e-09,-0.83053,0,0,0.33333,-1.579e-15,0,0.66667
0.54844,0.24087,1.6453,-0.38869,-3.0955,8.2654,1.7054,-0.56846,-1.4628,2.2738,8.7974e-13,-0.73139,0,0,0.33333,-3.9475e-16,0,0.66667
0.79392,0.92846,2.3818,0.64269,2.7515,2.7369,-4.0819,1.3606,-0.53116,-5.4426,1.2269e-10,-0.26558,0,0,0.33333,-0,-3.5772e-16,0.66667
0.33058,0.39259,0.99173,-0.16111,-1.6324,15.389,0.42608,-0.14203,-1.9073,0.56811,1.6648e-11,-0.95363,0,0,0.33333,-3.9475e-16,0,0.66667
0.51156,0.74819,1.5347,0.37228,3.1347,9.3607,-1.5236,0.50786,-1.5079,-2.0314,-2.1283e-13,-0.75395,0,0,0.33333,-9.8686e-16,0,0.66667
0.83503,0.060414,2.5051,-0.65938,-2.3081,2.1111,4.4048,-1.4683,-0.45459,5.873,5.6733e-11,-0.2273,0,0,0.33333,8.3934e-16,0,0.66667
0.97046,0.96762,2.9114,0.70143,0.4387,0.79329,-5.4457,1.8152,-0.25175,-7.2609,-4.2273e-06,-0.12588,0,0,0.33333,-4.9343e-16,0,0.66667
0.17847,0.99939,0.53542,0.74909,8.7017,21.268,-1.0695,0.35651,-0.0056448,-1.426,-3.586e-10,-0.0028224,0,0,0.33333,3.7007e-17,0,0.66667
0.85131,0.80829,2.5539,0.46244,1.3604,1.6312,-3.1494,1.0498,-1.2397,-4.1993,1.4561e-09,-0.61987,0,0,0.33333,8.9882e-16,0,0.66667
0.9884,0.29136,2.9652,-0.31297,0.064123,0.18322,2.4747,-0.82489,-1.6513,3.2996,5.9783e-09,-0.82566,0,0,0.33333,-0,-0,0.66667
0.45046,0.0052165,1.3514,-0.74218,-7.0899,11.547,2.6746,-0.89152,-0.041777,3.5661,-5.6177e-14,-0.020889,0,0,0.33333,3.158e-15,0,0.66667
0.30796,0.75736,0.92388,0.38604,4.0276,16.266,-0.95108,0.31703,-1.4699,-1.2681,-3.5106e-11,-0.73496,0,0,0.33333,7.8949e-16,0,0.66667
0.91246,0.27683,2.7374,-0.33475,-0.51614,0.7762,2.4436,-0.81452,-1.6017,3.2581,-2.0293e-09,-0.80083,0,0,0.33333,1.1842e-15,0,0.66667
0.21986,0.012547,0.65957,-0.73118,-8.3289,19.685,1.286,-0.42868,-0.098907,1.7147,1.3969e-11,-0.049453,0,0,0.33333,-0,-0,0.66667
0.98826,0.78533,2.9648,0.42799,-0.04852,0.29618,-3.3837,1.1279,-1.349,-4.5116,9.2725e-10,-0.67451,0,0,0.33333,-0,-0,0.66667
0.40154,0.51792,1.2046,0.026887,0.25496,12.865,-0.086371,0.02879,-1.9968,-0.11516,-4.7924e-13,-0.99838,0,0,0.33333,-0,-0,0.66667
0.092234,0.92904,0.2767,0.64356,7.558,24.598,-0.47486,0.15829,-0.52742,-0.63315,-4.4614e-08,-0.26371,0,0,0.33333,-0,-3.1175e-16,0.66667
0.13677,0.28011,0.41032,-0.32983,-3.7287,22.795,0.3609,-0.1203,-1.614,0.4812,-6.0047e-10,-0.80702,0,0,0.33333,-2.5905e-16,0,0.66667
0.47707,0.18478,1.4312,-0.47283,-4.2164,10.493,1.8046,-0.60154,-1.2054,2.4061,-5.4134e-13,-0.60272,0,0,0.33333,-9.8686e-16,0,0.66667
0.060948,0.26878,0.18284,-0.34683,-3.9874,25.809,0.16911,-0.056369,-1.572,0.22547,-3.831e-11,-0.78602,0,0,0.33333,-9.8686e-17,0,0.66667
0.25189,0.04275,0.75566,-0.68588,-7.6428,18.461,1.3821,-0.4607,-0.32711,1.8428,8.9406e-12,-0.16355,0,0,0.33333,-0,-0,0.66667
0.795,0.45099,2.385,-0.073516,-0.28215,2.2865,0.46756,-0.15585,-1.9804,0.62341,-6.1307e-11,-0.99021,0,0,0.33333,-1.579e-15,0,0.66667
0.78533,0.226,2.356,-0.411,-1.7225,2.6295,2.5822,-0.86072,-1.3992,3.4429,-2.5602e-10,-0.69962,0,0,0.33333,-0,-0,0.66667
0.81082,0.44991,2.4325,-0.075141,-0.2655,2.0173,0.48741,-0.16247,-1.9796,0.64987,-2.7108e-11,-0.98982,0,0,0.33333,-0,-0,0.66667
0.046263,0.14681,0.13879,-0.52978,-6.1889,26.406,0.19607,-0.065357,-1.0022,0.26143,1.6716e-08,-0.50108,0,0,0.33333,-0,5.2516e-16,0.66667
0.76645,0.18365,2.2993,-0.47452,-2.1832,3.0335,2.9096,-0.96986,-1.2001,3.8794,-1.7625e-10,-0.60007,0,0,0.33333,-0,-0,0.66667
0.80685,0.25212,2.4205,-0.37181,-1.3936,2.2262,2.4,-0.79999,-1.509,3.2,-3.052e-10,-0.75449,0,0,0.33333,-0,-0,0.66667
0.01605,0.0094212,0.048149,-0.73587,-8.8121,27.616,0.094484,-0.031503,-0.074777,0.12597,-1.2207e-05,-0.037388,0,0,0.33333,-0,-0,0.66667
0.39133,0.044415,1.174,-0.68338,-6.8771,13.462,2.1394,-0.71313,-0.33937,2.8525,-4.0612e-13,-0.16969,0,0,0.33333,-0,-0,0.66667
0.86558,0.98975,2.5967,0.73463,2.1934,1.8155,-5.087,1.6957,-0.080547,-6.7827,-5.7597e-09,-0.040274,0,0,0.33333,-1.579e-15,0,0.66667
0.95847,0.019304,2.8754,-0.72104,-0.67182,0.90212,5.5288,-1.8429,-0.15081,7.3718,3.1533e-07,-0.075403,0,0,0.33333,-0,-0,0.66667
0.91959,0.75894,2.7588,0.38841,0.5536,0.75323,-2.8574,0.95247,-1.4635,-3.8099,-3.5448e-09,-0.73174,0,0,0.33333,-1.579e-15,0,0.66667
0.54699,0.71422,1.641,0.32134,2.5493,8.2729,-1.4061,0.46871,-1.6336,-1.8748,-6.9966e-13,-0.81681,0,0,0.33333,-1.9737e-16,0,0.66667
0.30992,0.40668,0.92976,-0.13998,-1.4396,16.141,0.34706,-0.11569,-1.9315,0.46275,2.3203e-11,-0.96573,0,0,0.33333,-7.8949e-16,0,0.66667
0.58926,0.18277,1.7678,-0.47585,-3.5616,7.1653,2.2432,-0.74774,-1.195,2.991,7.9092e-13,-0.59752,0,0,0.33333,1.1842e-15,0,0.66667
0.59599,0.35697,1.788,-0.21455,-1.5452,6.8383,1.023,-0.34098,-1.8359,1.3639,-2.0445e-12,-0.91797,0,0,0.33333,-0,-0,0.66667
0.66455,0.17444,1.9937,-0.48834,-3.108,5.2349,2.5962,-0.8654,-1.1513,3.4616,-9.4253e-12,-0.57567,0,0,0.33333,2.5044e-18,0,0.66667
0.59082,0.61068,1.7724,0.16602,1.2047,6.9662,-0.7847,0.26157,-1.9015,-1.0463,1.4864e-12,-0.95074,0,0,0.33333,-0,-0,0.66667
0.86806,0.053434,2.6042,-0.66985,-1.9022,1.6793,4.6517,-1.5506,-0.40413,6.2023,-4.6044e-10,-0.20206,0,0,0.33333,7.8949e-16,0,0.66667
0.37398,0.44872,1.1219,-0.076926,-0.74961,13.828,0.23015,-0.076716,-1.9788,0.30686,3.1314e-12,-0.98942,0,0,0.33333,-0,-0,0.66667
0.24402,0.73298,0.73205,0.34947,3.7843,18.642,-0.68221,0.2274,-1.565,-0.90962,-1.39e-10,-0.7825,0,0,0.33333,3.9475e-16,0,0.66667
0.020487,0.25432,0.06146,-0.36852,-4.2574,27.429,0.060398,-0.020133,-1.5173,0.080531,4.0474e-09,-0.75865,0,0,0.33333,4.9343e-17,0,0.66667
0.23269,0.16672,0.69807,-0.49991,-5.5121,19.113,0.93059,-0.3102,-1.1112,1.2408,1.7536e-10,-0.55562,0,0,0.33333,-0,-0,0.66667
0.1616,0.25634,0.4848,-0.36549,-4.1088,21.825,0.47252,-0.15751,-1.5249,0.63002,2.7026e-10,-0.76244,0,0,0.33333,3.9475e-16,0,0.66667
0.23816,0.78434,0.71448,0.42651,4.6594,18.884,-0.81262,0.27087,-1.3537,-1.0835,-1.6858e-10,-0.67685,0,0,0.33333,-7.8949e-16,0,0.66667
0.88096,0.085815,2.6429,-0.62128,-1.5555,1.4492,4.3786,-1.4595,-0.62725,5.8381,4.3396e-10,-0.31362,0,0,0.33333,-7.8949e-16,0,0.66667
0.7316,0.53757,2.1948,0.05635,0.28158,3.5052,-0.3298,0.10993,-1.9888,-0.43974,1.8913e-11,-0.9944,0,0,0.33333,-0,-0,0.66667
0.24339,0.12656,0.73017,-0.56017,-6.1793,18.728,1.0907,-0.36357,-0.8849,1.4543,9.7574e-11,-0.44245,0,0,0.33333,7.8949e-16,0,0.66667
0.79305,0.58087,2.3792,0.12131,0.47125,2.3305,-0.76963,0.25654,-1.9471,-1.0262,6.891e-11,-0.97355,0,0,0.33333,7.8949e-16,0,0.66667
0.54412,0.8354,1.6324,0.5031,4.0883,8.4659,-2.19,0.72999,-1.0999,-2.92,-9.1882e-13,-0.54996,0,0,0.33333,-3.9475e-16,0,0.66667
0.40649,0.91017,1.2195,0.61526,6.0458,12.9,-2.0007,0.66691,-0.65492,-2.6677,9.0927e-13,-0.32746,0,0,0.33333,-0,-0,0.66667
0.2058,0.52327,0.61741,0.034898,0.38073,20.071,-0.057457,0.019152,-1.9956,-0.076609,-1.4029e-11,-0.99779,0,0,0.33333,-0,-0,0.66667
0.31073,0.31513,0.9322,-0.27731,-2.8668,16.135,0.68935,-0.22978,-1.7274,0.91913,3.4802e-11,-0.86369,0,0,0.33333,-7.8949e-16,0,0.66667
0.079247,0.64631,0.23774,0.21946,2.5,25.071,-0.13913,0.046378,-1.8287,-0.18551,1.1513e-08,-0.91435,0,0,0.33333,-0,-0,0.66667
0.23362,0.88911,0.70087,0.58366,6.4874,19.106,-1.0909,0.36362,-0.78856,-1.4545,-1.033e-10,-0.39428,0,0,0.33333,-0,-0,0.66667
0.66575,0.39219,1.9973,-0.16172,-0.99053,5.0177,0.8613,-0.2871,-1.9063,1.1484,-1.5227e-11,-0.95313,0,0,0.33333,-7.8841e-16,0,0.66667
0.35102,0.56818,1.0531,0.10227,1.0174,14.645,-0.28718,0.095726,-1.9627,-0.3829,-7.0532e-12,-0.98135,0,0,0.33333,7.8949e-16,0,0.66667
0.81972,0.0065887,2.4592,-0.74012,-2.9023,2.4646,4.8535,-1.6178,-0.052124,6.4713,-3.7747e-10,-0.026062,0,0,0.33333,-0,-0,0.66667
0.66115,0.79381,1.9835,0.44072,2.8085,5.2778,-2.3311,0.77702,-1.3088,-3.1081,1.1681e-11,-0.65438,0,0,0.33333,-0,-0,0.66667
0.62435,0.5208,1.8731,0.031199,0.21028,6.0412,-0.15583,0.051944,-1.9965,-0.20778,1.1264e-12,-0.99826,0,0,0.33333,-0,-0,0.66667
0.42028,0.53119,1.2608,0.046788,0.4351,12.226,-0.15731,0.052437,-1.9936,-0.20975,-2.8022e-13,-0.99678,0,0,0.33333,4.9343e-16,0,0.66667
0.645,0.33561,1.935,-0.24658,-1.5997,5.561,1.2724,-0.42413,-1.7835,1.6965,-1.1246e-11,-0.89176,0,0,0.33333,-0,-0,0.66667
0.87483,0.76858,2.6245,0.40287,0.96731,1.2618,-2.8196,0.93985,-1.4229,-3.7594,2.0048e-10,-0.71143,0,0,0.33333,-1.579e-15,0,0.66667
0.31127,0.97505,0.93382,0.71258,7.682,16.294,-1.7744,0.59148,-0.19493,-2.3659,8.4155e-14,-0.097463,0,0,0.33333,-0,-0,0.66667
0.34275,0.71128,1.0283,0.31692,3.2044,14.983,-0.86901,0.28967,-1.6431,-1.1587,-1.574e-11,-0.82154,0,0,0.33333,-0,-0,0.66667
0.84868,0.79629,2.546,0.44443,1.3237,1.6494,-3.0174,1.0058,-1.297,-4.0232,9.5692e-10,-0.6485,0,0,0.33333,1.579e-15,0,0.66667
0.52989,0.1128,1.5897,-0.5808,-4.877,8.9455,2.4621,-0.8207,-0.80036,3.2828,4.623e-13,-0.40018,0,0,0.33333,-0,-0,0.66667
0.92369,0.83095,2.7711,0.49643,0.7118,0.83215,-3.6684,1.2228,-1.1234,-4.8912,5.6566e-09,-0.56172,0,0,0.33333,-0,-0,0.66667
0.18755,0.012216,0.56266,-0.73168,-8.4507,20.914,1.0978,-0.36594,-0.096526,1.4638,1.2969e-10,-0.048263,0,0,0.33333,-0,-0,0.66667
0.21487,0.29796,0.64462,-0.30305,-3.3208,19.747,0.52095,-0.17365,-1.6728,0.69459,1.736e-10,-0.83642,0,0,0.33333,-0,-0,0.66667
0.86246,0.77279,2.5874,0.40918,1.0902,1.4269,-2.8232,0.94107,-1.4045,-3.7643,8.6203e-10,-0.70226,0,0,0.33333,-7.8949e-16,0,0.66667
0.09949,0.38882,0.29847,-0.16676,-1.8889,24.261,0.13273,-0.044244,-1.9004,0.17697,-4.8464e-09,-0.95019,0,0,0.33333,1.9737e-16,0,0.66667
0.47166,0.6585,1.415,0.23775,2.0935,10.56,-0.89709,0.29903,-1.7998,-1.1961,3.9702e-13,-0.89988,0,0,0.33333,-1.579e-15,0,0.66667
0.8394,0.98559,2.5182,0.72838,2.5578,2.1551,-4.8912,1.6304,-0.11299,-6.5216,-1.1448e-10,-0.056494,0,0,0.33333,1.579e-15,0,0.66667
0.69374,0.010883,2.0812,-0.73368,-4.5485,4.8315,4.0718,-1.3573,-0.085486,5.4291,-1.9673e-13,-0.042743,0,0,0.33333,-0,-0,0.66667
0.46224,0.52394,1.3867,0.035911,0.31796,10.831,-0.1328,0.044266,-1.9951,-0.17706,-2.1232e-13,-0.99755,0,0,0.33333,7.8949e-16,0,0.66667
0.1652,0.88897,0.4956,0.58345,6.6759,21.73,-0.77108,0.25703,-0.78887,-1.0281,-9.0705e-10,-0.39443,0,0,0.33333,-0,-0,0.66667
0.55082,0.30946,1.6524,-0.28581,-2.2467,8.145,1.2594,-0.41982,-1.71,1.6793,4.9416e-13,-0.85501,0,0,0.33333,-0,-0,0.66667
0.98798,0.64704,2.9639,0.22056,-0.054276,0.12035,-1.7432,0.58108,-1.8267,-2.3243,-2.7621e-08,-0.91336,0,0,0.33333,1.579e-15,0,0.66667
0.80516,0.56896,2.4155,0.10344,0.37738,2.1175,-0.66627,0.22209,-1.9617,-0.88836,1.3188e-10,-0.98087,0,0,0.33333,-0,-0,0.66667
0.054929,0.72349,0.16479,0.33524,3.8542,26.049,-0.14731,0.049105,-1.6004,-0.19642,-6.5123e-09,-0.80021,0,0,0.33333,-0,-0,0.66667
0.71093,0.90805,2.1328,0.61207,3.5134,4.302,-3.4811,1.1604,-0.6685,-4.6415,1.1772e-11,-0.33425,0,0,0.33333,-0,-0,0.66667
0.97662,0.88206,2.9298,0.57309,0.17874,0.54658,-4.4775,1.4925,-0.83195,-5.97,-3.7876e-08,-0.41598,0,0,0.33333,-0,-0,0.66667
0.19337,0.9309,0.58012,0.64634,7.3691,20.661,-0.99989,0.3333,-0.51443,-1.3332,-1.5399e-10,-0.25721,0,0,0.33333,-1.9737e-16,0,0.66667
0.95641,0.80361,2.8692,0.45541,0.29837,0.51716,-3.4845,1.1615,-1.2623,-4.6459,-2.1271e-08,-0.63117,0,0,0.33333,-0,-0,0.66667
0.23335,0.53065,0.70004,0.045981,0.49501,19.011,-0.085836,0.028612,-1.9938,-0.11445,-9.7711e-12,-0.9969,0,0,0.33333,5.9214e-17,0,0.66667
0.8194,0.5339,2.4582,0.050845,0.17096,1.8739,-0.3333,0.1111,-1.9912,-0.4444,3.191e-10,-0.99559,0,0,0.33333,3.158e-15,0,0.66667
0.14942,0.38342,0.44826,-0.17487,-1.9551,22.282,0.20903,-0.069677,-1.8908,0.27871,-2.9702e-10,-0.94542,0,0,0.33333,-0,-0,0.66667
0.5141,0.23897,1.5423,-0.39154,-3.2905,9.2929,1.6103,-0.53678,-1.4547,2.1471,3.4861e-13,-0.72736,0,0,0.33333,-0,-0,0.66667
0.36401,0.67803,1.092,0.26705,2.6439,14.212,-0.77768,0.25923,-1.746,-1.0369,-8.7161e-12,-0.873,0,0,0.33333,-0,-0,0.66667
0.67069,0.36763,2.0121,-0.19855,-1.2032,4.9104,1.0653,-0.35512,-1.86,1.4205,-1.966e-11,-0.93001,0,0,0.33333,-1.1842e-15,0,0.66667
0.17912,0.55688,0.53735,0.085316,0.94183,21.111,-0.12225,0.040751,-1.974,-0.163,2.7247e-11,-0.987,0,0,0.33333,9.8686e-17,0,0.66667
0.57975,0.60444,1.7392,0.15665,1.1606,7.2724,-0.72656,0.24219,-1.9126,-0.96874,8.0108e-13,-0.95628,0,0,0.33333,-0,-0,0.66667
0.0024237,0.43417,0.0072711,-0.098743,-1.1283,28.152,0.0019143,-0.00064255,-1.9659,0.0025502,-6.6766e-06,-0.98296,0,0,0.33333,-7.7099e-19,0,0.66667
0.42565,0.52367,1.277,0.03551,0.32825,12.044,-0.12092,0.040306,-1.9954,-0.16122,-1.8942e-13,-0.99768,0,0,0.33333,-0,-0,0.66667
0.51579,0.38209,1.5474,-0.17687,-1.4604,9.1575,0.72983,-0.24328,-1.8892,0.97311,1.3456e-13,-0.94458,0,0,0.33333,-0,-0,0.66667
0.8378,0.85272,2.5134,0.52908,1.7376,1.898,-3.5461,1.182,-1.0042,-4.7281,1.0417e-09,-0.50212,0,0,0.33333,-0,-0,0.66667
0.75764,0.89539,2.2729,0.59309,2.9021,3.3292,-3.5948,1.1983,-0.74868,-4.793,7.0689e-11,-0.37434,0,0,0.33333,7.8949e-16,0,0.66667
0.091892,0.55444,0.27567,0.081655,0.92453,24.561,-0.060028,0.020009,-1.9763,-0.080037,3.1358e-08,-0.98815,0,0,0.33333,9.8686e-17,0,0.66667
0.62503,0.90707,1.8751,0.61061,4.3447,6.3333,-3.0532,1.0177,-0.67579,-4.0709,-7.3674e-13,-0.33789,0,0,0.33333,-0,-0,0.66667
0.66,0.063188,1.98,-0.65522,-4.3471,5.5127,3.4596,-1.1532,-0.47451,4.6128,-2.2204e-14,-0.23725,0,0,0.33333,1.579e-15,0,0.66667
0.73403,0.095351,2.2021,-0.60697,-3.2371,3.8118,3.5643,-1.1881,-0.6913,4.7524,-2.8597e-11,-0.34565,0,0,0.33333,-0,7.6743e-17,0.66667
0.55486,0.55218,1.6646,0.078266,0.60489,7.9713,-0.34741,0.1158,-1.9776,-0.46322,3.8719e-14,-0.9888,0,0,0.33333,-0,-0,0.66667
0.10736,0.98554,0.32207,0.72831,8.6148,24.02,-0.62551,0.2085,-0.1136,-0.83401,1.9153e-08,-0.056798,0,0,0.33333,1.9737e-16,0,0.66667
0.64035,0.87877,1.921,0.56816,3.881,5.9025,-2.9106,0.97019,-0.85309,-3.8808,4.5697e-13,-0.42655,0,0,0.33333,1.579e-15,0,0.66667
0.67053,0.61891,2.0116,0.17837,1.0799,4.9073,-0.9568,0.31893,-1.8872,-1.2757,1.8267e-11,-0.9436,0,0,0.33333,3.9475e-16,0,0.66667
0.25011,0.43582,0.75032,-0.096267,-1.0277,18.374,0.19262,-0.064205,-1.9683,0.25682,3.7863e-11,-0.98415,0,0,0.33333,-9.8686e-17,0,0.66667
0.94828,0.49218,2.8448,-0.011734,-0.0073415,0.31466,0.089015,-0.029672,-1.9992,0.11869,2.1523e-07,-0.99961,0,0,0.33333,1.579e-15,0,0.66667
0.45265,0.40322,1.3579,-0.14518,-1.3036,11.157,0.52571,-0.17524,-1.926,0.70095,7.4329e-14,-0.963,0,0,0.33333,-3.9475e-16,0,0.66667
0.86672,0.87647,2.6001,0.5647,1.5433,1.5461,-3.9155,1.3052,-0.86678,-5.2206,-1.607e-11,-0.43339,0,0,0.33333,3.158e-15,0,0.66667
0.65308,0.72567,1.9592,0.3385,2.1723,5.4058,-1.7685,0.58951,-1.5926,-2.3581,1.3363e-11,-0.79629,0,0,0.33333,-0,-0,0.66667
0.61654,0.038218,1.8496,-0.69267,-5.0931,6.6411,3.4165,-1.1388,-0.29378,4.5553,2.3648e-13,-0.14689,0,0,0.33333,-0,-0,0.66667
0.5494,0.91583,1.6482,0.62375,5.1135,8.4116,-2.7415,0.91383,-0.61644,-3.6553,-5.862e-13,-0.30822,0,0,0.33333,-0,-0,0.66667
0.64757,0.21319,1.9427,-0.43022,-2.8293,5.6039,2.2288,-0.74292,-1.3418,2.9717,-7.7671e-12,-0.67091,0,0,0.33333,-0,-0,0.66667
0.84434,0.22515,2.533,-0.41228,-1.2525,1.68,2.7848,-0.92826,-1.3961,3.7131,-4.4663e-10,-0.69803,0,0,0.33333,-0,-0,0.66667
0.77688,0.73211,2.3306,0.34816,1.4971,2.7327,-2.1638,0.72128,-1.5684,-2.8851,1.8864e-10,-0.78419,0,0,0.33333,-0,-0,0.66667
0.67263,0.83184,2.0179,0.49777,3.1083,5.0507,-2.6785,0.89283,-1.1189,-3.5713,1.1601e-11,-0.55946,0,0,0.33333,7.8949e-16,0,0.66667
0.031845,0.21756,0.095536,-0.42366,-4.9104,26.976,0.10793,-0.035977,-1.3631,0.14391,-1.9078e-09,-0.68155,0,0,0.33333,1.2336e-17,0,0.66667
0.0086948,0.86808,0.026084,0.55212,6.4775,27.904,-0.038405,0.012802,-0.91584,-0.051206,-6.6386e-08,-0.45792,0,0,0.33333,-0,-0,0.66667
0.35854,0.070706,1.0756,-0.64394,-6.6352,14.57,1.847,-0.61567,-0.52581,2.4627,-4.5686e-13,-0.2629,0,0,0.33333,-0,-0,0.66667
0.030634,0.46881,0.091901,-0.046782,-0.53367,27.017,0.011465,-0.0038196,-1.9937,0.015288,3.0777e-06,-0.99686,0,0,0.33333,-0,-0,0.66667
0.51785,0.3809,1.5535,-0.17865,-1.4706,9.0951,0.74011,-0.2467,-1.8867,0.98681,1.9695e-13,-0.94337,0,0,0.33333,-0,-0,0.66667
0.0035539,0.40624,0.010662,-0.14064,-1.6085,28.107,0.0039988,-0.0013322,-1.9308,0.0053321,1.0754e-06,-0.96539,0,0,0.33333,-6.4981e-18,0,0.66667
0.48073,0.65258,1.4422,0.22887,1.9907,10.267,-0.88022,0.29341,-1.8141,-1.1736,1.4805e-13,-0.90707,0,0,0.33333,7.8949e-16,0,0.66667
0.37761,0.94904,1.1328,0.67356,6.8542,13.926,-2.0347,0.67824,-0.38655,-2.713,4.9161e-13,-0.19328,0,0,0.33333,-0,-0,0.66667
0.95746,0.5817,2.8724,0.12255,0.052871,0.26416,-0.93872,0.31291,-1.946,-1.2516,9.8075e-09,-0.97301,0,0,0.33333,1.579e-15,0,0.66667
0.055854,0.24063,0.16756,-0.38906,-4.4882,26.015,0.17384,-0.057947,-1.4613,0.23179,-5.0205e-09,-0.73065,0,0,0.33333,4.9343e-17,0,0.66667
0.065191,0.52445,0.19557,0.03667,0.41683,25.63,-0.019124,0.0063747,-1.9953,-0.025499,-1.0607e-07,-0.99763,0,0,0.33333,9.8686e-17,0,0.66667
0.84927,0.61228,2.5478,0.16841,0.47005,1.4496,-1.1442,0.38141,-1.8985,-1.5256,4.2252e-11,-0.94923,0,0,0.33333,-0,-0,0.66667
0.79526,0.36054,2.3858,-0.2092,-0.81018,2.3227,1.3309,-0.44364,-1.8441,1.7746,-1.1549e-10,-0.92203,0,0,0.33333,-0,-0,0.66667
0.93585,0.3409,2.8075,-0.23865,-0.23054,0.48872,1.7867,-0.59557,-1.7983,2.3823,-9.6225e-09,-0.89914,0,0,0.33333,-7.8949e-16,0,0.66667
0.078237,0.9913,0.23471,0.73695,8.7745,25.163,-0.46126,0.15375,-0.069203,-0.61501,1.5287e-07,-0.034601,0,0,0.33333,9.8686e-17,0,0.66667
0.6201,0.32638,1.8603,-0.26043,-1.7898,6.2084,1.2919,-0.43064,-1.7582,1.7226,-5.1452e-12,-0.87908,0,0,0.33333,-0,-0,0.66667
0.5144,0.72858,1.5432,0.34286,2.8674,9.2592,-1.411,0.47032,-1.582,-1.8813,-2.9177e-13,-0.79098,0,0,0.33333,-0,-0,0.66667
0.32157,0.92545,0.96472,0.63817,6.7634,15.88,-1.6418,0.54725,-0.55124,-2.189,-1.9165e-12,-0.27562,0,0,0.33333,3.9475e-16,0,0.66667
0.61081,0.55516,1.8324,0.082735,0.57474,6.4051,-0.40428,0.13476,-1.9758,-0.53904,2.0009e-12,-0.98791,0,0,0.33333,-7.8949e-16,0,0.66667
0.91808,0.6612,2.7542,0.2418,0.32955,0.65475,-1.7759,0.59198,-1.7923,-2.3679,2.8612e-09,-0.89615,0,0,0.33333,-0,-0,0.66667
0.062566,0.96324,0.1877,0.69486,8.2483,25.775,-0.3478,0.11593,-0.28387,-0.46373,2.881e-07,-0.14194,0,0,0.33333,-4.9343e-17,0,0.66667
0.65973,0.050748,1.9792,-0.67388,-4.4912,5.5411,3.5566,-1.1855,-0.3849,4.7421,2.3759e-14,-0.19245,0,0,0.33333,7.8949e-16,0,0.66667
0.28517,0.9244,0.85551,0.63661,6.9142,17.204,-1.4523,0.48411,-0.55846,-1.9364,-9.3014e-12,-0.27923,0,0,0.33333,-0,-0,0.66667
0.40545,0.76995,1.2163,0.40493,3.893,12.819,-1.3134,0.4378,-1.4169,-1.7512,-1.1435e-13,-0.70846,0,0,0.33333,-0,-0,0.66667
0.84969,0.68059,2.5491,0.27088,0.76633,1.4945,-1.8413,0.61378,-1.7389,-2.4551,-2.1397e-10,-0.86943,0,0,0.33333,-0,-0,0.66667
0.12173,0.018045,0.36519,-0.72293,-8.5168,23.457,0.70402,-0.23467,-0.14123,0.93869,5.2159e-09,-0.070614,0,0,0.33333,-3.9475e-16,3.8528e-16,0.66667
0.84297,0.3251,2.5289,-0.26235,-0.77679,1.586,1.7693,-0.58975,-1.7551,2.359,9.0056e-11,-0.87756,0,0,0.33333,-0,-0,0.66667
0.40424,0.59201,1.2127,0.13801,1.3077,12.782,-0.44632,0.14877,-1.9332,-0.5951,-1.6842e-12,-0.96661,0,0,0.33333,-0,-0,0.66667
0.98389,0.60256,2.9517,0.15384,-0.026958,0.10882,-1.2109,0.40363,-1.916,-1.6145,2.1412e-07,-0.958,0,0,0.33333,-0,-0,0.66667
0.91802,0.68206,2.754,0.27309,0.37713,0.67508,-2.0056,0.66853,-1.7349,-2.6741,6.345e-10,-0.86747,0,0,0.33333,1.579e-15,0,0.66667
0.40767,0.91421,1.223,0.62132,6.103,12.864,-2.0264,0.67546,-0.62751,-2.7018,7.5295e-13,-0.31376,0,0,0.33333,7.8949e-16,0,0.66667
0.29792,0.17841,0.89376,-0.48238,-5.1098,16.668,1.1497,-0.38323,-1.1727,1.5329,3.2357e-11,-0.58634,0,0,0.33333,-3.9475e-16,0,0.66667
0.22095,0.13257,0.66284,-0.55114,-6.1429,19.576,0.97418,-0.32473,-0.92,1.2989,1.9616e-10,-0.46,0,0,0.33333,7.8949e-16,0,0.66667
0.21774,0.65951,0.65321,0.23926,2.6097,19.627,-0.41677,0.13892,-1.7973,-0.55569,-1.4634e-10,-0.89863,0,0,0.33333,-0,-0,0.66667
0.76874,0.63348,2.3062,0.20022,0.87431,2.8009,-1.2313,0.41045,-1.8573,-1.6418,1.0468e-10,-0.92864,0,0,0.33333,-0,-0,0.66667
0.75544,0.15447,2.2663,-0.51829,-2.5121,3.2875,3.1323,-1.0441,-1.0455,4.1764,-1.1523e-10,-0.52274,0,0,0.33333,1.9737e-15,0,0.66667
0.97825,0.53983,2.9348,0.059749,-0.0037919,0.11398,-0.4676,0.15587,-1.9869,-0.62346,1.5483e-06,-0.99344,0,0,0.33333,-0,-0,0.66667
0.08331,0.51249,0.24993,0.01873,0.21227,24.904,-0.012483,0.0041609,-1.9981,-0.016644,3.7617e-08,-0.99905,0,0,0.33333,-0,-0,0.66667
0.22018,0.77882,0.66055,0.41823,4.6073,19.567,-0.7367,0.24557,-1.379,-0.98226,-2.4011e-10,-0.68949,0,0,0.33333,1.9737e-16,0,0.66667
0.98371,0.51229,2.9511,0.018433,-0.0036015,0.079174,-0.14507,0.048361,-1.9987,-0.19342,7.5705e-06,-0.99934,0,0,0.33333,-0,-0,0.66667
0.54637,0.6823,1.6391,0.27346,2.1636,8.2702,-1.1953,0.39843,-1.7347,-1.5937,-4.8439e-13,-0.86735,0,0,0.33333,1.113e-15,0,0.66667
0.55367,0.87998,1.661,0.56998,4.6025,8.2413,-2.5246,0.84154,-0.84489,-3.3662,-9.2237e-13,-0.42244,0,0,0.33333,1.579e-15,0,0.66667
0.34877,0.58031,1.0463,0.12047,1.2013,14.728,-0.33613,0.11204,-1.9477,-0.44817,-8.577e-12,-0.97386,0,0,0.33333,-0,-0,0.66667
0.70379,0.51064,2.1114,0.015955,0.08732,4.106,-0.089831,0.029944,-1.9991,-0.11977,3.8258e-12,-0.99953,0,0,0.33333,-0,-0,0.66667
0.49976,0.33378,1.4993,-0.24933,-2.1153,9.6738,0.99686,-0.33229,-1.7791,1.3291,7.7827e-14,-0.88953,0,0,0.33333,3.9475e-16,0,0.66667
0.46949,0.67239,1.4085,0.25858,2.2861,10.637,-0.97123,0.32374,-1.762,-1.295,3.5483e-13,-0.88102,0,0,0.33333,-7.8949e-16,0,0.66667
0.54977,0.23752,1.6493,-0.39371,-3.1302,8.2293,1.7316,-0.57721,-1.4484,2.3088,8.6953e-13,-0.7242,0,0,0.33333,-0,-0,0.66667
0.02518,0.33842,0.075541,-0.24237,-2.78,27.239,0.048824,-0.016275,-1.7911,0.065099,8.8814e-08,-0.89555,0,0,0.33333,-1.2336e-17,0,0.66667
0.53126,0.33415,1.5938,-0.24877,-2.0136,8.7099,1.0573,-0.35244,-1.7801,1.4098,3.2152e-13,-0.89006,0,0,0.33333,-0,-0,0.66667
0.13296,0.9488,0.39889,0.67321,7.8593,23.007,-0.7161,0.2387,-0.38792,-0.9548,-4.1511e-10,-0.19396,0,0,0.33333,-0,-0,0.66667
0.45893,0.75295,1.3768,0.37943,3.4295,11.026,-1.393,0.46435,-1.4885,-1.8574,7.6417e-13,-0.74424,0,0,0.33333,-0,-0,0.66667
0.082271,0.356,0.24681,-0.21601,-2.459,24.95,0.14217,-0.04739,-1.8335,0.18956,-8.0553e-09,-0.91676,0,0,0.33333,-0,-0,0.66667
0.88896,0.7388,2.6669,0.35819,0.74028,1.0514,-2.5474,0.84912,-1.5436,-3.3965,-1.3154e-10,-0.7718,0,0,0.33333,-0,-0,0.66667
0.37843,0.63,1.1353,0.19501,1.8989,13.688,-0.59036,0.19679,-1.865,-0.78715,-5.2838e-12,-0.9325,0,0,0.33333,-0,-0,0.66667
0.43035,0.13911,1.2911,-0.54134,-5.1417,12.053,1.8637,-0.62125,-0.95726,2.485,-1.0238e-12,-0.47863,0,0,0.33333,-7.8949e-16,0,0.66667
0.74206,0.6167,2.2262,0.17505,0.84735,3.3158,-1.0392,0.34639,-1.8906,-1.3856,6.4793e-11,-0.94531,0,0,0.33333,-0,-0,0.66667
0.15577,0.78972,0.46732,0.43458,4.92,22.065,-0.54157,0.18052,-1.3287,-0.72209,-5.6047e-10,-0.66435,0,0,0.33333,-0,-0,0.66667
0.57502,0.93349,1.7251,0.65024,5.1286,7.7111,-2.9912,0.99707,-0.49708,-3.9883,-6.124e-13,-0.24854,0,0,0.33333,7.8949e-16,0,0.66667
0.51105,0.038345,1.5331,-0.69248,-6.0799,9.6087,2.8311,-0.94371,-0.29482,3.7748,-4.4409e-15,-0.14741,0,0,0.33333,-0,-0,0.66667
0.3683,0.76622,1.1049,0.39933,3.975,14.104,-1.1766,0.3922,-1.4322,-1.5688,-5.0858e-12,-0.71611,0,0,0.33333,3.5333e-16,0,0.66667
0.68334,0.18924,2.05,-0.46614,-2.8149,4.7727,2.5483,-0.84942,-1.2281,3.3977,-2.0348e-11,-0.61406,0,0,0.33333,-1.579e-15,0,0.66667
0.79449,0.57925,2.3835,0.11887,0.45848,2.3047,-0.75555,0.25185,-1.9493,-1.0074,6.7118e-11,-0.97465,0,0,0.33333,1.579e-15,0,0.66667
0.46768,0.60175,1.4031,0.15263,1.3456,10.668,-0.57106,0.19035,-1.9173,-0.76142,1.0614e-13,-0.95865,0,0,0.33333,-0,-0,0.66667
0.62735,0.076552,1.8821,-0.63517,-4.5175,6.2995,3.1878,-1.0626,-0.56509,4.2504,5.6666e-13,-0.28255,0,0,0.33333,-0,-0,0.66667
0.91254,0.74859,2.7376,0.37289,0.58474,0.80824,-2.7222,0.9074,-1.5062,-3.6296,-1.0825e-09,-0.75312,0,0,0.33333,4.9343e-16,0,0.66667
0.45697,0.46272,1.3709,-0.05592,-0.49847,11.004,0.20443,-0.068144,-1.9889,0.27257,-1.9817e-14,-0.99445,0,0,0.33333,7.8949e-16,0,0.66667
0.13502,0.97472,0.40506,0.71208,8.3483,22.936,-0.76916,0.25639,-0.197,-1.0256,-1.544e-09,-0.098501,0,0,0.33333,-0,-0,0.66667
0.54323,0.79162,1.6297,0.43743,3.5317,8.4472,-1.901,0.63367,-1.3193,-2.5347,-9.9287e-13,-0.65963,0,0,0.33333,-0,-0,0.66667
0.43003,0.1151,1.2901,-0.57736,-5.5098,12.087,1.9862,-0.66208,-0.81421,2.6483,-9.6279e-13,-0.40711,0,0,0.33333,-3.9475e-16,0,0.66667
0.76831,0.21489,2.3049,-0.42767,-1.9342,2.9552,2.6287,-0.87622,-1.3502,3.5049,-1.9531e-10,-0.67508,0,0,0.33333,-1.9737e-15,0,0.66667
0.79767,0.15509,2.393,-0.51737,-2.0999,2.5189,3.3015,-1.1005,-1.0495,4.402,-4.2272e-10,-0.52477,0,0,0.33333,1.875e-15,0,0.66667
0.17185,0.48559,0.51554,-0.021612,-0.23909,21.394,0.029712,-0.0099041,-1.9983,0.039616,2.6698e-10,-0.99913,0,0,0.33333,-1.9737e-16,0,0.66667
0.43794,0.82676,1.3138,0.49014,4.5899,11.771,-1.7172,0.57241,-1.1457,-2.2896,1.1169e-12,-0.57283,0,0,0.33333,-0,-0,0.66667
0.26682,0.55991,0.80046,0.089865,0.94994,17.741,-0.19182,0.063941,-1.9722,-0.25576,-3.1892e-11,-0.98609,0,0,0.33333,4.9343e-16,0,0.66667
0.95469,0.45745,2.8641,-0.063826,-0.03087,0.27055,0.48747,-0.16249,-1.9853,0.64996,4.1437e-07,-0.99265,0,0,0.33333,-0,-0,0.66667
0.93687,0.26601,2.8106,-0.35098,-0.35507,0.56262,2.6306,-0.87686,-1.5618,3.5075,3.2222e-09,-0.7809,0,0,0.33333,-0,-0,0.66667
0.43435,0.096443,1.303,-0.60534,-5.7705,11.963,2.1034,-0.70114,-0.69775,2.8046,-6.9234e-13,-0.34888,0,0,0.33333,-1.579e-15,3.2964e-16,0.66667
0.43101,0.131,1.293,-0.5535,-5.2611,12.039,1.9085,-0.63617,-0.91057,2.5447,-1.0528e-12,-0.45529,0,0,0.33333,-0,-0,0.66667
0.74648,0.33578,2.2394,-0.24633,-1.1806,3.2562,1.471,-0.49035,-1.7841,1.9614,-9.1073e-11,-0.89204,0,0,0.33333,-0,-0,0.66667
0.59598,0.24476,1.7879,-0.38286,-2.7973,6.9186,1.8254,-0.60846,-1.4791,2.4338,-4.2244e-13,-0.73957,0,0,0.33333,-1.1842e-15,0,0.66667
0.25907,0.45586,0.77721,-0.06621,-0.70287,18.033,0.13722,-0.045741,-1.9837,0.18297,2.4685e-11,-0.99184,0,0,0.33333,-3.068e-16,0,0.66667
0.48317,0.59661,1.4495,0.14491,1.2516,10.17,-0.56015,0.18672,-1.9262,-0.74686,2.5591e-14,-0.96309,0,0,0.33333,1.579e-15,0,0.66667
0.89011,0.55187,2.6703,0.077807,0.14904,0.89304,-0.55405,0.18468,-1.9785,-0.73874,9.0238e-09,-0.98924,0,0,0.33333,-0,-0,0.66667
0.68155,0.04317,2.0447,-0.68525,-4.3372,5.0433,3.7363,-1.2454,-0.32977,4.9817,-5.7443e-13,-0.16489,0,0,0.33333,-0,-0,0.66667
0.56313,0.22848,1.6894,-0.40727,-3.17,7.8516,1.8348,-0.61159,-1.4103,2.4464,8.914e-13,-0.70514,0,0,0.33333,-0,-0,0.66667
0.87675,0.15357,2.6303,-0.51965,-1.2847,1.3638,3.6448,-1.2149,-1.0407,4.8598,1.5669e-09,-0.52034,0,0,0.33333,7.8949e-16,0,0.66667
0.27628,0.88114,0.82883,0.57171,6.1971,17.503,-1.2636,0.4212,-0.83778,-1.6848,-3.1681e-11,-0.41889,0,0,0.33333,-0,-0,0.66667
0.99685,0.59528,2.9905,0.14292,-0.06955,0.040906,-1.1398,0.37993,-1.9282,-1.5197,1.1245e-06,-0.9641,0,0,0.33333,-0,-0,0.66667
0.19984,0.7393,0.59952,0.35895,3.9739,20.337,-0.57385,0.19128,-1.5415,-0.76514,-2.6474e-10,-0.77075,0,0,0.33333,-0,-0,0.66667
0.83979,0.75664,2.5194,0.38496,1.1962,1.7215,-2.5863,0.8621,-1.473,-3.4484,4.56e-10,-0.73651,0,0,0.33333,-0,-0,0.66667
0.74234,0.41112,2.227,-0.13332,-0.64289,3.2973,0.79173,-0.26391,-1.9368,1.0556,-4.964e-11,-0.9684,0,0,0.33333,-0,-0,0.66667
0.86405,0.17985,2.5922,-0.48022,-1.295,1.4786,3.3195,-1.1065,-1.1798,4.426,-7.9283e-10,-0.58989,0,0,0.33333,7.8949e-16,0,0.66667
0.58492,0.37206,1.7548,-0.19191,-1.4104,7.1372,0.89803,-0.29934,-1.8694,1.1974,-1.1094e-12,-0.93468,0,0,0.33333,-9.8686e-16,0,0.66667
0.23238,0.27996,0.69714,-0.33006,-3.5916,19.081,0.6136,-0.20453,-1.6137,0.81814,1.5663e-10,-0.80684,0,0,0.33333,4.4409e-16,0,0.66667
0.48352,0.030188,1.4506,-0.70472,-6.4314,10.465,2.726,-0.90865,-0.23547,3.6346,-1.3722e-13,-0.11773,0,0,0.33333,6.3658e-16,5.1834e-17,0.66667
0.86238,0.081894,2.5871,-0.62716,-1.8189,1.6877,4.3268,-1.4423,-0.60106,5.769,-2.7835e-09,-0.30053,0,0,0.33333,-0,-0,0.66667
0.7978,0.10732,2.3934,-0.58902,-2.4377,2.601,3.7594,-1.2531,-0.76621,5.0125,-2.6927e-10,-0.3831,0,0,0.33333,-1.579e-15,0,0.66667
0.17351,0.08388,0.52053,-0.62418,-7.1527,21.419,0.86641,-0.2888,-0.61463,1.1552,6.2777e-10,-0.30732,0,0,0.33333,1.9737e-16,0,0.66667
0.99221,0.37599,2.9766,-0.18602,0.06719,0.081061,1.4765,-0.49218,-1.8777,1.9687,6.3726e-08,-0.93883,0,0,0.33333,-0,-0,0.66667
0.030412,0.98132,0.091237,0.72197,8.6248,27.047,-0.17565,0.058551,-0.14651,-0.2342,-4.5905e-07,-0.073257,0,0,0.33333,-0,-0,0.66667
0.39265,0.79194,1.1779,0.43791,4.2764,13.273,-1.3756,0.45852,-1.3179,-1.8341,-6.0008e-13,-0.65896,0,0,0.33333,-0,-0,0.66667
0.7544,0.023561,2.2632,-0.71466,-3.6568,3.5512,4.3131,-1.4377,-0.18381,5.7508,-2.4754e-12,-0.091907,0,0,0.33333,-0,-0,0.66667
0.97374,0.77146,2.9212,0.40719,0.085751,0.35148,-3.172,1.0573,-1.41,-4.2293,-1.6795e-09,-0.705,0,0,0.33333,1.579e-15,0,0.66667
0.14213,0.77632,0.42638,0.41448,4.7054,22.596,-0.47127,0.15709,-1.3896,-0.62836,-6.2561e-10,-0.69482,0,0,0.33333,1.9737e-16,0,0.66667
0.92404,0.439,2.7721,-0.091506,-0.1079,0.5356,0.67644,-0.22548,-1.9712,0.90193,-1.519e-07,-0.9856,0,0,0.33333,-0,-0,0.66667
0.21902,0.22511,0.65707,-0.41234,-4.5429,19.61,0.7225,-0.24083,-1.3959,0.96333,2.4296e-10,-0.69797,0,0,0.33333,-0,-0,0.66667
0.55264,0.50474,1.6579,0.0071117,0.055124,8.0317,-0.031442,0.010481,-1.9999,-0.041922,7.6082e-14,-0.99994,0,0,0.33333,-0,-0,0.66667
0.43281,0.30191,1.2984,-0.29714,-2.7516,11.853,1.0288,-0.34294,-1.6856,1.3718,-1.1757e-13,-0.84278,0,0,0.33333,-0,-0,0.66667
0.80806,0.51426,2.4242,0.021389,0.076608,2.0577,-0.13827,0.046089,-1.9977,-0.18436,3.9915e-11,-0.99885,0,0,0.33333,-0,-0,0.66667
0.13857,0.33453,0.41571,-0.24821,-2.7924,22.716,0.27516,-0.091719,-1.7808,0.36687,-9.6155e-10,-0.89041,0,0,0.33333,9.8686e-17,0,0.66667
0.19087,0.099821,0.57261,-0.60027,-6.8149,20.743,0.91659,-0.30553,-0.71892,1.2221,3.4561e-10,-0.35946,0,0,0.33333,-0,-0,0.66667
0.56751,0.683,1.7025,0.2745,2.0944,7.658,-1.2463,0.41542,-1.7322,-1.6617,-6.4948e-14,-0.86612,0,0,0.33333,-0,-0,0.66667
0.20995,0.5164,0.62986,0.024601,0.26786,19.911,-0.04132,0.013773,-1.9971,-0.055093,-2.8654e-13,-0.99853,0,0,0.33333,-0,-0,0.66667
0.87999,0.035636,2.64,-0.69655,-1.8299,1.577,4.9036,-1.6345,-0.2751,6.5382,7.7688e-09,-0.13755,0,0,0.33333,-0,-0,0.66667
0.57835,0.11715,1.7351,-0.57427,-4.4476,7.5471,2.657,-0.88568,-0.82773,3.5427,1.0523e-12,-0.41387,0,0,0.33333,7.8949e-16,0,0.66667
0.91176,0.10797,2.7353,-0.58805,-1.0583,1.0675,4.2893,-1.4298,-0.76974,5.719,1.0271e-08,-0.38487,0,0,0.33333,-1.579e-15,0,0.66667
0.76434,0.49026,2.293,-0.014611,-0.064374,2.844,0.08934,-0.02978,-1.9992,0.11912,-1.505e-11,-0.99959,0,0,0.33333,-1.579e-15,0,0.66667
0.47494,0.59457,1.4248,0.14186,1.2385,10.432,-0.53901,0.17967,-1.9292,-0.71868,-1.9706e-14,-0.9646,0,0,0.33333,1.579e-15,0,0.66667
0.69241,0.60405,2.0772,0.15608,0.88789,4.3866,-0.86456,0.28819,-1.9129,-1.1527,2.5928e-11,-0.95644,0,0,0.33333,-0,-0,0.66667
0.059802,0.57533,0.17941,0.11299,1.2867,25.847,-0.054058,0.018019,-1.9542,-0.072077,1.0756e-07,-0.97708,0,0,0.33333,-9.8686e-17,0,0.66667
0.63126,0.33956,1.8938,-0.24066,-1.6112,5.9092,1.2153,-0.40511,-1.7942,1.6204,-7.4893e-12,-0.8971,0,0,0.33333,-3.9475e-16,0,0.66667
0.98405,0.019628,2.9521,-0.72056,-0.24132,0.75814,5.6725,-1.8908,-0.15391,7.5633,1.7731e-06,-0.076954,0,0,0.33333,-0,3.6883e-16,0.66667
0.11938,0.074443,0.35815,-0.63834,-7.4482,23.53,0.60966,-0.20322,-0.55055,0.81288,7.5341e-09,-0.27527,0,0,0.33333,1.9737e-16,0,0.66667
0.45157,0.058123,1.3547,-0.66282,-6.2472,11.444,2.3944,-0.79815,-0.4385,3.1926,-3.233e-13,-0.21925,0,0,0.33333,1.9737e-16,-1.9019e-16,0.66667
0.018534,0.92438,0.055602,0.63657,7.5324,27.514,-0.094386,0.031462,-0.55873,-0.12585,-4.8958e-07,-0.27936,0,0,0.33333,2.4672e-17,0,0.66667
0.68813,0.68056,2.0644,0.27084,1.5737,4.5303,-1.491,0.49699,-1.7395,-1.988,3.3463e-11,-0.86976,0,0,0.33333,-0,-0,0.66667
0.019423,0.87546,0.058268,0.56319,6.6125,27.477,-0.08751,0.02917,-0.87321,-0.11668,-2.509e-07,-0.4366,0,0,0.33333,-0,-0,0.66667
0.45527,0.64893,1.3658,0.2234,2.0064,11.088,-0.81366,0.27122,-1.8226,-1.0849,1.4616e-13,-0.9113,0,0,0.33333,-3.9475e-16,0,0.66667
0.21915,0.61545,0.65745,0.17318,1.8827,19.564,-0.30362,0.10121,-1.8935,-0.40482,-8.5384e-11,-0.94673,0,0,0.33333,-0,-0,0.66667
0.80722,0.053099,2.4216,-0.67035,-2.724,2.555,4.3289,-1.443,-0.40177,5.7719,-1.1433e-10,-0.20088,0,0,0.33333,7.8949e-16,0,0.66667
0.64564,0.84299,1.9369,0.51448,3.4414,5.7205,-2.6574,0.88579,-1.0597,-3.5431,3.0287e-12,-0.52985,0,0,0.33333,3.9475e-16,0,0.66667
0.66627,0.77702,1.9988,0.41553,2.6048,5.1353,-2.2148,0.73827,-1.3862,-2.9531,1.5562e-11,-0.69312,0,0,0.33333,1.184e-15,0,0.66667
0.54989,0.81526,1.6497,0.47289,3.7926,8.2762,-2.0803,0.69344,-1.2055,-2.7737,-1.1102e-12,-0.60275,0,0,0.33333,1.579e-15,0,0.66667
0.25045,0.29479,0.75134,-0.30782,-3.3128,18.39,0.61673,-0.20558,-1.663,0.82231,1.1447e-10,-0.83149,0,0,0.33333,-0,-0,0.66667
0.81569,0.9147,2.4471,0.62205,2.3848,2.3519,-4.0592,1.3531,-0.62399,-5.4123,2.5101e-10,-0.312,0,0,0.33333,-0,-0,0.66667
0.88012,0.77327,2.6404,0.40991,0.94099,1.2034,-2.8862,0.96206,-1.4023,-3.8482,-8.927e-10,-0.70113,0,0,0.33333,-7.8949e-16,0,0.66667
0.43832,0.8791,1.315,0.56865,5.3718,11.807,-1.994,0.66466,-0.85097,-2.6587,8.2512e-13,-0.42548,0,0,0.33333,1.579e-15,0,0.66667
0.58633,0.74113,1.759,0.3617,2.6863,7.1713,-1.6966,0.56554,-1.5343,-2.2621,1.0281e-13,-0.76717,0,0,0.33333,3.9475e-16,0,0.66667
0.6243,0.18345,1.8729,-0.47483,-3.3112,6.2294,2.3715,-0.7905,-1.1991,3.162,-1.4886e-12,-0.59954,0,0,0.33333,7.8949e-16,-6.6441e-18,0.66667
0.72761,0.10077,2.1828,-0.59884,-3.2551,3.9342,3.4858,-1.1619,-0.72465,4.6477,-2.5416e-11,-0.36233,0,0,0.33333,-0,-0,0.66667
0.5909,0.60245,1.7727,0.15368,1.1143,6.9606,-0.72646,0.24215,-1.9158,-0.96861,1.4478e-12,-0.95792,0,0,0.33333,-0,-0,0.66667
0.8066,0.035633,2.4198,-0.69655,-2.8647,2.6035,4.4947,-1.4982,-0.27502,5.9929,-7.1914e-11,-0.13751,0,0,0.33333,-0,-0,0.66667
0.82409,0.10417,2.4723,-0.59375,-2.157,2.1837,3.9144,-1.3048,-0.74609,5.2192,-5.6629e-10,-0.37304,0,0,0.33333,-0,-0,0.66667
0.55655,0.97893,1.6697,0.71839,5.9159,8.3005,-3.1986,1.0662,-0.16445,-4.2648,-8.0602e-14,-0.082224,0,0,0.33333,-0,-0,0.66667
0.88295,0.62833,2.6489,0.1925,0.4042,1.015,-1.3597,0.45324,-1.8685,-1.813,-5.2016e-09,-0.93425,0,0,0.33333,-0,-0,0.66667
0.20294,0.6236,0.60882,0.18541,2.0317,20.191,-0.30101,0.10034,-1.8791,-0.40134,-1.6143e-10,-0.93954,0,0,0.33333,-1.2336e-16,0,0.66667
0.41362,0.76532,1.2408,0.39798,3.7919,12.538,-1.3169,0.43896,-1.436,-1.7558,2.0572e-13,-0.71802,0,0,0.33333,-0,-0,0.66667
0.63011,0.75902,1.8903,0.38853,2.6454,6.017,-1.9585,0.65284,-1.4628,-2.6114,4.8394e-12,-0.73142,0,0,0.33333,1.579e-15,0,0.66667
0.10257,0.91683,0.30772,0.62525,7.3128,24.188,-0.51307,0.17102,-0.60939,-0.68409,-9.9796e-09,-0.3047,0,0,0.33333,-0,-0,0.66667
0.71864,0.8183,2.1559,0.47745,2.6048,3.9967,-2.7449,0.91498,-1.1901,-3.6599,5.27e-11,-0.59503,0,0,0.33333,1.579e-15,1.3598e-17,0.66667
0.47968,0.89464,1.4391,0.59196,5.3388,10.491,-2.2716,0.75721,-0.75349,-3.0288,3.2463e-13,-0.37674,0,0,0.33333,7.8949e-16,0,0.66667
0.37899,0.21618,1.137,-0.42573,-4.2067,13.74,1.2908,-0.43027,-1.3561,1.7211,2.3519e-12,-0.67806,0,0,0.33333,1.9737e-16,0,0.66667
0.45185,0.012101,1.3555,-0.73185,-6.9688,11.493,2.6455,-0.88182,-0.095423,3.5273,6.4393e-15,-0.047711,0,0,0.33333,-0,3.7467e-16,0.66667
0.36759,0.15763,1.1028,-0.51356,-5.1709,14.18,1.5102,-0.5034,-1.0629,2.0136,1.4001e-12,-0.53143,0,0,0.33333,-0,-0,0.66667
0.23954,0.15483,0.71861,-0.51776,-5.6985,18.859,0.99219,-0.33073,-1.0475,1.3229,1.3598e-10,-0.52376,0,0,0.33333,-4.0863e-16,0,0.66667
0.91587,0.59212,2.7476,0.13818,0.1894,0.6285,-1.0125,0.33749,-1.9327,-1.35,2.1454e-08,-0.96635,0,0,0.33333,-2.1711e-15,0,0.66667
0.79936,0.081268,2.3981,-0.6281,-2.6116,2.6255,4.0166,-1.3389,-0.5969,5.3555,-2.0483e-10,-0.29845,0,0,0.33333,7.8949e-16,0,0.66667
0.33394,0.58875,1.0018,0.13313,1.3442,15.264,-0.35566,0.11855,-1.937,-0.47421,-1.3347e-11,-0.9685,0,0,0.33333,3.9475e-16,0,0.66667
0.16905,0.84906,0.50716,0.52359,5.9469,21.565,-0.7081,0.23603,-1.0255,-0.94414,-1.1491e-09,-0.51275,0,0,0.33333,-0,-0,0.66667
0.11663,0.21968,0.34988,-0.42048,-4.809,23.602,0.39231,-0.13077,-1.3721,0.52309,-9.9037e-10,-0.68603,0,0,0.33333,-0,-0,0.66667
0.79533,0.52872,2.386,0.043074,0.16489,2.2769,-0.27407,0.091355,-1.9943,-0.36542,-6.5995e-12,-0.99713,0,0,0.33333,3.9475e-16,0,0.66667
0.70203,0.63458,2.1061,0.20186,1.1193,4.1834,-1.1337,0.3779,-1.8551,-1.5116,3.7922e-11,-0.92755,0,0,0.33333,-0,-0,0.66667
0.075233,0.23456,0.2257,-0.39815,-4.584,25.243,0.23963,-0.079878,-1.4358,0.31951,-8.708e-10,-0.71792,0,0,0.33333,-0,-0,0.66667
0.11659,0.94458,0.34978,0.66687,7.8122,23.645,-0.62203,0.20734,-0.41849,-0.82937,-6.6344e-09,-0.20924,0,0,0.33333,-0,-0,0.66667
0.9138,0.083089,2.7414,-0.62537,-1.1268,1.1026,4.5717,-1.5239,-0.60884,6.0956,-9.9574e-09,-0.30442,0,0,0.33333,-7.8949e-16,0,0.66667
0.86977,0.14118,2.6093,-0.53824,-1.4204,1.4735,3.7451,-1.2484,-0.96923,4.9935,-1.5691e-09,-0.48461,0,0,0.33333,-1.579e-15,0,0.66667
0.29195,0.079273,0.87586,-0.63109,-6.8201,16.953,1.474,-0.49133,-0.58321,1.9653,8.0042e-12,-0.2916,0,0,0.33333,3.9475e-16,0,0.66667
0.102,0.12575,0.306,-0.56138,-6.5224,24.2,0.45808,-0.15269,-0.88023,0.61078,-1.0567e-08,-0.44011,0,0,0.33333,-0,-0,0.66667
0.80889,0.6429,2.4267,0.21435,0.77436,2.0928,-1.3871,0.46235,-1.8361,-1.8494,1.4251e-10,-0.91804,0,0,0.33333,-0,-0,0.66667
0.026174,0.61649,0.078521,0.17474,1.9991,27.198,-0.036589,0.012196,-1.8911,-0.048785,-1.5558e-08,-0.94553,0,0,0.33333,-0,-0,0.66667
0.63635,0.81808,1.909,0.47713,3.2413,5.9223,-2.4289,0.80965,-1.1906,-3.2386,3.0342e-12,-0.59531,0,0,0.33333,-0,-0,0.66667
0.16009,0.3699,0.48026,-0.19515,-2.1756,21.864,0.24993,-0.083309,-1.8647,0.33324,1.0693e-10,-0.93237,0,0,0.33333,-1.9737e-16,0,0.66667
0.69162,0.84504,2.0749,0.51757,3.0818,4.6292,-2.8637,0.95456,-1.0483,-3.8183,1.8276e-11,-0.52417,0,0,0.33333,1.579e-15,0,0.66667
0.16802,0.53761,0.50406,0.056421,0.6252,21.545,-0.075838,0.025279,-1.9887,-0.10112,4.8769e-10,-0.99433,0,0,0.33333,-0,-0,0.66667
0.34905,0.76668,1.0471,0.40002,4.0484,14.786,-1.117,0.37234,-1.4303,-1.4893,-1.0247e-11,-0.71516,0,0,0.33333,3.9475e-16,0,0.66667
0.12209,0.43894,0.36626,-0.091597,-1.0302,23.359,0.089463,-0.029821,-1.9711,0.11928,-1.0909e-08,-0.98553,0,0,0.33333,-0,-0,0.66667
0.28709,0.0035861,0.86126,-0.74462,-8.1928,17.191,1.7102,-0.57006,-0.028833,2.2802,-2.8455e-13,-0.014417,0,0,0.33333,-0,-0,0.66667
0.1291,0.82795,0.38729,0.49192,5.6411,23.121,-0.50804,0.16935,-1.139,-0.67739,-2.164e-09,-0.56948,0,0,0.33333,1.9737e-16,0,0.66667
0.46339,0.60416,1.3902,0.15624,1.3851,10.808,-0.57921,0.19307,-1.9126,-0.77228,1.3123e-13,-0.95632,0,0,0.33333,-0,-0,0.66667
0.64941,0.9215,1.9482,0.63225,4.2806,5.744,-3.2847,1.0949,-0.57789,-4.3796,2.1982e-14,-0.28894,0,0,0.33333,7.8949e-16,0,0.66667
0.39451,0.77,1.1835,0.40499,3.9362,13.194,-1.2782,0.42606,-1.4163,-1.7043,-9.3159e-13,-0.70816,0,0,0.33333,-3.9475e-16,0,0.66667
0.95296,0.16314,2.8589,-0.50529,-0.39609,0.60275,3.8521,-1.284,-1.0926,5.1362,-5.4387e-09,-0.54632,0,0,0.33333,-0,-0,0.66667
0.75487,0.80105,2.2646,0.45157,2.1631,3.2336,-2.727,0.90899,-1.2744,-3.636,1.4098e-10,-0.63719,0,0,0.33333,-7.8949e-16,0,0.66667
0.54438,0.34144,1.6331,-0.23784,-1.8835,8.3158,1.0358,-0.34527,-1.7996,1.3811,2.4458e-13,-0.89982,0,0,0.33333,-2.9606e-16,0,0.66667
0.56352,0.57896,1.6906,0.11844,0.90258,7.7262,-0.53395,0.17798,-1.9499,-0.71193,2.4736e-13,-0.97493,0,0,0.33333,-0,-0,0.66667
0.3206,0.8383,0.96181,0.50745,5.303,15.851,-1.3015,0.43384,-1.0843,-1.7354,-1.3463e-11,-0.54216,0,0,0.33333,-7.5373e-18,0,0.66667
0.51252,0.96563,1.5376,0.69845,6.1257,9.57,-2.8638,0.95459,-0.26602,-3.8184,-1.0325e-13,-0.13301,0,0,0.33333,1.9737e-16,-1.4171e-16,0.66667
0.75781,0.73982,2.2734,0.35973,1.6762,3.1012,-2.1809,0.72695,-1.5393,-2.9078,1.4559e-10,-0.76964,0,0,0.33333,7.8949e-16,0,0.66667
0.0018096,0.16617,0.0054289,-0.50075,-5.8471,28.178,0.0072493,-0.0024164,-1.1083,0.0096658,9.4875e-08,-0.55415,0,0,0.33333,-0,6.8418e-16,0.66667
0.48059,0.64674,1.4418,0.22011,1.9139,10.269,-0.84626,0.28209,-1.8274,-1.1283,1.3023e-13,-0.91369,0,0,0.33333,7.8949e-16,0,0.66667
0.90416,0.62556,2.7125,0.18833,0.30952,0.77023,-1.3623,0.45409,-1.8751,-1.8164,-8.6713e-09,-0.93753,0,0,0.33333,-0,-0,0.66667
0.8495,0.90819,2.5485,0.61228,1.926,1.8387,-4.1611,1.387,-0.66761,-5.5481,-7.8349e-11,-0.3338,0,0,0.33333,-0,-0,0.66667
0.221,0.75037,0.66299,0.37556,4.1225,19.526,-0.66397,0.22132,-1.4997,-0.8853,-2.1716e-10,-0.74985,0,0,0.33333,-7.8949e-16,0,0.66667
0.73624,0.14126,2.2087,-0.53811,-2.8048,3.6896,3.1694,-1.0565,-0.97006,4.2259,-6.0964e-11,-0.48503,0,0,0.33333,-0,-0,0.66667
0.58487,0.63432,1.7546,0.20148,1.4817,7.1414,-0.94274,0.31425,-1.8551,-1.257,1.0529e-12,-0.92757,0,0,0.33333,1.579e-15,0,0.66667
0.52554,0.11453,1.5766,-0.57821,-4.8853,9.0732,2.431,-0.81032,-0.81071,3.2413,3.0997e-13,-0.40536,0,0,0.33333,7.8949e-16,0,0.66667
0.66144,0.4526,1.9843,-0.071098,-0.4388,5.104,0.37622,-0.12541,-1.9813,0.50163,-6.783e-12,-0.99065,0,0,0.33333,-0,-0,0.66667
0.63207,0.60237,1.8962,0.15356,1.0207,5.8594,-0.77649,0.25883,-1.9157,-1.0353,6.2315e-12,-0.95785,0,0,0.33333,-0,-0,0.66667
0.071417,0.045138,0.21425,-0.68229,-8.0771,25.424,0.38982,-0.12994,-0.34402,0.51976,1.0764e-07,-0.17201,0,0,0.33333,-0,-0,0.66667
0.41684,0.78662,1.2505,0.42994,4.0944,12.444,-1.4337,0.47791,-1.3428,-1.9116,8.5276e-13,-0.67139,0,0,0.33333,-1.579e-15,0,0.66667
0.1993,0.095559,0.59789,-0.60666,-6.8684,20.421,0.96725,-0.32242,-0.69213,1.2897,3.2433e-10,-0.34607,0,0,0.33333,-0,-0,0.66667
0.70058,0.52862,2.1018,0.042923,0.23732,4.1795,-0.24057,0.080191,-1.9942,-0.32076,8.8732e-12,-0.99708,0,0,0.33333,-0,-0,0.66667
0.27331,0.28183,0.81993,-0.32726,-3.4792,17.533,0.71554,-0.23851,-1.62,0.95406,7.888e-11,-0.80999,0,0,0.33333,-0,-0,0.66667
0.43642,0.72147,1.3093,0.33221,3.0715,11.746,-1.1599,0.38662,-1.6085,-1.5465,3.4384e-13,-0.80425,0,0,0.33333,1.579e-15,0,0.66667
0.82163,0.66364,2.4649,0.24545,0.82922,1.9014,-1.6134,0.53779,-1.7855,-2.1512,2.0123e-10,-0.89273,0,0,0.33333,-0,-0,0.66667
0.78306,0.18049,2.3492,-0.47927,-2.0592,2.7335,3.0024,-1.0008,-1.1834,4.0032,-2.7655e-10,-0.59171,0,0,0.33333,7.8949e-16,0,0.66667
0.85416,0.57525,2.5625,0.11288,0.30193,1.3628,-0.77135,0.25712,-1.954,-1.0285,-2.8905e-10,-0.97701,0,0,0.33333,-0,-0,0.66667
0.47905,0.26242,1.4372,-0.35636,-3.134,10.368,1.3657,-0.45525,-1.5478,1.821,-4.0379e-13,-0.7739,0,0,0.33333,-7.8949e-16,0,0.66667
0.92649,0.15387,2.7795,-0.5192,-0.72454,0.83514,3.8483,-1.2828,-1.0421,5.131,-2.9304e-08,-0.52104,0,0,0.33333,3.9475e-16,0,0.66667
0.031555,0.93274,0.094664,0.64911,7.6865,26.998,-0.16386,0.054619,-0.50259,-0.21848,-7.0221e-07,-0.2513,0,0,0.33333,1.2336e-17,0,0.66667
0.93828,0.7027,2.8148,0.30404,0.28824,0.51225,-2.2822,0.76075,-1.6711,-3.043,-1.1715e-09,-0.83555,0,0,0.33333,-0,-0,0.66667
0.34863,0.066985,1.0459,-0.64952,-6.7522,14.922,1.8115,-0.60385,-0.50014,2.4154,-2.5202e-13,-0.25007,0,0,0.33333,-7.8949e-16,0,0.66667
0.81282,0.82677,2.4385,0.49016,1.832,2.2385,-3.1873,1.0624,-1.1456,-4.2497,5.5848e-10,-0.57282,0,0,0.33333,-1.579e-15,0,0.66667
0.94832,0.039593,2.845,-0.69061,-0.77316,0.91719,5.2394,-1.7465,-0.30387,6.9858,1.3725e-07,-0.15193,0,0,0.33333,-0,-2.1212e-16,0.66667
0.89181,0.40842,2.6754,-0.13737,-0.25994,0.88838,0.98008,-0.32669,-1.9339,1.3068,1.6874e-08,-0.96694,0,0,0.33333,-0,-0,0.66667
0.69802,0.9162,2.0941,0.62431,3.7297,4.5986,-3.4862,1.1621,-0.61369,-4.6483,6.0714e-12,-0.30685,0,0,0.33333,-0,-0,0.66667
0.67018,0.22221,2.0105,-0.41668,-2.5863,5.0424,2.234,-0.74467,-1.3834,2.9787,-1.7593e-11,-0.69168,0,0,0.33333,-0,-0,0.66667
0.97358,0.6843,2.9207,0.27645,0.033642,0.23641,-2.1532,0.71773,-1.7286,-2.8709,-1.6708e-08,-0.86432,0,0,0.33333,-2.0802e-15,0,0.66667
0.46511,0.43215,1.3953,-0.10177,-0.89878,10.743,0.37867,-0.12622,-1.9633,0.5049,-2.1982e-14,-0.98165,0,0,0.33333,-5.9212e-16,0,0.66667
0.10402,0.46534,0.31205,-0.051992,-0.58697,24.077,0.043265,-0.014422,-1.9907,0.057686,-3.208e-08,-0.99535,0,0,0.33333,9.8686e-17,0,0.66667
0.024147,0.41298,0.072442,-0.13053,-1.4917,27.279,0.025216,-0.0084052,-1.9392,0.033621,1.2866e-07,-0.96958,0,0,0.33333,4.9343e-17,0,0.66667
0.8813,0.92694,2.6439,0.64042,1.615,1.4736,-4.5152,1.5051,-0.54114,-6.0203,8.5923e-09,-0.27057,0,0,0.33333,-0,-0,0.66667
0.026191,0.433,0.078573,-0.1005,-1.1475,27.196,0.021057,-0.0070201,-1.9642,0.028075,-1.7071e-06,-0.98212,0,0,0.33333,3.7007e-17,0,0.66667
0.95083,0.058909,2.8525,-0.66164,-0.67603,0.84958,5.0328,-1.6776,-0.44408,6.7104,2.0005e-07,-0.22204,0,0,0.33333,1.9737e-15,0,0.66667
0.56992,0.88755,1.7098,0.58133,4.5747,7.789,-2.6505,0.88349,-0.79767,-3.534,-1.0321e-12,-0.39884,0,0,0.33333,-0,-0,0.66667
0.65757,0.77338,1.9727,0.41007,2.6254,5.3423,-2.1572,0.71906,-1.4022,-2.8762,1.2136e-11,-0.70111,0,0,0.33333,3.9475e-16,0,0.66667
0.90917,0.27292,2.7275,-0.34062,-0.55108,0.81467,2.4775,-0.82582,-1.5873,3.3033,-8.391e-10,-0.79366,0,0,0.33333,-7.8949e-16,0,0.66667
0.90195,0.84431,2.7059,0.51647,0.99734,1.0723,-3.7267,1.2422,-1.0525,-4.9689,3.4011e-09,-0.52625,0,0,0.33333,-3.158e-15,0,0.66667
0.39086,0.59887,1.1726,0.1483,1.4246,13.246,-0.46372,0.15457,-1.9224,-0.6183,-2.9505e-12,-0.96122,0,0,0.33333,-7.8949e-16,0,0.66667
0.61254,0.039673,1.8376,-0.69049,-5.1156,6.7426,3.3836,-1.1279,-0.3046,4.5115,2.2293e-13,-0.1523,0,0,0.33333,-0,-0,0.66667
0.52184,0.63292,1.5655,0.19938,1.633,8.979,-0.83236,0.27745,-1.8583,-1.1098,-2.7378e-13,-0.92914,0,0,0.33333,-0,-0,0.66667
0.81704,0.11365,2.4511,-0.57953,-2.1757,2.275,3.788,-1.2627,-0.80528,5.0507,-5.672e-10,-0.40264,0,0,0.33333,-0,-0,0.66667
0.056183,0.87675,0.16855,0.56513,6.6177,26.015,-0.25401,0.084668,-0.86501,-0.33867,-1.0503e-07,-0.43251,0,0,0.33333,1.9737e-16,0,0.66667
0.62698,0.98826,1.8809,0.73239,5.3141,6.4202,-3.6735,1.2245,-0.092496,-4.8981,-4.7296e-14,-0.046248,0,0,0.33333,-0,-0,0.66667
0.42974,0.92015,1.2892,0.63022,6.058,12.133,-2.1667,0.72222,-0.587,-2.8889,5.7576e-13,-0.2935,0,0,0.33333,-7.8949e-16,0,0.66667
0.86093,0.77428,2.5828,0.41142,1.1099,1.4493,-2.8336,0.94454,-1.3984,-3.7782,8.181e-10,-0.69918,0,0,0.33333,1.579e-15,0,0.66667
0.68787,0.75936,2.0636,0.38905,2.2937,4.6078,-2.1409,0.71363,-1.462,-2.8545,3.124e-11,-0.73098,0,0,0.33333,-0,-0,0.66667
0.26102,0.80646,0.78307,0.45969,4.973,18.031,-0.95992,0.31997,-1.2486,-1.2799,-9.3581e-11,-0.62431,0,0,0.33333,1.9737e-16,0,0.66667
0.13424,0.024918,0.40272,-0.71262,-8.357,22.967,0.76529,-0.2551,-0.1942,1.0204,1.2526e-09,-0.097098,0,0,0.33333,-1.9737e-16,0,0.66667
0.54134,0.32024,1.624,-0.26964,-2.1505,8.4172,1.1678,-0.38925,-1.7412,1.557,3.9591e-13,-0.87058,0,0,0.33333,-0,-0,0.66667
0.9819,0.96711,2.9457,0.70066,0.24962,0.73137,-5.5038,1.8346,-0.25538,-7.3384,1.5e-06,-0.12769,0,0,0.33333,-1.8284e-15,0,0.66667
0.34991,0.32517,1.0497,-0.26224,-2.6273,14.712,0.73407,-0.24469,-1.7548,0.97877,1.3124e-11,-0.87738,0,0,0.33333,7.8949e-16,0,0.66667
0.99541,0.68646,2.9862,0.27969,-0.10973,0.12408,-2.2273,0.74243,-1.7227,-2.9697,6.0604e-09,-0.86133,0,0,0.33333,-4.9343e-16,0,0.66667
0.51808,0.83483,1.5542,0.50225,4.2477,9.2403,-2.0816,0.69387,-1.103,-2.7755,-5.0004e-13,-0.55148,0,0,0.33333,3.9475e-16,0,0.66667
0.19034,0.60302,0.57101,0.15453,1.7008,20.678,-0.2353,0.078432,-1.9149,-0.31373,-9.9871e-11,-0.95743,0,0,0.33333,-0,-0,0.66667
0.030616,0.62382,0.091847,0.18574,2.125,27.019,-0.045491,0.015164,-1.8786,-0.060655,2.061e-07,-0.9393,0,0,0.33333,-6.1679e-17,0,0.66667
0.30302,0.21196,0.90907,-0.43206,-4.5403,16.463,1.0474,-0.34913,-1.336,1.3965,3.5174e-11,-0.66801,0,0,0.33333,5.9212e-16,0,0.66667
0.035078,0.79402,0.10523,0.44102,5.1175,26.848,-0.12376,0.041254,-1.3079,-0.16502,1.2372e-08,-0.65394,0,0,0.33333,4.9343e-17,0,0.66667
0.59005,0.69449,1.7702,0.29174,2.1375,7.0326,-1.3771,0.45904,-1.6973,-1.8361,1.0684e-12,-0.84865,0,0,0.33333,-0,-0,0.66667
0.70162,0.70425,2.1049,0.30638,1.7178,4.2422,-1.7197,0.57323,-1.6659,-2.2929,4.6073e-11,-0.83296,0,0,0.33333,-7.8949e-16,0,0.66667
0.66999,0.56748,2.01,0.10121,0.6114,4.9011,-0.5425,0.18083,-1.964,-0.72334,1.1318e-11,-0.98199,0,0,0.33333,-0,-0,0.66667
0.35621,0.52222,1.0686,0.033323,0.32974,14.455,-0.09496,0.031653,-1.9958,-0.12661,-2.3193e-12,-0.9979,0,0,0.33333,-0,-0,0.66667
0.11164,0.33141,0.33493,-0.25288,-2.866,23.783,0.22586,-0.075287,-1.7723,0.30115,-6.1431e-11,-0.88613,0,0,0.33333,1.9737e-16,0,0.66667
0.64132,0.80213,1.924,0.4532,3.0338,5.7777,-2.3252,0.77506,-1.2697,-3.1002,5.0016e-12,-0.63485,0,0,0.33333,7.8949e-16,0,0.66667
0.063197,0.15304,0.18959,-0.52045,-6.063,25.732,0.26313,-0.087709,-1.0378,0.35083,-3.9117e-08,-0.5189,0,0,0.33333,-9.8686e-17,0,0.66667
0.64436,0.39764,1.9331,-0.15354,-0.99166,5.5451,0.79149,-0.26383,-1.9159,1.0553,-8.8594e-12,-0.95795,0,0,0.33333,7.8949e-16,0,0.66667
0.83529,0.12214,2.5059,-0.56679,-1.9142,1.9808,3.7875,-1.2625,-0.85811,5.0499,-6.2264e-10,-0.42906,0,0,0.33333,-2.1711e-15,0,0.66667
0.057159,0.43351,0.17148,-0.099729,-1.1357,25.952,0.045604,-0.015201,-1.9648,0.060805,-3.3213e-07,-0.98242,0,0,0.33333,9.1733e-18,0,0.66667
0.35587,0.93599,1.0676,0.65399,6.7626,14.67,-1.8619,0.62063,-0.48009,-2.4825,3.2452e-13,-0.24005,0,0,0.33333,-8.3884e-16,3.5756e-16,0.66667
0.61872,0.37724,1.8562,-0.18414,-1.2629,6.2168,0.91147,-0.30382,-1.8799,1.2153,-4.688e-12,-0.93995,0,0,0.33333,-0,-0,0.66667
0.6386,0.96193,1.9158,0.6929,4.8647,6.0803,-3.5399,1.18,-0.29308,-4.7198,-2.9221e-13,-0.14654,0,0,0.33333,-0,-0,0.66667
0.19794,0.37041,0.59382,-0.19438,-2.1354,20.386,0.3078,-0.1026,-1.8658,0.4104,1.7983e-10,-0.93289,0,0,0.33333,2.1589e-16,0,0.66667
0.62336,0.9519,1.8701,0.67785,4.901,6.4483,-3.3804,1.1268,-0.36594,-4.5072,-4.3232e-13,-0.18297,0,0,0.33333,-0,-0,0.66667
0.55754,0.80246,1.6726,0.45369,3.5841,8.0418,-2.0236,0.67454,-1.2676,-2.6982,-1.1262e-12,-0.63382,0,0,0.33333,7.8949e-16,0,0.66667
0.88572,0.99214,2.6572,0.73821,1.8956,1.5815,-5.2307,1.7436,-0.062117,-6.9743,7.6002e-09,-0.031059,0,0,0.33333,-0,-0,0.66667
0.69703,0.2449,2.0911,-0.38265,-2.1958,4.3946,2.1337,-0.71125,-1.4794,2.845,-3.9919e-11,-0.73969,0,0,0.33333,1.1842e-15,0,0.66667
0.36426,0.31484,1.0928,-0.27775,-2.7509,14.206,0.80938,-0.26979,-1.7262,1.0792,8.834e-12,-0.86312,0,0,0.33333,-0,-0,0.66667
0.22535,0.15108,0.67604,-0.52338,-5.8049,19.399,0.94353,-0.31451,-1.026,1.258,1.981e-10,-0.51301,0,0,0.33333,-6.394e-17,0,0.66667
0.61091,0.73881,1.8327,0.35821,2.533,6.5014,-1.7507,0.58355,-1.5436,-2.3342,2.4619e-12,-0.77179,0,0,0.33333,-7.8949e-16,0,0.66667
0.25557,0.89698,0.7667,0.59547,6.5505,18.285,-1.2175,0.40582,-0.73879,-1.6233,-4.6788e-11,-0.36939,0,0,0.33333,-0,-0,0.66667
0.075813,0.71899,0.22744,0.32849,3.7643,25.215,-0.19923,0.06641,-1.6175,-0.26564,6.548e-09,-0.80877,0,0,0.33333,1.9737e-16,0,0.66667
0.8227,0.6044,2.4681,0.1566,0.51992,1.8452,-1.0307,0.34356,-1.9122,-1.3743,1.7258e-10,-0.95612,0,0,0.33333,-0,-0,0.66667
0.22795,0.71192,0.68386,0.31788,3.4643,19.248,-0.5797,0.19323,-1.6405,-0.77293,-1.6252e-10,-0.82023,0,0,0.33333,1.9737e-16,0,0.66667
0.37955,0.3177,1.1387,-0.27345,-2.6703,13.667,0.83029,-0.27676,-1.7342,1.1071,5.2166e-12,-0.86711,0,0,0.33333,-0,-0,0.66667
0.84649,0.95893,2.5395,0.68839,2.2783,1.9922,-4.6617,1.5539,-0.31482,-6.2156,-8.9249e-11,-0.15741,0,0,0.33333,-0,-0,0.66667
0.10315,0.53457,0.30945,0.051858,0.58557,24.112,-0.042794,0.014265,-1.9907,-0.057058,3.0876e-08,-0.99536,0,0,0.33333,-3.9475e-16,0,0.66667
0.96939,0.034086,2.9082,-0.69887,-0.45188,0.79477,5.4198,-1.8066,-0.26434,7.2264,3.162e-06,-0.13217,0,0,0.33333,3.158e-15,0,0.66667
0.52282,0.72581,1.5685,0.33872,2.7963,9.0013,-1.4167,0.47224,-1.5918,-1.889,-4.8883e-13,-0.79589,0,0,0.33333,1.579e-15,0,0.66667
0.67334,0.94224,2.02,0.66336,4.267,5.2066,-3.5733,1.1911,-0.43589,-4.7644,3.2285e-13,-0.21794,0,0,0.33333,-0,-0,0.66667
0.73153,0.051846,2.1946,-0.67223,-3.6728,3.9443,3.9341,-1.3114,-0.39292,5.2454,-7.4045e-12,-0.19646,0,0,0.33333,7.8949e-16,0,0.66667
0.98098,0.20338,2.9429,-0.44493,-0.032983,0.35271,3.4918,-1.1639,-1.2955,4.6557,-2.5994e-08,-0.64777,0,0,0.33333,-1.1617e-15,0,0.66667
0.55276,0.046745,1.6583,-0.67988,-5.5951,8.3689,3.0065,-1.0022,-0.35571,4.0086,1.652e-13,-0.17785,0,0,0.33333,7.8949e-16,0,0.66667
0.69972,0.90663,2.0992,0.60995,3.6152,4.5443,-3.4144,1.1381,-0.67824,-4.5525,7.7791e-12,-0.33912,0,0,0.33333,-0,-0,0.66667
0.68269,0.78343,2.0481,0.42514,2.5557,4.7545,-2.3219,0.77397,-1.3579,-3.0959,2.4419e-11,-0.67896,0,0,0.33333,-1.579e-15,0,0.66667
0.63023,0.75449,1.8907,0.38173,2.5963,6.0095,-1.9246,0.64154,-1.482,-2.5662,5.1572e-12,-0.74102,0,0,0.33333,-0,-0,0.66667
0.79934,0.48237,2.398,-0.026446,-0.099171,2.206,0.16911,-0.056371,-1.9971,0.22548,-5.1405e-11,-0.99854,0,0,0.33333,-0,-0,0.66667
0.34565,0.64796,1.037,0.22194,2.2269,14.856,-0.61371,0.20457,-1.8248,-0.81828,-1.4073e-11,-0.91242,0,0,0.33333,-0,-0,0.66667
0.48189,0.93812,1.4457,0.65718,5.9658,10.474,-2.5335,0.8445,-0.46551,-3.378,7.1276e-14,-0.23276,0,0,0.33333,-0,3.0674e-17,0.66667
0.078123,0.46139,0.23437,-0.057908,-0.65707,25.112,0.036191,-0.012064,-1.9885,0.048255,-6.8562e-08,-0.99424,0,0,0.33333,-4.9343e-17,0,0.66667
0.91011,0.19459,2.7303,-0.45811,-0.77642,0.91891,3.3355,-1.1118,-1.2537,4.4473,-5.7545e-09,-0.62684,0,0,0.33333,-0,-0,0.66667
0.55923,0.050662,1.6777,-0.67401,-5.483,8.1786,3.0154,-1.0051,-0.3843,4.0205,2.6978e-13,-0.19215,0,0,0.33333,-6.6226e-16,-3.7156e-16,0.66667
0.52499,0.16856,1.575,-0.49716,-4.159,9.0286,2.088,-0.696,-1.1205,2.784,6.1151e-13,-0.56024,0,0,0.33333,-0,-0,0.66667
0.26695,0.35196,0.80086,-0.22206,-2.3567,17.751,0.47424,-0.15808,-1.8247,0.63233,6.8811e-11,-0.91237,0,0,0.33333,-0,-0,0.66667
0.89999,0.16742,2.7,-0.49887,-0.97526,1.0717,3.5919,-1.1973,-1.1145,4.7892,-5.803e-09,-0.55723,0,0,0.33333,-0,-0,0.66667
0.013914,0.98328,0.041741,0.72492,8.6696,27.7,-0.080694,0.026903,-0.13116,-0.10759,7.0083e-06,-0.065578,0,0,0.33333,-2.4672e-17,3.9281e-16,0.66667
0.097001,0.59699,0.291,0.14549,1.6477,24.359,-0.1129,0.037633,-1.9253,-0.15053,-2.011e-09,-0.96263,0,0,0.33333,-0,-0,0.66667
0.060075,0.82778,0.18022,0.49167,5.7152,25.854,-0.23629,0.078765,-1.14,-0.31506,1.7182e-08,-0.57002,0,0,0.33333,9.8686e-17,0,0.66667
0.24092,0.83077,0.72277,0.49615,5.4454,18.8,-0.95627,0.31876,-1.124,-1.275,-1.396e-10,-0.562,0,0,0.33333,3.9475e-16,0,0.66667
0.49685,0.89628,1.4905,0.59442,5.2433,9.9577,-2.3627,0.78757,-0.74335,-3.1503,-2.2204e-16,-0.37168,0,0,0.33333,-0,-0,0.66667
0.46352,0.045407,1.3906,-0.68189,-6.3556,11.076,2.5286,-0.84286,-0.34605,3.3714,-1.7275e-13,-0.17302,0,0,0.33333,-0,-0,0.66667
0.27055,0.65899,0.81164,0.23849,2.5273,17.619,-0.51617,0.17206,-1.7982,-0.68823,-6.9333e-11,-0.89911,0,0,0.33333,-0,-0,0.66667
0.55511,0.72119,1.6653,0.33179,2.5989,8.041,-1.4734,0.49115,-1.609,-1.9646,-6.0874e-13,-0.8045,0,0,0.33333,-0,-0,0.66667
0.22734,0.9578,0.68201,0.6867,7.7498,19.384,-1.2489,0.4163,-0.3227,-1.6652,-2.6021e-11,-0.16135,0,0,0.33333,-0,-0,0.66667
0.3657,0.53423,1.0971,0.051345,0.50392,14.119,-0.15021,0.050071,-1.991,-0.20028,-2.6389e-12,-0.99548,0,0,0.33333,7.8949e-16,0,0.66667
0.16996,0.63352,0.50989,0.20028,2.2254,21.477,-0.27232,0.090774,-1.8573,-0.36309,-3.0954e-10,-0.92867,0,0,0.33333,-0,-0,0.66667
0.66427,0.8092,1.9928,0.46379,2.9426,5.2209,-2.4647,0.82156,-1.2354,-3.2862,1.117e-11,-0.61772,0,0,0.33333,-9.8686e-16,0,0.66667
0.081667,0.11209,0.245,-0.58187,-6.8008,25.006,0.38016,-0.12672,-0.79563,0.50688,-6.2415e-09,-0.39782,0,0,0.33333,9.8686e-17,0,0.66667
0.34329,0.38553,1.0299,-0.1717,-1.7227,14.932,0.47155,-0.15718,-1.8952,0.62874,1.2875e-11,-0.9476,0,0,0.33333,7.8949e-16,0,0.66667
0.53103,0.68641,1.5931,0.27962,2.2688,8.7285,-1.1879,0.39596,-1.7234,-1.5838,-3.9801e-13,-0.86168,0,0,0.33333,8.3884e-16,0,0.66667
0.54953,0.13679,1.6486,-0.54482,-4.4134,8.3403,2.3952,-0.79839,-0.94422,3.1935,8.1668e-13,-0.47211,0,0,0.33333,1.579e-15,0,0.66667
0.36765,0.89809,1.103,0.59714,6.0696,14.223,-1.7563,0.58544,-0.73176,-2.3418,3.1342e-13,-0.36588,0,0,0.33333,-0,-0,0.66667
0.64375,0.6384,1.9313,0.2076,1.347,5.5773,-1.0691,0.35638,-1.8462,-1.4255,1.0249e-11,-0.92312,0,0,0.33333,-0,-0,0.66667
0.16445,0.23775,0.49334,-0.39338,-4.4266,21.718,0.51753,-0.17251,-1.449,0.69004,5.1839e-10,-0.72452,0,0,0.33333,-1.9475e-16,0,0.66667
0.7243,0.38051,2.1729,-0.17923,-0.92391,3.6877,1.0386,-0.34618,-1.8857,1.3847,-5.0408e-11,-0.94287,0,0,0.33333,1.579e-15,0,0.66667
0.92525,0.66774,2.7757,0.25161,0.30426,0.59193,-1.8624,0.62081,-1.7744,-2.4832,-1.4588e-08,-0.88722,0,0,0.33333,-0,-0,0.66667
0.98983,0.045843,2.9695,-0.68124,-0.095968,0.65943,5.3944,-1.7981,-0.34919,7.1926,-1.7049e-06,-0.17459,0,0,0.33333,-1.579e-15,0,0.66667
0.87848,0.077268,2.6354,-0.6341,-1.6314,1.4975,4.4564,-1.4855,-0.5698,5.9418,-4.5152e-09,-0.2849,0,0,0.33333,1.579e-15,0,0.66667
0.26092,0.73009,0.78276,0.34514,3.701,18.003,-0.72043,0.24014,-1.5759,-0.96057,-1.0052e-10,-0.78795,0,0,0.33333,-3.9475e-16,0,0.66667
0.038093,0.33015,0.11428,-0.25478,-2.9214,26.721,0.077643,-0.025881,-1.7684,0.10352,-3.4912e-08,-0.88421,0,0,0.33333,-4.9343e-17,0,0.66667
0.97403,0.18866,2.9221,-0.46701,-0.12055,0.41771,3.639,-1.213,-1.2253,4.852,-3.324e-08,-0.61264,0,0,0.33333,-0,-0,0.66667
0.55712,0.2772,1.6714,-0.3342,-2.6094,7.9839,1.4895,-0.4965,-1.6031,1.986,5.429e-13,-0.80154,0,0,0.33333,-9.8686e-16,0,0.66667
0.53971,0.13165,1.6191,-0.55252,-4.5516,8.6329,2.3856,-0.7952,-0.91431,3.1808,7.0077e-13,-0.45716,0,0,0.33333,-0,-0,0.66667
0.14646,0.18103,0.43938,-0.47846,-5.4528,22.437,0.5606,-0.18687,-1.1859,0.74747,1.1727e-09,-0.59294,0,0,0.33333,-9.8686e-17,0,0.66667
0.91249,0.54032,2.7375,0.060483,0.086411,0.64399,-0.44152,0.14717,-1.9865,-0.5887,5.6251e-08,-0.99325,0,0,0.33333,-1.579e-15,0,0.66667
0.95761,0.19209,2.8728,-0.46187,-0.29269,0.51631,3.5383,-1.1794,-1.2417,4.7178,3.2088e-08,-0.62085,0,0,0.33333,-3.158e-15,0,0.66667
0.85963,0.29768,2.5789,-0.30348,-0.80258,1.3783,2.087,-0.69568,-1.6724,2.7827,8.8997e-11,-0.83621,0,0,0.33333,1.579e-15,0,0.66667
0.69276,0.072768,2.0783,-0.64085,-3.8986,4.7353,3.5516,-1.1839,-0.53925,4.7355,-3.5369e-12,-0.26962,0,0,0.33333,-0,-0,0.66667
0.3859,0.10849,1.1577,-0.58727,-5.8652,13.585,1.813,-0.60434,-0.77305,2.4174,-6.6303e-13,-0.38653,0,0,0.33333,-0,-0,0.66667
0.92673,0.36692,2.7802,-0.19962,-0.22997,0.54919,1.4799,-0.4933,-1.858,1.9732,-4.0386e-08,-0.92901,0,0,0.33333,-7.8949e-16,0,0.66667
0.85447,0.47745,2.5634,-0.033828,-0.089869,1.3453,0.23124,-0.07708,-1.9956,0.30832,7.997e-11,-0.99778,0,0,0.33333,-1.579e-15,0,0.66667
0.83789,0.0019632,2.5137,-0.74706,-2.6676,2.2075,5.0076,-1.6692,-0.016213,6.6768,8.0822e-10,-0.0081067,0,0,0.33333,-0,-0,0.66667
0.58406,0.01764,1.7522,-0.72354,-5.6914,7.5402,3.3807,-1.1269,-0.13789,4.5076,1.5632e-13,-0.068946,0,0,0.33333,-0,-0,0.66667
0.069977,0.02375,0.20993,-0.71437,-8.4919,25.485,0.39992,-0.13331,-0.18514,0.53323,4.8137e-08,-0.092569,0,0,0.33333,9.8686e-17,0,0.66667
0.025655,0.76683,0.076964,0.40025,4.6328,27.223,-0.082146,0.027382,-1.4297,-0.10953,6.5307e-10,-0.71483,0,0,0.33333,-4.9343e-17,0,0.66667
0.2256,0.52562,0.67681,0.038427,0.4153,19.308,-0.069354,0.023118,-1.9946,-0.092471,-1.7449e-11,-0.99732,0,0,0.33333,-0,-0,0.66667
0.092302,0.687,0.27691,0.28049,3.1965,24.554,-0.20712,0.06904,-1.7215,-0.27616,8.6374e-09,-0.86077,0,0,0.33333,9.8686e-17,0,0.66667
0.74511,0.67919,2.2353,0.26878,1.2981,3.2953,-1.6022,0.53406,-1.7428,-2.1362,9.5565e-11,-0.8714,0,0,0.33333,7.8949e-16,0,0.66667
0.85106,0.74144,2.5532,0.36216,1.0362,1.5408,-2.4657,0.8219,-1.5332,-3.2876,3.6315e-10,-0.7666,0,0,0.33333,7.8949e-16,0,0.66667
0.54047,0.17388,1.6214,-0.48918,-3.9914,8.563,2.1151,-0.70503,-1.1484,2.8201,8.8907e-13,-0.57421,0,0,0.33333,7.8949e-16,0,0.66667
0.61127,0.96831,1.8338,0.70246,5.2295,6.7893,-3.4352,1.1451,-0.24673,-4.5802,-1.9873e-13,-0.12336,0,0,0.33333,-2.2204e-16,0,0.66667
0.47314,0.62937,1.4194,0.19405,1.7017,10.501,-0.7345,0.24483,-1.8663,-0.97933,1.5504e-13,-0.93316,0,0,0.33333,-0,-0,0.66667
0.93519,0.83149,2.8056,0.49723,0.5858,0.73168,-3.72,1.24,-1.1206,-4.96,-7.2209e-10,-0.56028,0,0,0.33333,-2.6865e-15,0,0.66667
0.61281,0.19283,1.8384,-0.46075,-3.2853,6.5194,2.2588,-0.75294,-1.2453,3.0118,-5.8886e-13,-0.62267,0,0,0.33333,-0,-0,0.66667
0.62036,0.7915,1.8611,0.43725,3.0593,6.3035,-2.17,0.72334,-1.3197,-2.8934,1.962e-12,-0.65986,0,0,0.33333,-0,-0,0.66667
0.85801,0.91771,2.574,0.62657,1.8733,1.7441,-4.3008,1.4336,-0.60392,-5.7344,2.3823e-09,-0.30196,0,0,0.33333,-0,3.6676e-16,0.66667
0.38374,0.13184,1.1512,-0.55224,-5.5036,13.639,1.6953,-0.56511,-0.91539,2.2604,-5.0071e-13,-0.45769,0,0,0.33333,-0,-0,0.66667
0.06411,0.67409,0.19233,0.26114,2.987,25.679,-0.13393,0.044645,-1.7572,-0.17858,7.7154e-09,-0.87861,0,0,0.33333,-9.8686e-17,0,0.66667
0.74015,0.34466,2.2204,-0.23301,-1.1415,3.3782,1.3797,-0.45989,-1.8077,1.8396,-7.8535e-11,-0.90386,0,0,0.33333,-0,-0,0.66667
0.84419,0.26199,2.5326,-0.35702,-1.07,1.6342,2.4111,-0.80371,-1.5467,3.2148,-2.408e-10,-0.77337,0,0,0.33333,-1.579e-15,0,0.66667
0.52023,0.13977,1.5607,-0.54035,-4.5777,9.2027,2.2488,-0.74962,-0.96118,2.9985,4.0368e-13,-0.48059,0,0,0.33333,-0,-0,0.66667
0.46764,0.72691,1.4029,0.34036,3.0335,10.727,-1.2733,0.42445,-1.5882,-1.6978,3.9879e-13,-0.79411,0,0,0.33333,1.579e-15,0,0.66667
0.098624,0.57044,0.29587,0.10566,1.1952,24.293,-0.083366,0.027789,-1.96,-0.11116,-9.4258e-09,-0.98,0,0,0.33333,-0,-0,0.66667
0.31326,0.64746,0.93977,0.22118,2.276,16.031,-0.5543,0.18477,-1.8262,-0.73907,-2.9843e-11,-0.91308,0,0,0.33333,-0,-0,0.66667
0.18739,0.077767,0.56216,-0.63335,-7.2273,20.887,0.94945,-0.31648,-0.57366,1.2659,2.635e-10,-0.28683,0,0,0.33333,-0,-0,0.66667
0.74742,0.024789,2.2423,-0.71282,-3.7351,3.683,4.2622,-1.4207,-0.1935,5.683,-1.7071e-12,-0.096748,0,0,0.33333,-0,-2.5897e-16,0.66667
0.16037,0.77034,0.4811,0.40551,4.5736,21.88,-0.52024,0.17341,-1.4148,-0.69366,-5.8888e-10,-0.70742,0,0,0.33333,-0,-0,0.66667
0.68463,0.69572,2.0539,0.29358,1.7267,4.6231,-1.608,0.53599,-1.6934,-2.144,3.1434e-11,-0.8467,0,0,0.33333,-0,-0,0.66667
0.44067,0.24092,1.322,-0.38862,-3.592,11.629,1.37,-0.45667,-1.4628,1.8267,-8.3933e-13,-0.73139,0,0,0.33333,3.9475e-16,0,0.66667
0.0042513,0.93655,0.012754,0.65482,7.7669,28.081,-0.022271,0.0074208,-0.47627,-0.029696,-4.3476e-06,-0.23813,0,0,0.33333,-1.542e-18,9.3469e-17,0.66667
0.70234,0.12995,2.107,-0.55508,-3.2288,4.4268,3.1188,-1.0396,-0.90505,4.1585,-1.8506e-11,-0.45253,0,0,0.33333,-0,-2.2023e-16,0.66667
0.79289,0.32764,2.3787,-0.25855,-1.0192,2.3884,1.64,-0.54667,-1.7617,2.1867,-1.5903e-10,-0.88084,0,0,0.33333,-0,-0,0.66667
0.33849,0.31614,1.0155,-0.27579,-2.7912,15.126,0.74681,-0.24894,-1.7298,0.99575,1.8122e-11,-0.86492,0,0,0.33333,-7.8949e-16,0,0.66667
0.47734,0.20532,1.432,-0.44202,-3.9274,10.467,1.6879,-0.56264,-1.3045,2.2506,-4.3154e-13,-0.65227,0,0,0.33333,-1.3548e-15,0,0.66667
0.048717,0.11058,0.14615,-0.58413,-6.8589,26.313,0.22766,-0.075885,-0.78644,0.30354,-7.8921e-08,-0.39322,0,0,0.33333,-0,-0,0.66667
0.22657,0.15863,0.67971,-0.51205,-5.6697,19.349,0.92813,-0.30938,-1.0682,1.2375,2.0396e-10,-0.53408,0,0,0.33333,-0,-0,0.66667
0.69626,0.28613,2.0888,-0.3208,-1.8305,4.3715,1.7869,-0.59562,-1.6341,2.3825,-4.1278e-11,-0.81705,0,0,0.33333,-0,-0,0.66667
0.14114,0.030166,0.42341,-0.70475,-8.2404,22.696,0.79573,-0.26524,-0.23535,1.061,2.2975e-09,-0.11768,0,0,0.33333,-2.2204e-16,0,0.66667
0.23059,0.78913,0.69177,0.43369,4.7592,19.174,-0.80004,0.26668,-1.331,-1.0667,-1.9815e-10,-0.66552,0,0,0.33333,7.8949e-16,0,0.66667
0.69479,0.574,2.0844,0.11099,0.62563,4.3209,-0.61693,0.20564,-1.9555,-0.82258,2.0097e-11,-0.97775,0,0,0.33333,-0,-0,0.66667
0.068365,0.09101,0.2051,-0.61349,-7.209,25.536,0.33553,-0.11184,-0.66221,0.44737,5.6544e-08,-0.33111,0,0,0.33333,4.9343e-17,0,0.66667
0.72933,0.67694,2.188,0.2654,1.3553,3.6183,-1.5485,0.51618,-1.749,-2.0647,7.381e-11,-0.8745,0,0,0.33333,7.8949e-16,0,0.66667
0.62746,0.66786,1.8824,0.25179,1.7016,6.0122,-1.2639,0.4213,-1.7742,-1.6852,6.6581e-12,-0.88711,0,0,0.33333,-0,-0,0.66667
0.65207,0.26076,1.9562,-0.35886,-2.3139,5.4433,1.872,-0.624,-1.5416,2.496,-1.2364e-11,-0.77081,0,0,0.33333,-0,-0,0.66667
0.32147,0.049843,0.9644,-0.67524,-7.1909,15.905,1.7365,-0.57884,-0.37813,2.3154,5.2092e-13,-0.18907,0,0,0.33333,-3.9475e-16,0,0.66667
0.53844,0.55079,1.6153,0.076179,0.60514,8.4551,-0.32814,0.10938,-1.9787,-0.43752,-8.4099e-14,-0.98933,0,0,0.33333,7.8949e-16,0,0.66667
0.078783,0.4845,0.23635,-0.023243,-0.26364,25.085,0.014649,-0.0048829,-1.9979,0.019532,4.3097e-08,-0.99894,0,0,0.33333,-9.8686e-17,0,0.66667
0.28452,0.3005,0.85355,-0.29925,-3.1535,17.109,0.68112,-0.22704,-1.6811,0.90816,6.1079e-11,-0.84057,0,0,0.33333,-3.9475e-16,0,0.66667
0.20287,0.72393,0.6086,0.33589,3.7081,20.215,-0.54512,0.18171,-1.5995,-0.72683,-2.251e-10,-0.79975,0,0,0.33333,-0,-0,0.66667
0.51135,0.74782,1.534,0.37173,3.1308,9.3669,-1.5207,0.50689,-1.5093,-2.0276,-3.2396e-13,-0.75464,0,0,0.33333,-8.8818e-16,0,0.66667
0.65221,0.47814,1.9566,-0.032787,-0.20699,5.3287,0.17107,-0.057023,-1.9958,0.22809,-2.6229e-12,-0.9979,0,0,0.33333,-0,-0,0.66667
0.61509,0.40338,1.8453,-0.14493,-0.9998,6.3025,0.71316,-0.23772,-1.9257,0.95088,-3.5962e-12,-0.96285,0,0,0.33333,7.8949e-16,0,0.66667
0.13364,0.5529,0.40091,0.079344,0.88936,22.901,-0.084826,0.028275,-1.9771,-0.1131,-1.374e-09,-0.98853,0,0,0.33333,-9.8686e-17,0,0.66667
0.18016,0.45509,0.54047,-0.067359,-0.7431,21.07,0.097081,-0.03236,-1.9831,0.12944,1.413e-10,-0.99154,0,0,0.33333,1.9737e-16,0,0.66667
0.49726,0.89243,1.4918,0.58865,5.1853,9.9406,-2.3417,0.78056,-0.7675,-3.1222,-6.8612e-14,-0.38375,0,0,0.33333,7.8949e-16,0,0.66667
0.020049,0.61707,0.060147,0.1756,2.0096,27.444,-0.028166,0.0093886,-1.8901,-0.037555,-1.1337e-07,-0.94505,0,0,0.33333,-1.2336e-17,0,0.66667
0.73614,0.27412,2.2084,-0.33883,-1.7053,3.5201,1.9954,-0.66513,-1.5919,2.6605,-9.458e-11,-0.79597,0,0,0.33333,-0,-0,0.66667
0.59242,0.081343,1.7773,-0.62799,-4.7815,7.2115,2.9763,-0.99209,-0.59757,3.9684,8.6109e-13,-0.29879,0,0,0.33333,-0,-0,0.66667
0.15883,0.34742,0.4765,-0.22888,-2.5561,21.916,0.29082,-0.096942,-1.8143,0.38777,2.3151e-10,-0.90713,0,0,0.33333,-0,-0,0.66667
0.91731,0.97515,2.7519,0.71273,1.3156,1.2121,-5.2303,1.7434,-0.19376,-6.9738,2.2196e-08,-0.096878,0,0,0.33333,-0,-5.0678e-16,0.66667
0.54373,0.84745,1.6312,0.52117,4.2479,8.4909,-2.267,0.75566,-1.0347,-3.0227,-8.8929e-13,-0.51734,0,0,0.33333,-1.579e-15,0,0.66667
0.99776,0.065581,2.9933,-0.65163,0.05822,0.57458,5.2014,-1.7338,-0.4909,6.9351,-7.181e-06,-0.24545,0,0,0.33333,3.158e-15,4.2101e-16,0.66667
0.042324,0.2771,0.12697,-0.33435,-3.8487,26.554,0.11321,-0.037736,-1.6028,0.15094,-6.7091e-09,-0.80139,0,0,0.33333,-2.4672e-17,0,0.66667
0.81295,0.48425,2.4388,-0.023619,-0.082351,1.9766,0.15361,-0.051202,-1.9979,0.20481,5.9961e-11,-0.99893,0,0,0.33333,-0,-0,0.66667
0.077381,0.34908,0.23214,-0.22638,-2.5803,25.146,0.14014,-0.046714,-1.8183,0.18686,-2.0134e-08,-0.90915,0,0,0.33333,-1.9737e-16,0,0.66667
0.94025,0.052189,2.8207,-0.67172,-0.85698,0.94558,5.0526,-1.6842,-0.39541,6.7368,-1.2421e-07,-0.19771,0,0,0.33333,-7.8949e-16,0,0.66667
0.36144,0.74681,1.0843,0.37022,3.6989,14.335,-1.0705,0.35683,-1.5133,-1.4273,-7.7458e-12,-0.75666,0,0,0.33333,5.9212e-16,0,0.66667
0.66661,0.32439,1.9998,-0.26341,-1.6216,5.0352,1.4047,-0.46825,-1.7527,1.873,-2.0186e-11,-0.87633,0,0,0.33333,-0,-0,0.66667
0.71461,0.3643,2.1438,-0.20355,-1.0853,3.9056,1.1637,-0.38789,-1.8522,1.5516,-4.7824e-11,-0.9261,0,0,0.33333,-0,-0,0.66667
0.7131,0.18449,2.1393,-0.47327,-2.6251,4.1121,2.6999,-0.89997,-1.204,3.5999,-4.6012e-11,-0.60198,0,0,0.33333,1.9737e-16,0,0.66667
0.69395,0.019381,2.0819,-0.72093,-4.453,4.8096,4.0023,-1.3341,-0.15135,5.3364,-1.4566e-13,-0.075677,0,0,0.33333,-0,-0,0.66667
0.01165,0.79441,0.034949,0.44162,5.1304,27.784,-0.041158,0.013719,-1.306,-0.054877,-1.9809e-08,-0.65298,0,0,0.33333,2.4672e-17,0,0.66667
0.22048,0.35625,0.66143,-0.21562,-2.3463,19.518,0.38032,-0.12677,-1.8344,0.50709,1.203e-10,-0.91719,0,0,0.33333,3.9475e-16,0,0.66667
0.79727,0.76274,2.3918,0.39411,1.5568,2.4063,-2.5137,0.83791,-1.4476,-3.3516,3.0159e-10,-0.72382,0,0,0.33333,-0,-0,0.66667
0.78697,0.43065,2.3609,-0.10403,-0.41569,2.4345,0.65493,-0.21831,-1.9613,0.87324,-3.8324e-11,-0.98065,0,0,0.33333,7.8949e-16,0,0.66667
0.80166,0.25381,2.405,-0.36928,-1.4203,2.3112,2.3683,-0.78944,-1.5154,3.1578,-2.8447e-10,-0.7577,0,0,0.33333,-0,-0,0.66667
0.0078286,0.73778,0.023486,0.35666,4.1187,27.936,-0.022337,0.0074458,-1.547,-0.029783,-3.0014e-09,-0.77348,0,0,0.33333,-1.2336e-17,0,0.66667
0.041346,0.66354,0.12404,0.2453,2.8108,26.59,-0.081139,0.027046,-1.7858,-0.10819,5.5706e-08,-0.89289,0,0,0.33333,-0,-0,0.66667
0.073826,0.71318,0.22148,0.31977,3.6637,25.293,-0.18886,0.062952,-1.6365,-0.25181,3.8948e-09,-0.81824,0,0,0.33333,-9.8686e-17,0,0.66667
0.87375,0.85433,2.6212,0.53149,1.3545,1.4153,-3.7151,1.2384,-0.99548,-4.9535,1.1247e-09,-0.49774,0,0,0.33333,-0,-4.5245e-17,0.66667
0.47744,0.18345,1.4323,-0.47483,-4.2331,10.483,1.8136,-0.60454,-1.1985,2.4181,-6.3183e-13,-0.59925,0,0,0.33333,3.9475e-16,0,0.66667
0.73172,0.38486,2.1952,-0.17272,-0.86748,3.5286,1.011,-0.33701,-1.8937,1.3481,-5.5329e-11,-0.94684,0,0,0.33333,-0,-0,0.66667
0.21832,0.011827,0.65495,-0.73226,-8.3483,19.744,1.2789,-0.42631,-0.093436,1.7052,2.4856e-11,-0.046718,0,0,0.33333,-0,-0,0.66667
0.66983,0.74717,2.0095,0.37076,2.2895,5.0185,-1.9867,0.66225,-1.512,-2.649,2.0149e-11,-0.75599,0,0,0.33333,9.8686e-16,0,0.66667
0.44403,0.31563,1.3321,-0.27655,-2.525,11.474,0.98238,-0.32746,-1.7284,1.3098,-2.7828e-13,-0.86418,0,0,0.33333,1.579e-15,0,0.66667
0.98864,0.26339,2.9659,-0.35492,0.064456,0.21895,2.8071,-0.9357,-1.5515,3.7428,-8.8183e-09,-0.77574,0,0,0.33333,-0,-0,0.66667
0.28625,0.46239,0.85874,-0.05642,-0.58883,17.011,0.1292,-0.043067,-1.9886,0.17227,1.4699e-11,-0.99428,0,0,0.33333,5.9212e-16,0,0.66667
0.10849,0.67679,0.32548,0.26519,3.0095,23.909,-0.23017,0.076723,-1.7499,-0.30689,-7.3254e-10,-0.87494,0,0,0.33333,9.8686e-17,0,0.66667
0.5469,0.11601,1.6407,-0.57598,-4.7066,8.4421,2.52,-0.84001,-0.82065,3.3601,7.1054e-13,-0.41032,0,0,0.33333,-0,-0,0.66667
0.68117,0.99277,2.0435,0.73916,4.7419,5.1218,-4.028,1.3427,-0.057108,-5.3706,-7.0166e-14,-0.028554,0,0,0.33333,-7.8949e-16,0,0.66667
0.13472,0.42222,0.40416,-0.11667,-1.3082,22.859,0.12574,-0.041914,-1.9508,0.16766,1.0148e-09,-0.97542,0,0,0.33333,3.7832e-17,0,0.66667
0.53924,0.84777,1.6177,0.52165,4.2825,8.6227,-2.2504,0.75013,-1.0326,-3.0005,-8.1579e-13,-0.51629,0,0,0.33333,-0,-0,0.66667
0.74439,0.19068,2.2332,-0.46399,-2.3155,3.4517,2.7631,-0.92103,-1.2349,3.6841,-1.0649e-10,-0.61744,0,0,0.33333,-0,-0,0.66667
0.11184,0.55352,0.33553,0.080277,0.90498,23.766,-0.071827,0.023942,-1.9769,-0.09577,-6.3694e-09,-0.98846,0,0,0.33333,-0,-0,0.66667
0.78567,0.93562,2.357,0.65343,2.9091,2.8937,-4.107,1.369,-0.48253,-5.4761,1.0224e-10,-0.24126,0,0,0.33333,1.9737e-15,0,0.66667
0.54416,0.41552,1.6325,-0.12671,-0.99851,8.2928,0.55162,-0.18387,-1.9427,0.73549,1.7153e-14,-0.97135,0,0,0.33333,-0,-0,0.66667
0.010525,0.60215,0.031574,0.15322,1.7528,27.827,-0.012901,0.0043003,-1.9162,-0.017201,1.1118e-07,-0.95808,0,0,0.33333,-0,-0,0.66667
0.5891,0.8754,1.7673,0.5631,4.2689,7.2411,-2.6537,0.88458,-0.87355,-3.5383,-1.2039e-12,-0.43677,0,0,0.33333,-0,-0,0.66667
0.80467,0.79198,2.414,0.43798,1.6843,2.3201,-2.8194,0.9398,-1.3173,-3.7592,3.9674e-10,-0.65866,0,0,0.33333,-0,-0,0.66667
0.99094,0.46195,2.9728,-0.05707,0.020754,0.045737,0.45243,-0.15081,-1.9882,0.60323,1.9597e-06,-0.99408,0,0,0.33333,5.8676e-16,0,0.66667
0.99131,0.64842,2.9739,0.22264,-0.072189,0.10516,-1.7656,0.58854,-1.8234,-2.3541,6.4721e-09,-0.91169,0,0,0.33333,1.579e-15,0,0.66667
0.41395,0.13027,1.2419,-0.55459,-5.3681,12.609,1.8366,-0.6122,-0.90634,2.4488,-9.9276e-13,-0.45317,0,0,0.33333,-0,-0,0.66667
0.037335,0.10977,0.11201,-0.58534,-6.8808,26.765,0.17483,-0.058276,-0.78101,0.23311,9.8781e-08,-0.3905,0,0,0.33333,5.1297e-18,0,0.66667
0.97041,0.53089,2.9112,0.04634,0.0054917,0.15973,-0.35975,0.11992,-1.9936,-0.47966,3.4613e-06,-0.99682,0,0,0.33333,1.6777e-15,0,0.66667
0.22054,0.39546,0.66162,-0.15682,-1.7028,19.509,0.27667,-0.092225,-1.9123,0.3689,8.7599e-11,-0.95617,0,0,0.33333,-1.9737e-16,0,0.66667
0.95501,0.65072,2.865,0.22608,0.11872,0.32805,-1.7273,0.57576,-1.8186,-2.303,-4.4578e-08,-0.90929,0,0,0.33333,7.8949e-16,0,0.66667
0.96537,0.38426,2.8961,-0.17361,-0.045938,0.22863,1.3407,-0.44692,-1.8925,1.7877,7.1486e-08,-0.94627,0,0,0.33333,-0,-0,0.66667
0.32834,0.055942,0.98501,-0.66609,-7.0493,15.653,1.7496,-0.5832,-0.42296,2.3328,3.2496e-13,-0.21148,0,0,0.33333,-3.9475e-16,0,0.66667
0.76276,0.99924,2.2883,0.74887,3.7568,3.4446,-4.5696,1.5232,-0.0070722,-6.0928,-5.0329e-12,-0.0035361,0,0,0.33333,-0,-3.7284e-17,0.66667
0.63192,0.10669,1.8958,-0.58996,-4.1213,6.1365,2.9825,-0.99416,-0.76171,3.9766,2.1627e-13,-0.38086,0,0,0.33333,-0,-0,0.66667
0.84643,0.89218,2.5393,0.58827,1.8696,1.8488,-3.9834,1.3278,-0.76908,-5.3112,1.074e-09,-0.38454,0,0,0.33333,-0,-0,0.66667
0.9544,0.37234,2.8632,-0.19148,-0.10037,0.31418,1.462,-0.48734,-1.8705,1.9494,-1.3555e-07,-0.93525,0,0,0.33333,3.9475e-16,0,0.66667
0.2058,0.9087,0.61741,0.61306,6.9264,20.174,-1.0094,0.33645,-0.6644,-1.3458,-2.0496e-10,-0.3322,0,0,0.33333,-0,-0,0.66667
0.40934,0.34792,1.228,-0.22812,-2.158,12.625,0.74705,-0.24902,-1.8153,0.99606,1.4621e-12,-0.90767,0,0,0.33333,-0,-0,0.66667
0.72856,0.051773,2.1857,-0.67234,-3.7086,4.0053,3.9187,-1.3062,-0.39214,5.2249,-6.8698e-12,-0.19607,0,0,0.33333,7.8949e-16,0,0.66667
0.58992,0.70393,1.7698,0.30589,2.2445,7.0429,-1.4436,0.4812,-1.6667,-1.9248,9.1449e-13,-0.83335,0,0,0.33333,-0,-0,0.66667
0.9412,0.40722,2.8236,-0.13917,-0.11225,0.39626,1.0479,-0.34929,-1.932,1.3972,-2.1937e-07,-0.96602,0,0,0.33333,-0,-0,0.66667
0.44689,0.077457,1.3407,-0.63381,-5.9812,11.573,2.2659,-0.75532,-0.57088,3.0213,-5.1892e-13,-0.28544,0,0,0.33333,-0,-0,0.66667
0.61758,0.92022,1.8528,0.63033,4.571,6.546,-3.1143,1.0381,-0.58653,-4.1523,-6.8678e-13,-0.29326,0,0,0.33333,-0,-0,0.66667
0.082488,0.1309,0.24746,-0.55365,-6.4517,24.97,0.36536,-0.12179,-0.9101,0.48714,1.3382e-08,-0.45505,0,0,0.33333,-0,-0,0.66667
0.23041,0.76424,0.69124,0.39636,4.3371,19.171,-0.7306,0.24353,-1.4408,-0.97414,-1.9193e-10,-0.7204,0,0,0.33333,3.9475e-16,0,0.66667
0.12199,0.112,0.36596,-0.582,-6.745,23.417,0.56797,-0.18932,-0.79516,0.75729,4.0437e-09,-0.39758,0,0,0.33333,-0,-6.8304e-17,0.66667
0.76669,0.71463,2.3001,0.32194,1.4392,2.9047,-1.9746,0.65821,-1.6321,-2.6328,1.5094e-10,-0.81607,0,0,0.33333,-7.8949e-16,0,0.66667
0.019268,0.29361,0.057805,-0.30959,-3.5639,27.477,0.047723,-0.015908,-1.6587,0.06363,-1.3689e-08,-0.82934,0,0,0.33333,-0,-0,0.66667
0.941,0.45598,2.823,-0.066025,-0.052517,0.37908,0.49703,-0.16568,-1.984,0.66271,-2.1437e-07,-0.99198,0,0,0.33333,-0,-0,0.66667
0.83589,0.039249,2.5077,-0.69113,-2.4379,2.1463,4.6216,-1.5405,-0.30126,6.1622,-4.0474e-10,-0.15063,0,0,0.33333,-0,-0,0.66667
0.67901,0.97084,2.037,0.70627,4.521,5.1282,-3.8365,1.2788,-0.22692,-5.1153,-4.3299e-14,-0.11346,0,0,0.33333,-0,-0,0.66667
0.02865,0.93276,0.08595,0.64913,7.6882,27.113,-0.14878,0.049593,-0.50212,-0.19838,-1.3609e-06,-0.25106,0,0,0.33333,-1.2336e-17,0,0.66667
0.2579,0.43741,0.77369,-0.093888,-0.99781,18.078,0.19371,-0.064569,-1.9695,0.25828,3.8596e-11,-0.98477,0,0,0.33333,1.7887e-16,0,0.66667
0.13628,0.84959,0.40885,0.52439,6.0195,22.845,-0.57172,0.19057,-1.0223,-0.76229,-3.2313e-09,-0.51114,0,0,0.33333,-0,-0,0.66667
0.7107,0.32717,2.1321,-0.25925,-1.4065,4.0157,1.474,-0.49132,-1.7602,1.9653,-5.1984e-11,-0.88011,0,0,0.33333,1.579e-15,0,0.66667
0.069466,0.086263,0.2084,-0.62061,-7.2972,25.494,0.34489,-0.11496,-0.63023,0.45985,3.3351e-08,-0.31511,0,0,0.33333,-9.8686e-17,0,0.66667
0.88989,0.4529,2.6697,-0.070649,-0.13558,0.89436,0.50295,-0.16765,-1.982,0.67061,-3.5846e-09,-0.99102,0,0,0.33333,-0,-0,0.66667
0.55437,0.26041,1.6631,-0.35939,-2.8258,8.0765,1.5939,-0.53129,-1.5401,2.1252,7.5617e-13,-0.77007,0,0,0.33333,-1.579e-15,0,0.66667
0.10339,0.14302,0.31017,-0.53547,-6.2039,24.141,0.4429,-0.14763,-0.97977,0.59053,1.2344e-09,-0.48989,0,0,0.33333,-0,-0,0.66667
0.46053,0.62673,1.3816,0.1901,1.6936,10.908,-0.70036,0.23345,-1.8721,-0.93381,1.8086e-13,-0.93603,0,0,0.33333,-1.579e-15,0,0.66667
0.14199,0.44494,0.42596,-0.082593,-0.92354,22.571,0.093815,-0.031272,-1.9759,0.12509,1.5685e-09,-0.98795,0,0,0.33333,-0,-0,0.66667
0.42314,0.39424,1.2694,-0.15863,-1.4744,12.142,0.537,-0.179,-1.9103,0.716,8.7486e-13,-0.95516,0,0,0.33333,-3.9475e-16,0,0.66667
0.71387,0.435,2.1416,-0.097497,-0.51782,3.8913,0.5568,-0.1856,-1.9667,0.7424,-2.5224e-11,-0.98335,0,0,0.33333,1.1842e-15,0,0.66667
0.69629,0.95678,2.0889,0.68517,4.1697,4.711,-3.8166,1.2722,-0.3301,-5.0889,1.1504e-12,-0.16505,0,0,0.33333,-0,-0,0.66667
0.34815,0.67045,1.0444,0.25567,2.5643,14.774,-0.71209,0.23736,-1.7669,-0.94945,-1.3714e-11,-0.88346,0,0,0.33333,-0,-0,0.66667
0.34876,0.60419,1.0463,0.15629,1.5601,14.733,-0.43605,0.14535,-1.9126,-0.58141,-1.0498e-11,-0.95631,0,0,0.33333,-0,-0,0.66667
0.076125,0.95097,0.22837,0.67645,7.9967,25.238,-0.41195,0.13732,-0.37267,-0.54927,-5.6454e-09,-0.18633,0,0,0.33333,-0,-0,0.66667
0.087513,0.65898,0.26254,0.23848,2.7147,24.742,-0.16696,0.055652,-1.7982,-0.22261,-1.5586e-08,-0.89909,0,0,0.33333,-0,-0,0.66667
0.049881,0.17337,0.14964,-0.48995,-5.7009,26.26,0.19551,-0.065171,-1.146,0.26069,-2.7571e-08,-0.57298,0,0,0.33333,-0,-0,0.66667
0.074476,0.088519,0.22343,-0.61722,-7.2494,25.295,0.36775,-0.12258,-0.64561,0.49033,9.9255e-08,-0.32281,0,0,0.33333,-1.4803e-16,1.1063e-17,0.66667
0.38509,0.84141,1.1553,0.51212,5.0747,13.57,-1.5777,0.5259,-1.068,-2.1036,1.0791e-13,-0.53399,0,0,0.33333,2.9606e-16,0,0.66667
0.81637,0.95834,2.4491,0.68751,2.6877,2.4345,-4.4901,1.4967,-0.31898,-5.9868,4.7272e-11,-0.15949,0,0,0.33333,-0,-0,0.66667
0.34118,0.49237,1.0235,-0.01145,-0.11473,14.994,0.031253,-0.010418,-1.9995,0.041671,1.0813e-12,-0.99975,0,0,0.33333,-3.9475e-16,0,0.66667
0.50612,0.15198,1.5184,-0.52203,-4.5027,9.6184,2.1137,-0.70455,-1.0312,2.8182,9.9254e-14,-0.5156,0,0,0.33333,2.9968e-16,0,0.66667
0.62349,0.73148,1.8705,0.34721,2.3877,6.1633,-1.7319,0.57729,-1.5711,-2.3092,4.6753e-12,-0.78553,0,0,0.33333,-0,-0,0.66667
0.58529,0.71946,1.7559,0.3292,2.4421,7.1827,-1.5414,0.5138,-1.6154,-2.0552,3.1541e-13,-0.80772,0,0,0.33333,1.579e-15,0,0.66667
0.13388,0.96206,0.40163,0.69309,8.109,22.976,-0.7423,0.24743,-0.29175,-0.98974,-2.8478e-09,-0.14587,0,0,0.33333,9.8686e-17,0,0.66667
0.61941,0.69096,1.8582,0.28644,1.9757,6.2382,-1.4194,0.47313,-1.7086,-1.8925,4.848e-12,-0.85428,0,0,0.33333,-0,-0,0.66667
0.52236,0.29755,1.5671,-0.30367,-2.5016,8.9997,1.269,-0.423,-1.6713,1.692,4.8284e-13,-0.83566,0,0,0.33333,-6.1859e-16,0,0.66667
0.75148,0.084566,2.2544,-0.62315,-3.1424,3.4846,3.7463,-1.2488,-0.61928,4.995,-3.9008e-11,-0.30964,0,0,0.33333,-7.8949e-16,0,0.66667
0.67568,0.23686,2.027,-0.39471,-2.4077,4.896,2.1336,-0.7112,-1.4455,2.8448,-2.2162e-11,-0.72273,0,0,0.33333,7.8949e-16,0,0.66667
0.47896,0.36711,1.4369,-0.19933,-1.7352,10.316,0.76377,-0.25459,-1.8584,1.0184,-1.0247e-13,-0.9292,0,0,0.33333,-7.8949e-16,0,0.66667
0.95613,0.64978,2.8684,0.22466,0.11204,0.31903,-1.7185,0.57282,-1.8206,-2.2913,-3.6065e-08,-0.91029,0,0,0.33333,-0,-0,0.66667
0.26092,0.3591,0.78275,-0.21135,-2.2501,17.977,0.44117,-0.14706,-1.8405,0.58822,7.2758e-11,-0.92024,0,0,0.33333,-0,-0,0.66667
0.71065,0.80208,2.1319,0.45312,2.5236,4.1477,-2.5761,0.85869,-1.2693,-3.4348,4.6397e-11,-0.63467,0,0,0.33333,-7.8949e-16,0,0.66667
0.20164,0.60542,0.60493,0.15812,1.7322,20.239,-0.25507,0.085025,-1.9109,-0.3401,-7.8067e-11,-0.95544,0,0,0.33333,-0,-0,0.66667
0.66362,0.81815,1.9909,0.47722,3.039,5.2479,-2.5336,0.84452,-1.1901,-3.3781,9.9629e-12,-0.59507,0,0,0.33333,-1.579e-15,0,0.66667
0.24952,0.23314,0.74855,-0.4003,-4.3375,18.447,0.79904,-0.26635,-1.4301,1.0654,1.3116e-10,-0.71505,0,0,0.33333,-0,-0,0.66667
0.20625,0.31008,0.61874,-0.28489,-3.131,20.076,0.47006,-0.15669,-1.7121,0.62674,1.7542e-10,-0.85605,0,0,0.33333,-1.4803e-16,0,0.66667
0.37017,0.025093,1.1105,-0.71236,-7.3363,14.21,2.1096,-0.70319,-0.19563,2.8128,-3.0642e-13,-0.097813,0,0,0.33333,3.9475e-16,0,0.66667
0.50886,0.39287,1.5266,-0.16069,-1.3396,9.3672,0.65415,-0.21805,-1.9074,0.8722,6.3616e-14,-0.95371,0,0,0.33333,-0,-0,0.66667
0.68093,0.94056,2.0428,0.66084,4.167,5.0278,-3.5999,1.2,-0.44755,-4.7998,7.4762e-13,-0.22377,0,0,0.33333,1.579e-15,0,0.66667
0.3096,0.69843,0.92879,0.29764,3.0831,16.181,-0.73719,0.24573,-1.6846,-0.98292,-3.592e-11,-0.84232,0,0,0.33333,-7.8949e-16,0,0.66667
0.38234,0.014758,1.147,-0.72786,-7.4329,13.802,2.2263,-0.7421,-0.11551,2.9684,-8.793e-14,-0.057757,0,0,0.33333,-1.579e-15,0,0.66667
0.76093,0.98273,2.2828,0.7241,3.6294,3.4416,-4.4079,1.4693,-0.13509,-5.8772,4.5621e-12,-0.067546,0,0,0.33333,-1.579e-15,0,0.66667
0.33003,0.69773,0.99009,0.29659,3.0255,15.436,-0.78308,0.26103,-1.687,-1.0441,-2.2336e-11,-0.84352,0,0,0.33333,7.8949e-16,0,0.66667
0.063799,0.90406,0.1914,0.60609,7.1208,25.716,-0.30934,0.10311,-0.69486,-0.41246,7.9789e-08,-0.34743,0,0,0.33333,1.1102e-16,0,0.66667
0.046104,0.46968,0.13831,-0.045476,-0.51813,26.396,0.016773,-0.0055917,-1.9939,0.022364,-1.0569e-06,-0.99697,0,0,0.33333,-1.9737e-16,0,0.66667
0.13493,0.090602,0.40478,-0.6141,-7.117,22.917,0.66286,-0.22095,-0.65947,0.88381,5.4733e-09,-0.32974,0,0,0.33333,1.9737e-16,0,0.66667
0.46952,0.8339,1.4085,0.50085,4.5234,10.751,-1.8812,0.62708,-1.1081,-2.5083,6.5925e-13,-0.55406,0,0,0.33333,-0,-0,0.66667
0.3841,0.41569,1.1523,-0.12647,-1.222,13.478,0.38862,-0.12954,-1.9426,0.51815,3.3683e-12,-0.9713,0,0,0.33333,-0,-0,0.66667
0.6752,0.17222,2.0256,-0.49167,-3.0467,4.9847,2.6558,-0.88527,-1.1399,3.5411,-1.3356e-11,-0.56995,0,0,0.33333,7.8949e-16,0,0.66667
0.095395,0.35155,0.28618,-0.22268,-2.5294,24.427,0.16994,-0.056646,-1.8238,0.22658,4.6667e-09,-0.91188,0,0,0.33333,1.9737e-16,0,0.66667
0.1618,0.388,0.48541,-0.168,-1.8701,21.794,0.21746,-0.072487,-1.8989,0.28995,-4.092e-12,-0.94947,0,0,0.33333,-0,-0,0.66667
0.96914,0.34178,2.9074,-0.23733,-0.048459,0.23784,1.84,-0.61334,-1.8009,2.4534,-4.7966e-08,-0.90044,0,0,0.33333,1.9737e-16,0,0.66667
0.42449,0.22941,1.2735,-0.40589,-3.8256,12.176,1.3784,-0.45945,-1.4139,1.8378,-6.8301e-13,-0.70696,0,0,0.33333,-0,-0,0.66667
0.91605,0.32726,2.7482,-0.25911,-0.36703,0.68538,1.8989,-0.63297,-1.7605,2.5319,-4.1831e-09,-0.88026,0,0,0.33333,-0,-0,0.66667
0.23435,0.3619,0.70304,-0.20714,-2.2376,18.985,0.38835,-0.12945,-1.8474,0.5178,9.9225e-11,-0.9237,0,0,0.33333,3.9475e-16,0,0.66667
0.98255,0.069165,2.9476,-0.64625,-0.17125,0.63221,5.0798,-1.6933,-0.51523,6.7731,8.1448e-08,-0.25761,0,0,0.33333,-0,-0,0.66667
0.12649,0.55562,0.37946,0.083424,0.93702,23.184,-0.084418,0.028139,-1.9755,-0.11256,3.1184e-09,-0.98773,0,0,0.33333,-0,-0,0.66667
0.77992,0.33681,2.3398,-0.24479,-1.0231,2.6134,1.5273,-0.50911,-1.7872,2.0365,-1.3516e-10,-0.89358,0,0,0.33333,-7.8949e-16,0,0.66667
0.98063,0.98689,2.9419,0.73033,0.31414,0.79313,-5.7295,1.9098,-0.10297,-7.6393,-1.6911e-06,-0.051486,0,0,0.33333,-0,-0,0.66667
0.48703,0.91383,1.4611,0.62075,5.568,10.284,-2.4186,0.80619,-0.62991,-3.2247,2.0051e-13,-0.31495,0,0,0.33333,-1.579e-15,0,0.66667
0.48989,0.0087591,1.4697,-0.73686,-6.7054,10.298,2.8878,-0.96261,-0.069039,3.8504,1.3101e-13,-0.03452,0,0,0.33333,-0,-0,0.66667
0.17515,0.1629,0.52544,-0.50564,-5.7207,21.325,0.70849,-0.23616,-1.0909,0.94466,7.4031e-10,-0.54546,0,0,0.33333,-0,-0,0.66667
0.60894,0.28507,1.8268,-0.32239,-2.2809,6.5341,1.5706,-0.52352,-1.6313,2.0941,-2.7482e-12,-0.81563,0,0,0.33333,-1.579e-15,0,0.66667
0.24288,0.012775,0.72865,-0.73084,-8.2312,18.819,1.4201,-0.47335,-0.10015,1.8934,6.9899e-12,-0.050073,0,0,0.33333,7.8949e-16,0,0.66667
0.7168,0.099254,2.1504,-0.60112,-3.3818,4.1637,3.447,-1.149,-0.71554,4.5961,-1.7147e-11,-0.35777,0,0,0.33333,-0,2.4138e-16,0.66667
0.47407,0.30264,1.4222,-0.29604,-2.6083,10.503,1.1227,-0.37424,-1.6879,1.497,-3.1231e-13,-0.84395,0,0,0.33333,3.9475e-16,0,0.66667
0.23239,0.26393,0.69716,-0.35411,-3.8593,19.086,0.65832,-0.21944,-1.5538,0.87777,1.6911e-10,-0.77689,0,0,0.33333,3.9475e-16,0,0.66667
0.46068,0.37624,1.382,-0.18563,-1.6532,10.902,0.68414,-0.22805,-1.8781,0.91219,-1.6098e-13,-0.93906,0,0,0.33333,-0,-0,0.66667
0.024607,0.50149,0.073822,0.002233,0.025475,27.26,-0.00043926,0.00015168,-2.0006,-0.00058306,7.8845e-06,-1.0003,0,0,0.33333,-0,-0,0.66667
0.097131,0.43378,0.29139,-0.099325,-1.1237,24.353,0.077181,-0.025727,-1.9653,0.10291,-1.1764e-09,-0.98267,0,0,0.33333,9.8686e-17,0,0.66667
0.10145,0.42528,0.30436,-0.11208,-1.2672,24.181,0.090966,-0.030322,-1.9546,0.12129,1.1888e-08,-0.9773,0,0,0.33333,-0,-0,0.66667
0.38922,0.12442,1.1677,-0.56338,-5.5931,13.456,1.7542,-0.58474,-0.87276,2.339,-8.4577e-13,-0.43638,0,0,0.33333,-9.6219e-16,0,0.66667
0.71597,0.010907,2.1479,-0.73364,-4.2724,4.3503,4.2021,-1.4007,-0.08595,5.6028,-2.629e-13,-0.042975,0,0,0.33333,-0,3.5876e-16,0.66667
0.052882,0.3437,0.15865,-0.23445,-2.6821,26.127,0.099185,-0.033062,-1.8055,0.13225,4.1474e-08,-0.90274,0,0,0.33333,-1.4109e-16,0,0.66667
0.012488,0.55875,0.037464,0.088124,1.0066,27.748,-0.0088061,0.0029342,-1.9728,-0.011742,-1.8008e-06,-0.98641,0,0,0.33333,1.8504e-17,0,0.66667
0.14747,0.85479,0.44241,0.53219,6.0933,22.409,-0.62786,0.20929,-0.99232,-0.83714,-1.5799e-09,-0.49616,0,0,0.33333,-3.9475e-16,0,0.66667
0.93668,0.72859,2.81,0.34288,0.3464,0.55727,-2.5694,0.85645,-1.582,-3.4258,-2.1825e-09,-0.79099,0,0,0.33333,-0,-0,0.66667
0.86574,0.22478,2.5972,-0.41283,-1.0731,1.3873,2.8592,-0.95306,-1.3939,3.8122,-1.0212e-09,-0.69695,0,0,0.33333,-3.158e-15,0,0.66667
0.40252,0.88777,1.2076,0.58166,5.7138,13.013,-1.873,0.62434,-0.7965,-2.4974,1.0145e-12,-0.39825,0,0,0.33333,-0,-0,0.66667
0.16129,0.76328,0.48388,0.39492,4.4493,21.842,-0.50959,0.16986,-1.4448,-0.67946,-5.3816e-10,-0.72239,0,0,0.33333,-0,-0,0.66667
0.35482,0.79219,1.0645,0.43828,4.4288,14.595,-1.2441,0.4147,-1.3165,-1.6588,-6.664e-12,-0.65824,0,0,0.33333,-0,-0,0.66667
0.93483,0.33782,2.8045,-0.24327,-0.2411,0.50029,1.8193,-0.60644,-1.7897,2.4258,2.792e-09,-0.89487,0,0,0.33333,-0,-0,0.66667
0.64355,0.88129,1.9306,0.57194,3.8812,5.8262,-2.9446,0.98152,-0.837,-3.9261,7.3164e-13,-0.4185,0,0,0.33333,-0,-0,0.66667
0.47107,0.8897,1.4132,0.58454,5.3241,10.758,-2.2029,0.73429,-0.78465,-2.9372,4.8606e-13,-0.39233,0,0,0.33333,-7.8949e-16,0,0.66667
0.40237,0.24072,1.2071,-0.38892,-3.7455,12.918,1.2519,-0.4173,-1.4619,1.6692,6.2439e-13,-0.73093,0,0,0.33333,-0,-0,0.66667
0.89655,0.85186,2.6897,0.52779,1.0871,1.1446,-3.7855,1.2618,-1.0092,-5.0473,5.7536e-09,-0.5046,0,0,0.33333,-0,-0,0.66667
0.97347,0.04841,2.9204,-0.67739,-0.35273,0.73342,5.2753,-1.7584,-0.36785,7.0338,1.4274e-06,-0.18392,0,0,0.33333,1.579e-15,0,0.66667
0.77868,0.38502,2.336,-0.17247,-0.71947,2.6049,1.0744,-0.35813,-1.894,1.4325,-8.7999e-11,-0.94699,0,0,0.33333,-0,-0,0.66667
0.83334,0.52676,2.5,0.040142,0.12384,1.6544,-0.26762,0.089206,-1.9944,-0.35682,-4.6005e-10,-0.9972,0,0,0.33333,7.8949e-16,0,0.66667
0.30709,0.11486,0.92127,-0.57771,-6.1418,16.374,1.4193,-0.47309,-0.81278,1.8924,1.0535e-11,-0.40639,0,0,0.33333,-3.9475e-16,0,0.66667
0.93952,0.32229,2.8186,-0.26656,-0.23939,0.47509,2.0035,-0.66784,-1.7472,2.6714,6.0281e-09,-0.87359,0,0,0.33333,-1.579e-15,0,0.66667
0.4527,0.30996,1.3581,-0.28506,-2.5774,11.191,1.0324,-0.34412,-1.7121,1.3765,-3.505e-13,-0.85606,0,0,0.33333,1.2196e-15,0,0.66667
0.17931,0.46583,0.53792,-0.05126,-0.56558,21.103,0.07353,-0.02451,-1.991,0.09804,2.7081e-10,-0.99549,0,0,0.33333,-2.9606e-16,0,0.66667
0.5963,0.74654,1.7889,0.36981,2.6965,6.9019,-1.7642,0.58806,-1.5143,-2.3522,6.1251e-13,-0.75714,0,0,0.33333,7.8949e-16,0,0.66667
0.6841,0.58017,2.0523,0.12026,0.69937,4.5699,-0.65814,0.21938,-1.948,-0.87752,1.767e-11,-0.97402,0,0,0.33333,-7.8949e-16,0,0.66667
0.43734,0.13403,1.312,-0.54895,-5.1787,11.826,1.9206,-0.64021,-0.92875,2.5608,-1.1147e-12,-0.46438,0,0,0.33333,7.8949e-16,3.5752e-16,0.66667
0.37334,0.74478,1.12,0.36716,3.629,13.914,-1.0966,0.36554,-1.5211,-1.4622,-4.9707e-12,-0.76054,0,0,0.33333,-3.9475e-16,0,0.66667
0.70431,0.47125,2.1129,-0.04312,-0.23569,4.0957,0.24296,-0.080987,-1.9943,0.32395,-9.4292e-12,-0.99715,0,0,0.33333,-0,-0,0.66667
0.25974,0.13312,0.77922,-0.55031,-6.0101,18.111,1.1435,-0.38117,-0.92284,1.5247,6.1785e-11,-0.46142,0,0,0.33333,-0,-0,0.66667
0.68635,0.86072,2.059,0.54109,3.283,4.7723,-2.971,0.99033,-0.95875,-3.9613,1.2551e-11,-0.47938,0,0,0.33333,7.8949e-16,-1.1647e-16,0.66667
0.57492,0.71539,1.7248,0.32308,2.442,7.4698,-1.486,0.49532,-1.6294,-1.9813,-1.6254e-13,-0.81468,0,0,0.33333,7.8949e-16,0,0.66667
0.33501,0.38039,1.005,-0.17942,-1.8127,15.232,0.48085,-0.16028,-1.8855,0.64113,1.6152e-11,-0.94274,0,0,0.33333,-0,-0,0.66667
0.67669,0.88759,2.0301,0.58139,3.6466,5.0365,-3.1473,1.0491,-0.79754,-4.1965,5.2423e-12,-0.39877,0,0,0.33333,-0,-0,0.66667
0.042896,0.13669,0.12869,-0.54496,-6.3775,26.541,0.18701,-0.062338,-0.94353,0.24935,-1.2303e-07,-0.47176,0,0,0.33333,-0,-0,0.66667
0.54883,0.72644,1.6465,0.33966,2.6907,8.2279,-1.4913,0.49711,-1.5898,-1.9884,-6.728e-13,-0.79491,0,0,0.33333,-0,-0,0.66667
0.5956,0.042348,1.7868,-0.68648,-5.2505,7.1867,3.2709,-1.0903,-0.3242,4.3612,3.9035e-13,-0.1621,0,0,0.33333,-1.579e-15,0,0.66667
0.28722,0.63992,0.86166,0.20988,2.1979,16.991,-0.48224,0.16075,-1.8426,-0.64299,-4.7322e-11,-0.92131,0,0,0.33333,-3.9475e-16,0,0.66667
0.35628,0.8629,1.0688,0.54435,5.5528,14.593,-1.5515,0.51718,-0.94595,-2.0687,-1.7222e-12,-0.47298,0,0,0.33333,-0,-0,0.66667
0.86302,0.97445,2.5891,0.71167,2.1381,1.8096,-4.9135,1.6378,-0.19927,-6.5513,1.8206e-09,-0.099637,0,0,0.33333,3.158e-15,0,0.66667
0.61937,0.28437,1.8581,-0.32345,-2.2388,6.258,1.6027,-0.53423,-1.6284,2.1369,-4.3789e-12,-0.81418,0,0,0.33333,-1.579e-15,0,0.66667
0.63994,0.61974,1.9198,0.17961,1.1739,5.6647,-0.91954,0.30651,-1.8858,-1.2261,8.6097e-12,-0.94292,0,0,0.33333,-0,-0,0.66667
0.10461,0.96779,0.31383,0.70168,8.2769,24.122,-0.58723,0.19574,-0.25022,-0.78297,-3.6621e-08,-0.12511,0,0,0.33333,6.1679e-17,0,0.66667
0.23792,0.6579,0.71375,0.23685,2.557,18.853,-0.45081,0.15027,-1.8013,-0.60108,-1.0728e-10,-0.90065,0,0,0.33333,-0,-0,0.66667
0.71928,0.009716,2.1578,-0.73543,-4.2428,4.2832,4.2318,-1.4106,-0.07704,5.6424,-7.0655e-13,-0.03852,0,0,0.33333,-0,-0,0.66667
0.69947,0.16882,2.0984,-0.49677,-2.882,4.4331,2.7798,-0.9266,-1.122,3.7064,-2.7507e-11,-0.56101,0,0,0.33333,-0,-0,0.66667
0.44662,0.39028,1.3399,-0.16458,-1.4896,11.359,0.58803,-0.19601,-1.9029,0.78404,4.2355e-14,-0.95145,0,0,0.33333,-0,-0,0.66667
0.039252,0.45917,0.11776,-0.06124,-0.69826,26.671,0.01923,-0.0064106,-1.9861,0.02564,-7.1044e-07,-0.99305,0,0,0.33333,-0,-0,0.66667
0.050396,0.52244,0.15119,0.033667,0.38338,26.223,-0.013573,0.0045244,-1.9957,-0.018097,1.199e-07,-0.99785,0,0,0.33333,9.8686e-17,0,0.66667
0.088504,0.63435,0.26551,0.20153,2.2903,24.701,-0.14269,0.047562,-1.8551,-0.19025,1.9669e-08,-0.92757,0,0,0.33333,-0,-0,0.66667
0.86433,0.31429,2.593,-0.27857,-0.70546,1.2987,1.9262,-0.64207,-1.7247,2.5683,-8.8033e-10,-0.86236,0,0,0.33333,-0,-0,0.66667
0.13609,0.1409,0.40828,-0.53865,-6.192,22.855,0.58647,-0.19549,-0.96768,0.78195,1.5631e-09,-0.48384,0,0,0.33333,-1.9737e-16,0,0.66667
0.65826,0.20135,1.9748,-0.44797,-2.8783,5.3539,2.3591,-0.78636,-1.2861,3.1454,-1.0163e-11,-0.64304,0,0,0.33333,-0,-0,0.66667
0.57697,0.18307,1.7309,-0.47539,-3.6398,7.5058,2.1943,-0.73143,-1.197,2.9257,1.1311e-12,-0.59852,0,0,0.33333,-0,-0,0.66667
0.7266,0.93175,2.1798,0.64763,3.5725,4.0141,-3.7645,1.2548,-0.50858,-5.0194,1.1172e-11,-0.25429,0,0,0.33333,-1.1842e-15,0,0.66667
0.58257,0.65481,1.7477,0.23222,1.7184,7.2161,-1.0823,0.36076,-1.809,-1.443,9.5923e-13,-0.9045,0,0,0.33333,-3.9475e-16,0,0.66667
0.17942,0.46234,0.53825,-0.056495,-0.62334,21.098,0.08109,-0.02703,-1.9884,0.10812,2.3399e-10,-0.99422,0,0,0.33333,-1.9737e-16,0,0.66667
0.73408,0.64469,2.2023,0.21704,1.085,3.4962,-1.2746,0.42487,-1.8325,-1.6995,6.8386e-11,-0.91624,0,0,0.33333,7.8949e-16,0,0.66667
0.59544,0.12312,1.7863,-0.56531,-4.2362,7.0705,2.6929,-0.89764,-0.86467,3.5905,1.1566e-12,-0.43234,0,0,0.33333,-8.8818e-16,0,0.66667
0.54618,0.031394,1.6386,-0.70291,-5.8687,8.5811,3.0713,-1.0238,-0.24474,4.0951,-5.5733e-14,-0.12237,0,0,0.33333,1.579e-15,-7.2568e-18,0.66667
0.72712,0.81886,2.1814,0.47829,2.5394,3.8183,-2.7822,0.92739,-1.1864,-3.7096,6.5531e-11,-0.59322,0,0,0.33333,-1.579e-15,0,0.66667
0.31395,0.7762,0.94184,0.4143,4.3137,16.057,-1.0405,0.34685,-1.3902,-1.3874,-2.7961e-11,-0.69508,0,0,0.33333,5.9212e-16,0,0.66667
0.070608,0.36837,0.21182,-0.19745,-2.2504,25.416,0.11153,-0.037178,-1.8611,0.14871,4.2649e-08,-0.93057,0,0,0.33333,-9.8686e-17,0,0.66667
0.088214,0.24035,0.26464,-0.38947,-4.4714,24.725,0.27485,-0.091618,-1.4602,0.36647,-2.7409e-09,-0.73008,0,0,0.33333,-0,-0,0.66667
0.32773,0.16596,0.98318,-0.50106,-5.2051,15.591,1.3137,-0.4379,-1.1074,1.7516,1.1135e-11,-0.55372,0,0,0.33333,7.8949e-16,-1.8754e-16,0.66667
0.23168,0.27243,0.69505,-0.34135,-3.7185,19.11,0.63269,-0.2109,-1.5855,0.84358,1.6399e-10,-0.79276,0,0,0.33333,-0,-0,0.66667
0.74822,0.79584,2.2447,0.44375,2.1757,3.3572,-2.6562,0.8854,-1.2995,-3.5416,1.2083e-10,-0.64974,0,0,0.33333,-1.579e-15,0,0.66667
0.60764,0.93684,1.8229,0.65527,4.8694,6.8327,-3.1853,1.0618,-0.47454,-4.2471,-6.1173e-13,-0.23727,0,0,0.33333,-4.9343e-17,-3.2479e-17,0.66667
0.095431,0.94941,0.28629,0.67411,7.9401,24.477,-0.51465,0.17155,-0.38399,-0.6862,-2.1897e-08,-0.19199,0,0,0.33333,-0,-0,0.66667
0.71985,0.45678,2.1596,-0.064827,-0.33728,3.7562,0.37333,-0.12444,-1.9849,0.49777,-1.8802e-11,-0.99244,0,0,0.33333,-0,-0,0.66667
0.9161,0.98994,2.7483,0.73492,1.4007,1.2626,-5.386,1.7953,-0.079087,-7.1814,6.7725e-08,-0.039544,0,0,0.33333,-0,-0,0.66667
0.82438,0.18212,2.4731,-0.47682,-1.6675,2.0416,3.1447,-1.0482,-1.1917,4.1929,-6.4708e-10,-0.59587,0,0,0.33333,-1.579e-15,0,0.66667
0.67331,0.43523,2.0199,-0.097159,-0.58162,4.8207,0.52334,-0.17445,-1.9674,0.69779,-1.1888e-11,-0.98368,0,0,0.33333,1.9737e-16,0,0.66667
0.77664,0.41129,2.3299,-0.13306,-0.55846,2.6299,0.82673,-0.27558,-1.9371,1.1023,-7.3303e-11,-0.96857,0,0,0.33333,-0,-0,0.66667
0.15012,0.97693,0.45037,0.71539,8.3536,22.351,-0.85918,0.28639,-0.17994,-1.1456,-1.7876e-10,-0.089972,0,0,0.33333,-0,-0,0.66667
0.065513,0.43656,0.19654,-0.095165,-1.0825,25.617,0.049876,-0.016625,-1.9688,0.066501,-4.5522e-08,-0.98439,0,0,0.33333,-1.2336e-17,0,0.66667
0.74798,0.59705,2.2439,0.14558,0.68786,3.1866,-0.87113,0.29038,-1.9253,-1.1615,6.0041e-11,-0.96265,0,0,0.33333,-0,-0,0.66667
0.98478,0.3791,2.9543,-0.18135,0.033867,0.11615,1.4287,-0.47623,-1.8838,1.9049,-6.05e-08,-0.94192,0,0,0.33333,-0,-0,0.66667
0.24024,0.34967,0.72073,-0.22549,-2.4301,18.763,0.43338,-0.14446,-1.8191,0.57785,1.0093e-10,-0.90955,0,0,0.33333,-0,-0,0.66667
0.56194,0.65792,1.6858,0.23687,1.8205,7.8034,-1.0649,0.35496,-1.8017,-1.4198,6.3949e-14,-0.90084,0,0,0.33333,-0,-0,0.66667
0.080826,0.021624,0.24248,-0.71756,-8.5191,25.059,0.46398,-0.15466,-0.169,0.61864,3.9621e-08,-0.0845,0,0,0.33333,-0,-0,0.66667
0.56119,0.93798,1.6836,0.65697,5.3117,8.106,-2.9495,0.98316,-0.46668,-3.9326,-4.1189e-13,-0.23334,0,0,0.33333,-0,-2.3906e-17,0.66667
0.45044,0.053266,1.3513,-0.6701,-6.3309,11.486,2.4147,-0.8049,-0.40322,3.2196,-2.6201e-13,-0.20161,0,0,0.33333,3.9475e-16,-3.2871e-16,0.66667
0.24055,0.17723,0.72166,-0.48416,-5.309,18.81,0.93173,-0.31058,-1.166,1.2423,1.4693e-10,-0.58298,0,0,0.33333,1.9737e-16,0,0.66667
0.56538,0.38539,1.6961,-0.17191,-1.3085,7.6845,0.77757,-0.25919,-1.8946,1.0368,-3.2541e-13,-0.94729,0,0,0.33333,-0,-0,0.66667
0.65399,0.91808,1.962,0.62713,4.1967,5.6263,-3.2811,1.0937,-0.6013,-4.3748,3.1397e-13,-0.30065,0,0,0.33333,-0,-0,0.66667
0.91167,0.98864,2.735,0.73297,1.466,1.301,-5.3458,1.7819,-0.089196,-7.1277,1.0372e-07,-0.044598,0,0,0.33333,-7.8949e-16,0,0.66667
0.78264,0.47761,2.3479,-0.03358,-0.13659,2.5025,0.21025,-0.070084,-1.996,0.28033,-3.0162e-11,-0.998,0,0,0.33333,-0,-0,0.66667
0.97683,0.18807,2.9305,-0.46789,-0.090477,0.40279,3.6564,-1.2188,-1.2224,4.8752,-4.1856e-08,-0.6112,0,0,0.33333,-3.158e-15,0,0.66667
0.44272,0.24631,1.3282,-0.38053,-3.5065,11.557,1.3477,-0.44925,-1.4854,1.797,-7.383e-13,-0.74271,0,0,0.33333,-7.8949e-16,0,0.66667
0.14102,0.98614,0.42306,0.72921,8.5533,22.708,-0.82267,0.27422,-0.10921,-1.0969,1.3849e-09,-0.054604,0,0,0.33333,-3.9475e-16,0,0.66667
0.40997,0.3371,1.2299,-0.24435,-2.312,12.608,0.80141,-0.26714,-1.7877,1.0686,1.4853e-12,-0.89383,0,0,0.33333,-0,-0,0.66667
0.7923,0.71937,2.3769,0.32906,1.315,2.4427,-2.0857,0.69524,-1.6159,-2.7809,2.1509e-10,-0.80794,0,0,0.33333,-3.158e-15,0,0.66667
0.21104,0.72377,0.63311,0.33566,3.6919,19.9,-0.56669,0.1889,-1.5994,-0.75558,-2.2115e-10,-0.79969,0,0,0.33333,-0,-0,0.66667
0.17738,0.11632,0.53214,-0.57552,-6.5509,21.256,0.81669,-0.27223,-0.8219,1.0889,6.3516e-10,-0.41095,0,0,0.33333,-0,-0,0.66667
0.6451,0.96021,1.9353,0.69032,4.7749,5.9161,-3.5626,1.1875,-0.30529,-4.7502,-1.9651e-13,-0.15265,0,0,0.33333,-7.8949e-16,0,0.66667
0.94704,0.0022828,2.8411,-0.74658,-0.91989,1.0281,5.6563,-1.8854,-0.018689,7.5417,-5.993e-07,-0.0093446,0,0,0.33333,-0,-0,0.66667
0.40926,0.65573,1.2278,0.2336,2.2106,12.63,-0.76483,0.25494,-1.807,-1.0198,-1.5729e-12,-0.90352,0,0,0.33333,9.3752e-16,0,0.66667
0.69687,0.18304,2.0906,-0.47544,-2.7687,4.472,2.6506,-0.88352,-1.1964,3.5341,-2.8935e-11,-0.59819,0,0,0.33333,3.9475e-16,0,0.66667
0.40397,0.80808,1.2119,0.46212,4.4732,12.896,-1.4935,0.49783,-1.2411,-1.9913,5.0471e-13,-0.62056,0,0,0.33333,3.9475e-16,0,0.66667
0.34982,0.86577,1.0494,0.54866,5.6294,14.824,-1.5354,0.51181,-0.9292,-2.0472,-2.3538e-12,-0.4646,0,0,0.33333,-0,-0,0.66667
0.13297,0.8846,0.39891,0.57689,6.6629,22.985,-0.61367,0.20456,-0.81613,-0.81823,-1.999e-09,-0.40807,0,0,0.33333,-0,-0,0.66667
0.019913,0.9709,0.059738,0.70634,8.4262,27.462,-0.11252,0.037508,-0.22665,-0.15003,3.4776e-07,-0.11333,0,0,0.33333,-0,-0,0.66667
0.11967,0.35455,0.35901,-0.21818,-2.4641,23.461,0.20888,-0.069625,-1.8302,0.2785,1.033e-10,-0.91509,0,0,0.33333,1.9737e-16,0,0.66667
0.44424,0.55486,1.3327,0.082295,0.74523,11.425,-0.29247,0.09749,-1.9756,-0.38996,-1.8263e-14,-0.98778,0,0,0.33333,7.8949e-16,0,0.66667
0.72978,0.088672,2.1894,-0.61699,-3.3444,3.9107,3.6022,-1.2007,-0.64656,4.8029,-2.1311e-11,-0.32328,0,0,0.33333,7.8949e-16,0,0.66667
0.05369,0.22257,0.16107,-0.41615,-4.8114,26.103,0.17875,-0.059582,-1.3844,0.23833,-1.1612e-08,-0.69221,0,0,0.33333,-0,-0,0.66667
0.22167,0.46032,0.665,-0.059516,-0.6446,19.46,0.10554,-0.035181,-1.9872,0.14072,3.7326e-11,-0.99362,0,0,0.33333,1.9737e-16,0,0.66667
0.031064,0.82726,0.093193,0.49088,5.7212,27.01,-0.12199,0.040664,-1.1431,-0.16266,-7.1978e-09,-0.57156,0,0,0.33333,-4.9343e-17,8.8018e-17,0.66667
0.83332,0.0098636,2.5,-0.7352,-2.6791,2.2535,4.9013,-1.6338,-0.077631,6.5351,8.4628e-10,-0.038815,0,0,0.33333,-0,-0,0.66667
0.38188,0.25125,1.1456,-0.37313,-3.6608,13.619,1.1399,-0.37997,-1.5056,1.5199,3.2326e-12,-0.75281,0,0,0.33333,-0,-0,0.66667
0.28458,0.86424,0.85374,0.54636,5.8758,17.186,-1.2439,0.41462,-0.93821,-1.6585,-3.0835e-11,-0.46911,0,0,0.33333,3.9475e-16,0,0.66667
0.78367,0.70085,2.351,0.30128,1.2476,2.5775,-1.8888,0.62962,-1.6768,-2.5185,1.7016e-10,-0.83842,0,0,0.33333,-0,-0,0.66667
0.2789,0.33684,0.83671,-0.24474,-2.5809,17.307,0.54608,-0.18203,-1.7871,0.72811,6.1359e-11,-0.89355,0,0,0.33333,-1.9737e-16,0,0.66667
0.28082,0.65141,0.84245,0.22712,2.3902,17.232,-0.51023,0.17008,-1.8172,-0.68031,-5.6743e-11,-0.90862,0,0,0.33333,5.9212e-16,0,0.66667
0.935,0.29637,2.805,-0.30545,-0.31238,0.54136,2.2848,-0.76159,-1.6678,3.0464,-3.3434e-09,-0.8339,0,0,0.33333,-0,-0,0.66667
0.16421,0.064978,0.49264,-0.65253,-7.5267,21.787,0.85724,-0.28575,-0.48644,1.143,4.7845e-11,-0.24322,0,0,0.33333,-0,-0,0.66667
0.03791,0.5235,0.11373,0.035257,0.40196,26.725,-0.010693,0.0035642,-1.9952,-0.014257,-1.5258e-07,-0.99761,0,0,0.33333,-0,-0,0.66667
0.95604,0.13779,2.8681,-0.54331,-0.40998,0.63164,4.1554,-1.3851,-0.94997,5.5406,9.4819e-08,-0.47498,0,0,0.33333,-0,-0,0.66667
0.30613,0.047756,0.9184,-0.67837,-7.3055,16.46,1.6614,-0.55379,-0.36302,2.2152,1.3136e-12,-0.18151,0,0,0.33333,-0,-0,0.66667
0.41408,0.38982,1.2422,-0.16527,-1.5515,12.45,0.54749,-0.1825,-1.9021,0.72999,1.283e-12,-0.95103,0,0,0.33333,-0,-0,0.66667
0.79679,0.41034,2.3904,-0.13448,-0.51331,2.2687,0.85724,-0.28575,-1.9365,1.143,-3.6387e-11,-0.96826,0,0,0.33333,-0,-0,0.66667
0.35618,0.37755,1.0686,-0.18367,-1.8237,14.472,0.52336,-0.17445,-1.8807,0.69782,9.8223e-12,-0.94035,0,0,0.33333,-0,-0,0.66667
0.10486,0.91812,0.31457,0.62719,7.3335,24.098,-0.52612,0.17537,-0.60079,-0.7015,-9.6249e-09,-0.30039,0,0,0.33333,-0,-0,0.66667
0.7889,0.46697,2.3667,-0.049539,-0.19572,2.3911,0.31265,-0.10422,-1.9918,0.41687,-7.1631e-11,-0.9959,0,0,0.33333,1.9737e-16,0,0.66667
0.12962,0.49695,0.38885,-0.0045743,-0.051297,23.059,0.0047432,-0.0015811,-2.0003,0.0063243,1.1635e-09,-1.0002,0,0,0.33333,-5.9212e-16,0,0.66667
0.19804,0.53091,0.59412,0.046363,0.5076,20.373,-0.073454,0.024485,-1.9933,-0.097938,9.311e-11,-0.99663,0,0,0.33333,-3.1841e-16,0,0.66667
0.13971,0.60177,0.41912,0.15265,1.7107,22.664,-0.17061,0.056871,-1.9173,-0.22748,1.3238e-09,-0.95865,0,0,0.33333,-0,-0,0.66667
0.22166,0.88614,0.66498,0.57921,6.4726,19.558,-1.0271,0.34236,-0.8068,-1.3695,-1.6091e-10,-0.4034,0,0,0.33333,3.9475e-16,0,0.66667
0.23535,0.57571,0.70604,0.11356,1.2226,18.938,-0.21382,0.071272,-1.9539,-0.28509,-5.6655e-11,-0.97697,0,0,0.33333,-3.9475e-16,0,0.66667
0.7264,0.42413,2.1792,-0.11381,-0.58022,3.6243,0.66138,-0.22046,-1.9532,0.88184,-3.4759e-11,-0.97658,0,0,0.33333,-0,-0,0.66667
0.095244,0.43219,0.28573,-0.10171,-1.1512,24.428,0.077499,-0.025833,-1.9636,0.10333,-1.34e-08,-0.98181,0,0,0.33333,-0,-0,0.66667
0.66824,0.85493,2.0047,0.53239,3.3818,5.1866,-2.8461,0.94872,-0.99174,-3.7949,7.105e-12,-0.49587,0,0,0.33333,-0,-0,0.66667
0.91093,0.42093,2.7328,-0.11861,-0.1748,0.67273,0.86437,-0.28812,-1.9493,1.1525,7.2021e-09,-0.97464,0,0,0.33333,-0,-0,0.66667
0.63,0.97624,1.89,0.71437,5.1314,6.3218,-3.6004,1.2001,-0.18528,-4.8005,-1.7142e-13,-0.09264,0,0,0.33333,-0,-0,0.66667
0.33688,0.39549,1.0107,-0.15677,-1.5803,15.16,0.42251,-0.14084,-1.912,0.56335,1.4075e-11,-0.95599,0,0,0.33333,-0,-0,0.66667
0.83945,0.86837,2.5184,0.55256,1.8108,1.9024,-3.7108,1.2369,-0.91431,-4.9477,1.0347e-09,-0.45716,0,0,0.33333,-0,-0,0.66667
0.89856,0.29002,2.6957,-0.31498,-0.57659,0.90786,2.2642,-0.75474,-1.6468,3.0189,5.0599e-10,-0.82338,0,0,0.33333,-0,-0,0.66667
0.49346,0.18092,1.4804,-0.47861,-4.1794,9.9809,1.8894,-0.6298,-1.1853,2.5192,-1.1036e-13,-0.59265,0,0,0.33333,-0,-0,0.66667
0.56348,0.58696,1.6904,0.13044,0.99448,7.7296,-0.588,0.196,-1.9398,-0.78399,2.4436e-13,-0.9699,0,0,0.33333,-0,-0,0.66667
0.58066,0.28307,1.742,-0.32539,-2.4341,7.3097,1.5115,-0.50385,-1.6244,2.0154,-1.3578e-13,-0.8122,0,0,0.33333,-1.579e-15,0,0.66667
0.13276,0.87756,0.39827,0.56633,6.5342,22.991,-0.60148,0.20049,-0.86,-0.80197,-4.9752e-10,-0.43,0,0,0.33333,-0,-0,0.66667
0.37306,0.47912,1.1192,-0.031325,-0.30535,13.858,0.093489,-0.031163,-1.9963,0.12465,1.3839e-12,-0.99815,0,0,0.33333,-0,-0,0.66667
0.81161,0.54168,2.4348,0.06252,0.21982,2.0023,-0.40594,0.13531,-1.9861,-0.54125,9.3804e-11,-0.99303,0,0,0.33333,-0,-0,0.66667
0.5196,0.27096,1.5588,-0.34356,-2.8513,9.1011,1.4281,-0.47604,-1.5799,1.9042,3.7537e-13,-0.78994,0,0,0.33333,7.8949e-16,0,0.66667
0.93958,0.2099,2.8188,-0.43515,-0.44351,0.62274,3.2709,-1.0903,-1.3266,4.3612,7.8269e-09,-0.66331,0,0,0.33333,7.8949e-16,0,0.66667
0.61582,0.15283,1.8475,-0.52076,-3.7219,6.4884,2.5655,-0.85518,-1.036,3.4207,2.1516e-13,-0.51801,0,0,0.33333,1.8232e-16,0,0.66667
0.77945,0.17475,2.3384,-0.48788,-2.1334,2.807,3.0422,-1.0141,-1.1534,4.0563,-2.4506e-10,-0.57668,0,0,0.33333,-7.8949e-16,0,0.66667
0.24803,0.048347,0.74409,-0.67748,-7.5569,18.602,1.3443,-0.44809,-0.36769,1.7924,1.443e-11,-0.18384,0,0,0.33333,-0,3.9124e-16,0.66667
0.55931,0.99284,1.6779,0.73926,6.0838,8.245,-3.3078,1.1026,-0.056792,-4.4104,1.2723e-13,-0.028396,0,0,0.33333,-2.3685e-15,2.7881e-16,0.66667
0.81064,0.55802,2.4319,0.087028,0.30799,2.0224,-0.56439,0.18813,-1.9736,-0.75251,-2.6166e-12,-0.98678,0,0,0.33333,8.5249e-17,0,0.66667
0.15271,0.51122,0.45813,0.016834,0.18748,22.146,-0.020566,0.0068554,-1.9985,-0.027422,1.8737e-09,-0.99927,0,0,0.33333,-0,-0,0.66667
0.54016,0.65967,1.6205,0.23951,1.91,8.4411,-1.035,0.34499,-1.7963,-1.38,-2.6179e-13,-0.89814,0,0,0.33333,-0,-0,0.66667
0.6103,0.37096,1.8309,-0.19356,-1.3522,6.4437,0.94503,-0.31501,-1.8675,1.26,-3.6405e-12,-0.93374,0,0,0.33333,-1.9737e-16,0,0.66667
0.18706,0.859,0.56117,0.5385,6.0837,20.872,-0.80584,0.26861,-0.96879,-1.0745,-5.2122e-10,-0.4844,0,0,0.33333,3.9475e-16,0,0.66667
0.63689,0.4807,1.9107,-0.028956,-0.18966,5.716,0.14753,-0.049178,-1.9965,0.19671,-1.5746e-12,-0.99825,0,0,0.33333,-0,-0,0.66667
0.067575,0.33906,0.20272,-0.24141,-2.7574,25.539,0.1305,-0.043501,-1.7929,0.17401,-1.6399e-08,-0.89645,0,0,0.33333,-0,-0,0.66667
0.77954,0.66646,2.3386,0.24969,1.046,2.6229,-1.5572,0.51905,-1.7782,-2.0762,1.345e-10,-0.88908,0,0,0.33333,-0,-0,0.66667
0.32597,0.81993,0.97792,0.47989,4.9814,15.645,-1.2515,0.41715,-1.1812,-1.6686,-1.401e-11,-0.59061,0,0,0.33333,-0,-0,0.66667
0.48278,0.54781,1.4484,0.07171,0.6185,10.172,-0.27696,0.092321,-1.9814,-0.36928,5.7898e-14,-0.99069,0,0,0.33333,-0,-0,0.66667
0.38231,0.48385,1.1469,-0.024218,-0.23403,13.533,0.074071,-0.02469,-1.9971,0.098762,9.1761e-13,-0.99855,0,0,0.33333,-7.8949e-16,0,0.66667
0.32698,0.33176,0.98093,-0.25236,-2.574,15.536,0.66012,-0.22004,-1.7734,0.88016,2.3346e-11,-0.88669,0,0,0.33333,3.9475e-16,0,0.66667
0.98768,0.060623,2.963,-0.65907,-0.1061,0.62982,5.2076,-1.7359,-0.45634,6.9434,2.3145e-06,-0.22817,0,0,0.33333,-7.8949e-16,0,0.66667
0.879,0.40083,2.637,-0.14876,-0.3225,1.046,1.0461,-0.34869,-1.9214,1.3947,-7.3305e-09,-0.9607,0,0,0.33333,7.8949e-16,0,0.66667
0.30229,0.1537,0.90688,-0.51946,-5.5062,16.523,1.2562,-0.41874,-1.041,1.675,2.2019e-11,-0.52052,0,0,0.33333,9.8686e-17,0,0.66667
0.16065,0.60063,0.48194,0.15094,1.6801,21.839,-0.19399,0.064662,-1.9189,-0.25865,1.3746e-11,-0.95943,0,0,0.33333,-0,-0,0.66667
0.52931,0.88366,1.5879,0.57549,4.833,8.9584,-2.4369,0.8123,-0.82239,-3.2492,-5.8176e-13,-0.41119,0,0,0.33333,-0,-0,0.66667
0.13806,0.40359,0.41418,-0.14461,-1.621,22.729,0.15972,-0.053239,-1.9263,0.21296,-3.1835e-09,-0.96317,0,0,0.33333,-2.9606e-16,0,0.66667
0.64979,0.46835,1.9494,-0.047474,-0.30156,5.3902,0.24678,-0.082261,-1.9928,0.32904,-3.5579e-12,-0.99641,0,0,0.33333,7.339e-17,0,0.66667
0.23295,0.057651,0.69886,-0.66352,-7.4461,19.162,1.2366,-0.41219,-0.43511,1.6487,2.4563e-11,-0.21756,0,0,0.33333,-1.9737e-16,0,0.66667
0.096557,0.62341,0.28967,0.18512,2.0993,24.379,-0.143,0.047666,-1.879,-0.19066,5.9603e-09,-0.93951,0,0,0.33333,-6.1679e-17,0,0.66667
0.021993,0.20103,0.065978,-0.44846,-5.2108,27.371,0.078902,-0.026301,-1.2842,0.1052,2.4193e-08,-0.64208,0,0,0.33333,-0,-0,0.66667
0.85906,0.79039,2.5772,0.43559,1.2012,1.4978,-2.9936,0.99786,-1.3255,-3.9915,1.0332e-09,-0.66277,0,0,0.33333,-0,-0,0.66667
0.14271,0.339,0.42813,-0.2415,-2.7127,22.552,0.27572,-0.091906,-1.793,0.36762,-3.488e-10,-0.89652,0,0,0.33333,1.9737e-16,0,0.66667
0.40293,0.079167,1.2088,-0.63125,-6.2378,13.031,2.0348,-0.67826,-0.58263,2.7131,-7.6761e-13,-0.29132,0,0,0.33333,3.1233e-16,0,0.66667
0.093564,0.2088,0.28069,-0.43681,-5.0274,24.518,0.32696,-0.10899,-1.3217,0.43594,-2.9821e-09,-0.66086,0,0,0.33333,-9.8686e-17,0,0.66667
0.11789,0.31406,0.35368,-0.27891,-3.1602,23.537,0.26305,-0.087683,-1.724,0.35073,-2.4644e-09,-0.862,0,0,0.33333,-0,-0,0.66667
0.37482,0.21334,1.1245,-0.42999,-4.2666,13.888,1.2893,-0.42978,-1.3432,1.7191,2.9223e-12,-0.67162,0,0,0.33333,-5.9212e-16,0,0.66667
0.16539,0.71545,0.49616,0.32318,3.6186,21.671,-0.4276,0.14253,-1.6289,-0.57013,-1.2663e-10,-0.81446,0,0,0.33333,-4.9343e-17,0,0.66667
0.71895,0.96239,2.1569,0.69359,3.9624,4.2328,-3.9892,1.3297,-0.29004,-5.319,1.7104e-12,-0.14502,0,0,0.33333,-3.9475e-16,0,0.66667
0.12585,0.32394,0.37755,-0.26409,-2.984,23.22,0.26589,-0.088631,-1.7519,0.35452,-1.0206e-09,-0.87595,0,0,0.33333,-1.9737e-16,0,0.66667
0.73883,0.90311,2.2165,0.60467,3.1717,3.7119,-3.574,1.1913,-0.70042,-4.7653,3.511e-11,-0.35021,0,0,0.33333,9.8686e-16,0,0.66667
0.84138,0.72815,2.5242,0.34223,1.0414,1.6633,-2.3036,0.76785,-1.5834,-3.0714,1.7991e-10,-0.79169,0,0,0.33333,-0,-0,0.66667
0.082681,0.18035,0.24804,-0.47948,-5.549,24.954,0.31715,-0.10572,-1.1824,0.42287,-3.8222e-09,-0.5912,0,0,0.33333,-0,-0,0.66667
0.040078,0.45357,0.12023,-0.069646,-0.79413,26.638,0.02233,-0.0074436,-1.982,0.029773,-4.1168e-07,-0.99098,0,0,0.33333,1.8812e-18,0,0.66667
0.49353,0.80391,1.4806,0.45587,3.9703,9.9646,-1.7999,0.59997,-1.2606,-2.3999,1.4067e-13,-0.63032,0,0,0.33333,-3.9475e-16,0,0.66667
0.60076,0.72083,1.8023,0.33125,2.3848,6.7592,-1.592,0.53066,-1.6103,-2.1227,1.7047e-12,-0.80517,0,0,0.33333,-1.579e-15,0,0.66667
0.684,0.14666,2.052,-0.53002,-3.2298,4.8154,2.9002,-0.96675,-1.0008,3.867,-1.2988e-11,-0.50042,0,0,0.33333,-0,-0,0.66667
0.47827,0.095442,1.4348,-0.60684,-5.4941,10.547,2.3219,-0.77396,-0.69124,3.0958,-3.5505e-13,-0.34562,0,0,0.33333,1.579e-15,0,0.66667
0.54316,0.93769,1.6295,0.65654,5.4646,8.6229,-2.8528,0.95094,-0.46847,-3.8038,-2.5269e-13,-0.23424,0,0,0.33333,-1.579e-15,0,0.66667
0.54961,0.036507,1.6488,-0.69524,-5.7657,8.4747,3.0569,-1.019,-0.28164,4.0758,9.6811e-14,-0.14082,0,0,0.33333,-0,-0,0.66667
0.71378,0.61642,2.1413,0.17463,0.93158,3.9132,-0.9972,0.3324,-1.8912,-1.3296,4.1743e-11,-0.9456,0,0,0.33333,-0,-0,0.66667
0.15616,0.46235,0.46848,-0.056475,-0.62842,22.011,0.070554,-0.023518,-1.9892,0.094072,8.9477e-10,-0.99458,0,0,0.33333,-0,-0,0.66667
0.021742,0.16427,0.065227,-0.50359,-5.8789,27.382,0.087594,-0.029198,-1.0979,0.11679,-9.5367e-08,-0.54896,0,0,0.33333,-0,-0,0.66667
0.50805,0.38281,1.5242,-0.17579,-1.4681,9.3955,0.71448,-0.23816,-1.8897,0.95265,4.0912e-14,-0.94487,0,0,0.33333,-0,-0,0.66667
0.95369,0.26879,2.8611,-0.34681,-0.2175,0.42579,2.646,-0.88201,-1.5722,3.528,-8.0124e-10,-0.78611,0,0,0.33333,-0,-0,0.66667
0.025153,0.49148,0.07546,-0.012773,-0.14573,27.238,0.0025691,-0.00086039,-1.999,0.0034234,-6.0616e-06,-0.9995,0,0,0.33333,2.4672e-17,0,0.66667
0.6128,0.036919,1.8384,-0.69462,-5.1477,6.7404,3.4053,-1.1351,-0.28456,4.5404,2.2937e-13,-0.14228,0,0,0.33333,-0,-0,0.66667
0.49388,0.50072,1.4816,0.0010843,0.0092043,9.8169,-0.0042842,0.0014281,-2.0008,-0.0057122,1.296e-13,-1.0004,0,0,0.33333,-0,-0,0.66667
0.9002,0.24539,2.7006,-0.38191,-0.70412,0.94589,2.7504,-0.91679,-1.4815,3.6671,5.2116e-10,-0.74074,0,0,0.33333,-1.1842e-15,0,0.66667
0.023607,0.37281,0.070821,-0.19078,-2.184,27.301,0.03603,-0.01201,-1.871,0.04804,-3.1911e-07,-0.93552,0,0,0.33333,-6.1679e-18,0,0.66667
0.65951,0.43161,1.9785,-0.10258,-0.63686,5.1563,0.54124,-0.18041,-1.9627,0.72165,-9.1165e-12,-0.98134,0,0,0.33333,-1.1842e-15,0,0.66667
0.65622,0.57281,1.9687,0.10921,0.68384,5.2386,-0.57334,0.19111,-1.9577,-0.76446,8.8971e-12,-0.97885,0,0,0.33333,-0,-0,0.66667
0.88375,0.049455,2.6513,-0.67582,-1.7018,1.4999,4.778,-1.5927,-0.37532,6.3707,-2.4693e-09,-0.18766,0,0,0.33333,-0,-0,0.66667
0.53642,0.59916,1.6093,0.14874,1.1879,8.5271,-0.63831,0.21277,-1.9213,-0.85108,-1.189e-13,-0.96067,0,0,0.33333,-0,-0,0.66667
0.69065,0.99089,2.0719,0.73634,4.6058,4.9039,-4.0684,1.3561,-0.071923,-5.4246,1.4833e-13,-0.035962,0,0,0.33333,7.8949e-16,0,0.66667
0.41267,0.89755,1.238,0.59633,5.8094,12.679,-1.9687,0.65622,-0.73517,-2.6249,9.3192e-13,-0.36759,0,0,0.33333,-0,-0,0.66667
0.82659,0.28181,2.4798,-0.32729,-1.0894,1.875,2.1643,-0.72142,-1.6204,2.8857,-1.7929e-10,-0.81019,0,0,0.33333,-3.158e-15,0,0.66667
0.68501,0.61965,2.055,0.17948,1.0444,4.5649,-0.98355,0.32785,-1.8857,-1.3114,2.4995e-11,-0.94287,0,0,0.33333,-3.9475e-16,0,0.66667
0.10801,0.71761,0.32404,0.32642,3.717,23.933,-0.28206,0.09402,-1.6223,-0.37608,2.3777e-09,-0.81116,0,0,0.33333,-8.6351e-17,0,0.66667
0.13989,0.30359,0.41968,-0.29461,-3.3208,22.668,0.32972,-0.10991,-1.6915,0.43962,2.3962e-10,-0.84575,0,0,0.33333,-1.9737e-16,0,0.66667
0.15807,0.40868,0.47422,-0.13698,-1.5255,21.939,0.17322,-0.057742,-1.9341,0.23097,6.1718e-10,-0.96706,0,0,0.33333,-0,-0,0.66667
0.12054,0.52979,0.36162,0.044682,0.50242,23.42,-0.043087,0.014362,-1.9936,-0.05745,-1.4306e-08,-0.99681,0,0,0.33333,-6.3e-17,0,0.66667
0.23028,0.076924,0.69083,-0.63461,-7.1064,19.252,1.1691,-0.3897,-0.56742,1.5588,6.1426e-11,-0.28371,0,0,0.33333,-0,1.1444e-16,0.66667
0.42336,0.25686,1.2701,-0.36471,-3.4297,12.195,1.2352,-0.41175,-1.5273,1.647,-3.6215e-13,-0.76363,0,0,0.33333,-0,-0,0.66667
0.67076,0.025758,2.0123,-0.71136,-4.654,5.3259,3.8172,-1.2724,-0.2012,5.0896,5.0626e-14,-0.1006,0,0,0.33333,-0,-0,0.66667
0.33662,0.78189,1.0099,0.42284,4.3308,15.239,-1.1387,0.37956,-1.3651,-1.5183,-1.3913e-11,-0.68253,0,0,0.33333,-0,-0,0.66667
0.51975,0.023978,1.5593,-0.71403,-6.2147,9.3681,2.969,-0.98966,-0.18707,3.9586,4.4409e-14,-0.093533,0,0,0.33333,-0,-0,0.66667
0.82112,0.77866,2.4634,0.41799,1.4659,2.0348,-2.7457,0.91524,-1.3792,-3.661,4.401e-10,-0.68959,0,0,0.33333,-1.7764e-15,0,0.66667
0.88459,0.13826,2.6538,-0.54262,-1.2654,1.2988,3.8399,-1.28,-0.9524,5.1199,-5.655e-09,-0.4762,0,0,0.33333,-1.579e-15,0,0.66667
0.70449,0.98877,2.1135,0.73316,4.4124,4.5948,-4.1321,1.3774,-0.088627,-5.5094,-1.9984e-14,-0.044313,0,0,0.33333,-7.8949e-16,0,0.66667
0.83449,0.34166,2.5035,-0.2375,-0.74069,1.6979,1.5856,-0.52852,-1.7999,2.1141,2.6659e-10,-0.89997,0,0,0.33333,1.0366e-15,0,0.66667
0.30908,0.21261,0.92723,-0.43108,-4.5104,16.241,1.0659,-0.3553,-1.3393,1.4212,2.9997e-11,-0.66966,0,0,0.33333,-0,-0,0.66667
0.79062,0.10312,2.3719,-0.59532,-2.5499,2.7316,3.7653,-1.2551,-0.73939,5.0205,-1.9039e-10,-0.36969,0,0,0.33333,-0,-0,0.66667
0.91666,0.41763,2.75,-0.12355,-0.1667,0.61592,0.90602,-0.30201,-1.9451,1.208,1.0828e-08,-0.97256,0,0,0.33333,-0,-0,0.66667
0.038406,0.24269,0.11522,-0.38596,-4.4592,26.712,0.11858,-0.039528,-1.47,0.15811,1.7324e-09,-0.73501,0,0,0.33333,2.4672e-17,0,0.66667
0.44563,0.91675,1.3369,0.62513,5.9005,11.608,-2.2286,0.74287,-0.60991,-2.9715,5.6244e-13,-0.30496,0,0,0.33333,-0,-0,0.66667
0.23993,0.027215,0.71979,-0.70918,-7.9764,18.919,1.3612,-0.45374,-0.21198,1.815,3.893e-12,-0.10599,0,0,0.33333,1.9737e-16,0,0.66667
0.49402,0.38969,1.482,-0.16547,-1.4092,9.8307,0.65396,-0.21799,-1.9019,0.87195,4.8572e-14,-0.95094,0,0,0.33333,-7.8949e-16,0,0.66667
0.61748,0.3126,1.8524,-0.28111,-1.9462,6.2868,1.3886,-0.46287,-1.7199,1.8515,-4.6121e-12,-0.85996,0,0,0.33333,1.579e-15,0,0.66667
0.20905,0.67929,0.62714,0.26893,2.9495,19.966,-0.44976,0.14992,-1.7425,-0.59968,-1.5965e-10,-0.87123,0,0,0.33333,-1.9737e-16,0,0.66667
0.87443,0.52237,2.6233,0.033554,0.075244,1.0789,-0.23472,0.078241,-1.9961,-0.31296,3.1704e-09,-0.99807,0,0,0.33333,-0,-0,0.66667
0.25589,0.18965,0.76767,-0.46552,-5.0535,18.225,0.95298,-0.31766,-1.23,1.2706,1.0568e-10,-0.61499,0,0,0.33333,7.8949e-16,0,0.66667
0.71361,0.64632,2.1408,0.21949,1.1755,3.9338,-1.253,0.41767,-1.8282,-1.6707,4.9517e-11,-0.91411,0,0,0.33333,-0,-0,0.66667
0.85223,0.21904,2.5567,-0.42144,-1.216,1.5772,2.8733,-0.95777,-1.3693,3.8311,-3.8267e-10,-0.68467,0,0,0.33333,-0,-0,0.66667
0.93241,0.53865,2.7972,0.057971,0.057239,0.45218,-0.43242,0.14414,-1.9878,-0.57656,-6.2744e-08,-0.9939,0,0,0.33333,-0,-0,0.66667
0.95573,0.86508,2.8672,0.54762,0.41983,0.63981,-4.187,1.3957,-0.93348,-5.5827,-1.2226e-07,-0.46674,0,0,0.33333,7.8949e-16,0,0.66667
0.6802,0.24168,2.0406,-0.38748,-2.3327,4.7846,2.1085,-0.70284,-1.4657,2.8114,-2.5587e-11,-0.73286,0,0,0.33333,-7.8949e-16,0,0.66667
0.62852,0.37471,1.8856,-0.18793,-1.2615,5.9611,0.94494,-0.31498,-1.8755,1.2599,-6.4359e-12,-0.93774,0,0,0.33333,7.4015e-17,0,0.66667
0.59597,0.96345,1.7879,0.69518,5.3221,7.1865,-3.3144,1.1048,-0.282,-4.4192,-2.7423e-13,-0.141,0,0,0.33333,1.1842e-15,0,0.66667
0.48512,0.090965,1.4554,-0.61355,-5.5115,10.337,2.3812,-0.79373,-0.66246,3.1749,-6.3727e-14,-0.33123,0,0,0.33333,1.9737e-16,0,0.66667
0.36043,0.40206,1.0813,-0.14692,-1.4515,14.315,0.42363,-0.14121,-1.9239,0.56484,7.5984e-12,-0.96195,0,0,0.33333,-3.9475e-16,0,0.66667
0.020765,0.37739,0.062296,-0.18391,-2.1052,27.415,0.030552,-0.010184,-1.8802,0.040737,-1.7207e-07,-0.94012,0,0,0.33333,-0,-0,0.66667
0.74867,0.45036,2.246,-0.074457,-0.34967,3.1571,0.44595,-0.14865,-1.98,0.5946,-3.0874e-11,-0.99002,0,0,0.33333,-0,-0,0.66667
0.39368,0.29979,1.181,-0.30031,-2.8982,13.184,0.94581,-0.31527,-1.6788,1.2611,2.7205e-12,-0.83942,0,0,0.33333,-0,-0,0.66667
0.27934,0.72659,0.83802,0.33988,3.6028,17.311,-0.75954,0.25318,-1.5893,-1.0127,-7.0063e-11,-0.79465,0,0,0.33333,-0,-0,0.66667
0.77753,0.64453,2.3326,0.2168,0.91289,2.6438,-1.3485,0.44951,-1.8324,-1.7981,1.1741e-10,-0.91619,0,0,0.33333,7.8949e-16,0,0.66667
0.66027,0.65236,1.9808,0.22854,1.426,5.1744,-1.2072,0.4024,-1.8146,-1.6096,1.6475e-11,-0.90731,0,0,0.33333,9.8686e-16,0,0.66667
0.9098,0.65141,2.7294,0.22712,0.34918,0.73005,-1.6531,0.55102,-1.8168,-2.2041,1.0892e-08,-0.90841,0,0,0.33333,-0,-0,0.66667
0.12761,0.97485,0.38284,0.71228,8.3674,23.225,-0.72718,0.24239,-0.19626,-0.96957,1.113e-09,-0.098131,0,0,0.33333,-0,-0,0.66667
0.38236,0.40878,1.1471,-0.13683,-1.3247,13.54,0.41854,-0.13951,-1.9338,0.55806,3.7397e-12,-0.96691,0,0,0.33333,-0,-0,0.66667
0.57738,0.72787,1.7322,0.34181,2.5763,7.41,-1.5788,0.52628,-1.5847,-2.1051,-1.5143e-13,-0.79234,0,0,0.33333,-0,-0,0.66667
0.3545,0.83951,1.0635,0.50927,5.1831,14.639,-1.4443,0.48142,-1.0781,-1.9257,-3.4114e-12,-0.53903,0,0,0.33333,5.9212e-16,0,0.66667
0.34805,0.89432,1.0441,0.59148,6.1076,14.909,-1.6469,0.54897,-0.75551,-2.1959,-1.132e-12,-0.37776,0,0,0.33333,3.9475e-16,0,0.66667
0.48409,0.52926,1.4523,0.04389,0.37775,10.128,-0.16998,0.056658,-1.9943,-0.22663,-4.0551e-14,-0.99716,0,0,0.33333,-1.9737e-16,0,0.66667
0.071438,0.10391,0.21432,-0.59414,-6.9642,25.413,0.33955,-0.11318,-0.7443,0.45274,8.0719e-08,-0.37215,0,0,0.33333,-1.9737e-16,0,0.66667
0.038686,0.98067,0.11606,0.72101,8.6072,26.72,-0.22314,0.07438,-0.15093,-0.29752,4.057e-07,-0.075465,0,0,0.33333,-0,-0,0.66667
0.84061,0.71233,2.5218,0.31849,0.96897,1.6571,-2.1418,0.71393,-1.6394,-2.8557,2.1675e-10,-0.81969,0,0,0.33333,-0,-0,0.66667
0.0073689,0.070195,0.022107,-0.64471,-7.6379,27.957,0.038006,-0.012669,-0.52178,0.050675,2.5066e-07,-0.26089,0,0,0.33333,-0,-0,0.66667
0.70376,0.67832,2.1113,0.26748,1.4839,4.1735,-1.5059,0.50198,-1.7457,-2.0079,4.6294e-11,-0.87285,0,0,0.33333,-0,-0,0.66667
0.44556,0.72811,1.3367,0.34217,3.1328,11.447,-1.2197,0.40655,-1.5832,-1.6262,6.3116e-13,-0.79159,0,0,0.33333,-7.8949e-16,0,0.66667
0.96951,0.49011,2.9085,-0.014832,-0.0020354,0.16299,0.11504,-0.038344,-1.9992,0.15339,3.9731e-06,-0.99962,0,0,0.33333,-0,-0,0.66667
0.80992,0.38482,2.4298,-0.17278,-0.61784,2.0583,1.1195,-0.37316,-1.8936,1.4926,-6.9279e-11,-0.94681,0,0,0.33333,-0,-0,0.66667
0.39961,0.44953,1.1988,-0.075708,-0.71971,12.934,0.24203,-0.080677,-1.9789,0.32271,1.2462e-12,-0.98946,0,0,0.33333,-0,-0,0.66667
0.39383,0.58422,1.1815,0.12632,1.2092,13.14,-0.398,0.13267,-1.943,-0.53066,-2.3638e-12,-0.97148,0,0,0.33333,-3.9475e-16,0,0.66667
0.12859,0.28239,0.38578,-0.32642,-3.6979,23.118,0.3358,-0.11193,-1.622,0.44774,-1.7662e-10,-0.81102,0,0,0.33333,-0,-0,0.66667
0.36459,0.98041,1.0938,0.72061,7.4656,14.409,-2.1018,0.70061,-0.15304,-2.8024,8.4599e-14,-0.076518,0,0,0.33333,-0,-0,0.66667
0.20418,0.83573,0.61254,0.5036,5.6299,20.203,-0.8226,0.2742,-1.0984,-1.0968,-3.6856e-10,-0.54921,0,0,0.33333,-1.9737e-16,0,0.66667
0.31607,0.38714,0.94821,-0.16929,-1.7348,15.919,0.42807,-0.14269,-1.8976,0.57076,2.3486e-11,-0.94879,0,0,0.33333,-0,-0,0.66667
0.56232,0.38288,1.6869,-0.17569,-1.3448,7.7736,0.79033,-0.26344,-1.8906,1.0538,-2.1977e-13,-0.94528,0,0,0.33333,-0,-0,0.66667
0.86191,0.49465,2.5857,-0.008032,-0.020091,1.2418,0.055383,-0.018461,-2,0.073844,-7.7901e-09,-1,0,0,0.33333,-3.9475e-16,0,0.66667
0.098202,0.83654,0.29461,0.50481,5.8382,24.342,-0.39659,0.1322,-1.0937,-0.52878,-4.5738e-09,-0.54687,0,0,0.33333,-0,-0,0.66667
0.83006,0.91389,2.4902,0.62084,2.203,2.1296,-4.1227,1.3742,-0.62958,-5.4969,8.9235e-10,-0.31479,0,0,0.33333,-0,-0,0.66667
0.92067,0.33557,2.762,-0.24664,-0.32266,0.63242,1.8166,-0.60553,-1.7838,2.4221,4.2968e-09,-0.8919,0,0,0.33333,7.8949e-16,0,0.66667
0.22363,0.2116,0.67088,-0.4326,-4.7632,19.439,0.77393,-0.25798,-1.3344,1.0319,2.2652e-10,-0.6672,0,0,0.33333,3.9475e-16,0,0.66667
0.20085,0.73423,0.60254,0.35135,3.8862,20.296,-0.56455,0.18818,-1.5606,-0.75273,-2.5174e-10,-0.78031,0,0,0.33333,-0,-0,0.66667
0.76844,0.32781,2.3053,-0.25828,-1.1364,2.8339,1.5878,-0.52925,-1.7623,2.117,-1.249e-10,-0.88115,0,0,0.33333,1.579e-15,0,0.66667
0.020528,0.78497,0.061585,0.42745,4.9589,27.429,-0.070198,0.023399,-1.3506,-0.093597,-1.4174e-10,-0.67532,0,0,0.33333,-0,-0,0.66667
0.48994,0.48942,1.4698,-0.015867,-0.13544,9.9412,0.062191,-0.02073,-1.9985,0.082921,-5.5705e-14,-0.99926,0,0,0.33333,7.8949e-16,0,0.66667
0.022375,0.65851,0.067126,0.23776,2.7269,27.351,-0.04256,0.014186,-1.7995,-0.056746,-1.1436e-07,-0.89973,0,0,0.33333,-4.9343e-17,0,0.66667
0.8073,0.44005,2.4219,-0.089925,-0.32412,2.0786,0.58077,-0.19359,-1.9717,0.77436,-9.1406e-11,-0.98586,0,0,0.33333,3.158e-15,0,0.66667
0.024361,0.43118,0.073084,-0.10322,-1.1789,27.27,0.020117,-0.0067068,-1.9619,0.026823,-1.5122e-06,-0.98096,0,0,0.33333,-3.7007e-17,0,0.66667
0.16055,0.69774,0.48166,0.29661,3.3216,21.856,-0.38097,0.12699,-1.6867,-0.50796,-1.9368e-10,-0.84337,0,0,0.33333,-3.9475e-16,0,0.66667
0.24613,0.6043,0.73839,0.15645,1.6763,18.53,-0.30805,0.10268,-1.9125,-0.41073,-6.985e-11,-0.95626,0,0,0.33333,-0,-0,0.66667
0.99712,0.39689,2.9914,-0.15467,0.075707,0.044353,1.2338,-0.41126,-1.9147,1.645,-7.6423e-07,-0.95735,0,0,0.33333,1.579e-15,0,0.66667
0.42075,0.3075,1.2622,-0.28875,-2.7082,12.255,0.97194,-0.32398,-1.7041,1.2959,6.774e-13,-0.85203,0,0,0.33333,-5.9212e-16,0,0.66667
0.072263,0.15535,0.21679,-0.51697,-6.013,25.372,0.29886,-0.099621,-1.0505,0.39848,3.3071e-08,-0.52525,0,0,0.33333,1.8504e-17,0,0.66667
0.25027,0.67356,0.75081,0.26034,2.7948,18.387,-0.52125,0.17375,-1.7589,-0.69499,-9.9607e-11,-0.87945,0,0,0.33333,-3.9475e-16,0,0.66667
0.41157,0.55579,1.2347,0.083679,0.78586,12.525,-0.27552,0.091839,-1.9749,-0.36736,-8.5026e-13,-0.98746,0,0,0.33333,3.9475e-16,0,0.66667
0.42026,0.083525,1.2608,-0.62471,-6.0609,12.444,2.1003,-0.70011,-0.61224,2.8004,-7.7738e-13,-0.30612,0,0,0.33333,-0,3.476e-16,0.66667
0.12217,0.044824,0.36652,-0.68276,-8.0027,23.43,0.66732,-0.22244,-0.34203,0.88976,5.5663e-10,-0.17102,0,0,0.33333,-0,-0,0.66667
0.0095038,0.0064081,0.028511,-0.74039,-8.8729,27.874,0.056293,-0.01877,-0.050756,0.075055,-8.1649e-06,-0.025378,0,0,0.33333,-0,-0,0.66667
0.81546,0.18651,2.4464,-0.47024,-1.7241,2.1754,3.0677,-1.0226,-1.2147,4.0902,-6.6745e-10,-0.60737,0,0,0.33333,-9.8686e-17,0,0.66667
0.24196,0.10642,0.72587,-0.59036,-6.5386,18.794,1.1427,-0.38091,-0.76003,1.5236,7.4348e-11,-0.38002,0,0,0.33333,-3.9475e-16,0,0.66667
0.083424,0.34088,0.25027,-0.23868,-2.7191,24.905,0.1593,-0.053099,-1.7978,0.21239,7.5923e-09,-0.89892,0,0,0.33333,1.2336e-16,0,0.66667
0.39022,0.95234,1.1707,0.67852,6.8305,13.496,-2.1182,0.70606,-0.36292,-2.8242,4.2122e-13,-0.18146,0,0,0.33333,-0,-0,0.66667
0.43254,0.22345,1.2976,-0.41482,-3.8786,11.911,1.4354,-0.47847,-1.3883,1.9139,-8.2323e-13,-0.69415,0,0,0.33333,-0,-0,0.66667
0.5241,0.48992,1.5723,-0.01512,-0.12278,8.8828,0.063393,-0.021131,-1.9986,0.084523,9.2024e-14,-0.9993,0,0,0.33333,-0,-0,0.66667
0.76031,0.65454,2.2809,0.23181,1.0514,2.9761,-1.41,0.46999,-1.8096,-1.88,1.0408e-10,-0.90478,0,0,0.33333,2.2698e-15,0,0.66667
0.78814,0.72111,2.3644,0.33166,1.3521,2.5178,-2.0911,0.69705,-1.6093,-2.7882,2.1542e-10,-0.80466,0,0,0.33333,-0,-0,0.66667
0.46938,0.10204,1.4081,-0.59694,-5.4574,10.821,2.2415,-0.74718,-0.73321,2.9887,-4.2122e-13,-0.36661,0,0,0.33333,-0,-0,0.66667
0.88477,0.076088,2.6543,-0.63587,-1.5529,1.4264,4.5008,-1.5003,-0.56165,6.001,-6.9974e-09,-0.28082,0,0,0.33333,-1.579e-15,0,0.66667
0.079143,0.48168,0.23743,-0.027476,-0.31164,25.071,0.017396,-0.0057986,-1.9971,0.023195,2.2264e-09,-0.99855,0,0,0.33333,-0,-0,0.66667
0.35568,0.0088445,1.067,-0.73673,-7.7073,14.731,2.0963,-0.69878,-0.069842,2.7951,-3.1752e-14,-0.034921,0,0,0.33333,-1.579e-15,0,0.66667
0.35988,0.66214,1.0796,0.24321,2.4136,14.353,-0.70021,0.2334,-1.7902,-0.93362,-9.9232e-12,-0.89509,0,0,0.33333,-0,-0,0.66667
0.71091,0.88156,2.1327,0.57234,3.2576,4.2579,-3.255,1.085,-0.83506,-4.3401,2.0457e-11,-0.41753,0,0,0.33333,-0,-0,0.66667
0.84544,0.59199,2.5363,0.13799,0.39452,1.494,-0.93329,0.3111,-1.9333,-1.2444,1.4425e-09,-0.96664,0,0,0.33333,-5.9212e-16,0,0.66667
0.72322,0.15864,2.1697,-0.51204,-2.7711,3.9325,2.9626,-0.98752,-1.0683,3.9501,-4.9089e-11,-0.53416,0,0,0.33333,-3.158e-15,0,0.66667
0.11084,0.96872,0.33252,0.70308,8.2836,23.878,-0.62344,0.20781,-0.2438,-0.83125,-1.5532e-08,-0.1219,0,0,0.33333,2.8681e-16,0,0.66667
0.59935,0.75124,1.7981,0.37687,2.7335,6.8232,-1.807,0.60233,-1.4957,-2.4093,8.3578e-13,-0.74785,0,0,0.33333,-0,-0,0.66667
0.50962,0.23845,1.5289,-0.39233,-3.319,9.4306,1.5995,-0.53317,-1.4521,2.1327,2.0361e-13,-0.72603,0,0,0.33333,7.8949e-16,0,0.66667
0.60538,0.94861,1.8162,0.67292,5.0391,6.9112,-3.259,1.0863,-0.38947,-4.3453,-5.2713e-13,-0.19473,0,0,0.33333,1.579e-15,0,0.66667
0.012168,0.64615,0.036505,0.21922,2.5133,27.761,-0.021341,0.0071136,-1.8288,-0.028454,3.7765e-08,-0.91438,0,0,0.33333,-0,-0,0.66667
0.2884,0.44757,0.86521,-0.078639,-0.81981,16.932,0.18144,-0.060479,-1.9774,0.24191,1.9762e-11,-0.98871,0,0,0.33333,-0,-0,0.66667
0.051856,0.0098828,0.15557,-0.73518,-8.7816,26.202,0.30499,-0.10166,-0.077794,0.40665,2.805e-07,-0.038897,0,0,0.33333,-0,-0,0.66667
0.38587,0.56979,1.1576,0.10468,1.0093,13.414,-0.32315,0.10772,-1.9608,-0.43086,-2.6745e-12,-0.98041,0,0,0.33333,-0,-0,0.66667
0.75909,0.45802,2.2773,-0.062976,-0.28378,2.9495,0.38243,-0.12748,-1.9853,0.50991,-3.2446e-11,-0.99264,0,0,0.33333,-7.8949e-16,0,0.66667
0.276,0.27136,0.82801,-0.34296,-3.6438,17.437,0.75726,-0.25242,-1.5813,1.0097,7.5057e-11,-0.79064,0,0,0.33333,-0,-0,0.66667
0.61411,0.69529,1.8423,0.29294,2.0447,6.3814,-1.4392,0.47973,-1.6946,-1.9189,3.8529e-12,-0.84731,0,0,0.33333,-0,-0,0.66667
0.62743,0.92974,1.8823,0.64461,4.5919,6.3075,-3.2356,1.0785,-0.52255,-4.3141,-5.6088e-13,-0.26127,0,0,0.33333,-0,-0,0.66667
0.25163,0.18691,0.75489,-0.46963,-5.1122,18.387,0.94539,-0.31513,-1.217,1.2605,1.1841e-10,-0.60852,0,0,0.33333,5.9212e-16,0,0.66667
0.47504,0.35557,1.4251,-0.21665,-1.8973,10.446,0.82335,-0.27445,-1.8324,1.0978,-1.949e-13,-0.91621,0,0,0.33333,-0,-0,0.66667
0.1435,0.19964,0.43049,-0.45054,-5.1272,22.549,0.5172,-0.1724,-1.2778,0.6896,1.0353e-09,-0.63892,0,0,0.33333,-0,-0,0.66667
0.070018,0.21387,0.21005,-0.4292,-4.9568,25.453,0.24042,-0.080139,-1.345,0.32055,-1.6685e-09,-0.67251,0,0,0.33333,-1.4803e-16,0,0.66667
0.79297,0.32549,2.3789,-0.26177,-1.0319,2.3889,1.6606,-0.55352,-1.7558,2.2141,-1.6143e-10,-0.87789,0,0,0.33333,-0,-0,0.66667
0.17947,0.57966,0.53842,0.11949,1.3198,21.099,-0.17157,0.057189,-1.9484,-0.22876,-7.3528e-11,-0.97422,0,0,0.33333,-0,-0,0.66667
0.12621,0.82112,0.37862,0.48168,5.523,23.233,-0.48633,0.16211,-1.1751,-0.64844,-2.348e-09,-0.58756,0,0,0.33333,-0,-0,0.66667
0.96712,0.017,2.9013,-0.7245,-0.53415,0.85512,5.6054,-1.8685,-0.13335,7.4739,-1.986e-07,-0.066675,0,0,0.33333,-0,3.9169e-16,0.66667
0.055643,0.21923,0.16693,-0.42116,-4.87,26.026,0.18748,-0.062492,-1.3701,0.24997,-1.3713e-08,-0.68507,0,0,0.33333,-1.9737e-16,0,0.66667
0.68195,0.49211,2.0458,-0.011829,-0.069032,4.6074,0.064535,-0.021512,-1.9992,0.086046,-1.7945e-12,-0.99958,0,0,0.33333,-7.8949e-16,0,0.66667
0.37495,0.33703,1.1248,-0.24446,-2.3936,13.821,0.73327,-0.24442,-1.788,0.97769,6.2226e-12,-0.894,0,0,0.33333,1.9737e-16,0,0.66667
0.17349,0.642,0.52046,0.213,2.3648,21.34,-0.29562,0.09854,-1.8384,-0.39416,-4.1672e-11,-0.91918,0,0,0.33333,-0,-0,0.66667
0.27286,0.16373,0.81858,-0.50441,-5.4411,17.604,1.1011,-0.36702,-1.095,1.4681,5.7563e-11,-0.54751,0,0,0.33333,-0,-0,0.66667
0.7317,0.81412,2.1951,0.47118,2.4607,3.7166,-2.7581,0.91936,-1.2115,-3.6775,7.6095e-11,-0.60575,0,0,0.33333,-3.158e-15,0,0.66667
0.85547,0.51122,2.5664,0.016829,0.044339,1.3303,-0.11517,0.038391,-1.9985,-0.15356,-8.3016e-11,-0.99925,0,0,0.33333,-0,-0,0.66667
0.26883,0.76578,0.80649,0.39867,4.2714,17.72,-0.85739,0.2858,-1.4343,-1.1432,-8.6341e-11,-0.71717,0,0,0.33333,3.9475e-16,0,0.66667
0.34714,0.13476,1.0414,-0.54785,-5.6329,14.918,1.5215,-0.50716,-0.93249,2.0286,2.7385e-12,-0.46624,0,0,0.33333,7.8949e-16,0,0.66667
0.40955,0.22527,1.2287,-0.4121,-3.9479,12.683,1.3502,-0.45007,-1.3962,1.8003,-1.8252e-13,-0.69809,0,0,0.33333,-0,-0,0.66667
0.82745,0.94514,2.4823,0.66772,2.4459,2.2355,-4.42,1.4733,-0.41501,-5.8933,8.9448e-11,-0.20751,0,0,0.33333,-0,-0,0.66667
0.74992,0.86114,2.2498,0.54171,2.6936,3.42,-3.2499,1.0833,-0.95655,-4.3332,8.8383e-11,-0.47828,0,0,0.33333,-0,-0,0.66667
0.20942,0.13551,0.62826,-0.54674,-6.1237,20.014,0.91599,-0.30533,-0.93656,1.2213,2.8464e-10,-0.46828,0,0,0.33333,-0,-0,0.66667
0.54285,0.51185,1.6286,0.01777,0.14004,8.32,-0.077172,0.025724,-1.9983,-0.1029,4.4131e-14,-0.99917,0,0,0.33333,-0,-0,0.66667
0.76674,0.02665,2.3002,-0.71003,-3.4683,3.3132,4.3552,-1.4517,-0.20809,5.807,-1.0683e-11,-0.10405,0,0,0.33333,7.8949e-16,0,0.66667
0.47874,0.99297,1.4362,0.73945,6.8276,10.646,-2.832,0.94401,-0.055641,-3.776,-2.2671e-13,-0.027821,0,0,0.33333,3.9475e-16,0,0.66667
0.5555,0.99862,1.6665,0.74793,6.2032,8.3625,-3.3238,1.1079,-0.011622,-4.4318,8.9484e-14,-0.0058111,0,0,0.33333,-1.9737e-16,0,0.66667
0.21251,0.41918,0.63754,-0.12123,-1.3202,19.816,0.20611,-0.068704,-1.947,0.27482,7.6406e-11,-0.9735,0,0,0.33333,-3.9475e-16,0,0.66667
0.65934,0.47552,1.978,-0.036724,-0.22775,5.1525,0.19371,-0.06457,-1.9952,0.25828,-3.4805e-12,-0.9976,0,0,0.33333,-0,-0,0.66667
0.072077,0.75977,0.21623,0.38966,4.4856,25.368,-0.22468,0.074894,-1.4596,-0.29957,5.6514e-10,-0.72981,0,0,0.33333,-0,-0,0.66667
0.36173,0.15698,1.0852,-0.51453,-5.2076,14.386,1.489,-0.49633,-1.0598,1.9853,1.9135e-12,-0.52989,0,0,0.33333,1.579e-15,0,0.66667
0.4004,0.13142,1.2012,-0.55287,-5.4235,13.067,1.771,-0.59032,-0.91303,2.3613,-1.0347e-12,-0.45652,0,0,0.33333,-0,-0,0.66667
0.60878,0.37436,1.8263,-0.18846,-1.3203,6.4829,0.91782,-0.30594,-1.8751,1.2238,-3.4479e-12,-0.93755,0,0,0.33333,1.0362e-15,0,0.66667
0.94867,0.29757,2.846,-0.30364,-0.21637,0.428,2.3044,-0.76815,-1.6715,3.0726,9.3755e-09,-0.83575,0,0,0.33333,-0,-0,0.66667
0.21912,0.78268,0.65737,0.42401,4.6756,19.609,-0.74329,0.24776,-1.362,-0.99105,-2.449e-10,-0.68101,0,0,0.33333,7.8949e-16,0,0.66667
0.54416,0.02294,1.6325,-0.71559,-6.007,8.6527,3.1151,-1.0384,-0.17918,4.1535,3.7303e-14,-0.08959,0,0,0.33333,7.8949e-16,3.0823e-16,0.66667
0.80224,0.70969,2.4067,0.31453,1.194,2.2614,-2.0187,0.67288,-1.6478,-2.6915,2.13e-10,-0.8239,0,0,0.33333,7.8949e-16,0,0.66667
0.60296,0.95558,1.8089,0.68337,5.1515,6.987,-3.2964,1.0988,-0.33881,-4.3951,-3.0886e-13,-0.1694,0,0,0.33333,-7.8949e-16,0,0.66667
0.73883,0.79025,2.2165,0.43538,2.2042,3.5385,-2.5734,0.85779,-1.3257,-3.4311,9.851e-11,-0.66283,0,0,0.33333,-0,-0,0.66667
0.11645,0.041796,0.34936,-0.68731,-8.0716,23.655,0.64032,-0.21344,-0.31976,0.85375,-1.687e-09,-0.15988,0,0,0.33333,-0,-0,0.66667
0.83579,0.53313,2.5074,0.04969,0.15089,1.6183,-0.33224,0.11075,-1.9917,-0.44299,-5.7081e-10,-0.99587,0,0,0.33333,3.158e-15,0,0.66667
0.3113,0.32044,0.9339,-0.26934,-2.782,16.112,0.67076,-0.22359,-1.7422,0.89435,3.3976e-11,-0.8711,0,0,0.33333,-0,-0,0.66667
0.43711,0.48176,1.3113,-0.027365,-0.2497,11.659,0.095691,-0.031897,-1.9972,0.12759,1.4602e-13,-0.99862,0,0,0.33333,-7.8949e-16,0,0.66667
0.08488,0.3365,0.25464,-0.24524,-2.794,24.848,0.16653,-0.05551,-1.7858,0.22204,9.6015e-09,-0.89292,0,0,0.33333,-9.8686e-17,0,0.66667
0.68718,0.45155,2.0615,-0.072676,-0.41829,4.4898,0.39953,-0.13318,-1.9811,0.5327,-1.1842e-11,-0.99055,0,0,0.33333,-0,-0,0.66667
0.84731,0.29003,2.5419,-0.31496,-0.91477,1.5576,2.135,-0.71165,-1.647,2.8466,-1.4398e-10,-0.82351,0,0,0.33333,-0,-0,0.66667
0.48369,0.21661,1.4511,-0.42508,-3.7393,10.256,1.6449,-0.54829,-1.3586,2.1931,-2.7589e-13,-0.6793,0,0,0.33333,9.8686e-17,0,0.66667
0.10135,0.10131,0.30406,-0.59804,-6.9757,24.231,0.4849,-0.16163,-0.728,0.64653,2.1122e-08,-0.364,0,0,0.33333,-0,-0,0.66667
0.10296,0.97275,0.30887,0.70912,8.3754,24.188,-0.58408,0.19469,-0.21223,-0.77877,-2.0574e-08,-0.10612,0,0,0.33333,-3.9475e-16,0,0.66667
0.11563,0.75551,0.34688,0.38327,4.3725,23.637,-0.35453,0.11818,-1.4776,-0.47271,5.92e-10,-0.73882,0,0,0.33333,-3.9475e-16,0,0.66667
0.49491,0.68882,1.4847,0.28323,2.4246,9.8374,-1.1214,0.3738,-1.7155,-1.4952,-1.1657e-14,-0.85774,0,0,0.33333,-0,-0,0.66667
0.62202,0.1323,1.8661,-0.55155,-3.9101,6.3538,2.7446,-0.91488,-0.91831,3.6595,2.6579e-13,-0.45915,0,0,0.33333,-0,-0,0.66667
0.033262,0.19542,0.099785,-0.45687,-5.3088,26.921,0.12157,-0.040524,-1.2578,0.16209,-1.2748e-08,-0.62892,0,0,0.33333,9.8686e-17,0,0.66667
0.062583,0.89206,0.18775,0.58809,6.8973,25.763,-0.29444,0.098145,-0.77025,-0.39258,3.8523e-09,-0.38512,0,0,0.33333,-0,-0,0.66667
0.98655,0.59929,2.9596,0.14894,-0.035702,0.092824,-1.1755,0.39182,-1.9214,-1.5673,-1.3885e-07,-0.96071,0,0,0.33333,-0,-0,0.66667
0.2911,0.77304,0.87331,0.40955,4.3305,16.894,-0.95378,0.31793,-1.4032,-1.2717,-5.0747e-11,-0.70161,0,0,0.33333,-0,-0,0.66667
0.47673,0.10996,1.4302,-0.58506,-5.2915,10.579,2.2313,-0.74378,-0.78213,2.9751,-3.4261e-13,-0.39106,0,0,0.33333,2.2493e-16,0,0.66667
0.63063,0.97467,1.8919,0.712,5.105,6.3029,-3.5921,1.1974,-0.19744,-4.7895,-2.1028e-13,-0.09872,0,0,0.33333,-0,-0,0.66667
0.7149,0.012412,2.1447,-0.73138,-4.2701,4.3697,4.1829,-1.3943,-0.097508,5.5772,-2.4603e-13,-0.048754,0,0,0.33333,-0,-3.7805e-16,0.66667
0.10945,0.82384,0.32834,0.48575,5.5947,23.895,-0.42531,0.14177,-1.1611,-0.56708,4.7191e-10,-0.58054,0,0,0.33333,1.9737e-16,0,0.66667
0.10965,0.56197,0.32896,0.092961,1.0487,23.853,-0.081549,0.027183,-1.9707,-0.10873,-1.892e-08,-0.98537,0,0,0.33333,-9.2519e-17,0,0.66667
0.91206,0.57352,2.7362,0.11028,0.15958,0.65875,-0.80469,0.26823,-1.9561,-1.0729,-3.207e-08,-0.97807,0,0,0.33333,-0,-0,0.66667
0.32409,0.27996,0.97227,-0.33006,-3.3895,15.661,0.85577,-0.28526,-1.6134,1.141,2.5478e-11,-0.80672,0,0,0.33333,4.9343e-17,0,0.66667
0.72386,0.56461,2.1716,0.09692,0.49804,3.6751,-0.56125,0.18708,-1.9672,-0.74834,2.8069e-11,-0.98358,0,0,0.33333,3.158e-15,0,0.66667
0.70962,0.68164,2.1289,0.27246,1.4852,4.046,-1.5467,0.51558,-1.7359,-2.0623,5.2338e-11,-0.86797,0,0,0.33333,-0,-0,0.66667
0.46881,0.42504,1.4064,-0.11244,-0.9886,10.625,0.4217,-0.14057,-1.955,0.56226,-9.448e-14,-0.97751,0,0,0.33333,7.8949e-16,0,0.66667
0.091311,0.92629,0.27393,0.63944,7.5074,24.634,-0.4671,0.1557,-0.54588,-0.6228,-3.7715e-08,-0.27294,0,0,0.33333,-0,-0,0.66667
0.88983,0.77926,2.6695,0.41888,0.87841,1.0973,-2.9819,0.99396,-1.3772,-3.9759,6.5607e-10,-0.6886,0,0,0.33333,-5.9212e-16,0,0.66667
0.83452,0.93591,2.5036,0.65387,2.2905,2.1105,-4.3653,1.4551,-0.48045,-5.8204,-8.2817e-11,-0.24022,0,0,0.33333,-1.6528e-15,0,0.66667
0.43167,0.451,1.295,-0.073498,-0.67516,11.844,0.25382,-0.084605,-1.9801,0.33842,2.6945e-13,-0.99003,0,0,0.33333,-0,-0,0.66667
0.4559,0.93917,1.3677,0.65875,6.1742,11.301,-2.4026,0.80086,-0.45792,-3.2034,2.4913e-13,-0.22896,0,0,0.33333,-0,-0,0.66667
0.5459,0.23233,1.6377,-0.40151,-3.2152,8.347,1.7535,-0.58449,-1.4266,2.338,8.1701e-13,-0.71329,0,0,0.33333,-0,-0,0.66667
0.3785,0.91044,1.1355,0.61566,6.2124,13.858,-1.8642,0.6214,-0.65264,-2.4856,6.7391e-13,-0.32632,0,0,0.33333,-0,-0,0.66667
0.50468,0.78521,1.514,0.42782,3.6579,9.6023,-1.7273,0.57576,-1.3495,-2.3031,-5.8842e-14,-0.67474,0,0,0.33333,-1.579e-15,0,0.66667
0.47267,0.58678,1.418,0.13018,1.1395,10.503,-0.49224,0.16408,-1.9396,-0.65632,1.2254e-13,-0.96982,0,0,0.33333,-3.9475e-16,0,0.66667
0.28587,0.35413,0.8576,-0.2188,-2.2943,17.042,0.50039,-0.1668,-1.8293,0.66719,5.001e-11,-0.91464,0,0,0.33333,-0,-0,0.66667
0.87249,0.90205,2.6175,0.60307,1.6036,1.5255,-4.2094,1.4031,-0.70728,-5.6125,1.7111e-09,-0.35364,0,0,0.33333,-7.8949e-16,0,0.66667
0.04716,0.14232,0.14148,-0.53652,-6.2712,26.371,0.20242,-0.067474,-0.97639,0.26989,1.859e-09,-0.4882,0,0,0.33333,9.8686e-17,0,0.66667
0.36431,0.56984,1.0929,0.10476,1.0303,14.172,-0.30532,0.10177,-1.9607,-0.40709,-5.069e-12,-0.98037,0,0,0.33333,-7.8949e-16,0,0.66667
0.77404,0.05246,2.3221,-0.67131,-3.1514,3.1252,4.1569,-1.3856,-0.39707,5.5426,-3.2955e-11,-0.19853,0,0,0.33333,7.8949e-16,0,0.66667
0.48551,0.055455,1.4565,-0.66682,-6.0341,10.369,2.59,-0.86333,-0.41927,3.4533,-1.1702e-13,-0.20964,0,0,0.33333,3.9475e-16,0,0.66667
0.78628,0.75986,2.3588,0.38979,1.6197,2.5948,-2.4519,0.81729,-1.4593,-3.2692,2.4907e-10,-0.72964,0,0,0.33333,-0,-0,0.66667
0.48261,0.7558,1.4478,0.3837,3.3667,10.269,-1.4814,0.4938,-1.4768,-1.9752,2.9299e-13,-0.73842,0,0,0.33333,-0,-0,0.66667
0.98946,0.88287,2.9684,0.5743,0.0058689,0.48388,-4.546,1.5153,-0.82701,-6.0613,3.9856e-08,-0.4135,0,0,0.33333,-0,-0,0.66667
0.88404,0.16372,2.6521,-0.50441,-1.1612,1.2581,3.5674,-1.1891,-1.095,4.7565,6.4455e-10,-0.54751,0,0,0.33333,-0,-0,0.66667
0.007732,0.43667,0.023196,-0.094999,-1.0854,27.939,0.0058766,-0.0019588,-1.9686,0.0078356,1.4584e-07,-0.98432,0,0,0.33333,5.3969e-18,0,0.66667
0.47505,0.46144,1.4252,-0.057837,-0.50387,10.418,0.2198,-0.073268,-1.9878,0.29307,1.8743e-13,-0.9939,0,0,0.33333,-3.9475e-16,0,0.66667
0.85741,0.51545,2.5722,0.02318,0.060159,1.3037,-0.159,0.052999,-1.9977,-0.212,4.0106e-10,-0.99884,0,0,0.33333,3.158e-15,0,0.66667
0.34353,0.96147,1.0306,0.69221,7.2664,15.129,-1.9023,0.63411,-0.29671,-2.5364,1.8696e-13,-0.14836,0,0,0.33333,5.9212e-16,-2.8208e-16,0.66667
0.72899,0.10651,2.187,-0.59024,-3.1878,3.8956,3.4422,-1.1474,-0.76062,4.5897,-3.0101e-11,-0.38031,0,0,0.33333,-0,-0,0.66667
0.41832,0.21242,1.2549,-0.43138,-4.1023,12.395,1.4436,-0.4812,-1.3384,1.9248,-6.7724e-13,-0.66919,0,0,0.33333,-7.8949e-16,0,0.66667
0.095764,0.39623,0.28729,-0.15565,-1.7638,24.409,0.11925,-0.039749,-1.9137,0.159,9.2499e-10,-0.95683,0,0,0.33333,9.8686e-17,0,0.66667
0.31526,0.041313,0.94577,-0.68803,-7.3722,16.136,1.7352,-0.57842,-0.31656,2.3137,4.412e-13,-0.15828,0,0,0.33333,7.8949e-16,0,0.66667
0.31302,0.27078,0.93905,-0.34382,-3.5632,16.068,0.86098,-0.28699,-1.5797,1.148,3.2878e-11,-0.78985,0,0,0.33333,-3.9475e-16,0,0.66667
0.65455,0.73351,1.9637,0.35026,2.2426,5.3766,-1.8341,0.61137,-1.5634,-2.4455,1.3583e-11,-0.78172,0,0,0.33333,-0,-0,0.66667
0.92687,0.083069,2.7806,-0.6254,-0.94634,0.98198,4.6373,-1.5458,-0.6088,6.1831,-3.1863e-08,-0.3044,0,0,0.33333,-7.8949e-16,0,0.66667
0.70369,0.96115,2.1111,0.69172,4.1301,4.5568,-3.8941,1.298,-0.29902,-5.1921,1.2566e-12,-0.14951,0,0,0.33333,-7.8949e-16,0,0.66667
0.32303,0.79047,0.9691,0.43571,4.5145,15.734,-1.126,0.37533,-1.3246,-1.5013,-1.9651e-11,-0.66228,0,0,0.33333,-0,-0,0.66667
0.68312,0.04274,2.0494,-0.68589,-4.3243,5.0083,3.7484,-1.2495,-0.32675,4.9978,-5.9841e-13,-0.16338,0,0,0.33333,-0,-0,0.66667
0.084102,0.61924,0.25231,0.17887,2.0328,24.876,-0.12034,0.040115,-1.8862,-0.16046,5.4783e-09,-0.94308,0,0,0.33333,4.9343e-17,0,0.66667
0.3755,0.39127,1.1265,-0.16309,-1.5905,13.785,0.48993,-0.16331,-1.9053,0.65324,5.2448e-12,-0.95263,0,0,0.33333,-0,-0,0.66667
0.19006,0.68785,0.57018,0.28177,3.1179,20.703,-0.42842,0.14281,-1.7189,-0.57123,-1.5047e-10,-0.85943,0,0,0.33333,7.8949e-16,0,0.66667
0.69305,0.01768,2.0791,-0.72348,-4.4824,4.833,4.0113,-1.3371,-0.13822,5.3483,-1.692e-13,-0.06911,0,0,0.33333,-0,-0,0.66667
0.66211,0.71928,1.9863,0.32893,2.0618,5.1788,-1.7423,0.58076,-1.6161,-2.323,1.768e-11,-0.80807,0,0,0.33333,-0,-0,0.66667
0.35307,0.8519,1.0592,0.52785,5.3892,14.698,-1.491,0.49698,-1.0089,-1.9879,-2.7917e-12,-0.50447,0,0,0.33333,-0,-0,0.66667
0.1806,0.83313,0.54181,0.49969,5.6387,21.112,-0.72197,0.24066,-1.1116,-0.96263,-5.6143e-10,-0.55578,0,0,0.33333,-1.9737e-16,0,0.66667
0.15666,0.13687,0.46998,-0.5447,-6.2258,22.053,0.68266,-0.22755,-0.94502,0.91022,1.323e-09,-0.47251,0,0,0.33333,3.9475e-16,0,0.66667
0.23699,0.95886,0.71097,0.68829,7.7322,19.021,-1.3049,0.43498,-0.31533,-1.7399,-1.5679e-11,-0.15766,0,0,0.33333,1.9737e-16,0,0.66667
0.32846,0.11359,0.98538,-0.57961,-6.0688,15.602,1.523,-0.50768,-0.80548,2.0307,4.3198e-12,-0.40274,0,0,0.33333,-3.9475e-16,0,0.66667
0.8696,0.45428,2.6088,-0.068585,-0.16098,1.1453,0.47713,-0.15904,-1.9825,0.63618,8.8611e-10,-0.99127,0,0,0.33333,5.4918e-16,0,0.66667
0.12191,0.96751,0.36574,0.70126,8.2386,23.445,-0.68395,0.22798,-0.25241,-0.91193,1.0218e-08,-0.12621,0,0,0.33333,-3.7007e-17,0,0.66667
0.16814,0.20521,0.50443,-0.44219,-4.988,21.583,0.59481,-0.19827,-1.3042,0.79308,6.2385e-10,-0.6521,0,0,0.33333,-0,-0,0.66667
0.37046,0.67156,1.1114,0.25733,2.5318,13.982,-0.76265,0.25422,-1.7639,-1.0169,-7.1553e-12,-0.88193,0,0,0.33333,-0,-0,0.66667
0.60435,0.0019786,1.813,-0.74703,-5.6868,7.0235,3.6117,-1.2039,-0.01638,4.8156,6.6613e-15,-0.0081902,0,0,0.33333,-0,-0,0.66667
0.055815,0.26573,0.16744,-0.35141,-4.0438,26.015,0.15691,-0.052304,-1.5601,0.20922,3.2579e-09,-0.78006,0,0,0.33333,9.8686e-17,0,0.66667
0.24523,0.82851,0.73568,0.49276,5.3942,18.636,-0.96671,0.32224,-1.136,-1.2889,-1.2662e-10,-0.56798,0,0,0.33333,-3.9475e-16,0,0.66667
0.83397,0.85241,2.5019,0.52862,1.7763,1.9538,-3.5268,1.1756,-1.006,-4.7024,1.0792e-09,-0.50301,0,0,0.33333,-0,-0,0.66667
0.66288,0.18898,1.9887,-0.46653,-2.9715,5.2567,2.4741,-0.82468,-1.2267,3.2987,-1.0516e-11,-0.61336,0,0,0.33333,1.579e-15,0,0.66667
0.35143,0.16828,1.0543,-0.49759,-5.0711,14.742,1.3989,-0.46631,-1.1189,1.8652,4.6235e-12,-0.55947,0,0,0.33333,-0,-0,0.66667
0.11421,0.84243,0.34264,0.51364,5.9242,23.711,-0.46931,0.15644,-1.0627,-0.62575,-7.3364e-10,-0.53134,0,0,0.33333,3.1297e-16,0,0.66667
0.3249,0.45829,0.97471,-0.062558,-0.6352,15.586,0.1626,-0.0542,-1.9857,0.2168,8.117e-12,-0.99286,0,0,0.33333,-0,-0,0.66667
0.24452,0.87613,0.73355,0.5642,6.2227,18.687,-1.1036,0.36788,-0.86891,-1.4715,-9.2316e-11,-0.43446,0,0,0.33333,-7.8949e-16,0,0.66667
0.71057,0.57143,2.1317,0.10715,0.57535,3.9658,-0.60909,0.20303,-1.9587,-0.81212,2.5916e-11,-0.97934,0,0,0.33333,-0,-0,0.66667
0.30055,0.45703,0.90164,-0.064461,-0.66633,16.48,0.15499,-0.051663,-1.9847,0.20665,1.3225e-11,-0.99236,0,0,0.33333,-0,-0,0.66667
0.67724,0.78096,2.0317,0.42143,2.5695,4.879,-2.2833,0.76109,-1.3694,-3.0444,2.112e-11,-0.68471,0,0,0.33333,-2.4672e-17,0,0.66667
0.41266,0.20486,1.238,-0.44271,-4.2396,12.592,1.4615,-0.48717,-1.3024,1.9487,-6.0008e-13,-0.65118,0,0,0.33333,7.8949e-16,0,0.66667
0.34994,0.56267,1.0498,0.094,0.93589,14.683,-0.26315,0.087718,-1.9695,-0.35087,-6.8072e-12,-0.98474,0,0,0.33333,-0,-0,0.66667
0.78582,0.50929,2.3575,0.013937,0.055834,2.4439,-0.087613,0.029204,-1.9989,-0.11682,-4.7932e-11,-0.99945,0,0,0.33333,-0,-0,0.66667
0.1854,0.90732,0.55621,0.61098,6.9599,20.956,-0.90622,0.30207,-0.67378,-1.2083,-1.9483e-10,-0.33689,0,0,0.33333,7.8949e-16,5.221e-17,0.66667
0.45682,0.96662,1.3705,0.69992,6.5936,11.305,-2.5579,0.85264,-0.25882,-3.4106,1.3012e-13,-0.12941,0,0,0.33333,-1.1842e-15,0,0.66667
0.58351,0.71058,1.7505,0.31587,2.3483,7.2254,-1.4745,0.4915,-1.6449,-1.966,3.9213e-13,-0.82245,0,0,0.33333,3.9475e-16,0,0.66667
0.3212,0.21449,0.9636,-0.42826,-4.4405,15.798,1.1005,-0.36682,-1.348,1.4673,2.1482e-11,-0.67399,0,0,0.33333,3.8756e-16,0,0.66667
0.70625,0.4274,2.1187,-0.1089,-0.5928,4.0619,0.61528,-0.20509,-1.9575,0.82038,-2.4553e-11,-0.97875,0,0,0.33333,-7.8949e-16,0,0.66667
0.91783,0.77585,2.7535,0.41377,0.61461,0.7952,-3.0382,1.0127,-1.3913,-4.0509,-4.2212e-09,-0.69567,0,0,0.33333,2.5172e-15,0,0.66667
0.073071,0.43242,0.21921,-0.10138,-1.152,25.315,0.059261,-0.019754,-1.9635,0.079015,1.3584e-07,-0.98176,0,0,0.33333,-0,-0,0.66667
0.18143,0.4371,0.54428,-0.094346,-1.0407,21.021,0.13694,-0.045645,-1.9692,0.18258,-1.9439e-10,-0.9846,0,0,0.33333,-4.5643e-16,0,0.66667
0.50911,0.76859,1.5273,0.40288,3.4143,9.4519,-1.6409,0.54697,-1.4222,-2.1879,-2.5968e-13,-0.71108,0,0,0.33333,-0,-0,0.66667
0.79988,0.60458,2.3996,0.15687,0.59054,2.2223,-1.0038,0.33461,-1.9121,-1.3384,6.4272e-11,-0.95606,0,0,0.33333,-0,-0,0.66667
0.63096,0.5947,1.8929,0.14205,0.94606,5.8852,-0.717,0.239,-1.929,-0.95599,5.8645e-12,-0.9645,0,0,0.33333,-1.579e-15,0,0.66667
0.019691,0.4018,0.059072,-0.14731,-1.6844,27.458,0.023204,-0.0077343,-1.9231,0.030939,5.4217e-07,-0.96154,0,0,0.33333,-2.4672e-17,0,0.66667
0.32998,0.85195,0.98994,0.52792,5.4898,15.522,-1.3936,0.46454,-1.0091,-1.8582,-8.0742e-12,-0.50454,0,0,0.33333,-0,-0,0.66667
0.65383,0.39671,1.9615,-0.15493,-0.97789,5.3084,0.8104,-0.27013,-1.9144,1.0805,-1.1254e-11,-0.95722,0,0,0.33333,-0,-0,0.66667
0.68714,0.81893,2.0614,0.47839,2.8647,4.6956,-2.6298,0.87659,-1.1867,-3.5064,2.1338e-11,-0.59336,0,0,0.33333,1.579e-15,0,0.66667
0.48225,0.39361,1.4467,-0.15958,-1.3807,10.202,0.61566,-0.20522,-1.9091,0.82088,-7.4496e-14,-0.95455,0,0,0.33333,-0,-0,0.66667
0.053735,0.41856,0.1612,-0.12216,-1.3924,26.09,0.052515,-0.017505,-1.9462,0.07002,-6.9305e-08,-0.97311,0,0,0.33333,-0,-0,0.66667
0.62779,0.3525,1.8834,-0.22126,-1.4908,5.9916,1.1112,-0.3704,-1.8258,1.4816,-6.5968e-12,-0.91288,0,0,0.33333,-0,-0,0.66667
0.50403,0.181,1.5121,-0.47851,-4.1178,9.6532,1.9295,-0.64315,-1.1858,2.5726,1.4611e-13,-0.59291,0,0,0.33333,3.9475e-16,0,0.66667
0.72541,0.45976,2.1762,-0.060359,-0.30817,3.6364,0.35028,-0.11676,-1.9866,0.46704,-1.9364e-11,-0.99328,0,0,0.33333,-0,-0,0.66667
0.39049,0.88182,1.1715,0.57273,5.6855,13.418,-1.7892,0.5964,-0.83412,-2.3856,9.1782e-13,-0.41706,0,0,0.33333,-0,2.6949e-16,0.66667
0.83573,0.64832,2.5072,0.22248,0.68675,1.6716,-1.4875,0.49582,-1.8236,-1.9833,-1.7966e-11,-0.91181,0,0,0.33333,-0,-0,0.66667
0.3075,0.47001,0.92251,-0.044984,-0.46262,16.223,0.11066,-0.036887,-1.9935,0.14755,8.2597e-12,-0.99677,0,0,0.33333,-0,-0,0.66667
0.86379,0.74578,2.5914,0.36867,0.96005,1.3731,-2.5476,0.8492,-1.517,-3.3968,-1.5365e-12,-0.75849,0,0,0.33333,-0,-0,0.66667
0.014481,0.16046,0.043442,-0.50931,-5.9503,27.672,0.059001,-0.019667,-1.0783,0.078668,-6.6761e-08,-0.53917,0,0,0.33333,-0,-0,0.66667
0.76274,0.80242,2.2882,0.45363,2.1088,3.0838,-2.768,0.92267,-1.268,-3.6907,1.6882e-10,-0.63402,0,0,0.33333,-7.8949e-16,0,0.66667
0.82737,0.53621,2.4821,0.054319,0.1741,1.7481,-0.35954,0.11985,-1.9901,-0.47938,-2.0226e-10,-0.99504,0,0,0.33333,-0,-0,0.66667
0.6809,0.065784,2.0427,-0.65132,-4.0989,5.0172,3.5479,-1.1826,-0.49192,4.7305,-1.2976e-12,-0.24596,0,0,0.33333,1.579e-15,0,0.66667
0.90273,0.99868,2.7082,0.74802,1.659,1.4164,-5.4021,1.8007,-0.011364,-7.2028,2.0325e-09,-0.0056822,0,0,0.33333,-1.579e-15,-6.375e-17,0.66667
0.20173,0.82308,0.6052,0.48462,5.4141,20.292,-0.78212,0.26071,-1.1648,-1.0428,-3.6854e-10,-0.5824,0,0,0.33333,-0,-0,0.66667
0.35195,0.74005,1.0558,0.36007,3.624,14.668,-1.0138,0.33794,-1.5384,-1.3518,-1.0924e-11,-0.76921,0,0,0.33333,-0,-0,0.66667
0.22914,0.20064,0.68742,-0.44904,-4.9376,19.233,0.82315,-0.27438,-1.2824,1.0975,1.9964e-10,-0.64118,0,0,0.33333,-0,-0,0.66667
0.84492,0.2232,2.5348,-0.4152,-1.2575,1.6744,2.8065,-0.93548,-1.3877,3.7419,-4.026e-10,-0.69383,0,0,0.33333,-0,-0,0.66667
0.74641,0.26853,2.2392,-0.3472,-1.6861,3.3171,2.0732,-0.69108,-1.5708,2.7643,-1.1519e-10,-0.78542,0,0,0.33333,-0,-0,0.66667
0.86905,0.19166,2.6072,-0.46252,-1.1912,1.3948,3.2156,-1.0719,-1.2395,4.2875,-3.4171e-10,-0.61977,0,0,0.33333,-0,-0,0.66667
0.34762,0.9859,1.0429,0.72885,7.6657,15.008,-2.0269,0.67564,-0.11058,-2.7026,1.5099e-13,-0.055291,0,0,0.33333,-3.9475e-16,0,0.66667
0.15395,0.34567,0.46185,-0.23149,-2.5899,22.108,0.28511,-0.095035,-1.8103,0.38014,7.6552e-10,-0.90517,0,0,0.33333,-0,-0,0.66667
0.96828,0.26998,2.9048,-0.34503,-0.0998,0.32432,2.6727,-0.89089,-1.5767,3.5636,3.1151e-09,-0.78835,0,0,0.33333,-0,-0,0.66667
0.44892,0.38104,1.3468,-0.17843,-1.6115,11.286,0.64082,-0.21361,-1.8868,0.85443,4.8017e-14,-0.94339,0,0,0.33333,-0,-0,0.66667
0.7299,0.33153,2.1897,-0.2527,-1.2862,3.5999,1.4756,-0.49186,-1.7724,1.9674,-7.225e-11,-0.88618,0,0,0.33333,-0,-0,0.66667
0.65417,0.049432,1.9625,-0.67585,-4.5655,5.6775,3.537,-1.179,-0.37553,4.7159,1.7386e-13,-0.18777,0,0,0.33333,-0,-0,0.66667
0.14285,0.52089,0.42854,0.031338,0.35014,22.536,-0.035813,0.011938,-1.9963,-0.04775,4.0193e-10,-0.99813,0,0,0.33333,-0,-0,0.66667
0.84418,0.86043,2.5325,0.54065,1.7129,1.82,-3.6512,1.2171,-0.96055,-4.8683,1.2664e-09,-0.48027,0,0,0.33333,-1.579e-15,0,0.66667
0.97846,0.028444,2.9354,-0.70733,-0.31606,0.76084,5.5368,-1.8456,-0.22146,7.3824,1.6238e-06,-0.11073,0,0,0.33333,7.8949e-16,0,0.66667
0.96625,0.22659,2.8987,-0.41012,-0.15891,0.40068,3.1702,-1.0567,-1.4019,4.2269,-5.3033e-09,-0.70096,0,0,0.33333,-0,-0,0.66667
0.3364,0.46031,1.0092,-0.059537,-0.59907,15.168,0.16023,-0.053409,-1.9869,0.21364,6.2563e-12,-0.99347,0,0,0.33333,-3.9475e-16,0,0.66667
0.92595,0.6871,2.7778,0.28065,0.33953,0.60449,-2.079,0.69298,-1.7209,-2.7719,1.5095e-08,-0.86046,0,0,0.33333,-2.4672e-16,0,0.66667
0.13324,0.94588,0.39973,0.66881,7.8034,22.995,-0.71293,0.23764,-0.40911,-0.95057,2.9317e-10,-0.20456,0,0,0.33333,-0,-0,0.66667
0.93972,0.9198,2.8192,0.6297,0.77512,0.88118,-4.734,1.578,-0.58973,-6.3119,3.1774e-08,-0.29486,0,0,0.33333,1.579e-15,0,0.66667
0.0441,0.52136,0.1323,0.03204,0.36508,26.476,-0.011303,0.0037677,-1.9961,-0.015071,-1.3095e-07,-0.99804,0,0,0.33333,9.8686e-17,0,0.66667
0.40908,0.77445,1.2272,0.41167,3.9456,12.699,-1.3472,0.44908,-1.3975,-1.7963,1.9351e-13,-0.69873,0,0,0.33333,-0,-0,0.66667
0.84301,0.25814,2.529,-0.36279,-1.0975,1.656,2.4467,-0.81555,-1.5322,3.2622,-2.489e-10,-0.76611,0,0,0.33333,1.579e-15,0,0.66667
0.72623,0.86015,2.1787,0.54022,2.912,3.8981,-3.1386,1.0462,-0.96155,-4.1848,4.4804e-11,-0.48078,0,0,0.33333,-8.6003e-16,0,0.66667
0.72093,0.58245,2.1628,0.12367,0.64257,3.7437,-0.71327,0.23776,-1.9453,-0.95102,3.4932e-11,-0.97266,0,0,0.33333,7.8949e-16,0,0.66667
0.27735,0.50647,0.83204,0.0097109,0.1019,17.343,-0.021546,0.0071821,-1.9996,-0.028728,-1.0757e-12,-0.99981,0,0,0.33333,-0,-0,0.66667
0.42121,0.15878,1.2636,-0.51183,-4.8927,12.34,1.7247,-0.57491,-1.0695,2.2996,-1.0687e-12,-0.53477,0,0,0.33333,-0,-0,0.66667
0.58955,0.098303,1.7686,-0.60255,-4.5928,7.2649,2.8418,-0.94728,-0.70932,3.7891,1.0378e-12,-0.35466,0,0,0.33333,-0,-0,0.66667
0.38914,0.70633,1.1674,0.30949,3.0017,13.344,-0.96348,0.32116,-1.6592,-1.2846,-3.2067e-12,-0.82958,0,0,0.33333,-0,-0,0.66667
0.50598,0.72314,1.5179,0.33472,2.8319,9.5145,-1.3549,0.45162,-1.6018,-1.8065,-3.1875e-13,-0.80088,0,0,0.33333,1.579e-15,0,0.66667
0.54035,0.21788,1.621,-0.42318,-3.4272,8.5232,1.8293,-0.60977,-1.364,2.4391,7.8082e-13,-0.682,0,0,0.33333,8.8818e-16,0,0.66667
0.82427,0.37278,2.4728,-0.19082,-0.62998,1.8335,1.2583,-0.41944,-1.8712,1.6778,-1.0189e-10,-0.93558,0,0,0.33333,-1.579e-15,0,0.66667
0.72498,0.44651,2.1749,-0.080231,-0.41048,3.6484,0.46532,-0.15511,-1.9766,0.62043,-2.4338e-11,-0.98832,0,0,0.33333,-0,-0,0.66667
0.66049,0.41929,1.9815,-0.12107,-0.75025,5.1359,0.63971,-0.21324,-1.9473,0.85294,-1.0791e-11,-0.97364,0,0,0.33333,-0,-0,0.66667
0.035884,0.8363,0.10765,0.50445,5.8844,26.818,-0.14481,0.048271,-1.095,-0.19308,-3.5298e-08,-0.5475,0,0,0.33333,4.9343e-17,0,0.66667
0.15539,0.93296,0.46616,0.64944,7.5103,22.128,-0.80731,0.2691,-0.50099,-1.0764,-1.5618e-09,-0.2505,0,0,0.33333,9.8686e-17,-1.9608e-16,0.66667
0.88653,0.021107,2.6596,-0.71834,-1.8107,1.5382,5.0946,-1.6982,-0.16485,6.7928,-3.6223e-09,-0.082427,0,0,0.33333,-0,-0,0.66667
0.76576,0.83426,2.2973,0.50138,2.3268,3.0733,-3.0715,1.0238,-1.1063,-4.0953,1.6719e-10,-0.55317,0,0,0.33333,-0,-0,0.66667
0.18038,0.79132,0.54115,0.43699,4.9048,21.106,-0.6306,0.2102,-1.3204,-0.84081,-5.3124e-10,-0.66022,0,0,0.33333,-0,-0,0.66667
0.065156,0.19595,0.19547,-0.45607,-5.282,25.649,0.23773,-0.079243,-1.2603,0.31697,-8.8888e-09,-0.63015,0,0,0.33333,-0,-0,0.66667
0.16273,0.59753,0.4882,0.1463,1.627,21.756,-0.19046,0.063487,-1.9241,-0.25395,2.2616e-10,-0.96204,0,0,0.33333,3.9475e-16,0,0.66667
0.83741,0.24947,2.5122,-0.3758,-1.1831,1.7489,2.5176,-0.83919,-1.4987,3.3568,-3.5713e-10,-0.74934,0,0,0.33333,-2.3191e-15,0,0.66667
0.97311,0.56584,2.9193,0.098756,0.0062715,0.15275,-0.7688,0.25627,-1.9657,-1.0251,-1.795e-06,-0.98285,0,0,0.33333,-0,-0,0.66667
0.7551,0.55649,2.2653,0.084735,0.38825,3.0308,-0.51187,0.17062,-1.9744,-0.68249,3.4855e-11,-0.9872,0,0,0.33333,-0,-0,0.66667
0.7846,0.48547,2.3538,-0.021795,-0.087831,2.4662,0.1368,-0.045602,-1.9977,0.18241,1.518e-11,-0.99887,0,0,0.33333,-1.579e-15,0,0.66667
0.029384,0.80094,0.088153,0.45141,5.2443,27.076,-0.10611,0.035372,-1.2752,-0.14149,-2.9432e-09,-0.63761,0,0,0.33333,-0,-0,0.66667
0.87464,0.12655,2.6239,-0.56018,-1.4353,1.4409,3.9196,-1.3065,-0.88552,5.2261,-7.039e-09,-0.44276,0,0,0.33333,3.158e-15,7.537e-17,0.66667
0.68115,0.84575,2.0434,0.51863,3.1782,4.8704,-2.8261,0.94204,-1.0442,-3.7681,1.2946e-11,-0.52208,0,0,0.33333,-0,-0,0.66667
0.34905,0.69207,1.0471,0.2881,2.8928,14.75,-0.8045,0.26817,-1.705,-1.0727,-1.3528e-11,-0.8525,0,0,0.33333,7.8949e-16,0,0.66667
0.49958,0.18161,1.4987,-0.47759,-4.1351,9.79,1.9088,-0.63625,-1.1895,2.545,4.2966e-14,-0.59476,0,0,0.33333,3.9475e-16,-1.4038e-17,0.66667
0.95006,0.90026,2.8502,0.60039,0.57588,0.75717,-4.5632,1.5211,-0.71846,-6.0843,-4.6032e-08,-0.35923,0,0,0.33333,-7.8949e-16,2.5786e-16,0.66667
0.054088,0.81076,0.16226,0.46613,5.4104,26.091,-0.2017,0.067232,-1.228,-0.26893,-1.6407e-08,-0.61399,0,0,0.33333,-1.4803e-16,0,0.66667
0.1917,0.65963,0.5751,0.23944,2.6423,20.633,-0.36721,0.1224,-1.7965,-0.48961,-1.2806e-10,-0.89827,0,0,0.33333,-0,-0,0.66667
0.15015,0.93317,0.45045,0.64975,7.5266,22.332,-0.78048,0.26016,-0.49906,-1.0406,-2.0999e-09,-0.24953,0,0,0.33333,-0,-0,0.66667
0.53825,0.75052,1.6147,0.37578,3.0387,8.5581,-1.6181,0.53936,-1.4987,-2.1574,-8.3056e-13,-0.74936,0,0,0.33333,-0,-0,0.66667
0.23563,0.25034,0.70688,-0.37449,-4.0804,18.967,0.70592,-0.23531,-1.5027,0.94122,1.6852e-10,-0.75135,0,0,0.33333,7.8949e-16,0,0.66667
0.076734,0.46742,0.2302,-0.048864,-0.55453,25.167,0.029996,-0.0099989,-1.9926,0.039995,-1.9515e-07,-0.99631,0,0,0.33333,-0,-0,0.66667
0.515,0.90438,1.545,0.60657,5.2259,9.413,-2.499,0.83302,-0.69296,-3.3321,-2.5846e-13,-0.34648,0,0,0.33333,-2.9606e-16,0,0.66667
0.83625,0.84836,2.5088,0.52254,1.7285,1.9129,-3.4958,1.1653,-1.0292,-4.6611,1.1828e-09,-0.5146,0,0,0.33333,-3.158e-15,0,0.66667
0.68195,0.55467,2.0458,0.082006,0.47917,4.6134,-0.44739,0.14913,-1.9758,-0.59652,1.1875e-11,-0.98788,0,0,0.33333,7.8949e-16,0,0.66667
0.036724,0.025988,0.11017,-0.71102,-8.4787,26.797,0.20889,-0.06963,-0.2025,0.27852,1.7545e-07,-0.10125,0,0,0.33333,-0,-0,0.66667
0.04527,0.03859,0.13581,-0.69211,-8.2284,26.458,0.25066,-0.083551,-0.29694,0.33421,1.1576e-06,-0.14847,0,0,0.33333,-0,-2.8376e-16,0.66667
0.53809,0.072325,1.6143,-0.64151,-5.3688,8.7569,2.7615,-0.9205,-0.53618,3.682,3.0798e-13,-0.26809,0,0,0.33333,-0,-0,0.66667
0.14142,0.23022,0.42425,-0.40467,-4.5916,22.623,0.45782,-0.15261,-1.4177,0.61042,4.3752e-10,-0.70883,0,0,0.33333,-0,-0,0.66667
0.70723,0.11713,2.1217,-0.5743,-3.306,4.3398,3.2493,-1.0831,-0.82707,4.3324,-1.7742e-11,-0.41353,0,0,0.33333,-0,-0,0.66667
0.24745,0.18911,0.74234,-0.46633,-5.0865,18.544,0.92313,-0.30771,-1.2277,1.2308,1.3283e-10,-0.61385,0,0,0.33333,-0,-0,0.66667
0.43996,0.88505,1.3199,0.57758,5.4522,11.759,-2.0329,0.67763,-0.81364,-2.7105,8.1091e-13,-0.40682,0,0,0.33333,-0,-0,0.66667
0.62029,0.35326,1.8609,-0.22011,-1.5077,6.1873,1.0923,-0.36409,-1.8273,1.4563,-5.2228e-12,-0.91365,0,0,0.33333,-0,-0,0.66667
0.97274,0.2423,2.9182,-0.38655,-0.083878,0.33617,3.0081,-1.0027,-1.4685,4.0108,-2.203e-09,-0.73426,0,0,0.33333,-0,-0,0.66667
0.19701,0.49506,0.59102,-0.0074058,-0.081096,20.412,0.011672,-0.0038906,-1.9998,0.015563,1.9528e-10,-0.99991,0,0,0.33333,-5.9212e-16,0,0.66667
0.91184,0.9253,2.7355,0.63795,1.1874,1.1411,-4.6537,1.5512,-0.55229,-6.2049,4.3761e-08,-0.27615,0,0,0.33333,-0,-0,0.66667
0.35078,0.97482,1.0523,0.71223,7.4543,14.886,-1.9987,0.66622,-0.1962,-2.6649,2.7689e-13,-0.098099,0,0,0.33333,-0,-0,0.66667
0.16192,0.63754,0.48577,0.2063,2.2995,21.793,-0.26724,0.089081,-1.848,-0.35633,-2.2695e-10,-0.92399,0,0,0.33333,3.9475e-16,0,0.66667
0.42086,0.34494,1.2626,-0.23258,-2.174,12.235,0.78309,-0.26103,-1.8089,1.0441,8.6542e-13,-0.90443,0,0,0.33333,-1.579e-15,0,0.66667
0.84148,0.0782,2.5244,-0.6327,-2.1099,1.9797,4.2592,-1.4197,-0.57623,5.679,-6.5726e-10,-0.28812,0,0,0.33333,-0,-0,0.66667
0.043786,0.93575,0.13136,0.65362,7.7367,26.514,-0.22896,0.076319,-0.4818,-0.30527,8.885e-07,-0.2409,0,0,0.33333,-0,-8.4871e-17,0.66667
0.13697,0.14018,0.41091,-0.53974,-6.2035,22.821,0.59143,-0.19714,-0.96361,0.78857,1.5024e-09,-0.4818,0,0,0.33333,1.9737e-16,0,0.66667
0.58994,0.33376,1.7698,-0.24936,-1.8215,7.0176,1.1768,-0.39228,-1.7785,1.5691,-1.4239e-12,-0.88926,0,0,0.33333,-0,-0,0.66667
0.40858,0.96915,1.2257,0.70372,6.9858,12.893,-2.3002,0.76674,-0.24038,-3.0669,-1.1768e-14,-0.12019,0,0,0.33333,-0,-0,0.66667
0.47828,0.54932,1.4348,0.073976,0.64192,10.316,-0.28305,0.09435,-1.9798,-0.3774,6.6336e-14,-0.9899,0,0,0.33333,-7.8949e-16,0,0.66667
0.82205,0.36567,2.4662,-0.20149,-0.6749,1.8731,1.3251,-0.44171,-1.8551,1.7668,-2.4861e-11,-0.92757,0,0,0.33333,-0,-0,0.66667
0.16727,0.79239,0.50181,0.43858,4.9474,21.616,-0.5869,0.19563,-1.3155,-0.78254,-6.3775e-10,-0.65776,0,0,0.33333,-0,-0,0.66667
0.32202,0.70099,0.96607,0.30148,3.0952,15.728,-0.77667,0.25889,-1.6761,-1.0356,-2.7013e-11,-0.83804,0,0,0.33333,-0,-0,0.66667
0.20551,0.45933,0.61653,-0.061004,-0.66578,20.083,0.1003,-0.033432,-1.9866,0.13373,3.6044e-11,-0.99329,0,0,0.33333,1.9737e-16,0,0.66667
0.099323,0.71998,0.29797,0.32997,3.7653,24.278,-0.26219,0.087396,-1.6136,-0.34958,2.1392e-09,-0.80679,0,0,0.33333,-0,-0,0.66667
0.52436,0.27671,1.5731,-0.33493,-2.7577,8.9532,1.405,-0.46833,-1.6012,1.8733,5.1026e-13,-0.80059,0,0,0.33333,-1.9737e-16,0,0.66667
0.21257,0.6649,0.63772,0.24735,2.7055,19.827,-0.42064,0.14021,-1.782,-0.56086,-1.5549e-10,-0.89101,0,0,0.33333,-0,-0,0.66667
0.90438,0.51361,2.7131,0.020417,0.032713,0.72559,-0.14772,0.049239,-1.9982,-0.19696,-1.081e-08,-0.99908,0,0,0.33333,-0,-0,0.66667
0.046031,0.22699,0.13809,-0.40952,-4.7362,26.409,0.1508,-0.050268,-1.4039,0.20107,-1.2962e-09,-0.70193,0,0,0.33333,-0,-0,0.66667
0.89727,0.77021,2.6918,0.40531,0.78056,1,-2.9094,0.9698,-1.4153,-3.8792,1.0192e-09,-0.70763,0,0,0.33333,-0,-0,0.66667
0.58773,0.0021656,1.7632,-0.74675,-5.8618,7.4669,3.5111,-1.1704,-0.01778,4.6815,1.2923e-13,-0.0088902,0,0,0.33333,-0,-0,0.66667
0.8616,0.33154,2.5848,-0.25268,-0.65058,1.3193,1.7417,-0.58056,-1.7726,2.3223,6.7435e-10,-0.88631,0,0,0.33333,-1.579e-15,0,0.66667
0.02917,0.4359,0.087511,-0.096156,-1.0977,27.077,0.022439,-0.0074809,-1.9681,0.029919,-1.7388e-06,-0.98404,0,0,0.33333,-1.4186e-17,0,0.66667
0.33301,0.64438,0.99903,0.21657,2.1949,15.31,-0.57696,0.19232,-1.8326,-0.76929,-1.8912e-11,-0.91631,0,0,0.33333,-0,-0,0.66667
0.50111,0.48759,1.5033,-0.018616,-0.15644,9.5906,0.074628,-0.024876,-1.9986,0.099505,1.8761e-13,-0.99928,0,0,0.33333,-7.8949e-16,0,0.66667
0.21711,0.23808,0.65134,-0.39288,-4.326,19.679,0.68239,-0.22746,-1.4509,0.90985,2.4079e-10,-0.72546,0,0,0.33333,-0,-0,0.66667
0.4226,0.50424,1.2678,0.0063536,0.058916,12.146,-0.02148,0.00716,-2.0006,-0.02864,-3.546e-13,-1.0003,0,0,0.33333,3.158e-15,0,0.66667
0.029533,0.25831,0.088598,-0.36254,-4.1846,27.067,0.085654,-0.028551,-1.5327,0.1142,-8.4261e-10,-0.76634,0,0,0.33333,-0,-0,0.66667
0.58718,0.57368,1.7616,0.11053,0.80594,7.0548,-0.51919,0.17306,-1.9559,-0.69225,1.016e-12,-0.97795,0,0,0.33333,-0,-0,0.66667
0.92973,0.69916,2.7892,0.29873,0.33947,0.58284,-2.2219,0.74065,-1.682,-2.9626,7.3121e-09,-0.841,0,0,0.33333,-0,-0,0.66667
0.075808,0.19848,0.22743,-0.45228,-5.2283,25.225,0.27429,-0.091431,-1.2724,0.36572,-9.7215e-09,-0.63619,0,0,0.33333,1.9737e-16,0,0.66667
0.84182,0.40509,2.5255,-0.14237,-0.41766,1.5482,0.95879,-0.3196,-1.929,1.2784,-5.618e-10,-0.9645,0,0,0.33333,-1.7764e-15,0,0.66667
0.74778,0.026843,2.2433,-0.70973,-3.7112,3.6718,4.2458,-1.4153,-0.20942,5.6611,-1.45e-12,-0.10471,0,0,0.33333,-0,-0,0.66667
0.22999,0.47214,0.68996,-0.041792,-0.45068,19.14,0.076892,-0.025631,-1.9942,0.10252,9.0923e-12,-0.99708,0,0,0.33333,-0,-0,0.66667
0.51812,0.92372,1.5544,0.63557,5.475,9.3439,-2.6344,0.87814,-0.56327,-3.5126,-2.2715e-13,-0.28163,0,0,0.33333,-0,-0,0.66667
0.31376,0.18887,0.94128,-0.4667,-4.8822,16.083,1.1714,-0.39048,-1.2267,1.5619,2.224e-11,-0.61335,0,0,0.33333,-0,-0,0.66667
0.61579,0.20308,1.8474,-0.44539,-3.1498,6.4295,2.1941,-0.73137,-1.2939,2.9255,-1.2244e-12,-0.64695,0,0,0.33333,-0,-0,0.66667
0.21317,0.967,0.63952,0.7005,7.9718,19.926,-1.1946,0.39821,-0.25589,-1.5928,1.0166e-11,-0.12794,0,0,0.33333,-1.4803e-16,0,0.66667
0.43589,0.61309,1.3077,0.16964,1.555,11.716,-0.59154,0.19718,-1.8974,-0.78872,-2.594e-13,-0.94871,0,0,0.33333,3.9475e-16,0,0.66667
0.78908,0.60201,2.3672,0.15301,0.60733,2.4101,-0.96589,0.32196,-1.9163,-1.2879,1.0871e-10,-0.95816,0,0,0.33333,-0,-0,0.66667
0.46647,0.89657,1.3994,0.59486,5.4563,10.913,-2.2199,0.73995,-0.74165,-2.9598,4.0901e-13,-0.37082,0,0,0.33333,-3.9475e-16,0,0.66667
0.67355,0.026473,2.0207,-0.71029,-4.6139,5.2594,3.8274,-1.2758,-0.20664,5.1031,1.4433e-14,-0.10332,0,0,0.33333,-7.8949e-16,0,0.66667
0.88484,0.41989,2.6545,-0.12016,-0.24469,0.9656,0.85056,-0.28352,-1.9479,1.1341,1.6376e-09,-0.97396,0,0,0.33333,1.579e-15,0,0.66667
0.93814,0.55829,2.8144,0.08743,0.075487,0.4074,-0.65617,0.21872,-1.9735,-0.87489,-2.3319e-07,-0.98677,0,0,0.33333,-1.579e-15,0,0.66667
0.98474,0.47971,2.9542,-0.03044,0.0066589,0.074423,0.23981,-0.079937,-1.9967,0.31974,-1.7844e-06,-0.99835,0,0,0.33333,1.579e-15,0,0.66667
0.88356,0.40096,2.6507,-0.14857,-0.30775,0.99006,1.0501,-0.35004,-1.9215,1.4002,-5.8097e-09,-0.96073,0,0,0.33333,7.8949e-16,0,0.66667
0.24358,0.51227,0.73074,0.018398,0.19694,18.619,-0.03585,0.01195,-1.9981,-0.0478,-2.2858e-12,-0.99904,0,0,0.33333,7.8949e-16,0,0.66667
0.4083,0.74213,1.2249,0.36319,3.4695,12.704,-1.1863,0.39545,-1.531,-1.5818,-5.1792e-13,-0.7655,0,0,0.33333,3.9475e-16,0,0.66667
0.37481,0.2551,1.1244,-0.36736,-3.6261,13.863,1.1015,-0.36717,-1.5208,1.4687,4.5701e-12,-0.76042,0,0,0.33333,7.8949e-16,0,0.66667
0.15223,0.80743,0.45669,0.46115,5.2382,22.208,-0.5616,0.1872,-1.244,-0.7488,-1.425e-09,-0.62201,0,0,0.33333,-0,-0,0.66667
0.070456,0.32084,0.21137,-0.26874,-3.0723,25.425,0.15148,-0.050492,-1.7428,0.20197,-5.0303e-10,-0.87138,0,0,0.33333,-1.9737e-16,0,0.66667
0.29574,0.65293,0.88723,0.2294,2.3907,16.677,-0.54274,0.18091,-1.8137,-0.72366,-4.3164e-11,-0.90684,0,0,0.33333,-5.9212e-16,0,0.66667
0.85996,0.73063,2.5799,0.34595,0.92242,1.4054,-2.38,0.79333,-1.5744,-3.1733,5.7221e-13,-0.78719,0,0,0.33333,-0,-0,0.66667
0.038983,0.89515,0.11695,0.59272,6.972,26.7,-0.18485,0.061617,-0.7502,-0.24647,-1.9769e-07,-0.3751,0,0,0.33333,4.9343e-17,0,0.66667
0.21547,0.85315,0.6464,0.52972,5.9067,19.778,-0.9131,0.30437,-1.002,-1.2175,-2.3976e-10,-0.501,0,0,0.33333,-0,-0,0.66667
0.34655,0.42606,1.0396,-0.11091,-1.1078,14.807,0.3075,-0.1025,-1.9559,0.41,8.5256e-12,-0.97793,0,0,0.33333,3.9475e-16,0,0.66667
0.64816,0.53466,1.9445,0.051989,0.33159,5.4315,-0.26958,0.08986,-1.9906,-0.35944,3.7122e-12,-0.99531,0,0,0.33333,-1.579e-15,0,0.66667
0.56317,0.93398,1.6895,0.65097,5.2405,8.0441,-2.9329,0.97762,-0.4941,-3.9105,-4.4342e-13,-0.24705,0,0,0.33333,-9.8686e-16,0,0.66667
0.79618,0.04826,2.3885,-0.67761,-2.9042,2.7475,4.316,-1.4387,-0.36725,5.7547,-6.1438e-11,-0.18363,0,0,0.33333,6.3611e-16,0,0.66667
0.68696,0.38658,2.0609,-0.17013,-0.984,4.5165,0.93501,-0.31167,-1.897,1.2467,-2.4941e-11,-0.94851,0,0,0.33333,-1.579e-15,0,0.66667
0.8895,0.80695,2.6685,0.46043,0.9862,1.1444,-3.2764,1.0921,-1.2467,-4.3685,-5.6453e-10,-0.62334,0,0,0.33333,-0,-0,0.66667
0.4869,0.91927,1.4607,0.6289,5.6488,10.294,-2.4497,0.81657,-0.59328,-3.2663,7.9714e-14,-0.29664,0,0,0.33333,7.8949e-16,0,0.66667
0.53592,0.51386,1.6078,0.020796,0.16575,8.5266,-0.089159,0.02972,-1.9978,-0.11888,2.5258e-14,-0.99889,0,0,0.33333,-1.579e-15,0,0.66667
0.83765,0.31094,2.5129,-0.28359,-0.87352,1.6774,1.9004,-0.63346,-1.7147,2.5338,-2.2248e-10,-0.85733,0,0,0.33333,5.9212e-16,0,0.66667
0.0056932,0.87851,0.01708,0.56777,6.6716,28.023,-0.025859,0.0086197,-0.8541,-0.034479,-9.404e-08,-0.42705,0,0,0.33333,-0,-0,0.66667
0.24257,0.67887,0.72771,0.2683,2.8937,18.681,-0.52065,0.17355,-1.7436,-0.6942,-1.1382e-10,-0.87179,0,0,0.33333,-3.9475e-16,0,0.66667
0.22151,0.22852,0.66452,-0.40722,-4.4794,19.514,0.72162,-0.24054,-1.4101,0.96217,2.3183e-10,-0.70505,0,0,0.33333,-0,-0,0.66667
0.56155,0.60838,1.6846,0.16258,1.2454,7.7924,-0.73036,0.24345,-1.9058,-0.97381,1.8247e-13,-0.95289,0,0,0.33333,-0,-0,0.66667
0.71761,0.1372,2.1528,-0.54421,-3.0172,4.084,3.1242,-1.0414,-0.94679,4.1656,-3.3527e-11,-0.47339,0,0,0.33333,-0,-0,0.66667
0.2525,0.85647,0.75749,0.5347,5.854,18.376,-1.0801,0.36002,-0.98304,-1.4401,-8.6156e-11,-0.49152,0,0,0.33333,-0,-0,0.66667
0.50602,0.12309,1.5181,-0.56537,-4.9048,9.6532,2.2887,-0.7629,-0.86405,3.0516,4.6407e-14,-0.43202,0,0,0.33333,7.8949e-16,0,0.66667
0.73927,0.39609,2.2178,-0.15586,-0.76115,3.3666,0.92177,-0.30726,-1.9131,1.229,-5.5051e-11,-0.95656,0,0,0.33333,7.8949e-16,0,0.66667
0.7223,0.39672,2.1669,-0.15492,-0.80262,3.7225,0.89519,-0.2984,-1.9143,1.1936,-4.38e-11,-0.95716,0,0,0.33333,-7.8949e-16,0,0.66667
0.46831,0.78613,1.4049,0.4292,3.8525,10.748,-1.608,0.536,-1.3457,-2.144,6.0174e-13,-0.67283,0,0,0.33333,1.579e-15,0,0.66667
0.70619,0.12307,2.1186,-0.56539,-3.2587,4.3529,3.1942,-1.0647,-0.86418,4.2589,-1.8645e-11,-0.43209,0,0,0.33333,-1.9737e-16,0,0.66667
0.55907,0.17539,1.6772,-0.48691,-3.8524,8.0212,2.1777,-0.72591,-1.1565,2.9036,1.1451e-12,-0.57827,0,0,0.33333,-0,-0,0.66667
0.078411,0.80388,0.23523,0.45581,5.2685,25.121,-0.28593,0.095309,-1.2615,-0.38123,5.8993e-09,-0.63074,0,0,0.33333,-0,-0,0.66667
0.9528,0.75248,2.8584,0.37871,0.25426,0.46172,-2.8867,0.96224,-1.4911,-3.849,-2.6171e-09,-0.74556,0,0,0.33333,-0,-0,0.66667
0.97565,0.51169,2.927,0.017535,-0.00010535,0.12503,-0.13687,0.04562,-1.9982,-0.1825,-4.4932e-06,-0.99911,0,0,0.33333,-0,-0,0.66667
0.16201,0.17765,0.48604,-0.48352,-5.4851,21.83,0.6267,-0.2089,-1.1682,0.8356,9.5219e-10,-0.5841,0,0,0.33333,1.9737e-16,0,0.66667
0.41783,0.48323,1.2535,-0.025161,-0.23456,12.308,0.084103,-0.028034,-1.9971,0.11214,1.9243e-13,-0.99856,0,0,0.33333,7.8949e-16,0,0.66667
0.61959,0.84469,1.8588,0.51704,3.6644,6.3866,-2.5628,0.85428,-1.0503,-3.4171,-8.4155e-14,-0.52513,0,0,0.33333,-0,-0,0.66667
0.56812,0.55051,1.7044,0.075765,0.57199,7.5879,-0.34435,0.11478,-1.9789,-0.45913,2.6831e-13,-0.98946,0,0,0.33333,-0,-0,0.66667
0.37473,0.2973,1.1242,-0.30405,-2.988,13.845,0.9115,-0.30383,-1.6712,1.2153,6.0315e-12,-0.83559,0,0,0.33333,-1.2333e-15,0,0.66667
0.90355,0.70891,2.7107,0.31336,0.53947,0.85229,-2.2651,0.75503,-1.6506,-3.0201,3.6458e-10,-0.8253,0,0,0.33333,-0,-0,0.66667
0.67718,0.81142,2.0315,0.46713,2.8682,4.917,-2.5306,0.84355,-1.2249,-3.3742,1.6649e-11,-0.61244,0,0,0.33333,2.9606e-16,0,0.66667
0.11263,0.37792,0.33789,-0.18312,-2.0691,23.739,0.16499,-0.054998,-1.8813,0.21999,1.6909e-09,-0.94067,0,0,0.33333,-0,-0,0.66667
0.66956,0.74831,2.0087,0.37246,2.3021,5.026,-1.9951,0.66503,-1.5077,-2.6601,1.9882e-11,-0.75383,0,0,0.33333,8.8818e-16,0,0.66667
0.21799,0.38985,0.65397,-0.16522,-1.7968,19.608,0.28814,-0.096046,-1.9027,0.38418,8.9206e-11,-0.95136,0,0,0.33333,-0,-0,0.66667
0.086095,0.94362,0.25828,0.66542,7.8433,24.843,-0.45832,0.15277,-0.42546,-0.61109,-4.4857e-08,-0.21273,0,0,0.33333,-1.9737e-16,0,0.66667
0.35993,0.23136,1.0798,-0.40295,-4.0418,14.4,1.1603,-0.38676,-1.4226,1.547,6.8908e-12,-0.71128,0,0,0.33333,-0,-0,0.66667
0.049607,0.068751,0.14882,-0.64687,-7.6468,26.282,0.25672,-0.085572,-0.5123,0.34229,6.5367e-09,-0.25615,0,0,0.33333,-0,-0,0.66667
0.14662,0.22325,0.43985,-0.41512,-4.7064,22.42,0.4869,-0.1623,-1.3874,0.64921,3.7478e-10,-0.69369,0,0,0.33333,-0,-0,0.66667
0.45307,0.36716,1.3592,-0.19926,-1.7922,11.154,0.72221,-0.24074,-1.8592,0.96295,-9.2981e-14,-0.92958,0,0,0.33333,-0,-0,0.66667
0.9832,0.067792,2.9496,-0.64831,-0.16357,0.63249,5.0994,-1.6998,-0.50604,6.7992,4.9189e-07,-0.25302,0,0,0.33333,-0,-2.2211e-16,0.66667
0.84187,0.3386,2.5256,-0.2421,-0.71964,1.5906,1.6305,-0.5435,-1.792,2.174,-1.666e-10,-0.89599,0,0,0.33333,-3.9475e-16,0,0.66667
0.013205,0.20892,0.039615,-0.43663,-5.0702,27.722,0.046125,-0.015375,-1.3219,0.0615,1.5917e-08,-0.66096,0,0,0.33333,-0,-0,0.66667
0.86889,0.16389,2.6067,-0.50417,-1.3212,1.4434,3.5046,-1.1682,-1.0959,4.6727,-2.8304e-09,-0.54795,0,0,0.33333,-0,-0,0.66667
0.28341,0.57191,0.85024,0.10787,1.1288,17.12,-0.24457,0.081523,-1.9585,-0.32609,-2.8785e-11,-0.97923,0,0,0.33333,-0,-0,0.66667
0.19764,0.32075,0.59291,-0.26888,-2.9638,20.407,0.42513,-0.14171,-1.7426,0.56683,1.7692e-10,-0.87129,0,0,0.33333,-0,-0,0.66667
0.30963,0.38352,0.9289,-0.17472,-1.7992,16.156,0.43279,-0.14426,-1.8913,0.57705,2.7355e-11,-0.94565,0,0,0.33333,-0,-0,0.66667
0.52923,0.1359,1.5877,-0.54615,-4.5685,8.9376,2.3123,-0.77078,-0.93918,3.0831,5.3269e-13,-0.46959,0,0,0.33333,-0,-0,0.66667
0.48269,0.68024,1.4481,0.27037,2.3513,10.218,-1.044,0.34801,-1.7402,-1.392,1.9729e-13,-0.87011,0,0,0.33333,-0,-0,0.66667
0.62987,0.90466,1.8896,0.60699,4.2719,6.2058,-3.0586,1.0195,-0.69067,-4.0781,-5.8487e-13,-0.34533,0,0,0.33333,-3.9475e-16,0,0.66667
0.16677,0.89205,0.50031,0.58808,6.7286,21.67,-0.7846,0.26153,-0.76963,-1.0461,-9.3069e-10,-0.38482,0,0,0.33333,1.9737e-16,0,0.66667
0.3743,0.98364,1.1229,0.72546,7.4587,14.076,-2.1723,0.7241,-0.12854,-2.8964,1.2723e-13,-0.064268,0,0,0.33333,-7.8949e-16,-3.9387e-16,0.66667
0.58249,0.14137,1.7475,-0.53794,-4.1127,7.4012,2.5068,-0.83558,-0.97042,3.3423,1.148e-12,-0.48521,0,0,0.33333,-0,-0,0.66667
0.81078,0.18814,2.4323,-0.4678,-1.7567,2.2484,3.0343,-1.0114,-1.2231,4.0457,-5.4222e-10,-0.61156,0,0,0.33333,-0,-0,0.66667
0.36845,0.57641,1.1053,0.11461,1.1234,14.027,-0.33783,0.11261,-1.9525,-0.45045,-4.9086e-12,-0.97626,0,0,0.33333,-0,-0,0.66667
0.83938,0.49715,2.5181,-0.0042777,-0.012667,1.5617,0.028725,-0.0095749,-2.0004,0.0383,-9.979e-11,-1.0002,0,0,0.33333,1.7764e-15,0,0.66667
0.41681,0.062978,1.2504,-0.65553,-6.4095,12.581,2.1859,-0.72862,-0.47297,2.9145,-5.6999e-13,-0.23649,0,0,0.33333,-0,-0,0.66667
0.94249,0.79262,2.8275,0.43893,0.42008,0.60332,-3.3095,1.1032,-1.3144,-4.4127,-2.4835e-09,-0.65719,0,0,0.33333,-0,-0,0.66667
0.29636,0.61458,0.88909,0.17187,1.7863,16.645,-0.40749,0.13583,-1.895,-0.54332,-3.4773e-11,-0.94749,0,0,0.33333,-0,-0,0.66667
0.3686,0.15679,1.1058,-0.51481,-5.1796,14.145,1.5181,-0.50603,-1.0585,2.0241,1.1262e-12,-0.52923,0,0,0.33333,1.579e-15,0,0.66667
0.65273,0.37856,1.9582,-0.18216,-1.1546,5.3437,0.95122,-0.31707,-1.8824,1.2683,-1.227e-11,-0.94122,0,0,0.33333,-0,-0,0.66667
0.58342,0.50998,1.7502,0.014963,0.10971,7.1506,-0.069838,0.023279,-1.9987,-0.093117,2.1254e-13,-0.99934,0,0,0.33333,-0,-0,0.66667
0.35417,0.54389,1.0625,0.065832,0.65279,14.53,-0.18653,0.062175,-1.9839,-0.2487,-4.4799e-12,-0.99196,0,0,0.33333,-0,-0,0.66667
0.48431,0.090671,1.4529,-0.61399,-5.5216,10.363,2.3789,-0.79296,-0.66061,3.1718,-1.4944e-13,-0.3303,0,0,0.33333,9.8686e-16,0,0.66667
0.66432,0.93303,1.993,0.64955,4.26,5.4029,-3.4521,1.1507,-0.49992,-4.6028,3.0242e-13,-0.24996,0,0,0.33333,-0,-0,0.66667
0.05634,0.4518,0.16902,-0.072304,-0.82311,25.985,0.032589,-0.010863,-1.9806,0.043452,1.2157e-07,-0.99032,0,0,0.33333,-9.8686e-17,0,0.66667
0.6064,0.11304,1.8192,-0.58043,-4.2681,6.7906,2.8158,-0.9386,-0.80168,3.7544,8.9062e-13,-0.40084,0,0,0.33333,7.8949e-16,0,0.66667
0.74678,0.32404,2.2403,-0.26394,-1.2661,3.259,1.5769,-0.52562,-1.7519,2.1025,-9.6312e-11,-0.87593,0,0,0.33333,-1.579e-15,0,0.66667
0.79397,0.52707,2.3819,0.040601,0.15647,2.3006,-0.25789,0.085962,-1.9945,-0.34385,1.3544e-11,-0.99727,0,0,0.33333,9.4025e-16,0,0.66667
0.21378,0.15008,0.64135,-0.52488,-5.8544,19.841,0.89768,-0.29923,-1.0204,1.1969,2.519e-10,-0.51019,0,0,0.33333,-1.9737e-16,0,0.66667
0.64111,0.51463,1.9233,0.02194,0.14228,5.608,-0.11253,0.037509,-1.9981,-0.15003,1.2865e-12,-0.99906,0,0,0.33333,-0,-0,0.66667
0.73113,0.92557,2.1934,0.63836,3.4628,3.9091,-3.7338,1.2446,-0.55065,-4.9784,1.5869e-11,-0.27532,0,0,0.33333,-7.8949e-16,0,0.66667
0.095062,0.31706,0.28519,-0.27441,-3.1246,24.444,0.20869,-0.069564,-1.7328,0.27825,-4.3814e-09,-0.8664,0,0,0.33333,-0,-0,0.66667
0.070073,0.1833,0.21022,-0.47505,-5.5067,25.455,0.26631,-0.088769,-1.1977,0.35507,-1.2751e-08,-0.59885,0,0,0.33333,-0,-0,0.66667
0.88595,0.6207,2.6579,0.18105,0.36784,0.97384,-1.2832,0.42775,-1.8837,-1.711,-1.9977e-10,-0.94183,0,0,0.33333,3.9475e-16,0,0.66667
0.36132,0.91635,1.084,0.62453,6.4042,14.461,-1.8053,0.60175,-0.61301,-2.407,3.2885e-13,-0.30651,0,0,0.33333,-0,-0,0.66667
0.70343,0.4219,2.1103,-0.11715,-0.64352,4.1266,0.65926,-0.21975,-1.9511,0.87902,-2.4812e-11,-0.97553,0,0,0.33333,-1.579e-15,0,0.66667
0.56015,0.76839,1.6804,0.40258,3.148,7.9342,-1.804,0.60135,-1.4233,-2.4054,-9.4813e-13,-0.71167,0,0,0.33333,-7.8949e-16,0,0.66667
0.33775,0.58366,1.0132,0.12549,1.263,15.125,-0.33908,0.11303,-1.9434,-0.45211,-1.1647e-11,-0.97172,0,0,0.33333,-0,-0,0.66667
0.34565,0.51714,1.037,0.025704,0.25662,14.833,-0.071077,0.023692,-1.9973,-0.09477,-2.1925e-12,-0.99864,0,0,0.33333,-0,-0,0.66667
0.90546,0.4408,2.7164,-0.088801,-0.14089,0.72291,0.64325,-0.21442,-1.9728,0.85766,3.1879e-08,-0.9864,0,0,0.33333,-0,-0,0.66667
0.45348,0.48383,1.3604,-0.024261,-0.21712,11.117,0.088014,-0.029338,-1.9978,0.11735,1.3135e-13,-0.99888,0,0,0.33333,-0,-0,0.66667
0.48253,0.11957,1.4476,-0.57064,-5.1131,10.386,2.2028,-0.73427,-0.84254,2.9371,-4.2988e-13,-0.42127,0,0,0.33333,-0,-4.9615e-16,0.66667
0.97915,0.53962,2.9374,0.059437,-0.0050218,0.10879,-0.46558,0.15519,-1.9871,-0.62077,1.1076e-06,-0.99354,0,0,0.33333,-0,-0,0.66667
0.41169,0.62297,1.2351,0.18445,1.7372,12.536,-0.60748,0.20249,-1.8796,-0.80998,-1.3942e-12,-0.93979,0,0,0.33333,-0,-0,0.66667
0.36945,0.28011,1.1083,-0.32984,-3.2626,14.038,0.97487,-0.32496,-1.6139,1.2998,6.6925e-12,-0.80694,0,0,0.33333,3.9475e-16,0,0.66667
0.079963,0.4915,0.23989,-0.012749,-0.14457,25.038,0.0081554,-0.0027184,-1.9994,0.010874,8.7973e-08,-0.9997,0,0,0.33333,9.8686e-17,0,0.66667
0.38778,0.74477,1.1633,0.36715,3.5804,13.411,-1.139,0.37967,-1.521,-1.5187,-2.5524e-12,-0.76048,0,0,0.33333,-1.9737e-16,0,0.66667
0.17793,0.79104,0.53379,0.43657,4.9045,21.201,-0.62143,0.20714,-1.3218,-0.82857,-5.6329e-10,-0.6609,0,0,0.33333,-0,-0,0.66667
0.13134,0.73756,0.39403,0.35634,4.0413,23.013,-0.37442,0.12481,-1.5478,-0.49922,3.6955e-10,-0.77391,0,0,0.33333,-1.9737e-16,0,0.66667
0.36767,0.8591,1.103,0.53865,5.4378,14.19,-1.5844,0.52812,-0.96758,-2.1125,-6.9311e-13,-0.48379,0,0,0.33333,-7.8949e-16,0,0.66667
0.15881,0.21267,0.47643,-0.431,-4.8732,21.945,0.54758,-0.18253,-1.3397,0.7301,5.7045e-10,-0.66984,0,0,0.33333,-9.8686e-17,0,0.66667
0.30756,0.79601,0.92269,0.44401,4.6559,16.301,-1.0925,0.36417,-1.2983,-1.4567,-2.964e-11,-0.64916,0,0,0.33333,-0,-0,0.66667
0.68798,0.24931,2.0639,-0.37603,-2.2124,4.5961,2.0696,-0.68988,-1.4986,2.7595,-3.2515e-11,-0.74932,0,0,0.33333,1.0856e-15,0,0.66667
0.83844,0.54326,2.5153,0.064885,0.1937,1.5804,-0.43522,0.14507,-1.9844,-0.58029,-8.657e-11,-0.99219,0,0,0.33333,-0,-0,0.66667
0.30482,0.83603,0.91447,0.50405,5.3253,16.424,-1.2292,0.40972,-1.0963,-1.6389,-2.2984e-11,-0.54815,0,0,0.33333,1.9737e-16,0,0.66667
0.3531,0.206,1.0593,-0.441,-4.4639,14.658,1.2457,-0.41524,-1.3078,1.661,7.0101e-12,-0.65389,0,0,0.33333,-2.3406e-17,0,0.66667
0.73064,0.65868,2.1919,0.23802,1.2066,3.5774,-1.3913,0.46376,-1.7992,-1.855,7.0102e-11,-0.89958,0,0,0.33333,-0,-0,0.66667
0.77783,0.81568,2.3335,0.47352,2.0782,2.8221,-2.9466,0.98219,-1.2033,-3.9288,2.4059e-10,-0.60163,0,0,0.33333,-3.158e-15,0,0.66667
0.17703,0.72441,0.53109,0.33662,3.756,21.218,-0.47673,0.15891,-1.5971,-0.63564,-2.8573e-10,-0.79854,0,0,0.33333,3.9475e-16,0,0.66667
0.40176,0.086231,1.2053,-0.62065,-6.1316,13.064,1.9948,-0.66494,-0.63014,2.6597,-8.6642e-13,-0.31507,0,0,0.33333,-3.9475e-16,0,0.66667
0.0029414,0.092431,0.0088243,-0.61135,-7.2165,28.133,0.014385,-0.0047957,-0.672,0.01918,-7.8933e-07,-0.336,0,0,0.33333,-1.9275e-18,0,0.66667
0.4006,0.34493,1.2018,-0.2326,-2.2206,12.926,0.74543,-0.24848,-1.8083,0.99391,2.3611e-12,-0.90417,0,0,0.33333,-0,-0,0.66667
0.8932,0.77894,2.6796,0.4184,0.84706,1.0584,-2.9898,0.99659,-1.3783,-3.9863,1.7051e-09,-0.68916,0,0,0.33333,7.8949e-16,0,0.66667
0.057463,0.40294,0.17239,-0.14558,-1.6595,25.941,0.066925,-0.022308,-1.925,0.089234,2.0105e-07,-0.96249,0,0,0.33333,-0,-0,0.66667
0.38963,0.068362,1.1689,-0.64746,-6.4938,13.495,2.0181,-0.67272,-0.50992,2.6909,-6.9655e-13,-0.25496,0,0,0.33333,-7.8949e-16,0,0.66667
0.26534,0.7912,0.79603,0.4368,4.7042,17.862,-0.92723,0.30908,-1.3217,-1.2363,-8.991e-11,-0.66085,0,0,0.33333,-0,-0,0.66667
0.036777,0.4591,0.11033,-0.061354,-0.6997,26.771,0.018051,-0.0060172,-1.9861,0.024067,-4.1293e-07,-0.99306,0,0,0.33333,-0,-0,0.66667
0.4005,0.90449,1.2015,0.60674,5.9907,13.097,-1.944,0.648,-0.69167,-2.592,9.1316e-13,-0.34584,0,0,0.33333,8.8818e-16,0,0.66667
0.23781,0.74657,0.71343,0.36985,4.024,18.883,-0.70364,0.23455,-1.5141,-0.93818,-1.6104e-10,-0.75704,0,0,0.33333,3.9475e-16,0,0.66667
0.83097,0.80227,2.4929,0.45341,1.5161,1.9168,-3.0141,1.0047,-1.2687,-4.0188,5.7381e-10,-0.63437,0,0,0.33333,-0,-0,0.66667
0.64363,0.54294,1.9309,0.064415,0.41547,5.5471,-0.33167,0.11056,-1.9848,-0.44223,4.0623e-12,-0.99241,0,0,0.33333,-1.579e-15,0,0.66667
0.47657,0.7714,1.4297,0.40711,3.6082,10.472,-1.5521,0.51737,-1.4101,-2.0695,4.4564e-13,-0.70507,0,0,0.33333,-3.9475e-16,0,0.66667
0.70881,0.93015,2.1264,0.64523,3.7549,4.3873,-3.6587,1.2196,-0.51947,-4.8783,5.7181e-12,-0.25974,0,0,0.33333,3.9475e-16,0,0.66667
0.099384,0.78849,0.29815,0.43273,4.9731,24.286,-0.34405,0.11468,-1.3339,-0.45873,1.0953e-09,-0.66697,0,0,0.33333,-1.9737e-16,0,0.66667
0.75698,0.54939,2.2709,0.074088,0.33682,2.9923,-0.44866,0.14955,-1.9797,-0.59822,3.4411e-11,-0.98986,0,0,0.33333,-0,-0,0.66667
0.29859,0.16286,0.89578,-0.50571,-5.3666,16.653,1.208,-0.40267,-1.0909,1.6107,2.7466e-11,-0.54544,0,0,0.33333,7.8949e-16,0,0.66667
0.50277,0.54955,1.5083,0.074328,0.62354,9.5422,-0.29896,0.099654,-1.9799,-0.39862,7.6605e-15,-0.98995,0,0,0.33333,-7.8949e-16,0,0.66667
0.094178,0.89047,0.28253,0.58571,6.8329,24.512,-0.44129,0.1471,-0.78008,-0.58838,-1.0203e-08,-0.39004,0,0,0.33333,-0,-0,0.66667
0.81456,0.35541,2.4437,-0.21688,-0.75984,2.0007,1.4133,-0.4711,-1.8324,1.8844,-1.5406e-10,-0.91622,0,0,0.33333,-0,-0,0.66667
0.51047,0.15369,1.5314,-0.51947,-4.4516,9.4836,2.1214,-0.70712,-1.041,2.8285,2.9599e-13,-0.5205,0,0,0.33333,-0,-0,0.66667
0.44197,0.071251,1.3259,-0.64312,-6.1107,11.74,2.2739,-0.75798,-0.52905,3.0319,-4.7096e-13,-0.26452,0,0,0.33333,-7.8949e-16,0,0.66667
0.13489,0.0659,0.40467,-0.65115,-7.5781,22.926,0.70268,-0.23423,-0.49274,0.9369,-2.1193e-09,-0.24637,0,0,0.33333,-3.9475e-16,0,0.66667
0.63488,0.46804,1.9046,-0.047942,-0.31556,5.769,0.2435,-0.081166,-1.9926,0.32466,-2.4769e-12,-0.99631,0,0,0.33333,7.8949e-16,0,0.66667
0.35231,0.22836,1.0569,-0.40745,-4.115,14.672,1.1484,-0.3828,-1.4092,1.5312,8.8698e-12,-0.70458,0,0,0.33333,-0,-0,0.66667
0.68271,0.11074,2.0481,-0.5839,-3.6068,4.8998,3.1891,-1.063,-0.78709,4.2521,-6.5212e-12,-0.39355,0,0,0.33333,-8.0849e-16,0,0.66667
0.76246,0.28724,2.2874,-0.31915,-1.4509,2.9836,1.9467,-0.64889,-1.6379,2.5956,-1.4181e-10,-0.81897,0,0,0.33333,1.579e-15,0,0.66667
0.0067478,0.4084,0.020243,-0.1374,-1.5713,27.979,0.0074171,-0.0024723,-1.9333,0.0098896,1.0085e-07,-0.96667,0,0,0.33333,-0,-0,0.66667
0.25906,0.70363,0.77718,0.30544,3.2707,18.064,-0.63302,0.21101,-1.6675,-0.84403,-9.8581e-11,-0.83375,0,0,0.33333,-0,-0,0.66667
0.67791,0.25964,2.0337,-0.36053,-2.1764,4.82,1.9553,-0.65176,-1.5373,2.6071,-2.5491e-11,-0.76865,0,0,0.33333,-0,-0,0.66667
0.3361,0.91638,1.0083,0.62456,6.5364,15.352,-1.6793,0.55977,-0.61245,-2.2391,-9.1527e-13,-0.30623,0,0,0.33333,-7.8949e-16,0,0.66667
0.75013,0.95869,2.2504,0.68803,3.547,3.596,-4.1289,1.3763,-0.31695,-5.5052,7.8302e-12,-0.15848,0,0,0.33333,-0,-0,0.66667
0.55698,0.90543,1.6709,0.60815,4.9123,8.1797,-2.7098,0.90327,-0.68578,-3.6131,-7.2031e-13,-0.34289,0,0,0.33333,-1.0362e-15,0,0.66667
0.85824,0.25463,2.5747,-0.36806,-1.0005,1.4468,2.5271,-0.84235,-1.5189,3.3694,-2.3847e-10,-0.75945,0,0,0.33333,-3.158e-15,0,0.66667
0.57058,0.99432,1.7117,0.74148,5.9912,7.9315,-3.3846,1.1282,-0.045056,-4.5128,-1.0147e-13,-0.022528,0,0,0.33333,-3.9475e-16,0,0.66667
0.8894,0.98808,2.6682,0.73211,1.8157,1.5298,-5.2091,1.7364,-0.094054,-6.9455,-8.0028e-09,-0.047027,0,0,0.33333,-0,-0,0.66667
0.22748,0.53957,0.68244,0.05935,0.64093,19.236,-0.10801,0.036002,-1.987,-0.14401,-2.3375e-11,-0.99352,0,0,0.33333,-0,-0,0.66667
0.79398,0.89735,2.3819,0.59602,2.5153,2.6747,-3.7858,1.2619,-0.73671,-5.0478,2.2293e-10,-0.36835,0,0,0.33333,-0,-2.0188e-16,0.66667
0.033947,0.88993,0.10184,0.58489,6.8769,26.9,-0.15884,0.052947,-0.78315,-0.21179,-4.268e-08,-0.39157,0,0,0.33333,-4.9343e-17,0,0.66667
0.077267,0.75948,0.2318,0.38922,4.4769,25.161,-0.24059,0.080197,-1.4614,-0.32079,2.873e-09,-0.73069,0,0,0.33333,-1.9737e-16,0,0.66667
0.3959,0.79709,1.1877,0.44563,4.3412,13.164,-1.4114,0.47047,-1.2932,-1.8819,-2.075e-13,-0.64659,0,0,0.33333,-0,-0,0.66667
0.18577,0.71553,0.5573,0.3233,3.5922,20.876,-0.48047,0.16016,-1.6291,-0.64062,-2.6674e-10,-0.81453,0,0,0.33333,1.5368e-16,0,0.66667
0.94419,0.54458,2.8326,0.066873,0.048367,0.35284,-0.50513,0.16838,-1.9833,-0.6735,2.4381e-07,-0.99167,0,0,0.33333,-0,-0,0.66667
0.77968,0.66242,2.3391,0.24363,1.0192,2.6171,-1.5196,0.50654,-1.7892,-2.0262,1.3423e-10,-0.89462,0,0,0.33333,-0,-0,0.66667
0.74367,0.74282,2.231,0.36423,1.7912,3.3843,-2.1669,0.72231,-1.528,-2.8892,1.1172e-10,-0.76401,0,0,0.33333,-7.8949e-16,0,0.66667
0.492,0.27352,1.476,-0.33972,-2.9323,9.9519,1.3371,-0.4457,-1.5893,1.7828,-1.8063e-13,-0.79464,0,0,0.33333,7.8949e-16,0,0.66667
0.49005,0.14433,1.4701,-0.53351,-4.7109,10.124,2.0916,-0.69719,-0.98731,2.7887,-1.5721e-13,-0.49366,0,0,0.33333,-0,-0,0.66667
0.58111,0.91334,1.7433,0.62002,4.8132,7.513,-2.8824,0.96079,-0.63315,-3.8432,-8.1291e-13,-0.31657,0,0,0.33333,-0,-0,0.66667
0.59663,0.99058,1.7899,0.73588,5.6712,7.2151,-3.5123,1.1708,-0.074368,-4.6831,-7.5051e-14,-0.037184,0,0,0.33333,7.8949e-16,0,0.66667
0.89803,0.58576,2.6941,0.12864,0.22594,0.81482,-0.92414,0.30805,-1.9408,-1.2322,-5.51e-09,-0.97038,0,0,0.33333,-0,-0,0.66667
0.12083,0.91703,0.3625,0.62555,7.2859,23.471,-0.6047,0.20157,-0.60819,-0.80627,-6.6859e-10,-0.3041,0,0,0.33333,-0,-0,0.66667
0.50961,0.017617,1.5288,-0.72357,-6.3987,9.682,2.9499,-0.98332,-0.13771,3.9333,-6.1728e-14,-0.068854,0,0,0.33333,-0,-0,0.66667
0.99552,0.23744,2.9866,-0.39384,0.12416,0.22564,3.1366,-1.0455,-1.4479,4.1821,-1.1838e-08,-0.72394,0,0,0.33333,-0,6.3762e-17,0.66667
0.48143,0.36443,1.4443,-0.20336,-1.7648,10.238,0.78321,-0.26107,-1.8526,1.0443,-1.4955e-13,-0.92631,0,0,0.33333,3.9475e-16,0,0.66667
0.83781,0.050104,2.5134,-0.67484,-2.3389,2.0938,4.5231,-1.5077,-0.38005,6.0309,-3.3195e-10,-0.19003,0,0,0.33333,-7.8949e-16,0,0.66667
0.60366,0.62256,1.811,0.18384,1.3014,6.6197,-0.8878,0.29593,-1.8803,-1.1837,2.7303e-12,-0.94015,0,0,0.33333,-3.9475e-16,0,0.66667
0.66437,0.83198,1.9931,0.49796,3.1756,5.2476,-2.6467,0.88222,-1.1176,-3.5289,8.5796e-12,-0.55881,0,0,0.33333,-0,-0,0.66667
0.27246,0.90328,0.81738,0.60492,6.5968,17.659,-1.3185,0.43951,-0.69925,-1.758,-2.3002e-11,-0.34963,0,0,0.33333,-9.8686e-17,0,0.66667
0.83093,0.65853,2.4928,0.23779,0.75852,1.7522,-1.5807,0.5269,-1.7997,-2.1076,-2.4211e-10,-0.89984,0,0,0.33333,-0,-0,0.66667
0.24447,0.96022,0.7334,0.69033,7.7274,18.741,-1.3501,0.45003,-0.30517,-1.8001,-8.1103e-12,-0.15259,0,0,0.33333,-3.9475e-16,0,0.66667
0.67336,0.97752,2.0201,0.71628,4.6613,5.2716,-3.8585,1.2862,-0.1758,-5.1447,-8.904e-14,-0.087898,0,0,0.33333,-0,-0,0.66667
0.08813,0.96777,0.26439,0.70165,8.3033,24.769,-0.49469,0.1649,-0.25031,-0.65959,9.3641e-08,-0.12515,0,0,0.33333,-2.4672e-17,0,0.66667
0.018852,0.0022623,0.056556,-0.74661,-8.9522,27.505,0.11259,-0.037537,-0.018758,0.15012,-8.7091e-06,-0.009379,0,0,0.33333,-0,-0,0.66667
0.47235,0.33858,1.417,-0.24213,-2.1308,10.54,0.91497,-0.30499,-1.7917,1.22,-1.8946e-13,-0.89585,0,0,0.33333,-5.9212e-16,0,0.66667
0.939,0.26801,2.817,-0.34798,-0.33465,0.54212,2.614,-0.87133,-1.5692,3.4853,3.4068e-10,-0.78458,0,0,0.33333,1.579e-15,0,0.66667
0.32557,0.055699,0.97672,-0.66645,-7.0679,15.753,1.7358,-0.57861,-0.42084,2.3144,4.0312e-13,-0.21042,0,0,0.33333,-0,-0,0.66667
0.32215,0.1398,0.96646,-0.5403,-5.6591,15.81,1.3925,-0.46416,-0.96129,1.8566,9.3021e-12,-0.48065,0,0,0.33333,-0,-0,0.66667
0.052031,0.84613,0.15609,0.5192,6.0558,26.176,-0.21611,0.072038,-1.042,-0.28815,3.5949e-08,-0.52102,0,0,0.33333,-0,-0,0.66667
0.67529,0.72947,2.0259,0.34421,2.0884,4.8717,-1.8595,0.61983,-1.5783,-2.4793,2.4415e-11,-0.78917,0,0,0.33333,-0,-0,0.66667
0.72174,0.55175,2.1652,0.077621,0.40146,3.7173,-0.44818,0.14939,-1.9782,-0.59757,2.2375e-11,-0.9891,0,0,0.33333,7.8949e-16,0,0.66667
0.90372,0.87191,2.7112,0.55787,1.0817,1.1072,-4.0333,1.3444,-0.89406,-5.3777,9.1908e-09,-0.44703,0,0,0.33333,-1.9737e-15,0,0.66667
0.43715,0.36262,1.3114,-0.20608,-1.8892,11.682,0.72069,-0.24023,-1.8489,0.96092,2.8405e-13,-0.92447,0,0,0.33333,-7.8949e-16,0,0.66667
0.10952,0.29585,0.32855,-0.30623,-3.4818,23.871,0.2683,-0.089432,-1.6665,0.35773,-1.1021e-09,-0.83324,0,0,0.33333,-1.9737e-16,0,0.66667
0.037607,0.80895,0.11282,0.46343,5.3862,26.748,-0.13943,0.046475,-1.2366,-0.1859,3.138e-08,-0.61831,0,0,0.33333,-1.2336e-17,0,0.66667
0.88077,0.71417,2.6423,0.32125,0.71147,1.1194,-2.2636,0.75454,-1.6331,-3.0181,8.0268e-11,-0.81657,0,0,0.33333,-2.6797e-16,0,0.66667
0.65226,0.3708,1.9568,-0.1938,-1.2307,5.3593,1.0113,-0.33709,-1.8667,1.3484,-1.2529e-11,-0.93336,0,0,0.33333,-7.8949e-16,0,0.66667
0.9155,0.93726,2.7465,0.65589,1.184,1.1341,-4.8037,1.6012,-0.47129,-6.405,6.1345e-08,-0.23565,0,0,0.33333,1.9737e-16,0,0.66667
0.8806,0.63529,2.6418,0.20293,0.4371,1.0486,-1.4296,0.47653,-1.853,-1.9061,-3.7304e-09,-0.92651,0,0,0.33333,-0,-0,0.66667
0.47024,0.13954,1.4107,-0.54068,-4.902,10.754,2.034,-0.678,-0.96025,2.712,-5.5977e-13,-0.48012,0,0,0.33333,-0,-0,0.66667
0.67034,0.30475,2.011,-0.29287,-1.7904,4.9601,1.5706,-0.52352,-1.6951,2.0941,-2.2506e-11,-0.84756,0,0,0.33333,7.8949e-16,0,0.66667
0.74507,0.65826,2.2352,0.23739,1.1427,3.2803,-1.415,0.47166,-1.8002,-1.8866,8.651e-11,-0.90011,0,0,0.33333,-0,-0,0.66667
0.42221,0.73487,1.2666,0.35231,3.3139,12.229,-1.19,0.39667,-1.5585,-1.5867,1.6775e-13,-0.77927,0,0,0.33333,-0,-0,0.66667
0.15392,0.28192,0.46175,-0.32712,-3.678,22.121,0.4028,-0.13427,-1.6206,0.53707,3.483e-10,-0.81032,0,0,0.33333,3.9475e-16,0,0.66667
0.28408,0.90538,0.85225,0.60806,6.5864,17.231,-1.3819,0.46064,-0.68637,-1.8426,-1.4719e-11,-0.34318,0,0,0.33333,5.9212e-16,0,0.66667
0.54848,0.071755,1.6454,-0.64237,-5.2897,8.4555,2.8186,-0.93953,-0.53278,3.7581,3.384e-13,-0.26639,0,0,0.33333,1.579e-15,0,0.66667
0.25574,0.98992,0.76721,0.73488,8.2247,18.341,-1.5035,0.50116,-0.079305,-2.0046,6.3827e-13,-0.039652,0,0,0.33333,-3.9475e-16,0,0.66667
0.89173,0.19672,2.6752,-0.45493,-0.95034,1.1129,3.2454,-1.0818,-1.2642,4.3272,1.5197e-09,-0.63208,0,0,0.33333,1.579e-15,0,0.66667
0.58075,0.82853,1.7423,0.4928,3.7557,7.4133,-2.2895,0.76318,-1.136,-3.0527,-1.064e-12,-0.56802,0,0,0.33333,-7.8949e-16,0,0.66667
0.71867,0.91353,2.156,0.62029,3.4847,4.1463,-3.5663,1.1888,-0.63235,-4.7551,1.3557e-11,-0.31618,0,0,0.33333,-0,-0,0.66667
0.86203,0.93594,2.5861,0.6539,1.9244,1.7316,-4.5095,1.5032,-0.48057,-6.0126,-2.6483e-09,-0.24029,0,0,0.33333,-3.9475e-16,0,0.66667
0.89656,0.84404,2.6897,0.51605,1.0563,1.1299,-3.7014,1.2338,-1.054,-4.9352,1.291e-08,-0.52699,0,0,0.33333,3.158e-15,0,0.66667
0.95761,0.90462,2.8728,0.60693,0.48219,0.71426,-4.6496,1.5499,-0.69097,-6.1994,4.374e-07,-0.34549,0,0,0.33333,5.9212e-16,0,0.66667
0.62751,0.83674,1.8825,0.50511,3.5135,6.1714,-2.5357,0.84522,-1.0929,-3.3809,1.0381e-12,-0.54645,0,0,0.33333,-3.9475e-16,0,0.66667
0.99898,0.18864,2.9969,-0.46704,0.15537,0.29491,3.7325,-1.2442,-1.2256,4.9767,5.7057e-08,-0.61282,0,0,0.33333,-3.158e-15,0,0.66667
0.79051,0.61114,2.3715,0.16672,0.65797,2.3892,-1.0543,0.35144,-1.9004,-1.4058,1.0191e-10,-0.9502,0,0,0.33333,-1.579e-15,0,0.66667
0.27082,0.39733,0.81247,-0.15401,-1.6265,17.596,0.33367,-0.11122,-1.9153,0.4449,4.8274e-11,-0.95763,0,0,0.33333,1.9737e-16,0,0.66667
0.99055,0.66225,2.9717,0.24337,-0.07209,0.12159,-1.9286,0.64285,-1.7893,-2.5714,5.7706e-08,-0.89464,0,0,0.33333,-0,-0,0.66667
0.80151,0.29131,2.4045,-0.31303,-1.1924,2.2729,2.0071,-0.66905,-1.6511,2.6762,-2.1114e-10,-0.82556,0,0,0.33333,-0,-0,0.66667
0.25311,0.42333,0.75934,-0.115,-1.2261,18.261,0.23287,-0.077622,-1.9524,0.31049,4.7147e-11,-0.97622,0,0,0.33333,-0,-0,0.66667
0.031897,0.73674,0.095692,0.35511,4.0963,26.972,-0.090616,0.030205,-1.5515,-0.12082,3.4617e-09,-0.77574,0,0,0.33333,-0,-0,0.66667
0.95281,0.73377,2.8584,0.35066,0.22794,0.43568,-2.6729,0.89096,-1.5627,-3.5638,2.3027e-09,-0.78133,0,0,0.33333,-0,-0,0.66667
0.55683,0.15503,1.6705,-0.51746,-4.126,8.1081,2.3051,-0.76837,-1.0486,3.0735,1.1877e-12,-0.52432,0,0,0.33333,-1.0031e-15,0,0.66667
0.55271,0.82495,1.6581,0.48743,3.898,8.2047,-2.1552,0.71841,-1.1546,-2.8737,-1.0736e-12,-0.57728,0,0,0.33333,-7.8949e-16,0,0.66667
0.047378,0.51354,0.14213,0.02031,0.23133,26.344,-0.0076972,0.0025653,-1.9984,-0.010263,-6.3886e-07,-0.9992,0,0,0.33333,-0,-0,0.66667
0.63904,0.34107,1.9171,-0.2384,-1.5675,5.7087,1.2188,-0.40626,-1.7987,1.625,-9.5095e-12,-0.89937,0,0,0.33333,-1.1842e-15,0,0.66667
0.5001,0.19252,1.5003,-0.46123,-3.9832,9.7636,1.8453,-0.6151,-1.2443,2.4604,1.4611e-13,-0.62216,0,0,0.33333,-0,-0,0.66667
0.80429,0.95777,2.4129,0.68665,2.8447,2.6262,-4.4182,1.4727,-0.32294,-5.8909,9.0513e-11,-0.16147,0,0,0.33333,-0,-0,0.66667
0.06955,0.88797,0.20865,0.58195,6.8146,25.486,-0.3238,0.10793,-0.79509,-0.43173,-2.8947e-08,-0.39754,0,0,0.33333,-0,-0,0.66667
0.56293,0.6373,1.6888,0.20595,1.5772,7.7645,-0.92749,0.30916,-1.8491,-1.2366,1.0447e-13,-0.92455,0,0,0.33333,-0,-0,0.66667
0.40868,0.27336,1.226,-0.33996,-3.2405,12.683,1.1115,-0.37049,-1.589,1.482,8.0114e-13,-0.79452,0,0,0.33333,-3.9475e-16,0,0.66667
0.55177,0.25238,1.6553,-0.37143,-2.9366,8.1586,1.6395,-0.54651,-1.51,2.186,8.2989e-13,-0.755,0,0,0.33333,-0,-0,0.66667
0.35846,0.49466,1.0754,-0.0080068,-0.079061,14.375,0.022961,-0.0076538,-2.0003,0.030615,6.5093e-13,-1.0001,0,0,0.33333,-5.9212e-16,0,0.66667
0.99938,0.97886,2.9981,0.7183,-0.023914,0.69017,-5.7428,1.9143,-0.16555,-7.6571,2.1143e-05,-0.082777,0,0,0.33333,-0,-1.037e-15,0.66667
0.45032,0.75416,1.351,0.38124,3.4822,11.308,-1.3735,0.45782,-1.4836,-1.8313,8.5987e-13,-0.74181,0,0,0.33333,-0,-0,0.66667
0.34582,0.069376,1.0375,-0.64594,-6.7269,15.019,1.787,-0.59568,-0.51662,2.3827,-1.2168e-13,-0.25831,0,0,0.33333,-0,-0,0.66667
0.18973,0.48952,0.56918,-0.015713,-0.1726,20.696,0.023849,-0.0079495,-1.9989,0.031798,-4.8827e-11,-0.99943,0,0,0.33333,1.9737e-16,0,0.66667
0.92353,0.31245,2.7706,-0.28132,-0.35556,0.62762,2.0784,-0.69281,-1.72,2.7713,-1.2732e-08,-0.85998,0,0,0.33333,-1.727e-15,0,0.66667
0.10429,0.64551,0.31288,0.21826,2.4741,24.072,-0.18211,0.060703,-1.8301,-0.24281,1.3082e-09,-0.91503,0,0,0.33333,-0,-0,0.66667
0.44034,0.14551,1.321,-0.53174,-4.9893,11.717,1.8732,-0.6244,-0.99432,2.4976,-1.0161e-12,-0.49716,0,0,0.33333,3.9475e-16,0,0.66667
0.6862,0.70325,2.0586,0.30488,1.7874,4.5928,-1.6737,0.55789,-1.6692,-2.2315,3.2674e-11,-0.8346,0,0,0.33333,-0,-0,0.66667
0.14241,0.89648,0.42722,0.59472,6.8632,22.62,-0.67754,0.22585,-0.74227,-0.90338,-2.0421e-09,-0.37114,0,0,0.33333,-0,-0,0.66667
0.9315,0.088475,2.7945,-0.61729,-0.86395,0.92948,4.6,-1.5333,-0.64515,6.1333,-3.7452e-08,-0.32258,0,0,0.33333,1.9737e-15,0,0.66667
0.058875,0.82102,0.17662,0.48153,5.5933,25.901,-0.2268,0.075601,-1.1753,-0.3024,1.7135e-09,-0.58765,0,0,0.33333,-0,-0,0.66667
0.2181,0.50082,0.6543,0.0012249,0.013284,19.596,-0.0021372,0.00071239,-2.0013,-0.0028495,6.9524e-11,-1.0007,0,0,0.33333,-0,-0,0.66667
0.077195,0.8302,0.23159,0.49529,5.7452,25.174,-0.30587,0.10196,-1.1276,-0.40783,-1.6493e-09,-0.56378,0,0,0.33333,-1.901e-16,0,0.66667
0.41151,0.27601,1.2345,-0.33598,-3.1924,12.585,1.1061,-0.36869,-1.5987,1.4748,5.7521e-13,-0.79933,0,0,0.33333,9.8686e-16,0,0.66667
0.59726,0.83998,1.7918,0.50996,3.7767,6.9741,-2.4366,0.81221,-1.0757,-3.2489,-8.0891e-13,-0.53786,0,0,0.33333,-9.8686e-16,0,0.66667
0.73114,0.79938,2.1934,0.44908,2.3401,3.7083,-2.6267,0.87557,-1.2824,-3.5023,7.9687e-11,-0.64122,0,0,0.33333,-8.6585e-16,0,0.66667
0.87843,0.5875,2.6353,0.13125,0.28544,1.0473,-0.92234,0.30745,-1.9388,-1.2298,6.0268e-09,-0.96939,0,0,0.33333,7.8949e-16,0,0.66667
0.35325,0.77228,1.0597,0.40841,4.1218,14.639,-1.1542,0.38472,-1.4065,-1.5389,-8.3894e-12,-0.70323,0,0,0.33333,-3.9475e-16,0,0.66667
0.70246,0.63224,2.1074,0.19836,1.0981,4.1723,-1.1147,0.37158,-1.8604,-1.4863,3.7807e-11,-0.9302,0,0,0.33333,-0,-0,0.66667
0.048616,0.39034,0.14585,-0.16448,-1.8778,26.296,0.063973,-0.021324,-1.9034,0.085297,3.9544e-08,-0.95172,0,0,0.33333,-0,-0,0.66667
0.81926,0.70255,2.4578,0.30382,1.0506,1.9741,-1.9913,0.66375,-1.671,-2.655,1.5794e-10,-0.8355,0,0,0.33333,-1.579e-15,0,0.66667
0.31828,0.8403,0.95483,0.51045,5.3451,15.937,-1.2997,0.43324,-1.0738,-1.733,-1.4133e-11,-0.53691,0,0,0.33333,-3.9475e-16,0,0.66667
0.22164,0.81954,0.66493,0.47931,5.3038,19.527,-0.84989,0.2833,-1.1831,-1.1332,-2.4243e-10,-0.59157,0,0,0.33333,-0,-0,0.66667
0.36104,0.19907,1.0831,-0.45139,-4.5427,14.381,1.3037,-0.43458,-1.2753,1.7383,4.6163e-12,-0.63765,0,0,0.33333,-0,-0,0.66667
0.11407,0.92768,0.34221,0.64152,7.4976,23.739,-0.58542,0.19514,-0.53626,-0.78057,-6.7511e-09,-0.26813,0,0,0.33333,9.8686e-17,0,0.66667
0.29371,0.39314,0.88112,-0.16029,-1.6683,16.742,0.37662,-0.12554,-1.9081,0.50216,3.4214e-11,-0.95407,0,0,0.33333,3.9475e-16,0,0.66667
0.008789,0.091676,0.026367,-0.61249,-7.2303,27.901,0.043066,-0.014355,-0.66665,0.057421,3.0558e-07,-0.33333,0,0,0.33333,-1.2336e-17,0,0.66667
0.25326,0.0082937,0.75979,-0.73756,-8.2689,18.435,1.4944,-0.49813,-0.06561,1.9925,7.0444e-13,-0.032805,0,0,0.33333,-0,-0,0.66667
0.83771,0.76864,2.5131,0.40297,1.275,1.7679,-2.7006,0.90019,-1.4219,-3.6007,5.9182e-10,-0.71096,0,0,0.33333,-0,-0,0.66667
0.80776,0.26752,2.4233,-0.34872,-1.2949,2.1932,2.2535,-0.75116,-1.5669,3.0046,-2.5555e-10,-0.78347,0,0,0.33333,-1.579e-15,0,0.66667
0.38257,0.11092,1.1477,-0.58361,-5.8441,13.697,1.7862,-0.59539,-0.78817,2.3816,-6.6003e-13,-0.39408,0,0,0.33333,-7.8949e-16,0,0.66667
0.43068,0.60817,1.292,0.16226,1.4958,11.889,-0.55906,0.18635,-1.9056,-0.74542,-4.4142e-13,-0.9528,0,0,0.33333,-0,-0,0.66667
0.18259,0.62822,0.54776,0.19233,2.1262,20.983,-0.28094,0.093646,-1.8688,-0.37458,7.5321e-11,-0.93442,0,0,0.33333,-3.9475e-16,0,0.66667
0.31687,0.04861,0.95062,-0.67708,-7.2361,16.071,1.7164,-0.57214,-0.36933,2.2885,6.2084e-13,-0.18466,0,0,0.33333,3.9475e-16,0,0.66667
0.41737,0.18496,1.2521,-0.47255,-4.5166,12.448,1.5778,-0.52594,-1.2065,2.1038,-8.9018e-13,-0.60327,0,0,0.33333,-9.8686e-17,0,0.66667
0.066468,0.93124,0.19941,0.64686,7.6314,25.615,-0.34397,0.11466,-0.51223,-0.45862,-4.2346e-09,-0.25611,0,0,0.33333,-0,-0,0.66667
0.33789,0.11261,1.0137,-0.58109,-6.0415,15.265,1.5707,-0.52358,-0.79873,2.0943,2.6444e-12,-0.39936,0,0,0.33333,-3.9475e-16,0,0.66667
0.49567,0.024039,1.487,-0.71394,-6.4233,10.097,2.831,-0.94368,-0.18752,3.7747,5.0626e-14,-0.093758,0,0,0.33333,-0,-5.1387e-16,0.66667
0.0067213,0.86003,0.020164,0.54005,6.3286,27.982,-0.029039,0.0096796,-0.96221,-0.038718,-3.4881e-08,-0.48111,0,0,0.33333,-0,-0,0.66667
0.43808,0.21982,1.3142,-0.42026,-3.9071,11.729,1.4729,-0.49095,-1.3733,1.9638,-9.5124e-13,-0.68666,0,0,0.33333,-0,-0,0.66667
0.21869,0.84929,0.65607,0.52393,5.83,19.653,-0.91663,0.30554,-1.0246,-1.2222,-2.2373e-10,-0.5123,0,0,0.33333,-0,-0,0.66667
0.2134,0.64424,0.6402,0.21636,2.3624,19.791,-0.36937,0.12312,-1.8329,-0.49249,-1.2374e-10,-0.91646,0,0,0.33333,1.9737e-16,0,0.66667
0.24924,0.77146,0.74772,0.40719,4.4152,18.459,-0.8119,0.27063,-1.4105,-1.0825,-1.3191e-10,-0.70525,0,0,0.33333,-3.9475e-16,0,0.66667
0.12833,0.62819,0.38498,0.19229,2.1647,23.117,-0.19741,0.065802,-1.869,-0.26321,3.1744e-10,-0.93452,0,0,0.33333,3.9475e-16,0,0.66667
0.94481,0.17354,2.8344,-0.48969,-0.4668,0.64424,3.7013,-1.2338,-1.1466,4.9351,2.6986e-08,-0.57331,0,0,0.33333,1.579e-15,0,0.66667
0.16907,0.18691,0.50722,-0.46964,-5.308,21.552,0.63523,-0.21174,-1.2168,0.84698,4.9704e-10,-0.60842,0,0,0.33333,8.6351e-17,0,0.66667
0.56761,0.46806,1.7028,-0.047908,-0.36184,7.5998,0.21754,-0.072515,-1.9927,0.29006,-1.6318e-13,-0.99634,0,0,0.33333,8.3884e-16,0,0.66667
0.17151,0.68881,0.51452,0.28322,3.157,21.426,-0.3886,0.12953,-1.7161,-0.51813,-2.8609e-10,-0.85804,0,0,0.33333,-3.9475e-16,0,0.66667
0.26092,0.90297,0.78275,0.60446,6.6362,18.088,-1.2617,0.42057,-0.70127,-1.6823,-3.5804e-11,-0.35063,0,0,0.33333,-3.9475e-16,0,0.66667
0.67678,0.24808,2.0303,-0.37788,-2.2931,4.8584,2.0459,-0.68197,-1.4929,2.7279,-2.4034e-11,-0.74645,0,0,0.33333,2.9606e-16,0,0.66667
0.50327,0.022845,1.5098,-0.71573,-6.3762,9.8669,2.8816,-0.96054,-0.17839,3.8422,1.5765e-14,-0.089193,0,0,0.33333,-7.8949e-16,0,0.66667
0.15729,0.96524,0.47186,0.69785,8.1124,22.068,-0.87811,0.2927,-0.26921,-1.1708,2.9621e-10,-0.13461,0,0,0.33333,2.4672e-16,0,0.66667
0.082507,0.62724,0.24752,0.19085,2.1705,24.94,-0.12597,0.041991,-1.8711,-0.16796,9.0477e-09,-0.93554,0,0,0.33333,1.9737e-16,0,0.66667
0.88189,0.79276,2.6457,0.43914,1.0029,1.2111,-3.0982,1.0327,-1.3136,-4.1309,9.1038e-10,-0.65682,0,0,0.33333,-0,-0,0.66667
0.24189,0.88857,0.72567,0.58285,6.4503,18.793,-1.1279,0.37596,-0.79135,-1.5038,-8.1652e-11,-0.39568,0,0,0.33333,3.9475e-16,0,0.66667
0.95897,0.63286,2.8769,0.19929,0.084153,0.28491,-1.5289,0.50964,-1.8584,-2.0385,1.3631e-07,-0.92922,0,0,0.33333,-0,-0,0.66667
0.89236,0.43385,2.6771,-0.099221,-0.18565,0.87128,0.70833,-0.23611,-1.9656,0.94444,-2.1972e-08,-0.98281,0,0,0.33333,-1.9737e-15,0,0.66667
0.15998,0.77837,0.47993,0.41755,4.7143,21.897,-0.53439,0.17813,-1.3806,-0.71252,-5.9965e-10,-0.69031,0,0,0.33333,-1.9737e-16,0,0.66667
0.50371,0.66382,1.5111,0.24572,2.0726,9.55,-0.99018,0.33006,-1.7852,-1.3202,-1.1069e-13,-0.89258,0,0,0.33333,1.579e-15,0,0.66667
0.11892,0.74561,0.35676,0.36841,4.1954,23.505,-0.35049,0.11683,-1.5175,-0.46732,5.0588e-12,-0.75876,0,0,0.33333,-2.9606e-16,0,0.66667
0.11084,0.31804,0.33251,-0.27295,-3.097,23.816,0.24202,-0.080674,-1.7355,0.3227,1.1221e-09,-0.86775,0,0,0.33333,-0,-0,0.66667
0.6963,0.15929,2.0889,-0.51106,-2.9997,4.5176,2.8468,-0.94894,-1.0716,3.7957,-2.2574e-11,-0.53582,0,0,0.33333,-0,-0,0.66667
0.27155,0.6912,0.81465,0.28679,3.0449,17.59,-0.62303,0.20768,-1.7078,-0.83071,-7.6331e-11,-0.85389,0,0,0.33333,-0,-0,0.66667
0.96639,0.47602,2.8992,-0.035968,-0.0075991,0.18473,0.27807,-0.09269,-1.9954,0.37076,-6.1677e-07,-0.99772,0,0,0.33333,3.158e-15,0,0.66667
0.83925,0.38764,2.5177,-0.16853,-0.50461,1.5954,1.1315,-0.37717,-1.8984,1.5087,3.2143e-11,-0.9492,0,0,0.33333,-0,-0,0.66667
0.09252,0.63288,0.27756,0.19931,2.2632,24.54,-0.14752,0.049175,-1.8589,-0.1967,1.4295e-08,-0.92944,0,0,0.33333,-0,-0,0.66667
0.39056,0.17051,1.1717,-0.49424,-4.8631,13.372,1.5442,-0.51475,-1.1314,2.059,-1.0714e-13,-0.56569,0,0,0.33333,-7.8949e-16,1.1674e-16,0.66667
0.12422,0.48099,0.37265,-0.028517,-0.32032,23.273,0.028339,-0.0094462,-1.997,0.037785,9.3016e-11,-0.99848,0,0,0.33333,1.9737e-16,0,0.66667
0.55539,0.68838,1.6662,0.28257,2.2034,8.0104,-1.2555,0.4185,-1.7168,-1.674,-3.6193e-13,-0.85841,0,0,0.33333,-1.579e-15,0,0.66667
0.16211,0.60796,0.48632,0.16194,1.8022,21.782,-0.21001,0.070004,-1.906,-0.28002,6.1363e-11,-0.953,0,0,0.33333,-0,-0,0.66667
0.83177,0.049378,2.4953,-0.67593,-2.4255,2.1834,4.4977,-1.4992,-0.37496,5.997,-1.3751e-10,-0.18748,0,0,0.33333,-0,-0,0.66667
0.25769,0.24392,0.77308,-0.38412,-4.1381,18.134,0.79189,-0.26396,-1.4752,1.0559,1.1053e-10,-0.7376,0,0,0.33333,-0,-0,0.66667
0.51057,0.17655,1.5317,-0.48517,-4.1398,9.4571,1.9817,-0.66056,-1.1625,2.6423,3.4528e-13,-0.58125,0,0,0.33333,-0,-0,0.66667
0.78245,0.19913,2.3474,-0.4513,-1.9321,2.7173,2.825,-0.94166,-1.2756,3.7667,-2.6637e-10,-0.63782,0,0,0.33333,-0,-0,0.66667
0.53834,0.56889,1.615,0.10334,0.82157,8.4617,-0.44507,0.14836,-1.9618,-0.59342,-7.2442e-14,-0.98091,0,0,0.33333,-0,-0,0.66667
0.52882,0.91703,1.5865,0.62555,5.2963,9.0154,-2.6465,0.88215,-0.60835,-3.5286,-3.3462e-13,-0.30418,0,0,0.33333,-0,5.2616e-16,0.66667
0.85484,0.20663,2.5645,-0.44005,-1.2535,1.5595,3.0094,-1.0031,-1.3109,4.0125,-9.6974e-10,-0.65545,0,0,0.33333,-0,-0,0.66667
0.2451,0.082677,0.7353,-0.62598,-6.9498,18.689,1.2274,-0.40914,-0.60617,1.6366,4.2806e-11,-0.30308,0,0,0.33333,3.9475e-16,0,0.66667
0.1271,0.87104,0.3813,0.55656,6.425,23.211,-0.56591,0.18864,-0.89915,-0.75455,-4.1451e-09,-0.44958,0,0,0.33333,2.9606e-16,0,0.66667
0.56024,0.70531,1.6807,0.30797,2.3863,7.8812,-1.3803,0.4601,-1.6624,-1.8404,-4.4975e-13,-0.83119,0,0,0.33333,7.8949e-16,0,0.66667
0.12838,0.63065,0.38514,0.19598,2.2065,23.115,-0.20128,0.067094,-1.8636,-0.26837,3.8213e-11,-0.93178,0,0,0.33333,-0,-0,0.66667
0.33116,0.0071143,0.99347,-0.73933,-7.8868,15.598,1.9587,-0.65289,-0.056477,2.6116,7.2609e-14,-0.028238,0,0,0.33333,-0,-0,0.66667
0.32644,0.60926,0.97932,0.16389,1.6661,15.54,-0.42801,0.14267,-1.9041,-0.57068,-1.8381e-11,-0.95207,0,0,0.33333,-0,-0,0.66667
0.94804,0.79681,2.8441,0.44522,0.37255,0.56687,-3.3767,1.1256,-1.2945,-4.5023,4.5324e-09,-0.64724,0,0,0.33333,-1.579e-15,0,0.66667
0.37591,0.52619,1.1277,0.039288,0.38199,13.758,-0.11815,0.039384,-1.9951,-0.15754,-1.466e-12,-0.99753,0,0,0.33333,3.9475e-16,0,0.66667
0.46911,0.15871,1.4073,-0.51194,-4.6319,10.771,1.9213,-0.64042,-1.0692,2.5617,-6.4215e-13,-0.53461,0,0,0.33333,-0,-0,0.66667
0.94734,0.6721,2.842,0.25815,0.18491,0.40604,-1.9564,0.65215,-1.7623,-2.6086,1.9521e-08,-0.88114,0,0,0.33333,-0,-0,0.66667
0.82838,0.15169,2.4851,-0.52246,-1.8104,2.0305,3.4624,-1.1541,-1.0302,4.6165,-1.0578e-09,-0.51509,0,0,0.33333,-3.9475e-16,0,0.66667
0.672,0.43977,2.016,-0.090339,-0.54259,4.8509,0.48566,-0.16189,-1.9721,0.64755,-1.0798e-11,-0.98606,0,0,0.33333,-1.579e-15,0,0.66667
0.26731,0.52533,0.80193,0.038,0.40132,17.72,-0.081263,0.027088,-1.9952,-0.10835,-1.2837e-11,-0.99758,0,0,0.33333,-0,-0,0.66667
0.13326,0.44762,0.39979,-0.078572,-0.8808,22.916,0.083768,-0.027923,-1.9775,0.11169,1.0918e-09,-0.98873,0,0,0.33333,3.9475e-16,0,0.66667
0.33396,0.64467,1.0019,0.217,2.1976,15.276,-0.57976,0.19325,-1.8319,-0.77301,-1.843e-11,-0.91596,0,0,0.33333,-0,-0,0.66667
0.15982,0.52645,0.47946,0.039673,0.44085,21.867,-0.050725,0.016908,-1.9946,-0.067633,-2.5479e-10,-0.99731,0,0,0.33333,-0,-0,0.66667
0.9604,0.16475,2.8812,-0.50287,-0.307,0.54783,3.8636,-1.2879,-1.1004,5.1515,-4.7787e-08,-0.55021,0,0,0.33333,-0,-0,0.66667
0.20094,0.87979,0.60281,0.56969,6.4197,20.347,-0.91578,0.30526,-0.84643,-1.221,-2.6768e-10,-0.42322,0,0,0.33333,-0,-0,0.66667
0.31067,0.37074,0.932,-0.19389,-1.9966,16.121,0.48189,-0.16063,-1.8669,0.64252,2.8752e-11,-0.93343,0,0,0.33333,-1.9737e-16,0,0.66667
0.66142,0.93218,1.9843,0.64828,4.2804,5.4707,-3.4303,1.1434,-0.50575,-4.5737,2.0273e-13,-0.25287,0,0,0.33333,-0,-0,0.66667
0.43762,0.007813,1.3129,-0.73828,-7.1493,11.959,2.5847,-0.86157,-0.062339,3.4463,4.4631e-14,-0.031169,0,0,0.33333,-1.579e-15,0,0.66667
0.58983,0.1248,1.7695,-0.5628,-4.2606,7.2208,2.6557,-0.88523,-0.87482,3.5409,1.1691e-12,-0.43741,0,0,0.33333,3.454e-16,0,0.66667
0.84885,0.71031,2.5465,0.31547,0.90646,1.5361,-2.1423,0.71408,-1.6458,-2.8563,1.0744e-10,-0.8229,0,0,0.33333,-7.8949e-16,0,0.66667
0.58815,0.055265,1.7644,-0.6671,-5.1548,7.3674,3.1388,-1.0463,-0.41742,4.1851,4.9094e-13,-0.20871,0,0,0.33333,-3.9475e-16,0,0.66667
0.49698,0.79371,1.4909,0.44056,3.8127,9.8482,-1.7516,0.58386,-1.3094,-2.3355,4.0745e-14,-0.65471,0,0,0.33333,-0,-0,0.66667
0.83558,0.56519,2.5067,0.097782,0.29807,1.6294,-0.65364,0.21788,-1.9664,-0.87151,6.7365e-10,-0.98318,0,0,0.33333,-0,-0,0.66667
0.79797,0.49385,2.3939,-0.009229,-0.034842,2.2292,0.058916,-0.019639,-2.0001,0.078554,-1.4551e-10,-1,0,0,0.33333,2.3685e-15,0,0.66667
0.98116,0.36389,2.9435,-0.20417,0.018832,0.1473,1.6026,-0.5342,-1.8514,2.1368,2.0763e-07,-0.92568,0,0,0.33333,-1.579e-15,0,0.66667
0.94861,0.49415,2.8458,-0.0087718,-0.0054203,0.31198,0.066568,-0.022189,-1.9997,0.088757,1.0593e-07,-0.99986,0,0,0.33333,1.579e-15,0,0.66667
0.91719,0.27032,2.7516,-0.34452,-0.4978,0.73716,2.5279,-0.84264,-1.5774,3.3706,-8.4507e-10,-0.78872,0,0,0.33333,-0,-0,0.66667
0.49483,0.19346,1.4845,-0.45981,-3.9993,9.9267,1.8202,-0.60673,-1.2482,2.4269,-7.2831e-14,-0.6241,0,0,0.33333,-0,-0,0.66667
0.73715,0.52341,2.2115,0.035108,0.17194,3.3876,-0.20704,0.069013,-1.9955,-0.27605,1.2201e-11,-0.99777,0,0,0.33333,-0,-0,0.66667
0.60052,0.10126,1.8016,-0.59812,-4.462,6.9642,2.8735,-0.95782,-0.72768,3.8313,9.6501e-13,-0.36384,0,0,0.33333,-0,-0,0.66667
0.738,0.39337,2.214,-0.15994,-0.78491,3.394,0.94429,-0.31476,-1.9085,1.2591,-5.5771e-11,-0.95425,0,0,0.33333,-0,-0,0.66667
0.37576,0.6771,1.1273,0.26566,2.6022,13.798,-0.79858,0.26619,-1.749,-1.0648,-6.0152e-12,-0.87452,0,0,0.33333,-0,-0,0.66667
0.91111,0.45029,2.7333,-0.074558,-0.10894,0.66059,0.54344,-0.18115,-1.9796,0.72459,-9.4163e-10,-0.98979,0,0,0.33333,-0,-0,0.66667
0.87231,0.5237,2.6169,0.035555,0.081317,1.1062,-0.24812,0.082707,-1.9955,-0.33083,2.2037e-09,-0.99773,0,0,0.33333,-1.579e-15,0,0.66667
0.70467,0.62868,2.114,0.19303,1.061,4.1211,-1.0881,0.36272,-1.8682,-1.4509,3.8819e-11,-0.93409,0,0,0.33333,-0,-0,0.66667
0.26123,0.57984,0.78369,0.11975,1.2709,17.954,-0.25026,0.083422,-1.9484,-0.33369,-4.362e-11,-0.97418,0,0,0.33333,-3.9475e-16,0,0.66667
0.50107,0.11302,1.5032,-0.58047,-5.081,9.8167,2.3269,-0.77562,-0.80179,3.1025,4.4187e-14,-0.4009,0,0,0.33333,-0,-0,0.66667
0.21771,0.55662,0.65312,0.084935,0.92201,19.613,-0.14793,0.049309,-1.9748,-0.19724,-3.0104e-11,-0.98738,0,0,0.33333,-9.8686e-17,0,0.66667
0.10252,0.64209,0.30756,0.21314,2.4165,24.143,-0.17481,0.05827,-1.8377,-0.23308,-2.2916e-09,-0.91884,0,0,0.33333,-1.9737e-16,0,0.66667
0.57796,0.31422,1.7339,-0.27866,-2.0868,7.3636,1.2885,-0.42948,-1.7251,1.7179,-4.6019e-13,-0.86257,0,0,0.33333,-0,-0,0.66667
0.4796,0.69801,1.4388,0.29701,2.5983,10.326,-1.1396,0.37986,-1.6858,-1.5194,2.5446e-13,-0.84291,0,0,0.33333,-0,-0,0.66667
0.24749,0.81062,0.74248,0.46593,5.0818,18.542,-0.92251,0.3075,-1.229,-1.23,-1.3287e-10,-0.61449,0,0,0.33333,-4.4409e-16,0,0.66667
0.44668,0.003778,1.34,-0.74433,-7.1434,11.671,2.6598,-0.8866,-0.030301,3.5464,-3.6859e-14,-0.015151,0,0,0.33333,-0,-0,0.66667
0.13839,0.5755,0.41518,0.11325,1.2684,22.714,-0.12538,0.041793,-1.954,-0.16717,-1.0661e-09,-0.977,0,0,0.33333,-1.9737e-16,0,0.66667
0.5228,0.10844,1.5684,-0.58733,-4.9891,9.1624,2.4565,-0.81882,-0.77267,3.2753,3.4195e-13,-0.38634,0,0,0.33333,-0,-0,0.66667
0.97037,0.025917,2.9111,-0.71112,-0.45628,0.81149,5.5204,-1.8401,-0.20235,7.3606,2.3486e-06,-0.10118,0,0,0.33333,-1.579e-15,0,0.66667
0.82378,0.73619,2.4713,0.35428,1.2058,1.939,-2.3348,0.77827,-1.5531,-3.1131,3.3819e-10,-0.77654,0,0,0.33333,-9.7555e-16,0,0.66667
0.0044396,0.58786,0.013319,0.13179,1.507,28.071,-0.0046811,0.0015604,-1.9382,-0.0062415,5.1333e-08,-0.96911,0,0,0.33333,9.2519e-18,0,0.66667
0.09162,0.85325,0.27486,0.52987,6.1502,24.606,-0.38837,0.12946,-1.0016,-0.51783,4.025e-09,-0.50079,0,0,0.33333,-0,3.6455e-17,0.66667
0.025576,0.10481,0.076727,-0.59279,-6.979,27.233,0.12129,-0.04043,-0.74998,0.16172,-6.1363e-07,-0.37499,0,0,0.33333,-4.9343e-17,0,0.66667
0.30843,0.74443,0.92528,0.36665,3.8185,16.243,-0.90467,0.30156,-1.5221,-1.2062,-3.5935e-11,-0.76105,0,0,0.33333,-0,-0,0.66667
0.98064,0.89841,2.9419,0.59762,0.14768,0.56265,-4.6884,1.5628,-0.72996,-6.2512,-5.6543e-07,-0.36498,0,0,0.33333,-0,-0,0.66667
0.4604,0.41938,1.3812,-0.12092,-1.0748,10.899,0.44539,-0.14846,-1.9472,0.59386,-2.745e-14,-0.97362,0,0,0.33333,7.8949e-16,0,0.66667
0.40975,0.4452,1.2292,-0.082201,-0.77343,12.587,0.26945,-0.089818,-1.9758,0.35927,9.7192e-13,-0.98791,0,0,0.33333,-0,-0,0.66667
0.40822,0.057261,1.2247,-0.66411,-6.5576,12.876,2.1688,-0.72294,-0.4322,2.8918,-5.9752e-13,-0.2161,0,0,0.33333,1.9737e-16,0,0.66667
0.82481,0.81368,2.4744,0.47052,1.6386,2.0283,-3.1047,1.0349,-1.2137,-4.1396,6.4472e-10,-0.60686,0,0,0.33333,-0,-0,0.66667
0.58171,0.29952,1.7451,-0.30072,-2.2404,7.2686,1.3995,-0.46649,-1.6779,1.866,-4.5686e-13,-0.83895,0,0,0.33333,7.8949e-16,0,0.66667
0.11935,0.27295,0.35806,-0.34058,-3.871,23.485,0.32519,-0.1084,-1.5872,0.43359,4.7675e-10,-0.7936,0,0,0.33333,9.8686e-17,0,0.66667
0.44473,0.41263,1.3342,-0.13106,-1.1876,11.415,0.4663,-0.15543,-1.9387,0.62173,1.355e-13,-0.96936,0,0,0.33333,-0,-0,0.66667
0.1464,0.00071456,0.43921,-0.74893,-8.7933,22.504,0.87717,-0.29239,-0.0065045,1.1696,2.0764e-09,-0.0032522,0,0,0.33333,-0,-0,0.66667
0.66607,0.41235,1.9982,-0.13148,-0.80343,5.002,0.70059,-0.23353,-1.9384,0.93411,-1.3153e-11,-0.9692,0,0,0.33333,-0,-0,0.66667
0.12237,0.035943,0.36711,-0.69609,-8.1717,23.426,0.68144,-0.22715,-0.27755,0.90858,-6.9175e-09,-0.13878,0,0,0.33333,3.9475e-16,0,0.66667
0.086689,0.37305,0.26007,-0.19043,-2.164,24.773,0.13206,-0.044021,-1.8716,0.17608,-2.9638e-08,-0.93579,0,0,0.33333,1.2336e-16,0,0.66667
0.70336,0.16039,2.1101,-0.50941,-2.9287,4.3587,2.8664,-0.95547,-1.0781,3.8219,-2.8447e-11,-0.53906,0,0,0.33333,-0,-0,0.66667
0.41126,0.58077,1.2338,0.12116,1.1391,12.54,-0.39861,0.13287,-1.9471,-0.53148,-1.2154e-12,-0.97357,0,0,0.33333,7.8949e-16,0,0.66667
0.99611,0.19017,2.9883,-0.46474,0.12371,0.30393,3.7035,-1.2345,-1.2326,4.9379,1.335e-08,-0.6163,0,0,0.33333,-3.158e-15,0,0.66667
0.53405,0.89124,1.6021,0.58686,4.9011,8.8275,-2.5073,0.83577,-0.77492,-3.3431,-5.5045e-13,-0.38746,0,0,0.33333,-7.8949e-16,0,0.66667
0.77901,0.87135,2.337,0.55703,2.4822,2.89,-3.4715,1.1572,-0.89734,-4.6286,1.9288e-10,-0.44867,0,0,0.33333,7.8949e-16,-3.0797e-16,0.66667
0.86863,0.22467,2.6059,-0.413,-1.0487,1.35,2.8699,-0.95664,-1.3934,3.8266,-8.7383e-10,-0.69671,0,0,0.33333,-0,-0,0.66667
0.79875,0.9449,2.3962,0.66735,2.8179,2.6899,-4.2643,1.4214,-0.41661,-5.6858,5.1452e-11,-0.20831,0,0,0.33333,1.579e-15,0,0.66667
0.21409,0.55583,0.64226,0.083748,0.91067,19.753,-0.14343,0.047812,-1.9749,-0.19125,-2.9315e-11,-0.98746,0,0,0.33333,-1.9737e-16,0,0.66667
0.68037,0.69326,2.0411,0.28989,1.7245,4.7207,-1.5778,0.52595,-1.7011,-2.1038,2.8432e-11,-0.85054,0,0,0.33333,-0,-0,0.66667
0.0046244,0.54912,0.013873,0.073681,0.84159,28.064,-0.0027255,0.00090547,-1.98,-0.0036355,-4.5208e-06,-0.99002,0,0,0.33333,-0,-0,0.66667
0.7958,0.13228,2.3874,-0.55158,-2.2795,2.5896,3.5116,-1.1705,-0.91847,4.6821,-3.0339e-10,-0.45923,0,0,0.33333,1.579e-15,0,0.66667
0.21583,0.018666,0.6475,-0.722,-8.2296,19.833,1.2467,-0.41555,-0.14608,1.6622,2.0693e-11,-0.073038,0,0,0.33333,-0,3.798e-16,0.66667
0.98672,0.63188,2.9602,0.19783,-0.044756,0.11423,-1.5616,0.52054,-1.8609,-2.0821,-1.1265e-07,-0.93047,0,0,0.33333,-0,-0,0.66667
0.94415,0.26021,2.8324,-0.35968,-0.30713,0.51045,2.7167,-0.90558,-1.5394,3.6223,-1.627e-09,-0.76971,0,0,0.33333,-0,-0,0.66667
0.58512,0.95673,1.7553,0.6851,5.3404,7.4691,-3.2069,1.069,-0.33044,-4.2759,-2.558e-13,-0.16522,0,0,0.33333,-1.4824e-15,0,0.66667
0.16047,0.66185,0.4814,0.24278,2.7116,21.853,-0.31167,0.10389,-1.7905,-0.41556,2.1087e-11,-0.89524,0,0,0.33333,3.9475e-16,0,0.66667
0.7034,0.3659,2.1102,-0.20115,-1.1106,4.1523,1.1319,-0.37731,-1.8563,1.5092,-3.8867e-11,-0.92815,0,0,0.33333,-7.8949e-16,0,0.66667
0.41745,0.89585,1.2524,0.59377,5.7543,12.517,-1.983,0.66099,-0.74594,-2.644,9.9254e-13,-0.37297,0,0,0.33333,-3.9475e-16,0,0.66667
0.46677,0.78309,1.4003,0.42463,3.8171,10.795,-1.5856,0.52855,-1.3598,-2.1142,7.9448e-13,-0.67991,0,0,0.33333,-0,-0,0.66667
0.30497,0.45951,0.9149,-0.060728,-0.62576,16.317,0.14816,-0.049387,-1.9864,0.19755,1.1588e-11,-0.99318,0,0,0.33333,-0,-0,0.66667
0.86917,0.59235,2.6075,0.13853,0.32849,1.1676,-0.96326,0.32109,-1.9324,-1.2843,-1.342e-09,-0.96621,0,0,0.33333,-7.8949e-16,0,0.66667
0.46942,0.84225,1.4083,0.51337,4.6438,10.762,-1.9279,0.64263,-1.0641,-2.5705,6.8245e-13,-0.53207,0,0,0.33333,-9.8686e-17,0,0.66667
0.80616,0.94861,2.4185,0.67291,2.7506,2.5758,-4.3398,1.4466,-0.38938,-5.7864,9.9743e-11,-0.19469,0,0,0.33333,-0,-0,0.66667
0.8068,0.5848,2.4204,0.1272,0.46077,2.0957,-0.821,0.27367,-1.942,-1.0947,8.4086e-11,-0.97101,0,0,0.33333,-0,-0,0.66667
0.55703,0.23813,1.6711,-0.39281,-3.0848,8.0183,1.7504,-0.58348,-1.4507,2.3339,8.5365e-13,-0.72537,0,0,0.33333,-0,-0,0.66667
0.38613,0.75043,1.1584,0.37564,3.6715,13.472,-1.1604,0.38679,-1.4992,-1.5472,-2.6102e-12,-0.74961,0,0,0.33333,-0,-0,0.66667
0.68707,0.25157,2.0612,-0.37265,-2.1971,4.6148,2.0483,-0.68276,-1.5075,2.731,-3.1905e-11,-0.75374,0,0,0.33333,-0,-0,0.66667
0.6809,0.43568,2.0427,-0.096483,-0.56566,4.6403,0.52557,-0.17519,-1.9674,0.70075,-1.3732e-11,-0.98372,0,0,0.33333,-9.8476e-16,0,0.66667
0.18194,0.85222,0.54583,0.52834,5.9749,21.067,-0.76901,0.25634,-1.0071,-1.0254,-5.6411e-10,-0.50356,0,0,0.33333,-0,-0,0.66667
0.76415,0.2725,2.2925,-0.34125,-1.546,2.9661,2.0861,-0.69538,-1.5859,2.7815,-1.5548e-10,-0.79297,0,0,0.33333,-0,-0,0.66667
0.16518,0.19291,0.49553,-0.46064,-5.2095,21.702,0.60869,-0.2029,-1.2455,0.81159,5.6261e-10,-0.62275,0,0,0.33333,-0,-0,0.66667
0.32411,0.22206,0.97232,-0.41691,-4.3093,15.688,1.081,-0.36033,-1.3824,1.4413,2.069e-11,-0.69121,0,0,0.33333,7.8949e-16,0,0.66667
0.87021,0.71548,2.6106,0.32322,0.78795,1.253,-2.2501,0.75005,-1.6289,-3.0002,-1.9955e-10,-0.81446,0,0,0.33333,7.8949e-16,0,0.66667
0.57167,0.5681,1.715,0.10215,0.76669,7.4902,-0.46715,0.15572,-1.9628,-0.62287,4.0884e-13,-0.98141,0,0,0.33333,1.579e-15,0,0.66667
0.2566,0.0028742,0.7698,-0.74569,-8.3541,18.315,1.5307,-0.51025,-0.02327,2.041,-3.0299e-12,-0.011635,0,0,0.33333,-0,-0,0.66667
0.92392,0.57012,2.7718,0.10518,0.12458,0.54001,-0.77743,0.25914,-1.9607,-1.0366,8.6982e-08,-0.98035,0,0,0.33333,3.158e-15,0,0.66667
0.66058,0.12216,1.9817,-0.56676,-3.6915,5.4037,2.9951,-0.99837,-0.85838,3.9935,-2.9428e-12,-0.42919,0,0,0.33333,-1.1842e-15,0,0.66667
0.55451,0.9045,1.6635,0.60674,4.9199,8.2492,-2.6916,0.89719,-0.6916,-3.5888,-8.0891e-13,-0.3458,0,0,0.33333,-0,-0,0.66667
0.99332,0.17595,2.98,-0.48607,0.086789,0.3429,3.8626,-1.2875,-1.1593,5.1501,-2.5261e-08,-0.57964,0,0,0.33333,-0,-0,0.66667
0.84555,0.95639,2.5367,0.68458,2.275,1.9993,-4.6308,1.5436,-0.33339,-6.1744,2.3048e-10,-0.16669,0,0,0.33333,-0,-0,0.66667
0.67719,0.3039,2.0316,-0.29415,-1.7659,4.7978,1.5936,-0.5312,-1.692,2.1248,-2.6454e-11,-0.84598,0,0,0.33333,-0,-0,0.66667
0.081731,0.85741,0.24519,0.53612,6.2375,24.998,-0.35054,0.11685,-0.97748,-0.46738,-9.7649e-09,-0.48874,0,0,0.33333,-0,-0,0.66667
0.36445,0.54278,1.0933,0.064174,0.63064,14.164,-0.1871,0.062368,-1.9848,-0.24947,-3.2356e-12,-0.99238,0,0,0.33333,-0,-0,0.66667
0.50217,0.48077,1.5065,-0.028847,-0.24207,9.5579,0.11589,-0.03863,-1.9967,0.15452,9.9705e-14,-0.99835,0,0,0.33333,-0,-0,0.66667
0.61766,0.53276,1.853,0.049133,0.33612,6.219,-0.24278,0.080925,-1.992,-0.3237,1.4391e-12,-0.996,0,0,0.33333,1.579e-15,0,0.66667
0.63988,0.045828,1.9196,-0.68126,-4.7583,6.0348,3.4874,-1.1625,-0.34962,4.6498,3.1619e-13,-0.17481,0,0,0.33333,-0,-3.9297e-16,0.66667
0.72511,0.27032,2.1753,-0.34452,-1.8019,3.754,1.9985,-0.66617,-1.5774,2.6647,-7.6564e-11,-0.78868,0,0,0.33333,-7.8949e-16,0,0.66667
0.91024,0.80438,2.7307,0.45656,0.77179,0.91584,-3.3247,1.1082,-1.2586,-4.4329,5.2282e-09,-0.6293,0,0,0.33333,7.8949e-16,0,0.66667
0.56828,0.63492,1.7048,0.20238,1.5348,7.6101,-0.92006,0.30669,-1.8538,-1.2267,3.8564e-13,-0.92692,0,0,0.33333,-1.579e-15,0,0.66667
0.98027,0.7613,2.9408,0.39194,0.017575,0.29857,-3.0737,1.0246,-1.4533,-4.0982,-2.8332e-09,-0.72664,0,0,0.33333,-1.579e-15,0,0.66667
0.1132,0.87359,0.33959,0.56038,6.494,23.759,-0.50747,0.16916,-0.88425,-0.67663,-3.9944e-09,-0.44212,0,0,0.33333,7.4015e-17,0,0.66667
0.46568,0.67703,1.397,0.26555,2.3601,10.762,-0.9893,0.32977,-1.7489,-1.3191,3.8747e-13,-0.87446,0,0,0.33333,-3.9475e-16,0,0.66667
0.10167,0.90383,0.30502,0.60575,7.0709,24.22,-0.4927,0.16423,-0.69578,-0.65694,-2.682e-08,-0.34789,0,0,0.33333,-1.9737e-16,0,0.66667
0.74245,0.35396,2.2273,-0.21906,-1.0628,3.325,1.3011,-0.43371,-1.8288,1.7348,-7.8155e-11,-0.91438,0,0,0.33333,-1.579e-15,0,0.66667
0.80683,0.7336,2.4205,0.35039,1.3078,2.21,-2.2616,0.75388,-1.5627,-3.0155,2.5613e-10,-0.78136,0,0,0.33333,-0,-0,0.66667
0.52316,0.14529,1.5695,-0.53207,-4.4832,9.1086,2.2269,-0.74228,-0.99276,2.9691,4.9627e-13,-0.49638,0,0,0.33333,-0,-0,0.66667
0.43253,0.37518,1.2976,-0.18723,-1.724,11.832,0.64785,-0.21595,-1.8763,0.8638,3.782e-13,-0.93816,0,0,0.33333,1.579e-15,0,0.66667
0.066995,0.60593,0.20098,0.1589,1.8097,25.559,-0.085164,0.028388,-1.9096,-0.11355,3.5029e-08,-0.95481,0,0,0.33333,-0,-0,0.66667
0.56461,0.93203,1.6938,0.64805,5.2017,8.0004,-2.9272,0.97573,-0.50708,-3.9029,-4.7851e-13,-0.25354,0,0,0.33333,-7.8949e-16,0,0.66667
0.25483,0.3156,0.76448,-0.2766,-2.9643,18.218,0.56389,-0.18796,-1.7284,0.75186,9.8809e-11,-0.86418,0,0,0.33333,-7.8949e-16,0,0.66667
0.082332,0.29831,0.247,-0.30254,-3.4581,24.953,0.19927,-0.066423,-1.6739,0.26569,-4.2739e-09,-0.83696,0,0,0.33333,9.8686e-17,0,0.66667
0.73371,0.39424,2.2011,-0.15864,-0.79049,3.4825,0.93119,-0.3104,-1.9104,1.2416,-5.2561e-11,-0.9552,0,0,0.33333,7.8949e-16,0,0.66667
0.74344,0.52461,2.2303,0.036919,0.17668,3.2586,-0.21958,0.073192,-1.9949,-0.29277,1.4338e-11,-0.99746,0,0,0.33333,-7.8949e-16,0,0.66667
0.37108,0.52504,1.1132,0.037562,0.36682,13.928,-0.11151,0.037169,-1.995,-0.14868,-1.6447e-12,-0.99749,0,0,0.33333,-0,-0,0.66667
0.18447,0.35779,0.55342,-0.21331,-2.3582,20.911,0.3148,-0.10493,-1.8377,0.41973,1.1929e-10,-0.91885,0,0,0.33333,-0,-0,0.66667
0.51289,0.28806,1.5387,-0.3179,-2.6592,9.2943,1.3044,-0.4348,-1.6407,1.7392,3.4428e-13,-0.82035,0,0,0.33333,-0,-0,0.66667
0.093456,0.74398,0.28037,0.36597,4.1906,24.515,-0.27362,0.091205,-1.5243,-0.36482,1.6e-09,-0.76215,0,0,0.33333,5.5337e-17,0,0.66667
0.77844,0.91715,2.3353,0.62572,2.8477,2.9847,-3.8967,1.2989,-0.60755,-5.1956,9.3102e-11,-0.30378,0,0,0.33333,-0,-0,0.66667
0.47595,0.27968,1.4279,-0.33048,-2.912,10.456,1.2584,-0.41945,-1.6122,1.6778,-3.7403e-13,-0.80612,0,0,0.33333,-1.0856e-15,0,0.66667
0.96096,0.35202,2.8829,-0.22197,-0.085767,0.28318,1.7065,-0.56882,-1.8244,2.2753,-4.706e-09,-0.91219,0,0,0.33333,-3.158e-15,0,0.66667
0.10902,0.097227,0.32706,-0.60416,-7.04,23.931,0.52693,-0.17564,-0.70308,0.70257,1.9526e-08,-0.35154,0,0,0.33333,-3.9475e-16,-1.5614e-16,0.66667
0.69796,0.66861,2.0939,0.25292,1.4257,4.2968,-1.4122,0.47073,-1.7719,-1.8829,3.9938e-11,-0.88595,0,0,0.33333,-0,-0,0.66667
0.80356,0.17973,2.4107,-0.4804,-1.8772,2.3803,3.0883,-1.0294,-1.1791,4.1177,-4.1774e-10,-0.58953,0,0,0.33333,7.8949e-16,0,0.66667
0.72687,0.99026,2.1806,0.73538,4.1456,4.1259,-4.2762,1.4254,-0.076627,-5.7017,1.1862e-12,-0.038313,0,0,0.33333,1.6503e-15,0,0.66667
0.46145,0.58701,1.3844,0.13051,1.1589,10.866,-0.48181,0.1606,-1.9392,-0.64242,3.9801e-14,-0.96959,0,0,0.33333,6.6798e-16,0,0.66667
0.54611,0.65954,1.6383,0.23931,1.8899,8.2652,-1.0455,0.3485,-1.7972,-1.394,-3.3884e-13,-0.89861,0,0,0.33333,1.579e-15,0,0.66667
0.61519,0.61921,1.8456,0.17882,1.2354,6.3088,-0.88007,0.29336,-1.8862,-1.1734,3.9942e-12,-0.94311,0,0,0.33333,7.8949e-16,0,0.66667
0.059105,0.57011,0.17732,0.10517,1.1975,25.874,-0.049729,0.016577,-1.9605,-0.066306,2.35e-07,-0.98027,0,0,0.33333,-0,-0,0.66667
0.99567,0.70411,2.987,0.30616,-0.11711,0.1435,-2.4387,0.8129,-1.6661,-3.2516,1.2437e-08,-0.83303,0,0,0.33333,-0,-0,0.66667
0.25491,0.65454,0.76472,0.23182,2.4787,18.207,-0.47273,0.15758,-1.8096,-0.63031,-8.5602e-11,-0.90479,0,0,0.33333,4.4409e-16,0,0.66667
0.64341,0.60733,1.9302,0.16099,1.0426,5.5713,-0.82867,0.27622,-1.9074,-1.1049,8.8322e-12,-0.95368,0,0,0.33333,-1.579e-15,0,0.66667
0.12643,0.1123,0.3793,-0.58154,-6.7317,23.242,0.58821,-0.19607,-0.79727,0.78428,4.427e-09,-0.39864,0,0,0.33333,1.9737e-16,0,0.66667
0.16786,0.05337,0.50359,-0.66994,-7.7338,21.651,0.89967,-0.29989,-0.40383,1.1996,2.9148e-11,-0.20192,0,0,0.33333,-0,-0,0.66667
0.4911,0.17172,1.4733,-0.49242,-4.3204,10.063,1.9346,-0.64488,-1.1371,2.5795,-1.9618e-13,-0.56853,0,0,0.33333,7.8949e-16,0,0.66667
0.2885,0.73032,0.8655,0.34548,3.6419,16.972,-0.79736,0.26579,-1.5749,-1.0632,-5.7478e-11,-0.78747,0,0,0.33333,-0,-0,0.66667
0.50424,0.043184,1.5127,-0.68522,-6.0659,9.8085,2.7641,-0.92138,-0.32999,3.6855,2.6645e-15,-0.165,0,0,0.33333,-0,-0,0.66667
0.10218,0.47686,0.30654,-0.034713,-0.392,24.15,0.028376,-0.0094586,-1.9953,0.037834,-4.2312e-09,-0.99765,0,0,0.33333,-0,-0,0.66667
0.41929,0.31207,1.2579,-0.28189,-2.6468,12.302,0.94556,-0.31519,-1.7186,1.2607,5.7432e-13,-0.8593,0,0,0.33333,8.8818e-16,0,0.66667
0.2686,0.46217,0.8058,-0.056748,-0.59892,17.672,0.12194,-0.040647,-1.9886,0.16259,1.9117e-11,-0.99429,0,0,0.33333,1.9737e-16,0,0.66667
0.5819,0.95133,1.7457,0.677,5.3,7.5485,-3.1516,1.0505,-0.36981,-4.2021,-3.7681e-13,-0.1849,0,0,0.33333,-0,-0,0.66667
0.17171,0.71153,0.51512,0.31729,3.5433,21.423,-0.43584,0.14528,-1.6424,-0.58112,-1.3837e-10,-0.82122,0,0,0.33333,-0,-0,0.66667
0.96232,0.3213,2.887,-0.26806,-0.10144,0.30279,2.0636,-0.68788,-1.7441,2.7515,6.4756e-09,-0.87203,0,0,0.33333,-0,-0,0.66667
0.54421,0.36037,1.6326,-0.20944,-1.6563,8.3114,0.91184,-0.30395,-1.8435,1.2158,1.4527e-13,-0.92177,0,0,0.33333,-0,-0,0.66667
0.70195,0.51346,2.1059,0.020196,0.11116,4.1473,-0.11341,0.037804,-1.9983,-0.15122,4.4218e-12,-0.99915,0,0,0.33333,-0,-0,0.66667
0.93237,0.113,2.7971,-0.5805,-0.77464,0.86732,4.3299,-1.4433,-0.80121,5.7732,-2.7771e-08,-0.40061,0,0,0.33333,-1.579e-15,0,0.66667
0.34537,0.84351,1.0361,0.51526,5.2869,14.966,-1.4236,0.47454,-1.0573,-1.8982,-4.7594e-12,-0.52866,0,0,0.33333,1.0115e-15,0,0.66667
0.51572,0.419,1.5472,-0.12149,-1.0012,9.1485,0.50126,-0.16709,-1.9475,0.66834,7.8992e-14,-0.97374,0,0,0.33333,-0,-0,0.66667
0.78659,0.039177,2.3598,-0.69124,-3.1019,2.931,4.3498,-1.4499,-0.30081,5.7997,-1.5592e-11,-0.1504,0,0,0.33333,-0,-0,0.66667
0.06941,0.32548,0.20823,-0.26179,-2.9922,25.467,0.14537,-0.048455,-1.7556,0.19382,-8.4417e-09,-0.87779,0,0,0.33333,9.8686e-17,0,0.66667
0.75322,0.42424,2.2597,-0.11364,-0.52523,3.0738,0.68477,-0.22826,-1.9536,0.91302,-4.8656e-11,-0.97678,0,0,0.33333,-7.8949e-16,0,0.66667
0.11748,0.95419,0.35244,0.68128,7.9931,23.614,-0.64029,0.21343,-0.3489,-0.85372,-5.2838e-10,-0.17445,0,0,0.33333,-1.9737e-16,0,0.66667
0.38913,0.64055,1.1674,0.21082,2.0335,13.318,-0.65629,0.21876,-1.8416,-0.87505,-3.7013e-12,-0.92082,0,0,0.33333,-0,-0,0.66667
0.69699,0.57905,2.091,0.11858,0.66424,4.2723,-0.66119,0.2204,-1.9492,-0.88158,2.2247e-11,-0.97462,0,0,0.33333,-0,-0,0.66667
0.059872,0.71595,0.17962,0.32393,3.7195,25.851,-0.15515,0.051717,-1.6276,-0.20687,-5.3618e-09,-0.81379,0,0,0.33333,-0,-0,0.66667
0.66498,0.064142,1.9949,-0.65379,-4.2846,5.3921,3.4781,-1.1594,-0.48079,4.6374,-2.9443e-13,-0.24039,0,0,0.33333,1.579e-15,0,0.66667
0.97191,0.60156,2.9157,0.15234,0.01604,0.17757,-1.1845,0.39483,-1.9174,-1.5793,5.2994e-07,-0.95868,0,0,0.33333,-3.158e-15,0,0.66667
0.24942,0.25854,0.74826,-0.36219,-3.9139,18.441,0.7227,-0.2409,-1.5337,0.96359,1.278e-10,-0.76687,0,0,0.33333,-0,-0,0.66667
0.25914,0.33311,0.77741,-0.25034,-2.6726,18.05,0.51898,-0.17299,-1.7766,0.69197,8.4543e-11,-0.88828,0,0,0.33333,-0,-0,0.66667
0.087231,0.61674,0.26169,0.1751,1.9887,24.75,-0.1222,0.040732,-1.8906,-0.16293,8.4899e-09,-0.94528,0,0,0.33333,-9.8686e-17,0,0.66667
0.093025,0.68387,0.27907,0.27581,3.142,24.525,-0.20526,0.068419,-1.7303,-0.27368,6.7895e-09,-0.86516,0,0,0.33333,4.9343e-17,0,0.66667
0.31441,0.11066,0.94322,-0.584,-6.1812,16.111,1.4689,-0.48964,-0.78696,1.9585,7.2169e-12,-0.39348,0,0,0.33333,-0,-0,0.66667
0.83253,0.30777,2.4976,-0.28835,-0.91855,1.7573,1.9205,-0.64015,-1.7045,2.5606,-3.2604e-10,-0.85227,0,0,0.33333,1.1842e-15,0,0.66667
0.51242,0.21617,1.5373,-0.42575,-3.5992,9.3635,1.7453,-0.58177,-1.3561,2.3271,2.6668e-13,-0.67807,0,0,0.33333,1.5171e-16,0,0.66667
0.38564,0.8473,1.1569,0.52094,5.1644,13.556,-1.6072,0.53572,-1.0354,-2.1429,2.8999e-13,-0.5177,0,0,0.33333,-0,-0,0.66667
0.1825,0.9761,0.54751,0.71415,8.2455,21.101,-1.0427,0.34756,-0.18638,-1.3902,-1.8742e-11,-0.093191,0,0,0.33333,3.9475e-16,0,0.66667
0.97602,0.47668,2.9281,-0.03498,0.00046342,0.12406,0.27313,-0.091044,-1.9953,0.36418,1.8438e-07,-0.99763,0,0,0.33333,3.158e-15,0,0.66667
0.74144,0.91258,2.2243,0.61886,3.2287,3.6768,-3.6708,1.2236,-0.63805,-4.8944,3.1473e-11,-0.31902,0,0,0.33333,-0,-0,0.66667
0.34016,0.79368,1.0205,0.44052,4.5062,15.119,-1.1988,0.39959,-1.3095,-1.5984,-1.1322e-11,-0.65475,0,0,0.33333,7.8949e-16,0,0.66667
0.92233,0.0018629,2.767,-0.74721,-1.3354,1.2282,5.5134,-1.8378,-0.016036,7.3512,3.3162e-07,-0.0080182,0,0,0.33333,-0,-0,0.66667
0.58633,0.84497,1.759,0.51746,3.9166,7.2784,-2.4272,0.80907,-1.0486,-3.2363,-1.1233e-12,-0.5243,0,0,0.33333,-1.579e-15,0,0.66667
0.2652,0.4424,0.79559,-0.086401,-0.91417,17.802,0.18331,-0.061102,-1.9741,0.24441,3.1715e-11,-0.98705,0,0,0.33333,-0,-0,0.66667
0.48157,0.46284,1.4447,-0.055736,-0.48139,10.209,0.21473,-0.071575,-1.9891,0.2863,1.16e-13,-0.99455,0,0,0.33333,3.9475e-16,0,0.66667
0.43439,0.6225,1.3032,0.18375,1.6882,11.769,-0.63856,0.21285,-1.8806,-0.85141,-2.5935e-13,-0.9403,0,0,0.33333,-8.8818e-16,0,0.66667
0.3025,0.62677,0.9075,0.19016,1.9693,16.421,-0.46019,0.1534,-1.872,-0.61359,-3.3569e-11,-0.93601,0,0,0.33333,-7.8949e-16,0,0.66667
0.65676,0.83246,1.9703,0.49869,3.2408,5.4325,-2.6202,0.87339,-1.1157,-3.4936,6.334e-12,-0.55786,0,0,0.33333,-7.8949e-16,0,0.66667
0.79219,0.17371,2.3766,-0.48944,-2.0235,2.5831,3.1019,-1.034,-1.1476,4.1358,-3.2245e-10,-0.57379,0,0,0.33333,1.579e-15,0,0.66667
0.35326,0.69306,1.0598,0.2896,2.8977,14.6,-0.81843,0.27281,-1.7017,-1.0912,-1.2016e-11,-0.85087,0,0,0.33333,-0,-0,0.66667
0.43787,0.45644,1.3136,-0.065336,-0.59588,11.636,0.22887,-0.07629,-1.9847,0.30516,1.8051e-13,-0.99237,0,0,0.33333,-0,-0,0.66667
0.96304,0.018192,2.8891,-0.72271,-0.59917,0.87635,5.568,-1.856,-0.14218,7.424,4.9673e-07,-0.071088,0,0,0.33333,-5.4389e-15,0,0.66667
0.25951,0.47543,0.77854,-0.036859,-0.39107,18.015,0.076523,-0.025508,-1.995,0.10203,1.3223e-11,-0.99748,0,0,0.33333,-0,-0,0.66667
0.71926,0.8446,2.1578,0.5169,2.8355,4.0212,-2.9743,0.99142,-1.0514,-3.9657,4.2823e-11,-0.52569,0,0,0.33333,-0,-0,0.66667
0.85114,0.21637,2.5534,-0.42545,-1.2385,1.5963,2.8969,-0.96564,-1.3568,3.8626,-4.5802e-10,-0.67842,0,0,0.33333,1.0415e-15,0,0.66667
0.74183,0.96338,2.2255,0.69508,3.6936,3.768,-4.125,1.375,-0.28212,-5.5001,5.8362e-12,-0.14106,0,0,0.33333,-0,-0,0.66667
0.21655,0.87343,0.64966,0.56015,6.2621,19.746,-0.97042,0.32347,-0.88532,-1.2939,-2.3517e-10,-0.44266,0,0,0.33333,-9.8686e-17,0,0.66667
0.43531,0.60887,1.3059,0.1633,1.4975,11.734,-0.56869,0.18956,-1.9048,-0.75825,-2.8771e-13,-0.95238,0,0,0.33333,-0,-0,0.66667
0.60876,0.65497,1.8263,0.23245,1.6331,6.4985,-1.1321,0.37735,-1.8091,-1.5094,3.3702e-12,-0.90456,0,0,0.33333,8.8818e-16,0,0.66667
0.59156,0.56195,1.7747,0.09293,0.67155,6.9308,-0.43979,0.1466,-1.9705,-0.58638,1.0252e-12,-0.98523,0,0,0.33333,2.2204e-16,0,0.66667
0.95189,0.15731,2.8557,-0.51403,-0.4203,0.62184,3.9144,-1.3048,-1.0617,5.2192,-8.1106e-09,-0.53085,0,0,0.33333,3.158e-15,0,0.66667
0.3584,0.072437,1.0752,-0.64134,-6.607,14.573,1.8389,-0.61296,-0.53749,2.4518,-3.8047e-13,-0.26875,0,0,0.33333,-0,-3.4244e-16,0.66667
0.53179,0.92257,1.5954,0.63385,5.3495,8.9349,-2.6966,0.89888,-0.57131,-3.5955,-3.2863e-13,-0.28566,0,0,0.33333,-0,-0,0.66667
0.39838,0.20662,1.1951,-0.44007,-4.2744,13.077,1.4025,-0.46751,-1.3107,1.87,1.9429e-13,-0.65535,0,0,0.33333,-7.7028e-17,0,0.66667
0.61473,0.051728,1.8442,-0.67241,-4.9428,6.6653,3.3068,-1.1023,-0.39184,4.4091,4.5941e-13,-0.19592,0,0,0.33333,-7.8949e-16,0,0.66667
0.46485,0.25474,1.3945,-0.36788,-3.2977,10.829,1.3681,-0.45602,-1.519,1.8241,-6.3982e-13,-0.7595,0,0,0.33333,-0,-0,0.66667
0.95549,0.54183,2.8665,0.062752,0.029195,0.26447,-0.47967,0.15989,-1.9857,-0.63956,-5.5698e-07,-0.99286,0,0,0.33333,-0,-0,0.66667
0.70849,0.44988,2.1255,-0.07518,-0.4059,4.0063,0.42611,-0.14204,-1.9792,0.56815,-1.7899e-11,-0.98962,0,0,0.33333,-0,-0,0.66667
0.49885,0.94631,1.4965,0.66946,5.955,9.9591,-2.6717,0.89056,-0.40653,-3.5622,-7.8604e-14,-0.20327,0,0,0.33333,-0,-0,0.66667
0.49291,0.27747,1.4787,-0.33379,-2.8762,9.9207,1.3162,-0.43874,-1.604,1.755,-6.7168e-14,-0.80201,0,0,0.33333,3.9475e-16,0,0.66667
0.2485,0.39876,0.74549,-0.15187,-1.6249,18.44,0.3019,-0.10063,-1.9181,0.40254,6.645e-11,-0.95906,0,0,0.33333,1.9737e-16,0,0.66667
0.21539,0.16364,0.64616,-0.50455,-5.6126,19.774,0.86938,-0.28979,-1.0948,1.1592,2.5398e-10,-0.54739,0,0,0.33333,-0,-0,0.66667
0.38386,0.34359,1.1516,-0.23461,-2.2771,13.507,0.72047,-0.24016,-1.8052,0.96063,4.7075e-12,-0.90258,0,0,0.33333,-2.8372e-16,0,0.66667
0.26942,0.35289,0.80825,-0.22066,-2.3381,17.658,0.47559,-0.15853,-1.8266,0.63413,6.6048e-11,-0.91328,0,0,0.33333,-0,-0,0.66667
0.29831,0.33635,0.89492,-0.24547,-2.5556,16.586,0.58579,-0.19526,-1.7859,0.78106,4.2683e-11,-0.89296,0,0,0.33333,1.9737e-16,0,0.66667
0.21497,0.020409,0.64492,-0.71939,-8.2001,19.865,1.2372,-0.4124,-0.15948,1.6496,1.6936e-11,-0.079742,0,0,0.33333,-0,-0,0.66667
0.43072,0.15501,1.2921,-0.51749,-4.8997,12.026,1.7831,-0.59437,-1.0485,2.3775,-1.0177e-12,-0.52425,0,0,0.33333,-1.1349e-15,0,0.66667
0.23735,0.75909,0.71205,0.38863,4.235,18.905,-0.73793,0.24598,-1.4627,-0.98391,-1.6469e-10,-0.73137,0,0,0.33333,-0,-0,0.66667
0.42905,0.17085,1.2871,-0.49372,-4.6708,12.068,1.6946,-0.56488,-1.1325,2.2595,-1.0076e-12,-0.56625,0,0,0.33333,-7.8949e-16,0,0.66667
0.73823,0.60584,2.2147,0.15875,0.77837,3.389,-0.93758,0.31253,-1.9099,-1.2501,5.537e-11,-0.95493,0,0,0.33333,-0,-0,0.66667
0.19031,0.11985,0.57094,-0.57023,-6.4545,20.755,0.86817,-0.28939,-0.84413,1.1576,4.7612e-10,-0.42207,0,0,0.33333,1.9737e-16,0,0.66667
0.98048,0.16187,2.9414,-0.50719,-0.074747,0.43289,3.9783,-1.3261,-1.0854,5.3044,1.0119e-07,-0.54271,0,0,0.33333,-0,-0,0.66667
0.25094,0.1722,0.75282,-0.4917,-5.3653,18.42,0.9871,-0.32903,-1.1401,1.3161,1.1091e-10,-0.57007,0,0,0.33333,-0,-0,0.66667
0.091928,0.4598,0.27578,-0.060295,-0.68247,24.56,0.044342,-0.014781,-1.987,0.059123,4.1851e-08,-0.9935,0,0,0.33333,9.8686e-17,0,0.66667
0.6622,0.95684,1.9866,0.68526,4.5512,5.4955,-3.6303,1.2101,-0.32969,-4.8404,-2.4869e-14,-0.16484,0,0,0.33333,-7.8949e-16,0,0.66667
0.12414,0.13506,0.37241,-0.54741,-6.3185,23.326,0.54362,-0.18121,-0.93454,0.72483,4.8746e-09,-0.46727,0,0,0.33333,-0,3.8559e-16,0.66667
0.45854,0.48308,1.3756,-0.025377,-0.22571,10.951,0.093093,-0.031031,-1.997,0.12412,1.5264e-13,-0.99849,0,0,0.33333,-0,-0,0.66667
0.55491,0.83972,1.6647,0.50959,4.072,8.1574,-2.2622,0.75407,-1.0768,-3.0163,-1.2275e-12,-0.53841,0,0,0.33333,-0,-0,0.66667
0.91222,0.64111,2.7367,0.21167,0.31272,0.69685,-1.5447,0.51489,-1.8399,-2.0596,-8.6378e-09,-0.91997,0,0,0.33333,-1.579e-15,0,0.66667
0.84078,0.79813,2.5223,0.44719,1.4047,1.7651,-3.0079,1.0026,-1.2884,-4.0105,6.8597e-10,-0.64422,0,0,0.33333,1.579e-15,0,0.66667
0.47647,0.52464,1.4294,0.036956,0.32129,10.371,-0.14087,0.046956,-1.9949,-0.18782,-6.2214e-14,-0.99745,0,0,0.33333,-0,-0,0.66667
0.8806,0.82029,2.6418,0.48043,1.1293,1.2713,-3.3846,1.1282,-1.179,-4.5128,2.2325e-09,-0.5895,0,0,0.33333,-0,-0,0.66667
0.81353,0.16821,2.4406,-0.49769,-1.8572,2.2351,3.2391,-1.0797,-1.1191,4.3188,-5.2918e-10,-0.55957,0,0,0.33333,-0,-0,0.66667
0.19464,0.39622,0.58392,-0.15566,-1.7103,20.511,0.24239,-0.080795,-1.9133,0.32318,6.0219e-11,-0.95663,0,0,0.33333,1.9737e-16,0,0.66667
0.67245,0.58822,2.0173,0.13233,0.79514,4.8485,-0.7119,0.2373,-1.9383,-0.9492,1.5127e-11,-0.96913,0,0,0.33333,-3.9475e-16,0,0.66667
0.71923,0.41989,2.1577,-0.12017,-0.62779,3.7795,0.69143,-0.23048,-1.9485,0.92191,-3.3157e-11,-0.97426,0,0,0.33333,-0,-0,0.66667
0.65257,0.12506,1.9577,-0.56241,-3.7313,5.594,2.9361,-0.97871,-0.87644,3.9148,-1.9393e-12,-0.43822,0,0,0.33333,-0,-0,0.66667
0.40566,0.80602,1.217,0.45903,4.4344,12.837,-1.4897,0.49655,-1.2512,-1.9862,5.5522e-13,-0.62561,0,0,0.33333,-3.9475e-16,0,0.66667
0.04361,0.98809,0.13083,0.73213,8.7487,26.527,-0.25543,0.085144,-0.093708,-0.34057,1.6883e-06,-0.046854,0,0,0.33333,-5.1645e-17,0,0.66667
0.37899,0.23112,1.137,-0.40332,-3.9775,13.731,1.2228,-0.40762,-1.4211,1.6305,2.9686e-12,-0.71053,0,0,0.33333,-0,-0,0.66667
0.033161,0.86161,0.099484,0.54241,6.3508,26.929,-0.1439,0.047965,-0.95357,-0.19186,6.3161e-08,-0.47678,0,0,0.33333,-0,-0,0.66667
0.2442,0.48693,0.73261,-0.019599,-0.20974,18.596,0.038289,-0.012763,-1.9979,0.051053,2.9405e-12,-0.99896,0,0,0.33333,-3.9475e-16,0,0.66667
0.84278,0.47684,2.5284,-0.034735,-0.10055,1.5127,0.2342,-0.078065,-1.9959,0.31226,-4.9435e-10,-0.99793,0,0,0.33333,-0,-0,0.66667
0.47471,0.64723,1.4241,0.22085,1.9353,10.457,-0.83872,0.27957,-1.8261,-1.1183,2.2088e-13,-0.91306,0,0,0.33333,-0,-0,0.66667
0.19554,0.60545,0.58662,0.15817,1.7373,20.476,-0.24743,0.082476,-1.9103,-0.3299,-6.5138e-11,-0.95517,0,0,0.33333,-0,-0,0.66667
0.93344,0.088897,2.8003,-0.61665,-0.83576,0.91211,4.6049,-1.535,-0.64812,6.1398,3.6764e-09,-0.32406,0,0,0.33333,-1.1842e-15,0,0.66667
0.17584,0.69495,0.52753,0.29243,3.256,21.258,-0.41138,0.13713,-1.6958,-0.54851,-1.4027e-10,-0.84789,0,0,0.33333,-0,-0,0.66667
0.71019,0.86153,2.1306,0.54229,3.0744,4.2417,-3.081,1.027,-0.95361,-4.1081,2.7021e-11,-0.4768,0,0,0.33333,-7.8949e-16,0,0.66667
0.25216,0.30615,0.75647,-0.29077,-3.1232,18.321,0.58656,-0.19552,-1.6996,0.78208,1.0649e-10,-0.84978,0,0,0.33333,1.9737e-16,0,0.66667
0.12576,0.67788,0.37727,0.26683,3.0153,23.224,-0.26844,0.089479,-1.7469,-0.35792,1.177e-09,-0.87345,0,0,0.33333,-9.8686e-17,0,0.66667
0.42352,0.61043,1.2706,0.16565,1.5393,12.13,-0.56125,0.18708,-1.9021,-0.74834,-6.8584e-13,-0.95104,0,0,0.33333,-0,-0,0.66667
0.30687,0.21702,0.92062,-0.42447,-4.4456,16.319,1.0421,-0.34735,-1.36,1.3894,3.2566e-11,-0.67999,0,0,0.33333,-0,-0,0.66667
0.55624,0.17689,1.6687,-0.48466,-3.8518,8.1009,2.1567,-0.7189,-1.1642,2.8756,1.0689e-12,-0.5821,0,0,0.33333,7.8949e-16,0,0.66667
0.0056956,0.16886,0.017087,-0.49671,-5.7977,28.023,0.022633,-0.0075442,-1.1221,0.030177,3.4178e-08,-0.56103,0,0,0.33333,-0,-0,0.66667
0.40187,0.72846,1.2056,0.34268,3.2899,12.916,-1.1017,0.36724,-1.582,-1.469,-1.2813e-12,-0.79102,0,0,0.33333,-0,-0,0.66667
0.32437,0.085679,0.97312,-0.62148,-6.5595,15.771,1.6127,-0.53758,-0.62649,2.1503,2.2155e-12,-0.31325,0,0,0.33333,-0,-0,0.66667
0.20888,0.59186,0.62663,0.13778,1.5036,19.957,-0.23024,0.076747,-1.9331,-0.30699,-9.6844e-11,-0.96653,0,0,0.33333,9.8686e-17,0,0.66667
0.7647,0.14669,2.2941,-0.52996,-2.4859,3.1233,3.2421,-1.0807,-1.0014,4.3228,-1.4671e-10,-0.5007,0,0,0.33333,-7.8949e-16,-5.2543e-16,0.66667
0.21573,0.59044,0.64718,0.13565,1.4756,19.693,-0.23412,0.078039,-1.9351,-0.31215,-1.0938e-10,-0.96755,0,0,0.33333,-5.9212e-16,0,0.66667
0.36723,0.19459,1.1017,-0.45811,-4.5885,14.166,1.3459,-0.44862,-1.2535,1.7945,3.2584e-12,-0.62675,0,0,0.33333,-7.8949e-16,0,0.66667
0.061462,0.39229,0.18439,-0.16157,-1.8416,25.781,0.079443,-0.026481,-1.9069,0.10592,2.2222e-08,-0.95347,0,0,0.33333,-0,-0,0.66667
0.79907,0.030563,2.3972,-0.70416,-3.0058,2.7382,4.5014,-1.5005,-0.23816,6.0018,-8.9332e-11,-0.11908,0,0,0.33333,-4.9343e-16,0,0.66667
0.85776,0.92974,2.5733,0.64461,1.9458,1.7735,-4.4234,1.4745,-0.52266,-5.8979,7.5528e-10,-0.26133,0,0,0.33333,-7.8949e-16,0,0.66667
0.979,0.76823,2.937,0.40235,0.033469,0.31631,-3.1512,1.0504,-1.4237,-4.2016,-4.5104e-09,-0.71186,0,0,0.33333,-0,-0,0.66667
0.95064,0.52667,2.8519,0.040011,0.022957,0.29805,-0.30429,0.10143,-1.9947,-0.40572,-2.4746e-07,-0.99734,0,0,0.33333,7.8949e-16,0,0.66667
0.48709,0.67411,1.4613,0.26117,2.2566,10.076,-1.0177,0.33923,-1.757,-1.3569,9.881e-14,-0.87851,0,0,0.33333,-0,-0,0.66667
0.29631,0.18938,0.88894,-0.46594,-4.9334,16.721,1.1045,-0.36817,-1.2292,1.4727,3.6822e-11,-0.61462,0,0,0.33333,-0,-0,0.66667
0.69417,0.60314,2.0825,0.15471,0.87552,4.3459,-0.85916,0.28639,-1.9144,-1.1455,2.664e-11,-0.95719,0,0,0.33333,-0,-0,0.66667
0.72461,0.63265,2.1738,0.19898,1.0262,3.6883,-1.1535,0.38449,-1.8589,-1.538,5.4986e-11,-0.92945,0,0,0.33333,-0,-0,0.66667
0.86836,0.68137,2.6051,0.27205,0.66515,1.2417,-1.8899,0.62996,-1.7367,-2.5198,-5.8178e-11,-0.86834,0,0,0.33333,-1.579e-15,0,0.66667
0.20632,0.21398,0.61897,-0.42903,-4.7608,20.102,0.70815,-0.23605,-1.3458,0.9442,3.2797e-10,-0.6729,0,0,0.33333,-2.9606e-16,0,0.66667
0.39895,0.35357,1.1969,-0.21965,-2.0992,12.98,0.70104,-0.23368,-1.8279,0.93473,2.6034e-12,-0.91394,0,0,0.33333,-0,-0,0.66667
0.78884,0.11693,2.3665,-0.5746,-2.466,2.7368,3.6262,-1.2087,-0.82567,4.8349,-2.335e-10,-0.41283,0,0,0.33333,-0,-0,0.66667
0.22269,0.9841,0.66806,0.72615,8.2551,19.576,-1.2936,0.43121,-0.12456,-1.7248,-3.2288e-12,-0.06228,0,0,0.33333,3.9475e-16,0,0.66667
0.48218,0.71631,1.4465,0.32446,2.8345,10.255,-1.2516,0.4172,-1.6265,-1.6688,4.0157e-13,-0.81323,0,0,0.33333,-8.4411e-16,0,0.66667
0.78097,0.98027,2.3429,0.7204,3.3398,3.0723,-4.5009,1.5003,-0.15472,-6.0012,8.495e-12,-0.077362,0,0,0.33333,1.579e-15,0,0.66667
0.60466,0.8741,1.814,0.56114,4.1277,6.8192,-2.7144,0.9048,-0.88124,-3.6192,-9.67e-13,-0.44062,0,0,0.33333,-1.1395e-15,0,0.66667
0.19904,0.019905,0.59712,-0.72014,-8.2666,20.471,1.1467,-0.38223,-0.15555,1.5289,-8.7855e-12,-0.077776,0,0,0.33333,-0,-0,0.66667
0.49234,0.79671,1.477,0.44506,3.8779,9.9954,-1.753,0.58432,-1.2949,-2.3373,1.6909e-13,-0.64746,0,0,0.33333,-0,-0,0.66667
0.98027,0.33228,2.9408,-0.25158,0.01232,0.18047,1.9729,-0.65763,-1.7744,2.6305,-8.1841e-08,-0.88722,0,0,0.33333,-0,-0,0.66667
0.19192,0.006661,0.57575,-0.74001,-8.5416,20.75,1.1362,-0.37872,-0.05282,1.5149,-3.4962e-11,-0.02641,0,0,0.33333,-0,-0,0.66667
0.24271,0.98931,0.72812,0.73397,8.2707,18.827,-1.4251,0.47504,-0.08395,-1.9002,-7.1565e-12,-0.041975,0,0,0.33333,5.9212e-16,0,0.66667
0.41545,0.075015,1.2464,-0.63748,-6.2261,12.614,2.1187,-0.70625,-0.55438,2.825,-6.5503e-13,-0.27719,0,0,0.33333,-0,-0,0.66667
0.79504,0.88159,2.3851,0.57238,2.3876,2.6273,-3.6406,1.2135,-0.83531,-4.8541,2.5887e-10,-0.41765,0,0,0.33333,-0,-0,0.66667
0.85992,0.20208,2.5798,-0.44688,-1.229,1.4977,3.0742,-1.0247,-1.2898,4.099,-8.3147e-10,-0.64489,0,0,0.33333,-0,-0,0.66667
0.76878,0.93642,2.3064,0.65463,3.1218,3.1982,-4.0262,1.3421,-0.47721,-5.3682,2.7776e-11,-0.23861,0,0,0.33333,-1.9737e-15,0,0.66667
0.42266,0.42529,1.268,-0.11206,-1.0406,12.151,0.37892,-0.12631,-1.9552,0.50523,6.8864e-13,-0.9776,0,0,0.33333,-3.9475e-16,0,0.66667
0.26259,0.41026,0.78778,-0.1346,-1.4279,17.904,0.28277,-0.094256,-1.936,0.37703,4.6529e-11,-0.96799,0,0,0.33333,-7.8949e-16,0,0.66667
0.59111,0.54918,1.7733,0.073766,0.53328,6.9406,-0.34883,0.11628,-1.9802,-0.46511,8.2478e-13,-0.9901,0,0,0.33333,-0,-0,0.66667
0.55633,0.69535,1.669,0.29302,2.2831,7.9877,-1.3041,0.4347,-1.6944,-1.7388,-4.2855e-13,-0.84718,0,0,0.33333,-0,-0,0.66667
0.32302,0.30077,0.96906,-0.29885,-3.0654,15.691,0.77228,-0.25743,-1.6818,1.0297,2.6409e-11,-0.84091,0,0,0.33333,-7.7728e-16,0,0.66667
0.2448,0.59919,0.73441,0.14879,1.5951,18.58,-0.29139,0.097129,-1.9213,-0.38852,-6.9802e-11,-0.96064,0,0,0.33333,-0,-0,0.66667
0.62917,0.66007,1.8875,0.2401,1.615,5.963,-1.2085,0.40284,-1.7953,-1.6114,7.0753e-12,-0.89767,0,0,0.33333,-1.579e-15,0,0.66667
0.36144,0.13262,1.0843,-0.55107,-5.601,14.415,1.5934,-0.53114,-0.92029,2.1246,9.6589e-13,-0.46014,0,0,0.33333,-0,-0,0.66667
0.44656,0.0040602,1.3397,-0.74391,-7.1397,11.674,2.6576,-0.88587,-0.032491,3.5435,1.2967e-13,-0.016245,0,0,0.33333,-0,-0,0.66667
0.42369,0.47054,1.2711,-0.044197,-0.40947,12.11,0.14981,-0.049936,-1.994,0.19974,3.5903e-13,-0.99701,0,0,0.33333,-0,-0,0.66667
0.60498,0.78444,1.8149,0.42666,3.0777,6.7034,-2.065,0.68833,-1.3531,-2.7533,6.0374e-13,-0.67657,0,0,0.33333,-0,-0,0.66667
0.067117,0.11203,0.20135,-0.58195,-6.8169,25.582,0.31247,-0.10416,-0.7952,0.41663,3.1773e-08,-0.3976,0,0,0.33333,9.8686e-17,0,0.66667
0.46478,0.8614,1.3944,0.5421,4.9489,10.929,-2.0157,0.67189,-0.95451,-2.6876,6.7413e-13,-0.47726,0,0,0.33333,7.8949e-16,0,0.66667
0.93632,0.049022,2.809,-0.67647,-0.92739,0.98483,5.0671,-1.689,-0.3727,6.7561,-9.0199e-08,-0.18635,0,0,0.33333,-1.579e-15,0,0.66667
0.14808,0.36654,0.44425,-0.20019,-2.2411,22.336,0.23716,-0.079054,-1.8571,0.31621,-6.3213e-10,-0.92853,0,0,0.33333,-9.8686e-17,0,0.66667
0.88159,0.62735,2.6448,0.19102,0.40651,1.031,-1.3472,0.44907,-1.8707,-1.7963,-6.2385e-09,-0.93535,0,0,0.33333,-3.158e-15,0,0.66667
0.19859,0.79705,0.59577,0.44558,4.9679,20.403,-0.70791,0.23597,-1.2934,-0.94388,-3.7578e-10,-0.64669,0,0,0.33333,-0,-0,0.66667
0.48283,0.46615,1.4485,-0.050771,-0.43774,10.169,0.19611,-0.06537,-1.9917,0.26148,1.9039e-13,-0.99584,0,0,0.33333,8.8818e-16,0,0.66667
0.49097,0.46971,1.4729,-0.045434,-0.38738,9.9101,0.17845,-0.059484,-1.9934,0.23794,-3.5236e-14,-0.99668,0,0,0.33333,-0,-0,0.66667
0.2348,0.76103,0.7044,0.39155,4.2734,19.003,-0.73549,0.24516,-1.4549,-0.98066,-1.7374e-10,-0.72744,0,0,0.33333,-0,-0,0.66667
0.59658,0.98386,1.7898,0.72579,5.5828,7.2045,-3.464,1.1547,-0.12651,-4.6186,-1.9318e-14,-0.063254,0,0,0.33333,-7.8949e-16,0,0.66667
0.83706,0.94017,2.5112,0.66025,2.2849,2.0829,-4.4213,1.4738,-0.45041,-5.8951,1.5795e-10,-0.22521,0,0,0.33333,-3.158e-15,0,0.66667
0.24277,0.73399,0.72831,0.35099,3.8037,18.69,-0.68168,0.22723,-1.5612,-0.9089,-1.4246e-10,-0.78059,0,0,0.33333,-0,-0,0.66667
0.50573,0.24703,1.5172,-0.37945,-3.2241,9.5437,1.5352,-0.51173,-1.4884,2.0469,1.7186e-13,-0.74421,0,0,0.33333,-9.8686e-16,0,0.66667
0.46839,0.64587,1.4052,0.21881,1.9329,10.66,-0.8199,0.2733,-1.8298,-1.0932,1.9529e-13,-0.91491,0,0,0.33333,3.9475e-16,0,0.66667
0.8049,0.69937,2.4147,0.29906,1.117,2.2063,-1.9257,0.6419,-1.6813,-2.5676,2.1883e-10,-0.84065,0,0,0.33333,-0,-0,0.66667
0.48547,0.79099,1.4564,0.43648,3.835,10.206,-1.6952,0.56506,-1.3226,-2.2602,2.5269e-13,-0.66129,0,0,0.33333,-0,-0,0.66667
0.047994,0.56902,0.14398,0.10353,1.1803,26.32,-0.039751,0.01325,-1.9622,-0.053001,-1.3048e-07,-0.9811,0,0,0.33333,-0,-0,0.66667
0.29891,0.054888,0.89672,-0.66767,-7.2153,16.717,1.5966,-0.53219,-0.41504,2.1288,2.2656e-12,-0.20752,0,0,0.33333,-1.9737e-16,0,0.66667
0.72163,0.78061,2.1649,0.42092,2.2525,3.8842,-2.43,0.81,-1.3711,-3.24,6.7605e-11,-0.68555,0,0,0.33333,-5.4278e-16,0,0.66667
0.54076,0.55602,1.6223,0.084023,0.66504,8.387,-0.36349,0.12116,-1.9747,-0.48465,1.088e-14,-0.98735,0,0,0.33333,-3.9475e-16,0,0.66667
0.71301,0.79379,2.139,0.44069,2.4315,4.0857,-2.5137,0.83792,-1.3088,-3.3517,5.1564e-11,-0.65439,0,0,0.33333,-0,-0,0.66667
0.89043,0.44086,2.6713,-0.088714,-0.1695,0.89149,0.63194,-0.21065,-1.973,0.84259,-1.7051e-08,-0.98648,0,0,0.33333,-0,-0,0.66667
0.036948,0.26201,0.11084,-0.35698,-4.1169,26.77,0.10552,-0.035173,-1.5462,0.14069,-4.2073e-09,-0.77311,0,0,0.33333,9.8686e-17,0,0.66667
0.16157,0.6831,0.48472,0.27465,3.0711,21.813,-0.35502,0.11834,-1.7319,-0.47336,-9.4268e-11,-0.86596,0,0,0.33333,-0,-0,0.66667
0.20618,0.93382,0.61855,0.65073,7.3829,20.173,-1.0733,0.35778,-0.49487,-1.4311,-9.8395e-11,-0.24744,0,0,0.33333,-0,-0,0.66667
0.54819,0.36489,1.6446,-0.20266,-1.5915,8.1922,0.88878,-0.29626,-1.8539,1.185,1.0891e-13,-0.92694,0,0,0.33333,7.8949e-16,0,0.66667
0.6875,0.13204,2.0625,-0.55194,-3.3452,4.7569,3.0357,-1.0119,-0.91726,4.0476,-1.1644e-11,-0.45863,0,0,0.33333,1.579e-15,0,0.66667
0.34233,0.21535,1.027,-0.42697,-4.3549,15.036,1.1693,-0.38978,-1.3525,1.5591,1.1303e-11,-0.67626,0,0,0.33333,-9.8686e-17,0,0.66667
0.8698,0.73147,2.6094,0.3472,0.85515,1.2769,-2.416,0.80532,-1.5707,-3.2213,-4.6995e-10,-0.78536,0,0,0.33333,-1.579e-15,0,0.66667
0.8792,0.14304,2.6376,-0.53544,-1.3054,1.3537,3.766,-1.2553,-0.98004,5.0214,-3.0001e-09,-0.49002,0,0,0.33333,-1.579e-15,0,0.66667
0.19012,0.73826,0.57037,0.35738,3.9724,20.712,-0.54357,0.18119,-1.5455,-0.72476,-2.7905e-10,-0.77274,0,0,0.33333,-1.9737e-16,0,0.66667
0.53183,0.077815,1.5955,-0.63328,-5.3439,8.9334,2.6944,-0.89812,-0.57389,3.5925,2.7556e-13,-0.28695,0,0,0.33333,-0,-0,0.66667
0.98953,0.23623,2.9686,-0.39565,0.06769,0.25495,3.1321,-1.044,-1.4427,4.1761,1.3001e-09,-0.72135,0,0,0.33333,-1.1718e-15,0,0.66667
0.057573,0.18054,0.17272,-0.4792,-5.5659,25.953,0.22071,-0.07357,-1.1833,0.29428,5.4977e-10,-0.59167,0,0,0.33333,-4.9343e-17,0,0.66667
0.083431,0.12343,0.25029,-0.56485,-6.5884,24.934,0.37701,-0.12567,-0.86622,0.50268,1.6296e-08,-0.43311,0,0,0.33333,1.2336e-16,0,0.66667
0.41763,0.37178,1.2529,-0.19233,-1.8006,12.335,0.64258,-0.21419,-1.8689,0.85677,1.1638e-12,-0.93445,0,0,0.33333,-7.8949e-16,0,0.66667
0.85461,0.86451,2.5638,0.54677,1.6197,1.6826,-3.7382,1.2461,-0.93654,-4.9842,2.0215e-09,-0.46827,0,0,0.33333,-0,-0,0.66667
0.39859,0.87339,1.1958,0.56008,5.5087,13.133,-1.7859,0.59531,-0.88521,-2.3813,9.599e-13,-0.4426,0,0,0.33333,8.3884e-16,0,0.66667
0.0099489,0.23513,0.029847,-0.3973,-4.6004,27.852,0.031622,-0.010541,-1.438,0.042162,-7.3995e-10,-0.719,0,0,0.33333,-1.1782e-17,0,0.66667
0.64554,0.83317,1.9366,0.49976,3.3359,5.7101,-2.5809,0.86031,-1.1114,-3.4412,3.7155e-12,-0.55571,0,0,0.33333,7.8949e-16,0,0.66667
0.2938,0.61627,0.88141,0.1744,1.8159,16.741,-0.40992,0.13664,-1.8916,-0.54656,-3.6846e-11,-0.94582,0,0,0.33333,-1.9737e-16,0,0.66667
0.14993,0.39599,0.44979,-0.15601,-1.7429,22.261,0.18712,-0.062374,-1.9129,0.2495,8.5464e-10,-0.95644,0,0,0.33333,1.9737e-16,0,0.66667
0.10779,0.76584,0.32336,0.39876,4.5626,23.95,-0.34384,0.11461,-1.4343,-0.45845,1.3776e-10,-0.71715,0,0,0.33333,-1.9737e-16,0,0.66667
0.8689,0.90366,2.6067,0.60549,1.6573,1.5736,-4.2089,1.403,-0.69687,-5.6118,4.5783e-09,-0.34844,0,0,0.33333,4.5462e-16,0,0.66667
0.0032652,0.16902,0.0097957,-0.49647,-5.7949,28.12,0.012969,-0.0043229,-1.1231,0.017292,6.5424e-08,-0.56155,0,0,0.33333,6.1679e-18,0,0.66667
0.51859,0.51887,1.5558,0.028305,0.23183,9.051,-0.11743,0.039143,-1.9967,-0.15657,3.0677e-14,-0.99835,0,0,0.33333,-1.579e-15,0,0.66667
0.55082,0.56016,1.6525,0.090235,0.70241,8.0909,-0.39763,0.13254,-1.9716,-0.53017,-8.0186e-14,-0.98582,0,0,0.33333,1.0856e-15,0,0.66667
0.11595,0.8304,0.34785,0.4956,5.7044,23.64,-0.45972,0.15324,-1.1259,-0.61296,9.2782e-11,-0.56296,0,0,0.33333,1.9737e-16,0,0.66667
0.20004,0.71909,0.60012,0.32864,3.6309,20.323,-0.52593,0.17531,-1.6171,-0.70124,-2.0678e-10,-0.80854,0,0,0.33333,7.8949e-16,0,0.66667
0.86222,0.77056,2.5867,0.40584,1.0821,1.4269,-2.7994,0.93312,-1.414,-3.7325,7.5495e-10,-0.70702,0,0,0.33333,-0,-0,0.66667
0.11697,0.99245,0.35092,0.73867,8.7299,23.646,-0.69123,0.23041,-0.059609,-0.92164,-1.6514e-08,-0.029804,0,0,0.33333,-0,-0,0.66667
0.8247,0.20683,2.4741,-0.43975,-1.5196,1.9992,2.9013,-0.9671,-1.3119,3.8684,-6.1317e-10,-0.65597,0,0,0.33333,-0,-0,0.66667
0.19309,0.65675,0.57927,0.23513,2.5926,20.579,-0.3632,0.12107,-1.8043,-0.48427,-1.0794e-10,-0.90214,0,0,0.33333,-0,-0,0.66667
0.99555,0.84449,2.9866,0.51673,-0.10323,0.37407,-4.1154,1.3718,-1.0515,-5.4872,4.2717e-08,-0.52575,0,0,0.33333,-0,3.6368e-17,0.66667
0.47141,0.5506,1.4142,0.075894,0.66452,10.536,-0.28622,0.095406,-1.9791,-0.38162,-5.7343e-14,-0.98956,0,0,0.33333,7.8949e-16,0,0.66667
0.54727,0.051508,1.6418,-0.67274,-5.5783,8.5195,2.9454,-0.98179,-0.39084,3.9271,1.7919e-13,-0.19542,0,0,0.33333,7.8949e-16,0,0.66667
0.082274,0.82521,0.24682,0.48782,5.65,24.971,-0.32108,0.10703,-1.1533,-0.42811,6.7043e-09,-0.57665,0,0,0.33333,-1.9737e-16,0,0.66667
0.051293,0.18006,0.15388,-0.47992,-5.5785,26.203,0.19693,-0.065644,-1.1809,0.26258,-1.5016e-08,-0.59044,0,0,0.33333,-0,-0,0.66667
0.20742,0.92561,0.62227,0.63842,7.2288,20.121,-1.0594,0.35313,-0.55027,-1.4125,-1.3221e-10,-0.27513,0,0,0.33333,-0,-0,0.66667
0.16079,0.48158,0.48237,-0.027637,-0.30698,21.828,0.03555,-0.01185,-1.9967,0.047401,1.8433e-10,-0.99833,0,0,0.33333,-0,-0,0.66667
0.45106,0.29321,1.3532,-0.31018,-2.8148,11.254,1.1193,-0.37309,-1.6576,1.4924,-4.3709e-13,-0.8288,0,0,0.33333,-7.8949e-16,0,0.66667
0.62995,0.83047,1.8898,0.49571,3.4251,6.1008,-2.4982,0.83272,-1.1256,-3.3309,1.5503e-12,-0.56282,0,0,0.33333,-0,-0,0.66667
0.72633,0.68441,2.179,0.27661,1.4288,3.6875,-1.6073,0.53577,-1.7282,-2.1431,7.1804e-11,-0.86412,0,0,0.33333,-9.8686e-16,0,0.66667
0.45605,0.7094,1.3681,0.3141,2.8342,11.092,-1.146,0.38199,-1.649,-1.5279,5.1714e-13,-0.82448,0,0,0.33333,-0,-0,0.66667
0.37693,0.88298,1.1308,0.57448,5.7758,13.887,-1.7323,0.57743,-0.8266,-2.3097,4.8883e-13,-0.4133,0,0,0.33333,-0,-0,0.66667
0.064415,0.017369,0.19324,-0.72395,-8.6225,25.706,0.37306,-0.12435,-0.13616,0.49742,-9.543e-09,-0.068081,0,0,0.33333,-1.9737e-16,0,0.66667
0.53834,0.38627,1.615,-0.17059,-1.3595,8.475,0.73468,-0.24489,-1.8959,0.97958,1.2929e-13,-0.94793,0,0,0.33333,-0,-0,0.66667
0.45104,0.69432,1.3531,0.29148,2.6418,11.248,-1.0517,0.35058,-1.698,-1.4023,3.616e-13,-0.84902,0,0,0.33333,-0,-0,0.66667
0.40236,0.24368,1.2071,-0.38448,-3.7015,12.916,1.2376,-0.41253,-1.4744,1.6501,6.5004e-13,-0.73719,0,0,0.33333,4.3562e-16,0,0.66667
0.073837,0.21207,0.22151,-0.43189,-4.9861,25.301,0.25512,-0.085039,-1.3367,0.34016,-8.4223e-10,-0.66834,0,0,0.33333,-9.8686e-17,0,0.66667
0.19382,0.35916,0.58145,-0.21126,-2.3265,20.548,0.32757,-0.10919,-1.8405,0.43676,1.4052e-10,-0.92026,0,0,0.33333,-0,-0,0.66667
0.60843,0.69692,1.8253,0.29538,2.0869,6.5342,-1.4378,0.47926,-1.6898,-1.917,2.9422e-12,-0.8449,0,0,0.33333,1.579e-15,0,0.66667
0.91508,0.77214,2.7453,0.40821,0.62902,0.81644,-2.9884,0.99612,-1.407,-3.9845,-5.0843e-09,-0.70351,0,0,0.33333,-7.8949e-16,0,0.66667
0.63152,0.47343,1.8946,-0.039862,-0.26439,5.855,0.20139,-0.06713,-1.9944,0.26852,-1.8491e-12,-0.9972,0,0,0.33333,-1.579e-15,0,0.66667
0.57768,0.17616,1.733,-0.48577,-3.7194,7.4936,2.2449,-0.74831,-1.161,2.9932,1.1255e-12,-0.58048,0,0,0.33333,-0,-5.2014e-17,0.66667
0.34238,0.69081,1.0271,0.28622,2.8894,14.988,-0.78397,0.26132,-1.7095,-1.0453,-1.6349e-11,-0.85473,0,0,0.33333,-0,-0,0.66667
0.13547,0.12426,0.40642,-0.56361,-6.4961,22.884,0.61082,-0.20361,-0.87139,0.81443,-8.8594e-10,-0.43569,0,0,0.33333,2.3438e-16,0,0.66667
0.50839,0.27324,1.5252,-0.34014,-2.8691,9.4426,1.3834,-0.46113,-1.5882,1.8445,1.7086e-13,-0.79412,0,0,0.33333,3.9475e-16,0,0.66667
0.64626,0.39138,1.9388,-0.16293,-1.048,5.4997,0.84236,-0.28079,-1.9049,1.1231,-9.6109e-12,-0.95243,0,0,0.33333,-7.8949e-16,0,0.66667
0.96752,0.81559,2.9025,0.47339,0.19693,0.46472,-3.6641,1.2214,-1.204,-4.8855,6.4708e-09,-0.60201,0,0,0.33333,-0,-0,0.66667
0.76195,0.85486,2.2859,0.53229,2.525,3.1777,-3.2446,1.0815,-0.99212,-4.3262,1.3247e-10,-0.49606,0,0,0.33333,-0,-0,0.66667
0.183,0.64412,0.549,0.21618,2.3917,20.969,-0.31649,0.1055,-1.8332,-0.42198,-1.321e-10,-0.91662,0,0,0.33333,1.9737e-16,0,0.66667
0.23966,0.22336,0.71898,-0.41496,-4.5255,18.824,0.79559,-0.2652,-1.3879,1.0608,1.6132e-10,-0.69394,0,0,0.33333,7.8949e-16,0,0.66667
0.95701,0.3396,2.871,-0.2406,-0.11702,0.32218,1.842,-0.61401,-1.7945,2.456,6.3486e-08,-0.89724,0,0,0.33333,3.9475e-16,0,0.66667
0.758,0.23111,2.274,-0.40333,-1.8919,3.1312,2.4458,-0.81527,-1.4208,3.2611,-1.5125e-10,-0.71042,0,0,0.33333,-0,-0,0.66667
0.19292,0.84703,0.57876,0.52055,5.8567,20.641,-0.8034,0.2678,-1.0369,-1.0712,-4.8641e-10,-0.51843,0,0,0.33333,-0,-0,0.66667
0.70195,0.38441,2.1059,-0.17338,-0.95968,4.1751,0.97365,-0.32455,-1.8931,1.2982,-3.3977e-11,-0.94655,0,0,0.33333,1.579e-15,0,0.66667
0.83347,0.60193,2.5004,0.15289,0.47467,1.6766,-1.0194,0.33981,-1.9165,-1.3592,-2.6929e-10,-0.95827,0,0,0.33333,-0,-0,0.66667
0.43625,0.13515,1.3088,-0.54728,-5.1682,11.861,1.91,-0.63667,-0.93498,2.5467,-1.0469e-12,-0.46749,0,0,0.33333,-0,-0,0.66667
0.0094767,0.45364,0.02843,-0.069545,-0.79424,27.869,0.0052739,-0.0017585,-1.982,0.0070316,-8.612e-07,-0.99101,0,0,0.33333,1.2336e-17,0,0.66667
0.66811,0.47907,2.0043,-0.031388,-0.19026,4.9381,0.16777,-0.055922,-1.9961,0.22369,-3.6095e-12,-0.99804,0,0,0.33333,-0,-0,0.66667
0.069735,0.47072,0.20921,-0.043927,-0.49903,25.447,0.024506,-0.0081688,-1.9936,0.032675,-1.2268e-07,-0.99682,0,0,0.33333,1.9737e-16,0,0.66667
0.2378,0.35642,0.71341,-0.21538,-2.3231,18.855,0.40974,-0.13658,-1.8345,0.54631,9.7552e-11,-0.91727,0,0,0.33333,-3.9475e-16,0,0.66667
0.097031,0.025205,0.29109,-0.71219,-8.425,24.421,0.55284,-0.18428,-0.19663,0.73712,-9.3726e-09,-0.098317,0,0,0.33333,-0,-0,0.66667
0.87047,0.11661,2.6114,-0.57508,-1.5338,1.5123,4.0047,-1.3349,-0.82379,5.3396,-3.2503e-09,-0.41189,0,0,0.33333,-0,-0,0.66667
0.83404,0.4647,2.5021,-0.05295,-0.16267,1.6452,0.3533,-0.11777,-1.9902,0.47106,6.0034e-10,-0.9951,0,0,0.33333,4.9385e-16,0,0.66667
0.23516,0.93252,0.70548,0.64878,7.2596,19.073,-1.2205,0.40685,-0.50397,-1.6274,-3.6259e-11,-0.25199,0,0,0.33333,4.9343e-16,0,0.66667
0.75438,0.78506,2.2631,0.4276,2.0427,3.2218,-2.5806,0.86019,-1.3502,-3.4408,1.4127e-10,-0.67511,0,0,0.33333,-1.579e-15,0,0.66667
0.50836,0.37029,1.5251,-0.19457,-1.6256,9.3906,0.79129,-0.26376,-1.8654,1.0551,5.6177e-14,-0.93271,0,0,0.33333,1.9737e-16,0,0.66667
0.42116,0.14188,1.2635,-0.53718,-5.1501,12.357,1.8099,-0.60329,-0.97382,2.4132,-1.1242e-12,-0.48691,0,0,0.33333,7.8949e-16,-5.074e-16,0.66667
0.21872,0.14525,0.65616,-0.53212,-5.9258,19.655,0.93109,-0.31036,-0.9933,1.2414,2.1962e-10,-0.49665,0,0,0.33333,-1.9737e-16,5.2592e-16,0.66667
0.22166,0.93891,0.66497,0.65837,7.4242,19.587,-1.1675,0.38916,-0.45972,-1.5566,-5.5509e-11,-0.22986,0,0,0.33333,-0,-0,0.66667
0.090802,0.76097,0.27241,0.39146,4.4926,24.623,-0.28436,0.094787,-1.4548,-0.37915,2.0449e-09,-0.72739,0,0,0.33333,-0,-0,0.66667
0.24882,0.026728,0.74645,-0.70991,-7.9484,18.587,1.4131,-0.47103,-0.20868,1.8841,5.7632e-13,-0.10434,0,0,0.33333,-1.9737e-16,1.9544e-16,0.66667
0.58965,0.62878,1.769,0.19316,1.4068,7.0061,-0.91119,0.30373,-1.8677,-1.2149,1.4936e-12,-0.93383,0,0,0.33333,-0,-0,0.66667
0.88221,0.63154,2.6466,0.19731,0.41778,1.0262,-1.3926,0.46419,-1.8613,-1.8568,-4.7789e-09,-0.93067,0,0,0.33333,-0,-0,0.66667
0.15505,0.93265,0.46514,0.64898,7.5054,22.141,-0.80498,0.26833,-0.50303,-1.0733,-1.6122e-09,-0.25151,0,0,0.33333,9.1807e-17,0,0.66667
0.26188,0.66923,0.78564,0.25385,2.7062,17.947,-0.53183,0.17728,-1.7703,-0.7091,-8.2256e-11,-0.88516,0,0,0.33333,-0,-0,0.66667
0.63358,0.49126,1.9007,-0.01311,-0.08652,5.8006,0.066451,-0.02215,-1.9989,0.088601,-7.1474e-13,-0.99946,0,0,0.33333,1.579e-15,0,0.66667
0.1012,0.7394,0.30359,0.35909,4.1036,24.207,-0.29071,0.096904,-1.5409,-0.38762,1.9991e-09,-0.77044,0,0,0.33333,9.8686e-17,0,0.66667
0.51534,0.57134,1.546,0.10701,0.88189,9.1577,-0.44115,0.14705,-1.9595,-0.58821,-4.4631e-14,-0.97974,0,0,0.33333,-0,-0,0.66667
0.44685,0.77241,1.3406,0.40861,3.7566,11.434,-1.4607,0.4869,-1.4059,-1.9476,1.0443e-12,-0.70295,0,0,0.33333,-3.9475e-16,0,0.66667
0.050434,0.58372,0.1513,0.12559,1.432,26.223,-0.050671,0.01689,-1.9435,-0.067561,9.5787e-08,-0.97177,0,0,0.33333,-0,-0,0.66667
0.76578,0.93336,2.2973,0.65005,3.1319,3.2477,-3.9823,1.3274,-0.49838,-5.3098,3.4099e-11,-0.24919,0,0,0.33333,3.9475e-16,0,0.66667
0.095195,0.17618,0.28559,-0.48573,-5.6114,24.459,0.36991,-0.1233,-1.1609,0.49322,3.119e-09,-0.58046,0,0,0.33333,-0,-0,0.66667
0.33837,0.15823,1.0151,-0.51265,-5.2881,15.214,1.3877,-0.46258,-1.0661,1.8503,6.5755e-12,-0.53306,0,0,0.33333,-0,-0,0.66667
0.57897,0.89137,1.7369,0.58705,4.5506,7.5415,-2.7191,0.90636,-0.77441,-3.6254,-1.0036e-12,-0.3872,0,0,0.33333,-7.8949e-16,0,0.66667
0.85085,0.17392,2.5526,-0.48912,-1.4563,1.6663,3.3294,-1.1098,-1.1486,4.4392,-1.0368e-09,-0.57429,0,0,0.33333,-0,-0,0.66667
0.26085,0.13156,0.78256,-0.55266,-6.0334,18.07,1.1533,-0.38444,-0.91388,1.5378,5.8512e-11,-0.45694,0,0,0.33333,-0,-0,0.66667
0.81028,0.34521,2.4308,-0.23218,-0.83444,2.0783,1.5051,-0.50169,-1.8093,2.0068,-1.6987e-10,-0.90465,0,0,0.33333,3.158e-15,0,0.66667
0.43666,0.88637,1.31,0.57956,5.4924,11.869,-2.0246,0.67486,-0.80562,-2.6995,8.8329e-13,-0.40281,0,0,0.33333,-7.8949e-16,0,0.66667
0.82762,0.9403,2.4829,0.66046,2.4104,2.2223,-4.3728,1.4576,-0.45004,-5.8305,3.4851e-11,-0.22502,0,0,0.33333,-0,-1.2897e-16,0.66667
0.92159,0.2574,2.7648,-0.36391,-0.49565,0.71149,2.683,-0.89433,-1.5295,3.5773,8.0356e-10,-0.76474,0,0,0.33333,-0,-0,0.66667
0.4382,0.095884,1.3146,-0.60617,-5.7547,11.837,2.125,-0.70834,-0.69459,2.8334,-6.6414e-13,-0.34729,0,0,0.33333,-1.579e-15,0,0.66667
0.26206,0.77643,0.78617,0.41464,4.466,17.978,-0.86927,0.28976,-1.3889,-1.159,-1.0021e-10,-0.69446,0,0,0.33333,5.9212e-16,0,0.66667
0.46144,0.92486,1.3843,0.63729,5.9158,11.106,-2.3526,0.7842,-0.55518,-3.1368,3.5105e-13,-0.27759,0,0,0.33333,-7.8949e-16,0,0.66667
0.094812,0.0021036,0.28444,-0.74684,-8.8779,24.515,0.56648,-0.18883,-0.017806,0.7553,6.2255e-08,-0.0089032,0,0,0.33333,-0,-0,0.66667
0.65878,0.3059,1.9763,-0.29115,-1.8333,5.2395,1.5344,-0.51148,-1.6987,2.0459,-1.6721e-11,-0.84935,0,0,0.33333,1.1842e-15,0,0.66667
0.63235,0.068554,1.897,-0.64717,-4.5643,6.1854,3.2739,-1.0913,-0.51066,4.3652,5.1492e-13,-0.25533,0,0,0.33333,-0,-0,0.66667
0.4968,0.75362,1.4904,0.38042,3.2736,9.8211,-1.512,0.50399,-1.4859,-2.0159,4.6851e-14,-0.74294,0,0,0.33333,-0,-0,0.66667
0.47016,0.6291,1.4105,0.19365,1.7047,10.597,-0.72838,0.24279,-1.8673,-0.97118,3.1009e-13,-0.93363,0,0,0.33333,-1.579e-15,0,0.66667
0.12851,0.39432,0.38552,-0.15852,-1.7825,23.107,0.16297,-0.054322,-1.9102,0.21729,-5.9019e-10,-0.95508,0,0,0.33333,-0,-0,0.66667
0.33439,0.65505,1.0032,0.23257,2.3562,15.264,-0.62215,0.20738,-1.8084,-0.82954,-1.9052e-11,-0.90418,0,0,0.33333,4.9343e-16,0,0.66667
0.2686,0.044112,0.80579,-0.68383,-7.5467,17.839,1.4694,-0.4898,-0.33685,1.9592,5.3419e-12,-0.16842,0,0,0.33333,-0,-0,0.66667
0.53581,0.33024,1.6074,-0.25463,-2.047,8.5759,1.0915,-0.36383,-1.7688,1.4553,3.324e-13,-0.8844,0,0,0.33333,-0,-0,0.66667
0.41981,0.20545,1.2594,-0.44183,-4.1992,12.35,1.4839,-0.49462,-1.3055,1.9785,-7.7938e-13,-0.65277,0,0,0.33333,-7.8949e-16,0,0.66667
0.83603,0.20952,2.5081,-0.43572,-1.4057,1.8235,2.9142,-0.97141,-1.3244,3.8856,-6.3652e-10,-0.66222,0,0,0.33333,-0,-0,0.66667
0.70121,0.67707,2.1036,0.26561,1.4846,4.2297,-1.49,0.49666,-1.749,-1.9866,4.3708e-11,-0.87448,0,0,0.33333,7.8949e-16,0,0.66667
0.4959,0.20641,1.4877,-0.44038,-3.8167,9.8817,1.7471,-0.58236,-1.3099,2.3294,-1.2235e-13,-0.65494,0,0,0.33333,7.8949e-16,0,0.66667
0.59952,0.74057,1.7986,0.36086,2.6121,6.8092,-1.7307,0.57692,-1.5365,-2.3077,1.1233e-12,-0.76825,0,0,0.33333,-7.8949e-16,0,0.66667
0.39672,0.19321,1.1902,-0.46018,-4.4857,13.143,1.4605,-0.48683,-1.247,1.9473,1.8652e-14,-0.62348,0,0,0.33333,-7.8949e-16,0,0.66667
0.21745,0.25738,0.65235,-0.36393,-3.9983,19.659,0.63309,-0.21103,-1.5293,0.84412,2.2013e-10,-0.76463,0,0,0.33333,-0,-0,0.66667
0.74224,0.067516,2.2267,-0.64873,-3.4007,3.6983,3.8521,-1.284,-0.50363,5.1361,-1.724e-11,-0.25182,0,0,0.33333,1.579e-15,0,0.66667
0.92264,0.03978,2.7679,-0.69033,-1.1706,1.1249,5.0954,-1.6985,-0.30572,6.7939,-1.1281e-07,-0.15286,0,0,0.33333,-0,-0,0.66667
0.26129,0.86916,0.78386,0.55373,6.0442,18.054,-1.1575,0.38582,-0.90979,-1.5433,-5.7344e-11,-0.4549,0,0,0.33333,-0,-0,0.66667
0.63229,0.85857,1.8969,0.53785,3.7214,6.0776,-2.7206,0.90687,-0.97064,-3.6275,7.3674e-13,-0.48532,0,0,0.33333,-0,-0,0.66667
0.70958,0.56351,2.1287,0.095258,0.51287,3.9853,-0.54074,0.18025,-1.9684,-0.72099,2.3133e-11,-0.98422,0,0,0.33333,-0,-0,0.66667
0.73708,0.73766,2.2112,0.35649,1.7928,3.5128,-2.1021,0.70069,-1.5477,-2.8028,9.7677e-11,-0.77386,0,0,0.33333,-0,-0,0.66667
0.27022,0.14358,0.81066,-0.53463,-5.7937,17.713,1.1557,-0.38524,-0.9831,1.541,5.1961e-11,-0.49155,0,0,0.33333,3.9475e-16,0,0.66667
0.10234,0.55983,0.30703,0.089748,1.0141,24.145,-0.073481,0.024494,-1.9717,-0.097975,-2.2619e-08,-0.98586,0,0,0.33333,2.9606e-16,0,0.66667
0.71856,0.61273,2.1557,0.16909,0.88781,3.8076,-0.97201,0.324,-1.8983,-1.296,4.3948e-11,-0.94915,0,0,0.33333,-8.5094e-16,0,0.66667
0.44319,0.60296,1.3296,0.15443,1.4029,11.47,-0.54755,0.18252,-1.9147,-0.73007,-1.3722e-13,-0.95736,0,0,0.33333,-0,-0,0.66667
0.6827,0.5378,2.0481,0.056698,0.33037,4.5925,-0.30967,0.10322,-1.9884,-0.41289,8.4882e-12,-0.99422,0,0,0.33333,-0,-0,0.66667
0.058429,0.079962,0.17529,-0.63006,-7.4267,25.932,0.29451,-0.09817,-0.58792,0.39268,7.3906e-08,-0.29396,0,0,0.33333,-0,7.6843e-17,0.66667
0.65428,0.65854,1.9628,0.23781,1.5073,5.3255,-1.2448,0.41493,-1.7998,-1.6597,1.4427e-11,-0.89988,0,0,0.33333,-0,-0,0.66667
0.28838,0.50181,0.86513,0.0027126,0.028259,16.931,-0.0062579,0.002086,-2.0005,-0.0083439,-1.4895e-12,-1.0003,0,0,0.33333,-0,-0,0.66667
0.87785,0.94264,2.6335,0.66396,1.7439,1.5504,-4.6628,1.5543,-0.43281,-6.2171,1.0934e-08,-0.21641,0,0,0.33333,-0,-0,0.66667
0.1653,0.16239,0.4959,-0.50642,-5.7502,21.707,0.66968,-0.22323,-1.088,0.89291,1.2186e-09,-0.54399,0,0,0.33333,-0,-0,0.66667
0.44557,0.6772,1.3367,0.2658,2.4208,11.419,-0.94746,0.31582,-1.7482,-1.2633,2.5852e-13,-0.87409,0,0,0.33333,-3.9475e-16,0,0.66667
0.96915,0.79812,2.9075,0.44718,0.15783,0.4234,-3.4671,1.1557,-1.2888,-4.6228,-5.7978e-09,-0.64442,0,0,0.33333,1.579e-15,0,0.66667
0.086128,0.09899,0.25838,-0.60151,-7.0395,24.833,0.41446,-0.13815,-0.71347,0.55261,-3.1328e-08,-0.35674,0,0,0.33333,-1.9737e-16,0,0.66667
0.40046,0.55068,1.2014,0.076022,0.72208,12.905,-0.24355,0.081184,-1.9788,-0.32474,-1.3397e-12,-0.98939,0,0,0.33333,-0,-0,0.66667
0.28546,0.22438,0.85638,-0.41343,-4.3891,17.104,0.94415,-0.31472,-1.3923,1.2589,5.7859e-11,-0.69615,0,0,0.33333,7.8949e-16,0,0.66667
0.082679,0.83941,0.24804,0.50912,5.9075,24.958,-0.33675,0.11225,-1.0786,-0.449,8.381e-09,-0.5393,0,0,0.33333,4.9343e-17,0,0.66667
0.70977,0.10768,2.1293,-0.58848,-3.3723,4.3002,3.3415,-1.1138,-0.7679,4.4553,-1.6478e-11,-0.38395,0,0,0.33333,-0,-0,0.66667
0.56244,0.5588,1.6873,0.088205,0.67289,7.7527,-0.39688,0.13229,-1.9732,-0.52918,2.0231e-13,-0.98662,0,0,0.33333,1.9737e-16,0,0.66667
0.98804,0.26266,2.9641,-0.35601,0.059321,0.22291,2.814,-0.93802,-1.5488,3.7521,-9.0135e-09,-0.7744,0,0,0.33333,1.579e-15,0,0.66667
0.22761,0.11116,0.68283,-0.58326,-6.502,19.333,1.062,-0.35401,-0.78966,1.416,1.2568e-10,-0.39483,0,0,0.33333,-2.6954e-16,0,0.66667
0.10466,0.077583,0.31399,-0.63363,-7.4144,24.107,0.53053,-0.17684,-0.57181,0.70738,7.7386e-10,-0.28591,0,0,0.33333,1.9737e-16,0,0.66667
0.46991,0.1978,1.4097,-0.4533,-4.0707,10.71,1.7041,-0.56803,-1.2693,2.2721,-7.0766e-13,-0.63466,0,0,0.33333,-0,-0,0.66667
0.72526,0.37891,2.1758,-0.18163,-0.93336,3.668,1.0538,-0.35127,-1.8829,1.4051,-5.1708e-11,-0.94144,0,0,0.33333,-0,-0,0.66667
0.20312,0.70621,0.60935,0.30932,3.4089,20.201,-0.50262,0.16754,-1.6598,-0.67016,-1.9371e-10,-0.8299,0,0,0.33333,-1.9737e-16,0,0.66667
0.19345,0.1337,0.58035,-0.54945,-6.1982,20.628,0.85033,-0.28344,-0.92616,1.1338,4.0582e-10,-0.46308,0,0,0.33333,-0,-0,0.66667
0.01645,0.13756,0.049349,-0.54366,-6.3717,27.594,0.071544,-0.023848,-0.94893,0.095392,1.8871e-07,-0.47446,0,0,0.33333,-0,-0,0.66667
0.61338,0.56042,1.8401,0.090624,0.62626,6.3376,-0.44469,0.14823,-1.9714,-0.59293,2.3529e-12,-0.98572,0,0,0.33333,-0,-0,0.66667
0.58667,0.097704,1.76,-0.60344,-4.6249,7.3444,2.8322,-0.94406,-0.70541,3.7762,9.69e-13,-0.35271,0,0,0.33333,1.579e-15,0,0.66667
0.46014,0.28463,1.3804,-0.32305,-2.9023,10.962,1.1892,-0.3964,-1.6292,1.5856,-3.5072e-13,-0.81459,0,0,0.33333,-1.579e-15,0,0.66667
0.7062,0.97831,2.1186,0.71747,4.2803,4.5364,-4.0534,1.3511,-0.16943,-5.4046,3.6415e-13,-0.084716,0,0,0.33333,-1.579e-15,0,0.66667
0.059315,0.41156,0.17794,-0.13265,-1.5113,25.866,0.062946,-0.020982,-1.9376,0.083928,1.3793e-07,-0.96881,0,0,0.33333,-0,-0,0.66667
0.66498,0.37536,1.9949,-0.18695,-1.1491,5.0442,0.99456,-0.33152,-1.8766,1.3261,-1.6764e-11,-0.93828,0,0,0.33333,1.579e-15,0,0.66667
0.18851,0.4474,0.56554,-0.078903,-0.86767,20.744,0.11899,-0.039664,-1.9778,0.15866,4.2343e-12,-0.98892,0,0,0.33333,-0,-0,0.66667
0.13418,0.26542,0.40255,-0.35187,-3.9863,22.9,0.37772,-0.12591,-1.559,0.50363,-3.439e-10,-0.7795,0,0,0.33333,-0,-0,0.66667
0.89487,0.59422,2.6846,0.14133,0.25833,0.85455,-1.0118,0.33726,-1.9299,-1.349,-2.3634e-08,-0.96496,0,0,0.33333,-3.158e-15,0,0.66667
0.68858,0.36354,2.0657,-0.20469,-1.1812,4.491,1.1276,-0.37586,-1.8509,1.5034,-2.9399e-11,-0.92544,0,0,0.33333,-0,-0,0.66667
0.63478,0.56155,1.9043,0.092321,0.60841,5.7767,-0.46883,0.15628,-1.9704,-0.6251,4.4803e-12,-0.98522,0,0,0.33333,-1.1349e-15,0,0.66667
0.062431,0.3765,0.18729,-0.18525,-2.1129,25.743,0.092524,-0.030842,-1.8793,0.12337,-7.9988e-08,-0.93964,0,0,0.33333,1.9737e-16,0,0.66667
0.10037,0.94613,0.30111,0.66919,7.8698,24.282,-0.53734,0.17911,-0.4073,-0.71645,-1.7426e-09,-0.20365,0,0,0.33333,1.9737e-16,0,0.66667
0.41814,0.0010114,1.2544,-0.74848,-7.4096,12.609,2.5038,-0.8346,-0.0089638,3.3384,1.8674e-13,-0.0044819,0,0,0.33333,-0,-0,0.66667
0.77618,0.4522,2.3285,-0.071707,-0.30064,2.6255,0.44526,-0.14842,-1.981,0.59368,-3.9073e-11,-0.9905,0,0,0.33333,-0,-0,0.66667
0.0092608,0.82901,0.027782,0.49352,5.7584,27.88,-0.036563,0.012188,-1.1332,-0.04875,2.5131e-09,-0.56662,0,0,0.33333,-0,-0,0.66667
0.46474,0.586,1.3942,0.12901,1.1407,10.759,-0.47963,0.15988,-1.9406,-0.63951,3.6637e-14,-0.97031,0,0,0.33333,-1.1957e-16,0,0.66667
0.20022,0.36077,0.60067,-0.20884,-2.2933,20.299,0.33453,-0.11151,-1.8444,0.44603,1.3392e-10,-0.92221,0,0,0.33333,-3.9475e-16,0,0.66667
0.89358,0.11128,2.6807,-0.58308,-1.2754,1.2506,4.1683,-1.3894,-0.79065,5.5577,-5.4715e-09,-0.39532,0,0,0.33333,1.579e-15,0,0.66667
0.59828,0.60656,1.7949,0.15984,1.1425,6.7592,-0.76505,0.25502,-1.9085,-1.0201,2.0343e-12,-0.95426,0,0,0.33333,-0,-0,0.66667
0.68755,0.3002,2.0627,-0.2997,-1.7494,4.5586,1.6485,-0.5495,-1.6806,2.198,-3.3851e-11,-0.84031,0,0,0.33333,7.8949e-16,0,0.66667
0.80757,0.22143,2.4227,-0.41786,-1.576,2.2533,2.6996,-0.89987,-1.3796,3.5995,-4.0649e-10,-0.68982,0,0,0.33333,-3.158e-15,0,0.66667
0.5879,0.87413,1.7637,0.56119,4.2627,7.2723,-2.6394,0.87979,-0.88099,-3.5192,-1.2392e-12,-0.44049,0,0,0.33333,7.8949e-16,0,0.66667
0.84743,0.9362,2.5423,0.6543,2.1219,1.9276,-4.4358,1.4786,-0.47865,-5.9144,2.3124e-09,-0.23933,0,0,0.33333,6.9081e-16,0,0.66667
0.47046,0.23204,1.4114,-0.40194,-3.5886,10.665,1.5128,-0.50425,-1.4253,2.017,-5.7376e-13,-0.71263,0,0,0.33333,-7.8949e-16,0,0.66667
0.17437,0.54799,0.52312,0.07199,0.79601,21.296,-0.10043,0.033475,-1.9811,-0.1339,-1.3634e-10,-0.99055,0,0,0.33333,1.9737e-16,0,0.66667
0.64155,0.75616,1.9246,0.38425,2.5478,5.7226,-1.9721,0.65737,-1.4754,-2.6295,7.9131e-12,-0.73771,0,0,0.33333,-0,-0,0.66667
0.97645,0.26735,2.9293,-0.34897,-0.035456,0.27847,2.726,-0.90868,-1.5662,3.6347,-5.6073e-09,-0.7831,0,0,0.33333,1.579e-15,0,0.66667
0.35024,0.7531,1.0507,0.37965,3.8322,14.736,-1.0638,0.35458,-1.4878,-1.4183,-1.0824e-11,-0.74392,0,0,0.33333,-7.8949e-16,0,0.66667
0.80271,0.2252,2.4081,-0.41221,-1.5915,2.3295,2.6471,-0.88235,-1.3957,3.5294,-3.7912e-10,-0.69784,0,0,0.33333,1.579e-15,0,0.66667
0.67727,0.43628,2.0318,-0.095581,-0.56601,4.726,0.51788,-0.17263,-1.9682,0.6905,-1.2723e-11,-0.98411,0,0,0.33333,7.8949e-16,0,0.66667
0.52046,0.0078146,1.5614,-0.73828,-6.4461,9.3714,3.074,-1.0247,-0.061747,4.0986,-1.5454e-13,-0.030874,0,0,0.33333,-0,-0,0.66667
0.14443,0.17836,0.4333,-0.48246,-5.5037,22.518,0.55746,-0.18582,-1.1721,0.74328,1.0047e-09,-0.58603,0,0,0.33333,1.9737e-16,0,0.66667
0.83883,0.18186,2.5165,-0.47721,-1.5314,1.8245,3.2024,-1.0675,-1.1903,4.2699,-9.1618e-10,-0.59514,0,0,0.33333,7.8949e-16,0,0.66667
0.42617,0.24512,1.2785,-0.38231,-3.5895,12.108,1.3035,-0.43449,-1.4804,1.738,-6.0263e-13,-0.74022,0,0,0.33333,1.9737e-16,0,0.66667
0.78295,0.31725,2.3488,-0.27413,-1.1345,2.5742,1.717,-0.57234,-1.7333,2.2894,-1.4189e-10,-0.86664,0,0,0.33333,-0,-0,0.66667
0.59163,0.19987,1.7749,-0.45019,-3.3434,7.0818,2.1308,-0.71026,-1.279,2.841,5.5556e-13,-0.63952,0,0,0.33333,-0,-0,0.66667
0.25054,0.27554,0.75162,-0.33669,-3.6298,18.392,0.67483,-0.22494,-1.5975,0.89977,1.2093e-10,-0.79873,0,0,0.33333,1.9737e-16,0,0.66667
0.17356,0.66649,0.52068,0.24973,2.777,21.341,-0.34675,0.11558,-1.7781,-0.46234,-1.0407e-10,-0.88905,0,0,0.33333,-3.9475e-16,0,0.66667
0.73804,0.070876,2.2141,-0.64369,-3.4179,3.7757,3.8005,-1.2668,-0.52658,5.0674,-1.7003e-11,-0.26329,0,0,0.33333,1.579e-15,0,0.66667
0.11212,0.81803,0.33635,0.47704,5.4868,23.788,-0.42787,0.14262,-1.1911,-0.5705,1.633e-10,-0.59554,0,0,0.33333,-0,-0,0.66667
0.21762,0.74417,0.65287,0.36626,4.0242,19.653,-0.63765,0.21255,-1.5234,-0.8502,-2.2143e-10,-0.76172,0,0,0.33333,-9.8686e-17,0,0.66667
0.86531,0.047775,2.5959,-0.67834,-1.9732,1.7271,4.6958,-1.5653,-0.36317,6.261,-7.3312e-10,-0.18159,0,0,0.33333,-0,-0,0.66667
0.9046,0.7924,2.7138,0.4386,0.78793,0.95466,-3.174,1.058,-1.3158,-4.2321,-2.5388e-09,-0.65791,0,0,0.33333,-0,-0,0.66667
0.093513,0.8345,0.28054,0.50175,5.8067,24.527,-0.37536,0.12512,-1.105,-0.50048,4.1965e-09,-0.55251,0,0,0.33333,-0,-1.957e-16,0.66667
0.014555,0.89052,0.043666,0.58578,6.8946,27.671,-0.068209,0.022736,-0.7797,-0.090945,1.4637e-07,-0.38985,0,0,0.33333,2.4672e-17,0,0.66667
0.30404,0.056843,0.91211,-0.66474,-7.1563,16.529,1.6168,-0.53895,-0.42878,2.1558,1.9561e-12,-0.21439,0,0,0.33333,5.9212e-16,0,0.66667
0.12829,0.83822,0.38486,0.50733,5.8272,23.156,-0.52067,0.17356,-1.085,-0.69423,-1.9597e-09,-0.54251,0,0,0.33333,-0,-0,0.66667
0.25704,0.59827,0.77113,0.1474,1.5693,18.115,-0.30311,0.10104,-1.9228,-0.40415,-5.5094e-11,-0.9614,0,0,0.33333,7.8949e-16,0,0.66667
0.50233,0.45725,1.507,-0.064124,-0.53818,9.5549,0.25769,-0.085897,-1.985,0.34359,7.6883e-14,-0.99252,0,0,0.33333,-0,-0,0.66667
0.56141,0.43258,1.6842,-0.10113,-0.77313,7.7842,0.4542,-0.1514,-1.9642,0.60559,-2.178e-13,-0.98208,0,0,0.33333,-0,-0,0.66667
0.98057,0.62685,2.9417,0.19027,-0.015968,0.14343,-1.4926,0.49753,-1.872,-1.9901,-2.6659e-07,-0.93599,0,0,0.33333,-0,-0,0.66667
0.42958,0.18921,1.2887,-0.46619,-4.3951,12.035,1.6021,-0.53404,-1.2278,2.1362,-1.0156e-12,-0.6139,0,0,0.33333,-0,-0,0.66667
0.67931,0.31843,2.0379,-0.27236,-1.6222,4.7368,1.4801,-0.49337,-1.7361,1.9735,-2.7491e-11,-0.86805,0,0,0.33333,-0,-0,0.66667
0.88941,0.93667,2.6682,0.655,1.5517,1.4028,-4.6606,1.5535,-0.4758,-6.2141,-8.7854e-09,-0.2379,0,0,0.33333,-1.9737e-15,0,0.66667
0.15189,0.8952,0.45567,0.5928,6.8197,22.25,-0.72033,0.24011,-0.75001,-0.96044,-7.3067e-10,-0.37501,0,0,0.33333,1.9737e-16,0,0.66667
0.09317,0.76162,0.27951,0.39243,4.502,24.529,-0.2925,0.097499,-1.4524,-0.39,9.6358e-10,-0.72619,0,0,0.33333,1.9737e-16,0,0.66667
0.29675,0.39727,0.89024,-0.15409,-1.6002,16.629,0.36581,-0.12194,-1.9158,0.48775,3.1488e-11,-0.95789,0,0,0.33333,-0,-0,0.66667
0.12968,0.40991,0.38903,-0.13513,-1.518,23.06,0.14019,-0.046729,-1.9354,0.18692,1.0022e-10,-0.96769,0,0,0.33333,3.9475e-16,0,0.66667
0.16102,0.81612,0.48307,0.47418,5.3766,21.867,-0.61084,0.20361,-1.2008,-0.81446,-8.8757e-10,-0.60042,0,0,0.33333,3.9475e-16,0,0.66667
0.34358,0.97471,1.0307,0.71206,7.4951,15.14,-1.9572,0.6524,-0.19777,-2.6096,2.7678e-13,-0.098887,0,0,0.33333,-7.8949e-16,0,0.66667
0.31134,0.46702,0.93401,-0.049475,-0.50742,16.082,0.12323,-0.041076,-1.9924,0.1643,8.4541e-12,-0.99618,0,0,0.33333,4.4409e-16,0,0.66667
0.76235,0.29486,2.2871,-0.30771,-1.3972,2.9783,1.8767,-0.62556,-1.6628,2.5022,-1.3656e-10,-0.8314,0,0,0.33333,-0,-0,0.66667
0.94892,0.56358,2.8468,0.095363,0.059198,0.32095,-0.72393,0.24131,-1.9685,-0.96524,-6.5536e-08,-0.98424,0,0,0.33333,-0,-0,0.66667
0.58072,0.58003,1.7422,0.12005,0.88654,7.2373,-0.55772,0.18591,-1.9483,-0.74362,7.8448e-13,-0.97415,0,0,0.33333,-7.8949e-16,0,0.66667
0.98347,0.50288,2.9504,0.0043156,-0.00082327,0.080049,-0.033956,0.011329,-2.0008,-0.045269,1.5851e-05,-1.0004,0,0,0.33333,-0,-0,0.66667
0.95183,0.40946,2.8555,-0.1358,-0.076602,0.31032,1.0341,-0.3447,-1.9352,1.3788,1.7897e-07,-0.9676,0,0,0.33333,-3.158e-15,0,0.66667
0.25764,0.23644,0.77293,-0.39533,-4.2626,18.139,0.81485,-0.27162,-1.4435,1.0865,1.1049e-10,-0.72176,0,0,0.33333,3.9475e-16,0,0.66667
0.30135,0.78665,0.90406,0.42998,4.5228,16.523,-1.0366,0.34554,-1.3427,-1.3822,-3.7176e-11,-0.67134,0,0,0.33333,7.8949e-16,0,0.66667
0.84189,0.8618,2.5257,0.5427,1.7457,1.855,-3.6552,1.2184,-0.95245,-4.8736,1.1446e-09,-0.47623,0,0,0.33333,-0,-0,0.66667
0.58489,0.39145,1.7547,-0.16282,-1.1949,7.1299,0.76186,-0.25395,-1.9049,1.0158,-1.1575e-12,-0.95247,0,0,0.33333,-0,-0,0.66667
0.17505,0.14134,0.52515,-0.53799,-6.1057,21.336,0.75341,-0.25114,-0.97035,1.0045,7.9229e-10,-0.48517,0,0,0.33333,-3.9475e-16,0,0.66667
0.052125,0.49578,0.15638,-0.0063334,-0.072095,26.154,0.0026409,-0.0008805,-2,0.003521,-3.2234e-07,-1,0,0,0.33333,1.2336e-16,0,0.66667
0.54514,0.32836,1.6354,-0.25746,-2.0389,8.3004,1.1228,-0.37426,-1.764,1.4971,3.2474e-13,-0.88198,0,0,0.33333,-0,-0,0.66667
0.14795,0.34725,0.44384,-0.22912,-2.5681,22.344,0.27118,-0.090394,-1.8136,0.36158,4.0308e-10,-0.90678,0,0,0.33333,-3.9475e-16,0,0.66667
0.77243,0.82979,2.3173,0.49468,2.2313,2.9421,-3.0568,1.0189,-1.1292,-4.0758,2.0139e-10,-0.56458,0,0,0.33333,-1.579e-15,0,0.66667
0.60364,0.78353,1.8109,0.42529,3.0756,6.7385,-2.0538,0.68459,-1.3574,-2.7384,4.9694e-13,-0.67869,0,0,0.33333,-0,-0,0.66667
0.2545,0.086973,0.76349,-0.61954,-6.8382,18.335,1.2614,-0.42045,-0.63514,1.6818,3.5047e-11,-0.31757,0,0,0.33333,-0,-0,0.66667
0.0097104,0.56805,0.029131,0.10207,1.1663,27.859,-0.0079294,0.0026424,-1.9629,-0.010573,-1.1512e-06,-0.98145,0,0,0.33333,-0,-0,0.66667
0.29272,0.16565,0.87815,-0.50153,-5.3409,16.867,1.1744,-0.39148,-1.1053,1.5659,3.3444e-11,-0.55265,0,0,0.33333,7.8949e-16,0,0.66667
0.61384,0.18713,1.8415,-0.46931,-3.3431,6.4989,2.3046,-0.7682,-1.2178,3.0728,-5.3224e-13,-0.60892,0,0,0.33333,9.8686e-16,0,0.66667
0.19308,0.60797,0.57925,0.16195,1.7809,20.571,-0.25017,0.083389,-1.906,-0.33356,-7.9388e-11,-0.953,0,0,0.33333,3.9475e-16,0,0.66667
0.29108,0.9694,0.87325,0.7041,7.6845,17.022,-1.6396,0.54653,-0.23814,-2.1861,-7.8693e-13,-0.11907,0,0,0.33333,-0,-0,0.66667
0.98264,0.34097,2.9479,-0.23854,0.026569,0.1591,1.8752,-0.62507,-1.7985,2.5003,-1.0251e-07,-0.89923,0,0,0.33333,-1.579e-15,0,0.66667
0.77969,0.5394,2.3391,0.059102,0.24381,2.5589,-0.36865,0.12288,-1.9876,-0.49153,4.2775e-11,-0.99381,0,0,0.33333,-0,-0,0.66667
0.23048,0.27843,0.69143,-0.33235,-3.6206,19.154,0.61279,-0.20426,-1.6078,0.81706,1.6174e-10,-0.80389,0,0,0.33333,9.8686e-17,0,0.66667
0.27348,0.64063,0.82043,0.21095,2.2288,17.504,-0.46152,0.15384,-1.841,-0.61537,-5.9803e-11,-0.92048,0,0,0.33333,3.9475e-16,0,0.66667
0.68583,0.59511,2.0575,0.14266,0.82648,4.5349,-0.78273,0.26091,-1.9287,-1.0436,2.1411e-11,-0.96435,0,0,0.33333,-0,-0,0.66667
0.97299,0.56159,2.919,0.092385,0.0060059,0.15189,-0.71911,0.2397,-1.9705,-0.95882,-1.9103e-06,-0.98525,0,0,0.33333,-2.1711e-15,0,0.66667
0.36782,0.57037,1.1035,0.10556,1.035,14.048,-0.31062,0.10354,-1.96,-0.41415,-4.6914e-12,-0.98,0,0,0.33333,-0,-0,0.66667
0.02374,0.36914,0.071219,-0.19628,-2.2474,27.296,0.037278,-0.012426,-1.8629,0.049704,-2.731e-07,-0.93143,0,0,0.33333,-0,-0,0.66667
0.81142,0.74186,2.4343,0.36279,1.325,2.1436,-2.355,0.785,-1.5322,-3.14,2.9604e-10,-0.76608,0,0,0.33333,-0,-0,0.66667
0.45963,0.17044,1.3789,-0.49434,-4.5158,11.065,1.8177,-0.6059,-1.1303,2.4236,-8.1424e-13,-0.56517,0,0,0.33333,-0,-0,0.66667
0.58271,0.16764,1.7481,-0.49854,-3.7888,7.3634,2.324,-0.77467,-1.1157,3.0987,1.0429e-12,-0.55787,0,0,0.33333,-0,-0,0.66667
0.55146,0.5329,1.6544,0.049349,0.38343,8.0679,-0.21771,0.072571,-1.992,-0.29028,3.8414e-14,-0.99601,0,0,0.33333,-0,-0,0.66667
0.63102,0.039716,1.8931,-0.69043,-4.9247,6.2677,3.4854,-1.1618,-0.3047,4.6472,3.3751e-13,-0.15235,0,0,0.33333,-0,-0,0.66667
0.72115,0.65868,2.1634,0.23803,1.246,3.7788,-1.3732,0.45774,-1.7993,-1.8309,6.0414e-11,-0.89966,0,0,0.33333,-0,-0,0.66667
0.37326,0.32717,1.1198,-0.25924,-2.5443,13.884,0.77412,-0.25804,-1.7607,1.0322,6.5052e-12,-0.88034,0,0,0.33333,7.8949e-16,0,0.66667
0.86276,0.27615,2.5883,-0.33578,-0.87349,1.36,2.3176,-0.77253,-1.5993,3.0901,4.518e-10,-0.79966,0,0,0.33333,7.8949e-16,0,0.66667
0.044935,0.49823,0.13481,-0.0026499,-0.030186,26.442,0.00095247,-0.0003152,-2.0009,0.0012711,3.4399e-06,-1.0005,0,0,0.33333,-1.1719e-16,0,0.66667
0.63268,0.76952,1.8981,0.40429,2.7421,5.9614,-2.0463,0.68209,-1.4181,-2.7284,5.0229e-12,-0.70907,0,0,0.33333,-7.8949e-16,0,0.66667
0.32943,0.69593,0.98829,0.29389,2.9989,15.457,-0.77453,0.25818,-1.693,-1.0327,-2.2683e-11,-0.84648,0,0,0.33333,-0,-0,0.66667
0.5372,0.78836,1.6116,0.43254,3.5242,8.6219,-1.8589,0.61963,-1.3345,-2.4785,-9.2071e-13,-0.66726,0,0,0.33333,-0,-0,0.66667
0.25122,0.80612,0.75367,0.45918,4.995,18.399,-0.92287,0.30762,-1.2506,-1.2305,-1.2094e-10,-0.62531,0,0,0.33333,-0,-0,0.66667
0.30016,0.31266,0.90047,-0.28101,-2.9274,16.525,0.67478,-0.22493,-1.7203,0.89971,4.3876e-11,-0.86017,0,0,0.33333,-0,-0,0.66667
0.68492,0.93824,2.0548,0.65737,4.099,4.9323,-3.6019,1.2006,-0.46461,-4.8026,1.1207e-12,-0.2323,0,0,0.33333,-0,-0,0.66667
0.30867,0.061581,0.926,-0.65763,-7.051,16.357,1.6239,-0.5413,-0.4632,2.1652,1.7387e-12,-0.2316,0,0,0.33333,-4.9343e-16,-4.1695e-16,0.66667
0.48557,0.87777,1.4567,0.56666,5.0548,10.287,-2.2012,0.73374,-0.85917,-2.935,2.4891e-13,-0.42959,0,0,0.33333,-0,-0,0.66667
0.72351,0.48597,2.1705,-0.021049,-0.1081,3.6739,0.12183,-0.040611,-1.9977,0.16244,-5.6285e-12,-0.99887,0,0,0.33333,-7.8949e-16,0,0.66667
0.93934,0.28048,2.818,-0.32929,-0.30977,0.52337,2.4745,-0.82483,-1.6156,3.2993,-5.6422e-09,-0.80782,0,0,0.33333,2.1711e-15,0,0.66667
0.18872,0.52448,0.56617,0.036714,0.40352,20.735,-0.05543,0.018477,-1.9955,-0.073906,-1.0241e-10,-0.99773,0,0,0.33333,1.9737e-16,0,0.66667
0.52997,0.4294,1.5899,-0.1059,-0.85329,8.7129,0.44897,-0.14966,-1.9602,0.59863,8.0047e-14,-0.98011,0,0,0.33333,3.9475e-16,0,0.66667
0.74163,0.24219,2.2249,-0.38671,-1.9225,3.4421,2.2944,-0.76479,-1.4679,3.0592,-1.0882e-10,-0.73395,0,0,0.33333,7.8949e-16,0,0.66667
0.53447,0.5874,1.6034,0.1311,1.0497,8.5818,-0.56056,0.18685,-1.9389,-0.74742,-1.7786e-13,-0.96946,0,0,0.33333,-3.9475e-16,0,0.66667
0.78526,0.015055,2.3558,-0.72742,-3.3213,3.008,4.5697,-1.5232,-0.11799,6.0929,-3.4101e-11,-0.058995,0,0,0.33333,-3.158e-15,0,0.66667
0.74517,0.86547,2.2355,0.5482,2.7766,3.5208,-3.268,1.0893,-0.93103,-4.3574,7.3085e-11,-0.46551,0,0,0.33333,7.8949e-16,0,0.66667
0.76862,0.49539,2.3059,-0.0069182,-0.029933,2.7621,0.04254,-0.01418,-2.0001,0.056719,-3.4152e-11,-1.0001,0,0,0.33333,1.1842e-15,0,0.66667
0.77155,0.9836,2.3147,0.72541,3.4956,3.248,-4.4775,1.4925,-0.12825,-5.97,-3.9528e-12,-0.064125,0,0,0.33333,2.4842e-16,0,0.66667
0.88414,0.19785,2.6524,-0.45323,-1.0194,1.1991,3.2057,-1.0686,-1.269,4.2743,-2.1196e-09,-0.63452,0,0,0.33333,-0,-0,0.66667
0.45436,0.36201,1.3631,-0.20699,-1.8596,11.113,0.7524,-0.2508,-1.8474,1.0032,-4.8295e-14,-0.92371,0,0,0.33333,-7.8949e-16,0,0.66667
0.45973,0.72499,1.3792,0.33749,3.0369,10.982,-1.2412,0.41375,-1.5948,-1.655,5.3946e-13,-0.79742,0,0,0.33333,-0,-0,0.66667
0.14676,0.58809,0.44029,0.13214,1.4768,22.384,-0.15515,0.051716,-1.9378,-0.20686,-4.7876e-10,-0.96892,0,0,0.33333,-1.9737e-16,0,0.66667
0.23564,0.030415,0.70692,-0.70438,-7.9347,19.078,1.3278,-0.44261,-0.23715,1.7704,9.9991e-12,-0.11858,0,0,0.33333,-0,-0,0.66667
0.26969,0.0085646,0.80907,-0.73715,-8.1879,17.826,1.5904,-0.53014,-0.067633,2.1206,4.6863e-13,-0.033817,0,0,0.33333,-0,-0,0.66667
0.73747,0.54593,2.2124,0.068902,0.33729,3.3845,-0.4065,0.1355,-1.9826,-0.542,2.4857e-11,-0.99129,0,0,0.33333,-0,-0,0.66667
0.15702,0.43756,0.47106,-0.093663,-1.0425,21.978,0.11766,-0.039219,-1.9703,0.15687,-8.2061e-10,-0.98514,0,0,0.33333,-3.9475e-16,0,0.66667
0.72315,0.84583,2.1695,0.51875,2.8118,3.9407,-3.0011,1.0004,-1.0438,-4.0014,4.7282e-11,-0.52191,0,0,0.33333,-3.158e-15,0,0.66667
0.59594,0.15424,1.7878,-0.51863,-3.8554,7.0169,2.4726,-0.8242,-1.0445,3.2968,9.7322e-13,-0.52224,0,0,0.33333,-1.9737e-16,0,0.66667
0.9303,0.58654,2.7909,0.12982,0.13615,0.48799,-0.96615,0.32205,-1.9398,-1.2882,-2.1281e-08,-0.96988,0,0,0.33333,7.8949e-16,0,0.66667
0.72528,0.87418,2.1758,0.56127,3.0483,3.9404,-3.2566,1.0855,-0.88064,-4.3422,3.6381e-11,-0.44032,0,0,0.33333,6.9081e-16,0,0.66667
0.69888,0.4145,2.0966,-0.12825,-0.71471,4.2318,0.71707,-0.23902,-1.9412,0.9561,-2.487e-11,-0.97062,0,0,0.33333,-0,-0,0.66667
0.075963,0.58761,0.22789,0.13141,1.4935,25.2,-0.079858,0.026619,-1.9388,-0.10648,6.4895e-08,-0.9694,0,0,0.33333,9.8686e-17,0,0.66667
0.50651,0.51371,1.5195,0.020562,0.17145,9.4225,-0.083319,0.027773,-1.9977,-0.11109,5.259e-14,-0.99886,0,0,0.33333,-1.579e-15,0,0.66667
0.76296,0.79402,2.2889,0.44103,2.0433,3.0682,-2.6919,0.89731,-1.308,-3.5892,1.7147e-10,-0.65399,0,0,0.33333,-0,-0,0.66667
0.29181,0.026241,0.87542,-0.71064,-7.7591,16.999,1.659,-0.55299,-0.20449,2.2119,6.0685e-13,-0.10224,0,0,0.33333,3.9475e-16,0,0.66667
0.49858,0.83079,1.4957,0.49618,4.3114,9.8332,-1.9791,0.65969,-1.1244,-2.6388,-1.0292e-13,-0.56218,0,0,0.33333,-0,-0,0.66667
0.30177,0.7986,0.9053,0.44789,4.7172,16.514,-1.0813,0.36043,-1.286,-1.4417,-3.4239e-11,-0.64302,0,0,0.33333,-3.5736e-16,0,0.66667
0.4502,0.77404,1.3506,0.41105,3.7651,11.326,-1.4804,0.49348,-1.3992,-1.9739,9.559e-13,-0.6996,0,0,0.33333,-3.9475e-16,0,0.66667
0.24377,0.95846,0.7313,0.68769,7.698,18.766,-1.3411,0.44703,-0.31795,-1.7881,-1.0512e-11,-0.15897,0,0,0.33333,-0,-0,0.66667
0.5657,0.12472,1.6971,-0.56292,-4.45,7.8921,2.5475,-0.84918,-0.87441,3.3967,1.0676e-12,-0.4372,0,0,0.33333,8.1416e-16,0,0.66667
0.94963,0.34226,2.8489,-0.23662,-0.15453,0.37475,1.7976,-0.5992,-1.8017,2.3968,-1.4509e-08,-0.90087,0,0,0.33333,5.9212e-16,0,0.66667
0.2179,0.39203,0.65369,-0.16195,-1.7611,19.611,0.28231,-0.094103,-1.9065,0.37641,9.1726e-11,-0.95326,0,0,0.33333,-0,-0,0.66667
0.4385,0.10384,1.3155,-0.59423,-5.6306,11.819,2.0846,-0.69486,-0.74444,2.7794,-7.1321e-13,-0.37222,0,0,0.33333,-7.8949e-16,0,0.66667
0.76894,0.080707,2.3068,-0.62894,-2.9759,3.1615,3.8689,-1.2896,-0.59302,5.1586,-6.8328e-11,-0.29651,0,0,0.33333,-0,-0,0.66667
0.14093,0.63588,0.4228,0.20383,2.2872,22.619,-0.22981,0.076602,-1.8523,-0.30641,-2.8062e-10,-0.92615,0,0,0.33333,-0,-0,0.66667
0.9131,0.24378,2.7393,-0.38434,-0.60139,0.81311,2.8075,-0.93584,-1.4746,3.7434,2.461e-09,-0.7373,0,0,0.33333,-7.8949e-16,0,0.66667
0.39416,0.29986,1.1825,-0.30021,-2.8957,13.167,0.94664,-0.31555,-1.679,1.2622,2.65e-12,-0.83951,0,0,0.33333,-3.9475e-16,0,0.66667
0.32525,0.83584,0.97574,0.50377,5.2444,15.682,-1.3108,0.43693,-1.0976,-1.7477,-1.1926e-11,-0.54878,0,0,0.33333,1.9737e-16,0,0.66667
0.57673,0.40088,1.7302,-0.14868,-1.1074,7.3556,0.68596,-0.22865,-1.9218,0.91462,-7.3325e-13,-0.96091,0,0,0.33333,3.9475e-16,0,0.66667
0.24807,0.98425,0.74421,0.72637,8.1537,18.623,-1.4415,0.48051,-0.12365,-1.922,-4.6955e-12,-0.061825,0,0,0.33333,3.9475e-16,3.9472e-16,0.66667
0.81192,0.36376,2.4358,-0.20436,-0.72536,2.0381,1.3274,-0.44247,-1.8515,1.7699,-1.013e-10,-0.92573,0,0,0.33333,-7.8949e-16,0,0.66667
0.88291,0.59285,2.6487,0.13928,0.29004,0.99482,-0.98373,0.32791,-1.9317,-1.3116,7.4868e-09,-0.96587,0,0,0.33333,2.0724e-15,0,0.66667
0.83441,0.64376,2.5032,0.21564,0.67063,1.6881,-1.4395,0.47982,-1.8339,-1.9193,8.7742e-11,-0.91697,0,0,0.33333,-0,-0,0.66667
0.35124,0.25397,1.0537,-0.36904,-3.719,14.696,1.037,-0.34566,-1.5159,1.3826,1.0894e-11,-0.75795,0,0,0.33333,-7.8949e-16,0,0.66667
0.14604,0.26902,0.43813,-0.34647,-3.91,22.432,0.4048,-0.13493,-1.5725,0.53973,3.2131e-10,-0.78626,0,0,0.33333,-0,-0,0.66667
0.60481,0.18451,1.8144,-0.47324,-3.4354,6.7419,2.2897,-0.76325,-1.2042,3.053,2.1272e-13,-0.60208,0,0,0.33333,-7.8949e-16,0,0.66667
0.9963,0.96892,2.9889,0.70338,0.012862,0.67342,-5.6062,1.8687,-0.24199,-7.475,-2.0162e-05,-0.121,0,0,0.33333,-0,-0,0.66667
0.80367,0.81149,2.411,0.46724,1.8187,2.3651,-3.004,1.0013,-1.2245,-4.0054,3.8962e-10,-0.61224,0,0,0.33333,7.8949e-16,0,0.66667
0.74154,0.58003,2.2246,0.12004,0.58014,3.3103,-0.71211,0.23737,-1.948,-0.94948,4.5295e-11,-0.97399,0,0,0.33333,7.8949e-16,0,0.66667
0.38666,0.13967,1.16,-0.54049,-5.3647,13.531,1.6719,-0.5573,-0.96068,2.2292,-4.7329e-13,-0.48034,0,0,0.33333,-0,-0,0.66667
0.40617,0.50856,1.2185,0.01284,0.12117,12.706,-0.041723,0.013908,-1.9997,-0.05563,-4.6043e-14,-0.99983,0,0,0.33333,-0,-0,0.66667
0.29465,0.0027351,0.88394,-0.7459,-8.169,16.916,1.7582,-0.58607,-0.022545,2.3443,-4.7451e-13,-0.011272,0,0,0.33333,-1.579e-15,0,0.66667
0.29924,0.72252,0.89771,0.33377,3.4905,16.572,-0.79902,0.26634,-1.6044,-1.0654,-4.5875e-11,-0.80221,0,0,0.33333,-0,-0,0.66667
0.65307,0.7729,1.9592,0.40934,2.6495,5.4523,-2.1386,0.71288,-1.404,-2.8515,1.0458e-11,-0.70202,0,0,0.33333,-0,-0,0.66667
0.042617,0.90375,0.12785,0.60563,7.1315,26.556,-0.20648,0.068827,-0.6964,-0.27531,-4.1337e-07,-0.3482,0,0,0.33333,6.1679e-17,0,0.66667
0.60103,0.23314,1.8031,-0.40028,-2.9012,6.7922,1.9247,-0.64156,-1.4295,2.5662,-7.3852e-13,-0.71475,0,0,0.33333,7.8949e-16,0,0.66667
0.45501,0.80477,1.365,0.45715,4.1825,11.193,-1.6641,0.55469,-1.257,-2.2187,9.6423e-13,-0.62849,0,0,0.33333,-0,-0,0.66667
0.38402,0.73484,1.1521,0.35227,3.4436,13.536,-1.0822,0.36074,-1.558,-1.443,-3.3733e-12,-0.77899,0,0,0.33333,-0,-0,0.66667
0.72104,0.75542,2.1631,0.38312,2.0421,3.8676,-2.21,0.73666,-1.4784,-2.9467,6.9964e-11,-0.73919,0,0,0.33333,-0,-0,0.66667
0.090843,0.66278,0.27253,0.24417,2.7785,24.61,-0.17745,0.059148,-1.7881,-0.23659,-1.0688e-08,-0.89404,0,0,0.33333,1.9737e-16,0,0.66667
0.24894,0.2326,0.74682,-0.4011,-4.3478,18.469,0.79879,-0.26626,-1.4277,1.0651,1.3255e-10,-0.71387,0,0,0.33333,-0,-0,0.66667
0.16059,0.26301,0.48177,-0.35548,-3.995,21.863,0.45669,-0.15223,-1.5501,0.60892,2.0567e-10,-0.77504,0,0,0.33333,-0,-0,0.66667
0.67252,0.43446,2.0176,-0.098317,-0.58983,4.8397,0.52897,-0.17632,-1.9665,0.70529,-1.1809e-11,-0.98327,0,0,0.33333,-7.8949e-16,0,0.66667
0.19789,0.31044,0.59368,-0.28435,-3.1365,20.399,0.45016,-0.15005,-1.7131,0.60022,2.18e-10,-0.85654,0,0,0.33333,-4.4409e-16,0,0.66667
0.47419,0.44472,1.4226,-0.082925,-0.72357,10.448,0.31458,-0.10486,-1.9753,0.41944,-8.7153e-15,-0.98765,0,0,0.33333,-0,-0,0.66667
0.95248,0.16332,2.8574,-0.50502,-0.40127,0.60587,3.8482,-1.2827,-1.0935,5.1309,1.7543e-09,-0.54674,0,0,0.33333,-0,-0,0.66667
0.79059,0.82106,2.3718,0.4816,2.0019,2.6029,-3.046,1.0153,-1.1749,-4.0613,3.1755e-10,-0.58745,0,0,0.33333,-0,-0,0.66667
0.6679,0.30867,2.0037,-0.287,-1.7648,5.0157,1.5335,-0.51117,-1.7075,2.0447,-2.1165e-11,-0.85373,0,0,0.33333,-1.1842e-15,0,0.66667
0.85654,0.90607,2.5696,0.60911,1.8258,1.7389,-4.1738,1.3913,-0.68201,-5.565,2.4835e-09,-0.341,0,0,0.33333,-1.6618e-15,-3.9022e-16,0.66667
0.28897,0.98897,0.86692,0.73346,8.0479,17.116,-1.6956,0.5652,-0.086574,-2.2608,1.843e-14,-0.043287,0,0,0.33333,-3.9475e-16,0,0.66667
0.77802,0.63128,2.3341,0.19692,0.8257,2.6263,-1.2256,0.40855,-1.8622,-1.6342,1.0419e-10,-0.93109,0,0,0.33333,1.579e-15,0,0.66667
0.019068,0.51385,0.057205,0.02077,0.23704,27.483,-0.0031639,0.0010538,-1.9979,-0.004219,-1.2776e-06,-0.99895,0,0,0.33333,-0,-0,0.66667
0.87353,0.51688,2.6206,0.025323,0.057247,1.0897,-0.17697,0.058988,-1.9974,-0.23595,-2.1342e-10,-0.9987,0,0,0.33333,-0,-0,0.66667
0.24772,0.057296,0.74316,-0.66406,-7.396,18.607,1.316,-0.43866,-0.43242,1.7547,2.1457e-11,-0.21621,0,0,0.33333,-2.9606e-16,0,0.66667
0.12308,0.25167,0.36923,-0.37249,-4.2385,23.341,0.36676,-0.12225,-1.5076,0.48902,-7.6037e-11,-0.75382,0,0,0.33333,3.9475e-16,0,0.66667
0.12635,0.28386,0.37905,-0.3242,-3.6746,23.206,0.32771,-0.10924,-1.6272,0.43694,1.5742e-10,-0.81358,0,0,0.33333,-3.9475e-16,0,0.66667
0.58781,0.20525,1.7634,-0.44212,-3.304,7.1812,2.079,-0.69302,-1.3043,2.7721,5.8153e-13,-0.65213,0,0,0.33333,-0,-0,0.66667
0.89189,0.26146,2.6757,-0.35781,-0.71698,1.0173,2.553,-0.851,-1.5446,3.404,7.506e-10,-0.77231,0,0,0.33333,-0,-0,0.66667
0.092472,0.81384,0.27742,0.47077,5.4345,24.565,-0.34826,0.11609,-1.2131,-0.46435,-7.4585e-09,-0.60657,0,0,0.33333,-3.9475e-16,0,0.66667
0.48349,0.19925,1.4505,-0.45113,-3.9801,10.277,1.7449,-0.58163,-1.2763,2.3265,-4.4043e-13,-0.63813,0,0,0.33333,-0,-0,0.66667
0.88532,0.85798,2.656,0.53698,1.2406,1.2831,-3.8032,1.2677,-0.97405,-5.0709,4.7379e-09,-0.48703,0,0,0.33333,-0,-0,0.66667
0.95716,0.88716,2.8715,0.58073,0.44867,0.67761,-4.4468,1.4823,-0.80033,-5.9291,-4.9304e-09,-0.40016,0,0,0.33333,-0,-0,0.66667
0.99077,0.98505,2.9723,0.72757,0.13536,0.74156,-5.7668,1.9223,-0.11707,-7.6891,-2.3853e-06,-0.058533,0,0,0.33333,1.579e-15,0,0.66667
0.36192,0.079453,1.0858,-0.63082,-6.4707,14.444,1.8264,-0.60881,-0.58465,2.4353,-3.7981e-13,-0.29233,0,0,0.33333,-3.9475e-16,0,0.66667
0.58532,0.88982,1.756,0.58474,4.4791,7.3641,-2.7381,0.91269,-0.78349,-3.6507,-1.0527e-12,-0.39174,0,0,0.33333,-0,-0,0.66667
0.38493,0.55988,1.1548,0.089824,0.86653,13.445,-0.2766,0.092201,-1.9717,-0.36881,-2.5053e-12,-0.98587,0,0,0.33333,-1.9737e-16,0,0.66667
0.13587,0.62579,0.4076,0.18868,2.1193,22.818,-0.20509,0.068363,-1.8743,-0.27345,-3.0288e-09,-0.93713,0,0,0.33333,-3.9475e-16,0,0.66667
0.76152,0.28575,2.2846,-0.32138,-1.467,3.003,1.9579,-0.65264,-1.633,2.6105,-1.4116e-10,-0.81649,0,0,0.33333,-0,-0,0.66667
0.22086,0.91893,0.66258,0.6284,7.0637,19.606,-1.1103,0.3701,-0.59561,-1.4804,-9.182e-11,-0.29781,0,0,0.33333,-0,-0,0.66667
0.6968,0.81949,2.0904,0.47924,2.7933,4.4771,-2.6715,0.89048,-1.1831,-3.5619,2.8204e-11,-0.59157,0,0,0.33333,-0,-0,0.66667
0.80946,0.14408,2.4284,-0.53388,-2.0552,2.3414,3.4572,-1.1524,-0.98612,4.6096,-4.676e-10,-0.49306,0,0,0.33333,-0,-0,0.66667
0.27256,0.92771,0.81768,0.64157,7.0265,17.672,-1.3989,0.46631,-0.53593,-1.8652,-1.3221e-11,-0.26797,0,0,0.33333,-0,-0,0.66667
0.5085,0.79705,1.5255,0.44557,3.7961,9.4953,-1.8126,0.6042,-1.2933,-2.4168,-2.0273e-13,-0.64664,0,0,0.33333,-7.8949e-16,0,0.66667
0.42229,0.85988,1.2669,0.53982,5.1709,12.32,-1.8237,0.6079,-0.96373,-2.4316,1.2312e-12,-0.48186,0,0,0.33333,-7.8949e-16,0,0.66667
0.054664,0.58636,0.16399,0.12953,1.4764,26.053,-0.056647,0.018882,-1.94,-0.075529,-3.5681e-08,-0.97,0,0,0.33333,-4.9343e-17,0,0.66667
0.74161,0.59326,2.2248,0.13989,0.6767,3.3141,-0.82997,0.27666,-1.9312,-1.1066,5.0579e-11,-0.96561,0,0,0.33333,2.0999e-15,0,0.66667
0.80872,0.17886,2.4262,-0.48171,-1.8349,2.2964,3.1166,-1.0389,-1.1747,4.1554,-5.0303e-10,-0.58733,0,0,0.33333,-0,-0,0.66667
0.53813,0.90951,1.6144,0.61427,5.1187,8.731,-2.6445,0.88149,-0.65866,-3.5259,-4.956e-13,-0.32933,0,0,0.33333,-0,-0,0.66667
0.75933,0.96086,2.278,0.69129,3.4518,3.4245,-4.1994,1.3998,-0.30048,-5.5992,1.0253e-11,-0.15024,0,0,0.33333,-7.8949e-16,0,0.66667
0.041085,0.10174,0.12326,-0.59739,-7.0292,26.617,0.19635,-0.065451,-0.73075,0.2618,2.8171e-07,-0.36537,0,0,0.33333,-9.8686e-17,0,0.66667
0.18226,0.92309,0.54678,0.63464,7.2575,21.085,-0.92535,0.30845,-0.56722,-1.2338,-3.5021e-10,-0.28361,0,0,0.33333,-0,-0,0.66667
0.5671,0.98912,1.7013,0.73368,5.9543,8.0198,-3.3285,1.1095,-0.085562,-4.4381,-1.2168e-13,-0.042781,0,0,0.33333,1.579e-15,0,0.66667
0.62121,0.67436,1.8636,0.26155,1.7934,6.1798,-1.2998,0.43326,-1.7562,-1.733,5.3377e-12,-0.8781,0,0,0.33333,-0,-0,0.66667
0.78202,0.95959,2.3461,0.68938,3.1511,3.0082,-4.3129,1.4376,-0.31032,-5.7505,1.7645e-11,-0.15516,0,0,0.33333,-0,-0,0.66667
0.60149,0.78602,1.8045,0.42903,3.1174,6.799,-2.0645,0.68816,-1.3455,-2.7526,3.2996e-13,-0.67277,0,0,0.33333,-0,-0,0.66667
0.56027,0.64982,1.6808,0.22473,1.7309,7.8474,-1.0073,0.33575,-1.8206,-1.343,3.8858e-15,-0.91029,0,0,0.33333,1.1212e-15,0,0.66667
0.66962,0.97796,2.0089,0.71694,4.7096,5.3597,-3.8406,1.2802,-0.17228,-5.1208,-6.4393e-14,-0.086138,0,0,0.33333,-0,3.2822e-16,0.66667
0.18539,0.29702,0.55618,-0.30447,-3.3797,20.887,0.45157,-0.15052,-1.67,0.6021,1.9124e-10,-0.83498,0,0,0.33333,-3.9475e-16,0,0.66667
0.14813,0.40063,0.4444,-0.14906,-1.6659,22.331,0.17664,-0.05888,-1.9209,0.23552,1.0793e-09,-0.96045,0,0,0.33333,-1.0966e-16,0,0.66667
0.2334,0.74877,0.70019,0.37315,4.0701,19.052,-0.69675,0.23225,-1.5061,-0.929,-1.7523e-10,-0.75305,0,0,0.33333,9.8686e-17,0,0.66667
0.88661,0.57757,2.6598,0.11635,0.23246,0.94332,-0.82529,0.2751,-1.9512,-1.1004,-2.2381e-09,-0.97561,0,0,0.33333,-0,-0,0.66667
0.62684,0.65672,1.8805,0.23508,1.5889,6.0215,-1.1789,0.39296,-1.8047,-1.5718,6.5395e-12,-0.90236,0,0,0.33333,-0,-0,0.66667
0.65717,0.14509,1.9715,-0.53236,-3.4753,5.4529,2.7988,-0.93294,-0.99222,3.7318,-4.4418e-12,-0.49611,0,0,0.33333,-0,-0,0.66667
0.3064,0.70785,0.9192,0.31177,3.2396,16.302,-0.76422,0.25474,-1.6538,-1.019,-3.8834e-11,-0.82688,0,0,0.33333,3.9475e-16,0,0.66667
0.25905,0.83032,0.77715,0.49548,5.3838,18.117,-1.0268,0.34227,-1.1264,-1.3691,-8.805e-11,-0.56318,0,0,0.33333,-0,-0,0.66667
0.59709,0.85008,1.7913,0.52512,3.8987,6.9912,-2.5083,0.83611,-1.0196,-3.3444,-9.77e-13,-0.50979,0,0,0.33333,-0,-0,0.66667
0.21493,0.16032,0.64478,-0.50952,-5.6717,19.793,0.87607,-0.29202,-1.0773,1.1681,2.5042e-10,-0.53863,0,0,0.33333,-0,-0,0.66667
0.93549,0.81204,2.8065,0.46806,0.5346,0.69403,-3.5029,1.1676,-1.2222,-4.6706,-2.2868e-09,-0.61112,0,0,0.33333,1.9244e-15,0,0.66667
0.80368,0.67108,2.411,0.25662,0.95827,2.2017,-1.6499,0.54997,-1.7651,-2.1999,1.3477e-10,-0.88253,0,0,0.33333,1.579e-15,0,0.66667
0.077647,0.31879,0.23294,-0.27182,-3.1044,25.138,0.16885,-0.056283,-1.7377,0.22513,7.2521e-09,-0.86887,0,0,0.33333,1.9737e-16,0,0.66667
0.17487,0.50876,0.52461,0.013146,0.14526,21.276,-0.018391,0.0061303,-1.9992,-0.024521,-1.1746e-10,-0.99959,0,0,0.33333,-0,-0,0.66667
0.48717,0.46685,1.4615,-0.049732,-0.42627,10.031,0.19382,-0.064608,-1.992,0.25843,-3.8997e-15,-0.99601,0,0,0.33333,9.8686e-16,0,0.66667
0.26934,0.37478,0.80801,-0.18783,-1.9878,17.656,0.40472,-0.13491,-1.8756,0.53962,5.8664e-11,-0.9378,0,0,0.33333,-5.4894e-16,0,0.66667
0.2902,0.61015,0.8706,0.16523,1.7241,16.873,-0.3836,0.12787,-1.9021,-0.51147,-3.7251e-11,-0.95107,0,0,0.33333,-0,-0,0.66667
0.96137,0.73957,2.8841,0.35936,0.16525,0.38275,-2.7638,0.92127,-1.5402,-3.6851,-3.4764e-09,-0.77011,0,0,0.33333,7.8949e-16,0,0.66667
0.34206,0.85788,1.0262,0.53682,5.5354,15.094,-1.469,0.48966,-0.97504,-1.9586,-4.3768e-12,-0.48752,0,0,0.33333,-0,8.068e-17,0.66667
0.8359,0.38975,2.5077,-0.16538,-0.50611,1.6444,1.1059,-0.36863,-1.9019,1.4745,-1.7346e-12,-0.95097,0,0,0.33333,-0,-0,0.66667
0.34459,0.88581,1.0338,0.57872,5.9834,15.025,-1.5954,0.53179,-0.80913,-2.1272,-1.8708e-12,-0.40457,0,0,0.33333,-0,-0,0.66667
0.72145,0.95561,2.1643,0.68341,3.8648,4.167,-3.9443,1.3148,-0.33893,-5.2591,3.6544e-12,-0.16947,0,0,0.33333,-0,-0,0.66667
0.18399,0.30215,0.55198,-0.29678,-3.2948,20.941,0.43684,-0.14561,-1.6864,0.58246,1.4126e-10,-0.84322,0,0,0.33333,-0,-0,0.66667
0.68595,0.46095,2.0579,-0.058575,-0.3382,4.5167,0.32144,-0.10715,-1.9879,0.42858,-9.4202e-12,-0.99394,0,0,0.33333,-7.8949e-16,0,0.66667
0.57425,0.40398,1.7228,-0.14402,-1.0774,7.4246,0.66165,-0.22055,-1.9269,0.8822,-6.0452e-13,-0.96343,0,0,0.33333,2.687e-16,0,0.66667
0.72788,0.25412,2.1836,-0.36881,-1.9179,3.7125,2.1476,-0.71587,-1.5165,2.8635,-8.1831e-11,-0.75825,0,0,0.33333,-0,-0,0.66667
0.43689,0.28551,1.3107,-0.32173,-2.9707,11.726,1.1245,-0.37483,-1.6327,1.4993,-2.3526e-13,-0.81634,0,0,0.33333,-1.579e-15,0,0.66667
0.94886,0.7014,2.8466,0.3021,0.21366,0.42534,-2.2932,0.7644,-1.6749,-3.0576,-9.6852e-09,-0.83743,0,0,0.33333,-0,-0,0.66667
0.98993,0.48451,2.9698,-0.02324,0.0079578,0.047127,0.18405,-0.061355,-1.9973,0.2454,-4.9964e-06,-0.99867,0,0,0.33333,-1.1723e-15,0,0.66667
0.37841,0.39853,1.1352,-0.1522,-1.4797,13.681,0.46074,-0.15358,-1.9175,0.61432,4.5378e-12,-0.95875,0,0,0.33333,-3.9475e-16,0,0.66667
0.75586,0.011683,2.2676,-0.73248,-3.7481,3.5494,4.4292,-1.4764,-0.091711,5.9056,-7.4381e-12,-0.045855,0,0,0.33333,-0,-0,0.66667
0.93393,0.78293,2.8018,0.42439,0.48245,0.65879,-3.1708,1.0569,-1.3604,-4.2277,-3.1789e-09,-0.6802,0,0,0.33333,-0,-0,0.66667
0.81266,0.43779,2.438,-0.09331,-0.32664,1.9901,0.60664,-0.20221,-1.9706,0.80885,1.0985e-10,-0.98529,0,0,0.33333,-0,-0,0.66667
0.44965,0.018959,1.349,-0.72156,-6.8767,11.555,2.5956,-0.8652,-0.14829,3.4608,7.927e-14,-0.074144,0,0,0.33333,-1.579e-15,3.7677e-16,0.66667
0.0019673,0.20045,0.0059019,-0.44933,-5.2239,28.171,0.0070717,-0.0023573,-1.2818,0.0094289,-2.9373e-08,-0.6409,0,0,0.33333,-0,-0,0.66667
0.94677,0.115,2.8403,-0.5775,-0.58101,0.74744,4.3741,-1.458,-0.81363,5.8321,4.2391e-08,-0.40682,0,0,0.33333,-7.8949e-16,0,0.66667
0.34939,0.57471,1.0482,0.11206,1.1167,14.705,-0.31323,0.10441,-1.9547,-0.41765,-7.9126e-12,-0.97734,0,0,0.33333,7.8949e-16,0,0.66667
0.037035,0.09806,0.11111,-0.60291,-7.1006,26.778,0.17863,-0.059543,-0.70768,0.23817,1.9432e-07,-0.35384,0,0,0.33333,-9.8686e-17,0,0.66667
0.24443,0.3046,0.7333,-0.2931,-3.1622,18.615,0.57314,-0.19105,-1.6942,0.76419,1.1836e-10,-0.84711,0,0,0.33333,-0,-0,0.66667
0.96294,0.67631,2.8888,0.26446,0.095772,0.29613,-2.0373,0.6791,-1.7507,-2.7164,-1.5461e-08,-0.87535,0,0,0.33333,-0,-0,0.66667
0.46377,0.11732,1.3913,-0.57402,-5.268,10.984,2.1297,-0.7099,-0.82819,2.8396,-5.4601e-13,-0.41409,0,0,0.33333,-3.9475e-16,0,0.66667
0.12421,0.10987,0.37263,-0.5852,-6.7805,23.33,0.58151,-0.19384,-0.78214,0.77535,3.6496e-09,-0.39107,0,0,0.33333,1.9737e-16,3.9436e-16,0.66667
0.66748,0.057237,2.0024,-0.66414,-4.3353,5.345,3.5464,-1.1821,-0.43177,4.7286,-1.5632e-13,-0.21588,0,0,0.33333,-7.8949e-16,0,0.66667
0.013877,0.98545,0.041631,0.72818,8.7121,27.701,-0.080843,0.026954,-0.11432,-0.10779,9.8893e-06,-0.057159,0,0,0.33333,-2.4672e-17,-3.9287e-16,0.66667
0.79892,0.42357,2.3968,-0.11465,-0.43235,2.2266,0.73277,-0.24426,-1.9529,0.97703,-8.7215e-11,-0.97643,0,0,0.33333,-1.579e-15,0,0.66667
0.53493,0.28333,1.6048,-0.32501,-2.6301,8.6312,1.3909,-0.46362,-1.6251,1.8545,5.6233e-13,-0.81255,0,0,0.33333,-0,-0,0.66667
0.85021,0.49177,2.5506,-0.012342,-0.033844,1.4042,0.083947,-0.027982,-1.999,0.11193,2.4354e-09,-0.99952,0,0,0.33333,-2.3685e-15,0,0.66667
0.2292,0.39748,0.6876,-0.15379,-1.6625,19.176,0.28198,-0.093994,-1.9155,0.37598,7.1714e-11,-0.95775,0,0,0.33333,-1.9737e-16,0,0.66667
0.090134,0.75312,0.2704,0.37968,4.3544,24.648,-0.27377,0.091258,-1.4879,-0.36503,1.4226e-09,-0.74397,0,0,0.33333,-0,-0,0.66667
0.6928,0.87025,2.0784,0.55538,3.3195,4.6401,-3.0781,1.026,-0.9034,-4.1041,1.3368e-11,-0.4517,0,0,0.33333,1.1842e-15,0,0.66667
0.81499,0.88573,2.445,0.57859,2.1948,2.3063,-3.7724,1.2575,-0.80941,-5.0298,5.5505e-10,-0.40471,0,0,0.33333,-0,-0,0.66667
0.63154,0.75341,1.8946,0.38012,2.5773,5.9747,-1.9205,0.64017,-1.4865,-2.5607,5.3841e-12,-0.74325,0,0,0.33333,1.579e-15,0,0.66667
0.77283,0.25272,2.3185,-0.37091,-1.6291,2.8245,2.2932,-0.76441,-1.5112,3.0576,-1.9197e-10,-0.7556,0,0,0.33333,3.158e-15,0,0.66667
0.63111,0.69567,1.8933,0.2935,1.9742,5.9368,-1.4818,0.49395,-1.6933,-1.9758,7.2968e-12,-0.84666,0,0,0.33333,-0,-0,0.66667
0.89066,0.21171,2.672,-0.43243,-0.90433,1.1015,3.0812,-1.0271,-1.3356,4.1082,-1.2905e-09,-0.66778,0,0,0.33333,7.8949e-16,0,0.66667
0.99276,0.68328,2.9783,0.27491,-0.091216,0.13269,-2.1834,0.7278,-1.7314,-2.9112,-1.3275e-08,-0.86569,0,0,0.33333,-7.8949e-16,0,0.66667
0.17377,0.15252,0.52131,-0.52122,-5.9086,21.382,0.72458,-0.24153,-1.0347,0.96611,9.0858e-10,-0.51733,0,0,0.33333,-0,-0,0.66667
0.54939,0.89922,1.6482,0.59883,4.8904,8.3896,-2.6319,0.87731,-0.72503,-3.5092,-7.2431e-13,-0.36251,0,0,0.33333,-7.8949e-16,0,0.66667
0.11999,0.51846,0.35998,0.027697,0.31145,23.441,-0.026588,0.0088628,-1.9966,-0.035451,2.9803e-09,-0.9983,0,0,0.33333,-0,-0,0.66667
0.76715,0.62586,2.3014,0.18879,0.82907,2.8265,-1.1586,0.38621,-1.8745,-1.5449,1.0227e-10,-0.93723,0,0,0.33333,-0,-0,0.66667
0.22811,0.13594,0.68432,-0.54608,-6.0624,19.302,0.99653,-0.33218,-0.93908,1.3287,1.5686e-10,-0.46954,0,0,0.33333,-3.9475e-16,0,0.66667
0.11092,0.93622,0.33276,0.65434,7.6643,23.865,-0.58063,0.19354,-0.47877,-0.77418,6.6334e-09,-0.23939,0,0,0.33333,-2.7139e-16,0,0.66667
0.96882,0.67706,2.9065,0.2656,0.060147,0.25826,-2.0585,0.68618,-1.7493,-2.7447,-1.6124e-08,-0.87464,0,0,0.33333,7.8949e-16,0,0.66667
0.44753,0.59294,1.3426,0.13941,1.2593,11.324,-0.4991,0.16637,-1.9317,-0.66547,-8.8818e-14,-0.96584,0,0,0.33333,9.213e-16,0,0.66667
0.82994,0.93803,2.4898,0.65705,2.3645,2.1826,-4.3625,1.4542,-0.46624,-5.8167,-1.7141e-10,-0.23312,0,0,0.33333,-0,-0,0.66667
0.025977,0.7558,0.077932,0.38369,4.436,27.21,-0.079739,0.02658,-1.4765,-0.10632,-1.8101e-09,-0.73824,0,0,0.33333,-0,-0,0.66667
0.090511,0.88705,0.27153,0.58058,6.7741,24.657,-0.42039,0.14013,-0.80105,-0.56052,-9.6283e-09,-0.40053,0,0,0.33333,-0,-0,0.66667
0.81523,0.42493,2.4457,-0.1126,-0.389,1.9525,0.73436,-0.24479,-1.9545,0.97915,-2.7633e-11,-0.97724,0,0,0.33333,-7.8949e-16,0,0.66667
0.90936,0.78987,2.7281,0.4348,0.73456,0.90123,-3.1632,1.0544,-1.3276,-4.2175,-2.5711e-09,-0.6638,0,0,0.33333,-0,-0,0.66667
0.068241,0.54807,0.20472,0.072099,0.81949,25.508,-0.03936,0.01312,-1.9808,-0.05248,4.7562e-08,-0.99038,0,0,0.33333,-9.8686e-17,0,0.66667
0.65027,0.57187,1.9508,0.1078,0.68502,5.3862,-0.56081,0.18694,-1.9582,-0.74775,7.6061e-12,-0.97909,0,0,0.33333,-0,-0,0.66667
0.55332,0.81868,1.6599,0.47802,3.8144,8.1804,-2.1159,0.70532,-1.1874,-2.8213,-1.1051e-12,-0.5937,0,0,0.33333,-0,-0,0.66667
0.20654,0.83462,0.61962,0.50193,5.6046,20.112,-0.82935,0.27645,-1.1039,-1.1058,-3.3508e-10,-0.55197,0,0,0.33333,1.9737e-16,0,0.66667
0.4248,0.36788,1.2744,-0.19818,-1.8415,12.094,0.6735,-0.2245,-1.8603,0.898,7.0233e-13,-0.93016,0,0,0.33333,-3.9475e-16,0,0.66667
0.4726,0.24122,1.4178,-0.38816,-3.4518,10.589,1.4676,-0.48919,-1.464,1.9568,-5.2403e-13,-0.73199,0,0,0.33333,-3.9475e-16,0,0.66667
0.011484,0.19768,0.034452,-0.45348,-5.2732,27.791,0.041662,-0.013887,-1.2684,0.05555,3.3425e-08,-0.63419,0,0,0.33333,-0,-0,0.66667
0.54494,0.030193,1.6348,-0.70471,-5.8971,8.6188,3.0722,-1.0241,-0.23533,4.0963,1.7231e-13,-0.11767,0,0,0.33333,-8.8818e-16,-5.1623e-17,0.66667
0.7824,0.56254,2.3472,0.093817,0.38277,2.5149,-0.58722,0.19574,-1.9701,-0.78296,2.2024e-11,-0.98506,0,0,0.33333,3.158e-15,0,0.66667
0.91446,0.69653,2.7434,0.2948,0.4339,0.72537,-2.1567,0.7189,-1.6905,-2.8756,-6.6142e-09,-0.84524,0,0,0.33333,-1.579e-15,0,0.66667
0.046043,0.5624,0.13813,0.093599,1.0671,26.398,-0.034477,0.011492,-1.9703,-0.045969,-6.229e-07,-0.98515,0,0,0.33333,1.3685e-16,0,0.66667
0.79178,0.84718,2.3753,0.52077,2.1742,2.6238,-3.2987,1.0996,-1.0361,-4.3982,3.1293e-10,-0.51803,0,0,0.33333,3.158e-15,0,0.66667
0.43939,0.49438,1.3182,-0.0084251,-0.076663,11.583,0.029615,-0.0098717,-2.0001,0.039487,-1.3895e-13,-1,0,0,0.33333,1.1842e-15,0,0.66667
0.70462,0.8257,2.1139,0.48855,2.7878,4.3113,-2.7539,0.91798,-1.1511,-3.6719,3.3503e-11,-0.57553,0,0,0.33333,-0,-0,0.66667
0.60938,0.72096,1.8281,0.33144,2.3447,6.5271,-1.6158,0.53859,-1.6106,-2.1544,2.7282e-12,-0.8053,0,0,0.33333,-0,-0,0.66667
0.91416,0.091372,2.7425,-0.61294,-1.0898,1.0804,4.4826,-1.4942,-0.6646,5.9768,2.651e-08,-0.3323,0,0,0.33333,3.9475e-16,0,0.66667
0.67954,0.21584,2.0386,-0.42624,-2.5846,4.8287,2.3172,-0.7724,-1.3543,3.0896,-2.2216e-11,-0.67717,0,0,0.33333,9.8686e-16,0,0.66667
0.20458,0.61786,0.61373,0.17679,1.9353,20.127,-0.28934,0.096448,-1.889,-0.38579,-1.2804e-10,-0.94452,0,0,0.33333,-0,-0,0.66667
0.98969,0.11041,2.9691,-0.58438,-0.0098682,0.49825,4.6269,-1.5423,-0.78503,6.1692,-9.5009e-08,-0.39251,0,0,0.33333,-1.579e-15,0,0.66667
0.80836,0.96883,2.4251,0.70325,2.875,2.5852,-4.5478,1.5159,-0.24261,-6.0638,2.1704e-11,-0.12131,0,0,0.33333,-0,-0,0.66667
0.05115,0.84838,0.15345,0.52257,6.0976,26.211,-0.21384,0.071279,-1.0292,-0.28512,1.4613e-08,-0.51461,0,0,0.33333,-0,-0,0.66667
0.99025,0.55421,2.9707,0.081317,-0.027929,0.053595,-0.64419,0.21473,-1.9761,-0.85891,5.132e-07,-0.98805,0,0,0.33333,-1.579e-15,0,0.66667
0.084374,0.42204,0.25312,-0.11695,-1.3268,24.863,0.078938,-0.026313,-1.9506,0.10525,-1.7715e-08,-0.97529,0,0,0.33333,-0,-0,0.66667
0.41597,0.6851,1.2479,0.27765,2.6155,12.414,-0.92397,0.30799,-1.7264,-1.232,-9.0722e-13,-0.86318,0,0,0.33333,2.9606e-16,0,0.66667
0.88805,0.48665,2.6641,-0.020019,-0.039105,0.91061,0.14222,-0.047408,-1.9981,0.18963,-2.5627e-09,-0.99906,0,0,0.33333,1.579e-15,0,0.66667
0.76211,0.85011,2.2863,0.52516,2.4855,3.167,-3.2019,1.0673,-1.0194,-4.2692,1.3847e-10,-0.5097,0,0,0.33333,-0,-0,0.66667
0.67305,0.223,2.0191,-0.4155,-2.5594,4.9734,2.2372,-0.74573,-1.3868,2.9829,-1.9211e-11,-0.6934,0,0,0.33333,-0,-0,0.66667
0.53369,0.95804,1.6011,0.68706,5.832,8.929,-2.9334,0.97781,-0.3213,-3.9112,-1.672e-13,-0.16065,0,0,0.33333,-0,-0,0.66667
0.34698,0.67441,1.0409,0.26161,2.6274,14.817,-0.72619,0.24206,-1.7561,-0.96826,-1.4267e-11,-0.87807,0,0,0.33333,-0,-0,0.66667
0.89994,0.24899,2.6998,-0.37652,-0.69463,0.94372,2.7107,-0.90358,-1.4967,3.6143,1.0062e-09,-0.74833,0,0,0.33333,-2.1711e-15,0,0.66667
0.81896,0.76853,2.4569,0.40279,1.4245,2.0553,-2.639,0.87965,-1.4224,-3.5186,3.872e-10,-0.7112,0,0,0.33333,-1.579e-15,0,0.66667
0.94589,0.56327,2.8377,0.094906,0.065433,0.34481,-0.71816,0.23939,-1.9687,-0.95755,-2.9568e-07,-0.98435,0,0,0.33333,-0,-0,0.66667
0.39956,0.6123,1.1987,0.16845,1.6054,12.948,-0.53846,0.17949,-1.8984,-0.71795,-2.3174e-12,-0.94918,0,0,0.33333,-0,-0,0.66667
0.23362,0.88896,0.70087,0.58343,6.4847,19.106,-1.0904,0.36347,-0.78951,-1.4539,-1.0349e-10,-0.39475,0,0,0.33333,-0,-0,0.66667
0.72322,0.45298,2.1697,-0.070529,-0.36289,3.6845,0.40806,-0.13602,-1.9816,0.54408,-2.1271e-11,-0.99082,0,0,0.33333,-0,-0,0.66667
0.6891,0.71709,2.0673,0.32564,1.8979,4.5379,-1.7952,0.59839,-1.624,-2.3935,3.5167e-11,-0.81199,0,0,0.33333,-9.8686e-17,0,0.66667
0.54337,0.36183,1.6301,-0.20725,-1.6411,8.3358,0.90091,-0.3003,-1.8467,1.2012,1.3395e-13,-0.92336,0,0,0.33333,7.8949e-16,0,0.66667
0.53711,0.91797,1.6113,0.62695,5.2429,8.7723,-2.6939,0.89797,-0.60177,-3.5919,-4.1345e-13,-0.30088,0,0,0.33333,-0,-0,0.66667
0.80969,0.85471,2.4291,0.53207,2.0448,2.3356,-3.4465,1.1488,-0.99308,-4.5953,4.7014e-10,-0.49654,0,0,0.33333,-0,-0,0.66667
0.79958,0.93922,2.3988,0.65883,2.7636,2.6639,-4.2143,1.4048,-0.45755,-5.6191,3.6524e-11,-0.22877,0,0,0.33333,3.158e-15,0,0.66667
0.84777,0.23007,2.5433,-0.40489,-1.1993,1.6241,2.746,-0.91535,-1.4166,3.6614,-3.4017e-10,-0.7083,0,0,0.33333,-0,-0,0.66667
0.19036,0.017808,0.57109,-0.72329,-8.3354,20.803,1.1015,-0.36716,-0.13944,1.4687,1.9479e-11,-0.069722,0,0,0.33333,-0,-0,0.66667
0.20027,0.21397,0.60082,-0.42905,-4.7737,20.335,0.68742,-0.22914,-1.3458,0.91657,3.7709e-10,-0.67289,0,0,0.33333,-0,-0,0.66667
0.77366,0.37533,2.321,-0.18701,-0.79858,2.7031,1.1575,-0.38582,-1.8765,1.5433,-1.0591e-10,-0.93824,0,0,0.33333,-0,-0,0.66667
0.56553,0.59476,1.6966,0.14214,1.0802,7.673,-0.64308,0.21436,-1.9291,-0.85744,3.2035e-13,-0.96456,0,0,0.33333,-1.579e-15,0,0.66667
0.2689,0.094748,0.80671,-0.60788,-6.6454,17.792,1.3077,-0.43589,-0.6871,1.7436,2.5001e-11,-0.34355,0,0,0.33333,-7.8949e-16,0,0.66667
0.47936,0.47423,1.4381,-0.038656,-0.33479,10.279,0.14824,-0.049413,-1.9947,0.19765,2.0881e-13,-0.99734,0,0,0.33333,-0,-0,0.66667
0.67466,0.39539,2.024,-0.15692,-0.93838,4.8021,0.84691,-0.2823,-1.9121,1.1292,-1.8168e-11,-0.95605,0,0,0.33333,-7.8949e-16,0,0.66667
0.68423,0.27147,2.0527,-0.34279,-2.0295,4.661,1.8764,-0.62547,-1.5819,2.5019,-3.0753e-11,-0.79093,0,0,0.33333,-7.8949e-16,0,0.66667
0.82139,0.41112,2.4642,-0.13332,-0.44514,1.8586,0.87605,-0.29202,-1.9368,1.1681,-1.8628e-10,-0.96841,0,0,0.33333,-0,-0,0.66667
0.36466,0.0047454,1.094,-0.74288,-7.7209,14.423,2.1672,-0.72241,-0.037874,2.8896,2.8444e-13,-0.018937,0,0,0.33333,-0,-0,0.66667
0.67275,0.24439,2.0182,-0.38341,-2.3534,4.9575,2.0635,-0.68784,-1.4778,2.7514,-2.1166e-11,-0.73889,0,0,0.33333,-3.9475e-16,0,0.66667
0.55308,0.35718,1.6592,-0.21423,-1.6696,8.0527,0.94789,-0.31596,-1.8361,1.2639,1.6098e-14,-0.91803,0,0,0.33333,7.8949e-16,0,0.66667
0.40642,0.13019,1.2192,-0.55471,-5.4105,12.864,1.8035,-0.60118,-0.90659,2.4047,-1.0503e-12,-0.4533,0,0,0.33333,-0,-0,0.66667
0.39796,0.34808,1.1939,-0.22788,-2.1808,13.016,0.72548,-0.24183,-1.8154,0.96731,2.6795e-12,-0.90772,0,0,0.33333,-0,-0,0.66667
0.61288,0.81187,1.8386,0.4678,3.3383,6.5229,-2.2936,0.76454,-1.2229,-3.0582,4.261e-13,-0.61145,0,0,0.33333,1.4803e-16,0,0.66667
0.061349,0.072785,0.18405,-0.64082,-7.56,25.817,0.31451,-0.10484,-0.53981,0.41935,1.7525e-07,-0.26991,0,0,0.33333,-9.8686e-17,3.4863e-16,0.66667
0.7645,0.67763,2.2935,0.26644,1.1928,2.9131,-1.6296,0.54319,-1.7475,-2.1727,1.2586e-10,-0.87377,0,0,0.33333,-7.8949e-16,0,0.66667
0.23365,0.93904,0.70094,0.65856,7.3834,19.134,-1.231,0.41032,-0.45911,-1.6413,-2.4962e-11,-0.22955,0,0,0.33333,-0,-0,0.66667
0.16594,0.55642,0.49782,0.084633,0.9389,21.627,-0.11235,0.03745,-1.9744,-0.1498,-5.1691e-10,-0.9872,0,0,0.33333,-9.9118e-17,0,0.66667
0.42348,0.15657,1.2705,-0.51515,-4.9144,12.266,1.7452,-0.58175,-1.0577,2.327,-1.1584e-12,-0.52887,0,0,0.33333,1.579e-15,0,0.66667
0.46845,0.72071,1.4053,0.33106,2.9454,10.697,-1.2407,0.41356,-1.6115,-1.6542,5.6177e-13,-0.80574,0,0,0.33333,-1.579e-15,0,0.66667
0.27444,0.64514,0.82331,0.21771,2.2995,17.469,-0.47799,0.15933,-1.8308,-0.63732,-6.0592e-11,-0.91541,0,0,0.33333,-0,-0,0.66667
0.31013,0.37143,0.93039,-0.19285,-1.9866,16.141,0.47847,-0.15949,-1.8683,0.63796,2.9015e-11,-0.93416,0,0,0.33333,-5.003e-16,0,0.66667
0.67315,0.48338,2.0194,-0.024926,-0.14905,4.8166,0.13423,-0.044743,-1.9975,0.17897,-3.2103e-12,-0.99875,0,0,0.33333,-0,-0,0.66667
0.030054,0.92243,0.090162,0.63365,7.4911,27.057,-0.15235,0.050783,-0.57212,-0.20313,-1.4412e-07,-0.28606,0,0,0.33333,-0,-3.9424e-16,0.66667
0.65518,0.84641,1.9656,0.51961,3.4011,5.4897,-2.7235,0.90785,-1.0409,-3.6314,4.5814e-12,-0.52046,0,0,0.33333,-0,4.5337e-16,0.66667
0.52145,0.99389,1.5644,0.74083,6.4622,9.3446,-3.0905,1.0302,-0.048473,-4.1206,8.8818e-16,-0.024237,0,0,0.33333,1.1842e-15,0,0.66667
0.47871,0.60007,1.4361,0.15011,1.3045,10.313,-0.57487,0.19162,-1.9197,-0.7665,3.2141e-14,-0.95986,0,0,0.33333,-0,-0,0.66667
0.72049,0.077973,2.1615,-0.63304,-3.5469,4.1234,3.6488,-1.2163,-0.57477,4.8651,-1.2138e-11,-0.28739,0,0,0.33333,1.579e-15,0,0.66667
0.68825,0.062768,2.0648,-0.65585,-4.0521,4.8548,3.6111,-1.2037,-0.47206,4.8148,-1.507e-12,-0.23603,0,0,0.33333,-0,-0,0.66667
0.064811,0.85186,0.19443,0.52779,6.1515,25.669,-0.27365,0.091217,-1.0095,-0.36487,2.4789e-08,-0.50475,0,0,0.33333,-0,-0,0.66667
0.80024,0.17718,2.4007,-0.48423,-1.925,2.4401,3.1,-1.0333,-1.1659,4.1333,-3.8722e-10,-0.58296,0,0,0.33333,-0,-0,0.66667
0.039175,0.31591,0.11753,-0.27613,-3.1692,26.678,0.08654,-0.028847,-1.7291,0.11539,1.7191e-08,-0.86456,0,0,0.33333,-0,-0,0.66667
0.027013,0.73317,0.081038,0.34976,4.0344,27.167,-0.075583,0.025194,-1.5644,-0.10078,-1.8498e-09,-0.7822,0,0,0.33333,-0,-0,0.66667
0.52587,0.23344,1.5776,-0.39983,-3.3043,8.941,1.6821,-0.56069,-1.4308,2.2428,5.7743e-13,-0.71542,0,0,0.33333,-0,-0,0.66667
0.7348,0.49708,2.2044,-0.0043849,-0.021647,3.4352,0.025776,-0.008592,-2.0009,0.034368,-5.354e-12,-1.0005,0,0,0.33333,-0,-0,0.66667
0.50557,0.70884,1.5167,0.31326,2.6475,9.5175,-1.267,0.42234,-1.6506,-1.6894,-1.481e-13,-0.82528,0,0,0.33333,-7.8949e-16,0,0.66667
0.29367,0.9591,0.881,0.68866,7.4882,16.919,-1.6179,0.5393,-0.31348,-2.1572,-1.862e-12,-0.15674,0,0,0.33333,-0,-3.3694e-16,0.66667
0.18618,0.37326,0.55854,-0.19011,-2.0985,20.843,0.28316,-0.094386,-1.8725,0.37754,-4.8855e-11,-0.93627,0,0,0.33333,-1.9737e-16,0,0.66667
0.66274,0.91465,1.9882,0.62198,4.0722,5.4096,-3.2977,1.0992,-0.62408,-4.3969,9.4036e-13,-0.31204,0,0,0.33333,-0,-0,0.66667
0.94213,0.57844,2.8264,0.11766,0.091753,0.3816,-0.88682,0.29561,-1.9501,-1.1824,-7.906e-08,-0.97504,0,0,0.33333,-0,-0,0.66667
0.15878,0.65999,0.47634,0.23998,2.6815,21.919,-0.30483,0.10161,-1.7957,-0.40644,-1.3808e-10,-0.89787,0,0,0.33333,-0,-0,0.66667
0.27586,0.95722,0.82759,0.68583,7.5382,17.571,-1.5136,0.50453,-0.32695,-2.0181,-3.735e-12,-0.16348,0,0,0.33333,3.9475e-16,0,0.66667
0.99109,0.69236,2.9733,0.28855,-0.082003,0.15072,-2.2878,0.7626,-1.704,-3.0504,-2.6434e-08,-0.85199,0,0,0.33333,-0,-0,0.66667
0.83374,0.1849,2.5012,-0.47265,-1.563,1.8949,3.1525,-1.0508,-1.2061,4.2034,-5.8761e-10,-0.60307,0,0,0.33333,-5.9212e-16,0,0.66667
0.75016,0.47517,2.2505,-0.037248,-0.17378,3.1233,0.22354,-0.074512,-1.9955,0.29805,-1.8634e-11,-0.99777,0,0,0.33333,-0,-0,0.66667
0.042073,0.27303,0.12622,-0.34046,-3.9206,26.564,0.11459,-0.038198,-1.5875,0.15279,-5.257e-09,-0.79377,0,0,0.33333,-0,-0,0.66667
0.027017,0.59236,0.081051,0.13854,1.5832,27.163,-0.029943,0.0099803,-1.9325,-0.039924,-7.8018e-07,-0.96626,0,0,0.33333,-6.1679e-17,0,0.66667
0.48721,0.38564,1.4616,-0.17154,-1.475,10.047,0.66862,-0.22287,-1.895,0.89149,-8.6153e-14,-0.94751,0,0,0.33333,-0,-0,0.66667
0.032196,0.75526,0.096588,0.38289,4.4248,26.961,-0.09862,0.032873,-1.4792,-0.13149,-3.242e-09,-0.73962,0,0,0.33333,9.8686e-17,0,0.66667
0.10153,0.068736,0.30458,-0.6469,-7.5861,24.233,0.52541,-0.17514,-0.51189,0.70055,-1.2194e-08,-0.25595,0,0,0.33333,-0,-0,0.66667
0.56329,0.20885,1.6899,-0.43673,-3.4095,7.8655,1.9681,-0.65602,-1.3218,2.6241,1.0183e-12,-0.66092,0,0,0.33333,-0,-0,0.66667
0.4278,0.23171,1.2834,-0.40244,-3.7783,12.063,1.3773,-0.45911,-1.4234,1.8364,-7.7216e-13,-0.71171,0,0,0.33333,-7.8949e-16,0,0.66667
0.79087,0.71861,2.3726,0.32791,1.319,2.4669,-2.0747,0.69155,-1.6186,-2.7662,2.1347e-10,-0.8093,0,0,0.33333,-5.7978e-16,0,0.66667
0.27399,0.50562,0.82197,0.0084336,0.088682,17.469,-0.018486,0.0061619,-1.9996,-0.024648,-1.1387e-12,-0.99982,0,0,0.33333,-0,-0,0.66667
0.27245,0.50798,0.81735,0.011964,0.12593,17.527,-0.026076,0.008692,-1.9991,-0.034768,-2.9104e-12,-0.99955,0,0,0.33333,-0,-0,0.66667
0.40582,0.33431,1.2175,-0.24854,-2.3622,12.751,0.80689,-0.26896,-1.7805,1.0759,1.767e-12,-0.89024,0,0,0.33333,3.9475e-16,0,0.66667
0.67323,0.63754,2.0197,0.20631,1.2424,4.8523,-1.1112,0.37039,-1.8484,-1.4816,2.1229e-11,-0.92421,0,0,0.33333,-0,-0,0.66667
0.9815,0.87609,2.9445,0.56413,0.10528,0.50735,-4.4295,1.4765,-0.86943,-5.906,1.8011e-07,-0.43472,0,0,0.33333,-0,-4.766e-19,0.66667
0.39748,0.70174,1.1924,0.30262,2.9099,13.053,-0.96228,0.32076,-1.6736,-1.283,-2.1512e-12,-0.8368,0,0,0.33333,-7.8949e-16,0,0.66667
0.74457,0.49309,2.2337,-0.010359,-0.049345,3.2344,0.061704,-0.020568,-1.9994,0.082271,-5.9358e-12,-0.9997,0,0,0.33333,2.3685e-15,0,0.66667
0.85672,0.19742,2.5702,-0.45388,-1.2811,1.5479,3.1108,-1.0369,-1.2673,4.1477,-1.0117e-09,-0.63364,0,0,0.33333,-0,-0,0.66667
0.67501,0.62333,2.025,0.185,1.1072,4.8025,-0.99902,0.33301,-1.8791,-1.332,2.0735e-11,-0.93956,0,0,0.33333,1.9737e-16,0,0.66667
0.77949,0.11469,2.3385,-0.57797,-2.5846,2.9062,3.6042,-1.2014,-0.81209,4.8055,-1.7012e-10,-0.40604,0,0,0.33333,-7.8949e-16,0,0.66667
0.81192,0.48144,2.4358,-0.027839,-0.097631,1.9938,0.18083,-0.060276,-1.9971,0.2411,-1.7628e-11,-0.99856,0,0,0.33333,-0,-0,0.66667
0.59693,0.29305,1.7908,-0.31043,-2.2478,6.8528,1.4824,-0.49414,-1.6569,1.9766,-1.548e-12,-0.82846,0,0,0.33333,-0,-0,0.66667
0.439,0.91189,1.317,0.61784,5.8694,11.819,-2.1698,0.72328,-0.64312,-2.8931,6.7168e-13,-0.32156,0,0,0.33333,-0,-0,0.66667
0.16875,0.6492,0.50625,0.22381,2.4903,21.527,-0.30214,0.10071,-1.8219,-0.40285,1.1274e-10,-0.91093,0,0,0.33333,-1.9614e-16,0,0.66667
0.78139,0.85571,2.3442,0.53357,2.3397,2.8207,-3.3354,1.1118,-0.98775,-4.4472,2.195e-10,-0.49387,0,0,0.33333,-0,-0,0.66667
0.19409,0.21275,0.58228,-0.43088,-4.8073,20.574,0.66904,-0.22301,-1.3397,0.89205,4.0491e-10,-0.66987,0,0,0.33333,-1.9737e-16,0,0.66667
0.99872,0.067145,2.9962,-0.64928,0.074968,0.56687,5.1876,-1.7292,-0.50163,6.9168,-8.2676e-06,-0.25082,0,0,0.33333,-0,-0,0.66667
0.5426,0.83692,1.6278,0.50537,4.1181,8.512,-2.1937,0.73125,-1.0918,-2.925,-9.7344e-13,-0.54589,0,0,0.33333,-0,-0,0.66667
0.0093665,0.55067,0.028099,0.076006,0.86811,27.873,-0.0056968,0.0018989,-1.9788,-0.0075957,1.0117e-08,-0.98939,0,0,0.33333,1.2336e-17,0,0.66667
0.4188,0.72064,1.2564,0.33096,3.1195,12.336,-1.1089,0.36962,-1.6113,-1.4785,-1.7175e-13,-0.80566,0,0,0.33333,-0,-0,0.66667
0.24105,0.44452,0.72316,-0.083227,-0.89274,18.718,0.1605,-0.053499,-1.9751,0.21399,3.812e-11,-0.98755,0,0,0.33333,-0,-0,0.66667
0.053138,0.55421,0.15941,0.081314,0.92614,26.113,-0.034567,0.011522,-1.9761,-0.046089,-1.0957e-08,-0.98804,0,0,0.33333,4.9343e-17,0,0.66667
0.71613,0.503,2.1484,0.0045025,0.023691,3.8329,-0.025795,0.0085983,-2.0006,-0.034393,6.3366e-13,-1.0003,0,0,0.33333,3.158e-15,0,0.66667
0.31649,0.553,0.94947,0.079499,0.81258,15.894,-0.20129,0.067095,-1.9772,-0.26838,-1.1938e-11,-0.98858,0,0,0.33333,-0,-0,0.66667
0.82107,0.47779,2.4632,-0.033312,-0.11087,1.8455,0.21881,-0.072938,-1.9956,0.29175,-5.2759e-11,-0.99778,0,0,0.33333,-0,-0,0.66667
0.76442,0.10543,2.2933,-0.59186,-2.8219,3.1993,3.6194,-1.2065,-0.75433,4.8259,-9.1082e-11,-0.37717,0,0,0.33333,-0,-4.2471e-16,0.66667
0.065672,0.63317,0.19701,0.19975,2.2784,25.614,-0.10494,0.034981,-1.858,-0.13992,-7.9553e-09,-0.92898,0,0,0.33333,-0,-0,0.66667
0.71272,0.63446,2.1382,0.20169,1.0817,3.9461,-1.15,0.38334,-1.8549,-1.5333,4.5963e-11,-0.92743,0,0,0.33333,-0,-0,0.66667
0.19497,0.38152,0.58491,-0.17772,-1.9538,20.5,0.2772,-0.092401,-1.8875,0.36961,1.3392e-10,-0.94373,0,0,0.33333,-0,-0,0.66667
0.77656,0.66816,2.3297,0.25223,1.071,2.679,-1.567,0.52233,-1.7732,-2.0893,1.2927e-10,-0.8866,0,0,0.33333,-0,-0,0.66667
0.25043,0.5076,0.75129,0.011397,0.12153,18.359,-0.022833,0.0076109,-1.9998,-0.030444,2.0328e-13,-0.99991,0,0,0.33333,-0,-0,0.66667
0.40375,0.97453,1.2112,0.7118,7.1079,13.062,-2.2991,0.76636,-0.19877,-3.0654,1.4611e-13,-0.099386,0,0,0.33333,-0,-0,0.66667
0.8833,0.82686,2.6499,0.49029,1.1293,1.2503,-3.4645,1.1548,-1.1445,-4.6194,3.9478e-10,-0.57225,0,0,0.33333,-0,-0,0.66667
0.65698,0.97919,1.9709,0.71879,4.8684,5.662,-3.7778,1.2593,-0.16297,-5.0371,-1.3478e-13,-0.081487,0,0,0.33333,-0,-0,0.66667
0.081501,0.95598,0.2445,0.68396,8.0859,25.027,-0.44595,0.14865,-0.33616,-0.5946,-1.4587e-10,-0.16808,0,0,0.33333,-0,-0,0.66667
0.13451,0.37497,0.40352,-0.18754,-2.1073,22.872,0.20181,-0.067269,-1.8759,0.26908,2.9875e-09,-0.93793,0,0,0.33333,2.737e-16,0,0.66667
0.007682,0.092827,0.023046,-0.61076,-7.2087,27.945,0.037535,-0.012511,-0.67438,0.050046,1.8754e-07,-0.33719,0,0,0.33333,-1.8504e-17,0,0.66667
0.98219,0.018289,2.9466,-0.72257,-0.27582,0.77078,5.6776,-1.8925,-0.14325,7.5701,1.4159e-06,-0.071624,0,0,0.33333,-0,-3.8327e-16,0.66667
0.047674,0.90892,0.14302,0.61338,7.2254,26.356,-0.23394,0.07798,-0.66321,-0.31192,-2.0941e-07,-0.33161,0,0,0.33333,-0,-0,0.66667
0.10538,0.80014,0.31613,0.45022,5.1746,24.051,-0.37954,0.12651,-1.2787,-0.50606,2.2047e-09,-0.63937,0,0,0.33333,-9.8686e-17,0,0.66667
0.45747,0.79156,1.3724,0.43734,3.9814,11.103,-1.6005,0.53351,-1.3195,-2.134,8.9939e-13,-0.65974,0,0,0.33333,-7.8949e-16,0,0.66667
0.054401,0.030179,0.1632,-0.70473,-8.3836,26.098,0.3067,-0.10223,-0.23481,0.40894,-4.8309e-07,-0.11741,0,0,0.33333,7.4015e-17,0,0.66667
0.28909,0.93075,0.86726,0.64612,7.0083,17.065,-1.4943,0.49809,-0.5154,-1.9924,-6.2339e-12,-0.2577,0,0,0.33333,-2.62e-17,0,0.66667
0.67797,0.15526,2.0339,-0.5171,-3.1948,4.9428,2.8047,-0.93489,-1.05,3.7396,-1.1765e-11,-0.52499,0,0,0.33333,-9.8686e-17,0,0.66667
0.048629,0.10223,0.14589,-0.59665,-7.0151,26.317,0.23212,-0.077372,-0.73424,0.30949,-7.2086e-09,-0.36712,0,0,0.33333,-0,-0,0.66667
0.45797,0.27436,1.3739,-0.33847,-3.0525,11.039,1.2401,-0.41335,-1.5925,1.6534,-5.7399e-13,-0.79625,0,0,0.33333,7.8949e-16,0,0.66667
0.57276,0.1317,1.7183,-0.55245,-4.3072,7.6843,2.5313,-0.84378,-0.91467,3.3751,1.2093e-12,-0.45733,0,0,0.33333,-1.579e-15,0,0.66667
0.19927,0.979,0.5978,0.7185,8.2452,20.462,-1.1454,0.3818,-0.16403,-1.5272,-3.1352e-12,-0.082013,0,0,0.33333,-0,-0,0.66667
0.18617,0.27618,0.55851,-0.33574,-3.7326,20.862,0.50003,-0.16668,-1.5997,0.6667,2.7996e-10,-0.79985,0,0,0.33333,-8.7139e-17,0,0.66667
0.10269,0.15264,0.30806,-0.52104,-6.0293,24.167,0.42803,-0.14268,-1.0349,0.57071,9.2353e-09,-0.51747,0,0,0.33333,9.8686e-17,0,0.66667
0.0688,0.62323,0.2064,0.18485,2.1064,25.488,-0.10174,0.033913,-1.8791,-0.13565,-3.0809e-08,-0.93954,0,0,0.33333,1.2336e-16,0,0.66667
0.16898,0.44195,0.50695,-0.087082,-0.96504,21.508,0.11772,-0.039242,-1.9734,0.15697,6.313e-10,-0.98669,0,0,0.33333,3.9475e-16,0,0.66667
0.060817,0.56416,0.18245,0.09624,1.0954,25.806,-0.046824,0.015608,-1.9681,-0.062432,3.1602e-07,-0.98403,0,0,0.33333,1.9737e-16,0,0.66667
0.55168,0.48582,1.655,-0.02127,-0.16516,8.0601,0.093872,-0.031291,-1.9977,0.12516,2.8422e-14,-0.99885,0,0,0.33333,-0,-0,0.66667
0.80791,0.36717,2.4237,-0.19925,-0.72235,2.1025,1.2878,-0.42927,-1.8586,1.7171,-1.3478e-10,-0.92929,0,0,0.33333,-7.8949e-16,0,0.66667
0.80434,0.79191,2.413,0.43787,1.6866,2.3254,-2.8175,0.93918,-1.3177,-3.7567,3.9502e-10,-0.65883,0,0,0.33333,-0,-0,0.66667
0.63118,0.95628,1.8935,0.68443,4.8743,6.2566,-3.456,1.152,-0.33373,-4.608,-3.8702e-13,-0.16686,0,0,0.33333,7.8949e-16,0,0.66667
0.54175,0.27632,1.6252,-0.33551,-2.688,8.434,1.4541,-0.4847,-1.5998,1.9388,6.3471e-13,-0.79991,0,0,0.33333,-0,-0,0.66667
0.46714,0.39516,1.4014,-0.15726,-1.3876,10.686,0.5877,-0.1959,-1.9119,0.7836,-8.2934e-14,-0.95593,0,0,0.33333,3.9475e-16,0,0.66667
0.96014,0.44631,2.8804,-0.080539,-0.029082,0.23416,0.61863,-0.20621,-1.9765,0.82484,-5.7673e-08,-0.98823,0,0,0.33333,-0,-0,0.66667
0.2899,0.52914,0.86969,0.043714,0.45507,16.875,-0.10138,0.033793,-1.9937,-0.13517,-1.0587e-11,-0.99684,0,0,0.33333,-2.9606e-16,0,0.66667
0.36643,0.44034,1.0993,-0.089489,-0.87822,14.095,0.26233,-0.087445,-1.9719,0.34978,4.4478e-12,-0.98593,0,0,0.33333,-0,-0,0.66667
0.57534,0.97488,1.726,0.71232,5.6776,7.7671,-3.2786,1.0929,-0.19604,-4.3715,-9.3481e-14,-0.09802,0,0,0.33333,-0,-0,0.66667
0.51258,0.54727,1.5377,0.07091,0.58635,9.2382,-0.29078,0.096925,-1.9816,-0.3877,-2.7589e-14,-0.99079,0,0,0.33333,-0,-0,0.66667
0.67424,0.021483,2.0227,-0.71778,-4.6625,5.2532,3.8716,-1.2905,-0.16796,5.1621,4.2188e-15,-0.083978,0,0,0.33333,-0,-0,0.66667
0.77467,0.9113,2.324,0.61695,2.8441,3.0413,-3.8234,1.2745,-0.64667,-5.0979,9.8259e-11,-0.32333,0,0,0.33333,-0,-0,0.66667
0.18244,0.86178,0.54732,0.54267,6.1445,21.051,-0.79204,0.26401,-0.95223,-1.0561,-6.5413e-10,-0.47611,0,0,0.33333,-0,-0,0.66667
0.6289,0.1619,1.8867,-0.50715,-3.5182,6.1374,2.5516,-0.85052,-1.0856,3.4021,-1.1242e-12,-0.54279,0,0,0.33333,-0,-0,0.66667
0.69402,0.58745,2.0821,0.13118,0.74175,4.3429,-0.72833,0.24278,-1.9386,-0.97111,2.3178e-11,-0.96932,0,0,0.33333,-0,-0,0.66667
0.27231,0.79202,0.81692,0.43804,4.6983,17.602,-0.95425,0.31808,-1.3171,-1.2723,-7.5337e-11,-0.65857,0,0,0.33333,7.8949e-16,0,0.66667
0.92808,0.17284,2.7842,-0.49073,-0.6529,0.78542,3.6435,-1.2145,-1.143,4.858,-5.4941e-09,-0.57149,0,0,0.33333,-0,-0,0.66667
0.34525,0.51288,1.0358,0.019322,0.19296,14.848,-0.053367,0.017789,-1.9984,-0.071156,-1.555e-12,-0.99919,0,0,0.33333,-0,-0,0.66667
0.63808,0.87711,1.9142,0.56566,3.882,5.957,-2.8875,0.9625,-0.86312,-3.85,3.6304e-13,-0.43156,0,0,0.33333,-0,-0,0.66667
0.9258,0.6681,2.7774,0.25216,0.30193,0.58717,-1.8676,0.62252,-1.7734,-2.4901,-1.4967e-08,-0.8867,0,0,0.33333,1.579e-15,0,0.66667
0.98063,0.70771,2.9419,0.31157,-0.006945,0.22267,-2.4443,0.81476,-1.6544,-3.2591,-1.1072e-08,-0.82719,0,0,0.33333,-1.579e-15,0,0.66667
0.24873,0.16139,0.74618,-0.50792,-5.5576,18.509,1.0107,-0.33689,-1.0832,1.3476,1.0872e-10,-0.5416,0,0,0.33333,-0,-0,0.66667
0.94195,0.0028303,2.8259,-0.74575,-1.0039,1.0641,5.6197,-1.8732,-0.023045,7.493,-1.3519e-06,-0.011523,0,0,0.33333,-0,-0,0.66667
0.90908,0.0056606,2.7272,-0.74151,-1.5348,1.3415,5.3927,-1.7976,-0.045208,7.1903,-1.4283e-07,-0.022604,0,0,0.33333,-0,-0,0.66667
0.25098,0.69021,0.75293,0.28532,3.0658,18.365,-0.57287,0.19096,-1.7115,-0.76382,-1.0618e-10,-0.85573,0,0,0.33333,-0,-0,0.66667
0.10105,0.12034,0.30316,-0.5695,-6.6235,24.239,0.46039,-0.15346,-0.84687,0.61386,-1.7028e-09,-0.42344,0,0,0.33333,-4.9343e-17,0,0.66667
0.36236,0.45733,1.0871,-0.064002,-0.63012,14.238,0.18553,-0.061844,-1.985,0.24738,3.4365e-12,-0.99251,0,0,0.33333,3.9475e-16,0,0.66667
0.92363,0.63064,2.7709,0.19596,0.23895,0.5765,-1.4479,0.48264,-1.8638,-1.9306,3.6813e-08,-0.9319,0,0,0.33333,-0,-0,0.66667
0.84527,0.95444,2.5358,0.68165,2.2663,1.9987,-4.6095,1.5365,-0.34758,-6.1459,4.4297e-10,-0.17379,0,0,0.33333,1.579e-15,0,0.66667
0.25812,0.29777,0.77436,-0.30335,-3.2497,18.099,0.62641,-0.2088,-1.672,0.83521,9.9813e-11,-0.836,0,0,0.33333,-3.0568e-16,0,0.66667
0.27562,0.96631,0.82686,0.69947,7.7028,17.587,-1.5423,0.5141,-0.2609,-2.0564,-1.2008e-12,-0.13045,0,0,0.33333,-0,-0,0.66667
0.29828,0.38595,0.89483,-0.17108,-1.7757,16.574,0.40823,-0.13608,-1.8958,0.54431,3.3454e-11,-0.94788,0,0,0.33333,-7.8949e-16,0,0.66667
0.081417,0.65253,0.24425,0.22879,2.6062,24.985,-0.14902,0.049673,-1.8143,-0.19869,4.8558e-09,-0.90716,0,0,0.33333,2.4672e-17,0,0.66667
0.16833,0.73778,0.505,0.35666,3.9977,21.56,-0.48031,0.1601,-1.5472,-0.64041,-2.6802e-10,-0.77359,0,0,0.33333,-0,-0,0.66667
0.61444,0.93696,1.8433,0.65544,4.8056,6.6545,-3.2218,1.0739,-0.47338,-4.2958,-6.1418e-13,-0.23669,0,0,0.33333,-8.8818e-16,0,0.66667
0.4924,0.90732,1.4772,0.61098,5.4343,10.109,-2.4068,0.80226,-0.67337,-3.209,8.9928e-14,-0.33669,0,0,0.33333,-0,-0,0.66667
0.41191,0.2003,1.2357,-0.44955,-4.3113,12.62,1.4814,-0.49379,-1.2807,1.9752,-6.4637e-13,-0.64037,0,0,0.33333,-0,-0,0.66667
0.5157,0.56419,1.5471,0.096291,0.79294,9.1451,-0.39726,0.13242,-1.9683,-0.52968,4.0107e-14,-0.98415,0,0,0.33333,-1.579e-15,0,0.66667
0.88736,0.49583,2.6621,-0.0062554,-0.012304,0.91833,0.044407,-0.014802,-2.0002,0.059209,-6.7784e-09,-1.0001,0,0,0.33333,-0,-0,0.66667
0.9551,0.1493,2.8653,-0.52605,-0.39826,0.61473,4.0195,-1.3398,-1.0162,5.3593,-2.327e-08,-0.50809,0,0,0.33333,7.8949e-16,0,0.66667
0.25568,0.73144,0.76703,0.34715,3.7344,18.201,-0.71007,0.23669,-1.5708,-0.94676,-1.1102e-10,-0.7854,0,0,0.33333,-0,-0,0.66667
0.23367,0.23431,0.701,-0.39854,-4.3545,19.048,0.74499,-0.24833,-1.4351,0.99332,1.7965e-10,-0.71753,0,0,0.33333,-3.9475e-16,0,0.66667
0.070154,0.19109,0.21046,-0.46336,-5.3658,25.451,0.26005,-0.086684,-1.2368,0.34674,-1.926e-08,-0.61841,0,0,0.33333,1.9737e-16,0,0.66667
0.2597,0.13872,0.7791,-0.54193,-5.9134,18.109,1.1259,-0.3753,-0.95505,1.5012,6.6261e-11,-0.47752,0,0,0.33333,-0,-0,0.66667
0.17421,0.29027,0.52264,-0.31459,-3.5093,21.324,0.43844,-0.14615,-1.648,0.58459,1.6182e-10,-0.82399,0,0,0.33333,-0,-0,0.66667
0.027562,0.31251,0.082687,-0.28124,-3.2313,27.144,0.062014,-0.020671,-1.7199,0.082685,-2.3843e-08,-0.85993,0,0,0.33333,9.8686e-17,0,0.66667
0.17447,0.00024811,0.52341,-0.74963,-8.7213,21.422,1.0463,-0.34877,-0.0031525,1.3951,-1.9912e-10,-0.0015762,0,0,0.33333,-0,-0,0.66667
0.78046,0.34589,2.3414,-0.23116,-0.96226,2.5969,1.4433,-0.48109,-1.8111,1.9244,-1.3585e-10,-0.90553,0,0,0.33333,-0,-0,0.66667
0.92026,0.96037,2.7608,0.69055,1.2075,1.1468,-5.0839,1.6946,-0.30452,-6.7785,4.8407e-08,-0.15226,0,0,0.33333,-7.8949e-16,0,0.66667
0.72159,0.58927,2.1648,0.1339,0.69456,3.732,-0.77298,0.25766,-1.9366,-1.0306,3.846e-11,-0.9683,0,0,0.33333,-1.1842e-15,0,0.66667
0.29842,0.88849,0.89526,0.58273,6.2353,16.693,-1.3912,0.46373,-0.79231,-1.8549,-1.3401e-11,-0.39616,0,0,0.33333,-0,-0,0.66667
0.63146,0.25681,1.8944,-0.36478,-2.4695,5.9673,1.8428,-0.61426,-1.5266,2.457,-6.0001e-12,-0.76331,0,0,0.33333,1.579e-15,0,0.66667
0.77018,0.0001895,2.3106,-0.74972,-3.6596,3.3096,4.6194,-1.5398,-0.0024967,6.1591,3.4508e-11,-0.0012483,0,0,0.33333,-0,-0,0.66667
0.4425,0.25967,1.3275,-0.3605,-3.3172,11.556,1.2762,-0.42539,-1.5375,1.7016,-6.8778e-13,-0.76873,0,0,0.33333,-0,-0,0.66667
0.61945,0.28477,1.8583,-0.32285,-2.2342,6.2557,1.5999,-0.53329,-1.6297,2.1332,-4.3601e-12,-0.81484,0,0,0.33333,-1.579e-15,0,0.66667
0.57375,0.57005,1.7212,0.10507,0.7857,7.4315,-0.48227,0.16076,-1.9605,-0.64303,5.4057e-13,-0.98027,0,0,0.33333,-0,-0,0.66667
0.90274,0.61167,2.7082,0.16751,0.27914,0.77661,-1.2097,0.40324,-1.8997,-1.613,-5.5624e-09,-0.94984,0,0,0.33333,1.579e-15,0,0.66667
0.75239,0.17289,2.2572,-0.49067,-2.3911,3.3189,2.9534,-0.98446,-1.1435,3.9378,-1.2048e-10,-0.57177,0,0,0.33333,-0,-0,0.66667
0.26495,0.048723,0.79486,-0.67692,-7.4795,17.971,1.4348,-0.47827,-0.37061,1.9131,7.2722e-12,-0.18531,0,0,0.33333,3.9475e-16,0,0.66667
0.22937,0.136,0.6881,-0.546,-6.0576,19.254,1.0019,-0.33396,-0.93946,1.3358,1.5144e-10,-0.46973,0,0,0.33333,-0,-0,0.66667
0.6936,0.33972,2.0808,-0.24042,-1.3712,4.3901,1.334,-0.44468,-1.7947,1.7787,-3.5913e-11,-0.89733,0,0,0.33333,-0,-0,0.66667
0.23301,0.65629,0.69904,0.23443,2.537,19.04,-0.437,0.14567,-1.806,-0.58267,-1.0391e-10,-0.90299,0,0,0.33333,-7.8949e-16,0,0.66667
0.62193,0.28459,1.8658,-0.32311,-2.2241,6.1907,1.6076,-0.53586,-1.6293,2.1435,-4.9086e-12,-0.81466,0,0,0.33333,-0,-0,0.66667
0.25494,0.67987,0.76481,0.26981,2.8903,18.212,-0.55028,0.18343,-1.7409,-0.7337,-9.6179e-11,-0.87045,0,0,0.33333,-0,-0,0.66667
0.92042,0.50062,2.7613,0.00092674,0.001158,0.56016,-0.0068239,0.0022748,-2.0012,-0.0090985,2.1614e-07,-1.0006,0,0,0.33333,-0,-0,0.66667
0.30256,0.49417,0.90767,-0.0087448,-0.090226,16.404,0.021166,-0.0070554,-1.9996,0.028222,1.4579e-12,-0.99982,0,0,0.33333,5.9212e-16,0,0.66667
0.84854,0.45807,2.5456,-0.062901,-0.17489,1.4323,0.427,-0.14233,-1.9854,0.56933,-1.0356e-09,-0.9927,0,0,0.33333,-0,-0,0.66667
0.22971,0.052843,0.68913,-0.67074,-7.5458,19.287,1.2326,-0.41086,-0.39996,1.6435,2.6925e-11,-0.19998,0,0,0.33333,-0,-3.7696e-17,0.66667
0.5721,0.47714,1.7163,-0.034287,-0.25682,7.4709,0.15692,-0.052307,-1.9954,0.20923,-1.5463e-13,-0.99771,0,0,0.33333,-0,-0,0.66667
0.1889,0.92066,0.56671,0.631,7.1942,20.828,-0.95357,0.31786,-0.58402,-1.2714,-2.496e-10,-0.29201,0,0,0.33333,3.9475e-16,0,0.66667
0.42001,0.78668,1.26,0.43001,4.0815,12.337,-1.4449,0.48163,-1.3429,-1.9265,7.2187e-13,-0.67144,0,0,0.33333,-0,-0,0.66667
0.37624,0.11005,1.1287,-0.58493,-5.8919,13.917,1.7606,-0.58686,-0.7832,2.3475,-3.8969e-13,-0.3916,0,0,0.33333,-7.8949e-16,0,0.66667
0.039037,0.31379,0.11711,-0.27932,-3.2064,26.684,0.087229,-0.029076,-1.7232,0.11631,2.5319e-08,-0.86161,0,0,0.33333,-9.8686e-17,0,0.66667
0.12795,0.87577,0.38385,0.56366,6.5101,23.179,-0.57696,0.19232,-0.87137,-0.76928,-4.1309e-09,-0.43569,0,0,0.33333,3.9475e-16,0,0.66667
0.75376,0.24184,2.2613,-0.38724,-1.841,3.2009,2.3351,-0.77836,-1.4666,3.1134,-1.3861e-10,-0.73331,0,0,0.33333,-0,-0,0.66667
0.41261,0.29163,1.2378,-0.31256,-2.9615,12.539,1.0317,-0.34391,-1.652,1.3756,8.552e-13,-0.82602,0,0,0.33333,-0,-0,0.66667
0.80409,0.41005,2.4123,-0.13493,-0.49611,2.1437,0.86794,-0.28931,-1.9354,1.1573,-2.8324e-11,-0.96772,0,0,0.33333,3.158e-15,0,0.66667
0.6699,0.66664,2.0097,0.24996,1.5238,4.9499,-1.3396,0.44652,-1.7776,-1.7861,2.1511e-11,-0.88882,0,0,0.33333,-0,-0,0.66667
0.38282,0.14763,1.1485,-0.52855,-5.2579,13.657,1.6187,-0.53958,-1.0062,2.1583,-1.5066e-13,-0.50311,0,0,0.33333,-0,-0,0.66667
0.49483,0.50932,1.4845,0.013973,0.11846,9.7871,-0.055313,0.018438,-1.9989,-0.073751,1.469e-13,-0.99943,0,0,0.33333,-0,-0,0.66667
0.95056,0.12666,2.8517,-0.56,-0.50357,0.69416,4.2585,-1.4195,-0.88585,5.678,3.4171e-08,-0.44292,0,0,0.33333,-0,-0,0.66667
0.94795,0.81977,2.8438,0.47965,0.41826,0.60787,-3.6375,1.2125,-1.1817,-4.85,-1.2561e-08,-0.59087,0,0,0.33333,-0,-0,0.66667
0.48498,0.57913,1.4549,0.1187,1.0218,10.107,-0.46053,0.15351,-1.9497,-0.61404,4.6019e-14,-0.97486,0,0,0.33333,-0,-0,0.66667
0.71243,0.94193,2.1373,0.66289,3.8326,4.3312,-3.7781,1.2594,-0.43769,-5.0375,4.1196e-12,-0.21885,0,0,0.33333,-1.579e-15,0,0.66667
0.74983,0.30181,2.2495,-0.29728,-1.4154,3.2168,1.7833,-0.59442,-1.6858,2.3777,-1.1117e-10,-0.84292,0,0,0.33333,-7.8949e-16,0,0.66667
0.5106,0.31647,1.5318,-0.2753,-2.3034,9.3474,1.1245,-0.37485,-1.7308,1.4994,3.2685e-13,-0.86538,0,0,0.33333,-1.579e-15,0,0.66667
0.44701,0.71743,1.341,0.32615,2.9775,11.393,-1.1663,0.38878,-1.6224,-1.5551,5.5889e-13,-0.81122,0,0,0.33333,-8.8818e-16,0,0.66667
0.76902,0.19985,2.3071,-0.45023,-2.0396,2.9623,2.7699,-0.9233,-1.2788,3.6932,-1.919e-10,-0.63938,0,0,0.33333,-0,-0,0.66667
0.41563,0.8541,1.2469,0.53114,5.1183,12.539,-1.7661,0.58869,-0.99634,-2.3548,1.0821e-12,-0.49817,0,0,0.33333,7.8949e-16,0,0.66667
0.50009,0.39768,1.5003,-0.15349,-1.2954,9.6379,0.61405,-0.20468,-1.9165,0.81874,-2.1094e-14,-0.95824,0,0,0.33333,7.8949e-16,0,0.66667
0.08748,0.21866,0.26244,-0.42201,-4.8571,24.758,0.29534,-0.098445,-1.3677,0.39378,-6.4088e-09,-0.68385,0,0,0.33333,2.6137e-16,0,0.66667
0.90434,0.31461,2.713,-0.27809,-0.46802,0.81877,2.0119,-0.67063,-1.7259,2.6825,3.5e-09,-0.86296,0,0,0.33333,-0,-0,0.66667
0.45473,0.95554,1.3642,0.68331,6.4365,11.359,-2.4858,0.82859,-0.33956,-3.3143,1.7364e-13,-0.16978,0,0,0.33333,-0,-0,0.66667
0.59906,0.65771,1.7972,0.23657,1.6958,6.7625,-1.1337,0.37792,-1.8017,-1.5117,2.2481e-12,-0.90084,0,0,0.33333,-0,-0,0.66667
0.070556,0.64267,0.21167,0.21401,2.4406,25.419,-0.1208,0.040265,-1.8364,-0.16106,-1.2376e-08,-0.91819,0,0,0.33333,-0,-0,0.66667
0.52944,0.98419,1.5883,0.72629,6.2461,9.0933,-3.0762,1.0254,-0.12409,-4.1016,-4.5519e-14,-0.062044,0,0,0.33333,7.8949e-16,0,0.66667
0.22131,0.21307,0.66394,-0.43039,-4.7434,19.527,0.76201,-0.254,-1.3416,1.016,2.3647e-10,-0.67079,0,0,0.33333,1.9737e-16,0,0.66667
0.38519,0.50439,1.1556,0.0065848,0.063448,13.432,-0.020291,0.0067637,-2,-0.027055,-9.4116e-14,-0.99999,0,0,0.33333,-0,-0,0.66667
0.56,0.28796,1.68,-0.31806,-2.4677,7.893,1.4249,-0.47497,-1.6404,1.8999,4.4287e-13,-0.82019,0,0,0.33333,-0,-0,0.66667
0.81503,0.43318,2.4451,-0.10022,-0.34634,1.9527,0.65348,-0.21783,-1.9647,0.8713,1.1966e-10,-0.98235,0,0,0.33333,-7.8949e-16,0,0.66667
0.26284,0.84909,0.78853,0.52364,5.693,17.985,-1.1011,0.36702,-1.0253,-1.4681,-6.9881e-11,-0.51266,0,0,0.33333,-0,-0,0.66667
0.72782,0.47373,2.1834,-0.039407,-0.19947,3.5834,0.22945,-0.076482,-1.9945,0.30593,-1.3156e-11,-0.99724,0,0,0.33333,-0,-0,0.66667
0.49204,0.3654,1.4761,-0.2019,-1.727,9.9015,0.79476,-0.26492,-1.8545,1.0597,1.4044e-14,-0.92725,0,0,0.33333,-7.8949e-16,0,0.66667
0.30424,0.35736,0.91273,-0.21396,-2.2152,16.361,0.52077,-0.17359,-1.8364,0.69437,3.4869e-11,-0.91822,0,0,0.33333,-0,-0,0.66667
0.29041,0.19412,0.87122,-0.45881,-4.8739,16.936,1.0659,-0.35531,-1.2513,1.4213,4.4351e-11,-0.62565,0,0,0.33333,-0,-0,0.66667
0.2411,0.039655,0.72331,-0.69052,-7.7432,18.867,1.3319,-0.44396,-0.30423,1.7758,1.0463e-11,-0.15211,0,0,0.33333,-0,-0,0.66667
0.073163,0.15515,0.21949,-0.51727,-6.0158,25.336,0.30276,-0.10092,-1.0494,0.40368,3.3634e-08,-0.5247,0,0,0.33333,9.8686e-17,0,0.66667
0.58112,0.341,1.7434,-0.2385,-1.7705,7.259,1.1088,-0.36959,-1.7984,1.4784,-8.8207e-13,-0.89919,0,0,0.33333,-0,-0,0.66667
0.62494,0.43467,1.8748,-0.097991,-0.66046,6.033,0.48991,-0.1633,-1.9669,0.65321,-3.6841e-12,-0.98346,0,0,0.33333,1.9737e-16,0,0.66667
0.23524,0.52149,0.70573,0.03224,0.3467,18.938,-0.060674,0.020225,-1.9963,-0.080898,-1.5303e-11,-0.99816,0,0,0.33333,-0,-0,0.66667
0.56429,0.40065,1.6929,-0.14902,-1.1353,7.7101,0.67273,-0.22424,-1.9214,0.89697,-3.2802e-13,-0.96068,0,0,0.33333,1.1842e-15,0,0.66667
0.8726,0.7893,2.6178,0.43395,1.0739,1.3201,-3.0293,1.0098,-1.3304,-4.0391,1.7788e-10,-0.66519,0,0,0.33333,-0,-0,0.66667
0.80766,0.36148,2.423,-0.20778,-0.755,2.1104,1.3425,-0.4475,-1.8458,1.79,-1.4061e-10,-0.92291,0,0,0.33333,-0,-0,0.66667
0.40735,0.52843,1.222,0.042652,0.4021,12.666,-0.13899,0.046331,-1.9944,-0.18533,-5.5175e-13,-0.9972,0,0,0.33333,-3.9475e-16,0,0.66667
0.49622,0.41891,1.4887,-0.12163,-1.0311,9.753,0.48284,-0.16095,-1.9468,0.64379,4.6879e-14,-0.97342,0,0,0.33333,-7.8949e-16,0,0.66667
0.70639,0.042664,2.1192,-0.686,-4.059,4.4908,3.8767,-1.2922,-0.32631,5.1689,-1.9542e-12,-0.16315,0,0,0.33333,-0,-0,0.66667
0.57792,0.82615,1.7338,0.48922,3.746,7.4893,-2.2619,0.75395,-1.1489,-3.0158,-1.0916e-12,-0.57446,0,0,0.33333,-7.8949e-16,-7.5298e-17,0.66667
0.75469,0.004817,2.2641,-0.74277,-3.8284,3.587,4.4845,-1.4948,-0.038471,5.9793,-9.3032e-12,-0.019236,0,0,0.33333,-0,-0,0.66667
0.95016,0.2406,2.8505,-0.3891,-0.28796,0.49158,2.9577,-0.98589,-1.4614,3.9436,5.6554e-09,-0.73071,0,0,0.33333,-7.8949e-16,0,0.66667
0.17702,0.42636,0.53107,-0.11047,-1.221,21.194,0.15644,-0.052147,-1.956,0.20859,2.7678e-11,-0.97801,0,0,0.33333,-1.9737e-16,0,0.66667
0.78926,0.94083,2.3678,0.66124,2.9061,2.8423,-4.1751,1.3917,-0.44562,-5.5668,9.1743e-11,-0.22281,0,0,0.33333,-0,-0,0.66667
0.33497,0.19395,1.0049,-0.45907,-4.7233,15.313,1.2302,-0.41006,-1.2505,1.6403,1.1836e-11,-0.62523,0,0,0.33333,-0,-0,0.66667
0.56378,0.40497,1.6914,-0.14254,-1.0867,7.7234,0.64289,-0.2143,-1.9289,0.85719,-2.3548e-13,-0.96445,0,0,0.33333,-3.9475e-16,0,0.66667
0.20689,0.20808,0.62067,-0.43789,-4.8614,20.082,0.72475,-0.24158,-1.3178,0.96634,3.2947e-10,-0.6589,0,0,0.33333,-0,-0,0.66667
0.74097,0.045532,2.2229,-0.6817,-3.6199,3.7669,4.041,-1.347,-0.34689,5.388,-8.7184e-12,-0.17345,0,0,0.33333,1.579e-15,0,0.66667
0.98,0.51363,2.94,0.020449,-0.0022055,0.099835,-0.16033,0.053442,-1.9979,-0.21377,1.3631e-08,-0.99893,0,0,0.33333,3.158e-15,0,0.66667
0.83333,0.19865,2.5,-0.45203,-1.4896,1.8798,3.0135,-1.0045,-1.2729,4.018,-5.7292e-10,-0.63645,0,0,0.33333,-0,-0,0.66667
0.62051,0.48939,1.8615,-0.015914,-0.10816,6.1417,0.078999,-0.026333,-1.9986,0.10533,-5.9704e-13,-0.9993,0,0,0.33333,7.8949e-16,0,0.66667
0.49211,0.53688,1.4763,0.055317,0.47096,9.8748,-0.21778,0.072592,-1.989,-0.29037,-2.4078e-14,-0.9945,0,0,0.33333,-0,-0,0.66667
0.52358,0.46563,1.5707,-0.051553,-0.41911,8.9003,0.21594,-0.071978,-1.9908,0.28791,-1.5571e-14,-0.99542,0,0,0.33333,9.8686e-16,0,0.66667
0.93153,0.69868,2.7946,0.29802,0.32653,0.56619,-2.2209,0.7403,-1.6836,-2.9612,6.8264e-09,-0.84179,0,0,0.33333,1.579e-15,0,0.66667
0.15835,0.40239,0.47504,-0.14642,-1.6308,21.929,0.18548,-0.061828,-1.9243,0.24731,3.9291e-10,-0.96216,0,0,0.33333,-0,-0,0.66667
0.59051,0.34256,1.7715,-0.23616,-1.7217,6.9969,1.1157,-0.37189,-1.8026,1.4875,-1.5707e-12,-0.90129,0,0,0.33333,1.0856e-15,0,0.66667
0.63801,0.24598,1.914,-0.38104,-2.5463,5.8102,1.9448,-0.64828,-1.4842,2.5931,-7.1253e-12,-0.74211,0,0,0.33333,1.9737e-16,0,0.66667
0.90792,0.27379,2.7238,-0.33932,-0.55788,0.82654,2.4646,-0.82153,-1.5907,3.2861,-4.4031e-10,-0.79537,0,0,0.33333,7.8949e-16,0,0.66667
0.2694,0.3406,0.80819,-0.2391,-2.5357,17.662,0.51531,-0.17177,-1.7972,0.68707,7.0483e-11,-0.8986,0,0,0.33333,-0,-0,0.66667
0.71075,0.50843,2.1323,0.012651,0.067741,3.951,-0.071935,0.023978,-1.999,-0.095914,3.4578e-12,-0.99949,0,0,0.33333,3.158e-15,0,0.66667
0.35033,0.7624,1.051,0.3936,3.9771,14.738,-1.1031,0.3677,-1.4485,-1.4708,-1.0098e-11,-0.72423,0,0,0.33333,-0,-0,0.66667
0.36439,0.96919,1.0932,0.70378,7.275,14.405,-2.0516,0.68386,-0.23979,-2.7354,1.7875e-13,-0.1199,0,0,0.33333,-0,-0,0.66667
0.081405,0.23915,0.24422,-0.39128,-4.4981,24.997,0.25482,-0.08494,-1.4552,0.33976,-3.7889e-09,-0.72762,0,0,0.33333,-0,-0,0.66667
0.3283,0.55945,0.98491,0.08917,0.90343,15.464,-0.2342,0.078066,-1.9727,-0.31226,-1.059e-11,-0.98636,0,0,0.33333,-0,-0,0.66667
0.32443,0.42529,0.97329,-0.11206,-1.1393,15.607,0.29085,-0.096949,-1.9548,0.3878,1.4111e-11,-0.97741,0,0,0.33333,-0,-0,0.66667
0.029581,0.22891,0.088742,-0.40663,-4.7078,27.066,0.096227,-0.032076,-1.4119,0.1283,1.6964e-09,-0.70597,0,0,0.33333,-4.9343e-17,0,0.66667
0.54957,0.33671,1.6487,-0.24494,-1.9239,8.1657,1.0769,-0.35896,-1.7867,1.4359,2.8522e-13,-0.89335,0,0,0.33333,-3.9475e-16,0,0.66667
0.70674,0.3877,2.1202,-0.16844,-0.9184,4.0664,0.95237,-0.31746,-1.8986,1.2698,-3.6002e-11,-0.94929,0,0,0.33333,-0,-0,0.66667
0.4985,0.88039,1.4955,0.57059,5.0053,9.8883,-2.2755,0.7585,-0.84282,-3.034,-1.9984e-14,-0.42141,0,0,0.33333,-0,-4.9571e-16,0.66667
0.5273,0.29545,1.5819,-0.30682,-2.5091,8.8516,1.2943,-0.43144,-1.6647,1.7257,4.4564e-13,-0.83233,0,0,0.33333,7.8949e-16,0,0.66667
0.10581,0.53832,0.31744,0.057485,0.64875,24.006,-0.048662,0.016221,-1.9882,-0.064883,2.2923e-08,-0.99408,0,0,0.33333,-0,-0,0.66667
0.68474,0.87934,2.0542,0.56901,3.4857,4.8374,-3.117,1.039,-0.84919,-4.156,8.3862e-12,-0.42459,0,0,0.33333,1.579e-15,7.618e-18,0.66667
0.47114,0.11289,1.4134,-0.58066,-5.2855,10.753,2.1886,-0.72953,-0.80081,2.9181,-4.1522e-13,-0.4004,0,0,0.33333,-7.8949e-16,0,0.66667
0.22927,0.8793,0.68781,0.56895,6.3277,19.265,-1.0436,0.34785,-0.84921,-1.3914,-1.275e-10,-0.4246,0,0,0.33333,-7.8949e-16,0,0.66667
0.85572,0.85186,2.5672,0.52778,1.5403,1.6444,-3.6131,1.2044,-1.0094,-4.8175,1.9118e-09,-0.50468,0,0,0.33333,1.579e-15,0,0.66667
0.56519,0.76802,1.6956,0.40204,3.1162,7.7894,-1.8178,0.60594,-1.4248,-2.4238,-8.5698e-13,-0.71242,0,0,0.33333,-7.8949e-16,0,0.66667
0.99916,0.89649,2.9975,0.59473,-0.11683,0.47479,-4.7538,1.5846,-0.74241,-6.3384,-9.5658e-07,-0.3712,0,0,0.33333,1.579e-15,0,0.66667
0.077097,0.31797,0.23129,-0.27304,-3.1189,25.16,0.16841,-0.056135,-1.7354,0.22454,7.9218e-09,-0.86769,0,0,0.33333,-0,-0,0.66667
0.515,0.17398,1.545,-0.48903,-4.148,9.3245,2.0148,-0.67161,-1.1495,2.6864,4.4675e-13,-0.57476,0,0,0.33333,-7.8949e-16,7.3915e-17,0.66667
0.30396,0.20562,0.91187,-0.44158,-4.6411,16.432,1.0738,-0.35792,-1.3059,1.4317,3.2994e-11,-0.65297,0,0,0.33333,-0,-0,0.66667
0.86161,0.78636,2.5848,0.42953,1.1595,1.4578,-2.9607,0.98691,-1.3443,-3.9476,1.0801e-09,-0.67217,0,0,0.33333,-0,-0,0.66667
0.16178,0.44413,0.48533,-0.083803,-0.93105,21.791,0.10846,-0.036153,-1.9748,0.14461,1.8367e-10,-0.98742,0,0,0.33333,-0,-0,0.66667
0.0013843,0.43984,0.0041528,-0.090236,-1.031,28.194,0.00099813,-0.00033706,-1.972,0.0013287,-6.5342e-06,-0.98598,0,0,0.33333,-0,-0,0.66667
0.44299,0.16485,1.329,-0.50272,-4.6873,11.612,1.7816,-0.59386,-1.101,2.3755,-9.8677e-13,-0.5505,0,0,0.33333,-0,-0,0.66667
0.67716,0.99973,2.0315,0.7496,4.8701,5.2278,-4.0608,1.3536,-0.0030476,-5.4144,-7.3719e-14,-0.0015238,0,0,0.33333,-2.5412e-15,0,0.66667
0.96791,0.35873,2.9037,-0.2119,-0.046848,0.23102,1.6408,-0.54694,-1.8401,2.1877,-3.0067e-08,-0.92006,0,0,0.33333,1.579e-15,0,0.66667
0.62011,0.12849,1.8603,-0.55726,-3.9701,6.4087,2.7645,-0.9215,-0.89618,3.686,5.0271e-13,-0.44809,0,0,0.33333,-1.579e-15,0,0.66667
0.19035,0.92635,0.57106,0.63953,7.2945,20.775,-0.9739,0.32463,-0.5454,-1.2985,-2.2549e-10,-0.2727,0,0,0.33333,-0,-0,0.66667
0.36217,0.29186,1.0865,-0.31221,-3.1045,14.29,0.90459,-0.30153,-1.6531,1.2061,8.8959e-12,-0.82654,0,0,0.33333,-7.8949e-16,0,0.66667
0.78006,0.16497,2.3402,-0.50254,-2.1995,2.8113,3.1361,-1.0454,-1.1021,4.1815,-2.3738e-10,-0.55105,0,0,0.33333,-0,-0,0.66667
0.32974,0.15921,0.98923,-0.51119,-5.3076,15.523,1.3485,-0.4495,-1.0717,1.798,9.4872e-12,-0.53583,0,0,0.33333,-0,-0,0.66667
0.16424,0.31847,0.49273,-0.27229,-3.0415,21.709,0.35778,-0.11926,-1.7362,0.47704,1.7094e-10,-0.86811,0,0,0.33333,-0,-0,0.66667
0.28507,0.99317,0.85521,0.73975,8.1439,17.262,-1.687,0.56235,-0.054217,-2.2494,1.9618e-13,-0.027108,0,0,0.33333,-3.9475e-16,0,0.66667
0.04034,0.82931,0.12102,0.49397,5.7549,26.64,-0.15942,0.053139,-1.1316,-0.21256,-2.4214e-08,-0.56582,0,0,0.33333,-4.9343e-17,0,0.66667
0.75512,0.97231,2.2654,0.70847,3.6095,3.5287,-4.2798,1.4266,-0.21566,-5.7064,7.5451e-13,-0.10783,0,0,0.33333,-0,-0,0.66667
0.28529,0.94636,0.85586,0.66953,7.3012,17.216,-1.5281,0.50936,-0.40581,-2.0374,-4.2505e-12,-0.20291,0,0,0.33333,-0,-0,0.66667
0.7645,0.31156,2.2935,-0.28265,-1.268,2.9222,1.7287,-0.57624,-1.7172,2.3049,-1.336e-10,-0.85858,0,0,0.33333,-1.9737e-15,0,0.66667
0.84257,0.63037,2.5277,0.19556,0.5744,1.5574,-1.3182,0.4394,-1.8645,-1.7576,-2.2881e-10,-0.93224,0,0,0.33333,3.158e-15,0,0.66667
0.45502,0.68833,1.3651,0.28249,2.5466,11.114,-1.0283,0.34277,-1.7174,-1.3711,4.1678e-13,-0.8587,0,0,0.33333,-0,-0,0.66667
0.85839,0.65863,2.5752,0.23794,0.62659,1.3545,-1.634,0.54466,-1.7997,-2.1786,-8.2825e-10,-0.89984,0,0,0.33333,-0,-0,0.66667
0.99143,0.94876,2.9743,0.67314,0.061483,0.63803,-5.3389,1.7796,-0.38826,-7.1186,-4.1521e-08,-0.19413,0,0,0.33333,-0,-0,0.66667
0.94175,0.82043,2.8253,0.48064,0.48711,0.6574,-3.6211,1.207,-1.1784,-4.8282,-1.1861e-09,-0.58919,0,0,0.33333,-0,-0,0.66667
0.97927,0.49542,2.9378,-0.0068697,0.00062995,0.10351,0.053821,-0.01794,-2,0.071761,7.9749e-08,-0.99998,0,0,0.33333,2.3685e-15,0,0.66667
0.95065,0.89175,2.852,0.58762,0.54639,0.73362,-4.469,1.4897,-0.7718,-5.9587,-7.466e-08,-0.3859,0,0,0.33333,-1.579e-15,0,0.66667
0.96389,0.84945,2.8917,0.52417,0.28969,0.55298,-4.042,1.3473,-1.0231,-5.3893,-1.8981e-08,-0.51153,0,0,0.33333,-0,-0,0.66667
0.69794,0.65299,2.0938,0.22948,1.291,4.2868,-1.2813,0.4271,-1.8131,-1.7084,3.807e-11,-0.90655,0,0,0.33333,1.1842e-15,0,0.66667
0.15618,0.43843,0.46855,-0.092353,-1.0282,22.011,0.11539,-0.038464,-1.9711,0.15386,-1.0569e-09,-0.98555,0,0,0.33333,-0,-0,0.66667
0.64676,0.28654,1.9403,-0.32019,-2.0823,5.5528,1.6567,-0.55223,-1.6354,2.2089,-1.1497e-11,-0.81772,0,0,0.33333,-0,-0,0.66667
0.99073,0.98547,2.9722,0.7282,0.13699,0.74298,-5.7716,1.9239,-0.11381,-7.6954,-2.7455e-06,-0.056904,0,0,0.33333,1.579e-15,0,0.66667
0.24429,0.35672,0.73287,-0.21492,-2.31,18.607,0.42001,-0.14,-1.8351,0.56002,9.1807e-11,-0.91753,0,0,0.33333,-0,-0,0.66667
0.68176,0.52694,2.0453,0.040405,0.236,4.6131,-0.22037,0.073458,-1.9943,-0.29383,5.9451e-12,-0.99716,0,0,0.33333,-0,-0,0.66667
0.12926,0.94433,0.38779,0.66649,7.7825,23.15,-0.68921,0.22974,-0.42046,-0.91895,-2.2356e-09,-0.21023,0,0,0.33333,3.9475e-16,0,0.66667
0.99818,0.4018,2.9946,-0.1473,0.076199,0.036715,1.1763,-0.39208,-1.9233,1.5683,-1.3601e-06,-0.96167,0,0,0.33333,3.9475e-16,0,0.66667
0.41986,0.3835,1.2596,-0.17476,-1.631,12.256,0.58698,-0.19566,-1.8914,0.78265,1.0053e-12,-0.94568,0,0,0.33333,-7.8949e-16,0,0.66667
0.35068,0.69955,1.052,0.29933,3.0034,14.695,-0.83974,0.27991,-1.6807,-1.1197,-1.2799e-11,-0.84036,0,0,0.33333,-0,-0,0.66667
0.20659,0.19178,0.61977,-0.46233,-5.144,20.099,0.7641,-0.2547,-1.2403,1.0188,3.4064e-10,-0.62016,0,0,0.33333,-0,-0,0.66667
0.85016,0.0082616,2.5505,-0.73761,-2.4398,2.0215,5.0167,-1.6722,-0.065136,6.6889,-2.5603e-09,-0.032568,0,0,0.33333,3.158e-15,0,0.66667
0.6124,0.82578,1.8372,0.48866,3.5007,6.5518,-2.3941,0.79803,-1.1505,-3.1921,0,-0.57523,0,0,0.33333,1.579e-15,0,0.66667
0.57534,0.67458,1.726,0.26187,1.9681,7.4306,-1.2053,0.40177,-1.7557,-1.6071,3.1641e-13,-0.87786,0,0,0.33333,-0,-0,0.66667
0.24805,0.19061,0.74414,-0.46409,-5.0594,18.52,0.92093,-0.30698,-1.2349,1.2279,1.3106e-10,-0.61745,0,0,0.33333,-0,-0,0.66667
0.13351,0.054195,0.40052,-0.66871,-7.8015,22.984,0.71422,-0.23807,-0.40963,0.95229,-4.1858e-10,-0.20481,0,0,0.33333,-0,-0,0.66667
0.064967,0.69842,0.1949,0.29763,3.4102,25.646,-0.15469,0.051562,-1.6847,-0.20625,-2.6459e-09,-0.84236,0,0,0.33333,-0,-0,0.66667
0.60725,0.31245,1.8218,-0.28132,-1.99,6.5593,1.3667,-0.45556,-1.7199,1.8222,-3.0126e-12,-0.85994,0,0,0.33333,-9.5877e-17,0,0.66667
0.72959,0.57936,2.1888,0.11904,0.60041,3.5581,-0.69482,0.23161,-1.9489,-0.92642,3.8012e-11,-0.97446,0,0,0.33333,-0,-0,0.66667
0.4249,0.43766,1.2747,-0.093517,-0.86589,12.073,0.31788,-0.10596,-1.97,0.42384,5.4609e-13,-0.98502,0,0,0.33333,-1.579e-15,0,0.66667
0.099,0.91922,0.297,0.62883,7.3631,24.329,-0.49803,0.16601,-0.59333,-0.66405,-2.2979e-09,-0.29667,0,0,0.33333,-0,-0,0.66667
0.089276,0.6007,0.26783,0.15104,1.7135,24.668,-0.10788,0.035959,-1.9187,-0.14383,-3.4948e-08,-0.95937,0,0,0.33333,-0,-0,0.66667
0.52952,0.48026,1.5886,-0.029606,-0.23842,8.7191,0.12542,-0.041805,-1.9966,0.16722,1.2121e-13,-0.99832,0,0,0.33333,-0,-0,0.66667
0.33597,0.25846,1.0079,-0.36231,-3.6949,15.241,0.97379,-0.3246,-1.5328,1.2984,1.7447e-11,-0.76641,0,0,0.33333,-7.8949e-16,0,0.66667
0.6614,0.58679,1.9842,0.13019,0.80523,5.1156,-0.68887,0.22962,-1.9395,-0.91849,1.1611e-11,-0.96977,0,0,0.33333,7.8949e-16,0,0.66667
0.9539,0.7147,2.8617,0.32206,0.19491,0.4032,-2.4577,0.81922,-1.6319,-3.2769,-5.9504e-09,-0.81597,0,0,0.33333,7.8949e-16,0,0.66667
0.048989,0.1339,0.14697,-0.54915,-6.4253,26.299,0.21522,-0.071739,-0.92768,0.28696,-1.1519e-08,-0.46384,0,0,0.33333,-0,-0,0.66667
0.12125,0.59496,0.36375,0.14244,1.6041,23.394,-0.13817,0.046057,-1.9287,-0.18423,-9.7618e-09,-0.96435,0,0,0.33333,-0,-0,0.66667
0.60823,0.069076,1.8247,-0.64639,-4.7901,6.8077,3.1452,-1.0484,-0.51473,4.1936,6.1173e-13,-0.25736,0,0,0.33333,1.579e-15,-2.6235e-16,0.66667
0.29619,0.84512,0.88858,0.51768,5.509,16.746,-1.2267,0.40889,-1.0484,-1.6355,-2.7311e-11,-0.52419,0,0,0.33333,-0,4.2701e-16,0.66667
0.71874,0.77776,2.1562,0.41664,2.2489,3.9425,-2.3957,0.79856,-1.3837,-3.1942,6.369e-11,-0.69187,0,0,0.33333,7.8949e-16,0,0.66667
0.48481,0.8088,1.4544,0.4632,4.0847,10.242,-1.7965,0.59884,-1.238,-2.3953,2.5724e-13,-0.61899,0,0,0.33333,-0,-0,0.66667
0.95416,0.90269,2.8625,0.60404,0.52548,0.73348,-4.6108,1.5369,-0.70348,-6.1477,2.6863e-07,-0.35174,0,0,0.33333,-1.579e-15,0,0.66667
0.35878,0.25036,1.0763,-0.37446,-3.7511,14.43,1.0748,-0.35826,-1.5029,1.433,8.4326e-12,-0.75144,0,0,0.33333,-1.579e-15,0,0.66667
0.72512,0.76654,2.1754,0.39981,2.1081,3.7936,-2.3193,0.77309,-1.4309,-3.0924,7.4899e-11,-0.71544,0,0,0.33333,-0,-0,0.66667
0.59297,0.27261,1.7789,-0.34108,-2.496,6.977,1.618,-0.53933,-1.5865,2.1573,-8.4799e-13,-0.79324,0,0,0.33333,-0,-0,0.66667
0.70173,0.86943,2.1052,0.55415,3.2285,4.4393,-3.1109,1.037,-0.90854,-4.1479,1.8313e-11,-0.45427,0,0,0.33333,-3.9475e-16,0,0.66667
0.28609,0.64282,0.85826,0.21423,2.2456,17.034,-0.49032,0.16344,-1.8361,-0.65375,-4.9133e-11,-0.91807,0,0,0.33333,-3.9475e-16,0,0.66667
0.55036,0.0073181,1.6511,-0.73902,-6.1695,8.4991,3.2539,-1.0846,-0.05801,4.3385,9.6145e-14,-0.029005,0,0,0.33333,-0,-0,0.66667
0.0072068,0.9965,0.02162,0.74475,8.9304,27.965,-0.042942,0.014304,-0.028133,-0.05726,-1.4485e-05,-0.014067,0,0,0.33333,4.0091e-17,0,0.66667
0.95089,0.73424,2.8527,0.35136,0.24399,0.45065,-2.6729,0.89095,-1.5606,-3.5638,3.4041e-09,-0.7803,0,0,0.33333,-0,-0,0.66667
0.43824,0.37122,1.3147,-0.19317,-1.7676,11.643,0.67721,-0.22574,-1.8681,0.90295,2.5535e-13,-0.93405,0,0,0.33333,7.8949e-16,0,0.66667
0.35615,0.7316,1.0684,0.34739,3.4808,14.515,-0.98978,0.32993,-1.5704,-1.3197,-1.0005e-11,-0.7852,0,0,0.33333,-0,-0,0.66667
0.10194,0.58169,0.30582,0.12254,1.3856,24.162,-0.099934,0.033311,-1.9459,-0.13325,-1.3736e-09,-0.97294,0,0,0.33333,9.8686e-17,0,0.66667
0.23738,0.33081,0.71214,-0.25378,-2.7427,18.876,0.48194,-0.16065,-1.7705,0.64258,1.1654e-10,-0.88526,0,0,0.33333,-0,-0,0.66667
0.29709,0.17858,0.89126,-0.48213,-5.1099,16.699,1.1459,-0.38196,-1.1737,1.5278,3.3215e-11,-0.58685,0,0,0.33333,-3.9475e-16,0,0.66667
0.47856,0.18239,1.4357,-0.47641,-4.2419,10.448,1.8239,-0.60798,-1.193,2.4319,-4.7595e-13,-0.5965,0,0,0.33333,-1.9737e-16,0,0.66667
0.41502,0.63324,1.245,0.19986,1.8769,12.425,-0.66356,0.22119,-1.8576,-0.88475,-1.1255e-12,-0.92878,0,0,0.33333,-0,-0,0.66667
0.056184,0.26058,0.16855,-0.35913,-4.1345,26,0.16142,-0.053807,-1.5408,0.21523,1.5772e-09,-0.7704,0,0,0.33333,-0,-0,0.66667
0.58894,0.62004,1.7668,0.18006,1.3123,7.022,-0.84835,0.28278,-1.8848,-1.1311,1.4583e-12,-0.94241,0,0,0.33333,-1.1842e-15,0,0.66667
0.067005,0.13597,0.20101,-0.54605,-6.3735,25.583,0.2927,-0.097568,-0.9393,0.39027,-2.8718e-08,-0.46965,0,0,0.33333,-0,-0,0.66667
0.27883,0.90532,0.83649,0.60798,6.6069,17.425,-1.3562,0.45206,-0.68679,-1.8082,-1.7185e-11,-0.3434,0,0,0.33333,-1.0272e-16,0,0.66667
0.93135,0.66958,2.794,0.25437,0.27341,0.5379,-1.8953,0.63176,-1.7692,-2.5271,-1.415e-08,-0.88459,0,0,0.33333,-0,-0,0.66667
0.70165,0.30499,2.105,-0.29252,-1.6374,4.2337,1.642,-0.54732,-1.6959,2.1893,-4.5821e-11,-0.84795,0,0,0.33333,-0,-0,0.66667
0.68369,0.22207,2.0511,-0.41689,-2.4962,4.7248,2.2802,-0.76007,-1.3825,3.0403,-2.5803e-11,-0.69124,0,0,0.33333,-1.579e-15,0,0.66667
0.35623,0.23193,1.0687,-0.4021,-4.0458,14.531,1.1459,-0.38197,-1.4246,1.5279,7.9285e-12,-0.7123,0,0,0.33333,-0,-0,0.66667
0.59594,0.52362,1.7878,0.035423,0.2535,6.8042,-0.16888,0.056293,-1.9956,-0.22517,4.9333e-13,-0.99778,0,0,0.33333,-0,-0,0.66667
0.82071,0.68626,2.4621,0.27939,0.95408,1.9355,-1.8344,0.61147,-1.7231,-2.4459,8.5657e-11,-0.86155,0,0,0.33333,-2.2698e-15,0,0.66667
0.77901,0.60893,2.337,0.16339,0.68005,2.5955,-1.0183,0.33943,-1.9046,-1.3577,8.6346e-11,-0.95232,0,0,0.33333,1.579e-15,0,0.66667
0.75092,0.77838,2.2527,0.41756,2.0172,3.2813,-2.5084,0.83615,-1.381,-3.3446,1.3214e-10,-0.69048,0,0,0.33333,-1.9737e-16,0,0.66667
0.53154,0.056081,1.5946,-0.66588,-5.6507,8.9719,2.8315,-0.94384,-0.42395,3.7754,1.1768e-13,-0.21197,0,0,0.33333,-3.9475e-16,0,0.66667
0.74519,0.8227,2.2356,0.48404,2.4182,3.4546,-2.8856,0.96188,-1.1664,-3.8475,1.0265e-10,-0.58322,0,0,0.33333,-0,-0,0.66667
0.21772,0.41978,0.65316,-0.12033,-1.3071,19.615,0.20958,-0.069859,-1.9483,0.27944,7.5758e-11,-0.97415,0,0,0.33333,-3.9475e-16,0,0.66667
0.51855,0.57939,1.5557,0.11908,0.977,9.0613,-0.49399,0.16466,-1.9491,-0.65865,-3.9801e-14,-0.97453,0,0,0.33333,-7.8949e-16,0,0.66667
0.81265,0.86599,2.4379,0.54898,2.0886,2.3075,-3.569,1.1897,-0.92862,-4.7587,5.6281e-10,-0.46431,0,0,0.33333,-7.8949e-16,0,0.66667
0.27694,0.25652,0.83082,-0.36522,-3.8839,17.407,0.80914,-0.26971,-1.5257,1.0789,7.3845e-11,-0.76283,0,0,0.33333,-0,-0,0.66667
0.50368,0.54304,1.511,0.064559,0.54079,9.5132,-0.26013,0.086711,-1.9847,-0.34684,-2.9143e-14,-0.99234,0,0,0.33333,-7.8949e-16,0,0.66667
0.65239,0.09754,1.9572,-0.60369,-4.0371,5.6403,3.1507,-1.0502,-0.70456,4.201,-6.3149e-13,-0.35228,0,0,0.33333,-0,-0,0.66667
0.08124,0.28293,0.24372,-0.32561,-3.7274,24.998,0.21162,-0.070539,-1.6239,0.28216,-1.6782e-09,-0.81193,0,0,0.33333,-0,-0,0.66667
0.14553,0.27324,0.43658,-0.34014,-3.8376,22.452,0.39599,-0.132,-1.5883,0.52798,2.5862e-10,-0.79417,0,0,0.33333,-0,-0,0.66667
0.59348,0.93421,1.7804,0.65132,4.9695,7.2065,-3.0923,1.0308,-0.49262,-4.1231,-6.1684e-13,-0.24631,0,0,0.33333,-7.8949e-16,-1.4869e-16,0.66667
0.41393,0.024229,1.2418,-0.71366,-7.0572,12.722,2.3632,-0.78774,-0.18884,3.1509,-3.3107e-13,-0.09442,0,0,0.33333,-0,-0,0.66667
0.13115,0.39261,0.39344,-0.16109,-1.8102,23.003,0.16901,-0.056335,-1.907,0.22534,-1.0669e-09,-0.95349,0,0,0.33333,-0,-0,0.66667
0.80877,0.86814,2.4263,0.55221,2.1445,2.3741,-3.5729,1.191,-0.91571,-4.7638,4.5534e-10,-0.45786,0,0,0.33333,-0,-0,0.66667
0.71564,0.28785,2.1469,-0.31823,-1.7108,3.9403,1.8219,-0.6073,-1.6399,2.4292,-6.237e-11,-0.81997,0,0,0.33333,-1.579e-15,0,0.66667
0.97583,0.28545,2.9275,-0.32183,-0.031266,0.25834,2.5124,-0.83746,-1.6319,3.3498,-3.9858e-09,-0.81593,0,0,0.33333,3.158e-15,0,0.66667
0.040034,0.77323,0.1201,0.40984,4.7425,26.648,-0.13126,0.043753,-1.4024,-0.17501,-5.929e-09,-0.70119,0,0,0.33333,-2.4672e-17,0,0.66667
0.80309,0.78713,2.4093,0.43069,1.6666,2.3397,-2.7671,0.92237,-1.3403,-3.6895,3.9307e-10,-0.67017,0,0,0.33333,1.579e-15,0,0.66667
0.49155,0.76403,1.4747,0.39604,3.4376,9.993,-1.5574,0.51913,-1.4415,-2.0765,5.7954e-14,-0.72076,0,0,0.33333,7.8949e-16,0,0.66667
0.19478,0.51431,0.58433,0.02147,0.23535,20.499,-0.033454,0.011151,-1.9976,-0.044606,-8.1818e-11,-0.99878,0,0,0.33333,-0,-0,0.66667
0.14213,0.99615,0.4264,0.74423,8.7436,22.669,-0.84623,0.28208,-0.031311,-1.1283,2.1904e-09,-0.015655,0,0,0.33333,-2.9606e-16,0,0.66667
0.19893,0.33177,0.5968,-0.25234,-2.7777,20.354,0.40159,-0.13386,-1.773,0.53546,1.2657e-10,-0.88651,0,0,0.33333,-0,-0,0.66667
0.0073553,0.33649,0.022066,-0.24526,-2.8152,27.955,0.014432,-0.0048106,-1.7858,0.019242,2.9983e-08,-0.8929,0,0,0.33333,-6.1679e-18,0,0.66667
0.12102,0.53567,0.36307,0.053511,0.60166,23.401,-0.051808,0.017269,-1.9901,-0.069077,-1.2328e-08,-0.99503,0,0,0.33333,3.9475e-16,0,0.66667
0.69054,0.31819,2.0716,-0.27271,-1.574,4.4756,1.5066,-0.50218,-1.7357,2.0087,-3.5415e-11,-0.86786,0,0,0.33333,-0,-0,0.66667
0.2922,0.89439,0.87659,0.59159,6.3626,16.925,-1.3829,0.46096,-0.75504,-1.8438,-1.4769e-11,-0.37752,0,0,0.33333,-0,-0,0.66667
0.49257,0.89587,1.4777,0.5938,5.2675,10.09,-2.3399,0.77996,-0.74571,-3.1199,6.7057e-14,-0.37285,0,0,0.33333,-0,-0,0.66667
0.88095,0.81143,2.6428,0.46714,1.0885,1.2523,-3.2922,1.0974,-1.2248,-4.3896,3.8798e-09,-0.61241,0,0,0.33333,-1.7764e-15,0,0.66667
0.5238,0.641,1.5714,0.2115,1.7281,8.9229,-0.88626,0.29542,-1.8401,-1.1817,-2.0151e-13,-0.92007,0,0,0.33333,-7.8949e-16,0,0.66667
0.70601,0.66852,2.118,0.25279,1.3907,4.1161,-1.4278,0.47592,-1.7724,-1.9037,4.6885e-11,-0.88618,0,0,0.33333,-1.579e-15,0,0.66667
0.15105,0.79881,0.45316,0.44821,5.0878,22.252,-0.54163,0.18054,-1.285,-0.72218,-1.0771e-09,-0.6425,0,0,0.33333,-0,-0,0.66667
0.43644,0.12165,1.3093,-0.56753,-5.3716,11.868,1.9815,-0.66051,-0.85559,2.642,-1.0644e-12,-0.42779,0,0,0.33333,-0,1.5119e-16,0.66667
0.89086,0.94844,2.6726,0.67266,1.589,1.4145,-4.794,1.598,-0.39126,-6.3919,-6.1353e-09,-0.19563,0,0,0.33333,-0,-0,0.66667
0.15977,0.19566,0.47931,-0.45651,-5.1707,21.913,0.58349,-0.1945,-1.2588,0.77799,7.6327e-10,-0.62941,0,0,0.33333,-0,-0,0.66667
0.11866,0.40741,0.35597,-0.13889,-1.5649,23.497,0.13184,-0.043946,-1.9321,0.17578,8.942e-09,-0.96605,0,0,0.33333,-0,-0,0.66667
0.82221,0.86054,2.4666,0.54081,1.9511,2.1468,-3.5572,1.1857,-0.95934,-4.743,7.3447e-10,-0.47967,0,0,0.33333,-1.579e-15,0,0.66667
0.058073,0.36444,0.17422,-0.20334,-2.3219,25.918,0.094467,-0.031489,-1.8525,0.12596,-6.3285e-08,-0.92625,0,0,0.33333,-0,-0,0.66667
0.23225,0.68184,0.69674,0.27276,2.9585,19.075,-0.50677,0.16892,-1.7357,-0.6757,-1.3615e-10,-0.86787,0,0,0.33333,-1.9737e-16,0,0.66667
0.59496,0.98912,1.7849,0.73367,5.6692,7.2572,-3.492,1.164,-0.085998,-4.656,-1.7097e-14,-0.042999,0,0,0.33333,-0,-0,0.66667
0.71146,0.41434,2.1344,-0.12848,-0.68865,3.9509,0.73129,-0.24376,-1.9409,0.97506,-3.0862e-11,-0.97045,0,0,0.33333,-0,-0,0.66667
0.43296,0.072959,1.2989,-0.64056,-6.1448,12.034,2.2187,-0.73956,-0.54059,2.9582,-6.1462e-13,-0.2703,0,0,0.33333,-0,-0,0.66667
0.47992,0.005084,1.4398,-0.74237,-6.8479,10.612,2.8502,-0.95008,-0.040564,3.8003,-1.3967e-13,-0.020282,0,0,0.33333,-0,-2.2554e-16,0.66667
0.086929,0.78992,0.26079,0.43489,5.0108,24.781,-0.30243,0.10081,-1.3271,-0.40325,1.6237e-09,-0.66354,0,0,0.33333,-0,-0,0.66667
0.61004,0.94796,1.8301,0.67194,4.9852,6.7875,-3.2793,1.0931,-0.39464,-4.3724,-4.523e-13,-0.19732,0,0,0.33333,-0,-0,0.66667
0.28032,0.88183,0.84096,0.57274,6.1936,17.354,-1.2844,0.42814,-0.83395,-1.7125,-2.7377e-11,-0.41698,0,0,0.33333,7.8949e-16,2.6963e-16,0.66667
0.91892,0.34558,2.7567,-0.23163,-0.31026,0.64063,1.7028,-0.5676,-1.81,2.2704,4.928e-09,-0.90502,0,0,0.33333,3.158e-15,0,0.66667
0.23822,0.098807,0.71465,-0.60179,-6.6866,18.939,1.1469,-0.38229,-0.71251,1.5291,7.4286e-11,-0.35625,0,0,0.33333,-0,-0,0.66667
0.75065,0.098175,2.252,-0.60274,-3.0328,3.4755,3.6196,-1.2065,-0.70897,4.8261,-4.9129e-11,-0.35449,0,0,0.33333,-0,-0,0.66667
0.70514,0.74125,2.1154,0.36188,2.0213,4.1985,-2.0414,0.68047,-1.5343,-2.7219,4.9569e-11,-0.76715,0,0,0.33333,-0,-0,0.66667
0.12278,0.10137,0.36835,-0.59794,-6.94,23.389,0.58733,-0.19578,-0.72878,0.78311,-1.7936e-09,-0.36439,0,0,0.33333,-0,-0,0.66667
0.20873,0.73491,0.62618,0.35236,3.884,19.992,-0.58838,0.19613,-1.5578,-0.78451,-2.4341e-10,-0.77889,0,0,0.33333,-0,-0,0.66667
0.19717,0.33817,0.59151,-0.24274,-2.6729,20.421,0.3829,-0.12763,-1.7904,0.51053,9.4139e-11,-0.89521,0,0,0.33333,-0,-0,0.66667
0.78433,0.68777,2.353,0.28165,1.1595,2.5537,-1.7672,0.58908,-1.7191,-2.3563,1.4233e-10,-0.85953,0,0,0.33333,-0,-0,0.66667
0.55115,0.047646,1.6535,-0.67853,-5.5971,8.4136,2.9918,-0.99726,-0.36235,3.989,1.8607e-13,-0.18117,0,0,0.33333,-0,-0,0.66667
0.50799,0.84727,1.524,0.5209,4.4805,9.5604,-2.1169,0.70562,-1.0355,-2.8225,-3.2241e-13,-0.51773,0,0,0.33333,-0,-0,0.66667
0.74258,0.32315,2.2277,-0.26527,-1.2926,3.3446,1.5759,-0.52529,-1.7492,2.1011,-9.1229e-11,-0.87458,0,0,0.33333,-0,-0,0.66667
0.87749,0.77433,2.6325,0.41149,0.96801,1.237,-2.8886,0.96288,-1.398,-3.8515,-6.0066e-10,-0.69901,0,0,0.33333,7.8949e-16,0,0.66667
0.070046,0.20967,0.21014,-0.4355,-5.0319,25.452,0.24404,-0.081346,-1.3252,0.32538,-5.3665e-09,-0.66258,0,0,0.33333,-0,-0,0.66667
0.37632,0.79928,1.129,0.44891,4.456,13.844,-1.3515,0.4505,-1.2832,-1.802,-2.1538e-12,-0.6416,0,0,0.33333,-0,-0,0.66667
0.34177,0.35177,1.0253,-0.22235,-2.2382,14.995,0.60794,-0.20265,-1.8242,0.81058,1.5545e-11,-0.91211,0,0,0.33333,7.8949e-16,0,0.66667
0.84428,0.24471,2.5328,-0.38294,-1.1546,1.6545,2.5865,-0.86215,-1.4792,3.4486,-4.2203e-10,-0.73959,0,0,0.33333,-1.1842e-15,0,0.66667
0.76885,0.67753,2.3066,0.2663,1.1708,2.8303,-1.638,0.54599,-1.7475,-2.1839,1.3202e-10,-0.87376,0,0,0.33333,-7.8949e-16,0,0.66667
0.5325,0.78639,1.5975,0.42958,3.5249,8.7599,-1.83,0.61,-1.3443,-2.44,-7.8071e-13,-0.67216,0,0,0.33333,-0,-0,0.66667
0.089548,0.037124,0.26864,-0.69431,-8.2071,24.712,0.4974,-0.1658,-0.28598,0.66319,-6.6282e-08,-0.14299,0,0,0.33333,1.9737e-16,0,0.66667
0.92511,0.70405,2.7753,0.30607,0.38073,0.63071,-2.2652,0.75506,-1.6664,-3.0202,1.4722e-09,-0.83318,0,0,0.33333,-0,-0,0.66667
0.55794,0.054578,1.6738,-0.66813,-5.4413,8.2091,2.9822,-0.99408,-0.41252,3.9763,3.3662e-13,-0.20626,0,0,0.33333,-3.9475e-16,-2.5367e-17,0.66667
0.023909,0.61852,0.071728,0.17778,2.0343,27.289,-0.034005,0.011335,-1.8874,-0.04534,2.6538e-08,-0.9437,0,0,0.33333,1.4157e-17,0,0.66667
0.64606,0.72693,1.9382,0.34039,2.2221,5.5817,-1.7593,0.58644,-1.5877,-2.3458,1.0731e-11,-0.79384,0,0,0.33333,-0,-0,0.66667
0.27371,0.95235,0.82113,0.67852,7.4604,17.647,-1.4857,0.49525,-0.36225,-1.981,-5.414e-12,-0.18113,0,0,0.33333,-0,-0,0.66667
0.45368,0.64093,1.361,0.21139,1.9011,11.137,-0.76722,0.25574,-1.8409,-1.023,9.2315e-14,-0.92047,0,0,0.33333,7.8949e-16,0,0.66667
0.89562,0.55546,2.6869,0.083191,0.14961,0.83049,-0.59606,0.19869,-1.9752,-0.79474,1.6032e-08,-0.9876,0,0,0.33333,-1.579e-15,0,0.66667
0.20404,0.24962,0.61213,-0.37557,-4.1551,20.178,0.61306,-0.20435,-1.4999,0.81742,2.7665e-10,-0.74993,0,0,0.33333,-5.181e-16,0,0.66667
0.11364,0.12572,0.34092,-0.56142,-6.506,23.741,0.51039,-0.17013,-0.88021,0.68052,4.7837e-09,-0.44011,0,0,0.33333,3.9475e-16,0,0.66667
0.61817,0.82868,1.8545,0.49303,3.4922,6.4037,-2.4382,0.81273,-1.1349,-3.2509,4.3143e-13,-0.56747,0,0,0.33333,-0,-0,0.66667
0.67549,0.37953,2.0265,-0.1807,-1.0797,4.7896,0.9765,-0.3255,-1.8842,1.302,-2.0706e-11,-0.94208,0,0,0.33333,1.579e-15,0,0.66667
0.98885,0.48398,2.9666,-0.024031,0.0076092,0.052599,0.19011,-0.063373,-1.9973,0.25347,-6.7961e-06,-0.99864,0,0,0.33333,-0,-0,0.66667
0.32157,0.57126,0.96471,0.10689,1.0889,15.711,-0.27497,0.091658,-1.9589,-0.36663,-1.4304e-11,-0.97946,0,0,0.33333,-0,-0,0.66667
0.90723,0.6197,2.7217,0.17955,0.28251,0.73356,-1.3032,0.43438,-1.8859,-1.7375,-1.9467e-08,-0.94293,0,0,0.33333,-1.579e-15,0,0.66667
0.59047,0.84133,1.7714,0.512,3.8424,7.1604,-2.4186,0.80619,-1.0686,-3.2248,-1.1002e-12,-0.53429,0,0,0.33333,1.9737e-16,0,0.66667
0.076837,0.81593,0.23051,0.47389,5.4871,25.186,-0.2913,0.0971,-1.2022,-0.3884,1.5657e-08,-0.60112,0,0,0.33333,-0,-0,0.66667
0.93059,0.025954,2.7918,-0.71107,-1.1015,1.0918,5.2937,-1.7646,-0.20219,7.0583,-8.2224e-08,-0.10109,0,0,0.33333,7.8949e-16,0,0.66667
0.54246,0.74558,1.6274,0.36837,2.9566,8.4295,-1.5986,0.53287,-1.5177,-2.1315,-7.403e-13,-0.75886,0,0,0.33333,-9.8686e-16,0,0.66667
0.47386,0.94375,1.4216,0.66563,6.1115,10.734,-2.5233,0.84111,-0.42456,-3.3644,1.1124e-13,-0.21228,0,0,0.33333,-0,-0,0.66667
0.54448,0.051543,1.6334,-0.67268,-5.6024,8.6003,2.9301,-0.9767,-0.39078,3.9068,2.0339e-13,-0.19539,0,0,0.33333,-0,-0,0.66667
0.52734,0.99163,1.582,0.73745,6.3742,9.1667,-3.1111,1.037,-0.066102,-4.1481,-7.0832e-14,-0.033051,0,0,0.33333,7.8949e-16,-3.0954e-16,0.66667
0.66148,0.11325,1.9844,-0.58013,-3.7796,5.3955,3.0699,-1.0233,-0.80275,4.0933,-2.6288e-12,-0.40137,0,0,0.33333,7.8949e-16,0,0.66667
0.64445,0.93366,1.9333,0.65049,4.47,5.8863,-3.3537,1.1179,-0.49585,-4.4716,-3.8991e-13,-0.24793,0,0,0.33333,9.8686e-16,0,0.66667
0.17293,0.29964,0.5188,-0.30054,-3.3514,21.372,0.41578,-0.13859,-1.6786,0.55438,1.6381e-10,-0.83932,0,0,0.33333,-1.9737e-16,0,0.66667
0.50754,0.067573,1.5226,-0.64864,-5.6833,9.6752,2.6337,-0.87789,-0.50402,3.5116,2.2649e-14,-0.25201,0,0,0.33333,-0,-0,0.66667
0.17819,0.88408,0.53456,0.57612,6.5562,21.225,-0.82126,0.27375,-0.81935,-1.095,-6.3261e-10,-0.40968,0,0,0.33333,-0,-0,0.66667
0.46566,0.75635,1.397,0.38453,3.4484,10.811,-1.4325,0.4775,-1.4743,-1.91,7.0877e-13,-0.73716,0,0,0.33333,-0,-0,0.66667
0.095605,0.1393,0.28682,-0.54106,-6.282,24.45,0.41382,-0.13794,-0.95876,0.55176,1.3575e-09,-0.47938,0,0,0.33333,-0,-0,0.66667
0.90893,0.29188,2.7268,-0.31218,-0.50068,0.79463,2.27,-0.75667,-1.6532,3.0267,7.7409e-10,-0.82658,0,0,0.33333,-0,-0,0.66667
0.84302,0.68888,2.529,0.28332,0.84197,1.5982,-1.9107,0.63692,-1.7158,-2.5477,-1.9107e-10,-0.8579,0,0,0.33333,-0,-0,0.66667
0.20466,0.17407,0.61398,-0.48889,-5.457,20.18,0.80046,-0.26682,-1.1499,1.0673,3.4756e-10,-0.57493,0,0,0.33333,-0,-0,0.66667
0.22201,0.42071,0.66602,-0.11894,-1.2893,19.45,0.21124,-0.070413,-1.9491,0.28165,7.0027e-11,-0.97457,0,0,0.33333,-3.9475e-16,0,0.66667
0.56481,0.059662,1.6944,-0.66051,-5.3111,8.0071,2.9845,-0.99483,-0.44951,3.9793,4.0279e-13,-0.22476,0,0,0.33333,-0,-0,0.66667
0.041276,0.55519,0.12383,0.082792,0.94411,26.59,-0.027339,0.0091127,-1.9754,-0.036451,-2.4296e-07,-0.98768,0,0,0.33333,-2.4672e-17,0,0.66667
0.97916,0.80337,2.9375,0.45505,0.057508,0.37444,-3.5645,1.1882,-1.2633,-4.7527,3.367e-08,-0.63166,0,0,0.33333,-0,-0,0.66667
0.34441,0.22292,1.0332,-0.41563,-4.2279,14.957,1.1452,-0.38173,-1.3865,1.5269,1.1159e-11,-0.69326,0,0,0.33333,7.8949e-16,0,0.66667
0.29624,0.012106,0.88873,-0.73184,-7.991,16.85,1.7344,-0.57814,-0.095566,2.3126,2.1094e-14,-0.047783,0,0,0.33333,-0,-0,0.66667
0.92794,0.47992,2.7838,-0.030121,-0.032674,0.48978,0.22361,-0.074536,-1.9961,0.29814,-5.4081e-08,-0.99807,0,0,0.33333,-1.579e-15,0,0.66667
0.24446,0.30123,0.73337,-0.29816,-3.2176,18.615,0.58309,-0.19436,-1.6833,0.77746,1.2034e-10,-0.84165,0,0,0.33333,-0,-0,0.66667
0.40519,0.92071,1.2156,0.63107,6.2221,12.955,-2.0456,0.68187,-0.58375,-2.7275,8.0358e-13,-0.29187,0,0,0.33333,-0,-0,0.66667
0.1838,0.8968,0.5514,0.59519,6.7725,21.013,-0.87518,0.29173,-0.74008,-1.1669,-3.627e-10,-0.37004,0,0,0.33333,-0,-0,0.66667
0.086017,0.79136,0.25805,0.43704,5.0373,24.817,-0.30075,0.10025,-1.3203,-0.40099,6.7197e-10,-0.66013,0,0,0.33333,-0,-0,0.66667
0.91325,0.62485,2.7398,0.18727,0.27054,0.67443,-1.3682,0.45608,-1.8762,-1.8243,-3.1809e-08,-0.93809,0,0,0.33333,1.6653e-15,0,0.66667
0.27731,0.32441,0.83193,-0.26338,-2.7828,17.37,0.5843,-0.19477,-1.7528,0.77907,6.5444e-11,-0.87641,0,0,0.33333,-0,-0,0.66667
0.7783,0.62723,2.3349,0.19084,0.79873,2.6186,-1.1883,0.39608,-1.8712,-1.5843,9.8054e-11,-0.93562,0,0,0.33333,-0,-0,0.66667
0.16216,0.50909,0.48647,0.013641,0.15143,21.774,-0.017696,0.0058987,-1.9989,-0.023595,-4.9911e-10,-0.99943,0,0,0.33333,-0,-0,0.66667
0.66577,0.30113,1.9973,-0.2983,-1.8465,5.0731,1.5888,-0.52959,-1.683,2.1184,-1.9893e-11,-0.84148,0,0,0.33333,-0,-0,0.66667
0.27436,0.80006,0.82308,0.45009,4.8265,17.529,-0.98789,0.3293,-1.279,-1.3172,-6.9441e-11,-0.6395,0,0,0.33333,3.9475e-16,0,0.66667
0.72525,0.54699,2.1758,0.070492,0.36021,3.6411,-0.409,0.13633,-1.9815,-0.54533,2.1857e-11,-0.99077,0,0,0.33333,-0,-0,0.66667
0.057234,0.30616,0.1717,-0.29077,-3.3336,25.955,0.13313,-0.044378,-1.6993,0.17751,-1.8409e-08,-0.84963,0,0,0.33333,-9.8686e-17,0,0.66667
0.66212,0.32105,1.9864,-0.26843,-1.6725,5.1466,1.4219,-0.47395,-1.7434,1.8958,-1.8095e-11,-0.87169,0,0,0.33333,-0,-0,0.66667
0.056097,0.61804,0.16829,0.17707,2.0206,25.997,-0.079463,0.026488,-1.8883,-0.10595,3.9278e-08,-0.94413,0,0,0.33333,-0,-0,0.66667
0.65752,0.77573,1.9726,0.41359,2.6495,5.346,-2.1755,0.72518,-1.3922,-2.9007,1.1919e-11,-0.69611,0,0,0.33333,-3.9475e-16,0,0.66667
0.34971,0.85953,1.0491,0.53929,5.5281,14.823,-1.5088,0.50292,-0.96514,-2.0117,-2.84e-12,-0.48257,0,0,0.33333,-7.8949e-16,0,0.66667
0.73581,0.79016,2.2074,0.43524,2.2267,3.6,-2.562,0.85401,-1.3265,-3.416,9.217e-11,-0.66323,0,0,0.33333,-0,-0,0.66667
0.41791,0.029688,1.2537,-0.70547,-6.9397,12.582,2.3586,-0.78619,-0.2312,3.1448,-4.2277e-13,-0.1156,0,0,0.33333,-7.8949e-16,-7.4964e-17,0.66667
0.55544,0.54425,1.6663,0.066382,0.51241,7.9532,-0.29497,0.098323,-1.9836,-0.39329,5.6372e-14,-0.99179,0,0,0.33333,-0,-0,0.66667
0.18966,0.79106,0.56898,0.43659,4.8822,20.746,-0.66242,0.22081,-1.3221,-0.88322,-4.2687e-10,-0.66105,0,0,0.33333,-0,-0,0.66667
0.27767,0.57146,0.83302,0.1072,1.1259,17.335,-0.23813,0.079376,-1.9589,-0.3175,-3.0678e-11,-0.97943,0,0,0.33333,-0,-0,0.66667
0.48609,0.32394,1.4583,-0.26408,-2.2853,10.108,1.027,-0.34232,-1.7518,1.3693,-1.0625e-13,-0.87589,0,0,0.33333,-0,-0,0.66667
0.04653,0.67694,0.13959,0.26541,3.0426,26.383,-0.098799,0.032933,-1.7496,-0.13173,-1.3071e-08,-0.87478,0,0,0.33333,4.9343e-17,0,0.66667
0.84893,0.83095,2.5468,0.49643,1.5012,1.7012,-3.3715,1.1238,-1.1231,-4.4953,8.4814e-10,-0.56154,0,0,0.33333,-1.579e-15,0,0.66667
0.43861,0.11627,1.3158,-0.57559,-5.4403,11.802,2.0197,-0.67324,-0.82208,2.6929,-9.6856e-13,-0.41104,0,0,0.33333,3.9475e-16,0,0.66667
0.1903,0.8332,0.5709,0.4998,5.6184,20.737,-0.7609,0.25363,-1.1115,-1.0145,-5.1295e-10,-0.55574,0,0,0.33333,-0,-0,0.66667
0.1496,0.48883,0.44879,-0.016748,-0.18671,22.269,0.020043,-0.0066811,-1.9983,0.026724,-1.8386e-09,-0.99917,0,0,0.33333,-1.9737e-16,0,0.66667
0.12624,0.20331,0.37871,-0.44503,-5.0871,23.226,0.44944,-0.14981,-1.2955,0.59925,4.9844e-10,-0.64776,0,0,0.33333,-1.9737e-16,0,0.66667
0.48221,0.23428,1.4466,-0.39858,-3.504,10.289,1.5376,-0.51253,-1.4347,2.0501,-3.3462e-13,-0.71736,0,0,0.33333,-7.8949e-16,0,0.66667
0.99442,0.70979,2.9833,0.31468,-0.10922,0.15613,-2.5034,0.83447,-1.6475,-3.3379,6.0972e-09,-0.82373,0,0,0.33333,-0,-0,0.66667
0.83565,0.99353,2.5069,0.7403,2.669,2.2282,-4.949,1.6497,-0.051196,-6.5987,-9.6228e-10,-0.025598,0,0,0.33333,-7.8949e-16,0,0.66667
0.87993,0.21715,2.6398,-0.42427,-0.98089,1.2197,2.9866,-0.99554,-1.3606,3.9822,9.3131e-10,-0.68032,0,0,0.33333,1.579e-15,0,0.66667
0.51326,0.48015,1.5398,-0.029782,-0.24589,9.2143,0.12229,-0.040762,-1.9965,0.16305,1.5124e-13,-0.99826,0,0,0.33333,-7.8949e-16,0,0.66667
0.013105,0.87556,0.039315,0.56333,6.6156,27.728,-0.05906,0.019687,-0.87278,-0.078747,-5.9101e-08,-0.43639,0,0,0.33333,-0,-0,0.66667
0.78924,0.063982,2.3677,-0.65403,-2.8682,2.8326,4.1295,-1.3765,-0.47969,5.506,-1.0504e-10,-0.23985,0,0,0.33333,-0,-0,0.66667
0.91445,0.39321,2.7433,-0.16019,-0.22566,0.65088,1.1719,-0.39063,-1.908,1.5625,-1.868e-08,-0.954,0,0,0.33333,-1.0829e-15,0,0.66667
0.063162,0.50324,0.18949,0.0048624,0.055275,25.711,-0.002457,0.00081943,-2.0008,-0.0032758,6.2917e-07,-1.0004,0,0,0.33333,3.9475e-16,0,0.66667
0.17499,0.31232,0.52498,-0.28153,-3.1338,21.289,0.39412,-0.13137,-1.7193,0.52549,1.7072e-10,-0.85966,0,0,0.33333,-5.3352e-16,0,0.66667
0.50956,0.72985,1.5287,0.34477,2.9044,9.4088,-1.4054,0.46848,-1.5767,-1.8739,-2.4847e-13,-0.78836,0,0,0.33333,-7.8949e-16,0,0.66667
0.43088,0.94451,1.2926,0.66676,6.4341,12.123,-2.2983,0.76611,-0.41903,-3.0644,3.8325e-13,-0.20951,0,0,0.33333,-0,-0,0.66667
0.95888,0.52057,2.8766,0.030855,0.011862,0.23604,-0.23669,0.078898,-1.996,-0.31559,4.4373e-07,-0.99801,0,0,0.33333,-0,-0,0.66667
0.98461,0.16511,2.9538,-0.50233,-0.022537,0.40516,3.9568,-1.3189,-1.103,5.2758,7.0018e-08,-0.55149,0,0,0.33333,-0,-0,0.66667
0.15433,0.54281,0.46299,0.064213,0.71501,22.083,-0.07928,0.026427,-1.9851,-0.10571,-6.7091e-10,-0.99253,0,0,0.33333,-3.9475e-16,0,0.66667
0.3531,0.004495,1.0593,-0.74326,-7.7993,14.826,2.0996,-0.69986,-0.03588,2.7994,-2.9243e-13,-0.01794,0,0,0.33333,-0,-0,0.66667
0.57686,0.067872,1.7306,-0.64819,-5.0943,7.6582,2.9913,-0.9971,-0.50656,3.9884,6.2728e-13,-0.25328,0,0,0.33333,-1.579e-15,-2.2476e-16,0.66667
0.42223,0.36136,1.2667,-0.20796,-1.9386,12.183,0.70244,-0.23415,-1.8461,0.93658,8.6364e-13,-0.92306,0,0,0.33333,-7.8949e-16,0,0.66667
0.5079,0.84339,1.5237,0.51509,4.4278,9.5589,-2.0929,0.69763,-1.0575,-2.7905,-3.8192e-13,-0.52874,0,0,0.33333,3.9475e-16,0,0.66667
0.87702,0.051475,2.6311,-0.67279,-1.787,1.5741,4.7204,-1.5735,-0.39034,6.2938,-6.0266e-09,-0.19517,0,0,0.33333,-0,-0,0.66667
0.060464,0.9197,0.18139,0.62954,7.4184,25.851,-0.30452,0.10151,-0.59047,-0.40602,-2.5194e-08,-0.29523,0,0,0.33333,-0,-0,0.66667
0.91535,0.011289,2.7461,-0.73307,-1.4071,1.2663,5.3681,-1.7894,-0.088629,7.1575,-7.5915e-08,-0.044315,0,0,0.33333,-0,-0,0.66667
0.31256,0.86811,0.93768,0.55217,5.8312,16.163,-1.3807,0.46023,-0.91638,-1.8409,-1.1729e-11,-0.45819,0,0,0.33333,3.9475e-16,0,0.66667
0.72914,0.59123,2.1874,0.13685,0.69197,3.5721,-0.79826,0.26609,-1.9339,-1.0643,4.3423e-11,-0.96694,0,0,0.33333,-0,-0,0.66667
0.27511,0.53398,0.82533,0.050977,0.53582,17.428,-0.11219,0.037398,-1.9911,-0.14959,-1.6848e-11,-0.99557,0,0,0.33333,7.8949e-16,0,0.66667
0.72986,0.26527,2.1896,-0.35209,-1.8143,3.6592,2.0558,-0.68527,-1.5585,2.7411,-8.4632e-11,-0.77927,0,0,0.33333,-0,-0,0.66667
0.78436,0.72778,2.3531,0.34168,1.4197,2.5923,-2.144,0.71466,-1.5847,-2.8586,2.1233e-10,-0.79233,0,0,0.33333,-0,-0,0.66667
0.56721,0.29885,1.7016,-0.30172,-2.3083,7.6786,1.3691,-0.45637,-1.6756,1.8255,1.6609e-13,-0.83782,0,0,0.33333,-0,-0,0.66667
0.11097,0.68494,0.3329,0.27741,3.1483,23.811,-0.24627,0.08209,-1.7272,-0.32836,-1.0636e-09,-0.86361,0,0,0.33333,-2.4672e-17,0,0.66667
0.1247,0.32071,0.3741,-0.26894,-3.0404,23.266,0.26829,-0.089432,-1.7431,0.35773,-1.4448e-09,-0.87154,0,0,0.33333,-0,-0,0.66667
0.85571,0.090777,2.5671,-0.61383,-1.8541,1.7566,4.2021,-1.4007,-0.66081,5.6028,-1.9819e-09,-0.3304,0,0,0.33333,4.5071e-16,-3.5726e-18,0.66667
0.93388,0.010177,2.8017,-0.73474,-1.1101,1.1071,5.4893,-1.8298,-0.08019,7.319,5.985e-09,-0.040095,0,0,0.33333,-0,-0,0.66667
0.64865,0.4219,1.946,-0.11715,-0.74764,5.4286,0.60792,-0.20264,-1.9504,0.81056,-7.8937e-12,-0.97519,0,0,0.33333,2.1331e-17,0,0.66667
0.18497,0.72501,0.55492,0.33751,3.7546,20.909,-0.49945,0.16648,-1.5951,-0.66593,-2.9078e-10,-0.79755,0,0,0.33333,-3.9475e-16,0,0.66667
0.72233,0.58377,2.167,0.12566,0.6499,3.7141,-0.72612,0.24204,-1.9435,-0.96816,3.6302e-11,-0.97174,0,0,0.33333,-0,-0,0.66667
0.22405,0.94462,0.67214,0.66693,7.52,19.5,-1.1954,0.39846,-0.41828,-1.5938,-3.9712e-11,-0.20914,0,0,0.33333,-0,-0,0.66667
0.75275,0.83358,2.2582,0.50037,2.4402,3.3216,-3.0132,1.0044,-1.1095,-4.0176,1.1622e-10,-0.55474,0,0,0.33333,7.8949e-16,0,0.66667
0.99863,0.73645,2.9959,0.35467,-0.14894,0.17339,-2.8335,0.94449,-1.5525,-3.7779,-1.5941e-08,-0.77623,0,0,0.33333,-0,-0,0.66667
0.92131,0.72646,2.7639,0.33969,0.45879,0.69327,-2.5037,0.83456,-1.59,-3.3382,-1.7073e-09,-0.79499,0,0,0.33333,-0,-0,0.66667
0.52727,0.85522,1.5818,0.53282,4.4624,8.9861,-2.2475,0.74918,-0.99005,-2.9967,-6.1262e-13,-0.49503,0,0,0.33333,-0,-0,0.66667
0.62264,0.69028,1.8679,0.28543,1.9549,6.1529,-1.4218,0.47392,-1.711,-1.8957,5.5183e-12,-0.85552,0,0,0.33333,-0,-0,0.66667
0.31542,0.25648,0.94625,-0.36528,-3.7847,15.987,0.92172,-0.30724,-1.5256,1.229,3.0125e-11,-0.76282,0,0,0.33333,-0,-0,0.66667
0.88054,0.50339,2.6416,0.0050788,0.010725,1.0011,-0.035776,0.011925,-2.0002,-0.047702,-2.4498e-08,-1.0001,0,0,0.33333,-0,-0,0.66667
0.86029,0.74133,2.5809,0.36199,0.96702,1.414,-2.4913,0.83045,-1.5342,-3.3218,1.4071e-10,-0.76709,0,0,0.33333,7.8949e-16,0,0.66667
0.060565,0.46919,0.18169,-0.04621,-0.52564,25.815,0.02239,-0.0074628,-1.9936,0.029853,5.8531e-07,-0.99681,0,0,0.33333,-1.9737e-16,0,0.66667
0.54964,0.49547,1.6489,-0.006794,-0.052931,8.1196,0.029874,-0.0099581,-2.0002,0.039832,8.2594e-14,-1.0001,0,0,0.33333,-1.1842e-15,0,0.66667
0.38057,0.38521,1.1417,-0.17219,-1.6718,13.609,0.52423,-0.17474,-1.894,0.69897,4.6133e-12,-0.94702,0,0,0.33333,-0,-0,0.66667
0.55684,0.59003,1.6705,0.13504,1.0418,7.9226,-0.60156,0.20052,-1.9354,-0.80208,9.3536e-14,-0.9677,0,0,0.33333,1.6486e-16,0,0.66667
0.18217,0.57512,0.54652,0.11268,1.243,20.993,-0.16421,0.054738,-1.9542,-0.21895,-9.5287e-12,-0.97709,0,0,0.33333,-0,-0,0.66667
0.79219,0.59841,2.3766,0.14761,0.57694,2.3532,-0.9355,0.31183,-1.9227,-1.2473,9.6843e-11,-0.96134,0,0,0.33333,-3.158e-15,0,0.66667
0.11789,0.92298,0.35368,0.63447,7.4025,23.588,-0.5984,0.19947,-0.56793,-0.79786,-6.2399e-09,-0.28396,0,0,0.33333,-1.3961e-16,0,0.66667
0.20303,0.13783,0.60909,-0.54325,-6.0997,20.258,0.88238,-0.29413,-0.95063,1.1765,3.3469e-10,-0.47531,0,0,0.33333,-3.9475e-16,-4.4869e-16,0.66667
0.02395,0.25079,0.071849,-0.37382,-4.3194,27.291,0.071623,-0.023874,-1.5039,0.095498,2.3726e-09,-0.75194,0,0,0.33333,-0,-0,0.66667
0.058498,0.37725,0.17549,-0.18413,-2.101,25.9,0.086169,-0.028723,-1.8801,0.11489,-1.0709e-07,-0.94003,0,0,0.33333,-0,-0,0.66667
0.11918,0.33199,0.35753,-0.25201,-2.8508,23.483,0.24027,-0.080092,-1.7735,0.32037,1.5977e-09,-0.88676,0,0,0.33333,-1.9737e-16,0,0.66667
0.45136,0.15015,1.3541,-0.52478,-4.8581,11.352,1.8949,-0.63164,-1.0211,2.5266,-9.5368e-13,-0.51055,0,0,0.33333,3.9475e-16,0,0.66667
0.89569,0.94915,2.6871,0.67372,1.5228,1.3635,-4.8275,1.6092,-0.38553,-6.4367,-2.2637e-09,-0.19277,0,0,0.33333,-0,-0,0.66667
0.10377,0.30876,0.31131,-0.28686,-3.2623,24.098,0.23813,-0.079378,-1.7077,0.31751,3.5449e-09,-0.85383,0,0,0.33333,2.4672e-16,0,0.66667
0.99739,0.48015,2.9922,-0.029776,0.015474,0.012531,0.23758,-0.07918,-1.9965,0.31678,2.0455e-05,-0.99825,0,0,0.33333,3.158e-15,0,0.66667
0.92242,0.27988,2.7673,-0.33017,-0.43565,0.67487,2.4365,-0.81216,-1.6136,3.2486,4.7873e-09,-0.80682,0,0,0.33333,-1.7764e-15,0,0.66667
0.12597,0.54934,0.37791,0.074016,0.83134,23.205,-0.07459,0.024863,-1.9803,-0.099454,1.5904e-09,-0.99016,0,0,0.33333,1.9737e-16,0,0.66667
0.56161,0.92168,1.6848,0.63252,5.0897,8.0705,-2.8418,0.94727,-0.57726,-3.7891,-5.9264e-13,-0.28863,0,0,0.33333,-0,3.9468e-16,0.66667
0.57872,0.79049,1.7362,0.43574,3.3092,7.4289,-2.0174,0.67246,-1.325,-2.6898,-9.1371e-13,-0.6625,0,0,0.33333,1.579e-15,0,0.66667
0.78149,0.63883,2.3445,0.20824,0.86066,2.5676,-1.3019,0.43397,-1.8457,-1.7359,1.1278e-10,-0.92286,0,0,0.33333,-0,-0,0.66667
0.099377,0.19821,0.29813,-0.45268,-5.2107,24.289,0.35989,-0.11996,-1.2708,0.47986,-2.8989e-09,-0.6354,0,0,0.33333,-0,-0,0.66667
0.089059,0.7685,0.26718,0.40274,4.6274,24.693,-0.28694,0.095648,-1.4226,-0.38259,3.9369e-09,-0.71132,0,0,0.33333,9.8686e-17,0,0.66667
0.94471,0.51726,2.8341,0.025891,0.018323,0.34384,-0.19568,0.065226,-1.9968,-0.2609,-3.2595e-07,-0.99841,0,0,0.33333,-0,-0,0.66667
0.42548,0.32683,1.2764,-0.25975,-2.4194,12.087,0.88416,-0.29472,-1.7595,1.1789,4.0096e-13,-0.87976,0,0,0.33333,-0,-0,0.66667
0.81916,0.75611,2.4575,0.38416,1.3513,2.0361,-2.5175,0.83917,-1.4751,-3.3567,3.635e-10,-0.73756,0,0,0.33333,1.579e-15,0,0.66667
0.78299,0.12535,2.349,-0.56198,-2.4656,2.8247,3.5202,-1.1734,-0.87834,4.6936,-2.3146e-10,-0.43917,0,0,0.33333,3.158e-15,0,0.66667
0.8379,0.22923,2.5137,-0.40616,-1.2846,1.7681,2.7225,-0.90752,-1.4129,3.6301,-6.0839e-10,-0.70644,0,0,0.33333,-0,-0,0.66667
0.13975,0.37112,0.41926,-0.19332,-2.1693,22.665,0.21614,-0.072045,-1.8678,0.28818,1.711e-09,-0.93392,0,0,0.33333,4.9343e-17,0,0.66667
0.091732,0.80778,0.2752,0.46167,5.3262,24.593,-0.3388,0.11293,-1.2426,-0.45174,-5.8509e-09,-0.62129,0,0,0.33333,4.9343e-17,0,0.66667
0.44285,0.43537,1.3286,-0.096951,-0.87963,11.473,0.34348,-0.11449,-1.9671,0.45797,1.7902e-14,-0.98356,0,0,0.33333,1.1842e-15,0,0.66667
0.8081,0.926,2.4243,0.63901,2.5584,2.4964,-4.1311,1.377,-0.54761,-5.5081,2.0502e-10,-0.27381,0,0,0.33333,-7.8949e-16,0,0.66667
0.14031,0.93136,0.42094,0.64705,7.5152,22.714,-0.72631,0.2421,-0.51189,-0.96842,2.9808e-10,-0.25594,0,0,0.33333,-2.9606e-16,0,0.66667
0.17975,0.85749,0.53924,0.53624,6.074,21.154,-0.77109,0.25703,-0.97681,-1.0281,-6.7241e-10,-0.4884,0,0,0.33333,-0,-0,0.66667
0.1606,0.044473,0.48179,-0.68329,-7.9203,21.936,0.87788,-0.29263,-0.33933,1.1705,3.5812e-10,-0.16966,0,0,0.33333,3.9475e-16,0,0.66667
0.23062,0.062793,0.69186,-0.65581,-7.3611,19.247,1.2099,-0.40332,-0.47183,1.6133,2.6453e-11,-0.23591,0,0,0.33333,-7.8949e-16,0,0.66667
0.32804,0.40405,0.98413,-0.14392,-1.4604,15.479,0.37771,-0.1259,-1.9275,0.50361,1.6175e-11,-0.96376,0,0,0.33333,-4.9343e-16,0,0.66667
0.06778,0.081351,0.20334,-0.62797,-7.3916,25.561,0.34051,-0.1135,-0.5972,0.45401,-1.7674e-08,-0.2986,0,0,0.33333,1.8419e-17,0,0.66667
0.38652,0.61918,1.1596,0.17877,1.7264,13.402,-0.55279,0.18426,-1.8864,-0.73706,-3.8308e-12,-0.9432,0,0,0.33333,-0,-0,0.66667
0.28048,0.76723,0.84145,0.40084,4.2647,17.285,-0.89944,0.29981,-1.4285,-1.1993,-6.6407e-11,-0.71425,0,0,0.33333,-0,-0,0.66667
0.15318,0.87575,0.45955,0.56363,6.4617,22.192,-0.69071,0.23024,-0.87149,-0.92095,-2.7043e-09,-0.43575,0,0,0.33333,3.9475e-16,2.2824e-19,0.66667
0.31327,0.55583,0.93982,0.083742,0.85805,16.013,-0.20987,0.069958,-1.9754,-0.27983,-1.335e-11,-0.9877,0,0,0.33333,-3.9475e-16,0,0.66667
0.49926,0.70099,1.4978,0.30148,2.5686,9.7087,-1.2041,0.40138,-1.6766,-1.6055,-1.0947e-13,-0.83832,0,0,0.33333,7.8949e-16,0,0.66667
0.67091,0.26949,2.0127,-0.34577,-2.1228,4.9767,1.8559,-0.61862,-1.5748,2.4745,-2.1815e-11,-0.78738,0,0,0.33333,-0,-0,0.66667
0.29158,0.70152,0.87473,0.30228,3.1713,16.847,-0.7051,0.23503,-1.6744,-0.94013,-5.2992e-11,-0.8372,0,0,0.33333,-3.9475e-16,0,0.66667
0.48683,0.93705,1.4605,0.65557,5.9121,10.319,-2.5532,0.85107,-0.47306,-3.4043,9.3925e-14,-0.23653,0,0,0.33333,8.1416e-16,0,0.66667
0.69406,0.034591,2.0822,-0.69811,-4.2874,4.7772,3.8763,-1.2921,-0.26742,5.1684,-2.8022e-13,-0.13371,0,0,0.33333,-1.579e-15,0,0.66667
0.94232,0.17582,2.827,-0.48626,-0.48934,0.65971,3.6657,-1.2219,-1.1587,4.8876,1.4212e-08,-0.57934,0,0,0.33333,-0,-0,0.66667
0.11331,0.60785,0.33994,0.16178,1.8265,23.711,-0.14665,0.048885,-1.9063,-0.19554,-2.1671e-09,-0.95316,0,0,0.33333,-0,-0,0.66667
0.37705,0.53276,1.1312,0.049137,0.47727,13.718,-0.14822,0.049406,-1.9924,-0.19762,-1.7991e-12,-0.9962,0,0,0.33333,-0,-0,0.66667
0.86667,0.21037,2.6,-0.43445,-1.1291,1.3962,3.0122,-1.0041,-1.3285,4.0162,-6.9808e-10,-0.66424,0,0,0.33333,-0,-0,0.66667
0.76793,0.81183,2.3038,0.46774,2.1362,2.9992,-2.8735,0.95785,-1.2232,-3.8314,1.8332e-10,-0.61161,0,0,0.33333,4.9343e-17,0,0.66667
0.82594,0.12599,2.4778,-0.56102,-1.9955,2.1137,3.707,-1.2357,-0.88198,4.9426,-6.3192e-10,-0.44099,0,0,0.33333,-0,-0,0.66667
0.036904,0.38288,0.11071,-0.17568,-2.0084,26.767,0.051865,-0.017288,-1.8899,0.069154,-2.1684e-08,-0.94496,0,0,0.33333,-0,-0,0.66667
0.80406,0.38067,2.4122,-0.17899,-0.66079,2.159,1.1513,-0.38378,-1.886,1.5351,-1.4678e-10,-0.94299,0,0,0.33333,-0,-0,0.66667
0.095263,0.42336,0.28579,-0.11496,-1.3015,24.428,0.087611,-0.029204,-1.9527,0.11681,4.2496e-09,-0.97634,0,0,0.33333,-0,-0,0.66667
0.35271,0.098327,1.0581,-0.60251,-6.206,14.751,1.7001,-0.56669,-0.70933,2.2668,3.8491e-13,-0.35466,0,0,0.33333,-7.8949e-16,0,0.66667
0.23302,0.85235,0.69907,0.52852,5.8426,19.109,-0.98527,0.32842,-1.0068,-1.3137,-1.586e-10,-0.50342,0,0,0.33333,-0,2.9874e-17,0.66667
0.98438,0.12663,2.9531,-0.56006,-0.063796,0.48681,4.4105,-1.4702,-0.88604,5.8806,-1.1972e-07,-0.44302,0,0,0.33333,-3.158e-15,0,0.66667
0.48234,0.089524,1.447,-0.61571,-5.5525,10.426,2.3759,-0.79196,-0.65257,3.1678,-1.7253e-13,-0.32629,0,0,0.33333,-0,-0,0.66667
0.28033,0.85604,0.84098,0.53407,5.7516,17.338,-1.1977,0.39924,-0.98569,-1.597,-3.8689e-11,-0.49285,0,0,0.33333,-0,5.2205e-16,0.66667
0.42077,0.1314,1.2623,-0.5529,-5.3129,12.379,1.8612,-0.62039,-0.9134,2.4815,-9.3126e-13,-0.4567,0,0,0.33333,-1.579e-15,0,0.66667
0.13901,0.42191,0.41702,-0.11714,-1.3118,22.69,0.13026,-0.043421,-1.9509,0.17368,2.0934e-10,-0.97543,0,0,0.33333,-1.6462e-16,0,0.66667
0.78121,0.59495,2.3436,0.14243,0.58597,2.5485,-0.89013,0.29671,-1.9292,-1.1868,1.0212e-10,-0.96462,0,0,0.33333,3.158e-15,0,0.66667
0.82105,0.86609,2.4632,0.54913,1.9987,2.1746,-3.6069,1.2023,-0.92736,-4.8092,7.4581e-10,-0.46368,0,0,0.33333,-0,-0,0.66667
0.0059699,0.80743,0.01791,0.46114,5.3662,28.011,-0.022024,0.0073412,-1.2439,-0.029365,-7.9626e-09,-0.62196,0,0,0.33333,-0,-0,0.66667
0.35861,0.90751,1.0758,0.61127,6.2722,14.548,-1.7537,0.58455,-0.67268,-2.3382,2.8444e-13,-0.33634,0,0,0.33333,-0,-0,0.66667
0.92793,0.57732,2.7838,0.11597,0.12733,0.50541,-0.86093,0.28698,-1.9514,-1.1479,4.6534e-08,-0.9757,0,0,0.33333,-0,-0,0.66667
0.55859,0.34121,1.6758,-0.23818,-1.8414,7.9006,1.0644,-0.35478,-1.7989,1.4191,-9.3259e-15,-0.89943,0,0,0.33333,5.6012e-16,0,0.66667
0.17029,0.65394,0.51088,0.23091,2.5687,21.467,-0.31459,0.10486,-1.8113,-0.41945,2.048e-10,-0.90565,0,0,0.33333,2.4672e-16,0,0.66667
0.39769,0.27575,1.1931,-0.33638,-3.2414,13.058,1.0702,-0.35672,-1.5976,1.4269,1.7453e-12,-0.7988,0,0,0.33333,3.9475e-16,0,0.66667
0.63071,0.012783,1.8921,-0.73083,-5.2597,6.3238,3.6875,-1.2292,-0.10025,4.9167,1.1169e-13,-0.050127,0,0,0.33333,-0,-0,0.66667
0.7635,0.13408,2.2905,-0.54888,-2.5983,3.1666,3.3525,-1.1175,-0.92871,4.4701,-1.2454e-10,-0.46435,0,0,0.33333,-0,-1.9863e-16,0.66667
0.98548,0.12831,2.9564,-0.55753,-0.047378,0.4777,4.3955,-1.4652,-0.89557,5.8607,-1.1853e-07,-0.44778,0,0,0.33333,3.158e-15,0,0.66667
0.97769,0.7979,2.9331,0.44685,0.068502,0.37292,-3.495,1.165,-1.2893,-4.66,2.1676e-08,-0.64463,0,0,0.33333,-0,-0,0.66667
0.44414,0.81817,1.3324,0.47725,4.4316,11.56,-1.6957,0.56524,-1.1901,-2.2609,1.0599e-12,-0.59503,0,0,0.33333,1.579e-15,0,0.66667
0.91798,0.25069,2.7539,-0.37396,-0.54203,0.75531,2.7463,-0.91543,-1.5037,3.6617,1.517e-09,-0.75185,0,0,0.33333,-0,-0,0.66667
0.72376,0.76704,2.1713,0.40056,2.1218,3.823,-2.3193,0.7731,-1.4288,-3.0924,7.2587e-11,-0.7144,0,0,0.33333,-0,-0,0.66667
0.15494,0.29825,0.46482,-0.30262,-3.3965,22.077,0.3751,-0.12503,-1.6741,0.50013,2.0318e-11,-0.83705,0,0,0.33333,1.3888e-17,0,0.66667
0.56932,0.47383,1.708,-0.039254,-0.29554,7.5504,0.17879,-0.059595,-1.9945,0.23838,-1.7267e-13,-0.99725,0,0,0.33333,-0,-0,0.66667
0.52955,0.08678,1.5887,-0.61983,-5.2375,8.9887,2.6259,-0.87529,-0.63415,3.5012,3.7481e-13,-0.31708,0,0,0.33333,-3.9475e-16,-2.7363e-16,0.66667
0.93954,0.47528,2.8186,-0.037087,-0.03061,0.3876,0.27876,-0.092919,-1.9953,0.37167,-2.3682e-07,-0.99764,0,0,0.33333,-0,-0,0.66667
0.69262,0.80615,2.0779,0.45922,2.6996,4.5539,-2.5445,0.84818,-1.2501,-3.3927,2.7722e-11,-0.62503,0,0,0.33333,3.9475e-16,0,0.66667
0.53942,0.84989,1.6183,0.52484,4.3093,8.6199,-2.2649,0.75496,-1.0204,-3.0198,-9.0838e-13,-0.51021,0,0,0.33333,-0,-0,0.66667
0.91872,0.2421,2.7562,-0.38684,-0.55829,0.76011,2.8432,-0.94774,-1.4678,3.791,3.4095e-09,-0.73389,0,0,0.33333,-7.8949e-16,0,0.66667
0.080916,0.2071,0.24275,-0.43935,-5.0693,25.02,0.28441,-0.094802,-1.3133,0.37921,2.1347e-10,-0.65664,0,0,0.33333,-9.8686e-17,0,0.66667
0.30942,0.1449,0.92827,-0.53265,-5.6258,16.268,1.3185,-0.4395,-0.99083,1.758,1.5759e-11,-0.49542,0,0,0.33333,3.9475e-16,0,0.66667
0.36636,0.72165,1.0991,0.33247,3.2983,14.148,-0.97442,0.32481,-1.6073,-1.2992,-7.3109e-12,-0.80366,0,0,0.33333,-0,-0,0.66667
0.011747,0.3301,0.035241,-0.25485,-2.9262,27.778,0.02395,-0.0079831,-1.7685,0.031933,5.1766e-08,-0.88424,0,0,0.33333,-1.2336e-17,0,0.66667
0.54516,0.50094,1.6355,0.0014064,0.011039,8.2516,-0.0061337,0.0020446,-2.0011,-0.0081783,3.2731e-14,-1.0006,0,0,0.33333,-0,-0,0.66667
0.38558,0.59638,1.1567,0.14457,1.3957,13.429,-0.44594,0.14865,-1.9261,-0.59459,-3.4531e-12,-0.96307,0,0,0.33333,-0,-0,0.66667
0.46514,0.19373,1.3954,-0.4594,-4.1526,10.866,1.7095,-0.56983,-1.2496,2.2793,-7.6639e-13,-0.62481,0,0,0.33333,-0,-0,0.66667
0.052614,0.35369,0.15784,-0.21947,-2.5093,26.137,0.092378,-0.030793,-1.8282,0.12317,-1.6127e-08,-0.9141,0,0,0.33333,-0,-0,0.66667
0.98055,0.26454,2.9416,-0.35319,-0.0029351,0.25928,2.7705,-0.92351,-1.5559,3.694,-8.5312e-09,-0.77793,0,0,0.33333,-1.579e-15,0,0.66667
0.87537,0.80673,2.6261,0.4601,1.1231,1.3127,-3.2221,1.074,-1.2478,-4.2961,2.1424e-09,-0.62392,0,0,0.33333,1.9737e-15,0,0.66667
0.31262,0.25213,0.93785,-0.37181,-3.8621,16.091,0.92988,-0.30996,-1.5096,1.2398,3.2359e-11,-0.75482,0,0,0.33333,-7.8949e-16,0,0.66667
0.081769,0.19176,0.24531,-0.46237,-5.3441,24.989,0.30246,-0.10082,-1.2402,0.40328,-7.7174e-11,-0.62009,0,0,0.33333,1.9737e-16,0,0.66667
0.1066,0.10151,0.3198,-0.59774,-6.9642,24.025,0.50976,-0.16992,-0.72954,0.67968,1.9945e-08,-0.36477,0,0,0.33333,-0,-2.2313e-16,0.66667
0.11128,0.15852,0.33383,-0.51222,-5.9111,23.827,0.45599,-0.152,-1.068,0.60799,4.5253e-09,-0.53399,0,0,0.33333,3.9475e-16,0,0.66667
0.31416,0.97084,0.94249,0.70625,7.5919,16.186,-1.775,0.59168,-0.22743,-2.3667,5.5733e-14,-0.11372,0,0,0.33333,-0,-0,0.66667
0.74672,0.34448,2.2402,-0.23328,-1.1156,3.2451,1.3936,-0.46453,-1.8075,1.8581,-8.8346e-11,-0.90374,0,0,0.33333,3.158e-15,0,0.66667
0.86782,0.0019669,2.6035,-0.74705,-2.2098,1.8087,5.1865,-1.7288,-0.016201,6.9153,7.8838e-09,-0.0081004,0,0,0.33333,-0,-0,0.66667
0.45038,0.92507,1.3511,0.6376,5.9961,11.463,-2.2973,0.76577,-0.5541,-3.0631,4.0212e-13,-0.27705,0,0,0.33333,-0,-4.4072e-16,0.66667
0.7354,0.7774,2.2062,0.41609,2.1248,3.5925,-2.448,0.81599,-1.3851,-3.264,9.4296e-11,-0.69256,0,0,0.33333,7.8949e-16,0,0.66667
0.19541,0.90556,0.58624,0.60834,6.8999,20.571,-0.95102,0.31701,-0.68491,-1.268,-3.4383e-10,-0.34246,0,0,0.33333,-6.1679e-17,0,0.66667
0.1939,0.052008,0.58171,-0.67199,-7.6833,20.65,1.0424,-0.34747,-0.39382,1.3899,9.9301e-11,-0.19691,0,0,0.33333,-0,-0,0.66667
0.36744,0.091851,1.1023,-0.61222,-6.2356,14.239,1.7997,-0.59989,-0.66782,2.3995,-5.4512e-13,-0.33391,0,0,0.33333,8.8818e-16,0,0.66667
0.34924,0.47648,1.0477,-0.035287,-0.35126,14.705,0.098588,-0.032863,-1.9953,0.13145,2.8524e-12,-0.99763,0,0,0.33333,-0,-0,0.66667
0.30208,0.6383,0.90624,0.20745,2.1504,16.439,-0.50132,0.16711,-1.8463,-0.66843,-3.5757e-11,-0.92315,0,0,0.33333,-0,-0,0.66667
0.54976,0.12317,1.6493,-0.56524,-4.5904,8.3502,2.486,-0.82866,-0.86483,3.3146,8.8862e-13,-0.43242,0,0,0.33333,-9.8686e-16,0,0.66667
0.012695,0.45907,0.038086,-0.061393,-0.70102,27.739,0.006237,-0.0020819,-1.9863,0.0083145,-4.3645e-06,-0.99316,0,0,0.33333,-0,-0,0.66667
0.35923,0.86273,1.0777,0.54409,5.5362,14.489,-1.5636,0.52121,-0.94741,-2.0848,-1.3934e-12,-0.47371,0,0,0.33333,-0,-4.3749e-16,0.66667
0.68499,0.67585,2.055,0.26377,1.5452,4.5995,-1.4455,0.48182,-1.7523,-1.9273,3.0831e-11,-0.87613,0,0,0.33333,7.8949e-16,0,0.66667
0.20754,0.64976,0.62262,0.22464,2.4603,20.018,-0.37297,0.12432,-1.8205,-0.4973,-1.2454e-10,-0.91024,0,0,0.33333,1.9737e-16,0,0.66667
0.18084,0.94673,0.54251,0.6701,7.6994,21.151,-0.96943,0.32314,-0.40293,-1.2926,-2.7724e-10,-0.20146,0,0,0.33333,-0,-0,0.66667
0.29412,0.78172,0.88235,0.42259,4.4641,16.787,-0.99431,0.33144,-1.3662,-1.3257,-4.5855e-11,-0.68308,0,0,0.33333,-0,-0,0.66667
0.0056085,0.85954,0.016826,0.53931,6.3196,28.026,-0.024198,0.0080659,-0.96508,-0.032264,-2.9888e-08,-0.48254,0,0,0.33333,-0,-2.0162e-16,0.66667
0.34478,0.093471,1.0344,-0.60979,-6.3271,15.035,1.682,-0.56066,-0.67926,2.2426,6.1495e-13,-0.33963,0,0,0.33333,-9.2519e-16,0,0.66667
0.8284,0.54598,2.4852,0.068969,0.21977,1.7339,-0.45707,0.15236,-1.983,-0.60943,7.6425e-11,-0.99148,0,0,0.33333,-0,-0,0.66667
0.022289,0.46279,0.066868,-0.055819,-0.63711,27.353,0.0099537,-0.0033166,-1.9888,0.013272,1.9127e-06,-0.99439,0,0,0.33333,1.2336e-17,0,0.66667
0.030319,0.51366,0.090957,0.020497,0.23379,27.03,-0.0049724,0.0016593,-1.9983,-0.006629,2.7331e-06,-0.99914,0,0,0.33333,-9.8686e-17,0,0.66667
0.37436,0.48691,1.1231,-0.019641,-0.19121,13.812,0.058823,-0.019608,-1.9985,0.07843,9.4104e-13,-0.99924,0,0,0.33333,-0,-0,0.66667
0.06536,0.46196,0.19608,-0.057059,-0.64868,25.623,0.029835,-0.009945,-1.9885,0.03978,3.8526e-08,-0.99423,0,0,0.33333,4.9343e-17,0,0.66667
0.85305,0.87188,2.5591,0.55782,1.6774,1.7178,-3.8068,1.2689,-0.89394,-5.0757,2.3518e-09,-0.44697,0,0,0.33333,3.9475e-16,0,0.66667
0.36355,0.95926,1.0907,0.68889,7.1112,14.424,-2.0036,0.66785,-0.31227,-2.6714,2.9199e-13,-0.15614,0,0,0.33333,-0,-0,0.66667
0.70869,0.054388,2.1261,-0.66842,-3.9123,4.4187,3.7896,-1.2632,-0.41108,5.0528,-3.207e-12,-0.20554,0,0,0.33333,7.8949e-16,0,0.66667
0.34251,0.84271,1.0275,0.51407,5.2862,15.067,-1.4086,0.46953,-1.0616,-1.8781,-5.502e-12,-0.53079,0,0,0.33333,4.9343e-17,0,0.66667
0.28541,0.31991,0.85624,-0.27014,-2.8404,17.069,0.6168,-0.2056,-1.7404,0.8224,5.7242e-11,-0.87018,0,0,0.33333,-0,-0,0.66667
0.0054914,0.54289,0.016474,0.064328,0.73466,28.029,-0.002826,0.00093795,-1.9846,-0.00377,-6.0692e-06,-0.99232,0,0,0.33333,-0,-0,0.66667
0.27003,0.96627,0.8101,0.69941,7.7278,17.794,-1.5109,0.50364,-0.26124,-2.0146,-2.1595e-12,-0.13062,0,0,0.33333,9.8686e-17,0,0.66667
0.55821,0.31488,1.6746,-0.27767,-2.154,7.9268,1.24,-0.41333,-1.7264,1.6533,3.2996e-13,-0.86321,0,0,0.33333,-0,-0,0.66667
0.39521,0.10285,1.1856,-0.59572,-5.9038,13.271,1.8835,-0.62783,-0.7378,2.5113,-8.9484e-13,-0.3689,0,0,0.33333,7.8949e-16,0,0.66667
0.84515,0.74048,2.5355,0.36073,1.0751,1.6234,-2.4389,0.81298,-1.5373,-3.2519,2.8291e-10,-0.76864,0,0,0.33333,-0,-0,0.66667
0.25356,0.77002,0.76069,0.40503,4.3805,18.295,-0.8216,0.27387,-1.4163,-1.0955,-1.2072e-10,-0.70813,0,0,0.33333,3.9475e-16,0,0.66667
0.92019,0.55431,2.7606,0.081458,0.10285,0.57055,-0.59965,0.19988,-1.9764,-0.79954,4.9175e-08,-0.98822,0,0,0.33333,7.8949e-16,0,0.66667
0.14496,0.19467,0.43487,-0.458,-5.213,22.493,0.53113,-0.17704,-1.254,0.70817,1.1558e-09,-0.627,0,0,0.33333,-0,-0,0.66667
0.48392,0.9817,1.4517,0.72256,6.6099,10.469,-2.7972,0.93242,-0.14358,-3.7297,-1.0325e-13,-0.07179,0,0,0.33333,1.579e-15,0,0.66667
0.20199,0.34741,0.60596,-0.22888,-2.5135,20.233,0.36985,-0.12328,-1.8145,0.49314,8.8699e-11,-0.90723,0,0,0.33333,7.8949e-16,0,0.66667
0.11218,0.70238,0.33655,0.30357,3.449,23.765,-0.27244,0.090814,-1.6718,-0.36326,1.2852e-09,-0.83591,0,0,0.33333,-0,-0,0.66667
0.078936,0.89002,0.23681,0.58504,6.8431,25.115,-0.36944,0.12315,-0.78282,-0.49259,1.0236e-09,-0.39141,0,0,0.33333,9.8686e-17,0,0.66667
0.097961,0.085307,0.29388,-0.62204,-7.2796,24.369,0.48749,-0.1625,-0.62394,0.64998,2.8082e-09,-0.31197,0,0,0.33333,-0,-0,0.66667
0.44342,0.31687,1.3303,-0.27469,-2.5095,11.493,0.97445,-0.32482,-1.7318,1.2993,-2.1572e-13,-0.86591,0,0,0.33333,-0,-0,0.66667
0.49394,0.86576,1.4818,0.54864,4.8286,10.013,-2.1679,0.72264,-0.92928,-2.8906,1.1546e-13,-0.46464,0,0,0.33333,-7.8949e-16,0,0.66667
0.29445,0.90543,0.88335,0.60815,6.5436,16.85,-1.4326,0.47752,-0.68607,-1.9101,-1.0188e-11,-0.34303,0,0,0.33333,-4.9343e-17,0,0.66667
0.71033,0.70738,2.131,0.31106,1.6991,4.0517,-1.7677,0.58922,-1.6553,-2.3569,5.5427e-11,-0.82764,0,0,0.33333,-7.8949e-16,0,0.66667
0.0215,0.4948,0.064501,-0.007805,-0.08906,27.385,0.0013407,-0.0004482,-1.9998,0.0017869,-1.9512e-06,-0.99989,0,0,0.33333,4.9738e-17,0,0.66667
0.30959,0.66677,0.92878,0.25015,2.5844,16.171,-0.61956,0.20652,-1.7772,-0.82609,-3.4229e-11,-0.88858,0,0,0.33333,-7.8949e-16,0,0.66667
0.84278,0.99771,2.5284,0.74657,2.5915,2.1377,-5.0336,1.6779,-0.019258,-6.7114,1.1291e-09,-0.0096292,0,0,0.33333,-4.737e-15,1.0716e-16,0.66667
0.54746,0.3655,1.6424,-0.20176,-1.5863,8.2135,0.88362,-0.29454,-1.8553,1.1782,1.9701e-13,-0.92767,0,0,0.33333,-7.8949e-16,0,0.66667
0.05517,0.16096,0.16551,-0.50857,-5.924,26.05,0.22446,-0.07482,-1.0804,0.29928,-6.4512e-08,-0.54021,0,0,0.33333,-0,-0,0.66667
0.51017,0.8193,1.5305,0.47895,4.0861,9.4652,-1.9548,0.65159,-1.1842,-2.6063,-3.8103e-13,-0.59209,0,0,0.33333,-0,-0,0.66667
0.29425,0.90758,0.88276,0.61137,6.5816,16.859,-1.4392,0.47973,-0.67195,-1.9189,-9.9217e-12,-0.33597,0,0,0.33333,7.8949e-16,4.2627e-16,0.66667
0.16633,0.020615,0.49898,-0.71908,-8.3563,21.725,0.95682,-0.31894,-0.16094,1.2758,-9.6153e-11,-0.08047,0,0,0.33333,-0,-0,0.66667
0.67928,0.38913,2.0379,-0.1663,-0.98257,4.6952,0.90375,-0.30125,-1.9009,1.205,-2.0936e-11,-0.95043,0,0,0.33333,-0,-0,0.66667
0.19682,0.54707,0.59045,0.070602,0.77359,20.421,-0.11117,0.037055,-1.9815,-0.14822,-4.1058e-11,-0.99075,0,0,0.33333,3.9475e-16,0,0.66667
0.39589,0.89271,1.1877,0.58907,5.8293,13.243,-1.8657,0.62189,-0.76552,-2.4875,1.0043e-12,-0.38276,0,0,0.33333,-7.8949e-16,0,0.66667
0.72776,0.28688,2.1833,-0.31969,-1.6518,3.6821,1.8613,-0.62042,-1.6365,2.4817,-7.9128e-11,-0.81826,0,0,0.33333,-0,-0,0.66667
0.80994,0.72485,2.4298,0.33727,1.2353,2.1487,-2.1853,0.72844,-1.5957,-2.9138,2.4979e-10,-0.79785,0,0,0.33333,-0,-0,0.66667
0.60148,0.7141,1.8045,0.32115,2.3066,6.7342,-1.5453,0.51512,-1.6333,-2.0605,1.8112e-12,-0.81666,0,0,0.33333,7.8949e-16,0,0.66667
0.13081,0.80871,0.39243,0.46306,5.2945,23.049,-0.48458,0.16153,-1.2378,-0.6461,-3.7567e-10,-0.61891,0,0,0.33333,-0,-0,0.66667
0.01089,0.87638,0.032671,0.56457,6.6314,27.816,-0.049188,0.016396,-0.86741,-0.065583,-5.2265e-08,-0.43371,0,0,0.33333,-0,-0,0.66667
0.29257,0.67485,0.87772,0.26227,2.7436,16.801,-0.61387,0.20462,-1.7548,-0.81849,-4.9116e-11,-0.87741,0,0,0.33333,-3.9475e-16,0,0.66667
0.48388,0.98115,1.4517,0.72172,6.6017,10.469,-2.7938,0.93128,-0.14787,-3.7251,-2.5091e-14,-0.073934,0,0,0.33333,-0,3.7792e-16,0.66667
0.075671,0.54659,0.22701,0.069881,0.79336,25.21,-0.042303,0.014101,-1.9822,-0.056405,2.2059e-08,-0.99108,0,0,0.33333,9.8686e-17,0,0.66667
0.083491,0.55471,0.25047,0.082062,0.93059,24.897,-0.054812,0.018271,-1.9757,-0.073083,-5.8002e-09,-0.98787,0,0,0.33333,-0,-0,0.66667
0.97949,0.95961,2.9385,0.68942,0.27347,0.72292,-5.4023,1.8008,-0.30962,-7.203,-1.8534e-06,-0.15481,0,0,0.33333,-0,-0,0.66667
0.62427,0.98317,1.8728,0.72475,5.2797,6.4798,-3.6195,1.2065,-0.13218,-4.826,-1.1302e-13,-0.066092,0,0,0.33333,-0,-3.9239e-16,0.66667
0.82291,0.23267,2.4687,-0.401,-1.3864,1.9914,2.6399,-0.87996,-1.4276,3.5199,-4.0171e-10,-0.71378,0,0,0.33333,-1.579e-15,0,0.66667
0.78101,0.77624,2.343,0.41436,1.7714,2.7099,-2.5889,0.86297,-1.3902,-3.4519,2.4326e-10,-0.6951,0,0,0.33333,4.6245e-16,0,0.66667
0.51024,0.88808,1.5307,0.58212,5.0319,9.5375,-2.3762,0.79206,-0.79444,-3.1682,-1.3078e-13,-0.39722,0,0,0.33333,-0,-0,0.66667
0.60696,0.87777,1.8209,0.56665,4.1529,6.7629,-2.7515,0.91716,-0.85902,-3.6687,-9.1971e-13,-0.42951,0,0,0.33333,-1.579e-15,0,0.66667
0.28245,0.58043,0.84735,0.12065,1.2637,17.157,-0.27262,0.090874,-1.948,-0.3635,-3.2506e-11,-0.974,0,0,0.33333,3.9475e-16,0,0.66667
0.936,0.6952,2.808,0.2928,0.2906,0.52333,-2.1924,0.73082,-1.6953,-2.9233,-8.5648e-10,-0.84764,0,0,0.33333,-0,-0,0.66667
0.61687,0.87202,1.8506,0.55803,4.0029,6.494,-2.7539,0.91796,-0.8931,-3.6718,-6.7102e-13,-0.44655,0,0,0.33333,3.9475e-16,0,0.66667
0.40685,0.23849,1.2205,-0.39227,-3.7618,12.766,1.2767,-0.42558,-1.4528,1.7023,2.7844e-13,-0.72641,0,0,0.33333,-0,-0,0.66667
0.050178,0.86192,0.15054,0.54289,6.3475,26.252,-0.21793,0.072643,-0.95157,-0.29057,-1.7943e-08,-0.47578,0,0,0.33333,-0,-0,0.66667
0.10484,0.33565,0.31453,-0.24652,-2.7975,24.052,0.20677,-0.068924,-1.7836,0.2757,-6.4917e-09,-0.89182,0,0,0.33333,-9.8686e-17,0,0.66667
0.44394,0.88971,1.3318,0.58457,5.4985,11.634,-2.0761,0.69204,-0.7842,-2.7682,7.796e-13,-0.3921,0,0,0.33333,-0,-0,0.66667
0.023763,0.31514,0.071288,-0.2773,-3.186,27.296,0.052714,-0.017571,-1.727,0.070286,-1.9661e-08,-0.86349,0,0,0.33333,-0,-0,0.66667
0.28857,0.67346,0.86571,0.26019,2.7287,16.949,-0.60066,0.20022,-1.7585,-0.80088,-5.2849e-11,-0.87925,0,0,0.33333,3.9475e-16,0,0.66667
0.2149,0.54192,0.64469,0.062874,0.68323,19.721,-0.10809,0.03603,-1.9855,-0.14412,-5.9292e-11,-0.99275,0,0,0.33333,-3.9475e-16,0,0.66667
0.22151,0.077142,0.66453,-0.63429,-7.1326,19.583,1.124,-0.37467,-0.56903,1.4987,8.3505e-11,-0.28451,0,0,0.33333,3.9475e-16,0,0.66667
0.19268,0.10631,0.57805,-0.59054,-6.6924,20.67,0.91029,-0.30343,-0.7594,1.2137,3.7159e-10,-0.3797,0,0,0.33333,-0,-0,0.66667
0.83915,0.32154,2.5175,-0.26769,-0.81401,1.6452,1.7971,-0.59902,-1.7448,2.3961,-4.5618e-12,-0.87241,0,0,0.33333,1.579e-15,0,0.66667
0.46604,0.14617,1.3981,-0.53074,-4.8311,10.881,1.9788,-0.6596,-0.99815,2.6384,-6.4393e-13,-0.49908,0,0,0.33333,-0,-0,0.66667
0.54314,0.98238,1.6294,0.72357,6.0921,8.6905,-3.144,1.048,-0.13791,-4.192,-1.5565e-13,-0.068955,0,0,0.33333,7.8949e-16,3.8829e-16,0.66667
0.58082,0.14268,1.7425,-0.53598,-4.109,7.4458,2.4904,-0.83015,-0.97812,3.3206,1.1602e-12,-0.48906,0,0,0.33333,-7.8949e-16,0,0.66667
0.094346,0.70767,0.28304,0.31151,3.5545,24.475,-0.23512,0.078373,-1.6549,-0.31349,-4.3646e-10,-0.82746,0,0,0.33333,-0,-0,0.66667
0.064011,0.39216,0.19203,-0.16175,-1.8431,25.679,0.082832,-0.027611,-1.9067,0.11044,-1.4013e-08,-0.95333,0,0,0.33333,-9.8686e-17,0,0.66667
0.98681,0.23433,2.9604,-0.39851,0.041514,0.27124,3.146,-1.0487,-1.4349,4.1947,5.2736e-09,-0.71744,0,0,0.33333,-1.579e-15,0,0.66667
0.28383,0.89667,0.85149,0.595,6.4362,17.234,-1.351,0.45035,-0.741,-1.8014,-1.8558e-11,-0.3705,0,0,0.33333,3.9475e-16,0,0.66667
0.1419,0.27554,0.4257,-0.33669,-3.8021,22.594,0.38221,-0.1274,-1.5973,0.50962,-1.3651e-11,-0.79866,0,0,0.33333,2.9606e-16,0,0.66667
0.018779,0.25641,0.056337,-0.36538,-4.2205,27.498,0.054892,-0.018297,-1.5254,0.073189,5.5881e-09,-0.76268,0,0,0.33333,-4.9343e-17,0,0.66667
0.87071,0.11263,2.6121,-0.58105,-1.5509,1.5173,4.0474,-1.3491,-0.79898,5.3965,-3.574e-09,-0.39949,0,0,0.33333,-1.579e-15,0,0.66667
0.17375,0.67566,0.52124,0.26349,2.9317,21.336,-0.36625,0.12208,-1.7529,-0.48833,-1.8142e-10,-0.87643,0,0,0.33333,1.9737e-16,0,0.66667
0.17154,0.66201,0.51461,0.24301,2.7035,21.42,-0.33348,0.11116,-1.7906,-0.44464,4.9665e-11,-0.89528,0,0,0.33333,3.9475e-16,0,0.66667
0.3727,0.75567,1.1181,0.38351,3.7976,13.943,-1.1435,0.38115,-1.4773,-1.5246,-4.7511e-12,-0.73865,0,0,0.33333,-0,-0,0.66667
0.18251,0.071959,0.54753,-0.64206,-7.3481,21.077,0.93745,-0.31248,-0.5338,1.2499,3.8423e-10,-0.2669,0,0,0.33333,-0,-0,0.66667
0.44101,0.26331,1.323,-0.35503,-3.2711,11.603,1.2526,-0.41752,-1.5513,1.6701,-6.1839e-13,-0.77564,0,0,0.33333,-0,-0,0.66667
0.57868,0.74507,1.736,0.36761,2.7712,7.3879,-1.7018,0.56727,-1.5201,-2.2691,-3.0576e-13,-0.76007,0,0,0.33333,-0,-0,0.66667
0.83616,0.99925,2.5085,0.74887,2.7022,2.2352,-5.0094,1.6698,-0.0067446,-6.6792,-1.2517e-09,-0.0033723,0,0,0.33333,-4.9343e-15,0,0.66667
0.58829,0.88145,1.7649,0.57217,4.3503,7.2712,-2.6928,0.89761,-0.83583,-3.5905,-1.1746e-12,-0.41791,0,0,0.33333,1.579e-15,0,0.66667
0.92403,0.29377,2.7721,-0.30934,-0.39283,0.64325,2.2867,-0.76224,-1.6594,3.049,9.4468e-10,-0.8297,0,0,0.33333,-0,-0,0.66667
0.48128,0.086455,1.4439,-0.62032,-5.6053,10.463,2.3884,-0.79613,-0.63178,3.1845,-2.3181e-13,-0.31589,0,0,0.33333,7.8949e-16,0,0.66667
0.62184,0.13831,1.8655,-0.54254,-3.8421,6.3504,2.699,-0.89967,-0.95291,3.5987,1.994e-13,-0.47645,0,0,0.33333,-1.579e-15,0,0.66667
0.44171,0.99171,1.3251,0.73757,7.1099,11.826,-2.6063,0.86877,-0.065465,-3.4751,-3.5971e-14,-0.032732,0,0,0.33333,7.8949e-16,0,0.66667
0.91251,0.81749,2.7375,0.47623,0.79042,0.91529,-3.4765,1.1588,-1.1936,-4.6354,4.1102e-09,-0.59681,0,0,0.33333,-0,-0,0.66667
0.71041,0.32137,2.1312,-0.26794,-1.4563,4.0264,1.5228,-0.5076,-1.7442,2.0304,-5.2639e-11,-0.87212,0,0,0.33333,-0,-0,0.66667
0.6028,0.34505,1.8084,-0.23242,-1.6531,6.6593,1.1208,-0.37361,-1.8086,1.4944,-2.686e-12,-0.90429,0,0,0.33333,-1.579e-15,0,0.66667
0.84339,0.48622,2.5302,-0.020668,-0.059552,1.503,0.13945,-0.046483,-1.9984,0.18593,5.3622e-10,-0.99918,0,0,0.33333,-0,-0,0.66667
0.9065,0.013038,2.7195,-0.73044,-1.5406,1.3472,5.2972,-1.7657,-0.10286,7.0629,-3.8449e-08,-0.05143,0,0,0.33333,-3.158e-15,0,0.66667
0.57799,0.65976,1.734,0.23964,1.7895,7.3474,-1.1081,0.36935,-1.7967,-1.4774,5.751e-13,-0.89837,0,0,0.33333,-0,-0,0.66667
0.2076,0.6129,0.62279,0.16935,1.8509,20.01,-0.28125,0.093751,-1.8974,-0.375,-1.0632e-10,-0.94872,0,0,0.33333,-0,-0,0.66667
0.33309,0.014867,0.99927,-0.7277,-7.7387,15.522,1.9391,-0.64637,-0.11645,2.5855,5.7954e-14,-0.058227,0,0,0.33333,-0,-0,0.66667
0.92001,0.49872,2.76,-0.0019155,-0.0024109,0.56415,0.014098,-0.0046995,-2.001,0.018798,-1.7325e-07,-1.0005,0,0,0.33333,-4.737e-15,0,0.66667
0.49116,0.22704,1.4735,-0.40944,-3.5604,10.013,1.6088,-0.53627,-1.4035,2.1451,-2.3814e-13,-0.70175,0,0,0.33333,-0,-0,0.66667
0.84515,0.33226,2.5355,-0.25161,-0.73241,1.5481,1.7012,-0.56705,-1.7747,2.2682,-2.2914e-10,-0.88736,0,0,0.33333,-0,-0,0.66667
0.49158,0.99983,1.4747,0.74975,6.8226,10.258,-2.9485,0.98283,-0.0021896,-3.9313,-1.0458e-13,-0.0010948,0,0,0.33333,1.4803e-15,0,0.66667
0.048249,0.91957,0.14475,0.62936,7.4261,26.335,-0.24293,0.080975,-0.5914,-0.3239,-1.077e-07,-0.2957,0,0,0.33333,-0,-0,0.66667
0.58842,0.035467,1.7653,-0.6968,-5.4109,7.3918,3.2801,-1.0934,-0.27384,4.3735,2.2116e-13,-0.13692,0,0,0.33333,-0,-0,0.66667
0.97989,0.095195,2.9397,-0.60721,-0.16811,0.58165,4.76,-1.5867,-0.68979,6.3466,6.8261e-07,-0.34489,0,0,0.33333,3.158e-15,0,0.66667
0.15147,0.91791,0.4544,0.62686,7.2396,22.275,-0.75958,0.25319,-0.60223,-1.0128,-7.2654e-10,-0.30111,0,0,0.33333,-0,-0,0.66667
0.62692,0.7816,1.8808,0.4224,2.9083,6.1223,-2.1185,0.70616,-1.3669,-2.8247,3.3258e-12,-0.68343,0,0,0.33333,-0,-0,0.66667
0.64441,0.94021,1.9332,0.66032,4.5467,5.8982,-3.4041,1.1347,-0.45026,-4.5389,-4.5119e-13,-0.22513,0,0,0.33333,1.579e-15,0,0.66667
0.10623,0.51827,0.31868,0.027401,0.30914,23.989,-0.023285,0.0077618,-1.9968,-0.031047,-8.3027e-09,-0.99841,0,0,0.33333,-0,-0,0.66667
0.29898,0.936,0.89693,0.654,7.0551,16.707,-1.5642,0.52141,-0.4802,-2.0857,-3.1405e-12,-0.2401,0,0,0.33333,1.4803e-16,0,0.66667
0.38954,0.42618,1.1686,-0.11073,-1.064,13.287,0.34507,-0.11502,-1.9563,0.4601,2.4662e-12,-0.97813,0,0,0.33333,-0,-0,0.66667
0.95436,0.18962,2.8631,-0.46557,-0.33137,0.54361,3.5546,-1.1849,-1.2303,4.7394,2.7013e-08,-0.61515,0,0,0.33333,3.158e-15,0,0.66667
0.57675,0.84837,1.7303,0.52255,4.0279,7.5479,-2.4111,0.80369,-1.0297,-3.2147,-1.307e-12,-0.51483,0,0,0.33333,-0,-0,0.66667
0.087358,0.64723,0.26208,0.22084,2.5122,24.748,-0.15434,0.051446,-1.8261,-0.20578,-1.4285e-09,-0.91305,0,0,0.33333,-0,-0,0.66667
0.10716,0.037267,0.32148,-0.6941,-8.1754,24.02,0.59504,-0.19835,-0.28724,0.79338,2.2403e-08,-0.14362,0,0,0.33333,-0,2.455e-16,0.66667
0.95368,0.43728,2.861,-0.094083,-0.048144,0.28414,0.7178,-0.23927,-1.97,0.95707,-5.826e-07,-0.985,0,0,0.33333,-1.2336e-16,0,0.66667
0.80534,0.53954,2.416,0.059309,0.21572,2.1066,-0.38212,0.12737,-1.9871,-0.50949,-6.2445e-12,-0.99353,0,0,0.33333,-0,-0,0.66667
0.4283,0.67811,1.2849,0.26717,2.4819,11.994,-0.91544,0.30515,-1.7457,-1.2206,-1.6209e-13,-0.87284,0,0,0.33333,-3.9475e-16,0,0.66667
0.67249,0.83457,2.0175,0.50186,3.1371,5.0576,-2.7,0.89999,-1.1046,-3.6,1.1184e-11,-0.5523,0,0,0.33333,-7.8949e-16,0,0.66667
0.21193,0.078488,0.63579,-0.63227,-7.1397,19.947,1.072,-0.35732,-0.57782,1.4293,1.2237e-10,-0.28891,0,0,0.33333,1.4377e-16,0,0.66667
0.52016,0.56299,1.5605,0.09449,0.77284,9.0085,-0.3932,0.13107,-1.9692,-0.52427,-3.1419e-14,-0.98459,0,0,0.33333,-1.579e-15,0,0.66667
0.97554,0.0057962,2.9266,-0.74131,-0.41987,0.8401,5.7854,-1.9285,-0.045975,7.7139,-5.9092e-06,-0.022987,0,0,0.33333,-0,-0,0.66667
0.83042,0.74754,2.4913,0.37132,1.2196,1.85,-2.4668,0.82227,-1.5105,-3.2891,3.3983e-10,-0.75527,0,0,0.33333,-0,-0,0.66667
0.21598,0.68595,0.64794,0.27893,3.0508,19.7,-0.48194,0.16065,-1.7243,-0.64259,-1.4235e-10,-0.86213,0,0,0.33333,-4.9343e-17,0,0.66667
0.44842,0.3499,1.3453,-0.22516,-2.0391,11.313,0.80773,-0.26924,-1.8197,1.077,1.5987e-14,-0.90984,0,0,0.33333,-0,-0,0.66667
0.57268,0.07627,1.718,-0.63559,-5.0212,7.7619,2.9119,-0.97065,-0.5629,3.8826,6.4637e-13,-0.28145,0,0,0.33333,-0,-0,0.66667
0.5708,0.13038,1.7124,-0.55443,-4.3388,7.7409,2.5318,-0.84392,-0.90696,3.3757,1.1844e-12,-0.45348,0,0,0.33333,-0,-0,0.66667
0.93053,0.94964,2.7916,0.67447,1.0103,1.0294,-5.0209,1.6736,-0.38185,-6.6945,4.9591e-08,-0.19092,0,0,0.33333,-1.579e-15,0,0.66667
0.2551,0.60925,0.76529,0.16388,1.7476,18.191,-0.33444,0.11148,-1.9038,-0.44592,-6.2811e-11,-0.95189,0,0,0.33333,-0,-0,0.66667
0.65634,0.52892,1.969,0.04338,0.2711,5.2268,-0.22778,0.075926,-1.9944,-0.3037,3.7647e-12,-0.99722,0,0,0.33333,3.9475e-16,0,0.66667
0.78125,0.10612,2.3437,-0.59082,-2.6318,2.8904,3.6926,-1.2309,-0.75888,4.9235,-1.5413e-10,-0.37944,0,0,0.33333,-0,-0,0.66667
0.11597,0.14207,0.34792,-0.53689,-6.2034,23.645,0.49812,-0.16604,-0.97431,0.66415,4.5694e-09,-0.48716,0,0,0.33333,-1.9737e-16,0,0.66667
0.52639,0.76906,1.5792,0.40359,3.3339,8.9274,-1.6996,0.56653,-1.4202,-2.2661,-6.1928e-13,-0.71011,0,0,0.33333,-7.8949e-16,0,0.66667
0.41234,0.50357,1.237,0.0053589,0.050242,12.494,-0.017678,0.0058925,-2.0001,-0.02357,-1.4111e-13,-1.0001,0,0,0.33333,-0,-0,0.66667
0.50229,0.04608,1.5069,-0.68088,-6.0393,9.8639,2.736,-0.912,-0.35121,3.648,3.3307e-14,-0.1756,0,0,0.33333,-7.8949e-16,0,0.66667
0.065315,0.70099,0.19595,0.30149,3.455,25.632,-0.15753,0.052511,-1.6763,-0.21004,-3.5105e-09,-0.83817,0,0,0.33333,-0,-0,0.66667
0.26954,0.92971,0.80861,0.64456,7.0746,17.785,-1.3899,0.46329,-0.52259,-1.8532,-1.3445e-11,-0.2613,0,0,0.33333,3.9475e-16,0,0.66667
0.25,0.74757,0.75001,0.37135,4.0142,18.421,-0.74271,0.24757,-1.5108,-0.99028,-1.2852e-10,-0.75541,0,0,0.33333,-4.4409e-16,0,0.66667
0.66868,0.45537,2.006,-0.066951,-0.40544,4.9275,0.35815,-0.11938,-1.9835,0.47753,-7.5341e-12,-0.99177,0,0,0.33333,-0,-0,0.66667
0.050074,0.06621,0.15022,-0.65069,-7.6948,26.264,0.26066,-0.086887,-0.49504,0.34755,1.7005e-08,-0.24752,0,0,0.33333,-0,-0,0.66667
0.97313,0.305,2.9194,-0.2925,-0.041385,0.25094,2.2772,-0.75905,-1.6956,3.0362,1.46e-08,-0.84779,0,0,0.33333,-7.8949e-16,0,0.66667
0.37569,0.52209,1.1271,0.033132,0.32218,13.765,-0.099577,0.033192,-1.9962,-0.13277,-1.2988e-12,-0.99809,0,0,0.33333,-0,-0,0.66667
0.87187,0.85284,2.6156,0.52926,1.3683,1.436,-3.6916,1.2305,-1.0038,-4.9221,1.4276e-09,-0.50188,0,0,0.33333,-0,-0,0.66667
0.69429,0.93895,2.0829,0.65843,4.0044,4.7222,-3.6571,1.219,-0.45917,-4.8762,2.0748e-12,-0.22959,0,0,0.33333,-1.579e-15,0,0.66667
0.029579,0.41966,0.088737,-0.1205,-1.3763,27.06,0.028515,-0.0095052,-1.948,0.03802,-1.507e-07,-0.97402,0,0,0.33333,4.9343e-17,0,0.66667
0.087271,0.76168,0.26181,0.39252,4.5081,24.763,-0.27404,0.091347,-1.4515,-0.36539,3.3265e-09,-0.72576,0,0,0.33333,-0,-0,0.66667
0.094963,0.37423,0.28489,-0.18865,-2.1403,24.443,0.14332,-0.047773,-1.8747,0.19109,-1.3373e-08,-0.93736,0,0,0.33333,-2.5288e-16,0,0.66667
0.56423,0.50795,1.6927,0.011919,0.09054,7.6955,-0.053801,0.017934,-1.9995,-0.071734,5.294e-14,-0.99977,0,0,0.33333,-0,-0,0.66667
0.56604,0.2336,1.6981,-0.39961,-3.0919,7.7637,1.8095,-0.60318,-1.4316,2.4127,8.0347e-13,-0.71582,0,0,0.33333,-7.8949e-16,0,0.66667
0.31061,0.384,0.93182,-0.174,-1.7905,16.12,0.43236,-0.14412,-1.8923,0.57648,2.6704e-11,-0.94613,0,0,0.33333,-0,-0,0.66667
0.11319,0.87245,0.33958,0.55867,6.4731,23.758,-0.5059,0.16863,-0.89083,-0.67454,-4.178e-09,-0.44542,0,0,0.33333,-4.9343e-17,0,0.66667
0.76861,0.52494,2.3058,0.037417,0.16199,2.7637,-0.23007,0.076691,-1.9951,-0.30676,1.2121e-11,-0.99755,0,0,0.33333,-0,-0,0.66667
0.1382,0.84383,0.4146,0.51574,5.9121,22.768,-0.5702,0.19007,-1.0555,-0.76026,-3.9936e-09,-0.52774,0,0,0.33333,-3.9475e-16,0,0.66667
0.58503,0.095523,1.7551,-0.60672,-4.6664,7.3924,2.8396,-0.94653,-0.69173,3.7861,1.0258e-12,-0.34586,0,0,0.33333,-0,-0,0.66667
0.50868,0.97428,1.526,0.71142,6.2865,9.6985,-2.8951,0.96502,-0.20037,-3.8601,-8.9484e-14,-0.10018,0,0,0.33333,-0,-0,0.66667
0.51012,0.013825,1.5304,-0.72926,-6.4507,9.6722,2.9761,-0.99204,-0.10835,3.9681,-3.7748e-14,-0.054173,0,0,0.33333,-1.579e-15,0,0.66667
0.35934,0.72806,1.078,0.34209,3.417,14.4,-0.9834,0.3278,-1.5841,-1.3112,-9.0744e-12,-0.79205,0,0,0.33333,-0,-0,0.66667
0.055479,0.14494,0.16644,-0.53259,-6.2175,26.04,0.23638,-0.078794,-0.99076,0.31518,2.9538e-09,-0.49538,0,0,0.33333,-0,-0,0.66667
0.33619,0.049735,1.0086,-0.6754,-7.1142,15.379,1.8165,-0.60551,-0.37734,2.422,-7.7938e-14,-0.18867,0,0,0.33333,-0,-0,0.66667
0.94985,0.013907,2.8496,-0.72914,-0.83223,0.97546,5.5406,-1.8469,-0.10916,7.3875,-5.0017e-08,-0.054581,0,0,0.33333,-0,-0,0.66667
0.94833,0.78205,2.845,0.42308,0.34281,0.54037,-3.2098,1.0699,-1.3644,-4.2797,-8.6937e-09,-0.6822,0,0,0.33333,3.158e-15,0,0.66667
0.42932,0.44979,1.288,-0.075315,-0.69372,11.923,0.25867,-0.086225,-1.9791,0.3449,2.5602e-13,-0.98955,0,0,0.33333,-0,-0,0.66667
0.74205,0.14857,2.2261,-0.52714,-2.687,3.5607,3.1293,-1.0431,-1.0116,4.1724,-7.7626e-11,-0.50581,0,0,0.33333,-7.8949e-16,0,0.66667
0.55762,0.17284,1.6728,-0.49073,-3.8941,8.0656,2.1891,-0.72971,-1.143,2.9188,1.0885e-12,-0.57152,0,0,0.33333,-0,-0,0.66667
0.914,0.87556,2.742,0.56334,0.96947,1.0108,-4.1192,1.3731,-0.87241,-5.4922,3.5824e-08,-0.43621,0,0,0.33333,-0,-0,0.66667
0.73641,0.39326,2.2092,-0.16011,-0.79026,3.4269,0.94327,-0.31442,-1.9085,1.2577,-5.4731e-11,-0.95424,0,0,0.33333,-7.8949e-16,0,0.66667
0.39393,0.63678,1.1818,0.20517,1.9693,13.15,-0.64658,0.21553,-1.8499,-0.86211,-3.0836e-12,-0.92493,0,0,0.33333,-7.8949e-16,0,0.66667
0.060535,0.75189,0.18161,0.37783,4.3529,25.828,-0.18298,0.060993,-1.4933,-0.24397,1.5137e-09,-0.74667,0,0,0.33333,-0,-0,0.66667
0.81061,0.58738,2.4318,0.13107,0.46522,2.0332,-0.84998,0.28333,-1.9391,-1.1333,1.5319e-10,-0.96956,0,0,0.33333,-0,-0,0.66667
0.31642,0.97422,0.94926,0.71133,7.6396,16.108,-1.8006,0.60021,-0.20104,-2.4008,-1.1968e-13,-0.10052,0,0,0.33333,-0,-0,0.66667
0.49421,0.68121,1.4826,0.27181,2.3274,9.8554,-1.0746,0.35822,-1.7372,-1.4329,2.6867e-14,-0.86858,0,0,0.33333,3.9475e-16,0,0.66667
0.54153,0.6435,1.6246,0.21525,1.7103,8.3926,-0.93251,0.31084,-1.8346,-1.2433,-2.3731e-13,-0.91729,0,0,0.33333,7.8949e-16,0,0.66667
0.51753,0.78627,1.5526,0.42941,3.6044,9.2101,-1.7779,0.59262,-1.3448,-2.3705,-3.6915e-13,-0.67238,0,0,0.33333,-1.579e-15,0,0.66667
0.14619,0.13214,0.43858,-0.5518,-6.3324,22.463,0.64535,-0.21512,-0.91716,0.86046,2.1484e-09,-0.45858,0,0,0.33333,3.9475e-16,0,0.66667
0.35934,0.096238,1.078,-0.60564,-6.2063,14.519,1.7411,-0.58036,-0.69693,2.3214,-1.944e-13,-0.34846,0,0,0.33333,-7.8949e-16,1.157e-16,0.66667
0.36131,0.63708,1.0839,0.20562,2.0344,14.294,-0.59433,0.19811,-1.8494,-0.79244,-8.9694e-12,-0.92468,0,0,0.33333,-0,-0,0.66667
0.2158,0.83074,0.64739,0.49611,5.5134,19.756,-0.85647,0.28549,-1.1244,-1.142,-2.6248e-10,-0.5622,0,0,0.33333,-0,-0,0.66667
0.036849,0.61652,0.11055,0.17478,1.9981,26.769,-0.051524,0.017175,-1.891,-0.068699,3.1835e-08,-0.94549,0,0,0.33333,2.4672e-17,0,0.66667
0.92418,0.69037,2.7725,0.28556,0.35751,0.62446,-2.1113,0.70376,-1.7108,-2.815,1.1152e-08,-0.85538,0,0,0.33333,-0,-0,0.66667
0.35432,0.80691,1.063,0.46037,4.6636,14.623,-1.3049,0.43498,-1.2464,-1.7399,-5.7574e-12,-0.62321,0,0,0.33333,-5.9212e-16,0,0.66667
0.1958,0.54138,0.5874,0.062064,0.68025,20.46,-0.097216,0.032405,-1.9857,-0.12962,2.6378e-12,-0.99285,0,0,0.33333,-0,-0,0.66667
0.86409,0.83363,2.5923,0.50044,1.3595,1.501,-3.4594,1.1531,-1.1091,-4.6125,2.7695e-09,-0.55453,0,0,0.33333,7.8949e-16,0,0.66667
0.49805,0.99137,1.4942,0.73706,6.636,10.047,-2.9367,0.97892,-0.068381,-3.9157,2.2871e-14,-0.034191,0,0,0.33333,-0,-3.1562e-16,0.66667
0.81993,0.12919,2.4598,-0.55622,-2.0414,2.2008,3.6485,-1.2162,-0.90009,4.8646,-7.7161e-10,-0.45004,0,0,0.33333,3.158e-15,0,0.66667
0.76332,0.76385,2.29,0.39578,1.8155,3.0228,-2.4169,0.80562,-1.4426,-3.2225,1.6756e-10,-0.72131,0,0,0.33333,1.579e-15,0,0.66667
0.11672,0.11806,0.35017,-0.57291,-6.6421,23.622,0.53498,-0.17833,-0.83269,0.71331,5.7825e-09,-0.41634,0,0,0.33333,-0,-0,0.66667
0.51608,0.038475,1.5482,-0.69229,-6.0351,9.457,2.8582,-0.95273,-0.29629,3.8109,1.1102e-15,-0.14814,0,0,0.33333,-0,-0,0.66667
0.33424,0.051297,1.0027,-0.67305,-7.0979,15.447,1.7997,-0.5999,-0.38868,2.3996,1.9762e-14,-0.19434,0,0,0.33333,-3.9475e-16,0,0.66667
0.68594,0.59465,2.0578,0.14198,0.82226,4.5322,-0.77913,0.25971,-1.9295,-1.0388,2.1332e-11,-0.96475,0,0,0.33333,-0,-0,0.66667
0.78722,0.7192,2.3617,0.3288,1.3455,2.5321,-2.0707,0.69024,-1.6164,-2.761,2.1139e-10,-0.80822,0,0,0.33333,-0,-0,0.66667
0.28471,0.056333,0.85413,-0.6655,-7.2561,17.235,1.5158,-0.50527,-0.42532,2.0211,4.672e-12,-0.21266,0,0,0.33333,-3.9475e-16,0,0.66667
0.42001,0.21253,1.26,-0.4312,-4.0932,12.338,1.4489,-0.48295,-1.3391,1.9318,-7.6528e-13,-0.66956,0,0,0.33333,-1.4605e-16,0,0.66667
0.88235,0.1231,2.6471,-0.56535,-1.36,1.3547,3.9907,-1.3302,-0.86409,5.3209,-9.419e-09,-0.43204,0,0,0.33333,-2.1711e-15,0,0.66667
0.764,0.17385,2.292,-0.48922,-2.28,3.0941,2.9901,-0.99672,-1.1487,3.9869,-1.6194e-10,-0.57435,0,0,0.33333,-2.4837e-15,0,0.66667
0.2849,0.58467,0.85471,0.127,1.3283,17.066,-0.28946,0.096486,-1.9423,-0.38595,-3.2689e-11,-0.97117,0,0,0.33333,-3.9475e-16,0,0.66667
0.72388,0.24783,2.1716,-0.37826,-1.996,3.8036,2.1905,-0.73017,-1.4918,2.9207,-7.498e-11,-0.74591,0,0,0.33333,7.8949e-16,0,0.66667
0.02714,0.88026,0.081421,0.57039,6.6993,27.17,-0.12384,0.041281,-0.84334,-0.16512,-1.1099e-07,-0.42167,0,0,0.33333,9.8686e-17,0,0.66667
0.5633,0.13067,1.6899,-0.554,-4.3918,7.9527,2.4965,-0.83218,-0.90921,3.3287,1.0438e-12,-0.45461,0,0,0.33333,-0,-0,0.66667
0.041077,0.30632,0.12323,-0.29052,-3.3363,26.602,0.095471,-0.031824,-1.6998,0.12729,2.276e-08,-0.84988,0,0,0.33333,4.9343e-17,0,0.66667
0.12608,0.92068,0.37824,0.63102,7.3443,23.266,-0.63647,0.21216,-0.58398,-0.84863,-1.3449e-09,-0.29199,0,0,0.33333,1.9737e-16,0,0.66667
0.8206,0.68309,2.4618,0.27464,0.93769,1.9343,-1.8029,0.60098,-1.7319,-2.4039,1.0885e-10,-0.86595,0,0,0.33333,7.8949e-16,0,0.66667
0.68161,0.36204,2.0448,-0.20694,-1.2181,4.6542,1.1284,-0.37614,-1.847,1.5046,-2.5574e-11,-0.92351,0,0,0.33333,-0,-0,0.66667
0.43883,0.27458,1.3165,-0.33813,-3.119,11.668,1.187,-0.39568,-1.5937,1.5827,-4.9605e-13,-0.79687,0,0,0.33333,-0,-0,0.66667
0.39571,0.61688,1.1871,0.17532,1.6777,13.082,-0.55501,0.185,-1.8904,-0.74002,-2.816e-12,-0.94519,0,0,0.33333,-0,-0,0.66667
0.8758,0.4865,2.6274,-0.02025,-0.044808,1.0607,0.14188,-0.047292,-1.9984,0.18917,6.029e-09,-0.99918,0,0,0.33333,-0,-0,0.66667
0.23877,0.5567,0.7163,0.085047,0.91341,18.805,-0.16245,0.05415,-1.9743,-0.2166,-4.2027e-11,-0.98714,0,0,0.33333,-1.9737e-16,0,0.66667
0.39398,0.001837,1.182,-0.74724,-7.5719,13.419,2.3552,-0.78507,-0.015424,3.1403,-1.7208e-13,-0.0077122,0,0,0.33333,-0,-0,0.66667
0.14348,0.50665,0.43043,0.0099806,0.11148,22.51,-0.011456,0.0038187,-1.9997,-0.015275,-1.0765e-09,-0.99985,0,0,0.33333,7.8949e-16,0,0.66667
0.67243,0.68583,2.0173,0.27874,1.6923,4.903,-1.4995,0.49982,-1.7249,-1.9993,2.3621e-11,-0.86246,0,0,0.33333,2.9606e-16,0,0.66667
0.17561,0.1644,0.52683,-0.5034,-5.6932,21.306,0.70722,-0.23574,-1.0988,0.94295,7.063e-10,-0.54938,0,0,0.33333,-0,-0,0.66667
0.99975,0.58791,2.9993,0.13187,-0.073762,0.024228,-1.0547,0.35157,-1.9387,-1.4063,-8.0703e-08,-0.96936,0,0,0.33333,-7.8949e-16,0,0.66667
0.96443,0.061345,2.8933,-0.65798,-0.46328,0.75289,5.0766,-1.6922,-0.46145,6.7689,9.2588e-08,-0.23073,0,0,0.33333,1.8204e-15,5.3951e-19,0.66667
0.067754,0.62595,0.20326,0.18893,2.1535,25.53,-0.1024,0.034134,-1.8739,-0.13654,-2.774e-08,-0.93693,0,0,0.33333,-1.9737e-16,0,0.66667
0.070849,0.68179,0.21255,0.27268,3.1177,25.41,-0.15456,0.051518,-1.7355,-0.20607,-4.3965e-09,-0.86775,0,0,0.33333,-7.3922e-18,0,0.66667
0.24709,0.98977,0.74127,0.73466,8.2603,18.663,-1.4522,0.48407,-0.080667,-1.9363,-7.094e-12,-0.040334,0,0,0.33333,1.9737e-16,0,0.66667
0.31125,0.94493,0.93375,0.66739,7.1518,16.269,-1.6618,0.55394,-0.41649,-2.2157,-1.3899e-12,-0.20825,0,0,0.33333,-0,-2.8609e-16,0.66667
0.79794,0.47305,2.3938,-0.040429,-0.15274,2.2314,0.25808,-0.086025,-1.9948,0.3441,3.4943e-11,-0.99741,0,0,0.33333,-0,-0,0.66667
0.75286,0.039929,2.2586,-0.69011,-3.5257,3.546,4.1565,-1.3855,-0.30649,5.5419,-7.2014e-12,-0.15325,0,0,0.33333,-0,-0,0.66667
0.1789,0.62924,0.53671,0.19387,2.1464,21.127,-0.27747,0.09249,-1.8665,-0.36996,1.9323e-11,-0.93323,0,0,0.33333,-0,-0,0.66667
0.74052,0.97561,2.2216,0.71342,3.8268,3.8195,-4.2264,1.4088,-0.19009,-5.6352,2.3133e-12,-0.095046,0,0,0.33333,-0,-0,0.66667
0.37683,0.39631,1.1305,-0.15553,-1.5145,13.737,0.46888,-0.15629,-1.9138,0.62517,4.8774e-12,-0.95692,0,0,0.33333,3.9475e-16,0,0.66667
0.31534,0.70013,0.94602,0.30019,3.097,15.972,-0.7573,0.25243,-1.6791,-1.0097,-3.1597e-11,-0.83957,0,0,0.33333,-0,-0,0.66667
0.20011,0.44566,0.60033,-0.081505,-0.89191,20.294,0.13048,-0.043493,-1.9762,0.17397,1.0979e-10,-0.98812,0,0,0.33333,3.9475e-16,0,0.66667
0.55685,0.91835,1.6705,0.62753,5.0855,8.2012,-2.7955,0.93183,-0.59918,-3.7273,-5.9353e-13,-0.29959,0,0,0.33333,-0,-0,0.66667
0.50796,0.50437,1.5239,0.0065619,0.054594,9.3775,-0.026666,0.0088885,-1.9999,-0.035554,1.1808e-13,-0.99996,0,0,0.33333,-0,-0,0.66667
0.90452,0.70466,2.7136,0.30699,0.52083,0.83722,-2.2214,0.74048,-1.6646,-2.9619,2.3365e-10,-0.83228,0,0,0.33333,-0,-0,0.66667
0.16445,0.34793,0.49334,-0.22811,-2.5425,21.696,0.3001,-0.10003,-1.8151,0.40013,-1.3507e-10,-0.90755,0,0,0.33333,-0,-0,0.66667
0.026083,0.59446,0.078248,0.14169,1.6194,27.201,-0.029565,0.0098545,-1.9294,-0.039421,-9.076e-07,-0.96472,0,0,0.33333,-9.8686e-17,0,0.66667
0.13921,0.95529,0.41762,0.68293,7.9683,22.766,-0.76054,0.25351,-0.34142,-1.0141,-8.451e-10,-0.17071,0,0,0.33333,-0,-0,0.66667
0.036355,0.54886,0.10906,0.073286,0.83593,26.788,-0.021314,0.0071048,-1.9802,-0.028418,2.8341e-07,-0.9901,0,0,0.33333,4.9343e-17,0,0.66667
0.56867,0.14428,1.706,-0.53358,-4.1786,7.7836,2.4275,-0.80915,-0.98702,3.2366,1.1451e-12,-0.49351,0,0,0.33333,-0,-0,0.66667
0.77158,0.8076,2.3147,0.4614,2.0733,2.9251,-2.8481,0.94935,-1.2431,-3.7974,2.0044e-10,-0.62154,0,0,0.33333,1.2464e-15,0,0.66667
0.98718,0.43122,2.9615,-0.10317,0.0275,0.074401,0.81476,-0.27159,-1.9623,1.0864,-1.5986e-06,-0.98113,0,0,0.33333,1.579e-15,0,0.66667
0.84725,0.28018,2.5417,-0.32974,-0.96134,1.5693,2.2349,-0.74498,-1.6143,2.9799,-3.6434e-10,-0.80716,0,0,0.33333,2.0724e-15,0,0.66667
0.16958,0.98056,0.50873,0.72084,8.3693,21.601,-0.9779,0.32597,-0.15215,-1.3039,1.1951e-10,-0.076076,0,0,0.33333,-0,-0,0.66667
0.97796,0.71129,2.9339,0.31693,0.013944,0.24201,-2.4795,0.82651,-1.6425,-3.3061,-1.9679e-09,-0.82127,0,0,0.33333,1.579e-15,0,0.66667
0.57851,0.90904,1.7355,0.61356,4.7803,7.5788,-2.8396,0.94654,-0.66247,-3.7861,-8.3844e-13,-0.33124,0,0,0.33333,-0,-0,0.66667
0.81024,0.79035,2.4307,0.43552,1.6269,2.2257,-2.823,0.941,-1.3255,-3.764,4.2389e-10,-0.66273,0,0,0.33333,-0,-0,0.66667
0.011419,0.15292,0.034258,-0.52062,-6.0892,27.795,0.04756,-0.015853,-1.0367,0.063414,-9.7752e-09,-0.51835,0,0,0.33333,-1.8504e-17,0,0.66667
0.19796,0.603,0.59387,0.15449,1.695,20.382,-0.24466,0.081555,-1.9147,-0.32622,-4.8596e-11,-0.95734,0,0,0.33333,-0,-0,0.66667
0.92504,0.52199,2.7751,0.032981,0.037914,0.51716,-0.24407,0.081356,-1.9959,-0.32543,-2.0678e-08,-0.99793,0,0,0.33333,1.579e-15,0,0.66667
0.24256,0.74135,0.72768,0.36202,3.9267,18.701,-0.7025,0.23417,-1.5335,-0.93667,-1.456e-10,-0.76677,0,0,0.33333,-1.9737e-16,0,0.66667
0.53957,0.25709,1.6187,-0.36437,-2.9371,8.5129,1.5728,-0.52427,-1.5276,2.0971,7.8448e-13,-0.76382,0,0,0.33333,-0,-0,0.66667
0.72603,0.70667,2.1781,0.31001,1.6092,3.7127,-1.8006,0.60021,-1.6576,-2.4008,7.534e-11,-0.82878,0,0,0.33333,-0,-0,0.66667
0.10091,0.60359,0.30273,0.15539,1.7589,24.204,-0.12544,0.041814,-1.9136,-0.16726,1.0616e-08,-0.95679,0,0,0.33333,-0,-0,0.66667
0.57273,0.81592,1.7182,0.47388,3.6552,7.6235,-2.1713,0.72375,-1.2019,-2.895,-1.1351e-12,-0.60093,0,0,0.33333,-0,-0,0.66667
0.21267,0.59838,0.63801,0.14757,1.608,19.812,-0.25108,0.083693,-1.9226,-0.33477,-1.1531e-10,-0.96132,0,0,0.33333,-0,-0,0.66667
0.35815,0.26562,1.0744,-0.35157,-3.5177,14.445,1.0073,-0.33577,-1.5602,1.3431,9.142e-12,-0.78011,0,0,0.33333,7.8949e-16,0,0.66667
0.44382,0.0011254,1.3315,-0.74831,-7.209,11.767,2.6569,-0.88564,-0.0096773,3.5426,-2.2204e-16,-0.0048386,0,0,0.33333,-0,-0,0.66667
0.74936,0.8214,2.2481,0.48211,2.3716,3.3701,-2.8901,0.96338,-1.1737,-3.8535,1.1604e-10,-0.58686,0,0,0.33333,-0,-0,0.66667
0.91396,0.3715,2.7419,-0.19275,-0.27587,0.66976,1.4094,-0.46978,-1.8681,1.8791,2.6012e-08,-0.93406,0,0,0.33333,3.9475e-16,0,0.66667
0.96955,0.19833,2.9086,-0.4525,-0.15783,0.42718,3.5098,-1.1699,-1.2719,4.6797,1.0672e-09,-0.63595,0,0,0.33333,-0,-0,0.66667
0.38163,0.5754,1.1449,0.1131,1.0951,13.563,-0.3453,0.1151,-1.9538,-0.4604,-3.3362e-12,-0.97689,0,0,0.33333,7.8949e-16,0,0.66667
0.2518,0.72976,0.75539,0.34464,3.7148,18.347,-0.69422,0.23141,-1.5775,-0.92563,-1.1922e-10,-0.78873,0,0,0.33333,-0,-0,0.66667
0.27102,0.27498,0.81305,-0.33753,-3.5959,17.622,0.73182,-0.24394,-1.5948,0.97575,8.2808e-11,-0.79739,0,0,0.33333,-0,-0,0.66667
0.76456,0.37618,2.2937,-0.18573,-0.82422,2.8746,1.136,-0.37867,-1.8785,1.5147,-9.3869e-11,-0.93927,0,0,0.33333,3.158e-15,0,0.66667
0.84258,0.21958,2.5277,-0.42063,-1.2959,1.7132,2.8353,-0.9451,-1.3722,3.7804,-4.8388e-10,-0.68608,0,0,0.33333,-3.158e-15,0,0.66667
0.16474,0.29683,0.49423,-0.30476,-3.4095,21.693,0.40166,-0.13389,-1.669,0.53555,2.4036e-10,-0.83448,0,0,0.33333,-0,-0,0.66667
0.029941,0.43297,0.089823,-0.10055,-1.1479,27.046,0.024084,-0.0080288,-1.9646,0.032111,-1.2876e-06,-0.9823,0,0,0.33333,-7.4015e-17,0,0.66667
0.84738,0.81486,2.5421,0.4723,1.4317,1.6965,-3.2017,1.0672,-1.2075,-4.2689,1.5531e-09,-0.60376,0,0,0.33333,-0,-0,0.66667
0.15971,0.19924,0.47912,-0.45114,-5.1076,21.914,0.5764,-0.19213,-1.2759,0.76853,7.0992e-10,-0.63794,0,0,0.33333,-0,-0,0.66667
0.94524,0.14806,2.8357,-0.5279,-0.51939,0.68992,3.992,-1.3307,-1.0087,5.3226,1.5758e-08,-0.50435,0,0,0.33333,-7.8949e-16,0,0.66667
0.96751,0.35581,2.9025,-0.21629,-0.050231,0.23601,1.6741,-0.55803,-1.8335,2.2321,-4.2482e-08,-0.91673,0,0,0.33333,-1.579e-15,0,0.66667
0.57819,0.83392,1.7346,0.50088,3.8394,7.4909,-2.3168,0.77228,-1.1081,-3.0891,-1.1675e-12,-0.55406,0,0,0.33333,-0,-0,0.66667
0.48604,0.63591,1.4581,0.20386,1.7583,10.092,-0.79268,0.26423,-1.852,-1.0569,9.015e-14,-0.92601,0,0,0.33333,-0,-0,0.66667
0.35393,0.35613,1.0618,-0.21581,-2.1498,14.558,0.61105,-0.20368,-1.8337,0.81473,1.1174e-11,-0.91687,0,0,0.33333,-0,-0,0.66667
0.6594,0.29794,1.9782,-0.30309,-1.9077,5.2305,1.5988,-0.53295,-1.6728,2.1318,-1.68e-11,-0.83642,0,0,0.33333,7.8949e-16,0,0.66667
0.38436,0.38127,1.1531,-0.1781,-1.7234,13.477,0.54763,-0.18254,-1.887,0.73018,4.1934e-12,-0.94352,0,0,0.33333,-7.8949e-16,0,0.66667
0.4349,0.90146,1.3047,0.60219,5.7348,11.943,-2.0951,0.69838,-0.71095,-2.7935,7.7205e-13,-0.35548,0,0,0.33333,-5.3198e-16,0,0.66667
0.6133,0.52098,1.8399,0.031468,0.21726,6.3337,-0.1544,0.051465,-1.996,-0.20586,8.4675e-13,-0.99802,0,0,0.33333,-0,-0,0.66667
0.034635,0.203,0.1039,-0.4455,-5.1714,26.866,0.12344,-0.041146,-1.2937,0.16459,-1.4696e-08,-0.64687,0,0,0.33333,4.9343e-17,0,0.66667
0.2188,0.11224,0.65641,-0.58163,-6.5102,19.668,1.0181,-0.33937,-0.79713,1.3575,1.7449e-10,-0.39857,0,0,0.33333,3.9475e-16,0,0.66667
0.020192,0.93538,0.060576,0.65307,7.7416,27.449,-0.10549,0.035164,-0.48414,-0.14066,-6.8703e-07,-0.24207,0,0,0.33333,2.4672e-17,0,0.66667
0.76313,0.32398,2.2894,-0.26403,-1.1882,2.9379,1.6119,-0.5373,-1.7518,2.1492,-1.2216e-10,-0.8759,0,0,0.33333,-0,-0,0.66667
0.38987,0.84046,1.1696,0.51069,5.037,13.405,-1.5928,0.53094,-1.0735,-2.1238,4.4564e-13,-0.53677,0,0,0.33333,-1.9737e-16,0,0.66667
0.42267,0.73317,1.268,0.34975,3.2876,12.213,-1.1826,0.39421,-1.5649,-1.5768,1.5776e-13,-0.78243,0,0,0.33333,-0,-0,0.66667
0.54968,0.94503,1.6491,0.66754,5.5092,8.4449,-2.9355,0.9785,-0.41554,-3.914,-2.7711e-13,-0.20777,0,0,0.33333,-0,-0,0.66667
0.38846,0.4312,1.1654,-0.1032,-0.99251,13.323,0.32073,-0.10691,-1.9623,0.42764,2.4418e-12,-0.98115,0,0,0.33333,2.3001e-16,0,0.66667
0.81063,0.04767,2.4319,-0.67849,-2.7198,2.5118,4.4001,-1.4667,-0.3628,5.8668,-1.2578e-10,-0.1814,0,0,0.33333,-0,3.9372e-16,0.66667
0.4359,0.39591,1.3077,-0.15614,-1.4305,11.713,0.54448,-0.18149,-1.9132,0.72598,3.4439e-13,-0.95658,0,0,0.33333,-3.9475e-16,0,0.66667
0.58016,0.32005,1.7405,-0.26993,-2.0118,7.2983,1.2528,-0.4176,-1.741,1.6704,-6.1073e-13,-0.87049,0,0,0.33333,1.579e-15,0,0.66667
0.97117,0.91384,2.9135,0.62076,0.30926,0.65113,-4.8229,1.6076,-0.62988,-6.4306,-4.1513e-07,-0.31494,0,0,0.33333,-3.158e-15,0,0.66667
0.9921,0.033589,2.9763,-0.69962,-0.079144,0.68328,5.5527,-1.8509,-0.26011,7.4036,-6.2356e-08,-0.13005,0,0,0.33333,3.158e-15,0,0.66667
0.20287,0.55308,0.60862,0.079624,0.87024,20.186,-0.12923,0.043076,-1.9776,-0.17231,-9.018e-11,-0.9888,0,0,0.33333,-1.9737e-16,0,0.66667
0.44452,0.55972,1.3336,0.089585,0.81109,11.417,-0.31858,0.10619,-1.9718,-0.42477,-1.2093e-13,-0.98591,0,0,0.33333,1.1842e-15,0,0.66667
0.47475,0.43021,1.4242,-0.10468,-0.91314,10.432,0.39757,-0.13252,-1.9608,0.53009,-7.5329e-14,-0.98038,0,0,0.33333,-0,-0,0.66667
0.29764,0.31278,0.89292,-0.28082,-2.9305,16.618,0.66867,-0.22289,-1.721,0.89156,4.6491e-11,-0.86052,0,0,0.33333,-7.8949e-16,0,0.66667
0.2835,0.33054,0.85051,-0.25418,-2.6738,17.137,0.5765,-0.19217,-1.7699,0.76867,5.7378e-11,-0.88494,0,0,0.33333,-3.9475e-16,0,0.66667
0.83962,0.2301,2.5189,-0.40485,-1.266,1.7416,2.7193,-0.90645,-1.4167,3.6258,-5.8594e-10,-0.70836,0,0,0.33333,-0,-0,0.66667
0.96209,0.37044,2.8863,-0.19434,-0.06769,0.26062,1.4958,-0.49859,-1.8658,1.9944,-1.366e-07,-0.93289,0,0,0.33333,-3.9475e-16,0,0.66667
0.21069,0.41499,0.63207,-0.12752,-1.39,19.887,0.21493,-0.071643,-1.9417,0.28657,8.6873e-11,-0.97085,0,0,0.33333,-3.9475e-16,0,0.66667
0.89173,0.15768,2.6752,-0.51348,-1.1029,1.1804,3.6631,-1.221,-1.0637,4.8841,-1.0187e-08,-0.53184,0,0,0.33333,3.158e-15,0,0.66667
0.39198,0.69947,1.1759,0.2992,2.892,13.242,-0.93823,0.31274,-1.6815,-1.251,-2.9602e-12,-0.84074,0,0,0.33333,-0,-0,0.66667
0.65143,0.76837,1.9543,0.40255,2.6135,5.4881,-2.0979,0.69928,-1.4232,-2.7971,1.0222e-11,-0.71159,0,0,0.33333,-0,-0,0.66667
0.28386,0.45812,0.85158,-0.062823,-0.65674,17.101,0.14266,-0.047555,-1.9857,0.19022,1.7097e-11,-0.99283,0,0,0.33333,-0,-0,0.66667
0.94108,0.78644,2.8232,0.42966,0.42127,0.60456,-3.2348,1.0783,-1.3438,-4.313,-9.6587e-09,-0.67189,0,0,0.33333,-0,-0,0.66667
0.78682,0.96331,2.3605,0.69497,3.1194,2.9325,-4.3745,1.4582,-0.28272,-5.8327,5.6524e-12,-0.14136,0,0,0.33333,3.9475e-16,0,0.66667
0.19277,0.17672,0.57832,-0.48492,-5.4381,20.637,0.74783,-0.24928,-1.1634,0.99711,4.8136e-10,-0.58168,0,0,0.33333,1.9737e-16,0,0.66667
0.61504,0.38579,1.8451,-0.17132,-1.1835,6.3106,0.84295,-0.28098,-1.895,1.1239,-3.9732e-12,-0.94752,0,0,0.33333,-0,-0,0.66667
0.9688,0.42481,2.9064,-0.11279,-0.018841,0.18374,0.87417,-0.29139,-1.9547,1.1656,2.8468e-07,-0.97737,0,0,0.33333,-1.579e-15,0,0.66667
0.28459,0.53069,0.85376,0.046028,0.48085,17.073,-0.10479,0.03493,-1.9935,-0.13972,-1.2578e-11,-0.99674,0,0,0.33333,-2.4672e-16,0,0.66667
0.36153,0.84654,1.0846,0.51981,5.2648,14.396,-1.5034,0.50114,-1.04,-2.0046,-1.6822e-12,-0.52,0,0,0.33333,-0,-0,0.66667
0.20361,0.49983,0.61084,-0.00025463,-0.00278,20.156,0.00041476,-0.00013825,-2.0015,0.00055301,1.3468e-10,-1.0008,0,0,0.33333,2.0971e-16,0,0.66667
0.63877,0.44604,1.9163,-0.080933,-0.52827,5.6728,0.41358,-0.13786,-1.9767,0.55144,-4.5546e-12,-0.98834,0,0,0.33333,1.579e-15,0,0.66667
0.89282,0.80222,2.6785,0.45332,0.93578,1.0989,-3.2379,1.0793,-1.2691,-4.3172,-1.9302e-09,-0.63454,0,0,0.33333,7.8949e-16,0,0.66667
0.3417,0.99116,1.0251,0.73675,7.7937,15.223,-2.0139,0.67132,-0.069975,-2.6853,-1.7542e-14,-0.034987,0,0,0.33333,-3.8484e-16,3.2024e-16,0.66667
0.1244,0.22631,0.3732,-0.41054,-4.6825,23.294,0.40856,-0.13619,-1.401,0.54475,-1.7446e-10,-0.7005,0,0,0.33333,-0,-0,0.66667
0.34768,0.83832,1.043,0.50749,5.1932,14.88,-1.4115,0.47051,-1.0844,-1.882,-4.8359e-12,-0.54219,0,0,0.33333,-0,-0,0.66667
0.62672,0.4387,1.8802,-0.091952,-0.61719,5.9855,0.46103,-0.15368,-1.971,0.61471,-3.6145e-12,-0.98551,0,0,0.33333,-0,-0,0.66667
0.73484,0.11031,2.2045,-0.58453,-3.0929,3.7692,3.4363,-1.1454,-0.78498,4.5817,-3.8699e-11,-0.39249,0,0,0.33333,-1.579e-15,0,0.66667
0.60653,0.35974,1.8196,-0.21039,-1.4828,6.5505,1.0208,-0.34028,-1.8421,1.3611,-3.1803e-12,-0.92105,0,0,0.33333,7.8949e-16,0,0.66667
0.076207,0.20659,0.22862,-0.44012,-5.0824,25.208,0.26832,-0.08944,-1.311,0.35776,-2.8672e-09,-0.65548,0,0,0.33333,-0,-0,0.66667
0.93982,0.37668,2.8195,-0.18498,-0.15779,0.42639,1.3908,-0.4636,-1.8792,1.8544,1.0598e-07,-0.93962,0,0,0.33333,-0,-0,0.66667
0.18939,0.16917,0.56817,-0.49625,-5.5786,20.771,0.75188,-0.25063,-1.1241,1.0025,5.2371e-10,-0.56203,0,0,0.33333,-0,-0,0.66667
0.57409,0.40738,1.7223,-0.13893,-1.0394,7.4283,0.63805,-0.21268,-1.9322,0.85073,-5.741e-13,-0.9661,0,0,0.33333,-0,-0,0.66667
0.90683,0.96701,2.7205,0.70051,1.4412,1.292,-5.082,1.694,-0.25641,-6.7759,-6.3476e-08,-0.1282,0,0,0.33333,-1.9737e-16,0,0.66667
0.97339,0.91148,2.9202,0.61722,0.27279,0.6328,-4.8063,1.6021,-0.64555,-6.4084,-5.5374e-07,-0.32278,0,0,0.33333,-0,-0,0.66667
0.85777,0.33699,2.5733,-0.24451,-0.64781,1.3666,1.6779,-0.5593,-1.7876,2.2372,3.4415e-10,-0.89381,0,0,0.33333,7.8949e-16,0,0.66667
0.12909,0.67561,0.38727,0.26341,2.9735,23.092,-0.27203,0.090676,-1.7528,-0.36271,7.4114e-10,-0.87638,0,0,0.33333,-1.9737e-16,0,0.66667
0.90702,0.55242,2.7211,0.078634,0.12196,0.70424,-0.57058,0.19019,-1.978,-0.76078,-2.258e-08,-0.98901,0,0,0.33333,7.8949e-16,0,0.66667
0.32751,0.93172,0.98254,0.64759,6.8414,15.672,-1.6967,0.56558,-0.5094,-2.2623,-8.5498e-13,-0.2547,0,0,0.33333,1.9737e-16,2.3789e-16,0.66667
0.58239,0.57344,1.7472,0.11016,0.81067,7.1887,-0.51324,0.17108,-1.9563,-0.68432,8.244e-13,-0.97817,0,0,0.33333,-0,-0,0.66667
0.14046,0.33923,0.42138,-0.24115,-2.7106,22.641,0.27098,-0.090326,-1.794,0.3613,-9.9513e-10,-0.89699,0,0,0.33333,-2.4672e-16,0,0.66667
0.51272,0.75428,1.5382,0.38142,3.2089,9.3298,-1.5645,0.52151,-1.4831,-2.086,-3.5638e-13,-0.74155,0,0,0.33333,-0,-0,0.66667
0.46733,0.73781,1.402,0.35671,3.1847,10.744,-1.3336,0.44454,-1.5473,-1.7781,5.7565e-13,-0.77367,0,0,0.33333,-0,-0,0.66667
0.005313,0.8455,0.015939,0.51825,6.0608,28.038,-0.022028,0.0073425,-1.0457,-0.02937,-2.5344e-08,-0.52283,0,0,0.33333,-0,-8.7041e-16,0.66667
0.28621,0.26495,0.85863,-0.35258,-3.7242,17.059,0.80729,-0.2691,-1.5573,1.0764,6.0265e-11,-0.77864,0,0,0.33333,-3.9475e-16,0,0.66667
0.14345,0.76977,0.43035,0.40465,4.5885,22.543,-0.46437,0.15479,-1.4174,-0.61916,-3.5997e-10,-0.70871,0,0,0.33333,-1.9737e-16,0,0.66667
0.35352,0.5611,1.0606,0.091657,0.90975,14.555,-0.25922,0.086408,-1.9708,-0.34563,-6.0614e-12,-0.98539,0,0,0.33333,-1.4803e-16,0,0.66667
0.27167,0.78087,0.81501,0.42131,4.5144,17.62,-0.91566,0.30522,-1.3697,-1.2209,-7.9731e-11,-0.68487,0,0,0.33333,4.9343e-16,0,0.66667
0.47113,0.40292,1.4134,-0.14562,-1.2778,10.555,0.54885,-0.18295,-1.9252,0.7318,-8.3378e-14,-0.9626,0,0,0.33333,-1.9737e-16,0,0.66667
0.77155,0.78178,2.3147,0.42266,1.8844,2.8904,-2.6089,0.86962,-1.3656,-3.4785,2.0985e-10,-0.68282,0,0,0.33333,-3.158e-15,0,0.66667
0.020636,0.78947,0.061909,0.43421,5.0399,27.425,-0.071685,0.023895,-1.3293,-0.09558,-9.5786e-09,-0.66465,0,0,0.33333,-0,-0,0.66667
0.22758,0.69633,0.68274,0.29449,3.2055,19.258,-0.53616,0.17872,-1.6912,-0.71488,-1.5521e-10,-0.84559,0,0,0.33333,-0,-0,0.66667
0.98353,0.72375,2.9506,0.33562,-0.025013,0.22742,-2.6407,0.88024,-1.6001,-3.521,1.4459e-08,-0.80003,0,0,0.33333,3.158e-15,0,0.66667
0.059609,0.94837,0.17883,0.67256,7.9652,25.889,-0.32073,0.10691,-0.39132,-0.42763,-9.8055e-08,-0.19566,0,0,0.33333,-0,-0,0.66667
0.59551,0.4806,1.7865,-0.029103,-0.20844,6.8157,0.13865,-0.046216,-1.9967,0.18487,-4.5729e-13,-0.99836,0,0,0.33333,-0,-0,0.66667
0.99828,0.55498,2.9948,0.082467,-0.044121,0.016461,-0.65861,0.21954,-1.9759,-0.87814,1.1855e-06,-0.98795,0,0,0.33333,-0,-0,0.66667
0.60079,0.1093,1.8024,-0.58606,-4.3611,6.9457,2.8168,-0.93892,-0.778,3.7557,9.5635e-13,-0.389,0,0,0.33333,-0,-0,0.66667
0.052634,0.76507,0.1579,0.3976,4.5912,26.144,-0.16742,0.055806,-1.4372,-0.22322,7.8718e-09,-0.71858,0,0,0.33333,-0,-0,0.66667
0.12467,0.73391,0.37402,0.35087,3.9851,23.276,-0.34995,0.11665,-1.5621,-0.4666,2.4788e-10,-0.78107,0,0,0.33333,-0,-0,0.66667
0.89515,0.24952,2.6854,-0.37573,-0.73177,0.99608,2.6906,-0.89688,-1.499,3.5875,9.7287e-10,-0.74949,0,0,0.33333,3.454e-16,0,0.66667
0.86842,0.58992,2.6053,0.13488,0.3218,1.1763,-0.93708,0.31236,-1.9355,-1.2494,-1.3145e-09,-0.96775,0,0,0.33333,7.8949e-16,0,0.66667
0.54878,0.017173,1.6463,-0.72424,-6.045,8.5287,3.1796,-1.0599,-0.13465,4.2394,9.1038e-14,-0.067323,0,0,0.33333,-0,-0,0.66667
0.26258,0.71088,0.78774,0.31632,3.3825,17.933,-0.66448,0.22149,-1.6441,-0.88598,-9.4193e-11,-0.82206,0,0,0.33333,1.9737e-16,0,0.66667
0.51035,0.25884,1.531,-0.36175,-3.0484,9.3926,1.4769,-0.49231,-1.5343,1.9692,2.0828e-13,-0.76715,0,0,0.33333,-0,-0,0.66667
0.25377,0.88673,0.76132,0.58009,6.3768,18.346,-1.1777,0.39256,-0.80303,-1.5703,-5.8587e-11,-0.40152,0,0,0.33333,-3.9475e-16,0,0.66667
0.69013,0.83257,2.0704,0.49885,2.9728,4.6455,-2.7542,0.91806,-1.1148,-3.6722,2.033e-11,-0.55742,0,0,0.33333,7.8949e-16,0,0.66667
0.60412,0.32563,1.8124,-0.26155,-1.8591,6.6349,1.2641,-0.42135,-1.7561,1.6854,-2.7407e-12,-0.87804,0,0,0.33333,-0,-0,0.66667
0.78798,0.0058695,2.3639,-0.7412,-3.3616,2.9822,4.6724,-1.5575,-0.046547,6.2299,-5.8751e-11,-0.023274,0,0,0.33333,-0,-0,0.66667
0.48764,0.90576,1.4629,0.60864,5.4457,10.255,-2.3744,0.79146,-0.68389,-3.1658,1.9917e-13,-0.34195,0,0,0.33333,-1.0115e-15,0,0.66667
0.038361,0.48819,0.11508,-0.01771,-0.20188,26.707,0.0054352,-0.0018107,-1.9982,0.0072474,1.5429e-06,-0.99909,0,0,0.33333,-4.5428e-17,0,0.66667
0.79002,0.70615,2.3701,0.30923,1.245,2.4693,-1.9544,0.65145,-1.6593,-2.6058,1.8585e-10,-0.82964,0,0,0.33333,-7.8949e-16,0,0.66667
0.20938,0.27453,0.62813,-0.33821,-3.7234,19.965,0.5665,-0.18883,-1.5931,0.75533,2.2671e-10,-0.79653,0,0,0.33333,-0,-0,0.66667
0.22664,0.40856,0.67991,-0.13716,-1.4841,19.273,0.24869,-0.082896,-1.9335,0.33158,6.3465e-11,-0.96677,0,0,0.33333,7.8949e-16,0,0.66667
0.54164,0.76662,1.6249,0.39992,3.2242,8.4714,-1.7329,0.57764,-1.4306,-2.3105,-8.4033e-13,-0.7153,0,0,0.33333,-7.8949e-16,0,0.66667
0.82259,0.0084223,2.4678,-0.73737,-2.8467,2.4163,4.8524,-1.6175,-0.066422,6.4699,-1.9311e-10,-0.033211,0,0,0.33333,-3.158e-15,0,0.66667
0.94909,0.71515,2.8473,0.32272,0.23085,0.43986,-2.4503,0.81678,-1.6301,-3.2671,-7.5312e-11,-0.81503,0,0,0.33333,-3.9475e-16,0,0.66667
0.24077,0.50711,0.72232,0.010662,0.1143,18.726,-0.020537,0.0068457,-1.9993,-0.027383,1.2435e-12,-0.99966,0,0,0.33333,-0,-0,0.66667
0.8962,0.13221,2.6886,-0.55168,-1.1554,1.1793,3.9553,-1.3184,-0.9176,5.2738,7.7343e-09,-0.4588,0,0,0.33333,-0,-0,0.66667
0.91103,0.70208,2.7331,0.30312,0.4705,0.76622,-2.2092,0.7364,-1.6726,-2.9456,-4.186e-09,-0.83631,0,0,0.33333,-1.579e-15,0,0.66667
0.74442,0.56573,2.2333,0.0986,0.47099,3.2471,-0.5872,0.19573,-1.9658,-0.78293,4.0057e-11,-0.98288,0,0,0.33333,-0,-0,0.66667
0.37426,0.45901,1.1228,-0.061478,-0.59878,13.817,0.18407,-0.061357,-1.9866,0.24543,2.502e-12,-0.9933,0,0,0.33333,3.9475e-16,0,0.66667
0.54785,0.78507,1.6436,0.42761,3.4228,8.3057,-1.8741,0.62471,-1.3506,-2.4988,-9.2393e-13,-0.6753,0,0,0.33333,-1.579e-15,0,0.66667
0.13763,0.7112,0.4129,0.31681,3.5778,22.76,-0.34882,0.11627,-1.6431,-0.4651,2.8615e-10,-0.82153,0,0,0.33333,-9.8686e-17,0,0.66667
0.57527,0.60766,1.7258,0.16149,1.2067,7.3998,-0.74319,0.24773,-1.9068,-0.99092,6.149e-13,-0.95339,0,0,0.33333,-0,-0,0.66667
0.57561,0.7919,1.7268,0.43786,3.345,7.5173,-2.0163,0.6721,-1.318,-2.6884,-9.2948e-13,-0.65901,0,0,0.33333,-0,-0,0.66667
0.58347,0.96086,1.7504,0.69129,5.4107,7.5206,-3.2268,1.0756,-0.30055,-4.3024,-2.7445e-13,-0.15027,0,0,0.33333,-0,-0,0.66667
0.92023,0.62228,2.7607,0.18341,0.23654,0.60328,-1.3503,0.45009,-1.8812,-1.8003,2.0385e-08,-0.9406,0,0,0.33333,-3.9475e-16,0,0.66667
0.5331,0.60474,1.5993,0.15711,1.2619,8.6283,-0.67004,0.22335,-1.912,-0.89338,-7.0888e-14,-0.956,0,0,0.33333,-1.579e-15,0,0.66667
0.24089,0.49877,0.72268,-0.0018469,-0.019798,18.722,0.0035593,-0.0011864,-2.0006,0.0047458,-8.473e-12,-1.0003,0,0,0.33333,6.5245e-16,0,0.66667
0.54523,0.50459,1.6357,0.0068881,0.054062,8.2494,-0.030045,0.010015,-2.0003,-0.04006,1.0497e-13,-1.0002,0,0,0.33333,-0,-0,0.66667
0.12737,0.98434,0.38212,0.72651,8.5505,23.238,-0.74031,0.24677,-0.12286,-0.98708,-7.5142e-10,-0.06143,0,0,0.33333,-1.9737e-16,0,0.66667
0.074781,0.44489,0.22434,-0.082665,-0.9388,25.246,0.049454,-0.016485,-1.9756,0.065938,8.453e-08,-0.9878,0,0,0.33333,-0,-0,0.66667
0.83061,0.94063,2.4918,0.66094,2.3732,2.1783,-4.3919,1.464,-0.44742,-5.8558,-1.3309e-10,-0.22371,0,0,0.33333,-3.158e-15,0,0.66667
0.72316,0.23692,2.1695,-0.39463,-2.0926,3.8313,2.283,-0.761,-1.4457,3.044,-7.2214e-11,-0.72283,0,0,0.33333,-7.8949e-16,0,0.66667
0.083912,0.90251,0.25174,0.60377,7.0703,24.92,-0.40531,0.1351,-0.7041,-0.54041,1.6798e-08,-0.35205,0,0,0.33333,-0,-0,0.66667
0.55758,0.55523,1.6727,0.082841,0.6373,7.8926,-0.36952,0.12317,-1.9754,-0.4927,5.182e-14,-0.98769,0,0,0.33333,3.3015e-16,0,0.66667
0.52511,0.32076,1.5753,-0.26886,-2.2001,8.9026,1.1295,-0.37648,-1.7426,1.5059,3.9635e-13,-0.87129,0,0,0.33333,-0,-0,0.66667
0.50731,0.95254,1.5219,0.67881,5.9777,9.7092,-2.7549,0.91831,-0.36087,-3.6732,-7.7494e-14,-0.18044,0,0,0.33333,-7.8949e-16,0,0.66667
0.032405,0.61453,0.097214,0.1718,1.9645,26.947,-0.044536,0.014846,-1.895,-0.059382,8.9791e-08,-0.94748,0,0,0.33333,4.9343e-17,0,0.66667
0.96037,0.12888,2.8811,-0.55668,-0.37314,0.62103,4.2769,-1.4256,-0.89832,5.7026,2.2072e-07,-0.44916,0,0,0.33333,-3.158e-15,0,0.66667
0.92765,0.54602,2.7829,0.069027,0.075597,0.49728,-0.51226,0.17075,-1.9823,-0.68302,-5.8539e-08,-0.99115,0,0,0.33333,-0,-0,0.66667
0.96441,0.47711,2.8932,-0.03433,-0.0088188,0.1978,0.26487,-0.088289,-1.9955,0.35315,-3.7962e-07,-0.99776,0,0,0.33333,-0,-0,0.66667
0.53338,0.30599,1.6001,-0.29102,-2.3545,8.6625,1.2418,-0.41393,-1.699,1.6557,4.4031e-13,-0.84952,0,0,0.33333,-3.9475e-16,0,0.66667
0.12664,0.59951,0.37992,0.14926,1.6788,23.181,-0.15122,0.050406,-1.9211,-0.20162,-1.7647e-09,-0.96056,0,0,0.33333,-0,-0,0.66667
0.73229,0.44414,2.1969,-0.083789,-0.41803,3.4945,0.49086,-0.16362,-1.9752,0.65448,-2.9058e-11,-0.98759,0,0,0.33333,-0,-0,0.66667
0.94973,0.71303,2.8492,0.31954,0.22325,0.43238,-2.4278,0.80928,-1.6371,-3.2371,-2.6695e-09,-0.81853,0,0,0.33333,-0,-0,0.66667
0.25927,0.054636,0.7778,-0.66805,-7.3972,18.178,1.3856,-0.46187,-0.41284,1.8475,1.0797e-11,-0.20642,0,0,0.33333,-1.9737e-16,0,0.66667
0.28377,0.82477,0.85131,0.48716,5.2109,17.192,-1.1059,0.36864,-1.1558,-1.4746,-4.712e-11,-0.57789,0,0,0.33333,-0,-0,0.66667
0.44706,0.55404,1.3412,0.081064,0.73162,11.332,-0.28992,0.09664,-1.9762,-0.38656,-4.316e-14,-0.98811,0,0,0.33333,-0,-0,0.66667
0.15862,0.62229,0.47586,0.18343,2.0452,21.921,-0.23277,0.077588,-1.8811,-0.31035,2.2841e-10,-0.94054,0,0,0.33333,-2.4672e-16,0,0.66667
0.56858,0.50253,1.7057,0.0037911,0.028571,7.5704,-0.017244,0.0057481,-2.0004,-0.022993,4.9544e-15,-1.0002,0,0,0.33333,-0,-0,0.66667
0.44953,0.50934,1.3486,0.014017,0.12604,11.247,-0.05041,0.016803,-1.999,-0.067213,5.1254e-14,-0.99949,0,0,0.33333,-0,-0,0.66667
0.88742,0.349,2.6623,-0.2265,-0.45744,0.97828,1.608,-0.53599,-1.8178,2.144,1.8827e-09,-0.9089,0,0,0.33333,-0,-0,0.66667
0.21483,0.29622,0.64449,-0.30566,-3.35,19.749,0.52533,-0.17511,-1.6672,0.70044,1.7714e-10,-0.83359,0,0,0.33333,-0,-0,0.66667
0.16795,0.5515,0.50385,0.077251,0.85628,21.548,-0.10379,0.034598,-1.9783,-0.13839,-2.8207e-10,-0.98915,0,0,0.33333,-0,-0,0.66667
0.49563,0.8242,1.4869,0.4863,4.2377,9.9181,-1.9282,0.64274,-1.1586,-2.571,5.0737e-14,-0.57929,0,0,0.33333,-0,-0,0.66667
0.51663,0.25116,1.5499,-0.37326,-3.1198,9.2064,1.5427,-0.51423,-1.5058,2.0569,3.6493e-13,-0.75292,0,0,0.33333,-0,-0,0.66667
0.4062,0.61194,1.2186,0.16791,1.5894,12.72,-0.54563,0.18188,-1.8997,-0.72751,-1.8326e-12,-0.94986,0,0,0.33333,7.8949e-16,0,0.66667
0.2368,0.32077,0.71039,-0.26885,-2.9086,18.901,0.50929,-0.16976,-1.7429,0.67906,1.2492e-10,-0.87146,0,0,0.33333,-0,-0,0.66667
0.53636,0.87708,1.6091,0.56562,4.6925,8.7418,-2.427,0.80901,-0.86305,-3.236,-8.6309e-13,-0.43152,0,0,0.33333,1.579e-15,0,0.66667
0.96214,0.73626,2.8864,0.35439,0.15534,0.37296,-2.7278,0.90926,-1.5527,-3.637,-4.5052e-09,-0.77634,0,0,0.33333,-1.579e-15,0,0.66667
0.25644,0.95506,0.76931,0.68259,7.5841,18.29,-1.4003,0.46678,-0.34258,-1.8671,-9.1378e-12,-0.17129,0,0,0.33333,-3.9475e-16,0,0.66667
0.28319,0.24158,0.84957,-0.38763,-4.1128,17.181,0.87819,-0.29273,-1.4657,1.1709,6.3437e-11,-0.73285,0,0,0.33333,-1.9737e-16,0,0.66667
0.031465,0.052704,0.094395,-0.67094,-7.9652,27.003,0.16889,-0.056297,-0.39952,0.22519,4.2053e-07,-0.19976,0,0,0.33333,4.9343e-17,0,0.66667
0.87611,0.46468,2.6283,-0.052978,-0.11702,1.0596,0.37132,-0.12377,-1.9907,0.49509,-9.4593e-09,-0.99534,0,0,0.33333,-0,-0,0.66667
0.27438,0.46598,0.82315,-0.051032,-0.53665,17.455,0.11202,-0.03734,-1.9911,0.14936,1.7059e-11,-0.99555,0,0,0.33333,-9.8686e-17,0,0.66667
0.059762,0.85756,0.17929,0.53633,6.2602,25.87,-0.25642,0.085474,-0.97674,-0.3419,-1.3632e-09,-0.48837,0,0,0.33333,9.8686e-17,0,0.66667
0.75205,0.16012,2.2562,-0.50983,-2.4978,3.3447,3.0673,-1.0224,-1.0764,4.0898,-1.0945e-10,-0.53819,0,0,0.33333,-0,-0,0.66667
0.92919,0.20933,2.7876,-0.436,-0.54635,0.71271,3.241,-1.0803,-1.3236,4.3214,5.1578e-09,-0.66178,0,0,0.33333,7.8949e-16,0,0.66667
0.42393,0.7859,1.2718,0.42884,4.0529,12.205,-1.4544,0.4848,-1.3465,-1.9392,8.1035e-13,-0.67327,0,0,0.33333,-0,-0,0.66667
0.32511,0.2952,0.97532,-0.30719,-3.1476,15.618,0.79896,-0.26632,-1.664,1.0653,2.5049e-11,-0.83198,0,0,0.33333,-0,-0,0.66667
0.68882,0.61071,2.0665,0.16606,0.95511,4.4721,-0.91511,0.30504,-1.9017,-1.2201,2.5359e-11,-0.95083,0,0,0.33333,7.8949e-16,0,0.66667
0.20706,0.41949,0.62118,-0.12076,-1.3184,20.026,0.20004,-0.066681,-1.9476,0.26673,6.9161e-11,-0.97378,0,0,0.33333,-3.9475e-16,0,0.66667
0.55152,0.052301,1.6546,-0.67155,-5.5297,8.3961,2.963,-0.98766,-0.39604,3.9506,2.3492e-13,-0.19802,0,0,0.33333,-0,-0,0.66667
0.49453,0.83767,1.4836,0.50651,4.4309,9.9655,-2.0039,0.66797,-1.0877,-2.6719,-6.4393e-15,-0.54385,0,0,0.33333,3.9475e-16,0,0.66667
0.58736,0.97762,1.7621,0.71643,5.5946,7.4424,-3.3664,1.1221,-0.17456,-4.4886,-7.927e-14,-0.08728,0,0,0.33333,-1.579e-15,0,0.66667
0.83524,0.090806,2.5057,-0.61379,-2.1089,2.0434,4.1013,-1.3671,-0.6608,5.4684,-1.1766e-09,-0.3304,0,0,0.33333,-2.1711e-15,0,0.66667
0.68413,0.90375,2.0524,0.60562,3.7431,4.8907,-3.3146,1.1049,-0.69653,-4.4194,4.5524e-12,-0.34826,0,0,0.33333,-7.8949e-16,0,0.66667
0.88239,0.43633,2.6472,-0.095512,-0.19893,0.98904,0.67423,-0.22474,-1.9682,0.89897,9.6877e-09,-0.98411,0,0,0.33333,-3.9475e-16,0,0.66667
0.27936,0.75831,0.83807,0.38746,4.121,17.323,-0.86592,0.28864,-1.4662,-1.1546,-6.9272e-11,-0.7331,0,0,0.33333,-0,-0,0.66667
0.24996,0.66143,0.74987,0.24215,2.5977,18.396,-0.48421,0.1614,-1.7922,-0.64561,-9.6304e-11,-0.8961,0,0,0.33333,-0,-0,0.66667
0.18811,0.33757,0.56434,-0.24365,-2.6932,20.773,0.36666,-0.12222,-1.7894,0.48889,1.7557e-10,-0.89468,0,0,0.33333,-1.9737e-16,0,0.66667
0.008355,0.78295,0.025065,0.42443,4.9245,27.916,-0.028369,0.0094563,-1.36,-0.037825,1.1633e-09,-0.68002,0,0,0.33333,-0,-0,0.66667
0.65746,0.6255,1.9724,0.18826,1.1797,5.2287,-0.99016,0.33005,-1.8753,-1.3202,1.4085e-11,-0.93765,0,0,0.33333,-1.579e-15,0,0.66667
0.37182,0.28747,1.1155,-0.3188,-3.1444,13.952,0.94829,-0.3161,-1.6387,1.2644,6.3596e-12,-0.81935,0,0,0.33333,-0,-0,0.66667
0.16613,0.63802,0.49838,0.20704,2.3043,21.628,-0.27515,0.091718,-1.8469,-0.36687,-2.5193e-10,-0.92344,0,0,0.33333,-3.9475e-16,0,0.66667
0.25918,0.63243,0.77754,0.19865,2.1159,18.041,-0.41188,0.13729,-1.8594,-0.54917,-7.1897e-11,-0.92969,0,0,0.33333,-0,-0,0.66667
0.1825,0.91907,0.54751,0.62861,7.183,21.073,-0.91778,0.30593,-0.59435,-1.2237,-3.1428e-10,-0.29718,0,0,0.33333,-0,-0,0.66667
0.17807,0.60414,0.53422,0.15621,1.7279,21.156,-0.22253,0.074177,-1.9127,-0.29671,-1.8653e-10,-0.95633,0,0,0.33333,-0,-0,0.66667
0.22777,0.66862,0.6833,0.25292,2.7469,19.244,-0.46086,0.15362,-1.7718,-0.61449,-1.2394e-10,-0.88591,0,0,0.33333,-0,-0,0.66667
0.096411,0.63322,0.28923,0.19983,2.2674,24.385,-0.15413,0.051376,-1.8579,-0.2055,5.5238e-10,-0.92895,0,0,0.33333,-0,-0,0.66667
0.54411,0.1649,1.6323,-0.50265,-4.0846,8.4661,2.188,-0.72932,-1.1015,2.9173,9.3103e-13,-0.55074,0,0,0.33333,-0,-0,0.66667
0.8362,0.28579,2.5086,-0.32132,-1.0067,1.7245,2.1495,-0.71649,-1.633,2.866,-1.5132e-10,-0.81648,0,0,0.33333,-0,-0,0.66667
0.34664,0.87965,1.0399,0.56948,5.872,14.947,-1.5792,0.52641,-0.84722,-2.1057,-1.9078e-12,-0.42361,0,0,0.33333,-0,-0,0.66667
0.9126,0.72889,2.7378,0.34334,0.5304,0.78187,-2.5066,0.83555,-1.5803,-3.3422,1.3785e-09,-0.79014,0,0,0.33333,1.579e-15,0,0.66667
0.68392,0.50132,2.0518,0.0019736,0.011452,4.5611,-0.010798,0.0035994,-2.0008,-0.014398,2.0475e-13,-1.0004,0,0,0.33333,-0,-0,0.66667
0.82604,0.59318,2.4781,0.13978,0.45412,1.7872,-0.92369,0.3079,-1.9317,-1.2316,-7.9017e-11,-0.96585,0,0,0.33333,2.0231e-15,0,0.66667
0.92485,0.033422,2.7746,-0.69987,-1.162,1.1216,5.1782,-1.7261,-0.25917,6.9043,-2.7755e-07,-0.12959,0,0,0.33333,-3.158e-15,0,0.66667
0.71895,0.17543,2.1568,-0.48685,-2.6582,3.999,2.8002,-0.93339,-1.1572,3.7336,-5.0733e-11,-0.5786,0,0,0.33333,-7.8949e-16,0,0.66667
0.77043,0.47319,2.3113,-0.040215,-0.17275,2.7295,0.24786,-0.082621,-1.9944,0.33048,-1.0441e-11,-0.99721,0,0,0.33333,-1.8247e-15,0,0.66667
0.074018,0.61092,0.22205,0.16638,1.8934,25.278,-0.098522,0.032841,-1.9009,-0.13136,1.4192e-08,-0.95047,0,0,0.33333,-0,-0,0.66667
0.18869,0.72992,0.56606,0.34488,3.8326,20.766,-0.52059,0.17353,-1.5769,-0.69412,-2.6442e-10,-0.78847,0,0,0.33333,-0,-0,0.66667
0.31405,0.81501,0.94215,0.47252,4.9447,16.075,-1.1872,0.39572,-1.207,-1.5829,-2.1459e-11,-0.6035,0,0,0.33333,-0,-0,0.66667
0.33439,0.44806,1.0032,-0.077912,-0.78545,15.242,0.20842,-0.069475,-1.9778,0.2779,8.2378e-12,-0.98891,0,0,0.33333,-0,-0,0.66667
0.4653,0.025686,1.3959,-0.71147,-6.6476,11.044,2.6484,-0.8828,-0.20033,3.5312,-4.4853e-14,-0.10017,0,0,0.33333,3.9475e-16,2.3109e-16,0.66667
0.095259,0.88944,0.28578,0.58416,6.8122,24.47,-0.44517,0.14839,-0.78637,-0.59356,-1.2116e-08,-0.39319,0,0,0.33333,1.9737e-16,0,0.66667
0.34423,0.71265,1.0327,0.31898,3.2218,14.931,-0.87841,0.2928,-1.6387,-1.1712,-1.5159e-11,-0.81935,0,0,0.33333,-0,-0,0.66667
0.073158,0.40136,0.21947,-0.14797,-1.6831,25.312,0.086599,-0.028866,-1.9222,0.11547,-9.2389e-08,-0.96112,0,0,0.33333,-0,-0,0.66667
0.32341,0.54665,0.97024,0.06998,0.71146,15.641,-0.18106,0.060353,-1.9819,-0.24141,-9.2052e-12,-0.99094,0,0,0.33333,-3.9475e-16,0,0.66667
0.6615,0.7247,1.9845,0.33706,2.1179,5.1983,-1.7837,0.59457,-1.596,-2.3783,1.7105e-11,-0.79799,0,0,0.33333,-0,-0,0.66667
0.0029211,0.10146,0.0087633,-0.59781,-7.0465,28.134,0.01397,-0.0046571,-0.72922,0.018627,-6.0109e-07,-0.36461,0,0,0.33333,-0,-0,0.66667
0.28436,0.25204,0.85309,-0.37194,-3.9388,17.133,0.84614,-0.28205,-1.5089,1.1282,6.2701e-11,-0.75443,0,0,0.33333,-0,-0,0.66667
0.072846,0.45065,0.21854,-0.074032,-0.84091,25.323,0.043144,-0.014381,-1.9798,0.057525,-9.1515e-09,-0.98991,0,0,0.33333,-0,-0,0.66667
0.71076,0.6475,2.1323,0.22125,1.1959,3.997,-1.258,0.41935,-1.8255,-1.6774,4.7225e-11,-0.91273,0,0,0.33333,7.8949e-16,0,0.66667
0.84127,0.39577,2.5238,-0.15634,-0.46107,1.5611,1.0522,-0.35073,-1.9128,1.4029,-9.2736e-11,-0.9564,0,0,0.33333,-0,-0,0.66667
0.97833,0.89073,2.935,0.5861,0.16841,0.55697,-4.5872,1.5291,-0.77785,-6.1163,-4.653e-07,-0.38892,0,0,0.33333,1.579e-15,0,0.66667
0.61717,0.25578,1.8515,-0.36634,-2.5589,6.3404,1.8087,-0.60291,-1.5227,2.4116,-3.163e-12,-0.76135,0,0,0.33333,-1.579e-15,0,0.66667
0.2249,0.6899,0.6747,0.28486,3.1032,19.359,-0.51251,0.17084,-1.7119,-0.68335,-1.5312e-10,-0.85597,0,0,0.33333,-0,-0,0.66667
0.22831,0.26414,0.68493,-0.35379,-3.8637,19.241,0.64619,-0.2154,-1.5542,0.86159,1.7826e-10,-0.7771,0,0,0.33333,-0,-0,0.66667
0.49353,0.036673,1.4806,-0.69499,-6.2513,10.146,2.744,-0.91466,-0.28256,3.6586,-1.5987e-14,-0.14128,0,0,0.33333,-0,-0,0.66667
0.93135,0.709,2.794,0.31351,0.34791,0.57962,-2.3359,0.77862,-1.65,-3.1145,1.5344e-09,-0.825,0,0,0.33333,7.8949e-16,0,0.66667
0.62806,0.62162,1.8842,0.18244,1.2256,5.9715,-0.91664,0.30555,-1.8822,-1.2222,6.1199e-12,-0.94108,0,0,0.33333,7.8949e-16,0,0.66667
0.1814,0.49029,0.5442,-0.01456,-0.16048,21.02,0.021129,-0.0070431,-1.9987,0.028172,-3.2312e-10,-0.99936,0,0,0.33333,-0,-0,0.66667
0.51601,0.12173,1.548,-0.5674,-4.8543,9.3509,2.3423,-0.78076,-0.85622,3.123,2.4736e-13,-0.42811,0,0,0.33333,-1.9737e-16,0,0.66667
0.40912,0.8039,1.2274,0.45585,4.3869,12.718,-1.492,0.49733,-1.261,-1.9893,6.4193e-13,-0.63049,0,0,0.33333,-0,-0,0.66667
0.86907,0.3015,2.6072,-0.29776,-0.72809,1.2494,2.0702,-0.69006,-1.6841,2.7602,-3.2697e-10,-0.84207,0,0,0.33333,-0,-0,0.66667
0.10442,0.9808,0.31325,0.7212,8.5283,24.133,-0.60243,0.20081,-0.15003,-0.80325,7.7304e-09,-0.075017,0,0,0.33333,-1.9737e-16,0,0.66667
0.21763,0.476,0.65288,-0.035993,-0.39052,19.615,0.062665,-0.020888,-1.9956,0.083553,3.7569e-11,-0.9978,0,0,0.33333,-0,-0,0.66667
0.75933,0.064672,2.278,-0.65299,-3.2257,3.3725,3.9667,-1.3222,-0.4844,5.2889,-3.1646e-11,-0.2422,0,0,0.33333,-0,-0,0.66667
0.97325,0.54082,2.9197,0.061235,0.0033058,0.1441,-0.47677,0.15893,-1.9862,-0.6357,2.3152e-06,-0.99312,0,0,0.33333,-0,-0,0.66667
0.80883,0.11109,2.4265,-0.58336,-2.2862,2.4113,3.7747,-1.2582,-0.78942,5.033,-4.097e-10,-0.39471,0,0,0.33333,6.2114e-16,0,0.66667
0.57043,0.53734,1.7113,0.056008,0.4209,7.5198,-0.25559,0.085196,-1.9887,-0.34079,2.1091e-13,-0.99433,0,0,0.33333,-0,-0,0.66667
0.80961,0.67375,2.4288,0.26062,0.94384,2.1047,-1.688,0.56266,-1.758,-2.2506,1.3425e-10,-0.879,0,0,0.33333,-0,-0,0.66667
0.37864,0.82315,1.1359,0.48473,4.8182,13.78,-1.4683,0.48943,-1.1641,-1.9577,-9.5768e-13,-0.58207,0,0,0.33333,-0,-0,0.66667
0.23981,0.65583,0.71942,0.23375,2.5206,18.781,-0.44844,0.14948,-1.8066,-0.59792,-1.055e-10,-0.9033,0,0,0.33333,5.5511e-16,0,0.66667
0.44234,0.028268,1.327,-0.7076,-6.7844,11.78,2.504,-0.83466,-0.22016,3.3386,-1.0147e-13,-0.11008,0,0,0.33333,3.9475e-16,0,0.66667
0.29305,0.53837,0.87914,0.05755,0.59792,16.758,-0.13492,0.044973,-1.9881,-0.17989,-1.3204e-11,-0.99405,0,0,0.33333,-0,-0,0.66667
0.64436,0.15151,1.9331,-0.52273,-3.5115,5.7597,2.6946,-0.8982,-1.0287,3.5928,-2.6119e-12,-0.51434,0,0,0.33333,1.1842e-15,0,0.66667
0.91612,0.28807,2.7484,-0.3179,-0.46099,0.7261,2.3299,-0.77663,-1.6404,3.1065,1.7983e-09,-0.82022,0,0,0.33333,-0,-0,0.66667
0.6714,0.85817,2.0142,0.53725,3.3883,5.1164,-2.8857,0.96189,-0.97357,-3.8476,7.6115e-12,-0.48679,0,0,0.33333,-0,-0,0.66667
0.78373,0.73189,2.3512,0.34784,1.451,2.608,-2.1809,0.72697,-1.5694,-2.9079,2.1361e-10,-0.78469,0,0,0.33333,-0,-0,0.66667
0.9199,0.35328,2.7597,-0.22009,-0.28881,0.62462,1.6197,-0.53989,-1.8276,2.1596,1.0245e-08,-0.91382,0,0,0.33333,-0,-0,0.66667
0.73198,0.51299,2.1959,0.019487,0.097189,3.4945,-0.11411,0.038037,-1.9982,-0.15215,7.1106e-12,-0.99912,0,0,0.33333,-0,-0,0.66667
0.45633,0.46793,1.369,-0.048108,-0.42913,11.024,0.17563,-0.058542,-1.9927,0.23417,1.1188e-13,-0.99637,0,0,0.33333,-1.0856e-15,0,0.66667
0.7422,0.56875,2.2266,0.10312,0.49679,3.2932,-0.61231,0.2041,-1.962,-0.81641,4.1051e-11,-0.98099,0,0,0.33333,-0,-0,0.66667
0.99059,0.28398,2.9718,-0.32403,0.080889,0.18185,2.5679,-0.85596,-1.6271,3.4238,-1.0759e-08,-0.81353,0,0,0.33333,-0,-0,0.66667
0.67386,0.21786,2.0216,-0.42322,-2.6042,4.9601,2.2815,-0.7605,-1.3643,3.042,-1.9099e-11,-0.68213,0,0,0.33333,1.0856e-15,0,0.66667
0.72714,0.38533,2.1814,-0.17201,-0.87771,3.6249,1.0006,-0.33353,-1.8942,1.3341,-5.1115e-11,-0.94709,0,0,0.33333,-0,-0,0.66667
0.13533,0.76684,0.406,0.40027,4.5482,22.862,-0.43335,0.14445,-1.4296,-0.5778,-7.1669e-10,-0.71481,0,0,0.33333,1.9737e-16,0,0.66667
0.81734,0.63433,2.452,0.20149,0.69356,1.9485,-1.3175,0.43917,-1.8552,-1.7567,2.5464e-12,-0.92761,0,0,0.33333,-0,-0,0.66667
0.92918,0.5976,2.7875,0.14641,0.15788,0.50385,-1.0883,0.36277,-1.9239,-1.4511,-8.978e-08,-0.96197,0,0,0.33333,-0,-0,0.66667
0.082941,0.033855,0.24882,-0.69922,-8.2795,24.973,0.46395,-0.15465,-0.26215,0.6186,-4.6424e-09,-0.13107,0,0,0.33333,1.9737e-16,0,0.66667
0.92221,0.87325,2.7666,0.55988,0.85998,0.92821,-4.1306,1.3769,-0.88667,-5.5075,-4.4712e-08,-0.44334,0,0,0.33333,-1.7764e-15,0,0.66667
0.76001,0.14426,2.28,-0.53361,-2.5509,3.216,3.2444,-1.0815,-0.98693,4.3259,-1.2376e-10,-0.49347,0,0,0.33333,-1.6895e-15,0,0.66667
0.25267,0.75756,0.75802,0.38634,4.1745,18.324,-0.78094,0.26031,-1.4693,-1.0413,-1.2281e-10,-0.73463,0,0,0.33333,-0,-0,0.66667
0.03478,0.67228,0.10434,0.25841,2.9644,26.854,-0.071901,0.023967,-1.762,-0.095867,2.3965e-08,-0.88099,0,0,0.33333,-0,-0,0.66667
0.59333,0.70625,1.78,0.30937,2.2558,6.9507,-1.4685,0.48949,-1.6596,-1.958,1.2126e-12,-0.8298,0,0,0.33333,8.6848e-17,0,0.66667
0.14,0.62224,0.41999,0.18336,2.0566,22.654,-0.20536,0.068453,-1.8814,-0.27381,-1.9843e-09,-0.94071,0,0,0.33333,-4.9343e-17,0,0.66667
0.88064,0.77223,2.6419,0.40835,0.93239,1.1956,-2.8769,0.95895,-1.4067,-3.8358,-8.97e-10,-0.70333,0,0,0.33333,-0,-0,0.66667
0.64348,0.1922,1.9304,-0.4617,-3.079,5.7301,2.3767,-0.79225,-1.2424,3.169,-5.1656e-12,-0.6212,0,0,0.33333,-0,-0,0.66667
0.041189,0.84822,0.12357,0.52233,6.1004,26.608,-0.17211,0.057371,-1.0301,-0.22949,-3.256e-08,-0.51503,0,0,0.33333,-0,-0,0.66667
0.19441,0.39428,0.58324,-0.15858,-1.7427,20.52,0.24664,-0.082213,-1.9099,0.32885,6.8951e-11,-0.95494,0,0,0.33333,1.9737e-16,0,0.66667
0.62451,0.53799,1.8735,0.056992,0.38411,6.0389,-0.28474,0.094913,-1.9888,-0.37965,2.1278e-12,-0.99442,0,0,0.33333,-0,-0,0.66667
0.52665,0.45775,1.58,-0.063379,-0.51289,8.8079,0.26703,-0.08901,-1.9852,0.35604,1.277e-13,-0.99259,0,0,0.33333,-7.8949e-16,0,0.66667
0.29026,0.019888,0.87077,-0.72017,-7.8812,17.061,1.6723,-0.55742,-0.15527,2.2297,3.767e-13,-0.077637,0,0,0.33333,-0,-0,0.66667
0.39512,0.075653,1.1854,-0.63652,-6.3419,13.3,2.012,-0.67067,-0.5588,2.6827,-7.7138e-13,-0.2794,0,0,0.33333,-0,-0,0.66667
0.24657,0.21184,0.7397,-0.43224,-4.7031,18.567,0.85261,-0.2842,-1.3357,1.1368,1.379e-10,-0.66783,0,0,0.33333,3.9475e-16,0,0.66667
0.99839,0.95592,2.9952,0.68388,-0.040815,0.62953,-5.4623,1.8207,-0.33677,-7.283,-1.556e-05,-0.16838,0,0,0.33333,-0,-0,0.66667
0.88329,0.29313,2.6499,-0.3103,-0.66838,1.0806,2.1927,-0.73089,-1.6569,2.9236,1.0726e-09,-0.82847,0,0,0.33333,1.579e-15,0,0.66667
0.74097,0.82559,2.2229,0.48839,2.4788,3.5434,-2.895,0.96501,-1.1512,-3.8601,9.0117e-11,-0.57558,0,0,0.33333,-0,-0,0.66667
0.24654,0.84546,0.73961,0.51818,5.6823,18.595,-1.022,0.34067,-1.046,-1.3627,-1.0919e-10,-0.52302,0,0,0.33333,-0,-0,0.66667
0.088881,0.35991,0.26664,-0.21013,-2.3887,24.686,0.14941,-0.049804,-1.8423,0.19922,-9.3645e-09,-0.92115,0,0,0.33333,-1.9737e-16,0,0.66667
0.096131,0.070874,0.28839,-0.64369,-7.554,24.444,0.49503,-0.16501,-0.52672,0.66004,1.3255e-08,-0.26336,0,0,0.33333,-1.9737e-16,0,0.66667
0.88147,0.090076,2.6444,-0.61489,-1.5279,1.4339,4.3361,-1.4454,-0.6559,5.7814,3.1652e-09,-0.32795,0,0,0.33333,-1.579e-15,0,0.66667
0.22391,0.4644,0.67174,-0.053407,-0.57775,19.373,0.095668,-0.031889,-1.99,0.12756,2.6201e-11,-0.99501,0,0,0.33333,-0,-0,0.66667
0.055036,0.94558,0.16511,0.66836,7.9158,26.07,-0.29427,0.09809,-0.41129,-0.39236,-1.1302e-07,-0.20564,0,0,0.33333,9.8686e-17,0,0.66667
0.60875,0.47549,1.8262,-0.036769,-0.25633,6.456,0.17906,-0.059688,-1.9956,0.23875,-8.7716e-13,-0.99778,0,0,0.33333,-0,-0,0.66667
0.75404,0.80218,2.2621,0.45328,2.1788,3.2512,-2.7343,0.91144,-1.269,-3.6457,1.3812e-10,-0.63452,0,0,0.33333,-0,-0,0.66667
0.90554,0.18437,2.7166,-0.47345,-0.85654,0.98323,3.4298,-1.1433,-1.2039,4.573,-4.5575e-09,-0.60195,0,0,0.33333,3.9475e-16,-3.9616e-18,0.66667
0.48403,0.70618,1.4521,0.30927,2.692,10.19,-1.1975,0.39918,-1.6598,-1.5967,3.0587e-13,-0.82992,0,0,0.33333,-0,-0,0.66667
0.71854,0.10451,2.1556,-0.59323,-3.3137,4.1176,3.4101,-1.1367,-0.74877,4.5468,-2.0515e-11,-0.37439,0,0,0.33333,-0,-0,0.66667
0.046842,0.66656,0.14053,0.24983,2.8618,26.37,-0.093622,0.031207,-1.7782,-0.12483,7.2687e-09,-0.88909,0,0,0.33333,-0,-0,0.66667
0.30454,0.83813,0.91362,0.50719,5.3613,16.436,-1.2357,0.4119,-1.0852,-1.6476,-2.2688e-11,-0.54262,0,0,0.33333,5.9212e-16,0,0.66667
0.087153,0.047862,0.26146,-0.67821,-8.0045,24.804,0.47286,-0.15762,-0.36378,0.63048,-1.498e-09,-0.18189,0,0,0.33333,-4.5229e-18,0,0.66667
0.40034,0.78815,1.201,0.43223,4.1871,13.006,-1.3843,0.46143,-1.3355,-1.8457,-1.6542e-13,-0.66775,0,0,0.33333,-0,-0,0.66667
0.19936,0.032605,0.59807,-0.70109,-8.0271,20.452,1.1181,-0.37271,-0.25315,1.4908,1.0055e-10,-0.12657,0,0,0.33333,-0,-0,0.66667
0.49854,0.11921,1.4956,-0.57118,-5.0107,9.8876,2.278,-0.75934,-0.84036,3.0374,3.3307e-15,-0.42018,0,0,0.33333,3.9475e-16,-5.0033e-16,0.66667
0.24179,0.37391,0.72537,-0.18913,-2.0336,18.699,0.36584,-0.12195,-1.8735,0.48779,8.08e-11,-0.93674,0,0,0.33333,-1.4803e-16,0,0.66667
0.19127,0.6201,0.57382,0.18014,1.9836,20.644,-0.27565,0.091884,-1.8848,-0.36754,-8.896e-11,-0.9424,0,0,0.33333,1.9737e-16,0,0.66667
0.60179,0.17706,1.8054,-0.48441,-3.5431,6.8316,2.3321,-0.77736,-1.165,3.1095,4.6629e-13,-0.58252,0,0,0.33333,-0,-0,0.66667
0.48061,0.05945,1.4418,-0.66083,-6.012,10.518,2.5408,-0.84692,-0.44781,3.3877,-9.3037e-14,-0.22391,0,0,0.33333,7.8949e-16,0,0.66667
0.38153,0.7681,1.1446,0.40215,3.9562,13.642,-1.2274,0.40915,-1.4242,-1.6366,-2.6447e-12,-0.71212,0,0,0.33333,-0,-0,0.66667
0.41901,0.46244,1.257,-0.056342,-0.52471,12.269,0.18886,-0.062954,-1.9888,0.25182,5.7569e-13,-0.9944,0,0,0.33333,-0,-0,0.66667
0.94696,0.10093,2.8409,-0.5986,-0.61508,0.77735,4.5348,-1.5116,-0.72568,6.0464,1.5611e-07,-0.36284,0,0,0.33333,-0,-0,0.66667
0.61125,0.60044,1.8338,0.15066,1.0481,6.4062,-0.73674,0.24558,-1.9195,-0.98232,3.2367e-12,-0.95973,0,0,0.33333,-1.579e-15,0,0.66667
0.2018,0.14639,0.60539,-0.53041,-5.951,20.302,0.85628,-0.28543,-0.99963,1.1417,3.8635e-10,-0.49981,0,0,0.33333,-1.9737e-16,0,0.66667
0.26679,0.73983,0.80036,0.35975,3.8481,17.786,-0.76781,0.25594,-1.5398,-1.0237,-9.1289e-11,-0.76989,0,0,0.33333,-3.9475e-16,0,0.66667
0.29971,0.4323,0.89912,-0.10155,-1.051,16.514,0.24347,-0.081158,-1.9636,0.32463,2.0769e-11,-0.98179,0,0,0.33333,-0,-0,0.66667
0.71146,0.17728,2.1344,-0.48407,-2.7038,4.1574,2.7552,-0.9184,-1.1662,3.6736,-4.1628e-11,-0.58311,0,0,0.33333,-7.8949e-16,0,0.66667
0.50952,0.084347,1.5286,-0.62348,-5.4271,9.5933,2.5414,-0.84713,-0.61735,3.3885,1.3944e-13,-0.30868,0,0,0.33333,-3.9475e-16,0,0.66667
0.21262,0.44045,0.63785,-0.089324,-0.97207,19.81,0.15194,-0.050645,-1.972,0.20258,2.443e-11,-0.98599,0,0,0.33333,-7.8949e-16,0,0.66667
0.58056,0.6026,1.7417,0.15389,1.1383,7.2489,-0.71476,0.23825,-1.9156,-0.95301,8.4777e-13,-0.95782,0,0,0.33333,-0,-0,0.66667
0.87572,0.12346,2.6272,-0.5648,-1.4373,1.4337,3.9569,-1.319,-0.86694,5.2759,-8.7988e-09,-0.43347,0,0,0.33333,1.7764e-15,0,0.66667
0.12633,0.85927,0.37899,0.5389,6.2116,23.238,-0.54463,0.18154,-0.9671,-0.72618,-1.9931e-09,-0.48355,0,0,0.33333,-0,-0,0.66667
0.99245,0.1879,2.9774,-0.46814,0.08222,0.32412,3.7169,-1.239,-1.2216,4.9558,-2.7786e-08,-0.61079,0,0,0.33333,3.158e-15,0,0.66667
0.57331,0.26331,1.7199,-0.35504,-2.6994,7.5318,1.6284,-0.54279,-1.5512,2.1712,3.7337e-13,-0.77558,0,0,0.33333,-0,-0,0.66667
0.075515,0.74022,0.22655,0.36033,4.1376,25.229,-0.21768,0.07256,-1.5381,-0.29024,2.432e-09,-0.76906,0,0,0.33333,-9.8686e-17,0,0.66667
0.9247,0.52843,2.7741,0.04264,0.049369,0.52127,-0.31543,0.10514,-1.9942,-0.42058,-1.8077e-07,-0.99708,0,0,0.33333,1.579e-15,0,0.66667
0.6613,0.52629,1.9839,0.039431,0.24331,5.1044,-0.2086,0.069535,-1.9945,-0.27814,3.8202e-12,-0.99727,0,0,0.33333,-0,-0,0.66667
0.25836,0.64804,0.77509,0.22205,2.3686,18.075,-0.45897,0.15299,-1.8243,-0.61195,-7.82e-11,-0.91213,0,0,0.33333,-1.9737e-16,0,0.66667
0.011312,0.80925,0.033935,0.46387,5.3987,27.798,-0.041978,0.013992,-1.2353,-0.05597,-4.3591e-08,-0.61767,0,0,0.33333,1.8769e-17,0,0.66667
0.82783,0.24416,2.4835,-0.38376,-1.2839,1.9002,2.5415,-0.84716,-1.4769,3.3886,-3.698e-10,-0.73846,0,0,0.33333,1.9737e-15,0,0.66667
0.19681,0.63224,0.59043,0.19836,2.1805,20.43,-0.31232,0.10411,-1.8598,-0.41643,-1.6823e-10,-0.9299,0,0,0.33333,-0,-0,0.66667
0.91039,0.78621,2.7312,0.42932,0.71356,0.88501,-3.1268,1.0423,-1.3448,-4.1691,-4.076e-09,-0.6724,0,0,0.33333,-0,-0,0.66667
0.26207,0.64751,0.7862,0.22127,2.355,17.935,-0.4639,0.15463,-1.8257,-0.61853,-7.3623e-11,-0.91283,0,0,0.33333,-1.9737e-16,0,0.66667
0.30754,0.49221,0.92261,-0.011683,-0.12011,16.221,0.028743,-0.009581,-1.9992,0.038324,1.7025e-12,-0.99961,0,0,0.33333,-3.9475e-16,0,0.66667
0.429,0.64334,1.287,0.21501,1.9902,11.957,-0.73792,0.24597,-1.8349,-0.9839,-4.4986e-13,-0.91744,0,0,0.33333,-7.8949e-16,0,0.66667
0.84952,0.52675,2.5486,0.04013,0.11069,1.4157,-0.27273,0.09091,-1.9944,-0.36364,1.4113e-09,-0.99719,0,0,0.33333,-1.579e-15,0,0.66667
0.37631,0.37417,1.1289,-0.18875,-1.8411,13.761,0.56822,-0.18941,-1.8746,0.75763,5.6566e-12,-0.93728,0,0,0.33333,-4.9343e-17,0,0.66667
0.66908,0.8686,2.0072,0.5529,3.5173,5.1865,-2.9595,0.9865,-0.91316,-3.946,5.6364e-12,-0.45658,0,0,0.33333,1.4307e-18,0,0.66667
0.73119,0.59031,2.1936,0.13547,0.68006,3.5287,-0.79241,0.26414,-1.9352,-1.0565,4.3842e-11,-0.96762,0,0,0.33333,7.8949e-16,0,0.66667
0.89467,0.62265,2.684,0.18397,0.33972,0.87341,-1.3168,0.43892,-1.8802,-1.7557,1.3058e-08,-0.94012,0,0,0.33333,-1.9737e-15,0,0.66667
0.93853,0.92277,2.8156,0.63416,0.80142,0.89777,-4.7614,1.5871,-0.56985,-6.3485,6.6586e-08,-0.28492,0,0,0.33333,-0,-0,0.66667
0.87235,0.034354,2.6171,-0.69847,-1.9492,1.6716,4.8745,-1.6248,-0.266,6.4993,1.1843e-09,-0.133,0,0,0.33333,-0,-0,0.66667
0.45255,0.87015,1.3576,0.55523,5.1518,11.333,-2.0101,0.67005,-0.90453,-2.6802,8.3733e-13,-0.45227,0,0,0.33333,-1.9737e-16,0,0.66667
0.55083,0.5097,1.6525,0.014555,0.11318,8.0847,-0.064141,0.02138,-1.9989,-0.085521,9.1711e-14,-0.99943,0,0,0.33333,-0,-0,0.66667
0.57742,0.59246,1.7323,0.13869,1.0312,7.3338,-0.64064,0.21355,-1.9328,-0.85419,6.8623e-13,-0.96642,0,0,0.33333,-9.0139e-16,0,0.66667
0.48558,0.16027,1.4567,-0.5096,-4.5133,10.247,1.9796,-0.65987,-1.0773,2.6395,-1.8874e-13,-0.53865,0,0,0.33333,-1.579e-15,0,0.66667
0.91406,0.59597,2.7422,0.14395,0.20328,0.6488,-1.0527,0.35089,-1.9268,-1.4035,4.0082e-08,-0.96338,0,0,0.33333,-0,-0,0.66667
0.78635,0.18571,2.359,-0.47144,-1.9928,2.6674,2.9657,-0.98857,-1.2104,3.9543,-3.0745e-10,-0.60519,0,0,0.33333,3.9475e-16,0,0.66667
0.093327,0.43908,0.27998,-0.091375,-1.0344,24.504,0.068222,-0.022741,-1.9715,0.090963,-4.8666e-08,-0.98577,0,0,0.33333,3.9475e-16,0,0.66667
0.99093,0.33241,2.9728,-0.25138,0.075711,0.12498,1.9928,-0.66427,-1.7746,2.6571,-3.8266e-08,-0.88732,0,0,0.33333,-1.579e-15,0,0.66667
0.19126,0.7397,0.57378,0.35955,3.9953,20.669,-0.55015,0.18338,-1.5399,-0.73353,-2.8046e-10,-0.76996,0,0,0.33333,-0,-0,0.66667
0.26939,0.24188,0.80817,-0.38717,-4.1432,17.695,0.83441,-0.27814,-1.4668,1.1125,8.6086e-11,-0.73339,0,0,0.33333,-0,-0,0.66667
0.15118,0.96321,0.45355,0.69481,8.0897,22.304,-0.84036,0.28012,-0.28348,-1.1205,6.2559e-10,-0.14174,0,0,0.33333,-0,-0,0.66667
0.26352,0.17172,0.79055,-0.49243,-5.3354,17.948,1.0381,-0.34604,-1.1374,1.3841,7.9041e-11,-0.56871,0,0,0.33333,3.9475e-16,0,0.66667
0.37276,0.77219,1.1183,0.40828,4.051,13.951,-1.2176,0.40585,-1.4072,-1.6234,-3.8738e-12,-0.70358,0,0,0.33333,-3.9475e-16,0,0.66667
0.97389,0.51343,2.9217,0.02015,0.00071575,0.13584,-0.15699,0.052328,-1.9979,-0.20932,-4.3633e-06,-0.99893,0,0,0.33333,3.158e-15,0,0.66667
0.16693,0.92485,0.50079,0.63728,7.3309,21.677,-0.85104,0.28368,-0.55536,-1.1347,-4.0262e-10,-0.27768,0,0,0.33333,-1.9737e-16,0,0.66667
0.61018,0.0055709,1.8305,-0.74164,-5.5766,6.8638,3.6203,-1.2068,-0.044802,4.8271,1.6209e-14,-0.022401,0,0,0.33333,-0,-0,0.66667
0.44789,0.90494,1.3437,0.6074,5.7048,11.521,-2.1764,0.72546,-0.68891,-2.9018,6.4593e-13,-0.34446,0,0,0.33333,-4.9343e-17,0,0.66667
0.58703,0.91303,1.7611,0.61954,4.7578,7.3501,-2.9095,0.96983,-0.63502,-3.8793,-8.6664e-13,-0.31751,0,0,0.33333,-0,-0,0.66667
0.053649,0.45305,0.16095,-0.070432,-0.80203,26.093,0.030229,-0.010076,-1.9816,0.040306,1.7743e-07,-0.99078,0,0,0.33333,-0,-0,0.66667
0.30933,0.17926,0.92799,-0.48111,-5.0558,16.25,1.1906,-0.39686,-1.1768,1.5874,2.3379e-11,-0.58841,0,0,0.33333,-3.9475e-16,0,0.66667
0.090911,0.37388,0.27273,-0.18918,-2.148,24.604,0.13759,-0.045862,-1.8737,0.18345,-3.1694e-08,-0.93685,0,0,0.33333,-2.8372e-16,0,0.66667
0.46345,0.02857,1.3903,-0.70715,-6.6173,11.1,2.6218,-0.87393,-0.22246,3.4957,-7.7716e-15,-0.11123,0,0,0.33333,5.9212e-16,0,0.66667
0.89199,0.63494,2.676,0.20241,0.3869,0.91267,-1.4444,0.48146,-1.8542,-1.9259,4.4598e-09,-0.92712,0,0,0.33333,1.579e-15,0,0.66667
0.82138,0.32526,2.4642,-0.2621,-0.88901,1.9145,1.7223,-0.5741,-1.755,2.2964,-1.6663e-10,-0.8775,0,0,0.33333,-1.579e-15,0,0.66667
0.87215,0.678,2.6165,0.267,0.63086,1.1896,-1.8629,0.62097,-1.7463,-2.4839,-8.5572e-10,-0.87314,0,0,0.33333,7.8949e-16,0,0.66667
0.3996,0.87241,1.1988,0.55862,5.4879,13.098,-1.7858,0.59526,-0.89087,-2.381,9.9765e-13,-0.44544,0,0,0.33333,9.8686e-16,0,0.66667
0.50934,0.78161,1.528,0.42241,3.5857,9.4559,-1.7212,0.57373,-1.3664,-2.2949,-1.2179e-13,-0.68321,0,0,0.33333,-1.579e-15,0,0.66667
0.25721,0.7528,0.77162,0.3792,4.0847,18.151,-0.78027,0.26009,-1.4891,-1.0404,-1.1178e-10,-0.74454,0,0,0.33333,-0,-0,0.66667
0.60699,0.23631,1.821,-0.39554,-2.8311,6.629,1.9207,-0.64023,-1.4433,2.5609,-1.3854e-12,-0.72165,0,0,0.33333,7.8949e-16,0,0.66667
0.44631,0.86443,1.3389,0.54665,5.1037,11.531,-1.9518,0.6506,-0.93688,-2.6024,9.4968e-13,-0.46844,0,0,0.33333,3.9475e-16,0,0.66667
0.49641,0.1338,1.4892,-0.5493,-4.8188,9.9372,2.1814,-0.72714,-0.92689,2.9086,7.3275e-15,-0.46345,0,0,0.33333,-0,-0,0.66667
0.54096,0.077607,1.6229,-0.63359,-5.2723,8.6655,2.742,-0.914,-0.57191,3.656,3.737e-13,-0.28595,0,0,0.33333,-0,-0,0.66667
0.58046,0.78111,1.7414,0.42167,3.1869,7.371,-1.9581,0.6527,-1.369,-2.6108,-7.7682e-13,-0.68452,0,0,0.33333,-3.0223e-16,0,0.66667
0.46466,0.17761,1.394,-0.48359,-4.3853,10.896,1.7976,-0.59921,-1.1681,2.3968,-7.7527e-13,-0.58405,0,0,0.33333,-3.9475e-16,0,0.66667
0.79849,0.22844,2.3955,-0.40735,-1.604,2.3968,2.6021,-0.86736,-1.4099,3.4694,-3.364e-10,-0.70496,0,0,0.33333,-0,-0,0.66667
0.40923,0.14912,1.2277,-0.52633,-5.1024,12.752,1.7231,-0.57438,-1.015,2.2975,-1.0557e-12,-0.5075,0,0,0.33333,3.9475e-16,0,0.66667
0.043632,0.37543,0.1309,-0.18685,-2.1357,26.497,0.065221,-0.02174,-1.8769,0.086961,1.9701e-07,-0.93846,0,0,0.33333,1.9737e-16,0,0.66667
0.83341,0.74806,2.5002,0.3721,1.2001,1.8054,-2.4809,0.82696,-1.5083,-3.3078,3.3185e-10,-0.75414,0,0,0.33333,2.3685e-15,0,0.66667
0.48479,0.98389,1.4544,0.72583,6.6361,10.445,-2.815,0.93834,-0.12666,-3.7534,-7.2164e-14,-0.063332,0,0,0.33333,7.8949e-16,0,0.66667
0.47847,0.9387,1.4354,0.65805,6.0004,10.582,-2.5189,0.83962,-0.46104,-3.3585,1.7786e-13,-0.23052,0,0,0.33333,-1.579e-15,0,0.66667
0.17683,0.54051,0.5305,0.060764,0.67115,21.2,-0.085961,0.028654,-1.9864,-0.11462,-1.3323e-10,-0.99322,0,0,0.33333,-0,-0,0.66667
0.443,0.81566,1.329,0.47349,4.4006,11.595,-1.678,0.55935,-1.2032,-2.2374,1.0292e-12,-0.60161,0,0,0.33333,-0,-0,0.66667
0.14347,0.67351,0.43042,0.26027,2.9254,22.524,-0.29873,0.099577,-1.7586,-0.39831,-1.5457e-10,-0.87932,0,0,0.33333,1.9737e-16,0,0.66667
0.041238,0.90283,0.12371,0.60425,7.115,26.611,-0.19934,0.066447,-0.70209,-0.26579,-3.8817e-07,-0.35105,0,0,0.33333,4.9343e-17,0,0.66667
0.96316,0.75195,2.8895,0.37792,0.16348,0.38823,-2.912,0.97067,-1.4927,-3.8827,4.3988e-10,-0.74636,0,0,0.33333,-0,-0,0.66667
0.26195,0.74864,0.78585,0.37295,4.0046,17.971,-0.78156,0.26052,-1.5063,-1.0421,-1.0148e-10,-0.75313,0,0,0.33333,5.9212e-16,0,0.66667
0.1361,0.86276,0.4083,0.54413,6.2583,22.856,-0.59245,0.19748,-0.94666,-0.78993,-9.3267e-10,-0.47333,0,0,0.33333,-1.9737e-16,0,0.66667
0.68806,0.48984,2.0642,-0.015242,-0.087422,4.4648,0.083899,-0.027966,-1.9992,0.11187,-2.3259e-12,-0.9996,0,0,0.33333,-2.3685e-15,0,0.66667
0.37393,0.092253,1.1218,-0.61162,-6.1937,14.013,1.8296,-0.60988,-0.67107,2.4395,-5.8586e-13,-0.33553,0,0,0.33333,-9.8686e-16,0,0.66667
0.62308,0.2787,1.8692,-0.33195,-2.2813,6.1653,1.6547,-0.55156,-1.609,2.2062,-5.004e-12,-0.8045,0,0,0.33333,3.9475e-16,0,0.66667
0.70645,0.33904,2.1193,-0.24144,-1.3251,4.1012,1.3645,-0.45483,-1.793,1.8193,-4.6138e-11,-0.8965,0,0,0.33333,-1.1842e-15,0,0.66667
0.66211,0.47136,1.9863,-0.042962,-0.26456,5.0849,0.22757,-0.075855,-1.9939,0.30342,-4.2817e-12,-0.99693,0,0,0.33333,-0,-0,0.66667
0.22691,0.73541,0.68074,0.35312,3.8589,19.295,-0.64102,0.21367,-1.5558,-0.85469,-1.8155e-10,-0.77792,0,0,0.33333,-0,-0,0.66667
0.78337,0.81728,2.3501,0.47591,2.0405,2.7246,-2.9825,0.99418,-1.1951,-3.9767,2.8243e-10,-0.59755,0,0,0.33333,-0,-0,0.66667
0.07097,0.90321,0.21291,0.60482,7.0979,25.432,-0.34339,0.11446,-0.69965,-0.45786,-1.2154e-07,-0.34982,0,0,0.33333,-4.9343e-17,0,0.66667
0.78814,0.58143,2.3644,0.12214,0.4859,2.4178,-0.77013,0.25671,-1.9462,-1.0268,7.7525e-11,-0.97311,0,0,0.33333,-0,-0,0.66667
0.16235,0.17138,0.48704,-0.49294,-5.596,21.82,0.64021,-0.2134,-1.1353,0.85361,1.0569e-09,-0.56764,0,0,0.33333,-0,-0,0.66667
0.40501,0.55042,1.215,0.075625,0.71498,12.749,-0.24503,0.081677,-1.9795,-0.32671,-1.0632e-12,-0.98973,0,0,0.33333,-0,-0,0.66667
0.0061978,0.37221,0.018594,-0.19169,-2.1956,28.001,0.0095043,-0.0031682,-1.8697,0.012672,-7.5703e-08,-0.93486,0,0,0.33333,-4.333e-18,0,0.66667
0.16285,0.26133,0.48856,-0.358,-4.0209,21.775,0.46642,-0.15547,-1.5436,0.62189,2.2576e-10,-0.77181,0,0,0.33333,-0,-0,0.66667
0.67786,0.57348,2.0336,0.11022,0.65199,4.7148,-0.59771,0.19924,-1.9562,-0.79695,1.4388e-11,-0.97809,0,0,0.33333,-0,-0,0.66667
0.75014,0.64889,2.2504,0.22334,1.0532,3.172,-1.3403,0.44676,-1.823,-1.787,9.005e-11,-0.91151,0,0,0.33333,7.8949e-16,0,0.66667
0.91019,0.70456,2.7306,0.30684,0.48264,0.77761,-2.2343,0.74476,-1.6646,-2.979,-2.7444e-09,-0.83231,0,0,0.33333,-1.579e-15,0,0.66667
0.42023,0.48293,1.2607,-0.025606,-0.23809,12.227,0.086082,-0.028694,-1.9973,0.11478,1.2509e-13,-0.99866,0,0,0.33333,-0,-0,0.66667
0.61033,0.52186,1.831,0.032795,0.22786,6.4133,-0.16013,0.053376,-1.9962,-0.2135,7.904e-13,-0.9981,0,0,0.33333,-0,-0,0.66667
0.49204,0.39577,1.4761,-0.15634,-1.3347,9.8908,0.61543,-0.20514,-1.9125,0.82057,-4.4797e-14,-0.95623,0,0,0.33333,-0,-0,0.66667
0.025408,0.65798,0.076225,0.23697,2.7174,27.229,-0.048169,0.016056,-1.8009,-0.064226,-1.0526e-07,-0.90046,0,0,0.33333,-0,-0,0.66667
0.44827,0.95793,1.3448,0.6869,6.5218,11.57,-2.4634,0.82112,-0.32183,-3.2845,1.3811e-13,-0.16091,0,0,0.33333,-0,-1.6877e-16,0.66667
0.68945,0.66929,2.0683,0.25393,1.4676,4.4916,-1.4006,0.46687,-1.7704,-1.8675,3.3532e-11,-0.88519,0,0,0.33333,-0,-0,0.66667
0.67687,0.89353,2.0306,0.59029,3.7071,5.0417,-3.1964,1.0655,-0.76044,-4.2619,4.5945e-12,-0.38022,0,0,0.33333,-0,-0,0.66667
0.29344,0.72719,0.88031,0.34079,3.5796,16.788,-0.8,0.26667,-1.5868,-1.0667,-5.1825e-11,-0.79342,0,0,0.33333,-0,-0,0.66667
0.87748,0.2359,2.6324,-0.39615,-0.92694,1.2227,2.7809,-0.92697,-1.4415,3.7079,1.9852e-10,-0.72077,0,0,0.33333,-0,-0,0.66667
0.77122,0.94106,2.3137,0.66159,3.1314,3.1629,-4.0819,1.3606,-0.44401,-5.4425,2.8638e-11,-0.222,0,0,0.33333,-3.158e-15,0,0.66667
0.85372,0.43231,2.5612,-0.10153,-0.27223,1.3662,0.69344,-0.23115,-1.9634,0.92458,5.123e-10,-0.98168,0,0,0.33333,3.9475e-16,0,0.66667
0.93715,0.13402,2.8115,-0.54897,-0.65337,0.78289,4.1158,-1.3719,-0.92862,5.4877,-1.5732e-08,-0.46431,0,0,0.33333,-0,-3.5704e-16,0.66667
0.235,0.6695,0.70501,0.25426,2.7513,18.967,-0.47801,0.15934,-1.77,-0.63735,-1.1938e-10,-0.885,0,0,0.33333,-3.9475e-16,0,0.66667
0.71728,0.81253,2.1519,0.4688,2.5646,4.018,-2.6901,0.8967,-1.22,-3.5868,5.2851e-11,-0.60998,0,0,0.33333,-0,-0,0.66667
0.043952,0.86911,0.13186,0.55367,6.4843,26.5,-0.19468,0.064894,-0.91018,-0.25958,1.7802e-07,-0.45509,0,0,0.33333,4.9343e-17,0,0.66667
0.30362,0.79505,0.91087,0.44257,4.653,16.444,-1.075,0.35833,-1.3028,-1.4333,-3.317e-11,-0.6514,0,0,0.33333,-0,-0,0.66667
0.48305,0.92466,1.4491,0.63698,5.7567,10.421,-2.4616,0.82052,-0.55708,-3.2821,1.8319e-13,-0.27854,0,0,0.33333,-1.3615e-15,0,0.66667
0.36442,0.80167,1.0933,0.4525,4.5411,14.262,-1.3192,0.43974,-1.2714,-1.759,-3.9895e-12,-0.6357,0,0,0.33333,-3.9475e-16,0,0.66667
0.19847,0.22597,0.59542,-0.41105,-4.5705,20.4,0.65265,-0.21755,-1.3991,0.8702,3.6945e-10,-0.69953,0,0,0.33333,-0,-0,0.66667
0.69868,0.42282,2.0961,-0.11577,-0.64516,4.2333,0.64711,-0.2157,-1.9517,0.86281,-2.2593e-11,-0.97584,0,0,0.33333,7.8949e-16,0,0.66667
0.9253,0.78752,2.7759,0.43128,0.57591,0.74281,-3.1925,1.0642,-1.3387,-4.2567,-1.0311e-10,-0.66934,0,0,0.33333,-0,-0,0.66667
0.099858,0.00096794,0.29957,-0.74855,-8.8913,24.317,0.59799,-0.19933,-0.0084609,0.79732,-4.5111e-08,-0.0042304,0,0,0.33333,-0,-0,0.66667
0.23014,0.6117,0.69041,0.16755,1.8112,19.142,-0.30847,0.10282,-1.8996,-0.4113,-8.6035e-11,-0.94978,0,0,0.33333,-0,-0,0.66667
0.28485,0.40123,0.85454,-0.14815,-1.5505,17.071,0.3376,-0.11253,-1.9222,0.45013,3.7403e-11,-0.96108,0,0,0.33333,5.9212e-16,0,0.66667
0.66797,0.87084,2.0039,0.55626,3.5508,5.2162,-2.9725,0.99085,-0.9001,-3.9634,5.0444e-12,-0.45005,0,0,0.33333,1.1842e-15,0,0.66667
0.38662,0.087595,1.1599,-0.61861,-6.1983,13.579,1.9133,-0.63777,-0.63937,2.5511,-7.9292e-13,-0.31968,0,0,0.33333,-1.9737e-16,-1.5311e-17,0.66667
0.7656,0.041936,2.2968,-0.6871,-3.3479,3.3016,4.2083,-1.4028,-0.32151,5.6111,-1.8936e-11,-0.16075,0,0,0.33333,1.579e-15,0,0.66667
0.095646,0.59141,0.28694,0.13712,1.553,24.413,-0.10492,0.034972,-1.934,-0.13989,-1.5989e-08,-0.967,0,0,0.33333,2.2204e-16,0,0.66667
0.46018,0.46724,1.3805,-0.049146,-0.43632,10.899,0.18093,-0.06031,-1.992,0.24124,-7.1387e-14,-0.996,0,0,0.33333,3.9475e-16,0,0.66667
0.29262,0.89562,0.87785,0.59343,6.382,16.91,-1.3892,0.46306,-0.74738,-1.8522,-1.4249e-11,-0.37369,0,0,0.33333,3.9475e-16,0,0.66667
0.51342,0.20598,1.5402,-0.44103,-3.729,9.3422,1.8115,-0.60382,-1.308,2.4153,3.6271e-13,-0.65401,0,0,0.33333,-6.0801e-16,0,0.66667
0.13575,0.89206,0.40724,0.58809,6.7949,22.879,-0.63864,0.21288,-0.76962,-0.85152,-3.1402e-09,-0.38481,0,0,0.33333,-0,-0,0.66667
0.446,0.69126,1.338,0.28688,2.615,11.412,-1.0236,0.3412,-1.7075,-1.3648,3.9946e-13,-0.85377,0,0,0.33333,-0,-0,0.66667
0.51639,0.36523,1.5492,-0.20216,-1.6697,9.1459,0.83515,-0.27838,-1.8547,1.1135,1.1469e-13,-0.92735,0,0,0.33333,3.9475e-16,0,0.66667
0.34421,0.82876,1.0326,0.49314,5.0533,14.997,-1.3579,0.45264,-1.1352,-1.8106,-6.5615e-12,-0.56759,0,0,0.33333,-0,-0,0.66667
0.55465,0.76869,1.664,0.40304,3.1814,8.093,-1.7884,0.59613,-1.4217,-2.3845,-9.7355e-13,-0.71084,0,0,0.33333,-0,-0,0.66667
0.71429,0.66933,2.1429,0.25399,1.3616,3.9345,-1.4514,0.48379,-1.77,-1.9352,5.4887e-11,-0.885,0,0,0.33333,-0,-0,0.66667
0.66388,0.75389,1.9916,0.38083,2.391,5.1684,-2.0226,0.67421,-1.4845,-2.6968,1.6355e-11,-0.74224,0,0,0.33333,1.579e-15,0,0.66667
0.35567,0.59937,1.067,0.14906,1.4789,14.485,-0.42413,0.14138,-1.9211,-0.56551,-8.5163e-12,-0.96054,0,0,0.33333,-0,-0,0.66667
0.076579,0.96099,0.22974,0.69149,8.1887,25.222,-0.42363,0.14121,-0.29997,-0.56484,-1.4855e-07,-0.14999,0,0,0.33333,4.9343e-17,0,0.66667
0.83367,0.51761,2.501,0.026408,0.081266,1.6484,-0.17612,0.058708,-1.9968,-0.23483,2.8811e-10,-0.9984,0,0,0.33333,-0,-0,0.66667
0.92624,0.11474,2.7787,-0.57789,-0.84825,0.91691,4.2821,-1.4274,-0.81213,5.7095,4.389e-09,-0.40606,0,0,0.33333,-0,-0,0.66667
0.23416,0.23332,0.70249,-0.40003,-4.3701,19.029,0.74937,-0.24979,-1.4309,0.99916,1.7815e-10,-0.71546,0,0,0.33333,-3.9475e-16,0,0.66667
0.0015237,0.90798,0.0045712,0.61196,7.2242,28.189,-0.0074589,0.002487,-0.66946,-0.0099448,1.0934e-06,-0.33473,0,0,0.33333,-0,-0,0.66667
0.47964,0.20775,1.4389,-0.43837,-3.8819,10.392,1.6821,-0.56069,-1.3162,2.2427,-4.462e-13,-0.65809,0,0,0.33333,-0,-0,0.66667
0.61534,0.84279,1.846,0.51418,3.6749,6.4954,-2.5312,0.84373,-1.0607,-3.3749,-3.102e-13,-0.53035,0,0,0.33333,-1.4803e-16,0,0.66667
0.65285,0.19172,1.9585,-0.46241,-3.0168,5.498,2.4151,-0.80503,-1.2401,3.2201,-7.5149e-12,-0.62003,0,0,0.33333,-0,-0,0.66667
0.60356,0.52104,1.8107,0.031566,0.22243,6.5959,-0.15242,0.050805,-1.9959,-0.20322,5.6795e-13,-0.99795,0,0,0.33333,-0,-0,0.66667
0.67867,0.19472,2.036,-0.45792,-2.7965,4.8745,2.4862,-0.82873,-1.2541,3.3149,-1.8521e-11,-0.62707,0,0,0.33333,1.579e-15,0,0.66667
0.73325,0.6589,2.1997,0.23835,1.1974,3.5232,-1.3982,0.46605,-1.7989,-1.8642,7.2841e-11,-0.89945,0,0,0.33333,-3.158e-15,0,0.66667
0.84341,0.81726,2.5302,0.47589,1.4826,1.7568,-3.211,1.0703,-1.1955,-4.2813,1.2831e-09,-0.59773,0,0,0.33333,3.158e-15,0,0.66667
0.57512,0.82441,1.7254,0.48662,3.7436,7.5657,-2.2389,0.74631,-1.1576,-2.9852,-1.1411e-12,-0.5788,0,0,0.33333,-0,-0,0.66667
0.033325,0.7909,0.099976,0.43635,5.0619,26.918,-0.11633,0.038777,-1.3229,-0.15511,9.0239e-09,-0.66143,0,0,0.33333,-9.8686e-17,0,0.66667
0.93264,0.028532,2.7979,-0.7072,-1.0591,1.0679,5.2765,-1.7588,-0.2222,7.0353,-2.4867e-08,-0.1111,0,0,0.33333,-1.579e-15,4.5445e-16,0.66667
0.41723,0.58885,1.2517,0.13327,1.2456,12.338,-0.44483,0.14828,-1.937,-0.59311,-9.2593e-13,-0.96848,0,0,0.33333,-9.8686e-16,0,0.66667
0.46721,0.33871,1.4016,-0.24194,-2.1431,10.705,0.90429,-0.30143,-1.7923,1.2057,-2.835e-13,-0.89616,0,0,0.33333,9.8686e-16,0,0.66667
0.61906,0.97474,1.8572,0.7121,5.2294,6.5982,-3.5267,1.1756,-0.19688,-4.7023,-2.3559e-13,-0.098441,0,0,0.33333,1.579e-15,0,0.66667
0.27646,0.49105,0.82937,-0.013427,-0.14098,17.376,0.029696,-0.0098988,-1.999,0.039595,2.6244e-12,-0.99948,0,0,0.33333,3.9475e-16,0,0.66667
0.90942,0.73548,2.7283,0.35323,0.57275,0.82268,-2.5699,0.85662,-1.5558,-3.4265,-2.0639e-10,-0.77792,0,0,0.33333,1.579e-15,0,0.66667
0.6579,0.68892,1.9737,0.28338,1.787,5.257,-1.4915,0.49717,-1.7155,-1.9887,1.6337e-11,-0.85776,0,0,0.33333,-1.579e-15,0,0.66667
0.13349,0.75606,0.40047,0.38408,4.3616,22.932,-0.41017,0.13672,-1.4753,-0.54689,-3.1596e-10,-0.73766,0,0,0.33333,-0,-0,0.66667
0.37351,0.26203,1.1205,-0.35696,-3.5248,13.905,1.0666,-0.35554,-1.5467,1.4222,5.1361e-12,-0.77336,0,0,0.33333,-0,-0,0.66667
0.21324,0.5171,0.63973,0.025649,0.27885,19.784,-0.043756,0.014585,-1.9969,-0.058341,1.3635e-12,-0.99846,0,0,0.33333,-5.0506e-16,0,0.66667
0.44333,0.22543,1.33,-0.41186,-3.8032,11.552,1.4607,-0.4869,-1.3967,1.9476,-8.693e-13,-0.69833,0,0,0.33333,-0,-0,0.66667
0.20627,0.73535,0.61882,0.35302,3.8957,20.087,-0.58255,0.19418,-1.5563,-0.77674,-2.503e-10,-0.77817,0,0,0.33333,-0,-0,0.66667
0.097915,0.20319,0.29374,-0.44521,-5.1231,24.346,0.34874,-0.11625,-1.2946,0.46499,-2.3591e-09,-0.64729,0,0,0.33333,-1.9737e-16,0,0.66667
0.32046,0.4094,0.96138,-0.13589,-1.3866,15.754,0.34839,-0.11613,-1.9346,0.46452,1.8123e-11,-0.96731,0,0,0.33333,-0,-0,0.66667
0.13448,0.34687,0.40345,-0.22969,-2.5851,22.876,0.24712,-0.082373,-1.8127,0.32949,-1.6375e-09,-0.90636,0,0,0.33333,-3.9475e-16,0,0.66667
0.035025,0.019489,0.10508,-0.72077,-8.6065,26.865,0.20196,-0.067319,-0.15236,0.26928,-3.6652e-07,-0.07618,0,0,0.33333,-0,-0,0.66667
0.49839,0.64258,1.4952,0.21388,1.8144,9.7056,-0.85275,0.28425,-1.837,-1.137,2.9921e-14,-0.91852,0,0,0.33333,-7.8949e-16,0,0.66667
0.60463,0.69489,1.8139,0.29233,2.0809,6.6349,-1.414,0.47134,-1.6959,-1.8854,2.5313e-12,-0.84796,0,0,0.33333,-0,-0,0.66667
0.19647,0.84492,0.58941,0.51738,5.8108,20.503,-0.8132,0.27107,-1.0489,-1.0843,-4.909e-10,-0.52445,0,0,0.33333,-0,-0,0.66667
0.35053,0.25142,1.0516,-0.37287,-3.761,14.723,1.0456,-0.34854,-1.5063,1.3941,1.1011e-11,-0.75313,0,0,0.33333,-0,-0,0.66667
0.45356,0.39422,1.3607,-0.15867,-1.4239,11.129,0.57572,-0.19191,-1.9104,0.76763,-9.6589e-15,-0.95521,0,0,0.33333,-7.8949e-16,0,0.66667
0.25284,0.94633,0.75851,0.66949,7.441,18.418,-1.3542,0.4514,-0.40613,-1.8056,-1.4299e-11,-0.20307,0,0,0.33333,-0,-0,0.66667
0.33803,0.19921,1.0141,-0.45119,-4.6277,15.2,1.2201,-0.40671,-1.2755,1.6268,1.1253e-11,-0.63777,0,0,0.33333,-0,-0,0.66667
0.26085,0.77415,0.78254,0.41122,4.4311,18.023,-0.85813,0.28604,-1.3985,-1.1442,-1.0298e-10,-0.69927,0,0,0.33333,1.9737e-16,0,0.66667
0.66262,0.034337,1.9878,-0.69849,-4.6477,5.5019,3.7027,-1.2342,-0.26557,4.9369,8.038e-14,-0.13279,0,0,0.33333,-0,-0,0.66667
0.38944,0.52973,1.1683,0.04459,0.42801,13.285,-0.13892,0.046307,-1.994,-0.18523,-1.2634e-12,-0.99702,0,0,0.33333,8.8818e-16,0,0.66667
0.46579,0.52334,1.3974,0.035004,0.30855,10.716,-0.13044,0.043478,-1.9955,-0.17391,-1.0303e-13,-0.99776,0,0,0.33333,-0,-0,0.66667
0.25898,0.74408,0.77693,0.36611,3.936,18.081,-0.75851,0.25284,-1.5233,-1.0114,-1.0661e-10,-0.76164,0,0,0.33333,-2.414e-16,0,0.66667
0.57889,0.11708,1.7367,-0.57438,-4.4442,7.5321,2.6601,-0.88668,-0.82717,3.5467,1.0796e-12,-0.41358,0,0,0.33333,7.8949e-16,0,0.66667
0.41565,0.79434,1.247,0.44151,4.2145,12.49,-1.4681,0.48938,-1.3062,-1.9575,7.0588e-13,-0.65308,0,0,0.33333,-0,-0,0.66667
0.45718,0.89451,1.3716,0.59177,5.4866,11.209,-2.1644,0.72146,-0.75435,-2.8858,5.4357e-13,-0.37717,0,0,0.33333,-7.8949e-16,0,0.66667
0.20956,0.98251,0.62869,0.72377,8.2748,20.072,-1.2134,0.40447,-0.13668,-1.6179,-2.5459e-11,-0.06834,0,0,0.33333,8.9109e-16,0,0.66667
0.51169,0.50405,1.5351,0.006078,0.05029,9.2622,-0.024881,0.0082935,-2.0002,-0.033174,9.9167e-14,-1.0001,0,0,0.33333,-3.158e-15,0,0.66667
0.42103,0.47639,1.2631,-0.035419,-0.32908,12.2,0.1193,-0.039767,-1.9958,0.15907,2.5084e-13,-0.99788,0,0,0.33333,-0,-0,0.66667
0.53816,0.18836,1.6145,-0.46746,-3.8182,8.6161,2.0126,-0.67086,-1.2238,2.6834,1.0529e-12,-0.61188,0,0,0.33333,-1.579e-15,0,0.66667
0.51553,0.88346,1.5466,0.5752,4.9297,9.3716,-2.3722,0.79074,-0.82391,-3.163,-2.7711e-13,-0.41195,0,0,0.33333,-0,-0,0.66667
0.71232,0.1739,2.1369,-0.48915,-2.7275,4.1436,2.7875,-0.92915,-1.1485,3.7166,-4.1527e-11,-0.57425,0,0,0.33333,-5.406e-17,0,0.66667
0.34543,0.73174,1.0363,0.34762,3.5144,14.897,-0.96062,0.32021,-1.57,-1.2808,-1.3844e-11,-0.78502,0,0,0.33333,-0,-0,0.66667
0.22924,0.70296,0.68772,0.30444,3.313,19.196,-0.55833,0.18611,-1.6697,-0.74444,-1.5523e-10,-0.83486,0,0,0.33333,-3.9475e-16,0,0.66667
0.91895,0.74021,2.7568,0.36031,0.51084,0.73367,-2.6489,0.88296,-1.5381,-3.5318,-5.2272e-11,-0.76905,0,0,0.33333,-0,-0,0.66667
0.39408,0.018967,1.1823,-0.72155,-7.2826,13.396,2.2748,-0.75827,-0.14835,3.0331,-8.7264e-14,-0.074175,0,0,0.33333,-0,-0,0.66667
0.81515,0.54034,2.4454,0.060503,0.20855,1.944,-0.39455,0.13152,-1.9868,-0.52607,2.0041e-10,-0.9934,0,0,0.33333,-0,-0,0.66667
0.88049,0.10059,2.6415,-0.59911,-1.4892,1.423,4.2201,-1.4067,-0.72358,5.6268,3.134e-09,-0.36179,0,0,0.33333,-0,-0,0.66667
0.65189,0.73021,1.9557,0.34532,2.2241,5.4393,-1.8009,0.60029,-1.5755,-2.4012,1.2695e-11,-0.78774,0,0,0.33333,-0,-0,0.66667
0.76748,0.18938,2.3024,-0.46592,-2.1309,3.0059,2.8607,-0.95356,-1.2291,3.8142,-1.8232e-10,-0.61454,0,0,0.33333,3.158e-15,0,0.66667
0.89753,0.70632,2.6926,0.30949,0.57231,0.91518,-2.2222,0.74073,-1.6587,-2.9629,1.8776e-10,-0.82935,0,0,0.33333,-0,-0,0.66667
0.49849,0.80594,1.4955,0.45891,3.971,9.8123,-1.8301,0.61003,-1.2514,-2.4401,-6.5836e-14,-0.62572,0,0,0.33333,3.9475e-16,0,0.66667
0.42176,0.59375,1.2653,0.14062,1.3082,12.186,-0.47447,0.15816,-1.9313,-0.63263,-8.1593e-13,-0.96565,0,0,0.33333,-2.0214e-16,0,0.66667
0.72854,0.76544,2.1856,0.39816,2.0751,3.7205,-2.3206,0.77354,-1.4356,-3.0941,8.1059e-11,-0.71778,0,0,0.33333,-0,-0,0.66667
0.57844,0.42862,1.7353,-0.10707,-0.79373,7.299,0.49546,-0.16515,-1.9594,0.66061,-6.5462e-13,-0.97971,0,0,0.33333,-0,-0,0.66667
0.070112,0.92544,0.21034,0.63816,7.5175,25.47,-0.35794,0.11931,-0.55128,-0.47726,6.1018e-08,-0.27564,0,0,0.33333,-0,-0,0.66667
0.80706,0.25358,2.4212,-0.36963,-1.3832,2.221,2.3865,-0.79551,-1.5145,3.182,-2.9999e-10,-0.75724,0,0,0.33333,-0,-0,0.66667
0.20204,0.24198,0.60613,-0.38703,-4.2891,20.257,0.62557,-0.20852,-1.4675,0.8341,2.9705e-10,-0.73377,0,0,0.33333,-0,-0,0.66667
0.21501,0.11833,0.64503,-0.57251,-6.4131,19.809,0.98475,-0.32825,-0.83456,1.313,2.1956e-10,-0.41728,0,0,0.33333,-1.9737e-16,0,0.66667
0.87429,0.12618,2.6229,-0.56072,-1.4411,1.4459,3.9219,-1.3073,-0.88335,5.2292,-6.6921e-09,-0.44167,0,0,0.33333,-0,-5.8149e-17,0.66667
0.81023,0.13172,2.4307,-0.55242,-2.1298,2.3506,3.5807,-1.1936,-0.91507,4.7743,-4.9842e-10,-0.45754,0,0,0.33333,-0,-0,0.66667
0.78716,0.30499,2.3615,-0.29251,-1.1905,2.5096,1.842,-0.61401,-1.6955,2.456,-1.6016e-10,-0.84773,0,0,0.33333,-7.8949e-16,0,0.66667
0.97848,0.71176,2.9354,0.31764,0.010262,0.23966,-2.4864,0.8288,-1.641,-3.3152,-1.5356e-09,-0.82051,0,0,0.33333,7.8949e-16,0,0.66667
0.93575,0.91383,2.8072,0.62074,0.81242,0.89927,-4.6468,1.5489,-0.63007,-6.1958,-6.2424e-08,-0.31504,0,0,0.33333,-3.158e-15,0,0.66667
0.12932,0.10887,0.38795,-0.5867,-6.7898,23.13,0.60695,-0.20232,-0.77547,0.80927,3.6515e-09,-0.38774,0,0,0.33333,1.9737e-16,0,0.66667
0.46825,0.41579,1.4048,-0.12631,-1.1118,10.645,0.47317,-0.15772,-1.9434,0.63089,-6.2755e-14,-0.97168,0,0,0.33333,-0,-0,0.66667
0.30416,0.10865,0.91249,-0.58702,-6.2599,16.485,1.4284,-0.47614,-0.77396,1.9046,1.0426e-11,-0.38698,0,0,0.33333,-0,-0,0.66667
0.89049,0.0028373,2.6715,-0.74574,-1.8478,1.5417,5.3126,-1.7709,-0.023672,7.0835,3.1176e-08,-0.011836,0,0,0.33333,6.3159e-15,0,0.66667
0.13731,0.18525,0.41194,-0.47213,-5.3925,22.795,0.51864,-0.17288,-1.2081,0.69151,2.4701e-12,-0.60406,0,0,0.33333,-2.2204e-16,0,0.66667
0.047972,0.52968,0.14392,0.04452,0.50713,26.321,-0.017086,0.0056956,-1.9941,-0.022781,5.8469e-07,-0.99703,0,0,0.33333,7.4015e-17,0,0.66667
0.97746,0.31795,2.9324,-0.27307,-0.0078832,0.21113,2.1354,-0.71178,-1.7348,2.8471,2.8288e-09,-0.86739,0,0,0.33333,3.158e-15,0,0.66667
0.56486,0.76435,1.6946,0.39653,3.0734,7.7955,-1.7919,0.59729,-1.4405,-2.3892,-8.3045e-13,-0.72025,0,0,0.33333,-7.8949e-16,0,0.66667
0.28488,0.94533,0.85465,0.668,7.2849,17.23,-1.5224,0.50747,-0.41325,-2.0299,-4.4925e-12,-0.20662,0,0,0.33333,-0,-0,0.66667
0.33181,0.20233,0.99542,-0.44651,-4.6,15.421,1.1852,-0.39508,-1.2905,1.5803,1.4339e-11,-0.64527,0,0,0.33333,-0,-0,0.66667
0.13838,0.077767,0.41515,-0.63335,-7.3487,22.786,0.70116,-0.23372,-0.57332,0.93488,1.6025e-09,-0.28666,0,0,0.33333,-0,-3.9454e-16,0.66667
0.99127,0.13503,2.9738,-0.54745,0.034946,0.43597,4.3414,-1.4471,-0.9338,5.7885,-6.121e-08,-0.4669,0,0,0.33333,-0,-0,0.66667
0.87071,0.91708,2.6121,0.62562,1.7047,1.5797,-4.3579,1.4526,-0.60785,-5.8105,1.6988e-09,-0.30393,0,0,0.33333,-1.579e-15,0,0.66667
0.24165,0.65454,0.72494,0.23181,2.497,18.71,-0.44814,0.14938,-1.8095,-0.59751,-1.037e-10,-0.90474,0,0,0.33333,4.4409e-16,0,0.66667
0.33244,0.2656,0.99732,-0.3516,-3.5929,15.365,0.93509,-0.3117,-1.5598,1.2468,1.9796e-11,-0.77989,0,0,0.33333,-3.9475e-16,0,0.66667
0.16541,0.25694,0.49624,-0.36459,-4.093,21.676,0.48247,-0.16082,-1.5271,0.64329,2.822e-10,-0.76355,0,0,0.33333,-3.9475e-16,0,0.66667
0.51303,0.97731,1.5391,0.71596,6.2932,9.5714,-2.9385,0.9795,-0.17727,-3.918,-1.1191e-13,-0.088635,0,0,0.33333,-0,-0,0.66667
0.97972,0.097678,2.9392,-0.60348,-0.16667,0.57665,4.73,-1.5766,-0.70536,6.3066,6.8886e-07,-0.35268,0,0,0.33333,-3.158e-15,0,0.66667
0.59628,0.15725,1.7888,-0.51412,-3.817,7.004,2.4525,-0.81749,-1.0612,3.27,9.881e-13,-0.5306,0,0,0.33333,-1.579e-15,0,0.66667
0.66446,0.059258,1.9934,-0.66111,-4.3447,5.413,3.5143,-1.1714,-0.44623,4.6857,-1.3234e-13,-0.22312,0,0,0.33333,-0,-0,0.66667
0.67117,0.20017,2.0135,-0.44975,-2.7978,5.0444,2.4149,-0.80495,-1.2807,3.2198,-1.5399e-11,-0.64033,0,0,0.33333,-0,-0,0.66667
0.19112,0.94306,0.57335,0.66458,7.6004,20.754,-1.0161,0.3387,-0.42972,-1.3548,-1.5564e-10,-0.21486,0,0,0.33333,-0,-0,0.66667
0.24088,0.36424,0.72265,-0.20364,-2.1918,18.735,0.39242,-0.13081,-1.8519,0.52323,8.9203e-11,-0.92597,0,0,0.33333,-1.9737e-16,0,0.66667
0.50091,0.16016,1.5027,-0.50976,-4.4223,9.7701,2.0428,-0.68092,-1.0768,2.7237,1.4211e-13,-0.53839,0,0,0.33333,-1.579e-15,0,0.66667
0.46695,0.04271,1.4008,-0.68593,-6.3711,10.97,2.5624,-0.85412,-0.32683,3.4165,-1.1569e-13,-0.16341,0,0,0.33333,-7.8949e-16,-3.667e-16,0.66667
0.32409,0.63384,0.97228,0.20076,2.0474,15.631,-0.52053,0.17351,-1.8564,-0.69404,-2.2291e-11,-0.92818,0,0,0.33333,-0,-0,0.66667
0.72003,0.15895,2.1601,-0.51157,-2.7966,3.9995,2.9468,-0.98227,-1.0703,3.9291,-4.5229e-11,-0.53517,0,0,0.33333,-0,-0,0.66667
0.27597,0.20702,0.8279,-0.43946,-4.7036,17.466,0.97022,-0.32341,-1.3127,1.2936,6.8592e-11,-0.65634,0,0,0.33333,-0,-0,0.66667
0.89558,0.50801,2.6868,0.012018,0.021531,0.82276,-0.086106,0.028702,-1.9992,-0.11481,4.9658e-08,-0.99959,0,0,0.33333,3.158e-15,0,0.66667
0.12274,0.80724,0.36823,0.46085,5.2796,23.367,-0.45253,0.15084,-1.2452,-0.60337,-2.8772e-09,-0.62258,0,0,0.33333,-9.8686e-17,0,0.66667
0.92163,0.81815,2.7649,0.47722,0.69671,0.82823,-3.5186,1.1729,-1.1908,-4.6914,-1.2185e-08,-0.59542,0,0,0.33333,-0,-0,0.66667
0.10352,0.98292,0.31055,0.72438,8.571,24.169,-0.59988,0.19996,-0.13355,-0.79984,1.6255e-08,-0.066777,0,0,0.33333,2.4518e-16,0,0.66667
0.19298,0.15219,0.57895,-0.52172,-5.8704,20.639,0.80546,-0.26849,-1.0324,1.0739,4.8251e-10,-0.5162,0,0,0.33333,3.9475e-16,0,0.66667
0.45235,0.78545,1.357,0.42817,3.9184,11.264,-1.5494,0.51648,-1.3489,-2.0659,1.0526e-12,-0.67443,0,0,0.33333,-1.579e-15,0,0.66667
0.88235,0.31956,2.647,-0.27066,-0.58198,1.065,1.9106,-0.63685,-1.7392,2.5474,1.0693e-09,-0.86961,0,0,0.33333,-0,-0,0.66667
0.30753,0.56002,0.92259,0.090036,0.92649,16.224,-0.22151,0.073837,-1.9717,-0.29535,-1.5864e-11,-0.98584,0,0,0.33333,1.9737e-16,0,0.66667
0.65742,0.57882,1.9723,0.11823,0.73829,5.2106,-0.6218,0.20727,-1.95,-0.82907,9.7352e-12,-0.97501,0,0,0.33333,7.8949e-16,0,0.66667
0.33893,0.81709,1.0168,0.47563,4.8861,15.177,-1.2897,0.42989,-1.1958,-1.7196,-9.2137e-12,-0.59789,0,0,0.33333,-0,-0,0.66667
0.016138,0.50406,0.048415,0.0060839,0.069434,27.6,-0.00078292,0.00025006,-2.0006,-0.0010494,-1.6369e-05,-1.0003,0,0,0.33333,-0,-0,0.66667
0.62443,0.33254,1.8733,-0.25119,-1.7089,6.0909,1.2548,-0.41826,-1.7756,1.673,-6.076e-12,-0.88781,0,0,0.33333,7.8949e-16,0,0.66667
0.23807,0.99076,0.71421,0.73614,8.3172,19.002,-1.402,0.46734,-0.072931,-1.8693,-1.6331e-12,-0.036465,0,0,0.33333,-3.9475e-16,0,0.66667
0.19454,0.27031,0.58361,-0.34453,-3.8194,20.539,0.53619,-0.17873,-1.5773,0.71492,2.4313e-10,-0.78865,0,0,0.33333,-1.9737e-16,0,0.66667
0.80885,0.463,2.4266,-0.0555,-0.19807,2.0472,0.35913,-0.11971,-1.9891,0.47884,-5.1958e-11,-0.99456,0,0,0.33333,-3.9475e-16,0,0.66667
0.61735,0.18407,1.8521,-0.47389,-3.3533,6.4099,2.3405,-0.78016,-1.2017,3.1206,-7.4252e-13,-0.60087,0,0,0.33333,1.9737e-16,0,0.66667
0.79544,0.85,2.3863,0.525,2.1577,2.5654,-3.3408,1.1136,-1.0203,-4.4544,3.6389e-10,-0.51015,0,0,0.33333,-1.579e-15,0,0.66667
0.26534,0.7397,0.79603,0.35954,3.8492,17.84,-0.76322,0.25441,-1.5404,-1.0176,-9.4009e-11,-0.77022,0,0,0.33333,3.9475e-16,0,0.66667
0.047177,0.7115,0.14153,0.31725,3.6465,26.359,-0.11973,0.039912,-1.6425,-0.15965,6.1446e-09,-0.82125,0,0,0.33333,-0,-0,0.66667
0.85345,0.52958,2.5604,0.044363,0.11881,1.3604,-0.30289,0.10096,-1.9936,-0.40386,9.2366e-10,-0.9968,0,0,0.33333,-0,-0,0.66667
0.76433,0.44983,2.293,-0.07525,-0.33202,2.8498,0.46012,-0.15337,-1.9796,0.6135,-4.0168e-11,-0.98982,0,0,0.33333,-0,-0,0.66667
0.0045005,0.36677,0.013502,-0.19984,-2.2897,28.069,0.0071951,-0.0023984,-1.8577,0.0095934,-5.5947e-08,-0.92885,0,0,0.33333,3.084e-18,0,0.66667
0.69985,0.38001,2.0995,-0.17998,-1.003,4.2246,1.0077,-0.33589,-1.885,1.3436,-3.3625e-11,-0.94252,0,0,0.33333,1.579e-15,0,0.66667
0.24166,0.68772,0.72498,0.28158,3.0406,18.718,-0.54438,0.18146,-1.7189,-0.72584,-1.19e-10,-0.85947,0,0,0.33333,-0,-0,0.66667
0.35967,0.78951,1.079,0.43426,4.3686,14.422,-1.2495,0.41652,-1.3297,-1.6661,-5.7112e-12,-0.66486,0,0,0.33333,-0,-0,0.66667
0.78074,0.57833,2.3422,0.1175,0.48365,2.5504,-0.73387,0.24462,-1.9507,-0.9785,7.0664e-11,-0.97537,0,0,0.33333,-0,-0,0.66667
0.98652,0.59454,2.9595,0.14181,-0.034185,0.090269,-1.1192,0.37306,-1.9296,-1.4923,-3.3504e-07,-0.9648,0,0,0.33333,-0,-0,0.66667
0.24556,0.09409,0.73669,-0.60886,-6.7447,18.665,1.1961,-0.39871,-0.68286,1.5948,4.8861e-11,-0.34143,0,0,0.33333,-0,-0,0.66667
0.4675,0.46054,1.4025,-0.059187,-0.5207,10.661,0.22136,-0.073787,-1.9876,0.29515,1.4694e-13,-0.99382,0,0,0.33333,-0,-0,0.66667
0.40034,0.24305,1.201,-0.38542,-3.7183,12.986,1.2344,-0.41146,-1.4716,1.6458,8.0369e-13,-0.73579,0,0,0.33333,3.9475e-16,0,0.66667
0.55826,0.97012,1.6748,0.70518,5.7772,8.238,-3.1494,1.0498,-0.23266,-4.1992,-1.7786e-13,-0.11633,0,0,0.33333,-0,4.2709e-16,0.66667
0.52926,0.33967,1.5878,-0.2405,-1.9517,8.767,1.0183,-0.33943,-1.7949,1.3577,2.2093e-13,-0.89744,0,0,0.33333,-3.9475e-16,0,0.66667
0.65803,0.67544,1.9741,0.26316,1.6559,5.2443,-1.3853,0.46178,-1.7535,-1.8471,1.6089e-11,-0.87674,0,0,0.33333,7.8949e-16,0,0.66667
0.49673,0.93022,1.4902,0.64534,5.7355,10.003,-2.5645,0.85482,-0.51918,-3.4193,3.1752e-14,-0.25959,0,0,0.33333,3.9475e-16,0,0.66667
0.68538,0.31345,2.0562,-0.27982,-1.64,4.5984,1.5343,-0.51142,-1.7227,2.0457,-3.1939e-11,-0.86134,0,0,0.33333,-1.579e-15,0,0.66667
0.31286,0.26721,0.93857,-0.34919,-3.6206,16.076,0.87398,-0.29133,-1.5663,1.1653,3.2799e-11,-0.78316,0,0,0.33333,3.9475e-16,0,0.66667
0.21438,0.67299,0.64313,0.25948,2.8375,19.759,-0.44502,0.14834,-1.7599,-0.59336,-1.4988e-10,-0.87997,0,0,0.33333,-3.9475e-16,0,0.66667
0.90718,0.53264,2.7215,0.048955,0.07556,0.69798,-0.35529,0.11843,-1.9927,-0.47371,7.5374e-08,-0.99633,0,0,0.33333,-3.158e-15,0,0.66667
0.5576,0.59978,1.6728,0.14967,1.1538,7.9036,-0.66765,0.22255,-1.9203,-0.8902,7.8937e-14,-0.96014,0,0,0.33333,1.579e-15,0,0.66667
0.029017,0.013314,0.087052,-0.73003,-8.7306,27.103,0.16947,-0.056487,-0.10469,0.22596,3.5336e-06,-0.052344,0,0,0.33333,9.8686e-17,0,0.66667
0.12197,0.56446,0.3659,0.096696,1.0876,23.364,-0.09435,0.03145,-1.9675,-0.1258,1.0664e-08,-0.98376,0,0,0.33333,-0,-0,0.66667
0.6814,0.32724,2.0442,-0.25913,-1.5327,4.6812,1.4126,-0.47086,-1.7605,1.8834,-2.8313e-11,-0.88024,0,0,0.33333,-0,-0,0.66667
0.80871,0.53475,2.4261,0.052121,0.18614,2.0492,-0.33721,0.1124,-1.9908,-0.44961,5.1874e-11,-0.99538,0,0,0.33333,-0,-0,0.66667
0.82348,0.99343,2.4704,0.74015,2.8476,2.4074,-4.876,1.6253,-0.052089,-6.5013,1.2566e-10,-0.026044,0,0,0.33333,-0,-0,0.66667
0.4331,0.96494,1.2993,0.69741,6.7441,12.074,-2.4164,0.80545,-0.27096,-3.2218,2.1405e-13,-0.13548,0,0,0.33333,-8.5864e-16,0,0.66667
0.58043,0.8931,1.7413,0.58965,4.5607,7.5033,-2.738,0.91268,-0.76335,-3.6507,-9.9365e-13,-0.38168,0,0,0.33333,-0,-0,0.66667
0.80756,0.54538,2.4227,0.068067,0.24474,2.0705,-0.43975,0.14658,-1.9828,-0.58633,3.5551e-11,-0.99141,0,0,0.33333,-0,-0,0.66667
0.95758,0.17055,2.8728,-0.49418,-0.32929,0.55593,3.7857,-1.2619,-1.131,5.0477,-1.7114e-08,-0.56551,0,0,0.33333,-1.579e-15,0,0.66667
0.87975,0.007039,2.6393,-0.73944,-1.9937,1.6521,5.2042,-1.7347,-0.055731,6.9389,-2.0149e-08,-0.027865,0,0,0.33333,-0,-0,0.66667
0.38851,0.84028,1.1655,0.51042,5.0407,13.451,-1.5864,0.52881,-1.0743,-2.1152,2.8832e-13,-0.53715,0,0,0.33333,1.9737e-16,0,0.66667
0.96148,0.032333,2.8845,-0.7015,-0.58476,0.84728,5.3959,-1.7986,-0.25097,7.1945,-1.5326e-06,-0.12549,0,0,0.33333,-0,-0,0.66667
0.13705,0.30939,0.41114,-0.28591,-3.2239,22.78,0.31347,-0.10449,-1.7099,0.41795,8.7784e-10,-0.85493,0,0,0.33333,-2.4672e-16,0,0.66667
0.90874,0.8535,2.7262,0.53024,0.95368,1.0192,-3.8548,1.2849,-1.0001,-5.1398,-3.2929e-09,-0.50004,0,0,0.33333,-0,-0,0.66667
0.52131,0.26241,1.5639,-0.35639,-2.9535,9.0556,1.4863,-0.49544,-1.5477,1.9818,3.9491e-13,-0.77385,0,0,0.33333,7.8949e-16,0,0.66667
0.71489,0.51258,2.1447,0.018864,0.099681,3.8604,-0.10789,0.035962,-1.9982,-0.14385,4.9829e-12,-0.99909,0,0,0.33333,-0,-0,0.66667
0.78467,0.85618,2.354,0.53426,2.3103,2.7632,-3.3538,1.1179,-0.9846,-4.4717,2.407e-10,-0.4923,0,0,0.33333,-0,-0,0.66667
0.33468,0.95295,1.004,0.67943,7.1689,15.435,-1.8191,0.60638,-0.35786,-2.4255,-9.5146e-14,-0.17893,0,0,0.33333,-0,-0,0.66667
0.87769,0.17375,2.6331,-0.48937,-1.1848,1.3167,3.4361,-1.1454,-1.148,4.5815,-1.4114e-09,-0.57401,0,0,0.33333,-0,-0,0.66667
0.25801,0.39871,0.77403,-0.15194,-1.6169,18.079,0.31362,-0.10454,-1.9176,0.41816,5.5678e-11,-0.95878,0,0,0.33333,1.5277e-16,0,0.66667
0.083575,0.99267,0.25072,0.73901,8.7936,24.954,-0.4941,0.1647,-0.057939,-0.6588,-6.7468e-08,-0.02897,0,0,0.33333,9.8686e-17,0,0.66667
0.75937,0.67058,2.2781,0.25587,1.168,3.0063,-1.5544,0.51813,-1.7665,-2.0725,1.1311e-10,-0.88323,0,0,0.33333,-0,-0,0.66667
0.89508,0.6414,2.6852,0.2121,0.39222,0.882,-1.5188,0.50625,-1.8394,-2.025,1.8777e-09,-0.91969,0,0,0.33333,-1.579e-15,0,0.66667
0.92645,0.20862,2.7793,-0.43707,-0.57479,0.73855,3.2394,-1.0798,-1.3203,4.3192,3.8281e-09,-0.66016,0,0,0.33333,-0,-0,0.66667
0.37407,0.017349,1.1222,-0.72398,-7.4432,14.083,2.1665,-0.72218,-0.13616,2.8887,-1.39e-13,-0.068082,0,0,0.33333,-0,-3.8994e-16,0.66667
0.34146,0.90198,1.0244,0.60297,6.2676,15.149,-1.6471,0.54904,-0.70777,-2.1962,-1.1721e-12,-0.35388,0,0,0.33333,1.9737e-16,1.9376e-16,0.66667
0.25569,0.40847,0.76706,-0.13729,-1.4624,18.166,0.28082,-0.093607,-1.9335,0.37443,5.2869e-11,-0.96674,0,0,0.33333,-7.8949e-16,0,0.66667
0.47079,0.10481,1.4124,-0.59278,-5.4069,10.773,2.2326,-0.7442,-0.75035,2.9768,-4.3676e-13,-0.37518,0,0,0.33333,7.8949e-16,0,0.66667
0.96717,0.76345,2.9015,0.39517,0.13969,0.37926,-3.0576,1.0192,-1.4444,-4.0768,5.0439e-09,-0.72222,0,0,0.33333,-0,-0,0.66667
0.49887,0.13493,1.4966,-0.5476,-4.7867,9.8599,2.1854,-0.72848,-0.93375,2.9139,-5.751e-14,-0.46688,0,0,0.33333,-0,-0,0.66667
0.23907,0.0486,0.71722,-0.6771,-7.5877,18.937,1.295,-0.43167,-0.36923,1.7267,1.9736e-11,-0.18462,0,0,0.33333,-0,-0,0.66667
0.20791,0.67548,0.62374,0.26322,2.8875,20.008,-0.43782,0.14594,-1.753,-0.58376,-1.6119e-10,-0.87652,0,0,0.33333,-0,-0,0.66667
0.92671,0.2321,2.7801,-0.40186,-0.51384,0.69967,2.9792,-0.99308,-1.4251,3.9723,-6.9605e-10,-0.71257,0,0,0.33333,-0,-0,0.66667
0.68793,0.44692,2.0638,-0.079618,-0.45735,4.4733,0.43818,-0.14606,-1.9776,0.58423,-1.3092e-11,-0.98879,0,0,0.33333,-0,-0,0.66667
0.70478,0.51191,2.1143,0.017863,0.097465,4.0838,-0.10072,0.033572,-1.9986,-0.13429,4.3421e-12,-0.9993,0,0,0.33333,-0,-0,0.66667
0.5889,0.30196,1.7667,-0.29706,-2.1823,7.0669,1.3995,-0.46649,-1.6857,1.866,-9.0883e-13,-0.84286,0,0,0.33333,-7.8949e-16,0,0.66667
0.61873,0.89418,1.8562,0.59128,4.2485,6.477,-2.9267,0.97557,-0.75625,-3.9023,-6.9056e-13,-0.37812,0,0,0.33333,-0,-0,0.66667
0.045998,0.26669,0.13799,-0.34996,-4.0309,26.407,0.12878,-0.042926,-1.5643,0.1717,7.9331e-10,-0.78216,0,0,0.33333,-0,-0,0.66667
0.35616,0.15751,1.0685,-0.51374,-5.2237,14.582,1.4638,-0.48793,-1.0625,1.9517,2.8649e-12,-0.53124,0,0,0.33333,-0,-0,0.66667
0.079759,0.31915,0.23928,-0.27128,-3.0971,25.054,0.17309,-0.057698,-1.7386,0.23079,4.3473e-09,-0.86928,0,0,0.33333,-0,-0,0.66667
0.32577,0.26516,0.97731,-0.35227,-3.6184,15.606,0.91807,-0.30602,-1.5583,1.2241,2.3549e-11,-0.77917,0,0,0.33333,-0,-0,0.66667
0.71057,0.86564,2.1317,0.54846,3.1096,4.2399,-3.1177,1.0392,-0.92992,-4.157,2.5731e-11,-0.46496,0,0,0.33333,7.8949e-16,0,0.66667
0.072478,0.94864,0.21743,0.67296,7.9566,25.381,-0.3902,0.13007,-0.38915,-0.52026,-3.2444e-09,-0.19457,0,0,0.33333,1.9737e-16,0,0.66667
0.89901,0.46539,2.697,-0.051917,-0.089338,0.78726,0.37339,-0.12446,-1.9907,0.49785,2.2872e-08,-0.99533,0,0,0.33333,3.9475e-16,0,0.66667
0.35431,0.52119,1.0629,0.031781,0.31499,14.523,-0.090082,0.030027,-1.9959,-0.12011,-2.3381e-12,-0.99795,0,0,0.33333,-0,-0,0.66667
0.089774,0.16373,0.26932,-0.5044,-5.8429,24.676,0.36226,-0.12075,-1.0952,0.48301,-1.3377e-08,-0.54761,0,0,0.33333,-0,-0,0.66667
0.10048,0.3792,0.30143,-0.1812,-2.0529,24.222,0.14565,-0.048551,-1.8834,0.1942,5.0621e-09,-0.94169,0,0,0.33333,-0,-0,0.66667
0.14697,0.39758,0.44092,-0.15364,-1.7179,22.377,0.18064,-0.060214,-1.9156,0.24086,7.6496e-10,-0.95781,0,0,0.33333,-9.8686e-17,0,0.66667
0.70481,0.67651,2.1144,0.26476,1.4637,4.1488,-1.4928,0.49761,-1.7505,-1.9905,4.691e-11,-0.87527,0,0,0.33333,7.8949e-16,0,0.66667
0.94314,0.62989,2.8294,0.19483,0.15233,0.40357,-1.4701,0.49002,-1.8651,-1.9601,-1.0191e-07,-0.93254,0,0,0.33333,-0,-0,0.66667
0.76054,0.50738,2.2816,0.011072,0.04955,2.9173,-0.067365,0.022455,-1.9993,-0.08982,2.2721e-12,-0.99966,0,0,0.33333,3.158e-15,0,0.66667
0.39221,0.48698,1.1766,-0.019537,-0.18699,13.188,0.0613,-0.020433,-1.9983,0.081734,5.8794e-13,-0.99917,0,0,0.33333,-0,-0,0.66667
0.76781,0.75678,2.3034,0.38517,1.7317,2.9292,-2.3659,0.78863,-1.4726,-3.1545,1.8123e-10,-0.73632,0,0,0.33333,-0,-0,0.66667
0.83593,0.072058,2.5078,-0.64191,-2.2201,2.0726,4.2928,-1.4309,-0.53437,5.7237,-3.29e-10,-0.26718,0,0,0.33333,-1.579e-15,0,0.66667
0.061478,0.8206,0.18443,0.4809,5.5838,25.797,-0.23652,0.078839,-1.1779,-0.31536,-4.2179e-09,-0.58893,0,0,0.33333,-0,-0,0.66667
0.31055,0.99724,0.93164,0.74587,8.0825,16.34,-1.853,0.61767,-0.022741,-2.4707,-4.6285e-13,-0.01137,0,0,0.33333,5.9212e-16,0,0.66667
0.74228,0.9939,2.2268,0.74086,3.9815,3.8242,-4.3994,1.4665,-0.048297,-5.8658,-2.7476e-12,-0.024149,0,0,0.33333,-0,-0,0.66667
0.26043,0.072377,0.78128,-0.64143,-7.0747,18.123,1.3364,-0.44546,-0.53661,1.7818,1.9091e-11,-0.2683,0,0,0.33333,-0,-0,0.66667
0.91053,0.052706,2.7316,-0.67094,-1.2981,1.2063,4.8873,-1.6291,-0.399,6.5164,-3.6104e-08,-0.1995,0,0,0.33333,-0,-0,0.66667
0.24225,0.72889,0.72675,0.34334,3.72,18.708,-0.66539,0.2218,-1.5803,-0.88718,-1.4171e-10,-0.79013,0,0,0.33333,-0,-0,0.66667
0.78725,0.76106,2.3617,0.39159,1.6207,2.5791,-2.4662,0.82208,-1.4541,-3.2883,2.5321e-10,-0.72707,0,0,0.33333,-0,-0,0.66667
0.39894,0.64504,1.1968,0.21756,2.079,12.98,-0.69434,0.23145,-1.831,-0.92579,-2.4998e-12,-0.91552,0,0,0.33333,-3.9475e-16,0,0.66667
0.88796,0.10982,2.6639,-0.58527,-1.3521,1.3168,4.1576,-1.3859,-0.78157,5.5435,-2.4503e-09,-0.39079,0,0,0.33333,-0,-0,0.66667
0.28813,0.41267,0.86439,-0.131,-1.3674,16.946,0.30195,-0.10065,-1.9388,0.4026,3.1799e-11,-0.96939,0,0,0.33333,-7.8949e-16,0,0.66667
0.57639,0.28541,1.7292,-0.32189,-2.4262,7.4277,1.4843,-0.49476,-1.6321,1.979,-4.3632e-14,-0.81607,0,0,0.33333,1.579e-15,0,0.66667
0.015374,0.97498,0.046121,0.71246,8.507,27.642,-0.087632,0.029209,-0.19567,-0.11684,-2.6701e-06,-0.097834,0,0,0.33333,4.9343e-17,0,0.66667
0.80519,0.4797,2.4156,-0.030446,-0.11076,2.1065,0.19612,-0.065372,-1.996,0.26149,-3.6153e-11,-0.99802,0,0,0.33333,1.579e-15,0,0.66667
0.033564,0.84901,0.10069,0.52351,6.1185,26.912,-0.14057,0.046857,-1.0258,-0.18743,4.407e-08,-0.51292,0,0,0.33333,-0,-0,0.66667
0.64091,0.62328,1.9227,0.18493,1.2063,5.6418,-0.94817,0.31606,-1.8796,-1.2642,9.0388e-12,-0.93981,0,0,0.33333,9.8686e-16,0,0.66667
0.56365,0.89242,1.6909,0.58864,4.6877,7.9724,-2.6543,0.88476,-0.76777,-3.539,-8.8418e-13,-0.38388,0,0,0.33333,-7.8949e-16,0,0.66667
0.92841,0.097254,2.7852,-0.60412,-0.87704,0.93611,4.487,-1.4957,-0.7026,5.9826,-1.2425e-07,-0.3513,0,0,0.33333,-0,-0,0.66667
0.91911,0.48623,2.7573,-0.020661,-0.026442,0.57347,0.15192,-0.05064,-1.998,0.20256,-1.1741e-08,-0.999,0,0,0.33333,4.9053e-16,0,0.66667
0.24888,0.1898,0.74664,-0.4653,-5.0708,18.489,0.92642,-0.30881,-1.2312,1.2352,1.2822e-10,-0.61559,0,0,0.33333,-0,-0,0.66667
0.26552,0.39479,0.79655,-0.15782,-1.6723,17.796,0.33523,-0.11174,-1.9115,0.44697,5.2874e-11,-0.95573,0,0,0.33333,3.9475e-16,0,0.66667
0.65743,0.069376,1.9723,-0.64594,-4.3038,5.5641,3.3972,-1.1324,-0.51676,4.5297,-1.2768e-13,-0.25838,0,0,0.33333,-0,-0,0.66667
0.28227,0.29315,0.84681,-0.31028,-3.2767,17.195,0.70066,-0.23355,-1.6575,0.93421,6.4772e-11,-0.82876,0,0,0.33333,-0,-0,0.66667
0.17582,0.39995,0.52747,-0.15008,-1.6612,21.244,0.2111,-0.070367,-1.9199,0.28147,1.2524e-10,-0.95994,0,0,0.33333,2.9606e-16,0,0.66667
0.17263,0.92572,0.51789,0.63858,7.3321,21.457,-0.8819,0.29397,-0.55,-1.1759,-4.1233e-10,-0.275,0,0,0.33333,1.9737e-16,0,0.66667
0.027872,0.40841,0.083616,-0.13738,-1.5698,27.129,0.030632,-0.01021,-1.9336,0.040843,6.948e-07,-0.96679,0,0,0.33333,-0,-0,0.66667
0.46709,0.0049423,1.4013,-0.74259,-6.9584,11.016,2.7748,-0.92494,-0.039782,3.6998,8.0158e-14,-0.019891,0,0,0.33333,-0,-0,0.66667
0.48856,0.11444,1.4657,-0.57834,-5.1467,10.203,2.2604,-0.75348,-0.81029,3.0139,-1.4611e-13,-0.40514,0,0,0.33333,-0,-0,0.66667
0.42371,0.52207,1.2711,0.033105,0.30667,12.109,-0.11222,0.037405,-1.996,-0.14962,-1.7995e-13,-0.998,0,0,0.33333,-0,-0,0.66667
0.98837,0.83094,2.9651,0.49641,-0.024913,0.37904,-3.9251,1.3084,-1.1232,-5.2335,-3.0609e-08,-0.56161,0,0,0.33333,-0,-0,0.66667
0.64354,0.43627,1.9306,-0.095602,-0.61725,5.5537,0.49219,-0.16406,-1.9684,0.65625,-5.8988e-12,-0.98421,0,0,0.33333,-9.8686e-17,0,0.66667
0.56225,0.96832,1.6868,0.70247,5.7145,8.1222,-3.1597,1.0532,-0.24693,-4.213,-1.612e-13,-0.12346,0,0,0.33333,9.6219e-16,-2.1622e-17,0.66667
0.086457,0.071829,0.25937,-0.64226,-7.5496,24.825,0.44422,-0.14807,-0.53282,0.59229,5.5771e-08,-0.26641,0,0,0.33333,-0,-0,0.66667
0.45235,0.17326,1.3571,-0.49011,-4.514,11.298,1.7736,-0.5912,-1.1457,2.3648,-9.6545e-13,-0.57287,0,0,0.33333,7.8949e-16,-8.193e-17,0.66667
0.069724,0.16381,0.20917,-0.50429,-5.8609,25.471,0.28129,-0.093762,-1.0954,0.37505,1.8854e-08,-0.54772,0,0,0.33333,-0,-0,0.66667
0.48716,0.80888,1.4615,0.46332,4.0732,10.169,-1.8057,0.60189,-1.2372,-2.4076,2.6024e-13,-0.61862,0,0,0.33333,-1.9737e-16,0,0.66667
0.01559,0.68949,0.046771,0.28424,3.2681,27.624,-0.035451,0.011817,-1.7139,-0.047269,3.9572e-08,-0.85697,0,0,0.33333,-4.9343e-17,0,0.66667
0.14153,0.99532,0.42458,0.74299,8.7292,22.692,-0.84122,0.28041,-0.037825,-1.1216,2.8116e-09,-0.018913,0,0,0.33333,2.9606e-16,0,0.66667
0.61893,0.79952,1.8568,0.44927,3.158,6.3498,-2.2245,0.74152,-1.2816,-2.9661,1.5059e-12,-0.6408,0,0,0.33333,-0,-0,0.66667
0.67615,0.453,2.0285,-0.070506,-0.4185,4.7489,0.38138,-0.12713,-1.9817,0.50851,-9.2708e-12,-0.99083,0,0,0.33333,-0,-0,0.66667
0.60372,0.039058,1.8112,-0.69141,-5.2123,6.9755,3.3394,-1.1131,-0.29993,4.4525,3.0287e-13,-0.14996,0,0,0.33333,-0,-0,0.66667
0.25097,0.0015909,0.75292,-0.74761,-8.4035,18.525,1.5011,-0.50035,-0.013833,2.0014,2.7361e-12,-0.0069166,0,0,0.33333,1.579e-15,0,0.66667
0.066186,0.65806,0.19856,0.23709,2.7082,25.594,-0.12554,0.041846,-1.8009,-0.16738,6.8471e-09,-0.90043,0,0,0.33333,1.9737e-16,0,0.66667
0.67727,0.69347,2.0318,0.29021,1.7411,4.7937,-1.5724,0.52414,-1.7005,-2.0966,2.6473e-11,-0.85023,0,0,0.33333,-1.579e-15,0,0.66667
0.76834,0.83041,2.305,0.49562,2.2735,3.019,-3.0464,1.0155,-1.1262,-4.0619,1.8055e-10,-0.56308,0,0,0.33333,-0,-0,0.66667
0.11928,0.61932,0.35783,0.17898,2.0187,23.475,-0.17078,0.056926,-1.886,-0.22771,3.8832e-09,-0.94302,0,0,0.33333,9.8686e-17,0,0.66667
0.73956,0.43683,2.2187,-0.094753,-0.46074,3.3455,0.5606,-0.18687,-1.9689,0.74747,-3.7965e-11,-0.98446,0,0,0.33333,-2.0177e-15,0,0.66667
0.77319,0.22674,2.3196,-0.40989,-1.8105,2.8491,2.5354,-0.84514,-1.4022,3.3805,-2.1157e-10,-0.70111,0,0,0.33333,-0,-0,0.66667
0.10997,0.99691,0.32992,0.74537,8.8309,23.921,-0.65576,0.21859,-0.025525,-0.87435,2.5829e-08,-0.012763,0,0,0.33333,-4.9343e-17,0,0.66667
0.48647,0.34491,1.4594,-0.23263,-2.0083,10.086,0.90535,-0.30178,-1.8086,1.2071,-1.803e-13,-0.90431,0,0,0.33333,-0,-0,0.66667
0.005725,0.5176,0.017175,0.026396,0.30137,28.02,-0.0012089,0.00041076,-1.9968,-0.001608,1.1689e-05,-0.9984,0,0,0.33333,-0,-0,0.66667
0.62591,0.6763,1.8777,0.26446,1.7951,6.0579,-1.3242,0.4414,-1.7512,-1.7656,6.2532e-12,-0.87561,0,0,0.33333,7.8949e-16,0,0.66667
0.85898,0.92844,2.577,0.64266,1.922,1.7546,-4.4163,1.4721,-0.53168,-5.8883,6.6157e-10,-0.26584,0,0,0.33333,-7.8949e-16,3.2512e-16,0.66667
0.86017,0.92623,2.5805,0.63934,1.8936,1.7341,-4.3996,1.4665,-0.54654,-5.8661,7.9171e-10,-0.27327,0,0,0.33333,-0,-0,0.66667
0.93728,0.49991,2.8118,-0.00014202,-0.00012408,0.40524,0.0010649,-0.00035436,-2.0016,0.0014201,8.9819e-07,-1.0008,0,0,0.33333,1.8504e-16,0,0.66667
0.78384,0.16209,2.3515,-0.50686,-2.1847,2.7481,3.1784,-1.0595,-1.0867,4.2379,-2.4697e-10,-0.54336,0,0,0.33333,-1.579e-15,0,0.66667
0.43204,0.63106,1.2961,0.19659,1.8119,11.85,-0.67947,0.22649,-1.8625,-0.90595,-3.349e-13,-0.93124,0,0,0.33333,-0,-0,0.66667
0.77402,0.82197,2.3221,0.48296,2.1585,2.9011,-2.9906,0.99686,-1.1701,-3.9874,2.119e-10,-0.58506,0,0,0.33333,-0,-0,0.66667
0.98356,0.79208,2.9507,0.43813,0.0031329,0.3313,-3.4474,1.1491,-1.3174,-4.5965,2.0846e-08,-0.65871,0,0,0.33333,-0,-0,0.66667
0.36725,0.30389,1.1018,-0.29416,-2.9086,14.105,0.86425,-0.28808,-1.6919,1.1523,7.8327e-12,-0.84593,0,0,0.33333,3.9475e-16,0,0.66667
0.035895,0.38261,0.10768,-0.17608,-2.0132,26.807,0.050563,-0.016854,-1.8895,0.067417,-3.5818e-08,-0.94476,0,0,0.33333,-0,-0,0.66667
0.50774,0.93897,1.5232,0.65846,5.7764,9.6777,-2.6746,0.89153,-0.45903,-3.5661,-1.1902e-13,-0.22951,0,0,0.33333,-1.579e-15,0,0.66667
0.3525,0.28517,1.0575,-0.32224,-3.2331,14.636,0.90871,-0.3029,-1.631,1.2116,1.182e-11,-0.81548,0,0,0.33333,-0,-0,0.66667
0.17606,0.8255,0.52819,0.48825,5.5133,21.285,-0.6877,0.22923,-1.1518,-0.91693,-6.5114e-10,-0.5759,0,0,0.33333,-0,-0,0.66667
0.9343,0.093621,2.8029,-0.60957,-0.80887,0.89408,4.5562,-1.5187,-0.67997,6.0749,1.2548e-08,-0.33999,0,0,0.33333,6.7109e-16,-3.9799e-16,0.66667
0.11962,0.29154,0.35885,-0.31269,-3.5479,23.472,0.29923,-0.099744,-1.6518,0.39897,-5.7429e-10,-0.8259,0,0,0.33333,-0,-0,0.66667
0.65426,0.067241,1.9628,-0.64914,-4.3602,5.6443,3.3976,-1.1325,-0.50218,4.5302,1.4189e-13,-0.25109,0,0,0.33333,-1.579e-15,0,0.66667
0.16873,0.39863,0.50619,-0.15206,-1.6877,21.521,0.20526,-0.068419,-1.9177,0.27368,-2.5145e-10,-0.95884,0,0,0.33333,-2.9606e-16,0,0.66667
0.79644,0.5388,2.3893,0.058205,0.22166,2.2593,-0.37085,0.12362,-1.9882,-0.49447,9.3559e-12,-0.99412,0,0,0.33333,-0,-0,0.66667
0.25811,0.11011,0.77432,-0.58483,-6.4167,18.185,1.2076,-0.40253,-0.78311,1.6101,4.8464e-11,-0.39155,0,0,0.33333,-3.9475e-16,0,0.66667
0.69801,0.40249,2.094,-0.14627,-0.81796,4.2561,0.81676,-0.27225,-1.9242,1.089,-2.7441e-11,-0.9621,0,0,0.33333,-1.1842e-15,0,0.66667
0.62789,0.78602,1.8837,0.42902,2.9502,6.1019,-2.155,0.71835,-1.3459,-2.8734,3.3962e-12,-0.67293,0,0,0.33333,-1.579e-15,0,0.66667
0.7158,0.76846,2.1474,0.40269,2.1892,3.9949,-2.306,0.76866,-1.4229,-3.0746,6.0451e-11,-0.71147,0,0,0.33333,7.8949e-16,0,0.66667
0.25083,0.34714,0.75249,-0.22928,-2.4571,18.361,0.46009,-0.15336,-1.8139,0.61346,9.1242e-11,-0.90695,0,0,0.33333,-0,-0,0.66667
0.50402,0.10931,1.5121,-0.58603,-5.1128,9.7303,2.363,-0.78767,-0.77825,3.1507,-1.2657e-14,-0.38913,0,0,0.33333,7.8949e-16,0,0.66667
0.34213,0.071777,1.0264,-0.64233,-6.7059,15.148,1.7581,-0.58604,-0.53293,2.3442,1.974e-13,-0.26647,0,0,0.33333,-0,3.2959e-16,0.66667
0.1803,0.45204,0.5409,-0.071934,-0.79357,21.065,0.10376,-0.034586,-1.9808,0.13834,9.1118e-11,-0.9904,0,0,0.33333,3.9475e-16,0,0.66667
0.47551,0.66229,1.4265,0.24344,2.1337,10.439,-0.92606,0.30869,-1.7891,-1.2348,2.2532e-13,-0.89456,0,0,0.33333,-0,-0,0.66667
0.91212,0.0070378,2.7364,-0.73944,-1.4789,1.3083,5.3957,-1.7986,-0.055654,7.1943,-1.441e-07,-0.027827,0,0,0.33333,-0,-0,0.66667
0.56794,0.72272,1.7038,0.33408,2.5596,7.6732,-1.5179,0.50597,-1.6034,-2.0239,-3.3507e-13,-0.80169,0,0,0.33333,-1.579e-15,0,0.66667
0.63089,0.86916,1.8927,0.55374,3.8531,6.1279,-2.7948,0.93159,-0.90968,-3.7264,1.5343e-13,-0.45484,0,0,0.33333,3.9475e-16,0,0.66667
0.54925,0.27158,1.6477,-0.34263,-2.7131,8.217,1.5055,-0.50184,-1.5824,2.0074,5.9919e-13,-0.79119,0,0,0.33333,7.8949e-16,0,0.66667
0.04503,0.67377,0.13509,0.26065,2.9878,26.443,-0.093898,0.031299,-1.7581,-0.1252,9.9837e-10,-0.87904,0,0,0.33333,4.9343e-17,0,0.66667
0.86867,0.98423,2.606,0.72634,2.1128,1.763,-5.0476,1.6825,-0.1234,-6.7301,-2.1934e-09,-0.061699,0,0,0.33333,2.0574e-15,0,0.66667
0.12479,0.15424,0.37438,-0.51864,-5.9689,23.295,0.51778,-0.17259,-1.0448,0.69037,-1.0021e-09,-0.52239,0,0,0.33333,-2.7139e-16,4.4059e-16,0.66667
0.73641,0.81132,2.2092,0.46697,2.398,3.6159,-2.7511,0.91702,-1.2257,-3.6681,8.6298e-11,-0.61285,0,0,0.33333,4.9343e-16,0,0.66667
0.45176,0.65296,1.3553,0.22943,2.07,11.205,-0.82919,0.2764,-1.8136,-1.1056,8.199e-14,-0.90679,0,0,0.33333,9.8686e-16,0,0.66667
0.71027,0.3137,2.1308,-0.27946,-1.5213,4.0353,1.5879,-0.52931,-1.723,2.1172,-5.3918e-11,-0.86149,0,0,0.33333,-0,-0,0.66667
0.86113,0.44997,2.5834,-0.075042,-0.18941,1.2588,0.51696,-0.17232,-1.9797,0.68928,-1.1299e-09,-0.98984,0,0,0.33333,-1.579e-15,0,0.66667
0.69657,0.46552,2.0897,-0.051721,-0.28947,4.2713,0.28822,-0.096073,-1.9908,0.38429,-1.0187e-11,-0.99538,0,0,0.33333,-1.9737e-16,0,0.66667
0.8539,0.69472,2.5617,0.29208,0.80478,1.449,-1.9953,0.66509,-1.6964,-2.6604,-2.8062e-10,-0.84821,0,0,0.33333,-0,-0,0.66667
0.48707,0.91018,1.4612,0.61527,5.5143,10.278,-2.3974,0.79915,-0.65447,-3.1966,1.521e-13,-0.32724,0,0,0.33333,-0,-0,0.66667
0.091798,0.17658,0.27539,-0.48514,-5.608,24.593,0.35627,-0.11876,-1.1629,0.47503,1.6818e-09,-0.58146,0,0,0.33333,-0,-0,0.66667
0.37859,0.86533,1.1358,0.54799,5.4843,13.814,-1.6597,0.55323,-0.93195,-2.2129,2.9388e-13,-0.46597,0,0,0.33333,-0,-0,0.66667
0.19142,0.84459,0.57425,0.51689,5.8171,20.698,-0.79153,0.26384,-1.0509,-1.0554,-4.9366e-10,-0.52547,0,0,0.33333,-7.8949e-16,0,0.66667
0.76352,0.74686,2.2905,0.3703,1.6898,2.9992,-2.2618,0.75394,-1.5131,-3.0157,1.6456e-10,-0.75657,0,0,0.33333,-1.7764e-15,0,0.66667
0.69537,0.86598,2.0861,0.54896,3.2535,4.5756,-3.0539,1.018,-0.92799,-4.0718,1.574e-11,-0.46399,0,0,0.33333,-0,-0,0.66667
0.57953,0.73197,1.7386,0.34795,2.6138,7.3531,-1.6132,0.53773,-1.5692,-2.1509,-1.168e-13,-0.78462,0,0,0.33333,-0,-0,0.66667
0.76884,0.2495,2.3065,-0.37575,-1.6795,2.9026,2.3112,-0.77038,-1.499,3.0815,-1.8223e-10,-0.74952,0,0,0.33333,5.4278e-16,0,0.66667
0.36936,0.33561,1.1081,-0.24659,-2.427,14.018,0.72864,-0.24288,-1.7834,0.97152,7.4186e-12,-0.89172,0,0,0.33333,-0,-0,0.66667
0.36918,0.26958,1.1075,-0.34564,-3.4235,14.053,1.0208,-0.34027,-1.5746,1.3611,6.351e-12,-0.78729,0,0,0.33333,-0,-0,0.66667
0.70021,0.80624,2.1006,0.45936,2.6422,4.3833,-2.5732,0.85772,-1.2498,-3.4309,3.4322e-11,-0.62492,0,0,0.33333,1.1842e-15,0,0.66667
0.4523,0.48638,1.3569,-0.020432,-0.18312,11.155,0.073933,-0.024644,-1.9983,0.098578,-3.169e-14,-0.99916,0,0,0.33333,7.8949e-16,0,0.66667
0.81192,0.41743,2.4357,-0.12386,-0.43625,2.0096,0.80452,-0.26817,-1.9454,1.0727,-1.4795e-10,-0.9727,0,0,0.33333,-0,-0,0.66667
0.15461,0.13783,0.46383,-0.54326,-6.2126,22.132,0.67195,-0.22398,-0.95036,0.89593,1.5268e-09,-0.47518,0,0,0.33333,-0,-1.3715e-16,0.66667
0.58986,0.062843,1.7696,-0.65574,-5.0409,7.3092,3.0943,-1.0314,-0.47216,4.1258,6.7302e-13,-0.23608,0,0,0.33333,-1.579e-15,0,0.66667
0.37357,0.91616,1.1207,0.62424,6.3336,14.034,-1.8656,0.62186,-0.6144,-2.4874,6.0785e-13,-0.3072,0,0,0.33333,-0,-3.4192e-16,0.66667
0.24708,0.90333,0.74124,0.605,6.6935,18.607,-1.1959,0.39862,-0.69919,-1.5945,-5.0058e-11,-0.3496,0,0,0.33333,-9.8686e-17,0,0.66667
0.25433,0.54885,0.76299,0.073281,0.78016,18.212,-0.1491,0.0497,-1.9803,-0.1988,-2.9623e-11,-0.99013,0,0,0.33333,-0,-0,0.66667
0.74375,0.974,2.2312,0.711,3.7704,3.7524,-4.2304,1.4101,-0.20257,-5.6406,2.498e-12,-0.10129,0,0,0.33333,-1.579e-15,0,0.66667
0.32886,0.76158,0.98659,0.39237,4.0329,15.508,-1.0323,0.34409,-1.4525,-1.3764,-1.9771e-11,-0.72626,0,0,0.33333,-0,-0,0.66667
0.22792,0.93173,0.68375,0.6476,7.2714,19.346,-1.1808,0.39359,-0.50875,-1.5744,-4.5178e-11,-0.25437,0,0,0.33333,-6.242e-17,0,0.66667
0.90536,0.10871,2.7161,-0.58694,-1.1374,1.1304,4.2511,-1.417,-0.77488,5.6682,-9.4226e-09,-0.38744,0,0,0.33333,-0,-0,0.66667
0.41629,0.82019,1.2489,0.48029,4.5993,12.488,-1.5995,0.53317,-1.1795,-2.1327,9.3348e-13,-0.58975,0,0,0.33333,-0,-0,0.66667
0.5344,0.68411,1.6032,0.27616,2.2283,8.6262,-1.1806,0.39355,-1.7293,-1.5742,-4.8384e-13,-0.86466,0,0,0.33333,1.9737e-16,0,0.66667
0.37206,0.68099,1.1162,0.27149,2.6693,13.929,-0.80808,0.26936,-1.738,-1.0774,-6.755e-12,-0.86899,0,0,0.33333,-0,-0,0.66667
0.23386,0.78922,0.70157,0.43383,4.7528,19.049,-0.81162,0.27054,-1.3311,-1.0822,-1.8602e-10,-0.66553,0,0,0.33333,-0,-0,0.66667
0.10234,0.046824,0.30703,-0.67976,-8.0009,24.207,0.55656,-0.18552,-0.35624,0.74207,8.4471e-09,-0.17812,0,0,0.33333,-0,-0,0.66667
0.055182,0.11138,0.16555,-0.58293,-6.8392,26.056,0.25734,-0.085779,-0.79103,0.34312,-6.8291e-08,-0.39551,0,0,0.33333,-0,-0,0.66667
0.87287,0.84851,2.6186,0.52276,1.3368,1.4155,-3.6504,1.2168,-1.0287,-4.8672,8.81e-10,-0.51437,0,0,0.33333,-0,-0,0.66667
0.17297,0.49719,0.51891,-0.0042215,-0.046676,21.35,0.0058415,-0.0019472,-2.0008,0.0077887,6.0862e-10,-1.0004,0,0,0.33333,-2.4672e-16,0,0.66667
0.53895,0.14865,1.6169,-0.52702,-4.3316,8.6354,2.2723,-0.75744,-1.0121,3.0298,7.4762e-13,-0.50603,0,0,0.33333,3.9475e-16,0,0.66667
0.97872,0.76989,2.9362,0.40483,0.037172,0.32047,-3.1697,1.0566,-1.4167,-4.2263,-4.8712e-09,-0.70833,0,0,0.33333,-0,-0,0.66667
0.16733,0.61453,0.50199,0.1718,1.9089,21.578,-0.22998,0.076659,-1.8946,-0.30664,-2.2661e-10,-0.94728,0,0,0.33333,-0,-0,0.66667
0.59576,0.51283,1.7873,0.019248,0.13777,6.8083,-0.091738,0.030579,-1.9983,-0.12232,3.8134e-13,-0.99916,0,0,0.33333,-3.158e-15,0,0.66667
0.75137,0.4879,2.2541,-0.018156,-0.084283,3.0981,0.10913,-0.036377,-1.9986,0.14551,-2.8547e-12,-0.9993,0,0,0.33333,-1.579e-15,0,0.66667
0.079887,0.045654,0.23966,-0.68152,-8.0567,25.09,0.43556,-0.14519,-0.3482,0.58074,4.8998e-09,-0.1741,0,0,0.33333,-0,-0,0.66667
0.45273,0.53329,1.3582,0.049934,0.44739,11.143,-0.18085,0.060284,-1.9923,-0.24114,1.6279e-14,-0.99614,0,0,0.33333,-1.579e-15,0,0.66667
0.79183,0.43959,2.3755,-0.090617,-0.35353,2.3452,0.57402,-0.19134,-1.9714,0.76537,-5.329e-11,-0.98568,0,0,0.33333,-0,-0,0.66667
0.72178,0.43784,2.1653,-0.093233,-0.4824,3.719,0.53835,-0.17945,-1.9702,0.7178,-2.6337e-11,-0.98509,0,0,0.33333,-0,-0,0.66667
0.67856,0.73304,2.0357,0.34957,2.1037,4.7977,-1.8976,0.63254,-1.5647,-2.5302,2.6322e-11,-0.78237,0,0,0.33333,-0,-0,0.66667
0.76669,0.72132,2.3001,0.33197,1.4863,2.9114,-2.0362,0.67872,-1.6091,-2.7149,1.5554e-10,-0.80454,0,0,0.33333,3.158e-15,0,0.66667
0.5821,0.8082,1.7463,0.4623,3.5007,7.3531,-2.1529,0.71762,-1.2403,-2.8705,-9.7278e-13,-0.62017,0,0,0.33333,1.9737e-16,0,0.66667
0.3749,0.9999,1.1247,0.74985,7.7334,14.074,-2.2489,0.74964,-0.0023858,-2.9986,1.0214e-14,-0.0011929,0,0,0.33333,-2.4884e-15,5.0318e-18,0.66667
0.44709,0.66049,1.3413,0.24073,2.1854,11.361,-0.86105,0.28702,-1.7941,-1.1481,1.8469e-13,-0.89704,0,0,0.33333,-0,-0,0.66667
0.28043,0.33445,0.84128,-0.24833,-2.6166,17.251,0.5571,-0.1857,-1.7808,0.74279,6.016e-11,-0.8904,0,0,0.33333,-0,-0,0.66667
0.33926,0.57442,1.0178,0.11163,1.1218,15.069,-0.30298,0.10099,-1.9551,-0.40398,-1.0107e-11,-0.97755,0,0,0.33333,-0,-0,0.66667
0.88017,0.72153,2.6405,0.3323,0.74264,1.1352,-2.3398,0.77994,-1.6078,-3.1197,6.1201e-10,-0.80391,0,0,0.33333,-0,-0,0.66667
0.53635,0.94941,1.609,0.67411,5.6867,8.8384,-2.8925,0.96416,-0.38362,-3.8566,-2.6867e-13,-0.19181,0,0,0.33333,7.8949e-16,0,0.66667
0.073744,0.57596,0.22123,0.11395,1.295,25.288,-0.067223,0.022408,-1.9532,-0.089631,-5.1758e-08,-0.9766,0,0,0.33333,-0,-0,0.66667
0.67227,0.53905,2.0168,0.058574,0.35126,4.8402,-0.31502,0.10501,-1.9881,-0.42002,7.0805e-12,-0.99404,0,0,0.33333,-0,-0,0.66667
0.72976,0.45935,2.1893,-0.060976,-0.30671,3.5445,0.35598,-0.11866,-1.9864,0.47464,-2.0355e-11,-0.99318,0,0,0.33333,-7.8949e-16,0,0.66667
0.39561,0.54769,1.1868,0.071529,0.68267,13.072,-0.22638,0.07546,-1.9811,-0.30184,-1.4935e-12,-0.99055,0,0,0.33333,-0,-0,0.66667
0.34753,0.54108,1.0426,0.061626,0.61448,14.767,-0.17134,0.057112,-1.9861,-0.22845,-5.0303e-12,-0.99306,0,0,0.33333,-0,-0,0.66667
0.10753,0.50883,0.3226,0.013243,0.14936,23.937,-0.011393,0.0037976,-1.9993,-0.01519,-3.8135e-08,-0.99966,0,0,0.33333,-0,-0,0.66667
0.54663,0.89977,1.6399,0.59965,4.9195,8.4703,-2.6223,0.8741,-0.72193,-3.4964,-6.9078e-13,-0.36097,0,0,0.33333,3.9475e-16,-2.5954e-16,0.66667
0.26282,0.012239,0.78847,-0.73164,-8.1526,18.077,1.5383,-0.51278,-0.096283,2.0511,-9.126e-13,-0.048142,0,0,0.33333,-7.8949e-16,-3.7621e-16,0.66667
0.91802,0.83585,2.7541,0.50377,0.78931,0.89442,-3.6997,1.2332,-1.0975,-4.933,-6.8903e-09,-0.54873,0,0,0.33333,7.8949e-16,0,0.66667
0.85065,0.4232,2.5519,-0.1152,-0.31649,1.4129,0.78397,-0.26132,-1.952,1.0453,2.7255e-10,-0.97601,0,0,0.33333,-1.579e-15,0,0.66667
0.65361,0.49038,1.9608,-0.014427,-0.090745,5.2931,0.075435,-0.025145,-1.999,0.10058,-1.2029e-12,-0.99951,0,0,0.33333,-7.8949e-16,0,0.66667
0.87584,0.21553,2.6275,-0.42671,-1.0243,1.2723,2.9898,-0.99661,-1.3534,3.9864,4.953e-10,-0.67672,0,0,0.33333,2.3685e-15,0,0.66667
0.96891,0.19836,2.9067,-0.45247,-0.16449,0.43104,3.5072,-1.1691,-1.2721,4.6763,4.126e-09,-0.63607,0,0,0.33333,1.579e-15,0,0.66667
0.59079,0.73037,1.7724,0.34556,2.5406,7.0393,-1.6332,0.54441,-1.575,-2.1776,5.9952e-13,-0.7875,0,0,0.33333,-0,-0,0.66667
0.98013,0.033586,2.9404,-0.69962,-0.27731,0.73822,5.4858,-1.8286,-0.26023,7.3144,9.6629e-07,-0.13012,0,0,0.33333,-0,-0,0.66667
0.54926,0.30971,1.6478,-0.28544,-2.2495,8.1903,1.2543,-0.41808,-1.711,1.6723,4.0257e-13,-0.8555,0,0,0.33333,1.1842e-15,0,0.66667
0.2936,0.073799,0.88079,-0.6393,-6.9084,16.896,1.5016,-0.50052,-0.54639,2.0021,6.1667e-12,-0.27319,0,0,0.33333,7.8949e-16,1.6089e-16,0.66667
0.49124,0.8718,1.4737,0.55769,4.9319,10.104,-2.1917,0.73056,-0.89442,-2.9222,1.4388e-13,-0.44721,0,0,0.33333,-1.9737e-16,0,0.66667
0.40509,0.61358,1.2153,0.17038,1.6148,12.759,-0.55214,0.18405,-1.8966,-0.73619,-1.8617e-12,-0.94831,0,0,0.33333,-0,-0,0.66667
0.59978,0.57004,1.7993,0.10506,0.74714,6.7069,-0.50412,0.16804,-1.9604,-0.67215,1.6691e-12,-0.98022,0,0,0.33333,-1.579e-15,0,0.66667
0.4807,0.31034,1.4421,-0.28449,-2.483,10.287,1.094,-0.36468,-1.7129,1.4587,-1.4333e-13,-0.85644,0,0,0.33333,1.9737e-16,0,0.66667
0.2867,0.94749,0.86011,0.67124,7.3148,17.165,-1.5396,0.51319,-0.3975,-2.0527,-3.8997e-12,-0.19875,0,0,0.33333,-0,-0,0.66667
0.62519,0.16494,1.8756,-0.50259,-3.5122,6.2291,2.5137,-0.83789,-1.1021,3.3516,-8.6375e-13,-0.55106,0,0,0.33333,-0,-0,0.66667
0.8054,0.1257,2.4162,-0.56145,-2.2231,2.4404,3.6175,-1.2058,-0.87995,4.8234,-3.5582e-10,-0.43998,0,0,0.33333,-0,-0,0.66667
0.078748,0.48361,0.23624,-0.024585,-0.27886,25.086,0.015488,-0.0051626,-1.9977,0.020651,3.1506e-08,-0.99883,0,0,0.33333,-9.8686e-17,0,0.66667
0.42362,0.43576,1.2709,-0.096361,-0.89354,12.117,0.32657,-0.10886,-1.968,0.43542,5.4609e-13,-0.98398,0,0,0.33333,-9.8686e-17,0,0.66667
0.645,0.31715,1.935,-0.27427,-1.7834,5.5734,1.4153,-0.47175,-1.7327,1.887,-1.1371e-11,-0.86635,0,0,0.33333,-0,-0,0.66667
0.0072838,0.8853,0.021852,0.57796,6.7982,27.96,-0.033678,0.011226,-0.81171,-0.044904,-8.2621e-08,-0.40586,0,0,0.33333,-0,-0,0.66667
0.87569,0.96509,2.6271,0.69764,1.8972,1.6298,-4.8873,1.6291,-0.2703,-6.5164,-5.6243e-09,-0.13515,0,0,0.33333,2.3685e-15,0,0.66667
0.69402,0.26173,2.0821,-0.3574,-2.0619,4.4453,1.9844,-0.66146,-1.5451,2.6458,-3.8356e-11,-0.77257,0,0,0.33333,1.579e-15,0,0.66667
0.74977,0.22196,2.2493,-0.41706,-2.0233,3.3035,2.5016,-0.83387,-1.3825,3.3355,-1.2927e-10,-0.69125,0,0,0.33333,-3.158e-15,0,0.66667
0.5233,0.5541,1.5699,0.081157,0.66042,8.9115,-0.33975,0.11325,-1.9761,-0.453,-8.0491e-14,-0.98807,0,0,0.33333,-7.8949e-16,0,0.66667
0.97547,0.29674,2.9264,-0.30489,-0.028856,0.24666,2.3793,-0.7931,-1.6687,3.1724,9.9787e-09,-0.83434,0,0,0.33333,-0,-0,0.66667
0.15309,0.88948,0.45926,0.58421,6.7123,22.201,-0.71548,0.23849,-0.78592,-0.95397,-1.3371e-09,-0.39296,0,0,0.33333,1.9737e-16,8.4707e-17,0.66667
0.95582,0.484,2.8674,-0.023994,-0.0109,0.25775,0.18347,-0.061159,-1.9975,0.24463,-1.0451e-06,-0.99873,0,0,0.33333,1.579e-15,0,0.66667
0.9956,0.87184,2.9868,0.55776,-0.086623,0.43237,-4.4424,1.4808,-0.8943,-5.9232,9.6636e-08,-0.44715,0,0,0.33333,3.9475e-16,0,0.66667
0.078553,0.7022,0.23566,0.30331,3.4692,25.104,-0.19061,0.063536,-1.6728,-0.25414,1.9291e-09,-0.83638,0,0,0.33333,-0,-0,0.66667
0.33688,0.25567,1.0107,-0.36649,-3.7361,15.21,0.98773,-0.32924,-1.5223,1.317,1.6903e-11,-0.76116,0,0,0.33333,7.8949e-16,0,0.66667
0.99274,0.98649,2.9782,0.72974,0.10394,0.7376,-5.7955,1.9319,-0.10583,-7.7274,7.417e-06,-0.052916,0,0,0.33333,-0,-0,0.66667
0.42676,0.4349,1.2803,-0.097643,-0.90232,12.011,0.33336,-0.11112,-1.9666,0.44448,4.0251e-13,-0.98329,0,0,0.33333,2.9606e-16,0,0.66667
0.82335,0.29932,2.47,-0.30102,-1.0162,1.9075,1.9827,-0.66092,-1.6772,2.6437,-1.4346e-10,-0.83858,0,0,0.33333,-0,-0,0.66667
0.28812,0.71248,0.86435,0.31872,3.3548,16.979,-0.73463,0.24488,-1.6386,-0.97951,-5.7743e-11,-0.81931,0,0,0.33333,-0,-0,0.66667
0.51209,0.28474,1.5363,-0.32289,-2.7051,9.3209,1.3228,-0.44093,-1.6297,1.7637,2.871e-13,-0.81487,0,0,0.33333,-0,-0,0.66667
0.4661,0.86649,1.3983,0.54973,5.0152,10.892,-2.0499,0.68328,-0.92536,-2.7331,6.1395e-13,-0.46268,0,0,0.33333,7.8949e-16,0,0.66667
0.33294,0.43147,0.99883,-0.1028,-1.038,15.297,0.27382,-0.091272,-1.9624,0.36509,1.0852e-11,-0.98118,0,0,0.33333,3.9475e-16,0,0.66667
0.52708,0.20816,1.5812,-0.43776,-3.6254,8.9268,1.8459,-0.6153,-1.3182,2.4612,6.5403e-13,-0.65908,0,0,0.33333,-7.8949e-16,0,0.66667
0.080511,0.20781,0.24153,-0.43828,-5.0569,25.036,0.28229,-0.094097,-1.3167,0.37639,1.5502e-10,-0.65836,0,0,0.33333,9.8686e-17,0,0.66667
0.2212,0.53078,0.66359,0.046176,0.50017,19.477,-0.081711,0.027237,-1.9936,-0.10895,-3.9508e-11,-0.99678,0,0,0.33333,-3.7007e-16,0,0.66667
0.33596,0.6173,1.0079,0.17594,1.776,15.197,-0.47288,0.15763,-1.8896,-0.63051,-1.5582e-11,-0.94478,0,0,0.33333,-5.9212e-16,0,0.66667
0.96887,0.9425,2.9066,0.66376,0.40419,0.73594,-5.1448,1.7149,-0.43421,-6.8597,9.2382e-07,-0.2171,0,0,0.33333,-0,-0,0.66667
0.44075,0.56262,1.3223,0.09393,0.85426,11.542,-0.3312,0.1104,-1.9697,-0.4416,-1.3672e-13,-0.98487,0,0,0.33333,-0,-0,0.66667
0.96131,0.79919,2.8839,0.44878,0.24057,0.47575,-3.4513,1.1504,-1.2831,-4.6018,-1.9974e-08,-0.64156,0,0,0.33333,-0,-0,0.66667
0.57362,0.43295,1.7209,-0.10057,-0.75214,7.4345,0.46152,-0.15384,-1.9642,0.61536,-5.7368e-13,-0.98211,0,0,0.33333,3.9475e-16,0,0.66667
0.046616,0.072969,0.13985,-0.64055,-7.5688,26.4,0.23888,-0.079625,-0.54121,0.3185,-1.7469e-07,-0.27061,0,0,0.33333,-0,-0,0.66667
0.65871,0.64037,1.9761,0.21056,1.3172,5.2055,-1.1096,0.36986,-1.8419,-1.4795,1.5227e-11,-0.92095,0,0,0.33333,-0,-0,0.66667
0.014774,0.088352,0.044321,-0.61747,-7.292,27.663,0.072981,-0.024327,-0.64487,0.097308,4.3391e-07,-0.32243,0,0,0.33333,6.1679e-18,0,0.66667
0.74247,0.058514,2.2274,-0.66223,-3.4809,3.7112,3.9335,-1.3112,-0.44086,5.2446,-1.2451e-11,-0.22043,0,0,0.33333,4.3963e-16,0,0.66667
0.4207,0.057161,1.2621,-0.66426,-6.4767,12.458,2.2357,-0.74522,-0.4316,2.9809,-4.9649e-13,-0.2158,0,0,0.33333,3.9475e-16,2.2368e-16,0.66667
0.53388,0.85369,1.6017,0.53053,4.3972,8.7876,-2.266,0.75532,-0.99896,-3.0213,-7.2164e-13,-0.49948,0,0,0.33333,-0,-0,0.66667
0.78883,0.89574,2.3665,0.59361,2.5615,2.7604,-3.7461,1.2487,-0.74648,-4.9948,1.8074e-10,-0.37324,0,0,0.33333,-0,-0,0.66667
0.9056,0.80456,2.7168,0.45685,0.81862,0.96397,-3.3097,1.1032,-1.2581,-4.413,8.139e-10,-0.62907,0,0,0.33333,-7.8949e-16,0,0.66667
0.98688,0.4475,2.9606,-0.078753,0.02079,0.070095,0.62175,-0.20725,-1.9777,0.829,-9.0356e-08,-0.98885,0,0,0.33333,-0,-0,0.66667
0.80208,0.46438,2.4062,-0.053425,-0.19765,2.1614,0.34281,-0.11427,-1.99,0.45708,5.8937e-11,-0.995,0,0,0.33333,-3.9475e-16,0,0.66667
0.0025426,0.083103,0.0076278,-0.62534,-7.3929,28.149,0.012719,-0.0042388,-0.60927,0.016959,1.3627e-06,-0.30464,0,0,0.33333,-0,-1.7619e-15,0.66667
0.60009,0.70987,1.8003,0.31481,2.2661,6.769,-1.5113,0.50377,-1.6472,-2.0151,1.804e-12,-0.82358,0,0,0.33333,-7.8949e-16,0,0.66667
0.28885,0.91693,0.86654,0.62539,6.7674,17.064,-1.4451,0.48171,-0.60874,-1.9268,-9.9731e-12,-0.30437,0,0,0.33333,7.8949e-16,0,0.66667
0.70972,0.14026,2.1291,-0.53962,-3.0619,4.2493,3.0638,-1.0213,-0.96388,4.0851,-2.7319e-11,-0.48194,0,0,0.33333,1.579e-15,0,0.66667
0.30554,0.87356,0.91663,0.56034,5.9519,16.422,-1.3697,0.45655,-0.88424,-1.8262,-1.3318e-11,-0.44212,0,0,0.33333,4.4409e-16,0,0.66667
0.55587,0.94912,1.6676,0.67368,5.5104,8.2738,-2.9958,0.99861,-0.38563,-3.9944,-2.9599e-13,-0.19282,0,0,0.33333,-0,-0,0.66667
0.91807,0.86761,2.7542,0.55142,0.89208,0.95547,-4.0499,1.35,-0.91873,-5.3999,1.0243e-08,-0.45937,0,0,0.33333,-0,-0,0.66667
0.24787,0.50561,0.74361,0.0084075,0.089783,18.456,-0.016672,0.0055573,-2,-0.022229,6.7801e-12,-1,0,0,0.33333,-0,-0,0.66667
0.11184,0.14628,0.33552,-0.53058,-6.1327,23.807,0.47473,-0.15824,-0.99881,0.63297,5.1286e-09,-0.49941,0,0,0.33333,-9.8686e-17,0,0.66667
0.51354,0.80635,1.5406,0.45953,3.8927,9.3498,-1.8879,0.6293,-1.2494,-2.5172,-4.1345e-13,-0.62469,0,0,0.33333,6.9882e-16,0,0.66667
0.91372,0.69013,2.7411,0.2852,0.42281,0.72611,-2.0848,0.69492,-1.7112,-2.7797,-8.8625e-09,-0.85558,0,0,0.33333,-0,-0,0.66667
0.17924,0.021707,0.53771,-0.71744,-8.2971,21.228,1.0287,-0.34291,-0.16934,1.3717,8.51e-11,-0.084668,0,0,0.33333,-0,-0,0.66667
0.25588,0.41531,0.76764,-0.12704,-1.3527,18.157,0.26005,-0.086685,-1.9421,0.34674,4.9525e-11,-0.97107,0,0,0.33333,-0,-0,0.66667
0.033996,0.77354,0.10199,0.4103,4.7503,26.89,-0.11159,0.037196,-1.4014,-0.14879,-5.4729e-09,-0.70068,0,0,0.33333,-0,-0,0.66667
0.015372,0.36256,0.046115,-0.20617,-2.3622,27.632,0.025353,-0.0084511,-1.8488,0.033804,-1.558e-07,-0.92441,0,0,0.33333,-0,-0,0.66667
0.54222,0.41705,1.6267,-0.12443,-0.98355,8.3498,0.53973,-0.17991,-1.9444,0.71964,5.3346e-14,-0.97221,0,0,0.33333,-0,-0,0.66667
0.85536,0.16426,2.5661,-0.50362,-1.4605,1.6208,3.4462,-1.1487,-1.098,4.5949,-1.2389e-09,-0.54899,0,0,0.33333,-1.579e-15,0,0.66667
0.44652,0.60834,1.3396,0.16251,1.471,11.362,-0.58053,0.19351,-1.9053,-0.77404,-4.7129e-14,-0.95265,0,0,0.33333,-0,-0,0.66667
0.23564,0.36975,0.70691,-0.19538,-2.1081,18.935,0.3683,-0.12277,-1.8647,0.49107,9.5324e-11,-0.93237,0,0,0.33333,1.9737e-16,0,0.66667
0.93653,0.16722,2.8096,-0.49918,-0.57401,0.72282,3.74,-1.2467,-1.1139,4.9866,9.2669e-09,-0.55697,0,0,0.33333,-1.579e-15,0,0.66667
0.61921,0.32406,1.8576,-0.26391,-1.8177,6.2333,1.3073,-0.43577,-1.7517,1.7431,-4.8982e-12,-0.87586,0,0,0.33333,-1.579e-15,0,0.66667
0.86458,0.36069,2.5937,-0.20897,-0.52075,1.2563,1.4453,-0.48178,-1.844,1.9271,-7.1398e-10,-0.92201,0,0,0.33333,-0,-0,0.66667
0.12811,0.42107,0.38434,-0.11839,-1.33,23.121,0.12134,-0.040445,-1.9496,0.16178,1.3628e-09,-0.97481,0,0,0.33333,1.9737e-16,0,0.66667
0.44124,0.88525,1.3237,0.57787,5.4474,11.717,-2.0398,0.67995,-0.81225,-2.7198,9.0994e-13,-0.40613,0,0,0.33333,-7.8949e-16,0,0.66667
0.85755,0.79179,2.5727,0.43768,1.2214,1.5202,-3.0027,1.0009,-1.3187,-4.0036,9.9061e-10,-0.65934,0,0,0.33333,-0,-0,0.66667
0.89819,0.44224,2.6946,-0.086644,-0.15106,0.80213,0.62259,-0.20753,-1.9733,0.83011,-1.6069e-08,-0.98666,0,0,0.33333,-0,-0,0.66667
0.87726,0.8731,2.6318,0.55965,1.4027,1.4081,-3.9277,1.3092,-0.88724,-5.2369,9.8533e-09,-0.44362,0,0,0.33333,-1.9737e-16,0,0.66667
0.62547,0.15694,1.8764,-0.51459,-3.6004,6.2319,2.5749,-0.8583,-1.0599,3.4332,-5.0004e-13,-0.52993,0,0,0.33333,-1.579e-15,0,0.66667
0.75811,0.024344,2.2743,-0.71348,-3.6015,3.4791,4.3272,-1.4424,-0.18973,5.7696,-3.4146e-12,-0.094866,0,0,0.33333,-0,-0,0.66667
0.6755,0.68234,2.0265,0.27351,1.6462,4.8273,-1.4781,0.49269,-1.7342,-1.9708,2.5134e-11,-0.86709,0,0,0.33333,3.9475e-16,0,0.66667
0.84516,0.259,2.5355,-0.3615,-1.0775,1.6238,2.4442,-0.81474,-1.5353,3.259,-2.8557e-10,-0.76767,0,0,0.33333,-0,-0,0.66667
0.63245,0.49056,1.8973,-0.014166,-0.093733,5.8298,0.071675,-0.023892,-1.9987,0.095567,-7.4518e-13,-0.99937,0,0,0.33333,7.8949e-16,0,0.66667
0.17189,0.57356,0.51567,0.11033,1.2219,21.395,-0.15172,0.050574,-1.9568,-0.2023,-1.8525e-10,-0.97839,0,0,0.33333,-0,-0,0.66667
0.65052,0.90597,1.9516,0.60895,4.094,5.6916,-3.1691,1.0564,-0.68241,-4.2254,3.1464e-13,-0.3412,0,0,0.33333,2.4672e-16,0,0.66667
0.45534,0.8052,1.366,0.4578,4.187,11.183,-1.6676,0.55588,-1.2549,-2.2235,9.0328e-13,-0.62744,0,0,0.33333,-0,-0,0.66667
0.058851,0.69431,0.17655,0.29147,3.3411,25.89,-0.13722,0.045741,-1.6979,-0.18296,1.6017e-08,-0.84894,0,0,0.33333,-0,-0,0.66667
0.53586,0.73053,1.6076,0.3458,2.7992,8.6134,-1.4824,0.49414,-1.5742,-1.9766,-7.0155e-13,-0.78712,0,0,0.33333,-0,-0,0.66667
0.43929,0.37989,1.3179,-0.18017,-1.6457,11.605,0.63316,-0.21105,-1.885,0.84422,2.0739e-13,-0.94251,0,0,0.33333,-0,-0,0.66667
0.87473,0.45892,2.6242,-0.061626,-0.13797,1.0782,0.43125,-0.14375,-1.9866,0.57499,-2.7718e-09,-0.9933,0,0,0.33333,-0,-0,0.66667
0.66072,0.46659,1.9822,-0.050122,-0.30978,5.1194,0.26493,-0.088311,-1.9917,0.35324,-4.7618e-12,-0.99583,0,0,0.33333,-1.1842e-15,0,0.66667
0.26079,0.53682,0.78236,0.055233,0.58567,17.967,-0.11523,0.038411,-1.9892,-0.15364,-1.9012e-11,-0.99458,0,0,0.33333,-0,-0,0.66667
0.21677,0.18658,0.6503,-0.47012,-5.2099,19.711,0.81525,-0.27175,-1.2153,1.087,2.8818e-10,-0.60763,0,0,0.33333,4.1942e-16,0,0.66667
0.097323,0.65904,0.29197,0.23855,2.7105,24.351,-0.18573,0.061912,-1.7982,-0.24765,1.5249e-09,-0.89911,0,0,0.33333,-0,-0,0.66667
0.46914,0.55838,1.4074,0.087563,0.76911,10.611,-0.32864,0.10955,-1.9735,-0.43818,-3.8247e-14,-0.98676,0,0,0.33333,3.9475e-16,0,0.66667
0.3498,0.79795,1.0494,0.44692,4.5387,14.777,-1.2507,0.41689,-1.2891,-1.6676,-7.556e-12,-0.64453,0,0,0.33333,-4.1425e-16,0,0.66667
0.57735,0.45172,1.732,-0.07242,-0.53751,7.3251,0.33449,-0.1115,-1.9811,0.44599,-4.9466e-13,-0.99057,0,0,0.33333,-0,-0,0.66667
0.056942,0.55061,0.17083,0.075913,0.86417,25.961,-0.034581,0.011527,-1.9789,-0.046108,-2.7604e-08,-0.98943,0,0,0.33333,-0,-0,0.66667
0.24992,0.80474,0.74975,0.45711,4.9752,18.448,-0.91392,0.30464,-1.2574,-1.2186,-1.2537e-10,-0.6287,0,0,0.33333,1.9737e-16,0,0.66667
0.51229,0.63404,1.5369,0.20106,1.6706,9.2711,-0.824,0.27467,-1.856,-1.0987,-1.8047e-13,-0.928,0,0,0.33333,-0,-0,0.66667
0.37596,0.96171,1.1279,0.69256,7.0766,13.996,-2.083,0.69433,-0.29486,-2.7773,2.0983e-13,-0.14743,0,0,0.33333,-0,-0,0.66667
0.6269,0.60129,1.8807,0.15194,1.0217,5.993,-0.762,0.254,-1.918,-1.016,5.3233e-12,-0.95899,0,0,0.33333,-0,-0,0.66667
0.37322,0.20451,1.1197,-0.44324,-4.4097,13.95,1.3234,-0.44113,-1.3011,1.7645,2.7415e-12,-0.65056,0,0,0.33333,7.8949e-16,0,0.66667
0.46031,0.28821,1.3809,-0.31768,-2.8523,10.955,1.1699,-0.38995,-1.6409,1.5598,-3.9257e-13,-0.82044,0,0,0.33333,-0,-0,0.66667
0.23422,0.70824,0.70265,0.31236,3.3921,19.007,-0.58528,0.19509,-1.6532,-0.78038,-1.4554e-10,-0.82658,0,0,0.33333,1.9737e-16,0,0.66667
0.29959,0.60307,0.89877,0.15461,1.6024,16.524,-0.37055,0.12352,-1.9148,-0.49407,-2.995e-11,-0.95739,0,0,0.33333,-7.8949e-16,0,0.66667
0.11528,0.094586,0.34585,-0.60812,-7.0789,23.685,0.56085,-0.18695,-0.68588,0.74781,-5.175e-11,-0.34294,0,0,0.33333,-0,-0,0.66667
0.77244,0.28268,2.3173,-0.32598,-1.4235,2.7994,2.0144,-0.67147,-1.6228,2.6859,-1.6546e-10,-0.81139,0,0,0.33333,-0,-0,0.66667
0.79388,0.78427,2.3816,0.4264,1.7236,2.4928,-2.7081,0.9027,-1.3541,-3.6108,3.2735e-10,-0.67706,0,0,0.33333,-0,-0,0.66667
0.043936,0.23636,0.13181,-0.39546,-4.5698,26.492,0.139,-0.046333,-1.4435,0.18533,-1.0868e-09,-0.72173,0,0,0.33333,4.9343e-17,0,0.66667
0.16096,0.63162,0.48288,0.19743,2.2005,21.83,-0.25422,0.084741,-1.8613,-0.33896,-2.0156e-10,-0.93064,0,0,0.33333,-0,-0,0.66667
0.80286,0.88437,2.4086,0.57656,2.3215,2.5009,-3.7032,1.2344,-0.81755,-4.9376,3.1445e-10,-0.40877,0,0,0.33333,-0,-0,0.66667
0.91048,0.99515,2.7314,0.74272,1.516,1.33,-5.4098,1.8033,-0.038791,-7.2131,1.6485e-07,-0.019396,0,0,0.33333,-7.8949e-16,0,0.66667
0.36919,0.63703,1.1076,0.20554,2.0194,14.015,-0.60707,0.20236,-1.8491,-0.80942,-7.0877e-12,-0.92456,0,0,0.33333,-0,-0,0.66667
0.67531,0.033632,2.0259,-0.69955,-4.5133,5.205,3.7793,-1.2598,-0.26065,5.0391,-1.0458e-13,-0.13033,0,0,0.33333,-0,-0,0.66667
0.18999,0.32843,0.56998,-0.25735,-2.8443,20.702,0.39116,-0.13039,-1.764,0.52155,1.3482e-10,-0.88202,0,0,0.33333,-0,-0,0.66667
0.87123,0.85711,2.6137,0.53567,1.3958,1.4519,-3.7335,1.2445,-0.97919,-4.978,1.6132e-09,-0.48959,0,0,0.33333,1.579e-15,0,0.66667
0.82471,0.78802,2.4741,0.43203,1.4899,1.9918,-2.8504,0.95013,-1.3363,-3.8005,5.8336e-10,-0.66816,0,0,0.33333,-0,-0,0.66667
0.25001,0.37891,0.75004,-0.18163,-1.9436,18.386,0.36328,-0.12109,-1.8836,0.48438,7.1414e-11,-0.94179,0,0,0.33333,-0,-0,0.66667
0.59285,0.94613,1.7785,0.66919,5.1283,7.2422,-3.1738,1.0579,-0.40786,-4.2318,-4.9516e-13,-0.20393,0,0,0.33333,-0,-0,0.66667
0.73576,0.090402,2.2073,-0.6144,-3.2636,3.7855,3.6164,-1.2055,-0.65857,4.8219,-2.7836e-11,-0.32929,0,0,0.33333,1.1842e-15,0,0.66667
0.88384,0.16515,2.6515,-0.50228,-1.1573,1.2579,3.5515,-1.1838,-1.1025,4.7353,5.9857e-10,-0.55125,0,0,0.33333,-0,-0,0.66667
0.46773,0.82289,1.4032,0.48433,4.3758,10.798,-1.8123,0.60409,-1.1659,-2.4164,7.615e-13,-0.58294,0,0,0.33333,-7.8949e-16,0,0.66667
0.13462,0.68661,0.40386,0.27991,3.1575,22.875,-0.30145,0.10048,-1.7222,-0.40194,-9.1089e-10,-0.86108,0,0,0.33333,2.2204e-16,0,0.66667
0.1094,0.23772,0.32819,-0.39342,-4.4982,23.885,0.34431,-0.11477,-1.4497,0.45908,-8.1604e-10,-0.72483,0,0,0.33333,-0,-0,0.66667
0.52968,0.01156,1.589,-0.73266,-6.3057,9.0929,3.1046,-1.0349,-0.091184,4.1394,-1.0436e-14,-0.045592,0,0,0.33333,-0,3.6803e-16,0.66667
0.049289,0.51906,0.14787,0.028594,0.32564,26.268,-0.011274,0.0037581,-1.9967,-0.015032,3.236e-08,-0.99836,0,0,0.33333,-0,-0,0.66667
0.6209,0.66251,1.8627,0.24377,1.6703,6.1805,-1.2108,0.40362,-1.7887,-1.6145,5.2284e-12,-0.89434,0,0,0.33333,1.579e-15,0,0.66667
0.033328,0.056907,0.099985,-0.66464,-7.8836,26.929,0.17721,-0.05907,-0.42963,0.23628,4.7535e-07,-0.21482,0,0,0.33333,-0,-0,0.66667
0.021184,0.32907,0.063551,-0.2564,-2.9434,27.399,0.043452,-0.014484,-1.7655,0.057937,6.3069e-08,-0.88275,0,0,0.33333,-0,-0,0.66667
0.075209,0.42609,0.22563,-0.11087,-1.2596,25.229,0.066706,-0.022235,-1.9559,0.088941,6.0402e-08,-0.97795,0,0,0.33333,9.8686e-17,0,0.66667
0.36803,0.49041,1.1041,-0.01438,-0.1408,14.035,0.042338,-0.014113,-1.9987,0.056451,9.0457e-13,-0.99936,0,0,0.33333,-3.9475e-16,0,0.66667
0.38175,0.093219,1.1453,-0.61017,-6.1346,13.742,1.8635,-0.62116,-0.67703,2.4846,-8.0269e-13,-0.33851,0,0,0.33333,1.4803e-16,0,0.66667
0.76697,0.43912,2.3009,-0.091327,-0.39877,2.802,0.56036,-0.18679,-1.9714,0.74715,-6.011e-11,-0.9857,0,0,0.33333,3.158e-15,0,0.66667
0.84595,0.37439,2.5378,-0.18842,-0.53999,1.5053,1.2751,-0.42504,-1.8749,1.7002,1.1104e-09,-0.93746,0,0,0.33333,2.0231e-15,0,0.66667
0.7272,0.097796,2.1816,-0.60331,-3.287,3.9478,3.5098,-1.1699,-0.70599,4.6797,-2.3308e-11,-0.35299,0,0,0.33333,1.579e-15,0,0.66667
0.88443,0.38569,2.6533,-0.17147,-0.35332,0.98811,1.2132,-0.40441,-1.8948,1.6177,-6.3607e-10,-0.94742,0,0,0.33333,-0,-0,0.66667
0.5749,0.039434,1.7247,-0.69085,-5.4891,7.7562,3.1774,-1.0591,-0.30286,4.2365,2.3448e-13,-0.15143,0,0,0.33333,-0,-3.0523e-16,0.66667
0.93988,0.11588,2.8197,-0.57618,-0.66857,0.79902,4.3323,-1.4441,-0.81945,5.7765,-3.5787e-08,-0.40973,0,0,0.33333,-0,-0,0.66667
0.90679,0.31882,2.7204,-0.27176,-0.44191,0.7885,1.9715,-0.65715,-1.7378,2.6286,5.6937e-09,-0.86892,0,0,0.33333,-0,-0,0.66667
0.44844,0.65083,1.3453,0.22625,2.049,11.313,-0.81165,0.27055,-1.818,-1.0822,7.6883e-14,-0.90902,0,0,0.33333,7.8949e-16,0,0.66667
0.47973,0.64494,1.4392,0.21741,1.8924,10.296,-0.83439,0.27813,-1.8314,-1.1125,1.974e-13,-0.91568,0,0,0.33333,-0,-0,0.66667
0.85666,0.2846,2.57,-0.3231,-0.87837,1.4328,2.2143,-0.7381,-1.6294,2.9524,1.3611e-10,-0.81469,0,0,0.33333,-0,-0,0.66667
0.39841,0.34605,1.1952,-0.23092,-2.2093,13.001,0.73599,-0.24533,-1.8108,0.98133,2.5113e-12,-0.90542,0,0,0.33333,1.579e-15,0,0.66667
0.942,0.66282,2.826,0.24423,0.20274,0.44018,-1.8405,0.61349,-1.7878,-2.454,4.0972e-08,-0.89391,0,0,0.33333,-0,-0,0.66667
0.29331,0.63861,0.87994,0.20792,2.1684,16.764,-0.48788,0.16263,-1.8457,-0.6505,-4.2263e-11,-0.92286,0,0,0.33333,3.9475e-16,0,0.66667
0.25901,0.26035,0.77702,-0.35948,-3.8628,18.078,0.74486,-0.24829,-1.5399,0.99315,1.0577e-10,-0.76997,0,0,0.33333,-0,-0,0.66667
0.10893,0.16492,0.32678,-0.50262,-5.7984,23.918,0.438,-0.146,-1.1019,0.584,4.8424e-09,-0.55097,0,0,0.33333,-0,-0,0.66667
0.24704,0.2299,0.74113,-0.40515,-4.3977,18.541,0.80072,-0.26691,-1.416,1.0676,1.3724e-10,-0.70799,0,0,0.33333,3.9475e-16,0,0.66667
0.53775,0.05872,1.6133,-0.66192,-5.5607,8.7856,2.8476,-0.9492,-0.44236,3.7968,2.1849e-13,-0.22118,0,0,0.33333,9.8686e-16,0,0.66667
0.98024,0.80962,2.9407,0.46443,0.051074,0.37987,-3.642,1.214,-1.2336,-4.856,4.3578e-08,-0.61679,0,0,0.33333,2.3685e-15,0,0.66667
0.20773,0.99949,0.62319,0.74924,8.602,20.152,-1.2451,0.41504,-0.004985,-1.6601,-1.3966e-11,-0.0024925,0,0,0.33333,-4.9343e-17,0,0.66667
0.54702,0.60911,1.6411,0.16367,1.2854,8.2162,-0.71623,0.23874,-1.9047,-0.95497,-8.471e-14,-0.95233,0,0,0.33333,7.8949e-16,0,0.66667
0.87839,0.96393,2.6352,0.6959,1.8511,1.5948,-4.8902,1.6301,-0.27837,-6.5202,-7.2305e-09,-0.13918,0,0,0.33333,-1.579e-15,0,0.66667
0.58966,0.79035,1.769,0.43552,3.2407,7.1256,-2.0545,0.68483,-1.3252,-2.7393,-5.4645e-13,-0.66262,0,0,0.33333,-0,-0,0.66667
0.83528,0.30487,2.5058,-0.29269,-0.91709,1.7187,1.9558,-0.65195,-1.695,2.6078,-2.8927e-10,-0.84752,0,0,0.33333,-7.8949e-16,0,0.66667
0.23929,0.53627,0.71786,0.054402,0.58387,18.784,-0.10414,0.034713,-1.9896,-0.13885,-2.8533e-11,-0.99478,0,0,0.33333,-0,-0,0.66667
0.07308,0.85908,0.21924,0.53862,6.2768,25.341,-0.3149,0.10497,-0.96776,-0.41987,1.9499e-08,-0.48388,0,0,0.33333,-0,-0,0.66667
0.95297,0.91679,2.8589,0.62519,0.57783,0.77491,-4.7663,1.5888,-0.61035,-6.355,1.5787e-07,-0.30518,0,0,0.33333,-1.579e-15,3.5295e-16,0.66667
0.11233,0.57609,0.33698,0.11413,1.2873,23.748,-0.10256,0.034188,-1.9532,-0.13675,1.5317e-09,-0.97659,0,0,0.33333,1.9737e-16,0,0.66667
0.8024,0.95493,2.4072,0.68239,2.848,2.6511,-4.3804,1.4601,-0.3436,-5.8405,8.3584e-11,-0.1718,0,0,0.33333,-1.579e-15,0,0.66667
0.65102,0.20137,1.953,-0.44795,-2.9291,5.5318,2.333,-0.77766,-1.2858,3.1107,-7.8306e-12,-0.64291,0,0,0.33333,-0,-0,0.66667
0.86511,0.54174,2.5953,0.062611,0.15275,1.2033,-0.43333,0.14444,-1.9855,-0.57777,-2.2626e-09,-0.99274,0,0,0.33333,-0,-0,0.66667
0.62975,0.28445,1.8892,-0.32333,-2.1877,5.9873,1.6289,-0.54298,-1.6287,2.1719,-6.5663e-12,-0.81434,0,0,0.33333,-0,-0,0.66667
0.29818,0.96827,0.89453,0.7024,7.629,16.763,-1.6755,0.55851,-0.24711,-2.234,-2.3315e-13,-0.12356,0,0,0.33333,1.727e-16,0,0.66667
0.93148,0.26834,2.7944,-0.3475,-0.39267,0.60632,2.5895,-0.86316,-1.5699,3.4527,5.4658e-09,-0.78496,0,0,0.33333,-1.579e-15,0,0.66667
0.6923,0.4791,2.0769,-0.031351,-0.17765,4.3674,0.17363,-0.057878,-1.996,0.23151,-5.6839e-12,-0.998,0,0,0.33333,-0,-0,0.66667
0.87664,0.56446,2.6299,0.096688,0.21314,1.0606,-0.67808,0.22603,-1.9677,-0.90411,-9.2094e-09,-0.98386,0,0,0.33333,3.158e-15,0,0.66667
0.81549,0.062906,2.4465,-0.65564,-2.5453,2.4017,4.2774,-1.4258,-0.47268,5.7031,-4.2305e-10,-0.23634,0,0,0.33333,-0,-0,0.66667
0.136,0.45519,0.40801,-0.067214,-0.75275,22.807,0.07313,-0.024377,-1.9833,0.097507,-1.0948e-09,-0.99164,0,0,0.33333,-0,-0,0.66667
0.69941,0.6629,2.0982,0.24435,1.3704,4.26,-1.3672,0.45574,-1.7877,-1.823,4.0539e-11,-0.89383,0,0,0.33333,-0,-0,0.66667
0.68101,0.63531,2.043,0.20296,1.1963,4.6669,-1.1057,0.36858,-1.8529,-1.4743,2.4885e-11,-0.92647,0,0,0.33333,-0,-0,0.66667
0.7558,0.78704,2.2674,0.43056,2.047,3.1968,-2.6033,0.86778,-1.3408,-3.4711,1.4563e-10,-0.67039,0,0,0.33333,-1.579e-15,0,0.66667
0.79965,0.40427,2.399,-0.14359,-0.54058,2.222,0.91857,-0.30619,-1.9275,1.2248,-5.6871e-12,-0.96374,0,0,0.33333,-7.8949e-16,0,0.66667
0.94145,0.19147,2.8243,-0.4628,-0.46416,0.63872,3.4856,-1.1619,-1.2388,4.6474,-1.5551e-08,-0.61939,0,0,0.33333,-0,-0,0.66667
0.065147,0.88475,0.19544,0.57712,6.7588,25.66,-0.30078,0.10026,-0.81549,-0.40105,-3.1997e-08,-0.40775,0,0,0.33333,-0,-0,0.66667
0.50862,0.23227,1.5258,-0.40159,-3.4054,9.4665,1.634,-0.54468,-1.4258,2.1787,1.6209e-13,-0.7129,0,0,0.33333,7.8949e-16,0,0.66667
0.49966,0.59384,1.499,0.14076,1.1882,9.6489,-0.56267,0.18756,-1.9311,-0.75023,2.5535e-15,-0.96555,0,0,0.33333,-1.579e-15,0,0.66667
0.70076,0.70143,2.1023,0.30215,1.6976,4.259,-1.6939,0.56462,-1.675,-2.2585,4.5068e-11,-0.83748,0,0,0.33333,-0,-0,0.66667
0.9956,0.22599,2.9868,-0.41102,0.12447,0.24364,3.2737,-1.0912,-1.3991,4.365,-1.4402e-08,-0.69957,0,0,0.33333,-3.158e-15,-2.3312e-16,0.66667
0.90798,0.076073,2.7239,-0.63589,-1.2354,1.1761,4.619,-1.5397,-0.56195,6.1587,-2.2684e-08,-0.28097,0,0,0.33333,-0,-0,0.66667
0.29689,0.17247,0.89066,-0.49129,-5.2122,16.71,1.1669,-0.38895,-1.1417,1.5558,3.1667e-11,-0.57087,0,0,0.33333,3.9475e-16,0,0.66667
0.33575,0.44506,1.0073,-0.082416,-0.83001,15.193,0.22137,-0.073791,-1.9755,0.29516,8.4531e-12,-0.98775,0,0,0.33333,-0,-0,0.66667
0.82017,0.48657,2.4605,-0.020145,-0.067381,1.8591,0.13218,-0.044059,-1.9978,0.17624,1.7709e-10,-0.99889,0,0,0.33333,-0,-0,0.66667
0.36161,0.93164,1.0848,0.64746,6.6574,14.465,-1.8731,0.62435,-0.50971,-2.4974,4.1933e-13,-0.25485,0,0,0.33333,-0,-0,0.66667
0.32537,0.59323,0.97612,0.13985,1.4217,15.576,-0.36402,0.12134,-1.9316,-0.48536,-1.6747e-11,-0.96578,0,0,0.33333,-3.9475e-16,0,0.66667
0.4447,0.12857,1.3341,-0.55714,-5.2178,11.59,1.9821,-0.6607,-0.89655,2.6428,-9.5557e-13,-0.44828,0,0,0.33333,-0,-0,0.66667
0.27712,0.74117,0.83136,0.36175,3.8457,17.4,-0.80199,0.26733,-1.5344,-1.0693,-7.3499e-11,-0.76719,0,0,0.33333,-0,-0,0.66667
0.74901,0.10613,2.247,-0.59081,-2.9816,3.4935,3.5402,-1.1801,-0.75872,4.7202,-5.6452e-11,-0.37936,0,0,0.33333,-0,3.7767e-16,0.66667
0.45268,0.27907,1.358,-0.33139,-3.0062,11.209,1.2001,-0.40003,-1.6106,1.6001,-6.2716e-13,-0.80532,0,0,0.33333,1.0856e-15,0,0.66667
0.16392,0.69707,0.49177,0.29561,3.3063,21.724,-0.38766,0.12922,-1.6887,-0.51688,-2.7011e-10,-0.84437,0,0,0.33333,3.9475e-16,0,0.66667
0.99046,0.051395,2.9714,-0.67291,-0.076769,0.64178,5.3319,-1.7773,-0.38939,7.1092,-1.8295e-07,-0.1947,0,0,0.33333,1.579e-15,0,0.66667
0.338,0.93037,1.014,0.64555,6.7641,15.297,-1.7456,0.58185,-0.518,-2.3274,-3.8447e-13,-0.259,0,0,0.33333,1.9737e-16,0,0.66667
0.30176,0.57693,0.90528,0.1154,1.193,16.439,-0.27859,0.092863,-1.9519,-0.37145,-2.2353e-11,-0.97597,0,0,0.33333,3.9475e-16,0,0.66667
0.22533,0.64868,0.67598,0.22302,2.4218,19.333,-0.40202,0.13401,-1.8228,-0.53603,-1.1384e-10,-0.9114,0,0,0.33333,-1.9737e-16,0,0.66667
0.42574,0.23449,1.2772,-0.39826,-3.746,12.13,1.3564,-0.45215,-1.4354,1.8086,-7.1154e-13,-0.71771,0,0,0.33333,7.8949e-16,0,0.66667
0.69512,0.84104,2.0854,0.51156,3.013,4.5445,-2.8448,0.94826,-1.0699,-3.7931,2.1522e-11,-0.53494,0,0,0.33333,9.9529e-16,0,0.66667
0.60241,0.003976,1.8072,-0.74404,-5.6815,7.0711,3.5857,-1.1952,-0.031826,4.7809,1.1458e-13,-0.015913,0,0,0.33333,-0,-0,0.66667
0.18146,0.58104,0.54438,0.12157,1.3417,21.021,-0.17648,0.058826,-1.9467,-0.2353,-1.1295e-10,-0.97337,0,0,0.33333,-2.1489e-16,0,0.66667
0.26456,0.74613,0.79369,0.36919,3.957,17.872,-0.78139,0.26046,-1.5161,-1.0419,-9.61e-11,-0.75804,0,0,0.33333,2.757e-16,0,0.66667
0.59825,0.35817,1.7948,-0.21275,-1.5251,6.7759,1.0182,-0.3394,-1.8384,1.3576,-2.2451e-12,-0.9192,0,0,0.33333,-0,-0,0.66667
0.85805,0.25402,2.5741,-0.36897,-1.0047,1.4502,2.5327,-0.84424,-1.5166,3.377,-2.3907e-10,-0.75829,0,0,0.33333,-0,-0,0.66667
0.41292,0.66773,1.2387,0.2516,2.3741,12.51,-0.83111,0.27704,-1.7743,-1.1081,-1.1234e-12,-0.88713,0,0,0.33333,-0,-0,0.66667
0.21585,0.56912,0.64754,0.10368,1.1269,19.686,-0.17904,0.059679,-1.9618,-0.23872,-3.8291e-11,-0.98091,0,0,0.33333,-0,-0,0.66667
0.32339,0.9004,0.97017,0.6006,6.3278,15.795,-1.5538,0.51794,-0.7174,-2.0718,-3.691e-12,-0.3587,0,0,0.33333,7.836e-16,0,0.66667
0.69169,0.52444,2.0751,0.036663,0.20814,4.3818,-0.20288,0.067626,-1.9951,-0.2705,6.5506e-12,-0.99755,0,0,0.33333,7.8949e-16,0,0.66667
0.70095,0.91847,2.1028,0.62771,3.7219,4.5378,-3.5199,1.1733,-0.5987,-4.6932,6.4115e-12,-0.29935,0,0,0.33333,-0,-0,0.66667
0.22335,0.13333,0.67005,-0.55001,-6.1226,19.484,0.98276,-0.32759,-0.92409,1.3103,1.7947e-10,-0.46205,0,0,0.33333,-0,-0,0.66667
0.3965,0.12683,1.1895,-0.55976,-5.5165,13.205,1.7755,-0.59184,-0.88651,2.3674,-1.0072e-12,-0.44326,0,0,0.33333,-0,-0,0.66667
0.69933,0.048643,2.098,-0.67703,-4.078,4.6336,3.7878,-1.2626,-0.36962,5.0504,-1.7761e-12,-0.18481,0,0,0.33333,-0,5.1198e-16,0.66667
0.72057,0.2263,2.1617,-0.41056,-2.2009,3.8985,2.3667,-0.7889,-1.4008,3.1556,-6.6851e-11,-0.70038,0,0,0.33333,-1.579e-15,0,0.66667
0.13052,0.82631,0.39155,0.48946,5.6095,23.065,-0.51106,0.17035,-1.1475,-0.68141,-2.0548e-09,-0.57374,0,0,0.33333,-0,-0,0.66667
0.60937,0.96806,1.8281,0.70209,5.2459,6.8386,-3.4227,1.1409,-0.24883,-4.5636,-1.1813e-13,-0.12441,0,0,0.33333,-1.0856e-15,0,0.66667
0.88607,0.62622,2.6582,0.18934,0.38482,0.97613,-1.3421,0.44737,-1.8733,-1.7895,-1.6738e-09,-0.93665,0,0,0.33333,-0,-0,0.66667
0.58236,0.70985,1.7471,0.31477,2.345,7.2569,-1.4665,0.48883,-1.6474,-1.9553,3.1064e-13,-0.82368,0,0,0.33333,-0,-0,0.66667
0.30721,0.081108,0.92163,-0.62834,-6.7192,16.394,1.5442,-0.51475,-0.59556,2.059,4.5201e-12,-0.29778,0,0,0.33333,3.9475e-16,0,0.66667
0.74514,0.96178,2.2354,0.69267,3.6375,3.6995,-4.1291,1.3764,-0.29387,-5.5055,6.4513e-12,-0.14694,0,0,0.33333,-1.1842e-15,2.3834e-16,0.66667
0.9777,0.55144,2.9331,0.077155,-0.0036885,0.12032,-0.60347,0.20116,-1.9782,-0.80463,5.7255e-07,-0.98909,0,0,0.33333,1.579e-15,0,0.66667
0.90462,0.7658,2.7139,0.3987,0.70226,0.91415,-2.8854,0.96179,-1.4345,-3.8472,-3.7165e-10,-0.71723,0,0,0.33333,1.579e-15,0,0.66667
0.8716,0.55652,2.6148,0.084787,0.19568,1.1221,-0.59121,0.19707,-1.9745,-0.78828,-1.123e-09,-0.98726,0,0,0.33333,-1.1842e-15,0,0.66667
0.00029225,0.37539,0.00087675,-0.18692,-2.1408,28.238,0.00043676,-0.0001457,-1.8773,0.00058229,-1.716e-07,-0.93863,0,0,0.33333,7.7099e-19,0,0.66667
0.58262,0.84825,1.7478,0.52237,3.9838,7.3848,-2.4347,0.81158,-1.03,-3.2463,-1.271e-12,-0.51499,0,0,0.33333,1.579e-15,0,0.66667
0.26272,0.06977,0.78816,-0.64535,-7.1119,18.039,1.3564,-0.45212,-0.51918,1.8085,1.5751e-11,-0.25959,0,0,0.33333,-0,3.0323e-16,0.66667
0.81301,0.72228,2.439,0.33342,1.2004,2.0956,-2.1686,0.72285,-1.6056,-2.8914,2.7118e-10,-0.8028,0,0,0.33333,-3.158e-15,0,0.66667
0.52348,0.22613,1.5704,-0.4108,-3.411,9.0192,1.7204,-0.57346,-1.3996,2.2938,5.1081e-13,-0.69981,0,0,0.33333,-0,-0,0.66667
0.8939,0.33131,2.6817,-0.25303,-0.47932,0.91815,1.8095,-0.60315,-1.7719,2.4126,3.7917e-09,-0.88593,0,0,0.33333,1.579e-15,0,0.66667
0.52374,0.36309,1.5712,-0.20536,-1.6776,8.9227,0.86047,-0.28682,-1.8493,1.1473,2.6112e-13,-0.92467,0,0,0.33333,-7.8949e-16,0,0.66667
0.89114,0.12556,2.6734,-0.56165,-1.2437,1.2487,4.0041,-1.3347,-0.8798,5.3388,8.182e-09,-0.4399,0,0,0.33333,-0,-0,0.66667
0.44972,0.2729,1.3492,-0.34065,-3.1034,11.31,1.2256,-0.40853,-1.5872,1.6341,-6.4526e-13,-0.79359,0,0,0.33333,-0,-0,0.66667
0.5615,0.42539,1.6845,-0.11191,-0.85571,7.7834,0.50271,-0.16757,-1.9553,0.67028,-2.2066e-13,-0.97765,0,0,0.33333,-0,-0,0.66667
0.81248,0.84382,2.4375,0.51573,1.9448,2.2718,-3.3522,1.1174,-1.0559,-4.4696,4.5496e-10,-0.52795,0,0,0.33333,-0,-0,0.66667
0.40317,0.14155,1.2095,-0.53767,-5.2508,12.964,1.7342,-0.57806,-0.97159,2.3122,-9.2937e-13,-0.4858,0,0,0.33333,-0,-0,0.66667
0.56867,0.74954,1.706,0.37432,2.8753,7.6741,-1.7029,0.56763,-1.5026,-2.2705,-7.4374e-13,-0.75132,0,0,0.33333,1.1842e-15,0,0.66667
0.89846,0.012079,2.6954,-0.73188,-1.6726,1.4318,5.2605,-1.7535,-0.094739,7.0141,3.0785e-08,-0.047369,0,0,0.33333,-3.158e-15,0,0.66667
0.48462,0.68094,1.4539,0.27141,2.3544,10.157,-1.0522,0.35075,-1.7385,-1.403,1.8985e-13,-0.86927,0,0,0.33333,3.9475e-16,0,0.66667
0.59059,0.70032,1.7718,0.30048,2.201,7.0218,-1.4197,0.47323,-1.6785,-1.8929,1.0357e-12,-0.83924,0,0,0.33333,-0,-0,0.66667
0.93638,0.18917,2.8091,-0.46624,-0.52239,0.68441,3.4926,-1.1642,-1.2282,4.6568,-1.1846e-09,-0.61409,0,0,0.33333,-3.158e-15,0,0.66667
0.88325,0.71393,2.6498,0.3209,0.69374,1.089,-2.2675,0.75582,-1.6339,-3.0233,-2.6872e-10,-0.81694,0,0,0.33333,-1.579e-15,0,0.66667
0.75772,0.44919,2.2732,-0.076217,-0.3455,2.9781,0.46201,-0.154,-1.9786,0.61601,-3.5386e-11,-0.98932,0,0,0.33333,-0,-0,0.66667
0.71123,0.3525,2.1337,-0.22125,-1.1941,3.9867,1.2589,-0.41962,-1.8255,1.6785,-4.7777e-11,-0.91274,0,0,0.33333,1.579e-15,0,0.66667
0.8192,0.10243,2.4576,-0.59635,-2.2259,2.2628,3.9082,-1.3027,-0.73505,5.211,-3.9105e-10,-0.36753,0,0,0.33333,-0,-0,0.66667
0.10608,0.27711,0.31825,-0.33433,-3.8106,24.01,0.28373,-0.094578,-1.6029,0.37831,-2.4372e-09,-0.80146,0,0,0.33333,-4.9343e-17,0,0.66667
0.38103,0.26441,1.1431,-0.35338,-3.4646,13.641,1.0772,-0.35907,-1.5552,1.4363,3.8219e-12,-0.77761,0,0,0.33333,-0,-0,0.66667
0.54579,0.42325,1.6374,-0.11512,-0.90436,8.2426,0.50266,-0.16755,-1.9526,0.67021,-2.2038e-14,-0.97631,0,0,0.33333,7.8949e-16,0,0.66667
0.85851,0.27145,2.5755,-0.34283,-0.92361,1.4226,2.3546,-0.78486,-1.5821,3.1394,-7.2469e-11,-0.79106,0,0,0.33333,-0,-0,0.66667
0.1464,0.84828,0.43921,0.52243,5.9779,22.448,-0.61188,0.20396,-1.0297,-0.81583,-1.3449e-09,-0.51484,0,0,0.33333,-0,-0,0.66667
0.71404,0.54564,2.1421,0.06846,0.36306,3.883,-0.39106,0.13035,-1.9826,-0.52142,1.7693e-11,-0.99132,0,0,0.33333,-0,-0,0.66667
0.59097,0.2553,1.7729,-0.36705,-2.7035,7.0464,1.7353,-0.57844,-1.5212,2.3138,-3.4772e-13,-0.7606,0,0,0.33333,-0,-0,0.66667
0.60872,0.12504,1.8262,-0.56243,-4.1048,6.7124,2.7389,-0.91297,-0.87677,3.6519,8.2667e-13,-0.43838,0,0,0.33333,1.579e-15,2.2482e-18,0.66667
0.37262,0.0050429,1.1179,-0.74244,-7.6635,14.147,2.2132,-0.73772,-0.040464,2.9509,2.5246e-13,-0.020232,0,0,0.33333,-0,2.1369e-16,0.66667
0.91582,0.18974,2.7475,-0.46539,-0.7337,0.87017,3.4097,-1.1366,-1.2304,4.5463,-4.629e-09,-0.61519,0,0,0.33333,-3.158e-15,0,0.66667
0.71391,0.00034991,2.1417,-0.74948,-4.4094,4.4162,4.2804,-1.4268,-0.0037234,5.7072,6.2617e-13,-0.0018617,0,0,0.33333,-0,-0,0.66667
0.6683,0.3937,2.0049,-0.15944,-0.96998,4.9553,0.85245,-0.28415,-1.9091,1.1366,-1.603e-11,-0.95454,0,0,0.33333,-0,-0,0.66667
0.22147,0.53332,0.6644,0.049978,0.5413,19.467,-0.088548,0.029516,-1.9919,-0.11806,-3.8183e-11,-0.99595,0,0,0.33333,-0,-0,0.66667
0.81288,0.28447,2.4386,-0.32329,-1.1625,2.0905,2.1024,-0.70079,-1.6293,2.8031,-2.6225e-10,-0.81466,0,0,0.33333,-0,-0,0.66667
0.49585,0.80812,1.4876,0.46219,4.0154,9.8961,-1.8334,0.61114,-1.2407,-2.4446,3.7859e-14,-0.62035,0,0,0.33333,-1.9737e-16,0,0.66667
0.50837,0.49238,1.5251,-0.011432,-0.095059,9.3648,0.046494,-0.015498,-1.9992,0.061992,1.8059e-13,-0.99959,0,0,0.33333,1.1842e-15,0,0.66667
0.084733,0.15079,0.2542,-0.52381,-6.0841,24.878,0.35507,-0.11836,-1.0244,0.47343,-4.3051e-09,-0.51218,0,0,0.33333,4.9343e-17,0,0.66667
0.43727,0.60212,1.3118,0.15318,1.4011,11.667,-0.53585,0.17862,-1.9168,-0.71447,-2.1577e-13,-0.95841,0,0,0.33333,-0,-0,0.66667
0.8632,0.82505,2.5896,0.48757,1.3271,1.498,-3.367,1.1223,-1.1542,-4.4893,1.4248e-09,-0.5771,0,0,0.33333,1.579e-15,0,0.66667
0.68024,0.2775,2.0407,-0.33375,-1.9957,4.7486,1.8162,-0.60541,-1.6041,2.4217,-2.8145e-11,-0.80206,0,0,0.33333,-1.1842e-15,0,0.66667
0.18942,0.26118,0.56827,-0.35823,-3.9833,20.74,0.54286,-0.18095,-1.5435,0.72382,2.8306e-10,-0.77173,0,0,0.33333,-0,-0,0.66667
0.58407,0.23967,1.7522,-0.3905,-2.9214,7.2508,1.8246,-0.60822,-1.4572,2.4329,2.4858e-13,-0.72862,0,0,0.33333,7.8949e-16,0,0.66667
0.94401,0.98578,2.832,0.72866,0.92796,1.017,-5.5029,1.8343,-0.11139,-7.3372,5.2117e-07,-0.055696,0,0,0.33333,-0,-0,0.66667
0.50746,0.85823,1.5224,0.53735,4.6351,9.5882,-2.1815,0.72716,-0.97255,-2.9086,-3.0065e-13,-0.48628,0,0,0.33333,7.8949e-16,0,0.66667
0.9674,0.60625,2.9022,0.15938,0.033881,0.20914,-1.2334,0.41115,-1.9094,-1.6446,1.8376e-08,-0.95472,0,0,0.33333,-0,-0,0.66667
0.36627,0.70819,1.0988,0.31228,3.0941,14.145,-0.91502,0.30501,-1.6526,-1.22,-7.7023e-12,-0.82632,0,0,0.33333,3.9475e-16,0,0.66667
0.29075,0.73922,0.87225,0.35882,3.7805,16.892,-0.83462,0.27821,-1.5416,-1.1128,-5.46e-11,-0.7708,0,0,0.33333,-0,-0,0.66667
0.83985,0.49044,2.5196,-0.014336,-0.042325,1.5549,0.096319,-0.032106,-1.9989,0.12843,-5.0073e-11,-0.99945,0,0,0.33333,-1.579e-15,0,0.66667
0.86973,0.26113,2.6092,-0.3583,-0.88599,1.287,2.493,-0.831,-1.5429,3.324,3.6092e-10,-0.77147,0,0,0.33333,-0,-0,0.66667
0.20167,0.75065,0.605,0.37597,4.164,20.269,-0.60657,0.20219,-1.4986,-0.80875,-2.8525e-10,-0.74932,0,0,0.33333,-0,-0,0.66667
0.71945,0.51063,2.1584,0.015949,0.083019,3.7611,-0.091795,0.030598,-1.9991,-0.12239,3.5986e-12,-0.99953,0,0,0.33333,3.158e-15,0,0.66667
0.59211,0.84253,1.7763,0.51379,3.8449,7.1172,-2.4338,0.81125,-1.0625,-3.245,-1.0956e-12,-0.53124,0,0,0.33333,9.8686e-16,0,0.66667
0.89451,0.93034,2.6835,0.64551,1.4504,1.3318,-4.6193,1.5398,-0.51834,-6.1591,-1.4474e-08,-0.25917,0,0,0.33333,-7.8949e-16,0,0.66667
0.14945,0.91249,0.44834,0.61873,7.1437,22.351,-0.73974,0.24658,-0.63863,-0.98632,-4.8458e-10,-0.31932,0,0,0.33333,-3.9475e-16,0,0.66667
0.76303,0.2317,2.2891,-0.40244,-1.8505,3.0338,2.4566,-0.81887,-1.4237,3.2755,-1.6801e-10,-0.71185,0,0,0.33333,-0,-0,0.66667
0.68996,0.26555,2.0699,-0.35167,-2.0511,4.5344,1.9411,-0.64704,-1.5598,2.5882,-3.4944e-11,-0.7799,0,0,0.33333,-1.579e-15,0,0.66667
0.79502,0.1713,2.385,-0.49305,-2.0137,2.5382,3.1359,-1.0453,-1.1352,4.1812,-3.4716e-10,-0.56762,0,0,0.33333,-0,-0,0.66667
0.45329,0.7585,1.3599,0.38774,3.5312,11.214,-1.4061,0.46869,-1.4657,-1.8748,8.1535e-13,-0.73284,0,0,0.33333,-0,-0,0.66667
0.22843,0.5811,0.68529,0.12165,1.3145,19.203,-0.2223,0.074101,-1.9467,-0.29641,-6.3026e-11,-0.97334,0,0,0.33333,-3.9475e-16,0,0.66667
0.28605,0.91735,0.85816,0.62602,6.7868,17.167,-1.4326,0.47754,-0.60601,-1.9101,-1.0904e-11,-0.303,0,0,0.33333,7.8949e-16,0,0.66667
0.3043,0.45483,0.91291,-0.06775,-0.69852,16.342,0.16493,-0.054978,-1.9829,0.21991,1.2966e-11,-0.99144,0,0,0.33333,3.9475e-16,0,0.66667
0.84027,0.44294,2.5208,-0.085587,-0.25263,1.5567,0.57533,-0.19178,-1.9741,0.76711,7.1783e-11,-0.98705,0,0,0.33333,-0,-0,0.66667
0.53716,0.36892,1.6115,-0.19662,-1.5718,8.517,0.84491,-0.28164,-1.8624,1.1265,2.3231e-13,-0.93121,0,0,0.33333,-7.8949e-16,0,0.66667
0.56358,0.94969,1.6908,0.67454,5.4483,8.0558,-3.0413,1.0138,-0.38201,-4.0551,-3.6438e-13,-0.191,0,0,0.33333,-0,-0,0.66667
0.28417,0.072337,0.8525,-0.64149,-6.9759,17.244,1.4583,-0.48611,-0.53655,1.9444,8.5906e-12,-0.26827,0,0,0.33333,7.8949e-16,0,0.66667
0.83416,0.37351,2.5025,-0.18973,-0.58895,1.6803,1.2661,-0.42204,-1.8726,1.6882,-5.6886e-10,-0.93632,0,0,0.33333,-9.8686e-17,0,0.66667
0.70493,0.97027,2.1148,0.7054,4.2109,4.5478,-3.9781,1.326,-0.2318,-5.3041,4.4897e-13,-0.1159,0,0,0.33333,-0,-0,0.66667
0.87814,0.99427,2.6344,0.7414,2.0264,1.6744,-5.2084,1.7361,-0.045716,-6.9446,2.0003e-08,-0.022858,0,0,0.33333,1.9737e-15,0,0.66667
0.13153,0.58815,0.39458,0.13222,1.4845,22.986,-0.13912,0.046374,-1.9378,-0.1855,8.5154e-10,-0.96888,0,0,0.33333,-2.9606e-16,0,0.66667
0.8496,0.42671,2.5488,-0.10994,-0.30424,1.4264,0.74722,-0.24907,-1.9564,0.9963,6.3815e-10,-0.97821,0,0,0.33333,-0,-0,0.66667
0.052112,0.35642,0.15634,-0.21536,-2.4621,26.157,0.089785,-0.029928,-1.8344,0.11971,-2.8655e-08,-0.91721,0,0,0.33333,9.8686e-17,0,0.66667
0.87713,0.71102,2.6314,0.31654,0.72434,1.1606,-2.2211,0.74038,-1.6438,-2.9615,6.3337e-11,-0.82188,0,0,0.33333,-7.8949e-16,0,0.66667
0.23974,0.65169,0.71922,0.22753,2.453,18.782,-0.43639,0.14546,-1.816,-0.58186,-1.0215e-10,-0.90802,0,0,0.33333,-0,-0,0.66667
0.88566,0.19819,2.657,-0.45272,-1.0034,1.1806,3.2077,-1.0692,-1.2707,4.2769,-1.7395e-09,-0.63536,0,0,0.33333,-0,-0,0.66667
0.37931,0.60389,1.1379,0.15584,1.514,13.65,-0.47289,0.15763,-1.9132,-0.63052,-4.4763e-12,-0.9566,0,0,0.33333,-0,-0,0.66667
0.84292,0.60335,2.5288,0.15503,0.45198,1.5364,-1.0454,0.34847,-1.9146,-1.3939,2.8702e-10,-0.95728,0,0,0.33333,1.579e-15,0,0.66667
0.53961,0.25804,1.6188,-0.36294,-2.925,8.5109,1.5668,-0.52226,-1.5312,2.089,7.5795e-13,-0.76562,0,0,0.33333,-0,-0,0.66667
0.56418,0.19308,1.6925,-0.46038,-3.5988,7.8563,2.0779,-0.69263,-1.2467,2.7705,1.1302e-12,-0.62337,0,0,0.33333,-0,-0,0.66667
0.98402,0.10745,2.9521,-0.58883,-0.092245,0.53196,4.6354,-1.5451,-0.76709,6.1805,2.7386e-07,-0.38355,0,0,0.33333,-1.579e-15,3.8873e-16,0.66667
0.96375,0.83041,2.8912,0.49562,0.26055,0.51646,-3.8212,1.2737,-1.1259,-5.095,2.8248e-08,-0.56296,0,0,0.33333,-1.579e-15,0,0.66667
0.11432,0.097176,0.34297,-0.60424,-7.0324,23.722,0.55263,-0.18421,-0.70219,0.73684,2.0719e-09,-0.35109,0,0,0.33333,-3.9475e-16,0,0.66667
0.36415,0.51586,1.0924,0.023785,0.23372,14.173,-0.069291,0.023097,-1.9973,-0.092388,-1.3737e-12,-0.99864,0,0,0.33333,-0,-0,0.66667
0.25055,0.26194,0.75164,-0.35709,-3.8551,18.397,0.71575,-0.23858,-1.5465,0.95433,1.2409e-10,-0.77326,0,0,0.33333,-0,-0,0.66667
0.4483,0.24406,1.3449,-0.3839,-3.5157,11.375,1.3768,-0.45894,-1.4759,1.8358,-7.313e-13,-0.73796,0,0,0.33333,-3.9475e-16,0,0.66667
0.12635,0.2501,0.37906,-0.37485,-4.2624,23.212,0.37891,-0.1263,-1.5018,0.50521,-3.617e-11,-0.75089,0,0,0.33333,-3.9475e-16,0,0.66667
0.51157,0.74802,1.5347,0.37203,3.1324,9.3603,-1.5226,0.50752,-1.5085,-2.0301,-2.9932e-13,-0.75427,0,0,0.33333,-1.9737e-16,0,0.66667
0.86558,0.36385,2.5967,-0.20423,-0.50427,1.2407,1.4142,-0.47141,-1.8511,1.8856,-1.2823e-09,-0.92553,0,0,0.33333,-0,-0,0.66667
0.35235,0.12157,1.0571,-0.56765,-5.8247,14.744,1.6001,-0.53337,-0.85453,2.1335,1.2766e-12,-0.42727,0,0,0.33333,5.9212e-16,0,0.66667
0.15564,0.32128,0.46692,-0.26808,-3.0026,22.046,0.33379,-0.11126,-1.7446,0.44505,-1.9172e-10,-0.87231,0,0,0.33333,3.9475e-16,0,0.66667
0.30726,0.72654,0.92178,0.33981,3.5352,16.278,-0.83529,0.27843,-1.5891,-1.1137,-3.7833e-11,-0.79456,0,0,0.33333,-0,-0,0.66667
0.74287,0.56136,2.2286,0.092041,0.44208,3.2773,-0.547,0.18233,-1.9705,-0.72933,3.7579e-11,-0.98527,0,0,0.33333,6.9081e-16,0,0.66667
0.091276,0.13024,0.27383,-0.55464,-6.4536,24.623,0.405,-0.135,-0.9065,0.54001,3.0146e-08,-0.45325,0,0,0.33333,-0,-0,0.66667
0.73558,0.53741,2.2067,0.056109,0.27644,3.422,-0.33018,0.11006,-1.9891,-0.44024,1.8651e-11,-0.99457,0,0,0.33333,-0,-0,0.66667
0.61392,0.7415,1.8418,0.36226,2.5466,6.4237,-1.7792,0.59306,-1.5331,-2.3722,2.7782e-12,-0.76654,0,0,0.33333,-0,-0,0.66667
0.74026,0.93412,2.2208,0.65118,3.4387,3.7409,-3.8564,1.2855,-0.49259,-5.1418,1.4405e-11,-0.24629,0,0,0.33333,-3.9475e-16,0,0.66667
0.0090497,0.26556,0.027149,-0.35167,-4.0596,27.887,0.02546,-0.0084866,-1.5595,0.033946,6.442e-09,-0.77975,0,0,0.33333,-0,-0,0.66667
0.72047,0.90883,2.1614,0.61324,3.4204,4.1,-3.5346,1.1782,-0.66372,-4.7128,1.5689e-11,-0.33186,0,0,0.33333,-1.579e-15,0,0.66667
0.32058,0.86544,0.96175,0.54817,5.753,15.87,-1.4059,0.46862,-0.93105,-1.8745,-9.2377e-12,-0.46553,0,0,0.33333,-0,-0,0.66667
0.63297,0.80922,1.8989,0.46383,3.1689,5.9977,-2.3487,0.78291,-1.2353,-3.1317,2.9001e-12,-0.61766,0,0,0.33333,3.8477e-16,0,0.66667
0.053837,0.48802,0.16151,-0.017965,-0.20448,26.085,0.0077373,-0.0025794,-1.9981,0.010316,-5.0641e-07,-0.99907,0,0,0.33333,-4.9343e-17,0,0.66667
0.55643,0.78756,1.6693,0.43133,3.405,8.0589,-1.9201,0.64002,-1.3383,-2.5601,-1.0115e-12,-0.66916,0,0,0.33333,-0,-0,0.66667
0.9416,0.29454,2.8248,-0.30819,-0.26994,0.48784,2.3215,-0.77384,-1.6617,3.0953,4.1706e-09,-0.83084,0,0,0.33333,-0,-0,0.66667
0.32009,0.57024,0.96026,0.10537,1.0746,15.765,-0.26981,0.089936,-1.9601,-0.35974,-1.4462e-11,-0.98007,0,0,0.33333,-0,-0,0.66667
0.52274,0.47237,1.5682,-0.041452,-0.3374,8.9251,0.17335,-0.057783,-1.9941,0.23113,7.2858e-14,-0.99705,0,0,0.33333,-0,-0,0.66667
0.40771,0.63552,1.2231,0.20328,1.924,12.675,-0.66304,0.22101,-1.8529,-0.88405,-1.8047e-12,-0.92646,0,0,0.33333,-0,-0,0.66667
0.56965,0.35774,1.709,-0.21339,-1.6153,7.5743,0.97245,-0.32415,-1.8373,1.2966,-3.8997e-13,-0.91866,0,0,0.33333,-0,-0,0.66667
0.068319,0.51919,0.20496,0.028778,0.32697,25.504,-0.015729,0.0052429,-1.9964,-0.020972,-7.7932e-08,-0.99819,0,0,0.33333,-0,-0,0.66667
0.36188,0.86321,1.0856,0.54482,5.5315,14.396,-1.5773,0.52576,-0.94424,-2.103,-1.1235e-12,-0.47212,0,0,0.33333,3.9475e-16,0,0.66667
0.52066,0.050126,1.562,-0.67481,-5.8276,9.3033,2.8108,-0.93692,-0.38026,3.7477,9.5923e-14,-0.19013,0,0,0.33333,-1.4061e-15,0,0.66667
0.084824,0.046696,0.25447,-0.67996,-8.0301,24.895,0.46141,-0.1538,-0.35533,0.61522,-9.6367e-09,-0.17766,0,0,0.33333,1.9737e-16,0,0.66667
0.46765,0.22172,1.4029,-0.41742,-3.7456,10.763,1.5617,-0.52055,-1.3813,2.0822,-6.1795e-13,-0.69066,0,0,0.33333,-1.579e-15,0,0.66667
0.77223,0.17722,2.3167,-0.48416,-2.1805,2.9352,2.9911,-0.99703,-1.1659,3.9881,-2.0151e-10,-0.58296,0,0,0.33333,-0,-0,0.66667
0.443,0.71653,1.329,0.32479,2.9787,11.525,-1.1511,0.38369,-1.6254,-1.5348,5.6954e-13,-0.81271,0,0,0.33333,-1.0856e-15,0,0.66667
0.39093,0.36022,1.1728,-0.20967,-2.0188,13.255,0.65572,-0.21857,-1.8436,0.87429,3.509e-12,-0.92178,0,0,0.33333,-0,-0,0.66667
0.27288,0.33928,0.81863,-0.24107,-2.5514,17.532,0.52626,-0.17542,-1.7934,0.70169,6.7382e-11,-0.89671,0,0,0.33333,-0,-0,0.66667
0.051852,0.1545,0.15556,-0.51826,-6.0444,26.183,0.21498,-0.07166,-1.0456,0.28664,-3.802e-08,-0.52282,0,0,0.33333,9.8686e-17,0,0.66667
0.76182,0.7215,2.2855,0.33225,1.5173,3.0045,-2.0249,0.67497,-1.608,-2.6999,1.4676e-10,-0.80402,0,0,0.33333,-3.158e-15,0,0.66667
0.48578,0.75677,1.4573,0.38515,3.3657,10.169,-1.4968,0.49893,-1.4728,-1.9957,2.629e-13,-0.7364,0,0,0.33333,-0,-0,0.66667
0.16135,0.88404,0.48404,0.57606,6.595,21.878,-0.74357,0.24786,-0.81967,-0.99143,-1.0814e-09,-0.40983,0,0,0.33333,-0,-0,0.66667
0.066079,0.95797,0.19824,0.68696,8.143,25.635,-0.36315,0.12105,-0.32165,-0.4842,-4.6653e-08,-0.16082,0,0,0.33333,-9.8686e-17,0,0.66667
0.7579,0.037452,2.2737,-0.69382,-3.485,3.4551,4.2068,-1.4023,-0.2882,5.609,-7.2942e-12,-0.1441,0,0,0.33333,-0,-0,0.66667
0.58841,0.78504,1.7652,0.42755,3.1859,7.1545,-2.0126,0.67088,-1.3503,-2.6835,-5.0338e-13,-0.67514,0,0,0.33333,-0,-0,0.66667
0.55876,0.074462,1.6763,-0.63831,-5.1655,8.1567,2.8533,-0.9511,-0.55082,3.8044,4.7518e-13,-0.27541,0,0,0.33333,-0,1.5038e-16,0.66667
0.20632,0.73958,0.61897,0.35938,3.9674,20.086,-0.59319,0.19773,-1.5404,-0.79091,-2.5687e-10,-0.77021,0,0,0.33333,-1.9737e-16,0,0.66667
0.59434,0.29369,1.783,-0.30947,-2.2521,6.923,1.4714,-0.49048,-1.6594,1.9619,-1.3047e-12,-0.82968,0,0,0.33333,-0,-0,0.66667
0.93421,0.46812,2.8026,-0.047826,-0.045242,0.43484,0.35743,-0.11914,-1.9929,0.47658,-8.5431e-08,-0.99644,0,0,0.33333,-2.9606e-16,0,0.66667
0.72548,0.45783,2.1764,-0.063254,-0.3229,3.6353,0.36711,-0.12237,-1.9851,0.48948,-2.0097e-11,-0.99256,0,0,0.33333,-7.8949e-16,0,0.66667
0.5866,0.51537,1.7598,0.023059,0.16805,7.062,-0.10821,0.03607,-1.9973,-0.14428,2.1946e-13,-0.99865,0,0,0.33333,-0,-0,0.66667
0.8653,0.82494,2.5959,0.48742,1.3054,1.4705,-3.3741,1.1247,-1.1546,-4.4988,1.6058e-09,-0.57729,0,0,0.33333,-0,-0,0.66667
0.99657,0.72698,2.9897,0.34047,-0.1297,0.16903,-2.7144,0.9048,-1.5876,-3.6192,-1.0483e-08,-0.79382,0,0,0.33333,-0,-2.7376e-17,0.66667
0.86511,0.50145,2.5953,0.0021719,0.0052881,1.1989,-0.015032,0.0050106,-2.0006,-0.020042,1.0248e-08,-1.0003,0,0,0.33333,-0,-0,0.66667
0.17918,0.052346,0.53755,-0.67148,-7.7213,21.215,0.96254,-0.32085,-0.39625,1.2834,2.5022e-10,-0.19812,0,0,0.33333,1.9737e-16,0,0.66667
0.69466,0.17494,2.084,-0.48758,-2.8633,4.5326,2.7097,-0.90322,-1.154,3.6129,-2.5204e-11,-0.57698,0,0,0.33333,-7.8949e-16,0,0.66667
0.29623,0.45335,0.88869,-0.069972,-0.72552,16.641,0.16582,-0.055274,-1.9824,0.2211,1.5503e-11,-0.9912,0,0,0.33333,-3.9475e-16,0,0.66667
0.059534,0.045189,0.1786,-0.68222,-8.0889,25.893,0.32492,-0.10831,-0.34466,0.43323,-1.7706e-07,-0.17233,0,0,0.33333,-0,-0,0.66667
0.10804,0.69653,0.32413,0.29479,3.3508,23.929,-0.2548,0.084934,-1.691,-0.33974,-1.0401e-09,-0.8455,0,0,0.33333,-0,-0,0.66667
0.76279,0.29964,2.2884,-0.30054,-1.3608,2.9654,1.834,-0.61133,-1.6784,2.4453,-1.3469e-10,-0.8392,0,0,0.33333,-0,-0,0.66667
