xi,eta,X,Y,uX,uY,epsilon_X,epsilon_Y,gamma_XY,sigma_XX,sigma_YY,sigma_XY,fx,fy,dxidx,dxidy,detadx,detady,
0.41702,0.7655,2.5021,0.39825,15.625,83.992,-2.6572,0.88574,-1.435,-3.543,7.423e-13,-0.71748,0,0,0.16667,7.8949e-16,0,0.66667
0.72032,0.30817,4.3219,-0.28774,-6.502,22.963,3.3163,-1.1054,-1.7068,4.4217,-5.9737e-12,-0.85342,0,0,0.16667,-0,-0,0.66667
0.00011437,0.73538,0.00068625,0.35307,16.787,200.47,-0.00064607,0.00021528,-1.5581,-0.00086146,-1.0989e-07,-0.77904,0,0,0.16667,-0,-0,0.66667
0.30233,0.8122,1.814,0.4683,20.257,113.69,-2.2653,0.7551,-1.2206,-3.0204,3.4113e-12,-0.61031,0,0,0.16667,-5.6745e-16,0,0.66667
0.14676,0.23669,0.88054,-0.39496,-18.383,157.35,0.9274,-0.30913,-1.444,1.2365,2.4795e-09,-0.72199,0,0,0.16667,1.9737e-16,0,0.66667
0.092339,0.062824,0.55403,-0.65576,-31.118,173.3,0.96884,-0.32295,-0.47307,1.2918,2.9834e-07,-0.23654,0,0,0.16667,3.9475e-16,0,0.66667
0.18626,0.62204,1.1176,0.18307,8.3819,145.91,-0.54557,0.18186,-1.8825,-0.72742,-4.3606e-10,-0.94125,0,0,0.16667,-0,-0,0.66667
0.34556,0.94394,2.0734,0.66591,28.064,102.41,-3.6818,1.2273,-0.42413,-4.909,-1.2124e-13,-0.21206,0,0,0.16667,-0,-0,0.66667
0.39677,0.34766,2.3806,-0.22851,-9.1208,88.91,1.4506,-0.48355,-1.8139,1.9342,-1.3483e-12,-0.90695,0,0,0.16667,-0,-0,0.66667
0.53882,0.43363,3.2329,-0.099561,-3.3344,55.772,0.85832,-0.28611,-1.9642,1.1444,-4.2188e-15,-0.98209,0,0,0.16667,1.9737e-16,0,0.66667
0.41919,0.27723,2.5152,-0.33416,-13.065,83.405,2.2412,-0.74708,-1.6036,2.9883,-6.5437e-13,-0.80182,0,0,0.16667,-3.9475e-16,0,0.66667
0.68522,0.69207,4.1113,0.28811,7.1928,28.37,-3.1587,1.0529,-1.7056,-4.2116,-4.8599e-12,-0.85282,0,0,0.16667,-0,-0,0.66667
0.20445,0.18359,1.2267,-0.47461,-21.663,140.82,1.5526,-0.51752,-1.2005,2.0701,1.8922e-10,-0.60027,0,0,0.16667,-0,-0,0.66667
0.87812,0.73211,5.2687,0.34817,3.6662,5.4244,-4.8917,1.6306,-1.5685,-6.5223,5.4197e-09,-0.78427,0,0,0.16667,-0,-0,0.66667
0.027388,0.7503,0.16433,0.37544,17.844,192.39,-0.16452,0.05484,-1.4997,-0.21936,7.1522e-08,-0.74983,0,0,0.16667,-0,-0,0.66667
0.67047,0.45507,4.0228,-0.067393,-1.7417,30.648,0.72295,-0.24098,-1.9843,0.96394,1.4205e-12,-0.99215,0,0,0.16667,-4.5011e-18,0,0.66667
0.4173,0.75403,2.5038,0.38104,14.94,83.907,-2.5442,0.84806,-1.4837,-3.3922,1.1189e-12,-0.74183,0,0,0.16667,1.579e-15,0,0.66667
0.55869,0.15501,3.3521,-0.51748,-16.928,51.988,4.6258,-1.5419,-1.0485,6.1677,-5.2802e-13,-0.52427,0,0,0.16667,1.0856e-15,0,0.66667
0.14039,0.66052,0.84232,0.24078,11.204,159.16,-0.54083,0.18028,-1.796,-0.72111,-2.004e-09,-0.89799,0,0,0.16667,-0,-0,0.66667
0.1981,0.29391,1.1886,-0.30913,-14.106,142.56,0.97984,-0.32661,-1.6591,1.3064,5.0668e-10,-0.82955,0,0,0.16667,-0,-0,0.66667
0.80074,0.44476,4.8045,-0.082854,-1.3792,12.383,1.0615,-0.35384,-1.9753,1.4154,-2.8786e-10,-0.98764,0,0,0.16667,1.579e-15,0,0.66667
0.96826,0.8319,5.8096,0.49785,1.3304,1.1968,-7.7127,2.5709,-1.1199,-10.284,-2.1027e-07,-0.55994,0,0,0.16667,-1.579e-15,0,0.66667
0.31342,0.90051,1.8805,0.60077,25.878,110.83,-3.0127,1.0042,-0.71814,-4.017,2.2313e-12,-0.35907,0,0,0.16667,5.9212e-16,0,0.66667
0.69232,0.31828,4.1539,-0.27258,-6.6747,27.22,3.0195,-1.0065,-1.7354,4.0259,4.0856e-12,-0.86769,0,0,0.16667,-1.579e-15,0,0.66667
0.87639,0.17908,5.2583,-0.48138,-5.1941,5.8114,6.75,-2.25,-1.1769,9,-6.4491e-09,-0.58845,0,0,0.16667,-0,-0,0.66667
0.89461,0.45874,5.3676,-0.061888,-0.55731,3.9916,0.88585,-0.29528,-1.9858,1.1811,1.6532e-08,-0.99288,0,0,0.16667,-0,-0,0.66667
0.085044,0.67898,0.51027,0.26847,12.657,175.36,-0.36531,0.12177,-1.7426,-0.48708,-1.7057e-09,-0.87129,0,0,0.16667,-9.8686e-17,0,0.66667
0.039055,0.41442,0.23433,-0.12837,-6.0796,188.93,0.080214,-0.026738,-1.9403,0.10695,1.9224e-09,-0.97013,0,0,0.16667,-0,-0,0.66667
0.16983,0.056519,1.019,-0.66522,-30.927,150.82,1.8076,-0.60253,-0.4273,2.4101,-2.0168e-09,-0.21365,0,0,0.16667,1.0056e-16,-1.2218e-16,0.66667
0.87814,0.85403,5.2689,0.53104,5.6793,5.799,-7.4613,2.4871,-0.99702,-9.9484,3.0717e-09,-0.49851,0,0,0.16667,-0,-0,0.66667
0.098347,0.88562,0.59008,0.57843,27.36,171.52,-0.91019,0.3034,-0.80949,-1.2136,-2.2782e-08,-0.40475,0,0,0.16667,-0,-0,0.66667
0.42111,0.88824,2.5266,0.58236,22.861,83.191,-3.9238,1.3079,-0.79505,-5.2317,1.2712e-12,-0.39752,0,0,0.16667,-7.8949e-16,1.9277e-16,0.66667
0.95789,0.4772,5.7473,-0.034205,-0.11546,0.86445,0.52423,-0.17474,-1.9951,0.69898,-6.609e-08,-0.99755,0,0,0.16667,-0,-0,0.66667
0.53317,0.77997,3.199,0.41995,14.259,57.217,-3.5824,1.1941,-1.3745,-4.7766,-1.8496e-13,-0.68726,0,0,0.16667,1.9737e-16,0,0.66667
0.69188,0.39922,4.1513,-0.15117,-3.6981,27.196,1.6735,-0.55782,-1.9183,2.2313,1.5731e-12,-0.95914,0,0,0.16667,1.1842e-15,0,0.66667
0.31552,0.26626,1.8931,-0.35062,-14.994,110.07,1.77,-0.59,-1.5625,2.36,-5.5937e-12,-0.78123,0,0,0.16667,-3.9475e-16,0,0.66667
0.6865,0.27109,4.119,-0.34337,-8.5559,28.228,3.7716,-1.2572,-1.5817,5.0288,4.7673e-12,-0.79084,0,0,0.16667,7.8949e-16,0,0.66667
0.83463,0.64719,5.0078,0.22078,3.0977,8.9564,-2.9483,0.98278,-1.8255,-3.9311,1.2156e-09,-0.91276,0,0,0.16667,-7.8949e-16,0,0.66667
0.018288,0.040255,0.10973,-0.68962,-33.028,195.1,0.20179,-0.067264,-0.3091,0.26905,-2.5222e-06,-0.15455,0,0,0.16667,-0,-0,0.66667
0.75014,0.38441,4.5009,-0.17338,-3.5434,18.666,2.0809,-0.69365,-1.8947,2.7746,-4.4784e-11,-0.94733,0,0,0.16667,1.579e-15,0,0.66667
0.98886,0.68293,5.9332,0.27439,0.15315,0.3288,-4.3414,1.4471,-1.7321,-5.7885,3.3849e-08,-0.86607,0,0,0.16667,-1.579e-15,0,0.66667
0.74817,0.69364,4.489,0.29045,5.9938,19.041,-3.4769,1.159,-1.7008,-4.6359,4.8743e-11,-0.85042,0,0,0.16667,-0,-0,0.66667
0.28044,0.87009,1.6827,0.55513,24.404,119.7,-2.4909,0.83031,-0.9059,-3.3212,4.1878e-13,-0.45295,0,0,0.16667,5.608e-16,-1.095e-16,0.66667
0.78928,0.78155,4.7357,0.42232,7.4748,14.056,-5.3333,1.7778,-1.366,-7.111,1.9904e-10,-0.68298,0,0,0.16667,-0,-0,0.66667
0.10323,0.17645,0.61936,-0.48532,-22.883,170.06,0.80157,-0.26719,-1.1613,1.0688,1.3292e-08,-0.58063,0,0,0.16667,-0,-0,0.66667
0.44789,0.24052,2.6874,-0.38921,-14.769,76.506,2.7892,-0.92974,-1.4604,3.719,-8.3755e-13,-0.73021,0,0,0.16667,3.9475e-16,0,0.66667
0.9086,0.94322,5.4516,0.66483,5.4841,4.1807,-9.6651,3.2217,-0.429,-12.887,1.9376e-07,-0.2145,0,0,0.16667,-0,-0,0.66667
0.29361,0.66536,1.7617,0.24804,10.751,115.92,-1.1653,0.38842,-1.781,-1.5537,1.4762e-12,-0.89049,0,0,0.16667,-0,-0,0.66667
0.28778,0.26459,1.7267,-0.35312,-15.386,117.56,1.6259,-0.54197,-1.5552,2.1679,-1.2071e-12,-0.77759,0,0,0.16667,3.9475e-16,0,0.66667
0.13003,0.17012,0.78017,-0.49481,-23.186,162.24,1.0294,-0.34315,-1.1283,1.3726,5.5143e-09,-0.56415,0,0,0.16667,-0,-0,0.66667
0.019367,0.14803,0.1162,-0.52795,-25.177,194.77,0.1636,-0.054532,-1.0086,0.21813,-3.5551e-07,-0.5043,0,0,0.16667,-0,-0,0.66667
0.67884,0.90997,4.073,0.61495,15.798,29.94,-6.6792,2.2264,-0.65488,-8.9057,-1.966e-12,-0.32744,0,0,0.16667,-0,-0,0.66667
0.21163,0.77616,1.2698,0.41424,18.825,138.76,-1.4026,0.46755,-1.3891,-1.8702,-2.0091e-10,-0.69457,0,0,0.16667,1.2531e-16,0,0.66667
0.26555,0.28807,1.5933,-0.3179,-14.031,123.63,1.3507,-0.45022,-1.6425,1.8009,1.9802e-11,-0.82127,0,0,0.16667,-0,-0,0.66667
0.49157,0.74725,2.9494,0.37088,13.337,66.332,-2.917,0.97234,-1.5106,-3.8894,-6.5703e-13,-0.75528,0,0,0.16667,3.9475e-16,0,0.66667
0.053363,0.86256,0.32018,0.54385,25.88,184.73,-0.46434,0.15478,-0.94698,-0.61912,-1.1502e-07,-0.47349,0,0,0.16667,-1.6188e-16,0,0.66667
0.57412,0.61368,3.4447,0.17051,5.3926,48.485,-1.5663,0.52211,-1.8959,-2.0884,-8.461e-13,-0.94795,0,0,0.16667,-0,-0,0.66667
0.14673,0.9395,0.88037,0.65924,30.875,157.47,-1.5477,0.51589,-0.45464,-2.0636,-4.2767e-09,-0.22732,0,0,0.16667,-0,-0,0.66667
0.58931,0.60561,3.5358,0.15841,4.8749,45.457,-1.4937,0.49789,-1.9099,-1.9916,-1.087e-12,-0.95494,0,0,0.16667,-0,-0,0.66667
0.69976,0.10229,4.1986,-0.59657,-14.486,26.58,6.6793,-2.2264,-0.73435,8.9057,2.5762e-12,-0.36718,0,0,0.16667,-0,-0,0.66667
0.10233,0.98938,0.61401,0.73408,34.849,170.41,-1.2019,0.40065,-0.082684,-1.6026,1.1731e-09,-0.041342,0,0,0.16667,1.9737e-16,0,0.66667
0.41406,0.98682,2.4843,0.73022,29.019,85.136,-4.8377,1.6126,-0.10258,-6.4502,8.9928e-13,-0.05129,0,0,0.16667,-7.8949e-16,0,0.66667
0.6944,0.90075,4.1664,0.60113,14.815,27.424,-6.6788,2.2263,-0.7144,-8.905,-2.4247e-12,-0.3572,0,0,0.16667,-1.1842e-15,0,0.66667
0.41418,0.73179,2.4851,0.34769,13.667,84.65,-2.3041,0.76803,-1.5687,-3.0721,1.2139e-12,-0.78434,0,0,0.16667,-0,-0,0.66667
0.049953,0.96362,0.29972,0.69543,33.24,185.77,-0.55583,0.18527,-0.28075,-0.7411,-4.1291e-07,-0.14037,0,0,0.16667,9.8686e-17,0,0.66667
0.5359,0.99431,3.2154,0.74146,25.36,57.167,-6.3576,2.1192,-0.04489,-8.4768,2.0517e-13,-0.022445,0,0,0.16667,1.1842e-15,0,0.66667
0.66379,0.020758,3.9828,-0.71886,-19.267,32.678,7.6348,-2.5449,-0.16126,10.18,4.4409e-13,-0.08063,0,0,0.16667,-0,-0,0.66667
0.51489,0.16433,3.0893,-0.50351,-17.6,61.288,4.148,-1.3827,-1.0999,5.5307,3.3884e-13,-0.54993,0,0,0.16667,-1.579e-15,0,0.66667
0.94459,0.88471,5.6676,0.57707,2.847,2.1775,-8.7216,2.9072,-0.81469,-11.629,9.6512e-10,-0.40734,0,0,0.16667,1.579e-15,0,0.66667
0.58656,0.11667,3.5193,-0.575,-17.966,46.477,5.3963,-1.7988,-0.82328,7.1951,7.2742e-13,-0.41164,0,0,0.16667,-0,-0,0.66667
0.9034,0.45466,5.4204,-0.068006,-0.56084,3.4331,0.98299,-0.32766,-1.9832,1.3107,3.8225e-09,-0.9916,0,0,0.16667,-0,-0,0.66667
0.13747,0.83135,0.82485,0.49702,23.243,160.08,-1.0932,0.36441,-1.1212,-1.4577,-4.9548e-09,-0.56062,0,0,0.16667,1.9737e-16,0,0.66667
0.13928,0.69424,0.83566,0.29136,13.57,159.5,-0.64928,0.21643,-1.6992,-0.8657,-3.2961e-09,-0.84959,0,0,0.16667,-0,-0,0.66667
0.80739,0.69526,4.8443,0.29288,4.7492,11.82,-3.7836,1.2612,-1.6942,-5.0447,6.1868e-10,-0.84712,0,0,0.16667,-0,-0,0.66667
0.39768,0.57866,2.3861,0.11799,4.7007,88.641,-0.75075,0.25025,-1.949,-1.001,6.1084e-13,-0.97449,0,0,0.16667,-7.8949e-16,0,0.66667
0.16535,0.083831,0.99213,-0.62425,-29.033,152.08,1.6516,-0.55052,-0.61319,2.2021,1.6466e-09,-0.30659,0,0,0.16667,-0,-0,0.66667
0.92751,0.26774,5.5651,-0.34839,-2.1773,2.3932,5.1702,-1.7234,-1.5671,6.8936,-1.3385e-09,-0.78357,0,0,0.16667,1.579e-15,0,0.66667
0.34777,0.76325,2.0866,0.39487,16.495,101.57,-2.1972,0.73239,-1.4448,-2.9296,3.9715e-12,-0.72239,0,0,0.16667,7.8949e-16,0,0.66667
0.75081,0.874,4.5049,0.56101,11.604,19.146,-6.7394,2.2465,-0.88327,-8.9858,2.9733e-11,-0.44164,0,0,0.16667,2.1711e-15,0,0.66667
0.726,0.49922,4.356,-0.0011652,-0.02577,21.976,0.013535,-0.0045118,-2,0.018047,1.9116e-12,-1,0,0,0.16667,1.579e-15,0,0.66667
0.88331,0.57864,5.2998,0.11796,1.1773,4.7939,-1.6671,0.55571,-1.949,-2.2228,-9.2441e-10,-0.9745,0,0,0.16667,-0,-0,0.66667
0.62367,0.62708,3.742,0.19062,5.4869,38.93,-1.9022,0.63406,-1.8726,-2.5363,-2.0854e-12,-0.93628,0,0,0.16667,-0,-0,0.66667
0.75094,0.38512,4.5057,-0.17233,-3.5119,18.558,2.0705,-0.69017,-1.8953,2.7607,-4.5872e-11,-0.94767,0,0,0.16667,-0,-0,0.66667
0.3489,0.51957,2.0934,0.029352,1.2203,101.13,-0.16386,0.054619,-1.9958,-0.21847,-1.2035e-13,-0.99792,0,0,0.16667,-0,-0,0.66667
0.26993,0.39182,1.6196,-0.16228,-7.1315,122.37,0.70084,-0.23361,-1.9054,0.93446,1.3434e-11,-0.95271,0,0,0.16667,3.9475e-16,0,0.66667
0.89589,0.25282,5.3753,-0.37077,-3.3495,4.2269,5.3147,-1.7716,-1.5111,7.0863,-7.3125e-09,-0.75556,0,0,0.16667,-3.158e-15,0,0.66667
0.42809,0.5703,2.5685,0.10546,4.074,81.115,-0.72232,0.24077,-1.9595,-0.9631,-3.9857e-13,-0.97973,0,0,0.16667,7.8949e-16,0,0.66667
0.96484,0.92833,5.789,0.64249,2.0308,1.7128,-9.9184,3.3061,-0.53177,-13.225,-1.896e-07,-0.26588,0,0,0.16667,-0,-0,0.66667
0.66344,0.16741,3.9806,-0.49889,-13.244,32.264,5.2957,-1.7652,-1.1137,7.061,3.9146e-12,-0.55684,0,0,0.16667,-1.579e-15,0,0.66667
0.6217,0.76088,3.7302,0.39132,11.357,39.489,-3.8926,1.2975,-1.4551,-5.1901,-2.2877e-12,-0.72755,0,0,0.16667,-0,-0,0.66667
0.11475,0.42252,0.68848,-0.11621,-5.4387,166.63,0.21336,-0.071121,-1.9507,0.28448,-1.2479e-09,-0.97536,0,0,0.16667,-0,-0,0.66667
0.94949,0.59068,5.6969,0.13602,0.56618,1.1986,-2.0664,0.6888,-1.9346,-2.7552,-8.71e-09,-0.96731,0,0,0.16667,-1.9737e-15,0,0.66667
0.44991,0.59821,2.6995,0.14731,5.5571,75.87,-1.0605,0.35348,-1.9232,-1.4139,2.085e-13,-0.96159,0,0,0.16667,-0,-0,0.66667
0.57839,0.016081,3.4703,-0.72588,-23.159,48.395,6.7175,-2.2392,-0.12777,8.9566,2.0339e-13,-0.063884,0,0,0.16667,-0,-0,0.66667
0.40814,0.79667,2.4488,0.44501,17.634,86.23,-2.906,0.96866,-1.296,-3.8746,1.6886e-12,-0.64801,0,0,0.16667,-0,-0,0.66667
0.23703,0.047652,1.4222,-0.67852,-30.667,131.79,2.5733,-0.85775,-0.36278,3.431,7.2513e-12,-0.18139,0,0,0.16667,-0,-0,0.66667
0.90338,0.069426,5.4203,-0.64586,-5.6039,4.4282,9.3353,-3.1118,-0.517,12.447,-2.3e-08,-0.2585,0,0,0.16667,-0,1.4589e-16,0.66667
0.57368,0.45803,3.4421,-0.062959,-1.991,48.535,0.57789,-0.19263,-1.9851,0.77052,3.5094e-13,-0.99254,0,0,0.16667,-7.8949e-16,0,0.66667
0.0028703,0.76336,0.017222,0.39504,18.795,199.65,-0.018142,0.0060473,-1.4448,-0.02419,-1.8089e-07,-0.7224,0,0,0.16667,-0,-0,0.66667
0.61714,0.86404,3.7029,0.54606,16.078,40.572,-5.392,1.7973,-0.9384,-7.1893,-1.0694e-12,-0.4692,0,0,0.16667,-0,-0,0.66667
0.32664,0.70793,1.9599,0.31189,13.223,107.08,-1.63,0.54335,-1.6547,-2.1734,4.8431e-12,-0.82733,0,0,0.16667,-0,-0,0.66667
0.52706,0.94802,3.1623,0.67203,23.219,58.918,-5.6671,1.889,-0.39351,-7.5562,-7.625e-13,-0.19676,0,0,0.16667,1.579e-15,0,0.66667
0.88594,0.046994,5.3157,-0.67951,-6.945,5.6646,9.6321,-3.2107,-0.35721,12.843,-8.3221e-10,-0.1786,0,0,0.16667,1.579e-15,0,0.66667
0.35727,0.87399,2.1436,0.56098,23.346,99.247,-3.2068,1.0689,-0.88257,-4.2757,2.7458e-12,-0.44129,0,0,0.16667,-2.4672e-16,-1.8481e-16,0.66667
0.90854,0.80798,5.4512,0.46198,3.7037,3.6304,-6.7156,2.2385,-1.2419,-8.9541,2.2163e-08,-0.62097,0,0,0.16667,1.9737e-15,0,0.66667
0.62336,0.040489,3.7402,-0.68927,-20.166,39.717,6.8746,-2.2915,-0.31136,9.1661,-5.6044e-13,-0.15568,0,0,0.16667,-0,-0,0.66667
0.015821,0.82076,0.094927,0.48114,22.924,195.82,-0.1218,0.040599,-1.1785,-0.16239,9.8678e-08,-0.58926,0,0,0.16667,-0,-0,0.66667
0.92944,0.52135,5.5766,0.032029,0.19066,2.0026,-0.4763,0.15877,-1.995,-0.63507,2.4318e-08,-0.99752,0,0,0.16667,-0,-0,0.66667
0.6909,0.64605,4.1454,0.21908,5.3793,27.397,-2.4218,0.80726,-1.8289,-3.229,-3.1808e-12,-0.91447,0,0,0.16667,-7.8949e-16,0,0.66667
0.99732,0.52553,5.9839,0.038299,-0.012448,0.028735,-0.61115,0.20372,-1.9952,-0.81486,2.2289e-06,-0.9976,0,0,0.16667,-0,-0,0.66667
0.17234,0.77014,1.034,0.40521,18.705,149.97,-1.1174,0.37245,-1.4174,-1.4898,-1.1668e-09,-0.70869,0,0,0.16667,-1.9737e-16,0,0.66667
0.13714,0.44245,0.82281,-0.086328,-4.0161,160.09,0.18942,-0.063139,-1.9737,0.25256,4.6167e-09,-0.98683,0,0,0.16667,3.9475e-16,0,0.66667
0.9326,0.1066,5.5956,-0.5901,-3.5586,2.718,8.8052,-2.9351,-0.76081,11.74,-1.4561e-07,-0.38041,0,0,0.16667,-0,-0,0.66667
0.69682,0.7649,4.1809,0.39735,9.6451,26.668,-4.43,1.4767,-1.4372,-5.9067,-4.7664e-12,-0.7186,0,0,0.16667,-0,-0,0.66667
0.066,0.68562,0.396,0.27842,13.166,180.97,-0.29402,0.098006,-1.725,-0.39202,9.168e-09,-0.86252,0,0,0.16667,1.3569e-16,0,0.66667
0.75546,0.78652,4.5328,0.42977,8.6872,18.269,-5.1949,1.7316,-1.3427,-6.9265,4.0504e-11,-0.67137,0,0,0.16667,-0,-0,0.66667
0.75388,0.82434,4.5233,0.48651,9.9163,18.583,-5.8683,1.9561,-1.1577,-7.8245,3.3417e-11,-0.57886,0,0,0.16667,-0,-0,0.66667
0.92302,0.66459,5.5381,0.24688,1.6257,2.467,-3.646,1.2153,-1.7842,-4.8614,-7.1466e-09,-0.89212,0,0,0.16667,-0,-0,0.66667
0.71152,0.45153,4.2691,-0.072711,-1.6812,24.124,0.82777,-0.27592,-1.9797,1.1037,-1.3204e-12,-0.98985,0,0,0.16667,-0,-0,0.66667
0.12427,0.41282,0.74563,-0.13077,-6.1059,163.84,0.26001,-0.08667,-1.9406,0.34668,5.3049e-09,-0.97032,0,0,0.16667,-3.9475e-16,0,0.66667
0.01988,0.41813,0.11928,-0.12281,-5.8228,194.61,0.039063,-0.013021,-1.9455,0.052085,-1.1908e-07,-0.97277,0,0,0.16667,-4.9343e-17,0,0.66667
0.026211,0.61218,0.15727,0.16828,7.9785,192.73,-0.070571,0.023524,-1.8982,-0.094094,-4.727e-08,-0.9491,0,0,0.16667,-0,-0,0.66667
0.028306,0.29358,0.16984,-0.30963,-14.7,192.12,0.14023,-0.046744,-1.6588,0.18697,-3.2552e-08,-0.8294,0,0,0.16667,-0,-0,0.66667
0.24621,0.89366,1.4773,0.59049,26.495,129.16,-2.3262,0.77539,-0.75953,-3.1016,-1.3818e-11,-0.37977,0,0,0.16667,3.9475e-16,0,0.66667
0.86003,0.69778,5.1602,0.29667,3.5615,6.7709,-4.0823,1.3608,-1.6882,-5.4431,3.1513e-09,-0.84409,0,0,0.16667,-0,-0,0.66667
0.53883,0.42705,3.233,-0.10943,-3.665,55.772,0.94341,-0.31447,-1.9561,1.2579,8.4044e-14,-0.97803,0,0,0.16667,-7.8949e-16,0,0.66667
0.55282,0.46517,3.3169,-0.052249,-1.7111,52.811,0.46215,-0.15405,-1.9899,0.6162,3.3173e-13,-0.99496,0,0,0.16667,-9.8686e-16,0,0.66667
0.84203,0.49463,5.0522,-0.008057,-0.10783,8.1513,0.10855,-0.036183,-2.0007,0.14473,8.5969e-10,-1.0004,0,0,0.16667,-3.9475e-16,0,0.66667
0.12417,0.052057,0.74504,-0.67191,-31.677,164.02,1.3349,-0.44498,-0.39576,1.7799,2.9785e-08,-0.19788,0,0,0.16667,-0,-0,0.66667
0.27918,0.28218,1.6751,-0.32673,-14.306,119.89,1.4595,-0.4865,-1.622,1.946,4.5857e-12,-0.81099,0,0,0.16667,-7.8949e-16,0,0.66667
0.58576,0.087677,3.5146,-0.61848,-19.386,46.714,5.7965,-1.9322,-0.63901,7.7287,4.2011e-13,-0.31951,0,0,0.16667,3.9475e-16,0,0.66667
0.9696,0.42581,5.8176,-0.11128,-0.25639,0.55398,1.7264,-0.57546,-1.9569,2.3019,2.1983e-07,-0.97843,0,0,0.16667,-0,-0,0.66667
0.56103,0.82255,3.3662,0.48383,15.749,51.457,-4.3431,1.4477,-1.1683,-5.7908,-7.1854e-13,-0.58413,0,0,0.16667,-0,-0,0.66667
0.018647,0.95834,0.11188,0.68752,32.925,195,-0.20512,0.068377,-0.3191,-0.2735,3.8271e-06,-0.15955,0,0,0.16667,-0,-0,0.66667
0.80063,0.53649,4.8038,0.054737,0.91143,12.387,-0.70119,0.23373,-1.9893,-0.93492,1.8204e-11,-0.99467,0,0,0.16667,-1.579e-15,0,0.66667
0.23297,0.36165,1.3978,-0.20753,-9.3089,132.66,0.77358,-0.25786,-1.8473,1.0314,1.1559e-10,-0.92367,0,0,0.16667,3.9475e-16,0,0.66667
0.80711,0.7965,4.8426,0.44475,7.2733,12.092,-5.7433,1.9144,-1.2954,-7.6578,4.126e-10,-0.64772,0,0,0.16667,-0,-0,0.66667
0.38786,0.95404,2.3272,0.68106,27.703,91.58,-4.2265,1.4088,-0.35048,-5.6353,1.5774e-12,-0.17524,0,0,0.16667,-7.8949e-16,-1.967e-16,0.66667
0.86354,0.49395,5.1813,-0.0090723,-0.10544,6.2789,0.12535,-0.041783,-1.9994,0.16713,-7.9296e-09,-0.99972,0,0,0.16667,-7.8949e-16,0,0.66667
0.74712,0.21536,4.4827,-0.42696,-8.8861,19.377,5.1039,-1.7013,-1.3525,6.8051,-2.843e-11,-0.67626,0,0,0.16667,2.2119e-16,0,0.66667
0.55624,0.57963,3.3374,0.11945,3.8916,52.118,-1.0631,0.35436,-1.9479,-1.4174,-8.1246e-13,-0.97393,0,0,0.16667,7.8949e-16,0,0.66667
0.13646,0.13934,0.81873,-0.54099,-25.333,160.39,1.1811,-0.39371,-0.95849,1.5749,-5.1534e-10,-0.47924,0,0,0.16667,1.9737e-16,0,0.66667
0.059918,0.79638,0.35951,0.44457,21.094,182.79,-0.4262,0.14207,-1.297,-0.56827,-1.0143e-08,-0.64852,0,0,0.16667,-0,-0,0.66667
0.12134,0.67439,0.72806,0.26159,12.237,164.72,-0.50788,0.16929,-1.756,-0.67717,-4.1353e-09,-0.87801,0,0,0.16667,-1.9737e-16,0,0.66667
0.044552,0.78309,0.26731,0.42464,20.174,187.32,-0.30269,0.1009,-1.3601,-0.40359,4.3403e-08,-0.68006,0,0,0.16667,-0,-0,0.66667
0.10749,0.66305,0.64496,0.24457,11.476,168.76,-0.42064,0.14021,-1.788,-0.56085,-1.538e-09,-0.89401,0,0,0.16667,3.9475e-16,0,0.66667
0.22571,0.069303,1.3543,-0.64604,-29.333,134.93,2.3331,-0.7777,-0.51504,3.1108,2.4981e-11,-0.25752,0,0,0.16667,-0,-0,0.66667
0.71299,0.38368,4.2779,-0.17448,-4.0212,23.952,1.9904,-0.66347,-1.8908,2.6539,-3.0286e-12,-0.94538,0,0,0.16667,-0,-0,0.66667
0.55972,0.083583,3.3583,-0.62462,-20.477,51.96,5.5938,-1.8646,-0.61265,7.4584,3.3706e-13,-0.30633,0,0,0.16667,-7.8949e-16,-2.6313e-16,0.66667
0.012556,0.90984,0.075336,0.61475,29.386,196.79,-0.1235,0.041166,-0.65682,-0.16467,-1.994e-06,-0.32841,0,0,0.16667,4.9343e-17,-2.3487e-16,0.66667
0.071974,0.96087,0.43185,0.69131,32.95,179.29,-0.79611,0.26537,-0.29976,-1.0615,-1.086e-06,-0.14988,0,0,0.16667,4.9343e-17,0,0.66667
0.96728,0.87002,5.8037,0.55503,1.5686,1.3778,-8.5898,2.8633,-0.90587,-11.453,-2.1673e-07,-0.45294,0,0,0.16667,1.1842e-15,0,0.66667
0.5681,0.29118,3.4086,-0.31323,-10.032,49.808,2.8471,-0.94904,-1.6501,3.7962,6.5903e-13,-0.82504,0,0,0.16667,-0,-0,0.66667
0.20329,0.30427,1.2198,-0.29359,-13.365,141.08,0.95497,-0.31832,-1.6952,1.2733,4.1862e-10,-0.84758,0,0,0.16667,-0,-0,0.66667
0.25233,0.6315,1.514,0.19724,8.7578,127.25,-0.79631,0.26544,-1.8622,-1.0617,-4.5365e-11,-0.93108,0,0,0.16667,-0,-0,0.66667
0.74383,0.86372,4.463,0.54558,11.549,20.054,-6.4931,2.1644,-0.94038,-8.6574,6.4415e-12,-0.47019,0,0,0.16667,-7.8949e-16,0,0.66667
0.19543,0.70603,1.1726,0.30905,14.118,143.32,-0.96635,0.32212,-1.6589,-1.2885,-5.6199e-10,-0.82946,0,0,0.16667,1.9737e-16,0,0.66667
0.58136,0.27133,3.4882,-0.34301,-10.742,47.172,3.1906,-1.0635,-1.5813,4.2542,8.4932e-13,-0.79067,0,0,0.16667,-0,-0,0.66667
0.97002,0.50071,5.8201,0.0010632,0.0023928,0.51109,-0.016501,0.0054963,-2.0021,-0.022004,-6.208e-06,-1.001,0,0,0.16667,-0,-0,0.66667
0.84683,0.79527,5.081,0.4429,5.8455,8.1568,-6.001,2.0003,-1.3021,-8.0013,2.1692e-09,-0.65104,0,0,0.16667,-1.579e-15,0,0.66667
0.23985,0.60418,1.4391,0.15627,6.9824,130.73,-0.59971,0.1999,-1.9121,-0.79961,-7.3357e-11,-0.95604,0,0,0.16667,-0,-0,0.66667
0.49377,0.38588,2.9626,-0.17118,-6.1187,65.693,1.3524,-0.45079,-1.8945,1.8032,4.3743e-13,-0.94727,0,0,0.16667,-7.8949e-16,0,0.66667
0.61996,0.74546,3.7197,0.36819,10.718,39.782,-3.6522,1.2174,-1.5177,-4.8696,-2.5202e-12,-0.75884,0,0,0.16667,-0,-0,0.66667
0.82898,0.13694,4.9739,-0.54459,-8.0263,10.052,7.2233,-2.4078,-0.94636,9.6311,-5.9166e-11,-0.47318,0,0,0.16667,-1.579e-15,0,0.66667
0.15679,0.99325,0.94075,0.73987,34.629,154.61,-1.8561,0.61869,-0.05521,-2.4748,-4.9436e-10,-0.027605,0,0,0.16667,9.8686e-17,0,0.66667
0.018576,0.083942,0.11146,-0.62409,-29.834,195.01,0.18549,-0.061831,-0.61499,0.24732,-6.2639e-07,-0.30749,0,0,0.16667,-0,-0,0.66667
0.070022,0.79263,0.42013,0.43894,20.797,179.81,-0.49177,0.16392,-1.3135,-0.65569,-1.7058e-08,-0.65677,0,0,0.16667,-1.9737e-16,0,0.66667
0.48635,0.22987,2.9181,-0.4052,-14.682,67.555,3.1531,-1.051,-1.4165,4.2041,-3.6438e-13,-0.70823,0,0,0.16667,-0,-0,0.66667
0.60633,0.37903,3.638,-0.18145,-5.4079,42.176,1.7603,-0.58676,-1.8834,2.347,8.3544e-13,-0.94171,0,0,0.16667,1.579e-15,0,0.66667
0.56885,0.14636,3.4131,-0.53046,-17.068,49.934,4.828,-1.6093,-0.99831,6.4374,7.2298e-13,-0.49915,0,0,0.16667,-7.8949e-16,0,0.66667
0.31736,0.37352,1.9042,-0.18972,-8.0857,109.5,0.96335,-0.32112,-1.8723,1.2845,-3.3495e-12,-0.93615,0,0,0.16667,-9.8686e-17,0,0.66667
0.98862,0.025421,5.9317,-0.71187,-0.73237,1.4699,11.26,-3.7534,-0.19794,15.014,-2.2448e-05,-0.09897,0,0,0.16667,-1.579e-15,0,0.66667
0.57975,0.7844,3.4785,0.4266,13.426,47.593,-3.9571,1.319,-1.3543,-5.2761,-8.1868e-13,-0.67717,0,0,0.16667,-1.579e-15,0,0.66667
0.38014,0.34034,2.2808,-0.2395,-9.7092,93.12,1.4567,-0.48556,-1.7959,1.9422,-1.89e-12,-0.89795,0,0,0.16667,-9.8686e-17,0,0.66667
0.55095,0.34642,3.3057,-0.23037,-7.5796,53.277,2.0308,-0.67692,-1.8116,2.7077,1.8785e-13,-0.9058,0,0,0.16667,-0,-0,0.66667
0.74533,0.65726,4.472,0.23588,4.9086,19.368,-2.813,0.93767,-1.8026,-3.7507,4.1324e-11,-0.90129,0,0,0.16667,-0,-0,0.66667
0.66923,0.98039,4.0154,0.72058,19.064,31.773,-7.7158,2.5719,-0.15369,-10.288,2.5002e-13,-0.076844,0,0,0.16667,-0,-0,0.66667
0.26492,0.49757,1.5895,-0.0036445,-0.16053,123.74,0.015448,-0.0051494,-2.002,0.020598,5.2834e-12,-1.001,0,0,0.16667,-9.8686e-17,0,0.66667
0.066335,0.40013,0.39801,-0.1498,-7.075,180.86,0.15899,-0.052998,-1.9201,0.21199,-2.0414e-08,-0.96003,0,0,0.16667,-0,-0,0.66667
0.37008,0.11586,2.2205,-0.57621,-23.732,95.964,3.4119,-1.1373,-0.81865,4.5492,-7.5562e-13,-0.40933,0,0,0.16667,-3.9475e-16,0,0.66667
0.62972,0.21454,3.7783,-0.4282,-12.235,38.069,4.3143,-1.4381,-1.3479,5.7524,2.5464e-12,-0.67395,0,0,0.16667,-3.9475e-16,0,0.66667
0.21017,0.31647,1.261,-0.2753,-12.492,139.12,0.92577,-0.30859,-1.73,1.2344,3.0694e-10,-0.86498,0,0,0.16667,-0,-0,0.66667
0.75276,0.78244,4.5165,0.42366,8.6444,18.616,-5.1026,1.7009,-1.363,-6.8035,3.1519e-11,-0.68148,0,0,0.16667,-3.158e-15,0,0.66667
0.066536,0.79272,0.39922,0.43907,20.814,180.83,-0.46743,0.15581,-1.3138,-0.62324,-1.313e-08,-0.6569,0,0,0.16667,-0,-0,0.66667
0.26032,0.77512,1.5619,0.41268,18.299,125.13,-1.7188,0.57295,-1.3938,-2.2918,-2.4555e-11,-0.69692,0,0,0.16667,-0,-0,0.66667
0.80475,0.67466,4.8285,0.262,4.2972,12.071,-3.3735,1.1245,-1.7544,-4.498,5.1689e-10,-0.87722,0,0,0.16667,-0,-0,0.66667
0.19343,0.05046,1.1606,-0.67431,-31.08,144.08,2.087,-0.69565,-0.38202,2.7826,-7.3056e-11,-0.19101,0,0,0.16667,-0,-0,0.66667
0.63946,0.055376,3.8368,-0.66694,-18.841,36.761,6.8237,-2.2746,-0.41956,9.0982,-3.5527e-14,-0.20978,0,0,0.16667,-0,-1.3895e-16,0.66667
0.52467,0.41447,3.148,-0.1283,-4.3903,58.824,1.077,-0.359,-1.9404,1.436,4.1822e-13,-0.97019,0,0,0.16667,-0,-0,0.66667
0.92481,0.049945,5.5488,-0.67508,-4.6151,3.3505,9.9892,-3.3297,-0.37926,13.319,-2.3803e-07,-0.18963,0,0,0.16667,-0,-0,0.66667
0.2633,0.1957,1.5798,-0.45646,-20.223,124.33,1.9229,-0.64098,-1.2595,2.5639,6.6535e-12,-0.62974,0,0,0.16667,-0,-0,0.66667
0.065961,0.014927,0.39577,-0.72761,-34.748,181.06,0.7679,-0.25597,-0.117,1.0239,-1.3731e-07,-0.058502,0,0,0.16667,-1.9737e-16,0,0.66667
0.73507,0.81244,4.4104,0.46866,10.174,21.112,-5.5119,1.8373,-1.2216,-7.3492,1.5441e-12,-0.61082,0,0,0.16667,-6.2913e-16,0,0.66667
0.77218,0.33477,4.6331,-0.24785,-4.6744,15.876,3.0621,-1.0207,-1.7804,4.0828,-1.403e-10,-0.89021,0,0,0.16667,-0,-0,0.66667
0.90782,0.26441,5.4469,-0.35339,-2.8229,3.4581,5.133,-1.711,-1.5563,6.844,-8.3936e-09,-0.77815,0,0,0.16667,-0,-0,0.66667
0.93197,0.019914,5.5918,-0.72013,-4.5102,3.1696,10.738,-3.5794,-0.15497,14.318,-2.3492e-07,-0.077487,0,0,0.16667,-0,-0,0.66667
0.013952,0.031277,0.083709,-0.70308,-33.692,196.38,0.15695,-0.0523,-0.24432,0.20927,2.4327e-05,-0.12216,0,0,0.16667,4.9343e-17,0,0.66667
0.23436,0.086751,1.4062,-0.61987,-28.005,132.49,2.3244,-0.7748,-0.6357,3.0992,3.0929e-11,-0.31785,0,0,0.16667,-3.9475e-16,1.3722e-16,0.66667
0.61678,0.47309,3.7007,-0.040361,-1.1769,40.153,0.3983,-0.13277,-1.9936,0.53106,6.7493e-13,-0.99678,0,0,0.16667,-0,-0,0.66667
0.94902,0.076726,5.6941,-0.63491,-2.9234,2.1894,9.6407,-3.2136,-0.56584,12.854,-3.8651e-07,-0.28292,0,0,0.16667,1.579e-15,5.8574e-17,0.66667
0.95018,0.57818,5.7011,0.11728,0.48023,1.1614,-1.7829,0.59431,-1.9507,-2.3772,-3.9283e-08,-0.97534,0,0,0.16667,-0,-0,0.66667
0.55665,0.69103,3.3399,0.28655,9.3495,52.133,-2.5521,0.8507,-1.7077,-3.4028,-9.8566e-13,-0.85386,0,0,0.16667,-0,-0,0.66667
0.91561,0.67466,5.4936,0.26199,1.8988,2.8785,-3.8381,1.2794,-1.7546,-5.1174,2.3396e-09,-0.87729,0,0,0.16667,1.579e-15,0,0.66667
0.64157,0.022684,3.8494,-0.71597,-20.184,36.504,7.3495,-2.4498,-0.17842,9.7994,9.5479e-14,-0.089211,0,0,0.16667,-0,-0,0.66667
0.39001,0.92783,2.34,0.64175,26.018,90.986,-4.0046,1.3349,-0.53685,-5.3395,9.4591e-13,-0.26843,0,0,0.16667,-0,-1.6867e-16,0.66667
0.48599,0.037084,2.9159,-0.69437,-25.4,68.048,5.3993,-1.7998,-0.28664,7.1991,-1.3389e-12,-0.14332,0,0,0.16667,-0,-0,0.66667
0.60431,0.18248,3.6259,-0.47628,-14.347,42.874,4.6051,-1.535,-1.1931,6.1401,1.4322e-12,-0.59653,0,0,0.16667,-4.3167e-16,0,0.66667
0.54955,0.60082,3.2973,0.15123,4.9822,53.525,-1.3297,0.44325,-1.9189,-1.773,-3.8325e-13,-0.95946,0,0,0.16667,-0,-0,0.66667
0.92618,0.76435,5.5571,0.39653,2.5396,2.5465,-5.8761,1.9587,-1.44,-7.8348,1.3125e-08,-0.72,0,0,0.16667,-0,-0,0.66667
0.91873,0.23191,5.5124,-0.40214,-2.8427,2.9375,5.9114,-1.9705,-1.4245,7.8818,-1.0891e-08,-0.71227,0,0,0.16667,-1.579e-15,0,0.66667
0.39488,0.80231,2.3693,0.45346,18.204,89.547,-2.865,0.95499,-1.2682,-3.8199,1.2994e-12,-0.63408,0,0,0.16667,-0,-0,0.66667
0.96326,0.9542,5.7796,0.6813,2.2892,1.8885,-10.5,3.5001,-0.34832,-14.001,3.7003e-06,-0.17416,0,0,0.16667,-1.579e-15,0,0.66667
0.17396,0.49282,1.0437,-0.010764,-0.49474,149.43,0.029959,-0.0099862,-2.0001,0.039945,2.9741e-10,-1.0001,0,0,0.16667,5.9212e-16,0,0.66667
0.12633,0.56279,0.75798,0.094185,4.3946,163.24,-0.19037,0.063458,-1.9706,-0.25383,3.2744e-09,-0.98529,0,0,0.16667,-3.9475e-16,0,0.66667
0.13508,0.38654,0.81047,-0.17019,-7.9258,160.7,0.36782,-0.12261,-1.8958,0.49043,1.9789e-09,-0.94792,0,0,0.16667,-0,-0,0.66667
0.50566,0.27933,3.034,-0.331,-11.67,63.131,2.678,-0.89267,-1.6104,3.5707,4.6163e-13,-0.80522,0,0,0.16667,-1.1842e-15,0,0.66667
0.021525,0.19526,0.12915,-0.45711,-21.764,194.13,0.15743,-0.052476,-1.2561,0.2099,-1.6058e-07,-0.62806,0,0,0.16667,-0,-0,0.66667
0.94797,0.55603,5.6878,0.084049,0.36048,1.2262,-1.2748,0.42494,-1.9743,-1.6998,-7.5719e-09,-0.98713,0,0,0.16667,-0,-0,0.66667
0.82712,0.79877,4.9627,0.44815,6.6269,10.024,-5.9308,1.9769,-1.2866,-7.9077,9.5858e-10,-0.6433,0,0,0.16667,-1.579e-15,0,0.66667
0.015019,0.87567,0.090114,0.56351,26.899,196.06,-0.13541,0.045138,-0.87348,-0.18055,3.4942e-07,-0.43674,0,0,0.16667,-4.9343e-17,0,0.66667
0.1762,0.039335,1.0572,-0.691,-32.077,149.01,1.948,-0.64934,-0.30174,2.5974,1.8263e-10,-0.15087,0,0,0.16667,-0,-0,0.66667
0.33206,0.4427,1.9924,-0.085955,-3.6214,105.56,0.45668,-0.15223,-1.9737,0.60891,-2.2418e-12,-0.98683,0,0,0.16667,-0,-0,0.66667
0.131,0.50089,0.78598,0.0013316,0.062044,161.88,-0.0027911,0.00093035,-2.0001,-0.0037214,-4.8037e-09,-1.0001,0,0,0.16667,-0,-0,0.66667
0.80949,0.9747,4.8569,0.71206,11.741,12.503,-9.2225,3.0742,-0.19746,-12.297,1.237e-10,-0.09873,0,0,0.16667,-0,-0,0.66667
0.34474,0.29184,2.0684,-0.31224,-13.056,102.31,1.7222,-0.57408,-1.6542,2.2963,-4.0721e-12,-0.82711,0,0,0.16667,-0,-0,0.66667
0.94011,0.84743,5.6406,0.52114,2.7494,2.2024,-7.8388,2.6129,-1.0351,-10.452,-7.7462e-09,-0.51756,0,0,0.16667,-0,-0,0.66667
0.58201,0.85033,3.4921,0.52549,16.523,47.288,-4.8935,1.6312,-1.0179,-6.5246,-7.2387e-13,-0.50897,0,0,0.16667,-0,-0,0.66667
0.87883,0.39457,5.273,-0.15814,-1.6399,5.1461,2.2237,-0.74123,-1.9104,2.9649,-5.3273e-09,-0.9552,0,0,0.16667,-0,-0,0.66667
0.84473,0.6288,5.0684,0.1932,2.551,7.9874,-2.6113,0.87042,-1.869,-3.4817,8.3972e-10,-0.93448,0,0,0.16667,-0,-0,0.66667
0.90539,0.41505,5.4324,-0.12742,-1.0304,3.3399,1.8459,-0.6153,-1.9434,2.4612,-8.5761e-09,-0.97169,0,0,0.16667,1.579e-15,0,0.66667
0.45988,0.91288,2.7593,0.61932,23.326,73.953,-4.557,1.519,-0.63529,-6.0761,2.1183e-13,-0.31765,0,0,0.16667,-0,-0,0.66667
0.54635,0.89228,3.2781,0.58842,19.681,54.668,-5.1437,1.7146,-0.76996,-6.8582,-3.0198e-14,-0.38498,0,0,0.16667,-7.8949e-16,0,0.66667
0.7986,0.060767,4.7916,-0.65885,-11.368,13.533,8.4185,-2.8062,-0.45818,11.225,8.7049e-11,-0.22909,0,0,0.16667,1.579e-15,0,0.66667
0.28572,0.024953,1.7143,-0.71257,-31.371,118.41,3.2575,-1.0858,-0.19424,4.3434,-2.0761e-12,-0.097122,0,0,0.16667,-3.9475e-16,0,0.66667
0.49025,0.70925,2.9415,0.31387,11.294,66.58,-2.462,0.82068,-1.6486,-3.2827,-1.7364e-13,-0.82431,0,0,0.16667,3.9475e-16,0,0.66667
0.59911,0.031142,3.5947,-0.70329,-21.591,44.298,6.7415,-2.2472,-0.2418,8.9887,4.9916e-13,-0.1209,0,0,0.16667,-6.9081e-16,0,0.66667
0.015533,0.94002,0.0932,0.66003,31.587,195.91,-0.16403,0.054678,-0.45356,-0.21871,-8.3964e-08,-0.22678,0,0,0.16667,-0,-0,0.66667
0.59348,0.86699,3.5609,0.55048,16.968,45.08,-5.2272,1.7424,-0.92415,-6.9696,-8.4954e-13,-0.46208,0,0,0.16667,3.9475e-16,1.635e-16,0.66667
0.43368,0.57866,2.6021,0.118,4.5314,79.761,-0.81875,0.27292,-1.9497,-1.0917,1.2657e-14,-0.97486,0,0,0.16667,7.8949e-16,0,0.66667
0.80736,0.82224,4.8442,0.48336,7.9131,12.142,-6.2439,2.0813,-1.1683,-8.3252,4.1191e-10,-0.58417,0,0,0.16667,-0,-0,0.66667
0.31524,0.61723,1.8915,0.17584,7.5047,110.06,-0.88693,0.29564,-1.8902,-1.1826,2.6179e-12,-0.94509,0,0,0.16667,-0,-0,0.66667
0.89289,0.51368,5.3573,0.020517,0.18771,4.0976,-0.2931,0.097701,-1.9985,-0.3908,2.1196e-08,-0.99923,0,0,0.16667,-0,-0,0.66667
0.57786,0.70046,3.4671,0.30069,9.4663,47.829,-2.7801,0.92669,-1.6798,-3.7068,-7.8115e-13,-0.83988,0,0,0.16667,-0,-0,0.66667
0.18401,0.33289,1.1041,-0.25067,-11.495,146.57,0.73802,-0.24601,-1.7761,0.98402,8.3962e-10,-0.88805,0,0,0.16667,-0,-0,0.66667
0.78793,0.74957,4.7276,0.37435,6.6492,14.134,-4.7194,1.5731,-1.5019,-6.2925,2.9126e-10,-0.75093,0,0,0.16667,1.9737e-16,0,0.66667
0.61203,0.16101,3.6722,-0.50849,-15.105,41.463,4.9794,-1.6598,-1.0812,6.6392,9.7966e-13,-0.54061,0,0,0.16667,-0,-0,0.66667
0.053909,0.075316,0.32346,-0.63703,-30.385,184.59,0.54947,-0.18315,-0.55569,0.73262,3.8501e-07,-0.27784,0,0,0.16667,-0,-0,0.66667
0.42019,0.076161,2.5212,-0.63576,-25.024,83.488,4.2743,-1.4248,-0.56317,5.699,-1.0747e-13,-0.28158,0,0,0.16667,-0,-1.9425e-16,0.66667
0.67907,0.014685,4.0744,-0.72797,-18.805,30.177,7.9095,-2.6365,-0.11423,10.546,1.12e-12,-0.057117,0,0,0.16667,-3.158e-15,0,0.66667
0.9186,0.96902,5.5116,0.70354,5.2246,3.7608,-10.34,3.4468,-0.24122,-13.787,1.8881e-07,-0.12061,0,0,0.16667,-0,6.8742e-18,0.66667
0.00040202,0.73607,0.0024121,0.3541,16.836,200.38,-0.0022777,0.00075916,-1.5553,-0.003037,-1.1068e-07,-0.77764,0,0,0.16667,-0,-0,0.66667
0.97676,0.16819,5.8606,-0.49772,-0.93508,0.99714,7.7784,-2.5928,-1.1178,10.371,4.1748e-07,-0.55888,0,0,0.16667,-1.579e-15,0,0.66667
0.37658,0.33489,2.2595,-0.24766,-10.073,94.032,1.4922,-0.49741,-1.7826,1.9896,-2.3175e-12,-0.89128,0,0,0.16667,-0,-0,0.66667
0.97378,0.62236,5.8427,0.18354,0.35523,0.50651,-2.8597,0.95322,-1.8802,-3.8129,-5.4124e-08,-0.94011,0,0,0.16667,1.7764e-15,0,0.66667
0.60472,0.84913,3.6283,0.5237,15.789,42.873,-5.067,1.689,-1.0245,-6.756,-9.9787e-13,-0.51227,0,0,0.16667,-0,-0,0.66667
0.82885,0.61039,4.9731,0.16559,2.396,9.4707,-2.1959,0.73198,-1.9034,-2.9279,8.8995e-10,-0.95169,0,0,0.16667,-1.579e-15,0,0.66667
0.57471,0.63837,3.4483,0.20755,6.56,48.387,-1.9085,0.63616,-1.8463,-2.5446,-1.0201e-12,-0.92313,0,0,0.16667,-0,-0,0.66667
0.62808,0.19138,3.7685,-0.46293,-13.288,38.42,4.6521,-1.5507,-1.2385,6.2028,2.1063e-12,-0.61926,0,0,0.16667,-0,-0,0.66667
0.28558,0.93256,1.7135,0.64883,28.509,118.38,-2.9647,0.98822,-0.50299,-3.9529,6.4526e-13,-0.2515,0,0,0.16667,-0,-0,0.66667
0.58683,0.65822,3.521,0.23733,7.3442,45.993,-2.2284,0.74279,-1.7995,-2.9711,-7.3275e-13,-0.89977,0,0,0.16667,-0,-0,0.66667
0.75002,0.052986,4.5001,-0.67052,-14.001,19.521,8.0465,-2.6822,-0.40306,10.729,4.1078e-12,-0.20153,0,0,0.16667,-0,-0,0.66667
0.85831,0.94407,5.1499,0.66611,8.3364,7.7284,-9.1477,3.0492,-0.42361,-12.197,-8.5088e-09,-0.2118,0,0,0.16667,-0,-0,0.66667
0.75508,0.10195,4.5305,-0.59707,-12.192,18.665,7.2134,-2.4045,-0.73168,9.6178,-7.6934e-12,-0.36584,0,0,0.16667,-1.579e-15,0,0.66667
0.69806,0.58231,4.1883,0.12346,2.9684,26.209,-1.379,0.45966,-1.9447,-1.8386,-9.6301e-13,-0.97237,0,0,0.16667,-0,-0,0.66667
0.86448,0.19316,5.1869,-0.46025,-5.4148,6.6907,6.3661,-2.122,-1.2463,8.4881,-1.5109e-09,-0.62316,0,0,0.16667,-0,-0,0.66667
0.32268,0.015682,1.9361,-0.72648,-31.214,108.5,3.7507,-1.2502,-0.12221,5.001,-1.7617e-12,-0.061107,0,0,0.16667,7.8949e-16,0,0.66667
0.67079,0.14898,4.0247,-0.52653,-13.746,31.082,5.6511,-1.8837,-1.0154,7.5348,3.3058e-12,-0.50769,0,0,0.16667,-0,2.5717e-16,0.66667
0.45087,0.66329,2.7052,0.24493,9.2391,75.687,-1.7669,0.58898,-1.7872,-2.3559,4.4831e-13,-0.89358,0,0,0.16667,-0,-0,0.66667
0.3821,0.65826,2.2926,0.23738,9.6062,92.62,-1.4513,0.48376,-1.7994,-1.935,1.2313e-12,-0.89971,0,0,0.16667,1.579e-15,0,0.66667
0.41081,0.60289,2.4649,0.15434,6.0718,85.376,-1.0145,0.33816,-1.9146,-1.3526,8.4277e-13,-0.95728,0,0,0.16667,7.8949e-16,0,0.66667
0.40148,0.65624,2.4089,0.23436,9.3127,87.733,-1.5055,0.50182,-1.8053,-2.0073,5.8342e-13,-0.90266,0,0,0.16667,2.6561e-16,0,0.66667
0.31738,0.90403,1.9043,0.60605,26.037,109.78,-3.0776,1.0259,-0.69419,-4.1035,2.3535e-12,-0.34709,0,0,0.16667,-1.9737e-16,0,0.66667
0.62192,0.25607,3.7315,-0.3659,-10.607,39.416,3.641,-1.2137,-1.5241,4.8546,1.8314e-12,-0.76207,0,0,0.16667,1.579e-15,0,0.66667
0.43025,0.91629,2.5815,0.62444,24.313,81.025,-4.2986,1.4329,-0.61229,-5.7315,1.3456e-13,-0.30614,0,0,0.16667,-0,-0,0.66667
0.9738,0.26277,5.8428,-0.35584,-0.72237,0.74742,5.5443,-1.8481,-1.5487,7.3924,5.5624e-08,-0.77433,0,0,0.16667,-0,-0,0.66667
0.6778,0.52651,4.0668,0.039763,1.0087,29.428,-0.43122,0.14374,-1.9938,-0.57497,-6.0746e-13,-0.99692,0,0,0.16667,-0,-0,0.66667
0.19857,0.55568,1.1914,0.083525,3.803,142.38,-0.26537,0.088456,-1.9747,-0.35382,-3.0036e-10,-0.98735,0,0,0.16667,1.9737e-16,0,0.66667
0.4267,0.66776,2.5602,0.25163,9.749,81.513,-1.718,0.57265,-1.7739,-2.2906,5.9952e-13,-0.88693,0,0,0.16667,-0,-0,0.66667
0.34335,0.20883,2.0601,-0.43675,-18.324,102.76,2.3993,-0.79977,-1.3231,3.1991,-4.7133e-12,-0.66154,0,0,0.16667,-0,-0,0.66667
0.79764,0.69944,4.7858,0.29916,5.0769,12.908,-3.8179,1.2726,-1.6827,-5.0905,4.3245e-10,-0.84136,0,0,0.16667,-0,-0,0.66667
0.88,0.89083,5.28,0.58625,6.2155,5.8079,-8.2544,2.7515,-0.77682,-11.006,-8.8036e-09,-0.38841,0,0,0.16667,-1.579e-15,0,0.66667
0.90384,0.68531,5.4231,0.27797,2.3027,3.5812,-4.0198,1.3399,-1.7264,-5.3598,3.6219e-09,-0.8632,0,0,0.16667,5.9212e-16,0,0.66667
0.66272,0.6735,3.9763,0.26025,6.8721,32.065,-2.7596,0.91986,-1.7577,-3.6794,-4.7766e-12,-0.87887,0,0,0.16667,7.8949e-16,0,0.66667
0.27021,0.57254,1.6212,0.1088,4.7791,122.29,-0.4704,0.1568,-1.9571,-0.62719,-1.0996e-11,-0.97854,0,0,0.16667,-0,-0,0.66667
0.25237,0.90755,1.5142,0.61133,27.355,127.47,-2.4685,0.82282,-0.67251,-3.2913,-9.226e-13,-0.33626,0,0,0.16667,-0,-0,0.66667
0.8549,0.60397,5.1294,0.15596,1.9278,7.0593,-2.1333,0.71108,-1.9127,-2.8443,1.937e-09,-0.95636,0,0,0.16667,-0,-0,0.66667
0.52771,0.4464,3.1663,-0.080401,-2.7381,58.15,0.67886,-0.22629,-1.9767,0.90514,-5.1309e-13,-0.98833,0,0,0.16667,1.579e-15,0,0.66667
0.80216,0.39913,4.813,-0.1513,-2.5046,12.26,1.9418,-0.64728,-1.9179,2.5891,-2.5791e-10,-0.95894,0,0,0.16667,7.8949e-16,0,0.66667
0.57249,0.070747,3.4349,-0.64388,-20.678,49.402,5.8978,-1.9659,-0.52499,7.8638,1.2346e-13,-0.2625,0,0,0.16667,-0,-0,0.66667
0.73314,0.94816,4.3989,0.67224,14.847,21.837,-7.8855,2.6285,-0.39395,-10.514,1.3607e-12,-0.19697,0,0,0.16667,-1.579e-15,1.7742e-16,0.66667
0.51901,0.096499,3.1141,-0.60525,-21.103,60.542,5.0261,-1.6754,-0.69805,6.7015,-4.5297e-14,-0.34903,0,0,0.16667,-0,-0,0.66667
0.77088,0.68874,4.6253,0.28311,5.372,16.076,-3.4919,1.164,-1.7152,-4.6558,1.5158e-10,-0.85762,0,0,0.16667,-0,-0,0.66667
0.56886,0.32867,3.4131,-0.257,-8.2116,49.606,2.3391,-0.7797,-1.7637,3.1188,5.5778e-13,-0.88186,0,0,0.16667,-7.8949e-16,0,0.66667
0.46571,0.26073,2.7943,-0.3589,-13.329,72.274,2.6743,-0.89143,-1.5417,3.5657,-2.0561e-13,-0.77086,0,0,0.16667,-0,-0,0.66667
0.34269,0.83409,2.0561,0.50114,21.068,102.99,-2.7477,0.91591,-1.108,-3.6637,3.4479e-12,-0.55398,0,0,0.16667,-0,-0,0.66667
0.068209,0.32015,0.40926,-0.26978,-12.752,180.32,0.29442,-0.09814,-1.7403,0.39256,-8.1147e-09,-0.87017,0,0,0.16667,-0,-0,0.66667
0.37792,0.6022,2.2675,0.1533,6.2215,93.651,-0.92694,0.30898,-1.9164,-1.2359,1.659e-12,-0.9582,0,0,0.16667,-0,-0,0.66667
0.079626,0.7934,0.47776,0.44011,20.823,176.98,-0.5607,0.1869,-1.3118,-0.7476,-1.9765e-08,-0.65588,0,0,0.16667,-0,-0,0.66667
0.98282,0.91129,5.8969,0.61694,0.89254,1.2281,-9.7014,3.2338,-0.64783,-12.935,-1.2051e-07,-0.32392,0,0,0.16667,-0,1.068e-16,0.66667
0.18161,0.26992,1.0897,-0.34513,-15.861,147.28,1.0029,-0.33429,-1.5752,1.3372,9.0069e-10,-0.78762,0,0,0.16667,-0,-0,0.66667
0.81186,0.75257,4.8712,0.37885,6.0344,11.465,-4.9212,1.6404,-1.4918,-6.5616,7.098e-10,-0.74589,0,0,0.16667,-3.158e-15,0,0.66667
0.87496,0.75787,5.2498,0.3868,4.1871,5.727,-5.415,1.805,-1.4698,-7.22,5.4547e-09,-0.73491,0,0,0.16667,1.579e-15,0,0.66667
0.68841,0.50119,4.1305,0.0017857,0.044048,27.705,-0.019668,0.0065561,-2.0022,-0.026225,-1.037e-12,-1.0011,0,0,0.16667,3.158e-15,0,0.66667
0.56949,0.1455,3.417,-0.53175,-17.092,49.806,4.8452,-1.6151,-0.99331,6.4603,4.1922e-13,-0.49665,0,0,0.16667,7.8949e-16,0,0.66667
0.16097,0.39547,0.96583,-0.15679,-7.2436,153.18,0.40383,-0.13461,-1.9117,0.53844,8.988e-10,-0.95583,0,0,0.16667,1.9737e-16,0,0.66667
0.46688,0.13774,2.8013,-0.54339,-20.247,72.207,4.0592,-1.3531,-0.95035,5.4122,-4.1789e-13,-0.47518,0,0,0.16667,-0,-0,0.66667
0.34517,0.58735,2.071,0.13102,5.4657,102.12,-0.72361,0.2412,-1.94,-0.96481,2.9157e-12,-0.96999,0,0,0.16667,-1.9737e-16,0,0.66667
0.22504,0.22191,1.3502,-0.41714,-18.841,134.97,1.502,-0.50065,-1.381,2.0026,1.4941e-10,-0.69049,0,0,0.16667,-0,-0,0.66667
0.59251,0.67916,3.5551,0.26873,8.2341,44.904,-2.5477,0.84922,-1.7441,-3.3969,-1.6127e-12,-0.87206,0,0,0.16667,3.9475e-16,0,0.66667
0.31227,0.47161,1.8736,-0.042588,-1.8201,110.84,0.21278,-0.070928,-1.9959,0.28371,-1.2901e-12,-0.99795,0,0,0.16667,7.8949e-16,0,0.66667
0.91631,0.91367,5.4978,0.6205,4.6627,3.6133,-9.0971,3.0324,-0.63019,-12.13,1.1873e-08,-0.31509,0,0,0.16667,-3.158e-15,0,0.66667
0.90964,0.17183,5.4578,-0.49225,-3.9139,3.6367,7.1643,-2.3881,-1.1378,9.5524,-6.8505e-09,-0.56892,0,0,0.16667,-0,-0,0.66667
0.25712,0.53442,1.5427,0.051628,2.2843,125.9,-0.21239,0.070797,-1.9901,-0.28319,-9.7054e-12,-0.99504,0,0,0.16667,-0,-0,0.66667
0.11089,0.86258,0.66535,0.54387,25.634,167.84,-0.96497,0.32166,-0.9487,-1.2866,-7.0689e-09,-0.47435,0,0,0.16667,1.9737e-16,0,0.66667
0.19296,0.99456,1.1578,0.74184,34.273,144.26,-2.2904,0.76345,-0.042722,-3.0538,1.4274e-10,-0.021361,0,0,0.16667,5.9212e-16,0,0.66667
0.49958,0.71834,2.9975,0.32751,11.642,64.486,-2.6179,0.87262,-1.6213,-3.4905,-3.4284e-13,-0.81067,0,0,0.16667,2.9606e-16,0,0.66667
0.72859,0.25635,4.3715,-0.36547,-8.0678,21.863,4.2605,-1.4202,-1.5243,5.6806,-1.1109e-11,-0.76217,0,0,0.16667,-0,-0,0.66667
0.20819,0.34881,1.2492,-0.22678,-10.293,139.67,0.75543,-0.25181,-1.8167,1.0072,3.1995e-10,-0.90837,0,0,0.16667,-0,-0,0.66667
0.24803,0.42095,1.4882,-0.11857,-5.2739,128.43,0.47056,-0.15685,-1.9501,0.62741,3.8169e-11,-0.97506,0,0,0.16667,-0,-0,0.66667
0.85167,0.62289,5.11,0.18434,2.3291,7.361,-2.5119,0.8373,-1.8789,-3.3492,9.1257e-10,-0.93946,0,0,0.16667,5.9212e-16,0,0.66667
0.41585,0.92533,2.4951,0.63799,25.225,84.556,-4.2449,1.415,-0.55148,-5.6599,1.0183e-12,-0.27574,0,0,0.16667,-0,-0,0.66667
0.61669,0.80406,3.7001,0.45609,13.399,40.509,-4.5002,1.5001,-1.2592,-6.0003,-1.712e-12,-0.62961,0,0,0.16667,-0,-0,0.66667
0.23367,0.01841,1.402,-0.72239,-32.751,132.77,2.7008,-0.90025,-0.1455,3.601,-2.5311e-11,-0.072749,0,0,0.16667,-0,-0,0.66667
0.10197,0.34928,0.6118,-0.22608,-10.619,170.38,0.36885,-0.12295,-1.8174,0.4918,1.4337e-09,-0.90872,0,0,0.16667,-0,-0,0.66667
0.51586,0.46645,3.0951,-0.05032,-1.7434,60.73,0.41533,-0.13844,-1.9935,0.55377,6.1712e-13,-0.99673,0,0,0.16667,-1.0856e-15,0,0.66667
0.47714,0.213,2.8628,-0.43049,-15.791,69.692,3.2865,-1.0955,-1.3402,4.382,1.9829e-13,-0.67011,0,0,0.16667,-0,-0,0.66667
0.15267,0.02292,0.91603,-0.71562,-33.512,155.78,1.7481,-0.58269,-0.17885,2.3308,1.522e-09,-0.089423,0,0,0.16667,-0,-0,0.66667
0.62181,0.75101,3.7308,0.37651,10.921,39.45,-3.7459,1.2486,-1.4969,-4.9945,-2.331e-12,-0.74847,0,0,0.16667,-0,-0,0.66667
0.54401,0.69071,3.2641,0.28607,9.525,54.776,-2.49,0.83,-1.7097,-3.32,-7.1498e-13,-0.85487,0,0,0.16667,-0,-0,0.66667
0.65414,0.1128,3.9248,-0.58081,-15.814,34.007,6.0788,-2.0263,-0.80068,8.1051,1.8474e-12,-0.40034,0,0,0.16667,-7.8949e-16,0,0.66667
0.14455,0.12956,0.86727,-0.55567,-25.968,158.05,1.2851,-0.42837,-0.90221,1.7135,2.4998e-09,-0.4511,0,0,0.16667,-0,-0,0.66667
0.75153,0.27947,4.5092,-0.3308,-6.755,18.639,3.9777,-1.3259,-1.6126,5.3036,-5.4603e-11,-0.8063,0,0,0.16667,9.8686e-16,0,0.66667
0.22205,0.25541,1.3323,-0.36688,-16.579,135.79,1.3034,-0.43448,-1.5216,1.7379,1.7672e-10,-0.76079,0,0,0.16667,-0,-0,0.66667
0.51935,0.46352,3.1161,-0.05472,-1.8864,59.964,0.45471,-0.15157,-1.9894,0.60628,-7.7133e-14,-0.99468,0,0,0.16667,-7.8949e-16,0,0.66667
0.7853,0.42123,4.7118,-0.11816,-2.1068,14.18,1.4846,-0.49488,-1.9495,1.9795,-1.571e-10,-0.97475,0,0,0.16667,-0,-0,0.66667
0.02233,0.58435,0.13398,0.12653,5.9986,193.88,-0.045207,0.015069,-1.9419,-0.060275,9.5539e-08,-0.97093,0,0,0.16667,-0,-0,0.66667
0.32436,0.65355,1.9462,0.23033,9.7709,107.65,-1.1954,0.39846,-1.8118,-1.5938,4.8044e-12,-0.90589,0,0,0.16667,-4.9343e-16,0,0.66667
0.87292,0.19874,5.2375,-0.45189,-4.9947,6.0093,6.3115,-2.1038,-1.2741,8.4153,-4.738e-09,-0.63705,0,0,0.16667,-0,-0,0.66667
0.84471,0.51017,5.0683,0.015252,0.20083,7.9061,-0.20614,0.068714,-2.0001,-0.27486,-1.2928e-09,-1,0,0,0.16667,-0,-0,0.66667
0.53844,0.56601,3.2306,0.099019,3.3182,55.852,-0.85306,0.28435,-1.9646,-1.1374,-8.0425e-13,-0.98232,0,0,0.16667,1.579e-15,0,0.66667
0.86661,0.38999,5.1996,-0.16502,-1.8806,6.0934,2.2881,-0.76269,-1.9017,3.0508,-1.1575e-09,-0.95083,0,0,0.16667,-1.579e-15,0,0.66667
0.94981,0.8486,5.6988,0.52291,2.2997,1.8327,-7.9465,2.6488,-1.028,-10.595,2.9606e-08,-0.51402,0,0,0.16667,-0,-0,0.66667
0.82641,0.60697,4.9584,0.16046,2.3526,9.7088,-2.1216,0.70721,-1.9087,-2.8288,7.9588e-10,-0.95437,0,0,0.16667,1.579e-15,0,0.66667
0.85412,0.52038,5.1247,0.030564,0.37903,7.0734,-0.41769,0.13923,-1.9956,-0.55692,1.0356e-10,-0.9978,0,0,0.16667,-0,-0,0.66667
0.098743,0.73637,0.59246,0.35456,16.692,171.35,-0.56017,0.18672,-1.5519,-0.74689,-7.4044e-09,-0.77594,0,0,0.16667,-0,-0,0.66667
0.6513,0.435,3.9078,-0.097499,-2.6388,33.928,1.016,-0.33868,-1.9663,1.3547,2.122e-12,-0.98313,0,0,0.16667,-0,-0,0.66667
0.70352,0.62066,4.2211,0.18099,4.2884,25.395,-2.0373,0.67911,-1.8855,-2.7164,-2.7867e-13,-0.94276,0,0,0.16667,3.9475e-16,0,0.66667
0.61024,0.35589,3.6614,-0.21617,-6.3964,41.456,2.1106,-0.70354,-1.8347,2.8142,1.3984e-12,-0.91736,0,0,0.16667,-0,-0,0.66667
0.79962,0.88475,4.7977,0.57712,9.8524,13.205,-7.3836,2.4612,-0.81567,-9.8449,-6.7737e-11,-0.40784,0,0,0.16667,1.579e-15,0,0.66667
0.034571,0.93998,0.20743,0.65997,31.554,190.29,-0.36506,0.12169,-0.45197,-0.48675,-3.2616e-07,-0.22598,0,0,0.16667,-9.8686e-17,0,0.66667
0.77024,0.15509,4.6214,-0.51737,-9.9424,16.542,6.3759,-2.1253,-1.0487,8.5012,-1.2459e-10,-0.52435,0,0,0.16667,-1.579e-15,0,0.66667
0.73173,0.61159,4.3904,0.16738,3.6397,21.209,-1.9596,0.65321,-1.9002,-2.6128,1.64e-11,-0.95008,0,0,0.16667,-0,-0,0.66667
0.2597,0.55495,1.5582,0.08243,3.6423,125.19,-0.34251,0.11417,-1.9749,-0.45668,-1.828e-11,-0.98746,0,0,0.16667,3.9475e-16,0,0.66667
0.25707,0.081222,1.5424,-0.62817,-28.05,126.18,2.5837,-0.86124,-0.59555,3.445,2.838e-12,-0.29777,0,0,0.16667,-0,-0,0.66667
0.6323,0.95857,3.7938,0.68785,19.753,38.089,-6.9589,2.3196,-0.31639,-9.2786,-4.4498e-13,-0.15819,0,0,0.16667,-7.8949e-16,0,0.66667
0.3453,0.50138,2.0718,0.0020751,0.086516,102.07,-0.011464,0.0038215,-2.0017,-0.015286,1.0041e-13,-1.0009,0,0,0.16667,1.579e-15,0,0.66667
0.79659,0.49989,4.7795,-0.00016278,-0.0027603,12.837,0.0020747,-0.00069157,-2.0029,0.0027663,-1.4627e-10,-1.0014,0,0,0.16667,5.0577e-15,0,0.66667
0.44615,0.54442,2.6769,0.066626,2.5229,76.748,-0.4756,0.15853,-1.9827,-0.63413,-1.3095e-13,-0.99137,0,0,0.16667,-7.8949e-16,0,0.66667
0.78275,0.6879,4.6965,0.28185,5.0986,14.621,-3.5299,1.1766,-1.7195,-4.7066,2.2732e-10,-0.85977,0,0,0.16667,-0,-0,0.66667
0.99047,0.67713,5.9428,0.2657,0.10634,0.29351,-4.2107,1.4036,-1.7478,-5.6142,3.8426e-08,-0.87389,0,0,0.16667,-0,-0,0.66667
0.30025,0.3487,1.8015,-0.22695,-9.7913,114.12,1.0903,-0.36342,-1.8171,1.4537,-2.2344e-12,-0.90853,0,0,0.16667,-7.8949e-16,0,0.66667
0.14301,0.21311,0.85803,-0.43034,-20.065,158.45,0.98465,-0.32822,-1.3421,1.3129,3.1463e-09,-0.67106,0,0,0.16667,2.9606e-16,0,0.66667
0.90131,0.60768,5.4079,0.16153,1.365,3.6144,-2.3294,0.77646,-1.9061,-3.1058,-3.1902e-09,-0.95305,0,0,0.16667,-1.579e-15,0,0.66667
0.54156,0.77411,3.2494,0.41117,13.78,55.42,-3.5628,1.1876,-1.3981,-4.7504,-3.2774e-13,-0.69907,0,0,0.16667,-0,-0,0.66667
0.97474,0.61732,5.8484,0.17598,0.32435,0.4774,-2.7446,0.91486,-1.8889,-3.6594,1.5527e-09,-0.94447,0,0,0.16667,7.8949e-16,0,0.66667
0.6366,0.46662,3.8196,-0.050077,-1.4005,36.518,0.51007,-0.17002,-1.9915,0.68009,9.4813e-13,-0.99575,0,0,0.16667,-9.8686e-16,0,0.66667
0.99391,0.27526,5.9635,-0.3371,-0.039461,0.36359,5.3608,-1.7869,-1.5952,7.1478,-8.2026e-08,-0.7976,0,0,0.16667,1.579e-15,0,0.66667
0.54607,0.10574,3.2764,-0.59139,-19.792,54.731,5.1671,-1.7224,-0.75736,6.8894,3.6104e-13,-0.37868,0,0,0.16667,-1.579e-15,0,0.66667
0.52643,0.39061,3.1586,-0.16408,-5.6021,58.457,1.382,-0.46067,-1.9032,1.8427,6.6835e-14,-0.95158,0,0,0.16667,-0,-0,0.66667
0.13543,0.69224,0.81257,0.28837,13.444,160.61,-0.62484,0.20828,-1.704,-0.83312,-3.7333e-09,-0.85198,0,0,0.16667,-0,-0,0.66667
0.35571,0.048348,2.1342,-0.67748,-28.332,99.789,3.8557,-1.2852,-0.36738,5.141,-1.0087e-12,-0.18369,0,0,0.16667,3.9475e-16,-2.5471e-16,0.66667
0.026219,0.56508,0.15731,0.09762,4.6265,192.73,-0.040951,0.013651,-1.9661,-0.054601,7.2494e-07,-0.98307,0,0,0.16667,-0,-0,0.66667
0.1604,0.055937,0.96237,-0.6661,-31.068,153.53,1.7094,-0.5698,-0.42214,2.2792,3.2418e-10,-0.21107,0,0,0.16667,1.9737e-16,0,0.66667
0.74564,0.14103,4.4738,-0.53846,-11.324,19.792,6.424,-2.1413,-0.96812,8.5653,-9.603e-12,-0.48406,0,0,0.16667,-0,-0,0.66667
0.0304,0.50571,0.1824,0.0085664,0.40581,191.49,-0.004167,0.0013919,-2.0012,-0.0055546,4.3702e-06,-1.0006,0,0,0.16667,-0,-0,0.66667
0.36654,0.95013,2.1993,0.67519,27.98,96.993,-3.9598,1.3199,-0.37764,-5.2797,3.9324e-13,-0.18882,0,0,0.16667,-0,-0,0.66667
0.86235,0.0080939,5.1741,-0.73786,-9.0657,7.6288,10.181,-3.3935,-0.064203,13.574,2.8352e-09,-0.032102,0,0,0.16667,-0,-0,0.66667
0.69268,0.3833,4.1561,-0.17505,-4.2743,27.083,1.94,-0.64667,-1.8902,2.5867,2.2317e-12,-0.94511,0,0,0.16667,-0,-0,0.66667
0.69094,0.14015,4.1457,-0.53977,-13.388,27.839,5.9672,-1.9891,-0.96345,7.9563,3.9626e-12,-0.48173,0,0,0.16667,-0,-0,0.66667
0.18864,0.91449,1.1318,0.62174,28.668,145.41,-1.8765,0.62551,-0.62654,-2.502,2.4729e-10,-0.31327,0,0,0.16667,-0,-0,0.66667
0.4419,0.37747,2.6514,-0.18379,-6.9983,77.799,1.2995,-0.43316,-1.8801,1.7326,-3.7703e-13,-0.94006,0,0,0.16667,-0,-0,0.66667
0.58158,0.72005,3.4895,0.33007,10.33,47.115,-3.0714,1.0238,-1.6134,-4.0952,-1.0405e-12,-0.80671,0,0,0.16667,-0,-0,0.66667
0.98975,0.53793,5.9385,0.056899,0.022687,0.12579,-0.90105,0.30035,-1.9878,-1.2014,-2.8114e-06,-0.99389,0,0,0.16667,-0,-0,0.66667
0.20391,0.43516,1.2234,-0.097265,-4.4188,140.86,0.31733,-0.10578,-1.9684,0.4231,2.5945e-10,-0.98421,0,0,0.16667,9.8686e-17,0,0.66667
0.24773,0.10903,1.4864,-0.58645,-26.289,128.73,2.3245,-0.77484,-0.77709,3.0994,1.5955e-11,-0.38855,0,0,0.16667,-3.9475e-16,0,0.66667
0.26217,0.87064,1.573,0.55596,24.706,124.71,-2.3321,0.77738,-0.90125,-3.1095,3.0367e-12,-0.45063,0,0,0.16667,-0,-0,0.66667
0.75017,0.16266,4.501,-0.50601,-10.459,19.114,6.0735,-2.0245,-1.0915,8.098,-1.0993e-11,-0.54573,0,0,0.16667,1.579e-15,0,0.66667
0.45698,0.75884,2.7419,0.38826,14.579,74.352,-2.8388,0.94628,-1.4635,-3.7851,2.78e-13,-0.73177,0,0,0.16667,-0,-0,0.66667
0.056929,0.63569,0.34158,0.20353,9.6277,183.64,-0.18539,0.061796,-1.8516,-0.24718,3.6174e-08,-0.92579,0,0,0.16667,-9.8686e-17,0,0.66667
0.50852,0.45822,3.0511,-0.062668,-2.1939,62.354,0.50988,-0.16996,-1.9847,0.67984,3.1469e-13,-0.99235,0,0,0.16667,-7.8949e-16,0,0.66667
0.21196,0.051528,1.2718,-0.67271,-30.763,138.82,2.2814,-0.76047,-0.38964,3.0419,5.3122e-11,-0.19482,0,0,0.16667,1.9737e-16,0,0.66667
0.7986,0.30729,4.7916,-0.28906,-4.8824,12.787,3.6935,-1.2312,-1.7039,4.9247,-4.6066e-10,-0.85195,0,0,0.16667,3.9475e-16,0,0.66667
0.29733,0.52923,1.784,0.043851,1.8933,114.87,-0.20861,0.069537,-1.9955,-0.27815,-1.2276e-13,-0.99776,0,0,0.16667,-4.9343e-16,0,0.66667
0.027606,0.46876,0.16564,-0.046866,-2.2206,192.32,0.020701,-0.0068986,-1.9932,0.027602,2.413e-06,-0.99659,0,0,0.16667,9.8686e-17,0,0.66667
0.59343,0.62718,3.5606,0.19077,5.8281,44.667,-1.8113,0.60378,-1.873,-2.4151,-1.0384e-12,-0.93651,0,0,0.16667,-0,-0,0.66667
0.84384,0.30896,5.063,-0.28656,-3.8177,8.1697,3.869,-1.2897,-1.7104,5.1586,-1.8125e-09,-0.85518,0,0,0.16667,1.9737e-15,0,0.66667
0.38102,0.89776,2.2861,0.59664,24.353,93.2,-3.6373,1.2124,-0.73326,-4.8497,7.9003e-13,-0.36663,0,0,0.16667,3.9475e-16,0,0.66667
0.74986,0.95443,4.4991,0.68164,14.252,19.573,-8.1781,2.726,-0.34926,-10.904,-4.2286e-12,-0.17463,0,0,0.16667,-0,-0,0.66667
0.51114,0.4202,3.0668,-0.11969,-4.1762,61.786,0.97888,-0.32629,-1.9481,1.3052,4.946e-13,-0.97403,0,0,0.16667,-7.8949e-16,0,0.66667
0.54095,0.70737,3.2457,0.31106,10.411,55.444,-2.6923,0.89743,-1.6547,-3.5897,-4.2211e-13,-0.82736,0,0,0.16667,-0,-0,0.66667
0.95943,0.57324,5.7566,0.10986,0.35642,0.84319,-1.6864,0.56213,-1.9558,-2.2485,2.2876e-07,-0.97791,0,0,0.16667,-0,-0,0.66667
0.80396,0.57202,4.8238,0.10803,1.7721,12.036,-1.3896,0.4632,-1.9572,-1.8528,3.502e-10,-0.97862,0,0,0.16667,-0,-0,0.66667
0.032323,0.24778,0.19394,-0.37832,-17.976,190.93,0.19566,-0.065219,-1.493,0.26088,-6.9435e-08,-0.74649,0,0,0.16667,-0,-0,0.66667
0.70939,0.71073,4.2563,0.3161,7.3858,24.626,-3.5878,1.1959,-1.6437,-4.7837,-6.3771e-13,-0.82185,0,0,0.16667,7.8949e-16,0,0.66667
0.465,0.32335,2.79,-0.26497,-9.8332,72.366,1.9714,-0.65713,-1.7498,2.6285,-7.5562e-13,-0.87489,0,0,0.16667,-0,-0,0.66667
0.94755,0.90312,5.6853,0.60468,2.8414,2.1482,-9.1674,3.0558,-0.69975,-12.223,-2.0797e-07,-0.34987,0,0,0.16667,6.7528e-16,0,0.66667
0.22143,0.92424,1.3286,0.63635,28.943,136.13,-2.2546,0.75152,-0.55994,-3.0061,-1.2857e-11,-0.27997,0,0,0.16667,3.9475e-16,0,0.66667
0.26707,0.027346,1.6024,-0.70898,-31.56,123.5,3.0296,-1.0099,-0.21414,4.0394,-8.8285e-13,-0.10707,0,0,0.16667,1.9737e-16,0,0.66667
0.081474,0.59929,0.48884,0.14893,7.0177,176.4,-0.19414,0.064714,-1.9213,-0.25886,-1.2911e-09,-0.96063,0,0,0.16667,-0,-0,0.66667
0.42862,0.26328,2.5717,-0.35508,-13.752,81.118,2.4351,-0.8117,-1.5503,3.2468,6.4393e-15,-0.77513,0,0,0.16667,-7.8949e-16,0,0.66667
0.10902,0.46135,0.65411,-0.057968,-2.7158,168.3,0.10111,-0.033705,-1.9896,0.13482,-1.189e-08,-0.99482,0,0,0.16667,-9.8686e-17,0,0.66667
0.63379,0.33156,3.8027,-0.25267,-7.1257,37.13,2.5622,-0.85406,-1.7716,3.4163,2.3135e-12,-0.8858,0,0,0.16667,7.8949e-16,0,0.66667
0.80296,0.89313,4.8178,0.58969,9.924,12.866,-7.576,2.5253,-0.76225,-10.101,2.2098e-10,-0.38113,0,0,0.16667,-0,-0,0.66667
0.6968,0.209,4.1808,-0.4365,-10.611,26.731,4.8665,-1.6222,-1.3213,6.4886,4.8925e-12,-0.66067,0,0,0.16667,-7.8949e-16,0,0.66667
0.76621,0.18089,4.5973,-0.47867,-9.3217,16.97,5.8681,-1.956,-1.1869,7.8242,-4.4156e-11,-0.59344,0,0,0.16667,1.1842e-15,0,0.66667
0.34245,0.071596,2.0547,-0.64261,-27.128,103.19,3.521,-1.1737,-0.53255,4.6947,-7.9714e-13,-0.26627,0,0,0.16667,-0,-0,0.66667
0.84585,0.9988,5.0751,0.74821,10.217,9.0647,-10.126,3.3753,-0.011028,-13.501,1.2828e-09,-0.0055142,0,0,0.16667,-5.033e-15,0,0.66667
0.42877,0.20554,2.5726,-0.44169,-17.135,81.16,3.0301,-1.01,-1.3049,4.0402,-8.5953e-13,-0.65244,0,0,0.16667,7.8949e-16,0,0.66667
0.82401,0.509,4.9441,0.013498,0.20011,9.8931,-0.17796,0.05932,-1.9988,-0.23728,3.2467e-11,-0.99938,0,0,0.16667,-0,-0,0.66667
0.6265,0.23424,3.759,-0.39864,-11.458,38.616,3.996,-1.332,-1.4353,5.328,2.311e-12,-0.71767,0,0,0.16667,-0,-0,0.66667
0.14342,0.33686,0.86054,-0.2447,-11.377,158.28,0.56154,-0.18718,-1.7873,0.74872,2.4189e-09,-0.89364,0,0,0.16667,9.8686e-17,0,0.66667
0.078387,0.42365,0.47032,-0.11453,-5.3985,177.31,0.14364,-0.047881,-1.9546,0.19152,3.952e-09,-0.97729,0,0,0.16667,-0,-0,0.66667
0.018333,0.35307,0.11,-0.2204,-10.458,195.07,0.064648,-0.021549,-1.8273,0.086198,-7.6303e-09,-0.91363,0,0,0.16667,-4.9343e-17,0,0.66667
0.066725,0.97154,0.40035,0.70731,33.754,180.83,-0.75512,0.25171,-0.22144,-1.0068,-4.484e-08,-0.11072,0,0,0.16667,-0,-0,0.66667
0.45858,0.0013703,2.7515,-0.74794,-28.349,74.472,5.4879,-1.8293,-0.01109,7.3172,7.1498e-14,-0.0055448,0,0,0.16667,-0,-0,0.66667
0.11334,0.96778,0.68005,0.70167,33.197,167.18,-1.2725,0.42416,-0.2501,-1.6966,-1.3756e-08,-0.12505,0,0,0.16667,2.0971e-16,0,0.66667
0.027783,0.34728,0.1667,-0.22908,-10.866,192.27,0.10183,-0.033944,-1.8138,0.13578,5.3481e-09,-0.9069,0,0,0.16667,9.8686e-17,0,0.66667
0.75486,0.18688,4.5292,-0.46968,-9.5318,18.42,5.6727,-1.8909,-1.2161,7.5636,-5.8255e-11,-0.60805,0,0,0.16667,2.0231e-15,0,0.66667
0.39485,0.25428,2.3691,-0.36858,-14.77,89.48,2.3285,-0.77618,-1.5169,3.1047,-1.5516e-12,-0.75847,0,0,0.16667,-0,-0,0.66667
0.74694,0.36221,4.4816,-0.20668,-4.2743,19.124,2.47,-0.82334,-1.8477,3.2934,-4.3979e-11,-0.92386,0,0,0.16667,-7.8949e-16,0,0.66667
0.4524,0.14295,2.7144,-0.53558,-20.293,75.597,3.8768,-1.2923,-0.98101,5.169,-6.8723e-13,-0.4905,0,0,0.16667,-0,-0,0.66667
0.45009,0.72696,2.7005,0.34044,12.873,75.941,-2.4517,0.81722,-1.5878,-3.2689,-6.4171e-14,-0.79392,0,0,0.16667,7.8949e-16,0,0.66667
0.47807,0.38599,2.8684,-0.17101,-6.2378,69.278,1.3081,-0.43602,-1.8947,1.7441,-9.8033e-14,-0.94737,0,0,0.16667,-0,-0,0.66667
0.474,0.36327,2.844,-0.2051,-7.5222,70.235,1.5555,-0.5185,-1.8493,2.074,-4.0334e-13,-0.92465,0,0,0.16667,-0,-0,0.66667
0.80316,0.22394,4.819,-0.4141,-6.8869,12.467,5.3214,-1.7738,-1.3896,7.0952,-5.2472e-10,-0.69482,0,0,0.16667,-0,-0,0.66667
0.40239,0.26003,2.4144,-0.35996,-14.319,87.585,2.3175,-0.7725,-1.5387,3.09,-1.3887e-12,-0.76937,0,0,0.16667,-0,-0,0.66667
0.90469,0.54607,5.4281,0.069107,0.56223,3.355,-1.0003,0.33344,-1.9834,-1.3338,-2.1514e-09,-0.99168,0,0,0.16667,-0,-0,0.66667
0.037061,0.36103,0.22237,-0.20845,-9.8796,189.52,0.12361,-0.041202,-1.8442,0.16481,8.7527e-09,-0.92209,0,0,0.16667,-0,-0,0.66667
0.77387,0.022193,4.6432,-0.71671,-13.763,16.598,8.8743,-2.9581,-0.17237,11.832,1.8225e-11,-0.086185,0,0,0.16667,-0,-0,0.66667
0.12564,0.30208,0.75385,-0.29688,-13.879,163.47,0.5968,-0.19893,-1.6877,0.79573,4.0575e-09,-0.84387,0,0,0.16667,1.9737e-16,0,0.66667
0.61851,0.73591,3.7111,0.35386,10.327,40.033,-3.5019,1.1673,-1.5533,-4.6692,-2.0028e-12,-0.77667,0,0,0.16667,-1.522e-15,0,0.66667
0.010364,0.67108,0.062186,0.25662,12.184,197.43,-0.042554,0.014185,-1.7646,-0.056739,-3.7933e-08,-0.88231,0,0,0.16667,-0,-0,0.66667
0.53863,0.61673,3.2318,0.1751,5.8697,55.843,-1.509,0.503,-1.8898,-2.012,-1.299e-14,-0.94492,0,0,0.16667,-7.8949e-16,0,0.66667
0.003018,0.17081,0.018108,-0.49378,-23.538,199.61,0.023843,-0.0079474,-1.1326,0.031791,5.5079e-07,-0.56632,0,0,0.16667,-0,3.9292e-16,0.66667
0.95119,0.70633,5.7072,0.30949,1.2649,1.3327,-4.7102,1.5701,-1.6596,-6.2802,-3.1407e-08,-0.82981,0,0,0.16667,-1.579e-15,0,0.66667
0.9054,0.10992,5.4324,-0.58512,-4.9288,4.1267,8.4763,-2.8254,-0.78348,11.302,-1.3931e-08,-0.39174,0,0,0.16667,-0,1.9713e-16,0.66667
0.79597,0.86274,4.7758,0.54411,9.42,13.537,-6.9295,2.3098,-0.94818,-9.2393,1.2677e-10,-0.47409,0,0,0.16667,7.8949e-16,-2.186e-16,0.66667
0.91527,0.80119,5.4916,0.45178,3.351,3.2273,-6.616,2.2053,-1.273,-8.8213,2.1709e-08,-0.63648,0,0,0.16667,-0,-0,0.66667
0.14556,0.38076,0.87335,-0.17885,-8.3047,157.65,0.41654,-0.13885,-1.8858,0.55539,1.6625e-09,-0.9429,0,0,0.16667,-0,-0,0.66667
0.15773,0.45044,0.94638,-0.074336,-3.4364,154.11,0.1876,-0.062533,-1.9808,0.25013,2.7539e-10,-0.99039,0,0,0.16667,-0,-0,0.66667
0.18763,0.90376,1.1258,0.60564,27.924,145.68,-1.8182,0.60606,-0.69832,-2.4243,4.7351e-10,-0.34916,0,0,0.16667,4.4409e-16,0,0.66667
0.6225,0.46076,3.735,-0.058862,-1.6964,39.093,0.58626,-0.19542,-1.9879,0.78168,1.0688e-12,-0.99395,0,0,0.16667,-3.9475e-16,0,0.66667
0.90581,0.9188,5.4349,0.62819,5.3034,4.2287,-9.1044,3.0348,-0.598,-12.139,4.2166e-09,-0.299,0,0,0.16667,-0,-0,0.66667
0.98996,0.98044,5.9397,0.72066,0.65919,1.4854,-11.415,3.8049,-0.15223,-15.22,1.517e-05,-0.076117,0,0,0.16667,1.579e-15,0,0.66667
0.71112,0.40281,4.2667,-0.14579,-3.3772,24.215,1.6587,-0.55291,-1.9239,2.2117,-1.6178e-12,-0.96196,0,0,0.16667,-9.8686e-16,0,0.66667
0.7318,0.74508,4.3908,0.36762,8.033,21.408,-4.3044,1.4348,-1.5201,-5.7392,1.3663e-11,-0.76003,0,0,0.16667,-0,-0,0.66667
0.90929,0.85251,5.4558,0.52876,4.2404,3.7469,-7.6928,2.5643,-1.0058,-10.257,6.2505e-09,-0.50289,0,0,0.16667,-0,-0,0.66667
0.40087,0.68436,2.4052,0.27654,11.002,87.907,-1.7737,0.59125,-1.7279,-2.365,6.6969e-13,-0.86396,0,0,0.16667,2.9606e-16,0,0.66667
0.24985,0.15918,1.4991,-0.51123,-22.848,128.09,2.0437,-0.68123,-1.0731,2.7249,4.8692e-12,-0.53657,0,0,0.16667,7.8949e-16,-1.621e-16,0.66667
0.17343,0.79035,1.0406,0.43553,20.108,149.67,-1.2085,0.40285,-1.3262,-1.6114,-1.0845e-09,-0.66309,0,0,0.16667,-0,-0,0.66667
0.11946,0.97041,0.71674,0.70561,33.339,165.4,-1.3486,0.44955,-0.22978,-1.7982,3.2732e-08,-0.11489,0,0,0.16667,-0,-0,0.66667
0.81261,0.84334,4.8757,0.51501,8.2379,11.649,-6.696,2.232,-1.0599,-8.928,-5.0072e-11,-0.52993,0,0,0.16667,2.0724e-15,0,0.66667
0.14679,0.13326,0.88075,-0.55011,-25.688,157.4,1.292,-0.43067,-0.92299,1.7227,3.9096e-09,-0.4615,0,0,0.16667,-0,-0,0.66667
0.2643,0.72521,1.5858,0.33782,14.925,123.99,-1.4285,0.47618,-1.5953,-1.9047,-2.1817e-11,-0.79765,0,0,0.16667,-0,-0,0.66667
0.81909,0.31561,4.9145,-0.27658,-4.2296,10.562,3.6248,-1.2083,-1.7276,4.833,-8.3998e-10,-0.86381,0,0,0.16667,-0,-0,0.66667
0.31059,0.5345,1.8635,0.051749,2.2143,111.29,-0.25716,0.08572,-1.9917,-0.34288,1.3149e-12,-0.99584,0,0,0.16667,-0,-0,0.66667
0.98242,0.3513,5.8945,-0.22306,-0.25459,0.36832,3.5062,-1.1687,-1.8237,4.6749,1.5003e-09,-0.91183,0,0,0.16667,-0,-0,0.66667
0.26664,0.95957,1.5998,0.68936,30.674,123.6,-2.941,0.98032,-0.3113,-3.9213,-2.2844e-12,-0.15565,0,0,0.16667,1.9737e-16,0,0.66667
0.53365,0.017028,3.2019,-0.72446,-24.843,57.608,6.1857,-2.0619,-0.13378,8.2477,-1.0041e-12,-0.06689,0,0,0.16667,1.579e-15,0,0.66667
0.31447,0.73063,1.8868,0.34595,14.805,110.35,-1.7406,0.58021,-1.5747,-2.3209,4.9958e-12,-0.78733,0,0,0.16667,-0,-0,0.66667
0.91077,0.55158,5.4646,0.07737,0.58852,2.9977,-1.1275,0.37582,-1.9778,-1.5033,-7.6393e-09,-0.98892,0,0,0.16667,-0,-0,0.66667
0.36656,0.39116,2.1993,-0.16327,-6.6931,96.57,0.95754,-0.31918,-1.9037,1.2767,-1.556e-12,-0.95185,0,0,0.16667,-1.2236e-15,0,0.66667
0.43359,0.8565,2.6016,0.53476,20.689,80.096,-3.7099,1.2366,-0.98248,-4.9465,1.297e-12,-0.49124,0,0,0.16667,-0,-0,0.66667
0.51229,0.034253,3.0738,-0.69862,-24.679,62.179,5.7264,-1.9088,-0.26517,7.6352,-7.5495e-14,-0.13259,0,0,0.16667,-1.579e-15,7.0404e-17,0.66667
0.93889,0.72753,5.6333,0.34129,1.7833,1.8648,-5.1269,1.709,-1.5866,-6.8359,-1.2747e-08,-0.79331,0,0,0.16667,-0,-0,0.66667
0.030949,0.36445,0.18569,-0.20332,-9.6402,191.33,0.10068,-0.03356,-1.8544,0.13424,-1.7385e-08,-0.92718,0,0,0.16667,-0,-0,0.66667
0.71688,0.31476,4.3013,-0.27786,-6.3431,23.461,3.187,-1.0623,-1.7269,4.2494,-4.3818e-12,-0.86345,0,0,0.16667,1.579e-15,0,0.66667
0.89102,0.85273,5.3461,0.52909,5.0787,4.8877,-7.5428,2.5143,-1.0061,-10.057,1.4204e-08,-0.50304,0,0,0.16667,-0,-0,0.66667
0.027287,0.27446,0.16372,-0.33831,-16.069,192.42,0.1477,-0.049234,-1.5928,0.19694,-4.5208e-08,-0.79639,0,0,0.16667,-0,-0,0.66667
0.52205,0.92251,3.1323,0.63376,22.024,59.93,-5.2937,1.7646,-0.57044,-7.0583,-3.233e-13,-0.28522,0,0,0.16667,-0,-0,0.66667
0.32599,0.33953,1.9559,-0.2407,-10.2,107.22,1.2555,-0.41848,-1.7949,1.6739,-4.6908e-12,-0.89746,0,0,0.16667,1.9737e-16,0,0.66667
0.85949,0.25559,5.1569,-0.36662,-4.4351,6.9221,5.0417,-1.6806,-1.5241,6.7222,-3.1647e-09,-0.76205,0,0,0.16667,-0,-0,0.66667
0.55852,0.69003,3.3511,0.28504,9.2718,51.746,-2.5472,0.84908,-1.7115,-3.3963,-1.5541e-12,-0.85573,0,0,0.16667,1.579e-15,0,0.66667
0.69023,0.86982,4.1414,0.55472,13.795,27.982,-6.1262,2.0421,-0.90635,-8.1682,-3.5145e-12,-0.45318,0,0,0.16667,-7.8949e-16,0,0.66667
0.45285,0.65775,2.7171,0.23663,8.9046,75.212,-1.7145,0.57151,-1.8035,-2.286,-5.7843e-13,-0.90175,0,0,0.16667,1.579e-15,0,0.66667
0.62831,0.027557,3.7699,-0.70866,-20.543,38.86,7.1242,-2.3747,-0.2148,9.4989,-4.6141e-13,-0.1074,0,0,0.16667,-0,-0,0.66667
0.2901,0.20927,1.7406,-0.4361,-19.003,116.98,2.0242,-0.67472,-1.3226,2.6989,-3.1406e-12,-0.66129,0,0,0.16667,-3.9475e-16,0,0.66667
0.0093486,0.28707,0.056091,-0.31939,-15.177,197.73,0.047773,-0.015924,-1.6365,0.063698,5.9531e-08,-0.81827,0,0,0.16667,-0,-0,0.66667
0.57676,0.2741,3.4605,-0.33885,-10.697,48.087,3.1269,-1.0423,-1.5927,4.1692,7.4296e-13,-0.79635,0,0,0.16667,-0,-0,0.66667
0.31144,0.92233,1.8687,0.6335,27.353,111.39,-3.1568,1.0523,-0.57371,-4.2091,1.2153e-12,-0.28686,0,0,0.16667,-0,1.972e-16,0.66667
0.51727,0.83517,3.1036,0.50275,17.514,60.765,-4.1609,1.387,-1.1019,-5.5479,-2.7622e-13,-0.55097,0,0,0.16667,3.9475e-16,0,0.66667
0.91641,0.69139,5.4984,0.28708,2.0646,2.8684,-4.2094,1.4031,-1.7066,-5.6125,1.5731e-10,-0.85332,0,0,0.16667,-3.158e-15,0,0.66667
0.42647,0.36825,2.5588,-0.19762,-7.6532,81.541,1.3485,-0.44949,-1.8606,1.798,-2.4403e-13,-0.93032,0,0,0.16667,-3.9475e-16,0,0.66667
0.2474,0.070582,1.4844,-0.64413,-28.927,128.87,2.5497,-0.84989,-0.52495,3.3996,-3.4746e-12,-0.26248,0,0,0.16667,-0,-1.6457e-16,0.66667
0.37129,0.12777,2.2278,-0.55835,-22.961,95.634,3.317,-1.1057,-0.89196,4.4226,-3.666e-13,-0.44598,0,0,0.16667,-0,-0,0.66667
0.93186,0.72999,5.5912,0.34499,2.0211,2.1817,-5.1437,1.7146,-1.5756,-6.8583,-3.3703e-09,-0.78782,0,0,0.16667,1.579e-15,0,0.66667
0.93687,0.75732,5.6212,0.38599,2.0999,2.0325,-5.7859,1.9286,-1.4717,-7.7145,-2.9286e-09,-0.73584,0,0,0.16667,-0,-0,0.66667
0.84433,0.12589,5.066,-0.56116,-7.5893,8.6492,7.5809,-2.527,-0.88283,10.108,-4.6166e-09,-0.44142,0,0,0.16667,3.158e-15,0,0.66667
0.92021,0.14392,5.5212,-0.53411,-3.7746,3.1632,7.8639,-2.6213,-0.98602,10.485,-3.5715e-08,-0.49301,0,0,0.16667,-0,-3.0705e-17,0.66667
0.2279,0.25044,1.3674,-0.37434,-16.871,134.15,1.365,-0.455,-1.5019,1.82,1.2154e-10,-0.75095,0,0,0.16667,7.8949e-16,0,0.66667
0.087482,0.79664,0.52489,0.44496,21.026,174.67,-0.62282,0.20761,-1.2946,-0.83042,-1.8119e-08,-0.6473,0,0,0.16667,-0,-0,0.66667
0.22731,0.21676,1.3639,-0.42486,-19.171,134.34,1.5452,-0.51506,-1.358,2.0603,1.3599e-10,-0.67899,0,0,0.16667,-1.4803e-16,0,0.66667
0.31438,0.036855,1.8863,-0.69472,-29.993,110.67,3.4944,-1.1648,-0.28482,4.6593,-1.7466e-12,-0.14241,0,0,0.16667,-7.8949e-16,0,0.66667
0.17477,0.82128,1.0486,0.48193,22.261,149.3,-1.3476,0.4492,-1.1742,-1.7968,-6.7213e-10,-0.58708,0,0,0.16667,-0,-0,0.66667
0.60709,0.98884,3.6426,0.73326,22.206,42.847,-7.1226,2.3742,-0.088329,-9.4967,-2.8866e-13,-0.044165,0,0,0.16667,1.579e-15,1.8124e-16,0.66667
0.41359,0.46434,2.4815,-0.053489,-2.0973,84.666,0.35396,-0.11799,-1.9892,0.47194,-6.0474e-13,-0.99459,0,0,0.16667,-3.9475e-16,0,0.66667
0.81635,0.66144,4.8981,0.24216,3.7508,10.807,-3.1631,1.0544,-1.7915,-4.2174,8.844e-10,-0.89573,0,0,0.16667,-3.158e-15,0,0.66667
0.18513,0.28239,1.1108,-0.32641,-14.977,146.27,0.96686,-0.32229,-1.6225,1.2892,7.88e-10,-0.81126,0,0,0.16667,-7.8949e-16,0,0.66667
0.70188,0.46054,4.2113,-0.059197,-1.4073,25.594,0.66478,-0.22159,-1.9884,0.88638,-3.7914e-13,-0.99422,0,0,0.16667,7.8949e-16,0,0.66667
0.24036,0.46871,1.4421,-0.046935,-2.0955,130.57,0.1805,-0.060166,-1.9925,0.24066,2.7612e-11,-0.99624,0,0,0.16667,4.8726e-16,0,0.66667
0.57422,0.32472,3.4453,-0.26292,-8.3244,48.526,2.4156,-0.80519,-1.7535,3.2207,5.0537e-13,-0.87674,0,0,0.16667,-0,-0,0.66667
0.34899,0.81063,2.0939,0.46594,19.474,101.31,-2.6017,0.86724,-1.2282,-3.469,3.5161e-12,-0.61409,0,0,0.16667,9.8686e-17,0,0.66667
0.056964,0.93735,0.34179,0.65602,31.297,183.69,-0.59791,0.1993,-0.47021,-0.79722,-9.0195e-07,-0.23511,0,0,0.16667,-3.7007e-17,0,0.66667
0.22881,0.50881,1.3729,0.013219,0.59359,133.81,-0.048396,0.016132,-1.9984,-0.064528,-3.4635e-11,-0.9992,0,0,0.16667,-7.8949e-16,0,0.66667
0.6641,0.47164,3.9846,-0.042542,-1.1167,31.714,0.45203,-0.15068,-1.9932,0.60271,8.224e-13,-0.99658,0,0,0.16667,-0,-0,0.66667
0.49725,0.51585,2.9835,0.023772,0.84505,64.869,-0.18913,0.063042,-1.9977,-0.25217,1.2704e-13,-0.99884,0,0,0.16667,-1.579e-15,0,0.66667
0.51902,0.75746,3.1141,0.3862,13.378,60.24,-3.2071,1.069,-1.4696,-4.2761,-4.3054e-13,-0.73478,0,0,0.16667,-0,-0,0.66667
0.17472,0.54071,1.0483,0.06106,2.806,149.21,-0.17069,0.056898,-1.9866,-0.22759,-3.08e-10,-0.99332,0,0,0.16667,-0,-0,0.66667
0.57072,0.46964,3.4243,-0.045534,-1.4473,49.131,0.41579,-0.1386,-1.9926,0.55439,1.4133e-13,-0.9963,0,0,0.16667,-0,-0,0.66667
0.99675,0.161,5.9805,-0.50851,0.0020424,0.71795,8.1097,-2.7032,-1.0809,10.813,-6.214e-07,-0.54045,0,0,0.16667,-0,-0,0.66667
0.81684,0.28888,4.901,-0.31667,-4.9066,10.848,4.1387,-1.3796,-1.6429,5.5183,-8.1905e-10,-0.82146,0,0,0.16667,-0,-0,0.66667
0.59437,0.87103,3.5662,0.55654,17.131,44.917,-5.2927,1.7642,-0.9006,-7.0569,-8.3711e-13,-0.4503,0,0,0.16667,1.9737e-16,0,0.66667
0.97599,0.78684,5.8559,0.43026,0.81146,0.8506,-6.7188,2.2396,-1.341,-8.9584,-1.5015e-07,-0.67048,0,0,0.16667,-0,-0,0.66667
0.90156,0.92953,5.4094,0.64429,5.6904,4.5338,-9.2939,3.098,-0.52339,-12.392,-3.047e-08,-0.26169,0,0,0.16667,-0,-0,0.66667
0.59561,0.018087,3.5736,-0.72287,-22.359,45.016,6.8887,-2.2962,-0.14228,9.185,4.774e-13,-0.071139,0,0,0.16667,-0,-0,0.66667
0.032426,0.49057,0.19456,-0.014143,-0.66992,190.89,0.0073385,-0.0024473,-2.0001,0.0097841,-1.7128e-06,-1.0001,0,0,0.16667,-4.9343e-17,0,0.66667
0.093577,0.53087,0.56146,0.046298,2.1759,172.83,-0.069319,0.023106,-1.9953,-0.092425,-5.6209e-08,-0.99763,0,0,0.16667,-1.9121e-16,0,0.66667
0.065372,0.033657,0.39223,-0.69951,-33.38,181.23,0.73166,-0.24389,-0.26105,0.97554,-4.7181e-07,-0.13052,0,0,0.16667,-0,-0,0.66667
0.45173,0.72381,2.7104,0.33571,12.669,75.546,-2.4264,0.8088,-1.6005,-3.2352,-2.9488e-13,-0.80025,0,0,0.16667,-0,-0,0.66667
0.37543,0.69553,2.2526,0.29329,11.949,94.35,-1.7618,0.58726,-1.6956,-2.349,2.2244e-12,-0.84781,0,0,0.16667,-0,-0,0.66667
0.97535,0.64852,5.8521,0.22279,0.40221,0.51216,-3.4767,1.1589,-1.8225,-4.6356,-5.7759e-09,-0.91124,0,0,0.16667,-0,-0,0.66667
0.16798,0.89582,1.0079,0.59373,27.565,151.31,-1.5958,0.53193,-0.74601,-2.1277,-1.9589e-09,-0.373,0,0,0.16667,-1.9737e-16,0,0.66667
0.97279,0.56419,5.8367,0.09629,0.19288,0.46667,-1.4987,0.49957,-1.9675,-1.9983,-7.5056e-07,-0.98376,0,0,0.16667,-0,-0,0.66667
0.76747,0.86915,4.6048,0.55372,10.776,16.969,-6.7995,2.2665,-0.91068,-9.0659,-5.9717e-12,-0.45534,0,0,0.16667,-3.9475e-16,0,0.66667
0.82424,0.22624,4.9454,-0.41063,-6.1521,10.24,5.4154,-1.8051,-1.4001,7.2205,-9.2042e-10,-0.70006,0,0,0.16667,-1.579e-15,0,0.66667
0.63262,0.8604,3.7957,0.54059,15.412,37.727,-5.4718,1.8239,-0.95938,-7.2958,-1.3363e-12,-0.47969,0,0,0.16667,4.0324e-17,0,0.66667
0.66873,0.36484,4.0124,-0.20274,-5.27,31.004,2.1693,-0.7231,-1.8536,2.8924,3.5896e-12,-0.92678,0,0,0.16667,7.8949e-16,0,0.66667
0.47688,0.74241,2.8613,0.36361,13.322,69.684,-2.7744,0.9248,-1.5288,-3.6992,-1.1746e-13,-0.76441,0,0,0.16667,-0,-0,0.66667
0.013136,0.46859,0.078818,-0.047109,-2.2335,196.61,0.0099011,-0.003304,-1.9936,0.0132,-5.4295e-06,-0.9968,0,0,0.16667,-3.1418e-17,0,0.66667
0.35301,0.94008,2.118,0.66012,27.651,100.47,-3.7284,1.2428,-0.45036,-4.9713,2.1161e-13,-0.22518,0,0,0.16667,-0,-0,0.66667
0.49207,0.4744,2.9524,-0.038396,-1.3744,66.041,0.3023,-0.10077,-1.9939,0.40306,4.9899e-13,-0.99695,0,0,0.16667,-1.579e-15,0,0.66667
0.73009,0.85606,4.3805,0.53409,11.818,21.943,-6.2389,2.0796,-0.9849,-8.3186,1.2861e-12,-0.49245,0,0,0.16667,1.579e-15,0,0.66667
0.46863,0.0050218,2.8118,-0.74247,-27.803,72.121,5.5671,-1.8557,-0.042053,7.4227,-4.4453e-13,-0.021026,0,0,0.16667,-0,-1.0648e-16,0.66667
0.4574,0.88319,2.7444,0.57479,21.679,74.469,-4.2066,1.4022,-0.82475,-5.6088,2.6645e-15,-0.41237,0,0,0.16667,-0,-0,0.66667
0.13766,0.26484,0.82598,-0.35274,-16.451,159.98,0.77696,-0.25899,-1.5572,1.0359,3.3393e-09,-0.77859,0,0,0.16667,-1.9737e-16,0,0.66667
0.010889,0.68672,0.065332,0.28008,13.302,197.27,-0.048796,0.016265,-1.7215,-0.065062,-3.2726e-08,-0.86076,0,0,0.16667,-1.8504e-17,0,0.66667
0.75828,0.83746,4.5497,0.50619,10.166,18.045,-6.1413,2.0471,-1.0881,-8.1884,1.7802e-11,-0.54403,0,0,0.16667,1.1842e-15,0,0.66667
0.31995,0.86043,1.9197,0.54065,23.143,109.03,-2.7677,0.92257,-0.95917,-3.6903,2.7855e-12,-0.47958,0,0,0.16667,3.9475e-16,0,0.66667
0.98438,0.31945,5.9063,-0.27082,-0.26547,0.39514,4.2655,-1.4218,-1.7411,5.6873,-2.3702e-08,-0.87056,0,0,0.16667,-0,-0,0.66667
0.22023,0.4353,1.3214,-0.097057,-4.3771,136.23,0.342,-0.114,-1.9681,0.456,9.1339e-11,-0.98407,0,0,0.16667,4.4409e-16,0,0.66667
0.33871,0.50907,2.0322,0.013607,0.57029,103.8,-0.073743,0.024581,-1.9985,-0.098324,-7.7259e-13,-0.99923,0,0,0.16667,-0,-0,0.66667
0.5239,0.61367,3.1434,0.17051,5.8438,59.009,-1.4293,0.47643,-1.8952,-1.9057,-1.0214e-13,-0.94761,0,0,0.16667,-0,-0,0.66667
0.75489,0.0091619,4.5293,-0.73626,-15.186,19.063,8.8927,-2.9642,-0.071779,11.857,-2.3578e-11,-0.03589,0,0,0.16667,3.158e-15,0,0.66667
0.46386,0.37444,2.7831,-0.18835,-6.9925,72.591,1.3979,-0.46595,-1.8743,1.8638,6.497e-13,-0.93716,0,0,0.16667,-1.1102e-15,0,0.66667
0.12482,0.28014,0.74894,-0.32978,-15.428,163.71,0.65863,-0.21954,-1.616,0.87817,4.7736e-09,-0.80802,0,0,0.16667,3.7007e-17,0,0.66667
0.3125,0.29996,1.875,-0.30006,-12.849,110.85,1.5003,-0.5001,-1.6813,2.0004,-5.3852e-12,-0.84066,0,0,0.16667,-0,-0,0.66667
0.50452,0.52287,3.0271,0.034305,1.2075,63.24,-0.27692,0.092306,-1.9952,-0.36922,-4.1475e-13,-0.99758,0,0,0.16667,-0,-0,0.66667
0.67385,0.31868,4.0431,-0.27198,-6.9893,30.21,2.9324,-0.97746,-1.7377,3.9098,4.5539e-12,-0.86885,0,0,0.16667,-0,-0,0.66667
0.77015,0.54256,4.6209,0.063843,1.2099,16.012,-0.7867,0.26223,-1.9846,-1.0489,4.1474e-11,-0.99231,0,0,0.16667,-1.579e-15,0,0.66667
0.13034,0.17934,0.78201,-0.48099,-22.53,162.15,1.003,-0.33435,-1.1766,1.3374,4.3194e-09,-0.58828,0,0,0.16667,-9.8686e-17,0,0.66667
0.022915,0.35841,0.13749,-0.21238,-10.075,193.71,0.077868,-0.025956,-1.8381,0.10382,-2.9332e-08,-0.91905,0,0,0.16667,-0,-0,0.66667
0.51908,0.0024929,3.1145,-0.74626,-26.164,60.79,6.1979,-2.066,-0.020465,8.2639,7.0477e-13,-0.010232,0,0,0.16667,-0,-0,0.66667
0.80999,0.020865,4.8599,-0.7187,-11.83,12.47,9.3143,-3.1048,-0.16343,12.419,-1.7727e-10,-0.081716,0,0,0.16667,-0,-1.7518e-16,0.66667
0.012604,0.45379,0.075623,-0.069322,-3.2868,196.76,0.01398,-0.0046613,-1.9825,0.01864,-1.8706e-06,-0.99124,0,0,0.16667,2.4672e-17,0,0.66667
0.67247,0.055898,4.0348,-0.66615,-17.434,31.102,7.1675,-2.3892,-0.42371,9.5566,1.0165e-12,-0.21186,0,0,0.16667,-0,-0,0.66667
0.68681,0.435,4.1208,-0.097497,-2.4164,27.98,1.0714,-0.35713,-1.9683,1.4285,1.5411e-12,-0.98415,0,0,0.16667,-1.9737e-16,0,0.66667
0.44925,0.28739,2.6955,-0.31891,-12.066,76.124,2.2923,-0.7641,-1.6382,3.0564,-4.1367e-13,-0.81911,0,0,0.16667,-0,-0,0.66667
0.91479,0.19753,5.4887,-0.4537,-3.3855,3.2582,6.6407,-2.2136,-1.2668,8.8542,-2.2352e-08,-0.6334,0,0,0.16667,-0,-0,0.66667
0.64436,0.4203,3.8662,-0.11955,-3.2878,35.155,1.2325,-0.41084,-1.9485,1.6434,1.9053e-12,-0.97423,0,0,0.16667,-0,-0,0.66667
0.0052398,0.20711,0.031439,-0.43934,-20.919,198.95,0.036833,-0.012277,-1.3126,0.04911,2.0215e-07,-0.6563,0,0,0.16667,-0,-0,0.66667
0.48443,0.57285,2.9066,0.10927,3.9517,67.796,-0.84693,0.28231,-1.9591,-1.1292,-4.321e-13,-0.97954,0,0,0.16667,-0,-0,0.66667
0.85932,0.14044,5.1559,-0.53934,-6.6197,7.295,7.4154,-2.4718,-0.96708,9.8872,-1.8772e-09,-0.48354,0,0,0.16667,-1.579e-15,2.4553e-16,0.66667
0.8304,0.016633,4.9824,-0.72505,-10.776,10.421,9.6333,-3.2111,-0.13078,12.844,1.1273e-09,-0.06539,0,0,0.16667,-0,-0,0.66667
0.64915,0.8039,3.8949,0.45585,12.492,34.647,-4.7346,1.5782,-1.26,-6.3129,-2.899e-12,-0.62999,0,0,0.16667,-7.8949e-16,0,0.66667
0.6737,0.39339,4.0422,-0.15991,-4.1029,30.148,1.7237,-0.57458,-1.9093,2.2983,3.0543e-12,-0.95465,0,0,0.16667,-0,-0,0.66667
0.5785,0.24869,3.471,-0.37697,-11.875,47.78,3.4892,-1.1631,-1.4973,4.6523,9.2126e-13,-0.74864,0,0,0.16667,-7.8949e-16,0,0.66667
0.27412,0.80773,1.6447,0.46159,20.324,121.36,-2.0245,0.67483,-1.2417,-2.6993,-5.5602e-12,-0.62086,0,0,0.16667,1.6231e-16,0,0.66667
0.56053,0.71072,3.3632,0.31608,10.253,51.359,-2.8348,0.94492,-1.6453,-3.7797,-7.3364e-13,-0.82264,0,0,0.16667,-0,-0,0.66667
0.67173,0.62115,4.0304,0.18173,4.6872,30.489,-1.9532,0.65106,-1.8848,-2.6042,-3.8518e-12,-0.94241,0,0,0.16667,9.8686e-16,0,0.66667
0.35243,0.34464,2.1146,-0.23303,-9.6734,100.26,1.314,-0.43801,-1.8069,1.7521,-2.8929e-12,-0.90346,0,0,0.16667,-0,-0,0.66667
0.85583,0.65273,5.135,0.2291,2.8211,7.0438,-3.1372,1.0457,-1.8137,-4.1829,2.1767e-09,-0.90687,0,0,0.16667,1.4376e-15,0,0.66667
0.19504,0.51527,1.1702,0.0229,1.0441,143.38,-0.071463,0.023821,-1.9966,-0.095284,-1.1491e-10,-0.9983,0,0,0.16667,-0,-0,0.66667
0.74732,0.86961,4.4839,0.55441,11.603,19.599,-6.6291,2.2097,-0.90758,-8.8389,1.2193e-11,-0.45379,0,0,0.16667,-1.1842e-15,0,0.66667
0.2896,0.35335,1.7376,-0.21998,-9.5561,117,1.0193,-0.33977,-1.8267,1.3591,7.2109e-13,-0.91333,0,0,0.16667,-0,-0,0.66667
0.7738,0.19872,4.6428,-0.45191,-8.5356,15.969,5.5951,-1.865,-1.2725,7.4601,-8.8629e-11,-0.63623,0,0,0.16667,-1.579e-15,0,0.66667
0.42774,0.59783,2.5664,0.14674,5.6727,81.213,-1.0043,0.33476,-1.923,-1.339,1.4075e-12,-0.9615,0,0,0.16667,-0,-0,0.66667
0.8077,0.9076,4.8462,0.6114,10.082,12.407,-7.9013,2.6338,-0.6712,-10.535,1.7926e-10,-0.3356,0,0,0.16667,-0,-0,0.66667
0.35353,0.62332,2.1212,0.18498,7.6678,99.951,-1.0463,0.34878,-1.8783,-1.3951,2.3264e-12,-0.93917,0,0,0.16667,5.2334e-17,0,0.66667
0.21369,0.80105,1.2822,0.45158,20.518,138.19,-1.544,0.51466,-1.2739,-2.0587,-2.3634e-10,-0.63694,0,0,0.16667,1.9737e-16,0,0.66667
0.76728,0.81803,4.6037,0.47705,9.2518,16.831,-5.8565,1.9522,-1.1918,-7.8087,4.2343e-11,-0.59592,0,0,0.16667,1.579e-15,0,0.66667
0.30864,0.73296,1.8519,0.34943,15.015,111.91,-1.7256,0.5752,-1.5651,-2.3008,4.809e-12,-0.78253,0,0,0.16667,-0,-0,0.66667
0.73325,0.037188,4.3995,-0.69422,-15.349,21.881,8.1445,-2.7148,-0.28769,10.859,-1.9567e-12,-0.14385,0,0,0.16667,1.579e-15,0,0.66667
0.74447,0.1909,4.4668,-0.46365,-9.7535,19.802,5.5229,-1.841,-1.2354,7.3638,-1.5838e-11,-0.6177,0,0,0.16667,-0,-0,0.66667
0.2214,0.1725,1.3284,-0.49125,-22.26,136.04,1.7402,-0.58005,-1.1417,2.3202,1.1709e-10,-0.57085,0,0,0.16667,-0,-0,0.66667
0.21411,0.83309,1.2847,0.49963,22.721,138.1,-1.7116,0.57054,-1.1115,-2.2822,-7.0189e-11,-0.55577,0,0,0.16667,-0,-0,0.66667
0.19895,0.49478,1.1937,-0.0078289,-0.35634,142.27,0.024921,-0.0083069,-1.9996,0.033227,2.1412e-10,-0.99981,0,0,0.16667,1.9737e-16,0,0.66667
0.14252,0.78951,0.85511,0.43426,20.253,158.59,-0.99024,0.33008,-1.33,-1.3203,-3.2244e-09,-0.665,0,0,0.16667,-3.9475e-16,0,0.66667
0.37708,0.70695,2.2625,0.31042,12.632,93.939,-1.8729,0.62429,-1.6575,-2.4972,2.5977e-12,-0.82876,0,0,0.16667,3.9475e-16,0,0.66667
0.026628,0.82468,0.15977,0.48703,23.196,192.62,-0.2075,0.069165,-1.1557,-0.27666,3.2645e-07,-0.57783,0,0,0.16667,-0,-0,0.66667
0.11092,0.24085,0.66552,-0.38873,-18.264,167.79,0.68989,-0.22996,-1.4633,0.91985,7.1965e-09,-0.73167,0,0,0.16667,-0,-0,0.66667
0.67456,0.57903,4.0474,0.11854,3.0334,29.984,-1.2794,0.42647,-1.9498,-1.7059,-2.3519e-12,-0.97488,0,0,0.16667,-7.8949e-16,0,0.66667
0.79978,0.57762,4.7987,0.11643,1.9476,12.506,-1.4899,0.49662,-1.9514,-1.9865,2.6747e-10,-0.97571,0,0,0.16667,-0,-0,0.66667
0.08053,0.70157,0.48318,0.30235,14.271,176.69,-0.38957,0.12986,-1.6748,-0.51942,-9.7585e-10,-0.83742,0,0,0.16667,-0,-0,0.66667
0.2317,0.60343,1.3902,0.15515,6.9607,133.01,-0.57517,0.19172,-1.9144,-0.7669,-9.0075e-11,-0.95719,0,0,0.16667,-0,-0,0.66667
0.20763,0.26797,1.2458,-0.34804,-15.827,139.87,1.1562,-0.3854,-1.5683,1.5416,3.4224e-10,-0.78416,0,0,0.16667,3.9475e-16,0,0.66667
0.91733,0.93397,5.504,0.65096,4.8588,3.6531,-9.5544,3.1848,-0.49333,-12.739,9.5373e-08,-0.24667,0,0,0.16667,3.9475e-16,0,0.66667
0.71131,0.24993,4.2679,-0.3751,-8.7308,24.413,4.269,-1.423,-1.4999,5.692,1.6338e-12,-0.74995,0,0,0.16667,-1.8504e-16,0,0.66667
0.55388,0.3859,3.3233,-0.17115,-5.6003,52.629,1.5168,-0.50559,-1.8945,2.0224,-1.4888e-13,-0.94724,0,0,0.16667,-0,-0,0.66667
0.30452,0.53411,1.8271,0.051171,2.1987,112.92,-0.24932,0.083107,-1.9903,-0.33243,5.8549e-13,-0.99514,0,0,0.16667,7.8949e-16,0,0.66667
0.83485,0.80735,5.0091,0.46103,6.5383,9.2992,-6.1582,2.0527,-1.2436,-8.211,6.2079e-10,-0.62178,0,0,0.16667,-1.9737e-15,0,0.66667
0.43531,0.59396,2.6118,0.14094,5.404,79.374,-0.98166,0.32722,-1.931,-1.3089,4.3932e-13,-0.9655,0,0,0.16667,-0,-0,0.66667
0.92346,0.7841,5.5407,0.42615,2.8433,2.7421,-6.2965,2.0988,-1.3557,-8.3954,2.1524e-08,-0.67787,0,0,0.16667,-0,-0,0.66667
0.70605,0.022107,4.2363,-0.71684,-17.219,25.913,8.098,-2.6993,-0.17284,10.797,2.5757e-14,-0.086421,0,0,0.16667,-0,-0,0.66667
0.47803,0.36938,2.8682,-0.19593,-7.1489,69.299,1.4985,-0.49951,-1.8628,1.9981,2.4503e-13,-0.93139,0,0,0.16667,-3.9475e-16,0,0.66667
0.12621,0.48856,0.75726,-0.017157,-0.80042,163.27,0.034647,-0.011549,-1.9996,0.046195,-3.4795e-09,-0.99981,0,0,0.16667,-3.9475e-16,0,0.66667
0.97604,0.25886,5.8563,-0.36171,-0.65999,0.70813,5.6488,-1.8829,-1.5336,7.5317,5.157e-08,-0.76679,0,0,0.16667,-0,-0,0.66667
0.15983,0.51478,0.959,0.022177,1.0244,153.5,-0.056714,0.018905,-1.9976,-0.075619,-2.4455e-10,-0.99878,0,0,0.16667,-0,-0,0.66667
0.2026,0.38323,1.2156,-0.17515,-7.9656,141.24,0.56778,-0.18926,-1.8923,0.75704,3.775e-10,-0.94615,0,0,0.16667,-0,-0,0.66667
0.43118,0.93483,2.5871,0.65225,25.395,80.84,-4.4998,1.4999,-0.4871,-5.9997,3.0331e-13,-0.24355,0,0,0.16667,1.9737e-16,0,0.66667
0.4042,0.52781,2.4252,0.041718,1.651,86.996,-0.2698,0.089932,-1.9949,-0.35973,3.2654e-13,-0.99745,0,0,0.16667,3.9475e-16,0,0.66667
0.14675,0.44714,0.88051,-0.079294,-3.6784,157.29,0.18618,-0.062061,-1.9765,0.24825,5.7445e-10,-0.98824,0,0,0.16667,-0,-0,0.66667
0.72932,0.58857,4.3759,0.13285,2.9099,21.532,-1.5503,0.51676,-1.9368,-2.067,1.2129e-11,-0.96841,0,0,0.16667,-7.5239e-16,0,0.66667
0.18875,0.61402,1.1325,0.17103,7.8222,145.2,-0.51648,0.17216,-1.8967,-0.68864,-4.8093e-10,-0.94834,0,0,0.16667,1.9737e-16,0,0.66667
0.6439,0.80578,3.8634,0.45867,12.721,35.574,-4.7253,1.5751,-1.252,-6.3004,-2.8413e-12,-0.626,0,0,0.16667,-0,-0,0.66667
0.75431,0.53135,4.5258,0.047021,0.9455,18.054,-0.56749,0.18916,-1.9929,-0.75665,2.9116e-11,-0.99644,0,0,0.16667,-3.158e-15,0,0.66667
0.21073,0.55585,1.2644,0.083768,3.794,138.92,-0.28244,0.094147,-1.9741,-0.37659,-1.0703e-10,-0.98703,0,0,0.16667,-0,-0,0.66667
0.60095,0.4743,3.6057,-0.038552,-1.1598,43.155,0.37069,-0.12356,-1.9939,0.49425,4.6727e-13,-0.99695,0,0,0.16667,-1.579e-15,0,0.66667
0.74893,0.92472,4.4936,0.63708,13.324,19.58,-7.634,2.5447,-0.55761,-10.179,7.4607e-13,-0.27881,0,0,0.16667,-9.7417e-17,0,0.66667
0.63822,0.64505,3.8293,0.21758,6.0735,36.305,-2.2218,0.74059,-1.8317,-2.9624,-3.0922e-12,-0.91584,0,0,0.16667,-0,-0,0.66667
0.59713,0.87531,3.5828,0.56297,17.244,44.396,-5.3786,1.7929,-0.87417,-7.1715,-9.4147e-13,-0.43709,0,0,0.16667,-0,-0,0.66667
0.29548,0.69398,1.7729,0.29098,12.603,115.43,-1.3757,0.45855,-1.7,-1.8342,1.508e-12,-0.84999,0,0,0.16667,7.8949e-16,0,0.66667
0.73161,0.43917,4.3896,-0.091241,-1.983,21.188,1.068,-0.35601,-1.9714,1.4241,-1.1356e-11,-0.98572,0,0,0.16667,-0,-0,0.66667
0.94531,0.6355,5.6719,0.20324,0.92807,1.4148,-3.074,1.0247,-1.8518,-4.0987,-3.7235e-08,-0.92588,0,0,0.16667,-0,-0,0.66667
0.42556,0.15536,2.5534,-0.51696,-20.162,82.023,3.52,-1.1733,-1.0506,4.6933,-4.7784e-13,-0.52528,0,0,0.16667,-2.9606e-16,0,0.66667
0.78218,0.19467,4.6931,-0.458,-8.3664,14.961,5.7318,-1.9106,-1.2554,7.6424,-1.9675e-10,-0.62771,0,0,0.16667,-0,-0,0.66667
0.056141,0.68805,0.33685,0.28208,13.356,183.88,-0.25338,0.084459,-1.7172,-0.33783,2.5447e-08,-0.85862,0,0,0.16667,-1.9737e-16,0,0.66667
0.83527,0.028677,5.0116,-0.70698,-10.213,9.8994,9.4484,-3.1495,-0.22251,12.598,1.0267e-09,-0.11125,0,0,0.16667,-7.8949e-16,0,0.66667
0.19225,0.70737,1.1535,0.31106,14.229,144.23,-0.95681,0.31894,-1.655,-1.2757,-6.2698e-10,-0.8275,0,0,0.16667,1.9737e-16,0,0.66667
0.3951,0.6846,2.3706,0.2769,11.077,89.355,-1.7504,0.58347,-1.7275,-2.3339,2.0438e-12,-0.86376,0,0,0.16667,-1.9737e-16,0,0.66667
0.30008,0.27699,1.8005,-0.33451,-14.454,114.21,1.6061,-0.53536,-1.6025,2.1414,-4.4492e-12,-0.80126,0,0,0.16667,4.9343e-16,0,0.66667
0.080104,0.11302,0.48062,-0.58048,-27.548,176.87,0.74397,-0.24799,-0.80212,0.99196,-3.2567e-10,-0.40106,0,0,0.16667,9.8686e-17,0,0.66667
0.90463,0.21641,5.4278,-0.42539,-3.5406,3.7833,6.1571,-2.0524,-1.3581,8.2095,-1.1162e-08,-0.67907,0,0,0.16667,-3.9475e-16,0,0.66667
0.37015,0.67058,2.2209,0.25588,10.467,95.683,-1.5154,0.50514,-1.7661,-2.0205,2.2156e-12,-0.88305,0,0,0.16667,-0,-0,0.66667
0.5307,0.84534,3.1842,0.51801,17.703,57.877,-4.3985,1.4662,-1.0483,-5.8646,-1.0392e-13,-0.52415,0,0,0.16667,-1.579e-15,2.1589e-16,0.66667
0.49412,0.10752,2.9647,-0.58872,-21.227,66.033,4.6543,-1.5514,-0.76634,6.2058,-6.3949e-13,-0.38317,0,0,0.16667,-0,-0,0.66667
0.13216,0.061087,0.79297,-0.65837,-30.962,161.69,1.3922,-0.46406,-0.45873,1.8562,-1.6181e-08,-0.22937,0,0,0.16667,4.9343e-17,0,0.66667
0.20645,0.38428,1.2387,-0.17358,-7.8809,140.15,0.57338,-0.19113,-1.8926,0.76451,3.0035e-10,-0.94629,0,0,0.16667,-0,-0,0.66667
0.076189,0.5681,0.45713,0.10216,4.8166,177.95,-0.12453,0.041511,-1.9637,-0.16604,-6.7969e-08,-0.98185,0,0,0.16667,-1.9737e-16,0,0.66667
0.50792,0.63661,3.0475,0.20492,7.1879,62.538,-1.6653,0.5551,-1.8493,-2.2204,-5.3857e-13,-0.92463,0,0,0.16667,-0,-0,0.66667
0.26155,0.1988,1.5693,-0.4518,-20.035,124.81,1.8907,-0.63023,-1.2735,2.5209,9.6153e-12,-0.63674,0,0,0.16667,-0,-0,0.66667
0.35706,0.84156,2.1424,0.51235,21.298,99.251,-2.927,0.97567,-1.0678,-3.9027,1.8501e-12,-0.53392,0,0,0.16667,2.044e-16,0,0.66667
0.10807,0.13021,0.64839,-0.55468,-26.167,168.67,0.95907,-0.31969,-0.90729,1.2788,-1.1591e-08,-0.45365,0,0,0.16667,-0,-0,0.66667
0.78755,0.93291,4.7253,0.64937,11.742,14.77,-8.1826,2.7275,-0.5001,-10.91,1.6847e-11,-0.25005,0,0,0.16667,3.9475e-16,0,0.66667
0.10658,0.87107,0.6395,0.5566,26.268,169.1,-0.9492,0.3164,-0.89909,-1.2656,1.8343e-08,-0.44954,0,0,0.16667,4.9343e-17,0,0.66667
0.98571,0.9298,5.9143,0.6447,0.77998,1.2725,-10.168,3.3892,-0.5231,-13.557,1.0564e-06,-0.26155,0,0,0.16667,-1.579e-15,-2.2413e-16,0.66667
0.17716,0.15703,1.063,-0.51445,-23.76,148.63,1.4582,-0.48608,-1.0593,1.9443,2.7614e-10,-0.52965,0,0,0.16667,-0,-0,0.66667
0.57241,0.75599,3.4344,0.38399,12.227,49.011,-3.5168,1.1723,-1.4751,-4.689,-6.5414e-13,-0.73753,0,0,0.16667,-0,-0,0.66667
0.044845,0.56263,0.26907,0.093952,4.4467,187.21,-0.067413,0.022471,-1.9704,-0.089884,-3.8566e-07,-0.98518,0,0,0.16667,-1.9737e-16,0,0.66667
0.78712,0.43913,4.7227,-0.0913,-1.6148,13.953,1.1498,-0.38327,-1.9704,1.5331,-7.5564e-11,-0.98518,0,0,0.16667,3.158e-15,0,0.66667
0.18961,0.30387,1.1376,-0.29419,-13.468,144.98,0.89248,-0.29749,-1.6926,1.19,6.728e-10,-0.84632,0,0,0.16667,1.9737e-16,0,0.66667
0.5279,0.5253,3.1674,0.037957,1.2921,58.102,-0.32061,0.10687,-1.9949,-0.42748,-2.6812e-13,-0.99747,0,0,0.16667,-0,-0,0.66667
0.74008,0.36621,4.4405,-0.20069,-4.2482,20.06,2.3764,-0.79213,-1.8558,3.1685,-3.1052e-11,-0.9279,0,0,0.16667,-7.8949e-16,0,0.66667
0.14993,0.60239,0.89959,0.15358,7.1203,156.38,-0.36843,0.12281,-1.915,-0.49123,-2.3933e-09,-0.95752,0,0,0.16667,-0,-0,0.66667
0.55109,0.45316,3.3065,-0.070264,-2.3078,53.177,0.61954,-0.20651,-1.9815,0.82606,-1.6886e-13,-0.99076,0,0,0.16667,7.8949e-16,0,0.66667
0.21662,0.72246,1.2997,0.33368,15.109,137.31,-1.1565,0.3855,-1.6051,-1.542,-2.3939e-10,-0.80255,0,0,0.16667,-0,-0,0.66667
0.7592,0.24977,4.5552,-0.37534,-7.468,17.692,4.5593,-1.5198,-1.4993,6.0791,-7.7701e-11,-0.74964,0,0,0.16667,-7.4015e-17,0,0.66667
0.72292,0.084038,4.3375,-0.62394,-14.185,23.175,7.2169,-2.4056,-0.61515,9.6226,1.7932e-12,-0.30757,0,0,0.16667,-0,-0,0.66667
0.17655,0.20822,1.0593,-0.43766,-20.185,148.77,1.2363,-0.4121,-1.318,1.6484,9.2627e-10,-0.65902,0,0,0.16667,-0,-0,0.66667
0.86197,0.89903,5.1718,0.59854,7.2572,7.2316,-8.2548,2.7516,-0.72647,-11.006,1.312e-08,-0.36324,0,0,0.16667,-0,-0,0.66667
0.019775,0.62664,0.11865,0.18996,9.0106,194.64,-0.060102,0.020034,-1.8722,-0.080137,4.2528e-08,-0.93609,0,0,0.16667,-4.9343e-17,0,0.66667
0.86024,0.54363,5.1614,0.065447,0.77886,6.5614,-0.9008,0.30027,-1.9856,-1.2011,-1.1834e-10,-0.99281,0,0,0.16667,-1.579e-15,0,0.66667
0.5589,0.92791,3.3534,0.64186,21.085,52.159,-5.7398,1.9133,-0.53471,-7.6531,-1.763e-13,-0.26736,0,0,0.16667,-0,-0,0.66667
0.40322,0.88194,2.4193,0.57292,22.89,87.592,-3.6962,1.2321,-0.83303,-4.9282,1.0429e-12,-0.41652,0,0,0.16667,-0,-0,0.66667
0.75875,0.73783,4.5525,0.35675,7.1047,17.723,-4.3309,1.4436,-1.5461,-5.7746,7.8815e-11,-0.77303,0,0,0.16667,-1.688e-15,0,0.66667
0.71693,0.2611,4.3016,-0.35836,-8.1987,23.551,4.1107,-1.3702,-1.5437,5.4809,-2.1116e-12,-0.77186,0,0,0.16667,-0,-0,0.66667
0.98733,0.60358,5.924,0.15537,0.10109,0.21733,-2.4543,0.81812,-1.914,-3.2725,-8.5161e-08,-0.957,0,0,0.16667,-0,-0,0.66667
0.27809,0.4976,1.6685,-0.0035968,-0.15719,120.11,0.016003,-0.0053345,-2.0007,0.021338,-2.0664e-12,-1.0003,0,0,0.16667,-5.9212e-16,0,0.66667
0.0037937,0.97111,0.022762,0.70667,33.873,199.38,-0.042881,0.014302,-0.22493,-0.057171,1.2626e-05,-0.11246,0,0,0.16667,-0,-0,0.66667
0.9339,0.071572,5.6034,-0.64264,-3.8434,2.8209,9.6026,-3.2009,-0.5312,12.804,8.063e-08,-0.2656,0,0,0.16667,-0,-0,0.66667
0.8579,0.74205,5.1474,0.36307,4.4389,7.0496,-4.9836,1.6612,-1.5321,-6.6448,3.1181e-09,-0.76605,0,0,0.16667,7.8949e-16,0,0.66667
0.72885,0.92647,4.3731,0.63971,14.292,22.361,-7.46,2.4867,-0.54384,-9.9467,-1.4686e-12,-0.27192,0,0,0.16667,7.8949e-16,0,0.66667
0.51669,0.65174,3.1001,0.2276,7.8878,60.615,-1.8816,0.6272,-1.8173,-2.5088,3.4583e-13,-0.90866,0,0,0.16667,-9.8686e-16,0,0.66667
0.70696,0.93042,4.2417,0.64563,15.404,25.593,-7.3029,2.4343,-0.51763,-9.7372,-1.7044e-12,-0.25882,0,0,0.16667,3.9475e-16,0,0.66667
0.78053,0.45537,4.6832,-0.06695,-1.217,14.732,0.83611,-0.2787,-1.985,1.1148,-7.92e-11,-0.99248,0,0,0.16667,1.579e-15,0,0.66667
0.37488,0.11087,2.2493,-0.58369,-23.946,94.747,3.501,-1.167,-0.78994,4.668,-1.1713e-12,-0.39497,0,0,0.16667,7.8949e-16,0,0.66667
0.77032,0.95794,4.6219,0.68691,13.342,16.951,-8.4662,2.8221,-0.32143,-11.288,-2.8715e-12,-0.16071,0,0,0.16667,-0,-0,0.66667
0.75062,0.10449,4.5037,-0.59326,-12.302,19.246,7.125,-2.375,-0.7497,9.5,-8.5771e-12,-0.37485,0,0,0.16667,-1.579e-15,0,0.66667
0.61321,0.0099463,3.6793,-0.73508,-21.999,41.703,7.2122,-2.4041,-0.078218,9.6162,7.5051e-14,-0.039109,0,0,0.16667,-0,-0,0.66667
0.40187,0.45435,2.4112,-0.068473,-2.7163,87.582,0.44027,-0.14676,-1.9824,0.58703,-2.8647e-13,-0.99118,0,0,0.16667,-0,-0,0.66667
0.69731,0.15606,4.1838,-0.51591,-12.564,26.793,5.7559,-1.9186,-1.054,7.6746,4.2881e-12,-0.52698,0,0,0.16667,6.7847e-16,0,0.66667
0.0031129,0.95616,0.018677,0.68424,32.776,199.58,-0.03408,0.011365,-0.33494,-0.045438,6.7118e-06,-0.16747,0,0,0.16667,-3.084e-18,-7.597e-16,0.66667
0.7749,0.028189,4.6494,-0.70772,-13.527,16.447,8.7745,-2.9248,-0.21881,11.699,5.56e-12,-0.10941,0,0,0.16667,2.0378e-15,0,0.66667
0.89642,0.93699,5.3785,0.65549,6.0903,4.8909,-9.4015,3.1338,-0.47255,-12.535,-1.5675e-07,-0.23627,0,0,0.16667,9.8686e-17,0,0.66667
0.23932,0.059047,1.4359,-0.66143,-29.845,131.14,2.5327,-0.84422,-0.44437,3.3769,2.8924e-12,-0.22218,0,0,0.16667,-9.8686e-17,0,0.66667
0.12077,0.26721,0.7246,-0.34919,-16.357,164.9,0.67473,-0.22491,-1.5655,0.89964,5.6373e-09,-0.78277,0,0,0.16667,-0,-0,0.66667
0.22028,0.67864,1.3217,0.26796,12.102,136.25,-0.94445,0.31482,-1.7454,-1.2593,-2.0756e-10,-0.87268,0,0,0.16667,-1.9737e-16,0,0.66667
0.3021,0.87235,1.8126,0.55852,24.217,113.83,-2.6997,0.89988,-0.8908,-3.5995,3.3842e-12,-0.4454,0,0,0.16667,-4.9343e-16,0,0.66667
0.88303,0.092388,5.2982,-0.61142,-6.3446,5.6614,8.6384,-2.8795,-0.6707,11.518,2.7795e-08,-0.33535,0,0,0.16667,3.2809e-16,0,0.66667
0.54317,0.68644,3.259,0.27965,9.3227,54.948,-2.4304,0.81013,-1.7227,-3.2405,-2.458e-13,-0.86134,0,0,0.16667,-8.3884e-16,0,0.66667
0.28671,0.99719,1.7203,0.74578,32.85,118.18,-3.4212,1.1404,-0.022289,-4.5616,8.3933e-14,-0.011144,0,0,0.16667,1.9737e-16,0,0.66667
0.13835,0.8377,0.83013,0.50655,23.688,159.83,-1.1213,0.37378,-1.0882,-1.4951,-6.1627e-09,-0.54411,0,0,0.16667,-0,-0,0.66667
0.29014,0.36219,1.7409,-0.20672,-8.9759,116.85,0.95966,-0.31989,-1.8466,1.2796,7.8615e-13,-0.92331,0,0,0.16667,-0,-0,0.66667
0.61387,0.33942,3.6832,-0.24087,-7.0789,40.79,2.3658,-0.78862,-1.7936,3.1545,1.6729e-12,-0.89679,0,0,0.16667,-7.8949e-16,0,0.66667
0.32414,0.4495,1.9448,-0.075744,-3.21,107.67,0.39283,-0.13094,-1.9788,0.52377,-1.551e-12,-0.98942,0,0,0.16667,7.8949e-16,0,0.66667
0.45736,0.033987,2.7442,-0.69902,-26.481,74.673,5.1153,-1.7051,-0.26288,6.8203,-8.4732e-13,-0.13144,0,0,0.16667,-0,-0,0.66667
0.44412,0.15561,2.6647,-0.51659,-19.747,77.545,3.6708,-1.2236,-1.0512,4.8944,2.4825e-13,-0.52562,0,0,0.16667,-1.0609e-15,0,0.66667
0.82814,0.28565,4.9688,-0.32153,-4.696,9.7086,4.2603,-1.4201,-1.6347,5.6804,-1.2287e-09,-0.81734,0,0,0.16667,-0,-0,0.66667
0.42635,0.15942,2.5581,-0.51088,-19.905,81.824,3.485,-1.1617,-1.0721,4.6466,-5.1315e-13,-0.53605,0,0,0.16667,-1.579e-15,0,0.66667
0.3457,0.86473,2.0742,0.54709,22.973,102.24,-3.0261,1.0087,-0.9361,-4.0347,2.7165e-12,-0.46805,0,0,0.16667,-0,-0,0.66667
0.67497,0.57287,4.0498,0.1093,2.7939,29.913,-1.1804,0.39347,-1.9572,-1.5739,-2.4283e-12,-0.97862,0,0,0.16667,-0,-0,0.66667
0.22148,0.31745,1.3289,-0.27382,-12.36,135.92,0.97035,-0.32345,-1.7339,1.2938,1.9604e-10,-0.86695,0,0,0.16667,-0,-0,0.66667
0.46725,0.58764,2.8035,0.13146,4.8583,71.776,-0.98281,0.3276,-1.9395,-1.3104,2.8622e-13,-0.96977,0,0,0.16667,3.9475e-16,0,0.66667
0.31477,0.54619,1.8886,0.06929,2.9563,110.17,-0.34896,0.11632,-1.9829,-0.46528,5.8992e-13,-0.99143,0,0,0.16667,-0,-0,0.66667
0.62686,0.25406,3.7611,-0.36891,-10.586,38.512,3.7,-1.2333,-1.5172,4.9333,2.7387e-12,-0.75861,0,0,0.16667,-0,-0,0.66667
0.87736,0.98126,5.2642,0.72189,7.9469,6.4162,-10.134,3.3779,-0.14708,-13.512,-1.1574e-08,-0.073542,0,0,0.16667,-3.158e-15,0,0.66667
0.44769,0.45122,2.6861,-0.073165,-2.7658,76.38,0.52408,-0.17469,-1.9797,0.69877,4.3637e-13,-0.98986,0,0,0.16667,-7.8949e-16,0,0.66667
0.78446,0.28997,4.7067,-0.31505,-5.6652,14.458,3.9543,-1.3181,-1.6469,5.2724,-2.4721e-10,-0.82344,0,0,0.16667,-0,-0,0.66667
0.45697,0.6921,2.7418,0.28815,10.8,74.271,-2.1068,0.70226,-1.7048,-2.809,2.8688e-13,-0.85242,0,0,0.16667,-0,-0,0.66667
0.65623,0.76542,3.9374,0.39813,10.714,33.335,-4.1802,1.3934,-1.4378,-5.5736,-4.6256e-12,-0.7189,0,0,0.16667,7.8949e-16,0,0.66667
0.13184,0.51895,0.79105,0.028423,1.324,161.63,-0.059957,0.019986,-1.9957,-0.079942,-1.1571e-09,-0.99785,0,0,0.16667,-0,-0,0.66667
0.43298,0.21785,2.5979,-0.42323,-16.338,80.12,2.932,-0.97733,-1.3636,3.9093,-2.9066e-13,-0.68181,0,0,0.16667,-2.4672e-16,0,0.66667
0.90931,0.84675,5.4559,0.52012,4.1654,3.7238,-7.5672,2.5224,-1.0388,-10.09,-8.4836e-09,-0.5194,0,0,0.16667,3.158e-15,0,0.66667
0.60548,0.86881,3.6329,0.55322,16.672,42.779,-5.3594,1.7865,-0.91164,-7.1459,-1.3234e-12,-0.45582,0,0,0.16667,3.5852e-16,0,0.66667
0.76677,0.66496,4.6006,0.24743,4.7653,16.555,-3.0356,1.0119,-1.7832,-4.0475,1.1402e-10,-0.89162,0,0,0.16667,-0,-0,0.66667
0.5047,0.22736,3.0282,-0.40896,-14.462,63.423,3.3024,-1.1008,-1.4046,4.4032,1.501e-13,-0.70231,0,0,0.16667,-0,-0,0.66667
0.49806,0.10606,2.9883,-0.59092,-21.197,65.151,4.7089,-1.5696,-0.75865,6.2786,-7.0211e-13,-0.37933,0,0,0.16667,-0,-0,0.66667
0.8429,0.17196,5.0574,-0.49206,-6.6747,8.6153,6.6362,-2.2121,-1.1399,8.8482,-1.5119e-09,-0.56994,0,0,0.16667,1.579e-15,4.8823e-17,0.66667
0.067807,0.71147,0.40684,0.31721,15.004,180.44,-0.34414,0.11471,-1.6415,-0.45886,4.9392e-09,-0.82074,0,0,0.16667,-4.9343e-17,0,0.66667
0.57327,0.028099,3.4396,-0.70785,-22.766,49.377,6.4927,-2.1642,-0.21844,8.6569,1.994e-13,-0.10922,0,0,0.16667,-0,2.3116e-16,0.66667
0.94276,0.023751,5.6566,-0.71437,-3.7743,2.695,10.776,-3.5919,-0.18472,14.368,2.8529e-06,-0.092362,0,0,0.16667,1.579e-15,0,0.66667
0.51786,0.7344,3.1072,0.3516,12.191,60.458,-2.9132,0.97108,-1.5604,-3.8843,-6.3105e-13,-0.78021,0,0,0.16667,7.8949e-16,0,0.66667
0.19447,0.63393,1.1668,0.2009,9.1698,143.57,-0.62509,0.20836,-1.8553,-0.83346,-5.3515e-10,-0.92765,0,0,0.16667,-3.9475e-16,0,0.66667
0.84794,0.077065,5.0876,-0.6344,-8.4515,8.5243,8.607,-2.869,-0.5681,11.476,-1.3526e-09,-0.28405,0,0,0.16667,-0,-0,0.66667
0.25164,0.59101,1.5098,0.13651,6.0606,127.43,-0.54962,0.18321,-1.9352,-0.73283,-4.0711e-11,-0.96759,0,0,0.16667,5.9212e-16,0,0.66667
0.70073,0.79246,4.2044,0.4387,10.549,26.125,-4.9185,1.6395,-1.3157,-6.558,-3.8654e-12,-0.65786,0,0,0.16667,-1.579e-15,0,0.66667
0.54026,0.24544,3.2416,-0.38183,-12.813,55.661,3.3006,-1.1002,-1.481,4.4009,4.9161e-13,-0.74049,0,0,0.16667,-1.1842e-15,0,0.66667
0.94884,0.28583,5.693,-0.32125,-1.3845,1.4371,4.877,-1.6257,-1.633,6.5027,2.8762e-08,-0.81648,0,0,0.16667,-3.158e-15,0,0.66667
0.62434,0.13077,3.746,-0.55385,-16.075,39.258,5.5326,-1.8442,-0.91092,7.3768,1.4668e-12,-0.45546,0,0,0.16667,-1.579e-15,1.2551e-16,0.66667
0.83798,0.34362,5.0279,-0.23457,-3.2296,8.6522,3.1451,-1.0484,-1.8047,4.1934,-1.2837e-09,-0.90235,0,0,0.16667,-2.2821e-15,0,0.66667
0.0079329,0.37144,0.047597,-0.19284,-9.1507,198.15,0.024477,-0.0081588,-1.8673,0.032635,1.3524e-09,-0.93363,0,0,0.16667,1.542e-17,0,0.66667
0.98934,0.94382,5.936,0.66573,0.59527,1.2925,-10.538,3.5127,-0.42362,-14.051,7.3682e-06,-0.21181,0,0,0.16667,-3.158e-15,0,0.66667
0.077715,0.74187,0.46629,0.3628,17.147,177.53,-0.45112,0.15037,-1.5335,-0.60149,-6.1258e-09,-0.76674,0,0,0.16667,4.9343e-17,0,0.66667
0.32213,0.38509,1.9328,-0.17236,-7.3197,108.22,0.88838,-0.29613,-1.8932,1.1845,-3.2015e-12,-0.9466,0,0,0.16667,-0,-0,0.66667
0.94615,0.91218,5.6769,0.61827,2.9944,2.2423,-9.3597,3.1199,-0.64,-12.48,-9.1004e-08,-0.32,0,0,0.16667,-3.158e-15,0,0.66667
0.0089391,0.8855,0.053635,0.57825,27.617,197.86,-0.082705,0.027567,-0.80981,-0.11027,-1.017e-06,-0.40491,0,0,0.16667,2.4672e-17,0,0.66667
0.82273,0.98629,4.9364,0.72943,11.29,11.19,-9.602,3.2007,-0.10695,-12.803,1.9401e-10,-0.053474,0,0,0.16667,-0,-0,0.66667
0.86121,0.52822,5.1673,0.042337,0.50033,6.4747,-0.58338,0.19446,-1.9949,-0.77784,-3.9336e-09,-0.99745,0,0,0.16667,7.8949e-16,0,0.66667
0.43983,0.29252,2.639,-0.31121,-11.898,78.372,2.1901,-0.73003,-1.6557,2.9201,-5.8864e-13,-0.82783,0,0,0.16667,-0,-0,0.66667
0.25575,0.1184,1.5345,-0.57241,-25.539,126.5,2.3422,-0.78075,-0.83426,3.123,2.0273e-12,-0.41713,0,0,0.16667,-1.9737e-16,0,0.66667
0.80269,0.11417,4.8161,-0.57874,-9.7443,12.869,7.4327,-2.4776,-0.80792,9.9103,-5.8833e-12,-0.40396,0,0,0.16667,-0,-0,0.66667
0.47786,0.73687,2.8672,0.3553,12.999,69.45,-2.7166,0.90553,-1.5497,-3.6221,2.4425e-13,-0.77486,0,0,0.16667,-7.8949e-16,0,0.66667
0.13434,0.28461,0.80603,-0.32308,-15.074,160.94,0.69443,-0.23148,-1.6285,0.92591,3.6845e-09,-0.81424,0,0,0.16667,-3.9475e-16,0,0.66667
0.92785,0.61403,5.5671,0.17105,1.0474,2.1489,-2.5393,0.84643,-1.8947,-3.3857,-9.8402e-09,-0.94737,0,0,0.16667,-0,-0,0.66667
0.89597,0.088964,5.3758,-0.61655,-5.7206,4.8012,8.8386,-2.9462,-0.64797,11.785,-5.3558e-08,-0.32398,0,0,0.16667,7.8949e-16,0,0.66667
0.49155,0.9408,2.9493,0.66119,23.983,66.731,-5.2001,1.7334,-0.44513,-6.9335,-1.9673e-13,-0.22256,0,0,0.16667,-0,-0,0.66667
0.8567,0.39533,5.1402,-0.15701,-1.9175,6.9057,2.1521,-0.71738,-1.9122,2.8695,-1.6585e-09,-0.95611,0,0,0.16667,-0,-0,0.66667
0.41858,0.024395,2.5115,-0.71341,-28.204,84,4.7779,-1.5926,-0.19037,6.3705,2.0162e-13,-0.095185,0,0,0.16667,-0,-1.3519e-16,0.66667
0.68346,0.50365,4.1008,0.0054717,0.13676,28.502,-0.059836,0.019945,-2,-0.079781,-1.1873e-12,-1,0,0,0.16667,3.158e-15,0,0.66667
0.39799,0.069734,2.3879,-0.6454,-25.974,88.99,4.1098,-1.3699,-0.51792,5.4797,-1.1307e-12,-0.25896,0,0,0.16667,-0,-0,0.66667
0.50574,0.81307,3.0345,0.46961,16.609,63.263,-3.8,1.2667,-1.2161,-5.0667,-7.3586e-13,-0.60807,0,0,0.16667,1.579e-15,0,0.66667
0.18955,0.90487,1.1373,0.6073,27.981,145.14,-1.8418,0.61395,-0.69011,-2.4558,1.8956e-10,-0.34506,0,0,0.16667,-5.9212e-16,0,0.66667
0.96499,0.28151,5.7899,-0.32774,-0.9276,0.92292,5.0603,-1.6868,-1.619,6.747,4.3829e-08,-0.80949,0,0,0.16667,-3.158e-15,0,0.66667
0.29422,0.28752,1.7653,-0.31873,-13.822,115.79,1.5004,-0.50013,-1.6391,2.0005,-9.2704e-13,-0.81957,0,0,0.16667,-7.8949e-16,0,0.66667
0.10346,0.97723,0.62076,0.71585,33.956,170.07,-1.185,0.395,-0.17696,-1.58,-8.9943e-08,-0.088482,0,0,0.16667,-0,-0,0.66667
0.14432,0.60866,0.86589,0.16299,7.5699,158.01,-0.37635,0.12545,-1.9048,-0.5018,-1.9158e-09,-0.95241,0,0,0.16667,-1.9737e-16,0,0.66667
0.014092,0.54121,0.084554,0.061819,2.9309,196.32,-0.013939,0.0046483,-1.987,-0.018585,2.7816e-06,-0.99349,0,0,0.16667,-0,-0,0.66667
0.71595,0.49463,4.2957,-0.0080557,-0.18377,23.452,0.092279,-0.03076,-2.0002,0.12304,-1.7777e-13,-1.0001,0,0,0.16667,3.9475e-16,0,0.66667
0.5645,0.11561,3.387,-0.57659,-18.719,50.895,5.2077,-1.7359,-0.8183,6.9436,2.7267e-13,-0.40915,0,0,0.16667,-0,-0,0.66667
0.79458,0.78363,4.7675,0.42544,7.3599,13.45,-5.4087,1.8029,-1.3576,-7.2117,3.2413e-10,-0.67879,0,0,0.16667,-0,-0,0.66667
0.50708,0.74487,3.0425,0.36731,12.935,62.85,-2.9801,0.99336,-1.5195,-3.9734,-2.6845e-13,-0.75977,0,0,0.16667,9.8686e-16,0,0.66667
0.79182,0.4285,4.7509,-0.10726,-1.8591,13.409,1.3588,-0.45295,-1.9582,1.8118,-1.6753e-10,-0.97911,0,0,0.16667,-0,-0,0.66667
0.69576,0.66349,4.1746,0.24523,5.9451,26.651,-2.73,0.90998,-1.7851,-3.6399,-3.4905e-12,-0.89257,0,0,0.16667,1.579e-15,0,0.66667
0.77785,0.79587,4.6671,0.44381,8.2453,15.458,-5.5235,1.8412,-1.2991,-7.3646,1.288e-10,-0.64953,0,0,0.16667,1.579e-15,0,0.66667
0.40648,0.29458,2.4389,-0.30813,-12.197,86.528,2.004,-0.668,-1.6637,2.672,-9.6301e-13,-0.83183,0,0,0.16667,-7.8949e-16,0,0.66667
0.64777,0.74779,3.8866,0.37168,10.191,34.768,-3.8522,1.2841,-1.5085,-5.1363,-3.5034e-12,-0.75427,0,0,0.16667,-9.8686e-16,0,0.66667
0.17979,0.85284,1.0788,0.52925,24.428,147.88,-1.5225,0.5075,-1.0028,-2.03,-3.9373e-10,-0.5014,0,0,0.16667,3.9475e-16,0,0.66667
0.32182,0.45699,1.9309,-0.064517,-2.7387,108.28,0.33221,-0.11074,-1.9839,0.44294,-6.5364e-13,-0.99193,0,0,0.16667,-7.7586e-16,0,0.66667
0.1726,0.44045,1.0356,-0.08932,-4.1083,149.82,0.24667,-0.082224,-1.9736,0.3289,8.8911e-10,-0.98681,0,0,0.16667,-0,-0,0.66667
0.40864,0.25108,2.4518,-0.37338,-14.766,86.042,2.4413,-0.81375,-1.5056,3.255,-1.1038e-12,-0.75282,0,0,0.16667,-0,-0,0.66667
0.24142,0.51032,1.4485,0.015473,0.69041,130.27,-0.059769,0.019923,-1.9978,-0.079693,-9.5069e-13,-0.99891,0,0,0.16667,-0,-0,0.66667
0.40692,0.045262,2.4415,-0.68211,-27.251,86.821,4.441,-1.4803,-0.34662,5.9214,-1.4952e-12,-0.17331,0,0,0.16667,7.8949e-16,0,0.66667
0.97522,0.49627,5.8513,-0.0055942,-0.0098744,0.38603,0.08729,-0.029093,-1.9994,0.11639,5.9071e-06,-0.99971,0,0,0.16667,7.8949e-16,0,0.66667
0.32032,0.7315,1.9219,0.34725,14.798,108.78,-1.7797,0.59322,-1.5698,-2.3729,4.6518e-12,-0.78489,0,0,0.16667,-0,-0,0.66667
0.98249,0.52178,5.8949,0.032676,0.035422,0.23941,-0.51366,0.17122,-1.9966,-0.68488,4.6481e-07,-0.9983,0,0,0.16667,-1.579e-15,0,0.66667
0.63631,0.70967,3.8178,0.3145,8.8328,36.736,-3.2019,1.0673,-1.6477,-4.2692,-3.3207e-12,-0.82383,0,0,0.16667,-0,-0,0.66667
0.37509,0.51326,2.2505,0.019893,0.80893,94.352,-0.11939,0.039796,-1.9999,-0.15918,-2.4419e-13,-0.99997,0,0,0.16667,-0,-0,0.66667
0.85748,0.30267,5.1449,-0.29599,-3.6153,6.9833,4.0609,-1.3536,-1.6889,5.4146,-2.8044e-09,-0.84443,0,0,0.16667,-0,-0,0.66667
0.61959,0.36798,3.7175,-0.19803,-5.749,39.691,1.9632,-0.65438,-1.8598,2.6175,1.5989e-12,-0.92991,0,0,0.16667,-0,-0,0.66667
0.25203,0.2038,1.5122,-0.4443,-19.803,127.44,1.7916,-0.59721,-1.2982,2.3889,2.7116e-11,-0.6491,0,0,0.16667,-0,-0,0.66667
0.79286,0.30441,4.7571,-0.29338,-5.085,13.447,3.7218,-1.2406,-1.6935,4.9624,-3.4736e-10,-0.84675,0,0,0.16667,-0,-0,0.66667
0.43294,0.94668,2.5976,0.67002,26.054,80.442,-4.6412,1.5471,-0.40309,-6.1883,1.8385e-13,-0.20155,0,0,0.16667,-0,-0,0.66667
0.35751,0.30176,2.1451,-0.29737,-12.303,98.969,1.701,-0.567,-1.6859,2.268,-3.1061e-12,-0.84296,0,0,0.16667,-3.9475e-16,0,0.66667
0.33028,0.38914,1.9817,-0.16629,-7.019,106.06,0.87874,-0.29291,-1.9017,1.1717,-3.436e-12,-0.95084,0,0,0.16667,-0,-0,0.66667
0.69737,0.1887,4.1842,-0.46695,-11.346,26.694,5.2101,-1.7367,-1.2249,6.9468,4.0377e-12,-0.61243,0,0,0.16667,-0,-0,0.66667
0.26865,0.31974,1.6119,-0.27039,-11.905,122.76,1.1623,-0.38742,-1.7401,1.5497,1.6317e-11,-0.87005,0,0,0.16667,-0,-0,0.66667
0.80828,0.67173,4.8497,0.2576,4.1541,11.682,-3.3314,1.1105,-1.7631,-4.4418,5.8247e-10,-0.88157,0,0,0.16667,-0,-0,0.66667
0.29529,0.40241,1.7717,-0.14639,-6.332,115.44,0.69165,-0.23055,-1.9251,0.9222,-8.5082e-13,-0.96254,0,0,0.16667,-4.9343e-16,0,0.66667
0.54412,0.35964,3.2647,-0.21055,-7.0009,54.698,1.833,-0.611,-1.8421,2.444,1.1313e-13,-0.92103,0,0,0.16667,7.8949e-16,0,0.66667
0.48792,0.019674,2.9275,-0.72049,-26.318,67.658,5.6247,-1.8749,-0.15373,7.4996,-8.2068e-13,-0.076867,0,0,0.16667,-0,-0,0.66667
0.85536,0.75373,5.1321,0.38059,4.7377,7.2948,-5.2087,1.7362,-1.4851,-6.9449,2.8779e-09,-0.74256,0,0,0.16667,-0,-0,0.66667
0.88839,0.49995,5.3303,-7.2455e-05,-0.00069067,4.403,0.0010299,-0.00034331,-2.0016,0.0013732,-1.9341e-08,-1.0008,0,0,0.16667,4.3175e-17,0,0.66667
0.18438,0.37194,1.1063,-0.19209,-8.802,146.45,0.56669,-0.1889,-1.8694,0.75558,4.5111e-10,-0.93471,0,0,0.16667,2.4672e-16,0,0.66667
0.58535,0.020792,3.5121,-0.71881,-22.647,47.004,6.7321,-2.244,-0.16154,8.9761,4.2144e-13,-0.080769,0,0,0.16667,-0,-0,0.66667
0.89821,0.97006,5.3892,0.70509,6.4918,4.9391,-10.133,3.3777,-0.23226,-13.511,1.1615e-07,-0.11613,0,0,0.16667,-0,-0,0.66667
0.44612,0.35913,2.6767,-0.21131,-8.0106,76.803,1.5083,-0.50276,-1.8397,2.011,-1.6576e-13,-0.91986,0,0,0.16667,-7.8949e-16,0,0.66667
0.92187,0.49659,5.5312,-0.0051189,-0.033905,2.3765,0.075504,-0.025168,-2.0023,0.10067,-2.4569e-07,-1.0012,0,0,0.16667,2.3685e-15,0,0.66667
0.27899,0.61758,1.6739,0.17637,7.7098,119.89,-0.7873,0.26243,-1.8898,-1.0497,-5.6264e-12,-0.9449,0,0,0.16667,-0,-0,0.66667
0.60883,0.34111,3.653,-0.23833,-7.0743,41.739,2.3216,-0.77387,-1.8002,3.0955,9.1216e-13,-0.90011,0,0,0.16667,9.8686e-16,0,0.66667
0.68245,0.94513,4.0947,0.6677,17.042,29.477,-7.2908,2.4303,-0.41413,-9.721,-1.0352e-12,-0.20707,0,0,0.16667,-0,-0,0.66667
0.22821,0.027929,1.3692,-0.70811,-32.174,134.28,2.5855,-0.86183,-0.21683,3.4473,-1.818e-11,-0.10842,0,0,0.16667,-0,-0,0.66667
0.013768,0.77805,0.082605,0.41707,19.848,196.42,-0.091873,0.030624,-1.3828,-0.1225,-4.3038e-08,-0.69138,0,0,0.16667,3.7007e-17,0,0.66667
0.41672,0.85534,2.5003,0.53301,20.988,84.204,-3.5539,1.1846,-0.98878,-4.7385,6.8434e-13,-0.49439,0,0,0.16667,-0,-0,0.66667
0.93848,0.86094,5.6309,0.5414,2.9478,2.324,-8.1296,2.7099,-0.95852,-10.839,7.4297e-08,-0.47926,0,0,0.16667,-0,-0,0.66667
0.34303,0.36286,2.0582,-0.20571,-8.6014,102.71,1.1291,-0.37635,-1.8505,1.5054,-3.4569e-12,-0.92524,0,0,0.16667,-0,-0,0.66667
0.77974,0.63537,4.6785,0.20306,3.7109,14.904,-2.5333,0.84444,-1.854,-3.3778,1.8695e-10,-0.92698,0,0,0.16667,-0,-0,0.66667
0.17474,0.41445,1.0484,-0.12832,-5.8987,149.21,0.35876,-0.11959,-1.9415,0.47835,5.3407e-10,-0.97073,0,0,0.16667,-0,-0,0.66667
0.34195,0.60786,2.0517,0.16178,6.7675,102.97,-0.88515,0.29505,-1.9071,-1.1802,3.1879e-12,-0.95357,0,0,0.16667,-0,-0,0.66667
0.1446,0.66219,0.86759,0.24329,11.307,157.94,-0.56287,0.18762,-1.7894,-0.7505,-2.4694e-09,-0.89468,0,0,0.16667,-3.9475e-16,0,0.66667
0.71677,0.78186,4.3006,0.42279,9.6995,23.671,-4.8487,1.6162,-1.3661,-6.465,-1.12e-12,-0.68305,0,0,0.16667,-0,-0,0.66667
0.69931,0.22224,4.1958,-0.41665,-10.051,26.309,4.6618,-1.5539,-1.383,6.2158,4.484e-12,-0.69151,0,0,0.16667,-0,-0,0.66667
0.6885,0.74969,4.131,0.37453,9.2917,27.949,-4.1258,1.3753,-1.5036,-5.5011,-5.1998e-12,-0.75179,0,0,0.16667,7.6482e-16,0,0.66667
0.2534,0.1817,1.5204,-0.47745,-21.28,127.08,1.9357,-0.64525,-1.1895,2.581,2.2111e-11,-0.59477,0,0,0.16667,-0,-0,0.66667
0.69236,0.64782,4.1542,0.22173,5.423,27.168,-2.4562,0.81874,-1.8244,-3.275,-3.4701e-12,-0.91222,0,0,0.16667,7.8949e-16,0,0.66667
0.2273,0.64085,1.3638,0.21128,9.5039,134.26,-0.76837,0.25612,-1.8398,-1.0245,-1.4891e-10,-0.91988,0,0,0.16667,-2.6917e-16,0,0.66667
0.42465,0.073921,2.5479,-0.63912,-25.044,82.405,4.3424,-1.4475,-0.54745,5.7899,1.4788e-13,-0.27372,0,0,0.16667,-0,-0,0.66667
0.37192,0.44403,2.2315,-0.083958,-3.4242,95.171,0.49961,-0.16654,-1.975,0.66615,-1.5778e-12,-0.98752,0,0,0.16667,7.8949e-16,0,0.66667
0.35531,0.85665,2.1318,0.53498,22.284,99.728,-3.0413,1.0138,-0.98156,-4.0551,2.5577e-12,-0.49078,0,0,0.16667,-0,-0,0.66667
0.057655,0.8131,0.34593,0.46965,22.302,183.46,-0.43324,0.14441,-1.2162,-0.57766,-3.3133e-08,-0.6081,0,0,0.16667,1.9737e-16,0,0.66667
0.63165,0.2477,3.7899,-0.37845,-10.753,37.651,3.8247,-1.2749,-1.4905,5.0996,2.7165e-12,-0.74527,0,0,0.16667,9.8686e-16,0,0.66667
0.70732,0.67901,4.2439,0.26851,6.3039,24.888,-3.0388,1.0129,-1.7431,-4.0517,-7.2076e-13,-0.87154,0,0,0.16667,-0,-0,0.66667
0.61359,0.30847,3.6815,-0.2873,-8.4553,40.883,2.8205,-0.94017,-1.7065,3.7607,2.1896e-12,-0.85327,0,0,0.16667,-3.9475e-16,0,0.66667
0.64831,0.033284,3.8899,-0.70007,-19.427,35.282,7.2619,-2.4206,-0.25716,9.6825,-1.5765e-13,-0.12858,0,0,0.16667,1.579e-15,0,0.66667
0.16994,0.43088,1.0196,-0.10368,-4.7738,150.59,0.28192,-0.093974,-1.9625,0.3759,1.0967e-09,-0.98123,0,0,0.16667,-9.6748e-17,0,0.66667
0.14945,0.55898,0.89668,0.088468,4.1007,156.51,-0.21154,0.070513,-1.9717,-0.28205,7.8904e-10,-0.98585,0,0,0.16667,-5.4441e-17,0,0.66667
0.51418,0.30033,3.0851,-0.2995,-10.429,61.22,2.464,-0.82132,-1.6815,3.2853,5.107e-15,-0.84077,0,0,0.16667,7.8949e-16,0,0.66667
0.87533,0.54355,5.252,0.065318,0.69518,5.3597,-0.9148,0.30493,-1.986,-1.2197,2.4127e-09,-0.99302,0,0,0.16667,-1.579e-15,0,0.66667
0.18395,0.46484,1.1037,-0.052738,-2.4151,146.56,0.15522,-0.05174,-1.9904,0.20696,5.3114e-10,-0.9952,0,0,0.16667,-1.9737e-16,0,0.66667
0.46284,0.77951,2.777,0.41926,15.645,73.003,-3.1048,1.0349,-1.375,-4.1398,4.8872e-13,-0.68749,0,0,0.16667,7.8949e-16,0,0.66667
0.42893,0.70663,2.5736,0.30994,11.99,81.007,-2.1271,0.70904,-1.657,-2.8362,6.3061e-13,-0.8285,0,0,0.16667,-0,-0,0.66667
0.49729,0.85799,2.9837,0.53699,19.249,65.242,-4.2726,1.4242,-0.97446,-5.6968,2.4292e-13,-0.48723,0,0,0.16667,-0,-0,0.66667
0.16151,0.44092,0.96906,-0.088626,-4.0921,153.02,0.22902,-0.076342,-1.9719,0.30537,8.5641e-10,-0.98594,0,0,0.16667,-3.9475e-16,0,0.66667
0.34244,0.70226,2.0546,0.30339,12.707,102.91,-1.6623,0.5541,-1.6732,-2.2164,4.4569e-12,-0.83661,0,0,0.16667,-0,-0,0.66667
0.26188,0.69858,1.5713,0.29787,13.171,124.64,-1.2481,0.41603,-1.6839,-1.6641,-2.8229e-11,-0.84196,0,0,0.16667,-0,-0,0.66667
0.84453,0.44797,5.0672,-0.078039,-1.0292,7.9359,1.0545,-0.3515,-1.9794,1.406,4.0625e-11,-0.98968,0,0,0.16667,-1.579e-15,0,0.66667
0.80033,0.99014,4.802,0.7352,12.669,13.568,-9.4145,3.1382,-0.077733,-12.553,-2.7577e-10,-0.038867,0,0,0.16667,-2.3685e-15,0,0.66667
0.42664,0.4639,2.5598,-0.054156,-2.0949,81.46,0.36968,-0.12323,-1.9893,0.49291,5.1015e-14,-0.99464,0,0,0.16667,1.9737e-16,0,0.66667
0.60702,0.010805,3.6421,-0.73379,-22.226,42.863,7.1268,-2.3756,-0.085549,9.5024,5.0271e-13,-0.042775,0,0,0.16667,-0,1.7859e-16,0.66667
0.14547,0.5616,0.87279,0.092399,4.2882,157.67,-0.21505,0.071685,-1.97,-0.28674,-3.6884e-10,-0.98502,0,0,0.16667,-6.1679e-17,0,0.66667
0.50961,0.58758,3.0577,0.13137,4.5938,62.129,-1.0712,0.35705,-1.9379,-1.4282,-2.8599e-13,-0.96894,0,0,0.16667,3.9475e-16,0,0.66667
0.29695,0.43294,1.7817,-0.10059,-4.3449,114.98,0.47791,-0.1593,-1.9662,0.63722,-1.9762e-13,-0.98311,0,0,0.16667,5.9212e-16,0,0.66667
0.85965,0.31459,5.1579,-0.27812,-3.3443,6.7778,3.8253,-1.2751,-1.7274,5.1004,-3.1743e-09,-0.86372,0,0,0.16667,-0,-0,0.66667
0.6716,0.41055,4.0296,-0.13418,-3.4598,30.484,1.4418,-0.4806,-1.9381,1.9224,2.7113e-12,-0.96903,0,0,0.16667,-0,-0,0.66667
0.63347,0.15335,3.8008,-0.51997,-14.785,37.535,5.2702,-1.7567,-1.0383,7.027,1.5268e-12,-0.51914,0,0,0.16667,1.1744e-15,0,0.66667
0.12475,0.44549,0.74851,-0.081772,-3.8168,163.7,0.16322,-0.054406,-1.9778,0.21762,-3.6437e-09,-0.98892,0,0,0.16667,-0,-0,0.66667
0.47059,0.32321,2.8235,-0.26519,-9.7748,71.063,1.9967,-0.66557,-1.7503,2.6623,1.6753e-13,-0.87515,0,0,0.16667,-0,-0,0.66667
0.98657,0.73172,5.9194,0.34759,0.28582,0.48366,-5.4867,1.8289,-1.5704,-7.3156,4.19e-08,-0.78522,0,0,0.16667,1.579e-15,0,0.66667
0.9483,0.38557,5.6898,-0.17165,-0.73503,1.2705,2.6044,-0.86812,-1.8943,3.4725,-3.4356e-09,-0.94715,0,0,0.16667,-0,-0,0.66667
0.64509,0.87411,3.8705,0.56117,15.583,35.544,-5.7921,1.9307,-0.88082,-7.7227,-1.9189e-12,-0.44041,0,0,0.16667,9.8686e-17,0,0.66667
0.15172,0.86373,0.91035,0.54559,25.436,155.97,-1.3245,0.44149,-0.94072,-1.766,-3.7092e-09,-0.47036,0,0,0.16667,1.9737e-16,0,0.66667
0.63913,0.73845,3.8348,0.35768,9.9942,36.28,-3.6576,1.2192,-1.5456,-4.8768,-3.4357e-12,-0.77281,0,0,0.16667,7.8949e-16,0,0.66667
0.56566,0.97989,3.394,0.71983,23.463,50.938,-6.5149,2.1716,-0.1573,-8.6865,3.3529e-13,-0.07865,0,0,0.16667,-0,-0,0.66667
0.46867,0.55926,2.812,0.088886,3.2783,71.433,-0.66653,0.22218,-1.9743,-0.8887,-3.203e-13,-0.98715,0,0,0.16667,-0,-0,0.66667
0.42804,0.5768,2.5682,0.1152,4.4507,81.131,-0.78894,0.26298,-1.9514,-1.0519,4.2633e-14,-0.97571,0,0,0.16667,7.8949e-16,0,0.66667
0.59927,0.50969,3.5956,0.014532,0.43856,43.477,-0.13934,0.046446,-1.9982,-0.18579,-1.5576e-13,-0.9991,0,0,0.16667,-0,-0,0.66667
0.84997,0.52678,5.0998,0.040168,0.51177,7.4373,-0.54626,0.18209,-1.9937,-0.72835,1.9295e-09,-0.99685,0,0,0.16667,1.579e-15,0,0.66667
0.75112,0.24786,4.5067,-0.37821,-7.7473,18.761,4.5453,-1.5151,-1.4933,6.0604,-5.1843e-11,-0.74664,0,0,0.16667,-1.7764e-15,0,0.66667
0.57936,0.55503,3.4762,0.082548,2.5848,47.399,-0.76521,0.25507,-1.9768,-1.0203,-3.6249e-13,-0.98838,0,0,0.16667,-0,-0,0.66667
0.9247,0.55605,5.5482,0.08407,0.53639,2.2492,-1.2438,0.41461,-1.9751,-1.6584,5.3774e-08,-0.98755,0,0,0.16667,-0,-0,0.66667
0.06474,0.071573,0.38844,-0.64264,-30.618,181.4,0.66567,-0.22189,-0.53185,0.88756,3.4149e-08,-0.26592,0,0,0.16667,-0,-0,0.66667
0.99135,0.18605,5.9481,-0.47093,-0.22312,0.68133,7.4697,-2.4899,-1.2114,9.9596,-1.5481e-07,-0.60568,0,0,0.16667,-2.1711e-15,0,0.66667
0.052995,0.087282,0.31797,-0.61908,-29.517,184.86,0.52492,-0.17497,-0.63649,0.6999,-9.5474e-09,-0.31824,0,0,0.16667,-4.9343e-17,0,0.66667
0.1995,0.6076,1.197,0.1614,7.3489,142.13,-0.51517,0.17172,-1.9067,-0.68689,-3.2059e-10,-0.95335,0,0,0.16667,-0,-0,0.66667
0.42275,0.48425,2.5365,-0.023632,-0.91784,82.408,0.15985,-0.053283,-1.9988,0.21313,3.6499e-14,-0.99939,0,0,0.16667,-0,-0,0.66667
0.10751,0.1584,0.64505,-0.5124,-24.152,168.82,0.88141,-0.2938,-1.0679,1.1752,2.3714e-08,-0.53394,0,0,0.16667,-3.9475e-16,0,0.66667
0.62367,0.27271,3.742,-0.34093,-9.8416,39.063,3.4021,-1.134,-1.5875,4.5361,2.3688e-12,-0.79377,0,0,0.16667,-0,-0,0.66667
0.047993,0.073561,0.28796,-0.63966,-30.531,186.33,0.49118,-0.16373,-0.54595,0.65491,3.4103e-07,-0.27297,0,0,0.16667,-0,-0,0.66667
0.28462,0.58312,1.7077,0.12468,5.4291,118.33,-0.56779,0.18926,-1.9443,-0.75706,-4.0183e-12,-0.97215,0,0,0.16667,-3.9475e-16,0,0.66667
0.061037,0.52665,0.36622,0.039981,1.8887,182.42,-0.039045,0.013015,-1.9956,-0.05206,-2.0806e-07,-0.99778,0,0,0.16667,-0,-0,0.66667
0.70352,0.70154,4.2211,0.30231,7.1811,25.505,-3.4029,1.1343,-1.6762,-4.5372,-2.3614e-12,-0.83809,0,0,0.16667,-0,-0,0.66667
0.66846,0.56295,4.0107,0.094426,2.453,30.993,-1.0099,0.33664,-1.9693,-1.3465,-2.1056e-12,-0.98465,0,0,0.16667,-0,-0,0.66667
0.37858,0.6871,2.2715,0.28065,11.4,93.539,-1.7,0.56666,-1.7209,-2.2666,2.553e-12,-0.86044,0,0,0.16667,-1.8504e-16,0,0.66667
0.18819,0.02023,1.1292,-0.71965,-33.287,145.6,2.167,-0.72232,-0.1596,2.8893,3.6444e-10,-0.079801,0,0,0.16667,-0,-0,0.66667
0.747,0.50918,4.482,0.013767,0.28405,19.03,-0.16455,0.05485,-1.9992,-0.2194,3.2305e-12,-0.99959,0,0,0.16667,-3.158e-15,0,0.66667
0.34038,0.80899,2.0423,0.46348,19.502,103.56,-2.5241,0.84138,-1.2366,-3.3655,3.3118e-12,-0.61832,0,0,0.16667,-1.9737e-16,0,0.66667
0.7953,0.52375,4.7718,0.035631,0.60779,12.987,-0.4534,0.15113,-1.9963,-0.60453,4.5169e-11,-0.99814,0,0,0.16667,-1.579e-15,0,0.66667
0.4879,0.56509,2.9274,0.097637,3.515,66.999,-0.76219,0.25406,-1.9666,-1.0163,2.246e-13,-0.98331,0,0,0.16667,-1.579e-15,0,0.66667
0.52567,0.96997,3.154,0.70495,24.439,59.28,-5.9291,1.9764,-0.23319,-7.9055,9.1482e-14,-0.1166,0,0,0.16667,-0,-0,0.66667
0.028491,0.57824,0.17095,0.11736,5.5618,192.06,-0.053498,0.017833,-1.9507,-0.071331,2.0872e-07,-0.97535,0,0,0.16667,-4.9343e-17,0,0.66667
0.64423,0.66446,3.8654,0.2467,6.7985,35.258,-2.5429,0.84763,-1.7833,-3.3905,-3.6791e-12,-0.89165,0,0,0.16667,-0,-0,0.66667
0.35066,0.41714,2.1039,-0.12428,-5.1616,100.68,0.69729,-0.23243,-1.9437,0.92972,-2.1373e-12,-0.97186,0,0,0.16667,7.8949e-16,0,0.66667
0.22921,0.98754,1.3752,0.73131,33.238,134.02,-2.6819,0.89398,-0.09728,-3.5759,4.7397e-11,-0.04864,0,0,0.16667,-3.9475e-16,0,0.66667
0.43388,0.23147,2.6033,-0.40279,-15.527,79.883,2.7962,-0.93208,-1.4225,3.7283,-7.7294e-13,-0.71125,0,0,0.16667,-0,-0,0.66667
0.38247,0.74851,2.2948,0.37277,15.112,92.611,-2.2812,0.76039,-1.5058,-3.0416,1.9269e-12,-0.75289,0,0,0.16667,2.9606e-16,0,0.66667
0.46979,0.99139,2.8187,0.73708,27.557,71.842,-5.5403,1.8468,-0.069317,-7.3871,-9.015e-14,-0.034659,0,0,0.16667,-1.1842e-15,0,0.66667
0.97948,0.35597,5.8769,-0.21605,-0.3056,0.41673,3.3859,-1.1286,-1.833,4.5145,1.9456e-08,-0.91649,0,0,0.16667,1.579e-15,0,0.66667
0.36438,0.42522,2.1863,-0.11217,-4.6054,97.118,0.65397,-0.21799,-1.9542,0.87196,-1.4821e-12,-0.97709,0,0,0.16667,-0,-0,0.66667
0.77441,0.93138,4.6465,0.64707,12.336,16.337,-8.0175,2.6725,-0.51043,-10.69,2.3896e-11,-0.25522,0,0,0.16667,-3.9475e-16,0,0.66667
0.55277,0.45897,3.3166,-0.061552,-2.0161,52.824,0.54438,-0.18146,-1.9854,0.72584,-3.1475e-14,-0.9927,0,0,0.16667,-0,-0,0.66667
0.88913,0.82647,5.3348,0.48971,4.7594,4.9202,-6.9666,2.3222,-1.1477,-9.2888,7.2874e-09,-0.57386,0,0,0.16667,-1.579e-15,0,0.66667
0.35495,0.74497,2.1297,0.36746,15.253,99.677,-2.0869,0.69563,-1.5197,-2.7825,4.2268e-12,-0.75985,0,0,0.16667,-1.9737e-16,0,0.66667
0.24552,0.12662,1.4731,-0.56008,-25.119,129.33,2.2001,-0.73338,-0.88504,2.9335,4.0886e-11,-0.44252,0,0,0.16667,-0,-0,0.66667
0.91102,0.49408,5.4661,-0.0088781,-0.06728,2.9691,0.12941,-0.043136,-1.9993,0.17255,1.416e-07,-0.99964,0,0,0.16667,2.3685e-15,0,0.66667
0.043534,0.66162,0.26121,0.24243,11.488,187.61,-0.16886,0.056287,-1.7912,-0.22515,3.742e-08,-0.89559,0,0,0.16667,-0,-0,0.66667
0.95075,0.70915,5.7045,0.31372,1.2957,1.3551,-4.7724,1.5908,-1.6502,-6.3632,-3.1337e-08,-0.82509,0,0,0.16667,7.8949e-16,0,0.66667
0.55641,0.5027,3.3384,0.0040521,0.13192,52.062,-0.036074,0.012025,-1.9997,-0.048099,-8.9521e-13,-0.99985,0,0,0.16667,-0,-0,0.66667
0.37636,0.60035,2.2582,0.15052,6.1172,94.049,-0.9064,0.30213,-1.9205,-1.2085,1.3458e-12,-0.96023,0,0,0.16667,-0,-0,0.66667
0.99505,0.896,5.9703,0.594,0.15228,0.98534,-9.4569,3.1523,-0.74453,-12.609,1.5284e-06,-0.37227,0,0,0.16667,-7.8949e-16,1.7403e-16,0.66667
0.058363,0.50854,0.35018,0.012815,0.60552,183.21,-0.011966,0.0039893,-1.9989,-0.015955,7.8784e-07,-0.99943,0,0,0.16667,-0,-0,0.66667
0.51671,0.80625,3.1002,0.45937,15.995,60.831,-3.7977,1.2659,-1.251,-5.0636,-6.1839e-13,-0.62548,0,0,0.16667,3.9475e-16,0,0.66667
0.031097,0.74523,0.18658,0.36785,17.477,191.29,-0.18302,0.061008,-1.521,-0.24403,6.4497e-08,-0.76049,0,0,0.16667,1.2336e-17,0,0.66667
0.57118,0.0011151,3.4271,-0.74833,-24.199,49.888,6.8388,-2.2796,-0.0088742,9.1184,-2.3657e-12,-0.0044371,0,0,0.16667,3.158e-15,0,0.66667
0.18047,0.69963,1.0828,0.29944,13.758,147.6,-0.86464,0.28821,-1.6798,-1.1529,-8.6381e-10,-0.83988,0,0,0.16667,-0,-0,0.66667
0.63096,0.3873,3.7858,-0.16904,-4.7902,37.583,1.7066,-0.56885,-1.8971,2.2754,1.8764e-12,-0.94855,0,0,0.16667,-0,-0,0.66667
0.98092,0.77526,5.8855,0.41289,0.58106,0.71223,-6.4802,2.1601,-1.3939,-8.6402,-6.8685e-08,-0.69694,0,0,0.16667,-7.8949e-16,0,0.66667
0.8749,0.21868,5.2494,-0.42198,-4.5825,5.7978,5.907,-1.969,-1.3699,7.876,-4.315e-09,-0.68494,0,0,0.16667,6.723e-16,0,0.66667
0.45184,0.39203,2.711,-0.16195,-6.0965,75.418,1.1708,-0.39027,-1.9073,1.5611,-5.4257e-13,-0.95363,0,0,0.16667,-0,-0,0.66667
0.70846,0.7781,4.2508,0.41715,9.8052,24.907,-4.7286,1.5762,-1.3811,-6.3047,-1.95e-12,-0.69056,0,0,0.16667,1.9737e-16,0,0.66667
0.77747,0.31181,4.6648,-0.28228,-5.2181,15.261,3.5115,-1.1705,-1.7175,4.6819,-1.9331e-10,-0.85874,0,0,0.16667,-3.454e-16,0,0.66667
0.49484,0.46284,2.9691,-0.055739,-1.988,65.416,0.44131,-0.1471,-1.9884,0.58842,4.7184e-13,-0.9942,0,0,0.16667,-0,-0,0.66667
0.52853,0.82472,3.1712,0.48708,16.684,58.298,-4.119,1.373,-1.1562,-5.492,-4.4764e-13,-0.57812,0,0,0.16667,-0,-0,0.66667
0.15078,0.95618,0.90471,0.68427,32.031,156.31,-1.6508,0.55028,-0.33399,-2.2011,-4.2808e-09,-0.16699,0,0,0.16667,-0,-0,0.66667
0.3694,0.86627,2.2164,0.5494,22.624,96.109,-3.2472,1.0824,-0.9258,-4.3296,1.1162e-12,-0.4629,0,0,0.16667,-0,-0,0.66667
0.14222,0.52989,0.85333,0.044832,2.0823,158.61,-0.10202,0.034005,-1.9946,-0.13602,1.5692e-09,-0.99729,0,0,0.16667,9.8686e-17,0,0.66667
0.72689,0.79734,4.3614,0.44601,9.9285,22.232,-5.1872,1.7291,-1.2912,-6.9163,4.9418e-12,-0.64559,0,0,0.16667,-0,-0,0.66667
0.47701,0.11649,2.8621,-0.57526,-21.191,69.906,4.3905,-1.4635,-0.82221,5.854,-1.1116e-12,-0.4111,0,0,0.16667,3.9475e-16,0,0.66667
0.44888,0.48481,2.6933,-0.02278,-0.85983,76.091,0.1636,-0.054535,-1.9972,0.21814,-2.1866e-13,-0.99861,0,0,0.16667,7.8949e-16,0,0.66667
0.886,0.36503,5.316,-0.20246,-1.98,4.6666,2.8701,-0.9567,-1.8534,3.8268,-1.4009e-09,-0.92671,0,0,0.16667,-0,-0,0.66667
0.52762,0.20483,3.1657,-0.44276,-15.168,58.437,3.7378,-1.2459,-1.3023,4.9837,-6.8434e-13,-0.65114,0,0,0.16667,7.8949e-16,0,0.66667
0.40909,0.21943,2.4545,-0.42085,-16.652,85.97,2.7547,-0.91822,-1.3715,3.6729,-1.6749e-12,-0.68573,0,0,0.16667,1.579e-15,0,0.66667
0.26889,0.11081,1.6134,-0.58378,-25.861,122.88,2.5116,-0.8372,-0.78771,3.3488,-1.9065e-12,-0.39386,0,0,0.16667,-0,-0,0.66667
0.072012,0.5675,0.43207,0.10124,4.7765,179.19,-0.11665,0.038884,-1.9629,-0.15554,-8.7457e-08,-0.98147,0,0,0.16667,-1.9737e-16,0,0.66667
0.41814,0.52188,2.5088,0.032816,1.2807,83.542,-0.21954,0.073181,-1.9957,-0.29273,-5.0432e-13,-0.99785,0,0,0.16667,-0,-0,0.66667
0.025753,0.45813,0.15452,-0.062798,-2.9759,192.87,0.025876,-0.0086246,-1.9849,0.034502,1.3002e-06,-0.99243,0,0,0.16667,2.4672e-17,0,0.66667
0.29115,0.94646,1.7469,0.66969,29.341,116.89,-3.1197,1.0399,-0.40438,-4.1596,-6.2883e-13,-0.20219,0,0,0.16667,-0,-0,0.66667
0.50351,0.52561,3.0211,0.03842,1.3543,63.466,-0.30952,0.10317,-1.9948,-0.41269,-4.1825e-13,-0.9974,0,0,0.16667,-7.8949e-16,0,0.66667
0.96593,0.65248,5.7956,0.22872,0.61427,0.75478,-3.5349,1.1783,-1.8146,-4.7132,-1.3732e-08,-0.90731,0,0,0.16667,-1.0877e-16,0,0.66667
0.10938,0.024019,0.6563,-0.71397,-33.822,168.34,1.2495,-0.41651,-0.18941,1.6661,5.6567e-08,-0.094705,0,0,0.16667,-1.9737e-16,0,0.66667
0.67304,0.12264,4.0382,-0.56604,-14.72,30.787,6.0954,-2.0318,-0.86262,8.1273,3.0318e-12,-0.43131,0,0,0.16667,-1.1842e-15,0,0.66667
0.49993,0.27832,2.9996,-0.33252,-11.816,64.413,2.6598,-0.8866,-1.6093,3.5464,-3.9857e-13,-0.80466,0,0,0.16667,1.4801e-16,0,0.66667
0.7771,0.67419,4.6626,0.26129,4.8341,15.282,-3.2487,1.0829,-1.7564,-4.3316,1.8294e-10,-0.8782,0,0,0.16667,-0,-0,0.66667
0.14361,0.50882,0.86164,0.013232,0.61432,158.2,-0.030403,0.010134,-1.9993,-0.040538,-7.0165e-10,-0.99964,0,0,0.16667,-0,-0,0.66667
0.083203,0.96121,0.49922,0.69181,32.917,175.99,-0.92096,0.30699,-0.29759,-1.228,1.057e-07,-0.14879,0,0,0.16667,1.973e-16,0,0.66667
0.39922,0.32228,2.3953,-0.26658,-10.621,88.315,1.7028,-0.5676,-1.746,2.2704,-2.3028e-12,-0.87302,0,0,0.16667,-0,-0,0.66667
0.79696,0.33682,4.7818,-0.24477,-4.159,12.922,3.1211,-1.0404,-1.7888,4.1615,-3.7729e-10,-0.89441,0,0,0.16667,-0,-0,0.66667
0.19168,0.28407,1.1501,-0.32389,-14.822,144.4,0.99332,-0.33111,-1.6272,1.3244,6.3102e-10,-0.81362,0,0,0.16667,-0,-0,0.66667
0.76778,0.65575,4.6067,0.23363,4.4806,16.414,-2.87,0.95668,-1.8075,-3.8267,1.0986e-10,-0.90376,0,0,0.16667,2.9606e-16,0,0.66667
0.2903,0.98991,1.7418,0.73486,32.284,117.19,-3.4133,1.1378,-0.078668,-4.551,1.0587e-12,-0.039334,0,0,0.16667,3.9475e-16,0,0.66667
0.21689,0.72754,1.3013,0.34131,15.454,137.24,-1.1844,0.39481,-1.5863,-1.5792,-2.3547e-10,-0.79314,0,0,0.16667,-0,-0,0.66667
0.016716,0.41989,0.10029,-0.12016,-5.698,195.54,0.032137,-0.010712,-1.9493,0.04285,2.6477e-08,-0.97466,0,0,0.16667,-0,-0,0.66667
0.39866,0.24323,2.392,-0.38515,-15.384,88.538,2.4567,-0.81891,-1.4716,3.2756,-1.9966e-12,-0.73578,0,0,0.16667,-3.9475e-16,0,0.66667
0.38108,0.80404,2.2865,0.45606,18.544,93.033,-2.7807,0.92691,-1.2594,-3.7077,1.6878e-12,-0.62972,0,0,0.16667,-3.9475e-16,0,0.66667
0.65934,0.70888,3.9561,0.31331,8.3502,32.694,-3.3053,1.1018,-1.6507,-4.4071,-4.5008e-12,-0.82536,0,0,0.16667,-0,-0,0.66667
0.070918,0.10029,0.42551,-0.59956,-28.508,179.57,0.68032,-0.22677,-0.72092,0.90709,2.4757e-07,-0.36046,0,0,0.16667,-0,-0,0.66667
0.1526,0.82149,0.91562,0.48223,22.443,155.69,-1.1774,0.39248,-1.1728,-1.5699,-2.1036e-09,-0.58638,0,0,0.16667,3.9475e-16,0,0.66667
0.016576,0.39518,0.099455,-0.15723,-7.4574,195.59,0.041701,-0.0139,-1.913,0.055601,2.3132e-08,-0.95648,0,0,0.16667,-0,-0,0.66667
0.1138,0.9323,0.68278,0.64844,30.627,167.03,-1.1806,0.39355,-0.50473,-1.5742,-1.1773e-08,-0.25236,0,0,0.16667,2.4672e-16,0,0.66667
0.65179,0.87058,3.9107,0.55587,15.2,34.364,-5.7969,1.9323,-0.90125,-7.7292,-1.9447e-12,-0.45063,0,0,0.16667,-7.8949e-16,0,0.66667
0.40266,0.8907,2.4159,0.58605,23.436,87.748,-3.7756,1.2585,-0.77815,-5.0341,9.3436e-13,-0.38908,0,0,0.16667,-0,-0,0.66667
0.32103,0.24001,1.9262,-0.38998,-16.624,108.62,2.0031,-0.6677,-1.458,2.6708,-5.7558e-12,-0.72898,0,0,0.16667,3.9475e-16,0,0.66667
0.55791,0.011784,3.3475,-0.73232,-24.19,52.548,6.5372,-2.1791,-0.092217,8.7162,-6.4526e-13,-0.046109,0,0,0.16667,3.158e-15,0,0.66667
0.99346,0.25567,5.9608,-0.36649,-0.066591,0.42371,5.8255,-1.9418,-1.5217,7.7673,-9.8742e-08,-0.76083,0,0,0.16667,3.158e-15,0,0.66667
0.83449,0.64213,5.0069,0.2132,2.9929,8.9624,-2.8466,0.94885,-1.837,-3.7954,1.3173e-09,-0.91848,0,0,0.16667,1.579e-15,0,0.66667
0.69962,0.47152,4.1977,-0.042723,-1.0221,25.94,0.47824,-0.15941,-1.994,0.63765,-3.1147e-13,-0.99701,0,0,0.16667,-0,-0,0.66667
0.91826,0.45531,5.5096,-0.067028,-0.4657,2.5777,0.98479,-0.32826,-1.9834,1.3131,-1.0631e-08,-0.99168,0,0,0.16667,1.579e-15,0,0.66667
0.039729,0.58536,0.23837,0.12804,6.0637,188.73,-0.081389,0.02713,-1.9406,-0.10852,-6.0141e-10,-0.97028,0,0,0.16667,4.9343e-17,0,0.66667
0.070333,0.43132,0.422,-0.10302,-4.8614,179.68,0.11593,-0.038643,-1.9613,0.15457,7.2113e-08,-0.98067,0,0,0.16667,4.1646e-17,0,0.66667
0.47401,0.72245,2.844,0.33368,12.262,70.322,-2.5306,0.84355,-1.6039,-3.3742,-1.4055e-13,-0.80194,0,0,0.16667,-0,-0,0.66667
0.34917,0.38147,2.095,-0.1778,-7.3959,101.09,0.9933,-0.3311,-1.8869,1.3244,-2.9267e-12,-0.94346,0,0,0.16667,-0,-0,0.66667
0.93725,0.73267,5.6235,0.34901,1.8769,1.948,-5.2337,1.7446,-1.5681,-6.9783,-1.0225e-08,-0.78407,0,0,0.16667,1.579e-15,0,0.66667
0.48956,0.74759,2.9374,0.37139,13.39,66.788,-2.9091,0.96969,-1.5096,-3.8788,-3.4728e-13,-0.7548,0,0,0.16667,8.8818e-16,0,0.66667
0.53965,0.95875,3.2379,0.68813,23.348,56.263,-5.9416,1.9805,-0.31506,-7.9221,-6.0973e-13,-0.15753,0,0,0.16667,7.8949e-16,0,0.66667
0.89526,0.38722,5.3716,-0.16917,-1.5183,4.0078,2.4233,-0.80776,-1.8973,3.231,-6.5008e-10,-0.94863,0,0,0.16667,1.579e-15,0,0.66667
0.44664,0.48058,2.6798,-0.029131,-1.1024,76.627,0.20818,-0.069393,-1.9956,0.27757,2.4046e-13,-0.99781,0,0,0.16667,-7.8949e-16,0,0.66667
0.87703,0.93144,5.2622,0.64717,7.0735,6.2009,-9.0814,3.0271,-0.51155,-12.109,4.269e-08,-0.25577,0,0,0.16667,-7.8949e-16,0,0.66667
0.25358,0.91663,1.5215,0.62495,27.957,127.14,-2.5356,0.8452,-0.61084,-3.3808,-2.8408e-12,-0.30542,0,0,0.16667,-0,-0,0.66667
0.27381,0.97812,1.6429,0.71719,31.808,121.66,-3.142,1.0473,-0.16991,-4.1893,-7.2764e-13,-0.084956,0,0,0.16667,-0,-0,0.66667
0.32836,0.54779,1.9702,0.071681,3.0283,106.54,-0.3766,0.12553,-1.9829,-0.50213,6.2933e-13,-0.99147,0,0,0.16667,3.9475e-16,0,0.66667
0.54756,0.32738,3.2854,-0.25893,-8.569,54.006,2.2685,-0.75615,-1.7625,3.0246,3.153e-13,-0.88126,0,0,0.16667,-7.8949e-16,0,0.66667
0.22013,0.20872,1.3208,-0.43692,-19.787,136.37,1.5388,-0.51295,-1.3219,2.0518,1.4262e-10,-0.66096,0,0,0.16667,1.9737e-16,0,0.66667
0.67143,0.24719,4.0286,-0.37921,-9.8317,30.737,4.0739,-1.358,-1.4909,5.4318,5.3588e-12,-0.74545,0,0,0.16667,-9.8686e-16,0,0.66667
0.14279,0.63638,0.85676,0.20457,9.5085,158.46,-0.46737,0.15579,-1.8513,-0.62316,-2.079e-09,-0.92566,0,0,0.16667,-0,-0,0.66667
0.0941,0.72147,0.5646,0.33221,15.649,172.71,-0.50017,0.16672,-1.6099,-0.6669,-6.7965e-09,-0.80495,0,0,0.16667,-0,-0,0.66667
0.87019,0.14565,5.2212,-0.53152,-6.0394,6.4018,7.4004,-2.4668,-0.99457,9.8672,-2.2458e-09,-0.49728,0,0,0.16667,-0,-0,0.66667
0.23687,0.47229,1.4212,-0.04157,-1.8593,131.55,0.15755,-0.052516,-1.9947,0.21006,2.048e-11,-0.99735,0,0,0.16667,-0,-0,0.66667
0.386,0.6026,2.316,0.15389,6.2003,91.596,-0.95046,0.31682,-1.9151,-1.2673,9.5224e-13,-0.95753,0,0,0.16667,-0,-0,0.66667
0.57154,0.018526,3.4293,-0.72221,-23.311,49.756,6.6044,-2.2015,-0.14404,8.8059,-1.1413e-13,-0.072022,0,0,0.16667,-0,-0,0.66667
0.5258,0.25784,3.1548,-0.36324,-12.453,58.74,3.0559,-1.0186,-1.53,4.0745,-1.2657e-13,-0.76501,0,0,0.16667,-0,-0,0.66667
0.076024,0.90391,0.45614,0.60587,28.791,178.08,-0.73697,0.24566,-0.69608,-0.98263,-2.4344e-07,-0.34804,0,0,0.16667,-0,-0,0.66667
0.87413,0.35793,5.2448,-0.2131,-2.2988,5.5475,2.9805,-0.99349,-1.8393,3.974,-2.996e-09,-0.91966,0,0,0.16667,-0,-0,0.66667
0.95114,0.77545,5.7068,0.41317,1.7229,1.5248,-6.2877,2.0959,-1.3938,-8.3836,-3.8495e-08,-0.69689,0,0,0.16667,-7.8949e-16,0,0.66667
0.81251,0.63958,4.875,0.20937,3.3027,11.18,-2.7219,0.90729,-1.8455,-3.6292,6.2379e-10,-0.92276,0,0,0.16667,-1.579e-15,0,0.66667
0.2838,0.19715,1.7028,-0.45428,-19.881,118.7,2.0628,-0.6876,-1.2663,2.7504,-1.15e-12,-0.63314,0,0,0.16667,-7.8949e-16,0,0.66667
0.52785,0.54238,3.1671,0.063566,2.1642,58.118,-0.53685,0.17895,-1.9852,-0.7158,-2.1216e-13,-0.99258,0,0,0.16667,-0,-0,0.66667
0.33942,0.6917,2.0365,0.28755,12.069,103.69,-1.5616,0.52053,-1.706,-2.0821,4.4085e-12,-0.85298,0,0,0.16667,-7.8949e-16,0,0.66667
0.55467,0.71557,3.328,0.32335,10.592,52.578,-2.8696,0.95655,-1.6278,-3.8262,-3.002e-13,-0.81389,0,0,0.16667,1.9737e-16,0,0.66667
0.9744,0.85768,5.8464,0.53653,1.1487,1.1526,-8.3647,2.7882,-0.97519,-11.153,-4.8982e-07,-0.4876,0,0,0.16667,-1.579e-15,0,0.66667
0.3117,0.86391,1.8702,0.54586,23.506,111.24,-2.7223,0.90745,-0.94153,-3.6298,3.7661e-12,-0.47076,0,0,0.16667,3.9475e-16,0,0.66667
0.6688,0.99836,4.0128,0.74754,19.829,31.916,-7.9992,2.6664,-0.014014,-10.666,-5.4312e-13,-0.0070072,0,0,0.16667,7.8949e-16,3.9309e-17,0.66667
0.32597,0.8812,1.9558,0.5718,24.391,107.46,-2.9822,0.99408,-0.83808,-3.9763,2.0992e-12,-0.41904,0,0,0.16667,-0,-0,0.66667
0.77448,0.34938,4.6469,-0.22594,-4.2202,15.569,2.7997,-0.93324,-1.8177,3.733,-1.5617e-10,-0.90885,0,0,0.16667,1.579e-15,0,0.66667
0.32581,0.25011,1.9549,-0.37483,-15.918,107.34,1.954,-0.65132,-1.502,2.6053,-5.2963e-12,-0.75102,0,0,0.16667,-0,-0,0.66667
0.88983,0.0015812,5.339,-0.74763,-7.469,5.6301,10.644,-3.5481,-0.014826,14.192,-4.4202e-09,-0.0074128,0,0,0.16667,-0,-0,0.66667
0.75171,0.21483,4.5102,-0.42776,-8.7619,18.763,5.1448,-1.7149,-1.3506,6.8597,-3.0864e-11,-0.67531,0,0,0.16667,-3.9475e-16,0,0.66667
0.76263,0.35341,4.5758,-0.21989,-4.2988,17.059,2.6831,-0.89437,-1.8279,3.5775,-9.3527e-11,-0.91395,0,0,0.16667,-0,-0,0.66667
0.46948,0.0077026,2.8169,-0.73845,-27.62,71.916,5.547,-1.849,-0.062448,7.3959,2.5357e-13,-0.031224,0,0,0.16667,-0,-0,0.66667
0.21076,0.13624,1.2646,-0.54563,-24.877,139.07,1.84,-0.61333,-0.94005,2.4533,1.8671e-10,-0.47002,0,0,0.16667,-0,-0,0.66667
0.041475,0.36969,0.24885,-0.19546,-9.2597,188.21,0.12971,-0.043236,-1.8636,0.17294,3.2309e-08,-0.93182,0,0,0.16667,4.9343e-17,0,0.66667
0.32183,0.35233,1.931,-0.22151,-9.4132,108.32,1.1406,-0.3802,-1.8245,1.5208,-3.8686e-12,-0.91223,0,0,0.16667,-7.8949e-16,0,0.66667
0.037113,0.12597,0.22268,-0.56104,-26.749,189.53,0.33315,-0.11105,-0.88097,0.4442,-1.48e-07,-0.44048,0,0,0.16667,9.8686e-17,0,0.66667
0.69386,0.87005,4.1631,0.55508,13.67,27.41,-6.1623,2.0541,-0.90383,-8.2165,-3.781e-12,-0.45192,0,0,0.16667,7.8949e-16,0,0.66667
0.67035,0.64044,4.0221,0.21066,5.4545,30.739,-2.2594,0.75314,-1.8426,-3.0125,-4.1405e-12,-0.92129,0,0,0.16667,-0,-0,0.66667
0.43047,0.45787,2.5828,-0.063189,-2.4344,80.527,0.43522,-0.14507,-1.9844,0.58029,-2.8019e-13,-0.99222,0,0,0.16667,3.9475e-16,0,0.66667
0.76779,0.47758,4.6067,-0.033629,-0.64305,16.304,0.41312,-0.13771,-1.9963,0.55083,-1.7338e-11,-0.99814,0,0,0.16667,-0,-0,0.66667
0.53601,0.77891,3.2161,0.41837,14.144,56.607,-3.588,1.196,-1.3778,-4.784,-6.0174e-14,-0.6889,0,0,0.16667,-1.9737e-16,0,0.66667
0.03986,0.82285,0.23916,0.48428,23.044,188.71,-0.30885,0.10295,-1.1648,-0.4118,3.0559e-08,-0.58241,0,0,0.16667,-9.8686e-17,0,0.66667
0.13479,0.60328,0.80876,0.15491,7.2142,160.78,-0.3341,0.11137,-1.9136,-0.44547,2.8151e-10,-0.95679,0,0,0.16667,-0,-0,0.66667
0.19342,0.20712,1.1605,-0.43933,-20.13,143.95,1.3596,-0.45319,-1.3125,1.8128,4.3347e-10,-0.65625,0,0,0.16667,1.9737e-16,0,0.66667
0.33566,0.62815,2.014,0.19223,8.0826,104.64,-1.0324,0.34413,-1.8682,-1.3765,3.2285e-12,-0.93408,0,0,0.16667,-0,-0,0.66667
0.052313,0.9368,0.31388,0.6552,31.273,185.06,-0.54841,0.1828,-0.47392,-0.73121,-5.8902e-07,-0.23696,0,0,0.16667,-3.3923e-17,0,0.66667
0.60512,0.9105,3.6307,0.61575,18.616,42.966,-5.9616,1.9872,-0.6519,-7.9488,-9.1305e-13,-0.32595,0,0,0.16667,1.579e-15,0,0.66667
0.51206,0.50377,3.0724,0.0056572,0.19704,61.563,-0.046349,0.01545,-2.0002,-0.061799,-2.9228e-13,-1.0001,0,0,0.16667,-0,-0,0.66667
0.61746,0.51516,3.7048,0.022739,0.66208,40.023,-0.22465,0.074882,-1.9966,-0.29953,-1.3416e-12,-0.99831,0,0,0.16667,-0,-0,0.66667
0.43236,0.26311,2.5941,-0.35534,-13.707,80.211,2.4581,-0.81938,-1.5499,3.2775,-6.0796e-13,-0.77494,0,0,0.16667,-0,-0,0.66667
0.8477,0.69687,5.0862,0.29531,3.8432,7.8327,-4.0053,1.3351,-1.6894,-5.3404,1.9805e-09,-0.84469,0,0,0.16667,-0,-0,0.66667
0.45406,0.85927,2.7244,0.53891,20.382,75.21,-3.9152,1.3051,-0.96811,-5.2202,1.1613e-13,-0.48405,0,0,0.16667,7.8949e-16,0,0.66667
0.015404,0.99473,0.092421,0.7421,35.603,195.96,-0.18285,0.060965,-0.043927,-0.24379,2.2378e-05,-0.021963,0,0,0.16667,1.2336e-17,0,0.66667
0.87307,0.17672,5.2384,-0.48492,-5.3693,6.0702,6.7739,-2.258,-1.1642,9.0319,-5.4843e-09,-0.5821,0,0,0.16667,-7.8949e-16,0,0.66667
0.6562,0.87387,3.9372,0.56081,15.183,33.612,-5.8881,1.9627,-0.88457,-7.8508,-2.1942e-12,-0.44228,0,0,0.16667,-1.0856e-15,2.7694e-17,0.66667
0.823,0.49634,4.938,-0.0054941,-0.081884,9.9947,0.072347,-0.024116,-1.9997,0.096463,1.2598e-10,-0.99985,0,0,0.16667,-1.579e-15,0,0.66667
0.95178,0.1885,5.7107,-0.46724,-1.9442,1.623,7.1154,-2.3718,-1.2257,9.4872,3.23e-08,-0.61286,0,0,0.16667,-3.158e-15,0,0.66667
0.050912,0.22251,0.30547,-0.41624,-19.76,185.44,0.33907,-0.11302,-1.3841,0.45209,-3.3532e-08,-0.69205,0,0,0.16667,-0,-0,0.66667
0.23507,0.51309,1.4104,0.019633,0.87886,132.05,-0.073842,0.024614,-1.9996,-0.098456,-1.8441e-11,-0.99978,0,0,0.16667,-0,-0,0.66667
0.063343,0.78115,0.38006,0.42172,19.993,181.77,-0.42741,0.14247,-1.3701,-0.56989,-1.8575e-09,-0.68506,0,0,0.16667,-2.7756e-17,0,0.66667
0.42166,0.10358,2.5299,-0.59463,-23.339,83.073,4.0117,-1.3372,-0.74426,5.3489,-8.9573e-13,-0.37213,0,0,0.16667,-0,-0,0.66667
0.86383,0.76362,5.183,0.39542,4.6507,6.6155,-5.4653,1.8218,-1.4431,-7.287,3.9757e-09,-0.72154,0,0,0.16667,-0,-0,0.66667
0.081624,0.43592,0.48974,-0.096121,-4.5279,176.35,0.12553,-0.041844,-1.9679,0.16738,-2.0931e-09,-0.98394,0,0,0.16667,1.2336e-17,0,0.66667
0.47311,0.50473,2.8387,0.0070975,0.26028,70.389,-0.053726,0.017909,-1.9997,-0.071635,-3.9707e-13,-0.99984,0,0,0.16667,-0,-0,0.66667
0.12554,0.2188,0.75326,-0.4218,-19.759,163.53,0.84726,-0.28242,-1.3701,1.1297,4.4431e-09,-0.68506,0,0,0.16667,-3.9475e-16,0,0.66667
0.77289,0.97313,4.6373,0.7097,13.673,16.699,-8.7763,2.9254,-0.20851,-11.702,-1.4984e-11,-0.10425,0,0,0.16667,-1.579e-15,0,0.66667
0.84142,0.33555,5.0485,-0.24667,-3.3291,8.3439,3.3208,-1.1069,-1.7839,4.4278,-1.6608e-09,-0.89197,0,0,0.16667,-0,-0,0.66667
0.043291,0.60541,0.25975,0.15811,7.4871,187.67,-0.10952,0.036506,-1.9105,-0.14602,8.245e-08,-0.95527,0,0,0.16667,-0,-0,0.66667
0.48644,0.0021087,2.9186,-0.74684,-27.362,68.044,5.8127,-1.9376,-0.018152,7.7502,-1.1644e-12,-0.0090759,0,0,0.16667,3.158e-15,0,0.66667
0.23941,0.54655,1.4365,0.069826,3.1191,130.84,-0.26747,0.089157,-1.9815,-0.35663,-3.5837e-11,-0.99074,0,0,0.16667,-3.9475e-16,0,0.66667
0.95247,0.93191,5.7148,0.64786,2.7897,2.1103,-9.8731,3.291,-0.50926,-13.164,9.2639e-08,-0.25463,0,0,0.16667,-1.579e-15,-1.1599e-16,0.66667
0.94389,0.47782,5.6634,-0.033265,-0.15479,1.3694,0.50238,-0.16746,-1.9949,0.66984,4.3762e-08,-0.99746,0,0,0.16667,-0,-0,0.66667
0.61393,0.085434,3.6836,-0.62185,-18.485,41.316,6.1084,-2.0361,-0.62442,8.1445,3.7081e-13,-0.31221,0,0,0.16667,-3.9475e-16,0,0.66667
0.97349,0.61607,5.8409,0.1741,0.34117,0.50468,-2.7118,0.90393,-1.8914,-3.6157,5.7765e-09,-0.94572,0,0,0.16667,7.8949e-16,0,0.66667
0.34486,0.62972,2.0692,0.19458,8.1231,102.22,-1.0736,0.35788,-1.8668,-1.4315,2.2967e-12,-0.93341,0,0,0.16667,-0,-0,0.66667
0.89785,0.7549,5.3871,0.38236,3.3929,4.1211,-5.4928,1.8309,-1.4795,-7.3237,8.6602e-09,-0.73973,0,0,0.16667,-0,-0,0.66667
0.43459,0.35308,2.6076,-0.22038,-8.4628,79.579,1.5324,-0.5108,-1.8272,2.0432,-1.0458e-13,-0.9136,0,0,0.16667,-0,-0,0.66667
0.23581,0.77529,1.4149,0.41293,18.551,131.95,-1.558,0.51934,-1.3948,-2.0773,-8.6617e-11,-0.69739,0,0,0.16667,-1.9737e-16,0,0.66667
0.94083,0.010293,5.645,-0.73456,-4.0318,2.8452,11.058,-3.6858,-0.081113,14.743,2.3646e-07,-0.040557,0,0,0.16667,-3.158e-15,0,0.66667
0.68422,0.89072,4.1053,0.58607,14.828,29.007,-6.416,2.1387,-0.77817,-8.5547,-2.9274e-12,-0.38909,0,0,0.16667,-0,-0,0.66667
0.064912,0.063489,0.38947,-0.65477,-31.206,181.35,0.68003,-0.22668,-0.47702,0.90671,1.5512e-07,-0.23851,0,0,0.16667,1.9737e-16,0,0.66667
0.87042,0.46582,5.2225,-0.051275,-0.56672,5.7341,0.71409,-0.23803,-1.9907,0.95212,5.909e-10,-0.99537,0,0,0.16667,3.9475e-16,0,0.66667
0.70138,0.054154,4.2083,-0.66877,-16.229,26.5,7.505,-2.5017,-0.41036,10.007,6.0396e-13,-0.20518,0,0,0.16667,-0,-0,0.66667
0.60493,0.14859,3.6296,-0.52712,-15.887,42.838,5.1019,-1.7006,-1.0115,6.8026,7.5229e-13,-0.50575,0,0,0.16667,-7.8949e-16,0,0.66667
0.73237,0.14282,4.3942,-0.53576,-11.77,21.623,6.2781,-2.0927,-0.97951,8.3708,-3.3671e-12,-0.48976,0,0,0.16667,-0,-3.6433e-17,0.66667
0.25344,0.051839,1.5206,-0.67224,-30.118,127.22,2.726,-0.90865,-0.39276,3.6346,-1.96e-12,-0.19638,0,0,0.16667,-0,-0,0.66667
0.60049,0.24438,3.6029,-0.38344,-11.603,43.477,3.684,-1.228,-1.4765,4.912,9.6434e-13,-0.73823,0,0,0.16667,1.1842e-15,0,0.66667
0.81462,0.36459,4.8877,-0.20311,-3.1698,10.951,2.6473,-0.88244,-1.8535,3.5298,-5.6718e-10,-0.92676,0,0,0.16667,-0,-0,0.66667
0.054114,0.45881,0.32468,-0.061791,-2.9215,184.47,0.0535,-0.017833,-1.9851,0.071334,2.086e-07,-0.99256,0,0,0.16667,-0,-0,0.66667
0.13051,0.63453,0.78306,0.2018,9.412,162.03,-0.42138,0.14046,-1.8542,-0.56185,-3.3887e-09,-0.92709,0,0,0.16667,-0,-0,0.66667
0.84245,4.7129e-05,5.0547,-0.74993,-10.449,9.3763,10.108,-3.3695,-0.0025627,13.478,8.3883e-10,-0.0012813,0,0,0.16667,-0,-0,0.66667
0.61835,0.66994,3.7101,0.25492,7.426,39.964,-2.522,0.84068,-1.7675,-3.3627,-2.4545e-12,-0.88375,0,0,0.16667,-0,-0,0.66667
0.53129,0.086083,3.1877,-0.62087,-21.276,57.916,5.2778,-1.7593,-0.63118,7.0371,-3.9924e-13,-0.31559,0,0,0.16667,-0,-0,0.66667
0.24829,0.026404,1.4897,-0.71039,-31.954,128.69,2.8221,-0.94072,-0.20671,3.7629,2.0419e-12,-0.10335,0,0,0.16667,1.9737e-16,0,0.66667
0.29508,0.72698,1.7705,0.34047,14.762,115.57,-1.6074,0.53581,-1.5884,-2.1433,1.6498e-12,-0.79421,0,0,0.16667,-0,-0,0.66667
0.87269,0.29859,5.2361,-0.30212,-3.3099,5.7646,4.2185,-1.4062,-1.6754,5.6247,-4.1566e-09,-0.83769,0,0,0.16667,1.579e-15,0,0.66667
0.42167,0.72729,2.53,0.34093,13.297,82.804,-2.3002,0.76672,-1.5883,-3.0669,4.7606e-13,-0.79415,0,0,0.16667,7.8949e-16,0,0.66667
0.06443,0.31593,0.38658,-0.2761,-13.059,181.44,0.28463,-0.094876,-1.7301,0.37951,-1.2378e-08,-0.86505,0,0,0.16667,-0,-0,0.66667
0.89699,0.62131,5.3819,0.18196,1.6069,3.9061,-2.6115,0.87048,-1.8818,-3.4819,7.3542e-09,-0.94091,0,0,0.16667,-3.9475e-16,0,0.66667
0.20338,0.3474,1.2203,-0.2289,-10.411,141.03,0.74485,-0.24828,-1.8159,0.99313,3.5099e-10,-0.90796,0,0,0.16667,7.8949e-16,0,0.66667
0.82623,0.25483,4.9574,-0.36776,-5.439,9.968,4.8616,-1.6205,-1.5201,6.4822,-1.1242e-09,-0.76004,0,0,0.16667,3.158e-15,0,0.66667
0.88177,0.8011,5.2906,0.45164,4.6552,5.3516,-6.372,2.124,-1.2734,-8.4959,8.6762e-09,-0.63668,0,0,0.16667,7.8949e-16,0,0.66667
0.48675,0.55523,2.9205,0.082852,2.9869,67.258,-0.64525,0.21508,-1.976,-0.86033,1.088e-13,-0.98798,0,0,0.16667,-7.8949e-16,0,0.66667
0.59846,0.63226,3.5908,0.19839,6.0044,43.695,-1.8997,0.63322,-1.8595,-2.5329,-1.6673e-12,-0.92973,0,0,0.16667,-0,-0,0.66667
0.52727,0.58199,3.1636,0.12298,4.1922,58.259,-1.0375,0.34584,-1.9455,-1.3834,-1.1857e-13,-0.97274,0,0,0.16667,-7.8949e-16,0,0.66667
0.62482,0.66038,3.7489,0.24058,6.9135,38.754,-2.4051,0.80169,-1.7964,-3.2068,-2.7478e-12,-0.8982,0,0,0.16667,-0,-0,0.66667
0.85504,0.62513,5.1303,0.18769,2.3199,7.0718,-2.5677,0.8559,-1.8755,-3.4236,1.5892e-09,-0.93773,0,0,0.16667,-0,-0,0.66667
0.28214,0.20789,1.6928,-0.43816,-19.189,119.15,1.978,-0.65932,-1.3183,2.6373,-1.202e-12,-0.65914,0,0,0.16667,-0,-0,0.66667
0.88376,0.97,5.3025,0.705,7.3622,5.9003,-9.9687,3.3229,-0.23276,-13.292,-1.7001e-08,-0.11638,0,0,0.16667,-0,-0,0.66667
0.56769,0.21751,3.4061,-0.42374,-13.616,50.015,3.8488,-1.2829,-1.3618,5.1318,3.4417e-14,-0.68091,0,0,0.16667,1.9737e-16,0,0.66667
0.1151,0.30608,0.69062,-0.29087,-13.633,166.54,0.53569,-0.17856,-1.6984,0.71425,4.1992e-09,-0.84921,0,0,0.16667,-9.8686e-17,0,0.66667
0.227,0.74964,1.362,0.37446,16.884,134.4,-1.3601,0.45335,-1.5015,-1.8134,-1.3021e-10,-0.75076,0,0,0.16667,4.1942e-16,0,0.66667
0.59598,0.053452,3.5759,-0.66982,-20.652,44.826,6.3872,-2.1291,-0.40501,8.5163,3.0465e-13,-0.2025,0,0,0.16667,-0,-0,0.66667
0.23945,0.71111,1.4367,0.31667,14.177,130.89,-1.2132,0.4044,-1.6427,-1.6176,-8.7928e-11,-0.82135,0,0,0.16667,-0,-0,0.66667
0.13142,0.67167,0.78849,0.25751,12.014,161.78,-0.54145,0.18048,-1.7628,-0.72193,-2.8366e-09,-0.88139,0,0,0.16667,-1.9737e-16,0,0.66667
0.16185,0.013474,0.97109,-0.72979,-34.09,153.15,1.8898,-0.62994,-0.10506,2.5198,-4.7333e-10,-0.052531,0,0,0.16667,-0,-0,0.66667
0.84487,0.75115,5.0692,0.37672,5.0108,8.2105,-5.0925,1.6975,-1.4975,-6.79,2.2664e-09,-0.74873,0,0,0.16667,-0,-0,0.66667
0.60218,0.8277,3.6131,0.49155,14.875,43.304,-4.736,1.5787,-1.1394,-6.3147,-1.0658e-12,-0.56969,0,0,0.16667,-7.8949e-16,0,0.66667
0.96357,0.47857,5.7814,-0.032143,-0.091663,0.68998,0.49556,-0.16519,-1.9953,0.66074,-1.9589e-07,-0.99767,0,0,0.16667,-0,-0,0.66667
0.34568,0.0014392,2.0741,-0.74784,-31.604,102.49,4.1362,-1.3787,-0.013021,5.5149,-1.1529e-12,-0.0065106,0,0,0.16667,-0,-0,0.66667
0.59563,0.10487,3.5738,-0.59269,-18.226,44.741,5.6483,-1.8828,-0.75129,7.5311,3.4195e-13,-0.37564,0,0,0.16667,-0,-0,0.66667
0.59899,0.77424,3.5939,0.41136,12.493,43.802,-3.9424,1.3141,-1.3976,-5.2565,-1.269e-12,-0.69881,0,0,0.16667,-0,-0,0.66667
0.6157,0.73944,3.6942,0.35916,10.543,40.563,-3.5382,1.1794,-1.5401,-4.7176,-2.4167e-12,-0.77004,0,0,0.16667,7.8949e-16,0,0.66667
0.059177,0.51101,0.35506,0.016521,0.7806,182.97,-0.015643,0.0052147,-1.9986,-0.020857,6.2123e-07,-0.9993,0,0,0.16667,-0,-0,0.66667
0.75032,0.86068,4.5019,0.54102,11.198,19.168,-6.495,2.165,-0.96042,-8.6601,1.2923e-11,-0.48021,0,0,0.16667,1.579e-15,0,0.66667
0.94821,0.24959,5.6893,-0.37562,-1.655,1.5561,5.6986,-1.8995,-1.4988,7.5982,2.8759e-08,-0.74942,0,0,0.16667,1.9737e-15,0,0.66667
0.53468,0.14703,3.2081,-0.52945,-17.993,57.041,4.5294,-1.5098,-1.003,6.0392,-5.3912e-13,-0.50149,0,0,0.16667,3.9475e-16,0,0.66667
0.19256,0.040148,1.1553,-0.68978,-31.82,144.34,2.1251,-0.70838,-0.30743,2.8335,-6.3339e-11,-0.15371,0,0,0.16667,3.9475e-16,0,0.66667
0.75293,0.76307,4.5176,0.39461,8.0371,18.546,-4.7538,1.5846,-1.446,-6.3384,4.8088e-11,-0.72299,0,0,0.16667,-0,-0,0.66667
0.007319,0.80168,0.043914,0.45253,21.552,198.33,-0.052992,0.017664,-1.2705,-0.070656,-1.6704e-07,-0.63526,0,0,0.16667,-0,-0,0.66667
0.32826,0.30168,1.9695,-0.29748,-12.594,106.65,1.5624,-0.5208,-1.6868,2.0832,-5.9308e-12,-0.8434,0,0,0.16667,-0,-0,0.66667
0.91761,0.15324,5.5056,-0.52014,-3.7872,3.2638,7.6366,-2.5455,-1.0382,10.182,-1.6873e-08,-0.51911,0,0,0.16667,-3.9475e-16,0,0.66667
0.58837,0.44391,3.5302,-0.084142,-2.5922,45.613,0.79211,-0.26404,-1.9742,1.0561,1.0335e-12,-0.98708,0,0,0.16667,-1.579e-15,0,0.66667
0.85519,0.79561,5.1311,0.44341,5.5496,7.4271,-6.0672,2.0224,-1.3,-8.0896,2.9507e-09,-0.65002,0,0,0.16667,-1.579e-15,0,0.66667
0.60467,0.0044579,3.628,-0.74331,-22.626,43.33,7.1914,-2.3971,-0.035295,9.5885,-8.1712e-14,-0.017648,0,0,0.16667,-0,-0,0.66667
0.82258,0.77852,4.9355,0.41779,6.3166,10.421,-5.4986,1.8329,-1.3793,-7.3314,7.9027e-10,-0.68963,0,0,0.16667,1.9737e-15,0,0.66667
0.87948,0.58716,5.2769,0.13073,1.3475,5.0794,-1.8397,0.61322,-1.9388,-2.4529,5.7294e-09,-0.96939,0,0,0.16667,-7.8949e-16,0,0.66667
0.32099,0.4595,1.9259,-0.060748,-2.5802,108.51,0.31199,-0.104,-1.9856,0.41598,-1.5787e-12,-0.99282,0,0,0.16667,3.9475e-16,0,0.66667
0.12295,0.54798,0.73773,0.071976,3.361,164.22,-0.1416,0.047199,-1.9816,-0.18879,-6.0189e-10,-0.99082,0,0,0.16667,1.9737e-16,0,0.66667
0.7213,0.26492,4.3278,-0.35262,-7.9595,22.899,4.0696,-1.3565,-1.5577,5.4261,-4.9005e-12,-0.77884,0,0,0.16667,-1.579e-15,0,0.66667
0.44035,0.10761,2.6421,-0.58859,-22.642,78.541,4.1469,-1.3823,-0.76788,5.5292,-8.1934e-13,-0.38394,0,0,0.16667,-7.8949e-16,0,0.66667
0.12674,0.14001,0.76041,-0.53999,-25.351,163.22,1.095,-0.36499,-0.96348,1.46,2.9262e-09,-0.48174,0,0,0.16667,-0,-0,0.66667
0.58982,0.35391,3.5389,-0.21914,-6.7423,45.392,2.068,-0.68934,-1.8286,2.7574,7.0699e-13,-0.91432,0,0,0.16667,-0,-0,0.66667
0.036068,0.35701,0.21641,-0.21448,-10.167,189.81,0.12378,-0.041259,-1.8354,0.16504,2.9364e-10,-0.91768,0,0,0.16667,4.9343e-17,0,0.66667
0.20018,0.077774,1.2011,-0.63334,-29.076,142.13,2.0285,-0.67618,-0.57339,2.7047,2.0758e-10,-0.2867,0,0,0.16667,-0,-0,0.66667
0.7883,0.20315,4.7298,-0.44528,-7.9234,14.213,5.6163,-1.8721,-1.2935,7.4883,-2.3875e-10,-0.64675,0,0,0.16667,-0,-0,0.66667
0.012097,0.52124,0.072581,0.031855,1.5103,196.91,-0.0061643,0.0020533,-1.9959,-0.0082199,-2.2691e-06,-0.99797,0,0,0.16667,-0,-0,0.66667
0.30335,0.88383,1.8201,0.57574,24.955,113.51,-2.7944,0.93146,-0.82028,-3.7258,3.2405e-12,-0.41014,0,0,0.16667,-0,-0,0.66667
0.021376,0.11118,0.12826,-0.58323,-27.848,194.18,0.19947,-0.066492,-0.78923,0.26596,-1.3659e-06,-0.39462,0,0,0.16667,-0,-0,0.66667
0.99748,0.9641,5.9849,0.69615,0.11164,1.3123,-11.11,3.7034,-0.27758,-14.814,-1.8732e-05,-0.13879,0,0,0.16667,1.579e-15,-3.0005e-16,0.66667
0.58203,0.92291,3.4922,0.63436,20.029,47.481,-5.9075,1.9692,-0.56838,-7.8766,-5.4268e-13,-0.28419,0,0,0.16667,-0,-0,0.66667
0.29338,0.39278,1.7603,-0.16083,-6.9657,115.96,0.75492,-0.25164,-1.9074,1.0066,-2.0411e-13,-0.95371,0,0,0.16667,-0,-0,0.66667
0.92895,0.99435,5.5737,0.74152,4.8684,3.3855,-11.021,3.6738,-0.044131,-14.695,-1.674e-07,-0.022066,0,0,0.16667,-2.3685e-15,0,0.66667
0.50712,0.12298,3.0427,-0.56553,-20.022,63.091,4.5886,-1.5295,-0.86263,6.1182,-1.0467e-12,-0.43132,0,0,0.16667,-1.9737e-16,0,0.66667
0.45469,0.27625,2.7282,-0.33562,-12.623,74.845,2.4417,-0.81389,-1.6006,3.2555,-5.7732e-13,-0.80031,0,0,0.16667,-7.8949e-16,0,0.66667
0.58787,0.89535,3.5272,0.59303,18.498,46.251,-5.578,1.8593,-0.74835,-7.4373,-9.7389e-13,-0.37418,0,0,0.16667,7.8949e-16,0,0.66667
0.26414,0.19676,1.5848,-0.45486,-20.142,124.1,1.9223,-0.64078,-1.265,2.5631,6.5429e-12,-0.63251,0,0,0.16667,-0,-0,0.66667
0.30529,0.47737,1.8317,-0.033952,-1.4581,112.71,0.16584,-0.055282,-1.9947,0.22113,-3.751e-13,-0.99736,0,0,0.16667,-0,-0,0.66667
0.37165,0.14856,2.2299,-0.52715,-21.653,95.508,3.1347,-1.0449,-1.0118,4.1796,-1.338e-12,-0.5059,0,0,0.16667,-1.7468e-16,0,0.66667
0.24445,0.53233,1.4667,0.04849,2.1603,129.42,-0.18965,0.063218,-1.9918,-0.25287,-2.8774e-11,-0.99591,0,0,0.16667,-0,-0,0.66667
0.58455,0.081756,3.5073,-0.62737,-19.714,46.97,5.8676,-1.9559,-0.59922,7.8235,8.793e-13,-0.29961,0,0,0.16667,-7.8949e-16,0,0.66667
0.69585,0.40395,4.1751,-0.14408,-3.4862,26.565,1.6041,-0.5347,-1.9259,2.1388,1.2068e-12,-0.96295,0,0,0.16667,1.9737e-16,0,0.66667
0.071947,0.83129,0.43168,0.49693,23.567,179.25,-0.57204,0.19068,-1.1206,-0.76273,-6.0551e-08,-0.56032,0,0,0.16667,-9.8686e-17,0,0.66667
0.97108,0.77531,5.8265,0.41296,0.96195,0.92589,-6.4164,2.1388,-1.3942,-8.5552,-1.2575e-07,-0.69709,0,0,0.16667,-0,-0,0.66667
0.75307,0.23297,4.5184,-0.40054,-8.1556,18.536,4.8262,-1.6087,-1.4291,6.4349,-4.4753e-11,-0.71456,0,0,0.16667,-0,-0,0.66667
0.80616,0.609,4.837,0.1635,2.6567,11.827,-2.1089,0.70296,-1.9035,-2.8118,3.972e-10,-0.95176,0,0,0.16667,-0,-0,0.66667
0.75164,0.13543,4.5098,-0.54686,-11.27,19.004,6.5766,-2.1922,-0.93718,8.7688,-2.1205e-11,-0.46859,0,0,0.16667,-0,-0,0.66667
0.080061,0.91817,0.48037,0.62725,29.805,176.9,-0.8035,0.26783,-0.60128,-1.0713,-4.7787e-08,-0.30064,0,0,0.16667,-0,-0,0.66667
0.4817,0.97358,2.8902,0.71038,26.144,69.055,-5.475,1.825,-0.20627,-7.3,-8.0469e-13,-0.10314,0,0,0.16667,-0,-0,0.66667
0.44567,0.80946,2.674,0.46419,17.688,77.112,-3.31,1.1033,-1.2335,-4.4134,1.1267e-12,-0.61673,0,0,0.16667,9.8686e-16,0,0.66667
0.67247,0.38704,4.0348,-0.16944,-4.3613,30.357,1.8231,-0.60769,-1.899,2.4308,3.6107e-12,-0.94948,0,0,0.16667,-1.579e-15,0,0.66667
0.44874,0.41832,2.6924,-0.12252,-4.6271,76.142,0.87965,-0.29322,-1.9457,1.1729,-2.6273e-13,-0.97287,0,0,0.16667,-7.8949e-16,0,0.66667
0.70431,0.46385,4.2259,-0.054218,-1.28,25.217,0.61098,-0.20366,-1.9909,0.81465,-5.6066e-14,-0.99546,0,0,0.16667,-0,-0,0.66667
0.68165,0.037122,4.0899,-0.69432,-17.784,29.674,7.5725,-2.5242,-0.28525,10.097,1.692e-13,-0.14263,0,0,0.16667,1.579e-15,0,0.66667
0.69715,0.34295,4.1829,-0.23557,-5.688,26.426,2.6276,-0.87588,-1.8028,3.5035,2.5224e-12,-0.90142,0,0,0.16667,-6.9081e-16,0,0.66667
0.6186,0.92771,3.7116,0.64156,18.91,40.489,-6.35,2.1167,-0.5353,-8.4666,4.7073e-14,-0.26765,0,0,0.16667,-7.8949e-16,0,0.66667
0.15098,0.015788,0.90588,-0.72632,-34.042,156.28,1.7546,-0.58485,-0.12307,2.3394,1.7697e-09,-0.061537,0,0,0.16667,-0,-0,0.66667
0.7608,0.8971,4.5648,0.59565,11.914,17.917,-7.2508,2.4169,-0.73766,-9.6677,1.4338e-11,-0.36883,0,0,0.16667,7.8949e-16,0,0.66667
0.78105,0.38766,4.6863,-0.16851,-3.0609,14.72,2.1058,-0.70193,-1.9003,2.8077,-1.6923e-10,-0.95017,0,0,0.16667,-0,-0,0.66667
0.9041,0.31027,5.4246,-0.2846,-2.3523,3.5743,4.1169,-1.3723,-1.7133,5.4892,-4.0626e-09,-0.85663,0,0,0.16667,-1.7061e-15,0,0.66667
0.23377,0.61386,1.4026,0.17079,7.6554,132.43,-0.6388,0.21293,-1.8974,-0.85173,-1.0451e-10,-0.94869,0,0,0.16667,3.9475e-16,0,0.66667
0.17668,0.77235,1.0601,0.40853,18.83,148.72,-1.1548,0.38495,-1.4058,-1.5398,-8.7081e-10,-0.7029,0,0,0.16667,-1.9737e-16,0,0.66667
0.3911,0.11183,2.3466,-0.58226,-23.539,90.636,3.6435,-1.2145,-0.79565,4.8581,-7.5073e-13,-0.39783,0,0,0.16667,-0,-0,0.66667
0.32056,0.8923,1.9234,0.58845,25.211,108.91,-3.0182,1.0061,-0.76727,-4.0243,2.5953e-12,-0.38363,0,0,0.16667,-3.9475e-16,0,0.66667
0.81548,0.81432,4.8929,0.47148,7.415,11.255,-6.1517,2.0506,-1.2105,-8.2023,9.1221e-10,-0.60526,0,0,0.16667,-0,-0,0.66667
0.61353,0.76502,3.6812,0.39753,11.732,41.018,-3.9023,1.3008,-1.4372,-5.2031,-2.0268e-12,-0.71861,0,0,0.16667,-0,-0,0.66667
0.76,0.24454,4.56,-0.38319,-7.6041,17.599,4.6596,-1.5532,-1.4773,6.2129,-7.5028e-11,-0.73866,0,0,0.16667,-0,-0,0.66667
0.42767,0.26015,2.566,-0.35978,-13.949,81.354,2.4618,-0.82061,-1.5386,3.2824,-8.3999e-13,-0.76932,0,0,0.16667,-0,-0,0.66667
0.099441,0.071717,0.59664,-0.64242,-30.432,171.22,1.0221,-0.34071,-0.53155,1.3628,-4.8563e-08,-0.26577,0,0,0.16667,-0,-0,0.66667
0.11504,0.106,0.69021,-0.59099,-27.862,166.65,1.0878,-0.36259,-0.75689,1.4503,-9.8387e-09,-0.37844,0,0,0.16667,-1.9737e-16,0,0.66667
0.37341,0.33423,2.2404,-0.24865,-10.142,94.845,1.4856,-0.49519,-1.7807,1.9808,-2.0518e-12,-0.89037,0,0,0.16667,-0,-0,0.66667
0.19385,0.43896,1.1631,-0.091567,-4.1774,143.73,0.284,-0.094667,-1.9702,0.37867,3.452e-10,-0.98508,0,0,0.16667,-0,-0,0.66667
0.82075,0.95153,4.9245,0.67729,10.538,11.229,-8.8941,2.9647,-0.36747,-11.859,6.0333e-10,-0.18373,0,0,0.16667,-0,-0,0.66667
0.59964,0.34772,3.5978,-0.22842,-6.901,43.49,2.1915,-0.73051,-1.8141,2.922,1.0603e-12,-0.90703,0,0,0.16667,-0,-0,0.66667
0.68885,0.57627,4.1331,0.1144,2.8204,27.66,-1.2609,0.42029,-1.954,-1.6812,-1.9267e-12,-0.97698,0,0,0.16667,-0,-0,0.66667
0.49111,0.068886,2.9467,-0.64667,-23.457,66.805,5.0814,-1.6938,-0.51223,6.7752,-9.5524e-13,-0.25612,0,0,0.16667,-0,-0,0.66667
0.088174,0.35836,0.52904,-0.21246,-10.005,174.43,0.29973,-0.09991,-1.8382,0.39964,-3.5919e-09,-0.91911,0,0,0.16667,-0,-0,0.66667
0.23508,0.11986,1.4105,-0.57021,-25.717,132.25,2.1447,-0.7149,-0.8456,2.8596,-4.301e-12,-0.4228,0,0,0.16667,3.9475e-16,0,0.66667
0.4616,0.87241,2.7696,0.55861,20.955,73.461,-4.1257,1.3752,-0.89017,-5.5009,-5.147e-13,-0.44509,0,0,0.16667,1.0856e-15,0,0.66667
0.19859,0.47505,1.1915,-0.037432,-1.7041,142.37,0.11894,-0.039646,-1.9946,0.15858,1.1664e-11,-0.9973,0,0,0.16667,-0,-0,0.66667
0.025476,0.73998,0.15286,0.35997,17.106,192.96,-0.14673,0.04891,-1.5382,-0.19564,5.6449e-08,-0.76908,0,0,0.16667,-0,-0,0.66667
0.7294,0.12544,4.3764,-0.56185,-12.477,22.101,6.557,-2.1857,-0.87807,8.7426,-2.6823e-13,-0.43903,0,0,0.16667,-0,-0,0.66667
0.72492,0.70086,4.3495,0.30128,6.7146,22.309,-3.4945,1.1648,-1.6759,-4.6593,8.9808e-12,-0.83794,0,0,0.16667,-0,-0,0.66667
0.33039,0.98305,1.9824,0.72458,30.955,106.46,-3.8303,1.2768,-0.13323,-5.1071,-5.3957e-13,-0.066613,0,0,0.16667,-0,-0,0.66667
0.84349,0.23808,5.061,-0.39288,-5.2746,8.3638,5.3023,-1.7674,-1.4525,7.0697,-2.0099e-09,-0.72624,0,0,0.16667,-7.8949e-16,0,0.66667
0.42844,0.54071,2.5707,0.061058,2.3574,81.021,-0.41856,0.13952,-1.9855,-0.55808,3.9985e-13,-0.99277,0,0,0.16667,-7.8949e-16,0,0.66667
0.86469,0.079441,5.1881,-0.63084,-7.5326,7.1032,8.7276,-2.9092,-0.58381,11.637,7.1741e-10,-0.2919,0,0,0.16667,-1.024e-15,0,0.66667
0.65707,0.87765,3.9424,0.56648,15.31,33.475,-5.9554,1.9851,-0.86101,-7.9405,-1.8678e-12,-0.43051,0,0,0.16667,-0,-0,0.66667
0.58104,0.022094,3.4862,-0.71686,-22.756,47.85,6.6643,-2.2214,-0.17275,8.8858,4.0368e-13,-0.086373,0,0,0.16667,-0,-0,0.66667
0.20073,0.024963,1.2044,-0.71255,-32.784,142.03,2.2885,-0.76282,-0.19519,3.0513,-2.2882e-10,-0.097597,0,0,0.16667,-0,1.2687e-16,0.66667
0.52955,0.26288,3.1773,-0.35567,-12.124,57.924,3.0135,-1.0045,-1.5505,4.018,3.1042e-13,-0.77525,0,0,0.16667,-7.8949e-16,0,0.66667
0.89443,0.022617,5.3666,-0.71607,-6.8371,5.217,10.248,-3.4159,-0.17641,13.664,-9.3724e-08,-0.088204,0,0,0.16667,-0,-0,0.66667
0.30499,0.11459,1.83,-0.57811,-25.031,113.06,2.8211,-0.94038,-0.81032,3.7615,-3.3651e-12,-0.40516,0,0,0.16667,-0,-0,0.66667
0.87095,0.42729,5.2257,-0.10906,-1.2017,5.7149,1.5198,-0.50659,-1.957,2.0263,-2.2339e-09,-0.97852,0,0,0.16667,-0,-0,0.66667
0.90875,0.95096,5.4525,0.67643,5.5819,4.2098,-9.8353,3.2784,-0.37295,-13.114,-7.4375e-09,-0.18647,0,0,0.16667,-0,-0,0.66667
0.32984,0.76248,1.9791,0.39373,16.676,106.28,-2.0779,0.69263,-1.4491,-2.7705,4.5486e-12,-0.72456,0,0,0.16667,-0,-0,0.66667
0.68307,0.48428,4.0984,-0.023585,-0.59013,28.566,0.25777,-0.085923,-1.997,0.34369,5.8828e-13,-0.99851,0,0,0.16667,-1.579e-15,0,0.66667
0.89922,0.37635,5.3953,-0.18548,-1.6024,3.7659,2.6685,-0.88952,-1.8776,3.5581,-7.4544e-09,-0.9388,0,0,0.16667,-0,-0,0.66667
0.075697,0.28745,0.45418,-0.31883,-15.064,178.12,0.38615,-0.12872,-1.639,0.51486,5.8029e-10,-0.81952,0,0,0.16667,-0,-0,0.66667
0.87859,0.41294,5.2715,-0.13059,-1.3558,5.1455,1.8357,-0.61191,-1.9392,2.4476,-5.7528e-09,-0.96962,0,0,0.16667,-0,-0,0.66667
0.19084,0.084586,1.145,-0.62312,-28.708,144.78,1.9027,-0.63422,-0.61916,2.5369,8.1917e-12,-0.30958,0,0,0.16667,-0,-0,0.66667
0.84977,0.55921,5.0986,0.088809,1.1335,7.4693,-1.2075,0.40249,-1.9716,-1.61,-9.5861e-10,-0.98581,0,0,0.16667,-1.7221e-15,0,0.66667
0.66712,0.96114,4.0027,0.69171,18.365,32.053,-7.3833,2.4611,-0.29813,-9.8444,3.0376e-13,-0.14906,0,0,0.16667,-0,-1.1298e-16,0.66667
0.34434,0.78821,2.066,0.43231,18.122,102.49,-2.3818,0.79392,-1.337,-3.1757,3.1042e-12,-0.66849,0,0,0.16667,-0,-0,0.66667
0.15138,0.33955,0.90825,-0.24068,-11.162,155.97,0.58292,-0.19431,-1.7938,0.77723,2.4867e-09,-0.89691,0,0,0.16667,-2.0643e-16,0,0.66667
0.63537,0.43423,3.8122,-0.098659,-2.7673,36.753,1.003,-0.33432,-1.9652,1.3373,1.8691e-12,-0.98261,0,0,0.16667,-9.8686e-16,0,0.66667
0.84779,0.51011,5.0867,0.01517,0.19595,7.6283,-0.20578,0.068593,-1.9985,-0.27437,-1.9412e-09,-0.99927,0,0,0.16667,-0,-0,0.66667
0.82185,0.74238,4.9311,0.36357,5.5019,10.402,-4.7808,1.5936,-1.529,-6.3744,1.0221e-09,-0.76451,0,0,0.16667,-0,-0,0.66667
0.62824,0.097251,3.7694,-0.60412,-17.429,38.642,6.0725,-2.0242,-0.70284,8.0967,6.164e-13,-0.35142,0,0,0.16667,-0,-0,0.66667
0.9563,0.45302,5.7378,-0.070471,-0.24842,0.92602,1.0783,-0.35942,-1.9818,1.4377,2.5913e-07,-0.99091,0,0,0.16667,-1.579e-15,0,0.66667
0.58992,0.12933,3.5395,-0.55601,-17.255,45.783,5.248,-1.7493,-0.90092,6.9974,3.6815e-13,-0.45046,0,0,0.16667,-0,-0,0.66667
0.19783,0.60633,1.187,0.15949,7.2672,142.6,-0.50484,0.16828,-1.9084,-0.67313,-3.1962e-10,-0.95419,0,0,0.16667,-0,-0,0.66667
0.42933,0.40048,2.576,-0.14928,-5.7612,80.826,1.0255,-0.34183,-1.9199,1.3673,-1.8763e-14,-0.95995,0,0,0.16667,-1.9737e-16,0,0.66667
0.33675,0.38567,2.0205,-0.17149,-7.2035,104.35,0.924,-0.308,-1.8941,1.232,-3.5089e-12,-0.94704,0,0,0.16667,7.8949e-16,0,0.66667
0.99195,0.13328,5.9517,-0.55008,-0.27538,0.88751,8.7304,-2.9101,-0.92296,11.641,-1.7403e-07,-0.46148,0,0,0.16667,3.158e-15,0,0.66667
0.38024,0.51084,2.2814,0.016259,0.6581,93.038,-0.098914,0.032971,-1.998,-0.13189,3.5526e-13,-0.999,0,0,0.16667,-0,-0,0.66667
0.9927,0.34129,5.9562,-0.23806,-0.041321,0.22738,3.7812,-1.2604,-1.7982,5.0416,-4.5736e-08,-0.89909,0,0,0.16667,-1.4825e-15,0,0.66667
0.5188,0.32209,3.1128,-0.26686,-9.2257,60.178,2.2152,-0.73839,-1.7465,2.9536,1.2079e-13,-0.87326,0,0,0.16667,-0,-0,0.66667
0.17228,0.28716,1.0337,-0.31926,-14.717,149.96,0.88004,-0.29335,-1.6393,1.1734,1.2095e-09,-0.81967,0,0,0.16667,-0,-0,0.66667
0.074574,0.84822,0.44744,0.52233,24.775,178.48,-0.62324,0.20775,-1.0301,-0.83098,-6.8471e-08,-0.51507,0,0,0.16667,1.9737e-16,0,0.66667
0.37031,0.054253,2.2218,-0.66862,-27.613,96.021,3.9615,-1.3205,-0.40978,5.282,-1.2561e-12,-0.20489,0,0,0.16667,3.9475e-16,1.3745e-17,0.66667
0.12342,0.93093,0.74051,0.6464,30.458,164.22,-1.2765,0.42548,-0.51526,-1.7019,-3.8171e-08,-0.25763,0,0,0.16667,-0,-0,0.66667
0.63452,0.92656,3.8071,0.63985,18.246,37.583,-6.4959,2.1653,-0.54309,-8.6612,-7.9892e-13,-0.27154,0,0,0.16667,-0,-0,0.66667
0.41392,0.58092,2.4835,0.12138,4.7589,84.597,-0.80383,0.26794,-1.9461,-1.0718,8.5676e-13,-0.97306,0,0,0.16667,-0,-0,0.66667
0.99092,0.82789,5.9455,0.49184,0.26345,0.74012,-7.7979,2.5993,-1.1384,-10.397,2.5234e-07,-0.56922,0,0,0.16667,-0,-0,0.66667
0.92996,0.67625,5.5797,0.26437,1.5804,2.1487,-3.9337,1.3112,-1.7501,-5.2449,-8.0055e-09,-0.87504,0,0,0.16667,-1.579e-15,0,0.66667
0.14924,0.067946,0.89542,-0.64808,-30.319,156.74,1.5475,-0.51582,-0.50584,2.0633,6.0614e-09,-0.25292,0,0,0.16667,-3.9475e-16,0,0.66667
0.39488,0.58693,2.3693,0.13039,5.2091,89.346,-0.82383,0.27461,-1.9392,-1.0984,6.9228e-13,-0.96958,0,0,0.16667,-3.9475e-16,0,0.66667
0.46158,0.1635,2.7695,-0.50475,-18.905,73.396,3.7277,-1.2426,-1.0931,4.9703,-1.4706e-12,-0.54655,0,0,0.16667,-0,-0,0.66667
0.56095,0.38273,3.3657,-0.17591,-5.6898,51.17,1.5788,-0.52628,-1.8907,2.1051,8.0269e-14,-0.94537,0,0,0.16667,-0,-0,0.66667
0.78036,0.11102,4.6822,-0.58348,-10.817,15.451,7.2852,-2.4284,-0.7903,9.7136,-8.2403e-11,-0.39515,0,0,0.16667,-1.579e-15,0,0.66667
0.48719,0.051525,2.9232,-0.67271,-24.549,67.736,5.2439,-1.748,-0.39076,6.9918,-7.9448e-13,-0.19538,0,0,0.16667,-0,-0,0.66667
0.41999,0.21967,2.52,-0.42049,-16.455,83.282,2.8256,-0.94188,-1.373,3.7675,-1.3429e-12,-0.6865,0,0,0.16667,1.579e-15,0,0.66667
0.262,0.083535,1.572,-0.6247,-27.816,124.82,2.6187,-0.87291,-0.61196,3.4916,9.8344e-13,-0.30598,0,0,0.16667,3.9475e-16,0,0.66667
0.91081,0.91739,5.4648,0.62609,5.0112,3.9333,-9.124,3.0413,-0.60536,-12.165,2.8452e-08,-0.30268,0,0,0.16667,-0,-0,0.66667
0.022272,0.87417,0.13363,0.56126,26.783,193.92,-0.2,0.066667,-0.88002,-0.26667,4.5332e-07,-0.44001,0,0,0.16667,-6.3115e-17,0,0.66667
0.82112,0.83692,4.9267,0.50538,7.7414,10.745,-6.6397,2.2132,-1.0909,-8.8529,1.8169e-10,-0.54545,0,0,0.16667,-0,-0,0.66667
0.18847,0.50194,1.1308,0.0029144,0.13322,145.26,-0.0087882,0.0029294,-2.002,-0.011718,2.4274e-10,-1.001,0,0,0.16667,-0,-0,0.66667
0.68576,0.925,4.1145,0.63749,16.107,28.875,-6.9947,2.3316,-0.55532,-9.3262,-1.5246e-12,-0.27766,0,0,0.16667,-0,1.895e-16,0.66667
0.35521,0.42421,2.1313,-0.11368,-4.7033,99.495,0.64608,-0.21536,-1.9532,0.86144,-1.6422e-12,-0.97659,0,0,0.16667,-0,-0,0.66667
0.97421,0.21512,5.8453,-0.42733,-0.87588,0.88344,6.6609,-2.2203,-1.3505,8.8812,1.5431e-07,-0.67523,0,0,0.16667,-1.579e-15,0,0.66667
0.12277,0.34332,0.73663,-0.23502,-10.987,164.29,0.46166,-0.15389,-1.8052,0.61555,5.304e-09,-0.90259,0,0,0.16667,-2.2204e-16,0,0.66667
0.18757,0.44768,1.1254,-0.078484,-3.5894,145.52,0.23554,-0.078514,-1.9796,0.31405,1.6616e-10,-0.98982,0,0,0.16667,-0,-0,0.66667
0.88944,0.40668,5.3367,-0.13999,-1.3248,4.3767,1.9922,-0.66405,-1.9325,2.6562,4.8114e-09,-0.96625,0,0,0.16667,-0,-0,0.66667
0.58341,0.68299,3.5004,0.27449,8.5522,46.7,-2.5622,0.85406,-1.7317,-3.4162,-1.4435e-12,-0.86587,0,0,0.16667,-0,-0,0.66667
0.30925,0.49185,1.8555,-0.012222,-0.52343,111.65,0.060475,-0.020158,-1.9993,0.080634,9.7525e-13,-0.99966,0,0,0.16667,-1.1842e-15,0,0.66667
0.00076439,0.73394,0.0045863,0.3509,16.683,200.27,-0.0042916,0.0014305,-1.563,-0.0057221,-1.0647e-07,-0.78152,0,0,0.16667,1.542e-18,0,0.66667
0.2276,0.98982,1.3656,0.73473,33.423,134.48,-2.6756,0.89185,-0.079329,-3.5674,4.7267e-11,-0.039665,0,0,0.16667,4.669e-16,0,0.66667
0.1454,0.13307,0.87242,-0.5504,-25.713,157.8,1.2805,-0.42683,-0.92217,1.7073,3.2297e-09,-0.46108,0,0,0.16667,-0,-0,0.66667
0.20343,0.76535,1.2206,0.39803,18.148,141.08,-1.2956,0.43186,-1.4379,-1.7274,-3.5933e-10,-0.71893,0,0,0.16667,-0,-0,0.66667
0.89632,0.42788,5.3779,-0.10818,-0.95912,3.8979,1.5515,-0.51715,-1.9573,2.0686,-1.4982e-08,-0.97865,0,0,0.16667,-0,-0,0.66667
0.87309,0.6111,5.2386,0.16664,1.809,5.5854,-2.3279,0.77598,-1.9014,-3.1039,1.5939e-09,-0.9507,0,0,0.16667,-0,-0,0.66667
0.70029,0.25598,4.2017,-0.36603,-8.7907,26.083,4.1012,-1.3671,-1.5239,5.4683,4.2411e-12,-0.76196,0,0,0.16667,-1.579e-15,0,0.66667
0.4705,0.89405,2.823,0.59107,21.96,71.434,-4.4495,1.4832,-0.75813,-5.9327,-1.0036e-13,-0.37906,0,0,0.16667,-0,-0,0.66667
0.82714,0.52335,4.9628,0.035019,0.51052,9.5822,-0.46344,0.15448,-1.9967,-0.61792,-2.6768e-11,-0.99837,0,0,0.16667,-0,-0,0.66667
0.49583,0.3491,2.975,-0.22635,-8.0739,65.257,1.7957,-0.59857,-1.8177,2.3943,2.649e-13,-0.90883,0,0,0.16667,-0,-0,0.66667
0.36349,0.45188,2.1809,-0.072185,-2.9654,97.341,0.41982,-0.13994,-1.9806,0.55976,-2.2191e-12,-0.9903,0,0,0.16667,-0,-0,0.66667
0.2756,0.65639,1.6536,0.23459,10.282,120.83,-1.0345,0.34482,-1.8047,-1.3793,-1.322e-11,-0.90234,0,0,0.16667,-7.8949e-16,0,0.66667
0.92474,0.62771,5.5484,0.19157,1.2275,2.3205,-2.8344,0.94482,-1.8703,-3.7793,1.7371e-08,-0.93515,0,0,0.16667,-0,-0,0.66667
0.38699,0.99597,2.3219,0.74395,30.355,91.893,-4.6064,1.5355,-0.032379,-6.1419,4.8406e-14,-0.016189,0,0,0.16667,-0,-0,0.66667
0.49288,0.73206,2.9573,0.34809,12.49,66.015,-2.745,0.91501,-1.5677,-3.6601,-1.4722e-13,-0.78385,0,0,0.16667,-7.8949e-16,0,0.66667
0.25444,0.01507,1.5266,-0.72739,-32.629,127,2.9612,-0.98708,-0.11775,3.9483,-3.0762e-12,-0.058874,0,0,0.16667,-0,-0,0.66667
0.88497,0.41636,5.3098,-0.12545,-1.2346,4.6798,1.7764,-0.59212,-1.9429,2.3685,-9.9272e-10,-0.97146,0,0,0.16667,-0,-0,0.66667
0.38326,0.68616,2.2996,0.27924,11.294,92.347,-1.7124,0.57078,-1.7226,-2.2831,2.321e-12,-0.86132,0,0,0.16667,-2.9606e-16,0,0.66667
0.29757,0.93383,1.7854,0.65074,28.376,115.13,-3.0983,1.0328,-0.49624,-4.1311,6.235e-13,-0.24812,0,0,0.16667,5.9212e-16,0,0.66667
0.71759,0.13389,4.3056,-0.54916,-12.637,23.784,6.3052,-2.1017,-0.92863,8.4069,1.8354e-12,-0.46432,0,0,0.16667,1.579e-15,0,0.66667
0.19087,0.84168,1.1452,0.51252,23.545,144.71,-1.5652,0.52173,-1.0667,-2.0869,-3.4339e-10,-0.53336,0,0,0.16667,1.4803e-16,0,0.66667
0.11819,0.2356,0.70916,-0.3966,-18.604,165.66,0.75001,-0.25,-1.4392,1,5.6247e-09,-0.71962,0,0,0.16667,1.9737e-16,0,0.66667
0.837,0.78453,5.022,0.4268,5.9659,9.0284,-5.7156,1.9052,-1.3519,-7.6208,1.6508e-09,-0.67596,0,0,0.16667,-0,-0,0.66667
0.74414,0.8335,4.4648,0.50025,10.554,19.918,-5.9561,1.9854,-1.1091,-7.9414,1.737e-11,-0.55453,0,0,0.16667,-0,-0,0.66667
0.59052,0.41611,3.5431,-0.12584,-3.8626,45.204,1.189,-0.39632,-1.9434,1.5853,3.9668e-13,-0.9717,0,0,0.16667,-0,-0,0.66667
0.24289,0.32033,1.4573,-0.2695,-12.036,129.91,1.0474,-0.34912,-1.7407,1.3965,7.6037e-11,-0.87033,0,0,0.16667,-0,-0,0.66667
0.62325,0.69466,3.7395,0.292,8.4271,39.09,-2.9118,0.97059,-1.6976,-3.8824,-2.6208e-12,-0.84878,0,0,0.16667,-0,-0,0.66667
0.63836,0.35986,3.8301,-0.21021,-5.8655,36.275,2.1471,-0.71568,-1.8428,2.8627,2.7247e-12,-0.92141,0,0,0.16667,-0,-0,0.66667
0.32757,0.96694,1.9654,0.70041,29.96,107.18,-3.6709,1.2236,-0.25804,-4.8946,-1.2634e-12,-0.12902,0,0,0.16667,3.9475e-16,0,0.66667
0.067489,0.1757,0.40494,-0.48644,-23.079,180.56,0.52528,-0.17509,-1.1576,0.70037,4.3508e-08,-0.5788,0,0,0.16667,1.8763e-17,0,0.66667
0.88054,0.92236,5.2832,0.63354,6.7257,5.9042,-8.9257,2.9752,-0.57162,-11.901,1.8662e-08,-0.28581,0,0,0.16667,-0,-0,0.66667
0.45996,0.381,2.7597,-0.17851,-6.6574,73.503,1.3137,-0.43789,-1.8859,1.7516,-2.3437e-13,-0.94293,0,0,0.16667,-0,-0,0.66667
0.76387,0.53964,4.5832,0.059463,1.1543,16.808,-0.72676,0.24225,-1.988,-0.96901,3.2276e-11,-0.99401,0,0,0.16667,1.579e-15,0,0.66667
0.25389,0.063164,1.5233,-0.65525,-29.334,127.08,2.6618,-0.88726,-0.47415,3.549,4.8783e-13,-0.23708,0,0,0.16667,-7.8949e-16,0,0.66667
0.59139,0.72641,3.5483,0.33962,10.443,45.191,-3.2136,1.0712,-1.5902,-4.2848,-8.3378e-13,-0.79511,0,0,0.16667,-1.579e-15,0,0.66667
0.4288,0.99946,2.5728,0.74918,29.348,81.573,-5.1399,1.7133,-0.0044403,-6.8532,-1.5787e-12,-0.0022201,0,0,0.16667,-1.3076e-15,0,0.66667
0.3821,0.59825,2.2926,0.14738,5.9586,92.585,-0.901,0.30033,-1.9221,-1.2013,1.4235e-12,-0.96106,0,0,0.16667,-0,-0,0.66667
0.12671,0.80338,0.76028,0.45507,21.325,163.19,-0.92262,0.30754,-1.2642,-1.2302,-5.0869e-09,-0.63211,0,0,0.16667,9.8686e-17,0,0.66667
0.24427,0.52402,1.4656,0.036033,1.6054,129.47,-0.14083,0.046942,-1.9945,-0.18777,-1.9068e-11,-0.99727,0,0,0.16667,3.9475e-16,0,0.66667
0.079342,0.41414,0.47605,-0.1288,-6.0704,177.03,0.1635,-0.054501,-1.942,0.218,-1.839e-08,-0.97099,0,0,0.16667,-0,-0,0.66667
0.30286,0.37385,1.8171,-0.18922,-8.146,113.4,0.9169,-0.30563,-1.8728,1.2225,-2.5117e-12,-0.93639,0,0,0.16667,-1.9737e-16,0,0.66667
0.7417,0.10543,4.4502,-0.59185,-12.65,20.448,7.0237,-2.3412,-0.75309,9.3649,-8.9218e-13,-0.37655,0,0,0.16667,-1.579e-15,0,0.66667
0.61502,0.43358,3.6901,-0.09963,-2.9163,40.496,0.98038,-0.32679,-1.9643,1.3072,9.5013e-13,-0.98217,0,0,0.16667,-9.8686e-16,0,0.66667
0.67241,0.95375,4.0345,0.68062,17.829,31.147,-7.3225,2.4408,-0.3539,-9.7634,-1.7941e-13,-0.17695,0,0,0.16667,-0,-0,0.66667
0.0083831,0.50704,0.050298,0.010559,0.50063,198.01,-0.001416,0.00046999,-1.9986,-0.001889,-3.0351e-06,-0.99929,0,0,0.16667,4.9343e-17,0,0.66667
0.67838,0.84177,4.0703,0.51266,13.124,29.806,-5.5644,1.8548,-1.0654,-7.4193,-3.5651e-12,-0.53268,0,0,0.16667,-9.8686e-16,0,0.66667
0.50318,0.15561,3.0191,-0.51659,-18.36,63.895,4.159,-1.3863,-1.0522,5.5453,3.8769e-13,-0.5261,0,0,0.16667,-9.3752e-16,0,0.66667
0.23091,0.63245,1.3855,0.19867,8.92,133.24,-0.734,0.24467,-1.8595,-0.97866,-1.3412e-10,-0.92975,0,0,0.16667,-0,-0,0.66667
0.1749,0.64107,1.0494,0.21161,9.7331,149.18,-0.59216,0.19739,-1.8403,-0.78955,-9.004e-10,-0.92017,0,0,0.16667,-3.9475e-16,0,0.66667
0.18498,0.40717,1.1099,-0.13925,-6.3769,146.27,0.41214,-0.13738,-1.9324,0.54952,8.1447e-10,-0.96618,0,0,0.16667,-0,-0,0.66667
0.84426,0.26408,5.0656,-0.35388,-4.7184,8.2285,4.7803,-1.5934,-1.5558,6.3737,-2.0855e-09,-0.77788,0,0,0.16667,-1.579e-15,0,0.66667
0.98259,0.46884,5.8955,-0.046741,-0.050282,0.24051,0.73484,-0.24494,-1.9941,0.97979,2.1447e-06,-0.99706,0,0,0.16667,-0,-0,0.66667
0.91374,0.66289,5.4824,0.24434,1.8087,2.96,-3.5721,1.1907,-1.7868,-4.7629,5.41e-09,-0.89338,0,0,0.16667,-0,-0,0.66667
0.34737,0.86339,2.0842,0.54509,22.857,101.8,-3.0296,1.0099,-0.94297,-4.0394,2.3208e-12,-0.47148,0,0,0.16667,-0,-0,0.66667
0.78022,0.19649,4.6813,-0.45526,-8.382,15.191,5.6833,-1.8944,-1.264,7.5777,-1.5788e-10,-0.63202,0,0,0.16667,-0,-0,0.66667
0.54645,0.37227,3.2787,-0.1916,-6.346,54.195,1.6752,-0.5584,-1.8717,2.2336,1.8319e-14,-0.93586,0,0,0.16667,-0,-0,0.66667
0.81644,0.069679,4.8987,-0.64548,-10.233,11.577,8.432,-2.8107,-0.51827,11.243,-3.8603e-10,-0.25913,0,0,0.16667,-0,-0,0.66667
0.48373,0.58321,2.9024,0.12482,4.5186,67.961,-0.96605,0.32202,-1.9457,-1.2881,-2.2704e-13,-0.97285,0,0,0.16667,-0,-0,0.66667
0.58995,0.62996,3.5397,0.19494,5.9944,45.351,-1.8401,0.61336,-1.8649,-2.4535,-1.077e-12,-0.93245,0,0,0.16667,-0,-0,0.66667
0.78726,0.50972,4.7236,0.014579,0.25756,13.918,-0.18364,0.061213,-1.9981,-0.24485,-2.8556e-11,-0.99905,0,0,0.16667,-0,-0,0.66667
0.10023,0.81408,0.60141,0.47111,22.22,170.94,-0.75555,0.25185,-1.2108,-1.0074,-7.9408e-09,-0.60539,0,0,0.16667,-3.9475e-16,0,0.66667
0.53701,0.45522,3.222,-0.067177,-2.2557,56.15,0.57719,-0.1924,-1.9826,0.76959,-3.858e-13,-0.99132,0,0,0.16667,1.5355e-16,0,0.66667
0.36598,0.14457,2.1959,-0.53315,-22.009,96.969,3.122,-1.0407,-0.98798,4.1626,-1.2204e-12,-0.49399,0,0,0.16667,-0,-0,0.66667
0.60431,0.53407,3.6258,0.051103,1.5275,42.513,-0.49411,0.1647,-1.9907,-0.65881,-1.6045e-12,-0.99534,0,0,0.16667,1.579e-15,0,0.66667
0.9588,0.20666,5.7528,-0.44,-1.536,1.3273,6.75,-2.25,-1.3104,9.0001,6.2826e-08,-0.6552,0,0,0.16667,1.579e-15,0,0.66667
0.39282,0.35104,2.3569,-0.22344,-8.9513,89.899,1.4043,-0.46812,-1.8229,1.8725,-1.2659e-12,-0.91147,0,0,0.16667,-0,-0,0.66667
0.39297,0.49951,2.3578,-0.00074152,-0.029663,89.809,0.0046624,-0.0015541,-2.0015,0.0062165,1.7481e-13,-1.0007,0,0,0.16667,-2.4425e-15,0,0.66667
0.79064,0.72275,4.7438,0.33412,5.8562,13.758,-4.2267,1.4089,-1.6026,-5.6355,3.199e-10,-0.8013,0,0,0.16667,-0,-0,0.66667
0.64508,0.77431,3.8705,0.41147,11.364,35.295,-4.2469,1.4156,-1.3975,-5.6625,-3.1024e-12,-0.69877,0,0,0.16667,-7.8949e-16,0,0.66667
0.39388,0.72085,2.3633,0.33127,13.279,89.695,-2.0877,0.69591,-1.6105,-2.7836,1.8563e-12,-0.80527,0,0,0.16667,-0,-0,0.66667
0.68896,0.11224,4.1337,-0.58164,-14.532,28.24,6.4116,-2.1372,-0.79757,8.5488,2.5455e-12,-0.39878,0,0,0.16667,7.8949e-16,0,0.66667
0.404,0.86863,2.424,0.55295,22.062,87.373,-3.5743,1.1914,-0.91343,-4.7657,7.3896e-13,-0.45672,0,0,0.16667,1.9737e-16,0,0.66667
0.13611,0.82788,0.81668,0.49181,23.006,160.47,-1.0711,0.35703,-1.139,-1.4281,-4.5144e-09,-0.56948,0,0,0.16667,-0,-0,0.66667
0.45064,0.73024,2.7039,0.34536,13.052,75.813,-2.4901,0.83004,-1.5759,-3.3202,-3.8791e-13,-0.78793,0,0,0.16667,7.8949e-16,0,0.66667
0.33442,0.15612,2.0065,-0.51582,-21.832,105.17,2.76,-0.92001,-1.0542,3.68,-3.0711e-12,-0.5271,0,0,0.16667,-5.6128e-16,0,0.66667
0.21797,0.098926,1.3078,-0.60161,-27.38,137.08,2.0981,-0.69937,-0.71471,2.7975,-2.1481e-11,-0.35735,0,0,0.16667,-0,-1.091e-16,0.66667
0.92577,0.86853,5.5546,0.55279,3.6455,2.9327,-8.1881,2.7294,-0.91328,-10.918,-3.3352e-08,-0.45664,0,0,0.16667,-0,-0,0.66667
0.68964,0.32787,4.1378,-0.25819,-6.3662,27.632,2.8489,-0.94965,-1.763,3.7986,4.1669e-12,-0.88149,0,0,0.16667,-1.579e-15,0,0.66667
0.59882,0.26376,3.5929,-0.35436,-10.75,43.764,3.3952,-1.1317,-1.5524,4.5269,1.4879e-12,-0.77618,0,0,0.16667,-0,-0,0.66667
0.74666,0.4945,4.4799,-0.0082528,-0.17047,19.077,0.098592,-0.032864,-1.9999,0.13146,-1.4703e-12,-0.99994,0,0,0.16667,-3.9475e-16,0,0.66667
0.54197,0.058228,3.2518,-0.66266,-22.38,55.723,5.7463,-1.9154,-0.43846,7.6617,-6.0973e-13,-0.21923,0,0,0.16667,-4.6858e-16,0,0.66667
0.70053,0.023018,4.2032,-0.71547,-17.452,26.751,8.0194,-2.6731,-0.18005,10.693,-2.3626e-13,-0.090026,0,0,0.16667,-0,-1.5318e-16,0.66667
0.93056,0.8719,5.5834,0.55786,3.4443,2.7191,-8.3059,2.7686,-0.89308,-11.075,-2.5268e-08,-0.44654,0,0,0.16667,-1.6982e-15,0,0.66667
0.86262,0.84342,5.1757,0.51514,6.1686,6.965,-7.1099,2.37,-1.0576,-9.4798,8.2533e-09,-0.52878,0,0,0.16667,-4.1942e-16,0,0.66667
0.16744,0.97023,1.0047,0.70534,32.86,151.53,-1.8897,0.62989,-0.23148,-2.5196,1.1793e-09,-0.11574,0,0,0.16667,-0,-0,0.66667
0.26314,0.15943,1.5788,-0.51085,-22.663,124.41,2.1508,-0.71693,-1.073,2.8677,1.458e-11,-0.5365,0,0,0.16667,-7.8949e-16,0,0.66667
0.07161,0.39395,0.42966,-0.15908,-7.5079,179.31,0.18227,-0.060755,-1.9086,0.24302,-3.2663e-08,-0.95432,0,0,0.16667,-0,-0,0.66667
0.97867,0.66819,5.872,0.25229,0.38051,0.47747,-3.9506,1.3169,-1.7724,-5.2674,1.5305e-08,-0.88622,0,0,0.16667,-1.579e-15,0,0.66667
0.23638,0.23406,1.4183,-0.39891,-17.911,131.78,1.5087,-0.50291,-1.4343,2.0116,8.2711e-11,-0.71714,0,0,0.16667,-3.9475e-16,0,0.66667
0.6606,0.52562,3.9636,0.038434,1.0174,32.31,-0.40624,0.13541,-1.9945,-0.54165,-1.0278e-12,-0.99724,0,0,0.16667,-0,-0,0.66667
0.089631,0.50405,0.53778,0.00607,0.28548,173.99,-0.008705,0.0029018,-1.9999,-0.011607,1.5812e-07,-0.99996,0,0,0.16667,-0,-0,0.66667
0.21077,0.30052,1.2646,-0.29922,-13.578,138.96,1.0091,-0.33636,-1.6802,1.3454,2.9372e-10,-0.8401,0,0,0.16667,-0,-0,0.66667
0.50282,0.76648,3.0169,0.39971,14.168,63.831,-3.2158,1.0719,-1.4316,-4.2877,-9.126e-14,-0.71579,0,0,0.16667,-0,-0,0.66667
0.10495,0.58318,0.62972,0.12477,5.8521,169.5,-0.20952,0.069839,-1.9438,-0.27936,1.2571e-09,-0.97192,0,0,0.16667,-9.8686e-17,0,0.66667
0.38887,0.039187,2.3332,-0.69122,-28.1,91.34,4.3008,-1.4336,-0.30184,5.7343,-4.1567e-13,-0.15092,0,0,0.16667,7.8949e-16,-1.4959e-16,0.66667
0.53799,0.91496,3.2279,0.62244,21.117,56.491,-5.3579,1.786,-0.6213,-7.1438,-1.3234e-13,-0.31065,0,0,0.16667,-0,-0,0.66667
0.3392,0.51534,2.0352,0.023016,0.96426,103.67,-0.12492,0.041639,-1.9971,-0.16655,-1.9226e-13,-0.99854,0,0,0.16667,-0,-0,0.66667
0.5559,0.82919,3.3354,0.49379,16.214,52.529,-4.392,1.464,-1.1316,-5.8559,-6.91e-13,-0.5658,0,0,0.16667,7.8949e-16,0,0.66667
0.53677,0.033895,3.2206,-0.69916,-23.837,56.895,6.0046,-2.0015,-0.26186,8.0061,-5.0893e-13,-0.13093,0,0,0.16667,-1.579e-15,0,0.66667
0.39061,0.83169,2.3437,0.49753,20.075,90.663,-3.1094,1.0365,-1.1213,-4.1459,1.694e-12,-0.56067,0,0,0.16667,-0,7.4397e-17,0.66667
0.69627,0.89243,4.1776,0.58864,14.425,27.104,-6.5576,2.1859,-0.76654,-8.7435,-2.6494e-12,-0.38327,0,0,0.16667,-7.8949e-16,0,0.66667
0.67848,0.79131,4.0709,0.43697,11.151,29.659,-4.7436,1.5812,-1.3198,-6.3248,-5.1026e-12,-0.65991,0,0,0.16667,-0,-0,0.66667
0.6873,0.86386,4.1238,0.54579,13.673,28.429,-6.0019,2.0006,-0.94223,-8.0026,-3.8458e-12,-0.47112,0,0,0.16667,-0,2.0621e-16,0.66667
0.56149,0.65652,3.3689,0.23478,7.5928,51.095,-2.1092,0.70307,-1.8063,-2.8123,2.3759e-13,-0.90317,0,0,0.16667,-1.579e-15,0,0.66667
0.35808,0.30396,2.1485,-0.29406,-12.16,98.82,1.6848,-0.56159,-1.6934,2.2464,-3.1793e-12,-0.84669,0,0,0.16667,3.9475e-16,0,0.66667
0.61311,0.44538,3.6787,-0.081924,-2.4069,40.849,0.80365,-0.26788,-1.9758,1.0715,6.4132e-13,-0.9879,0,0,0.16667,-0,-0,0.66667
0.93574,0.63888,5.6144,0.20832,1.1317,1.8184,-3.1189,1.0396,-1.8459,-4.1585,-7.4227e-09,-0.92297,0,0,0.16667,1.579e-15,0,0.66667
0.59689,0.69919,3.5813,0.29879,9.0855,44.08,-2.8535,0.95116,-1.6822,-3.8046,-1.4604e-12,-0.8411,0,0,0.16667,-0,-0,0.66667
0.97959,0.40312,5.8775,-0.14533,-0.20024,0.34782,2.2778,-0.75925,-1.9249,3.037,-1.2805e-07,-0.96245,0,0,0.16667,1.9737e-15,0,0.66667
0.44101,0.15857,2.646,-0.51215,-19.643,78.284,3.6138,-1.2046,-1.068,4.8184,-1.2412e-13,-0.53399,0,0,0.16667,-0,-0,0.66667
0.73961,0.24531,4.4377,-0.38203,-8.1414,20.333,4.5209,-1.507,-1.4807,6.0278,-2.0997e-11,-0.74034,0,0,0.16667,1.1842e-15,0,0.66667
0.037604,0.66383,0.22562,0.24574,11.651,189.36,-0.14785,0.049285,-1.7843,-0.19714,3.5995e-08,-0.89215,0,0,0.16667,-0,-0,0.66667
0.76473,0.82381,4.5884,0.48571,9.5154,17.173,-5.943,1.981,-1.1621,-7.924,4.8326e-11,-0.58103,0,0,0.16667,-0,-0,0.66667
0.51828,0.58915,3.1097,0.13373,4.6191,60.219,-1.1089,0.36964,-1.937,-1.4786,4.3388e-13,-0.9685,0,0,0.16667,-9.8686e-16,0,0.66667
0.0053165,0.49178,0.031899,-0.012323,-0.58431,198.92,0.0010485,-0.00035999,-1.9986,0.0013927,-1.5757e-05,-0.9993,0,0,0.16667,-0,-0,0.66667
0.2772,0.27363,1.6632,-0.33955,-14.889,120.44,1.506,-0.50199,-1.5896,2.008,5.6247e-12,-0.79482,0,0,0.16667,-1.9737e-16,0,0.66667
0.53483,0.061645,3.209,-0.65753,-22.445,57.226,5.6267,-1.8756,-0.4636,7.5023,-4.4942e-13,-0.2318,0,0,0.16667,-1.9737e-16,0,0.66667
0.76796,0.28539,4.6078,-0.32192,-6.1858,16.491,3.9555,-1.3185,-1.6323,5.2741,-1.2688e-10,-0.81617,0,0,0.16667,1.579e-15,0,0.66667
0.053093,0.26418,0.31856,-0.35374,-16.771,184.79,0.30049,-0.10016,-1.5537,0.40066,-2.42e-08,-0.77684,0,0,0.16667,-9.8686e-17,0,0.66667
0.54905,0.97093,3.2943,0.7064,23.639,54.326,-6.2056,2.0685,-0.22704,-8.2741,-2.1938e-13,-0.11352,0,0,0.16667,-0,-0,0.66667
0.80099,0.05329,4.806,-0.67007,-11.449,13.3,8.5875,-2.8625,-0.403,11.45,1.4361e-10,-0.2015,0,0,0.16667,-0,-0,0.66667
0.64958,0.23505,3.8975,-0.39742,-10.86,34.485,4.1306,-1.3769,-1.4369,5.5074,3.3715e-12,-0.71847,0,0,0.16667,-0,-0,0.66667
0.93145,0.64322,5.5887,0.21483,1.2503,2.0199,-3.2017,1.0672,-1.8345,-4.2689,-1.6631e-09,-0.91727,0,0,0.16667,-1.579e-15,0,0.66667
0.074731,0.15584,0.44839,-0.51624,-24.483,178.44,0.61727,-0.20576,-1.0534,0.82303,8.5411e-08,-0.52672,0,0,0.16667,1.542e-17,0,0.66667
0.27681,0.99839,1.6608,0.74758,33.132,120.88,-3.311,1.1037,-0.013239,-4.4146,-3.3245e-12,-0.0066195,0,0,0.16667,-7.8949e-16,0,0.66667
0.91924,0.32394,5.5154,-0.26409,-1.8299,2.6854,3.8842,-1.2947,-1.7519,5.1789,-5.0584e-10,-0.87594,0,0,0.16667,-0,-0,0.66667
0.76501,0.06597,4.59,-0.65104,-12.868,17.52,7.9688,-2.6563,-0.49492,10.625,-1.2105e-11,-0.24746,0,0,0.16667,-0,7.7939e-17,0.66667
0.59974,0.042532,3.5984,-0.6862,-21.025,44.139,6.5847,-2.1949,-0.32453,8.7796,3.3795e-13,-0.16226,0,0,0.16667,-0,-0,0.66667
0.83297,0.96011,4.9978,0.69017,10.081,10.066,-9.1982,3.0661,-0.3056,-12.264,-1.5491e-09,-0.1528,0,0,0.16667,-0,-0,0.66667
0.89604,0.64772,5.3763,0.22158,1.9784,4.0055,-3.1768,1.0589,-1.8245,-4.2357,2.3155e-09,-0.91225,0,0,0.16667,-0,-0,0.66667
0.97272,0.57326,5.8363,0.10989,0.22112,0.47555,-1.7102,0.57008,-1.9564,-2.2803,-4.2046e-07,-0.9782,0,0,0.16667,-1.579e-15,0,0.66667
0.99852,0.68117,5.9911,0.27176,-0.09914,0.20986,-4.3417,1.4472,-1.7384,-5.7889,4.7154e-08,-0.8692,0,0,0.16667,-7.8949e-16,-1.2552e-16,0.66667
0.13965,0.89621,0.8379,0.59431,27.841,159.49,-1.3279,0.44264,-0.74509,-1.7706,-7.7756e-09,-0.37254,0,0,0.16667,1.9737e-16,-1.722e-16,0.66667
0.070542,0.73936,0.42325,0.35904,16.987,179.64,-0.40524,0.13508,-1.5403,-0.54032,-8.7525e-10,-0.77014,0,0,0.16667,9.8686e-17,0,0.66667
0.073467,0.59449,0.4408,0.14173,6.6866,178.76,-0.1666,0.055533,-1.9291,-0.22213,6.494e-08,-0.96453,0,0,0.16667,1.9737e-16,0,0.66667
0.014744,0.80366,0.088463,0.45549,21.691,196.14,-0.10745,0.035817,-1.2634,-0.14327,7.8605e-09,-0.6317,0,0,0.16667,1.2336e-17,0,0.66667
0.97182,0.12439,5.8309,-0.56341,-1.3595,1.2887,8.7605,-2.9202,-0.87247,11.681,3.5448e-07,-0.43623,0,0,0.16667,-9.8686e-17,0,0.66667
0.094767,0.71652,0.5686,0.32478,15.296,172.51,-0.49245,0.16415,-1.6269,-0.65661,-6.5298e-09,-0.81344,0,0,0.16667,9.8686e-17,0,0.66667
0.84174,0.65233,5.0504,0.22849,3.0759,8.2955,-3.0773,1.0258,-1.8154,-4.103,1.7293e-09,-0.9077,0,0,0.16667,4.9841e-16,0,0.66667
0.68517,0.82537,4.111,0.48805,12.264,28.661,-5.3504,1.7835,-1.1531,-7.1338,-4.7193e-12,-0.57653,0,0,0.16667,-0,-0,0.66667
0.48756,0.3318,2.9253,-0.2523,-9.1012,67.148,1.9682,-0.65606,-1.7732,2.6243,-2.7534e-13,-0.88662,0,0,0.16667,7.8949e-16,0,0.66667
0.34669,0.97758,2.0802,0.71637,30.216,102.18,-3.9738,1.3246,-0.17527,-5.2984,1.2856e-13,-0.087637,0,0,0.16667,-0,-0,0.66667
0.35365,0.2922,2.1219,-0.3117,-12.94,99.981,1.7637,-0.5879,-1.6534,2.3516,-3.1072e-12,-0.82669,0,0,0.16667,-7.8949e-16,0,0.66667
0.25384,0.15639,1.523,-0.51542,-22.987,126.99,2.0933,-0.69778,-1.0563,2.7911,1.3102e-11,-0.52816,0,0,0.16667,-7.8949e-16,0,0.66667
0.91102,0.86635,5.4661,0.54953,4.3369,3.7026,-8.0101,2.67,-0.92552,-10.68,5.2171e-08,-0.46276,0,0,0.16667,-0,-0,0.66667
0.72564,0.35065,4.3539,-0.22403,-4.972,22.125,2.601,-0.867,-1.8206,3.468,-1.193e-11,-0.91029,0,0,0.16667,-0,-0,0.66667
0.025926,0.00039345,0.15555,-0.74941,-35.947,192.85,0.31085,-0.10362,-0.0034756,0.41447,3.4191e-06,-0.0017378,0,0,0.16667,-1.9737e-16,0,0.66667
0.46152,0.83977,2.7691,0.50966,19.093,73.416,-3.7635,1.2545,-1.0759,-5.018,-8.4155e-14,-0.53793,0,0,0.16667,3.9475e-16,0,0.66667
0.2813,0.90316,1.6878,0.60475,26.607,119.51,-2.7219,0.90729,-0.70211,-3.6291,1.8887e-12,-0.35106,0,0,0.16667,1.9737e-16,0,0.66667
0.028966,0.825,0.1738,0.4875,23.216,191.93,-0.22593,0.075312,-1.155,-0.30125,2.799e-07,-0.5775,0,0,0.16667,-4.9343e-17,0,0.66667
0.88468,0.16394,5.3081,-0.50409,-5.0976,5.2624,7.1354,-2.3785,-1.0956,9.5139,-1.4669e-09,-0.54778,0,0,0.16667,-3.158e-15,0,0.66667
0.77101,0.79759,4.626,0.44638,8.5213,16.306,-5.5066,1.8355,-1.2903,-7.3421,8.5588e-11,-0.64514,0,0,0.16667,-1.579e-15,0,0.66667
0.32974,0.76462,1.9784,0.39694,16.815,106.31,-2.0941,0.69805,-1.4401,-2.7922,4.7387e-12,-0.72005,0,0,0.16667,-0,-0,0.66667
0.79656,0.31838,4.7794,-0.27242,-4.6414,12.998,3.472,-1.1573,-1.7379,4.6293,-4.2132e-10,-0.86897,0,0,0.16667,-0,-0,0.66667
0.32464,0.45433,1.9478,-0.0685,-2.9018,107.53,0.3558,-0.1186,-1.9827,0.4744,-1.2364e-12,-0.99134,0,0,0.16667,-3.9475e-16,0,0.66667
0.30788,0.95063,1.8473,0.67594,29.296,112.39,-3.3298,1.1099,-0.37447,-4.4397,2.9554e-13,-0.18723,0,0,0.16667,7.8949e-16,-3.4827e-17,0.66667
0.92811,0.17568,5.5687,-0.48648,-3.0724,2.6496,7.2242,-2.4081,-1.1572,9.6322,-4.2136e-08,-0.5786,0,0,0.16667,-0,-0,0.66667
0.97692,0.72747,5.8615,0.34121,0.58956,0.65179,-5.3333,1.7778,-1.5848,-7.1111,-3.3257e-08,-0.79242,0,0,0.16667,-0,-0,0.66667
0.52356,0.16551,3.1413,-0.50174,-17.32,59.394,4.203,-1.401,-1.1036,5.604,-5.6266e-13,-0.55182,0,0,0.16667,-0,-0,0.66667
0.95194,0.62382,5.7116,0.18573,0.73471,1.1508,-2.8289,0.94295,-1.8794,-3.7718,4.0156e-09,-0.93968,0,0,0.16667,1.9737e-15,0,0.66667
0.888,0.75097,5.328,0.37645,3.6568,4.7656,-5.3486,1.7829,-1.4974,-7.1315,7.0482e-09,-0.74868,0,0,0.16667,-0,-0,0.66667
0.51803,0.80664,3.1082,0.45996,15.986,60.541,-3.8124,1.2708,-1.2483,-5.0832,-3.0642e-14,-0.62415,0,0,0.16667,-0,-0,0.66667
0.37275,0.30877,2.2365,-0.28685,-11.713,95.034,1.7107,-0.57025,-1.7084,2.281,-1.8145e-12,-0.85419,0,0,0.16667,-0,-0,0.66667
0.71035,0.43003,4.2621,-0.10495,-2.4356,24.312,1.1928,-0.39761,-1.9598,1.5904,-1.8866e-12,-0.97989,0,0,0.16667,-0,-0,0.66667
0.45564,0.57075,2.7339,0.10612,3.9757,74.497,-0.77367,0.25789,-1.9601,-1.0316,4.0934e-13,-0.98007,0,0,0.16667,-0,-0,0.66667
0.60521,0.28434,3.6313,-0.32348,-9.6863,42.504,3.1324,-1.0441,-1.6281,4.1766,1.7848e-12,-0.81407,0,0,0.16667,-0,-0,0.66667
0.99041,0.13647,5.9424,-0.54529,-0.34986,0.89327,8.641,-2.8803,-0.9415,11.521,-1.2283e-07,-0.47075,0,0,0.16667,-1.579e-15,0,0.66667
0.77392,0.72618,4.6435,0.33927,6.3738,15.771,-4.2011,1.4004,-1.5897,-5.6015,1.5501e-10,-0.79483,0,0,0.16667,-0,-0,0.66667
0.33428,0.54121,2.0057,0.061818,2.5999,104.98,-0.33063,0.11021,-1.9852,-0.44084,7.3785e-13,-0.99261,0,0,0.16667,-0,-0,0.66667
0.088998,0.1752,0.53399,-0.4872,-23.036,174.24,0.69376,-0.23125,-1.155,0.92501,1.0574e-08,-0.57751,0,0,0.16667,-0,-0,0.66667
0.18491,0.37657,1.1094,-0.18514,-8.4814,146.3,0.54773,-0.18258,-1.8793,0.73031,4.1846e-10,-0.93964,0,0,0.16667,-7.8949e-16,0,0.66667
0.52685,0.65911,3.1611,0.23866,8.1509,58.407,-2.0119,0.67062,-1.7976,-2.6825,2.8311e-13,-0.89881,0,0,0.16667,-0,-0,0.66667
0.4171,0.082519,2.5026,-0.62622,-24.719,84.232,4.1792,-1.3931,-0.60471,5.5722,-3.6948e-13,-0.30236,0,0,0.16667,-0,-0,0.66667
0.80066,0.55304,4.804,0.079561,1.3249,12.392,-1.0192,0.33974,-1.977,-1.359,2.5551e-10,-0.9885,0,0,0.16667,-0,-0,0.66667
0.9332,0.76516,5.5992,0.39774,2.2986,2.2179,-5.9387,1.9796,-1.4366,-7.9183,7.3427e-09,-0.71829,0,0,0.16667,-0,-0,0.66667
0.17786,0.86688,1.0672,0.55031,25.431,148.45,-1.5661,0.52203,-0.92223,-2.0881,-9.0804e-10,-0.46111,0,0,0.16667,1.9737e-16,0,0.66667
0.86007,0.54226,5.1604,0.06339,0.75526,6.575,-0.87232,0.29077,-1.9867,-1.1631,-4.7868e-10,-0.99337,0,0,0.16667,1.579e-15,0,0.66667
0.95739,0.25631,5.7444,-0.36553,-1.3006,1.2186,5.5993,-1.8664,-1.5246,7.4658,5.2865e-08,-0.7623,0,0,0.16667,-0,-0,0.66667
0.95947,0.92697,5.7568,0.64046,2.3402,1.8607,-9.832,3.2773,-0.5403,-13.109,2.494e-07,-0.27015,0,0,0.16667,7.8949e-16,0,0.66667
0.037863,0.65843,0.22718,0.23765,11.266,189.28,-0.14397,0.047989,-1.799,-0.19196,3.8104e-08,-0.89949,0,0,0.16667,9.8686e-17,0,0.66667
0.057584,0.57954,0.3455,0.11931,5.64,183.45,-0.10992,0.036641,-1.9483,-0.14656,5.4295e-08,-0.97413,0,0,0.16667,-9.8686e-17,0,0.66667
0.0057974,0.91742,0.034784,0.62614,29.943,198.79,-0.058077,0.019358,-0.60484,-0.077436,-7.3896e-07,-0.30242,0,0,0.16667,-0,3.6273e-16,0.66667
0.31268,0.087831,1.8761,-0.61825,-26.659,111.04,3.0931,-1.031,-0.64284,4.1241,-1.6378e-12,-0.32142,0,0,0.16667,-1.9737e-16,0,0.66667
0.055698,0.099408,0.33419,-0.60089,-28.628,184.06,0.5355,-0.1785,-0.71541,0.71399,-3.4351e-07,-0.3577,0,0,0.16667,-0,-0,0.66667
0.29386,0.77346,1.7632,0.41018,17.821,115.94,-1.9286,0.64287,-1.4018,-2.5715,2.3338e-12,-0.70088,0,0,0.16667,1.9737e-16,0,0.66667
0.35602,0.66579,2.1361,0.24868,10.295,99.332,-1.4166,0.47219,-1.7798,-1.8888,3.3497e-12,-0.88989,0,0,0.16667,-0,-0,0.66667
0.95368,0.36139,5.7221,-0.20791,-0.7912,1.1121,3.1725,-1.0575,-1.8473,4.23,1.1141e-08,-0.92366,0,0,0.16667,-0,-0,0.66667
0.47695,0.64475,2.8617,0.21712,7.935,69.56,-1.6569,0.5523,-1.831,-2.2092,-2.186e-13,-0.91548,0,0,0.16667,-0,-0,0.66667
0.27824,0.46086,1.6694,-0.058716,-2.5661,120.07,0.26139,-0.087131,-1.9877,0.34852,3.8309e-12,-0.99386,0,0,0.16667,1.9737e-16,0,0.66667
0.50301,0.026034,3.018,-0.71095,-25.449,64.255,5.7218,-1.9073,-0.20317,7.629,-8.4954e-13,-0.10159,0,0,0.16667,-0,-0,0.66667
0.64336,0.010162,3.8601,-0.73476,-20.653,36.235,7.5634,-2.5211,-0.080368,10.085,4.1345e-13,-0.040184,0,0,0.16667,-0,-0,0.66667
0.11125,0.8304,0.66747,0.4956,23.331,167.72,-0.88213,0.29404,-1.1269,-1.1762,-7.601e-09,-0.56344,0,0,0.16667,-0,-0,0.66667
0.75806,0.53119,4.5484,0.046778,0.92786,17.559,-0.56737,0.18912,-1.9924,-0.75649,2.9219e-11,-0.99619,0,0,0.16667,1.0996e-15,0,0.66667
0.85195,0.94539,5.1117,0.66809,8.7123,8.2739,-9.1068,3.0356,-0.41188,-12.142,5.2751e-09,-0.20594,0,0,0.16667,-0,-0,0.66667
0.84425,0.93885,5.0655,0.65828,8.9879,8.9231,-8.8921,2.964,-0.4617,-11.856,6.1486e-09,-0.23085,0,0,0.16667,-0,-0,0.66667
0.89051,0.89533,5.343,0.593,5.7623,5.0925,-8.4491,2.8164,-0.75116,-11.265,2.05e-08,-0.37558,0,0,0.16667,-7.8949e-16,0,0.66667
0.38184,0.47507,2.2911,-0.0374,-1.5117,92.63,0.22849,-0.076164,-1.9941,0.30466,4.2072e-13,-0.99707,0,0,0.16667,-0,-0,0.66667
0.44381,0.55685,2.6628,0.08528,3.2381,77.312,-0.60556,0.20185,-1.9734,-0.80741,4.9011e-13,-0.9867,0,0,0.16667,-7.8949e-16,0,0.66667
0.10158,0.86618,0.60949,0.54926,25.944,170.56,-0.89272,0.29757,-0.9261,-1.1903,8.9838e-09,-0.46305,0,0,0.16667,-0,-0,0.66667
0.22581,0.08274,1.3548,-0.62589,-28.4,134.89,2.2613,-0.75376,-0.60578,3.015,4.1403e-11,-0.30289,0,0,0.16667,-0,-0,0.66667
0.97132,0.04688,5.8279,-0.67968,-1.7736,1.675,10.563,-3.521,-0.35724,14.084,8.4629e-06,-0.17862,0,0,0.16667,-0,-0,0.66667
0.28462,0.30902,1.7077,-0.28648,-12.494,118.38,1.3046,-0.43487,-1.7086,1.7395,3.0532e-12,-0.85432,0,0,0.16667,-9.8686e-17,0,0.66667
0.9074,0.24996,5.4444,-0.37507,-3.0159,3.521,5.4453,-1.8151,-1.5021,7.2604,-1.0527e-08,-0.75106,0,0,0.16667,-1.8935e-15,0,0.66667
0.89055,0.6129,5.3433,0.16935,1.5882,4.3224,-2.413,0.80435,-1.8994,-3.2174,3.2605e-09,-0.94972,0,0,0.16667,-0,-0,0.66667
0.9225,0.56707,5.535,0.10061,0.66183,2.3685,-1.485,0.49499,-1.9658,-1.98,5.6764e-08,-0.9829,0,0,0.16667,-0,-0,0.66667
0.15615,0.86908,0.9369,0.55363,25.779,154.69,-1.3832,0.46106,-0.91218,-1.8442,-3.0784e-09,-0.45609,0,0,0.16667,2.9606e-16,1.2823e-16,0.66667
0.87972,0.90605,5.2783,0.60908,6.4889,5.892,-8.5731,2.8577,-0.68156,-11.431,-4.137e-08,-0.34078,0,0,0.16667,5.181e-16,0,0.66667
0.63199,0.72483,3.792,0.33724,9.565,37.538,-3.4101,1.1367,-1.5947,-4.5469,-3.2367e-12,-0.79737,0,0,0.16667,1.579e-15,0,0.66667
0.21063,0.48226,1.2638,-0.026605,-1.2049,138.95,0.08966,-0.029887,-1.996,0.11955,3.4072e-11,-0.99799,0,0,0.16667,-3.9475e-16,0,0.66667
0.34512,0.46624,2.0707,-0.050647,-2.1121,102.12,0.27966,-0.093221,-1.9925,0.37288,2.4925e-14,-0.99627,0,0,0.16667,-5.9212e-16,0,0.66667
0.15992,0.33473,0.95951,-0.2479,-11.466,153.5,0.63431,-0.21144,-1.7811,0.84575,1.5342e-09,-0.89054,0,0,0.16667,-0,-0,0.66667
0.44435,0.066272,2.6661,-0.65059,-24.969,77.675,4.6254,-1.5418,-0.49452,6.1672,-1.914e-13,-0.24726,0,0,0.16667,-1.579e-15,0,0.66667
0.083775,0.15423,0.50265,-0.51865,-24.563,175.78,0.6952,-0.23173,-1.0435,0.92693,5.5495e-09,-0.52177,0,0,0.16667,-1.2336e-16,0,0.66667
0.16532,0.40922,0.99191,-0.13616,-6.2804,151.92,0.36016,-0.12005,-1.9337,0.48022,2.7278e-10,-0.96686,0,0,0.16667,-0,-0,0.66667
0.1972,0.04087,1.1832,-0.68869,-31.709,143.02,2.1729,-0.72431,-0.31248,2.8972,-1.9447e-10,-0.15624,0,0,0.16667,3.9475e-16,0,0.66667
0.69103,0.95754,4.1462,0.68632,17.147,28.156,-7.5882,2.5294,-0.3247,-10.118,-1.6289e-12,-0.16235,0,0,0.16667,-0,-0,0.66667
0.5738,0.73962,3.4428,0.35943,11.411,48.702,-3.2999,1.1,-1.5399,-4.3999,-5.6422e-13,-0.76994,0,0,0.16667,-7.8949e-16,0,0.66667
0.87332,0.79489,5.2399,0.44233,4.8702,5.9588,-6.1807,2.0602,-1.3046,-8.241,4.6395e-09,-0.65231,0,0,0.16667,-0,-0,0.66667
0.24463,0.058835,1.4678,-0.66175,-29.777,129.66,2.5902,-0.86339,-0.44273,3.4536,-3.3369e-12,-0.22136,0,0,0.16667,9.8686e-17,0,0.66667
0.62961,0.32692,3.7776,-0.25962,-7.3887,37.894,2.6154,-0.87179,-1.7593,3.4872,2.46e-12,-0.87965,0,0,0.16667,-0,-0,0.66667
0.034431,0.034899,0.20659,-0.69765,-33.393,190.34,0.38434,-0.12811,-0.26995,0.51245,8.4136e-07,-0.13497,0,0,0.16667,9.8686e-17,0,0.66667
0.5162,0.20014,3.0972,-0.4498,-15.669,60.93,3.7149,-1.2383,-1.2817,4.9533,-6.1551e-13,-0.64084,0,0,0.16667,-0,-0,0.66667
0.86323,0.043143,5.1794,-0.68528,-8.3166,7.3856,9.4649,-3.155,-0.32956,12.62,6.2527e-09,-0.16478,0,0,0.16667,-0,-0,0.66667
0.98413,0.86776,5.9048,0.55164,0.68624,1.0057,-8.6862,2.8954,-0.91971,-11.582,-2.5294e-07,-0.45985,0,0,0.16667,-7.8949e-16,-1.5111e-16,0.66667
0.009873,0.063451,0.059238,-0.65482,-31.338,197.58,0.10344,-0.034479,-0.47557,0.13792,1.8122e-06,-0.23779,0,0,0.16667,-2.4672e-17,0,0.66667
0.25284,0.92044,1.517,0.63067,28.229,127.35,-2.5513,0.85045,-0.58547,-3.4018,-2.0324e-12,-0.29273,0,0,0.16667,3.9475e-16,0,0.66667
0.22385,0.49,1.3431,-0.015003,-0.67532,135.21,0.053736,-0.017912,-1.9982,0.071648,2.3145e-11,-0.99911,0,0,0.16667,-0,-0,0.66667
0.047538,0.057416,0.28523,-0.66388,-31.71,186.47,0.50494,-0.16831,-0.43464,0.67326,1.9841e-07,-0.21732,0,0,0.16667,-2.4672e-17,0,0.66667
0.010172,0.97438,0.061035,0.71158,34.111,197.5,-0.11581,0.03859,-0.19911,-0.15443,-2.1368e-05,-0.099553,0,0,0.16667,-0,-0,0.66667
0.4902,0.23232,2.9412,-0.40152,-14.475,66.676,3.1492,-1.0497,-1.4254,4.1989,-2.1005e-13,-0.71272,0,0,0.16667,-0,-0,0.66667
0.045482,0.75299,0.27289,0.37948,18.013,187.04,-0.27616,0.092052,-1.4895,-0.36821,4.9099e-08,-0.74476,0,0,0.16667,9.8686e-17,0,0.66667
0.27833,0.47333,1.67,-0.040001,-1.7481,120.05,0.17814,-0.059379,-1.9948,0.23751,2.379e-12,-0.99738,0,0,0.16667,-0,-0,0.66667
0.63997,0.40484,3.8398,-0.14274,-3.9651,35.945,1.4616,-0.4872,-1.9299,1.9488,2.3233e-12,-0.96494,0,0,0.16667,-7.8949e-16,0,0.66667
0.29469,0.98686,1.7682,0.73029,31.988,116,-3.4434,1.1478,-0.10375,-4.5912,2.4714e-13,-0.051873,0,0,0.16667,-0,-0,0.66667
0.26965,0.55357,1.6179,0.080356,3.5303,122.43,-0.34669,0.11556,-1.9765,-0.46226,-8.8518e-12,-0.98825,0,0,0.16667,-1.9737e-16,0,0.66667
0.59055,0.94633,3.5433,0.66949,20.849,45.88,-6.3259,2.1086,-0.40612,-8.4345,-3.8236e-13,-0.20306,0,0,0.16667,-0,-0,0.66667
0.38053,0.73494,2.2832,0.35241,14.306,93.088,-2.1457,0.71522,-1.5571,-2.8609,2.4232e-12,-0.77856,0,0,0.16667,-0,-0,0.66667
0.70252,0.079398,4.2151,-0.6309,-15.23,26.233,7.0916,-2.3639,-0.58571,9.4554,2.2133e-12,-0.29286,0,0,0.16667,-7.8949e-16,1.9606e-16,0.66667
0.49612,0.76159,2.9767,0.39239,14.032,65.326,-3.1148,1.0383,-1.4519,-4.153,-3.5394e-13,-0.72594,0,0,0.16667,7.8949e-16,0,0.66667
0.63321,0.63443,3.7993,0.20165,5.6892,37.195,-2.043,0.681,-1.8541,-2.724,-2.8102e-12,-0.92707,0,0,0.16667,-0,-0,0.66667
0.35339,0.3823,2.1204,-0.17655,-7.3186,99.985,0.99824,-0.33275,-1.8883,1.331,-2.631e-12,-0.94414,0,0,0.16667,-0,-0,0.66667
0.28704,0.1526,1.7223,-0.5211,-22.795,117.87,2.3933,-0.79776,-1.0341,3.191,-2.893e-12,-0.51707,0,0,0.16667,-0,-0,0.66667
0.13321,0.33248,0.79924,-0.25128,-11.717,161.25,0.53557,-0.17852,-1.7741,0.71409,2.429e-09,-0.88704,0,0,0.16667,-1.9737e-16,0,0.66667
0.93708,0.22866,5.6225,-0.40701,-2.2136,2.065,6.1024,-2.0341,-1.4123,8.1365,2.3592e-10,-0.70615,0,0,0.16667,-1.579e-15,0,0.66667
0.80484,0.9553,4.829,0.68296,11.479,12.916,-8.7947,2.9316,-0.34007,-11.726,-1.5026e-10,-0.17004,0,0,0.16667,-0,-0,0.66667
0.93803,0.6871,5.6282,0.28065,1.4771,1.807,-4.2122,1.4041,-1.7226,-5.6162,-1.7607e-08,-0.86128,0,0,0.16667,2.2204e-15,0,0.66667
0.18538,0.96154,1.1123,0.69231,32.029,146.38,-2.0535,0.68448,-0.29635,-2.7379,-5.6235e-10,-0.14817,0,0,0.16667,1.9737e-16,1.4012e-16,0.66667
0.93316,0.26448,5.5989,-0.35328,-2.0309,2.1369,5.2746,-1.7582,-1.5553,7.0328,3.9648e-09,-0.77765,0,0,0.16667,-0,-0,0.66667
0.93575,0.86991,5.6145,0.55487,3.1658,2.4777,-8.3075,2.7692,-0.90631,-11.077,7.6561e-08,-0.45316,0,0,0.16667,1.9737e-15,0,0.66667
0.28354,0.31681,1.7013,-0.27478,-11.99,118.67,1.2466,-0.41553,-1.7324,1.6621,3.6144e-12,-0.86618,0,0,0.16667,-0,-0,0.66667
0.27463,0.91549,1.6478,0.62324,27.547,121.34,-2.7386,0.91287,-0.61773,-3.6515,1.2221e-12,-0.30887,0,0,0.16667,-0,-0,0.66667
0.55143,0.79023,3.3086,0.43535,14.374,53.376,-3.841,1.2803,-1.3254,-5.1214,-4.301e-13,-0.66269,0,0,0.16667,-0,-0,0.66667
0.18529,0.0098651,1.1117,-0.7352,-34.061,146.44,2.1796,-0.72653,-0.078335,2.9061,5.4875e-10,-0.039167,0,0,0.16667,-0,-0,0.66667
0.4421,0.6481,2.6526,0.22215,8.4609,77.771,-1.5714,0.5238,-1.8239,-2.0952,8.5509e-13,-0.91193,0,0,0.16667,-3.9475e-16,0,0.66667
0.18532,0.44149,1.1119,-0.087767,-4.0177,146.17,0.26024,-0.086746,-1.9735,0.34698,4.5579e-11,-0.98677,0,0,0.16667,-0,-0,0.66667
0.94738,0.48968,5.6843,-0.015483,-0.067129,1.2315,0.23469,-0.078231,-1.998,0.31292,3.4485e-07,-0.999,0,0,0.16667,1.1219e-15,0,0.66667
0.49382,0.18125,2.9629,-0.47812,-17.188,65.943,3.7777,-1.2592,-1.1864,5.037,-3.2419e-14,-0.5932,0,0,0.16667,-0,-0,0.66667
0.96392,0.863,5.7835,0.5445,1.7018,1.4392,-8.3977,2.7992,-0.94482,-11.197,-1.4127e-07,-0.47241,0,0,0.16667,-0,-0,0.66667
0.64494,0.24706,3.8697,-0.37941,-10.472,35.276,3.9152,-1.3051,-1.4883,5.2202,3.1743e-12,-0.74417,0,0,0.16667,-0,-0,0.66667
0.48432,0.030589,2.9059,-0.70412,-25.821,68.446,5.4562,-1.8187,-0.24013,7.275,-2.0317e-12,-0.12007,0,0,0.16667,-4.9343e-17,1.6355e-17,0.66667
0.9677,0.57131,5.8062,0.10697,0.26524,0.60144,-1.6562,0.55206,-1.9603,-2.2082,-1.2547e-07,-0.98014,0,0,0.16667,-0,-0,0.66667
0.14319,0.12282,0.85914,-0.56577,-26.458,158.45,1.2962,-0.43207,-0.86291,1.7283,-3.8686e-11,-0.43146,0,0,0.16667,7.4015e-17,0,0.66667
0.63233,0.16212,3.794,-0.50683,-14.44,37.719,5.1277,-1.7092,-1.0858,6.8369,1.8741e-12,-0.5429,0,0,0.16667,-0,-0,0.66667
0.66189,0.45049,3.9713,-0.074261,-1.96,32.097,0.78644,-0.26215,-1.9791,1.0486,1.6021e-12,-0.98956,0,0,0.16667,-0,-0,0.66667
0.43384,0.045179,2.603,-0.68223,-26.515,80.244,4.7357,-1.5786,-0.3444,6.3142,-4.0323e-13,-0.1722,0,0,0.16667,7.8949e-16,0,0.66667
0.059357,0.21843,0.35614,-0.42235,-20.033,182.95,0.40112,-0.13371,-1.3669,0.53482,-1.1382e-08,-0.68344,0,0,0.16667,-9.8686e-17,0,0.66667
0.49272,0.24179,2.9563,-0.38731,-13.912,66.088,3.0534,-1.0178,-1.4655,4.0712,-5.0271e-13,-0.73274,0,0,0.16667,3.9475e-16,0,0.66667
0.46513,0.3874,2.7908,-0.16891,-6.2599,72.284,1.257,-0.41901,-1.8979,1.676,2.5457e-13,-0.94897,0,0,0.16667,-0,-0,0.66667
0.80675,0.077218,4.8405,-0.63417,-10.523,12.571,8.1859,-2.7286,-0.56871,10.914,-1.3008e-10,-0.28435,0,0,0.16667,-0,-0,0.66667
0.25666,0.18852,1.54,-0.46722,-20.783,126.17,1.9187,-0.63956,-1.2238,2.5582,1.1244e-11,-0.61192,0,0,0.16667,-7.8949e-16,0,0.66667
0.39143,0.80879,2.3486,0.46318,18.659,90.422,-2.9009,0.96695,-1.239,-3.8678,1.3731e-12,-0.6195,0,0,0.16667,1.9737e-16,0,0.66667
0.24017,0.85135,1.441,0.52702,23.682,130.8,-2.0252,0.67508,-1.0115,-2.7003,-2.744e-11,-0.50576,0,0,0.16667,-0,-0,0.66667
0.68644,0.19003,4.1187,-0.46495,-11.635,28.417,5.1066,-1.7022,-1.2332,6.8088,4.6123e-12,-0.6166,0,0,0.16667,-0,-0,0.66667
0.98988,0.85641,5.9393,0.53462,0.36318,0.86982,-8.4673,2.8224,-0.98254,-11.29,1.6451e-07,-0.49127,0,0,0.16667,-0,-0,0.66667
0.17743,0.94361,1.0646,0.66541,30.852,148.64,-1.889,0.62968,-0.42502,-2.5187,-3.4466e-10,-0.21251,0,0,0.16667,3.9475e-16,0,0.66667
0.82145,0.48853,4.9287,-0.017201,-0.25849,10.154,0.22607,-0.075358,-1.9976,0.30143,1.0549e-10,-0.99879,0,0,0.16667,-0,-0,0.66667
0.23099,0.85755,1.3859,0.53632,24.217,133.37,-1.9821,0.66071,-0.97671,-2.6428,-5.2525e-11,-0.48835,0,0,0.16667,-3.9475e-16,0,0.66667
0.057976,0.97748,0.34785,0.71622,34.226,183.41,-0.66437,0.22146,-0.17543,-0.88583,2.6388e-06,-0.087716,0,0,0.16667,-0,-0,0.66667
0.13882,0.34127,0.8329,-0.23809,-11.083,159.62,0.52881,-0.17627,-1.7998,0.70508,1.7068e-09,-0.89992,0,0,0.16667,2.4672e-16,0,0.66667
0.93515,0.11339,5.6109,-0.57991,-3.357,2.5747,8.6769,-2.8923,-0.80428,11.569,-1.006e-07,-0.40214,0,0,0.16667,-0,-0,0.66667
0.88854,0.56128,5.3313,0.09192,0.87591,4.4123,-1.3068,0.4356,-1.9714,-1.7424,7.2774e-09,-0.98572,0,0,0.16667,1.9737e-15,0,0.66667
0.28926,0.57546,1.7356,0.11319,4.9141,117.07,-0.52387,0.17462,-1.953,-0.69849,-2.1667e-12,-0.97648,0,0,0.16667,-0,-0,0.66667
0.94776,0.4443,5.6866,-0.083545,-0.35988,1.2338,1.2669,-0.4223,-1.9745,1.6892,7.8694e-09,-0.98723,0,0,0.16667,-0,-0,0.66667
0.84993,0.76718,5.0996,0.40077,5.1735,7.8012,-5.45,1.8167,-1.4275,-7.2666,2.0781e-09,-0.71376,0,0,0.16667,-2.5855e-15,0,0.66667
0.43465,0.48949,2.6079,-0.015766,-0.60461,79.508,0.10965,-0.036549,-1.9989,0.14619,-5.6607e-13,-0.99947,0,0,0.16667,-0,-0,0.66667
0.46805,0.087219,2.8083,-0.61917,-23.094,72.045,4.6369,-1.5456,-0.63835,6.1825,-1.3034e-12,-0.31918,0,0,0.16667,7.8949e-16,1.3052e-16,0.66667
0.62985,0.41685,3.7791,-0.12472,-3.5408,37.762,1.2569,-0.41896,-1.9437,1.6758,1.3497e-12,-0.97187,0,0,0.16667,-0,-0,0.66667
0.15803,0.44023,0.94819,-0.089652,-4.1443,154.03,0.22669,-0.075562,-1.9728,0.30225,6.6589e-11,-0.98639,0,0,0.16667,-0,-0,0.66667
0.014782,0.88683,0.088693,0.58024,27.71,196.13,-0.13723,0.045745,-0.8038,-0.18298,2.8012e-08,-0.4019,0,0,0.16667,2.4672e-17,0,0.66667
0.26551,0.85934,1.5931,0.53901,23.897,123.78,-2.2898,0.76328,-0.96829,-3.0531,-4.8344e-12,-0.48414,0,0,0.16667,-0,-2.4693e-16,0.66667
0.015444,0.038171,0.092662,-0.69274,-33.184,195.94,0.17117,-0.05705,-0.29546,0.22824,1.1251e-05,-0.14773,0,0,0.16667,-0,-0,0.66667
0.6745,0.69593,4.047,0.2939,7.5441,30.125,-3.1718,1.0573,-1.693,-4.229,-5.0664e-12,-0.84649,0,0,0.16667,-0,-0,0.66667
0.55147,0.95866,3.3088,0.68798,22.917,53.786,-6.0704,2.0235,-0.31624,-8.0939,-8.7486e-14,-0.15812,0,0,0.16667,-0,-0,0.66667
0.32165,0.38164,1.9299,-0.17753,-7.5422,108.35,0.91365,-0.30455,-1.887,1.2182,-3.4466e-12,-0.94352,0,0,0.16667,-0,-0,0.66667
0.7802,0.66475,4.6812,0.24713,4.513,14.89,-3.085,1.0283,-1.7839,-4.1133,2.1506e-10,-0.89193,0,0,0.16667,-0,-0,0.66667
0.14579,0.21052,0.87471,-0.43423,-20.231,157.65,1.0129,-0.33762,-1.3288,1.3505,2.6998e-09,-0.66438,0,0,0.16667,-1.9737e-16,0,0.66667
0.24488,0.48967,1.4693,-0.015494,-0.69008,129.3,0.060708,-0.020236,-1.9981,0.080943,-4.5351e-12,-0.99907,0,0,0.16667,1.9737e-16,0,0.66667
0.29231,0.29424,1.7539,-0.30865,-13.4,116.3,1.4435,-0.48118,-1.6603,1.9247,-1.5616e-12,-0.83015,0,0,0.16667,-0,-0,0.66667
0.19593,0.96608,1.1756,0.69912,32.216,143.38,-2.1917,0.73056,-0.26181,-2.9222,1.9214e-10,-0.13091,0,0,0.16667,-4.9343e-17,0,0.66667
0.087939,0.69379,0.52763,0.29068,13.701,174.51,-0.409,0.13633,-1.6988,-0.54533,-1.3258e-09,-0.84941,0,0,0.16667,-1.9737e-16,0,0.66667
0.86998,0.84083,5.2199,0.51125,5.807,6.3695,-7.1164,2.3721,-1.0706,-9.4885,6.1469e-09,-0.53531,0,0,0.16667,-1.7764e-15,0,0.66667
0.088189,0.71431,0.52913,0.32146,15.157,174.44,-0.45359,0.1512,-1.6322,-0.60478,-5.4307e-09,-0.81608,0,0,0.16667,-0,-0,0.66667
0.68371,0.98802,4.1023,0.73203,18.692,29.439,-8.0079,2.6693,-0.094034,-10.677,5.9597e-13,-0.047017,0,0,0.16667,-7.8949e-16,0,0.66667
0.1204,0.8729,0.72241,0.55935,26.315,165.07,-1.0775,0.35918,-0.88781,-1.4367,-2.2599e-08,-0.44391,0,0,0.16667,2.4672e-16,0,0.66667
0.010699,0.77678,0.064194,0.41517,19.758,197.33,-0.071071,0.02369,-1.3869,-0.094761,-1.011e-07,-0.69343,0,0,0.16667,1.2503e-17,0,0.66667
0.55727,0.74736,3.3436,0.37104,12.116,52.088,-3.3083,1.1028,-1.5105,-4.4111,-5.9663e-13,-0.75523,0,0,0.16667,-0,-0,0.66667
0.90711,0.68399,5.4427,0.27598,2.2076,3.3819,-4.0055,1.3352,-1.731,-5.3407,1.9715e-09,-0.8655,0,0,0.16667,-3.9475e-16,0,0.66667
0.86046,0.46222,5.1627,-0.056668,-0.6733,6.5406,0.78017,-0.26006,-1.9898,1.0402,2.2201e-09,-0.99489,0,0,0.16667,1.579e-15,0,0.66667
0.33845,0.13298,2.0307,-0.55053,-23.25,104.14,2.9812,-0.99374,-0.92155,3.975,-2.3879e-12,-0.46078,0,0,0.16667,-0,-0,0.66667
0.027159,0.41957,0.16295,-0.12065,-5.7184,192.45,0.052428,-0.017476,-1.9474,0.069903,-1.7969e-07,-0.9737,0,0,0.16667,-4.9343e-17,0,0.66667
0.80086,0.91678,4.8052,0.62517,10.65,13.19,-8.0107,2.6702,-0.60971,-10.681,3.3868e-10,-0.30486,0,0,0.16667,-0,-0,0.66667
0.80598,0.82866,4.8359,0.49299,8.1282,12.311,-6.3575,2.1192,-1.1344,-8.4767,4.3396e-10,-0.56719,0,0,0.16667,-1.579e-15,0,0.66667
0.86849,0.85845,5.2109,0.53768,6.1894,6.5501,-7.4715,2.4905,-0.97064,-9.962,7.2753e-10,-0.48532,0,0,0.16667,-1.579e-15,0,0.66667
0.66965,0.98154,4.0179,0.72232,19.093,31.709,-7.7391,2.5797,-0.14493,-10.319,4.583e-13,-0.072464,0,0,0.16667,-1.579e-15,1.909e-16,0.66667
0.80778,0.31826,4.8467,-0.27262,-4.4091,11.753,3.5234,-1.1745,-1.7353,4.6979,-5.9886e-10,-0.86767,0,0,0.16667,1.579e-15,0,0.66667
0.8975,0.81972,5.385,0.47957,4.3119,4.3442,-6.8867,2.2956,-1.1812,-9.1822,1.047e-08,-0.59062,0,0,0.16667,-0,-0,0.66667
0.45383,0.59213,2.723,0.1382,5.1893,74.936,-1.0035,0.3345,-1.9343,-1.338,8.8796e-13,-0.96717,0,0,0.16667,-7.8949e-16,0,0.66667
0.55783,0.037263,3.347,-0.6941,-22.892,52.485,6.195,-2.065,-0.28657,8.26,-1.1458e-13,-0.14329,0,0,0.16667,-1.579e-15,-1.2872e-16,0.66667
0.50613,0.7783,3.0368,0.41745,14.737,63.114,-3.3806,1.1269,-1.3801,-4.5074,-1.8163e-13,-0.69005,0,0,0.16667,-1.9737e-16,0,0.66667
0.69198,0.25839,4.1519,-0.36242,-8.904,27.379,4.0126,-1.3375,-1.5323,5.3501,4.5342e-12,-0.76617,0,0,0.16667,-0,-0,0.66667
0.68291,0.80952,4.0974,0.46427,11.725,28.985,-5.0729,1.691,-1.2337,-6.7639,-4.7828e-12,-0.61683,0,0,0.16667,-1.1842e-15,0,0.66667
0.52031,0.51394,3.1219,0.020906,0.71964,59.75,-0.17405,0.058015,-1.9974,-0.23206,-2.5815e-13,-0.99869,0,0,0.16667,1.579e-15,0,0.66667
0.82847,0.8045,4.9708,0.45675,6.7087,9.9083,-6.0545,2.0182,-1.2598,-8.0727,7.4288e-10,-0.62988,0,0,0.16667,-0,-0,0.66667
0.50578,0.61833,3.0347,0.1775,6.2426,63,-1.4364,0.47879,-1.8872,-1.9152,-7.4807e-13,-0.9436,0,0,0.16667,3.9475e-16,0,0.66667
0.82486,0.461,4.9492,-0.058505,-0.86362,9.8147,0.77214,-0.25738,-1.9877,1.0295,-2.9353e-10,-0.99385,0,0,0.16667,-0,-0,0.66667
0.28185,0.84183,1.6911,0.51274,22.497,119.28,-2.3122,0.77074,-1.0675,-3.083,3.6375e-12,-0.53375,0,0,0.16667,-1.4803e-16,0,0.66667
0.17849,0.86814,1.071,0.55221,25.514,148.27,-1.5771,0.52569,-0.91485,-2.1027,-9.9859e-10,-0.45742,0,0,0.16667,-9.1683e-17,0,0.66667
0.96987,0.034845,5.8192,-0.69773,-1.933,1.774,10.827,-3.6091,-0.27068,14.436,1.2009e-05,-0.13534,0,0,0.16667,3.158e-15,0,0.66667
0.74194,0.28037,4.4516,-0.32945,-6.9535,19.938,3.9109,-1.3036,-1.6141,5.2145,-3.2332e-11,-0.80703,0,0,0.16667,-1.8201e-15,0,0.66667
0.25979,0.94876,1.5588,0.67314,30.054,125.47,-2.798,0.93267,-0.38769,-3.7307,-1.7815e-12,-0.19384,0,0,0.16667,-0,-0,0.66667
0.58124,0.77911,3.4874,0.41866,13.139,47.286,-3.8935,1.2978,-1.3776,-5.1913,-1.1573e-12,-0.68879,0,0,0.16667,2.9606e-16,0,0.66667
0.95526,0.45898,5.7316,-0.06153,-0.22269,0.95772,0.94044,-0.31348,-1.9868,1.2539,4.8204e-07,-0.99339,0,0,0.16667,7.8949e-16,0,0.66667
0.080754,0.12323,0.48452,-0.56515,-26.808,176.68,0.73021,-0.2434,-0.86547,0.97361,1.0771e-08,-0.43273,0,0,0.16667,-0,-0,0.66667
0.083534,0.64099,0.50121,0.21149,9.9672,175.8,-0.28267,0.094223,-1.8397,-0.37689,5.1865e-09,-0.91985,0,0,0.16667,-0,-0,0.66667
0.61913,0.73643,3.7148,0.35464,10.337,39.918,-3.5131,1.171,-1.5515,-4.6842,-2.4352e-12,-0.77574,0,0,0.16667,-0,-0,0.66667
0.22449,0.55256,1.347,0.078845,3.5484,135.03,-0.2832,0.094401,-1.9768,-0.3776,-7.8454e-11,-0.98839,0,0,0.16667,1.9737e-16,0,0.66667
0.76518,0.56241,4.5911,0.093611,1.8087,16.651,-1.1461,0.38203,-1.9716,-1.5281,7.1422e-11,-0.9858,0,0,0.16667,2.0292e-15,0,0.66667
0.56815,0.94366,3.4089,0.66549,21.55,50.32,-6.0496,2.0165,-0.42464,-8.0661,6.8612e-13,-0.21232,0,0,0.16667,-1.579e-15,0,0.66667
0.66619,0.25035,3.9971,-0.37448,-9.8336,31.608,3.9916,-1.3305,-1.5017,5.3221,5.276e-12,-0.75085,0,0,0.16667,-1.579e-15,0,0.66667
0.10781,0.23544,0.64688,-0.39683,-18.66,168.7,0.68455,-0.22818,-1.4404,0.91273,8.7066e-09,-0.72021,0,0,0.16667,-1.9737e-16,0,0.66667
0.084283,0.89781,0.5057,0.59672,28.311,175.65,-0.80469,0.26823,-0.7329,-1.0729,6.3929e-08,-0.36645,0,0,0.16667,-0,-0,0.66667
0.62512,0.98917,3.7507,0.73376,21.439,39.5,-7.339,2.4463,-0.087151,-9.7853,4.6052e-13,-0.043575,0,0,0.16667,-7.8949e-16,0,0.66667
0.40973,0.45098,2.4584,-0.073524,-2.8942,85.624,0.482,-0.16067,-1.9802,0.64267,-7.3958e-13,-0.99008,0,0,0.16667,-0,-0,0.66667
0.087253,0.96616,0.52352,0.69923,33.254,174.81,-0.97616,0.32539,-0.26131,-1.3015,4.4466e-07,-0.13065,0,0,0.16667,1.1603e-18,0,0.66667
0.37106,0.93628,2.2264,0.65442,26.996,95.808,-3.8853,1.2951,-0.47792,-5.1804,1.128e-12,-0.23896,0,0,0.16667,1.1842e-15,1.8224e-16,0.66667
0.67214,0.63611,4.0329,0.20417,5.2623,30.435,-2.1957,0.73189,-1.8531,-2.9276,-3.938e-12,-0.92656,0,0,0.16667,-0,-0,0.66667
0.18959,0.13587,1.1375,-0.54619,-25.125,145.09,1.6568,-0.55227,-0.93948,2.2091,3.2633e-10,-0.46974,0,0,0.16667,-0,-0,0.66667
0.89573,0.64069,5.3744,0.21103,1.8889,4.0151,-3.0244,1.0081,-1.8405,-4.0326,4.9893e-09,-0.92023,0,0,0.16667,-0,-0,0.66667
0.94985,0.518,5.6991,0.026995,0.11099,1.1405,-0.41026,0.13675,-1.9969,-0.54701,-2.3744e-08,-0.99844,0,0,0.16667,-0,-0,0.66667
0.96157,0.58244,5.7694,0.12366,0.37726,0.78568,-1.9026,0.6342,-1.9442,-2.5368,6.1336e-08,-0.97211,0,0,0.16667,-1.579e-15,0,0.66667
0.73008,0.1254,4.3805,-0.5619,-12.451,22.004,6.5638,-2.1879,-0.87805,8.7517,1.7719e-13,-0.43903,0,0,0.16667,-0,-0,0.66667
0.40629,0.42644,2.4377,-0.11034,-4.3591,86.487,0.71728,-0.23909,-1.9582,0.95638,-4.9344e-13,-0.97911,0,0,0.16667,-0,-0,0.66667
0.74375,0.13895,4.4625,-0.54158,-11.465,20.056,6.4448,-2.1483,-0.95571,8.5931,-7.8448e-12,-0.47786,0,0,0.16667,-0,-0,0.66667
0.28799,0.83096,1.7279,0.49643,21.69,117.59,-2.2875,0.76249,-1.1223,-3.0499,2.2355e-12,-0.56116,0,0,0.16667,-0,-0,0.66667
0.31442,0.091493,1.8865,-0.61276,-26.386,110.57,3.0826,-1.0275,-0.66635,4.1101,-1.2619e-12,-0.33317,0,0,0.16667,-5.9212e-16,0,0.66667
0.6059,0.17256,3.6354,-0.49116,-14.757,42.595,4.7615,-1.5872,-1.1416,6.3486,1.2075e-12,-0.57082,0,0,0.16667,-0,-0,0.66667
0.59485,0.28744,3.5691,-0.31884,-9.7366,44.495,3.0346,-1.0115,-1.6398,4.0461,9.4258e-13,-0.81989,0,0,0.16667,-0,-0,0.66667
0.87866,0.75332,5.272,0.37999,3.993,5.4384,-5.3421,1.7807,-1.487,-7.1228,6.0516e-09,-0.74348,0,0,0.16667,-0,-0,0.66667
0.2546,0.31942,1.5276,-0.27088,-12.022,126.64,1.1034,-0.36781,-1.7386,1.4713,4.1213e-11,-0.8693,0,0,0.16667,-0,-0,0.66667
0.76619,0.078077,4.5971,-0.63289,-12.439,17.323,7.7585,-2.5862,-0.57682,10.345,-2.5314e-11,-0.28841,0,0,0.16667,-1.579e-15,0,0.66667
0.94101,0.51154,5.6461,0.017305,0.08501,1.4845,-0.26055,0.086848,-1.9984,-0.34739,-5.9968e-07,-0.9992,0,0,0.16667,-3.158e-15,0,0.66667
0.0010329,0.5002,0.0061976,0.00029469,0.013973,200.19,-4.8967e-06,5.8928e-05,-2.0023,2.2119e-05,8.5944e-05,-1.0012,0,0,0.16667,-0,-0,0.66667
0.47609,0.0022496,2.8565,-0.74663,-27.711,70.407,5.6874,-1.8958,-0.017674,7.5832,1.3833e-12,-0.0088368,0,0,0.16667,-0,-0,0.66667
0.65704,0.39292,3.9422,-0.16062,-4.2921,32.963,1.6886,-0.56286,-1.9091,2.2514,2.7073e-12,-0.95456,0,0,0.16667,7.8949e-16,0,0.66667
0.84332,0.68375,5.0599,0.27563,3.6819,8.2031,-3.7191,1.2397,-1.7319,-4.9588,1.7445e-09,-0.86597,0,0,0.16667,3.9475e-16,0,0.66667
0.18374,0.3694,1.1024,-0.19589,-8.9789,146.64,0.57589,-0.19196,-1.8635,0.76786,4.9908e-10,-0.93175,0,0,0.16667,-9.8686e-17,0,0.66667
0.85616,0.21676,5.137,-0.42486,-5.2765,7.3078,5.82,-1.94,-1.359,7.76,-2.8988e-09,-0.67948,0,0,0.16667,-1.7764e-15,0,0.66667
0.36437,0.2435,2.1862,-0.38475,-15.851,97.253,2.2431,-0.74769,-1.4731,2.9907,-3.0027e-12,-0.73653,0,0,0.16667,-5.9212e-16,0,0.66667
0.89227,0.051908,5.3536,-0.67214,-6.4994,5.2128,9.5957,-3.1986,-0.39417,12.794,5.5968e-08,-0.19708,0,0,0.16667,-0,-0,0.66667
0.027712,0.30475,0.16627,-0.29288,-13.903,192.29,0.12986,-0.043286,-1.6948,0.17315,-2.7605e-08,-0.84739,0,0,0.16667,-0,-0,0.66667
0.08539,0.79016,0.51234,0.43524,20.571,175.28,-0.59464,0.19821,-1.3252,-0.79286,-1.5219e-08,-0.66262,0,0,0.16667,-0,-0,0.66667
0.98141,0.81811,5.8885,0.47717,0.67795,0.85282,-7.4928,2.4976,-1.1907,-9.9904,-1.818e-07,-0.59536,0,0,0.16667,-0,-0,0.66667
0.6095,0.99872,3.657,0.74808,22.566,42.429,-7.2953,2.4318,-0.012966,-9.727,3.5083e-14,-0.0064828,0,0,0.16667,2.9606e-16,0,0.66667
0.41763,0.48497,2.5058,-0.022552,-0.88056,83.665,0.1507,-0.050232,-1.9973,0.20093,7.1178e-13,-0.99863,0,0,0.16667,-7.8949e-16,0,0.66667
0.16921,0.92122,1.0153,0.63183,29.352,150.97,-1.7106,0.57021,-0.58032,-2.2808,-8.0985e-10,-0.29016,0,0,0.16667,-0,-0,0.66667
0.6499,0.91786,3.8994,0.62678,17.268,34.837,-6.5176,2.1725,-0.60184,-8.6901,-1.5929e-12,-0.30092,0,0,0.16667,1.579e-15,0,0.66667
0.036975,0.71269,0.22185,0.31903,15.14,189.55,-0.18874,0.062913,-1.6374,-0.25165,4.0333e-08,-0.81871,0,0,0.16667,-2.4672e-17,0,0.66667
0.31161,0.23791,1.8697,-0.39314,-16.872,111.14,1.9601,-0.65337,-1.4513,2.6135,-6.3839e-12,-0.72565,0,0,0.16667,3.9475e-16,0,0.66667
0.32348,0.62892,1.9409,0.19338,8.2058,107.87,-1.0009,0.33363,-1.8669,-1.3345,3.6495e-12,-0.93346,0,0,0.16667,-0,-0,0.66667
0.60744,0.66326,3.6447,0.2449,7.2899,42.008,-2.3802,0.79339,-1.7874,-3.1735,-1.2685e-12,-0.8937,0,0,0.16667,-1.579e-15,0,0.66667
0.65083,0.04386,3.905,-0.68421,-18.864,34.806,7.1249,-2.375,-0.33429,9.4998,1.279e-13,-0.16714,0,0,0.16667,-0,-0,0.66667
0.84605,0.47027,5.0763,-0.044588,-0.58232,7.7881,0.60358,-0.20119,-1.9942,0.80478,-2.5542e-09,-0.99712,0,0,0.16667,-0,-0,0.66667
0.92758,0.47058,5.5655,-0.044137,-0.27008,2.0943,0.65505,-0.21835,-1.9931,0.8734,1.6581e-07,-0.99654,0,0,0.16667,-0,-0,0.66667
0.66046,0.88105,3.9627,0.57157,15.328,32.907,-6.04,2.0133,-0.83813,-8.0533,-2.5144e-12,-0.41907,0,0,0.16667,1.579e-15,0,0.66667
0.57817,0.20679,3.469,-0.43982,-13.886,47.924,4.0687,-1.3562,-1.3136,5.4249,6.1506e-13,-0.65682,0,0,0.16667,-0,-0,0.66667
0.39872,0.31854,2.3923,-0.27219,-10.85,88.445,1.7364,-0.57881,-1.7357,2.3152,-1.8132e-12,-0.86784,0,0,0.16667,-0,-0,0.66667
0.96661,0.9752,5.7997,0.7128,2.2063,1.9109,-11.024,3.6747,-0.19407,-14.699,-2.428e-06,-0.097035,0,0,0.16667,-0,-0,0.66667
0.15408,0.1192,0.92448,-0.5712,-26.627,155.3,1.4082,-0.46939,-0.8406,1.8775,3.7942e-09,-0.4203,0,0,0.16667,9.8686e-17,-2.5023e-16,0.66667
0.89509,0.2356,5.3705,-0.39661,-3.6183,4.3263,5.68,-1.8933,-1.4397,7.5733,-9.7228e-09,-0.71986,0,0,0.16667,1.579e-15,0,0.66667
0.31101,0.59706,1.8661,0.1456,6.2309,111.19,-0.72452,0.24151,-1.9261,-0.96603,1.8078e-12,-0.96303,0,0,0.16667,-7.8949e-16,0,0.66667
0.54849,0.67908,3.2909,0.26862,8.8783,53.819,-2.3574,0.7858,-1.7441,-3.1432,-1.0179e-12,-0.87205,0,0,0.16667,3.9475e-16,0,0.66667
0.68207,0.7577,4.0924,0.38655,9.757,29.001,-4.2184,1.4061,-1.4679,-5.6246,-5.4285e-12,-0.73395,0,0,0.16667,-0,-0,0.66667
0.23647,0.16106,1.4188,-0.5084,-22.878,131.82,1.9236,-0.64118,-1.0818,2.5647,5.3829e-11,-0.54091,0,0,0.16667,-0,-0,0.66667
0.16774,0.67084,1.0064,0.25626,11.822,151.25,-0.68775,0.22925,-1.7656,-0.91701,-1.201e-09,-0.88281,0,0,0.16667,-0,-0,0.66667
0.50848,0.47845,3.0509,-0.032325,-1.1316,62.358,0.26299,-0.087662,-1.995,0.35065,6.1345e-13,-0.9975,0,0,0.16667,-0,-0,0.66667
0.79186,0.48576,4.7512,-0.021359,-0.36991,13.381,0.27062,-0.090206,-1.9972,0.36082,-2.6161e-11,-0.99861,0,0,0.16667,-1.579e-15,0,0.66667
0.69241,0.62988,4.1545,0.19482,4.762,27.138,-2.1584,0.71945,-1.8647,-2.8778,-3.0271e-12,-0.93236,0,0,0.16667,-0,-0,0.66667
0.11897,0.57724,0.71384,0.11586,5.4168,165.39,-0.22056,0.073519,-1.9509,-0.29408,1.5621e-09,-0.97544,0,0,0.16667,-1.9737e-16,0,0.66667
0.90074,0.34296,5.4045,-0.23556,-2.0093,3.7205,3.3948,-1.1316,-1.803,4.5264,-5.0757e-10,-0.90148,0,0,0.16667,-1.7764e-15,0,0.66667
0.47974,0.87081,2.8784,0.55622,20.408,69.253,-4.2694,1.4231,-0.89984,-5.6926,4.1611e-13,-0.44992,0,0,0.16667,-7.028e-16,0,0.66667
0.94668,0.024201,5.6801,-0.7137,-3.5167,2.5435,10.81,-3.6034,-0.18798,14.414,1.7017e-06,-0.093988,0,0,0.16667,-1.579e-15,0,0.66667
0.55343,0.97461,3.3206,0.71192,23.665,53.428,-6.304,2.1013,-0.19713,-8.4054,1.8963e-13,-0.098564,0,0,0.16667,-0,-0,0.66667
0.084802,0.096035,0.50881,-0.60595,-28.754,175.5,0.82217,-0.27406,-0.69426,1.0962,-9.8204e-08,-0.34713,0,0,0.16667,-0,-0,0.66667
0.20246,0.23104,1.2148,-0.40343,-18.404,141.35,1.3069,-0.43563,-1.4223,1.7425,3.8577e-10,-0.71114,0,0,0.16667,-0,-0,0.66667
0.85424,0.84177,5.1254,0.51266,6.4915,7.6594,-7.0069,2.3356,-1.0656,-9.3425,7.3771e-10,-0.53282,0,0,0.16667,7.8949e-16,0,0.66667
0.70593,0.004859,4.2356,-0.74271,-17.876,26.002,8.3888,-2.7963,-0.039153,11.185,1.9984e-12,-0.019576,0,0,0.16667,-0,-0,0.66667
0.89494,0.46809,5.3696,-0.047868,-0.42961,3.966,0.68542,-0.22847,-1.9925,0.91389,3.7214e-08,-0.99623,0,0,0.16667,4.9343e-16,0,0.66667
0.32915,0.75698,1.9749,0.38547,16.333,106.46,-2.03,0.67668,-1.4729,-2.7067,5.3146e-12,-0.73643,0,0,0.16667,-7.8949e-16,0,0.66667
0.528,0.79567,3.168,0.44351,15.185,58.356,-3.7468,1.2489,-1.3001,-4.9957,-4.1944e-13,-0.65004,0,0,0.16667,7.8949e-16,0,0.66667
0.6504,0.75362,3.9024,0.38043,10.371,34.32,-3.9589,1.3196,-1.4851,-5.2785,-3.7375e-12,-0.74253,0,0,0.16667,-0,-0,0.66667
0.59429,0.13512,3.5657,-0.54731,-16.843,44.917,5.2042,-1.7347,-0.93612,6.939,3.8725e-13,-0.46806,0,0,0.16667,-0,-0,0.66667
0.23146,0.73631,1.3888,0.35447,15.942,133.14,-1.3127,0.43758,-1.5529,-1.7503,-1.1752e-10,-0.77644,0,0,0.16667,-0,-0,0.66667
0.42682,0.53126,2.5609,0.046883,1.8132,81.415,-0.32017,0.10672,-1.9927,-0.4269,-1.1765e-12,-0.99637,0,0,0.16667,-0,-0,0.66667
0.24811,0.18445,1.4887,-0.47333,-21.155,128.55,1.879,-0.62634,-1.2047,2.5054,4.3827e-11,-0.60233,0,0,0.16667,1.7214e-16,0,0.66667
0.84561,0.17353,5.0737,-0.4897,-6.5337,8.3642,6.6256,-2.2085,-1.1475,8.8341,-1.4414e-09,-0.57376,0,0,0.16667,-0,-0,0.66667
0.98668,0.11002,5.9201,-0.58498,-0.60953,1.0645,9.2349,-3.0783,-0.78321,12.313,-5.6088e-07,-0.39161,0,0,0.16667,-0,-0,0.66667
0.066571,0.30555,0.39942,-0.29168,-13.794,180.81,0.31068,-0.10356,-1.6972,0.41423,-6.707e-09,-0.84858,0,0,0.16667,4.9343e-17,0,0.66667
0.71393,0.62743,4.2836,0.19115,4.3945,23.823,-2.1835,0.72784,-1.8702,-2.9113,3.2889e-12,-0.93509,0,0,0.16667,-0,-0,0.66667
0.33012,0.37162,1.9807,-0.19257,-8.1313,106.11,1.0171,-0.33905,-1.8693,1.3562,-2.9762e-12,-0.93464,0,0,0.16667,-3.9475e-16,0,0.66667
0.62544,0.072902,3.7526,-0.64065,-18.621,39.229,6.4109,-2.137,-0.54196,8.5479,8.8818e-15,-0.27098,0,0,0.16667,-0,-0,0.66667
0.25813,0.57542,1.5488,0.11313,5.004,125.62,-0.46725,0.15575,-1.953,-0.623,-2.3132e-11,-0.9765,0,0,0.16667,-0,-0,0.66667
0.65101,0.80118,3.906,0.45176,12.327,34.317,-4.7056,1.5685,-1.2732,-6.2742,-3.1828e-12,-0.63662,0,0,0.16667,-0,-0,0.66667
0.37115,0.73905,2.2269,0.35858,14.679,95.49,-2.1294,0.70979,-1.5422,-2.8392,2.5242e-12,-0.7711,0,0,0.16667,-0,-0,0.66667
0.29482,0.13208,1.7689,-0.55189,-24.04,115.79,2.6033,-0.86777,-0.91762,3.4711,-4.7635e-12,-0.45881,0,0,0.16667,-0,-1.181e-16,0.66667
0.91176,0.66366,5.4706,0.24549,1.8599,3.0729,-3.5813,1.1938,-1.7849,-4.7751,5.9998e-09,-0.89245,0,0,0.16667,-0,-0,0.66667
0.9425,0.05954,5.655,-0.66069,-3.4559,2.5198,9.9632,-3.3211,-0.44791,13.284,-4.0335e-07,-0.22396,0,0,0.16667,6.7378e-16,0,0.66667
0.61355,0.56185,3.6813,0.092771,2.7234,40.769,-0.91071,0.30357,-1.9701,-1.2143,-1.1612e-12,-0.98503,0,0,0.16667,-9.8686e-16,0,0.66667
0.21447,0.81936,1.2868,0.47905,21.771,137.99,-1.6438,0.54795,-1.1836,-2.1918,-2.065e-10,-0.59182,0,0,0.16667,-0,-0,0.66667
0.93942,0.099735,5.6365,-0.6004,-3.2602,2.4536,9.0244,-3.0081,-0.71908,12.033,2.3827e-07,-0.35954,0,0,0.16667,-0,-0,0.66667
0.75045,0.25306,4.5027,-0.3704,-7.603,18.839,4.4475,-1.4825,-1.5143,5.93,-5.0735e-11,-0.75717,0,0,0.16667,-0,-0,0.66667
0.75109,0.39933,4.5065,-0.151,-3.0747,18.524,1.8147,-0.60489,-1.9201,2.4196,-4.9114e-11,-0.96004,0,0,0.16667,3.9475e-16,0,0.66667
0.21172,0.16181,1.2703,-0.50729,-23.098,138.78,1.7185,-0.57282,-1.0842,2.2913,4.0927e-11,-0.5421,0,0,0.16667,-0,-0,0.66667
0.83016,0.75935,4.9809,0.38903,5.6385,9.6162,-5.1673,1.7224,-1.4622,-6.8897,1.23e-09,-0.73111,0,0,0.16667,1.579e-15,0,0.66667
0.2401,0.054716,1.4406,-0.66793,-30.132,130.93,2.5659,-0.85528,-0.41287,3.4211,1.9804e-12,-0.20644,0,0,0.16667,5.3691e-16,0,0.66667
0.63162,0.51658,3.7897,0.024872,0.70307,37.416,-0.25135,0.083783,-1.9963,-0.33513,-8.4108e-13,-0.99816,0,0,0.16667,-0,-0,0.66667
0.71074,0.039451,4.2644,-0.69082,-16.348,25.137,7.8559,-2.6186,-0.302,10.475,-1.3411e-13,-0.151,0,0,0.16667,-0,-0,0.66667
0.74238,0.0051089,4.4543,-0.74234,-15.985,20.753,8.8176,-2.9392,-0.039892,11.757,9.5826e-12,-0.019946,0,0,0.16667,-0,-0,0.66667
0.39026,0.51603,2.3416,0.024048,0.96449,90.493,-0.15016,0.050054,-1.9991,-0.20022,3.0485e-13,-0.99953,0,0,0.16667,-0,-0,0.66667
0.75983,0.1383,4.559,-0.54255,-10.856,17.921,6.5959,-2.1986,-0.95207,8.7945,-3.1313e-11,-0.47603,0,0,0.16667,-0,-0,0.66667
0.90294,0.30782,5.4176,-0.28827,-2.4125,3.6507,4.1646,-1.3882,-1.7048,5.5528,-4.93e-09,-0.8524,0,0,0.16667,-7.8949e-16,0,0.66667
0.58742,0.1235,3.5245,-0.56475,-17.611,46.288,5.3079,-1.7693,-0.86595,7.0772,3.3795e-13,-0.43298,0,0,0.16667,-9.8686e-17,0,0.66667
0.09041,0.72567,0.54246,0.3385,15.958,173.79,-0.48966,0.16322,-1.5925,-0.65288,-7.3793e-09,-0.79627,0,0,0.16667,-0,-0,0.66667
0.12898,0.73047,0.77386,0.3457,16.159,162.51,-0.71339,0.2378,-1.5744,-0.95119,-4.2104e-09,-0.78718,0,0,0.16667,-1.9737e-16,0,0.66667
0.10526,0.92111,0.63158,0.63166,29.877,169.51,-1.0638,0.35461,-0.58047,-1.4185,2.8033e-08,-0.29023,0,0,0.16667,-0,-0,0.66667
0.17273,0.0034784,1.0364,-0.74478,-34.677,150.04,2.0583,-0.6861,-0.029542,2.7444,-2.2993e-10,-0.014771,0,0,0.16667,-7.8949e-16,0,0.66667
0.12643,0.37235,0.75859,-0.19148,-8.9398,163.22,0.38735,-0.12912,-1.8712,0.51646,1.3351e-09,-0.93561,0,0,0.16667,-2.9606e-16,0,0.66667
0.7783,0.32348,4.6698,-0.26478,-4.8754,15.139,3.2972,-1.0991,-1.7505,4.3963,-1.9375e-10,-0.87524,0,0,0.16667,-0,-0,0.66667
0.039412,0.10507,0.23647,-0.59239,-28.261,188.86,0.37355,-0.12452,-0.75083,0.49807,7.6241e-07,-0.37542,0,0,0.16667,9.8686e-17,0,0.66667
0.24156,0.083162,1.4494,-0.62526,-28.15,130.48,2.4166,-0.80553,-0.60862,3.2221,9.0594e-14,-0.30431,0,0,0.16667,-1.9737e-16,0,0.66667
0.87907,0.67981,5.2744,0.26972,2.805,5.2406,-3.7936,1.2645,-1.7409,-5.0582,3.7769e-09,-0.87045,0,0,0.16667,-7.8949e-16,0,0.66667
0.97352,0.082767,5.8411,-0.62585,-1.4591,1.4421,9.7484,-3.2495,-0.60638,12.998,2.1404e-06,-0.30319,0,0,0.16667,-0,-0,0.66667
0.60542,0.22161,3.6325,-0.41759,-12.529,42.577,4.0451,-1.3484,-1.3803,5.3934,1.1333e-12,-0.69015,0,0,0.16667,-0,-0,0.66667
0.97624,0.70405,5.8574,0.30608,0.5411,0.60718,-4.7809,1.5936,-1.6654,-6.3746,-2.3911e-08,-0.83268,0,0,0.16667,-2.7351e-15,0,0.66667
0.043452,0.4648,0.26071,-0.052801,-2.499,187.62,0.036709,-0.012237,-1.9904,0.048944,-8.5576e-07,-0.99521,0,0,0.16667,-0,-0,0.66667
0.94857,0.022026,5.6914,-0.71696,-3.4126,2.486,10.881,-3.6271,-0.17157,14.509,3.5672e-07,-0.085786,0,0,0.16667,-0,2.623e-16,0.66667
0.3113,0.94095,1.8678,0.66142,28.586,111.46,-3.2944,1.0981,-0.4461,-4.3925,9.8499e-13,-0.22305,0,0,0.16667,-7.8949e-16,7.7512e-17,0.66667
0.79897,0.10573,4.7938,-0.5914,-10.136,13.313,7.5602,-2.5201,-0.75653,10.08,-1.841e-10,-0.37827,0,0,0.16667,-0,-0,0.66667
0.81063,0.70618,4.8638,0.30926,4.9402,11.493,-4.0112,1.3371,-1.6601,-5.3482,6.874e-10,-0.83007,0,0,0.16667,-7.8949e-16,0,0.66667
0.86,0.018908,5.16,-0.72164,-8.9887,7.7658,9.9297,-3.3099,-0.14941,13.24,7.3497e-10,-0.074707,0,0,0.16667,3.158e-15,0,0.66667
0.45855,0.92955,2.7513,0.64433,24.326,74.304,-4.7273,1.5758,-0.52303,-6.3031,1.1013e-13,-0.26151,0,0,0.16667,-0,-0,0.66667
0.93064,0.47833,5.5839,-0.032503,-0.18999,1.9455,0.48398,-0.16133,-1.995,0.64531,-2.1964e-08,-0.9975,0,0,0.16667,-0,-0,0.66667
0.25789,0.0080365,1.5474,-0.73795,-33.052,126.06,3.045,-1.015,-0.062632,4.06,-8.7588e-12,-0.031316,0,0,0.16667,-0,-0,0.66667
0.93445,0.98795,5.6067,0.73192,4.4348,3.1027,-10.943,3.6477,-0.094884,-14.591,-8.7865e-08,-0.047442,0,0,0.16667,-1.579e-15,0,0.66667
0.61912,0.65454,3.7147,0.2318,6.7393,39.802,-2.2962,0.76541,-1.8089,-3.0616,-2.6534e-12,-0.90447,0,0,0.16667,9.8686e-17,0,0.66667
0.98544,0.82198,5.9127,0.48298,0.50503,0.79741,-7.6151,2.5384,-1.1715,-10.154,-4.1669e-08,-0.58576,0,0,0.16667,-0,-0,0.66667
0.032644,0.10689,0.19586,-0.58967,-28.143,190.85,0.30799,-0.10266,-0.76417,0.41065,-2.4715e-07,-0.38209,0,0,0.16667,-4.9343e-17,0,0.66667
0.72517,0.34428,4.351,-0.23358,-5.1929,22.202,2.7102,-0.9034,-1.8061,3.6136,-1.2221e-11,-0.90307,0,0,0.16667,-0,-0,0.66667
0.56555,0.20203,3.3933,-0.44696,-14.424,50.48,4.0445,-1.3482,-1.2892,5.3927,1.5143e-13,-0.64462,0,0,0.16667,7.8949e-16,0,0.66667
0.49242,0.65104,2.9545,0.22656,8.118,66.026,-1.7851,0.59502,-1.8167,-2.3801,3.9957e-13,-0.90835,0,0,0.16667,-9.8686e-16,0,0.66667
0.25922,0.49867,1.5553,-0.0020014,-0.088443,125.31,0.0083008,-0.0027669,-2,0.011068,9.0974e-12,-0.99998,0,0,0.16667,-1.4803e-16,0,0.66667
0.32683,0.52068,1.961,0.031027,1.3121,106.95,-0.16225,0.054083,-1.9972,-0.21633,-3.4575e-13,-0.99862,0,0,0.16667,-0,-0,0.66667
0.24946,0.52909,1.4968,0.04363,1.9385,128.03,-0.17414,0.058048,-1.9955,-0.23219,-2.0111e-11,-0.99775,0,0,0.16667,2.9606e-16,0,0.66667
0.21927,0.23406,1.3156,-0.39891,-18.06,136.59,1.3995,-0.46649,-1.4352,1.866,1.8532e-10,-0.71761,0,0,0.16667,-0,-0,0.66667
0.79966,0.25893,4.798,-0.3616,-6.096,12.769,4.6265,-1.5422,-1.5351,6.1687,-4.0685e-10,-0.76754,0,0,0.16667,-0,-0,0.66667
0.5024,0.67891,3.0144,0.26836,9.4935,63.81,-2.1572,0.71905,-1.7441,-2.8762,-7.1054e-14,-0.87207,0,0,0.16667,-3.9475e-16,0,0.66667
0.08319,0.23104,0.49914,-0.40344,-19.064,175.93,0.537,-0.179,-1.4202,0.71599,1.0222e-08,-0.71009,0,0,0.16667,-0,-0,0.66667
0.77698,0.10713,4.6619,-0.5893,-11.078,15.874,7.326,-2.442,-0.76435,9.768,-4.3797e-11,-0.38217,0,0,0.16667,-0,-0,0.66667
0.53365,0.54138,3.2019,0.062073,2.095,56.868,-0.53,0.17667,-1.9864,-0.70667,-1.7231e-13,-0.99319,0,0,0.16667,-0,-0,0.66667
0.73939,0.45409,4.4363,-0.068865,-1.4586,20.086,0.81469,-0.27156,-1.982,1.0863,-1.1958e-11,-0.99099,0,0,0.16667,-0,-0,0.66667
0.51539,0.29858,3.0924,-0.30214,-10.503,60.954,2.4915,-0.8305,-1.6767,3.322,-4.0856e-14,-0.83833,0,0,0.16667,7.8949e-16,0,0.66667
0.39995,0.87552,2.3997,0.56327,22.569,88.396,-3.6045,1.2015,-0.87207,-4.8059,4.3787e-13,-0.43603,0,0,0.16667,1.579e-15,0,0.66667
0.98625,0.67703,5.9175,0.26555,0.21271,0.35657,-4.1903,1.3968,-1.7496,-5.5871,3.0885e-08,-0.87481,0,0,0.16667,-0,-0,0.66667
0.028243,0.26881,0.16946,-0.34679,-16.474,192.14,0.15671,-0.052236,-1.572,0.20894,-5.2937e-08,-0.78602,0,0,0.16667,-0,-0,0.66667
0.93276,0.78051,5.5966,0.42076,2.4564,2.2847,-6.2796,2.0932,-1.371,-8.3728,1.4841e-08,-0.68549,0,0,0.16667,-2.2698e-15,0,0.66667
0.93085,0.95752,5.5851,0.68628,4.3328,3.102,-10.221,3.4071,-0.32408,-13.628,6.3251e-07,-0.16204,0,0,0.16667,1.579e-15,0,0.66667
0.39092,0.035116,2.3455,-0.69733,-28.301,90.834,4.3616,-1.4539,-0.27319,5.8154,-8.6642e-13,-0.1366,0,0,0.16667,-0,-0,0.66667
0.21446,0.23879,1.2868,-0.39182,-17.776,137.95,1.3445,-0.44817,-1.4533,1.7927,2.2666e-10,-0.72667,0,0,0.16667,-0,-0,0.66667
0.61921,0.54579,3.7153,0.068688,1.9931,39.704,-0.68052,0.22684,-1.9819,-0.90736,-1.2064e-12,-0.99094,0,0,0.16667,-0,-0,0.66667
0.17797,0.027285,1.0678,-0.70907,-32.914,148.51,2.0191,-0.67304,-0.21187,2.6922,3.1147e-10,-0.10594,0,0,0.16667,-1.9737e-16,0,0.66667
0.80321,0.82878,4.8192,0.49317,8.2369,12.615,-6.3378,2.1126,-1.1338,-8.4505,4.0177e-10,-0.5669,0,0,0.16667,-1.579e-15,0,0.66667
0.25393,0.60618,1.5236,0.15928,7.0636,126.8,-0.64713,0.21571,-1.909,-0.86285,-3.6357e-11,-0.95452,0,0,0.16667,3.9475e-16,0,0.66667
0.29081,0.30107,1.7448,-0.2984,-12.965,116.71,1.3884,-0.4628,-1.6821,1.8512,-6.1451e-13,-0.84107,0,0,0.16667,-0,-0,0.66667
0.91592,0.45719,5.4955,-0.064211,-0.45934,2.7039,0.94099,-0.31366,-1.9841,1.2546,-2.5975e-08,-0.99204,0,0,0.16667,-1.579e-15,0,0.66667
0.90292,0.17205,5.4175,-0.49192,-4.1986,4.0345,7.1066,-2.3689,-1.139,9.4754,-1.7011e-08,-0.56952,0,0,0.16667,-1.0693e-15,0,0.66667
0.53538,0.76354,3.2123,0.39531,13.369,56.715,-3.3863,1.1288,-1.4435,-4.515,-9.1482e-14,-0.72175,0,0,0.16667,-0,-0,0.66667
0.86284,0.96779,5.177,0.70169,8.5547,7.4692,-9.6871,3.229,-0.25024,-12.916,4.3792e-09,-0.12512,0,0,0.16667,1.9737e-15,0,0.66667
0.35253,0.057412,2.1152,-0.66388,-27.822,100.59,3.7446,-1.2482,-0.4322,4.9929,-4.0767e-13,-0.2161,0,0,0.16667,-0,-0,0.66667
0.99788,0.27712,5.9873,-0.33433,0.088446,0.31672,5.3379,-1.7793,-1.6035,7.1172,-8.9384e-08,-0.80176,0,0,0.16667,1.9737e-15,-2.3923e-16,0.66667
0.43369,0.56475,2.6021,0.097129,3.7296,79.753,-0.67398,0.22466,-1.9669,-0.89865,5.6177e-14,-0.98347,0,0,0.16667,-0,-0,0.66667
0.29481,0.87567,1.7689,0.5635,24.554,115.8,-2.658,0.88601,-0.8726,-3.544,3.6142e-12,-0.4363,0,0,0.16667,-0,-0,0.66667
0.041574,0.025527,0.24945,-0.71171,-34.062,188.24,0.47342,-0.1578,-0.19845,0.63123,7.7748e-06,-0.099223,0,0,0.16667,4.9343e-17,0,0.66667
0.98971,0.39489,5.9382,-0.15766,-0.067077,0.18349,2.4966,-0.8322,-1.9105,3.3288,4.7398e-08,-0.95525,0,0,0.16667,-1.579e-15,0,0.66667
0.46489,0.39844,2.7893,-0.15234,-5.647,72.335,1.1332,-0.37772,-1.9171,1.5109,-1.4289e-13,-0.95855,0,0,0.16667,-3.9475e-16,0,0.66667
0.73459,0.069634,4.4075,-0.64555,-14.168,21.566,7.5874,-2.5291,-0.52002,10.116,-1.6964e-13,-0.26001,0,0,0.16667,-0,-0,0.66667
0.64081,0.48597,3.8448,-0.021039,-0.58292,35.762,0.21571,-0.071904,-1.9997,0.28762,8.2835e-13,-0.99985,0,0,0.16667,-7.8949e-16,0,0.66667
0.72309,0.824,4.3386,0.486,10.966,22.854,-5.6228,1.8743,-1.1593,-7.4971,1.3847e-12,-0.57966,0,0,0.16667,-0,-0,0.66667
0.051111,0.13883,0.30667,-0.54175,-25.785,185.4,0.44303,-0.14768,-0.95556,0.59071,9.4561e-08,-0.47778,0,0,0.16667,9.8686e-17,0,0.66667
0.92005,0.70973,5.5203,0.3146,2.167,2.7145,-4.6312,1.5437,-1.6486,-6.1749,1.6347e-09,-0.82428,0,0,0.16667,-0,-0,0.66667
0.92684,0.90289,5.561,0.60434,3.9655,3.0284,-8.962,2.9873,-0.70132,-11.949,2.8877e-07,-0.35066,0,0,0.16667,-2.3685e-15,0,0.66667
0.552,0.351,3.312,-0.2235,-7.3405,53.053,1.974,-0.65799,-1.8217,2.632,-6.6169e-14,-0.91084,0,0,0.16667,-0,-0,0.66667
0.96392,0.17268,5.7835,-0.49098,-1.5064,1.2968,7.5722,-2.5241,-1.1418,10.096,6.4304e-08,-0.57089,0,0,0.16667,-0,-0,0.66667
0.28096,0.26945,1.6857,-0.34583,-15.131,119.42,1.5546,-0.5182,-1.576,2.0728,3.1275e-12,-0.78802,0,0,0.16667,-0,-0,0.66667
0.60215,0.10684,3.6129,-0.58975,-17.913,43.481,5.6818,-1.8939,-0.76189,7.5758,1.9273e-13,-0.38095,0,0,0.16667,-0,-0,0.66667
0.39646,0.74668,2.3788,0.37002,14.806,89.076,-2.3472,0.7824,-1.5129,-3.1296,1.9582e-12,-0.75644,0,0,0.16667,-1.9737e-16,0,0.66667
0.62802,0.93906,3.7681,0.6586,19.056,38.797,-6.6178,2.2059,-0.45872,-8.8238,-6.5281e-14,-0.22936,0,0,0.16667,-1.579e-15,0,0.66667
0.30063,0.61927,1.8038,0.1789,7.7126,114,-0.86053,0.28684,-1.8861,-1.1474,-9.3314e-14,-0.94307,0,0,0.16667,3.9475e-16,0,0.66667
0.81936,0.65098,4.9162,0.22647,3.4526,10.479,-2.969,0.98966,-1.8169,-3.9586,8.895e-10,-0.90844,0,0,0.16667,3.9475e-16,0,0.66667
0.069786,0.25627,0.41872,-0.36559,-17.3,179.87,0.40821,-0.13607,-1.5239,0.54427,9.0168e-10,-0.76193,0,0,0.16667,-0,-0,0.66667
0.041878,0.59076,0.25127,0.13614,6.4466,188.09,-0.091222,0.030407,-1.934,-0.12163,1.2321e-07,-0.96702,0,0,0.16667,7.4015e-17,0,0.66667
0.049396,0.098127,0.29638,-0.60281,-28.74,185.91,0.47643,-0.15881,-0.70867,0.63523,1.3899e-07,-0.35433,0,0,0.16667,-0,-0,0.66667
0.15046,0.30816,0.90273,-0.28776,-13.357,156.25,0.69272,-0.23091,-1.7051,0.92362,2.0049e-09,-0.85256,0,0,0.16667,1.9737e-16,0,0.66667
0.39535,0.42659,2.3721,-0.11012,-4.3968,89.224,0.69658,-0.23219,-1.9559,0.92878,-6.3727e-13,-0.97797,0,0,0.16667,-0,-0,0.66667
0.95539,0.83906,5.7323,0.50859,1.9692,1.6028,-7.7745,2.5915,-1.0811,-10.366,7.4907e-08,-0.54053,0,0,0.16667,3.9475e-16,0,0.66667
0.1108,0.81344,0.66477,0.47016,22.124,167.84,-0.83347,0.27782,-1.216,-1.1113,-6.4699e-09,-0.60798,0,0,0.16667,-0,-0,0.66667
0.64755,0.082432,3.8853,-0.62635,-17.347,35.245,6.4895,-2.1632,-0.60372,8.6527,9.1793e-13,-0.30186,0,0,0.16667,-7.8949e-16,0,0.66667
0.52762,0.49316,3.1657,-0.010262,-0.34945,58.161,0.086629,-0.028876,-1.9995,0.1155,-4.0163e-13,-0.99973,0,0,0.16667,3.9475e-16,0,0.66667
0.35324,0.91869,2.1195,0.62803,26.274,100.37,-3.5496,1.1832,-0.59627,-4.7327,8.8063e-13,-0.29813,0,0,0.16667,-0,-0,0.66667
0.1982,0.10858,1.1892,-0.58714,-26.943,142.66,1.8619,-0.62064,-0.77316,2.4826,1.5479e-10,-0.38658,0,0,0.16667,-0,-0,0.66667
0.22059,0.94728,1.3236,0.67092,30.559,136.39,-2.368,0.78933,-0.39995,-3.1573,-3.8356e-12,-0.19997,0,0,0.16667,-0,-0,0.66667
0.043822,0.39758,0.26293,-0.15362,-7.2739,187.52,0.10771,-0.035904,-1.916,0.14362,-9.9632e-08,-0.95798,0,0,0.16667,4.9343e-17,0,0.66667
0.71316,0.25558,4.279,-0.36662,-8.4848,24.123,4.1834,-1.3945,-1.5215,5.5779,4.8939e-13,-0.76074,0,0,0.16667,-0,-0,0.66667
0.65384,0.50928,3.923,0.013915,0.37425,33.471,-0.14557,0.048522,-1.9994,-0.19409,-4.578e-13,-0.99972,0,0,0.16667,-0,-0,0.66667
0.44377,0.84921,2.6626,0.52382,20.035,77.637,-3.7193,1.2398,-1.0237,-4.9591,1.0398e-12,-0.51184,0,0,0.16667,-1.579e-15,0,0.66667
0.71894,0.19793,4.3136,-0.4531,-10.34,23.402,5.212,-1.7373,-1.2715,6.9494,-4.0945e-13,-0.63574,0,0,0.16667,-0,-0,0.66667
0.10998,0.9803,0.65986,0.72044,34.131,168.17,-1.2677,0.42257,-0.15559,-1.6903,-3.5342e-08,-0.077797,0,0,0.16667,-0,-0,0.66667
0.93872,0.75618,5.6323,0.38426,2.026,1.9499,-5.7714,1.9238,-1.4762,-7.6953,-6.671e-09,-0.73808,0,0,0.16667,-0,-0,0.66667
0.84763,0.72608,5.0858,0.33912,4.4252,7.9021,-4.5991,1.533,-1.5908,-6.1321,2.3113e-09,-0.7954,0,0,0.16667,-1.579e-15,0,0.66667
0.65904,0.61266,3.9542,0.169,4.495,32.625,-1.782,0.594,-1.8982,-2.376,-3.3833e-12,-0.9491,0,0,0.16667,-0,-0,0.66667
0.37883,0.84554,2.273,0.51832,21.151,93.667,-3.1417,1.0472,-1.0454,-4.1889,2.2886e-12,-0.52268,0,0,0.16667,-0,-0,0.66667
0.41657,0.50484,2.4994,0.0072589,0.28373,83.927,-0.048381,0.016127,-1.9994,-0.064508,1.4855e-13,-0.99969,0,0,0.16667,-0,-0,0.66667
0.48215,0.83986,2.8929,0.50979,18.621,68.636,-3.9327,1.3109,-1.0769,-5.2436,-3.1042e-13,-0.53845,0,0,0.16667,9.8686e-16,0,0.66667
0.93528,0.52966,5.6117,0.044485,0.24157,1.7352,-0.66569,0.2219,-1.9943,-0.88759,9.9651e-08,-0.99715,0,0,0.16667,-3.9475e-16,0,0.66667
0.86359,0.77173,5.1816,0.4076,4.806,6.6572,-5.632,1.8773,-1.4086,-7.5093,4.368e-09,-0.70431,0,0,0.16667,-0,-0,0.66667
0.47792,0.60191,2.8675,0.15286,5.576,69.305,-1.1689,0.38964,-1.9159,-1.5585,-3.5583e-13,-0.95793,0,0,0.16667,-0,-0,0.66667
0.55452,0.99925,3.3271,0.74888,24.892,53.283,-6.6443,2.2148,-0.0059874,-8.859,-1.1915e-12,-0.0029937,0,0,0.16667,9.3752e-16,0,0.66667
0.8754,0.50913,5.2524,0.0137,0.14566,5.3448,-0.19189,0.063962,-2.0007,-0.25585,-9.3549e-09,-1.0004,0,0,0.16667,-3.158e-15,0,0.66667
0.94926,0.84801,5.6956,0.52202,2.3211,1.8499,-7.9286,2.6429,-1.0312,-10.571,2.0291e-08,-0.5156,0,0,0.16667,-0,-0,0.66667
0.63918,0.92265,3.8351,0.63397,17.892,36.737,-6.4836,2.1612,-0.57135,-8.6448,-1.0294e-12,-0.28568,0,0,0.16667,7.8949e-16,0,0.66667
0.74852,0.89278,4.4911,0.58917,12.304,19.517,-7.0561,2.352,-0.76618,-9.4082,8.4448e-12,-0.38309,0,0,0.16667,7.8949e-16,0,0.66667
0.35162,0.34528,2.1097,-0.23209,-9.6404,100.47,1.3057,-0.43524,-1.8083,1.741,-4.1261e-12,-0.90416,0,0,0.16667,1.579e-15,0,0.66667
0.91803,0.11432,5.5082,-0.57852,-4.2293,3.3984,8.4976,-2.8325,-0.80939,11.33,4.3788e-09,-0.4047,0,0,0.16667,-0,-0,0.66667
0.83675,0.5015,5.0205,0.0022474,0.031033,8.6451,-0.030089,0.01003,-1.9999,-0.040119,1.031e-09,-0.99993,0,0,0.16667,-0,-0,0.66667
0.55206,0.80849,3.3123,0.46273,15.275,53.282,-4.0873,1.3624,-1.2384,-5.4497,-3.3751e-13,-0.61921,0,0,0.16667,1.9737e-16,0,0.66667
0.86763,0.79823,5.2058,0.44734,5.1403,6.412,-6.21,2.07,-1.287,-8.28,3.0916e-09,-0.64348,0,0,0.16667,1.579e-15,0,0.66667
0.84987,0.34178,5.0992,-0.23733,-3.0392,7.57,3.2272,-1.0757,-1.7996,4.303,-2.5796e-09,-0.89981,0,0,0.16667,-2.1169e-15,0,0.66667
0.80841,0.63881,4.8505,0.20822,3.3507,11.618,-2.6932,0.89774,-1.845,-3.591,5.6482e-10,-0.9225,0,0,0.16667,1.579e-15,0,0.66667
0.13069,0.59766,0.78416,0.14649,6.8291,161.97,-0.30632,0.10211,-1.9233,-0.40842,1.4144e-12,-0.96167,0,0,0.16667,-0,-0,0.66667
0.536,0.071404,3.216,-0.64289,-21.894,56.949,5.5135,-1.8378,-0.52966,7.3513,-5.8442e-13,-0.26483,0,0,0.16667,-0,-0,0.66667
0.90078,0.69106,5.4047,0.28659,2.4515,3.7819,-4.1305,1.3768,-1.7077,-5.5073,5.6283e-09,-0.85386,0,0,0.16667,-0,-0,0.66667
0.77083,0.62552,4.625,0.18828,3.5647,15.991,-2.3221,0.77405,-1.8743,-3.0962,1.4725e-10,-0.93717,0,0,0.16667,-0,-0,0.66667
0.42071,0.054666,2.5243,-0.668,-26.308,83.408,4.4966,-1.4989,-0.41442,5.9955,-5.2847e-14,-0.20721,0,0,0.16667,-3.9475e-16,0,0.66667
0.97788,0.3858,5.8673,-0.17131,-0.26503,0.40442,2.6803,-0.89343,-1.8944,3.5737,-5.0746e-08,-0.94718,0,0,0.16667,1.579e-15,0,0.66667
0.25077,0.43402,1.5046,-0.098967,-4.395,127.67,0.39709,-0.13236,-1.967,0.52946,2.445e-11,-0.98352,0,0,0.16667,5.9212e-16,0,0.66667
0.33361,0.76528,2.0017,0.39792,16.808,105.29,-2.124,0.708,-1.4357,-2.832,4.6139e-12,-0.71786,0,0,0.16667,-0,-0,0.66667
0.9542,0.5192,5.7252,0.028797,0.10694,0.98628,-0.43964,0.14655,-1.9978,-0.58619,3.1505e-07,-0.99889,0,0,0.16667,-0,-0,0.66667
0.80872,0.7709,4.8523,0.40635,6.5808,11.848,-5.258,1.7527,-1.4123,-7.0106,5.8176e-10,-0.70616,0,0,0.16667,-0,-0,0.66667
0.90034,0.82369,5.402,0.48554,4.2493,4.1786,-6.9944,2.3315,-1.1605,-9.3259,1.5441e-08,-0.58027,0,0,0.16667,-0,-0,0.66667
0.01159,0.9442,0.069538,0.66631,31.896,197.08,-0.12355,0.041179,-0.42116,-0.16474,-7.2435e-06,-0.21058,0,0,0.16667,-0,-0,0.66667
0.37976,0.85097,2.2786,0.52646,21.47,93.438,-3.1989,1.0663,-1.0139,-4.2652,2.405e-12,-0.50697,0,0,0.16667,-0,-0,0.66667
0.23552,0.65821,1.4131,0.23732,10.635,131.96,-0.89429,0.2981,-1.8016,-1.1924,-1.0521e-10,-0.90082,0,0,0.16667,-0,-0,0.66667
0.29594,0.39715,1.7756,-0.15428,-6.6707,115.26,0.73051,-0.2435,-1.9164,0.97401,-1.5085e-12,-0.95819,0,0,0.16667,3.9475e-16,0,0.66667
0.738,0.88047,4.428,0.57071,12.334,20.912,-6.7389,2.2463,-0.84195,-8.9852,-4.9312e-12,-0.42097,0,0,0.16667,-0,-0,0.66667
0.72408,0.13761,4.3445,-0.54358,-12.261,22.824,6.2976,-2.0992,-0.94821,8.3968,9.619e-13,-0.47411,0,0,0.16667,-0,-0,0.66667
0.4618,0.40829,2.7708,-0.13757,-5.1176,73.054,1.0165,-0.33882,-1.9325,1.3553,-2.5679e-13,-0.96625,0,0,0.16667,-0,-0,0.66667
0.36527,0.60157,2.1916,0.15235,6.252,96.897,-0.89041,0.2968,-1.9165,-1.1872,2.3171e-12,-0.95826,0,0,0.16667,-0,-0,0.66667
0.58469,0.65981,3.5081,0.23972,7.4473,46.417,-2.2426,0.74753,-1.7952,-2.9901,-9.1349e-13,-0.89761,0,0,0.16667,-1.579e-15,0,0.66667
0.53371,0.97983,3.2022,0.71974,24.674,57.587,-6.1461,2.0487,-0.15809,-8.1948,1.7275e-13,-0.079047,0,0,0.16667,-0,-0,0.66667
0.55058,0.79119,3.3035,0.43678,14.442,53.556,-3.8477,1.2826,-1.3212,-5.1303,-4.6341e-13,-0.66059,0,0,0.16667,-0,-0,0.66667
0.61548,0.080558,3.6929,-0.62916,-18.651,41.043,6.1958,-2.0653,-0.59118,8.261,1.2434e-14,-0.29559,0,0,0.16667,7.8949e-16,0,0.66667
0.39565,0.51625,2.3739,0.024378,0.97278,89.137,-0.15432,0.051441,-1.9967,-0.20576,5.5529e-13,-0.99836,0,0,0.16667,-0,-0,0.66667
0.77172,0.86542,4.6303,0.54813,10.492,16.425,-6.768,2.256,-0.93062,-9.024,1.3627e-11,-0.46531,0,0,0.16667,-0,-0,0.66667
0.2512,0.54343,1.5072,0.065152,2.8922,127.54,-0.26186,0.087287,-1.9855,-0.34915,-2.0014e-11,-0.99277,0,0,0.16667,-0,-0,0.66667
0.65576,0.19345,3.9346,-0.45983,-12.413,33.508,4.8246,-1.6082,-1.2499,6.4328,3.1557e-12,-0.62494,0,0,0.16667,1.579e-15,0,0.66667
0.9604,0.34749,5.7624,-0.22877,-0.73151,0.91639,3.5154,-1.1718,-1.8134,4.6872,3.0798e-08,-0.90669,0,0,0.16667,-0,-0,0.66667
0.0035548,0.57727,0.021329,0.1159,5.4973,199.45,-0.0065923,0.0021982,-1.9516,-0.0087894,1.1718e-06,-0.97578,0,0,0.16667,-6.1679e-18,0,0.66667
0.72336,0.56502,4.3402,0.09753,2.1759,22.378,-1.1288,0.37626,-1.9663,-1.5051,4.531e-12,-0.98316,0,0,0.16667,-0,-0,0.66667
0.109,0.47879,0.65397,-0.031812,-1.4903,168.31,0.055478,-0.018493,-1.9977,0.07397,-4.9266e-09,-0.99886,0,0,0.16667,-0,-0,0.66667
0.54379,0.48529,3.2627,-0.022063,-0.733,54.705,0.19196,-0.063987,-1.9978,0.25595,-8.7388e-14,-0.9989,0,0,0.16667,7.8949e-16,0,0.66667
0.62692,0.93346,3.7615,0.65019,18.849,38.98,-6.5218,2.1739,-0.49798,-8.6957,-6.1018e-13,-0.24899,0,0,0.16667,1.9737e-16,0,0.66667
0.24295,0.0050485,1.4577,-0.74243,-33.524,130.2,2.8859,-0.96198,-0.039449,3.8479,2.3815e-11,-0.019724,0,0,0.16667,1.579e-15,0,0.66667
0.91384,0.8233,5.4831,0.48495,3.6736,3.3818,-7.0907,2.3636,-1.1624,-9.4543,1.2632e-08,-0.58121,0,0,0.16667,-1.579e-15,0,0.66667
0.62231,0.65042,3.7339,0.22563,6.5162,39.205,-2.2466,0.74885,-1.8194,-2.9954,-2.3488e-12,-0.90969,0,0,0.16667,-7.8949e-16,0,0.66667
0.23169,0.051629,1.3902,-0.67256,-30.473,133.28,2.4932,-0.83108,-0.39159,3.3243,7.2158e-12,-0.19579,0,0,0.16667,-1.9737e-16,0,0.66667
0.77013,0.68277,4.6208,0.27415,5.2159,16.16,-3.3781,1.126,-1.7326,-4.5042,1.4309e-10,-0.86629,0,0,0.16667,1.1842e-15,0,0.66667
0.10551,0.28883,0.63304,-0.31676,-14.883,169.36,0.53472,-0.17824,-1.6429,0.71296,6.1944e-09,-0.82145,0,0,0.16667,-0,-0,0.66667
0.55523,0.22381,3.3314,-0.41429,-13.588,52.561,3.6804,-1.2268,-1.389,4.9071,3.4328e-13,-0.6945,0,0,0.16667,-0,-0,0.66667
0.094956,0.23585,0.56974,-0.39623,-18.681,172.47,0.60199,-0.20066,-1.4424,0.80265,1.1019e-08,-0.72118,0,0,0.16667,-1.9737e-16,0,0.66667
0.58098,0.9953,3.4859,0.74295,23.616,47.92,-6.9062,2.3021,-0.037907,-9.2083,-1.5543e-13,-0.018953,0,0,0.16667,-7.8949e-16,0,0.66667
0.25298,0.54846,1.5179,0.072683,3.2235,127.05,-0.2942,0.098066,-1.9808,-0.39227,-1.9529e-11,-0.9904,0,0,0.16667,-0,-0,0.66667
0.64947,0.9985,3.8968,0.74775,20.75,35.201,-7.7702,2.5901,-0.011902,-10.36,-7.1942e-14,-0.0059509,0,0,0.16667,9.8432e-16,0,0.66667
0.71583,0.086208,4.295,-0.62069,-14.413,24.205,7.1089,-2.3696,-0.63027,9.4785,1.9544e-12,-0.31514,0,0,0.16667,-0,-0,0.66667
0.52419,0.62285,3.1451,0.18428,6.3141,58.953,-1.5456,0.51519,-1.879,-2.0608,-2.387e-13,-0.9395,0,0,0.16667,-1.9737e-16,0,0.66667
0.65752,0.25229,3.9451,-0.37156,-9.9608,33.077,3.909,-1.303,-1.5109,5.212,4.1003e-12,-0.75544,0,0,0.16667,-0,-0,0.66667
0.81329,0.72625,4.8798,0.33938,5.3577,11.251,-4.4163,1.4721,-1.5918,-5.8883,7.3976e-10,-0.79588,0,0,0.16667,-0,-0,0.66667
0.80751,0.60856,4.8451,0.16283,2.6288,11.679,-2.1038,0.70128,-1.9046,-2.8051,4.1663e-10,-0.95228,0,0,0.16667,-0,-0,0.66667
0.61968,0.4162,3.7181,-0.1257,-3.6453,39.635,1.2463,-0.41543,-1.9428,1.6617,1.1445e-12,-0.9714,0,0,0.16667,-0,-0,0.66667
0.4511,0.030396,2.7066,-0.70441,-26.883,76.157,5.0841,-1.6947,-0.23737,6.7789,-1.2883e-12,-0.11868,0,0,0.16667,4.9343e-16,0,0.66667
0.40795,7.8936e-05,2.4477,-0.74988,-30.004,86.672,4.8946,-1.6315,-0.0025704,6.5262,1.8838e-12,-0.0012852,0,0,0.16667,-0,-0,0.66667
0.87475,0.32057,5.2485,-0.26914,-2.8967,5.5632,3.7669,-1.2556,-1.744,5.0225,-3.4301e-09,-0.87202,0,0,0.16667,-0,-0,0.66667
0.70293,0.94575,4.2176,0.66862,16.156,26.262,-7.5199,2.5066,-0.41209,-10.027,-9.6012e-13,-0.20604,0,0,0.16667,-0,-0,0.66667
0.18494,0.10528,1.1096,-0.59208,-27.318,146.45,1.7519,-0.58398,-0.75346,2.3359,-1.383e-10,-0.37673,0,0,0.16667,-3.9475e-16,0,0.66667
0.56573,0.46482,3.3944,-0.052771,-1.6917,50.147,0.47767,-0.15922,-1.9905,0.6369,4.6507e-13,-0.99526,0,0,0.16667,-9.8686e-16,0,0.66667
0.90881,0.71955,5.4528,0.32933,2.5966,3.3602,-4.7888,1.5963,-1.6157,-6.3851,6.7085e-09,-0.80784,0,0,0.16667,-0,-0,0.66667
0.15069,0.92776,0.90414,0.64164,29.999,156.31,-1.547,0.51567,-0.53513,-2.0627,-4.2854e-09,-0.26756,0,0,0.16667,-0,-0,0.66667
0.84552,0.59636,5.0731,0.14453,1.8967,7.8793,-1.9553,0.65176,-1.9271,-2.6071,2.4894e-09,-0.96356,0,0,0.16667,-0,-0,0.66667
0.8202,0.73389,4.9212,0.35084,5.3514,10.55,-4.6041,1.5347,-1.5608,-6.1388,9.6511e-10,-0.78041,0,0,0.16667,1.579e-15,0,0.66667
0.49934,0.42485,2.996,-0.11272,-3.9973,64.415,0.9006,-0.3002,-1.9558,1.2008,-3.2957e-13,-0.9779,0,0,0.16667,7.8949e-16,0,0.66667
0.037584,0.2307,0.2255,-0.40395,-19.195,189.38,0.24291,-0.080971,-1.4185,0.32388,-6.6014e-08,-0.70924,0,0,0.16667,-0,-0,0.66667
0.1475,0.010517,0.88502,-0.73422,-34.458,157.29,1.7328,-0.5776,-0.081932,2.3104,1.8183e-09,-0.040966,0,0,0.16667,-0,-0,0.66667
0.92264,0.22123,5.5358,-0.41816,-2.8173,2.7669,6.1729,-2.0576,-1.3803,8.2306,-1.9061e-08,-0.69017,0,0,0.16667,3.158e-15,0,0.66667
0.044155,0.73004,0.26493,0.34506,16.372,187.43,-0.24377,0.081258,-1.5765,-0.32503,4.4246e-08,-0.78825,0,0,0.16667,-0,-0,0.66667
0.3725,0.76511,2.235,0.39767,16.273,95.173,-2.3701,0.79004,-1.4375,-3.1602,3.4623e-12,-0.71876,0,0,0.16667,-7.8949e-16,0,0.66667
0.61904,0.72466,3.7142,0.33699,9.82,39.916,-3.3378,1.1126,-1.5955,-4.4504,-2.6688e-12,-0.79775,0,0,0.16667,-0,-0,0.66667
0.19695,0.47846,1.1817,-0.032305,-1.4717,142.84,0.1018,-0.033933,-1.9951,0.13573,5.5751e-11,-0.99756,0,0,0.16667,-0,-0,0.66667
0.98108,0.74575,5.8865,0.36862,0.50012,0.61878,-5.7864,1.9288,-1.5172,-7.7151,-1.9652e-08,-0.7586,0,0,0.16667,2.9494e-15,0,0.66667
0.15598,0.58103,0.93585,0.12155,5.6233,154.62,-0.30334,0.10111,-1.9487,-0.40445,-1.2862e-09,-0.97436,0,0,0.16667,-0,-0,0.66667
0.53968,0.01942,3.2381,-0.72087,-24.492,56.323,6.2246,-2.0749,-0.15092,8.2995,-1.0005e-12,-0.075459,0,0,0.16667,-0,-0,0.66667
0.61801,0.79139,3.7081,0.43708,12.799,40.234,-4.322,1.4407,-1.3194,-5.7626,-2.033e-12,-0.65972,0,0,0.16667,-0,-0,0.66667
0.23099,0.092722,1.3859,-0.61092,-27.639,133.42,2.2579,-0.75262,-0.67388,3.0105,6.1528e-11,-0.33694,0,0,0.16667,-5.181e-16,2.1378e-19,0.66667
0.46631,0.95131,2.7979,0.67696,25.355,72.543,-5.0508,1.6836,-0.37043,-6.7344,4.4409e-13,-0.18522,0,0,0.16667,7.8949e-16,-1.947e-16,0.66667
0.49101,0.89664,2.9461,0.59496,21.544,66.744,-4.6741,1.558,-0.7402,-6.2321,-7.1054e-14,-0.3701,0,0,0.16667,-7.8949e-16,0,0.66667
0.76686,0.34878,4.6012,-0.22683,-4.3646,16.524,2.7831,-0.9277,-1.8184,3.7108,-1.0848e-10,-0.90919,0,0,0.16667,-1.579e-15,0,0.66667
0.63428,0.42487,3.8057,-0.1127,-3.1689,36.954,1.1437,-0.38124,-1.9535,1.5249,1.4637e-12,-0.97673,0,0,0.16667,-0,-0,0.66667
0.46755,0.81144,2.8053,0.46716,17.355,71.955,-3.4947,1.1649,-1.2261,-4.6597,-4.8694e-13,-0.61304,0,0,0.16667,9.3752e-16,0,0.66667
0.66694,0.55931,4.0017,0.08897,2.3198,31.245,-0.9494,0.31647,-1.9718,-1.2659,-1.8174e-12,-0.9859,0,0,0.16667,-9.8678e-16,0,0.66667
0.45338,0.79708,2.7203,0.44562,16.825,75.26,-3.2325,1.0775,-1.2951,-4.3101,3.888e-13,-0.64757,0,0,0.16667,-0,-0,0.66667
0.52571,0.23067,3.1543,-0.404,-13.865,58.803,3.3982,-1.1327,-1.4185,4.5309,7.5495e-14,-0.70924,0,0,0.16667,-7.8949e-16,0,0.66667
0.65857,0.084514,3.9514,-0.62323,-16.828,33.337,6.567,-2.189,-0.61916,8.756,1.207e-12,-0.30958,0,0,0.16667,-0,-0,0.66667
0.1812,0.9867,1.0872,0.73005,33.869,147.6,-2.1165,0.7055,-0.10359,-2.822,-5.5786e-10,-0.051796,0,0,0.16667,1.9737e-16,0,0.66667
0.78805,0.58696,4.7283,0.13045,2.2991,13.861,-1.6448,0.54825,-1.9385,-2.193,2.1802e-10,-0.96927,0,0,0.16667,-0,-0,0.66667
0.60287,0.88024,3.6172,0.57037,17.287,43.308,-5.5017,1.8339,-0.8426,-7.3356,-8.5842e-13,-0.4213,0,0,0.16667,-0,-0,0.66667
0.98033,0.026902,5.882,-0.70965,-1.2833,1.5944,11.131,-3.7103,-0.20943,14.841,4.9781e-06,-0.10472,0,0,0.16667,1.579e-15,-9.4568e-17,0.66667
0.22238,0.37855,1.3343,-0.18218,-8.212,135.64,0.6482,-0.21607,-1.8823,0.86427,1.6096e-10,-0.94116,0,0,0.16667,-0,-0,0.66667
0.46627,0.28498,2.7976,-0.32254,-11.963,72.113,2.4062,-0.80207,-1.6309,3.2083,-9.9032e-13,-0.81546,0,0,0.16667,1.579e-15,0,0.66667
0.89564,0.66299,5.3739,0.24449,2.1941,4.0572,-3.5036,1.1679,-1.7869,-4.6714,6.8817e-10,-0.89343,0,0,0.16667,-0,-0,0.66667
0.60143,0.13909,3.6086,-0.54136,-16.435,43.53,5.2095,-1.7365,-0.95643,6.946,1.6254e-13,-0.47822,0,0,0.16667,7.8949e-16,0,0.66667
0.72596,0.54431,4.3558,0.066464,1.4705,21.991,-0.772,0.25733,-1.9828,-1.0293,5.1466e-12,-0.99141,0,0,0.16667,-0,-0,0.66667
0.41367,0.0111,2.482,-0.73335,-29.158,85.236,4.8538,-1.6179,-0.086421,6.4718,2.3714e-13,-0.043211,0,0,0.16667,-1.579e-15,0,0.66667
0.68431,0.48235,4.1059,-0.026469,-0.66014,28.367,0.28981,-0.096603,-1.997,0.38641,2.0839e-13,-0.99851,0,0,0.16667,-0,-0,0.66667
0.94606,0.62019,5.6763,0.18029,0.80939,1.3636,-2.729,0.90967,-1.8837,-3.6387,-2.5194e-08,-0.94186,0,0,0.16667,-1.9737e-15,0,0.66667
0.20019,0.039015,1.2011,-0.69148,-31.8,142.17,2.2148,-0.73826,-0.29997,2.953,-1.7854e-10,-0.14998,0,0,0.16667,-0,1.4743e-16,0.66667
0.80737,0.37334,4.8442,-0.18998,-3.0712,11.716,2.4542,-0.81806,-1.8718,3.2722,-5.3916e-10,-0.93592,0,0,0.16667,3.9475e-16,0,0.66667
0.96954,0.73929,5.8172,0.35894,0.87225,0.85655,-5.5681,1.856,-1.5429,-7.4241,-6.0854e-08,-0.77145,0,0,0.16667,-0,-0,0.66667
0.014569,0.13907,0.087412,-0.5414,-25.83,196.19,0.1262,-0.042067,-0.95848,0.16827,-8.639e-08,-0.47924,0,0,0.16667,-2.4672e-17,2.354e-16,0.66667
0.21521,0.82021,1.2913,0.48031,21.822,137.78,-1.6539,0.5513,-1.1795,-2.2052,-1.9461e-10,-0.58975,0,0,0.16667,-0,-0,0.66667
0.11738,0.64385,0.70426,0.21577,10.099,165.87,-0.40523,0.13508,-1.833,-0.54031,-2.4032e-09,-0.91649,0,0,0.16667,-1.39e-16,0,0.66667
0.76742,0.097061,4.6045,-0.60441,-11.802,17.095,7.4214,-2.4738,-0.70237,9.8952,-4.6294e-11,-0.35119,0,0,0.16667,3.158e-15,0,0.66667
0.081217,0.84402,0.4873,0.51603,24.448,176.53,-0.67057,0.22352,-1.0544,-0.89409,-2.1878e-08,-0.52718,0,0,0.16667,-1.9737e-16,0,0.66667
0.99841,0.88199,5.9905,0.57298,-0.051976,0.88831,-9.1531,3.051,-0.83353,-12.204,8.3386e-07,-0.41676,0,0,0.16667,3.158e-15,0,0.66667
0.38961,0.052719,2.3377,-0.67092,-27.237,91.125,4.1824,-1.3941,-0.40043,5.5765,-2.6734e-13,-0.20022,0,0,0.16667,-3.9475e-16,1.6976e-16,0.66667
0.9052,0.029718,5.4312,-0.70542,-6.068,4.5133,10.217,-3.4056,-0.23272,13.622,2.0943e-07,-0.11636,0,0,0.16667,-1.579e-15,0,0.66667
0.18858,0.53137,1.1315,0.047056,2.151,145.23,-0.14198,0.047326,-1.9944,-0.1893,-3.4174e-10,-0.99722,0,0,0.16667,-0,-0,0.66667
0.44087,0.55179,2.6452,0.077681,2.9591,78.015,-0.54796,0.18265,-1.9781,-0.73061,1.5959e-13,-0.98906,0,0,0.16667,3.9475e-16,0,0.66667
0.84481,0.54198,5.0689,0.062974,0.82891,7.9052,-0.85122,0.28374,-1.9867,-1.135,1.08e-09,-0.99335,0,0,0.16667,-0,-0,0.66667
0.59527,0.9668,3.5716,0.70019,21.648,45.03,-6.6689,2.223,-0.25847,-8.8918,-2.5491e-13,-0.12924,0,0,0.16667,-7.8949e-16,0,0.66667
0.46216,0.1416,2.7729,-0.53761,-20.141,73.303,3.9753,-1.3251,-0.9709,5.3005,-4.9782e-13,-0.48545,0,0,0.16667,7.8949e-16,0,0.66667
0.51265,0.72997,3.0759,0.34495,12.047,61.596,-2.8294,0.94314,-1.5766,-3.7725,-2.0539e-13,-0.78832,0,0,0.16667,-0,-0,0.66667
0.57389,0.35246,3.4433,-0.2213,-7.0062,48.562,2.032,-0.67735,-1.8253,2.7094,2.0006e-13,-0.91263,0,0,0.16667,-0,-0,0.66667
0.44032,0.031125,2.6419,-0.70331,-27.164,78.722,4.9549,-1.6516,-0.24258,6.6065,-1.0871e-12,-0.12129,0,0,0.16667,-3.2073e-16,0,0.66667
0.19356,0.15228,1.1614,-0.52159,-23.941,143.95,1.6153,-0.53844,-1.0323,2.1538,4.072e-10,-0.51613,0,0,0.16667,-2.8014e-16,0,0.66667
0.11397,0.72152,0.68379,0.33227,15.586,166.88,-0.60588,0.20196,-1.6076,-0.80785,-5.9205e-09,-0.80378,0,0,0.16667,3.9475e-16,0,0.66667
0.15123,0.92531,0.90737,0.63796,29.819,156.16,-1.5436,0.51455,-0.55181,-2.0582,-2.879e-09,-0.2759,0,0,0.16667,-1.9737e-16,0,0.66667
0.052491,0.52225,0.31495,0.033374,1.5781,184.95,-0.028029,0.0093431,-1.995,-0.037372,6.002e-08,-0.99752,0,0,0.16667,-0,-0,0.66667
0.55868,0.15299,3.3521,-0.52052,-17.029,51.996,4.6529,-1.551,-1.0369,6.2038,9.1482e-14,-0.51847,0,0,0.16667,9.8686e-16,0,0.66667
0.84772,0.018594,5.0863,-0.72211,-9.7218,8.8125,9.7944,-3.2648,-0.14521,13.059,-1.7033e-09,-0.072604,0,0,0.16667,-0,-0,0.66667
0.35912,0.44182,2.1547,-0.08727,-3.5985,98.475,0.50144,-0.16715,-1.975,0.66859,-2.3251e-12,-0.98751,0,0,0.16667,7.8949e-16,0,0.66667
0.075311,0.74036,0.45187,0.36053,17.046,178.24,-0.43443,0.14481,-1.5377,-0.57925,-4.7429e-09,-0.76887,0,0,0.16667,9.8686e-17,0,0.66667
0.42572,0.52558,2.5543,0.038375,1.4858,81.682,-0.26139,0.087131,-1.9947,-0.34853,-1.9074e-13,-0.99733,0,0,0.16667,-0,-0,0.66667
0.60201,0.12138,3.612,-0.56792,-17.24,43.467,5.4703,-1.8234,-0.85267,7.2938,3.8902e-13,-0.42633,0,0,0.16667,-1.1842e-15,0,0.66667
0.4254,0.76747,2.5524,0.40121,15.606,81.941,-2.7308,0.91027,-1.427,-3.6411,7.7005e-13,-0.71351,0,0,0.16667,-0,-0,0.66667
0.81072,0.40872,4.8643,-0.13693,-2.1754,11.316,1.7762,-0.59205,-1.9348,2.3682,-5.2899e-10,-0.96738,0,0,0.16667,-0,-0,0.66667
0.94189,0.77915,5.6513,0.41873,2.1001,1.8881,-6.3103,2.1034,-1.3769,-8.4138,-1.5066e-08,-0.68844,0,0,0.16667,-1.9737e-15,0,0.66667
0.86991,0.85735,5.2195,0.53603,6.1058,6.4348,-7.4607,2.4869,-0.97724,-9.9477,1.3883e-09,-0.48862,0,0,0.16667,1.579e-15,0,0.66667
0.704,0.99253,4.224,0.73879,17.874,26.284,-8.3218,2.7739,-0.060557,-11.096,-1.3145e-12,-0.030279,0,0,0.16667,2.3685e-15,0,0.66667
0.4703,0.56065,2.8218,0.090975,3.3487,71.053,-0.68457,0.22819,-1.9722,-0.91275,6.7357e-13,-0.98612,0,0,0.16667,-2.9606e-16,0,0.66667
0.6827,0.3637,4.0962,-0.20445,-5.1294,28.702,2.2333,-0.74443,-1.8504,2.9777,3.2947e-12,-0.9252,0,0,0.16667,7.8949e-16,0,0.66667
0.013418,0.92086,0.08051,0.63129,30.189,196.54,-0.13553,0.045176,-0.58298,-0.18071,-1.7587e-06,-0.29149,0,0,0.16667,-2.4672e-17,0,0.66667
0.98248,0.33626,5.8949,-0.24561,-0.28161,0.3949,3.861,-1.287,-1.7861,5.1479,-2.6635e-08,-0.89305,0,0,0.16667,7.8949e-16,0,0.66667
0.17208,0.80707,1.0325,0.46061,21.287,150.07,-1.2682,0.42272,-1.2476,-1.6909,-6.9397e-10,-0.62381,0,0,0.16667,-0,-0,0.66667
0.90626,0.67173,5.4376,0.25759,2.0769,3.4087,-3.7351,1.245,-1.7655,-4.9802,2.9599e-09,-0.88273,0,0,0.16667,1.579e-15,0,0.66667
0.80711,0.65161,4.8427,0.22742,3.6846,11.777,-2.9369,0.97895,-1.8157,-3.9158,5.3572e-10,-0.90784,0,0,0.16667,7.8949e-16,0,0.66667
0.80014,0.16455,4.8008,-0.50318,-8.5282,12.977,6.4418,-2.1473,-1.0996,8.5891,-4.451e-10,-0.54979,0,0,0.16667,-1.579e-15,0,0.66667
0.26894,0.28425,1.6136,-0.32362,-14.257,122.7,1.3925,-0.46417,-1.6282,1.8567,1.4743e-11,-0.81409,0,0,0.16667,-0,-0,0.66667
0.21915,0.7287,1.3149,0.34305,15.517,136.6,-1.2029,0.40096,-1.5829,-1.6039,-2.1283e-10,-0.79144,0,0,0.16667,-0,-0,0.66667
0.4288,0.18844,2.5728,-0.46735,-18.141,81.179,3.2064,-1.0688,-1.2234,4.2752,1.2657e-14,-0.61171,0,0,0.16667,-0,-0,0.66667
0.84937,0.6116,5.0962,0.16739,2.1455,7.5501,-2.2749,0.75829,-1.8991,-3.0331,1.6097e-09,-0.94955,0,0,0.16667,-1.579e-15,0,0.66667
0.45038,0.84148,2.7023,0.51222,19.44,76.048,-3.6911,1.2304,-1.0681,-4.9215,3.1464e-13,-0.53403,0,0,0.16667,1.0856e-15,0,0.66667
0.93542,0.86102,5.6125,0.54152,3.0976,2.4557,-8.1048,2.7016,-0.95739,-10.806,4.2033e-08,-0.4787,0,0,0.16667,-0,-6.025e-17,0.66667
0.35268,0.9976,2.1161,0.7464,31.367,100.67,-4.2119,1.404,-0.018872,-5.6158,-6.3549e-13,-0.0094362,0,0,0.16667,-1.2829e-15,0,0.66667
0.61939,0.70947,3.7164,0.31421,9.1447,39.826,-3.1139,1.038,-1.6479,-4.1518,-2.5291e-12,-0.82397,0,0,0.16667,-0,-0,0.66667
0.9807,0.23522,5.8842,-0.39716,-0.56208,0.68319,6.232,-2.0773,-1.4384,8.3093,5.5338e-08,-0.71922,0,0,0.16667,-0,-0,0.66667
0.64346,0.24047,3.8608,-0.38929,-10.783,35.55,4.0079,-1.336,-1.4611,5.3439,3.2068e-12,-0.73053,0,0,0.16667,-0,-0,0.66667
0.045498,0.82771,0.27299,0.49156,23.383,187.05,-0.35784,0.11928,-1.1413,-0.47713,-3.0476e-09,-0.57065,0,0,0.16667,-9.8686e-17,0,0.66667
0.46356,0.81284,2.7813,0.46927,17.518,72.89,-3.4805,1.1602,-1.2174,-4.6407,1.5077e-13,-0.60872,0,0,0.16667,-0,-0,0.66667
0.33475,0.47733,2.0085,-0.034,-1.4293,104.85,0.1821,-0.060702,-1.9948,0.24281,6.3471e-13,-0.99738,0,0,0.16667,-7.8949e-16,0,0.66667
0.53218,0.91172,3.1931,0.61758,21.132,57.719,-5.2586,1.7529,-0.64536,-7.0115,1.5499e-13,-0.32268,0,0,0.16667,-0,-0,0.66667
0.28475,0.85375,1.7085,0.53062,23.25,118.5,-2.4175,0.80582,-0.99849,-3.2233,3.1328e-12,-0.49924,0,0,0.16667,-0,-0,0.66667
0.12226,0.55383,0.73357,0.080749,3.7714,164.43,-0.15796,0.052653,-1.9768,-0.21061,3.9237e-09,-0.98842,0,0,0.16667,1.9737e-16,0,0.66667
0.66829,0.66226,4.0097,0.24339,6.3382,31.11,-2.6025,0.86751,-1.7893,-3.47,-4.4054e-12,-0.89466,0,0,0.16667,-0,-0,0.66667
0.68136,0.011367,4.0882,-0.73295,-18.829,29.82,7.9904,-2.6635,-0.088615,10.654,1.4522e-13,-0.044307,0,0,0.16667,-0,-0,0.66667
0.86714,0.58087,5.2028,0.12131,1.3756,6.022,-1.6831,0.56102,-1.9462,-2.2441,1.7458e-09,-0.97309,0,0,0.16667,1.579e-15,0,0.66667
0.13238,0.30419,0.79429,-0.29372,-13.706,161.5,0.62212,-0.20737,-1.6921,0.82949,3.9084e-09,-0.84605,0,0,0.16667,9.8686e-17,0,0.66667
0.79862,0.13824,4.7917,-0.54264,-9.2835,13.234,6.9339,-2.3113,-0.95329,9.2451,-8.5927e-11,-0.47664,0,0,0.16667,-0,-0,0.66667
0.82677,0.76499,4.9606,0.39749,5.871,9.9644,-5.2581,1.7527,-1.4387,-7.0108,1.08e-09,-0.71935,0,0,0.16667,-0,-0,0.66667
0.64655,0.9649,3.8793,0.69735,19.425,35.583,-7.2139,2.4046,-0.27054,-9.6186,-3.6859e-14,-0.13527,0,0,0.16667,-7.8949e-16,0,0.66667
0.20492,0.44138,1.2295,-0.087934,-3.993,140.57,0.28831,-0.096105,-1.9737,0.38442,2.1527e-10,-0.98683,0,0,0.16667,-0,-0,0.66667
0.26142,0.82186,1.5685,0.48279,21.425,124.87,-2.0194,0.67313,-1.1706,-2.6925,-7.6068e-12,-0.5853,0,0,0.16667,-0,-0,0.66667
0.4185,0.92308,2.511,0.63463,25.022,83.901,-4.2494,1.4165,-0.56741,-5.6659,8.1135e-13,-0.2837,0,0,0.16667,-7.8949e-16,0,0.66667
0.5418,0.27956,3.2508,-0.33066,-11.057,55.283,2.8664,-0.95546,-1.6114,3.8218,-6.477e-13,-0.80572,0,0,0.16667,1.1842e-15,0,0.66667
0.47744,0.035454,2.8646,-0.69682,-25.768,70.006,5.323,-1.7743,-0.27298,7.0973,-1.6445e-12,-0.13649,0,0,0.16667,1.579e-15,0,0.66667
0.46746,0.45925,2.8048,-0.06112,-2.2573,71.709,0.45714,-0.15238,-1.9875,0.60952,1.7217e-13,-0.99374,0,0,0.16667,-0,-0,0.66667
0.83984,0.81635,5.039,0.47452,6.5456,8.8587,-6.3763,2.1254,-1.1996,-8.5018,1.4227e-09,-0.59978,0,0,0.16667,-0,-0,0.66667
0.8701,0.53944,5.2206,0.059161,0.65554,5.7614,-0.82362,0.27454,-1.9868,-1.0982,-8.4427e-10,-0.9934,0,0,0.16667,-0,-0,0.66667
0.81675,0.19377,4.9005,-0.45935,-7.1729,11.097,6.0028,-2.0009,-1.2494,8.0038,-9.1545e-10,-0.62472,0,0,0.16667,-0,-0,0.66667
0.8778,0.82405,5.2668,0.48608,5.1893,5.7171,-6.8269,2.2756,-1.1597,-9.1025,5.0163e-09,-0.57985,0,0,0.16667,-0,-0,0.66667
0.57101,0.2837,3.4261,-0.32445,-10.342,49.229,2.9642,-0.98806,-1.6254,3.9522,8.1779e-13,-0.81271,0,0,0.16667,-0,-0,0.66667
0.96404,0.96126,5.7842,0.69189,2.2857,1.9044,-10.672,3.5574,-0.29728,-14.23,3.7786e-06,-0.14864,0,0,0.16667,-7.8949e-16,1.1412e-16,0.66667
0.60654,0.54728,3.6393,0.07092,2.1108,42.09,-0.68826,0.22942,-1.9818,-0.91768,-9.8932e-13,-0.99088,0,0,0.16667,-0,-0,0.66667
0.60395,0.028511,3.6237,-0.70723,-21.519,43.383,6.8341,-2.278,-0.22147,9.1121,4.2455e-13,-0.11074,0,0,0.16667,-1.1842e-15,0,0.66667
0.3193,0.62087,1.9158,0.18131,7.7161,108.98,-0.92627,0.30876,-1.8825,-1.235,2.9732e-12,-0.94127,0,0,0.16667,-0,-0,0.66667
0.6812,0.86354,4.0872,0.5453,13.879,29.409,-5.9434,1.9811,-0.94142,-7.9245,-3.4182e-12,-0.47071,0,0,0.16667,-7.8949e-16,0,0.66667
0.051966,0.71068,0.31179,0.31601,14.976,185.12,-0.26275,0.087583,-1.6441,-0.35033,2.7587e-08,-0.82207,0,0,0.16667,-0,-0,0.66667
0.13455,0.95185,0.80728,0.67777,31.872,161.01,-1.4591,0.48636,-0.36527,-1.9454,1.0328e-08,-0.18263,0,0,0.16667,-0,-0,0.66667
0.13024,0.96413,0.78145,0.6962,32.795,162.26,-1.4508,0.4836,-0.27625,-1.9344,1.4944e-09,-0.13813,0,0,0.16667,-4.9343e-17,0,0.66667
0.6552,0.63891,3.9312,0.20836,5.5957,33.311,-2.1843,0.72809,-1.8463,-2.9124,-3.3846e-12,-0.92316,0,0,0.16667,-1.579e-15,0,0.66667
0.17533,0.66059,1.052,0.24089,11.081,149.06,-0.67576,0.22525,-1.7939,-0.90101,-1.0189e-09,-0.89697,0,0,0.16667,-3.9475e-16,0,0.66667
0.34115,0.24595,2.0469,-0.38108,-15.998,103.29,2.08,-0.69335,-1.4844,2.7734,-4.2715e-12,-0.74218,0,0,0.16667,-0,-0,0.66667
0.044312,0.12878,0.26587,-0.55684,-26.53,187.41,0.39479,-0.1316,-0.8983,0.52638,-4.2554e-08,-0.44915,0,0,0.16667,-0,-0,0.66667
0.23373,0.73166,1.4024,0.34749,15.609,132.5,-1.2995,0.43317,-1.5716,-1.7327,-1.1184e-10,-0.78582,0,0,0.16667,-0,-0,0.66667
0.96422,0.46068,5.7853,-0.058979,-0.16474,0.67726,0.90991,-0.3033,-1.987,1.2132,2.0151e-07,-0.9935,0,0,0.16667,7.8949e-16,0,0.66667
0.50914,0.06572,3.0548,-0.65142,-23.069,62.786,5.3066,-1.7689,-0.49082,7.0755,1.0791e-13,-0.24541,0,0,0.16667,-0,-0,0.66667
0.15107,0.61272,0.90645,0.16909,7.8372,156.05,-0.40871,0.13624,-1.8972,-0.54495,-1.49e-09,-0.94861,0,0,0.16667,-0,-0,0.66667
0.52301,0.87148,3.1381,0.55723,19.285,59.595,-4.6629,1.5543,-0.89549,-6.2173,1.4744e-13,-0.44774,0,0,0.16667,3.9475e-16,0,0.66667
0.94351,0.70272,5.6611,0.30408,1.4543,1.6146,-4.5904,1.5301,-1.6698,-6.1206,-2.232e-08,-0.83492,0,0,0.16667,-0,-0,0.66667
0.86569,0.88042,5.1941,0.57063,6.7234,6.8563,-7.9037,2.6346,-0.84155,-10.538,-2.7129e-09,-0.42077,0,0,0.16667,-0,-0,0.66667
0.39207,0.75642,2.3524,0.38463,15.459,90.193,-2.4128,0.80427,-1.475,-3.2171,2.2058e-12,-0.73749,0,0,0.16667,-0,-0,0.66667
0.28387,0.50436,1.7032,0.0065333,0.28451,118.53,-0.029674,0.0098912,-2.0005,-0.039565,6.821e-13,-1.0002,0,0,0.16667,-1.579e-15,0,0.66667
0.76173,0.81043,4.5704,0.46565,9.2153,17.518,-5.6752,1.8917,-1.2295,-7.5669,5.67e-11,-0.61477,0,0,0.16667,1.9737e-15,0,0.66667
0.24048,0.032041,1.4429,-0.70194,-31.694,130.85,2.7009,-0.90029,-0.24825,3.6012,-3.0465e-13,-0.12412,0,0,0.16667,-7.8949e-16,0,0.66667
0.25423,0.79581,1.5254,0.44372,19.754,126.83,-1.8049,0.60164,-1.299,-2.4066,-2.3848e-11,-0.64952,0,0,0.16667,-0,-0,0.66667
0.084086,0.81966,0.50452,0.4795,22.688,175.68,-0.64511,0.21504,-1.1816,-0.86014,-1.7759e-08,-0.59082,0,0,0.16667,-0,-0,0.66667
0.86414,0.49605,5.1849,-0.0059298,-0.068621,6.2297,0.081988,-0.027329,-1.9997,0.10932,-9.1226e-09,-0.99986,0,0,0.16667,-1.9737e-15,0,0.66667
0.4479,0.29596,2.6874,-0.30606,-11.595,76.436,2.1933,-0.7311,-1.6657,2.9244,-4.8805e-13,-0.83287,0,0,0.16667,-0,-0,0.66667
0.56179,0.29995,3.3707,-0.30008,-9.711,51.086,2.6973,-0.8991,-1.6808,3.5964,4.714e-13,-0.84038,0,0,0.16667,-0,-0,0.66667
0.73671,0.42966,4.4203,-0.10552,-2.2556,20.472,1.2438,-0.41459,-1.9607,1.6584,-1.7535e-11,-0.98037,0,0,0.16667,-0,-0,0.66667
0.79649,0.48507,4.7789,-0.022395,-0.37995,12.85,0.28539,-0.095131,-1.9993,0.38053,-6.8875e-11,-0.99966,0,0,0.16667,-0,-0,0.66667
0.44751,0.69123,2.685,0.28684,10.868,76.515,-2.0538,0.68461,-1.7071,-2.7384,3.9768e-13,-0.85356,0,0,0.16667,-0,-0,0.66667
0.18413,0.0044013,1.1048,-0.7434,-34.466,146.78,2.1901,-0.73003,-0.035338,2.9201,5.7496e-10,-0.017669,0,0,0.16667,-0,9.5533e-17,0.66667
0.82873,0.32398,4.9724,-0.26403,-3.8344,9.5753,3.501,-1.167,-1.7532,4.6679,-1.2096e-09,-0.8766,0,0,0.16667,-0,-0,0.66667
0.030998,0.3266,0.18599,-0.2601,-12.339,191.32,0.129,-0.043001,-1.7607,0.172,-2.0691e-08,-0.88033,0,0,0.16667,4.9343e-17,0,0.66667
0.94673,0.68627,5.6804,0.2794,1.2504,1.4527,-4.2323,1.4108,-1.7224,-5.643,-2.5884e-08,-0.86122,0,0,0.16667,6.9081e-16,0,0.66667
0.57698,0.042983,3.4619,-0.68553,-21.885,48.589,6.3285,-2.1095,-0.32978,8.438,5.7288e-14,-0.16489,0,0,0.16667,-0,-1.8513e-16,0.66667
0.87539,0.58041,5.2523,0.12061,1.2844,5.3794,-1.6893,0.56309,-1.9494,-2.2524,2.4246e-09,-0.97471,0,0,0.16667,1.579e-15,0,0.66667
0.60857,0.13023,3.6514,-0.55466,-16.617,42.196,5.4007,-1.8002,-0.90772,7.2009,1.581e-13,-0.45386,0,0,0.16667,1.579e-15,0,0.66667
0.25166,0.26359,1.51,-0.35462,-15.783,127.5,1.4279,-0.47596,-1.5532,1.9038,4.2964e-11,-0.77659,0,0,0.16667,-0,-0,0.66667
0.29613,0.71143,1.7768,0.31715,13.736,115.27,-1.5027,0.50089,-1.6437,-2.0036,1.7903e-12,-0.82185,0,0,0.16667,-0,-0,0.66667
0.53292,0.073298,3.1975,-0.64005,-21.896,57.601,5.4576,-1.8192,-0.54383,7.2768,-3.5527e-13,-0.27191,0,0,0.16667,-0,-0,0.66667
0.96208,0.35193,5.7725,-0.22211,-0.67505,0.85783,3.419,-1.1397,-1.8235,4.5586,1.431e-08,-0.91175,0,0,0.16667,-0,-0,0.66667
0.1845,0.1729,1.107,-0.49066,-22.586,146.52,1.4484,-0.48279,-1.1436,1.9312,4.2842e-10,-0.5718,0,0,0.16667,-0,-0,0.66667
0.5099,0.76365,3.0594,0.39548,13.881,62.255,-3.2265,1.0755,-1.4426,-4.302,2.2049e-13,-0.72129,0,0,0.16667,-7.8949e-16,0,0.66667
0.34379,0.25253,2.0627,-0.3712,-15.548,102.59,2.0418,-0.68062,-1.5126,2.7225,-4.1402e-12,-0.75631,0,0,0.16667,-0,-0,0.66667
0.76973,0.073439,4.6184,-0.63984,-12.414,16.897,7.88,-2.6267,-0.54363,10.507,-3.177e-11,-0.27182,0,0,0.16667,-0,-0,0.66667
0.80287,0.86783,4.8172,0.55175,9.2649,12.784,-7.0877,2.3626,-0.9167,-9.4503,-1.1941e-10,-0.45835,0,0,0.16667,-3.141e-16,0,0.66667
0.42456,0.58573,2.5474,0.12859,4.9871,81.983,-0.87353,0.29118,-1.9413,-1.1647,8.5632e-13,-0.97066,0,0,0.16667,3.9475e-16,0,0.66667
0.20412,0.39374,1.2247,-0.1594,-7.2434,140.81,0.52058,-0.17353,-1.9104,0.69411,2.9191e-10,-0.95521,0,0,0.16667,-1.9737e-16,0,0.66667
0.067089,0.71998,0.40254,0.32998,15.612,180.66,-0.35421,0.11807,-1.6133,-0.47228,6.13e-09,-0.80663,0,0,0.16667,-0,-0,0.66667
0.19865,0.22176,1.1919,-0.41736,-19.075,142.45,1.3265,-0.44217,-1.3808,1.7687,5.0344e-10,-0.69038,0,0,0.16667,-0,-0,0.66667
0.2724,0.77203,1.6344,0.40805,17.965,121.79,-1.7784,0.59281,-1.4068,-2.3713,-6.5122e-12,-0.70339,0,0,0.16667,-1.9737e-16,0,0.66667
0.59879,0.40738,3.5927,-0.13893,-4.1993,43.601,1.331,-0.44368,-1.9317,1.7747,7.0133e-13,-0.96583,0,0,0.16667,-0,-0,0.66667
0.87308,0.074503,5.2385,-0.63825,-7.1802,6.47,8.9159,-2.972,-0.55183,11.888,-4.7441e-09,-0.27592,0,0,0.16667,-0,1.8677e-16,0.66667
0.12823,0.93562,0.76939,0.65343,30.757,162.83,-1.3406,0.44688,-0.48267,-1.7875,-7.6882e-09,-0.24133,0,0,0.16667,-2.4672e-16,0,0.66667
0.95819,0.43692,5.7491,-0.09462,-0.31753,0.87471,1.4506,-0.48354,-1.9686,1.9342,-4.332e-07,-0.98428,0,0,0.16667,5.4278e-16,0,0.66667
0.68317,0.010479,4.099,-0.73428,-18.778,29.532,8.0262,-2.6754,-0.082173,10.702,-1.279e-13,-0.041087,0,0,0.16667,-0,1.9816e-16,0.66667
0.74196,0.93562,4.4518,0.65344,14.006,20.564,-7.7572,2.5857,-0.48163,-10.343,1.5139e-12,-0.24082,0,0,0.16667,1.7764e-15,0,0.66667
0.98288,0.31946,5.8973,-0.27081,-0.30387,0.42166,4.2587,-1.4196,-1.7401,5.6783,-1.6637e-08,-0.87007,0,0,0.16667,-0,-0,0.66667
0.4161,0.19303,2.4966,-0.46046,-18.108,84.278,3.0656,-1.0219,-1.2455,4.0874,-8.3866e-13,-0.62276,0,0,0.16667,-0,-0,0.66667
0.53158,0.66128,3.1895,0.24192,8.2043,57.389,-2.0576,0.68587,-1.7938,-2.7435,1.9917e-13,-0.89692,0,0,0.16667,-1.579e-15,0,0.66667
0.67921,0.25117,4.0753,-0.37325,-9.487,29.446,4.0563,-1.3521,-1.5046,5.4084,4.7162e-12,-0.75229,0,0,0.16667,1.579e-15,0,0.66667
0.51288,0.12661,3.0773,-0.56008,-19.668,61.813,4.596,-1.532,-0.88571,6.128,-5.0626e-13,-0.44285,0,0,0.16667,-0,-0,0.66667
0.29911,0.79074,1.7947,0.43611,18.892,114.53,-2.0871,0.69571,-1.324,-2.7828,3.3902e-12,-0.66199,0,0,0.16667,-0,-0,0.66667
0.10538,0.15424,0.63231,-0.51865,-24.461,169.44,0.87452,-0.29151,-1.044,1.166,2.6377e-08,-0.52202,0,0,0.16667,-9.8686e-17,0,0.66667
0.28493,0.5065,1.7096,0.0097506,0.42434,118.24,-0.044452,0.014817,-1.9995,-0.059269,1.1725e-13,-0.99976,0,0,0.16667,-0,-0,0.66667
0.76885,0.78659,4.6131,0.42988,8.2683,16.546,-5.2883,1.7628,-1.3431,-7.051,1.1158e-10,-0.67157,0,0,0.16667,-0,-0,0.66667
0.64078,0.23237,3.8447,-0.40144,-11.19,36.042,4.1158,-1.3719,-1.4283,5.4877,3.0029e-12,-0.71415,0,0,0.16667,-0,-0,0.66667
0.80133,0.75652,4.808,0.38477,6.4442,12.619,-4.9333,1.6444,-1.4732,-6.5777,4.249e-10,-0.73659,0,0,0.16667,-0,-0,0.66667
0.51712,0.86078,3.1027,0.54117,18.879,60.853,-4.4776,1.4925,-0.95908,-5.9702,1.5765e-13,-0.47954,0,0,0.16667,-0,-0,0.66667
0.2321,0.45242,1.3926,-0.071375,-3.2002,132.89,0.26506,-0.088353,-1.9818,0.35341,5.2033e-11,-0.99091,0,0,0.16667,3.9475e-16,0,0.66667
0.62796,0.61361,3.7678,0.17041,4.86,38.13,-1.7122,0.57074,-1.8965,-2.283,-2.4076e-12,-0.94823,0,0,0.16667,-0,-0,0.66667
0.30401,0.75399,1.824,0.38098,16.432,113.18,-1.8531,0.6177,-1.4834,-2.4708,3.9569e-12,-0.74168,0,0,0.16667,-7.8949e-16,0,0.66667
0.029529,0.3851,0.17717,-0.17236,-8.1706,191.75,0.081431,-0.027144,-1.8948,0.10857,-1.2134e-08,-0.94741,0,0,0.16667,-0,-0,0.66667
0.90333,0.76211,5.42,0.39316,3.306,3.7987,-5.6825,1.8942,-1.4501,-7.5767,1.0802e-08,-0.72504,0,0,0.16667,1.579e-15,0,0.66667
0.42037,0.25116,2.5222,-0.37326,-14.587,83.148,2.5105,-0.83683,-1.5065,3.3473,-9.4125e-13,-0.75323,0,0,0.16667,-0,-0,0.66667
0.42613,0.98626,2.5568,0.72939,28.63,82.185,-4.973,1.6577,-0.1075,-6.6307,-4.7917e-13,-0.053749,0,0,0.16667,-0,-0,0.66667
0.74125,0.92708,4.4475,0.64063,13.753,20.629,-7.5978,2.5326,-0.53948,-10.13,3.0114e-12,-0.26974,0,0,0.16667,-7.8949e-16,0,0.66667
0.94846,0.77605,5.6908,0.41408,1.8281,1.6237,-6.2838,2.0946,-1.39,-8.3784,-3.1982e-08,-0.69502,0,0,0.16667,-1.1842e-15,0,0.66667
0.072516,0.58975,0.43509,0.13462,6.352,179.04,-0.1562,0.052066,-1.9352,-0.20826,4.2546e-08,-0.9676,0,0,0.16667,-8.042e-17,0,0.66667
0.1727,0.31226,1.0362,-0.2816,-12.973,149.83,0.77813,-0.25938,-1.7205,1.0375,1.2401e-09,-0.86025,0,0,0.16667,5.6128e-16,0,0.66667
0.32236,0.69023,1.9341,0.28534,12.131,108.21,-1.4717,0.49057,-1.7103,-1.9623,5.2959e-12,-0.85516,0,0,0.16667,-7.8949e-16,0,0.66667
0.24842,0.2848,1.4905,-0.3228,-14.385,128.38,1.2831,-0.42768,-1.6309,1.7107,5.3555e-11,-0.81543,0,0,0.16667,-0,-0,0.66667
0.49549,0.43646,2.973,-0.095311,-3.397,65.276,0.75562,-0.25187,-1.9682,1.0075,2.2704e-13,-0.98408,0,0,0.16667,-0,-0,0.66667
0.82446,0.8192,4.9468,0.4788,7.1949,10.351,-6.316,2.1053,-1.1847,-8.4213,7.0768e-10,-0.59237,0,0,0.16667,-0,-0,0.66667
0.85397,0.03393,5.1238,-0.6991,-9.0315,8.1966,9.5523,-3.1841,-0.26214,12.736,-1.5789e-09,-0.13107,0,0,0.16667,-3.158e-15,0,0.66667
0.59583,0.3374,3.575,-0.2439,-7.4236,44.238,2.3251,-0.77504,-1.7891,3.1002,8.5998e-13,-0.89457,0,0,0.16667,-0,-0,0.66667
0.24017,0.436,1.441,-0.096,-4.2871,130.62,0.36891,-0.12297,-1.9673,0.49188,3.9294e-11,-0.98364,0,0,0.16667,-1.4803e-16,0,0.66667
0.18649,0.28082,1.119,-0.32877,-15.077,145.88,0.98102,-0.32701,-1.618,1.308,7.5528e-10,-0.80898,0,0,0.16667,-4.8726e-16,0,0.66667
0.74339,0.94737,4.4603,0.67106,14.332,20.416,-7.9817,2.6606,-0.39762,-10.642,9.0683e-13,-0.19881,0,0,0.16667,-0,-0,0.66667
0.23721,0.38557,1.4233,-0.17164,-7.6804,131.47,0.65146,-0.21715,-1.8951,0.86861,8.6125e-11,-0.94753,0,0,0.16667,-0,-0,0.66667
0.53949,0.81336,3.2369,0.47003,15.829,55.933,-4.0573,1.3524,-1.2145,-5.4097,-7.9758e-13,-0.60723,0,0,0.16667,-0,-0,0.66667
0.74928,0.94237,4.4957,0.66355,13.885,19.602,-7.955,2.6517,-0.43616,-10.607,-3.2094e-12,-0.21808,0,0,0.16667,-0,-0,0.66667
0.22825,0.064902,1.3695,-0.65265,-29.603,134.22,2.3835,-0.79449,-0.48533,3.1779,1.913e-11,-0.24267,0,0,0.16667,-0,-0,0.66667
0.1745,0.1187,1.047,-0.57195,-26.478,149.42,1.5969,-0.5323,-0.83723,2.1292,3.9736e-11,-0.41861,0,0,0.16667,-1.9737e-16,0,0.66667
0.039736,0.94292,0.23841,0.66438,31.756,188.77,-0.42239,0.1408,-0.42979,-0.56319,-1.6548e-06,-0.21489,0,0,0.16667,-0,-0,0.66667
0.14757,0.19773,0.88541,-0.45341,-21.122,157.14,1.0705,-0.35685,-1.2677,1.4274,3.0587e-09,-0.63387,0,0,0.16667,-0,-0,0.66667
0.85144,0.42452,5.1086,-0.11322,-1.4302,7.3334,1.5423,-0.51411,-1.9529,2.0564,-3.658e-10,-0.97646,0,0,0.16667,-1.579e-15,0,0.66667
0.10464,0.32075,0.62782,-0.26888,-12.628,169.61,0.45015,-0.15005,-1.7422,0.6002,4.5931e-09,-0.87112,0,0,0.16667,-0,-0,0.66667
0.22365,0.90258,1.3419,0.60387,27.412,135.48,-2.1608,0.72027,-0.70332,-2.8811,-3.5113e-11,-0.35166,0,0,0.16667,3.9475e-16,0,0.66667
0.032757,0.79283,0.19654,0.43924,20.893,190.81,-0.23021,0.076738,-1.3145,-0.30695,1.2606e-07,-0.65724,0,0,0.16667,-4.9343e-17,0,0.66667
0.67636,0.40079,4.0581,-0.14882,-3.7921,29.703,1.6104,-0.53681,-1.921,2.1472,2.905e-12,-0.96048,0,0,0.16667,-0,-0,0.66667
0.2317,0.71796,1.3902,0.32695,14.696,133.06,-1.2121,0.40402,-1.6212,-1.6161,-1.2913e-10,-0.8106,0,0,0.16667,-5.9212e-16,0,0.66667
0.41359,0.80115,2.4816,0.45172,17.806,84.887,-2.9893,0.99642,-1.2731,-3.9857,1.8114e-12,-0.63654,0,0,0.16667,-3.9475e-16,0,0.66667
0.1393,0.71115,0.83581,0.31672,14.756,159.49,-0.70592,0.23531,-1.6443,-0.94123,-3.2063e-09,-0.82213,0,0,0.16667,9.8686e-17,0,0.66667
0.37722,0.66142,2.2633,0.24214,9.8422,93.867,-1.4614,0.48714,-1.7923,-1.9486,1.6458e-12,-0.89613,0,0,0.16667,7.8949e-16,0,0.66667
0.42444,0.45268,2.5466,-0.070977,-2.7521,82,0.48201,-0.16067,-1.9819,0.64268,1.3545e-13,-0.99093,0,0,0.16667,-0,-0,0.66667
0.47296,0.58658,2.8378,0.12986,4.7656,70.444,-0.98274,0.32758,-1.9396,-1.3103,-3.9746e-13,-0.96981,0,0,0.16667,-0,-0,0.66667
0.42284,0.63929,2.5371,0.20893,8.1232,82.434,-1.4135,0.47117,-1.8455,-1.8847,9.0461e-13,-0.92275,0,0,0.16667,-0,-0,0.66667
0.10276,0.34249,0.61654,-0.23627,-11.097,170.15,0.38845,-0.12948,-1.8015,0.51794,-5.9457e-10,-0.90074,0,0,0.16667,-2.7139e-16,0,0.66667
0.77258,0.81601,4.6355,0.47402,9.0061,16.162,-5.8595,1.9532,-1.2006,-7.8127,5.9751e-11,-0.6003,0,0,0.16667,-0,-0,0.66667
0.13721,0.82864,0.82324,0.49296,23.053,160.16,-1.0822,0.36073,-1.1353,-1.4429,-4.3711e-09,-0.56767,0,0,0.16667,-1.9737e-16,0,0.66667
0.42429,0.023122,2.5458,-0.71532,-28.116,82.609,4.8561,-1.6187,-0.18095,6.4747,4.7384e-13,-0.090474,0,0,0.16667,-7.8949e-16,0,0.66667
0.27196,0.75338,1.6317,0.38008,16.73,121.9,-1.6538,0.55128,-1.486,-2.2051,-1.1078e-11,-0.74299,0,0,0.16667,-0,-0,0.66667
0.30101,0.57008,1.806,0.10512,4.5284,113.88,-0.50626,0.16875,-1.9603,-0.67501,5.0959e-13,-0.98013,0,0,0.16667,-0,-0,0.66667
0.67242,0.41213,4.0345,-0.1318,-3.3914,30.346,1.418,-0.47267,-1.9399,1.8907,2.6807e-12,-0.96994,0,0,0.16667,-0,-0,0.66667
0.51779,0.71978,3.1067,0.32968,11.427,60.453,-2.7312,0.91041,-1.615,-3.6416,-2.3803e-13,-0.80752,0,0,0.16667,-0,-0,0.66667
0.19009,0.16025,1.1405,-0.50962,-23.418,144.93,1.55,-0.51665,-1.0773,2.0666,3.095e-10,-0.53864,0,0,0.16667,3.9475e-16,0,0.66667
0.46913,0.18239,2.8148,-0.47641,-17.669,71.598,3.576,-1.192,-1.1949,4.7681,-5.4468e-13,-0.59743,0,0,0.16667,-1.9737e-16,0,0.66667
0.33954,0.93038,2.0372,0.64557,27.317,103.96,-3.5071,1.169,-0.51779,-4.6762,-4.5297e-13,-0.25889,0,0,0.16667,3.9475e-16,0,0.66667
0.7045,0.6643,4.227,0.24644,5.83,25.297,-2.7779,0.92596,-1.7849,-3.7039,-8.4044e-13,-0.89245,0,0,0.16667,-1.579e-15,0,0.66667
0.2261,0.091557,1.3566,-0.61266,-27.786,134.8,2.2163,-0.73878,-0.66512,2.9551,5.0702e-11,-0.33256,0,0,0.16667,5.4278e-16,0,0.66667
0.84499,0.34797,5.0699,-0.22804,-3.0098,7.9974,3.0831,-1.0277,-1.8165,4.1108,-2.0903e-09,-0.90827,0,0,0.16667,-0,-0,0.66667
0.52623,0.059024,3.1574,-0.66146,-22.872,59.076,5.5693,-1.8564,-0.44418,7.4258,-4.3876e-13,-0.22209,0,0,0.16667,-0,-0,0.66667
0.50062,0.94457,3.0037,0.66685,23.905,64.705,-5.3414,1.7805,-0.42034,-7.1219,3.082e-13,-0.21017,0,0,0.16667,-0,-0,0.66667
0.25369,0.24199,1.5221,-0.38701,-17.215,126.95,1.5709,-0.52362,-1.4671,2.0945,3.5311e-11,-0.73357,0,0,0.16667,3.9475e-16,0,0.66667
0.18616,0.96162,1.1169,0.69243,32.025,146.16,-2.0624,0.68747,-0.29622,-2.7499,-4.8979e-10,-0.14811,0,0,0.16667,-0,-0,0.66667
0.47182,0.81109,2.8309,0.46664,17.246,70.963,-3.5227,1.1742,-1.2267,-4.6969,-2.9754e-13,-0.61336,0,0,0.16667,7.8949e-16,0,0.66667
0.98182,0.50909,5.8909,0.01364,0.015625,0.24956,-0.21427,0.071426,-1.9994,-0.28569,3.285e-06,-0.99971,0,0,0.16667,-0,-0,0.66667
0.13291,0.039477,0.79744,-0.69078,-32.511,161.49,1.469,-0.48965,-0.30218,1.9586,-2.0345e-09,-0.15109,0,0,0.16667,-0,-0,0.66667
0.28346,0.057857,1.7008,-0.66321,-29.192,118.97,3.0079,-1.0026,-0.43688,4.0106,-3.4568e-12,-0.21844,0,0,0.16667,-3.9475e-16,0,0.66667
0.80064,0.10194,4.8038,-0.59708,-10.161,13.141,7.6488,-2.5496,-0.73204,10.198,-3.3515e-10,-0.36602,0,0,0.16667,-0,-0,0.66667
0.66478,0.52854,3.9887,0.042809,1.1219,31.6,-0.45534,0.15178,-1.9931,-0.60712,-7.539e-13,-0.99656,0,0,0.16667,-7.8949e-16,0,0.66667
0.27876,0.71308,1.6726,0.31962,13.997,120,-1.4256,0.47519,-1.6373,-1.9008,-5.5679e-12,-0.81864,0,0,0.16667,-3.9475e-16,0,0.66667
0.31465,0.99113,1.8879,0.73669,31.845,110.65,-3.7088,1.2363,-0.070663,-4.945,-1.3887e-12,-0.035332,0,0,0.16667,1.1842e-15,0,0.66667
0.41995,0.23498,2.5197,-0.39753,-15.55,83.272,2.6711,-0.89037,-1.4382,3.5615,-5.3624e-13,-0.71911,0,0,0.16667,-0,-0,0.66667
0.60279,0.77115,3.6167,0.40672,12.262,43.066,-3.9227,1.3076,-1.4106,-5.2302,-1.4171e-12,-0.70529,0,0,0.16667,-0,-0,0.66667
0.71934,0.47355,4.316,-0.039673,-0.89584,22.952,0.45661,-0.1522,-1.9962,0.60881,-2.3935e-12,-0.99809,0,0,0.16667,-0,-0,0.66667
0.8573,0.41572,5.1438,-0.12642,-1.5366,6.8351,1.734,-0.57801,-1.9435,2.312,-6.4339e-10,-0.97174,0,0,0.16667,-0,-0,0.66667
0.68111,0.25069,4.0867,-0.37396,-9.4589,29.138,4.0753,-1.3584,-1.5029,5.4338,4.615e-12,-0.75144,0,0,0.16667,1.579e-15,0,0.66667
0.23698,0.83918,1.4219,0.50878,22.89,131.68,-1.9291,0.64304,-1.0802,-2.5722,-5.0527e-11,-0.54012,0,0,0.16667,4.9343e-16,0,0.66667
0.92572,0.51923,5.5543,0.028851,0.18129,2.1831,-0.42733,0.14244,-1.9963,-0.56978,5.6478e-08,-0.99817,0,0,0.16667,3.158e-15,0,0.66667
0.7812,0.11394,4.6872,-0.57909,-10.697,15.341,7.2381,-2.4127,-0.80915,9.6508,-1.1462e-10,-0.40457,0,0,0.16667,-0,-1.8053e-16,0.66667
0.30738,0.49613,1.8443,-0.0057996,-0.24869,112.15,0.028523,-0.0095076,-1.9997,0.03803,-2.2693e-13,-0.99983,0,0,0.16667,-4.0243e-16,0,0.66667
0.30497,0.48863,1.8298,-0.01706,-0.73277,112.8,0.083243,-0.027748,-1.9975,0.11099,4.9936e-13,-0.99877,0,0,0.16667,-3.9475e-16,0,0.66667
0.88117,0.86905,5.287,0.55357,5.7928,5.6359,-7.8046,2.6015,-0.90967,-10.406,1.9012e-08,-0.45483,0,0,0.16667,-0,-0,0.66667
0.12608,0.013482,0.75647,-0.72978,-34.45,163.49,1.4721,-0.49072,-0.10706,1.9629,-3.0148e-09,-0.053532,0,0,0.16667,3.9475e-16,0,0.66667
0.63346,0.53289,3.8008,0.049335,1.3892,37.085,-0.50003,0.16668,-1.9912,-0.6667,-1.8523e-12,-0.99559,0,0,0.16667,1.579e-15,0,0.66667
0.27771,0.88961,1.6663,0.58441,25.755,120.47,-2.5968,0.8656,-0.78497,-3.4624,3.7526e-14,-0.39249,0,0,0.16667,-0,-0,0.66667
0.8272,0.52638,4.9632,0.039564,0.5766,9.5765,-0.52363,0.17454,-1.996,-0.69818,-1.0733e-10,-0.99799,0,0,0.16667,-0,-0,0.66667
0.36452,0.116,2.1871,-0.576,-23.836,97.391,3.3594,-1.1198,-0.81946,4.4793,-5.5e-13,-0.40973,0,0,0.16667,-0,-0,0.66667
0.73337,0.36189,4.4002,-0.20717,-4.4843,21.006,2.4309,-0.81029,-1.8481,3.2412,-2.0115e-11,-0.92406,0,0,0.16667,-0,-0,0.66667
0.19242,0.32021,1.1545,-0.26968,-12.328,144.17,0.83025,-0.27675,-1.7407,1.107,5.8819e-10,-0.87036,0,0,0.16667,3.9475e-16,0,0.66667
0.48145,0.39505,2.8887,-0.15742,-5.7169,68.496,1.2126,-0.40421,-1.9116,1.6168,4.6718e-13,-0.95581,0,0,0.16667,-0,-0,0.66667
0.80359,0.072667,4.8216,-0.641,-10.798,12.932,8.2417,-2.7472,-0.53781,10.989,-1.0085e-10,-0.26891,0,0,0.16667,-0,-0,0.66667
0.39699,0.93731,2.3819,0.65596,26.434,89.255,-4.1665,1.3888,-0.47032,-5.5554,4.1611e-13,-0.23516,0,0,0.16667,-8.5616e-16,0,0.66667
0.16157,0.78485,0.96944,0.42728,19.806,153.08,-1.1046,0.3682,-1.3506,-1.4728,-1.6496e-09,-0.67531,0,0,0.16667,-0,-0,0.66667
0.64898,0.91393,3.8939,0.6209,17.137,34.984,-6.4472,2.1491,-0.62818,-8.5963,-1.0938e-12,-0.31409,0,0,0.16667,-0,-0,0.66667
0.75333,0.81254,4.52,0.46881,9.5658,18.622,-5.6506,1.8835,-1.2197,-7.5342,5.5556e-11,-0.60984,0,0,0.16667,-3.158e-15,0,0.66667
0.28019,0.73733,1.6812,0.35599,15.585,119.63,-1.5959,0.53198,-1.5501,-2.1279,-4.3769e-12,-0.77505,0,0,0.16667,-3.3181e-16,0,0.66667
0.45136,0.10988,2.7082,-0.58519,-22.233,75.911,4.2261,-1.4087,-0.78264,5.6348,-6.7057e-13,-0.39132,0,0,0.16667,-7.8949e-16,-2.4973e-16,0.66667
0.90045,0.57259,5.4027,0.10888,0.92658,3.6341,-1.5687,0.52288,-1.9567,-2.0915,9.9356e-09,-0.97836,0,0,0.16667,-0,-0,0.66667
0.87199,0.004456,5.2319,-0.74332,-8.5425,6.8912,10.371,-3.4569,-0.035921,13.827,5.7256e-09,-0.017961,0,0,0.16667,-0,-0,0.66667
0.70719,0.87298,4.2431,0.55947,13.279,25.362,-6.3304,2.1101,-0.88753,-8.4405,-4.3601e-12,-0.44376,0,0,0.16667,7.8949e-16,0,0.66667
0.5909,0.40418,3.5454,-0.14373,-4.4095,45.137,1.3589,-0.45297,-1.9275,1.8119,5.6821e-13,-0.96373,0,0,0.16667,9.8686e-17,0,0.66667
0.81738,0.75078,4.9043,0.37617,5.8284,10.881,-4.9196,1.6399,-1.4973,-6.5595,8.9674e-10,-0.74864,0,0,0.16667,-3.158e-15,0,0.66667
0.90764,0.010909,5.4459,-0.73364,-6.1857,4.4686,10.654,-3.5514,-0.08691,14.205,5.4228e-08,-0.043455,0,0,0.16667,-0,-0,0.66667
0.0025076,0.92261,0.015045,0.63392,30.322,199.76,-0.02543,0.0084781,-0.57101,-0.033907,1.9089e-06,-0.28551,0,0,0.16667,-0,-0,0.66667
0.39723,0.48711,2.3834,-0.019334,-0.77033,88.739,0.12288,-0.04096,-1.9972,0.16384,4.35e-14,-0.99862,0,0,0.16667,-3.9475e-16,0,0.66667
0.56141,0.24989,3.3685,-0.37516,-12.168,51.239,3.3699,-1.1233,-1.5019,4.4932,7.8626e-13,-0.75094,0,0,0.16667,-1.2953e-16,0,0.66667
0.73392,0.44019,4.4035,-0.089712,-1.9351,20.859,1.0535,-0.35116,-1.9736,1.4046,-1.3774e-11,-0.9868,0,0,0.16667,-0,-0,0.66667
0.087473,0.34063,0.52484,-0.23905,-11.262,174.64,0.33457,-0.11152,-1.7965,0.4461,6.8173e-09,-0.89824,0,0,0.16667,-2.4672e-17,0,0.66667
0.39975,0.93919,2.3985,0.65879,26.481,88.568,-4.2137,1.4046,-0.45679,-5.6182,3.7526e-13,-0.22839,0,0,0.16667,-0,-0,0.66667
0.27962,0.30149,1.6777,-0.29777,-13.029,119.76,1.3322,-0.44407,-1.6852,1.7763,4.578e-12,-0.84259,0,0,0.16667,-0,-0,0.66667
0.42351,0.045443,2.5411,-0.68183,-26.789,82.747,4.6202,-1.5401,-0.34733,6.1603,-6.5103e-13,-0.17366,0,0,0.16667,7.8949e-16,0,0.66667
0.49798,0.49162,2.9879,-0.012567,-0.44628,64.705,0.10013,-0.033375,-1.9999,0.1335,6.1756e-16,-0.99993,0,0,0.16667,1.1842e-15,0,0.66667
0.66002,0.99133,3.9601,0.73699,19.951,33.363,-7.7828,2.5943,-0.068344,-10.377,-3.0953e-13,-0.034172,0,0,0.16667,-0,-0,0.66667
0.49624,0.47526,2.9774,-0.037117,-1.3213,65.099,0.2947,-0.098234,-1.9949,0.39293,6.5561e-13,-0.99746,0,0,0.16667,-0,-0,0.66667
0.62047,0.63776,3.7228,0.20664,5.9889,39.533,-2.0514,0.68381,-1.8472,-2.7352,-2.0839e-12,-0.9236,0,0,0.16667,-0,-0,0.66667
0.58244,0.67442,3.4946,0.26162,8.1638,46.881,-2.4381,0.81269,-1.7557,-3.2508,-1.4382e-12,-0.87786,0,0,0.16667,7.8949e-16,0,0.66667
0.42833,0.77768,2.57,0.41652,16.157,81.242,-2.8546,0.95152,-1.3827,-3.8061,1.6853e-12,-0.69135,0,0,0.16667,-7.8949e-16,0,0.66667
0.0049764,0.32716,0.029858,-0.25926,-12.311,199.03,0.020643,-0.0068809,-1.7599,0.027524,4.3914e-08,-0.87993,0,0,0.16667,-0,-0,0.66667
0.19452,0.8919,1.1671,0.58785,27.017,143.71,-1.8296,0.60985,-0.76979,-2.4394,-2.1531e-10,-0.3849,0,0,0.16667,-3.9475e-16,0,0.66667
0.32021,0.038666,1.9212,-0.692,-29.75,109.12,3.5453,-1.1818,-0.29629,4.7271,-2.5897e-12,-0.14815,0,0,0.16667,-0,-0,0.66667
0.14698,0.086344,0.88187,-0.62048,-29.026,157.38,1.4592,-0.48639,-0.63014,1.9455,-1.2721e-09,-0.31507,0,0,0.16667,-0,-0,0.66667
0.59866,0.59796,3.592,0.14693,4.4427,43.628,-1.4074,0.46914,-1.923,-1.8766,-6.5981e-13,-0.9615,0,0,0.16667,-1.579e-15,0,0.66667
0.6115,0.027467,3.669,-0.7088,-21.256,41.961,6.9349,-2.3116,-0.21469,9.2465,-5.0537e-13,-0.10735,0,0,0.16667,-0,-0,0.66667
0.50009,0.58909,3.0006,0.13363,4.7347,64.253,-1.0693,0.35642,-1.9387,-1.4257,-6.9533e-13,-0.96933,0,0,0.16667,1.1842e-15,0,0.66667
0.32085,0.72846,1.9251,0.3427,14.598,108.64,-1.7593,0.58642,-1.5811,-2.3457,5.0736e-12,-0.79057,0,0,0.16667,-0,-0,0.66667
0.65326,0.81442,3.9195,0.47163,12.811,33.959,-4.9295,1.6432,-1.21,-6.5727,-3.5429e-12,-0.60501,0,0,0.16667,1.579e-15,0,0.66667
0.19028,0.88368,1.1417,0.57551,26.486,144.91,-1.7522,0.58406,-0.82235,-2.3362,-3.5481e-10,-0.41117,0,0,0.16667,-0,-0,0.66667
0.005881,0.86649,0.035286,0.54974,26.238,198.76,-0.051728,0.017242,-0.92446,-0.06897,-2.8276e-07,-0.46223,0,0,0.16667,-6.1679e-18,-2.0906e-16,0.66667
0.73494,0.94806,4.4097,0.67209,14.758,21.584,-7.9032,2.6344,-0.39507,-10.538,1.9402e-12,-0.19753,0,0,0.16667,-0,-0,0.66667
0.4435,0.12524,2.661,-0.56214,-21.532,77.749,3.989,-1.3297,-0.87671,5.3186,-1.9003e-12,-0.43835,0,0,0.16667,-0,-0,0.66667
0.69784,0.71755,4.187,0.32633,7.8815,26.412,-3.6436,1.2145,-1.6216,-4.8582,-4.2903e-12,-0.81079,0,0,0.16667,9.8686e-16,0,0.66667
0.18504,0.80562,1.1103,0.45842,21.083,146.35,-1.3572,0.45242,-1.2532,-1.8097,-8.274e-10,-0.62658,0,0,0.16667,-9.8686e-17,0,0.66667
0.06262,0.48742,0.37572,-0.018872,-0.89132,181.96,0.018909,-0.0063031,-2.0001,0.025212,-2.6187e-07,-1,0,0,0.16667,-0,-0,0.66667
0.37811,0.25503,2.2687,-0.36746,-14.954,93.716,2.223,-0.74101,-1.5202,2.9641,-1.8996e-12,-0.7601,0,0,0.16667,-0,-0,0.66667
0.696,0.35236,4.176,-0.22147,-5.363,26.594,2.4662,-0.82208,-1.8244,3.2883,2.514e-12,-0.91222,0,0,0.16667,-0,-0,0.66667
0.10282,0.38054,0.61691,-0.17919,-8.4117,170.13,0.29479,-0.098262,-1.8851,0.39305,5.6275e-09,-0.94254,0,0,0.16667,-0,-0,0.66667
0.19583,0.081027,1.175,-0.62846,-28.9,143.36,1.9692,-0.65639,-0.59422,2.6256,2.5692e-10,-0.29711,0,0,0.16667,-1.9737e-16,0,0.66667
0.45395,0.55058,2.7237,0.07587,2.8475,74.891,-0.55106,0.18369,-1.9804,-0.73475,-1.4788e-13,-0.99021,0,0,0.16667,-0,-0,0.66667
0.62115,0.86793,3.7269,0.5519,16.123,39.841,-5.485,1.8283,-0.91672,-7.3133,-6.3993e-13,-0.45836,0,0,0.16667,-1.1842e-15,0,0.66667
0.75012,0.59935,4.5007,0.14902,3.0447,18.653,-1.7886,0.5962,-1.923,-2.3848,4.6086e-11,-0.96152,0,0,0.16667,-0,-0,0.66667
0.10974,0.20433,0.65841,-0.44351,-20.864,168.15,0.77869,-0.25956,-1.3018,1.0383,8.9463e-09,-0.65088,0,0,0.16667,-0,-0,0.66667
0.62462,0.058156,3.7477,-0.66277,-19.316,39.426,6.6237,-2.2079,-0.44019,8.8316,-5.4579e-13,-0.2201,0,0,0.16667,1.1842e-15,9.4488e-17,0.66667
0.38736,0.64797,2.3242,0.22195,8.937,91.278,-1.3756,0.45853,-1.8247,-1.8341,1.4877e-12,-0.91233,0,0,0.16667,-0,-0,0.66667
0.67009,0.59954,4.0205,0.1493,3.865,30.743,-1.6007,0.53358,-1.9216,-2.1343,-2.8852e-12,-0.96081,0,0,0.16667,-1.579e-15,0,0.66667
0.20356,0.092263,1.2214,-0.61161,-28.021,141.16,1.992,-0.66399,-0.67247,2.656,3.0624e-10,-0.33623,0,0,0.16667,4.9343e-16,0,0.66667
0.52792,0.88719,3.1675,0.58078,19.972,58.571,-4.9057,1.6352,-0.80019,-6.5409,-8.9706e-14,-0.4001,0,0,0.16667,7.8949e-16,0,0.66667
0.17216,0.54261,1.033,0.063922,2.9403,149.95,-0.17608,0.058693,-1.9868,-0.23477,-2.6528e-10,-0.99339,0,0,0.16667,-0,-0,0.66667
0.018681,0.21477,0.11209,-0.42784,-20.361,194.97,0.12788,-0.042627,-1.3496,0.17051,-7.3835e-08,-0.67482,0,0,0.16667,3.7007e-17,0,0.66667
0.48695,0.3608,2.9217,-0.2088,-7.5336,67.261,1.6268,-0.54228,-1.8448,2.1691,5.5544e-13,-0.92238,0,0,0.16667,-7.8949e-16,0,0.66667
0.18418,0.015697,1.1051,-0.72646,-33.661,146.75,2.1408,-0.71358,-0.12302,2.8543,6.0555e-10,-0.061511,0,0,0.16667,-0,-1.9737e-16,0.66667
0.63834,0.33396,3.8301,-0.24906,-6.9542,36.308,2.5438,-0.84793,-1.7796,3.3917,2.9488e-12,-0.8898,0,0,0.16667,-0,-0,0.66667
0.53657,0.61863,3.2194,0.17794,5.9841,56.282,-1.5276,0.50922,-1.8868,-2.0369,-1.6731e-13,-0.94339,0,0,0.16667,-3.9475e-16,0,0.66667
0.77495,0.14834,4.6497,-0.52749,-9.9587,15.981,6.5405,-2.1802,-1.0096,8.7206,-8.2188e-11,-0.50482,0,0,0.16667,-0,-0,0.66667
0.39296,0.65092,2.3578,0.22637,9.068,89.866,-1.4233,0.47443,-1.8184,-1.8977,1.5867e-12,-0.90922,0,0,0.16667,-1.9737e-16,0,0.66667
0.98945,0.018834,5.9367,-0.72175,-0.69585,1.496,11.426,-3.8087,-0.14675,15.235,-1.5008e-05,-0.073377,0,0,0.16667,3.158e-15,0,0.66667
0.51521,0.15826,3.0913,-0.5126,-17.914,61.229,4.2256,-1.4085,-1.0681,5.6341,-2.4114e-13,-0.53406,0,0,0.16667,-0,-1.7275e-16,0.66667
0.47882,0.23182,2.8729,-0.40227,-14.715,69.274,3.0819,-1.0273,-1.4234,4.1092,-7.534e-13,-0.71169,0,0,0.16667,7.8949e-16,0,0.66667
0.74944,0.96057,4.4967,0.69086,14.475,19.654,-8.2842,2.7614,-0.30434,-11.046,-3.3546e-12,-0.15217,0,0,0.16667,-0,-0,0.66667
0.57269,0.078966,3.4361,-0.63155,-20.265,49.338,5.7869,-1.929,-0.58058,7.7159,1.6831e-13,-0.29029,0,0,0.16667,-0,-0,0.66667
0.36247,0.14557,2.1748,-0.53165,-22.012,97.874,3.0833,-1.0278,-0.99472,4.111,-1.6733e-12,-0.49736,0,0,0.16667,3.9475e-16,0,0.66667
0.48924,0.76299,2.9355,0.39448,14.236,66.884,-3.088,1.0293,-1.4456,-4.1173,6.6125e-13,-0.72281,0,0,0.16667,-7.8949e-16,0,0.66667
0.18914,0.049393,1.1348,-0.67591,-31.209,145.3,2.0455,-0.68182,-0.37595,2.7273,1.8052e-10,-0.18798,0,0,0.16667,-0,-0,0.66667
0.39358,0.03785,2.3615,-0.69323,-28.061,90.16,4.3655,-1.4552,-0.29149,5.8206,-1.632e-12,-0.14575,0,0,0.16667,7.8949e-16,0,0.66667
0.029962,0.78925,0.17977,0.43387,20.639,191.63,-0.20799,0.069331,-1.3316,-0.27732,1.4854e-07,-0.66579,0,0,0.16667,-0,-0,0.66667
0.46253,0.54319,2.7752,0.064779,2.4067,72.865,-0.4794,0.1598,-1.9838,-0.6392,3.377e-13,-0.99188,0,0,0.16667,-0,-0,0.66667
0.27447,0.1732,1.6468,-0.49019,-21.593,121.28,2.1527,-0.71758,-1.1442,2.8703,-5.9952e-13,-0.57208,0,0,0.16667,-0,-0,0.66667
0.52672,0.24332,3.1603,-0.38502,-13.188,58.565,3.2448,-1.0816,-1.4724,4.3263,-8.4377e-14,-0.73622,0,0,0.16667,-3.9475e-16,0,0.66667
0.029272,0.34476,0.17563,-0.23287,-11.045,191.83,0.10906,-0.036355,-1.8088,0.14542,5.9376e-09,-0.90439,0,0,0.16667,-9.8686e-17,0,0.66667
0.55509,0.75952,3.3305,0.38928,12.762,52.56,-3.4574,1.1525,-1.4599,-4.6098,-7.3119e-13,-0.72996,0,0,0.16667,-0,-0,0.66667
0.293,0.15396,1.758,-0.51905,-22.618,116.25,2.4333,-0.8111,-1.0425,3.2444,-2.7722e-12,-0.52126,0,0,0.16667,-9.8686e-17,0,0.66667
0.57749,0.82766,3.4649,0.49149,15.56,48.135,-4.5413,1.5138,-1.142,-6.0551,-2.2693e-13,-0.57101,0,0,0.16667,-7.8949e-16,0,0.66667
0.73277,0.38579,4.3966,-0.17131,-3.7129,21.063,2.0085,-0.6695,-1.8961,2.678,-1.8404e-11,-0.94806,0,0,0.16667,-0,-0,0.66667
0.44034,0.74866,2.642,0.37299,14.268,78.3,-2.6279,0.87596,-1.5064,-3.5038,-2.7756e-13,-0.75321,0,0,0.16667,1.1349e-15,0,0.66667
0.66316,0.62919,3.9789,0.19379,5.1057,31.938,-2.0562,0.68541,-1.8659,-2.7416,-3.9369e-12,-0.93294,0,0,0.16667,-0,-0,0.66667
0.23891,0.21644,1.4335,-0.42534,-19.083,131.09,1.6259,-0.54197,-1.3569,2.1679,6.4081e-11,-0.67847,0,0,0.16667,3.9475e-16,0,0.66667
0.9986,0.98727,5.9916,0.7309,0.076783,1.4351,-11.678,3.8926,-0.10096,-15.571,-1.1053e-06,-0.050479,0,0,0.16667,-1.579e-15,0,0.66667
0.24288,0.21943,1.4573,-0.42085,-18.841,129.98,1.6355,-0.54515,-1.3703,2.1806,4.1008e-11,-0.68514,0,0,0.16667,-0,-0,0.66667
0.94083,0.90488,5.645,0.60732,3.2258,2.4168,-9.1421,3.0474,-0.68943,-12.189,-4.1866e-07,-0.34471,0,0,0.16667,-6.9081e-16,0,0.66667
0.21722,0.6298,1.3033,0.1947,8.7986,137.1,-0.67667,0.22556,-1.8664,-0.90223,-1.8033e-10,-0.93319,0,0,0.16667,-0,-0,0.66667
0.49756,0.75145,2.9854,0.37717,13.458,64.986,-3.0027,1.0009,-1.4954,-4.0036,6.1395e-13,-0.74772,0,0,0.16667,-1.579e-15,0,0.66667
0.82118,0.56522,4.9271,0.097829,1.4732,10.202,-1.2854,0.42845,-1.9656,-1.7138,1.8972e-10,-0.98281,0,0,0.16667,-0,-0,0.66667
0.71659,0.62571,4.2995,0.18856,4.3002,23.424,-2.1619,0.72064,-1.8751,-2.8825,4.5257e-12,-0.93756,0,0,0.16667,-0,-0,0.66667
0.70558,0.075836,4.2335,-0.63625,-15.232,25.779,7.1828,-2.3943,-0.56054,9.577,1.9988e-12,-0.28027,0,0,0.16667,-0,-0,0.66667
0.44044,0.58317,2.6426,0.12475,4.7556,78.13,-0.87912,0.29304,-1.9444,-1.1722,2.7728e-13,-0.97222,0,0,0.16667,-0,-0,0.66667
0.75418,0.18171,4.5251,-0.47743,-9.7164,18.526,5.761,-1.9203,-1.1893,7.6814,-4.6134e-11,-0.59466,0,0,0.16667,-3.9475e-16,0,0.66667
0.91995,0.63514,5.5197,0.20271,1.3857,2.5773,-2.9837,0.99456,-1.8542,-3.9782,-2.5823e-09,-0.92712,0,0,0.16667,-0,-0,0.66667
0.44135,0.94394,2.6481,0.66591,25.655,78.414,-4.7024,1.5675,-0.42312,-6.2699,-8.6375e-13,-0.21156,0,0,0.16667,-0,-0,0.66667
0.52797,0.39689,3.1678,-0.15466,-5.268,58.12,1.3065,-0.4355,-1.9147,1.742,-2.4414e-13,-0.95733,0,0,0.16667,7.8949e-16,0,0.66667
0.066036,0.1883,0.39621,-0.46756,-22.178,180.99,0.49401,-0.16467,-1.2236,0.65868,2.0745e-08,-0.6118,0,0,0.16667,-0,-0,0.66667
0.39077,0.48207,2.3446,-0.026899,-1.0783,90.365,0.16818,-0.056061,-1.9987,0.22424,2.1907e-13,-0.99937,0,0,0.16667,-0,-0,0.66667
0.46724,0.66215,2.8034,0.24322,8.9988,71.83,-1.8183,0.60609,-1.7907,-2.4243,-4.6241e-13,-0.89535,0,0,0.16667,-0,-0,0.66667
0.89514,0.65452,5.3708,0.23177,2.0886,4.0757,-3.3195,1.1065,-1.8093,-4.426,-2.8695e-10,-0.90466,0,0,0.16667,1.9737e-16,0,0.66667
0.11056,0.3013,0.66334,-0.29806,-13.985,167.88,0.52724,-0.17575,-1.6848,0.70298,5.176e-09,-0.84242,0,0,0.16667,-9.8686e-17,0,0.66667
0.73114,0.51735,4.3868,0.026019,0.56612,21.24,-0.30437,0.10146,-1.9971,-0.40583,3.0274e-12,-0.99854,0,0,0.16667,-0,-0,0.66667
0.54547,0.94781,3.2728,0.67172,22.571,55.005,-5.8624,1.9541,-0.39634,-7.8166,-1.3545e-13,-0.19817,0,0,0.16667,-0,-0,0.66667
0.60654,0.59221,3.6392,0.13832,4.1189,42.114,-1.3423,0.44744,-1.933,-1.7898,-1.1661e-12,-0.9665,0,0,0.16667,-2.9606e-16,0,0.66667
0.029783,0.4091,0.1787,-0.13635,-6.462,191.67,0.064973,-0.021658,-1.9354,0.086631,1.4008e-07,-0.96771,0,0,0.16667,9.8686e-17,0,0.66667
0.14675,0.22104,0.88048,-0.41844,-19.485,157.36,0.98249,-0.3275,-1.3773,1.31,2.1666e-09,-0.68864,0,0,0.16667,-0,-0,0.66667
0.28398,0.21564,1.7039,-0.42655,-18.655,118.64,1.9381,-0.64604,-1.3539,2.5841,-1.2245e-12,-0.67694,0,0,0.16667,1.9737e-16,0,0.66667
0.004872,0.14516,0.029232,-0.53225,-25.393,199.06,0.04149,-0.01383,-0.99175,0.055321,3.8941e-07,-0.49587,0,0,0.16667,-0,3.6143e-16,0.66667
0.66916,0.64221,4.0149,0.21332,5.54,30.94,-2.2839,0.7613,-1.8379,-3.0452,-4.1567e-12,-0.91896,0,0,0.16667,-2.9501e-18,0,0.66667
0.87026,0.40426,5.2215,-0.14361,-1.5919,5.7889,1.9996,-0.66654,-1.9269,2.6662,-5.7891e-10,-0.96344,0,0,0.16667,1.579e-15,0,0.66667
0.54697,0.56226,3.2818,0.093392,3.088,54.046,-0.81732,0.27244,-1.972,-1.0898,-2.1305e-13,-0.98598,0,0,0.16667,3.8241e-16,0,0.66667
0.54316,0.57776,3.259,0.11664,3.8807,54.855,-1.0137,0.3379,-1.9509,-1.3516,-4.1345e-13,-0.97544,0,0,0.16667,7.8949e-16,0,0.66667
0.61573,0.47887,3.6944,-0.031693,-0.92609,40.348,0.31223,-0.10408,-1.9952,0.41631,7.7544e-13,-0.9976,0,0,0.16667,-0,-0,0.66667
0.30218,0.58409,1.8131,0.12614,5.4303,113.56,-0.60987,0.20329,-1.9424,-0.81316,6.774e-13,-0.97122,0,0,0.16667,-0,-0,0.66667
0.36673,0.30941,2.2004,-0.28588,-11.734,96.579,1.6775,-0.55916,-1.709,2.2366,-2.8605e-12,-0.85449,0,0,0.16667,-4.8354e-16,0,0.66667
0.57494,0.057366,3.4496,-0.66395,-21.251,48.951,6.1077,-2.0359,-0.43285,8.1436,-5.862e-14,-0.21643,0,0,0.16667,3.9475e-16,0,0.66667
0.80922,0.8387,4.8553,0.50805,8.2571,11.995,-6.578,2.1927,-1.0825,-8.7706,3.6947e-10,-0.54124,0,0,0.16667,-1.579e-15,0,0.66667
0.2016,0.013761,1.2096,-0.72936,-33.563,141.8,2.3526,-0.78419,-0.10895,3.1368,-2.335e-10,-0.054473,0,0,0.16667,-7.8949e-16,1.9456e-16,0.66667
0.32752,0.86471,1.9651,0.54707,23.293,107.02,-2.8668,0.95561,-0.93704,-3.8224,2.8031e-12,-0.46852,0,0,0.16667,-3.9475e-16,1.9576e-16,0.66667
0.74292,0.040584,4.4575,-0.68912,-14.759,20.529,8.1914,-2.7305,-0.31025,10.922,-1.9904e-12,-0.15513,0,0,0.16667,-0,-0,0.66667
0.34092,0.65421,2.0455,0.23131,9.6905,103.27,-1.2618,0.42059,-1.8107,-1.6823,3.063e-12,-0.90535,0,0,0.16667,-9.8686e-17,0,0.66667
0.047611,0.94025,0.28567,0.66037,31.54,186.45,-0.50305,0.16768,-0.45146,-0.67074,4.0215e-09,-0.22573,0,0,0.16667,-0,-0,0.66667
0.15636,0.26646,0.93814,-0.35032,-16.244,154.56,0.87639,-0.29213,-1.565,1.1685,2.0234e-09,-0.78248,0,0,0.16667,-0,-0,0.66667
0.19386,0.58058,1.1632,0.12086,5.5147,143.73,-0.3749,0.12497,-1.9467,-0.49987,-3.4028e-10,-0.97333,0,0,0.16667,-1.9737e-16,0,0.66667
0.49511,0.78932,2.9707,0.43398,15.556,65.599,-3.4379,1.146,-1.3296,-4.5839,-2.3581e-13,-0.6648,0,0,0.16667,-0,-0,0.66667
0.63512,0.63286,3.8107,0.19929,5.599,36.848,-2.0251,0.67505,-1.8579,-2.7002,-3.2871e-12,-0.92896,0,0,0.16667,1.579e-15,0,0.66667
0.88022,0.0020914,5.2813,-0.74686,-8.0701,6.2944,10.518,-3.5062,-0.016755,14.025,-1.809e-08,-0.0083774,0,0,0.16667,-0,-0,0.66667
0.90254,0.40366,5.4152,-0.14451,-1.205,3.5256,2.0868,-0.6956,-1.9262,2.7824,1.416e-09,-0.9631,0,0,0.16667,1.9737e-16,0,0.66667
0.30716,0.062185,1.843,-0.65672,-28.459,112.56,3.2275,-1.0758,-0.46693,4.3033,-2.7625e-12,-0.23347,0,0,0.16667,7.4015e-17,0,0.66667
0.75338,0.33584,4.5203,-0.24625,-4.9829,18.295,2.9683,-0.98942,-1.7842,3.9577,-6.7202e-11,-0.89211,0,0,0.16667,-0,-0,0.66667
0.28243,0.7144,1.6946,0.3216,14.052,119,-1.4532,0.48441,-1.6337,-1.9377,-4.1371e-12,-0.81686,0,0,0.16667,-0,-0,0.66667
0.36858,0.63641,2.2115,0.20461,8.3766,96.065,-1.2066,0.40221,-1.8498,-1.6088,2.5902e-12,-0.92491,0,0,0.16667,-0,-0,0.66667
0.29273,0.73827,1.7564,0.3574,15.524,116.21,-1.6739,0.55798,-1.545,-2.2319,1.9585e-12,-0.77251,0,0,0.16667,-0,-0,0.66667
0.41369,0.29463,2.4821,-0.30806,-12.107,84.742,2.039,-0.67968,-1.6611,2.7187,-9.9254e-13,-0.83054,0,0,0.16667,-7.8949e-16,0,0.66667
0.21472,0.87385,1.2883,0.56078,25.532,137.97,-1.9265,0.64218,-0.88248,-2.5687,-2.7932e-10,-0.44124,0,0,0.16667,-3.9475e-16,0,0.66667
0.31899,0.42615,1.9139,-0.11077,-4.7127,109.05,0.56534,-0.18845,-1.955,0.75378,-2.9091e-12,-0.97752,0,0,0.16667,-0,-0,0.66667
0.12192,0.71705,0.73152,0.32558,15.241,164.56,-0.63511,0.2117,-1.624,-0.84681,-5.0074e-09,-0.812,0,0,0.16667,2.2204e-16,0,0.66667
0.96302,0.1153,5.7781,-0.57705,-1.8734,1.5585,8.8914,-2.9638,-0.81495,11.855,-2.1382e-07,-0.40747,0,0,0.16667,7.8949e-16,0,0.66667
0.50398,0.67603,3.0239,0.26404,9.3199,63.452,-2.1292,0.70972,-1.7514,-2.8389,-4.9227e-13,-0.8757,0,0,0.16667,-0,-0,0.66667
0.9231,0.88493,5.5386,0.5774,3.9615,3.1337,-8.528,2.8427,-0.81537,-11.371,1.4925e-08,-0.40768,0,0,0.16667,-0,-0,0.66667
0.74616,0.9877,4.477,0.73155,15.544,20.209,-8.7336,2.9112,-0.096487,-11.645,4.1744e-13,-0.048244,0,0,0.16667,-7.8949e-16,0,0.66667
0.45771,0.88457,2.7462,0.57686,21.751,74.402,-4.2245,1.4082,-0.81603,-5.6327,-3.0553e-13,-0.40801,0,0,0.16667,7.8949e-16,0,0.66667
0.75462,0.99464,4.5277,0.74197,15.324,19.116,-8.9585,2.9862,-0.042295,-11.945,2.8023e-11,-0.021148,0,0,0.16667,-1.1322e-15,0,0.66667
0.62802,0.44552,3.7681,-0.081714,-2.3282,38.082,0.82109,-0.2737,-1.9762,1.0948,6.2378e-13,-0.98811,0,0,0.16667,1.579e-15,0,0.66667
0.30376,0.47262,1.8226,-0.041073,-1.7657,113.13,0.19962,-0.066539,-1.9935,0.26616,-1.0387e-12,-0.99673,0,0,0.16667,-0,-0,0.66667
0.52166,0.73312,3.13,0.34968,12.057,59.626,-2.9186,0.97287,-1.5639,-3.8915,-4.1012e-13,-0.78193,0,0,0.16667,7.8949e-16,0,0.66667
0.71231,0.97797,4.2739,0.71696,16.917,24.972,-8.1712,2.7237,-0.17115,-10.895,-1.8208e-13,-0.085577,0,0,0.16667,1.579e-15,0,0.66667
0.30531,0.19038,1.8319,-0.46442,-20.047,112.88,2.2687,-0.75624,-1.2327,3.0249,-4.9334e-12,-0.61636,0,0,0.16667,7.8949e-16,0,0.66667
0.012523,0.6668,0.075137,0.2502,11.878,196.79,-0.050132,0.016711,-1.7771,-0.066843,-3.4841e-08,-0.88856,0,0,0.16667,-0,-0,0.66667
0.26826,0.88778,1.6096,0.58167,25.775,123.06,-2.4966,0.83221,-0.79683,-3.3288,6.6991e-13,-0.39841,0,0,0.16667,-3.9475e-16,0,0.66667
0.79675,0.20249,4.7805,-0.44626,-7.6545,13.243,5.6889,-1.8963,-1.2932,7.5852,-2.9986e-10,-0.64661,0,0,0.16667,-1.579e-15,0,0.66667
0.92999,0.8512,5.58,0.52679,3.2608,2.6618,-7.8386,2.6129,-1.0122,-10.452,5.2141e-08,-0.50611,0,0,0.16667,-0,-0,0.66667
0.62533,0.44,3.752,-0.089998,-2.5789,38.578,0.90046,-0.30015,-1.9735,1.2006,5.0626e-13,-0.98677,0,0,0.16667,1.579e-15,0,0.66667
0.13281,0.95638,0.79684,0.68456,32.213,161.51,-1.4546,0.48488,-0.3323,-1.9395,4.7732e-09,-0.16615,0,0,0.16667,-1.9737e-16,0,0.66667
0.75757,0.0092579,4.5454,-0.73611,-15.039,18.714,8.9225,-2.9742,-0.072118,11.897,-1.8847e-11,-0.036059,0,0,0.16667,-0,-0,0.66667
0.52691,0.42966,3.1614,-0.10552,-3.5983,58.331,0.88955,-0.29652,-1.9599,1.1861,5.2486e-13,-0.97993,0,0,0.16667,-3.9475e-16,0,0.66667
0.75387,0.1487,4.5232,-0.52696,-10.763,18.666,6.3561,-2.1187,-1.0123,8.4748,-5.9712e-12,-0.50617,0,0,0.16667,7.8949e-16,0,0.66667
0.85861,0.76819,5.1517,0.40229,4.9072,7.0583,-5.5265,1.8422,-1.4255,-7.3687,3.2119e-09,-0.71274,0,0,0.16667,1.579e-15,0,0.66667
0.94754,0.89185,5.6852,0.58778,2.7501,2.0976,-8.9111,2.9704,-0.77031,-11.882,-9.1052e-08,-0.38516,0,0,0.16667,-0,-0,0.66667
0.65454,0.021498,3.9272,-0.71775,-19.657,34.249,7.5167,-2.5056,-0.16877,10.022,3.4373e-13,-0.084386,0,0,0.16667,-0,-0,0.66667
0.85426,0.1742,5.1255,-0.4887,-6.1752,7.603,6.6796,-2.2265,-1.1497,8.9061,-1.701e-09,-0.57484,0,0,0.16667,-0,-0,0.66667
0.74259,0.27224,4.4555,-0.34164,-7.1978,19.865,4.0591,-1.353,-1.5838,5.4122,-3.1511e-11,-0.79189,0,0,0.16667,-0,-0,0.66667
0.7271,0.47237,4.3626,-0.041443,-0.91349,21.82,0.48213,-0.16071,-1.9934,0.64284,-4.082e-12,-0.99668,0,0,0.16667,-1.579e-15,0,0.66667
0.85879,0.72938,5.1527,0.34407,4.1764,6.9438,-4.7277,1.5759,-1.5802,-6.3036,3.182e-09,-0.79011,0,0,0.16667,1.579e-15,0,0.66667
0.923,0.33756,5.538,-0.24366,-1.6046,2.4642,3.5983,-1.1994,-1.7901,4.7978,8.2358e-09,-0.89507,0,0,0.16667,-7.8949e-16,0,0.66667
0.90208,0.11229,5.4125,-0.58156,-5.0641,4.3175,8.3938,-2.7979,-0.79661,11.192,-2.5834e-08,-0.3983,0,0,0.16667,1.579e-15,0,0.66667
0.39575,0.53705,2.3745,0.055571,2.2174,89.113,-0.35187,0.11729,-1.9885,-0.46917,3.2666e-13,-0.99425,0,0,0.16667,-7.8949e-16,0,0.66667
0.084021,0.70793,0.50413,0.3119,14.715,175.67,-0.4193,0.13977,-1.6529,-0.55907,-2.9064e-09,-0.82645,0,0,0.16667,-0,-0,0.66667
0.82957,0.33773,4.9774,-0.24341,-3.516,9.4695,3.2308,-1.0769,-1.7904,4.3078,-1.0033e-09,-0.89519,0,0,0.16667,1.9737e-15,0,0.66667
0.53893,0.70795,3.2336,0.31193,10.473,55.874,-2.6898,0.89658,-1.6527,-3.5863,-6.2306e-13,-0.82633,0,0,0.16667,7.8949e-16,0,0.66667
0.54208,0.18818,3.2525,-0.46772,-15.687,55.382,4.0567,-1.3522,-1.2226,5.4089,-5.5067e-14,-0.61131,0,0,0.16667,-0,-0,0.66667
0.82518,0.04348,4.9511,-0.68478,-10.422,10.807,9.041,-3.0137,-0.33239,12.055,8.7857e-11,-0.16619,0,0,0.16667,-0,-0,0.66667
0.031984,0.64623,0.19191,0.21934,10.4,191.02,-0.11225,0.037415,-1.83,-0.14966,8.188e-10,-0.91501,0,0,0.16667,2.4672e-17,0,0.66667
0.87796,0.85818,5.2678,0.53727,5.7579,5.828,-7.5473,2.5158,-0.97324,-10.063,6.6238e-09,-0.48662,0,0,0.16667,-1.579e-15,0,0.66667
0.034634,0.10827,0.2078,-0.5876,-28.039,190.27,0.32562,-0.10854,-0.77176,0.43416,1.3938e-07,-0.38588,0,0,0.16667,-0,-0,0.66667
0.69319,0.75452,4.1592,0.38179,9.3549,27.214,-4.2344,1.4115,-1.4813,-5.6459,-4.8406e-12,-0.74063,0,0,0.16667,-0,-0,0.66667
0.58748,0.6131,3.5249,0.16966,5.239,45.821,-1.5947,0.53158,-1.8963,-2.1263,-1.208e-12,-0.94816,0,0,0.16667,7.8949e-16,0,0.66667
0.64175,0.98961,3.8505,0.73441,20.716,36.517,-7.5409,2.5136,-0.08307,-10.055,1.2879e-14,-0.041535,0,0,0.16667,7.8949e-16,0,0.66667
0.37408,0.89815,2.2445,0.59722,24.528,94.966,-3.5746,1.1915,-0.73294,-4.7661,1.6773e-12,-0.36647,0,0,0.16667,3.9475e-16,1.516e-16,0.66667
0.27546,0.88701,1.6528,0.58051,25.614,121.08,-2.5585,0.85285,-0.80055,-3.4114,-1.4611e-13,-0.40027,0,0,0.16667,-0,-0,0.66667
0.50941,0.79628,3.0565,0.44442,15.628,62.419,-3.6223,1.2074,-1.2963,-4.8297,-2.0561e-13,-0.64816,0,0,0.16667,-0,-0,0.66667
0.88582,0.53092,5.3149,0.046373,0.45233,4.5872,-0.65725,0.21908,-1.9929,-0.87633,3.7407e-09,-0.99644,0,0,0.16667,1.2829e-15,0,0.66667
0.56529,0.80762,3.3917,0.46144,14.904,50.554,-4.1735,1.3912,-1.2434,-5.5647,-3.9302e-13,-0.6217,0,0,0.16667,-7.8949e-16,0,0.66667
0.66315,0.6661,3.9789,0.24915,6.5705,31.983,-2.6435,0.88118,-1.778,-3.5247,-4.1886e-12,-0.88901,0,0,0.16667,-1.579e-15,0,0.66667
0.44138,0.72586,2.6483,0.33878,12.936,78.021,-2.3925,0.7975,-1.5916,-3.19,5.8775e-13,-0.79581,0,0,0.16667,-0,-0,0.66667
0.97214,0.95255,5.8328,0.67883,1.7187,1.6529,-10.559,3.5195,-0.36098,-14.078,-9.139e-06,-0.18049,0,0,0.16667,-1.579e-15,0,0.66667
0.74252,0.69855,4.4551,0.29783,6.2676,19.818,-3.5383,1.1794,-1.6832,-4.7177,3.5776e-11,-0.84161,0,0,0.16667,-0,-0,0.66667
0.3549,0.034236,2.1294,-0.69865,-29.257,100.02,3.9672,-1.3224,-0.26462,5.2896,-1.1957e-12,-0.13231,0,0,0.16667,7.8949e-16,-1.6145e-16,0.66667
0.65353,0.85951,3.9212,0.53926,14.677,34.031,-5.6388,1.8796,-0.96574,-7.5183,-2.224e-12,-0.48287,0,0,0.16667,-7.7394e-16,0,0.66667
0.54262,0.68063,3.2557,0.27094,9.0387,55.058,-2.3523,0.7841,-1.7386,-3.1364,-3.5905e-13,-0.86929,0,0,0.16667,-3.9475e-16,0,0.66667
0.88406,0.56841,5.3043,0.10262,1.0172,4.7323,-1.4515,0.48384,-1.9617,-1.9354,-5.1008e-09,-0.98087,0,0,0.16667,-0,-0,0.66667
0.27505,0.7112,1.6503,0.3168,13.904,121.02,-1.3942,0.46474,-1.6422,-1.8589,-8.7066e-12,-0.82109,0,0,0.16667,-0,-0,0.66667
0.10807,0.49788,0.6484,-0.0031736,-0.1487,168.58,0.0054874,-0.0018291,-2.0017,0.0073166,5.4384e-08,-1.0009,0,0,0.16667,-7.4015e-17,0,0.66667
0.19127,0.27824,1.1476,-0.33264,-15.227,144.52,1.018,-0.33933,-1.6069,1.3573,6.2861e-10,-0.80347,0,0,0.16667,2.4672e-16,0,0.66667
0.38705,0.027195,2.3223,-0.70921,-28.899,91.826,4.3919,-1.464,-0.21189,5.8559,7.2697e-13,-0.10595,0,0,0.16667,-3.9475e-16,0,0.66667
0.85406,0.008419,5.1244,-0.73737,-9.5626,8.3144,10.076,-3.3587,-0.065902,13.435,-1.7961e-09,-0.032951,0,0,0.16667,3.158e-15,0,0.66667
0.27084,0.34259,1.6251,-0.23611,-10.378,122.14,1.0232,-0.34106,-1.802,1.3642,1.4748e-11,-0.90101,0,0,0.16667,-2.4672e-17,0,0.66667
0.62636,0.29184,3.7582,-0.31224,-8.9569,38.538,3.1292,-1.0431,-1.654,4.1722,2.585e-12,-0.827,0,0,0.16667,-0,-0,0.66667
0.62355,0.55158,3.7413,0.077368,2.2251,38.902,-0.77189,0.2573,-1.9793,-1.0292,-1.0013e-12,-0.98963,0,0,0.16667,-7.8949e-16,0,0.66667
0.40805,0.34272,2.4483,-0.23591,-9.3144,86.097,1.5402,-0.51341,-1.8038,2.0536,-9.6634e-13,-0.9019,0,0,0.16667,-7.8949e-16,0,0.66667
0.050335,0.80148,0.30201,0.45223,21.484,185.62,-0.36421,0.1214,-1.2724,-0.48561,1.3748e-08,-0.63619,0,0,0.16667,-4.9343e-17,0,0.66667
0.74483,0.34505,4.469,-0.23243,-4.8446,19.433,2.7699,-0.9233,-1.8081,3.6932,-3.9885e-11,-0.90407,0,0,0.16667,-0,-0,0.66667
0.29573,0.0011921,1.7744,-0.74821,-32.771,115.74,3.5402,-1.1801,-0.011569,4.7203,-2.2471e-12,-0.0057843,0,0,0.16667,-0,-0,0.66667
0.39846,0.50377,2.3907,0.0056558,0.22507,88.43,-0.036057,0.012019,-1.9993,-0.048077,6.538e-13,-0.99966,0,0,0.16667,-0,-0,0.66667
0.37724,0.090199,2.2634,-0.6147,-25.189,94.182,3.7102,-1.2367,-0.65747,4.947,-5.8487e-13,-0.32874,0,0,0.16667,1.9737e-16,0,0.66667
0.6636,0.65591,3.9816,0.23387,6.1592,31.893,-2.4832,0.82772,-1.8056,-3.3109,-4.2111e-12,-0.90281,0,0,0.16667,-3.9475e-16,0,0.66667
0.086333,0.94906,0.518,0.67359,32.015,175.07,-0.93045,0.31015,-0.38533,-1.2406,6.1727e-09,-0.19266,0,0,0.16667,-0,-0,0.66667
0.54989,0.84911,3.2993,0.52366,17.379,53.822,-4.6073,1.5358,-1.0253,-6.1431,-1.8874e-13,-0.51264,0,0,0.16667,-0,-0,0.66667
0.015422,0.066782,0.092531,-0.64983,-31.09,195.95,0.16034,-0.053447,-0.50071,0.21379,1.3405e-07,-0.25035,0,0,0.16667,-0,-0,0.66667
0.98304,0.22499,5.8982,-0.41252,-0.49815,0.67265,6.4883,-2.1628,-1.396,8.6511,2.7242e-08,-0.69802,0,0,0.16667,-0,-0,0.66667
0.59843,0.68225,3.5906,0.27337,8.2843,43.759,-2.6175,0.87249,-1.734,-3.4899,-1.8172e-12,-0.86699,0,0,0.16667,3.9475e-16,0,0.66667
0.38411,0.18432,2.3047,-0.47351,-19.209,92.28,2.9101,-0.97005,-1.2024,3.8802,-1.8436e-12,-0.6012,0,0,0.16667,-3.9475e-16,0,0.66667
0.14675,0.18052,0.88049,-0.47922,-22.342,157.38,1.1252,-0.37506,-1.1826,1.5003,2.3625e-09,-0.59129,0,0,0.16667,-0,-0,0.66667
0.69688,0.70564,4.1813,0.30847,7.4663,26.542,-3.4394,1.1465,-1.6603,-4.5859,-3.8836e-12,-0.83015,0,0,0.16667,-7.8949e-16,0,0.66667
0.90581,0.105,5.4349,-0.5925,-4.9754,4.1235,8.5871,-2.8624,-0.75299,11.449,7.6369e-09,-0.3765,0,0,0.16667,-0,-0,0.66667
0.31811,0.035867,1.9087,-0.6962,-29.98,109.68,3.5435,-1.1812,-0.27618,4.7246,-2.5577e-12,-0.13809,0,0,0.16667,-0,-0,0.66667
0.76649,0.77633,4.599,0.41449,8.0388,16.817,-5.0833,1.6944,-1.3907,-6.7777,1.0587e-10,-0.69536,0,0,0.16667,-0,-0,0.66667
0.2875,0.49678,1.725,-0.0048277,-0.20976,117.54,0.022207,-0.0074025,-1.9996,0.02961,-5.7929e-13,-0.99978,0,0,0.16667,4.9343e-16,0,0.66667
0.95723,0.087171,5.7434,-0.61924,-2.3735,1.8618,9.4841,-3.1614,-0.63627,12.645,-1.0323e-06,-0.31813,0,0,0.16667,-0,-0,0.66667
0.70232,0.87702,4.2139,0.56552,13.614,26.118,-6.3548,2.1183,-0.86497,-8.4731,-3.8414e-12,-0.43249,0,0,0.16667,-0,4.7659e-17,0.66667
0.62502,0.99442,3.7501,0.74162,21.682,39.539,-7.4164,2.4721,-0.046508,-9.8885,3.233e-13,-0.023254,0,0,0.16667,-0,-0,0.66667
0.93073,0.56922,5.5844,0.10383,0.60706,1.9653,-1.5461,0.51538,-1.9607,-2.0615,6.0104e-08,-0.98037,0,0,0.16667,-0,-0,0.66667
0.26904,0.060942,1.6143,-0.65859,-29.236,122.91,2.835,-0.945,-0.45859,3.78,-2.4767e-12,-0.22929,0,0,0.16667,4.9343e-17,0,0.66667
0.92362,0.47562,5.5417,-0.036571,-0.23665,2.2901,0.54044,-0.18015,-1.996,0.72059,6.0953e-08,-0.998,0,0,0.16667,-0,-0,0.66667
0.67808,0.036546,4.0685,-0.69518,-17.969,30.253,7.5422,-2.5141,-0.28101,10.056,7.6295e-13,-0.1405,0,0,0.16667,-0,-0,0.66667
0.77136,0.4331,4.6282,-0.10035,-1.8933,15.872,1.2385,-0.41283,-1.9637,1.6513,-9.8159e-11,-0.98187,0,0,0.16667,-3.9475e-16,0,0.66667
0.57164,0.27649,3.4298,-0.33526,-10.677,49.113,3.0663,-1.0221,-1.5997,4.0884,6.4615e-13,-0.79986,0,0,0.16667,3.9475e-16,0,0.66667
0.8339,0.78749,5.0034,0.43123,6.1366,9.3307,-5.7537,1.9179,-1.3381,-7.6716,1.4534e-09,-0.66904,0,0,0.16667,-0,-0,0.66667
0.69828,0.39135,4.1897,-0.16297,-3.9177,26.195,1.8208,-0.60693,-1.9044,2.4277,1.2441e-12,-0.95222,0,0,0.16667,-7.8949e-16,0,0.66667
0.14661,0.36408,0.87965,-0.20388,-9.4655,157.35,0.47824,-0.15941,-1.851,0.63765,1.488e-09,-0.92549,0,0,0.16667,-0,-0,0.66667
0.61246,0.20542,3.6748,-0.44187,-13.086,41.279,4.3301,-1.4434,-1.3053,5.7734,1.4282e-12,-0.65267,0,0,0.16667,-7.8949e-16,0,0.66667
0.27932,0.22966,1.6759,-0.40551,-17.779,119.9,1.8123,-0.60409,-1.4156,2.4164,-1.5909e-13,-0.7078,0,0,0.16667,7.8949e-16,0,0.66667
0.91588,0.58691,5.4953,0.13036,0.93474,2.7374,-1.9104,0.63678,-1.9387,-2.5471,2.0453e-09,-0.96936,0,0,0.16667,5.4231e-16,0,0.66667
0.19823,0.49436,1.1894,-0.008458,-0.38509,142.47,0.026826,-0.0089421,-1.9993,0.035769,2.0996e-10,-0.99965,0,0,0.16667,-0,-0,0.66667
0.28572,0.16717,1.7143,-0.49924,-21.845,118.21,2.2822,-0.76075,-1.113,3.043,-3.0136e-12,-0.55648,0,0,0.16667,-0,-0,0.66667
0.047655,0.83148,0.28593,0.49722,23.65,186.41,-0.37912,0.12637,-1.1219,-0.50549,3.3576e-09,-0.56094,0,0,0.16667,-4.9343e-17,0,0.66667
0.44758,0.19944,2.6855,-0.45084,-17.137,76.643,3.2286,-1.0762,-1.2761,4.3048,-5.3757e-13,-0.63805,0,0,0.16667,-0,-0,0.66667
0.55759,0.7771,3.3455,0.41565,13.58,52.074,-3.7082,1.2361,-1.3855,-4.9442,-4.3698e-13,-0.69276,0,0,0.16667,3.3016e-16,0,0.66667
0.57356,0.51667,3.4414,0.024998,0.79061,48.554,-0.22941,0.07647,-1.9967,-0.30588,3.3681e-14,-0.99837,0,0,0.16667,-0,-0,0.66667
0.90538,0.20224,5.4323,-0.44664,-3.6971,3.7832,6.4701,-2.1567,-1.2915,8.6268,-1.2933e-08,-0.64574,0,0,0.16667,-0,-0,0.66667
0.34741,0.90464,2.0845,0.60696,25.495,101.86,-3.3739,1.1246,-0.69079,-4.4985,1.3185e-12,-0.34539,0,0,0.16667,-1.4803e-16,0,0.66667
0.44753,0.45731,2.6852,-0.06404,-2.4212,76.417,0.45855,-0.15285,-1.9842,0.6114,1.3659e-13,-0.99212,0,0,0.16667,-0,-0,0.66667
0.85124,0.61128,5.1074,0.16691,2.1139,7.3852,-2.2733,0.75777,-1.8994,-3.0311,1.7499e-09,-0.94971,0,0,0.16667,-1.579e-15,0,0.66667
0.57683,0.091069,3.461,-0.6134,-19.528,48.474,5.6612,-1.8871,-0.66387,7.5483,5.1248e-13,-0.33194,0,0,0.16667,-1.9737e-16,0,0.66667
0.65399,0.08345,3.924,-0.62483,-17.052,34.125,6.5381,-2.1794,-0.61202,8.7175,1.0965e-12,-0.30601,0,0,0.16667,-7.8949e-16,-1.7445e-16,0.66667
0.27836,0.55505,1.6702,0.082573,3.6088,120.04,-0.36776,0.12259,-1.9758,-0.49035,-3.9192e-12,-0.98792,0,0,0.16667,1.9737e-16,0,0.66667
0.48747,0.0074161,2.9248,-0.73888,-27.026,67.795,5.7629,-1.921,-0.058882,7.6839,-7.3719e-14,-0.029441,0,0,0.16667,-0,-0,0.66667
0.62095,0.24362,3.7257,-0.38457,-11.176,39.618,3.8208,-1.2736,-1.4739,5.0944,2.0082e-12,-0.73695,0,0,0.16667,3.9475e-16,0,0.66667
0.13339,0.17423,0.80036,-0.48866,-22.874,161.26,1.043,-0.34765,-1.1495,1.3906,4.5951e-09,-0.57474,0,0,0.16667,-1.9737e-16,0,0.66667
0.032909,0.9427,0.19745,0.66404,31.756,190.78,-0.34965,0.11655,-0.4332,-0.4662,5.8096e-09,-0.2166,0,0,0.16667,-0,-0,0.66667
0.11341,0.72853,0.68047,0.3428,16.084,167.05,-0.62203,0.20734,-1.5816,-0.82938,-6.337e-09,-0.79078,0,0,0.16667,1.9737e-16,0,0.66667
0.47746,0.4321,2.8648,-0.10185,-3.716,69.395,0.77806,-0.25935,-1.9623,1.0374,-8.1324e-14,-0.98117,0,0,0.16667,3.9475e-16,0,0.66667
0.024027,0.41009,0.14416,-0.13487,-6.3937,193.38,0.051846,-0.017282,-1.9348,0.069128,9.576e-08,-0.96739,0,0,0.16667,-0,-0,0.66667
0.62621,0.93658,3.7573,0.65487,19.017,39.119,-6.5613,2.1871,-0.47726,-8.7485,-6.0796e-13,-0.23863,0,0,0.16667,2.4672e-16,0,0.66667
0.097583,0.47113,0.5855,-0.043299,-2.0334,171.66,0.067604,-0.022535,-1.9938,0.090139,3.1246e-09,-0.99689,0,0,0.16667,-0,-0,0.66667
0.25096,0.46193,1.5058,-0.057099,-2.535,127.61,0.22927,-0.076424,-1.9897,0.3057,1.8706e-11,-0.99483,0,0,0.16667,1.9737e-16,0,0.66667
0.42649,0.58072,2.559,0.12108,4.686,81.509,-0.82626,0.27542,-1.9469,-1.1017,8.2168e-13,-0.97343,0,0,0.16667,-7.8949e-16,0,0.66667
0.11583,0.15506,0.69496,-0.51741,-24.344,166.39,0.95887,-0.31962,-1.0481,1.2785,-2.1977e-10,-0.52407,0,0,0.16667,1.2336e-17,0,0.66667
0.27055,0.64958,1.6233,0.22436,9.862,122.22,-0.97123,0.32374,-1.8204,-1.295,-1.7023e-11,-0.91022,0,0,0.16667,5.5494e-16,0,0.66667
0.02108,0.41103,0.12648,-0.13346,-6.3279,194.25,0.045013,-0.015004,-1.9362,0.060018,1.8675e-08,-0.96811,0,0,0.16667,-0,-0,0.66667
0.98505,0.91164,5.9103,0.61746,0.76374,1.1927,-9.7316,3.2439,-0.64607,-12.975,1.2008e-06,-0.32304,0,0,0.16667,3.158e-15,0,0.66667
0.61157,0.91266,3.6694,0.61899,18.483,41.752,-6.0569,2.019,-0.63827,-8.0759,-8.491e-13,-0.31914,0,0,0.16667,1.579e-15,0,0.66667
0.37835,0.31733,2.2701,-0.27401,-11.131,93.593,1.6588,-0.55293,-1.7333,2.2117,-1.5874e-12,-0.86663,0,0,0.16667,-7.8949e-16,0,0.66667
0.026528,0.47707,0.15917,-0.034398,-1.6299,192.64,0.0146,-0.004867,-1.9951,0.019467,-2.943e-07,-0.99754,0,0,0.16667,-0,-0,0.66667
0.38984,0.1005,2.339,-0.59925,-24.266,90.974,3.7378,-1.2459,-0.72456,4.9837,-4.8384e-13,-0.36228,0,0,0.16667,-0,-1.3367e-16,0.66667
0.45256,0.60277,2.7154,0.15416,5.798,75.243,-1.1163,0.37208,-1.9168,-1.4883,4.8384e-13,-0.95839,0,0,0.16667,-0,-0,0.66667
0.931,0.20014,5.586,-0.44978,-2.7084,2.4282,6.7,-2.2333,-1.2793,8.9334,-1.4901e-08,-0.63964,0,0,0.16667,-0,-0,0.66667
0.2785,0.23484,1.671,-0.39774,-17.444,120.11,1.7723,-0.59078,-1.4372,2.3631,1.6696e-12,-0.71861,0,0,0.16667,3.9475e-16,0,0.66667
0.61478,0.45624,3.6887,-0.065639,-1.9219,40.531,0.64566,-0.21522,-1.9835,0.86088,9.7455e-13,-0.99174,0,0,0.16667,-7.8949e-16,0,0.66667
0.66517,0.4662,3.991,-0.050705,-1.3275,31.535,0.53964,-0.17988,-1.9906,0.71951,8.1035e-13,-0.99528,0,0,0.16667,-0,-0,0.66667
0.18596,0.22814,1.1158,-0.40778,-18.729,146.06,1.2133,-0.40444,-1.4094,1.6177,5.9352e-10,-0.70468,0,0,0.16667,-0,-0,0.66667
0.50576,0.12311,3.0346,-0.56534,-20.052,63.392,4.5748,-1.5249,-0.8636,6.0998,-8.2423e-13,-0.4318,0,0,0.16667,3.9475e-16,0,0.66667
0.7865,0.58694,4.719,0.13041,2.3139,14.044,-1.6411,0.54704,-1.9388,-2.1882,2.1193e-10,-0.96942,0,0,0.16667,-0,-0,0.66667
0.096579,0.3125,0.57947,-0.28125,-13.233,171.97,0.4346,-0.14487,-1.7201,0.57947,4.1678e-09,-0.86005,0,0,0.16667,-0,-0,0.66667
0.60604,0.021674,3.6362,-0.71749,-21.755,43.011,6.9572,-2.3191,-0.16931,9.2762,-2.0073e-13,-0.084653,0,0,0.16667,1.579e-15,1.6779e-16,0.66667
0.02606,0.10322,0.15636,-0.59518,-28.421,192.8,0.24816,-0.082723,-0.73954,0.33089,-1.9636e-06,-0.36977,0,0,0.16667,-4.9343e-17,0,0.66667
0.0070467,0.81731,0.04228,0.47597,22.68,198.41,-0.053664,0.017888,-1.1938,-0.071552,-2.4488e-07,-0.5969,0,0,0.16667,-0,-0,0.66667
0.059529,0.029081,0.35717,-0.70638,-33.739,182.95,0.6728,-0.22427,-0.22673,0.89706,-3.7675e-06,-0.11337,0,0,0.16667,-2.4672e-17,0,0.66667
0.4814,0.75066,2.8884,0.376,13.701,68.656,-2.8961,0.96536,-1.4985,-3.8614,-4.15e-13,-0.74924,0,0,0.16667,-0,-0,0.66667
0.9257,0.30437,5.5542,-0.29345,-1.8703,2.3944,4.3464,-1.4488,-1.6934,5.7952,-4.9732e-10,-0.84671,0,0,0.16667,-7.8949e-16,0,0.66667
0.40556,0.40507,2.4333,-0.1424,-5.6308,86.678,0.92401,-0.308,-1.9303,1.232,-8.8685e-13,-0.96513,0,0,0.16667,8.3884e-16,0,0.66667
0.075033,0.5209,0.4502,0.031349,1.478,178.29,-0.037635,0.012545,-1.9962,-0.05018,-1.3959e-08,-0.99811,0,0,0.16667,-0,-0,0.66667
0.86135,0.6872,5.1681,0.2808,3.3376,6.64,-3.8699,1.29,-1.7214,-5.1599,3.4546e-09,-0.86069,0,0,0.16667,5.181e-16,0,0.66667
0.5193,0.30955,3.1158,-0.28568,-9.8724,60.085,2.3737,-0.79122,-1.7102,3.1649,9.3259e-14,-0.85511,0,0,0.16667,-0,-0,0.66667
0.31894,0.62751,1.9136,0.19127,8.1427,109.08,-0.97604,0.32535,-1.8697,-1.3014,3.6604e-12,-0.93484,0,0,0.16667,-0,-0,0.66667
0.96303,0.80991,5.7782,0.46486,1.4522,1.2579,-7.1628,2.3876,-1.2315,-9.5504,-1.1202e-07,-0.61576,0,0,0.16667,-2.1711e-15,0,0.66667
0.93826,0.4091,5.6296,-0.13635,-0.70628,1.6464,2.0469,-0.68231,-1.9359,2.7292,-5.6037e-08,-0.96794,0,0,0.16667,-0,-0,0.66667
0.26002,0.97233,1.5601,0.7085,31.664,125.44,-2.9476,0.98252,-0.21492,-3.9301,-1.7004e-12,-0.10746,0,0,0.16667,-0,-0,0.66667
0.20139,0.64727,1.2084,0.22091,10.056,141.6,-0.71182,0.23727,-1.827,-0.94909,-3.7989e-10,-0.91351,0,0,0.16667,-1.9737e-16,0,0.66667
0.58891,0.78847,3.5335,0.4327,13.398,45.79,-4.0772,1.3591,-1.3337,-5.4362,-1.2563e-12,-0.66683,0,0,0.16667,-0,-0,0.66667
0.84252,0.0061131,5.0551,-0.74083,-10.308,9.3393,9.9866,-3.3289,-0.049771,13.315,-1.6997e-10,-0.024886,0,0,0.16667,-0,-0,0.66667
0.33672,0.21691,2.0203,-0.42464,-17.903,104.49,2.2878,-0.76258,-1.3587,3.0503,-5.0473e-12,-0.67934,0,0,0.16667,4.9343e-17,0,0.66667
0.58643,0.57577,3.5186,0.11366,3.5147,46.004,-1.0665,0.35549,-1.9526,-1.4219,-8.5554e-13,-0.97629,0,0,0.16667,-0,-0,0.66667
0.16224,0.9534,0.97347,0.6801,31.715,153,-1.7655,0.5885,-0.35404,-2.354,8.6974e-10,-0.17702,0,0,0.16667,-1.9737e-16,0,0.66667
0.19459,0.060445,1.1676,-0.65933,-30.362,143.74,2.0528,-0.68428,-0.4541,2.7371,-5.757e-11,-0.22705,0,0,0.16667,4.4409e-16,0,0.66667
0.76134,0.9671,4.568,0.70065,14.085,18.125,-8.5348,2.8449,-0.25498,-11.38,-1.0241e-12,-0.12749,0,0,0.16667,7.8949e-16,0,0.66667
0.1501,0.4822,0.90059,-0.026707,-1.2375,156.32,0.064138,-0.021379,-1.9961,0.085517,-1.6868e-10,-0.99804,0,0,0.16667,-3.9475e-16,0,0.66667
0.26591,0.28937,1.5954,-0.31595,-13.942,123.53,1.3442,-0.44807,-1.6466,1.7923,1.8997e-11,-0.82332,0,0,0.16667,-0,-0,0.66667
0.68949,0.45338,4.137,-0.06993,-1.7204,27.541,0.77146,-0.25715,-1.9827,1.0286,1.4866e-13,-0.99135,0,0,0.16667,1.579e-15,0,0.66667
0.015089,0.70277,0.090536,0.30415,14.448,196.03,-0.073432,0.024477,-1.6721,-0.097909,-1.865e-08,-0.83604,0,0,0.16667,-0,-0,0.66667
0.032194,0.21036,0.19317,-0.43446,-20.664,190.97,0.2238,-0.074599,-1.3299,0.2984,-1.2612e-07,-0.66497,0,0,0.16667,-0,-0,0.66667
0.28753,0.13666,1.7252,-0.54502,-23.848,117.76,2.5073,-0.83577,-0.94252,3.3431,-3.7292e-12,-0.47126,0,0,0.16667,-0,-0,0.66667
0.33662,0.26819,2.0197,-0.34771,-14.64,104.46,1.8728,-0.62425,-1.5686,2.497,-4.6929e-12,-0.78432,0,0,0.16667,-0,-0,0.66667
0.36222,0.8167,2.1733,0.47505,19.645,97.883,-2.7531,0.91771,-1.1982,-3.6708,2.5815e-12,-0.59909,0,0,0.16667,-0,-0,0.66667
0.80719,0.88738,4.8431,0.58106,9.583,12.384,-7.5045,2.5015,-0.79835,-10.006,1.9043e-10,-0.39917,0,0,0.16667,-0,-0,0.66667
0.035981,0.10633,0.21589,-0.59051,-28.177,189.87,0.33996,-0.11332,-0.75914,0.45327,3.7847e-07,-0.37957,0,0,0.16667,-0,-0,0.66667
0.3584,0.41538,2.1504,-0.12693,-5.2382,98.671,0.72787,-0.24262,-1.9437,0.9705,-2.3288e-12,-0.97185,0,0,0.16667,-0,-0,0.66667
0.63828,0.69615,3.8297,0.29422,8.224,36.361,-3.0048,1.0016,-1.6924,-4.0063,-3.4222e-12,-0.84622,0,0,0.16667,-0,-0,0.66667
0.143,0.43995,0.85802,-0.09007,-4.1832,158.38,0.20609,-0.068695,-1.9722,0.27478,1.9824e-09,-0.98612,0,0,0.16667,3.9475e-16,0,0.66667
0.85774,0.92906,5.1464,0.64359,8.0654,7.7089,-8.8326,2.9442,-0.52789,-11.777,-2.602e-09,-0.26394,0,0,0.16667,7.8949e-16,-1.5561e-16,0.66667
0.64556,0.89482,3.8734,0.59223,16.45,35.522,-6.1172,2.0391,-0.75191,-8.1562,-1.6414e-12,-0.37596,0,0,0.16667,-0,-0,0.66667
0.11529,0.65348,0.69176,0.23022,10.782,166.48,-0.42468,0.14156,-1.8113,-0.56624,-4.2283e-09,-0.90567,0,0,0.16667,2.2204e-16,0,0.66667
0.2081,0.95595,1.2486,0.68393,31.34,139.92,-2.2772,0.75906,-0.33575,-3.0363,-4.0338e-11,-0.16787,0,0,0.16667,-3.9475e-16,0,0.66667
0.7455,0.23223,4.473,-0.40166,-8.3975,19.556,4.791,-1.597,-1.4254,6.388,-3.2454e-11,-0.7127,0,0,0.16667,-0,-0,0.66667
0.40341,0.77653,2.4204,0.41479,16.502,87.377,-2.6773,0.89243,-1.3887,-3.5697,1.704e-12,-0.69436,0,0,0.16667,2.3886e-16,0,0.66667
0.48447,0.70486,2.9068,0.30728,11.139,67.893,-2.3819,0.79397,-1.6656,-3.1759,-1.4411e-13,-0.8328,0,0,0.16667,-0,-0,0.66667
0.88746,0.48642,5.3247,-0.020371,-0.19584,4.4687,0.28926,-0.096419,-1.998,0.38568,-3.8588e-10,-0.99902,0,0,0.16667,1.579e-15,0,0.66667
0.13744,0.35178,0.82466,-0.22233,-10.352,160.02,0.48893,-0.16298,-1.8241,0.65191,2.1189e-09,-0.91207,0,0,0.16667,-0,-0,0.66667
0.96437,0.15595,5.7862,-0.51608,-1.5752,1.349,7.9631,-2.6544,-1.0537,10.617,5.0639e-08,-0.52684,0,0,0.16667,1.9491e-15,0,0.66667
0.04263,0.63231,0.25578,0.19847,9.4015,187.87,-0.13537,0.045123,-1.8595,-0.18049,-2.3467e-08,-0.92975,0,0,0.16667,-9.8686e-17,0,0.66667
0.09944,0.69079,0.59664,0.28618,13.458,171.13,-0.45532,0.15177,-1.7085,-0.6071,-5.7054e-09,-0.85427,0,0,0.16667,-0,-0,0.66667
0.22324,0.15437,1.3394,-0.51845,-23.487,135.54,1.8518,-0.61727,-1.0446,2.4691,8.808e-11,-0.52231,0,0,0.16667,-1.4803e-16,0,0.66667
0.80659,0.14196,4.8395,-0.53706,-8.855,12.344,6.9309,-2.3103,-0.97311,9.2412,-1.9235e-10,-0.48655,0,0,0.16667,1.579e-15,0,0.66667
0.45587,0.70461,2.7352,0.30691,11.521,74.543,-2.2386,0.74621,-1.6648,-2.9848,1.0325e-13,-0.83239,0,0,0.16667,-7.8949e-16,0,0.66667
0.65325,0.76015,3.9195,0.39022,10.572,33.838,-4.0786,1.3595,-1.4584,-5.4382,-4.6514e-12,-0.72918,0,0,0.16667,1.579e-15,0,0.66667
0.17432,0.64782,1.0459,0.22173,10.201,149.35,-0.61842,0.20614,-1.8254,-0.82456,-9.3442e-10,-0.9127,0,0,0.16667,-1.9737e-16,0,0.66667
0.16672,0.18163,1.0003,-0.47756,-22.12,151.61,1.2739,-0.42464,-1.1886,1.6986,6.9793e-10,-0.59428,0,0,0.16667,-1.9734e-16,0,0.66667
0.52085,0.11611,3.1251,-0.57583,-20.004,60.093,4.7987,-1.5996,-0.82015,6.3983,-1.2923e-13,-0.41007,0,0,0.16667,-0,-0,0.66667
0.74029,0.50936,4.4418,0.014033,0.29624,19.951,-0.16621,0.055404,-1.9982,-0.22161,6.8394e-12,-0.9991,0,0,0.16667,-3.158e-15,0,0.66667
0.46247,0.45731,2.7748,-0.064035,-2.3792,72.877,0.47383,-0.15794,-1.9841,0.63178,9.4535e-14,-0.99206,0,0,0.16667,-0,-0,0.66667
0.86961,0.95095,5.2177,0.67642,7.8412,6.8527,-9.4116,3.1372,-0.37193,-12.549,-2.8037e-09,-0.18596,0,0,0.16667,-0,-0,0.66667
0.66041,0.42284,3.9625,-0.11573,-3.0664,32.363,1.2229,-0.40764,-1.9515,1.6305,2.118e-12,-0.97574,0,0,0.16667,7.8949e-16,0,0.66667
0.24909,0.48536,1.4945,-0.021962,-0.97598,128.13,0.087529,-0.029176,-1.999,0.11671,3.1402e-12,-0.99952,0,0,0.16667,3.9475e-16,0,0.66667
0.2349,0.11236,1.4094,-0.58147,-26.235,132.31,2.1854,-0.72847,-0.79892,2.9139,4.7851e-12,-0.39946,0,0,0.16667,-3.9475e-16,0,0.66667
0.37405,0.95986,2.2443,0.6898,28.416,95.094,-4.1283,1.3761,-0.30923,-5.5043,9.2903e-13,-0.15462,0,0,0.16667,-0,-0,0.66667
0.75662,0.29089,4.5397,-0.31367,-6.286,17.943,3.7972,-1.2657,-1.649,5.063,-7.0841e-11,-0.82448,0,0,0.16667,-0,-0,0.66667
0.93794,0.59003,5.6276,0.13505,0.70341,1.6595,-2.0266,0.67554,-1.9372,-2.7022,4.95e-08,-0.96861,0,0,0.16667,1.9737e-15,0,0.66667
0.86191,0.86889,5.1714,0.55334,6.682,7.1168,-7.6308,2.5436,-0.91178,-10.174,-4.4716e-09,-0.45589,0,0,0.16667,1.579e-15,0,0.66667
0.26161,0.10899,1.5697,-0.58651,-26.093,124.89,2.455,-0.81833,-0.77605,3.2733,-2.3339e-12,-0.38803,0,0,0.16667,-3.9475e-16,0,0.66667
0.41228,0.82737,2.4737,0.49105,19.4,85.252,-3.2392,1.0797,-1.1413,-4.3189,1.074e-12,-0.57063,0,0,0.16667,7.8949e-16,0,0.66667
0.61154,0.33883,3.6693,-0.24176,-7.1382,41.229,2.3656,-0.78852,-1.793,3.1541,1.5461e-12,-0.89648,0,0,0.16667,-3.9475e-16,0,0.66667
0.54683,0.62379,3.281,0.18569,6.1462,54.112,-1.6247,0.54156,-1.8802,-2.1663,-7.6028e-13,-0.9401,0,0,0.16667,9.8686e-17,0,0.66667
0.38927,0.98299,2.3356,0.72448,29.477,91.288,-4.5124,1.5041,-0.13425,-6.0165,3.9835e-13,-0.067123,0,0,0.16667,7.8949e-16,0,0.66667
0.10142,0.62979,0.60852,0.19469,9.1432,170.54,-0.31593,0.10531,-1.8645,-0.42124,-8.1454e-09,-0.93225,0,0,0.16667,-0,-0,0.66667
0.71224,0.91716,4.2735,0.62575,14.688,24.749,-7.131,2.377,-0.60648,-9.5079,-2.1085e-12,-0.30324,0,0,0.16667,1.579e-15,0,0.66667
0.088135,0.25882,0.52881,-0.36176,-17.068,174.46,0.51015,-0.17005,-1.5337,0.68019,9.5586e-09,-0.76684,0,0,0.16667,-0,-0,0.66667
0.86608,0.13337,5.1965,-0.54994,-6.4486,6.7716,7.6207,-2.5402,-0.92355,10.161,3.7847e-09,-0.46178,0,0,0.16667,-0,-0,0.66667
0.86345,0.45144,5.1807,-0.072843,-0.84761,6.2986,1.0063,-0.33545,-1.9803,1.3418,-9.7647e-10,-0.99014,0,0,0.16667,-0,-0,0.66667
0.70845,0.56295,4.2507,0.094423,2.2033,24.596,-1.0703,0.35677,-1.9687,-1.4271,2.1267e-12,-0.98433,0,0,0.16667,-3.158e-15,0,0.66667
0.48642,0.019851,2.9185,-0.72022,-26.358,67.997,5.6054,-1.8685,-0.15583,7.4738,-1.195e-12,-0.077913,0,0,0.16667,1.579e-15,0,0.66667
0.69915,0.99142,4.1949,0.73713,18.073,27.024,-8.2458,2.7486,-0.067554,-10.994,5.2403e-13,-0.033777,0,0,0.16667,-7.8949e-16,0,0.66667
0.39499,0.35642,2.3699,-0.21538,-8.6099,89.351,1.3611,-0.45371,-1.8342,1.8148,-1.446e-12,-0.91708,0,0,0.16667,-0,-0,0.66667
0.7975,0.047867,4.785,-0.6782,-11.777,13.712,8.6538,-2.8846,-0.36555,11.538,6.3265e-11,-0.18277,0,0,0.16667,-1.579e-15,0,0.66667
0.78642,0.17392,4.7185,-0.48912,-8.7938,14.52,6.1544,-2.0515,-1.1482,8.2058,-1.422e-10,-0.57411,0,0,0.16667,-1.579e-15,0,0.66667
0.15553,0.89369,0.93317,0.59053,27.529,154.89,-1.4695,0.48984,-0.76102,-1.9593,7.6307e-10,-0.38051,0,0,0.16667,-3.8156e-16,1.898e-16,0.66667
0.31782,0.39291,1.9069,-0.16064,-6.8423,109.37,0.81684,-0.27228,-1.907,1.0891,-2.9623e-12,-0.95352,0,0,0.16667,-3.9475e-16,0,0.66667
0.34398,0.73087,2.0639,0.3463,14.497,102.53,-1.9059,0.63532,-1.5749,-2.5413,4.4652e-12,-0.78745,0,0,0.16667,-0,-0,0.66667
0.36417,0.16084,2.185,-0.50873,-21.021,97.411,2.9643,-0.98808,-1.0795,3.9523,-1.6565e-12,-0.53976,0,0,0.16667,-0,-0,0.66667
0.56665,0.61345,3.3999,0.17017,5.4513,50,-1.5428,0.51427,-1.8963,-2.0571,-7.4241e-13,-0.94813,0,0,0.16667,-7.8949e-16,0,0.66667
0.041687,0.76339,0.25012,0.39508,18.765,188.16,-0.26352,0.08784,-1.4438,-0.35136,5.4608e-08,-0.72191,0,0,0.16667,-0,-0,0.66667
0.65997,0.70672,3.9598,0.31009,8.2513,32.584,-3.2744,1.0915,-1.6575,-4.3658,-4.9001e-12,-0.82873,0,0,0.16667,7.8949e-16,0,0.66667
0.20163,0.8168,1.2098,0.4752,21.717,141.62,-1.5331,0.51102,-1.1984,-2.0441,-1.6083e-10,-0.59918,0,0,0.16667,-7.8949e-16,0,0.66667
0.41646,0.2235,2.4988,-0.41476,-16.287,84.144,2.7637,-0.92123,-1.3879,3.6849,-1.3247e-12,-0.69396,0,0,0.16667,-0,-0,0.66667
0.45089,0.16681,2.7054,-0.49979,-18.951,75.911,3.6056,-1.2019,-1.112,4.8075,-1.166e-12,-0.55599,0,0,0.16667,7.8949e-16,0,0.66667
0.34873,0.88002,2.0924,0.57003,23.894,101.48,-3.1806,1.0602,-0.84431,-4.2407,2.2975e-12,-0.42215,0,0,0.16667,-0,-0,0.66667
0.38328,0.36035,2.2997,-0.20947,-8.4649,92.308,1.2846,-0.4282,-1.8425,1.7128,-1.8857e-12,-0.92123,0,0,0.16667,7.8949e-16,0,0.66667
0.18031,0.54288,1.0818,0.064326,2.95,147.6,-0.18557,0.061858,-1.9839,-0.24743,-4.0618e-10,-0.99194,0,0,0.16667,-3.9475e-16,0,0.66667
0.06813,0.81761,0.40878,0.47642,22.596,180.37,-0.51934,0.17311,-1.1924,-0.69245,-2.8797e-08,-0.59621,0,0,0.16667,1.9737e-16,0,0.66667
0.55126,0.16418,3.3075,-0.50373,-16.67,53.507,4.443,-1.481,-1.0972,5.924,-2.7622e-13,-0.54861,0,0,0.16667,-0,-0,0.66667
0.59587,0.4447,3.5752,-0.082947,-2.52,44.147,0.7908,-0.2636,-1.976,1.0544,7.9892e-13,-0.98802,0,0,0.16667,-1.579e-15,0,0.66667
0.1455,0.37933,0.873,-0.181,-8.4049,157.67,0.42138,-0.14046,-1.8833,0.56184,1.6167e-09,-0.94164,0,0,0.16667,3.9475e-16,0,0.66667
0.23094,0.15872,1.3857,-0.51192,-23.102,133.37,1.8916,-0.63053,-1.0688,2.5221,1.1602e-10,-0.5344,0,0,0.16667,-0,-0,0.66667
0.28638,0.74191,1.7183,0.36287,15.827,117.94,-1.6627,0.55422,-1.531,-2.2169,-2.1316e-13,-0.76552,0,0,0.16667,-0,-0,0.66667
0.83075,0.99515,4.9845,0.74273,11.038,10.445,-9.8724,3.2908,-0.039149,-13.163,-9.973e-10,-0.019575,0,0,0.16667,3.9475e-16,0,0.66667
0.15342,0.031936,0.92053,-0.7021,-32.857,155.56,1.7235,-0.57449,-0.24853,2.2979,1.1627e-09,-0.12427,0,0,0.16667,-0,-0,0.66667
0.55214,0.032638,3.3128,-0.70104,-23.34,53.673,6.1932,-2.0644,-0.25276,8.2576,-1.3243e-12,-0.12638,0,0,0.16667,1.579e-15,0,0.66667
0.56814,0.19799,3.4088,-0.45302,-14.558,49.962,4.1181,-1.3727,-1.2692,5.4907,5.5467e-13,-0.63459,0,0,0.16667,-0,-0,0.66667
0.34342,0.76378,2.0605,0.39568,16.586,102.71,-2.1741,0.72471,-1.4445,-2.8988,4.0232e-12,-0.72226,0,0,0.16667,-0,-0,0.66667
0.35062,0.99772,2.1037,0.74658,31.426,101.2,-4.1882,1.3961,-0.017951,-5.5843,-2.8155e-13,-0.0089753,0,0,0.16667,1.9737e-16,0,0.66667
0.95911,0.57855,5.7547,0.11782,0.38598,0.85796,-1.808,0.60267,-1.9493,-2.4107,1.2608e-07,-0.97463,0,0,0.16667,-0,-0,0.66667
0.55334,0.21879,3.3201,-0.42181,-13.879,52.961,3.7345,-1.2448,-1.3676,4.9793,1.3989e-13,-0.68381,0,0,0.16667,-0,-0,0.66667
0.65273,0.84955,3.9164,0.52433,14.288,34.141,-5.4759,1.8253,-1.0225,-7.3012,-3.0393e-12,-0.51126,0,0,0.16667,1.579e-15,0,0.66667
0.49074,0.44587,2.9444,-0.081192,-2.9119,66.35,0.63751,-0.2125,-1.9755,0.85001,-1.1463e-13,-0.98774,0,0,0.16667,1.579e-15,0,0.66667
0.64665,0.085672,3.8799,-0.62149,-17.244,35.393,6.4302,-2.1434,-0.62566,8.5736,1.021e-12,-0.31283,0,0,0.16667,-7.8949e-16,0,0.66667
0.60525,0.7387,3.6315,0.35805,10.729,42.535,-3.4674,1.1558,-1.5434,-4.6231,-1.4768e-12,-0.77171,0,0,0.16667,-7.8949e-16,0,0.66667
0.14517,0.082599,0.87104,-0.6261,-29.309,157.9,1.4543,-0.48476,-0.60532,1.9391,1.2642e-09,-0.30266,0,0,0.16667,-0,-0,0.66667
0.33468,0.095343,2.0081,-0.60699,-25.75,105.19,3.2503,-1.0834,-0.68993,4.3338,-2.9021e-12,-0.34496,0,0,0.16667,7.8949e-16,0,0.66667
0.46043,0.92953,2.7626,0.64429,24.271,73.862,-4.7464,1.5821,-0.52294,-6.3286,4.6008e-13,-0.26147,0,0,0.16667,7.8949e-16,0,0.66667
0.12782,0.81493,0.76693,0.47239,22.138,162.88,-0.96611,0.32204,-1.2074,-1.2881,-5.0538e-09,-0.60372,0,0,0.16667,3.9475e-16,0,0.66667
0.36307,0.98364,2.1784,0.72547,30.205,97.953,-4.2144,1.4048,-0.12797,-5.6191,6.648e-13,-0.063987,0,0,0.16667,-0,-0,0.66667
0.22814,0.20279,1.3688,-0.44581,-20.117,134.12,1.6273,-0.54244,-1.2919,2.1698,8.8997e-11,-0.64596,0,0,0.16667,3.9475e-16,0,0.66667
0.8475,0.71505,5.085,0.32258,4.2091,7.8885,-4.3742,1.4581,-1.6303,-5.8323,2.2234e-09,-0.81513,0,0,0.16667,-7.8949e-16,0,0.66667
0.34147,0.44094,2.0488,-0.08859,-3.7055,103.08,0.48402,-0.16134,-1.9731,0.64536,-2.1431e-12,-0.98653,0,0,0.16667,-0,-0,0.66667
0.22679,0.76364,1.3607,0.39547,17.839,134.47,-1.435,0.47833,-1.4424,-1.9133,-1.406e-10,-0.72121,0,0,0.16667,-0,-0,0.66667
0.40818,0.28952,2.4491,-0.31572,-12.478,86.111,2.0619,-0.68732,-1.6461,2.7493,-1.3569e-12,-0.82304,0,0,0.16667,-0,-0,0.66667
0.68306,0.37592,4.0984,-0.18612,-4.6635,28.63,2.0341,-0.67803,-1.8774,2.7121,3.4124e-12,-0.93868,0,0,0.16667,-0,-0,0.66667
0.065622,0.75153,0.39373,0.3773,17.868,181.1,-0.39615,0.13205,-1.4948,-0.52819,1.6348e-09,-0.74738,0,0,0.16667,-0,-0,0.66667
0.18073,0.67955,1.0844,0.26933,12.369,147.52,-0.77881,0.2596,-1.741,-1.0384,-8.7518e-10,-0.8705,0,0,0.16667,-1.9737e-16,0,0.66667
0.69431,0.14693,4.1658,-0.5296,-13.012,27.288,5.8833,-1.9611,-1.0015,7.8444,4.218e-12,-0.50076,0,0,0.16667,-0,-0,0.66667
0.75226,0.021328,4.5135,-0.71801,-14.926,19.357,8.642,-2.8807,-0.16715,11.523,-8.3293e-12,-0.083575,0,0,0.16667,1.579e-15,0,0.66667
0.61775,0.20667,3.7065,-0.43999,-12.892,40.287,4.3489,-1.4496,-1.3102,5.7986,1.4611e-12,-0.65511,0,0,0.16667,-0,-0,0.66667
0.8792,0.47542,5.2752,-0.036873,-0.38034,5.0635,0.5187,-0.1729,-1.9948,0.6916,-6.9941e-09,-0.9974,0,0,0.16667,-0,-0,0.66667
0.1688,0.90146,1.0128,0.6022,27.957,151.08,-1.6264,0.54214,-0.71096,-2.1686,-2.9331e-09,-0.35548,0,0,0.16667,9.995e-17,-1.4156e-16,0.66667
0.70355,0.018279,4.2213,-0.72258,-17.486,26.309,8.1339,-2.7113,-0.14468,10.845,1.2168e-13,-0.07234,0,0,0.16667,-0,-0,0.66667
0.91726,0.070885,5.5036,-0.64367,-4.8023,3.634,9.4466,-3.1489,-0.52619,12.596,-9.7938e-08,-0.2631,0,0,0.16667,-0,-0,0.66667
0.15074,0.52781,0.90444,0.041709,1.9323,156.14,-0.1006,0.033532,-1.9936,-0.13413,-2.2644e-09,-0.99678,0,0,0.16667,1.9737e-16,0,0.66667
0.24376,0.012721,1.4626,-0.73092,-32.978,129.96,2.8507,-0.95025,-0.099107,3.801,1.6569e-11,-0.049553,0,0,0.16667,-0,-0,0.66667
0.54668,0.99856,3.2801,0.74785,25.166,54.908,-6.5414,2.1805,-0.014126,-8.7218,4.774e-13,-0.007063,0,0,0.16667,-8.8818e-16,0,0.66667
0.34412,0.48962,2.0647,-0.01557,-0.64977,102.38,0.085726,-0.028575,-2.0004,0.1143,8.973e-13,-1.0002,0,0,0.16667,-3.9475e-16,0,0.66667
0.69064,0.82371,4.1438,0.48556,12.025,27.784,-5.3656,1.7885,-1.1613,-7.1541,-4.206e-12,-0.58067,0,0,0.16667,-1.579e-15,0,0.66667
0.057568,0.96696,0.34541,0.70045,33.458,183.52,-0.64517,0.21506,-0.25575,-0.86022,4.1517e-06,-0.12787,0,0,0.16667,2.4672e-17,0,0.66667
0.16076,0.2414,0.96458,-0.3879,-17.972,153.3,0.99775,-0.33258,-1.4643,1.3303,1.7546e-09,-0.73217,0,0,0.16667,1.9737e-16,0,0.66667
0.71624,0.22011,4.2974,-0.41983,-9.6459,23.745,4.8112,-1.6037,-1.3745,6.415,6.1995e-13,-0.68726,0,0,0.16667,-0,-0,0.66667
0.97062,0.96997,5.8237,0.70495,1.9113,1.7822,-10.948,3.6493,-0.23465,-14.597,-1.5374e-05,-0.11732,0,0,0.16667,-0,-0,0.66667
0.92955,0.34051,5.5773,-0.23924,-1.4357,2.1365,3.5582,-1.1861,-1.796,4.7443,1.5621e-08,-0.89801,0,0,0.16667,3.9475e-16,0,0.66667
0.90107,0.20697,5.4064,-0.43954,-3.7997,4.0311,6.3368,-2.1123,-1.312,8.4491,-1.0428e-08,-0.65599,0,0,0.16667,-0,-0,0.66667
0.12774,0.17241,0.76646,-0.49138,-23.038,162.91,1.0043,-0.33478,-1.1412,1.3391,5.1818e-09,-0.57059,0,0,0.16667,-0,-0,0.66667
0.14593,0.30722,0.87557,-0.28918,-13.441,157.56,0.67519,-0.22506,-1.7022,0.90025,2.3989e-09,-0.85109,0,0,0.16667,-0,-0,0.66667
0.072265,0.42631,0.43359,-0.11053,-5.2146,179.11,0.1278,-0.042599,-1.9553,0.1704,5.3036e-08,-0.97767,0,0,0.16667,-0,-0,0.66667
0.54254,0.11519,3.2552,-0.57721,-19.413,55.45,5.0105,-1.6702,-0.81467,6.6807,-2.0872e-13,-0.40734,0,0,0.16667,-7.8949e-16,0,0.66667
0.88249,0.37526,5.2949,-0.18711,-1.8845,4.9026,2.642,-0.88067,-1.8756,3.5227,1.5916e-09,-0.93781,0,0,0.16667,-3.158e-15,0,0.66667
0.53179,0.78252,3.1908,0.42378,14.42,57.516,-3.6058,1.2019,-1.3639,-4.8077,-2.438e-13,-0.68195,0,0,0.16667,-0,-0,0.66667
0.78172,0.38596,4.6903,-0.17106,-3.0989,14.641,2.1396,-0.71319,-1.8972,2.8528,-1.717e-10,-0.94858,0,0,0.16667,-0,-0,0.66667
0.18845,0.301,1.1307,-0.2985,-13.673,145.31,0.90005,-0.30002,-1.684,1.2001,6.9864e-10,-0.84201,0,0,0.16667,-0,-0,0.66667
0.86311,0.71527,5.1787,0.32291,3.7996,6.554,-4.4593,1.4864,-1.6295,-5.9457,3.432e-09,-0.81477,0,0,0.16667,7.8949e-16,0,0.66667
0.18742,0.90243,1.1245,0.60365,27.833,145.74,-1.8102,0.60341,-0.70667,-2.4136,4.2608e-10,-0.35334,0,0,0.16667,-0,8.4618e-17,0.66667
0.054764,0.79497,0.32858,0.44246,21.006,184.31,-0.3877,0.12923,-1.3024,-0.51693,1.7558e-09,-0.6512,0,0,0.16667,-0,-0,0.66667
0.42149,0.62865,2.5289,0.19298,7.5122,82.758,-1.3014,0.4338,-1.8697,-1.7352,3.9124e-13,-0.93485,0,0,0.16667,-0,-0,0.66667
0.5551,0.16386,3.3306,-0.50421,-16.583,52.709,4.4782,-1.4927,-1.095,5.971,-7.5939e-14,-0.5475,0,0,0.16667,-0,-0,0.66667
0.97074,0.74895,5.8245,0.37342,0.86968,0.85378,-5.8,1.9333,-1.5058,-7.7333,-7.0229e-08,-0.75288,0,0,0.16667,-4.9343e-16,0,0.66667
0.091754,0.59239,0.55052,0.13858,6.5177,173.37,-0.20344,0.067814,-1.9332,-0.27126,-2.6074e-08,-0.96661,0,0,0.16667,-2.0971e-16,0,0.66667
0.27392,0.28359,1.6435,-0.32461,-14.259,121.33,1.4227,-0.47423,-1.625,1.8969,9.2487e-12,-0.81252,0,0,0.16667,-0,-0,0.66667
0.10511,0.48108,0.63064,-0.028376,-1.3305,169.45,0.047721,-0.015907,-1.9963,0.063627,6.4269e-09,-0.99813,0,0,0.16667,-0,-0,0.66667
0.39044,0.77681,2.3426,0.41522,16.724,90.628,-2.5939,0.86462,-1.3891,-3.4585,2.6421e-12,-0.69456,0,0,0.16667,-9.8686e-16,0,0.66667
0.28901,0.22681,1.7341,-0.40979,-17.859,117.26,1.8949,-0.63165,-1.4018,2.5266,-1.8548e-12,-0.70089,0,0,0.16667,-0,-0,0.66667
0.5133,0.075364,3.0798,-0.63695,-22.415,61.845,5.2312,-1.7437,-0.55743,6.9749,1.2434e-14,-0.27871,0,0,0.16667,-0,2.2466e-16,0.66667
0.34826,0.67315,2.0895,0.25972,10.821,101.36,-1.4472,0.48239,-1.7592,-1.9296,3.8008e-12,-0.87958,0,0,0.16667,-3.9475e-16,0,0.66667
0.92823,0.41132,5.5694,-0.13302,-0.8085,2.1019,1.9756,-0.65854,-1.9364,2.6342,3.4173e-08,-0.96821,0,0,0.16667,-0,-0,0.66667
0.78995,0.43275,4.7397,-0.10088,-1.7627,13.624,1.275,-0.425,-1.9631,1.7,-1.2687e-10,-0.98157,0,0,0.16667,-3.9475e-16,0,0.66667
0.86101,0.8875,5.1661,0.58124,7.0811,7.2629,-8.0073,2.6691,-0.79913,-10.676,1.6514e-09,-0.39956,0,0,0.16667,1.579e-15,0,0.66667
0.1295,0.053844,0.77701,-0.66923,-31.505,162.47,1.3867,-0.46222,-0.40688,1.8489,3.7625e-11,-0.20344,0,0,0.16667,-9.8686e-17,0,0.66667
0.57507,0.27064,3.4504,-0.34403,-10.894,48.43,3.1655,-1.0552,-1.5789,4.2207,1.1002e-12,-0.78944,0,0,0.16667,-7.8949e-16,0,0.66667
0.21478,0.17028,1.2887,-0.49458,-22.482,137.91,1.6996,-0.56655,-1.1295,2.2662,1.0111e-10,-0.56473,0,0,0.16667,3.9475e-16,0,0.66667
0.86824,0.10273,5.2094,-0.59591,-6.9129,6.7225,8.2782,-2.7594,-0.73622,11.038,-1.1152e-08,-0.36811,0,0,0.16667,-0,-0,0.66667
0.015019,0.60019,0.090117,0.15028,7.1279,196.05,-0.036115,0.012038,-1.9212,-0.048153,8.3567e-08,-0.96062,0,0,0.16667,-0,-0,0.66667
0.10574,0.29871,0.63447,-0.30193,-14.183,169.29,0.51084,-0.17028,-1.6752,0.68112,6.1856e-09,-0.83759,0,0,0.16667,-1.2523e-16,0,0.66667
0.37606,0.61931,2.2563,0.17896,7.2769,94.137,-1.0768,0.35893,-1.8875,-1.4357,2.0494e-12,-0.94373,0,0,0.16667,1.9737e-16,0,0.66667
0.40209,0.93865,2.4126,0.65798,26.388,87.984,-4.2331,1.411,-0.46124,-5.6441,-4.4542e-13,-0.23062,0,0,0.16667,-0,-2.68e-19,0.66667
0.27722,0.74272,1.6633,0.36408,15.97,120.45,-1.6149,0.53829,-1.5283,-2.1532,-7.2697e-12,-0.76416,0,0,0.16667,-1.9737e-16,0,0.66667
0.096063,0.90372,0.57638,0.60558,28.677,172.2,-0.93079,0.31026,-0.69717,-1.2411,4.9153e-09,-0.34858,0,0,0.16667,2.4672e-17,0,0.66667
0.11873,0.047085,0.71238,-0.67937,-32.079,165.6,1.2906,-0.4302,-0.35752,1.7208,1.4594e-08,-0.17876,0,0,0.16667,-0,-0,0.66667
0.31794,0.85232,1.9077,0.52849,22.648,109.55,-2.6885,0.89616,-1.006,-3.5846,3.83e-12,-0.50301,0,0,0.16667,-0,-0,0.66667
0.95079,0.10084,5.7048,-0.59873,-2.6321,2.0131,9.1083,-3.0361,-0.72581,12.144,-1.3428e-07,-0.3629,0,0,0.16667,-0,-0,0.66667
0.20741,0.15554,1.2444,-0.51669,-23.576,140.01,1.7146,-0.57154,-1.0514,2.2862,1.4911e-10,-0.5257,0,0,0.16667,-1.4803e-16,0,0.66667
0.74728,0.73713,4.4837,0.3557,7.3784,19.245,-4.2529,1.4176,-1.5499,-5.6706,4.05e-11,-0.77495,0,0,0.16667,-7.8949e-16,0,0.66667
0.25819,0.083307,1.5491,-0.62504,-27.891,125.87,2.5821,-0.86068,-0.60958,3.4427,2.6543e-12,-0.30479,0,0,0.16667,-0,-0,0.66667
0.03724,0.51511,0.22344,0.022668,1.0733,189.46,-0.013507,0.0045019,-1.9968,-0.018009,-6.5289e-07,-0.99839,0,0,0.16667,-9.8686e-17,0,0.66667
0.016052,0.10748,0.096313,-0.58878,-28.122,195.76,0.15122,-0.050406,-0.76852,0.20162,-2.962e-07,-0.38426,0,0,0.16667,-0,-0,0.66667
0.15271,0.48613,0.91624,-0.020811,-0.96351,155.56,0.050848,-0.016949,-1.9978,0.067797,-9.9517e-10,-0.9989,0,0,0.16667,-0,-0,0.66667
0.46208,0.31167,2.7725,-0.2825,-10.523,73.062,2.0886,-0.69621,-1.7163,2.7849,-1.9871e-12,-0.85814,0,0,0.16667,1.1842e-15,0,0.66667
0.7559,0.25769,4.5354,-0.36347,-7.3156,18.105,4.396,-1.4653,-1.5293,5.8613,-6.8166e-11,-0.76467,0,0,0.16667,-1.579e-15,0,0.66667
0.72881,0.74553,4.3729,0.36829,8.1249,21.834,-4.2947,1.4316,-1.5173,-5.7262,1.0902e-11,-0.75865,0,0,0.16667,1.1842e-15,0,0.66667
0.35239,0.71762,2.1143,0.32643,13.569,100.32,-1.8405,0.6135,-1.6211,-2.454,3.3578e-12,-0.81054,0,0,0.16667,-5.3995e-16,0,0.66667
0.47914,0.78415,2.8748,0.42622,15.594,69.227,-3.2675,1.0892,-1.354,-4.3567,8.5709e-14,-0.67699,0,0,0.16667,1.579e-15,0,0.66667
0.81407,0.49966,4.8844,-0.00050605,-0.007897,10.919,0.0065914,-0.0021971,-2.002,0.0087885,5.4825e-10,-1.001,0,0,0.16667,-5.0577e-15,0,0.66667
0.8384,0.92464,5.0304,0.63697,8.9795,9.3963,-8.5445,2.8482,-0.55622,-11.393,1.2268e-11,-0.27811,0,0,0.16667,1.579e-15,0,0.66667
0.31992,0.86752,1.9195,0.55128,23.606,109.05,-2.8218,0.94061,-0.91834,-3.7625,3.5658e-12,-0.45917,0,0,0.16667,-5.9212e-16,0,0.66667
0.004265,0.70859,0.02559,0.31288,14.867,199.24,-0.021351,0.007117,-1.6512,-0.028468,-7.404e-08,-0.8256,0,0,0.16667,-0,-0,0.66667
0.046931,0.6721,0.28159,0.25816,12.231,186.6,-0.19385,0.064616,-1.7644,-0.25846,2.3112e-08,-0.88219,0,0,0.16667,-0,-0,0.66667
0.73781,0.43735,4.4268,-0.093982,-2.0015,20.314,1.1095,-0.36982,-1.9696,1.4793,-1.8976e-11,-0.98482,0,0,0.16667,-1.7764e-15,0,0.66667
0.27263,0.27182,1.6358,-0.34226,-15.049,121.7,1.493,-0.49767,-1.5822,1.9907,9.8184e-12,-0.79112,0,0,0.16667,3.9475e-16,0,0.66667
0.48149,0.45736,2.8889,-0.063954,-2.3211,68.46,0.49269,-0.16423,-1.9852,0.65692,5.6627e-13,-0.9926,0,0,0.16667,-0,-0,0.66667
0.19203,0.87317,1.1522,0.55976,25.733,144.4,-1.7199,0.57329,-0.88624,-2.2931,-1.3577e-10,-0.44312,0,0,0.16667,-0,-0,0.66667
0.84711,0.65464,5.0827,0.23197,3.022,7.8098,-3.144,1.048,-1.8095,-4.192,2.3907e-09,-0.90473,0,0,0.16667,1.7764e-15,0,0.66667
0.50338,0.3426,3.0203,-0.2361,-8.3372,63.568,1.9016,-0.63386,-1.8027,2.5354,4.2966e-13,-0.90133,0,0,0.16667,-0,-0,0.66667
0.52716,0.59032,3.163,0.13548,4.6196,58.286,-1.1428,0.38092,-1.9349,-1.5237,-3.6038e-13,-0.96745,0,0,0.16667,3.9475e-16,0,0.66667
0.28808,0.59184,1.7285,0.13776,5.9862,117.39,-0.63499,0.21166,-1.9323,-0.84665,-1.8706e-12,-0.96617,0,0,0.16667,-6.6989e-18,0,0.66667
0.512,0.0050055,3.072,-0.74249,-26.288,62.33,6.0825,-2.0275,-0.039928,8.11,-1.4468e-12,-0.019964,0,0,0.16667,3.158e-15,0,0.66667
0.0019636,0.26462,0.011782,-0.35307,-16.787,199.92,0.011093,-0.0036976,-1.5569,0.014791,1.0639e-07,-0.77843,0,0,0.16667,-0,-0,0.66667
0.2773,0.82272,1.6638,0.48407,21.284,120.5,-2.1477,0.7159,-1.1662,-2.8636,-2.0088e-12,-0.5831,0,0,0.16667,-0,-0,0.66667
0.34876,0.43918,2.0926,-0.091233,-3.7941,101.17,0.5091,-0.1697,-1.9706,0.6788,-2.0473e-12,-0.9853,0,0,0.16667,7.8949e-16,0,0.66667
0.28395,0.056621,1.7037,-0.66507,-29.266,118.84,3.0215,-1.0072,-0.4277,4.0287,-3.0929e-12,-0.21385,0,0,0.16667,-3.9475e-16,0,0.66667
0.085952,0.497,0.51571,-0.0044972,-0.21165,175.08,0.0061848,-0.0020617,-1.9995,0.0082463,-1.3167e-07,-0.99975,0,0,0.16667,-0,-0,0.66667
0.52178,0.62559,3.1307,0.18839,6.4778,59.479,-1.5728,0.52426,-1.874,-2.097,2.0817e-13,-0.93699,0,0,0.16667,-1.579e-15,0,0.66667
0.78848,0.46064,4.7309,-0.059035,-1.0378,13.782,0.74477,-0.24826,-1.9865,0.99302,-1.2332e-10,-0.99324,0,0,0.16667,-0,-0,0.66667
0.9426,0.42139,5.6556,-0.11791,-0.56401,1.4536,1.7782,-0.59275,-1.9494,2.371,6.56e-08,-0.97469,0,0,0.16667,-0,-0,0.66667
0.49729,0.57243,2.9837,0.10864,3.8632,64.875,-0.86443,0.28814,-1.958,-1.1526,-2.4286e-13,-0.97898,0,0,0.16667,-0,-0,0.66667
0.59375,0.57209,3.5625,0.10814,3.2989,44.566,-1.0273,0.34243,-1.9601,-1.3697,-7.2364e-13,-0.98003,0,0,0.16667,-0,-0,0.66667
0.29086,0.61677,1.7452,0.17516,7.5998,116.65,-0.81516,0.27172,-1.8899,-1.0869,-1.6127e-12,-0.94495,0,0,0.16667,3.9475e-16,0,0.66667
0.14916,0.66568,0.89496,0.24852,11.535,156.62,-0.59311,0.1977,-1.7791,-0.79082,-2.4754e-09,-0.88957,0,0,0.16667,-0,-0,0.66667
0.13187,0.73447,0.79123,0.35171,16.428,161.66,-0.74208,0.24736,-1.5587,-0.98944,-3.8433e-09,-0.77934,0,0,0.16667,1.9737e-16,0,0.66667
0.73236,0.34327,4.3942,-0.2351,-5.1085,21.172,2.7548,-0.91828,-1.8052,3.6731,-1.8711e-11,-0.90258,0,0,0.16667,-2.9606e-16,0,0.66667
0.73447,0.44013,4.4068,-0.089805,-1.9337,20.781,1.0553,-0.35178,-1.9738,1.4071,-1.4535e-11,-0.98691,0,0,0.16667,-0,-0,0.66667
0.17935,0.52526,1.0761,0.03789,1.7382,147.88,-0.10873,0.036243,-1.994,-0.14497,-3.2225e-10,-0.997,0,0,0.16667,-0,-0,0.66667
0.41356,0.24938,2.4814,-0.37593,-14.794,84.825,2.4875,-0.82918,-1.4975,3.3167,-5.5733e-13,-0.74877,0,0,0.16667,-1.727e-16,0,0.66667
0.59414,0.30618,3.5649,-0.29072,-8.8845,44.605,2.7637,-0.92124,-1.7012,3.685,6.0529e-13,-0.85059,0,0,0.16667,1.1842e-15,0,0.66667
0.12528,0.028402,0.75169,-0.7074,-33.377,163.71,1.418,-0.47266,-0.22308,1.8906,-1.4316e-08,-0.11154,0,0,0.16667,-0,-0,0.66667
0.78537,0.53462,4.7122,0.051929,0.92501,14.148,-0.65254,0.21751,-1.9906,-0.87005,1.2659e-10,-0.99529,0,0,0.16667,-0,-0,0.66667
0.61999,0.97729,3.72,0.71594,21.118,40.398,-7.1021,2.3674,-0.1767,-9.4694,-1.7941e-13,-0.088351,0,0,0.16667,-0,-0,0.66667
0.61522,0.1438,3.6913,-0.53431,-15.786,40.91,5.2595,-1.7532,-0.98366,7.0126,9.055e-13,-0.49183,0,0,0.16667,-0,-0,0.66667
0.70121,0.72359,4.2072,0.33538,8.0264,25.901,-3.7628,1.2543,-1.601,-5.017,-3.3205e-12,-0.8005,0,0,0.16667,-0,-0,0.66667
0.98718,0.23065,5.9231,-0.40402,-0.32664,0.58574,6.3815,-2.1272,-1.4194,8.5087,-5.6672e-08,-0.70968,0,0,0.16667,1.579e-15,0,0.66667
0.56239,0.94628,3.3744,0.66942,21.89,51.498,-6.0237,2.0079,-0.40828,-8.0316,-7.8604e-14,-0.20414,0,0,0.16667,-0,-1.5953e-16,0.66667
0.86442,0.18481,5.1865,-0.47279,-5.5704,6.7227,6.5389,-2.1796,-1.2052,8.7186,-1.3881e-09,-0.60262,0,0,0.16667,-1.7764e-15,0,0.66667
0.41871,0.46732,2.5123,-0.049024,-1.9121,83.403,0.32843,-0.10948,-1.9924,0.4379,-5.4118e-13,-0.99618,0,0,0.16667,3.9475e-16,0,0.66667
0.65447,0.36218,3.9268,-0.20673,-5.5613,33.436,2.1648,-0.72159,-1.8483,2.8864,3.6542e-12,-0.92415,0,0,0.16667,-7.8949e-16,0,0.66667
0.92526,0.89516,5.5516,0.59274,3.9642,3.0708,-8.7751,2.925,-0.75032,-11.7,1.625e-07,-0.37516,0,0,0.16667,7.8949e-16,0,0.66667
0.66415,0.023376,3.9849,-0.71494,-19.142,32.608,7.5972,-2.5324,-0.18151,10.13,5.6444e-13,-0.090756,0,0,0.16667,-0,-0,0.66667
0.30308,0.34674,1.8185,-0.2299,-9.8999,113.35,1.1148,-0.37161,-1.8118,1.4864,-3.5849e-12,-0.90589,0,0,0.16667,-0,-0,0.66667
0.61995,0.97933,3.7197,0.71899,21.214,40.414,-7.1317,2.3772,-0.16097,-9.509,-2.1716e-13,-0.080486,0,0,0.16667,-0,-0,0.66667
0.35132,0.026396,2.1079,-0.71041,-29.848,100.97,3.9933,-1.3311,-0.20486,5.3243,-1.0594e-12,-0.10243,0,0,0.16667,3.9475e-16,0,0.66667
0.32237,0.86407,1.9342,0.5461,23.339,108.39,-2.8167,0.93891,-0.93845,-3.7556,2.8129e-12,-0.46922,0,0,0.16667,3.9475e-16,0,0.66667
0.61021,0.77502,3.6612,0.41253,12.261,41.663,-4.0277,1.3426,-1.3963,-5.3702,-1.9962e-12,-0.69816,0,0,0.16667,-3.9475e-16,0,0.66667
0.16032,0.98614,0.96194,0.72922,34.079,153.59,-1.8706,0.62352,-0.10846,-2.4941,6.2745e-11,-0.054229,0,0,0.16667,-0,-0,0.66667
0.48674,0.56437,2.9204,0.096555,3.4812,67.264,-0.75195,0.25065,-1.9681,-1.0026,-3.8081e-13,-0.98403,0,0,0.16667,-0,-0,0.66667
0.94563,0.87144,5.6738,0.55716,2.6832,2.0807,-8.4298,2.8099,-0.89575,-11.24,1.8378e-07,-0.44788,0,0,0.16667,-0,-0,0.66667
0.38391,0.026221,2.3035,-0.71067,-29.042,92.619,4.3654,-1.4551,-0.20357,5.8205,5.9552e-13,-0.10178,0,0,0.16667,-0,-0,0.66667
0.18896,0.3976,1.1338,-0.1536,-7.0238,145.13,0.4644,-0.1548,-1.9168,0.6192,5.1632e-10,-0.95842,0,0,0.16667,-0,-0,0.66667
0.46884,0.25317,2.813,-0.37025,-13.702,71.554,2.7774,-0.92579,-1.515,3.7032,2.6579e-13,-0.7575,0,0,0.16667,-0,-0,0.66667
0.84091,0.14734,5.0454,-0.52898,-7.2814,8.8826,7.1172,-2.3724,-1.005,9.4896,-7.0111e-10,-0.50251,0,0,0.16667,-0,-0,0.66667
0.84267,0.0057302,5.056,-0.7414,-10.307,9.3276,9.9961,-3.332,-0.046892,13.328,-1.6713e-10,-0.023446,0,0,0.16667,-0,1.1822e-16,0.66667
0.8278,0.069263,4.9668,-0.64611,-9.6639,10.435,8.5576,-2.8525,-0.51742,11.41,3.8395e-10,-0.25871,0,0,0.16667,-0,-1.3388e-16,0.66667
0.011476,0.066649,0.068853,-0.65003,-31.103,197.11,0.11935,-0.039782,-0.49768,0.15913,1.6992e-06,-0.24884,0,0,0.16667,-0,-0,0.66667
0.26704,0.75264,1.6022,0.37896,16.728,123.25,-1.6192,0.53972,-1.491,-2.1589,-1.4282e-11,-0.74549,0,0,0.16667,-7.8949e-16,0,0.66667
0.99988,0.8338,5.9993,0.50071,-0.15593,0.66953,-8.0103,2.6701,-1.1101,-10.68,7.1742e-07,-0.55506,0,0,0.16667,7.8949e-16,-1.2155e-17,0.66667
0.11968,0.26451,0.7181,-0.35324,-16.552,165.22,0.67642,-0.22547,-1.5551,0.9019,5.9082e-09,-0.77756,0,0,0.16667,-0,-0,0.66667
0.49009,0.72365,2.9405,0.33547,12.078,66.636,-2.6306,0.87686,-1.5993,-3.5074,2.3181e-13,-0.79966,0,0,0.16667,-0,-0,0.66667
0.79003,0.21443,4.7402,-0.42836,-7.5597,13.98,5.4146,-1.8049,-1.347,7.2195,-2.2572e-10,-0.67349,0,0,0.16667,1.1842e-15,0,0.66667
0.12221,0.62741,0.73328,0.19111,8.9319,164.45,-0.3737,0.12457,-1.871,-0.49826,1.2785e-09,-0.93552,0,0,0.16667,-0,-0,0.66667
0.66241,0.7714,3.9745,0.4071,10.799,32.291,-4.3147,1.4382,-1.4096,-5.7529,-4.3765e-12,-0.70478,0,0,0.16667,-7.8949e-16,0,0.66667
0.48808,0.77185,2.9285,0.40777,14.743,67.163,-3.1844,1.0615,-1.4083,-4.2459,2.0872e-13,-0.70416,0,0,0.16667,-0,-0,0.66667
0.19429,0.75179,1.1657,0.37768,17.28,143.67,-1.1741,0.39136,-1.4927,-1.5654,-5.069e-10,-0.74634,0,0,0.16667,-7.8949e-16,0,0.66667
0.87863,0.66892,5.2718,0.25339,2.6422,5.2528,-3.5621,1.1874,-1.7711,-4.7495,4.5306e-09,-0.88554,0,0,0.16667,-0,-0,0.66667
0.18149,0.54719,1.0889,0.070791,3.2451,147.27,-0.20556,0.068521,-1.9808,-0.27408,-3.1349e-10,-0.9904,0,0,0.16667,3.9475e-16,0,0.66667
0.63905,0.6496,3.8343,0.22439,6.253,36.161,-2.2944,0.7648,-1.8219,-3.0592,-2.8215e-12,-0.91093,0,0,0.16667,-1.1842e-15,0,0.66667
0.74083,0.71345,4.445,0.32018,6.7813,20.079,-3.7952,1.2651,-1.6348,-5.0603,3.1081e-11,-0.81739,0,0,0.16667,-3.9475e-16,0,0.66667
0.56267,0.3174,3.376,-0.2739,-8.8463,50.882,2.4659,-0.82195,-1.7353,3.2878,2.5135e-13,-0.86766,0,0,0.16667,-0,-0,0.66667
0.62884,0.67071,3.773,0.25606,7.2985,38.031,-2.5763,0.85877,-1.7661,-3.4351,-2.7276e-12,-0.88305,0,0,0.16667,-0,-0,0.66667
0.11897,0.69832,0.71379,0.29748,13.93,165.42,-0.56623,0.18874,-1.6841,-0.75497,-4.0523e-09,-0.84207,0,0,0.16667,-0,-0,0.66667
0.30804,0.30569,1.8482,-0.29147,-12.519,112.04,1.4365,-0.47884,-1.6975,1.9154,-4.2532e-12,-0.84874,0,0,0.16667,-3.9475e-16,0,0.66667
0.58696,0.82402,3.5218,0.48602,15.127,46.249,-4.5644,1.5215,-1.1587,-6.0859,-9.4325e-13,-0.57937,0,0,0.16667,-0,-0,0.66667
0.39546,0.068938,2.3728,-0.64659,-26.086,89.623,4.0913,-1.3638,-0.51295,5.455,-9.8499e-13,-0.25648,0,0,0.16667,-0,-0,0.66667
0.66395,0.084435,3.9837,-0.62335,-16.618,32.426,6.6219,-2.2073,-0.61718,8.8292,1.7737e-12,-0.30859,0,0,0.16667,-7.8949e-16,0,0.66667
0.85195,0.33421,5.1117,-0.24869,-3.1437,7.3996,3.39,-1.13,-1.7788,4.52,-2.4987e-09,-0.88941,0,0,0.16667,-0,-0,0.66667
0.19022,0.95525,1.1413,0.68287,31.524,145,-2.0784,0.69279,-0.34173,-2.7711,-8.7637e-11,-0.17086,0,0,0.16667,-1.9737e-16,0,0.66667
0.90327,0.37994,5.4196,-0.18009,-1.4924,3.508,2.6028,-0.86759,-1.8851,3.4704,7.9545e-10,-0.94253,0,0,0.16667,-0,-0,0.66667
0.38318,0.17095,2.2991,-0.49357,-20.05,92.538,3.026,-1.0087,-1.1323,4.0347,-1.8587e-12,-0.56614,0,0,0.16667,-0,-0,0.66667
0.94312,0.51738,5.6587,0.026069,0.1231,1.3991,-0.39338,0.13113,-1.9963,-0.5245,-3.0191e-07,-0.99814,0,0,0.16667,-3.158e-15,0,0.66667
0.61738,0.82548,3.7043,0.48822,14.338,40.429,-4.8227,1.6076,-1.151,-6.4303,-1.4926e-12,-0.5755,0,0,0.16667,-0,-0,0.66667
0.7901,0.40025,4.7406,-0.14963,-2.6148,13.633,1.8915,-0.6305,-1.9196,2.522,-2.5814e-10,-0.95978,0,0,0.16667,-0,-0,0.66667
0.51478,0.39592,3.0887,-0.15612,-5.421,60.998,1.2859,-0.42863,-1.9143,1.7145,-2.8333e-13,-0.95716,0,0,0.16667,7.8949e-16,0,0.66667
0.53114,0.32311,3.1869,-0.26534,-9.0077,57.5,2.2549,-0.75164,-1.7512,3.0066,4.4187e-14,-0.87558,0,0,0.16667,-0,-0,0.66667
0.32759,0.9063,1.9656,0.60945,25.993,107.07,-3.1944,1.0648,-0.68207,-4.2592,2.4603e-12,-0.34104,0,0,0.16667,-7.8949e-16,0,0.66667
0.12936,0.2785,0.77619,-0.33225,-15.525,162.39,0.6877,-0.22923,-1.6077,0.91693,4.175e-09,-0.80385,0,0,0.16667,2.4672e-16,0,0.66667
0.38382,0.86047,2.3029,0.54071,21.979,92.424,-3.3206,1.1069,-0.95898,-4.4274,1.6771e-12,-0.47949,0,0,0.16667,-0,-0,0.66667
0.21498,0.73514,1.2899,0.35271,15.987,137.78,-1.2132,0.40439,-1.5569,-1.6176,-2.5742e-10,-0.77846,0,0,0.16667,-0,-0,0.66667
0.032865,0.56739,0.19719,0.10109,4.789,190.76,-0.053156,0.017719,-1.9648,-0.070875,1.4529e-07,-0.98239,0,0,0.16667,-0,-0,0.66667
0.27489,0.69785,1.6493,0.29677,13.023,121.05,-1.3053,0.43509,-1.6856,-1.7404,-9.1077e-12,-0.8428,0,0,0.16667,-0,-0,0.66667
0.18058,0.11326,1.0835,-0.5801,-26.801,147.69,1.676,-0.55868,-0.80208,2.2347,4.3862e-10,-0.40104,0,0,0.16667,-1.9737e-16,0,0.66667
0.87553,0.49453,5.2532,-0.008206,-0.087161,5.3349,0.11495,-0.038318,-2.0015,0.15327,1.3942e-08,-1.0007,0,0,0.16667,1.9737e-15,0,0.66667
0.081237,0.69773,0.48742,0.2966,13.997,176.48,-0.38552,0.12851,-1.6869,-0.51402,-7.3015e-10,-0.84346,0,0,0.16667,-0,-0,0.66667
0.1839,0.31932,1.1034,-0.27102,-12.431,146.61,0.79742,-0.26581,-1.7387,1.0632,7.698e-10,-0.86935,0,0,0.16667,3.9475e-16,0,0.66667
0.70403,0.1336,4.2242,-0.5496,-13.156,25.822,6.1909,-2.0636,-0.92711,8.2546,3.61e-12,-0.46355,0,0,0.16667,-0,-0,0.66667
0.91923,0.11438,5.5154,-0.57844,-4.1675,3.3352,8.5074,-2.8358,-0.81026,11.343,2.7685e-09,-0.40513,0,0,0.16667,-0,2.281e-17,0.66667
0.25146,0.13385,1.5088,-0.54922,-24.547,127.67,2.2097,-0.73657,-0.9282,2.9463,1.3252e-11,-0.4641,0,0,0.16667,-0,-0,0.66667
0.021301,0.55831,0.12781,0.087459,4.1458,194.19,-0.029808,0.0099361,-1.9724,-0.039744,1.1997e-07,-0.9862,0,0,0.16667,-1.2336e-17,0,0.66667
0.9605,0.04349,5.763,-0.68476,-2.4786,1.9801,10.524,-3.5078,-0.33133,14.031,-6.0427e-06,-0.16567,0,0,0.16667,-1.579e-15,0,0.66667
0.68222,0.17197,4.0933,-0.49205,-12.462,29.144,5.371,-1.7903,-1.1379,7.1614,3.9266e-12,-0.56895,0,0,0.16667,1.579e-15,0,0.66667
0.31066,0.6582,1.864,0.23731,10.167,111.31,-1.1796,0.39319,-1.8012,-1.5727,3.2383e-12,-0.90062,0,0,0.16667,-0,-0,0.66667
0.47237,0.20238,2.8342,-0.44643,-16.479,70.811,3.3741,-1.1247,-1.2907,4.4988,-1.5521e-13,-0.64535,0,0,0.16667,-0,-0,0.66667
0.59926,0.48702,3.5955,-0.019466,-0.58747,43.48,0.18664,-0.062213,-1.9974,0.24885,-6.3297e-13,-0.99871,0,0,0.16667,7.8949e-16,0,0.66667
0.37387,0.86508,2.2432,0.54762,22.463,94.964,-3.2758,1.0919,-0.93455,-4.3678,1.1822e-12,-0.46728,0,0,0.16667,-0,1.9094e-16,0.66667
0.87449,0.032853,5.2469,-0.70072,-7.8613,6.559,9.8043,-3.2681,-0.25658,13.072,1.361e-08,-0.12829,0,0,0.16667,-0,-0,0.66667
0.72617,0.93322,4.357,0.64983,14.649,22.769,-7.5503,2.5168,-0.49791,-10.067,-1.4451e-12,-0.24895,0,0,0.16667,-0,-0,0.66667
0.95434,0.26746,5.726,-0.34881,-1.3346,1.289,5.3261,-1.7754,-1.568,7.1015,4.1882e-08,-0.78398,0,0,0.16667,-0,-0,0.66667
0.35107,0.12445,2.1064,-0.56333,-23.564,100.86,3.1642,-1.0547,-0.87174,4.219,-2.5693e-12,-0.43587,0,0,0.16667,3.454e-16,0,0.66667
0.93717,0.3407,5.623,-0.23895,-1.2707,1.7897,3.583,-1.1943,-1.7992,4.7774,6.3836e-09,-0.89962,0,0,0.16667,-3.9475e-16,0,0.66667
0.4791,0.76559,2.8746,0.39838,14.566,69.207,-3.0538,1.0179,-1.4345,-4.0717,3.2019e-13,-0.71724,0,0,0.16667,7.8949e-16,0,0.66667
0.64232,0.090553,3.8539,-0.61417,-17.199,36.138,6.3119,-2.104,-0.66015,8.4159,5.9952e-13,-0.33008,0,0,0.16667,1.9737e-16,0,0.66667
0.73665,0.31012,4.4199,-0.28482,-6.1104,20.619,3.357,-1.119,-1.7127,4.476,-2.5671e-11,-0.85636,0,0,0.16667,-9.8686e-16,0,0.66667
0.80934,0.89091,4.856,0.58637,9.5765,12.167,-7.5931,2.531,-0.77699,-10.124,2.454e-10,-0.38849,0,0,0.16667,-0,-0,0.66667
0.39626,0.89415,2.3776,0.59122,23.792,89.352,-3.7484,1.2495,-0.75596,-4.9979,6.5437e-13,-0.37798,0,0,0.16667,3.9475e-16,0,0.66667
0.44795,0.27074,2.6877,-0.34389,-13.036,76.454,2.4647,-0.82158,-1.5785,3.2863,-5.3801e-13,-0.78924,0,0,0.16667,-0,-0,0.66667
0.81728,0.33538,4.9037,-0.24692,-3.8072,10.716,3.2289,-1.0763,-1.7825,4.3052,-8.9174e-10,-0.89124,0,0,0.16667,-0,-0,0.66667
0.71756,0.077759,4.3053,-0.63336,-14.642,23.98,7.2716,-2.4239,-0.57426,9.6954,1.6027e-12,-0.28713,0,0,0.16667,-0,-0,0.66667
0.94085,0.1697,5.6451,-0.49544,-2.5673,2.1064,7.4582,-2.4861,-1.1267,9.9443,-8.933e-10,-0.56334,0,0,0.16667,-1.579e-15,0,0.66667
0.9796,0.28008,5.8776,-0.32988,-0.4843,0.57676,5.1704,-1.7235,-1.6134,6.8939,1.1637e-08,-0.80672,0,0,0.16667,-2.9606e-16,0,0.66667
0.17891,0.3144,1.0735,-0.27841,-12.796,148.04,0.79697,-0.26566,-1.7242,1.0626,9.1128e-10,-0.86211,0,0,0.16667,-0,-0,0.66667
0.22792,0.78968,1.3675,0.43452,19.605,134.17,-1.5846,0.52819,-1.3276,-2.1127,-1.1573e-10,-0.6638,0,0,0.16667,-0,-0,0.66667
0.71599,0.98282,4.2959,0.72423,16.914,24.447,-8.2967,2.7656,-0.13475,-11.062,9.9476e-14,-0.067376,0,0,0.16667,-0,1.9542e-16,0.66667
0.74738,0.39468,4.4843,-0.15798,-3.2592,19.028,1.8891,-0.62971,-1.9111,2.5188,-3.8328e-11,-0.95556,0,0,0.16667,-0,-0,0.66667
0.60318,0.78779,3.6191,0.43169,13.014,43.024,-4.1661,1.3887,-1.3366,-5.5549,-2.0548e-12,-0.66828,0,0,0.16667,1.579e-15,0,0.66667
0.8773,0.2043,5.2638,-0.44355,-4.7359,5.6618,6.2261,-2.0754,-1.3004,8.3014,-6.1453e-09,-0.6502,0,0,0.16667,-1.579e-15,0,0.66667
0.25199,0.84827,1.5119,0.5224,23.326,127.5,-2.1062,0.70208,-1.0306,-2.8083,-8.7905e-12,-0.51531,0,0,0.16667,-0,-0,0.66667
0.33949,0.70518,2.0369,0.30777,12.921,103.68,-1.6718,0.55725,-1.6623,-2.229,4.494e-12,-0.83115,0,0,0.16667,-0,-0,0.66667
0.49465,0.91912,2.9679,0.62868,22.684,65.977,-4.9756,1.6585,-0.59349,-6.6342,-5.9108e-13,-0.29675,0,0,0.16667,7.8949e-16,0,0.66667
0.31503,0.16911,1.8902,-0.49633,-21.297,110.3,2.5017,-0.83391,-1.1239,3.3357,-4.833e-12,-0.56197,0,0,0.16667,-0,-0,0.66667
0.54544,0.92985,3.2726,0.64477,21.643,54.96,-5.6269,1.8756,-0.52269,-7.5026,2.6645e-14,-0.26135,0,0,0.16667,-0,-0,0.66667
0.68248,0.15082,4.0949,-0.52377,-13.274,29.161,5.7193,-1.9064,-1.0242,7.6258,3.6784e-12,-0.51208,0,0,0.16667,-0,-0,0.66667
0.22037,0.13559,1.3222,-0.54661,-24.814,136.36,1.9273,-0.64243,-0.93813,2.5697,8.4407e-11,-0.46907,0,0,0.16667,-3.9475e-16,0,0.66667
0.48534,0.99547,2.912,0.74321,27.263,68.287,-5.7713,1.9238,-0.03764,-7.6951,-5.3513e-13,-0.01882,0,0,0.16667,-0,-0,0.66667
0.99298,0.84286,5.9579,0.51429,0.18636,0.77417,-8.1708,2.7236,-1.0596,-10.894,4.5659e-07,-0.5298,0,0,0.16667,2.3685e-15,0,0.66667
0.32416,0.68034,1.945,0.27052,11.483,107.72,-1.4031,0.46768,-1.7395,-1.8707,4.3927e-12,-0.86974,0,0,0.16667,5.9212e-16,0,0.66667
0.035362,0.8435,0.21217,0.51524,24.542,190.04,-0.29152,0.097173,-1.0568,-0.38869,6.0686e-08,-0.52842,0,0,0.16667,-5.7824e-17,0,0.66667
0.81735,0.041681,4.9041,-0.68748,-10.889,11.605,8.9906,-2.9969,-0.31861,11.987,-7.0447e-10,-0.15931,0,0,0.16667,-0,-0,0.66667
0.50331,0.40403,3.0198,-0.14396,-5.0788,63.537,1.1593,-0.38643,-1.927,1.5457,5.1104e-13,-0.9635,0,0,0.16667,-7.8949e-16,0,0.66667
0.052784,0.58146,0.3167,0.12218,5.7791,184.87,-0.10319,0.034397,-1.9456,-0.13759,4.6347e-08,-0.97281,0,0,0.16667,-0,-0,0.66667
0.89031,0.67001,5.3418,0.25501,2.4066,4.4256,-3.6326,1.2109,-1.7699,-4.8435,3.7275e-09,-0.88497,0,0,0.16667,-0,-0,0.66667
0.40451,0.62195,2.4271,0.18293,7.2435,86.952,-1.184,0.39466,-1.8824,-1.5786,1.0671e-12,-0.94118,0,0,0.16667,1.9737e-16,0,0.66667
0.92927,0.8715,5.5756,0.55725,3.5042,2.7774,-8.2854,2.7618,-0.8954,-11.047,-3.7995e-08,-0.4477,0,0,0.16667,7.8949e-16,0,0.66667
0.40208,0.55247,2.4125,0.078702,3.1216,87.531,-0.50631,0.16877,-1.9773,-0.67508,7.2986e-13,-0.98864,0,0,0.16667,-3.9475e-16,0,0.66667
0.076832,0.83446,0.46099,0.50168,23.777,177.81,-0.61673,0.20558,-1.1059,-0.8223,-4.9007e-08,-0.55295,0,0,0.16667,-0,-0,0.66667
0.2453,0.38432,1.4718,-0.17351,-7.7317,129.2,0.68101,-0.227,-1.8922,0.90801,5.3914e-11,-0.94608,0,0,0.16667,-0,-0,0.66667
0.35026,0.89047,2.1016,0.58571,24.532,101.09,-3.2824,1.0941,-0.7788,-4.3765,1.9369e-12,-0.3894,0,0,0.16667,-0,-0,0.66667
0.75073,0.17119,4.5044,-0.49321,-10.168,19.014,5.9243,-1.9748,-1.136,7.899,-2.3369e-11,-0.56798,0,0,0.16667,1.579e-15,0,0.66667
0.18475,0.30903,1.1085,-0.28645,-13.137,146.37,0.84673,-0.28224,-1.709,1.129,7.3237e-10,-0.85449,0,0,0.16667,5.4696e-17,0,0.66667
0.43097,0.14895,2.5858,-0.52657,-20.425,80.72,3.631,-1.2103,-1.0132,4.8413,-5.3846e-13,-0.50658,0,0,0.16667,-3.9475e-16,0,0.66667
0.87325,0.71206,5.2395,0.31809,3.4732,5.7447,-4.4443,1.4814,-1.641,-5.9258,4.4259e-09,-0.82051,0,0,0.16667,7.8949e-16,0,0.66667
0.53376,0.92753,3.2026,0.64129,21.912,57.424,-5.4767,1.8256,-0.53778,-7.3023,7.9492e-14,-0.26889,0,0,0.16667,-7.8949e-16,0,0.66667
0.10315,0.2647,0.61893,-0.35295,-16.601,170.05,0.58253,-0.19418,-1.5557,0.7767,6.9736e-09,-0.77783,0,0,0.16667,-0,-0,0.66667
0.024522,0.50121,0.14713,0.0018121,0.085871,193.23,-0.00071096,0.00024126,-2,-0.00094581,6.4119e-06,-0.99998,0,0,0.16667,-0,-0,0.66667
0.70581,0.36035,4.2349,-0.20947,-4.9331,25.065,2.3656,-0.78852,-1.8437,3.1541,-1.3856e-13,-0.92185,0,0,0.16667,-0,-0,0.66667
0.97913,0.22948,5.8748,-0.40577,-0.63717,0.73193,6.3569,-2.119,-1.4135,8.4758,8.6206e-08,-0.70675,0,0,0.16667,1.579e-15,0,0.66667
0.78517,0.72889,4.711,0.34334,6.1621,14.413,-4.3132,1.4377,-1.5803,-5.751,2.5592e-10,-0.79013,0,0,0.16667,-0,-0,0.66667
0.76473,0.23788,4.5884,-0.39318,-7.6695,17.007,4.8108,-1.6036,-1.4512,6.4144,-8.9223e-11,-0.72559,0,0,0.16667,-0,-0,0.66667
0.67545,0.56173,4.0527,0.092591,2.3635,29.828,-1.0006,0.33355,-1.9704,-1.3342,-1.9098e-12,-0.98519,0,0,0.16667,-1.0856e-15,0,0.66667
0.7955,0.18289,4.773,-0.47567,-8.2175,13.441,6.0543,-2.0181,-1.1968,8.0724,-1.9013e-10,-0.59841,0,0,0.16667,-1.579e-15,0,0.66667
0.040018,0.3316,0.24011,-0.2526,-11.975,188.65,0.16174,-0.053913,-1.7717,0.21565,-3.5699e-08,-0.88585,0,0,0.16667,-0,-0,0.66667
0.26468,0.2003,1.5881,-0.44954,-19.898,123.94,1.9038,-0.63459,-1.2822,2.5384,9.0414e-12,-0.64112,0,0,0.16667,-0,-0,0.66667
0.6954,0.34,4.1724,-0.24,-5.8235,26.704,2.6703,-0.8901,-1.7946,3.5604,2.7749e-12,-0.89732,0,0,0.16667,-1.8887e-16,0,0.66667
0.86699,0.29003,5.2019,-0.31495,-3.6028,6.2293,4.3689,-1.4563,-1.6461,5.8252,-3.832e-09,-0.82305,0,0,0.16667,-0,-0,0.66667
0.67461,0.86005,4.0476,0.54008,13.974,30.477,-5.8295,1.9432,-0.96259,-7.7726,-3.2623e-12,-0.4813,0,0,0.16667,-0,-0,0.66667
0.17628,0.12409,1.0577,-0.56386,-26.081,148.91,1.5903,-0.53011,-0.87007,2.1204,5.8177e-10,-0.43504,0,0,0.16667,-4.9343e-17,0,0.66667
0.93631,0.74351,5.6179,0.36527,1.9997,2.018,-5.4721,1.824,-1.5268,-7.2961,-6.7021e-09,-0.76338,0,0,0.16667,-0,-0,0.66667
0.90338,0.39915,5.4203,-0.15127,-1.2507,3.4785,2.1864,-0.72881,-1.9188,2.9153,-2.1585e-10,-0.95939,0,0,0.16667,-0,-0,0.66667
0.086679,0.98346,0.52007,0.7252,34.52,174.98,-1.0057,0.33525,-0.12859,-1.341,1.3902e-07,-0.064295,0,0,0.16667,2.053e-16,0,0.66667
0.193,0.95178,1.158,0.67766,31.244,144.2,-2.0926,0.69754,-0.36591,-2.7902,6.1306e-11,-0.18296,0,0,0.16667,-0,-0,0.66667
0.27519,0.24525,1.6512,-0.38212,-16.788,121.01,1.6825,-0.56084,-1.4803,2.2434,5.3976e-12,-0.74013,0,0,0.16667,1.9737e-16,0,0.66667
0.73841,0.54548,4.4305,0.068225,1.4497,20.222,-0.80605,0.26868,-1.9826,-1.0747,1.0698e-11,-0.9913,0,0,0.16667,1.579e-15,0,0.66667
0.85937,0.43075,5.1562,-0.10387,-1.2442,6.6485,1.4282,-0.47607,-1.9636,1.9043,-2.7568e-09,-0.98179,0,0,0.16667,-0,-0,0.66667
0.57832,0.13276,3.4699,-0.55085,-17.45,48.064,5.0971,-1.699,-0.92278,6.7962,4.0457e-13,-0.46139,0,0,0.16667,-0,-0,0.66667
0.19965,0.90285,1.1979,0.60427,27.725,142.26,-1.9302,0.64341,-0.70211,-2.5737,-4.7161e-10,-0.35105,0,0,0.16667,9.8686e-17,0,0.66667
0.41509,0.24887,2.4905,-0.37669,-14.802,84.449,2.5018,-0.83393,-1.4954,3.3357,-8.1113e-13,-0.74772,0,0,0.16667,-2.9606e-16,0,0.66667
0.13786,0.83499,0.82716,0.50248,23.499,159.97,-1.1084,0.36945,-1.1023,-1.4778,-5.7191e-09,-0.55113,0,0,0.16667,-9.8686e-17,0,0.66667
0.9174,0.070891,5.5044,-0.64366,-4.7945,3.6267,9.4479,-3.1493,-0.52628,12.597,-9.1886e-08,-0.26314,0,0,0.16667,-0,-0,0.66667
0.76453,0.35302,4.5872,-0.22047,-4.2795,16.816,2.6969,-0.89897,-1.8281,3.5959,-1.0101e-10,-0.91404,0,0,0.16667,-0,-0,0.66667
0.51021,0.8731,3.0613,0.55965,19.726,62.398,-4.5687,1.5229,-0.88641,-6.0916,-1.3189e-13,-0.44321,0,0,0.16667,2.9606e-16,0,0.66667
0.45358,0.35125,2.7215,-0.22313,-8.3882,75.033,1.6193,-0.53977,-1.8245,2.1591,-7.5939e-13,-0.91225,0,0,0.16667,1.579e-15,0,0.66667
0.097842,0.98906,0.58705,0.7336,34.857,171.72,-1.1484,0.38281,-0.085801,-1.5312,2.2878e-08,-0.0429,0,0,0.16667,9.8686e-17,0,0.66667
0.31868,0.31583,1.9121,-0.27626,-11.774,109.18,1.4086,-0.46952,-1.7283,1.8781,-5.8296e-12,-0.86415,0,0,0.16667,-0,-0,0.66667
0.12063,0.30679,0.7238,-0.28982,-13.565,164.93,0.55939,-0.18646,-1.7011,0.74585,3.6598e-09,-0.85053,0,0,0.16667,-0,-0,0.66667
0.78234,0.87581,4.694,0.56372,10.354,15.168,-7.0563,2.3521,-0.87228,-9.4084,2.2376e-10,-0.43614,0,0,0.16667,-3.158e-15,0,0.66667
0.54488,0.57959,3.2693,0.11939,3.9614,54.493,-1.0409,0.34696,-1.9494,-1.3878,-3.9302e-14,-0.97471,0,0,0.16667,-7.8949e-16,0,0.66667
0.22728,0.29595,1.3637,-0.30608,-13.784,134.3,1.113,-0.37101,-1.6654,1.484,1.5825e-10,-0.83269,0,0,0.16667,-0,-0,0.66667
0.2242,0.18597,1.3452,-0.47104,-21.307,135.24,1.6897,-0.56324,-1.2112,2.253,9.0423e-11,-0.60561,0,0,0.16667,1.9737e-16,0,0.66667
0.2604,0.82258,1.5624,0.48387,21.486,125.15,-2.016,0.672,-1.1665,-2.688,-9.6672e-12,-0.58326,0,0,0.16667,-0,-0,0.66667
0.30887,0.85683,1.8532,0.53525,23.088,111.98,-2.6452,0.88173,-0.9807,-3.5269,4.1187e-12,-0.49035,0,0,0.16667,-0,-0,0.66667
0.38771,0.72858,2.3262,0.34287,13.826,91.262,-2.1269,0.70898,-1.5818,-2.8359,2.0135e-12,-0.79092,0,0,0.16667,7.8949e-16,0,0.66667
0.29755,0.321,1.7853,-0.2685,-11.61,114.86,1.2783,-0.42609,-1.7449,1.7044,-1.9461e-12,-0.87246,0,0,0.16667,-0,-0,0.66667
0.67956,0.63185,4.0773,0.19777,5.0018,29.209,-2.1504,0.71678,-1.8599,-2.8671,-3.9075e-12,-0.92996,0,0,0.16667,-0,-0,0.66667
0.035074,0.57293,0.21044,0.1094,5.1822,190.11,-0.061392,0.020464,-1.9569,-0.081857,-8.2366e-08,-0.97843,0,0,0.16667,-0,-0,0.66667
0.32811,0.48092,1.9687,-0.028619,-1.2092,106.61,0.15024,-0.050081,-1.9985,0.20033,-1.0257e-13,-0.99927,0,0,0.16667,-0,-0,0.66667
0.74529,0.026481,4.4718,-0.71028,-15.113,20.266,8.4698,-2.8233,-0.20598,11.293,-8.4999e-13,-0.10299,0,0,0.16667,-0,2.4383e-16,0.66667
0.94281,0.52096,5.6568,0.031446,0.14941,1.4127,-0.47436,0.15812,-1.9954,-0.63248,-1.0164e-07,-0.99772,0,0,0.16667,1.579e-15,0,0.66667
0.80273,0.23002,4.8164,-0.40498,-6.7455,12.498,5.2014,-1.7338,-1.4156,6.9352,-4.9815e-10,-0.70782,0,0,0.16667,-0,-0,0.66667
0.24083,0.46578,1.445,-0.051333,-2.2913,130.44,0.1978,-0.065932,-1.9903,0.26373,2.9789e-11,-0.99515,0,0,0.16667,4.9343e-16,0,0.66667
0.23292,0.0442,1.3975,-0.6837,-30.97,132.94,2.5479,-0.8493,-0.33841,3.3972,4.0739e-12,-0.16921,0,0,0.16667,-0,-0,0.66667
0.19034,0.43366,1.142,-0.099508,-4.5463,144.73,0.30304,-0.10101,-1.9654,0.40406,2.8374e-10,-0.9827,0,0,0.16667,1.9737e-16,0,0.66667
0.8825,0.96486,5.295,0.69729,7.3483,5.9636,-9.8457,3.2819,-0.27068,-13.128,-1.8635e-08,-0.13534,0,0,0.16667,-0,-0,0.66667
0.23786,0.66532,1.4271,0.24799,11.101,131.31,-0.94376,0.31459,-1.781,-1.2583,-9.8625e-11,-0.8905,0,0,0.16667,-0,-0,0.66667
0.75818,0.80429,4.5491,0.45643,9.1472,17.96,-5.537,1.8457,-1.2581,-7.3826,5.9511e-11,-0.62905,0,0,0.16667,-7.8949e-16,0,0.66667
0.26105,0.29049,1.5663,-0.31427,-13.906,124.88,1.3126,-0.43755,-1.6481,1.7502,2.6923e-11,-0.82404,0,0,0.16667,7.8949e-16,0,0.66667
0.033082,0.166,0.19849,-0.50099,-23.86,190.72,0.26518,-0.088394,-1.108,0.35357,-1.5731e-07,-0.55399,0,0,0.16667,-0,-0,0.66667
0.73345,0.31348,4.4007,-0.27978,-6.0646,21.063,3.2832,-1.0944,-1.7239,4.3777,-2.0405e-11,-0.86196,0,0,0.16667,-3.158e-15,0,0.66667
0.7262,0.072275,4.3572,-0.64159,-14.455,22.744,7.4548,-2.4849,-0.53511,9.9397,1.5992e-12,-0.26755,0,0,0.16667,-0,-0,0.66667
0.088959,0.9787,0.53375,0.71805,34.159,174.31,-1.022,0.34068,-0.1659,-1.3627,2.9387e-07,-0.082952,0,0,0.16667,-1.9737e-16,0,0.66667
0.3267,0.20181,1.9602,-0.44728,-19.01,107.15,2.338,-0.77935,-1.2891,3.1174,-4.811e-12,-0.64455,0,0,0.16667,-0,-0,0.66667
0.94837,0.52731,5.6902,0.040972,0.17402,1.1978,-0.6217,0.20723,-1.9939,-0.82893,2.6336e-08,-0.99694,0,0,0.16667,-7.8949e-16,0,0.66667
0.16295,0.60649,0.97769,0.15974,7.3748,152.61,-0.41646,0.13882,-1.9078,-0.55528,-8.0765e-10,-0.95392,0,0,0.16667,-0,-0,0.66667
0.086672,0.311,0.52003,-0.2835,-13.364,174.88,0.39314,-0.13105,-1.7141,0.52419,9.9579e-11,-0.85706,0,0,0.16667,1.2336e-17,0,0.66667
0.5946,0.10846,3.5676,-0.58732,-18.092,44.928,5.5875,-1.8625,-0.77433,7.45,2.8777e-13,-0.38717,0,0,0.16667,-0,-0,0.66667
0.93099,0.41975,5.5859,-0.12038,-0.70157,1.9626,1.7931,-0.59771,-1.947,2.3908,-1.7568e-08,-0.97352,0,0,0.16667,-0,-0,0.66667
0.13378,0.9244,0.80267,0.63659,29.906,161.21,-1.3626,0.4542,-0.55765,-1.8168,6.5224e-09,-0.27882,0,0,0.16667,-0,-0,0.66667
0.51301,0.60154,3.0781,0.15231,5.3017,61.385,-1.2502,0.41674,-1.9177,-1.6669,-1.3534e-13,-0.95885,0,0,0.16667,-0,-0,0.66667
0.684,0.41984,4.104,-0.12025,-3.0031,28.442,1.316,-0.43866,-1.948,1.7546,1.893e-12,-0.97398,0,0,0.16667,-0,-0,0.66667
0.17183,0.15753,1.031,-0.5137,-23.77,150.16,1.4123,-0.47077,-1.0645,1.8831,1.5653e-09,-0.53227,0,0,0.16667,3.9475e-16,-1.8148e-16,0.66667
0.01126,0.78351,0.067559,0.42526,20.242,197.17,-0.076614,0.025538,-1.3573,-0.10215,-9.3725e-08,-0.67863,0,0,0.16667,-0,-0,0.66667
0.88768,0.07628,5.3261,-0.63558,-6.3637,5.4081,9.0271,-3.009,-0.56331,12.036,-4.6608e-09,-0.28165,0,0,0.16667,-0,-0,0.66667
0.035231,0.98496,0.21139,0.72744,34.848,190.11,-0.41006,0.13669,-0.1177,-0.54674,-1.3763e-06,-0.058849,0,0,0.16667,4.9343e-17,0,0.66667
0.25746,0.23209,1.5447,-0.40187,-17.844,125.91,1.6554,-0.55181,-1.4243,2.2072,2.7006e-11,-0.71214,0,0,0.16667,3.9475e-16,0,0.66667
0.65168,0.14148,3.9101,-0.53778,-14.698,34.348,5.6074,-1.8691,-0.97069,7.4765,1.8452e-12,-0.48534,0,0,0.16667,7.8949e-16,0,0.66667
0.28578,0.30973,1.7147,-0.2854,-12.438,118.07,1.305,-0.435,-1.7105,1.74,2.1281e-12,-0.85526,0,0,0.16667,-5.9212e-16,0,0.66667
0.0097076,0.94142,0.058246,0.66212,31.694,197.63,-0.10284,0.034277,-0.44081,-0.13712,-5.3485e-06,-0.2204,0,0,0.16667,-0,-0,0.66667
0.57545,0.82088,3.4527,0.48132,15.288,48.528,-4.4317,1.4772,-1.1764,-5.9089,-5.2802e-13,-0.58818,0,0,0.16667,-0,-0,0.66667
0.30779,0.67716,1.8468,0.26574,11.412,112.1,-1.3087,0.43623,-1.748,-1.7449,3.4682e-12,-0.87401,0,0,0.16667,-0,-0,0.66667
0.15151,0.8789,0.90908,0.56835,26.513,156.04,-1.3778,0.45927,-0.85135,-1.8371,-4.8489e-09,-0.42568,0,0,0.16667,-0,-0,0.66667
0.97128,0.84119,5.8277,0.51178,1.2311,1.1577,-7.9533,2.6511,-1.0697,-10.604,-4.4093e-07,-0.53486,0,0,0.16667,1.9737e-16,0,0.66667
0.16497,0.62094,0.98983,0.18141,8.3709,152.03,-0.47883,0.15961,-1.8824,-0.63844,-1.4446e-09,-0.94121,0,0,0.16667,-1.9737e-16,0,0.66667
0.72724,0.38019,4.3634,-0.17972,-3.9654,21.86,2.0912,-0.69705,-1.8844,2.7882,-1.1549e-11,-0.9422,0,0,0.16667,-0,-0,0.66667
0.89072,0.65823,5.3443,0.23735,2.2293,4.3764,-3.3826,1.1275,-1.8023,-4.5101,1.3618e-09,-0.90116,0,0,0.16667,-0,-0,0.66667
0.85872,0.75999,5.1523,0.38998,4.7498,7.0273,-5.3581,1.786,-1.4604,-7.1441,3.0928e-09,-0.7302,0,0,0.16667,1.579e-15,0,0.66667
0.18426,0.61874,1.1055,0.17811,8.1608,146.48,-0.52508,0.17503,-1.8873,-0.7001,-4.8585e-10,-0.94364,0,0,0.16667,9.8686e-17,0,0.66667
0.23681,0.011331,1.4209,-0.733,-33.192,131.9,2.7773,-0.92577,-0.089595,3.7031,-1.1168e-11,-0.044798,0,0,0.16667,-7.8949e-16,0,0.66667
0.018363,0.034815,0.11018,-0.69778,-33.427,195.08,0.20501,-0.068338,-0.26951,0.27334,-2.0471e-06,-0.13476,0,0,0.16667,-0,-0,0.66667
0.93141,0.11443,5.5884,-0.57836,-3.5411,2.738,8.619,-2.873,-0.80945,11.492,-9.2373e-08,-0.40473,0,0,0.16667,7.8949e-16,0,0.66667
0.88712,0.7494,5.3227,0.3741,3.6611,4.8221,-5.3099,1.77,-1.5033,-7.0799,7.0505e-09,-0.75166,0,0,0.16667,1.6777e-15,0,0.66667
0.59547,0.73087,3.5728,0.34631,10.57,44.404,-3.2995,1.0998,-1.5739,-4.3993,-1.3469e-12,-0.78695,0,0,0.16667,-0,-0,0.66667
0.10937,0.85699,0.65621,0.53548,25.243,168.28,-0.93703,0.31234,-0.98189,-1.2494,-1.0268e-08,-0.49094,0,0,0.16667,1.9737e-16,0,0.66667
0.17354,0.94325,1.0413,0.66487,30.87,149.75,-1.8461,0.61538,-0.42919,-2.4615,6.2436e-10,-0.2146,0,0,0.16667,-0,-0,0.66667
0.57696,0.38179,3.4618,-0.17731,-5.58,47.917,1.6368,-0.5456,-1.8893,2.1824,5.0104e-13,-0.94467,0,0,0.16667,-0,-0,0.66667
0.25166,0.617,1.5099,0.1755,7.7937,127.43,-0.70665,0.23555,-1.8912,-0.9422,-4.3039e-11,-0.94558,0,0,0.16667,-0,-0,0.66667
0.30017,0.32765,1.801,-0.25853,-11.158,114.15,1.2416,-0.41388,-1.7618,1.6555,-2.5916e-12,-0.8809,0,0,0.16667,-3.9475e-16,0,0.66667
0.17099,0.40007,1.0259,-0.14989,-6.9005,150.29,0.41007,-0.13669,-1.9215,0.54676,4.554e-10,-0.96075,0,0,0.16667,-2.9606e-16,0,0.66667
0.18959,0.45801,1.1376,-0.062984,-2.8781,144.94,0.19106,-0.063687,-1.9861,0.25475,2.1995e-10,-0.99304,0,0,0.16667,-1.9737e-16,0,0.66667
0.46342,0.76701,2.7805,0.40052,14.929,72.848,-2.9697,0.98991,-1.4284,-3.9596,4.4498e-13,-0.7142,0,0,0.16667,-0,-0,0.66667
0.50987,0.59604,3.0592,0.14405,5.0361,62.076,-1.1752,0.39173,-1.9261,-1.5669,-7.3108e-13,-0.96306,0,0,0.16667,1.579e-15,0,0.66667
0.51158,0.87649,3.0695,0.56473,19.87,62.105,-4.6225,1.5408,-0.8666,-6.1633,-6.2617e-14,-0.4333,0,0,0.16667,-0,-0,0.66667
0.99714,0.3853,5.9828,-0.17205,0.047888,0.1054,2.7449,-0.91496,-1.8946,3.6599,-1.2733e-07,-0.94729,0,0,0.16667,-0,-0,0.66667
0.1296,0.097212,0.77757,-0.60418,-28.39,162.41,1.2528,-0.4176,-0.70208,1.6704,7.0365e-09,-0.35104,0,0,0.16667,3.9475e-16,0,0.66667
0.75617,0.18122,4.537,-0.47817,-9.6627,18.264,5.7852,-1.9284,-1.1862,7.7136,-4.7918e-11,-0.59312,0,0,0.16667,-3.9475e-16,0,0.66667
0.79376,0.88384,4.7625,0.57575,10.086,13.863,-7.3121,2.4374,-0.8212,-9.7495,5.818e-11,-0.4106,0,0,0.16667,-1.579e-15,0,0.66667
0.58488,0.072043,3.5093,-0.64194,-20.172,46.933,6.0073,-2.0024,-0.53359,8.0097,4.4542e-13,-0.26679,0,0,0.16667,-0,-0,0.66667
0.46274,0.84465,2.7764,0.51697,19.343,73.14,-3.8276,1.2759,-1.0499,-5.1034,-6.9567e-13,-0.52493,0,0,0.16667,1.579e-15,0,0.66667
0.89343,0.92174,5.3606,0.63261,6.0209,5.0142,-9.043,3.0143,-0.57676,-12.057,-2.7448e-08,-0.28838,0,0,0.16667,-1.579e-15,0,0.66667
0.82818,0.56253,4.9691,0.093788,1.3602,9.4953,-1.2428,0.41426,-1.9718,-1.657,1.121e-09,-0.98589,0,0,0.16667,3.158e-15,0,0.66667
0.050291,0.91,0.30175,0.615,29.328,185.65,-0.49486,0.16495,-0.65556,-0.65982,-1.658e-07,-0.32778,0,0,0.16667,-0,-0,0.66667
0.96298,0.69259,5.7779,0.28889,0.86405,0.9187,-4.4511,1.4837,-1.7027,-5.9348,-2.6538e-08,-0.85135,0,0,0.16667,-0,-0,0.66667
0.0073399,0.77878,0.044039,0.41818,19.903,198.33,-0.04911,0.01637,-1.3779,-0.06548,-1.6203e-07,-0.68896,0,0,0.16667,-4.6259e-18,0,0.66667
0.57313,0.69458,3.4388,0.29187,9.2633,48.77,-2.6765,0.89215,-1.6965,-3.5686,-5.6732e-13,-0.84823,0,0,0.16667,-0,-0,0.66667
0.57243,0.39127,3.4346,-0.16309,-5.1726,48.822,1.4938,-0.49792,-1.9041,1.9917,3.5927e-13,-0.95205,0,0,0.16667,-0,-0,0.66667
0.83438,0.63342,5.0063,0.20012,2.81,8.9606,-2.6717,0.89056,-1.8565,-3.5622,1.4958e-09,-0.92827,0,0,0.16667,-0,-0,0.66667
0.38472,0.93039,2.3083,0.64559,26.304,92.326,-3.9739,1.3246,-0.51724,-5.2985,1.6198e-12,-0.25862,0,0,0.16667,-0,-0,0.66667
0.091041,0.51944,0.54625,0.02916,1.3711,173.58,-0.042476,0.014159,-1.9968,-0.056634,1.1744e-08,-0.99839,0,0,0.16667,-0,-0,0.66667
0.58169,0.17715,3.4901,-0.48428,-15.215,47.288,4.5072,-1.5024,-1.1656,6.0096,5.3513e-13,-0.58282,0,0,0.16667,7.8949e-16,0,0.66667
0.024846,0.30672,0.14908,-0.28992,-13.764,193.14,0.11525,-0.038418,-1.7004,0.15367,-2.3115e-08,-0.85019,0,0,0.16667,1.2336e-17,0,0.66667
0.3618,0.81508,2.1708,0.47262,19.55,97.989,-2.7359,0.91195,-1.2068,-3.6478,2.2573e-12,-0.60342,0,0,0.16667,-0,-0,0.66667
0.98532,0.54813,5.9119,0.072202,0.059301,0.20028,-1.1383,0.37942,-1.9822,-1.5177,-1.1451e-06,-0.9911,0,0,0.16667,-0,-0,0.66667
0.86878,0.45417,5.2127,-0.068743,-0.76939,5.8685,0.95556,-0.31852,-1.9818,1.2741,4.1784e-10,-0.99089,0,0,0.16667,1.579e-15,0,0.66667
0.1525,0.53753,0.91498,0.056292,2.6065,155.63,-0.13735,0.045783,-1.9886,-0.18313,-2.1549e-09,-0.99429,0,0,0.16667,-0,-0,0.66667
0.79883,0.36958,4.793,-0.19563,-3.2917,12.665,2.5004,-0.83345,-1.8648,3.3338,-4.4601e-10,-0.93238,0,0,0.16667,-3.9475e-16,0,0.66667
0.811,0.21045,4.866,-0.43432,-6.9673,11.654,5.6357,-1.8786,-1.33,7.5143,-5.0944e-10,-0.66502,0,0,0.16667,-0,-0,0.66667
0.92821,0.0032513,5.5692,-0.74512,-4.9455,3.4334,11.066,-3.6887,-0.025557,14.755,3.2733e-07,-0.012778,0,0,0.16667,-0,-0,0.66667
0.22438,0.044699,1.3463,-0.68295,-31.063,135.33,2.4519,-0.8173,-0.34033,3.2692,-2.923e-12,-0.17016,0,0,0.16667,3.9475e-16,0,0.66667
0.49897,0.2008,2.9938,-0.4488,-16.011,64.75,3.583,-1.1943,-1.2845,4.7773,-1.7253e-13,-0.64227,0,0,0.16667,-0,-0,0.66667
0.82744,0.030681,4.9647,-0.70398,-10.607,10.642,9.32,-3.1067,-0.2404,12.427,5.977e-10,-0.1202,0,0,0.16667,-1.4803e-15,0,0.66667
0.66733,0.471,4.004,-0.043495,-1.1327,31.169,0.46441,-0.1548,-1.9935,0.61921,3.3198e-13,-0.99675,0,0,0.16667,1.579e-15,0,0.66667
0.59394,0.9495,3.5636,0.67425,20.872,45.232,-6.4074,2.1358,-0.38493,-8.5432,-4.2411e-13,-0.19246,0,0,0.16667,-0,-0,0.66667
0.65198,0.6444,3.9119,0.21661,5.8618,33.876,-2.2596,0.75319,-1.8323,-3.0127,-3.7816e-12,-0.91617,0,0,0.16667,-0,-0,0.66667
0.23852,0.028947,1.4311,-0.70658,-31.94,131.4,2.6965,-0.89883,-0.22521,3.5953,-2.0752e-12,-0.11261,0,0,0.16667,4.9343e-16,0,0.66667
0.02554,0.77605,0.15324,0.41407,19.695,192.94,-0.16921,0.056402,-1.3898,-0.22561,1.3322e-07,-0.69491,0,0,0.16667,-0,-0,0.66667
0.73626,0.50273,4.4175,0.004102,0.087766,20.514,-0.048322,0.016107,-2.0012,-0.064429,5.774e-12,-1.0006,0,0,0.16667,-0,-0,0.66667
0.32679,0.79698,1.9608,0.44547,18.931,107.13,-2.3292,0.7764,-1.2949,-3.1056,4.9996e-12,-0.64745,0,0,0.16667,-3.87e-16,0,0.66667
0.37676,0.50623,2.2605,0.0093459,0.37947,93.926,-0.056338,0.018779,-2.0005,-0.075118,6.5794e-13,-1.0003,0,0,0.16667,-0,-0,0.66667
0.61262,0.62438,3.6757,0.18657,5.4923,40.988,-1.8287,0.60957,-1.8773,-2.4383,-1.7236e-12,-0.93864,0,0,0.16667,4.9343e-17,0,0.66667
0.65717,0.2622,3.943,-0.35671,-9.5665,33.119,3.7506,-1.2502,-1.5484,5.0009,4.1578e-12,-0.77421,0,0,0.16667,-0,-0,0.66667
0.2029,0.44737,1.2174,-0.078939,-3.5875,141.15,0.25627,-0.085422,-1.9793,0.34169,2.1743e-10,-0.98965,0,0,0.16667,-0,-0,0.66667
0.82603,0.012646,4.9562,-0.73103,-11.126,10.867,9.6617,-3.2206,-0.099973,12.882,3.4866e-10,-0.049987,0,0,0.16667,-0,-0,0.66667
0.38021,0.38165,2.2812,-0.17752,-7.1914,93.077,1.0799,-0.35997,-1.8873,1.4399,-1.2254e-12,-0.94365,0,0,0.16667,7.8949e-16,0,0.66667
0.63174,0.62914,3.7905,0.19371,5.4818,37.455,-1.958,0.65267,-1.866,-2.6107,-2.6074e-12,-0.93301,0,0,0.16667,-0,-0,0.66667
0.96641,0.9337,5.7985,0.65055,1.9685,1.6975,-10.059,3.353,-0.49612,-13.412,-1.5667e-07,-0.24806,0,0,0.16667,-0,-0,0.66667
0.56479,0.17086,3.3887,-0.49371,-15.976,50.703,4.4615,-1.4872,-1.1333,5.9486,7.2564e-13,-0.56663,0,0,0.16667,-7.8949e-16,0,0.66667
0.35891,0.26251,2.1535,-0.35624,-14.736,98.643,2.0457,-0.6819,-1.5499,2.7276,-3.1406e-12,-0.77495,0,0,0.16667,-0,-0,0.66667
0.61897,0.67482,3.7138,0.26223,7.6304,39.855,-2.597,0.86566,-1.7542,-3.4627,-2.0921e-12,-0.87709,0,0,0.16667,-7.8949e-16,0,0.66667
0.50179,0.47176,3.0108,-0.042359,-1.4967,63.85,0.34009,-0.11336,-1.9949,0.45345,8.904e-14,-0.99746,0,0,0.16667,-0,-0,0.66667
0.45238,0.67688,2.7143,0.26532,9.9936,75.343,-1.9204,0.64012,-1.7507,-2.5605,2.2726e-13,-0.87537,0,0,0.16667,-0,-0,0.66667
0.73227,0.793,4.3936,0.4395,9.6155,21.454,-5.1493,1.7164,-1.3133,-6.8657,9.5755e-12,-0.65667,0,0,0.16667,-0,-0,0.66667
0.92451,0.63185,5.5471,0.19778,1.2719,2.338,-2.9256,0.97519,-1.8612,-3.9008,1.1533e-08,-0.9306,0,0,0.16667,-0,-0,0.66667
0.47927,0.71357,2.8756,0.32035,11.692,69.096,-2.4566,0.81885,-1.6347,-3.2754,6.8168e-14,-0.81734,0,0,0.16667,-0,-0,0.66667
0.08823,0.94708,0.52938,0.67062,31.861,174.51,-0.94671,0.31557,-0.3999,-1.2623,-6.7974e-08,-0.19995,0,0,0.16667,-0,-0,0.66667
0.56965,0.58594,3.4179,0.12891,4.1069,49.369,-1.175,0.39166,-1.9398,-1.5666,-7.7838e-13,-0.96991,0,0,0.16667,-0,-0,0.66667
0.24495,0.44031,1.4697,-0.089532,-3.9882,129.29,0.35089,-0.11696,-1.9715,0.46786,2.3819e-11,-0.98573,0,0,0.16667,7.8949e-16,0,0.66667
0.039578,0.20941,0.23747,-0.43588,-20.721,188.79,0.27602,-0.092007,-1.3232,0.36803,-6.9503e-08,-0.66161,0,0,0.16667,4.9343e-17,0,0.66667
0.78814,0.89843,4.7288,0.59764,10.74,14.565,-7.5364,2.5121,-0.72896,-10.049,-2.8968e-12,-0.36448,0,0,0.16667,-7.8949e-16,0,0.66667
0.27277,0.71393,1.6366,0.3209,14.104,121.65,-1.4005,0.46683,-1.6332,-1.8673,-1.0519e-11,-0.81658,0,0,0.16667,3.9475e-16,0,0.66667
0.77707,0.58001,4.6624,0.12002,2.214,15.174,-1.4922,0.49739,-1.9479,-1.9896,1.1912e-10,-0.97395,0,0,0.16667,-0,-0,0.66667
0.48821,0.89328,2.9293,0.58992,21.436,67.37,-4.608,1.536,-0.76193,-6.144,-3.0731e-13,-0.38096,0,0,0.16667,-0,-0,0.66667
0.31794,0.42023,1.9076,-0.11966,-5.0951,109.33,0.60872,-0.20291,-1.9478,0.81162,-2.2879e-12,-0.97392,0,0,0.16667,-0,-0,0.66667
0.31403,0.9157,1.8842,0.62356,26.867,110.69,-3.133,1.0443,-0.61814,-4.1773,1.9411e-12,-0.30907,0,0,0.16667,-0,-0,0.66667
0.042025,0.50116,0.25215,0.0017365,0.082192,188.05,-0.0011676,0.00038718,-2.0003,-0.0015579,-3.045e-06,-1.0002,0,0,0.16667,-0,-0,0.66667
0.5344,0.014319,3.2064,-0.72852,-24.958,57.458,6.2292,-2.0764,-0.11242,8.3055,-7.3319e-13,-0.056209,0,0,0.16667,-0,-0,0.66667
0.82355,0.94548,4.9413,0.66823,10.24,10.92,-8.8051,2.935,-0.41171,-11.74,1.695e-10,-0.20586,0,0,0.16667,-1.579e-15,0,0.66667
0.083895,0.67282,0.50337,0.25923,12.222,175.7,-0.34797,0.11599,-1.7597,-0.46396,-2.435e-09,-0.87986,0,0,0.16667,-0,-0,0.66667
0.10856,0.37041,0.65135,-0.19438,-9.1145,168.45,0.33762,-0.11254,-1.8673,0.45017,6.9563e-09,-0.93366,0,0,0.16667,9.8686e-17,0,0.66667
0.52926,0.083308,3.1755,-0.62504,-21.487,58.359,5.2929,-1.7643,-0.61121,7.0572,-3.8591e-13,-0.30561,0,0,0.16667,7.8949e-16,-1.7565e-16,0.66667
0.66014,0.12242,3.9609,-0.56637,-15.197,32.95,5.9822,-1.9941,-0.85984,7.9762,1.9402e-12,-0.42992,0,0,0.16667,9.8686e-16,0,0.66667
0.69475,0.84787,4.1685,0.5218,12.8,27.204,-5.8003,1.9334,-1.0313,-7.7338,-4.7731e-12,-0.51565,0,0,0.16667,-0,-0,0.66667
0.31322,0.72766,1.8793,0.34148,14.625,110.68,-1.7114,0.57045,-1.5866,-2.2818,4.6717e-12,-0.79328,0,0,0.16667,-0,-0,0.66667
0.037778,0.51168,0.22667,0.017517,0.82939,189.3,-0.010588,0.0035287,-1.9976,-0.014118,-1.0205e-06,-0.99878,0,0,0.16667,-0,-0,0.66667
0.41456,0.82318,2.4874,0.48476,19.105,84.682,-3.2154,1.0718,-1.1631,-4.2873,1.6163e-12,-0.58155,0,0,0.16667,-0,-0,0.66667
0.22604,0.66723,1.3563,0.25085,11.296,134.62,-0.90724,0.30241,-1.7749,-1.2097,-1.5641e-10,-0.88744,0,0,0.16667,-0,-0,0.66667
0.0011148,0.8879,0.006689,0.58185,27.794,200.17,-0.010379,0.0034592,-0.79692,-0.013839,-7.1973e-07,-0.39846,0,0,0.16667,-0,-0,0.66667
0.68572,0.62398,4.1143,0.18597,4.6275,28.201,-2.0404,0.68013,-1.8787,-2.7205,-3.5243e-12,-0.93936,0,0,0.16667,2.9606e-16,0,0.66667
0.95206,0.33799,5.7124,-0.24301,-0.96464,1.2086,3.7018,-1.2339,-1.7914,4.9357,2.2957e-08,-0.89568,0,0,0.16667,-7.8949e-16,0,0.66667
0.39115,0.18595,2.3469,-0.47108,-18.986,90.5,2.9482,-0.98273,-1.2134,3.9309,-6.779e-13,-0.60668,0,0,0.16667,-2.4672e-16,0,0.66667
0.3003,0.96131,1.8018,0.69196,30.159,114.44,-3.3247,1.1082,-0.29742,-4.4329,5.8775e-13,-0.14871,0,0,0.16667,-0,-0,0.66667
0.55375,0.33471,3.3225,-0.24793,-8.1226,52.704,2.1967,-0.73223,-1.7802,2.9289,4.1434e-13,-0.89012,0,0,0.16667,-7.8949e-16,0,0.66667
0.85198,0.46698,5.1119,-0.049526,-0.62292,7.2628,0.67512,-0.22504,-1.9911,0.90016,-2.2937e-09,-0.99554,0,0,0.16667,-1.7764e-15,0,0.66667
0.79497,0.82856,4.7698,0.49283,8.5427,13.537,-6.2686,2.0895,-1.1365,-8.3581,2.0964e-10,-0.56827,0,0,0.16667,1.579e-15,0,0.66667
0.68476,0.92505,4.1085,0.63758,16.151,29.035,-6.9854,2.3285,-0.55439,-9.3139,-1.7204e-12,-0.2772,0,0,0.16667,7.8949e-16,0,0.66667
0.43211,0.81786,2.5926,0.47679,18.447,80.388,-3.2964,1.0988,-1.1912,-4.3952,-1.9895e-13,-0.5956,0,0,0.16667,-0,-0,0.66667
0.69043,0.48274,4.1426,-0.025893,-0.6353,27.384,0.28603,-0.095345,-1.9972,0.38138,2.8805e-13,-0.99862,0,0,0.16667,-0,-0,0.66667
0.21603,0.31413,1.2962,-0.2788,-12.618,137.46,0.96366,-0.32122,-1.7247,1.2849,2.3621e-10,-0.86234,0,0,0.16667,-0,-0,0.66667
0.28394,0.64158,1.7037,0.21237,9.2582,118.54,-0.96484,0.32161,-1.8394,-1.2865,-4.6443e-12,-0.91968,0,0,0.16667,-0,-0,0.66667
0.77782,0.85455,4.6669,0.53182,9.9289,15.639,-6.6186,2.2062,-0.99392,-8.8247,6.4817e-11,-0.49696,0,0,0.16667,-1.579e-15,0,0.66667
0.92998,0.58147,5.5799,0.1222,0.7233,2.0112,-1.8184,0.60612,-1.9454,-2.4245,1.1395e-08,-0.97272,0,0,0.16667,-1.579e-15,0,0.66667
0.19005,0.68764,1.1403,0.28146,12.881,144.85,-0.85586,0.28529,-1.7198,-1.1411,-6.5295e-10,-0.8599,0,0,0.16667,7.8949e-16,0,0.66667
0.29606,0.87598,1.7764,0.56398,24.555,115.46,-2.6716,0.89052,-0.87139,-3.5621,3.6251e-12,-0.4357,0,0,0.16667,-0,2.4078e-17,0.66667
0.0062103,0.86618,0.037262,0.54928,26.216,198.66,-0.054578,0.018193,-0.92617,-0.072771,-2.6724e-07,-0.46309,0,0,0.16667,-6.1679e-18,0,0.66667
0.43156,0.11637,2.5894,-0.57544,-22.339,80.639,3.9734,-1.3245,-0.8216,5.2979,-9.4524e-13,-0.4108,0,0,0.16667,3.9475e-16,0,0.66667
0.2103,0.57264,1.2618,0.10896,4.9367,139.05,-0.36663,0.12221,-1.9565,-0.48884,-1.4984e-10,-0.97823,0,0,0.16667,-0,-0,0.66667
0.64142,0.3382,3.8485,-0.2427,-6.7298,35.753,2.4907,-0.83025,-1.7921,3.321,3.3449e-12,-0.89605,0,0,0.16667,-7.8949e-16,0,0.66667
0.70959,0.78758,4.2575,0.43136,10.112,24.759,-4.8975,1.6325,-1.3375,-6.5299,-1.9384e-12,-0.66877,0,0,0.16667,-1.579e-15,0,0.66667
0.11878,0.49182,0.71267,-0.012266,-0.57329,165.44,0.02331,-0.0077701,-1.9984,0.03108,-1.6646e-08,-0.99921,0,0,0.16667,-2.9606e-16,0,0.66667
0.082144,0.80883,0.49286,0.46325,21.919,176.24,-0.60885,0.20295,-1.2371,-0.8118,-2.3355e-08,-0.61856,0,0,0.16667,1.2336e-16,0,0.66667
0.90634,0.57723,5.438,0.11584,0.92687,3.2763,-1.6798,0.55995,-1.9536,-2.2398,-2.3282e-09,-0.97681,0,0,0.16667,1.579e-15,0,0.66667
0.38924,0.23035,2.3354,-0.40447,-16.306,90.922,2.519,-0.83966,-1.4189,3.3586,-1.4531e-12,-0.70943,0,0,0.16667,-0,-0,0.66667
0.5334,0.67716,3.2004,0.26574,8.9907,57.016,-2.2679,0.75597,-1.7491,-3.0239,-1.8652e-14,-0.87455,0,0,0.16667,-7.8949e-16,0,0.66667
0.96324,0.52363,5.7794,0.035451,0.10217,0.70006,-0.54637,0.18212,-1.9947,-0.72849,7.91e-08,-0.99734,0,0,0.16667,-0,-0,0.66667
0.75905,0.78484,4.5543,0.42725,8.5238,17.795,-5.1889,1.7296,-1.3505,-6.9186,5.3972e-11,-0.67524,0,0,0.16667,-0,-0,0.66667
0.32554,0.55126,1.9532,0.076891,3.2552,107.29,-0.4005,0.1335,-1.9789,-0.53399,6.6319e-13,-0.98944,0,0,0.16667,-0,-0,0.66667
0.085849,0.29063,0.5151,-0.31406,-14.813,175.13,0.43139,-0.1438,-1.648,0.57519,3.7804e-09,-0.82401,0,0,0.16667,-1.9737e-16,0,0.66667
0.53602,0.83952,3.2161,0.50929,17.262,56.725,-4.3678,1.4559,-1.0776,-5.8238,-5.2802e-13,-0.5388,0,0,0.16667,-7.7356e-17,0,0.66667
0.33613,0.32556,2.0168,-0.26167,-11.007,104.55,1.4072,-0.46908,-1.7551,1.8763,-4.8208e-12,-0.87753,0,0,0.16667,-0,-0,0.66667
0.021685,0.34446,0.13011,-0.23331,-11.071,194.07,0.08095,-0.026983,-1.8066,0.10793,2.2279e-08,-0.90331,0,0,0.16667,-0,-0,0.66667
0.77115,0.89637,4.6269,0.59456,11.439,16.604,-7.3359,2.4453,-0.74205,-9.7812,3.5674e-11,-0.37103,0,0,0.16667,-0,-0,0.66667
0.38491,0.65606,2.3095,0.23409,9.4484,91.905,-1.4417,0.48056,-1.8055,-1.9222,1.669e-12,-0.90275,0,0,0.16667,7.9566e-16,0,0.66667
0.57132,0.93655,3.4279,0.65483,21.081,49.659,-5.9859,1.9953,-0.47537,-7.9812,4.2855e-13,-0.23769,0,0,0.16667,-2.9606e-16,0,0.66667
0.75574,0.61748,4.5345,0.17622,3.5303,17.922,-2.1308,0.71026,-1.8887,-2.841,5.7148e-11,-0.94436,0,0,0.16667,-0,-0,0.66667
0.94085,0.75185,5.6451,0.37778,1.9173,1.8487,-5.6869,1.8956,-1.4933,-7.5825,-1.1225e-08,-0.74666,0,0,0.16667,3.158e-15,0,0.66667
0.61232,0.25147,3.6739,-0.37279,-11.021,41.213,3.6523,-1.2174,-1.5069,4.8697,1.9083e-12,-0.75343,0,0,0.16667,-0,-0,0.66667
0.3154,0.22927,1.8924,-0.4061,-17.386,110.14,2.0493,-0.6831,-1.4134,2.7324,-5.6326e-12,-0.70672,0,0,0.16667,-0,-0,0.66667
0.11008,0.74138,0.66046,0.36206,17.006,168.03,-0.63767,0.21256,-1.5351,-0.85023,-7.0079e-09,-0.76756,0,0,0.16667,-0,-0,0.66667
0.073919,0.94857,0.44351,0.67286,32.044,178.71,-0.79579,0.26526,-0.38947,-1.0611,-1.8869e-07,-0.19474,0,0,0.16667,-0,-0,0.66667
0.31969,0.41931,1.9181,-0.12103,-5.147,108.86,0.61908,-0.20636,-1.9464,0.82544,-2.4984e-12,-0.97322,0,0,0.16667,-0,-0,0.66667
0.66084,0.3612,3.965,-0.2082,-5.5172,32.343,2.2014,-0.73379,-1.8449,2.9352,3.5847e-12,-0.92243,0,0,0.16667,-0,-0,0.66667
0.69515,0.36788,4.1709,-0.19818,-4.8083,26.709,2.2043,-0.73475,-1.8593,2.939,2.1714e-12,-0.92966,0,0,0.16667,3.9475e-16,0,0.66667
0.20772,0.73831,1.2463,0.35747,16.257,139.84,-1.188,0.39601,-1.5447,-1.5841,-3.4034e-10,-0.77236,0,0,0.16667,-0,-0,0.66667
0.082796,0.67823,0.49678,0.26735,12.609,176.02,-0.35416,0.11805,-1.7451,-0.47222,-1.2668e-09,-0.87254,0,0,0.16667,-0,-0,0.66667
0.30551,0.52817,1.8331,0.042256,1.8144,112.65,-0.20656,0.068852,-1.9932,-0.27541,2.4555e-13,-0.99662,0,0,0.16667,1.9737e-16,0,0.66667
0.54757,0.35916,3.2854,-0.21126,-6.9866,53.971,1.8509,-0.61697,-1.8422,2.4679,1.8985e-14,-0.9211,0,0,0.16667,-0,-0,0.66667
0.75467,0.17376,4.528,-0.48936,-9.9477,18.484,5.9089,-1.9696,-1.1475,7.8786,-3.0787e-11,-0.57374,0,0,0.16667,-7.8949e-16,0,0.66667
0.52966,0.44107,3.1779,-0.088389,-3.0016,57.732,0.74905,-0.24968,-1.9735,0.99874,3.7026e-13,-0.98677,0,0,0.16667,-1.579e-15,0,0.66667
0.28698,0.80929,1.7219,0.46394,20.268,117.84,-2.1303,0.7101,-1.2344,-2.8404,2.8448e-12,-0.61722,0,0,0.16667,-4.0847e-16,0,0.66667
0.62418,0.90794,3.7451,0.61191,17.809,39.399,-6.111,2.037,-0.67086,-8.148,-5.3157e-13,-0.33543,0,0,0.16667,-0,4.0318e-17,0.66667
0.26484,0.15852,1.589,-0.51222,-22.703,123.94,2.1705,-0.72349,-1.0692,2.894,1.0517e-11,-0.5346,0,0,0.16667,-0,-0,0.66667
0.65269,0.3553,3.9162,-0.21704,-5.8639,33.752,2.2666,-0.75554,-1.8319,3.0221,3.3025e-12,-0.91597,0,0,0.16667,-0,-0,0.66667
0.8419,0.89203,5.0514,0.58805,8.0876,8.9398,-7.9213,2.6404,-0.77064,-10.562,7.1812e-10,-0.38532,0,0,0.16667,-0,2.3661e-16,0.66667
0.63895,0.18698,3.8337,-0.46953,-13.17,36.469,4.8,-1.6,-1.218,6.4001,2.486e-12,-0.60901,0,0,0.16667,-3.454e-16,0,0.66667
0.56563,0.34366,3.3938,-0.23452,-7.5319,50.246,2.1224,-0.70747,-1.8056,2.8299,-6.5947e-14,-0.90282,0,0,0.16667,4.3175e-17,0,0.66667
0.30714,0.19339,1.8429,-0.45992,-19.826,112.39,2.2602,-0.75339,-1.2473,3.0136,-4.609e-12,-0.62365,0,0,0.16667,-0,-0,0.66667
0.87678,0.66786,5.2607,0.25179,2.6647,5.3889,-3.5322,1.1774,-1.7749,-4.7096,4.2652e-09,-0.88745,0,0,0.16667,-0,-0,0.66667
0.98882,0.96964,5.9329,0.70446,0.70332,1.4394,-11.145,3.7151,-0.23603,-14.86,2.8699e-05,-0.11801,0,0,0.16667,-0,-0,0.66667
0.77748,0.33041,4.6649,-0.25439,-4.6983,15.228,3.1645,-1.0548,-1.7692,4.2193,-1.8528e-10,-0.88459,0,0,0.16667,7.8949e-16,0,0.66667
0.57364,0.040194,3.4419,-0.68971,-22.15,49.264,6.3304,-2.1101,-0.30793,8.4405,7.1232e-13,-0.15396,0,0,0.16667,-0,1.0056e-16,0.66667
0.14128,0.53468,0.84768,0.052027,2.4172,158.88,-0.1176,0.039201,-1.9923,-0.15681,1.7753e-09,-0.99616,0,0,0.16667,-0,-0,0.66667
0.31493,0.96343,1.8896,0.69515,30.001,110.53,-3.5027,1.1676,-0.28244,-4.6703,5.2802e-13,-0.14122,0,0,0.16667,-1.9737e-16,0,0.66667
0.36686,0.80289,2.2012,0.45433,18.705,96.668,-2.6668,0.88894,-1.2648,-3.5558,2.3663e-12,-0.63239,0,0,0.16667,-0,-0,0.66667
0.2919,0.9046,1.7514,0.60691,26.527,116.63,-2.8344,0.94482,-0.69057,-3.7793,2.2475e-12,-0.34528,0,0,0.16667,1.4803e-16,0,0.66667
0.44595,0.45973,2.6757,-0.06041,-2.288,76.793,0.43104,-0.14368,-1.9858,0.57472,-1.3373e-13,-0.9929,0,0,0.16667,-0,-0,0.66667
0.61063,0.26,3.6638,-0.36,-10.675,41.516,3.5172,-1.1724,-1.5399,4.6897,1.8998e-12,-0.76997,0,0,0.16667,-0,-0,0.66667
0.21291,0.26616,1.2775,-0.35077,-15.914,138.37,1.1949,-0.39831,-1.5612,1.5932,2.7884e-10,-0.78059,0,0,0.16667,-3.9475e-16,0,0.66667
0.24976,0.47458,1.4986,-0.038133,-1.694,127.94,0.15239,-0.050796,-1.9967,0.20318,1.5497e-11,-0.99835,0,0,0.16667,-0,-0,0.66667
0.11215,0.21552,0.6729,-0.42672,-20.057,167.44,0.76571,-0.25524,-1.3533,1.0209,8.1913e-09,-0.67666,0,0,0.16667,-9.8686e-17,0,0.66667
0.30759,0.83241,1.8455,0.49862,21.507,112.3,-2.4539,0.81797,-1.115,-3.2719,4.3863e-12,-0.5575,0,0,0.16667,3.9475e-16,0,0.66667
0.49745,0.16486,2.9847,-0.50271,-17.997,65.159,4.0011,-1.3337,-1.1016,5.3349,-6.5903e-13,-0.55079,0,0,0.16667,-0,-0,0.66667
0.48981,0.36145,2.9388,-0.20782,-7.4704,66.609,1.6287,-0.5429,-1.8452,2.1716,2.2837e-13,-0.92259,0,0,0.16667,7.8949e-16,0,0.66667
0.99558,0.89597,5.9735,0.59395,0.12245,0.97982,-9.4612,3.1537,-0.74488,-12.615,1.4154e-06,-0.37244,0,0,0.16667,7.8949e-16,0,0.66667
0.98111,0.77957,5.8867,0.41935,0.58519,0.72281,-6.5828,2.1943,-1.3756,-8.7771,-7.116e-08,-0.68778,0,0,0.16667,1.579e-15,0,0.66667
0.43656,0.84552,2.6194,0.51828,19.978,79.359,-3.6202,1.2067,-1.047,-4.827,1.1373e-12,-0.52349,0,0,0.16667,-0,-2.1786e-16,0.66667
0.97202,0.93598,5.8321,0.65397,1.6406,1.5697,-10.171,3.3902,-0.48021,-13.561,-8.3968e-07,-0.24011,0,0,0.16667,-7.8949e-16,0,0.66667
0.2144,0.87543,1.2864,0.56315,25.645,138.06,-1.9318,0.64394,-0.87304,-2.5758,-2.872e-10,-0.43652,0,0,0.16667,-7.8949e-16,0,0.66667
0.54112,0.71619,3.2467,0.32429,10.854,55.42,-2.8077,0.93589,-1.6259,-3.7435,-3.4772e-13,-0.81297,0,0,0.16667,3.9475e-16,0,0.66667
0.45344,0.45992,2.7206,-0.060118,-2.2575,75.011,0.43615,-0.14538,-1.9886,0.58154,4.8636e-13,-0.99431,0,0,0.16667,-0,-0,0.66667
0.96761,0.011828,5.8057,-0.73226,-2.2201,1.9578,11.337,-3.7789,-0.0942,15.115,-1.5774e-06,-0.0471,0,0,0.16667,-0,1.8572e-16,0.66667
0.83618,0.93103,5.0171,0.64654,9.2385,9.6319,-8.65,2.8833,-0.51275,-11.533,-1.0003e-09,-0.25638,0,0,0.16667,7.8949e-16,0,0.66667
0.21415,0.084764,1.2849,-0.62285,-28.413,138.17,2.1341,-0.71137,-0.61989,2.8455,-6.8836e-11,-0.30995,0,0,0.16667,-0,-0,0.66667
0.43954,0.93456,2.6372,0.65184,25.15,78.827,-4.5841,1.528,-0.49046,-6.1122,-6.5725e-13,-0.24523,0,0,0.16667,1.9737e-16,0,0.66667
0.16848,0.84561,1.0109,0.51841,24.019,151.13,-1.3974,0.46581,-1.0452,-1.8633,-2.0888e-09,-0.52258,0,0,0.16667,-0,-0,0.66667
0.52909,0.96164,3.1745,0.69245,23.874,58.521,-5.8619,1.954,-0.29563,-7.8159,-1.1724e-13,-0.14782,0,0,0.16667,-0,-0,0.66667
0.79348,0.27304,4.7609,-0.34044,-5.8947,13.438,4.3221,-1.4407,-1.5877,5.7628,-3.5932e-10,-0.79385,0,0,0.16667,-0,-0,0.66667
0.035879,0.48529,0.21527,-0.022063,-1.0448,189.87,0.012666,-0.0042218,-1.9972,0.016888,3.3309e-07,-0.99861,0,0,0.16667,-0,-0,0.66667
0.19136,0.026703,1.1482,-0.70995,-32.786,144.69,2.1737,-0.72456,-0.20798,2.8982,4.9259e-11,-0.10399,0,0,0.16667,1.9737e-16,0,0.66667
0.97746,0.28172,5.8647,-0.32742,-0.54604,0.61634,5.1206,-1.7069,-1.6189,6.8275,2.1891e-08,-0.80946,0,0,0.16667,3.158e-15,0,0.66667
0.9608,0.01254,5.7648,-0.73119,-2.6767,2.1399,11.24,-3.7468,-0.097594,14.987,-2.0904e-06,-0.048797,0,0,0.16667,-0,-0,0.66667
0.55659,0.81711,3.3395,0.47566,15.593,52.36,-4.236,1.412,-1.195,-5.6479,-2.2293e-13,-0.59752,0,0,0.16667,-0,-0,0.66667
0.64609,0.68533,3.8765,0.278,7.6338,34.958,-2.8738,0.95793,-1.7252,-3.8317,-4.2273e-12,-0.8626,0,0,0.16667,1.1842e-15,0,0.66667
0.27209,0.8454,1.6326,0.5181,22.87,121.95,-2.2555,0.75185,-1.0455,-3.0074,6.1884e-13,-0.52275,0,0,0.16667,-0,-0,0.66667
0.95209,0.037442,5.7125,-0.69384,-3.0563,2.28,10.57,-3.5232,-0.2896,14.093,-2.6882e-06,-0.1448,0,0,0.16667,-0,1.2544e-16,0.66667
0.66977,0.21161,4.0186,-0.43258,-11.281,31.09,4.6357,-1.5452,-1.3352,6.181,4.7136e-12,-0.66759,0,0,0.16667,-1.1842e-15,0,0.66667
0.66681,0.019403,4.0008,-0.7209,-19.185,32.178,7.6912,-2.5637,-0.15113,10.255,5.7288e-13,-0.075564,0,0,0.16667,-0,-0,0.66667
0.011103,0.17334,0.06662,-0.49,-23.353,197.22,0.087049,-0.029016,-1.1453,0.11607,1.4152e-07,-0.57266,0,0,0.16667,-0,-0,0.66667
0.85297,0.59001,5.1178,0.13502,1.6894,7.212,-1.8426,0.61421,-1.9347,-2.4568,2.003e-09,-0.96736,0,0,0.16667,1.1842e-15,0,0.66667
0.77833,0.0073443,4.67,-0.73898,-13.97,16.124,9.2027,-3.0676,-0.058404,12.27,-1.6881e-11,-0.029202,0,0,0.16667,-0,-1.4194e-16,0.66667
0.68492,0.67393,4.1095,0.26089,6.5143,28.39,-2.859,0.95301,-1.7578,-3.8121,-4.4622e-12,-0.8789,0,0,0.16667,-0,-0,0.66667
0.74078,0.83099,4.4447,0.49649,10.591,20.37,-5.8846,1.9615,-1.1222,-7.8461,1.4159e-11,-0.56108,0,0,0.16667,7.8949e-16,0,0.66667
0.15657,0.33546,0.93943,-0.24681,-11.428,154.47,0.6183,-0.2061,-1.7849,0.8244,1.8905e-09,-0.89247,0,0,0.16667,9.8686e-17,0,0.66667
0.71878,0.57047,4.3127,0.1057,2.392,23.054,-1.2156,0.40521,-1.962,-1.6208,3.8323e-12,-0.98102,0,0,0.16667,-0,-0,0.66667
0.096818,0.70117,0.58091,0.30175,14.201,171.9,-0.46744,0.15581,-1.6758,-0.62326,-5.7007e-09,-0.83791,0,0,0.16667,-1.9737e-16,0,0.66667
0.70695,0.89364,4.2417,0.59046,14.046,25.465,-6.6788,2.2263,-0.75968,-8.905,-2.8875e-12,-0.37984,0,0,0.16667,-7.8949e-16,0,0.66667
0.0026318,0.10243,0.015791,-0.59636,-28.497,199.72,0.025111,-0.0083698,-0.73558,0.033482,8.4226e-07,-0.36779,0,0,0.16667,6.1679e-18,-1.1078e-16,0.66667
0.77621,0.89618,4.6572,0.59427,11.21,15.981,-7.3804,2.4601,-0.74336,-9.8406,3.971e-11,-0.37168,0,0,0.16667,7.8949e-16,0,0.66667
0.49156,0.16976,2.9493,-0.49536,-17.869,66.477,3.896,-1.2987,-1.126,5.1946,-3.5283e-13,-0.56302,0,0,0.16667,-0,-0,0.66667
0.20439,0.90836,1.2263,0.61254,28.055,140.92,-2.0031,0.66771,-0.66772,-2.6708,-2.4314e-10,-0.33386,0,0,0.16667,-0,-0,0.66667
0.72925,0.41868,4.3755,-0.12197,-2.6719,21.537,1.4232,-0.4744,-1.946,1.8976,-1.1243e-11,-0.97299,0,0,0.16667,-0,-0,0.66667
0.31565,0.54415,1.8939,0.066219,2.8235,109.93,-0.33444,0.11148,-1.984,-0.44591,2.3334e-13,-0.99198,0,0,0.16667,-0,-0,0.66667
0.88382,0.91013,5.3029,0.61519,6.3455,5.6165,-8.6995,2.8998,-0.65382,-11.599,-1.553e-08,-0.32691,0,0,0.16667,-0,-0,0.66667
0.18023,0.3165,1.0814,-0.27525,-12.644,147.66,0.79376,-0.26459,-1.73,1.0583,8.6998e-10,-0.86501,0,0,0.16667,-0,-0,0.66667
0.93855,0.72397,5.6313,0.33595,1.7643,1.87,-5.045,1.6817,-1.6001,-6.7266,-1.2853e-08,-0.80005,0,0,0.16667,-0,-0,0.66667
0.97075,0.41629,5.8245,-0.12557,-0.27625,0.53342,1.9503,-0.65011,-1.9442,2.6004,2.3479e-08,-0.97212,0,0,0.16667,-0,-0,0.66667
0.30449,0.12282,1.8269,-0.56577,-24.497,113.19,2.7563,-0.91876,-0.86161,3.6751,-4.2322e-12,-0.4308,0,0,0.16667,9.8686e-17,0,0.66667
0.86249,0.39431,5.1749,-0.15854,-1.8606,6.4231,2.1878,-0.72925,-1.9102,2.917,-4.4542e-10,-0.95512,0,0,0.16667,-0,-0,0.66667
0.84218,0.12743,5.0531,-0.55885,-7.6539,8.8388,7.5304,-2.5101,-0.8911,10.041,-2.2994e-09,-0.44555,0,0,0.16667,-0,1.6783e-16,0.66667
0.42461,0.24593,2.5477,-0.3811,-14.83,82.116,2.5891,-0.86304,-1.4842,3.4522,-5.3868e-13,-0.74211,0,0,0.16667,1.9737e-16,0,0.66667
0.36368,0.45678,2.1821,-0.064837,-2.663,97.289,0.37728,-0.12576,-1.9842,0.50304,-2.5952e-12,-0.99209,0,0,0.16667,-0,-0,0.66667
0.28244,0.41166,1.6946,-0.13251,-5.7782,118.93,0.59881,-0.1996,-1.9389,0.79842,4.7167e-12,-0.96943,0,0,0.16667,7.8949e-16,0,0.66667
0.99324,0.54349,5.9594,0.065233,0.0044423,0.081907,-1.0367,0.34556,-1.9835,-1.3822,1.1162e-06,-0.99173,0,0,0.16667,1.579e-15,0,0.66667
0.25575,0.16402,1.5345,-0.50397,-22.447,126.45,2.0623,-0.68742,-1.096,2.7497,1.8039e-11,-0.54801,0,0,0.16667,-0,-0,0.66667
0.92068,0.42194,5.5241,-0.1171,-0.7897,2.4722,1.7249,-0.57498,-1.9518,2.2999,5.0605e-09,-0.9759,0,0,0.16667,1.579e-15,0,0.66667
0.42834,0.66732,2.57,0.25098,9.7069,81.115,-1.7201,0.57336,-1.7747,-2.2934,1.0127e-12,-0.88736,0,0,0.16667,-0,-0,0.66667
0.93543,0.38454,5.6126,-0.17318,-0.94327,1.7987,2.592,-0.86401,-1.8937,3.456,1.7538e-08,-0.94683,0,0,0.16667,-0,-0,0.66667
0.83884,0.035132,5.0331,-0.6973,-9.8635,9.5353,9.3589,-3.1196,-0.271,12.478,5.3813e-10,-0.1355,0,0,0.16667,-0,-0,0.66667
0.15578,0.83278,0.93466,0.49918,23.217,154.78,-1.2442,0.41472,-1.1152,-1.6589,-8.6927e-10,-0.55762,0,0,0.16667,-1.9737e-16,0,0.66667
0.57428,0.88002,3.4457,0.57003,18.197,48.905,-5.2378,1.7459,-0.84466,-6.9837,-9.4769e-13,-0.42233,0,0,0.16667,-0,-0,0.66667
0.6735,0.33368,4.041,-0.24948,-6.4136,30.247,2.6884,-0.89613,-1.7792,3.5845,4.4988e-12,-0.8896,0,0,0.16667,-0,-0,0.66667
0.40582,0.83678,2.4349,0.50516,20.093,86.866,-3.2801,1.0934,-1.0943,-4.3735,1.2814e-12,-0.54713,0,0,0.16667,3.9475e-16,0,0.66667
0.004877,0.40127,0.029262,-0.14809,-7.0251,199.05,0.011556,-0.0038517,-1.9217,0.015408,3.7528e-07,-0.96084,0,0,0.16667,-3.084e-18,0,0.66667
0.32533,0.62406,1.952,0.1861,7.8853,107.37,-0.96869,0.3229,-1.878,-1.2916,5.0652e-12,-0.93902,0,0,0.16667,-5.181e-16,0,0.66667
0.83894,0.15074,5.0337,-0.52389,-7.2913,9.0523,7.0323,-2.3441,-1.0237,9.3763,-1.1352e-09,-0.51187,0,0,0.16667,3.9475e-16,0,0.66667
0.062824,0.53924,0.37694,0.058864,2.7802,181.9,-0.059169,0.019723,-1.9892,-0.078892,-1.1886e-07,-0.99462,0,0,0.16667,-0,-0,0.66667
0.10542,0.076539,0.63252,-0.63519,-30.046,169.47,1.0714,-0.35713,-0.56463,1.4285,-4.7032e-08,-0.28232,0,0,0.16667,-1.9737e-16,0,0.66667
0.70179,0.9331,4.2107,0.64965,15.731,26.391,-7.2947,2.4316,-0.50075,-9.7262,-1.7932e-12,-0.25037,0,0,0.16667,7.8949e-16,-9.5518e-17,0.66667
0.51416,0.58594,3.0849,0.12891,4.4789,61.123,-1.0605,0.35349,-1.9417,-1.414,4.2055e-13,-0.97086,0,0,0.16667,-3.9475e-16,0,0.66667
0.49817,0.097724,2.989,-0.60341,-21.652,65.146,4.8096,-1.6032,-0.70651,6.4128,-4.4853e-13,-0.35326,0,0,0.16667,-0,9.0828e-17,0.66667
0.37361,0.13991,2.2417,-0.54014,-22.156,95.022,3.2288,-1.0763,-0.96311,4.3051,-1.0056e-12,-0.48156,0,0,0.16667,-0,-0,0.66667
0.60351,0.94096,3.6211,0.66144,20.099,43.365,-6.387,2.129,-0.44411,-8.516,-5.8886e-13,-0.22206,0,0,0.16667,-0,-0,0.66667
0.85147,0.35039,5.1088,-0.22442,-2.8432,7.416,3.0574,-1.0191,-1.8199,4.0765,-2.1553e-09,-0.90997,0,0,0.16667,-0,-0,0.66667
0.27692,0.80696,1.6615,0.46044,20.239,120.59,-2.0401,0.68004,-1.2459,-2.7202,-4.1824e-12,-0.62297,0,0,0.16667,1.9737e-16,0,0.66667
0.84476,0.9507,5.0686,0.67605,9.2192,8.9305,-9.1377,3.0459,-0.37565,-12.184,4.4078e-09,-0.18782,0,0,0.16667,1.579e-15,0,0.66667
0.41662,0.63669,2.4997,0.20504,8.023,83.961,-1.3668,0.45559,-1.8494,-1.8224,8.8085e-13,-0.9247,0,0,0.16667,-0,-0,0.66667
0.50098,0.51115,3.0059,0.016729,0.59171,64.03,-0.1341,0.044699,-1.9998,-0.1788,-8.1751e-13,-0.99992,0,0,0.16667,1.579e-15,0,0.66667
0.72962,0.98144,4.3777,0.72216,16.18,22.469,-8.4305,2.8102,-0.14468,-11.241,-6.7502e-14,-0.072338,0,0,0.16667,1.579e-15,0,0.66667
0.25872,0.98466,1.5523,0.72699,32.534,125.82,-3.0094,1.0031,-0.11931,-4.0126,4.8013e-12,-0.059655,0,0,0.16667,3.9475e-16,0,0.66667
0.92164,0.60261,5.5298,0.15392,1.0265,2.4467,-2.2697,0.75657,-1.9173,-3.0263,-1.6242e-08,-0.95865,0,0,0.16667,1.579e-15,0,0.66667
0.70207,0.13128,4.2124,-0.55309,-13.315,26.13,6.2129,-2.071,-0.9136,8.2838,3.2156e-12,-0.4568,0,0,0.16667,1.579e-15,0,0.66667
0.61893,0.33593,3.7136,-0.2461,-7.1595,39.848,2.4371,-0.81237,-1.7837,3.2495,1.9302e-12,-0.89184,0,0,0.16667,3.9475e-16,0,0.66667
0.27301,0.9016,1.6381,0.60241,26.636,121.77,-2.6314,0.87713,-0.70902,-3.5085,7.5473e-13,-0.35451,0,0,0.16667,-9.8686e-17,0,0.66667
0.69585,0.70998,4.1751,0.31498,7.6469,26.711,-3.5068,1.1689,-1.6461,-4.6757,-4.6008e-12,-0.82303,0,0,0.16667,7.8949e-16,0,0.66667
0.25721,0.075316,1.5433,-0.63703,-28.451,126.15,2.6216,-0.87388,-0.55568,3.4955,2.0912e-12,-0.27784,0,0,0.16667,3.9475e-16,0,0.66667
0.81645,0.36453,4.8987,-0.2032,-3.1421,10.759,2.6545,-0.88483,-1.8525,3.5393,-5.8071e-10,-0.92627,0,0,0.16667,-0,-0,0.66667
0.011472,0.17335,0.068835,-0.48998,-23.352,197.11,0.089941,-0.02998,-1.1455,0.11992,1.2234e-07,-0.57274,0,0,0.16667,-0,-0,0.66667
0.16654,0.077767,0.99923,-0.63335,-29.452,151.74,1.6876,-0.56254,-0.5725,2.2502,4.7891e-10,-0.28625,0,0,0.16667,-0,-0,0.66667
0.55783,0.50684,3.347,0.010264,0.33337,51.768,-0.091607,0.030536,-1.9991,-0.12214,-1.9409e-12,-0.99955,0,0,0.16667,3.158e-15,0,0.66667
0.71228,0.77762,4.2737,0.41642,9.6793,24.33,-4.7458,1.5819,-1.383,-6.3277,-9.4058e-13,-0.69149,0,0,0.16667,-3.9475e-16,0,0.66667
0.49248,0.13862,2.9549,-0.54208,-19.558,66.332,4.2714,-1.4238,-0.9537,5.6952,-5.4845e-13,-0.47685,0,0,0.16667,-0,-0,0.66667
0.87781,0.14713,5.2669,-0.52931,-5.6746,5.8193,7.4341,-2.478,-1.0038,9.9121,-1.928e-09,-0.5019,0,0,0.16667,-0,-0,0.66667
0.97587,0.9162,5.8552,0.6243,1.3169,1.3857,-9.7478,3.2493,-0.61291,-12.997,-2.1403e-06,-0.30646,0,0,0.16667,-1.579e-15,0,0.66667
0.46428,0.87242,2.7857,0.55863,20.889,72.836,-4.1497,1.3832,-0.89062,-5.533,8.0469e-13,-0.44531,0,0,0.16667,-8.8818e-16,0,0.66667
0.76799,0.93882,4.6079,0.65824,12.872,17.163,-8.0883,2.6961,-0.46078,-10.784,1.3208e-11,-0.23039,0,0,0.16667,-0,-0,0.66667
0.49477,0.59227,2.9686,0.13841,4.9391,65.453,-1.0957,0.36522,-1.9321,-1.4609,-4.7395e-13,-0.96603,0,0,0.16667,-1.9737e-16,0,0.66667
0.6651,0.07643,3.9906,-0.63535,-16.902,32.258,6.7612,-2.2537,-0.56324,9.0149,1.3483e-12,-0.28162,0,0,0.16667,-0,-0,0.66667
0.22487,0.96408,1.3492,0.69613,31.668,135.21,-2.5047,0.83489,-0.27644,-3.3395,2.9339e-12,-0.13822,0,0,0.16667,9.8686e-17,0,0.66667
0.10954,0.38954,0.65725,-0.16569,-7.7656,168.16,0.29039,-0.096798,-1.9037,0.38719,2.1745e-09,-0.95183,0,0,0.16667,-0,-0,0.66667
0.97901,0.4721,5.8741,-0.041852,-0.059118,0.30902,0.65558,-0.21853,-1.9936,0.8741,-2.6468e-07,-0.99678,0,0,0.16667,-0,-0,0.66667
0.81499,0.78087,4.89,0.4213,6.6221,11.208,-5.4937,1.8312,-1.3704,-7.3249,4.8273e-10,-0.68518,0,0,0.16667,2.3438e-15,0,0.66667
0.28538,0.52687,1.7123,0.040305,1.7537,118.12,-0.18404,0.061347,-1.9942,-0.24539,-1.2348e-12,-0.99711,0,0,0.16667,3.9475e-16,0,0.66667
0.58583,0.1774,3.515,-0.48391,-15.091,46.469,4.5358,-1.5119,-1.1661,6.0477,1.1058e-12,-0.58304,0,0,0.16667,-7.8949e-16,0,0.66667
0.38007,0.46947,2.2804,-0.045794,-1.854,93.082,0.27848,-0.092827,-1.9929,0.37131,-1.6243e-13,-0.99646,0,0,0.16667,-0,-0,0.66667
0.17634,0.25812,1.058,-0.36282,-16.712,148.8,1.0237,-0.34123,-1.5313,1.3649,1.0726e-09,-0.76566,0,0,0.16667,-0,-0,0.66667
0.41884,0.34825,2.513,-0.22763,-8.8889,83.427,1.5254,-0.50847,-1.8162,2.0339,-8.622e-13,-0.90809,0,0,0.16667,-0,-0,0.66667
0.29719,0.94853,1.7831,0.6728,29.366,115.26,-3.1992,1.0664,-0.39184,-4.2656,-1.0747e-13,-0.19592,0,0,0.16667,-0,-0,0.66667
0.016624,0.2961,0.099745,-0.30586,-14.528,195.58,0.081354,-0.027118,-1.6681,0.10847,8.734e-09,-0.83403,0,0,0.16667,-0,-0,0.66667
0.38737,0.78577,2.3242,0.42866,17.32,91.415,-2.6568,0.88559,-1.347,-3.5424,2.0148e-12,-0.67349,0,0,0.16667,-0,-0,0.66667
0.92091,0.56351,5.5255,0.09527,0.64004,2.4484,-1.4038,0.46792,-1.9699,-1.8717,4.4187e-08,-0.98496,0,0,0.16667,3.158e-15,0,0.66667
0.8282,0.44734,4.9692,-0.078991,-1.1453,9.4876,1.0467,-0.34891,-1.9794,1.3956,-7.3053e-10,-0.98969,0,0,0.16667,1.579e-15,0,0.66667
0.57407,0.62939,3.4444,0.19409,6.1404,48.507,-1.7828,0.59425,-1.8661,-2.377,-1.3782e-12,-0.93304,0,0,0.16667,1.579e-15,0,0.66667
0.31865,0.24546,1.9119,-0.38181,-16.301,109.25,1.9466,-0.64886,-1.4811,2.5955,-6.2966e-12,-0.74056,0,0,0.16667,-0,-0,0.66667
0.23126,0.69081,1.3876,0.28621,12.861,133.17,-1.0591,0.35302,-1.7093,-1.4121,-1.3931e-10,-0.85466,0,0,0.16667,-0,-0,0.66667
0.95602,0.77061,5.7361,0.40591,1.5087,1.3428,-6.209,2.0697,-1.414,-8.2786,-4.7968e-08,-0.70698,0,0,0.16667,-0,-0,0.66667
0.56461,0.36265,3.3877,-0.20602,-6.6255,50.436,1.8612,-0.62039,-1.8492,2.4816,2.1916e-13,-0.92459,0,0,0.16667,-0,-0,0.66667
0.21761,0.47162,1.3056,-0.042574,-1.9221,136.97,0.14823,-0.04941,-1.9953,0.19764,9.5528e-11,-0.99764,0,0,0.16667,-0,-0,0.66667
0.24948,0.63019,1.4969,0.19528,8.6838,128.04,-0.7795,0.25983,-1.8662,-1.0393,-4.7948e-11,-0.93309,0,0,0.16667,-0,-0,0.66667
0.9596,0.90128,5.7576,0.60192,2.1626,1.7343,-9.2415,3.0805,-0.71115,-12.322,1.0898e-06,-0.35557,0,0,0.16667,1.579e-15,0,0.66667
0.23881,0.26484,1.4329,-0.35274,-15.806,131.08,1.3478,-0.44928,-1.5566,1.7971,8.7814e-11,-0.7783,0,0,0.16667,-0,-0,0.66667
0.10671,0.92568,0.64028,0.63852,30.198,169.09,-1.0902,0.36341,-0.55019,-1.4536,5.7781e-08,-0.27509,0,0,0.16667,-2.7688e-17,2.1388e-16,0.66667
0.18396,0.70113,1.1038,0.3017,13.844,146.6,-0.88801,0.296,-1.6757,-1.184,-7.7897e-10,-0.83786,0,0,0.16667,-0,-0,0.66667
0.76622,0.043036,4.5973,-0.68545,-13.519,17.46,8.4033,-2.8011,-0.33052,11.204,-6.3194e-12,-0.16526,0,0,0.16667,-0,-0,0.66667
0.70876,0.83208,4.2526,0.49812,11.736,25.001,-5.6488,1.8829,-1.1166,-7.5317,-3.1641e-12,-0.55829,0,0,0.16667,-0,-0,0.66667
0.43794,0.41619,2.6277,-0.12571,-4.8055,78.732,0.88086,-0.29362,-1.9451,1.1745,-1.8929e-14,-0.97255,0,0,0.16667,-0,-0,0.66667
0.7938,0.15426,4.7628,-0.5186,-9.0494,13.725,6.5867,-2.1956,-1.0446,8.7823,-2.1126e-10,-0.52228,0,0,0.16667,-2.1711e-15,0,0.66667
0.51751,0.33621,3.1051,-0.24569,-8.5068,60.446,2.0344,-0.67813,-1.786,2.7125,-3.002e-13,-0.89298,0,0,0.16667,-0,-0,0.66667
0.4136,0.82155,2.4816,0.48233,19.026,84.917,-3.1918,1.0639,-1.1716,-4.2558,1.41e-12,-0.5858,0,0,0.16667,7.8949e-16,0,0.66667
0.11744,0.69551,0.70465,0.29327,13.738,165.86,-0.55108,0.18369,-1.6931,-0.73477,-3.9928e-09,-0.84653,0,0,0.16667,-0,-0,0.66667
0.88391,0.27061,5.3035,-0.34409,-3.4536,4.9969,4.8663,-1.6221,-1.5777,6.4884,-6.1004e-09,-0.78886,0,0,0.16667,7.8949e-16,0,0.66667
0.27559,0.84032,1.6536,0.51048,22.482,120.99,-2.251,0.75032,-1.0732,-3.0013,2.7744e-12,-0.53659,0,0,0.16667,-3.9475e-16,0,0.66667
0.61626,0.071645,3.6976,-0.64253,-19.029,40.925,6.3355,-2.1118,-0.53089,8.4473,-4.885e-15,-0.26544,0,0,0.16667,-0,-0,0.66667
0.98458,0.4275,5.9075,-0.10875,-0.097641,0.23025,1.7132,-0.57108,-1.9594,2.2843,-4.4707e-07,-0.9797,0,0,0.16667,7.8949e-16,0,0.66667
0.18942,0.54934,1.1365,0.074005,3.382,144.99,-0.22428,0.074762,-1.9807,-0.29905,-2.03e-10,-0.99035,0,0,0.16667,-0,-0,0.66667
0.96519,0.74377,5.7911,0.36566,1.0381,0.98502,-5.6469,1.8823,-1.5245,-7.5292,-6.2509e-08,-0.76227,0,0,0.16667,-7.8949e-16,0,0.66667
0.65272,0.27386,3.9163,-0.33921,-9.1879,33.866,3.5425,-1.1808,-1.5907,4.7234,4.3998e-12,-0.79535,0,0,0.16667,-1.1842e-15,0,0.66667
0.12873,0.62091,0.77239,0.18136,8.4616,162.55,-0.37356,0.12452,-1.8832,-0.49808,-2.1341e-09,-0.94162,0,0,0.16667,2.4672e-16,0,0.66667
0.77193,0.10576,4.6316,-0.59136,-11.341,16.5,7.3038,-2.4346,-0.75526,9.7384,-3.0604e-11,-0.37763,0,0,0.16667,-0,-0,0.66667
0.95178,0.8465,5.7107,0.51975,2.1906,1.7545,-7.915,2.6383,-1.0411,-10.553,4.3326e-08,-0.52056,0,0,0.16667,-0,-0,0.66667
0.56278,0.8287,3.3767,0.49305,16.007,51.112,-4.4396,1.4799,-1.1368,-5.9195,-4.2721e-13,-0.56842,0,0,0.16667,-0,-0,0.66667
0.68856,0.084959,4.1313,-0.62256,-15.602,28.394,6.8587,-2.2862,-0.6229,9.1449,1.9353e-12,-0.31145,0,0,0.16667,-7.8949e-16,0,0.66667
0.026348,0.2432,0.15809,-0.3852,-18.311,192.7,0.16239,-0.05413,-1.4718,0.21652,-8.5765e-08,-0.73591,0,0,0.16667,2.4672e-17,0,0.66667
0.98908,0.41068,5.9345,-0.13399,-0.064087,0.17443,2.1204,-0.70679,-1.936,2.8271,3.3573e-08,-0.96798,0,0,0.16667,3.158e-15,0,0.66667
0.31846,0.66236,1.9107,0.24353,10.377,109.23,-1.2409,0.41363,-1.7884,-1.6545,3.7896e-12,-0.89419,0,0,0.16667,7.8949e-16,0,0.66667
0.023904,0.55138,0.14342,0.077066,3.6526,193.41,-0.029475,0.0098248,-1.9775,-0.0393,-3.4268e-07,-0.98874,0,0,0.16667,2.4672e-17,0,0.66667
0.80856,0.51856,4.8514,0.027847,0.44657,11.51,-0.36026,0.12009,-1.9965,-0.48035,1.0406e-10,-0.99824,0,0,0.16667,1.579e-15,0,0.66667
0.97325,0.66548,5.8395,0.24822,0.4999,0.59144,-3.8652,1.2884,-1.7802,-5.1537,2.3231e-09,-0.8901,0,0,0.16667,-0,-0,0.66667
0.73759,0.58605,4.4255,0.12907,2.7519,20.36,-1.5232,0.50775,-1.9407,-2.031,1.6936e-11,-0.97034,0,0,0.16667,-0,-0,0.66667
0.0027358,0.94114,0.016415,0.66171,31.676,199.69,-0.028969,0.0096574,-0.44385,-0.038625,1.5111e-06,-0.22193,0,0,0.16667,-0,9.4133e-16,0.66667
0.063361,0.84953,0.38016,0.5243,24.909,181.78,-0.53152,0.17717,-1.0241,-0.70869,-2.3885e-08,-0.51204,0,0,0.16667,-0,-0,0.66667
0.58427,0.26975,3.5056,-0.34538,-10.76,46.597,3.2287,-1.0762,-1.5746,4.3049,7.1854e-13,-0.78729,0,0,0.16667,7.8949e-16,0,0.66667
0.33572,0.56652,2.0143,0.099784,4.1926,104.6,-0.53598,0.17866,-1.964,-0.71465,8.9839e-13,-0.982,0,0,0.16667,-0,-0,0.66667
0.88183,0.85003,5.291,0.52504,5.448,5.5157,-7.408,2.4693,-1.019,-9.8773,1.536e-09,-0.50948,0,0,0.16667,-0,-0,0.66667
0.87367,0.84528,5.242,0.51792,5.7264,6.1015,-7.2398,2.4133,-1.0481,-9.6531,9.4394e-10,-0.52406,0,0,0.16667,-0,-0,0.66667
0.98752,0.56755,5.9251,0.10132,0.062613,0.17778,-1.6009,0.53364,-1.9638,-2.1346,9.9765e-07,-0.98189,0,0,0.16667,-0,-0,0.66667
0.71583,0.72078,4.295,0.33118,7.5954,23.678,-3.7931,1.2644,-1.6109,-5.0574,2.0133e-12,-0.80546,0,0,0.16667,-0,-0,0.66667
0.87688,0.53042,5.2613,0.045626,0.47955,5.2376,-0.64014,0.21338,-1.9943,-0.85352,1.3658e-08,-0.99714,0,0,0.16667,1.579e-15,0,0.66667
0.31965,0.95201,1.9179,0.67802,29.147,109.25,-3.4676,1.1559,-0.36398,-4.6235,-2.1005e-13,-0.18199,0,0,0.16667,7.8949e-16,0,0.66667
0.11118,0.94499,0.66706,0.66749,31.563,167.8,-1.1874,0.39578,-0.41649,-1.5831,3.564e-08,-0.20825,0,0,0.16667,-0,-0,0.66667
0.86536,0.52211,5.1922,0.033162,0.38047,6.1332,-0.45916,0.15305,-1.995,-0.61222,-7.8834e-10,-0.9975,0,0,0.16667,-0,-0,0.66667
0.30347,0.93564,1.8208,0.65346,28.386,113.55,-3.1729,1.0576,-0.4816,-4.2305,6.1928e-13,-0.2408,0,0,0.16667,-9.8686e-17,0,0.66667
0.41933,0.99204,2.516,0.73806,29.184,83.856,-4.9519,1.6506,-0.063372,-6.6025,-5.2403e-14,-0.031686,0,0,0.16667,-0,1.4988e-16,0.66667
0.64603,0.073512,3.8762,-0.63973,-17.79,35.541,6.6126,-2.2042,-0.54375,8.8168,4.9871e-13,-0.27187,0,0,0.16667,-0,-0,0.66667
0.6051,0.14723,3.6306,-0.52916,-15.945,42.809,5.1231,-1.7077,-1.0038,6.8308,3.2863e-13,-0.50189,0,0,0.16667,-0,-0,0.66667
0.42092,0.13332,2.5255,-0.55001,-21.575,83.195,3.7042,-1.2347,-0.92548,4.939,-1.1373e-12,-0.46274,0,0,0.16667,7.8949e-16,0,0.66667
0.38615,0.62572,2.3169,0.18858,7.5992,91.571,-1.1652,0.38838,-1.8741,-1.5535,1.5423e-12,-0.93705,0,0,0.16667,-0,-0,0.66667
0.12268,0.35356,0.73609,-0.21966,-10.268,164.32,0.43117,-0.14372,-1.8286,0.5749,3.428e-09,-0.91429,0,0,0.16667,-0,-0,0.66667
0.53386,0.87758,3.2032,0.56637,19.295,57.273,-4.8378,1.6126,-0.86043,-6.4504,1.7719e-13,-0.43021,0,0,0.16667,-1.579e-15,0,0.66667
0.23285,0.67426,1.3971,0.26138,11.732,132.71,-0.97383,0.32461,-1.7575,-1.2984,-1.2375e-10,-0.87874,0,0,0.16667,-3.9475e-16,0,0.66667
0.75481,0.99197,4.5288,0.73796,15.227,19.079,-8.9123,2.9708,-0.062982,-11.883,2.4428e-11,-0.031491,0,0,0.16667,7.8949e-16,0,0.66667
0.67487,0.33042,4.0492,-0.25437,-6.5175,30.025,2.7467,-0.91555,-1.7695,3.6622,4.5277e-12,-0.88477,0,0,0.16667,-0,-0,0.66667
0.071927,0.85321,0.43156,0.52982,25.145,179.26,-0.60973,0.20324,-1.0008,-0.81298,-4.4423e-08,-0.50038,0,0,0.16667,-0,-0,0.66667
0.98926,0.6389,5.9356,0.20835,0.10141,0.23882,-3.2978,1.0993,-1.8445,-4.3971,2.5658e-08,-0.92227,0,0,0.16667,1.579e-15,0,0.66667
0.78046,0.28548,4.6827,-0.32179,-5.8844,14.947,4.0182,-1.3394,-1.6336,5.3577,-2.1633e-10,-0.81678,0,0,0.16667,-0,-0,0.66667
0.22783,0.58834,1.367,0.13252,5.9558,134.1,-0.48305,0.16102,-1.9368,-0.64407,-8.8564e-11,-0.96841,0,0,0.16667,4.9343e-16,0,0.66667
0.030743,0.30867,0.18446,-0.287,-13.62,191.39,0.14117,-0.047057,-1.7091,0.18823,-2.6311e-08,-0.85456,0,0,0.16667,-4.9343e-17,0,0.66667
0.47837,0.3079,2.8702,-0.28816,-10.523,69.278,2.2055,-0.73518,-1.7042,2.9407,-7.4163e-14,-0.85212,0,0,0.16667,9.8686e-16,0,0.66667
0.35274,0.37965,2.1165,-0.18053,-7.4879,100.16,1.0189,-0.33962,-1.8835,1.3585,-2.6458e-12,-0.94174,0,0,0.16667,-0,-0,0.66667
0.54651,0.75877,3.2791,0.38815,12.901,54.349,-3.3941,1.1314,-1.4658,-4.5254,-9.1016e-13,-0.73288,0,0,0.16667,1.579e-15,0,0.66667
0.65966,0.95569,3.958,0.68353,18.465,33.289,-7.2144,2.4048,-0.33822,-9.6192,-1.7231e-13,-0.16911,0,0,0.16667,7.8949e-16,0,0.66667
0.79722,0.53956,4.7833,0.059346,1.0037,12.773,-0.75699,0.25233,-1.989,-1.0093,8.4527e-11,-0.99449,0,0,0.16667,-1.579e-15,0,0.66667
0.013544,0.95853,0.081266,0.68779,32.944,196.5,-0.14905,0.049671,-0.31825,-0.19873,-1.6334e-05,-0.15912,0,0,0.16667,1.2336e-17,0,0.66667
0.7143,0.74003,4.2858,0.36004,8.3027,23.945,-4.1148,1.3716,-1.5383,-5.4864,4.9649e-13,-0.76916,0,0,0.16667,-7.8949e-16,0,0.66667
0.29531,0.23865,1.7719,-0.39202,-17.01,115.53,1.8523,-0.61744,-1.454,2.4697,-4.224e-12,-0.72702,0,0,0.16667,-0,-0,0.66667
0.9864,0.49396,5.9184,-0.009055,-0.006453,0.16878,0.14291,-0.047647,-2.0004,0.19054,-1.4655e-05,-1.0002,0,0,0.16667,2.3685e-15,0,0.66667
0.84624,0.47034,5.0775,-0.044487,-0.58032,7.7712,0.60235,-0.20078,-1.9942,0.80313,-2.5771e-09,-0.99708,0,0,0.16667,-0,-0,0.66667
0.5604,0.53674,3.3624,0.055103,1.7823,51.241,-0.49408,0.16469,-1.9899,-0.65877,3.4134e-13,-0.99497,0,0,0.16667,-1.579e-15,0,0.66667
0.59777,0.074711,3.5866,-0.63793,-19.576,44.416,6.1014,-2.0338,-0.55226,8.1351,3.2285e-13,-0.27613,0,0,0.16667,-0,-0,0.66667
0.19208,0.76766,1.1525,0.4015,18.394,144.31,-1.2339,0.41129,-1.4258,-1.6452,-5.7929e-10,-0.71292,0,0,0.16667,-3.9475e-16,0,0.66667
0.22625,0.24048,1.3575,-0.38927,-17.563,134.62,1.4092,-0.46973,-1.4599,1.8789,1.4041e-10,-0.72997,0,0,0.16667,-1.9737e-16,0,0.66667
0.15401,0.19809,0.92408,-0.45286,-21.054,155.27,1.1159,-0.37198,-1.2709,1.4879,2.4511e-09,-0.63547,0,0,0.16667,-0,-0,0.66667
0.37781,0.86326,2.2669,0.54489,22.271,93.955,-3.2939,1.098,-0.94409,-4.3918,1.4513e-12,-0.47205,0,0,0.16667,-0,-0,0.66667
0.11196,0.70221,0.67173,0.30331,14.228,167.47,-0.54331,0.1811,-1.6727,-0.72442,-5.0112e-09,-0.83634,0,0,0.16667,-1.9737e-16,0,0.66667
0.51127,0.8317,3.0676,0.49755,17.477,62.075,-4.0701,1.3567,-1.1189,-5.4268,-1.1058e-13,-0.55946,0,0,0.16667,-0,-0,0.66667
0.63848,0.68781,3.8309,0.28172,7.8688,36.313,-2.8779,0.95931,-1.7195,-3.8372,-3.3591e-12,-0.85973,0,0,0.16667,-0,-0,0.66667
0.12221,0.059733,0.73327,-0.6604,-31.139,164.58,1.2913,-0.43045,-0.45014,1.7218,5.9805e-08,-0.22507,0,0,0.16667,4.9343e-17,0,0.66667
0.3442,0.67316,2.0652,0.25974,10.857,102.42,-1.4304,0.47681,-1.7612,-1.9073,3.7709e-12,-0.88059,0,0,0.16667,-0,-0,0.66667
0.070348,0.47901,0.42209,-0.031482,-1.4854,179.68,0.035436,-0.011812,-1.9951,0.047248,3.173e-08,-0.99757,0,0,0.16667,-0,-0,0.66667
0.52576,0.68992,3.1546,0.28488,9.7522,58.678,-2.3965,0.79882,-1.7114,-3.1953,4.0701e-13,-0.85569,0,0,0.16667,-1.579e-15,0,0.66667
0.65029,0.34471,3.9017,-0.23294,-6.3301,34.182,2.4237,-0.80789,-1.8072,3.2315,3.6966e-12,-0.9036,0,0,0.16667,-0,-0,0.66667
0.61547,0.05929,3.6928,-0.66107,-19.625,41.112,6.5099,-2.17,-0.44587,8.6798,-7.6961e-13,-0.22293,0,0,0.16667,1.1842e-15,0,0.66667
0.81387,0.55144,4.8832,0.077167,1.206,10.954,-1.0049,0.33495,-1.9794,-1.3398,1.6828e-10,-0.98971,0,0,0.16667,-0,-0,0.66667
0.23557,0.0050586,1.4134,-0.74241,-33.65,132.26,2.7982,-0.93273,-0.041604,3.7309,-2.4733e-11,-0.020802,0,0,0.16667,-0,-0,0.66667
0.61818,0.93901,3.7091,0.65851,19.441,40.603,-6.5132,2.1711,-0.45809,-8.6843,1.501e-13,-0.22905,0,0,0.16667,-0,-0,0.66667
0.30283,0.13792,1.817,-0.54312,-23.528,113.62,2.6315,-0.87718,-0.94986,3.5087,-4.7145e-12,-0.47493,0,0,0.16667,-0,-0,0.66667
0.088768,0.53462,0.53261,0.051934,2.443,174.25,-0.073761,0.024587,-1.9903,-0.098348,-7.4794e-08,-0.99515,0,0,0.16667,1.9737e-16,0,0.66667
0.30526,0.22629,1.8316,-0.41057,-17.703,112.86,2.0053,-0.66843,-1.3996,2.6737,-6.3596e-12,-0.69979,0,0,0.16667,-0,-0,0.66667
0.071356,0.71687,0.42814,0.3253,15.381,179.4,-0.37139,0.1238,-1.6236,-0.49519,2.0223e-09,-0.81179,0,0,0.16667,-1.0046e-16,0,0.66667
0.95857,0.85906,5.7514,0.53859,1.9454,1.581,-8.2604,2.7535,-0.96735,-11.014,1.0443e-08,-0.48367,0,0,0.16667,-1.579e-15,0,0.66667
0.72717,0.20937,4.363,-0.43594,-9.6922,22.176,5.072,-1.6907,-1.323,6.7627,-4.738e-12,-0.66152,0,0,0.16667,7.8949e-16,0,0.66667
0.10146,0.13603,0.60877,-0.54595,-25.786,170.6,0.88628,-0.29543,-0.93883,1.1817,-5.4846e-09,-0.46942,0,0,0.16667,-0,-0,0.66667
0.78627,0.78415,4.7176,0.42623,7.6425,14.416,-5.3621,1.7874,-1.354,-7.1495,1.686e-10,-0.67701,0,0,0.16667,-0,-0,0.66667
0.35216,0.82593,2.1129,0.4889,20.393,100.5,-2.7547,0.91823,-1.1487,-3.6729,3.0183e-12,-0.57433,0,0,0.16667,-0,-0,0.66667
0.91144,0.56666,5.4686,0.09999,0.7552,2.9694,-1.4582,0.48605,-1.9642,-1.9442,-4.7837e-08,-0.98208,0,0,0.16667,-0,-0,0.66667
0.4955,0.889,2.973,0.58349,20.997,65.714,-4.6259,1.542,-0.78846,-6.1679,-2.367e-13,-0.39423,0,0,0.16667,-0,-0,0.66667
0.87269,0.78984,5.2362,0.43476,4.8068,5.9916,-6.0706,2.0235,-1.3282,-8.0941,4.4914e-09,-0.6641,0,0,0.16667,-0,-0,0.66667
0.22053,0.91023,1.3232,0.61535,27.983,136.37,-2.1712,0.72375,-0.65483,-2.895,1.0695e-11,-0.32741,0,0,0.16667,-0,-0,0.66667
0.36719,0.030129,2.2032,-0.70481,-29.221,96.867,4.1408,-1.3803,-0.2337,5.5211,-1.6711e-12,-0.11685,0,0,0.16667,6.9081e-16,0,0.66667
0.36684,0.64267,2.201,0.214,8.7751,96.517,-1.2561,0.41869,-1.8357,-1.6748,2.6157e-12,-0.91783,0,0,0.16667,-3.9475e-16,0,0.66667
0.097133,0.2981,0.5828,-0.30285,-14.252,171.81,0.47066,-0.15689,-1.6733,0.62755,5.8253e-09,-0.83665,0,0,0.16667,-0,-0,0.66667
0.33101,0.16031,1.9861,-0.50953,-21.618,106.07,2.6986,-0.89954,-1.0774,3.5981,-3.1564e-12,-0.53872,0,0,0.16667,7.8949e-16,0,0.66667
0.65971,0.87449,3.9583,0.56174,15.085,33.014,-5.9294,1.9765,-0.879,-7.9058,-1.9393e-12,-0.4395,0,0,0.16667,-1.0856e-15,0,0.66667
0.46654,0.36704,2.7993,-0.19944,-7.3814,71.968,1.4888,-0.49626,-1.8589,1.985,-3.0032e-13,-0.92947,0,0,0.16667,-0,-0,0.66667
0.87923,0.12808,5.2754,-0.55787,-5.9319,5.7876,7.848,-2.616,-0.8936,10.464,-2.1367e-08,-0.4468,0,0,0.16667,-3.158e-15,0,0.66667
0.26967,0.82695,1.618,0.49043,21.665,122.6,-2.1161,0.70535,-1.144,-2.8214,-3.5261e-12,-0.57198,0,0,0.16667,3.9475e-16,0,0.66667
0.35482,0.63572,2.1289,0.20358,8.4316,99.624,-1.1558,0.38525,-1.8518,-1.541,1.9977e-12,-0.92588,0,0,0.16667,7.8949e-16,0,0.66667
0.32035,0.41546,1.9221,-0.12681,-5.3903,108.68,0.64998,-0.21666,-1.9416,0.86664,-2.8254e-12,-0.97078,0,0,0.16667,-0,-0,0.66667
0.55174,0.82339,3.3104,0.48509,16.031,53.38,-4.2822,1.4274,-1.1624,-5.7097,-4.2677e-13,-0.58119,0,0,0.16667,-0,-0,0.66667
0.18822,0.16183,1.1293,-0.50726,-23.325,145.46,1.5276,-0.50921,-1.0867,2.0368,2.0513e-10,-0.54334,0,0,0.16667,-0,-0,0.66667
0.17324,0.74696,1.0395,0.37045,17.084,149.7,-1.0268,0.34228,-1.5136,-1.3691,-1.1288e-09,-0.75681,0,0,0.16667,4.9343e-17,0,0.66667
0.93948,0.53816,5.6369,0.057246,0.28932,1.5561,-0.86051,0.28684,-1.989,-1.1474,2.5738e-07,-0.99448,0,0,0.16667,-0,-0,0.66667
0.37665,0.70871,2.2599,0.31306,12.744,94.052,-1.8866,0.62888,-1.652,-2.5155,2.4121e-12,-0.82601,0,0,0.16667,-0,-0,0.66667
0.5871,0.90861,3.5226,0.61292,19.161,46.44,-5.7575,1.9192,-0.66405,-7.6766,-2.4469e-13,-0.33203,0,0,0.16667,-0,-0,0.66667
0.055152,0.95702,0.33091,0.68553,32.74,184.23,-0.60494,0.20165,-0.32761,-0.80658,2.2638e-06,-0.1638,0,0,0.16667,-0,-0,0.66667
0.14086,0.28325,0.84515,-0.32512,-15.142,159.04,0.73274,-0.24425,-1.6267,0.97698,3.1033e-09,-0.81334,0,0,0.16667,-3.9475e-16,0,0.66667
0.096359,0.44133,0.57815,-0.088012,-4.1347,172.02,0.13569,-0.045231,-1.9732,0.18092,-9.3286e-09,-0.98659,0,0,0.16667,-0,-0,0.66667
0.81212,0.68719,4.8727,0.28078,4.4479,11.298,-3.6485,1.2162,-1.7224,-4.8646,6.7758e-10,-0.86121,0,0,0.16667,3.9475e-16,0,0.66667
0.10315,0.74702,0.61888,0.37053,17.433,170.06,-0.6115,0.20383,-1.5116,-0.81533,-7.4501e-09,-0.75578,0,0,0.16667,-1.9737e-16,0,0.66667
0.51632,0.57336,3.0979,0.11004,3.8109,60.642,-0.90903,0.30301,-1.958,-1.212,-1.6154e-14,-0.979,0,0,0.16667,-0,-0,0.66667
0.15558,0.22373,0.93347,-0.41441,-19.242,154.8,1.0316,-0.34385,-1.3911,1.3754,1.644e-09,-0.69554,0,0,0.16667,-0,-0,0.66667
0.27882,0.89741,1.6729,0.59612,26.261,120.18,-2.6593,0.88644,-0.73668,-3.5458,1.6929e-12,-0.36834,0,0,0.16667,1.9737e-16,0,0.66667
0.8826,0.3607,5.2956,-0.20895,-2.1043,4.9146,2.9508,-0.98359,-1.8432,3.9344,-1.3449e-09,-0.92161,0,0,0.16667,1.579e-15,0,0.66667
0.63159,0.41182,3.7896,-0.13227,-3.7414,37.449,1.3366,-0.44554,-1.937,1.7822,1.0881e-12,-0.96852,0,0,0.16667,1.579e-15,0,0.66667
0.96366,0.48145,5.782,-0.02782,-0.07908,0.68654,0.42895,-0.14298,-1.9961,0.57193,-3.1453e-07,-0.99806,0,0,0.16667,3.158e-15,0,0.66667
0.59971,0.20392,3.5983,-0.44412,-13.483,43.706,4.2616,-1.4205,-1.2973,5.6821,1.0894e-12,-0.64865,0,0,0.16667,7.8949e-16,0,0.66667
0.0095197,0.90442,0.057118,0.60663,28.993,197.69,-0.092398,0.030798,-0.69148,-0.1232,-2.3292e-06,-0.34574,0,0,0.16667,-1.5553e-17,0,0.66667
0.41564,0.27589,2.4938,-0.33617,-13.192,84.281,2.2356,-0.74521,-1.5975,2.9808,-1.4149e-12,-0.79875,0,0,0.16667,3.9475e-16,0,0.66667
0.022442,0.69757,0.13465,0.29636,14.072,193.85,-0.10641,0.035471,-1.6864,-0.14188,1.8366e-08,-0.84322,0,0,0.16667,-0,-0,0.66667
0.31398,0.27115,1.8839,-0.34327,-14.694,110.47,1.7245,-0.57483,-1.5816,2.2993,-6.0519e-12,-0.79081,0,0,0.16667,-0,-0,0.66667
0.48162,0.09111,2.8897,-0.61333,-22.493,68.906,4.7264,-1.5755,-0.66334,6.3018,-7.5939e-13,-0.33167,0,0,0.16667,3.9475e-16,2.2649e-16,0.66667
0.57546,0.42752,3.4528,-0.10873,-3.4285,48.189,1.0011,-0.3337,-1.9579,1.3348,-3.6338e-13,-0.97896,0,0,0.16667,7.8949e-16,0,0.66667
0.23865,0.34422,1.4319,-0.23366,-10.454,131.08,0.89223,-0.29741,-1.8065,1.1896,9.3501e-11,-0.90327,0,0,0.16667,-0,-0,0.66667
0.55829,0.65889,3.3497,0.23833,7.7493,51.757,-2.1289,0.70964,-1.7983,-2.8386,-5.4512e-13,-0.89915,0,0,0.16667,1.579e-15,0,0.66667
0.39492,0.11675,2.3695,-0.57488,-23.152,89.667,3.6325,-1.2108,-0.82436,4.8434,-3.3085e-13,-0.41218,0,0,0.16667,-3.9475e-16,0,0.66667
0.50658,0.6597,3.0395,0.23955,8.4221,62.856,-1.9416,0.64721,-1.7955,-2.5888,-7.7627e-13,-0.89777,0,0,0.16667,1.579e-15,0,0.66667
0.19597,0.40206,1.1758,-0.14691,-6.6982,143.13,0.46062,-0.15354,-1.9227,0.61416,2.5926e-10,-0.96133,0,0,0.16667,1.1604e-16,0,0.66667
0.15675,0.35344,0.94051,-0.21984,-10.176,154.41,0.55136,-0.18379,-1.8294,0.73515,1.7659e-09,-0.91471,0,0,0.16667,3.9475e-16,0,0.66667
0.75452,0.037676,4.5271,-0.69349,-14.278,18.989,8.372,-2.7907,-0.28962,11.163,7.6739e-13,-0.14481,0,0,0.16667,1.579e-15,0,0.66667
0.32997,0.30211,1.9798,-0.29684,-12.551,106.19,1.5672,-0.5224,-1.6871,2.0896,-5.6221e-12,-0.84353,0,0,0.16667,-3.9475e-16,0,0.66667
0.6442,0.52222,3.8652,0.03333,0.91653,35.162,-0.34354,0.11451,-1.9957,-0.45805,-7.4513e-13,-0.99784,0,0,0.16667,-0,-0,0.66667
0.56546,0.57795,3.3927,0.11692,3.7513,50.22,-1.0578,0.35261,-1.951,-1.4105,-5.9808e-13,-0.97549,0,0,0.16667,-0,-0,0.66667
0.89953,0.93405,5.3972,0.65108,5.8706,4.6806,-9.3707,3.1236,-0.49233,-12.494,-8.9218e-08,-0.24617,0,0,0.16667,-5.2318e-16,0,0.66667
0.88068,0.73,5.2841,0.34499,3.5573,5.2307,-4.8613,1.6204,-1.5756,-6.4817,5.7321e-09,-0.78781,0,0,0.16667,-0,-0,0.66667
0.44311,0.61645,2.6587,0.17468,6.6418,77.506,-1.2384,0.4128,-1.8906,-1.6512,2.7511e-13,-0.94528,0,0,0.16667,-0,-0,0.66667
0.20474,0.85457,1.2284,0.53186,24.305,140.77,-1.7422,0.58075,-0.99469,-2.323,-2.2708e-10,-0.49734,0,0,0.16667,-0,-0,0.66667
0.63219,0.11451,3.7932,-0.57823,-16.525,37.875,5.8488,-1.9496,-0.80986,7.7984,1.0991e-12,-0.40493,0,0,0.16667,-7.8949e-16,0,0.66667
0.63684,0.6087,3.821,0.16304,4.5615,36.518,-1.6613,0.55377,-1.9047,-2.2151,-2.6015e-12,-0.95236,0,0,0.16667,-0,-0,0.66667
0.69242,0.17986,4.1545,-0.4802,-11.833,27.493,5.32,-1.7733,-1.1794,7.0933,4.2126e-12,-0.58971,0,0,0.16667,-0,-0,0.66667
0.90747,0.84591,5.4448,0.51887,4.2378,3.8275,-7.5337,2.5112,-1.0446,-10.045,-6.4759e-09,-0.52229,0,0,0.16667,-0,-0,0.66667
0.78258,0.79663,4.6955,0.44494,8.1091,14.889,-5.5712,1.8571,-1.2966,-7.4283,1.7501e-10,-0.64829,0,0,0.16667,1.579e-15,0,0.66667
0.62529,0.025064,3.7517,-0.7124,-20.785,39.418,7.1274,-2.3758,-0.19728,9.5031,-1.4655e-13,-0.09864,0,0,0.16667,-7.8949e-16,0,0.66667
0.60097,0.25755,3.6058,-0.36368,-10.99,43.362,3.4969,-1.1656,-1.5287,4.6626,1.6784e-12,-0.76433,0,0,0.16667,-0,-0,0.66667
0.21276,0.05614,1.2766,-0.66579,-30.429,138.59,2.2664,-0.75548,-0.42312,3.0219,4.4286e-11,-0.21156,0,0,0.16667,-7.1394e-17,0,0.66667
0.65137,0.27906,3.9082,-0.33141,-9.003,34.091,3.4539,-1.1513,-1.6096,4.6053,4.0898e-12,-0.8048,0,0,0.16667,-9.8686e-16,0,0.66667
0.8145,0.42002,4.887,-0.11997,-1.87,10.905,1.5634,-0.52113,-1.9489,2.0845,-4.6831e-10,-0.97446,0,0,0.16667,-0,-0,0.66667
0.92232,0.14444,5.5339,-0.53334,-3.6689,3.0526,7.8705,-2.6235,-0.98979,10.494,-3.8572e-08,-0.49489,0,0,0.16667,-0,-0,0.66667
0.91665,0.8757,5.4999,0.56355,4.1782,3.43,-8.2652,2.7551,-0.87114,-11.02,4.7441e-08,-0.43557,0,0,0.16667,-0,-0,0.66667
0.5611,0.10312,3.3666,-0.59532,-19.45,51.623,5.3445,-1.7815,-0.74059,7.126,4.13e-14,-0.3703,0,0,0.16667,-0,1.8349e-16,0.66667
0.25983,0.23635,1.559,-0.39548,-17.535,125.25,1.6441,-0.54804,-1.4426,2.1922,2.2561e-11,-0.72129,0,0,0.16667,-3.9475e-16,0,0.66667
0.3338,0.068058,2.0028,-0.64791,-27.539,105.47,3.4604,-1.1535,-0.50679,4.6138,-1.6054e-12,-0.25339,0,0,0.16667,7.8949e-16,0,0.66667
0.99776,0.75501,5.9866,0.38251,-0.083025,0.40978,-6.1065,2.0355,-1.4805,-8.142,1.5336e-07,-0.74025,0,0,0.16667,3.158e-15,0,0.66667
0.5256,0.8604,3.1536,0.5406,18.629,59.009,-4.5462,1.5154,-0.95958,-6.0616,4.1744e-14,-0.47979,0,0,0.16667,-0,-0,0.66667
0.81591,0.42173,4.8954,-0.11741,-1.8171,10.756,1.5327,-0.51089,-1.9504,2.0436,-4.2455e-10,-0.97519,0,0,0.16667,-1.579e-15,0,0.66667
0.59702,0.8014,3.5821,0.4521,13.798,44.238,-4.3185,1.4395,-1.2729,-5.758,-1.263e-12,-0.63643,0,0,0.16667,-0,-0,0.66667
0.50693,0.080306,3.0416,-0.62954,-22.344,63.237,5.1061,-1.702,-0.58938,6.8082,-3.5083e-14,-0.29469,0,0,0.16667,-0,-0,0.66667
0.34854,0.985,2.0912,0.7275,30.653,101.71,-4.057,1.3523,-0.11707,-5.4094,-1.0614e-13,-0.058536,0,0,0.16667,7.8949e-16,0,0.66667
0.53777,0.72092,3.2266,0.33139,11.151,56.139,-2.8514,0.95045,-1.6093,-3.8018,3.7081e-13,-0.80467,0,0,0.16667,-1.579e-15,0,0.66667
0.0067347,0.70592,0.040408,0.30887,14.676,198.5,-0.033283,0.011094,-1.6594,-0.044377,-6.4116e-08,-0.82968,0,0,0.16667,1.2336e-17,0,0.66667
0.87669,0.31612,5.2601,-0.27582,-2.9247,5.4254,3.8689,-1.2896,-1.7308,5.1585,-3.4056e-09,-0.86539,0,0,0.16667,-0,-0,0.66667
0.56149,0.035161,3.3689,-0.69726,-22.862,51.741,6.264,-2.088,-0.27303,8.352,-1.9096e-13,-0.13651,0,0,0.16667,-0,-8.6436e-17,0.66667
0.024281,0.35853,0.14569,-0.2122,-10.066,193.3,0.08244,-0.02748,-1.8384,0.10992,-2.94e-08,-0.9192,0,0,0.16667,-0,-0,0.66667
0.81817,0.11886,4.909,-0.57171,-8.9324,11.203,7.4841,-2.4947,-0.83716,9.9789,-9.6853e-10,-0.41858,0,0,0.16667,-1.1842e-15,0,0.66667
0.13535,0.077722,0.81213,-0.63342,-29.741,160.75,1.3718,-0.45726,-0.57221,1.829,-3.3623e-09,-0.28611,0,0,0.16667,1.9737e-16,0,0.66667
0.030639,0.14839,0.18383,-0.52741,-25.136,191.44,0.25855,-0.086182,-1.0124,0.34473,-3.7374e-07,-0.50618,0,0,0.16667,2.4672e-17,0,0.66667
0.46234,0.58827,2.774,0.13241,4.9224,72.926,-0.9795,0.3265,-1.9369,-1.306,2.0484e-13,-0.96846,0,0,0.16667,-0,-0,0.66667
0.96066,0.28815,5.7639,-0.31778,-1.0245,1.0331,4.8844,-1.6281,-1.6399,6.5125,4.0063e-08,-0.81997,0,0,0.16667,-0,-0,0.66667
0.093614,0.20254,0.56169,-0.44619,-21.061,172.87,0.66831,-0.22277,-1.2934,0.89108,1.3839e-08,-0.64672,0,0,0.16667,1.9737e-16,0,0.66667
0.065599,0.53313,0.39359,0.049695,2.3462,181.08,-0.052159,0.017386,-1.9921,-0.069545,-3.553e-08,-0.99603,0,0,0.16667,1.9737e-16,0,0.66667
0.87994,0.49529,5.2796,-0.0070684,-0.072453,5.0061,0.099516,-0.033172,-1.9995,0.13269,2.2365e-08,-0.99975,0,0,0.16667,3.9475e-16,0,0.66667
0.82137,0.55112,4.9282,0.076686,1.1533,10.174,-1.0078,0.33593,-1.9777,-1.3437,3.1478e-10,-0.98886,0,0,0.16667,-0,-0,0.66667
0.81997,0.68595,4.9198,0.27893,4.2466,10.475,-3.6594,1.2198,-1.7232,-4.8792,8.6325e-10,-0.86161,0,0,0.16667,-5.6943e-16,0,0.66667
0.46782,0.12852,2.8069,-0.55723,-20.748,72.008,4.1709,-1.3903,-0.89774,5.5612,-6.0663e-13,-0.44887,0,0,0.16667,1.579e-15,0,0.66667
0.42749,0.71754,2.565,0.32631,12.646,81.37,-2.2319,0.74397,-1.6216,-2.9759,1.3871e-12,-0.81078,0,0,0.16667,-1.9737e-16,0,0.66667
0.40107,0.85402,2.4064,0.53103,21.235,88.078,-3.4076,1.1359,-0.99636,-4.5435,1.2603e-12,-0.49818,0,0,0.16667,-0,-0,0.66667
0.58222,0.013568,3.4933,-0.72965,-23.128,47.646,6.797,-2.2657,-0.10622,9.0627,-2.2693e-13,-0.053109,0,0,0.16667,1.579e-15,0,0.66667
0.72897,0.23493,4.3738,-0.39761,-8.7766,21.855,4.6375,-1.5458,-1.4366,6.1833,-7.4438e-12,-0.71832,0,0,0.16667,-2.4423e-15,0,0.66667
0.78429,0.54908,4.7058,0.073622,1.3176,14.282,-0.92386,0.30795,-1.9803,-1.2318,8.7587e-11,-0.99015,0,0,0.16667,-0,-0,0.66667
0.6548,0.36977,3.9288,-0.19535,-5.25,33.371,2.0466,-0.6822,-1.8655,2.7288,3.4763e-12,-0.93274,0,0,0.16667,-1.1842e-15,0,0.66667
0.56247,0.5296,3.3748,0.044395,1.431,50.815,-0.39953,0.13318,-1.9957,-0.53271,-3.4991e-13,-0.99786,0,0,0.16667,1.9737e-16,0,0.66667
0.41239,0.46755,2.4744,-0.048671,-1.9106,84.961,0.32115,-0.10705,-1.9916,0.4282,-3.5935e-13,-0.99581,0,0,0.16667,-4.9343e-17,0,0.66667
0.31992,0.81286,1.9195,0.4693,20.054,108.98,-2.4022,0.80072,-1.217,-3.2029,4.1986e-12,-0.60851,0,0,0.16667,-0,-0,0.66667
0.28625,0.61132,1.7175,0.16698,7.2658,117.9,-0.76477,0.25492,-1.8997,-1.0197,-3.3905e-12,-0.94986,0,0,0.16667,-3.9475e-16,0,0.66667
0.29618,0.59724,1.7771,0.14587,6.3056,115.19,-0.69124,0.23041,-1.9263,-0.92165,2.5635e-13,-0.96313,0,0,0.16667,-0,-0,0.66667
0.68275,0.51705,4.0965,0.025582,0.64063,28.619,-0.27946,0.093154,-1.9966,-0.37261,-4.9402e-13,-0.9983,0,0,0.16667,-0,-0,0.66667
0.76244,0.018706,4.5746,-0.72194,-14.478,18.045,8.807,-2.9357,-0.1464,11.743,4.2455e-12,-0.073198,0,0,0.16667,-0,-0,0.66667
0.59762,0.58582,3.5857,0.12873,3.8994,43.822,-1.2309,0.41031,-1.9407,-1.6412,-9.569e-13,-0.97035,0,0,0.16667,3.9475e-16,0,0.66667
0.22286,0.38373,1.3372,-0.1744,-7.8592,135.5,0.62188,-0.20729,-1.8913,0.82918,1.5275e-10,-0.94565,0,0,0.16667,-0,-0,0.66667
0.1944,0.80605,1.1664,0.45908,21.036,143.68,-1.4279,0.47596,-1.2497,-1.9038,-2.9245e-10,-0.62487,0,0,0.16667,9.8686e-17,0,0.66667
0.76569,0.602,4.5941,0.153,2.9529,16.617,-1.8744,0.62481,-1.9185,-2.4992,8.2947e-11,-0.95924,0,0,0.16667,-0,-0,0.66667
0.97869,0.68049,5.8722,0.27073,0.41051,0.50221,-4.2394,1.4131,-1.7386,-5.6526,-3.0559e-10,-0.86929,0,0,0.16667,1.579e-15,0,0.66667
0.01591,0.40263,0.09546,-0.14605,-6.9266,195.78,0.037178,-0.012393,-1.9263,0.049571,-8.0827e-08,-0.96317,0,0,0.16667,-3.7007e-17,0,0.66667
0.2489,0.9486,1.4934,0.6729,30.222,128.48,-2.6797,0.89325,-0.39082,-3.573,4.9982e-12,-0.19541,0,0,0.16667,3.9475e-16,0,0.66667
0.79231,0.16239,4.7539,-0.50642,-8.8878,13.87,6.4199,-2.14,-1.0877,8.5599,-1.4223e-10,-0.54386,0,0,0.16667,-0,-0,0.66667
0.71917,0.3993,4.315,-0.15105,-3.4159,23.019,1.7381,-0.57936,-1.9205,2.3174,-6.5777e-12,-0.96024,0,0,0.16667,-0,-0,0.66667
0.24598,0.85955,1.4759,0.53933,24.169,129.19,-2.1226,0.70754,-0.96493,-2.8301,-2.0258e-11,-0.48247,0,0,0.16667,-0,-0,0.66667
0.55489,0.017995,3.3294,-0.72301,-23.989,53.15,6.4191,-2.1397,-0.13987,8.5587,-4.2188e-14,-0.069934,0,0,0.16667,1.579e-15,0,0.66667
0.58559,0.028822,3.5135,-0.70677,-22.245,46.931,6.622,-2.2073,-0.22361,8.8293,3.3396e-13,-0.1118,0,0,0.16667,-0,-0,0.66667
0.72138,0.0046581,4.3283,-0.74301,-17.097,23.71,8.576,-2.8587,-0.037674,11.435,-3.7819e-12,-0.018837,0,0,0.16667,-0,-0,0.66667
0.46367,0.96224,2.782,0.69336,26.067,73.185,-5.1439,1.7146,-0.29006,-6.8585,9.6323e-13,-0.14503,0,0,0.16667,3.9475e-16,0,0.66667
0.40485,0.39068,2.4291,-0.16398,-6.4899,86.862,1.0622,-0.35407,-1.9048,1.4163,-1.0674e-12,-0.95241,0,0,0.16667,7.8949e-16,0,0.66667
0.30801,0.84948,1.8481,0.52422,22.619,112.21,-2.5834,0.86114,-1.0226,-3.4446,5.0808e-12,-0.51129,0,0,0.16667,-0,-0,0.66667
0.23831,0.48299,1.4299,-0.025513,-1.1402,131.14,0.097279,-0.032426,-1.9969,0.12971,1.2016e-11,-0.99844,0,0,0.16667,-3.9475e-16,0,0.66667
0.092503,0.70356,0.55502,0.30534,14.382,173.17,-0.45192,0.15064,-1.669,-0.60256,-4.7107e-09,-0.83452,0,0,0.16667,-0,-0,0.66667
0.64588,0.27362,3.8753,-0.33957,-9.3422,35.06,3.5091,-1.1697,-1.5892,4.6788,3.7539e-12,-0.79462,0,0,0.16667,3.9475e-16,0,0.66667
0.66957,0.9191,4.0174,0.62865,16.538,31.496,-6.7348,2.2449,-0.59481,-8.9797,-1.1915e-12,-0.29741,0,0,0.16667,-0,-2.5958e-16,0.66667
0.68734,0.37769,4.1241,-0.18346,-4.5451,27.938,2.0176,-0.67253,-1.8828,2.6901,3.0143e-12,-0.94138,0,0,0.16667,-0,-0,0.66667
0.0031457,0.66448,0.018874,0.24672,11.714,199.57,-0.012418,0.0041392,-1.7835,-0.016557,-5.0119e-08,-0.89173,0,0,0.16667,-0,-0,0.66667
0.43825,0.44637,2.6295,-0.080445,-3.0733,78.646,0.56408,-0.18803,-1.9782,0.75211,2.1194e-13,-0.98908,0,0,0.16667,-0,-0,0.66667
0.12255,0.69273,0.73532,0.28909,13.524,164.37,-0.56687,0.18896,-1.7034,-0.75583,-3.6284e-09,-0.85172,0,0,0.16667,-0,-0,0.66667
0.52661,0.36666,3.1597,-0.20001,-6.8298,58.436,1.6853,-0.56175,-1.8571,2.247,-1.6465e-13,-0.92853,0,0,0.16667,-0,-0,0.66667
0.97974,0.81182,5.8784,0.46773,0.7338,0.86123,-7.3321,2.444,-1.2226,-9.7762,-1.5954e-07,-0.61132,0,0,0.16667,-0,-0,0.66667
0.49928,0.56382,2.9957,0.095735,3.3948,64.425,-0.76477,0.25492,-1.9697,-1.0197,-8.1685e-13,-0.98486,0,0,0.16667,1.579e-15,0,0.66667
0.37465,0.44306,2.2479,-0.085413,-3.4752,94.472,0.512,-0.17067,-1.9759,0.68267,-7.65e-13,-0.98795,0,0,0.16667,-0,-0,0.66667
0.81384,0.48757,4.883,-0.018645,-0.29133,10.945,0.24279,-0.08093,-1.9993,0.32372,9.8466e-11,-0.99965,0,0,0.16667,-7.8949e-16,0,0.66667
0.9682,0.31474,5.8092,-0.27789,-0.69496,0.75779,4.3048,-1.4349,-1.7277,5.7397,2.5168e-08,-0.86384,0,0,0.16667,-3.158e-15,0,0.66667
0.28712,0.88204,1.7227,0.57307,25.1,117.89,-2.6327,0.87755,-0.83149,-3.5102,2.2622e-12,-0.41574,0,0,0.16667,-0,-0,0.66667
0.803,0.64524,4.818,0.21786,3.598,12.219,-2.7991,0.93302,-1.83,-3.7321,4.5766e-10,-0.91499,0,0,0.16667,7.8949e-16,0,0.66667
0.99614,0.49506,5.9768,-0.0074053,0.0015865,0.037242,0.11803,-0.03932,-1.9998,0.15738,3.3521e-05,-0.9999,0,0,0.16667,-0,-0,0.66667
0.11182,0.90163,0.67095,0.60245,28.431,167.59,-1.0779,0.3593,-0.7102,-1.4372,-1.0677e-08,-0.3551,0,0,0.16667,-4.9343e-17,0,0.66667
0.53105,0.46964,3.1863,-0.045537,-1.5429,57.424,0.38692,-0.12897,-1.9954,0.51589,-3.5277e-13,-0.99769,0,0,0.16667,-0,-0,0.66667
0.81353,0.69091,4.8812,0.28636,4.5056,11.155,-3.7274,1.2425,-1.7101,-4.9698,7.0524e-10,-0.85507,0,0,0.16667,-0,-0,0.66667
0.37629,0.50666,2.2578,0.0099884,0.40572,94.044,-0.060137,0.020046,-2.0007,-0.080183,2.5678e-13,-1.0004,0,0,0.16667,-0,-0,0.66667
0.44577,0.54931,2.6746,0.07397,2.8023,76.838,-0.52758,0.17586,-1.9791,-0.70344,2.2887e-13,-0.98953,0,0,0.16667,-7.8949e-16,0,0.66667
0.7509,0.28924,4.5054,-0.31614,-6.4668,18.704,3.7983,-1.2661,-1.6458,5.0644,-5.4221e-11,-0.8229,0,0,0.16667,-1.579e-15,0,0.66667
0.098346,0.82575,0.59008,0.48862,23.063,171.49,-0.76886,0.25629,-1.1501,-1.0251,-1.6841e-08,-0.57505,0,0,0.16667,1.9737e-16,0,0.66667
0.36053,0.12265,2.1632,-0.56603,-23.496,98.411,3.2651,-1.0884,-0.86266,4.3534,-1.4695e-12,-0.43133,0,0,0.16667,-1.9737e-16,0,0.66667
0.56371,0.36723,3.3822,-0.19915,-6.4137,50.617,1.7962,-0.59874,-1.86,2.3949,3.0076e-13,-0.92998,0,0,0.16667,3.9475e-16,0,0.66667
0.23859,0.27512,1.4315,-0.33732,-15.112,131.14,1.2877,-0.42922,-1.5952,1.7169,9.0226e-11,-0.79758,0,0,0.16667,-0,-0,0.66667
0.83995,0.80416,5.0397,0.45624,6.2812,8.8101,-6.1315,2.0438,-1.2595,-8.1753,1.338e-09,-0.62975,0,0,0.16667,7.8949e-16,0,0.66667
0.76585,0.22319,4.5951,-0.41521,-8.0725,16.9,5.0878,-1.6959,-1.3891,6.7837,-1.0136e-10,-0.69456,0,0,0.16667,-0,-0,0.66667
0.96554,0.61717,5.7933,0.17575,0.47447,0.71046,-2.7152,0.90506,-1.8901,-3.6202,-2.9779e-08,-0.94503,0,0,0.16667,7.8949e-16,0,0.66667
0.52299,0.88229,3.1379,0.57344,19.857,59.625,-4.7984,1.5995,-0.82978,-6.3979,4.3565e-13,-0.41489,0,0,0.16667,-0,-0,0.66667
0.10652,0.22447,0.63915,-0.41329,-19.445,169.08,0.70441,-0.2348,-1.393,0.93921,1.1165e-08,-0.6965,0,0,0.16667,-0,-0,0.66667
0.93662,0.71312,5.6197,0.31967,1.7309,1.9266,-4.7906,1.5969,-1.6381,-6.3874,-1.0771e-08,-0.81906,0,0,0.16667,-1.579e-15,0,0.66667
0.83424,0.32772,5.0054,-0.25842,-3.6386,9.0339,3.4493,-1.1498,-1.7612,4.5991,-1.2829e-09,-0.88058,0,0,0.16667,-0,-0,0.66667
0.54442,0.65691,3.2665,0.23536,7.825,54.651,-2.0501,0.68338,-1.8044,-2.7335,-3.0953e-13,-0.90222,0,0,0.16667,-0,-0,0.66667
0.8363,0.67029,5.0178,0.25544,3.5539,8.8333,-3.418,1.1393,-1.7665,-4.5573,1.3314e-09,-0.88324,0,0,0.16667,-0,-0,0.66667
0.88169,0.6626,5.2901,0.24389,2.479,5.0176,-3.4406,1.1469,-1.7876,-4.5875,5.2171e-09,-0.89381,0,0,0.16667,-0,-0,0.66667
0.77608,0.26882,4.6565,-0.34678,-6.4607,15.515,4.306,-1.4353,-1.5713,5.7414,-1.6666e-10,-0.78565,0,0,0.16667,-7.8949e-16,0,0.66667
0.57125,0.88668,3.4275,0.58002,18.62,49.532,-5.3014,1.7671,-0.80242,-7.0686,-7.2653e-13,-0.40121,0,0,0.16667,-0,-0,0.66667
0.6153,0.65155,3.6918,0.22733,6.6602,40.512,-2.238,0.74599,-1.8157,-2.984,-2.4352e-12,-0.90786,0,0,0.16667,7.5908e-16,0,0.66667
0.84439,0.16263,5.0663,-0.50605,-6.8107,8.5113,6.8369,-2.279,-1.091,9.1158,-2.2464e-10,-0.54549,0,0,0.16667,-0,-0,0.66667
0.62222,0.23257,3.7333,-0.40114,-11.633,39.406,3.9936,-1.3312,-1.4275,5.3247,2.0703e-12,-0.71377,0,0,0.16667,-0,-0,0.66667
0.20648,0.93416,1.2389,0.65125,29.834,140.36,-2.1515,0.71717,-0.49247,-2.8687,-1.8441e-11,-0.24624,0,0,0.16667,-0,-0,0.66667
0.69149,0.20646,4.1489,-0.44031,-10.861,27.573,4.8715,-1.6238,-1.3099,6.4953,4.9849e-12,-0.65496,0,0,0.16667,-0,-0,0.66667
0.53201,0.87383,3.1921,0.56075,19.153,57.66,-4.7732,1.5911,-0.88431,-6.3643,-2.4292e-13,-0.44215,0,0,0.16667,3.454e-16,0,0.66667
0.26325,0.39347,1.5795,-0.1598,-7.0497,124.22,0.67305,-0.22435,-1.9091,0.8974,1.9397e-11,-0.95457,0,0,0.16667,-0,-0,0.66667
0.00078654,0.50475,0.0047192,0.0071234,0.33776,200.27,-9.0223e-05,7.8948e-05,-2.0015,-9.5861e-05,7.331e-05,-1.0007,0,0,0.16667,-0,-0,0.66667
0.2355,0.038739,1.413,-0.69189,-31.309,132.23,2.607,-0.86901,-0.29897,3.476,4.3858e-12,-0.14949,0,0,0.16667,-0,-0,0.66667
0.67357,0.21411,4.0414,-0.42884,-11.077,30.455,4.6217,-1.5406,-1.3472,6.1622,4.5435e-12,-0.67361,0,0,0.16667,-3.9475e-16,0,0.66667
0.87832,0.45599,5.2699,-0.06602,-0.68606,5.1356,0.92779,-0.30926,-1.984,1.2371,-4.6694e-09,-0.99199,0,0,0.16667,-0,-0,0.66667
0.8307,0.70722,4.9842,0.31083,4.474,9.4417,-4.1314,1.3771,-1.6564,-5.5085,1.3499e-09,-0.82818,0,0,0.16667,-7.8949e-16,0,0.66667
0.10811,0.54864,0.64864,0.072964,3.4192,168.57,-0.12621,0.042069,-1.9816,-0.16828,-2.3043e-09,-0.9908,0,0,0.16667,1.9737e-16,0,0.66667
0.071125,0.11008,0.42675,-0.58488,-27.798,179.51,0.66559,-0.22186,-0.78219,0.88746,1.3174e-07,-0.3911,0,0,0.16667,-8.4229e-17,0,0.66667
0.76159,0.35928,4.5696,-0.21108,-4.1417,17.185,2.5721,-0.85735,-1.8407,3.4294,-8.7775e-11,-0.92036,0,0,0.16667,1.579e-15,0,0.66667
0.28483,0.901,1.709,0.60151,26.405,118.54,-2.7413,0.91376,-0.71363,-3.655,1.9196e-12,-0.35681,0,0,0.16667,-0,-0,0.66667
0.2718,0.18837,1.6308,-0.46745,-20.613,122,2.0329,-0.67763,-1.2232,2.7105,4.627e-12,-0.61159,0,0,0.16667,-0,-0,0.66667
0.0020003,0.0071759,0.012002,-0.73924,-35.471,199.91,0.023801,-0.0079114,-0.057447,0.031746,3.3349e-05,-0.028723,0,0,0.16667,-0,-0,0.66667
0.098539,0.62422,0.59123,0.18633,8.7552,171.38,-0.29378,0.097926,-1.877,-0.3917,-4.359e-09,-0.93849,0,0,0.16667,2.4672e-16,0,0.66667
0.1356,0.41263,0.81358,-0.13105,-6.1005,160.54,0.28432,-0.094772,-1.9384,0.37909,-5.2703e-10,-0.96918,0,0,0.16667,-0,-0,0.66667
0.15936,0.67684,0.95616,0.26526,12.274,153.67,-0.67634,0.22545,-1.7495,-0.90179,-1.6317e-09,-0.87476,0,0,0.16667,-1.9737e-16,0,0.66667
0.44531,0.34086,2.6719,-0.23871,-9.0608,77.01,1.7008,-0.56694,-1.797,2.2678,-1.4613e-12,-0.89849,0,0,0.16667,1.0856e-15,0,0.66667
0.81414,0.92379,4.8848,0.63569,10.184,11.79,-8.2806,2.7602,-0.56351,-11.041,-6.8823e-11,-0.28176,0,0,0.16667,-1.579e-15,0,0.66667
0.8123,0.092795,4.8738,-0.61081,-9.8534,11.916,7.9385,-2.6462,-0.67621,10.585,5.9957e-10,-0.33811,0,0,0.16667,-2.0724e-15,-2.3387e-17,0.66667
0.90999,0.89039,5.4599,0.58558,4.6989,3.8605,-8.526,2.842,-0.78002,-11.368,-2.6506e-08,-0.39001,0,0,0.16667,-1.579e-15,0,0.66667
0.44359,0.03121,2.6616,-0.70318,-27.062,77.939,4.9908,-1.6636,-0.24218,6.6544,-1.4735e-12,-0.12109,0,0,0.16667,-1.9018e-16,0,0.66667
0.70871,0.38419,4.2523,-0.17371,-4.0543,24.597,1.9698,-0.6566,-1.8917,2.6264,-1.5624e-12,-0.94584,0,0,0.16667,-0,-0,0.66667
0.48833,0.87911,2.93,0.56867,20.646,67.31,-4.4432,1.4811,-0.85027,-5.9243,1.6609e-13,-0.42514,0,0,0.16667,-0,-0,0.66667
0.049843,0.39337,0.29906,-0.15994,-7.569,185.74,0.12755,-0.042516,-1.9087,0.17007,8.1441e-09,-0.95434,0,0,0.16667,-0,-0,0.66667
0.080431,0.2615,0.48259,-0.35774,-16.899,176.73,0.46038,-0.15346,-1.545,0.61384,7.1333e-09,-0.77249,0,0,0.16667,1.9737e-16,0,0.66667
0.24594,0.87117,1.4757,0.55676,24.962,129.21,-2.1909,0.7303,-0.89794,-2.9212,-3.71e-11,-0.44897,0,0,0.16667,-3.9475e-16,0,0.66667
0.98162,0.37245,5.8897,-0.19133,-0.23011,0.34873,3.005,-1.0017,-1.8707,4.0067,2.5437e-08,-0.93536,0,0,0.16667,7.8949e-16,0,0.66667
0.69192,0.28051,4.1515,-0.32923,-8.0824,27.347,3.6448,-1.2149,-1.6152,4.8598,4.591e-12,-0.80758,0,0,0.16667,1.1349e-15,0,0.66667
0.26801,0.50003,1.608,4.1974e-05,0.0018455,122.88,-0.00017999,5.9996e-05,-2.0016,-0.00023999,-8.0439e-13,-1.0008,0,0,0.16667,-0,-0,0.66667
0.70626,0.83926,4.2376,0.50889,12.082,25.4,-5.7506,1.9169,-1.0796,-7.6674,-2.9705e-12,-0.5398,0,0,0.16667,7.8949e-16,0,0.66667
0.66135,0.53672,3.9681,0.055081,1.4555,32.185,-0.58284,0.19428,-1.9887,-0.77712,-1.3917e-12,-0.99437,0,0,0.16667,-0,-0,0.66667
0.04329,0.19648,0.25974,-0.45528,-21.645,187.7,0.31534,-0.10511,-1.2626,0.42046,-6.0644e-08,-0.63132,0,0,0.16667,-0,-0,0.66667
0.36149,0.42846,2.1689,-0.10731,-4.4166,97.865,0.62067,-0.20689,-1.9594,0.82756,-1.9876e-12,-0.97969,0,0,0.16667,-0,-0,0.66667
0.77373,0.27243,4.6424,-0.34136,-6.4182,15.797,4.2259,-1.4086,-1.5845,5.6345,-1.5273e-10,-0.79224,0,0,0.16667,7.8949e-16,0,0.66667
0.078523,0.1796,0.47114,-0.48061,-22.762,177.31,0.60382,-0.20127,-1.1802,0.80509,1.9439e-08,-0.59012,0,0,0.16667,-9.8686e-17,0,0.66667
0.88438,0.88156,5.3063,0.57234,5.8458,5.4566,-8.0987,2.6996,-0.83445,-10.798,6.5224e-09,-0.41722,0,0,0.16667,-0,-0,0.66667
0.93087,0.21978,5.5852,-0.42033,-2.525,2.3709,6.2604,-2.0868,-1.3718,8.3472,-1.8825e-08,-0.68591,0,0,0.16667,-0,-0,0.66667
0.85309,0.51708,5.1185,0.025622,0.3199,7.162,-0.34973,0.11658,-1.9962,-0.4663,-2.6304e-10,-0.99812,0,0,0.16667,-0,-0,0.66667
0.11738,0.68085,0.70427,0.27127,12.704,165.88,-0.50946,0.16982,-1.7374,-0.67928,-4.0524e-09,-0.86869,0,0,0.16667,-9.8686e-17,0,0.66667
0.56517,0.32986,3.391,-0.25521,-8.2056,50.355,2.3078,-0.76928,-1.7682,3.0771,4.5608e-13,-0.88408,0,0,0.16667,-0,-0,0.66667
0.70756,0.59401,4.2454,0.14102,3.3008,24.752,-1.5965,0.53217,-1.9299,-2.1287,1.3933e-13,-0.96497,0,0,0.16667,-0,-0,0.66667
0.88798,0.39999,5.3279,-0.15002,-1.4389,4.4845,2.1314,-0.71047,-1.9203,2.8419,-1.1881e-09,-0.96016,0,0,0.16667,1.579e-15,0,0.66667
0.095776,0.57822,0.57466,0.11733,5.5136,172.19,-0.1798,0.059935,-1.9511,-0.23974,-2.9009e-09,-0.97556,0,0,0.16667,1.9737e-16,0,0.66667
0.81577,0.54341,4.8946,0.06511,1.0078,10.75,-0.84984,0.28328,-1.9845,-1.1331,3.4655e-10,-0.99223,0,0,0.16667,-0,-0,0.66667
0.27802,0.97921,1.6681,0.71882,31.802,120.51,-3.1975,1.0658,-0.16249,-4.2633,-7.8471e-13,-0.081247,0,0,0.16667,-0,-0,0.66667
0.59229,0.4139,3.5537,-0.12915,-3.9515,44.86,1.2239,-0.40798,-1.9415,1.6319,7.2176e-13,-0.97076,0,0,0.16667,-0,-0,0.66667
0.7198,0.32524,4.3188,-0.26214,-5.9293,23.014,3.019,-1.0063,-1.7564,4.0253,-6.4828e-12,-0.87819,0,0,0.16667,-0,-0,0.66667
0.77702,0.94369,4.6621,0.66553,12.576,16.068,-8.2741,2.758,-0.42482,-11.032,6.5006e-12,-0.21241,0,0,0.16667,-0,7.7396e-18,0.66667
0.29466,0.88692,1.768,0.58039,25.304,115.85,-2.7363,0.9121,-0.80237,-3.6484,3.5167e-12,-0.40119,0,0,0.16667,-0,-0,0.66667
0.60738,0.23086,3.6443,-0.40372,-12.062,42.187,3.9233,-1.3078,-1.4207,5.2311,1.4928e-12,-0.71033,0,0,0.16667,-0,-0,0.66667
0.28747,0.85008,1.7248,0.52512,22.967,117.76,-2.4153,0.80511,-1.0187,-3.2205,2.0692e-12,-0.50936,0,0,0.16667,-0,-0,0.66667
0.99832,0.9494,5.9899,0.67409,0.033259,1.2248,-10.767,3.5891,-0.38471,-14.356,-1.0139e-05,-0.19236,0,0,0.16667,-0,-0,0.66667
0.81451,0.47683,4.887,-0.034749,-0.54118,10.876,0.45285,-0.15095,-1.9962,0.6038,-2.7397e-10,-0.99809,0,0,0.16667,-1.579e-15,0,0.66667
0.41398,0.67123,2.4839,0.25685,10.084,84.639,-1.7013,0.56709,-1.7639,-2.2684,1.2771e-12,-0.88195,0,0,0.16667,-0,-0,0.66667
0.87914,0.064453,5.2749,-0.65332,-7.0301,6.0651,9.1898,-3.0633,-0.4828,12.253,-6.5508e-08,-0.2414,0,0,0.16667,-0,-0,0.66667
0.7325,0.067974,4.395,-0.64804,-14.32,21.865,7.595,-2.5317,-0.50769,10.127,7.7272e-13,-0.25385,0,0,0.16667,-1.579e-15,0,0.66667
0.92875,0.4071,5.5725,-0.13935,-0.84077,2.0812,2.0708,-0.69026,-1.931,2.761,5.8242e-08,-0.96549,0,0,0.16667,-0,-0,0.66667
0.17161,0.74723,1.0297,0.37085,17.113,150.17,-1.0183,0.33942,-1.5134,-1.3577,-1.1525e-09,-0.75668,0,0,0.16667,-2.9606e-16,0,0.66667
0.29484,0.49468,1.769,-0.0079807,-0.34512,115.54,0.037648,-0.012549,-2.0006,0.050197,1.1539e-12,-1.0003,0,0,0.16667,-1.1842e-15,0,0.66667
0.093737,0.61069,0.56242,0.16603,7.8073,172.79,-0.24901,0.083004,-1.9034,-0.33201,3.7414e-11,-0.95169,0,0,0.16667,-0,-0,0.66667
0.31798,0.069938,1.9079,-0.64509,-27.736,109.66,3.282,-1.094,-0.51956,4.376,-2.476e-12,-0.25978,0,0,0.16667,-0,-0,0.66667
0.38119,0.056603,2.2871,-0.6651,-27.203,93.244,4.0564,-1.3521,-0.42643,5.4086,1.1591e-13,-0.21322,0,0,0.16667,-3.9475e-16,0,0.66667
0.63271,0.45312,3.7963,-0.070319,-1.9834,37.225,0.71187,-0.23729,-1.9809,0.94916,1.3975e-12,-0.99044,0,0,0.16667,-7.8949e-16,0,0.66667
0.47152,0.25066,2.8291,-0.37401,-13.797,70.934,2.8216,-0.94055,-1.5039,3.7622,2.0273e-13,-0.75194,0,0,0.16667,-1.579e-15,0,0.66667
0.71767,0.51415,4.306,0.021222,0.48162,23.197,-0.24368,0.081228,-1.999,-0.32491,2.2322e-13,-0.99952,0,0,0.16667,-0,-0,0.66667
0.26922,0.0027919,1.6153,-0.74581,-33.199,122.95,3.2126,-1.0709,-0.022732,4.2835,-2.0473e-12,-0.011366,0,0,0.16667,1.579e-15,0,0.66667
0.17306,0.095606,1.0383,-0.60659,-28.122,149.86,1.6796,-0.55986,-0.69362,2.2395,1.5491e-09,-0.34681,0,0,0.16667,-3.9475e-16,0,0.66667
0.37912,0.55089,2.2747,0.07633,3.0932,93.327,-0.46301,0.15434,-1.9785,-0.61735,-2.8896e-13,-0.98925,0,0,0.16667,3.9475e-16,0,0.66667
0.43808,0.74618,2.6285,0.36927,14.16,78.839,-2.5883,0.86277,-1.5171,-3.4511,1.9273e-13,-0.75855,0,0,0.16667,5.9212e-16,0,0.66667
0.42213,0.089047,2.5328,-0.61643,-24.2,82.988,4.1634,-1.3878,-0.65097,5.5512,-3.6904e-13,-0.32549,0,0,0.16667,-0,-0,0.66667
0.91357,0.6794,5.4814,0.2691,1.9996,3.0005,-3.9335,1.3112,-1.7414,-5.2447,1.8317e-09,-0.87069,0,0,0.16667,1.579e-15,0,0.66667
0.26957,0.055595,1.6174,-0.66661,-29.59,122.77,2.8751,-0.95838,-0.41974,3.8335,-1.7881e-12,-0.20987,0,0,0.16667,-1.9737e-16,0,0.66667
0.35204,0.29457,2.1123,-0.30814,-12.808,100.4,1.7357,-0.57856,-1.6609,2.3142,-4.315e-12,-0.83045,0,0,0.16667,-0,-0,0.66667
0.21521,0.32759,1.2913,-0.25861,-11.705,137.69,0.89048,-0.29683,-1.7615,1.1873,2.5884e-10,-0.88077,0,0,0.16667,-3.9475e-16,0,0.66667
0.37192,0.22084,2.2315,-0.41875,-17.151,95.338,2.4919,-0.83062,-1.3774,3.3225,-2.8353e-12,-0.68868,0,0,0.16667,-0,-0,0.66667
0.38986,0.3029,2.3391,-0.29565,-11.888,90.687,1.8441,-0.61472,-1.6903,2.4589,-1.7686e-12,-0.84515,0,0,0.16667,3.9475e-16,0,0.66667
0.57543,0.20341,3.4526,-0.44489,-14.115,48.481,4.096,-1.3653,-1.296,5.4613,6.7812e-13,-0.64799,0,0,0.16667,-0,-0,0.66667
0.27836,0.34648,1.6702,-0.23028,-10.075,120.07,1.0256,-0.34188,-1.8122,1.3675,7.2201e-12,-0.90612,0,0,0.16667,-0,-0,0.66667
0.25949,0.0021308,1.557,-0.7468,-33.429,125.62,3.1006,-1.0335,-0.016874,4.1342,-1.5442e-11,-0.0084371,0,0,0.16667,-0,-0,0.66667
0.71906,0.90357,4.3144,0.60536,13.91,23.693,-6.9646,2.3215,-0.69937,-9.2862,-1.9815e-12,-0.34968,0,0,0.16667,-7.8949e-16,0,0.66667
0.91018,0.030298,5.4611,-0.70455,-5.7541,4.2223,10.26,-3.4201,-0.23573,13.68,5.2537e-07,-0.11786,0,0,0.16667,-1.579e-15,0,0.66667
0.1221,0.40545,0.73258,-0.14182,-6.6263,164.48,0.27706,-0.092354,-1.9296,0.36942,9.4485e-09,-0.96482,0,0,0.16667,-6.1679e-17,0,0.66667
0.18229,0.24035,1.0937,-0.38947,-17.908,147.11,1.1359,-0.37865,-1.4597,1.5146,7.9438e-10,-0.72984,0,0,0.16667,-0,-0,0.66667
0.13311,0.3601,0.79866,-0.20985,-9.7815,161.27,0.44693,-0.14898,-1.8419,0.59591,3.2468e-09,-0.92094,0,0,0.16667,-0,-0,0.66667
0.68361,0.78134,4.1016,0.42201,10.622,28.803,-4.6159,1.5386,-1.3676,-6.1545,-6.2288e-12,-0.68382,0,0,0.16667,3.158e-15,0,0.66667
0.21401,0.72615,1.2841,0.33923,15.38,138.05,-1.1616,0.38719,-1.5902,-1.5488,-2.6651e-10,-0.79511,0,0,0.16667,-0,-0,0.66667
0.60457,0.082913,3.6274,-0.62563,-18.943,43.089,6.0518,-2.0173,-0.60736,8.0691,4.1922e-13,-0.30368,0,0,0.16667,-7.8949e-16,0,0.66667
0.20168,0.51455,1.2101,0.021827,0.99237,141.49,-0.070434,0.023478,-1.9987,-0.093911,-9.5561e-11,-0.99936,0,0,0.16667,-0,-0,0.66667
0.81776,0.27441,4.9065,-0.33839,-5.2235,10.783,4.4275,-1.4758,-1.5922,5.9033,-8.7334e-10,-0.79609,0,0,0.16667,-0,-0,0.66667
0.31611,0.17578,1.8966,-0.48634,-20.847,110.01,2.4597,-0.81992,-1.1584,3.2797,-5.0953e-12,-0.57922,0,0,0.16667,-0,-0,0.66667
0.66962,0.74389,4.0177,0.36583,9.5237,31.021,-3.9195,1.3065,-1.5247,-5.226,-5.2005e-12,-0.76236,0,0,0.16667,-0,-0,0.66667
0.14873,0.14992,0.8924,-0.52512,-24.492,156.83,1.2497,-0.41655,-1.0186,1.6662,7.2378e-10,-0.5093,0,0,0.16667,-2.9606e-16,0,0.66667
0.30595,0.71867,1.8357,0.328,14.116,112.62,-1.6056,0.53521,-1.6177,-2.1408,4.9521e-12,-0.80885,0,0,0.16667,3.367e-17,0,0.66667
0.29724,0.091263,1.7834,-0.61311,-26.71,115.19,2.9158,-0.97195,-0.66579,3.8878,-3.8296e-12,-0.3329,0,0,0.16667,-1.9737e-16,0,0.66667
0.63508,0.65302,3.8105,0.22952,6.4523,36.878,-2.3323,0.77742,-1.8125,-3.1097,-2.6343e-12,-0.90623,0,0,0.16667,-9.8686e-16,0,0.66667
0.68088,0.68528,4.0853,0.27792,7.0157,29.062,-3.0276,1.0092,-1.7252,-4.0369,-4.3681e-12,-0.86258,0,0,0.16667,-1.1842e-15,0,0.66667
0.84525,0.36392,5.0715,-0.20412,-2.6875,7.9505,2.7605,-0.92016,-1.8524,3.6806,-1.2485e-09,-0.92619,0,0,0.16667,-0,-0,0.66667
0.18335,0.93796,1.1001,0.65693,30.384,146.94,-1.9271,0.64238,-0.46627,-2.5695,-8.3718e-10,-0.23313,0,0,0.16667,7.8949e-16,0,0.66667
0.76043,0.21763,4.5626,-0.42355,-8.406,17.61,5.1533,-1.7178,-1.3624,6.8711,-6.0643e-11,-0.6812,0,0,0.16667,6.06e-16,0,0.66667
0.71194,0.29792,4.2716,-0.30312,-7.0271,24.226,3.4528,-1.1509,-1.6718,4.6038,-7.5673e-13,-0.83591,0,0,0.16667,-1.6326e-15,0,0.66667
0.55754,0.24686,3.3453,-0.37971,-12.396,52.041,3.3872,-1.1291,-1.4873,4.5163,1.5676e-13,-0.74365,0,0,0.16667,-0,-0,0.66667
0.65016,0.73326,3.901,0.34989,9.5357,34.323,-3.6398,1.2133,-1.5633,-4.853,-4.2977e-12,-0.78166,0,0,0.16667,1.579e-15,0,0.66667
0.089995,0.13806,0.53997,-0.5429,-25.698,173.96,0.78174,-0.26058,-0.95131,1.0423,3.5406e-08,-0.47565,0,0,0.16667,-0,-0,0.66667
0.14688,0.48388,0.88125,-0.024173,-1.1212,157.26,0.056806,-0.018935,-1.9965,0.075741,-3.8836e-10,-0.99825,0,0,0.16667,1.9737e-16,0,0.66667
0.41557,0.29715,2.4934,-0.30427,-11.934,84.275,2.0231,-0.67438,-1.6694,2.6975,-1.2479e-12,-0.83469,0,0,0.16667,7.8949e-16,0,0.66667
0.71137,0.52401,4.2682,0.036014,0.83291,24.14,-0.4099,0.13663,-1.9943,-0.54654,1.9978e-13,-0.99717,0,0,0.16667,7.8949e-16,0,0.66667
0.16782,0.14053,1.0069,-0.53921,-25.001,151.32,1.4479,-0.48262,-0.96535,1.9305,1.9443e-10,-0.48268,0,0,0.16667,-0,-0,0.66667
0.38898,0.83404,2.3339,0.50106,20.25,91.078,-3.1185,1.0395,-1.1079,-4.1579,1.098e-12,-0.55393,0,0,0.16667,-0,-0,0.66667
0.49795,0.92253,2.9877,0.63379,22.773,65.245,-5.0495,1.6832,-0.57182,-6.7326,-2.0606e-13,-0.28591,0,0,0.16667,7.8949e-16,1.9703e-16,0.66667
0.93505,0.55284,5.6103,0.079267,0.43251,1.7566,-1.1859,0.3953,-1.9777,-1.5812,-3.8325e-08,-0.98887,0,0,0.16667,7.8949e-16,0,0.66667
0.055196,0.98,0.33118,0.72,34.422,184.23,-0.63586,0.21195,-0.1554,-0.84781,1.7836e-06,-0.077699,0,0,0.16667,-0,-0,0.66667
0.82901,0.96905,4.974,0.70357,10.513,10.488,-9.3323,3.1108,-0.24236,-12.443,-9.0104e-10,-0.12118,0,0,0.16667,-0,-0,0.66667
0.98416,0.73062,5.905,0.34593,0.363,0.52058,-5.4472,1.8157,-1.5758,-7.2629,2.0098e-08,-0.78792,0,0,0.16667,-0,-0,0.66667
0.26727,0.079996,1.6036,-0.63001,-27.972,123.37,2.6941,-0.89805,-0.58907,3.5922,-1.442e-12,-0.29454,0,0,0.16667,-0,-0,0.66667
0.89006,0.15945,5.3403,-0.51082,-4.9353,4.9074,7.2746,-2.4249,-1.0743,9.6994,-1.495e-08,-0.53714,0,0,0.16667,-0,-0,0.66667
0.2903,0.47104,1.7418,-0.043437,-1.884,116.78,0.20175,-0.067251,-1.9931,0.26901,-1.1455e-12,-0.99653,0,0,0.16667,7.8949e-16,0,0.66667
0.79901,0.91405,4.794,0.62108,10.666,13.385,-7.9399,2.6466,-0.62891,-10.587,3.6249e-10,-0.31446,0,0,0.16667,-0,-0,0.66667
0.45986,0.085968,2.7591,-0.62105,-23.392,73.961,4.5695,-1.5232,-0.62756,6.0927,-1.3269e-12,-0.31378,0,0,0.16667,3.9475e-16,0,0.66667
0.59761,0.95646,3.5857,0.68469,21.061,44.545,-6.5468,2.1823,-0.33243,-8.7291,-2.7356e-13,-0.16622,0,0,0.16667,-7.8949e-16,0,0.66667
0.23667,0.95245,1.42,0.67867,30.68,131.89,-2.5699,0.85663,-0.36226,-3.4265,-7.3066e-12,-0.18113,0,0,0.16667,3.9475e-16,0,0.66667
0.68761,0.71755,4.1257,0.32633,8.1033,28.028,-3.5902,1.1967,-1.6241,-4.7869,-5.4232e-12,-0.81207,0,0,0.16667,7.8949e-16,0,0.66667
0.14868,0.1198,0.89211,-0.5703,-26.629,156.86,1.3567,-0.45224,-0.84282,1.8089,3.5888e-09,-0.42141,0,0,0.16667,2.8541e-16,0,0.66667
0.55969,0.78058,3.3581,0.42086,13.705,51.648,-3.7688,1.2563,-1.3714,-5.0251,-7.4207e-13,-0.68572,0,0,0.16667,2.8814e-16,0,0.66667
0.49433,0.88877,2.966,0.58315,21.017,65.976,-4.6123,1.5374,-0.78959,-6.1497,-3.9924e-13,-0.39479,0,0,0.16667,7.8949e-16,0,0.66667
0.83721,0.89265,5.0232,0.58897,8.3236,9.3765,-7.8894,2.6298,-0.7652,-10.519,1.4382e-09,-0.3826,0,0,0.16667,-0,-0,0.66667
0.48147,0.80111,2.8888,0.45167,16.486,68.721,-3.4794,1.1598,-1.2744,-4.6392,-1.5099e-14,-0.63719,0,0,0.16667,-7.8949e-16,0,0.66667
0.78473,0.85756,4.7084,0.53634,9.7381,14.82,-6.7342,2.2447,-0.97657,-8.9789,1.0017e-10,-0.48828,0,0,0.16667,-0,-0,0.66667
0.40029,0.63914,2.4018,0.20871,8.3007,88.017,-1.3368,0.44559,-1.8437,-1.7823,1.5983e-12,-0.92187,0,0,0.16667,-7.8949e-16,0,0.66667
0.30791,0.64452,1.8474,0.21677,9.3028,112.05,-1.0679,0.35598,-1.832,-1.4239,2.4886e-12,-0.91599,0,0,0.16667,-3.6463e-16,0,0.66667
0.78723,0.13407,4.7234,-0.5489,-9.8704,14.555,6.9137,-2.3046,-0.92768,9.2183,-2.0646e-10,-0.46384,0,0,0.16667,1.579e-15,0,0.66667
0.41846,0.55708,2.5108,0.085616,3.3407,83.468,-0.57324,0.19108,-1.974,-0.76432,3.6471e-13,-0.98702,0,0,0.16667,9.8686e-16,0,0.66667
0.49677,0.43418,2.9806,-0.098732,-3.513,64.99,0.78475,-0.26158,-1.9659,1.0463,-4.84e-13,-0.98293,0,0,0.16667,9.8686e-16,0,0.66667
0.57732,0.25909,3.4639,-0.36137,-11.403,47.997,3.338,-1.1127,-1.5368,4.4507,6.2617e-13,-0.7684,0,0,0.16667,-0,-0,0.66667
0.81967,0.76601,4.918,0.39901,6.118,10.684,-5.2329,1.7443,-1.4324,-6.9772,7.6615e-10,-0.7162,0,0,0.16667,-0,-0,0.66667
0.58132,0.42556,3.4879,-0.11166,-3.4846,47.017,1.0385,-0.34617,-1.9552,1.3847,3.2219e-13,-0.97762,0,0,0.16667,-7.8949e-16,0,0.66667
0.40614,0.76356,2.4369,0.39534,15.679,86.679,-2.569,0.85634,-1.4456,-3.4253,2.208e-12,-0.72282,0,0,0.16667,-7.8949e-16,0,0.66667
0.16059,0.9862,0.96352,0.7293,34.081,153.51,-1.8739,0.62462,-0.10792,-2.4985,1.3926e-10,-0.053958,0,0,0.16667,1.9737e-16,0,0.66667
0.70211,0.45597,4.2127,-0.066047,-1.5692,25.559,0.74196,-0.24732,-1.9852,0.98928,-2.0361e-13,-0.99261,0,0,0.16667,-0,-0,0.66667
0.88323,0.45637,5.2994,-0.065439,-0.65283,4.7765,0.92476,-0.30825,-1.9833,1.233,-5.5277e-09,-0.99166,0,0,0.16667,1.579e-15,0,0.66667
0.10838,0.86201,0.65027,0.54302,25.608,168.57,-0.94163,0.31388,-0.95231,-1.2555,-2.1502e-09,-0.47615,0,0,0.16667,-0,2.2584e-16,0.66667
0.46621,0.14011,2.7973,-0.53984,-20.128,72.358,4.0269,-1.3423,-0.9636,5.3692,-4.2766e-13,-0.4818,0,0,0.16667,-7.8949e-16,0,0.66667
0.93454,0.80444,5.6072,0.45665,2.6083,2.2835,-6.8282,2.2761,-1.2585,-9.1042,1.7029e-08,-0.62927,0,0,0.16667,1.579e-15,0,0.66667
0.56351,0.462,3.3811,-0.056998,-1.8341,50.602,0.5139,-0.1713,-1.9897,0.68521,-1.8457e-13,-0.99484,0,0,0.16667,7.8949e-16,0,0.66667
0.54525,0.84944,3.2715,0.52416,17.523,54.794,-4.5728,1.5243,-1.0241,-6.0971,-4.6141e-13,-0.51206,0,0,0.16667,-0,-0,0.66667
0.063476,0.28965,0.38085,-0.31553,-14.933,181.72,0.32045,-0.10682,-1.6471,0.42727,-1.0617e-08,-0.82354,0,0,0.16667,1.9737e-16,0,0.66667
0.5353,0.3209,3.2118,-0.26865,-9.0634,56.612,2.3009,-0.76697,-1.7429,3.0679,-1.9273e-13,-0.87145,0,0,0.16667,-0,-0,0.66667
0.65454,0.3904,3.9272,-0.16441,-4.4193,33.396,1.7218,-0.57393,-1.9041,2.2957,2.9698e-12,-0.95207,0,0,0.16667,-0,-0,0.66667
0.14659,0.15396,0.87955,-0.51906,-24.222,157.44,1.2174,-0.40581,-1.0419,1.6232,6.2161e-10,-0.52096,0,0,0.16667,4.9343e-17,0,0.66667
0.95636,0.50805,5.7382,0.012075,0.042431,0.91164,-0.18477,0.061591,-1.9993,-0.24636,1.9991e-06,-0.99967,0,0,0.16667,-0,-0,0.66667
0.19615,0.49968,1.1769,-0.00048224,-0.021975,143.07,0.0015135,-0.00050449,-2.0001,0.002018,2.3e-10,-1.0001,0,0,0.16667,5.7978e-16,0,0.66667
0.67393,0.52099,4.0436,0.031492,0.80673,30.066,-0.33957,0.11319,-1.9967,-0.45276,-4.0398e-13,-0.99836,0,0,0.16667,-1.579e-15,0,0.66667
0.27434,0.58863,1.646,0.13294,5.8257,121.15,-0.58353,0.19451,-1.9364,-0.77804,-1.0406e-11,-0.96821,0,0,0.16667,-0,-0,0.66667
0.10843,0.35218,0.65059,-0.22172,-10.4,168.49,0.38467,-0.12822,-1.8263,0.51289,1.8867e-09,-0.91314,0,0,0.16667,-0,-0,0.66667
0.2609,0.33691,1.5654,-0.24463,-10.815,124.89,1.0212,-0.3404,-1.7867,1.3616,2.6443e-11,-0.89334,0,0,0.16667,1.9737e-16,0,0.66667
0.33415,0.77339,2.0049,0.41008,17.318,105.16,-2.1925,0.73082,-1.4011,-2.9233,4.3219e-12,-0.70055,0,0,0.16667,3.9475e-16,0,0.66667
0.46473,0.93001,2.7884,0.64502,24.176,72.858,-4.7962,1.5987,-0.52032,-6.3949,7.9003e-13,-0.26016,0,0,0.16667,-3.9475e-16,0,0.66667
0.23436,0.72636,1.4061,0.33954,15.245,132.32,-1.2732,0.42439,-1.5919,-1.6976,-1.1296e-10,-0.79596,0,0,0.16667,-0,-0,0.66667
0.7275,0.094182,4.365,-0.60873,-13.633,22.478,7.0856,-2.3619,-0.6826,9.4475,1.299e-12,-0.3413,0,0,0.16667,-0,-0,0.66667
0.80719,0.53525,4.8431,0.052868,0.85354,11.663,-0.6828,0.2276,-1.9898,-0.9104,1.0771e-10,-0.99488,0,0,0.16667,-0,-0,0.66667
0.79098,0.92435,4.7459,0.63652,11.334,14.338,-8.0556,2.6852,-0.55809,-10.741,1.54e-11,-0.27905,0,0,0.16667,-7.8949e-16,0,0.66667
0.71575,0.49834,4.2945,-0.0024972,-0.057,23.481,0.028598,-0.0095327,-2.0009,0.038131,-3.4723e-13,-1.0005,0,0,0.16667,2.0724e-15,0,0.66667
0.26964,0.72303,1.6179,0.33455,14.734,122.51,-1.4433,0.48111,-1.6021,-1.9244,-1.4036e-11,-0.80105,0,0,0.16667,-0,-0,0.66667
0.21046,0.52258,1.2627,0.033873,1.5342,138.99,-0.11406,0.03802,-1.9947,-0.15208,-6.8108e-11,-0.99736,0,0,0.16667,-0,-0,0.66667
0.10913,0.33713,0.65477,-0.24431,-11.46,168.29,0.42657,-0.14219,-1.7896,0.56876,2.265e-09,-0.89478,0,0,0.16667,-9.8686e-17,0,0.66667
0.39668,0.4187,2.3801,-0.12195,-4.8632,88.892,0.774,-0.258,-1.9458,1.032,-9.282e-13,-0.9729,0,0,0.16667,-0,-0,0.66667
0.087267,0.25741,0.5236,-0.36388,-17.171,174.72,0.50808,-0.16936,-1.5282,0.67743,9.719e-09,-0.76411,0,0,0.16667,1.9737e-16,0,0.66667
0.65539,0.69228,3.9323,0.28842,7.7542,33.348,-3.0244,1.0081,-1.7058,-4.0326,-4.3647e-12,-0.85291,0,0,0.16667,-0,-0,0.66667
0.94983,0.2142,5.699,-0.4287,-1.8446,1.6048,6.515,-2.1717,-1.3469,8.6867,2.899e-08,-0.67343,0,0,0.16667,1.6767e-16,0,0.66667
0.75563,0.7108,4.5338,0.31621,6.36,18.076,-3.823,1.2743,-1.6436,-5.0973,6.7214e-11,-0.82179,0,0,0.16667,-7.8949e-16,0,0.66667
0.11689,0.275,0.70135,-0.33749,-15.821,166.03,0.6312,-0.2104,-1.5941,0.8416,5.832e-09,-0.79705,0,0,0.16667,-9.8686e-17,0,0.66667
0.020481,0.45033,0.12289,-0.074498,-3.5314,194.43,0.024413,-0.0081376,-1.9792,0.032551,2.4574e-07,-0.9896,0,0,0.16667,-0,-0,0.66667
0.33489,0.45488,2.0093,-0.067687,-2.8454,104.82,0.36268,-0.12089,-1.9822,0.48357,-8.1571e-13,-0.99112,0,0,0.16667,-7.9133e-16,0,0.66667
0.99288,0.53825,5.9573,0.057381,0.0058203,0.083854,-0.91155,0.30385,-1.9873,-1.2154,9.7538e-07,-0.99364,0,0,0.16667,-0,-0,0.66667
0.31283,0.21314,1.877,-0.43029,-18.464,110.84,2.1537,-0.71792,-1.3435,2.8717,-6.1744e-12,-0.67176,0,0,0.16667,-0,-0,0.66667
0.73751,0.49241,4.425,-0.011388,-0.24266,20.339,0.13438,-0.044794,-1.9995,0.17918,-6.0495e-12,-0.99975,0,0,0.16667,-7.8949e-16,0,0.66667
0.71653,0.9375,4.2992,0.65624,15.238,24.188,-7.5235,2.5078,-0.47044,-10.031,-1.4628e-12,-0.23522,0,0,0.16667,3.8398e-16,0,0.66667
0.57256,0.67636,3.4353,0.26453,8.3999,48.862,-2.4234,0.80779,-1.75,-3.2312,-9.6056e-13,-0.87501,0,0,0.16667,7.8949e-16,0,0.66667
0.36765,0.69952,2.2059,0.29928,12.277,96.351,-1.7604,0.58681,-1.6801,-2.3473,2.7439e-12,-0.84005,0,0,0.16667,-0,-0,0.66667
0.20827,0.14151,1.2496,-0.53773,-24.539,139.78,1.7919,-0.59728,-0.9707,2.3891,1.6554e-10,-0.48535,0,0,0.16667,-0,-0,0.66667
0.98,0.36891,5.88,-0.19664,-0.26696,0.38551,3.0833,-1.0278,-1.8622,4.1111,4.2447e-08,-0.93109,0,0,0.16667,2.1593e-15,0,0.66667
0.065894,0.74339,0.39536,0.36508,17.285,181.01,-0.38491,0.1283,-1.5261,-0.51321,3.6332e-09,-0.76303,0,0,0.16667,-9.8686e-17,0,0.66667
0.23623,0.81295,1.4174,0.46942,21.108,131.86,-1.7742,0.59141,-1.2183,-2.3656,-4.9077e-11,-0.60915,0,0,0.16667,7.8949e-16,0,0.66667
0.3089,0.77446,1.8534,0.41169,17.708,111.88,-2.0348,0.67825,-1.3972,-2.713,4.7553e-12,-0.69861,0,0,0.16667,-5.9212e-16,0,0.66667
0.9095,0.47248,5.457,-0.041282,-0.31841,3.0608,0.60074,-0.20025,-1.9944,0.80098,-5.667e-08,-0.99719,0,0,0.16667,-0,-0,0.66667
0.71337,0.74036,4.2802,0.36054,8.3373,24.084,-4.1152,1.3717,-1.5368,-5.4869,-2.2915e-13,-0.7684,0,0,0.16667,-0,-0,0.66667
0.26537,0.87586,1.5922,0.56379,25.013,123.84,-2.3938,0.79794,-0.87255,-3.1918,4.8179e-12,-0.43627,0,0,0.16667,-7.8949e-16,0,0.66667
0.1645,0.15509,0.98701,-0.51737,-24.003,152.27,1.3617,-0.45391,-1.0482,1.8156,2.1612e-09,-0.52411,0,0,0.16667,-9.8686e-17,0,0.66667
0.8805,0.82132,5.283,0.48199,5.034,5.5103,-6.7902,2.2634,-1.173,-9.0536,6.2185e-09,-0.58652,0,0,0.16667,1.579e-15,0,0.66667
0.79378,0.65352,4.7627,0.23028,3.9671,13.271,-2.9247,0.9749,-1.8121,-3.8996,3.3808e-10,-0.90607,0,0,0.16667,2.3501e-16,0,0.66667
0.038387,0.32472,0.23032,-0.26292,-12.467,189.13,0.16148,-0.053827,-1.7528,0.21531,-3.1419e-08,-0.87639,0,0,0.16667,-0,-0,0.66667
0.8793,0.76816,5.2758,0.40224,4.2124,5.4322,-5.6591,1.8864,-1.4238,-7.5454,5.0521e-09,-0.7119,0,0,0.16667,-0,-0,0.66667
0.58794,0.79362,3.5276,0.44043,13.664,45.991,-4.1431,1.381,-1.309,-5.5241,-1.5592e-12,-0.65452,0,0,0.16667,1.579e-15,0,0.66667
0.45754,0.80761,2.7452,0.46142,17.344,74.295,-3.3779,1.126,-1.2428,-4.5038,-4.5519e-14,-0.6214,0,0,0.16667,3.9475e-16,0,0.66667
0.67385,0.025757,4.0431,-0.71136,-18.599,30.986,7.6697,-2.5566,-0.20155,10.226,4.8006e-13,-0.10078,0,0,0.16667,-0,-0,0.66667
0.039443,0.69116,0.23666,0.28674,13.599,188.82,-0.18096,0.060319,-1.7071,-0.24127,2.5716e-08,-0.85357,0,0,0.16667,-9.8686e-17,0,0.66667
0.33032,0.82292,1.9819,0.48437,20.548,106.23,-2.56,0.85333,-1.166,-3.4133,3.9135e-12,-0.58298,0,0,0.16667,-0,-0,0.66667
0.088048,0.50142,0.52829,0.0021283,0.10012,174.46,-0.0029983,0.00099956,-2.0001,-0.0039977,1.7708e-07,-1,0,0,0.16667,-0,-0,0.66667
0.68364,0.18775,4.1018,-0.46838,-11.808,28.874,5.1232,-1.7077,-1.2209,6.8309,4.3778e-12,-0.61043,0,0,0.16667,3.158e-15,0,0.66667
0.39801,0.78264,2.3881,0.42395,16.958,88.733,-2.6998,0.89994,-1.3608,-3.5998,2.8708e-12,-0.68041,0,0,0.16667,-0,-0,0.66667
0.47895,0.36755,2.8737,-0.19868,-7.241,69.088,1.5225,-0.5075,-1.8589,2.03,-5.3402e-13,-0.92943,0,0,0.16667,3.9475e-16,0,0.66667
0.2898,0.83643,1.7388,0.50465,22.028,117.11,-2.34,0.77999,-1.0935,-3.12,2.2713e-12,-0.54674,0,0,0.16667,-2.2315e-16,0,0.66667
0.78829,0.78435,4.7298,0.42652,7.5826,14.179,-5.3796,1.7932,-1.3527,-7.1728,1.9408e-10,-0.67637,0,0,0.16667,-0,-0,0.66667
0.046513,0.38134,0.27908,-0.17799,-8.4271,186.72,0.13246,-0.044154,-1.8891,0.17661,1.2658e-08,-0.94454,0,0,0.16667,-0,-0,0.66667
0.28113,0.51985,1.6868,0.029777,1.299,119.28,-0.13394,0.044646,-1.9983,-0.17858,-1.0872e-12,-0.99913,0,0,0.16667,-0,-0,0.66667
0.5906,0.81796,3.5436,0.47693,14.742,45.523,-4.5068,1.5023,-1.1915,-6.0091,-9.2637e-13,-0.59573,0,0,0.16667,-0,-0,0.66667
0.79013,0.95734,4.7408,0.686,12.305,14.573,-8.6726,2.8909,-0.32538,-11.563,5.6199e-11,-0.16269,0,0,0.16667,-0,-0,0.66667
0.6016,0.47447,3.6096,-0.038298,-1.1507,43.03,0.36864,-0.12288,-1.9939,0.49152,6.0396e-14,-0.99696,0,0,0.16667,-0,-0,0.66667
0.73049,0.70496,4.3829,0.30744,6.7334,21.515,-3.5934,1.1978,-1.6631,-4.7911,1.4986e-11,-0.83157,0,0,0.16667,-0,-0,0.66667
0.023528,0.064396,0.14117,-0.65341,-31.254,193.55,0.24597,-0.081991,-0.48176,0.32796,-1.3529e-06,-0.24088,0,0,0.16667,-0,-0,0.66667
0.25492,0.46422,1.5295,-0.053665,-2.3774,126.51,0.21889,-0.072963,-1.9895,0.29185,1.1883e-11,-0.99474,0,0,0.16667,-4.9343e-16,0,0.66667
0.042092,0.78866,0.25255,0.43298,20.578,188.05,-0.2916,0.0972,-1.3328,-0.3888,5.4006e-08,-0.6664,0,0,0.16667,-0,-0,0.66667
0.50001,0.50244,3.0001,0.0036639,0.12976,64.247,-0.029312,0.0097706,-2.0025,-0.039082,2.6512e-13,-1.0013,0,0,0.16667,-0,-0,0.66667
0.98914,0.90718,5.9348,0.61078,0.51329,1.1101,-9.6663,3.2221,-0.67401,-12.888,2.3119e-06,-0.33701,0,0,0.16667,-0,-0,0.66667
0.013531,0.76749,0.081183,0.40124,19.089,196.49,-0.086863,0.028954,-1.4276,-0.11582,-4.3129e-08,-0.71382,0,0,0.16667,8.6483e-18,0,0.66667
0.44088,0.33311,2.6453,-0.25033,-9.5504,78.08,1.7658,-0.58861,-1.7768,2.3544,-2.9476e-13,-0.88838,0,0,0.16667,-3.9475e-16,0,0.66667
0.0047864,0.10515,0.028719,-0.59228,-28.299,199.09,0.045358,-0.015118,-0.75176,0.060477,1.4744e-06,-0.37588,0,0,0.16667,-0,-0,0.66667
0.61289,0.027611,3.6773,-0.70858,-21.192,41.7,6.9485,-2.3162,-0.21514,9.2647,-6.839e-13,-0.10757,0,0,0.16667,-3.9475e-16,0,0.66667
0.18336,0.69746,1.1002,0.29619,13.593,146.77,-0.86895,0.28965,-1.6874,-1.1586,-7.8121e-10,-0.8437,0,0,0.16667,-0,-0,0.66667
0.71274,0.82461,4.2765,0.48692,11.335,24.382,-5.5527,1.8509,-1.1557,-7.4036,-2.7454e-12,-0.57786,0,0,0.16667,-0,-0,0.66667
0.15965,0.53158,0.95789,0.047376,2.1886,153.56,-0.12102,0.040339,-1.993,-0.16136,-5.5809e-10,-0.99652,0,0,0.16667,-3.9475e-16,0,0.66667
0.82858,0.085825,4.9715,-0.62126,-9.2339,10.29,8.2362,-2.7454,-0.62915,10.982,-1.7896e-09,-0.31457,0,0,0.16667,7.8949e-16,0,0.66667
0.20618,0.40713,1.2371,-0.1393,-6.3239,140.22,0.45954,-0.15318,-1.9321,0.61272,2.3305e-10,-0.96603,0,0,0.16667,-0,-0,0.66667
0.35222,0.51707,2.1133,0.025604,1.0616,100.26,-0.14429,0.048097,-1.9962,-0.19239,3.45e-13,-0.99808,0,0,0.16667,-0,-0,0.66667
0.23058,0.27093,1.3835,-0.34361,-15.458,133.38,1.2677,-0.42255,-1.5796,1.6902,1.2517e-10,-0.78982,0,0,0.16667,1.9737e-16,0,0.66667
0.80768,0.74374,4.8461,0.3656,5.9383,11.891,-4.7247,1.5749,-1.5242,-6.2996,5.6073e-10,-0.76212,0,0,0.16667,1.1842e-15,0,0.66667
0.49027,0.032144,2.9416,-0.70178,-25.538,67.092,5.505,-1.835,-0.24904,7.34,-1.1902e-12,-0.12452,0,0,0.16667,-0,-0,0.66667
0.87383,0.81098,5.243,0.46648,5.1267,5.9711,-6.5219,2.174,-1.2283,-8.6959,6.3368e-09,-0.61414,0,0,0.16667,-2.3685e-15,0,0.66667
0.13009,0.090971,0.78052,-0.61354,-28.833,162.27,1.277,-0.42567,-0.66153,1.7027,6.4568e-09,-0.33076,0,0,0.16667,1.9737e-16,0,0.66667
0.49896,0.47162,2.9937,-0.042576,-1.5101,64.486,0.3399,-0.1133,-1.9953,0.4532,4.5272e-13,-0.99767,0,0,0.16667,-0,-0,0.66667
0.77661,0.80209,4.6597,0.45314,8.4643,15.625,-5.6306,1.8769,-1.2691,-7.5074,1.1091e-10,-0.63453,0,0,0.16667,7.8949e-16,0,0.66667
0.98121,0.96932,5.8873,0.70397,1.2091,1.5575,-11.052,3.684,-0.23899,-14.736,-3.1472e-06,-0.1195,0,0,0.16667,-0,-0,0.66667
0.67338,0.02095,4.0403,-0.71858,-18.817,31.083,7.742,-2.5807,-0.16465,10.323,4.8139e-13,-0.082326,0,0,0.16667,-0,-0,0.66667
0.183,0.38086,1.098,-0.1787,-8.1922,146.84,0.52325,-0.17442,-1.8861,0.69767,5.0434e-10,-0.94305,0,0,0.16667,-0,-0,0.66667
0.75977,0.56098,4.5586,0.091473,1.8036,17.348,-1.112,0.37066,-1.9703,-1.4826,4.0415e-11,-0.98514,0,0,0.16667,-1.6777e-15,0,0.66667
0.074635,0.33789,0.44781,-0.24317,-11.48,178.42,0.29038,-0.096794,-1.7898,0.38718,-1.1777e-08,-0.89489,0,0,0.16667,-4.9343e-17,0,0.66667
0.76277,0.55075,4.5766,0.076118,1.4839,16.954,-0.92897,0.30966,-1.9791,-1.2386,4.4643e-11,-0.98957,0,0,0.16667,-0,-0,0.66667
0.82782,0.7945,4.9669,0.44176,6.5052,9.9428,-5.8511,1.9504,-1.3073,-7.8014,1.0626e-09,-0.65367,0,0,0.16667,1.579e-15,0,0.66667
0.55921,0.024074,3.3553,-0.71389,-23.512,52.242,6.3874,-2.1291,-0.18789,8.5166,-6.2172e-14,-0.093944,0,0,0.16667,-0,-0,0.66667
0.49272,0.55737,2.9563,0.086054,3.0783,65.901,-0.67841,0.22614,-1.9729,-0.90455,-6.4693e-13,-0.98645,0,0,0.16667,3.9475e-16,0,0.66667
0.93653,0.075036,5.6192,-0.63745,-3.6577,2.69,9.5518,-3.1839,-0.55601,12.736,-7.6101e-08,-0.27801,0,0,0.16667,-0,-0,0.66667
9.6951e-05,0.66354,0.0005817,0.2453,11.647,200.47,-0.00038051,0.0001268,-1.7878,-0.00050737,-5.626e-08,-0.89392,0,0,0.16667,-0,-5.1445e-16,0.66667
0.0095669,0.8698,0.057401,0.55471,26.477,197.67,-0.084909,0.028303,-0.90532,-0.11321,-7.1984e-08,-0.45266,0,0,0.16667,-1.8504e-17,0,0.66667
0.25195,0.53254,1.5117,0.048806,2.1656,127.33,-0.19675,0.065583,-1.9931,-0.26233,-1.6933e-11,-0.99654,0,0,0.16667,-0,-0,0.66667
0.50568,0.16472,3.0341,-0.50291,-17.806,63.321,4.069,-1.3563,-1.0998,5.4253,-1.843e-13,-0.54988,0,0,0.16667,-0,-0,0.66667
0.54042,0.17315,3.2425,-0.49027,-16.497,55.764,4.2392,-1.4131,-1.1439,5.6523,8.8818e-16,-0.57195,0,0,0.16667,-0,-0,0.66667
0.37129,0.02789,2.2278,-0.70817,-29.261,95.822,4.207,-1.4023,-0.21721,5.6093,-4.4587e-13,-0.10861,0,0,0.16667,-1.9737e-16,-7.5765e-17,0.66667
0.29271,0.66384,1.7563,0.24577,10.658,116.17,-1.151,0.38367,-1.7848,-1.5347,9.6334e-13,-0.89239,0,0,0.16667,-0,-0,0.66667
0.20237,0.94452,1.2142,0.66678,30.613,141.53,-2.1589,0.71965,-0.42058,-2.8786,5.4885e-11,-0.21029,0,0,0.16667,-0,-0,0.66667
0.80028,0.0095423,4.8017,-0.73569,-12.681,13.575,9.4201,-3.14,-0.075255,12.56,2.763e-10,-0.037627,0,0,0.16667,3.158e-15,0,0.66667
0.31592,0.62313,1.8955,0.18469,7.8791,109.88,-0.93356,0.31119,-1.8794,-1.2447,3.0842e-12,-0.93971,0,0,0.16667,-4.4409e-16,0,0.66667
0.49247,0.70933,2.9548,0.31399,11.265,66.079,-2.4741,0.8247,-1.6482,-3.2988,-2.4247e-13,-0.82409,0,0,0.16667,3.9475e-16,0,0.66667
0.81129,0.57736,4.8677,0.11603,1.8377,11.244,-1.5062,0.50206,-1.9527,-2.0082,3.9811e-10,-0.97634,0,0,0.16667,1.579e-15,0,0.66667
0.61236,0.76847,3.6742,0.40271,11.914,41.244,-3.9456,1.3152,-1.423,-5.2608,-1.8532e-12,-0.71151,0,0,0.16667,-0,-0,0.66667
0.40861,0.58763,2.4517,0.13144,5.1815,85.916,-0.85933,0.28644,-1.9391,-1.1458,8.7907e-13,-0.96954,0,0,0.16667,-0,-0,0.66667
0.1769,0.2461,1.0614,-0.38085,-17.544,148.65,1.078,-0.35932,-1.4841,1.4373,1.0022e-09,-0.74204,0,0,0.16667,-2.9606e-16,0,0.66667
0.39765,0.54835,2.3859,0.072522,2.8887,88.638,-0.46142,0.15381,-1.9798,-0.61522,-3.7442e-14,-0.9899,0,0,0.16667,7.8949e-16,0,0.66667
0.48521,0.072983,2.9113,-0.64053,-23.406,68.132,4.9727,-1.6576,-0.54223,6.6302,-9.4946e-13,-0.27111,0,0,0.16667,-0,-0,0.66667
0.99058,0.50395,5.9435,0.005929,0.001871,0.10556,-0.093971,0.03133,-1.9994,-0.12529,8.8882e-06,-0.9997,0,0,0.16667,-0,-0,0.66667
0.2842,0.34423,1.7052,-0.23366,-10.187,118.48,1.0625,-0.35416,-1.8071,1.4166,4.4097e-12,-0.90354,0,0,0.16667,-7.8949e-16,0,0.66667
0.16564,0.37379,0.99384,-0.18931,-8.7343,151.84,0.50173,-0.16724,-1.8726,0.66897,1.6433e-09,-0.9363,0,0,0.16667,1.9737e-16,0,0.66667
0.22058,0.77582,1.3235,0.41373,18.725,136.23,-1.4601,0.48672,-1.3923,-1.9469,-1.6145e-10,-0.69614,0,0,0.16667,4.9343e-16,0,0.66667
0.21147,0.9348,1.2688,0.65219,29.813,138.95,-2.2067,0.73556,-0.48725,-2.9422,-2.454e-11,-0.24363,0,0,0.16667,-5.4278e-16,0,0.66667
0.076048,0.51227,0.45629,0.018412,0.86795,177.99,-0.022404,0.0074677,-1.9989,-0.029871,-1.808e-07,-0.99945,0,0,0.16667,-0,-0,0.66667
0.36491,0.34747,2.1894,-0.22879,-9.3985,97.02,1.3358,-0.44526,-1.8136,1.7811,-3.9888e-12,-0.90679,0,0,0.16667,7.8949e-16,0,0.66667
0.28473,0.46319,1.7084,-0.055211,-2.4032,118.29,0.25153,-0.083842,-1.9892,0.33537,7.0668e-13,-0.99461,0,0,0.16667,-0,-0,0.66667
0.88759,0.059514,5.3255,-0.66073,-6.6432,5.4917,9.3833,-3.1278,-0.44845,12.511,1.9743e-08,-0.22422,0,0,0.16667,-3.9475e-16,0,0.66667
0.78026,0.49029,4.6816,-0.014563,-0.26496,14.756,0.18181,-0.060603,-2.0002,0.24241,2.5715e-12,-1.0001,0,0,0.16667,-7.8949e-16,0,0.66667
0.10906,0.92227,0.65439,0.63341,29.936,168.4,-1.1053,0.36844,-0.57463,-1.4738,1.1684e-08,-0.28732,0,0,0.16667,-1.9737e-16,-1.9724e-16,0.66667
0.8505,0.95279,5.103,0.67918,8.9475,8.4327,-9.2423,3.0808,-0.35838,-12.323,4.7588e-09,-0.17919,0,0,0.16667,1.579e-15,0,0.66667
0.1096,0.88191,0.65759,0.57287,27.028,168.23,-1.0046,0.33486,-0.83489,-1.3394,5.9442e-09,-0.41745,0,0,0.16667,-0,-0,0.66667
0.72021,0.23833,4.3212,-0.39251,-8.9017,23.117,4.523,-1.5077,-1.4527,6.0307,-2.9776e-12,-0.72636,0,0,0.16667,7.8949e-16,0,0.66667
0.57282,0.33338,3.4369,-0.24993,-7.9307,48.797,2.2907,-0.76356,-1.7768,3.0542,4.6296e-13,-0.88842,0,0,0.16667,-7.8949e-16,0,0.66667
0.086808,0.87481,0.52085,0.56221,26.639,174.9,-0.78087,0.26029,-0.87631,-1.0412,-7.7004e-08,-0.43816,0,0,0.16667,-2.6985e-16,0,0.66667
0.90533,0.45149,5.432,-0.072758,-0.58792,3.3173,1.0539,-0.35131,-1.9819,1.4052,5.8923e-09,-0.99096,0,0,0.16667,-0,-0,0.66667
0.87457,0.84426,5.2474,0.51639,5.6697,6.0299,-7.2258,2.4086,-1.0546,-9.6344,-6.7877e-10,-0.52728,0,0,0.16667,-0,-0,0.66667
0.84385,0.23736,5.0631,-0.39396,-5.2781,8.3331,5.3192,-1.7731,-1.4495,7.0922,-2.0121e-09,-0.72476,0,0,0.16667,-0,-0,0.66667
0.36957,0.5191,2.2174,0.028647,1.1706,95.77,-0.16939,0.056464,-1.9959,-0.22586,1.0405e-12,-0.99795,0,0,0.16667,-0,-0,0.66667
0.22295,0.43047,1.3377,-0.10429,-4.6973,135.47,0.37202,-0.12401,-1.9609,0.49602,1.0712e-10,-0.98046,0,0,0.16667,-0,-0,0.66667
0.99711,0.50527,5.9827,0.0079011,-0.0024259,0.027134,-0.12605,0.041988,-2.0001,-0.16808,-4.3884e-05,-1.0001,0,0,0.16667,-0,-0,0.66667
0.81734,0.080668,4.904,-0.629,-9.9136,11.439,8.2257,-2.7419,-0.59221,10.968,3.0719e-10,-0.29611,0,0,0.16667,-0,-0,0.66667
0.042128,0.96095,0.25277,0.69142,33.069,188.07,-0.46605,0.15535,-0.29954,-0.62141,-7.8344e-06,-0.14977,0,0,0.16667,4.9343e-17,0,0.66667
0.37328,0.13563,2.2397,-0.54655,-22.429,95.113,3.2642,-1.0881,-0.93831,4.3523,-1.243e-12,-0.46915,0,0,0.16667,-0,-0,0.66667
0.81219,0.50778,4.8731,0.011666,0.18377,11.12,-0.15159,0.050531,-2.0011,-0.20212,-1.5455e-10,-1.0006,0,0,0.16667,-0,-0,0.66667
0.52838,0.49377,3.1703,-0.0093479,-0.31797,57.996,0.079028,-0.026343,-1.9999,0.10537,-1.6195e-12,-0.99997,0,0,0.16667,1.579e-15,0,0.66667
0.24713,0.68265,1.4828,0.27397,12.209,128.72,-1.0833,0.3611,-1.7336,-1.4444,-6.2114e-11,-0.86678,0,0,0.16667,5.9212e-16,0,0.66667
0.79289,0.23283,4.7573,-0.40076,-6.976,13.601,5.0841,-1.6947,-1.4281,6.7788,-2.9148e-10,-0.71406,0,0,0.16667,-0,-0,0.66667
0.26175,0.72137,1.5705,0.33205,14.691,124.69,-1.3906,0.46355,-1.6083,-1.8542,-2.6202e-11,-0.80417,0,0,0.16667,-0,-0,0.66667
0.00039838,0.38209,0.0023903,-0.17686,-8.3918,200.38,0.0011272,-0.00037568,-1.8904,0.0015029,5.7681e-08,-0.94519,0,0,0.16667,-7.7099e-19,0,0.66667
0.23132,0.81532,1.3879,0.47298,21.322,133.24,-1.7505,0.58351,-1.2053,-2.334,-3.8786e-11,-0.60265,0,0,0.16667,-0,-0,0.66667
0.99337,0.47712,5.9602,-0.034323,-0.0017971,0.072109,0.54553,-0.18184,-1.9947,0.72737,7.8562e-07,-0.99735,0,0,0.16667,-0,-0,0.66667
0.6562,0.28182,3.9372,-0.32727,-8.7902,33.25,3.4361,-1.1454,-1.6221,4.5815,4.7808e-12,-0.81106,0,0,0.16667,-1.579e-15,0,0.66667
0.22067,0.98312,1.324,0.72468,33.063,136.41,-2.5586,0.85287,-0.13292,-3.4115,-3.36e-11,-0.066458,0,0,0.16667,-0,-0,0.66667
0.68614,0.8728,4.1168,0.55921,14.06,28.642,-6.1391,2.0464,-0.88985,-8.1855,-3.8285e-12,-0.44493,0,0,0.16667,9.8686e-16,-1.7061e-16,0.66667
0.68694,0.31488,4.1216,-0.27768,-6.8993,28.083,3.052,-1.0173,-1.7281,4.0693,3.9997e-12,-0.86403,0,0,0.16667,1.579e-15,0,0.66667
0.64074,0.58544,3.8445,0.12817,3.5537,35.801,-1.3139,0.43798,-1.9433,-1.7519,-2.2202e-12,-0.97163,0,0,0.16667,-7.8949e-16,0,0.66667
0.070549,0.94505,0.42329,0.66758,31.804,179.7,-0.75355,0.25118,-0.41432,-1.0047,-8.7367e-09,-0.20716,0,0,0.16667,-1.9737e-16,0,0.66667
0.24296,0.21133,1.4578,-0.43301,-19.389,129.96,1.6833,-0.5611,-1.3323,2.2444,4.7555e-11,-0.66615,0,0,0.16667,-1.9737e-16,0,0.66667
0.87084,0.17019,5.225,-0.49472,-5.5752,6.2641,6.8931,-2.2977,-1.1289,9.1909,-5.3696e-09,-0.56445,0,0,0.16667,-0,-0,0.66667
0.73474,0.14917,4.4084,-0.52624,-11.467,21.27,6.1864,-2.0621,-1.017,8.2485,-8.7854e-12,-0.5085,0,0,0.16667,-0,-0,0.66667
0.16782,0.72634,1.0069,0.33951,15.68,151.25,-0.91159,0.30386,-1.5898,-1.2155,-1.3656e-09,-0.79488,0,0,0.16667,-0,-0,0.66667
0.29859,0.30533,1.7915,-0.29201,-12.622,114.59,1.3951,-0.46502,-1.6976,1.8601,-3.0423e-12,-0.84878,0,0,0.16667,3.9475e-16,0,0.66667
0.56272,0.36168,3.3763,-0.20748,-6.6936,50.824,1.868,-0.62268,-1.8482,2.4907,-1.4477e-13,-0.9241,0,0,0.16667,7.8949e-16,0,0.66667
0.82645,0.99167,4.9587,0.73751,11.207,10.847,-9.7522,3.2507,-0.066683,-13.003,-3.0138e-10,-0.033341,0,0,0.16667,9.7871e-16,0,0.66667
0.20052,0.16403,1.2031,-0.50395,-23.056,141.96,1.6168,-0.53894,-1.0972,2.1557,4.318e-10,-0.5486,0,0,0.16667,-0,-0,0.66667
0.10167,0.99874,0.60999,0.74812,35.536,170.61,-1.2169,0.40564,-0.0099366,-1.6226,6.0468e-08,-0.0049683,0,0,0.16667,3.9475e-16,0,0.66667
0.38187,0.53458,2.2912,0.051867,2.0965,92.624,-0.3169,0.10563,-1.99,-0.42254,-1.6928e-12,-0.99499,0,0,0.16667,-0,-0,0.66667
0.91235,0.24369,5.4741,-0.38447,-2.9278,3.2524,5.6123,-1.8708,-1.4736,7.4831,-1.0338e-08,-0.73682,0,0,0.16667,-1.579e-15,0,0.66667
0.26051,0.52966,1.5631,0.044484,1.9645,124.96,-0.18542,0.061806,-1.9931,-0.24722,-5.2702e-12,-0.99657,0,0,0.16667,-1.9737e-16,0,0.66667
0.1083,0.56559,0.64983,0.098388,4.6108,168.51,-0.17049,0.056831,-1.9673,-0.22732,-1.7729e-08,-0.98366,0,0,0.16667,3.9475e-16,0,0.66667
0.055943,0.15873,0.33566,-0.51191,-24.335,183.97,0.4582,-0.15273,-1.068,0.61094,-4.2026e-08,-0.534,0,0,0.16667,-0,-0,0.66667
0.35167,0.32482,2.11,-0.26277,-10.919,100.47,1.4785,-0.49285,-1.753,1.9714,-3.5583e-12,-0.87651,0,0,0.16667,-0,-0,0.66667
0.037627,0.37532,0.22576,-0.18702,-8.8619,189.35,0.11259,-0.03753,-1.8758,0.15012,3.3589e-08,-0.93792,0,0,0.16667,-0,-0,0.66667
0.58303,0.57185,3.4982,0.10778,3.3533,46.675,-1.0054,0.33515,-1.9578,-1.3406,-6.3505e-13,-0.97891,0,0,0.16667,-0,-0,0.66667
0.67256,0.39057,4.0353,-0.16415,-4.224,30.34,1.7664,-0.5888,-1.9051,2.3552,3.1226e-12,-0.95255,0,0,0.16667,-0,-0,0.66667
0.46048,0.89103,2.7629,0.58654,22.051,73.763,-4.3215,1.4405,-0.77524,-5.762,-1.43e-13,-0.38762,0,0,0.16667,7.8949e-16,0,0.66667
0.74112,0.92567,4.4467,0.6385,13.712,20.642,-7.5713,2.5238,-0.54906,-10.095,2.8679e-12,-0.27453,0,0,0.16667,-0,-0,0.66667
0.50102,0.1426,3.0061,-0.53611,-19.12,64.404,4.2976,-1.4325,-0.97879,5.7302,-5.9952e-14,-0.4894,0,0,0.16667,-7.8949e-16,0,0.66667
0.70235,0.51993,4.2141,0.029896,0.70971,25.515,-0.33596,0.11199,-1.9978,-0.44795,-2.979e-13,-0.99889,0,0,0.16667,-0,-0,0.66667
0.23064,0.34984,1.3838,-0.22524,-10.117,133.32,0.8312,-0.27707,-1.8195,1.1083,1.2118e-10,-0.90975,0,0,0.16667,-0,-0,0.66667
0.74461,0.047222,4.4677,-0.67917,-14.454,20.272,8.0915,-2.6972,-0.35867,10.789,-6.3149e-13,-0.17934,0,0,0.16667,-0,-0,0.66667
0.50164,0.77911,3.0098,0.41867,14.871,64.117,-3.3603,1.1201,-1.3783,-4.4804,-4.9116e-13,-0.68917,0,0,0.16667,-0,-0,0.66667
0.70537,0.68015,4.2322,0.27022,6.3801,25.187,-3.0497,1.0166,-1.7408,-4.0663,-1.289e-12,-0.8704,0,0,0.16667,3.9475e-16,0,0.66667
0.4467,0.08029,2.6802,-0.62956,-24.081,77.083,4.4996,-1.4999,-0.58933,5.9995,-4.8228e-13,-0.29466,0,0,0.16667,-7.8949e-16,0,0.66667
0.50594,0.34805,3.0356,-0.22793,-8.0194,62.991,1.8451,-0.61504,-1.8148,2.4601,3.0764e-13,-0.9074,0,0,0.16667,-0,-0,0.66667
0.041535,0.68024,0.24921,0.27035,12.817,188.2,-0.17967,0.059889,-1.7394,-0.23956,2.7558e-08,-0.86968,0,0,0.16667,2.4672e-17,0,0.66667
0.48931,0.53802,2.9359,0.057029,2.0489,66.671,-0.44648,0.14883,-1.9878,-0.59531,-5.5547e-13,-0.99392,0,0,0.16667,-0,-0,0.66667
0.14229,0.87903,0.85373,0.56854,26.596,158.71,-1.2943,0.43145,-0.85191,-1.7258,1.1718e-09,-0.42595,0,0,0.16667,-0,-0,0.66667
0.1425,0.33311,0.85498,-0.25034,-11.643,158.55,0.57076,-0.19025,-1.7775,0.76101,2.4818e-09,-0.88875,0,0,0.16667,-0,-0,0.66667
0.43335,0.40162,2.6001,-0.14758,-5.6706,79.849,1.0232,-0.34108,-1.9225,1.3643,-1.7475e-13,-0.96125,0,0,0.16667,5.9212e-16,0,0.66667
0.57621,0.92844,3.4573,0.64267,20.506,48.653,-5.925,1.975,-0.53192,-7.9,-2.1627e-13,-0.26596,0,0,0.16667,-0,-0,0.66667
0.34305,0.49925,2.0583,-0.0011251,-0.046993,102.66,0.0061755,-0.0020585,-2.0024,0.008234,1.4126e-12,-1.0012,0,0,0.16667,-1.1842e-15,0,0.66667
0.16049,0.33873,0.96295,-0.2419,-11.186,153.34,0.62117,-0.20706,-1.7918,0.82822,1.4678e-09,-0.8959,0,0,0.16667,-0,-0,0.66667
0.74141,0.77551,4.4485,0.41326,8.7647,20.134,-4.9023,1.6341,-1.3919,-6.5364,2.643e-11,-0.69597,0,0,0.16667,-3.9475e-16,0,0.66667
0.96309,0.98507,5.7785,0.72761,2.5055,2.0609,-11.212,3.7374,-0.11633,-14.949,2.1504e-06,-0.058164,0,0,0.16667,-0,-0,0.66667
0.73364,0.45643,4.4019,-0.065352,-1.4107,20.891,0.76712,-0.25571,-1.9858,1.0228,-8.5143e-12,-0.99288,0,0,0.16667,-0,-0,0.66667
0.077064,0.52718,0.46239,0.040764,1.9214,177.69,-0.050264,0.016755,-1.9957,-0.067018,1.0346e-07,-0.99783,0,0,0.16667,-0,-0,0.66667
0.84091,0.1331,5.0454,-0.55035,-7.5885,8.9343,7.4046,-2.4682,-0.92313,9.8728,-9.6379e-10,-0.46156,0,0,0.16667,-0,-0,0.66667
0.067514,0.3904,0.40508,-0.1644,-7.7641,180.52,0.17759,-0.059198,-1.9027,0.23679,-2.1576e-08,-0.95136,0,0,0.16667,-0,-0,0.66667
0.43631,0.89494,2.6179,0.5924,22.892,79.516,-4.1356,1.3785,-0.7529,-5.5141,4.8406e-13,-0.37645,0,0,0.16667,-0,-0,0.66667
0.92886,0.65588,5.5732,0.23382,1.4169,2.1629,-3.475,1.1583,-1.8057,-4.6333,-1.6721e-08,-0.90286,0,0,0.16667,-2.3191e-15,0,0.66667
0.26318,0.68553,1.5791,0.2783,12.293,124.27,-1.1719,0.39062,-1.7258,-1.5625,-2.6538e-11,-0.86288,0,0,0.16667,-5.4278e-16,0,0.66667
0.12795,0.10336,0.76772,-0.59497,-27.962,162.88,1.218,-0.40602,-0.74123,1.6241,2.82e-09,-0.37061,0,0,0.16667,-0,-0,0.66667
0.76224,0.22871,4.5734,-0.40693,-8.0165,17.348,4.9628,-1.6543,-1.4109,6.6171,-7.4931e-11,-0.70543,0,0,0.16667,1.579e-15,0,0.66667
0.92861,0.36518,5.5716,-0.20223,-1.2271,2.141,3.0047,-1.0016,-1.8533,4.0062,-9.535e-09,-0.92667,0,0,0.16667,-0,-0,0.66667
0.32577,0.24551,1.9546,-0.38174,-16.214,107.36,1.9897,-0.66324,-1.4826,2.653,-4.612e-12,-0.74131,0,0,0.16667,-5.9212e-16,0,0.66667
0.23246,0.2141,1.3947,-0.42885,-19.304,132.9,1.595,-0.53167,-1.3471,2.1267,1.0522e-10,-0.67353,0,0,0.16667,-4.9343e-16,0,0.66667
0.18249,0.7706,1.0949,0.40591,18.667,147.06,-1.1852,0.39505,-1.4132,-1.5802,-6.5575e-10,-0.70659,0,0,0.16667,-1.9737e-16,0,0.66667
0.96324,0.61619,5.7794,0.17428,0.50763,0.77503,-2.686,0.89533,-1.891,-3.5813,-2.8252e-08,-0.94552,0,0,0.16667,7.8949e-16,0,0.66667
0.57663,0.98105,3.4598,0.72157,23.088,48.735,-6.6573,2.2191,-0.1492,-8.8764,2.3181e-13,-0.0746,0,0,0.16667,-0,-0,0.66667
0.86009,0.31223,5.1605,-0.28165,-3.3772,6.746,3.8759,-1.292,-1.7205,5.1679,-3.2955e-09,-0.86024,0,0,0.16667,-2.4672e-16,0,0.66667
0.30834,0.77585,1.8501,0.41378,17.805,112.03,-2.0414,0.68046,-1.3911,-2.7219,4.4329e-12,-0.69553,0,0,0.16667,1.9737e-16,0,0.66667
0.056436,0.24122,0.33862,-0.38818,-18.407,183.81,0.35052,-0.11684,-1.4632,0.46736,-1.7013e-08,-0.73159,0,0,0.16667,-0,-0,0.66667
0.4538,0.85581,2.7228,0.53372,20.189,75.263,-3.8753,1.2918,-0.98816,-5.167,8.7264e-14,-0.49408,0,0,0.16667,-0,-0,0.66667
0.20711,0.3319,1.2427,-0.25215,-11.453,139.98,0.83556,-0.27852,-1.7732,1.1141,3.5067e-10,-0.8866,0,0,0.16667,-0,-0,0.66667
0.51898,0.38886,3.1139,-0.16671,-5.7543,60.079,1.3843,-0.46143,-1.9006,1.8457,1.6798e-13,-0.95031,0,0,0.16667,-0,-0,0.66667
0.53799,0.30862,3.2279,-0.28707,-9.6481,56.053,2.471,-0.82367,-1.7065,3.2947,-2.1627e-13,-0.85324,0,0,0.16667,1.5928e-16,0,0.66667
0.29429,0.54457,1.7657,0.066859,2.8926,115.69,-0.31481,0.10494,-1.9839,-0.41975,-6.0457e-13,-0.99195,0,0,0.16667,-0,-0,0.66667
0.30745,0.34045,1.8447,-0.23933,-10.277,112.18,1.1773,-0.39244,-1.7962,1.5698,-4.5244e-12,-0.89811,0,0,0.16667,2.884e-16,0,0.66667
0.024174,0.36262,0.14504,-0.20608,-9.7747,193.34,0.079706,-0.026569,-1.8476,0.10627,-4.2287e-08,-0.92378,0,0,0.16667,-0,-0,0.66667
0.4204,0.86712,2.5224,0.55069,21.613,83.324,-3.7042,1.2347,-0.92256,-4.9389,1.0081e-13,-0.46128,0,0,0.16667,3.9475e-16,0,0.66667
0.32369,0.11956,1.9421,-0.57066,-24.382,108.06,2.9555,-0.98515,-0.84185,3.9406,-3.3575e-12,-0.42093,0,0,0.16667,1.9737e-16,0,0.66667
0.61949,0.2447,3.7169,-0.38296,-11.162,39.887,3.7958,-1.2653,-1.478,5.0611,2.3346e-12,-0.73901,0,0,0.16667,-7.8949e-16,0,0.66667
0.85976,0.64633,5.1586,0.2195,2.6308,6.7016,-3.0194,1.0065,-1.83,-4.0259,2.0391e-09,-0.91501,0,0,0.16667,-0,-0,0.66667
0.49264,0.092421,2.9558,-0.61137,-22.104,66.401,4.819,-1.6063,-0.67093,6.4253,-4.0368e-13,-0.33546,0,0,0.16667,-7.8949e-16,0,0.66667
0.082708,0.71921,0.49625,0.32881,15.52,176.06,-0.43513,0.14504,-1.6161,-0.58017,-4.5265e-09,-0.80807,0,0,0.16667,-0,-0,0.66667
0.93348,0.034588,5.6009,-0.69812,-4.2554,3.0247,10.427,-3.4756,-0.26734,13.902,-7.2739e-08,-0.13367,0,0,0.16667,-0,-7.7577e-17,0.66667
0.80833,0.59907,4.85,0.1486,2.389,11.582,-1.9219,0.64064,-1.9213,-2.5625,4.0458e-10,-0.96066,0,0,0.16667,-3.158e-15,0,0.66667
0.36552,0.88209,2.1931,0.57314,23.696,97.132,-3.3519,1.1173,-0.83114,-4.4692,1.0107e-12,-0.41557,0,0,0.16667,7.8949e-16,0,0.66667
0.33073,0.072396,1.9844,-0.64141,-27.319,106.27,3.3941,-1.1314,-0.53722,4.5255,-1.6975e-12,-0.26861,0,0,0.16667,7.8949e-16,0,0.66667
0.93793,0.86542,5.6276,0.54812,3.0156,2.3655,-8.2256,2.7419,-0.9331,-10.968,9.9045e-08,-0.46655,0,0,0.16667,-0,-0,0.66667
0.37489,0.79099,2.2494,0.43648,17.838,94.592,-2.6181,0.87272,-1.3242,-3.4909,2.5695e-12,-0.66208,0,0,0.16667,-0,-0,0.66667
0.6358,0.63864,3.8148,0.20796,5.835,36.732,-2.1156,0.70519,-1.8451,-2.8208,-2.4321e-12,-0.92257,0,0,0.16667,-1.579e-15,0,0.66667
0.98534,0.328,5.9121,-0.258,-0.22764,0.36103,4.0676,-1.3559,-1.764,5.4234,-3.1103e-08,-0.88201,0,0,0.16667,-0,-0,0.66667
0.03674,0.65771,0.22044,0.23656,11.215,189.62,-0.13906,0.046353,-1.8011,-0.18541,3.4898e-08,-0.90057,0,0,0.16667,-0,-0,0.66667
0.31463,0.0093527,1.8878,-0.73597,-31.814,110.66,3.7049,-1.235,-0.074401,4.9399,-7.2697e-13,-0.0372,0,0,0.16667,-1.579e-15,0,0.66667
0.23124,0.72638,1.3874,0.33958,15.271,133.2,-1.2564,0.41879,-1.5899,-1.6751,-1.2618e-10,-0.79497,0,0,0.16667,-0,-0,0.66667
0.92237,0.61519,5.5342,0.17279,1.1424,2.4242,-2.55,0.85,-1.8951,-3.4,2.5404e-09,-0.94755,0,0,0.16667,-0,-0,0.66667
0.55114,0.35017,3.3068,-0.22475,-7.3917,53.233,1.9819,-0.66062,-1.8201,2.6425,5.3557e-13,-0.91003,0,0,0.16667,-1.579e-15,0,0.66667
0.053714,0.80622,0.32228,0.45934,21.817,184.62,-0.39476,0.13159,-1.2489,-0.52635,-1.0082e-08,-0.62446,0,0,0.16667,-9.8686e-17,0,0.66667
0.75525,0.52341,4.5315,0.035118,0.70373,17.928,-0.42437,0.14146,-1.9948,-0.56582,1.7629e-11,-0.9974,0,0,0.16667,-0,-0,0.66667
0.68408,0.71792,4.1045,0.32688,8.1932,28.597,-3.5778,1.1926,-1.621,-4.7704,-5.4179e-12,-0.8105,0,0,0.16667,2.4672e-16,0,0.66667
0.66217,0.34227,3.973,-0.23659,-6.2525,32.137,2.5066,-0.83553,-1.801,3.3421,4.0781e-12,-0.9005,0,0,0.16667,-2.9606e-16,0,0.66667
0.95573,0.022927,5.7344,-0.71561,-2.9366,2.2376,10.943,-3.6476,-0.17934,14.59,-6.0012e-06,-0.08967,0,0,0.16667,-0,-0,0.66667
0.8746,0.64374,5.2476,0.21561,2.3174,5.5137,-3.0172,1.0057,-1.8359,-4.0229,3.174e-09,-0.91794,0,0,0.16667,-1.579e-15,0,0.66667
0.75325,0.43548,4.5195,-0.096785,-1.9543,18.209,1.1665,-0.38882,-1.9674,1.5553,-2.571e-11,-0.98372,0,0,0.16667,-3.9475e-16,0,0.66667
0.22267,0.40135,1.336,-0.14798,-6.6679,135.55,0.5272,-0.17573,-1.9221,0.70294,1.3661e-10,-0.96106,0,0,0.16667,-0,-0,0.66667
0.13801,0.47717,0.82809,-0.034245,-1.5925,159.83,0.075622,-0.025207,-1.9959,0.10083,-1.534e-09,-0.99797,0,0,0.16667,-0,-0,0.66667
0.22089,0.46397,1.3253,-0.054052,-2.4365,136.04,0.19103,-0.063677,-1.9904,0.25471,6.9345e-11,-0.99522,0,0,0.16667,9.8686e-17,0,0.66667
0.20551,0.68147,1.2331,0.27221,12.376,140.44,-0.89506,0.29835,-1.7371,-1.1934,-3.8451e-10,-0.86853,0,0,0.16667,-0,-0,0.66667
0.56796,0.424,3.4078,-0.11399,-3.6416,49.707,1.0359,-0.3453,-1.9525,1.3812,-3.9146e-13,-0.97627,0,0,0.16667,-0,-0,0.66667
0.66304,0.12591,3.9783,-0.56114,-14.949,32.447,5.953,-1.9843,-0.88045,7.9373,2.5837e-12,-0.44022,0,0,0.16667,-0,-0,0.66667
0.52742,0.039493,3.1645,-0.69076,-23.872,58.876,5.8291,-1.943,-0.30306,7.7721,5.0138e-13,-0.15153,0,0,0.16667,-1.579e-15,0,0.66667
0.056349,0.29911,0.3381,-0.30134,-14.271,183.82,0.27168,-0.090562,-1.6758,0.36225,-2.2801e-08,-0.83788,0,0,0.16667,-9.8686e-17,0,0.66667
0.36316,0.039103,2.179,-0.69135,-28.747,97.883,4.0171,-1.339,-0.30024,5.3562,-1.6431e-12,-0.15012,0,0,0.16667,-7.8949e-16,0,0.66667
0.96773,0.87059,5.8064,0.55588,1.5483,1.3685,-8.6071,2.869,-0.90286,-11.476,-2.2082e-07,-0.45143,0,0,0.16667,1.579e-15,9.9655e-17,0.66667
0.69551,0.87182,4.1731,0.55772,13.675,27.156,-6.2065,2.0688,-0.89356,-8.2753,-3.5585e-12,-0.44678,0,0,0.16667,-0,-0,0.66667
0.36974,0.69169,2.2184,0.28754,11.772,95.806,-1.701,0.56701,-1.7057,-2.268,2.866e-12,-0.85286,0,0,0.16667,-0,-0,0.66667
0.67163,0.61842,4.0298,0.17763,4.5823,30.503,-1.9088,0.63626,-1.8896,-2.5451,-3.3449e-12,-0.94479,0,0,0.16667,-1.1842e-15,0,0.66667
0.26511,0.76073,1.5907,0.3911,17.287,123.79,-1.6589,0.55298,-1.4573,-2.2119,-1.6619e-11,-0.72866,0,0,0.16667,-0,-0,0.66667
0.077478,0.81861,0.46487,0.47791,22.636,177.62,-0.59244,0.19748,-1.1895,-0.78991,-1.9277e-08,-0.59474,0,0,0.16667,-0,-0,0.66667
0.52807,0.090709,3.1684,-0.61394,-21.133,58.595,5.1872,-1.7291,-0.66044,6.9163,-2.9665e-13,-0.33022,0,0,0.16667,7.8949e-16,0,0.66667
0.28977,0.06578,1.7386,-0.65133,-28.545,117.25,3.0198,-1.0066,-0.49117,4.0264,-2.9374e-12,-0.24558,0,0,0.16667,-7.8949e-16,0,0.66667
0.48165,0.58499,2.8899,0.12748,4.6274,68.438,-0.98243,0.32748,-1.9422,-1.3099,-1.6431e-13,-0.97112,0,0,0.16667,-7.8949e-16,0,0.66667
0.90199,0.6359,5.412,0.20385,1.7138,3.6089,-2.9419,0.98064,-1.8515,-3.9225,4.0714e-09,-0.92574,0,0,0.16667,-1.579e-15,0,0.66667
0.65174,0.1193,3.9104,-0.57105,-15.627,34.402,5.9548,-1.9849,-0.84021,7.9398,1.7049e-12,-0.4201,0,0,0.16667,-0,-0,0.66667
0.72332,0.28612,4.3399,-0.32082,-7.1897,22.564,3.7129,-1.2376,-1.6338,4.9505,-7.0104e-12,-0.8169,0,0,0.16667,-0,-0,0.66667
0.10259,0.07752,0.61552,-0.63372,-29.993,170.3,1.0402,-0.34673,-0.57059,1.3869,-4.2207e-08,-0.2853,0,0,0.16667,1.9737e-16,0,0.66667
0.47966,0.16321,2.8779,-0.50519,-18.509,69.202,3.8771,-1.2924,-1.092,5.1695,2.387e-13,-0.546,0,0,0.16667,-0,-0,0.66667
0.40434,0.72655,2.4261,0.33982,13.487,87.083,-2.1985,0.73282,-1.59,-2.9313,1.2537e-12,-0.79498,0,0,0.16667,-0,-0,0.66667
0.64686,0.2863,3.8811,-0.32055,-8.7954,34.867,3.3176,-1.1059,-1.634,4.4234,3.4419e-12,-0.81701,0,0,0.16667,1.579e-15,0,0.66667
0.28774,0.79918,1.7264,0.44878,19.59,117.63,-2.0661,0.68869,-1.2825,-2.7547,2.524e-12,-0.64124,0,0,0.16667,-3.9475e-16,0,0.66667
0.38306,0.18867,2.2984,-0.46699,-18.959,92.54,2.8622,-0.95406,-1.2245,3.8163,-1.0956e-12,-0.61226,0,0,0.16667,-0,-0,0.66667
0.98102,0.27259,5.8861,-0.34111,-0.45791,0.56889,5.3542,-1.7847,-1.586,7.1389,7.2485e-09,-0.79302,0,0,0.16667,1.579e-15,0,0.66667
0.11481,0.20952,0.68886,-0.43572,-20.47,166.66,0.8004,-0.2668,-1.324,1.0672,7.6149e-09,-0.662,0,0,0.16667,9.8686e-17,0,0.66667
0.19991,0.41875,1.1994,-0.12187,-5.5468,142,0.38981,-0.12994,-1.9467,0.51974,2.473e-10,-0.97336,0,0,0.16667,-0,-0,0.66667
0.23905,0.42839,1.4343,-0.10741,-4.7996,130.94,0.41081,-0.13694,-1.9582,0.54775,5.0453e-11,-0.9791,0,0,0.16667,1.9737e-16,0,0.66667
0.69665,0.5648,4.1799,0.097198,2.3455,26.418,-1.0834,0.36114,-1.9662,-1.4446,-1.2873e-12,-0.9831,0,0,0.16667,1.579e-15,0,0.66667
0.71369,0.93119,4.2821,0.64679,15.136,24.585,-7.3857,2.4619,-0.512,-9.8476,-9.7833e-13,-0.256,0,0,0.16667,-1.1842e-15,0,0.66667
0.78475,0.092771,4.7085,-0.61084,-11.144,14.996,7.6698,-2.5566,-0.67416,10.226,1.0761e-10,-0.33708,0,0,0.16667,2.0724e-15,0,0.66667
0.38104,0.80416,2.2863,0.45624,18.552,93.043,-2.7815,0.92718,-1.2589,-3.7087,1.4828e-12,-0.62944,0,0,0.16667,-0,-0,0.66667
0.8524,0.41338,5.1144,-0.12993,-1.6316,7.2583,1.772,-0.59068,-1.939,2.3627,-1.692e-09,-0.96948,0,0,0.16667,-0,-0,0.66667
0.69735,0.60291,4.1841,0.15437,3.7203,26.336,-1.7224,0.57414,-1.9142,-2.2966,-1.3659e-12,-0.95711,0,0,0.16667,-0,-0,0.66667
0.71326,0.81707,4.2796,0.47561,11.049,24.284,-5.4277,1.8092,-1.1953,-7.2369,-3.3089e-12,-0.59765,0,0,0.16667,1.579e-15,0,0.66667
0.82199,0.10694,4.9319,-0.58959,-9.0474,10.86,7.7542,-2.5847,-0.76266,10.339,-2.6203e-11,-0.38133,0,0,0.16667,-0,-0,0.66667
0.62892,0.28476,3.7735,-0.32287,-9.2141,38.08,3.2489,-1.083,-1.6296,4.3319,2.2722e-12,-0.81478,0,0,0.16667,1.579e-15,0,0.66667
0.42223,0.39104,2.5334,-0.16344,-6.3556,82.566,1.1041,-0.36804,-1.9062,1.4722,-4.694e-13,-0.95308,0,0,0.16667,7.8949e-16,0,0.66667
0.030799,0.44358,0.18479,-0.084627,-4.0095,191.37,0.041702,-0.013901,-1.9762,0.055603,-2.6749e-07,-0.98811,0,0,0.16667,-0,-0,0.66667
0.59546,0.31477,3.5727,-0.27785,-8.4682,44.338,2.6472,-0.88239,-1.727,3.5296,1.1828e-12,-0.8635,0,0,0.16667,-0,-0,0.66667
0.56376,0.1086,3.3826,-0.5871,-19.091,51.064,5.2957,-1.7652,-0.77498,7.061,1.6209e-13,-0.38749,0,0,0.16667,-0,-0,0.66667
0.60081,0.042332,3.6048,-0.6865,-20.992,43.935,6.5993,-2.1998,-0.32294,8.7991,8.1801e-13,-0.16147,0,0,0.16667,-1.579e-15,0,0.66667
0.32285,0.21016,1.9371,-0.43476,-18.525,108.17,2.2458,-0.74862,-1.327,2.9945,-5.7709e-12,-0.66352,0,0,0.16667,-0,-0,0.66667
0.55488,0.28243,3.3293,-0.32636,-10.688,52.536,2.8975,-0.96582,-1.6212,3.8633,3.2929e-13,-0.81061,0,0,0.16667,-0,-0,0.66667
0.17166,0.64815,1.0299,0.22223,10.234,150.11,-0.61034,0.20345,-1.826,-0.81379,-9.657e-10,-0.91302,0,0,0.16667,-0,-0,0.66667
0.64986,0.42536,3.8992,-0.11196,-3.0407,34.185,1.1641,-0.38805,-1.9541,1.5522,2.3173e-12,-0.97703,0,0,0.16667,-7.8949e-16,0,0.66667
0.071673,0.80958,0.43004,0.46437,22.008,179.33,-0.53253,0.17751,-1.233,-0.71004,-1.2341e-08,-0.61648,0,0,0.16667,1.4458e-16,0,0.66667
0.87508,0.94955,5.2505,0.67433,7.5065,6.4302,-9.4415,3.1472,-0.38462,-12.589,2.3541e-08,-0.19231,0,0,0.16667,1.579e-15,0,0.66667
0.21614,0.28575,1.2968,-0.32137,-14.552,137.44,1.1114,-0.37045,-1.6334,1.4818,2.4259e-10,-0.8167,0,0,0.16667,-0,-0,0.66667
0.29384,0.91009,1.7631,0.61514,26.86,116.11,-2.8921,0.96403,-0.65512,-3.8561,2.0246e-12,-0.32756,0,0,0.16667,-0,-0,0.66667
0.88474,0.87537,5.3084,0.56306,5.728,5.407,-7.9706,2.6569,-0.87301,-10.627,1.641e-08,-0.43651,0,0,0.16667,-0,-0,0.66667
0.88359,0.66685,5.3016,0.25028,2.5044,4.8883,-3.5383,1.1794,-1.7759,-4.7177,4.8627e-09,-0.88797,0,0,0.16667,1.579e-15,0,0.66667
0.83627,0.8254,5.0176,0.4881,6.8799,9.2224,-6.5309,2.177,-1.1514,-8.7079,1.3737e-09,-0.57572,0,0,0.16667,-0,-0,0.66667
0.32694,0.67756,1.9616,0.26634,11.282,106.98,-1.3932,0.4644,-1.7486,-1.8576,5.1104e-12,-0.87429,0,0,0.16667,-0,-0,0.66667
0.90234,0.30937,5.4141,-0.28594,-2.4072,3.6839,4.1283,-1.3761,-1.7096,5.5043,-5.0251e-09,-0.85479,0,0,0.16667,-1.3118e-15,0,0.66667
0.7718,0.9036,4.6308,0.6054,11.626,16.551,-7.476,2.492,-0.69662,-9.968,5.7963e-11,-0.34831,0,0,0.16667,-1.7764e-15,0,0.66667
0.65808,0.3206,3.9485,-0.2691,-7.1862,32.865,2.8335,-0.94449,-1.7431,3.778,4.0219e-12,-0.87154,0,0,0.16667,-0,-0,0.66667
0.8998,0.67711,5.3988,0.26566,2.2918,3.8158,-3.8247,1.2749,-1.7478,-5.0996,3.482e-09,-0.8739,0,0,0.16667,7.8949e-16,0,0.66667
0.78313,0.19468,4.6988,-0.45798,-8.3334,14.847,5.7385,-1.9128,-1.2549,7.6513,-2.1238e-10,-0.62744,0,0,0.16667,-0,-0,0.66667
0.42475,0.25533,2.5485,-0.367,-14.275,82.071,2.4941,-0.83137,-1.5215,3.3255,-5.993e-13,-0.76074,0,0,0.16667,-0,-0,0.66667
0.32426,0.30159,1.9455,-0.29762,-12.637,107.71,1.5441,-0.51469,-1.6844,2.0588,-6.3505e-12,-0.84221,0,0,0.16667,-3.9475e-16,0,0.66667
0.39388,0.39443,2.3633,-0.15835,-6.3334,89.608,0.99794,-0.33265,-1.9104,1.3306,-1.2628e-12,-0.9552,0,0,0.16667,3.9475e-16,0,0.66667
0.061412,0.24962,0.36847,-0.37557,-17.795,182.34,0.36904,-0.12301,-1.5007,0.49205,-8.0058e-09,-0.75036,0,0,0.16667,1.2336e-16,0,0.66667
0.36343,0.10731,2.1806,-0.58904,-24.408,97.687,3.4252,-1.1417,-0.76551,4.5669,-9.8588e-13,-0.38275,0,0,0.16667,-0,-0,0.66667
0.35304,0.7713,2.1183,0.40695,16.931,100.2,-2.2987,0.76624,-1.41,-3.065,3.1444e-12,-0.70498,0,0,0.16667,-0,-0,0.66667
0.86562,0.6549,5.1937,0.23236,2.6735,6.2342,-3.2181,1.0727,-1.808,-4.2908,1.6967e-09,-0.90402,0,0,0.16667,-1.7764e-15,0,0.66667
0.8887,0.57654,5.3322,0.11482,1.0931,4.4126,-1.6326,0.5442,-1.9533,-2.1768,5.0466e-10,-0.97663,0,0,0.16667,-1.579e-15,0,0.66667
0.96305,0.81396,5.7783,0.47094,1.4732,1.272,-7.2567,2.4189,-1.2115,-9.6756,-1.0743e-07,-0.60575,0,0,0.16667,-0,-0,0.66667
0.3282,0.027373,1.9692,-0.70894,-30.32,107.02,3.7228,-1.2409,-0.21529,4.9637,-1.0112e-12,-0.10764,0,0,0.16667,-0,-0,0.66667
0.69332,0.95508,4.1599,0.68263,16.947,27.786,-7.5725,2.5242,-0.34185,-10.097,-1.716e-12,-0.17093,0,0,0.16667,7.8949e-16,0,0.66667
0.63307,0.5994,3.7984,0.1491,4.205,37.19,-1.5102,0.50341,-1.9201,-2.0137,-2.525e-12,-0.96006,0,0,0.16667,-0,-0,0.66667
0.24244,0.79486,1.4547,0.4423,19.814,130.11,-1.7157,0.5719,-1.3029,-2.2876,-5.4025e-11,-0.65146,0,0,0.16667,-3.9475e-16,0,0.66667
0.86999,0.89016,5.2199,0.58524,6.6961,6.5569,-8.1464,2.7155,-0.78105,-10.862,6.1938e-09,-0.39053,0,0,0.16667,-0,-0,0.66667
0.2141,0.29111,1.2846,-0.31333,-14.2,138.02,1.0734,-0.35778,-1.6501,1.4311,2.5919e-10,-0.82505,0,0,0.16667,-0,-0,0.66667
0.74771,0.97281,4.4863,0.70922,14.966,19.937,-8.4847,2.8282,-0.21245,-11.313,5.5511e-13,-0.10622,0,0,0.16667,-0,-8.9279e-17,0.66667
0.14466,0.96519,0.86798,0.69778,32.738,158.09,-1.6151,0.53836,-0.26898,-2.1535,-1.3011e-09,-0.13449,0,0,0.16667,-2.4672e-16,0,0.66667
0.10682,0.12218,0.64092,-0.56673,-26.751,169.04,0.9686,-0.32287,-0.85895,1.2915,-1.7537e-08,-0.42948,0,0,0.16667,2.2204e-16,1.6054e-18,0.66667
0.72032,0.95738,4.3219,0.68608,15.779,23.709,-7.9071,2.6357,-0.32685,-10.543,-1.9154e-12,-0.16342,0,0,0.16667,-0,-0,0.66667
0.52632,0.94254,3.1579,0.66382,22.953,59.062,-5.59,1.8633,-0.43288,-7.4534,-2.4292e-13,-0.21644,0,0,0.16667,-0,-0,0.66667
0.44292,0.27849,2.6575,-0.33226,-12.664,77.647,2.3546,-0.78488,-1.6074,3.1395,-4.0501e-13,-0.80368,0,0,0.16667,2.9606e-16,0,0.66667
0.77818,0.95955,4.6691,0.68933,12.989,15.994,-8.5828,2.8609,-0.31031,-11.444,3.9453e-12,-0.15516,0,0,0.16667,-7.8949e-16,0,0.66667
0.35874,0.71202,2.1525,0.31804,13.149,98.662,-1.8255,0.6085,-1.6418,-2.434,2.5522e-12,-0.82092,0,0,0.16667,6.0716e-16,0,0.66667
0.85335,0.49528,5.1201,-0.007086,-0.088307,7.1377,0.096749,-0.03225,-1.9993,0.129,1.554e-09,-0.99963,0,0,0.16667,-0,-0,0.66667
0.96217,0.57067,5.773,0.10601,0.31708,0.75728,-1.632,0.544,-1.959,-2.176,2.1757e-07,-0.97948,0,0,0.16667,-0,-0,0.66667
0.97913,0.85427,5.8748,0.53141,0.89943,1.0394,-8.3251,2.775,-0.99488,-11.1,-4.2115e-07,-0.49744,0,0,0.16667,1.579e-15,0,0.66667
0.27763,0.48881,1.6658,-0.016783,-0.73369,120.24,0.07455,-0.02485,-1.9984,0.0994,-9.6066e-13,-0.99922,0,0,0.16667,-0,-0,0.66667
0.41501,0.88573,2.49,0.5786,22.853,84.683,-3.842,1.2807,-0.80834,-5.1226,4.0812e-13,-0.40417,0,0,0.16667,-7.8949e-16,0,0.66667
0.72501,0.30149,4.3501,-0.29776,-6.6336,22.291,3.4541,-1.1514,-1.6835,4.6055,-9.5723e-12,-0.84173,0,0,0.16667,7.8949e-16,0,0.66667
0.89487,0.35344,5.3692,-0.21984,-1.985,4.0807,3.1477,-1.0492,-1.8275,4.1969,-2.6247e-09,-0.91374,0,0,0.16667,-0,-0,0.66667
0.71131,0.15703,4.2679,-0.51445,-12.041,24.648,5.855,-1.9517,-1.059,7.8066,2.7129e-12,-0.52949,0,0,0.16667,-3.158e-15,0,0.66667
0.75813,0.89858,4.5488,0.59787,12.076,18.268,-7.2522,2.4174,-0.72797,-9.6697,1.0165e-11,-0.36399,0,0,0.16667,-7.8949e-16,0,0.66667
0.8834,0.36374,5.3004,-0.20439,-2.044,4.8526,2.8889,-0.96298,-1.8501,3.8519,-7.8903e-10,-0.92504,0,0,0.16667,-0,-0,0.66667
0.36695,0.32603,2.2017,-0.26096,-10.706,96.51,1.5321,-0.51071,-1.7564,2.0428,-2.4302e-12,-0.87818,0,0,0.16667,-0,-0,0.66667
0.54254,0.69403,3.2553,0.29104,9.7136,55.089,-2.5264,0.84214,-1.6984,-3.3686,-4.5586e-13,-0.84922,0,0,0.16667,-0,-0,0.66667
0.53477,0.56825,3.2086,0.10238,3.4503,56.637,-0.876,0.292,-1.9628,-1.168,-6.411e-13,-0.98138,0,0,0.16667,1.579e-15,0,0.66667
0.64758,0.45064,3.8855,-0.074034,-2.0206,34.572,0.7671,-0.2557,-1.979,1.0228,1.55e-12,-0.98952,0,0,0.16667,-0,-0,0.66667
0.89518,0.59869,5.3711,0.14804,1.3286,3.9968,-2.1204,0.70679,-1.9218,-2.8272,-1.1754e-08,-0.96092,0,0,0.16667,-0,-0,0.66667
0.60083,0.0087298,3.605,-0.73691,-22.588,44.047,7.084,-2.3613,-0.068041,9.4454,9.3037e-13,-0.034021,0,0,0.16667,-0,-0,0.66667
0.96994,0.18092,5.8196,-0.47863,-1.195,1.1057,7.4278,-2.4759,-1.1866,9.9038,2.0904e-07,-0.59331,0,0,0.16667,7.8949e-16,0,0.66667
0.73214,0.71999,4.3928,0.32998,7.1938,21.309,-3.8655,1.2885,-1.6142,-5.154,1.7179e-11,-0.80712,0,0,0.16667,-3.158e-15,0,0.66667
0.41529,0.77649,2.4917,0.41473,16.306,84.432,-2.7558,0.91859,-1.3878,-3.6743,1.1293e-12,-0.69389,0,0,0.16667,-3.4622e-16,0,0.66667
0.58114,0.78705,3.4868,0.43058,13.519,47.321,-4.0036,1.3345,-1.341,-5.3381,-5.2758e-13,-0.67052,0,0,0.16667,-1.579e-15,0,0.66667
0.92232,0.76645,5.5339,0.39967,2.6977,2.746,-5.898,1.966,-1.4331,-7.864,1.2518e-08,-0.71655,0,0,0.16667,-0,-0,0.66667
0.6185,0.055975,3.711,-0.66604,-19.658,40.56,6.5911,-2.197,-0.42185,8.7881,-1.6076e-13,-0.21093,0,0,0.16667,-7.8949e-16,0,0.66667
0.70993,0.86622,4.2596,0.54933,12.93,24.927,-6.2398,2.0799,-0.92589,-8.3197,-3.4617e-12,-0.46295,0,0,0.16667,-0,-0,0.66667
0.66129,0.83645,3.9678,0.50468,13.47,32.638,-5.3399,1.78,-1.0937,-7.1198,-3.4985e-12,-0.54685,0,0,0.16667,1.1842e-15,0,0.66667
0.33615,0.16339,2.0169,-0.50492,-21.336,104.71,2.7156,-0.9052,-1.0925,3.6208,-3.737e-12,-0.54625,0,0,0.16667,-0,-0,0.66667
0.20333,0.68331,1.22,0.27496,12.514,141.06,-0.89456,0.29819,-1.7333,-1.1927,-4.272e-10,-0.86666,0,0,0.16667,9.8686e-17,0,0.66667
0.40781,0.60288,2.4469,0.15432,6.0891,86.12,-1.0069,0.33564,-1.916,-1.3426,7.0965e-13,-0.95798,0,0,0.16667,-0,-0,0.66667
0.15077,0.59032,0.90462,0.13548,6.2786,156.13,-0.32681,0.10894,-1.9345,-0.43575,-2.5614e-09,-0.96725,0,0,0.16667,9.398e-17,0,0.66667
0.82633,0.26684,4.958,-0.34973,-5.1648,9.929,4.6239,-1.5413,-1.5653,6.1653,-1.1646e-09,-0.78266,0,0,0.16667,-1.579e-15,0,0.66667
0.71046,0.78904,4.2628,0.43356,10.138,24.631,-4.9285,1.6428,-1.3305,-6.5713,-2.2413e-12,-0.66526,0,0,0.16667,-0,-0,0.66667
0.40106,0.61814,2.4063,0.17722,7.0405,87.813,-1.1372,0.37906,-1.8877,-1.5162,1.0025e-12,-0.94383,0,0,0.16667,2.3747e-16,0,0.66667
0.17138,0.049424,1.0283,-0.67586,-31.414,150.38,1.8533,-0.61777,-0.37692,2.4711,-1.1847e-09,-0.18846,0,0,0.16667,1.9737e-16,1.9212e-16,0.66667
0.8758,0.63445,5.2548,0.20168,2.1462,5.4094,-2.826,0.94201,-1.8565,-3.7681,1.2576e-09,-0.92823,0,0,0.16667,-0,-0,0.66667
0.63906,0.89305,3.8344,0.58958,16.611,36.665,-6.0285,2.0095,-0.76444,-8.038,-1.5077e-12,-0.38222,0,0,0.16667,7.8949e-16,2.278e-16,0.66667
0.9966,0.21687,5.9796,-0.4247,0.030039,0.51156,6.772,-2.2573,-1.3594,9.0294,-2.2762e-07,-0.6797,0,0,0.16667,-1.8262e-15,0,0.66667
0.1011,0.98751,0.60659,0.73126,34.721,170.77,-1.1829,0.39429,-0.097238,-1.5771,-4.0466e-09,-0.048619,0,0,0.16667,-0,-0,0.66667
0.24485,0.66684,1.4691,0.25026,11.162,129.35,-0.9804,0.3268,-1.7763,-1.3072,-7.3742e-11,-0.88815,0,0,0.16667,-0,-0,0.66667
0.083655,0.23528,0.50193,-0.39709,-18.76,175.79,0.53149,-0.17716,-1.4381,0.70865,9.8903e-09,-0.71904,0,0,0.16667,-0,-0,0.66667
0.74474,0.00090398,4.4685,-0.74864,-16.002,20.451,8.9207,-2.9736,-0.0075092,11.894,5.4854e-12,-0.0037546,0,0,0.16667,-0,-0,0.66667
0.15958,0.2859,0.95745,-0.32115,-14.87,153.62,0.81997,-0.27332,-1.6335,1.0933,1.8398e-09,-0.81677,0,0,0.16667,-3.9475e-16,0,0.66667
0.88166,0.70227,5.29,0.30341,3.0949,5.0965,-4.2801,1.4267,-1.6712,-5.7067,4.3188e-09,-0.8356,0,0,0.16667,-1.579e-15,0,0.66667
0.49148,0.99858,2.9489,0.74787,27.224,66.906,-5.881,1.9603,-0.011214,-7.8414,-9.6323e-13,-0.005607,0,0,0.16667,-9.8686e-16,0,0.66667
0.52617,0.41923,3.157,-0.12116,-4.1366,58.496,1.02,-0.33999,-1.9467,1.36,1.2135e-13,-0.97333,0,0,0.16667,-0,-0,0.66667
0.04252,0.78422,0.25512,0.42633,20.258,187.92,-0.29004,0.096681,-1.3539,-0.38672,4.9412e-08,-0.67695,0,0,0.16667,9.8686e-17,0,0.66667
0.61405,0.85366,3.6843,0.53049,15.708,41.121,-5.212,1.7373,-0.99855,-6.9493,-1.3891e-12,-0.49928,0,0,0.16667,-0,-0,0.66667
0.22761,0.71451,1.3657,0.32177,14.491,134.21,-1.1718,0.39061,-1.6313,-1.5624,-1.5507e-10,-0.81565,0,0,0.16667,-0,-0,0.66667
0.2135,0.71716,1.281,0.32574,14.769,138.19,-1.1128,0.37092,-1.6229,-1.4837,-2.6917e-10,-0.81144,0,0,0.16667,4.4409e-16,0,0.66667
0.89532,0.2267,5.3719,-0.40995,-3.7365,4.3369,5.8726,-1.9575,-1.4018,7.8301,-1.1471e-08,-0.70089,0,0,0.16667,-0,-0,0.66667
0.88801,0.79504,5.3281,0.44257,4.3232,4.8927,-6.2881,2.096,-1.3034,-8.3841,8.7374e-09,-0.65168,0,0,0.16667,-0,-0,0.66667
0.0052652,0.64798,0.031591,0.22198,10.536,198.94,-0.0187,0.0062333,-1.824,-0.024933,-3.0972e-08,-0.91198,0,0,0.16667,-0,-0,0.66667
0.8323,0.28814,4.9938,-0.31778,-4.5349,9.2959,4.2319,-1.4106,-1.6406,5.6425,-1.4173e-09,-0.82028,0,0,0.16667,-0,-0,0.66667
0.9023,0.90172,5.4138,0.60259,5.2511,4.3637,-8.6994,2.8998,-0.70897,-11.599,2.8907e-08,-0.35449,0,0,0.16667,7.8949e-16,0,0.66667
0.51195,0.85414,3.0717,0.53122,18.661,61.974,-4.3513,1.4504,-0.99612,-5.8017,-1.3634e-13,-0.49806,0,0,0.16667,-0,-0,0.66667
0.65617,0.66839,3.937,0.25258,6.7732,33.178,-2.6518,0.88394,-1.7746,-3.5357,-4.2506e-12,-0.88729,0,0,0.16667,-0,-0,0.66667
0.76779,0.41411,4.6067,-0.12883,-2.4656,16.336,1.5827,-0.52755,-1.9414,2.1102,-7.2144e-11,-0.9707,0,0,0.16667,-0,-0,0.66667
0.68544,0.83276,4.1126,0.49915,12.54,28.638,-5.4742,1.8247,-1.1143,-7.2989,-4.7264e-12,-0.55717,0,0,0.16667,7.8949e-16,0,0.66667
0.45912,0.97478,2.7547,0.71217,26.938,74.283,-5.2315,1.7438,-0.19592,-6.9754,8.4333e-13,-0.097961,0,0,0.16667,-0,-0,0.66667
0.57345,0.11401,3.4407,-0.57899,-18.516,49.088,5.3123,-1.7708,-0.80716,7.0831,2.6912e-13,-0.40358,0,0,0.16667,-0,-0,0.66667
0.57406,0.77051,3.4444,0.40576,12.891,48.704,-3.7269,1.2423,-1.4139,-4.9692,-5.2203e-13,-0.70695,0,0,0.16667,-7.8949e-16,0,0.66667
0.84213,0.47502,5.0528,-0.037463,-0.50115,8.1451,0.50478,-0.16826,-1.9959,0.67303,-8.4138e-10,-0.99796,0,0,0.16667,-0,-0,0.66667
0.24044,0.97903,1.4427,0.71854,32.462,130.87,-2.7643,0.92143,-0.16304,-3.6857,-3.8558e-12,-0.081522,0,0,0.16667,3.9475e-16,0,0.66667
0.75723,0.56479,4.5434,0.097187,1.9344,17.683,-1.1775,0.39249,-1.9661,-1.57,3.3285e-11,-0.98307,0,0,0.16667,-0,-0,0.66667
0.81234,0.75023,4.874,0.37534,5.9634,11.408,-4.8785,1.6262,-1.502,-6.5046,7.3754e-10,-0.75101,0,0,0.16667,-0,-0,0.66667
0.79703,0.80607,4.7822,0.45911,7.8704,13.235,-5.8548,1.9516,-1.2524,-7.8064,2.1847e-10,-0.6262,0,0,0.16667,-3.9475e-16,0,0.66667
0.80771,0.26664,4.8462,-0.35005,-5.6809,11.865,4.5238,-1.5079,-1.5632,6.0317,-5.7472e-10,-0.78161,0,0,0.16667,-9.5652e-16,0,0.66667
0.82928,0.93794,4.9757,0.65691,9.7579,10.322,-8.7162,2.9054,-0.46787,-11.622,-1.9911e-09,-0.23393,0,0,0.16667,3.158e-15,0,0.66667
0.41752,0.65419,2.5051,0.23129,9.0445,83.753,-1.5451,0.51502,-1.8101,-2.0601,1.4124e-12,-0.90506,0,0,0.16667,-8.8818e-16,0,0.66667
0.61789,0.76972,3.7073,0.40459,11.839,40.213,-3.9998,1.3333,-1.4166,-5.3331,-2.3808e-12,-0.70829,0,0,0.16667,7.8949e-16,0,0.66667
0.75525,0.51887,4.5315,0.028308,0.56725,17.927,-0.34207,0.11402,-1.996,-0.45609,1.09e-11,-0.998,0,0,0.16667,-0,-0,0.66667
0.76977,0.0099375,4.6186,-0.73509,-14.36,17.161,9.0536,-3.0179,-0.078037,12.071,5.3075e-11,-0.039019,0,0,0.16667,-0,-0,0.66667
0.9586,0.017567,5.7516,-0.72365,-2.7871,2.1772,11.099,-3.6997,-0.13681,14.799,-4.0653e-06,-0.068406,0,0,0.16667,-5.4284e-15,0,0.66667
0.97508,0.037552,5.8505,-0.69367,-1.5806,1.6404,10.822,-3.6074,-0.28831,14.43,1.6706e-05,-0.14415,0,0,0.16667,-0,-0,0.66667
0.56473,0.92279,3.3884,0.63418,20.627,50.952,-5.7303,1.9101,-0.56994,-7.6405,3.828e-13,-0.28497,0,0,0.16667,-7.8949e-16,0,0.66667
0.46574,0.80396,2.7944,0.45595,16.971,72.365,-3.3976,1.1325,-1.2608,-4.5302,3.4417e-14,-0.63038,0,0,0.16667,-3.9475e-16,0,0.66667
0.83553,0.050552,5.0132,-0.67417,-9.694,9.7745,9.0126,-3.0042,-0.38253,12.017,1.704e-09,-0.19126,0,0,0.16667,-7.8949e-16,0,0.66667
0.21996,0.088681,1.3198,-0.61698,-28.066,136.53,2.1714,-0.72379,-0.64786,2.8952,-1.9779e-11,-0.32393,0,0,0.16667,3.9475e-16,0,0.66667
0.7664,0.7811,4.5984,0.42165,8.1832,16.841,-5.1705,1.7235,-1.3704,-6.894,1.0924e-10,-0.68518,0,0,0.16667,2.2204e-16,0,0.66667
0.19201,0.95311,1.1521,0.67967,31.35,144.48,-2.0881,0.69602,-0.3565,-2.7841,1.9095e-11,-0.17825,0,0,0.16667,-0,-0,0.66667
0.59163,0.43464,3.5498,-0.098046,-3.0027,44.978,0.92811,-0.30937,-1.967,1.2375,2.7206e-13,-0.98348,0,0,0.16667,-3.9475e-16,0,0.66667
0.60683,0.4064,3.641,-0.1404,-4.1786,42.059,1.3632,-0.4544,-1.9314,1.8176,5.1603e-13,-0.96569,0,0,0.16667,1.579e-15,0,0.66667
0.44184,0.77908,2.6511,0.41861,16.003,77.981,-2.9594,0.98647,-1.3772,-3.9459,1.0287e-12,-0.68861,0,0,0.16667,-7.8949e-16,0,0.66667
0.86455,0.66916,5.1873,0.25373,2.9448,6.345,-3.5098,1.1699,-1.7699,-4.6798,2.416e-09,-0.88497,0,0,0.16667,-0,-0,0.66667
0.54348,0.82878,3.2609,0.49316,16.517,55.121,-4.2884,1.4295,-1.1346,-5.7179,-3.3973e-13,-0.56732,0,0,0.16667,-0,-0,0.66667
0.49273,0.55387,2.9564,0.080802,2.8903,65.898,-0.63701,0.21234,-1.9756,-0.84935,-7.6988e-13,-0.9878,0,0,0.16667,7.8949e-16,0,0.66667
0.41813,0.22147,2.5088,-0.41779,-16.38,83.738,2.795,-0.93167,-1.3798,3.7267,-1.1142e-12,-0.6899,0,0,0.16667,1.579e-15,0,0.66667
0.062225,0.86446,0.37335,0.54669,25.99,182.12,-0.54428,0.18143,-0.93872,-0.72571,-8.9836e-08,-0.46936,0,0,0.16667,-0,1.9894e-16,0.66667
0.36215,0.97278,2.1729,0.70917,29.532,98.168,-4.1092,1.3697,-0.21245,-5.4789,7.0699e-13,-0.10622,0,0,0.16667,-0,-0,0.66667
0.092815,0.84327,0.55689,0.51491,24.344,173.12,-0.76466,0.25489,-1.0597,-1.0195,7.4432e-09,-0.52983,0,0,0.16667,-3.7007e-17,0,0.66667
0.56564,0.81434,3.3938,0.47151,15.225,50.497,-4.2673,1.4224,-1.2103,-5.6897,-5.3735e-14,-0.60517,0,0,0.16667,-1.579e-15,0,0.66667
0.6405,0.12523,3.843,-0.56215,-15.77,36.356,5.761,-1.9203,-0.87933,7.6813,1.3731e-12,-0.43967,0,0,0.16667,-0,-0,0.66667
0.76778,0.55578,4.6067,0.083668,1.6004,16.316,-1.0278,0.34261,-1.9757,-1.3704,7.1728e-11,-0.98783,0,0,0.16667,-0,-0,0.66667
0.63254,0.38361,3.7952,-0.17458,-4.9308,37.3,1.7669,-0.58896,-1.8904,2.3558,1.6107e-12,-0.94522,0,0,0.16667,1.579e-15,0,0.66667
0.18706,0.16559,1.1224,-0.50162,-23.073,145.79,1.5013,-0.50044,-1.1067,2.0018,2.387e-10,-0.55335,0,0,0.16667,-0,-0,0.66667
0.75024,0.28735,4.5015,-0.31897,-6.5405,18.796,3.8289,-1.2763,-1.6401,5.1053,-5.2785e-11,-0.82004,0,0,0.16667,-0,-0,0.66667
0.54886,0.83253,3.2932,0.49879,16.567,54,-4.3803,1.4601,-1.1156,-5.8404,-2.7445e-13,-0.55781,0,0,0.16667,-0,-0,0.66667
0.10217,0.51943,0.61302,0.029144,1.3674,170.31,-0.047643,0.015881,-1.9956,-0.063524,-6.4312e-09,-0.99778,0,0,0.16667,-0,-0,0.66667
0.024827,0.7116,0.14896,0.3174,15.074,193.15,-0.12608,0.042027,-1.6409,-0.16811,2.8953e-08,-0.82043,0,0,0.16667,-0,-0,0.66667
0.29875,0.048527,1.7925,-0.67721,-29.532,114.85,3.237,-1.079,-0.36954,4.316,-1.5532e-12,-0.18477,0,0,0.16667,-3.9475e-16,0,0.66667
0.69002,0.60901,4.1401,0.16351,4.0208,27.499,-1.8052,0.60173,-1.9047,-2.4069,-3.0749e-12,-0.95237,0,0,0.16667,1.579e-15,0,0.66667
0.93279,0.52742,5.5967,0.041127,0.23253,1.8474,-0.61381,0.2046,-1.9939,-0.81841,-1.3202e-08,-0.99694,0,0,0.16667,-0,-0,0.66667
0.9665,0.089648,5.799,-0.61553,-1.8293,1.5809,9.5185,-3.1728,-0.65376,12.691,3.4524e-07,-0.32688,0,0,0.16667,2.3685e-15,0,0.66667
0.76455,0.44707,4.5873,-0.079398,-1.5376,16.727,0.97126,-0.32375,-1.9785,1.295,-5.3894e-11,-0.98924,0,0,0.16667,-0,-0,0.66667
0.29325,0.24457,1.7595,-0.38314,-16.644,116.09,1.7977,-0.59923,-1.4781,2.3969,-3.3927e-12,-0.73904,0,0,0.16667,7.6576e-16,0,0.66667
0.62207,0.93099,3.7324,0.64648,18.926,39.859,-6.4345,2.1448,-0.51419,-8.5793,-5.8265e-13,-0.25709,0,0,0.16667,1.1842e-15,0,0.66667
0.2311,0.31647,1.3866,-0.2753,-12.37,133.21,1.0179,-0.33931,-1.7309,1.3572,1.3632e-10,-0.86546,0,0,0.16667,-0,-0,0.66667
0.75069,0.24721,4.5041,-0.37919,-7.7794,18.82,4.5544,-1.5181,-1.4908,6.0726,-5.0353e-11,-0.74541,0,0,0.16667,-1.9737e-16,0,0.66667
0.16587,0.0021379,0.9952,-0.74679,-34.856,152.01,1.9819,-0.66063,-0.01695,2.6425,-1.3533e-09,-0.0084749,0,0,0.16667,-0,-0,0.66667
0.75647,0.56323,4.5388,0.094842,1.8929,17.782,-1.1479,0.38264,-1.9681,-1.5306,3.0283e-11,-0.98406,0,0,0.16667,-3.158e-15,0,0.66667
0.86859,0.77441,5.2115,0.41161,4.6837,6.265,-5.7204,1.9068,-1.3967,-7.6272,5.0312e-09,-0.69834,0,0,0.16667,-2.7518e-16,0,0.66667
0.51951,0.49522,3.117,-0.0071758,-0.24729,59.926,0.059646,-0.019882,-1.9998,0.079528,-1.2059e-12,-0.99992,0,0,0.16667,1.3816e-15,0,0.66667
0.065635,0.96551,0.39381,0.69826,33.318,181.15,-0.73329,0.24443,-0.267,-0.97771,3.1038e-07,-0.1335,0,0,0.16667,-1.2336e-16,0,0.66667
0.44889,0.18768,2.6934,-0.46848,-17.789,76.35,3.3648,-1.1216,-1.2204,4.4864,-1.7786e-12,-0.61019,0,0,0.16667,1.579e-15,0,0.66667
0.83783,0.79776,5.027,0.44664,6.2215,8.989,-5.9873,1.9958,-1.2893,-7.9831,1.2009e-09,-0.64467,0,0,0.16667,-1.579e-15,0,0.66667
0.17975,0.31887,1.0785,-0.27169,-12.482,147.8,0.7814,-0.26047,-1.7366,1.0419,8.9864e-10,-0.8683,0,0,0.16667,3.9475e-16,0,0.66667
0.038559,0.64731,0.23135,0.22097,10.473,189.08,-0.13633,0.045443,-1.8252,-0.18177,1.3336e-08,-0.91258,0,0,0.16667,-0,-0,0.66667
0.73269,0.46514,4.3962,-0.052295,-1.1322,21.022,0.61306,-0.20435,-1.9915,0.81741,-5.6296e-12,-0.99577,0,0,0.16667,-7.8949e-16,0,0.66667
0.56304,0.50767,3.3782,0.011504,0.37041,50.694,-0.10363,0.034544,-2.001,-0.13818,-2.3168e-13,-1.0005,0,0,0.16667,-0,-0,0.66667
0.042061,0.4233,0.25236,-0.11506,-5.4474,188.04,0.077429,-0.02581,-1.9518,0.10324,1.535e-07,-0.97592,0,0,0.16667,-4.9343e-17,0,0.66667
0.98489,0.79755,5.9093,0.44633,0.47457,0.71712,-7.0333,2.3444,-1.2927,-9.3777,-3.6455e-09,-0.64636,0,0,0.16667,-1.579e-15,0,0.66667
0.56933,0.96942,3.416,0.70413,22.794,50.162,-6.4141,2.138,-0.23724,-8.5522,-1.6431e-14,-0.11862,0,0,0.16667,1.579e-15,0,0.66667
0.58516,0.34209,3.5109,-0.23686,-7.3519,46.323,2.2176,-0.7392,-1.8004,2.9568,6.6525e-13,-0.90019,0,0,0.16667,7.8949e-16,0,0.66667
0.78991,0.25661,4.7394,-0.36508,-6.4273,13.888,4.614,-1.538,-1.5252,6.1521,-3.1119e-10,-0.76258,0,0,0.16667,-0,-0,0.66667
0.90263,0.44197,5.4158,-0.087045,-0.72392,3.4875,1.2571,-0.41904,-1.9732,1.6762,3.3587e-09,-0.98662,0,0,0.16667,-0,-0,0.66667
0.060751,0.48691,0.3645,-0.019642,-0.92787,182.51,0.019092,-0.0063643,-1.9989,0.025456,-4.1706e-07,-0.99945,0,0,0.16667,9.8686e-17,0,0.66667
0.34851,0.42516,2.0911,-0.11226,-4.67,101.24,0.62599,-0.20866,-1.9542,0.83465,-1.8548e-12,-0.97708,0,0,0.16667,-0,-0,0.66667
0.20009,0.85509,1.2006,0.53263,24.389,142.09,-1.7052,0.5684,-0.99097,-2.2736,-2.6042e-10,-0.49549,0,0,0.16667,-0,-0,0.66667
0.46515,0.11181,2.7909,-0.58229,-21.768,72.665,4.3337,-1.4446,-0.79379,5.7782,-6.0929e-13,-0.3969,0,0,0.16667,-0,-0,0.66667
0.091468,0.023298,0.54881,-0.71505,-33.997,173.58,1.0465,-0.34882,-0.18238,1.3953,-3.1444e-07,-0.091188,0,0,0.16667,-0,1.4978e-16,0.66667
0.068086,0.34419,0.40851,-0.23372,-11.043,180.35,0.25461,-0.084869,-1.8061,0.33948,-1.4741e-08,-0.90304,0,0,0.16667,1.9737e-16,0,0.66667
0.30089,0.64732,1.8053,0.22098,9.5289,113.94,-1.0638,0.35461,-1.8258,-1.4185,1.5883e-12,-0.91292,0,0,0.16667,-0,-0,0.66667
0.90435,0.165,5.4261,-0.50251,-4.2322,3.9732,7.271,-2.4237,-1.1026,9.6947,-1.3566e-08,-0.55132,0,0,0.16667,-0,-0,0.66667
0.97554,0.09895,5.8533,-0.60157,-1.2701,1.3202,9.3898,-3.1299,-0.71254,12.52,2.3524e-06,-0.35627,0,0,0.16667,-3.158e-15,0,0.66667
0.76372,0.42414,4.5823,-0.11379,-2.2113,16.847,1.3904,-0.46348,-1.9541,1.8539,-6.3537e-11,-0.97706,0,0,0.16667,-0,-0,0.66667
0.00074091,0.7009,0.0044455,0.30134,14.317,200.28,-0.0035723,0.0011907,-1.678,-0.0047631,-7.2493e-08,-0.83901,0,0,0.16667,-0,-0,0.66667
0.73522,0.5078,4.4113,0.011694,0.25108,20.661,-0.13756,0.045854,-2.0007,-0.18342,5.4125e-12,-1.0004,0,0,0.16667,-3.158e-15,0,0.66667
0.021993,0.48901,0.13196,-0.016483,-0.7812,193.98,0.0057995,-0.0019345,-1.9977,0.007732,-2.0518e-06,-0.99887,0,0,0.16667,-5.0716e-17,0,0.66667
0.16857,0.88915,1.0114,0.58373,27.089,151.13,-1.5743,0.52478,-0.78792,-2.0991,-5.9619e-10,-0.39396,0,0,0.16667,-0,-0,0.66667
0.010514,0.5907,0.063084,0.13605,6.4529,197.38,-0.022887,0.007629,-1.9341,-0.030516,6.2893e-08,-0.96705,0,0,0.16667,-3.0551e-18,0,0.66667
0.14913,0.66125,0.89476,0.24188,11.226,156.63,-0.57713,0.19238,-1.7912,-0.76951,-2.5531e-09,-0.89562,0,0,0.16667,-0,-0,0.66667
0.68751,0.849,4.125,0.52349,13.094,28.353,-5.7585,1.9195,-1.0277,-7.678,-4.472e-12,-0.51387,0,0,0.16667,-0,-0,0.66667
0.70202,0.66322,4.2121,0.24483,5.8326,25.678,-2.75,0.91666,-1.788,-3.6666,-1.4366e-12,-0.89401,0,0,0.16667,-1.579e-15,0,0.66667
0.37108,0.62406,2.2265,0.18608,7.6002,95.415,-1.1048,0.36827,-1.8776,-1.4731,2.3207e-12,-0.93878,0,0,0.16667,2.9606e-16,0,0.66667
0.73119,0.38961,4.3871,-0.16559,-3.607,21.284,1.9373,-0.64576,-1.902,2.583,-1.5974e-11,-0.951,0,0,0.16667,-0,-0,0.66667
0.8473,0.93495,5.0838,0.65242,8.741,8.6329,-8.8448,2.9483,-0.48708,-11.793,8.038e-09,-0.24354,0,0,0.16667,1.7764e-15,0,0.66667
0.13036,0.34722,0.78215,-0.22917,-10.692,162.08,0.47798,-0.15933,-1.813,0.63731,2.6027e-09,-0.90652,0,0,0.16667,-0,-0,0.66667
0.087407,0.31784,0.52444,-0.27324,-12.877,174.67,0.38213,-0.12738,-1.7338,0.50951,1.3066e-09,-0.86692,0,0,0.16667,1.9737e-16,0,0.66667
0.37192,0.38719,2.2315,-0.16922,-6.9054,95.192,1.007,-0.33566,-1.8978,1.3427,-1.4306e-12,-0.9489,0,0,0.16667,-0,-0,0.66667
0.40388,0.36851,2.4233,-0.19723,-7.8158,87.115,1.2746,-0.42485,-1.8621,1.6994,-1.2432e-12,-0.93107,0,0,0.16667,-0,-0,0.66667
0.2764,0.26887,1.6584,-0.3467,-15.211,120.66,1.5333,-0.51109,-1.5716,2.0444,6.0048e-12,-0.78578,0,0,0.16667,3.9475e-16,0,0.66667
0.75417,0.94955,4.525,0.67432,13.882,18.983,-8.1369,2.7123,-0.38243,-10.849,-2.1778e-12,-0.19121,0,0,0.16667,-0,-0,0.66667
0.32179,0.38059,1.9307,-0.17911,-7.6085,108.32,0.92216,-0.30739,-1.8852,1.2295,-2.892e-12,-0.9426,0,0,0.16667,-0,-0,0.66667
0.80014,0.32556,4.8009,-0.26167,-4.3846,12.582,3.3499,-1.1166,-1.756,4.4666,-4.4561e-10,-0.87802,0,0,0.16667,-0,-0,0.66667
0.91131,0.010434,5.4679,-0.73435,-5.9576,4.2629,10.708,-3.5692,-0.081605,14.277,2.9029e-08,-0.040803,0,0,0.16667,3.158e-15,0,0.66667
0.51315,0.34174,3.0789,-0.23739,-8.2698,61.4,1.9491,-0.6497,-1.8007,2.5988,-2.0317e-13,-0.90037,0,0,0.16667,1.9737e-16,0,0.66667
0.42942,0.85161,2.5765,0.52741,20.492,81.097,-3.6237,1.2079,-1.0099,-4.8316,1.0809e-12,-0.50493,0,0,0.16667,-0,-0,0.66667
0.091595,0.89346,0.54957,0.59018,27.96,173.5,-0.86492,0.28831,-0.76159,-1.1532,3.5264e-08,-0.38079,0,0,0.16667,-0,2.2398e-16,0.66667
0.27368,0.57463,1.6421,0.11194,4.9069,121.33,-0.49018,0.16339,-1.954,-0.65357,-7.9955e-12,-0.97699,0,0,0.16667,-0,-0,0.66667
0.88665,0.22596,5.3199,-0.41106,-4.0518,4.9236,5.8314,-1.9438,-1.3989,7.7753,-6.7144e-09,-0.69944,0,0,0.16667,-0,-0,0.66667
0.24594,0.84764,1.4757,0.52147,23.359,129.18,-2.052,0.68401,-1.0332,-2.736,-1.1389e-12,-0.51662,0,0,0.16667,7.8949e-16,0,0.66667
0.62119,0.40113,3.7271,-0.14831,-4.2886,39.365,1.474,-0.49134,-1.9218,1.9654,1.3249e-12,-0.9609,0,0,0.16667,7.8949e-16,0,0.66667
0.49501,0.13347,2.97,-0.5498,-19.775,65.773,4.3545,-1.4515,-0.92443,5.8059,-7.7049e-13,-0.46222,0,0,0.16667,-0,-0,0.66667
0.094373,0.39387,0.56624,-0.15919,-7.4845,172.61,0.24038,-0.080125,-1.9109,0.3205,2.9404e-09,-0.95545,0,0,0.16667,-0,-0,0.66667
0.89937,0.2333,5.3962,-0.40005,-3.5033,4.0579,5.7567,-1.9189,-1.4295,7.6756,-1.1117e-08,-0.71473,0,0,0.16667,-1.579e-15,0,0.66667
0.067771,0.42028,0.40662,-0.11958,-5.6454,180.44,0.12966,-0.043221,-1.9479,0.17288,1.8274e-08,-0.97397,0,0,0.16667,-0,-0,0.66667
0.6807,0.99542,4.0842,0.74312,19.134,29.953,-8.0935,2.6978,-0.035866,-10.791,4.6096e-13,-0.017933,0,0,0.16667,-3.9475e-16,0,0.66667
0.972,0.03792,5.832,-0.69312,-1.7781,1.7069,10.779,-3.5931,-0.29188,14.373,1.471e-05,-0.14594,0,0,0.16667,-0,-0,0.66667
0.70937,0.60707,4.2562,0.16061,3.7404,24.488,-1.8229,0.60762,-1.9069,-2.4305,1.1173e-12,-0.95345,0,0,0.16667,-0,-0,0.66667
0.32591,0.44267,1.9555,-0.085998,-3.64,107.2,0.44844,-0.14948,-1.9744,0.59792,-1.1036e-12,-0.98721,0,0,0.16667,-7.8949e-16,0,0.66667
0.07344,0.089115,0.44064,-0.61633,-29.307,178.84,0.72421,-0.2414,-0.64916,0.96562,1.9665e-07,-0.32458,0,0,0.16667,-0,-0,0.66667
0.57974,0.45462,3.4784,-0.068069,-2.1298,47.32,0.63139,-0.21046,-1.9838,0.84185,2.5813e-14,-0.99192,0,0,0.16667,-0,-0,0.66667
0.73352,0.54604,4.4011,0.069061,1.4914,20.91,-0.81052,0.27017,-1.9838,-1.0807,9.3048e-12,-0.99191,0,0,0.16667,-1.579e-15,0,0.66667
0.35885,0.30163,2.1531,-0.29756,-12.297,98.623,1.7085,-0.56949,-1.6863,2.2779,-2.6259e-12,-0.84317,0,0,0.16667,-3.9475e-16,0,0.66667
0.65375,0.45072,3.9225,-0.073922,-1.9891,33.495,0.77322,-0.25774,-1.9804,1.031,1.5633e-12,-0.99021,0,0,0.16667,-0,-0,0.66667
0.56659,0.28236,3.3995,-0.32645,-10.485,50.128,2.9595,-0.98648,-1.6217,3.9459,7.1054e-13,-0.81083,0,0,0.16667,-0,-0,0.66667
0.034106,0.81002,0.20464,0.46503,22.128,190.41,-0.25377,0.084589,-1.2319,-0.33836,1.3427e-07,-0.61597,0,0,0.16667,1.2336e-17,0,0.66667
0.92069,0.71045,5.5242,0.31568,2.1566,2.6822,-4.6503,1.5501,-1.6466,-6.2004,1.4359e-09,-0.82331,0,0,0.16667,1.579e-15,0,0.66667
0.38001,0.39284,2.28,-0.16074,-6.512,93.122,0.97733,-0.32578,-1.907,1.3031,-6.3105e-13,-0.9535,0,0,0.16667,-3.9475e-16,0,0.66667
0.3794,0.47358,2.2764,-0.039633,-1.6055,93.252,0.24059,-0.080196,-1.9942,0.32078,-2.0094e-13,-0.99712,0,0,0.16667,-0,-0,0.66667
0.84636,0.95139,5.0781,0.67708,9.1466,8.7911,-9.1689,3.0563,-0.36975,-12.225,5.2362e-09,-0.18488,0,0,0.16667,-1.579e-15,0,0.66667
0.48428,0.74198,2.9057,0.36298,13.175,67.985,-2.8125,0.9375,-1.5333,-3.75,-2.8422e-13,-0.76663,0,0,0.16667,-3.9475e-16,0,0.66667
0.45107,0.58382,2.7064,0.12573,4.736,75.588,-0.90744,0.30248,-1.9441,-1.2099,2.2748e-13,-0.97203,0,0,0.16667,-0,-0,0.66667
0.63986,0.077903,3.8391,-0.63315,-17.842,36.615,6.482,-2.1607,-0.57551,8.6426,6.8079e-13,-0.28775,0,0,0.16667,-7.8949e-16,0,0.66667
0.21177,0.37721,1.2706,-0.18419,-8.3436,138.64,0.6241,-0.20803,-1.8791,0.83213,2.0826e-10,-0.93956,0,0,0.16667,7.8949e-16,0,0.66667
0.5283,0.65954,3.1698,0.2393,8.1552,58.095,-2.0228,0.67426,-1.797,-2.697,-1.5477e-13,-0.89852,0,0,0.16667,-0,-0,0.66667
0.66857,0.73875,4.0114,0.35812,9.345,31.187,-3.8309,1.277,-1.5436,-5.1078,-4.9682e-12,-0.77178,0,0,0.16667,-0,-0,0.66667
0.53878,0.53461,3.2327,0.051909,1.7382,55.771,-0.44748,0.14916,-1.9899,-0.59664,-1.0064e-13,-0.99497,0,0,0.16667,-0,-0,0.66667
0.70876,0.51033,4.2526,0.015493,0.36104,24.533,-0.17569,0.058563,-1.998,-0.23425,7.469e-13,-0.99901,0,0,0.16667,-3.158e-15,0,0.66667
0.59854,0.27236,3.5912,-0.34145,-10.36,43.805,3.2699,-1.09,-1.5847,4.3599,1.1442e-12,-0.79233,0,0,0.16667,7.8949e-16,0,0.66667
0.84141,0.97782,5.0484,0.71673,10.011,9.3616,-9.649,3.2163,-0.17369,-12.865,6.2328e-10,-0.086844,0,0,0.16667,-0,-0,0.66667
0.87917,0.69178,5.275,0.28767,2.9921,5.2564,-4.0465,1.3488,-1.7058,-5.3954,3.5472e-09,-0.85288,0,0,0.16667,-0,-0,0.66667
0.097839,0.91423,0.58704,0.62134,29.425,171.68,-0.97267,0.32422,-0.62685,-1.2969,-1.6756e-10,-0.31343,0,0,0.16667,-0,-0,0.66667
0.25859,0.81313,1.5516,0.46969,20.871,125.64,-1.9433,0.64778,-1.2157,-2.5911,-7.768e-12,-0.60784,0,0,0.16667,7.8949e-16,0,0.66667
0.054656,0.72675,0.32794,0.34013,16.12,184.33,-0.29744,0.099147,-1.5875,-0.39659,2.1738e-08,-0.79377,0,0,0.16667,-0,-0,0.66667
0.22889,0.72613,1.3734,0.3392,15.271,133.85,-1.2422,0.41408,-1.5901,-1.6563,-1.3851e-10,-0.79505,0,0,0.16667,-0,-0,0.66667
0.72092,0.92251,4.3255,0.63376,14.505,23.489,-7.3102,2.4367,-0.57189,-9.747,-1.9047e-12,-0.28594,0,0,0.16667,1.579e-15,0,0.66667
0.078545,0.26805,0.47127,-0.34793,-16.438,177.28,0.43725,-0.14575,-1.5707,0.583,5.0531e-09,-0.78535,0,0,0.16667,-0,-0,0.66667
0.15512,0.29818,0.93072,-0.30273,-14.034,154.9,0.75136,-0.25045,-1.6747,1.0018,1.9734e-09,-0.83737,0,0,0.16667,-1.9737e-16,0,0.66667
0.77077,0.53238,4.6246,0.04857,0.91812,15.931,-0.59898,0.19966,-1.9919,-0.79864,1.323e-11,-0.99594,0,0,0.16667,3.158e-15,0,0.66667
0.44433,0.61235,2.666,0.16852,6.3988,77.212,-1.1981,0.39936,-1.8976,-1.5974,4.9616e-13,-0.94879,0,0,0.16667,-0,-0,0.66667
0.29012,0.25853,1.7407,-0.36221,-15.761,116.92,1.6813,-0.56045,-1.5324,2.2418,-2.0921e-12,-0.7662,0,0,0.16667,-0,-0,0.66667
0.64398,0.052056,3.8639,-0.67192,-18.799,35.973,6.9233,-2.3078,-0.39436,9.231,4.432e-13,-0.19718,0,0,0.16667,-7.8949e-16,0,0.66667
0.88694,0.78263,5.3216,0.42394,4.173,4.9289,-6.0162,2.0054,-1.3617,-8.0216,7.3567e-09,-0.68083,0,0,0.16667,-3.158e-15,0,0.66667
0.037605,0.21276,0.22563,-0.43086,-20.484,189.37,0.25924,-0.086415,-1.3391,0.34566,-7.7865e-08,-0.66957,0,0,0.16667,-4.9343e-17,0,0.66667
0.69309,0.34974,4.1586,-0.22539,-5.502,27.054,2.4995,-0.83316,-1.8187,3.3326,2.5646e-12,-0.90936,0,0,0.16667,1.579e-15,0,0.66667
0.66855,0.79927,4.0113,0.4489,11.748,31.32,-4.8018,1.6006,-1.283,-6.4024,-4.3521e-12,-0.64149,0,0,0.16667,-7.8949e-16,0,0.66667
0.86801,0.95452,5.2081,0.68178,7.9995,6.9943,-9.4687,3.1562,-0.3458,-12.625,-4.9433e-09,-0.1729,0,0,0.16667,5.5105e-16,0,0.66667
0.19637,0.81264,1.1782,0.46895,21.475,143.12,-1.4734,0.49114,-1.2183,-1.9646,-1.6518e-10,-0.60913,0,0,0.16667,7.8949e-16,0,0.66667
0.71279,0.15627,4.2768,-0.5156,-12.016,24.429,5.8803,-1.9601,-1.0551,7.8404,1.4433e-12,-0.52755,0,0,0.16667,3.158e-15,0,0.66667
0.1039,0.056099,0.62341,-0.66585,-31.534,169.92,1.1069,-0.36897,-0.42293,1.4759,-9.298e-08,-0.21146,0,0,0.16667,9.8686e-17,0,0.66667
0.056626,0.54676,0.33976,0.070139,3.3153,183.73,-0.063547,0.021182,-1.9811,-0.08473,-1.2573e-07,-0.99057,0,0,0.16667,-9.8686e-17,0,0.66667
0.6808,0.40741,4.0848,-0.13889,-3.4985,28.971,1.5129,-0.50429,-1.9314,2.0172,2.9025e-12,-0.9657,0,0,0.16667,-1.579e-15,0,0.66667
0.022635,0.96403,0.13581,0.69604,33.336,193.82,-0.25208,0.084035,-0.27675,-0.3361,1.5218e-05,-0.13837,0,0,0.16667,3.7007e-17,0,0.66667
0.044299,0.56065,0.26579,0.090972,4.3058,187.37,-0.06448,0.021493,-1.9717,-0.085973,-3.3946e-07,-0.98584,0,0,0.16667,-4.9343e-17,0,0.66667
0.036953,0.65012,0.22172,0.22519,10.675,189.55,-0.13314,0.04438,-1.819,-0.17752,1.7868e-08,-0.9095,0,0,0.16667,-4.9343e-17,0,0.66667
0.46541,0.98725,2.7925,0.73087,27.461,72.847,-5.4425,1.8142,-0.10019,-7.2567,-3.5083e-13,-0.050094,0,0,0.16667,-0,-0,0.66667
0.75787,0.97817,4.5472,0.71726,14.618,18.62,-8.6975,2.8992,-0.16951,-11.597,6.7963e-12,-0.084757,0,0,0.16667,-0,-0,0.66667
0.9922,0.35965,5.9532,-0.21052,-0.043907,0.20105,3.342,-1.114,-1.8409,4.4561,-2.1256e-08,-0.92044,0,0,0.16667,-0,-0,0.66667
0.22661,0.051699,1.3596,-0.67245,-30.543,134.7,2.4381,-0.81271,-0.39083,3.2508,3.0418e-12,-0.19541,0,0,0.16667,1.9737e-16,0,0.66667
0.79238,0.9928,4.7543,0.73919,13.191,14.475,-9.3716,3.1239,-0.056694,-12.495,2.3988e-11,-0.028347,0,0,0.16667,1.579e-15,1.5053e-16,0.66667
0.79525,0.63474,4.7715,0.20211,3.4567,13.077,-2.5716,0.85721,-1.8553,-3.4288,3.4706e-10,-0.92765,0,0,0.16667,-0,-0,0.66667
0.87224,0.73008,5.2335,0.34512,3.8037,5.8635,-4.8165,1.6055,-1.5763,-6.4219,4.3693e-09,-0.78816,0,0,0.16667,-0,-0,0.66667
0.31426,0.1988,1.8855,-0.4518,-19.377,110.47,2.2717,-0.75723,-1.2746,3.0289,-5.1121e-12,-0.63728,0,0,0.16667,-7.8949e-16,0,0.66667
0.13293,0.97676,0.79755,0.71514,33.682,161.49,-1.521,0.50699,-0.18047,-2.0279,-1.4273e-09,-0.090234,0,0,0.16667,-0,-0,0.66667
0.7967,0.4663,4.7802,-0.050555,-0.85701,12.83,0.64444,-0.21481,-1.9934,0.85925,-3.1122e-11,-0.99669,0,0,0.16667,3.9475e-16,0,0.66667
0.56746,0.72882,3.4048,0.34323,11.011,49.968,-3.1163,1.0388,-1.5802,-4.1551,-1.2699e-12,-0.7901,0,0,0.16667,1.579e-15,0,0.66667
0.41465,0.95374,2.4879,0.68061,26.982,84.912,-4.5155,1.5052,-0.35142,-6.0207,6.2306e-13,-0.17571,0,0,0.16667,-7.8949e-16,0,0.66667
0.058642,0.28368,0.35185,-0.32448,-15.367,183.15,0.30445,-0.10148,-1.6261,0.40593,-1.7117e-08,-0.81304,0,0,0.16667,-0,-0,0.66667
0.0065569,0.5739,0.039341,0.11085,5.2572,198.56,-0.011629,0.0038766,-1.955,-0.015505,3.4705e-07,-0.97748,0,0,0.16667,-0,-0,0.66667
0.31602,0.75669,1.8961,0.38504,16.471,109.95,-1.9469,0.64896,-1.4728,-2.5959,5.4449e-12,-0.73639,0,0,0.16667,-0,-0,0.66667
0.27146,0.081049,1.6288,-0.62843,-27.832,122.22,2.7295,-0.90982,-0.59454,3.6393,-2.8577e-12,-0.29727,0,0,0.16667,-0,-0,0.66667
0.47572,0.10702,2.8543,-0.58947,-21.76,70.224,4.4868,-1.4956,-0.76305,5.9824,-4.6541e-13,-0.38153,0,0,0.16667,-7.8949e-16,0,0.66667
0.92361,0.70004,5.5417,0.30007,1.9694,2.5088,-4.4343,1.4781,-1.6801,-5.9124,6.4378e-10,-0.84007,0,0,0.16667,1.579e-15,0,0.66667
0.41668,0.22976,2.5001,-0.40536,-15.912,84.081,2.7025,-0.90084,-1.4147,3.6034,-9.5057e-13,-0.70734,0,0,0.16667,-0,-0,0.66667
0.28788,0.10823,1.7273,-0.58766,-25.738,117.7,2.7068,-0.90228,-0.77064,3.6091,-4.5115e-12,-0.38532,0,0,0.16667,-3.9475e-16,0,0.66667
0.84525,0.91623,5.0715,0.62435,8.446,8.7354,-8.4436,2.8145,-0.6146,-11.258,-2.544e-09,-0.3073,0,0,0.16667,-0,-0,0.66667
0.30695,0.78329,1.8417,0.42494,18.307,112.41,-2.087,0.69566,-1.3579,-2.7826,4.6823e-12,-0.67897,0,0,0.16667,-0,-0,0.66667
0.91558,0.72742,5.4935,0.34113,2.49,2.9962,-4.9973,1.6658,-1.5851,-6.6631,6.7465e-09,-0.79257,0,0,0.16667,-0,-0,0.66667
0.86341,0.41234,5.1805,-0.13149,-1.5321,6.3292,1.8165,-0.6055,-1.9383,2.422,7.0487e-10,-0.96915,0,0,0.16667,3.158e-15,0,0.66667
0.63882,0.45407,3.8329,-0.068897,-1.9176,36.125,0.70421,-0.23474,-1.9833,0.93894,9.9937e-13,-0.99166,0,0,0.16667,7.8949e-16,0,0.66667
0.74768,0.11919,4.4861,-0.57122,-11.951,19.589,6.8334,-2.2778,-0.84043,9.1112,-1.3208e-11,-0.42022,0,0,0.16667,1.1842e-15,0,0.66667
0.15732,0.51803,0.94394,0.02704,1.25,154.23,-0.068064,0.022688,-1.9981,-0.090752,-2.9525e-10,-0.99904,0,0,0.16667,-0,-0,0.66667
0.60287,0.40279,3.6172,-0.14582,-4.3734,42.817,1.4065,-0.46885,-1.924,1.8754,8.9251e-13,-0.96199,0,0,0.16667,9.6798e-16,0,0.66667
0.32704,0.77317,1.9622,0.40975,17.397,107.04,-2.1441,0.71469,-1.4041,-2.8587,4.845e-12,-0.70203,0,0,0.16667,-0,-0,0.66667
0.48868,0.32935,2.9321,-0.25597,-9.2205,66.895,2.0014,-0.66713,-1.7661,2.6685,-1.5166e-13,-0.88305,0,0,0.16667,-0,-0,0.66667
0.22539,0.050825,1.3523,-0.67376,-30.622,135.05,2.4297,-0.8099,-0.38456,3.2396,1.257e-12,-0.19228,0,0,0.16667,3.9475e-16,0,0.66667
0.90196,0.60304,5.4117,0.15455,1.297,3.5687,-2.2304,0.74347,-1.9144,-2.9739,-3.3417e-09,-0.9572,0,0,0.16667,-0,-0,0.66667
0.41153,0.42271,2.4692,-0.11593,-4.5562,85.186,0.76334,-0.25445,-1.951,1.0178,-3.8319e-13,-0.97549,0,0,0.16667,-0,-0,0.66667
0.47673,0.70617,2.8604,0.30926,11.321,69.671,-2.3589,0.78632,-1.6585,-3.1453,2.7733e-13,-0.82923,0,0,0.16667,-0,-0,0.66667
0.7214,0.15836,4.3284,-0.51246,-11.637,23.151,5.9151,-1.9717,-1.0673,7.8867,4.8779e-12,-0.53363,0,0,0.16667,-0,-0,0.66667
0.1222,0.17644,0.73318,-0.48533,-22.784,164.52,0.9489,-0.3163,-1.1623,1.2652,5.2546e-09,-0.58115,0,0,0.16667,-0,-0,0.66667
0.50307,0.68793,3.0184,0.28189,9.9652,63.67,-2.2689,0.75631,-1.7186,-3.0253,-2.3803e-13,-0.85931,0,0,0.16667,-0,-0,0.66667
0.81315,0.36156,4.8789,-0.20766,-3.265,11.111,2.7017,-0.90056,-1.8476,3.6022,-6.098e-10,-0.92382,0,0,0.16667,-0,-0,0.66667
0.67734,0.69818,4.0641,0.29728,7.5764,29.661,-3.2217,1.0739,-1.6847,-4.2956,-5.1579e-12,-0.84234,0,0,0.16667,-0,-0,0.66667
0.32165,0.80098,1.9299,0.45147,19.26,108.5,-2.3234,0.77448,-1.274,-3.0979,4.9056e-12,-0.63698,0,0,0.16667,-0,-0,0.66667
0.71067,0.039029,4.264,-0.69146,-16.367,25.15,7.8623,-2.6208,-0.29893,10.483,-4.7073e-14,-0.14947,0,0,0.16667,-0,-0,0.66667
0.93444,0.58484,5.6066,0.12727,0.70264,1.8085,-1.9028,0.63426,-1.9423,-2.537,1.0729e-08,-0.97113,0,0,0.16667,-7.8949e-16,0,0.66667
0.89478,0.50953,5.3687,0.014295,0.12846,3.9718,-0.20465,0.068216,-1.9986,-0.27287,4.0729e-08,-0.99932,0,0,0.16667,-3.158e-15,0,0.66667
0.74223,0.14996,4.4534,-0.52505,-11.162,20.228,6.2354,-2.0785,-1.0189,8.3139,-1.4532e-11,-0.50943,0,0,0.16667,-0,-0,0.66667
0.2661,0.93073,1.5966,0.64609,28.719,123.71,-2.7508,0.91694,-0.51737,-3.6677,4.3032e-13,-0.25869,0,0,0.16667,1.9737e-16,0,0.66667
0.37249,0.86234,2.2349,0.54351,22.318,95.312,-3.2392,1.0797,-0.94952,-4.319,1.8758e-12,-0.47476,0,0,0.16667,-4.4111e-16,0,0.66667
0.55842,0.31668,3.3505,-0.27499,-8.9445,51.758,2.4569,-0.81897,-1.7312,3.2759,4.3077e-13,-0.86559,0,0,0.16667,-0,-0,0.66667
0.38105,0.070133,2.2863,-0.6448,-26.358,93.253,3.9312,-1.3104,-0.52076,5.2416,-5.2891e-13,-0.26038,0,0,0.16667,-0,-0,0.66667
0.45575,0.84494,2.7345,0.51742,19.519,74.784,-3.773,1.2577,-1.0493,-5.0306,1.3323e-13,-0.52466,0,0,0.16667,1.579e-15,0,0.66667
0.79353,0.18086,4.7612,-0.47872,-8.3438,13.673,6.078,-2.026,-1.1851,8.104,-2.0657e-10,-0.59257,0,0,0.16667,-0,-0,0.66667
0.10394,0.71371,0.62364,0.32057,15.068,169.82,-0.53312,0.17771,-1.6341,-0.71082,-6.3273e-09,-0.81706,0,0,0.16667,-0,-0,0.66667
0.973,0.92263,5.838,0.63395,1.5156,1.4804,-9.8692,3.2897,-0.57014,-13.159,-1.835e-06,-0.28507,0,0,0.16667,-0,-0,0.66667
0.70462,0.8528,4.2277,0.52921,12.635,25.691,-5.9662,1.9887,-1.0049,-7.955,-3.185e-12,-0.50245,0,0,0.16667,-0,-0,0.66667
0.86473,0.52076,5.1884,0.031139,0.3589,6.1844,-0.43083,0.14361,-1.9955,-0.57444,-1.5127e-10,-0.99774,0,0,0.16667,-0,-0,0.66667
0.78168,0.68811,4.6901,0.28216,5.1269,14.75,-3.529,1.1763,-1.7196,-4.7053,2.2098e-10,-0.85979,0,0,0.16667,-0,-0,0.66667
0.43218,0.39892,2.5931,-0.15162,-5.8334,80.134,1.0484,-0.34947,-1.9175,1.3979,-4.0934e-13,-0.95875,0,0,0.16667,-3.9475e-16,0,0.66667
0.94251,0.66326,5.6551,0.24489,1.1851,1.573,-3.693,1.231,-1.7861,-4.924,-4.5775e-09,-0.89306,0,0,0.16667,-0,-0,0.66667
0.25309,0.76368,1.5185,0.39553,17.603,127.12,-1.6016,0.53388,-1.4433,-2.1355,-3.616e-11,-0.72166,0,0,0.16667,-0,-0,0.66667
0.046248,0.68612,0.27749,0.27918,13.232,186.81,-0.20659,0.068862,-1.7252,-0.27545,2.3871e-08,-0.86261,0,0,0.16667,3.1518e-17,0,0.66667
0.096878,0.058385,0.58127,-0.66242,-31.413,171.98,1.0268,-0.34226,-0.44025,1.3691,4.1818e-08,-0.22012,0,0,0.16667,-1.4803e-16,0,0.66667
0.20074,0.92202,1.2044,0.63304,29.055,141.97,-2.0332,0.67773,-0.57503,-2.7109,-2.076e-10,-0.28752,0,0,0.16667,-3.9475e-16,0,0.66667
0.53908,0.92003,3.2345,0.63004,21.345,56.273,-5.4343,1.8114,-0.5871,-7.2457,-6.7502e-14,-0.29355,0,0,0.16667,-0,-0,0.66667
0.2236,0.96428,1.3416,0.69642,31.701,135.56,-2.4916,0.83052,-0.27528,-3.3221,-1.215e-12,-0.13764,0,0,0.16667,1.9737e-16,0,0.66667
0.83532,0.38831,5.0119,-0.16754,-2.3377,8.8439,2.2392,-0.74639,-1.8987,2.9856,-9.7426e-10,-0.94935,0,0,0.16667,-0,-0,0.66667
0.0093387,0.58342,0.056032,0.12514,5.9351,197.73,-0.018698,0.0062325,-1.9431,-0.02493,-1.2833e-07,-0.97154,0,0,0.16667,1.2336e-17,0,0.66667
0.7459,0.015099,4.4754,-0.72735,-15.463,20.232,8.6805,-2.8935,-0.11809,11.574,-2.9665e-13,-0.059044,0,0,0.16667,3.158e-15,0,0.66667
0.96901,0.0082624,5.814,-0.73761,-2.1464,1.9431,11.436,-3.812,-0.06712,15.248,-4.7121e-06,-0.03356,0,0,0.16667,-0,-0,0.66667
0.26718,0.74307,1.6031,0.36461,16.089,123.21,-1.5587,0.51956,-1.5282,-2.0782,-1.6199e-11,-0.7641,0,0,0.16667,-0,-0,0.66667
0.62382,0.32965,3.7429,-0.25552,-7.3604,38.952,2.5504,-0.85012,-1.7684,3.4005,2.0783e-12,-0.88422,0,0,0.16667,7.8949e-16,0,0.66667
0.71478,0.52636,4.2887,0.039541,0.90529,23.629,-0.45221,0.15074,-1.9944,-0.60295,7.1271e-13,-0.99721,0,0,0.16667,7.8949e-16,0,0.66667
0.32696,0.7978,1.9617,0.4467,18.981,107.09,-2.3368,0.77894,-1.2911,-3.1158,4.7353e-12,-0.64555,0,0,0.16667,-7.8194e-16,0,0.66667
0.43313,0.90443,2.5988,0.60665,23.534,80.303,-4.2041,1.4014,-0.69184,-5.6054,-2.8066e-13,-0.34592,0,0,0.16667,9.8686e-16,0,0.66667
0.73441,0.54863,4.4065,0.072945,1.5707,20.785,-0.85714,0.28571,-1.9825,-1.1429,1.0133e-11,-0.99123,0,0,0.16667,7.8949e-16,0,0.66667
0.13115,0.57227,0.7869,0.10841,5.0524,161.83,-0.22749,0.075831,-1.957,-0.30332,-3.2336e-09,-0.97852,0,0,0.16667,-3.9475e-16,0,0.66667
0.14369,0.47577,0.86212,-0.036347,-1.6875,158.18,0.083562,-0.027854,-1.9954,0.11142,-2.5526e-10,-0.99768,0,0,0.16667,-0,-0,0.66667
0.37541,0.69567,2.2524,0.2935,11.958,94.357,-1.7629,0.58764,-1.6952,-2.3506,3.1052e-12,-0.84759,0,0,0.16667,-0,-0,0.66667
0.22841,0.19772,1.3705,-0.45343,-20.461,134.05,1.6571,-0.55236,-1.2678,2.2094,7.2e-11,-0.63391,0,0,0.16667,-0,-0,0.66667
0.30699,0.88371,1.8419,0.57556,24.885,112.53,-2.827,0.94234,-0.8212,-3.7694,2.971e-12,-0.4106,0,0,0.16667,-0,-0,0.66667
0.15007,0.072026,0.90039,-0.64196,-30.02,156.49,1.5414,-0.51379,-0.53355,2.0552,4.3612e-09,-0.26677,0,0,0.16667,-0,-0,0.66667
0.096636,0.18496,0.57982,-0.47256,-22.305,171.99,0.73067,-0.24356,-1.2068,0.97422,1.4377e-08,-0.6034,0,0,0.16667,-2.2204e-16,0,0.66667
0.91598,0.64756,5.4959,0.22134,1.5923,2.8098,-3.2438,1.0813,-1.8248,-4.3251,-1.6516e-09,-0.91239,0,0,0.16667,-0,-0,0.66667
0.34589,0.11261,2.0754,-0.58109,-24.42,102.23,3.2159,-1.072,-0.79948,4.2879,-1.8627e-12,-0.39974,0,0,0.16667,-3.9475e-16,0,0.66667
0.56597,0.13305,3.3958,-0.55042,-17.809,50.552,4.9843,-1.6614,-0.92256,6.6458,2.8644e-13,-0.46128,0,0,0.16667,-0,-0,0.66667
0.5472,0.55488,3.2832,0.082323,2.7209,53.995,-0.72075,0.24025,-1.9775,-0.961,8.8762e-14,-0.98875,0,0,0.16667,-3.9475e-16,0,0.66667
0.45036,0.74018,2.7021,0.36028,13.624,75.894,-2.5961,0.86535,-1.5384,-3.4614,-1.1213e-13,-0.7692,0,0,0.16667,-0,-0,0.66667
0.74782,0.86528,4.4869,0.54792,11.443,19.518,-6.5559,2.1853,-0.9328,-8.7412,1.1822e-11,-0.4664,0,0,0.16667,7.8949e-16,0,0.66667
0.33158,0.45399,1.9895,-0.069014,-2.9086,105.69,0.36614,-0.12205,-1.9824,0.48818,-1.2088e-12,-0.99122,0,0,0.16667,-3.9475e-16,0,0.66667
0.89248,0.95819,5.3549,0.68728,6.6486,5.2484,-9.8142,3.2714,-0.32084,-13.086,3.4956e-08,-0.16042,0,0,0.16667,7.8949e-16,0,0.66667
0.068033,0.51241,0.4082,0.018622,0.87888,180.36,-0.020271,0.006757,-1.9975,-0.027028,-1.0658e-07,-0.99877,0,0,0.16667,1.9737e-16,0,0.66667
0.57489,0.96135,3.4493,0.69202,22.179,49.019,-6.3654,2.1218,-0.2972,-8.4872,1.7186e-13,-0.1486,0,0,0.16667,-7.8949e-16,-1.4271e-16,0.66667
0.33905,0.43135,2.0343,-0.10297,-4.3156,103.72,0.55862,-0.18621,-1.9618,0.74482,-1.9783e-12,-0.98092,0,0,0.16667,-1.9737e-16,0,0.66667
0.3639,0.66764,2.1834,0.25147,10.342,97.291,-1.4641,0.48805,-1.7743,-1.9522,2.9672e-12,-0.88713,0,0,0.16667,-0,-0,0.66667
0.3051,0.37781,1.8306,-0.18329,-7.8783,112.79,0.89473,-0.29824,-1.8802,1.193,-2.0501e-12,-0.94008,0,0,0.16667,-0,-0,0.66667
0.60359,0.94863,3.6215,0.67295,20.457,43.376,-6.4989,2.1663,-0.38861,-8.6653,-5.6399e-13,-0.19431,0,0,0.16667,-0,-0,0.66667
0.23441,0.46749,1.4064,-0.048765,-2.1838,132.24,0.1829,-0.060965,-1.9943,0.24386,1.7061e-11,-0.99717,0,0,0.16667,5.181e-16,0,0.66667
0.29431,0.43836,1.7658,-0.092459,-4.0005,115.69,0.43538,-0.14513,-1.9709,0.58051,-1.445e-13,-0.98545,0,0,0.16667,-0,-0,0.66667
0.28549,0.42049,1.713,-0.11926,-5.1901,118.1,0.54477,-0.18159,-1.9485,0.72636,2.7018e-12,-0.97425,0,0,0.16667,-0,-0,0.66667
0.0067954,0.58364,0.040773,0.12547,5.9509,198.49,-0.013642,0.0045472,-1.9427,-0.018189,3.4003e-08,-0.97137,0,0,0.16667,-0,-0,0.66667
0.37162,0.0048918,2.2297,-0.74266,-30.716,95.788,4.4158,-1.4719,-0.039145,5.8877,7.2342e-13,-0.019573,0,0,0.16667,-0,-1.0424e-16,0.66667
0.048897,0.076676,0.29338,-0.63499,-30.302,186.07,0.49679,-0.1656,-0.56645,0.66238,4.1159e-07,-0.28322,0,0,0.16667,9.8686e-17,0,0.66667
0.87438,0.14969,5.2463,-0.52546,-5.7829,6.0663,7.3513,-2.4504,-1.0198,9.8017,-6.7515e-10,-0.50989,0,0,0.16667,7.8949e-16,0,0.66667
0.72182,0.92676,4.3309,0.64014,14.616,23.373,-7.3931,2.4644,-0.54272,-9.8574,-1.4539e-12,-0.27136,0,0,0.16667,-7.8949e-16,0,0.66667
0.59531,0.62135,3.5718,0.18202,5.5408,44.297,-1.7338,0.57792,-1.8835,-2.3117,-1.5116e-12,-0.94177,0,0,0.16667,1.1842e-15,0,0.66667
0.74388,0.72732,4.4633,0.34099,7.1526,19.687,-4.0584,1.3528,-1.5855,-5.4112,3.4092e-11,-0.79277,0,0,0.16667,-0,-0,0.66667
0.90109,0.89498,5.4066,0.59247,5.2173,4.4086,-8.5419,2.8473,-0.75086,-11.389,3.8424e-08,-0.37543,0,0,0.16667,-0,-0,0.66667
0.69409,0.53893,4.1645,0.058402,1.4189,26.81,-0.64858,0.21619,-1.9868,-0.86478,-3.4706e-13,-0.99342,0,0,0.16667,-1.579e-15,0,0.66667
0.59076,0.78029,3.5445,0.42044,12.97,45.412,-3.974,1.3247,-1.3726,-5.2987,-1.7968e-12,-0.68628,0,0,0.16667,2.9606e-16,0,0.66667
0.12426,0.25482,0.74556,-0.36778,-17.218,163.89,0.73119,-0.24373,-1.5207,0.97493,5.4735e-09,-0.76037,0,0,0.16667,-0,-0,0.66667
0.40458,0.13421,2.4275,-0.54868,-21.877,87.224,3.5518,-1.1839,-0.93015,4.7357,-1.094e-12,-0.46508,0,0,0.16667,-0,-0,0.66667
0.57895,0.47578,3.4737,-0.036332,-1.1382,47.472,0.33655,-0.11218,-1.9966,0.44873,6.1867e-14,-0.99831,0,0,0.16667,-0,-0,0.66667
0.60284,0.39327,3.6171,-0.16009,-4.8026,42.83,1.5442,-0.51472,-1.9075,2.0589,1.0744e-12,-0.95373,0,0,0.16667,7.5581e-17,0,0.66667
0.96078,0.57742,5.7647,0.11613,0.36257,0.8052,-1.7852,0.59507,-1.9505,-2.3803,1.4752e-07,-0.97525,0,0,0.16667,-0,-0,0.66667
0.2055,0.25097,1.233,-0.37355,-17.009,140.48,1.2282,-0.40941,-1.5052,1.6376,3.4546e-10,-0.75262,0,0,0.16667,-0,-0,0.66667
0.66315,0.28458,3.9789,-0.32312,-8.5356,32.057,3.4285,-1.1428,-1.6283,4.5713,4.2759e-12,-0.81416,0,0,0.16667,1.579e-15,0,0.66667
0.25643,0.71292,1.5386,0.31938,14.17,126.16,-1.3104,0.4368,-1.6365,-1.7472,-3.7837e-11,-0.81826,0,0,0.16667,-1.9737e-16,0,0.66667
0.41776,0.90282,2.5066,0.60424,23.818,84.04,-4.0388,1.3463,-0.70202,-5.3851,7.1454e-13,-0.35101,0,0,0.16667,-7.3691e-17,0,0.66667
0.97195,0.79455,5.8317,0.44182,1.0047,0.96882,-6.8708,2.2903,-1.3054,-9.1611,-1.7054e-07,-0.65272,0,0,0.16667,1.579e-15,0,0.66667
0.33108,0.21938,1.9865,-0.42092,-17.822,105.98,2.2297,-0.74325,-1.3712,2.973,-4.6985e-12,-0.6856,0,0,0.16667,-7.8949e-16,0,0.66667
0.36202,0.80588,2.1721,0.45882,18.97,97.918,-2.6577,0.88589,-1.2518,-3.5436,2.7121e-12,-0.6259,0,0,0.16667,-5.9212e-16,0,0.66667
0.43957,0.88818,2.6374,0.58227,22.414,78.719,-4.0952,1.3651,-0.79461,-5.4602,8.9262e-14,-0.3973,0,0,0.16667,7.8949e-16,0,0.66667
0.040668,0.2298,0.24401,-0.4053,-19.255,188.47,0.26372,-0.087908,-1.4146,0.35163,-5.5786e-08,-0.70732,0,0,0.16667,-0,-0,0.66667
0.39857,0.98348,2.3914,0.72522,29.253,88.961,-4.6248,1.5416,-0.12843,-6.1664,-1.4433e-12,-0.064215,0,0,0.16667,1.7335e-15,0,0.66667
0.61899,0.75301,3.7139,0.37952,11.073,39.976,-3.7587,1.2529,-1.4876,-5.0116,-2.3388e-12,-0.7438,0,0,0.16667,-0,-0,0.66667
0.57808,0.34732,3.4685,-0.22902,-7.1983,47.725,2.1183,-0.70609,-1.8159,2.8244,-5.8842e-14,-0.90794,0,0,0.16667,1.579e-15,0,0.66667
0.87341,0.69227,5.2405,0.2884,3.1395,5.69,-4.0302,1.3434,-1.7054,-5.3737,3.8247e-09,-0.85271,0,0,0.16667,-0,-0,0.66667
0.64119,0.48266,3.8471,-0.02601,-0.72004,35.695,0.26683,-0.088944,-1.9986,0.35578,6.2814e-13,-0.9993,0,0,0.16667,-0,-0,0.66667
0.55696,0.28943,3.3417,-0.31585,-10.306,52.096,2.8146,-0.93821,-1.6444,3.7528,5.4667e-13,-0.82219,0,0,0.16667,-1.579e-15,0,0.66667
0.64065,0.67751,3.8439,0.26626,7.3993,35.911,-2.7293,0.90976,-1.7495,-3.6391,-3.227e-12,-0.87476,0,0,0.16667,-7.8949e-16,0,0.66667
0.047617,0.81433,0.2857,0.47149,22.414,186.42,-0.35921,0.11974,-1.2118,-0.47895,3.8575e-08,-0.60589,0,0,0.16667,-0,-0,0.66667
0.99612,0.68887,5.9767,0.28331,-0.036402,0.25051,-4.5153,1.5051,-1.7152,-6.0204,5.1286e-08,-0.85762,0,0,0.16667,-0,-0,0.66667
0.15171,0.22945,0.91023,-0.40583,-18.864,155.92,0.98507,-0.32836,-1.4135,1.3134,1.868e-09,-0.70677,0,0,0.16667,-0,-0,0.66667
0.41845,0.81781,2.5107,0.47671,18.71,83.718,-3.1917,1.0639,-1.1921,-4.2556,1.4759e-12,-0.59605,0,0,0.16667,-0,-0,0.66667
0.29525,0.80281,1.7715,0.45422,19.734,115.59,-2.1458,0.71525,-1.267,-2.861,3.5689e-12,-0.63348,0,0,0.16667,3.9475e-16,0,0.66667
0.57722,0.81039,3.4633,0.46559,14.735,48.151,-4.3,1.4333,-1.2313,-5.7333,-6.8923e-13,-0.61563,0,0,0.16667,-9.8686e-17,0,0.66667
0.55956,0.38471,3.3574,-0.17294,-5.6063,51.454,1.5483,-0.5161,-1.8935,2.0644,-4.8839e-13,-0.94675,0,0,0.16667,1.579e-15,0,0.66667
0.35211,0.38676,2.1127,-0.16986,-7.0486,100.32,0.95699,-0.319,-1.896,1.276,-2.5926e-12,-0.94799,0,0,0.16667,-7.8949e-16,0,0.66667
0.97363,0.5925,5.8418,0.13875,0.26845,0.47263,-2.1614,0.72047,-1.9319,-2.8819,2.0277e-07,-0.96593,0,0,0.16667,1.6777e-15,0,0.66667
0.75127,0.074357,4.5076,-0.63846,-13.247,19.271,7.6746,-2.5582,-0.55123,10.233,1.5938e-12,-0.27562,0,0,0.16667,-0,-0,0.66667
0.88984,0.47627,5.339,-0.035598,-0.335,4.3059,0.50682,-0.16894,-1.9968,0.67576,8.1481e-09,-0.99839,0,0,0.16667,-0,-0,0.66667
0.45541,0.35388,2.7325,-0.21918,-8.2218,74.596,1.5971,-0.53236,-1.8293,2.1294,1.1524e-13,-0.91466,0,0,0.16667,-7.8949e-16,0,0.66667
0.59941,0.38751,3.5964,-0.16873,-5.0957,43.496,1.6182,-0.5394,-1.8975,2.1576,9.8732e-13,-0.94876,0,0,0.16667,-0,-0,0.66667
0.41345,0.26606,2.4807,-0.3509,-13.804,84.832,2.3213,-0.77377,-1.5607,3.0951,-1.3582e-12,-0.78033,0,0,0.16667,7.8949e-16,0,0.66667
0.30426,0.81819,1.8255,0.47729,20.623,113.18,-2.3235,0.77449,-1.1892,-3.098,3.3746e-12,-0.59459,0,0,0.16667,-0,-0,0.66667
0.52547,0.88331,3.1528,0.57497,19.84,59.09,-4.834,1.6113,-0.82361,-6.4454,2.4691e-13,-0.41181,0,0,0.16667,-0,-0,0.66667
0.19097,0.46084,1.1458,-0.058738,-2.6826,144.55,0.17947,-0.059824,-1.9875,0.2393,1.8436e-10,-0.99375,0,0,0.16667,-0,-0,0.66667
0.2141,0.36253,1.2846,-0.2062,-9.3327,137.99,0.70636,-0.23545,-1.8478,0.94182,2.2351e-10,-0.92391,0,0,0.16667,-0,-0,0.66667
0.51079,0.3033,3.0647,-0.29505,-10.322,61.964,2.4113,-0.80376,-1.6896,3.2151,5.7443e-13,-0.84482,0,0,0.16667,-3.9475e-16,0,0.66667
0.013852,0.4555,0.083112,-0.066746,-3.1646,196.39,0.014794,-0.0049327,-1.9844,0.019724,-2.1138e-06,-0.9922,0,0,0.16667,-0,-0,0.66667
0.44549,0.60343,2.6729,0.15514,5.8823,76.929,-1.1058,0.36861,-1.9131,-1.4744,3.5993e-13,-0.95656,0,0,0.16667,-0,-0,0.66667
0.9967,0.13602,5.9802,-0.54597,-0.02293,0.82346,8.7067,-2.9022,-0.93972,11.609,-4.011e-07,-0.46986,0,0,0.16667,-0,-1.8022e-16,0.66667
0.82268,0.39534,4.9361,-0.157,-2.3479,10.081,2.0665,-0.68884,-1.9112,2.7554,-7.9109e-10,-0.95562,0,0,0.16667,-7.8949e-16,0,0.66667
0.083461,0.43763,0.50076,-0.093562,-4.406,175.81,0.12494,-0.041647,-1.9693,0.16659,-2.5754e-08,-0.98465,0,0,0.16667,-0,-0,0.66667
0.65589,0.91258,3.9353,0.61887,16.811,33.786,-6.4946,2.1649,-0.63995,-8.6594,-1.656e-12,-0.31998,0,0,0.16667,1.579e-15,1.2752e-16,0.66667
0.22539,0.92737,1.3524,0.64106,29.107,135.02,-2.3118,0.77061,-0.53756,-3.0824,-2.8051e-11,-0.26878,0,0,0.16667,-1.9737e-16,0,0.66667
0.11796,0.88753,0.70774,0.5813,27.379,165.79,-1.0971,0.36569,-0.79709,-1.4628,2.7811e-09,-0.39854,0,0,0.16667,-0,-0,0.66667
0.34868,0.49436,2.0921,-0.0084663,-0.35203,101.19,0.047232,-0.015744,-1.9993,0.062976,2.6863e-13,-0.99965,0,0,0.16667,1.9737e-16,0,0.66667
0.67717,0.62839,4.063,0.19259,4.9002,29.597,-2.0866,0.69553,-1.8679,-2.7821,-3.2496e-12,-0.93397,0,0,0.16667,-1.579e-15,0,0.66667
0.55076,0.47968,3.3046,-0.030475,-1.0013,53.238,0.26856,-0.089518,-1.996,0.35807,-4.996e-16,-0.99802,0,0,0.16667,-0,-0,0.66667
0.043963,0.78433,0.26378,0.42649,20.264,187.49,-0.3,0.099998,-1.354,-0.39999,4.4937e-08,-0.67699,0,0,0.16667,-0,-0,0.66667
0.85675,0.0087876,5.1405,-0.73682,-9.3917,8.0853,10.1,-3.3668,-0.069758,13.467,-7.7782e-10,-0.034879,0,0,0.16667,-0,-1.5958e-16,0.66667
0.4776,0.76365,2.8656,0.39548,14.486,69.55,-3.022,1.0073,-1.4424,-4.0294,1.1768e-13,-0.72122,0,0,0.16667,7.8949e-16,0,0.66667
0.85678,0.40213,5.1407,-0.1468,-1.7916,6.8924,2.0125,-0.67082,-1.9241,2.6833,-1.1832e-09,-0.96203,0,0,0.16667,-1.579e-15,0,0.66667
0.18765,0.18459,1.1259,-0.47311,-21.743,145.61,1.4205,-0.4735,-1.2065,1.894,7.075e-10,-0.60327,0,0,0.16667,1.9737e-16,0,0.66667
0.083733,0.59121,0.5024,0.13681,6.4439,175.73,-0.18329,0.061098,-1.9333,-0.24439,-9.9516e-09,-0.96667,0,0,0.16667,-2.4672e-17,0,0.66667
0.51597,0.75327,3.0958,0.37991,13.216,60.9,-3.1363,1.0454,-1.489,-4.1818,-3.7459e-13,-0.74452,0,0,0.16667,-0,-0,0.66667
0.45454,0.079215,2.7273,-0.63118,-23.93,75.226,4.5904,-1.5301,-0.58394,6.1205,-6.7635e-13,-0.29197,0,0,0.16667,-0,-0,0.66667
0.013894,0.80385,0.083366,0.45578,21.705,196.39,-0.10132,0.033775,-1.262,-0.1351,-1.2277e-08,-0.63098,0,0,0.16667,-0,-0,0.66667
0.039355,0.13732,0.23613,-0.54401,-25.922,188.87,0.34255,-0.11418,-0.94626,0.45674,-5.635e-08,-0.47313,0,0,0.16667,-0,-0,0.66667
0.093633,0.42198,0.5618,-0.11702,-5.5013,172.82,0.17532,-0.058439,-1.9526,0.23376,-9.8103e-10,-0.9763,0,0,0.16667,-1.9737e-16,0,0.66667
0.040677,0.40013,0.24406,-0.14981,-7.0952,188.45,0.097503,-0.032501,-1.9194,0.13,-1.3491e-07,-0.95971,0,0,0.16667,-0,-0,0.66667
0.17574,0.76862,1.0544,0.40294,18.576,148.99,-1.133,0.37766,-1.422,-1.5106,-9.4075e-10,-0.711,0,0,0.16667,-0,-0,0.66667
0.57554,0.29493,3.4532,-0.3076,-9.7248,48.3,2.8325,-0.94418,-1.6634,3.7767,8.2445e-13,-0.83169,0,0,0.16667,-7.8949e-16,0,0.66667
0.47675,0.54357,2.8605,0.065361,2.3864,69.551,-0.49857,0.16619,-1.9833,-0.66476,-2.848e-13,-0.99167,0,0,0.16667,-0,-0,0.66667
0.97977,0.095186,5.8786,-0.60722,-1.0453,1.2524,9.519,-3.173,-0.68936,12.692,1.868e-06,-0.34468,0,0,0.16667,3.158e-15,0,0.66667
0.070737,0.36442,0.42442,-0.20337,-9.6028,179.57,0.23017,-0.076723,-1.8516,0.30689,8.1396e-09,-0.9258,0,0,0.16667,9.8686e-17,0,0.66667
0.86742,0.45709,5.2045,-0.06437,-0.72772,5.9754,0.89337,-0.29779,-1.9838,1.1912,1.3528e-09,-0.99192,0,0,0.16667,7.8949e-16,0,0.66667
0.57852,0.75118,3.4711,0.37678,11.868,47.776,-3.4875,1.1625,-1.4978,-4.6501,-1.5294e-12,-0.7489,0,0,0.16667,1.579e-15,0,0.66667
0.87648,0.76618,5.2589,0.39927,4.2754,5.636,-5.5992,1.8664,-1.4336,-7.4657,5.1356e-09,-0.71678,0,0,0.16667,-0,-0,0.66667
0.055714,0.13538,0.33428,-0.54694,-26.022,184.04,0.48755,-0.16252,-0.93509,0.65007,1.3748e-07,-0.46754,0,0,0.16667,-9.8686e-17,0,0.66667
0.099154,0.065607,0.59492,-0.65159,-30.876,171.31,1.0337,-0.34457,-0.49025,1.3783,-5.5014e-08,-0.24513,0,0,0.16667,-0,-0,0.66667
0.86309,0.33672,5.1786,-0.24493,-2.871,6.4534,3.3823,-1.1274,-1.7865,4.5097,-1.9609e-09,-0.89324,0,0,0.16667,7.8949e-16,0,0.66667
0.57038,0.17495,3.4223,-0.48757,-15.625,49.557,4.4496,-1.4832,-1.1533,5.9329,6.7635e-13,-0.57664,0,0,0.16667,-0,-0,0.66667
0.55849,0.65161,3.351,0.22742,7.3909,51.707,-2.0322,0.67741,-1.8161,-2.7096,-5.8131e-13,-0.90805,0,0,0.16667,1.1842e-15,0,0.66667
0.013013,0.89615,0.078076,0.59422,28.389,196.65,-0.12372,0.041239,-0.7445,-0.16496,-1.0533e-06,-0.37225,0,0,0.16667,-0,-0,0.66667
0.64225,0.11172,3.8535,-0.58241,-16.289,36.085,5.9849,-1.995,-0.79427,7.9799,1.1595e-12,-0.39713,0,0,0.16667,-0,-0,0.66667
0.84766,0.59015,5.086,0.13523,1.7507,7.6801,-1.8341,0.61136,-1.9352,-2.4454,2.5293e-09,-0.96759,0,0,0.16667,-7.8949e-16,0,0.66667
0.99613,0.38683,5.9768,-0.16975,0.030942,0.1138,2.7054,-0.90182,-1.8968,3.6073,-1.329e-07,-0.94842,0,0,0.16667,-0,-0,0.66667
0.43295,0.31054,2.5977,-0.28419,-10.942,80.013,1.9687,-0.65622,-1.7131,2.6249,-2.0328e-13,-0.85656,0,0,0.16667,-7.8949e-16,0,0.66667
0.31141,0.19017,1.8685,-0.46475,-19.978,111.25,2.3156,-0.77188,-1.2338,3.0875,-5.6819e-12,-0.61691,0,0,0.16667,7.8949e-16,0,0.66667
0.40477,0.16796,2.4286,-0.49806,-19.828,87.12,3.2256,-1.0752,-1.1185,4.3008,-9.0283e-13,-0.55924,0,0,0.16667,-0,-0,0.66667
0.22803,0.4193,1.3682,-0.12104,-5.4392,134.04,0.44161,-0.1472,-1.9465,0.58882,9.171e-11,-0.97325,0,0,0.16667,-0,-0,0.66667
0.2261,0.81613,1.3566,0.4742,21.432,134.71,-1.7154,0.57181,-1.2,-2.2873,-7.3257e-11,-0.59998,0,0,0.16667,-0,-0,0.66667
0.43364,0.22349,2.6019,-0.41477,-15.997,79.952,2.8778,-0.95927,-1.3884,3.8371,-4.1456e-13,-0.69418,0,0,0.16667,-0,-0,0.66667
0.68454,0.32333,4.1072,-0.265,-6.6242,28.456,2.9025,-0.96749,-1.7501,3.87,4.4946e-12,-0.87503,0,0,0.16667,-0,-0,0.66667
0.66074,0.85717,3.9644,0.53576,14.336,32.789,-5.664,1.888,-0.97843,-7.5519,-2.6614e-12,-0.48922,0,0,0.16667,-0,-0,0.66667
0.77249,0.27764,4.6349,-0.33354,-6.3001,15.94,4.1226,-1.3742,-1.6039,5.4967,-1.4934e-10,-0.80197,0,0,0.16667,-1.9737e-15,0,0.66667
0.21681,0.25066,1.3009,-0.37401,-16.945,137.27,1.2975,-0.43249,-1.5043,1.7299,2.4075e-10,-0.75216,0,0,0.16667,-0,-0,0.66667
0.72871,0.40707,4.3722,-0.1394,-3.0595,21.624,1.6253,-0.54175,-1.9311,2.167,-1.1962e-11,-0.96556,0,0,0.16667,-3.158e-15,0,0.66667
0.79525,0.59001,4.7715,0.13502,2.306,13.028,-1.718,0.57267,-1.9365,-2.2907,2.1354e-10,-0.96823,0,0,0.16667,1.9737e-15,0,0.66667
0.56181,0.50053,3.3709,0.00080059,0.025831,50.946,-0.0071965,0.0023988,-2.0025,-0.0095953,-3.7564e-13,-1.0012,0,0,0.16667,-0,-0,0.66667
0.46567,0.96338,2.794,0.69507,26.071,72.723,-5.1788,1.7263,-0.28248,-6.9051,4.2455e-13,-0.14124,0,0,0.16667,-9.8686e-16,1.1231e-16,0.66667
0.1582,0.082714,0.9492,-0.62593,-29.182,154.14,1.5843,-0.52812,-0.60723,2.1125,-8.3883e-10,-0.30362,0,0,0.16667,-0,-0,0.66667
0.046453,0.33579,0.27872,-0.24631,-11.669,186.74,0.18307,-0.061023,-1.7858,0.24409,-2.7645e-08,-0.89289,0,0,0.16667,4.9343e-17,0,0.66667
0.46383,0.13498,2.783,-0.54753,-20.478,72.924,4.0634,-1.3545,-0.93316,5.4179,-5.2047e-13,-0.46658,0,0,0.16667,-0,-0,0.66667
0.6543,0.80689,3.9258,0.46033,12.469,33.76,-4.8191,1.6064,-1.2474,-6.4255,-3.916e-12,-0.62369,0,0,0.16667,7.8217e-16,0,0.66667
0.21255,0.23422,1.2753,-0.39868,-18.105,138.49,1.3558,-0.45193,-1.4335,1.8077,2.2512e-10,-0.71673,0,0,0.16667,-3.9475e-16,0,0.66667
0.39995,0.31306,2.3997,-0.28042,-11.166,88.14,1.7944,-0.59815,-1.7206,2.3926,-1.9104e-12,-0.86028,0,0,0.16667,1.579e-15,0,0.66667
0.49764,0.13385,2.9858,-0.54923,-19.686,65.181,4.373,-1.4577,-0.92767,5.8307,-2.3759e-13,-0.46384,0,0,0.16667,-0,-0,0.66667
0.9549,0.56247,5.7294,0.093712,0.34274,0.98255,-1.4318,0.47726,-1.9707,-1.909,3.7666e-07,-0.98534,0,0,0.16667,-2.2112e-15,0,0.66667
0.87745,0.93564,5.2647,0.65347,7.1253,6.1898,-9.1741,3.058,-0.48288,-12.232,6.0171e-08,-0.24144,0,0,0.16667,-1.9737e-16,0,0.66667
0.87405,0.9128,5.2443,0.61921,6.9005,6.3411,-8.6595,2.8865,-0.63803,-11.546,-1.0253e-08,-0.31901,0,0,0.16667,-0,-0,0.66667
0.9966,0.1661,5.9796,-0.50086,-0.001304,0.69891,7.9864,-2.6621,-1.1077,10.649,-5.7864e-07,-0.55384,0,0,0.16667,-0,-1.7038e-16,0.66667
0.77345,0.46386,4.6407,-0.054206,-1.0139,15.597,0.67081,-0.2236,-1.9888,0.89442,-3.2792e-11,-0.99441,0,0,0.16667,7.8949e-16,0,0.66667
0.20306,0.40338,1.2184,-0.14493,-6.5885,141.11,0.47088,-0.15696,-1.9278,0.62784,2.1575e-10,-0.96389,0,0,0.16667,4.9343e-17,0,0.66667
0.83989,0.6164,5.0393,0.1746,2.3726,8.4184,-2.3464,0.78212,-1.8912,-3.1285,1.1311e-09,-0.94558,0,0,0.16667,-0,-0,0.66667
0.16625,0.80773,0.99749,0.4616,21.377,151.74,-1.2278,0.40928,-1.2419,-1.6371,-5.3826e-10,-0.62096,0,0,0.16667,9.8686e-17,0,0.66667
0.88909,0.90186,5.3345,0.6028,5.9379,5.2162,-8.575,2.8583,-0.70927,-11.433,2.1152e-08,-0.35463,0,0,0.16667,3.9475e-16,0,0.66667
0.33858,0.2391,2.0315,-0.39135,-16.465,103.98,2.1201,-0.70668,-1.4544,2.8267,-4.6407e-12,-0.7272,0,0,0.16667,-3.9475e-16,0,0.66667
0.28794,0.9023,1.7277,0.60344,26.44,117.7,-2.7801,0.92671,-0.70473,-3.7068,1.7679e-12,-0.35236,0,0,0.16667,-0,-0,0.66667
0.60622,0.68511,3.6373,0.27767,8.2903,42.267,-2.6933,0.89776,-1.7266,-3.5911,-2.1516e-12,-0.86329,0,0,0.16667,7.8949e-16,0,0.66667
0.060612,0.36258,0.36367,-0.20613,-9.7466,182.56,0.1999,-0.066633,-1.8491,0.26653,-2.3455e-08,-0.92457,0,0,0.16667,-0,-0,0.66667
0.90709,0.46791,5.4425,-0.048132,-0.38141,3.2045,0.69856,-0.23285,-1.9941,0.93141,-6.3419e-08,-0.99704,0,0,0.16667,-1.9737e-15,0,0.66667
0.38107,0.19756,2.2864,-0.45366,-18.446,93.034,2.766,-0.92201,-1.267,3.6881,-1.1013e-12,-0.63352,0,0,0.16667,-7.8949e-16,0,0.66667
0.78998,0.8593,4.7399,0.53894,9.5729,14.211,-6.8121,2.2707,-0.96575,-9.0828,1.6015e-10,-0.48287,0,0,0.16667,-1.579e-15,0,0.66667
0.71055,0.77097,4.2633,0.40645,9.4922,24.575,-4.6208,1.5403,-1.4113,-6.1611,-1.3691e-12,-0.70564,0,0,0.16667,-7.8949e-16,0,0.66667
0.70415,0.27606,4.2249,-0.3359,-7.9724,25.449,3.7844,-1.2615,-1.6003,5.0459,2.2076e-12,-0.80013,0,0,0.16667,-0,-0,0.66667
0.53263,0.1956,3.1958,-0.45659,-15.531,57.378,3.8911,-1.297,-1.2596,5.1881,3.4772e-13,-0.62979,0,0,0.16667,-1.579e-15,0,0.66667
0.46668,0.88395,2.8001,0.57593,21.486,72.3,-4.3003,1.4334,-0.821,-5.7338,2.8066e-13,-0.4105,0,0,0.16667,-7.8949e-16,0,0.66667
0.6454,0.052621,3.8724,-0.67107,-18.716,35.722,6.9297,-2.3099,-0.39794,9.2396,1.5943e-13,-0.19897,0,0,0.16667,-0,-0,0.66667
0.69158,0.00065314,4.1495,-0.74902,-18.756,28.236,8.2881,-2.7627,-0.0059143,11.051,2.9043e-13,-0.0029572,0,0,0.16667,-6.3159e-15,0,0.66667
0.23582,0.80525,1.4149,0.45787,20.588,131.97,-1.7276,0.57586,-1.2555,-2.3035,-6.0395e-11,-0.62774,0,0,0.16667,-0,-0,0.66667
0.75381,0.46888,4.5228,-0.046674,-0.94021,18.12,0.56294,-0.18765,-1.9932,0.75058,-2.8309e-11,-0.99658,0,0,0.16667,-0,-0,0.66667
0.93662,0.86543,5.6197,0.54814,3.0807,2.4218,-8.2144,2.7381,-0.93271,-10.953,7.4442e-08,-0.46635,0,0,0.16667,7.8949e-16,-1.8626e-16,0.66667
0.8151,0.45436,4.8906,-0.068458,-1.0632,10.821,0.8928,-0.2976,-1.9831,1.1904,-2.8695e-10,-0.99155,0,0,0.16667,-0,-0,0.66667
0.73061,0.045553,4.3837,-0.68167,-15.185,22.219,7.9686,-2.6562,-0.34708,10.625,5.3646e-13,-0.17354,0,0,0.16667,-1.579e-15,0,0.66667
0.82171,0.12038,4.9303,-0.56942,-8.7366,10.837,7.4864,-2.4955,-0.84653,9.9819,-7.9036e-10,-0.42327,0,0,0.16667,-7.8949e-16,0,0.66667
0.0069549,0.31145,0.04173,-0.28282,-13.433,198.44,0.031472,-0.010491,-1.7156,0.041963,4.4442e-08,-0.85778,0,0,0.16667,1.542e-17,0,0.66667
0.17482,0.55718,1.0489,0.085764,3.9415,149.18,-0.2399,0.079966,-1.9742,-0.31986,-5.5666e-10,-0.98709,0,0,0.16667,-1.9737e-16,0,0.66667
0.34198,0.2631,2.0519,-0.35535,-14.901,103.06,1.9444,-0.64812,-1.5513,2.5925,-4.0729e-12,-0.77564,0,0,0.16667,-0,-0,0.66667
0.73352,0.46297,4.4011,-0.055542,-1.1993,20.906,0.65185,-0.21728,-1.9905,0.86914,-6.2443e-12,-0.99524,0,0,0.16667,-3.9475e-16,0,0.66667
0.97837,0.14085,5.8702,-0.53873,-0.95427,1.0748,8.4332,-2.8111,-0.96669,11.244,4.3596e-07,-0.48334,0,0,0.16667,-0,-0,0.66667
0.73288,0.21193,4.3973,-0.43211,-9.4325,21.356,5.0669,-1.689,-1.337,6.7559,-1.1235e-11,-0.66851,0,0,0.16667,-7.8949e-16,0,0.66667
0.47899,0.50457,2.874,0.006852,0.24943,69.029,-0.052513,0.017504,-1.9994,-0.070017,-1.6092e-12,-0.99971,0,0,0.16667,3.158e-15,0,0.66667
0.92105,0.61173,5.5263,0.1676,1.1272,2.4879,-2.4699,0.8233,-1.901,-3.2932,-7.6416e-11,-0.95048,0,0,0.16667,-0,-0,0.66667
0.3777,0.35179,2.2662,-0.22231,-9.0303,93.735,1.3435,-0.44782,-1.8244,1.7913,-1.8527e-12,-0.9122,0,0,0.16667,-0,-0,0.66667
0.64169,0.93411,3.8501,0.65117,18.292,36.33,-6.6856,2.2285,-0.49406,-8.9141,-4.1522e-13,-0.24703,0,0,0.16667,-1.9737e-16,0,0.66667
0.0015045,0.80301,0.0090268,0.45452,21.649,200.05,-0.010941,0.0036468,-1.2661,-0.014588,-2.9924e-07,-0.63304,0,0,0.16667,1.542e-18,3.3381e-16,0.66667
0.17936,0.05775,1.0762,-0.66338,-30.733,148.08,1.9037,-0.63457,-0.4346,2.5383,6.2239e-10,-0.2173,0,0,0.16667,-0,-0,0.66667
0.29484,0.44,1.769,-0.089995,-3.8925,115.55,0.42455,-0.14152,-1.9725,0.56606,7.5862e-13,-0.98623,0,0,0.16667,-0,-0,0.66667
0.38699,0.65195,2.3219,0.22793,9.1815,91.375,-1.4113,0.47044,-1.8155,-1.8817,1.7865e-12,-0.90774,0,0,0.16667,9.8686e-16,0,0.66667
0.45982,0.095491,2.7589,-0.60676,-22.844,73.948,4.464,-1.488,-0.69084,5.9521,-9.841e-13,-0.34542,0,0,0.16667,1.579e-15,0,0.66667
0.79672,0.59366,4.7803,0.14049,2.3839,12.864,-1.7908,0.59695,-1.9328,-2.3878,1.9473e-10,-0.96639,0,0,0.16667,1.9861e-15,0,0.66667
0.27985,0.23424,1.6791,-0.39865,-17.47,119.75,1.785,-0.59499,-1.4354,2.3799,1.1602e-12,-0.71769,0,0,0.16667,3.9475e-16,0,0.66667
0.082662,0.06807,0.49597,-0.6479,-30.791,176.14,0.8569,-0.28563,-0.50717,1.1425,9.6056e-08,-0.25358,0,0,0.16667,-0,-0,0.66667
0.52137,0.56691,3.1282,0.10036,3.4505,59.533,-0.83723,0.27908,-1.9637,-1.1163,-2.8211e-13,-0.98186,0,0,0.16667,-0,-0,0.66667
0.98115,0.53115,5.8869,0.046732,0.056606,0.26761,-0.73362,0.24454,-1.9934,-0.97816,-8.8162e-07,-0.99669,0,0,0.16667,9.8686e-16,0,0.66667
0.40076,0.89873,2.4046,0.59809,23.971,88.236,-3.835,1.2783,-0.7273,-5.1134,1.2244e-12,-0.36365,0,0,0.16667,-0,-0,0.66667
0.25719,0.32695,1.5431,-0.25957,-11.502,125.92,1.0682,-0.35605,-1.7589,1.4242,3.4806e-11,-0.87946,0,0,0.16667,-0,-0,0.66667
0.77634,0.79751,4.658,0.44627,8.3422,15.646,-5.5433,1.8478,-1.2908,-7.3911,1.1557e-10,-0.64538,0,0,0.16667,-0,-0,0.66667
0.61558,0.36792,3.6935,-0.19812,-5.7986,40.438,1.9513,-0.65045,-1.8595,2.6018,1.6205e-12,-0.92976,0,0,0.16667,3.9475e-16,0,0.66667
0.0075483,0.74472,0.04529,0.36707,17.456,198.26,-0.044333,0.014778,-1.5201,-0.05911,-9.2333e-08,-0.76006,0,0,0.16667,-1.542e-17,0,0.66667
0.98621,0.73741,5.9172,0.35612,0.30745,0.50531,-5.6193,1.8731,-1.5493,-7.4923,3.8775e-08,-0.77466,0,0,0.16667,-1.579e-15,0,0.66667
0.48892,0.69282,2.9335,0.28922,10.421,66.864,-2.2625,0.75417,-1.7023,-3.0167,-7.8693e-13,-0.85114,0,0,0.16667,1.579e-15,0,0.66667
0.30402,0.41774,1.8241,-0.12339,-5.3051,113.07,0.60019,-0.20006,-1.9445,0.80025,-2.3553e-12,-0.97223,0,0,0.16667,-0,-0,0.66667
0.66508,0.70055,3.9905,0.30082,7.9051,31.707,-3.2011,1.067,-1.6768,-4.2681,-4.7455e-12,-0.8384,0,0,0.16667,-0,-0,0.66667
0.28556,0.65862,1.7134,0.23793,10.365,118.11,-1.0871,0.36237,-1.799,-1.4495,-3.5194e-12,-0.89949,0,0,0.16667,-0,-0,0.66667
0.46354,0.45538,2.7813,-0.066924,-2.4834,72.627,0.49635,-0.16545,-1.9829,0.66181,-4.946e-14,-0.99145,0,0,0.16667,7.8949e-16,0,0.66667
0.65182,0.80568,3.9109,0.45852,12.49,34.187,-4.7819,1.594,-1.252,-6.3759,-3.4976e-12,-0.62602,0,0,0.16667,1.1842e-15,0,0.66667
0.12188,0.20821,0.73129,-0.43769,-20.529,164.6,0.85355,-0.28452,-1.3185,1.1381,5.7159e-09,-0.65927,0,0,0.16667,-0,-0,0.66667
0.46722,0.709,2.8033,0.3135,11.612,71.882,-2.3436,0.78119,-1.6511,-3.1248,-1.39e-13,-0.82557,0,0,0.16667,3.9475e-16,0,0.66667
0.73521,0.73287,4.4112,0.3493,7.5441,20.901,-4.1089,1.3696,-1.567,-5.4786,1.9123e-11,-0.7835,0,0,0.16667,-0,-0,0.66667
0.96052,0.8993,5.7631,0.59895,2.0988,1.6975,-9.2048,3.0683,-0.72347,-12.273,9.532e-07,-0.36173,0,0,0.16667,1.579e-15,0,0.66667
0.021389,0.63735,0.12834,0.20602,9.7733,194.16,-0.070507,0.023502,-1.8478,-0.094009,3.9045e-08,-0.92391,0,0,0.16667,-0,-0,0.66667
0.83248,0.66735,4.9949,0.25102,3.5687,9.1947,-3.3435,1.1145,-1.7751,-4.458,1.1345e-09,-0.88757,0,0,0.16667,-0,-0,0.66667
0.93915,0.50438,5.6349,0.00657,0.033377,1.5622,-0.098723,0.032907,-2.001,-0.13163,-8.4776e-07,-1.0005,0,0,0.16667,-0,-0,0.66667
0.98582,0.81944,5.9149,0.47916,0.48231,0.78176,-7.5579,2.5193,-1.1846,-10.077,-2.3049e-08,-0.59229,0,0,0.16667,-0,-0,0.66667
0.93783,0.14503,5.627,-0.53245,-2.9249,2.3275,7.9896,-2.6632,-0.99326,10.653,-3.5617e-08,-0.49663,0,0,0.16667,-0,-0,0.66667
0.12925,0.31695,0.77551,-0.27458,-12.821,162.41,0.56784,-0.18928,-1.7319,0.75712,3.5532e-09,-0.86593,0,0,0.16667,-0,-0,0.66667
0.88602,0.45458,5.3161,-0.068132,-0.6636,4.5792,0.96587,-0.32196,-1.9825,1.2878,-3.4895e-09,-0.99123,0,0,0.16667,-0,-0,0.66667
0.15286,0.39646,0.91717,-0.15531,-7.194,155.53,0.37986,-0.12662,-1.9139,0.50648,2.1295e-09,-0.95693,0,0,0.16667,-1.9737e-16,0,0.66667
0.36052,0.3097,2.1631,-0.28545,-11.778,98.183,1.6466,-0.54886,-1.712,2.1954,-2.7651e-12,-0.85601,0,0,0.16667,-0,-0,0.66667
0.36116,0.066237,2.167,-0.65064,-27.063,98.346,3.7598,-1.2533,-0.49598,5.0131,-1.021e-12,-0.24799,0,0,0.16667,7.8949e-16,0,0.66667
0.27979,0.66117,1.6787,0.24175,10.569,119.69,-1.0822,0.36074,-1.7934,-1.4429,-8.5968e-12,-0.8967,0,0,0.16667,-7.8949e-16,0,0.66667
0.3548,0.85379,2.1288,0.53068,22.112,99.855,-3.0126,1.0042,-0.99785,-4.0168,2.1827e-12,-0.49892,0,0,0.16667,-0,-0,0.66667
0.543,0.856,3.258,0.53399,17.921,55.283,-4.6394,1.5465,-0.98541,-6.1858,-3.1308e-13,-0.49271,0,0,0.16667,-7.8949e-16,0,0.66667
0.078517,0.23343,0.4711,-0.39986,-18.908,177.3,0.50233,-0.16744,-1.4326,0.66978,1.193e-08,-0.71631,0,0,0.16667,9.8686e-17,0,0.66667
0.37287,0.14908,2.2372,-0.52638,-21.598,95.196,3.1403,-1.0468,-1.0154,4.1871,-1.6132e-12,-0.50768,0,0,0.16667,3.9475e-16,0,0.66667
0.58322,0.82772,3.4993,0.49158,15.406,46.996,-4.5872,1.5291,-1.1396,-6.1163,-4.5741e-13,-0.5698,0,0,0.16667,-7.8949e-16,0,0.66667
0.13425,0.012047,0.8055,-0.73193,-34.479,161.12,1.5722,-0.52406,-0.093861,2.0962,-2.5061e-09,-0.04693,0,0,0.16667,-0,-0,0.66667
0.24299,0.89676,1.4579,0.59514,26.751,130.06,-2.3138,0.77126,-0.73942,-3.085,-1.0633e-11,-0.36971,0,0,0.16667,-3.9475e-16,0,0.66667
0.31278,0.075172,1.8767,-0.63724,-27.492,111.04,3.1891,-1.063,-0.55741,4.2521,-1.7926e-12,-0.27871,0,0,0.16667,-0,-0,0.66667
0.074534,0.26455,0.4472,-0.35318,-16.698,178.47,0.42118,-0.14039,-1.5558,0.56157,3.472e-09,-0.77791,0,0,0.16667,-9.8686e-17,0,0.66667
0.80769,0.34351,4.8461,-0.23473,-3.7934,11.722,3.0335,-1.0112,-1.8046,4.0446,-5.4843e-10,-0.90232,0,0,0.16667,-2.2945e-15,0,0.66667
0.2634,0.12764,1.5804,-0.55854,-24.805,124.38,2.3539,-0.78463,-0.89193,3.1385,-5.5889e-12,-0.44596,0,0,0.16667,-0,-1.6541e-16,0.66667
0.4106,0.45806,2.4636,-0.062905,-2.474,85.407,0.41326,-0.13775,-1.9851,0.55102,-8.4083e-13,-0.99257,0,0,0.16667,3.9475e-16,0,0.66667
0.40541,0.83519,2.4325,0.50278,20.006,86.965,-3.2614,1.0871,-1.1023,-4.3485,1.5321e-12,-0.55116,0,0,0.16667,3.9475e-16,0,0.66667
0.30474,0.99385,1.8284,0.74077,32.244,113.31,-3.6118,1.2039,-0.048013,-4.8158,6.2483e-13,-0.024006,0,0,0.16667,-0,-0,0.66667
0.12774,0.27162,0.76643,-0.34257,-16.017,162.87,0.70016,-0.23339,-1.5827,0.93354,4.3741e-09,-0.79134,0,0,0.16667,-9.8686e-17,0,0.66667
0.89356,0.27205,5.3614,-0.34193,-3.15,4.3305,4.8886,-1.6295,-1.5842,6.5181,-6.5878e-09,-0.79209,0,0,0.16667,-7.8949e-16,0,0.66667
0.68139,0.3169,4.0884,-0.27465,-6.9234,28.975,2.9943,-0.99809,-1.7313,3.9924,4.3445e-12,-0.86564,0,0,0.16667,-0,-0,0.66667
0.26689,0.1912,1.6013,-0.46321,-20.483,123.34,1.978,-0.65934,-1.2386,2.6373,3.7463e-12,-0.61931,0,0,0.16667,-0,-0,0.66667
0.092431,0.84151,0.55459,0.51226,24.219,173.23,-0.75759,0.25253,-1.0687,-1.0101,6.6017e-09,-0.53435,0,0,0.16667,-9.5993e-17,0,0.66667
0.1235,0.73021,0.74097,0.34532,16.164,164.1,-0.68232,0.22744,-1.5765,-0.90976,-5.108e-09,-0.78825,0,0,0.16667,1.9737e-16,0,0.66667
0.27644,0.3347,1.6586,-0.24795,-10.863,120.61,1.0967,-0.36556,-1.7806,1.4622,8.8277e-12,-0.8903,0,0,0.16667,1.9737e-16,0,0.66667
0.049043,0.94023,0.29426,0.66035,31.534,186.03,-0.51817,0.17272,-0.45069,-0.6909,-8.7509e-08,-0.22535,0,0,0.16667,-0,-0,0.66667
0.14515,0.37122,0.87088,-0.19317,-8.9714,157.77,0.4486,-0.14953,-1.8673,0.59813,1.5645e-09,-0.93364,0,0,0.16667,-4.9343e-17,0,0.66667
0.47503,0.7379,2.8502,0.35685,13.103,70.105,-2.7122,0.90407,-1.5459,-3.6163,1.3345e-13,-0.77294,0,0,0.16667,-0,-0,0.66667
0.93598,0.14027,5.6159,-0.5396,-3.0584,2.4261,8.0809,-2.6936,-0.96509,10.774,-4.3966e-08,-0.48255,0,0,0.16667,1.579e-15,5.1633e-17,0.66667
0.43407,0.47495,2.6044,-0.037572,-1.4418,79.652,0.26094,-0.086981,-1.995,0.34792,2.7336e-13,-0.99749,0,0,0.16667,-1.579e-15,0,0.66667
0.70914,0.71212,4.2548,0.31818,7.4401,24.666,-3.6101,1.2034,-1.6392,-4.8135,-1.0114e-12,-0.81961,0,0,0.16667,1.1842e-15,0,0.66667
0.57031,0.50896,3.4218,0.01344,0.42747,49.212,-0.12264,0.040881,-1.9981,-0.16352,1.0347e-13,-0.99906,0,0,0.16667,-0,-0,0.66667
0.97624,0.55261,5.8575,0.078916,0.13231,0.37938,-1.2327,0.41089,-1.9765,-1.6435,2.3196e-07,-0.98827,0,0,0.16667,7.8949e-16,0,0.66667
0.17821,0.58353,1.0693,0.1253,5.7522,148.21,-0.35727,0.11909,-1.9429,-0.47636,-5.8378e-10,-0.97147,0,0,0.16667,1.9737e-16,0,0.66667
0.73911,0.70115,4.4346,0.30173,6.4237,20.295,-3.5681,1.1894,-1.6752,-4.7575,2.8871e-11,-0.83762,0,0,0.16667,-0,-0,0.66667
0.35041,0.64576,2.1024,0.21864,9.0894,100.78,-1.2258,0.4086,-1.8287,-1.6344,2.7971e-12,-0.91437,0,0,0.16667,-0,-0,0.66667
0.99121,0.38334,5.9473,-0.17499,-0.050463,0.17781,2.7753,-0.9251,-1.89,3.7004,-1.0112e-08,-0.945,0,0,0.16667,-0,-0,0.66667
0.35281,0.13027,2.1169,-0.55459,-23.16,100.4,3.1306,-1.0435,-0.9057,4.1742,-2.9163e-12,-0.45285,0,0,0.16667,-0,-0,0.66667
0.97878,0.15083,5.8727,-0.52375,-0.89893,1.0251,8.2023,-2.7341,-1.0241,10.936,4.5624e-07,-0.51203,0,0,0.16667,-0,-0,0.66667
0.86037,0.64047,5.1622,0.2107,2.5139,6.6422,-2.9005,0.96682,-1.8428,-3.8673,2.4773e-09,-0.92142,0,0,0.16667,-0,-0,0.66667
0.59774,0.91003,3.5864,0.61505,18.857,44.376,-5.8822,1.9607,-0.65511,-7.843,-4.9649e-13,-0.32756,0,0,0.16667,-0,-0,0.66667
0.027448,0.32369,0.16469,-0.26446,-12.549,192.37,0.11614,-0.038714,-1.7507,0.15486,-1.3539e-08,-0.87534,0,0,0.16667,-0,-0,0.66667
0.18553,0.038911,1.1132,-0.69163,-31.995,146.34,2.0531,-0.68437,-0.29971,2.7375,5.4729e-10,-0.14986,0,0,0.16667,-0,-1.461e-16,0.66667
0.056512,0.027569,0.33907,-0.70865,-33.862,183.84,0.64075,-0.21359,-0.21408,0.85433,-3.5409e-06,-0.10704,0,0,0.16667,-0,-0,0.66667
0.79246,0.66157,4.7548,0.24235,4.2009,13.435,-3.0729,1.0243,-1.7909,-4.0972,3.4352e-10,-0.89546,0,0,0.16667,-1.579e-15,0,0.66667
0.073951,0.96627,0.44371,0.69941,33.335,178.71,-0.82755,0.27585,-0.26103,-1.1034,-1.4891e-06,-0.13052,0,0,0.16667,-1.2336e-16,1.673e-16,0.66667
0.78646,0.98878,4.7188,0.73317,13.406,15.14,-9.2257,3.0752,-0.087686,-12.301,1.2205e-10,-0.043843,0,0,0.16667,7.8949e-16,0,0.66667
0.027952,0.91755,0.16771,0.62633,29.93,192.24,-0.28011,0.093372,-0.60477,-0.37348,1.9837e-06,-0.30239,0,0,0.16667,-0,-0,0.66667
0.25521,0.65201,1.5312,0.22802,10.111,126.46,-0.93107,0.31036,-1.8148,-1.2414,-3.9318e-11,-0.90741,0,0,0.16667,9.8686e-17,0,0.66667
0.29758,0.77834,1.7855,0.41751,18.098,114.93,-1.9879,0.66264,-1.3822,-2.6506,3.3585e-12,-0.6911,0,0,0.16667,3.9475e-16,0,0.66667
0.56461,0.38915,3.3876,-0.16628,-5.3449,50.414,1.5021,-0.50071,-1.9017,2.0028,3.6071e-13,-0.95086,0,0,0.16667,-7.8949e-16,0,0.66667
0.56206,0.93534,3.3724,0.653,21.35,51.534,-5.8724,1.9575,-0.4862,-7.8299,8.5709e-14,-0.2431,0,0,0.16667,-9.8686e-17,5.0904e-17,0.66667
0.8874,0.7612,5.3244,0.3918,3.8305,4.8347,-5.5629,1.8543,-1.4538,-7.4173,6.8402e-09,-0.7269,0,0,0.16667,-1.579e-15,0,0.66667
0.63738,0.98187,3.8243,0.7228,20.57,37.263,-7.3711,2.457,-0.14194,-9.8282,-4.3521e-14,-0.070971,0,0,0.16667,-0,-0,0.66667
0.16146,0.39915,0.96877,-0.15127,-6.9871,153.04,0.3908,-0.13027,-1.9179,0.52106,7.8193e-10,-0.95896,0,0,0.16667,3.9166e-16,0,0.66667
0.026995,0.37125,0.16197,-0.19313,-9.1583,192.5,0.083416,-0.027805,-1.8674,0.11122,-6.4867e-08,-0.93371,0,0,0.16667,-6.1679e-17,0,0.66667
0.76198,0.9189,4.5719,0.62835,12.54,17.847,-7.6607,2.5536,-0.59552,-10.214,9.5408e-12,-0.29776,0,0,0.16667,-0,3.2349e-17,0.66667
0.53557,0.25423,3.2134,-0.36866,-12.457,56.645,3.1591,-1.053,-1.5167,4.2121,-1.5432e-13,-0.75836,0,0,0.16667,-0,-0,0.66667
0.57863,0.89551,3.4718,0.59327,18.813,48.078,-5.4925,1.8308,-0.74974,-7.3234,-4.9516e-13,-0.37487,0,0,0.16667,-0,-0,0.66667
0.41411,0.023823,2.4846,-0.71427,-28.367,85.098,4.7325,-1.5775,-0.18496,6.31,-5.4579e-13,-0.092482,0,0,0.16667,-0,-0,0.66667
0.58982,0.11237,3.5389,-0.58144,-18.065,45.849,5.4871,-1.829,-0.7972,7.3161,1.0179e-12,-0.3986,0,0,0.16667,-7.8949e-16,0,0.66667
0.40563,0.5458,2.4338,0.068703,2.7154,86.643,-0.44589,0.14863,-1.9842,-0.59452,4.8234e-13,-0.99208,0,0,0.16667,-0,-0,0.66667
0.44569,0.43046,2.6742,-0.10431,-3.9526,76.864,0.74385,-0.24795,-1.9603,0.99179,7.0166e-14,-0.98014,0,0,0.16667,3.9475e-16,0,0.66667
0.59274,0.62907,3.5564,0.19361,5.9228,44.804,-1.8362,0.61206,-1.8683,-2.4482,-1.4615e-12,-0.93416,0,0,0.16667,1.579e-15,0,0.66667
0.49234,0.31065,2.9541,-0.28402,-10.186,66.083,2.2374,-0.74579,-1.713,2.9832,-7.6139e-13,-0.85648,0,0,0.16667,1.0856e-15,0,0.66667
0.059103,0.71322,0.35462,0.31983,15.146,183.01,-0.30245,0.10082,-1.6364,-0.40327,1.6831e-08,-0.8182,0,0,0.16667,4.9343e-17,0,0.66667
0.97679,0.42932,5.8607,-0.10602,-0.17288,0.38051,1.657,-0.55232,-1.9589,2.2093,4.6407e-07,-0.97944,0,0,0.16667,-7.8949e-16,0,0.66667
0.85514,0.54424,5.1308,0.066367,0.81769,6.9933,-0.90805,0.30268,-1.9835,-1.2107,1.0763e-09,-0.99173,0,0,0.16667,1.579e-15,0,0.66667
0.37909,0.50191,2.2745,0.0028618,0.11595,93.331,-0.017358,0.005786,-2.0004,-0.023144,1.319e-12,-1.0002,0,0,0.16667,-0,-0,0.66667
0.54652,0.047108,3.2791,-0.67934,-22.797,54.799,5.9404,-1.9801,-0.36024,7.9205,-1.068e-12,-0.18012,0,0,0.16667,-0,-0,0.66667
0.93287,0.63826,5.5972,0.20739,1.1799,1.9462,-3.0955,1.0318,-1.8461,-4.1274,5.4511e-11,-0.92303,0,0,0.16667,-0,-0,0.66667
0.39797,0.71966,2.3878,0.32949,13.155,88.669,-2.098,0.69933,-1.614,-2.7973,3.3085e-12,-0.80699,0,0,0.16667,-1.579e-15,0,0.66667
0.94477,0.71087,5.6686,0.3163,1.479,1.5837,-4.7813,1.5938,-1.6432,-6.3751,-2.2846e-08,-0.82158,0,0,0.16667,7.8949e-16,0,0.66667
0.030486,0.42722,0.18292,-0.10918,-5.1732,191.46,0.053254,-0.017752,-1.9587,0.071005,-2.5393e-07,-0.97933,0,0,0.16667,-0,-0,0.66667
0.7458,0.91331,4.4748,0.61997,13.092,19.958,-7.398,2.466,-0.63297,-9.864,3.0544e-12,-0.31648,0,0,0.16667,-1.579e-15,0,0.66667
0.79701,0.45601,4.782,-0.06599,-1.1173,12.799,0.84151,-0.2805,-1.9859,1.122,-1.3272e-10,-0.99293,0,0,0.16667,-0,-0,0.66667
0.19384,0.65975,1.163,0.23962,10.944,143.76,-0.74315,0.24772,-1.7954,-0.99087,-5.0471e-10,-0.89772,0,0,0.16667,-0,-0,0.66667
0.16287,0.049645,0.9772,-0.67553,-31.491,152.82,1.7603,-0.58678,-0.37602,2.3471,-1.1522e-09,-0.18801,0,0,0.16667,-0,-0,0.66667
0.59108,0.052066,3.5465,-0.6719,-20.906,45.782,6.3543,-2.1181,-0.39475,8.4724,2.7134e-13,-0.19738,0,0,0.16667,-0,-1.7559e-16,0.66667
0.47969,0.053234,2.8782,-0.67015,-24.687,69.442,5.1434,-1.7145,-0.40241,6.8579,-9.1704e-13,-0.20121,0,0,0.16667,3.9475e-16,1.7352e-17,0.66667
0.58654,0.50702,3.5193,0.010534,0.32553,45.962,-0.098859,0.032953,-1.9986,-0.13181,-6.0405e-13,-0.9993,0,0,0.16667,-0,-0,0.66667
0.13227,0.082697,0.79363,-0.62595,-29.409,161.64,1.3247,-0.44158,-0.60548,1.7663,2.3994e-09,-0.30274,0,0,0.16667,-1.9737e-16,0,0.66667
0.27774,0.69664,1.6664,0.29496,12.92,120.27,-1.3107,0.43691,-1.6903,-1.7476,-6.7106e-12,-0.84515,0,0,0.16667,-0,-0,0.66667
0.069672,0.33608,0.41803,-0.24588,-11.617,179.89,0.27409,-0.091364,-1.784,0.36546,-1.3692e-08,-0.89198,0,0,0.16667,-0,-0,0.66667
0.108,0.11412,0.64798,-0.57882,-27.323,168.7,1.0002,-0.33339,-0.80937,1.3336,4.4776e-09,-0.40469,0,0,0.16667,-0,-0,0.66667
0.71638,0.17926,4.2983,-0.48111,-11.077,23.83,5.5145,-1.8382,-1.1772,7.3527,1.2061e-12,-0.58862,0,0,0.16667,-0,-0,0.66667
0.026402,0.13146,0.15841,-0.5528,-26.369,192.7,0.23352,-0.077841,-0.91291,0.31136,-4.2258e-07,-0.45646,0,0,0.16667,-0,-0,0.66667
0.53965,0.9154,3.2379,0.6231,21.086,56.14,-5.3801,1.7934,-0.61829,-7.1735,-3.455e-13,-0.30914,0,0,0.16667,-0,-0,0.66667
0.29866,0.76246,1.792,0.39369,17.045,114.63,-1.8813,0.62709,-1.4492,-2.5084,3.3357e-12,-0.7246,0,0,0.16667,-0,-0,0.66667
0.8685,0.39235,5.211,-0.16147,-1.8146,5.9402,2.2437,-0.74792,-1.9059,2.9917,-8.4063e-10,-0.95293,0,0,0.16667,-0,-0,0.66667
0.54504,0.88012,3.2702,0.57018,19.098,54.912,-4.9724,1.6575,-0.845,-6.6298,3.6415e-14,-0.4225,0,0,0.16667,-1.579e-15,2.4617e-16,0.66667
0.99755,0.020554,5.9853,-0.71917,-0.1353,1.3984,11.478,-3.8261,-0.16104,15.305,2.2305e-05,-0.080521,0,0,0.16667,3.158e-15,-5.3319e-16,0.66667
0.56108,0.72499,3.3665,0.33748,10.943,51.268,-3.0297,1.0099,-1.5961,-4.0395,-7.6961e-13,-0.79803,0,0,0.16667,1.579e-15,0,0.66667
0.5621,0.31103,3.3726,-0.28346,-9.1653,51.008,2.5493,-0.84976,-1.7168,3.399,6.9078e-13,-0.85841,0,0,0.16667,-1.1842e-15,0,0.66667
0.33511,0.77139,2.0106,0.40708,17.178,104.9,-2.1827,0.72756,-1.4095,-2.9102,4.5679e-12,-0.70475,0,0,0.16667,-3.9475e-16,0,0.66667
0.25232,0.21904,1.5139,-0.42145,-18.773,127.35,1.7015,-0.56715,-1.37,2.2686,2.9268e-11,-0.68501,0,0,0.16667,-0,-0,0.66667
0.42737,0.8209,2.5642,0.48135,18.72,81.542,-3.2915,1.0972,-1.1752,-4.3886,-3.1841e-13,-0.58762,0,0,0.16667,-0,-0,0.66667
0.22718,0.12757,1.3631,-0.55865,-25.286,134.46,2.0306,-0.67686,-0.89,2.7075,-1.5205e-11,-0.445,0,0,0.16667,-0,-0,0.66667
0.070876,0.2131,0.42526,-0.43035,-20.385,179.55,0.48803,-0.16268,-1.3407,0.65071,1.9806e-08,-0.67033,0,0,0.16667,-0,-0,0.66667
0.42505,0.76592,2.5503,0.39888,15.52,82.025,-2.7127,0.90424,-1.4338,-3.617,1.1298e-12,-0.71689,0,0,0.16667,-0,-0,0.66667
0.10642,0.55692,0.6385,0.085385,4.0029,169.07,-0.14538,0.048461,-1.9744,-0.19384,-1.6713e-08,-0.98718,0,0,0.16667,-9.8686e-17,0,0.66667
0.72312,0.39708,4.3387,-0.15438,-3.4492,22.44,1.7862,-0.59539,-1.9146,2.3816,-9.0037e-12,-0.95729,0,0,0.16667,-0,-0,0.66667
0.29839,0.56864,1.7904,0.10296,4.4429,114.59,-0.49154,0.16385,-1.9633,-0.65539,-6.5006e-13,-0.98165,0,0,0.16667,-0,-0,0.66667
0.49036,0.24559,2.9422,-0.38162,-13.748,66.617,2.9941,-0.99804,-1.4817,3.9921,-5.4068e-13,-0.74084,0,0,0.16667,-1.0439e-16,0,0.66667
0.19558,0.42938,1.1735,-0.10593,-4.8294,143.23,0.33148,-0.11049,-1.959,0.44197,3.592e-10,-0.97948,0,0,0.16667,-0,-0,0.66667
0.68083,0.02707,4.085,-0.7094,-18.224,29.844,7.7276,-2.5759,-0.21013,10.303,9.1482e-14,-0.10506,0,0,0.16667,7.8949e-16,0,0.66667
0.83083,0.60977,4.985,0.16466,2.3565,9.2757,-2.1888,0.72961,-1.9033,-2.9184,8.4755e-10,-0.95166,0,0,0.16667,-0,-0,0.66667
0.22041,0.50139,1.3224,0.0020806,0.0938,136.18,-0.0073372,0.0024457,-2.0017,-0.0097829,2.8332e-11,-1.0008,0,0,0.16667,-0,-0,0.66667
0.0078087,0.61138,0.046852,0.16707,7.9261,198.19,-0.020873,0.0069577,-1.8992,-0.027831,-2.7639e-08,-0.94962,0,0,0.16667,-0,-0,0.66667
0.2509,0.1504,1.5054,-0.5244,-23.43,127.81,2.1052,-0.70173,-1.0236,2.8069,6.2883e-12,-0.51182,0,0,0.16667,-0,-0,0.66667
0.62764,0.88734,3.7658,0.58102,16.767,38.706,-5.8347,1.9449,-0.79953,-7.7796,-6.0396e-13,-0.39977,0,0,0.16667,-1.579e-15,0,0.66667
0.31082,0.28871,1.8649,-0.31694,-13.591,111.31,1.5762,-0.52539,-1.6436,2.1015,-5.0954e-12,-0.82178,0,0,0.16667,-0,-0,0.66667
0.83621,0.88998,5.0172,0.58498,8.3113,9.46,-7.8266,2.6089,-0.78176,-10.435,1.117e-09,-0.39088,0,0,0.16667,-0,-0,0.66667
0.85274,0.33432,5.1164,-0.24851,-3.1255,7.3311,3.3907,-1.1302,-1.7792,4.5209,-2.5139e-09,-0.8896,0,0,0.16667,-7.8949e-16,0,0.66667
0.37174,0.67645,2.2304,0.26467,10.813,95.28,-1.5742,0.52474,-1.7505,-2.099,2.4636e-12,-0.87526,0,0,0.16667,-0,-0,0.66667
0.36533,0.17567,2.192,-0.48649,-20.07,97.09,2.8437,-0.9479,-1.1572,3.7916,-1.2177e-12,-0.57861,0,0,0.16667,3.9475e-16,0,0.66667
0.016563,0.1602,0.099375,-0.5097,-24.299,195.6,0.13507,-0.045024,-1.078,0.18009,-1.8442e-07,-0.53899,0,0,0.16667,4.9343e-17,0,0.66667
0.54968,0.67011,3.2981,0.25516,8.4156,53.56,-2.2441,0.74804,-1.7682,-2.9922,-3.2285e-13,-0.88409,0,0,0.16667,-7.8949e-16,0,0.66667
0.15427,0.22486,0.92562,-0.4127,-19.17,155.18,1.0187,-0.33956,-1.3951,1.3582,1.6504e-09,-0.69756,0,0,0.16667,-3.9475e-16,0,0.66667
0.11268,0.77965,0.67608,0.41948,19.711,167.28,-0.75627,0.25209,-1.3752,-1.0084,-7.3667e-09,-0.68758,0,0,0.16667,-2.9606e-16,0,0.66667
0.053338,0.17701,0.32003,-0.48449,-23.025,184.73,0.41347,-0.13782,-1.1641,0.55129,-6.8815e-09,-0.58206,0,0,0.16667,-4.9343e-17,0,0.66667
0.17928,0.97401,1.0757,0.71102,32.99,148.14,-2.0396,0.67986,-0.20171,-2.7195,-4.391e-10,-0.10085,0,0,0.16667,-0,-0,0.66667
0.15593,0.26048,0.93558,-0.35928,-16.665,154.68,0.89636,-0.29879,-1.5424,1.1952,2.096e-09,-0.77119,0,0,0.16667,3.9475e-16,0,0.66667
0.03549,0.11481,0.21294,-0.57778,-27.562,190.01,0.32809,-0.10936,-0.81232,0.43745,1.2367e-07,-0.40616,0,0,0.16667,-0,-0,0.66667
0.98243,0.08499,5.8946,-0.62252,-0.92767,1.2529,9.7853,-3.2618,-0.62257,13.047,1.6957e-07,-0.31128,0,0,0.16667,7.8949e-16,-1.5927e-16,0.66667
0.6583,0.74969,3.9498,0.37453,10.023,32.946,-3.9449,1.315,-1.5029,-5.2598,-4.0132e-12,-0.75147,0,0,0.16667,-1.0856e-15,0,0.66667
0.38699,0.55282,2.322,0.07923,3.1878,91.327,-0.49059,0.16353,-1.9772,-0.65412,-1.4269e-13,-0.98861,0,0,0.16667,-0,-0,0.66667
0.062485,0.063575,0.37491,-0.65464,-31.209,182.07,0.65449,-0.21816,-0.47912,0.87265,6.1953e-07,-0.23956,0,0,0.16667,-0,2.6219e-17,0.66667
0.047245,0.75793,0.28347,0.38689,18.364,186.52,-0.29246,0.097488,-1.4693,-0.38995,4.4383e-08,-0.73465,0,0,0.16667,-0,-0,0.66667
0.80495,0.90286,4.8297,0.60428,10.088,12.686,-7.7827,2.5942,-0.70116,-10.377,4.1124e-10,-0.35058,0,0,0.16667,7.8949e-16,0,0.66667
0.42278,0.45365,2.5367,-0.069521,-2.7004,82.406,0.47028,-0.15676,-1.9836,0.62703,-3.0631e-13,-0.99178,0,0,0.16667,-0,-0,0.66667
0.10826,0.93002,0.64956,0.64504,30.501,168.64,-1.1173,0.37244,-0.52171,-1.4897,7.3367e-08,-0.26086,0,0,0.16667,-9.8686e-17,-1.437e-16,0.66667
0.16703,0.48184,1.0022,-0.027247,-1.2555,151.42,0.072818,-0.024273,-1.9963,0.09709,2.6499e-10,-0.99814,0,0,0.16667,-0,-0,0.66667
0.68019,0.93436,4.0812,0.65155,16.711,29.804,-7.0908,2.3636,-0.49018,-9.4545,-1.2426e-12,-0.24509,0,0,0.16667,1.9737e-16,0,0.66667
0.42723,0.51986,2.5634,0.029795,1.1518,81.312,-0.20367,0.06789,-1.9957,-0.27156,-7.0718e-13,-0.99786,0,0,0.16667,-0,-0,0.66667
0.096808,0.74691,0.58085,0.37036,17.447,171.92,-0.57366,0.19122,-1.5129,-0.76488,-8.7457e-09,-0.75647,0,0,0.16667,-9.8686e-17,0,0.66667
0.39201,0.345,2.3521,-0.2325,-9.3223,90.109,1.4583,-0.48609,-1.8097,1.9443,-7.8959e-13,-0.90484,0,0,0.16667,-1.579e-15,0,0.66667
0.044756,0.050428,0.26853,-0.67436,-32.229,187.29,0.4829,-0.16097,-0.38318,0.64387,2.8485e-06,-0.19159,0,0,0.16667,-0,-0,0.66667
0.27103,0.50175,1.6262,0.00262,0.11499,122.05,-0.011362,0.0037872,-2.0001,-0.015149,6.0548e-13,-1,0,0,0.16667,-0,-0,0.66667
0.50308,0.93003,3.0185,0.64504,23.028,64.118,-5.1921,1.7307,-0.52061,-6.9228,4.1034e-13,-0.26031,0,0,0.16667,3.9475e-16,0,0.66667
0.45748,0.73319,2.7449,0.34979,13.116,74.198,-2.5604,0.85345,-1.564,-3.4138,-3.2863e-14,-0.782,0,0,0.16667,-0,-0,0.66667
0.76863,0.51012,4.6118,0.015173,0.28918,16.195,-0.1866,0.062201,-1.999,-0.2488,3.06e-11,-0.99948,0,0,0.16667,-0,-0,0.66667
0.16023,0.065735,0.96138,-0.6514,-30.371,153.57,1.67,-0.55666,-0.49154,2.2266,4.9133e-10,-0.24577,0,0,0.16667,-0,-0,0.66667
0.51004,0.47306,3.0603,-0.040405,-1.4114,62.012,0.32973,-0.10991,-1.9938,0.43964,2.4181e-13,-0.99689,0,0,0.16667,-0,-0,0.66667
0.14153,0.57578,0.84916,0.11367,5.2819,158.81,-0.25739,0.085796,-1.9548,-0.34318,-1.2968e-09,-0.97742,0,0,0.16667,-1.9737e-16,0,0.66667
0.18937,0.87093,1.1362,0.55639,25.603,145.16,-1.6858,0.56194,-0.90039,-2.2477,-4.8653e-10,-0.4502,0,0,0.16667,9.8686e-17,0,0.66667
0.4099,0.99863,2.4594,0.74795,29.867,86.188,-4.9053,1.6351,-0.011645,-6.5404,1.2363e-12,-0.0058227,0,0,0.16667,-3.454e-16,0,0.66667
0.14586,0.053295,0.87518,-0.67006,-31.4,157.72,1.5638,-0.52126,-0.4027,2.085,2.0209e-09,-0.20135,0,0,0.16667,-1.9737e-16,0,0.66667
0.56233,0.039981,3.374,-0.69003,-22.586,51.554,6.2084,-2.0695,-0.30865,8.2778,-1.6387e-13,-0.15432,0,0,0.16667,-0,-0,0.66667
0.45523,0.75448,2.7314,0.38172,14.36,74.757,-2.7803,0.92677,-1.4828,-3.7071,-2.9909e-13,-0.74141,0,0,0.16667,1.579e-15,0,0.66667
0.9421,0.96945,5.6526,0.70417,3.7523,2.6848,-10.614,3.5381,-0.23748,-14.152,-4.308e-06,-0.11874,0,0,0.16667,-0,-0,0.66667
0.66999,0.20952,4.02,-0.43573,-11.358,31.058,4.6709,-1.557,-1.3254,6.2279,4.3991e-12,-0.66269,0,0,0.16667,-0,-0,0.66667
0.10314,0.39609,0.61885,-0.15587,-7.315,170.03,0.25722,-0.085741,-1.9124,0.34296,-7.4732e-09,-0.9562,0,0,0.16667,-0,-0,0.66667
0.60711,0.34802,3.6426,-0.22797,-6.7886,42.059,2.2144,-0.73814,-1.8161,2.9525,5.4601e-13,-0.90803,0,0,0.16667,1.579e-15,0,0.66667
0.42033,0.68516,2.522,0.27774,10.836,83.088,-1.8679,0.62263,-1.7273,-2.4905,1.2238e-12,-0.86365,0,0,0.16667,-1.0856e-15,0,0.66667
0.50063,0.38817,3.0038,-0.16774,-5.9405,64.146,1.3436,-0.44787,-1.9009,1.7915,-3.1253e-13,-0.95047,0,0,0.16667,7.8949e-16,0,0.66667
0.65581,0.97596,3.9348,0.71395,19.492,34.022,-7.4914,2.4971,-0.18921,-9.9885,4.3299e-13,-0.094607,0,0,0.16667,-0,-0,0.66667
0.18572,0.4786,1.1143,-0.032101,-1.469,146.05,0.095389,-0.031796,-1.9968,0.12719,2.0822e-10,-0.99838,0,0,0.16667,-0,-0,0.66667
0.35953,0.58538,2.1572,0.12807,5.2802,98.375,-0.73672,0.24557,-1.9433,-0.9823,2.1278e-12,-0.97166,0,0,0.16667,-0,-0,0.66667
0.48038,0.92355,2.8823,0.63532,23.353,69.226,-4.8831,1.6277,-0.56404,-6.5108,3.4195e-14,-0.28202,0,0,0.16667,-5.6888e-16,0,0.66667
0.61478,0.10255,3.6887,-0.59617,-17.672,41.106,5.8642,-1.9547,-0.73536,7.819,4.6363e-13,-0.36768,0,0,0.16667,-0,-0,0.66667
0.28556,0.84647,1.7133,0.51971,22.754,118.27,-2.3745,0.7915,-1.0399,-3.166,2.9436e-12,-0.51993,0,0,0.16667,-0,-0,0.66667
0.50277,0.28156,3.0166,-0.32766,-11.597,63.772,2.6358,-0.8786,-1.6196,3.5144,-2.6645e-13,-0.8098,0,0,0.16667,-0,-0,0.66667
0.27855,0.93816,1.6713,0.65723,29.011,120.31,-2.9291,0.97637,-0.46543,-3.9055,1.8541e-12,-0.23272,0,0,0.16667,-7.8949e-16,0,0.66667
0.57239,0.9367,3.4343,0.65505,21.05,49.444,-5.9991,1.9997,-0.47456,-7.9988,2.6645e-13,-0.23728,0,0,0.16667,-1.1842e-15,0,0.66667
0.34229,0.29746,2.0537,-0.30381,-12.726,102.95,1.6638,-0.55461,-1.6722,2.2185,-4.5693e-12,-0.83611,0,0,0.16667,-0,-0,0.66667
0.83916,0.90905,5.035,0.61358,8.5937,9.2605,-8.2382,2.7461,-0.66152,-10.984,7.8185e-10,-0.33076,0,0,0.16667,-0,-0,0.66667
0.68591,0.55116,4.1155,0.076742,1.9063,28.117,-0.84221,0.28074,-1.9795,-1.123,-1.4225e-12,-0.98975,0,0,0.16667,-0,-0,0.66667
0.81613,0.50449,4.8968,0.0067357,0.10403,10.703,-0.087956,0.029319,-2,-0.11727,-4.7627e-10,-1,0,0,0.16667,-0,-0,0.66667
0.15425,0.59451,0.92548,0.14176,6.5629,155.13,-0.34986,0.11662,-1.9302,-0.46648,-2.7083e-09,-0.96508,0,0,0.16667,-0,-0,0.66667
0.18519,0.774,1.1112,0.41099,18.883,146.28,-1.2178,0.40594,-1.3998,-1.6238,-5.7404e-10,-0.69991,0,0,0.16667,-0,-0,0.66667
0.54259,0.58437,3.2556,0.12656,4.2147,54.979,-1.0987,0.36625,-1.9424,-1.465,-3.8858e-15,-0.97119,0,0,0.16667,-0,-0,0.66667
0.061398,0.40484,0.36839,-0.14274,-6.7455,182.32,0.14022,-0.046742,-1.9296,0.18697,6.6212e-08,-0.96479,0,0,0.16667,9.0888e-18,0,0.66667
0.53806,0.35769,3.2284,-0.21347,-7.1656,55.985,1.8377,-0.61257,-1.8365,2.4503,2.8988e-13,-0.91825,0,0,0.16667,-0,-0,0.66667
0.336,0.87976,2.016,0.56965,24.116,104.81,-3.0624,1.0208,-0.84551,-4.0832,2.1179e-12,-0.42276,0,0,0.16667,-7.8949e-16,0,0.66667
0.32445,0.50967,1.9467,0.014503,0.6144,107.58,-0.07529,0.025097,-1.9988,-0.10039,2.1113e-12,-0.99939,0,0,0.16667,-1.579e-15,0,0.66667
0.22985,0.82909,1.3791,0.49364,22.28,133.66,-1.8154,0.60514,-1.1326,-2.4206,-8.5651e-11,-0.56628,0,0,0.16667,-3.9475e-16,0,0.66667
0.0046867,0.61641,0.02812,0.17461,8.2847,199.11,-0.013093,0.0043645,-1.8909,-0.017458,-4.5746e-08,-0.94543,0,0,0.16667,-3.084e-18,0,0.66667
0.68707,0.89772,4.1224,0.59658,14.99,28.572,-6.5583,2.1861,-0.73599,-8.7444,-2.5291e-12,-0.36799,0,0,0.16667,-7.8949e-16,1.567e-16,0.66667
0.75278,0.68346,4.5167,0.2752,5.585,18.405,-3.3146,1.1049,-1.7313,-4.4195,6.0315e-11,-0.86567,0,0,0.16667,-0,-0,0.66667
0.33828,0.13222,2.0297,-0.55167,-23.302,104.19,2.986,-0.99532,-0.9171,3.9813,-2.1489e-12,-0.45855,0,0,0.16667,-0,-0,0.66667
0.4698,0.51337,2.8188,0.02006,0.73865,71.158,-0.15079,0.050262,-1.9993,-0.20105,-1.4812e-12,-0.99963,0,0,0.16667,1.579e-15,0,0.66667
0.79738,0.22182,4.7843,-0.41728,-7.1262,13.117,5.3237,-1.7746,-1.383,7.0982,-4.0968e-10,-0.69151,0,0,0.16667,-0,-0,0.66667
0.64747,0.62309,3.8848,0.18463,5.0459,34.642,-1.9127,0.63756,-1.8786,-2.5502,-3.4066e-12,-0.93931,0,0,0.16667,2.9606e-16,0,0.66667
0.022978,0.49389,0.13787,-0.0091693,-0.43454,193.69,0.0033708,-0.0011261,-1.9988,0.0044931,-3.8111e-06,-0.9994,0,0,0.16667,2.4672e-17,0,0.66667
0.28397,0.53922,1.7038,0.05883,2.562,118.5,-0.2673,0.089099,-1.9878,-0.3564,-2.933e-12,-0.9939,0,0,0.16667,-0,-0,0.66667
0.95439,0.38983,5.7264,-0.16526,-0.61529,1.047,2.5235,-0.84118,-1.9034,3.3647,2.6784e-08,-0.95171,0,0,0.16667,-1.579e-15,0,0.66667
0.88315,0.60933,5.2989,0.16399,1.641,4.8354,-2.3173,0.77242,-1.9028,-3.0897,4.1873e-09,-0.95142,0,0,0.16667,-0,-0,0.66667
0.32522,0.93694,1.9513,0.65541,28.042,107.75,-3.4104,1.1368,-0.47388,-4.5472,1.3589e-13,-0.23694,0,0,0.16667,7.4015e-17,0,0.66667
0.91063,0.54656,5.4638,0.069836,0.53197,3.003,-1.0175,0.33917,-1.9817,-1.3567,1.6384e-08,-0.99084,0,0,0.16667,1.579e-15,0,0.66667
0.47918,0.33199,2.8751,-0.25202,-9.1888,69.068,1.9322,-0.64405,-1.7731,2.5762,1.5465e-13,-0.88653,0,0,0.16667,-7.8949e-16,0,0.66667
0.20207,0.0064462,1.2124,-0.74033,-34.074,141.67,2.3936,-0.79785,-0.052472,3.1914,-2.2461e-10,-0.026236,0,0,0.16667,-0,-1.2926e-16,0.66667
0.27145,0.14925,1.6287,-0.52613,-23.237,122.14,2.2851,-0.76169,-1.0149,3.0468,-1.5663e-12,-0.50747,0,0,0.16667,-0,-0,0.66667
0.24098,0.060174,1.4459,-0.65974,-29.741,130.67,2.5438,-0.84792,-0.45219,3.3917,-1.2146e-13,-0.22609,0,0,0.16667,4.4409e-16,0,0.66667
0.055575,0.050093,0.33345,-0.67486,-32.218,184.11,0.60009,-0.20003,-0.37924,0.80012,-1.2192e-06,-0.18962,0,0,0.16667,-9.8686e-17,0,0.66667
0.43714,0.88836,2.6228,0.58254,22.484,79.304,-4.0744,1.3581,-0.79457,-5.4325,7.5495e-15,-0.39729,0,0,0.16667,7.8949e-16,-1.9322e-16,0.66667
0.90458,0.38064,5.4275,-0.17904,-1.4633,3.4271,2.5913,-0.86375,-1.887,3.455,3.1024e-09,-0.9435,0,0,0.16667,-3.158e-15,0,0.66667
0.52576,0.082671,3.1545,-0.62599,-21.631,59.114,5.2659,-1.7553,-0.60555,7.0212,-4.8184e-13,-0.30278,0,0,0.16667,-0,-0,0.66667
0.54546,0.030784,3.2727,-0.70382,-23.683,55.072,6.1425,-2.0475,-0.24071,8.19,-1.696e-12,-0.12036,0,0,0.16667,2.4672e-16,-1.1608e-17,0.66667
0.227,0.55039,1.362,0.07558,3.3973,134.32,-0.27451,0.091502,-1.9782,-0.36601,-6.9869e-11,-0.98912,0,0,0.16667,-0,-0,0.66667
0.046401,0.57717,0.2784,0.11575,5.4783,186.75,-0.085937,0.028646,-1.9534,-0.11458,-4.1378e-08,-0.9767,0,0,0.16667,9.8686e-17,0,0.66667
0.12581,0.61854,0.75485,0.17781,8.3017,163.4,-0.35791,0.1193,-1.889,-0.47721,-8.2249e-10,-0.94449,0,0,0.16667,1.9737e-16,0,0.66667
0.21513,0.41516,1.2908,-0.12727,-5.754,137.68,0.43805,-0.14602,-1.942,0.58407,1.8964e-10,-0.97101,0,0,0.16667,-0,-0,0.66667
0.87339,0.74188,5.2404,0.36282,3.9685,5.8043,-5.0701,1.69,-1.5327,-6.7601,4.7866e-09,-0.76633,0,0,0.16667,-7.8949e-16,0,0.66667
0.98833,0.9501,5.93,0.67514,0.67735,1.3396,-10.676,3.5587,-0.37854,-14.235,1.2358e-05,-0.18927,0,0,0.16667,-0,-0,0.66667
0.017766,0.46314,0.1066,-0.055283,-2.6207,195.23,0.015715,-0.0052391,-1.9898,0.020953,-1.2004e-06,-0.99492,0,0,0.16667,1.2336e-17,0,0.66667
0.44331,0.1646,2.6599,-0.5031,-19.242,77.721,3.5685,-1.1895,-1.0991,4.7579,-3.1841e-13,-0.54954,0,0,0.16667,-7.8949e-16,0,0.66667
0.3692,0.049496,2.2152,-0.67576,-27.941,96.314,3.9918,-1.3306,-0.37507,5.3224,-6.8279e-13,-0.18753,0,0,0.16667,-3.9475e-16,0,0.66667
0.53646,0.41015,3.2188,-0.13478,-4.5313,56.286,1.1568,-0.38561,-1.9352,1.5424,-5.429e-14,-0.96758,0,0,0.16667,-0,-0,0.66667
0.61652,0.96458,3.6991,0.69687,20.68,40.996,-6.8741,2.2914,-0.27274,-9.1655,-1.5321e-13,-0.13637,0,0,0.16667,-1.9737e-16,0,0.66667
0.396,0.60956,2.376,0.16433,6.5598,89.076,-1.0412,0.34707,-1.9027,-1.3883,7.5029e-13,-0.95136,0,0,0.16667,-0,-0,0.66667
0.18386,0.15177,1.1032,-0.52235,-24.068,146.71,1.5367,-0.51222,-1.03,2.0489,-5.0114e-11,-0.51502,0,0,0.16667,-2.9606e-16,0,0.66667
0.58527,0.1641,3.5116,-0.50386,-15.739,46.609,4.7183,-1.5728,-1.0962,6.2911,6.8257e-13,-0.54812,0,0,0.16667,-0,-0,0.66667
0.033297,0.65908,0.19978,0.23861,11.316,190.64,-0.12712,0.042374,-1.7988,-0.1695,1.9526e-08,-0.89938,0,0,0.16667,-0,-0,0.66667
0.89398,0.57297,5.3639,0.10945,0.99246,4.0526,-1.5656,0.52185,-1.957,-2.0874,1.2379e-08,-0.9785,0,0,0.16667,-0,-0,0.66667
0.64441,0.81161,3.8665,0.46741,12.952,35.497,-4.8193,1.6064,-1.2239,-6.4257,-2.8795e-12,-0.61197,0,0,0.16667,8.3884e-16,0,0.66667
0.094544,0.090236,0.56727,-0.61465,-29.122,172.64,0.92978,-0.30993,-0.65859,1.2397,-4.4118e-08,-0.3293,0,0,0.16667,4.9343e-17,0,0.66667
0.55137,0.38788,3.3082,-0.16818,-5.5252,53.151,1.4837,-0.49455,-1.8985,1.9782,-2.9843e-13,-0.94923,0,0,0.16667,7.8949e-16,0,0.66667
0.12897,0.86454,0.77385,0.54682,25.661,162.57,-1.1284,0.37614,-0.9362,-1.5045,-9.4941e-10,-0.4681,0,0,0.16667,-1.9737e-16,0,0.66667
0.11882,0.62957,0.71293,0.19435,9.0913,165.44,-0.36948,0.12316,-1.8651,-0.49265,1.0306e-09,-0.93257,0,0,0.16667,3.9475e-16,0,0.66667
0.26555,0.068562,1.5933,-0.64716,-28.777,123.86,2.7496,-0.91654,-0.51286,3.6662,-1.0694e-12,-0.25643,0,0,0.16667,-0,-1.2344e-16,0.66667
0.76291,0.97716,4.5774,0.71575,14.322,17.967,-8.7368,2.9123,-0.17858,-11.649,-5.0111e-12,-0.08929,0,0,0.16667,-0,-0,0.66667
0.69822,0.50659,4.1893,0.0098848,0.23739,26.155,-0.11043,0.036809,-1.9991,-0.14724,2.0621e-13,-0.99954,0,0,0.16667,-0,-0,0.66667
0.55885,0.20512,3.3531,-0.44233,-14.432,51.848,3.9551,-1.3184,-1.3037,5.2735,-9.126e-14,-0.65183,0,0,0.16667,7.8949e-16,0,0.66667
0.25523,0.70714,1.5314,0.31071,13.793,126.49,-1.2688,0.42295,-1.6556,-1.6918,-4.136e-11,-0.82781,0,0,0.16667,-0,-0,0.66667
0.51787,0.62492,3.1072,0.18738,6.4797,60.333,-1.5526,0.51755,-1.8768,-2.0702,-4.1245e-13,-0.93839,0,0,0.16667,1.0732e-15,0,0.66667
0.92975,0.75604,5.5785,0.38405,2.3337,2.3508,-5.7132,1.9044,-1.4747,-7.6176,6.282e-09,-0.73733,0,0,0.16667,-0,-0,0.66667
0.18532,0.29997,1.1119,-0.30005,-13.761,146.21,0.88967,-0.29656,-1.6799,1.1862,7.489e-10,-0.83997,0,0,0.16667,1.9737e-16,0,0.66667
0.73421,0.71474,4.4052,0.32211,6.9734,21.006,-3.7839,1.2613,-1.6333,-5.0452,1.9903e-11,-0.81665,0,0,0.16667,-0,-0,0.66667
0.87218,0.66614,5.2331,0.24921,2.7332,5.7356,-3.4777,1.1592,-1.7791,-4.6369,3.1585e-09,-0.88953,0,0,0.16667,-0,-0,0.66667
0.66946,0.85609,4.0167,0.53414,13.995,31.319,-5.7213,1.9071,-0.9855,-7.6285,-3.0385e-12,-0.49275,0,0,0.16667,-0,-0,0.66667
0.2037,0.15554,1.2222,-0.51669,-23.614,141.06,1.684,-0.56132,-1.0533,2.2453,3.6796e-10,-0.52666,0,0,0.16667,2.4672e-17,0,0.66667
0.12917,0.18059,0.775,-0.47912,-22.449,162.49,0.99018,-0.33006,-1.1834,1.3202,4.6177e-09,-0.59171,0,0,0.16667,-0,-0,0.66667
0.51503,0.26628,3.0902,-0.35058,-12.204,61.077,2.889,-0.96299,-1.564,3.8519,-7.3497e-14,-0.78198,0,0,0.16667,7.8949e-16,0,0.66667
0.13031,0.5904,0.78185,0.13561,6.3221,162.08,-0.28273,0.094244,-1.9344,-0.37698,-6.7866e-10,-0.96721,0,0,0.16667,2.4672e-16,0,0.66667
0.8257,0.050328,4.9542,-0.67451,-10.228,10.725,8.9111,-2.9704,-0.38229,11.881,2.8075e-10,-0.19115,0,0,0.16667,7.8949e-16,0,0.66667
0.52364,0.82894,3.1419,0.49341,17.026,59.363,-4.134,1.378,-1.1328,-5.5119,3.6238e-13,-0.56642,0,0,0.16667,-1.4096e-15,0,0.66667
0.29142,0.8793,1.7485,0.56895,24.849,116.72,-2.6529,0.88429,-0.84868,-3.5372,4.4509e-12,-0.42434,0,0,0.16667,-7.8949e-16,0,0.66667
0.56813,0.71415,3.4088,0.32122,10.289,49.811,-2.9199,0.97331,-1.6327,-3.8933,-4.5608e-13,-0.81633,0,0,0.16667,-0,-0,0.66667
0.26064,0.35571,1.5638,-0.21643,-9.5672,124.95,0.90255,-0.30085,-1.8324,1.2034,2.7832e-11,-0.91619,0,0,0.16667,-3.9475e-16,0,0.66667
0.58447,0.10427,3.5068,-0.5936,-18.63,46.921,5.551,-1.8503,-0.74592,7.4014,7.2875e-13,-0.37296,0,0,0.16667,-0,-0,0.66667
0.23212,0.012567,1.3927,-0.73115,-33.183,133.21,2.7155,-0.90515,-0.099272,3.6206,-4.2398e-11,-0.049636,0,0,0.16667,-7.8949e-16,1.8981e-16,0.66667
0.21905,0.75306,1.3143,0.37959,17.181,136.64,-1.3304,0.44347,-1.49,-1.7739,-2.126e-10,-0.74498,0,0,0.16667,-0,-0,0.66667
0.51851,0.65488,3.111,0.23231,8.0306,60.22,-1.9273,0.64243,-1.8092,-2.5697,-2.2127e-13,-0.90458,0,0,0.16667,1.9737e-16,0,0.66667
0.83542,0.9508,5.0125,0.67621,9.7311,9.791,-9.0386,3.0129,-0.3727,-12.052,-1.6831e-09,-0.18635,0,0,0.16667,-1.579e-15,0,0.66667
0.64477,0.94235,3.8686,0.66352,18.524,35.815,-6.8451,2.2817,-0.43455,-9.1268,-4.2855e-13,-0.21728,0,0,0.16667,-0,-0,0.66667
0.094191,0.083239,0.56514,-0.62514,-29.629,172.75,0.94212,-0.31404,-0.61173,1.2562,-1.0732e-08,-0.30586,0,0,0.16667,-0,-0,0.66667
0.13407,0.96471,0.80441,0.69706,32.802,161.15,-1.4953,0.49842,-0.27186,-1.9937,-1.1484e-09,-0.13593,0,0,0.16667,-2.4672e-16,0,0.66667
0.3903,0.50048,2.3418,0.00071809,0.028798,90.484,-0.0044843,0.0014948,-2.0027,-0.0059791,5.7182e-13,-1.0014,0,0,0.16667,-0,-0,0.66667
0.31956,0.072127,1.9174,-0.64181,-27.561,109.23,3.2816,-1.0939,-0.53413,4.3755,-2.8473e-12,-0.26706,0,0,0.16667,-0,-0,0.66667
0.89122,0.96181,5.3473,0.69271,6.781,5.3493,-9.8777,3.2926,-0.29537,-13.17,4.7877e-08,-0.14768,0,0,0.16667,-0,-0,0.66667
0.89129,0.34245,5.3477,-0.23633,-2.2081,4.3369,3.3702,-1.1234,-1.8038,4.4936,-8.464e-10,-0.90188,0,0,0.16667,-3.9475e-16,0,0.66667
0.029824,0.14414,0.17894,-0.53379,-25.446,191.68,0.25472,-0.084907,-0.98739,0.33963,-4.038e-07,-0.49369,0,0,0.16667,-4.9343e-17,0,0.66667
0.21052,0.79144,1.2631,0.43716,19.885,139.08,-1.4725,0.49083,-1.3192,-1.9633,-2.3669e-10,-0.65959,0,0,0.16667,-0,-0,0.66667
0.38835,0.20918,2.3301,-0.43623,-17.612,91.173,2.7106,-0.90352,-1.3236,3.6141,-1.5152e-12,-0.66179,0,0,0.16667,-0,-0,0.66667
0.17637,0.45022,1.0582,-0.074676,-3.4298,148.73,0.21073,-0.070245,-1.9792,0.28098,4.0576e-10,-0.98961,0,0,0.16667,-0,-0,0.66667
0.91869,0.54374,5.5121,0.06561,0.45335,2.5543,-0.9644,0.32147,-1.9842,-1.2859,6.7538e-09,-0.99212,0,0,0.16667,-0,-0,0.66667
0.1896,0.32043,1.1376,-0.26936,-12.328,144.97,0.81712,-0.27237,-1.7425,1.0895,6.4253e-10,-0.87123,0,0,0.16667,3.9475e-16,0,0.66667
0.73399,0.41842,4.4039,-0.12237,-2.6398,20.863,1.4371,-0.47902,-1.9479,1.9161,-1.4576e-11,-0.97397,0,0,0.16667,-0,-0,0.66667
0.95692,0.78192,5.7415,0.42288,1.5431,1.3495,-6.4746,2.1582,-1.365,-8.6328,-4.6725e-08,-0.68248,0,0,0.16667,-0,-0,0.66667
0.47772,0.45006,2.8663,-0.074904,-2.7316,69.33,0.57253,-0.19084,-1.9786,0.76337,4.2027e-13,-0.98932,0,0,0.16667,-7.8949e-16,0,0.66667
0.81422,0.39825,4.8853,-0.15262,-2.3838,10.954,1.9883,-0.66275,-1.9178,2.651,-6.7634e-10,-0.95891,0,0,0.16667,7.8949e-16,0,0.66667
0.42822,0.80021,2.5693,0.45031,17.483,81.303,-3.0853,1.0284,-1.2776,-4.1138,9.0594e-14,-0.63882,0,0,0.16667,-0,-0,0.66667
0.81345,0.93087,4.8807,0.6463,10.398,11.891,-8.4117,2.8039,-0.51612,-11.216,2.6391e-10,-0.25806,0,0,0.16667,-0,-0,0.66667
0.7617,0.55632,4.5702,0.084486,1.6538,17.096,-1.0296,0.34321,-1.9744,-1.3729,4.5504e-11,-0.98721,0,0,0.16667,7.8949e-16,0,0.66667
0.9596,0.20572,5.7576,-0.44142,-1.509,1.3056,6.7774,-2.2591,-1.3058,9.0365,6.8627e-08,-0.65289,0,0,0.16667,-0,-0,0.66667
0.3366,0.22655,2.0196,-0.41017,-17.29,104.51,2.209,-0.73634,-1.4007,2.9454,-4.829e-12,-0.70036,0,0,0.16667,-0,-0,0.66667
0.76659,0.68871,4.5996,0.28306,5.4607,16.617,-3.4719,1.1573,-1.7173,-4.6292,1.2556e-10,-0.85864,0,0,0.16667,3.158e-15,0,0.66667
0.92162,0.40088,5.5297,-0.14868,-0.99157,2.4437,2.1924,-0.73079,-1.9233,2.9232,2.3472e-08,-0.96167,0,0,0.16667,-3.9475e-16,0,0.66667
0.81077,0.81939,4.8646,0.47909,7.7142,11.767,-6.2149,2.0716,-1.1847,-8.2866,5.5162e-10,-0.59233,0,0,0.16667,-0,-0,0.66667
0.81434,0.89498,4.886,0.59247,9.4497,11.654,-7.7196,2.5732,-0.75222,-10.293,-1.1304e-10,-0.37611,0,0,0.16667,-0,-0,0.66667
0.9483,0.37711,5.6898,-0.18434,-0.79024,1.282,2.7969,-0.9323,-1.8793,3.7292,2.6545e-08,-0.93967,0,0,0.16667,-0,-0,0.66667
0.29068,0.29189,1.7441,-0.31216,-13.567,116.75,1.4518,-0.48395,-1.6523,1.9358,-2.8544e-13,-0.82614,0,0,0.16667,-0,-0,0.66667
0.44015,0.95285,2.6409,0.67928,26.218,78.724,-4.7837,1.5946,-0.35912,-6.3783,-5.3246e-13,-0.17956,0,0,0.16667,-0,-0,0.66667
0.10606,0.80128,0.63635,0.45191,21.28,169.23,-0.76686,0.25562,-1.2734,-1.0225,-6.8025e-09,-0.63671,0,0,0.16667,-9.8686e-17,0,0.66667
0.87728,0.15756,5.2637,-0.51366,-5.521,5.8201,7.21,-2.4033,-1.0632,9.6133,4.0201e-09,-0.53162,0,0,0.16667,-0,-0,0.66667
0.3437,0.89534,2.0622,0.59302,24.973,102.81,-3.2611,1.087,-0.75112,-4.3482,1.8363e-12,-0.37556,0,0,0.16667,-3.9475e-16,0,0.66667
0.90524,0.92055,5.4315,0.63083,5.3588,4.2702,-9.1369,3.0456,-0.58578,-12.182,1.237e-08,-0.29289,0,0,0.16667,-0,-0,0.66667
0.20386,0.19547,1.2231,-0.45679,-20.847,140.98,1.4899,-0.49664,-1.2594,1.9866,2.4395e-10,-0.62968,0,0,0.16667,-0,-0,0.66667
0.34961,0.80318,2.0976,0.45478,18.993,101.14,-2.5439,0.84796,-1.2636,-3.3918,2.8848e-12,-0.63178,0,0,0.16667,3.9475e-16,0,0.66667
0.69048,0.77674,4.1429,0.41511,10.258,27.693,-4.586,1.5287,-1.3878,-6.1147,-5.27e-12,-0.69388,0,0,0.16667,-1.1842e-15,0,0.66667
0.92271,0.56264,5.5362,0.093958,0.61629,2.355,-1.3871,0.46238,-1.9711,-1.8495,8.5522e-08,-0.98554,0,0,0.16667,-0,-0,0.66667
0.68795,0.53771,4.1277,0.056569,1.3974,27.786,-0.62267,0.20756,-1.9903,-0.83022,-1.2556e-12,-0.99513,0,0,0.16667,1.579e-15,0,0.66667
0.34009,0.3772,2.0406,-0.1842,-7.7182,103.47,1.0023,-0.33412,-1.8799,1.3365,-2.7114e-12,-0.93995,0,0,0.16667,-0,-0,0.66667
0.040043,0.92407,0.24026,0.63611,30.38,188.68,-0.40755,0.13585,-0.55985,-0.5434,-3.6109e-07,-0.27993,0,0,0.16667,-4.9343e-17,0,0.66667
0.33175,0.17309,1.9905,-0.49037,-20.783,105.85,2.6029,-0.86762,-1.1443,3.4705,-4.5977e-12,-0.57217,0,0,0.16667,3.9475e-16,0,0.66667
0.47616,0.25174,2.857,-0.37238,-13.658,69.858,2.837,-0.94568,-1.5068,3.7827,-6.3327e-13,-0.75338,0,0,0.16667,-0,-0,0.66667
0.7304,0.22495,4.3824,-0.41258,-9.071,21.675,4.8216,-1.6072,-1.3945,6.4288,-8.4968e-12,-0.69727,0,0,0.16667,-0,-0,0.66667
0.89363,0.85203,5.3618,0.52805,4.9501,4.7117,-7.5501,2.5167,-1.0085,-10.067,1.5521e-08,-0.50426,0,0,0.16667,-1.579e-15,0,0.66667
0.006309,0.32109,0.037854,-0.26836,-12.744,198.63,0.02709,-0.0090299,-1.7428,0.03612,4.2499e-08,-0.87142,0,0,0.16667,-1.2336e-17,0,0.66667
0.076734,0.73156,0.46041,0.34734,16.415,177.82,-0.42645,0.14215,-1.5715,-0.5686,-4.0915e-09,-0.78576,0,0,0.16667,-0,-0,0.66667
0.28179,0.26187,1.6907,-0.3572,-15.623,119.19,1.6105,-0.53683,-1.5474,2.1473,1.7526e-12,-0.77371,0,0,0.16667,-0,-0,0.66667
0.53562,0.1882,3.2137,-0.46771,-15.843,56.753,4.0082,-1.3361,-1.2228,5.3443,2.7933e-13,-0.6114,0,0,0.16667,-0,-0,0.66667
0.53579,0.95077,3.2147,0.67616,23.065,57.058,-5.7964,1.9321,-0.37343,-7.7286,-2.6468e-13,-0.18672,0,0,0.16667,-7.8949e-16,0,0.66667
0.42526,0.96481,2.5516,0.69721,27.358,82.344,-4.744,1.5813,-0.27199,-6.3253,3.4195e-13,-0.136,0,0,0.16667,5.9212e-16,0,0.66667
0.88364,0.033297,5.3018,-0.70005,-7.3126,5.8922,9.8975,-3.2992,-0.25729,13.197,1.6125e-08,-0.12864,0,0,0.16667,-0,-0,0.66667
0.72735,0.61572,4.3641,0.17358,3.8282,21.839,-2.0201,0.67337,-1.8916,-2.6935,1.1738e-11,-0.94582,0,0,0.16667,-0,-0,0.66667
0.13596,0.8092,0.81577,0.4638,21.684,160.51,-1.009,0.33632,-1.2351,-1.3453,-1.1489e-09,-0.61757,0,0,0.16667,-4.9343e-17,0,0.66667
0.23514,0.12705,1.4108,-0.55942,-25.223,132.23,2.1046,-0.70155,-0.88942,2.8062,-2.9128e-12,-0.44471,0,0,0.16667,-0,-0,0.66667
0.50531,0.11181,3.0318,-0.58228,-20.678,63.52,4.7077,-1.5692,-0.79329,6.2769,-8.2689e-13,-0.39664,0,0,0.16667,7.8949e-16,0,0.66667
0.36252,0.11994,2.1751,-0.5701,-23.628,97.901,3.3067,-1.1022,-0.84469,4.409,-1.668e-12,-0.42235,0,0,0.16667,1.9737e-16,0,0.66667
0.80862,0.54022,4.8517,0.060326,0.96731,11.51,-0.78049,0.26016,-1.9866,-1.0406,1.7338e-10,-0.99328,0,0,0.16667,-0,-0,0.66667
0.41934,0.064992,2.516,-0.65251,-25.721,83.722,4.3779,-1.4593,-0.48714,5.8373,-4.2188e-14,-0.24357,0,0,0.16667,-1.579e-15,0,0.66667
0.94116,0.03024,5.647,-0.70464,-3.8148,2.7237,10.611,-3.537,-0.23538,14.148,4.148e-06,-0.11769,0,0,0.16667,-5.9212e-16,0,0.66667
0.18246,0.41005,1.0947,-0.13493,-6.1849,146.99,0.39391,-0.1313,-1.9351,0.52521,7.8855e-10,-0.96753,0,0,0.16667,-0,-0,0.66667
0.48279,0.038145,2.8967,-0.69278,-25.443,68.774,5.3515,-1.7838,-0.29437,7.1353,-1.8221e-12,-0.14718,0,0,0.16667,-0,1.3576e-16,0.66667
0.89425,0.90652,5.3655,0.60977,5.7427,4.8929,-8.7246,2.9082,-0.67891,-11.633,8.9701e-08,-0.33945,0,0,0.16667,3.158e-15,0,0.66667
0.065736,0.63568,0.39442,0.20352,9.6167,181.04,-0.21406,0.071352,-1.8524,-0.28541,3.1277e-09,-0.92618,0,0,0.16667,-0,-0,0.66667
0.27923,0.6332,1.6754,0.1998,8.7345,119.83,-0.89266,0.29755,-1.8585,-1.1902,-6.625e-12,-0.92925,0,0,0.16667,-0,-0,0.66667
0.20277,0.21508,1.2166,-0.42737,-19.502,141.28,1.3866,-0.46219,-1.3527,1.8487,3.9368e-10,-0.67636,0,0,0.16667,-9.8686e-17,0,0.66667
0.98481,0.92867,5.9089,0.64301,0.83098,1.281,-10.132,3.3773,-0.53131,-13.509,7.206e-07,-0.26566,0,0,0.16667,-0,3.2007e-16,0.66667
0.46845,0.39867,2.8107,-0.15199,-5.6095,71.501,1.1392,-0.37974,-1.9195,1.5189,-4.1211e-13,-0.95974,0,0,0.16667,7.8949e-16,0,0.66667
0.88817,0.87912,5.329,0.56868,5.6227,5.1839,-8.0813,2.6938,-0.85092,-10.775,-2.1224e-10,-0.42546,0,0,0.16667,-0,-3.4266e-18,0.66667
0.85393,0.94951,5.1236,0.67427,8.6893,8.123,-9.2124,3.0708,-0.38234,-12.283,2.1905e-09,-0.19117,0,0,0.16667,-0,-0,0.66667
0.10397,0.078431,0.62381,-0.63235,-29.918,169.89,1.0519,-0.35064,-0.57697,1.4026,-3.4913e-08,-0.28848,0,0,0.16667,-0,-0,0.66667
0.34994,0.82452,2.0997,0.48679,20.34,101.08,-2.7256,0.90852,-1.1561,-3.6341,2.9599e-12,-0.57807,0,0,0.16667,-0,-0,0.66667
0.4967,0.0012393,2.9802,-0.74814,-27.049,65.735,5.9456,-1.9819,-0.01078,7.9274,-8.8551e-13,-0.0053899,0,0,0.16667,3.158e-15,0,0.66667
0.8789,0.34239,5.2734,-0.23642,-2.458,5.2138,3.3246,-1.1082,-1.8019,4.4328,-5.5189e-09,-0.90094,0,0,0.16667,-5.9212e-16,0,0.66667
0.98185,0.26024,5.8911,-0.35964,-0.45926,0.58716,5.6498,-1.8833,-1.5401,7.5331,7.7916e-09,-0.77006,0,0,0.16667,-0,-0,0.66667
0.33695,0.53122,2.0217,0.046824,1.9652,104.27,-0.25244,0.084145,-1.9924,-0.33658,1.0096e-12,-0.9962,0,0,0.16667,-9.4986e-16,0,0.66667
0.78195,0.077452,4.6917,-0.63382,-11.716,15.389,7.9299,-2.6433,-0.57251,10.573,1.8942e-11,-0.28626,0,0,0.16667,-0,-0,0.66667
0.85872,0.044453,5.1523,-0.68332,-8.5455,7.7481,9.3885,-3.1295,-0.34076,12.518,4.5606e-09,-0.17038,0,0,0.16667,-1.579e-15,0,0.66667
0.28125,0.89533,1.6875,0.593,26.083,119.51,-2.6685,0.88949,-0.75125,-3.558,1.9875e-12,-0.37563,0,0,0.16667,-0,1.7948e-16,0.66667
0.19893,0.76491,1.1936,0.39737,18.152,142.36,-1.2648,0.42159,-1.4377,-1.6864,-4.5124e-10,-0.71883,0,0,0.16667,3.9475e-16,0,0.66667
0.64661,0.71678,3.8797,0.32517,8.9281,34.915,-3.3641,1.1214,-1.624,-4.4855,-3.733e-12,-0.81199,0,0,0.16667,2.9606e-16,0,0.66667
0.56414,0.77004,3.3848,0.40507,13.088,50.715,-3.6562,1.2187,-1.417,-4.8749,-6.5725e-13,-0.70852,0,0,0.16667,-0,-0,0.66667
0.15458,0.13706,0.92745,-0.54441,-25.357,155.15,1.3464,-0.44881,-0.94656,1.7952,2.6466e-09,-0.47328,0,0,0.16667,-0,-7.4412e-17,0.66667
0.74217,0.62283,4.453,0.18425,3.8715,19.758,-2.1879,0.72929,-1.879,-2.9172,3.4247e-11,-0.93951,0,0,0.16667,-9.8686e-16,0,0.66667
0.36009,0.84422,2.1606,0.51633,21.412,98.471,-2.9748,0.99161,-1.0546,-3.9664,2.4656e-12,-0.52729,0,0,0.16667,-1.579e-15,0,0.66667
0.60467,0.055232,3.628,-0.66715,-20.233,43.156,6.4546,-2.1515,-0.41686,8.6061,2.6557e-13,-0.20843,0,0,0.16667,-3.9475e-16,-1.0677e-17,0.66667
0.006493,0.7986,0.038958,0.44789,21.33,198.58,-0.046531,0.01551,-1.2853,-0.062041,-1.8248e-07,-0.64264,0,0,0.16667,-1.2336e-17,0,0.66667
0.59052,0.79943,3.5431,0.44914,13.873,45.498,-4.2436,1.4145,-1.2822,-5.6581,-8.2379e-13,-0.64112,0,0,0.16667,-7.8949e-16,0,0.66667
0.73343,0.88798,4.4006,0.58197,12.773,21.575,-6.8293,2.2764,-0.79654,-9.1057,-1.3229e-12,-0.39827,0,0,0.16667,-0,1.9172e-16,0.66667
0.34567,0.39184,2.074,-0.16224,-6.7666,102,0.89729,-0.2991,-1.9065,1.1964,-3.1053e-12,-0.95327,0,0,0.16667,3.9475e-16,0,0.66667
0.75933,0.75572,4.556,0.38358,7.6306,17.687,-4.6602,1.5534,-1.4761,-6.2136,7.2333e-11,-0.73806,0,0,0.16667,1.579e-15,0,0.66667
0.42697,0.74292,2.5618,0.36438,14.139,81.527,-2.4893,0.82976,-1.5272,-3.319,1.2215e-12,-0.76362,0,0,0.16667,-1.4193e-16,0,0.66667
0.4232,0.39173,2.5392,-0.16241,-6.309,82.327,1.0997,-0.36656,-1.9067,1.4662,-5.439e-13,-0.95335,0,0,0.16667,7.8949e-16,0,0.66667
0.29935,0.95199,1.7961,0.67798,29.555,114.68,-3.2473,1.0824,-0.36549,-4.3297,-8.4377e-15,-0.18274,0,0,0.16667,3.9475e-16,0,0.66667
0.74106,0.040197,4.4464,-0.6897,-14.863,20.785,8.1778,-2.7259,-0.30748,10.904,-2.6974e-12,-0.15374,0,0,0.16667,-0,-0,0.66667
0.91708,0.19076,5.5025,-0.46386,-3.3721,3.1562,6.8064,-2.2688,-1.2349,9.0752,-2.4265e-08,-0.61746,0,0,0.16667,-3.158e-15,0,0.66667
0.4431,0.36569,2.6586,-0.20147,-7.6628,77.52,1.4283,-0.47612,-1.8546,1.9045,-7.4452e-13,-0.92732,0,0,0.16667,-0,-0,0.66667
0.98698,0.79473,5.9219,0.4421,0.3805,0.6736,-6.9815,2.3272,-1.3049,-9.3086,4.7176e-08,-0.65243,0,0,0.16667,-1.579e-15,0,0.66667
0.79949,0.64503,4.7969,0.21755,3.6516,12.61,-2.7828,0.92761,-1.8316,-3.7104,3.9798e-10,-0.91581,0,0,0.16667,-0,-0,0.66667
0.31124,0.50736,1.8674,0.011042,0.47225,111.11,-0.054989,0.01833,-2.0006,-0.073319,-9.9867e-13,-1.0003,0,0,0.16667,-0,-0,0.66667
0.23311,0.98419,1.3986,0.72628,32.941,132.93,-2.7088,0.90293,-0.12502,-3.6117,3.3293e-11,-0.062512,0,0,0.16667,-0,1.9734e-16,0.66667
0.35894,0.13272,2.1536,-0.55092,-22.889,98.805,3.1639,-1.0546,-0.92233,4.2186,-1.4031e-12,-0.46117,0,0,0.16667,-0,1.5887e-16,0.66667
0.40467,0.41456,2.428,-0.12817,-5.072,86.895,0.82985,-0.27662,-1.9423,1.1065,-4.6307e-13,-0.97114,0,0,0.16667,-0,-0,0.66667
0.4959,0.6795,2.9754,0.26925,9.609,65.269,-2.1363,0.71211,-1.7418,-2.8484,2.4802e-13,-0.87088,0,0,0.16667,-0,-0,0.66667
0.70153,0.37924,4.2092,-0.18114,-4.3162,25.702,2.0333,-0.67775,-1.8846,2.711,6.7013e-13,-0.94228,0,0,0.16667,-0,-0,0.66667
0.841,0.2069,5.046,-0.43965,-6.0091,8.6802,5.916,-1.972,-1.3125,7.8879,-1.5168e-09,-0.65626,0,0,0.16667,7.8949e-16,0,0.66667
0.059074,0.43867,0.35444,-0.091996,-4.3475,183.01,0.086953,-0.028985,-1.9707,0.11594,-2.1348e-07,-0.98537,0,0,0.16667,1.9737e-16,0,0.66667
0.45307,0.78614,2.7184,0.42921,16.205,75.315,-3.1114,1.0371,-1.3471,-4.1486,4.2411e-13,-0.67357,0,0,0.16667,-0,-0,0.66667
0.42756,0.30497,2.5653,-0.29255,-11.331,81.33,2.0013,-0.66709,-1.6948,2.6684,-7.534e-13,-0.84742,0,0,0.16667,-0,-0,0.66667
0.42403,0.4577,2.5442,-0.063455,-2.4614,82.098,0.43051,-0.1435,-1.9858,0.57402,-1.2909e-13,-0.99291,0,0,0.16667,-0,-0,0.66667
0.56368,0.41811,3.3821,-0.12283,-3.9529,50.586,1.1078,-0.36927,-1.947,1.4771,-1.1058e-13,-0.97351,0,0,0.16667,-0,-0,0.66667
0.9398,0.21483,5.6388,-0.42776,-2.2292,1.9929,6.4321,-2.144,-1.3503,8.5761,4.7145e-09,-0.67514,0,0,0.16667,-3.9475e-16,0,0.66667
0.33032,0.68057,1.9819,0.27085,11.445,106.08,-1.4315,0.47716,-1.7397,-1.9086,4.2718e-12,-0.86983,0,0,0.16667,3.9475e-16,0,0.66667
0.94897,0.44349,5.6938,-0.084761,-0.35585,1.1892,1.287,-0.42899,-1.9742,1.716,-1.3986e-08,-0.9871,0,0,0.16667,-0,-0,0.66667
0.24588,0.58462,1.4753,0.12693,5.6523,129.03,-0.49935,0.16645,-1.9421,-0.66581,-5.0006e-11,-0.97106,0,0,0.16667,-0,-0,0.66667
0.54841,0.11128,3.2904,-0.58308,-19.436,54.229,5.1162,-1.7054,-0.79154,6.8217,-3.6104e-13,-0.39577,0,0,0.16667,7.8949e-16,0,0.66667
0.7134,0.87394,4.2804,0.5609,13.077,24.431,-6.4024,2.1341,-0.8816,-8.5365,-2.9257e-12,-0.4408,0,0,0.16667,-1.9737e-16,0,0.66667
0.88062,0.85869,5.2837,0.53803,5.6456,5.6355,-7.5808,2.5269,-0.96943,-10.108,9.0591e-09,-0.48471,0,0,0.16667,-0,-0,0.66667
0.7817,0.32071,4.6902,-0.26893,-4.884,14.732,3.3635,-1.1212,-1.7443,4.4847,-2.2245e-10,-0.87215,0,0,0.16667,-0,-0,0.66667
0.96576,0.29485,5.7946,-0.30772,-0.84485,0.86868,4.755,-1.585,-1.6629,6.34,3.3597e-08,-0.83146,0,0,0.16667,-0,-0,0.66667
0.55114,0.15396,3.3069,-0.51907,-17.189,53.554,4.5773,-1.5258,-1.0423,6.103,4.4809e-13,-0.52117,0,0,0.16667,-1.1842e-15,0,0.66667
0.90543,0.76401,5.4326,0.39601,3.2588,3.6772,-5.7369,1.9123,-1.4432,-7.6492,1.0967e-08,-0.72161,0,0,0.16667,-0,-0,0.66667
0.65468,0.78061,3.9281,0.42091,11.376,33.633,-4.409,1.4697,-1.372,-5.8787,-3.9626e-12,-0.68599,0,0,0.16667,-9.8686e-17,0,0.66667
0.16901,0.38375,1.0141,-0.17437,-8.0346,150.87,0.47153,-0.15718,-1.8918,0.62871,1.1586e-09,-0.94592,0,0,0.16667,-0,-0,0.66667
0.030661,0.79387,0.18396,0.4408,20.97,191.43,-0.21625,0.072082,-1.3101,-0.28833,1.4939e-07,-0.65507,0,0,0.16667,-4.9343e-17,0,0.66667
0.76078,0.52148,4.5647,0.03222,0.63268,17.202,-0.3922,0.13073,-1.9954,-0.52293,1.6749e-11,-0.99771,0,0,0.16667,-0,-0,0.66667
0.67762,0.93804,4.0657,0.65706,16.968,30.235,-7.1238,2.3746,-0.46523,-9.4984,-4.6407e-13,-0.23261,0,0,0.16667,-1.579e-15,0,0.66667
0.28831,0.61978,1.7299,0.17967,7.8085,117.34,-0.82882,0.27627,-1.8845,-1.1051,-2.6757e-12,-0.94223,0,0,0.16667,1.9737e-16,0,0.66667
0.10602,0.11989,0.6361,-0.57016,-26.92,169.27,0.96715,-0.32238,-0.84432,1.2895,-1.0308e-08,-0.42216,0,0,0.16667,9.8686e-17,0,0.66667
0.68946,0.0081631,4.1368,-0.73776,-18.565,28.539,8.1384,-2.7128,-0.065259,10.851,-6.6613e-13,-0.032629,0,0,0.16667,-0,-0,0.66667
0.74945,0.37868,4.4967,-0.18197,-3.7287,18.765,2.1821,-0.72736,-1.8842,2.9094,-4.3247e-11,-0.94212,0,0,0.16667,-0,-0,0.66667
0.55828,0.81749,3.3497,0.47623,15.568,52.011,-4.2539,1.418,-1.1935,-5.6719,-4.2233e-13,-0.59675,0,0,0.16667,-0,-0,0.66667
0.66524,0.27045,3.9914,-0.34432,-9.0548,31.729,3.6649,-1.2216,-1.5772,4.8865,4.6132e-12,-0.78858,0,0,0.16667,-0,-0,0.66667
0.40406,0.16452,2.4244,-0.50321,-20.049,87.302,3.2533,-1.0844,-1.1,4.3377,-5.7021e-13,-0.55,0,0,0.16667,-0,-0,0.66667
0.86609,0.64831,5.1965,0.22247,2.5501,6.1866,-3.0829,1.0276,-1.8229,-4.1105,2.4111e-09,-0.91147,0,0,0.16667,-0,-0,0.66667
0.5324,0.2351,3.1944,-0.39735,-13.5,57.354,3.3848,-1.1283,-1.4392,4.513,-6.5392e-13,-0.71961,0,0,0.16667,7.8949e-16,0,0.66667
0.89484,0.3014,5.369,-0.29791,-2.703,4.1789,4.2652,-1.4217,-1.6837,5.687,-6.2551e-09,-0.84184,0,0,0.16667,-0,-0,0.66667
0.73971,0.030675,4.4383,-0.70399,-15.253,21.009,8.3319,-2.7773,-0.23821,11.109,-3.1859e-12,-0.1191,0,0,0.16667,-1.3816e-15,0,0.66667
0.5229,0.73523,3.1374,0.35284,12.145,59.359,-2.952,0.98401,-1.5558,-3.936,-3.5372e-13,-0.77791,0,0,0.16667,-0,-0,0.66667
0.71966,0.35729,4.3179,-0.21406,-4.8389,22.99,2.4649,-0.82162,-1.8378,3.2865,-7.089e-12,-0.91892,0,0,0.16667,-0,-0,0.66667
0.88675,0.58768,5.3205,0.13152,1.2747,4.5581,-1.8661,0.62202,-1.9383,-2.4881,6.4858e-10,-0.96916,0,0,0.16667,7.8949e-16,0,0.66667
0.19451,0.80572,1.1671,0.45858,21.012,143.64,-1.4272,0.47573,-1.2513,-1.9029,-2.9133e-10,-0.62566,0,0,0.16667,-1.9737e-16,0,0.66667
0.42981,0.76106,2.5788,0.39159,15.158,80.861,-2.6929,0.89764,-1.4534,-3.5906,5.258e-13,-0.72669,0,0,0.16667,7.8949e-16,0,0.66667
0.85935,0.051229,5.1561,-0.67316,-8.3736,7.6641,9.2556,-3.0852,-0.39034,12.341,9.4997e-09,-0.19517,0,0,0.16667,-0,1.8205e-16,0.66667
0.030496,0.3059,0.18298,-0.29115,-13.818,191.47,0.14206,-0.047354,-1.7,0.18942,-2.7326e-08,-0.85001,0,0,0.16667,2.4672e-17,0,0.66667
0.13308,0.81319,0.79849,0.46978,21.984,161.35,-1.0003,0.33344,-1.2153,-1.3337,-1.554e-09,-0.60767,0,0,0.16667,3.9475e-16,0,0.66667
0.40535,0.062281,2.4321,-0.65658,-26.248,87.174,4.2583,-1.4194,-0.46963,5.6777,-1.3807e-12,-0.23481,0,0,0.16667,2.7139e-16,5.4818e-18,0.66667
0.11236,0.96136,0.67415,0.69205,32.739,167.47,-1.2441,0.41471,-0.29719,-1.6588,-1.041e-08,-0.1486,0,0,0.16667,-0,-0,0.66667
0.72615,0.042525,4.3569,-0.68621,-15.505,22.866,7.9727,-2.6576,-0.32433,10.63,1.9922e-12,-0.16216,0,0,0.16667,-0,-0,0.66667
0.97481,0.36479,5.8489,-0.20282,-0.37462,0.50224,3.1633,-1.0544,-1.8526,4.2177,4.8081e-08,-0.92628,0,0,0.16667,-0,-0,0.66667
0.48907,0.64006,2.9344,0.21009,7.5595,66.779,-1.644,0.548,-1.842,-2.192,6.9278e-14,-0.92099,0,0,0.16667,-7.8949e-16,0,0.66667
0.96027,0.59781,5.7616,0.14672,0.46619,0.84148,-2.2542,0.75139,-1.9229,-3.0056,-1.4434e-07,-0.96144,0,0,0.16667,-0,-0,0.66667
0.13577,0.63742,0.81461,0.20613,9.6009,160.5,-0.44779,0.14926,-1.8479,-0.59705,-3.3393e-09,-0.92393,0,0,0.16667,1.9737e-16,0,0.66667
0.70044,0.16041,4.2027,-0.50939,-12.295,26.294,5.7088,-1.9029,-1.078,7.6117,3.7712e-12,-0.53902,0,0,0.16667,1.579e-15,0,0.66667
0.58286,0.50707,3.4971,0.010607,0.32997,46.692,-0.098916,0.032972,-1.999,-0.13189,-5.9482e-13,-0.99951,0,0,0.16667,-0,-0,0.66667
0.79173,0.15422,4.7504,-0.51867,-9.1323,13.963,6.5704,-2.1901,-1.0436,8.7605,-1.1855e-10,-0.52179,0,0,0.16667,2.344e-16,0,0.66667
0.5377,0.032374,3.2262,-0.70144,-23.883,56.701,6.0346,-2.0115,-0.25062,8.0462,-1.7382e-12,-0.12531,0,0,0.16667,-0,-0,0.66667
0.97989,0.7481,5.8794,0.37215,0.54749,0.64847,-5.8346,1.9449,-1.5079,-7.7795,-3.2598e-08,-0.75394,0,0,0.16667,3.9475e-16,0,0.66667
0.43965,0.39214,2.6379,-0.16179,-6.1747,78.332,1.1381,-0.37936,-1.9069,1.5174,-3.6826e-13,-0.95347,0,0,0.16667,-0,-0,0.66667
0.95027,0.5597,5.7016,0.089546,0.36536,1.1434,-1.3615,0.45383,-1.9723,-1.8153,4.7876e-08,-0.98614,0,0,0.16667,-0,-0,0.66667
0.91828,0.069413,5.5097,-0.64588,-4.7627,3.5871,9.4896,-3.1632,-0.5166,12.653,-4.4078e-08,-0.2583,0,0,0.16667,-0,-0,0.66667
0.42387,0.83958,2.5432,0.50936,19.897,82.427,-3.4545,1.1515,-1.0785,-4.6059,3.153e-13,-0.53925,0,0,0.16667,-1.9737e-16,0,0.66667
0.41052,0.40633,2.4631,-0.1405,-5.5283,85.444,0.92284,-0.30761,-1.9306,1.2304,-8.9651e-14,-0.96528,0,0,0.16667,-0,-0,0.66667
0.019947,0.15337,0.11968,-0.51994,-24.79,194.6,0.16594,-0.055314,-1.039,0.22126,-4.1217e-07,-0.51948,0,0,0.16667,3.084e-17,0,0.66667
0.44849,0.183,2.691,-0.47549,-18.067,76.452,3.4121,-1.1374,-1.1959,4.5495,-6.9611e-13,-0.59796,0,0,0.16667,-1.9737e-16,0,0.66667
0.19941,0.66022,1.1965,0.24034,10.952,142.17,-0.76681,0.2556,-1.7948,-1.0224,-3.9123e-10,-0.89742,0,0,0.16667,-0,-0,0.66667
0.33593,0.65222,2.0156,0.22833,9.6022,104.58,-1.2272,0.40908,-1.814,-1.6363,2.936e-12,-0.90701,0,0,0.16667,1.9891e-16,0,0.66667
0.28252,0.058519,1.6951,-0.66222,-29.164,119.23,2.9934,-0.9978,-0.44221,3.9912,-3.4126e-12,-0.22111,0,0,0.16667,1.9737e-16,0,0.66667
0.6702,0.42633,4.0212,-0.11051,-2.8587,30.707,1.185,-0.39499,-1.957,1.58,2.1247e-12,-0.97849,0,0,0.16667,7.8949e-16,0,0.66667
0.44017,0.44975,2.641,-0.075378,-2.8736,78.182,0.53087,-0.17696,-1.9796,0.70783,-4.0173e-13,-0.9898,0,0,0.16667,7.8949e-16,0,0.66667
0.60025,0.34235,3.6015,-0.23648,-7.1371,43.377,2.2712,-0.75705,-1.8011,3.0282,2.8555e-13,-0.90056,0,0,0.16667,1.0856e-15,0,0.66667
0.84352,0.70547,5.0611,0.3082,4.1182,8.228,-4.1596,1.3865,-1.6635,-5.5461,1.9727e-09,-0.83176,0,0,0.16667,-0,-0,0.66667
0.83277,0.6182,4.9966,0.1773,2.5107,9.0962,-2.3624,0.78746,-1.8877,-3.1498,1.2881e-09,-0.94386,0,0,0.16667,-0,-0,0.66667
0.58556,0.98599,3.5133,0.72899,22.97,46.986,-6.8299,2.2766,-0.10896,-9.1065,-1.1511e-12,-0.054478,0,0,0.16667,7.8949e-16,0,0.66667
0.44054,0.038786,2.6432,-0.69182,-26.703,78.651,4.8764,-1.6255,-0.29826,6.5018,-1.2181e-12,-0.14913,0,0,0.16667,-0,-0,0.66667
0.40041,0.82476,2.4025,0.48715,19.47,88.195,-3.1209,1.0403,-1.1549,-4.1612,1.4715e-12,-0.57747,0,0,0.16667,-0,-0,0.66667
0.071127,0.73671,0.42676,0.35507,16.796,179.47,-0.40408,0.13469,-1.5503,-0.53878,-9.653e-10,-0.77513,0,0,0.16667,-8.4231e-17,0,0.66667
0.46738,0.98111,2.8043,0.72167,27.042,72.372,-5.3967,1.7989,-0.14876,-7.1956,3.9346e-13,-0.074382,0,0,0.16667,-7.8949e-16,0,0.66667
0.40304,0.4091,2.4183,-0.13636,-5.405,87.303,0.87931,-0.2931,-1.9345,1.1724,-7.6272e-13,-0.96725,0,0,0.16667,-0,-0,0.66667
0.20153,0.61706,1.2092,0.17558,7.9889,141.55,-0.56617,0.18872,-1.8911,-0.75489,-3.9736e-10,-0.94555,0,0,0.16667,-1.9737e-16,0,0.66667
0.80272,0.92677,4.8163,0.64015,10.826,13.025,-8.2218,2.7406,-0.54177,-10.962,1.1404e-10,-0.27088,0,0,0.16667,-0,-0,0.66667
0.69815,0.77512,4.1889,0.41268,9.9858,26.484,-4.6098,1.5366,-1.3939,-6.1464,-4.7429e-12,-0.69697,0,0,0.16667,-0,-0,0.66667
0.97541,0.64526,5.8524,0.21789,0.39169,0.50525,-3.4004,1.1335,-1.8299,-4.5339,-1.6712e-08,-0.91494,0,0,0.16667,-1.579e-15,0,0.66667
0.38552,0.12996,2.3131,-0.55506,-22.537,92.012,3.4237,-1.1412,-0.90417,4.565,-1.1713e-12,-0.45209,0,0,0.16667,-0,-0,0.66667
0.41693,0.73451,2.5016,0.35176,13.79,83.976,-2.3466,0.78219,-1.5589,-3.1287,1.2832e-12,-0.77945,0,0,0.16667,-0,-0,0.66667
0.51973,0.99757,3.1184,0.74636,26.144,60.648,-6.2065,2.0688,-0.019698,-8.2754,-6.1773e-13,-0.0098488,0,0,0.16667,-2.9606e-16,0,0.66667
0.35329,0.024974,2.1197,-0.71254,-29.893,100.46,4.0277,-1.3426,-0.19401,5.3703,-6.6347e-13,-0.097005,0,0,0.16667,-3.9475e-16,0,0.66667
0.54525,0.83111,3.2715,0.49666,16.59,54.754,-4.3329,1.4443,-1.1233,-5.7772,-5.5023e-13,-0.56164,0,0,0.16667,-0,-0,0.66667
0.88975,0.49816,5.3385,-0.0027625,-0.026012,4.309,0.039327,-0.013109,-2.0021,0.052437,-3.1135e-08,-1.001,0,0,0.16667,-2.7632e-15,0,0.66667
0.73052,0.93548,4.3831,0.65321,14.53,22.158,-7.635,2.545,-0.48339,-10.18,-7.6339e-13,-0.2417,0,0,0.16667,3.9475e-16,-1.7262e-16,0.66667
0.20651,0.14358,1.2391,-0.53462,-24.414,140.27,1.7665,-0.58883,-0.9832,2.3553,1.8287e-10,-0.4916,0,0,0.16667,-0,-0,0.66667
0.80015,0.65123,4.8009,0.22685,3.797,12.545,-2.9042,0.96806,-1.8173,-3.8722,3.8411e-10,-0.90863,0,0,0.16667,1.579e-15,0,0.66667
0.79531,0.20932,4.7718,-0.43601,-7.5226,13.387,5.5483,-1.8494,-1.3247,7.3977,-3.2342e-10,-0.66233,0,0,0.16667,7.8949e-16,0,0.66667
0.79909,0.59601,4.7945,0.14402,2.4178,12.598,-1.8414,0.6138,-1.9275,-2.4552,1.8946e-10,-0.96373,0,0,0.16667,3.158e-15,0,0.66667
0.3168,0.49343,1.9008,-0.0098512,-0.41965,109.62,0.049934,-0.016645,-1.9993,0.066579,-1.3372e-12,-0.99964,0,0,0.16667,5.9212e-16,0,0.66667
0.61295,0.86959,3.6777,0.55439,16.466,41.37,-5.437,1.8123,-0.90727,-7.2493,-1.2124e-12,-0.45363,0,0,0.16667,7.8949e-16,0,0.66667
0.65229,0.99038,3.9137,0.73556,20.268,34.681,-7.6768,2.5589,-0.075676,-10.236,5.5023e-13,-0.037838,0,0,0.16667,-7.8949e-16,0,0.66667
0.12023,0.84892,0.72135,0.52339,24.603,165.11,-1.0068,0.3356,-1.0257,-1.3424,8.5775e-10,-0.51284,0,0,0.16667,-0,-0,0.66667
0.91868,0.46765,5.5121,-0.04853,-0.33528,2.5502,0.71333,-0.23778,-1.9926,0.95111,1.7526e-08,-0.99629,0,0,0.16667,-1.7764e-15,0,0.66667
0.36814,0.84175,2.2088,0.51262,21.112,96.395,-3.0194,1.0065,-1.0655,-4.0259,2.3435e-12,-0.53273,0,0,0.16667,9.8686e-16,0,0.66667
0.68838,0.16083,4.1303,-0.50876,-12.688,28.186,5.6035,-1.8678,-1.0813,7.4713,4.1931e-12,-0.54066,0,0,0.16667,1.579e-15,0,0.66667
0.92834,0.017931,5.57,-0.7231,-4.7666,3.3472,10.741,-3.5802,-0.13946,14.321,-5.8186e-07,-0.069729,0,0,0.16667,-0,-0,0.66667
0.67487,0.62506,4.0492,0.18759,4.8007,29.971,-2.0256,0.67519,-1.8761,-2.7008,-3.749e-12,-0.93807,0,0,0.16667,-0,-0,0.66667
0.93848,0.4245,5.6309,-0.11325,-0.58373,1.6228,1.7005,-0.56683,-1.9551,2.2673,5.0527e-08,-0.97757,0,0,0.16667,-1.579e-15,0,0.66667
0.69911,0.84806,4.1946,0.52209,12.655,26.525,-5.84,1.9467,-1.0309,-7.7867,-4.2357e-12,-0.51543,0,0,0.16667,-0,-0,0.66667
0.17086,0.74637,1.0251,0.36955,17.057,150.38,-1.0103,0.33675,-1.5161,-1.347,-1.1701e-09,-0.75805,0,0,0.16667,-4.9343e-17,0,0.66667
0.72891,0.18436,4.3734,-0.47346,-10.485,21.993,5.5217,-1.8406,-1.2028,7.3622,-4.909e-12,-0.6014,0,0,0.16667,2.158e-16,0,0.66667
0.40572,0.53414,2.4343,0.05121,2.0237,86.618,-0.33243,0.11081,-1.9928,-0.44325,1.322e-13,-0.99641,0,0,0.16667,-0,-0,0.66667
0.31857,0.61105,1.9114,0.16657,7.0916,109.17,-0.84904,0.28301,-1.9,-1.1321,2.1071e-12,-0.94998,0,0,0.16667,3.9475e-16,0,0.66667
0.78065,0.35957,4.6839,-0.21064,-3.836,14.801,2.631,-0.877,-1.8432,3.508,-2.0266e-10,-0.92159,0,0,0.16667,1.579e-15,0,0.66667
0.79049,0.36944,4.7429,-0.19584,-3.4199,13.621,2.4769,-0.82565,-1.8629,3.3026,-2.5375e-10,-0.93145,0,0,0.16667,-0,-0,0.66667
0.94901,0.35226,5.6941,-0.22161,-0.9391,1.2937,3.3649,-1.1216,-1.8249,4.4866,2.1899e-08,-0.91243,0,0,0.16667,-0,-0,0.66667
0.20319,0.74756,1.2191,0.37134,16.925,141.14,-1.2072,0.4024,-1.5123,-1.6096,-3.671e-10,-0.75613,0,0,0.16667,-9.8686e-17,0,0.66667
0.53266,0.3068,3.196,-0.2898,-9.8196,57.193,2.4698,-0.82328,-1.7025,3.2931,-4.7407e-13,-0.85125,0,0,0.16667,1.1842e-15,0,0.66667
0.77212,0.48237,4.6327,-0.026439,-0.49709,15.758,0.32663,-0.10888,-1.9961,0.43551,-2.6746e-11,-0.99804,0,0,0.16667,1.579e-15,0,0.66667
0.51635,0.57954,3.0981,0.11931,4.132,60.638,-0.98565,0.32855,-1.9503,-1.3142,7.6494e-14,-0.97514,0,0,0.16667,-7.8949e-16,0,0.66667
0.22879,0.53442,1.3727,0.051636,2.3188,133.82,-0.18902,0.063006,-1.9903,-0.25202,-2.2539e-11,-0.99515,0,0,0.16667,-0,-0,0.66667
0.99529,0.92434,5.9717,0.63651,0.18324,1.1217,-10.136,3.3787,-0.55844,-13.515,-1.6041e-07,-0.27922,0,0,0.16667,-0,-0,0.66667
0.88932,0.73493,5.3359,0.35239,3.3769,4.6331,-5.0142,1.6714,-1.559,-6.6856,6.7865e-09,-0.77948,0,0,0.16667,-0,-0,0.66667
0.57714,0.2361,3.4629,-0.39585,-12.505,48.073,3.6554,-1.2185,-1.4436,4.8739,3.5016e-13,-0.72178,0,0,0.16667,7.8949e-16,0,0.66667
0.53805,0.24345,3.2283,-0.38483,-12.959,56.134,3.3129,-1.1043,-1.4725,4.4172,-4.9849e-13,-0.73626,0,0,0.16667,7.8949e-16,0,0.66667
0.83998,0.28499,5.0399,-0.32251,-4.4047,8.5748,4.3344,-1.4448,-1.6304,5.7792,-1.8102e-09,-0.8152,0,0,0.16667,-0,-0,0.66667
0.91463,0.66044,5.4878,0.24067,1.7622,2.9059,-3.5219,1.174,-1.7934,-4.6959,5.168e-09,-0.89672,0,0,0.16667,-0,-0,0.66667
0.81959,0.85147,4.9175,0.5272,8.1517,10.951,-6.9134,2.3045,-1.0107,-9.2178,2.7927e-10,-0.50534,0,0,0.16667,-0,-0,0.66667
0.43281,0.67654,2.5969,0.2648,10.194,80.036,-1.8338,0.61125,-1.7498,-2.445,5.8964e-13,-0.87488,0,0,0.16667,-0,-0,0.66667
0.85562,0.96994,5.1337,0.70491,9.0169,8.0753,-9.6502,3.2167,-0.23397,-12.867,1.4807e-09,-0.11698,0,0,0.16667,-0,2.8883e-17,0.66667
0.22561,0.09507,1.3536,-0.60739,-27.549,134.93,2.1925,-0.73083,-0.68818,2.9233,4.8404e-11,-0.34409,0,0,0.16667,-7.8949e-16,0,0.66667
0.54052,0.4383,3.2431,-0.092554,-3.0915,55.409,0.80043,-0.26681,-1.9696,1.0672,-8.4865e-13,-0.98482,0,0,0.16667,1.579e-15,0,0.66667
0.31515,0.66325,1.8909,0.24488,10.459,110.11,-1.2348,0.41159,-1.787,-1.6464,3.6406e-12,-0.89352,0,0,0.16667,-0,-0,0.66667
0.11963,0.32401,0.71781,-0.26399,-12.355,165.21,0.50532,-0.16844,-1.7511,0.67376,4.1988e-09,-0.87554,0,0,0.16667,1.9737e-16,0,0.66667
0.14551,0.41987,0.87307,-0.12019,-5.5787,157.66,0.27983,-0.093275,-1.9475,0.3731,8.7489e-10,-0.97377,0,0,0.16667,1.9737e-16,0,0.66667
0.9366,0.14387,5.6196,-0.5342,-2.9945,2.3846,8.0053,-2.6684,-0.98619,10.674,-3.7379e-08,-0.49309,0,0,0.16667,-0,-0,0.66667
0.19499,0.99856,1.17,0.74783,34.529,143.69,-2.3332,0.77772,-0.011402,-3.1109,2.7536e-10,-0.0057009,0,0,0.16667,6.1679e-16,0,0.66667
0.64991,0.17651,3.8995,-0.48524,-13.289,34.563,5.0458,-1.6819,-1.1615,6.7277,3.0709e-12,-0.58077,0,0,0.16667,-7.8949e-16,0,0.66667
0.23912,0.45247,1.4347,-0.071301,-3.1855,130.92,0.27279,-0.090931,-1.9808,0.36373,3.6291e-11,-0.99042,0,0,0.16667,-3.9475e-16,0,0.66667
0.52547,0.34398,3.1528,-0.23402,-8.0082,58.704,1.9676,-0.65585,-1.8056,2.6234,-6.0951e-13,-0.90279,0,0,0.16667,1.579e-15,0,0.66667
0.13063,0.85588,0.78381,0.53382,25.033,162.08,-1.1158,0.37192,-0.98556,-1.4877,-1.8001e-09,-0.49278,0,0,0.16667,-0,-0,0.66667
0.28954,0.51812,1.7372,0.027185,1.1796,116.98,-0.12594,0.041979,-1.9959,-0.16792,-4.7379e-13,-0.99794,0,0,0.16667,-0,-0,0.66667
0.40052,0.98596,2.4031,0.72894,29.353,88.48,-4.6713,1.5571,-0.10943,-6.2284,5.1958e-14,-0.054716,0,0,0.16667,-0,-0,0.66667
0.70668,0.93804,4.2401,0.65705,15.699,25.663,-7.4292,2.4764,-0.46591,-9.9056,-1.3247e-12,-0.23295,0,0,0.16667,-0,-0,0.66667
0.90107,0.40516,5.4064,-0.14226,-1.2042,3.6153,2.051,-0.68366,-1.9283,2.7346,6.4653e-09,-0.96415,0,0,0.16667,6.9081e-16,0,0.66667
0.42858,0.59949,2.5715,0.14924,5.7641,81.009,-1.0234,0.34112,-1.92,-1.3645,1.2537e-12,-0.96,0,0,0.16667,-1.579e-15,0,0.66667
0.71382,0.00089213,4.2829,-0.74866,-17.623,24.836,8.5506,-2.8502,-0.0075032,11.401,1.3527e-12,-0.0037516,0,0,0.16667,-0,-0,0.66667
0.13909,0.17137,0.83452,-0.49295,-23.04,159.61,1.097,-0.36566,-1.1364,1.4627,3.6252e-09,-0.56818,0,0,0.16667,1.9737e-16,0,0.66667
0.10058,0.26769,0.60345,-0.34847,-16.398,170.81,0.56075,-0.18692,-1.5668,0.74767,7.002e-09,-0.78339,0,0,0.16667,-1.9737e-16,0,0.66667
0.44811,0.26291,2.6887,-0.35564,-13.482,76.425,2.5498,-0.84994,-1.5492,3.3998,-1.5787e-12,-0.77459,0,0,0.16667,7.8949e-16,0,0.66667
0.76051,0.36574,4.563,-0.20139,-3.9668,17.318,2.4506,-0.81685,-1.8549,3.2674,-8.0273e-11,-0.92744,0,0,0.16667,-7.8949e-16,0,0.66667
0.23162,0.18404,1.3897,-0.47394,-21.363,133.16,1.7564,-0.58545,-1.2021,2.3418,3.8363e-11,-0.60103,0,0,0.16667,-4.2486e-16,0,0.66667
0.80913,0.60592,4.8548,0.15888,2.5448,11.501,-2.0569,0.68562,-1.9097,-2.7425,4.4336e-10,-0.95487,0,0,0.16667,-0,-0,0.66667
0.25241,0.45778,1.5144,-0.06333,-2.8095,127.21,0.25576,-0.085254,-1.9857,0.34101,1.7761e-11,-0.99287,0,0,0.16667,3.9475e-16,0,0.66667
0.083801,0.94775,0.50281,0.67162,31.934,175.81,-0.90052,0.30017,-0.39507,-1.2007,2.7208e-09,-0.19754,0,0,0.16667,-0,-0,0.66667
0.513,0.18077,3.078,-0.47885,-16.77,61.67,3.9304,-1.3101,-1.185,5.2406,-6.1684e-13,-0.59251,0,0,0.16667,3.0376e-16,0,0.66667
0.00097781,0.69041,0.0058668,0.28562,13.567,200.21,-0.0044685,0.0014895,-1.7118,-0.005958,-5.7495e-08,-0.85588,0,0,0.16667,-0,-4.5807e-16,0.66667
0.70811,0.81301,4.2487,0.46951,11.07,25.047,-5.3195,1.7732,-1.2166,-7.0927,-4.7922e-12,-0.60832,0,0,0.16667,-3.158e-15,0,0.66667
0.73906,0.29006,4.4344,-0.31491,-6.708,20.318,3.7238,-1.2413,-1.6467,4.9651,-2.8599e-11,-0.82333,0,0,0.16667,1.579e-15,0,0.66667
0.97332,0.83098,5.8399,0.49647,1.0919,1.0697,-7.7316,2.5772,-1.1226,-10.309,-3.9304e-07,-0.56132,0,0,0.16667,-0,-0,0.66667
0.66316,0.7083,3.979,0.31245,8.2513,32.043,-3.3153,1.1051,-1.6516,-4.4204,-4.7387e-12,-0.82578,0,0,0.16667,-7.8949e-16,0,0.66667
0.49422,0.29566,2.9653,-0.30651,-10.97,65.677,2.4237,-0.8079,-1.6646,3.2316,4.0989e-13,-0.83231,0,0,0.16667,-7.8949e-16,0,0.66667
0.073623,0.5094,0.44174,0.014096,0.66473,178.71,-0.016605,0.0055348,-1.9985,-0.02214,-2.8643e-07,-0.99927,0,0,0.16667,-0,-0,0.66667
0.5343,0.45209,3.2058,-0.071862,-2.4231,56.731,0.61433,-0.20478,-1.9812,0.81911,-2.1338e-13,-0.9906,0,0,0.16667,-0,-0,0.66667
0.14183,0.40311,0.85098,-0.14533,-6.7541,158.73,0.3298,-0.10993,-1.9265,0.43974,4.2748e-10,-0.96327,0,0,0.16667,-2.4672e-16,0,0.66667
0.80239,0.59772,4.8143,0.14658,2.4237,12.231,-1.8818,0.62727,-1.9233,-2.5091,2.2708e-10,-0.96163,0,0,0.16667,-3.158e-15,0,0.66667
0.57615,0.058198,3.4569,-0.6627,-21.166,48.707,6.109,-2.0363,-0.43948,8.1454,3.1974e-14,-0.21974,0,0,0.16667,-0,9.3715e-17,0.66667
0.21291,0.32221,1.2775,-0.26668,-12.085,138.34,0.90849,-0.30283,-1.746,1.2113,2.7795e-10,-0.87301,0,0,0.16667,-0,-0,0.66667
0.70706,0.23416,4.2423,-0.39877,-9.4049,25.092,4.5112,-1.5037,-1.4338,6.0149,2.2631e-12,-0.7169,0,0,0.16667,1.579e-15,0,0.66667
0.33301,0.48022,1.9981,-0.029665,-1.2488,105.31,0.15806,-0.052687,-1.9959,0.21075,-7.927e-14,-0.99793,0,0,0.16667,-0,-0,0.66667
0.6691,0.6906,4.0146,0.2859,7.4369,31.015,-3.0607,1.0202,-1.7101,-4.081,-5.0879e-12,-0.85507,0,0,0.16667,-0,-0,0.66667
0.77955,0.074944,4.6773,-0.63758,-11.903,15.687,7.9525,-2.6508,-0.55494,10.603,-6.4153e-12,-0.27747,0,0,0.16667,-0,-1.8919e-16,0.66667
0.086576,0.25356,0.51946,-0.36966,-17.447,174.92,0.51206,-0.17069,-1.5136,0.68274,1.0215e-08,-0.75682,0,0,0.16667,1.9737e-16,0,0.66667
0.51066,0.065925,3.0639,-0.65111,-23.01,62.451,5.3199,-1.7733,-0.49251,7.0932,-4.1522e-13,-0.24626,0,0,0.16667,1.579e-15,0,0.66667
0.10367,0.17119,0.62205,-0.49321,-23.256,169.93,0.81813,-0.27271,-1.1338,1.0908,1.7571e-08,-0.56688,0,0,0.16667,-1.9737e-16,0,0.66667
0.64946,0.12302,3.8968,-0.56547,-15.551,34.787,5.876,-1.9587,-0.86292,7.8346,1.9105e-12,-0.43146,0,0,0.16667,-8.8818e-16,0,0.66667
0.3155,0.033824,1.893,-0.69926,-30.17,110.38,3.5299,-1.1766,-0.2622,4.7065,-2.7176e-12,-0.1311,0,0,0.16667,-0,-0,0.66667
0.6435,0.067169,3.861,-0.64925,-18.164,36.006,6.6847,-2.2282,-0.50172,8.9129,2.2204e-13,-0.25086,0,0,0.16667,-0,-0,0.66667
0.048554,0.67673,0.29132,0.2651,12.56,186.12,-0.20595,0.068649,-1.7505,-0.2746,2.1166e-08,-0.87527,0,0,0.16667,-0,-0,0.66667
0.867,0.23599,5.202,-0.39602,-4.5536,6.3619,5.4935,-1.8312,-1.4409,7.3247,-4.446e-09,-0.72043,0,0,0.16667,-0,-0,0.66667
0.47816,0.47888,2.869,-0.031673,-1.1543,69.222,0.24232,-0.080773,-1.9952,0.32309,3.8067e-13,-0.99761,0,0,0.16667,-0,-0,0.66667
0.79355,0.50768,4.7613,0.011514,0.19791,13.185,-0.14619,0.048729,-1.9994,-0.19492,3.2548e-11,-0.9997,0,0,0.16667,-3.158e-15,0,0.66667
0.22664,0.019746,1.3598,-0.72038,-32.77,134.73,2.6122,-0.87075,-0.15342,3.483,-2.552e-11,-0.076711,0,0,0.16667,7.8949e-16,0,0.66667
0.33497,0.25484,2.0098,-0.36774,-15.508,104.91,1.971,-0.65698,-1.5185,2.6279,-5.0426e-12,-0.75924,0,0,0.16667,-0,-0,0.66667
0.76377,0.9978,4.5826,0.7467,14.93,17.949,-9.125,3.0417,-0.018964,-12.167,-1.8711e-11,-0.0094821,0,0,0.16667,-2.9606e-15,0,0.66667
0.85342,0.91213,5.1205,0.61819,7.9456,8.0009,-8.4412,2.8137,-0.64051,-11.255,-1.3862e-09,-0.32025,0,0,0.16667,-0,-0,0.66667
0.43712,0.35022,2.6227,-0.22467,-8.6042,78.97,1.5713,-0.52378,-1.8222,2.0951,-1.3489e-13,-0.91111,0,0,0.16667,-1.579e-15,0,0.66667
0.93033,0.55636,5.582,0.084533,0.49699,1.9753,-1.2583,0.41943,-1.9737,-1.6777,2.8165e-08,-0.98685,0,0,0.16667,-1.579e-15,0,0.66667
0.57961,0.018522,3.4777,-0.72222,-22.989,48.144,6.6977,-2.2326,-0.14587,8.9303,2.5935e-13,-0.072933,0,0,0.16667,-0,-0,0.66667
0.049097,0.99358,0.29458,0.74037,35.441,186.03,-0.58161,0.19387,-0.051551,-0.77548,1.2837e-06,-0.025775,0,0,0.16667,-7.4015e-17,0,0.66667
0.45286,0.070823,2.7172,-0.64377,-24.465,75.643,4.6646,-1.5549,-0.52802,6.2194,-1.4095e-12,-0.26401,0,0,0.16667,7.8949e-16,0,0.66667
0.1604,0.3685,0.9624,-0.19726,-9.1176,153.35,0.50624,-0.16875,-1.8613,0.67498,1.4511e-09,-0.93067,0,0,0.16667,-0,-0,0.66667
0.73282,0.089993,4.3969,-0.61501,-13.55,21.737,7.2111,-2.4037,-0.65647,9.6148,-2.1183e-13,-0.32824,0,0,0.16667,1.4012e-15,8.3509e-17,0.66667
0.34735,0.95256,2.0841,0.67885,28.582,101.96,-3.7728,1.2576,-0.36079,-5.0304,5.218e-13,-0.1804,0,0,0.16667,7.8949e-16,0,0.66667
0.20118,0.56136,1.2071,0.092041,4.1863,141.64,-0.29626,0.098755,-1.9715,-0.39502,-3.4564e-10,-0.98573,0,0,0.16667,5.6745e-16,0,0.66667
0.84279,0.57898,5.0567,0.11847,1.5801,8.1129,-1.5976,0.53252,-1.9508,-2.1301,1.0836e-09,-0.9754,0,0,0.16667,1.579e-15,0,0.66667
0.8178,0.15611,4.9068,-0.51584,-8.0423,11.109,6.7496,-2.2499,-1.0543,8.9995,2.653e-10,-0.52717,0,0,0.16667,2.3191e-15,0,0.66667
0.34365,0.11076,2.0619,-0.58386,-24.582,102.82,3.2103,-1.0701,-0.78926,4.2804,-1.9866e-12,-0.39463,0,0,0.16667,-0,1.9582e-16,0.66667
0.40362,0.40093,2.4217,-0.14861,-5.8878,87.162,0.9597,-0.3199,-1.922,1.2796,-8.8529e-13,-0.96098,0,0,0.16667,-5.9212e-16,0,0.66667
0.0606,0.29818,0.3636,-0.30274,-14.33,182.57,0.29353,-0.097844,-1.6743,0.39138,-1.6327e-08,-0.83714,0,0,0.16667,-0,-0,0.66667
0.17888,0.86191,1.0733,0.54286,25.073,148.15,-1.5538,0.51792,-0.95071,-2.0717,-8.22e-10,-0.47536,0,0,0.16667,1.9737e-16,0,0.66667
0.73592,0.10824,4.4155,-0.58764,-12.798,21.239,6.9193,-2.3064,-0.77255,9.2257,1.4913e-12,-0.38627,0,0,0.16667,-0,-0,0.66667
0.56613,0.01939,3.3968,-0.72092,-23.481,50.846,6.5301,-2.1767,-0.1515,8.7068,-2.0961e-13,-0.075752,0,0,0.16667,-0,-0,0.66667
0.82324,0.18884,4.9394,-0.46673,-7.0533,10.449,6.1477,-2.0492,-1.2257,8.197,-9.358e-10,-0.61287,0,0,0.16667,-0,-0,0.66667
0.50115,0.43709,3.0069,-0.094362,-3.3377,64.004,0.75664,-0.25221,-1.9705,1.0088,-3.571e-13,-0.98527,0,0,0.16667,3.454e-16,0,0.66667
0.76786,0.59669,4.6072,0.14503,2.7755,16.335,-1.7818,0.59395,-1.9263,-2.3758,7.4154e-11,-0.96314,0,0,0.16667,-0,-0,0.66667
0.50992,0.59353,3.0595,0.1403,4.9043,62.064,-1.1446,0.38155,-1.9303,-1.5262,-1.4388e-13,-0.96517,0,0,0.16667,-1.0115e-15,0,0.66667
0.56807,0.60153,3.4084,0.1523,4.8661,49.701,-1.3843,0.46142,-1.9167,-1.8457,-7.5762e-13,-0.95833,0,0,0.16667,-0,-0,0.66667
0.18462,0.82906,1.1077,0.49358,22.721,146.48,-1.458,0.486,-1.1334,-1.944,-3.5452e-10,-0.5667,0,0,0.16667,3.9475e-16,0,0.66667
0.5444,0.11315,3.2664,-0.58028,-19.463,55.063,5.0545,-1.6848,-0.80267,6.7393,-5.7687e-13,-0.40134,0,0,0.16667,7.8949e-16,2.8402e-17,0.66667
0.20103,0.12017,1.2062,-0.56975,-26.102,141.85,1.8326,-0.61087,-0.84665,2.4435,-1.9272e-10,-0.42333,0,0,0.16667,-9.8686e-17,-2.4427e-16,0.66667
0.55622,0.11992,3.3373,-0.57011,-18.759,52.583,5.0737,-1.6912,-0.84369,6.765,4.0634e-13,-0.42184,0,0,0.16667,-7.8949e-16,0,0.66667
0.14144,0.22933,0.84865,-0.406,-18.931,158.9,0.9188,-0.30627,-1.4149,1.2251,3.2677e-09,-0.70745,0,0,0.16667,-0,-0,0.66667
0.18601,0.67068,1.1161,0.25602,11.732,146,-0.76196,0.25399,-1.7673,-1.0159,-7.5692e-10,-0.88366,0,0,0.16667,-3.9475e-16,0,0.66667
0.76478,0.26109,4.5887,-0.35837,-6.9791,16.946,4.3852,-1.4617,-1.5443,5.8469,-1.0074e-10,-0.77215,0,0,0.16667,-0,-0,0.66667
0.070886,0.28377,0.42532,-0.32434,-15.336,179.54,0.36786,-0.12262,-1.6256,0.49048,-2.3614e-09,-0.81282,0,0,0.16667,-1.9737e-16,0,0.66667
0.36931,0.27069,2.2159,-0.34396,-14.1,95.951,2.0325,-0.67749,-1.5782,2.71,-2.1192e-12,-0.7891,0,0,0.16667,-3.9475e-16,0,0.66667
0.87788,0.1537,5.2673,-0.51945,-5.5604,5.79,7.2962,-2.4321,-1.0414,9.7283,3.3071e-09,-0.52071,0,0,0.16667,1.9737e-15,0,0.66667
0.10434,0.81473,0.62602,0.4721,22.248,169.73,-0.78813,0.26271,-1.2076,-1.0508,-4.9469e-09,-0.60381,0,0,0.16667,-0,-0,0.66667
0.35915,0.43564,2.1549,-0.096545,-3.981,98.467,0.55479,-0.18493,-1.9694,0.73972,-1.5097e-12,-0.9847,0,0,0.16667,-8.8818e-16,0,0.66667
0.11396,0.97971,0.68376,0.71957,34.057,167.01,-1.312,0.43734,-0.15813,-1.7494,-4.7796e-09,-0.079063,0,0,0.16667,-0,-0,0.66667
0.87654,0.071392,5.2592,-0.64291,-7.05,6.2246,9.0166,-3.0055,-0.53102,12.022,-3.0199e-08,-0.26551,0,0,0.16667,-0,-0,0.66667
0.12624,0.20061,0.75742,-0.44909,-21.045,163.33,0.90707,-0.30236,-1.2835,1.2094,5.0511e-09,-0.64174,0,0,0.16667,-0,-0,0.66667
0.25456,0.13766,1.5273,-0.54352,-24.248,126.81,2.2137,-0.73789,-0.94868,2.9516,7.8486e-12,-0.47434,0,0,0.16667,3.9475e-16,0,0.66667
0.42191,0.18885,2.5314,-0.46673,-18.248,82.86,3.1507,-1.0502,-1.2283,4.2009,-9.3814e-13,-0.61413,0,0,0.16667,-0,-0,0.66667
0.66526,0.27306,3.9915,-0.34041,-8.9506,31.721,3.6233,-1.2078,-1.5869,4.8311,4.5697e-12,-0.79345,0,0,0.16667,-0,-0,0.66667
0.34471,0.26224,2.0682,-0.35664,-14.924,102.34,1.967,-0.65566,-1.5485,2.6227,-4.44e-12,-0.77427,0,0,0.16667,-0,-0,0.66667
0.2135,0.84467,1.281,0.517,23.527,138.28,-1.7661,0.5887,-1.0499,-2.3548,2.3272e-11,-0.52496,0,0,0.16667,7.8949e-16,0,0.66667
0.37339,0.58753,2.2403,0.1313,5.3495,94.806,-0.78441,0.26147,-1.9396,-1.0459,1.4525e-12,-0.96981,0,0,0.16667,-0,-0,0.66667
0.57102,0.974,3.4261,0.71101,22.958,49.836,-6.496,2.1653,-0.20179,-8.6614,-1.6831e-13,-0.1009,0,0,0.16667,1.579e-15,0,0.66667
0.99075,0.12581,5.9445,-0.56129,-0.352,0.9355,8.8975,-2.9658,-0.87994,11.863,-6.0727e-08,-0.43997,0,0,0.16667,-0,-0,0.66667
0.32717,0.63899,1.963,0.20849,8.8242,106.9,-1.0914,0.36379,-1.8462,-1.4552,3.5135e-12,-0.92309,0,0,0.16667,-0,-0,0.66667
0.3622,0.55245,2.1732,0.078675,3.2356,97.674,-0.45594,0.15198,-1.9779,-0.60792,1.0394e-12,-0.98893,0,0,0.16667,-0,-0,0.66667
0.70624,0.099204,4.2374,-0.60119,-14.339,25.598,6.7934,-2.2645,-0.71514,9.0578,2.9021e-12,-0.35757,0,0,0.16667,-0,-0,0.66667
0.29894,0.44449,1.7936,-0.083263,-3.5915,114.44,0.39825,-0.13275,-1.9759,0.531,-3.4014e-13,-0.98796,0,0,0.16667,-0,-0,0.66667
0.3497,0.51382,2.0982,0.020736,0.86153,100.92,-0.11602,0.038674,-1.9971,-0.1547,3.0852e-13,-0.99856,0,0,0.16667,-0,-0,0.66667
0.99471,0.016505,5.9682,-0.72524,-0.34001,1.4482,11.542,-3.8475,-0.12864,15.39,-2.9165e-06,-0.064319,0,0,0.16667,3.158e-15,0,0.66667
0.60427,0.94035,3.6256,0.66053,20.042,43.219,-6.3861,2.1287,-0.44868,-8.5149,-9.5568e-13,-0.22434,0,0,0.16667,1.579e-15,0,0.66667
0.82881,0.22529,4.9729,-0.41207,-6.0246,9.7888,5.4644,-1.8215,-1.3977,7.2859,-1.3088e-09,-0.69887,0,0,0.16667,1.579e-15,0,0.66667
0.031666,0.037053,0.18999,-0.69442,-33.241,191.15,0.35183,-0.11728,-0.28721,0.46911,-6.1666e-06,-0.1436,0,0,0.16667,-0,-0,0.66667
0.14549,0.46343,0.87294,-0.054849,-2.5452,157.66,0.12768,-0.04256,-1.9889,0.17024,1.1678e-09,-0.99446,0,0,0.16667,-9.8686e-17,0,0.66667
0.72773,0.63177,4.3664,0.19765,4.3556,21.802,-2.3014,0.76712,-1.8602,-3.0685,1.2171e-11,-0.93009,0,0,0.16667,-0,-0,0.66667
0.53974,0.8246,3.2385,0.4869,16.398,55.902,-4.2048,1.4016,-1.1557,-5.6064,-3.2685e-13,-0.57783,0,0,0.16667,-0,-0,0.66667
0.99526,0.69767,5.9716,0.29651,-0.011461,0.28006,-4.7217,1.5739,-1.6865,-6.2956,6.1458e-08,-0.84326,0,0,0.16667,-0,-0,0.66667
0.49563,0.63463,2.9738,0.20194,7.2028,65.288,-1.6014,0.53381,-1.8543,-2.1352,-3.7037e-13,-0.92714,0,0,0.16667,-0,-0,0.66667
0.3841,0.69951,2.3046,0.29927,12.099,92.145,-1.8392,0.61307,-1.6802,-2.4523,2.1931e-12,-0.84009,0,0,0.16667,-0,-0,0.66667
0.19437,0.49297,1.1662,-0.010542,-0.48072,143.57,0.032784,-0.010928,-1.9986,0.043712,1.4297e-10,-0.99931,0,0,0.16667,-1.9737e-16,0,0.66667
0.59017,0.13924,3.541,-0.54114,-16.776,45.71,5.1098,-1.7033,-0.95815,6.813,6.4126e-13,-0.47908,0,0,0.16667,-0,-0,0.66667
0.76663,0.18293,4.5998,-0.47561,-9.2463,16.911,5.8338,-1.9446,-1.1973,7.7784,-4.0573e-11,-0.59863,0,0,0.16667,-0,-0,0.66667
0.92444,0.35378,5.5466,-0.21933,-1.4139,2.3637,3.2441,-1.0814,-1.829,4.3255,4.9806e-09,-0.91448,0,0,0.16667,1.579e-15,0,0.66667
0.13763,0.68109,0.82575,0.27163,12.654,159.97,-0.59814,0.19938,-1.7378,-0.79752,-3.2036e-09,-0.86891,0,0,0.16667,-9.8686e-17,0,0.66667
0.0080899,0.92709,0.04854,0.64064,30.648,198.11,-0.082922,0.02764,-0.53939,-0.11056,-1.5196e-06,-0.26969,0,0,0.16667,-0,-0,0.66667
0.47796,0.63293,2.8678,0.1994,7.2766,69.317,-1.5249,0.50829,-1.8576,-2.0332,-5.7665e-13,-0.9288,0,0,0.16667,1.579e-15,0,0.66667
0.18295,0.61762,1.0977,0.17643,8.0881,146.86,-0.51645,0.17215,-1.8888,-0.6886,-5.2911e-10,-0.94438,0,0,0.16667,1.9737e-16,0,0.66667
0.61034,0.9303,3.662,0.64544,19.343,42.039,-6.303,2.101,-0.51996,-8.404,-2.3404e-13,-0.25998,0,0,0.16667,-3.9475e-16,0,0.66667
0.62027,0.93104,3.7216,0.64656,18.998,40.191,-6.4167,2.1389,-0.51313,-8.5556,-1.7586e-13,-0.25657,0,0,0.16667,3.9475e-16,0,0.66667
0.40963,0.15897,2.4578,-0.51155,-20.275,85.929,3.3528,-1.1176,-1.0701,4.4703,-1.3229e-12,-0.53506,0,0,0.16667,1.579e-15,0,0.66667
0.67721,0.13441,4.0632,-0.54838,-14.102,30.066,5.9418,-1.9806,-0.92979,7.9225,3.2641e-12,-0.4649,0,0,0.16667,-0,-0,0.66667
0.19967,0.42881,1.198,-0.10679,-4.8606,142.07,0.34117,-0.11372,-1.9592,0.45489,3.2188e-10,-0.97958,0,0,0.16667,-0,-0,0.66667
0.80858,0.53504,4.8515,0.052556,0.84282,11.512,-0.67993,0.22664,-1.9903,-0.90657,1.601e-10,-0.99517,0,0,0.16667,-0,-0,0.66667
0.05034,0.87518,0.30204,0.56276,26.801,185.63,-0.45327,0.15109,-0.87497,-0.60436,-1.0437e-07,-0.43749,0,0,0.16667,-0,-0,0.66667
0.17186,0.51451,1.0312,0.021767,1.0013,150.03,-0.059854,0.019951,-1.9997,-0.079805,-2.9215e-10,-0.99985,0,0,0.16667,-0,-0,0.66667
0.9806,0.35881,5.8836,-0.21179,-0.27687,0.38985,3.3228,-1.1076,-1.8398,4.4305,2.4106e-08,-0.91988,0,0,0.16667,-0,-0,0.66667
0.90038,0.13807,5.4023,-0.5429,-4.7828,4.3179,7.821,-2.607,-0.95072,10.428,-2.0617e-10,-0.47536,0,0,0.16667,-1.579e-15,0,0.66667
0.93973,0.94373,5.6384,0.66559,3.6526,2.6476,-10.008,3.3359,-0.4254,-13.344,1.1089e-08,-0.2127,0,0,0.16667,-0,-0,0.66667
0.90844,0.39415,5.4507,-0.15877,-1.2431,3.1797,2.3077,-0.76925,-1.9104,3.077,-1.0234e-08,-0.95521,0,0,0.16667,1.579e-15,0,0.66667
0.44142,0.70962,2.6485,0.31443,12.001,77.993,-2.2207,0.74024,-1.648,-2.961,3.253e-13,-0.82398,0,0,0.16667,3.9475e-16,0,0.66667
0.9388,0.3666,5.6328,-0.2001,-1.0312,1.6769,3.0057,-1.0019,-1.8585,4.0076,2.7564e-08,-0.92924,0,0,0.16667,7.8949e-16,0,0.66667
0.23741,0.2357,1.4245,-0.39645,-17.791,131.49,1.506,-0.50199,-1.4407,2.008,7.8068e-11,-0.72036,0,0,0.16667,3.9475e-16,0,0.66667
0.049514,0.71385,0.29709,0.32078,15.207,185.84,-0.25413,0.08471,-1.6347,-0.33884,3.142e-08,-0.81734,0,0,0.16667,7.4015e-17,0,0.66667
0.55726,0.69712,3.3436,0.29569,9.6397,52.014,-2.6364,0.8788,-1.6882,-3.5152,-8.3289e-13,-0.84408,0,0,0.16667,-0,-0,0.66667
0.31332,0.828,1.8799,0.49199,21.134,110.76,-2.4664,0.82214,-1.1402,-3.2886,4.2255e-12,-0.57008,0,0,0.16667,3.9475e-16,0,0.66667
0.53208,0.21201,3.1925,-0.43198,-14.696,57.465,3.6776,-1.2259,-1.3379,4.9034,-1.7097e-14,-0.66893,0,0,0.16667,-7.8949e-16,0,0.66667
0.47161,0.23088,2.8297,-0.40368,-14.9,70.943,3.0461,-1.0154,-1.4203,4.0614,-6.5969e-13,-0.71015,0,0,0.16667,-0,-0,0.66667
0.48313,0.64043,2.8988,0.21064,7.6375,68.134,-1.6283,0.54276,-1.8428,-2.171,-1.7231e-13,-0.92138,0,0,0.16667,-0,-0,0.66667
0.57008,0.15658,3.4205,-0.51513,-16.532,49.661,4.6987,-1.5662,-1.0566,6.2649,7.1987e-13,-0.52829,0,0,0.16667,-0,-0,0.66667
0.92344,0.43216,5.5407,-0.10176,-0.66102,2.3211,1.5036,-0.50119,-1.9642,2.0048,-6.5315e-08,-0.98212,0,0,0.16667,1.579e-15,0,0.66667
0.23619,0.67009,1.4172,0.25513,11.432,131.77,-0.96417,0.32139,-1.7688,-1.2856,-1.0683e-10,-0.88438,0,0,0.16667,-0,-0,0.66667
0.87608,0.80874,5.2565,0.46311,5.0008,5.7942,-6.4916,2.1639,-1.239,-8.6554,8.0167e-09,-0.61952,0,0,0.16667,-0,-0,0.66667
0.73384,0.74863,4.403,0.37294,8.0973,21.127,-4.3788,1.4596,-1.5079,-5.8384,1.4391e-11,-0.75395,0,0,0.16667,-9.8686e-17,0,0.66667
0.079211,0.028411,0.47526,-0.70738,-33.696,177.17,0.89652,-0.29884,-0.2226,1.1954,5.9252e-07,-0.1113,0,0,0.16667,-0,-0,0.66667
0.83539,0.86492,5.0123,0.54738,7.7889,9.4425,-7.3164,2.4388,-0.93335,-9.7552,-4.9997e-10,-0.46668,0,0,0.16667,-7.8949e-16,0,0.66667
0.39764,0.23577,2.3859,-0.39635,-15.85,88.801,2.5217,-0.84057,-1.4399,3.3623,-1.9755e-12,-0.71997,0,0,0.16667,-0,-0,0.66667
0.33574,0.080976,2.0144,-0.62854,-26.66,104.94,3.3764,-1.1255,-0.59387,4.5018,-1.7331e-12,-0.29693,0,0,0.16667,-0,-0,0.66667
0.000393,0.25022,0.002358,-0.37467,-17.82,200.38,0.0023559,-0.00078522,-1.5036,0.0031413,1.3793e-07,-0.75181,0,0,0.16667,-1.542e-18,-1.0914e-17,0.66667
0.24581,0.10531,1.4748,-0.59204,-26.571,129.27,2.3284,-0.77614,-0.75294,3.1046,1.2212e-11,-0.37647,0,0,0.16667,-3.9475e-16,0,0.66667
0.68795,0.24636,4.1277,-0.38046,-9.4543,28.046,4.1878,-1.3959,-1.4874,5.5837,5.1483e-12,-0.7437,0,0,0.16667,-3.9475e-16,0,0.66667
0.85117,0.098149,5.107,-0.60278,-7.8468,8.1523,8.2091,-2.7364,-0.70747,10.945,5.3111e-09,-0.35374,0,0,0.16667,-0,-0,0.66667
0.24105,0.64252,1.4463,0.21378,9.5507,130.4,-0.82451,0.27484,-1.836,-1.0993,-7.8696e-11,-0.91802,0,0,0.16667,3.9475e-16,0,0.66667
0.37094,0.38261,2.2256,-0.17608,-7.1918,95.447,1.045,-0.34834,-1.8893,1.3934,-2.1172e-12,-0.94467,0,0,0.16667,-0,-0,0.66667
0.15042,0.20899,0.90254,-0.43651,-20.31,156.3,1.0506,-0.3502,-1.3214,1.4008,2.2081e-09,-0.66069,0,0,0.16667,-0,-0,0.66667
0.8035,0.51627,4.821,0.024406,0.40095,12.063,-0.31377,0.10459,-1.9964,-0.41836,1.0427e-10,-0.9982,0,0,0.16667,3.158e-15,0,0.66667
0.71702,0.198,4.3021,-0.453,-10.397,23.684,5.197,-1.7323,-1.2708,6.9294,6.7146e-13,-0.63539,0,0,0.16667,-0,-0,0.66667
0.70048,0.76957,4.2029,0.40436,9.7183,26.109,-4.5319,1.5106,-1.4185,-6.0425,-4.0346e-12,-0.70925,0,0,0.16667,-7.8949e-16,0,0.66667
0.67885,0.33448,4.0731,-0.24828,-6.2964,29.364,2.6967,-0.89891,-1.7796,3.5957,4.4e-12,-0.8898,0,0,0.16667,-0,-0,0.66667
0.89205,0.13771,5.3523,-0.54343,-5.1774,4.8557,7.7562,-2.5854,-0.95046,10.342,-7.5461e-10,-0.47523,0,0,0.16667,-1.579e-15,0,0.66667
0.88303,0.78875,5.2982,0.43313,4.4108,5.2227,-6.1195,2.0398,-1.3319,-8.1593,6.5325e-09,-0.66594,0,0,0.16667,-3.158e-15,0,0.66667
0.62537,0.21736,3.7522,-0.42396,-12.223,38.857,4.2421,-1.414,-1.3635,5.6561,1.9216e-12,-0.68173,0,0,0.16667,-9.8686e-16,0,0.66667
0.28878,0.70249,1.7327,0.30374,13.216,117.26,-1.4034,0.4678,-1.6704,-1.8712,-1.4416e-12,-0.83522,0,0,0.16667,-0,-0,0.66667
0.4031,0.8038,2.4186,0.45569,18.151,87.491,-2.9391,0.97969,-1.2615,-3.9188,1.3296e-12,-0.63075,0,0,0.16667,-0,-0,0.66667
0.028957,0.47567,0.17374,-0.036499,-1.7293,191.92,0.016911,-0.0056368,-1.9957,0.022548,2.6123e-07,-0.99786,0,0,0.16667,-0,-0,0.66667
0.91648,0.81417,5.4989,0.47126,3.4542,3.2055,-6.9104,2.3035,-1.2105,-9.2138,2.3876e-08,-0.60524,0,0,0.16667,-0,-0,0.66667
0.68745,0.47236,4.1247,-0.041454,-1.0253,27.863,0.45596,-0.15199,-1.9962,0.60795,4.5602e-14,-0.99812,0,0,0.16667,-0,-0,0.66667
0.90817,0.43877,5.449,-0.091846,-0.71973,3.1552,1.3346,-0.44486,-1.9716,1.7795,4.7309e-08,-0.98578,0,0,0.16667,3.158e-15,0,0.66667
0.30209,0.58412,1.8125,0.12619,5.4326,113.59,-0.6099,0.2033,-1.9424,-0.8132,1.2317e-12,-0.97121,0,0,0.16667,-0,-0,0.66667
0.94483,0.029775,5.669,-0.70534,-3.5853,2.583,10.663,-3.5542,-0.23097,14.217,3.5905e-06,-0.11549,0,0,0.16667,1.579e-15,0,0.66667
0.86403,0.035656,5.1842,-0.69652,-8.4177,7.3566,9.629,-3.2097,-0.27489,12.839,-1.1699e-09,-0.13745,0,0,0.16667,-3.158e-15,0,0.66667
0.88601,0.39178,5.3161,-0.16234,-1.5849,4.631,2.3013,-0.7671,-1.9053,3.0684,-3.7721e-09,-0.95263,0,0,0.16667,1.579e-15,0,0.66667
0.00014133,0.88439,0.00084798,0.57659,27.539,200.46,-0.0013044,0.00043435,-0.8195,-0.0017394,-6.5294e-07,-0.40975,0,0,0.16667,3.8549e-19,6.638e-16,0.66667
0.37724,0.44442,2.2634,-0.083376,-3.3845,93.809,0.50324,-0.16775,-1.9758,0.67099,-8.0491e-15,-0.98788,0,0,0.16667,-7.8949e-16,0,0.66667
0.12233,0.68876,0.73395,0.28315,13.246,164.43,-0.55417,0.18472,-1.7161,-0.7389,-3.3586e-09,-0.85806,0,0,0.16667,-0,-0,0.66667
0.93281,0.82875,5.5968,0.49312,2.9107,2.4471,-7.3597,2.4532,-1.1343,-9.813,5.1051e-08,-0.56717,0,0,0.16667,-0,-0,0.66667
0.51371,0.7453,3.0822,0.36795,12.838,61.385,-3.0243,1.0081,-1.5196,-4.0324,-3.1819e-13,-0.75979,0,0,0.16667,1.9737e-16,0,0.66667
0.48934,0.2351,2.936,-0.39735,-14.339,66.866,3.111,-1.037,-1.4375,4.148,-1.0125e-13,-0.71874,0,0,0.16667,-7.8949e-16,0,0.66667
0.48692,0.82297,2.9215,0.48445,17.576,67.515,-3.7742,1.2581,-1.1655,-5.0323,-5.4867e-13,-0.58275,0,0,0.16667,-0,-0,0.66667
0.57029,0.091207,3.4218,-0.61319,-19.742,49.786,5.5951,-1.865,-0.66276,7.4602,-4.2188e-13,-0.33138,0,0,0.16667,1.1842e-15,0,0.66667
0.54451,0.97621,3.267,0.71431,24.082,55.293,-6.2231,2.0744,-0.18617,-8.2975,-2.1538e-13,-0.093083,0,0,0.16667,-0,-1.4342e-16,0.66667
0.91711,0.83033,5.5027,0.4955,3.6166,3.2291,-7.2708,2.4236,-1.126,-9.6944,1.0383e-08,-0.56299,0,0,0.16667,-0,-0,0.66667
0.88438,0.7742,5.3063,0.4113,4.1333,5.083,-5.8199,1.94,-1.3976,-7.7599,5.7236e-09,-0.69881,0,0,0.16667,-7.8949e-16,0,0.66667
0.78372,0.65947,4.7023,0.23921,4.3042,14.459,-2.9996,0.99985,-1.7975,-3.9994,2.6373e-10,-0.89873,0,0,0.16667,3.158e-15,0,0.66667
0.32273,0.018392,1.9364,-0.72241,-31.034,108.49,3.7303,-1.2434,-0.14322,4.9737,-9.6279e-13,-0.07161,0,0,0.16667,-0,-0,0.66667
0.78444,0.93563,4.7066,0.65345,11.973,15.146,-8.2014,2.7338,-0.48261,-10.935,2.2335e-11,-0.24131,0,0,0.16667,1.7764e-15,0,0.66667
0.14519,0.66161,0.87111,0.24242,11.264,157.77,-0.56313,0.18771,-1.7907,-0.75084,-2.4912e-09,-0.89537,0,0,0.16667,-0,-0,0.66667
0.86023,0.71005,5.1614,0.31507,3.7809,6.7802,-4.3366,1.4455,-1.6481,-5.7821,3.1421e-09,-0.82407,0,0,0.16667,7.8949e-16,0,0.66667
0.773,0.017775,4.638,-0.72334,-13.944,16.725,8.9462,-2.9821,-0.13817,11.928,2.9747e-11,-0.069083,0,0,0.16667,-0,-0,0.66667
0.77597,0.17559,4.6558,-0.48661,-9.1289,15.77,6.0415,-2.0138,-1.1569,8.0553,-1.057e-10,-0.57847,0,0,0.16667,-0,-0,0.66667
0.5287,0.12477,3.1722,-0.56285,-19.322,58.375,4.7613,-1.5871,-0.87503,6.3484,-6.9056e-13,-0.43752,0,0,0.16667,8.7584e-16,1.1155e-20,0.66667
0.45019,0.82772,2.7011,0.49158,18.65,76.069,-3.5409,1.1803,-1.1404,-4.7211,3.8369e-13,-0.57019,0,0,0.16667,-0,-0,0.66667
0.22663,0.51597,1.3598,0.023962,1.0772,134.42,-0.08689,0.028963,-1.9964,-0.11585,-2.9307e-11,-0.99821,0,0,0.16667,-0,-0,0.66667
0.80868,0.1989,4.8521,-0.45165,-7.3339,11.936,5.8438,-1.9479,-1.2741,7.7917,-4.3535e-10,-0.63703,0,0,0.16667,-0,-0,0.66667
0.96593,0.60865,5.7956,0.16297,0.43339,0.68855,-2.5187,0.83958,-1.9052,-3.3583,-4.2899e-08,-0.95261,0,0,0.16667,-1.579e-15,0,0.66667
0.54353,0.27461,3.2612,-0.33809,-11.277,54.924,2.9402,-0.98007,-1.5936,3.9203,-2.8244e-13,-0.79678,0,0,0.16667,3.9475e-16,0,0.66667
0.90221,0.12983,5.4132,-0.55525,-4.8115,4.2375,8.0152,-2.6717,-0.90375,10.687,-3.3196e-09,-0.45188,0,0,0.16667,-0,-0,0.66667
0.28235,0.71523,1.6941,0.32284,14.108,119.02,-1.4585,0.48616,-1.6311,-1.9446,-3.7192e-12,-0.81553,0,0,0.16667,-4.9343e-16,0,0.66667
0.51776,0.9005,3.1065,0.60075,20.98,60.808,-4.9766,1.6589,-0.7175,-6.6355,5.5156e-13,-0.35875,0,0,0.16667,-0,-0,0.66667
0.32816,0.69209,1.969,0.28813,12.197,106.67,-1.5128,0.50428,-1.707,-2.0171,5.2605e-12,-0.85352,0,0,0.16667,-7.8949e-16,0,0.66667
0.9918,0.18077,5.9508,-0.47885,-0.20988,0.69544,7.5988,-2.5329,-1.1837,10.132,-2.2178e-07,-0.59187,0,0,0.16667,1.579e-15,0,0.66667
0.25032,0.96076,1.5019,0.69114,31.035,128.11,-2.768,0.92268,-0.30318,-3.6907,4.327e-12,-0.15159,0,0,0.16667,-0,-0,0.66667
0.67876,0.94686,4.0725,0.67029,17.272,30.082,-7.2794,2.4265,-0.40132,-9.7058,-6.3105e-13,-0.20066,0,0,0.16667,-0,-0,0.66667
0.7642,0.57436,4.5852,0.11153,2.1635,16.784,-1.3638,0.45459,-1.9563,-1.8183,6.4698e-11,-0.97814,0,0,0.16667,-0,-0,0.66667
0.032227,0.52775,0.19336,0.041622,1.9716,190.95,-0.021462,0.0071535,-1.9956,-0.028616,-6.939e-07,-0.99778,0,0,0.16667,2.4672e-17,0,0.66667
0.98227,0.045415,5.8936,-0.68188,-1.0813,1.4586,10.717,-3.5722,-0.34684,14.289,1.2979e-06,-0.17342,0,0,0.16667,1.579e-15,-1.9565e-16,0.66667
0.091323,0.52092,0.54794,0.031385,1.4756,173.5,-0.045858,0.015286,-1.9965,-0.061144,-1.5673e-09,-0.99827,0,0,0.16667,-0,-0,0.66667
0.61407,0.67922,3.6844,0.26883,7.9013,40.775,-2.6413,0.88043,-1.7423,-3.5217,-2.2125e-12,-0.87117,0,0,0.16667,-0,-0,0.66667
0.14935,0.55675,0.8961,0.085122,3.9457,156.54,-0.20341,0.067803,-1.9734,-0.27121,4.409e-10,-0.98671,0,0,0.16667,-0,-0,0.66667
0.5208,0.53773,3.1248,0.056594,1.9469,59.649,-0.47158,0.15719,-1.988,-0.62877,-6.2311e-13,-0.99399,0,0,0.16667,-0,-0,0.66667
0.093345,0.67424,0.56007,0.26135,12.302,172.92,-0.39034,0.13011,-1.7583,-0.52045,-2.854e-09,-0.87913,0,0,0.16667,-9.8686e-17,0,0.66667
0.7812,0.40491,4.6872,-0.14264,-2.5881,14.684,1.7828,-0.59428,-1.9304,2.3771,-1.9258e-10,-0.96522,0,0,0.16667,-5.9212e-16,0,0.66667
0.77293,0.22062,4.6376,-0.41907,-7.9298,16.017,5.1826,-1.7275,-1.3754,6.9101,-1.4455e-10,-0.68769,0,0,0.16667,-3.158e-15,0,0.66667
0.59815,0.038863,3.5889,-0.69171,-21.263,44.457,6.6199,-2.2066,-0.29829,8.8265,4.7251e-13,-0.14914,0,0,0.16667,-0,-0,0.66667
0.014543,0.58802,0.08726,0.13202,6.2612,196.19,-0.030721,0.01024,-1.9393,-0.040961,6.6275e-08,-0.96967,0,0,0.16667,-1.2336e-17,0,0.66667
0.042024,0.38922,0.25215,-0.16617,-7.8699,188.05,0.11173,-0.037244,-1.9007,0.14897,-5.1597e-08,-0.95036,0,0,0.16667,-0,-0,0.66667
0.18097,0.21923,1.0858,-0.42116,-19.385,147.5,1.2195,-0.40649,-1.3695,1.626,5.7833e-10,-0.68473,0,0,0.16667,-0,-0,0.66667
0.97203,0.24904,5.8322,-0.37644,-0.83234,0.82823,5.8545,-1.9515,-1.4971,7.806,7.3377e-08,-0.74855,0,0,0.16667,-2.9606e-16,0,0.66667
0.2546,0.50729,1.5276,0.010938,0.48461,126.6,-0.044557,0.014852,-1.999,-0.05941,-3.4999e-12,-0.9995,0,0,0.16667,-0,-0,0.66667
0.75101,0.64354,4.5061,0.21531,4.3907,18.582,-2.5872,0.86242,-1.8359,-3.4497,5.5443e-11,-0.91795,0,0,0.16667,-0,-0,0.66667
0.28124,0.96917,1.6874,0.70376,31.06,119.62,-3.1668,1.0556,-0.242,-4.2223,6.4038e-13,-0.121,0,0,0.16667,7.8949e-16,-1.0551e-17,0.66667
0.25552,0.67688,1.5331,0.26532,11.768,126.39,-1.0847,0.36156,-1.7486,-1.4463,-3.9925e-11,-0.8743,0,0,0.16667,-0,-0,0.66667
0.25786,0.27749,1.5472,-0.33377,-14.799,125.77,1.3771,-0.45902,-1.6033,1.8361,3.1704e-11,-0.80167,0,0,0.16667,3.9475e-16,0,0.66667
0.29705,0.4832,1.7823,-0.025193,-1.0879,114.94,0.11974,-0.039913,-1.999,0.15965,4.5026e-13,-0.9995,0,0,0.16667,-0,-0,0.66667
0.0089446,0.51066,0.053668,0.015989,0.75809,197.85,-0.0022879,0.00075971,-1.9978,-0.0030519,-4.3631e-06,-0.99889,0,0,0.16667,-0,-0,0.66667
0.98718,0.13731,5.9231,-0.54404,-0.51509,0.9353,8.593,-2.8643,-0.94737,11.457,2.1647e-08,-0.47368,0,0,0.16667,-0,-0,0.66667
0.56646,0.68432,3.3988,0.27648,8.8732,50.109,-2.5058,0.83527,-1.7285,-3.3411,-9.9187e-13,-0.86423,0,0,0.16667,1.1842e-15,0,0.66667
0.60184,0.57562,3.6111,0.11344,3.408,43.002,-1.0923,0.36411,-1.9527,-1.4564,-1.0154e-12,-0.97637,0,0,0.16667,-0,-0,0.66667
0.53826,0.63507,3.2296,0.2026,6.7977,55.936,-1.7448,0.58161,-1.8528,-2.3264,-5.913e-13,-0.92638,0,0,0.16667,-0,-0,0.66667
0.043838,0.35541,0.26303,-0.21688,-10.274,187.52,0.15212,-0.050707,-1.8324,0.20283,-1.539e-08,-0.91621,0,0,0.16667,-0,-0,0.66667
0.47152,0.65166,2.8291,0.22749,8.3711,70.823,-1.7162,0.57208,-1.8165,-2.2883,1.4722e-13,-0.90826,0,0,0.16667,-5.9212e-16,0,0.66667
0.53968,0.22309,3.2381,-0.41537,-13.963,55.824,3.5866,-1.1955,-1.3859,4.7822,4.6119e-13,-0.69296,0,0,0.16667,-1.579e-15,0,0.66667
0.67296,0.38852,4.0377,-0.16722,-4.2989,30.276,1.8005,-0.60018,-1.9012,2.4007,3.2214e-12,-0.95062,0,0,0.16667,-0,-0,0.66667
0.53417,0.35692,3.205,-0.21463,-7.2476,56.817,1.8343,-0.61145,-1.8359,2.4458,9.2926e-14,-0.91793,0,0,0.16667,-0,-0,0.66667
0.055072,0.75775,0.33043,0.38662,18.336,184.21,-0.34068,0.11356,-1.4674,-0.45424,2.0417e-08,-0.73371,0,0,0.16667,-0,-0,0.66667
0.6201,0.41456,3.7206,-0.12816,-3.7136,39.558,1.2716,-0.42385,-1.9408,1.6954,1.3058e-12,-0.97042,0,0,0.16667,-0,-0,0.66667
0.58118,0.29494,3.4871,-0.30758,-9.628,47.173,2.8602,-0.95338,-1.6632,3.8135,1.0083e-12,-0.83159,0,0,0.16667,-7.8949e-16,0,0.66667
0.5456,0.18404,3.2736,-0.47394,-15.811,54.649,4.1373,-1.3791,-1.2029,5.5163,-3.6238e-13,-0.60145,0,0,0.16667,5.5627e-16,0,0.66667
0.84328,0.86172,5.0597,0.54257,7.3725,8.6981,-7.3207,2.4402,-0.95437,-9.7609,1.4779e-09,-0.47719,0,0,0.16667,1.579e-15,0,0.66667
0.44739,0.99378,2.6843,0.74067,28.426,77.101,-5.3019,1.7673,-0.048712,-7.0692,3.1486e-13,-0.024356,0,0,0.16667,1.1842e-15,0,0.66667
0.60357,0.14087,3.6214,-0.5387,-16.286,43.118,5.2022,-1.7341,-0.96684,6.9363,7.6028e-13,-0.48342,0,0,0.16667,-7.1477e-16,0,0.66667
0.12361,0.31378,0.74168,-0.27933,-13.063,164.06,0.55246,-0.18415,-1.7245,0.73661,3.3482e-09,-0.86223,0,0,0.16667,-0,-0,0.66667
0.25238,0.80233,1.5143,0.45349,20.213,127.35,-1.8312,0.61041,-1.2689,-2.4417,-2.7505e-11,-0.63443,0,0,0.16667,3.9475e-16,0,0.66667
0.85035,0.95624,5.1021,0.68436,9.029,8.4617,-9.3111,3.1037,-0.33337,-12.415,4.0025e-09,-0.16669,0,0,0.16667,-1.579e-15,0,0.66667
0.016224,0.75945,0.097346,0.38918,18.51,195.7,-0.10103,0.033676,-1.4627,-0.1347,1.6231e-09,-0.73135,0,0,0.16667,4.9343e-17,0,0.66667
0.15625,0.92654,0.93751,0.63981,29.859,154.71,-1.5995,0.53317,-0.54607,-2.1327,-1.2058e-09,-0.27303,0,0,0.16667,-0,-0,0.66667
0.82338,0.089286,4.9403,-0.61607,-9.4062,10.789,8.1162,-2.7054,-0.65029,10.822,-1.128e-10,-0.32514,0,0,0.16667,-7.8949e-16,0,0.66667
0.22934,0.86686,1.376,0.55029,24.876,133.84,-2.0192,0.67307,-0.92254,-2.6923,-2.9989e-12,-0.46127,0,0,0.16667,1.9737e-16,0,0.66667
0.25919,0.98398,1.5552,0.72597,32.479,125.68,-3.0107,1.0036,-0.12468,-4.0142,5.2727e-12,-0.062339,0,0,0.16667,-0,-0,0.66667
0.70079,0.54162,4.2047,0.062433,1.4889,25.763,-0.70004,0.23335,-1.9862,-0.93339,-4.3626e-13,-0.99311,0,0,0.16667,-0,-0,0.66667
0.96653,0.84862,5.7992,0.52293,1.4956,1.3085,-8.0868,2.6956,-1.0285,-10.782,-1.954e-07,-0.51424,0,0,0.16667,-3.158e-15,0,0.66667
0.19828,0.3819,1.1897,-0.17715,-8.0713,142.47,0.562,-0.18733,-1.8878,0.74934,4.4674e-10,-0.94391,0,0,0.16667,-0,-0,0.66667
0.7475,0.68045,4.485,0.27068,5.5956,19.109,-3.2373,1.0791,-1.7398,-4.3164,4.635e-11,-0.86991,0,0,0.16667,1.2321e-15,0,0.66667
0.14051,0.45118,0.84304,-0.073233,-3.4035,159.11,0.16463,-0.054878,-1.9823,0.21951,1.565e-09,-0.99113,0,0,0.16667,1.9737e-16,0,0.66667
0.3825,0.61937,2.295,0.17905,7.2385,92.494,-1.0958,0.36526,-1.8852,-1.461,1.0276e-12,-0.94259,0,0,0.16667,-0,-0,0.66667
0.32329,0.091756,1.9397,-0.61237,-26.202,108.21,3.1675,-1.0558,-0.66687,4.2234,-2.2713e-12,-0.33344,0,0,0.16667,5.4278e-16,0,0.66667
0.88379,0.90346,5.3027,0.60519,6.2363,5.59,-8.5577,2.8526,-0.69743,-11.41,-2.4913e-08,-0.34871,0,0,0.16667,3.9475e-16,0,0.66667
0.65538,0.015257,3.9323,-0.72711,-19.885,34.128,7.6246,-2.5415,-0.12097,10.166,6.8434e-13,-0.060483,0,0,0.16667,-0,1.9726e-16,0.66667
0.33358,0.55525,2.0015,0.082877,3.4877,105.16,-0.44233,0.14744,-1.9748,-0.58977,8.8179e-13,-0.9874,0,0,0.16667,3.9475e-16,0,0.66667
0.021608,0.10227,0.12965,-0.5966,-28.495,194.11,0.20626,-0.068754,-0.73345,0.27501,-1.8975e-06,-0.36672,0,0,0.16667,4.9343e-17,0,0.66667
0.36901,0.96566,2.2141,0.69848,28.908,96.393,-4.124,1.3747,-0.26502,-5.4986,-1.8385e-13,-0.13251,0,0,0.16667,7.0137e-16,0,0.66667
0.97218,0.49908,5.8331,-0.001382,-0.002832,0.45727,0.021497,-0.0071608,-2.0009,0.028666,7.4701e-06,-1.0004,0,0,0.16667,-2.7632e-15,0,0.66667
0.5291,0.98487,3.1746,0.7273,25.112,58.588,-6.1571,2.0524,-0.11921,-8.2094,-4.4853e-13,-0.059603,0,0,0.16667,7.8949e-16,0,0.66667
0.74214,0.58376,4.4529,0.12564,2.6379,19.726,-1.4919,0.4973,-1.9425,-1.9892,2.3278e-11,-0.97127,0,0,0.16667,-7.8949e-16,0,0.66667
0.34539,0.49914,2.0723,-0.0012893,-0.053752,102.05,0.0071252,-0.0023751,-2.0018,0.0095003,4.2946e-13,-1.0009,0,0,0.16667,-1.2829e-15,0,0.66667
0.46059,0.39488,2.7635,-0.15769,-5.8753,73.346,1.1621,-0.38735,-1.9102,1.5494,-2.4669e-13,-0.95509,0,0,0.16667,-0,-0,0.66667
0.21164,0.86318,1.2698,0.54477,24.828,138.83,-1.8447,0.6149,-0.94336,-2.4596,-1.8374e-10,-0.47168,0,0,0.16667,-0,-0,0.66667
0.83696,0.33704,5.0218,-0.24444,-3.3866,8.7588,3.2734,-1.0911,-1.7866,4.3646,-1.263e-09,-0.8933,0,0,0.16667,7.8949e-16,0,0.66667
0.35981,0.72877,2.1589,0.34316,14.181,98.401,-1.9755,0.65851,-1.5826,-2.634,3.7262e-12,-0.7913,0,0,0.16667,-0,-0,0.66667
0.037088,0.10915,0.22253,-0.58628,-27.969,189.54,0.3479,-0.11597,-0.77653,0.46387,4.3025e-07,-0.38827,0,0,0.16667,4.9343e-17,0,0.66667
0.68899,0.76592,4.1339,0.39888,9.8905,27.905,-4.3972,1.4657,-1.4347,-5.8629,-5.3255e-12,-0.71733,0,0,0.16667,-0,-0,0.66667
0.15579,0.72701,0.93473,0.34052,15.791,154.72,-0.84879,0.28293,-1.5891,-1.1317,-2.0624e-09,-0.79457,0,0,0.16667,-0,-0,0.66667
0.79875,0.76671,4.7925,0.40006,6.7845,12.933,-5.1128,1.7043,-1.4311,-6.8171,4.0648e-10,-0.71554,0,0,0.16667,1.579e-15,0,0.66667
0.015262,0.94685,0.091575,0.67028,32.087,195.99,-0.16368,0.054557,-0.40395,-0.21824,-3.1355e-06,-0.20198,0,0,0.16667,-0,-0,0.66667
0.58562,0.11333,3.5137,-0.58001,-18.156,46.669,5.4347,-1.8116,-0.80245,7.2462,4.3299e-13,-0.40122,0,0,0.16667,7.8949e-16,0,0.66667
0.49552,0.19856,2.9731,-0.45216,-16.207,65.53,3.5848,-1.1949,-1.2722,4.7798,-2.7711e-13,-0.6361,0,0,0.16667,-0,-0,0.66667
0.99746,0.078256,5.9848,-0.63262,-0.047473,1.0879,10.096,-3.3654,-0.57685,13.462,1.8514e-06,-0.28843,0,0,0.16667,1.579e-15,6.9243e-16,0.66667
0.13437,0.36215,0.80622,-0.20677,-9.6342,160.91,0.44454,-0.14818,-1.8466,0.59272,3.389e-09,-0.92331,0,0,0.16667,-0,-0,0.66667
0.67255,0.46955,4.0353,-0.045674,-1.1742,30.296,0.49149,-0.16383,-1.995,0.65533,8.9301e-13,-0.99751,0,0,0.16667,-0,-0,0.66667
0.094945,0.52203,0.56967,0.033039,1.5523,172.43,-0.05019,0.01673,-1.997,-0.06692,-1.137e-08,-0.99848,0,0,0.16667,-0,-0,0.66667
0.16177,0.3222,0.97061,-0.2667,-12.331,152.97,0.69029,-0.2301,-1.7461,0.92039,1.5368e-09,-0.87303,0,0,0.16667,-0,-0,0.66667
0.98833,0.90904,5.93,0.61356,0.56491,1.1304,-9.7024,3.2342,-0.6618,-12.937,2.1742e-06,-0.3309,0,0,0.16667,3.158e-15,0,0.66667
0.80667,0.64011,4.84,0.21017,3.4107,11.81,-2.7125,0.90418,-1.8416,-3.6167,5.3974e-10,-0.9208,0,0,0.16667,-0,-0,0.66667
0.24464,0.76145,1.4678,0.39217,17.531,129.47,-1.5351,0.51168,-1.452,-2.0467,-5.6318e-11,-0.72601,0,0,0.16667,3.9475e-16,0,0.66667
0.8463,0.39634,5.0778,-0.1555,-2.0312,7.816,2.1056,-0.70185,-1.914,2.8074,-2.0116e-09,-0.95702,0,0,0.16667,-0,-0,0.66667
0.0356,0.97938,0.2136,0.71907,34.438,190,-0.40959,0.13653,-0.16075,-0.54612,-1.5214e-06,-0.080375,0,0,0.16667,-0,-0,0.66667
0.53561,0.24299,3.2136,-0.38551,-13.031,56.655,3.3037,-1.1012,-1.4711,4.405,-8.9484e-14,-0.73556,0,0,0.16667,-0,-0,0.66667
0.091475,0.94102,0.54885,0.66153,31.402,173.56,-0.96822,0.32274,-0.44495,-1.291,-2.4758e-07,-0.22248,0,0,0.16667,-0,7.8932e-17,0.66667
0.97091,0.67899,5.8254,0.26848,0.60243,0.67533,-4.1707,1.3902,-1.744,-5.561,-2.0098e-08,-0.87202,0,0,0.16667,-1.579e-15,0,0.66667
0.5831,0.53256,3.4986,0.048841,1.5189,46.647,-0.45567,0.15189,-1.9918,-0.60755,-4.1181e-13,-0.9959,0,0,0.16667,-0,-0,0.66667
0.55574,0.45343,3.3344,-0.069854,-2.277,52.207,0.62113,-0.20704,-1.9812,0.82817,2.1921e-13,-0.99058,0,0,0.16667,-7.8949e-16,0,0.66667
0.31797,0.3328,1.9078,-0.2508,-10.691,109.36,1.276,-0.42532,-1.7752,1.7013,-5.2256e-12,-0.88761,0,0,0.16667,-0,-0,0.66667
0.8499,0.65138,5.0994,0.22708,2.9061,7.5563,-3.0879,1.0293,-1.8161,-4.1172,2.2707e-09,-0.90803,0,0,0.16667,-1.1842e-15,0,0.66667
0.53015,0.10532,3.1809,-0.59202,-20.3,58.109,5.0218,-1.6739,-0.75457,6.6957,-4.6319e-13,-0.37728,0,0,0.16667,-0,-0,0.66667
0.017098,0.25339,0.10259,-0.36991,-17.587,195.44,0.1012,-0.033733,-1.5149,0.13493,-7.5349e-10,-0.75745,0,0,0.16667,-0,-0,0.66667
0.18489,0.92979,1.1094,0.64469,29.789,146.49,-1.9072,0.63573,-0.52243,-2.5429,-3.0619e-10,-0.26122,0,0,0.16667,-1.9737e-16,0,0.66667
0.43347,0.2063,2.6008,-0.44055,-17.005,80.02,3.0554,-1.0185,-1.3091,4.0739,-8.2889e-13,-0.65457,0,0,0.16667,-0,-0,0.66667
0.079976,0.81745,0.47986,0.47618,22.545,176.88,-0.60933,0.20311,-1.1948,-0.81244,-1.8556e-08,-0.59738,0,0,0.16667,-0,-0,0.66667
0.28066,0.34975,1.6839,-0.22538,-9.8464,119.45,1.0121,-0.33736,-1.821,1.3494,6.0641e-12,-0.9105,0,0,0.16667,-0,-0,0.66667
0.2504,0.73175,1.5024,0.34762,15.481,127.85,-1.3927,0.46423,-1.5715,-1.8569,-4.8928e-11,-0.78574,0,0,0.16667,-0,-0,0.66667
0.00060864,0.017586,0.0036519,-0.72362,-34.705,200.32,0.0070774,-0.0023787,-0.1391,0.0094267,-2.9312e-05,-0.069551,0,0,0.16667,-0,7.7706e-16,0.66667
0.69289,0.69241,4.1573,0.28862,7.0592,27.148,-3.1997,1.0666,-1.7034,-4.2662,-4.0303e-12,-0.85168,0,0,0.16667,-1.579e-15,0,0.66667
0.77389,0.37919,4.6433,-0.18121,-3.3893,15.604,2.2438,-0.74794,-1.8826,2.9918,-1.4974e-10,-0.94131,0,0,0.16667,-0,-0,0.66667
0.82035,0.78334,4.9221,0.425,6.5031,10.661,-5.5784,1.8595,-1.3575,-7.4379,6.6856e-10,-0.67875,0,0,0.16667,3.158e-15,0,0.66667
0.85163,0.53326,5.1098,0.049896,0.629,7.2932,-0.67989,0.22663,-1.9909,-0.90652,2.3843e-09,-0.99545,0,0,0.16667,-0,-0,0.66667
0.15152,0.91505,0.90915,0.62257,29.084,156.06,-1.5094,0.50312,-0.62111,-2.0125,3.1287e-09,-0.31056,0,0,0.16667,-0,-0,0.66667
0.89004,0.09805,5.3402,-0.60292,-5.8904,5.1523,8.586,-2.862,-0.70935,11.448,-3.3152e-08,-0.35467,0,0,0.16667,-3.158e-15,0,0.66667
0.65821,0.5231,3.9493,0.034645,0.92233,32.718,-0.36486,0.12162,-1.9962,-0.48648,-1.466e-12,-0.99811,0,0,0.16667,1.579e-15,0,0.66667
0.69613,0.44381,4.1768,-0.084278,-2.0364,26.495,0.9387,-0.3129,-1.9738,1.2516,-2.9643e-14,-0.98692,0,0,0.16667,1.579e-15,0,0.66667
0.56407,0.79889,3.3844,0.44834,14.505,50.785,-4.0463,1.3488,-1.2857,-5.3951,-5.7421e-13,-0.64283,0,0,0.16667,-0,-0,0.66667
0.93968,0.71298,5.6381,0.31947,1.6416,1.7952,-4.8032,1.6011,-1.6378,-6.4042,-1.5167e-08,-0.81889,0,0,0.16667,-0,-0,0.66667
0.25185,0.58609,1.5111,0.12913,5.7321,127.37,-0.52034,0.17345,-1.9413,-0.69379,-3.7355e-11,-0.97066,0,0,0.16667,-1.9737e-16,0,0.66667
0.78688,0.73576,4.7213,0.35364,6.3038,14.225,-4.4524,1.4841,-1.554,-5.9366,2.7751e-10,-0.77701,0,0,0.16667,-1.579e-15,0,0.66667
0.49526,0.56889,2.9716,0.10334,3.6846,65.332,-0.81889,0.27296,-1.9615,-1.0919,-1.6653e-13,-0.98077,0,0,0.16667,-0,-0,0.66667
0.8909,0.55864,5.3454,0.087958,0.82038,4.249,-1.2538,0.41793,-1.9746,-1.6717,1.5118e-08,-0.98732,0,0,0.16667,1.9737e-15,0,0.66667
0.2762,0.55276,1.6572,0.079134,3.463,120.63,-0.34971,0.11657,-1.9768,-0.46628,-4.769e-12,-0.9884,0,0,0.16667,3.9475e-16,0,0.66667
0.015247,0.94548,0.091481,0.66822,31.987,196,-0.16301,0.054334,-0.41388,-0.21734,-2.5594e-06,-0.20694,0,0,0.16667,-0,-0,0.66667
0.064891,0.3386,0.38935,-0.24211,-11.446,181.3,0.25137,-0.08379,-1.7922,0.33516,-1.1061e-08,-0.89611,0,0,0.16667,-9.8686e-17,0,0.66667
0.89964,0.49255,5.3978,-0.01117,-0.095703,3.6574,0.16078,-0.053595,-1.9985,0.21438,-3.0792e-08,-0.99927,0,0,0.16667,-0,-0,0.66667
0.64115,0.15504,3.8469,-0.51744,-14.469,36.158,5.3081,-1.7694,-1.0505,7.0774,1.2057e-12,-0.52525,0,0,0.16667,8.8818e-16,0,0.66667
0.73027,0.016781,4.3816,-0.72483,-16.21,22.385,8.4691,-2.823,-0.13112,11.292,9.8854e-13,-0.065561,0,0,0.16667,-3.158e-15,1.9629e-16,0.66667
0.50436,0.53648,3.0262,0.054718,1.9266,63.278,-0.44156,0.14719,-1.9891,-0.58875,-6.9025e-13,-0.99457,0,0,0.16667,-0,-0,0.66667
0.55757,0.76151,3.3454,0.39226,12.809,52.049,-3.4994,1.1665,-1.4519,-4.6659,-7.2009e-13,-0.72594,0,0,0.16667,-0,-0,0.66667
0.36389,0.93027,2.1834,0.6454,26.779,97.635,-3.7577,1.2526,-0.51844,-5.0103,8.6264e-13,-0.25922,0,0,0.16667,-0,-0,0.66667
0.78264,0.24378,4.6958,-0.38433,-6.9828,14.777,4.8126,-1.6042,-1.4759,6.4168,-2.2106e-10,-0.73794,0,0,0.16667,-7.8949e-16,0,0.66667
0.75687,0.73244,4.5412,0.34866,6.9893,17.957,-4.2222,1.4074,-1.5663,-5.6296,7.1654e-11,-0.78315,0,0,0.16667,-0,-0,0.66667
0.70001,0.70832,4.2,0.31249,7.4989,26.059,-3.4999,1.1666,-1.6525,-4.6665,-3.2669e-12,-0.82626,0,0,0.16667,-7.8949e-16,0,0.66667
0.96189,0.49649,5.7714,-0.0052605,-0.015805,0.7369,0.080961,-0.026988,-1.9994,0.10795,-1.7515e-06,-0.99971,0,0,0.16667,-2.7632e-15,0,0.66667
0.76884,0.29903,4.613,-0.30145,-5.769,16.355,3.7083,-1.2361,-1.6764,4.9444,-1.3485e-10,-0.8382,0,0,0.16667,-0,-0,0.66667
0.97792,0.91334,5.8675,0.62001,1.185,1.3295,-9.7011,3.2337,-0.63227,-12.935,-1.9613e-06,-0.31613,0,0,0.16667,-0,-0,0.66667
0.59028,0.93306,3.5417,0.64958,20.221,45.891,-6.135,2.045,-0.49993,-8.1799,-4.6274e-13,-0.24996,0,0,0.16667,3.9475e-16,1.4523e-16,0.66667
0.61926,0.066769,3.7156,-0.64985,-19.136,40.385,6.4388,-2.1463,-0.49805,8.585,-7.3186e-13,-0.24902,0,0,0.16667,1.579e-15,0,0.66667
0.63905,0.57359,3.8343,0.11038,3.0716,36.096,-1.1286,0.37622,-1.9571,-1.5049,-2.2363e-12,-0.97857,0,0,0.16667,1.579e-15,0,0.66667
0.32637,0.88039,1.9582,0.57059,24.331,107.35,-2.9796,0.99319,-0.84336,-3.9728,2.1843e-12,-0.42168,0,0,0.16667,-0,-0,0.66667
0.033029,0.97528,0.19817,0.71291,34.142,190.76,-0.37675,0.12558,-0.19369,-0.50233,3.2499e-06,-0.096847,0,0,0.16667,-0,-0,0.66667
0.78818,0.97779,4.7291,0.71668,12.994,14.89,-9.0379,3.0126,-0.17256,-12.051,8.0984e-11,-0.086281,0,0,0.16667,1.579e-15,0,0.66667
0.71019,0.37933,4.2611,-0.18101,-4.2068,24.378,2.0568,-0.6856,-1.8829,2.7424,-2.4687e-12,-0.94144,0,0,0.16667,1.579e-15,0,0.66667
0.079032,0.91686,0.47419,0.62529,29.715,177.2,-0.79069,0.26356,-0.61072,-1.0543,-5.5932e-08,-0.30536,0,0,0.16667,-0,-0,0.66667
0.14858,0.17761,0.89149,-0.48359,-22.535,156.85,1.1496,-0.38321,-1.1672,1.5328,1.9867e-09,-0.5836,0,0,0.16667,-0,-0,0.66667
0.68634,0.1682,4.118,-0.4977,-12.474,28.491,5.4655,-1.8218,-1.1199,7.2873,4.3689e-12,-0.55997,0,0,0.16667,-0,-0,0.66667
0.53504,0.36214,3.2102,-0.2068,-6.9732,56.626,1.7703,-0.5901,-1.8472,2.3604,1.5121e-13,-0.92362,0,0,0.16667,7.8949e-16,0,0.66667
0.19121,0.097002,1.1473,-0.6045,-27.831,144.66,1.8494,-0.61647,-0.70107,2.4659,9.2791e-11,-0.35054,0,0,0.16667,-0,-0,0.66667
0.055953,0.99093,0.33572,0.7364,35.221,184.01,-0.65926,0.21975,-0.070714,-0.87902,1.4791e-07,-0.035357,0,0,0.16667,6.6262e-17,0,0.66667
0.61141,0.67982,3.6685,0.26973,7.9702,41.277,-2.6387,0.87956,-1.7418,-3.5182,-2.0042e-12,-0.87091,0,0,0.16667,-0,-0,0.66667
0.053612,0.54387,0.32167,0.065798,3.1111,184.62,-0.056441,0.018813,-1.9832,-0.075254,-1.5663e-07,-0.99159,0,0,0.16667,-9.8686e-17,0,0.66667
0.21358,0.92977,1.2815,0.64465,29.434,138.35,-2.2029,0.7343,-0.52163,-2.9372,-3.2565e-12,-0.26081,0,0,0.16667,1.2646e-16,0,0.66667
0.50266,0.99747,3.016,0.74621,26.764,64.4,-6.0015,2.0005,-0.021083,-8.002,1.6405e-12,-0.010541,0,0,0.16667,-1.579e-15,0,0.66667
0.094031,0.81147,0.56419,0.46721,22.061,172.75,-0.70291,0.2343,-1.2266,-0.93721,-1.9836e-08,-0.61328,0,0,0.16667,2.9606e-16,0,0.66667
0.40891,0.10233,2.4534,-0.5965,-23.717,86.211,3.9026,-1.3009,-0.73496,5.2035,-4.2988e-13,-0.36748,0,0,0.16667,-0,-0,0.66667
0.020116,0.081173,0.12069,-0.62824,-30.034,194.56,0.2022,-0.067401,-0.59572,0.2696,-1.1428e-06,-0.29786,0,0,0.16667,2.4672e-17,0,0.66667
0.11946,0.41425,0.71678,-0.12863,-6.0131,165.25,0.24586,-0.081953,-1.9403,0.32781,4.4817e-09,-0.97014,0,0,0.16667,-0,-0,0.66667
0.94006,0.55475,5.6404,0.082129,0.41108,1.5403,-1.2353,0.41177,-1.9762,-1.6471,-7.9178e-08,-0.98811,0,0,0.16667,-7.8949e-16,0,0.66667
0.55886,0.66696,3.3532,0.25044,8.1368,51.648,-2.2394,0.74646,-1.7765,-2.9858,-1.0651e-12,-0.88823,0,0,0.16667,1.579e-15,0,0.66667
0.68646,0.79412,4.1188,0.44118,11.029,28.375,-4.8456,1.6152,-1.3087,-6.4608,-5.3473e-12,-0.65433,0,0,0.16667,-0,-0,0.66667
0.37777,0.65512,2.2666,0.23268,9.4523,93.721,-1.4064,0.46881,-1.8086,-1.8752,2.4171e-12,-0.90432,0,0,0.16667,-9.8686e-17,0,0.66667
0.76312,0.33171,4.5787,-0.25244,-4.93,17.027,3.0823,-1.0274,-1.7733,4.1097,-1.025e-10,-0.88666,0,0,0.16667,-7.8949e-16,0,0.66667
0.89639,0.78723,5.3783,0.43084,3.895,4.3093,-6.1792,2.0597,-1.3393,-8.2389,1.1406e-08,-0.66966,0,0,0.16667,-0,-0,0.66667
0.91019,0.22406,5.4612,-0.41391,-3.2404,3.4325,6.0278,-2.0093,-1.3908,8.0371,-8.8351e-09,-0.69538,0,0,0.16667,-3.158e-15,0,0.66667
0.49649,0.25482,2.9789,-0.36778,-13.139,65.22,2.9215,-0.97384,-1.5192,3.8954,5.4512e-13,-0.75962,0,0,0.16667,-1.579e-15,0,0.66667
0.76261,0.35026,4.5757,-0.22461,-4.3919,17.066,2.7406,-0.91354,-1.8208,3.6542,-9.4116e-11,-0.91038,0,0,0.16667,-1.579e-15,0,0.66667
0.70896,0.44553,4.2538,-0.081707,-1.9036,24.514,0.92683,-0.30894,-1.9753,1.2358,-1.2741e-12,-0.98765,0,0,0.16667,-0,-0,0.66667
0.9513,0.46996,5.7078,-0.045058,-0.17935,1.0912,0.68581,-0.2286,-1.9944,0.91441,2.8717e-07,-0.9972,0,0,0.16667,-0,-0,0.66667
0.24155,0.90823,1.4493,0.61234,27.558,130.47,-2.3666,0.78888,-0.66657,-3.1555,-7.1143e-13,-0.33328,0,0,0.16667,-0,-0,0.66667
0.56134,0.021485,3.368,-0.71777,-23.562,51.814,6.4466,-2.1489,-0.169,8.5955,-1.2212e-13,-0.084502,0,0,0.16667,-0,-0,0.66667
0.043773,0.8784,0.26264,0.56761,27.051,187.57,-0.39754,0.13251,-0.85505,-0.53005,-3.985e-08,-0.42752,0,0,0.16667,-9.8686e-17,0,0.66667
0.92318,0.64989,5.5391,0.22484,1.4751,2.4336,-3.3211,1.107,-1.8213,-4.4281,-8.1732e-09,-0.91067,0,0,0.16667,-0,-0,0.66667
0.94526,0.42456,5.6715,-0.11316,-0.51392,1.3449,1.7115,-0.57049,-1.953,2.282,1.0054e-07,-0.97649,0,0,0.16667,4.5958e-16,0,0.66667
0.50091,0.2533,3.0054,-0.37005,-13.143,64.23,2.9658,-0.9886,-1.5149,3.9544,1.2568e-13,-0.75745,0,0,0.16667,-0,-0,0.66667
0.58612,0.86306,3.5167,0.5446,17.01,46.509,-5.1072,1.7024,-0.94402,-6.8095,-8.0114e-13,-0.47201,0,0,0.16667,-0,-0,0.66667
0.77194,0.98008,4.6317,0.72013,13.936,16.846,-8.8943,2.9648,-0.15485,-11.859,-2.9933e-11,-0.077424,0,0,0.16667,-0,-0,0.66667
0.24933,0.27881,1.496,-0.33178,-14.78,128.13,1.3236,-0.4412,-1.6107,1.7648,5.038e-11,-0.80536,0,0,0.16667,1.9737e-16,0,0.66667
0.37899,0.96089,2.2739,0.69133,28.357,93.838,-4.1921,1.3974,-0.30022,-5.5895,1.0902e-12,-0.15011,0,0,0.16667,-3.9475e-16,0,0.66667
0.28861,0.30959,1.7316,-0.28561,-12.425,117.3,1.3189,-0.43962,-1.7096,1.7585,-1.3989e-13,-0.85478,0,0,0.16667,4.9343e-16,0,0.66667
0.5388,0.6625,3.2328,0.24375,8.1761,55.846,-2.1013,0.70044,-1.7878,-2.8017,-8.4732e-13,-0.89391,0,0,0.16667,1.579e-15,0,0.66667
0.94896,0.80237,5.6937,0.45355,1.9979,1.692,-6.8864,2.2955,-1.2679,-9.1819,-8.802e-09,-0.63395,0,0,0.16667,7.8949e-16,0,0.66667
0.3854,0.40379,2.3124,-0.14431,-5.8171,91.746,0.88989,-0.29663,-1.9259,1.1865,-1.0569e-12,-0.96297,0,0,0.16667,-2.8064e-16,0,0.66667
0.04501,0.98117,0.27006,0.72176,34.543,187.23,-0.51978,0.17326,-0.14801,-0.69304,-3.8962e-06,-0.074004,0,0,0.16667,-0,1.8908e-16,0.66667
0.68252,0.34293,4.0951,-0.2356,-5.9169,28.756,2.5728,-0.8576,-1.803,3.4304,4.5708e-12,-0.90151,0,0,0.16667,-1.1349e-15,0,0.66667
0.49503,0.10967,2.9702,-0.5855,-21.083,65.822,4.6374,-1.5458,-0.77997,6.1832,-3.4373e-13,-0.38999,0,0,0.16667,-0,-0,0.66667
0.29651,0.15754,1.7791,-0.51369,-22.33,115.3,2.4371,-0.81235,-1.0643,3.2494,-4.0592e-12,-0.53216,0,0,0.16667,-7.8949e-16,0,0.66667
0.41589,0.082411,2.4953,-0.62638,-24.755,84.53,4.1681,-1.3894,-0.6037,5.5575,-1.4522e-13,-0.30185,0,0,0.16667,-0,-0,0.66667
0.86251,0.61661,5.1751,0.17492,2.0536,6.4337,-2.4139,0.80465,-1.8911,-3.2186,2.7625e-09,-0.94554,0,0,0.16667,-7.8949e-16,0,0.66667
0.82102,0.6035,4.9261,0.15525,2.3421,10.25,-2.0394,0.67979,-1.913,-2.7192,7.9777e-10,-0.95651,0,0,0.16667,-0,-0,0.66667
0.17085,0.34657,1.0251,-0.23014,-10.603,150.35,0.6291,-0.2097,-1.8135,0.8388,9.2367e-10,-0.90675,0,0,0.16667,-0,-0,0.66667
0.68513,0.38797,4.1108,-0.16805,-4.1868,28.284,1.8422,-0.61406,-1.8995,2.4562,3.1504e-12,-0.94976,0,0,0.16667,-1.579e-15,0,0.66667
0.99766,0.59578,5.986,0.14367,-0.048546,0.076359,-2.2933,0.76443,-1.9278,-3.0577,8.9054e-07,-0.9639,0,0,0.16667,3.158e-15,0,0.66667
0.78436,0.50897,4.7062,0.013454,0.24065,14.263,-0.16885,0.056283,-1.9992,-0.22513,-3.4934e-11,-0.99959,0,0,0.16667,-0,-0,0.66667
0.72505,0.71931,4.3503,0.32896,7.3344,22.323,-3.8162,1.2721,-1.6154,-5.0882,7.5755e-12,-0.8077,0,0,0.16667,3.158e-15,0,0.66667
0.31002,0.56698,1.8601,0.10047,4.3014,111.45,-0.49835,0.16612,-1.9648,-0.66447,8.3522e-13,-0.9824,0,0,0.16667,-0,-0,0.66667
0.15947,0.76608,0.95682,0.39912,18.504,153.67,-1.0184,0.33945,-1.4331,-1.3578,-1.8398e-09,-0.71654,0,0,0.16667,-0,-0,0.66667
0.86432,0.86753,5.1859,0.55129,6.5456,6.9156,-7.6239,2.5413,-0.91871,-10.165,-4.5529e-09,-0.45935,0,0,0.16667,-7.8949e-16,0,0.66667
0.61035,0.2493,3.6621,-0.37605,-11.162,41.59,3.6723,-1.2241,-1.4995,4.8964,2.0814e-12,-0.74973,0,0,0.16667,-1.9737e-16,0,0.66667
0.39009,0.15794,2.3405,-0.51309,-20.722,90.811,3.2024,-1.0675,-1.0663,4.2699,-1.7184e-12,-0.53315,0,0,0.16667,1.579e-15,1.7663e-16,0.66667
0.75559,0.31295,4.5335,-0.28057,-5.6379,18.038,3.392,-1.1307,-1.7204,4.5226,-6.8955e-11,-0.8602,0,0,0.16667,-0,-0,0.66667
0.71863,0.3892,4.3118,-0.16619,-3.7654,23.107,1.9109,-0.63697,-1.9031,2.5479,-5.7665e-12,-0.95155,0,0,0.16667,-0,-0,0.66667
0.64733,0.20474,3.884,-0.44288,-12.182,34.945,4.5871,-1.529,-1.3011,6.1161,3.2516e-12,-0.65056,0,0,0.16667,-7.8949e-16,0,0.66667
0.20726,0.57026,1.2436,0.10539,4.7811,139.91,-0.34949,0.1165,-1.96,-0.46599,-1.7948e-10,-0.98002,0,0,0.16667,-0,-0,0.66667
0.88553,0.62153,5.3132,0.18229,1.7886,4.6814,-2.5828,0.86094,-1.8817,-3.4438,1.3806e-09,-0.94084,0,0,0.16667,1.579e-15,0,0.66667
0.71901,0.40706,4.314,-0.1394,-3.1537,23.036,1.6037,-0.53457,-1.9336,2.1383,-7.5309e-12,-0.96682,0,0,0.16667,3.158e-15,0,0.66667
0.30263,0.44428,1.8158,-0.08358,-3.5963,113.44,0.4047,-0.1349,-1.9744,0.5396,4.3124e-13,-0.98718,0,0,0.16667,-7.8949e-16,0,0.66667
0.063598,0.012423,0.38159,-0.73136,-34.943,181.76,0.74422,-0.24807,-0.098843,0.99229,-2.784e-07,-0.049422,0,0,0.16667,1.9737e-16,0,0.66667
0.9128,0.36657,5.4768,-0.20015,-1.494,2.9651,2.9231,-0.97436,-1.8565,3.8975,1.0248e-08,-0.92823,0,0,0.16667,-0,-0,0.66667
0.79385,0.23741,4.7631,-0.39389,-6.8253,13.479,5.003,-1.6677,-1.448,6.6707,-3.1327e-10,-0.72399,0,0,0.16667,-0,-0,0.66667
0.49858,0.0023419,2.9915,-0.74649,-26.92,65.309,5.955,-1.985,-0.020344,7.94,-4.694e-13,-0.010172,0,0,0.16667,-0,5.4731e-17,0.66667
0.41393,0.8369,2.4836,0.50535,19.94,84.861,-3.3469,1.1156,-1.091,-4.4625,1.015e-12,-0.54548,0,0,0.16667,-1.4965e-16,0,0.66667
0.61556,0.5883,3.6934,0.13245,3.8737,40.406,-1.3045,0.43483,-1.9369,-1.7393,-1.7697e-12,-0.96847,0,0,0.16667,-0,-0,0.66667
0.39852,0.85424,2.3911,0.53135,21.3,88.716,-3.388,1.1293,-0.99478,-4.5174,1.378e-12,-0.49739,0,0,0.16667,-0,-0,0.66667
0.038918,0.58008,0.23351,0.12013,5.6891,188.97,-0.074802,0.024934,-1.9472,-0.099736,-1.0104e-07,-0.97359,0,0,0.16667,-4.6088e-17,0,0.66667
0.30197,0.0025177,1.8118,-0.74622,-32.548,114.06,3.6054,-1.2018,-0.020102,4.8072,-1.1595e-12,-0.010051,0,0,0.16667,-1.579e-15,0,0.66667
0.24628,0.56327,1.4777,0.0949,4.2245,128.92,-0.37395,0.12465,-1.9688,-0.4986,-2.4959e-11,-0.98439,0,0,0.16667,-7.8949e-16,0,0.66667
0.9723,0.88177,5.8338,0.57265,1.3622,1.3046,-8.9086,2.9695,-0.83391,-11.878,-7.4648e-07,-0.41696,0,0,0.16667,-0,-0,0.66667
0.7675,0.027742,4.605,-0.70839,-13.929,17.365,8.699,-2.8997,-0.21695,11.599,1.5055e-11,-0.10848,0,0,0.16667,7.8949e-16,0,0.66667
0.4037,0.24004,2.4222,-0.38994,-15.501,87.284,2.5187,-0.83956,-1.4594,3.3582,-1.1051e-12,-0.72969,0,0,0.16667,-0,-0,0.66667
0.73663,0.078431,4.4198,-0.63235,-13.776,21.247,7.4529,-2.4843,-0.57817,9.9373,-1.2221e-12,-0.28909,0,0,0.16667,-1.579e-15,0,0.66667
0.30266,0.2965,1.8159,-0.30525,-13.161,113.5,1.4782,-0.49272,-1.6674,1.9709,-3.9636e-12,-0.83368,0,0,0.16667,3.9475e-16,0,0.66667
0.5273,0.84864,3.1638,0.52296,17.966,58.616,-4.4121,1.4707,-1.0276,-5.8827,-4.7251e-13,-0.51379,0,0,0.16667,1.579e-15,0,0.66667
0.20714,0.25413,1.2429,-0.36881,-16.78,140.01,1.2223,-0.40744,-1.5165,1.6298,3.3715e-10,-0.75823,0,0,0.16667,-0,-0,0.66667
0.25426,0.56078,1.5256,0.091172,4.041,126.7,-0.3709,0.12363,-1.9709,-0.49454,-2.3097e-11,-0.98543,0,0,0.16667,4.9343e-17,0,0.66667
0.43402,0.37209,2.6041,-0.19187,-7.3703,79.704,1.3324,-0.44414,-1.8696,1.7766,-4.4509e-13,-0.93479,0,0,0.16667,1.1842e-15,0,0.66667
0.082426,0.85079,0.49456,0.52618,24.929,176.18,-0.69394,0.23131,-1.0151,-0.92525,-2.4037e-08,-0.50757,0,0,0.16667,-1.9737e-16,0,0.66667
0.85329,0.51655,5.1197,0.024825,0.30953,7.1443,-0.33893,0.11298,-1.9964,-0.45191,-3.1763e-10,-0.99821,0,0,0.16667,-0,-0,0.66667
0.91633,0.15595,5.498,-0.51608,-3.8134,3.322,7.5664,-2.5221,-1.0534,10.089,-1.6115e-09,-0.52668,0,0,0.16667,1.9244e-15,0,0.66667
0.21311,0.096913,1.2786,-0.60463,-27.581,138.45,2.0616,-0.68721,-0.69994,2.7488,-7.0821e-11,-0.34997,0,0,0.16667,7.8949e-16,0,0.66667
0.47372,0.06042,2.8423,-0.65937,-24.46,70.796,4.9977,-1.6659,-0.45428,6.6636,-1.3101e-13,-0.22714,0,0,0.16667,-8.8818e-16,0,0.66667
0.84146,0.25392,5.0488,-0.36912,-5.0095,8.5097,4.9696,-1.6565,-1.5164,6.6262,-1.8792e-09,-0.75821,0,0,0.16667,-0,-0,0.66667
0.28828,0.099731,1.7297,-0.6004,-26.299,117.6,2.7693,-0.92311,-0.71741,3.6925,-5.3983e-12,-0.3587,0,0,0.16667,7.8949e-16,0,0.66667
0.61071,0.38536,3.6643,-0.17196,-5.0805,41.339,1.6803,-0.56009,-1.8955,2.2403,1.3636e-12,-0.94776,0,0,0.16667,-0,-0,0.66667
0.44205,0.65647,2.6523,0.2347,8.9409,77.79,-1.66,0.55334,-1.8048,-2.2133,6.1229e-13,-0.90238,0,0,0.16667,-0,-0,0.66667
0.39749,0.19711,2.3849,-0.45433,-18.195,88.892,2.8895,-0.96317,-1.2648,3.8527,-9.7478e-13,-0.63241,0,0,0.16667,-0,-0,0.66667
0.78937,0.74594,4.7362,0.36891,6.5107,13.956,-4.6594,1.5531,-1.5155,-6.2125,3.0512e-10,-0.75775,0,0,0.16667,7.8949e-16,0,0.66667
0.46451,0.95143,2.7871,0.67715,25.417,72.962,-5.0327,1.6776,-0.36874,-6.7103,4.8894e-13,-0.18437,0,0,0.16667,-0,-0,0.66667
0.4648,0.77752,2.7888,0.41628,15.497,72.541,-3.0958,1.0319,-1.384,-4.1277,1.0598e-12,-0.69201,0,0,0.16667,-1.1842e-15,0,0.66667
0.99203,0.85349,5.9522,0.53023,0.24943,0.82976,-8.4161,2.8054,-0.99906,-11.221,2.8462e-07,-0.49953,0,0,0.16667,-0,-0,0.66667
0.96223,0.57661,5.7734,0.11491,0.34334,0.76062,-1.7692,0.58973,-1.9516,-2.3589,1.4487e-07,-0.9758,0,0,0.16667,1.579e-15,0,0.66667
0.23508,0.043853,1.4105,-0.68422,-30.961,132.34,2.5736,-0.85785,-0.33638,3.4314,7.9745e-12,-0.16819,0,0,0.16667,3.9475e-16,0,0.66667
0.22695,0.52679,1.3617,0.040185,1.8062,134.33,-0.14592,0.048641,-1.9936,-0.19457,-2.3043e-11,-0.9968,0,0,0.16667,-0,-0,0.66667
0.66274,0.60061,3.9764,0.15091,3.9778,31.983,-1.6003,0.53342,-1.9181,-2.1337,-3.2394e-12,-0.95905,0,0,0.16667,-0,-0,0.66667
0.41195,0.8053,2.4717,0.45795,18.084,85.299,-3.0184,1.0061,-1.2535,-4.0246,1.8547e-12,-0.62674,0,0,0.16667,-0,-0,0.66667
0.71875,0.53795,4.3125,0.056932,1.288,23.042,-0.65472,0.21824,-1.9904,-0.87296,2.9325e-12,-0.99521,0,0,0.16667,-0,-0,0.66667
0.73345,0.72526,4.4007,0.33788,7.3366,21.133,-3.9652,1.3217,-1.5954,-5.2869,1.8452e-11,-0.7977,0,0,0.16667,-1.579e-15,0,0.66667
0.78329,0.81524,4.6998,0.47286,8.6052,14.857,-5.9263,1.9754,-1.2062,-7.9017,2.2286e-10,-0.6031,0,0,0.16667,3.158e-15,0,0.66667
0.26331,0.57555,1.5799,0.11333,4.9979,124.19,-0.47744,0.15915,-1.9543,-0.63659,-1.6981e-11,-0.97715,0,0,0.16667,-3.9475e-16,0,0.66667
0.99836,0.56466,5.9901,0.096997,-0.040364,0.039792,-1.5494,0.51647,-1.9681,-2.0659,-4.5901e-06,-0.98405,0,0,0.16667,-0,-0,0.66667
0.4937,0.89602,2.9622,0.59403,21.435,66.134,-4.6924,1.5641,-0.74409,-6.2565,-2.5624e-13,-0.37205,0,0,0.16667,-3.9475e-16,0,0.66667
0.083927,0.55091,0.50356,0.076359,3.5953,175.67,-0.10254,0.034179,-1.978,-0.13672,-6.3921e-09,-0.98902,0,0,0.16667,-0,-0,0.66667
0.11202,0.027984,0.67209,-0.70802,-33.514,167.57,1.269,-0.42299,-0.21841,1.6919,2.9819e-08,-0.10921,0,0,0.16667,-0,-0,0.66667
0.5615,0.33473,3.369,-0.2479,-8.0187,51.102,2.2271,-0.74237,-1.7825,2.9695,-8.8818e-16,-0.89124,0,0,0.16667,3.9475e-16,0,0.66667
0.51011,0.7499,3.0607,0.37486,13.147,62.186,-3.0595,1.0198,-1.5008,-4.0793,-2.8666e-13,-0.75039,0,0,0.16667,-1.542e-16,0,0.66667
0.93484,0.86543,5.609,0.54814,3.1684,2.4993,-8.1987,2.7329,-0.93168,-10.932,4.3346e-08,-0.46584,0,0,0.16667,7.8949e-16,0,0.66667
0.90083,0.76864,5.405,0.40295,3.479,3.972,-5.8079,1.936,-1.4215,-7.7438,1.154e-08,-0.71073,0,0,0.16667,-1.579e-15,0,0.66667
0.4654,0.73271,2.7924,0.34907,12.967,72.336,-2.5993,0.86645,-1.5662,-3.4658,-1.4566e-13,-0.78309,0,0,0.16667,7.8949e-16,0,0.66667
0.20648,0.32326,1.2389,-0.26511,-12.048,140.16,0.87583,-0.29194,-1.7497,1.1678,3.6361e-10,-0.87484,0,0,0.16667,-0,-0,0.66667
0.56442,0.76085,3.3865,0.39128,12.632,50.642,-3.5335,1.1778,-1.4559,-4.7114,-7.7827e-13,-0.72796,0,0,0.16667,-0,-0,0.66667
0.30873,0.30805,1.8524,-0.28792,-12.36,111.85,1.4223,-0.47409,-1.7054,1.8963,-4.4353e-12,-0.85268,0,0,0.16667,-5.9212e-16,0,0.66667
0.65059,0.52348,3.9035,0.035213,0.95432,34.039,-0.36654,0.12218,-1.9947,-0.48872,-8.3616e-13,-0.99735,0,0,0.16667,-0,-0,0.66667
0.5151,0.81459,3.0906,0.47188,16.474,61.198,-3.8891,1.2964,-1.2106,-5.1855,-6.1262e-13,-0.60528,0,0,0.16667,1.579e-15,-8.8159e-19,0.66667
0.84318,0.79205,5.0591,0.43807,5.9096,8.4769,-5.91,1.97,-1.3188,-7.88,1.6422e-09,-0.6594,0,0,0.16667,-0,-0,0.66667
0.13174,0.20217,0.79044,-0.44674,-20.903,161.73,0.94166,-0.31389,-1.2889,1.2555,3.2645e-09,-0.64445,0,0,0.16667,-0,-0,0.66667
0.25101,0.6546,1.506,0.2319,10.308,127.63,-0.93135,0.31045,-1.8108,-1.2418,-5.3597e-11,-0.90542,0,0,0.16667,5.4278e-16,0,0.66667
0.59753,0.81349,3.5852,0.47023,14.346,44.165,-4.4956,1.4985,-1.2145,-5.9942,-9.1083e-13,-0.60727,0,0,0.16667,-1.579e-15,0,0.66667
0.62521,0.40775,3.7513,-0.13838,-3.9678,38.617,1.3843,-0.46142,-1.9345,1.8457,1.0262e-12,-0.96727,0,0,0.16667,1.579e-15,0,0.66667
0.41259,0.43677,2.4756,-0.09485,-3.7233,84.918,0.62616,-0.20872,-1.9681,0.83487,-1.3907e-12,-0.98406,0,0,0.16667,1.0115e-15,0,0.66667
0.90059,0.93606,5.4036,0.65409,5.8405,4.6241,-9.4251,3.1417,-0.4789,-12.567,-6.5534e-08,-0.23945,0,0,0.16667,7.8949e-16,0,0.66667
0.81028,0.22525,4.8617,-0.41213,-6.6265,11.691,5.343,-1.781,-1.3966,7.124,-5.7438e-10,-0.69831,0,0,0.16667,-0,-0,0.66667
0.54085,0.42281,3.2451,-0.11579,-3.8661,55.345,1.002,-0.33399,-1.9509,1.336,-1.2168e-13,-0.97547,0,0,0.16667,-7.8949e-16,0,0.66667
0.40503,0.63919,2.4302,0.20879,8.2655,86.835,-1.3531,0.45102,-1.8456,-1.8041,1.25e-12,-0.92278,0,0,0.16667,-0,-0,0.66667
0.39718,0.33766,2.3831,-0.24351,-9.7176,88.814,1.5475,-0.51583,-1.7883,2.0633,-1.9972e-12,-0.89417,0,0,0.16667,1.9737e-16,0,0.66667
0.11399,0.36409,0.68393,-0.20387,-9.5484,166.86,0.37182,-0.12394,-1.8513,0.49576,1.4945e-09,-0.92566,0,0,0.16667,-0,-0,0.66667
0.93724,0.14245,5.6235,-0.53632,-2.9768,2.3628,8.0427,-2.6809,-0.97849,10.724,-4.4742e-08,-0.48924,0,0,0.16667,4.6906e-16,2.5623e-16,0.66667
0.23454,0.40188,1.4072,-0.14717,-6.5932,132.21,0.55228,-0.18409,-1.9251,0.73637,7.6964e-11,-0.96257,0,0,0.16667,-9.8686e-17,0,0.66667
0.15282,0.067395,0.9169,-0.64891,-30.325,155.7,1.5866,-0.52887,-0.50301,2.1155,6.6519e-09,-0.2515,0,0,0.16667,-0,-0,0.66667
0.51002,0.8732,3.0601,0.55979,19.736,62.442,-4.5681,1.5227,-0.88582,-6.0907,-2.6112e-13,-0.44291,0,0,0.16667,1.0856e-15,0,0.66667
0.45504,0.037538,2.7303,-0.69369,-26.344,75.209,5.0506,-1.6835,-0.28976,6.7341,-3.0997e-13,-0.14488,0,0,0.16667,-0,-0,0.66667
0.074027,0.29194,0.44416,-0.31208,-14.747,178.61,0.36964,-0.12321,-1.653,0.49286,-2.1293e-12,-0.82649,0,0,0.16667,-0,-0,0.66667
0.57557,0.92189,3.4534,0.63284,20.207,48.762,-5.8279,1.9426,-0.57583,-7.7706,7.061e-14,-0.28792,0,0,0.16667,-0,-0,0.66667
0.69854,0.76841,4.1912,0.40261,9.7284,26.408,-4.4999,1.5,-1.4227,-5.9998,-4.5799e-12,-0.71133,0,0,0.16667,-0,-0,0.66667
0.49055,0.93834,2.9433,0.65751,23.877,66.95,-5.1606,1.7202,-0.46299,-6.8808,-8.7574e-13,-0.2315,0,0,0.16667,1.579e-15,0,0.66667
0.072894,0.054061,0.43736,-0.66891,-31.857,179.01,0.78015,-0.26005,-0.40824,1.0402,2.2336e-08,-0.20412,0,0,0.16667,4.9343e-17,0,0.66667
0.17966,0.54278,1.078,0.064163,2.9432,147.79,-0.18444,0.061481,-1.9839,-0.24592,-4.0885e-10,-0.99197,0,0,0.16667,3.9475e-16,0,0.66667
0.11594,0.24126,0.69561,-0.38811,-18.213,166.32,0.71994,-0.23998,-1.4633,0.95992,6.3328e-09,-0.73164,0,0,0.16667,-0,-0,0.66667
0.58346,0.72576,3.5008,0.33864,10.564,46.75,-3.1613,1.0538,-1.5915,-4.2151,-1.2776e-12,-0.79577,0,0,0.16667,-0,-0,0.66667
0.085088,0.97073,0.51053,0.70609,33.6,175.44,-0.96127,0.32042,-0.22714,-1.2817,3.0848e-07,-0.11357,0,0,0.16667,1.9737e-16,0,0.66667
0.38405,0.75733,2.3043,0.386,15.63,92.218,-2.3719,0.79064,-1.4692,-3.1626,2.0193e-12,-0.73462,0,0,0.16667,-0,-0,0.66667
0.14716,0.11936,0.88294,-0.57095,-26.672,157.3,1.3443,-0.4481,-0.84016,1.7924,2.7199e-09,-0.42008,0,0,0.16667,2.9606e-16,0,0.66667
0.41149,0.61001,2.4689,0.16502,6.4881,85.213,-1.0864,0.36215,-1.902,-1.4486,7.1532e-13,-0.95098,0,0,0.16667,-0,-0,0.66667
0.62527,0.24428,3.7516,-0.38358,-11.048,38.82,3.8375,-1.2792,-1.4787,5.1167,2.4505e-12,-0.73936,0,0,0.16667,-3.9475e-16,0,0.66667
0.35954,0.71342,2.1572,0.32013,13.227,98.457,-1.8416,0.61387,-1.6376,-2.4555,3.6396e-12,-0.81881,0,0,0.16667,-5.9212e-16,0,0.66667
0.89598,0.84621,5.3759,0.51932,4.7583,4.5364,-7.4448,2.4816,-1.041,-9.9265,2.611e-08,-0.52052,0,0,0.16667,-0,-0,0.66667
0.41748,0.10465,2.5049,-0.59303,-23.374,84.094,3.9612,-1.3204,-0.74874,5.2817,-4.4964e-13,-0.37437,0,0,0.16667,-0,-0,0.66667
0.93366,0.26282,5.6019,-0.35578,-2.03,2.1187,5.3147,-1.7716,-1.5492,7.0863,4.2973e-09,-0.77461,0,0,0.16667,1.579e-15,0,0.66667
0.82046,0.32313,4.9227,-0.2653,-4.0269,10.408,3.4827,-1.1609,-1.7484,4.6436,-9.2386e-10,-0.87418,0,0,0.16667,1.579e-15,0,0.66667
0.11664,0.87196,0.69985,0.55794,26.271,166.16,-1.0413,0.34709,-0.89275,-1.3884,-1.9234e-08,-0.44638,0,0,0.16667,4.9343e-17,0,0.66667
0.10397,0.85778,0.62379,0.53667,25.329,169.86,-0.89272,0.29757,-0.97471,-1.1903,-4.4482e-09,-0.48736,0,0,0.16667,-0,-0,0.66667
0.13281,0.066259,0.79686,-0.65061,-30.585,161.5,1.3825,-0.46084,-0.49439,1.8434,-1.637e-08,-0.2472,0,0,0.16667,-3.9475e-16,0,0.66667
0.63847,0.46753,3.8308,-0.048698,-1.3564,36.184,0.49748,-0.16583,-1.993,0.66331,6.5772e-13,-0.99651,0,0,0.16667,1.1842e-15,0,0.66667
0.68459,0.35949,4.1076,-0.21077,-5.2623,28.401,2.3087,-0.76956,-1.8417,3.0782,4.2968e-12,-0.92083,0,0,0.16667,-2.3897e-15,0,0.66667
0.79001,0.30871,4.7401,-0.28694,-5.0342,13.769,3.627,-1.209,-1.7067,4.8359,-3.0492e-10,-0.85337,0,0,0.16667,-0,-0,0.66667
0.54233,0.58307,3.254,0.1246,4.1511,55.036,-1.0812,0.3604,-1.9439,-1.4416,-4.311e-13,-0.97197,0,0,0.16667,7.8949e-16,0,0.66667
0.67536,0.50057,4.0521,0.00085322,0.021776,29.828,-0.0092196,0.0030732,-2.0009,-0.012293,5.4503e-13,-1.0005,0,0,0.16667,-3.158e-15,0,0.66667
0.68675,0.048312,4.1205,-0.67753,-17.111,28.812,7.4447,-2.4816,-0.36869,9.9263,7.7183e-13,-0.18435,0,0,0.16667,-0,-1.957e-16,0.66667
0.33823,0.9943,2.0294,0.74145,31.508,104.43,-4.0125,1.3375,-0.044737,-5.35,6.5192e-13,-0.022368,0,0,0.16667,-5.9212e-16,0,0.66667
0.65052,0.79776,3.9031,0.44664,12.198,34.395,-4.6488,1.5496,-1.2894,-6.1984,-3.3604e-12,-0.64468,0,0,0.16667,-0,-0,0.66667
0.4041,0.4784,2.4246,-0.032399,-1.2824,87.021,0.20948,-0.069826,-1.9965,0.2793,-9.7131e-14,-0.99825,0,0,0.16667,-0,-0,0.66667
0.64016,0.85952,3.841,0.53929,15.126,36.373,-5.5237,1.8412,-0.96699,-7.3649,-2.065e-12,-0.48349,0,0,0.16667,7.8949e-16,-2.4576e-16,0.66667
0.93462,0.99731,5.6077,0.74597,4.5243,3.1469,-11.155,3.7184,-0.022222,-14.874,4.1132e-07,-0.011111,0,0,0.16667,-1.9737e-15,-6.2019e-17,0.66667
0.42997,0.85972,2.5798,0.53958,20.96,80.979,-3.7121,1.2374,-0.96327,-4.9494,5.1537e-13,-0.48163,0,0,0.16667,7.8949e-16,0,0.66667
0.50617,0.36276,3.037,-0.20586,-7.2387,62.928,1.6672,-0.55574,-1.848,2.223,4.2077e-14,-0.92399,0,0,0.16667,-0,-0,0.66667
0.33206,0.37787,1.9924,-0.18319,-7.723,105.59,0.97329,-0.32443,-1.881,1.2977,-2.8796e-12,-0.9405,0,0,0.16667,7.8949e-16,0,0.66667
0.57872,0.95167,3.4723,0.67751,21.556,48.225,-6.2734,2.0911,-0.3689,-8.3646,2.2782e-13,-0.18445,0,0,0.16667,-7.8949e-16,0,0.66667
0.86342,0.55627,5.1805,0.084402,0.98247,6.3051,-1.166,0.38866,-1.9744,-1.5547,4.1202e-09,-0.98721,0,0,0.16667,7.8949e-16,0,0.66667
0.28365,0.12436,1.7019,-0.56347,-24.727,118.83,2.5572,-0.85241,-0.87256,3.4096,-2.4629e-12,-0.43628,0,0,0.16667,5.181e-16,0,0.66667
0.83439,0.1727,5.0063,-0.49095,-6.9953,9.4068,6.5542,-2.1847,-1.1416,8.739,-1.3792e-09,-0.57079,0,0,0.16667,-0,-0,0.66667
0.51948,0.46244,3.1169,-0.056345,-1.942,59.937,0.46832,-0.15611,-1.9885,0.62442,-4.6046e-14,-0.99426,0,0,0.16667,-0,-0,0.66667
0.22608,0.7184,1.3565,0.3276,14.767,134.64,-1.185,0.395,-1.6185,-1.58,-1.6404e-10,-0.80925,0,0,0.16667,4.4409e-16,0,0.66667
0.41945,0.52088,2.5167,0.031315,1.2204,83.219,-0.21016,0.070053,-1.9966,-0.28021,-3.9783e-13,-0.99828,0,0,0.16667,-0,-0,0.66667
0.16699,0.77954,1.002,0.4193,19.397,151.51,-1.1203,0.37345,-1.3751,-1.4938,-1.6833e-09,-0.68755,0,0,0.16667,-2.4672e-17,0,0.66667
0.91239,0.74393,5.4744,0.3659,2.7798,3.2161,-5.3415,1.7805,-1.5232,-7.122,9.9183e-09,-0.7616,0,0,0.16667,-7.8949e-16,0,0.66667
0.057947,0.30546,0.34768,-0.29181,-13.815,183.35,0.27055,-0.090185,-1.6967,0.36074,-2.2024e-08,-0.84836,0,0,0.16667,-9.8686e-17,0,0.66667
0.604,0.14348,3.624,-0.53478,-16.151,43.027,5.1682,-1.7227,-0.98193,6.8909,7.9892e-13,-0.49096,0,0,0.16667,-7.8949e-16,0,0.66667
0.10395,0.11858,0.62371,-0.57213,-27.026,169.88,0.95158,-0.31719,-0.83549,1.2688,-2.6162e-09,-0.41774,0,0,0.16667,-0,-0,0.66667
0.31348,0.43915,1.8809,-0.09127,-3.898,110.52,0.45778,-0.15259,-1.9724,0.61037,-1.6105e-12,-0.98622,0,0,0.16667,-0,-0,0.66667
0.14294,0.17127,0.85765,-0.49309,-23.022,158.49,1.1277,-0.37591,-1.1354,1.5036,2.1335e-09,-0.5677,0,0,0.16667,1.9737e-16,0,0.66667
0.49951,0.23049,2.9971,-0.40427,-14.396,64.578,3.231,-1.077,-1.42,4.308,3.6593e-13,-0.71002,0,0,0.16667,-7.8949e-16,0,0.66667
0.6361,0.97022,3.8166,0.70532,20.109,37.449,-7.1785,2.3928,-0.23155,-9.5713,-5.8753e-13,-0.11578,0,0,0.16667,-0,-2.1458e-16,0.66667
0.82926,0.41907,4.9755,-0.1214,-1.751,9.4023,1.6107,-0.5369,-1.9483,2.1476,-5.4414e-10,-0.97413,0,0,0.16667,-0,-0,0.66667
0.45001,0.058475,2.7001,-0.66229,-25.267,76.346,4.7686,-1.5895,-0.4409,6.3581,-1.2732e-12,-0.22045,0,0,0.16667,-9.8686e-16,-8.859e-17,0.66667
0.76945,0.51411,4.6167,0.021163,0.40207,16.092,-0.26054,0.086847,-1.9976,-0.34739,2.7393e-11,-0.99882,0,0,0.16667,-0,-0,0.66667
0.59534,0.24004,3.572,-0.38995,-11.917,44.48,3.7144,-1.2381,-1.4599,4.9525,1.4819e-12,-0.72994,0,0,0.16667,-7.8949e-16,0,0.66667
0.97226,0.218,5.8336,-0.42299,-0.94239,0.91913,6.5802,-2.1934,-1.3647,8.7736,1.4727e-07,-0.68236,0,0,0.16667,4.9343e-16,0,0.66667
0.11972,0.99152,0.71829,0.73728,34.868,165.34,-1.4122,0.47074,-0.066367,-1.883,-6.5126e-09,-0.033184,0,0,0.16667,4.3783e-16,0,0.66667
0.81632,0.66953,4.8979,0.25429,3.941,10.824,-3.3213,1.1071,-1.7693,-4.4284,8.3403e-10,-0.88467,0,0,0.16667,-0,-0,0.66667
0.83516,0.099316,5.0109,-0.60103,-8.6019,9.6016,8.0312,-2.6771,-0.71481,10.708,-2.8073e-09,-0.3574,0,0,0.16667,-0,-0,0.66667
0.79157,0.72079,4.7494,0.33118,5.7805,13.645,-4.1944,1.3981,-1.6101,-5.5926,3.3157e-10,-0.80504,0,0,0.16667,3.158e-15,0,0.66667
0.45482,0.51049,2.7289,0.015738,0.58998,74.677,-0.11453,0.038177,-1.9996,-0.15271,1.0635e-13,-0.99978,0,0,0.16667,-0,-0,0.66667
0.52721,0.28593,3.1633,-0.3211,-10.976,58.395,2.7086,-0.90287,-1.6334,3.6115,4.3721e-13,-0.81669,0,0,0.16667,-0,-0,0.66667
0.98538,0.67792,5.9123,0.26688,0.23575,0.37259,-4.2076,1.4025,-1.7477,-5.6101,2.8477e-08,-0.87385,0,0,0.16667,7.8949e-16,0,0.66667
0.94464,0.25478,5.6678,-0.36782,-1.7379,1.6779,5.5594,-1.8531,-1.5182,7.4125,1.9241e-08,-0.75912,0,0,0.16667,-3.158e-15,0,0.66667
0.763,0.89419,4.578,0.59128,11.728,17.624,-7.2184,2.4061,-0.75677,-9.6245,1.566e-11,-0.37838,0,0,0.16667,7.8949e-16,7.4406e-17,0.66667
0.46026,0.91705,2.7616,0.62558,23.556,73.873,-4.6069,1.5356,-0.60718,-6.1425,2.3226e-13,-0.30359,0,0,0.16667,-0,-0,0.66667
0.54024,0.41633,3.2414,-0.12551,-4.1951,55.479,1.0849,-0.36163,-1.9427,1.4465,2.2138e-13,-0.97136,0,0,0.16667,-1.579e-15,0,0.66667
0.80456,0.51223,4.8274,0.018348,0.29991,11.946,-0.23619,0.078731,-1.9973,-0.31492,1.3301e-10,-0.99867,0,0,0.16667,-0,-0,0.66667
0.27687,0.64853,1.6612,0.22279,9.7558,120.48,-0.98696,0.32899,-1.823,-1.3159,-1.116e-11,-0.91148,0,0,0.16667,1.9737e-16,0,0.66667
0.25653,0.92592,1.5392,0.63888,28.546,126.34,-2.6223,0.8741,-0.54737,-3.4964,-2.6574e-12,-0.27369,0,0,0.16667,-0,-0,0.66667
0.21386,0.90675,1.2832,0.61013,27.827,138.24,-2.0877,0.69591,-0.67687,-2.7837,1.0933e-10,-0.33843,0,0,0.16667,-0,-0,0.66667
0.55121,0.32995,3.3072,-0.25507,-8.3918,53.24,2.2495,-0.74984,-1.7677,2.9994,5.0182e-14,-0.88387,0,0,0.16667,-0,-0,0.66667
0.9514,0.80414,5.7084,0.45621,1.9093,1.6105,-6.9446,2.3149,-1.2606,-9.2594,-2.5738e-08,-0.6303,0,0,0.16667,7.8949e-16,0,0.66667
0.23774,0.12669,1.4264,-0.55996,-25.214,131.5,2.13,-0.70999,-0.8859,2.84,1.7637e-11,-0.44295,0,0,0.16667,7.8949e-16,0,0.66667
0.8016,0.91246,4.8096,0.61869,10.5,13.091,-7.935,2.645,-0.63856,-10.58,4.4013e-10,-0.31928,0,0,0.16667,1.579e-15,0,0.66667
0.03041,0.58781,0.18246,0.13171,6.2417,191.49,-0.064084,0.021361,-1.9398,-0.085446,-8.6426e-08,-0.96988,0,0,0.16667,-2.4672e-17,0,0.66667
0.50622,0.39804,3.0373,-0.15295,-5.3746,62.891,1.2388,-0.41293,-1.9158,1.6517,-2.6479e-13,-0.95789,0,0,0.16667,7.8949e-16,0,0.66667
0.28403,0.33822,1.7042,-0.24266,-10.581,118.53,1.1028,-0.36759,-1.791,1.4703,3.315e-12,-0.89551,0,0,0.16667,5.9212e-16,0,0.66667
0.28272,0.82166,1.6963,0.48249,21.144,119.02,-2.1826,0.72753,-1.1729,-2.9101,7.4252e-13,-0.58647,0,0,0.16667,-0,-0,0.66667
0.39197,0.10458,2.3518,-0.59314,-23.967,90.429,3.7199,-1.24,-0.74974,4.9599,-6.2172e-13,-0.37487,0,0,0.16667,-0,-0,0.66667
0.53546,0.88598,3.2127,0.57897,19.686,56.954,-4.9602,1.6534,-0.80738,-6.6136,-6.7324e-13,-0.40369,0,0,0.16667,-0,-0,0.66667
0.77289,0.018424,4.6373,-0.72236,-13.931,16.737,8.9329,-2.9776,-0.1432,11.91,2.9272e-11,-0.071601,0,0,0.16667,-0,-0,0.66667
0.96166,0.024513,5.7699,-0.71323,-2.5351,2.0484,10.974,-3.6581,-0.19033,14.632,-5.5329e-06,-0.095167,0,0,0.16667,-1.579e-15,0,0.66667
0.15039,0.88174,0.90231,0.57261,26.724,156.37,-1.3778,0.45927,-0.83338,-1.8371,-3.3145e-09,-0.41669,0,0,0.16667,-0,-0,0.66667
0.39479,0.2005,2.3687,-0.44925,-18.035,89.564,2.8377,-0.94591,-1.2815,3.7836,-1.5128e-12,-0.64077,0,0,0.16667,-0,-0,0.66667
0.16274,0.45097,0.97644,-0.073544,-3.3941,152.66,0.1915,-0.063832,-1.9793,0.25533,4.7182e-10,-0.98967,0,0,0.16667,-0,-0,0.66667
0.83664,0.37561,5.0199,-0.18659,-2.5851,8.7332,2.4978,-0.83259,-1.8763,3.3304,-1.5758e-09,-0.93813,0,0,0.16667,3.158e-15,0,0.66667
0.084802,0.22377,0.50881,-0.41435,-19.578,175.45,0.5622,-0.1874,-1.3889,0.7496,9.8296e-09,-0.69444,0,0,0.16667,1.9737e-16,0,0.66667
0.85629,0.9379,5.1377,0.65685,8.3219,7.8701,-8.9993,2.9998,-0.46707,-11.999,-3.4193e-09,-0.23354,0,0,0.16667,3.158e-15,1.0054e-17,0.66667
0.74085,0.74376,4.4451,0.36563,7.7552,20.138,-4.334,1.4447,-1.5238,-5.7787,2.3538e-11,-0.76191,0,0,0.16667,1.6229e-15,0,0.66667
0.85834,0.24122,5.15,-0.38816,-4.7392,7.0558,5.3308,-1.7769,-1.4653,7.1078,-3.0442e-09,-0.73263,0,0,0.16667,-0,-0,0.66667
0.88992,0.0033146,5.3395,-0.74503,-7.4341,5.6147,10.608,-3.5361,-0.028368,14.144,-5.2742e-09,-0.014184,0,0,0.16667,-0,-0,0.66667
0.15078,0.44213,0.90466,-0.086804,-4.0219,156.13,0.20941,-0.069802,-1.9728,0.27921,-8.1215e-10,-0.98639,0,0,0.16667,-3.9475e-16,0,0.66667
0.55669,0.51067,3.3401,0.016011,0.52102,52.005,-0.14261,0.047536,-1.9979,-0.19015,-3.9933e-13,-0.99895,0,0,0.16667,-0,-0,0.66667
0.30252,0.76637,1.8151,0.39955,17.256,113.59,-1.9339,0.64464,-1.4311,-2.5786,4.2852e-12,-0.71554,0,0,0.16667,-3.9475e-16,0,0.66667
0.27122,0.35213,1.6273,-0.22181,-9.7455,122.03,0.96255,-0.32085,-1.8241,1.2834,1.3517e-11,-0.91206,0,0,0.16667,-0,-0,0.66667
0.016434,0.18353,0.098606,-0.47471,-22.614,195.64,0.12482,-0.041608,-1.2005,0.16643,-1.0309e-07,-0.60026,0,0,0.16667,-0,-0,0.66667
0.51518,0.65322,3.0911,0.22982,7.9822,60.948,-1.8944,0.63147,-1.8144,-2.5259,-5.7931e-13,-0.90718,0,0,0.16667,9.8686e-16,0,0.66667
0.019049,0.48891,0.1143,-0.016638,-0.78864,194.85,0.0050701,-0.0016891,-1.9985,0.0067606,1.4208e-06,-0.99927,0,0,0.16667,-2.4672e-17,0,0.66667
0.89823,0.79698,5.3894,0.44547,3.9626,4.2221,-6.4021,2.134,-1.2929,-8.5362,8.6711e-09,-0.64644,0,0,0.16667,1.579e-15,0,0.66667
0.26698,0.79501,1.6019,0.44252,19.559,123.31,-1.8903,0.63011,-1.3042,-2.5204,-1.0322e-11,-0.65211,0,0,0.16667,-0,-0,0.66667
0.49337,0.90514,2.9602,0.60771,21.948,66.23,-4.7973,1.5991,-0.68688,-6.3963,-5.4179e-14,-0.34344,0,0,0.16667,-1.0856e-15,0,0.66667
0.63642,0.033281,3.8185,-0.70008,-19.941,37.38,7.1287,-2.3762,-0.25776,9.5049,7.1942e-14,-0.12888,0,0,0.16667,-0,-0,0.66667
0.0014998,0.75922,0.0089985,0.38883,18.498,200.06,-0.0093304,0.00311,-1.4631,-0.012441,-1.7664e-07,-0.73154,0,0,0.16667,-0,3.2845e-16,0.66667
0.11324,0.90119,0.67943,0.60179,28.39,167.17,-1.0903,0.36344,-0.71235,-1.4538,2.9247e-09,-0.35617,0,0,0.16667,1.9737e-16,0,0.66667
0.46654,0.28062,2.7992,-0.32907,-12.202,72.054,2.4564,-0.8188,-1.6165,3.2752,-4.2077e-13,-0.80826,0,0,0.16667,-1.1596e-15,0,0.66667
0.62328,0.50271,3.7397,0.0040617,0.11685,38.942,-0.040505,0.013502,-2.0013,-0.054006,-8.8489e-13,-1.0007,0,0,0.16667,-0,-0,0.66667
0.81967,0.030365,4.918,-0.70445,-11.047,11.42,9.2387,-3.0796,-0.23554,12.318,-5.69e-10,-0.11777,0,0,0.16667,5.1608e-16,0,0.66667
0.41481,0.35281,2.4888,-0.22079,-8.6567,84.416,1.4653,-0.48845,-1.8255,1.9538,-1.2451e-12,-0.91273,0,0,0.16667,-0,-0,0.66667
0.92685,0.49431,5.5611,-0.0085361,-0.052764,2.1252,0.12659,-0.042196,-1.9993,0.16878,-3.7114e-07,-0.99964,0,0,0.16667,2.3685e-15,0,0.66667
0.59738,0.84056,3.5843,0.51085,15.61,44.257,-4.8827,1.6276,-1.0725,-6.5103,-1.1928e-12,-0.53625,0,0,0.16667,-0,-0,0.66667
0.0018308,0.99116,0.010985,0.73673,35.348,199.96,-0.021701,0.0072188,-0.070507,-0.028943,-2.2564e-05,-0.035253,0,0,0.16667,4.6259e-18,6.4083e-16,0.66667
0.68004,0.8623,4.0802,0.54345,13.872,29.595,-5.913,1.971,-0.94844,-7.8841,-3.7041e-12,-0.47422,0,0,0.16667,7.8949e-16,0,0.66667
0.21277,0.50727,1.2766,0.010899,0.49309,138.34,-0.037103,0.012368,-1.9987,-0.049471,4.9466e-11,-0.99934,0,0,0.16667,-7.8949e-16,0,0.66667
0.015256,0.051402,0.091535,-0.6729,-32.215,196,0.16424,-0.054745,-0.39133,0.21899,3.9873e-06,-0.19566,0,0,0.16667,2.4672e-17,0,0.66667
0.73575,0.59022,4.4145,0.13533,2.9032,20.621,-1.5932,0.53105,-1.9363,-2.1242,1.5323e-11,-0.96817,0,0,0.16667,-3.9475e-16,0,0.66667
0.55191,0.4465,3.3115,-0.080252,-2.6324,53.007,0.70867,-0.23622,-1.9762,0.94489,-6.8057e-14,-0.98812,0,0,0.16667,-0,-0,0.66667
0.78362,0.30711,4.7017,-0.28934,-5.2163,14.526,3.6277,-1.2092,-1.703,4.8369,-2.3611e-10,-0.85148,0,0,0.16667,1.1842e-15,0,0.66667
0.088169,0.094568,0.52901,-0.60815,-28.843,174.51,0.85792,-0.28597,-0.68523,1.1439,-1.461e-07,-0.34261,0,0,0.16667,-3.9475e-16,0,0.66667
0.3557,0.075972,2.1342,-0.63604,-26.563,99.739,3.6198,-1.2066,-0.56091,4.8264,-5.8642e-13,-0.28046,0,0,0.16667,-0,6.3875e-17,0.66667
0.2997,0.58124,1.7982,0.12186,5.2547,114.23,-0.58435,0.19478,-1.9469,-0.77913,2.6412e-13,-0.97346,0,0,0.16667,3.9475e-16,0,0.66667
0.569,0.62994,3.414,0.19491,6.2206,49.534,-1.7745,0.59149,-1.8643,-2.3659,-6.3527e-13,-0.93213,0,0,0.16667,-0,-0,0.66667
0.51015,0.34994,3.0609,-0.22509,-7.8728,62.054,1.8373,-0.61242,-1.8192,2.4497,2.4314e-14,-0.9096,0,0,0.16667,-0,-0,0.66667
0.78213,0.84185,4.6928,0.51278,9.3976,15.079,-6.4169,2.139,-1.0672,-8.5559,4.2455e-12,-0.53359,0,0,0.16667,1.9737e-16,0,0.66667
0.18706,0.10068,1.1223,-0.59898,-27.619,145.84,1.7927,-0.59757,-0.72593,2.3903,-2.8186e-10,-0.36297,0,0,0.16667,-0,-0,0.66667
0.5765,0.95686,3.459,0.68529,21.896,48.684,-6.3211,2.107,-0.33061,-8.4281,4.6008e-13,-0.16531,0,0,0.16667,-6.8271e-16,0,0.66667
0.64438,0.26259,3.8663,-0.35611,-9.8348,35.346,3.6715,-1.2238,-1.5484,4.8953,3.632e-12,-0.77421,0,0,0.16667,-0,-0,0.66667
0.45987,0.40907,2.7592,-0.13639,-5.0854,73.508,1.0036,-0.33452,-1.9335,1.3381,-7.1232e-13,-0.96676,0,0,0.16667,1.579e-15,0,0.66667
0.55798,0.56017,3.3479,0.09025,2.9314,51.749,-0.80572,0.26857,-1.9712,-1.0743,-3.6326e-13,-0.98562,0,0,0.16667,7.8949e-16,0,0.66667
0.97433,0.008785,5.846,-0.73682,-1.7778,1.817,11.486,-3.8288,-0.068653,15.315,2.1668e-06,-0.034326,0,0,0.16667,-0,-0,0.66667
0.75167,0.15333,4.51,-0.52,-10.7,18.943,6.2539,-2.0846,-1.04,8.3385,1.2772e-12,-0.51999,0,0,0.16667,-0,-0,0.66667
0.38099,0.49936,2.2859,-0.00095643,-0.038686,92.846,0.0058302,-0.0019434,-2.0002,0.0077736,-2.8783e-13,-1.0001,0,0,0.16667,2.4918e-15,0,0.66667
0.43402,0.37278,2.6041,-0.19082,-7.33,79.705,1.3251,-0.44171,-1.8711,1.7668,-4.4997e-13,-0.93557,0,0,0.16667,-1.9737e-16,0,0.66667
0.71283,0.58404,4.277,0.12605,2.9047,23.948,-1.4377,0.47923,-1.9424,-1.9169,2.1354e-12,-0.97119,0,0,0.16667,-0,-0,0.66667
0.093712,0.91135,0.56227,0.61703,29.241,172.89,-0.92517,0.30839,-0.64845,-1.2336,5.1971e-08,-0.32423,0,0,0.16667,1.9737e-16,1.0783e-16,0.66667
0.63781,0.83104,3.8268,0.49657,13.976,36.717,-5.0674,1.6891,-1.123,-6.7566,-1.704e-12,-0.56149,0,0,0.16667,-1.5448e-15,0,0.66667
0.11436,0.68526,0.68615,0.27789,13.025,166.76,-0.50847,0.16949,-1.7255,-0.67796,-4.2194e-09,-0.86276,0,0,0.16667,-2.1286e-16,0,0.66667
0.10185,0.1612,0.61109,-0.5082,-23.98,170.47,0.82815,-0.27605,-1.081,1.1042,2.6083e-08,-0.54048,0,0,0.16667,-3.9475e-16,0,0.66667
0.66667,0.38966,4,-0.16551,-4.3218,31.326,1.7655,-0.58849,-1.9014,2.354,3.1628e-12,-0.95069,0,0,0.16667,-0,-0,0.66667
0.1671,0.48798,1.0026,-0.018033,-0.83091,151.4,0.048214,-0.016071,-1.9978,0.064285,7.5705e-10,-0.99892,0,0,0.16667,-5.1302e-19,0,0.66667
0.76472,0.57545,4.5883,0.11317,2.1909,16.719,-1.3847,0.46156,-1.9553,-1.8462,6.7004e-11,-0.97763,0,0,0.16667,-1.579e-15,0,0.66667
0.75059,0.76309,4.5035,0.39463,8.1041,18.857,-4.7393,1.5798,-1.4473,-6.3191,4.3823e-11,-0.72364,0,0,0.16667,-0,-0,0.66667
0.31202,0.34367,1.8721,-0.2345,-10.037,110.95,1.1707,-0.39024,-1.8072,1.5609,-4.6475e-12,-0.9036,0,0,0.16667,9.2519e-17,0,0.66667
0.57086,0.56405,3.4252,0.096081,3.0538,49.112,-0.87759,0.29253,-1.967,-1.1701,-4.3149e-13,-0.98352,0,0,0.16667,-1.579e-15,0,0.66667
0.64514,0.68013,3.8708,0.2702,7.4345,35.118,-2.7891,0.9297,-1.7399,-3.7188,-3.5827e-12,-0.86993,0,0,0.16667,-0,-0,0.66667
0.81146,0.63461,4.8688,0.20191,3.2008,11.285,-2.6215,0.87385,-1.856,-3.4954,5.661e-10,-0.92798,0,0,0.16667,-0,-0,0.66667
0.20147,0.54579,1.2088,0.068685,3.1233,141.55,-0.2214,0.073801,-1.9835,-0.2952,-1.518e-10,-0.99175,0,0,0.16667,3.9475e-16,0,0.66667
0.67624,0.97175,4.0575,0.70763,18.388,30.585,-7.6565,2.5522,-0.21972,-10.209,8.6597e-14,-0.10986,0,0,0.16667,-0,-0,0.66667
0.82289,0.74368,4.9373,0.36552,5.5018,10.299,-4.8125,1.6042,-1.5243,-6.4167,1.0493e-09,-0.76217,0,0,0.16667,7.8949e-16,0,0.66667
0.41439,0.62937,2.4863,0.19406,7.6096,84.507,-1.2866,0.42888,-1.8655,-1.7155,5.7365e-13,-0.93273,0,0,0.16667,-0,-0,0.66667
0.4937,0.79912,2.9622,0.44868,16.119,65.936,-3.5442,1.1814,-1.2828,-4.7256,-4.8939e-13,-0.64141,0,0,0.16667,-0,-0,0.66667
0.51425,0.092599,3.0855,-0.6111,-21.456,61.593,5.0281,-1.676,-0.6741,6.7042,7.1498e-14,-0.33705,0,0,0.16667,7.6124e-17,0,0.66667
0.93933,0.20945,5.636,-0.43583,-2.2931,2.0302,6.5502,-2.1834,-1.3251,8.7336,-2.7567e-09,-0.66254,0,0,0.16667,-7.8949e-16,0,0.66667
0.051651,0.18478,0.3099,-0.47283,-22.469,185.23,0.39076,-0.13025,-1.2051,0.52101,-2.3916e-09,-0.60257,0,0,0.16667,-1.4803e-16,0,0.66667
0.57155,0.32931,3.4293,-0.25603,-8.143,49.059,2.3414,-0.78046,-1.7655,3.1218,5.2247e-13,-0.88273,0,0,0.16667,-7.8949e-16,0,0.66667
0.48976,0.46441,2.9386,-0.05338,-1.9166,66.568,0.41829,-0.13943,-1.9895,0.55772,-1.0617e-13,-0.99475,0,0,0.16667,2.9e-16,0,0.66667
0.34383,0.10821,2.063,-0.58769,-24.742,102.77,3.233,-1.0777,-0.77331,4.3107,-2.083e-12,-0.38666,0,0,0.16667,-0,-0,0.66667
0.66992,0.35388,4.0195,-0.21918,-5.6821,30.818,2.3493,-0.7831,-1.8295,3.1324,4.3101e-12,-0.91475,0,0,0.16667,-1.579e-15,0,0.66667
0.76944,0.22449,4.6166,-0.41327,-7.9248,16.443,5.0877,-1.6959,-1.3927,6.7836,-1.2579e-10,-0.69633,0,0,0.16667,1.579e-15,0,0.66667
0.54006,0.79796,3.2404,0.44694,15.028,55.782,-3.862,1.2873,-1.2883,-5.1493,-5.4201e-13,-0.64413,0,0,0.16667,7.8949e-16,0,0.66667
0.041638,0.089342,0.24983,-0.61599,-29.399,188.2,0.41038,-0.13679,-0.65053,0.54717,1.1306e-06,-0.32527,0,0,0.16667,-7.4015e-17,0,0.66667
0.23508,0.4534,1.4105,-0.069903,-3.1295,132.05,0.26292,-0.087642,-1.9835,0.35057,4.4571e-11,-0.99175,0,0,0.16667,3.9475e-16,0,0.66667
0.02044,0.65854,0.12264,0.2378,11.285,194.44,-0.077771,0.025924,-1.7991,-0.10369,-2.5039e-08,-0.89953,0,0,0.16667,-0,-0,0.66667
0.32778,0.89207,1.9667,0.58811,25.064,107,-3.0843,1.0281,-0.77136,-4.1124,2.1176e-12,-0.38568,0,0,0.16667,-0,1.9567e-16,0.66667
0.46806,0.51805,2.8083,0.02708,0.99931,71.566,-0.2028,0.0676,-1.9983,-0.2704,-8.9442e-14,-0.99916,0,0,0.16667,-0,-0,0.66667
0.78457,0.58986,4.7074,0.13479,2.4112,14.276,-1.692,0.564,-1.9358,-2.256,2.1793e-10,-0.9679,0,0,0.16667,-1.9737e-15,0,0.66667
0.53227,0.86651,3.1936,0.54976,18.764,57.587,-4.682,1.5607,-0.92639,-6.2426,-4.6008e-13,-0.4632,0,0,0.16667,7.8949e-16,0,0.66667
0.47743,0.57581,2.8646,0.11372,4.1495,69.406,-0.86868,0.28956,-1.9525,-1.1582,4.9638e-13,-0.97627,0,0,0.16667,-7.8949e-16,0,0.66667
0.69795,0.16356,4.1877,-0.50466,-12.262,26.671,5.6356,-1.8785,-1.0937,7.5141,4.7868e-12,-0.54687,0,0,0.16667,-1.579e-15,0,0.66667
0.017417,0.65799,0.1045,0.23698,11.247,195.34,-0.066041,0.022014,-1.8019,-0.088055,-2.6202e-08,-0.90093,0,0,0.16667,-0,-0,0.66667
0.69499,0.7636,4.1699,0.3954,9.6454,26.951,-4.3968,1.4656,-1.4426,-5.8624,-5.0218e-12,-0.72131,0,0,0.16667,-0,-0,0.66667
0.31196,0.66653,1.8718,0.24979,10.693,110.97,-1.2468,0.41559,-1.7793,-1.6624,3.3279e-12,-0.88967,0,0,0.16667,-0,-0,0.66667
0.55979,0.62212,3.3587,0.18318,5.9367,51.412,-1.6407,0.54688,-1.8815,-2.1875,-1.4075e-12,-0.94077,0,0,0.16667,9.8686e-16,0,0.66667
0.60681,0.15223,3.6408,-0.52166,-15.663,42.472,5.0648,-1.6883,-1.0331,6.753,1.5099e-14,-0.51657,0,0,0.16667,1.5435e-15,0,0.66667
0.18214,0.49022,1.0929,-0.014664,-0.67195,147.07,0.042734,-0.014245,-1.9982,0.056979,-2.6689e-10,-0.99911,0,0,0.16667,-1.9737e-16,0,0.66667
0.25027,0.47403,1.5016,-0.038954,-1.73,127.8,0.15599,-0.051995,-1.9965,0.20798,1.4809e-11,-0.99827,0,0,0.16667,-0,-0,0.66667
0.57882,0.25958,3.4729,-0.36063,-11.349,47.698,3.3399,-1.1133,-1.5387,4.4531,8.3022e-13,-0.76936,0,0,0.16667,-0,-0,0.66667
0.26262,0.56729,1.5757,0.10093,4.4527,124.38,-0.42411,0.14137,-1.9642,-0.56548,-1.8143e-11,-0.98208,0,0,0.16667,-0,-0,0.66667
0.23942,0.14642,1.4365,-0.53036,-23.844,131.01,2.0317,-0.67722,-0.99893,2.7089,3.0956e-11,-0.49946,0,0,0.16667,-1.9737e-16,0,0.66667
0.35903,0.53876,2.1542,0.058144,2.3974,98.493,-0.33401,0.11134,-1.9896,-0.44534,7.0752e-13,-0.99479,0,0,0.16667,-0,-0,0.66667
0.90441,0.57822,5.4265,0.11734,0.9585,3.3934,-1.6979,0.56597,-1.9512,-2.2639,2.6419e-09,-0.97561,0,0,0.16667,-0,-0,0.66667
0.86921,0.8369,5.2153,0.50535,5.7692,6.4154,-7.0281,2.3427,-1.0912,-9.3708,6.3886e-09,-0.54559,0,0,0.16667,1.579e-15,0,0.66667
0.51404,0.81544,3.0842,0.47316,16.544,61.434,-3.8915,1.2972,-1.2054,-5.1887,5.4401e-14,-0.60271,0,0,0.16667,-0,-0,0.66667
0.051748,0.067147,0.31049,-0.64928,-30.987,185.23,0.53758,-0.17919,-0.50082,0.71677,5.0498e-07,-0.25041,0,0,0.16667,-0,-0,0.66667
0.80034,0.68407,4.802,0.2761,4.6247,12.577,-3.5356,1.1785,-1.7293,-4.7142,4.8793e-10,-0.86467,0,0,0.16667,-1.9737e-15,0,0.66667
0.18119,0.35672,1.0871,-0.21492,-9.8625,147.37,0.62307,-0.20769,-1.8344,0.83076,7.5245e-10,-0.91719,0,0,0.16667,-0,-0,0.66667
0.66874,0.1063,4.0124,-0.59055,-15.538,31.551,6.3188,-2.1063,-0.75959,8.425,2.1845e-12,-0.3798,0,0,0.16667,-0,-7.0652e-17,0.66667
0.83537,0.12587,5.0122,-0.56119,-7.9951,9.4781,7.5009,-2.5003,-0.88021,10.001,1.5721e-09,-0.44011,0,0,0.16667,-0,-0,0.66667
0.9648,0.024871,5.7888,-0.71269,-2.3258,1.9588,11.002,-3.6672,-0.19379,14.669,-1.2891e-06,-0.096896,0,0,0.16667,-1.579e-15,-1.2827e-16,0.66667
0.12685,0.044622,0.76108,-0.68307,-32.192,163.24,1.3863,-0.4621,-0.34125,1.8484,5.991e-09,-0.17062,0,0,0.16667,1.9737e-16,0,0.66667
0.52331,0.95731,3.1399,0.68596,23.844,59.753,-5.7435,1.9145,-0.32555,-7.658,-9.3259e-14,-0.16278,0,0,0.16667,-0,-0,0.66667
0.85061,0.63851,5.1037,0.20777,2.6453,7.475,-2.8277,0.94258,-1.845,-3.7703,1.4076e-09,-0.92252,0,0,0.16667,-0,-0,0.66667
0.53761,0.51156,3.2257,0.017343,0.58176,56.016,-0.14918,0.049728,-1.9976,-0.19891,1.5186e-13,-0.9988,0,0,0.16667,-0,-0,0.66667
0.73005,0.98469,4.3803,0.72704,16.273,22.423,-8.4924,2.8308,-0.11962,-11.323,6.2439e-13,-0.059811,0,0,0.16667,-8.6455e-16,0,0.66667
0.78546,0.66195,4.7128,0.24292,4.3396,14.255,-3.0529,1.0176,-1.79,-4.0705,2.7995e-10,-0.89498,0,0,0.16667,-0,-0,0.66667
0.8366,0.44765,5.0196,-0.078532,-1.086,8.6737,1.0512,-0.3504,-1.9768,1.4016,-6.8837e-10,-0.98838,0,0,0.16667,-0,-0,0.66667
0.66653,0.9183,3.9992,0.62745,16.628,32,-6.6915,2.2305,-0.59903,-8.922,-6.728e-13,-0.29951,0,0,0.16667,-1.579e-15,0,0.66667
0.89774,0.63682,5.3864,0.20523,1.801,3.8791,-2.9479,0.98262,-1.8488,-3.9305,6.3769e-09,-0.92441,0,0,0.16667,-0,-0,0.66667
0.64779,0.7446,3.8867,0.36689,10.058,34.759,-3.8027,1.2676,-1.5206,-5.0703,-3.7115e-12,-0.76029,0,0,0.16667,-0,-0,0.66667
0.94464,0.42481,5.6678,-0.11278,-0.5185,1.369,1.7046,-0.56819,-1.9533,2.2727,1.0524e-07,-0.97666,0,0,0.16667,1.579e-15,0,0.66667
0.6293,0.61683,3.7758,0.17524,4.9839,37.889,-1.7645,0.58817,-1.8902,-2.3527,-2.3125e-12,-0.94512,0,0,0.16667,-7.8949e-16,0,0.66667
0.87243,0.7129,5.2346,0.31936,3.5091,5.8094,-4.4579,1.486,-1.6378,-5.9438,4.3585e-09,-0.81891,0,0,0.16667,-0,-0,0.66667
0.59566,0.60651,3.5739,0.15977,4.8589,44.217,-1.5227,0.50755,-1.9094,-2.0302,-1.2558e-12,-0.95471,0,0,0.16667,-0,-0,0.66667
0.34435,0.44667,2.0661,-0.080001,-3.3386,102.33,0.44077,-0.14692,-1.9785,0.5877,-1.0288e-12,-0.98924,0,0,0.16667,-0,-0,0.66667
0.81346,0.022646,4.8807,-0.71603,-11.59,12.096,9.3194,-3.1065,-0.17812,12.426,-5.1695e-10,-0.08906,0,0,0.16667,-0,-0,0.66667
0.43238,0.44689,2.5943,-0.079663,-3.063,80.066,0.55112,-0.18371,-1.9765,0.73482,-3.6138e-14,-0.98825,0,0,0.16667,-0,-0,0.66667
0.12655,0.58318,0.75927,0.12477,5.8222,163.18,-0.25262,0.084207,-1.9452,-0.33683,-3.0216e-09,-0.97258,0,0,0.16667,-0,-0,0.66667
0.96857,0.34168,5.8114,-0.23748,-0.58067,0.69437,3.6803,-1.2268,-1.802,4.907,6.4883e-09,-0.901,0,0,0.16667,1.9737e-16,0,0.66667
0.85256,0.45814,5.1154,-0.062792,-0.78686,7.2149,0.85655,-0.28552,-1.9847,1.1421,-1.4544e-09,-0.99233,0,0,0.16667,-7.8949e-16,0,0.66667
0.56126,0.38188,3.3676,-0.17719,-5.7282,51.107,1.5912,-0.53038,-1.8894,2.1215,-1.2812e-13,-0.94472,0,0,0.16667,-0,-0,0.66667
0.67061,0.97878,4.0237,0.71817,18.934,31.538,-7.7058,2.5686,-0.1669,-10.274,1.9318e-13,-0.083448,0,0,0.16667,-0,1.7206e-16,0.66667
0.99772,0.18062,5.9863,-0.47907,0.060902,0.63147,7.6476,-2.5492,-1.1844,10.197,-4.4909e-07,-0.59222,0,0,0.16667,1.579e-15,-1.355e-16,0.66667
0.16131,0.51522,0.96785,0.02283,1.054,153.08,-0.058924,0.019641,-1.997,-0.078565,-3.6722e-10,-0.99848,0,0,0.16667,-0,-0,0.66667
0.53454,0.58657,3.2072,0.12986,4.3788,56.696,-1.1107,0.37022,-1.94,-1.4809,-5.7065e-14,-0.96999,0,0,0.16667,3.9475e-16,0,0.66667
0.39098,0.9898,2.3459,0.73471,29.858,90.875,-4.5961,1.532,-0.082069,-6.1281,2.7889e-13,-0.041035,0,0,0.16667,-0,-0,0.66667
0.54115,0.97415,3.2469,0.71122,24.1,55.993,-6.158,2.0527,-0.20087,-8.2107,-4.6452e-13,-0.10044,0,0,0.16667,-0,-0,0.66667
0.10338,0.37075,0.62027,-0.19387,-9.1008,169.96,0.32067,-0.10689,-1.8659,0.42756,9.3245e-09,-0.93294,0,0,0.16667,9.8686e-17,0,0.66667
0.44074,0.055551,2.6445,-0.66667,-25.702,78.561,4.7013,-1.5671,-0.41971,6.2684,-6.8834e-13,-0.20985,0,0,0.16667,-7.8949e-16,0,0.66667
0.46146,0.5814,2.7688,0.1221,4.5433,73.128,-0.9015,0.3005,-1.9455,-1.202,8.1651e-13,-0.97277,0,0,0.16667,-5.4648e-16,0,0.66667
0.59589,0.23974,3.5753,-0.39039,-11.919,44.373,3.7221,-1.2407,-1.4583,4.9628,1.0725e-12,-0.72916,0,0,0.16667,7.8949e-16,0,0.66667
0.66238,0.4353,3.9743,-0.097048,-2.5589,32.021,1.0285,-0.34284,-1.9664,1.3714,1.8199e-12,-0.98318,0,0,0.16667,1.1842e-15,0,0.66667
0.59015,0.89184,3.5409,0.58776,18.254,45.796,-5.5499,1.85,-0.771,-7.3998,-8.3711e-13,-0.3855,0,0,0.16667,7.8949e-16,0,0.66667
0.72938,0.65646,4.3763,0.23469,5.1485,21.596,-2.7388,0.91294,-1.8047,-3.6518,1.6273e-11,-0.90233,0,0,0.16667,-3.158e-15,0,0.66667
0.5809,0.85343,3.4854,0.53015,16.705,47.516,-4.9275,1.6425,-1.0006,-6.57,-4.4054e-13,-0.50029,0,0,0.16667,-0,-0,0.66667
0.4431,0.15497,2.6586,-0.51754,-19.806,77.788,3.6692,-1.2231,-1.0478,4.8922,-1.1502e-13,-0.52389,0,0,0.16667,-8.7193e-16,0,0.66667
0.49679,0.92105,2.9807,0.63158,22.727,65.501,-5.0202,1.6734,-0.58119,-6.6936,3.2374e-13,-0.2906,0,0,0.16667,-7.8949e-16,2.515e-16,0.66667
0.43009,0.22275,2.5805,-0.41587,-16.101,80.814,2.8618,-0.95392,-1.3845,3.8157,-5.5844e-13,-0.69224,0,0,0.16667,-0,-0,0.66667
0.21007,0.5939,1.2604,0.14084,6.3829,139.11,-0.4734,0.1578,-1.9296,-0.6312,-2.6153e-10,-0.96482,0,0,0.16667,-7.8949e-16,0,0.66667
0.2268,0.012168,1.3608,-0.73175,-33.297,134.7,2.6554,-0.88513,-0.094696,3.5405,-3.7735e-11,-0.047348,0,0,0.16667,-0,-0,0.66667
0.45739,0.63807,2.7443,0.2071,7.7496,74.123,-1.5156,0.5052,-1.8466,-2.0208,2.2604e-13,-0.9233,0,0,0.16667,-0,-0,0.66667
0.43355,0.32222,2.6013,-0.26667,-10.258,79.857,1.8498,-0.61661,-1.7466,2.4665,-9.8632e-13,-0.87329,0,0,0.16667,-0,-0,0.66667
0.77928,0.45019,4.6757,-0.07471,-1.3652,14.886,0.93153,-0.31051,-1.9803,1.242,-7.5897e-11,-0.99015,0,0,0.16667,-0,-0,0.66667
0.42086,0.38199,2.5252,-0.17701,-6.894,82.907,1.1919,-0.39731,-1.8898,1.5892,-3.3329e-13,-0.94489,0,0,0.16667,-0,-0,0.66667
0.67337,0.689,4.0402,0.28349,7.2959,30.301,-3.0543,1.0181,-1.716,-4.0725,-5.4627e-12,-0.85801,0,0,0.16667,1.579e-15,0,0.66667
0.16604,0.71684,0.99623,0.32526,15.028,151.76,-0.86409,0.28803,-1.6238,-1.1521,-1.4902e-09,-0.8119,0,0,0.16667,2.4579e-17,0,0.66667
0.82406,0.98348,4.9444,0.72522,11.144,11.044,-9.562,3.1873,-0.12912,-12.749,-3.6585e-11,-0.064558,0,0,0.16667,-1.579e-15,0,0.66667
0.68541,0.30098,4.1124,-0.29852,-7.451,28.351,3.2738,-1.0913,-1.6833,4.365,4.5051e-12,-0.84164,0,0,0.16667,-0,-0,0.66667
0.78905,0.74114,4.7343,0.36171,6.3905,13.983,-4.5665,1.5222,-1.5336,-6.0887,3.0232e-10,-0.76679,0,0,0.16667,-0,-0,0.66667
0.35948,0.98533,2.1569,0.72799,30.403,98.881,-4.1872,1.3957,-0.11698,-5.5829,-1.8918e-13,-0.05849,0,0,0.16667,7.8949e-16,0,0.66667
0.66255,0.62731,3.9753,0.19097,5.0384,32.039,-2.0244,0.6748,-1.8701,-2.6992,-4.0887e-12,-0.93507,0,0,0.16667,1.579e-15,0,0.66667
0.21709,0.49256,1.3025,-0.011164,-0.50411,137.11,0.038779,-0.012926,-2.0003,0.051705,-3.7702e-11,-1.0001,0,0,0.16667,-0,-0,0.66667
0.22101,0.67497,1.326,0.26245,11.848,136.05,-0.92806,0.30935,-1.7551,-1.2374,-2.0071e-10,-0.87755,0,0,0.16667,-0,-0,0.66667
0.24246,0.15272,1.4547,-0.52092,-23.377,130.16,2.0208,-0.6736,-1.0347,2.6944,9.6181e-12,-0.51733,0,0,0.16667,4.9343e-16,0,0.66667
0.26459,0.13852,1.5875,-0.54222,-24.053,124.04,2.2954,-0.76514,-0.95536,3.0606,2.5195e-12,-0.47768,0,0,0.16667,-0,-0,0.66667
0.40841,0.23231,2.4505,-0.40153,-15.891,86.121,2.6238,-0.87461,-1.4268,3.4984,-1.1999e-12,-0.71339,0,0,0.16667,7.8949e-16,0,0.66667
0.8287,0.83192,4.9722,0.49789,7.3241,9.9727,-6.6015,2.2005,-1.1197,-8.802,1.1028e-09,-0.55984,0,0,0.16667,-0,-0,0.66667
0.94742,0.63041,5.6845,0.19561,0.85507,1.3259,-2.9652,0.9884,-1.8634,-3.9536,-3.8417e-08,-0.93168,0,0,0.16667,-0,-0,0.66667
0.63246,0.10229,3.7947,-0.59657,-17.053,37.863,6.0369,-2.0123,-0.7334,8.0492,4.9738e-13,-0.3667,0,0,0.16667,-0,-0,0.66667
0.13474,0.43952,0.80843,-0.090721,-4.2234,160.79,0.19558,-0.065193,-1.9707,0.26077,5.6655e-09,-0.98533,0,0,0.16667,3.9475e-16,0,0.66667
0.41999,0.4292,2.52,-0.1062,-4.1375,83.097,0.71362,-0.23787,-1.9604,0.95149,-2.1672e-13,-0.98021,0,0,0.16667,-0,-0,0.66667
0.93619,0.74681,5.6171,0.37021,2.0323,2.0325,-5.5454,1.8485,-1.5143,-7.3938,-5.7711e-09,-0.75713,0,0,0.16667,-3.9475e-16,0,0.66667
0.32054,0.37835,1.9233,-0.18248,-7.7589,108.65,0.93588,-0.31196,-1.8811,1.2478,-2.5656e-12,-0.94056,0,0,0.16667,-7.8949e-16,0,0.66667
0.61928,0.15504,3.7157,-0.51744,-15.154,40.125,5.127,-1.709,-1.0481,6.8361,1.1684e-12,-0.52407,0,0,0.16667,1.1842e-15,0,0.66667
0.93513,0.66733,5.6108,0.25099,1.3823,1.8941,-3.7554,1.2518,-1.776,-5.0072,-1.2027e-08,-0.88802,0,0,0.16667,-0,-0,0.66667
0.46068,0.94583,2.7641,0.66875,25.207,73.843,-4.9293,1.6431,-0.4087,-6.5724,9.4369e-13,-0.20435,0,0,0.16667,-0,-0,0.66667
0.5004,0.9102,3.0024,0.61531,22.022,64.666,-4.9264,1.6421,-0.6559,-6.5685,1.1493e-12,-0.32795,0,0,0.16667,-1.579e-15,0,0.66667
0.91869,0.20322,5.5122,-0.44518,-3.1653,3.0289,6.5437,-2.1812,-1.2948,8.7249,-2.0067e-08,-0.64742,0,0,0.16667,-0,-0,0.66667
0.92982,0.53804,5.5789,0.057065,0.33786,1.9897,-0.84897,0.28299,-1.9874,-1.132,-1.2026e-07,-0.99371,0,0,0.16667,-0,-0,0.66667
0.90449,0.61406,5.4269,0.1711,1.3993,3.4262,-2.4761,0.82536,-1.8963,-3.3014,-2.0937e-09,-0.94814,0,0,0.16667,7.8949e-16,0,0.66667
0.51363,0.47578,3.0818,-0.036323,-1.2624,61.218,0.29851,-0.099502,-1.9959,0.39801,-7.0635e-13,-0.99795,0,0,0.16667,1.579e-15,0,0.66667
0.63981,0.044453,3.8389,-0.68332,-19.305,36.736,6.9951,-2.3317,-0.34066,9.3269,-2.5313e-14,-0.17033,0,0,0.16667,-0,-0,0.66667
0.58901,0.51044,3.534,0.015665,0.48192,45.477,-0.14763,0.049209,-1.9982,-0.19684,-7.4948e-13,-0.99911,0,0,0.16667,-0,-0,0.66667
0.15849,0.46472,0.95097,-0.052914,-2.4454,153.89,0.13419,-0.044729,-1.9909,0.17891,7.9449e-10,-0.99546,0,0,0.16667,2.4672e-16,0,0.66667
0.62345,0.88361,3.7407,0.57541,16.746,39.461,-5.7398,1.9133,-0.82344,-7.6531,-9.5302e-13,-0.41172,0,0,0.16667,-0,-0,0.66667
0.31914,0.89431,1.9149,0.59146,25.368,109.29,-3.0202,1.0067,-0.75479,-4.0269,2.1645e-12,-0.37739,0,0,0.16667,-0,-0,0.66667
0.13074,0.89931,0.78441,0.59896,28.132,162.08,-1.2529,0.41763,-0.72361,-1.6705,-1.0129e-08,-0.3618,0,0,0.16667,9.8686e-17,0,0.66667
0.215,0.12075,1.29,-0.56888,-25.903,137.89,1.957,-0.65233,-0.84948,2.6093,2.3106e-10,-0.42474,0,0,0.16667,-9.8686e-17,0,0.66667
0.31366,0.18441,1.882,-0.47338,-20.321,110.65,2.3757,-0.7919,-1.2049,3.1676,-4.8597e-12,-0.60246,0,0,0.16667,4.9343e-16,0,0.66667
0.95145,0.24594,5.7087,-0.38108,-1.5681,1.4489,5.8013,-1.9338,-1.4848,7.7351,3.9766e-08,-0.74242,0,0,0.16667,1.579e-15,0,0.66667
0.99077,0.53119,5.9446,0.046786,0.014091,0.10873,-0.74166,0.24722,-1.9925,-0.98889,-2.6743e-06,-0.99623,0,0,0.16667,3.3307e-16,0,0.66667
0.86689,0.43779,5.2013,-0.093308,-1.0594,6.0283,1.2942,-0.4314,-1.9691,1.7256,-5.6887e-09,-0.98457,0,0,0.16667,-0,-0,0.66667
0.46186,0.90018,2.7712,0.60027,22.541,73.46,-4.4358,1.4786,-0.71799,-5.9145,-2.0384e-13,-0.359,0,0,0.16667,-3.9475e-16,0,0.66667
0.46562,0.73428,2.7937,0.35141,13.051,72.289,-2.618,0.87266,-1.5604,-3.4907,-4.5053e-13,-0.78021,0,0,0.16667,7.8949e-16,0,0.66667
0.76473,0.7609,4.5884,0.39135,7.6331,17.003,-4.7884,1.5961,-1.4564,-6.3845,8.9128e-11,-0.72818,0,0,0.16667,-0,-0,0.66667
0.098408,0.80443,0.59045,0.45664,21.539,171.47,-0.719,0.23967,-1.2579,-0.95867,-9.603e-09,-0.62896,0,0,0.16667,9.8686e-17,0,0.66667
0.99404,0.64014,5.9642,0.21021,0.006975,0.17804,-3.3432,1.1144,-1.8415,-4.4577,8.9664e-09,-0.92076,0,0,0.16667,-0,-0,0.66667
0.69221,0.81168,4.1533,0.46752,11.521,27.503,-5.178,1.726,-1.2233,-6.9039,-4.3432e-12,-0.61165,0,0,0.16667,-2.4672e-16,0,0.66667
0.29929,0.62281,1.7957,0.18422,7.9494,114.36,-0.88213,0.29404,-1.8805,-1.1762,6.9872e-13,-0.94023,0,0,0.16667,-4.9343e-16,0,0.66667
0.90885,0.68066,5.4531,0.27099,2.1258,3.2729,-3.9406,1.3135,-1.7392,-5.2542,2.0871e-09,-0.8696,0,0,0.16667,-0,-0,0.66667
0.55258,0.61331,3.3155,0.16997,5.5733,52.901,-1.5027,0.50092,-1.8961,-2.0037,-5.6266e-13,-0.94803,0,0,0.16667,-7.8949e-16,0,0.66667
0.08519,0.40236,0.51114,-0.14646,-6.8967,175.31,0.19963,-0.066542,-1.9232,0.26617,2.0655e-08,-0.96159,0,0,0.16667,4.9343e-17,0,0.66667
0.10825,0.20183,0.64947,-0.44725,-21.048,168.58,0.77461,-0.2582,-1.2894,1.0328,8.1546e-09,-0.64469,0,0,0.16667,-0,-0,0.66667
0.031665,0.03733,0.18999,-0.694,-33.221,191.16,0.35161,-0.11721,-0.28923,0.46881,-6.0644e-06,-0.14461,0,0,0.16667,-9.8686e-17,0,0.66667
0.21619,0.15132,1.2972,-0.52302,-23.775,137.53,1.8092,-0.60307,-1.0279,2.4123,6.2962e-12,-0.51397,0,0,0.16667,6.2145e-16,0,0.66667
0.051414,0.59795,0.30848,0.14693,6.9516,185.27,-0.12087,0.04029,-1.9231,-0.16116,-3.0516e-08,-0.96156,0,0,0.16667,-0,-0,0.66667
0.51027,0.037254,3.0616,-0.69412,-24.584,62.615,5.667,-1.889,-0.28632,7.5561,-9.0195e-13,-0.14316,0,0,0.16667,-0,-0,0.66667
0.08294,0.12949,0.49764,-0.55576,-26.347,176.03,0.73752,-0.24584,-0.90154,0.98336,4.5517e-08,-0.45077,0,0,0.16667,-1.9737e-16,0,0.66667
0.44312,0.93707,2.6587,0.6556,25.199,77.975,-4.6482,1.5494,-0.47208,-6.1976,-1.2954e-12,-0.23604,0,0,0.16667,1.0609e-15,0,0.66667
0.2362,0.86588,1.4172,0.54883,24.725,131.92,-2.0741,0.69138,-0.92951,-2.7655,-2.5774e-11,-0.46475,0,0,0.16667,1.9737e-16,0,0.66667
0.55972,0.38976,3.3583,-0.16536,-5.3589,51.418,1.4809,-0.49363,-1.9025,1.9745,3.0875e-13,-0.95123,0,0,0.16667,-7.8949e-16,0,0.66667
0.43897,0.0036207,2.6338,-0.74457,-28.846,79.115,5.2295,-1.7432,-0.030255,6.9726,-4.3832e-13,-0.015128,0,0,0.16667,-0,-0,0.66667
0.83754,0.77516,5.0252,0.41273,5.7463,8.951,-5.5309,1.8436,-1.3935,-7.3746,1.7669e-09,-0.69676,0,0,0.16667,7.8949e-16,0,0.66667
0.33654,0.45015,2.0193,-0.074772,-3.1394,104.38,0.40263,-0.13421,-1.9787,0.53684,-1.4682e-12,-0.98933,0,0,0.16667,-0,-0,0.66667
0.23023,0.54214,1.3814,0.063215,2.8369,133.41,-0.23286,0.077622,-1.985,-0.31049,-4.1808e-11,-0.99252,0,0,0.16667,-0,-0,0.66667
0.94012,0.40432,5.6407,-0.14353,-0.71975,1.5728,2.1589,-0.71964,-1.9278,2.8785,-8.0037e-08,-0.96391,0,0,0.16667,-3.9475e-16,0,0.66667
0.46636,0.43249,2.7982,-0.10127,-3.7457,71.973,0.75565,-0.25188,-1.9642,1.0075,-9.4769e-13,-0.9821,0,0,0.16667,3.9475e-16,0,0.66667
0.028158,0.27018,0.16895,-0.34473,-16.375,192.16,0.15531,-0.05177,-1.5771,0.20708,-5.1351e-08,-0.78856,0,0,0.16667,-2.4672e-17,0,0.66667
0.079436,0.52244,0.47662,0.03366,1.5859,177,-0.042781,0.01426,-1.9968,-0.057042,2.5638e-08,-0.99839,0,0,0.16667,-0,-0,0.66667
0.55557,0.05728,3.3334,-0.66408,-21.953,52.889,5.9031,-1.9677,-0.43124,7.8708,1.6565e-13,-0.21562,0,0,0.16667,-7.8949e-16,0,0.66667
0.21077,0.24305,1.2646,-0.38543,-17.513,138.99,1.2998,-0.43327,-1.4708,1.7331,2.7531e-10,-0.73539,0,0,0.16667,-0,-0,0.66667
0.14824,0.15645,0.88941,-0.51533,-24.034,156.97,1.2222,-0.40741,-1.0559,1.6297,-6.8921e-10,-0.52795,0,0,0.16667,-3.9475e-16,0,0.66667
0.19553,0.38159,1.1732,-0.17762,-8.102,143.26,0.55569,-0.18523,-1.8869,0.74091,4.7162e-10,-0.94343,0,0,0.16667,-3.9475e-16,0,0.66667
0.74475,0.91589,4.4685,0.62384,13.223,20.11,-7.4336,2.4779,-0.61529,-9.9115,3.2503e-12,-0.30764,0,0,0.16667,-0,-0,0.66667
0.94901,0.069248,5.6941,-0.64613,-2.9848,2.2259,9.811,-3.2703,-0.51528,13.081,-4.4175e-07,-0.25764,0,0,0.16667,-0,-1.2134e-16,0.66667
0.12938,0.50742,0.77627,0.01113,0.51878,162.35,-0.023039,0.0076796,-1.9991,-0.030718,-1.1271e-09,-0.99953,0,0,0.16667,-0,-0,0.66667
0.87978,0.84159,5.2787,0.51239,5.3986,5.6334,-7.2126,2.4042,-1.0667,-9.6168,-4.5648e-09,-0.53335,0,0,0.16667,2.3685e-15,0,0.66667
0.71192,0.8544,4.2715,0.5316,12.43,24.591,-6.0553,2.0184,-0.99387,-8.0738,-2.689e-12,-0.49693,0,0,0.16667,-0,-0,0.66667
0.55684,0.51423,3.3411,0.021348,0.69451,51.972,-0.1902,0.063399,-1.9971,-0.25359,-8.1148e-13,-0.99854,0,0,0.16667,1.579e-15,0,0.66667
0.067019,0.071265,0.40211,-0.6431,-30.631,180.73,0.6896,-0.22987,-0.52879,0.91946,-1.4793e-07,-0.2644,0,0,0.16667,-0,-0,0.66667
0.78774,0.15648,4.7264,-0.51528,-9.2268,14.419,6.4946,-2.1649,-1.0561,8.6594,1.4473e-11,-0.52807,0,0,0.16667,-3.158e-15,0,0.66667
0.81228,0.093668,4.8737,-0.6095,-9.8321,11.914,7.9213,-2.6404,-0.68207,10.562,6.2059e-10,-0.34103,0,0,0.16667,2.2341e-15,0,0.66667
0.75458,0.67652,4.5275,0.26479,5.3377,18.154,-3.1968,1.0656,-1.7498,-4.2625,6.7944e-11,-0.87491,0,0,0.16667,-7.8949e-16,0,0.66667
0.55049,0.64035,3.3029,0.21052,6.9296,53.36,-1.8542,0.61808,-1.8417,-2.4723,-8.1424e-13,-0.92086,0,0,0.16667,7.8949e-16,0,0.66667
0.6316,0.10491,3.7896,-0.59263,-16.969,38.009,5.9889,-1.9963,-0.74991,7.9853,6.6791e-13,-0.37495,0,0,0.16667,-0,-0,0.66667
0.43666,0.89167,2.62,0.58751,22.691,79.424,-4.1047,1.3682,-0.77352,-5.473,6.4837e-14,-0.38676,0,0,0.16667,7.8949e-16,1.9648e-16,0.66667
0.30785,0.48799,1.8471,-0.018015,-0.77228,112.02,0.088736,-0.029579,-1.9979,0.11831,4.6338e-14,-0.99894,0,0,0.16667,-0,-0,0.66667
0.20771,0.44408,1.2463,-0.083885,-3.8044,139.78,0.27878,-0.092927,-1.9745,0.37171,1.4694e-10,-0.98725,0,0,0.16667,3.9475e-16,0,0.66667
0.77076,0.66046,4.6246,0.24068,4.5637,16.046,-2.9682,0.98939,-1.7937,-3.9576,1.2761e-10,-0.89687,0,0,0.16667,-0,-0,0.66667
0.93478,0.97998,5.6087,0.71997,4.3281,3.0451,-10.768,3.5894,-0.15677,-14.358,-4.3849e-07,-0.078384,0,0,0.16667,-1.579e-15,-1.8177e-16,0.66667
0.62152,0.31795,3.7291,-0.27308,-7.9063,39.392,2.7156,-0.90519,-1.7349,3.6208,1.9755e-12,-0.86747,0,0,0.16667,-0,-0,0.66667
0.53425,0.80619,3.2055,0.45928,15.586,57.035,-3.9259,1.3086,-1.2502,-5.2346,-5.8997e-13,-0.62508,0,0,0.16667,-0,-0,0.66667
0.88327,0.24692,5.2996,-0.37962,-3.841,5.1032,5.3649,-1.7883,-1.4872,7.1532,-6.6076e-09,-0.74359,0,0,0.16667,-1.7122e-15,0,0.66667
0.044803,0.12335,0.26882,-0.56497,-26.922,187.26,0.405,-0.135,-0.8665,0.54,-2.3504e-08,-0.43325,0,0,0.16667,-1.8504e-17,-2.1653e-16,0.66667
0.30268,0.98015,1.8161,0.72022,31.371,113.84,-3.4879,1.1626,-0.15443,-4.6505,3.3329e-13,-0.077215,0,0,0.16667,7.8949e-16,0,0.66667
0.38247,0.83569,2.2948,0.50353,20.473,92.727,-3.0814,1.0271,-1.0974,-4.1085,2.127e-12,-0.54869,0,0,0.16667,-3.9475e-16,0,0.66667
0.031099,0.038127,0.1866,-0.69281,-33.163,191.32,0.34474,-0.11492,-0.29521,0.45965,-7.4628e-06,-0.1476,0,0,0.16667,-0,1.3551e-16,0.66667
0.51993,0.45172,3.1196,-0.072419,-2.4946,59.84,0.60245,-0.20082,-1.9804,0.80326,-2.4342e-13,-0.99021,0,0,0.16667,-0,-0,0.66667
0.94058,0.87963,5.6435,0.56945,3.0113,2.3152,-8.5697,2.8566,-0.84742,-11.426,1.3839e-07,-0.42371,0,0,0.16667,-0,-0,0.66667
0.79725,0.31631,4.7835,-0.27554,-4.6805,12.924,3.5148,-1.1716,-1.7321,4.6864,-4.3728e-10,-0.86607,0,0,0.16667,-0,-0,0.66667
0.53509,0.91167,3.2106,0.6175,21.037,57.097,-5.2867,1.7622,-0.64419,-7.049,-1.6565e-13,-0.32209,0,0,0.16667,-0,-0,0.66667
0.67654,0.87204,4.0592,0.55806,14.381,30.195,-6.0408,2.0136,-0.89275,-8.0544,-3.2832e-12,-0.44637,0,0,0.16667,-0,-0,0.66667
0.78523,0.42885,4.7114,-0.10673,-1.9032,14.182,1.3409,-0.44698,-1.959,1.7879,-1.1151e-10,-0.9795,0,0,0.16667,-7.8949e-16,0,0.66667
0.26109,0.27632,1.5666,-0.33552,-14.85,124.87,1.4016,-0.46721,-1.5995,1.8688,2.504e-11,-0.79976,0,0,0.16667,3.9475e-16,0,0.66667
0.27566,0.85734,1.654,0.53601,23.62,120.99,-2.3641,0.78804,-0.9772,-3.1522,1.2035e-12,-0.4886,0,0,0.16667,-0,-0,0.66667
0.60522,0.35685,3.6313,-0.21473,-6.4165,42.408,2.0793,-0.69311,-1.8352,2.7724,1.1546e-12,-0.9176,0,0,0.16667,-0,-0,0.66667
0.67418,0.58495,4.0451,0.12743,3.2644,30.052,-1.3746,0.4582,-1.9425,-1.8328,-2.8135e-12,-0.97125,0,0,0.16667,-0,-0,0.66667
0.0036135,0.87296,0.021681,0.55944,26.708,199.43,-0.032344,0.010781,-0.88781,-0.043126,-4.4178e-07,-0.4439,0,0,0.16667,6.9389e-18,-9.6426e-17,0.66667
0.8557,0.026302,5.1342,-0.71055,-9.0904,8.087,9.7283,-3.2428,-0.20495,12.971,-8.1191e-10,-0.10248,0,0,0.16667,-7.8949e-16,0,0.66667
0.14491,0.82087,0.86947,0.48131,22.453,157.92,-1.116,0.37199,-1.1757,-1.4879,-2.1425e-09,-0.58787,0,0,0.16667,-0,-0,0.66667
0.51235,0.27029,3.0741,-0.34457,-12.039,61.661,2.8246,-0.94155,-1.5775,3.7662,-1.2901e-13,-0.78873,0,0,0.16667,-0,-0,0.66667
0.56218,0.13851,3.3731,-0.54223,-17.65,51.311,4.8773,-1.6258,-0.95578,6.5031,5.3912e-13,-0.47789,0,0,0.16667,-0,2.3065e-16,0.66667
0.0071911,0.63552,0.043147,0.20328,9.6473,198.37,-0.02339,0.0077965,-1.8517,-0.031186,-6.8858e-09,-0.92586,0,0,0.16667,-0,-0,0.66667
0.42885,0.29313,2.5731,-0.31031,-12.006,81.028,2.1292,-0.70974,-1.6562,2.839,-8.1313e-13,-0.82811,0,0,0.16667,-0,-0,0.66667
0.53374,0.97323,3.2025,0.70985,24.323,57.56,-6.062,2.0207,-0.20909,-8.0827,-3.2596e-13,-0.10455,0,0,0.16667,-0,-0,0.66667
0.69071,0.66443,4.1442,0.24665,6.0627,27.451,-2.7258,0.9086,-1.7836,-3.6344,-3.7772e-12,-0.89178,0,0,0.16667,-0,-0,0.66667
0.90317,0.71305,5.419,0.31957,2.6741,3.6819,-4.6181,1.5394,-1.6371,-6.1574,6.3912e-09,-0.81855,0,0,0.16667,-7.8949e-16,0,0.66667
0.068561,0.3189,0.41137,-0.27165,-12.84,180.22,0.29799,-0.09933,-1.7368,0.39732,-7.1876e-09,-0.86841,0,0,0.16667,-0,-0,0.66667
0.2831,0.42108,1.6986,-0.11838,-5.1596,118.75,0.53622,-0.17874,-1.9503,0.71496,3.7803e-12,-0.97517,0,0,0.16667,-3.9475e-16,0,0.66667
0.52793,0.72903,3.1676,0.34355,11.736,58.26,-2.9019,0.96731,-1.58,-3.8692,-1.3789e-13,-0.78999,0,0,0.16667,-0,-0,0.66667
0.29023,0.95158,1.7414,0.67737,29.702,117.15,-3.1455,1.0485,-0.36715,-4.194,-2.9754e-13,-0.18358,0,0,0.16667,-0,-0,0.66667
0.42013,0.45016,2.5208,-0.074766,-2.9121,83.056,0.50258,-0.16753,-1.9804,0.67011,-4.9927e-13,-0.9902,0,0,0.16667,-0,-0,0.66667
0.98205,0.077172,5.8923,-0.63424,-0.97754,1.2982,9.9658,-3.3219,-0.56963,13.288,2.6293e-07,-0.28482,0,0,0.16667,-1.579e-15,0,0.66667
0.056933,0.4301,0.3416,-0.10486,-4.9568,183.64,0.095517,-0.031839,-1.9601,0.12736,-1.6228e-07,-0.98004,0,0,0.16667,-4.9343e-17,0,0.66667
0.92891,0.067207,5.5735,-0.64919,-4.1779,3.0691,9.6487,-3.2162,-0.50084,12.865,4.3175e-07,-0.25042,0,0,0.16667,-0,-0,0.66667
0.66798,0.90439,4.0079,0.60659,16.002,31.713,-6.483,2.161,-0.69225,-8.644,-1.5188e-12,-0.34613,0,0,0.16667,-9.8686e-16,0,0.66667
0.49858,0.99958,2.9915,0.74937,27.027,65.316,-5.9779,1.9926,-0.0054129,-7.9705,-1.5903e-12,-0.0027064,0,0,0.16667,2.4178e-15,-1.0532e-17,0.66667
0.4647,0.30432,2.7882,-0.29352,-10.901,72.457,2.1824,-0.72745,-1.6932,2.9098,-5.6199e-13,-0.8466,0,0,0.16667,-0,-0,0.66667
0.55893,0.45056,3.3536,-0.074165,-2.4049,51.547,0.66326,-0.22109,-1.9798,0.88434,-4.4076e-14,-0.9899,0,0,0.16667,-0,-0,0.66667
0.29159,0.22546,1.7495,-0.41181,-17.919,116.56,1.9213,-0.64042,-1.3963,2.5617,-2.7864e-12,-0.69817,0,0,0.16667,-0,-0,0.66667
0.1718,0.26951,1.0308,-0.34574,-15.947,150.1,0.95037,-0.31679,-1.5764,1.2672,1.2344e-09,-0.78821,0,0,0.16667,-0,-0,0.66667
0.61974,0.038283,3.7184,-0.69258,-20.416,40.39,6.8675,-2.2892,-0.29382,9.1566,-8.9528e-13,-0.14691,0,0,0.16667,-0,-0,0.66667
0.98848,0.44304,5.9309,-0.085442,-0.044779,0.15526,1.3513,-0.45044,-1.9739,1.8018,-2.765e-07,-0.98694,0,0,0.16667,-0,-0,0.66667
0.51622,0.018567,3.0973,-0.72215,-25.395,61.365,5.9646,-1.9882,-0.1468,7.9528,-4.8095e-13,-0.073398,0,0,0.16667,1.579e-15,0,0.66667
0.67101,0.84887,4.0261,0.5233,13.652,31.04,-5.6182,1.8727,-1.0279,-7.491,-3.2041e-12,-0.51393,0,0,0.16667,-0,-2.4614e-16,0.66667
0.51953,0.52528,3.1172,0.03792,1.3068,59.923,-0.31521,0.10507,-1.9947,-0.42028,-3.0043e-13,-0.99736,0,0,0.16667,-7.8949e-16,0,0.66667
0.20003,0.51937,1.2002,0.029061,1.3222,141.96,-0.093008,0.031003,-1.9966,-0.12401,-6.4221e-11,-0.99831,0,0,0.16667,-0,-0,0.66667
0.5787,0.99398,3.4722,0.74097,23.646,48.369,-6.8608,2.2869,-0.049466,-9.1477,1.4166e-13,-0.024733,0,0,0.16667,-1.1842e-15,0,0.66667
0.95788,0.89281,5.7473,0.58922,2.2008,1.7486,-9.0304,3.0101,-0.76453,-12.04,6.9814e-07,-0.38227,0,0,0.16667,-0,-0,0.66667
0.69242,0.21137,4.1545,-0.43295,-10.649,27.413,4.7965,-1.5988,-1.3329,6.3954,5.3735e-12,-0.66643,0,0,0.16667,-7.8949e-16,0,0.66667
0.027337,0.20901,0.16402,-0.43649,-20.767,192.41,0.19091,-0.063638,-1.322,0.25455,-1.6629e-07,-0.66101,0,0,0.16667,-0,-0,0.66667
0.36312,0.53918,2.1787,0.058775,2.4151,97.435,-0.34148,0.11383,-1.9874,-0.4553,1.4145e-12,-0.99369,0,0,0.16667,-7.8949e-16,0,0.66667
0.63389,0.62693,3.8033,0.19039,5.3629,37.066,-1.931,0.64367,-1.8709,-2.5747,-2.9209e-12,-0.93547,0,0,0.16667,-0,-0,0.66667
0.56707,0.87729,3.4024,0.56594,18.287,50.353,-5.1349,1.7116,-0.86139,-6.8465,-6.5814e-13,-0.4307,0,0,0.16667,-0,-0,0.66667
0.12133,0.2166,0.728,-0.4251,-19.936,164.75,0.82527,-0.27509,-1.358,1.1004,4.3334e-09,-0.67901,0,0,0.16667,-4.9343e-17,0,0.66667
0.93647,0.038718,5.6188,-0.69192,-4.0256,2.8732,10.367,-3.4558,-0.29888,13.823,1.009e-06,-0.14944,0,0,0.16667,-0,-1.4358e-16,0.66667
0.39384,0.036604,2.363,-0.69509,-28.132,90.099,4.3801,-1.46,-0.28232,5.8401,-1.4193e-12,-0.14116,0,0,0.16667,-0,-0,0.66667
0.72926,0.50845,4.3756,0.01267,0.27732,21.507,-0.14783,0.049277,-1.9986,-0.19711,1.0455e-12,-0.9993,0,0,0.16667,-0,-0,0.66667
0.78569,0.071463,4.7141,-0.64281,-11.708,14.97,8.0807,-2.6936,-0.53016,10.774,4.3228e-12,-0.26508,0,0,0.16667,1.579e-15,0,0.66667
0.21299,0.19504,1.278,-0.45744,-20.793,138.39,1.5589,-0.51963,-1.2551,2.0785,2.5472e-10,-0.62755,0,0,0.16667,-3.9475e-16,0,0.66667
0.66262,0.018374,3.9757,-0.72244,-19.421,32.884,7.6593,-2.5531,-0.14289,10.212,4.4809e-13,-0.071447,0,0,0.16667,-0,-0,0.66667
0.52337,0.35384,3.1402,-0.21923,-7.5238,59.151,1.8358,-0.61194,-1.8278,2.4478,3.052e-13,-0.91389,0,0,0.16667,-1.579e-15,0,0.66667
0.1783,0.75623,1.0698,0.38435,17.697,148.25,-1.0965,0.36549,-1.4739,-1.4619,-9.4288e-10,-0.73696,0,0,0.16667,-0,-0,0.66667
0.71844,0.8444,4.3106,0.5166,11.839,23.593,-5.9384,1.9795,-1.0538,-7.9179,-4.3321e-12,-0.52691,0,0,0.16667,-0,2.0536e-16,0.66667
0.54058,0.53153,3.2435,0.047298,1.5794,55.387,-0.40909,0.13636,-1.9923,-0.54545,4.2247e-13,-0.99613,0,0,0.16667,-1.579e-15,0,0.66667
0.21409,0.65289,1.2846,0.22933,10.382,137.99,-0.78558,0.26186,-1.813,-1.0474,-2.8145e-10,-0.90649,0,0,0.16667,9.8686e-17,0,0.66667
0.41806,0.52392,2.5084,0.035881,1.4004,83.561,-0.24001,0.080003,-1.9951,-0.32001,-6.615e-13,-0.99756,0,0,0.16667,-0,-0,0.66667
0.68076,0.60811,4.0846,0.16216,4.0863,28.989,-1.7663,0.58877,-1.905,-2.3551,-3.2427e-12,-0.95251,0,0,0.16667,-0,-0,0.66667
0.99376,0.70561,5.9626,0.30842,0.034644,0.31629,-4.9039,1.6346,-1.6604,-6.5385,6.5666e-08,-0.8302,0,0,0.16667,-1.579e-15,0,0.66667
0.54844,0.24087,3.2906,-0.38869,-12.879,53.945,3.4107,-1.1369,-1.4635,4.5476,1.4966e-13,-0.73173,0,0,0.16667,-3.9475e-16,0,0.66667
0.79392,0.92846,4.7635,0.64269,11.305,14.017,-8.1639,2.7213,-0.53128,-10.885,4.3701e-11,-0.26564,0,0,0.16667,-0,-1.7886e-16,0.66667
0.33058,0.39259,1.9835,-0.16111,-6.7987,105.97,0.85217,-0.28406,-1.9076,1.1362,-3.114e-12,-0.95378,0,0,0.16667,-3.9475e-16,0,0.66667
0.51156,0.74819,3.0694,0.37228,13.03,61.863,-3.0471,1.0157,-1.5077,-4.0628,6.5947e-13,-0.75384,0,0,0.16667,-9.8686e-16,0,0.66667
0.83503,0.060414,5.0102,-0.65938,-9.4942,9.7778,8.8096,-2.9365,-0.45389,11.746,2.2284e-09,-0.22695,0,0,0.16667,8.3934e-16,0,0.66667
0.97046,0.96762,5.8227,0.70143,1.9086,1.7732,-10.891,3.6304,-0.25238,-14.522,-1.5019e-05,-0.12619,0,0,0.16667,-4.9343e-16,0,0.66667
0.17847,0.99939,1.0708,0.74909,34.81,148.4,-2.1391,0.71302,-0.0049655,-2.8521,-5.9454e-10,-0.0024828,0,0,0.16667,3.7007e-17,0,0.66667
0.85131,0.80829,5.1078,0.46244,5.9431,7.8013,-6.2989,2.0996,-1.239,-8.3985,3.3296e-09,-0.6195,0,0,0.16667,8.9882e-16,0,0.66667
0.9884,0.29136,5.9304,-0.31297,-0.19581,0.39539,4.9493,-1.6498,-1.6511,6.5991,-4.414e-08,-0.82555,0,0,0.16667,-0,-0,0.66667
0.45046,0.0052165,2.7028,-0.74218,-28.387,76.375,5.3491,-1.783,-0.042,7.1322,-8.1135e-13,-0.021,0,0,0.16667,3.158e-15,0,0.66667
0.30796,0.75736,1.8478,0.38604,16.607,112.12,-1.9022,0.63405,-1.4696,-2.5362,3.6359e-12,-0.73479,0,0,0.16667,7.8949e-16,0,0.66667
0.91246,0.27683,5.4748,-0.33475,-2.5337,3.1594,4.8871,-1.629,-1.601,6.5162,-6.7589e-09,-0.80051,0,0,0.16667,1.1842e-15,0,0.66667
0.21986,0.012547,1.3191,-0.73118,-33.379,136.65,2.5721,-0.85736,-0.099793,3.4294,5.1162e-11,-0.049897,0,0,0.16667,-0,-0,0.66667
0.98826,0.78533,5.9296,0.42799,0.31101,0.62199,-6.7675,2.2558,-1.3488,-9.0233,8.3077e-08,-0.67442,0,0,0.16667,-0,-0,0.66667
0.40154,0.51792,2.4092,0.026887,1.0668,87.659,-0.17274,0.057581,-1.9964,-0.23032,6.2442e-13,-0.99819,0,0,0.16667,-0,-0,0.66667
0.092234,0.92904,0.5534,0.64356,30.529,173.33,-0.94973,0.31657,-0.52812,-1.2663,-1.6966e-07,-0.26406,0,0,0.16667,-0,-1.5587e-16,0.66667
0.13677,0.28011,0.82065,-0.32983,-15.38,160.23,0.7218,-0.2406,-1.6139,0.9624,3.4457e-09,-0.80694,0,0,0.16667,-2.5905e-16,0,0.66667
0.47707,0.18478,2.8624,-0.47283,-17.364,69.756,3.6092,-1.2031,-1.2047,4.8123,3.3418e-13,-0.60235,0,0,0.16667,-9.8686e-16,0,0.66667
0.060948,0.26878,0.36569,-0.34683,-16.427,182.47,0.33821,-0.11274,-1.5727,0.45095,-1.2345e-08,-0.78636,0,0,0.16667,-9.8686e-17,0,0.66667
0.25189,0.04275,1.5113,-0.68588,-30.768,127.67,2.7642,-0.9214,-0.32764,3.6856,-3.7064e-12,-0.16382,0,0,0.16667,-0,-0,0.66667
0.795,0.45099,4.77,-0.073516,-1.256,13.03,0.93512,-0.31171,-1.981,1.2468,-1.6146e-10,-0.99048,0,0,0.16667,-1.579e-15,0,0.66667
0.78533,0.226,4.712,-0.411,-7.3931,14.5,5.1643,-1.7214,-1.399,6.8858,-1.7785e-10,-0.6995,0,0,0.16667,-0,-0,0.66667
0.81082,0.44991,4.8649,-0.075141,-1.1922,11.278,0.97481,-0.32494,-1.9803,1.2997,-1.9808e-10,-0.99013,0,0,0.16667,-0,-0,0.66667
0.046263,0.14681,0.27758,-0.52978,-25.22,186.83,0.39214,-0.13071,-1.0033,0.52286,7.5837e-08,-0.50165,0,0,0.16667,-0,2.6258e-16,0.66667
0.76645,0.18365,4.5987,-0.47452,-9.2308,16.932,5.8191,-1.9397,-1.2012,7.7589,-3.9643e-11,-0.60058,0,0,0.16667,-0,-0,0.66667
0.80685,0.25212,4.8411,-0.37181,-6.065,11.992,4.7999,-1.6,-1.5084,6.3999,-5.3376e-10,-0.75421,0,0,0.16667,-0,-0,0.66667
0.01605,0.0094212,0.096298,-0.73587,-35.297,195.76,0.18894,-0.062987,-0.076022,0.25191,-1.215e-05,-0.038011,0,0,0.16667,-0,-0,0.66667
0.39133,0.044415,2.348,-0.68338,-27.711,90.712,4.2788,-1.4263,-0.34046,5.7051,-8.5842e-13,-0.17023,0,0,0.16667,-0,-0,0.66667
0.86558,0.98975,5.1935,0.73463,8.8256,7.3591,-10.174,3.3914,-0.079908,-13.565,-3.3115e-09,-0.039954,0,0,0.16667,-1.579e-15,0,0.66667
0.95847,0.019304,5.7508,-0.72104,-2.7829,2.1715,11.058,-3.6859,-0.15029,14.744,-4.8481e-06,-0.075147,0,0,0.16667,-0,-0,0.66667
0.91959,0.75894,5.5176,0.38841,2.7118,2.8656,-5.7148,1.9049,-1.4638,-7.6198,9.5151e-09,-0.73192,0,0,0.16667,-1.579e-15,0,0.66667
0.54699,0.71422,3.2819,0.32134,10.656,54.18,-2.8123,0.93742,-1.635,-3.7497,-2.1316e-13,-0.81751,0,0,0.16667,-1.9737e-16,0,0.66667
0.30992,0.40668,1.8595,-0.13998,-5.9949,111.48,0.69413,-0.23138,-1.9317,0.9255,-1.8281e-12,-0.96586,0,0,0.16667,-7.8949e-16,0,0.66667
0.58926,0.18277,3.5356,-0.47585,-14.744,45.782,4.4864,-1.4955,-1.1947,5.9819,7.2742e-13,-0.59736,0,0,0.16667,1.1842e-15,0,0.66667
0.59599,0.35697,3.5759,-0.21455,-6.5254,44.185,2.0459,-0.68197,-1.8363,2.7279,8.6753e-13,-0.91816,0,0,0.16667,-0,-0,0.66667
0.66455,0.17444,3.9873,-0.48834,-12.924,32.058,5.1924,-1.7308,-1.1506,6.9232,3.5816e-12,-0.5753,0,0,0.16667,2.5044e-18,0,0.66667
0.59082,0.61068,3.5449,0.16602,5.0952,45.165,-1.5694,0.52313,-1.9016,-2.0925,-1.0338e-12,-0.9508,0,0,0.16667,-0,-0,0.66667
0.86806,0.053434,5.2083,-0.66985,-7.8459,6.9536,9.3035,-3.1012,-0.40342,12.405,9.7081e-09,-0.20171,0,0,0.16667,7.8949e-16,0,0.66667
0.37398,0.44872,2.2439,-0.076926,-3.1316,94.643,0.4603,-0.15343,-1.9798,0.61373,-1.1667e-12,-0.98988,0,0,0.16667,-0,-0,0.66667
0.24402,0.73298,1.4641,0.34947,15.616,129.62,-1.3644,0.45481,-1.5644,-1.8192,-6.9789e-11,-0.78219,0,0,0.16667,3.9475e-16,0,0.66667
0.020487,0.25432,0.12292,-0.36852,-17.519,194.43,0.1208,-0.040265,-1.5169,0.16106,-3.3782e-08,-0.75845,0,0,0.16667,4.9343e-17,0,0.66667
0.23269,0.16672,1.3961,-0.49991,-22.535,132.87,1.8612,-0.6204,-1.1119,2.4816,7.8802e-11,-0.55593,0,0,0.16667,-0,-0,0.66667
0.1616,0.25634,0.96961,-0.36549,-16.923,153.05,0.94503,-0.31501,-1.5244,1.26,1.6073e-09,-0.76219,0,0,0.16667,3.9475e-16,0,0.66667
0.23816,0.78434,1.429,0.42651,19.143,131.3,-1.6252,0.54174,-1.3535,-2.167,-6.9033e-11,-0.67677,0,0,0.16667,-7.8949e-16,0,0.66667
0.88096,0.085815,5.2858,-0.62128,-6.5634,5.8375,8.7572,-2.9191,-0.62664,11.676,1.0518e-08,-0.31332,0,0,0.16667,-7.8949e-16,0,0.66667
0.7316,0.53757,4.3896,0.05635,1.2244,21.179,-0.65961,0.21987,-1.989,-0.87948,6.131e-12,-0.99449,0,0,0.16667,-0,-0,0.66667
0.24339,0.12656,1.4603,-0.56017,-25.151,129.92,2.1814,-0.72714,-0.88422,2.9086,4.1862e-11,-0.44211,0,0,0.16667,7.8949e-16,0,0.66667
0.79305,0.58087,4.7583,0.12131,2.0917,13.273,-1.5393,0.51309,-1.9469,-2.0524,2.032e-10,-0.97347,0,0,0.16667,7.8949e-16,0,0.66667
0.54412,0.8354,3.2647,0.5031,16.838,55.001,-4.3799,1.46,-1.1001,-5.8399,-3.9169e-13,-0.55006,0,0,0.16667,-3.9475e-16,0,0.66667
0.40649,0.91017,2.4389,0.61526,24.535,86.835,-4.0015,1.3338,-0.65625,-5.3353,1.3993e-12,-0.32813,0,0,0.16667,-0,-0,0.66667
0.2058,0.52327,1.2348,0.034898,1.5838,140.32,-0.11491,0.038304,-1.9958,-0.15322,-5.2895e-11,-0.9979,0,0,0.16667,-0,-0,0.66667
0.31073,0.31513,1.8644,-0.27731,-11.886,111.31,1.3787,-0.45957,-1.728,1.8383,-5.1762e-12,-0.86398,0,0,0.16667,-7.8949e-16,0,0.66667
0.079247,0.64631,0.47548,0.21946,10.351,177.06,-0.27827,0.092756,-1.8296,-0.37102,5.2904e-09,-0.91479,0,0,0.16667,-0,-0,0.66667
0.23362,0.88911,1.4017,0.58366,26.352,132.67,-2.1817,0.72724,-0.78963,-2.9089,-5.5391e-12,-0.39481,0,0,0.16667,-0,-0,0.66667
0.66575,0.39219,3.9945,-0.16172,-4.232,31.479,1.7226,-0.5742,-1.9056,2.2968,3.2401e-12,-0.95281,0,0,0.16667,-7.8841e-16,0,0.66667
0.35102,0.56818,2.1061,0.10227,4.2454,100.58,-0.57436,0.19145,-1.962,-0.76581,1.1188e-12,-0.98099,0,0,0.16667,7.8949e-16,0,0.66667
0.81972,0.0065887,4.9183,-0.74012,-11.643,11.527,9.707,-3.2357,-0.051404,12.943,-5.6206e-10,-0.025702,0,0,0.16667,-0,-0,0.66667
0.66115,0.79381,3.9669,0.44072,11.739,32.555,-4.6621,1.554,-1.3083,-6.2161,-4.2277e-12,-0.65416,0,0,0.16667,-0,-0,0.66667
0.62435,0.5208,3.7461,0.031199,0.89561,38.746,-0.31166,0.10389,-1.9976,-0.41555,-1.2716e-12,-0.99882,0,0,0.16667,-0,-0,0.66667
0.42028,0.53119,2.5217,0.046788,1.8219,83.017,-0.31462,0.10487,-1.9942,-0.4195,-1.3708e-12,-0.99711,0,0,0.16667,4.9343e-16,0,0.66667
0.645,0.33561,3.87,-0.24658,-6.7836,35.122,2.5448,-0.84825,-1.7832,3.393,3.386e-12,-0.89161,0,0,0.16667,-0,-0,0.66667
0.87483,0.76858,5.249,0.40287,4.3708,5.7665,-5.6391,1.8797,-1.4242,-7.5188,5.1005e-09,-0.71212,0,0,0.16667,-1.579e-15,0,0.66667
0.31127,0.97505,1.8676,0.71258,30.849,111.52,-3.5489,1.183,-0.19575,-4.7319,-1.2257e-13,-0.097877,0,0,0.16667,-0,-0,0.66667
0.34275,0.71128,2.0565,0.31692,13.273,102.83,-1.738,0.57934,-1.644,-2.3174,4.0414e-12,-0.82201,0,0,0.16667,-0,-0,0.66667
0.84868,0.79629,5.0921,0.44443,5.7995,7.9952,-6.0349,2.0116,-1.2966,-8.0465,2.4465e-09,-0.64828,0,0,0.16667,1.579e-15,0,0.66667
0.52989,0.1128,3.1794,-0.5808,-19.915,58.147,4.9242,-1.6414,-0.80113,6.5656,-4.9871e-13,-0.40057,0,0,0.16667,-0,-0,0.66667
0.92369,0.83095,5.5421,0.49643,3.3353,2.8902,-7.3368,2.4456,-1.124,-9.7823,4.4549e-08,-0.562,0,0,0.16667,-0,-0,0.66667
0.18755,0.012216,1.1253,-0.73168,-33.864,145.79,2.1956,-0.73188,-0.097962,2.9275,4.0407e-10,-0.048981,0,0,0.16667,-0,-0,0.66667
0.21487,0.29796,1.2892,-0.30305,-13.727,137.8,1.0419,-0.3473,-1.6727,1.3892,2.5055e-10,-0.83633,0,0,0.16667,-0,-0,0.66667
0.86246,0.77279,5.1748,0.40918,4.8636,6.7526,-5.6464,1.8821,-1.4046,-7.5286,4.225e-09,-0.70229,0,0,0.16667,-7.8949e-16,0,0.66667
0.09949,0.38882,0.59694,-0.16676,-7.833,171.1,0.26546,-0.088487,-1.8998,0.35395,-1.9855e-09,-0.9499,0,0,0.16667,1.9737e-16,0,0.66667
0.47166,0.6585,2.83,0.23775,8.7483,70.796,-1.7942,0.59806,-1.7999,-2.3922,7.8093e-13,-0.89994,0,0,0.16667,-1.579e-15,0,0.66667
0.8394,0.98559,5.0364,0.72838,10.304,9.5829,-9.7825,3.2608,-0.11269,-13.043,-1.179e-10,-0.056344,0,0,0.16667,1.579e-15,0,0.66667
0.69374,0.010883,4.1624,-0.73368,-18.249,27.855,8.1436,-2.7145,-0.084843,10.858,-5.409e-13,-0.042422,0,0,0.16667,-0,-0,0.66667
0.46224,0.52394,2.7734,0.035911,1.3345,72.928,-0.2656,0.088532,-1.9944,-0.35413,-2.2479e-13,-0.99722,0,0,0.16667,7.8949e-16,0,0.66667
0.1652,0.88897,0.99119,0.58345,27.107,152.1,-1.5422,0.51405,-0.78818,-2.0562,-8.7153e-10,-0.39409,0,0,0.16667,-0,-0,0.66667
0.55082,0.30946,3.3049,-0.28581,-9.4142,53.346,2.5189,-0.83963,-1.7098,3.3585,-1.3212e-13,-0.85491,0,0,0.16667,-0,-0,0.66667
0.98798,0.64704,5.9279,0.22056,0.13547,0.27178,-3.4865,1.1622,-1.8266,-4.6487,2.2699e-08,-0.91332,0,0,0.16667,1.579e-15,0,0.66667
0.80516,0.56896,4.8309,0.10344,1.6871,11.903,-1.3325,0.44418,-1.961,-1.7767,3.6435e-10,-0.98051,0,0,0.16667,-0,-0,0.66667
0.054929,0.72349,0.32957,0.33524,15.886,184.25,-0.29463,0.098209,-1.5997,-0.39284,2.1639e-08,-0.79985,0,0,0.16667,-0,-0,0.66667
0.71093,0.90805,4.2656,0.61207,14.411,24.914,-6.9622,2.3207,-0.66776,-9.283,-2.2498e-12,-0.33388,0,0,0.16667,-0,-0,0.66667
0.97662,0.88206,5.8597,0.57309,1.1323,1.2103,-8.955,2.985,-0.83122,-11.94,-9.7881e-07,-0.41561,0,0,0.16667,-0,-0,0.66667
0.19337,0.9309,1.1602,0.64634,29.767,144.07,-1.9998,0.66659,-0.51383,-2.6664,-6.2007e-11,-0.25692,0,0,0.16667,-1.9737e-16,0,0.66667
0.95641,0.80361,5.7384,0.45541,1.6966,1.4388,-6.9689,2.323,-1.2623,-9.2919,-5.8963e-08,-0.63117,0,0,0.16667,-0,-0,0.66667
0.23335,0.53065,1.4001,0.045981,2.0602,132.53,-0.17167,0.057224,-1.9947,-0.2289,-1.3258e-11,-0.99736,0,0,0.16667,5.9214e-17,0,0.66667
0.8194,0.5339,4.9164,0.050845,0.77241,10.369,-0.6666,0.2222,-1.9905,-0.8888,5.5253e-10,-0.99524,0,0,0.16667,3.158e-15,0,0.66667
0.14942,0.38342,0.89651,-0.17487,-8.1099,156.53,0.41806,-0.13935,-1.8901,0.55741,1.2925e-09,-0.94507,0,0,0.16667,-0,-0,0.66667
0.5141,0.23897,3.0846,-0.39154,-13.661,61.323,3.2207,-1.0736,-1.4554,4.2943,1.0214e-14,-0.72771,0,0,0.16667,-0,-0,0.66667
0.36401,0.67803,2.1841,0.26705,10.984,97.269,-1.5554,0.51845,-1.7456,-2.0738,3.0146e-12,-0.87282,0,0,0.16667,-0,-0,0.66667
0.67069,0.36763,4.0241,-0.19855,-5.1358,30.674,2.1307,-0.71023,-1.8609,2.8409,3.9981e-12,-0.93043,0,0,0.16667,-1.1842e-15,0,0.66667
0.17912,0.55688,1.0747,0.085316,3.9147,147.95,-0.24451,0.081502,-1.9733,-0.32601,-2.1343e-10,-0.98664,0,0,0.16667,9.8686e-17,0,0.66667
0.57975,0.60444,3.4785,0.15665,4.9046,47.349,-1.4531,0.48437,-1.9132,-1.9375,-8.6631e-13,-0.9566,0,0,0.16667,-0,-0,0.66667
0.0024237,0.43417,0.014542,-0.098743,-4.683,199.78,0.0038291,-0.0012788,-1.9662,0.0051042,-3.6037e-06,-0.98312,0,0,0.16667,-7.7099e-19,0,0.66667
0.42565,0.52367,2.5539,0.03551,1.375,81.698,-0.24184,0.080612,-1.9952,-0.32245,-5.9663e-13,-0.9976,0,0,0.16667,-0,-0,0.66667
0.51579,0.38209,3.0948,-0.17687,-6.1337,60.784,1.4597,-0.48655,-1.8905,1.9462,3.8258e-13,-0.94527,0,0,0.16667,-0,-0,0.66667
0.8378,0.85272,5.0268,0.52908,7.4154,9.1717,-7.0922,2.3641,-1.0036,-9.4563,9.4673e-10,-0.50182,0,0,0.16667,-0,-0,0.66667
0.75764,0.89539,4.5458,0.59309,11.997,18.321,-7.1895,2.3965,-0.74794,-9.586,1.3372e-11,-0.37397,0,0,0.16667,7.8949e-16,0,0.66667
0.091892,0.55444,0.55135,0.081655,3.8393,173.33,-0.12006,0.040018,-1.9768,-0.16007,2.2704e-08,-0.98842,0,0,0.16667,9.8686e-17,0,0.66667
0.62503,0.90707,3.7502,0.61061,17.739,39.24,-6.1064,2.0355,-0.67723,-8.1419,-6.7102e-13,-0.33862,0,0,0.16667,-0,-0,0.66667
0.66,0.063188,3.96,-0.65522,-17.66,33.165,6.9191,-2.3064,-0.47437,9.2255,5.3735e-13,-0.23719,0,0,0.16667,1.579e-15,0,0.66667
0.73403,0.095351,4.4042,-0.60697,-13.315,21.549,7.1286,-2.3762,-0.69258,9.5048,-3.606e-13,-0.34629,0,0,0.16667,-0,3.8372e-17,0.66667
0.55486,0.55218,3.3292,0.078266,2.555,52.392,-0.69483,0.23161,-1.9769,-0.92644,-5.8342e-14,-0.98844,0,0,0.16667,-0,-0,0.66667
0.10736,0.98554,0.64413,0.72831,34.532,168.94,-1.251,0.417,-0.11407,-1.668,-3.3726e-08,-0.057036,0,0,0.16667,1.9737e-16,0,0.66667
0.64035,0.87877,3.8421,0.56816,15.948,36.395,-5.8211,1.9404,-0.85441,-7.7615,-1.8021e-12,-0.4272,0,0,0.16667,1.579e-15,0,0.66667
0.67053,0.61891,4.0232,0.17837,4.614,30.686,-1.9136,0.63786,-1.888,-2.5515,-3.7418e-12,-0.94399,0,0,0.16667,3.9475e-16,0,0.66667
0.25011,0.43582,1.5006,-0.096267,-4.2765,127.85,0.38523,-0.12841,-1.9697,0.51364,2.3193e-11,-0.98486,0,0,0.16667,-9.8686e-17,0,0.66667
0.94828,0.49218,5.6897,-0.011734,-0.04991,1.1973,0.17803,-0.059343,-1.9988,0.23737,2.2376e-07,-0.99941,0,0,0.16667,1.579e-15,0,0.66667
0.45265,0.40322,2.7159,-0.14518,-5.4591,75.218,1.0514,-0.35047,-1.9272,1.4019,-1.3922e-13,-0.96361,0,0,0.16667,-3.9475e-16,0,0.66667
0.86672,0.87647,5.2003,0.5647,6.6013,6.7589,-7.8309,2.6103,-0.86606,-10.441,-5.8141e-09,-0.43303,0,0,0.16667,3.158e-15,0,0.66667
0.65308,0.72567,3.9185,0.3385,9.1607,33.802,-3.5371,1.179,-1.5926,-4.7161,-4.3749e-12,-0.79631,0,0,0.16667,-0,-0,0.66667
0.61654,0.038218,3.6992,-0.69267,-20.551,40.984,6.8329,-2.2776,-0.29306,9.1105,-6.1018e-13,-0.14653,0,0,0.16667,-0,-0,0.66667
0.5494,0.91583,3.2964,0.62375,20.791,54.092,-5.483,1.8277,-0.61672,-7.3107,-1.8874e-13,-0.30836,0,0,0.16667,-0,-0,0.66667
0.64757,0.21319,3.8854,-0.43022,-11.822,34.885,4.4575,-1.4858,-1.3411,5.9434,3.09e-12,-0.67056,0,0,0.16667,-0,-0,0.66667
0.84434,0.22515,5.066,-0.41228,-5.5136,8.3224,5.5696,-1.8565,-1.3972,7.4261,-1.689e-09,-0.69861,0,0,0.16667,-0,-0,0.66667
0.77688,0.73211,4.6613,0.34816,6.4662,15.419,-4.3277,1.4426,-1.5681,-5.7702,1.7253e-10,-0.78403,0,0,0.16667,-0,-0,0.66667
0.67263,0.83184,4.0358,0.49777,12.921,30.725,-5.357,1.7857,-1.12,-7.1426,-4.0927e-12,-0.55999,0,0,0.16667,7.8949e-16,0,0.66667
0.031845,0.21756,0.19107,-0.42366,-20.147,191.08,0.21586,-0.071955,-1.3642,0.28782,-1.1523e-07,-0.68212,0,0,0.16667,1.2336e-17,0,0.66667
0.0086948,0.86808,0.052169,0.55212,26.352,197.93,-0.076809,0.025603,-0.91514,-0.10241,-1.3255e-07,-0.45757,0,0,0.16667,-0,-0,0.66667
0.35854,0.070706,2.1512,-0.64394,-26.837,99.015,3.694,-1.2313,-0.52683,4.9254,-6.7257e-13,-0.26341,0,0,0.16667,-0,-0,0.66667
0.030634,0.46881,0.1838,-0.046782,-2.2162,191.42,0.02293,-0.0076421,-1.9949,0.030574,1.7551e-06,-0.99743,0,0,0.16667,-0,-0,0.66667
0.51785,0.3809,3.1071,-0.17865,-6.1773,60.334,1.4802,-0.49341,-1.8871,1.9736,4.2855e-14,-0.94357,0,0,0.16667,-0,-0,0.66667
0.0035539,0.40624,0.021323,-0.14064,-6.6715,199.45,0.0079973,-0.0026653,-1.9307,0.010663,7.2719e-07,-0.96535,0,0,0.16667,-6.4981e-18,0,0.66667
0.48073,0.65258,2.8844,0.22887,8.326,68.696,-1.7604,0.58681,-1.814,-2.3472,-6.4393e-14,-0.90702,0,0,0.16667,7.8949e-16,0,0.66667
0.37761,0.94904,2.2657,0.67356,27.645,94.165,-4.0694,1.3565,-0.38679,-5.4259,1.7959e-12,-0.1934,0,0,0.16667,-0,-0,0.66667
0.95746,0.5817,5.7448,0.12255,0.42022,0.91358,-1.8774,0.62581,-1.9457,-2.5033,4.8255e-08,-0.97286,0,0,0.16667,1.579e-15,0,0.66667
0.055854,0.24063,0.33512,-0.38906,-18.451,183.98,0.34768,-0.11589,-1.4606,0.46358,-1.8541e-08,-0.7303,0,0,0.16667,4.9343e-17,0,0.66667
0.065191,0.52445,0.39115,0.03667,1.7313,181.2,-0.038249,0.01275,-1.9955,-0.050998,-4.7143e-08,-0.99774,0,0,0.16667,9.8686e-17,0,0.66667
0.84927,0.61228,5.0956,0.16841,2.16,7.5602,-2.2884,0.76281,-1.8979,-3.0513,1.5446e-09,-0.94896,0,0,0.16667,-0,-0,0.66667
0.79526,0.36054,4.7715,-0.2092,-3.5783,13.082,2.6618,-0.88728,-1.8447,3.5491,-3.4333e-10,-0.92235,0,0,0.16667,-0,-0,0.66667
0.93585,0.3409,5.6151,-0.23865,-1.2975,1.8474,3.5734,-1.1911,-1.7989,4.7646,9.1683e-09,-0.89946,0,0,0.16667,-7.8949e-16,0,0.66667
0.078237,0.9913,0.46942,0.73695,35.142,177.46,-0.92251,0.3075,-0.070604,-1.23,-3.0358e-08,-0.035302,0,0,0.16667,9.8686e-17,0,0.66667
0.6201,0.32638,3.7206,-0.26043,-7.5602,39.643,2.5838,-0.86128,-1.7577,3.4451,2.3017e-12,-0.87887,0,0,0.16667,-0,-0,0.66667
0.5144,0.72858,3.0864,0.34286,11.944,61.208,-2.8219,0.94064,-1.5828,-3.7626,-1.2057e-13,-0.7914,0,0,0.16667,-0,-0,0.66667
0.32157,0.92545,1.9294,0.63817,27.362,108.69,-3.2835,1.0945,-0.55057,-4.378,7.6139e-13,-0.27528,0,0,0.16667,3.9475e-16,0,0.66667
0.61081,0.55516,3.6649,0.082735,2.442,41.283,-0.80857,0.26952,-1.9765,-1.0781,-1.0033e-12,-0.98827,0,0,0.16667,-7.8949e-16,0,0.66667
0.91808,0.6612,5.5085,0.2418,1.6974,2.7195,-3.5519,1.184,-1.7921,-4.7358,8.5082e-10,-0.89607,0,0,0.16667,-0,-0,0.66667
0.062566,0.96324,0.37539,0.69486,33.166,182.05,-0.69559,0.23187,-0.2853,-0.92746,1.7057e-06,-0.14265,0,0,0.16667,-4.9343e-17,0,0.66667
0.65973,0.050748,3.9584,-0.67388,-18.192,33.255,7.1132,-2.3711,-0.38484,9.4843,4.2855e-13,-0.19242,0,0,0.16667,7.8949e-16,0,0.66667
0.28517,0.9244,1.711,0.63661,27.968,118.48,-2.9047,0.96822,-0.55827,-3.8729,3.9502e-13,-0.27914,0,0,0.16667,-0,-0,0.66667
0.40545,0.76995,2.4327,0.40493,16.074,86.86,-2.6268,0.87561,-1.418,-3.5024,1.8248e-12,-0.70898,0,0,0.16667,-0,-0,0.66667
0.84969,0.68059,5.0982,0.27088,3.4775,7.6243,-3.6827,1.2276,-1.7383,-4.9103,2.1007e-09,-0.86913,0,0,0.16667,-0,-0,0.66667
0.12173,0.018045,0.73038,-0.72293,-34.157,164.75,1.408,-0.46935,-0.14124,1.8774,-1.1429e-08,-0.070619,0,0,0.16667,-3.9475e-16,1.9264e-16,0.66667
0.84297,0.3251,5.0578,-0.26235,-3.5101,8.2193,3.5385,-1.1795,-1.7562,4.718,-1.7456e-09,-0.87808,0,0,0.16667,-0,-0,0.66667
0.40424,0.59201,2.4255,0.13801,5.4643,87.004,-0.89265,0.29755,-1.9337,-1.1902,1.4971e-13,-0.96685,0,0,0.16667,-0,-0,0.66667
0.98389,0.60256,5.9033,0.15384,0.15007,0.27342,-2.4218,0.80725,-1.9172,-3.229,-1.0524e-08,-0.9586,0,0,0.16667,-0,-0,0.66667
0.91802,0.68206,5.5081,0.27309,1.9231,2.7623,-4.0112,1.3371,-1.7348,-5.3483,5.9374e-10,-0.86738,0,0,0.16667,1.579e-15,0,0.66667
0.40767,0.91421,2.446,0.62132,24.753,86.549,-4.0527,1.3509,-0.62825,-5.4036,8.2112e-13,-0.31412,0,0,0.16667,7.8949e-16,0,0.66667
0.29792,0.17841,1.7875,-0.48238,-20.934,114.89,2.2994,-0.76646,-1.1736,3.0659,-4.7049e-12,-0.5868,0,0,0.16667,-3.9475e-16,0,0.66667
0.22095,0.13257,1.3257,-0.55114,-25.015,136.2,1.9484,-0.64945,-0.9204,2.5978,8.4925e-11,-0.4602,0,0,0.16667,7.8949e-16,0,0.66667
0.21774,0.65951,1.3064,0.23926,10.815,136.97,-0.83354,0.27785,-1.7982,-1.1114,-2.48e-10,-0.8991,0,0,0.16667,-0,-0,0.66667
0.76874,0.63348,4.6124,0.20022,3.8227,16.263,-2.4627,0.82089,-1.8573,-3.2836,1.2935e-10,-0.92867,0,0,0.16667,-0,-0,0.66667
0.75544,0.15447,4.5327,-0.51829,-10.522,18.441,6.2646,-2.0882,-1.045,8.3528,2.0961e-13,-0.52248,0,0,0.16667,1.9737e-15,0,0.66667
0.97825,0.53983,5.8695,0.059749,0.088744,0.32938,-0.9352,0.31173,-1.9862,-1.2469,8.0998e-07,-0.99312,0,0,0.16667,-0,-0,0.66667
0.08331,0.51249,0.49986,0.01873,0.88186,175.85,-0.024966,0.0083219,-1.9976,-0.033287,3.5245e-08,-0.9988,0,0,0.16667,-0,-0,0.66667
0.22018,0.77882,1.3211,0.41823,18.934,136.34,-1.4734,0.49113,-1.3797,-1.9645,-1.5455e-10,-0.68985,0,0,0.16667,1.9737e-16,0,0.66667
0.98371,0.51229,5.9023,0.018433,0.017841,0.21535,-0.29013,0.096713,-1.9998,-0.38684,5.5199e-06,-0.99989,0,0,0.16667,-0,-0,0.66667
0.54637,0.6823,3.2782,0.27346,9.0692,54.267,-2.3906,0.79685,-1.7359,-3.1874,-1.128e-12,-0.86795,0,0,0.16667,1.113e-15,0,0.66667
0.55367,0.87998,3.322,0.56998,18.831,53.11,-5.0493,1.6831,-0.84419,-6.7323,-4.281e-13,-0.4221,0,0,0.16667,1.579e-15,0,0.66667
0.34877,0.58031,2.0926,0.12047,5.0107,101.18,-0.67226,0.22409,-1.9473,-0.89635,2.3692e-12,-0.97363,0,0,0.16667,-0,-0,0.66667
0.70379,0.51064,4.2227,0.015955,0.3772,25.293,-0.17966,0.059887,-2.0002,-0.23955,1.4119e-13,-1.0001,0,0,0.16667,-0,-0,0.66667
0.49976,0.33378,2.9986,-0.24933,-8.8494,64.386,1.9937,-0.66457,-1.7804,2.6583,9.9032e-14,-0.8902,0,0,0.16667,3.9475e-16,0,0.66667
0.46949,0.67239,2.817,0.25858,9.5432,71.314,-1.9425,0.64749,-1.7631,-2.5899,2.2793e-13,-0.88155,0,0,0.16667,-7.8949e-16,0,0.66667
0.54977,0.23752,3.2986,-0.39371,-13.02,53.672,3.4632,-1.1544,-1.4485,4.6177,1.0214e-13,-0.72427,0,0,0.16667,-0,-0,0.66667
0.02518,0.33842,0.15108,-0.24237,-11.5,193.04,0.097649,-0.03255,-1.7905,0.1302,1.2531e-08,-0.89523,0,0,0.16667,-1.2336e-17,0,0.66667
0.53126,0.33415,3.1876,-0.24877,-8.4418,57.463,2.1146,-0.70488,-1.7816,2.8195,1.2212e-14,-0.89079,0,0,0.16667,-0,-0,0.66667
0.13296,0.9488,0.79779,0.67321,31.666,161.46,-1.4322,0.4774,-0.38719,-1.9096,1.0707e-08,-0.19359,0,0,0.16667,-0,-0,0.66667
0.45893,0.75295,2.7536,0.37943,14.212,73.883,-2.7861,0.92869,-1.4879,-3.7148,4.5386e-13,-0.74395,0,0,0.16667,-0,-0,0.66667
0.082271,0.356,0.49363,-0.21601,-10.183,176.17,0.28434,-0.094779,-1.8333,0.37912,-4.1624e-09,-0.91664,0,0,0.16667,-0,-0,0.66667
0.88896,0.7388,5.3338,0.35819,3.445,4.6675,-5.0947,1.6982,-1.5442,-6.793,6.8903e-09,-0.77211,0,0,0.16667,-0,-0,0.66667
0.37843,0.63,2.2706,0.19501,7.9138,93.538,-1.1807,0.39358,-1.865,-1.5743,2.1644e-12,-0.93248,0,0,0.16667,-0,-0,0.66667
0.43035,0.13911,2.5821,-0.54134,-21.021,80.888,3.7275,-1.2425,-0.95655,4.97,-3.1619e-13,-0.47827,0,0,0.16667,-7.8949e-16,0,0.66667
0.74206,0.6167,4.4524,0.17505,3.679,19.767,-2.0784,0.69279,-1.8899,-2.7711,3.1399e-11,-0.94494,0,0,0.16667,-0,-0,0.66667
0.15577,0.78972,0.93465,0.43458,20.185,154.75,-1.0831,0.36104,-1.3299,-1.4442,-1.6599e-09,-0.66495,0,0,0.16667,-0,-0,0.66667
0.57502,0.93349,3.4501,0.65024,20.797,48.907,-5.9824,1.9941,-0.49714,-7.9766,-1.7764e-13,-0.24857,0,0,0.16667,7.8949e-16,0,0.66667
0.51105,0.038345,3.0663,-0.69248,-24.499,62.441,5.6623,-1.8874,-0.29446,7.5497,-9.0772e-13,-0.14723,0,0,0.16667,-0,-0,0.66667
0.3683,0.76622,2.2098,0.39933,16.401,96.251,-2.3532,0.7844,-1.4315,-3.1376,3.1479e-12,-0.71577,0,0,0.16667,3.5333e-16,0,0.66667
0.68334,0.18924,4.1,-0.46614,-11.76,28.919,5.0965,-1.6988,-1.2279,6.7953,5.4374e-12,-0.61393,0,0,0.16667,-1.579e-15,0,0.66667
0.79449,0.57925,4.7669,0.11887,2.0367,13.107,-1.5111,0.5037,-1.9496,-2.0148,2.0802e-10,-0.97482,0,0,0.16667,1.579e-15,0,0.66667
0.46768,0.60175,2.8061,0.15263,5.6384,71.681,-1.1421,0.38071,-1.9182,-1.5228,-4.5297e-14,-0.95911,0,0,0.16667,-0,-0,0.66667
0.62735,0.076552,3.7641,-0.63517,-18.384,38.868,6.3756,-2.1252,-0.56543,8.5008,3.9968e-15,-0.28272,0,0,0.16667,-0,-0,0.66667
0.91254,0.74859,5.4752,0.37289,2.8302,3.2206,-5.4444,1.8148,-1.5056,-7.2592,1.0613e-08,-0.7528,0,0,0.16667,4.9343e-16,0,0.66667
0.45697,0.46272,2.7418,-0.05592,-2.0912,74.173,0.40886,-0.13629,-1.9887,0.54515,5.8012e-13,-0.99437,0,0,0.16667,7.8949e-16,0,0.66667
0.13502,0.97472,0.81012,0.71208,33.516,160.89,-1.5383,0.51278,-0.19645,-2.0511,-2.8891e-09,-0.098223,0,0,0.16667,-0,-0,0.66667
0.54323,0.79162,3.2594,0.43743,14.632,55.098,-3.802,1.2673,-1.3192,-5.0693,-1.6676e-13,-0.65958,0,0,0.16667,-0,-0,0.66667
0.43003,0.1151,2.5802,-0.57736,-22.451,81.013,3.9725,-1.3242,-0.81348,5.2966,-9.5657e-13,-0.40674,0,0,0.16667,-3.9475e-16,0,0.66667
0.76831,0.21489,4.6099,-0.42767,-8.2419,16.61,5.2573,-1.7524,-1.3504,7.0098,-1.1303e-10,-0.67519,0,0,0.16667,-1.9737e-15,0,0.66667
0.79767,0.15509,4.786,-0.51737,-8.8742,13.283,6.603,-2.201,-1.0506,8.804,-4.5179e-10,-0.52529,0,0,0.16667,1.875e-15,0,0.66667
0.17185,0.48559,1.0311,-0.021612,-0.99417,150.04,0.059424,-0.019808,-1.9997,0.079232,2.9576e-10,-0.99986,0,0,0.16667,-1.9737e-16,0,0.66667
0.43794,0.82676,2.6276,0.49014,18.851,78.995,-3.4344,1.1448,-1.1469,-4.5793,3.5505e-13,-0.57344,0,0,0.16667,-0,-0,0.66667
0.26682,0.55991,1.6009,0.089865,3.9548,123.22,-0.38365,0.12788,-1.973,-0.51153,-1.3427e-11,-0.98652,0,0,0.16667,4.9343e-16,0,0.66667
0.95469,0.45745,5.7281,-0.063826,-0.23437,0.97785,0.97494,-0.32498,-1.986,1.2999,3.6688e-07,-0.99299,0,0,0.16667,-0,-0,0.66667
0.93687,0.26601,5.6212,-0.35098,-1.9,1.9679,5.2612,-1.7537,-1.5629,7.0149,9.4197e-09,-0.78147,0,0,0.16667,-0,-0,0.66667
0.43435,0.096443,2.6061,-0.60534,-23.451,80.007,4.2068,-1.4023,-0.6978,5.6091,-3.7081e-13,-0.3489,0,0,0.16667,-1.579e-15,1.6482e-16,0.66667
0.43101,0.131,2.5861,-0.5535,-21.485,80.744,3.817,-1.2723,-0.90991,5.0894,-8.38e-13,-0.45495,0,0,0.16667,-0,-0,0.66667
0.74648,0.33578,4.4789,-0.24633,-5.1071,19.222,2.9421,-0.98069,-1.784,3.9228,-4.4369e-11,-0.892,0,0,0.16667,-0,-0,0.66667
0.59598,0.24476,3.5759,-0.38286,-11.685,44.348,3.6508,-1.2169,-1.4795,4.8677,1.747e-12,-0.73977,0,0,0.16667,-1.1842e-15,0,0.66667
0.25907,0.45586,1.5544,-0.06621,-2.9264,125.36,0.27445,-0.091483,-1.983,0.36593,1.1988e-11,-0.9915,0,0,0.16667,-3.068e-16,0,0.66667
0.48317,0.59661,2.899,0.14491,5.2507,68.096,-1.1203,0.37343,-1.927,-1.4937,-1.6014e-12,-0.96351,0,0,0.16667,1.579e-15,0,0.66667
0.89011,0.55187,5.3407,0.077807,0.73083,4.299,-1.1081,0.36937,-1.9797,-1.4775,6.9463e-09,-0.98983,0,0,0.16667,-0,-0,0.66667
0.68155,0.04317,4.0893,-0.68525,-17.547,29.666,7.4725,-2.4908,-0.32917,9.9633,8.1579e-13,-0.16458,0,0,0.16667,-0,-0,0.66667
0.56313,0.22848,3.3788,-0.40727,-13.182,50.925,3.6695,-1.2232,-1.4114,4.8927,1.894e-13,-0.7057,0,0,0.16667,-0,-0,0.66667
0.87675,0.15357,5.2605,-0.51965,-5.6118,5.8738,7.2896,-2.4299,-1.0413,9.7195,2.6629e-09,-0.52064,0,0,0.16667,7.8949e-16,0,0.66667
0.27628,0.88114,1.6577,0.57171,25.208,120.85,-2.5272,0.8424,-0.83734,-3.3696,1.4877e-13,-0.41867,0,0,0.16667,-0,-0,0.66667
0.99685,0.59528,5.9811,0.14292,-0.037162,0.083972,-2.2796,0.75985,-1.9283,-3.0394,7.5086e-07,-0.96413,0,0,0.16667,-0,-0,0.66667
0.19984,0.7393,1.199,0.35895,16.38,142.08,-1.1477,0.38257,-1.5415,-1.5303,-4.1889e-10,-0.77075,0,0,0.16667,-0,-0,0.66667
0.83979,0.75664,5.0388,0.38496,5.2809,8.6907,-5.1726,1.7242,-1.4728,-6.8968,1.7818e-09,-0.73641,0,0,0.16667,-0,-0,0.66667
0.74234,0.41112,4.4541,-0.13332,-2.7975,19.703,1.5835,-0.52782,-1.9361,2.1113,-2.3817e-11,-0.96804,0,0,0.16667,-0,-0,0.66667
0.86405,0.17985,5.1843,-0.48022,-5.676,6.7683,6.639,-2.213,-1.1794,8.852,-2.5715e-09,-0.5897,0,0,0.16667,7.8949e-16,0,0.66667
0.58492,0.37206,3.5095,-0.19191,-5.9556,46.341,1.7961,-0.59869,-1.8687,2.3948,3.4062e-13,-0.93434,0,0,0.16667,-9.8686e-16,0,0.66667
0.23238,0.27996,1.3943,-0.33006,-14.832,132.87,1.2272,-0.40907,-1.6142,1.6363,1.2385e-10,-0.80709,0,0,0.16667,4.4409e-16,0,0.66667
0.48352,0.030188,2.9011,-0.70472,-25.87,68.629,5.4519,-1.8173,-0.23648,7.2692,-1.3087e-12,-0.11824,0,0,0.16667,6.3658e-16,2.5917e-17,0.66667
0.86238,0.081894,5.1743,-0.62716,-7.6058,7.279,8.6535,-2.8845,-0.60116,11.538,-4.0463e-09,-0.30058,0,0,0.16667,-0,-0,0.66667
0.7978,0.10732,4.7868,-0.58902,-10.146,13.437,7.5187,-2.5062,-0.76718,10.025,-1.1267e-10,-0.38359,0,0,0.16667,-1.579e-15,0,0.66667
0.17351,0.08388,1.0411,-0.62418,-28.947,149.74,1.7328,-0.57761,-0.61527,2.3104,9.2876e-10,-0.30764,0,0,0.16667,1.9737e-16,0,0.66667
0.99221,0.37599,5.9533,-0.18602,-0.036734,0.1752,2.9531,-0.98435,-1.8769,3.9374,5.5293e-09,-0.93846,0,0,0.16667,-0,-0,0.66667
0.030412,0.98132,0.18247,0.72197,34.592,191.53,-0.35131,0.11711,-0.14753,-0.46841,5.6964e-06,-0.073767,0,0,0.16667,-0,-0,0.66667
0.39265,0.79194,2.3559,0.43791,17.611,90.092,-2.7511,0.91705,-1.3184,-3.6682,2.0504e-12,-0.65919,0,0,0.16667,-0,-0,0.66667
0.7544,0.023561,4.5264,-0.71466,-14.742,19.065,8.6262,-2.8754,-0.1835,11.502,-6.9669e-12,-0.091751,0,0,0.16667,-0,-0,0.66667
0.97374,0.77146,5.8424,0.40719,0.84553,0.85059,-6.3439,2.1146,-1.4096,-8.4586,-1.2245e-07,-0.70478,0,0,0.16667,1.579e-15,0,0.66667
0.14213,0.77632,0.85276,0.41448,19.325,158.7,-0.94254,0.31418,-1.3903,-1.2567,-3.2495e-09,-0.69517,0,0,0.16667,1.9737e-16,0,0.66667
0.92404,0.439,5.5442,-0.091506,-0.58935,2.2859,1.3529,-0.45096,-1.9716,1.8039,-9.358e-08,-0.9858,0,0,0.16667,-0,-0,0.66667
0.21902,0.22511,1.3141,-0.41234,-18.675,136.67,1.445,-0.48167,-1.3973,1.9267,1.6179e-10,-0.69863,0,0,0.16667,-0,-0,0.66667
0.55264,0.50474,3.3158,0.0071117,0.23296,52.846,-0.062884,0.020961,-1.9993,-0.083845,-1.1881e-12,-0.99965,0,0,0.16667,-0,-0,0.66667
0.43281,0.30191,2.5968,-0.29714,-11.445,80.058,2.0576,-0.68588,-1.6852,2.7435,-1.0245e-12,-0.84259,0,0,0.16667,-0,-0,0.66667
0.80806,0.51426,4.8483,0.021389,0.34384,11.564,-0.27654,0.092179,-1.9974,-0.36872,8.8568e-11,-0.99869,0,0,0.16667,-0,-0,0.66667
0.13857,0.33453,0.83142,-0.24821,-11.556,159.69,0.55031,-0.18344,-1.7813,0.73375,2.1754e-09,-0.89064,0,0,0.16667,9.8686e-17,0,0.66667
0.19087,0.099821,1.1452,-0.60027,-27.637,144.76,1.8332,-0.61106,-0.71889,2.4442,1.061e-10,-0.35945,0,0,0.16667,-0,-0,0.66667
0.56751,0.683,3.4051,0.2745,8.7937,49.893,-2.4925,0.83084,-1.7318,-3.3234,-7.9448e-13,-0.86589,0,0,0.16667,-0,-0,0.66667
0.20995,0.5164,1.2597,0.024601,1.1145,139.14,-0.08264,0.027547,-1.9964,-0.11019,-2.7517e-11,-0.99818,0,0,0.16667,-0,-0,0.66667
0.87999,0.035636,5.28,-0.69655,-7.4873,6.1404,9.8073,-3.2691,-0.27465,13.076,2.25e-08,-0.13733,0,0,0.16667,-0,-0,0.66667
0.57835,0.11715,3.4701,-0.57427,-18.206,48.099,5.3141,-1.7714,-0.82907,7.0854,3.0997e-13,-0.41454,0,0,0.16667,7.8949e-16,0,0.66667
0.91176,0.10797,5.4705,-0.58805,-4.6297,3.7676,8.5785,-2.8595,-0.7692,11.438,4.6112e-08,-0.3846,0,0,0.16667,-1.579e-15,0,0.66667
0.76434,0.49026,4.586,-0.014611,-0.28307,16.741,0.17868,-0.05956,-2,0.23824,-1.6079e-11,-0.99999,0,0,0.16667,-1.579e-15,0,0.66667
0.47494,0.59457,2.8497,0.14186,5.1936,69.99,-1.078,0.35934,-1.9286,-1.4374,-1.1846e-12,-0.96428,0,0,0.16667,1.579e-15,0,0.66667
0.69241,0.60405,4.1544,0.15608,3.8129,27.114,-1.7291,0.57637,-1.9124,-2.3055,-2.2532e-12,-0.95622,0,0,0.16667,-0,-0,0.66667
0.059802,0.57533,0.35881,0.11299,5.3399,182.79,-0.10812,0.036039,-1.9544,-0.14415,8.0179e-08,-0.97718,0,0,0.16667,-9.8686e-17,0,0.66667
0.63126,0.33956,3.7876,-0.24066,-6.8224,37.578,2.4307,-0.81022,-1.7936,3.2409,2.597e-12,-0.89678,0,0,0.16667,-3.9475e-16,0,0.66667
0.98405,0.019628,5.9043,-0.72056,-1.0623,1.571,11.345,-3.7817,-0.15519,15.127,-6.1829e-06,-0.077595,0,0,0.16667,-0,1.8442e-16,0.66667
0.11938,0.074443,0.71631,-0.63834,-30.101,165.4,1.2193,-0.40644,-0.54999,1.6258,3.0077e-08,-0.275,0,0,0.16667,1.9737e-16,0,0.66667
0.45157,0.058123,2.7094,-0.66282,-25.243,75.979,4.7889,-1.5963,-0.43917,6.3852,-1.3309e-12,-0.21959,0,0,0.16667,1.9737e-16,-9.5095e-17,0.66667
0.018534,0.92438,0.1112,0.63657,30.441,195.03,-0.18877,0.062924,-0.55885,-0.25169,5.1231e-07,-0.27943,0,0,0.16667,2.4672e-17,0,0.66667
0.68813,0.68056,4.1288,0.27084,6.707,27.886,-2.982,0.99399,-1.7406,-3.976,-4.4453e-12,-0.87032,0,0,0.16667,-0,-0,0.66667
0.019423,0.87546,0.11654,0.56319,26.88,194.76,-0.17502,0.05834,-0.87305,-0.23336,4.8472e-07,-0.43653,0,0,0.16667,-0,-0,0.66667
0.45527,0.64893,2.7316,0.2234,8.3818,74.631,-1.6273,0.54244,-1.823,-2.1698,2.6079e-13,-0.91152,0,0,0.16667,-3.9475e-16,0,0.66667
0.21915,0.61545,1.3149,0.17318,7.8177,136.55,-0.60724,0.20241,-1.8947,-0.80965,-1.6776e-10,-0.94736,0,0,0.16667,-0,-0,0.66667
0.80722,0.053099,4.8433,-0.67035,-11.132,12.622,8.6579,-2.886,-0.40126,11.544,3.0123e-11,-0.20063,0,0,0.16667,7.8949e-16,0,0.66667
0.64564,0.84299,3.8738,0.51448,14.242,35.361,-5.3147,1.7716,-1.0592,-7.0863,-2.2626e-12,-0.52962,0,0,0.16667,3.9475e-16,0,0.66667
0.66627,0.77702,3.9976,0.41553,10.923,31.652,-4.4296,1.4765,-1.3857,-5.9062,-5.0693e-12,-0.69284,0,0,0.16667,1.184e-15,0,0.66667
0.54989,0.81526,3.2993,0.47289,15.669,53.748,-4.1606,1.3869,-1.2056,-5.5475,-8.7086e-13,-0.6028,0,0,0.16667,1.579e-15,0,0.66667
0.25045,0.29479,1.5027,-0.30782,-13.699,127.81,1.2335,-0.41116,-1.6642,1.6446,5.1197e-11,-0.8321,0,0,0.16667,-0,-0,0.66667
0.81569,0.9147,4.8941,0.62205,9.8788,11.591,-8.1184,2.7061,-0.62403,-10.825,-6.2822e-10,-0.31201,0,0,0.16667,-0,-0,0.66667
0.88012,0.77327,5.2807,0.40991,4.267,5.3868,-5.7723,1.9241,-1.4018,-7.6965,4.7329e-09,-0.70089,0,0,0.16667,-7.8949e-16,0,0.66667
0.43832,0.8791,2.6299,0.56865,21.91,79.001,-3.988,1.3293,-0.852,-5.3173,4.0412e-14,-0.426,0,0,0.16667,1.579e-15,0,0.66667
0.58633,0.74113,3.518,0.3617,11.231,46.208,-3.3932,1.1311,-1.5336,-4.5243,-1.4502e-12,-0.76681,0,0,0.16667,3.9475e-16,0,0.66667
0.6243,0.18345,3.7458,-0.47483,-13.743,39.129,4.743,-1.581,-1.2002,6.324,1.4024e-12,-0.60008,0,0,0.16667,7.8949e-16,-3.3221e-18,0.66667
0.72761,0.10077,4.3656,-0.59884,-13.4,22.44,6.9715,-2.3238,-0.72396,9.2954,6.4393e-13,-0.36198,0,0,0.16667,-0,-0,0.66667
0.5909,0.60245,3.5454,0.15368,4.7149,45.141,-1.4529,0.4843,-1.916,-1.9372,-1.1865e-12,-0.958,0,0,0.16667,-0,-0,0.66667
0.8066,0.035633,4.8396,-0.69655,-11.626,12.766,8.9894,-2.9965,-0.27442,11.986,1.0609e-10,-0.13721,0,0,0.16667,-0,-0,0.66667
0.82409,0.10417,4.9445,-0.59375,-9.0157,10.66,7.8288,-2.6096,-0.74587,10.438,-1.7214e-10,-0.37293,0,0,0.16667,-0,-0,0.66667
0.55655,0.97893,3.3393,0.71839,23.767,52.798,-6.3972,2.1324,-0.16384,-8.5295,2.3093e-14,-0.08192,0,0,0.16667,-0,-0,0.66667
0.88295,0.62833,5.2977,0.1925,1.9315,4.8737,-2.7195,0.90649,-1.8678,-3.626,-8.5537e-10,-0.93388,0,0,0.16667,-0,-0,0.66667
0.20294,0.6236,1.2176,0.18541,8.4314,141.15,-0.60202,0.20067,-1.8804,-0.80269,-4.1698e-10,-0.94022,0,0,0.16667,-1.2336e-16,0,0.66667
0.41362,0.76532,2.4817,0.39798,15.668,84.831,-2.6337,0.87791,-1.4353,-3.5117,1.2534e-12,-0.71766,0,0,0.16667,-0,-0,0.66667
0.63011,0.75902,3.7807,0.38853,11.079,37.943,-3.9171,1.3057,-1.4624,-5.2228,-3.195e-12,-0.73119,0,0,0.16667,1.579e-15,0,0.66667
0.10257,0.91683,0.61544,0.62525,29.585,170.3,-1.0261,0.34204,-0.6087,-1.3682,-1.6935e-09,-0.30435,0,0,0.16667,-0,-0,0.66667
0.71864,0.8183,4.3119,0.47745,10.916,23.489,-5.4899,1.83,-1.1915,-7.3198,3.3618e-13,-0.59573,0,0,0.16667,1.579e-15,6.799e-18,0.66667
0.47968,0.89464,2.8781,0.59196,21.746,69.318,-4.5433,1.5144,-0.75311,-6.0577,-7.0299e-13,-0.37655,0,0,0.16667,7.8949e-16,0,0.66667
0.37899,0.21618,2.274,-0.42573,-17.332,93.537,2.5816,-0.86054,-1.3559,3.4421,-2.047e-12,-0.67795,0,0,0.16667,1.9737e-16,0,0.66667
0.45185,0.012101,2.7111,-0.73185,-27.936,76.029,5.2909,-1.7636,-0.096227,7.0546,-5.6799e-13,-0.048114,0,0,0.16667,-0,1.8733e-16,0.66667
0.36759,0.15763,2.2055,-0.51356,-21.161,96.537,3.0204,-1.0068,-1.0621,4.0272,-1.2483e-12,-0.53107,0,0,0.16667,-0,-0,0.66667
0.23954,0.15483,1.4372,-0.51776,-23.268,130.97,1.9844,-0.66146,-1.047,2.6458,2.6107e-11,-0.52352,0,0,0.16667,-4.0863e-16,0,0.66667
0.91587,0.59212,5.4952,0.13818,0.9912,2.7429,-2.025,0.67498,-1.9321,-2.6999,1.4284e-08,-0.96604,0,0,0.16667,-2.1711e-15,0,0.66667
0.79936,0.081268,4.7962,-0.6281,-10.775,13.365,8.0332,-2.6777,-0.59719,10.711,-2.7666e-10,-0.2986,0,0,0.16667,7.8949e-16,0,0.66667
0.33394,0.58875,2.0036,0.13313,5.6024,105.08,-0.71132,0.23711,-1.9364,-0.94842,2.1004e-12,-0.96821,0,0,0.16667,3.9475e-16,0,0.66667
0.16905,0.84906,1.0143,0.52359,24.257,150.96,-1.4162,0.47207,-1.0257,-1.8883,-1.6131e-09,-0.51283,0,0,0.16667,-0,-0,0.66667
0.11663,0.21968,0.69976,-0.42048,-19.74,166.13,0.78463,-0.26154,-1.3713,1.0462,5.1536e-09,-0.68567,0,0,0.16667,-0,-0,0.66667
0.79533,0.52872,4.772,0.043074,0.73467,12.985,-0.54813,0.18271,-1.9949,-0.73084,4.006e-11,-0.99747,0,0,0.16667,3.9475e-16,0,0.66667
0.70203,0.63458,4.2122,0.20186,4.8048,25.64,-2.2674,0.75581,-1.856,-3.0232,-1.1753e-12,-0.928,0,0,0.16667,-0,-0,0.66667
0.075233,0.23456,0.4514,-0.39815,-18.836,178.27,0.47927,-0.15976,-1.436,0.63902,1.3607e-08,-0.71799,0,0,0.16667,-0,-0,0.66667
0.11659,0.94458,0.69956,0.66687,31.493,166.22,-1.2441,0.41468,-0.41777,-1.6587,-3.0473e-08,-0.20888,0,0,0.16667,-0,-0,0.66667
0.9138,0.083089,5.4828,-0.62537,-4.8406,3.7639,9.1434,-3.0478,-0.60811,12.191,-3.5583e-08,-0.30405,0,0,0.16667,-7.8949e-16,0,0.66667
0.86977,0.14118,5.2186,-0.53824,-6.1386,6.4512,7.4903,-2.4968,-0.96874,9.9871,-9.4354e-10,-0.48437,0,0,0.16667,-1.579e-15,0,0.66667
0.29195,0.079273,1.7517,-0.63109,-27.603,116.64,2.948,-0.98266,-0.58278,3.9306,-4.0477e-12,-0.29139,0,0,0.16667,3.9475e-16,0,0.66667
0.102,0.12575,0.612,-0.56138,-26.522,170.44,0.91617,-0.30539,-0.8795,1.2216,-2.1943e-08,-0.43975,0,0,0.16667,-0,-0,0.66667
0.80889,0.6429,4.8533,0.21435,3.4419,11.572,-2.7741,0.9247,-1.836,-3.6988,5.8155e-10,-0.91799,0,0,0.16667,-0,-0,0.66667
0.026174,0.61649,0.15704,0.17474,8.2854,192.74,-0.073178,0.024393,-1.8906,-0.097571,-3.9674e-09,-0.9453,0,0,0.16667,-0,-0,0.66667
0.63635,0.81808,3.8181,0.47713,13.462,36.947,-4.8579,1.6193,-1.1903,-6.4772,-2.383e-12,-0.59517,0,0,0.16667,-0,-0,0.66667
0.16009,0.3699,0.96052,-0.19515,-9.021,153.44,0.49985,-0.16662,-1.8646,0.66647,1.4168e-09,-0.93229,0,0,0.16667,-1.9737e-16,0,0.66667
0.69162,0.84504,4.1497,0.51757,12.801,27.687,-5.7274,1.9091,-1.0481,-7.6365,-5.4143e-12,-0.52405,0,0,0.16667,1.579e-15,0,0.66667
0.16802,0.53761,1.0081,0.056421,2.599,151.14,-0.15168,0.050559,-1.9885,-0.20224,3.0812e-10,-0.99424,0,0,0.16667,-0,-0,0.66667
0.34905,0.76668,2.0943,0.40002,16.695,101.24,-2.234,0.74467,-1.4298,-2.9787,3.6866e-12,-0.71491,0,0,0.16667,3.9475e-16,0,0.66667
0.12209,0.43894,0.73252,-0.091597,-4.2785,164.48,0.17893,-0.059642,-1.9712,0.23857,-9.763e-09,-0.98559,0,0,0.16667,-0,-0,0.66667
0.28709,0.0035861,1.7225,-0.74462,-32.79,118.07,3.4203,-1.1401,-0.028241,4.5604,-1.0789e-12,-0.014121,0,0,0.16667,-0,-0,0.66667
0.1291,0.82795,0.77458,0.49192,23.055,162.51,-1.0161,0.3387,-1.1387,-1.3548,-5.2947e-09,-0.56936,0,0,0.16667,1.9737e-16,0,0.66667
0.46339,0.60416,2.7803,0.15624,5.8022,72.688,-1.1584,0.38614,-1.9121,-1.5446,3.8902e-13,-0.95607,0,0,0.16667,-0,-0,0.66667
0.64941,0.9215,3.8964,0.63225,17.443,34.935,-6.5694,2.1898,-0.57719,-8.7592,-1.1937e-12,-0.28859,0,0,0.16667,7.8949e-16,0,0.66667
0.39451,0.77,2.3671,0.40499,16.247,89.595,-2.5564,0.85213,-1.4161,-3.4085,1.9562e-12,-0.70807,0,0,0.16667,-3.9475e-16,0,0.66667
0.95296,0.16314,5.7178,-0.50529,-2.0672,1.676,7.7043,-2.5681,-1.094,10.272,-2.2431e-08,-0.547,0,0,0.16667,-0,-0,0.66667
0.75487,0.80105,4.5292,0.45157,9.1563,18.386,-5.454,1.818,-1.274,-7.272,5.0298e-11,-0.63698,0,0,0.16667,-7.8949e-16,0,0.66667
0.54438,0.34144,3.2663,-0.23784,-7.9084,54.662,2.0716,-0.69053,-1.7999,2.7621,1.7208e-13,-0.89996,0,0,0.16667,-2.9606e-16,0,0.66667
0.56352,0.57896,3.3811,0.11844,3.8124,50.616,-1.0679,0.35597,-1.9508,-1.4239,-4.1256e-13,-0.9754,0,0,0.16667,-0,-0,0.66667
0.3206,0.8383,1.9236,0.50745,21.694,108.82,-2.6031,0.86769,-1.0836,-3.4707,3.3016e-12,-0.5418,0,0,0.16667,-7.5373e-18,0,0.66667
0.51252,0.96563,3.0751,0.69845,24.665,62.129,-5.7275,1.9092,-0.26609,-7.6367,1.2346e-13,-0.13304,0,0,0.16667,1.9737e-16,-7.0854e-17,0.66667
0.75781,0.73982,4.5469,0.35973,7.1894,17.849,-4.3617,1.4539,-1.5386,-5.8156,7.4799e-11,-0.76928,0,0,0.16667,7.8949e-16,0,0.66667
0.0018096,0.16617,0.010858,-0.50075,-23.874,199.96,0.014498,-0.0048324,-1.1089,0.019332,6.4785e-07,-0.55443,0,0,0.16667,-0,3.4209e-16,0.66667
0.48059,0.64674,2.8836,0.22011,8.0077,68.723,-1.6925,0.56417,-1.8272,-2.2567,-5.7554e-13,-0.91362,0,0,0.16667,7.8949e-16,0,0.66667
0.90416,0.62556,5.4249,0.18833,1.5469,3.4612,-2.7245,0.90818,-1.8755,-3.6327,-1.6925e-09,-0.93775,0,0,0.16667,-0,-0,0.66667
0.8495,0.90819,5.097,0.61228,8.0614,8.3245,-8.3221,2.774,-0.66703,-11.096,-6.9282e-09,-0.33351,0,0,0.16667,-0,-0,0.66667
0.221,0.75037,1.326,0.37556,16.982,136.09,-1.3279,0.44265,-1.5001,-1.7706,-1.9103e-10,-0.75004,0,0,0.16667,-7.8949e-16,0,0.66667
0.73624,0.14126,4.4174,-0.53811,-11.676,21.085,6.3388,-2.1129,-0.97061,8.4517,-5.5747e-12,-0.4853,0,0,0.16667,-0,-0,0.66667
0.58487,0.63432,3.5092,0.20148,6.2538,46.355,-1.8855,0.62849,-1.8544,-2.514,-1.226e-12,-0.92722,0,0,0.16667,1.579e-15,0,0.66667
0.52554,0.11453,3.1532,-0.57821,-19.952,59.081,4.8619,-1.6206,-0.81014,6.4825,-6.2483e-13,-0.40507,0,0,0.16667,7.8949e-16,0,0.66667
0.66144,0.4526,3.9687,-0.071098,-1.8785,32.172,0.75244,-0.25081,-1.9808,1.0033,1.621e-12,-0.99041,0,0,0.16667,-0,-0,0.66667
0.63207,0.60237,3.7924,0.15356,4.3404,37.373,-1.553,0.51766,-1.915,-2.0706,-2.5165e-12,-0.95749,0,0,0.16667,-0,-0,0.66667
0.071417,0.045138,0.4285,-0.68229,-32.514,179.45,0.77964,-0.25988,-0.34334,1.0395,6.6403e-07,-0.17167,0,0,0.16667,-0,-0,0.66667
0.41684,0.78662,2.5011,0.42994,16.883,84.065,-2.8674,0.95582,-1.3423,-3.8233,2.3541e-12,-0.67117,0,0,0.16667,-1.579e-15,0,0.66667
0.1993,0.095559,1.1958,-0.60666,-27.841,142.36,1.9345,-0.64483,-0.69197,2.5793,5.2556e-10,-0.34599,0,0,0.16667,-0,-0,0.66667
0.70058,0.52862,4.2035,0.042923,1.0241,25.791,-0.48114,0.16038,-1.9944,-0.64152,-5.9222e-13,-0.99721,0,0,0.16667,-0,-0,0.66667
0.27331,0.28183,1.6399,-0.32726,-14.38,121.5,1.4311,-0.47703,-1.6192,1.9081,1.0057e-11,-0.80962,0,0,0.16667,-0,-0,0.66667
0.43642,0.72147,2.6185,0.33221,12.753,79.21,-2.3197,0.77324,-1.6094,-3.093,2.9798e-13,-0.8047,0,0,0.16667,1.579e-15,0,0.66667
0.82163,0.66364,4.9298,0.24545,3.7004,10.267,-3.2267,1.0756,-1.7848,-4.3023,9.9336e-10,-0.8924,0,0,0.16667,-0,-0,0.66667
0.78306,0.18049,4.6984,-0.47927,-8.7332,14.897,6.0048,-2.0016,-1.184,8.0064,-1.883e-10,-0.59199,0,0,0.16667,7.8949e-16,0,0.66667
0.85416,0.57525,5.125,0.11288,1.4008,7.0964,-1.5427,0.51423,-1.9535,-2.0569,5.7428e-10,-0.97677,0,0,0.16667,-0,-0,0.66667
0.47905,0.26242,2.8743,-0.35636,-13.019,69.177,2.7315,-0.91049,-1.5473,3.642,-7.7027e-13,-0.77364,0,0,0.16667,-7.8949e-16,0,0.66667
0.92649,0.15387,5.559,-0.5192,-3.3713,2.8087,7.6966,-2.5655,-1.0417,10.262,-8.0385e-08,-0.52085,0,0,0.16667,3.9475e-16,0,0.66667
0.031555,0.93274,0.18933,0.64911,31.031,191.18,-0.32772,0.10924,-0.50389,-0.43696,2.8984e-07,-0.25195,0,0,0.16667,1.2336e-17,0,0.66667
0.93828,0.7027,5.6297,0.30404,1.5976,1.8303,-4.5645,1.5215,-1.6721,-6.086,-1.4316e-08,-0.83607,0,0,0.16667,-0,-0,0.66667
0.34863,0.066985,2.0918,-0.64952,-27.293,101.59,3.6231,-1.2077,-0.49972,4.8308,3.4683e-13,-0.24986,0,0,0.16667,-7.8949e-16,0,0.66667
0.81282,0.82677,4.8769,0.49016,7.8195,11.572,-6.3746,2.1249,-1.1469,-8.4994,4.7728e-10,-0.57346,0,0,0.16667,-1.579e-15,0,0.66667
0.94832,0.039593,5.6899,-0.69061,-3.2764,2.4013,10.479,-3.4929,-0.30346,13.972,1.1142e-06,-0.15173,0,0,0.16667,-0,-1.0606e-16,0.66667
0.89181,0.40842,5.3509,-0.13737,-1.2721,4.2137,1.9602,-0.65339,-1.9347,2.6136,1.0247e-08,-0.96736,0,0,0.16667,-0,-0,0.66667
0.69802,0.9162,4.1881,0.62431,15.254,26.912,-6.9724,2.3241,-0.61323,-9.2966,-2.3155e-12,-0.30661,0,0,0.16667,-0,-0,0.66667
0.67018,0.22221,4.0211,-0.41668,-10.849,30.998,4.468,-1.4893,-1.384,5.9574,4.7153e-12,-0.69198,0,0,0.16667,-0,-0,0.66667
0.97358,0.6843,5.8415,0.27645,0.55261,0.62228,-4.3064,1.4355,-1.7282,-5.7419,-2.0005e-08,-0.86411,0,0,0.16667,-2.0802e-15,0,0.66667
0.46511,0.43215,2.7907,-0.10177,-3.77,72.267,0.75735,-0.25245,-1.9632,1.0098,-1.8802e-13,-0.9816,0,0,0.16667,-5.9212e-16,0,0.66667
0.10402,0.46534,0.6241,-0.051992,-2.4384,169.77,0.086529,-0.028843,-1.9902,0.11537,-3.1206e-08,-0.99509,0,0,0.16667,9.8686e-17,0,0.66667
0.024147,0.41298,0.14488,-0.13053,-6.1881,193.34,0.050433,-0.016811,-1.9384,0.067243,-7.1932e-10,-0.96922,0,0,0.16667,4.9343e-17,0,0.66667
0.8813,0.92694,5.2878,0.64042,6.7634,5.8701,-9.0304,3.0101,-0.54049,-12.041,3.4481e-08,-0.27024,0,0,0.16667,-0,-0,0.66667
0.026191,0.433,0.15715,-0.1005,-4.7629,192.74,0.042113,-0.014038,-1.9638,0.056151,-6.5821e-07,-0.98189,0,0,0.16667,3.7007e-17,0,0.66667
0.95083,0.058909,5.705,-0.66164,-2.9609,2.2129,10.066,-3.3552,-0.44444,13.421,-9.5372e-08,-0.22222,0,0,0.16667,1.9737e-15,0,0.66667
0.56992,0.88755,3.4195,0.58133,18.705,49.804,-5.301,1.767,-0.79695,-7.068,-6.4793e-13,-0.39847,0,0,0.16667,-0,-0,0.66667
0.65757,0.77338,3.9454,0.41007,11.005,33.122,-4.3144,1.4381,-1.403,-5.7525,-4.6385e-12,-0.7015,0,0,0.16667,3.9475e-16,0,0.66667
0.90917,0.27292,5.455,-0.34062,-2.6775,3.3574,4.9549,-1.6516,-1.5875,6.6065,-7.5068e-09,-0.79373,0,0,0.16667,-7.8949e-16,0,0.66667
0.90195,0.84431,5.4117,0.51647,4.4646,4.1531,-7.4533,2.4844,-1.0522,-9.9377,1.9151e-08,-0.52611,0,0,0.16667,-3.158e-15,0,0.66667
0.39086,0.59887,2.3451,0.1483,5.948,90.367,-0.92744,0.30915,-1.9238,-1.2366,1.531e-12,-0.96189,0,0,0.16667,-7.8949e-16,0,0.66667
0.61254,0.039673,3.6752,-0.69049,-20.647,41.724,6.7672,-2.2557,-0.30465,9.023,-5.6399e-13,-0.15232,0,0,0.16667,-0,-0,0.66667
0.52184,0.63292,3.131,0.19938,6.8562,59.473,-1.6647,0.55491,-1.8576,-2.2196,1.4377e-13,-0.92882,0,0,0.16667,-0,-0,0.66667
0.81704,0.11365,4.9022,-0.57953,-9.1115,11.339,7.576,-2.5253,-0.80494,10.101,-5.2867e-10,-0.40247,0,0,0.16667,-0,-0,0.66667
0.056183,0.87675,0.3371,0.56513,26.898,183.91,-0.50801,0.16934,-0.86436,-0.67735,-1.8723e-07,-0.43218,0,0,0.16667,1.9737e-16,0,0.66667
0.62698,0.98826,3.7619,0.73239,21.316,39.159,-7.3471,2.449,-0.09299,-9.7961,-3.1086e-15,-0.046495,0,0,0.16667,-0,-0,0.66667
0.42974,0.92015,2.5784,0.63022,24.556,81.156,-4.3333,1.4444,-0.58627,-5.7777,7.625e-13,-0.29313,0,0,0.16667,-7.8949e-16,0,0.66667
0.86093,0.77428,5.1656,0.41142,4.943,6.8824,-5.6672,1.8891,-1.399,-7.5563,3.9834e-09,-0.69951,0,0,0.16667,1.579e-15,0,0.66667
0.68787,0.75936,4.1272,0.38905,9.6725,28.07,-4.2818,1.4273,-1.4632,-5.7091,-5.1887e-12,-0.73161,0,0,0.16667,-0,-0,0.66667
0.26102,0.80646,1.5661,0.45969,20.394,124.96,-1.9198,0.63995,-1.2483,-2.5598,-7.504e-12,-0.62413,0,0,0.16667,1.9737e-16,0,0.66667
0.13424,0.024918,0.80543,-0.71262,-33.549,161.11,1.5306,-0.51019,-0.19354,2.0408,2.54e-09,-0.096768,0,0,0.16667,-1.9737e-16,0,0.66667
0.54134,0.32024,3.2481,-0.26964,-9.013,55.327,2.3355,-0.7785,-1.7406,3.114,-1.7653e-13,-0.87031,0,0,0.16667,-0,-0,0.66667
0.9819,0.96711,5.8914,0.70066,1.1545,1.5331,-11.008,3.6692,-0.25566,-14.677,-3.6978e-07,-0.12783,0,0,0.16667,-1.8284e-15,0,0.66667
0.34991,0.32517,2.0994,-0.26224,-10.912,100.93,1.4681,-0.48938,-1.7541,1.9575,-3.7724e-12,-0.87707,0,0,0.16667,7.8949e-16,0,0.66667
0.99541,0.68646,5.9725,0.27969,-0.017551,0.25272,-4.4546,1.4849,-1.7223,-5.9394,4.7344e-08,-0.86115,0,0,0.16667,-4.9343e-16,0,0.66667
0.51808,0.83483,3.1085,0.50225,17.476,60.588,-4.1632,1.3877,-1.1033,-5.551,-3.2463e-13,-0.55163,0,0,0.16667,3.9475e-16,0,0.66667
0.19034,0.60302,1.142,0.15453,7.0622,144.74,-0.47059,0.15686,-1.915,-0.62746,-4.6078e-10,-0.95751,0,0,0.16667,-0,-0,0.66667
0.030616,0.62382,0.18369,0.18574,8.8053,191.43,-0.090983,0.030328,-1.8797,-0.12131,5.2212e-08,-0.93986,0,0,0.16667,-6.1679e-17,0,0.66667
0.30302,0.21196,1.8181,-0.43206,-18.666,113.48,2.0948,-0.69826,-1.3354,2.7931,-4.8361e-12,-0.6677,0,0,0.16667,5.9212e-16,0,0.66667
0.035078,0.79402,0.21047,0.44102,20.975,190.12,-0.24752,0.082508,-1.3077,-0.33003,1.072e-07,-0.65386,0,0,0.16667,4.9343e-17,0,0.66667
0.59005,0.69449,3.5403,0.29174,8.9835,45.405,-2.7542,0.91807,-1.6972,-3.6723,-1.5481e-12,-0.84859,0,0,0.16667,-0,-0,0.66667
0.70162,0.70425,4.2097,0.30638,7.3179,25.802,-3.4394,1.1465,-1.6666,-4.5859,-2.8153e-12,-0.83331,0,0,0.16667,-7.8949e-16,0,0.66667
0.66999,0.56748,4.0199,0.10121,2.6195,30.739,-1.085,0.36167,-1.9645,-1.4467,-2.3349e-12,-0.98225,0,0,0.16667,-0,-0,0.66667
0.35621,0.52222,2.1373,0.033323,1.3772,99.224,-0.18992,0.063307,-1.9958,-0.25323,1.9623e-13,-0.99792,0,0,0.16667,-0,-0,0.66667
0.11164,0.33141,0.66987,-0.25288,-11.856,167.55,0.45172,-0.15057,-1.7726,0.60229,4.0912e-09,-0.88632,0,0,0.16667,1.9737e-16,0,0.66667
0.64132,0.80213,3.8479,0.4532,12.639,36.022,-4.6504,1.5501,-1.2708,-6.2005,-3.1983e-12,-0.6354,0,0,0.16667,7.8949e-16,0,0.66667
0.063197,0.15304,0.37918,-0.52045,-24.724,181.83,0.52625,-0.17542,-1.0389,0.70167,1.947e-08,-0.51945,0,0,0.16667,-9.8686e-17,0,0.66667
0.64436,0.39764,3.8662,-0.15354,-4.2241,35.171,1.583,-0.52766,-1.9158,2.1106,2.1523e-12,-0.95789,0,0,0.16667,7.8949e-16,0,0.66667
0.83529,0.12214,5.0117,-0.56679,-8.0823,9.5,7.5749,-2.525,-0.85739,10.1,1.1285e-09,-0.4287,0,0,0.16667,-2.1711e-15,0,0.66667
0.057159,0.43351,0.34295,-0.099729,-4.7142,183.57,0.091207,-0.030402,-1.9643,0.12161,-1.9953e-07,-0.98217,0,0,0.16667,9.1733e-18,0,0.66667
0.35587,0.93599,2.1352,0.65399,27.324,99.717,-3.7238,1.2413,-0.48003,-4.965,1.2308e-12,-0.24001,0,0,0.16667,-8.3884e-16,1.7878e-16,0.66667
0.61872,0.37724,3.7123,-0.18414,-5.3543,39.844,1.8229,-0.60765,-1.8793,2.4306,1.3318e-12,-0.93963,0,0,0.16667,-0,-0,0.66667
0.6386,0.96193,3.8316,0.6929,19.636,36.974,-7.0798,2.3599,-0.29355,-9.4397,-9.6811e-13,-0.14678,0,0,0.16667,-0,-0,0.66667
0.19794,0.37041,1.1876,-0.19438,-8.8588,142.58,0.6156,-0.2052,-1.8653,0.8208,5.09e-10,-0.93265,0,0,0.16667,2.1589e-16,0,0.66667
0.62336,0.9519,3.7402,0.67785,19.821,39.69,-6.7608,2.2536,-0.36658,-9.0143,-1.7852e-13,-0.18329,0,0,0.16667,-0,-0,0.66667
0.55754,0.80246,3.3452,0.45369,14.84,52.133,-4.0472,1.3491,-1.2672,-5.3963,-7.9137e-13,-0.6336,0,0,0.16667,7.8949e-16,0,0.66667
0.88572,0.99214,5.3143,0.73821,7.6227,5.8766,-10.461,3.4872,-0.061689,-13.949,1.1669e-08,-0.030844,0,0,0.16667,-0,-0,0.66667
0.69703,0.2449,4.1822,-0.38265,-9.2785,26.614,4.2675,-1.4225,-1.4788,5.69,4.0505e-12,-0.73938,0,0,0.16667,1.1842e-15,0,0.66667
0.36426,0.31484,2.1856,-0.27775,-11.423,97.211,1.6188,-0.53959,-1.7258,2.1583,-3.2041e-12,-0.86291,0,0,0.16667,-0,-0,0.66667
0.22535,0.15108,1.3521,-0.52338,-23.69,134.95,1.8871,-0.62902,-1.0253,2.5161,9.3147e-11,-0.51267,0,0,0.16667,-6.394e-17,0,0.66667
0.61091,0.73881,3.6655,0.35821,10.616,41.462,-3.5013,1.1671,-1.5443,-4.6684,-1.8661e-12,-0.77213,0,0,0.16667,-7.8949e-16,0,0.66667
0.25557,0.89698,1.5334,0.59547,26.587,126.57,-2.4349,0.81163,-0.73824,-3.2465,-4.0445e-12,-0.36912,0,0,0.16667,-0,-0,0.66667
0.075813,0.71899,0.45488,0.32849,15.522,178.08,-0.39846,0.13282,-1.6179,-0.53128,-8.7572e-10,-0.80895,0,0,0.16667,1.9737e-16,0,0.66667
0.8227,0.6044,4.9362,0.1566,2.3418,10.079,-2.0614,0.68713,-1.9117,-2.7485,7.9142e-10,-0.95585,0,0,0.16667,-0,-0,0.66667
0.22795,0.71192,1.3677,0.31788,14.313,134.11,-1.1594,0.38647,-1.6398,-1.5459,-1.5389e-10,-0.8199,0,0,0.16667,1.9737e-16,0,0.66667
0.37955,0.3177,2.2773,-0.27345,-11.096,93.287,1.6606,-0.55353,-1.7339,2.2141,-1.8121e-12,-0.86693,0,0,0.16667,-0,-0,0.66667
0.84649,0.95893,5.0789,0.68839,9.303,8.8143,-9.3234,3.1078,-0.31502,-12.431,3.3723e-09,-0.15751,0,0,0.16667,-0,-0,0.66667
0.10315,0.53457,0.6189,0.051858,2.4326,170.02,-0.085587,0.028529,-1.9901,-0.11412,3.034e-08,-0.99504,0,0,0.16667,-3.9475e-16,0,0.66667
0.96939,0.034086,5.8163,-0.69887,-1.9686,1.7899,10.84,-3.6132,-0.26547,14.453,1.0961e-05,-0.13274,0,0,0.16667,3.158e-15,0,0.66667
0.52282,0.72581,3.1369,0.33872,11.657,59.362,-2.8335,0.94448,-1.5911,-3.7779,-9.8499e-13,-0.79553,0,0,0.16667,1.579e-15,0,0.66667
0.67334,0.94224,4.04,0.66336,17.321,30.953,-7.1466,2.3822,-0.43661,-9.5288,-3.5882e-13,-0.2183,0,0,0.16667,-0,-0,0.66667
0.73153,0.051846,4.3892,-0.67223,-14.923,22.064,7.8681,-2.6227,-0.39308,10.491,-4.2899e-13,-0.19654,0,0,0.16667,7.8949e-16,0,0.66667
0.98098,0.20338,5.8859,-0.44493,-0.63653,0.7831,6.9835,-2.3278,-1.2955,9.3113,9.9831e-08,-0.64776,0,0,0.16667,-1.1617e-15,0,0.66667
0.55276,0.046745,3.3165,-0.67988,-22.593,53.502,6.013,-2.0043,-0.35511,8.0173,-5.5511e-13,-0.17756,0,0,0.16667,7.8949e-16,0,0.66667
0.69972,0.90663,4.1983,0.60995,14.822,26.615,-6.8287,2.2762,-0.67821,-9.105,-2.6876e-12,-0.33911,0,0,0.16667,-0,-0,0.66667
0.68269,0.78343,4.0961,0.42514,10.728,28.957,-4.6438,1.5479,-1.3575,-6.1917,-5.0018e-12,-0.67875,0,0,0.16667,-1.579e-15,0,0.66667
0.63023,0.75449,3.7814,0.38173,10.88,37.912,-3.8492,1.2831,-1.4815,-5.1323,-2.7391e-12,-0.74077,0,0,0.16667,-0,-0,0.66667
0.79934,0.48237,4.7961,-0.026446,-0.4429,12.527,0.33823,-0.11274,-1.9974,0.45097,-7.518e-11,-0.99868,0,0,0.16667,-0,-0,0.66667
0.34565,0.64796,2.0739,0.22194,9.2621,102.02,-1.2274,0.40914,-1.8254,-1.6366,3.1498e-12,-0.91269,0,0,0.16667,-0,-0,0.66667
0.48189,0.93812,2.8914,0.65718,24.13,68.917,-5.067,1.689,-0.4658,-6.756,-1.1924e-12,-0.2329,0,0,0.16667,-0,1.5337e-17,0.66667
0.078123,0.46139,0.46874,-0.057908,-2.729,177.38,0.072383,-0.024128,-1.9899,0.09651,-6.4186e-08,-0.99497,0,0,0.16667,-4.9343e-17,0,0.66667
0.91011,0.19459,5.4606,-0.45811,-3.6082,3.531,6.6709,-2.2236,-1.2535,8.8946,-2.2135e-08,-0.62676,0,0,0.16667,-0,-0,0.66667
0.55923,0.050662,3.3554,-0.67401,-22.159,52.156,6.0308,-2.0103,-0.38431,8.041,1.0303e-13,-0.19215,0,0,0.16667,-6.6226e-16,-1.8578e-16,0.66667
0.52499,0.16856,3.1499,-0.49716,-17.124,59.078,4.176,-1.392,-1.1198,5.568,-2.9043e-13,-0.55992,0,0,0.16667,-0,-0,0.66667
0.26695,0.35196,1.6017,-0.22206,-9.7813,123.21,0.94849,-0.31616,-1.8255,1.2647,1.8271e-11,-0.91276,0,0,0.16667,-0,-0,0.66667
0.89999,0.16742,5.4,-0.49887,-4.3878,4.2317,7.1837,-2.3946,-1.1138,9.5783,-2.0743e-08,-0.55691,0,0,0.16667,-0,-0,0.66667
0.013914,0.98328,0.083481,0.72492,34.762,196.39,-0.16138,0.053787,-0.13179,-0.21517,-8.6752e-06,-0.065895,0,0,0.16667,-2.4672e-17,1.9641e-16,0.66667
0.097001,0.59699,0.58201,0.14549,6.836,171.83,-0.2258,0.075266,-1.9253,-0.30107,-1.6305e-10,-0.96263,0,0,0.16667,-0,-0,0.66667
0.060075,0.82778,0.36045,0.49167,23.351,182.75,-0.47259,0.15753,-1.1403,-0.63012,-1.2727e-08,-0.57017,0,0,0.16667,9.8686e-17,0,0.66667
0.24092,0.83077,1.4455,0.49615,22.27,130.57,-1.9125,0.63751,-1.1233,-2.55,-3.2299e-11,-0.56167,0,0,0.16667,3.9475e-16,0,0.66667
0.49685,0.89628,2.9811,0.59442,21.36,65.427,-4.7254,1.5751,-0.7434,-6.3006,-1.4522e-13,-0.3717,0,0,0.16667,-0,-0,0.66667
0.46352,0.045407,2.7811,-0.68189,-25.629,73.2,5.0572,-1.6857,-0.34555,6.7429,-4.5297e-14,-0.17278,0,0,0.16667,-0,-0,0.66667
0.27055,0.65899,1.6233,0.23849,10.484,122.23,-1.0323,0.34411,-1.7978,-1.3765,-1.7285e-11,-0.8989,0,0,0.16667,-0,-0,0.66667
0.55511,0.72119,3.3307,0.33179,10.863,52.494,-2.9469,0.98229,-1.6083,-3.9292,-3.5216e-13,-0.80413,0,0,0.16667,-0,-0,0.66667
0.22734,0.9578,1.364,0.6867,31.193,134.51,-2.4978,0.83259,-0.32199,-3.3304,4.0237e-12,-0.16099,0,0,0.16667,-0,-0,0.66667
0.3657,0.53423,2.1942,0.051345,2.1051,96.769,-0.30042,0.10014,-1.9903,-0.40057,1.268e-12,-0.99515,0,0,0.16667,7.8949e-16,0,0.66667
0.16996,0.63352,1.0198,0.20028,9.2272,150.6,-0.54464,0.18155,-1.8579,-0.72619,-1.2887e-09,-0.92893,0,0,0.16667,-0,-0,0.66667
0.66427,0.8092,3.9856,0.46379,12.272,32.063,-4.9294,1.6431,-1.2347,-6.5725,-3.9564e-12,-0.61735,0,0,0.16667,-9.8686e-16,0,0.66667
0.081667,0.11209,0.49,-0.58187,-27.608,176.41,0.76032,-0.25344,-0.79556,1.0138,-8.31e-09,-0.39778,0,0,0.16667,9.8686e-17,0,0.66667
0.34329,0.38553,2.0597,-0.1717,-7.1756,102.63,0.9431,-0.31437,-1.8964,1.2575,-3.4198e-12,-0.9482,0,0,0.16667,7.8949e-16,0,0.66667
0.53103,0.68641,3.1862,0.27962,9.4965,57.537,-2.3757,0.79191,-1.7247,-3.1677,-1.6187e-13,-0.86235,0,0,0.16667,8.3884e-16,0,0.66667
0.54953,0.13679,3.2972,-0.54482,-18.104,53.93,4.7903,-1.5968,-0.94444,6.3871,-5.5467e-13,-0.47222,0,0,0.16667,1.579e-15,0,0.66667
0.36765,0.89809,2.2059,0.59714,24.661,96.611,-3.5127,1.1709,-0.73103,-4.6835,1.0607e-12,-0.36552,0,0,0.16667,-0,-0,0.66667
0.64375,0.6384,3.8625,0.2076,5.7234,35.312,-2.1383,0.71277,-1.8463,-2.8511,-3.36e-12,-0.92315,0,0,0.16667,-0,-0,0.66667
0.16445,0.23775,0.98669,-0.39338,-18.205,152.24,1.0351,-0.34502,-1.4483,1.3801,1.5672e-09,-0.72416,0,0,0.16667,-1.9475e-16,0,0.66667
0.7243,0.38051,4.3458,-0.17923,-3.9914,22.285,2.0771,-0.69237,-1.8852,2.7695,-9.255e-12,-0.9426,0,0,0.16667,1.579e-15,0,0.66667
0.92525,0.66774,5.5515,0.25161,1.6078,2.3607,-3.7249,1.2416,-1.7744,-4.9665,-8.4347e-09,-0.88721,0,0,0.16667,-0,-0,0.66667
0.98983,0.045843,5.939,-0.68124,-0.59245,1.3411,10.789,-3.5963,-0.34865,14.385,-1.6617e-05,-0.17433,0,0,0.16667,-1.579e-15,0,0.66667
0.87848,0.077268,5.2709,-0.6341,-6.8422,6.0553,8.9127,-2.9709,-0.56974,11.884,-1.7147e-08,-0.28487,0,0,0.16667,1.579e-15,0,0.66667
0.26092,0.73009,1.5655,0.34514,15.28,124.93,-1.4409,0.48028,-1.5755,-1.9211,-2.5281e-11,-0.78775,0,0,0.16667,-3.9475e-16,0,0.66667
0.038093,0.33015,0.22856,-0.25478,-12.08,189.22,0.15529,-0.051762,-1.7677,0.20705,-3.4174e-08,-0.88386,0,0,0.16667,-4.9343e-17,0,0.66667
0.97403,0.18866,5.8442,-0.46701,-0.98257,0.97987,7.2781,-2.426,-1.2248,9.7041,2.0269e-07,-0.61239,0,0,0.16667,-0,-0,0.66667
0.55712,0.2772,3.3427,-0.3342,-10.906,52.08,2.979,-0.993,-1.6026,3.972,3.9946e-13,-0.80128,0,0,0.16667,-9.8686e-16,0,0.66667
0.53971,0.13165,3.2383,-0.55252,-18.648,56.008,4.7712,-1.5904,-0.9136,6.3616,-6.3816e-13,-0.4568,0,0,0.16667,-0,-0,0.66667
0.14646,0.18103,0.87877,-0.47846,-22.308,157.47,1.1212,-0.37374,-1.1853,1.4949,2.4104e-09,-0.59264,0,0,0.16667,-9.8686e-17,0,0.66667
0.91249,0.54032,5.475,0.060483,0.45082,2.8938,-0.88305,0.29435,-1.9859,-1.1774,4.7141e-08,-0.99293,0,0,0.16667,-1.579e-15,0,0.66667
0.95761,0.19209,5.7457,-0.46187,-1.6725,1.4153,7.0766,-2.3589,-1.2414,9.4355,7.1524e-08,-0.62068,0,0,0.16667,-3.158e-15,0,0.66667
0.85963,0.29768,5.1578,-0.30348,-3.6545,6.8134,4.1741,-1.3914,-1.6737,5.5654,-3.0697e-09,-0.83687,0,0,0.16667,1.579e-15,0,0.66667
0.69276,0.072768,4.1566,-0.64085,-15.897,27.772,7.1033,-2.3678,-0.53875,9.471,1.148e-12,-0.26937,0,0,0.16667,-0,-0,0.66667
0.3859,0.10849,2.3154,-0.58727,-23.858,91.952,3.626,-1.2087,-0.77266,4.8347,-8.3644e-13,-0.38633,0,0,0.16667,-0,-0,0.66667
0.92673,0.36692,5.5604,-0.19962,-1.2445,2.2297,2.9598,-0.98661,-1.8576,3.9464,-1.2137e-08,-0.9288,0,0,0.16667,-7.8949e-16,0,0.66667
0.85447,0.47745,5.1268,-0.033828,-0.41854,7.0436,0.46248,-0.15416,-1.9951,0.61664,-2.4385e-10,-0.99756,0,0,0.16667,-1.579e-15,0,0.66667
0.83789,0.0019632,5.0273,-0.74706,-10.681,9.7848,10.015,-3.3384,-0.015618,13.354,1.2996e-09,-0.0078088,0,0,0.16667,-0,-0,0.66667
0.58406,0.01764,3.5043,-0.72354,-22.853,47.269,6.7614,-2.2538,-0.13729,9.0152,2.7534e-13,-0.068643,0,0,0.16667,-0,-0,0.66667
0.069977,0.02375,0.41986,-0.71437,-34.083,179.88,0.79984,-0.26661,-0.18441,1.0665,7.7016e-07,-0.092205,0,0,0.16667,9.8686e-17,0,0.66667
0.025655,0.76683,0.15393,0.40025,19.032,192.91,-0.16429,0.054764,-1.4291,-0.21906,1.0986e-07,-0.71455,0,0,0.16667,-4.9343e-17,0,0.66667
0.2256,0.52562,1.3536,0.038427,1.7283,134.71,-0.13871,0.046236,-1.9939,-0.18494,-2.9308e-11,-0.99697,0,0,0.16667,-0,-0,0.66667
0.092302,0.687,0.55381,0.28049,13.208,173.23,-0.41424,0.13808,-1.7223,-0.55232,-1.5646e-09,-0.86113,0,0,0.16667,9.8686e-17,0,0.66667
0.74511,0.67919,4.4706,0.26878,5.6022,19.432,-3.2043,1.0681,-1.7424,-4.2724,4.063e-11,-0.87119,0,0,0.16667,7.8949e-16,0,0.66667
0.85106,0.74144,5.1063,0.36216,4.6307,7.6356,-4.9314,1.6438,-1.5325,-6.5752,2.6986e-09,-0.76624,0,0,0.16667,7.8949e-16,0,0.66667
0.54047,0.17388,3.2428,-0.48918,-16.458,55.752,4.2302,-1.4101,-1.1478,5.6402,-2.1938e-13,-0.57388,0,0,0.16667,7.8949e-16,0,0.66667
0.61127,0.96831,3.6676,0.70246,21.069,41.989,-6.8703,2.2901,-0.24726,-9.1604,1.1857e-13,-0.12363,0,0,0.16667,-2.2204e-16,0,0.66667
0.47314,0.62937,2.8388,0.19405,7.1236,70.43,-1.469,0.48966,-1.866,-1.9587,-2.7145e-13,-0.93301,0,0,0.16667,-0,-0,0.66667
0.93519,0.83149,5.6111,0.49723,2.8309,2.3511,-7.44,2.48,-1.1209,-9.9201,4.3911e-08,-0.56046,0,0,0.16667,-2.6865e-15,0,0.66667
0.61281,0.19283,3.6769,-0.46075,-13.643,41.241,4.5177,-1.5059,-1.2453,6.0235,1.3252e-12,-0.62265,0,0,0.16667,-0,-0,0.66667
0.62036,0.7915,3.7222,0.43725,12.742,39.799,-4.3401,1.4467,-1.3194,-5.7867,-1.8399e-12,-0.65968,0,0,0.16667,-0,-0,0.66667
0.85801,0.91771,5.148,0.62657,7.8242,7.6371,-8.6016,2.8672,-0.60468,-11.469,3.8504e-09,-0.30234,0,0,0.16667,-0,1.8338e-16,0.66667
0.38374,0.13184,2.3024,-0.55224,-22.457,92.459,3.3907,-1.1302,-0.91469,4.5209,-1.3207e-12,-0.45734,0,0,0.16667,-0,-0,0.66667
0.06411,0.67409,0.38466,0.26114,12.349,181.53,-0.26787,0.089289,-1.7579,-0.35716,1.2802e-08,-0.87893,0,0,0.16667,-9.8686e-17,0,0.66667
0.74015,0.34466,4.4409,-0.23301,-4.9345,20.078,2.7593,-0.91978,-1.8071,3.6791,-2.8524e-11,-0.90357,0,0,0.16667,-0,-0,0.66667
0.84419,0.26199,5.0651,-0.35702,-4.7631,8.24,4.8223,-1.6074,-1.548,6.4297,-2.0924e-09,-0.77398,0,0,0.16667,-1.579e-15,0,0.66667
0.52023,0.13977,3.1214,-0.54035,-18.765,60.172,4.4977,-1.4992,-0.96082,5.9969,-2.629e-13,-0.48041,0,0,0.16667,-0,-0,0.66667
0.46764,0.72691,2.8059,0.34036,12.607,71.806,-2.5467,0.8489,-1.5891,-3.3956,-5.7598e-13,-0.79455,0,0,0.16667,1.579e-15,0,0.66667
0.098624,0.57044,0.59174,0.10566,4.962,171.35,-0.16673,0.055578,-1.9596,-0.22231,-8.2361e-09,-0.97979,0,0,0.16667,-0,-0,0.66667
0.31326,0.64746,1.8795,0.22118,9.4572,110.61,-1.1086,0.36954,-1.8272,-1.4781,3.7634e-12,-0.91361,0,0,0.16667,-0,-0,0.66667
0.18739,0.077767,1.1243,-0.63335,-29.227,145.77,1.8989,-0.63296,-0.57506,2.5319,-1.3899e-10,-0.28753,0,0,0.16667,-0,-0,0.66667
0.74742,0.024789,4.4845,-0.71282,-15.061,19.986,8.5244,-2.8415,-0.19375,11.366,-1.1884e-12,-0.096876,0,0,0.16667,-0,-1.2949e-16,0.66667
0.16037,0.77034,0.9622,0.40551,18.797,153.42,-1.0405,0.34683,-1.4146,-1.3873,-1.8019e-09,-0.7073,0,0,0.16667,-0,-0,0.66667
0.68463,0.69572,4.1078,0.29358,7.3418,28.471,-3.2159,1.072,-1.6936,-4.2879,-4.8022e-12,-0.84678,0,0,0.16667,-0,-0,0.66667
0.44067,0.24092,2.644,-0.38862,-14.865,78.234,2.74,-0.91335,-1.4628,3.6534,-1.4138e-12,-0.73141,0,0,0.16667,3.9475e-16,0,0.66667
0.0042513,0.93655,0.025508,0.65482,31.34,199.24,-0.044543,0.014847,-0.476,-0.05939,-2.0735e-07,-0.238,0,0,0.16667,-1.542e-18,4.6735e-17,0.66667
0.70234,0.12995,4.214,-0.55508,-13.355,26.093,6.2377,-2.0792,-0.9061,8.3169,3.8201e-12,-0.45305,0,0,0.16667,-0,-1.1011e-16,0.66667
0.79289,0.32764,4.7574,-0.25855,-4.4753,13.402,3.28,-1.0933,-1.7615,4.3733,-3.5404e-10,-0.88074,0,0,0.16667,-0,-0,0.66667
0.33849,0.31614,2.0309,-0.27579,-11.582,103.93,1.4936,-0.49788,-1.7293,1.9915,-4.3565e-12,-0.86467,0,0,0.16667,-7.8949e-16,0,0.66667
0.47734,0.20532,2.864,-0.44202,-16.214,69.66,3.3759,-1.1253,-1.3038,4.5011,4.4231e-13,-0.65192,0,0,0.16667,-1.3548e-15,0,0.66667
0.048717,0.11058,0.2923,-0.58413,-27.838,186.11,0.45531,-0.15177,-0.78699,0.60708,8.6492e-08,-0.39349,0,0,0.16667,-0,-0,0.66667
0.22657,0.15863,1.3594,-0.51205,-23.157,134.6,1.8563,-0.61875,-1.0674,2.475,1.2205e-10,-0.53371,0,0,0.16667,-0,-0,0.66667
0.69626,0.28613,4.1775,-0.3208,-7.7807,26.653,3.5737,-1.1912,-1.6334,4.765,4.0146e-12,-0.8167,0,0,0.16667,-0,-0,0.66667
0.14114,0.030166,0.84682,-0.70475,-33.106,159.11,1.5915,-0.53049,-0.23654,2.122,1.7206e-09,-0.11827,0,0,0.16667,-2.2204e-16,0,0.66667
0.23059,0.78913,1.3835,0.43369,19.542,133.42,-1.6001,0.53336,-1.3309,-2.1334,-1.0615e-10,-0.66545,0,0,0.16667,7.8949e-16,0,0.66667
0.69479,0.574,4.1687,0.11099,2.6925,26.716,-1.2339,0.41129,-1.9548,-1.6452,-1.3183e-12,-0.97739,0,0,0.16667,-0,-0,0.66667
0.068365,0.09101,0.41019,-0.61349,-29.191,180.33,0.67106,-0.22369,-0.66162,0.89475,1.6718e-07,-0.33081,0,0,0.16667,4.9343e-17,0,0.66667
0.72933,0.67694,4.376,0.2654,5.8276,21.633,-3.0971,1.0324,-1.7485,-4.1295,1.5089e-11,-0.87427,0,0,0.16667,7.8949e-16,0,0.66667
0.62746,0.66786,3.7647,0.25179,7.1974,38.28,-2.5278,0.84261,-1.7745,-3.3704,-2.8797e-12,-0.88726,0,0,0.16667,-0,-0,0.66667
0.65207,0.26076,3.9124,-0.35886,-9.7398,34.003,3.744,-1.248,-1.5414,4.992,3.6866e-12,-0.77068,0,0,0.16667,-0,-0,0.66667
0.32147,0.049843,1.9288,-0.67524,-28.987,108.77,3.4731,-1.1577,-0.37745,4.6307,-1.9666e-12,-0.18872,0,0,0.16667,-3.9475e-16,0,0.66667
0.53844,0.55079,3.2307,0.076179,2.5525,55.846,-0.65629,0.21876,-1.9779,-0.87505,-4.2299e-13,-0.98897,0,0,0.16667,7.8949e-16,0,0.66667
0.078783,0.4845,0.4727,-0.023243,-1.0952,177.19,0.029298,-0.0097659,-1.999,0.039064,4.3694e-08,-0.9995,0,0,0.16667,-9.8686e-17,0,0.66667
0.28452,0.3005,1.7071,-0.29925,-13.054,118.42,1.3622,-0.45408,-1.6811,1.8163,2.376e-12,-0.84057,0,0,0.16667,-3.9475e-16,0,0.66667
0.20287,0.72393,1.2172,0.33589,15.302,141.21,-1.0902,0.36341,-1.6008,-1.4537,-4.1771e-10,-0.80041,0,0,0.16667,-0,-0,0.66667
0.51135,0.74782,3.0681,0.37173,13.014,61.909,-3.0413,1.0138,-1.509,-4.0551,5.4179e-14,-0.7545,0,0,0.16667,-8.8818e-16,0,0.66667
0.65221,0.47814,3.9133,-0.032787,-0.88523,33.756,0.34214,-0.11405,-1.9956,0.45619,6.3188e-13,-0.99779,0,0,0.16667,-0,-0,0.66667
0.61509,0.40338,3.6905,-0.14493,-4.2434,40.501,1.4263,-0.47544,-1.9251,1.9018,1.2188e-12,-0.96256,0,0,0.16667,7.8949e-16,0,0.66667
0.13364,0.5529,0.80182,0.079344,3.6947,161.11,-0.16965,0.056551,-1.9764,-0.2262,-2.2239e-09,-0.98818,0,0,0.16667,-9.8686e-17,0,0.66667
0.18016,0.45509,1.0809,-0.067359,-3.0893,147.65,0.19416,-0.06472,-1.9824,0.25888,3.723e-10,-0.99118,0,0,0.16667,1.9737e-16,0,0.66667
0.49726,0.89243,2.9835,0.58865,21.137,65.326,-4.6833,1.5611,-0.7677,-6.2444,-4.4498e-13,-0.38385,0,0,0.16667,7.8949e-16,0,0.66667
0.020049,0.61707,0.12029,0.1756,8.3288,194.56,-0.056331,0.018777,-1.8898,-0.075108,-3.3096e-08,-0.94489,0,0,0.16667,-1.2336e-17,0,0.66667
0.73614,0.27412,4.4168,-0.33883,-7.2931,20.756,3.9908,-1.3303,-1.5925,5.321,-2.1601e-11,-0.79626,0,0,0.16667,-0,-0,0.66667
0.59242,0.081343,3.5545,-0.62799,-19.455,45.43,5.9525,-1.9842,-0.59836,7.9367,4.059e-13,-0.29918,0,0,0.16667,-0,-0,0.66667
0.15883,0.34742,0.953,-0.22888,-10.588,153.81,0.58165,-0.19388,-1.8145,0.77553,1.6661e-09,-0.90726,0,0,0.16667,-0,-0,0.66667
0.91731,0.97515,5.5039,0.71273,5.3835,3.8603,-10.461,3.4869,-0.1934,-13.948,-2.0106e-09,-0.096701,0,0,0.16667,-0,-2.5339e-16,0.66667
0.54373,0.84745,3.2624,0.52117,17.463,55.111,-4.534,1.5113,-1.0347,-6.0453,-1.2879e-14,-0.51737,0,0,0.16667,-1.579e-15,0,0.66667
0.99776,0.065581,5.9866,-0.65163,-0.046623,1.1503,10.403,-3.4676,-0.49129,13.87,1.5835e-06,-0.24565,0,0,0.16667,3.158e-15,2.1051e-16,0.66667
0.042324,0.2771,0.25395,-0.33435,-15.864,187.97,0.22642,-0.075472,-1.6024,0.30189,-4.4695e-08,-0.80121,0,0,0.16667,-2.4672e-17,0,0.66667
0.81295,0.48425,4.8777,-0.023619,-0.37069,11.04,0.30721,-0.1024,-1.9991,0.40962,-3.3724e-11,-0.99954,0,0,0.16667,-0,-0,0.66667
0.077381,0.34908,0.46428,-0.22638,-10.681,177.61,0.28028,-0.093428,-1.8194,0.37371,-8.5037e-09,-0.90969,0,0,0.16667,-1.9737e-16,0,0.66667
0.94025,0.052189,5.6415,-0.67172,-3.6605,2.647,10.105,-3.3684,-0.3956,13.474,6.47e-07,-0.1978,0,0,0.16667,-7.8949e-16,0,0.66667
0.36144,0.74681,2.1686,0.37022,15.286,97.999,-2.141,0.71366,-1.5138,-2.8546,3.0251e-12,-0.75689,0,0,0.16667,5.9212e-16,0,0.66667
0.66661,0.32439,3.9997,-0.26341,-6.8905,31.41,2.8095,-0.9365,-1.7522,3.746,4.2539e-12,-0.87608,0,0,0.16667,-0,-0,0.66667
0.71461,0.3643,4.2876,-0.20355,-4.6711,23.731,2.3274,-0.77579,-1.852,3.1031,-4.0603e-12,-0.92598,0,0,0.16667,-0,-0,0.66667
0.7131,0.18449,4.2786,-0.47327,-10.999,24.303,5.3998,-1.7999,-1.2034,7.1997,3.0957e-12,-0.6017,0,0,0.16667,1.9737e-16,0,0.66667
0.69395,0.019381,4.1637,-0.72093,-17.908,27.787,8.0046,-2.6682,-0.15069,10.673,-1.7764e-13,-0.075344,0,0,0.16667,-0,-0,0.66667
0.01165,0.79441,0.069898,0.44162,21.027,197.05,-0.082316,0.027439,-1.3058,-0.10975,-7.6355e-08,-0.65288,0,0,0.16667,2.4672e-17,0,0.66667
0.22048,0.35625,1.3229,-0.21562,-9.7315,136.19,0.76064,-0.25355,-1.835,1.0142,1.9795e-10,-0.91749,0,0,0.16667,3.9475e-16,0,0.66667
0.79727,0.76274,4.7836,0.39411,6.7263,13.09,-5.0274,1.6758,-1.4489,-6.7033,3.6785e-10,-0.72444,0,0,0.16667,-0,-0,0.66667
0.78697,0.43065,4.7218,-0.10403,-1.8413,13.975,1.3099,-0.43662,-1.9607,1.7465,-1.0927e-10,-0.98036,0,0,0.16667,7.8949e-16,0,0.66667
0.80166,0.25381,4.81,-0.36928,-6.1709,12.558,4.7367,-1.5789,-1.515,6.3156,-4.1981e-10,-0.7575,0,0,0.16667,-0,-0,0.66667
0.0078286,0.73778,0.046972,0.35666,16.958,198.18,-0.044675,0.014892,-1.5462,-0.059567,-8.452e-08,-0.77312,0,0,0.16667,-1.2336e-17,0,0.66667
0.041346,0.66354,0.24808,0.2453,11.627,188.25,-0.16228,0.054093,-1.7852,-0.21637,3.8541e-08,-0.89262,0,0,0.16667,-0,-0,0.66667
0.073826,0.71318,0.44296,0.31977,15.112,178.67,-0.37771,0.1259,-1.6362,-0.50362,2.2117e-10,-0.8181,0,0,0.16667,-9.8686e-17,0,0.66667
0.87375,0.85433,5.2425,0.53149,5.8808,6.1288,-7.4303,2.4768,-0.9963,-9.907,1.8489e-09,-0.49815,0,0,0.16667,-0,-2.2623e-17,0.66667
0.47744,0.18345,2.8646,-0.47483,-17.43,69.674,3.6272,-1.2091,-1.1978,4.8363,3.3107e-13,-0.59889,0,0,0.16667,3.9475e-16,0,0.66667
0.73172,0.38486,4.3903,-0.17272,-3.7561,21.213,2.0221,-0.67403,-1.8939,2.6961,-1.7145e-11,-0.94695,0,0,0.16667,-0,-0,0.66667
0.21832,0.011827,1.3099,-0.73226,-33.453,137.08,2.5578,-0.85261,-0.094664,3.4104,8.4398e-11,-0.047332,0,0,0.16667,-0,-0,0.66667
0.66983,0.74717,4.019,0.37076,9.6481,30.992,-3.9735,1.3245,-1.5125,-5.298,-5.562e-12,-0.75623,0,0,0.16667,9.8686e-16,0,0.66667
0.44403,0.31563,2.6642,-0.27655,-10.518,77.341,1.9648,-0.65492,-1.7277,2.6197,-9.7555e-13,-0.86384,0,0,0.16667,1.579e-15,0,0.66667
0.98864,0.26339,5.9318,-0.35492,-0.22418,0.46566,5.6142,-1.8714,-1.5512,7.4856,-5.9549e-08,-0.7756,0,0,0.16667,-0,-0,0.66667
0.28625,0.46239,1.7175,-0.05642,-2.4535,117.88,0.2584,-0.086134,-1.9881,0.34454,7.8165e-13,-0.99406,0,0,0.16667,5.9212e-16,0,0.66667
0.10849,0.67679,0.65096,0.26519,12.444,168.47,-0.46034,0.15345,-1.7509,-0.61379,-4.5078e-09,-0.87544,0,0,0.16667,9.8686e-17,0,0.66667
0.5469,0.11601,3.2814,-0.57598,-19.24,54.531,5.0401,-1.68,-0.8221,6.7201,-3.9391e-13,-0.41105,0,0,0.16667,-0,-0,0.66667
0.68117,0.99277,4.087,0.73916,19.005,29.867,-8.0559,2.6853,-0.056455,-10.741,2.0162e-13,-0.028227,0,0,0.16667,-7.8949e-16,0,0.66667
0.13472,0.42222,0.80832,-0.11667,-5.4321,160.8,0.25148,-0.083828,-1.9502,0.33531,2.3778e-09,-0.97512,0,0,0.16667,3.7832e-17,0,0.66667
0.53924,0.84777,3.2355,0.52165,17.601,56.059,-4.5008,1.5003,-1.0319,-6.001,-4.9871e-13,-0.51593,0,0,0.16667,-0,-0,0.66667
0.74439,0.19068,4.4663,-0.46399,-9.7633,19.814,5.5262,-1.8421,-1.2343,7.3683,-1.5453e-11,-0.61716,0,0,0.16667,-0,-0,0.66667
0.11184,0.55352,0.67106,0.080277,3.7588,167.47,-0.14365,0.047885,-1.9772,-0.19154,-4.8983e-09,-0.98861,0,0,0.16667,-0,-0,0.66667
0.78567,0.93562,4.714,0.65343,11.912,15.001,-8.2141,2.738,-0.48221,-10.952,2.5061e-11,-0.2411,0,0,0.16667,1.9737e-15,0,0.66667
0.54416,0.41552,3.265,-0.12671,-4.2094,54.649,1.1032,-0.36775,-1.9429,1.471,-1.0203e-13,-0.97145,0,0,0.16667,-0,-0,0.66667
0.010525,0.60215,0.063147,0.15322,7.2681,197.38,-0.025801,0.0086005,-1.9157,-0.034402,7.3762e-08,-0.95785,0,0,0.16667,-0,-0,0.66667
0.5891,0.8754,3.5346,0.5631,17.505,45.957,-5.3075,1.7692,-0.87317,-7.0767,-9.6634e-13,-0.43659,0,0,0.16667,-0,-0,0.66667
0.80467,0.79198,4.828,0.43798,7.2423,12.345,-5.6388,1.8796,-1.3166,-7.5184,4.175e-10,-0.65829,0,0,0.16667,-0,-0,0.66667
0.99094,0.46195,5.9457,-0.05707,-0.016292,0.10913,0.90485,-0.30162,-1.9875,1.2065,1.6881e-06,-0.99375,0,0,0.16667,5.8676e-16,0,0.66667
0.99131,0.64842,5.9479,0.22264,0.066508,0.22658,-3.5312,1.1771,-1.8227,-4.7083,3.3443e-08,-0.91134,0,0,0.16667,1.579e-15,0,0.66667
0.41395,0.13027,2.4837,-0.55459,-21.912,84.913,3.6732,-1.2244,-0.9056,4.8976,-1.4531e-12,-0.4528,0,0,0.16667,-0,-0,0.66667
0.037335,0.10977,0.22401,-0.58534,-27.924,189.47,0.34966,-0.11655,-0.78038,0.46621,4.3132e-07,-0.39019,0,0,0.16667,5.1297e-18,0,0.66667
0.97041,0.53089,5.8225,0.04634,0.10275,0.50668,-0.71949,0.23983,-1.9943,-0.95933,2.0039e-06,-0.99713,0,0,0.16667,1.6777e-15,0,0.66667
0.22054,0.39546,1.3232,-0.15682,-7.0736,136.15,0.55335,-0.18445,-1.9129,0.7378,1.6026e-10,-0.95646,0,0,0.16667,-1.9737e-16,0,0.66667
0.95501,0.65072,5.7301,0.22608,0.83456,1.0867,-3.4546,1.1515,-1.8191,-4.6061,-2.9928e-08,-0.90956,0,0,0.16667,7.8949e-16,0,0.66667
0.96537,0.38426,5.7922,-0.17361,-0.47127,0.71327,2.6815,-0.89383,-1.8925,3.5753,3.3987e-08,-0.94626,0,0,0.16667,-0,-0,0.66667
0.32834,0.055942,1.97,-0.66609,-28.443,106.93,3.4992,-1.1664,-0.4243,4.6656,-2.0672e-12,-0.21215,0,0,0.16667,-3.9475e-16,0,0.66667
0.76276,0.99924,4.5765,0.74887,15.031,18.085,-9.1392,3.0464,-0.0072199,-12.186,-8.5798e-12,-0.0036099,0,0,0.16667,-0,-1.8642e-17,0.66667
0.63192,0.10669,3.7915,-0.58996,-16.879,37.947,5.965,-1.9883,-0.76101,7.9533,6.275e-13,-0.3805,0,0,0.16667,-0,-0,0.66667
0.84643,0.89218,5.0786,0.58827,7.8747,8.5308,-7.9669,2.6556,-0.7693,-10.622,-1.1001e-09,-0.38465,0,0,0.16667,-0,-0,0.66667
0.9544,0.37234,5.7264,-0.19148,-0.71473,1.0707,2.924,-0.97468,-1.8713,3.8987,-2.2605e-08,-0.93566,0,0,0.16667,3.9475e-16,0,0.66667
0.2058,0.9087,1.2348,0.61306,28.062,140.52,-2.0187,0.6729,-0.66462,-2.6916,-1.5182e-10,-0.33231,0,0,0.16667,-0,-0,0.66667
0.40934,0.34792,2.4561,-0.22812,-8.9943,85.771,1.4941,-0.49803,-1.8154,1.9921,-8.1757e-13,-0.90771,0,0,0.16667,-0,-0,0.66667
0.72856,0.051773,4.3713,-0.67234,-15.065,22.486,7.8374,-2.6125,-0.39155,10.45,7.9936e-13,-0.19578,0,0,0.16667,7.8949e-16,0,0.66667
0.58992,0.70393,3.5395,0.30589,9.4243,45.444,-2.8872,0.9624,-1.6665,-3.8496,-1.418e-12,-0.83326,0,0,0.16667,-0,-0,0.66667
0.9412,0.40722,5.6472,-0.13917,-0.68414,1.5248,2.0957,-0.69858,-1.9319,2.7943,-8.8539e-08,-0.96595,0,0,0.16667,-0,-0,0.66667
0.44689,0.077457,2.6813,-0.63381,-24.242,77.044,4.5319,-1.5106,-0.57024,6.0425,-8.1313e-13,-0.28512,0,0,0.16667,-0,-0,0.66667
0.61758,0.92022,3.7055,0.63033,18.608,40.654,-6.2285,2.0762,-0.5858,-8.3047,-3.5216e-13,-0.2929,0,0,0.16667,-0,-0,0.66667
0.082488,0.1309,0.49493,-0.55365,-26.248,176.16,0.73072,-0.24357,-0.9098,0.97429,4.1356e-08,-0.4549,0,0,0.16667,-0,-0,0.66667
0.23041,0.76424,1.3825,0.39636,17.848,133.45,-1.4612,0.48707,-1.4406,-1.9483,-1.1862e-10,-0.7203,0,0,0.16667,3.9475e-16,0,0.66667
0.12199,0.112,0.73192,-0.582,-27.385,164.62,1.1359,-0.37865,-0.79526,1.5146,-8.0487e-10,-0.39763,0,0,0.16667,-0,-3.4152e-17,0.66667
0.76669,0.71463,4.6001,0.32194,6.2164,16.653,-3.9493,1.3164,-1.633,-5.2657,1.1931e-10,-0.81652,0,0,0.16667,-7.8949e-16,0,0.66667
0.019268,0.29361,0.11561,-0.30959,-14.705,194.79,0.095445,-0.031815,-1.6586,0.12726,-6.246e-09,-0.82929,0,0,0.16667,-0,-0,0.66667
0.941,0.45598,5.646,-0.066025,-0.32472,1.4953,0.99406,-0.33135,-1.9839,1.3254,-1.6513e-07,-0.99195,0,0,0.16667,-0,-0,0.66667
0.83589,0.039249,5.0153,-0.69113,-9.9342,9.7918,9.2433,-3.0811,-0.30053,12.324,1.2684e-09,-0.15026,0,0,0.16667,-0,-0,0.66667
0.67901,0.97084,4.0741,0.70627,18.224,30.131,-7.673,2.5577,-0.2262,-10.231,-1.3856e-13,-0.1131,0,0,0.16667,-0,-0,0.66667
0.02865,0.93276,0.1719,0.64913,31.038,192.04,-0.29756,0.099189,-0.50237,-0.39675,9.6362e-07,-0.25118,0,0,0.16667,-1.2336e-17,0,0.66667
0.2579,0.43741,1.5474,-0.093888,-4.153,125.69,0.38741,-0.12914,-1.9688,0.51655,2.2558e-11,-0.9844,0,0,0.16667,1.7887e-16,0,0.66667
0.13628,0.84959,0.81769,0.52439,24.547,160.44,-1.1434,0.38115,-1.022,-1.5246,-5.5896e-09,-0.51099,0,0,0.16667,-0,-0,0.66667
0.7107,0.32717,4.2642,-0.25925,-6.0254,24.366,2.9479,-0.98264,-1.7595,3.9306,-1.4158e-12,-0.87975,0,0,0.16667,1.579e-15,0,0.66667
0.069466,0.086263,0.4168,-0.62061,-29.531,180.01,0.68978,-0.22993,-0.62952,0.9197,6.9192e-08,-0.31476,0,0,0.16667,-9.8686e-17,0,0.66667
0.88989,0.4529,5.3393,-0.070649,-0.66484,4.3115,1.0059,-0.3353,-1.9831,1.3412,-2.2626e-09,-0.99156,0,0,0.16667,-0,-0,0.66667
0.55437,0.26041,3.3262,-0.35939,-11.788,52.676,3.1877,-1.0626,-1.5394,4.2503,9.7944e-13,-0.76971,0,0,0.16667,-1.579e-15,0,0.66667
0.10339,0.14302,0.62033,-0.53547,-25.275,170.03,0.88579,-0.29526,-0.97916,1.1811,5.748e-09,-0.48958,0,0,0.16667,-0,-0,0.66667
0.46053,0.62673,2.7632,0.1901,7.0857,73.375,-1.4007,0.46691,-1.8713,-1.8676,9.6267e-13,-0.93566,0,0,0.16667,-1.579e-15,0,0.66667
0.14199,0.44494,0.85191,-0.082593,-3.8369,158.68,0.18763,-0.062544,-1.9767,0.25017,2.2326e-09,-0.98833,0,0,0.16667,-0,-0,0.66667
0.42314,0.39424,2.5389,-0.15863,-6.1627,82.34,1.074,-0.358,-1.9111,1.432,-1.3434e-13,-0.95556,0,0,0.16667,-3.9475e-16,0,0.66667
0.71387,0.435,4.2832,-0.097497,-2.239,23.78,1.1136,-0.3712,-1.9663,1.4848,-2.9308e-12,-0.98314,0,0,0.16667,1.1842e-15,0,0.66667
0.69629,0.95678,4.1778,0.68517,16.877,27.328,-7.6333,2.5444,-0.3294,-10.178,-1.4553e-12,-0.1647,0,0,0.16667,-0,-0,0.66667
0.34815,0.67045,2.0889,0.25567,10.653,101.39,-1.4242,0.47472,-1.7666,-1.8989,3.3457e-12,-0.88331,0,0,0.16667,-0,-0,0.66667
0.34876,0.60419,2.0926,0.15629,6.5021,101.19,-0.87211,0.2907,-1.9122,-1.1628,2.8596e-12,-0.95609,0,0,0.16667,-0,-0,0.66667
0.076125,0.95097,0.45675,0.67645,32.208,178.06,-0.82391,0.27464,-0.37315,-1.0985,-2.3588e-07,-0.18658,0,0,0.16667,-0,-0,0.66667
0.087513,0.65898,0.52508,0.23848,11.234,174.63,-0.33391,0.1113,-1.7975,-0.44522,-6.9254e-09,-0.89877,0,0,0.16667,-0,-0,0.66667
0.049881,0.17337,0.29929,-0.48995,-23.295,185.75,0.39103,-0.13034,-1.1461,0.52137,-1.7659e-08,-0.57303,0,0,0.16667,-0,-0,0.66667
0.074476,0.088519,0.44686,-0.61722,-29.346,178.53,0.73549,-0.24516,-0.64551,0.98066,1.7782e-07,-0.32275,0,0,0.16667,-1.4803e-16,5.5313e-18,0.66667
0.38509,0.84141,2.3105,0.51212,20.777,92.072,-3.1554,1.0518,-1.0674,-4.2072,1.243e-12,-0.53371,0,0,0.16667,2.9606e-16,0,0.66667
0.81637,0.95834,4.8982,0.68751,10.943,11.707,-8.9802,2.9934,-0.3188,-11.974,6.7957e-10,-0.1594,0,0,0.16667,-0,-0,0.66667
0.34118,0.49237,2.0471,-0.01145,-0.47896,103.15,0.062506,-0.020835,-1.9998,0.083341,-5.2817e-13,-0.99988,0,0,0.16667,-3.9475e-16,0,0.66667
0.50612,0.15198,3.0367,-0.52203,-18.482,63.25,4.2273,-1.4091,-1.0306,5.6364,-3.6637e-13,-0.51528,0,0,0.16667,2.9968e-16,0,0.66667
0.62349,0.73148,3.7409,0.34721,10.028,39.104,-3.4637,1.1546,-1.5718,-4.6183,-2.7331e-12,-0.78588,0,0,0.16667,-0,-0,0.66667
0.58529,0.71946,3.5117,0.3292,10.233,46.379,-3.0828,1.0276,-1.6147,-4.1104,-1.6369e-12,-0.80736,0,0,0.16667,1.579e-15,0,0.66667
0.13388,0.96206,0.80325,0.69309,32.613,161.21,-1.4846,0.49487,-0.29105,-1.9795,9.7992e-10,-0.14553,0,0,0.16667,9.8686e-17,0,0.66667
0.61941,0.69096,3.7165,0.28644,8.3311,39.794,-2.8388,0.94626,-1.708,-3.785,-2.3224e-12,-0.854,0,0,0.16667,-0,-0,0.66667
0.52236,0.29755,3.1341,-0.30367,-10.451,59.432,2.538,-0.84599,-1.6706,3.384,3.4861e-13,-0.83532,0,0,0.16667,-6.1859e-16,0,0.66667
0.75148,0.084566,4.5089,-0.62315,-12.907,19.205,7.4925,-2.4975,-0.61999,9.9901,2.5171e-12,-0.30999,0,0,0.16667,-7.8949e-16,0,0.66667
0.67568,0.23686,4.0541,-0.39471,-10.13,30.056,4.2672,-1.4224,-1.4453,5.6896,4.5408e-12,-0.72266,0,0,0.16667,7.8949e-16,0,0.66667
0.47896,0.36711,2.8737,-0.19933,-7.265,69.088,1.5275,-0.50918,-1.8579,2.0367,-4.341e-14,-0.92894,0,0,0.16667,-7.8949e-16,0,0.66667
0.95613,0.64978,5.7368,0.22466,0.80604,1.0476,-3.4369,1.1456,-1.8207,-4.5826,-2.7686e-08,-0.91034,0,0,0.16667,-0,-0,0.66667
0.26092,0.3591,1.5655,-0.21135,-9.3408,124.87,0.88233,-0.29411,-1.8401,1.1764,2.7251e-11,-0.92004,0,0,0.16667,-0,-0,0.66667
0.71065,0.80208,4.2639,0.45312,10.598,24.636,-5.1522,1.7174,-1.2686,-6.8696,-3.308e-12,-0.63431,0,0,0.16667,-7.8949e-16,0,0.66667
0.20164,0.60542,1.2099,0.15812,7.1932,141.51,-0.51015,0.17005,-1.9116,-0.6802,-2.9024e-10,-0.95579,0,0,0.16667,-0,-0,0.66667
0.66362,0.81815,3.9817,0.47722,12.653,32.196,-5.0671,1.689,-1.1894,-6.7561,-3.5345e-12,-0.59471,0,0,0.16667,-1.579e-15,0,0.66667
0.24952,0.23314,1.4971,-0.4003,-17.851,128.12,1.5981,-0.53269,-1.4313,2.1308,4.0088e-11,-0.71565,0,0,0.16667,-0,-0,0.66667
0.20625,0.31008,1.2375,-0.28489,-12.951,140.23,0.94011,-0.31337,-1.7122,1.2535,3.6766e-10,-0.85608,0,0,0.16667,-1.4803e-16,0,0.66667
0.37017,0.025093,2.221,-0.71236,-29.467,96.114,4.2191,-1.4064,-0.19521,5.6255,-8.0114e-13,-0.097607,0,0,0.16667,3.9475e-16,0,0.66667
0.50886,0.39287,3.0531,-0.16069,-5.6265,62.308,1.3083,-0.4361,-1.9067,1.7444,-2.3781e-13,-0.95337,0,0,0.16667,-0,-0,0.66667
0.68093,0.94056,4.0856,0.66084,16.927,29.707,-7.1998,2.3999,-0.44687,-9.5997,-1.4269e-12,-0.22343,0,0,0.16667,1.579e-15,0,0.66667
0.3096,0.69843,1.8576,0.29764,12.771,111.63,-1.4744,0.49146,-1.6848,-1.9658,4.1118e-12,-0.84239,0,0,0.16667,-7.8949e-16,0,0.66667
0.38234,0.014758,2.294,-0.72786,-29.806,93.043,4.4526,-1.4842,-0.11479,5.9368,7.0344e-13,-0.057395,0,0,0.16667,-1.579e-15,0,0.66667
0.76093,0.98273,4.5656,0.7241,14.603,18.245,-8.8158,2.9386,-0.13471,-11.754,2.4531e-12,-0.067354,0,0,0.16667,-1.579e-15,0,0.66667
0.33003,0.69773,1.9802,0.29659,12.54,106.17,-1.5662,0.52205,-1.6876,-2.0882,4.3006e-12,-0.84378,0,0,0.16667,7.8949e-16,0,0.66667
0.063799,0.90406,0.3828,0.60609,28.851,181.67,-0.61869,0.20623,-0.69565,-0.82492,4.3096e-08,-0.34783,0,0,0.16667,1.1102e-16,0,0.66667
0.046104,0.46968,0.27663,-0.045476,-2.1518,186.84,0.033546,-0.011183,-1.995,0.044728,-7.1832e-07,-0.9975,0,0,0.16667,-1.9737e-16,0,0.66667
0.13493,0.090602,0.80955,-0.6141,-28.822,160.87,1.3257,-0.44191,-0.6589,1.7676,1.6704e-08,-0.32945,0,0,0.16667,1.9737e-16,0,0.66667
0.46952,0.8339,2.8171,0.50085,18.579,71.539,-3.7625,1.2542,-1.1092,-5.0166,-2.0584e-13,-0.55459,0,0,0.16667,-0,-0,0.66667
0.3841,0.41569,2.3046,-0.12647,-5.1032,92.07,0.77723,-0.25908,-1.9419,1.0363,4.2966e-14,-0.97097,0,0,0.16667,-0,-0,0.66667
0.6752,0.17222,4.0512,-0.49167,-12.678,30.289,5.3116,-1.7705,-1.1399,7.0822,3.84e-12,-0.56994,0,0,0.16667,7.8949e-16,0,0.66667
0.095395,0.35155,0.57237,-0.22268,-10.473,172.31,0.33988,-0.11329,-1.8244,0.45317,3.4639e-09,-0.9122,0,0,0.16667,1.9737e-16,0,0.66667
0.1618,0.388,0.97083,-0.168,-7.7596,152.94,0.43492,-0.14497,-1.8984,0.57989,1.031e-09,-0.9492,0,0,0.16667,-0,-0,0.66667
0.96914,0.34178,5.8149,-0.23733,-0.56757,0.67922,3.6801,-1.2267,-1.8021,4.9067,3.1568e-09,-0.90107,0,0,0.16667,1.9737e-16,0,0.66667
0.42449,0.22941,2.5469,-0.40589,-15.805,82.169,2.7567,-0.91891,-1.4142,3.6756,-7.4207e-13,-0.70708,0,0,0.16667,-0,-0,0.66667
0.91605,0.32726,5.4963,-0.25911,-1.8674,2.8503,3.7978,-1.2659,-1.7599,5.0637,-2.4439e-09,-0.87996,0,0,0.16667,-0,-0,0.66667
0.23435,0.3619,1.4061,-0.20714,-9.2853,132.28,0.7767,-0.2589,-1.8488,1.0356,1.0819e-10,-0.92442,0,0,0.16667,3.9475e-16,0,0.66667
0.98255,0.069165,5.8953,-0.64625,-0.97623,1.3298,10.16,-3.3865,-0.51578,13.546,3.798e-07,-0.25789,0,0,0.16667,-0,-0,0.66667
0.12649,0.55562,0.75893,0.083424,3.8922,163.19,-0.16884,0.056278,-1.9762,-0.22511,2.1071e-09,-0.98808,0,0,0.16667,-0,-0,0.66667
0.77992,0.33681,4.6795,-0.24479,-4.4751,14.921,3.0547,-1.0182,-1.7879,4.0729,-2.1268e-10,-0.89397,0,0,0.16667,-7.8949e-16,0,0.66667
0.98063,0.98689,5.8838,0.73033,1.3227,1.6668,-11.459,3.8196,-0.10282,-15.279,-6.0116e-06,-0.051411,0,0,0.16667,-0,-0,0.66667
0.48703,0.91383,2.9222,0.62075,22.614,67.687,-4.8371,1.6124,-0.63014,-6.4495,1.0925e-13,-0.31507,0,0,0.16667,-1.579e-15,0,0.66667
0.48989,0.0087591,2.9393,-0.73686,-26.866,67.245,5.7756,-1.9252,-0.068497,7.7009,9.9476e-14,-0.034249,0,0,0.16667,-0,-0,0.66667
0.17515,0.1629,1.0509,-0.50564,-23.365,149.2,1.417,-0.47233,-1.0909,1.8893,6.2896e-10,-0.54547,0,0,0.16667,-0,-0,0.66667
0.60894,0.28507,3.6536,-0.32239,-9.5834,41.795,3.1411,-1.047,-1.6325,4.1881,2.0282e-12,-0.81624,0,0,0.16667,-1.579e-15,0,0.66667
0.24288,0.012775,1.4573,-0.73084,-32.989,130.21,2.8401,-0.9467,-0.099432,3.7868,1.5191e-11,-0.049716,0,0,0.16667,7.8949e-16,0,0.66667
0.7168,0.099254,4.3008,-0.60112,-13.903,24.016,6.8941,-2.298,-0.71604,9.1921,2.2387e-12,-0.35802,0,0,0.16667,-0,1.2069e-16,0.66667
0.47407,0.30264,2.8444,-0.29604,-10.87,70.278,2.2455,-0.74848,-1.6874,2.9939,-3.4706e-13,-0.84369,0,0,0.16667,3.9475e-16,0,0.66667
0.23239,0.26393,1.3943,-0.35411,-15.919,132.88,1.3166,-0.43888,-1.5543,1.7555,1.1174e-10,-0.77713,0,0,0.16667,3.9475e-16,0,0.66667
0.46068,0.37624,2.7641,-0.18563,-6.9177,73.336,1.3683,-0.45609,-1.8774,1.8244,-9.1127e-13,-0.93869,0,0,0.16667,-0,-0,0.66667
0.024607,0.50149,0.14764,0.002233,0.10581,193.21,-0.00087912,0.00029731,-1.9999,-0.00117,6.4052e-06,-0.99995,0,0,0.16667,-0,-0,0.66667
0.097131,0.43378,0.58279,-0.099325,-4.6657,171.79,0.15436,-0.051454,-1.9653,0.20581,2.981e-10,-0.98266,0,0,0.16667,9.8686e-17,0,0.66667
0.10145,0.42528,0.60873,-0.11208,-5.2604,170.52,0.18193,-0.060644,-1.9539,0.24258,1.0771e-08,-0.97694,0,0,0.16667,-0,-0,0.66667
0.38922,0.12442,2.3353,-0.56338,-22.802,91.086,3.5084,-1.1695,-0.87351,4.6779,-8.0624e-13,-0.43675,0,0,0.16667,-9.6219e-16,0,0.66667
0.71597,0.010907,4.2958,-0.73364,-17.145,24.477,8.4042,-2.8014,-0.086128,11.206,2.256e-13,-0.043064,0,0,0.16667,-0,1.7938e-16,0.66667
0.052882,0.3437,0.31729,-0.23445,-11.099,184.84,0.19837,-0.066123,-1.8049,0.26449,-5.5604e-09,-0.90244,0,0,0.16667,-1.4109e-16,0,0.66667
0.012488,0.55875,0.074928,0.088124,4.1786,196.8,-0.017608,0.005869,-1.9729,-0.023478,-6.5475e-07,-0.98644,0,0,0.16667,1.8504e-17,0,0.66667
0.14747,0.85479,0.88482,0.53219,24.835,157.19,-1.2557,0.41857,-0.99162,-1.6743,-2.0884e-09,-0.49581,0,0,0.16667,-3.9475e-16,0,0.66667
0.93668,0.72859,5.6201,0.34288,1.8602,1.9624,-5.1387,1.7129,-1.583,-6.8516,-9.9586e-09,-0.79151,0,0,0.16667,-0,-0,0.66667
0.86574,0.22478,5.1944,-0.41283,-4.796,6.4941,5.7184,-1.9061,-1.3932,7.6245,-4.8557e-09,-0.69662,0,0,0.16667,-3.158e-15,0,0.66667
0.40252,0.88777,2.4151,0.58166,23.261,87.777,-3.7461,1.2487,-0.79637,-4.9948,9.015e-13,-0.39819,0,0,0.16667,-0,-0,0.66667
0.16129,0.76328,0.96776,0.39492,18.297,153.15,-1.0192,0.33973,-1.4443,-1.3589,-1.752e-09,-0.72216,0,0,0.16667,-0,-0,0.66667
0.35482,0.79219,2.1289,0.43828,18.22,99.765,-2.4882,0.8294,-1.3161,-3.3176,3.241e-12,-0.65807,0,0,0.16667,-0,-0,0.66667
0.93483,0.33782,5.609,-0.24327,-1.3453,1.898,3.6386,-1.2129,-1.79,4.8515,1.1581e-08,-0.89498,0,0,0.16667,-0,-0,0.66667
0.64355,0.88129,3.8613,0.57194,15.944,35.836,-5.8891,1.963,-0.83713,-7.8522,-1.708e-12,-0.41857,0,0,0.16667,-0,-0,0.66667
0.47107,0.8897,2.8264,0.58454,21.698,71.293,-4.4058,1.4686,-0.78501,-5.8743,3.4994e-13,-0.3925,0,0,0.16667,-7.8949e-16,0,0.66667
0.40237,0.24072,2.4142,-0.38892,-15.48,87.614,2.5038,-0.8346,-1.4617,3.3384,-1.473e-12,-0.73084,0,0,0.16667,-0,-0,0.66667
0.89655,0.85186,5.3793,0.52779,4.8148,4.5209,-7.571,2.5237,-1.0086,-10.095,1.5341e-08,-0.5043,0,0,0.16667,-0,-0,0.66667
0.97347,0.04841,5.8408,-0.67739,-1.6293,1.6175,10.551,-3.5169,-0.36746,14.068,9.6374e-06,-0.18373,0,0,0.16667,1.579e-15,0,0.66667
0.77868,0.38502,4.6721,-0.17247,-3.1637,15.01,2.1488,-0.71626,-1.8942,2.8651,-1.5741e-10,-0.94711,0,0,0.16667,-0,-0,0.66667
0.83334,0.52676,5.0001,0.040142,0.56537,8.9748,-0.53523,0.17841,-1.9939,-0.71365,-4.2181e-10,-0.99696,0,0,0.16667,7.8949e-16,0,0.66667
0.30709,0.11486,1.8425,-0.57771,-24.978,112.5,2.8386,-0.94619,-0.81226,3.7847,-3.3331e-12,-0.40613,0,0,0.16667,-3.9475e-16,0,0.66667
0.93952,0.32229,5.6371,-0.26656,-1.3651,1.7244,4.007,-1.3357,-1.7477,5.3427,1.5462e-08,-0.87383,0,0,0.16667,-1.579e-15,0,0.66667
0.4527,0.30996,2.7162,-0.28506,-10.736,75.279,2.0647,-0.68824,-1.7134,2.753,-1.5263e-12,-0.85668,0,0,0.16667,1.2196e-15,0,0.66667
0.17931,0.46583,1.0758,-0.05126,-2.3516,147.89,0.14706,-0.04902,-1.9902,0.19608,5.0436e-10,-0.99512,0,0,0.16667,-2.9606e-16,0,0.66667
0.5963,0.74654,3.5778,0.36981,11.276,44.269,-3.5283,1.1761,-1.5146,-4.7044,-1.2843e-12,-0.75728,0,0,0.16667,7.8949e-16,0,0.66667
0.6841,0.58017,4.1046,0.12026,3.0025,28.425,-1.3163,0.43876,-1.948,-1.755,-2.1737e-12,-0.974,0,0,0.16667,-7.8949e-16,0,0.66667
0.43734,0.13403,2.6241,-0.54895,-21.161,79.209,3.8413,-1.2804,-0.93013,5.1217,-1.1791e-12,-0.46506,0,0,0.16667,7.8949e-16,1.7876e-16,0.66667
0.37334,0.74478,2.2401,0.36716,15.005,94.933,-2.1933,0.73109,-1.5217,-2.9244,3.0647e-12,-0.76085,0,0,0.16667,-3.9475e-16,0,0.66667
0.70431,0.47125,4.2259,-0.04312,-1.018,25.215,0.48592,-0.16197,-1.9952,0.6479,1.6812e-13,-0.99758,0,0,0.16667,-0,-0,0.66667
0.25974,0.13312,1.5584,-0.55031,-24.485,125.38,2.287,-0.76234,-0.92224,3.0494,-3.1353e-13,-0.46112,0,0,0.16667,-0,-0,0.66667
0.68635,0.86072,4.1181,0.54109,13.586,28.573,-5.942,1.9807,-0.95962,-7.9226,-4.1838e-12,-0.47981,0,0,0.16667,7.8949e-16,-5.8237e-17,0.66667
0.57492,0.71539,3.4495,0.32308,10.229,48.439,-2.9719,0.99065,-1.6294,-3.9626,-6.0085e-13,-0.8147,0,0,0.16667,7.8949e-16,0,0.66667
0.33501,0.38039,2.01,-0.17942,-7.5468,104.81,0.96169,-0.32056,-1.8848,1.2823,-3.0237e-12,-0.94239,0,0,0.16667,-0,-0,0.66667
0.67669,0.88759,4.0601,0.58139,14.993,30.218,-6.2947,2.0982,-0.79713,-8.3929,-2.6854e-12,-0.39857,0,0,0.16667,-0,-0,0.66667
0.042896,0.13669,0.25737,-0.54496,-25.96,187.82,0.37403,-0.12468,-0.94332,0.4987,2.7898e-09,-0.47166,0,0,0.16667,-0,-0,0.66667
0.54883,0.72644,3.293,0.33966,11.235,53.812,-2.9827,0.99422,-1.5903,-3.9769,-3.5372e-13,-0.79517,0,0,0.16667,-0,-0,0.66667
0.5956,0.042348,3.5736,-0.68648,-21.197,44.936,6.5419,-2.1806,-0.32474,8.7225,9.4857e-13,-0.16237,0,0,0.16667,-1.579e-15,0,0.66667
0.28722,0.63992,1.7233,0.20988,9.1301,117.65,-0.96449,0.3215,-1.842,-1.286,-2.4559e-12,-0.921,0,0,0.16667,-3.9475e-16,0,0.66667
0.35628,0.8629,2.1377,0.54435,22.662,99.486,-3.1031,1.0344,-0.94602,-4.1375,1.6764e-12,-0.47301,0,0,0.16667,-0,-0,0.66667
0.86302,0.97445,5.1781,0.71167,8.6763,7.4872,-9.827,3.2757,-0.19917,-13.103,2.9064e-09,-0.099584,0,0,0.16667,3.158e-15,0,0.66667
0.61937,0.28437,3.7162,-0.32345,-9.4161,39.839,3.2054,-1.0685,-1.6278,4.2738,2.1865e-12,-0.8139,0,0,0.16667,-1.579e-15,0,0.66667
0.63994,0.61974,3.8397,0.17961,4.992,35.971,-1.8391,0.61303,-1.8869,-2.4521,-3.2035e-12,-0.94347,0,0,0.16667,-0,-0,0.66667
0.10461,0.96779,0.62767,0.70168,33.261,169.73,-1.1745,0.39148,-0.24982,-1.5659,-1.5137e-07,-0.12491,0,0,0.16667,6.1679e-17,0,0.66667
0.23792,0.6579,1.4275,0.23685,10.601,131.29,-0.90162,0.30054,-1.8012,-1.2022,-9.7262e-11,-0.90062,0,0,0.16667,-0,-0,0.66667
0.71928,0.009716,4.3157,-0.73543,-17.021,23.995,8.4636,-2.8212,-0.078216,11.285,-1.7284e-12,-0.039108,0,0,0.16667,-0,-0,0.66667
0.69947,0.16882,4.1968,-0.49677,-12.016,26.421,5.5596,-1.8532,-1.1219,7.4128,4.3583e-12,-0.56095,0,0,0.16667,-0,-0,0.66667
0.44662,0.39028,2.6797,-0.16458,-6.2326,76.661,1.1761,-0.39202,-1.9022,1.5681,-5.4379e-13,-0.95112,0,0,0.16667,-0,-0,0.66667
0.039252,0.45917,0.23551,-0.06124,-2.8995,188.87,0.038461,-0.012821,-1.9854,0.051281,-5.4437e-07,-0.99269,0,0,0.16667,-0,-0,0.66667
0.050396,0.52244,0.30238,0.033667,1.5923,185.57,-0.027147,0.009049,-1.9956,-0.036196,6.2807e-08,-0.99782,0,0,0.16667,9.8686e-17,0,0.66667
0.088504,0.63435,0.53102,0.20153,9.4884,174.33,-0.28537,0.095124,-1.8546,-0.38049,9.1873e-09,-0.92732,0,0,0.16667,-0,-0,0.66667
0.86433,0.31429,5.186,-0.27857,-3.2421,6.3936,3.8524,-1.2841,-1.7243,5.1365,-3.6204e-09,-0.86214,0,0,0.16667,-0,-0,0.66667
0.13609,0.1409,0.81657,-0.53865,-25.224,160.5,1.1729,-0.39098,-0.96733,1.5639,2.9339e-10,-0.48367,0,0,0.16667,-1.9737e-16,0,0.66667
0.65826,0.20135,3.9496,-0.44797,-12.017,33.06,4.7181,-1.5727,-1.2866,6.2908,3.785e-12,-0.64328,0,0,0.16667,-0,-0,0.66667
0.57697,0.18307,3.4618,-0.47539,-15.057,48.216,4.3886,-1.4629,-1.1979,5.8514,6.6569e-13,-0.59895,0,0,0.16667,-0,-0,0.66667
0.7266,0.93175,4.3596,0.64763,14.578,22.703,-7.529,2.5097,-0.50785,-10.039,-1.116e-12,-0.25393,0,0,0.16667,-1.1842e-15,0,0.66667
0.58257,0.65481,3.4954,0.23222,7.2411,46.833,-2.1645,0.72152,-1.8087,-2.8861,-9.7011e-13,-0.90433,0,0,0.16667,-3.9475e-16,0,0.66667
0.17942,0.46234,1.0765,-0.056495,-2.5917,147.86,0.16218,-0.05406,-1.9877,0.21624,4.7056e-10,-0.99385,0,0,0.16667,-1.9737e-16,0,0.66667
0.73408,0.64469,4.4045,0.21704,4.688,20.912,-2.5492,0.84974,-1.8338,-3.399,2.0259e-11,-0.9169,0,0,0.16667,7.8949e-16,0,0.66667
0.59544,0.12312,3.5727,-0.56531,-17.372,44.725,5.3858,-1.7953,-0.86529,7.1811,7.6561e-13,-0.43264,0,0,0.16667,-8.8818e-16,0,0.66667
0.54618,0.031394,3.2771,-0.70291,-23.625,54.918,6.1427,-2.0476,-0.24584,8.1903,-2.1765e-12,-0.12292,0,0,0.16667,1.579e-15,-3.6284e-18,0.66667
0.72712,0.81886,4.3627,0.47829,10.654,22.257,-5.5644,1.8548,-1.1857,-7.4192,4.4222e-12,-0.59285,0,0,0.16667,-1.579e-15,0,0.66667
0.31395,0.7762,1.8837,0.4143,17.758,110.53,-2.0811,0.6937,-1.3909,-2.7748,4.9423e-12,-0.69545,0,0,0.16667,5.9212e-16,0,0.66667
0.070608,0.36837,0.42365,-0.19745,-9.3232,179.61,0.22307,-0.074355,-1.8604,0.29742,1.2248e-08,-0.9302,0,0,0.16667,-9.8686e-17,0,0.66667
0.088214,0.24035,0.52928,-0.38947,-18.383,174.45,0.54971,-0.18324,-1.4596,0.73295,1.0162e-08,-0.72981,0,0,0.16667,-0,-0,0.66667
0.32773,0.16596,1.9664,-0.50106,-21.306,106.93,2.6274,-0.87579,-1.1087,3.5032,-3.9067e-12,-0.55434,0,0,0.16667,7.8949e-16,-9.3771e-17,0.66667
0.23168,0.27243,1.3901,-0.34135,-15.348,133.07,1.2654,-0.42179,-1.5857,1.6872,1.2155e-10,-0.79287,0,0,0.16667,-0,-0,0.66667
0.74822,0.79584,4.4893,0.44375,9.2075,19.258,-5.3124,1.7708,-1.3001,-7.0832,2.8148e-11,-0.65003,0,0,0.16667,-1.579e-15,0,0.66667
0.60764,0.93684,3.6458,0.65527,19.749,42.569,-6.3706,2.1235,-0.47514,-8.4942,-2.3048e-13,-0.23757,0,0,0.16667,-4.9343e-17,-1.6239e-17,0.66667
0.095431,0.94941,0.57259,0.67411,31.987,172.4,-1.0293,0.3431,-0.38461,-1.3724,-4.6219e-08,-0.1923,0,0,0.16667,-0,-0,0.66667
0.71985,0.45678,4.3191,-0.064827,-1.4617,22.881,0.74666,-0.24889,-1.9858,0.99554,-3.4581e-12,-0.99288,0,0,0.16667,-0,-0,0.66667
0.9161,0.98994,5.4966,0.73492,5.6541,4.0033,-10.772,3.5907,-0.078504,-14.363,1.947e-08,-0.039252,0,0,0.16667,-0,-0,0.66667
0.82438,0.18212,4.9463,-0.47682,-7.1673,10.355,6.2893,-2.0964,-1.1916,8.3858,-7.337e-10,-0.5958,0,0,0.16667,-1.579e-15,0,0.66667
0.67331,0.43523,4.0399,-0.097159,-2.4937,30.184,1.0467,-0.3489,-1.9681,1.3956,1.8442e-12,-0.98405,0,0,0.16667,1.9737e-16,0,0.66667
0.77664,0.41129,4.6598,-0.13306,-2.4594,15.234,1.6535,-0.55115,-1.9368,2.2046,-1.234e-10,-0.96839,0,0,0.16667,-0,-0,0.66667
0.15012,0.97693,0.90074,0.71539,33.527,156.52,-1.7184,0.57278,-0.17931,-2.2911,-1.3378e-09,-0.089657,0,0,0.16667,-0,-0,0.66667
0.065513,0.43656,0.39308,-0.095165,-4.4937,181.1,0.099752,-0.033251,-1.9689,0.133,-1.8116e-08,-0.98443,0,0,0.16667,-1.2336e-17,0,0.66667
0.74798,0.59705,4.4879,0.14558,2.9966,18.94,-1.7423,0.58075,-1.9258,-2.323,3.9285e-11,-0.96289,0,0,0.16667,-0,-0,0.66667
0.98478,0.3791,5.9087,-0.18135,-0.16332,0.28207,2.8574,-0.95246,-1.8851,3.8098,-4.5396e-08,-0.94254,0,0,0.16667,-0,-0,0.66667
0.24024,0.34967,1.4415,-0.22549,-10.079,130.63,0.86677,-0.28892,-1.8185,1.1557,8.4692e-11,-0.90925,0,0,0.16667,-0,-0,0.66667
0.56194,0.65792,3.3716,0.23687,7.6553,51.005,-2.1297,0.70991,-1.8028,-2.8396,-6.5037e-13,-0.90142,0,0,0.16667,-0,-0,0.66667
0.080826,0.021624,0.48495,-0.71756,-34.183,176.7,0.92796,-0.30932,-0.16921,1.2373,2.0586e-07,-0.084604,0,0,0.16667,-0,-0,0.66667
0.56119,0.93798,3.3671,0.65697,21.514,51.721,-5.8989,1.9663,-0.46747,-7.8652,1.3722e-13,-0.23374,0,0,0.16667,-0,-1.1953e-17,0.66667
0.45044,0.053266,2.7026,-0.6701,-25.56,76.258,4.8294,-1.6098,-0.40343,6.4392,-1.2923e-12,-0.20171,0,0,0.16667,3.9475e-16,-1.6435e-16,0.66667
0.24055,0.17723,1.4433,-0.48416,-21.73,130.66,1.8635,-0.62115,-1.1653,2.4846,4.2885e-11,-0.58266,0,0,0.16667,1.9737e-16,0,0.66667
0.56538,0.38539,3.3923,-0.17191,-5.5191,50.259,1.5551,-0.51838,-1.8947,2.0735,1.9595e-13,-0.94737,0,0,0.16667,-0,-0,0.66667
0.65399,0.91808,3.924,0.62713,17.117,34.13,-6.5622,2.1874,-0.60168,-8.7496,-1.191e-12,-0.30084,0,0,0.16667,-0,-0,0.66667
0.91167,0.98864,5.47,0.73297,5.9215,4.2377,-10.692,3.5639,-0.088669,-14.255,-4.7697e-08,-0.044335,0,0,0.16667,-7.8949e-16,0,0.66667
0.78264,0.47761,4.6959,-0.03358,-0.605,14.47,0.4205,-0.14017,-1.9967,0.56067,-5.9952e-11,-0.99837,0,0,0.16667,-0,-0,0.66667
0.97683,0.18807,5.861,-0.46789,-0.86203,0.92065,7.3127,-2.4376,-1.2217,9.7503,1.942e-07,-0.61083,0,0,0.16667,-3.158e-15,0,0.66667
0.44272,0.24631,2.6563,-0.38053,-14.521,77.735,2.6955,-0.89849,-1.4849,3.594,-1.1069e-12,-0.74246,0,0,0.16667,-7.8949e-16,0,0.66667
0.14102,0.98614,0.84613,0.72921,34.283,159.16,-1.6453,0.54845,-0.11046,-2.1938,9.9494e-10,-0.055228,0,0,0.16667,-3.9475e-16,0,0.66667
0.40997,0.3371,2.4598,-0.24435,-9.6302,85.625,1.6028,-0.53428,-1.7875,2.1371,-1.1825e-12,-0.89376,0,0,0.16667,-0,-0,0.66667
0.7923,0.71937,4.7538,0.32906,5.7249,13.558,-4.1714,1.3905,-1.6155,-5.5619,3.4251e-10,-0.80777,0,0,0.16667,-3.158e-15,0,0.66667
0.21104,0.72377,1.2662,0.33566,15.237,138.89,-1.1334,0.37779,-1.5987,-1.5112,-3.0072e-10,-0.79933,0,0,0.16667,-0,-0,0.66667
0.17738,0.11632,1.0643,-0.57552,-26.618,148.6,1.6334,-0.54446,-0.82136,2.1778,4.4023e-10,-0.41068,0,0,0.16667,-0,-0,0.66667
0.6451,0.96021,3.8706,0.69032,19.284,35.819,-7.1252,2.3751,-0.30496,-9.5003,-2.3537e-13,-0.15248,0,0,0.16667,-7.8949e-16,0,0.66667
0.94704,0.0022828,5.6822,-0.74658,-3.6914,2.6514,11.313,-3.7709,-0.018061,15.083,2.5148e-07,-0.0090304,0,0,0.16667,-0,-0,0.66667
0.40926,0.65573,2.4556,0.2336,9.2116,85.794,-1.5297,0.50989,-1.8071,-2.0395,8.5987e-13,-0.90357,0,0,0.16667,9.3752e-16,0,0.66667
0.69687,0.18304,4.1812,-0.47544,-11.573,26.786,5.3011,-1.767,-1.1957,7.0682,4.0425e-12,-0.59787,0,0,0.16667,3.9475e-16,0,0.66667
0.40397,0.80808,2.4238,0.46212,18.395,87.281,-2.987,0.99565,-1.2415,-3.9826,1.231e-12,-0.62075,0,0,0.16667,3.9475e-16,0,0.66667
0.34982,0.86577,2.0989,0.54866,22.964,101.17,-3.0709,1.0236,-0.92858,-4.0945,2.8861e-12,-0.46429,0,0,0.16667,-0,-0,0.66667
0.13297,0.8846,0.79781,0.57689,27.064,161.42,-1.2273,0.40911,-0.8154,-1.6365,-2.1531e-09,-0.4077,0,0,0.16667,-0,-0,0.66667
0.019913,0.9709,0.11948,0.70634,33.845,194.62,-0.22505,0.07502,-0.22636,-0.30006,7.054e-06,-0.11318,0,0,0.16667,-0,-0,0.66667
0.11967,0.35455,0.71802,-0.21818,-10.206,165.2,0.41775,-0.13925,-1.8297,0.557,2.9661e-09,-0.91483,0,0,0.16667,1.9737e-16,0,0.66667
0.44424,0.55486,2.6654,0.082295,3.1232,77.207,-0.58494,0.19498,-1.9749,-0.77992,-3.2124e-13,-0.98744,0,0,0.16667,7.8949e-16,0,0.66667
0.72978,0.088672,4.3787,-0.61699,-13.726,22.172,7.2043,-2.4014,-0.6462,9.6058,6.7502e-13,-0.3231,0,0,0.16667,7.8949e-16,0,0.66667
0.05369,0.22257,0.32214,-0.41615,-19.75,184.62,0.35749,-0.11916,-1.3837,0.47666,-2.6674e-08,-0.69186,0,0,0.16667,-0,-0,0.66667
0.22167,0.46032,1.33,-0.059516,-2.6819,135.82,0.21109,-0.070362,-1.9874,0.28145,6.6051e-11,-0.99369,0,0,0.16667,1.9737e-16,0,0.66667
0.031064,0.82726,0.18639,0.49088,23.376,191.31,-0.24399,0.081329,-1.1445,-0.32531,2.17e-07,-0.57224,0,0,0.16667,-4.9343e-17,4.4009e-17,0.66667
0.83332,0.0098636,4.9999,-0.7352,-10.767,10.174,9.8026,-3.2675,-0.077144,13.07,1.1656e-09,-0.038572,0,0,0.16667,-0,-0,0.66667
0.38188,0.25125,2.2913,-0.37313,-15.135,92.762,2.2798,-0.75994,-1.5049,3.0398,-8.3222e-13,-0.75246,0,0,0.16667,-0,-0,0.66667
0.28458,0.86424,1.7075,0.54636,23.952,118.56,-2.4877,0.82925,-0.9382,-3.317,2.6832e-12,-0.4691,0,0,0.16667,3.9475e-16,0,0.66667
0.78367,0.70085,4.702,0.30128,5.4327,14.534,-3.7777,1.2592,-1.6771,-5.0369,2.3889e-10,-0.83857,0,0,0.16667,-0,-0,0.66667
0.2789,0.33684,1.6734,-0.24474,-10.706,119.93,1.0922,-0.36405,-1.7874,1.4562,6.9059e-12,-0.89372,0,0,0.16667,-1.9737e-16,0,0.66667
0.28082,0.65141,1.6849,0.22712,9.9217,119.4,-1.0205,0.34016,-1.8185,-1.3606,-8.506e-12,-0.90924,0,0,0.16667,5.9212e-16,0,0.66667
0.935,0.29637,5.61,-0.30545,-1.6954,1.9755,4.5695,-1.5232,-1.6681,6.0927,8.5492e-09,-0.83404,0,0,0.16667,-0,-0,0.66667
0.16421,0.064978,0.98529,-0.65253,-30.384,152.42,1.7145,-0.5715,-0.48571,2.286,-1.682e-09,-0.24286,0,0,0.16667,-0,-0,0.66667
0.03791,0.5235,0.22746,0.035257,1.6694,189.26,-0.021386,0.0071285,-1.9945,-0.028514,-6.269e-08,-0.99727,0,0,0.16667,-0,-0,0.66667
0.95604,0.13779,5.7363,-0.54331,-2.0917,1.6745,8.3109,-2.7703,-0.9501,11.081,-2.4306e-08,-0.47505,0,0,0.16667,-0,-0,0.66667
0.30613,0.047756,1.8368,-0.67837,-29.438,112.86,3.3227,-1.1076,-0.36236,4.4303,-1.6525e-12,-0.18118,0,0,0.16667,-0,-0,0.66667
0.41408,0.38982,2.4845,-0.16527,-6.4812,84.572,1.095,-0.36499,-1.9013,1.46,-9.6323e-13,-0.95067,0,0,0.16667,-0,-0,0.66667
0.79679,0.41034,4.7808,-0.13448,-2.281,12.853,1.7145,-0.57149,-1.9379,2.286,-1.9924e-10,-0.96897,0,0,0.16667,-0,-0,0.66667
0.35618,0.37755,2.1371,-0.18367,-7.5969,99.261,1.0467,-0.34891,-1.8807,1.3956,-3.0439e-12,-0.94037,0,0,0.16667,-0,-0,0.66667
0.10486,0.91812,0.62915,0.62719,29.664,169.63,-1.0522,0.35075,-0.60045,-1.403,4.3636e-09,-0.30022,0,0,0.16667,-0,-0,0.66667
0.7889,0.46697,4.7334,-0.049539,-0.86919,13.731,0.6253,-0.20843,-1.9911,0.83373,-1.2955e-10,-0.99554,0,0,0.16667,1.9737e-16,0,0.66667
0.12962,0.49695,0.77769,-0.0045743,-0.21321,162.28,0.0094864,-0.0031621,-2,0.012649,1.356e-09,-0.99999,0,0,0.16667,-5.9212e-16,0,0.66667
0.19804,0.53091,1.1882,0.046363,2.1112,142.53,-0.14691,0.048969,-1.9928,-0.19588,4.6951e-11,-0.9964,0,0,0.16667,-3.1841e-16,0,0.66667
0.13971,0.60177,0.83824,0.15265,7.0989,159.35,-0.34122,0.11374,-1.9183,-0.45497,-2.124e-10,-0.95914,0,0,0.16667,-0,-0,0.66667
0.22166,0.88614,1.33,0.57921,26.3,136.02,-2.0542,0.68473,-0.80693,-2.7389,-6.7721e-11,-0.40346,0,0,0.16667,3.9475e-16,0,0.66667
0.23535,0.57571,1.4121,0.11356,5.0844,131.98,-0.42763,0.14254,-1.9549,-0.57017,-6.6827e-11,-0.97744,0,0,0.16667,-3.9475e-16,0,0.66667
0.7264,0.42413,4.3584,-0.11381,-2.5155,21.943,1.3228,-0.44092,-1.9524,1.7637,-8.585e-12,-0.97622,0,0,0.16667,-0,-0,0.66667
0.095244,0.43219,0.57146,-0.10171,-4.7796,172.35,0.155,-0.051666,-1.9643,0.20666,-1.0634e-08,-0.98217,0,0,0.16667,-0,-0,0.66667
0.66824,0.85493,4.0095,0.53239,13.989,31.518,-5.6923,1.8974,-0.99164,-7.5897,-3.0247e-12,-0.49582,0,0,0.16667,-0,-0,0.66667
0.91093,0.42093,5.4656,-0.11861,-0.90155,3.0081,1.7287,-0.57624,-1.9489,2.305,1.0257e-08,-0.97445,0,0,0.16667,-0,-0,0.66667
0.63,0.97624,3.78,0.71437,20.641,38.567,-7.2008,2.4003,-0.18483,-9.601,-3.002e-13,-0.092416,0,0,0.16667,-0,-0,0.66667
0.33688,0.39549,2.0213,-0.15677,-6.5836,104.31,0.84503,-0.28168,-1.9113,1.1267,-3.1475e-12,-0.95564,0,0,0.16667,-0,-0,0.66667
0.83945,0.86837,5.0367,0.55256,7.6854,9.0744,-7.4215,2.4738,-0.91402,-9.8954,3.2095e-10,-0.45701,0,0,0.16667,-0,-0,0.66667
0.89856,0.29002,5.3914,-0.31498,-2.7603,3.9631,4.5284,-1.5095,-1.646,6.0379,-6.4139e-09,-0.82302,0,0,0.16667,-0,-0,0.66667
0.49346,0.18092,2.9608,-0.47861,-17.214,66.026,3.7788,-1.2596,-1.1846,5.0384,-4.1345e-13,-0.59231,0,0,0.16667,-0,-0,0.66667
0.56348,0.58696,3.3809,0.13044,4.1993,50.629,-1.176,0.392,-1.9407,-1.568,-9.0539e-13,-0.97037,0,0,0.16667,-0,-0,0.66667
0.58066,0.28307,3.484,-0.32539,-10.199,47.292,3.0231,-1.0077,-1.6247,4.0308,1.384e-12,-0.81233,0,0,0.16667,-1.579e-15,0,0.66667
0.13276,0.87756,0.79654,0.56633,26.563,161.48,-1.203,0.40099,-0.85927,-1.6039,4.1553e-09,-0.42963,0,0,0.16667,-0,-0,0.66667
0.37306,0.47912,2.2384,-0.031325,-1.2761,94.873,0.18698,-0.062326,-1.9968,0.2493,-1.1883e-12,-0.99841,0,0,0.16667,-0,-0,0.66667
0.81161,0.54168,4.8697,0.06252,0.98795,11.189,-0.81187,0.27062,-1.987,-1.0825,2.5245e-10,-0.99352,0,0,0.16667,-0,-0,0.66667
0.5196,0.27096,3.1176,-0.34356,-11.88,60.068,2.8563,-0.95208,-1.5797,3.8083,-2.5424e-13,-0.78984,0,0,0.16667,7.8949e-16,0,0.66667
0.93958,0.2099,5.6375,-0.43515,-2.2792,2.018,6.5418,-2.1806,-1.3271,8.7224,-1.8391e-09,-0.66354,0,0,0.16667,7.8949e-16,0,0.66667
0.61582,0.15283,3.6949,-0.52076,-15.36,40.775,5.1311,-1.7104,-1.0354,6.8414,1.1386e-12,-0.51768,0,0,0.16667,1.8232e-16,0,0.66667
0.77945,0.17475,4.6767,-0.48788,-9.0263,15.348,6.0845,-2.0282,-1.1539,8.1126,-1.2819e-10,-0.57697,0,0,0.16667,-7.8949e-16,0,0.66667
0.24803,0.048347,1.4882,-0.67748,-30.446,128.73,2.6886,-0.89618,-0.36818,3.5847,-3.4865e-12,-0.18409,0,0,0.16667,-0,1.9562e-16,0.66667
0.55931,0.99284,3.3558,0.73926,24.372,52.277,-6.6156,2.2052,-0.056828,-8.8208,7.5051e-13,-0.028414,0,0,0.16667,-2.3685e-15,1.394e-16,0.66667
0.81064,0.55802,4.8638,0.087028,1.3822,11.301,-1.1288,0.37626,-1.9741,-1.505,1.9117e-10,-0.98705,0,0,0.16667,8.5249e-17,0,0.66667
0.15271,0.51122,0.91627,0.016834,0.77938,155.56,-0.041132,0.013711,-1.9985,-0.054843,1.6272e-09,-0.99923,0,0,0.16667,-0,-0,0.66667
0.54016,0.65967,3.241,0.23951,8.0166,55.555,-2.07,0.68999,-1.7956,-2.7599,-4.4742e-13,-0.8978,0,0,0.16667,-0,-0,0.66667
0.6103,0.37096,3.6618,-0.19356,-5.7249,41.429,1.8901,-0.63002,-1.8685,2.5201,1.4024e-12,-0.93423,0,0,0.16667,-1.9737e-16,0,0.66667
0.18706,0.859,1.1223,0.5385,24.791,145.81,-1.6117,0.53723,-0.97002,-2.1489,-3.6375e-10,-0.48501,0,0,0.16667,3.9475e-16,0,0.66667
0.63689,0.4807,3.8213,-0.028956,-0.80924,36.464,0.29507,-0.098356,-1.9964,0.39342,3.5566e-13,-0.99818,0,0,0.16667,-0,-0,0.66667
0.067575,0.33906,0.40545,-0.24141,-11.408,180.5,0.26101,-0.087003,-1.7924,0.34801,-1.3916e-08,-0.89622,0,0,0.16667,-0,-0,0.66667
0.77954,0.66646,4.6772,0.24969,4.5725,14.972,-3.1143,1.0381,-1.7788,-4.1524,2.0638e-10,-0.88939,0,0,0.16667,-0,-0,0.66667
0.32597,0.81993,1.9558,0.47989,20.422,107.37,-2.5029,0.8343,-1.1816,-3.3372,4.2537e-12,-0.59082,0,0,0.16667,-0,-0,0.66667
0.48278,0.54781,2.8967,0.07171,2.5983,68.164,-0.55392,0.18464,-1.982,-0.73857,-5.011e-13,-0.99102,0,0,0.16667,-0,-0,0.66667
0.38231,0.48385,2.2939,-0.024218,-0.97846,92.51,0.14814,-0.049381,-1.9964,0.19752,8.7039e-13,-0.99819,0,0,0.16667,-7.8949e-16,0,0.66667
0.32698,0.33176,1.9619,-0.25236,-10.687,106.96,1.3202,-0.44008,-1.7742,1.7603,-4.9918e-12,-0.88712,0,0,0.16667,3.9475e-16,0,0.66667
0.98768,0.060623,5.9261,-0.65907,-0.68712,1.2923,10.415,-3.4717,-0.45634,13.887,-2.7415e-06,-0.22817,0,0,0.16667,-7.8949e-16,0,0.66667
0.879,0.40083,5.274,-0.14876,-1.5401,5.127,2.0921,-0.69737,-1.9212,2.7895,-7.9471e-09,-0.9606,0,0,0.16667,7.8949e-16,0,0.66667
0.30229,0.1537,1.8138,-0.51946,-22.498,113.74,2.5125,-0.83749,-1.0405,3.3499,-5.862e-12,-0.52025,0,0,0.16667,9.8686e-17,0,0.66667
0.16065,0.60063,0.96388,0.15094,6.9737,153.28,-0.38797,0.12932,-1.9185,-0.5173,-8.9264e-10,-0.95927,0,0,0.16667,-0,-0,0.66667
0.52931,0.88366,3.1759,0.57549,19.746,58.263,-4.8738,1.6246,-0.8229,-6.4984,-1.2612e-13,-0.41145,0,0,0.16667,-0,-0,0.66667
0.13806,0.40359,0.82836,-0.14461,-6.7277,159.83,0.31943,-0.10648,-1.9266,0.42591,-1.5114e-09,-0.9633,0,0,0.16667,-2.9606e-16,0,0.66667
0.64979,0.46835,3.8987,-0.047474,-1.289,34.18,0.49357,-0.16452,-1.9922,0.65809,9.1843e-13,-0.99608,0,0,0.16667,7.339e-17,0,0.66667
0.23295,0.057651,1.3977,-0.66352,-30.037,132.92,2.4731,-0.82437,-0.43585,3.2975,1.1858e-11,-0.21792,0,0,0.16667,-1.9737e-16,0,0.66667
0.096557,0.62341,0.57934,0.18512,8.7016,171.97,-0.286,0.095332,-1.8792,-0.38133,3.2866e-10,-0.93959,0,0,0.16667,-6.1679e-17,0,0.66667
0.021993,0.20103,0.13196,-0.44846,-21.348,193.99,0.1578,-0.052601,-1.2835,0.21041,-1.5405e-07,-0.64176,0,0,0.16667,-0,-0,0.66667
0.85906,0.79039,5.1544,0.43559,5.3098,7.0845,-5.9872,1.9957,-1.3268,-7.9829,3.4503e-09,-0.66341,0,0,0.16667,-0,-0,0.66667
0.14271,0.339,0.85626,-0.2415,-11.23,158.49,0.55144,-0.18381,-1.7935,0.73525,2.3001e-09,-0.89674,0,0,0.16667,1.9737e-16,0,0.66667
0.40293,0.079167,2.4176,-0.63125,-25.273,87.74,4.0696,-1.3565,-0.58263,5.4261,-4.7162e-13,-0.29131,0,0,0.16667,3.1233e-16,0,0.66667
0.093564,0.2088,0.56139,-0.43681,-20.615,172.88,0.65391,-0.21797,-1.3231,0.87188,1.18e-08,-0.66154,0,0,0.16667,-9.8686e-17,0,0.66667
0.11789,0.31406,0.70736,-0.27891,-13.061,165.73,0.5261,-0.17537,-1.7233,0.70147,3.6163e-09,-0.86164,0,0,0.16667,-0,-0,0.66667
0.37482,0.21334,2.2489,-0.42999,-17.571,94.607,2.5787,-0.85955,-1.3446,3.4382,-1.8172e-12,-0.6723,0,0,0.16667,-5.9212e-16,0,0.66667
0.16539,0.71545,0.99232,0.32318,14.935,151.94,-0.85519,0.28506,-1.6282,-1.1403,-1.5267e-09,-0.81412,0,0,0.16667,-4.9343e-17,0,0.66667
0.71895,0.96239,4.3137,0.69359,16.025,23.929,-7.9785,2.6595,-0.29139,-10.638,-1.5348e-12,-0.1457,0,0,0.16667,-3.9475e-16,0,0.66667
0.12585,0.32394,0.75511,-0.26409,-12.341,163.4,0.53179,-0.17726,-1.7529,0.70905,3.4445e-09,-0.87646,0,0,0.16667,-1.9737e-16,0,0.66667
0.73883,0.90311,4.433,0.60467,13.057,20.874,-7.148,2.3827,-0.70009,-9.5307,2.2564e-12,-0.35004,0,0,0.16667,9.8686e-16,0,0.66667
0.84138,0.72815,5.0483,0.34223,4.6398,8.4737,-4.6071,1.5357,-1.5837,-6.1428,1.8411e-09,-0.79186,0,0,0.16667,-0,-0,0.66667
0.082681,0.18035,0.49608,-0.47948,-22.692,176.09,0.6343,-0.21143,-1.182,0.84573,1.7938e-08,-0.59102,0,0,0.16667,-0,-0,0.66667
0.040078,0.45357,0.24047,-0.069646,-3.2974,188.62,0.04466,-0.014887,-1.9813,0.059547,-3.4011e-07,-0.99063,0,0,0.16667,1.8812e-18,0,0.66667
0.49353,0.80391,2.9612,0.45587,16.384,65.981,-3.5998,1.1999,-1.26,-4.7997,-3.9768e-13,-0.62999,0,0,0.16667,-3.9475e-16,0,0.66667
0.60076,0.72083,3.6046,0.33125,10.006,43.366,-3.184,1.0613,-1.6096,-4.2453,-1.4206e-12,-0.80482,0,0,0.16667,-1.579e-15,0,0.66667
0.684,0.14666,4.104,-0.53002,-13.383,28.928,5.8005,-1.9335,-1.0008,7.734,3.6846e-12,-0.50039,0,0,0.16667,-0,-0,0.66667
0.47827,0.095442,2.8696,-0.60684,-22.343,69.664,4.6438,-1.5479,-0.69061,6.1917,-1.4668e-12,-0.34531,0,0,0.16667,1.579e-15,0,0.66667
0.54316,0.93769,3.259,0.65654,22.127,55.461,-5.7056,1.9019,-0.46834,-7.6075,6.0885e-13,-0.23417,0,0,0.16667,-1.579e-15,0,0.66667
0.54961,0.036507,3.2977,-0.69524,-23.234,54.187,6.1138,-2.0379,-0.28184,8.1517,-9.539e-13,-0.14092,0,0,0.16667,-0,-0,0.66667
0.71378,0.61642,4.2827,0.17463,4.0153,23.833,-1.9944,0.6648,-1.8908,-2.6592,3.1395e-12,-0.94538,0,0,0.16667,-0,-0,0.66667
0.15616,0.46235,0.93697,-0.056475,-2.6119,154.57,0.14111,-0.047036,-1.9906,0.18814,1.3146e-09,-0.99529,0,0,0.16667,-0,-0,0.66667
0.021742,0.16427,0.13045,-0.50359,-24,194.07,0.17519,-0.058397,-1.0973,0.23358,-4.3366e-07,-0.54865,0,0,0.16667,-0,-0,0.66667
0.50805,0.38281,3.0483,-0.17579,-6.163,62.493,1.429,-0.47632,-1.889,1.9053,3.1308e-14,-0.94451,0,0,0.16667,-0,-0,0.66667
0.95369,0.26879,5.7221,-0.34681,-1.3472,1.3077,5.292,-1.764,-1.5734,7.0561,4.0002e-08,-0.78669,0,0,0.16667,-0,-0,0.66667
0.025153,0.49148,0.15092,-0.012773,-0.60527,193.04,0.0051405,-0.0017166,-1.9984,0.0068524,-4.7082e-06,-0.99918,0,0,0.16667,2.4672e-17,0,0.66667
0.6128,0.036919,3.6768,-0.69462,-20.763,41.685,6.8106,-2.2702,-0.28452,9.0809,-5.7954e-13,-0.14226,0,0,0.16667,-0,-0,0.66667
0.49388,0.50072,2.9633,0.0010843,0.038718,65.629,-0.0085683,0.0028561,-2.0001,-0.011424,4.8866e-13,-1.0001,0,0,0.16667,-0,-0,0.66667
0.9002,0.24539,5.4012,-0.38191,-3.3115,3.9717,5.5007,-1.8336,-1.4809,7.3343,-9.117e-09,-0.74043,0,0,0.16667,-1.1842e-15,0,0.66667
0.023607,0.37281,0.14164,-0.19078,-9.0483,193.5,0.07206,-0.02402,-1.8703,0.096081,-7.0099e-08,-0.93515,0,0,0.16667,-6.1679e-18,0,0.66667
0.65951,0.43161,3.957,-0.10258,-2.7236,32.513,1.0825,-0.36083,-1.9627,1.4433,2.3498e-12,-0.98135,0,0,0.16667,-1.1842e-15,0,0.66667
0.65622,0.57281,3.9373,0.10921,2.9224,33.08,-1.1467,0.38223,-1.9592,-1.5289,-2.4982e-12,-0.97958,0,0,0.16667,-0,-0,0.66667
0.88375,0.049455,5.3025,-0.67582,-7.0294,5.8055,9.5561,-3.1854,-0.37462,12.741,-1.3673e-08,-0.18731,0,0,0.16667,-0,-0,0.66667
0.53642,0.59916,3.2185,0.14874,5.0018,56.301,-1.2766,0.42554,-1.9209,-1.7022,4.3743e-14,-0.96043,0,0,0.16667,-0,-0,0.66667
0.69065,0.99089,4.1439,0.73634,18.47,28.347,-8.1368,2.7123,-0.071974,-10.849,8.1712e-13,-0.035987,0,0,0.16667,7.8949e-16,0,0.66667
0.41267,0.89755,2.476,0.59633,23.621,85.282,-3.9373,1.3124,-0.73451,-5.2498,1.0203e-12,-0.36725,0,0,0.16667,-0,-0,0.66667
0.82659,0.28181,4.9595,-0.32729,-4.8215,9.8699,4.3285,-1.4428,-1.6211,5.7714,-1.1728e-09,-0.81054,0,0,0.16667,-3.158e-15,0,0.66667
0.68501,0.61965,4.1101,0.17948,4.4737,28.311,-1.9671,0.6557,-1.886,-2.6228,-3.2907e-12,-0.94301,0,0,0.16667,-3.9475e-16,0,0.66667
0.10801,0.71761,0.64808,0.32642,15.331,168.63,-0.56412,0.18804,-1.6231,-0.75216,-6.067e-09,-0.81154,0,0,0.16667,-8.6351e-17,0,0.66667
0.13989,0.30359,0.83937,-0.29461,-13.719,159.32,0.65944,-0.21981,-1.6926,0.87925,3.1828e-09,-0.84628,0,0,0.16667,-1.9737e-16,0,0.66667
0.15807,0.40868,0.94843,-0.13698,-6.3336,154.02,0.34645,-0.11548,-1.9347,0.46193,1.5141e-09,-0.96734,0,0,0.16667,-0,-0,0.66667
0.12054,0.52979,0.72324,0.044682,2.0876,164.93,-0.086174,0.028725,-1.9933,-0.1149,-1.4667e-08,-0.99665,0,0,0.16667,-6.3e-17,0,0.66667
0.23028,0.076924,1.3817,-0.63461,-28.741,133.64,2.3382,-0.7794,-0.56718,3.1176,3.7237e-11,-0.28359,0,0,0.16667,-0,5.7219e-17,0.66667
0.42336,0.25686,2.5402,-0.36471,-14.206,82.408,2.4705,-0.8235,-1.528,3.294,-1.0896e-12,-0.76398,0,0,0.16667,-0,-0,0.66667
0.67076,0.025758,4.0246,-0.71136,-18.741,31.496,7.6345,-2.5448,-0.20209,10.179,4.1345e-13,-0.10104,0,0,0.16667,-0,-0,0.66667
0.33662,0.78189,2.0197,0.42284,17.828,104.51,-2.2774,0.75913,-1.3643,-3.0365,3.2028e-12,-0.68217,0,0,0.16667,-0,-0,0.66667
0.51975,0.023978,3.1185,-0.71403,-24.976,60.579,5.9379,-1.9793,-0.18682,7.9173,1.7986e-13,-0.093411,0,0,0.16667,-0,-0,0.66667
0.82112,0.77866,4.9267,0.41799,6.3678,10.569,-5.4915,1.8305,-1.3785,-7.322,6.9948e-10,-0.68924,0,0,0.16667,-1.7764e-15,0,0.66667
0.88459,0.13826,5.3076,-0.54262,-5.514,5.3638,7.6799,-2.56,-0.95178,10.24,-1.2065e-08,-0.47589,0,0,0.16667,-1.579e-15,0,0.66667
0.70449,0.98877,4.227,0.73316,17.707,26.194,-8.2641,2.7547,-0.089389,-11.019,-4.3432e-13,-0.044695,0,0,0.16667,-7.8949e-16,0,0.66667
0.83449,0.34166,5.0069,-0.2375,-3.3367,8.9864,3.1711,-1.057,-1.7993,4.2282,-1.0412e-09,-0.89964,0,0,0.16667,1.0366e-15,0,0.66667
0.30908,0.21261,1.8545,-0.43108,-18.547,111.85,2.1318,-0.7106,-1.3393,2.8424,-5.4547e-12,-0.66964,0,0,0.16667,-0,-0,0.66667
0.79062,0.10312,4.7437,-0.59532,-10.585,14.272,7.5307,-2.5102,-0.73874,10.041,-3.7746e-11,-0.36937,0,0,0.16667,-0,-0,0.66667
0.91666,0.41763,5.5,-0.12355,-0.87714,2.6903,1.812,-0.60402,-1.9446,2.4161,8.3162e-09,-0.97232,0,0,0.16667,-0,-0,0.66667
0.038406,0.24269,0.23043,-0.38596,-18.333,189.13,0.23717,-0.079056,-1.4693,0.31622,-6.2622e-08,-0.73465,0,0,0.16667,2.4672e-17,0,0.66667
0.44563,0.91675,2.6738,0.62513,23.936,77.331,-4.4572,1.4857,-0.60918,-5.9429,4.0901e-13,-0.30459,0,0,0.16667,-0,-0,0.66667
0.23993,0.027215,1.4396,-0.70918,-32.037,131.01,2.7224,-0.90748,-0.21143,3.6299,4.4453e-13,-0.10572,0,0,0.16667,1.9737e-16,0,0.66667
0.49402,0.38969,2.9641,-0.16547,-5.9124,65.635,1.3079,-0.43597,-1.9013,1.7439,8.3811e-13,-0.95063,0,0,0.16667,-7.8949e-16,0,0.66667
0.61748,0.3126,3.7049,-0.28111,-8.2075,40.15,2.7772,-0.92574,-1.7192,3.703,1.98e-12,-0.85959,0,0,0.16667,1.579e-15,0,0.66667
0.20905,0.67929,1.2543,0.26893,12.208,139.43,-0.89952,0.29984,-1.7419,-1.1994,-3.2789e-10,-0.87093,0,0,0.16667,-1.9737e-16,0,0.66667
0.87443,0.52237,5.2466,0.033554,0.35956,5.4212,-0.46944,0.15648,-1.9973,-0.62593,3.4069e-09,-0.99864,0,0,0.16667,-0,-0,0.66667
0.25589,0.18965,1.5353,-0.46552,-20.715,126.38,1.906,-0.63532,-1.2294,2.5413,1.2958e-11,-0.61469,0,0,0.16667,7.8949e-16,0,0.66667
0.71361,0.64632,4.2817,0.21949,5.0533,23.893,-2.506,0.83535,-1.8277,-3.3414,3.0091e-12,-0.91387,0,0,0.16667,-0,-0,0.66667
0.85223,0.21904,5.1134,-0.42144,-5.3686,7.6387,5.7466,-1.9155,-1.3686,7.6622,-1.9436e-09,-0.68431,0,0,0.16667,-0,-0,0.66667
0.93241,0.53865,5.5945,0.057971,0.32981,1.8689,-0.86484,0.28828,-1.9873,-1.1531,-6.1961e-08,-0.99367,0,0,0.16667,-0,-0,0.66667
0.95573,0.86508,5.7344,0.54762,2.1267,1.6967,-8.374,2.7913,-0.93372,-11.165,7.4435e-09,-0.46686,0,0,0.16667,7.8949e-16,0,0.66667
0.6802,0.24168,4.0812,-0.38748,-9.8281,29.305,4.217,-1.4057,-1.465,5.6227,5.187e-12,-0.7325,0,0,0.16667,-7.8949e-16,0,0.66667
0.62852,0.37471,3.7711,-0.18793,-5.3544,38.039,1.8899,-0.62996,-1.8754,2.5198,2.3014e-12,-0.93771,0,0,0.16667,7.4015e-17,0,0.66667
0.59597,0.96345,3.5758,0.69518,21.46,44.885,-6.6288,2.2096,-0.2824,-8.8385,-7.0965e-13,-0.1412,0,0,0.16667,1.1842e-15,0,0.66667
0.48512,0.090965,2.9107,-0.61355,-22.401,68.109,4.7624,-1.5875,-0.66353,6.3498,-1.9673e-13,-0.33176,0,0,0.16667,1.9737e-16,0,0.66667
0.36043,0.40206,2.1626,-0.14692,-6.0534,98.148,0.84726,-0.28242,-1.9248,1.1297,-2.3335e-12,-0.96241,0,0,0.16667,-3.9475e-16,0,0.66667
0.020765,0.37739,0.12459,-0.18391,-8.7232,194.35,0.061104,-0.020368,-1.8798,0.081472,-2.6379e-08,-0.93988,0,0,0.16667,-0,-0,0.66667
0.74867,0.45036,4.492,-0.074457,-1.5277,18.815,0.8919,-0.2973,-1.9808,1.1892,-2.0752e-11,-0.99041,0,0,0.16667,-0,-0,0.66667
0.39368,0.29979,2.3621,-0.30031,-12.034,89.727,1.8916,-0.63054,-1.6789,2.5222,-1.8362e-12,-0.83947,0,0,0.16667,-0,-0,0.66667
0.27934,0.72659,1.676,0.33988,14.884,119.85,-1.5191,0.50636,-1.5898,-2.0254,-5.6357e-12,-0.79491,0,0,0.16667,-0,-0,0.66667
0.77753,0.64453,4.6652,0.2168,3.9992,15.185,-2.6971,0.89903,-1.8322,-3.5961,1.8197e-10,-0.91612,0,0,0.16667,7.8949e-16,0,0.66667
0.66027,0.65236,3.9616,0.22854,6.0667,32.456,-2.4144,0.80479,-1.8144,-3.2192,-4.4091e-12,-0.9072,0,0,0.16667,9.8686e-16,0,0.66667
0.9098,0.65141,5.4588,0.22712,1.7577,3.1647,-3.3061,1.102,-1.8167,-4.4082,4.7918e-09,-0.90837,0,0,0.16667,-0,-0,0.66667
0.12761,0.97485,0.76569,0.71228,33.592,163.03,-1.4544,0.48479,-0.1965,-1.9391,5.3107e-09,-0.098251,0,0,0.16667,-0,-0,0.66667
0.38236,0.40878,2.2942,-0.13683,-5.5304,92.516,0.83709,-0.27903,-1.9331,1.1161,-1.6098e-12,-0.96655,0,0,0.16667,-0,-0,0.66667
0.57738,0.72787,3.4643,0.34181,10.779,47.964,-3.1577,1.0526,-1.5857,-4.2103,-7.7116e-13,-0.79287,0,0,0.16667,-0,-0,0.66667
0.3545,0.83951,2.127,0.50927,21.213,99.913,-2.8885,0.96285,-1.0776,-3.8514,2.4261e-12,-0.53882,0,0,0.16667,5.9212e-16,0,0.66667
0.34805,0.89432,2.0883,0.59148,24.821,101.68,-3.2938,1.0979,-0.75522,-4.3918,1.4428e-12,-0.37761,0,0,0.16667,3.9475e-16,0,0.66667
0.48409,0.52926,2.9045,0.04389,1.5875,67.861,-0.33995,0.11332,-1.9956,-0.45327,-6.4992e-13,-0.99781,0,0,0.16667,-1.9737e-16,0,0.66667
0.071438,0.10391,0.42863,-0.59414,-28.244,179.42,0.67911,-0.22637,-0.74361,0.90548,2.065e-07,-0.3718,0,0,0.16667,-1.9737e-16,0,0.66667
0.038686,0.98067,0.23211,0.72101,34.525,189.09,-0.44628,0.14876,-0.15021,-0.59504,-3.9681e-06,-0.075103,0,0,0.16667,-0,-0,0.66667
0.84061,0.71233,5.0437,0.31849,4.3327,8.5102,-4.2836,1.4279,-1.6394,-5.7115,1.8472e-09,-0.81972,0,0,0.16667,-0,-0,0.66667
0.0073689,0.070195,0.044213,-0.64471,-30.846,198.32,0.076011,-0.025336,-0.52105,0.10135,1.3091e-06,-0.26053,0,0,0.16667,-0,-0,0.66667
0.70376,0.67832,4.2225,0.26748,6.3441,25.431,-3.0119,1.004,-1.7468,-4.0159,-1.7126e-12,-0.87341,0,0,0.16667,-0,-0,0.66667
0.44556,0.72811,2.6734,0.34217,13.005,77.021,-2.4393,0.8131,-1.5825,-3.2524,-8.2601e-14,-0.79123,0,0,0.16667,-7.8949e-16,0,0.66667
0.96951,0.49011,5.8171,-0.014832,-0.034101,0.52475,0.23008,-0.076692,-2.0003,0.30678,3.1809e-06,-1.0001,0,0,0.16667,-0,-0,0.66667
0.80992,0.38482,4.8595,-0.17278,-2.7577,11.426,2.239,-0.74632,-1.8939,2.9853,-4.7064e-10,-0.94693,0,0,0.16667,-0,-0,0.66667
0.39961,0.44953,2.3977,-0.075708,-3.01,88.147,0.48406,-0.16135,-1.9782,0.64542,-4.5239e-13,-0.98912,0,0,0.16667,-0,-0,0.66667
0.39383,0.58422,2.363,0.12632,5.0514,89.61,-0.796,0.26533,-1.943,-1.0613,3.4767e-13,-0.9715,0,0,0.16667,-3.9475e-16,0,0.66667
0.12859,0.28239,0.77156,-0.32642,-15.255,162.61,0.6716,-0.22387,-1.6219,0.89547,4.2909e-09,-0.81097,0,0,0.16667,-0,-0,0.66667
0.36459,0.98041,2.1875,0.72061,29.959,97.556,-4.2037,1.4012,-0.15255,-5.6049,7.5406e-13,-0.076273,0,0,0.16667,-0,-0,0.66667
0.20418,0.83573,1.2251,0.5036,23.004,140.92,-1.6452,0.5484,-1.0993,-2.1936,-2.714e-10,-0.54966,0,0,0.16667,-1.9737e-16,0,0.66667
0.31607,0.38714,1.8964,-0.16929,-7.2205,109.84,0.85614,-0.28538,-1.8975,1.1415,-3.3144e-12,-0.94875,0,0,0.16667,-0,-0,0.66667
0.56232,0.38288,3.3739,-0.17569,-5.6696,50.889,1.5807,-0.52689,-1.8919,2.1075,2.478e-13,-0.94596,0,0,0.16667,-0,-0,0.66667
0.86191,0.49465,5.1715,-0.008032,-0.094434,6.4128,0.11077,-0.036922,-2.0003,0.14769,-7.6174e-09,-1.0001,0,0,0.16667,-3.9475e-16,0,0.66667
0.098202,0.83654,0.58921,0.50481,23.836,171.54,-0.79317,0.26439,-1.0934,-1.0576,-1.9803e-08,-0.54671,0,0,0.16667,-0,-0,0.66667
0.83006,0.91389,4.9803,0.62084,9.1541,10.144,-8.2453,2.7484,-0.63009,-10.994,2.1674e-09,-0.31505,0,0,0.16667,-0,-0,0.66667
0.92067,0.33557,5.524,-0.24664,-1.6756,2.5884,3.6332,-1.2111,-1.7846,4.8442,2.9389e-09,-0.89232,0,0,0.16667,7.8949e-16,0,0.66667
0.22363,0.2116,1.3418,-0.4326,-19.558,135.38,1.5479,-0.51595,-1.334,2.0638,1.3266e-10,-0.66699,0,0,0.16667,3.9475e-16,0,0.66667
0.20085,0.73423,1.2051,0.35135,16.025,141.79,-1.1291,0.37636,-1.561,-1.5055,-4.1986e-10,-0.7805,0,0,0.16667,-0,-0,0.66667
0.76844,0.32781,4.6106,-0.25828,-4.944,16.356,3.1755,-1.0585,-1.7625,4.234,-1.2635e-10,-0.88124,0,0,0.16667,1.579e-15,0,0.66667
0.020528,0.78497,0.12317,0.42745,20.34,194.42,-0.1404,0.046799,-1.3502,-0.18719,1.0734e-07,-0.67511,0,0,0.16667,-0,-0,0.66667
0.48994,0.48942,2.9397,-0.015867,-0.56953,66.522,0.12438,-0.04146,-1.998,0.16584,1.8036e-13,-0.99899,0,0,0.16667,7.8949e-16,0,0.66667
0.022375,0.65851,0.13425,0.23776,11.282,193.87,-0.085119,0.028373,-1.7988,-0.11349,-2.2572e-08,-0.89938,0,0,0.16667,-4.9343e-17,0,0.66667
0.8073,0.44005,4.8438,-0.089925,-1.4516,11.663,1.1615,-0.38718,-1.9712,1.5487,-3.0643e-10,-0.98561,0,0,0.16667,3.158e-15,0,0.66667
0.024361,0.43118,0.14617,-0.10322,-4.8927,193.28,0.040234,-0.013412,-1.9612,0.053646,-5.6441e-07,-0.98061,0,0,0.16667,-3.7007e-17,0,0.66667
0.16055,0.69774,0.96332,0.29661,13.724,153.33,-0.76194,0.25398,-1.6864,-1.0159,-1.7716e-09,-0.84322,0,0,0.16667,-3.9475e-16,0,0.66667
0.24613,0.6043,1.4768,0.15645,6.9672,128.97,-0.6161,0.20537,-1.9124,-0.82147,-5.6572e-11,-0.95618,0,0,0.16667,-0,-0,0.66667
0.99712,0.39689,5.9827,-0.15467,0.043659,0.090514,2.4676,-0.82252,-1.9148,3.2901,-5.0809e-07,-0.95742,0,0,0.16667,1.579e-15,0,0.66667
0.42075,0.3075,2.5245,-0.28875,-11.263,82.992,1.9439,-0.64796,-1.7049,2.5919,-8.0402e-13,-0.85247,0,0,0.16667,-5.9212e-16,0,0.66667
0.072263,0.15535,0.43358,-0.51697,-24.527,179.16,0.59773,-0.19924,-1.0499,0.79697,8.9255e-08,-0.52495,0,0,0.16667,1.8504e-17,0,0.66667
0.25027,0.67356,1.5016,0.26034,11.58,127.84,-1.0425,0.3475,-1.7602,-1.39,-5.3258e-11,-0.88011,0,0,0.16667,-3.9475e-16,0,0.66667
0.41157,0.55579,2.4694,0.083679,3.288,85.17,-0.55104,0.18368,-1.9744,-0.73472,5.8376e-13,-0.98721,0,0,0.16667,3.9475e-16,0,0.66667
0.42026,0.083525,2.5216,-0.62471,-24.579,83.456,4.2007,-1.4002,-0.61289,5.6009,-4.5164e-13,-0.30644,0,0,0.16667,-0,1.738e-16,0.66667
0.12217,0.044824,0.73303,-0.68276,-32.215,164.6,1.3346,-0.44488,-0.34219,1.7795,1.0473e-08,-0.1711,0,0,0.16667,-0,-0,0.66667
0.0095038,0.0064081,0.057023,-0.74039,-35.524,197.7,0.11263,-0.037534,-0.050215,0.15018,1.3722e-05,-0.025108,0,0,0.16667,-0,-0,0.66667
0.81546,0.18651,4.8927,-0.47024,-7.3957,11.254,6.1354,-2.0451,-1.2149,8.1805,-9.4101e-10,-0.60743,0,0,0.16667,-9.8686e-17,0,0.66667
0.24196,0.10642,1.4517,-0.59036,-26.548,130.34,2.2855,-0.76182,-0.7593,3.0473,1.5906e-11,-0.37965,0,0,0.16667,-3.9475e-16,0,0.66667
0.083424,0.34088,0.50055,-0.23868,-11.252,175.83,0.31859,-0.1062,-1.7973,0.42479,3.0693e-09,-0.89867,0,0,0.16667,1.2336e-16,0,0.66667
0.39022,0.95234,2.3413,0.67852,27.538,90.982,-4.2364,1.4121,-0.36417,-5.6485,7.5318e-13,-0.18208,0,0,0.16667,-0,-0,0.66667
0.43254,0.22345,2.5952,-0.41482,-16.018,80.219,2.8708,-0.95694,-1.3879,3.8277,-5.8176e-13,-0.69393,0,0,0.16667,-0,-0,0.66667
0.5241,0.48992,3.1446,-0.01512,-0.51757,58.926,0.12679,-0.042262,-1.9979,0.16905,-7.9292e-13,-0.99894,0,0,0.16667,-0,-0,0.66667
0.76031,0.65454,4.5619,0.23181,4.5723,17.37,-2.8199,0.93998,-1.8091,-3.7599,8.8889e-11,-0.90453,0,0,0.16667,2.2698e-15,0,0.66667
0.78814,0.72111,4.7288,0.33166,5.8753,14.046,-4.1823,1.3941,-1.6086,-5.5764,2.8789e-10,-0.80431,0,0,0.16667,-0,-0,0.66667
0.46938,0.10204,2.8163,-0.59694,-22.213,71.702,4.4831,-1.4944,-0.73434,5.9774,-5.5644e-13,-0.36717,0,0,0.16667,-0,-0,0.66667
0.88477,0.076088,5.3086,-0.63587,-6.5246,5.6108,9.0015,-3.0005,-0.56105,12.002,-1.8055e-08,-0.28053,0,0,0.16667,-1.579e-15,0,0.66667
0.079143,0.48168,0.47486,-0.027476,-1.2946,177.08,0.034792,-0.011597,-1.998,0.046389,9.0944e-09,-0.99902,0,0,0.16667,-0,-0,0.66667
0.35568,0.0088445,2.1341,-0.73673,-30.874,99.875,4.1927,-1.3976,-0.06972,5.5902,-5.298e-13,-0.03486,0,0,0.16667,-1.579e-15,0,0.66667
0.35988,0.66214,2.1593,0.24321,10.035,98.327,-1.4004,0.46681,-1.7914,-1.8672,2.8012e-12,-0.89568,0,0,0.16667,-0,-0,0.66667
0.71091,0.88156,4.2654,0.57234,13.449,24.828,-6.5101,2.17,-0.83433,-8.6801,-3.3e-12,-0.41716,0,0,0.16667,-0,-0,0.66667
0.84544,0.59199,5.0727,0.13799,1.8114,7.8818,-1.8666,0.62219,-1.9339,-2.4888,2.5121e-09,-0.96695,0,0,0.16667,-5.9212e-16,0,0.66667
0.72322,0.15864,4.3393,-0.51204,-11.563,22.885,5.9251,-1.975,-1.068,7.9002,5.4521e-12,-0.534,0,0,0.16667,-3.158e-15,0,0.66667
0.11084,0.96872,0.66505,0.70308,33.283,167.91,-1.2469,0.41563,-0.24452,-1.6625,-5.7182e-08,-0.12226,0,0,0.16667,2.8681e-16,0,0.66667
0.59935,0.75124,3.5961,0.37687,11.427,43.688,-3.614,1.2047,-1.4951,-4.8187,-1.2645e-12,-0.74757,0,0,0.16667,-0,-0,0.66667
0.50962,0.23845,3.0577,-0.39233,-13.775,62.312,3.199,-1.0663,-1.4515,4.2654,-3.928e-13,-0.72573,0,0,0.16667,7.8949e-16,0,0.66667
0.60538,0.94861,3.6323,0.67292,20.386,43.034,-6.518,2.1727,-0.38926,-8.6907,-9.277e-13,-0.19463,0,0,0.16667,1.579e-15,0,0.66667
0.012168,0.64615,0.073011,0.21922,10.404,196.89,-0.042682,0.014227,-1.8287,-0.056909,-2.1469e-08,-0.91435,0,0,0.16667,-0,-0,0.66667
0.2884,0.44757,1.7304,-0.078639,-3.4153,117.3,0.36287,-0.12096,-1.9767,0.48383,1.334e-12,-0.98835,0,0,0.16667,-0,-0,0.66667
0.051856,0.0098828,0.31114,-0.73518,-35.177,185.21,0.60998,-0.20333,-0.077347,0.8133,-4.0001e-07,-0.038674,0,0,0.16667,-0,-0,0.66667
0.38587,0.56979,2.3152,0.10468,4.2167,91.616,-0.6463,0.21543,-1.9604,-0.86173,7.0832e-13,-0.98021,0,0,0.16667,-0,-0,0.66667
0.75909,0.45802,4.5545,-0.062976,-1.2446,17.429,0.76486,-0.25495,-1.9846,1.0198,-3.2635e-11,-0.9923,0,0,0.16667,-7.8949e-16,0,0.66667
0.276,0.27136,1.656,-0.34296,-15.05,120.77,1.5145,-0.50484,-1.5808,2.0194,7.1579e-12,-0.79039,0,0,0.16667,-0,-0,0.66667
0.61411,0.69529,3.6847,0.29294,8.6133,40.79,-2.8784,0.95945,-1.6942,-3.8378,-2.1798e-12,-0.84711,0,0,0.16667,-0,-0,0.66667
0.62743,0.92974,3.7646,0.64461,18.662,38.874,-6.4712,2.1571,-0.52285,-8.6283,-3.3973e-13,-0.26143,0,0,0.16667,-0,-0,0.66667
0.25163,0.18691,1.5098,-0.46963,-20.948,127.57,1.8908,-0.63026,-1.2177,2.521,3.0224e-11,-0.60884,0,0,0.16667,5.9212e-16,0,0.66667
0.47504,0.35557,2.8503,-0.21665,-7.9367,70.001,1.6467,-0.5489,-1.8318,2.1956,-2.9976e-13,-0.91589,0,0,0.16667,-0,-0,0.66667
0.1435,0.19964,0.86097,-0.45054,-21.013,158.31,1.0344,-0.3448,-1.278,1.3792,2.9485e-09,-0.63899,0,0,0.16667,-0,-0,0.66667
0.070018,0.21387,0.42011,-0.4292,-20.332,179.81,0.48083,-0.16028,-1.3443,0.64111,1.9083e-08,-0.67214,0,0,0.16667,-1.4803e-16,0,0.66667
0.79297,0.32549,4.7578,-0.26177,-4.53,13.397,3.3211,-1.107,-1.7556,4.4282,-3.5583e-10,-0.8778,0,0,0.16667,-0,-0,0.66667
0.17947,0.57966,1.0768,0.11949,5.483,147.85,-0.34314,0.11438,-1.9477,-0.45752,-4.9066e-10,-0.97385,0,0,0.16667,-0,-0,0.66667
0.12621,0.82112,0.75724,0.48168,22.587,163.35,-0.97266,0.32422,-1.176,-1.2969,-5.9269e-09,-0.58798,0,0,0.16667,-0,-0,0.66667
0.96712,0.017,5.8027,-0.7245,-2.2213,1.9413,11.211,-3.7369,-0.134,14.948,1.0997e-06,-0.066999,0,0,0.16667,-0,1.9584e-16,0.66667
0.055643,0.21923,0.33386,-0.42116,-19.985,184.04,0.37495,-0.12498,-1.3694,0.49993,-2.2173e-08,-0.68472,0,0,0.16667,-1.9737e-16,0,0.66667
0.68195,0.49211,4.0917,-0.011829,-0.29684,28.748,0.12907,-0.043023,-1.9986,0.17209,2.0715e-13,-0.99931,0,0,0.16667,-7.8949e-16,0,0.66667
0.37495,0.33703,2.2497,-0.24446,-9.9568,94.448,1.4665,-0.48884,-1.7894,1.9554,-2.6293e-12,-0.89471,0,0,0.16667,1.9737e-16,0,0.66667
0.17349,0.642,1.0409,0.213,9.802,149.58,-0.59124,0.19708,-1.839,-0.78832,-9.5317e-10,-0.9195,0,0,0.16667,-0,-0,0.66667
0.27286,0.16373,1.6372,-0.50441,-22.248,121.73,2.2021,-0.73405,-1.0943,2.9362,-2.9805e-12,-0.54715,0,0,0.16667,-0,-0,0.66667
0.7317,0.81412,4.3902,0.47118,10.342,21.592,-5.5162,1.8387,-1.2117,-7.3549,4.7105e-12,-0.60586,0,0,0.16667,-3.158e-15,0,0.66667
0.85547,0.51122,5.1328,0.016829,0.2068,6.955,-0.23035,0.076782,-1.9983,-0.30713,-1.7416e-11,-0.99916,0,0,0.16667,-0,-0,0.66667
0.26883,0.76578,1.613,0.39867,17.586,122.77,-1.7148,0.5716,-1.4344,-2.2864,-1.1906e-11,-0.71718,0,0,0.16667,3.9475e-16,0,0.66667
0.34714,0.13476,2.0829,-0.54785,-22.979,101.87,3.0429,-1.0143,-0.93246,4.0573,-3.0471e-12,-0.46623,0,0,0.16667,7.8949e-16,0,0.66667
0.40955,0.22527,2.4573,-0.4121,-16.295,85.848,2.7004,-0.90014,-1.3962,3.6006,-1.2332e-12,-0.69809,0,0,0.16667,-0,-0,0.66667
0.82745,0.94514,4.9647,0.66772,10.026,10.532,-8.84,2.9467,-0.41611,-11.787,-8.9947e-10,-0.20806,0,0,0.16667,-0,-0,0.66667
0.74992,0.86114,4.4995,0.54171,11.228,19.222,-6.4998,2.1666,-0.95797,-8.6664,1.2782e-11,-0.47899,0,0,0.16667,-0,-0,0.66667
0.20942,0.13551,1.2565,-0.54674,-24.943,139.46,1.832,-0.61066,-0.93591,2.4426,1.8484e-10,-0.46796,0,0,0.16667,-0,-0,0.66667
0.54285,0.51185,3.2571,0.01777,0.59124,54.902,-0.15434,0.051448,-1.9981,-0.20579,1.0175e-13,-0.99906,0,0,0.16667,-0,-0,0.66667
0.76674,0.02665,4.6004,-0.71003,-14.002,17.465,8.7105,-2.9035,-0.20897,11.614,1.4502e-11,-0.10449,0,0,0.16667,7.8949e-16,0,0.66667
0.47874,0.99297,2.8725,0.73945,27.347,69.785,-5.6641,1.888,-0.05508,-7.5521,-6.0352e-13,-0.02754,0,0,0.16667,3.9475e-16,0,0.66667
0.5555,0.99862,3.333,0.74793,24.82,53.079,-6.6476,2.2159,-0.010913,-8.8635,2.5357e-13,-0.0054567,0,0,0.16667,-1.9737e-16,0,0.66667
0.21251,0.41918,1.2751,-0.12123,-5.4876,138.42,0.41223,-0.13741,-1.9464,0.54963,1.7922e-10,-0.97318,0,0,0.16667,-3.9475e-16,0,0.66667
0.65934,0.47552,3.956,-0.036724,-0.97509,32.526,0.38742,-0.12914,-1.9953,0.51656,7.9528e-13,-0.99764,0,0,0.16667,-0,-0,0.66667
0.072077,0.75977,0.43246,0.38966,18.44,179.19,-0.44936,0.14979,-1.459,-0.59915,-9.9079e-09,-0.7295,0,0,0.16667,-0,-0,0.66667
0.36173,0.15698,2.1704,-0.51453,-21.307,98.045,2.978,-0.99266,-1.0601,3.9706,-2.6708e-12,-0.53006,0,0,0.16667,1.579e-15,0,0.66667
0.4004,0.13142,2.4024,-0.55287,-22.136,88.269,3.5419,-1.1806,-0.91244,4.7225,-8.0691e-13,-0.45622,0,0,0.16667,-0,-0,0.66667
0.60878,0.37436,3.6527,-0.18846,-5.5904,41.714,1.8356,-0.61188,-1.8762,2.4475,1.1008e-12,-0.93812,0,0,0.16667,1.0362e-15,0,0.66667
0.94867,0.29757,5.692,-0.30364,-1.3098,1.4154,4.6089,-1.5363,-1.6712,6.1452,2.8346e-08,-0.83559,0,0,0.16667,-0,-0,0.66667
0.21912,0.78268,1.3147,0.42401,19.207,136.65,-1.4866,0.49553,-1.3633,-1.9821,-1.4447e-10,-0.68164,0,0,0.16667,7.8949e-16,0,0.66667
0.54416,0.02294,3.2649,-0.71559,-24.14,55.369,6.2303,-2.0768,-0.17938,8.3071,-1.3025e-12,-0.089691,0,0,0.16667,7.8949e-16,1.5412e-16,0.66667
0.80224,0.70969,4.8134,0.31453,5.2297,12.413,-4.0373,1.3458,-1.6473,-5.3831,5.0966e-10,-0.82364,0,0,0.16667,7.8949e-16,0,0.66667
0.60296,0.95558,3.6177,0.68337,20.809,43.518,-6.5927,2.1976,-0.33814,-8.7903,3.908e-14,-0.16907,0,0,0.16667,-7.8949e-16,0,0.66667
0.73883,0.79025,4.433,0.43538,9.3221,20.528,-5.1467,1.7156,-1.3253,-6.8623,1.7554e-11,-0.66267,0,0,0.16667,-0,-0,0.66667
0.11645,0.041796,0.69872,-0.68731,-32.479,166.27,1.2806,-0.42688,-0.31905,1.7075,-1.8439e-09,-0.15953,0,0,0.16667,-0,-0,0.66667
0.83579,0.53313,5.0147,0.04969,0.69015,8.7424,-0.66448,0.22149,-1.991,-0.88597,-4.628e-10,-0.9955,0,0,0.16667,3.158e-15,0,0.66667
0.3113,0.32044,1.8678,-0.26934,-11.539,111.16,1.3415,-0.44717,-1.743,1.7887,-4.9585e-12,-0.87152,0,0,0.16667,-0,-0,0.66667
0.43711,0.48176,2.6227,-0.027365,-1.0466,78.915,0.19138,-0.063794,-1.9985,0.25518,-1.9701e-13,-0.99924,0,0,0.16667,-7.8949e-16,0,0.66667
0.08488,0.3365,0.50928,-0.24524,-11.559,175.41,0.33306,-0.11102,-1.7851,0.44408,4.3508e-09,-0.89257,0,0,0.16667,-9.8686e-17,0,0.66667
0.68718,0.45155,4.1231,-0.072676,-1.7991,27.913,0.79906,-0.26635,-1.9824,1.0654,8.0935e-13,-0.99119,0,0,0.16667,-0,-0,0.66667
0.84731,0.29003,5.0838,-0.31496,-4.1131,7.895,4.2699,-1.4233,-1.6469,5.6932,-2.1483e-09,-0.82347,0,0,0.16667,-0,-0,0.66667
0.48369,0.21661,2.9021,-0.42508,-15.462,68.183,3.2897,-1.0966,-1.3597,4.3863,5.2203e-13,-0.67985,0,0,0.16667,9.8686e-17,0,0.66667
0.10135,0.10131,0.60811,-0.59804,-28.284,170.65,0.9698,-0.32327,-0.72727,1.2931,6.0047e-08,-0.36363,0,0,0.16667,-0,-0,0.66667
0.10296,0.97275,0.61775,0.70912,33.633,170.22,-1.1682,0.38939,-0.21157,-1.5575,-1.1778e-07,-0.10578,0,0,0.16667,-3.9475e-16,0,0.66667
0.11563,0.75551,0.69377,0.38327,17.986,166.41,-0.70906,0.23635,-1.477,-0.94542,-6.5733e-09,-0.7385,0,0,0.16667,-3.9475e-16,0,0.66667
0.49491,0.68882,2.9695,0.28323,10.124,65.502,-2.2428,0.7476,-1.715,-2.9904,-2.5357e-13,-0.85751,0,0,0.16667,-0,-0,0.66667
0.62202,0.1323,3.7321,-0.55155,-16.083,39.679,5.4893,-1.8298,-0.91842,7.3191,9.2859e-13,-0.45921,0,0,0.16667,-0,-0,0.66667
0.033262,0.19542,0.19957,-0.45687,-21.738,190.66,0.24314,-0.081048,-1.2583,0.32419,-1.3641e-07,-0.62916,0,0,0.16667,9.8686e-17,0,0.66667
0.062583,0.89206,0.3755,0.58809,27.985,182.03,-0.58887,0.19629,-0.77167,-0.78516,-3.0416e-08,-0.38583,0,0,0.16667,-0,-0,0.66667
0.98655,0.59929,5.9193,0.14894,0.10756,0.22454,-2.3509,0.78364,-1.9218,-3.1345,-1.3288e-07,-0.96091,0,0,0.16667,-0,-0,0.66667
0.2911,0.77304,1.7466,0.40955,17.825,116.69,-1.9076,0.63586,-1.4026,-2.5434,1.7842e-12,-0.70132,0,0,0.16667,-0,-0,0.66667
0.47673,0.10996,2.8604,-0.58506,-21.567,69.986,4.4627,-1.4876,-0.7814,5.9502,-8.0025e-13,-0.3907,0,0,0.16667,2.2493e-16,0,0.66667
0.63063,0.97467,3.7838,0.712,20.543,38.446,-7.1842,2.3947,-0.19688,-9.5789,-4.1167e-13,-0.09844,0,0,0.16667,-0,-0,0.66667
0.7149,0.012412,4.2894,-0.73138,-17.143,24.628,8.3658,-2.7886,-0.097341,11.154,5.9774e-13,-0.04867,0,0,0.16667,-0,-1.8903e-16,0.66667
0.10945,0.82384,0.65668,0.48575,22.872,168.24,-0.85062,0.28354,-1.1625,-1.1342,-7.612e-09,-0.58125,0,0,0.16667,1.9737e-16,0,0.66667
0.10965,0.56197,0.65793,0.092961,4.3551,168.12,-0.1631,0.054366,-1.972,-0.21746,-1.5577e-08,-0.98602,0,0,0.16667,-9.2519e-17,0,0.66667
0.91206,0.57352,5.4724,0.11028,0.82714,2.9389,-1.6094,0.53646,-1.9555,-2.1458,-2.7932e-08,-0.97777,0,0,0.16667,-0,-0,0.66667
0.32409,0.27996,1.9445,-0.33006,-14.024,107.77,1.7115,-0.57051,-1.6132,2.2821,-6.291e-12,-0.80661,0,0,0.16667,4.9343e-17,0,0.66667
0.72386,0.56461,4.3432,0.09692,2.159,22.305,-1.1225,0.37417,-1.9667,-1.4967,3.9309e-12,-0.98334,0,0,0.16667,3.158e-15,0,0.66667
0.70962,0.68164,4.2577,0.27246,6.3545,24.542,-3.0935,1.0312,-1.7353,-4.1246,1.9296e-13,-0.86763,0,0,0.16667,-0,-0,0.66667
0.46881,0.42504,2.8129,-0.11244,-4.1468,71.405,0.84339,-0.28113,-1.9565,1.1245,-1.959e-13,-0.97823,0,0,0.16667,7.8949e-16,0,0.66667
0.091311,0.92629,0.54787,0.63944,30.335,173.6,-0.9342,0.3114,-0.54619,-1.2456,-1.4849e-07,-0.27309,0,0,0.16667,-0,-0,0.66667
0.88983,0.77926,5.339,0.41888,4.018,4.7199,-5.9638,1.9879,-1.3782,-7.9517,9.2917e-09,-0.68912,0,0,0.16667,-5.9212e-16,0,0.66667
0.83452,0.93591,5.0071,0.65387,9.4364,9.8096,-8.7306,2.9102,-0.47979,-11.641,-2.1825e-09,-0.23989,0,0,0.16667,-1.6528e-15,0,0.66667
0.43167,0.451,2.59,-0.073498,-2.828,80.237,0.50763,-0.16921,-1.9795,0.67684,2.7417e-13,-0.98973,0,0,0.16667,-0,-0,0.66667
0.4559,0.93917,2.7354,0.65875,24.96,74.95,-4.8052,1.6017,-0.45811,-6.4069,-4.281e-13,-0.22905,0,0,0.16667,-0,-0,0.66667
0.5459,0.23233,3.2754,-0.40151,-13.362,54.492,3.507,-1.169,-1.4275,4.676,1.823e-13,-0.71377,0,0,0.16667,-0,-0,0.66667
0.3785,0.91044,2.271,0.61566,25.201,93.864,-3.7284,1.2428,-0.65258,-4.9712,1.5579e-12,-0.32629,0,0,0.16667,-0,-0,0.66667
0.50468,0.78521,3.0281,0.42782,15.137,63.449,-3.4546,1.1515,-1.3491,-4.6061,1.3811e-13,-0.67455,0,0,0.16667,-1.579e-15,0,0.66667
0.47267,0.58678,2.836,0.13018,4.7787,70.512,-0.98449,0.32816,-1.9395,-1.3126,1.5044e-13,-0.96973,0,0,0.16667,-3.9475e-16,0,0.66667
0.28587,0.35413,1.7152,-0.2188,-9.5276,118.02,1.0008,-0.3336,-1.8289,1.3344,2.9576e-12,-0.91446,0,0,0.16667,-0,-0,0.66667
0.87249,0.90205,5.2349,0.60307,6.7874,6.4138,-8.4188,2.8063,-0.70756,-11.225,-1.9487e-09,-0.35378,0,0,0.16667,-7.8949e-16,0,0.66667
0.04716,0.14232,0.28296,-0.53652,-25.543,186.56,0.40484,-0.13495,-0.9777,0.53979,6.5494e-08,-0.48885,0,0,0.16667,9.8686e-17,0,0.66667
0.36431,0.56984,2.1859,0.10476,4.3011,97.134,-0.61064,0.20355,-1.9603,-0.81418,2.0376e-12,-0.98016,0,0,0.16667,-7.8949e-16,0,0.66667
0.77404,0.05246,4.6442,-0.67131,-12.839,16.449,8.3139,-2.7713,-0.39635,11.085,-3.5634e-12,-0.19818,0,0,0.16667,7.8949e-16,0,0.66667
0.48551,0.055455,2.9131,-0.66682,-24.381,68.108,5.18,-1.7267,-0.42014,6.9067,-6.9811e-13,-0.21007,0,0,0.16667,3.9475e-16,0,0.66667
0.78628,0.75986,4.7177,0.38979,6.9769,14.353,-4.9038,1.6346,-1.4588,-6.5383,2.3817e-10,-0.72942,0,0,0.16667,-0,-0,0.66667
0.48261,0.7558,2.8956,0.3837,13.963,68.387,-2.9628,0.9876,-1.4774,-3.9504,-9.6811e-14,-0.73871,0,0,0.16667,-0,-0,0.66667
0.98946,0.88287,5.9368,0.5743,0.43922,0.99165,-9.092,3.0307,-0.82654,-12.123,6.1512e-07,-0.41327,0,0,0.16667,-0,-0,0.66667
0.88404,0.16372,5.3043,-0.50441,-5.1284,5.3082,7.1348,-2.3783,-1.0943,9.513,-6.319e-10,-0.54717,0,0,0.16667,-0,-0,0.66667
0.007732,0.43667,0.046392,-0.094999,-4.5052,198.21,0.011753,-0.0039176,-1.9679,0.01567,-2.6021e-08,-0.98395,0,0,0.16667,5.3969e-18,0,0.66667
0.47505,0.46144,2.8503,-0.057837,-2.1161,69.943,0.43961,-0.14654,-1.9872,0.58614,6.1659e-13,-0.99358,0,0,0.16667,-3.9475e-16,0,0.66667
0.85741,0.51545,5.1445,0.02318,0.28116,6.7902,-0.318,0.106,-1.9982,-0.42399,4.2147e-10,-0.99909,0,0,0.16667,3.158e-15,0,0.66667
0.34353,0.96147,2.0612,0.69221,29.245,102.98,-3.8047,1.2682,-0.29805,-5.0729,-6.6702e-13,-0.14903,0,0,0.16667,5.9212e-16,-1.4104e-16,0.66667
0.72899,0.10651,4.374,-0.59024,-13.144,22.222,6.8845,-2.2948,-0.7601,9.1793,1.3722e-13,-0.38005,0,0,0.16667,-0,-0,0.66667
0.41832,0.21242,2.5099,-0.43138,-16.914,83.704,2.8872,-0.96241,-1.3383,3.8496,-6.5792e-13,-0.66915,0,0,0.16667,-7.8949e-16,0,0.66667
0.095764,0.39623,0.57458,-0.15565,-7.3159,172.2,0.23849,-0.079498,-1.9141,0.31799,1.3566e-09,-0.95707,0,0,0.16667,9.8686e-17,0,0.66667
0.31526,0.041313,1.8915,-0.68803,-29.68,110.43,3.4705,-1.1568,-0.31675,4.6273,-2.335e-12,-0.15837,0,0,0.16667,7.8949e-16,0,0.66667
0.31302,0.27078,1.8781,-0.34382,-14.728,110.73,1.722,-0.57399,-1.5809,2.2959,-5.9686e-12,-0.79044,0,0,0.16667,-3.9475e-16,0,0.66667
0.65455,0.73351,3.9273,0.35026,9.4497,33.562,-3.6682,1.2227,-1.564,-4.891,-4.398e-12,-0.78202,0,0,0.16667,-0,-0,0.66667
0.92687,0.083069,5.5612,-0.6254,-4.1188,3.0909,9.2746,-3.0915,-0.60835,12.366,-1.4225e-08,-0.30418,0,0,0.16667,-7.8949e-16,0,0.66667
0.70369,0.96115,4.2221,0.69172,16.701,26.205,-7.7881,2.596,-0.30018,-10.384,2.74e-13,-0.15009,0,0,0.16667,-7.8949e-16,0,0.66667
0.32303,0.79047,1.9382,0.43571,18.563,108.12,-2.252,0.75066,-1.3241,-3.0026,5.6093e-12,-0.66205,0,0,0.16667,-0,-0,0.66667
0.68312,0.04274,4.0987,-0.68589,-17.494,29.415,7.4967,-2.4989,-0.32644,9.9956,8.1535e-13,-0.16322,0,0,0.16667,-0,-0,0.66667
0.084102,0.61924,0.50461,0.17887,8.4264,175.63,-0.24069,0.080229,-1.8855,-0.32092,3.9259e-09,-0.94277,0,0,0.16667,4.9343e-17,0,0.66667
0.3755,0.39127,2.253,-0.16309,-6.634,94.273,0.97987,-0.32662,-1.9064,1.3065,-1.5085e-12,-0.95322,0,0,0.16667,-0,-0,0.66667
0.19006,0.68785,1.1404,0.28177,12.895,144.85,-0.85685,0.28562,-1.7191,-1.1425,-6.5383e-10,-0.85956,0,0,0.16667,7.8949e-16,0,0.66667
0.69305,0.01768,4.1583,-0.72348,-18.018,27.935,8.0225,-2.6742,-0.13767,10.697,-2.5135e-13,-0.068836,0,0,0.16667,-0,-0,0.66667
0.66211,0.71928,3.9726,0.32893,8.7121,32.241,-3.4845,1.1615,-1.6155,-4.6461,-4.7116e-12,-0.80777,0,0,0.16667,-0,-0,0.66667
0.35307,0.8519,2.1184,0.52785,22.023,100.3,-2.9819,0.99397,-1.0083,-3.9759,1.668e-12,-0.50414,0,0,0.16667,-0,-0,0.66667
0.1806,0.83313,1.0836,0.49969,23.041,147.64,-1.4439,0.48131,-1.1109,-1.9253,-2.1397e-10,-0.55543,0,0,0.16667,-1.9737e-16,0,0.66667
0.15666,0.13687,0.93996,-0.5447,-25.354,154.54,1.3653,-0.45511,-0.94626,1.8204,1.7043e-09,-0.47313,0,0,0.16667,3.9475e-16,0,0.66667
0.23699,0.95886,1.4219,0.68829,31.119,131.81,-2.6099,0.86996,-0.31557,-3.4798,-4.607e-12,-0.15778,0,0,0.16667,1.9737e-16,0,0.66667
0.32846,0.11359,1.9708,-0.57961,-24.684,106.81,3.0461,-1.0154,-0.80676,4.0614,-2.6203e-12,-0.40338,0,0,0.16667,-3.9475e-16,0,0.66667
0.8696,0.45428,5.2176,-0.068585,-0.76295,5.804,0.95426,-0.31809,-1.982,1.2724,3.7521e-10,-0.99101,0,0,0.16667,5.4918e-16,0,0.66667
0.12191,0.96751,0.73148,0.70126,33.109,164.69,-1.3679,0.45596,-0.25248,-1.8239,3.1648e-08,-0.12624,0,0,0.16667,-3.7007e-17,0,0.66667
0.16814,0.20521,1.0089,-0.44219,-20.457,151.19,1.1896,-0.39654,-1.3041,1.5862,1.0751e-09,-0.65203,0,0,0.16667,-0,-0,0.66667
0.37046,0.67156,2.2227,0.25733,10.524,95.606,-1.5253,0.50843,-1.7635,-2.0337,2.3225e-12,-0.88176,0,0,0.16667,-0,-0,0.66667
0.60435,0.0019786,3.6261,-0.74703,-22.758,43.401,7.2235,-2.4078,-0.015927,9.6313,-4.5075e-13,-0.0079635,0,0,0.16667,-0,-0,0.66667
0.055815,0.26573,0.33489,-0.35141,-16.655,183.99,0.31382,-0.10461,-1.5594,0.41843,-1.9064e-08,-0.77972,0,0,0.16667,9.8686e-17,0,0.66667
0.24523,0.82851,1.4714,0.49276,22.067,129.36,-1.9334,0.64447,-1.1356,-2.5779,-2.8037e-11,-0.56778,0,0,0.16667,-3.9475e-16,0,0.66667
0.83397,0.85241,5.0038,0.52862,7.5709,9.5322,-7.0537,2.3512,-1.0054,-9.4049,1.162e-09,-0.50271,0,0,0.16667,-0,-0,0.66667
0.66288,0.18898,3.9773,-0.46653,-12.387,32.303,4.9481,-1.6494,-1.226,6.5975,3.1912e-12,-0.61302,0,0,0.16667,1.579e-15,0,0.66667
0.35143,0.16828,2.1086,-0.49759,-20.772,100.7,2.7979,-0.93262,-1.1182,3.7305,-3.1379e-12,-0.55911,0,0,0.16667,-0,-0,0.66667
0.11421,0.84243,0.68527,0.51364,24.174,166.86,-0.93863,0.31288,-1.0623,-1.2515,-2.431e-09,-0.53113,0,0,0.16667,3.1297e-16,0,0.66667
0.3249,0.45829,1.9494,-0.062558,-2.6495,107.46,0.3252,-0.1084,-1.9857,0.4336,-1.3241e-12,-0.99287,0,0,0.16667,-0,-0,0.66667
0.24452,0.87613,1.4671,0.5642,25.32,129.61,-2.2073,0.73576,-0.86838,-2.9431,-4.237e-11,-0.43419,0,0,0.16667,-7.8949e-16,0,0.66667
0.71057,0.57143,4.2634,0.10715,2.4851,24.281,-1.2182,0.40606,-1.958,-1.6242,1.6201e-12,-0.97898,0,0,0.16667,-0,-0,0.66667
0.30055,0.45703,1.8033,-0.064461,-2.7773,114,0.30998,-0.10333,-1.9846,0.4133,-2.3351e-13,-0.9923,0,0,0.16667,-0,-0,0.66667
0.67724,0.78096,4.0634,0.42143,10.783,29.839,-4.5666,1.5222,-1.3689,-6.0888,-5.1004e-12,-0.68445,0,0,0.16667,-2.4672e-17,0,0.66667
0.41266,0.20486,2.4759,-0.44271,-17.463,85.109,2.923,-0.97433,-1.3017,3.8973,-1.108e-12,-0.65085,0,0,0.16667,7.8949e-16,0,0.66667
0.34994,0.56267,2.0996,0.094,3.9055,100.87,-0.52631,0.17544,-1.9688,-0.70174,2.0022e-12,-0.98442,0,0,0.16667,-0,-0,0.66667
0.78582,0.50929,4.7149,0.013937,0.24773,14.089,-0.17523,0.058409,-1.9985,-0.23363,-3.4442e-11,-0.99927,0,0,0.16667,-0,-0,0.66667
0.1854,0.90732,1.1124,0.61098,28.199,146.32,-1.8124,0.60415,-0.67423,-2.4166,1.0066e-09,-0.33711,0,0,0.16667,7.8949e-16,2.6105e-17,0.66667
0.45682,0.96662,2.7409,0.69992,26.533,74.801,-5.1159,1.7053,-0.2587,-6.8211,1.5854e-12,-0.12935,0,0,0.16667,-1.1842e-15,0,0.66667
0.58351,0.71058,3.5011,0.31587,9.8478,46.717,-2.949,0.98301,-1.6444,-3.932,-1.3245e-12,-0.82219,0,0,0.16667,3.9475e-16,0,0.66667
0.3212,0.21449,1.9272,-0.42826,-18.267,108.6,2.2009,-0.73364,-1.3473,2.9346,-5.9315e-12,-0.67364,0,0,0.16667,3.8756e-16,0,0.66667
0.70625,0.4274,4.2375,-0.1089,-2.5578,24.937,1.2306,-0.41019,-1.9576,1.6408,-8.1457e-13,-0.97878,0,0,0.16667,-7.8949e-16,0,0.66667
0.91783,0.77585,5.507,0.41377,2.9621,3.009,-6.0763,2.0254,-1.3911,-8.1018,1.1635e-08,-0.69556,0,0,0.16667,2.5172e-15,0,0.66667
0.073071,0.43242,0.43842,-0.10138,-4.782,178.87,0.11852,-0.039507,-1.9631,0.15803,8.8509e-08,-0.98153,0,0,0.16667,-0,-0,0.66667
0.18143,0.4371,1.0886,-0.094346,-4.3254,147.28,0.27387,-0.091291,-1.9686,0.36516,-1.0026e-12,-0.98429,0,0,0.16667,-4.5643e-16,0,0.66667
0.50911,0.76859,3.0547,0.40288,14.159,62.437,-3.2818,1.0939,-1.4215,-4.3757,-1.2523e-13,-0.71074,0,0,0.16667,-0,-0,0.66667
0.79988,0.60458,4.7993,0.15687,2.6247,12.518,-2.0077,0.66922,-1.9122,-2.6769,2.825e-10,-0.95611,0,0,0.16667,-0,-0,0.66667
0.63096,0.5947,3.7857,0.14205,4.0239,37.569,-1.434,0.478,-1.9284,-1.912,-2.3449e-12,-0.96419,0,0,0.16667,-1.579e-15,0,0.66667
0.019691,0.4018,0.11814,-0.14731,-6.9853,194.66,0.046409,-0.01547,-1.9228,0.061878,1.036e-07,-0.96142,0,0,0.16667,-2.4672e-17,0,0.66667
0.32998,0.85195,1.9799,0.52792,22.425,106.36,-2.7873,0.92908,-1.0096,-3.7163,3.2307e-12,-0.50481,0,0,0.16667,-0,-0,0.66667
0.65383,0.39671,3.923,-0.15493,-4.1711,33.514,1.6208,-0.54027,-1.9148,2.1611,2.6068e-12,-0.95738,0,0,0.16667,-0,-0,0.66667
0.68714,0.81893,4.1228,0.47839,11.955,28.329,-5.2595,1.7532,-1.188,-7.0127,-5.036e-12,-0.59399,0,0,0.16667,1.579e-15,0,0.66667
0.48225,0.39361,2.8935,-0.15958,-5.7895,68.313,1.2313,-0.41044,-1.9095,1.6418,2.4547e-13,-0.95476,0,0,0.16667,-0,-0,0.66667
0.053735,0.41856,0.32241,-0.12216,-5.7776,184.58,0.10503,-0.03501,-1.9455,0.14004,-4.6013e-08,-0.97276,0,0,0.16667,-0,-0,0.66667
0.62779,0.3525,3.7667,-0.22126,-6.3168,38.195,2.2224,-0.74081,-1.8259,2.9632,2.4347e-12,-0.91297,0,0,0.16667,-0,-0,0.66667
0.50403,0.181,3.0242,-0.47851,-16.968,63.655,3.8589,-1.2863,-1.1856,5.1452,-4.8761e-13,-0.59281,0,0,0.16667,3.9475e-16,0,0.66667
0.72541,0.45976,4.3525,-0.060359,-1.3376,22.068,0.70056,-0.23352,-1.9859,0.93408,-5.3766e-12,-0.99294,0,0,0.16667,-0,-0,0.66667
0.39049,0.88182,2.343,0.57273,23.16,90.776,-3.5784,1.1928,-0.83552,-4.7712,1.3058e-12,-0.41776,0,0,0.16667,-0,1.3474e-16,0.66667
0.83573,0.64832,5.0144,0.22248,3.102,8.8531,-2.9749,0.99164,-1.8229,-3.9666,1.2507e-09,-0.91144,0,0,0.16667,-0,-0,0.66667
0.3075,0.47001,1.845,-0.044984,-1.9289,112.12,0.22132,-0.073774,-1.9931,0.2951,-2.2038e-13,-0.99654,0,0,0.16667,-0,-0,0.66667
0.86379,0.74578,5.1827,0.36867,4.3295,6.5718,-5.0952,1.6984,-1.5167,-6.7936,3.3573e-09,-0.75833,0,0,0.16667,-0,-0,0.66667
0.014481,0.16046,0.086884,-0.50931,-24.282,196.22,0.118,-0.039334,-1.0792,0.15734,-2.1405e-08,-0.5396,0,0,0.16667,-0,-0,0.66667
0.76274,0.80242,4.5765,0.45363,8.9387,17.365,-5.536,1.8453,-1.2682,-7.3814,6.4099e-11,-0.63409,0,0,0.16667,-7.8949e-16,0,0.66667
0.82737,0.53621,4.9642,0.054319,0.79099,9.563,-0.71907,0.23969,-1.9911,-0.95877,-4.3451e-12,-0.99557,0,0,0.16667,-0,-0,0.66667
0.6809,0.065784,4.0854,-0.65132,-16.676,29.689,7.0958,-2.3653,-0.49124,9.461,1.0072e-12,-0.24562,0,0,0.16667,1.579e-15,0,0.66667
0.90273,0.99868,5.4164,0.74802,6.6427,4.8101,-10.804,3.6014,-0.011297,-14.406,-2.0688e-08,-0.0056484,0,0,0.16667,-1.579e-15,-3.1875e-17,0.66667
0.20173,0.82308,1.2104,0.48462,22.15,141.6,-1.5642,0.52141,-1.1656,-2.0856,-2.2623e-10,-0.58278,0,0,0.16667,-0,-0,0.66667
0.35195,0.74005,2.1117,0.36007,14.981,100.45,-2.0276,0.67588,-1.5377,-2.7035,4.684e-12,-0.76885,0,0,0.16667,-0,-0,0.66667
0.22914,0.20064,1.3748,-0.44904,-20.254,133.84,1.6463,-0.54877,-1.2819,2.1951,7.8249e-11,-0.64094,0,0,0.16667,-0,-0,0.66667
0.84492,0.2232,5.0695,-0.4152,-5.5341,8.275,5.6129,-1.871,-1.3885,7.4839,-1.6037e-09,-0.69426,0,0,0.16667,-0,-0,0.66667
0.74641,0.26853,4.4785,-0.3472,-7.2216,19.351,4.1465,-1.3822,-1.5708,5.5286,-3.9094e-11,-0.78538,0,0,0.16667,-0,-0,0.66667
0.86905,0.19166,5.2143,-0.46252,-5.2664,6.3316,6.4312,-2.1437,-1.2389,8.5749,-2.6624e-09,-0.61947,0,0,0.16667,-0,-0,0.66667
0.34762,0.9859,2.0857,0.72885,30.734,101.95,-4.0539,1.3513,-0.11041,-5.4051,-6.9722e-14,-0.055205,0,0,0.16667,-3.9475e-16,0,0.66667
0.15395,0.34567,0.9237,-0.23149,-10.726,155.23,0.57021,-0.19007,-1.8107,0.76028,2.295e-09,-0.90535,0,0,0.16667,-0,-0,0.66667
0.96828,0.26998,5.8097,-0.34503,-0.87522,0.86364,5.3453,-1.7818,-1.5779,7.1271,5.1864e-08,-0.78896,0,0,0.16667,-0,-0,0.66667
0.44892,0.38104,2.6935,-0.17843,-6.7405,76.118,1.2816,-0.42722,-1.8865,1.7089,-5.9042e-13,-0.94326,0,0,0.16667,-0,-0,0.66667
0.7299,0.33153,4.3794,-0.2527,-5.5368,21.539,2.9511,-0.98372,-1.772,3.9349,-1.6495e-11,-0.88601,0,0,0.16667,-0,-0,0.66667
0.65417,0.049432,3.925,-0.67585,-18.484,34.211,7.0739,-2.358,-0.37598,9.4319,3.6948e-13,-0.18799,0,0,0.16667,-0,-0,0.66667
0.14285,0.52089,0.85708,0.031338,1.4553,158.43,-0.071626,0.023875,-1.9967,-0.095501,2.8102e-10,-0.99833,0,0,0.16667,-0,-0,0.66667
0.84418,0.86043,5.0651,0.54065,7.3059,8.6121,-7.3025,2.4342,-0.96178,-9.7366,1.6154e-09,-0.48089,0,0,0.16667,-1.579e-15,0,0.66667
0.97846,0.028444,5.8708,-0.70733,-1.4011,1.6211,11.074,-3.6912,-0.22085,14.765,1.1901e-05,-0.11042,0,0,0.16667,7.8949e-16,0,0.66667
0.96625,0.22659,5.7975,-0.41012,-1.1387,1.0447,6.3404,-2.1135,-1.4022,8.4538,8.6869e-08,-0.7011,0,0,0.16667,-0,-0,0.66667
0.3364,0.46031,2.0184,-0.059537,-2.4998,104.41,0.32045,-0.10682,-1.9862,0.42727,-1.1743e-12,-0.99311,0,0,0.16667,-3.9475e-16,0,0.66667
0.92595,0.6871,5.5557,0.28065,1.7805,2.3642,-4.1579,1.386,-1.7207,-5.5439,6.5456e-10,-0.86035,0,0,0.16667,-2.4672e-16,0,0.66667
0.13324,0.94588,0.79947,0.66881,31.453,161.38,-1.4259,0.47528,-0.40839,-1.9011,1.3816e-08,-0.20419,0,0,0.16667,-0,-0,0.66667
0.93972,0.9198,5.6383,0.6297,3.4256,2.5314,-9.4679,3.156,-0.59012,-12.624,3.4876e-08,-0.29506,0,0,0.16667,1.579e-15,0,0.66667
0.0441,0.52136,0.2646,0.03204,1.5163,187.43,-0.022607,0.0075356,-1.9963,-0.030143,-1.9374e-07,-0.99813,0,0,0.16667,9.8686e-17,0,0.66667
0.40908,0.77445,2.4545,0.41167,16.286,85.965,-2.6945,0.89817,-1.3976,-3.5927,1.5727e-12,-0.69881,0,0,0.16667,-0,-0,0.66667
0.84301,0.25814,5.058,-0.36279,-4.8764,8.3571,4.8933,-1.6311,-1.5333,6.5244,-2.0052e-09,-0.76664,0,0,0.16667,1.579e-15,0,0.66667
0.72623,0.86015,4.3574,0.54022,12.103,22.508,-6.2772,2.0924,-0.96082,-8.3696,-1.3811e-13,-0.48041,0,0,0.16667,-8.6003e-16,0,0.66667
0.72093,0.58245,4.3256,0.12367,2.7808,22.745,-1.4265,0.47551,-1.9457,-1.902,6.0217e-12,-0.97286,0,0,0.16667,7.8949e-16,0,0.66667
0.27735,0.50647,1.6641,0.0097109,0.4246,120.32,-0.043092,0.014364,-1.9994,-0.057457,-1.7883e-13,-0.99972,0,0,0.16667,-0,-0,0.66667
0.42121,0.15878,2.5273,-0.51183,-20.05,83.079,3.4494,-1.1498,-1.0707,4.5993,-1.2657e-12,-0.53533,0,0,0.16667,-0,-0,0.66667
0.58955,0.098303,3.5373,-0.60255,-18.745,45.941,5.6837,-1.8946,-0.70906,7.5783,4.2055e-13,-0.35453,0,0,0.16667,-0,-0,0.66667
0.38914,0.70633,2.3348,0.30949,12.456,90.877,-1.927,0.64232,-1.6599,-2.5693,2.0665e-12,-0.82994,0,0,0.16667,-0,-0,0.66667
0.50598,0.72314,3.0359,0.33472,11.797,63.065,-2.7097,0.90324,-1.6012,-3.613,-1.1007e-12,-0.80058,0,0,0.16667,1.579e-15,0,0.66667
0.54035,0.21788,3.2421,-0.42318,-14.214,55.69,3.6586,-1.2195,-1.3633,4.8782,-4.3032e-13,-0.68166,0,0,0.16667,8.8818e-16,0,0.66667
0.82427,0.37278,4.9456,-0.19082,-2.8322,9.9465,2.5167,-0.83888,-1.871,3.3555,-8.3008e-10,-0.9355,0,0,0.16667,-1.579e-15,0,0.66667
0.72498,0.44651,4.3499,-0.080231,-1.7807,22.137,0.93065,-0.31022,-1.976,1.2409,-5.4871e-12,-0.988,0,0,0.16667,-0,-0,0.66667
0.66049,0.41929,3.9629,-0.12107,-3.2073,32.352,1.2794,-0.42647,-1.947,1.7059,2.3489e-12,-0.9735,0,0,0.16667,-0,-0,0.66667
0.035884,0.8363,0.2153,0.50445,24.021,189.89,-0.28962,0.096542,-1.0946,-0.38617,4.7392e-08,-0.54732,0,0,0.16667,4.9343e-17,0,0.66667
0.15539,0.93296,0.93231,0.64944,30.326,154.96,-1.6146,0.5382,-0.502,-2.1528,-4.7944e-09,-0.251,0,0,0.16667,9.8686e-17,-9.804e-17,0.66667
0.88653,0.021107,5.3192,-0.71834,-7.3466,5.7525,10.189,-3.3964,-0.16462,13.586,-8.0466e-09,-0.08231,0,0,0.16667,-0,-0,0.66667
0.76576,0.83426,4.5945,0.50138,9.7926,17.073,-6.143,2.0477,-1.1077,-8.1907,6.8573e-11,-0.55386,0,0,0.16667,-0,-0,0.66667
0.18038,0.79132,1.0823,0.43699,20.124,147.67,-1.2612,0.4204,-1.3197,-1.6816,-7.6568e-10,-0.65987,0,0,0.16667,-0,-0,0.66667
0.065156,0.19595,0.39094,-0.45607,-21.631,181.24,0.47546,-0.15849,-1.2605,0.63394,1.7126e-08,-0.63026,0,0,0.16667,-0,-0,0.66667
0.16273,0.59753,0.97639,0.1463,6.7543,152.67,-0.38092,0.12697,-1.9234,-0.50789,-5.4398e-10,-0.96171,0,0,0.16667,3.9475e-16,0,0.66667
0.83741,0.24947,5.0244,-0.3758,-5.2248,8.8986,5.0351,-1.6784,-1.498,6.7135,-1.536e-09,-0.74901,0,0,0.16667,-2.3191e-15,0,0.66667
0.97311,0.56584,5.8386,0.098756,0.19492,0.46032,-1.5376,0.51254,-1.9654,-2.0501,-6.9507e-07,-0.9827,0,0,0.16667,-0,-0,0.66667
0.7551,0.55649,4.5306,0.084735,1.6994,17.958,-1.0237,0.34125,-1.9739,-1.365,2.6498e-11,-0.98696,0,0,0.16667,-0,-0,0.66667
0.7846,0.48547,4.7076,-0.021795,-0.38944,14.234,0.27361,-0.091203,-1.9977,0.36481,-5.6823e-12,-0.99886,0,0,0.16667,-1.579e-15,0,0.66667
0.029384,0.80094,0.17631,0.45141,21.481,191.81,-0.21223,0.070743,-1.2758,-0.28297,1.7208e-07,-0.63788,0,0,0.16667,-0,-0,0.66667
0.87464,0.12655,5.2478,-0.56018,-6.1745,6.1344,7.8392,-2.6131,-0.88678,10.452,-1.2856e-08,-0.44339,0,0,0.16667,3.158e-15,3.7685e-17,0.66667
0.68115,0.84575,4.0869,0.51863,13.186,29.367,-5.6522,1.8841,-1.0435,-7.5363,-3.8183e-12,-0.52175,0,0,0.16667,-0,-0,0.66667
0.34905,0.69207,2.0943,0.2881,12.001,101.17,-1.609,0.53633,-1.7045,-2.1453,3.3853e-12,-0.85224,0,0,0.16667,7.8949e-16,0,0.66667
0.49958,0.18161,2.9975,-0.47759,-17.037,64.648,3.8175,-1.2725,-1.1907,5.09,-2.3181e-13,-0.59537,0,0,0.16667,3.9475e-16,-7.0191e-18,0.66667
0.95006,0.90026,5.7003,0.60039,2.6809,2.0441,-9.1264,3.0421,-0.71854,-12.169,5.6443e-08,-0.35927,0,0,0.16667,-7.8949e-16,1.2893e-16,0.66667
0.054088,0.81076,0.32453,0.46613,22.142,184.51,-0.40339,0.13446,-1.2273,-0.53786,-1.7566e-08,-0.61363,0,0,0.16667,-1.4803e-16,0,0.66667
0.1917,0.65963,1.1502,0.23944,10.945,144.37,-0.73441,0.2448,-1.7963,-0.97922,-5.7509e-10,-0.89814,0,0,0.16667,-0,-0,0.66667
0.15015,0.93317,0.90091,0.64975,30.39,156.47,-1.561,0.52032,-0.49843,-2.0813,-7.03e-09,-0.24922,0,0,0.16667,-0,-0,0.66667
0.53825,0.75052,3.2295,0.37578,12.647,56.082,-3.2362,1.0787,-1.498,-4.3149,1.9962e-13,-0.74901,0,0,0.16667,-0,-0,0.66667
0.23563,0.25034,1.4138,-0.37449,-16.813,131.98,1.4118,-0.47061,-1.5035,1.8824,9.0611e-11,-0.75176,0,0,0.16667,7.8949e-16,0,0.66667
0.076734,0.46742,0.4604,-0.048864,-2.3033,177.79,0.059993,-0.019998,-1.9934,0.07999,-1.59e-07,-0.99669,0,0,0.16667,-0,-0,0.66667
0.515,0.90438,3.09,0.60657,21.271,61.421,-4.9981,1.666,-0.69409,-6.6641,8.7175e-13,-0.34704,0,0,0.16667,-2.9606e-16,0,0.66667
0.83625,0.84836,5.0175,0.52254,7.3847,9.3013,-6.9916,2.3305,-1.0285,-9.3221,1.6007e-09,-0.51424,0,0,0.16667,-3.158e-15,0,0.66667
0.68195,0.55467,4.0917,0.082006,2.0584,28.76,-0.89478,0.29826,-1.9752,-1.193,-1.8092e-12,-0.98761,0,0,0.16667,7.8949e-16,0,0.66667
0.036724,0.025988,0.22034,-0.71102,-34.041,189.67,0.41778,-0.13926,-0.20197,0.55704,4.0502e-06,-0.10099,0,0,0.16667,-0,-0,0.66667
0.04527,0.03859,0.27162,-0.69211,-33.094,187.14,0.50131,-0.1671,-0.29759,0.66842,5.9443e-06,-0.14879,0,0,0.16667,-0,-1.4188e-16,0.66667
0.53809,0.072325,3.2285,-0.64151,-21.777,56.505,5.523,-1.841,-0.53549,7.364,-5.9819e-13,-0.26774,0,0,0.16667,-0,-0,0.66667
0.14142,0.23022,0.8485,-0.40467,-18.868,158.9,0.91563,-0.30521,-1.4187,1.2208,3.2506e-09,-0.70935,0,0,0.16667,-0,-0,0.66667
0.70723,0.11713,4.2434,-0.5743,-13.64,25.387,6.4986,-2.1662,-0.82683,8.6649,3.7588e-12,-0.41341,0,0,0.16667,-0,-0,0.66667
0.24745,0.18911,1.4847,-0.46633,-20.846,128.73,1.8463,-0.61542,-1.228,2.4617,5.0644e-11,-0.61398,0,0,0.16667,-0,-0,0.66667
0.43996,0.88505,2.6398,0.57758,22.22,78.619,-4.0658,1.3553,-0.81394,-5.421,2.5047e-13,-0.40697,0,0,0.16667,-0,-0,0.66667
0.62029,0.35326,3.7217,-0.22011,-6.3828,39.576,2.1845,-0.72817,-1.8269,2.9127,1.7599e-12,-0.91346,0,0,0.16667,-0,-0,0.66667
0.97274,0.2423,5.8364,-0.38655,-0.83229,0.83141,6.0162,-2.0054,-1.4683,8.0216,8.8622e-08,-0.73416,0,0,0.16667,-0,-0,0.66667
0.19701,0.49506,1.182,-0.0074058,-0.33736,142.82,0.023344,-0.0077813,-1.9992,0.031125,2.0847e-10,-0.9996,0,0,0.16667,-5.9212e-16,0,0.66667
0.91184,0.9253,5.471,0.63795,5.0584,3.9116,-9.3073,3.1024,-0.55174,-12.41,1.6279e-07,-0.27587,0,0,0.16667,-0,-0,0.66667
0.35078,0.97482,2.1047,0.71223,29.94,101.11,-3.9973,1.3324,-0.19549,-5.3298,1.2403e-12,-0.097744,0,0,0.16667,-0,-0,0.66667
0.16192,0.63754,0.97154,0.2063,9.5317,152.92,-0.53449,0.17816,-1.8474,-0.71265,-1.4926e-09,-0.92371,0,0,0.16667,3.9475e-16,0,0.66667
0.42086,0.34494,2.5252,-0.23258,-9.064,82.931,1.5662,-0.52206,-1.8098,2.0882,8.2312e-13,-0.9049,0,0,0.16667,-1.579e-15,0,0.66667
0.84148,0.0782,5.0489,-0.6327,-8.7589,9.1004,8.5185,-2.8395,-0.57661,11.358,1.4289e-10,-0.2883,0,0,0.16667,-0,-0,0.66667
0.043786,0.93575,0.26272,0.65362,31.222,187.58,-0.45791,0.15264,-0.48187,-0.61055,2.0705e-07,-0.24094,0,0,0.16667,-0,-4.2435e-17,0.66667
0.13697,0.14018,0.82183,-0.53974,-25.269,160.24,1.1829,-0.39428,-0.9635,1.5771,8.0895e-11,-0.48175,0,0,0.16667,1.9737e-16,0,0.66667
0.58994,0.33376,3.5396,-0.24936,-7.6741,45.391,2.3537,-0.78456,-1.7784,3.1382,8.4532e-13,-0.88918,0,0,0.16667,-0,-0,0.66667
0.40858,0.96915,2.4515,0.70372,28.091,86.443,-4.6004,1.5335,-0.24073,-6.1339,-2.8555e-13,-0.12037,0,0,0.16667,-0,-0,0.66667
0.47828,0.54932,2.8697,0.073976,2.6959,69.2,-0.5661,0.1887,-1.9792,-0.7548,3.5305e-13,-0.98959,0,0,0.16667,-7.8949e-16,0,0.66667
0.82205,0.36567,4.9323,-0.20149,-3.0268,10.18,2.6502,-0.88341,-1.8545,3.5336,-7.2278e-10,-0.92726,0,0,0.16667,-0,-0,0.66667
0.16727,0.79239,1.0036,0.43858,20.295,151.44,-1.1738,0.39127,-1.3152,-1.5651,-1.2031e-09,-0.65758,0,0,0.16667,-0,-0,0.66667
0.32202,0.70099,1.9321,0.30148,12.823,108.3,-1.5533,0.51778,-1.6755,-2.0711,5.0773e-12,-0.83773,0,0,0.16667,-0,-0,0.66667
0.20551,0.45933,1.2331,-0.061004,-2.7692,140.4,0.20059,-0.066863,-1.9869,0.26745,1.135e-10,-0.99345,0,0,0.16667,1.9737e-16,0,0.66667
0.099323,0.71998,0.59594,0.32997,15.527,171.17,-0.52438,0.17479,-1.613,-0.69917,-6.5578e-09,-0.80651,0,0,0.16667,-0,-0,0.66667
0.52436,0.27671,3.1461,-0.33493,-11.5,59.026,2.81,-0.93667,-1.6005,3.7467,2.5246e-13,-0.80024,0,0,0.16667,-1.9737e-16,0,0.66667
0.21257,0.6649,1.2754,0.24735,11.208,138.43,-0.84129,0.28043,-1.7814,-1.1217,-2.9869e-10,-0.89069,0,0,0.16667,-0,-0,0.66667
0.90438,0.51361,5.4263,0.020417,0.16656,3.3633,-0.29543,0.098478,-1.9987,-0.39391,-1.1829e-08,-0.99935,0,0,0.16667,-0,-0,0.66667
0.046031,0.22699,0.27618,-0.40952,-19.448,186.88,0.30161,-0.10054,-1.4049,0.40215,-4.4363e-08,-0.70244,0,0,0.16667,-0,-0,0.66667
0.89727,0.77021,5.3836,0.40531,3.6244,4.2013,-5.8188,1.9396,-1.4146,-7.7584,1.1405e-08,-0.70728,0,0,0.16667,-0,-0,0.66667
0.58773,0.0021656,3.5264,-0.74675,-23.459,46.601,7.0223,-2.3408,-0.017164,9.363,8.0735e-13,-0.0085821,0,0,0.16667,-0,-0,0.66667
0.8616,0.33154,5.1696,-0.25268,-2.9943,6.5854,3.4834,-1.1611,-1.773,4.6445,-2.3638e-09,-0.88651,0,0,0.16667,-1.579e-15,0,0.66667
0.02917,0.4359,0.17502,-0.096156,-4.5564,191.85,0.044878,-0.01496,-1.9685,0.059838,-6.641e-07,-0.98427,0,0,0.16667,-1.4186e-17,0,0.66667
0.33301,0.64438,1.9981,0.21657,9.1268,105.35,-1.1539,0.38464,-1.8322,-1.5386,3.7563e-12,-0.9161,0,0,0.16667,-0,-0,0.66667
0.50111,0.48759,3.0067,-0.018616,-0.65832,64.001,0.14926,-0.049752,-1.9995,0.19901,4.2547e-13,-0.99973,0,0,0.16667,-7.8949e-16,0,0.66667
0.21711,0.23808,1.3027,-0.39288,-17.803,137.2,1.3648,-0.45493,-1.4516,1.8197,2.0527e-10,-0.72578,0,0,0.16667,-0,-0,0.66667
0.4226,0.50424,2.5356,0.0063536,0.2468,82.445,-0.04296,0.01432,-2.0016,-0.05728,-1.3485e-12,-1.0008,0,0,0.16667,3.158e-15,0,0.66667
0.029533,0.25831,0.1772,-0.36254,-17.225,191.76,0.17131,-0.057102,-1.5333,0.22841,-6.3812e-08,-0.76665,0,0,0.16667,-0,-0,0.66667
0.58718,0.57368,3.5231,0.11053,3.413,45.854,-1.0384,0.34613,-1.9552,-1.3845,-9.9898e-13,-0.97762,0,0,0.16667,-0,-0,0.66667
0.92973,0.69916,5.5784,0.29873,1.7977,2.2072,-4.4439,1.4813,-1.6813,-5.9252,-2.0789e-09,-0.84063,0,0,0.16667,-0,-0,0.66667
0.075808,0.19848,0.45485,-0.45228,-21.417,178.11,0.54858,-0.18286,-1.2727,0.73145,1.717e-08,-0.63637,0,0,0.16667,1.9737e-16,0,0.66667
0.84182,0.40509,5.0509,-0.14237,-1.9108,8.2158,1.9176,-0.63919,-1.9295,2.5568,-1.4922e-09,-0.96476,0,0,0.16667,-1.7764e-15,0,0.66667
0.74778,0.026843,4.4867,-0.70973,-14.974,19.929,8.4916,-2.8305,-0.20982,11.322,-8.4022e-13,-0.10491,0,0,0.16667,-0,-0,0.66667
0.22999,0.47214,1.3799,-0.041792,-1.8756,133.48,0.15378,-0.051261,-1.9939,0.20505,1.382e-11,-0.99693,0,0,0.16667,-0,-0,0.66667
0.51812,0.92372,3.1087,0.63557,22.213,60.788,-5.2688,1.7563,-0.56355,-7.0251,-1.7897e-13,-0.28178,0,0,0.16667,-0,-0,0.66667
0.31376,0.18887,1.8826,-0.4667,-20.029,110.62,2.3429,-0.78096,-1.2275,3.1238,-5.0944e-12,-0.61376,0,0,0.16667,-0,-0,0.66667
0.61579,0.20308,3.6947,-0.44539,-13.104,40.661,4.3882,-1.4627,-1.2932,5.8509,1.4659e-12,-0.64662,0,0,0.16667,-0,-0,0.66667
0.21317,0.967,1.279,0.7005,32.044,138.5,-2.3892,0.79641,-0.25534,-3.1857,-7.2666e-11,-0.12767,0,0,0.16667,-1.4803e-16,0,0.66667
0.43589,0.61309,2.6153,0.16964,6.5016,79.243,-1.1831,0.39436,-1.8981,-1.5774,4.7762e-13,-0.94904,0,0,0.16667,3.9475e-16,0,0.66667
0.78908,0.60201,4.7345,0.15301,2.686,13.754,-1.9318,0.64393,-1.9156,-2.5757,2.5216e-10,-0.9578,0,0,0.16667,-0,-0,0.66667
0.46647,0.89657,2.7988,0.59486,22.212,72.376,-4.4397,1.4799,-0.74202,-5.9196,1.4655e-13,-0.37101,0,0,0.16667,-3.9475e-16,0,0.66667
0.67355,0.026473,4.0413,-0.71029,-18.584,31.032,7.6547,-2.5516,-0.20726,10.206,5.8531e-13,-0.10363,0,0,0.16667,-7.8949e-16,0,0.66667
0.88484,0.41989,5.309,-0.12016,-1.1836,4.686,1.7011,-0.56704,-1.9473,2.2682,3.7738e-10,-0.97367,0,0,0.16667,1.579e-15,0,0.66667
0.93814,0.55829,5.6288,0.08743,0.45286,1.6243,-1.3123,0.43745,-1.9747,-1.7498,-1.2675e-07,-0.98733,0,0,0.16667,-1.579e-15,0,0.66667
0.98474,0.47971,5.9084,-0.03044,-0.026536,0.1989,0.47961,-0.15987,-1.998,0.63947,-2.1818e-06,-0.99899,0,0,0.16667,1.579e-15,0,0.66667
0.88356,0.40096,5.3013,-0.14857,-1.4808,4.7952,2.1003,-0.70009,-1.9207,2.8004,-6.8171e-09,-0.96037,0,0,0.16667,7.8949e-16,0,0.66667
0.24358,0.51227,1.4615,0.018398,0.81996,129.67,-0.0717,0.0239,-1.9974,-0.0956,-1.8041e-12,-0.99871,0,0,0.16667,7.8949e-16,0,0.66667
0.4083,0.74213,2.4498,0.36319,14.365,86.116,-2.3727,0.79089,-1.5315,-3.1636,1.42e-12,-0.76573,0,0,0.16667,3.9475e-16,0,0.66667
0.37481,0.2551,2.2488,-0.36736,-14.993,94.56,2.203,-0.73433,-1.5222,2.9373,-2.0914e-12,-0.7611,0,0,0.16667,7.8949e-16,0,0.66667
0.15223,0.80743,0.91337,0.46115,21.455,155.79,-1.1232,0.3744,-1.2438,-1.4976,-3.0913e-09,-0.62191,0,0,0.16667,-0,-0,0.66667
0.070456,0.32084,0.42274,-0.26874,-12.699,179.66,0.30295,-0.10098,-1.742,0.40394,-6.1538e-09,-0.87102,0,0,0.16667,-1.9737e-16,0,0.66667
0.29574,0.65293,1.7745,0.2294,9.9267,115.34,-1.0855,0.36183,-1.8146,-1.4473,8.3999e-13,-0.90728,0,0,0.16667,-5.9212e-16,0,0.66667
0.85996,0.73063,5.1598,0.34595,4.1663,6.849,-4.76,1.5867,-1.5755,-6.3467,3.2451e-09,-0.78777,0,0,0.16667,-0,-0,0.66667
0.038983,0.89515,0.2339,0.59272,28.277,188.98,-0.3697,0.12323,-0.74947,-0.49293,-7.4594e-07,-0.37474,0,0,0.16667,4.9343e-17,0,0.66667
0.21547,0.85315,1.2928,0.52972,24.091,137.74,-1.8262,0.60873,-1.002,-2.4349,-5.365e-11,-0.501,0,0,0.16667,-0,-0,0.66667
0.34655,0.42606,2.0793,-0.11091,-4.6212,101.76,0.615,-0.205,-1.956,0.82,-1.9426e-12,-0.97802,0,0,0.16667,3.9475e-16,0,0.66667
0.64816,0.53466,3.889,0.051989,1.4169,34.466,-0.53916,0.17972,-1.9899,-0.71888,-1.0097e-12,-0.99495,0,0,0.16667,-1.579e-15,0,0.66667
0.56317,0.93398,3.379,0.65097,21.243,51.304,-5.8657,1.9552,-0.4952,-7.8209,2.3848e-13,-0.2476,0,0,0.16667,-9.8686e-16,0,0.66667
0.79618,0.04826,4.7771,-0.67761,-11.835,13.858,8.632,-2.8773,-0.36835,11.509,1.8698e-11,-0.18417,0,0,0.16667,6.3611e-16,0,0.66667
0.68696,0.38658,4.1218,-0.17013,-4.2184,27.991,1.87,-0.62334,-1.8982,2.4934,3.1597e-12,-0.9491,0,0,0.16667,-1.579e-15,0,0.66667
0.8895,0.80695,5.337,0.46043,4.4468,4.8289,-6.5528,2.1843,-1.2476,-8.7371,7.3274e-09,-0.62378,0,0,0.16667,-0,-0,0.66667
0.4869,0.91927,2.9214,0.6289,22.922,67.728,-4.8994,1.6331,-0.59355,-6.5326,-8.3444e-13,-0.29677,0,0,0.16667,7.8949e-16,0,0.66667
0.53592,0.51386,3.2155,0.020796,0.69938,56.377,-0.17832,0.059439,-1.9974,-0.23776,5.8437e-13,-0.99871,0,0,0.16667,-1.579e-15,0,0.66667
0.83765,0.31094,5.0259,-0.28359,-3.9194,8.7401,3.8007,-1.2669,-1.714,5.0676,-1.6879e-09,-0.85702,0,0,0.16667,5.9212e-16,0,0.66667
0.0056932,0.87851,0.034159,0.56777,27.11,198.82,-0.051718,0.017239,-0.85353,-0.068958,-6.324e-07,-0.42677,0,0,0.16667,-0,-0,0.66667
0.24257,0.67887,1.4554,0.2683,11.984,129.99,-1.0413,0.3471,-1.7429,-1.3884,-7.8098e-11,-0.87143,0,0,0.16667,-3.9475e-16,0,0.66667
0.22151,0.22852,1.329,-0.40722,-18.42,135.96,1.4432,-0.48108,-1.4103,1.9243,1.645e-10,-0.70515,0,0,0.16667,-0,-0,0.66667
0.56155,0.60838,3.3693,0.16258,5.2525,51.04,-1.4607,0.4869,-1.9067,-1.9476,-7.7549e-13,-0.95337,0,0,0.16667,-0,-0,0.66667
0.71761,0.1372,4.3057,-0.54421,-12.52,23.771,6.2485,-2.0828,-0.94766,8.3313,2.4856e-12,-0.47383,0,0,0.16667,-0,-0,0.66667
0.2525,0.85647,1.515,0.5347,23.876,127.37,-2.1601,0.72005,-0.98332,-2.8802,-1.0676e-11,-0.49166,0,0,0.16667,-0,-0,0.66667
0.50602,0.12309,3.0361,-0.56537,-20.046,63.335,4.5774,-1.5258,-0.86343,6.1032,-5.9064e-13,-0.43171,0,0,0.16667,7.8949e-16,0,0.66667
0.73927,0.39609,4.4356,-0.15586,-3.3056,20.141,1.8435,-0.61451,-1.9127,2.4581,-2.2777e-11,-0.95635,0,0,0.16667,7.8949e-16,0,0.66667
0.7223,0.39672,4.3338,-0.15492,-3.4701,22.56,1.7904,-0.5968,-1.9143,2.3872,-8.3062e-12,-0.95713,0,0,0.16667,-7.8949e-16,0,0.66667
0.46831,0.78613,2.8099,0.4292,15.915,71.735,-3.216,1.072,-1.3469,-4.288,4.1833e-13,-0.67345,0,0,0.16667,1.579e-15,0,0.66667
0.70619,0.12307,4.2372,-0.56539,-13.462,25.525,6.3884,-2.1295,-0.86426,8.5179,4.0483e-12,-0.43213,0,0,0.16667,-1.9737e-16,0,0.66667
0.55907,0.17539,3.3544,-0.48691,-15.902,51.865,4.3555,-1.4518,-1.1565,5.8073,1.4744e-13,-0.57825,0,0,0.16667,-0,-0,0.66667
0.078411,0.80388,0.47046,0.45581,21.577,177.34,-0.57185,0.19062,-1.2628,-0.76247,-1.8738e-08,-0.6314,0,0,0.16667,-0,-0,0.66667
0.9528,0.75248,5.7168,0.37871,1.5108,1.397,-5.7734,1.9245,-1.4924,-7.6979,-4.4578e-08,-0.7462,0,0,0.16667,-0,-0,0.66667
0.97565,0.51169,5.8539,0.017535,0.030258,0.37705,-0.27374,0.091243,-1.9975,-0.36498,-3.4672e-06,-0.99875,0,0,0.16667,-0,-0,0.66667
0.16201,0.17765,0.97208,-0.48352,-22.435,152.97,1.2534,-0.4178,-1.1676,1.6712,1.3559e-09,-0.58381,0,0,0.16667,1.9737e-16,0,0.66667
0.41783,0.48323,2.507,-0.025161,-0.98222,83.618,0.16821,-0.056069,-1.9969,0.22428,1.2727e-13,-0.99845,0,0,0.16667,7.8949e-16,0,0.66667
0.61959,0.84469,3.7175,0.51704,15.132,40.067,-5.1257,1.7086,-1.0497,-6.8342,-1.6231e-12,-0.52486,0,0,0.16667,-0,-0,0.66667
0.56812,0.55051,3.4087,0.075765,2.4192,49.664,-0.6887,0.22957,-1.9784,-0.91827,-4.9366e-13,-0.98918,0,0,0.16667,-0,-0,0.66667
0.37473,0.2973,2.2484,-0.30405,-12.397,94.536,1.823,-0.60767,-1.6725,2.4307,-1.6046e-12,-0.83624,0,0,0.16667,-1.2333e-15,0,0.66667
0.90355,0.70891,5.4213,0.31336,2.6105,3.6492,-4.5302,1.5101,-1.6508,-6.0402,6.1533e-09,-0.82541,0,0,0.16667,-0,-0,0.66667
0.67718,0.81142,4.0631,0.46713,11.973,29.922,-5.0613,1.6871,-1.2244,-6.7484,-5.1119e-12,-0.61219,0,0,0.16667,2.9606e-16,0,0.66667
0.11263,0.37792,0.67578,-0.18312,-8.5776,167.25,0.32999,-0.11,-1.8814,0.43998,2.8663e-09,-0.94068,0,0,0.16667,-0,-0,0.66667
0.66956,0.74831,4.0174,0.37246,9.6994,31.039,-3.9902,1.3301,-1.508,-5.3202,-5.3126e-12,-0.75401,0,0,0.16667,8.8818e-16,0,0.66667
0.21799,0.38985,1.3079,-0.16522,-7.4622,136.88,0.57628,-0.19209,-1.9038,0.76837,1.7855e-10,-0.95189,0,0,0.16667,-0,-0,0.66667
0.086095,0.94362,0.51657,0.66542,31.621,175.14,-0.91663,0.30554,-0.42473,-1.2222,-1.3191e-07,-0.21236,0,0,0.16667,-1.9737e-16,0,0.66667
0.35993,0.23136,2.1596,-0.40295,-16.669,98.412,2.3206,-0.77352,-1.4237,3.0941,-2.8417e-12,-0.71186,0,0,0.16667,-0,-0,0.66667
0.049607,0.068751,0.29764,-0.64687,-30.877,185.86,0.51343,-0.17114,-0.5125,0.68458,3.343e-07,-0.25625,0,0,0.16667,-0,-0,0.66667
0.14662,0.22325,0.8797,-0.41512,-19.329,157.4,0.97381,-0.3246,-1.3868,1.2984,2.2243e-09,-0.69339,0,0,0.16667,-0,-0,0.66667
0.45307,0.36716,2.7184,-0.19926,-7.493,75.142,1.4444,-0.48147,-1.8606,1.9259,-6.0518e-13,-0.9303,0,0,0.16667,-0,-0,0.66667
0.9832,0.067792,5.8992,-0.64831,-0.94107,1.3256,10.199,-3.3996,-0.50688,13.598,2.7818e-07,-0.25344,0,0,0.16667,-0,-1.1106e-16,0.66667
0.84187,0.3386,5.0512,-0.2421,-3.2581,8.2978,3.261,-1.087,-1.7925,4.348,-1.7306e-09,-0.89626,0,0,0.16667,-3.9475e-16,0,0.66667
0.013205,0.20892,0.07923,-0.43663,-20.786,196.59,0.09225,-0.03075,-1.3222,0.123,4.7476e-08,-0.66112,0,0,0.16667,-0,-0,0.66667
0.86889,0.16389,5.2134,-0.50417,-5.7684,6.4374,7.0091,-2.3364,-1.0953,9.3455,-6.4347e-09,-0.54763,0,0,0.16667,-0,-0,0.66667
0.28341,0.57191,1.7005,0.10787,4.7001,118.66,-0.48914,0.16305,-1.9589,-0.65218,-3.1214e-12,-0.97944,0,0,0.16667,-0,-0,0.66667
0.19764,0.32075,1.1858,-0.26888,-12.265,142.68,0.85025,-0.28342,-1.742,1.1337,4.9834e-10,-0.87102,0,0,0.16667,-0,-0,0.66667
0.30963,0.38352,1.8578,-0.17472,-7.4861,111.57,0.86558,-0.28853,-1.8914,1.1541,-2.7581e-12,-0.94572,0,0,0.16667,-0,-0,0.66667
0.52923,0.1359,3.1754,-0.54615,-18.723,58.233,4.6247,-1.5416,-0.93966,6.1662,-1.1235e-13,-0.46983,0,0,0.16667,-0,-0,0.66667
0.48269,0.68024,2.8961,0.27037,9.8168,68.274,-2.088,0.69601,-1.7408,-2.784,-5.0759e-13,-0.87042,0,0,0.16667,-0,-0,0.66667
0.62987,0.90466,3.7792,0.60699,17.454,38.352,-6.1172,2.0391,-0.69025,-8.1563,-7.7005e-13,-0.34512,0,0,0.16667,-3.9475e-16,0,0.66667
0.16677,0.89205,1.0006,0.58808,27.311,151.65,-1.5692,0.52307,-0.76917,-2.0923,-1.3428e-09,-0.38458,0,0,0.16667,1.9737e-16,0,0.66667
0.3743,0.98364,2.2458,0.72546,29.916,95.081,-4.3446,1.4482,-0.12962,-5.7928,9.4014e-13,-0.064811,0,0,0.16667,-7.8949e-16,-1.9694e-16,0.66667
0.58249,0.14137,3.4949,-0.53794,-16.908,47.215,5.0135,-1.6712,-0.97012,6.6847,7.7316e-13,-0.48506,0,0,0.16667,-0,-0,0.66667
0.81078,0.18814,4.8647,-0.4678,-7.5269,11.743,6.0685,-2.0228,-1.2237,8.0913,-5.91e-10,-0.61187,0,0,0.16667,-0,-0,0.66667
0.36845,0.57641,2.2107,0.11461,4.6894,96.07,-0.67567,0.22522,-1.9518,-0.90089,1.1877e-12,-0.97592,0,0,0.16667,-0,-0,0.66667
0.83938,0.49715,5.0363,-0.0042777,-0.058163,8.3973,0.057449,-0.01915,-2.0001,0.076599,-1.3791e-10,-1.0001,0,0,0.16667,1.7764e-15,0,0.66667
0.41681,0.062978,2.5009,-0.65553,-25.909,84.345,4.3717,-1.4572,-0.47251,5.829,-7.4607e-13,-0.23626,0,0,0.16667,-0,-0,0.66667
0.94249,0.79262,5.6549,0.43893,2.1854,1.9074,-6.619,2.2063,-1.3139,-8.8254,9.0825e-10,-0.65697,0,0,0.16667,-0,-0,0.66667
0.29636,0.61458,1.7782,0.17187,7.4302,115.15,-0.81497,0.27166,-1.8962,-1.0866,-5.3946e-13,-0.94809,0,0,0.16667,-0,-0,0.66667
0.3686,0.15679,2.2116,-0.51481,-21.195,96.278,3.0362,-1.0121,-1.0578,4.0482,-1.9387e-12,-0.5289,0,0,0.16667,1.579e-15,0,0.66667
0.65273,0.37856,3.9164,-0.18216,-4.9184,33.721,1.9024,-0.63415,-1.8824,2.5366,2.7408e-12,-0.94119,0,0,0.16667,-0,-0,0.66667
0.58342,0.50998,3.5005,0.014963,0.46503,46.581,-0.13968,0.046558,-1.9982,-0.18623,-5.5696e-13,-0.99909,0,0,0.16667,-0,-0,0.66667
0.35417,0.54389,2.125,0.065832,2.7255,99.758,-0.37305,0.12435,-1.9834,-0.4974,3.7109e-13,-0.99172,0,0,0.16667,-0,-0,0.66667
0.48431,0.090671,2.9058,-0.61399,-22.441,68.295,4.7578,-1.5859,-0.66203,6.3437,-9.8987e-13,-0.33102,0,0,0.16667,9.8686e-16,0,0.66667
0.66432,0.93303,3.9859,0.64955,17.324,32.421,-6.9041,2.3014,-0.49919,-9.2055,-4.8095e-13,-0.2496,0,0,0.16667,-0,-0,0.66667
0.05634,0.4518,0.33804,-0.072304,-3.4178,183.81,0.065178,-0.021726,-1.98,0.086904,9.4548e-08,-0.99,0,0,0.16667,-9.8686e-17,0,0.66667
0.6064,0.11304,3.6384,-0.58043,-17.48,42.653,5.6316,-1.8772,-0.80179,7.5088,-7.3275e-14,-0.4009,0,0,0.16667,7.8949e-16,0,0.66667
0.74678,0.32404,4.4807,-0.26394,-5.4689,19.199,3.1537,-1.0512,-1.7519,4.205,-4.4754e-11,-0.87594,0,0,0.16667,-1.579e-15,0,0.66667
0.79397,0.52707,4.7638,0.040601,0.6967,13.14,-0.51577,0.17192,-1.9947,-0.68769,5.9618e-11,-0.99733,0,0,0.16667,9.4025e-16,0,0.66667
0.21378,0.15008,1.2827,-0.52488,-23.886,138.21,1.7954,-0.59845,-1.0199,2.3938,3.106e-11,-0.50997,0,0,0.16667,-1.9737e-16,0,0.66667
0.64111,0.51463,3.8466,0.02194,0.60748,35.71,-0.22505,0.075017,-1.9993,-0.30007,-5.2175e-13,-0.99966,0,0,0.16667,-0,-0,0.66667
0.73113,0.92557,4.3868,0.63836,14.159,22.033,-7.4676,2.4892,-0.55067,-9.9568,-7.4651e-13,-0.27533,0,0,0.16667,-7.8949e-16,0,0.66667
0.095062,0.31706,0.57037,-0.27441,-12.914,172.42,0.41738,-0.13913,-1.7336,0.55651,2.8967e-09,-0.8668,0,0,0.16667,-0,-0,0.66667
0.070073,0.1833,0.42044,-0.47505,-22.525,179.8,0.53261,-0.17754,-1.197,0.71015,2.4192e-08,-0.59849,0,0,0.16667,-0,-0,0.66667
0.88595,0.6207,5.3157,0.18105,1.7697,4.6502,-2.5665,0.85549,-1.8833,-3.422,1.8825e-09,-0.94164,0,0,0.16667,3.9475e-16,0,0.66667
0.36132,0.91635,2.1679,0.62453,25.952,98.272,-3.6105,1.2035,-0.61352,-4.814,7.1099e-13,-0.30676,0,0,0.16667,-0,-0,0.66667
0.70343,0.4219,4.2206,-0.11715,-2.7741,25.373,1.3185,-0.43951,-1.9524,1.758,1.5654e-13,-0.97618,0,0,0.16667,-1.579e-15,0,0.66667
0.56015,0.76839,3.3609,0.40258,13.094,51.531,-3.6081,1.2027,-1.4237,-4.8108,-4.4209e-13,-0.71184,0,0,0.16667,-7.8949e-16,0,0.66667
0.33775,0.58366,2.0265,0.12549,5.2654,104.07,-0.67816,0.22605,-1.9428,-0.90421,2.3527e-12,-0.97142,0,0,0.16667,-0,-0,0.66667
0.34565,0.51714,2.0739,0.025704,1.0714,101.98,-0.14215,0.047385,-1.9978,-0.18954,2.3709e-13,-0.9989,0,0,0.16667,-0,-0,0.66667
0.90546,0.4408,5.4328,-0.088801,-0.71675,3.3154,1.2865,-0.42883,-1.9738,1.7153,2.334e-08,-0.98692,0,0,0.16667,-0,-0,0.66667
0.45348,0.48383,2.7209,-0.024261,-0.91089,74.996,0.17603,-0.058676,-1.999,0.2347,-5.1945e-14,-0.99952,0,0,0.16667,-0,-0,0.66667
0.48253,0.11957,2.8952,-0.57064,-20.873,68.634,4.4056,-1.4685,-0.84309,5.8742,-1.076e-12,-0.42154,0,0,0.16667,-0,-2.4808e-16,0.66667
0.97915,0.53962,5.8749,0.059437,0.083288,0.31086,-0.93116,0.31039,-1.9866,-1.2415,5.1631e-07,-0.99329,0,0,0.16667,-0,-0,0.66667
0.41169,0.62297,2.4701,0.18445,7.2519,85.17,-1.215,0.40499,-1.8791,-1.62,6.9533e-13,-0.93953,0,0,0.16667,-0,-0,0.66667
0.36945,0.28011,2.2167,-0.32984,-13.516,95.907,1.9497,-0.64991,-1.6133,2.5996,-2.6507e-12,-0.80667,0,0,0.16667,3.9475e-16,0,0.66667
0.079963,0.4915,0.47978,-0.012749,-0.60059,176.84,0.016311,-0.0054369,-1.9999,0.021748,7.4915e-08,-0.99997,0,0,0.16667,9.8686e-17,0,0.66667
0.38778,0.74477,2.3267,0.36715,14.81,91.26,-2.278,0.75933,-1.5211,-3.0373,2.631e-12,-0.76055,0,0,0.16667,-1.9737e-16,0,0.66667
0.17793,0.79104,1.0676,0.43657,20.123,148.37,-1.2429,0.41429,-1.3212,-1.6571,-8.6294e-10,-0.66059,0,0,0.16667,-0,-0,0.66667
0.13134,0.73756,0.78805,0.35634,16.648,161.82,-0.74883,0.24961,-1.5472,-0.99844,-3.9146e-09,-0.77358,0,0,0.16667,-1.9737e-16,0,0.66667
0.36767,0.8591,2.206,0.53865,22.208,96.541,-3.1687,1.0562,-0.96686,-4.225,1.7104e-12,-0.48343,0,0,0.16667,-7.8949e-16,0,0.66667
0.15881,0.21267,0.95286,-0.431,-19.998,153.88,1.0952,-0.36505,-1.3399,1.4602,1.5817e-09,-0.66997,0,0,0.16667,-9.8686e-17,0,0.66667
0.30756,0.79601,1.8454,0.44401,19.128,112.26,-2.185,0.72833,-1.2979,-2.9133,4.2863e-12,-0.64894,0,0,0.16667,-0,-0,0.66667
0.68798,0.24931,4.1279,-0.37603,-9.3423,28.034,4.1393,-1.3798,-1.4998,5.519,4.6443e-12,-0.74992,0,0,0.16667,1.0856e-15,0,0.66667
0.83844,0.54326,5.0306,0.064885,0.88749,8.4951,-0.87044,0.29015,-1.9839,-1.1606,2.4676e-10,-0.99194,0,0,0.16667,-0,-0,0.66667
0.30482,0.83603,1.8289,0.50405,21.785,113.05,-2.4583,0.81944,-1.0956,-3.2777,4.8448e-12,-0.54778,0,0,0.16667,1.9737e-16,0,0.66667
0.3531,0.206,2.1186,-0.441,-18.361,100.22,2.4915,-0.83049,-1.3071,3.322,-3.3304e-12,-0.65357,0,0,0.16667,-2.3406e-17,0,0.66667
0.73064,0.65868,4.3838,0.23802,5.2011,21.419,-2.7825,0.92752,-1.799,-3.7101,1.6882e-11,-0.89952,0,0,0.16667,-0,-0,0.66667
0.77783,0.81568,4.667,0.47352,8.8113,15.516,-5.8931,1.9644,-1.2032,-7.8575,1.2403e-10,-0.60161,0,0,0.16667,-3.158e-15,0,0.66667
0.17703,0.72441,1.0622,0.33662,15.494,148.6,-0.95347,0.31782,-1.5966,-1.2713,-1.0498e-09,-0.7983,0,0,0.16667,3.9475e-16,0,0.66667
0.40176,0.086231,2.4105,-0.62065,-24.869,88.017,3.9896,-1.3299,-0.62981,5.3195,-4.9893e-13,-0.3149,0,0,0.16667,-3.9475e-16,0,0.66667
0.0029414,0.092431,0.017649,-0.61135,-29.225,199.63,0.02877,-0.0095897,-0.67213,0.038359,2.37e-07,-0.33606,0,0,0.16667,-1.9275e-18,0,0.66667
0.4006,0.34493,2.4036,-0.2326,-9.2505,87.952,1.4909,-0.49696,-1.8078,1.9878,-1.5266e-12,-0.90389,0,0,0.16667,-0,-0,0.66667
0.8932,0.77894,5.3592,0.4184,3.8925,4.4926,-5.9795,1.9932,-1.3786,-7.9727,1.1677e-08,-0.68928,0,0,0.16667,7.8949e-16,0,0.66667
0.057463,0.40294,0.34478,-0.14558,-6.8832,183.48,0.13385,-0.044617,-1.9245,0.17847,8.352e-08,-0.96226,0,0,0.16667,-0,-0,0.66667
0.38963,0.068362,2.3378,-0.64746,-26.264,91.089,4.0363,-1.3454,-0.51086,5.3817,-4.734e-13,-0.25543,0,0,0.16667,-7.8949e-16,0,0.66667
0.26534,0.7912,1.5921,0.4368,19.322,123.75,-1.8545,0.61815,-1.323,-2.4726,-1.317e-11,-0.6615,0,0,0.16667,-0,-0,0.66667
0.036777,0.4591,0.22066,-0.061354,-2.9054,189.6,0.036102,-0.012034,-1.9856,0.048136,-3.2777e-07,-0.99278,0,0,0.16667,-0,-0,0.66667
0.4005,0.90449,2.403,0.60674,24.33,88.311,-3.888,1.296,-0.69109,-5.184,1.0125e-12,-0.34555,0,0,0.16667,8.8818e-16,0,0.66667
0.23781,0.74657,1.4269,0.36985,16.586,131.37,-1.4073,0.46909,-1.514,-1.8764,-8.8854e-11,-0.75702,0,0,0.16667,3.9475e-16,0,0.66667
0.83097,0.80227,4.9858,0.45341,6.5678,9.6572,-6.0283,2.0094,-1.2689,-8.0377,7.4085e-10,-0.63445,0,0,0.16667,-0,-0,0.66667
0.64363,0.54294,3.8618,0.064415,1.7738,35.268,-0.66334,0.22111,-1.9849,-0.88446,-1.108e-12,-0.99246,0,0,0.16667,-1.579e-15,0,0.66667
0.47657,0.7714,2.8594,0.40711,14.935,69.799,-3.1042,1.0347,-1.4094,-4.139,3.8169e-13,-0.7047,0,0,0.16667,-3.9475e-16,0,0.66667
0.70881,0.93015,4.2528,0.64523,15.313,25.312,-7.3175,2.4392,-0.5189,-9.7566,-1.7901e-12,-0.25945,0,0,0.16667,3.9475e-16,0,0.66667
0.099384,0.78849,0.5963,0.43273,20.397,171.18,-0.6881,0.22937,-1.3334,-0.91747,-1.1328e-08,-0.66669,0,0,0.16667,-1.9737e-16,0,0.66667
0.75698,0.54939,4.5419,0.074088,1.4757,17.708,-0.89733,0.29911,-1.979,-1.1964,3.0333e-11,-0.98951,0,0,0.16667,-0,-0,0.66667
0.29859,0.16286,1.7916,-0.50571,-21.949,114.73,2.416,-0.80534,-1.0915,3.2214,-4.8481e-12,-0.54574,0,0,0.16667,7.8949e-16,0,0.66667
0.50277,0.54955,3.0166,0.074328,2.623,63.636,-0.59792,0.19931,-1.9801,-0.79723,-4.1411e-13,-0.99004,0,0,0.16667,-7.8949e-16,0,0.66667
0.094178,0.89047,0.56507,0.58571,27.732,172.74,-0.88258,0.29419,-0.78131,-1.1768,-1.0084e-08,-0.39065,0,0,0.16667,-0,-0,0.66667
0.81456,0.35541,4.8873,-0.21688,-3.3872,10.97,2.8266,-0.94221,-1.8329,3.7688,-7.0266e-10,-0.91645,0,0,0.16667,-0,-0,0.66667
0.51047,0.15369,3.0628,-0.51947,-18.28,62.283,4.2427,-1.4142,-1.0405,5.657,-4.4853e-14,-0.52026,0,0,0.16667,-0,-0,0.66667
0.44197,0.071251,2.6518,-0.64312,-24.741,78.231,4.5479,-1.516,-0.52872,6.0638,-8.9573e-13,-0.26436,0,0,0.16667,-7.8949e-16,0,0.66667
0.13489,0.0659,0.80935,-0.65115,-30.593,160.89,1.4054,-0.46845,-0.49216,1.8738,-2.0838e-08,-0.24608,0,0,0.16667,-3.9475e-16,0,0.66667
0.63488,0.46804,3.8093,-0.047942,-1.3458,36.829,0.48699,-0.16233,-1.992,0.64932,7.6372e-13,-0.99602,0,0,0.16667,7.8949e-16,0,0.66667
0.35231,0.22836,2.1139,-0.40745,-16.963,100.39,2.2968,-0.7656,-1.4084,3.0624,-4.0781e-12,-0.70422,0,0,0.16667,-0,-0,0.66667
0.68271,0.11074,4.0963,-0.5839,-14.83,29.245,6.3781,-2.126,-0.78669,8.5041,3.0145e-12,-0.39334,0,0,0.16667,-8.0849e-16,0,0.66667
0.76246,0.28724,4.5747,-0.31915,-6.261,17.19,3.8934,-1.2978,-1.638,5.1912,-9.6476e-11,-0.819,0,0,0.16667,1.579e-15,0,0.66667
0.0067478,0.4084,0.040487,-0.1374,-6.5175,198.5,0.014835,-0.0049448,-1.9327,0.01978,1.5374e-07,-0.96633,0,0,0.16667,-0,-0,0.66667
0.25906,0.70363,1.5544,0.30544,13.529,125.42,-1.266,0.42201,-1.6668,-1.6881,-3.3336e-11,-0.83341,0,0,0.16667,-0,-0,0.66667
0.67791,0.25964,4.0675,-0.36053,-9.1908,29.642,3.9106,-1.3035,-1.5367,5.2141,5.1685e-12,-0.76834,0,0,0.16667,-0,-0,0.66667
0.3361,0.91638,2.0166,0.62456,26.481,104.84,-3.3586,1.1195,-0.61172,-4.4782,1.7324e-12,-0.30586,0,0,0.16667,-7.8949e-16,0,0.66667
0.75013,0.95869,4.5008,0.68803,14.379,19.555,-8.2578,2.7526,-0.31835,-11.01,-4.1478e-12,-0.15917,0,0,0.16667,-0,-0,0.66667
0.55698,0.90543,3.3419,0.60815,20.014,52.493,-5.4196,1.8065,-0.68523,-7.2262,5.7598e-13,-0.34262,0,0,0.16667,-1.0362e-15,0,0.66667
0.85824,0.25463,5.1494,-0.36806,-4.4909,7.0291,5.0541,-1.6847,-1.5198,6.7388,-3.1112e-09,-0.75989,0,0,0.16667,-3.158e-15,0,0.66667
0.57058,0.99432,3.4235,0.74148,23.994,49.992,-6.7692,2.2564,-0.044326,-9.0256,4.5342e-13,-0.022163,0,0,0.16667,-3.9475e-16,0,0.66667
0.8894,0.98808,5.3364,0.73211,7.3234,5.6044,-10.418,3.4728,-0.094884,-13.891,1.56e-08,-0.047442,0,0,0.16667,-0,-0,0.66667
0.22748,0.53957,1.3649,0.05935,2.667,134.18,-0.21601,0.072004,-1.9863,-0.28802,-3.9983e-11,-0.99317,0,0,0.16667,-0,-0,0.66667
0.79398,0.89735,4.7639,0.59602,10.446,13.888,-7.5717,2.5239,-0.73685,-10.096,9.6206e-11,-0.36842,0,0,0.16667,-0,-1.0094e-16,0.66667
0.033947,0.88993,0.20368,0.58489,27.909,190.47,-0.31768,0.10589,-0.78336,-0.42358,-1.4637e-08,-0.39168,0,0,0.16667,-4.9343e-17,0,0.66667
0.077267,0.75948,0.4636,0.38922,18.405,177.67,-0.48118,0.16039,-1.4624,-0.64158,-9.9996e-09,-0.7312,0,0,0.16667,-1.9737e-16,0,0.66667
0.3959,0.79709,2.3754,0.44563,17.869,89.282,-2.8228,0.94094,-1.2927,-3.7638,1.3118e-12,-0.64634,0,0,0.16667,-0,-0,0.66667
0.18577,0.71553,1.1146,0.3233,14.829,146.09,-0.96094,0.32031,-1.6297,-1.2812,-7.7103e-10,-0.81483,0,0,0.16667,1.5368e-16,0,0.66667
0.94419,0.54458,5.6652,0.066873,0.30957,1.3659,-1.0103,0.33675,-1.9827,-1.347,1.7315e-07,-0.99133,0,0,0.16667,-0,-0,0.66667
0.77968,0.66242,4.6781,0.24363,4.4581,14.949,-3.0392,1.0131,-1.7899,-4.0523,2.1032e-10,-0.89496,0,0,0.16667,-0,-0,0.66667
0.74367,0.74282,4.462,0.36423,7.6519,19.749,-4.3338,1.4446,-1.5274,-5.7784,3.0157e-11,-0.76368,0,0,0.16667,-7.8949e-16,0,0.66667
0.492,0.27352,2.952,-0.33972,-12.202,66.207,2.6742,-0.89141,-1.5886,3.5656,-7.4007e-13,-0.79428,0,0,0.16667,7.8949e-16,0,0.66667
0.49005,0.14433,2.9403,-0.53351,-19.305,66.87,4.1831,-1.3944,-0.98675,5.5775,-7.1365e-13,-0.49337,0,0,0.16667,-0,-0,0.66667
0.58111,0.91334,3.4867,0.62002,19.596,47.635,-5.7648,1.9216,-0.63326,-7.6864,-2.3803e-13,-0.31663,0,0,0.16667,-0,-0,0.66667
0.59663,0.99058,3.5798,0.73588,22.733,44.85,-7.0247,2.3416,-0.074513,-9.3662,-3.3618e-13,-0.037256,0,0,0.16667,7.8949e-16,0,0.66667
0.89803,0.58576,5.3882,0.12864,1.1222,3.7994,-1.8483,0.6161,-1.94,-2.4644,-2.9653e-09,-0.97002,0,0,0.16667,-0,-0,0.66667
0.12083,0.91703,0.72501,0.62555,29.477,164.97,-1.2094,0.40313,-0.60794,-1.6125,2.3951e-09,-0.30397,0,0,0.16667,-0,-0,0.66667
0.50961,0.017617,3.0577,-0.72357,-25.682,62.817,5.8999,-1.9666,-0.13709,7.8665,-3.3529e-13,-0.068547,0,0,0.16667,-0,-0,0.66667
0.99552,0.23744,5.9731,-0.39384,-0.0025305,0.45562,6.2732,-2.0911,-1.4476,8.3643,-1.6206e-07,-0.72378,0,0,0.16667,-0,3.1881e-17,0.66667
0.48143,0.36443,2.8886,-0.20336,-7.3888,68.521,1.5664,-0.52214,-1.8527,2.0886,7.4385e-15,-0.92637,0,0,0.16667,3.9475e-16,0,0.66667
0.83781,0.050104,5.0269,-0.67484,-9.5803,9.5622,9.0463,-3.0154,-0.37945,12.062,8.5981e-10,-0.18972,0,0,0.16667,-7.8949e-16,0,0.66667
0.60366,0.62256,3.6219,0.18384,5.5079,42.688,-1.7756,0.59187,-1.8797,-2.3675,-1.7006e-12,-0.93986,0,0,0.16667,-3.9475e-16,0,0.66667
0.66437,0.83198,3.9862,0.49796,13.19,32.104,-5.2933,1.7644,-1.1169,-7.0578,-3.5327e-12,-0.55845,0,0,0.16667,-0,-0,0.66667
0.27246,0.90328,1.6348,0.60492,26.757,121.92,-2.6371,0.87902,-0.69855,-3.5161,1.0296e-12,-0.34928,0,0,0.16667,-9.8686e-17,0,0.66667
0.83093,0.65853,4.9856,0.23779,3.4084,9.3305,-3.1614,1.0538,-1.7999,-4.2152,9.3498e-10,-0.89993,0,0,0.16667,-0,-0,0.66667
0.24447,0.96022,1.4668,0.69033,31.094,129.73,-2.7002,0.90007,-0.30463,-3.6003,2.002e-12,-0.15231,0,0,0.16667,-3.9475e-16,0,0.66667
0.67336,0.97752,4.0402,0.71628,18.756,31.079,-7.717,2.5723,-0.1765,-10.289,1.803e-13,-0.088252,0,0,0.16667,-0,-0,0.66667
0.08813,0.96777,0.52878,0.70165,33.366,174.55,-0.98938,0.32979,-0.24975,-1.3192,5.1354e-07,-0.12487,0,0,0.16667,-2.4672e-17,0,0.66667
0.018852,0.0022623,0.11311,-0.74661,-35.82,194.94,0.22515,-0.075064,-0.01877,0.3002,-1.9878e-05,-0.0093852,0,0,0.16667,-0,-0,0.66667
0.47235,0.33858,2.8341,-0.24213,-8.9028,70.64,1.8299,-0.60998,-1.7916,2.4399,-4.3121e-13,-0.89581,0,0,0.16667,-5.9212e-16,0,0.66667
0.939,0.26801,5.634,-0.34798,-1.8165,1.8718,5.228,-1.7427,-1.5699,6.9707,1.22e-08,-0.78494,0,0,0.16667,1.579e-15,0,0.66667
0.32557,0.055699,1.9534,-0.66645,-28.517,107.67,3.4717,-1.1572,-0.4211,4.6289,-1.6787e-12,-0.21055,0,0,0.16667,-0,-0,0.66667
0.32215,0.1398,1.9329,-0.5403,-23.091,108.44,2.7849,-0.92831,-0.96068,3.7132,-3.5123e-12,-0.48034,0,0,0.16667,-0,-0,0.66667
0.052031,0.84613,0.31218,0.5192,24.696,185.12,-0.43223,0.14408,-1.0416,-0.5763,6.7722e-09,-0.52078,0,0,0.16667,-0,-0,0.66667
0.67529,0.72947,4.0517,0.34421,8.8292,30.053,-3.719,1.2397,-1.5783,-4.9587,-5.1816e-12,-0.78915,0,0,0.16667,-0,-0,0.66667
0.72174,0.55175,4.3304,0.077621,1.7402,22.608,-0.89636,0.29879,-1.9783,-1.1951,3.4325e-12,-0.98916,0,0,0.16667,7.8949e-16,0,0.66667
0.90372,0.87191,5.4223,0.55787,4.7628,4.1526,-8.0665,2.6888,-0.89433,-10.755,1.6264e-08,-0.44717,0,0,0.16667,-1.9737e-15,0,0.66667
0.43715,0.36262,2.6229,-0.20608,-7.8902,78.955,1.4414,-0.48046,-1.8502,1.9218,2.9032e-13,-0.9251,0,0,0.16667,-7.8949e-16,0,0.66667
0.10952,0.29585,0.6571,-0.30623,-14.374,168.18,0.53659,-0.17886,-1.6679,0.71546,5.4518e-09,-0.83393,0,0,0.16667,-1.9737e-16,0,0.66667
0.037607,0.80895,0.22564,0.46343,22.046,189.38,-0.27885,0.092951,-1.236,-0.3718,1.0612e-07,-0.61798,0,0,0.16667,-1.2336e-17,0,0.66667
0.88077,0.71417,5.2846,0.32125,3.3049,5.1873,-4.5272,1.5091,-1.6326,-6.0363,5.0301e-09,-0.81628,0,0,0.16667,-2.6797e-16,0,0.66667
0.65226,0.3708,3.9135,-0.1938,-5.2394,33.811,2.0226,-0.67419,-1.8665,2.6967,3.1561e-12,-0.93326,0,0,0.16667,-7.8949e-16,0,0.66667
0.9155,0.93726,5.493,0.65589,5.006,3.7671,-9.6075,3.2025,-0.47063,-12.81,2.1942e-07,-0.23532,0,0,0.16667,1.9737e-16,0,0.66667
0.8806,0.63529,5.2836,0.20293,2.0775,5.0542,-2.8592,0.95306,-1.8525,-3.8122,3.4448e-10,-0.92624,0,0,0.16667,-0,-0,0.66667
0.47024,0.13954,2.8214,-0.54068,-20.062,71.423,4.068,-1.356,-0.96095,5.424,-4.4809e-13,-0.48048,0,0,0.16667,-0,-0,0.66667
0.67034,0.30475,4.022,-0.29287,-7.596,30.815,3.1411,-1.047,-1.6958,4.1882,4.4744e-12,-0.84791,0,0,0.16667,7.8949e-16,0,0.66667
0.74507,0.65826,4.4704,0.23739,4.9446,19.406,-2.8299,0.94331,-1.7998,-3.7732,4.0365e-11,-0.89989,0,0,0.16667,-0,-0,0.66667
0.42221,0.73487,2.5333,0.35231,13.736,82.679,-2.38,0.79333,-1.5598,-3.1733,7.363e-13,-0.77991,0,0,0.16667,-0,-0,0.66667
0.15392,0.28192,0.92351,-0.32712,-15.175,155.26,0.8056,-0.26853,-1.621,1.0741,2.1827e-09,-0.81049,0,0,0.16667,3.9475e-16,0,0.66667
0.28408,0.90538,1.7045,0.60806,26.71,118.75,-2.7638,0.92128,-0.68653,-3.6851,1.17e-12,-0.34326,0,0,0.16667,5.9212e-16,0,0.66667
0.54848,0.071755,3.2909,-0.64237,-21.458,54.32,5.6372,-1.8791,-0.53344,7.5162,-8.0691e-13,-0.26672,0,0,0.16667,1.579e-15,0,0.66667
0.25574,0.98992,1.5344,0.73488,32.95,126.65,-3.0069,1.0023,-0.078728,-4.0093,5.1685e-12,-0.039364,0,0,0.16667,-3.9475e-16,0,0.66667
0.89173,0.19672,5.3504,-0.45493,-4.3046,4.6663,6.4908,-2.1636,-1.265,8.6544,-6.775e-09,-0.63252,0,0,0.16667,1.579e-15,0,0.66667
0.58075,0.82853,3.4845,0.4928,15.513,47.487,-4.5791,1.5264,-1.1363,-6.1055,-3.9968e-13,-0.56814,0,0,0.16667,-7.8949e-16,0,0.66667
0.71867,0.91353,4.312,0.62029,14.282,23.785,-7.1326,2.3775,-0.63377,-9.5101,-1.7031e-12,-0.31689,0,0,0.16667,-0,-0,0.66667
0.86203,0.93594,5.1722,0.6539,7.972,7.3857,-9.0189,3.0063,-0.4808,-12.025,-2.2397e-08,-0.2404,0,0,0.16667,-3.9475e-16,0,0.66667
0.89656,0.84404,5.3794,0.51605,4.7009,4.491,-7.4028,2.4676,-1.0534,-9.8704,3.0192e-08,-0.52669,0,0,0.16667,3.158e-15,0,0.66667
0.95761,0.90462,5.7457,0.60693,2.2953,1.8112,-9.2992,3.0997,-0.69064,-12.399,1.2528e-06,-0.34532,0,0,0.16667,5.9212e-16,0,0.66667
0.62751,0.83674,3.7651,0.50511,14.537,38.591,-5.0713,1.6904,-1.0932,-6.7618,-1.5463e-12,-0.54659,0,0,0.16667,-3.9475e-16,0,0.66667
0.99898,0.18864,5.9939,-0.46704,0.12111,0.59005,7.465,-2.4883,-1.2266,9.9534,-3.5309e-07,-0.61329,0,0,0.16667,-3.158e-15,0,0.66667
0.79051,0.61114,4.743,0.16672,2.9092,13.596,-2.1086,0.70288,-1.8998,-2.8115,2.5568e-10,-0.94988,0,0,0.16667,-1.579e-15,0,0.66667
0.27082,0.39733,1.6249,-0.15401,-6.7641,122.12,0.66735,-0.22245,-1.9148,0.8898,1.2044e-11,-0.95738,0,0,0.16667,1.9737e-16,0,0.66667
0.99055,0.66225,5.9433,0.24337,0.092704,0.2624,-3.8571,1.2857,-1.7886,-5.1428,4.0112e-08,-0.89432,0,0,0.16667,-0,-0,0.66667
0.80151,0.29131,4.809,-0.31303,-5.2221,12.493,4.0143,-1.3381,-1.6508,5.3524,-4.9668e-10,-0.82538,0,0,0.16667,-0,-0,0.66667
0.25311,0.42333,1.5187,-0.115,-5.1008,127.02,0.46573,-0.15524,-1.9525,0.62097,2.8481e-11,-0.97625,0,0,0.16667,-0,-0,0.66667
0.031897,0.73674,0.19138,0.35511,16.867,191.06,-0.18123,0.060411,-1.5526,-0.24164,5.779e-08,-0.7763,0,0,0.16667,-0,-0,0.66667
0.95281,0.73377,5.7169,0.35066,1.3912,1.3448,-5.3458,1.7819,-1.564,-7.1277,-3.8397e-08,-0.78198,0,0,0.16667,-0,-0,0.66667
0.55683,0.15503,3.341,-0.51746,-16.979,52.372,4.6102,-1.5367,-1.0481,6.1469,3.3129e-13,-0.52404,0,0,0.16667,-1.0031e-15,0,0.66667
0.55271,0.82495,3.3163,0.48743,16.085,53.181,-4.3105,1.4368,-1.154,-5.7473,-7.061e-14,-0.57699,0,0,0.16667,-7.8949e-16,0,0.66667
0.047378,0.51354,0.28427,0.02031,0.96085,186.46,-0.015396,0.0051315,-1.9996,-0.020528,-5.3857e-07,-0.99979,0,0,0.16667,-0,-0,0.66667
0.63904,0.34107,3.8342,-0.2384,-6.6451,36.175,2.4375,-0.81251,-1.7994,3.2501,3.4324e-12,-0.8997,0,0,0.16667,-1.1842e-15,0,0.66667
0.5001,0.19252,3.0006,-0.46123,-16.435,64.51,3.6906,-1.2302,-1.2457,4.9208,-4.0989e-13,-0.62286,0,0,0.16667,-0,-0,0.66667
0.80429,0.95777,4.8258,0.68665,11.573,12.986,-8.8363,2.9454,-0.32221,-11.782,-1.6996e-10,-0.16111,0,0,0.16667,-0,-0,0.66667
0.06955,0.88797,0.4173,0.58195,27.664,179.97,-0.64759,0.21586,-0.79438,-0.86346,-1.1376e-07,-0.39719,0,0,0.16667,-0,-0,0.66667
0.56293,0.6373,3.3776,0.20595,6.6419,50.78,-1.855,0.61832,-1.8503,-2.4733,-6.4715e-13,-0.92517,0,0,0.16667,-0,-0,0.66667
0.40868,0.27336,2.4521,-0.33996,-13.435,86.005,2.2229,-0.74098,-1.5893,2.9639,-1.2994e-12,-0.79467,0,0,0.16667,-3.9475e-16,0,0.66667
0.55177,0.25238,3.3106,-0.37143,-12.237,53.23,3.2791,-1.093,-1.5096,4.3721,6.6613e-13,-0.75479,0,0,0.16667,-0,-0,0.66667
0.35846,0.49466,2.1508,-0.0080068,-0.33027,98.637,0.045923,-0.015308,-2.0013,0.06123,9.5012e-13,-1.0006,0,0,0.16667,-5.9212e-16,0,0.66667
0.99938,0.97886,5.9963,0.7183,0.0083718,1.3804,-11.486,3.8285,-0.16661,-15.314,-4.1552e-05,-0.083307,0,0,0.16667,-0,-5.1848e-16,0.66667
0.45032,0.75416,2.7019,0.38124,14.424,75.92,-2.7469,0.91564,-1.4838,-3.6626,2.8688e-13,-0.7419,0,0,0.16667,-0,-0,0.66667
0.34582,0.069376,2.0749,-0.64594,-27.2,102.32,3.5741,-1.1914,-0.51707,4.7654,-2.7489e-13,-0.25854,0,0,0.16667,-0,-0,0.66667
0.18973,0.48952,1.1384,-0.015713,-0.71789,144.9,0.047697,-0.015899,-1.9993,0.063596,-1.0719e-12,-0.99963,0,0,0.16667,1.9737e-16,0,0.66667
0.92353,0.31245,5.5412,-0.28132,-1.8453,2.4862,4.1569,-1.3856,-1.7206,5.5425,-1.207e-09,-0.86029,0,0,0.16667,-1.727e-15,0,0.66667
0.10429,0.64551,0.62576,0.21826,10.246,169.7,-0.36422,0.12141,-1.8296,-0.48562,-3.1474e-09,-0.9148,0,0,0.16667,-0,-0,0.66667
0.44034,0.14551,2.6421,-0.53174,-20.42,78.467,3.7464,-1.2488,-0.99448,4.9952,-9.1127e-13,-0.49724,0,0,0.16667,3.9475e-16,0,0.66667
0.6862,0.70325,4.1172,0.30488,7.5949,28.23,-3.3473,1.1158,-1.67,-4.4631,-4.9658e-12,-0.835,0,0,0.16667,-0,-0,0.66667
0.14241,0.89648,0.85443,0.59472,27.839,158.69,-1.3551,0.45169,-0.74285,-1.8068,-2.872e-09,-0.37142,0,0,0.16667,-0,-0,0.66667
0.9315,0.088475,5.589,-0.61729,-3.8043,2.8495,9.2,-3.0667,-0.64454,12.267,-1.0599e-07,-0.32227,0,0,0.16667,1.9737e-15,0,0.66667
0.058875,0.82102,0.35325,0.48153,22.868,183.1,-0.4536,0.1512,-1.1752,-0.60481,-2.0268e-08,-0.5876,0,0,0.16667,-0,-0,0.66667
0.2181,0.50082,1.3086,0.0012249,0.055282,136.83,-0.0042743,0.0014248,-2.0024,-0.0056991,6.9771e-11,-1.0012,0,0,0.16667,-0,-0,0.66667
0.077195,0.8302,0.46317,0.49529,23.469,177.71,-0.61175,0.20392,-1.1285,-0.81566,-3.7797e-08,-0.56426,0,0,0.16667,-1.901e-16,0,0.66667
0.41151,0.27601,2.4691,-0.33598,-13.239,85.3,2.2122,-0.73739,-1.5982,2.9496,-1.8308e-12,-0.79908,0,0,0.16667,9.8686e-16,0,0.66667
0.59726,0.83998,3.5836,0.50996,15.586,44.28,-4.8733,1.6244,-1.0757,-6.4977,-9.5168e-13,-0.53783,0,0,0.16667,-9.8686e-16,0,0.66667
0.73114,0.79938,4.3869,0.44908,9.8646,21.631,-5.2534,1.7511,-1.2825,-7.0045,7.7258e-12,-0.64123,0,0,0.16667,-8.6585e-16,0,0.66667
0.87843,0.5875,5.2706,0.13125,1.3644,5.1574,-1.8447,0.61489,-1.9387,-2.4596,6.0431e-09,-0.96937,0,0,0.16667,7.8949e-16,0,0.66667
0.35325,0.77228,2.1195,0.40841,16.99,100.15,-2.3083,0.76945,-1.4058,-3.0778,3.6573e-12,-0.70291,0,0,0.16667,-3.9475e-16,0,0.66667
0.70246,0.63224,4.2148,0.19836,4.7154,25.57,-2.2295,0.74316,-1.8615,-2.9726,-8.3755e-13,-0.93075,0,0,0.16667,-0,-0,0.66667
0.048616,0.39034,0.2917,-0.16448,-7.7852,186.1,0.12795,-0.042648,-1.904,0.17059,2.7711e-10,-0.95201,0,0,0.16667,-0,-0,0.66667
0.81926,0.70255,4.9156,0.30382,4.647,10.579,-3.9825,1.3275,-1.6703,-5.31,8.6e-10,-0.83516,0,0,0.16667,-1.579e-15,0,0.66667
0.31828,0.8403,1.9097,0.51045,21.86,109.45,-2.5994,0.86648,-1.0732,-3.4659,3.3147e-12,-0.53662,0,0,0.16667,-3.9475e-16,0,0.66667
0.22164,0.81954,1.3299,0.47931,21.711,135.96,-1.6998,0.56659,-1.1833,-2.2664,-1.2952e-10,-0.59164,0,0,0.16667,-0,-0,0.66667
0.36104,0.19907,2.1662,-0.45139,-18.675,98.167,2.6075,-0.86916,-1.2759,3.4767,-2.5695e-12,-0.63796,0,0,0.16667,-0,-0,0.66667
0.11407,0.92768,0.68442,0.64152,30.292,166.95,-1.1708,0.39028,-0.53588,-1.5611,-1.5088e-08,-0.26794,0,0,0.16667,9.8686e-17,0,0.66667
0.29371,0.39314,1.7622,-0.16029,-6.9409,115.87,0.75323,-0.25108,-1.9082,1.0043,-6.608e-13,-0.95409,0,0,0.16667,3.9475e-16,0,0.66667
0.008789,0.091676,0.052734,-0.61249,-29.278,197.9,0.086129,-0.028708,-0.66596,0.11484,2.3024e-06,-0.33298,0,0,0.16667,-1.2336e-17,0,0.66667
0.25326,0.0082937,1.5196,-0.73756,-33.118,127.33,2.9888,-0.99625,-0.065623,3.985,6.668e-13,-0.032811,0,0,0.16667,-0,-0,0.66667
0.83771,0.76864,5.0263,0.40297,5.6014,8.917,-5.4011,1.8004,-1.4213,-7.2015,1.7341e-09,-0.71066,0,0,0.16667,-0,-0,0.66667
0.80776,0.26752,4.8465,-0.34872,-5.6578,11.858,4.5069,-1.5023,-1.5665,6.0092,-5.7751e-10,-0.78327,0,0,0.16667,-1.579e-15,0,0.66667
0.38257,0.11092,2.2954,-0.58361,-23.779,92.791,3.5723,-1.1908,-0.78744,4.7631,-9.8632e-13,-0.39372,0,0,0.16667,-7.8949e-16,0,0.66667
0.43068,0.60817,2.5841,0.16226,6.2537,80.503,-1.1181,0.37271,-1.9049,-1.4908,9.106e-13,-0.95245,0,0,0.16667,-0,-0,0.66667
0.18259,0.62822,1.0955,0.19233,8.8193,146.97,-0.56187,0.18729,-1.8684,-0.74917,-4.7735e-10,-0.93421,0,0,0.16667,-3.9475e-16,0,0.66667
0.31687,0.04861,1.9012,-0.67708,-29.164,109.99,3.4328,-1.1443,-0.36902,4.5771,-2.6812e-12,-0.18451,0,0,0.16667,3.9475e-16,0,0.66667
0.41737,0.18496,2.5042,-0.47255,-18.565,83.978,3.1557,-1.0519,-1.2062,4.2076,-8.7974e-13,-0.6031,0,0,0.16667,-9.8686e-17,0,0.66667
0.066468,0.93124,0.39881,0.64686,30.816,180.89,-0.68793,0.22931,-0.51203,-0.91724,1.0738e-07,-0.25601,0,0,0.16667,-0,-0,0.66667
0.33789,0.11261,2.0273,-0.58109,-24.572,104.32,3.1415,-1.0472,-0.79813,4.1886,-2.448e-12,-0.39907,0,0,0.16667,-3.9475e-16,0,0.66667
0.49567,0.024039,2.974,-0.71394,-25.81,65.898,5.6621,-1.8874,-0.18722,7.5494,-1.088e-12,-0.09361,0,0,0.16667,-0,-2.5693e-16,0.66667
0.0067213,0.86003,0.040328,0.54005,25.77,198.51,-0.058077,0.019359,-0.96152,-0.077437,-2.7422e-07,-0.48076,0,0,0.16667,-0,-0,0.66667
0.43808,0.21982,2.6285,-0.42026,-16.133,78.888,2.9457,-0.9819,-1.3745,3.9276,-5.8575e-13,-0.68723,0,0,0.16667,-0,-0,0.66667
0.21869,0.84929,1.3121,0.52393,23.79,136.82,-1.8333,0.61109,-1.026,-2.4443,-2.6223e-11,-0.51301,0,0,0.16667,-0,-0,0.66667
0.2134,0.64424,1.2804,0.21636,9.7966,138.19,-0.73873,0.24624,-1.8324,-0.98498,-2.5491e-10,-0.9162,0,0,0.16667,1.9737e-16,0,0.66667
0.24924,0.77146,1.4954,0.40719,18.164,128.2,-1.6238,0.54127,-1.4116,-2.1651,-3.7288e-11,-0.70578,0,0,0.16667,-3.9475e-16,0,0.66667
0.12833,0.62819,0.76995,0.19229,8.9732,162.67,-0.39481,0.1316,-1.869,-0.52642,-2.5385e-09,-0.93452,0,0,0.16667,3.9475e-16,0,0.66667
0.94481,0.17354,5.6689,-0.48969,-2.3588,1.9342,7.4026,-2.4675,-1.1459,9.8701,8.063e-09,-0.57294,0,0,0.16667,1.579e-15,0,0.66667
0.16907,0.18691,1.0144,-0.46964,-21.732,150.93,1.2705,-0.42349,-1.217,1.694,2.9689e-10,-0.60851,0,0,0.16667,8.6351e-17,0,0.66667
0.56761,0.46806,3.4057,-0.047908,-1.5309,49.762,0.43509,-0.14503,-1.9922,0.58012,8.8374e-14,-0.9961,0,0,0.16667,8.3884e-16,0,0.66667
0.17151,0.68881,1.029,0.28322,13.053,150.17,-0.77719,0.25906,-1.7173,-1.0363,-1.3139e-09,-0.85867,0,0,0.16667,-3.9475e-16,0,0.66667
0.26092,0.90297,1.5655,0.60446,26.915,125.1,-2.5234,0.84115,-0.70088,-3.3646,-3.0298e-12,-0.35044,0,0,0.16667,-3.9475e-16,0,0.66667
0.67678,0.24808,4.0607,-0.37788,-9.666,29.852,4.0918,-1.3639,-1.4925,5.4558,4.9396e-12,-0.74623,0,0,0.16667,2.9606e-16,0,0.66667
0.50327,0.022845,3.0196,-0.71573,-25.616,64.206,5.7633,-1.9211,-0.1784,7.6843,-8.2645e-13,-0.089199,0,0,0.16667,-7.8949e-16,0,0.66667
0.15729,0.96524,0.94373,0.69785,32.614,154.44,-1.7562,0.58541,-0.27013,-2.3416,-8.6829e-10,-0.13507,0,0,0.16667,2.4672e-16,0,0.66667
0.082507,0.62724,0.49504,0.19085,8.9945,176.1,-0.25195,0.083982,-1.8708,-0.33593,7.2357e-09,-0.93538,0,0,0.16667,1.9737e-16,0,0.66667
0.88189,0.79276,5.2914,0.43914,4.5167,5.3166,-6.1964,2.0655,-1.3129,-8.2619,6.9977e-09,-0.65647,0,0,0.16667,-0,-0,0.66667
0.24189,0.88857,1.4513,0.58285,26.205,130.36,-2.2558,0.75192,-0.79062,-3.0077,-2.1823e-11,-0.39531,0,0,0.16667,3.9475e-16,0,0.66667
0.95897,0.63286,5.7538,0.19929,0.66076,0.9284,-3.0578,1.0193,-1.8578,-4.0771,2.5179e-08,-0.92892,0,0,0.16667,-0,-0,0.66667
0.89236,0.43385,5.3542,-0.099221,-0.9132,4.1552,1.4167,-0.47222,-1.9662,1.8889,-1.9006e-08,-0.98311,0,0,0.16667,-1.9737e-15,0,0.66667
0.15998,0.77837,0.95987,0.41755,19.361,153.53,-1.0688,0.35626,-1.3805,-1.425,-1.766e-09,-0.69024,0,0,0.16667,-1.9737e-16,0,0.66667
0.50371,0.66382,3.0222,0.24572,8.6742,63.501,-1.9804,0.66012,-1.785,-2.6405,-7.8471e-13,-0.89252,0,0,0.16667,1.579e-15,0,0.66667
0.11892,0.74561,0.71352,0.36841,17.271,165.44,-0.70098,0.23366,-1.5169,-0.93464,-6.4411e-09,-0.75845,0,0,0.16667,-2.9606e-16,0,0.66667
0.11084,0.31804,0.66503,-0.27295,-12.802,167.79,0.48405,-0.16135,-1.7362,0.6454,4.9111e-09,-0.86811,0,0,0.16667,-0,-0,0.66667
0.6963,0.15929,4.1778,-0.51106,-12.478,26.941,5.6936,-1.8979,-1.0709,7.5915,4.6225e-12,-0.53547,0,0,0.16667,-0,-0,0.66667
0.27155,0.6912,1.6293,0.28679,12.608,121.97,-1.2461,0.41536,-1.7072,-1.6614,-1.4317e-11,-0.85359,0,0,0.16667,-0,-0,0.66667
0.96639,0.47602,5.7983,-0.035968,-0.093179,0.61077,0.55614,-0.18538,-1.9958,0.74152,-1.7792e-07,-0.99788,0,0,0.16667,3.158e-15,0,0.66667
0.83925,0.38764,5.0355,-0.16853,-2.2985,8.4736,2.263,-0.75435,-1.8981,3.0174,-1.0533e-09,-0.94903,0,0,0.16667,-0,-0,0.66667
0.09252,0.63288,0.55512,0.19931,9.3771,173.15,-0.29505,0.09835,-1.8597,-0.3934,5.871e-09,-0.92985,0,0,0.16667,-0,-0,0.66667
0.39056,0.17051,2.3433,-0.49424,-19.942,90.673,3.0885,-1.0295,-1.1328,4.118,-8.2201e-13,-0.56641,0,0,0.16667,-7.8949e-16,5.8372e-17,0.66667
0.12422,0.48099,0.7453,-0.028517,-1.3311,163.85,0.056677,-0.018892,-1.998,0.07557,5.5004e-10,-0.99901,0,0,0.16667,1.9737e-16,0,0.66667
0.55539,0.68838,3.3324,0.28257,9.2381,52.391,-2.511,0.83699,-1.7161,-3.348,-1.0556e-12,-0.85805,0,0,0.16667,-1.579e-15,0,0.66667
0.16211,0.60796,0.97263,0.16194,7.4789,152.86,-0.42003,0.14001,-1.9054,-0.56004,-8.9889e-10,-0.9527,0,0,0.16667,-0,-0,0.66667
0.83177,0.049378,4.9906,-0.67593,-9.9243,10.137,8.9955,-2.9985,-0.37485,11.994,1.9446e-09,-0.18743,0,0,0.16667,-0,-0,0.66667
0.25769,0.24392,1.5462,-0.38412,-17.048,125.84,1.5838,-0.52793,-1.4745,2.1117,2.5853e-11,-0.73723,0,0,0.16667,-0,-0,0.66667
0.51057,0.17655,3.0634,-0.48517,-17.053,62.214,3.9634,-1.3211,-1.162,5.2845,-6.2661e-13,-0.58102,0,0,0.16667,-0,-0,0.66667
0.78245,0.19913,4.6947,-0.4513,-8.2321,14.916,5.65,-1.8833,-1.2765,7.5333,-1.8653e-10,-0.63824,0,0,0.16667,-0,-0,0.66667
0.53834,0.56889,3.23,0.10334,3.4637,55.875,-0.89013,0.29671,-1.9611,-1.1868,-2.3093e-13,-0.98055,0,0,0.16667,-0,-0,0.66667
0.52882,0.91703,3.1729,0.62555,21.518,58.453,-5.2929,1.7643,-0.60867,-7.0572,-1.2657e-13,-0.30433,0,0,0.16667,-0,2.6308e-16,0.66667
0.85484,0.20663,5.129,-0.44005,-5.5188,7.4502,6.0187,-2.0062,-1.3106,8.025,-2.8849e-09,-0.65528,0,0,0.16667,-0,-0,0.66667
0.2451,0.082677,1.4706,-0.62598,-28.131,129.5,2.4549,-0.81829,-0.60574,3.2732,-4.2999e-12,-0.30287,0,0,0.16667,3.9475e-16,0,0.66667
0.1271,0.87104,0.7626,0.55656,26.138,163.12,-1.1318,0.37728,-0.89959,-1.5091,-5.6492e-09,-0.4498,0,0,0.16667,2.9606e-16,0,0.66667
0.56024,0.70531,3.3615,0.30797,9.9932,51.41,-2.7606,0.92019,-1.6628,-3.6808,-1.0747e-12,-0.83138,0,0,0.16667,7.8949e-16,0,0.66667
0.12838,0.63065,0.77028,0.19598,9.1455,162.65,-0.40256,0.13419,-1.8635,-0.53675,-2.7132e-09,-0.93176,0,0,0.16667,-0,-0,0.66667
0.33116,0.0071143,1.9869,-0.73933,-31.584,106.28,3.9173,-1.3058,-0.056567,5.2231,4.4009e-13,-0.028284,0,0,0.16667,-0,-0,0.66667
0.32644,0.60926,1.9586,0.16389,6.9375,107.07,-0.85602,0.28534,-1.9048,-1.1414,2.7249e-12,-0.95238,0,0,0.16667,-0,-0,0.66667
0.94804,0.79681,5.6883,0.44522,1.9948,1.7067,-6.7534,2.2511,-1.294,-9.0046,-9.3725e-09,-0.64701,0,0,0.16667,-1.579e-15,0,0.66667
0.37591,0.52619,2.2555,0.039288,1.5965,94.143,-0.23631,0.078769,-1.996,-0.31507,-3.6961e-13,-0.99802,0,0,0.16667,3.9475e-16,0,0.66667
0.46911,0.15871,2.8147,-0.51194,-19.006,71.647,3.8425,-1.2808,-1.0705,5.1234,-8.5554e-13,-0.53524,0,0,0.16667,-0,-0,0.66667
0.94734,0.6721,5.6841,0.25815,1.1379,1.4005,-3.9129,1.3043,-1.7617,-5.2172,-1.4941e-08,-0.88085,0,0,0.16667,-0,-0,0.66667
0.82838,0.15169,4.9703,-0.52246,-7.7123,10.059,6.9247,-2.3082,-1.0315,9.233,-1.4246e-09,-0.51575,0,0,0.16667,-3.9475e-16,0,0.66667
0.672,0.43977,4.032,-0.090339,-2.3262,30.399,0.97133,-0.32378,-1.9735,1.2951,2.2936e-12,-0.98676,0,0,0.16667,-1.579e-15,0,0.66667
0.26731,0.52533,1.6039,0.038,1.6716,123.08,-0.16253,0.054176,-1.9958,-0.2167,-3.9369e-12,-0.99789,0,0,0.16667,-0,-0,0.66667
0.13326,0.44762,0.79959,-0.078572,-3.6592,161.22,0.16754,-0.055845,-1.9767,0.22338,1.9205e-09,-0.98836,0,0,0.16667,3.9475e-16,0,0.66667
0.33396,0.64467,2.0038,0.217,9.1383,105.1,-1.1595,0.38651,-1.8313,-1.546,3.2583e-12,-0.91566,0,0,0.16667,-0,-0,0.66667
0.15982,0.52645,0.95892,0.039673,1.8326,153.51,-0.10145,0.033816,-1.9945,-0.13527,-4.7171e-10,-0.99727,0,0,0.16667,-0,-0,0.66667
0.9604,0.16475,5.7624,-0.50287,-1.7124,1.4299,7.7273,-2.5758,-1.0997,10.303,-3.8841e-08,-0.54985,0,0,0.16667,-0,-0,0.66667
0.20094,0.87979,1.2056,0.56969,26.101,141.87,-1.8316,0.61052,-0.84684,-2.4421,1.9271e-10,-0.42342,0,0,0.16667,-0,-0,0.66667
0.31067,0.37074,1.864,-0.19389,-8.303,111.3,0.96377,-0.32126,-1.8674,1.285,-3.8132e-12,-0.9337,0,0,0.16667,-1.9737e-16,0,0.66667
0.66142,0.93218,3.9685,0.64828,17.409,32.908,-6.8605,2.2868,-0.50527,-9.1474,-2.6734e-13,-0.25263,0,0,0.16667,-0,-0,0.66667
0.43762,0.007813,2.6257,-0.73828,-28.637,79.427,5.1694,-1.7231,-0.063735,6.8925,1.5943e-13,-0.031867,0,0,0.16667,-1.579e-15,0,0.66667
0.58983,0.1248,3.539,-0.5628,-17.473,45.813,5.3114,-1.7705,-0.87463,7.0818,6.6303e-13,-0.43732,0,0,0.16667,3.454e-16,0,0.66667
0.84885,0.71031,5.0931,0.31547,4.0802,7.7586,-4.2845,1.4282,-1.6453,-5.7127,2.2295e-09,-0.82266,0,0,0.16667,-7.8949e-16,0,0.66667
0.58815,0.055265,3.5289,-0.6671,-20.863,46.343,6.2777,-2.0926,-0.41687,8.3702,3.7481e-13,-0.20843,0,0,0.16667,-3.9475e-16,0,0.66667
0.49698,0.79371,2.9819,0.44056,15.756,65.187,-3.5032,1.1677,-1.3095,-4.6709,-2.669e-13,-0.65476,0,0,0.16667,-0,-0,0.66667
0.83558,0.56519,5.0135,0.097782,1.3605,8.7781,-1.3073,0.43576,-1.9656,-1.743,1.3908e-09,-0.98282,0,0,0.16667,-0,-0,0.66667
0.79797,0.49385,4.7878,-0.009229,-0.15553,12.681,0.11783,-0.039277,-2.0009,0.15711,-1.5505e-10,-1.0005,0,0,0.16667,2.3685e-15,0,0.66667
0.98116,0.36389,5.887,-0.20417,-0.2555,0.37079,3.2052,-1.0684,-1.8514,4.2736,2.9457e-08,-0.9257,0,0,0.16667,-1.579e-15,0,0.66667
0.94861,0.49415,5.6916,-0.0087718,-0.037045,1.1847,0.13314,-0.044378,-1.9994,0.17751,1.5437e-07,-0.99969,0,0,0.16667,1.579e-15,0,0.66667
0.91719,0.27032,5.5031,-0.34452,-2.4669,2.9147,5.0558,-1.6853,-1.5771,6.7411,-6.6276e-09,-0.78853,0,0,0.16667,-0,-0,0.66667
0.49483,0.19346,2.969,-0.45981,-16.499,65.695,3.6404,-1.2135,-1.2477,4.8539,-4.885e-14,-0.62385,0,0,0.16667,-0,-0,0.66667
0.73715,0.52341,4.4229,0.035108,0.74903,20.391,-0.41408,0.13803,-1.9957,-0.5521,4.2555e-12,-0.99786,0,0,0.16667,-0,-0,0.66667
0.60052,0.10126,3.6031,-0.59812,-18.229,43.808,5.7469,-1.9156,-0.72699,7.6626,4.13e-14,-0.36349,0,0,0.16667,-0,-0,0.66667
0.738,0.39337,4.428,-0.15994,-3.4068,20.32,1.8886,-0.62953,-1.9084,2.5181,-2.2152e-11,-0.9542,0,0,0.16667,-0,-0,0.66667
0.37576,0.6771,2.2546,0.26566,10.815,94.251,-1.5972,0.53239,-1.7501,-2.1296,2.4027e-12,-0.87505,0,0,0.16667,-0,-0,0.66667
0.91111,0.45029,5.4666,-0.074558,-0.56492,2.9774,1.0869,-0.3623,-1.9792,1.4492,-2.0715e-09,-0.98958,0,0,0.16667,-0,-0,0.66667
0.87231,0.5237,5.2339,0.035555,0.38733,5.5843,-0.49624,0.16541,-1.9957,-0.66166,2.2164e-09,-0.99784,0,0,0.16667,-1.579e-15,0,0.66667
0.70467,0.62868,4.228,0.19303,4.5594,25.227,-2.1763,0.72543,-1.8689,-2.9017,1.8874e-14,-0.93443,0,0,0.16667,-0,-0,0.66667
0.26123,0.57984,1.5674,0.11975,5.2878,124.77,-0.50053,0.16684,-1.948,-0.66737,-1.916e-11,-0.97402,0,0,0.16667,-3.9475e-16,0,0.66667
0.50107,0.11302,3.0064,-0.58047,-20.731,64.46,4.6537,-1.5512,-0.8027,6.2049,-4.6674e-13,-0.40135,0,0,0.16667,-0,-0,0.66667
0.21771,0.55662,1.3062,0.084935,3.8348,136.94,-0.29585,0.098618,-1.9757,-0.39447,-7.2481e-11,-0.98783,0,0,0.16667,-9.8686e-17,0,0.66667
0.10252,0.64209,0.61512,0.21314,10.009,170.22,-0.34962,0.11654,-1.837,-0.46616,-4.5711e-09,-0.91849,0,0,0.16667,-1.9737e-16,0,0.66667
0.57796,0.31422,3.4678,-0.27866,-8.7677,47.788,2.5769,-0.85897,-1.7265,3.4359,6.1706e-13,-0.86326,0,0,0.16667,-0,-0,0.66667
0.4796,0.69801,2.8776,0.29701,10.831,69.003,-2.2791,0.75971,-1.6854,-3.0389,4.885e-15,-0.84271,0,0,0.16667,-0,-0,0.66667
0.24749,0.81062,1.485,0.46593,20.828,128.72,-1.845,0.61501,-1.2293,-2.46,-5.2394e-11,-0.61463,0,0,0.16667,-4.4409e-16,0,0.66667
0.44668,0.003778,2.6801,-0.74433,-28.593,77.276,5.3196,-1.7732,-0.029636,7.0928,-6.8834e-13,-0.014818,0,0,0.16667,-0,-0,0.66667
0.13839,0.5755,0.83036,0.11325,5.2671,159.73,-0.25076,0.083587,-1.9544,-0.33435,-2.3697e-09,-0.9772,0,0,0.16667,-1.9737e-16,0,0.66667
0.5228,0.10844,3.1368,-0.58733,-20.354,59.688,4.9129,-1.6376,-0.77196,6.5506,-1.6609e-13,-0.38598,0,0,0.16667,-0,-0,0.66667
0.97037,0.025917,5.8222,-0.71112,-1.9508,1.8107,11.041,-3.6803,-0.20301,14.721,1.2207e-05,-0.1015,0,0,0.16667,-1.579e-15,0,0.66667
0.82378,0.73619,4.9427,0.35428,5.3048,10.191,-4.6696,1.5565,-1.5528,-6.2262,1.0806e-09,-0.77639,0,0,0.16667,-9.7555e-16,0,0.66667
0.0044396,0.58786,0.026638,0.13179,6.2515,199.18,-0.009362,0.0031206,-1.9379,-0.012483,-7.5938e-08,-0.96895,0,0,0.16667,9.2519e-18,0,0.66667
0.09162,0.85325,0.54972,0.52987,25.065,173.48,-0.77674,0.25891,-1.002,-1.0357,-7.1081e-09,-0.501,0,0,0.16667,-0,1.8228e-17,0.66667
0.025576,0.10481,0.15345,-0.59279,-28.305,192.94,0.24257,-0.08086,-0.74941,0.32343,-1.8858e-06,-0.37471,0,0,0.16667,-4.9343e-17,0,0.66667
0.30843,0.74443,1.8506,0.36665,15.762,111.98,-1.8093,0.60311,-1.5219,-2.4125,4.5562e-12,-0.76093,0,0,0.16667,-0,-0,0.66667
0.98064,0.89841,5.8839,0.59762,0.97252,1.2057,-9.3768,3.1256,-0.72982,-12.502,-1.4153e-06,-0.36491,0,0,0.16667,-0,-0,0.66667
0.4604,0.41938,2.7624,-0.12092,-4.5053,73.377,0.89078,-0.29693,-1.9465,1.1877,-8.5038e-13,-0.97326,0,0,0.16667,7.8949e-16,0,0.66667
0.40975,0.4452,2.4585,-0.082201,-3.2358,85.622,0.53891,-0.17964,-1.9758,0.71854,-3.0409e-13,-0.98788,0,0,0.16667,-0,-0,0.66667
0.40822,0.057261,2.4493,-0.66411,-26.481,86.474,4.3376,-1.4459,-0.4327,5.7835,-1.5272e-12,-0.21635,0,0,0.16667,1.9737e-16,0,0.66667
0.82481,0.81368,4.9489,0.47052,7.0535,10.299,-6.2095,2.0698,-1.2137,-8.2793,7.9149e-10,-0.60686,0,0,0.16667,-0,-0,0.66667
0.58171,0.29952,3.4902,-0.30072,-9.4031,47.061,2.7989,-0.93298,-1.6778,3.7319,2.2027e-13,-0.83891,0,0,0.16667,7.8949e-16,0,0.66667
0.11935,0.27295,0.71611,-0.34058,-15.957,165.31,0.65038,-0.21679,-1.5866,0.86717,5.6309e-09,-0.79332,0,0,0.16667,9.8686e-17,0,0.66667
0.44473,0.41263,2.6684,-0.13106,-4.9725,77.101,0.93259,-0.31086,-1.938,1.2435,-3.4117e-13,-0.969,0,0,0.16667,-0,-0,0.66667
0.1464,0.00071456,0.87843,-0.74893,-35.177,157.61,1.7543,-0.58478,-0.0059208,2.3391,3.6475e-09,-0.0029604,0,0,0.16667,-0,-0,0.66667
0.66607,0.41235,3.9964,-0.13148,-3.4367,31.409,1.4012,-0.46706,-1.9378,1.8682,2.7797e-12,-0.96891,0,0,0.16667,-0,-0,0.66667
0.12237,0.035943,0.73422,-0.69609,-32.856,164.55,1.3629,-0.45429,-0.27779,1.8172,-1.8866e-08,-0.13889,0,0,0.16667,3.9475e-16,0,0.66667
0.086689,0.37305,0.52013,-0.19043,-8.9678,174.87,0.26412,-0.088042,-1.8709,0.35217,-1.4644e-08,-0.93543,0,0,0.16667,1.2336e-16,0,0.66667
0.70336,0.16039,4.2202,-0.50941,-12.195,25.845,5.7328,-1.9109,-1.0795,7.6438,3.5323e-12,-0.53973,0,0,0.16667,-0,-0,0.66667
0.41126,0.58077,2.4676,0.12116,4.7631,85.255,-0.79722,0.26574,-1.9467,-1.063,9.5324e-13,-0.97334,0,0,0.16667,7.8949e-16,0,0.66667
0.99611,0.19017,5.9767,-0.46474,-0.0061732,0.61114,7.4069,-2.469,-1.2324,9.8759,-2.6703e-07,-0.61621,0,0,0.16667,-3.158e-15,0,0.66667
0.53405,0.89124,3.2043,0.58686,20.003,57.267,-5.0146,1.6715,-0.77509,-6.6862,1.1102e-13,-0.38755,0,0,0.16667,-7.8949e-16,0,0.66667
0.77901,0.87135,4.6741,0.55703,10.366,15.551,-6.9429,2.3143,-0.89773,-9.2572,9.672e-11,-0.44887,0,0,0.16667,7.8949e-16,-1.5398e-16,0.66667
0.86863,0.22467,5.2118,-0.413,-4.6986,6.2645,5.7399,-1.9133,-1.3928,7.6531,-5.0622e-09,-0.69638,0,0,0.16667,-0,-0,0.66667
0.79875,0.9449,4.7925,0.66735,11.515,13.541,-8.5287,2.8429,-0.41715,-11.372,-9.5543e-11,-0.20858,0,0,0.16667,1.579e-15,0,0.66667
0.21409,0.55583,1.2845,0.083748,3.7874,137.97,-0.28687,0.095623,-1.9746,-0.38249,-8.0925e-11,-0.98728,0,0,0.16667,-1.9737e-16,0,0.66667
0.68037,0.69326,4.0822,0.28989,7.3297,29.158,-3.1557,1.0519,-1.7004,-4.2076,-4.9201e-12,-0.85018,0,0,0.16667,-0,-0,0.66667
0.0046244,0.54912,0.027747,0.073681,3.494,199.13,-0.0054514,0.0018156,-1.9797,-0.0072694,-2.2717e-06,-0.98984,0,0,0.16667,-0,-0,0.66667
0.7958,0.13228,4.7748,-0.55158,-9.5611,13.573,7.0232,-2.3411,-0.91937,9.3642,-5.0811e-11,-0.45969,0,0,0.16667,1.579e-15,0,0.66667
0.21583,0.018666,1.295,-0.722,-33.011,137.77,2.4933,-0.8311,-0.14621,3.3244,1.0032e-10,-0.073103,0,0,0.16667,-0,1.899e-16,0.66667
0.98672,0.63188,5.9203,0.19783,0.1431,0.26636,-3.1232,1.0411,-1.8613,-4.1643,2.5939e-08,-0.93064,0,0,0.16667,-0,-0,0.66667
0.94415,0.26021,5.6649,-0.35968,-1.7132,1.6822,5.4335,-1.8112,-1.5387,7.2446,1.8569e-08,-0.76937,0,0,0.16667,-0,-0,0.66667
0.58512,0.95673,3.5107,0.6851,21.56,46.976,-6.4138,2.1379,-0.32973,-8.5518,3.8991e-13,-0.16487,0,0,0.16667,-1.4824e-15,0,0.66667
0.16047,0.66185,0.96281,0.24278,11.227,153.34,-0.62334,0.20778,-1.7902,-0.83112,-1.4757e-09,-0.8951,0,0,0.16667,3.9475e-16,0,0.66667
0.7034,0.3659,4.2204,-0.20115,-4.7692,25.428,2.2638,-0.75461,-1.8576,3.0185,5.1048e-13,-0.92881,0,0,0.16667,-7.8949e-16,0,0.66667
0.41745,0.89585,2.5047,0.59377,23.405,84.101,-3.966,1.322,-0.74562,-5.288,9.5723e-13,-0.37281,0,0,0.16667,-3.9475e-16,0,0.66667
0.46677,0.78309,2.8006,0.42463,15.773,72.09,-3.1713,1.0571,-1.3603,-4.2284,1.3423e-12,-0.68015,0,0,0.16667,-0,-0,0.66667
0.30497,0.45951,1.8298,-0.060728,-2.6086,112.8,0.29632,-0.098774,-1.9856,0.3951,-7.0688e-13,-0.99282,0,0,0.16667,-0,-0,0.66667
0.86917,0.59235,5.215,0.13853,1.5481,5.8715,-1.9265,0.64217,-1.9318,-2.5687,-8.864e-11,-0.96591,0,0,0.16667,-7.8949e-16,0,0.66667
0.46942,0.84225,2.8165,0.51337,19.053,71.577,-3.8558,1.2853,-1.0652,-5.141,6.215e-13,-0.53262,0,0,0.16667,-9.8686e-17,0,0.66667
0.80616,0.94861,4.8369,0.67291,11.232,12.743,-8.6795,2.8932,-0.38872,-11.573,-8.3526e-11,-0.19436,0,0,0.16667,-0,-0,0.66667
0.8068,0.5848,4.8408,0.1272,2.0593,11.735,-1.642,0.54733,-1.9415,-2.1893,3.4346e-10,-0.97073,0,0,0.16667,-0,-0,0.66667
0.55703,0.23813,3.3422,-0.39281,-12.838,52.163,3.5009,-1.167,-1.4502,4.6678,3.8569e-13,-0.7251,0,0,0.16667,-0,-0,0.66667
0.38613,0.75043,2.3168,0.37564,15.178,91.685,-2.3207,0.77358,-1.4989,-3.0943,2.0428e-12,-0.74944,0,0,0.16667,-0,-0,0.66667
0.68707,0.25157,4.1224,-0.37265,-9.2796,28.176,4.0966,-1.3655,-1.5087,5.4621,4.7149e-12,-0.75435,0,0,0.16667,-0,-0,0.66667
0.6809,0.43568,4.0854,-0.096483,-2.4287,28.935,1.0511,-0.35038,-1.9668,1.4015,1.6933e-12,-0.98338,0,0,0.16667,-9.8476e-16,0,0.66667
0.18194,0.85222,1.0917,0.52834,24.365,147.27,-1.538,0.51268,-1.0066,-2.0507,-2.4652e-10,-0.50328,0,0,0.16667,-0,-0,0.66667
0.76415,0.2725,4.5849,-0.34125,-6.6574,17.003,4.1723,-1.3908,-1.5867,5.563,-1.0352e-10,-0.79333,0,0,0.16667,-0,-0,0.66667
0.16518,0.19291,0.99106,-0.46064,-21.34,152.05,1.2174,-0.40579,-1.2448,1.6232,6.3024e-10,-0.6224,0,0,0.16667,-0,-0,0.66667
0.32411,0.22206,1.9446,-0.41691,-17.741,107.82,2.162,-0.72066,-1.3822,2.8826,-5.3202e-12,-0.6911,0,0,0.16667,7.8949e-16,0,0.66667
0.87021,0.71548,5.2213,0.32322,3.6124,5.9872,-4.5003,1.5001,-1.6285,-6.0004,4.1419e-09,-0.81426,0,0,0.16667,7.8949e-16,0,0.66667
0.57167,0.5681,3.43,0.10215,3.2422,48.951,-0.93431,0.31144,-1.9621,-1.2457,-1.0231e-12,-0.98107,0,0,0.16667,1.579e-15,0,0.66667
0.2566,0.0028742,1.5396,-0.74569,-33.431,126.42,3.0615,-1.0205,-0.02259,4.082,-8.759e-12,-0.011295,0,0,0.16667,-0,-0,0.66667
0.92392,0.57012,5.5435,0.10518,0.67878,2.2984,-1.5549,0.51828,-1.9612,-2.0731,5.7274e-08,-0.98058,0,0,0.16667,3.158e-15,0,0.66667
0.66058,0.12216,3.9635,-0.56676,-15.192,32.877,5.9902,-1.9967,-0.85809,7.9869,2.3999e-12,-0.42904,0,0,0.16667,-1.1842e-15,0,0.66667
0.55451,0.9045,3.3271,0.60674,20.046,53,-5.3831,1.7944,-0.69086,-7.1775,-6.5281e-14,-0.34543,0,0,0.16667,-0,-0,0.66667
0.99332,0.17595,5.9599,-0.48607,-0.14619,0.69543,7.7251,-2.575,-1.1586,10.3,-3.3346e-07,-0.57929,0,0,0.16667,-0,-0,0.66667
0.84555,0.95639,5.0733,0.68458,9.2997,8.8857,-9.2616,3.0872,-0.33396,-12.349,3.6677e-09,-0.16698,0,0,0.16667,-0,-0,0.66667
0.67719,0.3039,4.0632,-0.29415,-7.4991,29.682,3.1872,-1.0624,-1.6914,4.2496,4.7413e-12,-0.84572,0,0,0.16667,-0,-0,0.66667
0.081731,0.85741,0.49038,0.53612,25.409,176.38,-0.70107,0.23369,-0.97739,-0.93476,-3.3744e-08,-0.48869,0,0,0.16667,-0,-0,0.66667
0.36445,0.54278,2.1867,0.064174,2.634,97.093,-0.37421,0.12474,-1.9843,-0.49894,1.354e-12,-0.99214,0,0,0.16667,-0,-0,0.66667
0.50217,0.48077,3.013,-0.028847,-1.0187,63.765,0.23178,-0.077259,-1.9971,0.30904,4.1402e-13,-0.99856,0,0,0.16667,-0,-0,0.66667
0.61766,0.53276,3.7059,0.049133,1.4301,39.99,-0.48555,0.16185,-1.9913,-0.6474,-1.5362e-12,-0.99564,0,0,0.16667,1.579e-15,0,0.66667
0.63988,0.045828,3.8393,-0.68126,-19.242,36.72,6.9748,-2.3249,-0.35068,9.2997,5.2847e-14,-0.17534,0,0,0.16667,-0,-1.9649e-16,0.66667
0.72511,0.27032,4.3507,-0.34452,-7.6833,22.334,3.997,-1.3323,-1.5767,5.3294,-8.3196e-12,-0.78835,0,0,0.16667,-7.8949e-16,0,0.66667
0.91024,0.80438,5.4614,0.45656,3.59,3.5199,-6.6493,2.2164,-1.2584,-8.8658,2.1567e-08,-0.6292,0,0,0.16667,7.8949e-16,0,0.66667
0.56828,0.63492,3.4097,0.20238,6.4677,49.686,-1.8401,0.61337,-1.8533,-2.4535,-4.9416e-13,-0.92663,0,0,0.16667,-1.579e-15,0,0.66667
0.98027,0.7613,5.8816,0.39194,0.56889,0.68068,-6.1474,2.0491,-1.453,-8.1965,-5.429e-08,-0.72652,0,0,0.16667,-1.579e-15,0,0.66667
0.1132,0.87359,0.67919,0.56038,26.409,167.17,-1.0149,0.33832,-0.88409,-1.3533,-9.1501e-09,-0.44204,0,0,0.16667,7.4015e-17,0,0.66667
0.46568,0.67703,2.7941,0.26555,9.8468,72.208,-1.9786,0.65953,-1.749,-2.6381,3.1086e-14,-0.87449,0,0,0.16667,-3.9475e-16,0,0.66667
0.10167,0.90383,0.61004,0.60575,28.652,170.55,-0.9854,0.32847,-0.69504,-1.3139,-7.6588e-08,-0.34752,0,0,0.16667,-1.9737e-16,0,0.66667
0.74245,0.35396,4.4547,-0.21906,-4.6019,19.748,2.6023,-0.86742,-1.828,3.4697,-3.4092e-11,-0.91402,0,0,0.16667,-1.579e-15,0,0.66667
0.80683,0.7336,4.841,0.35039,5.7105,11.961,-4.5233,1.5078,-1.5621,-6.0311,5.5284e-10,-0.78107,0,0,0.16667,-0,-0,0.66667
0.52316,0.14529,3.1389,-0.53207,-18.395,59.525,4.4537,-1.4846,-0.99203,5.9383,-4.0368e-13,-0.49602,0,0,0.16667,-0,-0,0.66667
0.43253,0.37518,2.5952,-0.18723,-7.2032,80.063,1.2957,-0.4319,-1.8759,1.7276,-9.2437e-13,-0.93794,0,0,0.16667,1.579e-15,0,0.66667
0.066995,0.60593,0.40197,0.1589,7.5045,180.67,-0.17033,0.056776,-1.9093,-0.2271,2.3685e-08,-0.95464,0,0,0.16667,-0,-0,0.66667
0.56461,0.93203,3.3877,0.64805,21.094,51.004,-5.8544,1.9515,-0.50751,-7.8058,1.9984e-13,-0.25376,0,0,0.16667,-7.8949e-16,0,0.66667
0.25483,0.3156,1.529,-0.2766,-12.275,126.58,1.1278,-0.37593,-1.7279,1.5037,4.0812e-11,-0.86397,0,0,0.16667,-7.8949e-16,0,0.66667
0.082332,0.29831,0.49399,-0.30254,-14.276,176.16,0.39854,-0.13285,-1.6737,0.53138,1.3993e-09,-0.83683,0,0,0.16667,9.8686e-17,0,0.66667
0.73371,0.39424,4.4023,-0.15864,-3.4272,20.922,1.8624,-0.62079,-1.9115,2.4832,-1.8119e-11,-0.95576,0,0,0.16667,7.8949e-16,0,0.66667
0.74344,0.52461,4.4607,0.036919,0.77117,19.519,-0.43915,0.14638,-1.9942,-0.58554,7.5006e-12,-0.99712,0,0,0.16667,-7.8949e-16,0,0.66667
0.37108,0.52504,2.2265,0.037562,1.5328,95.382,-0.22301,0.074338,-1.9948,-0.29735,1.2998e-12,-0.99739,0,0,0.16667,-0,-0,0.66667
0.18447,0.35779,1.1068,-0.21331,-9.776,146.43,0.6296,-0.20987,-1.8378,0.83946,6.8065e-10,-0.9189,0,0,0.16667,-0,-0,0.66667
0.51289,0.28806,3.0773,-0.3179,-11.093,61.519,2.6088,-0.8696,-1.6409,3.4784,3.9635e-13,-0.82045,0,0,0.16667,-0,-0,0.66667
0.093456,0.74398,0.56074,0.36597,17.25,172.9,-0.54723,0.18241,-1.5256,-0.72964,-9.3118e-09,-0.7628,0,0,0.16667,5.5337e-17,0,0.66667
0.77844,0.91715,4.6707,0.62572,11.724,15.789,-7.7934,2.5978,-0.60772,-10.391,1.0342e-11,-0.30386,0,0,0.16667,-0,-0,0.66667
0.47595,0.27968,2.8557,-0.33048,-12.114,69.869,2.5167,-0.8389,-1.6115,3.3556,-5.2824e-13,-0.80576,0,0,0.16667,-1.0856e-15,0,0.66667
0.96096,0.35202,5.7658,-0.22197,-0.69748,0.89124,3.4129,-1.1376,-1.8236,4.5506,1.6118e-08,-0.91182,0,0,0.16667,-3.158e-15,0,0.66667
0.10902,0.097227,0.65412,-0.60416,-28.531,168.41,1.0539,-0.35128,-0.70435,1.4051,4.8563e-08,-0.35217,0,0,0.16667,-3.9475e-16,-7.8069e-17,0.66667
0.69796,0.66861,4.1878,0.25292,6.0953,26.315,-2.8244,0.94147,-1.7714,-3.7659,-2.806e-12,-0.88571,0,0,0.16667,-0,-0,0.66667
0.80356,0.17973,4.8214,-0.4804,-8.0044,12.55,6.1765,-2.0588,-1.1784,8.2354,-2.8153e-10,-0.58918,0,0,0.16667,7.8949e-16,0,0.66667
0.72687,0.99026,4.3612,0.73538,16.632,22.898,-8.5525,2.8508,-0.075898,-11.403,2.3048e-12,-0.037949,0,0,0.16667,1.6503e-15,0,0.66667
0.46145,0.58701,2.7687,0.13051,4.8569,73.133,-0.96363,0.32121,-1.9385,-1.2848,-9.67e-14,-0.96923,0,0,0.16667,6.6798e-16,0,0.66667
0.54611,0.65954,3.2767,0.23931,7.9356,54.297,-2.091,0.69701,-1.7983,-2.788,-8.4865e-13,-0.89914,0,0,0.16667,1.579e-15,0,0.66667
0.61519,0.61921,3.6911,0.17882,5.2366,40.5,-1.7601,0.58671,-1.8856,-2.3469,-1.9218e-12,-0.94281,0,0,0.16667,7.8949e-16,0,0.66667
0.059105,0.57011,0.35463,0.10517,4.9704,183,-0.099459,0.033153,-1.9605,-0.13261,1.4696e-07,-0.98026,0,0,0.16667,-0,-0,0.66667
0.99567,0.70411,5.974,0.30616,-0.021936,0.29106,-4.8774,1.6258,-1.6658,-6.5032,6.9715e-08,-0.83288,0,0,0.16667,-0,-0,0.66667
0.25491,0.65454,1.5294,0.23182,10.282,126.55,-0.94547,0.31516,-1.8091,-1.2606,-3.9812e-11,-0.90457,0,0,0.16667,4.4409e-16,0,0.66667
0.64341,0.60733,3.8604,0.16099,4.439,35.344,-1.6573,0.55245,-1.9075,-2.2098,-2.3974e-12,-0.95377,0,0,0.16667,-1.579e-15,0,0.66667
0.12643,0.1123,0.7586,-0.58154,-27.333,163.32,1.1764,-0.39214,-0.798,1.5686,4.9188e-09,-0.399,0,0,0.16667,1.9737e-16,0,0.66667
0.16786,0.05337,1.0072,-0.66994,-31.172,151.38,1.7993,-0.59978,-0.40362,2.3991,-2.1853e-09,-0.20181,0,0,0.16667,-0,-0,0.66667
0.4911,0.17172,2.9466,-0.49242,-17.772,66.576,3.8693,-1.2898,-1.1364,5.159,-2.9621e-13,-0.56818,0,0,0.16667,7.8949e-16,0,0.66667
0.2885,0.73032,1.731,0.34548,15.044,117.36,-1.5947,0.53158,-1.5742,-2.1263,-3.1941e-13,-0.78711,0,0,0.16667,-0,-0,0.66667
0.50424,0.043184,3.0254,-0.68522,-24.462,63.932,5.5283,-1.8428,-0.32972,7.371,-1.0352e-12,-0.16486,0,0,0.16667,-0,-0,0.66667
0.10218,0.47686,0.61309,-0.034713,-1.6286,170.31,0.056752,-0.018917,-1.9946,0.075669,-5.6411e-09,-0.99729,0,0,0.16667,-0,-0,0.66667
0.41929,0.31207,2.5158,-0.28189,-11.011,83.345,1.8911,-0.63037,-1.7189,2.5215,-1.5784e-12,-0.85943,0,0,0.16667,8.8818e-16,0,0.66667
0.2686,0.46217,1.6116,-0.056748,-2.4945,122.72,0.24388,-0.081294,-1.9887,0.32517,5.9208e-12,-0.99435,0,0,0.16667,1.9737e-16,0,0.66667
0.5819,0.95133,3.4914,0.677,21.419,47.593,-6.3031,2.101,-0.36966,-8.4042,-2.3936e-13,-0.18483,0,0,0.16667,-0,-0,0.66667
0.17171,0.71153,1.0302,0.31729,14.629,150.12,-0.87168,0.29056,-1.6438,-1.1622,-1.2356e-09,-0.8219,0,0,0.16667,-0,-0,0.66667
0.96232,0.3213,5.7739,-0.26806,-0.81493,0.90838,4.1273,-1.3758,-1.7434,5.503,2.9259e-08,-0.8717,0,0,0.16667,-0,-0,0.66667
0.54421,0.36037,3.2653,-0.20944,-6.9631,54.678,1.8237,-0.60789,-1.8438,2.4316,4.2744e-13,-0.92188,0,0,0.16667,-0,-0,0.66667
0.70195,0.51346,4.2117,0.020196,0.47996,25.576,-0.22682,0.075608,-1.9992,-0.30243,1.6612e-14,-0.99958,0,0,0.16667,-0,-0,0.66667
0.93237,0.113,5.5942,-0.5805,-3.5059,2.7004,8.6598,-2.8866,-0.80074,11.546,-1.0672e-07,-0.40037,0,0,0.16667,-1.579e-15,0,0.66667
0.34537,0.84351,2.0722,0.51526,21.624,102.3,-2.8473,0.94909,-1.058,-3.7964,2.6479e-12,-0.52899,0,0,0.16667,1.0115e-15,0,0.66667
0.51572,0.419,3.0943,-0.12149,-4.2117,60.778,1.0025,-0.33417,-1.9489,1.3367,1.6998e-13,-0.97444,0,0,0.16667,-0,-0,0.66667
0.78659,0.039177,4.7195,-0.69124,-12.59,15,8.6995,-2.8998,-0.3003,11.599,-6.7937e-11,-0.15015,0,0,0.16667,-0,-0,0.66667
0.06941,0.32548,0.41646,-0.26179,-12.371,179.96,0.29073,-0.09691,-1.7549,0.38764,-9.2932e-09,-0.87744,0,0,0.16667,9.8686e-17,0,0.66667
0.75322,0.42424,4.5193,-0.11364,-2.2952,18.22,1.3695,-0.45651,-1.9536,1.826,-3.7825e-11,-0.97679,0,0,0.16667,-7.8949e-16,0,0.66667
0.11748,0.95419,0.70488,0.68128,32.181,165.97,-1.2806,0.42686,-0.34817,-1.7074,-8.421e-09,-0.17409,0,0,0.16667,-1.9737e-16,0,0.66667
0.38913,0.64055,2.3348,0.21082,8.4738,90.826,-1.3126,0.43753,-1.8423,-1.7501,1.6238e-12,-0.92117,0,0,0.16667,-0,-0,0.66667
0.69699,0.57905,4.182,0.11858,2.8593,26.373,-1.3224,0.44079,-1.9486,-1.7632,-1.0564e-12,-0.9743,0,0,0.16667,-0,-0,0.66667
0.059872,0.71595,0.35923,0.32393,15.339,182.79,-0.3103,0.10343,-1.6278,-0.41374,1.5478e-08,-0.81391,0,0,0.16667,-0,-0,0.66667
0.66498,0.064142,3.9899,-0.65379,-17.413,32.32,6.9561,-2.3187,-0.48008,9.2748,6.9811e-13,-0.24004,0,0,0.16667,1.579e-15,0,0.66667
0.97191,0.60156,5.8315,0.15234,0.31977,0.5239,-2.369,0.78966,-1.9174,-3.1586,1.3407e-07,-0.9587,0,0,0.16667,-3.158e-15,0,0.66667
0.24942,0.25854,1.4965,-0.36219,-16.141,128.12,1.4454,-0.4818,-1.5349,1.9272,4.9866e-11,-0.76745,0,0,0.16667,-0,-0,0.66667
0.25914,0.33311,1.5548,-0.25034,-11.08,125.38,1.038,-0.34598,-1.7759,1.3839,3.0138e-11,-0.88794,0,0,0.16667,-0,-0,0.66667
0.087231,0.61674,0.52339,0.1751,8.2444,174.71,-0.24439,0.081464,-1.8899,-0.32585,2.9044e-09,-0.94495,0,0,0.16667,-9.8686e-17,0,0.66667
0.093025,0.68387,0.55815,0.27581,12.985,173.01,-0.41052,0.13684,-1.7314,-0.54735,-2.0418e-09,-0.8657,0,0,0.16667,4.9343e-17,0,0.66667
0.31441,0.11066,1.8864,-0.584,-25.127,110.55,2.9378,-0.97927,-0.78748,3.9171,-3.1637e-12,-0.39374,0,0,0.16667,-0,-0,0.66667
0.83253,0.30777,4.9952,-0.28835,-4.1042,9.2343,3.8409,-1.2803,-1.7042,5.1212,-1.4961e-09,-0.85211,0,0,0.16667,1.1842e-15,0,0.66667
0.51242,0.21617,3.0745,-0.42575,-14.902,61.732,3.4906,-1.1635,-1.3562,4.6542,-1.5077e-13,-0.67808,0,0,0.16667,1.5171e-16,0,0.66667
0.38564,0.8473,2.3138,0.52094,21.129,91.942,-3.2143,1.0714,-1.0349,-4.2858,1.6538e-12,-0.51747,0,0,0.16667,-0,-0,0.66667
0.1825,0.9761,1.095,0.71415,33.099,147.22,-2.0854,0.69512,-0.18594,-2.7805,-6.1476e-10,-0.092968,0,0,0.16667,3.9475e-16,0,0.66667
0.97602,0.47668,5.8561,-0.03498,-0.059214,0.37135,0.54626,-0.18209,-1.9945,0.72835,2.2292e-07,-0.99727,0,0,0.16667,3.158e-15,0,0.66667
0.74144,0.91258,4.4486,0.61886,13.26,20.55,-7.3416,2.4472,-0.63734,-9.7888,3.6531e-12,-0.31867,0,0,0.16667,-0,-0,0.66667
0.34016,0.79368,2.041,0.44052,18.53,103.6,-2.3976,0.79919,-1.3094,-3.1968,3.5718e-12,-0.6547,0,0,0.16667,7.8949e-16,0,0.66667
0.92233,0.0018629,5.534,-0.74721,-5.3515,3.7256,11.027,-3.6756,-0.01725,14.702,3.2095e-07,-0.008625,0,0,0.16667,-0,-0,0.66667
0.58633,0.84497,3.518,0.51746,16.141,46.422,-4.8544,1.6181,-1.0479,-6.4726,-3.8369e-13,-0.52393,0,0,0.16667,-1.579e-15,0,0.66667
0.2652,0.4424,1.5912,-0.086401,-3.8058,123.66,0.36661,-0.1222,-1.9753,0.48882,1.3372e-11,-0.98767,0,0,0.16667,-0,-0,0.66667
0.48157,0.46284,2.8894,-0.055736,-2.0226,68.441,0.42945,-0.14315,-1.9893,0.5726,4.9105e-13,-0.99464,0,0,0.16667,3.9475e-16,0,0.66667
0.43439,0.6225,2.6063,0.18375,7.0551,79.612,-1.2771,0.42571,-1.8807,-1.7028,8.5598e-13,-0.94033,0,0,0.16667,-8.8818e-16,0,0.66667
0.3025,0.62677,1.815,0.19016,8.1887,113.49,-0.92039,0.3068,-1.8715,-1.2272,1.6326e-12,-0.93573,0,0,0.16667,-7.8949e-16,0,0.66667
0.65676,0.83246,3.9406,0.49869,13.45,33.401,-5.2403,1.7468,-1.1169,-6.9871,-2.8297e-12,-0.55845,0,0,0.16667,-7.8949e-16,0,0.66667
0.79219,0.17371,4.7532,-0.48944,-8.5856,13.848,6.2037,-2.0679,-1.1472,8.2716,-1.766e-10,-0.5736,0,0,0.16667,1.579e-15,0,0.66667
0.35326,0.69306,2.1196,0.2896,12.022,100.07,-1.6369,0.54562,-1.7011,-2.1825,3.7627e-12,-0.85056,0,0,0.16667,-0,-0,0.66667
0.43787,0.45644,2.6272,-0.065336,-2.497,78.735,0.45774,-0.15258,-1.986,0.61032,-1.1122e-13,-0.993,0,0,0.16667,-0,-0,0.66667
0.96304,0.018192,5.7782,-0.72271,-2.487,2.0442,11.136,-3.712,-0.14161,14.848,-2.5777e-06,-0.070804,0,0,0.16667,-5.4389e-15,0,0.66667
0.25951,0.47543,1.5571,-0.036859,-1.6286,125.23,0.15305,-0.051015,-1.9943,0.20406,5.314e-12,-0.99716,0,0,0.16667,-0,-0,0.66667
0.71926,0.8446,4.3156,0.5169,11.817,23.473,-5.9485,1.9828,-1.0526,-7.9314,-4.8153e-12,-0.52628,0,0,0.16667,-0,-0,0.66667
0.85114,0.21637,5.1068,-0.42545,-5.4591,7.7415,5.7939,-1.9313,-1.3561,7.7252,-1.9188e-09,-0.67805,0,0,0.16667,1.0415e-15,0,0.66667
0.74183,0.96338,4.451,0.69508,14.946,20.694,-8.2501,2.75,-0.2814,-11,2.7587e-12,-0.1407,0,0,0.16667,-0,-0,0.66667
0.21655,0.87343,1.2993,0.56015,25.482,137.45,-1.9408,0.64695,-0.88572,-2.5878,-2.4463e-10,-0.44286,0,0,0.16667,-9.8686e-17,0,0.66667
0.43531,0.60887,2.6118,0.1633,6.2623,79.381,-1.1374,0.37912,-1.9052,-1.5165,3.9357e-13,-0.95258,0,0,0.16667,-0,-0,0.66667
0.60876,0.65497,3.6526,0.23245,6.9002,41.748,-2.2641,0.7547,-1.8103,-3.0188,-2.5524e-12,-0.90513,0,0,0.16667,8.8818e-16,0,0.66667
0.59156,0.56195,3.5493,0.09293,2.8463,44.99,-0.87958,0.29319,-1.9709,-1.1728,-4.6879e-13,-0.98543,0,0,0.16667,2.2204e-16,0,0.66667
0.95189,0.15731,5.7113,-0.51403,-2.1582,1.7357,7.8288,-2.6096,-1.0625,10.438,-2.8023e-08,-0.53126,0,0,0.16667,3.158e-15,0,0.66667
0.3584,0.072437,2.1504,-0.64134,-26.73,99.046,3.6778,-1.2259,-0.53845,4.9037,-5.7909e-13,-0.26922,0,0,0.16667,-0,-1.7122e-16,0.66667
0.53179,0.92257,3.1908,0.63385,21.715,57.831,-5.3933,1.7978,-0.57248,-7.191,-3.1264e-13,-0.28624,0,0,0.16667,-0,-0,0.66667
0.39838,0.20662,2.3903,-0.44007,-17.603,88.656,2.805,-0.93501,-1.31,3.74,-1.1451e-12,-0.65498,0,0,0.16667,-7.7028e-17,0,0.66667
0.61473,0.051728,3.6884,-0.67241,-20.002,41.275,6.6136,-2.2045,-0.39133,8.8181,-2.0117e-13,-0.19566,0,0,0.16667,-7.8949e-16,0,0.66667
0.46485,0.25474,2.7891,-0.36788,-13.68,72.484,2.7361,-0.91205,-1.5188,3.6482,4.0079e-13,-0.75941,0,0,0.16667,-0,-0,0.66667
0.95549,0.54183,5.7329,0.062752,0.22584,0.95057,-0.95935,0.31978,-1.9861,-1.2791,-4.5964e-07,-0.99303,0,0,0.16667,-0,-0,0.66667
0.70849,0.44988,4.2509,-0.07518,-1.7538,24.585,0.85222,-0.28407,-1.9787,1.1363,-9.5335e-13,-0.98936,0,0,0.16667,-0,-0,0.66667
0.49885,0.94631,2.9931,0.66946,24.058,65.105,-5.3433,1.7811,-0.4074,-7.1244,2.7445e-13,-0.2037,0,0,0.16667,-0,-0,0.66667
0.49291,0.27747,2.9575,-0.33379,-11.973,65.996,2.6325,-0.87749,-1.6033,3.51,-9.5723e-13,-0.80166,0,0,0.16667,3.9475e-16,0,0.66667
0.2485,0.39876,1.491,-0.15187,-6.7544,128.31,0.60381,-0.20127,-1.9188,0.80508,4.9157e-11,-0.95941,0,0,0.16667,1.9737e-16,0,0.66667
0.21539,0.16364,1.2923,-0.50455,-22.934,137.74,1.7388,-0.57959,-1.0948,2.3183,3.48e-11,-0.54738,0,0,0.16667,-0,-0,0.66667
0.38386,0.34359,2.3032,-0.23461,-9.4787,92.172,1.4409,-0.48031,-1.8045,1.9213,-1.2201e-12,-0.90223,0,0,0.16667,-2.8372e-16,0,0.66667
0.26942,0.35289,1.6165,-0.22066,-9.7053,122.53,0.95119,-0.31706,-1.8264,1.2683,1.5765e-11,-0.9132,0,0,0.16667,-0,-0,0.66667
0.29831,0.33635,1.7898,-0.24547,-10.606,114.65,1.1716,-0.39053,-1.7866,1.5621,-2.5706e-12,-0.89332,0,0,0.16667,1.9737e-16,0,0.66667
0.21497,0.020409,1.2898,-0.71939,-32.901,138.01,2.4744,-0.8248,-0.15934,3.2992,9.7786e-11,-0.079669,0,0,0.16667,-0,-0,0.66667
0.43072,0.15501,2.5843,-0.51749,-20.073,80.771,3.5662,-1.1887,-1.0478,4.755,-1.6009e-13,-0.5239,0,0,0.16667,-1.1349e-15,0,0.66667
0.23735,0.75909,1.4241,0.38863,17.438,131.51,-1.4759,0.49196,-1.4629,-1.9678,-8.1901e-11,-0.73143,0,0,0.16667,-0,-0,0.66667
0.42905,0.17085,2.5743,-0.49372,-19.173,81.148,3.3893,-1.1298,-1.1318,4.519,-4.1145e-13,-0.56589,0,0,0.16667,-7.8949e-16,0,0.66667
0.73823,0.60584,4.4294,0.15875,3.3789,20.288,-1.8752,0.62505,-1.9097,-2.5002,2.1797e-11,-0.95484,0,0,0.16667,-0,-0,0.66667
0.19031,0.11985,1.1419,-0.57023,-26.239,144.9,1.7363,-0.57878,-0.8443,2.3151,3.8021e-10,-0.42215,0,0,0.16667,1.9737e-16,0,0.66667
0.98048,0.16187,5.8829,-0.50719,-0.78064,0.94757,7.9567,-2.6522,-1.0852,10.609,3.7201e-07,-0.54262,0,0,0.16667,-0,-0,0.66667
0.25094,0.1722,1.5056,-0.4917,-21.952,127.77,1.9742,-0.65806,-1.1411,2.6323,2.2876e-11,-0.57055,0,0,0.16667,-0,-0,0.66667
0.091928,0.4598,0.55157,-0.060295,-2.8347,173.32,0.088684,-0.029561,-1.9876,0.11825,3.5961e-08,-0.99378,0,0,0.16667,9.8686e-17,0,0.66667
0.6622,0.95684,3.9732,0.68526,18.403,32.863,-7.2605,2.4202,-0.32908,-9.6807,3.0864e-13,-0.16454,0,0,0.16667,-7.8949e-16,0,0.66667
0.12414,0.13506,0.74481,-0.54741,-25.722,163.98,1.0872,-0.36242,-0.93554,1.4497,9.5182e-09,-0.46777,0,0,0.16667,-0,1.928e-16,0.66667
0.45854,0.48308,2.7513,-0.025377,-0.9472,73.798,0.18619,-0.062062,-1.9965,0.24825,1.0462e-12,-0.99823,0,0,0.16667,-0,-0,0.66667
0.55491,0.83972,3.3295,0.50959,16.768,52.757,-4.5244,1.5081,-1.0761,-6.0325,-2.256e-13,-0.53805,0,0,0.16667,-0,-0,0.66667
0.91222,0.64111,5.4733,0.21167,1.5918,3.0094,-3.0894,1.0298,-1.8393,-4.1191,-4.2309e-09,-0.91966,0,0,0.16667,-1.579e-15,0,0.66667
0.84078,0.79813,5.0447,0.44719,6.123,8.7153,-6.0158,2.0053,-1.2886,-8.0211,1.4742e-09,-0.64428,0,0,0.16667,1.579e-15,0,0.66667
0.47647,0.52464,2.8588,0.036956,1.3496,69.612,-0.28173,0.093911,-1.9942,-0.37564,-8.0283e-13,-0.99708,0,0,0.16667,-0,-0,0.66667
0.8806,0.82029,5.2836,0.48043,5.0129,5.4993,-6.7691,2.2564,-1.1784,-9.0255,6.7657e-09,-0.58922,0,0,0.16667,-0,-0,0.66667
0.81353,0.16821,4.8812,-0.49769,-7.916,11.514,6.4782,-2.1594,-1.1201,8.6376,-2.977e-10,-0.56003,0,0,0.16667,-0,-0,0.66667
0.19464,0.39622,1.1678,-0.15566,-7.1019,143.51,0.48477,-0.16159,-1.9125,0.64636,3.3991e-10,-0.95627,0,0,0.16667,1.9737e-16,0,0.66667
0.67245,0.58822,4.0347,0.13233,3.4049,30.341,-1.4238,0.4746,-1.9394,-1.8984,-2.9455e-12,-0.96971,0,0,0.16667,-3.9475e-16,0,0.66667
0.71923,0.41989,4.3154,-0.12017,-2.716,22.993,1.3829,-0.46096,-1.9497,1.8438,-5.5639e-12,-0.97486,0,0,0.16667,-0,-0,0.66667
0.65257,0.12506,3.9154,-0.56241,-15.356,34.241,5.8722,-1.9574,-0.87632,7.8297,2.0135e-12,-0.43816,0,0,0.16667,-0,-0,0.66667
0.40566,0.80602,2.4339,0.45903,18.24,86.859,-2.9793,0.99311,-1.2524,-3.9724,1.4369e-12,-0.62618,0,0,0.16667,-3.9475e-16,0,0.66667
0.04361,0.98809,0.26166,0.73213,35.055,187.64,-0.51086,0.17028,-0.093724,-0.68114,-1.2466e-06,-0.046862,0,0,0.16667,-5.1645e-17,0,0.66667
0.37899,0.23112,2.274,-0.40332,-16.412,93.519,2.4457,-0.81523,-1.4209,3.2609,-1.9995e-12,-0.71043,0,0,0.16667,-0,-0,0.66667
0.033161,0.86161,0.19897,0.54241,25.856,190.7,-0.28779,0.095931,-0.95409,-0.38372,2.3693e-07,-0.47704,0,0,0.16667,-0,-0,0.66667
0.2442,0.48693,1.4652,-0.019599,-0.87323,129.49,0.076579,-0.025526,-1.9973,0.10211,9.7231e-13,-0.99866,0,0,0.16667,-3.9475e-16,0,0.66667
0.84278,0.47684,5.0567,-0.034735,-0.46283,8.0845,0.46839,-0.15613,-1.9968,0.62452,-8.1684e-10,-0.99841,0,0,0.16667,-0,-0,0.66667
0.47471,0.64723,2.8483,0.22085,8.0941,70.079,-1.6774,0.55914,-1.8255,-2.2366,-2.9288e-13,-0.91275,0,0,0.16667,-0,-0,0.66667
0.19554,0.60545,1.1732,0.15817,7.2136,143.25,-0.49486,0.16495,-1.9096,-0.65981,-3.4041e-10,-0.95481,0,0,0.16667,-0,-0,0.66667
0.93344,0.088897,5.6006,-0.61665,-3.6927,2.76,9.2097,-3.0699,-0.6479,12.28,-5.0058e-08,-0.32395,0,0,0.16667,-1.1842e-15,0,0.66667
0.17584,0.69495,1.0551,0.29243,13.458,148.92,-0.82276,0.27425,-1.6956,-1.097,-1.0404e-09,-0.84779,0,0,0.16667,-0,-0,0.66667
0.71019,0.86153,4.2611,0.54229,12.75,24.873,-6.1621,2.054,-0.9529,-8.2161,-2.9883e-12,-0.47645,0,0,0.16667,-7.8949e-16,0,0.66667
0.25216,0.30615,1.5129,-0.29077,-12.925,127.33,1.1731,-0.39104,-1.7,1.5642,4.6777e-11,-0.84999,0,0,0.16667,1.9737e-16,0,0.66667
0.12576,0.67788,0.75453,0.26683,12.469,163.43,-0.53688,0.17896,-1.748,-0.71584,-3.4408e-09,-0.87398,0,0,0.16667,-9.8686e-17,0,0.66667
0.42352,0.61043,2.5411,0.16565,6.4331,82.25,-1.1225,0.37417,-1.9027,-1.4967,8.763e-13,-0.95136,0,0,0.16667,-0,-0,0.66667
0.30687,0.21702,1.8412,-0.42447,-18.287,112.43,2.0841,-0.69471,-1.3594,2.7788,-6.4224e-12,-0.67971,0,0,0.16667,-0,-0,0.66667
0.55624,0.17689,3.3374,-0.48466,-15.901,52.446,4.3134,-1.4378,-1.1636,5.7512,-1.3545e-13,-0.58178,0,0,0.16667,7.8949e-16,0,0.66667
0.0056956,0.16886,0.034173,-0.49671,-23.679,198.81,0.045265,-0.015088,-1.1215,0.060353,4.4665e-07,-0.56075,0,0,0.16667,-0,-0,0.66667
0.40187,0.72846,2.4112,0.34268,13.634,87.701,-2.2035,0.73449,-1.5817,-2.9379,2.0288e-12,-0.79086,0,0,0.16667,-0,-0,0.66667
0.32437,0.085679,1.9462,-0.62148,-26.579,107.93,3.2255,-1.0752,-0.62635,4.3006,-2.3241e-12,-0.31318,0,0,0.16667,-0,-0,0.66667
0.20888,0.59186,1.2533,0.13778,6.2474,139.45,-0.46048,0.15349,-1.9325,-0.61397,-2.4898e-10,-0.96624,0,0,0.16667,9.8686e-17,0,0.66667
0.7647,0.14669,4.5882,-0.52996,-10.408,17.268,6.4842,-2.1614,-1.0024,8.6456,-5.6252e-11,-0.50119,0,0,0.16667,-7.8949e-16,-2.6272e-16,0.66667
0.21573,0.59044,1.2944,0.13565,6.1319,137.51,-0.46823,0.15608,-1.9352,-0.62431,-2.1946e-10,-0.96759,0,0,0.16667,-5.9212e-16,0,0.66667
0.36723,0.19459,2.2034,-0.45811,-18.857,96.576,2.6917,-0.89724,-1.2528,3.589,-1.4e-12,-0.62638,0,0,0.16667,-7.8949e-16,0,0.66667
0.061462,0.39229,0.36877,-0.16157,-7.6362,182.3,0.15889,-0.052962,-1.9079,0.21185,8.3158e-09,-0.95393,0,0,0.16667,-0,-0,0.66667
0.79907,0.030563,4.7944,-0.70416,-12.169,13.613,9.0028,-3.0009,-0.23856,12.004,2.0673e-10,-0.11928,0,0,0.16667,-4.9343e-16,0,0.66667
0.85776,0.92974,5.1466,0.64461,8.0778,7.7098,-8.8468,2.9489,-0.52331,-11.796,-3.0907e-09,-0.26165,0,0,0.16667,-7.8949e-16,0,0.66667
0.979,0.76823,5.874,0.40235,0.63533,0.72719,-6.3024,2.1008,-1.4232,-8.4031,-8.29e-08,-0.7116,0,0,0.16667,-0,-0,0.66667
0.95064,0.52667,5.7039,0.040011,0.16163,1.1137,-0.60858,0.20286,-1.995,-0.81144,-1.4379e-07,-0.99749,0,0,0.16667,7.8949e-16,0,0.66667
0.48709,0.67411,2.9225,0.26117,9.4279,67.261,-2.0354,0.67846,-1.7572,-2.7139,2.9532e-14,-0.87861,0,0,0.16667,-0,-0,0.66667
0.29631,0.18938,1.7779,-0.46594,-20.234,115.31,2.209,-0.73634,-1.2304,2.9454,-4.9458e-12,-0.6152,0,0,0.16667,-0,-0,0.66667
0.69417,0.60314,4.165,0.15471,3.7613,26.836,-1.7183,0.57277,-1.9137,-2.2911,-2.0296e-12,-0.95684,0,0,0.16667,-0,-0,0.66667
0.72461,0.63265,4.3476,0.19898,4.4284,22.255,-2.3069,0.76898,-1.8583,-3.0759,9.1693e-12,-0.92915,0,0,0.16667,-0,-0,0.66667
0.86836,0.68137,5.2101,0.27205,3.074,6.0625,-3.7798,1.2599,-1.736,-5.0397,3.4266e-09,-0.868,0,0,0.16667,-1.579e-15,0,0.66667
0.20632,0.21398,1.2379,-0.42903,-19.548,140.27,1.4163,-0.4721,-1.3458,1.8884,2.986e-10,-0.67292,0,0,0.16667,-2.9606e-16,0,0.66667
0.39895,0.35357,2.3937,-0.21965,-8.748,88.357,1.4021,-0.46736,-1.8272,1.8695,-1.7625e-12,-0.91358,0,0,0.16667,-0,-0,0.66667
0.78884,0.11693,4.7331,-0.5746,-10.28,14.427,7.2523,-2.4174,-0.82494,9.6697,-1.6927e-10,-0.41247,0,0,0.16667,-0,-0,0.66667
0.22269,0.9841,1.3361,0.72615,33.1,135.85,-2.5873,0.86242,-0.12437,-3.4497,-5.1921e-12,-0.062184,0,0,0.16667,3.9475e-16,0,0.66667
0.48218,0.71631,2.8931,0.32446,11.799,68.431,-2.5032,0.8344,-1.6269,-3.3376,2.6978e-13,-0.81344,0,0,0.16667,-8.4411e-16,0,0.66667
0.78097,0.98027,4.6858,0.7204,13.457,15.751,-9.0017,3.0006,-0.15603,-12.002,5.76e-11,-0.078016,0,0,0.16667,1.579e-15,0,0.66667
0.60466,0.8741,3.628,0.56114,16.943,42.949,-5.4288,1.8096,-0.88085,-7.2384,-7.776e-13,-0.44043,0,0,0.16667,-1.1395e-15,0,0.66667
0.19904,0.019905,1.1942,-0.72014,-33.165,142.52,2.2934,-0.76447,-0.15532,3.0579,-2.528e-10,-0.07766,0,0,0.16667,-0,-0,0.66667
0.49234,0.79671,2.954,0.44506,16.016,66.238,-3.5059,1.1686,-1.2942,-4.6746,-2.3137e-13,-0.64709,0,0,0.16667,-0,-0,0.66667
0.98027,0.33228,5.8816,-0.25158,-0.34145,0.44445,3.9458,-1.3153,-1.7742,5.2611,-2.0101e-08,-0.8871,0,0,0.16667,-0,-0,0.66667
0.19192,0.006661,1.1515,-0.74001,-34.201,144.56,2.2723,-0.75744,-0.052503,3.0298,-6.383e-11,-0.026251,0,0,0.16667,-0,-0,0.66667
0.24271,0.98931,1.4562,0.73397,33.137,130.26,-2.8502,0.95008,-0.083228,-3.8003,-2.013e-11,-0.041614,0,0,0.16667,5.9212e-16,0,0.66667
0.41545,0.075015,2.4927,-0.63748,-25.214,84.652,4.2375,-1.4125,-0.55372,5.65,-3.8591e-13,-0.27686,0,0,0.16667,-0,-0,0.66667
0.79504,0.88159,4.7703,0.57238,9.9686,13.708,-7.2811,2.427,-0.83586,-9.7081,2.8124e-12,-0.41793,0,0,0.16667,-0,-0,0.66667
0.85992,0.20208,5.1595,-0.44688,-5.4203,7.0357,6.1485,-2.0495,-1.291,8.198,-2.8767e-09,-0.64548,0,0,0.16667,-0,-0,0.66667
0.76878,0.93642,4.6127,0.65463,12.76,17.054,-8.0524,2.6841,-0.47726,-10.736,1.5985e-11,-0.23863,0,0,0.16667,-1.9737e-15,0,0.66667
0.42266,0.42529,2.5359,-0.11206,-4.3543,82.444,0.75784,-0.25261,-1.9563,1.0105,-1.8652e-14,-0.97813,0,0,0.16667,-3.9475e-16,0,0.66667
0.26259,0.41026,1.5756,-0.1346,-5.9395,124.39,0.56554,-0.18851,-1.9361,0.75405,1.5912e-11,-0.96804,0,0,0.16667,-7.8949e-16,0,0.66667
0.59111,0.54918,3.5467,0.073766,2.261,45.073,-0.69766,0.23255,-1.9804,-0.93021,-6.4715e-13,-0.99021,0,0,0.16667,-0,-0,0.66667
0.55633,0.69535,3.338,0.29302,9.567,52.206,-2.6082,0.86941,-1.6937,-3.4776,-6.6525e-13,-0.84686,0,0,0.16667,-0,-0,0.66667
0.32302,0.30077,1.9381,-0.29885,-12.701,108.04,1.5446,-0.51485,-1.6814,2.0594,-5.376e-12,-0.84068,0,0,0.16667,-7.7728e-16,0,0.66667
0.2448,0.59919,1.4688,0.14879,6.6304,129.34,-0.58278,0.19426,-1.9208,-0.77704,-6.1855e-11,-0.9604,0,0,0.16667,-0,-0,0.66667
0.62917,0.66007,3.775,0.2401,6.837,37.957,-2.4171,0.80568,-1.7951,-3.2227,-2.6856e-12,-0.89755,0,0,0.16667,-1.579e-15,0,0.66667
0.36144,0.13262,2.1686,-0.55107,-22.848,98.159,3.1869,-1.0623,-0.92075,4.2491,-7.9536e-13,-0.46037,0,0,0.16667,-0,-0,0.66667
0.44656,0.0040602,2.6794,-0.74391,-28.58,77.303,5.3152,-1.7717,-0.031814,7.087,-3.8014e-13,-0.015907,0,0,0.16667,-0,-0,0.66667
0.42369,0.47054,2.5421,-0.044197,-1.7149,82.18,0.29961,-0.099871,-1.9946,0.39948,2.9549e-13,-0.99729,0,0,0.16667,-0,-0,0.66667
0.60498,0.78444,3.6299,0.42666,12.816,42.673,-4.13,1.3767,-1.3528,-5.5067,-1.5179e-12,-0.67642,0,0,0.16667,-0,-0,0.66667
0.067117,0.11203,0.4027,-0.58195,-27.673,180.69,0.62494,-0.20831,-0.79483,0.83325,1.1242e-07,-0.39742,0,0,0.16667,9.8686e-17,0,0.66667
0.46478,0.8614,2.7887,0.5421,20.249,72.695,-4.0313,1.3438,-0.95431,-5.3751,-2.9177e-13,-0.47716,0,0,0.16667,7.8949e-16,0,0.66667
0.93632,0.049022,5.6179,-0.67647,-3.9303,2.8271,10.134,-3.3781,-0.37355,13.512,1.9151e-07,-0.18677,0,0,0.16667,-1.579e-15,0,0.66667
0.14808,0.36654,0.8885,-0.20019,-9.29,156.92,0.47432,-0.15811,-1.8563,0.63243,1.2081e-09,-0.92816,0,0,0.16667,-9.8686e-17,0,0.66667
0.88159,0.62735,5.2895,0.19102,1.9386,4.9709,-2.6944,0.89814,-1.87,-3.5926,-1.4961e-09,-0.93501,0,0,0.16667,-3.158e-15,0,0.66667
0.19859,0.79705,1.1915,0.44558,20.376,142.47,-1.4158,0.47194,-1.293,-1.8878,-3.1822e-10,-0.64652,0,0,0.16667,-0,-0,0.66667
0.48283,0.46615,2.897,-0.050771,-1.8394,68.15,0.39222,-0.13074,-1.9924,0.52296,4.1303e-13,-0.99618,0,0,0.16667,8.8818e-16,0,0.66667
0.49097,0.46971,2.9458,-0.045434,-1.6287,66.292,0.3569,-0.11897,-1.9927,0.47587,4.3596e-13,-0.99635,0,0,0.16667,-0,-0,0.66667
0.2348,0.76103,1.4088,0.39155,17.592,132.22,-1.471,0.49033,-1.4561,-1.9613,-9.2345e-11,-0.72805,0,0,0.16667,-0,-0,0.66667
0.59658,0.98386,3.5795,0.72579,22.412,44.835,-6.9279,2.3093,-0.12667,-9.2372,-9.2815e-14,-0.063334,0,0,0.16667,-7.8949e-16,0,0.66667
0.83706,0.94017,5.0224,0.66025,9.3997,9.5891,-8.8427,2.9476,-0.44972,-11.79,-1.3406e-09,-0.22486,0,0,0.16667,-3.158e-15,0,0.66667
0.24277,0.73399,1.4566,0.35099,15.695,129.97,-1.3634,0.45445,-1.5605,-1.8178,-7.3936e-11,-0.78023,0,0,0.16667,-0,-0,0.66667
0.50573,0.24703,3.0344,-0.37945,-13.391,63.163,3.0704,-1.0235,-1.4878,4.0938,3.4639e-13,-0.74392,0,0,0.16667,-9.8686e-16,0,0.66667
0.46839,0.64587,2.8104,0.21881,8.0817,71.546,-1.6398,0.5466,-1.8311,-2.1864,-7.5051e-14,-0.91554,0,0,0.16667,3.9475e-16,0,0.66667
0.8049,0.69937,4.8294,0.29906,4.9081,12.1,-3.8514,1.2838,-1.6806,-5.1352,5.7132e-10,-0.84028,0,0,0.16667,-0,-0,0.66667
0.48547,0.79099,2.9128,0.43648,15.845,67.79,-3.3904,1.1301,-1.3235,-4.5205,-1.6165e-13,-0.66174,0,0,0.16667,-0,-0,0.66667
0.047994,0.56902,0.28796,0.10353,4.8988,186.28,-0.079501,0.0265,-1.9631,-0.106,-7.9153e-08,-0.98154,0,0,0.16667,-0,-0,0.66667
0.29891,0.054888,1.7934,-0.66767,-29.104,114.79,3.1931,-1.0644,-0.41551,4.2575,-1.9056e-12,-0.20776,0,0,0.16667,-1.9737e-16,0,0.66667
0.72163,0.78061,4.3298,0.42092,9.5145,22.953,-4.86,1.62,-1.3712,-6.48,-6.1995e-13,-0.68562,0,0,0.16667,-5.4278e-16,0,0.66667
0.54076,0.55602,3.2446,0.084023,2.8053,55.355,-0.72698,0.24233,-1.9741,-0.96931,-2.8255e-13,-0.98704,0,0,0.16667,-3.9475e-16,0,0.66667
0.71301,0.79379,4.2781,0.44069,10.231,24.26,-5.0275,1.6758,-1.3082,-6.7033,-2.2267e-12,-0.6541,0,0,0.16667,-0,-0,0.66667
0.89043,0.44086,5.3426,-0.088714,-0.83105,4.2817,1.2639,-0.4213,-1.9743,1.6852,-1.3934e-08,-0.98715,0,0,0.16667,-0,-0,0.66667
0.036948,0.26201,0.22169,-0.35698,-16.951,189.56,0.21104,-0.070345,-1.5456,0.28138,-5.7549e-08,-0.77282,0,0,0.16667,9.8686e-17,0,0.66667
0.16157,0.6831,0.96945,0.27465,12.701,153.03,-0.71003,0.23668,-1.7314,-0.94671,-1.6303e-09,-0.86571,0,0,0.16667,-0,-0,0.66667
0.20618,0.93382,1.2371,0.65073,29.813,140.44,-2.1467,0.71556,-0.49495,-2.8623,-1.9227e-11,-0.24748,0,0,0.16667,-0,-0,0.66667
0.54819,0.36489,3.2892,-0.20266,-6.6948,53.836,1.7776,-0.59252,-1.8547,2.3701,-9.6367e-14,-0.92733,0,0,0.16667,7.8949e-16,0,0.66667
0.6875,0.13204,4.125,-0.55194,-13.824,28.41,6.0714,-2.0238,-0.91873,8.0951,3.1997e-12,-0.45936,0,0,0.16667,1.579e-15,0,0.66667
0.34233,0.21535,2.054,-0.42697,-17.925,103.02,2.3387,-0.77955,-1.3533,3.1182,-4.7509e-12,-0.67663,0,0,0.16667,-9.8686e-17,0,0.66667
0.8698,0.73147,5.2188,0.3472,3.898,6.0564,-4.8319,1.6106,-1.5702,-6.4425,4.0345e-09,-0.78511,0,0,0.16667,-1.579e-15,0,0.66667
0.8792,0.14304,5.2752,-0.53544,-5.6812,5.7326,7.5321,-2.5107,-0.97978,10.043,-6.4468e-09,-0.48989,0,0,0.16667,-1.579e-15,0,0.66667
0.19012,0.73826,1.1407,0.35738,16.373,144.85,-1.0871,0.36238,-1.5457,-1.4495,-6.3172e-10,-0.77286,0,0,0.16667,-1.9737e-16,0,0.66667
0.53183,0.077815,3.191,-0.63328,-21.694,57.823,5.3887,-1.7962,-0.57505,7.1849,-4.4897e-13,-0.28752,0,0,0.16667,-0,-0,0.66667
0.98953,0.23623,5.9372,-0.39565,-0.22894,0.53348,6.2642,-2.0881,-1.4422,8.3522,-8.9595e-08,-0.72111,0,0,0.16667,-1.1718e-15,0,0.66667
0.057573,0.18054,0.34544,-0.4792,-22.76,183.48,0.44142,-0.14714,-1.1829,0.58856,1.8563e-08,-0.59146,0,0,0.16667,-4.9343e-17,0,0.66667
0.083431,0.12343,0.50058,-0.56485,-26.782,175.89,0.75402,-0.25134,-0.86571,1.0054,4.309e-08,-0.43286,0,0,0.16667,1.2336e-16,0,0.66667
0.41763,0.37178,2.5058,-0.19233,-7.5169,83.707,1.2852,-0.42839,-1.8686,1.7135,-7.9325e-13,-0.93431,0,0,0.16667,-7.8949e-16,0,0.66667
0.85461,0.86451,5.1277,0.54677,6.9271,7.7097,-7.4764,2.4921,-0.93614,-9.9685,3.1398e-09,-0.46807,0,0,0.16667,-0,-0,0.66667
0.39859,0.87339,2.3915,0.56008,22.468,88.731,-3.5719,1.1906,-0.88448,-4.7625,1.1458e-12,-0.44224,0,0,0.16667,8.3884e-16,0,0.66667
0.0099489,0.23513,0.059693,-0.3973,-18.902,197.55,0.063244,-0.021081,-1.4374,0.084325,9.8433e-08,-0.71872,0,0,0.16667,-1.1782e-17,0,0.66667
0.64554,0.83317,3.8733,0.49976,13.83,35.352,-5.1619,1.7206,-1.111,-6.8825,-2.879e-12,-0.5555,0,0,0.16667,7.8949e-16,0,0.66667
0.2938,0.61627,1.7628,0.1744,7.5525,115.85,-0.81984,0.27328,-1.8917,-1.0931,-5.0976e-13,-0.94586,0,0,0.16667,-1.9737e-16,0,0.66667
0.14993,0.39599,0.89958,-0.15601,-7.233,156.38,0.37425,-0.12475,-1.9122,0.49899,2.2649e-09,-0.95611,0,0,0.16667,1.9737e-16,0,0.66667
0.10779,0.76584,0.64671,0.39876,18.751,168.71,-0.68768,0.22923,-1.435,-0.91691,-8.9025e-09,-0.71748,0,0,0.16667,-1.9737e-16,0,0.66667
0.8689,0.90366,5.2134,0.60549,6.998,6.6976,-8.4178,2.8059,-0.69624,-11.224,1.2449e-08,-0.34812,0,0,0.16667,4.5462e-16,0,0.66667
0.0032652,0.16902,0.019591,-0.49647,-23.668,199.53,0.025937,-0.0086455,-1.1231,0.034584,5.5815e-07,-0.56156,0,0,0.16667,6.1679e-18,0,0.66667
0.51859,0.51887,3.1115,0.028305,0.97677,60.129,-0.23486,0.078286,-1.9968,-0.31314,2.4633e-14,-0.9984,0,0,0.16667,-1.579e-15,0,0.66667
0.55082,0.56016,3.3049,0.090235,2.9653,53.237,-0.79525,0.26508,-1.9715,-1.0603,-6.7391e-13,-0.98573,0,0,0.16667,1.0856e-15,0,0.66667
0.11595,0.8304,0.6957,0.4956,23.306,166.35,-0.91944,0.30648,-1.1252,-1.2259,-2.6604e-09,-0.56262,0,0,0.16667,1.9737e-16,0,0.66667
0.20004,0.71909,1.2002,0.32864,14.988,142.01,-1.0519,0.35062,-1.6172,-1.4025,-4.6281e-10,-0.80858,0,0,0.16667,7.8949e-16,0,0.66667
0.86222,0.77056,5.1733,0.40584,4.8307,6.7657,-5.5987,1.8662,-1.4142,-7.465,4.061e-09,-0.7071,0,0,0.16667,-0,-0,0.66667
0.11697,0.99245,0.70183,0.73867,34.958,166.14,-1.3825,0.46082,-0.058878,-1.8433,-1.1039e-08,-0.029439,0,0,0.16667,-0,-0,0.66667
0.8247,0.20683,4.9482,-0.43975,-6.5834,10.248,5.8026,-1.9342,-1.3119,7.7368,-9.7682e-10,-0.65595,0,0,0.16667,-0,-0,0.66667
0.19309,0.65675,1.1585,0.23513,10.742,143.97,-0.72641,0.24214,-1.8037,-0.96854,-5.2466e-10,-0.90186,0,0,0.16667,-0,-0,0.66667
0.99555,0.84449,5.9733,0.51673,0.06211,0.75244,-8.2309,2.7436,-1.0512,-10.974,5.7251e-07,-0.52559,0,0,0.16667,-0,1.8184e-17,0.66667
0.47141,0.5506,2.8285,0.075894,2.7895,70.791,-0.57244,0.19081,-1.9793,-0.76325,2.4036e-14,-0.98967,0,0,0.16667,7.8949e-16,0,0.66667
0.54727,0.051508,3.2836,-0.67274,-22.543,54.63,5.8907,-1.9636,-0.39209,7.8543,-7.7405e-13,-0.19604,0,0,0.16667,7.8949e-16,0,0.66667
0.082274,0.82521,0.49364,0.48782,23.093,176.21,-0.64216,0.21405,-1.153,-0.85621,-1.4553e-08,-0.57652,0,0,0.16667,-1.9737e-16,0,0.66667
0.051293,0.18006,0.30776,-0.47992,-22.81,185.34,0.39386,-0.13129,-1.1806,0.52515,-1.0898e-08,-0.59028,0,0,0.16667,-0,-0,0.66667
0.20742,0.92561,1.2445,0.63842,29.223,140.08,-2.1188,0.70626,-0.54998,-2.825,-3.6543e-11,-0.27499,0,0,0.16667,-0,-0,0.66667
0.16079,0.48158,0.96473,-0.027637,-1.2762,153.23,0.071101,-0.0237,-1.9963,0.094801,3.3041e-10,-0.99815,0,0,0.16667,-0,-0,0.66667
0.45106,0.29321,2.7064,-0.31018,-11.709,75.685,2.2386,-0.74619,-1.6581,2.9847,-1.7897e-13,-0.82903,0,0,0.16667,-7.8949e-16,0,0.66667
0.62995,0.83047,3.7797,0.49571,14.189,38.132,-4.9963,1.6654,-1.1252,-6.6617,-1.8079e-12,-0.5626,0,0,0.16667,-0,-0,0.66667
0.72633,0.68441,4.358,0.27661,6.1335,22.077,-3.2146,1.0715,-1.7275,-4.2861,1.1559e-11,-0.86375,0,0,0.16667,-9.8686e-16,0,0.66667
0.45605,0.7094,2.7363,0.3141,11.79,74.507,-2.2919,0.76397,-1.6491,-3.0559,-2.3226e-13,-0.82454,0,0,0.16667,-0,-0,0.66667
0.37693,0.88298,2.2616,0.57448,23.519,94.213,-3.4646,1.1549,-0.82711,-4.6195,1.7306e-12,-0.41356,0,0,0.16667,-0,-0,0.66667
0.064415,0.017369,0.38649,-0.72395,-34.576,181.52,0.74612,-0.24871,-0.13668,0.99483,-5.2906e-07,-0.068342,0,0,0.16667,-1.9737e-16,0,0.66667
0.53834,0.38627,3.23,-0.17059,-5.721,55.902,1.4694,-0.48979,-1.8951,1.9592,3.1797e-13,-0.94757,0,0,0.16667,-0,-0,0.66667
0.45104,0.69432,2.7062,0.29148,11,75.678,-2.1035,0.70116,-1.6985,-2.8047,3.364e-13,-0.84924,0,0,0.16667,-0,-0,0.66667
0.40236,0.24368,2.4141,-0.38448,-15.302,87.613,2.4752,-0.82506,-1.4742,3.3003,-1.8452e-12,-0.7371,0,0,0.16667,4.3562e-16,0,0.66667
0.073837,0.21207,0.44302,-0.43189,-20.449,178.68,0.51024,-0.17008,-1.3364,0.68032,2.1325e-08,-0.66819,0,0,0.16667,-9.8686e-17,0,0.66667
0.19382,0.35916,1.1629,-0.21126,-9.6463,143.76,0.65514,-0.21838,-1.8399,0.87352,5.319e-10,-0.91993,0,0,0.16667,-0,-0,0.66667
0.60843,0.69692,3.6506,0.29538,8.7842,41.864,-2.8755,0.95851,-1.6908,-3.8341,-2.3848e-12,-0.84538,0,0,0.16667,1.579e-15,0,0.66667
0.91508,0.77214,5.4905,0.40821,3.0188,3.1463,-5.9767,1.9922,-1.4063,-7.969,9.6792e-09,-0.70316,0,0,0.16667,-7.8949e-16,0,0.66667
0.63152,0.47343,3.7891,-0.039862,-1.1271,37.436,0.40278,-0.13426,-1.9937,0.53704,1.3837e-12,-0.99686,0,0,0.16667,-1.579e-15,0,0.66667
0.57768,0.17616,3.4661,-0.48577,-15.371,48.089,4.4898,-1.4966,-1.1622,5.9865,7.9181e-13,-0.58109,0,0,0.16667,-0,-2.6007e-17,0.66667
0.34238,0.69081,2.0543,0.28622,11.985,102.91,-1.5679,0.52265,-1.7102,-2.0906,4.7508e-12,-0.85511,0,0,0.16667,-0,-0,0.66667
0.13547,0.12426,0.81283,-0.56361,-26.414,160.69,1.2216,-0.40722,-0.87091,1.6289,-8.0337e-09,-0.43546,0,0,0.16667,2.3438e-16,0,0.66667
0.50839,0.27324,3.0503,-0.34014,-11.949,62.534,2.7668,-0.92225,-1.5875,3.689,-2.2093e-13,-0.79376,0,0,0.16667,3.9475e-16,0,0.66667
0.64626,0.39138,3.8776,-0.16293,-4.4637,34.84,1.6847,-0.56157,-1.9043,2.2463,2.7255e-12,-0.95215,0,0,0.16667,-7.8949e-16,0,0.66667
0.96752,0.81559,5.8051,0.47339,1.2861,1.1549,-7.3282,2.4427,-1.2048,-9.7709,-1.4896e-07,-0.60242,0,0,0.16667,-0,-0,0.66667
0.76195,0.85486,4.5717,0.53229,10.562,17.624,-6.4893,2.1631,-0.99201,-8.6524,3.7701e-11,-0.496,0,0,0.16667,-0,-0,0.66667
0.183,0.64412,1.098,0.21618,9.9135,146.85,-0.63297,0.21099,-1.8329,-0.84396,-7.3681e-10,-0.91645,0,0,0.16667,1.9737e-16,0,0.66667
0.23966,0.22336,1.438,-0.41496,-18.606,130.87,1.5912,-0.5304,-1.3874,2.1216,5.9871e-11,-0.69369,0,0,0.16667,7.8949e-16,0,0.66667
0.95701,0.3396,5.742,-0.2406,-0.84581,1.0379,3.6841,-1.228,-1.7943,4.9121,3.9254e-08,-0.89715,0,0,0.16667,3.9475e-16,0,0.66667
0.758,0.23111,4.548,-0.40333,-8.0693,17.892,4.8916,-1.6305,-1.4201,6.5222,-5.6432e-11,-0.71006,0,0,0.16667,-0,-0,0.66667
0.19292,0.84703,1.1575,0.52055,23.899,144.13,-1.6068,0.5356,-1.0363,-2.1424,-3.9907e-10,-0.51817,0,0,0.16667,-0,-0,0.66667
0.70195,0.38441,4.2117,-0.17338,-4.1259,25.632,1.9473,-0.6491,-1.894,2.5964,-9.3814e-14,-0.94698,0,0,0.16667,1.579e-15,0,0.66667
0.83347,0.60193,5.0008,0.15289,2.1551,9.0105,-2.0389,0.67962,-1.916,-2.7185,4.5192e-10,-0.95801,0,0,0.16667,-0,-0,0.66667
0.43625,0.13515,2.6175,-0.54728,-21.121,79.471,3.82,-1.2733,-0.9358,5.0933,-1.3924e-12,-0.4679,0,0,0.16667,-0,-0,0.66667
0.0094767,0.45364,0.05686,-0.069545,-3.2976,197.69,0.010545,-0.0035158,-1.9814,0.01406,-1.0703e-06,-0.9907,0,0,0.16667,1.2336e-17,0,0.66667
0.66811,0.47907,4.0087,-0.031388,-0.81584,31.037,0.33553,-0.11184,-1.9959,0.44738,6.1234e-13,-0.99797,0,0,0.16667,-0,-0,0.66667
0.069735,0.47072,0.41841,-0.043927,-2.0727,179.86,0.049013,-0.016338,-1.9929,0.06535,-1.1528e-07,-0.99646,0,0,0.16667,1.9737e-16,0,0.66667
0.2378,0.35642,1.4268,-0.21538,-9.6382,131.31,0.81947,-0.27316,-1.8345,1.0926,9.1448e-11,-0.91725,0,0,0.16667,-3.9475e-16,0,0.66667
0.097031,0.025205,0.58219,-0.71219,-33.823,171.95,1.1057,-0.36856,-0.19664,1.4742,-5.6865e-08,-0.09832,0,0,0.16667,-0,-0,0.66667
0.87047,0.11661,5.2228,-0.57508,-6.5498,6.4923,8.0095,-2.6698,-0.82344,10.679,-3.8599e-09,-0.41172,0,0,0.16667,-0,-0,0.66667
0.83404,0.4647,5.0042,-0.05295,-0.74288,8.9106,0.7066,-0.23553,-1.9896,0.94213,4.6829e-10,-0.9948,0,0,0.16667,4.9385e-16,0,0.66667
0.23516,0.93252,1.411,0.64878,29.324,132.29,-2.4411,0.8137,-0.50502,-3.2548,-1.3468e-11,-0.25251,0,0,0.16667,4.9343e-16,0,0.66667
0.75438,0.78506,4.5263,0.4276,8.6758,18.407,-5.1611,1.7204,-1.3499,-6.8815,3.6345e-11,-0.67495,0,0,0.16667,-1.579e-15,0,0.66667
0.50836,0.37029,3.0502,-0.19457,-6.8198,62.434,1.5826,-0.52753,-1.8647,2.1101,-2.9865e-13,-0.93235,0,0,0.16667,1.9737e-16,0,0.66667
0.42116,0.14188,2.5269,-0.53718,-21.058,83.123,3.6197,-1.2066,-0.9749,4.8263,-1.559e-12,-0.48745,0,0,0.16667,7.8949e-16,-2.537e-16,0.66667
0.21872,0.14525,1.3123,-0.53212,-24.166,136.82,1.8622,-0.62072,-0.99474,2.4829,5.0617e-11,-0.49737,0,0,0.16667,-1.9737e-16,2.6296e-16,0.66667
0.22166,0.93891,1.3299,0.65837,29.961,136.08,-2.3349,0.77831,-0.45985,-3.1132,-1.0794e-11,-0.22993,0,0,0.16667,-0,-0,0.66667
0.090802,0.76097,0.54481,0.39146,18.469,173.69,-0.56872,0.18957,-1.4549,-0.7583,-1.0375e-08,-0.72745,0,0,0.16667,-0,-0,0.66667
0.24882,0.026728,1.4929,-0.70991,-31.923,128.54,2.8262,-0.94207,-0.20953,3.7683,5.8376e-13,-0.10477,0,0,0.16667,-1.9737e-16,9.7719e-17,0.66667
0.58965,0.62878,3.5379,0.19316,5.9429,45.409,-1.8224,0.60746,-1.8674,-2.4298,-7.766e-13,-0.93372,0,0,0.16667,-0,-0,0.66667
0.88221,0.63154,5.2933,0.19731,1.9925,4.9314,-2.7851,0.92838,-1.8606,-3.7135,-4.2002e-10,-0.93031,0,0,0.16667,-0,-0,0.66667
0.15505,0.93265,0.93029,0.64898,30.307,155.06,-1.61,0.53665,-0.50387,-2.1466,-5.024e-09,-0.25193,0,0,0.16667,9.1807e-17,0,0.66667
0.26188,0.66923,1.5713,0.25385,11.218,124.62,-1.0637,0.35455,-1.7702,-1.4182,-2.6702e-11,-0.88509,0,0,0.16667,-0,-0,0.66667
0.63358,0.49126,3.8015,-0.01311,-0.36903,37.06,0.1329,-0.044301,-1.9982,0.1772,3.0359e-13,-0.9991,0,0,0.16667,1.579e-15,0,0.66667
0.1012,0.7394,0.60718,0.35909,16.899,170.63,-0.58142,0.19381,-1.5402,-0.77523,-7.3129e-09,-0.77008,0,0,0.16667,9.8686e-17,0,0.66667
0.51534,0.57134,3.0921,0.10701,3.711,60.855,-0.88231,0.2941,-1.9608,-1.1764,-1.1313e-13,-0.98039,0,0,0.16667,-0,-0,0.66667
0.44685,0.77241,2.6811,0.40861,15.529,76.773,-2.9214,0.9738,-1.4053,-3.8952,8.6575e-13,-0.70263,0,0,0.16667,-3.9475e-16,0,0.66667
0.050434,0.58372,0.30261,0.12559,5.9416,185.56,-0.10134,0.033781,-1.9435,-0.13512,3.7779e-08,-0.97173,0,0,0.16667,-0,-0,0.66667
0.76578,0.93336,4.5947,0.65005,12.81,17.42,-7.9646,2.6549,-0.49976,-10.62,1.4204e-11,-0.24988,0,0,0.16667,3.9475e-16,0,0.66667
0.095195,0.17618,0.57117,-0.48573,-22.939,172.42,0.73983,-0.24661,-1.1617,0.98644,1.6604e-08,-0.58083,0,0,0.16667,-0,-0,0.66667
0.33837,0.15823,2.0302,-0.51265,-21.631,104.13,2.7755,-0.92515,-1.0656,3.7006,-3.6593e-12,-0.5328,0,0,0.16667,-0,-0,0.66667
0.57897,0.89137,3.4738,0.58705,18.6,48,-5.4382,1.8127,-0.77543,-7.2509,-2.8422e-13,-0.38771,0,0,0.16667,-7.8949e-16,0,0.66667
0.85085,0.17392,5.1051,-0.48912,-6.3171,7.8985,6.6588,-2.2196,-1.1479,8.8783,-1.4181e-09,-0.57394,0,0,0.16667,-0,-0,0.66667
0.26085,0.13156,1.5651,-0.55266,-24.575,125.07,2.3066,-0.76888,-0.91348,3.0755,-2.0461e-12,-0.45674,0,0,0.16667,-0,-0,0.66667
0.81028,0.34521,4.8617,-0.23218,-3.7051,11.44,3.0101,-1.0034,-1.8097,4.0135,-6.5529e-10,-0.90484,0,0,0.16667,3.158e-15,0,0.66667
0.43666,0.88637,2.62,0.57956,22.378,79.413,-4.0492,1.3497,-0.80664,-5.3989,8.1046e-13,-0.40332,0,0,0.16667,-7.8949e-16,0,0.66667
0.82762,0.9403,4.9657,0.66046,9.9011,10.494,-8.7457,2.9152,-0.45122,-11.661,-1.1166e-09,-0.22561,0,0,0.16667,-0,-6.4487e-17,0.66667
0.92159,0.2574,5.5296,-0.36391,-2.4695,2.7162,5.366,-1.7887,-1.5308,7.1546,-6.5061e-09,-0.7654,0,0,0.16667,-0,-0,0.66667
0.4382,0.095884,2.6292,-0.60617,-23.387,79.08,4.2501,-1.4167,-0.69567,5.6667,4.6185e-14,-0.34784,0,0,0.16667,-1.579e-15,0,0.66667
0.26206,0.77643,1.5723,0.41464,18.368,124.65,-1.7385,0.57952,-1.3888,-2.3181,-2.2176e-11,-0.69442,0,0,0.16667,5.9212e-16,0,0.66667
0.46144,0.92486,2.7686,0.63729,23.973,73.615,-4.7052,1.5684,-0.55446,-6.2736,9.468e-13,-0.27723,0,0,0.16667,-7.8949e-16,0,0.66667
0.094812,0.0021036,0.56887,-0.74684,-35.523,172.61,1.133,-0.37765,-0.018715,1.5106,1.9153e-08,-0.0093574,0,0,0.16667,-0,-0,0.66667
0.65878,0.3059,3.9527,-0.29115,-7.7659,32.768,3.0689,-1.023,-1.699,4.0918,3.7477e-12,-0.84948,0,0,0.16667,1.1842e-15,0,0.66667
0.63235,0.068554,3.7941,-0.64717,-18.546,37.989,6.5478,-2.1826,-0.50994,8.7304,1.0925e-13,-0.25497,0,0,0.16667,-0,-0,0.66667
0.4968,0.75362,2.9808,0.38042,13.589,65.162,-3.0239,1.008,-1.4859,-4.0319,9.5479e-14,-0.74296,0,0,0.16667,-0,-0,0.66667
0.47016,0.6291,2.8209,0.19365,7.1353,71.123,-1.4568,0.48559,-1.868,-1.9424,-1.8319e-14,-0.93401,0,0,0.16667,-1.579e-15,0,0.66667
0.12851,0.39432,0.77104,-0.15852,-7.395,162.61,0.32593,-0.10864,-1.9101,0.43458,1.4142e-09,-0.95505,0,0,0.16667,-0,-0,0.66667
0.33439,0.65505,2.0063,0.23257,9.7926,104.99,-1.2443,0.41477,-1.8077,-1.6591,3.1829e-12,-0.90385,0,0,0.16667,4.9343e-16,0,0.66667
0.2686,0.044112,1.6116,-0.68383,-30.389,123.06,2.9388,-0.9796,-0.33696,3.9184,-3.6593e-13,-0.16848,0,0,0.16667,-0,-0,0.66667
0.53581,0.33024,3.2149,-0.25463,-8.5821,56.492,2.183,-0.72766,-1.7685,2.9106,-8.3711e-14,-0.88423,0,0,0.16667,-0,-0,0.66667
0.41981,0.20545,2.5188,-0.44183,-17.302,83.348,2.9677,-0.98924,-1.306,3.957,-5.8153e-13,-0.653,0,0,0.16667,-7.8949e-16,0,0.66667
0.83603,0.20952,5.0162,-0.43572,-6.128,9.1368,5.8285,-1.9428,-1.3237,7.7713,-1.3781e-09,-0.66185,0,0,0.16667,-0,-0,0.66667
0.70121,0.67707,4.2072,0.26561,6.345,25.823,-2.98,0.99332,-1.7495,-3.9733,-2.3688e-12,-0.87474,0,0,0.16667,7.8949e-16,0,0.66667
0.4959,0.20641,2.9754,-0.44038,-15.772,65.43,3.4941,-1.1647,-1.3096,4.6589,-5.6932e-13,-0.65482,0,0,0.16667,7.8949e-16,0,0.66667
0.59952,0.74057,3.5971,0.36086,10.934,43.637,-3.4615,1.1538,-1.5359,-4.6153,-9.7389e-13,-0.76796,0,0,0.16667,-7.8949e-16,0,0.66667
0.39672,0.19321,2.3803,-0.46018,-18.445,89.091,2.921,-0.97366,-1.2463,3.8946,-8.9218e-13,-0.62317,0,0,0.16667,-7.8949e-16,0,0.66667
0.21745,0.25738,1.3047,-0.36393,-16.48,137.09,1.2662,-0.42206,-1.5301,1.6882,2.2947e-10,-0.76503,0,0,0.16667,-0,-0,0.66667
0.74224,0.067516,4.4534,-0.64873,-13.889,20.515,7.7042,-2.5681,-0.5029,10.272,-2.6525e-12,-0.25145,0,0,0.16667,1.579e-15,0,0.66667
0.92264,0.03978,5.5358,-0.69033,-4.8671,3.5093,10.191,-3.3969,-0.30678,13.588,-6.3259e-07,-0.15339,0,0,0.16667,-0,-0,0.66667
0.26129,0.86916,1.5677,0.55373,24.618,124.95,-2.3149,0.77164,-0.90949,-3.0866,1.469e-12,-0.45475,0,0,0.16667,-0,-0,0.66667
0.63229,0.85857,3.7938,0.53785,15.343,37.781,-5.4412,1.8137,-0.96992,-7.255,-1.3172e-12,-0.48496,0,0,0.16667,-0,-0,0.66667
0.70958,0.56351,4.2575,0.095258,2.2155,24.425,-1.0815,0.3605,-1.9678,-1.442,1.4543e-12,-0.98389,0,0,0.16667,-0,-0,0.66667
0.73708,0.73766,4.4225,0.35649,7.654,20.648,-4.2042,1.4014,-1.5479,-5.6055,1.9964e-11,-0.77397,0,0,0.16667,-0,-0,0.66667
0.27022,0.14358,1.6213,-0.53463,-23.635,122.48,2.3115,-0.77049,-0.98274,3.082,2.7378e-13,-0.49137,0,0,0.16667,3.9475e-16,0,0.66667
0.10234,0.55983,0.61406,0.089748,4.2112,170.26,-0.14696,0.048987,-1.971,-0.19595,-1.9713e-08,-0.98551,0,0,0.16667,2.9606e-16,0,0.66667
0.71856,0.61273,4.3113,0.16909,3.8321,23.12,-1.944,0.64801,-1.8997,-2.592,5.5764e-12,-0.94983,0,0,0.16667,-8.5094e-16,0,0.66667
0.44319,0.60296,2.6592,0.15443,5.8705,77.478,-1.0951,0.36503,-1.9142,-1.4601,-1.8652e-14,-0.95708,0,0,0.16667,-0,-0,0.66667
0.6827,0.5378,4.0962,0.056698,1.4202,28.631,-0.61933,0.20644,-1.988,-0.82577,-1.0582e-12,-0.99402,0,0,0.16667,-0,-0,0.66667
0.058429,0.079962,0.35057,-0.63006,-30.031,183.26,0.58902,-0.19634,-0.58769,0.78536,8.4304e-08,-0.29385,0,0,0.16667,-0,3.8422e-17,0.66667
0.65428,0.65854,3.9257,0.23781,6.4037,33.492,-2.4896,0.82985,-1.8003,-3.3194,-4.0474e-12,-0.90013,0,0,0.16667,-0,-0,0.66667
0.28838,0.50181,1.7303,0.0027126,0.11779,117.3,-0.012516,0.0041719,-1.9998,-0.016688,5.4474e-13,-0.99989,0,0,0.16667,-0,-0,0.66667
0.87785,0.94264,5.2671,0.66396,7.2268,6.1927,-9.3257,3.1086,-0.43297,-12.434,5.2179e-08,-0.21648,0,0,0.16667,-0,-0,0.66667
0.1653,0.16239,0.9918,-0.50642,-23.483,152.04,1.3394,-0.44646,-1.0873,1.7858,2.04e-09,-0.54365,0,0,0.16667,-0,-0,0.66667
0.44557,0.6772,2.6734,0.2658,10.09,76.965,-1.8949,0.63164,-1.7475,-2.5266,3.1442e-13,-0.87373,0,0,0.16667,-3.9475e-16,0,0.66667
0.96915,0.79812,5.8149,0.44718,1.1357,1.0502,-6.9342,2.3114,-1.2901,-9.2456,-1.5323e-07,-0.64504,0,0,0.16667,1.579e-15,0,0.66667
0.086128,0.09899,0.51677,-0.60151,-28.533,175.11,0.82892,-0.27631,-0.71274,1.1052,-1.0243e-07,-0.35637,0,0,0.16667,-1.9737e-16,0,0.66667
0.40046,0.55068,2.4028,0.076022,3.02,87.934,-0.48711,0.16237,-1.9782,-0.64948,1.843e-13,-0.9891,0,0,0.16667,-0,-0,0.66667
0.28546,0.22438,1.7128,-0.41343,-18.06,118.22,1.8883,-0.62943,-1.392,2.5177,-8.693e-13,-0.69602,0,0,0.16667,7.8949e-16,0,0.66667
0.082679,0.83941,0.49607,0.50912,24.111,176.1,-0.67349,0.2245,-1.0782,-0.89799,-8.443e-09,-0.53912,0,0,0.16667,4.9343e-17,0,0.66667
0.70977,0.10768,4.2586,-0.58848,-13.885,25.034,6.683,-2.2277,-0.76722,8.9107,3.106e-12,-0.38361,0,0,0.16667,-0,-0,0.66667
0.56244,0.5588,3.3746,0.088205,2.8438,50.829,-0.79376,0.26459,-1.9747,-1.0584,-4.492e-13,-0.98734,0,0,0.16667,1.9737e-16,0,0.66667
0.98804,0.26266,5.9283,-0.35601,-0.24535,0.47658,5.6281,-1.876,-1.5487,7.5041,-5.4934e-08,-0.77435,0,0,0.16667,1.579e-15,0,0.66667
0.22761,0.11116,1.3657,-0.58326,-26.411,134.35,2.1241,-0.70802,-0.78897,2.8321,1.5579e-11,-0.39448,0,0,0.16667,-2.6954e-16,0,0.66667
0.10466,0.077583,0.62797,-0.63363,-29.975,169.69,1.0611,-0.35369,-0.57143,1.4148,-4.0692e-08,-0.28571,0,0,0.16667,1.9737e-16,0,0.66667
0.46991,0.1978,2.8194,-0.4533,-16.786,71.391,3.4082,-1.1361,-1.2702,4.5442,-1.2657e-13,-0.63509,0,0,0.16667,-0,-0,0.66667
0.72526,0.37891,4.3516,-0.18163,-4.0326,22.147,2.1076,-0.70255,-1.8822,2.8102,-9.6461e-12,-0.9411,0,0,0.16667,-0,-0,0.66667
0.20312,0.70621,1.2187,0.30932,14.085,141.13,-1.0052,0.33508,-1.6613,-1.3403,-4.1435e-10,-0.83063,0,0,0.16667,-1.9737e-16,0,0.66667
0.19345,0.1337,1.1607,-0.54945,-25.238,143.99,1.7007,-0.56688,-0.92555,2.2675,5.5723e-11,-0.46278,0,0,0.16667,-0,-0,0.66667
0.01645,0.13756,0.098697,-0.54366,-25.938,195.64,0.14309,-0.047696,-0.94995,0.19078,-2.1107e-07,-0.47498,0,0,0.16667,-0,-0,0.66667
0.61338,0.56042,3.6803,0.090624,2.6613,40.801,-0.88939,0.29646,-1.9712,-1.1859,-1.1947e-12,-0.98562,0,0,0.16667,-0,-0,0.66667
0.58667,0.097704,3.52,-0.60344,-18.872,46.506,5.6644,-1.8881,-0.7047,7.5525,5.3069e-13,-0.35235,0,0,0.16667,1.579e-15,0,0.66667
0.46014,0.28463,2.7609,-0.32305,-12.07,73.548,2.3784,-0.7928,-1.6285,3.1712,4.8739e-13,-0.81423,0,0,0.16667,-1.579e-15,0,0.66667
0.7062,0.97831,4.2372,0.71747,17.228,25.891,-8.1069,2.7023,-0.16951,-10.809,5.258e-13,-0.084754,0,0,0.16667,-1.579e-15,0,0.66667
0.059315,0.41156,0.35589,-0.13265,-6.27,182.94,0.12589,-0.041964,-1.9377,0.16786,4.6564e-08,-0.96883,0,0,0.16667,-0,-0,0.66667
0.66498,0.37536,3.9899,-0.18695,-4.9033,31.624,1.9891,-0.66304,-1.8759,2.6522,3.0709e-12,-0.93793,0,0,0.16667,1.579e-15,0,0.66667
0.18851,0.4474,1.1311,-0.078903,-3.6072,145.25,0.23799,-0.079329,-1.9788,0.31732,1.8231e-10,-0.98938,0,0,0.16667,-0,-0,0.66667
0.13418,0.26542,0.80511,-0.35187,-16.425,160.99,0.75545,-0.25182,-1.5583,1.0073,3.5952e-09,-0.77916,0,0,0.16667,-0,-0,0.66667
0.89487,0.59422,5.3692,0.14133,1.2718,4.0126,-2.0236,0.67452,-1.9297,-2.6981,-1.5691e-08,-0.96483,0,0,0.16667,-3.158e-15,0,0.66667
0.68858,0.36354,4.1315,-0.20469,-5.0562,27.756,2.2552,-0.75172,-1.8518,3.0069,3.2117e-12,-0.92589,0,0,0.16667,-0,-0,0.66667
0.63478,0.56155,3.8087,0.092321,2.5927,36.857,-0.93765,0.31255,-1.9698,-1.2502,-8.6758e-13,-0.98492,0,0,0.16667,-1.1349e-15,0,0.66667
0.062431,0.3765,0.37459,-0.18525,-8.756,182.02,0.18505,-0.061683,-1.8807,0.24673,-3.3304e-08,-0.94035,0,0,0.16667,1.9737e-16,0,0.66667
0.10037,0.94613,0.60222,0.66919,31.718,170.96,-1.0747,0.35822,-0.40662,-1.4329,3.2599e-08,-0.20331,0,0,0.16667,1.9737e-16,0,0.66667
0.41814,0.0010114,2.5089,-0.74848,-29.644,84.164,5.0076,-1.6692,-0.008831,6.6768,8.6153e-14,-0.0044155,0,0,0.16667,-0,-0,0.66667
0.77618,0.4522,4.6571,-0.071707,-1.3269,15.265,0.89052,-0.29684,-1.9805,1.1874,-6.7944e-11,-0.99027,0,0,0.16667,-0,-0,0.66667
0.0092608,0.82901,0.055565,0.49352,23.523,197.76,-0.073125,0.024375,-1.1326,-0.097501,-2.5074e-07,-0.56629,0,0,0.16667,-0,-0,0.66667
0.46474,0.586,2.7884,0.12901,4.7818,72.361,-0.95927,0.31976,-1.9404,-1.279,1.2268e-14,-0.9702,0,0,0.16667,-1.1957e-16,0,0.66667
0.20022,0.36077,1.2013,-0.20884,-9.5102,141.93,0.66905,-0.22302,-1.8445,0.89207,4.2743e-10,-0.92227,0,0,0.16667,-3.9475e-16,0,0.66667
0.89358,0.11128,5.3615,-0.58308,-5.5053,4.8604,8.3366,-2.7789,-0.79076,11.115,-1.9044e-08,-0.39538,0,0,0.16667,1.579e-15,0,0.66667
0.59828,0.60656,3.5897,0.15984,4.8371,43.708,-1.5301,0.51004,-1.9082,-2.0401,-1.1968e-12,-0.95409,0,0,0.16667,-0,-0,0.66667
0.68755,0.3002,4.1253,-0.2997,-7.4383,28.008,3.297,-1.099,-1.6821,4.396,4.1833e-12,-0.84103,0,0,0.16667,7.8949e-16,0,0.66667
0.80757,0.22143,4.8454,-0.41786,-6.8083,11.992,5.3992,-1.7997,-1.3792,7.1989,-5.6033e-10,-0.68961,0,0,0.16667,-3.158e-15,0,0.66667
0.5879,0.87413,3.5274,0.56119,17.483,46.189,-5.2787,1.7596,-0.8804,-7.0383,-9.8233e-13,-0.4402,0,0,0.16667,7.8949e-16,0,0.66667
0.84743,0.9362,5.0846,0.6543,8.7613,8.6276,-8.8716,2.9572,-0.47854,-11.829,8.7981e-09,-0.23927,0,0,0.16667,6.9081e-16,0,0.66667
0.47046,0.23204,2.8227,-0.40194,-14.856,71.208,3.0255,-1.0085,-1.4259,4.034,-1.0036e-13,-0.71293,0,0,0.16667,-7.8949e-16,0,0.66667
0.17437,0.54799,1.0462,0.07199,3.3089,149.31,-0.20085,0.066951,-1.9814,-0.2678,-4.5231e-10,-0.9907,0,0,0.16667,1.9737e-16,0,0.66667
0.64155,0.75616,3.8493,0.38425,10.687,35.882,-3.9442,1.3147,-1.4764,-5.2589,-3.5034e-12,-0.7382,0,0,0.16667,-0,-0,0.66667
0.97645,0.26735,5.8587,-0.34897,-0.62031,0.67584,5.4521,-1.8174,-1.5655,7.2694,4.0861e-08,-0.78273,0,0,0.16667,1.579e-15,0,0.66667
0.35024,0.7531,2.1015,0.37965,15.823,100.91,-2.1275,0.70917,-1.4872,-2.8367,4.5079e-12,-0.74358,0,0,0.16667,-7.8949e-16,0,0.66667
0.80271,0.2252,4.8162,-0.41221,-6.8692,12.514,5.2941,-1.7647,-1.3951,7.0588,-5.1419e-10,-0.69755,0,0,0.16667,1.579e-15,0,0.66667
0.67727,0.43628,4.0636,-0.095581,-2.4286,29.529,1.0358,-0.34525,-1.9677,1.381,1.5751e-12,-0.98385,0,0,0.16667,7.8949e-16,0,0.66667
0.52046,0.0078146,3.1228,-0.73828,-25.825,60.473,6.148,-2.0493,-0.061333,8.1973,-7.5495e-14,-0.030666,0,0,0.16667,-0,-0,0.66667
0.14443,0.17836,0.8666,-0.48246,-22.51,158.05,1.1149,-0.37164,-1.1719,1.4866,2.0761e-09,-0.58596,0,0,0.16667,1.9737e-16,0,0.66667
0.83883,0.18186,5.033,-0.47721,-6.6227,8.9581,6.4048,-2.1349,-1.1898,8.5398,-1.2985e-09,-0.59492,0,0,0.16667,7.8949e-16,0,0.66667
0.42617,0.24512,2.557,-0.38231,-14.853,81.736,2.6069,-0.86898,-1.4802,3.4759,-9.1083e-13,-0.74008,0,0,0.16667,1.9737e-16,0,0.66667
0.78295,0.31725,4.6977,-0.27413,-4.9535,14.588,3.434,-1.1447,-1.7339,4.5787,-2.309e-10,-0.86695,0,0,0.16667,-0,-0,0.66667
0.59163,0.19987,3.5498,-0.45019,-13.877,45.281,4.2616,-1.4205,-1.2795,5.6821,1.2021e-12,-0.63974,0,0,0.16667,-0,-0,0.66667
0.25054,0.27554,1.5032,-0.33669,-14.99,127.8,1.3497,-0.44988,-1.5986,1.7995,4.7662e-11,-0.79932,0,0,0.16667,1.9737e-16,0,0.66667
0.17356,0.66649,1.0414,0.24973,11.497,149.57,-0.6935,0.23117,-1.7787,-0.92467,-1.07e-09,-0.88935,0,0,0.16667,-3.9475e-16,0,0.66667
0.73804,0.070876,4.4283,-0.64369,-13.968,21.079,7.6011,-2.5337,-0.52646,10.135,-2.4176e-12,-0.26323,0,0,0.16667,1.579e-15,0,0.66667
0.11212,0.81803,0.6727,0.47704,22.444,167.46,-0.85574,0.28525,-1.1913,-1.141,-6.8888e-09,-0.59564,0,0,0.16667,-0,-0,0.66667
0.21762,0.74417,1.3057,0.36626,16.585,137.04,-1.2753,0.4251,-1.5243,-1.7004,-2.3037e-10,-0.76216,0,0,0.16667,-9.8686e-17,0,0.66667
0.86531,0.047775,5.1918,-0.67834,-8.1086,7.1971,9.3915,-3.1305,-0.36257,12.522,1.0098e-08,-0.18128,0,0,0.16667,-0,-0,0.66667
0.9046,0.7924,5.4276,0.4386,3.6568,3.8126,-6.3481,2.116,-1.3165,-8.4641,1.1481e-08,-0.65823,0,0,0.16667,-0,-0,0.66667
0.093513,0.8345,0.56108,0.50175,23.712,172.91,-0.75073,0.25024,-1.1064,-1.001,-6.8804e-09,-0.55318,0,0,0.16667,-0,-9.7849e-17,0.66667
0.014555,0.89052,0.087332,0.58578,27.978,196.2,-0.13642,0.045472,-0.7806,-0.18189,-1.9894e-07,-0.3903,0,0,0.16667,2.4672e-17,0,0.66667
0.30404,0.056843,1.8242,-0.66474,-28.875,113.41,3.2337,-1.0779,-0.42807,4.3116,-2.0717e-12,-0.21403,0,0,0.16667,5.9212e-16,0,0.66667
0.12829,0.83822,0.76973,0.50733,23.79,162.75,-1.0413,0.34711,-1.085,-1.3885,-4.7116e-09,-0.54251,0,0,0.16667,-0,-0,0.66667
0.25704,0.59827,1.5423,0.1474,6.5252,125.93,-0.60622,0.20207,-1.9221,-0.80829,-2.7778e-11,-0.96105,0,0,0.16667,7.8949e-16,0,0.66667
0.50233,0.45725,3.014,-0.064124,-2.2641,63.732,0.51538,-0.17179,-1.9854,0.68718,1.2906e-13,-0.9927,0,0,0.16667,-0,-0,0.66667
0.56141,0.43258,3.3685,-0.10113,-3.2663,51.044,0.90839,-0.3028,-1.9651,1.2112,-5.6233e-14,-0.98253,0,0,0.16667,-0,-0,0.66667
0.98057,0.62685,5.8834,0.19027,0.24768,0.36793,-2.9852,0.99506,-1.8718,-3.9802,-3.8478e-08,-0.93591,0,0,0.16667,-0,-0,0.66667
0.42958,0.18921,2.5775,-0.46619,-18.081,80.99,3.2042,-1.0681,-1.2271,4.2723,-1.4175e-12,-0.61353,0,0,0.16667,-0,-0,0.66667
0.67931,0.31843,4.0758,-0.27236,-6.9026,29.313,2.9602,-0.98675,-1.7354,3.947,4.5546e-12,-0.86768,0,0,0.16667,-0,-0,0.66667
0.88941,0.93667,5.3365,0.655,6.4786,5.3498,-9.3211,3.107,-0.47663,-12.428,-6.3443e-08,-0.23832,0,0,0.16667,-1.9737e-15,0,0.66667
0.15189,0.8952,0.91134,0.5928,27.668,155.94,-1.4407,0.48022,-0.74971,-1.9209,3.0008e-09,-0.37485,0,0,0.16667,1.9737e-16,0,0.66667
0.09317,0.76162,0.55902,0.39243,18.507,172.99,-0.58499,0.195,-1.4535,-0.77999,-1.0784e-08,-0.72677,0,0,0.16667,1.9737e-16,0,0.66667
0.29675,0.39727,1.7805,-0.15409,-6.659,115.04,0.73163,-0.24388,-1.9172,0.9755,-1.3321e-12,-0.95859,0,0,0.16667,-0,-0,0.66667
0.12968,0.40991,0.77806,-0.13513,-6.301,162.27,0.28037,-0.093458,-1.935,0.37383,1.1803e-09,-0.9675,0,0,0.16667,3.9475e-16,0,0.66667
0.16102,0.81612,0.96615,0.47418,22.005,153.25,-1.2217,0.40723,-1.2004,-1.6289,-1.253e-09,-0.60022,0,0,0.16667,3.9475e-16,0,0.66667
0.34358,0.97471,2.0615,0.71206,30.103,102.99,-3.9144,1.3048,-0.19914,-5.2192,3.1353e-13,-0.099572,0,0,0.16667,-7.8949e-16,0,0.66667
0.31134,0.46702,1.868,-0.049475,-2.1159,111.09,0.24646,-0.082152,-1.9932,0.32861,-1.7409e-12,-0.99661,0,0,0.16667,4.4409e-16,0,0.66667
0.76235,0.29486,4.5741,-0.30771,-6.0367,17.189,3.7534,-1.2511,-1.6628,5.0045,-9.6144e-11,-0.8314,0,0,0.16667,-0,-0,0.66667
0.94892,0.56358,5.6935,0.095363,0.40098,1.196,-1.4479,0.48262,-1.9682,-1.9305,-5.4005e-08,-0.98411,0,0,0.16667,-0,-0,0.66667
0.58072,0.58003,3.4843,0.12005,3.7509,47.14,-1.1154,0.37181,-1.9485,-1.4872,-4.6985e-13,-0.97427,0,0,0.16667,-7.8949e-16,0,0.66667
0.98347,0.50288,5.9008,0.0043156,0.00427,0.21879,-0.067909,0.022643,-2.0018,-0.090542,9.9013e-06,-1.0009,0,0,0.16667,-0,-0,0.66667
0.95183,0.40946,5.711,-0.1358,-0.53626,1.1138,2.0682,-0.6894,-1.936,2.7576,6.0852e-08,-0.968,0,0,0.16667,-3.158e-15,0,0.66667
0.25764,0.23644,1.5459,-0.39533,-17.55,125.86,1.6297,-0.54323,-1.4428,2.1729,2.6394e-11,-0.72139,0,0,0.16667,3.9475e-16,0,0.66667
0.30135,0.78665,1.8081,0.42998,18.596,113.92,-2.0732,0.69108,-1.3423,-2.7643,3.6264e-12,-0.67117,0,0,0.16667,7.8949e-16,0,0.66667
0.84189,0.8618,5.0514,0.5427,7.4352,8.825,-7.3104,2.4368,-0.953,-9.7472,1.0484e-09,-0.4765,0,0,0.16667,-0,-0,0.66667
0.58489,0.39145,3.5093,-0.16282,-5.0513,46.33,1.5237,-0.50791,-1.9043,2.0316,3.415e-13,-0.95213,0,0,0.16667,-0,-0,0.66667
0.17505,0.14134,1.0503,-0.53799,-24.88,149.25,1.5068,-0.50227,-0.97039,2.0091,7.0215e-10,-0.48519,0,0,0.16667,-3.9475e-16,0,0.66667
0.052125,0.49578,0.31275,-0.0063334,-0.29948,185.06,0.005282,-0.0017609,-1.9995,0.0070425,-3.4011e-07,-0.99977,0,0,0.16667,1.2336e-16,0,0.66667
0.54514,0.32836,3.2708,-0.25746,-8.5529,54.515,2.2456,-0.74853,-1.7646,2.9941,1.5166e-13,-0.88228,0,0,0.16667,-0,-0,0.66667
0.14795,0.34725,0.88769,-0.22912,-10.636,156.96,0.54236,-0.18079,-1.8128,0.72315,2.3658e-09,-0.90642,0,0,0.16667,-3.9475e-16,0,0.66667
0.77243,0.82979,4.6346,0.49468,9.4143,16.222,-6.1137,2.0379,-1.1285,-8.1516,9.8344e-11,-0.56423,0,0,0.16667,-1.579e-15,0,0.66667
0.60364,0.78353,3.6218,0.42529,12.807,42.928,-4.1076,1.3692,-1.3568,-5.4767,-1.406e-12,-0.6784,0,0,0.16667,-0,-0,0.66667
0.2545,0.086973,1.527,-0.61954,-27.697,126.88,2.5227,-0.84091,-0.6348,3.3636,2.1219e-12,-0.3174,0,0,0.16667,-0,-0,0.66667
0.0097104,0.56805,0.058263,0.10207,4.8405,197.62,-0.015859,0.0052858,-1.9623,-0.021145,-6.0925e-07,-0.98115,0,0,0.16667,-0,-0,0.66667
0.29272,0.16565,1.7563,-0.50153,-21.849,116.31,2.3489,-0.78296,-1.105,3.1318,-4.2628e-12,-0.55252,0,0,0.16667,7.8949e-16,0,0.66667
0.61384,0.18713,3.683,-0.46931,-13.872,41.062,4.6092,-1.5364,-1.2175,6.1456,1.366e-12,-0.60876,0,0,0.16667,9.8686e-16,0,0.66667
0.19308,0.60797,1.1585,0.16195,7.3939,143.95,-0.50033,0.16678,-1.9054,-0.66711,-4.0419e-10,-0.95272,0,0,0.16667,3.9475e-16,0,0.66667
0.29108,0.9694,1.7465,0.7041,30.884,116.95,-3.2792,1.0931,-0.23755,-4.3723,-2.363e-12,-0.11878,0,0,0.16667,-0,-0,0.66667
0.98264,0.34097,5.8959,-0.23854,-0.26895,0.38292,3.7504,-1.2501,-1.7991,5.0005,-2.6547e-08,-0.89953,0,0,0.16667,-1.579e-15,0,0.66667
0.77969,0.5394,4.6781,0.059102,1.078,14.832,-0.7373,0.24577,-1.9883,-0.98307,7.4986e-11,-0.99415,0,0,0.16667,-0,-0,0.66667
0.23048,0.27843,1.3829,-0.33235,-14.95,133.41,1.2256,-0.40853,-1.6076,1.6341,1.3147e-10,-0.8038,0,0,0.16667,9.8686e-17,0,0.66667
0.27348,0.64063,1.6409,0.21095,9.255,121.41,-0.92305,0.30768,-1.8402,-1.2307,-1.2299e-11,-0.92011,0,0,0.16667,3.9475e-16,0,0.66667
0.68583,0.59511,4.115,0.14266,3.5465,28.157,-1.5655,0.52182,-1.9293,-2.0873,-2.5693e-12,-0.96466,0,0,0.16667,-0,-0,0.66667
0.97299,0.56159,5.8379,0.092385,0.18324,0.45992,-1.4382,0.47941,-1.9702,-1.9176,-7.2687e-07,-0.98512,0,0,0.16667,-2.1711e-15,0,0.66667
0.36782,0.57037,2.2069,0.10556,4.321,96.229,-0.62123,0.20708,-1.9593,-0.82831,9.6884e-13,-0.97964,0,0,0.16667,-0,-0,0.66667
0.02374,0.36914,0.14244,-0.19628,-9.3097,193.46,0.074556,-0.024852,-1.8621,0.099408,-6.0954e-08,-0.93107,0,0,0.16667,-0,-0,0.66667
0.81142,0.74186,4.8685,0.36279,5.7865,11.486,-4.71,1.57,-1.533,-6.28,6.8276e-10,-0.76652,0,0,0.16667,-0,-0,0.66667
0.45963,0.17044,2.7578,-0.49434,-18.553,73.842,3.6354,-1.2118,-1.1297,4.8472,-9.2615e-13,-0.56483,0,0,0.16667,-0,-0,0.66667
0.58271,0.16764,3.4962,-0.49854,-15.642,47.108,4.648,-1.5493,-1.1154,6.1974,6.7857e-13,-0.55769,0,0,0.16667,-0,-0,0.66667
0.55146,0.5329,3.3088,0.049349,1.6197,53.095,-0.43542,0.14514,-1.9917,-0.58057,2.0675e-13,-0.99583,0,0,0.16667,-0,-0,0.66667
0.63102,0.039716,3.7861,-0.69043,-19.883,38.326,6.9708,-2.3236,-0.30408,9.2943,-8.8374e-14,-0.15204,0,0,0.16667,-0,-0,0.66667
0.72115,0.65868,4.3269,0.23803,5.3587,22.792,-2.7464,0.91547,-1.7996,-3.6619,8.2254e-12,-0.89982,0,0,0.16667,-0,-0,0.66667
0.37326,0.32717,2.2396,-0.25924,-10.577,94.887,1.5482,-0.51608,-1.7613,2.0643,-2.5885e-12,-0.88064,0,0,0.16667,7.8949e-16,0,0.66667
0.86276,0.27615,5.1765,-0.33578,-3.9638,6.6024,4.6352,-1.5451,-1.5993,6.1802,-3.3937e-09,-0.79964,0,0,0.16667,7.8949e-16,0,0.66667
0.044935,0.49823,0.26961,-0.0026499,-0.12539,187.19,0.0019051,-0.00063331,-2.0014,0.002541,2.5751e-06,-1.0007,0,0,0.16667,-1.1719e-16,0,0.66667
0.63268,0.76952,3.7961,0.40429,11.47,37.497,-4.0926,1.3642,-1.4174,-5.4568,-2.5668e-12,-0.70871,0,0,0.16667,-7.8949e-16,0,0.66667
0.32943,0.69593,1.9766,0.29389,12.431,106.33,-1.5491,0.51636,-1.6937,-2.0654,4.8693e-12,-0.84687,0,0,0.16667,-0,-0,0.66667
0.5372,0.78836,3.2232,0.43254,14.602,56.37,-3.7178,1.2393,-1.3339,-4.957,8.8152e-14,-0.66696,0,0,0.16667,-0,-0,0.66667
0.25122,0.80612,1.5073,0.45918,20.482,127.68,-1.8457,0.61524,-1.2514,-2.461,-3.3082e-11,-0.62572,0,0,0.16667,-0,-0,0.66667
0.30016,0.31266,1.8009,-0.28101,-12.132,114.16,1.3496,-0.44985,-1.7203,1.7994,-3.1805e-12,-0.86017,0,0,0.16667,-0,-0,0.66667
0.68492,0.93824,4.1095,0.65737,16.662,29.056,-7.2039,2.4013,-0.46486,-9.6051,-1.1373e-12,-0.23243,0,0,0.16667,-0,-0,0.66667
0.30867,0.061581,1.852,-0.65763,-28.47,112.16,3.2478,-1.0826,-0.46304,4.3304,-2.4314e-12,-0.23152,0,0,0.16667,-4.9343e-16,-2.0847e-16,0.66667
0.48557,0.87777,2.9134,0.56666,20.645,67.934,-4.4025,1.4675,-0.86002,-5.8699,1.7764e-15,-0.43001,0,0,0.16667,-0,-0,0.66667
0.72351,0.48597,4.3411,-0.021049,-0.46919,22.338,0.24367,-0.081222,-1.9973,0.32489,-1.855e-13,-0.99867,0,0,0.16667,-7.8949e-16,0,0.66667
0.93934,0.28048,5.6361,-0.32929,-1.7043,1.8254,4.949,-1.6497,-1.6162,6.5987,1.4263e-08,-0.80809,0,0,0.16667,2.1711e-15,0,0.66667
0.18872,0.52448,1.1323,0.036714,1.6781,145.19,-0.11086,0.036953,-1.9963,-0.14781,-2.2171e-10,-0.99815,0,0,0.16667,1.9737e-16,0,0.66667
0.52997,0.4294,3.1798,-0.1059,-3.5948,57.67,0.89794,-0.29931,-1.961,1.1973,-8.743e-14,-0.98051,0,0,0.16667,3.9475e-16,0,0.66667
0.74163,0.24219,4.4498,-0.38671,-8.187,20.061,4.5888,-1.5296,-1.4672,6.1184,-2.5172e-11,-0.73359,0,0,0.16667,7.8949e-16,0,0.66667
0.53447,0.5874,3.2068,0.1311,4.4211,56.71,-1.1211,0.37371,-1.939,-1.4948,-1.9984e-15,-0.96948,0,0,0.16667,-3.9475e-16,0,0.66667
0.78526,0.015055,4.7115,-0.72742,-13.361,15.264,9.1394,-3.0465,-0.11778,12.186,-1.1246e-10,-0.058889,0,0,0.16667,-3.158e-15,0,0.66667
0.74517,0.86547,4.471,0.5482,11.553,19.877,-6.536,2.1787,-0.93062,-8.7147,7.1108e-12,-0.46531,0,0,0.16667,7.8949e-16,0,0.66667
0.76862,0.49539,4.6117,-0.0069182,-0.13185,16.196,0.085079,-0.02836,-2.0002,0.11344,-3.6787e-11,-1.0001,0,0,0.16667,1.1842e-15,0,0.66667
0.77155,0.9836,4.6293,0.72541,14.064,16.91,-8.955,2.985,-0.12765,-11.94,-3.7782e-11,-0.063823,0,0,0.16667,2.4842e-16,0,0.66667
0.88414,0.19785,5.3048,-0.45323,-4.5811,5.1857,6.4115,-2.1372,-1.2684,8.5486,-9.1086e-09,-0.63418,0,0,0.16667,-0,-0,0.66667
0.45436,0.36201,2.7262,-0.20699,-7.7729,74.838,1.5048,-0.5016,-1.8482,2.0064,2.629e-13,-0.92412,0,0,0.16667,-7.8949e-16,0,0.66667
0.45973,0.72499,2.7584,0.33749,12.619,73.657,-2.4825,0.8275,-1.5942,-3.31,-3.6726e-13,-0.79708,0,0,0.16667,-0,-0,0.66667
0.14676,0.58809,0.88059,0.13214,6.1314,157.29,-0.3103,0.10343,-1.9372,-0.41373,-1.7285e-09,-0.9686,0,0,0.16667,-1.9737e-16,0,0.66667
0.23564,0.030415,1.4138,-0.70438,-31.884,132.2,2.6557,-0.88522,-0.23796,3.5409,-3.7041e-12,-0.11898,0,0,0.16667,-0,-0,0.66667
0.26969,0.0085646,1.6181,-0.73715,-32.795,122.81,3.1808,-1.0603,-0.067407,4.2411,5.9175e-13,-0.033703,0,0,0.16667,-0,-0,0.66667
0.73747,0.54593,4.4248,0.068902,1.4687,20.354,-0.813,0.271,-1.9826,-1.084,1.0762e-11,-0.99132,0,0,0.16667,-0,-0,0.66667
0.15702,0.43756,0.94212,-0.093663,-4.3312,154.32,0.23531,-0.078437,-1.9713,0.31375,-3.3542e-10,-0.98567,0,0,0.16667,-3.9475e-16,0,0.66667
0.72315,0.84583,4.3389,0.51875,11.721,22.909,-6.0021,2.0007,-1.0435,-8.0028,-4.0812e-12,-0.52175,0,0,0.16667,-3.158e-15,0,0.66667
0.59594,0.15424,3.5756,-0.51863,-15.895,44.549,4.9452,-1.6484,-1.0449,6.5936,6.8212e-13,-0.52245,0,0,0.16667,-1.9737e-16,0,0.66667
0.9303,0.58654,5.5818,0.12982,0.76495,2.001,-1.9323,0.6441,-1.939,-2.5764,-1.4028e-08,-0.96952,0,0,0.16667,7.8949e-16,0,0.66667
0.72528,0.87418,4.3517,0.56127,12.625,22.69,-6.5132,2.1711,-0.87997,-8.6843,1.7675e-12,-0.43998,0,0,0.16667,6.9081e-16,0,0.66667
0.69888,0.4145,4.1933,-0.12825,-3.0767,26.083,1.4341,-0.47805,-1.941,1.9122,6.1595e-13,-0.97048,0,0,0.16667,-0,-0,0.66667
0.075963,0.58761,0.45578,0.13141,6.197,178.02,-0.15972,0.053239,-1.9392,-0.21296,3.2198e-08,-0.96961,0,0,0.16667,9.8686e-17,0,0.66667
0.50651,0.51371,3.0391,0.020562,0.72177,62.795,-0.16664,0.055546,-1.9971,-0.22218,3.6109e-13,-0.99853,0,0,0.16667,-1.579e-15,0,0.66667
0.76296,0.79402,4.5778,0.44103,8.6782,17.314,-5.3838,1.7946,-1.3082,-7.1785,7.1949e-11,-0.6541,0,0,0.16667,-0,-0,0.66667
0.29181,0.026241,1.7508,-0.71064,-31.164,116.76,3.3179,-1.106,-0.20403,4.4239,-2.0393e-12,-0.10201,0,0,0.16667,3.9475e-16,0,0.66667
0.49858,0.83079,2.9915,0.49618,17.734,64.897,-3.9582,1.3194,-1.1251,-5.2776,2.5979e-13,-0.56254,0,0,0.16667,-0,-0,0.66667
0.30177,0.7986,1.8106,0.44789,19.373,113.83,-2.1626,0.72085,-1.2856,-2.8834,3.789e-12,-0.6428,0,0,0.16667,-3.5736e-16,0,0.66667
0.4502,0.77404,2.7012,0.41105,15.564,75.979,-2.9609,0.98696,-1.3993,-3.9479,6.1484e-13,-0.69967,0,0,0.16667,-3.9475e-16,0,0.66667
0.24377,0.95846,1.4626,0.68769,30.984,129.92,-2.6822,0.89405,-0.31731,-3.5762,1.2292e-12,-0.15865,0,0,0.16667,-0,-0,0.66667
0.5657,0.12472,3.3942,-0.56292,-18.23,50.628,5.0951,-1.6984,-0.87444,6.7934,3.5305e-13,-0.43722,0,0,0.16667,8.1416e-16,0,0.66667
0.94963,0.34226,5.6978,-0.23662,-0.991,1.2883,3.5952,-1.1984,-1.8017,4.7936,1.4141e-08,-0.90084,0,0,0.16667,5.9212e-16,0,0.66667
0.2179,0.39203,1.3074,-0.16195,-7.3144,136.9,0.56462,-0.18821,-1.9075,0.75282,1.8307e-10,-0.95377,0,0,0.16667,-0,-0,0.66667
0.4385,0.10384,2.631,-0.59423,-22.91,78.992,4.1692,-1.3897,-0.74538,5.5589,-8.1579e-13,-0.37269,0,0,0.16667,-7.8949e-16,0,0.66667
0.76894,0.080707,4.6136,-0.62894,-12.23,16.967,7.7379,-2.5793,-0.59302,10.317,-4.1565e-11,-0.29651,0,0,0.16667,-0,-0,0.66667
0.14093,0.63588,0.84559,0.20383,9.4793,159,-0.45961,0.1532,-1.8536,-0.61282,-2.4905e-09,-0.9268,0,0,0.16667,-0,-0,0.66667
0.9131,0.24378,5.4786,-0.38434,-2.9015,3.21,5.615,-1.8717,-1.4739,7.4867,-1.0259e-08,-0.73695,0,0,0.16667,-7.8949e-16,0,0.66667
0.39416,0.29986,2.365,-0.30021,-12.024,89.605,1.8933,-0.63109,-1.679,2.5244,-1.1801e-12,-0.83948,0,0,0.16667,-3.9475e-16,0,0.66667
0.32525,0.83584,1.9515,0.50377,21.462,107.59,-2.6216,0.87386,-1.0977,-3.4954,3.4741e-12,-0.54885,0,0,0.16667,1.9737e-16,0,0.66667
0.57673,0.40088,3.4604,-0.14868,-4.6794,47.949,1.3719,-0.45731,-1.9226,1.8292,3.6948e-13,-0.96129,0,0,0.16667,3.9475e-16,0,0.66667
0.24807,0.98425,1.4884,0.72637,32.694,128.76,-2.883,0.96102,-0.12416,-3.8441,-1.2189e-11,-0.062081,0,0,0.16667,3.9475e-16,1.9736e-16,0.66667
0.81192,0.36376,4.8715,-0.20436,-3.2325,11.238,2.6548,-0.88495,-1.8526,3.5398,-5.8328e-10,-0.9263,0,0,0.16667,-7.8949e-16,0,0.66667
0.88291,0.59285,5.2974,0.13928,1.3955,4.8356,-1.9675,0.65582,-1.931,-2.6233,8.0559e-09,-0.9655,0,0,0.16667,2.0724e-15,0,0.66667
0.83441,0.64376,5.0065,0.21564,3.0287,8.9719,-2.8789,0.95964,-1.8333,-3.8386,1.2794e-09,-0.91665,0,0,0.16667,-0,-0,0.66667
0.35124,0.25397,2.1074,-0.36904,-15.366,100.65,2.0739,-0.69132,-1.5152,2.7653,-3.0513e-12,-0.75758,0,0,0.16667,-7.8949e-16,0,0.66667
0.14604,0.26902,0.87626,-0.34647,-16.117,157.54,0.8096,-0.26987,-1.572,1.0795,2.8416e-09,-0.786,0,0,0.16667,-0,-0,0.66667
0.60481,0.18451,3.6288,-0.47324,-14.24,42.774,4.5795,-1.5265,-1.2038,6.106,1.4908e-12,-0.6019,0,0,0.16667,-7.8949e-16,0,0.66667
0.9963,0.96892,5.9778,0.70338,0.19972,1.3498,-11.212,3.7375,-0.24189,-14.95,-1.078e-05,-0.12095,0,0,0.16667,-0,-0,0.66667
0.80367,0.81149,4.822,0.46724,7.775,12.511,-6.0081,2.0027,-1.2238,-8.0107,1.7301e-10,-0.61189,0,0,0.16667,7.8949e-16,0,0.66667
0.74154,0.58003,4.4493,0.12004,2.5252,19.806,-1.4242,0.47474,-1.9473,-1.899,2.1887e-11,-0.97363,0,0,0.16667,7.8949e-16,0,0.66667
0.38666,0.13967,2.32,-0.54049,-21.913,91.706,3.3438,-1.1146,-0.96048,4.4584,-1.1215e-12,-0.48024,0,0,0.16667,-0,-0,0.66667
0.40617,0.50856,2.437,0.01284,0.50716,86.503,-0.083445,0.027815,-2.0011,-0.11126,1.0143e-12,-1.0005,0,0,0.16667,-0,-0,0.66667
0.29465,0.0027351,1.7679,-0.7459,-32.69,116.03,3.5164,-1.1721,-0.022934,4.6885,-2.1414e-12,-0.011467,0,0,0.16667,-1.579e-15,0,0.66667
0.29924,0.72252,1.7954,0.33377,14.43,114.44,-1.598,0.53268,-1.6048,-2.1307,2.9929e-12,-0.80238,0,0,0.16667,-0,-0,0.66667
0.65307,0.7729,3.9184,0.40934,11.101,33.896,-4.2773,1.4258,-1.4041,-5.703,-4.1838e-12,-0.70204,0,0,0.16667,-0,-0,0.66667
0.042617,0.90375,0.2557,0.60563,28.895,187.91,-0.41296,0.13765,-0.69612,-0.55062,-1.201e-06,-0.34806,0,0,0.16667,6.1679e-17,0,0.66667
0.60103,0.23314,3.6062,-0.40028,-12.106,43.394,3.8493,-1.2831,-1.4288,5.1325,1.1566e-12,-0.71439,0,0,0.16667,7.8949e-16,0,0.66667
0.45501,0.80477,2.7301,0.45715,17.233,74.887,-3.3281,1.1094,-1.2575,-4.4375,7.1987e-13,-0.62876,0,0,0.16667,-0,-0,0.66667
0.38402,0.73484,2.3041,0.35227,14.255,92.201,-2.1645,0.72149,-1.5573,-2.8859,2.0983e-12,-0.77865,0,0,0.16667,-0,-0,0.66667
0.72104,0.75542,4.3262,0.38312,8.6639,22.981,-4.42,1.4733,-1.4787,-5.8933,4.1065e-12,-0.73937,0,0,0.16667,-0,-0,0.66667
0.090843,0.66278,0.54506,0.24417,11.496,173.65,-0.35489,0.1183,-1.7882,-0.47319,-6.0985e-09,-0.89411,0,0,0.16667,1.9737e-16,0,0.66667
0.24894,0.2326,1.4936,-0.4011,-17.893,128.28,1.5976,-0.53253,-1.4286,2.1301,4.0746e-11,-0.71432,0,0,0.16667,-0,-0,0.66667
0.16059,0.26301,0.96354,-0.35548,-16.462,153.34,0.91338,-0.30446,-1.5498,1.2178,1.6859e-09,-0.77489,0,0,0.16667,-0,-0,0.66667
0.67252,0.43446,4.0351,-0.098317,-2.5284,30.315,1.0579,-0.35264,-1.9677,1.4106,2.123e-12,-0.98383,0,0,0.16667,-7.8949e-16,0,0.66667
0.19789,0.31044,1.1874,-0.28435,-12.972,142.61,0.90032,-0.30011,-1.7126,1.2004,5.2881e-10,-0.85629,0,0,0.16667,-4.4409e-16,0,0.66667
0.47419,0.44472,2.8451,-0.082925,-3.0376,70.147,0.62916,-0.20972,-1.9748,0.83887,1.2096e-13,-0.98738,0,0,0.16667,-0,-0,0.66667
0.95248,0.16332,5.7149,-0.50502,-2.0881,1.6918,7.6963,-2.5654,-1.0946,10.262,-1.53e-08,-0.5473,0,0,0.16667,-0,-0,0.66667
0.79059,0.82106,4.7436,0.4816,8.5028,14.017,-6.0919,2.0306,-1.1743,-8.1226,2.0203e-10,-0.58713,0,0,0.16667,-0,-0,0.66667
0.6679,0.30867,4.0074,-0.287,-7.4878,31.217,3.067,-1.0223,-1.7073,4.0893,4.7016e-12,-0.85363,0,0,0.16667,-1.1842e-15,0,0.66667
0.85654,0.90607,5.1392,0.60911,7.6661,7.7109,-8.3475,2.7825,-0.68217,-11.13,3.7828e-09,-0.34108,0,0,0.16667,-1.6618e-15,-1.9511e-16,0.66667
0.28897,0.98897,1.7338,0.73346,32.248,117.55,-3.3912,1.1304,-0.085842,-4.5216,1.0862e-12,-0.042921,0,0,0.16667,-3.9475e-16,0,0.66667
0.77802,0.63128,4.6681,0.19692,3.6237,15.109,-2.4513,0.8171,-1.8622,-3.2684,1.7364e-10,-0.9311,0,0,0.16667,1.579e-15,0,0.66667
0.019068,0.51385,0.11441,0.02077,0.9845,194.85,-0.0063356,0.0021112,-1.9979,-0.0084478,-1.0048e-06,-0.99893,0,0,0.16667,-0,-0,0.66667
0.87353,0.51688,5.2412,0.025323,0.27325,5.4886,-0.35393,0.11798,-1.9981,-0.47191,6.9387e-11,-0.99906,0,0,0.16667,-0,-0,0.66667
0.24772,0.057296,1.4863,-0.66406,-29.835,128.8,2.632,-0.87733,-0.43279,3.5093,-4.5448e-12,-0.21639,0,0,0.16667,-2.9606e-16,0,0.66667
0.12308,0.25167,0.73847,-0.37249,-17.445,164.23,0.73353,-0.24451,-1.5082,0.97804,5.8716e-09,-0.75408,0,0,0.16667,3.9475e-16,0,0.66667
0.12635,0.28386,0.7581,-0.3242,-15.16,163.27,0.65541,-0.21847,-1.6279,0.87389,4.5437e-09,-0.81396,0,0,0.16667,-3.9475e-16,0,0.66667
0.58781,0.20525,3.5268,-0.44212,-13.721,46.019,4.1581,-1.386,-1.3036,5.5441,1.0476e-12,-0.65182,0,0,0.16667,-0,-0,0.66667
0.89189,0.26146,5.3513,-0.35781,-3.3516,4.4681,5.106,-1.702,-1.5454,6.808,-6.924e-09,-0.77271,0,0,0.16667,-0,-0,0.66667
0.092472,0.81384,0.55483,0.47077,22.237,173.21,-0.69652,0.23217,-1.2139,-0.9287,-2.2869e-08,-0.60697,0,0,0.16667,-3.9475e-16,0,0.66667
0.48349,0.19925,2.9009,-0.45113,-16.424,68.259,3.4898,-1.1633,-1.2773,4.6531,-1.9984e-14,-0.63863,0,0,0.16667,-0,-0,0.66667
0.88532,0.85798,5.3119,0.53698,5.4202,5.2986,-7.6063,2.5354,-0.97354,-10.142,1.0044e-08,-0.48677,0,0,0.16667,-0,-0,0.66667
0.95716,0.88716,5.7429,0.58073,2.2016,1.746,-8.8937,2.9646,-0.80011,-11.858,4.1913e-07,-0.40005,0,0,0.16667,-0,-0,0.66667
0.99077,0.98505,5.9446,0.72757,0.61646,1.5015,-11.534,3.8446,-0.11645,-15.378,1.2368e-05,-0.058226,0,0,0.16667,1.579e-15,0,0.66667
0.36192,0.079453,2.1715,-0.63082,-26.206,98.126,3.6529,-1.2176,-0.58492,4.8705,-3.7348e-13,-0.29246,0,0,0.16667,-3.9475e-16,0,0.66667
0.58532,0.88982,3.5119,0.58474,18.318,46.737,-5.4761,1.8254,-0.78277,-7.3015,-6.1195e-13,-0.39138,0,0,0.16667,-0,-0,0.66667
0.38493,0.55988,2.3096,0.089824,3.6211,91.853,-0.55321,0.1844,-1.9712,-0.73761,5.2602e-13,-0.98558,0,0,0.16667,-1.9737e-16,0,0.66667
0.13587,0.62579,0.81521,0.18868,8.7865,160.47,-0.41018,0.13673,-1.8739,-0.5469,-4.5334e-09,-0.93693,0,0,0.16667,-3.9475e-16,0,0.66667
0.76152,0.28575,4.5691,-0.32138,-6.3272,17.314,3.9158,-1.3053,-1.6327,5.2211,-9.1599e-11,-0.81637,0,0,0.16667,-0,-0,0.66667
0.22086,0.91893,1.3252,0.6284,28.582,136.28,-2.2206,0.7402,-0.59605,-2.9608,-4.6476e-12,-0.29803,0,0,0.16667,-0,-0,0.66667
0.6968,0.81949,4.1808,0.47924,11.669,26.805,-5.3429,1.781,-1.1825,-7.1239,-4.3894e-12,-0.59124,0,0,0.16667,-0,-0,0.66667
0.80946,0.14408,4.8568,-0.53388,-8.6816,12.027,6.9145,-2.3048,-0.98621,9.2193,-2.3075e-10,-0.4931,0,0,0.16667,-0,-0,0.66667
0.27256,0.92771,1.6354,0.64157,28.407,121.93,-2.7979,0.93262,-0.53523,-3.7305,1.1937e-12,-0.26761,0,0,0.16667,-0,-0,0.66667
0.5085,0.79705,3.051,0.44557,15.689,62.621,-3.6252,1.2084,-1.2926,-4.8336,2.7089e-14,-0.64629,0,0,0.16667,-7.8949e-16,0,0.66667
0.42229,0.85988,2.5338,0.53982,21.139,82.848,-3.6474,1.2158,-0.96496,-4.8632,7.8892e-13,-0.48248,0,0,0.16667,-7.8949e-16,0,0.66667
0.054664,0.58636,0.32799,0.12953,6.1257,184.31,-0.11329,0.037764,-1.9393,-0.15106,-4.7288e-09,-0.96964,0,0,0.16667,-4.9343e-17,0,0.66667
0.74161,0.59326,4.4496,0.13989,2.9431,19.808,-1.6599,0.55331,-1.9305,-2.2133,2.1694e-11,-0.96525,0,0,0.16667,2.0999e-15,0,0.66667
0.80872,0.17886,4.8523,-0.48171,-7.8347,11.992,6.2331,-2.0777,-1.1745,8.3108,-4.5338e-10,-0.58726,0,0,0.16667,-0,-0,0.66667
0.53813,0.90951,3.2288,0.61427,20.829,56.446,-5.2889,1.763,-0.65796,-7.0519,-2.438e-13,-0.32898,0,0,0.16667,-0,-0,0.66667
0.75933,0.96086,4.556,0.69129,13.989,18.356,-8.3987,2.7996,-0.29984,-11.198,1.4362e-12,-0.14992,0,0,0.16667,-7.8949e-16,0,0.66667
0.041085,0.10174,0.24651,-0.59739,-28.499,188.36,0.3927,-0.1309,-0.73016,0.52361,9.6581e-07,-0.36508,0,0,0.16667,-9.8686e-17,0,0.66667
0.18226,0.92309,1.0936,0.63464,29.346,147.24,-1.8507,0.6169,-0.56673,-2.4676,4.7277e-11,-0.28336,0,0,0.16667,-0,-0,0.66667
0.5671,0.98912,3.4026,0.73368,23.873,50.678,-6.6571,2.219,-0.085201,-8.8761,1.8563e-13,-0.042601,0,0,0.16667,1.579e-15,0,0.66667
0.62121,0.67436,3.7272,0.26155,7.5755,39.439,-2.5996,0.86652,-1.7561,-3.4661,-2.3808e-12,-0.87803,0,0,0.16667,-0,-0,0.66667
0.78202,0.95959,4.6921,0.68938,12.791,15.534,-8.6257,2.8752,-0.31137,-11.501,2.7903e-11,-0.15569,0,0,0.16667,-0,-0,0.66667
0.60149,0.78602,3.6089,0.42903,12.975,43.344,-4.1289,1.3763,-1.3448,-5.5053,-1.5934e-12,-0.6724,0,0,0.16667,-0,-0,0.66667
0.56027,0.64982,3.3616,0.22473,7.2815,51.339,-2.0145,0.6715,-1.821,-2.686,-5.5977e-13,-0.91049,0,0,0.16667,1.1212e-15,0,0.66667
0.66962,0.97796,4.0177,0.71694,18.946,31.699,-7.6813,2.5604,-0.17266,-10.242,1.8341e-13,-0.086328,0,0,0.16667,-0,1.6411e-16,0.66667
0.18539,0.29702,1.1124,-0.30447,-13.964,146.19,0.90314,-0.30105,-1.6704,1.2042,7.5552e-10,-0.8352,0,0,0.16667,-3.9475e-16,0,0.66667
0.14813,0.40063,0.88879,-0.14906,-6.9141,156.9,0.35328,-0.11776,-1.9202,0.47104,2.4852e-09,-0.96008,0,0,0.16667,-1.0966e-16,0,0.66667
0.2334,0.74877,1.4004,0.37315,16.772,132.6,-1.3935,0.4645,-1.5071,-1.858,-9.9225e-11,-0.75353,0,0,0.16667,9.8686e-17,0,0.66667
0.88661,0.57757,5.3196,0.11635,1.1286,4.559,-1.6506,0.55019,-1.951,-2.2008,-8.3058e-10,-0.97551,0,0,0.16667,-0,-0,0.66667
0.62684,0.65672,3.761,0.23508,6.7265,38.379,-2.3578,0.78592,-1.8053,-3.1437,-2.7787e-12,-0.90264,0,0,0.16667,-0,-0,0.66667
0.65717,0.14509,3.943,-0.53236,-14.363,33.391,5.5977,-1.8659,-0.99319,7.4636,2.3794e-12,-0.4966,0,0,0.16667,-0,-0,0.66667
0.3064,0.70785,1.8384,0.31177,13.41,112.49,-1.5284,0.50948,-1.6531,-2.0379,3.7003e-12,-0.82657,0,0,0.16667,3.9475e-16,0,0.66667
0.25905,0.83032,1.5543,0.49548,22.024,125.53,-2.0536,0.68455,-1.1257,-2.7382,-1.5215e-11,-0.56284,0,0,0.16667,-0,-0,0.66667
0.59709,0.85008,3.5825,0.52512,16.063,44.338,-5.0167,1.6722,-1.0196,-6.6889,-9.3126e-13,-0.50979,0,0,0.16667,-0,-0,0.66667
0.21493,0.16032,1.2896,-0.50952,-23.167,137.88,1.7521,-0.58404,-1.0771,2.3362,1.8807e-13,-0.53855,0,0,0.16667,-0,-0,0.66667
0.93549,0.81204,5.6129,0.46806,2.6385,2.2676,-7.0059,2.3353,-1.2227,-9.3412,2.5495e-08,-0.61136,0,0,0.16667,1.9244e-15,0,0.66667
0.80368,0.67108,4.8221,0.25662,4.2296,12.184,-3.2998,1.0999,-1.7644,-4.3997,4.8255e-10,-0.88218,0,0,0.16667,1.579e-15,0,0.66667
0.077647,0.31879,0.46588,-0.27182,-12.831,177.54,0.3377,-0.11257,-1.7389,0.45026,-1.502e-10,-0.86947,0,0,0.16667,1.9737e-16,0,0.66667
0.17487,0.50876,1.0492,0.013146,0.60404,149.16,-0.036782,0.012261,-1.9993,-0.049042,-1.5345e-10,-0.99964,0,0,0.16667,-0,-0,0.66667
0.48717,0.46685,2.923,-0.049732,-1.7917,67.157,0.38765,-0.12922,-1.9922,0.51686,7.5345e-13,-0.99609,0,0,0.16667,9.8686e-16,0,0.66667
0.26934,0.37478,1.616,-0.18783,-8.2591,122.54,0.80944,-0.26981,-1.8755,1.0792,1.5649e-11,-0.93774,0,0,0.16667,-5.4894e-16,0,0.66667
0.2902,0.61015,1.7412,0.16523,7.1714,116.82,-0.7672,0.25573,-1.9014,-1.0229,-1.8792e-12,-0.95072,0,0,0.16667,-0,-0,0.66667
0.96137,0.73957,5.7682,0.35936,1.1455,1.0837,-5.5276,1.8425,-1.5395,-7.3702,-5.6907e-08,-0.76975,0,0,0.16667,7.8949e-16,0,0.66667
0.34206,0.85788,2.0523,0.53682,22.6,103.18,-2.938,0.97932,-0.97565,-3.9173,2.6983e-12,-0.48783,0,0,0.16667,-0,4.034e-17,0.66667
0.8359,0.38975,5.0154,-0.16538,-2.2998,8.7874,2.2118,-0.73727,-1.9012,2.9491,-9.1619e-10,-0.95061,0,0,0.16667,-0,-0,0.66667
0.34459,0.88581,2.0676,0.57872,24.343,102.56,-3.1907,1.0636,-0.81015,-4.2543,1.8094e-12,-0.40507,0,0,0.16667,-0,-0,0.66667
0.72145,0.95561,4.3287,0.68341,15.662,23.538,-7.8887,2.6296,-0.33914,-10.518,-2.0481e-12,-0.16957,0,0,0.16667,-0,-0,0.66667
0.18399,0.30215,1.104,-0.29678,-13.617,146.59,0.87369,-0.29123,-1.6864,1.1649,7.6734e-10,-0.84318,0,0,0.16667,-0,-0,0.66667
0.68595,0.46095,4.1157,-0.058575,-1.4547,28.107,0.64288,-0.21429,-1.9886,0.85717,6.9855e-13,-0.99428,0,0,0.16667,-7.8949e-16,0,0.66667
0.57425,0.40398,3.4455,-0.14402,-4.5525,48.445,1.3233,-0.4411,-1.9267,1.7644,1.2135e-13,-0.96335,0,0,0.16667,2.687e-16,0,0.66667
0.72788,0.25412,4.3673,-0.36881,-8.1608,21.969,4.2952,-1.4317,-1.5158,5.727,-1.0378e-11,-0.75791,0,0,0.16667,-0,-0,0.66667
0.43689,0.28551,2.6214,-0.32173,-12.342,79.087,2.249,-0.74966,-1.6338,2.9987,5.8109e-13,-0.81691,0,0,0.16667,-1.579e-15,0,0.66667
0.94886,0.7014,5.6932,0.3021,1.2975,1.4059,-4.5864,1.5288,-1.6746,-6.1152,-2.8468e-08,-0.83729,0,0,0.16667,-0,-0,0.66667
0.98993,0.48451,5.9396,-0.02324,-0.0088012,0.11606,0.3681,-0.1227,-1.9968,0.4908,-4.825e-06,-0.99839,0,0,0.16667,-1.1723e-15,0,0.66667
0.37841,0.39853,2.2704,-0.1522,-6.1743,93.528,0.92148,-0.30716,-1.9175,1.2286,-7.0305e-13,-0.95873,0,0,0.16667,-3.9475e-16,0,0.66667
0.75586,0.011683,4.5352,-0.73248,-15.052,18.925,8.8584,-2.9528,-0.091115,11.811,-1.9502e-11,-0.045557,0,0,0.16667,-0,-0,0.66667
0.93393,0.78293,5.6036,0.42439,2.4347,2.2398,-6.3415,2.1138,-1.3603,-8.4554,1.1691e-08,-0.68015,0,0,0.16667,-0,-0,0.66667
0.81266,0.43779,4.876,-0.09331,-1.4673,11.087,1.2133,-0.40442,-1.9719,1.6177,-7.6985e-11,-0.98597,0,0,0.16667,-0,-0,0.66667
0.44965,0.018959,2.6979,-0.72156,-27.601,76.531,5.1912,-1.7304,-0.14823,6.9216,4.5297e-14,-0.074116,0,0,0.16667,-1.579e-15,1.8839e-16,0.66667
0.0019673,0.20045,0.011804,-0.44933,-21.4,199.92,0.014143,-0.0047143,-1.2823,0.018858,2.7697e-07,-0.64115,0,0,0.16667,-0,-0,0.66667
0.94677,0.115,5.6806,-0.5775,-2.7355,2.0961,8.7481,-2.916,-0.81298,11.664,2.4563e-09,-0.40649,0,0,0.16667,-7.8949e-16,0,0.66667
0.34939,0.57471,2.0963,0.11206,4.6585,101.01,-0.62647,0.20882,-1.9541,-0.83529,1.8683e-12,-0.97705,0,0,0.16667,7.8949e-16,0,0.66667
0.037035,0.09806,0.22221,-0.60291,-28.776,189.56,0.35726,-0.11909,-0.7071,0.47635,7.5259e-07,-0.35355,0,0,0.16667,-9.8686e-17,0,0.66667
0.24443,0.3046,1.4666,-0.2931,-13.083,129.48,1.1463,-0.3821,-1.6937,1.5284,6.7599e-11,-0.84684,0,0,0.16667,-0,-0,0.66667
0.96294,0.67631,5.7776,0.26446,0.78834,0.88524,-4.0746,1.3582,-1.7501,-5.4328,-3.0368e-08,-0.87505,0,0,0.16667,-0,-0,0.66667
0.46377,0.11732,2.7826,-0.57402,-21.488,72.975,4.2594,-1.4198,-0.82775,5.6792,-8.5265e-14,-0.41387,0,0,0.16667,-3.9475e-16,0,0.66667
0.12421,0.10987,0.74527,-0.5852,-27.523,163.97,1.163,-0.38767,-0.78318,1.5507,-5.5049e-10,-0.39159,0,0,0.16667,1.9737e-16,1.9718e-16,0.66667
0.66748,0.057237,4.0049,-0.66414,-17.592,31.926,7.0929,-2.3643,-0.43146,9.4571,1.168e-12,-0.21573,0,0,0.16667,-7.8949e-16,0,0.66667
0.013877,0.98545,0.083262,0.72818,34.922,196.41,-0.16167,0.053888,-0.11494,-0.21557,-5.4046e-06,-0.057471,0,0,0.16667,-2.4672e-17,-1.9643e-16,0.66667
0.79892,0.42357,4.7935,-0.11465,-1.9254,12.602,1.4655,-0.48852,-1.9533,1.9541,-2.6353e-10,-0.97667,0,0,0.16667,-1.579e-15,0,0.66667
0.53493,0.28333,3.2096,-0.32501,-10.982,56.738,2.7817,-0.92725,-1.625,3.709,-1.5099e-14,-0.81249,0,0,0.16667,-0,-0,0.66667
0.85021,0.49177,5.1013,-0.012342,-0.15698,7.4129,0.16789,-0.055964,-1.9984,0.22386,2.2785e-09,-0.99919,0,0,0.16667,-2.3685e-15,0,0.66667
0.2292,0.39748,1.3752,-0.15379,-6.908,133.71,0.56397,-0.18799,-1.915,0.75195,9.5848e-11,-0.95751,0,0,0.16667,-1.9737e-16,0,0.66667
0.090134,0.75312,0.5408,0.37968,17.912,173.88,-0.54755,0.18252,-1.4878,-0.73006,-1.0766e-08,-0.74392,0,0,0.16667,-0,-0,0.66667
0.6928,0.87025,4.1568,0.55538,13.717,27.578,-6.1562,2.0521,-0.9029,-8.2083,-3.7925e-12,-0.45145,0,0,0.16667,1.1842e-15,0,0.66667
0.81499,0.88573,4.8899,0.57859,9.189,11.55,-7.5447,2.5149,-0.8097,-10.06,5.9169e-10,-0.40485,0,0,0.16667,-0,-0,0.66667
0.63154,0.75341,3.7893,0.38012,10.804,37.672,-3.841,1.2803,-1.4858,-5.1213,-3.28e-12,-0.74291,0,0,0.16667,1.579e-15,0,0.66667
0.77283,0.25272,4.637,-0.37091,-7.0069,15.952,4.5864,-1.5288,-1.5105,6.1152,-1.3033e-10,-0.75524,0,0,0.16667,3.158e-15,0,0.66667
0.63111,0.69567,3.7866,0.2935,8.3318,37.653,-2.9637,0.9879,-1.6927,-3.9516,-2.8859e-12,-0.84635,0,0,0.16667,-0,-0,0.66667
0.89066,0.21171,5.344,-0.43243,-4.1225,4.6911,6.1624,-2.0541,-1.337,8.2165,-9.9359e-09,-0.6685,0,0,0.16667,7.8949e-16,0,0.66667
0.99276,0.68328,5.9566,0.27491,0.051578,0.27669,-4.3668,1.4556,-1.7307,-5.8224,4.186e-08,-0.86533,0,0,0.16667,-7.8949e-16,0,0.66667
0.17377,0.15252,1.0426,-0.52122,-24.106,149.61,1.4492,-0.48305,-1.0352,1.9322,1.0023e-09,-0.51759,0,0,0.16667,-0,-0,0.66667
0.54939,0.89922,3.2963,0.59883,19.942,54.05,-5.2639,1.7546,-0.72531,-7.0185,-8.1712e-14,-0.36265,0,0,0.16667,-7.8949e-16,0,0.66667
0.11999,0.51846,0.71997,0.027697,1.2942,165.09,-0.053177,0.017726,-1.9962,-0.070902,2.3051e-09,-0.99808,0,0,0.16667,-0,-0,0.66667
0.76715,0.62586,4.6029,0.18879,3.6257,16.456,-2.3173,0.77243,-1.8752,-3.0897,1.2566e-10,-0.93758,0,0,0.16667,-0,-0,0.66667
0.22811,0.13594,1.3686,-0.54608,-24.698,134.19,1.9931,-0.66435,-0.93843,2.6574,2.0759e-11,-0.46921,0,0,0.16667,-3.9475e-16,0,0.66667
0.11092,0.93622,0.66552,0.65434,30.931,167.87,-1.1613,0.38709,-0.47945,-1.5484,5.2516e-08,-0.23973,0,0,0.16667,-2.7139e-16,0,0.66667
0.96882,0.67706,5.8129,0.2656,0.64708,0.72432,-4.1171,1.3724,-1.7507,-5.4894,-2.324e-08,-0.87535,0,0,0.16667,7.8949e-16,0,0.66667
0.44753,0.59294,2.6852,0.13941,5.2728,76.436,-0.99821,0.33274,-1.9311,-1.3309,-2.7728e-13,-0.96556,0,0,0.16667,9.213e-16,0,0.66667
0.82994,0.93803,4.9797,0.65705,9.7254,10.258,-8.725,2.9083,-0.4668,-11.633,-2.2409e-09,-0.2334,0,0,0.16667,-0,-0,0.66667
0.025977,0.7558,0.15586,0.38369,18.24,192.81,-0.15948,0.053159,-1.476,-0.21264,8.26e-08,-0.73799,0,0,0.16667,-0,-0,0.66667
0.090511,0.88705,0.54307,0.58058,27.504,173.82,-0.84078,0.28026,-0.80107,-1.121,2.1919e-10,-0.40054,0,0,0.16667,-0,-0,0.66667
0.81523,0.42493,4.8914,-0.1126,-1.7486,10.825,1.4687,-0.48957,-1.9547,1.9583,-3.3267e-10,-0.97734,0,0,0.16667,-7.8949e-16,0,0.66667
0.90936,0.78987,5.4562,0.4348,3.4434,3.5233,-6.3263,2.1088,-1.3277,-8.4351,1.2406e-08,-0.66383,0,0,0.16667,-0,-0,0.66667
0.068241,0.54807,0.40944,0.072099,3.4029,180.3,-0.078721,0.02624,-1.9802,-0.10496,3.9657e-08,-0.99009,0,0,0.16667,-9.8686e-17,0,0.66667
0.65027,0.57187,3.9016,0.1078,2.9249,34.111,-1.1216,0.37387,-1.9576,-1.4955,-2.2933e-12,-0.97878,0,0,0.16667,-0,-0,0.66667
0.55332,0.81868,3.3199,0.47802,15.754,53.042,-4.2319,1.4106,-1.1867,-5.6425,-3.2019e-13,-0.59336,0,0,0.16667,-0,-0,0.66667
0.20654,0.83462,1.2392,0.50193,22.903,140.25,-1.6587,0.5529,-1.1039,-2.2116,-1.819e-10,-0.55196,0,0,0.16667,1.9737e-16,0,0.66667
0.4248,0.36788,2.5488,-0.19818,-7.6887,81.951,1.347,-0.449,-1.8605,1.796,-4.9905e-13,-0.93023,0,0,0.16667,-3.9475e-16,0,0.66667
0.4726,0.24122,2.8356,-0.38816,-14.305,70.696,2.9352,-0.97839,-1.4638,3.9136,-4.0412e-13,-0.73191,0,0,0.16667,-3.9475e-16,0,0.66667
0.011484,0.19768,0.068905,-0.45348,-21.596,197.1,0.083324,-0.027775,-1.2681,0.1111,7.1851e-08,-0.63407,0,0,0.16667,-0,-0,0.66667
0.54494,0.030193,3.2697,-0.70471,-23.733,55.181,6.1445,-2.0482,-0.23585,8.1926,-1.263e-12,-0.11792,0,0,0.16667,-8.8818e-16,-2.5811e-17,0.66667
0.7824,0.56254,4.6944,0.093817,1.6927,14.515,-1.1744,0.39148,-1.971,-1.5659,6.3767e-11,-0.98549,0,0,0.16667,3.158e-15,0,0.66667
0.91446,0.69653,5.4868,0.2948,2.1718,2.986,-4.3134,1.4378,-1.6898,-5.7512,1.249e-09,-0.84488,0,0,0.16667,-1.579e-15,0,0.66667
0.046043,0.5624,0.27626,0.093599,4.4295,186.86,-0.068953,0.022984,-1.9713,-0.091938,-3.2344e-07,-0.98567,0,0,0.16667,1.3685e-16,0,0.66667
0.79178,0.84718,4.7507,0.52077,9.1688,13.963,-6.5973,2.1991,-1.0356,-8.7964,1.2672e-10,-0.51779,0,0,0.16667,3.158e-15,0,0.66667
0.43939,0.49438,2.6363,-0.0084251,-0.32141,78.365,0.05923,-0.019743,-2.0006,0.078974,-3.0138e-13,-1.0003,0,0,0.16667,1.1842e-15,0,0.66667
0.70462,0.8257,4.2277,0.48855,11.643,25.613,-5.5079,1.836,-1.1518,-7.3438,-4.4205e-12,-0.57588,0,0,0.16667,-0,-0,0.66667
0.60938,0.72096,3.6563,0.33144,9.8456,41.721,-3.2315,1.0772,-1.6121,-4.3087,-2.065e-12,-0.80603,0,0,0.16667,-0,-0,0.66667
0.91416,0.091372,5.485,-0.61294,-4.7155,3.7069,8.9652,-2.9884,-0.66387,11.954,8.9399e-08,-0.33193,0,0,0.16667,3.9475e-16,0,0.66667
0.67954,0.21584,4.0772,-0.42624,-10.844,29.47,4.6344,-1.5448,-1.3536,6.1792,4.5315e-12,-0.6768,0,0,0.16667,9.8686e-16,0,0.66667
0.20458,0.61786,1.2275,0.17679,8.0335,140.68,-0.57869,0.1929,-1.8898,-0.77159,-3.4496e-10,-0.94488,0,0,0.16667,-0,-0,0.66667
0.98969,0.11041,5.9382,-0.58438,-0.44126,1.0194,9.2538,-3.0846,-0.78452,12.338,-1.1832e-06,-0.39226,0,0,0.16667,-1.579e-15,0,0.66667
0.80836,0.96883,4.8502,0.70325,11.649,12.596,-9.0956,3.0319,-0.24236,-12.128,2.4514e-12,-0.12118,0,0,0.16667,-0,-0,0.66667
0.05115,0.84838,0.3069,0.52257,24.861,185.38,-0.42767,0.14256,-1.0289,-0.57023,-1.9193e-08,-0.51447,0,0,0.16667,-0,-0,0.66667
0.99025,0.55421,5.9415,0.081317,0.028897,0.12767,-1.2884,0.42946,-1.9755,-1.7178,-1.7145e-07,-0.98775,0,0,0.16667,-1.579e-15,0,0.66667
0.084374,0.42204,0.50624,-0.11695,-5.5069,175.54,0.15788,-0.052626,-1.9499,0.2105,-1.5373e-08,-0.97497,0,0,0.16667,-0,-0,0.66667
0.41597,0.6851,2.4958,0.27765,10.881,84.159,-1.8479,0.61598,-1.7258,-2.4639,8.6375e-14,-0.86288,0,0,0.16667,2.9606e-16,0,0.66667
0.88805,0.48665,5.3283,-0.020019,-0.19143,4.4273,0.28445,-0.094815,-1.9984,0.37926,-2.3045e-09,-0.99919,0,0,0.16667,1.579e-15,0,0.66667
0.76211,0.85011,4.5727,0.52516,10.411,17.588,-6.4038,2.1346,-1.0193,-8.5383,4.0886e-11,-0.50966,0,0,0.16667,-0,-0,0.66667
0.67305,0.223,4.0383,-0.4155,-10.742,30.52,4.4744,-1.4915,-1.3876,5.9659,4.3427e-12,-0.69382,0,0,0.16667,-0,-0,0.66667
0.53369,0.95804,3.2021,0.68706,23.521,57.525,-5.8668,1.9556,-0.32161,-7.8224,-1.8607e-13,-0.1608,0,0,0.16667,-0,-0,0.66667
0.34698,0.67441,2.0819,0.26161,10.912,101.7,-1.4524,0.48413,-1.7562,-1.9365,3.7307e-12,-0.87808,0,0,0.16667,-0,-0,0.66667
0.89994,0.24899,5.3997,-0.37652,-3.2714,3.9777,5.4215,-1.8072,-1.496,7.2287,-8.3747e-09,-0.748,0,0,0.16667,-2.1711e-15,0,0.66667
0.81896,0.76853,4.9137,0.40279,6.1997,10.763,-5.2779,1.7593,-1.4217,-7.0372,7.1542e-10,-0.71087,0,0,0.16667,-1.579e-15,0,0.66667
0.94589,0.56327,5.6754,0.094906,0.42516,1.3106,-1.4363,0.47878,-1.968,-1.9151,-1.8196e-07,-0.98399,0,0,0.16667,-0,-0,0.66667
0.39956,0.6123,2.3973,0.16845,6.7017,88.185,-1.0769,0.35897,-1.8977,-1.4359,1.4193e-12,-0.94884,0,0,0.16667,-0,-0,0.66667
0.23362,0.88896,1.4017,0.58343,26.342,132.67,-2.1808,0.72695,-0.79057,-2.9078,-4.5506e-12,-0.39528,0,0,0.16667,-0,-0,0.66667
0.72322,0.45298,4.3393,-0.070529,-1.5739,22.39,0.81612,-0.27204,-1.9813,1.0882,-4.6665e-12,-0.99065,0,0,0.16667,-0,-0,0.66667
0.6891,0.71709,4.1346,0.32564,8.0541,27.79,-3.5903,1.1968,-1.6246,-4.7871,-5.2487e-12,-0.81232,0,0,0.16667,-9.8686e-17,0,0.66667
0.54337,0.36183,3.2602,-0.20725,-6.8993,54.855,1.8018,-0.60061,-1.8467,2.4024,1.833e-13,-0.92333,0,0,0.16667,7.8949e-16,0,0.66667
0.53711,0.91797,3.2226,0.62695,21.302,56.686,-5.3878,1.7959,-0.60117,-7.1838,2.2649e-14,-0.30059,0,0,0.16667,-0,-0,0.66667
0.80969,0.85471,4.8581,0.53207,8.6416,11.998,-6.893,2.2977,-0.99325,-9.1906,2.2897e-10,-0.49662,0,0,0.16667,-0,-0,0.66667
0.79958,0.93922,4.7975,0.65883,11.318,13.424,-8.4286,2.8095,-0.45775,-11.238,-1.0854e-10,-0.22888,0,0,0.16667,3.158e-15,0,0.66667
0.84777,0.23007,5.0866,-0.40489,-5.2992,7.9996,5.4921,-1.8307,-1.4164,7.3228,-1.865e-09,-0.7082,0,0,0.16667,-0,-0,0.66667
0.19036,0.017808,1.1422,-0.72329,-33.43,144.99,2.203,-0.73433,-0.13959,2.9373,1.4147e-10,-0.069797,0,0,0.16667,-0,-0,0.66667
0.20027,0.21397,1.2016,-0.42905,-19.6,141.99,1.3748,-0.45828,-1.3459,1.8331,4.3089e-10,-0.67297,0,0,0.16667,-0,-0,0.66667
0.77366,0.37533,4.642,-0.18701,-3.5012,15.637,2.3149,-0.77164,-1.8757,3.0866,-1.5794e-10,-0.93787,0,0,0.16667,-0,-0,0.66667
0.56553,0.59476,3.3932,0.14214,4.5607,50.213,-1.2862,0.42872,-1.9292,-1.7149,-6.0763e-13,-0.9646,0,0,0.16667,-1.579e-15,0,0.66667
0.2689,0.094748,1.6134,-0.60788,-26.947,122.9,2.6154,-0.87179,-0.6871,3.4872,-1.2235e-12,-0.34355,0,0,0.16667,-7.8949e-16,0,0.66667
0.47936,0.47423,2.8761,-0.038656,-1.4066,68.947,0.29648,-0.098825,-1.9942,0.3953,5.1004e-13,-0.99712,0,0,0.16667,-0,-0,0.66667
0.67466,0.39539,4.048,-0.15692,-4.0161,29.988,1.6938,-0.56461,-1.9123,2.2584,3.1806e-12,-0.95614,0,0,0.16667,-7.8949e-16,0,0.66667
0.68423,0.27147,4.1054,-0.34279,-8.5926,28.592,3.7528,-1.2509,-1.5819,5.0038,5.2496e-12,-0.79094,0,0,0.16667,-7.8949e-16,0,0.66667
0.82139,0.41112,4.9283,-0.13332,-2.0065,10.198,1.7521,-0.58403,-1.9361,2.3361,-7.1733e-10,-0.96806,0,0,0.16667,-0,-0,0.66667
0.36466,0.0047454,2.188,-0.74288,-30.908,97.569,4.3344,-1.4448,-0.037371,5.7792,-7.5495e-15,-0.018685,0,0,0.16667,-0,-0,0.66667
0.67275,0.24439,4.0365,-0.38341,-9.9092,30.524,4.1271,-1.3757,-1.4788,5.5028,5.1883e-12,-0.73939,0,0,0.16667,-3.9475e-16,0,0.66667
0.55308,0.35718,3.3185,-0.21423,-7.0228,52.822,1.8958,-0.63193,-1.8354,2.5277,-5.2269e-13,-0.91771,0,0,0.16667,7.8949e-16,0,0.66667
0.40642,0.13019,2.4385,-0.55471,-22.082,86.776,3.6071,-1.2024,-0.90796,4.8094,-8.5154e-13,-0.45398,0,0,0.16667,-0,-0,0.66667
0.39796,0.34808,2.3878,-0.22788,-9.0851,88.611,1.451,-0.48366,-1.8147,1.9346,-1.2033e-12,-0.90736,0,0,0.16667,-0,-0,0.66667
0.61288,0.81187,3.6773,0.4678,13.853,41.239,-4.5873,1.5291,-1.2228,-6.1164,-1.3283e-12,-0.61142,0,0,0.16667,1.4803e-16,0,0.66667
0.061349,0.072785,0.3681,-0.64082,-30.543,182.4,0.62903,-0.20968,-0.54068,0.8387,2.8961e-07,-0.27034,0,0,0.16667,-9.8686e-17,1.7432e-16,0.66667
0.7645,0.67763,4.587,0.26644,5.1786,16.865,-3.2591,1.0864,-1.7484,-4.3455,1.1188e-10,-0.87421,0,0,0.16667,-7.8949e-16,0,0.66667
0.23365,0.93904,1.4019,0.65856,29.797,132.72,-2.4619,0.82065,-0.46018,-3.2826,-1.2976e-11,-0.23009,0,0,0.16667,-0,-0,0.66667
0.16594,0.55642,0.99563,0.084633,3.9018,151.74,-0.2247,0.074901,-1.9738,-0.2996,-1.1079e-09,-0.9869,0,0,0.16667,-9.9118e-17,0,0.66667
0.42348,0.15657,2.5409,-0.51515,-20.134,82.527,3.4905,-1.1635,-1.0584,4.654,-1.5239e-12,-0.52919,0,0,0.16667,1.579e-15,0,0.66667
0.46845,0.72071,2.8107,0.33106,12.248,71.611,-2.4814,0.82712,-1.6128,-3.3085,5.1337e-13,-0.80639,0,0,0.16667,-1.579e-15,0,0.66667
0.27444,0.64514,1.6466,0.21771,9.5469,121.15,-0.95598,0.31866,-1.8301,-1.2746,-1.2314e-11,-0.91506,0,0,0.16667,-0,-0,0.66667
0.31013,0.37143,1.8608,-0.19285,-8.2614,111.44,0.95694,-0.31898,-1.8687,1.2759,-2.871e-12,-0.93433,0,0,0.16667,-5.003e-16,0,0.66667
0.67315,0.48338,4.0389,-0.024926,-0.63978,30.195,0.26846,-0.089487,-1.9983,0.35795,4.1855e-13,-0.99915,0,0,0.16667,-0,-0,0.66667
0.030054,0.92243,0.18032,0.63365,30.282,191.62,-0.3047,0.10157,-0.57296,-0.40627,1.3482e-06,-0.28648,0,0,0.16667,-0,-1.9712e-16,0.66667
0.65518,0.84641,3.9311,0.51961,14.077,33.709,-5.4471,1.8157,-1.0418,-7.2628,-2.8622e-12,-0.52091,0,0,0.16667,-0,2.2668e-16,0.66667
0.52145,0.99389,3.1287,0.74083,25.88,60.264,-6.1809,2.0603,-0.047883,-8.2413,-1.1475e-12,-0.023941,0,0,0.16667,1.1842e-15,0,0.66667
0.47871,0.60007,2.8722,0.15011,5.4701,69.123,-1.1497,0.38325,-1.9192,-1.533,-1.168e-13,-0.95958,0,0,0.16667,-0,-0,0.66667
0.72049,0.077973,4.3229,-0.63304,-14.506,23.55,7.2976,-2.4325,-0.57537,9.7301,1.3918e-12,-0.28768,0,0,0.16667,1.579e-15,0,0.66667
0.68825,0.062768,4.1295,-0.65585,-16.479,28.521,7.2222,-2.4074,-0.47313,9.6296,1.0671e-12,-0.23656,0,0,0.16667,-0,-0,0.66667
0.064811,0.85186,0.38887,0.52779,25.072,181.36,-0.5473,0.18243,-1.0099,-0.72974,-3.391e-08,-0.50493,0,0,0.16667,-0,-0,0.66667
0.80024,0.17718,4.8014,-0.48423,-8.194,12.926,6.2,-2.0667,-1.1659,8.2666,-2.5365e-10,-0.58295,0,0,0.16667,-0,-0,0.66667
0.039175,0.31591,0.23505,-0.27613,-13.095,188.9,0.17308,-0.057693,-1.7284,0.23077,-2.5688e-08,-0.8642,0,0,0.16667,-0,-0,0.66667
0.027013,0.73317,0.16208,0.34976,16.616,192.5,-0.15117,0.050389,-1.5641,-0.20156,5.3197e-08,-0.78206,0,0,0.16667,-0,-0,0.66667
0.52587,0.23344,3.1552,-0.39983,-13.718,58.765,3.3641,-1.1214,-1.4303,4.4855,-5.3357e-13,-0.71516,0,0,0.16667,-0,-0,0.66667
0.7348,0.49708,4.4088,-0.0043849,-0.094271,20.719,0.051552,-0.017184,-2.0021,0.068736,-4.6917e-12,-1.0011,0,0,0.16667,-0,-0,0.66667
0.50557,0.70884,3.0334,0.31326,11.042,63.135,-2.5341,0.84469,-1.65,-3.3787,5.862e-14,-0.825,0,0,0.16667,-7.8949e-16,0,0.66667
0.29367,0.9591,1.762,0.68866,30.142,116.23,-3.2358,1.0786,-0.31351,-4.3144,-1.1169e-12,-0.15675,0,0,0.16667,-0,-1.6847e-16,0.66667
0.18618,0.37326,1.1171,-0.19011,-8.7051,145.93,0.56631,-0.18877,-1.8733,0.75509,4.3724e-10,-0.93666,0,0,0.16667,-1.9737e-16,0,0.66667
0.66274,0.91465,3.9765,0.62198,16.629,32.626,-6.5954,2.1985,-0.62341,-8.7938,-1.1626e-12,-0.31171,0,0,0.16667,-0,-0,0.66667
0.94213,0.57844,5.6528,0.11766,0.56785,1.4727,-1.7736,0.59122,-1.9497,-2.3649,-6.4658e-08,-0.97486,0,0,0.16667,-0,-0,0.66667
0.15878,0.65999,0.95267,0.23998,11.103,153.83,-0.60966,0.20322,-1.796,-0.81287,-1.6672e-09,-0.89801,0,0,0.16667,-0,-0,0.66667
0.27586,0.95722,1.6552,0.68583,30.349,121.07,-3.0272,1.0091,-0.32643,-4.0362,1.0856e-12,-0.16322,0,0,0.16667,3.9475e-16,0,0.66667
0.99109,0.69236,5.9466,0.28855,0.10221,0.31853,-4.5756,1.5252,-1.7033,-6.1008,4.3082e-08,-0.85165,0,0,0.16667,-0,-0,0.66667
0.83374,0.1849,5.0024,-0.47265,-6.7506,9.4298,6.305,-2.1017,-1.2056,8.4067,-5.0297e-10,-0.60279,0,0,0.16667,-5.9212e-16,0,0.66667
0.75016,0.47517,4.5009,-0.037248,-0.76013,18.607,0.44707,-0.14902,-1.9969,0.5961,-1.5411e-11,-0.99846,0,0,0.16667,-0,-0,0.66667
0.042073,0.27303,0.25244,-0.34046,-16.156,188.05,0.22919,-0.076396,-1.5871,0.30558,-4.6513e-08,-0.79357,0,0,0.16667,-0,-0,0.66667
0.027017,0.59236,0.1621,0.13854,6.5668,192.49,-0.059885,0.019962,-1.9322,-0.079847,-1.9721e-07,-0.96612,0,0,0.16667,-6.1679e-17,0,0.66667
0.48721,0.38564,2.9233,-0.17154,-6.1847,67.183,1.3372,-0.44575,-1.8952,1.783,2.7556e-13,-0.94759,0,0,0.16667,-0,-0,0.66667
0.032196,0.75526,0.19318,0.38289,18.195,190.97,-0.19724,0.065747,-1.4802,-0.26299,7.2771e-08,-0.7401,0,0,0.16667,9.8686e-17,0,0.66667
0.10153,0.068736,0.60915,-0.6469,-30.634,170.61,1.0508,-0.35027,-0.51116,1.4011,-9.4526e-08,-0.25558,0,0,0.16667,-0,-0,0.66667
0.56329,0.20885,3.3798,-0.43673,-14.143,50.928,3.9361,-1.312,-1.3229,5.2482,3.9724e-13,-0.66144,0,0,0.16667,-0,-0,0.66667
0.4278,0.23171,2.5668,-0.40244,-15.615,81.357,2.7547,-0.91822,-1.4228,3.6729,-3.4839e-13,-0.71141,0,0,0.16667,-7.8949e-16,0,0.66667
0.79087,0.71861,4.7452,0.32791,5.7402,13.722,-4.1493,1.3831,-1.618,-5.5324,3.2164e-10,-0.80899,0,0,0.16667,-5.7978e-16,0,0.66667
0.27399,0.50562,1.6439,0.0084336,0.3695,121.24,-0.036971,0.012324,-1.9989,-0.049295,2.6548e-13,-0.99946,0,0,0.16667,-0,-0,0.66667
0.27245,0.50798,1.6347,0.011964,0.52465,121.66,-0.052152,0.017384,-1.9984,-0.069536,-2.6066e-14,-0.9992,0,0,0.16667,-0,-0,0.66667
0.40582,0.33431,2.4349,-0.24854,-9.836,86.657,1.6138,-0.53793,-1.7817,2.1517,-1.7094e-12,-0.89085,0,0,0.16667,3.9475e-16,0,0.66667
0.67323,0.63754,4.0394,0.20631,5.3033,30.256,-2.2223,0.74078,-1.8492,-2.9631,-4.0408e-12,-0.92459,0,0,0.16667,-0,-0,0.66667
0.9815,0.87609,5.889,0.56413,0.84982,1.0882,-8.8591,2.953,-0.86958,-11.812,-5.0118e-07,-0.43479,0,0,0.16667,-0,-2.383e-19,0.66667
0.39748,0.70174,2.3849,0.30262,12.083,88.772,-1.9246,0.64152,-1.6729,-2.5661,1.9041e-12,-0.83645,0,0,0.16667,-7.8949e-16,0,0.66667
0.74457,0.49309,4.4674,-0.010359,-0.21552,19.361,0.12341,-0.041136,-1.9989,0.16454,-4.8546e-12,-0.99944,0,0,0.16667,2.3685e-15,0,0.66667
0.85672,0.19742,5.1403,-0.45388,-5.6278,7.3181,6.2216,-2.0739,-1.2675,8.2954,-2.8659e-09,-0.63375,0,0,0.16667,-0,-0,0.66667
0.67501,0.62333,4.05,0.185,4.7327,29.948,-1.998,0.66601,-1.8792,-2.6641,-3.7821e-12,-0.93959,0,0,0.16667,1.9737e-16,0,0.66667
0.77949,0.11469,4.6769,-0.57797,-10.749,15.544,7.2083,-2.4028,-0.81267,9.6111,-8.8008e-11,-0.40634,0,0,0.16667,-7.8949e-16,0,0.66667
0.81192,0.48144,4.8715,-0.027839,-0.43917,11.149,0.36165,-0.12055,-1.9983,0.48221,-1.1615e-10,-0.99914,0,0,0.16667,-0,-0,0.66667
0.59693,0.29305,3.5816,-0.31043,-9.4412,44.084,2.9649,-0.98828,-1.657,3.9531,1.3245e-12,-0.82848,0,0,0.16667,-0,-0,0.66667
0.439,0.91189,2.634,0.61784,23.825,78.907,-4.3397,1.4466,-0.64382,-5.7862,-1.7897e-13,-0.32191,0,0,0.16667,-0,-0,0.66667
0.16875,0.6492,1.0125,0.22381,10.318,150.95,-0.60428,0.20143,-1.8219,-0.80571,-1.0298e-09,-0.91096,0,0,0.16667,-1.9614e-16,0,0.66667
0.78139,0.85571,4.6884,0.53357,9.8199,15.212,-6.6708,2.2236,-0.98913,-8.8944,5.8243e-11,-0.49457,0,0,0.16667,-0,-0,0.66667
0.19409,0.21275,1.1646,-0.43088,-19.735,143.75,1.3381,-0.44602,-1.3391,1.7841,4.8548e-10,-0.66954,0,0,0.16667,-1.9737e-16,0,0.66667
0.99872,0.067145,5.9923,-0.64928,0.015212,1.1341,10.375,-3.4584,-0.50244,13.834,2.6951e-06,-0.25122,0,0,0.16667,-0,-0,0.66667
0.5426,0.83692,3.2556,0.50537,16.955,55.324,-4.3875,1.4625,-1.0915,-5.85,-5.0671e-13,-0.54575,0,0,0.16667,-0,-0,0.66667
0.0093665,0.55067,0.056199,0.076006,3.6041,197.72,-0.011391,0.0037973,-1.9781,-0.015188,5.2892e-07,-0.98906,0,0,0.16667,1.2336e-17,0,0.66667
0.4188,0.72064,2.5128,0.33096,12.944,83.5,-2.2177,0.73924,-1.6114,-2.9569,9.1527e-13,-0.80569,0,0,0.16667,-0,-0,0.66667
0.24105,0.44452,1.4463,-0.083227,-3.7148,130.38,0.32099,-0.107,-1.9744,0.42799,3.4872e-11,-0.9872,0,0,0.16667,-0,-0,0.66667
0.053138,0.55421,0.31883,0.081314,3.8452,184.76,-0.069134,0.023045,-1.9754,-0.092178,1.9147e-09,-0.98772,0,0,0.16667,4.9343e-17,0,0.66667
0.71613,0.503,4.2968,0.0045025,0.10265,23.424,-0.05159,0.017197,-2.0008,-0.068786,-1.8671e-12,-1.0004,0,0,0.16667,3.158e-15,0,0.66667
0.31649,0.553,1.8989,0.079499,3.3879,109.71,-0.40257,0.13419,-1.9769,-0.53676,-2.1794e-13,-0.98847,0,0,0.16667,-0,-0,0.66667
0.82107,0.47779,4.9264,-0.033312,-0.50164,10.194,0.43763,-0.14588,-1.9948,0.5835,-2.0695e-10,-0.99742,0,0,0.16667,-0,-0,0.66667
0.76442,0.10543,4.5865,-0.59186,-11.678,17.445,7.2388,-2.4129,-0.75517,9.6518,-1.6291e-11,-0.37759,0,0,0.16667,-0,-2.1235e-16,0.66667
0.065672,0.63317,0.39403,0.19975,9.4383,181.06,-0.20989,0.069962,-1.858,-0.27985,3.5402e-09,-0.92901,0,0,0.16667,-0,-0,0.66667
0.71272,0.63446,4.2763,0.20169,4.6543,24.011,-2.3,0.76667,-1.8542,-3.0667,2.838e-12,-0.92712,0,0,0.16667,-0,-0,0.66667
0.19497,0.38152,1.1698,-0.17772,-8.1086,143.42,0.55441,-0.1848,-1.8867,0.73921,4.7592e-10,-0.94337,0,0,0.16667,-0,-0,0.66667
0.77656,0.66816,4.6593,0.25223,4.6755,15.339,-3.134,1.0447,-1.7728,-4.1786,1.7625e-10,-0.8864,0,0,0.16667,-0,-0,0.66667
0.25043,0.5076,1.5026,0.011397,0.50609,127.76,-0.045666,0.015222,-2.0011,-0.060888,2.3396e-12,-1.0005,0,0,0.16667,-0,-0,0.66667
0.40375,0.97453,2.4225,0.7118,28.555,87.653,-4.5981,1.5327,-0.19905,-6.1309,2.7311e-13,-0.099527,0,0,0.16667,-0,-0,0.66667
0.8833,0.82686,5.2998,0.49029,5.0087,5.3282,-6.9291,2.3097,-1.1438,-9.2388,3.727e-09,-0.57189,0,0,0.16667,-0,-0,0.66667
0.65698,0.97919,3.9419,0.71879,19.576,33.833,-7.5556,2.5185,-0.16405,-10.074,1.4477e-13,-0.082025,0,0,0.16667,-0,-0,0.66667
0.081501,0.95598,0.48901,0.68396,32.545,176.49,-0.8919,0.2973,-0.33614,-1.1892,-8.1804e-09,-0.16807,0,0,0.16667,-0,-0,0.66667
0.13451,0.37497,0.80704,-0.18754,-8.7367,160.87,0.40361,-0.13454,-1.8752,0.53815,4.5738e-09,-0.93762,0,0,0.16667,2.737e-16,0,0.66667
0.007682,0.092827,0.046092,-0.61076,-29.195,198.23,0.075068,-0.025021,-0.67365,0.10009,2.2367e-06,-0.33682,0,0,0.16667,-1.8504e-17,0,0.66667
0.98219,0.018289,5.8931,-0.72257,-1.1941,1.6097,11.355,-3.7851,-0.14365,15.14,3.2132e-07,-0.071825,0,0,0.16667,-0,-1.9163e-16,0.66667
0.047674,0.90892,0.28604,0.61338,29.257,186.42,-0.46788,0.15596,-0.66425,-0.62384,-5.5099e-07,-0.33212,0,0,0.16667,-0,-0,0.66667
0.10538,0.80014,0.63227,0.45022,21.202,169.42,-0.75909,0.25303,-1.2785,-1.0121,-7.1307e-09,-0.63927,0,0,0.16667,-9.8686e-17,0,0.66667
0.45747,0.79156,2.7448,0.43734,16.431,74.285,-3.2011,1.067,-1.3192,-4.2681,1.0298e-12,-0.65959,0,0,0.16667,-7.8949e-16,0,0.66667
0.054401,0.030179,0.3264,-0.70473,-33.679,184.46,0.6134,-0.20447,-0.23408,0.81787,-3.2935e-06,-0.11704,0,0,0.16667,7.4015e-17,0,0.66667
0.28909,0.93075,1.7345,0.64612,28.325,117.43,-2.9885,0.99618,-0.51467,-3.9847,2.78e-13,-0.25733,0,0,0.16667,-2.62e-17,0,0.66667
0.67797,0.15526,4.0678,-0.5171,-13.254,29.881,5.6093,-1.8698,-1.0494,7.4791,3.455e-12,-0.52468,0,0,0.16667,-9.8686e-17,0,0.66667
0.048629,0.10223,0.29177,-0.59665,-28.444,186.14,0.46423,-0.15474,-0.73483,0.61898,1.8588e-07,-0.36742,0,0,0.16667,-0,-0,0.66667
0.45797,0.27436,2.7478,-0.33847,-12.682,74.072,2.4801,-0.82671,-1.5921,3.3068,-3.7748e-13,-0.79604,0,0,0.16667,7.8949e-16,0,0.66667
0.57276,0.1317,3.4365,-0.55245,-17.671,49.181,5.0627,-1.6876,-0.91415,6.7503,1.1755e-12,-0.45708,0,0,0.16667,-1.579e-15,0,0.66667
0.19927,0.979,1.1956,0.7185,33.084,142.45,-2.2908,0.76359,-0.16386,-3.0544,2.4817e-10,-0.081928,0,0,0.16667,-0,-0,0.66667
0.18617,0.27618,1.117,-0.33574,-15.4,145.98,1.0001,-0.33335,-1.6005,1.3334,7.5783e-10,-0.80024,0,0,0.16667,-8.7139e-17,0,0.66667
0.10269,0.15264,0.61613,-0.52104,-24.589,170.23,0.85607,-0.28536,-1.0343,1.1414,2.3481e-08,-0.51713,0,0,0.16667,9.8686e-17,0,0.66667
0.0688,0.62323,0.4128,0.18485,8.7293,180.14,-0.20348,0.067826,-1.8784,-0.27131,-7.8531e-09,-0.93921,0,0,0.16667,1.2336e-16,0,0.66667
0.16898,0.44195,1.0139,-0.087082,-4.0105,150.86,0.23545,-0.078483,-1.9735,0.31393,1.2097e-09,-0.98676,0,0,0.16667,3.9475e-16,0,0.66667
0.060817,0.56416,0.3649,0.09624,4.5472,182.49,-0.093648,0.031216,-1.9687,-0.12486,1.8489e-07,-0.98434,0,0,0.16667,1.9737e-16,0,0.66667
0.55168,0.48582,3.3101,-0.02127,-0.69782,53.047,0.18774,-0.062581,-1.9973,0.25033,5.4998e-14,-0.99865,0,0,0.16667,-0,-0,0.66667
0.80791,0.36717,4.8474,-0.19925,-3.2135,11.665,2.5756,-0.85854,-1.8582,3.4342,-5.494e-10,-0.92911,0,0,0.16667,-7.8949e-16,0,0.66667
0.80434,0.79191,4.826,0.43787,7.2515,12.381,-5.6351,1.8784,-1.3169,-7.5135,4.1436e-10,-0.65847,0,0,0.16667,-0,-0,0.66667
0.63118,0.95628,3.7871,0.68443,19.698,38.283,-6.912,2.304,-0.33309,-9.2159,-7.4563e-13,-0.16655,0,0,0.16667,7.8949e-16,0,0.66667
0.54175,0.27632,3.2505,-0.33551,-11.222,55.299,2.9082,-0.96941,-1.5994,3.8776,2.2782e-13,-0.79968,0,0,0.16667,-0,-0,0.66667
0.46714,0.39516,2.8028,-0.15726,-5.8136,71.811,1.1754,-0.3918,-1.9125,1.5672,-3.1186e-13,-0.95625,0,0,0.16667,3.9475e-16,0,0.66667
0.96014,0.44631,5.7608,-0.080539,-0.25563,0.807,1.2373,-0.41242,-1.9757,1.6497,1.4048e-08,-0.98787,0,0,0.16667,-0,-0,0.66667
0.2899,0.52914,1.7394,0.043714,1.8965,116.89,-0.20276,0.067586,-1.993,-0.27035,-8.0125e-13,-0.99649,0,0,0.16667,-2.9606e-16,0,0.66667
0.36643,0.44034,2.1986,-0.089489,-3.6672,96.584,0.52467,-0.17489,-1.9712,0.69956,-2.2748e-12,-0.98558,0,0,0.16667,-0,-0,0.66667
0.57534,0.97488,3.452,0.71232,22.833,48.973,-6.5572,2.1857,-0.19622,-8.743,2.5846e-13,-0.098109,0,0,0.16667,-0,-0,0.66667
0.51258,0.54727,3.0755,0.07091,2.4684,61.456,-0.58155,0.19385,-1.9817,-0.7754,-3.5227e-13,-0.99083,0,0,0.16667,-0,-0,0.66667
0.67424,0.021483,4.0454,-0.71778,-18.756,30.939,7.7432,-2.5811,-0.16829,10.324,4.2055e-13,-0.084146,0,0,0.16667,-0,-0,0.66667
0.77467,0.9113,4.648,0.61695,11.726,16.226,-7.6469,2.549,-0.64599,-10.196,4.4826e-11,-0.32299,0,0,0.16667,-0,-0,0.66667
0.18244,0.86178,1.0946,0.54267,25.03,147.13,-1.5841,0.52803,-0.95177,-2.1121,-7.8336e-10,-0.47588,0,0,0.16667,-0,-0,0.66667
0.6289,0.1619,3.7734,-0.50715,-14.555,38.342,5.1031,-1.701,-1.0854,6.8041,1.7017e-12,-0.5427,0,0,0.16667,-0,-0,0.66667
0.69402,0.58745,4.1641,0.13118,3.1895,26.845,-1.4567,0.48555,-1.938,-1.9422,-1.5291e-12,-0.96898,0,0,0.16667,-0,-0,0.66667
0.27231,0.79202,1.6338,0.43804,19.298,121.84,-1.9085,0.63616,-1.3165,-2.5447,-6.4146e-12,-0.65823,0,0,0.16667,7.8949e-16,0,0.66667
0.92808,0.17284,5.5685,-0.49073,-3.1027,2.6614,7.287,-2.429,-1.1423,9.7161,-4.958e-08,-0.57117,0,0,0.16667,-0,-0,0.66667
0.34525,0.51288,2.0715,0.019322,0.80563,102.08,-0.10673,0.035578,-1.9991,-0.14231,3.3178e-13,-0.99955,0,0,0.16667,-0,-0,0.66667
0.63808,0.87711,3.8285,0.56566,15.955,36.794,-5.775,1.925,-0.86339,-7.7,-1.3625e-12,-0.43169,0,0,0.16667,-0,-0,0.66667
0.9258,0.6681,5.5548,0.25216,1.5991,2.3342,-3.7351,1.245,-1.7732,-4.9801,-8.814e-09,-0.8866,0,0,0.16667,1.579e-15,0,0.66667
0.98063,0.70771,5.8838,0.31157,0.42336,0.52586,-4.8886,1.6295,-1.6542,-6.5181,-6.5895e-09,-0.82712,0,0,0.16667,-1.579e-15,0,0.66667
0.24873,0.16139,1.4924,-0.50792,-22.711,128.4,2.0213,-0.67378,-1.084,2.6951,5.888e-12,-0.54201,0,0,0.16667,-0,-0,0.66667
0.94195,0.0028303,5.6517,-0.74575,-4.0302,2.842,11.239,-3.7465,-0.022717,14.986,-1.0704e-06,-0.011359,0,0,0.16667,-0,-0,0.66667
0.90908,0.0056606,5.4545,-0.74151,-6.1683,4.4144,10.785,-3.5951,-0.04537,14.381,-5.9102e-08,-0.022685,0,0,0.16667,-0,-0,0.66667
0.25098,0.69021,1.5059,0.28532,12.69,127.66,-1.1457,0.38191,-1.7124,-1.5276,-5.2432e-11,-0.85621,0,0,0.16667,-0,-0,0.66667
0.10105,0.12034,0.60631,-0.5695,-26.916,170.72,0.92078,-0.30693,-0.84615,1.2277,-1.496e-09,-0.42307,0,0,0.16667,-4.9343e-17,0,0.66667
0.36236,0.45733,2.1741,-0.064002,-2.6317,97.633,0.37107,-0.12369,-1.9851,0.49476,-2.3803e-12,-0.99257,0,0,0.16667,3.9475e-16,0,0.66667
0.92363,0.63064,5.5418,0.19596,1.2753,2.3808,-2.8959,0.96529,-1.8644,-3.8612,1.1227e-08,-0.93219,0,0,0.16667,-0,-0,0.66667
0.84527,0.95444,5.0716,0.68165,9.2729,8.9021,-9.2189,3.073,-0.34827,-12.292,3.9627e-09,-0.17413,0,0,0.16667,1.579e-15,0,0.66667
0.25812,0.29777,1.5487,-0.30335,-13.443,125.68,1.2528,-0.41761,-1.6713,1.6704,3.3779e-11,-0.83564,0,0,0.16667,-3.0568e-16,0,0.66667
0.27562,0.96631,1.6537,0.69947,30.971,121.15,-3.0846,1.0282,-0.26034,-4.1128,1.5612e-12,-0.13017,0,0,0.16667,-0,-0,0.66667
0.29828,0.38595,1.7897,-0.17108,-7.3866,114.63,0.81646,-0.27215,-1.8965,1.0886,-7.8759e-13,-0.94826,0,0,0.16667,-7.8949e-16,0,0.66667
0.081417,0.65253,0.4885,0.22879,10.788,176.42,-0.29804,0.099346,-1.8143,-0.39738,2.1968e-09,-0.90716,0,0,0.16667,2.4672e-17,0,0.66667
0.16833,0.73778,1.01,0.35666,16.474,151.1,-0.96062,0.32021,-1.5471,-1.2808,-1.2847e-09,-0.77356,0,0,0.16667,-0,-0,0.66667
0.61444,0.93696,3.6866,0.65544,19.493,41.292,-6.4437,2.1479,-0.47292,-8.5915,2.1316e-13,-0.23646,0,0,0.16667,-8.8818e-16,0,0.66667
0.4924,0.90732,2.9544,0.61098,22.097,66.455,-4.8135,1.6045,-0.67264,-6.4181,-4.0323e-13,-0.33632,0,0,0.16667,-0,-0,0.66667
0.41191,0.2003,2.4714,-0.44955,-17.749,85.301,2.9627,-0.98758,-1.2802,3.9503,-9.6612e-13,-0.64009,0,0,0.16667,-0,-0,0.66667
0.5157,0.56419,3.0942,0.096291,3.3375,60.773,-0.79452,0.26484,-1.9697,-1.0594,5.1137e-13,-0.98486,0,0,0.16667,-1.579e-15,0,0.66667
0.88736,0.49583,5.3242,-0.0062554,-0.060178,4.4741,0.088814,-0.029605,-2.0002,0.11842,-5.6834e-09,-1.0001,0,0,0.16667,-0,-0,0.66667
0.9551,0.1493,5.7306,-0.52605,-2.0607,1.6584,8.0389,-2.6796,-1.0167,10.719,-8.7528e-08,-0.50834,0,0,0.16667,7.8949e-16,0,0.66667
0.25568,0.73144,1.5341,0.34715,15.415,126.38,-1.4201,0.47338,-1.5702,-1.8935,-3.5157e-11,-0.78512,0,0,0.16667,-0,-0,0.66667
0.23367,0.23431,1.402,-0.39854,-17.918,132.54,1.49,-0.49666,-1.4361,1.9866,9.7334e-11,-0.71807,0,0,0.16667,-3.9475e-16,0,0.66667
0.070154,0.19109,0.42092,-0.46336,-21.965,179.77,0.5201,-0.17337,-1.2361,0.69347,1.3397e-08,-0.61804,0,0,0.16667,1.9737e-16,0,0.66667
0.2597,0.13872,1.5582,-0.54193,-24.107,125.38,2.2518,-0.7506,-0.95444,3.0024,4.5359e-12,-0.47722,0,0,0.16667,-0,-0,0.66667
0.17421,0.29027,1.0453,-0.31459,-14.491,149.4,0.87689,-0.2923,-1.6483,1.1692,1.1176e-09,-0.82416,0,0,0.16667,-0,-0,0.66667
0.027562,0.31251,0.16537,-0.28124,-13.348,192.34,0.12403,-0.041342,-1.7197,0.16537,-2.4785e-08,-0.85987,0,0,0.16667,9.8686e-17,0,0.66667
0.17447,0.00024811,1.0468,-0.74963,-34.886,149.54,2.0926,-0.69753,-0.0034004,2.7901,2.3507e-10,-0.0017002,0,0,0.16667,-0,-0,0.66667
0.78046,0.34589,4.6827,-0.23116,-4.2151,14.843,2.8865,-0.96218,-1.8121,3.8487,-2.237e-10,-0.90605,0,0,0.16667,-0,-0,0.66667
0.92026,0.96037,5.5216,0.69055,5.0138,3.6304,-10.168,3.3893,-0.30517,-13.557,2.5347e-07,-0.15258,0,0,0.16667,-7.8949e-16,0,0.66667
0.72159,0.58927,4.3295,0.1339,3.0051,22.653,-1.546,0.51532,-1.9368,-2.0613,7.7859e-12,-0.96838,0,0,0.16667,-1.1842e-15,0,0.66667
0.29842,0.88849,1.7905,0.58273,25.345,114.84,-2.7824,0.92745,-0.793,-3.7098,2.9108e-12,-0.3965,0,0,0.16667,-0,-0,0.66667
0.63146,0.25681,3.7887,-0.36478,-10.365,37.669,3.6855,-1.2285,-1.526,4.914,2.3992e-12,-0.76298,0,0,0.16667,1.579e-15,0,0.66667
0.77018,0.0001895,4.6211,-0.74972,-14.639,17.153,9.2387,-3.0796,-0.0021451,12.318,7.4956e-11,-0.0010726,0,0,0.16667,-0,-0,0.66667
0.4425,0.25967,2.655,-0.3605,-13.754,77.769,2.5523,-0.85078,-1.537,3.4031,-1.229e-12,-0.7685,0,0,0.16667,-0,-0,0.66667
0.61945,0.28477,3.7167,-0.32285,-9.3969,39.825,3.1998,-1.0666,-1.6291,4.2664,2.4625e-12,-0.81457,0,0,0.16667,-1.579e-15,0,0.66667
0.57375,0.57005,3.4425,0.10507,3.3231,48.532,-0.96454,0.32151,-1.9602,-1.2861,-5.9436e-13,-0.98011,0,0,0.16667,-0,-0,0.66667
0.90274,0.61167,5.4165,0.16751,1.3951,3.5302,-2.4194,0.80648,-1.8996,-3.2259,-1.7207e-09,-0.94981,0,0,0.16667,1.579e-15,0,0.66667
0.75239,0.17289,4.5143,-0.49067,-10.056,18.788,5.9068,-1.9689,-1.1439,7.8757,-2.6638e-11,-0.57193,0,0,0.16667,-0,-0,0.66667
0.26495,0.048723,1.5897,-0.67692,-30.138,124.05,2.8696,-0.95654,-0.37172,3.8262,6.799e-13,-0.18586,0,0,0.16667,3.9475e-16,0,0.66667
0.22937,0.136,1.3762,-0.546,-24.68,133.83,2.0037,-0.66791,-0.93901,2.6716,1.6756e-11,-0.46951,0,0,0.16667,-0,-0,0.66667
0.6936,0.33972,4.1616,-0.24042,-5.8625,26.987,2.6681,-0.88935,-1.794,3.5574,2.9292e-12,-0.89701,0,0,0.16667,-0,-0,0.66667
0.23301,0.65629,1.3981,0.23443,10.518,132.66,-0.874,0.29133,-1.8067,-1.1653,-1.0914e-10,-0.90337,0,0,0.16667,-7.8949e-16,0,0.66667
0.62193,0.28459,3.7316,-0.32311,-9.3569,39.365,3.2152,-1.0717,-1.6294,4.2869,2.3175e-12,-0.8147,0,0,0.16667,-0,-0,0.66667
0.25494,0.67987,1.5296,0.26981,11.972,126.55,-1.1006,0.36685,-1.7405,-1.4674,-4.1694e-11,-0.87023,0,0,0.16667,-0,-0,0.66667
0.92042,0.50062,5.5225,0.00092674,0.0062567,2.452,-0.013648,0.0045494,-2.002,-0.018197,1.7735e-07,-1.001,0,0,0.16667,-0,-0,0.66667
0.30256,0.49417,1.8153,-0.0087448,-0.37622,113.45,0.042333,-0.014111,-1.9991,0.056443,9.0961e-13,-0.99954,0,0,0.16667,5.9212e-16,0,0.66667
0.84854,0.45807,5.0913,-0.062901,-0.80888,7.5693,0.85399,-0.28466,-1.985,1.1387,-1.5583e-09,-0.9925,0,0,0.16667,-0,-0,0.66667
0.22971,0.052843,1.3783,-0.67074,-30.418,133.83,2.4652,-0.82173,-0.39958,3.2869,6.1831e-12,-0.19979,0,0,0.16667,-0,-1.8848e-17,0.66667
0.5721,0.47714,3.4326,-0.034287,-1.0872,48.85,0.31384,-0.10461,-1.9948,0.41846,-1.9273e-13,-0.9974,0,0,0.16667,-0,-0,0.66667
0.1889,0.92066,1.1334,0.631,29.1,145.34,-1.9071,0.63572,-0.58477,-2.5429,8.4843e-11,-0.29238,0,0,0.16667,3.9475e-16,0,0.66667
0.42001,0.78668,2.52,0.43001,16.831,83.288,-2.8898,0.96325,-1.3434,-3.853,1.5759e-12,-0.67171,0,0,0.16667,-0,-0,0.66667
0.37624,0.11005,2.2574,-0.58493,-23.969,94.401,3.5212,-1.1737,-0.78402,4.6949,-5.2047e-13,-0.39201,0,0,0.16667,-7.8949e-16,0,0.66667
0.039037,0.31379,0.23422,-0.27932,-13.246,188.94,0.17446,-0.058153,-1.7225,0.23261,-2.4198e-08,-0.86125,0,0,0.16667,-9.8686e-17,0,0.66667
0.12795,0.87577,0.7677,0.56366,26.47,162.87,-1.1539,0.38464,-0.87149,-1.5386,-4.5665e-09,-0.43574,0,0,0.16667,3.9475e-16,0,0.66667
0.75376,0.24184,4.5226,-0.38724,-7.8612,18.424,4.6701,-1.5567,-1.4665,6.2268,-5.4458e-11,-0.73324,0,0,0.16667,-0,-0,0.66667
0.41261,0.29163,2.4757,-0.31256,-12.298,85.012,2.0635,-0.68782,-1.6514,2.7513,-1.1668e-12,-0.8257,0,0,0.16667,-0,-0,0.66667
0.80409,0.41005,4.8245,-0.13493,-2.2129,12.036,1.7359,-0.57863,-1.9347,2.3145,-2.4753e-10,-0.96736,0,0,0.16667,3.158e-15,0,0.66667
0.6699,0.66664,4.0194,0.24996,6.4841,30.847,-2.6791,0.89304,-1.7781,-3.5722,-4.504e-12,-0.88907,0,0,0.16667,-0,-0,0.66667
0.38282,0.14763,2.2969,-0.52855,-21.497,92.665,3.2375,-1.0792,-1.0055,4.3166,-1.8676e-12,-0.50274,0,0,0.16667,-0,-0,0.66667
0.49483,0.50932,2.969,0.013973,0.49831,65.414,-0.11063,0.036876,-1.9984,-0.1475,4.8781e-13,-0.99919,0,0,0.16667,-0,-0,0.66667
0.95056,0.12666,5.7033,-0.56,-2.4479,1.9077,8.517,-2.839,-0.8861,11.356,-7.6904e-08,-0.44305,0,0,0.16667,-0,-0,0.66667
0.94795,0.81977,5.6877,0.47965,2.1691,1.7909,-7.2749,2.425,-1.1813,-9.6999,-6.9002e-09,-0.59063,0,0,0.16667,-0,-0,0.66667
0.48498,0.57913,2.9099,0.1187,4.2898,67.672,-0.92105,0.30702,-1.9509,-1.2281,-3.8303e-14,-0.97543,0,0,0.16667,-0,-0,0.66667
0.71243,0.94193,4.2746,0.66289,15.584,24.812,-7.5563,2.5188,-0.43704,-10.075,-6.4349e-13,-0.21852,0,0,0.16667,-1.579e-15,0,0.66667
0.74983,0.30181,4.499,-0.29728,-6.1003,18.825,3.5665,-1.1888,-1.6872,4.7554,-5.3136e-11,-0.8436,0,0,0.16667,-7.8949e-16,0,0.66667
0.5106,0.31647,3.0636,-0.2753,-9.6303,61.99,2.2491,-0.74969,-1.7303,2.9988,7.1054e-13,-0.86515,0,0,0.16667,-1.579e-15,0,0.66667
0.44701,0.71743,2.6821,0.32615,12.373,76.662,-2.3327,0.77757,-1.6218,-3.1103,7.8781e-13,-0.8109,0,0,0.16667,-8.8818e-16,0,0.66667
0.76902,0.19985,4.6141,-0.45023,-8.6624,16.561,5.5398,-1.8466,-1.2787,7.3864,-7.1248e-11,-0.63937,0,0,0.16667,-0,-0,0.66667
0.41563,0.8541,2.4938,0.53114,20.936,84.472,-3.5321,1.1774,-0.99569,-4.7095,4.6807e-13,-0.49785,0,0,0.16667,7.8949e-16,0,0.66667
0.50009,0.39768,3.0005,-0.15349,-5.4391,64.261,1.2281,-0.40937,-1.9179,1.6375,-1.4522e-13,-0.95895,0,0,0.16667,7.8949e-16,0,0.66667
0.08748,0.21866,0.52488,-0.42201,-19.933,174.67,0.59067,-0.19689,-1.3671,0.78756,8.576e-09,-0.68353,0,0,0.16667,2.6137e-16,0,0.66667
0.90434,0.31461,5.426,-0.27809,-2.2918,3.5513,4.0238,-1.3413,-1.7264,5.365,-3.3679e-09,-0.86322,0,0,0.16667,-0,-0,0.66667
0.45473,0.95554,2.7284,0.68331,25.949,75.266,-4.9715,1.6572,-0.34021,-6.6287,4.8095e-13,-0.17011,0,0,0.16667,-0,-0,0.66667
0.59906,0.65771,3.5943,0.23657,7.156,43.608,-2.2675,0.75583,-1.8012,-3.0233,-1.5092e-12,-0.90059,0,0,0.16667,-0,-0,0.66667
0.070556,0.64267,0.42334,0.21401,10.107,179.62,-0.24159,0.080531,-1.8356,-0.32212,7.1491e-11,-0.91782,0,0,0.16667,-0,-0,0.66667
0.52944,0.98419,3.1766,0.72629,25.063,58.513,-6.1524,2.0508,-0.12465,-8.2032,-5.9908e-13,-0.062327,0,0,0.16667,7.8949e-16,0,0.66667
0.22131,0.21307,1.3279,-0.43039,-19.479,136.03,1.524,-0.50801,-1.3418,2.032,1.4046e-10,-0.67092,0,0,0.16667,1.9737e-16,0,0.66667
0.38519,0.50439,2.3111,0.0065848,0.26533,91.778,-0.040582,0.013527,-1.9995,-0.05411,-7.3349e-13,-0.99973,0,0,0.16667,-0,-0,0.66667
0.56,0.28796,3.36,-0.31806,-10.327,51.471,2.8498,-0.94994,-1.6407,3.7998,4.1567e-13,-0.82034,0,0,0.16667,-0,-0,0.66667
0.81503,0.43318,4.8902,-0.10022,-1.5576,10.84,1.307,-0.43565,-1.965,1.7426,-9.6447e-11,-0.98249,0,0,0.16667,-7.8949e-16,0,0.66667
0.26284,0.84909,1.5771,0.52364,23.242,124.5,-2.2021,0.73405,-1.0255,-2.9362,-1.3089e-11,-0.51275,0,0,0.16667,-0,-0,0.66667
0.72782,0.47373,4.3669,-0.039407,-0.86664,21.717,0.45889,-0.15296,-1.9938,0.61186,-4.2446e-12,-0.9969,0,0,0.16667,-0,-0,0.66667
0.49204,0.3654,2.9523,-0.2019,-7.2357,66.099,1.5895,-0.52984,-1.8538,2.1194,6.6636e-13,-0.92688,0,0,0.16667,-7.8949e-16,0,0.66667
0.30424,0.35736,1.8255,-0.21396,-9.2049,113.03,1.0415,-0.34718,-1.8357,1.3887,-3.2638e-12,-0.91786,0,0,0.16667,-0,-0,0.66667
0.29041,0.19412,1.7424,-0.45881,-19.998,116.91,2.1319,-0.71063,-1.2506,2.8425,-4.6314e-12,-0.62532,0,0,0.16667,-0,-0,0.66667
0.2411,0.039655,1.4466,-0.69052,-31.157,130.67,2.6638,-0.88792,-0.30354,3.5517,1.6331e-12,-0.15177,0,0,0.16667,-0,-0,0.66667
0.073163,0.15515,0.43898,-0.51727,-24.538,178.9,0.60552,-0.20184,-1.049,0.80737,8.737e-08,-0.52448,0,0,0.16667,9.8686e-17,0,0.66667
0.58112,0.341,3.4867,-0.2385,-7.457,47.126,2.2176,-0.73919,-1.7985,2.9567,8.5731e-13,-0.89924,0,0,0.16667,-0,-0,0.66667
0.62494,0.43467,3.7496,-0.097991,-2.8104,38.652,0.97982,-0.32661,-1.9683,1.3064,1.1526e-12,-0.98417,0,0,0.16667,1.9737e-16,0,0.66667
0.23524,0.52149,1.4115,0.03224,1.4431,132,-0.12135,0.040449,-1.9973,-0.1618,-1.7629e-11,-0.99866,0,0,0.16667,-0,-0,0.66667
0.56429,0.40065,3.3858,-0.14902,-4.7917,50.47,1.3455,-0.44848,-1.9219,1.7939,-4.4287e-13,-0.96097,0,0,0.16667,1.1842e-15,0,0.66667
0.8726,0.7893,5.2356,0.43395,4.801,5.9972,-6.0586,2.0195,-1.3307,-8.0781,4.4946e-09,-0.66535,0,0,0.16667,-0,-0,0.66667
0.80766,0.36148,4.846,-0.20778,-3.3557,11.699,2.685,-0.895,-1.8454,3.58,-5.5477e-10,-0.9227,0,0,0.16667,-0,-0,0.66667
0.40735,0.52843,2.4441,0.042652,1.6828,86.212,-0.27799,0.092663,-1.9953,-0.37065,-2.9848e-13,-0.99765,0,0,0.16667,-3.9475e-16,0,0.66667
0.49622,0.41891,2.9773,-0.12163,-4.3315,65.119,0.96569,-0.3219,-1.9467,1.2876,2.281e-13,-0.97335,0,0,0.16667,-7.8949e-16,0,0.66667
0.70639,0.042664,4.2383,-0.686,-16.432,25.78,7.7534,-2.5845,-0.32632,10.338,-1.3989e-13,-0.16316,0,0,0.16667,-0,-0,0.66667
0.57792,0.82615,3.4675,0.48922,15.476,48.045,-4.5237,1.5079,-1.1503,-6.0316,-3.0642e-13,-0.57514,0,0,0.16667,-7.8949e-16,-3.7649e-17,0.66667
0.75469,0.004817,4.5281,-0.74277,-15.338,19.109,8.969,-2.9897,-0.03809,11.959,-2.7505e-11,-0.019045,0,0,0.16667,-0,-0,0.66667
0.95016,0.2406,5.701,-0.3891,-1.6495,1.5108,5.9154,-1.9718,-1.4615,7.8872,3.5828e-08,-0.73077,0,0,0.16667,-7.8949e-16,0,0.66667
0.17702,0.42636,1.0621,-0.11047,-5.0732,148.55,0.31288,-0.10429,-1.9555,0.41718,4.2247e-10,-0.97777,0,0,0.16667,-1.9737e-16,0,0.66667
0.78926,0.94083,4.7356,0.66124,11.882,14.604,-8.3502,2.7834,-0.44489,-11.134,3.8963e-11,-0.22244,0,0,0.16667,-0,-0,0.66667
0.33497,0.19395,2.0098,-0.45907,-19.396,104.98,2.4604,-0.82013,-1.2498,3.2805,-4.4276e-12,-0.62488,0,0,0.16667,-0,-0,0.66667
0.56378,0.40497,3.3827,-0.14254,-4.587,50.572,1.2858,-0.42859,-1.9297,1.7144,4.2188e-13,-0.96485,0,0,0.16667,-3.9475e-16,0,0.66667
0.20689,0.20808,1.2413,-0.43789,-19.951,140.11,1.4495,-0.48317,-1.3177,1.9327,2.8438e-10,-0.65883,0,0,0.16667,-0,-0,0.66667
0.74097,0.045532,4.4458,-0.6817,-14.687,20.775,8.0819,-2.694,-0.34621,10.776,-2.6468e-12,-0.17311,0,0,0.16667,1.579e-15,0,0.66667
0.98,0.51363,5.88,0.020449,0.026943,0.28548,-0.32065,0.10688,-1.9976,-0.42753,2.8332e-08,-0.99878,0,0,0.16667,3.158e-15,0,0.66667
0.83333,0.19865,5,-0.45203,-6.462,9.4265,6.0271,-2.009,-1.2724,8.0361,-8.0554e-10,-0.6362,0,0,0.16667,-0,-0,0.66667
0.62051,0.48939,3.7231,-0.015914,-0.46047,39.455,0.158,-0.052666,-1.9983,0.21066,2.2619e-13,-0.99913,0,0,0.16667,7.8949e-16,0,0.66667
0.49211,0.53688,2.9526,0.055317,1.9801,66.035,-0.43555,0.14518,-1.9883,-0.58074,-9.0122e-13,-0.99414,0,0,0.16667,-0,-0,0.66667
0.52358,0.46563,3.1415,-0.051553,-1.7663,59.042,0.43187,-0.14396,-1.9901,0.57583,-5.7038e-13,-0.99505,0,0,0.16667,9.8686e-16,0,0.66667
0.93153,0.69868,5.5892,0.29802,1.7453,2.1218,-4.4418,1.4806,-1.683,-5.9224,-3.945e-09,-0.84149,0,0,0.16667,1.579e-15,0,0.66667
0.15835,0.40239,0.95008,-0.14642,-6.7699,153.94,0.37097,-0.12366,-1.9248,0.49462,1.3631e-09,-0.96238,0,0,0.16667,-0,-0,0.66667
0.59051,0.34256,3.5431,-0.23616,-7.259,45.269,2.2313,-0.74377,-1.8026,2.9751,5.9908e-13,-0.9013,0,0,0.16667,1.0856e-15,0,0.66667
0.63801,0.24598,3.828,-0.38104,-10.68,36.51,3.8897,-1.2966,-1.4845,5.1862,3.1544e-12,-0.74223,0,0,0.16667,1.9737e-16,0,0.66667
0.90792,0.27379,5.4475,-0.33932,-2.7038,3.4281,4.9292,-1.6431,-1.5914,6.5722,-7.3292e-09,-0.79568,0,0,0.16667,7.8949e-16,0,0.66667
0.2694,0.3406,1.6164,-0.2391,-10.519,122.54,1.0306,-0.34354,-1.7971,1.3741,1.597e-11,-0.89853,0,0,0.16667,-0,-0,0.66667
0.71075,0.50843,4.2645,0.012651,0.29311,24.231,-0.14387,0.047957,-1.9982,-0.19183,-5.6712e-13,-0.99912,0,0,0.16667,3.158e-15,0,0.66667
0.35033,0.7624,2.102,0.3936,16.408,100.9,-2.2062,0.7354,-1.4478,-2.9416,4.4962e-12,-0.72389,0,0,0.16667,-0,-0,0.66667
0.36439,0.96919,2.1863,0.70378,29.247,97.586,-4.1032,1.3677,-0.23934,-5.4709,2.5002e-13,-0.11967,0,0,0.16667,-0,-0,0.66667
0.081405,0.23915,0.48843,-0.39128,-18.491,176.45,0.50964,-0.16988,-1.4552,0.67952,9.831e-09,-0.72762,0,0,0.16667,-0,-0,0.66667
0.3283,0.55945,1.9698,0.08917,3.7675,106.56,-0.4684,0.15613,-1.9741,-0.62453,1.4455e-12,-0.98704,0,0,0.16667,-0,-0,0.66667
0.32443,0.42529,1.9466,-0.11206,-4.7489,107.6,0.58169,-0.1939,-1.9547,0.77559,-2.2949e-12,-0.97735,0,0,0.16667,-0,-0,0.66667
0.029581,0.22891,0.17748,-0.40663,-19.334,191.74,0.19245,-0.064152,-1.4126,0.25661,-1.1229e-07,-0.70628,0,0,0.16667,-4.9343e-17,0,0.66667
0.54957,0.33671,3.2974,-0.24494,-8.0786,53.575,2.1538,-0.71793,-1.7869,2.8717,-1.4699e-13,-0.89345,0,0,0.16667,-3.9475e-16,0,0.66667
0.70674,0.3877,4.2405,-0.16844,-3.9535,24.893,1.9047,-0.63491,-1.8985,2.5397,-8.32e-13,-0.94924,0,0,0.16667,-0,-0,0.66667
0.4985,0.88039,2.991,0.57059,20.442,65.02,-4.551,1.517,-0.84352,-6.068,-2.2782e-13,-0.42176,0,0,0.16667,-0,-2.4785e-16,0.66667
0.5273,0.29545,3.1638,-0.30682,-10.483,58.362,2.5886,-0.86287,-1.6645,3.4515,-6.3283e-14,-0.83223,0,0,0.16667,7.8949e-16,0,0.66667
0.10581,0.53832,0.63489,0.057485,2.695,169.24,-0.097324,0.032441,-1.9881,-0.12977,2.2327e-08,-0.99404,0,0,0.16667,-0,-0,0.66667
0.68474,0.87934,4.1085,0.56901,14.366,28.886,-6.234,2.078,-0.84937,-8.3121,-3.6358e-12,-0.42469,0,0,0.16667,1.579e-15,3.809e-18,0.66667
0.47114,0.11289,2.8269,-0.58066,-21.549,71.27,4.3772,-1.4591,-0.80113,5.8363,-1.7408e-13,-0.40057,0,0,0.16667,-7.8949e-16,0,0.66667
0.22927,0.8793,1.3756,0.56895,25.733,133.88,-2.0871,0.6957,-0.84874,-2.7828,2.6918e-11,-0.42437,0,0,0.16667,-7.8949e-16,0,0.66667
0.85572,0.85186,5.1343,0.52778,6.6274,7.5688,-7.2262,2.4087,-1.0093,-9.6349,2.5294e-09,-0.50463,0,0,0.16667,1.579e-15,0,0.66667
0.56519,0.76802,3.3912,0.40204,12.966,50.496,-3.6356,1.2119,-1.4251,-4.8475,-4.5541e-13,-0.71253,0,0,0.16667,-7.8949e-16,0,0.66667
0.99916,0.89649,5.995,0.59473,-0.080987,0.94974,-9.5077,3.1692,-0.74343,-12.677,1.3334e-07,-0.37171,0,0,0.16667,1.579e-15,0,0.66667
0.077097,0.31797,0.46258,-0.27304,-12.89,177.7,0.33681,-0.11227,-1.7363,0.44908,-1.4623e-10,-0.86816,0,0,0.16667,-0,-0,0.66667
0.515,0.17398,3.09,-0.48903,-17.084,61.243,4.0297,-1.3432,-1.1506,5.3729,-2.7711e-13,-0.57532,0,0,0.16667,-7.8949e-16,3.6957e-17,0.66667
0.30396,0.20562,1.8237,-0.44158,-19.069,113.23,2.1475,-0.71584,-1.3052,2.8633,-4.674e-12,-0.65261,0,0,0.16667,-0,-0,0.66667
0.86161,0.78636,5.1697,0.42953,5.1433,6.8615,-5.9215,1.9738,-1.3447,-7.8953,4.0425e-09,-0.67236,0,0,0.16667,-0,-0,0.66667
0.16178,0.44413,0.97065,-0.083803,-3.869,152.94,0.21692,-0.072305,-1.9743,0.28922,7.4134e-10,-0.98715,0,0,0.16667,-0,-0,0.66667
0.0013843,0.43984,0.0083057,-0.090236,-4.2795,200.09,0.0019981,-0.00066834,-1.9727,0.002663,-3.44e-06,-0.98636,0,0,0.16667,-0,-0,0.66667
0.44299,0.16485,2.6579,-0.50272,-19.234,77.798,3.5632,-1.1877,-1.1005,4.7509,-5.258e-13,-0.55023,0,0,0.16667,-0,-0,0.66667
0.67716,0.99973,4.0629,0.7496,19.482,30.546,-8.1215,2.7072,-0.0025457,-10.829,1.0223e-12,-0.0012728,0,0,0.16667,-2.5412e-15,0,0.66667
0.96791,0.35873,5.8074,-0.2119,-0.52861,0.68212,3.2816,-1.0939,-1.8411,4.3755,2.3321e-09,-0.92057,0,0,0.16667,1.579e-15,0,0.66667
0.62011,0.12849,3.7207,-0.55726,-16.317,40.042,5.529,-1.843,-0.89576,7.372,7.9803e-13,-0.44788,0,0,0.16667,-1.579e-15,0,0.66667
0.19035,0.92635,1.1421,0.63953,29.483,144.93,-1.9478,0.64927,-0.54555,-2.5971,-6.4566e-11,-0.27278,0,0,0.16667,-0,-0,0.66667
0.36217,0.29186,2.173,-0.31221,-12.87,97.771,1.8092,-0.60306,-1.6533,2.4122,-3.0594e-12,-0.82663,0,0,0.16667,-7.8949e-16,0,0.66667
0.78006,0.16497,4.6803,-0.50254,-9.2825,15.305,6.2722,-2.0907,-1.1029,8.3629,-8.6512e-11,-0.55147,0,0,0.16667,-0,-0,0.66667
0.32974,0.15921,1.9785,-0.51119,-21.709,106.4,2.697,-0.89899,-1.0723,3.596,-3.5454e-12,-0.53615,0,0,0.16667,-0,-0,0.66667
0.16424,0.31847,0.98545,-0.27229,-12.58,152.26,0.71555,-0.23852,-1.7355,0.95407,1.517e-09,-0.86774,0,0,0.16667,-0,-0,0.66667
0.28507,0.99317,1.7104,0.73975,32.611,118.62,-3.3741,1.1247,-0.054058,-4.4988,-2.7933e-13,-0.027029,0,0,0.16667,-3.9475e-16,0,0.66667
0.04034,0.82931,0.24204,0.49397,23.509,188.57,-0.31883,0.10628,-1.131,-0.42511,-1.2757e-08,-0.56548,0,0,0.16667,-4.9343e-17,0,0.66667
0.75512,0.97231,4.5307,0.70847,14.571,18.953,-8.5596,2.8532,-0.21519,-11.413,2.5473e-12,-0.10759,0,0,0.16667,-0,-0,0.66667
0.28529,0.94636,1.7117,0.66953,29.443,118.48,-3.0561,1.0187,-0.40559,-4.0749,1.0658e-14,-0.2028,0,0,0.16667,-0,-0,0.66667
0.7645,0.31156,4.587,-0.28265,-5.4964,16.884,3.4574,-1.1525,-1.718,4.6099,-1.1285e-10,-0.85902,0,0,0.16667,-1.9737e-15,0,0.66667
0.84257,0.63037,5.0554,0.19556,2.6166,8.1873,-2.6364,0.87879,-1.8653,-3.5152,1.1904e-09,-0.93266,0,0,0.16667,3.158e-15,0,0.66667
0.45502,0.68833,2.7301,0.28249,10.611,74.728,-2.0566,0.68554,-1.7179,-2.7421,1.2768e-13,-0.85897,0,0,0.16667,-0,-0,0.66667
0.85839,0.65863,5.1503,0.23794,2.8809,6.8361,-3.2679,1.0893,-1.8006,-4.3573,2.0583e-09,-0.90031,0,0,0.16667,-0,-0,0.66667
0.99143,0.94876,5.9486,0.67314,0.47501,1.2919,-10.678,3.5593,-0.38755,-14.237,1.1119e-05,-0.19377,0,0,0.16667,-0,-0,0.66667
0.94175,0.82043,5.6505,0.48064,2.4441,2.0334,-7.2423,2.4141,-1.1781,-9.6564,1.8981e-08,-0.58905,0,0,0.16667,-0,-0,0.66667
0.97927,0.49542,5.8756,-0.0068697,-0.0095154,0.29917,0.10764,-0.035879,-1.9995,0.14352,8.6083e-07,-0.99975,0,0,0.16667,2.3685e-15,0,0.66667
0.95065,0.89175,5.7039,0.58762,2.5826,1.9845,-8.938,2.9793,-0.7721,-11.917,6.4453e-08,-0.38605,0,0,0.16667,-1.579e-15,0,0.66667
0.96389,0.84945,5.7833,0.52417,1.628,1.3843,-8.0839,2.6946,-1.0226,-10.779,-7.1118e-08,-0.51132,0,0,0.16667,-0,-0,0.66667
0.69794,0.65299,4.1876,0.22948,5.5281,26.298,-2.5626,0.8542,-1.8126,-3.4168,-2.7951e-12,-0.90631,0,0,0.16667,1.1842e-15,0,0.66667
0.15618,0.43843,0.9371,-0.092353,-4.2718,154.56,0.23079,-0.076928,-1.9725,0.30771,-6.3069e-10,-0.98626,0,0,0.16667,-0,-0,0.66667
0.64676,0.28654,3.8806,-0.32019,-8.7875,34.884,3.3134,-1.1045,-1.6348,4.4178,3.5725e-12,-0.81741,0,0,0.16667,-0,-0,0.66667
0.99073,0.98547,5.9444,0.7282,0.62097,1.5045,-11.543,3.8477,-0.1132,-15.391,1.2335e-05,-0.0566,0,0,0.16667,1.579e-15,0,0.66667
0.24429,0.35672,1.4657,-0.21492,-9.5852,129.5,0.84003,-0.28001,-1.8345,1.12,6.7518e-11,-0.91724,0,0,0.16667,-0,-0,0.66667
0.68176,0.52694,4.0906,0.040405,1.0145,28.781,-0.44075,0.14692,-1.9938,-0.58766,-4.6002e-13,-0.99688,0,0,0.16667,-0,-0,0.66667
0.12926,0.94433,0.77557,0.66649,31.375,162.53,-1.3784,0.45948,-0.42019,-1.8379,-1.2594e-09,-0.21009,0,0,0.16667,3.9475e-16,0,0.66667
0.99818,0.4018,5.9891,-0.1473,0.056955,0.074156,2.3525,-0.78417,-1.9239,3.1367,-8.7912e-07,-0.96195,0,0,0.16667,3.9475e-16,0,0.66667
0.41986,0.3835,2.5191,-0.17476,-6.8132,83.152,1.174,-0.39132,-1.8918,1.5653,-7.9725e-13,-0.94592,0,0,0.16667,-7.8949e-16,0,0.66667
0.35068,0.69955,2.1041,0.29933,12.454,100.75,-1.6795,0.55983,-1.68,-2.2393,3.5256e-12,-0.84001,0,0,0.16667,-0,-0,0.66667
0.20659,0.19178,1.2395,-0.46233,-21.077,140.21,1.5282,-0.5094,-1.2403,2.0376,2.5156e-10,-0.62013,0,0,0.16667,-0,-0,0.66667
0.85016,0.0082616,5.1009,-0.73761,-9.8013,8.6505,10.033,-3.3444,-0.064475,13.378,-2.3189e-09,-0.032237,0,0,0.16667,3.158e-15,0,0.66667
0.6124,0.82578,3.6744,0.48866,14.495,41.361,-4.7882,1.5961,-1.1506,-6.3842,-1.7355e-12,-0.57528,0,0,0.16667,1.579e-15,0,0.66667
0.57534,0.67458,3.452,0.26187,8.2749,48.301,-2.4106,0.80354,-1.7559,-3.2141,-1.013e-12,-0.87795,0,0,0.16667,-0,-0,0.66667
0.24805,0.19061,1.4883,-0.46409,-20.739,128.56,1.8419,-0.61396,-1.2354,2.4558,4.7624e-11,-0.6177,0,0,0.16667,-0,-0,0.66667
0.13351,0.054195,0.80104,-0.66871,-31.446,161.3,1.4284,-0.47615,-0.40891,1.9046,-1.4471e-08,-0.20446,0,0,0.16667,-0,-0,0.66667
0.064967,0.69842,0.3898,0.29763,14.079,181.28,-0.30937,0.10312,-1.685,-0.4125,8.9772e-09,-0.84251,0,0,0.16667,-0,-0,0.66667
0.60725,0.31245,3.6435,-0.28132,-8.3829,42.075,2.7333,-0.91111,-1.7203,3.6444,1.3565e-12,-0.86016,0,0,0.16667,-9.5877e-17,0,0.66667
0.72959,0.57936,4.3776,0.11904,2.6047,21.486,-1.3896,0.46321,-1.9485,-1.8528,1.0667e-11,-0.97426,0,0,0.16667,-0,-0,0.66667
0.4249,0.43766,2.5494,-0.093517,-3.6247,81.891,0.63576,-0.21192,-1.9701,0.84768,2.9649e-13,-0.98507,0,0,0.16667,-1.579e-15,0,0.66667
0.099,0.91922,0.594,0.62883,29.779,171.34,-0.99607,0.33202,-0.59284,-1.3281,1.3929e-08,-0.29642,0,0,0.16667,-0,-0,0.66667
0.089276,0.6007,0.53565,0.15104,7.1078,174.1,-0.21575,0.071917,-1.9184,-0.28767,-2.1787e-08,-0.9592,0,0,0.16667,-0,-0,0.66667
0.52952,0.48026,3.1771,-0.029606,-1.0054,57.752,0.25083,-0.083611,-1.9972,0.33444,-3.7048e-13,-0.99862,0,0,0.16667,-0,-0,0.66667
0.33597,0.25846,2.0158,-0.36231,-15.266,104.64,1.9476,-0.6492,-1.5321,2.5968,-4.888e-12,-0.76605,0,0,0.16667,-7.8949e-16,0,0.66667
0.6614,0.58679,3.9684,0.13019,3.4419,32.201,-1.3777,0.45925,-1.9391,-1.837,-2.8941e-12,-0.96953,0,0,0.16667,7.8949e-16,0,0.66667
0.9539,0.7147,5.7234,0.32206,1.2393,1.2584,-4.9153,1.6384,-1.633,-6.5538,-3.7174e-08,-0.8165,0,0,0.16667,7.8949e-16,0,0.66667
0.048989,0.1339,0.29394,-0.54915,-26.147,186.03,0.43044,-0.14348,-0.92811,0.57391,7.6218e-08,-0.46406,0,0,0.16667,-0,-0,0.66667
0.12125,0.59496,0.7275,0.14244,6.6567,164.73,-0.27634,0.092114,-1.9286,-0.36846,-9.6522e-09,-0.96428,0,0,0.16667,-0,-0,0.66667
0.60823,0.069076,3.6494,-0.64639,-19.451,42.438,6.2904,-2.0968,-0.5156,8.3873,-2.6024e-13,-0.2578,0,0,0.16667,1.579e-15,-1.3117e-16,0.66667
0.29619,0.84512,1.7772,0.51768,22.51,115.38,-2.4533,0.81777,-1.0495,-3.2711,3.2023e-12,-0.52474,0,0,0.16667,-0,2.1351e-16,0.66667
0.71874,0.77776,4.3125,0.41664,9.4996,23.37,-4.7913,1.5971,-1.3852,-6.3885,-7.3719e-13,-0.6926,0,0,0.16667,7.8949e-16,0,0.66667
0.48481,0.8088,2.9089,0.4632,16.84,67.969,-3.593,1.1977,-1.2392,-4.7907,-1.4566e-13,-0.61961,0,0,0.16667,-0,-0,0.66667
0.95416,0.90269,5.725,0.60404,2.4733,1.9139,-9.2216,3.0739,-0.7044,-12.295,7.8026e-07,-0.3522,0,0,0.16667,-1.579e-15,0,0.66667
0.35878,0.25036,2.1527,-0.37446,-15.497,98.69,2.1496,-0.71652,-1.504,2.8661,-1.966e-12,-0.75201,0,0,0.16667,-1.579e-15,0,0.66667
0.72512,0.76654,4.3507,0.39981,8.9333,22.412,-4.6386,1.5462,-1.4302,-6.1847,4.3165e-12,-0.71511,0,0,0.16667,-0,-0,0.66667
0.59297,0.27261,3.5578,-0.34108,-10.457,44.885,3.236,-1.0787,-1.5875,4.3146,1.2204e-12,-0.79377,0,0,0.16667,-0,-0,0.66667
0.70173,0.86943,4.2104,0.55415,13.354,26.185,-6.2218,2.0739,-0.90929,-8.2957,-3.6424e-12,-0.45465,0,0,0.16667,-3.9475e-16,0,0.66667
0.28609,0.64282,1.7165,0.21423,9.3268,117.96,-0.98063,0.32688,-1.8357,-1.3075,-2.796e-12,-0.91786,0,0,0.16667,-3.9475e-16,0,0.66667
0.55036,0.0073181,3.3022,-0.73902,-24.716,54.122,6.5077,-2.1692,-0.05795,8.6769,6.9145e-13,-0.028975,0,0,0.16667,-0,-0,0.66667
0.0072068,0.9965,0.043241,0.74475,35.74,198.37,-0.085977,0.028639,-0.02749,-0.11465,-3.0528e-05,-0.013745,0,0,0.16667,4.0091e-17,0,0.66667
0.95089,0.73424,5.7053,0.35136,1.4559,1.4138,-5.3457,1.7819,-1.561,-7.1276,-3.3399e-08,-0.7805,0,0,0.16667,-0,-0,0.66667
0.43824,0.37122,2.6294,-0.19317,-7.386,78.686,1.3544,-0.45148,-1.8692,1.8059,-2.8366e-13,-0.93459,0,0,0.16667,7.8949e-16,0,0.66667
0.35615,0.7316,2.1369,0.34739,14.401,99.354,-1.9796,0.65985,-1.5704,-2.6394,3.7902e-12,-0.78521,0,0,0.16667,-0,-0,0.66667
0.10194,0.58169,0.61163,0.12254,5.7513,170.38,-0.19987,0.066623,-1.9452,-0.26649,-2.4464e-09,-0.97258,0,0,0.16667,9.8686e-17,0,0.66667
0.23738,0.33081,1.4243,-0.25378,-11.364,131.44,0.96388,-0.32129,-1.7706,1.2852,1.006e-10,-0.88531,0,0,0.16667,-0,-0,0.66667
0.29709,0.17858,1.7825,-0.48213,-20.935,115.12,2.2918,-0.76392,-1.1751,3.0557,-4.7589e-12,-0.58753,0,0,0.16667,-3.9475e-16,0,0.66667
0.47856,0.18239,2.8714,-0.47641,-17.465,69.417,3.6479,-1.216,-1.1924,4.8639,7.7227e-13,-0.59621,0,0,0.16667,-1.9737e-16,0,0.66667
0.41502,0.63324,2.4901,0.19986,7.8326,84.354,-1.3271,0.44237,-1.8569,-1.7695,1.2643e-12,-0.92843,0,0,0.16667,-0,-0,0.66667
0.056184,0.26058,0.3371,-0.35913,-17.022,183.88,0.32284,-0.10761,-1.5402,0.43045,-1.7956e-08,-0.77008,0,0,0.16667,-0,-0,0.66667
0.58894,0.62004,3.5336,0.18006,5.5461,45.541,-1.6967,0.56557,-1.8844,-2.2623,-6.7302e-13,-0.9422,0,0,0.16667,-1.1842e-15,0,0.66667
0.067005,0.13597,0.40203,-0.54605,-25.943,180.72,0.58541,-0.19514,-0.93896,0.78054,1.9107e-08,-0.46948,0,0,0.16667,-0,-0,0.66667
0.27883,0.90532,1.673,0.60798,26.792,120.18,-2.7124,0.90412,-0.6871,-3.6165,1.9122e-12,-0.34355,0,0,0.16667,-1.0272e-16,0,0.66667
0.93135,0.66958,5.5881,0.25437,1.4876,2.0705,-3.7906,1.2635,-1.7686,-5.0541,-1.1754e-08,-0.88428,0,0,0.16667,-0,-0,0.66667
0.70165,0.30499,4.2099,-0.29252,-6.9836,25.782,3.2839,-1.0946,-1.6966,4.3786,2.3035e-12,-0.84831,0,0,0.16667,-0,-0,0.66667
0.68369,0.22207,4.1022,-0.41689,-10.489,28.782,4.5604,-1.5201,-1.3823,6.0806,5.2887e-12,-0.69116,0,0,0.16667,-1.579e-15,0,0.66667
0.35623,0.23193,2.1374,-0.4021,-16.684,99.372,2.2918,-0.76395,-1.4247,3.0558,-3.1399e-12,-0.71233,0,0,0.16667,-0,-0,0.66667
0.59594,0.52362,3.5756,0.035423,1.0758,44.124,-0.33776,0.11259,-1.996,-0.45034,-2.7381e-13,-0.99798,0,0,0.16667,-0,-0,0.66667
0.82071,0.68626,4.9243,0.27939,4.2374,10.399,-3.6688,1.2229,-1.7224,-4.8917,8.9068e-10,-0.86118,0,0,0.16667,-2.2698e-15,0,0.66667
0.77901,0.60893,4.6741,0.16339,2.9926,14.962,-2.0366,0.67886,-1.905,-2.7154,1.5613e-10,-0.95251,0,0,0.16667,1.579e-15,0,0.66667
0.75092,0.77838,4.5055,0.41756,8.5732,18.851,-5.0169,1.6723,-1.3819,-6.6892,3.152e-11,-0.69097,0,0,0.16667,-1.9737e-16,0,0.66667
0.53154,0.056081,3.1892,-0.66588,-22.85,57.944,5.663,-1.8877,-0.42525,7.5507,-3.0731e-13,-0.21263,0,0,0.16667,-3.9475e-16,0,0.66667
0.74519,0.8227,4.4711,0.48404,10.167,19.742,-5.7713,1.9238,-1.166,-7.695,1.8229e-11,-0.58302,0,0,0.16667,-0,-0,0.66667
0.21772,0.41978,1.3063,-0.12033,-5.4335,136.95,0.41916,-0.13972,-1.9492,0.55888,1.5236e-10,-0.97461,0,0,0.16667,-3.9475e-16,0,0.66667
0.51855,0.57939,3.1113,0.11908,4.1111,60.155,-0.98798,0.32933,-1.9492,-1.3173,1.6009e-13,-0.9746,0,0,0.16667,-7.8949e-16,0,0.66667
0.81265,0.86599,4.8759,0.54898,8.8003,11.723,-7.138,2.3793,-0.93001,-9.5174,6.063e-10,-0.465,0,0,0.16667,-7.8949e-16,0,0.66667
0.27694,0.25652,1.6616,-0.36522,-16.023,120.52,1.6183,-0.53943,-1.5254,2.1577,5.5582e-12,-0.76269,0,0,0.16667,-0,-0,0.66667
0.50368,0.54304,3.0221,0.064559,2.2753,63.432,-0.52027,0.17342,-1.9846,-0.69369,-3.9346e-13,-0.99228,0,0,0.16667,-7.8949e-16,0,0.66667
0.65239,0.09754,3.9143,-0.60369,-16.52,34.357,6.3014,-2.1005,-0.70439,8.4019,1.5121e-12,-0.3522,0,0,0.16667,-0,-0,0.66667
0.08124,0.28293,0.48744,-0.32561,-15.372,176.49,0.42323,-0.14108,-1.6239,0.56431,3.3864e-09,-0.81196,0,0,0.16667,-0,-0,0.66667
0.14553,0.27324,0.87315,-0.34014,-15.823,157.69,0.79198,-0.26399,-1.5879,1.056,2.8456e-09,-0.79396,0,0,0.16667,-0,-0,0.66667
0.59348,0.93421,3.5609,0.65132,20.158,45.272,-6.1847,2.0616,-0.49394,-8.2463,-4.5786e-13,-0.24697,0,0,0.16667,-7.8949e-16,-7.4347e-17,0.66667
0.41393,0.024229,2.4836,-0.71366,-28.347,85.141,4.7264,-1.5755,-0.18811,6.3019,-4.0634e-13,-0.094054,0,0,0.16667,-0,-0,0.66667
0.13115,0.39261,0.78687,-0.16109,-7.5095,161.84,0.33801,-0.11267,-1.9064,0.45068,8.6252e-10,-0.95318,0,0,0.16667,-0,-0,0.66667
0.80877,0.86814,4.8526,0.55221,9.0206,12.143,-7.1458,2.3819,-0.91558,-9.5277,2.1761e-10,-0.45779,0,0,0.16667,-0,-0,0.66667
0.71564,0.28785,4.2938,-0.31823,-7.2999,23.691,3.6438,-1.2146,-1.64,4.8584,-2.3639e-12,-0.82001,0,0,0.16667,-1.579e-15,0,0.66667
0.97583,0.28545,5.855,-0.32183,-0.58454,0.64184,5.0248,-1.6749,-1.6311,6.6997,2.7706e-08,-0.81557,0,0,0.16667,3.158e-15,0,0.66667
0.040034,0.77323,0.2402,0.40984,19.473,188.65,-0.26252,0.087506,-1.4017,-0.35002,5.7393e-08,-0.70084,0,0,0.16667,-2.4672e-17,0,0.66667
0.80309,0.78713,4.8186,0.43069,7.1715,12.505,-5.5342,1.8447,-1.3397,-7.3789,4.6155e-10,-0.66985,0,0,0.16667,1.579e-15,0,0.66667
0.49155,0.76403,2.9493,0.39604,14.25,66.362,-3.1148,1.0383,-1.4408,-4.1531,6.2172e-14,-0.7204,0,0,0.16667,7.8949e-16,0,0.66667
0.19478,0.51431,1.1687,0.02147,0.97893,143.46,-0.066909,0.022303,-1.9968,-0.089212,-1.1869e-10,-0.99842,0,0,0.16667,-0,-0,0.66667
0.14213,0.99615,0.8528,0.74423,34.995,158.84,-1.6925,0.56416,-0.032009,-2.2566,-1.5047e-09,-0.016005,0,0,0.16667,-2.9606e-16,0,0.66667
0.19893,0.33177,1.1936,-0.25234,-11.503,142.31,0.80319,-0.26773,-1.7728,1.0709,4.308e-10,-0.88638,0,0,0.16667,-0,-0,0.66667
0.0073553,0.33649,0.044132,-0.24526,-11.644,198.32,0.028863,-0.0096211,-1.7851,0.038485,4.3618e-08,-0.89254,0,0,0.16667,-6.1679e-18,0,0.66667
0.12102,0.53567,0.72613,0.053511,2.4998,164.79,-0.10362,0.034539,-1.9899,-0.13815,-1.2654e-08,-0.99493,0,0,0.16667,3.9475e-16,0,0.66667
0.69054,0.31819,4.1432,-0.27271,-6.7102,27.503,3.0131,-1.0044,-1.7358,4.0175,3.8884e-12,-0.8679,0,0,0.16667,-0,-0,0.66667
0.2922,0.89439,1.7532,0.59159,25.841,116.53,-2.7658,0.92192,-0.75466,-3.6877,2.6055e-12,-0.37733,0,0,0.16667,-0,-0,0.66667
0.49257,0.89587,2.9554,0.5938,21.458,66.389,-4.6798,1.5599,-0.74498,-6.2397,-3.415e-13,-0.37249,0,0,0.16667,-0,-0,0.66667
0.88095,0.81143,5.2857,0.46714,4.8544,5.4447,-6.5844,2.1948,-1.2242,-8.7792,1.0704e-08,-0.61211,0,0,0.16667,-1.7764e-15,0,0.66667
0.5238,0.641,3.1428,0.2115,7.2531,59.053,-1.7725,0.59084,-1.8394,-2.3634,1.2346e-13,-0.91971,0,0,0.16667,-7.8949e-16,0,0.66667
0.70601,0.66852,4.2361,0.25279,5.9549,25.071,-2.8555,0.95184,-1.7725,-3.8074,-4.6008e-13,-0.88625,0,0,0.16667,-1.579e-15,0,0.66667
0.15105,0.79881,0.90632,0.44821,20.855,156.12,-1.0833,0.36109,-1.2845,-1.4444,-2.6461e-09,-0.64226,0,0,0.16667,-0,-0,0.66667
0.43644,0.12165,2.6186,-0.56753,-21.911,79.451,3.9631,-1.321,-0.8565,5.2841,-1.3867e-12,-0.42825,0,0,0.16667,-0,7.5593e-17,0.66667
0.89086,0.94844,5.3452,0.67266,6.5862,5.3081,-9.5879,3.196,-0.39259,-12.784,-5.0391e-08,-0.19629,0,0,0.16667,-0,-0,0.66667
0.15977,0.19566,0.95862,-0.45651,-21.185,153.61,1.167,-0.38899,-1.2587,1.556,1.3874e-09,-0.62937,0,0,0.16667,-0,-0,0.66667
0.11866,0.40741,0.71194,-0.13889,-6.4944,165.48,0.26368,-0.087892,-1.9314,0.35157,9.0491e-09,-0.96572,0,0,0.16667,-0,-0,0.66667
0.82221,0.86054,4.9332,0.54081,8.2585,10.717,-7.1145,2.3715,-0.95874,-9.486,7.5771e-10,-0.47937,0,0,0.16667,-1.579e-15,0,0.66667
0.058073,0.36444,0.34844,-0.20334,-9.6174,183.31,0.18893,-0.062978,-1.8522,0.25191,-3.4507e-08,-0.92609,0,0,0.16667,-0,-0,0.66667
0.23225,0.68184,1.3935,0.27276,12.248,132.89,-1.0135,0.33785,-1.7362,-1.3514,-1.3167e-10,-0.86809,0,0,0.16667,-1.9737e-16,0,0.66667
0.59496,0.98912,3.5697,0.73367,22.732,45.167,-6.984,2.328,-0.086837,-9.3121,-1.0481e-13,-0.043419,0,0,0.16667,-0,-0,0.66667
0.71146,0.41434,4.2688,-0.12848,-2.9728,24.155,1.4626,-0.48753,-1.9402,1.9501,-2.1092e-12,-0.97008,0,0,0.16667,-0,-0,0.66667
0.43296,0.072959,2.5977,-0.64056,-24.882,80.394,4.4373,-1.4791,-0.54024,5.9165,-2.4425e-13,-0.27012,0,0,0.16667,-0,-0,0.66667
0.47992,0.005084,2.8795,-0.74237,-27.418,69.52,5.7005,-1.9002,-0.040238,7.6007,1.7053e-13,-0.020119,0,0,0.16667,-0,-1.1277e-16,0.66667
0.086929,0.78992,0.52157,0.43489,20.548,174.83,-0.60487,0.20162,-1.3264,-0.80649,-1.4201e-08,-0.66319,0,0,0.16667,-0,-0,0.66667
0.61004,0.94796,3.6602,0.67194,20.173,42.153,-6.5585,2.1862,-0.39575,-8.7447,-1.994e-13,-0.19787,0,0,0.16667,-0,-0,0.66667
0.28032,0.88183,1.6819,0.57274,25.192,119.74,-2.5688,0.85627,-0.83493,-3.4251,7.0455e-13,-0.41746,0,0,0.16667,7.8949e-16,1.3481e-16,0.66667
0.91892,0.34558,5.5135,-0.23163,-1.6077,2.663,3.4056,-1.1352,-1.8101,4.5408,2.1745e-09,-0.90507,0,0,0.16667,3.158e-15,0,0.66667
0.23822,0.098807,1.4293,-0.60179,-27.122,131.4,2.2937,-0.76457,-0.71234,3.0583,1.4817e-11,-0.35617,0,0,0.16667,-0,-0,0.66667
0.75065,0.098175,4.5039,-0.60274,-12.505,19.264,7.2392,-2.4131,-0.71008,9.6522,-2.0628e-12,-0.35504,0,0,0.16667,-0,-0,0.66667
0.70514,0.74125,4.2309,0.36188,8.5712,25.33,-4.0828,1.3609,-1.5348,-5.4437,-3.284e-12,-0.76739,0,0,0.16667,-0,-0,0.66667
0.12278,0.10137,0.73669,-0.59794,-28.141,164.39,1.1747,-0.39155,-0.72918,1.5662,-2.0452e-08,-0.36459,0,0,0.16667,-0,-0,0.66667
0.20873,0.73491,1.2524,0.35236,16.016,139.55,-1.1768,0.39226,-1.5572,-1.569,-3.293e-10,-0.77862,0,0,0.16667,-0,-0,0.66667
0.19717,0.33817,1.183,-0.24274,-11.072,142.81,0.76579,-0.25526,-1.7898,1.0211,4.2955e-10,-0.89491,0,0,0.16667,-0,-0,0.66667
0.78433,0.68777,4.706,0.28165,5.0614,14.432,-3.5345,1.1782,-1.7191,-4.7127,2.3918e-10,-0.85957,0,0,0.16667,-0,-0,0.66667
0.55115,0.047646,3.3069,-0.67853,-22.604,53.833,5.9836,-1.9945,-0.36206,7.9781,-3.8902e-13,-0.18103,0,0,0.16667,-0,-0,0.66667
0.50799,0.84727,3.0479,0.5209,18.394,62.834,-4.2337,1.4112,-1.0347,-5.645,-1.8741e-13,-0.51737,0,0,0.16667,-0,-0,0.66667
0.74258,0.32315,4.4555,-0.26527,-5.5764,19.775,3.1517,-1.0506,-1.7484,4.2023,-3.5256e-11,-0.87422,0,0,0.16667,-0,-0,0.66667
0.87749,0.77433,5.2649,0.41149,4.3754,5.5837,-5.7773,1.9258,-1.3983,-7.703,4.5269e-09,-0.69915,0,0,0.16667,7.8949e-16,0,0.66667
0.070046,0.20967,0.42027,-0.4355,-20.633,179.8,0.48807,-0.16269,-1.3244,0.65076,1.776e-08,-0.66221,0,0,0.16667,-0,-0,0.66667
0.37632,0.79928,2.2579,0.44891,18.328,94.239,-2.703,0.901,-1.284,-3.604,2.0686e-12,-0.64199,0,0,0.16667,-0,-0,0.66667
0.34177,0.35177,2.0506,-0.22235,-9.3076,103.04,1.2159,-0.40529,-1.8247,1.6212,-3.9179e-12,-0.91236,0,0,0.16667,7.8949e-16,0,0.66667
0.84428,0.24471,5.0657,-0.38294,-5.1137,8.2749,5.1729,-1.7243,-1.4804,6.8972,-2.1558e-09,-0.74018,0,0,0.16667,-1.1842e-15,0,0.66667
0.76885,0.67753,4.6131,0.2663,5.0905,16.312,-3.2759,1.092,-1.7475,-4.3679,1.3234e-10,-0.87377,0,0,0.16667,-7.8949e-16,0,0.66667
0.5325,0.78639,3.195,0.42958,14.605,57.372,-3.66,1.22,-1.3451,-4.88,-2.0139e-13,-0.67257,0,0,0.16667,-0,-0,0.66667
0.089548,0.037124,0.53729,-0.69431,-33.002,174.13,0.99479,-0.3316,-0.28571,1.3264,-3.8176e-07,-0.14286,0,0,0.16667,1.9737e-16,0,0.66667
0.92511,0.70405,5.5506,0.30607,1.9693,2.4427,-4.5304,1.5101,-1.6664,-6.0405,3.5871e-10,-0.83319,0,0,0.16667,-0,-0,0.66667
0.55794,0.054578,3.3477,-0.66813,-22.006,52.408,5.9645,-1.9882,-0.41217,7.9526,8.9262e-14,-0.20609,0,0,0.16667,-3.9475e-16,-1.2684e-17,0.66667
0.023909,0.61852,0.14346,0.17778,8.4307,193.41,-0.06801,0.02267,-1.8867,-0.090679,3.2455e-09,-0.94334,0,0,0.16667,1.4157e-17,0,0.66667
0.64606,0.72693,3.8764,0.34039,9.3614,35.03,-3.5186,1.1729,-1.5871,-4.6915,-3.6195e-12,-0.79357,0,0,0.16667,-0,-0,0.66667
0.27371,0.95235,1.6423,0.67852,30.057,121.65,-2.9715,0.99049,-0.36152,-3.962,7.3075e-13,-0.18076,0,0,0.16667,-0,-0,0.66667
0.45368,0.64093,2.7221,0.21139,7.9448,75.003,-1.5344,0.51148,-1.8421,-2.0459,1.1768e-13,-0.92105,0,0,0.16667,7.8949e-16,0,0.66667
0.89562,0.55546,5.3737,0.083191,0.7422,3.9326,-1.1921,0.39737,-1.9747,-1.5895,1.3161e-08,-0.98737,0,0,0.16667,-1.579e-15,0,0.66667
0.20404,0.24962,1.2243,-0.37557,-17.113,140.89,1.2261,-0.40871,-1.5008,1.6348,3.5236e-10,-0.75042,0,0,0.16667,-5.181e-16,0,0.66667
0.11364,0.12572,0.68183,-0.56142,-26.456,167.04,1.0208,-0.34026,-0.87993,1.361,1.0892e-08,-0.43997,0,0,0.16667,3.9475e-16,0,0.66667
0.61817,0.82868,3.709,0.49303,14.459,40.291,-4.8764,1.6255,-1.1342,-6.5018,-1.6906e-12,-0.56712,0,0,0.16667,-0,-0,0.66667
0.67549,0.37953,4.0529,-0.1807,-4.6168,29.865,1.953,-0.651,-1.8841,2.604,2.9317e-12,-0.94203,0,0,0.16667,1.579e-15,0,0.66667
0.98885,0.48398,5.9331,-0.024031,-0.011573,0.13194,0.38021,-0.12674,-1.9969,0.50694,-5.7822e-06,-0.99847,0,0,0.16667,-0,-0,0.66667
0.32157,0.57126,1.9294,0.10689,4.539,108.36,-0.54995,0.18332,-1.9582,-0.73326,1.0882e-12,-0.97912,0,0,0.16667,-0,-0,0.66667
0.90723,0.6197,5.4434,0.17955,1.4262,3.2688,-2.6063,0.86877,-1.8868,-3.4751,-7.2998e-09,-0.94341,0,0,0.16667,-1.579e-15,0,0.66667
0.59047,0.84133,3.5428,0.512,15.848,45.602,-4.8372,1.6124,-1.0686,-6.4495,-9.0328e-13,-0.53429,0,0,0.16667,1.9737e-16,0,0.66667
0.076837,0.81593,0.46102,0.47389,22.447,177.81,-0.5826,0.1942,-1.203,-0.7768,-1.6756e-08,-0.60152,0,0,0.16667,-0,-0,0.66667
0.93059,0.025954,5.5835,-0.71107,-4.5318,3.2002,10.587,-3.5291,-0.20149,14.117,-7.8855e-07,-0.10074,0,0,0.16667,7.8949e-16,0,0.66667
0.54246,0.74558,3.2548,0.36837,12.316,55.18,-3.1972,1.0657,-1.5174,-4.263,-4.8406e-14,-0.75871,0,0,0.16667,-9.8686e-16,0,0.66667
0.47386,0.94375,2.8432,0.66563,24.694,70.775,-5.0467,1.6822,-0.42409,-6.7289,-8.9706e-14,-0.21204,0,0,0.16667,-0,-0,0.66667
0.54448,0.051543,3.2669,-0.67268,-22.64,55.215,5.8602,-1.9534,-0.39111,7.8136,-7.2564e-13,-0.19555,0,0,0.16667,-0,-0,0.66667
0.52734,0.99163,3.164,0.73745,25.54,58.987,-6.2222,2.0741,-0.065918,-8.2963,-4.2544e-13,-0.032959,0,0,0.16667,7.8949e-16,-1.5477e-16,0.66667
0.66148,0.11325,3.9689,-0.58013,-15.526,32.751,6.1399,-2.0466,-0.80225,8.1865,1.8936e-12,-0.40113,0,0,0.16667,7.8949e-16,0,0.66667
0.64445,0.93366,3.8667,0.65049,18.162,35.842,-6.7073,2.2358,-0.49569,-8.9431,-8.3622e-13,-0.24785,0,0,0.16667,9.8686e-16,0,0.66667
0.17293,0.29964,1.0376,-0.30054,-13.847,149.76,0.83157,-0.27719,-1.6795,1.1088,1.1779e-09,-0.83977,0,0,0.16667,-1.9737e-16,0,0.66667
0.50754,0.067573,3.0452,-0.64864,-23.019,63.135,5.2673,-1.7558,-0.50329,7.0231,5.5067e-14,-0.25165,0,0,0.16667,-0,-0,0.66667
0.17819,0.88408,1.0691,0.57612,26.638,148.37,-1.6425,0.54751,-0.8187,-2.19,-4.9916e-10,-0.40935,0,0,0.16667,-0,-0,0.66667
0.46566,0.75635,2.794,0.38453,14.29,72.308,-2.865,0.955,-1.4744,-3.82,-4.7073e-14,-0.7372,0,0,0.16667,-0,-0,0.66667
0.095605,0.1393,0.57363,-0.54106,-25.582,172.31,0.82764,-0.27588,-0.95931,1.1035,1.0619e-08,-0.47965,0,0,0.16667,-0,-0,0.66667
0.90893,0.29188,5.4536,-0.31218,-2.4544,3.3262,4.54,-1.5133,-1.6534,6.0534,-5.0129e-09,-0.82669,0,0,0.16667,-0,-0,0.66667
0.84302,0.68888,5.0581,0.28332,3.793,8.241,-3.8215,1.2738,-1.7169,-5.0953,1.7737e-09,-0.85844,0,0,0.16667,-0,-0,0.66667
0.20466,0.17407,1.228,-0.48889,-22.32,140.77,1.6009,-0.53364,-1.1505,2.1346,2.0699e-10,-0.57527,0,0,0.16667,-0,-0,0.66667
0.22201,0.42071,1.332,-0.11894,-5.3599,135.73,0.42248,-0.14083,-1.9492,0.5633,1.2442e-10,-0.97458,0,0,0.16667,-3.9475e-16,0,0.66667
0.56481,0.059662,3.3889,-0.66051,-21.504,50.988,5.969,-1.9897,-0.44987,7.9586,-4.4409e-16,-0.22493,0,0,0.16667,-0,-0,0.66667
0.041276,0.55519,0.24766,0.082792,3.9195,188.27,-0.054677,0.018226,-1.9748,-0.072903,-8.1789e-08,-0.9874,0,0,0.16667,-2.4672e-17,0,0.66667
0.97916,0.80337,5.875,0.45505,0.7332,0.84205,-7.1291,2.3764,-1.2628,-9.5054,-1.4754e-07,-0.63141,0,0,0.16667,-0,-0,0.66667
0.34441,0.22292,2.0665,-0.41563,-17.416,102.46,2.2904,-0.76345,-1.3876,3.0538,-4.6947e-12,-0.69381,0,0,0.16667,7.8949e-16,0,0.66667
0.29624,0.012106,1.7775,-0.73184,-32.025,115.58,3.4689,-1.1563,-0.09669,4.6251,-3.0174e-12,-0.048345,0,0,0.16667,-0,-0,0.66667
0.92794,0.47992,5.5677,-0.030121,-0.18331,2.0741,0.44721,-0.14907,-1.9955,0.59629,-4.7542e-08,-0.99776,0,0,0.16667,-1.579e-15,0,0.66667
0.24446,0.30123,1.4667,-0.29816,-13.31,129.48,1.1662,-0.38873,-1.6828,1.5549,6.7061e-11,-0.84138,0,0,0.16667,-0,-0,0.66667
0.40519,0.92071,2.4311,0.63107,25.211,87.179,-4.0912,1.3637,-0.58465,-5.4549,7.7538e-13,-0.29233,0,0,0.16667,-0,-0,0.66667
0.1838,0.8968,1.1028,0.59519,27.476,146.77,-1.7504,0.58345,-0.73996,-2.3338,3.6649e-10,-0.36998,0,0,0.16667,-0,-0,0.66667
0.086017,0.79136,0.5161,0.43704,20.655,175.1,-0.60149,0.2005,-1.3195,-0.80199,-1.5602e-08,-0.65977,0,0,0.16667,-0,-0,0.66667
0.91325,0.62485,5.4795,0.18727,1.3895,2.9272,-2.7365,0.91215,-1.8755,-3.6486,-1.5767e-08,-0.93773,0,0,0.16667,1.6653e-15,0,0.66667
0.27731,0.32441,1.6639,-0.26338,-11.535,120.38,1.1686,-0.38953,-1.7526,1.5581,7.6599e-12,-0.87631,0,0,0.16667,-0,-0,0.66667
0.7783,0.62723,4.6698,0.19084,3.5073,15.069,-2.3765,0.79217,-1.8714,-3.1687,1.6939e-10,-0.93568,0,0,0.16667,-0,-0,0.66667
0.16216,0.50909,0.97293,0.013641,0.62961,152.83,-0.035392,0.011797,-1.9983,-0.047189,-5.6871e-10,-0.99913,0,0,0.16667,-0,-0,0.66667
0.66577,0.30113,3.9946,-0.2983,-7.8254,31.588,3.1776,-1.0592,-1.6823,4.2368,4.5235e-12,-0.84117,0,0,0.16667,-0,-0,0.66667
0.27436,0.80006,1.6462,0.45009,19.81,121.28,-1.9758,0.65859,-1.2783,-2.6344,-4.9847e-12,-0.63915,0,0,0.16667,3.9475e-16,0,0.66667
0.72525,0.54699,4.3515,0.070492,1.5631,22.094,-0.818,0.27267,-1.9809,-1.0907,4.9953e-12,-0.99043,0,0,0.16667,-0,-0,0.66667
0.057234,0.30616,0.34341,-0.29077,-13.767,183.56,0.26627,-0.088756,-1.6988,0.35502,-2.3091e-08,-0.84938,0,0,0.16667,-9.8686e-17,0,0.66667
0.66212,0.32105,3.9727,-0.26843,-7.0995,32.175,2.8437,-0.9479,-1.7428,3.7916,4.0725e-12,-0.8714,0,0,0.16667,-0,-0,0.66667
0.056097,0.61804,0.33658,0.17707,8.3749,183.89,-0.15893,0.052975,-1.8876,-0.2119,1.9885e-08,-0.9438,0,0,0.16667,-0,-0,0.66667
0.65752,0.77573,3.9451,0.41359,11.102,33.135,-4.3511,1.4504,-1.393,-5.8014,-4.3943e-12,-0.69651,0,0,0.16667,-3.9475e-16,0,0.66667
0.34971,0.85953,2.0983,0.53929,22.568,101.19,-3.0175,1.0058,-0.96453,-4.0234,2.4583e-12,-0.48227,0,0,0.16667,-7.8949e-16,0,0.66667
0.73581,0.79016,4.4149,0.43524,9.4119,20.948,-5.124,1.708,-1.3272,-6.8321,1.4527e-11,-0.66359,0,0,0.16667,-0,-0,0.66667
0.41791,0.029688,2.5075,-0.70547,-27.901,84.151,4.7171,-1.5724,-0.231,6.2895,4.2455e-13,-0.1155,0,0,0.16667,-7.8949e-16,-3.7482e-17,0.66667
0.55544,0.54425,3.3326,0.066382,2.1649,52.27,-0.58994,0.19665,-1.9829,-0.78659,-1.34e-13,-0.99143,0,0,0.16667,-0,-0,0.66667
0.18966,0.79106,1.138,0.43659,20.034,145.02,-1.3248,0.44161,-1.3225,-1.7664,-5.0366e-10,-0.66126,0,0,0.16667,-0,-0,0.66667
0.27767,0.57146,1.666,0.1072,4.6875,120.23,-0.47625,0.15875,-1.9588,-0.63501,-6.3533e-12,-0.97938,0,0,0.16667,-0,-0,0.66667
0.48609,0.32394,2.9165,-0.26408,-9.5459,67.49,2.0539,-0.68464,-1.7524,2.7385,3.8414e-14,-0.8762,0,0,0.16667,-0,-0,0.66667
0.04653,0.67694,0.27918,0.26541,12.577,186.72,-0.1976,0.065866,-1.7508,-0.26346,2.3271e-08,-0.87542,0,0,0.16667,4.9343e-17,0,0.66667
0.84893,0.83095,5.0936,0.49643,6.4929,8.0835,-6.743,2.2477,-1.1226,-8.9907,6.0188e-10,-0.5613,0,0,0.16667,-1.579e-15,0,0.66667
0.43861,0.11627,2.6317,-0.57559,-22.175,78.939,4.0394,-1.3465,-0.82296,5.3859,-1.2017e-12,-0.41148,0,0,0.16667,3.9475e-16,0,0.66667
0.1903,0.8332,1.1418,0.4998,22.96,144.86,-1.5218,0.50726,-1.1117,-2.0291,-4.0884e-10,-0.55583,0,0,0.16667,-0,-0,0.66667
0.1496,0.48883,0.89758,-0.016748,-0.77614,156.47,0.040087,-0.013362,-1.9977,0.053449,-1.6242e-09,-0.99883,0,0,0.16667,-1.9737e-16,0,0.66667
0.12624,0.20331,0.75743,-0.44503,-20.853,163.33,0.89888,-0.29963,-1.2963,1.1985,4.8708e-09,-0.64817,0,0,0.16667,-1.9737e-16,0,0.66667
0.48221,0.23428,2.8933,-0.39858,-14.516,68.493,3.0752,-1.0251,-1.4351,4.1003,-1.108e-13,-0.71756,0,0,0.16667,-7.8949e-16,0,0.66667
0.99442,0.70979,5.9665,0.31468,0.016869,0.31899,-5.0068,1.6689,-1.6469,-6.6758,7.167e-08,-0.82346,0,0,0.16667,-0,-0,0.66667
0.83565,0.99353,5.0139,0.7403,10.709,9.9713,-9.898,3.2993,-0.050466,-13.197,-1.1604e-09,-0.025233,0,0,0.16667,-7.8949e-16,0,0.66667
0.87993,0.21715,5.2796,-0.42427,-4.4284,5.4286,5.9733,-1.9911,-1.3602,7.9643,-4.4036e-09,-0.68011,0,0,0.16667,1.579e-15,0,0.66667
0.51326,0.48015,3.0796,-0.029782,-1.0356,61.299,0.24457,-0.081525,-1.9969,0.3261,1.1506e-13,-0.99843,0,0,0.16667,-7.8949e-16,0,0.66667
0.013105,0.87556,0.078631,0.56333,26.892,196.63,-0.11812,0.039374,-0.87305,-0.15749,1.9349e-07,-0.43653,0,0,0.16667,-0,-0,0.66667
0.78924,0.063982,4.7355,-0.65403,-11.747,14.586,8.259,-2.753,-0.47896,11.012,-2.6878e-11,-0.23948,0,0,0.16667,-0,-0,0.66667
0.91445,0.39321,5.4867,-0.16019,-1.1702,2.8377,2.3438,-0.78126,-1.9073,3.125,-1.1404e-08,-0.95363,0,0,0.16667,-1.0829e-15,0,0.66667
0.063162,0.50324,0.37897,0.0048624,0.22962,181.8,-0.0049139,0.0016383,-2.0019,-0.0065518,5.1262e-07,-1.0009,0,0,0.16667,3.9475e-16,0,0.66667
0.17499,0.31232,1.05,-0.28153,-12.958,149.17,0.78824,-0.26275,-1.7194,1.051,1.0983e-09,-0.85969,0,0,0.16667,-5.3352e-16,0,0.66667
0.50956,0.72985,3.0573,0.34477,12.094,62.28,-2.8109,0.93696,-1.5761,-3.7478,-6.8834e-14,-0.78805,0,0,0.16667,-7.8949e-16,0,0.66667
0.43088,0.94451,2.5853,0.66676,25.981,80.935,-4.5967,1.5322,-0.41835,-6.1289,6.759e-13,-0.20917,0,0,0.16667,-0,-0,0.66667
0.95888,0.52057,5.7533,0.030855,0.10134,0.83235,-0.47339,0.1578,-1.9954,-0.63118,3.8631e-07,-0.99772,0,0,0.16667,-0,-0,0.66667
0.98461,0.16511,5.9077,-0.50233,-0.57485,0.86121,7.9137,-2.6379,-1.1043,10.552,9.1941e-08,-0.55216,0,0,0.16667,-0,-0,0.66667
0.15433,0.54281,0.92599,0.064213,2.9716,155.1,-0.15856,0.052853,-1.9856,-0.21141,-1.1289e-09,-0.99279,0,0,0.16667,-3.9475e-16,0,0.66667
0.3531,0.004495,2.1186,-0.74326,-31.22,100.55,4.1992,-1.3997,-0.035234,5.5989,-2.4682e-12,-0.017617,0,0,0.16667,-0,-0,0.66667
0.57686,0.067872,3.4611,-0.64819,-20.664,48.536,5.9826,-1.9942,-0.50737,7.9768,8.7663e-13,-0.25368,0,0,0.16667,-1.579e-15,-1.1238e-16,0.66667
0.42223,0.36136,2.5334,-0.20796,-8.0904,82.585,1.4049,-0.46829,-1.8474,1.8732,-6.5425e-13,-0.9237,0,0,0.16667,-7.8949e-16,0,0.66667
0.5079,0.84339,3.0474,0.51509,18.188,62.845,-4.1858,1.3953,-1.0567,-5.5811,1.3323e-15,-0.52837,0,0,0.16667,3.9475e-16,0,0.66667
0.87702,0.051475,5.2621,-0.67279,-7.3779,6.2811,9.4408,-3.1469,-0.39082,12.588,-3.1468e-08,-0.19541,0,0,0.16667,-0,-0,0.66667
0.060464,0.9197,0.36278,0.62954,29.999,182.66,-0.60903,0.20301,-0.59094,-0.81204,-2.7599e-08,-0.29547,0,0,0.16667,-0,-0,0.66667
0.91535,0.011289,5.4921,-0.73307,-5.6857,4.0365,10.736,-3.5788,-0.087957,14.315,2.9438e-09,-0.043978,0,0,0.16667,-0,-0,0.66667
0.31256,0.86811,1.8754,0.55217,23.767,111.01,-2.7614,0.92046,-0.91781,-3.6818,3.3664e-12,-0.45891,0,0,0.16667,3.9475e-16,0,0.66667
0.72914,0.59123,4.3748,0.13685,2.9994,21.561,-1.5965,0.53217,-1.9334,-2.1287,1.2188e-11,-0.96669,0,0,0.16667,-0,-0,0.66667
0.27511,0.53398,1.6507,0.050977,2.2321,120.93,-0.22439,0.074796,-1.9905,-0.29918,-4.2628e-12,-0.99526,0,0,0.16667,7.8949e-16,0,0.66667
0.72986,0.26527,4.3792,-0.35209,-7.7374,21.662,4.1116,-1.3705,-1.5582,5.4822,-1.3012e-11,-0.7791,0,0,0.16667,-0,-0,0.66667
0.78436,0.72778,4.7061,0.34168,6.1527,14.507,-4.2879,1.4293,-1.5847,-5.7172,2.4705e-10,-0.79237,0,0,0.16667,-0,-0,0.66667
0.56721,0.29885,3.4032,-0.30172,-9.6757,49.98,2.7382,-0.91274,-1.6753,3.6509,5.6488e-13,-0.83763,0,0,0.16667,-0,-0,0.66667
0.11097,0.68494,0.66581,0.27741,13.012,167.75,-0.49254,0.16418,-1.7279,-0.65672,-5.0013e-09,-0.86394,0,0,0.16667,-2.4672e-17,0,0.66667
0.1247,0.32071,0.7482,-0.26894,-12.572,163.74,0.53659,-0.17886,-1.7444,0.71545,3.4763e-09,-0.87219,0,0,0.16667,-0,-0,0.66667
0.85571,0.090777,5.1342,-0.61383,-7.7712,7.7941,8.4042,-2.8014,-0.66069,11.206,-1.802e-09,-0.33035,0,0,0.16667,4.5071e-16,-1.7863e-18,0.66667
0.93388,0.010177,5.6033,-0.73474,-4.492,3.1376,10.979,-3.6595,-0.080092,14.638,-2.725e-09,-0.040046,0,0,0.16667,-0,-0,0.66667
0.64865,0.4219,3.8919,-0.11715,-3.1906,34.398,1.2158,-0.40528,-1.9497,1.6211,1.9718e-12,-0.97483,0,0,0.16667,2.1331e-17,0,0.66667
0.18497,0.72501,1.1098,0.33751,15.489,146.32,-0.9989,0.33297,-1.5954,-1.3319,-7.9218e-10,-0.79769,0,0,0.16667,-3.9475e-16,0,0.66667
0.72233,0.58377,4.334,0.12566,2.8133,22.541,-1.4522,0.48408,-1.9434,-1.9363,7.1212e-12,-0.9717,0,0,0.16667,-0,-0,0.66667
0.22405,0.94462,1.3443,0.66693,30.324,135.42,-2.3908,0.79692,-0.41778,-3.1877,-5.6555e-12,-0.20889,0,0,0.16667,-0,-0,0.66667
0.75275,0.83358,4.5165,0.50037,10.247,18.76,-6.0265,2.0088,-1.1097,-8.0353,1.4033e-11,-0.55484,0,0,0.16667,7.8949e-16,0,0.66667
0.99863,0.73645,5.9918,0.35467,-0.11391,0.34721,-5.6669,1.889,-1.5532,-7.5559,1.0965e-07,-0.77661,0,0,0.16667,-0,-0,0.66667
0.92131,0.72646,5.5278,0.33969,2.3077,2.689,-5.0073,1.6691,-1.5911,-6.6764,4.0069e-09,-0.79557,0,0,0.16667,-0,-0,0.66667
0.52727,0.85522,3.1636,0.53282,18.311,58.637,-4.4951,1.4984,-0.98985,-5.9934,-9.0594e-14,-0.49492,0,0,0.16667,-0,-0,0.66667
0.62264,0.69028,3.7359,0.28543,8.2466,39.195,-2.8435,0.94784,-1.7114,-3.7913,-2.4087e-12,-0.85569,0,0,0.16667,-0,-0,0.66667
0.31542,0.25648,1.8925,-0.36528,-15.626,110.1,1.8434,-0.61448,-1.5258,2.4579,-6.2292e-12,-0.76289,0,0,0.16667,-0,-0,0.66667
0.88054,0.50339,5.2832,0.0050788,0.051801,4.9621,-0.071553,0.023851,-1.9997,-0.095404,-2.3852e-08,-0.99983,0,0,0.16667,-0,-0,0.66667
0.86029,0.74133,5.1617,0.36199,4.354,6.8478,-4.9827,1.6609,-1.5352,-6.6436,3.2094e-09,-0.76758,0,0,0.16667,7.8949e-16,0,0.66667
0.060565,0.46919,0.36339,-0.04621,-2.1831,182.56,0.044779,-0.014926,-1.9941,0.059706,4e-07,-0.99707,0,0,0.16667,-1.9737e-16,0,0.66667
0.54964,0.49547,3.2978,-0.006794,-0.22363,53.472,0.059748,-0.019916,-2.0004,0.079665,5.255e-13,-1.0002,0,0,0.16667,-1.1842e-15,0,0.66667
0.38057,0.38521,2.2834,-0.17219,-6.9728,92.984,1.0485,-0.34949,-1.8935,1.3979,-1.2834e-12,-0.94674,0,0,0.16667,-0,-0,0.66667
0.55684,0.59003,3.3411,0.13504,4.3958,51.999,-1.2031,0.40104,-1.9348,-1.6042,-7.9292e-13,-0.96742,0,0,0.16667,1.6486e-16,0,0.66667
0.18217,0.57512,1.093,0.11268,5.1648,147.07,-0.32843,0.10948,-1.9537,-0.4379,-3.3902e-10,-0.97684,0,0,0.16667,-0,-0,0.66667
0.79219,0.59841,4.7531,0.14761,2.5561,13.388,-1.871,0.62366,-1.9223,-2.4947,2.5868e-10,-0.96115,0,0,0.16667,-3.158e-15,0,0.66667
0.11789,0.92298,0.70736,0.63447,29.926,165.83,-1.1968,0.39893,-0.56721,-1.5957,-2.0883e-08,-0.28361,0,0,0.16667,-1.3961e-16,0,0.66667
0.20303,0.13783,1.2182,-0.54325,-24.851,141.26,1.7648,-0.58825,-0.95204,2.353,1.1892e-10,-0.47602,0,0,0.16667,-3.9475e-16,-2.2434e-16,0.66667
0.02395,0.25079,0.1437,-0.37382,-17.769,193.41,0.14325,-0.047749,-1.5032,0.191,-5.9844e-08,-0.75158,0,0,0.16667,-0,-0,0.66667
0.058498,0.37725,0.35099,-0.18413,-8.707,183.18,0.17234,-0.057446,-1.8799,0.22978,-4.4792e-08,-0.93993,0,0,0.16667,-0,-0,0.66667
0.11918,0.33199,0.71507,-0.25201,-11.794,165.35,0.48055,-0.16018,-1.7729,0.64073,4.8401e-09,-0.88647,0,0,0.16667,-1.9737e-16,0,0.66667
0.45136,0.15015,2.7082,-0.52478,-19.901,75.83,3.7898,-1.2633,-1.0217,5.0531,-7.474e-13,-0.51084,0,0,0.16667,3.9475e-16,0,0.66667
0.89569,0.94915,5.3741,0.67372,6.3189,4.9956,-9.655,3.2183,-0.38507,-12.873,-3.9184e-08,-0.19254,0,0,0.16667,-0,-0,0.66667
0.10377,0.30876,0.62261,-0.28686,-13.478,169.86,0.47627,-0.15876,-1.7071,0.63502,6.4045e-09,-0.85355,0,0,0.16667,2.4672e-16,0,0.66667
0.99739,0.48015,5.9843,-0.029776,0.0098786,0.026552,0.47517,-0.15838,-1.9967,0.63356,1.1481e-05,-0.99837,0,0,0.16667,3.158e-15,0,0.66667
0.92242,0.27988,5.5345,-0.33017,-2.2084,2.6162,4.8729,-1.6243,-1.6148,6.4973,-1.9226e-09,-0.8074,0,0,0.16667,-1.7764e-15,0,0.66667
0.12597,0.54934,0.75582,0.074016,3.4536,163.34,-0.14918,0.049727,-1.9813,-0.19891,8.4552e-10,-0.99063,0,0,0.16667,1.9737e-16,0,0.66667
0.56161,0.92168,3.3696,0.63252,20.678,51.587,-5.6836,1.8945,-0.57825,-7.5782,-3.9524e-14,-0.28913,0,0,0.16667,-0,1.9734e-16,0.66667
0.57872,0.79049,3.4723,0.43574,13.742,47.809,-4.0348,1.3449,-1.3261,-5.3797,-1.6391e-12,-0.66307,0,0,0.16667,1.579e-15,0,0.66667
0.78149,0.63883,4.6889,0.20824,3.779,14.698,-2.6038,0.86794,-1.847,-3.4718,2.0365e-10,-0.92352,0,0,0.16667,-0,-0,0.66667
0.099377,0.19821,0.59626,-0.45268,-21.346,171.18,0.71979,-0.23993,-1.2702,0.95971,8.8901e-09,-0.63512,0,0,0.16667,-0,-0,0.66667
0.089059,0.7685,0.53436,0.40274,19.011,174.2,-0.57389,0.1913,-1.4223,-0.76518,-9.5033e-09,-0.71113,0,0,0.16667,9.8686e-17,0,0.66667
0.94471,0.51726,5.6683,0.025891,0.11854,1.3358,-0.39136,0.13045,-1.9961,-0.52181,-2.9116e-07,-0.99805,0,0,0.16667,-0,-0,0.66667
0.42548,0.32683,2.5529,-0.25975,-10.078,81.816,1.7683,-0.58944,-1.7594,2.3578,-5.5023e-13,-0.87971,0,0,0.16667,-0,-0,0.66667
0.81916,0.75611,4.915,0.38416,5.9009,10.71,-5.035,1.6783,-1.4744,-6.7133,8.7435e-10,-0.73721,0,0,0.16667,1.579e-15,0,0.66667
0.78299,0.12535,4.6979,-0.56198,-10.294,15.086,7.0404,-2.3468,-0.87894,9.3872,-2.469e-10,-0.43947,0,0,0.16667,3.158e-15,0,0.66667
0.8379,0.22923,5.0274,-0.40616,-5.6407,8.9051,5.4451,-1.815,-1.4123,7.2601,-1.7528e-09,-0.70615,0,0,0.16667,-0,-0,0.66667
0.13975,0.37112,0.83851,-0.19332,-8.9929,159.34,0.43227,-0.14409,-1.8688,0.57636,3.4171e-09,-0.93442,0,0,0.16667,4.9343e-17,0,0.66667
0.091732,0.80778,0.55039,0.46167,21.807,173.43,-0.6776,0.22587,-1.2431,-0.90347,-2.1709e-08,-0.62153,0,0,0.16667,4.9343e-17,0,0.66667
0.44285,0.43537,2.6571,-0.096951,-3.6854,77.543,0.68696,-0.22899,-1.9666,0.91594,-6.8723e-14,-0.9833,0,0,0.16667,1.1842e-15,0,0.66667
0.8081,0.926,4.8486,0.63901,10.54,12.438,-8.2621,2.754,-0.5473,-11.016,8.4316e-11,-0.27365,0,0,0.16667,-7.8949e-16,0,0.66667
0.14031,0.93136,0.84188,0.64705,30.35,159.32,-1.4526,0.48421,-0.51318,-1.9368,9.379e-09,-0.25659,0,0,0.16667,-2.9606e-16,0,0.66667
0.17975,0.85749,1.0785,0.53624,24.755,147.9,-1.5422,0.51406,-0.97608,-2.0562,-6.2683e-10,-0.48804,0,0,0.16667,-0,-0,0.66667
0.1606,0.044473,0.96359,-0.68329,-31.884,153.48,1.7558,-0.58525,-0.33903,2.341,-1.4655e-10,-0.16951,0,0,0.16667,3.9475e-16,0,0.66667
0.23062,0.062793,1.3837,-0.65581,-29.715,133.56,2.4199,-0.80663,-0.47169,3.2265,1.3799e-11,-0.23584,0,0,0.16667,-7.8949e-16,0,0.66667
0.32804,0.40405,1.9683,-0.14392,-6.0841,106.64,0.75542,-0.25181,-1.9289,1.0072,-3.0946e-12,-0.96447,0,0,0.16667,-4.9343e-16,0,0.66667
0.06778,0.081351,0.40668,-0.62797,-29.895,180.5,0.68102,-0.22701,-0.5967,0.90803,-5.792e-08,-0.29835,0,0,0.16667,1.8419e-17,0,0.66667
0.38652,0.61918,2.3191,0.17877,7.2006,91.472,-1.1056,0.36853,-1.8862,-1.4741,1.4102e-12,-0.94308,0,0,0.16667,-0,-0,0.66667
0.28048,0.76723,1.6829,0.40084,17.56,119.57,-1.7989,0.59963,-1.4296,-2.3985,-2.3297e-12,-0.71478,0,0,0.16667,-0,-0,0.66667
0.15318,0.87575,0.91911,0.56363,26.276,155.56,-1.3814,0.46047,-0.87157,-1.8419,-6.0834e-09,-0.43579,0,0,0.16667,3.9475e-16,1.1412e-19,0.66667
0.31327,0.55583,1.8796,0.083742,3.5769,110.57,-0.41975,0.13992,-1.9765,-0.55966,8.6867e-13,-0.98823,0,0,0.16667,-3.9475e-16,0,0.66667
0.49926,0.70099,2.9956,0.30148,10.717,64.537,-2.4083,0.80277,-1.6777,-3.2111,-5.7576e-13,-0.83886,0,0,0.16667,7.8949e-16,0,0.66667
0.67091,0.26949,4.0255,-0.34577,-8.9675,30.78,3.7117,-1.2372,-1.5757,4.9489,4.8612e-12,-0.78786,0,0,0.16667,-0,-0,0.66667
0.29158,0.70152,1.7495,0.30228,13.128,116.5,-1.4102,0.47006,-1.6739,-1.8803,5.9175e-14,-0.83695,0,0,0.16667,-3.9475e-16,0,0.66667
0.48683,0.93705,2.921,0.65557,23.919,67.789,-5.1064,1.7021,-0.47336,-6.8086,-1.5588e-13,-0.23668,0,0,0.16667,8.1416e-16,0,0.66667
0.69406,0.034591,4.1644,-0.69811,-17.313,27.71,7.7525,-2.5842,-0.26674,10.337,4.8139e-13,-0.13337,0,0,0.16667,-1.579e-15,0,0.66667
0.94232,0.17582,5.6539,-0.48626,-2.4506,2.0243,7.3314,-2.4438,-1.1583,9.7753,-7.7587e-09,-0.57914,0,0,0.16667,-0,-0,0.66667
0.11331,0.60785,0.67988,0.16178,7.5757,167.05,-0.29331,0.097769,-1.9061,-0.39108,-3.4984e-09,-0.95307,0,0,0.16667,-0,-0,0.66667
0.37705,0.53276,2.2623,0.049137,1.9947,93.852,-0.29643,0.098811,-1.9929,-0.39525,-1.5404e-13,-0.99643,0,0,0.16667,-0,-0,0.66667
0.86667,0.21037,5.2,-0.43445,-5.0216,6.4615,6.0243,-2.0081,-1.3277,8.0325,-4.0517e-09,-0.66387,0,0,0.16667,-0,-0,0.66667
0.76793,0.81183,4.6076,0.46774,9.0449,16.732,-5.7471,1.9157,-1.2236,-7.6628,3.2482e-11,-0.61179,0,0,0.16667,4.9343e-17,0,0.66667
0.82594,0.12599,4.9556,-0.56102,-8.4144,10.392,7.4139,-2.4713,-0.88239,9.8852,7.0281e-11,-0.44119,0,0,0.16667,-0,-0,0.66667
0.036904,0.38288,0.22142,-0.17568,-8.3242,189.57,0.10373,-0.034577,-1.8894,0.13831,-2.2443e-08,-0.94468,0,0,0.16667,-0,-0,0.66667
0.80406,0.38067,4.8243,-0.17899,-2.9385,12.069,2.3027,-0.76755,-1.8853,3.0702,-4.7962e-10,-0.94263,0,0,0.16667,-0,-0,0.66667
0.095263,0.42336,0.57158,-0.11496,-5.4024,172.34,0.17522,-0.058407,-1.9534,0.23363,6.4986e-10,-0.97669,0,0,0.16667,-0,-0,0.66667
0.35271,0.098327,2.1163,-0.60251,-25.198,100.48,3.4002,-1.1334,-0.70864,4.5335,-8.8662e-13,-0.35432,0,0,0.16667,-7.8949e-16,0,0.66667
0.23302,0.85235,1.3981,0.52852,23.836,132.8,-1.9705,0.65684,-1.0076,-2.6274,-7.2389e-11,-0.50381,0,0,0.16667,-0,1.4937e-17,0.66667
0.98438,0.12663,5.9063,-0.56006,-0.68874,1.026,8.8209,-2.9403,-0.8875,11.761,3.5886e-07,-0.44375,0,0,0.16667,-3.158e-15,0,0.66667
0.48234,0.089524,2.8941,-0.61571,-22.561,68.746,4.7518,-1.5839,-0.65304,6.3357,-5.6355e-13,-0.32652,0,0,0.16667,-0,-0,0.66667
0.28033,0.85604,1.682,0.53407,23.467,119.71,-2.3954,0.79848,-0.98667,-3.1939,3.3069e-12,-0.49333,0,0,0.16667,-0,2.6103e-16,0.66667
0.42077,0.1314,2.5246,-0.5529,-21.693,83.235,3.7223,-1.2408,-0.91429,4.9631,-8.813e-13,-0.45714,0,0,0.16667,-1.579e-15,0,0.66667
0.13901,0.42191,0.83404,-0.11714,-5.4473,159.55,0.26053,-0.086842,-1.9515,0.34737,1.5461e-09,-0.97575,0,0,0.16667,-1.6462e-16,0,0.66667
0.78121,0.59495,4.6873,0.14243,2.5842,14.682,-1.7803,0.59342,-1.9307,-2.3737,1.923e-10,-0.96534,0,0,0.16667,3.158e-15,0,0.66667
0.82105,0.86609,4.9263,0.54913,8.4407,10.853,-7.2138,2.4046,-0.92664,-9.6184,9.6851e-10,-0.46332,0,0,0.16667,-0,-0,0.66667
0.0059699,0.80743,0.035819,0.46114,21.967,198.73,-0.044047,0.014682,-1.2433,-0.058729,-2.062e-07,-0.62166,0,0,0.16667,-0,-0,0.66667
0.35861,0.90751,2.1517,0.61127,25.448,98.957,-3.5073,1.1691,-0.67374,-4.6764,1.2899e-12,-0.33687,0,0,0.16667,-0,-0,0.66667
0.92793,0.57732,5.5676,0.11597,0.70742,2.1057,-1.7219,0.57395,-1.9508,-2.2958,3.2266e-08,-0.97539,0,0,0.16667,-0,-0,0.66667
0.55859,0.34121,3.3515,-0.23818,-7.7405,51.695,2.1287,-0.70957,-1.7987,2.8383,-4.0412e-14,-0.89934,0,0,0.16667,5.6012e-16,0,0.66667
0.17029,0.65394,1.0218,0.23091,10.641,150.51,-0.62918,0.20973,-1.812,-0.8389,-9.2102e-10,-0.90599,0,0,0.16667,2.4672e-16,0,0.66667
0.39769,0.27575,2.3861,-0.33638,-13.436,88.744,2.1403,-0.71345,-1.5969,2.8538,-1.3194e-12,-0.79845,0,0,0.16667,3.9475e-16,0,0.66667
0.63071,0.012783,3.7843,-0.73083,-21.104,38.478,7.375,-2.4583,-0.09968,9.8334,1.7142e-13,-0.04984,0,0,0.16667,-0,-0,0.66667
0.7635,0.13408,4.581,-0.54888,-10.839,17.462,6.7051,-2.235,-0.92914,8.9401,-2.6158e-11,-0.46457,0,0,0.16667,-0,-9.9316e-17,0.66667
0.98548,0.12831,5.9129,-0.55753,-0.626,1.0007,8.791,-2.9303,-0.89645,11.721,2.5125e-07,-0.44823,0,0,0.16667,3.158e-15,0,0.66667
0.97769,0.7979,5.8661,0.44685,0.7784,0.85259,-6.9901,2.33,-1.2886,-9.3201,-1.5565e-07,-0.64428,0,0,0.16667,-0,-0,0.66667
0.44414,0.81817,2.6648,0.47725,18.223,77.494,-3.3914,1.1305,-1.1894,-4.5219,4.6763e-13,-0.59469,0,0,0.16667,1.579e-15,0,0.66667
0.91798,0.25069,5.5079,-0.37396,-2.6599,2.924,5.4926,-1.8309,-1.5035,7.3235,-9.1884e-09,-0.75176,0,0,0.16667,-0,-0,0.66667
0.72376,0.76704,4.3426,0.40056,8.9883,22.611,-4.6386,1.5462,-1.4284,-6.1848,3.2512e-12,-0.71418,0,0,0.16667,-0,-0,0.66667
0.15494,0.29825,0.92963,-0.30262,-14.029,154.96,0.7502,-0.25007,-1.6749,1.0003,1.9759e-09,-0.83744,0,0,0.16667,1.3888e-17,0,0.66667
0.56932,0.47383,3.4159,-0.039254,-1.2507,49.414,0.35757,-0.11919,-1.9938,0.47676,1.9545e-13,-0.9969,0,0,0.16667,-0,-0,0.66667
0.52955,0.08678,3.1773,-0.61983,-21.294,58.286,5.2517,-1.7506,-0.63477,7.0023,-3.0198e-14,-0.31738,0,0,0.16667,-3.9475e-16,-1.3681e-16,0.66667
0.93954,0.47528,5.6373,-0.037087,-0.18717,1.5488,0.55751,-0.18584,-1.9957,0.74335,-1.2805e-07,-0.99787,0,0,0.16667,-0,-0,0.66667
0.69262,0.80615,4.1557,0.45922,11.301,27.425,-5.0891,1.6964,-1.2496,-6.7854,-4.6771e-12,-0.6248,0,0,0.16667,3.9475e-16,0,0.66667
0.53942,0.84989,3.2365,0.52484,17.706,56.026,-4.5298,1.5099,-1.0197,-6.0397,-6.1817e-13,-0.50984,0,0,0.16667,-0,-0,0.66667
0.91872,0.2421,5.5123,-0.38684,-2.7301,2.9084,5.6864,-1.8955,-1.4678,7.5819,-9.4674e-09,-0.73392,0,0,0.16667,-7.8949e-16,0,0.66667
0.080916,0.2071,0.4855,-0.43935,-20.782,176.6,0.56881,-0.1896,-1.3134,0.75841,1.9087e-08,-0.65672,0,0,0.16667,-9.8686e-17,0,0.66667
0.30942,0.1449,1.8565,-0.53265,-22.965,111.83,2.637,-0.879,-0.99091,3.516,-5.028e-12,-0.49545,0,0,0.16667,3.9475e-16,0,0.66667
0.36636,0.72165,2.1981,0.33247,13.661,96.703,-1.9488,0.64961,-1.6066,-2.5984,3.5435e-12,-0.8033,0,0,0.16667,-0,-0,0.66667
0.011747,0.3301,0.070482,-0.25485,-12.099,197.02,0.047899,-0.015966,-1.7683,0.063865,3.6028e-08,-0.88415,0,0,0.16667,-1.2336e-17,0,0.66667
0.54516,0.50094,3.2709,0.0014064,0.046623,54.415,-0.012267,0.0040891,-2.0017,-0.016357,-7.7298e-13,-1.0009,0,0,0.16667,-0,-0,0.66667
0.38558,0.59638,2.3135,0.14457,5.8265,91.701,-0.89189,0.2973,-1.9257,-1.1892,1.1435e-12,-0.96284,0,0,0.16667,-0,-0,0.66667
0.46514,0.19373,2.7909,-0.4594,-17.113,72.508,3.419,-1.1397,-1.2495,4.5587,-5.4756e-13,-0.62476,0,0,0.16667,-0,-0,0.66667
0.052614,0.35369,0.31569,-0.21947,-10.388,184.92,0.18476,-0.061585,-1.8276,0.24634,-2.1806e-08,-0.91381,0,0,0.16667,-0,-0,0.66667
0.98055,0.26454,5.8833,-0.35319,-0.49274,0.59977,5.5411,-1.847,-1.5557,7.3881,1.6683e-08,-0.77785,0,0,0.16667,-1.579e-15,0,0.66667
0.87537,0.80673,5.2522,0.4601,4.9944,5.8409,-6.4442,2.1481,-1.2491,-8.5922,7.0869e-09,-0.62455,0,0,0.16667,1.9737e-15,0,0.66667
0.31262,0.25213,1.8757,-0.37181,-15.939,110.86,1.8598,-0.61992,-1.511,2.4797,-5.6083e-12,-0.75552,0,0,0.16667,-7.8949e-16,0,0.66667
0.081769,0.19176,0.49062,-0.46237,-21.878,176.35,0.60492,-0.20164,-1.2401,0.80656,2.2807e-08,-0.62004,0,0,0.16667,1.9737e-16,0,0.66667
0.1066,0.10151,0.63961,-0.59774,-28.238,169.11,1.0195,-0.33984,-0.72972,1.3594,5.5037e-08,-0.36486,0,0,0.16667,-0,-1.1157e-16,0.66667
0.11128,0.15852,0.66767,-0.51222,-24.123,167.72,0.91198,-0.30399,-1.0685,1.216,1.0749e-08,-0.53425,0,0,0.16667,3.9475e-16,0,0.66667
0.31416,0.97084,1.885,0.70625,30.508,110.75,-3.5501,1.1834,-0.22806,-4.7334,1.1755e-12,-0.11403,0,0,0.16667,-0,-0,0.66667
0.74672,0.34448,4.4803,-0.23328,-4.831,19.177,2.7872,-0.92905,-1.8075,3.7162,-4.6364e-11,-0.90375,0,0,0.16667,3.158e-15,0,0.66667
0.86782,0.0019669,5.2069,-0.74705,-8.8494,7.2249,10.373,-3.4576,-0.015483,13.831,8.4991e-09,-0.0077415,0,0,0.16667,-0,-0,0.66667
0.45038,0.92507,2.7023,0.6376,24.294,76.221,-4.5946,1.5315,-0.55429,-6.1262,-6.7057e-14,-0.27714,0,0,0.16667,-0,-2.2036e-16,0.66667
0.7354,0.7774,4.4124,0.41609,9.0031,20.974,-4.8959,1.632,-1.386,-6.5279,1.7089e-11,-0.69302,0,0,0.16667,7.8949e-16,0,0.66667
0.19541,0.90556,1.1725,0.60834,27.964,143.47,-1.902,0.63401,-0.68418,-2.536,-4.778e-10,-0.34209,0,0,0.16667,-6.1679e-17,0,0.66667
0.1939,0.052008,1.1634,-0.67199,-30.965,143.94,2.0848,-0.69494,-0.39316,2.7798,-8.358e-11,-0.19658,0,0,0.16667,-0,-0,0.66667
0.36744,0.091851,2.2047,-0.61222,-25.3,96.683,3.5993,-1.1998,-0.66709,4.7991,-7.061e-13,-0.33355,0,0,0.16667,8.8818e-16,0,0.66667
0.34924,0.47648,2.0954,-0.035287,-1.4666,101.04,0.19718,-0.065726,-1.9947,0.2629,-1.8208e-13,-0.99736,0,0,0.16667,-0,-0,0.66667
0.30208,0.6383,1.8125,0.20745,8.937,113.61,-1.0026,0.33421,-1.8458,-1.3369,1.6065e-12,-0.9229,0,0,0.16667,-0,-0,0.66667
0.54976,0.12317,3.2986,-0.56524,-18.789,53.916,4.9719,-1.6573,-0.86497,6.6292,4.0323e-13,-0.43249,0,0,0.16667,-9.8686e-16,0,0.66667
0.012695,0.45907,0.076171,-0.061393,-2.9108,196.74,0.012471,-0.004159,-1.9864,0.016627,-3.0685e-06,-0.99322,0,0,0.16667,-0,-0,0.66667
0.35923,0.86273,2.1554,0.54409,22.596,98.722,-3.1273,1.0424,-0.94879,-4.1697,1.9382e-12,-0.4744,0,0,0.16667,-0,-2.1874e-16,0.66667
0.68499,0.67585,4.11,0.26377,6.5855,28.382,-2.8909,0.96364,-1.7525,-3.8545,-4.7053e-12,-0.87627,0,0,0.16667,7.8949e-16,0,0.66667
0.20754,0.64976,1.2452,0.22464,10.199,139.85,-0.74595,0.24865,-1.8202,-0.9946,-3.2337e-10,-0.91009,0,0,0.16667,1.9737e-16,0,0.66667
0.18084,0.94673,1.085,0.6701,31.034,147.67,-1.9389,0.64629,-0.40224,-2.5852,-7.387e-10,-0.20112,0,0,0.16667,-0,-0,0.66667
0.29412,0.78172,1.7647,0.42259,18.361,115.88,-1.9886,0.66287,-1.3663,-2.6515,1.9723e-12,-0.68317,0,0,0.16667,-0,-0,0.66667
0.0056085,0.85954,0.033651,0.53931,25.734,198.84,-0.048396,0.016132,-0.96452,-0.064527,-3.2173e-07,-0.48226,0,0,0.16667,-0,-1.0081e-16,0.66667
0.34478,0.093471,2.0687,-0.60979,-25.67,102.55,3.364,-1.1213,-0.68018,4.4853,-1.7519e-12,-0.34009,0,0,0.16667,-9.2519e-16,0,0.66667
0.8284,0.54598,4.9704,0.068969,0.99876,9.4642,-0.91415,0.30472,-1.9843,-1.2189,4.1077e-10,-0.99214,0,0,0.16667,-0,-0,0.66667
0.022289,0.46279,0.13374,-0.055819,-2.6456,193.89,0.019907,-0.0066348,-1.9881,0.026543,1.0871e-06,-0.99405,0,0,0.16667,1.2336e-17,0,0.66667
0.030319,0.51366,0.18191,0.020497,0.97101,191.51,-0.0099439,0.0033162,-1.9993,-0.013258,2.3152e-06,-0.99963,0,0,0.16667,-9.8686e-17,0,0.66667
0.37436,0.48691,2.2461,-0.019641,-0.7992,94.54,0.11765,-0.039215,-1.9996,0.15686,-4.3256e-13,-0.9998,0,0,0.16667,-0,-0,0.66667
0.06536,0.46196,0.39216,-0.057059,-2.694,181.15,0.05967,-0.01989,-1.9886,0.07956,1.6013e-08,-0.9943,0,0,0.16667,4.9343e-17,0,0.66667
0.85305,0.87188,5.1183,0.55782,7.1458,7.8717,-7.6136,2.5379,-0.89329,-10.151,4.5426e-09,-0.44664,0,0,0.16667,3.9475e-16,0,0.66667
0.36355,0.95926,2.1813,0.68889,28.633,97.78,-4.0071,1.3357,-0.31202,-5.3428,-8.8818e-15,-0.15601,0,0,0.16667,-0,-0,0.66667
0.70869,0.054388,4.2521,-0.66842,-15.89,25.388,7.5792,-2.5264,-0.41053,10.106,6.728e-13,-0.20527,0,0,0.16667,7.8949e-16,0,0.66667
0.34251,0.84271,2.055,0.51407,21.622,103.05,-2.8172,0.93906,-1.0624,-3.7562,2.7041e-12,-0.5312,0,0,0.16667,4.9343e-17,0,0.66667
0.28541,0.31991,1.7125,-0.27014,-11.773,118.16,1.2336,-0.4112,-1.7401,1.6448,2.8005e-12,-0.87005,0,0,0.16667,-0,-0,0.66667
0.0054914,0.54289,0.032948,0.064328,3.0504,198.87,-0.0056519,0.001882,-1.9841,-0.0075368,-2.9674e-06,-0.99205,0,0,0.16667,-0,-0,0.66667
0.27003,0.96627,1.6202,0.69941,31.071,122.68,-3.0218,1.0073,-0.26092,-4.0291,-1.1229e-12,-0.13046,0,0,0.16667,9.8686e-17,0,0.66667
0.55821,0.31488,3.3492,-0.27767,-9.0355,51.804,2.48,-0.82666,-1.7261,3.3066,1.45e-13,-0.86307,0,0,0.16667,-0,-0,0.66667
0.39521,0.10285,2.3713,-0.59572,-24,89.62,3.767,-1.2557,-0.73744,5.0226,-6.5881e-13,-0.36872,0,0,0.16667,7.8949e-16,0,0.66667
0.84515,0.74048,5.0709,0.36073,4.7854,8.1587,-4.8779,1.626,-1.538,-6.5038,2.2015e-09,-0.76901,0,0,0.16667,-0,-0,0.66667
0.25356,0.77002,1.5214,0.40503,18.024,126.99,-1.6432,0.54773,-1.4162,-2.1909,-3.4612e-11,-0.70809,0,0,0.16667,3.9475e-16,0,0.66667
0.92019,0.55431,5.5211,0.081458,0.55226,2.4804,-1.1993,0.39977,-1.977,-1.5991,2.3497e-08,-0.98852,0,0,0.16667,7.8949e-16,0,0.66667
0.14496,0.19467,0.86975,-0.458,-21.354,157.89,1.0623,-0.35408,-1.2537,1.4163,3.0048e-09,-0.62686,0,0,0.16667,-0,-0,0.66667
0.48392,0.9817,2.9035,0.72256,26.531,68.571,-5.5945,1.8648,-0.14479,-7.4593,-1.0143e-12,-0.072397,0,0,0.16667,1.579e-15,0,0.66667
0.20199,0.34741,1.2119,-0.22888,-10.417,141.43,0.7397,-0.24657,-1.8153,0.98627,3.577e-10,-0.90766,0,0,0.16667,7.8949e-16,0,0.66667
0.11218,0.70238,0.67309,0.30357,14.24,167.4,-0.54489,0.18163,-1.672,-0.72652,-4.9821e-09,-0.836,0,0,0.16667,-0,-0,0.66667
0.078936,0.89002,0.47361,0.58504,27.773,177.21,-0.73889,0.2463,-0.78386,-0.98518,-1.8375e-08,-0.39193,0,0,0.16667,9.8686e-17,0,0.66667
0.097961,0.085307,0.58777,-0.62204,-29.458,171.65,0.97497,-0.32499,-0.62367,1.3,-3.9601e-10,-0.31184,0,0,0.16667,-0,-0,0.66667
0.44342,0.31687,2.6605,-0.27469,-10.454,77.484,1.9489,-0.64963,-1.7312,2.5985,-8.6819e-14,-0.86561,0,0,0.16667,-0,-0,0.66667
0.49394,0.86576,2.9636,0.54864,19.761,66.013,-4.3359,1.4453,-0.92866,-5.7811,1.0303e-13,-0.46433,0,0,0.16667,-7.8949e-16,0,0.66667
0.29445,0.90543,1.7667,0.60815,26.539,115.94,-2.8651,0.95504,-0.68638,-3.8202,2.4587e-12,-0.34319,0,0,0.16667,-4.9343e-17,0,0.66667
0.71033,0.70738,4.262,0.31106,7.247,24.478,-3.5353,1.1784,-1.6546,-4.7138,3.0154e-13,-0.82728,0,0,0.16667,-7.8949e-16,0,0.66667
0.0215,0.4948,0.129,-0.007805,-0.36991,194.13,0.0026845,-0.00089624,-1.9992,0.0035787,-2.0876e-06,-0.99959,0,0,0.16667,4.9738e-17,0,0.66667
0.30959,0.66677,1.8576,0.25015,10.727,111.61,-1.2391,0.41304,-1.7773,-1.6522,3.1899e-12,-0.88865,0,0,0.16667,-7.8949e-16,0,0.66667
0.84278,0.99771,5.0567,0.74657,10.378,9.3344,-10.067,3.3557,-0.020213,-13.423,-3.3831e-10,-0.010107,0,0,0.16667,-4.737e-15,5.3578e-17,0.66667
0.54746,0.3655,3.2848,-0.20176,-6.6726,53.99,1.7672,-0.58908,-1.8565,2.3563,4.4775e-13,-0.92825,0,0,0.16667,-7.8949e-16,0,0.66667
0.05517,0.16096,0.33102,-0.50857,-24.177,184.2,0.44892,-0.14964,-1.0797,0.59856,-3.6868e-08,-0.53985,0,0,0.16667,-0,-0,0.66667
0.51017,0.8193,3.061,0.47895,16.841,62.295,-3.9095,1.3032,-1.1836,-5.2127,6.4171e-14,-0.59182,0,0,0.16667,-0,-0,0.66667
0.29425,0.90758,1.7655,0.61137,26.685,115.99,-2.8784,0.95946,-0.67219,-3.8379,2.133e-12,-0.33609,0,0,0.16667,7.8949e-16,2.1313e-16,0.66667
0.16633,0.020615,0.99796,-0.71908,-33.527,151.85,1.9136,-0.63788,-0.16039,2.5515,-1.0867e-09,-0.080196,0,0,0.16667,-0,-0,0.66667
0.67928,0.38913,4.0757,-0.1663,-4.207,29.233,1.8075,-0.6025,-1.9001,2.41,3.0713e-12,-0.95007,0,0,0.16667,-0,-0,0.66667
0.19682,0.54707,1.1809,0.070602,3.2168,142.88,-0.22233,0.074111,-1.9808,-0.29644,-1.7938e-10,-0.99042,0,0,0.16667,3.9475e-16,0,0.66667
0.39589,0.89271,2.3754,0.58907,23.712,89.441,-3.7313,1.2438,-0.76502,-4.9751,1.4606e-12,-0.38251,0,0,0.16667,-7.8949e-16,0,0.66667
0.72776,0.28688,4.3666,-0.31969,-7.065,21.92,3.7225,-1.2408,-1.6358,4.9634,-1.1438e-11,-0.81792,0,0,0.16667,-0,-0,0.66667
0.80994,0.72485,4.8596,0.33727,5.4121,11.606,-4.3706,1.4569,-1.596,-5.8275,6.4923e-10,-0.79798,0,0,0.16667,-0,-0,0.66667
0.60148,0.7141,3.6089,0.32115,9.6853,43.215,-3.0907,1.0302,-1.6326,-4.1209,-1.8336e-12,-0.81629,0,0,0.16667,7.8949e-16,0,0.66667
0.13081,0.80871,0.78485,0.46306,21.679,162,-0.96915,0.32305,-1.2372,-1.2922,-2.7212e-09,-0.61862,0,0,0.16667,-0,-0,0.66667
0.01089,0.87638,0.065343,0.56457,26.954,197.28,-0.098375,0.032792,-0.86702,-0.13117,-4.9099e-08,-0.43351,0,0,0.16667,-0,-0,0.66667
0.29257,0.67485,1.7554,0.26227,11.377,116.21,-1.2277,0.40925,-1.7545,-1.637,9.0961e-13,-0.87727,0,0,0.16667,-3.9475e-16,0,0.66667
0.48388,0.98115,2.9033,0.72172,26.5,68.577,-5.5877,1.8626,-0.14907,-7.4503,-8.1934e-13,-0.074533,0,0,0.16667,-0,1.8896e-16,0.66667
0.075671,0.54659,0.45403,0.069881,3.2947,178.11,-0.084607,0.028202,-1.9825,-0.11281,3.4183e-08,-0.99123,0,0,0.16667,9.8686e-17,0,0.66667
0.083491,0.55471,0.50095,0.082062,3.8642,175.8,-0.10962,0.036541,-1.9752,-0.14616,2.1852e-09,-0.98761,0,0,0.16667,-0,-0,0.66667
0.97949,0.95961,5.877,0.68942,1.2809,1.5361,-10.805,3.6015,-0.30919,-14.406,-9.1958e-06,-0.1546,0,0,0.16667,-0,-0,0.66667
0.62427,0.98317,3.7456,0.72475,21.203,39.634,-7.2391,2.413,-0.13326,-9.6521,-1.5543e-14,-0.066629,0,0,0.16667,-0,-1.962e-16,0.66667
0.82291,0.23267,4.9374,-0.401,-6.0466,10.357,5.2798,-1.7599,-1.4271,7.0397,-8.7579e-10,-0.71353,0,0,0.16667,-1.579e-15,0,0.66667
0.78101,0.77624,4.6861,0.41436,7.5893,15.022,-5.1778,1.7259,-1.3915,-6.9038,1.595e-10,-0.69577,0,0,0.16667,4.6245e-16,0,0.66667
0.51024,0.88808,3.0614,0.58212,20.532,62.428,-4.7523,1.5841,-0.79392,-6.3365,2.6867e-13,-0.39696,0,0,0.16667,-0,-0,0.66667
0.60696,0.87777,3.6418,0.56665,17.037,42.522,-5.503,1.8343,-0.85934,-7.3373,-4.7162e-13,-0.42967,0,0,0.16667,-1.579e-15,0,0.66667
0.28245,0.58043,1.6947,0.12065,5.2606,118.93,-0.54524,0.18175,-1.9488,-0.72699,-5.5468e-12,-0.97442,0,0,0.16667,3.9475e-16,0,0.66667
0.936,0.6952,5.616,0.2928,1.5967,1.9126,-4.3849,1.4616,-1.696,-5.8465,-1.123e-08,-0.84799,0,0,0.16667,-0,-0,0.66667
0.61687,0.87202,3.7012,0.55803,16.448,40.645,-5.5077,1.8359,-0.89237,-7.3437,-1.0392e-12,-0.44618,0,0,0.16667,3.9475e-16,0,0.66667
0.40685,0.23849,2.4411,-0.39227,-15.546,86.501,2.5535,-0.85116,-1.454,3.4047,-1.0658e-12,-0.72698,0,0,0.16667,-0,-0,0.66667
0.050178,0.86192,0.30107,0.54289,25.842,185.67,-0.43586,0.14529,-0.95156,-0.58114,-8.9835e-08,-0.47578,0,0,0.16667,-0,-0,0.66667
0.10484,0.33565,0.62907,-0.24652,-11.575,169.54,0.41354,-0.13785,-1.7833,0.55139,1.1096e-09,-0.89164,0,0,0.16667,-9.8686e-17,0,0.66667
0.44394,0.88971,2.6636,0.58457,22.396,77.676,-4.1522,1.3841,-0.78353,-5.5363,2.3892e-13,-0.39177,0,0,0.16667,-0,-0,0.66667
0.023763,0.31514,0.14258,-0.2773,-13.163,193.46,0.10543,-0.035143,-1.7262,0.14057,-1.4784e-08,-0.86312,0,0,0.16667,-0,-0,0.66667
0.28857,0.67346,1.7314,0.26019,11.315,117.3,-1.2013,0.40044,-1.7578,-1.6018,-1.5874e-12,-0.87889,0,0,0.16667,3.9475e-16,0,0.66667
0.2149,0.54192,1.2894,0.062874,2.8422,137.74,-0.21618,0.072061,-1.9853,-0.28824,-1.0937e-10,-0.99266,0,0,0.16667,-3.9475e-16,0,0.66667
0.22151,0.077142,1.3291,-0.63429,-28.847,136.1,2.248,-0.74934,-0.56921,2.9974,1.1594e-11,-0.28461,0,0,0.16667,3.9475e-16,0,0.66667
0.19268,0.10631,1.1561,-0.59054,-27.162,144.24,1.8206,-0.60686,-0.75892,2.4274,2.332e-10,-0.37946,0,0,0.16667,-0,-0,0.66667
0.83915,0.32154,5.0349,-0.26769,-3.6648,8.5791,3.5941,-1.198,-1.7445,4.7922,-1.5789e-09,-0.87223,0,0,0.16667,1.579e-15,0,0.66667
0.46604,0.14617,2.7963,-0.53074,-19.788,72.385,3.9576,-1.3192,-0.99836,5.2768,-8.6109e-13,-0.49918,0,0,0.16667,-0,-0,0.66667
0.54314,0.98238,3.2588,0.72357,24.456,55.599,-6.288,2.096,-0.13778,-8.3839,-1.7852e-13,-0.068888,0,0,0.16667,7.8949e-16,1.9415e-16,0.66667
0.58082,0.14268,3.4849,-0.53598,-16.895,47.543,4.9809,-1.6603,-0.97833,6.6412,1.0076e-12,-0.48917,0,0,0.16667,-7.8949e-16,0,0.66667
0.094346,0.70767,0.56608,0.31151,14.669,172.63,-0.47024,0.15675,-1.6561,-0.62698,-5.7657e-09,-0.82804,0,0,0.16667,-0,-0,0.66667
0.064011,0.39216,0.38407,-0.16175,-7.6424,181.55,0.16566,-0.055221,-1.9073,0.22088,-9.9211e-09,-0.95367,0,0,0.16667,-9.8686e-17,0,0.66667
0.98681,0.23433,5.9209,-0.39851,-0.33444,0.57989,6.2921,-2.0974,-1.4352,8.3894,-4.8461e-08,-0.71759,0,0,0.16667,-1.579e-15,0,0.66667
0.28383,0.89667,1.703,0.595,26.131,118.81,-2.7021,0.9007,-0.74125,-3.6028,1.2448e-12,-0.37063,0,0,0.16667,3.9475e-16,0,0.66667
0.1419,0.27554,0.85141,-0.33669,-15.679,158.74,0.76443,-0.25481,-1.5981,1.0192,3.106e-09,-0.79907,0,0,0.16667,2.9606e-16,0,0.66667
0.018779,0.25641,0.11267,-0.36538,-17.369,194.94,0.10978,-0.036595,-1.5254,0.14638,-1.6746e-08,-0.76271,0,0,0.16667,-4.9343e-17,0,0.66667
0.87071,0.11263,5.2242,-0.58105,-6.6103,6.4898,8.0948,-2.6983,-0.79869,10.793,-5.2298e-09,-0.39935,0,0,0.16667,-1.579e-15,0,0.66667
0.17375,0.67566,1.0425,0.26349,12.131,149.52,-0.73249,0.24416,-1.7534,-0.97666,-1.1314e-09,-0.87669,0,0,0.16667,1.9737e-16,0,0.66667
0.17154,0.66201,1.0292,0.24301,11.194,150.15,-0.66696,0.22232,-1.7918,-0.88928,-1.0136e-09,-0.89592,0,0,0.16667,3.9475e-16,0,0.66667
0.3727,0.75567,2.2362,0.38351,15.686,95.112,-2.2869,0.76231,-1.4777,-3.0492,2.4252e-12,-0.73883,0,0,0.16667,-0,-0,0.66667
0.18251,0.071959,1.0951,-0.64206,-29.692,147.17,1.8749,-0.62497,-0.53335,2.4999,2.6134e-10,-0.26667,0,0,0.16667,-0,-0,0.66667
0.44101,0.26331,2.6461,-0.35503,-13.566,78.123,2.5051,-0.83505,-1.5512,3.3402,-8.058e-13,-0.77561,0,0,0.16667,-0,-0,0.66667
0.57868,0.74507,3.4721,0.36761,11.573,47.734,-3.4036,1.1345,-1.5213,-4.5381,-1.0787e-12,-0.76065,0,0,0.16667,-0,-0,0.66667
0.83616,0.99925,5.017,0.74887,10.813,9.9519,-10.019,3.3396,-0.006014,-13.358,-1.481e-09,-0.003007,0,0,0.16667,-4.9343e-15,0,0.66667
0.58829,0.88145,3.5298,0.57217,17.82,46.13,-5.3857,1.7952,-0.8353,-7.1809,-1.2705e-12,-0.41765,0,0,0.16667,1.579e-15,0,0.66667
0.92403,0.29377,5.5442,-0.30934,-2.0205,2.5015,4.5734,-1.5245,-1.6598,6.0979,-5.5524e-10,-0.82991,0,0,0.16667,-0,-0,0.66667
0.48128,0.086455,2.8877,-0.62032,-22.764,68.995,4.7768,-1.5923,-0.63185,6.369,-7.9581e-13,-0.31593,0,0,0.16667,7.8949e-16,0,0.66667
0.62184,0.13831,3.7311,-0.54254,-15.821,39.696,5.398,-1.7993,-0.95296,7.1973,1.4726e-12,-0.47648,0,0,0.16667,-1.579e-15,0,0.66667
0.44171,0.99171,2.6502,0.73757,28.482,78.448,-5.2126,1.7375,-0.0652,-6.9502,5.3246e-13,-0.0326,0,0,0.16667,7.8949e-16,0,0.66667
0.91251,0.81749,5.4751,0.47623,3.6591,3.4357,-6.953,2.3177,-1.193,-9.2707,2.0828e-08,-0.59649,0,0,0.16667,-0,-0,0.66667
0.71041,0.32137,4.2624,-0.26794,-6.2341,24.419,3.0456,-1.0152,-1.7435,4.0608,-9.6967e-13,-0.87176,0,0,0.16667,-0,-0,0.66667
0.6028,0.34505,3.6168,-0.23242,-6.9799,42.885,2.2416,-0.74721,-1.8079,2.9889,1.3474e-12,-0.90395,0,0,0.16667,-1.579e-15,0,0.66667
0.84339,0.48622,5.0603,-0.020668,-0.27435,8.0272,0.2789,-0.092965,-1.9996,0.37186,2.9149e-10,-0.99981,0,0,0.16667,-0,-0,0.66667
0.9065,0.013038,5.439,-0.73044,-6.2283,4.524,10.594,-3.5314,-0.10419,14.126,8.0991e-08,-0.052095,0,0,0.16667,-3.158e-15,0,0.66667
0.57799,0.65976,3.4679,0.23964,7.5345,47.752,-2.2161,0.73871,-1.7981,-2.9548,-1.0578e-12,-0.89906,0,0,0.16667,-0,-0,0.66667
0.2076,0.6129,1.2456,0.16935,7.6848,139.82,-0.5625,0.1875,-1.8971,-0.75001,-2.7998e-10,-0.94855,0,0,0.16667,-0,-0,0.66667
0.33309,0.014867,1.9985,-0.7277,-31.029,105.76,3.8782,-1.2927,-0.11601,5.171,3.3928e-13,-0.058007,0,0,0.16667,-0,-0,0.66667
0.92001,0.49872,5.5201,-0.0019155,-0.013001,2.4735,0.028197,-0.0093989,-2.0016,0.037595,-1.406e-07,-1.0008,0,0,0.16667,-4.737e-15,0,0.66667
0.49116,0.22704,2.9469,-0.40944,-14.745,66.466,3.2176,-1.0725,-1.4028,4.2902,-6.648e-13,-0.70141,0,0,0.16667,-0,-0,0.66667
0.84515,0.33226,5.0709,-0.25161,-3.3204,8.0081,3.4023,-1.1341,-1.7755,4.5364,-2.0252e-09,-0.88773,0,0,0.16667,-0,-0,0.66667
0.49158,0.99983,2.9495,0.74975,27.291,66.888,-5.897,1.9657,-0.0014706,-7.8626,-2.2835e-12,-0.00073532,0,0,0.16667,1.4803e-15,0,0.66667
0.048249,0.91957,0.28949,0.62936,30.03,186.26,-0.48585,0.16195,-0.59216,-0.6478,-4.7001e-07,-0.29608,0,0,0.16667,-0,-0,0.66667
0.58842,0.035467,3.5305,-0.6968,-21.81,46.353,6.5602,-2.1867,-0.27333,8.7469,-1.3323e-14,-0.13667,0,0,0.16667,-0,-0,0.66667
0.97989,0.095195,5.8793,-0.60721,-1.0385,1.2501,9.5199,-3.1733,-0.68945,12.693,1.8278e-06,-0.34473,0,0,0.16667,3.158e-15,0,0.66667
0.15147,0.91791,0.90879,0.62686,29.289,156.08,-1.5192,0.50639,-0.60182,-2.0256,1.4353e-09,-0.30091,0,0,0.16667,-0,-0,0.66667
0.62692,0.7816,3.7615,0.4224,12.138,38.57,-4.237,1.4123,-1.3674,-5.6493,-1.9011e-12,-0.68368,0,0,0.16667,-0,-0,0.66667
0.64441,0.94021,3.8665,0.66032,18.447,35.87,-6.8083,2.2694,-0.45011,-9.0777,-7.9536e-13,-0.22506,0,0,0.16667,1.579e-15,0,0.66667
0.10623,0.51827,0.63736,0.027401,1.2844,169.12,-0.046571,0.015524,-1.9969,-0.062095,-7.4168e-09,-0.99844,0,0,0.16667,-0,-0,0.66667
0.29898,0.936,1.7939,0.654,28.495,114.76,-3.1285,1.0428,-0.48064,-4.1713,9.7478e-14,-0.24032,0,0,0.16667,1.4803e-16,0,0.66667
0.38954,0.42618,2.3372,-0.11073,-4.4454,90.689,0.69015,-0.23005,-1.9572,0.9202,9.015e-14,-0.97858,0,0,0.16667,-0,-0,0.66667
0.95436,0.18962,5.7262,-0.46557,-1.8263,1.5302,7.1091,-2.3697,-1.2311,9.4788,5.4582e-08,-0.61557,0,0,0.16667,3.158e-15,0,0.66667
0.57675,0.84837,3.4605,0.52255,16.582,48.33,-4.8221,1.6074,-1.0304,-6.4295,-6.7013e-13,-0.51521,0,0,0.16667,-0,-0,0.66667
0.087358,0.64723,0.52415,0.22084,10.402,174.67,-0.30868,0.10289,-1.8255,-0.41157,-3.2506e-10,-0.91273,0,0,0.16667,-0,-0,0.66667
0.10716,0.037267,0.64296,-0.6941,-32.876,168.98,1.1901,-0.39669,-0.28763,1.5868,8.2884e-08,-0.14382,0,0,0.16667,-0,1.2275e-16,0.66667
0.95368,0.43728,5.7221,-0.094083,-0.35463,1.0245,1.4356,-0.47854,-1.9712,1.9141,-3.0331e-07,-0.98558,0,0,0.16667,-1.2336e-16,0,0.66667
0.80534,0.53954,4.8321,0.059309,0.96606,11.867,-0.76423,0.25474,-1.9863,-1.019,9.9062e-11,-0.99317,0,0,0.16667,-0,-0,0.66667
0.4283,0.67811,2.5698,0.26717,10.336,81.133,-1.8309,0.61029,-1.745,-2.4412,7.9503e-13,-0.87251,0,0,0.16667,-3.9475e-16,0,0.66667
0.67249,0.83457,4.0349,0.50186,13.033,30.754,-5.3999,1.8,-1.1057,-7.1999,-3.6646e-12,-0.55286,0,0,0.16667,-7.8949e-16,0,0.66667
0.21193,0.078488,1.2716,-0.63227,-28.879,138.8,2.1439,-0.71464,-0.57712,2.8586,-2.6388e-11,-0.28856,0,0,0.16667,1.4377e-16,0,0.66667
0.52016,0.56299,3.121,0.09449,3.2541,59.795,-0.7864,0.26213,-1.9688,-1.0485,3.928e-13,-0.98441,0,0,0.16667,-1.579e-15,0,0.66667
0.97554,0.0057962,5.8532,-0.74131,-1.7094,1.8084,11.571,-3.8569,-0.045245,15.428,2.4695e-06,-0.022623,0,0,0.16667,-0,-0,0.66667
0.83042,0.74754,4.9825,0.37132,5.3687,9.5602,-4.9336,1.6445,-1.5109,-6.5782,1.1826e-09,-0.75545,0,0,0.16667,-0,-0,0.66667
0.21598,0.68595,1.2959,0.27893,12.624,137.47,-0.96389,0.3213,-1.7244,-1.2852,-2.372e-10,-0.86222,0,0,0.16667,-4.9343e-17,0,0.66667
0.44842,0.3499,2.6905,-0.22516,-8.5148,76.259,1.6155,-0.53848,-1.8193,2.1539,-1.1153e-12,-0.90965,0,0,0.16667,-0,-0,0.66667
0.57268,0.07627,3.4361,-0.63559,-20.398,49.347,5.8239,-1.9413,-0.56237,7.7652,1.9407e-13,-0.28119,0,0,0.16667,-0,-0,0.66667
0.5708,0.13038,3.4248,-0.55443,-17.795,49.579,5.0635,-1.6878,-0.90624,6.7514,4.9871e-13,-0.45312,0,0,0.16667,-0,-0,0.66667
0.93053,0.94964,5.5832,0.67447,4.2668,3.0772,-10.042,3.3472,-0.38114,-13.389,2.8514e-07,-0.19057,0,0,0.16667,-1.579e-15,0,0.66667
0.2551,0.60925,1.5306,0.16388,7.2633,126.48,-0.66888,0.22296,-1.9033,-0.89184,-3.5203e-11,-0.95166,0,0,0.16667,-0,-0,0.66667
0.65634,0.52892,3.938,0.04338,1.16,33.042,-0.45555,0.15185,-1.9959,-0.60741,-1.1712e-12,-0.99793,0,0,0.16667,3.9475e-16,0,0.66667
0.78125,0.10612,4.6875,-0.59082,-10.919,15.363,7.3852,-2.4617,-0.76034,9.8469,-5.4775e-11,-0.38017,0,0,0.16667,-0,-0,0.66667
0.11597,0.14207,0.69583,-0.53689,-25.272,166.35,0.99623,-0.33208,-0.97364,1.3283,9.779e-09,-0.48682,0,0,0.16667,-1.9737e-16,0,0.66667
0.52639,0.76906,3.1583,0.40359,13.837,58.656,-3.3992,1.1331,-1.4198,-4.5322,4.5297e-14,-0.7099,0,0,0.16667,-7.8949e-16,0,0.66667
0.41234,0.50357,2.4741,0.0053589,0.21036,84.971,-0.035355,0.011785,-1.9995,-0.04714,1.9059e-12,-0.99976,0,0,0.16667,-0,-0,0.66667
0.50229,0.04608,3.0138,-0.68088,-24.367,64.357,5.472,-1.824,-0.35157,7.296,-8.7264e-13,-0.17579,0,0,0.16667,-7.8949e-16,0,0.66667
0.065315,0.70099,0.39189,0.30149,14.262,181.18,-0.31507,0.10502,-1.6765,-0.42009,8.1816e-09,-0.83825,0,0,0.16667,-0,-0,0.66667
0.26954,0.92971,1.6172,0.64456,28.593,122.76,-2.7797,0.92658,-0.52241,-3.7063,1.0987e-12,-0.2612,0,0,0.16667,3.9475e-16,0,0.66667
0.25,0.74757,1.5,0.37135,16.547,127.97,-1.4854,0.49514,-1.5123,-1.9806,-4.9848e-11,-0.75614,0,0,0.16667,-4.4409e-16,0,0.66667
0.66868,0.45537,4.0121,-0.066951,-1.738,30.948,0.7163,-0.23877,-1.9836,0.95506,1.285e-12,-0.99179,0,0,0.16667,-0,-0,0.66667
0.050074,0.06621,0.30045,-0.65069,-31.061,185.72,0.52132,-0.17377,-0.49508,0.69509,3.4239e-07,-0.24754,0,0,0.16667,-0,-0,0.66667
0.97313,0.305,5.8388,-0.2925,-0.59957,0.65636,4.5543,-1.5181,-1.6953,6.0724,2.6727e-08,-0.84764,0,0,0.16667,-7.8949e-16,0,0.66667
0.37569,0.52209,2.2541,0.033132,1.3466,94.2,-0.19915,0.066385,-1.9973,-0.26554,1.4483e-13,-0.99864,0,0,0.16667,-0,-0,0.66667
0.87187,0.85284,5.2312,0.52926,5.9381,6.2666,-7.3832,2.4611,-1.0038,-9.8443,2.2039e-09,-0.50191,0,0,0.16667,-0,-0,0.66667
0.69429,0.93895,4.1658,0.65843,16.282,27.574,-7.3143,2.4381,-0.45848,-9.7524,-9.7211e-13,-0.22924,0,0,0.16667,-1.579e-15,0,0.66667
0.029579,0.41966,0.17747,-0.1205,-5.7106,191.73,0.05703,-0.01901,-1.9487,0.07604,-1.0046e-07,-0.97433,0,0,0.16667,4.9343e-17,0,0.66667
0.087271,0.76168,0.52362,0.39252,18.531,174.72,-0.54808,0.18269,-1.4508,-0.73078,-9.9202e-09,-0.72542,0,0,0.16667,-0,-0,0.66667
0.094963,0.37423,0.56978,-0.18865,-8.8704,172.43,0.28664,-0.095545,-1.8756,0.38218,-4.2041e-09,-0.93778,0,0,0.16667,-2.5288e-16,0,0.66667
0.56423,0.50795,3.3854,0.011919,0.38303,50.451,-0.1076,0.035867,-2.0001,-0.14347,-1.5704e-13,-1.0001,0,0,0.16667,-0,-0,0.66667
0.56604,0.2336,3.3963,-0.39961,-12.868,50.32,3.6191,-1.2064,-1.4316,4.8255,6.7724e-13,-0.71578,0,0,0.16667,-7.8949e-16,0,0.66667
0.31061,0.384,1.8636,-0.174,-7.4501,111.31,0.86473,-0.28824,-1.8928,1.153,-2.5603e-12,-0.9464,0,0,0.16667,-0,-0,0.66667
0.11319,0.87245,0.67916,0.55867,26.328,167.17,-1.0118,0.33727,-0.89068,-1.3491,-9.4298e-09,-0.44534,0,0,0.16667,-4.9343e-17,0,0.66667
0.76861,0.52494,4.6116,0.037417,0.71325,16.201,-0.46014,0.15338,-1.9952,-0.61353,1.5041e-11,-0.9976,0,0,0.16667,-0,-0,0.66667
0.1382,0.84383,0.82919,0.51574,24.124,159.88,-1.1404,0.38013,-1.0558,-1.5205,-7.8795e-09,-0.5279,0,0,0.16667,-3.9475e-16,0,0.66667
0.58503,0.095523,3.5102,-0.60672,-19.033,46.835,5.6792,-1.8931,-0.69102,7.5722,8.1934e-13,-0.34551,0,0,0.16667,-0,-0,0.66667
0.50868,0.97428,3.0521,0.71142,25.271,62.999,-5.7901,1.93,-0.19966,-7.7202,4.2366e-13,-0.099831,0,0,0.16667,-0,-0,0.66667
0.51012,0.013825,3.0607,-0.72926,-25.872,62.716,5.9522,-1.9841,-0.10781,7.9363,4.4498e-13,-0.053903,0,0,0.16667,-1.579e-15,0,0.66667
0.35934,0.72806,2.156,0.34209,14.142,98.523,-1.9668,0.6556,-1.5855,-2.6224,3.3848e-12,-0.79277,0,0,0.16667,-0,-0,0.66667
0.055479,0.14494,0.33287,-0.53259,-25.332,184.11,0.47276,-0.15759,-0.99005,0.63035,5.4817e-08,-0.49503,0,0,0.16667,-0,-0,0.66667
0.33619,0.049735,2.0172,-0.6754,-28.68,104.88,3.633,-1.211,-0.37661,4.844,-1.0127e-12,-0.1883,0,0,0.16667,-0,-0,0.66667
0.94985,0.013907,5.6991,-0.72914,-3.3989,2.4851,11.081,-3.6937,-0.10917,14.775,-2.0669e-08,-0.054584,0,0,0.16667,-0,-0,0.66667
0.94833,0.78205,5.69,0.42308,1.876,1.6474,-6.4195,2.1398,-1.364,-8.5594,-3.0661e-08,-0.682,0,0,0.16667,3.158e-15,0,0.66667
0.42932,0.44979,2.5759,-0.075315,-2.9053,80.81,0.51735,-0.17245,-1.9784,0.6898,2.5757e-13,-0.98918,0,0,0.16667,-0,-0,0.66667
0.74205,0.14857,4.4523,-0.52714,-11.215,20.258,6.2587,-2.0862,-1.0109,8.3449,-1.3451e-11,-0.50544,0,0,0.16667,-7.8949e-16,0,0.66667
0.55762,0.17284,3.3457,-0.49073,-16.067,52.17,4.3782,-1.4594,-1.1426,5.8377,7.2387e-14,-0.57131,0,0,0.16667,-0,-0,0.66667
0.914,0.87556,5.484,0.56334,4.3075,3.5733,-8.2383,2.7461,-0.87168,-10.984,6.9488e-08,-0.43584,0,0,0.16667,-0,-0,0.66667
0.73641,0.39326,4.4185,-0.16011,-3.4285,20.543,1.8865,-0.62885,-1.909,2.5154,-2.0367e-11,-0.95448,0,0,0.16667,-7.8949e-16,0,0.66667
0.39393,0.63678,2.3636,0.20517,8.2092,89.612,-1.2932,0.43106,-1.8499,-1.7242,1.4306e-12,-0.92493,0,0,0.16667,-7.8949e-16,0,0.66667
0.060535,0.75189,0.36321,0.37783,17.905,182.6,-0.36596,0.12199,-1.4938,-0.48794,8.8503e-09,-0.74692,0,0,0.16667,-0,-0,0.66667
0.81061,0.58738,4.8637,0.13107,2.0833,11.325,-1.7,0.56666,-1.9397,-2.2666,4.9106e-10,-0.96983,0,0,0.16667,-0,-0,0.66667
0.31642,0.97422,1.8985,0.71133,30.683,110.15,-3.6012,1.2004,-0.20085,-4.8017,4.4009e-13,-0.10042,0,0,0.16667,-0,-0,0.66667
0.49421,0.68121,2.9652,0.27181,9.7227,65.653,-2.1493,0.71643,-1.7366,-2.8657,-3.0753e-13,-0.86828,0,0,0.16667,3.9475e-16,0,0.66667
0.54153,0.6435,3.2492,0.21525,7.1869,55.249,-1.865,0.62167,-1.8341,-2.4867,-7.4107e-13,-0.91703,0,0,0.16667,7.8949e-16,0,0.66667
0.51753,0.78627,3.1052,0.42941,14.923,60.614,-3.5557,1.1852,-1.3453,-4.741,6.6369e-13,-0.67265,0,0,0.16667,-1.579e-15,0,0.66667
0.14619,0.13214,0.87715,-0.5518,-25.772,157.57,1.2907,-0.43023,-0.91661,1.7209,3.727e-09,-0.45831,0,0,0.16667,3.9475e-16,0,0.66667
0.35934,0.096238,2.1561,-0.60564,-25.194,98.76,3.4822,-1.1607,-0.69838,4.6429,-1.3225e-12,-0.34919,0,0,0.16667,-7.8949e-16,5.7848e-17,0.66667
0.36131,0.63708,2.1679,0.20562,8.4702,97.941,-1.1887,0.39622,-1.8499,-1.5849,2.6003e-12,-0.92494,0,0,0.16667,-0,-0,0.66667
0.2158,0.83074,1.2948,0.49611,22.542,137.62,-1.7129,0.57098,-1.1245,-2.2839,-9.2241e-11,-0.56226,0,0,0.16667,-0,-0,0.66667
0.036849,0.61652,0.2211,0.17478,8.2816,189.58,-0.10305,0.034349,-1.8904,-0.1374,2.6139e-08,-0.94522,0,0,0.16667,2.4672e-17,0,0.66667
0.92418,0.69037,5.5451,0.28556,1.8573,2.4593,-4.2225,1.4075,-1.7111,-5.6301,1.0326e-09,-0.85556,0,0,0.16667,-0,-0,0.66667
0.35432,0.80691,2.1259,0.46037,19.156,99.915,-2.6099,0.86996,-1.246,-3.4798,3.5416e-12,-0.62298,0,0,0.16667,-5.9212e-16,0,0.66667
0.1958,0.54138,1.1748,0.062064,2.8289,143.17,-0.19443,0.064811,-1.985,-0.25924,-1.0866e-10,-0.99249,0,0,0.16667,-0,-0,0.66667
0.86409,0.83363,5.1846,0.50044,5.9237,6.8109,-6.9188,2.3063,-1.1087,-9.2251,6.071e-09,-0.55434,0,0,0.16667,7.8949e-16,0,0.66667
0.49805,0.99137,2.9883,0.73706,26.588,65.409,-5.8735,1.9578,-0.068888,-7.8313,-6.5725e-14,-0.034444,0,0,0.16667,-0,-1.5781e-16,0.66667
0.81993,0.12919,4.9196,-0.55622,-8.6037,10.985,7.2969,-2.4323,-0.89936,9.7292,-1.2252e-09,-0.44968,0,0,0.16667,3.158e-15,0,0.66667
0.76332,0.76385,4.5799,0.39578,7.7619,17.191,-4.8337,1.6112,-1.443,-6.445,8.1831e-11,-0.72149,0,0,0.16667,1.579e-15,0,0.66667
0.11672,0.11806,0.70035,-0.57291,-26.986,166.15,1.07,-0.35666,-0.83196,1.4266,7.3129e-09,-0.41598,0,0,0.16667,-0,-0,0.66667
0.51608,0.038475,3.0965,-0.69229,-24.32,61.337,5.7164,-1.9055,-0.2975,7.6219,-1.9096e-14,-0.14875,0,0,0.16667,-0,-0,0.66667
0.33424,0.051297,2.0054,-0.67305,-28.621,105.39,3.5994,-1.1998,-0.38805,4.7992,-8.5554e-13,-0.19403,0,0,0.16667,-3.9475e-16,0,0.66667
0.68594,0.59465,4.1157,0.14198,3.5286,28.139,-1.5583,0.51942,-1.9302,-2.0777,-2.4563e-12,-0.96509,0,0,0.16667,-0,-0,0.66667
0.78722,0.7192,4.7233,0.3288,5.847,14.15,-4.1414,1.3805,-1.6158,-5.5219,2.7666e-10,-0.80792,0,0,0.16667,-0,-0,0.66667
0.28471,0.056333,1.7083,-0.6655,-29.272,118.64,3.0316,-1.0105,-0.42527,4.0421,-3.5654e-12,-0.21263,0,0,0.16667,-3.9475e-16,0,0.66667
0.42001,0.21253,2.52,-0.4312,-16.878,83.289,2.8977,-0.96591,-1.3397,3.8636,-4.5253e-13,-0.66983,0,0,0.16667,-1.4605e-16,0,0.66667
0.88235,0.1231,5.2941,-0.56535,-5.8671,5.5818,7.9814,-2.6605,-0.86336,10.642,-1.8871e-08,-0.43168,0,0,0.16667,-2.1711e-15,0,0.66667
0.764,0.17385,4.584,-0.48922,-9.6118,17.272,5.9803,-1.9934,-1.1493,7.9737,-4.8268e-11,-0.57467,0,0,0.16667,-2.4837e-15,0,0.66667
0.2849,0.58467,1.7094,0.127,5.5292,118.26,-0.57892,0.19297,-1.9422,-0.77189,-4.0329e-12,-0.97112,0,0,0.16667,-3.9475e-16,0,0.66667
0.72388,0.24783,4.3433,-0.37826,-8.4778,22.56,4.381,-1.4603,-1.4913,5.8414,-7.0584e-12,-0.74567,0,0,0.16667,7.8949e-16,0,0.66667
0.02714,0.88026,0.16284,0.57039,27.218,192.48,-0.24769,0.082563,-0.8431,-0.33025,6.9605e-07,-0.42155,0,0,0.16667,9.8686e-17,0,0.66667
0.5633,0.13067,3.3798,-0.554,-18.007,51.102,4.9931,-1.6644,-0.91025,6.6574,4.281e-13,-0.45513,0,0,0.16667,-0,-0,0.66667
0.041077,0.30632,0.24646,-0.29052,-13.778,188.34,0.19094,-0.063647,-1.6992,0.25459,-2.7549e-08,-0.84959,0,0,0.16667,4.9343e-17,0,0.66667
0.12608,0.92068,0.75649,0.63102,29.7,163.44,-1.2729,0.42432,-0.58488,-1.6973,-5.3449e-11,-0.29244,0,0,0.16667,1.9737e-16,0,0.66667
0.8206,0.68309,4.9236,0.27464,4.1669,10.405,-3.6059,1.202,-1.7312,-4.8078,9.0091e-10,-0.86558,0,0,0.16667,7.8949e-16,0,0.66667
0.68161,0.36204,4.0896,-0.20694,-5.2068,28.881,2.2568,-0.75228,-1.8464,3.0091,3.6262e-12,-0.92321,0,0,0.16667,-0,-0,0.66667
0.43883,0.27458,2.633,-0.33813,-12.947,78.633,2.3741,-0.79137,-1.5945,3.1655,-5.2447e-13,-0.79726,0,0,0.16667,-0,-0,0.66667
0.39571,0.61688,2.3743,0.17532,7.001,89.153,-1.11,0.37001,-1.8899,-1.48,1.2556e-12,-0.94496,0,0,0.16667,-0,-0,0.66667
0.8758,0.4865,5.2548,-0.02025,-0.21465,5.3156,0.28375,-0.094584,-1.9994,0.37834,5.4387e-09,-0.9997,0,0,0.16667,-0,-0,0.66667
0.23877,0.5567,1.4326,0.085047,3.8006,131.02,-0.3249,0.1083,-1.974,-0.4332,-4.3253e-11,-0.98699,0,0,0.16667,-1.9737e-16,0,0.66667
0.39398,0.001837,2.3639,-0.74724,-30.297,90.141,4.7104,-1.5701,-0.015406,6.2806,8.6597e-14,-0.007703,0,0,0.16667,-0,-0,0.66667
0.14348,0.50665,0.86087,0.0099806,0.46338,158.24,-0.022912,0.0076373,-1.9998,-0.030549,-1.0453e-09,-0.99992,0,0,0.16667,7.8949e-16,0,0.66667
0.67243,0.68583,4.0346,0.27874,7.1897,30.453,-2.9989,0.99964,-1.7261,-3.9986,-5.1543e-12,-0.86305,0,0,0.16667,2.9606e-16,0,0.66667
0.17561,0.1644,1.0537,-0.5034,-23.257,149.07,1.4144,-0.47148,-1.0986,1.8859,5.5806e-10,-0.54931,0,0,0.16667,-0,-0,0.66667
0.99975,0.58791,5.9985,0.13187,-0.071427,0.048474,-2.1094,0.70314,-1.94,-2.8126,7.8601e-08,-0.97002,0,0,0.16667,-7.8949e-16,0,0.66667
0.96443,0.061345,5.7866,-0.65798,-2.1183,1.7758,10.153,-3.3844,-0.46116,13.538,-1.8288e-07,-0.23058,0,0,0.16667,1.8204e-15,2.6975e-19,0.66667
0.067754,0.62595,0.40652,0.18893,8.9236,180.45,-0.20481,0.068269,-1.8734,-0.27308,-7.1645e-09,-0.93668,0,0,0.16667,-1.9737e-16,0,0.66667
0.070849,0.68179,0.42509,0.27268,12.885,179.54,-0.30911,0.10304,-1.7348,-0.41215,4.4138e-09,-0.86739,0,0,0.16667,-7.3922e-18,0,0.66667
0.24709,0.98977,1.4825,0.73466,33.093,129.04,-2.9044,0.96814,-0.0808,-3.8726,-2.111e-11,-0.0404,0,0,0.16667,1.9737e-16,0,0.66667
0.31125,0.94493,1.8675,0.66739,28.85,111.48,-3.3236,1.1079,-0.41731,-4.4315,3.0687e-13,-0.20865,0,0,0.16667,-0,-1.4304e-16,0.66667
0.79794,0.47305,4.7876,-0.040429,-0.68149,12.688,0.51615,-0.17205,-1.9957,0.6882,-1.9009e-12,-0.99786,0,0,0.16667,-0,-0,0.66667
0.75286,0.039929,4.5172,-0.69011,-14.288,19.198,8.3129,-2.771,-0.30664,11.084,2.0783e-12,-0.15332,0,0,0.16667,-0,-0,0.66667
0.1789,0.62924,1.0734,0.19387,8.9022,148.02,-0.55494,0.18498,-1.8658,-0.73992,-6.2683e-10,-0.93288,0,0,0.16667,-0,-0,0.66667
0.74052,0.97561,4.4431,0.71342,15.426,20.924,-8.4528,2.8176,-0.18946,-11.27,-3.2596e-13,-0.09473,0,0,0.16667,-0,-0,0.66667
0.37683,0.39631,2.261,-0.15553,-6.3186,93.931,0.93775,-0.31258,-1.9144,1.2503,-1.42e-12,-0.95719,0,0,0.16667,3.9475e-16,0,0.66667
0.31534,0.70013,1.892,0.30019,12.829,110.09,-1.5146,0.50486,-1.6793,-2.0195,4.6494e-12,-0.83965,0,0,0.16667,-0,-0,0.66667
0.20011,0.44566,1.2007,-0.081505,-3.7086,141.94,0.26096,-0.086986,-1.9763,0.34794,2.6852e-10,-0.98816,0,0,0.16667,3.9475e-16,0,0.66667
0.55685,0.91835,3.3411,0.62753,20.671,52.555,-5.591,1.8637,-0.59862,-7.4547,-2.2427e-13,-0.29931,0,0,0.16667,-0,-0,0.66667
0.50796,0.50437,3.0477,0.0065619,0.22987,62.473,-0.053331,0.017777,-1.9992,-0.071108,-8.6041e-13,-0.99959,0,0,0.16667,-0,-0,0.66667
0.90452,0.70466,5.4271,0.30699,2.5305,3.581,-4.4429,1.481,-1.6652,-5.9238,5.67e-09,-0.83258,0,0,0.16667,-0,-0,0.66667
0.16445,0.34793,0.98669,-0.22811,-10.532,152.19,0.60019,-0.20006,-1.8144,0.80026,1.1657e-09,-0.90718,0,0,0.16667,-0,-0,0.66667
0.026083,0.59446,0.1565,0.14169,6.7168,192.77,-0.059131,0.01971,-1.929,-0.078841,-2.3609e-07,-0.96448,0,0,0.16667,-9.8686e-17,0,0.66667
0.13921,0.95529,0.83523,0.68293,32.077,159.66,-1.5211,0.50703,-0.34216,-2.0281,7.0849e-09,-0.17108,0,0,0.16667,-0,-0,0.66667
0.036355,0.54886,0.21813,0.073286,3.4707,189.73,-0.042629,0.01421,-1.9797,-0.056838,1.6651e-07,-0.98987,0,0,0.16667,4.9343e-17,0,0.66667
0.56867,0.14428,3.412,-0.53358,-17.175,49.975,4.8549,-1.6183,-0.98639,6.4732,3.9702e-13,-0.49319,0,0,0.16667,-0,-0,0.66667
0.77158,0.8076,4.6295,0.4614,8.795,16.262,-5.6961,1.8987,-1.2425,-7.5948,5.5812e-11,-0.62124,0,0,0.16667,1.2464e-15,0,0.66667
0.98718,0.43122,5.9231,-0.10317,-0.067143,0.18416,1.6295,-0.54318,-1.9624,2.1727,-9.2318e-07,-0.98121,0,0,0.16667,1.579e-15,0,0.66667
0.84725,0.28018,5.0835,-0.32974,-4.3109,7.9219,4.4699,-1.49,-1.6143,5.9598,-2.2571e-09,-0.80713,0,0,0.16667,2.0724e-15,0,0.66667
0.16958,0.98056,1.0175,0.72084,33.573,150.92,-1.9558,0.65193,-0.15251,-2.6077,1.1403e-09,-0.076257,0,0,0.16667,-0,-0,0.66667
0.97796,0.71129,5.8678,0.31693,0.51134,0.58818,-4.9591,1.653,-1.6419,-6.6121,-1.9255e-08,-0.82094,0,0,0.16667,1.579e-15,0,0.66667
0.57851,0.90904,3.471,0.61356,19.476,48.14,-5.6792,1.8931,-0.66373,-7.5723,-4.2943e-13,-0.33186,0,0,0.16667,-0,-0,0.66667
0.81024,0.79035,4.8614,0.43552,7.0127,11.737,-5.646,1.882,-1.3258,-7.528,5.007e-10,-0.66291,0,0,0.16667,-0,-0,0.66667
0.011419,0.15292,0.068515,-0.52062,-24.829,197.12,0.095121,-0.031707,-1.0364,0.12683,1.7987e-07,-0.51822,0,0,0.16667,-1.8504e-17,0,0.66667
0.19796,0.603,1.1877,0.15449,7.0388,142.56,-0.48933,0.16311,-1.9142,-0.65244,-2.8184e-10,-0.9571,0,0,0.16667,-0,-0,0.66667
0.92504,0.52199,5.5502,0.032981,0.20925,2.2177,-0.48814,0.16271,-1.9959,-0.65085,-9.1481e-09,-0.99795,0,0,0.16667,1.579e-15,0,0.66667
0.24256,0.74135,1.4554,0.36202,16.193,130.04,-1.405,0.46833,-1.5328,-1.8733,-7.5161e-11,-0.7664,0,0,0.16667,-1.9737e-16,0,0.66667
0.53957,0.25709,3.2374,-0.36437,-12.235,55.789,3.1456,-1.0485,-1.5269,4.1942,1.1924e-13,-0.76346,0,0,0.16667,-0,-0,0.66667
0.72603,0.70667,4.3562,0.31001,6.8866,22.157,-3.6012,1.2004,-1.6568,-4.8016,9.6758e-12,-0.82842,0,0,0.16667,-0,-0,0.66667
0.10091,0.60359,0.60547,0.15539,7.2958,170.68,-0.25088,0.083628,-1.9129,-0.33451,6.8195e-09,-0.95643,0,0,0.16667,-0,-0,0.66667
0.57273,0.81592,3.4364,0.47388,15.119,49.063,-4.3425,1.4475,-1.2013,-5.79,-7.4518e-13,-0.60067,0,0,0.16667,-0,-0,0.66667
0.21267,0.59838,1.276,0.14757,6.6804,138.38,-0.50216,0.16739,-1.922,-0.66954,-2.5098e-10,-0.961,0,0,0.16667,-0,-0,0.66667
0.35815,0.26562,2.1489,-0.35157,-14.551,98.838,2.0146,-0.67155,-1.5611,2.6862,-3.5427e-12,-0.78053,0,0,0.16667,7.8949e-16,0,0.66667
0.44382,0.0011254,2.6629,-0.74831,-28.842,77.962,5.3139,-1.7713,-0.0090249,7.0852,5.4001e-13,-0.0045125,0,0,0.16667,-0,-0,0.66667
0.74936,0.8214,4.4961,0.48211,9.9815,19.176,-5.7803,1.9268,-1.1748,-7.7071,2.9813e-11,-0.58742,0,0,0.16667,-0,-0,0.66667
0.91396,0.3715,5.4838,-0.19275,-1.4185,2.8925,2.8187,-0.93957,-1.8674,3.7583,1.3143e-08,-0.93369,0,0,0.16667,3.9475e-16,0,0.66667
0.96955,0.19833,5.8173,-0.4525,-1.1349,1.0526,7.0195,-2.3398,-1.2729,9.3594,1.6216e-07,-0.63647,0,0,0.16667,-0,-0,0.66667
0.38163,0.5754,2.2898,0.1131,4.5737,92.695,-0.6906,0.2302,-1.9531,-0.9208,3.279e-13,-0.97655,0,0,0.16667,7.8949e-16,0,0.66667
0.2518,0.72976,1.5108,0.34464,15.335,127.45,-1.3884,0.46282,-1.578,-1.8513,-4.502e-11,-0.78902,0,0,0.16667,-0,-0,0.66667
0.27102,0.27498,1.6261,-0.33753,-14.855,122.14,1.4636,-0.48788,-1.5943,1.9515,1.1793e-11,-0.79713,0,0,0.16667,-0,-0,0.66667
0.76456,0.37618,4.5874,-0.18573,-3.602,16.783,2.272,-0.75735,-1.8795,3.0294,-1.0623e-10,-0.93973,0,0,0.16667,3.158e-15,0,0.66667
0.84258,0.21958,5.0555,-0.42063,-5.6883,8.4983,5.6706,-1.8902,-1.373,7.5608,-1.6178e-09,-0.68651,0,0,0.16667,-3.158e-15,0,0.66667
0.16474,0.29683,0.98847,-0.30476,-14.083,152.12,0.80333,-0.26778,-1.6682,1.0711,1.5893e-09,-0.83412,0,0,0.16667,-0,-0,0.66667
0.029941,0.43297,0.17965,-0.10055,-4.7643,191.63,0.048167,-0.016056,-1.9654,0.064223,-4.9112e-07,-0.9827,0,0,0.16667,-7.4015e-17,0,0.66667
0.84738,0.81486,5.0843,0.4723,6.2255,8.1683,-6.4034,2.1345,-1.2074,-8.5379,3.06e-09,-0.60371,0,0,0.16667,-0,-0,0.66667
0.15971,0.19924,0.95824,-0.45114,-20.934,153.62,1.1528,-0.38426,-1.2758,1.5371,1.4069e-09,-0.63791,0,0,0.16667,-0,-0,0.66667
0.94524,0.14806,5.6715,-0.5279,-2.5437,2.0157,7.9839,-2.6613,-1.008,10.645,-2.9004e-08,-0.50399,0,0,0.16667,-7.8949e-16,0,0.66667
0.96751,0.35581,5.8051,-0.21629,-0.54794,0.69754,3.3482,-1.1161,-1.8343,4.4642,1.0264e-09,-0.91714,0,0,0.16667,-1.579e-15,0,0.66667
0.57819,0.83392,3.4691,0.50088,15.843,48.01,-4.6337,1.5446,-1.1095,-6.1782,-6.3105e-13,-0.55477,0,0,0.16667,-0,-0,0.66667
0.48604,0.63591,2.9162,0.20386,7.3637,67.467,-1.5854,0.52845,-1.8527,-2.1138,-7.8826e-14,-0.92633,0,0,0.16667,-0,-0,0.66667
0.35393,0.35613,2.1236,-0.21581,-8.9457,99.86,1.2221,-0.40736,-1.8332,1.6295,-3.0151e-12,-0.9166,0,0,0.16667,-0,-0,0.66667
0.6594,0.29794,3.9564,-0.30309,-8.0746,32.674,3.1977,-1.0659,-1.6729,4.2636,4.0015e-12,-0.83644,0,0,0.16667,7.8949e-16,0,0.66667
0.38436,0.38127,2.3062,-0.1781,-7.1878,92.021,1.0953,-0.36509,-1.8864,1.4604,-1.3134e-12,-0.9432,0,0,0.16667,-7.8949e-16,0,0.66667
0.4349,0.90146,2.6094,0.60219,23.314,79.87,-4.1903,1.3968,-0.7112,-5.587,2.629e-13,-0.3556,0,0,0.16667,-5.3198e-16,0,0.66667
0.6133,0.52098,3.6798,0.031468,0.92401,40.804,-0.30879,0.10293,-1.9959,-0.41172,-8.8432e-13,-0.99793,0,0,0.16667,-0,-0,0.66667
0.034635,0.203,0.20781,-0.4455,-21.19,190.25,0.24688,-0.082293,-1.2937,0.32917,-1.1525e-07,-0.64686,0,0,0.16667,4.9343e-17,0,0.66667
0.2188,0.11224,1.3128,-0.58163,-26.447,136.83,2.0362,-0.67874,-0.79857,2.715,1.0075e-10,-0.39928,0,0,0.16667,3.9475e-16,0,0.66667
0.020192,0.93538,0.12115,0.65307,31.243,194.54,-0.21099,0.07033,-0.48378,-0.28131,1.2016e-06,-0.24189,0,0,0.16667,2.4672e-17,0,0.66667
0.76313,0.32398,4.5788,-0.26403,-5.1578,17.038,3.2238,-1.0746,-1.7521,4.2984,-1.0426e-10,-0.87604,0,0,0.16667,-0,-0,0.66667
0.38987,0.84046,2.3392,0.51069,20.627,90.864,-3.1856,1.0619,-1.0746,-4.2475,1.6422e-12,-0.5373,0,0,0.16667,-1.9737e-16,0,0.66667
0.42267,0.73317,2.536,0.34975,13.629,82.565,-2.3653,0.78842,-1.5659,-3.1537,1.023e-12,-0.78295,0,0,0.16667,-0,-0,0.66667
0.54968,0.94503,3.2981,0.66754,22.28,54.116,-5.871,1.957,-0.41571,-7.828,-1.0569e-13,-0.20785,0,0,0.16667,-0,-0,0.66667
0.38846,0.4312,2.3308,-0.1032,-4.1472,90.96,0.64145,-0.21382,-1.9627,0.85527,4.4409e-16,-0.98136,0,0,0.16667,2.3001e-16,0,0.66667
0.81063,0.04767,4.8638,-0.67849,-11.095,12.28,8.8002,-2.9334,-0.36334,11.734,-1.5663e-10,-0.18167,0,0,0.16667,-0,1.9686e-16,0.66667
0.4359,0.39591,2.6154,-0.15614,-5.9833,79.234,1.089,-0.36299,-1.9138,1.452,-2.276e-13,-0.95691,0,0,0.16667,-3.9475e-16,0,0.66667
0.58016,0.32005,3.4809,-0.26993,-8.4586,47.342,2.5056,-0.8352,-1.7415,3.3408,5.7732e-14,-0.87073,0,0,0.16667,1.579e-15,0,0.66667
0.97117,0.91384,5.827,0.62076,1.5792,1.48,-9.6458,3.2153,-0.63019,-12.861,-1.9648e-06,-0.3151,0,0,0.16667,-3.158e-15,0,0.66667
0.9921,0.033589,5.9526,-0.69962,-0.47553,1.38,11.105,-3.7018,-0.25937,14.807,-2.1023e-05,-0.12969,0,0,0.16667,3.158e-15,0,0.66667
0.20287,0.55308,1.2172,0.079624,3.6187,141.15,-0.25846,0.086153,-1.9789,-0.34461,-2.2346e-10,-0.98946,0,0,0.16667,-1.9737e-16,0,0.66667
0.44452,0.55972,2.6671,0.089585,3.3989,77.142,-0.63716,0.21239,-1.9711,-0.84954,1.2662e-13,-0.98555,0,0,0.16667,1.1842e-15,0,0.66667
0.47475,0.43021,2.8485,-0.10468,-3.8322,70.023,0.79513,-0.26504,-1.9601,1.0602,3.6637e-14,-0.98007,0,0,0.16667,-0,-0,0.66667
0.29764,0.31278,1.7858,-0.28082,-12.145,114.84,1.3373,-0.44578,-1.7221,1.7831,-1.6332e-12,-0.86104,0,0,0.16667,-7.8949e-16,0,0.66667
0.2835,0.33054,1.701,-0.25418,-11.089,118.68,1.153,-0.38433,-1.7703,1.5373,3.5164e-12,-0.88513,0,0,0.16667,-3.9475e-16,0,0.66667
0.83962,0.2301,5.0377,-0.40485,-5.566,8.7419,5.4387,-1.8129,-1.4165,7.2516,-1.7962e-09,-0.70824,0,0,0.16667,-0,-0,0.66667
0.96209,0.37044,5.7726,-0.19434,-0.58803,0.82769,2.9916,-0.99718,-1.8651,3.9887,-2.9585e-08,-0.93255,0,0,0.16667,-3.9475e-16,0,0.66667
0.21069,0.41499,1.2641,-0.12752,-5.7768,138.94,0.42986,-0.14329,-1.941,0.57314,2.0994e-10,-0.97049,0,0,0.16667,-3.9475e-16,0,0.66667
0.89173,0.15768,5.3504,-0.51348,-4.8888,4.8012,7.3262,-2.4421,-1.0646,9.7682,-2.2231e-08,-0.53228,0,0,0.16667,3.158e-15,0,0.66667
0.39198,0.69947,2.3519,0.2992,12.008,90.154,-1.8765,0.62549,-1.6823,-2.502,1.9285e-12,-0.84113,0,0,0.16667,-0,-0,0.66667
0.65143,0.76837,3.9086,0.40255,10.956,34.172,-4.1957,1.3986,-1.4228,-5.5943,-3.9346e-12,-0.71138,0,0,0.16667,-0,-0,0.66667
0.28386,0.45812,1.7032,-0.062823,-2.7361,118.53,0.28533,-0.09511,-1.9859,0.38044,1.155e-12,-0.99295,0,0,0.16667,-0,-0,0.66667
0.94108,0.78644,5.6465,0.42966,2.1902,1.9442,-6.4695,2.1565,-1.3437,-8.626,-5.8751e-09,-0.67185,0,0,0.16667,-0,-0,0.66667
0.78682,0.96331,4.7209,0.69497,12.65,14.984,-8.749,2.9163,-0.28217,-11.665,7.0111e-11,-0.14108,0,0,0.16667,3.9475e-16,0,0.66667
0.19277,0.17672,1.1566,-0.48492,-22.246,144.15,1.4957,-0.49855,-1.1629,1.9942,4.1377e-10,-0.58143,0,0,0.16667,1.9737e-16,0,0.66667
0.61504,0.38579,3.6902,-0.17132,-5.018,40.524,1.6859,-0.56197,-1.8945,2.2479,1.4901e-12,-0.94724,0,0,0.16667,-0,-0,0.66667
0.9688,0.42481,5.8128,-0.11279,-0.26829,0.5756,1.7483,-0.58278,-1.9562,2.3311,1.2753e-07,-0.97809,0,0,0.16667,-1.579e-15,0,0.66667
0.28459,0.53069,1.7075,0.046028,2.0037,118.33,-0.20958,0.06986,-1.9935,-0.27944,-1.1854e-12,-0.99674,0,0,0.16667,-2.4672e-16,0,0.66667
0.36153,0.84654,2.1692,0.51981,21.532,98.102,-3.0069,1.0023,-1.0404,-4.0091,2.3579e-12,-0.52021,0,0,0.16667,-0,-0,0.66667
0.20361,0.49983,1.2217,-0.00025463,-0.011567,140.94,0.00082952,-0.00027651,-2.0027,0.001106,1.35e-10,-1.0014,0,0,0.16667,2.0971e-16,0,0.66667
0.63877,0.44604,3.8326,-0.080933,-2.253,36.137,0.82716,-0.27572,-1.9772,1.1029,7.9325e-13,-0.98861,0,0,0.16667,1.579e-15,0,0.66667
0.89282,0.80222,5.3569,0.45332,4.2466,4.5905,-6.4758,2.1586,-1.2695,-8.6344,6.6954e-09,-0.63475,0,0,0.16667,7.8949e-16,0,0.66667
0.3417,0.99116,2.0502,0.73675,31.22,103.51,-4.0279,1.3426,-0.070436,-5.3705,-6.9189e-13,-0.035218,0,0,0.16667,-3.8484e-16,1.6012e-16,0.66667
0.1244,0.22631,0.74639,-0.41054,-19.233,163.86,0.81713,-0.27238,-1.4021,1.0895,4.744e-09,-0.70107,0,0,0.16667,-0,-0,0.66667
0.34768,0.83832,2.0861,0.50749,21.254,101.69,-2.8231,0.94102,-1.0842,-3.7641,3.0762e-12,-0.5421,0,0,0.16667,-0,-0,0.66667
0.62672,0.4387,3.7603,-0.091952,-2.6273,38.323,0.92206,-0.30735,-1.9716,1.2294,1.1505e-12,-0.98581,0,0,0.16667,-0,-0,0.66667
0.73484,0.11031,4.409,-0.58453,-12.773,21.383,6.8726,-2.2909,-0.78619,9.1635,2.0641e-12,-0.3931,0,0,0.16667,-1.579e-15,0,0.66667
0.60653,0.35974,3.6392,-0.21039,-6.2704,42.156,2.0417,-0.68056,-1.8423,2.7222,9.5413e-13,-0.92113,0,0,0.16667,7.8949e-16,0,0.66667
0.076207,0.20659,0.45724,-0.44012,-20.835,177.99,0.53664,-0.17888,-1.3115,0.71552,2.0128e-08,-0.65574,0,0,0.16667,-0,-0,0.66667
0.93982,0.37668,5.6389,-0.18498,-0.93518,1.6193,2.7816,-0.92721,-1.8796,3.7088,4.3515e-08,-0.9398,0,0,0.16667,-0,-0,0.66667
0.18939,0.16917,1.1363,-0.49625,-22.803,145.12,1.5038,-0.50126,-1.1246,2.005,4.1472e-10,-0.56229,0,0,0.16667,-0,-0,0.66667
0.57409,0.40738,3.4445,-0.13893,-4.3925,48.477,1.2761,-0.42536,-1.932,1.7015,3.5527e-13,-0.96599,0,0,0.16667,-0,-0,0.66667
0.90683,0.96701,5.441,0.70051,5.9213,4.4007,-10.164,3.388,-0.25756,-13.552,-3.2426e-07,-0.12878,0,0,0.16667,-1.9737e-16,0,0.66667
0.97339,0.91148,5.8403,0.61722,1.4398,1.4172,-9.6126,3.2042,-0.64518,-12.817,-2.3939e-06,-0.32259,0,0,0.16667,-0,-0,0.66667
0.85777,0.33699,5.1466,-0.24451,-2.9737,6.8955,3.3558,-1.1186,-1.7883,4.4744,-2.3252e-09,-0.89414,0,0,0.16667,7.8949e-16,0,0.66667
0.12909,0.67561,0.77455,0.26341,12.298,162.45,-0.54406,0.18135,-1.7525,-0.72541,-3.2075e-09,-0.87626,0,0,0.16667,-1.9737e-16,0,0.66667
0.90702,0.55242,5.4421,0.078634,0.62392,3.2181,-1.1412,0.38039,-1.9791,-1.5216,-1.5705e-08,-0.98953,0,0,0.16667,7.8949e-16,0,0.66667
0.32751,0.93172,1.9651,0.64759,27.654,107.13,-3.3935,1.1312,-0.51053,-4.5247,4.1012e-13,-0.25527,0,0,0.16667,1.9737e-16,1.1895e-16,0.66667
0.58239,0.57344,3.4943,0.11016,3.4313,46.804,-1.0265,0.34216,-1.9561,-1.3686,-7.0866e-13,-0.97803,0,0,0.16667,-0,-0,0.66667
0.14046,0.33923,0.84275,-0.24115,-11.221,159.14,0.54195,-0.18065,-1.7954,0.72261,2.0283e-09,-0.89768,0,0,0.16667,-2.4672e-16,0,0.66667
0.51272,0.75428,3.0763,0.38142,13.33,61.616,-3.1291,1.043,-1.4832,-4.1721,-3.1797e-13,-0.74162,0,0,0.16667,-0,-0,0.66667
0.46733,0.73781,2.804,0.35671,13.222,71.893,-2.6672,0.88907,-1.5481,-3.5563,6.084e-14,-0.77404,0,0,0.16667,-0,-0,0.66667
0.005313,0.8455,0.031878,0.51825,24.717,198.93,-0.044055,0.014685,-1.0451,-0.05874,-5.1272e-07,-0.52257,0,0,0.16667,-0,-4.3521e-16,0.66667
0.28621,0.26495,1.7173,-0.35258,-15.377,117.98,1.6146,-0.53819,-1.5568,2.1528,-2.3936e-13,-0.77842,0,0,0.16667,-3.9475e-16,0,0.66667
0.14345,0.76977,0.86069,0.40465,18.856,158.31,-0.92874,0.30958,-1.4176,-1.2383,-2.848e-09,-0.70879,0,0,0.16667,-1.9737e-16,0,0.66667
0.35352,0.5611,2.1211,0.091657,3.797,99.93,-0.51845,0.17282,-1.9702,-0.69126,8.2256e-13,-0.98509,0,0,0.16667,-1.4803e-16,0,0.66667
0.27167,0.78087,1.63,0.42131,18.562,122,-1.8313,0.61044,-1.3691,-2.4418,-6.4331e-12,-0.68456,0,0,0.16667,4.9343e-16,0,0.66667
0.47113,0.40292,2.8268,-0.14562,-5.3566,70.877,1.0977,-0.3659,-1.9255,1.4636,5.3402e-14,-0.96277,0,0,0.16667,-1.9737e-16,0,0.66667
0.77155,0.78178,4.6293,0.42266,8.0424,16.195,-5.2177,1.7392,-1.365,-6.957,1.3952e-10,-0.68252,0,0,0.16667,-3.158e-15,0,0.66667
0.020636,0.78947,0.12382,0.43421,20.665,194.39,-0.14337,0.04779,-1.3289,-0.19116,1.1638e-07,-0.66443,0,0,0.16667,-0,-0,0.66667
0.22758,0.69633,1.3655,0.29449,13.258,134.21,-1.0723,0.35744,-1.6905,-1.4298,-1.6094e-10,-0.84524,0,0,0.16667,-0,-0,0.66667
0.98353,0.72375,5.9012,0.33562,0.36968,0.51311,-5.2815,1.7605,-1.6011,-7.042,1.5613e-08,-0.80054,0,0,0.16667,3.158e-15,0,0.66667
0.059609,0.94837,0.35765,0.67256,32.091,182.92,-0.64145,0.21382,-0.39146,-0.85527,7.5509e-07,-0.19573,0,0,0.16667,-0,-0,0.66667
0.59551,0.4806,3.573,-0.029103,-0.88461,44.207,0.2773,-0.092433,-1.9973,0.36973,-4.2763e-13,-0.99865,0,0,0.16667,-0,-0,0.66667
0.99828,0.55498,5.9897,0.082467,-0.033929,0.033573,-1.3172,0.43907,-1.9765,-1.7563,7.8622e-07,-0.98826,0,0,0.16667,-0,-0,0.66667
0.60079,0.1093,3.6047,-0.58606,-17.844,43.735,5.6335,-1.8778,-0.77729,7.5114,2.9265e-13,-0.38864,0,0,0.16667,-0,-0,0.66667
0.052634,0.76507,0.3158,0.3976,18.865,184.93,-0.33483,0.11161,-1.4366,-0.44645,2.8001e-08,-0.71829,0,0,0.16667,-0,-0,0.66667
0.12467,0.73391,0.74804,0.35087,16.42,163.76,-0.6999,0.2333,-1.5634,-0.9332,-4.9783e-09,-0.78172,0,0,0.16667,-0,-0,0.66667
0.89515,0.24952,5.3709,-0.37573,-3.4196,4.2839,5.3813,-1.7938,-1.4986,7.175,-7.3874e-09,-0.74932,0,0,0.16667,3.454e-16,0,0.66667
0.86842,0.58992,5.2105,0.13488,1.5156,5.9283,-1.8742,0.62472,-1.9348,-2.4989,-7.2472e-12,-0.96741,0,0,0.16667,7.8949e-16,0,0.66667
0.54878,0.017173,3.2927,-0.72424,-24.266,54.42,6.3592,-2.1197,-0.13517,8.4789,-1.5365e-13,-0.067585,0,0,0.16667,-0,-0,0.66667
0.26258,0.71088,1.5755,0.31632,13.985,124.45,-1.329,0.44299,-1.6442,-1.772,-2.6089e-11,-0.8221,0,0,0.16667,1.9737e-16,0,0.66667
0.51035,0.25884,3.0621,-0.36175,-12.679,62.121,2.9539,-0.98462,-1.5338,3.9385,-1.1324e-13,-0.7669,0,0,0.16667,-0,-0,0.66667
0.25377,0.88673,1.5226,0.58009,25.915,127.05,-2.3554,0.78513,-0.80289,-3.1405,-7.6532e-12,-0.40144,0,0,0.16667,-3.9475e-16,0,0.66667
0.69013,0.83257,4.1408,0.49885,12.378,27.888,-5.5084,1.8361,-1.1151,-7.3445,-4.905e-12,-0.55754,0,0,0.16667,7.8949e-16,0,0.66667
0.60412,0.32563,3.6247,-0.26155,-7.8384,42.654,2.5281,-0.84271,-1.7556,3.3708,1.4424e-12,-0.87779,0,0,0.16667,-0,-0,0.66667
0.78798,0.0058695,4.7279,-0.7412,-13.477,14.988,9.3448,-3.1149,-0.045857,12.46,-1.272e-10,-0.022928,0,0,0.16667,-0,-0,0.66667
0.48764,0.90576,2.9258,0.60864,22.147,67.529,-4.7488,1.5829,-0.68391,-6.3317,-5.7909e-13,-0.34195,0,0,0.16667,-1.0115e-15,0,0.66667
0.038361,0.48819,0.23016,-0.01771,-0.83849,189.13,0.01087,-0.0036225,-1.9975,0.014494,1.1574e-06,-0.99873,0,0,0.16667,-4.5428e-17,0,0.66667
0.79002,0.70615,4.7401,0.30923,5.4292,13.796,-3.9087,1.3029,-1.6586,-5.2116,3.0475e-10,-0.82929,0,0,0.16667,-7.8949e-16,0,0.66667
0.20938,0.27453,1.2563,-0.33821,-15.365,139.37,1.133,-0.37767,-1.5924,1.5107,3.198e-10,-0.79621,0,0,0.16667,-0,-0,0.66667
0.22664,0.40856,1.3598,-0.13716,-6.1683,134.43,0.49738,-0.16579,-1.9328,0.66317,9.4158e-11,-0.9664,0,0,0.16667,7.8949e-16,0,0.66667
0.54164,0.76662,3.2498,0.39992,13.398,55.39,-3.4658,1.1553,-1.4301,-4.6211,3.2285e-13,-0.71505,0,0,0.16667,-7.8949e-16,0,0.66667
0.82259,0.0084223,4.9356,-0.73737,-11.43,11.229,9.7049,-3.235,-0.065878,12.94,-2.9811e-10,-0.032939,0,0,0.16667,-3.158e-15,0,0.66667
0.94909,0.71515,5.6946,0.32272,1.3836,1.43,-4.9007,1.6336,-1.6298,-6.5342,-2.9175e-08,-0.81492,0,0,0.16667,-3.9475e-16,0,0.66667
0.24077,0.50711,1.4446,0.010662,0.47588,130.45,-0.041074,0.013691,-1.9987,-0.054765,3.1327e-12,-0.99933,0,0,0.16667,-0,-0,0.66667
0.8962,0.13221,5.3772,-0.55168,-5.0645,4.6055,7.9107,-2.6369,-0.91704,10.548,1.4274e-08,-0.45852,0,0,0.16667,-0,-0,0.66667
0.91103,0.70208,5.4662,0.30312,2.3258,3.1915,-4.4184,1.4728,-1.6722,-5.8912,3.2758e-09,-0.83611,0,0,0.16667,-1.579e-15,0,0.66667
0.74442,0.56573,4.4665,0.0986,2.0535,19.401,-1.1744,0.39146,-1.9652,-1.5659,2.387e-11,-0.9826,0,0,0.16667,-0,-0,0.66667
0.37426,0.45901,2.2456,-0.061478,-2.502,94.568,0.36814,-0.12271,-1.9877,0.49086,-1.6749e-12,-0.99383,0,0,0.16667,3.9475e-16,0,0.66667
0.54785,0.78507,3.2871,0.42761,14.196,54.114,-3.7483,1.2494,-1.3515,-4.9977,-7.3275e-14,-0.67577,0,0,0.16667,-1.579e-15,0,0.66667
0.13763,0.7112,0.8258,0.31681,14.767,159.98,-0.69765,0.23255,-1.6432,-0.9302,-3.3791e-09,-0.82158,0,0,0.16667,-9.8686e-17,0,0.66667
0.57527,0.60766,3.4516,0.16149,5.0963,48.248,-1.4864,0.49546,-1.9069,-1.9818,-8.4655e-13,-0.95347,0,0,0.16667,-0,-0,0.66667
0.57561,0.7919,3.4537,0.43786,13.885,48.434,-4.0326,1.3442,-1.3183,-5.3768,-7.5673e-13,-0.65915,0,0,0.16667,-0,-0,0.66667
0.58347,0.96086,3.5008,0.69129,21.825,47.313,-6.4536,2.1512,-0.30003,-8.6048,-7.6383e-14,-0.15002,0,0,0.16667,-0,-0,0.66667
0.92023,0.62228,5.5214,0.18341,1.2479,2.5445,-2.7005,0.90017,-1.8818,-3.6007,3.9467e-09,-0.94092,0,0,0.16667,-3.9475e-16,0,0.66667
0.5331,0.60474,3.1986,0.15711,5.3104,57.015,-1.3401,0.44669,-1.9125,-1.7868,2.8211e-13,-0.95627,0,0,0.16667,-1.579e-15,0,0.66667
0.24089,0.49877,1.4454,-0.0018469,-0.082429,130.42,0.0071186,-0.0023729,-2,0.0094915,-1.0985e-11,-0.99999,0,0,0.16667,6.5245e-16,0,0.66667
0.54523,0.50459,3.2714,0.0068881,0.22832,54.398,-0.06009,0.02003,-2.001,-0.08012,1.8813e-13,-1.0005,0,0,0.16667,-0,-0,0.66667
0.12737,0.98434,0.76425,0.72651,34.281,163.11,-1.4806,0.49354,-0.12319,-1.9742,2.8378e-09,-0.061596,0,0,0.16667,-1.9737e-16,0,0.66667
0.074781,0.44489,0.44868,-0.082665,-3.8981,178.37,0.098907,-0.032969,-1.9756,0.13188,4.4441e-08,-0.9878,0,0,0.16667,-0,-0,0.66667
0.83061,0.94063,4.9837,0.66094,9.7513,10.204,-8.7837,2.9279,-0.44771,-11.712,-2.2888e-09,-0.22385,0,0,0.16667,-3.158e-15,0,0.66667
0.72316,0.23692,4.3389,-0.39463,-8.8698,22.69,4.566,-1.522,-1.4453,6.088,-3.7903e-12,-0.72267,0,0,0.16667,-7.8949e-16,0,0.66667
0.083912,0.90251,0.50347,0.60377,28.653,175.76,-0.81061,0.2702,-0.70351,-1.0808,7.4206e-08,-0.35176,0,0,0.16667,-0,-0,0.66667
0.55758,0.55523,3.3455,0.082841,2.6924,51.829,-0.73905,0.24635,-1.9749,-0.9854,-1.6126e-13,-0.98747,0,0,0.16667,3.3015e-16,0,0.66667
0.52511,0.32076,3.1506,-0.26886,-9.2103,58.807,2.2589,-0.75297,-1.7419,3.0119,-2.3359e-13,-0.87097,0,0,0.16667,-0,-0,0.66667
0.50731,0.95254,3.0439,0.67881,24.125,63.24,-5.5099,1.8366,-0.36015,-7.3465,7.3053e-13,-0.18007,0,0,0.16667,-7.8949e-16,0,0.66667
0.032405,0.61453,0.19443,0.1718,8.1427,190.9,-0.089073,0.029691,-1.8958,-0.11876,3.4445e-08,-0.94791,0,0,0.16667,4.9343e-17,0,0.66667
0.96037,0.12888,5.7622,-0.55668,-1.93,1.5768,8.5539,-2.8513,-0.8976,11.405,1.049e-07,-0.4488,0,0,0.16667,-3.158e-15,0,0.66667
0.92765,0.54602,5.5659,0.069027,0.42217,2.0979,-1.0245,0.34151,-1.9817,-1.366,-5.9415e-08,-0.99086,0,0,0.16667,-0,-0,0.66667
0.96441,0.47711,5.7865,-0.03433,-0.095212,0.66589,0.52973,-0.17658,-1.9952,0.70631,-1.2487e-07,-0.99761,0,0,0.16667,-0,-0,0.66667
0.53338,0.30599,3.2003,-0.29102,-9.8505,57.04,2.4836,-0.82785,-1.6995,3.3114,4.3077e-14,-0.84973,0,0,0.16667,-3.9475e-16,0,0.66667
0.12664,0.59951,0.75984,0.14926,6.9659,163.15,-0.30244,0.10081,-1.9218,-0.40325,-3.1267e-09,-0.96088,0,0,0.16667,-0,-0,0.66667
0.73229,0.44414,4.3937,-0.083789,-1.8169,21.088,0.98172,-0.32724,-1.9756,1.309,-1.0951e-11,-0.98782,0,0,0.16667,-0,-0,0.66667
0.94973,0.71303,5.6984,0.31954,1.3507,1.4014,-4.8557,1.6186,-1.637,-6.4742,-3.0181e-08,-0.81851,0,0,0.16667,-0,-0,0.66667
0.25927,0.054636,1.5556,-0.66805,-29.83,125.61,2.7712,-0.92374,-0.41219,3.695,1.146e-12,-0.20609,0,0,0.16667,-1.9737e-16,0,0.66667
0.28377,0.82477,1.7026,0.48716,21.336,118.74,-2.2119,0.73729,-1.1561,-2.9491,1.4948e-12,-0.57803,0,0,0.16667,-0,-0,0.66667
0.44706,0.55404,2.6823,0.081064,3.0667,76.533,-0.57984,0.19328,-1.9756,-0.77312,1.7847e-13,-0.9878,0,0,0.16667,-0,-0,0.66667
0.15862,0.62229,0.95171,0.18343,8.4826,153.87,-0.46553,0.15518,-1.8814,-0.62071,-1.118e-09,-0.9407,0,0,0.16667,-2.4672e-16,0,0.66667
0.56858,0.50253,3.4115,0.0037911,0.12093,49.562,-0.034489,0.011496,-1.9997,-0.045985,-4.511e-14,-0.99987,0,0,0.16667,-0,-0,0.66667
0.44953,0.50934,2.6972,0.014017,0.52868,75.935,-0.10082,0.033606,-1.9989,-0.13443,1.2791e-12,-0.99944,0,0,0.16667,-0,-0,0.66667
0.88742,0.349,5.3245,-0.2265,-2.19,4.5913,3.216,-1.072,-1.8178,4.288,-2.8332e-09,-0.90891,0,0,0.16667,-0,-0,0.66667
0.21483,0.29622,1.289,-0.30566,-13.846,137.81,1.0507,-0.35022,-1.667,1.4009,2.5129e-10,-0.83349,0,0,0.16667,-0,-0,0.66667
0.16795,0.5515,1.0077,0.077251,3.5589,151.16,-0.20759,0.069196,-1.9781,-0.27678,-7.5231e-10,-0.98906,0,0,0.16667,-0,-0,0.66667
0.49563,0.8242,2.9738,0.4863,17.444,65.545,-3.8564,1.2855,-1.1583,-5.1419,1.0303e-13,-0.57914,0,0,0.16667,-0,-0,0.66667
0.51663,0.25116,3.0998,-0.37326,-12.971,60.75,3.0854,-1.0285,-1.5068,4.1138,-5.8398e-14,-0.75339,0,0,0.16667,-0,-0,0.66667
0.4062,0.61194,2.4372,0.16791,6.6368,86.527,-1.0913,0.36375,-1.9011,-1.455,9.7888e-13,-0.95057,0,0,0.16667,7.8949e-16,0,0.66667
0.2368,0.32077,1.4208,-0.26885,-12.044,131.61,1.0186,-0.33953,-1.7432,1.3581,1.0427e-10,-0.87162,0,0,0.16667,-0,-0,0.66667
0.53636,0.87708,3.2182,0.56562,19.197,56.739,-4.854,1.618,-0.86258,-6.4721,-1.1027e-12,-0.43129,0,0,0.16667,1.579e-15,0,0.66667
0.96214,0.73626,5.7728,0.35439,1.1031,1.0516,-5.4555,1.8185,-1.552,-7.2741,-5.5775e-08,-0.776,0,0,0.16667,-1.579e-15,0,0.66667
0.25644,0.95506,1.5386,0.68259,30.542,126.4,-2.8007,0.93355,-0.34192,-3.7342,-4.2211e-13,-0.17096,0,0,0.16667,-3.9475e-16,0,0.66667
0.28319,0.24158,1.6991,-0.38763,-16.948,118.83,1.7564,-0.58546,-1.4662,2.3418,7.0666e-13,-0.73311,0,0,0.16667,-1.9737e-16,0,0.66667
0.031465,0.052704,0.18879,-0.67094,-32.095,191.21,0.33778,-0.1126,-0.40087,0.45038,-1.7018e-06,-0.20044,0,0,0.16667,4.9343e-17,0,0.66667
0.87611,0.46468,5.2566,-0.052978,-0.56033,5.2978,0.74263,-0.24754,-1.9916,0.99018,-9.6668e-09,-0.99578,0,0,0.16667,-0,-0,0.66667
0.27438,0.46598,1.6463,-0.051032,-2.2355,121.13,0.22404,-0.07468,-1.9904,0.29872,3.8535e-12,-0.9952,0,0,0.16667,-9.8686e-17,0,0.66667
0.059762,0.85756,0.35857,0.53633,25.499,182.85,-0.51284,0.17095,-0.97694,-0.68379,-6.2381e-08,-0.48847,0,0,0.16667,9.8686e-17,0,0.66667
0.75205,0.16012,4.5123,-0.50983,-10.471,18.871,6.1347,-2.0449,-1.0768,8.1795,-2.5184e-12,-0.53842,0,0,0.16667,-0,-0,0.66667
0.92919,0.20933,5.5751,-0.436,-2.6905,2.4829,6.4821,-2.1607,-1.3228,8.6427,-1.8362e-08,-0.66142,0,0,0.16667,7.8949e-16,0,0.66667
0.42393,0.7859,2.5436,0.42884,16.717,82.326,-2.9088,0.9696,-1.347,-3.8784,1.515e-12,-0.6735,0,0,0.16667,-0,-0,0.66667
0.32511,0.2952,1.9506,-0.30719,-13.038,107.49,1.5979,-0.53264,-1.664,2.1306,-5.4552e-12,-0.83202,0,0,0.16667,-0,-0,0.66667
0.68882,0.61071,4.1329,0.16606,4.0968,27.69,-1.8302,0.61007,-1.9024,-2.4403,-2.9805e-12,-0.95122,0,0,0.16667,7.8949e-16,0,0.66667
0.20706,0.41949,1.2424,-0.12076,-5.4796,139.97,0.40009,-0.13336,-1.9474,0.53345,2.0132e-10,-0.97368,0,0,0.16667,-3.9475e-16,0,0.66667
0.55152,0.052301,3.3091,-0.67155,-22.352,53.743,5.9259,-1.9753,-0.39567,7.9012,-4.956e-13,-0.19783,0,0,0.16667,-0,-0,0.66667
0.49453,0.83767,2.9672,0.50651,18.206,65.82,-4.0078,1.3359,-1.0872,-5.3437,-2.438e-13,-0.54358,0,0,0.16667,3.9475e-16,0,0.66667
0.58736,0.97762,3.5242,0.71643,22.488,46.605,-6.7328,2.2443,-0.1739,-8.9771,-1.199e-14,-0.08695,0,0,0.16667,-1.579e-15,0,0.66667
0.83524,0.090806,5.0114,-0.61379,-8.7903,9.6282,8.2026,-2.7342,-0.66009,10.937,-2.9651e-09,-0.33004,0,0,0.16667,-2.1711e-15,0,0.66667
0.68413,0.90375,4.1048,0.60562,15.341,29.064,-6.6292,2.2097,-0.69651,-8.8389,-2.2453e-12,-0.34825,0,0,0.16667,-7.8949e-16,0,0.66667
0.88239,0.43633,5.2943,-0.095512,-0.96018,4.8488,1.3485,-0.44949,-1.9675,1.7979,9.2487e-09,-0.98374,0,0,0.16667,-3.9475e-16,0,0.66667
0.27936,0.75831,1.6761,0.38746,16.981,119.88,-1.7318,0.57728,-1.4667,-2.3091,-5.0864e-12,-0.73336,0,0,0.16667,-0,-0,0.66667
0.24996,0.66143,1.4997,0.24215,10.77,127.93,-0.96841,0.3228,-1.7936,-1.2912,-5.6728e-11,-0.89682,0,0,0.16667,-0,-0,0.66667
0.18811,0.33757,1.1287,-0.24365,-11.154,145.39,0.73333,-0.24444,-1.7905,0.97777,7.1231e-10,-0.89525,0,0,0.16667,-1.9737e-16,0,0.66667
0.008355,0.78295,0.05013,0.42443,20.203,198.03,-0.056738,0.018913,-1.3593,-0.075651,-1.4784e-07,-0.67966,0,0,0.16667,-0,-0,0.66667
0.65746,0.6255,3.9447,0.18826,5.0275,32.908,-1.9803,0.66011,-1.8761,-2.6404,-3.3471e-12,-0.93807,0,0,0.16667,-1.579e-15,0,0.66667
0.37182,0.28747,2.2309,-0.3188,-13.035,95.292,1.8966,-0.63219,-1.6387,2.5288,-2.2182e-12,-0.81937,0,0,0.16667,-0,-0,0.66667
0.16613,0.63802,0.99676,0.20704,9.5519,151.7,-0.55031,0.18344,-1.8463,-0.73374,-1.3853e-09,-0.92315,0,0,0.16667,-3.9475e-16,0,0.66667
0.25918,0.63243,1.5551,0.19865,8.7867,125.35,-0.82376,0.27459,-1.8587,-1.0983,-3.3993e-11,-0.92936,0,0,0.16667,-0,-0,0.66667
0.1825,0.91907,1.095,0.62861,29.059,147.16,-1.8356,0.61186,-0.59391,-2.4474,3.182e-10,-0.29695,0,0,0.16667,-0,-0,0.66667
0.17807,0.60414,1.0684,0.15621,7.173,148.26,-0.44506,0.14835,-1.912,-0.59341,-7.9758e-10,-0.95601,0,0,0.16667,-0,-0,0.66667
0.22777,0.66862,1.3666,0.25292,11.38,134.14,-0.92173,0.30724,-1.7711,-1.229,-1.446e-10,-0.88557,0,0,0.16667,-0,-0,0.66667
0.096411,0.63322,0.57846,0.19983,9.3945,172.01,-0.30826,0.10275,-1.8581,-0.41101,-1.8307e-09,-0.92906,0,0,0.16667,-0,-0,0.66667
0.54411,0.1649,3.2646,-0.50265,-16.823,55.003,4.3759,-1.4586,-1.1017,5.8346,5.3735e-14,-0.55084,0,0,0.16667,-0,-0,0.66667
0.8362,0.28579,5.0172,-0.32132,-4.4859,8.9282,4.2989,-1.433,-1.6322,5.7319,-1.6046e-09,-0.81611,0,0,0.16667,-0,-0,0.66667
0.34664,0.87965,2.0798,0.56948,23.91,102.02,-3.1585,1.0528,-0.84736,-4.2113,2.1037e-12,-0.42368,0,0,0.16667,-0,-0,0.66667
0.9126,0.72889,5.4756,0.34334,2.5965,3.1656,-5.0133,1.6711,-1.5796,-6.6844,7.6128e-09,-0.78982,0,0,0.16667,1.579e-15,0,0.66667
0.68392,0.50132,4.1035,0.0019736,0.049268,28.428,-0.021596,0.0071988,-2.0007,-0.028795,-5.2849e-13,-1.0004,0,0,0.16667,-0,-0,0.66667
0.82604,0.59318,4.9562,0.13978,2.0526,9.7321,-1.8474,0.61579,-1.9321,-2.4632,5.1044e-10,-0.96607,0,0,0.16667,2.0231e-15,0,0.66667
0.92485,0.033422,5.5491,-0.69987,-4.8064,3.4323,10.356,-3.4521,-0.25928,13.809,-1.4237e-06,-0.12964,0,0,0.16667,-3.158e-15,0,0.66667
0.71895,0.17543,4.3137,-0.48685,-11.126,23.462,5.6003,-1.8668,-1.1586,7.4671,4.4142e-13,-0.57928,0,0,0.16667,-7.8949e-16,0,0.66667
0.77043,0.47319,4.6226,-0.040215,-0.76117,15.972,0.49573,-0.16524,-1.994,0.66097,-1.4517e-11,-0.99701,0,0,0.16667,-1.8247e-15,0,0.66667
0.074018,0.61092,0.44411,0.16638,7.8504,178.6,-0.19704,0.065682,-1.9007,-0.26273,1.5402e-08,-0.95035,0,0,0.16667,-0,-0,0.66667
0.18869,0.72992,1.1321,0.34488,15.806,145.26,-1.0412,0.34706,-1.5778,-1.3882,-6.8087e-10,-0.78889,0,0,0.16667,-0,-0,0.66667
0.31405,0.81501,1.8843,0.47252,20.278,110.54,-2.3743,0.79144,-1.2077,-3.1658,4.4782e-12,-0.60384,0,0,0.16667,-0,-0,0.66667
0.33439,0.44806,2.0063,-0.077912,-3.2767,104.95,0.41685,-0.13895,-1.9772,0.5558,-1.8976e-12,-0.98858,0,0,0.16667,-0,-0,0.66667
0.4653,0.025686,2.7918,-0.71147,-26.715,72.836,5.2968,-1.7656,-0.20028,7.0624,-7.8604e-13,-0.10014,0,0,0.16667,3.9475e-16,1.1555e-16,0.66667
0.095259,0.88944,0.57155,0.58416,27.651,172.43,-0.89034,0.29678,-0.78707,-1.1871,-1.8799e-08,-0.39354,0,0,0.16667,1.9737e-16,0,0.66667
0.34423,0.71265,2.0654,0.31898,13.344,102.45,-1.7568,0.58561,-1.6399,-2.3424,4.3314e-12,-0.81995,0,0,0.16667,-0,-0,0.66667
0.073158,0.40136,0.43895,-0.14797,-6.9814,178.85,0.1732,-0.057733,-1.9218,0.23093,-5.2821e-08,-0.9609,0,0,0.16667,-0,-0,0.66667
0.32341,0.54665,1.9405,0.06998,2.9672,107.86,-0.36212,0.12071,-1.9815,-0.48283,8.0314e-13,-0.99075,0,0,0.16667,-3.9475e-16,0,0.66667
0.6615,0.7247,3.969,0.33706,8.9423,32.354,-3.5674,1.1891,-1.5955,-4.7566,-4.8186e-12,-0.79774,0,0,0.16667,-0,-0,0.66667
0.0029211,0.10146,0.017527,-0.59781,-28.568,199.64,0.02794,-0.0093126,-0.72935,0.037253,9.1865e-07,-0.36468,0,0,0.16667,-0,-0,0.66667
0.28436,0.25204,1.7062,-0.37194,-16.246,118.5,1.6923,-0.56409,-1.5089,2.2564,2.1738e-13,-0.75446,0,0,0.16667,-0,-0,0.66667
0.072846,0.45065,0.43708,-0.074032,-3.4919,178.94,0.086288,-0.028763,-1.9793,0.11505,-2.2783e-08,-0.98966,0,0,0.16667,-0,-0,0.66667
0.71076,0.6475,4.2646,0.22125,5.1371,24.322,-2.5161,0.8387,-1.8247,-3.3548,1.2497e-12,-0.91237,0,0,0.16667,7.8949e-16,0,0.66667
0.84127,0.39577,5.0476,-0.15634,-2.106,8.2765,2.1044,-0.70145,-1.9131,2.8058,-1.1484e-09,-0.95655,0,0,0.16667,-0,-0,0.66667
0.97833,0.89073,5.87,0.5861,1.0729,1.2146,-9.1744,3.0581,-0.77723,-12.233,-1.5069e-06,-0.38861,0,0,0.16667,1.579e-15,0,0.66667
0.61717,0.25578,3.703,-0.36634,-10.724,40.298,3.6174,-1.2058,-1.522,4.8233,2.4194e-12,-0.76099,0,0,0.16667,-1.579e-15,0,0.66667
0.2249,0.6899,1.3494,0.28486,12.839,134.96,-1.025,0.34168,-1.7113,-1.3667,-1.7966e-10,-0.85565,0,0,0.16667,-0,-0,0.66667
0.22831,0.26414,1.3699,-0.35379,-15.936,134.02,1.2924,-0.43079,-1.5536,1.7232,1.3129e-10,-0.77679,0,0,0.16667,-0,-0,0.66667
0.49353,0.036673,2.9612,-0.69499,-25.177,66.345,5.4879,-1.8293,-0.28189,7.3173,-1.1511e-12,-0.14095,0,0,0.16667,-0,-0,0.66667
0.93135,0.709,5.5881,0.31351,1.8444,2.154,-4.6717,1.5572,-1.6494,-6.229,-3.953e-09,-0.82468,0,0,0.16667,7.8949e-16,0,0.66667
0.62806,0.62162,3.7683,0.18244,5.2026,38.12,-1.8333,0.61109,-1.8823,-2.4444,-2.3064e-12,-0.94113,0,0,0.16667,7.8949e-16,0,0.66667
0.1814,0.49029,1.0884,-0.01456,-0.66738,147.29,0.042259,-0.014086,-1.9981,0.056345,-2.5834e-10,-0.99904,0,0,0.16667,-0,-0,0.66667
0.51601,0.12173,3.0961,-0.5674,-19.842,61.136,4.6846,-1.5615,-0.85747,6.2461,-3.8591e-13,-0.42874,0,0,0.16667,-1.9737e-16,0,0.66667
0.40912,0.8039,2.4547,0.45585,18.051,85.996,-2.984,0.99466,-1.2611,-3.9787,1.884e-12,-0.63056,0,0,0.16667,-0,-0,0.66667
0.86907,0.3015,5.2144,-0.29776,-3.3513,6.0401,4.1403,-1.3801,-1.6835,5.5205,-3.9782e-09,-0.84177,0,0,0.16667,-0,-0,0.66667
0.10442,0.9808,0.62649,0.7212,34.208,169.79,-1.2049,0.40162,-0.14959,-1.6065,-6.8018e-08,-0.074797,0,0,0.16667,-1.9737e-16,0,0.66667
0.21763,0.476,1.3058,-0.035993,-1.6249,136.96,0.12533,-0.041777,-1.9965,0.16711,6.8687e-11,-0.99824,0,0,0.16667,-0,-0,0.66667
0.75933,0.064672,4.556,-0.65299,-13.179,18.253,7.9334,-2.6445,-0.48375,10.578,-9.4946e-13,-0.24188,0,0,0.16667,-0,-0,0.66667
0.97325,0.54082,5.8395,0.061235,0.11968,0.44142,-0.95355,0.31785,-1.9859,-1.2714,1.4108e-06,-0.99295,0,0,0.16667,-0,-0,0.66667
0.80883,0.11109,4.853,-0.58336,-9.5482,12.213,7.5495,-2.5165,-0.7893,10.066,-2.5363e-10,-0.39465,0,0,0.16667,6.2114e-16,0,0.66667
0.57043,0.53734,3.4226,0.056008,1.7811,49.19,-0.51118,0.17039,-1.9879,-0.68157,-4.3632e-13,-0.99397,0,0,0.16667,-0,-0,0.66667
0.80961,0.67375,4.8576,0.26062,4.1764,11.542,-3.376,1.1253,-1.7581,-4.5013,6.1815e-10,-0.87907,0,0,0.16667,-0,-0,0.66667
0.37864,0.82315,2.2718,0.48473,19.767,93.682,-2.9366,0.97887,-1.164,-3.9155,1.3376e-12,-0.58202,0,0,0.16667,-0,-0,0.66667
0.23981,0.65583,1.4388,0.23375,10.452,130.76,-0.89688,0.29896,-1.8061,-1.1958,-9.2128e-11,-0.90304,0,0,0.16667,5.5511e-16,0,0.66667
0.44234,0.028268,2.654,-0.7076,-27.274,78.247,5.0079,-1.6693,-0.21975,6.6772,-9.9565e-13,-0.10988,0,0,0.16667,3.9475e-16,0,0.66667
0.29305,0.53837,1.7583,0.05755,2.4918,116.03,-0.26984,0.089946,-1.9879,-0.35978,-1.1837e-12,-0.99397,0,0,0.16667,-0,-0,0.66667
0.64436,0.15151,3.8662,-0.52273,-14.516,35.601,5.3892,-1.7964,-1.0285,7.1856,1.3607e-12,-0.51427,0,0,0.16667,1.1842e-15,0,0.66667
0.91612,0.28807,5.4967,-0.3179,-2.3003,2.9293,4.6598,-1.5533,-1.6399,6.2131,-3.5621e-09,-0.81994,0,0,0.16667,-0,-0,0.66667
0.6714,0.85817,4.0284,0.53725,14.011,31.002,-5.7713,1.9238,-0.97478,-7.6951,-3.0838e-12,-0.48739,0,0,0.16667,-0,-0,0.66667
0.78373,0.73189,4.7024,0.34784,6.2816,14.59,-4.3618,1.4539,-1.5697,-5.8157,2.4082e-10,-0.78483,0,0,0.16667,-0,-0,0.66667
0.9199,0.35328,5.5194,-0.22009,-1.5072,2.598,3.2393,-1.0798,-1.8281,4.3191,4.7947e-09,-0.91406,0,0,0.16667,-0,-0,0.66667
0.73198,0.51299,4.3919,0.019487,0.42284,21.119,-0.22822,0.076074,-1.9986,-0.3043,2.8475e-12,-0.99928,0,0,0.16667,-0,-0,0.66667
0.45633,0.46793,2.738,-0.048108,-1.8004,74.322,0.35125,-0.11708,-1.9928,0.46834,1.2273e-12,-0.99639,0,0,0.16667,-1.0856e-15,0,0.66667
0.7422,0.56875,4.4532,0.10312,2.1642,19.709,-1.2246,0.40821,-1.9613,-1.6328,2.2585e-11,-0.98063,0,0,0.16667,-0,-0,0.66667
0.99059,0.28398,5.9435,-0.32403,-0.13764,0.38277,5.1358,-1.7119,-1.6264,6.8477,-6.2027e-08,-0.81321,0,0,0.16667,-0,-0,0.66667
0.67386,0.21786,4.0431,-0.42322,-10.922,30.398,4.563,-1.521,-1.3648,6.084,4.345e-12,-0.68238,0,0,0.16667,1.0856e-15,0,0.66667
0.72714,0.38533,4.3628,-0.17201,-3.796,21.869,2.0012,-0.66707,-1.8935,2.6683,-1.1708e-11,-0.94673,0,0,0.16667,-0,-0,0.66667
0.13533,0.76684,0.81199,0.40027,18.694,160.67,-0.8667,0.2889,-1.4291,-1.1556,-4.2819e-09,-0.71456,0,0,0.16667,1.9737e-16,0,0.66667
0.81734,0.63433,4.9041,0.20149,3.1014,10.665,-2.635,0.87834,-1.8548,-3.5134,5.744e-10,-0.9274,0,0,0.16667,-0,-0,0.66667
0.92918,0.5976,5.5751,0.14641,0.87799,2.0655,-2.1766,0.72553,-1.9232,-2.9021,-5.2887e-08,-0.96161,0,0,0.16667,-0,-0,0.66667
0.082941,0.033855,0.49764,-0.69922,-33.278,176.07,0.9279,-0.3093,-0.26174,1.2372,-8.1133e-08,-0.13087,0,0,0.16667,1.9737e-16,0,0.66667
0.92221,0.87325,5.5333,0.55988,3.8737,3.1295,-8.2612,2.7537,-0.88795,-11.015,-3.1626e-08,-0.44398,0,0,0.16667,-1.7764e-15,0,0.66667
0.76001,0.14426,4.5601,-0.53361,-10.665,17.877,6.4888,-2.1629,-0.98638,8.6517,-2.9275e-11,-0.49319,0,0,0.16667,-1.6895e-15,0,0.66667
0.25267,0.75756,1.516,0.38634,17.195,127.23,-1.5619,0.52063,-1.4695,-2.0825,-3.9288e-11,-0.73474,0,0,0.16667,-0,-0,0.66667
0.03478,0.67228,0.20868,0.25841,12.256,190.2,-0.1438,0.047934,-1.7619,-0.19174,2.918e-08,-0.88095,0,0,0.16667,-0,-0,0.66667
0.59333,0.70625,3.56,0.30937,9.4724,44.781,-2.937,0.97899,-1.6608,-3.916,-1.5061e-12,-0.83042,0,0,0.16667,8.6848e-17,0,0.66667
0.14,0.62224,0.83998,0.18336,8.5282,159.27,-0.41072,0.13691,-1.8825,-0.54762,-3.401e-09,-0.94127,0,0,0.16667,-4.9343e-17,0,0.66667
0.88064,0.77223,5.2838,0.40835,4.2323,5.3461,-5.7537,1.9179,-1.4061,-7.6716,4.8792e-09,-0.70305,0,0,0.16667,-0,-0,0.66667
0.64348,0.1922,3.8609,-0.4617,-12.818,35.652,4.7535,-1.5845,-1.2426,6.338,2.8959e-12,-0.62128,0,0,0.16667,-0,-0,0.66667
0.041189,0.84822,0.24714,0.52233,24.872,188.32,-0.34423,0.11474,-1.0295,-0.45897,-8.0648e-08,-0.51475,0,0,0.16667,-0,-0,0.66667
0.19441,0.39428,1.1665,-0.15858,-7.2358,143.58,0.49328,-0.16443,-1.9092,0.6577,3.6111e-10,-0.95459,0,0,0.16667,1.9737e-16,0,0.66667
0.62451,0.53799,3.7471,0.056992,1.6356,38.72,-0.56948,0.18983,-1.99,-0.7593,-1.1734e-12,-0.99502,0,0,0.16667,-0,-0,0.66667
0.52665,0.45775,3.1599,-0.063379,-2.1617,58.376,0.53406,-0.17802,-1.9848,0.71208,3.6038e-13,-0.99241,0,0,0.16667,-7.8949e-16,0,0.66667
0.29026,0.019888,1.7415,-0.72017,-31.623,117.19,3.3445,-1.1148,-0.15459,4.4594,-2.2551e-12,-0.077296,0,0,0.16667,-0,-0,0.66667
0.39512,0.075653,2.3707,-0.63652,-25.679,89.696,4.024,-1.3413,-0.55846,5.3653,-9.5479e-13,-0.27923,0,0,0.16667,-0,-0,0.66667
0.24657,0.21184,1.4794,-0.43224,-19.318,128.95,1.7052,-0.5684,-1.3356,2.2736,3.486e-11,-0.66781,0,0,0.16667,3.9475e-16,0,0.66667
0.99839,0.95592,5.9903,0.68388,0.03843,1.2596,-10.925,3.6415,-0.33745,-14.566,-1.7621e-05,-0.16873,0,0,0.16667,-0,-0,0.66667
0.88329,0.29313,5.2998,-0.3103,-3.1236,4.9888,4.3854,-1.4618,-1.6562,5.8471,-4.7196e-09,-0.82811,0,0,0.16667,1.579e-15,0,0.66667
0.74097,0.82559,4.4458,0.48839,10.408,20.328,-5.7901,1.93,-1.1505,-7.7201,1.1966e-11,-0.57525,0,0,0.16667,-0,-0,0.66667
0.24654,0.84546,1.4792,0.51818,23.203,129.02,-2.044,0.68134,-1.046,-2.7254,3.6888e-12,-0.523,0,0,0.16667,-0,-0,0.66667
0.088881,0.35991,0.53329,-0.21013,-9.8936,174.22,0.29883,-0.099609,-1.8419,0.39844,-4.3998e-09,-0.92094,0,0,0.16667,-1.9737e-16,0,0.66667
0.096131,0.070874,0.57679,-0.64369,-30.513,172.19,0.99006,-0.33002,-0.52705,1.3201,3.2522e-08,-0.26352,0,0,0.16667,-1.9737e-16,0,0.66667
0.88147,0.090076,5.2888,-0.61489,-6.4642,5.7823,8.6721,-2.8907,-0.65524,11.563,2.5233e-08,-0.32762,0,0,0.16667,-1.579e-15,0,0.66667
0.22391,0.4644,1.3435,-0.053407,-2.404,135.19,0.19134,-0.063779,-1.9895,0.25511,4.643e-11,-0.99477,0,0,0.16667,-0,-0,0.66667
0.055036,0.94558,0.33021,0.66836,31.904,184.26,-0.58854,0.19618,-0.41056,-0.78472,5.0084e-07,-0.20528,0,0,0.16667,9.8686e-17,0,0.66667
0.60875,0.47549,3.6525,-0.036769,-1.0895,41.665,0.35813,-0.11938,-1.9967,0.4775,2.9407e-13,-0.99834,0,0,0.16667,-0,-0,0.66667
0.75404,0.80218,4.5242,0.45328,9.2188,18.498,-5.4686,1.8229,-1.2688,-7.2915,4.8756e-11,-0.63441,0,0,0.16667,-0,-0,0.66667
0.90554,0.18437,5.4332,-0.47345,-3.9245,3.8332,6.8596,-2.2865,-1.205,9.1461,-1.8859e-08,-0.60249,0,0,0.16667,3.9475e-16,-1.9808e-18,0.66667
0.48403,0.70618,2.9042,0.30927,11.217,67.996,-2.3951,0.79836,-1.6611,-3.1935,4.392e-13,-0.83056,0,0,0.16667,-0,-0,0.66667
0.71854,0.10451,4.3113,-0.59323,-13.644,23.741,6.8202,-2.2734,-0.75013,9.0936,1.8092e-12,-0.37506,0,0,0.16667,-0,-0,0.66667
0.046842,0.66656,0.28105,0.24983,11.836,186.63,-0.18724,0.062414,-1.7796,-0.24966,2.5106e-08,-0.88982,0,0,0.16667,-0,-0,0.66667
0.30454,0.83813,1.8272,0.50719,21.927,113.12,-2.4714,0.82379,-1.0845,-3.2952,5.1632e-12,-0.54225,0,0,0.16667,5.9212e-16,0,0.66667
0.087153,0.047862,0.52292,-0.67821,-32.235,174.83,0.94572,-0.31524,-0.3631,1.261,-8.3882e-08,-0.18155,0,0,0.16667,-4.5229e-18,0,0.66667
0.40034,0.78815,2.402,0.43223,17.253,88.159,-2.7686,0.92286,-1.3349,-3.6915,1.3238e-12,-0.66745,0,0,0.16667,-0,-0,0.66667
0.19936,0.032605,1.1961,-0.70109,-32.263,142.41,2.2363,-0.74542,-0.253,2.9817,-2.2337e-10,-0.1265,0,0,0.16667,-0,-0,0.66667
0.49854,0.11921,2.9912,-0.57118,-20.463,65.012,4.5561,-1.5187,-0.84108,6.0748,-4.4498e-13,-0.42054,0,0,0.16667,3.9475e-16,-2.5016e-16,0.66667
0.24179,0.37391,1.4507,-0.18913,-8.4443,130.19,0.73169,-0.2439,-1.8728,0.97558,6.6417e-11,-0.93638,0,0,0.16667,-1.4803e-16,0,0.66667
0.19127,0.6201,1.1476,0.18014,8.2316,144.48,-0.55131,0.18377,-1.8847,-0.73508,-4.9205e-10,-0.94233,0,0,0.16667,1.9737e-16,0,0.66667
0.60179,0.17706,3.6107,-0.48441,-14.667,43.369,4.6642,-1.5547,-1.1643,6.2189,1.1964e-12,-0.58216,0,0,0.16667,-0,-0,0.66667
0.48061,0.05945,2.8836,-0.66083,-24.307,69.217,5.0815,-1.6938,-0.44767,6.7754,-5.1115e-13,-0.22383,0,0,0.16667,7.8949e-16,0,0.66667
0.38153,0.7681,2.2892,0.40215,16.326,92.873,-2.4549,0.81829,-1.4236,-3.2732,2.5755e-12,-0.71178,0,0,0.16667,-0,-0,0.66667
0.41901,0.46244,2.5141,-0.056342,-2.1969,83.329,0.37772,-0.12591,-1.989,0.50363,-7.8945e-13,-0.99448,0,0,0.16667,-0,-0,0.66667
0.94696,0.10093,5.6817,-0.5986,-2.8405,2.1517,9.0696,-3.0232,-0.72504,12.093,2.0889e-07,-0.36252,0,0,0.16667,-0,-0,0.66667
0.61125,0.60044,3.6675,0.15066,4.4455,41.226,-1.4735,0.49116,-1.92,-1.9646,-1.1966e-12,-0.96,0,0,0.16667,-1.579e-15,0,0.66667
0.2018,0.14639,1.2108,-0.53041,-24.268,141.61,1.7126,-0.57086,-1.0004,2.2834,2.914e-10,-0.5002,0,0,0.16667,-1.9737e-16,0,0.66667
0.26679,0.73983,1.6007,0.35975,15.877,123.31,-1.5356,0.51187,-1.5406,-2.0475,-1.6292e-11,-0.77032,0,0,0.16667,-3.9475e-16,0,0.66667
0.29971,0.4323,1.7982,-0.10155,-4.3783,114.23,0.48695,-0.16232,-1.9637,0.64926,-2.5821e-13,-0.98187,0,0,0.16667,-0,-0,0.66667
0.71146,0.17728,4.2688,-0.48407,-11.309,24.568,5.5104,-1.8368,-1.1655,7.3472,3.3968e-12,-0.58275,0,0,0.16667,-7.8949e-16,0,0.66667
0.50952,0.084347,3.0571,-0.62348,-22.045,62.655,5.0828,-1.6943,-0.61672,6.777,4.5031e-13,-0.30836,0,0,0.16667,-3.9475e-16,0,0.66667
0.21262,0.44045,1.2757,-0.089324,-4.0424,138.39,0.30387,-0.10129,-1.9713,0.40516,7.9851e-11,-0.98567,0,0,0.16667,-7.8949e-16,0,0.66667
0.58056,0.6026,3.4834,0.15389,4.8112,47.185,-1.4295,0.47651,-1.916,-1.906,-8.8418e-13,-0.95798,0,0,0.16667,-0,-0,0.66667
0.87572,0.12346,5.2543,-0.5648,-6.1773,6.0653,7.9138,-2.6379,-0.86802,10.552,-1.6604e-08,-0.43401,0,0,0.16667,1.7764e-15,0,0.66667
0.12633,0.85927,0.75797,0.5389,25.302,163.33,-1.0893,0.36309,-0.96788,-1.4524,-3.0647e-09,-0.48394,0,0,0.16667,-0,-0,0.66667
0.99245,0.1879,5.9547,-0.46814,-0.17117,0.66052,7.4338,-2.4779,-1.2208,9.9117,-1.7152e-07,-0.61042,0,0,0.16667,3.158e-15,0,0.66667
0.57331,0.26331,3.4399,-0.35504,-11.28,48.796,3.2567,-1.0856,-1.5507,4.3423,6.1307e-13,-0.77537,0,0,0.16667,-0,-0,0.66667
0.075515,0.74022,0.45309,0.36033,17.035,178.18,-0.43536,0.14512,-1.5384,-0.58048,-4.8416e-09,-0.76918,0,0,0.16667,-9.8686e-17,0,0.66667
0.9247,0.52843,5.5482,0.04264,0.27184,2.2366,-0.63086,0.21029,-1.9943,-0.84115,-1.4455e-07,-0.99717,0,0,0.16667,1.579e-15,0,0.66667
0.6613,0.52629,3.9678,0.039431,1.042,32.19,-0.41721,0.13907,-1.9941,-0.55628,-1.0086e-12,-0.99704,0,0,0.16667,-0,-0,0.66667
0.25836,0.64804,1.5502,0.22205,9.8289,125.58,-0.91793,0.30598,-1.8235,-1.2239,-3.2024e-11,-0.91177,0,0,0.16667,-1.9737e-16,0,0.66667
0.011312,0.80925,0.067871,0.46387,22.096,197.15,-0.083955,0.027985,-1.235,-0.11194,-6.8692e-08,-0.61752,0,0,0.16667,1.8769e-17,0,0.66667
0.82783,0.24416,4.967,-0.38376,-5.6316,9.8356,5.083,-1.6943,-1.4782,6.7773,-1.1144e-09,-0.73911,0,0,0.16667,1.9737e-15,0,0.66667
0.19681,0.63224,1.1809,0.19836,9.045,142.9,-0.62464,0.20821,-1.8592,-0.83285,-5.1533e-10,-0.92958,0,0,0.16667,-0,-0,0.66667
0.91039,0.78621,5.4623,0.42932,3.3594,3.4526,-6.2536,2.0845,-1.3445,-8.3381,1.0817e-08,-0.67227,0,0,0.16667,-0,-0,0.66667
0.26207,0.64751,1.5724,0.22127,9.7737,124.56,-0.92779,0.30926,-1.8256,-1.2371,-2.4934e-11,-0.91279,0,0,0.16667,-1.9737e-16,0,0.66667
0.30754,0.49221,1.8452,-0.011683,-0.50091,112.11,0.057486,-0.019162,-1.9988,0.076648,7.2968e-13,-0.99939,0,0,0.16667,-3.9475e-16,0,0.66667
0.429,0.64334,2.574,0.21501,8.306,80.933,-1.4758,0.49195,-1.8342,-1.9678,1.0267e-12,-0.91708,0,0,0.16667,-7.8949e-16,0,0.66667
0.84952,0.52675,5.0971,0.04013,0.51277,7.4771,-0.54546,0.18182,-1.9938,-0.72728,1.9782e-09,-0.9969,0,0,0.16667,-1.579e-15,0,0.66667
0.37631,0.37417,2.2579,-0.18875,-7.6738,94.076,1.1364,-0.37881,-1.8753,1.5153,-1.7751e-12,-0.93767,0,0,0.16667,-4.9343e-17,0,0.66667
0.66908,0.8686,4.0145,0.5529,14.511,31.417,-5.919,1.973,-0.91333,-7.892,-2.7089e-12,-0.45667,0,0,0.16667,1.4307e-18,0,0.66667
0.73119,0.59031,4.3871,0.13547,2.9496,21.267,-1.5848,0.52827,-1.9353,-2.1131,1.2956e-11,-0.96764,0,0,0.16667,7.8949e-16,0,0.66667
0.89467,0.62265,5.368,0.18397,1.6615,4.0591,-2.6335,0.87784,-1.88,-3.5114,9.1614e-09,-0.94001,0,0,0.16667,-1.9737e-15,0,0.66667
0.93853,0.92277,5.6312,0.63416,3.522,2.5951,-9.5228,3.1743,-0.57077,-12.697,1.1435e-07,-0.28539,0,0,0.16667,-0,-0,0.66667
0.87235,0.034354,5.2341,-0.69847,-7.9589,6.713,9.749,-3.2497,-0.26622,12.999,5.8058e-09,-0.13311,0,0,0.16667,-0,-0,0.66667
0.45255,0.87015,2.7153,0.55523,21.046,75.589,-4.0203,1.3401,-0.90569,-5.3604,4.3521e-14,-0.45284,0,0,0.16667,-1.9737e-16,0,0.66667
0.55083,0.5097,3.305,0.014555,0.47818,53.223,-0.12828,0.042761,-1.9987,-0.17104,-4.4723e-13,-0.99933,0,0,0.16667,-0,-0,0.66667
0.57742,0.59246,3.4645,0.13869,4.3593,47.806,-1.2813,0.4271,-1.9339,-1.7084,-6.1673e-13,-0.96697,0,0,0.16667,-9.0139e-16,0,0.66667
0.48558,0.16027,2.9135,-0.5096,-18.533,67.853,3.9592,-1.3197,-1.0781,5.279,3.0154e-13,-0.53907,0,0,0.16667,-1.579e-15,0,0.66667
0.91406,0.59597,5.4843,0.14395,1.0558,2.8473,-2.1053,0.70177,-1.926,-2.8071,2.4924e-08,-0.96302,0,0,0.16667,-0,-0,0.66667
0.78635,0.18571,4.7181,-0.47144,-8.4703,14.493,5.9314,-1.9771,-1.2099,7.9085,-2.6109e-10,-0.60496,0,0,0.16667,3.9475e-16,0,0.66667
0.093327,0.43908,0.55996,-0.091375,-4.2953,172.91,0.13644,-0.045482,-1.9728,0.18193,-3.6644e-08,-0.98638,0,0,0.16667,3.9475e-16,0,0.66667
0.99093,0.33241,5.9456,-0.25138,-0.087658,0.26766,3.9856,-1.3285,-1.774,5.3142,-4.0215e-08,-0.88699,0,0,0.16667,-1.579e-15,0,0.66667
0.19126,0.7397,1.1476,0.35955,16.466,144.53,-1.1003,0.36677,-1.5398,-1.4671,-5.9686e-10,-0.76989,0,0,0.16667,-0,-0,0.66667
0.26939,0.24188,1.6163,-0.38717,-17.07,122.61,1.6688,-0.55627,-1.4666,2.2251,9.2623e-12,-0.73332,0,0,0.16667,-0,-0,0.66667
0.15118,0.96321,0.90711,0.69481,32.531,156.2,-1.6807,0.56024,-0.28302,-2.241,-2.5031e-09,-0.14151,0,0,0.16667,-0,-0,0.66667
0.26352,0.17172,1.5811,-0.49243,-21.832,124.29,2.0762,-0.69207,-1.1379,2.7683,7.2609e-12,-0.56893,0,0,0.16667,3.9475e-16,0,0.66667
0.37276,0.77219,2.2366,0.40828,16.707,95.114,-2.4351,0.8117,-1.4075,-3.2468,2.5113e-12,-0.70377,0,0,0.16667,-3.9475e-16,0,0.66667
0.97389,0.51343,5.8433,0.02015,0.038105,0.41767,-0.31398,0.10466,-1.9974,-0.41864,-3.3837e-06,-0.99869,0,0,0.16667,3.158e-15,0,0.66667
0.16693,0.92485,1.0016,0.63728,29.634,151.63,-1.7021,0.56736,-0.55492,-2.2694,6.0841e-11,-0.27746,0,0,0.16667,-1.9737e-16,0,0.66667
0.61018,0.0055709,3.6611,-0.74164,-22.335,42.285,7.2406,-2.4135,-0.045835,9.6542,-2.145e-13,-0.022918,0,0,0.16667,-0,-0,0.66667
0.44789,0.90494,2.6873,0.6074,23.185,76.768,-4.3528,1.4509,-0.68842,-5.8037,6.8967e-13,-0.34421,0,0,0.16667,-4.9343e-17,0,0.66667
0.58703,0.91303,3.5222,0.61954,19.375,46.467,-5.819,1.9397,-0.63433,-7.7586,-6.5725e-13,-0.31717,0,0,0.16667,-0,-0,0.66667
0.053649,0.45305,0.3219,-0.070432,-3.3303,184.61,0.060458,-0.020153,-1.9809,0.080611,1.118e-07,-0.99043,0,0,0.16667,-0,-0,0.66667
0.30933,0.17926,1.856,-0.48111,-20.719,111.82,2.3812,-0.79372,-1.1769,3.1749,-4.3707e-12,-0.58843,0,0,0.16667,-3.9475e-16,0,0.66667
0.090911,0.37388,0.54547,-0.18918,-8.9021,173.63,0.27517,-0.091725,-1.8739,0.3669,-1.3986e-08,-0.93693,0,0,0.16667,-2.8372e-16,0,0.66667
0.46345,0.02857,2.7807,-0.70715,-26.607,73.261,5.2436,-1.7479,-0.22196,6.9915,-2.4736e-13,-0.11098,0,0,0.16667,5.9212e-16,0,0.66667
0.89199,0.63494,5.3519,0.20241,1.876,4.2546,-2.8888,0.96293,-1.855,-3.8517,5.6118e-09,-0.9275,0,0,0.16667,1.579e-15,0,0.66667
0.82138,0.32526,4.9283,-0.2621,-3.9587,10.31,3.4446,-1.1482,-1.7543,4.5928,-9.6165e-10,-0.87715,0,0,0.16667,-1.579e-15,0,0.66667
0.87215,0.678,5.2329,0.267,2.9314,5.7591,-3.7258,1.2419,-1.7464,-4.9678,3.3428e-09,-0.87322,0,0,0.16667,7.8949e-16,0,0.66667
0.3996,0.87241,2.3976,0.55862,22.387,88.478,-3.5715,1.1905,-0.89019,-4.7621,1.2021e-12,-0.44509,0,0,0.16667,9.8686e-16,0,0.66667
0.50934,0.78161,3.056,0.42241,14.847,62.409,-3.4424,1.1475,-1.3658,-4.5899,4.7518e-14,-0.68289,0,0,0.16667,-1.579e-15,0,0.66667
0.25721,0.7528,1.5432,0.3792,16.833,125.97,-1.5605,0.52018,-1.4884,-2.0807,-2.8157e-11,-0.74418,0,0,0.16667,-0,-0,0.66667
0.60699,0.23631,3.6419,-0.39554,-11.824,42.25,3.8414,-1.2805,-1.4436,5.1218,1.2619e-12,-0.72182,0,0,0.16667,7.8949e-16,0,0.66667
0.44631,0.86443,2.6779,0.54665,20.863,77.059,-3.9036,1.3012,-0.93618,-5.2048,2.1605e-13,-0.46809,0,0,0.16667,3.9475e-16,0,0.66667
0.49641,0.1338,2.9784,-0.5493,-19.721,65.458,4.3628,-1.4543,-0.9268,5.8171,-4.9649e-13,-0.4634,0,0,0.16667,-0,-0,0.66667
0.54096,0.077607,3.2458,-0.63359,-21.407,55.881,5.484,-1.828,-0.5713,7.312,-5.0893e-13,-0.28565,0,0,0.16667,-0,-0,0.66667
0.58046,0.78111,3.4828,0.42167,13.252,47.444,-3.9162,1.3054,-1.3694,-5.2216,-7.2498e-13,-0.68469,0,0,0.16667,-3.0223e-16,0,0.66667
0.46466,0.17761,2.788,-0.48359,-18.036,72.649,3.5953,-1.1984,-1.1679,4.7937,-7.061e-13,-0.58393,0,0,0.16667,-3.9475e-16,0,0.66667
0.79849,0.22844,4.7909,-0.40735,-6.9187,12.976,5.2042,-1.7347,-1.4106,6.9389,-4.1604e-10,-0.70528,0,0,0.16667,-0,-0,0.66667
0.40923,0.14912,2.4554,-0.52633,-20.877,86.044,3.4463,-1.1488,-1.0151,4.595,-1.6427e-12,-0.50756,0,0,0.16667,3.9475e-16,0,0.66667
0.043632,0.37543,0.26179,-0.18685,-8.8494,187.58,0.13044,-0.04348,-1.8769,0.17392,4.1304e-08,-0.93847,0,0,0.16667,1.9737e-16,0,0.66667
0.83341,0.74806,5.0005,0.3721,5.2915,9.2723,-4.9618,1.6539,-1.5078,-6.6157,1.2857e-09,-0.75389,0,0,0.16667,2.3685e-15,0,0.66667
0.48479,0.98389,2.9087,0.72583,26.625,68.378,-5.63,1.8767,-0.1279,-7.5067,-1.0956e-12,-0.06395,0,0,0.16667,7.8949e-16,0,0.66667
0.47847,0.9387,2.8708,0.65805,24.267,69.701,-5.0377,1.6792,-0.46044,-6.717,7.0788e-13,-0.23022,0,0,0.16667,-1.579e-15,0,0.66667
0.17683,0.54051,1.061,0.060764,2.7903,148.6,-0.17192,0.057308,-1.986,-0.22923,-3.8369e-10,-0.993,0,0,0.16667,-0,-0,0.66667
0.443,0.81566,2.658,0.47349,18.101,77.761,-3.3561,1.1187,-1.2027,-4.4748,5.6488e-13,-0.60134,0,0,0.16667,-0,-0,0.66667
0.14347,0.67351,0.86083,0.26027,12.102,158.27,-0.59746,0.19915,-1.7588,-0.79662,-2.6244e-09,-0.8794,0,0,0.16667,1.9737e-16,0,0.66667
0.041238,0.90283,0.24743,0.60425,28.831,188.32,-0.39869,0.13289,-0.70153,-0.53158,-1.1827e-06,-0.35077,0,0,0.16667,4.9343e-17,0,0.66667
0.96316,0.75195,5.779,0.37792,1.1474,1.066,-5.824,1.9413,-1.4922,-7.7654,-6.494e-08,-0.74609,0,0,0.16667,-0,-0,0.66667
0.26195,0.74864,1.5717,0.37295,16.51,124.65,-1.5631,0.52104,-1.5061,-2.0842,-1.9832e-11,-0.75307,0,0,0.16667,5.9212e-16,0,0.66667
0.1361,0.86276,0.81659,0.54413,25.484,160.5,-1.1849,0.39497,-0.94632,-1.5799,1.773e-09,-0.47316,0,0,0.16667,-1.9737e-16,0,0.66667
0.68806,0.48984,4.1283,-0.015242,-0.37636,27.763,0.1678,-0.055933,-2.0004,0.22373,1.0464e-12,-1.0002,0,0,0.16667,-2.3685e-15,0,0.66667
0.37393,0.092253,2.2436,-0.61162,-25.133,95.022,3.6593,-1.2198,-0.67197,4.879,-8.5154e-13,-0.33599,0,0,0.16667,-9.8686e-16,0,0.66667
0.62308,0.2787,3.7385,-0.33195,-9.5921,39.162,3.3093,-1.1031,-1.6095,4.4125,2.3364e-12,-0.80476,0,0,0.16667,3.9475e-16,0,0.66667
0.70645,0.33904,4.2387,-0.24144,-5.679,24.995,2.729,-0.90966,-1.793,3.6386,6.7768e-13,-0.8965,0,0,0.16667,-1.1842e-15,0,0.66667
0.66211,0.47136,3.9727,-0.042962,-1.1332,32.053,0.45513,-0.15171,-1.9933,0.60684,6.8826e-13,-0.99663,0,0,0.16667,-0,-0,0.66667
0.22691,0.73541,1.3615,0.35312,15.917,134.42,-1.282,0.42735,-1.5551,-1.7094,-1.4257e-10,-0.77756,0,0,0.16667,-0,-0,0.66667
0.78337,0.81728,4.7002,0.47591,8.6593,14.854,-5.9651,1.9884,-1.1955,-7.9534,2.0847e-10,-0.59776,0,0,0.16667,-0,-0,0.66667
0.07097,0.90321,0.42582,0.60482,28.762,179.56,-0.68679,0.22893,-0.69893,-0.91571,-2.8807e-07,-0.34946,0,0,0.16667,-4.9343e-17,0,0.66667
0.78814,0.58143,4.7289,0.12214,2.1517,13.846,-1.5403,0.51342,-1.9455,-2.0537,1.8548e-10,-0.97276,0,0,0.16667,-0,-0,0.66667
0.16235,0.17138,0.97407,-0.49294,-22.874,152.88,1.2804,-0.4268,-1.1346,1.7072,1.5791e-09,-0.56732,0,0,0.16667,-0,-0,0.66667
0.40501,0.55042,2.4301,0.075625,2.9909,86.799,-0.49006,0.16335,-1.9803,-0.65342,3.0678e-13,-0.99014,0,0,0.16667,-0,-0,0.66667
0.0061978,0.37221,0.037187,-0.19169,-9.0961,198.66,0.019009,-0.0063362,-1.8691,0.025345,-3.4104e-08,-0.93454,0,0,0.16667,-4.333e-18,0,0.66667
0.16285,0.26133,0.97711,-0.358,-16.567,152.68,0.93283,-0.31094,-1.5429,1.2438,1.5314e-09,-0.77147,0,0,0.16667,-0,-0,0.66667
0.67786,0.57348,4.0672,0.11022,2.7967,29.438,-1.1954,0.39847,-1.9556,-1.5939,-2.4155e-12,-0.97779,0,0,0.16667,-0,-0,0.66667
0.75014,0.64889,4.5009,0.22334,4.569,18.705,-2.6806,0.89352,-1.8244,-3.5741,5.5719e-11,-0.9122,0,0,0.16667,7.8949e-16,0,0.66667
0.91019,0.70456,5.4612,0.30684,2.3776,3.2452,-4.4686,1.4895,-1.6644,-5.9581,4.0168e-09,-0.83221,0,0,0.16667,-1.579e-15,0,0.66667
0.42023,0.48293,2.5214,-0.025606,-0.99712,83.028,0.17216,-0.057388,-1.998,0.22955,2.2268e-13,-0.99898,0,0,0.16667,-0,-0,0.66667
0.61033,0.52186,3.662,0.032795,0.96871,41.365,-0.32026,0.10675,-1.9972,-0.42701,-8.4885e-13,-0.99858,0,0,0.16667,-0,-0,0.66667
0.49204,0.39577,2.9523,-0.15634,-5.6004,66.077,1.2309,-0.41028,-1.9117,1.6411,3.7492e-13,-0.95586,0,0,0.16667,-0,-0,0.66667
0.025408,0.65798,0.15245,0.23697,11.243,192.97,-0.096338,0.032113,-1.8003,-0.12845,-1.6784e-08,-0.90016,0,0,0.16667,-0,-0,0.66667
0.44827,0.95793,2.6896,0.6869,26.281,76.798,-4.9267,1.6422,-0.32141,-6.569,-6.1195e-13,-0.16071,0,0,0.16667,-0,-8.4386e-17,0.66667
0.68945,0.66929,4.1367,0.25393,6.2638,27.658,-2.8012,0.93373,-1.7709,-3.7349,-3.9884e-12,-0.88544,0,0,0.16667,-0,-0,0.66667
0.67687,0.89353,4.0612,0.59029,15.221,30.207,-6.3928,2.1309,-0.75999,-8.5238,-2.5979e-12,-0.37999,0,0,0.16667,-0,-0,0.66667
0.29344,0.72719,1.7606,0.34079,14.792,116.01,-1.6,0.53333,-1.5868,-2.1333,9.4091e-13,-0.7934,0,0,0.16667,-0,-0,0.66667
0.87748,0.2359,5.2649,-0.39615,-4.2076,5.5556,5.5618,-1.8539,-1.4418,7.4158,-5.2676e-09,-0.72092,0,0,0.16667,-0,-0,0.66667
0.77122,0.94106,4.6273,0.66159,12.782,16.769,-8.1637,2.7212,-0.44345,-10.885,1.1976e-11,-0.22173,0,0,0.16667,-3.158e-15,0,0.66667
0.85372,0.43231,5.1223,-0.10153,-1.2634,7.1288,1.3869,-0.46229,-1.9628,1.8492,-7.173e-11,-0.98139,0,0,0.16667,3.9475e-16,0,0.66667
0.93715,0.13402,5.6229,-0.54897,-3.0594,2.4011,8.2315,-2.7438,-0.92989,10.975,-8.8476e-08,-0.46495,0,0,0.16667,-0,-1.7852e-16,0.66667
0.235,0.6695,1.41,0.25426,11.399,132.11,-0.95602,0.31867,-1.7711,-1.2747,-1.1221e-10,-0.88556,0,0,0.16667,-3.9475e-16,0,0.66667
0.71728,0.81253,4.3037,0.4688,10.758,23.673,-5.3802,1.7934,-1.2207,-7.1736,-2.0428e-14,-0.61034,0,0,0.16667,-0,-0,0.66667
0.043952,0.86911,0.26371,0.55367,26.378,187.51,-0.38936,0.12979,-0.91031,-0.51915,2.8759e-08,-0.45515,0,0,0.16667,4.9343e-17,0,0.66667
0.30362,0.79505,1.8217,0.44257,19.117,113.32,-2.15,0.71667,-1.3021,-2.8667,3.8571e-12,-0.65106,0,0,0.16667,-0,-0,0.66667
0.48305,0.92466,2.8983,0.63698,23.337,68.619,-4.9231,1.641,-0.55787,-6.5641,9.5479e-14,-0.27893,0,0,0.16667,-1.3615e-15,0,0.66667
0.36442,0.80167,2.1865,0.4525,18.668,97.294,-2.6384,0.87948,-1.2709,-3.5179,3.0063e-12,-0.63547,0,0,0.16667,-3.9475e-16,0,0.66667
0.19847,0.22597,1.1908,-0.41105,-18.785,142.49,1.3053,-0.4351,-1.3987,1.7404,4.9036e-10,-0.69934,0,0,0.16667,-0,-0,0.66667
0.69868,0.42282,4.1921,-0.11577,-2.7784,26.108,1.2942,-0.4314,-1.9513,1.7256,2.7101e-13,-0.97567,0,0,0.16667,7.8949e-16,0,0.66667
0.9253,0.78752,5.5518,0.43128,2.8088,2.6608,-6.3851,2.1284,-1.3386,-8.5134,2.1556e-08,-0.66932,0,0,0.16667,-0,-0,0.66667
0.099858,0.00096794,0.59915,-0.74855,-35.57,171.14,1.196,-0.39866,-0.007833,1.5946,-5.1847e-08,-0.0039165,0,0,0.16667,-0,-0,0.66667
0.23014,0.6117,1.3808,0.16755,7.5235,133.45,-0.61694,0.20565,-1.8993,-0.82259,-1.1338e-10,-0.94965,0,0,0.16667,-0,-0,0.66667
0.28485,0.40123,1.7091,-0.14815,-6.4511,118.28,0.67519,-0.22506,-1.9221,0.90026,3.4008e-12,-0.96103,0,0,0.16667,5.9212e-16,0,0.66667
0.66797,0.87084,4.0078,0.55626,14.641,31.609,-5.9451,1.9817,-0.89992,-7.9268,-2.796e-12,-0.44996,0,0,0.16667,1.1842e-15,0,0.66667
0.38662,0.087595,2.3197,-0.61861,-25.139,91.81,3.8266,-1.2755,-0.63916,5.1022,-9.9032e-14,-0.31958,0,0,0.16667,-1.9737e-16,-7.6557e-18,0.66667
0.7656,0.041936,4.5936,-0.6871,-13.585,17.544,8.4166,-2.8055,-0.32296,11.222,-7.689e-12,-0.16148,0,0,0.16667,1.579e-15,0,0.66667
0.095646,0.59141,0.57388,0.13712,6.444,172.23,-0.20983,0.069945,-1.9345,-0.27978,-8.1738e-09,-0.96726,0,0,0.16667,2.2204e-16,0,0.66667
0.46018,0.46724,2.7611,-0.049146,-1.8309,73.415,0.36186,-0.12062,-1.9913,0.48248,3.022e-13,-0.99564,0,0,0.16667,3.9475e-16,0,0.66667
0.29262,0.89562,1.7557,0.59343,25.916,116.42,-2.7784,0.92612,-0.7471,-3.7045,2.2409e-12,-0.37355,0,0,0.16667,3.9475e-16,0,0.66667
0.51342,0.20598,3.0805,-0.44103,-15.421,61.531,3.6229,-1.2076,-1.3084,4.8306,3.4195e-14,-0.65421,0,0,0.16667,-6.0801e-16,0,0.66667
0.13575,0.89206,0.81447,0.58809,27.576,160.62,-1.2773,0.42576,-0.7692,-1.703,-8.1455e-09,-0.3846,0,0,0.16667,-0,-0,0.66667
0.446,0.69126,2.676,0.28688,10.888,76.876,-2.0472,0.6824,-1.7068,-2.7296,1.2412e-13,-0.85341,0,0,0.16667,-0,-0,0.66667
0.51639,0.36523,3.0983,-0.20216,-7.0068,60.666,1.6703,-0.55677,-1.8558,2.2271,1.6653e-14,-0.92788,0,0,0.16667,3.9475e-16,0,0.66667
0.34421,0.82876,2.0652,0.49314,20.703,102.58,-2.7159,0.90529,-1.1364,-3.6212,3.2854e-12,-0.5682,0,0,0.16667,-0,-0,0.66667
0.55465,0.76869,3.3279,0.40304,13.227,52.667,-3.5768,1.1923,-1.4209,-4.769,-4.9893e-13,-0.71047,0,0,0.16667,-0,-0,0.66667
0.71429,0.66933,4.2857,0.25399,5.8401,23.822,-2.9027,0.96758,-1.7697,-3.8703,2.6246e-12,-0.88483,0,0,0.16667,-0,-0,0.66667
0.66388,0.75389,3.9833,0.38083,10.058,32.006,-4.0452,1.3484,-1.4837,-5.3937,-5.2829e-12,-0.74187,0,0,0.16667,1.579e-15,0,0.66667
0.35567,0.59937,2.134,0.14906,6.1663,99.384,-0.84827,0.28276,-1.921,-1.131,2.3676e-12,-0.96048,0,0,0.16667,-0,-0,0.66667
0.076579,0.96099,0.45947,0.69149,32.936,177.94,-0.84726,0.28242,-0.30065,-1.1297,-8.229e-07,-0.15033,0,0,0.16667,4.9343e-17,0,0.66667
0.83367,0.51761,5.002,0.026408,0.37121,8.9411,-0.35225,0.11742,-1.9962,-0.46966,3.2173e-10,-0.99812,0,0,0.16667,-0,-0,0.66667
0.92624,0.11474,5.5575,-0.57789,-3.8039,2.9799,8.5643,-2.8548,-0.81182,11.419,-5.2258e-08,-0.40591,0,0,0.16667,-0,-0,0.66667
0.23416,0.23332,1.405,-0.40003,-17.981,132.4,1.4987,-0.49958,-1.4323,1.9983,9.5404e-11,-0.71614,0,0,0.16667,-3.9475e-16,0,0.66667
0.0015237,0.90798,0.0091424,0.61196,29.255,200.05,-0.014916,0.0049727,-0.67016,-0.019888,8.7084e-07,-0.33508,0,0,0.16667,-0,-0,0.66667
0.47964,0.20775,2.8778,-0.43837,-16.033,69.126,3.3641,-1.1214,-1.3158,4.4855,-1.2879e-14,-0.6579,0,0,0.16667,-0,-0,0.66667
0.61534,0.84279,3.6921,0.51418,15.177,40.853,-5.0624,1.6875,-1.0601,-6.7498,-1.6445e-12,-0.53004,0,0,0.16667,-1.4803e-16,0,0.66667
0.65285,0.19172,3.9171,-0.46241,-12.569,34.015,4.8302,-1.6101,-1.24,6.4402,3.292e-12,-0.62001,0,0,0.16667,-0,-0,0.66667
0.60356,0.52104,3.6214,0.031566,0.94484,42.653,-0.30483,0.10161,-1.9953,-0.40644,-4.4195e-13,-0.99765,0,0,0.16667,-0,-0,0.66667
0.67867,0.19472,4.072,-0.45792,-11.689,29.663,4.9724,-1.6575,-1.2534,6.6298,4.4738e-12,-0.62672,0,0,0.16667,1.579e-15,0,0.66667
0.73325,0.6589,4.3995,0.23835,5.1647,21.05,-2.7963,0.9321,-1.7998,-3.7284,2.0262e-11,-0.89989,0,0,0.16667,-3.158e-15,0,0.66667
0.84341,0.81726,5.0605,0.47589,6.4279,8.5336,-6.4219,2.1406,-1.1967,-8.5626,2.23e-09,-0.59836,0,0,0.16667,3.158e-15,0,0.66667
0.57512,0.82441,3.4507,0.48662,15.467,48.602,-4.4778,1.4926,-1.1577,-5.9705,-5.782e-13,-0.57885,0,0,0.16667,-0,-0,0.66667
0.033325,0.7909,0.19995,0.43635,20.753,190.64,-0.23266,0.077554,-1.3233,-0.31022,1.1769e-07,-0.66166,0,0,0.16667,-9.8686e-17,0,0.66667
0.93264,0.028532,5.5958,-0.7072,-4.3736,3.094,10.553,-3.5177,-0.22178,14.071,-2.9766e-07,-0.11089,0,0,0.16667,-1.579e-15,2.2723e-16,0.66667
0.41723,0.58885,2.5034,0.13327,5.2081,83.784,-0.88966,0.29655,-1.9366,-1.1862,1.5514e-12,-0.9683,0,0,0.16667,-9.8686e-16,0,0.66667
0.46721,0.33871,2.8033,-0.24194,-8.9517,71.836,1.8086,-0.60286,-1.793,2.4115,-8.6708e-13,-0.8965,0,0,0.16667,9.8686e-16,0,0.66667
0.61906,0.97474,3.7144,0.7121,21.041,40.561,-7.0534,2.3511,-0.19628,-9.4045,-5.5733e-13,-0.098138,0,0,0.16667,1.579e-15,0,0.66667
0.27646,0.49105,1.6587,-0.013427,-0.58741,120.56,0.059393,-0.019798,-1.9986,0.079191,-2.2123e-12,-0.99928,0,0,0.16667,3.9475e-16,0,0.66667
0.90942,0.73548,5.4565,0.35323,2.772,3.364,-5.1397,1.7132,-1.5559,-6.8529,8.6057e-09,-0.77794,0,0,0.16667,1.579e-15,0,0.66667
0.6579,0.68892,3.9474,0.28338,7.573,32.91,-2.983,0.99434,-1.7162,-3.9773,-3.948e-12,-0.85808,0,0,0.16667,-1.579e-15,0,0.66667
0.13349,0.75606,0.80094,0.38408,17.942,161.2,-0.82034,0.27345,-1.4746,-1.0938,-3.9862e-09,-0.7373,0,0,0.16667,-0,-0,0.66667
0.37351,0.26203,2.2411,-0.35696,-14.583,94.883,2.1333,-0.71109,-1.5474,2.8443,-2.6903e-12,-0.77371,0,0,0.16667,-0,-0,0.66667
0.21324,0.5171,1.2795,0.025649,1.1602,138.2,-0.087512,0.029171,-1.9964,-0.11668,-2.6107e-11,-0.99819,0,0,0.16667,-5.0506e-16,0,0.66667
0.44333,0.22543,2.66,-0.41186,-15.716,77.619,2.9214,-0.9738,-1.3961,3.8952,-4.9516e-13,-0.69804,0,0,0.16667,-0,-0,0.66667
0.20627,0.73535,1.2376,0.35302,16.064,140.25,-1.1651,0.38837,-1.5564,-1.5535,-3.593e-10,-0.7782,0,0,0.16667,-0,-0,0.66667
0.097915,0.20319,0.58749,-0.44521,-20.997,171.61,0.69749,-0.2325,-1.2943,0.92998,1.04e-08,-0.64716,0,0,0.16667,-1.9737e-16,0,0.66667
0.32046,0.4094,1.9228,-0.13589,-5.7764,108.66,0.69678,-0.23226,-1.9339,0.92904,-2.6114e-12,-0.96694,0,0,0.16667,-0,-0,0.66667
0.13448,0.34687,0.8069,-0.22969,-10.704,160.88,0.49424,-0.16475,-1.8121,0.65899,1.8762e-09,-0.90605,0,0,0.16667,-3.9475e-16,0,0.66667
0.035025,0.019489,0.21015,-0.72077,-34.522,190.17,0.40392,-0.13464,-0.15222,0.53856,8.1617e-07,-0.07611,0,0,0.16667,-0,-0,0.66667
0.49839,0.64258,2.9904,0.21388,7.6014,64.672,-1.7055,0.5685,-1.8377,-2.274,9.2149e-15,-0.91884,0,0,0.16667,-7.8949e-16,0,0.66667
0.60463,0.69489,3.6278,0.29233,8.7575,42.584,-2.828,0.94268,-1.6955,-3.7707,-1.9007e-12,-0.84777,0,0,0.16667,-0,-0,0.66667
0.19647,0.84492,1.1788,0.51738,23.718,143.11,-1.6264,0.54214,-1.0482,-2.1685,-5.6951e-10,-0.52411,0,0,0.16667,-0,-0,0.66667
0.35053,0.25142,2.1032,-0.37287,-15.535,100.83,2.0912,-0.69707,-1.5056,2.7883,-2.8197e-12,-0.75279,0,0,0.16667,-0,-0,0.66667
0.45356,0.39422,2.7214,-0.15867,-5.9608,75.006,1.1514,-0.38381,-1.9116,1.5353,-3.3906e-13,-0.95582,0,0,0.16667,-7.8949e-16,0,0.66667
0.25284,0.94633,1.517,0.66949,30.002,127.39,-2.7084,0.90279,-0.40629,-3.6112,2.3315e-12,-0.20315,0,0,0.16667,-0,-0,0.66667
0.33803,0.19921,2.0282,-0.45119,-19.015,104.17,2.4402,-0.81341,-1.275,3.2537,-3.8209e-12,-0.63748,0,0,0.16667,-0,-0,0.66667
0.26085,0.77415,1.5651,0.41122,18.228,124.98,-1.7163,0.57208,-1.3981,-2.2883,-2.3457e-11,-0.69907,0,0,0.16667,1.9737e-16,0,0.66667
0.66262,0.034337,3.9757,-0.69849,-18.753,32.825,7.4053,-2.4684,-0.26492,9.8738,5.9375e-13,-0.13246,0,0,0.16667,-0,-0,0.66667
0.38944,0.52973,2.3366,0.04459,1.7898,90.704,-0.27784,0.092613,-1.9949,-0.37045,-1.4524e-12,-0.99744,0,0,0.16667,8.8818e-16,0,0.66667
0.46579,0.52334,2.7947,0.035004,1.2953,72.097,-0.26087,0.086957,-1.9956,-0.34783,-2.2096e-13,-0.99782,0,0,0.16667,-0,-0,0.66667
0.25898,0.74408,1.5539,0.36611,16.232,125.47,-1.517,0.50568,-1.5226,-2.0227,-2.5772e-11,-0.7613,0,0,0.16667,-2.414e-16,0,0.66667
0.57889,0.11708,3.4734,-0.57438,-18.192,47.991,5.3201,-1.7734,-0.82822,7.0935,3.384e-13,-0.41411,0,0,0.16667,7.8949e-16,0,0.66667
0.41565,0.79434,2.4939,0.44151,17.363,84.369,-2.9363,0.97875,-1.3055,-3.915,1.5195e-12,-0.65276,0,0,0.16667,-0,-0,0.66667
0.45718,0.89451,2.7431,0.59177,22.337,74.546,-4.3287,1.4429,-0.75412,-5.7716,5.0404e-13,-0.37706,0,0,0.16667,-7.8949e-16,0,0.66667
0.20956,0.98251,1.2574,0.72377,33.186,139.54,-2.4268,0.80894,-0.13602,-3.2358,-5.473e-11,-0.068008,0,0,0.16667,8.9109e-16,0,0.66667
0.51169,0.50405,3.0701,0.006078,0.21181,61.645,-0.049761,0.016587,-2,-0.066348,1.0256e-12,-0.99999,0,0,0.16667,-3.158e-15,0,0.66667
0.42103,0.47639,2.5262,-0.035419,-1.3781,82.83,0.2386,-0.079534,-1.9968,0.31814,-4.3145e-13,-0.99839,0,0,0.16667,-0,-0,0.66667
0.53816,0.18836,3.229,-0.46746,-15.773,56.211,4.0251,-1.3417,-1.2231,5.3669,6.497e-13,-0.61153,0,0,0.16667,-1.579e-15,0,0.66667
0.51553,0.88346,3.0932,0.5752,20.133,61.254,-4.7445,1.5815,-0.82532,-6.326,6.3283e-13,-0.41266,0,0,0.16667,-0,-0,0.66667
0.71232,0.1739,4.2739,-0.48915,-11.402,24.45,5.5749,-1.8583,-1.1478,7.4332,2.8773e-12,-0.57392,0,0,0.16667,-5.406e-17,0,0.66667
0.34543,0.73174,2.0726,0.34762,14.535,102.15,-1.9212,0.64041,-1.5707,-2.5617,4.344e-12,-0.78533,0,0,0.16667,-0,-0,0.66667
0.22924,0.70296,1.3754,0.30444,13.697,133.74,-1.1167,0.37222,-1.6692,-1.4889,-1.478e-10,-0.83462,0,0,0.16667,-3.9475e-16,0,0.66667
0.91895,0.74021,5.5137,0.36031,2.5284,2.8481,-5.2977,1.7659,-1.5382,-7.0636,7.638e-09,-0.76912,0,0,0.16667,-0,-0,0.66667
0.39408,0.018967,2.3645,-0.72155,-29.224,90.077,4.5496,-1.5165,-0.1483,6.0662,-9.992e-13,-0.07415,0,0,0.16667,-0,-0,0.66667
0.81515,0.54034,4.8909,0.060503,0.93939,10.814,-0.7891,0.26303,-1.987,-1.0521,3.9593e-10,-0.99351,0,0,0.16667,-0,-0,0.66667
0.88049,0.10059,5.2829,-0.59911,-6.3364,5.8081,8.4402,-2.8134,-0.72304,11.254,2.7076e-08,-0.36152,0,0,0.16667,-0,-0,0.66667
0.65189,0.73021,3.9114,0.34532,9.3726,34.016,-3.6017,1.2006,-1.5752,-4.8023,-3.9115e-12,-0.78759,0,0,0.16667,-0,-0,0.66667
0.76748,0.18938,4.6049,-0.46592,-9.0244,16.785,5.7214,-1.9071,-1.2296,7.6285,-3.7695e-11,-0.61481,0,0,0.16667,3.158e-15,0,0.66667
0.89753,0.70632,5.3852,0.30949,2.7386,4.0208,-4.4444,1.4815,-1.658,-5.9259,6.3826e-09,-0.829,0,0,0.16667,-0,-0,0.66667
0.49849,0.80594,2.9909,0.45891,16.387,64.87,-3.6602,1.2201,-1.2521,-4.8802,-9.5368e-13,-0.62607,0,0,0.16667,3.9475e-16,0,0.66667
0.42176,0.59375,2.5305,0.14062,5.4701,82.673,-0.94894,0.31631,-1.9327,-1.2653,4.9105e-13,-0.96635,0,0,0.16667,-2.0214e-16,0,0.66667
0.72854,0.76544,4.3713,0.39816,8.8009,21.918,-4.6412,1.5471,-1.435,-6.1883,7.3737e-12,-0.71749,0,0,0.16667,-0,-0,0.66667
0.57844,0.42862,3.4707,-0.10707,-3.3585,47.589,0.99092,-0.33031,-1.9607,1.3212,-4.9349e-14,-0.98035,0,0,0.16667,-0,-0,0.66667
0.070112,0.92544,0.42067,0.63816,30.378,179.82,-0.71589,0.23863,-0.55055,-0.95452,2.264e-07,-0.27527,0,0,0.16667,-0,-0,0.66667
0.80706,0.25358,4.8424,-0.36963,-6.0227,11.966,4.7731,-1.591,-1.5139,6.3641,-5.4102e-10,-0.75697,0,0,0.16667,-0,-0,0.66667
0.20204,0.24198,1.2123,-0.38703,-17.653,141.47,1.2511,-0.41705,-1.4684,1.6682,3.7225e-10,-0.73422,0,0,0.16667,-0,-0,0.66667
0.21501,0.11833,1.2901,-0.57251,-26.071,137.89,1.9695,-0.6565,-0.83442,2.626,2.0067e-10,-0.41721,0,0,0.16667,-1.9737e-16,0,0.66667
0.87429,0.12618,5.2457,-0.56072,-6.1973,6.1621,7.8438,-2.6146,-0.88443,10.458,-1.1776e-08,-0.44222,0,0,0.16667,-0,-2.9074e-17,0.66667
0.81023,0.13172,4.8614,-0.55242,-8.9615,11.988,7.1614,-2.3871,-0.91545,9.5485,-3.7699e-10,-0.45772,0,0,0.16667,-0,-0,0.66667
0.78716,0.30499,4.7229,-0.29251,-5.1962,14.11,3.6841,-1.228,-1.6949,4.9121,-2.6863e-10,-0.84743,0,0,0.16667,-7.8949e-16,0,0.66667
0.97848,0.71176,5.8709,0.31764,0.49719,0.57867,-4.9728,1.6576,-1.6404,-6.6304,-1.7033e-08,-0.82021,0,0,0.16667,7.8949e-16,0,0.66667
0.93575,0.91383,5.6145,0.62074,3.5919,2.6712,-9.2936,3.0979,-0.63066,-12.392,-5.9798e-08,-0.31533,0,0,0.16667,-3.158e-15,0,0.66667
0.12932,0.10887,0.7759,-0.5867,-27.558,162.48,1.2139,-0.40463,-0.77518,1.6185,5.9582e-09,-0.38759,0,0,0.16667,1.9737e-16,0,0.66667
0.46825,0.41579,2.8095,-0.12631,-4.662,71.54,0.94634,-0.31545,-1.9446,1.2618,-3.9579e-14,-0.97228,0,0,0.16667,-0,-0,0.66667
0.30416,0.10865,1.825,-0.58702,-25.438,113.3,2.8568,-0.95228,-0.77323,3.8091,-3.2929e-12,-0.38662,0,0,0.16667,-0,-0,0.66667
0.89049,0.0028373,5.3429,-0.74574,-7.4059,5.5793,10.625,-3.5417,-0.02506,14.167,-2.1867e-09,-0.01253,0,0,0.16667,6.3159e-15,0,0.66667
0.13731,0.18525,0.82388,-0.47213,-22.069,160.12,1.0373,-0.34576,-1.2081,1.383,1.1156e-09,-0.60406,0,0,0.16667,-2.2204e-16,0,0.66667
0.047972,0.52968,0.28783,0.04452,2.1062,186.29,-0.034172,0.011391,-1.995,-0.045562,3.8615e-07,-0.99748,0,0,0.16667,7.4015e-17,0,0.66667
0.97746,0.31795,5.8648,-0.27307,-0.44604,0.53117,4.2707,-1.4236,-1.7341,5.6943,6.8661e-09,-0.86704,0,0,0.16667,3.158e-15,0,0.66667
0.56486,0.76435,3.3892,0.39653,12.794,50.557,-3.5837,1.1946,-1.4408,-4.7783,-5.4445e-13,-0.72042,0,0,0.16667,-7.8949e-16,0,0.66667
0.28488,0.94533,1.7093,0.668,29.381,118.59,-3.0448,1.0149,-0.41315,-4.0598,4.3165e-13,-0.20657,0,0,0.16667,-0,-0,0.66667
0.33181,0.20233,1.9908,-0.44651,-18.905,105.8,2.3705,-0.79015,-1.2904,3.1606,-4.6387e-12,-0.64521,0,0,0.16667,-0,-0,0.66667
0.13838,0.077767,0.8303,-0.63335,-29.713,159.87,1.4023,-0.46744,-0.5737,1.8698,-1.4217e-09,-0.28685,0,0,0.16667,-0,-1.9727e-16,0.66667
0.99127,0.13503,5.9476,-0.54745,-0.30779,0.88836,8.6827,-2.8942,-0.9331,11.577,-1.5191e-07,-0.46655,0,0,0.16667,-0,-0,0.66667
0.87071,0.91708,5.2243,0.62562,7.1519,6.6141,-8.7158,2.9053,-0.60757,-11.621,-3.8193e-10,-0.30378,0,0,0.16667,-1.579e-15,0,0.66667
0.24165,0.65454,1.4499,0.23181,10.355,130.24,-0.89627,0.29876,-1.8088,-1.195,-8.443e-11,-0.90438,0,0,0.16667,4.4409e-16,0,0.66667
0.33244,0.2656,1.9946,-0.3516,-14.852,105.57,1.8702,-0.62339,-1.5595,2.4936,-5.3088e-12,-0.77975,0,0,0.16667,-3.9475e-16,0,0.66667
0.16541,0.25694,0.99249,-0.36459,-16.859,151.95,0.96494,-0.32165,-1.5264,1.2866,1.3697e-09,-0.76322,0,0,0.16667,-3.9475e-16,0,0.66667
0.51303,0.97731,3.0782,0.71596,25.284,62.05,-5.877,1.959,-0.17752,-7.836,3.2951e-13,-0.088759,0,0,0.16667,-0,-0,0.66667
0.97972,0.097678,5.8783,-0.60348,-1.039,1.2416,9.4599,-3.1533,-0.70498,12.613,1.8046e-06,-0.35249,0,0,0.16667,-3.158e-15,0,0.66667
0.59628,0.15725,3.5777,-0.51412,-15.745,44.477,4.905,-1.635,-1.0615,6.5399,1.1369e-12,-0.53074,0,0,0.16667,-1.579e-15,0,0.66667
0.66446,0.059258,3.9868,-0.66111,-17.637,32.425,7.0286,-2.3429,-0.4455,9.3714,7.1587e-13,-0.22275,0,0,0.16667,-0,-0,0.66667
0.67117,0.20017,4.027,-0.44975,-11.695,30.884,4.8297,-1.6099,-1.2818,6.4396,4.4804e-12,-0.64088,0,0,0.16667,-0,-0,0.66667
0.19112,0.94306,1.1467,0.66458,30.652,144.73,-2.0322,0.67741,-0.42962,-2.7096,-8.824e-11,-0.21481,0,0,0.16667,-0,-0,0.66667
0.24088,0.36424,1.4453,-0.20364,-9.0974,130.45,0.78485,-0.26162,-1.8513,1.0465,7.4432e-11,-0.92563,0,0,0.16667,-1.9737e-16,0,0.66667
0.50091,0.16016,3.0055,-0.50976,-18.169,64.393,4.0855,-1.3618,-1.0778,5.4474,2.2871e-13,-0.53888,0,0,0.16667,-1.579e-15,0,0.66667
0.46695,0.04271,2.8017,-0.68593,-25.681,72.41,5.1247,-1.7082,-0.3274,6.8329,3.1974e-14,-0.1637,0,0,0.16667,-7.8949e-16,-1.8335e-16,0.66667
0.32409,0.63384,1.9446,0.20076,8.5157,107.71,-1.0411,0.34702,-1.8562,-1.3881,3.9749e-12,-0.92808,0,0,0.16667,-0,-0,0.66667
0.72003,0.15895,4.3202,-0.51157,-11.665,23.349,5.8936,-1.9645,-1.0712,7.8581,4.5568e-12,-0.53558,0,0,0.16667,-0,-0,0.66667
0.27597,0.20702,1.6558,-0.43946,-19.319,120.84,1.9404,-0.64681,-1.3122,2.5873,2.3733e-12,-0.65609,0,0,0.16667,-0,-0,0.66667
0.89558,0.50801,5.3735,0.012018,0.10716,3.9185,-0.17221,0.057404,-1.9987,-0.22962,4.6685e-08,-0.99937,0,0,0.16667,3.158e-15,0,0.66667
0.12274,0.80724,0.73645,0.46085,21.62,164.35,-0.90506,0.30169,-1.2455,-1.2067,-8.4602e-09,-0.62277,0,0,0.16667,-9.8686e-17,0,0.66667
0.92163,0.81815,5.5298,0.47722,3.2839,2.9483,-7.0371,2.3457,-1.1922,-9.3828,1.792e-08,-0.59608,0,0,0.16667,-0,-0,0.66667
0.10352,0.98292,0.6211,0.72438,34.369,170.06,-1.1998,0.39992,-0.13296,-1.5997,-4.9001e-08,-0.06648,0,0,0.16667,2.4518e-16,0,0.66667
0.19298,0.15219,1.1579,-0.52172,-23.953,144.11,1.6109,-0.53697,-1.0319,2.1479,3.8243e-10,-0.51593,0,0,0.16667,3.9475e-16,0,0.66667
0.45235,0.78545,2.7141,0.42817,16.179,75.486,-3.0989,1.033,-1.3499,-4.1319,1.2708e-12,-0.67495,0,0,0.16667,-1.579e-15,0,0.66667
0.88235,0.31956,5.2941,-0.27066,-2.7399,5.0025,3.8211,-1.2737,-1.7385,5.0948,-4.0362e-09,-0.86925,0,0,0.16667,-0,-0,0.66667
0.30753,0.56002,1.8452,0.090036,3.8612,112.12,-0.44302,0.14767,-1.9712,-0.59069,1.2685e-12,-0.98561,0,0,0.16667,1.9737e-16,0,0.66667
0.65742,0.57882,3.9445,0.11823,3.1549,32.876,-1.2436,0.41454,-1.9509,-1.6581,-2.7758e-12,-0.97544,0,0,0.16667,7.8949e-16,0,0.66667
0.33893,0.81709,2.0336,0.47563,20.042,103.95,-2.5793,0.85978,-1.1954,-3.4391,3.0791e-12,-0.59769,0,0,0.16667,-0,-0,0.66667
0.016138,0.50406,0.096831,0.0060839,0.2884,195.72,-0.0015702,0.00051642,-2.0018,-0.0020971,-1.0472e-05,-1.0009,0,0,0.16667,-0,-0,0.66667
0.62443,0.33254,3.7466,-0.25119,-7.2257,38.835,2.5096,-0.83652,-1.7768,3.3461,1.9229e-12,-0.88839,0,0,0.16667,7.8949e-16,0,0.66667
0.23807,0.99076,1.4284,0.73614,33.316,131.55,-2.804,0.93467,-0.072809,-3.7387,-2.2626e-13,-0.036404,0,0,0.16667,-3.9475e-16,0,0.66667
0.19454,0.27031,1.1672,-0.34453,-15.753,143.59,1.0724,-0.35746,-1.5766,1.4298,5.3263e-10,-0.78829,0,0,0.16667,-1.9737e-16,0,0.66667
0.80885,0.463,4.8531,-0.0555,-0.88889,11.484,0.71826,-0.23942,-1.989,0.95768,-1.7402e-10,-0.99451,0,0,0.16667,-3.9475e-16,0,0.66667
0.61735,0.18407,3.7041,-0.47389,-13.911,40.413,4.6809,-1.5603,-1.201,6.2413,1.553e-12,-0.6005,0,0,0.16667,1.9737e-16,0,0.66667
0.79544,0.85,4.7726,0.525,9.0992,13.553,-6.6817,2.2272,-1.021,-8.9089,2.7105e-10,-0.51051,0,0,0.16667,-1.579e-15,0,0.66667
0.26534,0.7397,1.5921,0.35954,15.881,123.71,-1.5264,0.50881,-1.5417,-2.0353,-1.8405e-11,-0.77087,0,0,0.16667,3.9475e-16,0,0.66667
0.047177,0.7115,0.28306,0.31725,15.042,186.53,-0.23947,0.079823,-1.6438,-0.31929,3.4721e-08,-0.8219,0,0,0.16667,-0,-0,0.66667
0.85345,0.52958,5.1207,0.044363,0.55261,7.1331,-0.60579,0.20193,-1.993,-0.80772,1.4632e-09,-0.99649,0,0,0.16667,-0,-0,0.66667
0.76433,0.44983,4.586,-0.07525,-1.4584,16.754,0.92025,-0.30675,-1.9804,1.227,-4.8936e-11,-0.99022,0,0,0.16667,-0,-0,0.66667
0.0045005,0.36677,0.027003,-0.19984,-9.4837,199.17,0.01439,-0.0047967,-1.8574,0.019187,-4.3428e-08,-0.92869,0,0,0.16667,3.084e-18,0,0.66667
0.69985,0.38001,4.1991,-0.17998,-4.3088,25.962,2.0153,-0.67178,-1.8851,2.6871,5.5289e-13,-0.94253,0,0,0.16667,1.579e-15,0,0.66667
0.24166,0.68772,1.45,0.28158,12.586,130.25,-1.0888,0.36292,-1.7182,-1.4517,-8.0844e-11,-0.85911,0,0,0.16667,-0,-0,0.66667
0.35967,0.78951,2.158,0.43426,17.98,98.504,-2.4991,0.83303,-1.331,-3.3321,2.8033e-12,-0.66551,0,0,0.16667,-0,-0,0.66667
0.78074,0.57833,4.6845,0.1175,2.1352,14.726,-1.4677,0.48925,-1.9519,-1.957,1.3757e-10,-0.97597,0,0,0.16667,-0,-0,0.66667
0.98652,0.59454,5.9191,0.14181,0.10256,0.21962,-2.2384,0.74612,-1.93,-2.9845,-2.0428e-07,-0.96502,0,0,0.16667,-0,-0,0.66667
0.24556,0.09409,1.4734,-0.60886,-27.342,129.35,2.3922,-0.79741,-0.68253,3.1896,-5.201e-12,-0.34127,0,0,0.16667,-0,-0,0.66667
0.4675,0.46054,2.805,-0.059187,-2.1858,71.699,0.44272,-0.14757,-1.9885,0.5903,5.5533e-13,-0.99423,0,0,0.16667,-0,-0,0.66667
0.40034,0.24305,2.402,-0.38542,-15.37,88.119,2.4688,-0.82292,-1.471,3.2917,-1.7246e-12,-0.73549,0,0,0.16667,3.9475e-16,0,0.66667
0.55826,0.97012,3.3496,0.70518,23.252,52.419,-6.2988,2.0996,-0.23238,-8.3984,-4.6629e-14,-0.11619,0,0,0.16667,-0,2.1354e-16,0.66667
0.52926,0.33967,3.1756,-0.2405,-8.1844,57.887,2.0366,-0.67887,-1.7954,2.7155,1.3833e-13,-0.89768,0,0,0.16667,-3.9475e-16,0,0.66667
0.65803,0.67544,3.9482,0.26316,7.0276,32.869,-2.7707,0.92356,-1.7541,-3.6942,-4.7204e-12,-0.87703,0,0,0.16667,7.8949e-16,0,0.66667
0.49673,0.93022,2.9804,0.64534,23.235,65.537,-5.1289,1.7096,-0.51919,-6.8386,-2.0473e-13,-0.2596,0,0,0.16667,3.9475e-16,0,0.66667
0.68538,0.31345,4.1123,-0.27982,-6.9815,28.335,3.0685,-1.0228,-1.7231,4.0914,4.756e-12,-0.86156,0,0,0.16667,-1.579e-15,0,0.66667
0.31286,0.26721,1.8771,-0.34919,-14.961,110.78,1.748,-0.58265,-1.5676,2.3306,-6.1646e-12,-0.7838,0,0,0.16667,3.9475e-16,0,0.66667
0.21438,0.67299,1.2863,0.25948,11.75,137.92,-0.89003,0.29668,-1.7596,-1.1867,-2.6864e-10,-0.87981,0,0,0.16667,-3.9475e-16,0,0.66667
0.90718,0.53264,5.4431,0.048955,0.38755,3.1994,-0.71057,0.23686,-1.9936,-0.94743,6.1984e-08,-0.99681,0,0,0.16667,-3.158e-15,0,0.66667
0.5576,0.59978,3.3456,0.14967,4.8666,51.848,-1.3353,0.4451,-1.9199,-1.7804,-1.1e-12,-0.95993,0,0,0.16667,1.579e-15,0,0.66667
0.029017,0.013314,0.1741,-0.73003,-34.99,191.94,0.33894,-0.11298,-0.10507,0.45191,-2.646e-06,-0.052533,0,0,0.16667,9.8686e-17,0,0.66667
0.12197,0.56446,0.7318,0.096696,4.5169,164.51,-0.1887,0.0629,-1.9676,-0.2516,9.55e-09,-0.98381,0,0,0.16667,-0,-0,0.66667
0.6814,0.32724,4.0884,-0.25913,-6.5301,28.959,2.8252,-0.94172,-1.7598,3.7669,4.4496e-12,-0.87992,0,0,0.16667,-0,-0,0.66667
0.80871,0.53475,4.8523,0.052121,0.83533,11.498,-0.67441,0.2248,-1.9906,-0.89921,1.6531e-10,-0.9953,0,0,0.16667,-0,-0,0.66667
0.82348,0.99343,4.9409,0.74015,11.424,11.149,-9.7519,3.2506,-0.051718,-13.003,2.3808e-10,-0.025859,0,0,0.16667,-0,-0,0.66667
0.4331,0.96494,2.5986,0.69741,27.141,80.448,-4.8327,1.6109,-0.27065,-6.4436,2.367e-13,-0.13532,0,0,0.16667,-8.5864e-16,0,0.66667
0.58043,0.8931,3.4826,0.58965,18.637,47.713,-5.4761,1.8254,-0.76371,-7.3014,-5.5111e-13,-0.38186,0,0,0.16667,-0,-0,0.66667
0.80756,0.54538,4.8454,0.068067,1.0971,11.627,-0.8795,0.29317,-1.9824,-1.1727,1.8075e-10,-0.9912,0,0,0.16667,-0,-0,0.66667
0.95758,0.17055,5.7455,-0.49418,-1.8065,1.495,7.5715,-2.5238,-1.1307,10.095,-2.4376e-08,-0.56535,0,0,0.16667,-1.579e-15,0,0.66667
0.87975,0.007039,5.2785,-0.73944,-8.0108,6.3023,10.408,-3.4695,-0.055336,13.878,-8.3605e-09,-0.027668,0,0,0.16667,-0,-0,0.66667
0.38851,0.84028,2.3311,0.51042,20.642,91.206,-3.1728,1.0576,-1.0747,-4.2305,1.4666e-12,-0.53737,0,0,0.16667,1.9737e-16,0,0.66667
0.96148,0.032333,5.7689,-0.7015,-2.4927,2.0109,10.792,-3.5972,-0.25025,14.389,-8.4107e-06,-0.12513,0,0,0.16667,-0,-0,0.66667
0.13705,0.30939,0.82229,-0.28591,-13.323,160.14,0.62693,-0.20898,-1.7098,0.83591,3.6068e-09,-0.85488,0,0,0.16667,-2.4672e-16,0,0.66667
0.90874,0.8535,5.4524,0.53024,4.2788,3.7827,-7.7097,2.5699,-1.0004,-10.28,8.1376e-09,-0.50019,0,0,0.16667,-0,-0,0.66667
0.52131,0.26241,3.1279,-0.35639,-12.297,59.708,2.9726,-0.99088,-1.5471,3.9635,-2.2293e-13,-0.77357,0,0,0.16667,7.8949e-16,0,0.66667
0.71489,0.51258,4.2893,0.018864,0.43172,23.61,-0.21577,0.071924,-1.998,-0.2877,1.7392e-13,-0.999,0,0,0.16667,-0,-0,0.66667
0.78467,0.85618,4.708,0.53426,9.7015,14.823,-6.7075,2.2358,-0.98456,-8.9434,8.5333e-11,-0.49228,0,0,0.16667,-0,-0,0.66667
0.33468,0.95295,2.0081,0.67943,28.889,105.28,-3.6383,1.2128,-0.35719,-4.851,-3.1841e-13,-0.17859,0,0,0.16667,-0,-0,0.66667
0.87769,0.17375,5.2661,-0.48937,-5.231,5.7332,6.8723,-2.2908,-1.1482,9.163,-4.0181e-09,-0.57412,0,0,0.16667,-0,-0,0.66667
0.25801,0.39871,1.5481,-0.15194,-6.7227,125.66,0.62724,-0.20908,-1.9168,0.83633,2.4307e-11,-0.95841,0,0,0.16667,1.5277e-16,0,0.66667
0.083575,0.99267,0.50145,0.73901,35.212,175.9,-0.98819,0.3294,-0.057408,-1.3176,-3.8761e-08,-0.028704,0,0,0.16667,9.8686e-17,0,0.66667
0.75937,0.67058,4.5562,0.25587,5.0676,17.516,-3.1088,1.0363,-1.7658,-4.145,8.7168e-11,-0.8829,0,0,0.16667,-0,-0,0.66667
0.89508,0.6414,5.3705,0.2121,1.9104,4.0585,-3.0375,1.0125,-1.8391,-4.05,4.612e-09,-0.91953,0,0,0.16667,-1.579e-15,0,0.66667
0.92645,0.20862,5.5587,-0.43707,-2.8043,2.617,6.4787,-2.1596,-1.32,8.6383,-1.9939e-08,-0.65998,0,0,0.16667,-0,-0,0.66667
0.37407,0.017349,2.2444,-0.72398,-29.859,95.136,4.3331,-1.4444,-0.13714,5.7775,-1.5499e-13,-0.068569,0,0,0.16667,-0,-1.9497e-16,0.66667
0.34146,0.90198,2.0488,0.60297,25.443,103.41,-3.2942,1.0981,-0.70814,-4.3923,1.3058e-12,-0.35407,0,0,0.16667,1.9737e-16,9.6878e-17,0.66667
0.25569,0.40847,1.5341,-0.13729,-6.0816,126.31,0.56164,-0.18721,-1.9329,0.74886,2.7349e-11,-0.96646,0,0,0.16667,-7.8949e-16,0,0.66667
0.47079,0.10481,2.8248,-0.59278,-22.017,71.369,4.4652,-1.4884,-0.75082,5.9536,-7.8026e-13,-0.37541,0,0,0.16667,7.8949e-16,0,0.66667
0.96717,0.76345,5.803,0.39517,1.0583,0.98873,-6.1152,2.0384,-1.4451,-8.1536,-8.0291e-08,-0.72255,0,0,0.16667,-0,-0,0.66667
0.49887,0.13493,2.9932,-0.5476,-19.594,64.904,4.3709,-1.457,-0.93462,5.8278,-5.4268e-13,-0.46731,0,0,0.16667,-0,-0,0.66667
0.23907,0.0486,1.4344,-0.6771,-30.57,131.22,2.59,-0.86334,-0.36885,3.4534,4.3845e-12,-0.18442,0,0,0.16667,-0,-0,0.66667
0.20791,0.67548,1.2475,0.26322,11.954,139.75,-0.87563,0.29188,-1.7526,-1.1675,-3.4532e-10,-0.87632,0,0,0.16667,-0,-0,0.66667
0.92671,0.2321,5.5603,-0.40186,-2.5567,2.5312,5.9585,-1.9862,-1.4247,7.9446,-1.5183e-08,-0.71237,0,0,0.16667,-0,-0,0.66667
0.68793,0.44692,4.1276,-0.079618,-1.9671,27.794,0.87635,-0.29212,-1.9788,1.1685,9.3026e-13,-0.9894,0,0,0.16667,-0,-0,0.66667
0.70478,0.51191,4.2287,0.017863,0.42111,25.14,-0.20143,0.067145,-1.9992,-0.26858,1.3396e-13,-0.99962,0,0,0.16667,-0,-0,0.66667
0.5889,0.30196,3.5334,-0.29706,-9.1677,45.637,2.799,-0.93299,-1.6853,3.7319,7.816e-13,-0.84265,0,0,0.16667,-7.8949e-16,0,0.66667
0.61873,0.89418,3.7124,0.59128,17.386,40.363,-5.8534,1.9511,-0.7556,-7.8046,-6.0218e-13,-0.3778,0,0,0.16667,-0,-0,0.66667
0.045998,0.26669,0.27599,-0.34996,-16.603,186.89,0.25756,-0.085852,-1.5653,0.34341,-4.1296e-08,-0.78266,0,0,0.16667,-0,-0,0.66667
0.35616,0.15751,2.137,-0.51374,-21.372,99.486,2.9276,-0.97586,-1.0625,3.9034,-2.8482e-12,-0.53126,0,0,0.16667,-0,-0,0.66667
0.079759,0.31915,0.47855,-0.27128,-12.801,176.92,0.34619,-0.1154,-1.7392,0.46158,3.152e-10,-0.8696,0,0,0.16667,-0,-0,0.66667
0.32577,0.26516,1.9546,-0.35227,-14.954,107.34,1.8361,-0.61204,-1.5587,2.4482,-5.5499e-12,-0.77934,0,0,0.16667,-0,-0,0.66667
0.71057,0.86564,4.2634,0.54846,12.885,24.828,-6.2355,2.0785,-0.92919,-8.314,-3.4781e-12,-0.4646,0,0,0.16667,7.8949e-16,0,0.66667
0.072478,0.94864,0.43487,0.67296,32.056,179.13,-0.7804,0.26013,-0.38858,-1.0405,-2.3044e-07,-0.19429,0,0,0.16667,1.9737e-16,0,0.66667
0.89901,0.46539,5.394,-0.051917,-0.44778,3.7034,0.74678,-0.24893,-1.9899,0.99571,2.3605e-08,-0.99497,0,0,0.16667,3.9475e-16,0,0.66667
0.35431,0.52119,2.1259,0.031781,1.3155,99.718,-0.18016,0.060054,-1.9954,-0.24022,-2.757e-13,-0.99772,0,0,0.16667,-0,-0,0.66667
0.089774,0.16373,0.53865,-0.5044,-23.855,174.01,0.72452,-0.24151,-1.095,0.96602,-5.5326e-09,-0.54751,0,0,0.16667,-0,-0,0.66667
0.10048,0.3792,0.60286,-0.1812,-8.5103,170.81,0.2913,-0.097102,-1.8827,0.38841,4.8506e-09,-0.94134,0,0,0.16667,-0,-0,0.66667
0.14697,0.39758,0.88184,-0.15364,-7.1294,157.24,0.36129,-0.12043,-1.915,0.48172,2.2144e-09,-0.95748,0,0,0.16667,-9.8686e-17,0,0.66667
0.70481,0.67651,4.2288,0.26476,6.2604,25.268,-2.9857,0.99523,-1.7512,-3.9809,-1.5254e-12,-0.87558,0,0,0.16667,7.8949e-16,0,0.66667
0.94314,0.62989,5.6588,0.19483,0.92729,1.4922,-2.9401,0.98003,-1.8645,-3.9201,-4.7054e-08,-0.93226,0,0,0.16667,-0,-0,0.66667
0.76054,0.50738,4.5632,0.011072,0.21759,17.232,-0.13473,0.04491,-1.9989,-0.17964,2.1176e-12,-0.99943,0,0,0.16667,3.158e-15,0,0.66667
0.39221,0.48698,2.3532,-0.019537,-0.78213,90.003,0.1226,-0.040867,-1.999,0.16347,-2.9168e-13,-0.9995,0,0,0.16667,-0,-0,0.66667
0.76781,0.75678,4.6069,0.38517,7.4232,16.602,-4.7318,1.5773,-1.473,-6.309,1.0249e-10,-0.73652,0,0,0.16667,-0,-0,0.66667
0.83593,0.072058,5.0156,-0.64191,-9.181,9.6418,8.5855,-2.8618,-0.53363,11.447,5.8625e-10,-0.26682,0,0,0.16667,-1.579e-15,0,0.66667
0.061478,0.8206,0.36887,0.4809,22.831,182.33,-0.47303,0.15768,-1.1788,-0.63071,-3.1147e-08,-0.58939,0,0,0.16667,-0,-0,0.66667
0.31055,0.99724,1.8633,0.74587,32.344,111.76,-3.706,1.2353,-0.023244,-4.9414,-7.1254e-13,-0.011622,0,0,0.16667,5.9212e-16,0,0.66667
0.74228,0.9939,4.4537,0.74086,15.957,20.763,-8.7987,2.9329,-0.047565,-11.732,-8.912e-12,-0.023783,0,0,0.16667,-0,-0,0.66667
0.26043,0.072377,1.5626,-0.64143,-28.6,125.26,2.6727,-0.89092,-0.53612,3.5637,2.5351e-12,-0.26806,0,0,0.16667,-0,-0,0.66667
0.91053,0.052706,5.4632,-0.67094,-5.4269,4.0902,9.7746,-3.2582,-0.39872,13.033,-7.4191e-08,-0.19936,0,0,0.16667,-0,-0,0.66667
0.24225,0.72889,1.4535,0.34334,15.355,130.11,-1.3308,0.44359,-1.5795,-1.7744,-7.6915e-11,-0.78977,0,0,0.16667,-0,-0,0.66667
0.78725,0.76106,4.7235,0.39159,6.9811,14.242,-4.9325,1.6442,-1.4535,-6.5766,2.4202e-10,-0.72676,0,0,0.16667,-0,-0,0.66667
0.39894,0.64504,2.3937,0.21756,8.6645,88.359,-1.3887,0.4629,-1.8303,-1.8516,1.4611e-12,-0.91516,0,0,0.16667,-3.9475e-16,0,0.66667
0.88796,0.10982,5.3278,-0.58527,-5.8089,5.2437,8.3152,-2.7717,-0.78179,11.087,-2.692e-10,-0.3909,0,0,0.16667,-0,-0,0.66667
0.28813,0.41267,1.7288,-0.131,-5.6918,117.38,0.6039,-0.2013,-1.9381,0.8052,7.3053e-13,-0.96904,0,0,0.16667,-7.8949e-16,0,0.66667
0.57639,0.28541,3.4584,-0.32189,-10.164,48.142,2.9686,-0.98952,-1.6327,3.9581,2.74e-13,-0.81637,0,0,0.16667,1.579e-15,0,0.66667
0.015374,0.97498,0.092243,0.71246,34.15,195.96,-0.17526,0.058409,-0.19698,-0.23368,-1.4155e-05,-0.098492,0,0,0.16667,4.9343e-17,0,0.66667
0.80519,0.4797,4.8311,-0.030446,-0.49621,11.878,0.39223,-0.13074,-1.9953,0.52298,-8.1241e-11,-0.99766,0,0,0.16667,1.579e-15,0,0.66667
0.033564,0.84901,0.20138,0.52351,24.944,190.58,-0.28114,0.093714,-1.0262,-0.37485,1.9239e-07,-0.5131,0,0,0.16667,-0,-0,0.66667
0.64091,0.62328,3.8455,0.18493,5.129,35.802,-1.8963,0.63211,-1.8809,-2.5284,-3.291e-12,-0.94047,0,0,0.16667,9.8686e-16,0,0.66667
0.56365,0.89242,3.3819,0.58864,19.146,51.09,-5.3085,1.7695,-0.76863,-7.0781,3.8636e-14,-0.38432,0,0,0.16667,-7.8949e-16,0,0.66667
0.92841,0.097254,5.5705,-0.60412,-3.8794,2.9528,8.9739,-2.9913,-0.70193,11.965,-2.8818e-07,-0.35096,0,0,0.16667,-0,-0,0.66667
0.91911,0.48623,5.5147,-0.020661,-0.1419,2.5221,0.30384,-0.10128,-1.9982,0.40512,-1.1636e-08,-0.99909,0,0,0.16667,4.9053e-16,0,0.66667
0.24888,0.1898,1.4933,-0.4653,-20.784,128.33,1.8528,-0.61762,-1.2321,2.4705,4.3346e-11,-0.61603,0,0,0.16667,-0,-0,0.66667
0.26552,0.39479,1.5931,-0.15782,-6.9534,123.59,0.67046,-0.22349,-1.9129,0.89395,1.7287e-11,-0.95643,0,0,0.16667,3.9475e-16,0,0.66667
0.65743,0.069376,3.9446,-0.64594,-17.507,33.582,6.7945,-2.2648,-0.51761,9.0593,9.1127e-13,-0.25881,0,0,0.16667,-0,-0,0.66667
0.28227,0.29315,1.6936,-0.31028,-13.557,119.04,1.4013,-0.46711,-1.6585,1.8684,3.4401e-12,-0.82923,0,0,0.16667,-0,-0,0.66667
0.17582,0.39995,1.0549,-0.15008,-6.8971,148.9,0.4222,-0.14073,-1.9197,0.56293,7.4771e-10,-0.95985,0,0,0.16667,2.9606e-16,0,0.66667
0.17263,0.92572,1.0358,0.63858,29.636,150,-1.7638,0.58793,-0.55106,-2.3517,-2.4386e-10,-0.27553,0,0,0.16667,1.9737e-16,0,0.66667
0.027872,0.40841,0.16723,-0.13738,-6.5116,192.24,0.061265,-0.020421,-1.9336,0.081686,1.7107e-07,-0.96678,0,0,0.16667,-0,-0,0.66667
0.46709,0.0049423,2.8025,-0.74259,-27.859,72.478,5.5496,-1.8499,-0.040411,7.3995,1.9096e-13,-0.020205,0,0,0.16667,-0,-0,0.66667
0.48856,0.11444,2.9314,-0.57834,-20.997,67.272,4.5209,-1.507,-0.81003,6.0278,-6.6613e-13,-0.40501,0,0,0.16667,-0,-0,0.66667
0.42371,0.52207,2.5423,0.033105,1.2845,82.173,-0.22443,0.07481,-1.9966,-0.29924,-4.641e-13,-0.99828,0,0,0.16667,-0,-0,0.66667
0.98837,0.83094,5.9302,0.49641,0.38848,0.78719,-7.8502,2.6167,-1.123,-10.467,1.3213e-07,-0.56151,0,0,0.16667,-0,-0,0.66667
0.64354,0.43627,3.8612,-0.095602,-2.6336,35.293,0.98438,-0.32813,-1.9686,1.3125,1.6939e-12,-0.98428,0,0,0.16667,-9.8686e-17,0,0.66667
0.56225,0.96832,3.3735,0.70247,23.009,51.595,-6.3195,2.1065,-0.24826,-8.426,-1.4433e-13,-0.12413,0,0,0.16667,9.6219e-16,-1.0811e-17,0.66667
0.086457,0.071829,0.51874,-0.64226,-30.498,175.02,0.88844,-0.29615,-0.5321,1.1846,1.9589e-07,-0.26605,0,0,0.16667,-0,-0,0.66667
0.45235,0.17326,2.7141,-0.49011,-18.547,75.553,3.5472,-1.1824,-1.1468,4.7296,-1.4579e-12,-0.5734,0,0,0.16667,7.8949e-16,-4.0965e-17,0.66667
0.069724,0.16381,0.41834,-0.50429,-23.927,179.91,0.56257,-0.18752,-1.0947,0.7501,7.2195e-08,-0.54736,0,0,0.16667,-0,-0,0.66667
0.48716,0.80888,2.9229,0.46332,16.794,67.436,-3.6113,1.2038,-1.2374,-4.8151,-4.0545e-13,-0.61871,0,0,0.16667,-1.9737e-16,0,0.66667
0.01559,0.68949,0.093542,0.28424,13.498,195.88,-0.070903,0.023634,-1.7154,-0.094537,-1.4241e-08,-0.8577,0,0,0.16667,-4.9343e-17,0,0.66667
0.14153,0.99532,0.84916,0.74299,34.941,159.02,-1.6824,0.56081,-0.038812,-2.2433,-9.3462e-10,-0.019406,0,0,0.16667,2.9606e-16,0,0.66667
0.61893,0.79952,3.7136,0.44927,13.136,40.082,-4.4491,1.483,-1.281,-5.9321,-1.9234e-12,-0.64049,0,0,0.16667,-0,-0,0.66667
0.67615,0.453,4.0569,-0.070506,-1.7963,29.706,0.76276,-0.25425,-1.9814,1.017,1.1677e-12,-0.99069,0,0,0.16667,-0,-0,0.66667
0.60372,0.039058,3.6223,-0.69141,-21.031,43.39,6.6788,-2.2263,-0.29937,8.905,2.8111e-13,-0.14968,0,0,0.16667,-0,-0,0.66667
0.25097,0.0015909,1.5058,-0.74761,-33.622,127.98,3.0021,-1.0007,-0.014784,4.0028,1.0848e-11,-0.007392,0,0,0.16667,1.579e-15,0,0.66667
0.066186,0.65806,0.39711,0.23709,11.206,180.91,-0.25107,0.083692,-1.8007,-0.33477,1.2531e-08,-0.90037,0,0,0.16667,1.9737e-16,0,0.66667
0.67727,0.69347,4.0636,0.29021,7.3964,29.664,-3.1448,1.0483,-1.6999,-4.1931,-4.5655e-12,-0.84996,0,0,0.16667,-1.579e-15,0,0.66667
0.76834,0.83041,4.61,0.49562,9.5827,16.735,-6.0929,2.031,-1.1264,-8.1238,7.9318e-11,-0.56318,0,0,0.16667,-0,-0,0.66667
0.11928,0.61932,0.71565,0.17898,8.3702,165.31,-0.34156,0.11385,-1.8855,-0.45541,-1.2705e-10,-0.94273,0,0,0.16667,9.8686e-17,0,0.66667
0.73956,0.43683,4.4374,-0.094753,-2.0061,20.07,1.1212,-0.37374,-1.9684,1.4949,-2.0514e-11,-0.98421,0,0,0.16667,-2.0177e-15,0,0.66667
0.77319,0.22674,4.6391,-0.40989,-7.7452,15.97,5.0708,-1.6903,-1.4015,6.7611,-1.4393e-10,-0.70074,0,0,0.16667,-0,-0,0.66667
0.10997,0.99691,0.65984,0.74537,35.34,168.18,-1.3115,0.43717,-0.026667,-1.7487,-4.6062e-09,-0.013333,0,0,0.16667,-4.9343e-17,0,0.66667
0.48647,0.34491,2.9188,-0.23263,-8.4012,67.384,1.8107,-0.60357,-1.8091,2.4143,3.0742e-13,-0.90453,0,0,0.16667,-0,-0,0.66667
0.005725,0.5176,0.03435,0.026396,1.2516,198.8,-0.0024181,0.00080967,-1.9962,-0.0032223,5.4625e-06,-0.99811,0,0,0.16667,-0,-0,0.66667
0.62591,0.6763,3.7555,0.26446,7.5858,38.574,-2.6484,0.88281,-1.7522,-3.5312,-2.7447e-12,-0.8761,0,0,0.16667,7.8949e-16,0,0.66667
0.85898,0.92844,5.1539,0.64266,7.9869,7.6025,-8.8325,2.9442,-0.53293,-11.777,-4.3425e-09,-0.26647,0,0,0.16667,-7.8949e-16,1.6256e-16,0.66667
0.86017,0.92623,5.161,0.63934,7.8802,7.4945,-8.7991,2.933,-0.54758,-11.732,-4.5704e-09,-0.27379,0,0,0.16667,-0,-0,0.66667
0.93728,0.49991,5.6237,-0.00014202,-0.00074531,1.6425,0.0021297,-0.00070944,-2.0029,0.0028399,7.2052e-07,-1.0015,0,0,0.16667,1.8504e-16,0,0.66667
0.78384,0.16209,4.703,-0.50686,-9.2208,14.862,6.3568,-2.1189,-1.087,8.4757,-2.3179e-11,-0.54349,0,0,0.16667,-1.579e-15,0,0.66667
0.43204,0.63106,2.5922,0.19659,7.568,80.187,-1.3589,0.45298,-1.862,-1.8119,8.2767e-13,-0.93098,0,0,0.16667,-0,-0,0.66667
0.77402,0.82197,4.6441,0.48296,9.1287,16.002,-5.9811,1.9937,-1.1694,-7.9749,8.7566e-11,-0.5847,0,0,0.16667,-0,-0,0.66667
0.98356,0.79208,5.9013,0.43813,0.51761,0.72071,-6.8948,2.2983,-1.3185,-9.193,-2.9295e-08,-0.65923,0,0,0.16667,-0,-0,0.66667
0.36725,0.30389,2.2035,-0.29416,-12.07,96.45,1.7285,-0.57617,-1.6911,2.3047,-2.0937e-12,-0.84557,0,0,0.16667,3.9475e-16,0,0.66667
0.035895,0.38261,0.21537,-0.17608,-8.3439,189.86,0.10113,-0.033709,-1.8891,0.13483,-2.4204e-08,-0.94457,0,0,0.16667,-0,-0,0.66667
0.50774,0.93897,3.0464,0.65846,23.37,63.108,-5.3492,1.7831,-0.4583,-7.1323,1.2998e-12,-0.22915,0,0,0.16667,-1.579e-15,0,0.66667
0.3525,0.28517,2.115,-0.32224,-13.392,100.29,1.8174,-0.60581,-1.6303,2.4232,-3.7361e-12,-0.81513,0,0,0.16667,-0,-0,0.66667
0.17606,0.8255,1.0564,0.48825,22.545,148.93,-1.3754,0.45847,-1.1515,-1.8339,-6.0964e-10,-0.57577,0,0,0.16667,-0,-0,0.66667
0.9343,0.093621,5.6058,-0.60957,-3.5976,2.7001,9.1123,-3.0374,-0.68,12.15,-8.4231e-08,-0.34,0,0,0.16667,6.7109e-16,-1.9899e-16,0.66667
0.11962,0.29154,0.71771,-0.31269,-14.644,165.23,0.59846,-0.19949,-1.6513,0.79795,4.66e-09,-0.82564,0,0,0.16667,-0,-0,0.66667
0.65426,0.067241,3.9256,-0.64914,-17.726,34.133,6.7953,-2.2651,-0.50267,9.0604,9.7433e-13,-0.25133,0,0,0.16667,-1.579e-15,0,0.66667
0.16873,0.39863,1.0124,-0.15206,-7.0061,150.94,0.41051,-0.13684,-1.9177,0.54735,4.2424e-10,-0.95887,0,0,0.16667,-2.9606e-16,0,0.66667
0.79644,0.5388,4.7786,0.058205,0.98791,12.862,-0.7417,0.24723,-1.9895,-0.98894,8.5434e-11,-0.99474,0,0,0.16667,-0,-0,0.66667
0.25811,0.11011,1.5486,-0.58483,-26.068,125.86,2.4152,-0.80505,-0.78238,3.2202,-5.5245e-13,-0.39119,0,0,0.16667,-3.9475e-16,0,0.66667
0.69801,0.40249,4.188,-0.14627,-3.5181,26.228,1.6335,-0.54451,-1.9237,2.178,1.1807e-12,-0.96186,0,0,0.16667,-1.1842e-15,0,0.66667
0.62789,0.78602,3.7674,0.42902,12.306,38.402,-4.3101,1.4367,-1.346,-5.7468,-1.676e-12,-0.673,0,0,0.16667,-1.579e-15,0,0.66667
0.7158,0.76846,4.2948,0.40269,9.2584,23.784,-4.612,1.5373,-1.4231,-6.1493,-1.1591e-13,-0.71153,0,0,0.16667,7.8949e-16,0,0.66667
0.25083,0.34714,1.505,-0.22928,-10.192,127.68,0.92018,-0.30673,-1.8149,1.2269,5.4001e-11,-0.90746,0,0,0.16667,-0,-0,0.66667
0.50402,0.10931,3.0241,-0.58603,-20.85,63.81,4.726,-1.5753,-0.77804,6.3013,-6.7901e-13,-0.38902,0,0,0.16667,7.8949e-16,0,0.66667
0.34213,0.071777,2.0528,-0.64233,-27.123,103.28,3.5162,-1.1721,-0.53358,4.6883,-1.3605e-12,-0.26679,0,0,0.16667,-0,1.648e-16,0.66667
0.1803,0.45204,1.0818,-0.071934,-3.299,147.61,0.20751,-0.069171,-1.9801,0.27669,3.1799e-10,-0.99004,0,0,0.16667,3.9475e-16,0,0.66667
0.47551,0.66229,2.853,0.24344,8.916,69.909,-1.8521,0.61738,-1.7884,-2.4695,-3.8414e-14,-0.89422,0,0,0.16667,-0,-0,0.66667
0.91212,0.0070378,5.4727,-0.73944,-5.9519,4.2358,10.791,-3.5971,-0.055057,14.389,-5.1726e-08,-0.027528,0,0,0.16667,-0,-0,0.66667
0.56794,0.72272,3.4077,0.33408,10.707,49.861,-3.0358,1.0119,-1.6028,-4.0477,8.3489e-14,-0.80142,0,0,0.16667,-1.579e-15,0,0.66667
0.63089,0.86916,3.7853,0.55374,15.853,38.063,-5.5895,1.8632,-0.90908,-7.4527,-1.3243e-12,-0.45454,0,0,0.16667,3.9475e-16,0,0.66667
0.54925,0.27158,3.2955,-0.34263,-11.327,53.726,3.011,-1.0037,-1.5827,4.0147,-8.8818e-16,-0.79136,0,0,0.16667,7.8949e-16,0,0.66667
0.04503,0.67377,0.27018,0.26065,12.352,187.17,-0.1878,0.062598,-1.7586,-0.25039,2.6982e-08,-0.87931,0,0,0.16667,4.9343e-17,0,0.66667
0.86867,0.98423,5.212,0.72634,8.53,7.0885,-10.095,3.3651,-0.12275,-13.46,-1.4092e-09,-0.061373,0,0,0.16667,2.0574e-15,0,0.66667
0.12479,0.15424,0.74876,-0.51864,-24.349,163.77,1.0356,-0.34519,-1.0461,1.3807,-1.4543e-09,-0.52307,0,0,0.16667,-2.7139e-16,2.2029e-16,0.66667
0.73641,0.81132,4.4184,0.46697,10.093,20.921,-5.5021,1.834,-1.2262,-7.3362,1.6054e-12,-0.61309,0,0,0.16667,4.9343e-16,0,0.66667
0.45176,0.65296,2.7105,0.22943,8.644,75.468,-1.6584,0.55279,-1.8143,-2.2112,1.2057e-13,-0.90717,0,0,0.16667,9.8686e-16,0,0.66667
0.71027,0.3137,4.2616,-0.27946,-6.5064,24.451,3.1759,-1.0586,-1.7223,4.2345,-3.7903e-13,-0.86113,0,0,0.16667,-0,-0,0.66667
0.86113,0.44997,5.1668,-0.075042,-0.88763,6.4904,1.0339,-0.34464,-1.9803,1.3786,-1.7875e-09,-0.99013,0,0,0.16667,-1.579e-15,0,0.66667
0.69657,0.46552,4.1794,-0.051721,-1.248,26.418,0.57644,-0.19215,-1.9901,0.76858,-2.4242e-13,-0.99505,0,0,0.16667,-1.9737e-16,0,0.66667
0.8539,0.69472,5.1234,0.29208,3.6527,7.2839,-3.9905,1.3302,-1.6959,-5.3207,2.3862e-09,-0.84794,0,0,0.16667,-0,-0,0.66667
0.48707,0.91018,2.9224,0.61527,22.409,67.668,-4.7949,1.5983,-0.65468,-6.3932,-7.5406e-13,-0.32734,0,0,0.16667,-0,-0,0.66667
0.091798,0.17658,0.55079,-0.48514,-22.926,173.41,0.71255,-0.23752,-1.1634,0.95007,1.4427e-08,-0.58172,0,0,0.16667,-0,-0,0.66667
0.37859,0.86533,2.2715,0.54799,22.384,93.76,-3.3194,1.1065,-0.93186,-4.4259,1.4531e-12,-0.46593,0,0,0.16667,-0,-0,0.66667
0.19142,0.84459,1.1485,0.51689,23.743,144.55,-1.5831,0.52769,-1.0508,-2.1108,-3.523e-10,-0.52538,0,0,0.16667,-7.8949e-16,0,0.66667
0.76352,0.74686,4.5811,0.3703,7.2493,17.126,-4.5236,1.5079,-1.5136,-6.0315,9.1569e-11,-0.75679,0,0,0.16667,-1.7764e-15,0,0.66667
0.69537,0.86598,4.1722,0.54896,13.46,27.16,-6.1077,2.0359,-0.92726,-8.1436,-3.8267e-12,-0.46363,0,0,0.16667,-0,-0,0.66667
0.57953,0.73197,3.4772,0.34795,10.933,47.542,-3.2264,1.0755,-1.57,-4.3019,-1.1298e-12,-0.78499,0,0,0.16667,-0,-0,0.66667
0.76884,0.2495,4.613,-0.37575,-7.2105,16.458,4.6223,-1.5408,-1.4991,6.1631,-1.042e-10,-0.74953,0,0,0.16667,5.4278e-16,0,0.66667
0.36936,0.33561,2.2162,-0.24659,-10.093,95.881,1.4573,-0.48576,-1.7829,1.943,-2.4563e-12,-0.89144,0,0,0.16667,-0,-0,0.66667
0.36918,0.26958,2.2151,-0.34564,-14.171,95.987,2.0416,-0.68054,-1.574,2.7221,-2.6874e-12,-0.787,0,0,0.16667,-0,-0,0.66667
0.70021,0.80624,4.2013,0.45936,11.071,26.239,-5.1463,1.7154,-1.25,-6.8618,-4.8379e-12,-0.62498,0,0,0.16667,1.1842e-15,0,0.66667
0.4523,0.48638,2.7138,-0.020432,-0.7682,75.276,0.14787,-0.049289,-1.9993,0.19716,5.658e-14,-0.99967,0,0,0.16667,7.8949e-16,0,0.66667
0.81192,0.41743,4.8715,-0.12386,-1.9558,11.181,1.609,-0.53634,-1.9466,2.1454,-4.8721e-10,-0.97328,0,0,0.16667,-0,-0,0.66667
0.15461,0.13783,0.92767,-0.54326,-25.302,155.13,1.3439,-0.44796,-0.951,1.7919,2.4581e-09,-0.4755,0,0,0.16667,-0,-6.8577e-17,0.66667
0.58986,0.062843,3.5391,-0.65574,-20.434,45.986,6.1886,-2.0629,-0.47198,8.2515,1.0973e-12,-0.23599,0,0,0.16667,-1.579e-15,0,0.66667
0.37357,0.91616,2.2414,0.62424,25.67,95.13,-3.7311,1.2437,-0.61513,-4.9748,1.8461e-12,-0.30756,0,0,0.16667,-0,-1.7096e-16,0.66667
0.24708,0.90333,1.4825,0.605,27.144,128.93,-2.3917,0.79724,-0.69932,-3.1889,1.3984e-12,-0.34966,0,0,0.16667,-9.8686e-17,0,0.66667
0.25433,0.54885,1.526,0.073281,3.2476,126.67,-0.2982,0.099401,-1.98,-0.3976,-1.8471e-11,-0.98998,0,0,0.16667,-0,-0,0.66667
0.74375,0.974,4.4625,0.711,15.208,20.477,-8.4608,2.8203,-0.20193,-11.281,1.0125e-12,-0.10096,0,0,0.16667,-1.579e-15,0,0.66667
0.32886,0.76158,1.9732,0.39237,16.63,106.54,-2.0646,0.68819,-1.4536,-2.7528,4.8539e-12,-0.72679,0,0,0.16667,-0,-0,0.66667
0.22792,0.93173,1.3675,0.6476,29.374,134.31,-2.3616,0.78719,-0.50808,-3.1488,-2.4327e-11,-0.25404,0,0,0.16667,-6.242e-17,0,0.66667
0.90536,0.10871,5.4321,-0.58694,-4.9477,4.1345,8.5022,-2.8341,-0.77587,11.336,-1.0601e-08,-0.38794,0,0,0.16667,-0,-0,0.66667
0.41629,0.82019,2.4978,0.48029,18.893,84.251,-3.199,1.0663,-1.179,-4.2654,1.9547e-12,-0.58948,0,0,0.16667,-0,-0,0.66667
0.5344,0.68411,3.2064,0.27616,9.331,56.811,-2.3613,0.7871,-1.7294,-3.1484,8.5709e-14,-0.86469,0,0,0.16667,1.9737e-16,0,0.66667
0.37206,0.68099,2.2324,0.27149,11.09,95.202,-1.6162,0.53872,-1.7381,-2.1549,2.2223e-12,-0.86905,0,0,0.16667,-0,-0,0.66667
0.23386,0.78922,1.4031,0.43383,19.516,132.51,-1.6232,0.54108,-1.3322,-2.1643,-9.3527e-11,-0.66612,0,0,0.16667,-0,-0,0.66667
0.10234,0.046824,0.61406,-0.67976,-32.216,170.38,1.1131,-0.37104,-0.35553,1.4841,8.9043e-09,-0.17777,0,0,0.16667,-0,-0,0.66667
0.055182,0.11138,0.33109,-0.58293,-27.761,184.2,0.51467,-0.17156,-0.79031,0.68623,-8.3928e-08,-0.39515,0,0,0.16667,-0,-0,0.66667
0.87287,0.84851,5.2372,0.52276,5.8176,6.174,-7.3009,2.4336,-1.0292,-9.7345,1.8981e-09,-0.51459,0,0,0.16667,-0,-0,0.66667
0.17297,0.49719,1.0378,-0.0042215,-0.1941,149.71,0.011683,-0.0038943,-2.0017,0.015577,6.1552e-10,-1.0009,0,0,0.16667,-2.4672e-16,0,0.66667
0.53895,0.14865,3.2337,-0.52702,-17.793,56.129,4.5446,-1.5149,-1.0113,6.0595,-5.1914e-13,-0.50567,0,0,0.16667,3.9475e-16,0,0.66667
0.97872,0.76989,5.8723,0.40483,0.65072,0.73803,-6.3395,2.1132,-1.4161,-8.4527,-8.9478e-08,-0.70805,0,0,0.16667,-0,-0,0.66667
0.16733,0.61453,1.004,0.1718,7.9205,151.35,-0.45995,0.15332,-1.8942,-0.61327,-1.0994e-09,-0.94711,0,0,0.16667,-0,-0,0.66667
0.59576,0.51283,3.5746,0.019248,0.58475,44.157,-0.18348,0.061158,-1.9988,-0.24463,7.8271e-13,-0.9994,0,0,0.16667,-3.158e-15,0,0.66667
0.75137,0.4879,4.5082,-0.018156,-0.36889,18.442,0.21826,-0.072755,-1.9994,0.29102,-9.0764e-13,-0.99968,0,0,0.16667,-1.579e-15,0,0.66667
0.079887,0.045654,0.47932,-0.68152,-32.435,176.96,0.87111,-0.29037,-0.34878,1.1615,7.8275e-08,-0.17439,0,0,0.16667,-0,-0,0.66667
0.45273,0.53329,2.7164,0.049934,1.8766,75.177,-0.36171,0.12057,-1.9935,-0.48228,8.5587e-13,-0.99676,0,0,0.16667,-1.579e-15,0,0.66667
0.79183,0.43959,4.751,-0.090617,-1.5704,13.401,1.148,-0.38268,-1.9709,1.5307,-1.4344e-10,-0.98545,0,0,0.16667,-0,-0,0.66667
0.72178,0.43784,4.3307,-0.093233,-2.0902,22.607,1.0767,-0.3589,-1.9703,1.4356,-3.9279e-12,-0.98514,0,0,0.16667,-0,-0,0.66667
0.67856,0.73304,4.0714,0.34957,8.8936,29.521,-3.7953,1.2651,-1.564,-5.0603,-5.3046e-12,-0.78202,0,0,0.16667,-0,-0,0.66667
0.76669,0.72132,4.6001,0.33197,6.4124,16.666,-4.0723,1.3574,-1.61,-5.4298,1.1738e-10,-0.80499,0,0,0.16667,3.158e-15,0,0.66667
0.5821,0.8082,3.4926,0.4623,14.504,47.174,-4.3057,1.4352,-1.2401,-5.741,-8.562e-13,-0.62007,0,0,0.16667,1.9737e-16,0,0.66667
0.3749,0.9999,2.2494,0.74985,30.934,94.963,-4.4979,1.4993,-0.003793,-5.9972,1.3358e-12,-0.0018965,0,0,0.16667,-2.4884e-15,2.5159e-18,0.66667
0.44709,0.66049,2.6826,0.24073,9.1195,76.585,-1.7221,0.57403,-1.7935,-2.2961,6.557e-13,-0.89673,0,0,0.16667,-0,-0,0.66667
0.28043,0.33445,1.6826,-0.24833,-10.853,119.52,1.1142,-0.3714,-1.7818,1.4856,5.7763e-12,-0.89091,0,0,0.16667,-0,-0,0.66667
0.33926,0.57442,2.0355,0.11163,4.6781,103.67,-0.60596,0.20199,-1.9548,-0.80795,2.0521e-12,-0.97738,0,0,0.16667,-0,-0,0.66667
0.88017,0.72153,5.281,0.3323,3.4379,5.2483,-4.6796,1.5599,-1.6073,-6.2395,5.3623e-09,-0.80367,0,0,0.16667,-0,-0,0.66667
0.53635,0.94941,3.2181,0.67411,22.974,56.934,-5.785,1.9283,-0.38316,-7.7133,-5.9286e-13,-0.19158,0,0,0.16667,7.8949e-16,0,0.66667
0.073744,0.57596,0.44246,0.11395,5.3748,178.68,-0.13445,0.044815,-1.9529,-0.17926,-3.6741e-08,-0.97644,0,0,0.16667,-0,-0,0.66667
0.67227,0.53905,4.0336,0.058574,1.5069,30.346,-0.63004,0.21001,-1.9893,-0.84005,-1.1128e-12,-0.99466,0,0,0.16667,-0,-0,0.66667
0.72976,0.45935,4.3785,-0.060976,-1.3328,21.443,0.71196,-0.23732,-1.986,0.94929,-6.4996e-12,-0.993,0,0,0.16667,-7.8949e-16,0,0.66667
0.39561,0.54769,2.3737,0.071529,2.8547,89.151,-0.45276,0.15092,-1.9807,-0.60368,1.5318e-13,-0.99033,0,0,0.16667,-0,-0,0.66667
0.34753,0.54108,2.0852,0.061626,2.565,101.49,-0.34267,0.11422,-1.986,-0.4569,6.7751e-14,-0.99298,0,0,0.16667,-0,-0,0.66667
0.10753,0.50883,0.6452,0.013243,0.6206,168.74,-0.022785,0.0075951,-1.9999,-0.030381,-3.5655e-08,-0.99993,0,0,0.16667,-0,-0,0.66667
0.54663,0.89977,3.2798,0.59965,20.057,54.629,-5.2446,1.7482,-0.72326,-6.9928,-5.8398e-13,-0.36163,0,0,0.16667,3.9475e-16,-1.2977e-16,0.66667
0.26282,0.012239,1.5769,-0.73164,-32.672,124.69,3.0767,-1.0256,-0.096454,4.1022,-7.0628e-12,-0.048227,0,0,0.16667,-7.8949e-16,-1.8811e-16,0.66667
0.91802,0.83585,5.5081,0.50377,3.6411,3.201,-7.3995,2.4665,-1.0973,-9.866,1.2838e-08,-0.54864,0,0,0.16667,7.8949e-16,0,0.66667
0.85065,0.4232,5.1039,-0.1152,-1.4628,7.4041,1.5679,-0.52265,-1.9513,2.0906,-5.1592e-10,-0.97566,0,0,0.16667,-1.579e-15,0,0.66667
0.65361,0.49038,3.9216,-0.014427,-0.38823,33.511,0.15087,-0.05029,-1.9992,0.20116,2.8511e-13,-0.99962,0,0,0.16667,-7.8949e-16,0,0.66667
0.87584,0.21553,5.255,-0.42671,-4.6021,5.7368,5.9797,-1.9932,-1.3545,7.9729,-4.345e-09,-0.67723,0,0,0.16667,2.3685e-15,0,0.66667
0.96891,0.19836,5.8135,-0.45247,-1.1616,1.0687,7.0144,-2.3381,-1.2735,9.3525,1.5414e-07,-0.63676,0,0,0.16667,1.579e-15,0,0.66667
0.59079,0.73037,3.5447,0.34556,10.639,45.315,-3.2665,1.0888,-1.5751,-4.3553,-1.275e-12,-0.78756,0,0,0.16667,-0,-0,0.66667
0.98013,0.033586,5.8808,-0.69962,-1.2682,1.5612,10.972,-3.6572,-0.25995,14.629,8.2602e-06,-0.12997,0,0,0.16667,-0,-0,0.66667
0.54926,0.30971,3.2956,-0.28544,-9.4253,53.671,2.5085,-0.83617,-1.7113,3.3447,-2.1005e-13,-0.85566,0,0,0.16667,1.1842e-15,0,0.66667
0.2936,0.073799,1.7616,-0.6393,-27.939,116.2,3.0031,-1.001,-0.54639,4.0042,-4.1933e-12,-0.2732,0,0,0.16667,7.8949e-16,8.0447e-17,0.66667
0.49124,0.8718,2.9474,0.55769,20.164,66.636,-4.3834,1.4611,-0.89372,-5.8445,4.1078e-13,-0.44686,0,0,0.16667,-1.9737e-16,0,0.66667
0.40509,0.61358,2.4305,0.17038,6.7419,86.805,-1.1043,0.36809,-1.8975,-1.4724,1.1503e-12,-0.94874,0,0,0.16667,-0,-0,0.66667
0.59978,0.57004,3.5987,0.10506,3.1688,43.397,-1.0082,0.33608,-1.9598,-1.3443,-4.5208e-13,-0.97991,0,0,0.16667,-1.579e-15,0,0.66667
0.4807,0.31034,2.8842,-0.28449,-10.358,68.74,2.1881,-0.72936,-1.7128,2.9174,-2.7423e-13,-0.85638,0,0,0.16667,1.9737e-16,0,0.66667
0.2867,0.94749,1.7202,0.67124,29.493,118.1,-3.0791,1.0264,-0.39696,-4.1055,-4.8872e-13,-0.19848,0,0,0.16667,-0,-0,0.66667
0.62519,0.16494,3.7511,-0.50259,-14.533,39.011,5.0274,-1.6758,-1.1035,6.7032,1.4477e-12,-0.55174,0,0,0.16667,-0,-0,0.66667
0.8054,0.1257,4.8324,-0.56145,-9.3242,12.53,7.2351,-2.4117,-0.87924,9.6468,1.5034e-10,-0.43962,0,0,0.16667,-0,-0,0.66667
0.078748,0.48361,0.47249,-0.024585,-1.1584,177.2,0.030976,-0.010325,-1.9988,0.041301,3.4254e-08,-0.9994,0,0,0.16667,-9.8686e-17,0,0.66667
0.42362,0.43576,2.5417,-0.096361,-3.74,82.204,0.65313,-0.21771,-1.9686,0.87085,1.3867e-13,-0.98428,0,0,0.16667,-9.8686e-17,0,0.66667
0.645,0.31715,3.87,-0.27427,-7.5495,35.147,2.8305,-0.94351,-1.7324,3.774,3.3769e-12,-0.8662,0,0,0.16667,-0,-0,0.66667
0.0072838,0.8853,0.043703,0.57796,27.603,198.35,-0.067356,0.022451,-0.81099,-0.089808,-1.1135e-06,-0.4055,0,0,0.16667,-0,-0,0.66667
0.87569,0.96509,5.2541,0.69764,7.7532,6.4593,-9.7747,3.2582,-0.2714,-13.033,-1.4403e-08,-0.1357,0,0,0.16667,2.3685e-15,0,0.66667
0.69402,0.26173,4.1641,-0.3574,-8.7311,27.051,3.9687,-1.3229,-1.5445,5.2916,4.0621e-12,-0.77223,0,0,0.16667,1.579e-15,0,0.66667
0.74977,0.22196,4.4986,-0.41706,-8.5972,19.004,5.0032,-1.6677,-1.3838,6.6709,-3.1137e-11,-0.69192,0,0,0.16667,-3.158e-15,0,0.66667
0.5233,0.5541,3.1398,0.081157,2.782,59.109,-0.67951,0.2265,-1.9754,-0.90601,3.7947e-13,-0.9877,0,0,0.16667,-7.8949e-16,0,0.66667
0.97547,0.29674,5.8528,-0.30489,-0.5608,0.62225,4.7586,-1.5862,-1.668,6.3448,2.568e-08,-0.834,0,0,0.16667,-0,-0,0.66667
0.15309,0.88948,0.91852,0.58421,27.251,155.59,-1.431,0.47699,-0.78597,-1.9079,-7.2881e-12,-0.39298,0,0,0.16667,1.9737e-16,4.2353e-17,0.66667
0.95582,0.484,5.7349,-0.023994,-0.085544,0.93096,0.36695,-0.12232,-1.9977,0.48926,-8.7183e-07,-0.99883,0,0,0.16667,1.579e-15,0,0.66667
0.9956,0.87184,5.9736,0.55776,0.089742,0.86893,-8.8848,2.9616,-0.89399,-11.846,3.8046e-07,-0.44699,0,0,0.16667,3.9475e-16,0,0.66667
0.078553,0.7022,0.47132,0.30331,14.321,177.27,-0.38121,0.12707,-1.674,-0.50828,-5.9734e-10,-0.83699,0,0,0.16667,-0,-0,0.66667
0.33688,0.25567,2.0213,-0.36649,-15.432,104.4,1.9755,-0.65848,-1.5216,2.6339,-5.7324e-12,-0.76081,0,0,0.16667,7.8949e-16,0,0.66667
0.99274,0.98649,5.9565,0.72974,0.4838,1.4866,-11.591,3.8637,-0.10515,-15.455,1.169e-05,-0.052573,0,0,0.16667,-0,-0,0.66667
0.42676,0.4349,2.5606,-0.097643,-3.7773,81.438,0.66672,-0.22224,-1.9662,0.88896,-2.8366e-13,-0.98308,0,0,0.16667,2.9606e-16,0,0.66667
0.82335,0.29932,4.9401,-0.30102,-4.5066,10.159,3.9655,-1.3218,-1.6768,5.2873,-1.0007e-09,-0.83838,0,0,0.16667,-0,-0,0.66667
0.28812,0.71248,1.7287,0.31872,13.876,117.45,-1.4693,0.48975,-1.6379,-1.959,-1.5236e-12,-0.81896,0,0,0.16667,-0,-0,0.66667
0.51209,0.28474,3.0726,-0.32289,-11.281,61.698,2.6456,-0.88186,-1.6297,3.5274,-3.9968e-14,-0.81484,0,0,0.16667,-0,-0,0.66667
0.4661,0.86649,2.7966,0.54973,20.506,72.397,-4.0997,1.3666,-0.92559,-5.4663,1.4211e-13,-0.4628,0,0,0.16667,7.8949e-16,0,0.66667
0.33294,0.43147,1.9977,-0.1028,-4.3286,105.33,0.54763,-0.18254,-1.962,0.73018,-2.3358e-12,-0.98098,0,0,0.16667,3.9475e-16,0,0.66667
0.52708,0.20816,3.1625,-0.43776,-15.007,58.547,3.6918,-1.2306,-1.3179,4.9224,-7.3719e-14,-0.65895,0,0,0.16667,-7.8949e-16,0,0.66667
0.080511,0.20781,0.48307,-0.43828,-20.733,176.72,0.56458,-0.18819,-1.317,0.75278,1.9088e-08,-0.65852,0,0,0.16667,9.8686e-17,0,0.66667
0.2212,0.53078,1.3272,0.046176,2.0812,135.96,-0.16342,0.054474,-1.9939,-0.2179,-6.7954e-11,-0.99693,0,0,0.16667,-3.7007e-16,0,0.66667
0.33596,0.6173,2.0158,0.17594,7.3951,104.56,-0.94576,0.31525,-1.8888,-1.261,3.3347e-12,-0.94441,0,0,0.16667,-5.9212e-16,0,0.66667
0.96887,0.9425,5.8132,0.66376,1.8685,1.679,-10.29,3.4298,-0.43561,-13.719,-8.9568e-07,-0.2178,0,0,0.16667,-0,-0,0.66667
0.44075,0.56262,2.6445,0.09393,3.5788,78.046,-0.6624,0.2208,-1.9698,-0.8832,6.1451e-13,-0.98488,0,0,0.16667,-0,-0,0.66667
0.96131,0.79919,5.7679,0.44878,1.4664,1.2706,-6.9027,2.3009,-1.2824,-9.2036,-8.6063e-08,-0.6412,0,0,0.16667,-0,-0,0.66667
0.57362,0.43295,3.4417,-0.10057,-3.1814,48.557,0.92303,-0.30768,-1.9639,1.2307,-5.4584e-13,-0.98194,0,0,0.16667,3.9475e-16,0,0.66667
0.046616,0.072969,0.27969,-0.64055,-30.578,186.74,0.47775,-0.15925,-0.54254,0.637,2.7907e-07,-0.27127,0,0,0.16667,-0,-0,0.66667
0.65871,0.64037,3.9523,0.21056,5.6083,32.708,-2.2192,0.73973,-1.8422,-2.9589,-3.8405e-12,-0.9211,0,0,0.16667,-0,-0,0.66667
0.014774,0.088352,0.088643,-0.61747,-29.516,196.13,0.14596,-0.048652,-0.64588,0.19461,1.282e-06,-0.32294,0,0,0.16667,6.1679e-18,0,0.66667
0.74247,0.058514,4.4548,-0.66223,-14.179,20.518,7.867,-2.6223,-0.44013,10.489,-1.72e-12,-0.22006,0,0,0.16667,4.3963e-16,0,0.66667
0.4207,0.057161,2.5242,-0.66426,-26.158,83.404,4.4713,-1.4904,-0.43246,5.9617,-2.8999e-13,-0.21623,0,0,0.16667,3.9475e-16,1.1184e-16,0.66667
0.53388,0.85369,3.2033,0.53053,18.052,57.213,-4.5319,1.5106,-0.9992,-6.0425,-2.4425e-13,-0.4996,0,0,0.16667,-0,-0,0.66667
0.78883,0.89574,4.733,0.59361,10.634,14.475,-7.4922,2.4974,-0.74575,-9.9896,3.0721e-11,-0.37287,0,0,0.16667,-0,-0,0.66667
0.9056,0.80456,5.4336,0.45685,3.7773,3.7924,-6.6195,2.2065,-1.2592,-8.826,1.5532e-08,-0.62962,0,0,0.16667,-7.8949e-16,0,0.66667
0.98688,0.4475,5.9213,-0.078753,-0.053123,0.17721,1.2435,-0.4145,-1.978,1.658,5.2388e-07,-0.98899,0,0,0.16667,-0,-0,0.66667
0.80208,0.46438,4.8125,-0.053425,-0.88365,12.226,0.68562,-0.22854,-1.9895,0.91416,-9.0822e-12,-0.99476,0,0,0.16667,-3.9475e-16,0,0.66667
0.0025426,0.083103,0.015256,-0.62534,-29.905,199.75,0.025437,-0.0084799,-0.60954,0.033915,-1.5122e-06,-0.30477,0,0,0.16667,-0,-8.8094e-16,0.66667
0.60009,0.70987,3.6005,0.31481,9.5181,43.478,-3.0226,1.0075,-1.6465,-4.0301,-1.3067e-12,-0.82325,0,0,0.16667,-7.8949e-16,0,0.66667
0.28885,0.91693,1.7331,0.62539,27.403,117.47,-2.8903,0.96342,-0.60801,-3.8537,1.189e-12,-0.30401,0,0,0.16667,7.8949e-16,0,0.66667
0.70972,0.14026,4.2583,-0.53962,-12.703,24.939,6.1276,-2.0425,-0.9632,8.1701,2.4869e-12,-0.4816,0,0,0.16667,1.579e-15,0,0.66667
0.30554,0.87356,1.8333,0.56034,24.241,112.9,-2.7393,0.91311,-0.88353,-3.6524,2.9017e-12,-0.44177,0,0,0.16667,4.4409e-16,0,0.66667
0.55587,0.94912,3.3352,0.67368,22.269,52.847,-5.9916,1.9972,-0.38495,-7.9889,-1.7986e-13,-0.19248,0,0,0.16667,-0,-0,0.66667
0.91807,0.86761,5.5084,0.55142,4.0117,3.3213,-8.0999,2.7,-0.91858,-10.8,3.6986e-08,-0.45929,0,0,0.16667,-0,-0,0.66667
0.24787,0.50561,1.4872,0.0084075,0.37386,128.47,-0.033344,0.011115,-2.0005,-0.044458,5.7908e-12,-1.0002,0,0,0.16667,-0,-0,0.66667
0.11184,0.14628,0.67105,-0.53058,-24.995,167.56,0.94945,-0.31648,-0.99911,1.2659,1.0579e-08,-0.49955,0,0,0.16667,-9.8686e-17,0,0.66667
0.51354,0.80635,3.0812,0.45953,16.073,61.526,-3.7758,1.2586,-1.2498,-5.0344,-5.8376e-13,-0.62492,0,0,0.16667,6.9882e-16,0,0.66667
0.91372,0.69013,5.4823,0.2852,2.1182,3.0141,-4.1695,1.3898,-1.7104,-5.5593,2.2321e-10,-0.85522,0,0,0.16667,-0,-0,0.66667
0.17924,0.021707,1.0754,-0.71744,-33.295,148.15,2.0575,-0.68583,-0.16861,2.7433,4.0459e-10,-0.084305,0,0,0.16667,-0,-0,0.66667
0.25588,0.41531,1.5353,-0.12704,-5.6267,126.25,0.52011,-0.17337,-1.9416,0.69348,2.5487e-11,-0.97078,0,0,0.16667,-0,-0,0.66667
0.033996,0.77354,0.20397,0.4103,19.504,190.44,-0.22318,0.074393,-1.4015,-0.29757,8.5549e-08,-0.70077,0,0,0.16667,-0,-0,0.66667
0.015372,0.36256,0.09223,-0.20617,-9.7824,195.94,0.050706,-0.016902,-1.8501,0.067608,-1.013e-09,-0.92507,0,0,0.16667,-0,-0,0.66667
0.54222,0.41705,3.2533,-0.12443,-4.1459,55.058,1.0795,-0.35982,-1.944,1.4393,3.3751e-14,-0.97202,0,0,0.16667,-0,-0,0.66667
0.85536,0.16426,5.1322,-0.50362,-6.3259,7.5426,6.8924,-2.2975,-1.0978,9.1898,-1.5104e-09,-0.54888,0,0,0.16667,-1.579e-15,0,0.66667
0.44652,0.60834,2.6791,0.16251,6.155,76.684,-1.1611,0.38702,-1.9046,-1.5481,1.0636e-13,-0.95231,0,0,0.16667,-0,-0,0.66667
0.23564,0.36975,1.4138,-0.19538,-8.7511,131.91,0.73661,-0.24554,-1.8655,0.98214,1.0239e-10,-0.93277,0,0,0.16667,1.9737e-16,0,0.66667
0.93653,0.16722,5.6192,-0.49918,-2.7826,2.2973,7.4799,-2.4933,-1.1149,9.9732,-3.4092e-08,-0.55745,0,0,0.16667,-1.579e-15,0,0.66667
0.61921,0.32406,3.7153,-0.26391,-7.6756,39.812,2.6146,-0.87153,-1.7511,3.4861,2.6656e-12,-0.87557,0,0,0.16667,-1.579e-15,0,0.66667
0.86458,0.36069,5.1875,-0.20897,-2.4203,6.2951,2.8907,-0.96356,-1.8435,3.8542,-3.168e-09,-0.92177,0,0,0.16667,-0,-0,0.66667
0.12811,0.42107,0.76868,-0.11839,-5.522,162.72,0.24267,-0.080891,-1.9497,0.32356,2.2619e-09,-0.97484,0,0,0.16667,1.9737e-16,0,0.66667
0.44124,0.88525,2.6474,0.57787,22.201,78.313,-4.0797,1.3599,-0.81212,-5.4396,7.7183e-13,-0.40606,0,0,0.16667,-7.8949e-16,0,0.66667
0.85755,0.79179,5.1453,0.43768,5.3905,7.2152,-6.0054,2.0018,-1.3192,-8.0071,3.18e-09,-0.65962,0,0,0.16667,-0,-0,0.66667
0.89819,0.44224,5.3892,-0.086644,-0.75384,3.767,1.2452,-0.41506,-1.9726,1.6602,-1.4047e-08,-0.9863,0,0,0.16667,-0,-0,0.66667
0.87726,0.8731,5.2636,0.55965,6.0448,5.9369,-7.8554,2.6185,-0.88761,-10.474,2.0027e-08,-0.44381,0,0,0.16667,-1.9737e-16,0,0.66667
0.62547,0.15694,3.7528,-0.51459,-14.878,38.98,5.1498,-1.7166,-1.0611,6.8664,2.105e-12,-0.53054,0,0,0.16667,-1.579e-15,0,0.66667
0.75811,0.024344,4.5487,-0.71348,-14.525,18.577,8.6544,-2.8848,-0.189,11.539,-4.5439e-12,-0.094501,0,0,0.16667,-0,-0,0.66667
0.6755,0.68234,4.053,0.27351,6.9997,29.939,-2.9561,0.98538,-1.7341,-3.9415,-5.1175e-12,-0.86704,0,0,0.16667,3.9475e-16,0,0.66667
0.84516,0.259,5.071,-0.3615,-4.7956,8.1589,4.8884,-1.6295,-1.5361,6.5179,-2.2074e-09,-0.76804,0,0,0.16667,-0,-0,0.66667
0.63245,0.49056,3.7947,-0.014166,-0.39973,37.265,0.14335,-0.047783,-1.998,0.19113,3.8318e-13,-0.99901,0,0,0.16667,7.8949e-16,0,0.66667
0.17189,0.57356,1.0313,0.11033,5.0766,150.03,-0.30344,0.10115,-1.9582,-0.40459,-7.1953e-10,-0.97912,0,0,0.16667,-0,-0,0.66667
0.65052,0.90597,3.9031,0.60895,16.739,34.691,-6.3382,2.1127,-0.68183,-8.4509,-1.3389e-12,-0.34092,0,0,0.16667,2.4672e-16,0,0.66667
0.45534,0.8052,2.732,0.4578,17.251,74.809,-3.3353,1.1118,-1.2553,-4.447,5.4379e-13,-0.62764,0,0,0.16667,-0,-0,0.66667
0.058851,0.69431,0.3531,0.29147,13.798,183.08,-0.27445,0.091482,-1.6978,-0.36593,2.082e-08,-0.84889,0,0,0.16667,-0,-0,0.66667
0.53586,0.73053,3.2152,0.3458,11.673,56.559,-2.9648,0.98828,-1.5739,-3.9531,-2.5757e-14,-0.78694,0,0,0.16667,-0,-0,0.66667
0.43929,0.37989,2.6358,-0.18017,-6.8801,78.426,1.2663,-0.42211,-1.8856,1.6884,-2.0328e-13,-0.94279,0,0,0.16667,-0,-0,0.66667
0.87473,0.45892,5.2484,-0.061626,-0.65899,5.4047,0.86249,-0.2875,-1.9879,1.15,-3.1747e-09,-0.99396,0,0,0.16667,-0,-0,0.66667
0.66072,0.46659,3.9643,-0.050122,-1.3264,32.29,0.52986,-0.17662,-1.9913,0.70649,1.2133e-12,-0.99566,0,0,0.16667,-1.1842e-15,0,0.66667
0.26079,0.53682,1.5647,0.055233,2.4388,124.88,-0.23047,0.076822,-1.9887,-0.30729,-7.7757e-12,-0.99437,0,0,0.16667,-0,-0,0.66667
0.21677,0.18658,1.3006,-0.47012,-21.339,137.33,1.6305,-0.5435,-1.2158,2.174,2.3589e-10,-0.60788,0,0,0.16667,4.1942e-16,0,0.66667
0.097323,0.65904,0.58394,0.23855,11.217,171.75,-0.37147,0.12382,-1.7981,-0.49529,-1.8899e-09,-0.89907,0,0,0.16667,-0,-0,0.66667
0.46914,0.55838,2.8149,0.087563,3.2276,71.321,-0.65727,0.21909,-1.9748,-0.87637,6.5431e-13,-0.98738,0,0,0.16667,3.9475e-16,0,0.66667
0.3498,0.79795,2.0988,0.44692,18.659,101.08,-2.5013,0.83378,-1.2884,-3.3351,3.7028e-12,-0.64422,0,0,0.16667,-4.1425e-16,0,0.66667
0.57735,0.45172,3.4641,-0.07242,-2.2756,47.799,0.66898,-0.22299,-1.9822,0.89198,-2.3936e-13,-0.9911,0,0,0.16667,-0,-0,0.66667
0.056942,0.55061,0.34165,0.075913,3.5882,183.64,-0.069162,0.023054,-1.9783,-0.092216,-3.6033e-08,-0.98915,0,0,0.16667,-0,-0,0.66667
0.24992,0.80474,1.4995,0.45711,20.403,128.04,-1.8278,0.60928,-1.2588,-2.4371,-3.7022e-11,-0.62941,0,0,0.16667,1.9737e-16,0,0.66667
0.51229,0.63404,3.0738,0.20106,7.0091,61.567,-1.648,0.54933,-1.856,-2.1973,-8.7375e-14,-0.928,0,0,0.16667,-0,-0,0.66667
0.37596,0.96171,2.2557,0.69256,28.485,94.611,-4.166,1.3887,-0.29582,-5.5547,1.446e-12,-0.14791,0,0,0.16667,-0,-0,0.66667
0.6269,0.60129,3.7614,0.15194,4.3418,38.314,-1.524,0.508,-1.9185,-2.032,-2.4177e-12,-0.95925,0,0,0.16667,-0,-0,0.66667
0.37322,0.20451,2.2393,-0.44324,-18.144,95.027,2.6468,-0.88226,-1.3017,3.5291,-2.2977e-12,-0.65085,0,0,0.16667,7.8949e-16,0,0.66667
0.46031,0.28821,2.7619,-0.31768,-11.866,73.504,2.3397,-0.7799,-1.6402,3.1196,-4.9649e-13,-0.82009,0,0,0.16667,-0,-0,0.66667
0.23422,0.70824,1.4053,0.31236,14.02,132.35,-1.1706,0.39019,-1.6545,-1.5608,-1.1569e-10,-0.82727,0,0,0.16667,1.9737e-16,0,0.66667
0.29959,0.60307,1.7975,0.15461,6.6688,114.27,-0.74111,0.24704,-1.915,-0.98814,8.738e-13,-0.95749,0,0,0.16667,-7.8949e-16,0,0.66667
0.11528,0.094586,0.69171,-0.60812,-28.68,166.58,1.1217,-0.3739,-0.68527,1.4956,-2.049e-08,-0.34264,0,0,0.16667,-0,-0,0.66667
0.77244,0.28268,4.6346,-0.32598,-6.1568,15.936,4.0288,-1.3429,-1.6221,5.3717,-1.5358e-10,-0.81104,0,0,0.16667,-0,-0,0.66667
0.79388,0.78427,4.7633,0.4264,7.3994,13.532,-5.4162,1.8054,-1.3542,-7.2216,3.0503e-10,-0.67711,0,0,0.16667,-0,-0,0.66667
0.043936,0.23636,0.26362,-0.39546,-18.779,187.5,0.278,-0.092666,-1.4436,0.37066,-4.998e-08,-0.72179,0,0,0.16667,4.9343e-17,0,0.66667
0.16096,0.63162,0.96577,0.19743,9.1237,153.19,-0.50844,0.16948,-1.8609,-0.67793,-1.4794e-09,-0.93045,0,0,0.16667,-0,-0,0.66667
0.80286,0.88437,4.8171,0.57656,9.6986,12.845,-7.4064,2.4688,-0.81694,-9.8751,-3.3256e-11,-0.40847,0,0,0.16667,-0,-0,0.66667
0.91048,0.99515,5.4629,0.74272,6.089,4.3395,-10.82,3.6066,-0.038522,-14.426,9.2059e-08,-0.019261,0,0,0.16667,-7.8949e-16,0,0.66667
0.36919,0.63703,2.2151,0.20554,8.4102,95.907,-1.2141,0.40471,-1.8485,-1.6188,2.7222e-12,-0.92426,0,0,0.16667,-0,-0,0.66667
0.67531,0.033632,4.0519,-0.69955,-18.212,30.717,7.5586,-2.5195,-0.26061,10.078,5.5245e-13,-0.1303,0,0,0.16667,-0,-0,0.66667
0.18999,0.32843,1.14,-0.25735,-11.775,144.86,0.78232,-0.26077,-1.7643,1.0431,6.2836e-10,-0.88216,0,0,0.16667,-0,-0,0.66667
0.87123,0.85711,5.2274,0.53567,6.0423,6.3316,-7.4671,2.489,-0.97904,-9.9561,1.726e-09,-0.48952,0,0,0.16667,1.579e-15,0,0.66667
0.82471,0.78802,4.9482,0.43203,6.4647,10.233,-5.7008,1.9003,-1.3363,-7.601,9.7944e-10,-0.66814,0,0,0.16667,-0,-0,0.66667
0.25001,0.37891,1.5001,-0.18163,-8.0736,127.89,0.72656,-0.24219,-1.885,0.96875,4.2706e-11,-0.94252,0,0,0.16667,-0,-0,0.66667
0.59285,0.94613,3.5571,0.66919,20.752,45.432,-6.3477,2.1159,-0.40884,-8.4636,-5.0004e-13,-0.20442,0,0,0.16667,-0,-0,0.66667
0.73576,0.090402,4.4146,-0.6144,-13.408,21.324,7.2328,-2.4109,-0.65933,9.6437,-1.7253e-12,-0.32966,0,0,0.16667,1.1842e-15,0,0.66667
0.88384,0.16515,5.3031,-0.50228,-5.114,5.3173,7.103,-2.3677,-1.1018,9.4706,-8.9776e-10,-0.5509,0,0,0.16667,-0,-0,0.66667
0.46773,0.82289,2.8064,0.48433,17.997,71.934,-3.6246,1.2082,-1.1668,-4.8327,3.0265e-13,-0.58341,0,0,0.16667,-7.8949e-16,0,0.66667
0.13462,0.68661,0.80772,0.27991,13.052,160.85,-0.60291,0.20097,-1.7216,-0.80388,-3.7553e-09,-0.86078,0,0,0.16667,2.2204e-16,0,0.66667
0.1094,0.23772,0.65637,-0.39342,-18.492,168.24,0.68862,-0.22954,-1.4511,0.91815,7.7792e-09,-0.72556,0,0,0.16667,-0,-0,0.66667
0.52968,0.01156,3.1781,-0.73266,-25.282,58.475,6.2092,-2.0697,-0.091853,8.2789,-3.2152e-13,-0.045926,0,0,0.16667,-0,1.8402e-16,0.66667
0.049289,0.51906,0.29573,0.028594,1.3525,185.9,-0.02255,0.0075165,-1.997,-0.030066,-1.6038e-08,-0.99851,0,0,0.16667,-0,-0,0.66667
0.6209,0.66251,3.7254,0.24377,7.0629,39.482,-2.4217,0.80723,-1.7884,-3.2289,-2.9339e-12,-0.89422,0,0,0.16667,1.579e-15,0,0.66667
0.033328,0.056907,0.19997,-0.66464,-31.784,190.66,0.35442,-0.11814,-0.43009,0.47256,1.7067e-07,-0.21504,0,0,0.16667,-0,-0,0.66667
0.021184,0.32907,0.1271,-0.2564,-12.17,194.22,0.086905,-0.028968,-1.765,0.11587,1.2613e-08,-0.88248,0,0,0.16667,-0,-0,0.66667
0.075209,0.42609,0.45126,-0.11087,-5.2282,178.24,0.13341,-0.04447,-1.956,0.17788,4.2037e-08,-0.97801,0,0,0.16667,9.8686e-17,0,0.66667
0.36803,0.49041,2.2082,-0.01438,-0.58837,96.165,0.084677,-0.028226,-1.998,0.1129,-1.5139e-13,-0.999,0,0,0.16667,-3.9475e-16,0,0.66667
0.38175,0.093219,2.2905,-0.61017,-24.9,93.03,3.727,-1.2423,-0.67634,4.9693,-6.7746e-13,-0.33817,0,0,0.16667,1.4803e-16,0,0.66667
0.76697,0.43912,4.6018,-0.091327,-1.7525,16.422,1.1207,-0.37357,-1.9722,1.4943,-8.1124e-11,-0.98609,0,0,0.16667,3.158e-15,0,0.66667
0.84595,0.37439,5.0757,-0.18842,-2.4689,7.8735,2.5502,-0.85008,-1.8753,3.4003,-5.0572e-10,-0.93766,0,0,0.16667,2.0231e-15,0,0.66667
0.7272,0.097796,4.3632,-0.60331,-13.521,22.508,7.0196,-2.3399,-0.70527,9.3595,5.9108e-13,-0.35263,0,0,0.16667,1.579e-15,0,0.66667
0.88443,0.38569,5.3066,-0.17147,-1.6977,4.7499,2.4265,-0.80883,-1.8942,3.2353,-2.7875e-09,-0.9471,0,0,0.16667,-0,-0,0.66667
0.5749,0.039434,3.4494,-0.69085,-22.14,49.014,6.3547,-2.1182,-0.30289,8.473,1.6565e-13,-0.15144,0,0,0.16667,-0,-1.5262e-16,0.66667
0.93988,0.11588,5.6393,-0.57618,-3.0875,2.363,8.6647,-2.8882,-0.81978,11.553,-6.2829e-08,-0.40989,0,0,0.16667,-0,-0,0.66667
0.90679,0.31882,5.4407,-0.27176,-2.1807,3.3953,3.9429,-1.3143,-1.739,5.2572,-2.217e-09,-0.8695,0,0,0.16667,-0,-0,0.66667
0.44844,0.65083,2.6906,0.22625,8.556,76.257,-1.6233,0.5411,-1.8177,-2.1644,5.107e-13,-0.90883,0,0,0.16667,7.8949e-16,0,0.66667
0.47973,0.64494,2.8784,0.21741,7.918,68.92,-1.6688,0.55626,-1.831,-2.225,2.3692e-13,-0.9155,0,0,0.16667,-0,-0,0.66667
0.85666,0.2846,5.14,-0.3231,-3.9739,7.0916,4.4286,-1.4762,-1.6296,5.9048,-2.8614e-09,-0.81479,0,0,0.16667,-0,-0,0.66667
0.39841,0.34605,2.3904,-0.23092,-9.2028,88.5,1.472,-0.49066,-1.8101,1.9627,-2.1625e-12,-0.90505,0,0,0.16667,1.579e-15,0,0.66667
0.942,0.66282,5.652,0.24423,1.1931,1.5929,-3.681,1.227,-1.7875,-4.908,-4.1554e-09,-0.89374,0,0,0.16667,-0,-0,0.66667
0.29331,0.63861,1.7599,0.20792,9.0094,115.99,-0.97575,0.32525,-1.8456,-1.301,-6.7041e-13,-0.92282,0,0,0.16667,3.9475e-16,0,0.66667
0.25901,0.26035,1.554,-0.35948,-15.936,125.46,1.4897,-0.49657,-1.5393,1.9863,2.3912e-11,-0.76963,0,0,0.16667,-0,-0,0.66667
0.10893,0.16492,0.65357,-0.50262,-23.678,168.4,0.876,-0.292,-1.1032,1.168,1.4589e-08,-0.55158,0,0,0.16667,-0,-0,0.66667
0.24704,0.2299,1.4823,-0.40515,-18.093,128.81,1.6014,-0.53381,-1.4161,2.1352,4.0889e-11,-0.70805,0,0,0.16667,3.9475e-16,0,0.66667
0.53775,0.05872,3.2265,-0.66192,-22.499,56.613,5.6952,-1.8984,-0.44169,7.5936,-1.3136e-12,-0.22085,0,0,0.16667,9.8686e-16,0,0.66667
0.98024,0.80962,5.8814,0.46443,0.70538,0.84355,-7.284,2.428,-1.2333,-9.712,-1.4509e-07,-0.61667,0,0,0.16667,2.3685e-15,0,0.66667
0.20773,0.99949,1.2464,0.74924,34.411,140.08,-2.4902,0.83007,-0.004623,-3.3203,-5.0586e-11,-0.0023115,0,0,0.16667,-4.9343e-17,0,0.66667
0.54702,0.60911,3.2821,0.16367,5.4143,54.061,-1.4325,0.47749,-1.906,-1.9099,-7.6539e-13,-0.95302,0,0,0.16667,7.8949e-16,0,0.66667
0.87839,0.96393,5.2703,0.6959,7.5738,6.2545,-9.7803,3.2601,-0.27834,-13.04,-2.0031e-08,-0.13917,0,0,0.16667,-1.579e-15,0,0.66667
0.58966,0.79035,3.538,0.43552,13.468,45.646,-4.109,1.3697,-1.325,-5.4786,-1.1702e-12,-0.6625,0,0,0.16667,-0,-0,0.66667
0.83528,0.30487,5.0117,-0.29269,-4.1026,8.9764,3.9117,-1.3039,-1.6943,5.2156,-1.605e-09,-0.84716,0,0,0.16667,-7.8949e-16,0,0.66667
0.23929,0.53627,1.4357,0.054402,2.4302,130.87,-0.20828,0.069427,-1.9891,-0.27771,-3.0337e-11,-0.99456,0,0,0.16667,-0,-0,0.66667
0.07308,0.85908,0.43848,0.53862,25.564,178.93,-0.6298,0.20993,-0.9673,-0.83973,-1.495e-08,-0.48365,0,0,0.16667,-0,-0,0.66667
0.95297,0.91679,5.7178,0.62519,2.6452,2.0202,-9.5325,3.1775,-0.61173,-12.71,6.0277e-07,-0.30587,0,0,0.16667,-1.579e-15,1.7647e-16,0.66667
0.11233,0.57609,0.67396,0.11413,5.3443,167.33,-0.20513,0.068376,-1.9533,-0.2735,1.7014e-10,-0.97665,0,0,0.16667,1.9737e-16,0,0.66667
0.8024,0.95493,4.8144,0.68239,11.597,13.181,-8.7608,2.9203,-0.34305,-11.681,-1.7972e-10,-0.17153,0,0,0.16667,-1.579e-15,0,0.66667
0.65102,0.20137,3.9061,-0.44795,-12.221,34.31,4.666,-1.5553,-1.2853,6.2213,3.3817e-12,-0.64267,0,0,0.16667,-0,-0,0.66667
0.86511,0.54174,5.1907,0.062611,0.7198,6.1599,-0.86665,0.28888,-1.9849,-1.1555,-1.9729e-09,-0.99245,0,0,0.16667,-0,-0,0.66667
0.62975,0.28445,3.7785,-0.32333,-9.2114,37.931,3.2579,-1.086,-1.6283,4.3438,2.8788e-12,-0.81414,0,0,0.16667,-0,-0,0.66667
0.29818,0.96827,1.7891,0.7024,30.667,115.03,-3.351,1.117,-0.24791,-4.4681,-5.1337e-13,-0.12395,0,0,0.16667,1.727e-16,0,0.66667
0.93148,0.26834,5.5889,-0.3475,-2.0482,2.2036,5.179,-1.7263,-1.5693,6.9053,2.651e-09,-0.78466,0,0,0.16667,-1.579e-15,0,0.66667
0.6923,0.4791,4.1538,-0.031351,-0.76534,27.088,0.34727,-0.11576,-1.9956,0.46302,9.1926e-14,-0.99779,0,0,0.16667,-0,-0,0.66667
0.87664,0.56446,5.2598,0.096688,1.019,5.2731,-1.3562,0.45205,-1.9684,-1.8082,-8.0563e-09,-0.98418,0,0,0.16667,3.158e-15,0,0.66667
0.81549,0.062906,4.893,-0.65564,-10.452,11.705,8.5547,-2.8516,-0.47278,11.406,-7.6954e-10,-0.23639,0,0,0.16667,-0,-0,0.66667
0.136,0.45519,0.81601,-0.067214,-3.1277,160.42,0.14626,-0.048753,-1.9829,0.19501,-6.4283e-10,-0.99145,0,0,0.16667,-0,-0,0.66667
0.69941,0.6629,4.1965,0.24435,5.864,26.081,-2.7345,0.91149,-1.7875,-3.646,-2.3099e-12,-0.89376,0,0,0.16667,-0,-0,0.66667
0.68101,0.63531,4.086,0.20296,5.1143,28.976,-2.2115,0.73716,-1.8523,-2.9486,-3.6591e-12,-0.92614,0,0,0.16667,-0,-0,0.66667
0.7558,0.78704,4.5348,0.43056,8.693,18.226,-5.2067,1.7356,-1.3402,-6.9422,4.2307e-11,-0.67009,0,0,0.16667,-1.579e-15,0,0.66667
0.79965,0.40427,4.7979,-0.14359,-2.4044,12.535,1.8371,-0.61238,-1.9277,2.4495,-1.8547e-10,-0.96383,0,0,0.16667,-7.8949e-16,0,0.66667
0.94145,0.19147,5.6487,-0.4628,-2.3581,2.0035,6.9711,-2.3237,-1.2386,9.2949,-2.9021e-08,-0.6193,0,0,0.16667,-0,-0,0.66667
0.065147,0.88475,0.39088,0.57712,27.447,181.27,-0.60157,0.20052,-0.81572,-0.80209,-9.9933e-08,-0.40786,0,0,0.16667,-0,-0,0.66667
0.50862,0.23227,3.0517,-0.40159,-14.123,62.545,3.2681,-1.0894,-1.4251,4.3575,-4.0412e-13,-0.71254,0,0,0.16667,7.8949e-16,0,0.66667
0.49966,0.59384,2.9979,0.14076,4.9906,64.353,-1.1253,0.37512,-1.9324,-1.5005,5.0504e-13,-0.96618,0,0,0.16667,-1.579e-15,0,0.66667
0.70076,0.70143,4.2046,0.30215,7.2334,25.93,-3.3877,1.1292,-1.6753,-4.517,-3.1548e-12,-0.83765,0,0,0.16667,-0,-0,0.66667
0.9956,0.22599,5.9736,-0.41102,-0.0053479,0.49147,6.5474,-2.1825,-1.3988,8.7299,-1.9581e-07,-0.69942,0,0,0.16667,-3.158e-15,-1.1656e-16,0.66667
0.90798,0.076073,5.4479,-0.63589,-5.2546,4.125,9.238,-3.0793,-0.56255,12.317,-9.871e-08,-0.28127,0,0,0.16667,-0,-0,0.66667
0.29689,0.17247,1.7813,-0.49129,-21.34,115.18,2.3337,-0.77791,-1.1432,3.1116,-4.6436e-12,-0.57159,0,0,0.16667,3.9475e-16,0,0.66667
0.33575,0.44506,2.0145,-0.082416,-3.4625,104.59,0.44274,-0.14758,-1.9748,0.59032,-1.609e-12,-0.98738,0,0,0.16667,-0,-0,0.66667
0.82017,0.48657,4.921,-0.020145,-0.30476,10.285,0.26435,-0.088118,-1.997,0.35247,8.6827e-11,-0.99852,0,0,0.16667,-0,-0,0.66667
0.36161,0.93164,2.1697,0.64746,26.918,98.225,-3.7461,1.2487,-0.5101,-4.9948,5.8664e-13,-0.25505,0,0,0.16667,-0,-0,0.66667
0.32537,0.59323,1.9522,0.13985,5.9232,107.35,-0.72804,0.24268,-1.9317,-0.97072,2.1989e-12,-0.96587,0,0,0.16667,-3.9475e-16,0,0.66667
0.4447,0.12857,2.6682,-0.55714,-21.308,77.456,3.9642,-1.3214,-0.89583,5.2856,-1.503e-12,-0.44792,0,0,0.16667,-0,-0,0.66667
0.27712,0.74117,1.6627,0.36175,15.869,120.47,-1.604,0.53466,-1.5341,-2.1386,-7.5209e-12,-0.76707,0,0,0.16667,-0,-0,0.66667
0.74901,0.10613,4.494,-0.59081,-12.319,19.456,7.0803,-2.3601,-0.75966,9.4404,-8.5572e-12,-0.37983,0,0,0.16667,-0,1.8884e-16,0.66667
0.45268,0.27907,2.7161,-0.33139,-12.492,75.319,2.4002,-0.80006,-1.6119,3.2002,-9.7056e-13,-0.80593,0,0,0.16667,1.0856e-15,0,0.66667
0.16392,0.69707,0.98354,0.29561,13.662,152.36,-0.77531,0.25844,-1.688,-1.0338,-1.6407e-09,-0.84401,0,0,0.16667,3.9475e-16,0,0.66667
0.99046,0.051395,5.9428,-0.67291,-0.53673,1.3032,10.664,-3.5546,-0.38877,14.218,-1.1622e-05,-0.19438,0,0,0.16667,1.579e-15,0,0.66667
0.338,0.93037,2.028,0.64555,27.349,104.37,-3.4911,1.1637,-0.51742,-4.6548,3.4417e-14,-0.25871,0,0,0.16667,1.9737e-16,0,0.66667
0.30176,0.57693,1.8106,0.1154,4.9691,113.68,-0.55718,0.18573,-1.9515,-0.7429,6.3322e-13,-0.97576,0,0,0.16667,3.9475e-16,0,0.66667
0.22533,0.64868,1.352,0.22302,10.043,134.82,-0.80404,0.26801,-1.8221,-1.0721,-1.5948e-10,-0.91107,0,0,0.16667,-1.9737e-16,0,0.66667
0.42574,0.23449,2.5545,-0.39826,-15.485,81.855,2.7129,-0.9043,-1.4353,3.6172,-1.0809e-12,-0.71763,0,0,0.16667,7.8949e-16,0,0.66667
0.69512,0.84104,4.1707,0.51156,12.531,27.126,-5.6896,1.8965,-1.0691,-7.5861,-5.079e-12,-0.53457,0,0,0.16667,9.9529e-16,0,0.66667
0.60241,0.003976,3.6144,-0.74404,-22.747,43.762,7.1714,-2.3905,-0.031119,9.5619,5.9597e-13,-0.01556,0,0,0.16667,-0,-0,0.66667
0.18146,0.58104,1.0888,0.12157,5.574,147.28,-0.35295,0.11765,-1.9461,-0.47061,-5.2122e-10,-0.97306,0,0,0.16667,-2.1489e-16,0,0.66667
0.26456,0.74613,1.5874,0.36919,16.318,123.93,-1.5628,0.52093,-1.517,-2.0837,-1.7732e-11,-0.75849,0,0,0.16667,2.757e-16,0,0.66667
0.59825,0.35817,3.5895,-0.21275,-6.4429,43.746,2.0364,-0.67881,-1.8381,2.7152,1.0327e-12,-0.91903,0,0,0.16667,-0,-0,0.66667
0.85805,0.25402,5.1483,-0.36897,-4.5081,7.0469,5.0655,-1.6885,-1.5174,6.754,-3.0993e-09,-0.75869,0,0,0.16667,-0,-0,0.66667
0.41292,0.66773,2.4775,0.2516,9.8873,84.899,-1.6622,0.55407,-1.7736,-2.2163,1.1486e-12,-0.88678,0,0,0.16667,-0,-0,0.66667
0.21585,0.56912,1.2951,0.10368,4.6856,137.47,-0.35808,0.11936,-1.962,-0.47743,-9.8795e-11,-0.98098,0,0,0.16667,-0,-0,0.66667
0.32339,0.9004,1.9403,0.6006,25.688,108.17,-3.1076,1.0359,-0.71701,-4.1435,1.1775e-12,-0.3585,0,0,0.16667,7.836e-16,0,0.66667
0.69169,0.52444,4.1501,0.036663,0.89654,27.185,-0.40575,0.13525,-1.9948,-0.54101,-5.978e-13,-0.99742,0,0,0.16667,7.8949e-16,0,0.66667
0.70095,0.91847,4.2057,0.62771,15.217,26.467,-7.0399,2.3466,-0.59911,-9.3865,-2.2133e-12,-0.29955,0,0,0.16667,-0,-0,0.66667
0.22335,0.13333,1.3401,-0.55001,-24.935,135.53,1.9655,-0.65517,-0.92373,2.6207,4.6458e-11,-0.46186,0,0,0.16667,-0,-0,0.66667
0.3965,0.12683,2.379,-0.55976,-22.5,89.254,3.5511,-1.1837,-0.88591,4.7347,-1.4377e-12,-0.44296,0,0,0.16667,-0,-0,0.66667
0.69933,0.048643,4.196,-0.67703,-16.531,26.837,7.5755,-2.5252,-0.36947,10.101,4.3077e-13,-0.18473,0,0,0.16667,-0,2.5599e-16,0.66667
0.72057,0.2263,4.3234,-0.41056,-9.3067,23.091,4.7334,-1.5778,-1.4013,6.3112,-3.2241e-13,-0.70066,0,0,0.16667,-1.579e-15,0,0.66667
0.13052,0.82631,0.78309,0.48946,22.93,162.1,-1.0221,0.3407,-1.1469,-1.3628,-5.1152e-09,-0.57346,0,0,0.16667,-0,-0,0.66667
0.60937,0.96806,3.6562,0.70209,21.136,42.345,-6.8454,2.2818,-0.25029,-9.1272,-1.8652e-14,-0.12515,0,0,0.16667,-1.0856e-15,0,0.66667
0.88607,0.62622,5.3164,0.18934,1.8495,4.6496,-2.6842,0.89475,-1.873,-3.579,1.0055e-09,-0.93648,0,0,0.16667,-0,-0,0.66667
0.58236,0.70985,3.4942,0.31477,9.8337,46.944,-2.933,0.97766,-1.6471,-3.9106,-1.124e-12,-0.82355,0,0,0.16667,-0,-0,0.66667
0.30721,0.081108,1.8433,-0.62834,-27.204,112.52,3.0885,-1.0295,-0.59506,4.118,-2.3654e-12,-0.29753,0,0,0.16667,3.9475e-16,0,0.66667
0.74514,0.96178,4.4708,0.69267,14.728,20.237,-8.2582,2.7527,-0.29345,-11.011,1.1111e-12,-0.14673,0,0,0.16667,-1.1842e-15,1.1917e-16,0.66667
0.9777,0.55144,5.8662,0.077155,0.11883,0.3473,-1.2069,0.40232,-1.9775,-1.6093,2.9684e-07,-0.98875,0,0,0.16667,1.579e-15,0,0.66667
0.90462,0.7658,5.4277,0.3987,3.3096,3.7307,-5.7707,1.9236,-1.4351,-7.6943,1.1102e-08,-0.71755,0,0,0.16667,1.579e-15,0,0.66667
0.8716,0.55652,5.2296,0.084787,0.92918,5.6528,-1.1824,0.39414,-1.9745,-1.5766,-6.5286e-11,-0.98724,0,0,0.16667,-1.1842e-15,0,0.66667
0.00029225,0.37539,0.0017535,-0.18692,-8.87,200.41,0.00087394,-0.00029148,-1.8786,0.0011652,-2.5809e-07,-0.93928,0,0,0.16667,7.7099e-19,0,0.66667
0.58262,0.84825,3.4957,0.52237,16.406,47.164,-4.8695,1.6232,-1.0296,-6.4926,-9.5479e-13,-0.51482,0,0,0.16667,1.579e-15,0,0.66667
0.26272,0.06977,1.5763,-0.64535,-28.741,124.64,2.7127,-0.90424,-0.51931,3.617,1.3987e-12,-0.25966,0,0,0.16667,-0,1.5162e-16,0.66667
0.81301,0.72228,4.878,0.33342,5.2696,11.273,-4.3371,1.4457,-1.6068,-5.7828,7.3679e-10,-0.80339,0,0,0.16667,-3.158e-15,0,0.66667
0.52348,0.22613,3.1409,-0.4108,-14.147,59.295,3.4407,-1.1469,-1.3989,4.5877,-3.9035e-13,-0.69945,0,0,0.16667,-0,-0,0.66667
0.8939,0.33131,5.3634,-0.25303,-2.3097,4.1818,3.6189,-1.2063,-1.7719,4.8252,-2.3902e-09,-0.88594,0,0,0.16667,1.579e-15,0,0.66667
0.52374,0.36309,3.1425,-0.20536,-7.0427,59.061,1.7209,-0.57365,-1.8486,2.2946,8.7708e-14,-0.9243,0,0,0.16667,-7.8949e-16,0,0.66667
0.89114,0.12556,5.3468,-0.56165,-5.4064,4.9644,8.0081,-2.6694,-0.88099,10.678,1.659e-08,-0.44049,0,0,0.16667,-0,-0,0.66667
0.44972,0.2729,2.6983,-0.34065,-12.887,76.029,2.4512,-0.81706,-1.5872,3.2683,-4.905e-13,-0.79358,0,0,0.16667,-0,-0,0.66667
0.5615,0.42539,3.369,-0.11191,-3.6143,51.029,1.0054,-0.33514,-1.9562,1.3406,-5.5067e-14,-0.97812,0,0,0.16667,-0,-0,0.66667
0.81248,0.84382,4.8749,0.51573,8.2549,11.664,-6.7044,2.2348,-1.0574,-8.9392,-4.9349e-11,-0.52868,0,0,0.16667,-0,-0,0.66667
0.40317,0.14155,2.419,-0.53767,-21.461,87.562,3.4684,-1.1561,-0.97167,4.6245,-6.6502e-13,-0.48583,0,0,0.16667,-0,-0,0.66667
0.56867,0.74954,3.412,0.37432,11.993,49.757,-3.4058,1.1353,-1.502,-4.5411,-1.2261e-12,-0.75101,0,0,0.16667,1.1842e-15,0,0.66667
0.89846,0.012079,5.3908,-0.73188,-6.7516,5.0152,10.521,-3.507,-0.094006,14.028,-4.2854e-09,-0.047003,0,0,0.16667,-3.158e-15,0,0.66667
0.48462,0.68094,2.9077,0.27141,9.8304,67.831,-2.1045,0.7015,-1.7399,-2.806,-7.9359e-13,-0.86993,0,0,0.16667,3.9475e-16,0,0.66667
0.59059,0.70032,3.5435,0.30048,9.2452,45.308,-2.8394,0.94646,-1.6785,-3.7858,-1.3172e-12,-0.83926,0,0,0.16667,-0,-0,0.66667
0.93638,0.18917,5.6183,-0.46624,-2.5901,2.2246,6.9852,-2.3284,-1.2291,9.3136,-2.6918e-08,-0.61453,0,0,0.16667,-3.158e-15,0,0.66667
0.88325,0.71393,5.2995,0.3209,3.2337,5.0076,-4.5349,1.5116,-1.6331,-6.0466,5.1888e-09,-0.81657,0,0,0.16667,-1.579e-15,0,0.66667
0.75772,0.44919,4.5463,-0.076217,-1.514,17.611,0.92402,-0.30801,-1.9779,1.232,-3.2309e-11,-0.98895,0,0,0.16667,-0,-0,0.66667
0.71123,0.3525,4.2674,-0.22125,-5.13,24.251,2.5177,-0.83925,-1.8247,3.357,-2.4019e-12,-0.91237,0,0,0.16667,1.579e-15,0,0.66667
0.8192,0.10243,4.9152,-0.59635,-9.2874,11.161,7.8165,-2.6055,-0.73436,10.422,4.1572e-10,-0.36718,0,0,0.16667,-0,-0,0.66667
0.10608,0.27711,0.63649,-0.33433,-15.711,169.19,0.56747,-0.18916,-1.6029,0.75662,6.4089e-09,-0.80146,0,0,0.16667,-4.9343e-17,0,0.66667
0.38103,0.26441,2.2862,-0.35338,-14.339,92.961,2.1544,-0.71814,-1.5546,2.8726,-1.7537e-12,-0.7773,0,0,0.16667,-0,-0,0.66667
0.54579,0.42325,3.2747,-0.11512,-3.8142,54.3,1.0053,-0.3351,-1.9535,1.3404,-2.6701e-13,-0.97676,0,0,0.16667,7.8949e-16,0,0.66667
0.85851,0.27145,5.1511,-0.34283,-4.169,6.9655,4.7091,-1.5697,-1.5831,6.2789,-3.1579e-09,-0.79156,0,0,0.16667,-0,-0,0.66667
0.1464,0.84828,0.87841,0.52243,24.382,157.5,-1.2238,0.40792,-1.0291,-1.6317,-1.164e-09,-0.51455,0,0,0.16667,-0,-0,0.66667
0.71404,0.54564,4.2842,0.06846,1.5711,23.745,-0.78213,0.26071,-1.9823,-1.0428,1.5997e-12,-0.99113,0,0,0.16667,-0,-0,0.66667
0.59097,0.2553,3.5458,-0.36705,-11.303,45.304,3.4706,-1.1569,-1.5214,4.6275,1.0465e-12,-0.76069,0,0,0.16667,-0,-0,0.66667
0.60872,0.12504,3.6523,-0.56243,-16.85,42.181,5.4778,-1.8259,-0.87788,7.3038,-3.1442e-13,-0.43894,0,0,0.16667,1.579e-15,1.1241e-18,0.66667
0.37262,0.0050429,2.2357,-0.74244,-30.68,95.533,4.4263,-1.4754,-0.040793,5.9018,8.7486e-13,-0.020397,0,0,0.16667,-0,1.0684e-16,0.66667
0.91582,0.18974,5.4949,-0.46539,-3.4356,3.2279,6.8195,-2.2732,-1.2298,9.0926,-2.5752e-08,-0.61488,0,0,0.16667,-3.158e-15,0,0.66667
0.71391,0.00034991,4.2834,-0.74948,-17.639,24.826,8.5609,-2.8536,-0.0033081,11.414,1.8039e-12,-0.001654,0,0,0.16667,-0,-0,0.66667
0.6683,0.3937,4.0098,-0.15944,-4.1463,31.048,1.7049,-0.5683,-1.909,2.2732,3.0631e-12,-0.9545,0,0,0.16667,-0,-0,0.66667
0.22147,0.53332,1.3288,0.049978,2.2523,135.88,-0.1771,0.059032,-1.9921,-0.23613,-6.5837e-11,-0.99605,0,0,0.16667,-0,-0,0.66667
0.81288,0.28447,4.8773,-0.32329,-5.1107,11.273,4.2047,-1.4016,-1.6306,5.6063,-7.4048e-10,-0.81528,0,0,0.16667,-0,-0,0.66667
0.49585,0.80812,2.9751,0.46219,16.563,65.466,-3.6668,1.2223,-1.2405,-4.8891,-4.5852e-13,-0.62023,0,0,0.16667,-1.9737e-16,0,0.66667
0.50837,0.49238,3.0502,-0.011432,-0.40025,62.381,0.092989,-0.030996,-1.9985,0.12398,4.2215e-13,-0.99923,0,0,0.16667,1.1842e-15,0,0.66667
0.084733,0.15079,0.5084,-0.52381,-24.806,175.5,0.71015,-0.23672,-1.0237,0.94687,1.0004e-08,-0.51184,0,0,0.16667,4.9343e-17,0,0.66667
0.43727,0.60212,2.6236,0.15318,5.8612,78.904,-1.0717,0.35723,-1.9182,-1.4289,7.9514e-13,-0.95908,0,0,0.16667,-0,-0,0.66667
0.8632,0.82505,5.1792,0.48757,5.8009,6.8538,-6.734,2.2447,-1.154,-8.9786,3.592e-09,-0.57702,0,0,0.16667,1.579e-15,0,0.66667
0.68024,0.2775,4.0814,-0.33375,-8.4511,29.229,3.6325,-1.2108,-1.6034,4.8433,5.3799e-12,-0.8017,0,0,0.16667,-1.1842e-15,0,0.66667
0.18942,0.26118,1.1365,-0.35823,-16.417,145.05,1.0857,-0.36191,-1.544,1.4476,6.5235e-10,-0.77198,0,0,0.16667,-0,-0,0.66667
0.58407,0.23967,3.5044,-0.3905,-12.184,46.688,3.6493,-1.2164,-1.4566,4.8657,7.4385e-13,-0.72831,0,0,0.16667,7.8949e-16,0,0.66667
0.94401,0.98578,5.664,0.72866,3.7833,2.6986,-11.006,3.6686,-0.11072,-14.674,-9.4906e-07,-0.055359,0,0,0.16667,-0,-0,0.66667
0.50746,0.85823,3.0448,0.53735,18.998,62.974,-4.3629,1.4543,-0.97182,-5.8172,-5.1203e-13,-0.48591,0,0,0.16667,7.8949e-16,0,0.66667
0.9674,0.60625,5.8044,0.15938,0.40184,0.64532,-2.4669,0.8223,-1.9102,-3.2892,-1.5814e-08,-0.95511,0,0,0.16667,-0,-0,0.66667
0.36627,0.70819,2.1976,0.31228,12.828,96.714,-1.83,0.61001,-1.6519,-2.4401,2.3358e-12,-0.82597,0,0,0.16667,3.9475e-16,0,0.66667
0.29075,0.73922,1.7445,0.35882,15.606,116.75,-1.6692,0.55641,-1.541,-2.2256,1.5957e-12,-0.77048,0,0,0.16667,-0,-0,0.66667
0.83985,0.49044,5.0391,-0.014336,-0.19439,8.354,0.19264,-0.064213,-1.9987,0.25685,-1.5269e-10,-0.99936,0,0,0.16667,-1.579e-15,0,0.66667
0.86973,0.26113,5.2184,-0.3583,-4.0279,6.0806,4.986,-1.662,-1.5424,6.648,-4.0609e-09,-0.77122,0,0,0.16667,-0,-0,0.66667
0.20167,0.75065,1.21,0.37597,17.148,141.57,-1.2131,0.40438,-1.4994,-1.6175,-3.6934e-10,-0.74968,0,0,0.16667,-0,-0,0.66667
0.71945,0.51063,4.3167,0.015949,0.35998,22.933,-0.18359,0.061197,-2.0002,-0.24479,-9.041e-13,-1.0001,0,0,0.16667,3.158e-15,0,0.66667
0.59211,0.84253,3.5526,0.51379,15.857,45.286,-4.8675,1.6225,-1.0631,-6.49,-1.3021e-12,-0.53156,0,0,0.16667,9.8686e-16,0,0.66667
0.89451,0.93034,5.3671,0.64551,6.0946,4.9827,-9.2386,3.0795,-0.51816,-12.318,-1.045e-07,-0.25908,0,0,0.16667,-7.8949e-16,0,0.66667
0.14945,0.91249,0.89667,0.61873,28.921,156.66,-1.4795,0.49316,-0.63794,-1.9726,3.8206e-09,-0.31897,0,0,0.16667,-3.9475e-16,0,0.66667
0.76303,0.2317,4.5782,-0.40244,-7.9034,17.239,4.9132,-1.6377,-1.424,6.5509,-7.9692e-11,-0.71198,0,0,0.16667,-0,-0,0.66667
0.68996,0.26555,4.1397,-0.35167,-8.6846,27.687,3.8822,-1.2941,-1.5601,5.1763,5.2314e-12,-0.78005,0,0,0.16667,-1.579e-15,0,0.66667
0.79502,0.1713,4.7701,-0.49305,-8.5448,13.532,6.2718,-2.0906,-1.1358,8.3624,-2.1123e-10,-0.5679,0,0,0.16667,-0,-0,0.66667
0.45329,0.7585,2.7197,0.38774,14.622,75.223,-2.8122,0.93738,-1.4671,-3.7495,5.3446e-13,-0.73353,0,0,0.16667,-0,-0,0.66667
0.22843,0.5811,1.3706,0.12165,5.4653,133.92,-0.44461,0.1482,-1.9461,-0.59281,-8.967e-11,-0.97303,0,0,0.16667,-3.9475e-16,0,0.66667
0.28605,0.91735,1.7163,0.62602,27.479,118.23,-2.8652,0.95507,-0.6056,-3.8203,6.1839e-13,-0.3028,0,0,0.16667,7.8949e-16,0,0.66667
0.3043,0.45483,1.8258,-0.06775,-2.9117,112.98,0.32987,-0.10996,-1.9822,0.43982,-6.4426e-13,-0.99108,0,0,0.16667,3.9475e-16,0,0.66667
0.84027,0.44294,5.0416,-0.085587,-1.1583,8.3311,1.1507,-0.38355,-1.974,1.5342,-4.6356e-10,-0.98702,0,0,0.16667,-0,-0,0.66667
0.53716,0.36892,3.2229,-0.19662,-6.6076,56.167,1.6898,-0.56327,-1.8618,2.2531,7.8426e-13,-0.93091,0,0,0.16667,-7.8949e-16,0,0.66667
0.56358,0.94969,3.3815,0.67454,22.019,51.266,-6.0826,2.0275,-0.38291,-8.1101,1.3456e-13,-0.19145,0,0,0.16667,-0,-0,0.66667
0.28417,0.072337,1.705,-0.64149,-28.205,118.76,2.9167,-0.97222,-0.53668,3.8889,-3.7248e-12,-0.26834,0,0,0.16667,7.8949e-16,0,0.66667
0.83416,0.37351,5.0049,-0.18973,-2.6666,8.9728,2.5322,-0.84408,-1.872,3.3763,-1.6342e-09,-0.93601,0,0,0.16667,-9.8686e-17,0,0.66667
0.70493,0.97027,4.2296,0.7054,16.986,26.052,-7.9561,2.652,-0.23237,-10.608,8.9484e-13,-0.11618,0,0,0.16667,-0,-0,0.66667
0.87814,0.99427,5.2688,0.7414,8.1351,6.426,-10.417,3.4723,-0.04577,-13.889,7.1936e-09,-0.022885,0,0,0.16667,1.9737e-15,0,0.66667
0.13153,0.58815,0.78916,0.13222,6.162,161.73,-0.27825,0.092749,-1.9371,-0.371,-4.3627e-10,-0.96854,0,0,0.16667,-2.9606e-16,0,0.66667
0.8496,0.42671,5.0976,-0.10994,-1.4052,7.494,1.4944,-0.49815,-1.9558,1.9926,-1.1106e-11,-0.97791,0,0,0.16667,-0,-0,0.66667
0.052112,0.35642,0.31267,-0.21536,-10.194,185.07,0.17957,-0.059857,-1.8339,0.23943,-2.5488e-08,-0.91696,0,0,0.16667,9.8686e-17,0,0.66667
0.87713,0.71102,5.2628,0.31654,3.3526,5.4487,-4.4423,1.4808,-1.6442,-5.9231,4.6424e-09,-0.8221,0,0,0.16667,-7.8949e-16,0,0.66667
0.23974,0.65169,1.4384,0.22753,10.173,130.77,-0.87278,0.29093,-1.8155,-1.1637,-8.8578e-11,-0.90776,0,0,0.16667,-0,-0,0.66667
0.88566,0.19819,5.314,-0.45272,-4.5172,5.0774,6.4153,-2.1384,-1.2703,8.5538,-9.0092e-09,-0.63514,0,0,0.16667,-0,-0,0.66667
0.37931,0.60389,2.2759,0.15584,6.317,93.298,-0.94578,0.31526,-1.9129,-1.261,1.4956e-12,-0.95645,0,0,0.16667,-0,-0,0.66667
0.84292,0.60335,5.0575,0.15503,2.0677,8.1235,-2.0908,0.69695,-1.9156,-2.7878,1.421e-09,-0.9578,0,0,0.16667,1.579e-15,0,0.66667
0.53961,0.25804,3.2377,-0.36294,-12.186,55.778,3.1335,-1.0445,-1.5305,4.1781,-2.7245e-13,-0.76526,0,0,0.16667,-0,-0,0.66667
0.56418,0.19308,3.3851,-0.46038,-14.897,50.78,4.1558,-1.3853,-1.2474,5.541,4.1744e-13,-0.62368,0,0,0.16667,-0,-0,0.66667
0.98402,0.10745,5.9041,-0.58883,-0.76426,1.1188,9.2708,-3.0903,-0.76836,12.361,2.6859e-07,-0.38418,0,0,0.16667,-1.579e-15,1.9436e-16,0.66667
0.96375,0.83041,5.7825,0.49562,1.5308,1.3134,-7.6425,2.5475,-1.1255,-10.19,-5.095e-08,-0.56274,0,0,0.16667,-1.579e-15,0,0.66667
0.11432,0.097176,0.68595,-0.60424,-28.501,166.86,1.1053,-0.36842,-0.70175,1.4737,-1.1752e-08,-0.35087,0,0,0.16667,-3.9475e-16,0,0.66667
0.36415,0.51586,2.1849,0.023785,0.97644,97.166,-0.13858,0.046194,-1.9969,-0.18478,8.1951e-13,-0.99844,0,0,0.16667,-0,-0,0.66667
0.25055,0.26194,1.5033,-0.35709,-15.903,127.81,1.4315,-0.47717,-1.5477,1.9087,4.6086e-11,-0.77385,0,0,0.16667,-0,-0,0.66667
0.4483,0.24406,2.6898,-0.3839,-14.559,76.405,2.7536,-0.91788,-1.4755,3.6715,-6.2328e-13,-0.73776,0,0,0.16667,-3.9475e-16,0,0.66667
0.12635,0.2501,0.75812,-0.37485,-17.542,163.28,0.75782,-0.25261,-1.5025,1.0104,5.1593e-09,-0.75127,0,0,0.16667,-3.9475e-16,0,0.66667
0.51157,0.74802,3.0694,0.37203,13.02,61.861,-3.0451,1.015,-1.5083,-4.0601,-8.0824e-14,-0.75416,0,0,0.16667,-1.9737e-16,0,0.66667
0.86558,0.36385,5.1935,-0.20423,-2.348,6.2093,2.8285,-0.94282,-1.8504,3.7713,-3.5381e-09,-0.92521,0,0,0.16667,-0,-0,0.66667
0.35235,0.12157,2.1141,-0.56765,-23.723,100.53,3.2002,-1.0667,-0.85382,4.267,-2.6672e-12,-0.42691,0,0,0.16667,5.9212e-16,0,0.66667
0.15564,0.32128,0.93384,-0.26808,-12.42,154.74,0.66758,-0.22253,-1.7458,0.8901,1.8067e-09,-0.87288,0,0,0.16667,3.9475e-16,0,0.66667
0.30726,0.72654,1.8436,0.33981,14.613,112.28,-1.6706,0.55686,-1.5886,-2.2274,4.6086e-12,-0.79432,0,0,0.16667,-0,-0,0.66667
0.74287,0.56136,4.4572,0.092041,1.927,19.611,-1.094,0.36467,-1.9698,-1.4587,2.1942e-11,-0.98491,0,0,0.16667,6.9081e-16,0,0.66667
0.091276,0.13024,0.54766,-0.55464,-26.254,173.58,0.81001,-0.27,-0.90679,1.08,5.5296e-08,-0.4534,0,0,0.16667,-0,-0,0.66667
0.73558,0.53741,4.4135,0.056109,1.2034,20.615,-0.66037,0.22012,-1.99,-0.88049,6.2478e-12,-0.99499,0,0,0.16667,-0,-0,0.66667
0.61392,0.7415,3.6835,0.36226,10.673,40.9,-3.5583,1.1861,-1.5327,-4.7445,-2.266e-12,-0.76636,0,0,0.16667,-0,-0,0.66667
0.74026,0.93412,4.4416,0.65118,14.035,20.793,-7.7127,2.5709,-0.49199,-10.284,2.0206e-12,-0.24599,0,0,0.16667,-3.9475e-16,0,0.66667
0.0090497,0.26556,0.054298,-0.35167,-16.719,197.82,0.05092,-0.016973,-1.5588,0.067893,7.4667e-08,-0.77941,0,0,0.16667,-0,-0,0.66667
0.72047,0.90883,4.3228,0.61324,14.037,23.505,-7.0691,2.3564,-0.66432,-9.4255,-1.7595e-12,-0.33216,0,0,0.16667,-1.579e-15,0,0.66667
0.32058,0.86544,1.9235,0.54817,23.459,108.87,-2.8117,0.93724,-0.93032,-3.749,2.8699e-12,-0.46516,0,0,0.16667,-0,-0,0.66667
0.63297,0.80922,3.7978,0.46383,13.177,37.533,-4.6975,1.5658,-1.2346,-6.2633,-2.5735e-12,-0.61729,0,0,0.16667,3.8477e-16,0,0.66667
0.053837,0.48802,0.32302,-0.017965,-0.84937,184.55,0.015475,-0.0051587,-1.9974,0.020633,-4.3778e-07,-0.99872,0,0,0.16667,-4.9343e-17,0,0.66667
0.55643,0.78756,3.3386,0.43133,14.125,52.332,-3.8401,1.28,-1.3377,-5.1202,-5.4223e-13,-0.66885,0,0,0.16667,-0,-0,0.66667
0.9416,0.29454,5.6496,-0.30819,-1.528,1.6981,4.643,-1.5477,-1.6615,6.1907,1.9095e-08,-0.83073,0,0,0.16667,-0,-0,0.66667
0.32009,0.57024,1.9205,0.10537,4.4791,108.75,-0.53961,0.17987,-1.9594,-0.71948,8.0586e-13,-0.97971,0,0,0.16667,-0,-0,0.66667
0.52274,0.47237,3.1364,-0.041452,-1.4219,59.224,0.3467,-0.11557,-1.9934,0.46226,-3.6871e-13,-0.99669,0,0,0.16667,-0,-0,0.66667
0.40771,0.63552,2.4463,0.20328,8.0256,86.165,-1.3261,0.44203,-1.8536,-1.7681,1.3944e-12,-0.92682,0,0,0.16667,-0,-0,0.66667
0.56965,0.35774,3.4179,-0.21339,-6.8044,49.413,1.9449,-0.6483,-1.8366,2.5932,2.1261e-13,-0.9183,0,0,0.16667,-0,-0,0.66667
0.068319,0.51919,0.40991,0.028778,1.3582,180.27,-0.031458,0.010486,-1.9958,-0.041943,-5.2369e-08,-0.99789,0,0,0.16667,-0,-0,0.66667
0.36188,0.86321,2.1713,0.54482,22.576,98.038,-3.1545,1.0515,-0.94452,-4.2061,1.4566e-12,-0.47226,0,0,0.16667,3.9475e-16,0,0.66667
0.52066,0.050126,3.124,-0.67481,-23.535,60.307,5.6215,-1.8738,-0.37981,7.4954,7.9403e-13,-0.1899,0,0,0.16667,-1.4061e-15,0,0.66667
0.084824,0.046696,0.50895,-0.67996,-32.332,175.51,0.92283,-0.30761,-0.35464,1.2304,-9.55e-08,-0.17732,0,0,0.16667,1.9737e-16,0,0.66667
0.46765,0.22172,2.8059,-0.41742,-15.486,71.878,3.1233,-1.0411,-1.3822,4.1644,-3.948e-13,-0.6911,0,0,0.16667,-1.579e-15,0,0.66667
0.77223,0.17722,4.6334,-0.48416,-9.2163,16.226,5.9822,-1.9941,-1.1652,7.9762,-7.7659e-11,-0.58262,0,0,0.16667,-0,-0,0.66667
0.443,0.71653,2.658,0.32479,12.377,77.62,-2.3022,0.76739,-1.6249,-3.0695,7.5651e-13,-0.81244,0,0,0.16667,-1.0856e-15,0,0.66667
0.39093,0.36022,2.3456,-0.20967,-8.4133,90.371,1.3114,-0.43715,-1.8449,1.7486,-1.2769e-12,-0.92243,0,0,0.16667,-0,-0,0.66667
0.27288,0.33928,1.6373,-0.24107,-10.584,121.58,1.0525,-0.35084,-1.7927,1.4034,1.229e-11,-0.89635,0,0,0.16667,-0,-0,0.66667
0.051852,0.1545,0.31111,-0.51826,-24.651,185.18,0.42996,-0.14332,-1.0452,0.57328,-1.0498e-08,-0.5226,0,0,0.16667,9.8686e-17,0,0.66667
0.76182,0.7215,4.5709,0.33225,6.5364,17.29,-4.0498,1.3499,-1.6079,-5.3998,9.3651e-11,-0.80394,0,0,0.16667,-3.158e-15,0,0.66667
0.48578,0.75677,2.9147,0.38515,13.959,67.664,-2.9936,0.99786,-1.4735,-3.9914,-2.2782e-13,-0.73677,0,0,0.16667,-0,-0,0.66667
0.16135,0.88404,0.96808,0.57606,26.793,153.21,-1.4871,0.49571,-0.8192,-1.9829,-7.4236e-10,-0.4096,0,0,0.16667,-0,-0,0.66667
0.066079,0.95797,0.39647,0.68696,32.766,181.02,-0.72629,0.2421,-0.32156,-0.96839,-4.8092e-08,-0.16078,0,0,0.16667,-9.8686e-17,0,0.66667
0.7579,0.037452,4.5474,-0.69382,-14.115,18.549,8.4136,-2.8045,-0.28747,11.218,-3.9346e-13,-0.14373,0,0,0.16667,-0,-0,0.66667
0.58841,0.78504,3.5305,0.42755,13.249,45.88,-4.0253,1.3418,-1.3498,-5.367,-1.2323e-12,-0.67488,0,0,0.16667,-0,-0,0.66667
0.55876,0.074462,3.3526,-0.63831,-20.97,52.181,5.7066,-1.9022,-0.55069,7.6088,-7.1054e-15,-0.27534,0,0,0.16667,-0,7.5189e-17,0.66667
0.20632,0.73958,1.2379,0.35938,16.354,140.24,-1.1864,0.39546,-1.5405,-1.5818,-3.5395e-10,-0.77023,0,0,0.16667,-1.9737e-16,0,0.66667
0.59434,0.29369,3.566,-0.30947,-9.4576,44.585,2.9429,-0.98097,-1.6605,3.9239,1.1344e-12,-0.83025,0,0,0.16667,-0,-0,0.66667
0.93421,0.46812,5.6053,-0.047826,-0.26432,1.784,0.71487,-0.23829,-1.9929,0.95316,-3.2449e-08,-0.99644,0,0,0.16667,-2.9606e-16,0,0.66667
0.72548,0.45783,4.3529,-0.063254,-1.4015,22.059,0.73423,-0.24474,-1.9844,0.97897,-5.244e-12,-0.99222,0,0,0.16667,-7.8949e-16,0,0.66667
0.5866,0.51537,3.5196,0.023059,0.71252,45.952,-0.21642,0.072139,-1.9966,-0.28856,-4.243e-13,-0.99829,0,0,0.16667,-0,-0,0.66667
0.8653,0.82494,5.1918,0.48742,5.7143,6.6844,-6.7482,2.2494,-1.154,-8.9975,4.0992e-09,-0.57699,0,0,0.16667,-0,-0,0.66667
0.99657,0.72698,5.9794,0.34047,-0.045736,0.34062,-5.4288,1.8096,-1.5876,-7.2384,9.1918e-08,-0.7938,0,0,0.16667,-0,-1.3688e-17,0.66667
0.86511,0.50145,5.1906,0.0021719,0.02496,6.1513,-0.030063,0.010021,-2.0001,-0.040085,1.0157e-08,-1,0,0,0.16667,-0,-0,0.66667
0.17918,0.052346,1.0751,-0.67148,-31.119,148.14,1.9251,-0.64169,-0.39552,2.5668,6.0237e-10,-0.19776,0,0,0.16667,1.9737e-16,0,0.66667
0.69466,0.17494,4.168,-0.48758,-11.946,27.153,5.4193,-1.8064,-1.1533,7.2257,4.5142e-12,-0.57663,0,0,0.16667,-7.8949e-16,0,0.66667
0.29623,0.45335,1.7774,-0.069972,-3.0234,115.17,0.33164,-0.11055,-1.9835,0.44219,1.848e-13,-0.99176,0,0,0.16667,-3.9475e-16,0,0.66667
0.059534,0.045189,0.3572,-0.68222,-32.562,182.94,0.64984,-0.21661,-0.34478,0.86645,-1.7977e-06,-0.17239,0,0,0.16667,-0,-0,0.66667
0.10804,0.69653,0.64826,0.29479,13.839,168.61,-0.50961,0.16987,-1.6918,-0.67948,-5.8146e-09,-0.84589,0,0,0.16667,-0,-0,0.66667
0.76279,0.29964,4.5768,-0.30054,-5.8849,17.124,3.668,-1.2227,-1.6786,4.8906,-9.9222e-11,-0.83928,0,0,0.16667,-0,-0,0.66667
