xi,eta,X,Y,uX,uY,epsilon_X,epsilon_Y,gamma_XY,sigma_XX,sigma_YY,sigma_XY,fx,fy,dxidx,dxidy,detadx,detady,
0.41702,0.7655,6.2553,0.39825,98.529,1245,-6.6431,2.2144,-1.432,-8.8574,3.737e-12,-0.71602,0,0,0.066667,6.3159e-16,0,0.66667
0.72032,0.30817,10.805,-0.28774,-41.389,325.51,8.2907,-2.7636,-1.7115,11.054,7.6295e-13,-0.85576,0,0,0.066667,-0,-0,0.66667
0.00011437,0.73538,0.0017156,0.35307,105.76,3020.7,-0.0016108,0.00053799,-1.5679,-0.0021472,1.5704e-06,-0.78395,0,0,0.066667,-1.542e-19,0,0.66667
0.30233,0.8122,4.535,0.4683,127.48,1696.2,-5.6633,1.8878,-1.2169,-7.551,6.5321e-12,-0.60845,0,0,0.066667,-2.5658e-16,0,0.66667
0.14676,0.23669,2.2013,-0.39496,-115.77,2362.6,2.3185,-0.77283,-1.4396,3.0913,-3.6546e-09,-0.71979,0,0,0.066667,1.579e-16,0,0.66667
0.092339,0.062824,1.3851,-0.65576,-194.96,2605.2,2.4221,-0.80737,-0.47827,3.2295,-1.2467e-06,-0.23914,0,0,0.066667,-3.158e-16,0,0.66667
0.18626,0.62204,2.7939,0.18307,52.914,2188.9,-1.3639,0.45464,-1.8883,-1.8186,-5.438e-12,-0.94413,0,0,0.066667,-4.737e-16,0,0.66667
0.34556,0.94394,5.1834,0.66591,175.83,1521.8,-9.2044,3.0681,-0.42808,-12.273,-7.9936e-12,-0.21404,0,0,0.066667,-0,-0,0.66667
0.39677,0.34766,5.9515,-0.22851,-57.64,1321.2,3.6266,-1.2089,-1.8095,4.8355,-1.2802e-11,-0.90473,0,0,0.066667,1.2632e-15,0,0.66667
0.53882,0.43363,8.0823,-0.099561,-21.14,819.81,2.1458,-0.71527,-1.9591,2.8611,1.0204e-11,-0.97953,0,0,0.066667,-9.4739e-16,0,0.66667
0.41919,0.27723,6.2879,-0.33416,-82.476,1236.8,5.6031,-1.8677,-1.6051,7.4708,4.345e-12,-0.80257,0,0,0.066667,9.4739e-16,0,0.66667
0.68522,0.69207,10.278,0.28811,45.707,406.17,-7.8968,2.6323,-1.7082,-10.529,-5.6604e-12,-0.85411,0,0,0.066667,2.5264e-15,0,0.66667
0.20445,0.18359,3.0668,-0.47461,-136.26,2110,3.8814,-1.2938,-1.206,5.1752,2.378e-10,-0.603,0,0,0.066667,-4.737e-16,0,0.66667
0.87812,0.73211,13.172,0.34817,23.75,67.432,-12.229,4.0764,-1.569,-16.306,-1.8569e-08,-0.78448,0,0,0.066667,1.2632e-15,0,0.66667
0.027388,0.7503,0.41081,0.37544,112.38,2897.5,-0.4113,0.13711,-1.4985,-0.5484,9.0159e-06,-0.74924,0,0,0.066667,-0,-0,0.66667
0.67047,0.45507,10.057,-0.067393,-11.09,442.01,1.8074,-0.60246,-1.9895,2.4098,7.4778e-12,-0.99476,0,0,0.066667,-7.9399e-16,0,0.66667
0.4173,0.75403,6.2596,0.38104,94.241,1243.9,-6.3604,2.1201,-1.4812,-8.4806,9.698e-12,-0.74059,0,0,0.066667,-0,-0,0.66667
0.55869,0.15501,8.3803,-0.51748,-106.63,757.85,11.565,-3.8548,-1.0474,15.419,1.2553e-11,-0.52372,0,0,0.066667,1.579e-16,0,0.66667
0.14039,0.66052,2.1058,0.24078,70.684,2390.7,-1.3521,0.4507,-1.8053,-1.8028,-3.6419e-10,-0.90266,0,0,0.066667,-0,-0,0.66667
0.1981,0.29391,2.9715,-0.30913,-88.951,2137.4,2.4496,-0.81653,-1.6559,3.2661,-1.9058e-10,-0.82797,0,0,0.066667,-0,-0,0.66667
0.80074,0.44476,12.011,-0.082854,-8.8709,171.07,2.6538,-0.8846,-1.9741,3.5384,-4.4714e-11,-0.98704,0,0,0.066667,-0,-0,0.66667
0.96826,0.8319,14.524,0.49785,9.1675,6.7593,-19.282,6.4273,-1.1283,-25.709,-8.1943e-06,-0.56415,0,0,0.066667,-0,-0,0.66667
0.31342,0.90051,4.7014,0.60077,162.4,1651.1,-7.5318,2.5106,-0.72497,-10.042,-9.2606e-12,-0.36248,0,0,0.066667,4.737e-16,0,0.66667
0.69232,0.31828,10.385,-0.27258,-42.441,389.18,7.5486,-2.5162,-1.7325,10.065,6.2976e-12,-0.86625,0,0,0.066667,-0,-0,0.66667
0.87639,0.17908,13.146,-0.48138,-33.33,69.905,16.875,-5.625,-1.1822,22.5,-1.5551e-08,-0.59108,0,0,0.066667,6.3159e-16,0,0.66667
0.89461,0.45874,13.419,-0.061888,-3.6714,50.491,2.2146,-0.73821,-1.9843,2.9528,4.9679e-11,-0.99217,0,0,0.066667,-0,-0,0.66667
0.085044,0.67898,1.2757,0.26847,79.822,2637.7,-0.91328,0.30443,-1.7376,-1.2177,-1.195e-08,-0.86882,0,0,0.066667,-0,-0,0.66667
0.039055,0.41442,0.58582,-0.12837,-38.379,2844.8,0.20054,-0.066845,-1.9351,0.26738,2.5549e-07,-0.96756,0,0,0.066667,-7.8949e-17,0,0.66667
0.16983,0.056519,2.5475,-0.66522,-193.73,2261.3,4.519,-1.5063,-0.43056,6.0253,-3.5288e-08,-0.21528,0,0,0.066667,2.1611e-17,-4.8871e-17,0.66667
0.87814,0.85403,13.172,0.53104,36.307,68.347,-18.653,6.2177,-0.99739,-24.871,9.6149e-08,-0.49869,0,0,0.066667,-0,-0,0.66667
0.098347,0.88562,1.4752,0.57843,171.71,2578.2,-2.2755,0.75849,-0.80697,-3.034,7.0918e-08,-0.40349,0,0,0.066667,-1.579e-16,0,0.66667
0.42111,0.88824,6.3166,0.58236,143.59,1230.3,-9.8094,3.2698,-0.80243,-13.079,2.7089e-12,-0.40121,0,0,0.066667,-6.3159e-16,7.7106e-17,0.66667
0.95789,0.4772,14.368,-0.034205,-0.82612,8.7697,1.3106,-0.43686,-1.9923,1.7474,-1.7472e-07,-0.99616,0,0,0.066667,-0,-0,0.66667
0.53317,0.77997,7.9975,0.41995,90.004,838.64,-8.9561,2.9854,-1.3781,-11.941,6.5761e-12,-0.68907,0,0,0.066667,2.3685e-16,0,0.66667
0.69188,0.39922,10.378,-0.15117,-23.557,390,4.1837,-1.3946,-1.9161,5.5782,3.6984e-12,-0.95807,0,0,0.066667,-6.3159e-16,0,0.66667
0.31552,0.26626,4.7327,-0.35062,-94.554,1642.1,4.425,-1.475,-1.5631,5.9,2.9653e-11,-0.78157,0,0,0.066667,6.3159e-16,0,0.66667
0.6865,0.27109,10.298,-0.34337,-54.305,403.25,9.429,-3.143,-1.5882,12.572,3.6353e-12,-0.79412,0,0,0.066667,6.3159e-16,0,0.66667
0.83463,0.64719,12.519,0.22078,19.978,120.07,-7.3709,2.457,-1.8208,-9.8278,-3.0092e-10,-0.91041,0,0,0.066667,-0,-0,0.66667
0.018288,0.040255,0.27432,-0.68962,-206.75,2938.6,0.50442,-0.16816,-0.31056,0.67255,-3.12e-05,-0.15528,0,0,0.066667,-0,-0,0.66667
0.75014,0.38441,11.252,-0.17338,-22.649,262.99,5.2024,-1.7341,-1.9044,6.9365,2.7347e-12,-0.95218,0,0,0.066667,-0,-0,0.66667
0.98886,0.68293,14.833,0.27439,1.6849,1.289,-10.853,3.6178,-1.7298,-14.471,1.7978e-06,-0.8649,0,0,0.066667,-0,-0,0.66667
0.74817,0.69364,11.222,0.29045,38.218,267.21,-8.6923,2.8974,-1.7047,-11.59,-1.4424e-12,-0.85236,0,0,0.066667,-0,-0,0.66667
0.28044,0.87009,4.2067,0.55513,153.29,1787,-6.2273,2.0758,-0.91315,-8.3031,5.4605e-12,-0.45657,0,0,0.066667,6.3975e-16,-4.3798e-17,0.66667
0.78928,0.78155,11.839,0.42232,47.601,191.2,-13.333,4.4444,-1.3608,-17.778,6.9101e-11,-0.68042,0,0,0.066667,2.5264e-15,0,0.66667
0.10323,0.17645,1.5484,-0.48532,-143.88,2556.3,2.0039,-0.66797,-1.1568,2.6719,-5.5391e-08,-0.57842,0,0,0.066667,-0,-0,0.66667
0.44789,0.24052,6.7184,-0.38921,-93.174,1131.4,6.9731,-2.3244,-1.457,9.2974,1.5747e-12,-0.72848,0,0,0.066667,-6.3159e-16,0,0.66667
0.9086,0.94322,13.629,0.66483,34.712,41.07,-24.163,8.0542,-0.43141,-32.217,-2.2453e-06,-0.2157,0,0,0.066667,2.5264e-15,0,0.66667
0.29361,0.66536,4.4042,0.24804,67.869,1731.8,-2.9132,0.97106,-1.7811,-3.8842,4.15e-12,-0.89054,0,0,0.066667,6.3159e-16,0,0.66667
0.28778,0.26459,4.3166,-0.35312,-97.002,1756.1,4.0648,-1.3549,-1.5505,5.4197,-1.8212e-12,-0.77524,0,0,0.066667,-0,-0,0.66667
0.13003,0.17012,1.9504,-0.49481,-145.77,2436.9,2.5736,-0.85786,-1.1251,3.4315,6.5256e-09,-0.56257,0,0,0.066667,-0,-0,0.66667
0.019367,0.14803,0.2905,-0.52795,-158.17,2933.7,0.40898,-0.13634,-1.0076,0.5453,-1.7793e-05,-0.5038,0,0,0.066667,1.9737e-17,0,0.66667
0.67884,0.90997,10.183,0.61495,99.354,423,-16.698,5.566,-0.64994,-22.264,1.1669e-11,-0.32497,0,0,0.066667,-0,-0,0.66667
0.21163,0.77616,3.1744,0.41424,118.54,2078.9,-3.5066,1.1689,-1.3841,-4.6755,-1.1679e-10,-0.69207,0,0,0.066667,1.2531e-16,0,0.66667
0.26555,0.28807,3.9832,-0.3179,-88.492,1848.9,3.3767,-1.1256,-1.6525,4.5022,1.7452e-11,-0.82625,0,0,0.066667,-0,-0,0.66667
0.49157,0.74725,7.3736,0.37088,84.214,977.35,-7.2926,2.4309,-1.5055,-9.7234,-2.6041e-12,-0.75277,0,0,0.066667,-7.8949e-16,0,0.66667
0.053363,0.86256,0.80044,0.54385,162.54,2780.3,-1.1608,0.38695,-0.94229,-1.5478,2.8514e-06,-0.47114,0,0,0.066667,-6.3194e-17,0,0.66667
0.57412,0.61368,8.6118,0.17051,34.199,709.48,-3.9158,1.3053,-1.8944,-5.2211,4.3756e-12,-0.94721,0,0,0.066667,-0,-0,0.66667
0.14673,0.9395,2.2009,0.65924,193.43,2363,-3.8692,1.2897,-0.45025,-5.1589,-5.5647e-08,-0.22512,0,0,0.066667,-0,-0,0.66667
0.58931,0.60561,8.8396,0.15841,30.932,663.93,-3.7342,1.2447,-1.9076,-4.9789,-2.2304e-12,-0.9538,0,0,0.066667,-0,-0,0.66667
0.69976,0.10229,10.496,-0.59657,-91.208,373.09,16.698,-5.5661,-0.73421,22.264,4.1389e-12,-0.3671,0,0,0.066667,-0,-0,0.66667
0.10233,0.98938,1.535,0.73408,217.9,2560.5,-3.0049,1.0016,-0.077707,-4.0065,-1.1234e-07,-0.038854,0,0,0.066667,-0,-0,0.66667
0.41406,0.98682,6.2108,0.73022,181.49,1257.1,-12.094,4.0314,-0.097453,-16.126,-1.6463e-11,-0.048727,0,0,0.066667,6.3159e-16,0,0.66667
0.6944,0.90075,10.416,0.60113,93.255,385.62,-16.697,5.5656,-0.70948,-22.263,-2.7297e-11,-0.35474,0,0,0.066667,1.579e-15,0,0.66667
0.41418,0.73179,6.2127,0.34769,86.254,1255.5,-5.7602,1.9201,-1.5636,-7.6803,1.6889e-12,-0.78178,0,0,0.066667,6.3159e-16,0,0.66667
0.049953,0.96362,0.7493,0.69543,208.05,2795.7,-1.3896,0.46319,-0.28124,-1.8528,2.6141e-07,-0.14062,0,0,0.066667,1.9737e-17,0,0.66667
0.5359,0.99431,8.0384,0.74146,158.55,831.14,-15.894,5.298,-0.042289,-21.192,-8.8658e-12,-0.021144,0,0,0.066667,-3.158e-16,0,0.66667
0.66379,0.020758,9.9569,-0.71886,-120.6,461.08,19.087,-6.3624,-0.15615,25.449,-5.1088e-12,-0.078075,0,0,0.066667,-0,-0,0.66667
0.51489,0.16433,7.7233,-0.50351,-110.84,898.93,10.37,-3.4567,-1.1073,13.827,1.1722e-11,-0.55367,0,0,0.066667,-0,-0,0.66667
0.94459,0.88471,14.169,0.57707,18.515,16.833,-21.804,7.268,-0.80968,-29.072,-7.2947e-06,-0.40484,0,0,0.066667,2.5264e-15,0,0.66667
0.58656,0.11667,8.7983,-0.575,-113.01,673.28,13.491,-4.4969,-0.81825,17.988,8.0718e-12,-0.40913,0,0,0.066667,-6.3159e-16,0,0.66667
0.9034,0.45466,13.551,-0.068006,-3.7118,42.719,2.4575,-0.81916,-1.9843,3.2766,-1.2732e-08,-0.99215,0,0,0.066667,-1.2632e-15,0,0.66667
0.13747,0.83135,2.0621,0.49702,146.13,2403.8,-2.7331,0.91104,-1.1216,-3.6441,2.2524e-09,-0.5608,0,0,0.066667,-1.579e-16,0,0.66667
0.13928,0.69424,2.0891,0.29136,85.568,2395.7,-1.6232,0.54106,-1.7046,-2.1643,-2.768e-09,-0.85229,0,0,0.066667,-0,-0,0.66667
0.80739,0.69526,12.111,0.29288,30.443,160.78,-9.4589,3.153,-1.691,-12.612,-6.5474e-11,-0.84548,0,0,0.066667,-0,-0,0.66667
0.39768,0.57866,5.9652,0.11799,29.732,1317.6,-1.8769,0.62562,-1.944,-2.5025,6.2266e-12,-0.972,0,0,0.066667,6.3159e-16,0,0.66667
0.16535,0.083831,2.4803,-0.62425,-182.04,2280.9,4.1289,-1.3763,-0.60848,5.5052,-2.8689e-08,-0.30424,0,0,0.066667,-0,-0,0.66667
0.92751,0.26774,13.913,-0.34839,-14.445,25.367,12.926,-4.3085,-1.5632,17.234,-3.8905e-07,-0.78161,0,0,0.066667,-0,-0,0.66667
0.34777,0.76325,5.2165,0.39487,103.97,1512.4,-5.493,1.831,-1.4433,-7.3239,8.6589e-12,-0.72164,0,0,0.066667,-0,-0,0.66667
0.75081,0.874,11.262,0.56101,73.283,263.09,-16.848,5.6161,-0.8905,-22.465,-9.6287e-11,-0.44525,0,0,0.066667,2.3685e-16,0,0.66667
0.726,0.49922,10.89,-0.0011652,-0.16464,312.81,0.033838,-0.011279,-1.995,0.045118,-3.9794e-12,-0.99748,0,0,0.066667,1.579e-15,0,0.66667
0.88331,0.57864,13.25,0.11796,7.7102,61.456,-4.1678,1.3893,-1.9439,-5.5571,-4.0398e-10,-0.97196,0,0,0.066667,1.2632e-15,0,0.66667
0.62367,0.62708,9.3551,0.19062,34.839,565.5,-4.7555,1.5852,-1.878,-6.3406,3.6584e-12,-0.93901,0,0,0.066667,-0,-0,0.66667
0.75094,0.38512,11.264,-0.17233,-22.449,261.4,5.1763,-1.7254,-1.9021,6.9017,3.1539e-12,-0.95106,0,0,0.066667,-0,-0,0.66667
0.3489,0.51957,5.2335,0.029352,7.7167,1507.5,-0.40964,0.13655,-1.9925,-0.54619,1.2761e-11,-0.99625,0,0,0.066667,-0,-0,0.66667
0.26993,0.39182,4.0489,-0.16228,-45.045,1830.4,1.7521,-0.58404,-1.9034,2.3361,4.2026e-11,-0.9517,0,0,0.066667,-0,-0,0.66667
0.89589,0.25282,13.438,-0.37077,-21.792,50.119,13.287,-4.4289,-1.5076,17.716,-6.2597e-08,-0.75382,0,0,0.066667,-0,-0,0.66667
0.42809,0.5703,6.4214,0.10546,25.779,1203.5,-1.8058,0.60194,-1.955,-2.4077,-9.6948e-12,-0.97749,0,0,0.066667,1.2632e-15,0,0.66667
0.96484,0.92833,14.473,0.64249,13.216,8.9003,-24.796,8.2653,-0.53052,-33.061,1.4742e-05,-0.26526,0,0,0.066667,-0,-0,0.66667
0.66344,0.16741,9.9516,-0.49889,-83.628,460.79,13.239,-4.4131,-1.1086,17.652,3.6264e-12,-0.55432,0,0,0.066667,-0,-0,0.66667
0.6217,0.76088,9.3254,0.39132,71.856,571.48,-9.7314,3.2438,-1.4551,-12.975,6.8647e-12,-0.72755,0,0,0.066667,-0,-0,0.66667
0.11475,0.42252,1.7212,-0.11621,-34.339,2504.7,0.5334,-0.1778,-1.9471,0.71121,1.2909e-09,-0.97355,0,0,0.066667,-0,-0,0.66667
0.94949,0.59068,14.242,0.13602,3.9414,12.478,-5.166,1.722,-1.9339,-6.888,2.3321e-07,-0.96694,0,0,0.066667,6.3159e-16,0,0.66667
0.44991,0.59821,6.7487,0.14731,35.166,1123.8,-2.6511,0.88371,-1.9234,-3.5348,-2.0341e-11,-0.96169,0,0,0.066667,1.2632e-15,0,0.66667
0.57839,0.016081,8.6758,-0.72588,-144.89,698.47,16.794,-5.5979,-0.137,22.392,1.5286e-11,-0.068499,0,0,0.066667,-0,-0,0.66667
0.40814,0.79667,6.1221,0.44501,111.1,1278.5,-7.2649,2.4216,-1.2998,-9.6866,1.0093e-11,-0.64988,0,0,0.066667,-0,-0,0.66667
0.23703,0.047652,3.5554,-0.67852,-192.05,1970.3,6.4331,-2.1444,-0.36437,8.5775,-2.0483e-10,-0.18218,0,0,0.066667,-0,-0,0.66667
0.90338,0.069426,13.551,-0.64586,-35.536,45.222,23.338,-7.7794,-0.51803,31.118,2.5454e-07,-0.25902,0,0,0.066667,-0,5.8356e-17,0.66667
0.57368,0.45803,8.6052,-0.062959,-12.635,710.72,1.4447,-0.48157,-1.9828,1.9263,4.7162e-12,-0.9914,0,0,0.066667,6.3159e-16,0,0.66667
0.0028703,0.76336,0.043055,0.39504,118.34,3008.3,-0.04535,0.015116,-1.4458,-0.060467,-1.2345e-06,-0.72292,0,0,0.066667,-4.9343e-18,0,0.66667
0.61714,0.86404,9.2572,0.54606,101.28,584.79,-13.48,4.4933,-0.93328,-17.973,1.6234e-11,-0.46664,0,0,0.066667,-6.3159e-16,0,0.66667
0.32664,0.70793,4.8997,0.31189,83.433,1596.9,-4.0751,1.3584,-1.6596,-5.4335,4.1895e-12,-0.82982,0,0,0.066667,-0,-0,0.66667
0.52706,0.94802,7.9059,0.67203,145.53,859.49,-14.168,4.7226,-0.39169,-18.89,-2.1121e-12,-0.19584,0,0,0.066667,-1.2632e-15,0,0.66667
0.88594,0.046994,13.289,-0.67951,-43.779,61.466,24.08,-8.0267,-0.35455,32.107,1.0263e-07,-0.17727,0,0,0.066667,-0,-0,0.66667
0.35727,0.87399,5.359,0.56098,146.67,1475.1,-8.0169,2.6723,-0.88565,-10.689,1.9611e-11,-0.44283,0,0,0.066667,-8.6844e-16,-7.3923e-17,0.66667
0.90854,0.80798,13.628,0.46198,24.026,39.734,-16.789,5.5963,-1.2445,-22.385,1.2405e-07,-0.62226,0,0,0.066667,-1.579e-15,0,0.66667
0.62336,0.040489,9.3504,-0.68927,-126.37,568.19,17.186,-5.7288,-0.31584,22.915,2.0126e-12,-0.15792,0,0,0.066667,-0,-0,0.66667
0.015821,0.82076,0.23732,0.48114,144.14,2949.7,-0.30448,0.10149,-1.188,-0.40597,-6.7684e-06,-0.59399,0,0,0.066667,-0,-0,0.66667
0.92944,0.52135,13.942,0.032029,1.2895,23.385,-1.1908,0.39692,-1.9899,-1.5877,7.6146e-08,-0.99496,0,0,0.066667,-0,-0,0.66667
0.6909,0.64605,10.363,0.21908,34.234,392.44,-6.0544,2.0181,-1.8287,-8.0726,3.0753e-12,-0.91437,0,0,0.066667,-0,-0,0.66667
0.99732,0.52553,14.96,0.038299,0.039151,0.099123,-1.5279,0.50929,-1.9967,-2.0372,1.5661e-06,-0.99835,0,0,0.066667,1.2632e-15,0,0.66667
0.17234,0.77014,2.5851,0.40521,117.79,2249.9,-2.7934,0.93113,-1.4259,-3.7245,-7.244e-10,-0.71293,0,0,0.066667,-1.579e-16,0,0.66667
0.13714,0.44245,2.057,-0.086328,-25.362,2405.1,0.47354,-0.15785,-1.9732,0.63139,1.0733e-09,-0.98662,0,0,0.066667,-0,-0,0.66667
0.9326,0.1066,13.989,-0.5901,-22.93,23.583,22.013,-7.3376,-0.75782,29.351,-7.4725e-07,-0.37891,0,0,0.066667,-0,-0,0.66667
0.69682,0.7649,10.452,0.39735,61.157,379.01,-11.075,3.6917,-1.4326,-14.767,2.8422e-13,-0.71632,0,0,0.066667,-0,-0,0.66667
0.066,0.68562,0.99,0.27842,83.024,2723.3,-0.73504,0.24501,-1.7246,-0.98006,-4.4142e-07,-0.8623,0,0,0.066667,1.0856e-16,0,0.66667
0.75546,0.78652,11.332,0.42977,55.179,253.28,-12.987,4.3291,-1.339,-17.316,4.6341e-11,-0.6695,0,0,0.066667,-0,-0,0.66667
0.75388,0.82434,11.308,0.48651,62.84,256.65,-14.671,4.8903,-1.1565,-19.561,1.2607e-11,-0.57825,0,0,0.066667,-1.2632e-15,0,0.66667
0.92302,0.66459,13.845,0.24688,10.835,27.99,-9.1151,3.0384,-1.7903,-12.153,2.1129e-07,-0.89515,0,0,0.066667,-0,-0,0.66667
0.71152,0.45153,10.673,-0.072711,-10.728,344.63,2.0694,-0.68981,-1.9747,2.7592,4.722e-12,-0.98733,0,0,0.066667,-1.2632e-15,0,0.66667
0.12427,0.41282,1.8641,-0.13077,-38.55,2462.3,0.65002,-0.21667,-1.9482,0.8667,4.3793e-10,-0.97408,0,0,0.066667,-3.158e-16,0,0.66667
0.01988,0.41813,0.2982,-0.12281,-36.759,2931.4,0.09766,-0.032554,-1.9436,0.13021,-1.591e-06,-0.9718,0,0,0.066667,3.9475e-17,0,0.66667
0.026211,0.61218,0.39316,0.16828,50.355,2902.8,-0.17643,0.058811,-1.895,-0.23524,2.4911e-06,-0.9475,0,0,0.066667,-0,-0,0.66667
0.028306,0.29358,0.4246,-0.30963,-92.664,2893.3,0.35058,-0.11686,-1.6597,0.46744,-5.2533e-06,-0.82983,0,0,0.066667,-0,-0,0.66667
0.24621,0.89366,3.6932,0.59049,166.28,1931,-5.8154,1.9385,-0.75849,-7.7539,3.4964e-10,-0.37924,0,0,0.066667,-0,-0,0.66667
0.86003,0.69778,12.9,0.29667,23.026,87.53,-10.206,3.4019,-1.696,-13.608,2.2802e-09,-0.84798,0,0,0.066667,-0,-0,0.66667
0.53883,0.42705,8.0825,-0.10943,-23.235,819.77,2.3585,-0.78618,-1.951,3.1447,9.6969e-12,-0.97548,0,0,0.066667,-6.3159e-16,0,0.66667
0.55282,0.46517,8.2923,-0.052249,-10.854,775.24,1.1554,-0.38512,-1.9857,1.5405,1.1457e-11,-0.99284,0,0,0.066667,3.158e-16,0,0.66667
0.84203,0.49463,12.63,-0.008057,-0.69864,109.74,0.27137,-0.090457,-2.005,0.36183,7.1368e-10,-1.0025,0,0,0.066667,-2.5264e-15,0,0.66667
0.12417,0.052057,1.8626,-0.67191,-198.39,2463.1,3.3374,-1.1125,-0.40293,4.4498,-9.9762e-08,-0.20147,0,0,0.066667,1.579e-16,0,0.66667
0.27918,0.28218,4.1878,-0.32673,-90.226,1791.8,3.6488,-1.2163,-1.6252,4.865,1.7737e-11,-0.81258,0,0,0.066667,-0,-0,0.66667
0.58576,0.087677,8.7864,-0.61848,-121.77,675.85,14.491,-4.8304,-0.63389,19.322,4.4542e-12,-0.31695,0,0,0.066667,-0,-0,0.66667
0.9696,0.42581,14.544,-0.11128,-1.9357,4.8436,4.316,-1.4387,-1.964,5.7546,1.115e-06,-0.98198,0,0,0.066667,-0,-0,0.66667
0.56103,0.82255,8.4155,0.48383,99.298,750.45,-10.858,3.6193,-1.1733,-14.477,8.3604e-12,-0.58664,0,0,0.066667,-0,-0,0.66667
0.018647,0.95834,0.27971,0.68752,206.12,2937,-0.51276,0.17095,-0.31966,-0.68367,3.9518e-05,-0.15983,0,0,0.066667,-1.9737e-17,0,0.66667
0.80063,0.53649,12.009,0.054737,5.8632,171.23,-1.753,0.58432,-1.9884,-2.3373,-8.3726e-11,-0.99418,0,0,0.066667,2.5264e-15,0,0.66667
0.23297,0.36165,3.4946,-0.20753,-58.767,1986.9,1.9339,-0.64465,-1.8526,2.5786,1.4954e-11,-0.92628,0,0,0.066667,-0,-0,0.66667
0.80711,0.7965,12.107,0.44475,46.341,161.83,-14.358,4.7861,-1.2918,-19.144,5.0655e-11,-0.64589,0,0,0.066667,-0,-0,0.66667
0.38786,0.95404,5.8179,0.68106,173.51,1356.4,-10.566,3.5221,-0.35177,-14.088,-6.3745e-12,-0.17589,0,0,0.066667,6.3159e-16,-7.868e-17,0.66667
0.86354,0.49395,12.953,-0.0090723,-0.68681,82.882,0.31337,-0.10446,-1.9977,0.41783,-5.8414e-09,-0.99883,0,0,0.066667,-0,-0,0.66667
0.74712,0.21536,11.207,-0.42696,-56.422,269.79,12.76,-4.2532,-1.3535,17.013,-7.8302e-12,-0.67676,0,0,0.066667,2.2119e-16,0,0.66667
0.55624,0.57963,8.3436,0.11945,24.679,764.55,-2.6577,0.88589,-1.9433,-3.5436,-4.6221e-12,-0.97167,0,0,0.066667,6.3159e-16,0,0.66667
0.13646,0.13934,2.0468,-0.54099,-159.12,2408.4,2.9529,-0.98428,-0.9567,3.9371,-4.5942e-08,-0.47835,0,0,0.066667,-0,-0,0.66667
0.059918,0.79638,0.89877,0.44457,132.72,2750.7,-1.0655,0.35517,-1.2988,-1.4207,6.0418e-07,-0.64941,0,0,0.066667,-0,-0,0.66667
0.12134,0.67439,1.8202,0.26159,77.188,2475.4,-1.2697,0.42323,-1.7552,-1.6929,9.0318e-09,-0.87762,0,0,0.066667,1.579e-16,0,0.66667
0.044552,0.78309,0.66828,0.42464,126.97,2820,-0.75673,0.25224,-1.3626,-1.009,-4.9793e-06,-0.68129,0,0,0.066667,-1.579e-16,0,0.66667
0.10749,0.66305,1.6124,0.24457,72.396,2537.1,-1.0516,0.35053,-1.7918,-1.4021,-3.1812e-08,-0.89588,0,0,0.066667,-0,-0,0.66667
0.22571,0.069303,3.3856,-0.64604,-183.84,2018.6,5.8327,-1.9442,-0.51009,7.777,-1.0583e-09,-0.25505,0,0,0.066667,-0,-0,0.66667
0.71299,0.38368,10.695,-0.17448,-25.638,341.47,4.976,-1.6587,-1.8867,6.6347,1.3709e-12,-0.94334,0,0,0.066667,-0,-0,0.66667
0.55972,0.083583,8.3958,-0.62462,-128.57,755.11,13.985,-4.6615,-0.6139,18.646,1.7661e-11,-0.30695,0,0,0.066667,-6.3159e-16,-1.0525e-16,0.66667
0.012556,0.90984,0.18834,0.61475,184.28,2964.5,-0.30874,0.10284,-0.6573,-0.41168,-0.00010886,-0.32865,0,0,0.066667,-0,-9.3949e-17,0.66667
0.071974,0.96087,1.0796,0.69131,206.26,2696.6,-1.9903,0.66341,-0.29533,-2.6537,-1.2972e-05,-0.14766,0,0,0.066667,7.8949e-17,0,0.66667
0.96728,0.87002,14.509,0.55503,10.573,7.4482,-21.475,7.1582,-0.91091,-28.633,-7.3914e-06,-0.45545,0,0,0.066667,-1.8948e-15,0,0.66667
0.5681,0.29118,8.5215,-0.31323,-63.49,728.12,7.1178,-2.3726,-1.6462,9.4904,5.9979e-12,-0.82309,0,0,0.066667,-0,-0,0.66667
0.20329,0.30427,3.0494,-0.29359,-84.293,2114.8,2.3874,-0.79581,-1.7048,3.1832,-8.1628e-11,-0.85238,0,0,0.066667,-3.158e-16,0,0.66667
0.25233,0.6315,3.7849,0.19724,55.298,1904.6,-1.9908,0.66359,-1.8646,-2.6544,3.3213e-11,-0.93231,0,0,0.066667,-0,-0,0.66667
0.74383,0.86372,11.157,0.54558,72.967,277.02,-16.233,5.4109,-0.93593,-21.644,5.9579e-12,-0.46796,0,0,0.066667,-0,-0,0.66667
0.19543,0.70603,2.9314,0.30905,89.023,2149,-2.4159,0.80529,-1.6538,-3.2212,1.6994e-10,-0.8269,0,0,0.066667,-3.158e-16,0,0.66667
0.58136,0.27133,8.7204,-0.34301,-67.966,687.97,7.9765,-2.6588,-1.5815,10.635,9.6123e-12,-0.79075,0,0,0.066667,-0,-0,0.66667
0.97002,0.50071,14.55,0.0010632,0.018217,4.641,-0.041253,0.013749,-2.0077,-0.055006,-2.7565e-06,-1.0039,0,0,0.066667,-0,-0,0.66667
0.84683,0.79527,12.702,0.4429,37.418,104.55,-15.002,5.0008,-1.3026,-20.003,-7.4485e-09,-0.6513,0,0,0.066667,-0,-0,0.66667
0.23985,0.60418,3.5977,0.15627,44.098,1957.6,-1.4993,0.49976,-1.9083,-1.999,1.1871e-11,-0.95416,0,0,0.066667,-6.3159e-16,0,0.66667
0.49377,0.38588,7.4065,-0.17118,-38.739,969.47,3.3809,-1.127,-1.89,4.5079,6.6815e-12,-0.94502,0,0,0.066667,-0,-0,0.66667
0.61996,0.74546,9.2993,0.36819,67.84,576.25,-9.1305,3.0435,-1.5145,-12.174,7.3932e-12,-0.75724,0,0,0.066667,-9.4739e-16,0,0.66667
0.82898,0.13694,12.435,-0.54459,-50.953,129.38,18.058,-6.0194,-0.95342,24.078,-3.2481e-10,-0.47671,0,0,0.066667,-0,-0,0.66667
0.15679,0.99325,2.3519,0.73987,216.49,2318.7,-4.6402,1.5467,-0.063406,-6.1869,1.0021e-08,-0.031703,0,0,0.066667,4.737e-16,0,0.66667
0.018576,0.083942,0.27864,-0.62409,-187.05,2937.3,0.46371,-0.15458,-0.61572,0.61827,-1.9546e-05,-0.30786,0,0,0.066667,-0,-0,0.66667
0.070022,0.79263,1.0503,0.43894,130.87,2705.3,-1.2294,0.40981,-1.3084,-1.6392,-4.1365e-07,-0.65422,0,0,0.066667,-0,-0,0.66667
0.48635,0.22987,7.2952,-0.4052,-92.64,995.45,7.8827,-2.6276,-1.4199,10.51,1.1695e-11,-0.70996,0,0,0.066667,-0,-0,0.66667
0.60633,0.37903,9.0949,-0.18145,-34.323,614.38,4.4007,-1.4669,-1.884,5.8676,2.7578e-12,-0.94201,0,0,0.066667,-0,-0,0.66667
0.56885,0.14636,8.5328,-0.53046,-107.49,726.51,12.07,-4.0233,-0.99372,16.093,4.2029e-12,-0.49686,0,0,0.066667,6.3159e-16,0,0.66667
0.31736,0.37352,4.7604,-0.18972,-51.079,1634.4,2.4084,-0.80279,-1.8694,3.2112,4.1508e-11,-0.93468,0,0,0.066667,-9.0792e-16,0,0.66667
0.98862,0.025421,14.829,-0.71187,-4.7933,4.1625,28.151,-9.3836,-0.19643,37.534,-0.00017821,-0.098213,0,0,0.066667,-0,-0,0.66667
0.57975,0.7844,8.6962,0.4266,84.796,693.06,-9.8927,3.2976,-1.3589,-13.19,-1.0694e-12,-0.67943,0,0,0.066667,-0,-0,0.66667
0.38014,0.34034,5.7021,-0.2395,-61.341,1385.1,3.6417,-1.2139,-1.7926,4.8556,-8.6997e-12,-0.89628,0,0,0.066667,1.579e-16,0,0.66667
0.55095,0.34642,8.2642,-0.23037,-48.011,781.32,5.0769,-1.6923,-1.81,6.7692,9.6749e-12,-0.905,0,0,0.066667,-0,-0,0.66667
0.74533,0.65726,11.18,0.23588,31.33,272.76,-7.0325,2.3442,-1.8,-9.3767,1.1413e-13,-0.89998,0,0,0.066667,-0,-0,0.66667
0.66923,0.98039,10.038,0.72058,119.32,447.39,-19.289,6.4298,-0.1553,-25.719,3.5278e-12,-0.077648,0,0,0.066667,-0,-0,0.66667
0.26492,0.49757,3.9738,-0.0036445,-1.0145,1851.4,0.03862,-0.012873,-2.0097,0.051494,1.7411e-11,-1.0048,0,0,0.066667,-1.0263e-15,0,0.66667
0.066335,0.40013,0.99502,-0.1498,-44.659,2721.8,0.39749,-0.13249,-1.9189,0.52998,2.6205e-07,-0.95946,0,0,0.066667,-0,-0,0.66667
0.37008,0.11586,5.5513,-0.57621,-149.05,1424.9,8.5298,-2.8433,-0.81564,11.373,1.807e-11,-0.40782,0,0,0.066667,3.158e-16,0,0.66667
0.62972,0.21454,9.4458,-0.4282,-77.351,549.47,10.786,-3.5952,-1.3452,14.381,-4.5777e-12,-0.6726,0,0,0.066667,1.2632e-15,0,0.66667
0.21017,0.31647,3.1526,-0.2753,-78.802,2085,2.3144,-0.77147,-1.725,3.0859,1.1838e-11,-0.86249,0,0,0.066667,-0,-0,0.66667
0.75276,0.78244,11.291,0.42366,54.911,258.57,-12.757,4.2522,-1.3643,-17.009,4.453e-11,-0.68214,0,0,0.066667,-0,-0,0.66667
0.066536,0.79272,0.99805,0.43907,130.97,2720.9,-1.1686,0.38953,-1.3123,-1.5581,-3.8295e-07,-0.65613,0,0,0.066667,-0,-0,0.66667
0.26032,0.77512,3.9047,0.41268,115.25,1871.1,-4.2971,1.4324,-1.3903,-5.7295,3.7627e-11,-0.69515,0,0,0.066667,-1.579e-16,0,0.66667
0.80475,0.67466,12.071,0.262,27.562,164.9,-8.4337,2.8112,-1.7493,-11.245,-9.0258e-11,-0.87466,0,0,0.066667,-0,-0,0.66667
0.19343,0.05046,2.9015,-0.67431,-194.65,2158.1,5.2174,-1.7391,-0.37778,6.9565,-2.0426e-09,-0.18889,0,0,0.066667,-3.158e-16,0,0.66667
0.63946,0.055376,9.5919,-0.66694,-118.18,524.21,17.059,-5.6864,-0.42557,22.746,9.2015e-12,-0.21278,0,0,0.066667,-6.3159e-16,-5.558e-17,0.66667
0.52467,0.41447,7.8701,-0.1283,-27.821,865.79,2.6925,-0.89751,-1.9356,3.59,5.8509e-13,-0.96782,0,0,0.066667,-0,-0,0.66667
0.92481,0.049945,13.872,-0.67508,-29.237,29.212,24.973,-8.3243,-0.38013,33.297,-9.5122e-06,-0.19007,0,0,0.066667,1.2632e-15,0,0.66667
0.2633,0.1957,3.9495,-0.45646,-127.28,1858.6,4.8073,-1.6024,-1.2619,6.4098,-1.0038e-11,-0.63096,0,0,0.066667,-0,-0,0.66667
0.065961,0.014927,0.98942,-0.72761,-217.31,2723.7,1.9198,-0.63992,-0.11666,2.5597,8.4091e-08,-0.058329,0,0,0.066667,-0,-0,0.66667
0.73507,0.81244,11.026,0.46866,64.463,294.67,-13.78,4.5932,-1.2293,-18.373,-3.3153e-11,-0.61465,0,0,0.066667,6.3159e-16,0,0.66667
0.77218,0.33477,11.583,-0.24785,-29.891,220.98,7.6553,-2.5518,-1.7757,10.207,-1.1919e-12,-0.88785,0,0,0.066667,-1.2632e-15,0,0.66667
0.90782,0.26441,13.617,-0.35339,-18.485,39.78,12.833,-4.2775,-1.561,17.11,-5.1152e-09,-0.78051,0,0,0.066667,-1.2632e-15,0,0.66667
0.93197,0.019914,13.98,-0.72013,-28.361,25.02,26.846,-8.9485,-0.15117,35.794,-2.9749e-06,-0.075584,0,0,0.066667,-2.5264e-15,0,0.66667
0.013952,0.031277,0.20927,-0.70308,-210.83,2958.2,0.39233,-0.13069,-0.24877,0.52315,0.00013609,-0.12438,0,0,0.066667,3.9475e-17,0,0.66667
0.23436,0.086751,3.5154,-0.61987,-175.63,1981.5,5.811,-1.937,-0.6459,7.748,2.5476e-10,-0.32295,0,0,0.066667,-0,5.4889e-17,0.66667
0.61678,0.47309,9.2517,-0.040361,-7.4786,584.59,0.99574,-0.33191,-1.9885,1.3277,1.6685e-11,-0.99424,0,0,0.066667,-1.2632e-15,0,0.66667
0.94902,0.076726,14.235,-0.63491,-18.822,15.132,24.102,-8.0339,-0.56415,32.136,2.9085e-06,-0.28207,0,0,0.066667,-0,2.343e-17,0.66667
0.95018,0.57818,14.253,0.11728,3.3518,12.131,-4.4573,1.4858,-1.9515,-5.9431,2.0775e-07,-0.97576,0,0,0.066667,1.2632e-15,0,0.66667
0.55665,0.69103,8.3498,0.28655,59.184,763.51,-6.3803,2.1268,-1.7036,-8.507,-1.9007e-12,-0.85178,0,0,0.066667,-0,-0,0.66667
0.91561,0.67466,13.734,0.26199,12.572,33.361,-9.5951,3.1984,-1.7501,-12.794,2.2568e-08,-0.87503,0,0,0.066667,1.2632e-15,0,0.66667
0.64157,0.022684,9.6235,-0.71597,-126.35,518.87,18.374,-6.1246,-0.18519,24.498,6.5761e-12,-0.092597,0,0,0.066667,-0,-0,0.66667
0.39001,0.92783,5.8501,0.64175,163.14,1348,-10.012,3.3372,-0.54477,-13.349,-5.3184e-12,-0.27239,0,0,0.066667,6.3159e-16,-6.7467e-17,0.66667
0.48599,0.037084,7.2899,-0.69437,-159.05,997.7,13.498,-4.4995,-0.29119,17.998,-2.0967e-11,-0.1456,0,0,0.066667,1.2632e-15,0,0.66667
0.60431,0.18248,9.0647,-0.47628,-90.538,620.96,11.513,-3.8376,-1.1898,15.35,1.0729e-11,-0.59492,0,0,0.066667,-5.8957e-16,0,0.66667
0.54955,0.60082,8.2432,0.15123,31.583,785.64,-3.3244,1.1081,-1.9204,-4.4325,2.5677e-12,-0.96022,0,0,0.066667,-0,-0,0.66667
0.92618,0.76435,13.893,0.39653,16.748,26.457,-14.69,4.8967,-1.438,-19.587,3.3101e-07,-0.71899,0,0,0.066667,-0,-0,0.66667
0.91873,0.23191,13.781,-0.40214,-18.644,31.632,14.778,-4.9261,-1.4249,19.705,-2.9593e-08,-0.71246,0,0,0.066667,-1.2632e-15,0,0.66667
0.39488,0.80231,5.9231,0.45346,114.66,1328.8,-7.1624,2.3875,-1.2662,-9.5499,1.1368e-11,-0.63311,0,0,0.066667,-0,-0,0.66667
0.96326,0.9542,14.449,0.6813,14.672,9.7606,-26.251,8.7504,-0.34459,-35.001,3.9709e-05,-0.1723,0,0,0.066667,-0,-0,0.66667
0.17396,0.49282,2.6093,-0.010764,-3.1251,2242.6,0.074897,-0.024966,-2.0033,0.099862,2.0598e-10,-1.0016,0,0,0.066667,-3.158e-16,0,0.66667
0.12633,0.56279,1.8949,0.094185,27.75,2453.1,-0.47593,0.15864,-1.976,-0.63458,5.6371e-10,-0.98802,0,0,0.066667,-0,-0,0.66667
0.13508,0.38654,2.0262,-0.17019,-50.031,2414.2,0.91956,-0.30652,-1.892,1.2261,8.7863e-10,-0.946,0,0,0.066667,-0,-0,0.66667
0.50566,0.27933,7.5849,-0.331,-73.754,929.33,6.695,-2.2317,-1.6065,8.9267,7.0863e-12,-0.80324,0,0,0.066667,7.8949e-16,0,0.66667
0.021525,0.19526,0.32287,-0.45711,-136.9,2924,0.39356,-0.1312,-1.2519,0.52475,-1.6961e-05,-0.62595,0,0,0.066667,-3.9475e-17,0,0.66667
0.94797,0.55603,14.22,0.084049,2.5072,13.121,-3.1871,1.0624,-1.9709,-4.2494,1.3002e-07,-0.98546,0,0,0.066667,-1.8948e-15,0,0.66667
0.82712,0.79877,12.407,0.44815,42.301,131.53,-14.827,4.9423,-1.2931,-19.769,1.3603e-09,-0.64657,0,0,0.066667,1.2632e-15,0,0.66667
0.015019,0.87567,0.22528,0.56351,168.87,2953.4,-0.33851,0.11281,-0.88135,-0.45136,-3.7355e-05,-0.44068,0,0,0.066667,-0,-0,0.66667
0.1762,0.039335,2.6429,-0.691,-200.8,2233.4,4.87,-1.6233,-0.29968,6.4934,-1.8841e-09,-0.14984,0,0,0.066667,-0,-0,0.66667
0.33206,0.4427,4.981,-0.085955,-22.894,1574.8,1.1417,-0.38057,-1.9723,1.5223,-1.7216e-12,-0.98616,0,0,0.066667,-0,-0,0.66667
0.131,0.50089,1.965,0.0013316,0.39186,2432.3,-0.0069776,0.0023259,-1.9958,-0.0093035,-3.8588e-09,-0.99791,0,0,0.066667,-0,-0,0.66667
0.80949,0.9747,12.142,0.71206,73.598,159.73,-23.056,7.6854,-0.19815,-30.742,-1.7148e-09,-0.099073,0,0,0.066667,-0,-0,0.66667
0.34474,0.29184,5.171,-0.31224,-82.389,1524.3,4.3056,-1.4352,-1.6608,5.7408,1.9742e-11,-0.83042,0,0,0.066667,-0,-0,0.66667
0.94011,0.84743,14.102,0.52114,18.009,18.794,-19.597,6.5324,-1.0368,-26.129,-2.6088e-06,-0.5184,0,0,0.066667,-2.5264e-15,0,0.66667
0.58201,0.85033,8.7302,0.52549,104.09,686.62,-12.234,4.0779,-1.0167,-16.312,4.6985e-13,-0.50835,0,0,0.066667,-0,-0,0.66667
0.87883,0.39457,13.182,-0.15814,-10.712,66.12,5.5592,-1.8531,-1.9093,7.4123,1.2946e-09,-0.95463,0,0,0.066667,-1.2632e-15,0,0.66667
0.84473,0.6288,12.671,0.1932,16.496,106.38,-6.5281,2.176,-1.8756,-8.7042,-4.8508e-11,-0.93779,0,0,0.066667,-2.5264e-15,0,0.66667
0.90539,0.41505,13.581,-0.12742,-6.8188,41.116,4.6147,-1.5382,-1.9504,6.153,-2.0185e-08,-0.97522,0,0,0.066667,-2.5264e-15,0,0.66667
0.45988,0.91288,6.8982,0.61932,146.39,1089.1,-11.393,3.7975,-0.63045,-15.19,6.1711e-12,-0.31522,0,0,0.066667,1.2632e-15,0,0.66667
0.54635,0.89228,8.1952,0.58842,123.7,796.96,-12.859,4.2864,-0.77821,-17.146,2.8022e-12,-0.3891,0,0,0.066667,6.3159e-16,0,0.66667
0.7986,0.060767,11.979,-0.65885,-71.509,176.86,21.046,-7.0155,-0.46238,28.062,9.6931e-09,-0.23119,0,0,0.066667,-3.158e-16,0,0.66667
0.28572,0.024953,4.2858,-0.71257,-196.28,1765.4,8.1438,-2.7146,-0.19194,10.858,-7.6019e-12,-0.095968,0,0,0.066667,-0,-0,0.66667
0.49025,0.70925,7.3538,0.31387,71.379,981.76,-6.1551,2.0517,-1.6444,-8.2068,2.6232e-12,-0.82222,0,0,0.066667,-0,-0,0.66667
0.59911,0.031142,8.9867,-0.70329,-135.21,637.06,16.854,-5.618,-0.23819,22.472,6.1675e-12,-0.1191,0,0,0.066667,-1.6481e-15,0,0.66667
0.015533,0.94002,0.233,0.66003,197.87,2951.1,-0.41007,0.13664,-0.46331,-0.54678,-6.7225e-05,-0.23166,0,0,0.066667,-0,-0,0.66667
0.59348,0.86699,8.9022,0.55048,106.83,652.72,-13.068,4.356,-0.93337,-17.424,-4.7837e-12,-0.46668,0,0,0.066667,-0,6.5401e-17,0.66667
0.43368,0.57866,6.5051,0.118,28.674,1182.9,-2.0469,0.68229,-1.9486,-2.7292,8.9242e-12,-0.9743,0,0,0.066667,-6.3159e-16,0,0.66667
0.80736,0.82224,12.11,0.48336,50.322,161.62,-15.61,5.2033,-1.165,-20.813,3.1306e-10,-0.5825,0,0,0.066667,-0,-0,0.66667
0.31524,0.61723,4.7287,0.17584,47.413,1643,-2.2173,0.73911,-1.8915,-2.9564,1.1506e-11,-0.94576,0,0,0.066667,3.158e-16,0,0.66667
0.89289,0.51368,13.393,0.020517,1.236,52.062,-0.73276,0.24425,-2.0011,-0.97701,1.8695e-08,-1.0005,0,0,0.066667,2.5264e-15,0,0.66667
0.57786,0.70046,8.6679,0.30069,59.937,698.4,-6.9502,2.3167,-1.689,-9.2669,1.8288e-12,-0.84449,0,0,0.066667,-0,-0,0.66667
0.18401,0.33289,2.7602,-0.25067,-72.525,2198.7,1.845,-0.61501,-1.7757,2.4601,1.4402e-10,-0.88784,0,0,0.066667,-1.579e-16,0,0.66667
0.78793,0.74957,11.819,0.37435,42.418,193.32,-11.798,3.9328,-1.4971,-15.731,1.3866e-10,-0.74853,0,0,0.066667,2.3685e-16,0,0.66667
0.61203,0.16101,9.1805,-0.50849,-95.245,599.04,12.448,-4.1495,-1.0828,16.598,3.8156e-12,-0.5414,0,0,0.066667,-0,-0,0.66667
0.053909,0.075316,0.80864,-0.63703,-190.45,2777.9,1.3737,-0.4579,-0.5507,1.8315,-1.3177e-05,-0.27535,0,0,0.066667,-0,-0,0.66667
0.42019,0.076161,6.3029,-0.63576,-156.95,1233.9,10.686,-3.5619,-0.56751,14.248,1.4786e-11,-0.28376,0,0,0.066667,-0,-7.7702e-17,0.66667
0.67907,0.014685,10.186,-0.72797,-117.66,423.12,19.774,-6.5912,-0.1092,26.365,5.0804e-12,-0.054602,0,0,0.066667,-0,-0,0.66667
0.9186,0.96902,13.779,0.70354,32.912,33.767,-25.851,8.6169,-0.24128,-34.468,9.4507e-07,-0.12064,0,0,0.066667,-0,2.7497e-18,0.66667
0.00040202,0.73607,0.0060304,0.3541,106.07,3019.4,-0.0056899,0.0018973,-1.564,-0.0075861,1.0844e-06,-0.782,0,0,0.066667,6.1679e-19,0,0.66667
0.97676,0.16819,14.651,-0.49772,-6.6972,4.5187,19.446,-6.482,-1.1126,25.928,2.7563e-05,-0.55632,0,0,0.066667,-0,-0,0.66667
0.37658,0.33489,5.6487,-0.24766,-63.633,1398.9,3.7306,-1.2435,-1.7872,4.9741,-4.7411e-12,-0.89361,0,0,0.066667,-0,-0,0.66667
0.97378,0.62236,14.607,0.18354,2.7485,3.8413,-7.1492,2.3831,-1.877,-9.5322,-2.7942e-06,-0.93852,0,0,0.066667,6.3159e-16,0,0.66667
0.60472,0.84913,9.0707,0.5237,99.5,619.98,-12.667,4.2225,-1.0219,-16.89,1.2088e-12,-0.51095,0,0,0.066667,1.2632e-15,0,0.66667
0.82885,0.61039,12.433,0.16559,15.457,128.09,-5.4899,1.83,-1.9109,-7.3198,-2.2161e-10,-0.95547,0,0,0.066667,-0,-0,0.66667
0.57471,0.63837,8.6207,0.20755,41.587,707.73,-4.7712,1.5904,-1.846,-6.3616,-3.6429e-12,-0.923,0,0,0.066667,1.2632e-15,0,0.66667
0.62808,0.19138,9.4211,-0.46293,-83.927,554.1,11.63,-3.8768,-1.239,15.507,1.8705e-12,-0.61952,0,0,0.066667,-0,-0,0.66667
0.28558,0.93256,4.2836,0.64883,178.68,1765.8,-7.4117,2.4706,-0.50093,-9.8822,1.9216e-11,-0.25046,0,0,0.066667,-1.579e-16,0,0.66667
0.58683,0.65822,8.8025,0.23733,46.555,671.38,-5.5709,1.857,-1.7946,-7.4279,-2.3848e-12,-0.8973,0,0,0.066667,-0,-0,0.66667
0.75002,0.052986,11.25,-0.67052,-87.921,265.33,20.116,-6.7054,-0.41323,26.822,-3.1042e-10,-0.20661,0,0,0.066667,-0,-0,0.66667
0.85831,0.94407,12.875,0.66611,52.533,91.62,-22.869,7.6231,-0.42997,-30.492,-4.6031e-08,-0.21498,0,0,0.066667,-0,-0,0.66667
0.75508,0.10195,11.326,-0.59707,-76.867,254.89,18.033,-6.0111,-0.72843,24.045,3.9974e-10,-0.36421,0,0,0.066667,-0,-0,0.66667
0.69806,0.58231,10.471,0.12346,18.921,375.46,-3.4474,1.1491,-1.9415,-4.5966,1.7377e-12,-0.97076,0,0,0.066667,-0,-0,0.66667
0.86448,0.19316,12.967,-0.46025,-34.721,83.013,15.915,-5.3051,-1.243,21.22,-1.0793e-08,-0.62152,0,0,0.066667,-0,-0,0.66667
0.32268,0.015682,4.8402,-0.72648,-195.22,1613.9,9.3768,-3.1256,-0.1185,12.502,1.317e-11,-0.05925,0,0,0.066667,-0,-0,0.66667
0.67079,0.14898,10.062,-0.52653,-86.729,442.42,14.128,-4.7092,-1.0216,18.837,1.0619e-11,-0.51082,0,0,0.066667,-6.3159e-16,1.0287e-16,0.66667
0.45087,0.66329,6.7631,0.24493,58.414,1120.4,-4.4173,1.4724,-1.7898,-5.8898,4.9947e-12,-0.89491,0,0,0.066667,-1.2632e-15,0,0.66667
0.3821,0.65826,5.7315,0.23738,60.693,1377.5,-3.6282,1.2094,-1.7944,-4.8376,-1.3362e-11,-0.89721,0,0,0.066667,1.2632e-15,0,0.66667
0.41081,0.60289,6.1622,0.15434,38.402,1267.9,-2.5362,0.8454,-1.9121,-3.3816,-4.6603e-12,-0.95605,0,0,0.066667,-0,-0,0.66667
0.40148,0.65624,6.0222,0.23436,58.852,1303.3,-3.7636,1.2545,-1.8025,-5.0182,2.0874e-11,-0.90126,0,0,0.066667,8.9681e-16,0,0.66667
0.31738,0.90403,4.7608,0.60605,163.38,1635,-7.694,2.5647,-0.69122,-10.259,-1.3231e-11,-0.34561,0,0,0.066667,-1.579e-16,0,0.66667
0.62192,0.25607,9.3288,-0.3659,-67.15,570.77,9.1024,-3.0341,-1.5247,12.137,-1.5827e-12,-0.76233,0,0,0.066667,-0,-0,0.66667
0.43025,0.91629,6.4537,0.62444,152.54,1196.6,-10.747,3.5822,-0.60724,-14.329,-3.6451e-12,-0.30362,0,0,0.066667,-0,-0,0.66667
0.9738,0.26277,14.607,-0.35584,-5.3592,4.4399,13.861,-4.6202,-1.5455,18.481,8.6764e-06,-0.77273,0,0,0.066667,-0,-0,0.66667
0.6778,0.52651,10.167,0.039763,6.4255,423.84,-1.0781,0.35935,-1.9896,-1.4374,-1.7054e-12,-0.9948,0,0,0.066667,1.2632e-15,0,0.66667
0.19857,0.55568,2.9785,0.083525,24.021,2135.2,-0.66342,0.22114,-1.9722,-0.88456,-7.9814e-11,-0.98612,0,0,0.066667,-0,-0,0.66667
0.4267,0.66776,6.4005,0.25163,61.615,1208.7,-4.2949,1.4316,-1.771,-5.7265,-6.6347e-13,-0.88549,0,0,0.066667,-0,-0,0.66667
0.34335,0.20883,5.1502,-0.43675,-115.41,1530,5.9983,-1.9994,-1.3318,7.9977,2.0046e-11,-0.66589,0,0,0.066667,-3.158e-16,0,0.66667
0.79764,0.69944,11.965,0.29916,32.501,176.62,-9.5448,3.1816,-1.6901,-12.726,-1.3372e-10,-0.84506,0,0,0.066667,-0,-0,0.66667
0.88,0.89083,13.2,0.58625,39.545,66.775,-20.636,6.8787,-0.77369,-27.515,2.033e-07,-0.38684,0,0,0.066667,-1.2632e-15,0,0.66667
0.90384,0.68531,13.558,0.27797,15.126,42.784,-10.05,3.3499,-1.7286,-13.399,3.9029e-08,-0.86431,0,0,0.066667,-1.4211e-15,0,0.66667
0.66272,0.6735,9.9408,0.26025,43.651,461.82,-6.899,2.2997,-1.7531,-9.1986,7.1276e-13,-0.87653,0,0,0.066667,-1.2632e-15,0,0.66667
0.27021,0.57254,4.0531,0.1088,30.196,1829.2,-1.176,0.392,-1.9546,-1.568,2.684e-11,-0.97729,0,0,0.066667,-0,-0,0.66667
0.25237,0.90755,3.7855,0.61133,171.6,1905,-6.1712,2.0571,-0.67486,-8.2282,1.0899e-10,-0.33743,0,0,0.066667,-0,-0,0.66667
0.8549,0.60397,12.823,0.15596,12.506,93.385,-5.3331,1.7777,-1.9104,-7.1108,-1.392e-10,-0.95519,0,0,0.066667,-2.5264e-15,0,0.66667
0.52771,0.4464,7.9157,-0.080401,-17.357,855.78,1.6971,-0.56571,-1.9761,2.2629,-5.8915e-12,-0.98807,0,0,0.066667,1.2632e-15,0,0.66667
0.80216,0.39913,12.032,-0.1513,-16.098,168.84,4.8546,-1.6182,-1.9144,6.4728,2.9619e-11,-0.95718,0,0,0.066667,-6.3159e-16,0,0.66667
0.57249,0.070747,8.5873,-0.64388,-129.76,715.91,14.745,-4.9149,-0.52106,19.659,2.2609e-11,-0.26053,0,0,0.066667,-0,-0,0.66667
0.73314,0.94816,10.997,0.67224,93.196,299.83,-19.714,6.5713,-0.39973,-26.285,-7.8231e-11,-0.19986,0,0,0.066667,1.2632e-15,7.0969e-17,0.66667
0.51901,0.096499,7.7852,-0.60525,-132.54,885.65,12.565,-4.1884,-0.69786,16.754,1.9068e-11,-0.34893,0,0,0.066667,1.2632e-15,0,0.66667
0.77088,0.68874,11.563,0.28311,34.318,223.46,-8.7296,2.9099,-1.7118,-11.64,-7.1996e-12,-0.85588,0,0,0.066667,-0,-0,0.66667
0.56886,0.32867,8.5329,-0.257,-52.017,725.67,5.8478,-1.9493,-1.7591,7.797,1.1977e-11,-0.87957,0,0,0.066667,-0,-0,0.66667
0.46571,0.26073,6.9856,-0.3589,-84.157,1067.6,6.6858,-2.2286,-1.5423,8.9143,1.3319e-11,-0.77117,0,0,0.066667,-1.2632e-15,0,0.66667
0.34269,0.83409,5.1403,0.50114,132.52,1532.8,-6.8694,2.2898,-1.1143,-9.1591,-1.4854e-11,-0.55716,0,0,0.066667,3.158e-16,0,0.66667
0.068209,0.32015,1.0231,-0.26978,-80.419,2713.4,0.73605,-0.24535,-1.7363,0.9814,4.1973e-07,-0.86817,0,0,0.066667,-1.579e-16,0,0.66667
0.37792,0.6022,5.6689,0.1533,39.334,1393.6,-2.3174,0.77245,-1.9173,-3.0898,1.3511e-11,-0.95865,0,0,0.066667,-0,-0,0.66667
0.079626,0.7934,1.1944,0.44011,131.03,2662.1,-1.4018,0.46725,-1.3167,-1.869,-1.3742e-08,-0.65834,0,0,0.066667,-0,-0,0.66667
0.98282,0.91129,14.742,0.61694,6.1893,4.1801,-24.253,8.0845,-0.65245,-32.338,1.0244e-05,-0.32622,0,0,0.066667,-0,4.2722e-17,0.66667
0.18161,0.26992,2.7242,-0.34513,-99.964,2209.3,2.5072,-0.83573,-1.5711,3.3429,1.4676e-10,-0.78553,0,0,0.066667,-1.579e-16,0,0.66667
0.81186,0.75257,12.178,0.37885,38.579,154.07,-12.303,4.101,-1.4996,-16.404,7.9812e-11,-0.74981,0,0,0.066667,-0,-0,0.66667
0.87496,0.75787,13.124,0.3868,27.039,70.953,-13.537,4.5125,-1.4799,-18.05,-1.0015e-08,-0.73996,0,0,0.066667,-0,-0,0.66667
0.68841,0.50119,10.326,0.0017857,0.28078,398.13,-0.049171,0.01639,-2.0091,-0.065561,1.244e-11,-1.0045,0,0,0.066667,-0,-0,0.66667
0.56949,0.1455,8.5424,-0.53175,-107.63,724.55,12.113,-4.0377,-0.98835,16.151,3.9435e-12,-0.49417,0,0,0.066667,-0,-0,0.66667
0.16097,0.39547,2.4146,-0.15679,-45.732,2299.7,1.0096,-0.33652,-1.9089,1.3461,-1.2665e-10,-0.95447,0,0,0.066667,-0,-0,0.66667
0.46688,0.13774,7.0032,-0.54339,-127.33,1063.9,10.148,-3.3826,-0.95412,13.531,2.5752e-11,-0.47706,0,0,0.066667,-1.2632e-15,0,0.66667
0.34517,0.58735,5.1776,0.13102,34.55,1522.4,-1.809,0.60301,-1.9451,-2.412,-6.8257e-13,-0.97257,0,0,0.066667,6.3159e-16,0,0.66667
0.22504,0.22191,3.3756,-0.41714,-118.64,2021.1,3.7549,-1.2516,-1.3764,5.0065,-2.4765e-11,-0.68821,0,0,0.066667,-0,-0,0.66667
0.59251,0.67916,8.8877,0.26873,52.18,654.66,-6.3691,2.123,-1.7499,-8.4922,-2.0028e-12,-0.87494,0,0,0.066667,6.3159e-16,0,0.66667
0.31227,0.47161,4.684,-0.042588,-11.506,1655.1,0.53196,-0.17732,-2.0053,0.70928,2.4996e-11,-1.0026,0,0,0.066667,-0,-0,0.66667
0.91631,0.91367,13.745,0.6205,29.741,34.772,-22.743,7.581,-0.62633,-30.324,-2.2529e-07,-0.31316,0,0,0.066667,-0,-0,0.66667
0.90964,0.17183,13.645,-0.49225,-25.32,39.028,17.911,-5.9703,-1.1376,23.881,-1.8076e-07,-0.56882,0,0,0.066667,-1.2632e-15,0,0.66667
0.25712,0.53442,3.8568,0.051628,14.434,1884.3,-0.53098,0.17699,-1.9851,-0.70797,1.7631e-11,-0.99254,0,0,0.066667,-0,-0,0.66667
0.11089,0.86258,1.6634,0.54387,161.01,2522.1,-2.4124,0.80415,-0.95356,-3.2166,1.0762e-07,-0.47678,0,0,0.066667,-0,-0,0.66667
0.19296,0.99456,2.8944,0.74184,214.26,2160.3,-5.7259,1.9086,-0.038987,-7.6345,-6.8003e-10,-0.019493,0,0,0.066667,-3.158e-16,0,0.66667
0.49958,0.71834,7.4938,0.32751,73.575,949.89,-6.5447,2.1816,-1.63,-8.7262,-2.1174e-12,-0.815,0,0,0.066667,-6.9081e-16,0,0.66667
0.72859,0.25635,10.929,-0.36547,-51.277,307.92,10.651,-3.5504,-1.5202,14.202,-3.5856e-12,-0.76012,0,0,0.066667,-0,-0,0.66667
0.20819,0.34881,3.1229,-0.22678,-64.965,2093.6,1.8886,-0.62952,-1.8135,2.5181,-2.2217e-11,-0.90675,0,0,0.066667,6.3159e-16,0,0.66667
0.24803,0.42095,3.7205,-0.11857,-33.316,1922.7,1.1764,-0.39213,-1.9536,1.5685,4.7709e-12,-0.9768,0,0,0.066667,-0,-0,0.66667
0.85167,0.62289,12.775,0.18434,15.088,97.455,-6.2797,2.0932,-1.8738,-8.373,-3.1182e-10,-0.9369,0,0,0.066667,1.8948e-15,0,0.66667
0.41585,0.92533,6.2377,0.63799,158.2,1250.1,-10.612,3.5374,-0.54716,-14.15,-3.1539e-12,-0.27358,0,0,0.066667,-6.3159e-16,0,0.66667
0.61669,0.80406,9.2503,0.45609,84.623,585.7,-11.25,3.7502,-1.2542,-15.001,3.4506e-12,-0.62708,0,0,0.066667,-0,-0,0.66667
0.23367,0.01841,3.505,-0.72239,-204.85,1984.7,6.7519,-2.2506,-0.15309,9.0025,2.3681e-10,-0.076543,0,0,0.066667,-0,-0,0.66667
0.10197,0.34928,1.5295,-0.22608,-67,2561.9,0.92213,-0.30738,-1.8124,1.2295,4.3478e-08,-0.90618,0,0,0.066667,-0,-0,0.66667
0.51586,0.46645,7.7379,-0.05032,-11.05,894.85,1.0383,-0.3461,-2.0028,1.3844,9.8828e-12,-1.0014,0,0,0.066667,-1.579e-16,0,0.66667
0.47714,0.213,7.1571,-0.43049,-99.577,1027.5,8.2163,-2.7388,-1.3352,10.955,9.5568e-13,-0.66759,0,0,0.066667,3.158e-16,0,0.66667
0.15267,0.02292,2.2901,-0.71562,-209.64,2336.8,4.3702,-1.4567,-0.17824,5.8269,-1.0323e-07,-0.089119,0,0,0.066667,-0,-0,0.66667
0.62181,0.75101,9.3271,0.37651,69.117,571.12,-9.3647,3.1216,-1.4972,-12.486,1.6156e-12,-0.74859,0,0,0.066667,-0,-0,0.66667
0.54401,0.69071,8.1602,0.28607,60.28,803.44,-6.225,2.075,-1.7108,-8.3,1.4563e-11,-0.85539,0,0,0.066667,-0,-0,0.66667
0.65414,0.1128,9.8121,-0.58081,-99.549,485.06,15.197,-5.0657,-0.80374,20.263,9.4644e-12,-0.40187,0,0,0.066667,-0,-0,0.66667
0.14455,0.12956,2.1682,-0.55567,-163.07,2372.5,3.2128,-1.0709,-0.9009,4.2837,-3.3613e-09,-0.45045,0,0,0.066667,-0,-0,0.66667
0.75153,0.27947,11.273,-0.3308,-43.034,260.64,9.9443,-3.3148,-1.6174,13.259,-6.2164e-12,-0.80872,0,0,0.066667,6.3159e-16,0,0.66667
0.22205,0.25541,3.3307,-0.36688,-104.47,2033.9,3.2586,-1.0862,-1.5216,4.3448,9.4778e-12,-0.76079,0,0,0.066667,6.3159e-16,0,0.66667
0.51935,0.46352,7.7903,-0.05472,-11.956,883.26,1.1368,-0.37892,-1.9884,1.5157,6.0026e-12,-0.99422,0,0,0.066667,6.3159e-16,0,0.66667
0.7853,0.42123,11.779,-0.11816,-13.52,197.23,3.7116,-1.2372,-1.9479,4.9488,2.0333e-11,-0.97397,0,0,0.066667,-0,-0,0.66667
0.02233,0.58435,0.33496,0.12653,37.868,2920.3,-0.11302,0.037674,-1.937,-0.15069,1.8828e-06,-0.96852,0,0,0.066667,1.9737e-17,0,0.66667
0.32436,0.65355,4.8654,0.23033,61.707,1606,-2.9884,0.99614,-1.8108,-3.9846,-5.4727e-12,-0.90539,0,0,0.066667,-7.1054e-16,0,0.66667
0.87292,0.19874,13.094,-0.45189,-32.098,73.48,15.779,-5.2596,-1.2773,21.038,-3.4934e-09,-0.63863,0,0,0.066667,-0,-0,0.66667
0.84471,0.51017,12.671,0.015252,1.3019,106.2,-0.51535,0.17178,-2.0068,-0.68714,-1.2456e-09,-1.0034,0,0,0.066667,-0,-0,0.66667
0.53844,0.56601,8.0766,0.099019,21.037,821.01,-2.1326,0.71088,-1.9596,-2.8435,5.8855e-12,-0.9798,0,0,0.066667,-0,-0,0.66667
0.86661,0.38999,12.999,-0.16502,-12.235,79.501,5.7202,-1.9067,-1.8966,7.6269,-8.2187e-10,-0.94831,0,0,0.066667,-1.2632e-15,0,0.66667
0.94981,0.8486,14.247,0.52291,15.196,13.946,-19.866,6.6221,-1.028,-26.488,1.3121e-06,-0.51399,0,0,0.066667,-0,-0,0.66667
0.82641,0.60697,12.396,0.16046,15.173,131.59,-5.3041,1.768,-1.913,-7.0721,-1.5936e-10,-0.95648,0,0,0.066667,-0,-0,0.66667
0.85412,0.52038,12.812,0.030564,2.4624,94.218,-1.0442,0.34807,-1.9921,-1.3923,-2.1785e-10,-0.99606,0,0,0.066667,-0,-0,0.66667
0.098743,0.73637,1.4812,0.35456,105.17,2576.3,-1.4004,0.46681,-1.5488,-1.8672,-6.3255e-08,-0.77438,0,0,0.066667,-0,-0,0.66667
0.6513,0.435,9.7696,-0.097499,-16.786,491,2.5401,-0.84669,-1.9632,3.3868,3.7508e-12,-0.9816,0,0,0.066667,1.8948e-15,0,0.66667
0.70352,0.62066,10.553,0.18099,27.325,362.92,-5.0933,1.6978,-1.8943,-6.7911,-5.3637e-12,-0.94713,0,0,0.066667,1.2632e-15,0,0.66667
0.61024,0.35589,9.1536,-0.21617,-40.585,603.26,5.2766,-1.7589,-1.8417,7.0354,7.8271e-12,-0.92087,0,0,0.066667,-1.2632e-15,0,0.66667
0.79962,0.88475,11.994,0.57712,62.299,174.66,-18.459,6.153,-0.81703,-24.612,8.6294e-10,-0.40851,0,0,0.066667,-0,-0,0.66667
0.034571,0.93998,0.51857,0.65997,197.67,2865.1,-0.91265,0.30421,-0.45198,-1.2169,-9.5882e-06,-0.22599,0,0,0.066667,-0,-0,0.66667
0.77024,0.15509,11.554,-0.51737,-62.971,225.62,15.94,-5.3133,-1.0462,21.253,-2.9474e-10,-0.52308,0,0,0.066667,-1.579e-15,0,0.66667
0.73173,0.61159,10.976,0.16738,23.235,300.74,-4.8991,1.633,-1.9018,-6.5321,5.8149e-12,-0.95088,0,0,0.066667,-1.2632e-15,0,0.66667
0.2597,0.55495,3.8955,0.08243,23.014,1873.4,-0.85627,0.28542,-1.9707,-1.1417,1.8379e-12,-0.98535,0,0,0.066667,-0,-0,0.66667
0.25707,0.081222,3.856,-0.62817,-175.89,1885.1,6.4593,-2.1531,-0.59056,8.6124,1.507e-11,-0.29528,0,0,0.066667,-0,-0,0.66667
0.6323,0.95857,9.4845,0.68785,123.79,543.64,-17.397,5.7991,-0.31132,-23.196,-6.3771e-13,-0.15566,0,0,0.066667,6.3159e-16,0,0.66667
0.3453,0.50138,5.1795,0.0020751,0.54709,1521.8,-0.028661,0.0095537,-2.0065,-0.038215,3.6138e-11,-1.0033,0,0,0.066667,-2.5264e-15,0,0.66667
0.79659,0.49989,11.949,-0.00016278,-0.017751,177.89,0.0051868,-0.0017289,-2.012,0.0069157,-1.2576e-10,-1.006,0,0,0.066667,1.9737e-17,0,0.66667
0.44615,0.54442,6.6922,0.066626,15.971,1137.3,-1.189,0.39633,-1.9778,-1.5853,-2.0349e-12,-0.9889,0,0,0.066667,-0,-0,0.66667
0.78275,0.6879,11.741,0.28185,32.608,202.04,-8.8248,2.9416,-1.7244,-11.766,2.9424e-11,-0.86222,0,0,0.066667,-0,-0,0.66667
0.99047,0.67713,14.857,0.2657,1.3762,1.0757,-10.527,3.5089,-1.7434,-14.036,2.4514e-06,-0.8717,0,0,0.066667,-1.2632e-15,0,0.66667
0.30025,0.3487,4.5037,-0.22695,-61.827,1704.5,2.7256,-0.90855,-1.8169,3.6342,2.9682e-11,-0.90845,0,0,0.066667,6.3159e-16,0,0.66667
0.14301,0.21311,2.1451,-0.43034,-126.29,2379.2,2.4616,-0.82054,-1.3444,3.2822,1.4741e-09,-0.67221,0,0,0.066667,-2.3685e-16,0,0.66667
0.90131,0.60768,13.52,0.16153,9.0029,44.642,-5.8234,1.9411,-1.9031,-7.7646,2.8813e-08,-0.95153,0,0,0.066667,-0,-0,0.66667
0.54156,0.77411,8.1234,0.41117,87.006,811.58,-8.907,2.969,-1.3946,-11.876,1.6577e-11,-0.6973,0,0,0.066667,-0,-0,0.66667
0.97474,0.61732,14.621,0.17598,2.5364,3.5848,-6.8614,2.2871,-1.8847,-9.1486,-2.7413e-06,-0.94233,0,0,0.066667,-6.3159e-16,0,0.66667
0.6366,0.46662,9.5491,-0.050077,-8.9057,530,1.2752,-0.42506,-1.99,1.7002,7.1551e-12,-0.995,0,0,0.066667,6.3159e-16,0,0.66667
0.99391,0.27526,14.909,-0.3371,-1.0704,1.0489,13.402,-4.4674,-1.5908,17.869,-5.6823e-06,-0.79541,0,0,0.066667,6.3159e-16,0,0.66667
0.54607,0.10574,8.1911,-0.59139,-124.38,797.85,12.918,-4.3059,-0.76462,17.224,-9.9742e-13,-0.38231,0,0,0.066667,-0,-0,0.66667
0.52643,0.39061,7.8964,-0.16408,-35.492,860.07,3.455,-1.1517,-1.9003,4.6067,5.4712e-13,-0.95014,0,0,0.066667,-0,-0,0.66667
0.13543,0.69224,2.0314,0.28837,84.779,2412.7,-1.5621,0.5207,-1.7005,-2.0828,-4.6329e-09,-0.85027,0,0,0.066667,-0,-0,0.66667
0.35571,0.048348,5.3356,-0.67748,-177.45,1481.6,9.6393,-3.2131,-0.36658,12.852,3.6877e-12,-0.18329,0,0,0.066667,-0,-1.0188e-16,0.66667
0.026219,0.56508,0.39328,0.09762,29.21,2902.7,-0.10238,0.034127,-1.963,-0.1365,1.5994e-06,-0.98148,0,0,0.066667,-7.8949e-17,0,0.66667
0.1604,0.055937,2.4059,-0.6661,-194.61,2302.7,4.2735,-1.4245,-0.4204,5.698,-2.2095e-09,-0.2102,0,0,0.066667,-0,-0,0.66667
0.74564,0.14103,11.185,-0.53846,-71.575,273.31,16.06,-5.3533,-0.966,21.413,1.501e-12,-0.483,0,0,0.066667,1.2632e-15,0,0.66667
0.0304,0.50571,0.456,0.0085664,2.5625,2883.8,-0.010417,0.0034736,-2.0083,-0.013888,2.0659e-06,-1.0041,0,0,0.066667,-1.579e-16,0,0.66667
0.36654,0.95013,5.4981,0.67519,175.27,1439,-9.8994,3.2998,-0.37261,-13.199,1.3773e-11,-0.18631,0,0,0.066667,-0,-0,0.66667
0.86235,0.0080939,12.935,-0.73786,-56.733,87.41,25.452,-8.4839,-0.064982,33.935,-3.548e-08,-0.032491,0,0,0.066667,-0,-0,0.66667
0.69268,0.3833,10.39,-0.17505,-27.221,388.14,4.85,-1.6167,-1.8868,6.4667,1.124e-12,-0.94342,0,0,0.066667,-0,-0,0.66667
0.69094,0.14015,10.364,-0.53977,-84.473,393.45,14.918,-4.9727,-0.96314,19.891,1.0063e-12,-0.48157,0,0,0.066667,-0,-0,0.66667
0.18864,0.91449,2.8296,0.62174,179.77,2178.9,-4.6913,1.5638,-0.63265,-6.2551,-3.0245e-09,-0.31632,0,0,0.066667,-0,-0,0.66667
0.4419,0.37747,6.6286,-0.18379,-44.269,1152.8,3.2487,-1.0829,-1.8779,4.3316,2.3468e-12,-0.93896,0,0,0.066667,-1.2632e-15,0,0.66667
0.58158,0.72005,8.7237,0.33007,65.374,687.28,-7.6785,2.5595,-1.6131,-10.238,6.8123e-12,-0.80655,0,0,0.066667,-2.5264e-15,0,0.66667
0.98975,0.53793,14.846,0.056899,0.31506,0.70991,-2.2526,0.75088,-1.9842,-3.0035,-1.0475e-06,-0.99208,0,0,0.066667,-0,-0,0.66667
0.20391,0.43516,3.0586,-0.097265,-27.911,2112.1,0.79332,-0.26444,-1.9758,1.0578,6.0732e-11,-0.98788,0,0,0.066667,4.3422e-16,0,0.66667
0.24773,0.10903,3.716,-0.58645,-165,1924.6,5.8113,-1.9371,-0.77972,7.7484,-2.7479e-10,-0.38986,0,0,0.066667,3.158e-16,0,0.66667
0.26217,0.87064,3.9326,0.55596,155.18,1863.5,-5.8303,1.9434,-0.90092,-7.7738,-2.1859e-11,-0.45046,0,0,0.066667,4.737e-16,0,0.66667
0.75017,0.16266,11.253,-0.50601,-66.214,264.06,15.184,-5.0613,-1.101,20.245,1.8149e-11,-0.55052,0,0,0.066667,-0,-0,0.66667
0.45698,0.75884,6.8546,0.38826,91.989,1098.8,-7.0971,2.3657,-1.4624,-9.4628,9.0594e-12,-0.73118,0,0,0.066667,-0,-0,0.66667
0.056929,0.63569,0.85394,0.20353,60.751,2764.1,-0.46347,0.15449,-1.8477,-0.61796,-2.3717e-07,-0.92386,0,0,0.066667,-0,-0,0.66667
0.50852,0.45822,7.6277,-0.062668,-13.902,919.38,1.2747,-0.4249,-1.9797,1.6996,3.4459e-12,-0.98985,0,0,0.066667,6.3159e-16,0,0.66667
0.21196,0.051528,3.1794,-0.67271,-192.67,2077.8,5.7035,-1.9012,-0.38477,7.6047,2.3235e-09,-0.19239,0,0,0.066667,-0,-0,0.66667
0.7986,0.30729,11.979,-0.28906,-31.268,174.99,9.2338,-3.0779,-1.7081,12.312,1.3425e-10,-0.85405,0,0,0.066667,3.158e-16,0,0.66667
0.29733,0.52923,4.46,0.043851,11.967,1716.4,-0.52153,0.17384,-2.004,-0.69537,3.0154e-11,-1.002,0,0,0.066667,-4.737e-16,0,0.66667
0.027606,0.46876,0.41409,-0.046866,-14.022,2896.5,0.051751,-0.01725,-1.9924,0.069002,3.8037e-07,-0.99622,0,0,0.066667,-7.8949e-17,0,0.66667
0.59343,0.62718,8.9015,0.19077,36.972,651.81,-4.5283,1.5094,-1.882,-6.0378,-8.1757e-13,-0.94102,0,0,0.066667,-0,-0,0.66667
0.84384,0.30896,12.658,-0.28656,-24.61,107.8,9.6724,-3.2241,-1.7203,12.897,1.5333e-10,-0.86013,0,0,0.066667,1.579e-15,0,0.66667
0.38102,0.89776,5.7152,0.59664,152.88,1382.5,-9.0932,3.0311,-0.72895,-12.124,-1.0447e-11,-0.36447,0,0,0.066667,-0,-0,0.66667
0.74986,0.95443,11.248,0.68164,89.439,265.73,-20.445,6.8151,-0.35896,-27.26,1.7124e-10,-0.17948,0,0,0.066667,-0,-0,0.66667
0.51114,0.4202,7.6671,-0.11969,-26.458,910.61,2.4472,-0.81573,-1.9457,3.2629,1.0375e-11,-0.97287,0,0,0.066667,-0,-0,0.66667
0.54095,0.70737,8.1143,0.31106,65.86,813.27,-6.7307,2.2436,-1.6505,-8.9743,1.3965e-11,-0.82525,0,0,0.066667,-0,-0,0.66667
0.95943,0.57324,14.392,0.10986,2.5569,8.2439,-4.216,1.4053,-1.9513,-5.6213,3.4893e-07,-0.97563,0,0,0.066667,-0,-0,0.66667
0.80396,0.57202,12.059,0.10803,11.399,165.87,-3.474,1.158,-1.9523,-4.632,4.7432e-11,-0.97613,0,0,0.066667,-0,-0,0.66667
0.032323,0.24778,0.48485,-0.37832,-113.21,2875.2,0.48915,-0.16305,-1.4993,0.6522,-2.2987e-06,-0.74966,0,0,0.066667,-1.9737e-17,0,0.66667
0.70939,0.71073,10.641,0.3161,46.957,349.88,-8.9695,2.9898,-1.6392,-11.959,9.841e-13,-0.81959,0,0,0.066667,-0,-0,0.66667
0.465,0.32335,6.975,-0.26497,-62.168,1069.9,4.9285,-1.6428,-1.7488,6.5713,1.0045e-11,-0.8744,0,0,0.066667,-1.2632e-15,0,0.66667
0.94755,0.90312,14.213,0.60468,18.407,15.588,-22.919,7.6395,-0.69586,-30.558,-5.7354e-06,-0.34793,0,0,0.066667,-3.5106e-16,0,0.66667
0.22143,0.92424,3.3215,0.63635,181.44,2037,-5.6364,1.8788,-0.56145,-7.5152,-2.2145e-10,-0.28072,0,0,0.066667,-0,-0,0.66667
0.26707,0.027346,4.0061,-0.70898,-197.48,1843.2,7.574,-2.5247,-0.21923,10.099,3.0892e-11,-0.10961,0,0,0.066667,-0,-0,0.66667
0.081474,0.59929,1.2221,0.14893,44.299,2653.7,-0.48535,0.16178,-1.9212,-0.64714,-6.8378e-08,-0.96058,0,0,0.066667,-0,-0,0.66667
0.42862,0.26328,6.4293,-0.35508,-86.793,1201.8,6.0878,-2.0293,-1.5454,8.117,4.4742e-12,-0.77271,0,0,0.066667,6.3159e-16,0,0.66667
0.10902,0.46135,1.6353,-0.057968,-17.15,2530.3,0.25278,-0.084261,-1.9985,0.33704,-1.6794e-09,-0.99927,0,0,0.066667,-7.8949e-17,0,0.66667
0.63379,0.33156,9.5068,-0.25267,-45.222,537.88,6.4055,-2.1352,-1.7667,8.5406,9.7895e-12,-0.88335,0,0,0.066667,-6.3159e-16,0,0.66667
0.80296,0.89313,12.044,0.58969,62.715,169.28,-18.94,6.3133,-0.75788,-25.253,6.6511e-10,-0.37894,0,0,0.066667,-1.2632e-15,0,0.66667
0.6968,0.209,10.452,-0.4365,-67.202,379.2,12.166,-4.0554,-1.3168,16.222,4.5812e-12,-0.65839,0,0,0.066667,-6.3159e-16,0,0.66667
0.76621,0.18089,11.493,-0.47867,-59.13,232.93,14.67,-4.8901,-1.1949,19.56,1.4615e-11,-0.59745,0,0,0.066667,-0,-0,0.66667
0.34245,0.071596,5.1368,-0.64261,-170.07,1534.1,8.8025,-2.9342,-0.53812,11.737,1.0075e-11,-0.26906,0,0,0.066667,-0,-0,0.66667
0.84585,0.9988,12.688,0.74821,63.865,107.87,-25.315,8.4383,-0.014121,-33.753,1.5238e-08,-0.0070603,0,0,0.066667,1.2632e-15,0,0.66667
0.42877,0.20554,6.4315,-0.44169,-107.98,1201.5,7.5753,-2.5251,-1.3,10.1,1.1125e-11,-0.64998,0,0,0.066667,-0,-0,0.66667
0.82401,0.509,12.36,0.013498,1.292,134.94,-0.4449,0.1483,-1.9971,-0.5932,-4.5524e-11,-0.99854,0,0,0.066667,-0,-0,0.66667
0.6265,0.23424,9.3974,-0.39864,-72.486,558.21,9.9899,-3.33,-1.4403,13.32,1.0181e-11,-0.72013,0,0,0.066667,-1.2632e-15,0,0.66667
0.14342,0.33686,2.1513,-0.2447,-71.773,2377.3,1.4038,-0.46795,-1.7885,1.8718,-1.0319e-10,-0.89425,0,0,0.066667,-0,-0,0.66667
0.078387,0.42365,1.1758,-0.11453,-34.083,2667.6,0.35911,-0.1197,-1.9638,0.47881,1.0019e-07,-0.98191,0,0,0.066667,-1.579e-16,0,0.66667
0.018333,0.35307,0.27499,-0.2204,-65.98,2938.4,0.16162,-0.053876,-1.8287,0.21549,-2.6875e-06,-0.91435,0,0,0.066667,-0,-0,0.66667
0.066725,0.97154,1.0009,0.70731,211.2,2720.2,-1.8878,0.62927,-0.21956,-2.5171,-2.3284e-06,-0.10978,0,0,0.066667,-0,-0,0.66667
0.45858,0.0013703,6.8788,-0.74794,-177.19,1094.2,13.72,-4.5733,-0.0073587,18.293,1.056e-11,-0.0036793,0,0,0.066667,-0,-0,0.66667
0.11334,0.96778,1.7001,0.70167,207.75,2511.4,-3.1812,1.0604,-0.2487,-4.2416,-6.4717e-09,-0.12435,0,0,0.066667,-2.9606e-17,0,0.66667
0.027783,0.34728,0.41675,-0.22908,-68.549,2895.7,0.25458,-0.084863,-1.8134,0.33944,-3.3455e-06,-0.90672,0,0,0.066667,-0,-0,0.66667
0.75486,0.18688,11.323,-0.46968,-60.448,254.64,14.182,-4.7272,-1.2132,18.909,-5.8987e-11,-0.60658,0,0,0.066667,-4.737e-16,0,0.66667
0.39485,0.25428,5.9228,-0.36858,-93.171,1328.7,5.8213,-1.9404,-1.5151,7.7618,8.447e-12,-0.75753,0,0,0.066667,-0,-0,0.66667
0.74694,0.36221,11.204,-0.20668,-27.299,269.46,6.1751,-2.0584,-1.8483,8.2334,1.8598e-12,-0.92414,0,0,0.066667,-1.2632e-15,0,0.66667
0.4524,0.14295,6.7861,-0.53558,-127.64,1115.6,9.692,-3.2307,-0.98856,12.923,-7.8133e-12,-0.49428,0,0,0.066667,-0,-0,0.66667
0.45009,0.72696,6.7513,0.34044,81.285,1123.4,-6.1292,2.0431,-1.5885,-8.1722,4.5874e-12,-0.79423,0,0,0.066667,-0,-0,0.66667
0.47807,0.38599,7.1711,-0.17101,-39.482,1023.8,3.2702,-1.0901,-1.8902,4.3602,8.6449e-12,-0.94509,0,0,0.066667,-0,-0,0.66667
0.474,0.36327,7.1101,-0.2051,-47.595,1038,3.8887,-1.2962,-1.8458,5.185,1.2309e-11,-0.92291,0,0,0.066667,-0,-0,0.66667
0.80316,0.22394,12.047,-0.4141,-43.924,168.01,13.304,-4.4345,-1.3851,17.738,2.0464e-11,-0.69255,0,0,0.066667,-0,-0,0.66667
0.40239,0.26003,6.0359,-0.35996,-90.34,1300,5.7937,-1.9312,-1.5376,7.725,8.3848e-12,-0.76878,0,0,0.066667,-0,-0,0.66667
0.90469,0.54607,13.57,0.069107,3.7238,41.637,-2.5008,0.83361,-1.9881,-3.3344,1.4472e-08,-0.99403,0,0,0.066667,1.2632e-15,0,0.66667
0.037061,0.36103,0.55592,-0.20845,-62.337,2853.8,0.30901,-0.103,-1.8401,0.41202,3.1447e-07,-0.92003,0,0,0.066667,-0,-0,0.66667
0.77387,0.022193,11.608,-0.71671,-86.209,220.21,22.186,-7.3953,-0.16729,29.581,-3.7762e-10,-0.083645,0,0,0.066667,-0,-0,0.66667
0.12564,0.30208,1.8846,-0.29688,-87.511,2456.2,1.492,-0.49733,-1.6956,1.9893,-3.6349e-09,-0.84779,0,0,0.066667,1.579e-16,0,0.66667
0.61851,0.73591,9.2777,0.35386,65.386,580.24,-8.7547,2.9182,-1.5487,-11.673,1.2124e-11,-0.77433,0,0,0.066667,-1.9957e-15,0,0.66667
0.010364,0.67108,0.15546,0.25662,76.845,2974.4,-0.10638,0.03546,-1.7611,-0.14185,-1.8526e-06,-0.88057,0,0,0.066667,1.9737e-17,0,0.66667
0.53863,0.61673,8.0794,0.1751,37.193,820.49,-3.7725,1.2575,-1.8848,-5.03,8.6502e-12,-0.94238,0,0,0.066667,6.3159e-16,0,0.66667
0.003018,0.17081,0.045269,-0.49378,-147.97,3007.6,0.059597,-0.019873,-1.1334,0.079459,-1.1256e-05,-0.56668,0,0,0.066667,-0,1.5717e-16,0.66667
0.95119,0.70633,14.268,0.30949,8.692,12.189,-11.775,3.9251,-1.6632,-15.701,9.0039e-07,-0.8316,0,0,0.066667,-0,-0,0.66667
0.9054,0.10992,13.581,-0.58512,-31.506,43.076,21.191,-7.0636,-0.79058,28.254,-1.7813e-07,-0.39529,0,0,0.066667,-0,7.8853e-17,0.66667
0.79597,0.86274,11.94,0.54411,59.664,180.5,-17.324,5.7746,-0.95507,-23.098,7.3822e-10,-0.47753,0,0,0.066667,-1.2632e-15,-8.7442e-17,0.66667
0.91527,0.80119,13.729,0.45178,21.825,34.436,-16.54,5.5133,-1.2682,-22.053,4.2615e-08,-0.6341,0,0,0.066667,1.2632e-15,0,0.66667
0.14556,0.38076,2.1834,-0.17885,-52.421,2367.8,1.0414,-0.34712,-1.8828,1.3885,-2.41e-10,-0.94138,0,0,0.066667,-3.158e-16,0,0.66667
0.15773,0.45044,2.366,-0.074336,-21.703,2314,0.469,-0.15633,-1.9858,0.62533,-3.0424e-11,-0.99288,0,0,0.066667,-3.158e-16,0,0.66667
0.18763,0.90376,2.8145,0.60564,175.17,2183.3,-4.5455,1.5152,-0.70806,-6.0606,-1.1926e-09,-0.35403,0,0,0.066667,-0,-0,0.66667
0.6225,0.46076,9.3374,-0.058862,-10.782,568.63,1.4657,-0.48855,-1.9899,1.9542,3.5907e-12,-0.99493,0,0,0.066667,6.3159e-16,0,0.66667
0.90581,0.9188,13.587,0.62819,33.721,43.054,-22.761,7.587,-0.60657,-30.348,-2.021e-07,-0.30329,0,0,0.066667,-0,-0,0.66667
0.98996,0.98044,14.849,0.72066,4.2891,4.0934,-28.537,9.5124,-0.14896,-38.049,0.00015844,-0.074481,0,0,0.066667,-0,-0,0.66667
0.71112,0.40281,10.667,-0.14579,-21.537,345.6,4.1469,-1.3823,-1.9188,5.5291,3.4528e-12,-0.9594,0,0,0.066667,-0,-0,0.66667
0.7318,0.74508,10.977,0.36762,51.062,301.11,-10.761,3.587,-1.5218,-14.348,-6.9615e-12,-0.76092,0,0,0.066667,1.2632e-15,0,0.66667
0.90929,0.85251,13.639,0.52876,27.317,39.527,-19.232,6.4107,-1.0064,-25.643,2.6116e-07,-0.50319,0,0,0.066667,-0,-0,0.66667
0.40087,0.68436,6.0131,0.27654,69.491,1305.6,-4.4344,1.4781,-1.7243,-5.9125,-1.2879e-14,-0.86214,0,0,0.066667,1.579e-16,0,0.66667
0.24985,0.15918,3.7478,-0.51123,-143.64,1915.4,5.1093,-1.7031,-1.0828,6.8123,-2.1344e-11,-0.5414,0,0,0.066667,-6.3159e-16,-6.484e-17,0.66667
0.17343,0.79035,2.6015,0.43553,126.56,2245.2,-3.0214,1.0071,-1.3309,-4.0285,-9.0364e-10,-0.66546,0,0,0.066667,3.158e-16,0,0.66667
0.11946,0.97041,1.7919,0.70561,208.62,2484.1,-3.3716,1.1239,-0.22596,-4.4955,9.936e-07,-0.11298,0,0,0.066667,-0,-0,0.66667
0.81261,0.84334,12.189,0.51501,52.32,153.56,-16.74,5.58,-1.0697,-22.32,-2.556e-09,-0.53484,0,0,0.066667,1.9737e-16,0,0.66667
0.14679,0.13326,2.2019,-0.55011,-161.33,2362.6,3.2301,-1.0767,-0.91855,4.3067,7.7771e-09,-0.45927,0,0,0.066667,-0,-0,0.66667
0.2643,0.72521,3.9645,0.33782,94.108,1854.2,-3.5714,1.1905,-1.6008,-4.7618,2.6093e-11,-0.80039,0,0,0.066667,-0,-0,0.66667
0.81909,0.31561,12.286,-0.27658,-27.167,142.66,9.0619,-3.0206,-1.7229,12.083,-1.4072e-10,-0.86144,0,0,0.066667,-2.5264e-15,0,0.66667
0.31059,0.5345,4.6588,0.051749,13.997,1662,-0.6429,0.2143,-1.9953,-0.8572,-2.6777e-12,-0.99766,0,0,0.066667,-0,-0,0.66667
0.98242,0.3513,14.736,-0.22306,-2.2138,2.0827,8.7654,-2.9218,-1.8272,11.687,2.4021e-06,-0.91358,0,0,0.066667,-0,-0,0.66667
0.26664,0.95957,3.9996,0.68936,192.04,1845,-7.3524,2.4508,-0.31782,-9.8032,3.7261e-11,-0.15891,0,0,0.066667,-0,-0,0.66667
0.53365,0.017028,8.0048,-0.72446,-155.41,838.3,15.464,-5.1548,-0.13603,20.619,4.1496e-12,-0.068013,0,0,0.066667,-0,-0,0.66667
0.31447,0.73063,4.717,0.34595,93.363,1646.4,-4.3516,1.4505,-1.5781,-5.8021,6.3873e-12,-0.78907,0,0,0.066667,-6.3159e-16,0,0.66667
0.91077,0.55158,13.662,0.07737,3.9126,36.693,-2.8187,0.93955,-1.9754,-3.7582,1.1037e-08,-0.98772,0,0,0.066667,-0,-0,0.66667
0.36656,0.39116,5.4983,-0.16327,-42.308,1437.9,2.3939,-0.79795,-1.8987,3.1918,6.7595e-12,-0.94934,0,0,0.066667,-1.0657e-15,0,0.66667
0.43359,0.8565,6.5039,0.53476,130.11,1184,-9.2746,3.0915,-0.9812,-12.366,1.096e-11,-0.4906,0,0,0.066667,-6.3159e-16,0,0.66667
0.51229,0.034253,7.6844,-0.69862,-154.53,908.38,14.316,-4.772,-0.2651,19.088,2.502e-11,-0.13255,0,0,0.066667,-1.2632e-15,2.8162e-17,0.66667
0.93889,0.72753,14.083,0.34129,11.974,18.492,-12.817,4.2724,-1.5919,-17.09,2.5725e-07,-0.79595,0,0,0.066667,-0,-0,0.66667
0.030949,0.36445,0.46424,-0.20332,-60.828,2881.4,0.2517,-0.083902,-1.8635,0.3356,-1.7221e-06,-0.93173,0,0,0.066667,-0,-0,0.66667
0.71688,0.31476,10.753,-0.27786,-40.378,333.05,7.9675,-2.6558,-1.7307,10.623,-1.1804e-12,-0.86533,0,0,0.066667,-0,-0,0.66667
0.89102,0.85273,13.365,0.52909,32.556,55.483,-18.857,6.2857,-1.0148,-25.143,-1.571e-07,-0.50741,0,0,0.066667,-0,-0,0.66667
0.027287,0.27446,0.40931,-0.33831,-101.26,2897.9,0.36926,-0.12309,-1.5914,0.49234,-7.0748e-06,-0.79569,0,0,0.066667,-1.9737e-17,0,0.66667
0.52205,0.92251,7.8308,0.63376,138.21,875.74,-13.234,4.4114,-0.5658,-17.646,-1.219e-11,-0.2829,0,0,0.066667,6.3159e-16,0,0.66667
0.32599,0.33953,4.8898,-0.2407,-64.41,1599.5,3.1386,-1.0462,-1.7979,4.1848,1.8822e-11,-0.89896,0,0,0.066667,1.579e-16,0,0.66667
0.85949,0.25559,12.892,-0.36662,-28.574,88.439,12.604,-4.2014,-1.5339,16.806,-4.9388e-09,-0.76696,0,0,0.066667,-2.5264e-15,0,0.66667
0.55852,0.69003,8.3777,0.28504,58.696,757.69,-6.3681,2.1227,-1.71,-8.4908,-5.465e-12,-0.85502,0,0,0.066667,-0,-0,0.66667
0.69023,0.86982,10.353,0.55472,86.987,395.22,-15.315,5.1051,-0.90774,-20.421,9.2548e-12,-0.45387,0,0,0.066667,-1.2632e-15,0,0.66667
0.45285,0.65775,6.7928,0.23663,56.306,1113.3,-4.2863,1.4288,-1.8127,-5.7151,2.4603e-13,-0.90635,0,0,0.066667,-0,-0,0.66667
0.62831,0.027557,9.4246,-0.70866,-128.63,554.67,17.81,-5.9368,-0.21479,23.747,-1.0171e-11,-0.10739,0,0,0.066667,1.8948e-15,0,0.66667
0.2901,0.20927,4.3515,-0.4361,-119.65,1746.6,5.0604,-1.6868,-1.3177,6.7472,1.2935e-11,-0.65886,0,0,0.066667,-0,-0,0.66667
0.0093486,0.28707,0.14023,-0.31939,-95.656,2979,0.11943,-0.039807,-1.632,0.15924,4.4468e-06,-0.816,0,0,0.066667,-1.9737e-17,0,0.66667
0.57676,0.2741,8.6513,-0.33885,-67.682,701.82,7.8173,-2.6058,-1.598,10.423,8.1548e-12,-0.79902,0,0,0.066667,-9.4739e-16,0,0.66667
0.31144,0.92233,4.6717,0.6335,171.51,1659.3,-7.892,2.6307,-0.58009,-10.523,9.5657e-13,-0.29005,0,0,0.066667,-0,7.8881e-17,0.66667
0.51727,0.83517,7.759,0.50275,110.31,891.03,-10.402,3.4674,-1.1064,-13.87,-7.1294e-12,-0.5532,0,0,0.066667,-0,-0,0.66667
0.91641,0.69139,13.746,0.28708,13.654,32.849,-10.523,3.5078,-1.7029,-14.031,2.8632e-08,-0.85145,0,0,0.066667,2.5264e-15,0,0.66667
0.42647,0.36825,6.3971,-0.19762,-48.396,1209.5,3.3712,-1.1237,-1.8581,4.4949,6.95e-12,-0.92906,0,0,0.066667,-0,-0,0.66667
0.2474,0.070582,3.7109,-0.64413,-181.31,1926.1,6.3742,-2.1247,-0.52666,8.4989,4.061e-10,-0.26333,0,0,0.066667,-0,-6.5828e-17,0.66667
0.37129,0.12777,5.5694,-0.55835,-144.27,1420.1,8.2925,-2.7642,-0.89108,11.057,2.374e-11,-0.44554,0,0,0.066667,-1.2632e-15,0,0.66667
0.93186,0.72999,13.978,0.34499,13.465,22.606,-12.859,4.2864,-1.5717,-17.146,4.6473e-07,-0.78585,0,0,0.066667,-0,-0,0.66667
0.93687,0.75732,14.053,0.38599,13.994,19.83,-14.465,4.8216,-1.4796,-19.286,3.977e-07,-0.73978,0,0,0.066667,-0,-0,0.66667
0.84433,0.12589,12.665,-0.56116,-48.19,108.47,18.952,-6.3174,-0.89089,25.27,-1.4222e-08,-0.44544,0,0,0.066667,-0,-0,0.66667
0.92021,0.14392,13.803,-0.53411,-24.397,31.335,19.66,-6.5533,-0.99041,26.213,-2.3011e-08,-0.4952,0,0,0.066667,-0,-1.2282e-17,0.66667
0.2279,0.25044,3.4185,-0.37434,-106.31,2008.8,3.4125,-1.1375,-1.4972,4.55,-6.7976e-11,-0.74862,0,0,0.066667,-0,-0,0.66667
0.087482,0.79664,1.3122,0.44496,132.3,2626.8,-1.557,0.51901,-1.2901,-2.0761,-5.4415e-08,-0.64504,0,0,0.066667,-1.579e-16,0,0.66667
0.22731,0.21676,3.4096,-0.42486,-120.7,2011.4,3.863,-1.2877,-1.353,5.1506,-4.7601e-11,-0.6765,0,0,0.066667,3.5527e-16,0,0.66667
0.31438,0.036855,4.7156,-0.69472,-187.76,1647.5,8.7361,-2.912,-0.28857,11.648,3.7871e-11,-0.14429,0,0,0.066667,-0,-0,0.66667
0.17477,0.82128,2.6215,0.48193,140,2239.4,-3.369,1.123,-1.1751,-4.492,-4.7619e-10,-0.58757,0,0,0.066667,-0,-0,0.66667
0.60709,0.98884,9.1064,0.73326,138.88,614.23,-17.806,5.9355,-0.090913,-23.742,9.214e-12,-0.045457,0,0,0.066667,-0,7.2496e-17,0.66667
0.41359,0.46434,6.2038,-0.053489,-13.271,1257.4,0.88489,-0.29496,-1.9841,1.1799,1.6413e-11,-0.99205,0,0,0.066667,7.8949e-16,0,0.66667
0.81635,0.66144,12.245,0.24216,24.107,146.7,-7.9076,2.6359,-1.7903,-10.544,1.2265e-10,-0.89514,0,0,0.066667,-0,-0,0.66667
0.18513,0.28239,2.777,-0.32641,-94.413,2193.9,2.4172,-0.80572,-1.6249,3.2229,2.3699e-10,-0.81243,0,0,0.066667,-6.3159e-16,0,0.66667
0.70188,0.46054,10.528,-0.059197,-8.9761,366.56,1.662,-0.55399,-1.9942,2.2159,3.7248e-12,-0.99709,0,0,0.066667,-0,-0,0.66667
0.24036,0.46871,3.6053,-0.046935,-13.24,1955.4,0.45124,-0.15041,-1.9882,0.60166,3.4202e-11,-0.9941,0,0,0.066667,-4.6013e-16,0,0.66667
0.57422,0.32472,8.6133,-0.26292,-52.733,709.33,6.0389,-2.013,-1.7522,8.0519,1.2817e-11,-0.8761,0,0,0.066667,-0,-0,0.66667
0.34899,0.81063,5.2348,0.46594,122.59,1507.6,-6.5043,2.1681,-1.2247,-8.6724,1.4857e-11,-0.61236,0,0,0.066667,1.579e-16,0,0.66667
0.056964,0.93735,0.85447,0.65602,196.08,2764.1,-1.4948,0.49828,-0.46639,-1.993,2.0817e-05,-0.2332,0,0,0.066667,3.7007e-18,0,0.66667
0.22881,0.50881,3.4322,0.013219,3.7504,2004.7,-0.12099,0.04033,-1.9946,-0.16132,-4.5382e-12,-0.99728,0,0,0.066667,-0,-0,0.66667
0.6641,0.47164,9.9615,-0.042542,-7.1091,458.02,1.1301,-0.37669,-1.988,1.5068,8.0073e-12,-0.99401,0,0,0.066667,-0,-0,0.66667
0.49725,0.51585,7.4588,0.023772,5.3543,957.48,-0.47282,0.15761,-1.999,-0.63042,-1.6465e-11,-0.9995,0,0,0.066667,-0,-0,0.66667
0.51902,0.75746,7.7852,0.3862,84.483,884.88,-8.0177,2.6726,-1.4694,-10.69,-5.7767e-12,-0.73468,0,0,0.066667,-0,-0,0.66667
0.17472,0.54071,2.6208,0.06106,17.723,2239.3,-0.42673,0.14224,-1.9877,-0.56898,4.5608e-11,-0.99387,0,0,0.066667,-0,-0,0.66667
0.57072,0.46964,8.5607,-0.045534,-9.1843,719.74,1.0395,-0.34649,-1.9875,1.386,9.8952e-12,-0.99376,0,0,0.066667,-0,-0,0.66667
0.99675,0.161,14.951,-0.50851,-0.82855,1.8349,20.274,-6.7581,-1.0811,27.032,1.1088e-05,-0.54054,0,0,0.066667,-0,-0,0.66667
0.81684,0.28888,12.253,-0.31667,-31.463,146.19,10.347,-3.4489,-1.6408,13.796,-2.2912e-10,-0.82042,0,0,0.066667,-0,-0,0.66667
0.59437,0.87103,8.9156,0.55654,107.83,650.14,-13.232,4.4106,-0.9085,-17.642,-8.5993e-12,-0.45425,0,0,0.066667,9.4739e-16,0,0.66667
0.97599,0.78684,14.64,0.43026,5.9556,4.2882,-16.797,5.599,-1.3359,-22.396,-1.5944e-05,-0.66796,0,0,0.066667,-0,-0,0.66667
0.90156,0.92953,13.523,0.64429,36.082,46.761,-23.235,7.7449,-0.52072,-30.98,-1.1641e-07,-0.26036,0,0,0.066667,-0,-0,0.66667
0.59561,0.018087,8.9341,-0.72287,-139.9,647.37,17.222,-5.7406,-0.14609,22.962,1.4513e-12,-0.073043,0,0,0.066667,-0,-0,0.66667
0.032426,0.49057,0.48639,-0.014143,-4.2303,2874.7,0.018345,-0.0061155,-2.0061,0.024459,-8.9923e-07,-1.003,0,0,0.066667,3.9475e-17,0,0.66667
0.093577,0.53087,1.4037,0.046298,13.741,2599.4,-0.1733,0.057766,-2.0048,-0.23106,-2.9958e-08,-1.0024,0,0,0.066667,3.9475e-17,0,0.66667
0.065372,0.033657,0.98058,-0.69951,-208.9,2726.3,1.8291,-0.60971,-0.26208,2.4388,-2.5619e-06,-0.13104,0,0,0.066667,1.579e-16,0,0.66667
0.45173,0.72381,6.776,0.33571,80.004,1117.5,-6.066,2.022,-1.6058,-8.088,8.8063e-12,-0.80288,0,0,0.066667,-1.2632e-15,0,0.66667
0.37543,0.69553,5.6315,0.29329,75.44,1403.4,-4.4044,1.4681,-1.7042,-5.8726,1.3749e-11,-0.85211,0,0,0.066667,-1.2632e-15,0,0.66667
0.97535,0.64852,14.63,0.22279,3.1358,3.5582,-8.6917,2.8972,-1.8177,-11.589,-3.8071e-06,-0.90887,0,0,0.066667,-6.3159e-16,0,0.66667
0.16798,0.89582,2.5197,0.59373,172.96,2269.3,-3.9894,1.3298,-0.74475,-5.3193,1.2906e-08,-0.37238,0,0,0.066667,-0,-0,0.66667
0.97279,0.56419,14.592,0.09629,1.4955,3.9401,-3.7468,1.2489,-1.966,-4.9957,-1.5202e-06,-0.983,0,0,0.066667,2.5264e-15,0,0.66667
0.76747,0.86915,11.512,0.55372,68.124,230.96,-16.999,5.6662,-0.91451,-22.665,2.9153e-10,-0.45725,0,0,0.066667,1.2632e-15,0,0.66667
0.82424,0.22624,12.364,-0.41063,-39.331,135.53,13.538,-4.5128,-1.3989,18.051,-2.2462e-11,-0.69944,0,0,0.066667,-0,-0,0.66667
0.63262,0.8604,9.4892,0.54059,97.122,542.03,-13.68,4.5598,-0.95426,-18.239,1.3962e-12,-0.47713,0,0,0.066667,5.1402e-16,0,0.66667
0.66873,0.36484,10.031,-0.20274,-33.513,446.51,5.4232,-1.8077,-1.8539,7.231,6.3869e-12,-0.92696,0,0,0.066667,6.3159e-16,0,0.66667
0.47688,0.74241,7.1532,0.36361,84.114,1028.2,-6.936,2.312,-1.5237,-9.248,2.5082e-12,-0.76186,0,0,0.066667,-0,-0,0.66667
0.013136,0.46859,0.19705,-0.047109,-14.103,2961.9,0.024754,-0.0082529,-1.9956,0.033004,-2.3565e-06,-0.9978,0,0,0.066667,-1.8504e-18,0,0.66667
0.35301,0.94008,5.2951,0.66012,173.27,1492.2,-9.3211,3.107,-0.44576,-12.428,-1.4571e-11,-0.22288,0,0,0.066667,-0,-0,0.66667
0.49207,0.4744,7.3811,-0.038396,-8.7074,975.19,0.75574,-0.25191,-1.9888,1.0077,2.1393e-11,-0.99439,0,0,0.066667,-0,-0,0.66667
0.73009,0.85606,10.951,0.53409,74.667,305.46,-15.597,5.1991,-0.98291,-20.796,5.3433e-12,-0.49146,0,0,0.066667,-1.2632e-15,0,0.66667
0.46863,0.0050218,7.0294,-0.74247,-173.81,1058.6,13.918,-4.6392,-0.051831,18.557,2.6909e-11,-0.025916,0,0,0.066667,-2.5264e-15,-4.2593e-17,0.66667
0.4574,0.88319,6.8611,0.57479,136.22,1097.8,-10.516,3.5055,-0.82277,-14.022,7.8977e-12,-0.41138,0,0,0.066667,-0,-0,0.66667
0.13766,0.26484,2.0649,-0.35274,-103.66,2402.9,1.9424,-0.64746,-1.558,2.5899,8.316e-09,-0.77899,0,0,0.066667,-0,-0,0.66667
0.010889,0.68672,0.16333,0.28008,83.875,2972,-0.12199,0.040662,-1.7188,-0.16265,-2.0458e-06,-0.85939,0,0,0.066667,2.5905e-17,0,0.66667
0.75828,0.83746,11.374,0.50619,64.38,248.18,-15.353,5.1177,-1.083,-20.471,-4.3763e-11,-0.54149,0,0,0.066667,-0,-0,0.66667
0.31995,0.86043,4.7993,0.54065,145.44,1624.4,-6.9193,2.3064,-0.95407,-9.2257,1.0427e-11,-0.47704,0,0,0.066667,-6.3159e-16,0,0.66667
0.98438,0.31945,14.766,-0.27082,-2.3803,1.9049,10.664,-3.5546,-1.7513,14.218,1.4947e-06,-0.87567,0,0,0.066667,-0,-0,0.66667
0.22023,0.4353,3.3035,-0.097057,-27.649,2041.6,0.85501,-0.285,-1.9731,1.14,-6.5166e-12,-0.98655,0,0,0.066667,-0,-0,0.66667
0.33871,0.50907,5.0806,0.013607,3.606,1548.2,-0.18436,0.061453,-1.9953,-0.24581,1.8453e-11,-0.99764,0,0,0.066667,1.2632e-15,0,0.66667
0.5239,0.61367,7.8584,0.17051,37.019,868.37,-3.5732,1.1911,-1.8901,-4.7643,7.2435e-12,-0.94507,0,0,0.066667,-0,-0,0.66667
0.75489,0.0091619,11.323,-0.73626,-94.992,256.2,22.232,-7.4106,-0.068802,29.642,7.7518e-11,-0.034401,0,0,0.066667,-0,-0,0.66667
0.46386,0.37444,6.9579,-0.18835,-44.243,1073.8,3.4946,-1.1649,-1.8713,4.6595,1.2043e-11,-0.93567,0,0,0.066667,-8.2897e-16,0,0.66667
0.12482,0.28014,1.8723,-0.32978,-97.238,2459.9,1.6466,-0.54886,-1.6256,2.1954,-8.2159e-09,-0.8128,0,0,0.066667,-3.9475e-17,0,0.66667
0.3125,0.29996,4.6875,-0.30006,-81.08,1654.3,3.7508,-1.2503,-1.6916,5.001,3.2806e-11,-0.84578,0,0,0.066667,-3.158e-16,0,0.66667
0.50452,0.52287,7.5678,0.034305,7.6519,932.82,-0.6923,0.23077,-1.9928,-0.92306,-7.9785e-12,-0.99638,0,0,0.066667,-0,-0,0.66667
0.67385,0.31868,10.108,-0.27198,-44.407,433.91,7.331,-2.4437,-1.7412,9.7746,5.7558e-12,-0.87058,0,0,0.066667,-0,-0,0.66667
0.77015,0.54256,11.552,0.063843,7.7557,224.43,-1.9667,0.65558,-1.9822,-2.6223,-7.2128e-12,-0.9911,0,0,0.066667,-0,-0,0.66667
0.13034,0.17934,1.955,-0.48099,-141.68,2435.5,2.5076,-0.83586,-1.173,3.3435,7.3862e-09,-0.58649,0,0,0.066667,1.579e-16,0,0.66667
0.022915,0.35841,0.34373,-0.21238,-63.567,2917.7,0.19467,-0.064893,-1.833,0.25956,-3.5721e-06,-0.91652,0,0,0.066667,-3.9475e-17,0,0.66667
0.51908,0.0024929,7.7862,-0.74626,-163.55,886.07,15.495,-5.1649,-0.020117,20.66,3.4541e-12,-0.010059,0,0,0.066667,-0,-0,0.66667
0.80999,0.020865,12.15,-0.7187,-74.118,159.01,23.286,-7.7619,-0.16539,31.048,2.1649e-09,-0.082693,0,0,0.066667,-2.5264e-15,-7.007e-17,0.66667
0.012604,0.45379,0.18906,-0.069322,-20.753,2964.3,0.034949,-0.01165,-1.9831,0.046598,-9.2666e-07,-0.99156,0,0,0.066667,-0,-0,0.66667
0.67247,0.055898,10.087,-0.66615,-109.39,438.99,17.919,-5.9729,-0.43171,23.892,8.1197e-12,-0.21586,0,0,0.066667,6.3159e-16,0,0.66667
0.68681,0.435,10.302,-0.097497,-15.396,402.02,2.6785,-0.89282,-1.9759,3.5713,6.4246e-12,-0.98797,0,0,0.066667,-1.2632e-15,0,0.66667
0.44925,0.28739,6.7387,-0.31891,-76.212,1126.4,5.7308,-1.9103,-1.637,7.641,-3.7277e-12,-0.81849,0,0,0.066667,-0,-0,0.66667
0.91479,0.19753,13.722,-0.4537,-22.04,34.812,16.602,-5.5339,-1.2618,22.136,-4.9087e-08,-0.6309,0,0,0.066667,-0,-0,0.66667
0.64436,0.4203,9.6654,-0.11955,-20.906,509.3,3.0813,-1.0271,-1.9475,4.1084,3.2061e-12,-0.97376,0,0,0.066667,1.2632e-15,0,0.66667
0.0052398,0.20711,0.078598,-0.43934,-131.63,2997.6,0.092074,-0.030685,-1.3092,0.12277,8.9511e-06,-0.65458,0,0,0.066667,-0,-0,0.66667
0.48443,0.57285,7.2664,0.10927,25.026,1001.6,-2.1173,0.70578,-1.9691,-2.8231,3.0667e-12,-0.98456,0,0,0.066667,-0,-0,0.66667
0.85932,0.14044,12.89,-0.53934,-42.171,89.541,18.539,-6.1795,-0.97711,24.718,2.2168e-08,-0.48856,0,0,0.066667,1.2632e-15,9.8214e-17,0.66667
0.8304,0.016633,12.456,-0.72505,-67.497,128.64,24.083,-8.0278,-0.13338,32.111,-2.3695e-08,-0.066691,0,0,0.066667,-0,-0,0.66667
0.64915,0.8039,9.7373,0.45585,78.958,497.49,-11.837,3.9455,-1.255,-15.782,2.5375e-12,-0.6275,0,0,0.066667,-6.3159e-16,0,0.66667
0.6737,0.39339,10.105,-0.15991,-26.111,434.06,4.3093,-1.4364,-1.9132,5.7458,7.2564e-13,-0.95661,0,0,0.066667,1.2632e-15,0,0.66667
0.5785,0.24869,8.6775,-0.37697,-75.079,696.66,8.7231,-2.9077,-1.5061,11.631,1.5996e-12,-0.75305,0,0,0.066667,7.8949e-16,0,0.66667
0.27412,0.80773,4.1118,0.46159,127.9,1813.2,-5.0613,1.6871,-1.2367,-6.7483,-2.2246e-11,-0.61836,0,0,0.066667,1.6231e-16,0,0.66667
0.56053,0.71072,8.4079,0.31608,64.879,751.5,-7.0869,2.3623,-1.6487,-9.4492,-2.9523e-12,-0.82437,0,0,0.066667,6.3159e-16,0,0.66667
0.67173,0.62115,10.076,0.18173,29.819,438.99,-4.8829,1.6276,-1.8945,-6.5106,1.4668e-12,-0.94725,0,0,0.066667,-3.158e-16,0,0.66667
0.35243,0.34464,5.2864,-0.23303,-61.104,1493.6,3.2851,-1.095,-1.802,4.3801,4.8539e-13,-0.90099,0,0,0.066667,-1.2632e-15,0,0.66667
0.85583,0.65273,12.837,0.2291,18.268,92.402,-7.8429,2.6143,-1.8132,-10.457,-2.0873e-10,-0.90659,0,0,0.066667,1.8324e-15,0,0.66667
0.19504,0.51527,2.9256,0.0229,6.5954,2150.6,-0.17866,0.059553,-1.9915,-0.23821,-9.036e-11,-0.99574,0,0,0.066667,-0,-0,0.66667
0.74732,0.86961,11.21,0.55441,73.287,270.01,-16.573,5.5243,-0.9091,-22.097,-3.2468e-11,-0.45455,0,0,0.066667,6.3159e-16,0,0.66667
0.2896,0.35335,4.344,-0.21998,-60.341,1748.4,2.5482,-0.84941,-1.8216,3.3977,2.0875e-11,-0.91081,0,0,0.066667,-0,-0,0.66667
0.7738,0.19872,11.607,-0.45191,-54.229,218.75,13.988,-4.6626,-1.2674,18.65,5.5112e-11,-0.63368,0,0,0.066667,1.2632e-15,0,0.66667
0.42774,0.59783,6.4161,0.14674,35.886,1204.8,-2.5107,0.8369,-1.9188,-3.3476,5.2245e-12,-0.95942,0,0,0.066667,-1.2632e-15,0,0.66667
0.8077,0.9076,12.115,0.6114,63.642,161.84,-19.753,6.5844,-0.66836,-26.338,4.8424e-10,-0.33418,0,0,0.066667,-0,-0,0.66667
0.35353,0.62332,5.303,0.18498,48.456,1489.2,-2.6158,0.87194,-1.8742,-3.4878,1.4282e-11,-0.9371,0,0,0.066667,-8.9506e-16,0,0.66667
0.21369,0.80105,3.2054,0.45158,129.12,2070,-3.86,1.2867,-1.2707,-5.1466,-9.4258e-12,-0.63533,0,0,0.066667,-3.158e-16,0,0.66667
0.76728,0.81803,11.509,0.47705,58.693,230.91,-14.641,4.8804,-1.1962,-19.522,-1.2164e-11,-0.59812,0,0,0.066667,-0,-0,0.66667
0.30864,0.73296,4.6296,0.34943,94.685,1670.2,-4.314,1.438,-1.5639,-5.752,9.3863e-12,-0.78194,0,0,0.066667,-0,-0,0.66667
0.73325,0.037188,10.999,-0.69422,-96.234,299.76,20.361,-6.7871,-0.29382,27.148,1.2809e-11,-0.14691,0,0,0.066667,-0,-0,0.66667
0.74447,0.1909,11.167,-0.46365,-61.836,275.29,13.807,-4.6024,-1.2316,18.41,1.8158e-11,-0.61579,0,0,0.066667,-0,-0,0.66667
0.2214,0.1725,3.321,-0.49125,-139.99,2036.9,4.3504,-1.4501,-1.1433,5.8005,-3.9234e-11,-0.57165,0,0,0.066667,-3.158e-16,0,0.66667
0.21411,0.83309,3.2117,0.49963,142.86,2068.3,-4.2791,1.4264,-1.109,-5.7054,5.5586e-10,-0.55448,0,0,0.066667,-0,-0,0.66667
0.19895,0.49478,2.9842,-0.0078289,-2.2511,2133.6,0.062301,-0.020767,-1.9978,0.083069,1.4268e-10,-0.99892,0,0,0.066667,5.5264e-16,0,0.66667
0.14252,0.78951,2.1378,0.43426,127.46,2381.4,-2.4756,0.8252,-1.3337,-3.3008,-2.4202e-09,-0.66685,0,0,0.066667,-0,-0,0.66667
0.37708,0.70695,5.6562,0.31042,79.735,1397,-4.6822,1.5607,-1.6607,-6.2429,1.1696e-11,-0.83033,0,0,0.066667,-0,-0,0.66667
0.026628,0.82468,0.39942,0.48703,145.84,2900.9,-0.51874,0.17293,-1.1531,-0.69165,2.4953e-05,-0.57655,0,0,0.066667,-0,-0,0.66667
0.11092,0.24085,1.6638,-0.38873,-115.02,2521.9,1.7247,-0.57491,-1.4681,2.2996,7.5556e-09,-0.73406,0,0,0.066667,7.8949e-17,0,0.66667
0.67456,0.57903,10.118,0.11854,19.313,431.87,-3.1985,1.0662,-1.9512,-4.2647,4.1056e-12,-0.97562,0,0,0.066667,-0,-0,0.66667
0.79978,0.57762,11.997,0.11643,12.52,172.69,-3.7246,1.2415,-1.9524,-4.9662,2.1892e-11,-0.97618,0,0,0.066667,-0,-0,0.66667
0.08053,0.70157,1.2079,0.30235,89.968,2658,-0.97392,0.32464,-1.6771,-1.2986,-9.3511e-08,-0.83854,0,0,0.066667,-0,-0,0.66667
0.2317,0.60343,3.4755,0.15515,43.959,1992.4,-1.4379,0.47931,-1.9159,-1.9172,2.5078e-11,-0.95796,0,0,0.066667,-6.3159e-16,0,0.66667
0.20763,0.26797,3.1144,-0.34804,-99.753,2096.1,2.8905,-0.96351,-1.566,3.854,9.6034e-12,-0.78298,0,0,0.066667,3.158e-16,0,0.66667
0.91733,0.93397,13.76,0.65096,30.859,34.253,-23.886,7.962,-0.4909,-31.848,-1.6063e-08,-0.24545,0,0,0.066667,-1.579e-15,0,0.66667
0.71131,0.24993,10.67,-0.3751,-55.429,345.74,10.672,-3.5575,-1.4948,14.23,1.9353e-12,-0.7474,0,0,0.066667,-1.8257e-16,0,0.66667
0.55388,0.3859,8.3083,-0.17115,-35.499,771.99,3.792,-1.264,-1.8895,5.0559,9.41e-12,-0.94476,0,0,0.066667,1.2632e-15,0,0.66667
0.30452,0.53411,4.5678,0.051171,13.898,1686.8,-0.6233,0.20777,-1.9852,-0.83107,-3.2608e-12,-0.99258,0,0,0.066667,-0,-0,0.66667
0.83485,0.80735,12.523,0.46103,41.742,120.66,-15.396,5.1319,-1.2387,-20.527,3.7467e-09,-0.61937,0,0,0.066667,1.8948e-15,0,0.66667
0.43531,0.59396,6.5296,0.14094,34.191,1176.9,-2.4541,0.81805,-1.9338,-3.2722,2.6732e-12,-0.96691,0,0,0.066667,-0,-0,0.66667
0.92346,0.7841,13.852,0.42615,18.654,28.437,-15.741,5.2471,-1.3604,-20.988,1.5664e-07,-0.6802,0,0,0.066667,-0,-0,0.66667
0.70605,0.022107,10.591,-0.71684,-107.81,359.39,20.245,-6.7483,-0.17373,26.993,-1.7231e-12,-0.086865,0,0,0.066667,-0,-0,0.66667
0.47803,0.36938,7.1705,-0.19593,-45.24,1023.9,3.7464,-1.2488,-1.8582,4.9951,2.0515e-12,-0.92909,0,0,0.066667,3.158e-16,0,0.66667
0.12621,0.48856,1.8932,-0.017157,-5.0552,2453.6,0.086616,-0.028872,-2.0055,0.11549,-3.1089e-09,-1.0027,0,0,0.066667,-3.158e-16,0,0.66667
0.97604,0.25886,14.641,-0.36171,-4.975,3.9223,14.122,-4.7073,-1.5285,18.829,9.4976e-06,-0.76426,0,0,0.066667,-0,-0,0.66667
0.15983,0.51478,2.3975,0.022177,6.4702,2304.7,-0.14179,0.047262,-1.9969,-0.18905,-3.2255e-11,-0.99847,0,0,0.066667,-6.3159e-16,0,0.66667
0.2026,0.38323,3.039,-0.17515,-50.292,2117.7,1.4194,-0.47315,-1.9006,1.8926,-9.7969e-12,-0.95029,0,0,0.066667,-0,-0,0.66667
0.43118,0.93483,6.4677,0.65225,159.2,1193.2,-11.25,3.7498,-0.48254,-14.999,1.2314e-11,-0.24127,0,0,0.066667,-9.4739e-16,0,0.66667
0.4042,0.52781,6.063,0.041718,10.446,1292.8,-0.67449,0.22483,-1.9981,-0.89932,7.8093e-13,-0.99907,0,0,0.066667,9.4739e-16,0,0.66667
0.14675,0.44714,2.2013,-0.079294,-23.23,2362.5,0.46546,-0.15515,-1.9721,0.62061,-1.4958e-10,-0.98604,0,0,0.066667,-3.158e-16,0,0.66667
0.72932,0.58857,10.94,0.13285,18.581,305.8,-3.8757,1.2919,-1.9336,-5.1676,-3.215e-12,-0.96681,0,0,0.066667,4.3184e-16,0,0.66667
0.18875,0.61402,2.8312,0.17103,49.385,2178,-1.2912,0.4304,-1.9024,-1.7216,-1.1675e-11,-0.95121,0,0,0.066667,-1.579e-16,0,0.66667
0.6439,0.80578,9.6584,0.45867,80.383,511.38,-11.813,3.9378,-1.2521,-15.751,2.5802e-12,-0.62604,0,0,0.066667,-6.3159e-16,0,0.66667
0.75431,0.53135,11.315,0.047021,6.0528,254.63,-1.4187,0.47291,-1.9908,-1.8916,6.9075e-12,-0.99542,0,0,0.066667,-0,-0,0.66667
0.21073,0.55585,3.161,0.083768,23.966,2082.5,-0.7061,0.23537,-1.969,-0.94147,4.7137e-11,-0.98448,0,0,0.066667,-3.158e-16,0,0.66667
0.60095,0.4743,9.0143,-0.038552,-7.3663,629.74,0.92672,-0.30891,-1.9889,1.2356,1.1734e-11,-0.99443,0,0,0.066667,-0,-0,0.66667
0.74893,0.92472,11.234,0.63708,83.82,267.29,-19.085,6.3617,-0.56394,-25.447,6.1871e-11,-0.28197,0,0,0.066667,-2.1501e-15,0,0.66667
0.63822,0.64505,9.5733,0.21758,38.569,525.85,-5.5544,1.8515,-1.8339,-7.4059,-3.0789e-12,-0.91696,0,0,0.066667,6.3159e-16,0,0.66667
0.59713,0.87531,8.9569,0.56297,108.53,642.12,-13.446,4.4822,-0.874,-17.929,-1.3705e-12,-0.437,0,0,0.066667,-0,-0,0.66667
0.29548,0.69398,4.4322,0.29098,79.527,1724.2,-3.4391,1.1464,-1.7052,-4.5855,8.9051e-12,-0.85262,0,0,0.066667,-0,-0,0.66667
0.73161,0.43917,10.974,-0.091241,-12.669,300.9,2.6701,-0.89003,-1.9727,3.5601,-3.215e-12,-0.98636,0,0,0.066667,-0,-0,0.66667
0.94531,0.6355,14.18,0.20324,6.3772,14.637,-7.6851,2.5617,-1.8466,-10.247,2.5365e-07,-0.92332,0,0,0.066667,-0,-0,0.66667
0.42556,0.15536,6.3834,-0.51696,-126.84,1213.5,8.8,-2.9333,-1.0497,11.733,2.2165e-11,-0.52486,0,0,0.066667,-9.4739e-16,0,0.66667
0.78218,0.19467,11.733,-0.458,-53.169,203.72,14.329,-4.7765,-1.2622,19.106,4.3565e-12,-0.63111,0,0,0.066667,-2.5264e-15,0,0.66667
0.056141,0.68805,0.84212,0.28208,84.214,2767.7,-0.63344,0.21115,-1.7126,-0.84458,-2.2987e-07,-0.85632,0,0,0.066667,-1.579e-16,0,0.66667
0.83527,0.028677,12.529,-0.70698,-64.075,121.69,23.621,-7.8736,-0.21749,31.495,-4.3253e-08,-0.10875,0,0,0.066667,1.2632e-15,0,0.66667
0.19225,0.70737,2.8838,0.31106,89.718,2162.8,-2.392,0.79734,-1.6522,-3.1894,7.7469e-11,-0.82612,0,0,0.066667,3.158e-16,0,0.66667
0.3951,0.6846,5.9265,0.2769,69.962,1327.6,-4.376,1.4587,-1.7252,-5.8347,-9.9893e-12,-0.8626,0,0,0.066667,7.8949e-16,0,0.66667
0.30008,0.27699,4.5012,-0.33451,-91.159,1705.3,4.0152,-1.3384,-1.6027,5.3536,2.5238e-11,-0.80137,0,0,0.066667,-0,-0,0.66667
0.080104,0.11302,1.2016,-0.58048,-172.89,2660,1.8599,-0.61998,-0.80557,2.4799,2.6625e-07,-0.40279,0,0,0.066667,-0,-0,0.66667
0.90463,0.21641,13.569,-0.42539,-23.012,42.745,15.393,-5.1309,-1.3627,20.524,-7.4955e-08,-0.68134,0,0,0.066667,-1.2632e-15,0,0.66667
0.37015,0.67058,5.5523,0.25588,66.113,1423.9,-3.7885,1.2628,-1.7632,-5.0514,1.268e-11,-0.88159,0,0,0.066667,-6.3159e-16,0,0.66667
0.5307,0.84534,7.9605,0.51801,111.48,846.98,-10.996,3.6654,-1.0565,-14.662,-2.8155e-13,-0.52823,0,0,0.066667,-1.2632e-15,8.6357e-17,0.66667
0.49412,0.10752,7.4117,-0.58872,-133.36,969.33,11.636,-3.8786,-0.76215,15.514,3.6735e-12,-0.38107,0,0,0.066667,-0,-0,0.66667
0.13216,0.061087,1.9824,-0.65837,-193.97,2427.6,3.4804,-1.1601,-0.45371,4.6406,-1.2269e-07,-0.22686,0,0,0.066667,-3.9475e-17,0,0.66667
0.20645,0.38428,3.0968,-0.17358,-49.759,2101.1,1.4335,-0.47782,-1.8925,1.9113,-2.7198e-11,-0.94625,0,0,0.066667,-0,-0,0.66667
0.076189,0.5681,1.1428,0.10216,30.411,2677.4,-0.31133,0.10378,-1.9673,-0.41511,-1.3312e-07,-0.98364,0,0,0.066667,-0,-0,0.66667
0.50792,0.63661,7.6188,0.20492,45.505,921.5,-4.1633,1.3878,-1.8441,-5.551,-5.9392e-12,-0.92207,0,0,0.066667,-0,-0,0.66667
0.26155,0.1988,3.9232,-0.4518,-126.1,1865.9,4.7268,-1.5756,-1.2719,6.3023,-7.9847e-12,-0.63593,0,0,0.066667,-0,-0,0.66667
0.35706,0.84156,5.3559,0.51235,133.95,1475.8,-7.3176,2.4392,-1.0703,-9.7567,1.9734e-11,-0.53517,0,0,0.066667,-5.2588e-16,0,0.66667
0.10807,0.13021,1.621,-0.55468,-164.31,2534.8,2.3977,-0.79923,-0.91282,3.1969,-2.6708e-07,-0.45641,0,0,0.066667,-0,-0,0.66667
0.78755,0.93291,11.813,0.64937,73.887,195.45,-20.457,6.8188,-0.49555,-27.275,4.1408e-09,-0.24777,0,0,0.066667,1.8948e-15,0,0.66667
0.10658,0.87107,1.5988,0.5566,164.94,2541.4,-2.373,0.791,-0.90031,-3.164,3.0167e-07,-0.45016,0,0,0.066667,-1.9737e-16,0,0.66667
0.98571,0.9298,14.786,0.6447,5.3903,3.9494,-25.419,8.4732,-0.52845,-33.892,0.00010189,-0.26422,0,0,0.066667,6.3159e-16,-8.9654e-17,0.66667
0.17716,0.15703,2.6574,-0.51445,-149.33,2228.9,3.6456,-1.2152,-1.0558,4.8608,-1.6572e-09,-0.52789,0,0,0.066667,-0,-0,0.66667
0.57241,0.75599,8.5861,0.38399,77.288,715.15,-8.7919,2.9306,-1.471,-11.723,-1.4104e-12,-0.73552,0,0,0.066667,-0,-0,0.66667
0.044845,0.56263,0.67268,0.093952,28.075,2818.6,-0.16853,0.056177,-1.9737,-0.22471,-3.7059e-07,-0.98683,0,0,0.066667,-0,-0,0.66667
0.78712,0.43913,11.807,-0.0913,-10.368,194.03,2.8746,-0.95819,-1.9662,3.8327,4.4474e-11,-0.9831,0,0,0.066667,-0,-0,0.66667
0.18961,0.30387,2.8441,-0.29419,-84.939,2174.3,2.2312,-0.74374,-1.6957,2.9749,4.5863e-11,-0.84786,0,0,0.066667,-3.158e-16,0,0.66667
0.5279,0.5253,7.9186,0.037957,8.1917,855.14,-0.80152,0.26717,-1.9948,-1.0687,1.8506e-12,-0.99742,0,0,0.066667,-0,-0,0.66667
0.74008,0.36621,11.101,-0.20069,-27.122,283.4,5.941,-1.9803,-1.8518,7.9213,-7.9003e-12,-0.92589,0,0,0.066667,6.3159e-16,0,0.66667
0.14993,0.60239,2.249,0.15358,44.953,2348.4,-0.92106,0.30702,-1.9105,-1.2281,-1.1343e-10,-0.95524,0,0,0.066667,-3.158e-16,0,0.66667
0.55109,0.45316,8.2663,-0.070264,-14.637,780.71,1.5489,-0.51629,-1.9797,2.0651,-2.8649e-12,-0.98983,0,0,0.066667,1.2632e-15,0,0.66667
0.21662,0.72246,3.2493,0.33368,95.251,2057.3,-2.8913,0.96375,-1.6081,-3.855,-9.7586e-11,-0.80405,0,0,0.066667,-0,-0,0.66667
0.7592,0.24977,11.388,-0.37534,-47.537,245.82,11.398,-3.7995,-1.4946,15.198,-1.5612e-11,-0.74732,0,0,0.066667,-1.3421e-15,0,0.66667
0.72292,0.084038,10.844,-0.62394,-89.248,321.34,18.042,-6.0141,-0.61337,24.056,5.0619e-11,-0.30669,0,0,0.066667,6.3159e-16,0,0.66667
0.17655,0.20822,2.6482,-0.43766,-127.04,2231.5,3.0908,-1.0303,-1.3154,4.121,-2.8067e-10,-0.6577,0,0,0.066667,1.579e-16,0,0.66667
0.86197,0.89903,12.929,0.59854,46.023,86.786,-20.637,6.879,-0.72822,-27.516,-1.0477e-07,-0.36411,0,0,0.066667,6.3159e-16,0,0.66667
0.019775,0.62664,0.29663,0.18996,56.861,2931.9,-0.15026,0.050087,-1.8704,-0.20034,2.6232e-06,-0.93521,0,0,0.066667,-0,-0,0.66667
0.86024,0.54363,12.904,0.065447,5.0668,86.8,-2.252,0.75067,-1.9927,-3.0027,-8.5716e-10,-0.99633,0,0,0.066667,-0,-0,0.66667
0.5589,0.92791,8.3836,0.64186,132.31,757.72,-14.35,4.7832,-0.53406,-19.133,6.2093e-12,-0.26703,0,0,0.066667,-0,-0,0.66667
0.40322,0.88194,6.0483,0.57292,143.79,1297.4,-9.2404,3.0801,-0.83367,-12.321,1.0545e-11,-0.41684,0,0,0.066667,-0,-0,0.66667
0.75875,0.73783,11.381,0.35675,45.25,246.62,-10.827,3.6091,-1.5412,-14.436,1.4609e-11,-0.77058,0,0,0.066667,-8.9854e-16,0,0.66667
0.71693,0.2611,10.754,-0.35836,-52.088,333.19,10.277,-3.4256,-1.5476,13.702,1.2212e-12,-0.77382,0,0,0.066667,-0,-0,0.66667
0.98733,0.60358,14.81,0.15537,1.0872,1.1477,-6.1359,2.0453,-1.9148,-8.1812,-1.479e-07,-0.95741,0,0,0.066667,2.5264e-15,0,0.66667
0.27809,0.4976,4.1713,-0.0035968,-0.99349,1796.2,0.040009,-0.013336,-2.001,0.053345,-2.1478e-12,-1.0005,0,0,0.066667,-0,-0,0.66667
0.0037937,0.97111,0.056905,0.70667,211.95,3004.1,-0.10759,0.035883,-0.22379,-0.14345,2.7732e-05,-0.1119,0,0,0.066667,-0,-0,0.66667
0.9339,0.071572,14.009,-0.64264,-24.544,23.203,24.007,-8.0022,-0.53056,32.009,4.6953e-07,-0.26528,0,0,0.066667,-0,-0,0.66667
0.8579,0.74205,12.868,0.36307,28.594,90.339,-12.459,4.153,-1.5371,-16.612,2.3249e-09,-0.76854,0,0,0.066667,-1.2632e-15,0,0.66667
0.72885,0.92647,10.933,0.63971,89.862,308.69,-18.65,6.2167,-0.54003,-24.867,1.8606e-11,-0.27002,0,0,0.066667,-0,-0,0.66667
0.51669,0.65174,7.7503,0.2276,49.932,892.26,-4.704,1.568,-1.8237,-6.272,3.7303e-12,-0.91183,0,0,0.066667,-3.158e-16,0,0.66667
0.70696,0.93042,10.604,0.64563,96.788,356.88,-18.257,6.0858,-0.5165,-24.343,-1.647e-11,-0.25825,0,0,0.066667,6.3159e-16,0,0.66667
0.78053,0.45537,11.708,-0.06695,-7.81,205.58,2.0903,-0.69675,-1.9925,2.787,-2.2187e-12,-0.99626,0,0,0.066667,1.2632e-15,0,0.66667
0.37488,0.11087,5.6231,-0.58369,-150.37,1406.2,8.7525,-2.9175,-0.79971,11.67,1.4548e-12,-0.39985,0,0,0.066667,6.3159e-16,0,0.66667
0.77032,0.95794,11.555,0.68691,83.725,226.51,-21.166,7.0552,-0.31875,-28.221,-2.8619e-10,-0.15937,0,0,0.066667,-0,-0,0.66667
0.75062,0.10449,11.259,-0.59326,-77.569,263.64,17.813,-5.9375,-0.7576,23.75,2.5323e-10,-0.3788,0,0,0.066667,-0,-0,0.66667
0.61321,0.0099463,9.1982,-0.73508,-137.58,596.85,18.03,-6.0101,-0.077075,24.041,-5.1266e-12,-0.038537,0,0,0.066667,2.5264e-15,0,0.66667
0.40187,0.45435,6.028,-0.068473,-17.185,1301.7,1.1007,-0.36689,-1.9802,1.4676,-3.6648e-12,-0.9901,0,0,0.066667,-6.3159e-16,0,0.66667
0.69731,0.15606,10.46,-0.51591,-79.357,378.37,14.39,-4.7966,-1.0498,19.186,1.1855e-11,-0.52492,0,0,0.066667,-1.8356e-15,0,0.66667
0.0031129,0.95616,0.046693,0.68424,205.2,3007.2,-0.085391,0.028521,-0.33537,-0.11383,8.5983e-05,-0.16768,0,0,0.066667,-0,-3.0388e-16,0.66667
0.7749,0.028189,11.623,-0.70772,-84.782,218.28,21.936,-7.3121,-0.21422,29.248,-3.5699e-10,-0.10711,0,0,0.066667,1.722e-15,0,0.66667
0.89642,0.93699,13.446,0.65549,38.538,51.384,-23.504,7.8346,-0.46845,-31.338,1.2838e-07,-0.23422,0,0,0.066667,7.8949e-17,0,0.66667
0.23932,0.059047,3.5897,-0.66143,-186.98,1960.5,6.3316,-2.1105,-0.44132,8.4422,1.4113e-10,-0.22066,0,0,0.066667,3.9475e-16,0,0.66667
0.12077,0.26721,1.8115,-0.34919,-103.07,2478,1.6868,-0.56228,-1.5636,2.2491,-2.027e-08,-0.78182,0,0,0.066667,1.579e-16,0,0.66667
0.22028,0.67864,3.3043,0.26796,76.352,2041.4,-2.3611,0.78704,-1.7502,-3.1482,-1.2441e-11,-0.87508,0,0,0.066667,-1.579e-16,0,0.66667
0.3021,0.87235,4.5315,0.55852,152.12,1697.4,-6.7491,2.2497,-0.88737,-8.9988,3.0904e-12,-0.44368,0,0,0.066667,-2.3685e-16,0,0.66667
0.88303,0.092388,13.245,-0.61142,-40.282,63.856,21.596,-7.1987,-0.66558,28.795,-1.6984e-07,-0.33279,0,0,0.066667,2.8861e-16,0,0.66667
0.54317,0.68644,8.1475,0.27965,59.004,806.12,-6.076,2.0253,-1.7218,-8.1013,9.0017e-12,-0.8609,0,0,0.066667,-2.3685e-16,0,0.66667
0.28671,0.99719,4.3007,0.74578,205.34,1761.4,-8.553,2.851,-0.018554,-11.404,4.7251e-13,-0.0092771,0,0,0.066667,-1.0263e-15,0,0.66667
0.13835,0.8377,2.0753,0.50655,148.9,2399.9,-2.8034,0.93445,-1.0908,-3.7378,5.3706e-09,-0.54542,0,0,0.066667,-0,-0,0.66667
0.29014,0.36219,4.3522,-0.20672,-56.684,1746.2,2.3992,-0.79972,-1.8418,3.1989,2.5629e-11,-0.9209,0,0,0.066667,-0,-0,0.66667
0.61387,0.33942,9.2081,-0.24087,-44.905,593.02,5.9146,-1.9715,-1.7912,7.8862,6.8758e-12,-0.89561,0,0,0.066667,-0,-0,0.66667
0.32414,0.4495,4.8621,-0.075744,-20.292,1606.8,0.98207,-0.32736,-1.9774,1.3094,2.1475e-11,-0.98871,0,0,0.066667,-0,-0,0.66667
0.45736,0.033987,6.8604,-0.69902,-165.79,1098.4,12.788,-4.2627,-0.26098,17.051,-8.7637e-12,-0.13049,0,0,0.066667,1.2632e-15,0,0.66667
0.44412,0.15561,6.6618,-0.51659,-124.25,1145.5,9.1771,-3.059,-1.0465,12.236,-2.3021e-11,-0.52324,0,0,0.066667,-7.5002e-16,0,0.66667
0.82814,0.28565,12.422,-0.32153,-30.153,129.53,10.651,-3.5503,-1.6449,14.201,3.6625e-10,-0.82245,0,0,0.066667,-0,-0,0.66667
0.42635,0.15942,6.3952,-0.51088,-125.24,1210.6,8.7125,-2.9042,-1.0698,11.617,2.123e-11,-0.53489,0,0,0.066667,-1.2632e-15,0,0.66667
0.3457,0.86473,5.1855,0.54709,144.36,1520.9,-7.5651,2.5217,-0.93963,-10.087,7.1898e-13,-0.46982,0,0,0.066667,-0,-0,0.66667
0.67497,0.57287,10.125,0.1093,17.789,430.85,-2.951,0.98368,-1.9577,-3.9347,1.058e-11,-0.97886,0,0,0.066667,-1.2632e-15,0,0.66667
0.22148,0.31745,3.3222,-0.27382,-77.979,2036.3,2.4259,-0.80863,-1.7353,3.2345,1.6527e-11,-0.86764,0,0,0.066667,-0,-0,0.66667
0.46725,0.58764,7.0087,0.13146,30.754,1061.8,-2.457,0.81901,-1.9445,-3.276,8.8969e-12,-0.97223,0,0,0.066667,3.158e-16,0,0.66667
0.31477,0.54619,4.7215,0.06929,18.687,1644.9,-0.87241,0.2908,-1.9855,-1.1632,-1.1093e-11,-0.99274,0,0,0.066667,6.3159e-16,0,0.66667
0.62686,0.25406,9.4028,-0.36891,-67.02,557.13,9.25,-3.0833,-1.521,12.333,6.8745e-12,-0.76051,0,0,0.066667,-0,-0,0.66667
0.87736,0.98126,13.16,0.72189,49.831,70.569,-25.334,8.4447,-0.14945,-33.779,-4.8384e-07,-0.074724,0,0,0.066667,-1.2632e-15,0,0.66667
0.44769,0.45122,6.7153,-0.073165,-17.508,1131.7,1.3102,-0.43673,-1.976,1.7469,1.195e-11,-0.98801,0,0,0.066667,-0,-0,0.66667
0.78446,0.28997,11.767,-0.31505,-36.202,199.14,9.8858,-3.2953,-1.6471,13.181,-7.1848e-11,-0.82355,0,0,0.066667,-0,-0,0.66667
0.45697,0.6921,6.8545,0.28815,68.25,1098.6,-5.2669,1.7556,-1.7037,-7.0226,-3.4519e-12,-0.85185,0,0,0.066667,1.2632e-15,0,0.66667
0.65623,0.76542,9.8434,0.39813,67.837,478.86,-10.451,3.4835,-1.448,-13.934,-5.3477e-12,-0.72398,0,0,0.066667,1.2632e-15,0,0.66667
0.13184,0.51895,1.9776,0.028423,8.362,2428.6,-0.14989,0.049964,-1.9908,-0.19986,-1.1147e-09,-0.99541,0,0,0.066667,-0,-0,0.66667
0.43298,0.21785,6.4947,-0.42323,-103,1185.9,7.33,-2.4433,-1.3612,9.7733,1.5278e-11,-0.68061,0,0,0.066667,-9.0792e-16,0,0.66667
0.90931,0.84675,13.64,0.52012,26.86,39.457,-18.918,6.306,-1.0394,-25.224,2.486e-07,-0.51968,0,0,0.066667,-0,-0,0.66667
0.60548,0.86881,9.0822,0.55322,104.97,617.92,-13.398,4.4662,-0.91037,-17.865,-2.073e-12,-0.45519,0,0,0.066667,9.9011e-16,0,0.66667
0.76677,0.66496,11.502,0.24743,30.458,231.01,-7.589,2.5297,-1.7893,-10.119,5.369e-13,-0.89465,0,0,0.066667,-0,-0,0.66667
0.5047,0.22736,7.5705,-0.40896,-91.268,932.77,8.256,-2.752,-1.4019,11.008,1.5048e-11,-0.70096,0,0,0.066667,-1.2632e-15,0,0.66667
0.49806,0.10606,7.4708,-0.59092,-133.17,955.9,11.772,-3.9241,-0.7622,15.696,8.5523e-12,-0.3811,0,0,0.066667,-1.2632e-15,0,0.66667
0.8429,0.17196,12.643,-0.49206,-42.575,109.94,16.59,-5.5301,-1.147,22.121,3.3339e-09,-0.57349,0,0,0.066667,1.2632e-15,1.9529e-17,0.66667
0.067807,0.71147,1.0171,0.31721,94.573,2715.2,-0.86035,0.28678,-1.6379,-1.1471,-4.6092e-07,-0.81897,0,0,0.066667,7.8949e-17,0,0.66667
0.57327,0.028099,8.5991,-0.70785,-142.52,713.86,16.232,-5.4106,-0.21552,21.642,1.941e-11,-0.10776,0,0,0.066667,-0,9.2463e-17,0.66667
0.94276,0.023751,14.141,-0.71437,-23.792,18.885,26.939,-8.9798,-0.18123,35.919,2.127e-05,-0.090616,0,0,0.066667,-0,-0,0.66667
0.51786,0.7344,7.7679,0.3516,77.031,888.62,-7.2831,2.4277,-1.5631,-9.7108,-2.4536e-12,-0.78156,0,0,0.066667,-0,-0,0.66667
0.19447,0.63393,2.917,0.2009,57.882,2153.1,-1.5627,0.52091,-1.8503,-2.0836,-8.9361e-12,-0.92517,0,0,0.066667,-0,-0,0.66667
0.84794,0.077065,12.719,-0.6344,-53.375,104.28,21.517,-7.1725,-0.56628,28.69,-8.4469e-08,-0.28314,0,0,0.066667,-0,-0,0.66667
0.25164,0.59101,3.7746,0.13651,38.283,1907.5,-1.3741,0.45802,-1.9397,-1.8321,1.9914e-11,-0.96983,0,0,0.066667,1.579e-16,0,0.66667
0.70073,0.79246,10.511,0.4387,66.818,370.09,-12.296,4.0987,-1.318,-16.395,2.5047e-12,-0.65899,0,0,0.066667,-0,-0,0.66667
0.54026,0.24544,8.1039,-0.38183,-80.95,815.66,8.2516,-2.7505,-1.4762,11.002,9.4671e-12,-0.73811,0,0,0.066667,-6.3159e-16,0,0.66667
0.94884,0.28583,14.233,-0.32125,-9.4564,13.319,12.192,-4.0642,-1.631,16.257,-5.6891e-07,-0.81548,0,0,0.066667,-0,-0,0.66667
0.62434,0.13077,9.3651,-0.55385,-101.24,564.79,13.832,-4.6105,-0.91867,18.442,-6.2723e-12,-0.45933,0,0,0.066667,1.2632e-15,5.0204e-17,0.66667
0.83798,0.34362,12.57,-0.23457,-20.833,115.5,7.8627,-2.6209,-1.8006,10.484,2.4432e-10,-0.90031,0,0,0.066667,2.4672e-16,0,0.66667
0.0079329,0.37144,0.11899,-0.19284,-57.744,2985.4,0.061191,-0.020396,-1.8621,0.081588,1.7349e-06,-0.93106,0,0,0.066667,-4.9343e-18,0,0.66667
0.98934,0.94382,14.84,0.66573,4.1528,3.659,-26.345,8.7819,-0.42058,-35.127,0.00017007,-0.21029,0,0,0.066667,-2.5264e-15,0,0.66667
0.077715,0.74187,1.1657,0.3628,108.02,2670.7,-1.1278,0.37593,-1.5422,-1.5037,-1.5623e-07,-0.77108,0,0,0.066667,7.8949e-17,0,0.66667
0.32213,0.38509,4.8319,-0.17236,-46.248,1615,2.2209,-0.74031,-1.8889,2.9613,4.1166e-11,-0.94445,0,0,0.066667,-0,-0,0.66667
0.94615,0.91218,14.192,0.61827,19.322,16.369,-23.399,7.7997,-0.63504,-31.199,-1.044e-05,-0.31752,0,0,0.066667,-2.5264e-15,0,0.66667
0.0089391,0.8855,0.13409,0.57825,173.32,2980.9,-0.20675,0.068863,-0.80501,-0.27569,-7.8062e-05,-0.40251,0,0,0.066667,-0,-0,0.66667
0.82273,0.98629,12.341,0.72943,70.684,139.74,-24.005,8.0017,-0.10329,-32.007,-2.6133e-09,-0.051647,0,0,0.066667,2.5264e-15,0,0.66667
0.86121,0.52822,12.918,0.042337,3.2563,85.629,-1.4585,0.48615,-1.9988,-1.9446,-1.9088e-09,-0.99939,0,0,0.066667,6.3159e-16,0,0.66667
0.43983,0.29252,6.5975,-0.31121,-75.152,1160.6,5.4752,-1.8251,-1.6581,7.3003,5.2331e-12,-0.82905,0,0,0.066667,-0,-0,0.66667
0.25575,0.1184,3.8362,-0.57241,-160.35,1890.6,5.8556,-1.9519,-0.83021,7.8075,4.6324e-11,-0.4151,0,0,0.066667,-0,-0,0.66667
0.80269,0.11417,12.04,-0.57874,-61.619,169.65,18.582,-6.194,-0.8038,24.776,-7.8879e-10,-0.4019,0,0,0.066667,-1.2632e-15,0,0.66667
0.47786,0.73687,7.1679,0.3553,82.09,1024.8,-6.7915,2.2638,-1.545,-9.0553,-2.4549e-12,-0.77251,0,0,0.066667,-6.3159e-16,0,0.66667
0.13434,0.28461,2.0151,-0.32308,-95.021,2417.6,1.7361,-0.57869,-1.6239,2.3148,6.9877e-09,-0.81197,0,0,0.066667,-3.158e-16,0,0.66667
0.92785,0.61403,13.918,0.17105,7.0429,24.576,-6.3482,2.1161,-1.8905,-8.4643,2.478e-07,-0.94523,0,0,0.066667,-0,-0,0.66667
0.89597,0.088964,13.44,-0.61655,-36.366,51.492,22.097,-7.3655,-0.64437,29.462,1.6133e-07,-0.32219,0,0,0.066667,-6.3159e-16,0,0.66667
0.49155,0.9408,7.3732,0.66119,150.35,978.43,-13,4.3334,-0.4401,-17.334,-3.0242e-12,-0.22005,0,0,0.066667,-1.2632e-15,0,0.66667
0.8567,0.39533,12.851,-0.15701,-12.444,91.176,5.3803,-1.7934,-1.9138,7.1738,2.4064e-10,-0.95688,0,0,0.066667,-0,-0,0.66667
0.41858,0.024395,6.2787,-0.71341,-176.48,1240.2,11.945,-3.9816,-0.19038,15.926,-1.6791e-11,-0.095191,0,0,0.066667,6.3159e-16,-5.4077e-17,0.66667
0.68346,0.50365,10.252,0.0054717,0.87153,410.03,-0.14959,0.049863,-1.9985,-0.19945,-1.224e-12,-0.99925,0,0,0.066667,-0,-0,0.66667
0.39799,0.069734,5.9699,-0.6454,-162.85,1317.5,10.275,-3.4248,-0.51285,13.699,6.4864e-12,-0.25642,0,0,0.066667,-0,-0,0.66667
0.50574,0.81307,7.5861,0.46961,104.68,929.44,-9.5,3.1667,-1.2121,-12.667,1.1553e-11,-0.60604,0,0,0.066667,-0,-0,0.66667
0.18955,0.90487,2.8433,0.6073,175.52,2174.9,-4.6046,1.5349,-0.69335,-6.1395,-1.0148e-09,-0.34667,0,0,0.066667,-4.3422e-16,0,0.66667
0.96499,0.28151,14.475,-0.32774,-6.6095,6.8868,12.651,-4.2169,-1.618,16.868,-3.0074e-07,-0.809,0,0,0.066667,-0,-0,0.66667
0.29422,0.28752,4.4132,-0.31873,-87.188,1729.4,3.751,-1.2503,-1.6407,5.0013,2.5079e-11,-0.82036,0,0,0.066667,-0,-0,0.66667
0.10346,0.97723,1.5519,0.71585,212.42,2555.5,-2.9625,0.98749,-0.17274,-3.95,-1.6136e-06,-0.086371,0,0,0.066667,-3.158e-16,0,0.66667
0.14432,0.60866,2.1647,0.16299,47.788,2373.3,-0.94087,0.31362,-1.904,-1.2545,1.6787e-10,-0.95199,0,0,0.066667,3.158e-16,0,0.66667
0.014092,0.54121,0.21138,0.061819,18.506,2957.5,-0.034847,0.011617,-1.9918,-0.046462,1.467e-06,-0.99589,0,0,0.066667,-0,-0,0.66667
0.71595,0.49463,10.739,-0.0080557,-1.1733,334.75,0.2307,-0.076899,-2.0014,0.3076,3.8455e-12,-1.0007,0,0,0.066667,-1.8948e-15,0,0.66667
0.5645,0.11561,8.4675,-0.57659,-117.72,740.08,13.019,-4.3398,-0.82169,17.359,2.099e-11,-0.41085,0,0,0.066667,-6.3159e-16,0,0.66667
0.79458,0.78363,11.919,0.42544,46.883,182.21,-13.522,4.5073,-1.3601,-18.029,-5.5831e-12,-0.68006,0,0,0.066667,2.5264e-15,0,0.66667
0.50708,0.74487,7.6062,0.36731,81.696,924.65,-7.4502,2.4834,-1.5146,-9.9336,6.1138e-12,-0.75728,0,0,0.066667,-3.158e-16,0,0.66667
0.79182,0.4285,11.877,-0.10726,-11.941,185.97,3.3971,-1.1324,-1.955,4.5295,2.071e-11,-0.97751,0,0,0.066667,-6.3159e-16,0,0.66667
0.69576,0.66349,10.436,0.24523,37.827,381.02,-6.8249,2.275,-1.7801,-9.0998,-4.5328e-12,-0.89003,0,0,0.066667,2.5264e-15,0,0.66667
0.77785,0.79587,11.668,0.44381,52.417,211.38,-13.809,4.6029,-1.2988,-18.412,-1.6817e-11,-0.64942,0,0,0.066667,1.2632e-15,0,0.66667
0.40648,0.29458,6.0972,-0.30813,-77.016,1284.4,5.01,-1.67,-1.673,6.68,1.217e-11,-0.83651,0,0,0.066667,-6.3159e-16,0,0.66667
0.64777,0.74779,9.7166,0.37168,64.553,500.83,-9.6306,3.2102,-1.5035,-12.841,-4.1389e-12,-0.75177,0,0,0.066667,1.7369e-15,0,0.66667
0.17979,0.85284,2.6969,0.52925,153.49,2217.4,-3.8063,1.2688,-0.99768,-5.075,2.2968e-09,-0.49884,0,0,0.066667,-0,-0,0.66667
0.32182,0.45699,4.8273,-0.064517,-17.313,1616.2,0.83051,-0.27684,-1.9793,1.1074,1.7192e-11,-0.98966,0,0,0.066667,-3.8111e-16,0,0.66667
0.1726,0.44045,2.5891,-0.08932,-25.946,2248.6,0.61668,-0.20556,-1.9811,0.82224,7.6479e-11,-0.99057,0,0,0.066667,-0,-0,0.66667
0.40864,0.25108,6.1296,-0.37338,-93.147,1276.4,6.1032,-2.0344,-1.5079,8.1375,1.5423e-11,-0.75397,0,0,0.066667,-0,-0,0.66667
0.24142,0.51032,3.6213,0.015473,4.3625,1950.8,-0.14942,0.049808,-1.9929,-0.19923,-3.0423e-12,-0.99643,0,0,0.066667,-0,-0,0.66667
0.40692,0.045262,6.1038,-0.68211,-170.68,1283.8,11.103,-3.7009,-0.35434,14.803,-8.0407e-12,-0.17717,0,0,0.066667,6.3159e-16,0,0.66667
0.97522,0.49627,14.628,-0.0055942,-0.078868,3.2664,0.21822,-0.07274,-1.9947,0.29097,2.7825e-06,-0.99737,0,0,0.066667,2.2106e-15,0,0.66667
0.32032,0.7315,4.8048,0.34725,93.326,1622.6,-4.4492,1.4831,-1.5647,-5.9322,-7.2653e-13,-0.78233,0,0,0.066667,-0,-0,0.66667
0.98249,0.52178,14.737,0.032676,0.32124,1.7507,-1.2841,0.42805,-2.0003,-1.7122,2.7623e-08,-1.0002,0,0,0.066667,-0,-0,0.66667
0.63631,0.70967,9.5446,0.3145,55.998,531.22,-8.0048,2.6683,-1.6456,-10.673,2.2817e-12,-0.8228,0,0,0.066667,-0,-0,0.66667
0.37509,0.51326,5.6264,0.019893,5.1167,1404.5,-0.29847,0.099491,-2.0098,-0.39796,2.3887e-12,-1.0049,0,0,0.066667,1.2632e-15,0,0.66667
0.85748,0.30267,12.862,-0.29599,-23.361,90.585,10.152,-3.3841,-1.6926,13.536,-5.3705e-10,-0.84629,0,0,0.066667,1.2632e-15,0,0.66667
0.61959,0.36798,9.2938,-0.19803,-36.495,576.88,4.9079,-1.636,-1.8561,6.5438,2.5211e-12,-0.92807,0,0,0.066667,6.3159e-16,0,0.66667
0.25203,0.2038,3.7805,-0.4443,-124.65,1906.1,4.4791,-1.493,-1.3015,5.9721,2.9257e-11,-0.65074,0,0,0.066667,-0,-0,0.66667
0.79286,0.30441,11.893,-0.29338,-32.542,184.61,9.3045,-3.1015,-1.692,12.406,1.7351e-11,-0.846,0,0,0.066667,6.3159e-16,0,0.66667
0.43294,0.94668,6.4941,0.67002,163.25,1186.8,-11.603,3.8677,-0.40063,-15.471,-4.4578e-12,-0.20031,0,0,0.066667,-0,-0,0.66667
0.35751,0.30176,5.3627,-0.29737,-77.662,1473.6,4.2525,-1.4175,-1.6897,5.67,-3.2725e-12,-0.84485,0,0,0.066667,3.158e-16,0,0.66667
0.33028,0.38914,4.9542,-0.16629,-44.353,1582.1,2.1969,-0.73229,-1.9046,2.9291,2.1164e-11,-0.95232,0,0,0.066667,-0,-0,0.66667
0.69737,0.1887,10.461,-0.46695,-71.791,378,13.025,-4.3418,-1.2208,17.367,2.2347e-12,-0.6104,0,0,0.066667,-0,-0,0.66667
0.26865,0.31974,4.0298,-0.27039,-75.126,1835.8,2.9056,-0.96854,-1.7407,3.8742,2.7701e-11,-0.87037,0,0,0.066667,-0,-0,0.66667
0.80828,0.67173,12.124,0.2576,26.659,159.27,-8.3285,2.7762,-1.7613,-11.105,-1.9242e-11,-0.88063,0,0,0.066667,-1.2632e-15,0,0.66667
0.29529,0.40241,4.4293,-0.14639,-40.006,1724.8,1.7291,-0.57637,-1.9297,2.3055,1.0831e-11,-0.96487,0,0,0.066667,1.579e-16,0,0.66667
0.54412,0.35964,8.1618,-0.21055,-44.35,802.95,4.5825,-1.5275,-1.8434,6.11,8.296e-12,-0.92169,0,0,0.066667,1.2632e-15,0,0.66667
0.48792,0.019674,7.3188,-0.72049,-164.66,991.16,14.062,-4.6872,-0.15319,18.749,-8.5336e-12,-0.076596,0,0,0.066667,-0,-0,0.66667
0.85536,0.75373,12.83,0.38059,30.476,93.508,-13.022,4.3405,-1.4836,-17.362,-8.0241e-10,-0.74181,0,0,0.066667,2.5264e-15,0,0.66667
0.88839,0.49995,13.326,-7.2455e-05,-0.004539,56.345,0.0025747,-0.00085825,-2.0043,0.003433,-1.0298e-08,-1.0022,0,0,0.066667,-2.482e-15,0,0.66667
0.18438,0.37194,2.7658,-0.19209,-55.562,2197,1.4167,-0.47224,-1.8699,1.889,2.0822e-11,-0.93493,0,0,0.066667,-7.8949e-17,0,0.66667
0.58535,0.020792,8.7802,-0.71881,-141.72,677.6,16.83,-5.6101,-0.1565,22.44,7.8337e-12,-0.078249,0,0,0.066667,-0,-0,0.66667
0.89821,0.97006,13.473,0.70509,40.825,50.187,-25.332,8.4442,-0.22715,-33.777,2.1302e-06,-0.11357,0,0,0.066667,-2.5264e-15,0,0.66667
0.44612,0.35913,6.6918,-0.21131,-50.662,1137.6,3.7707,-1.2569,-1.8348,5.0276,5.2554e-12,-0.91738,0,0,0.066667,-6.3159e-16,0,0.66667
0.92187,0.49659,13.828,-0.0051189,-0.2276,28.415,0.18876,-0.06292,-2.0126,0.25168,-1.3581e-07,-1.0063,0,0,0.066667,-1.579e-15,0,0.66667
0.27899,0.61758,4.1849,0.17637,48.696,1792.5,-1.9683,0.65609,-1.8924,-2.6243,1.798e-11,-0.94622,0,0,0.066667,1.579e-16,0,0.66667
0.60883,0.34111,9.1325,-0.23833,-44.871,607.32,5.8041,-1.9347,-1.8084,7.7387,1.6209e-13,-0.9042,0,0,0.066667,3.158e-16,0,0.66667
0.68245,0.94513,10.237,0.6677,106.94,414.51,-18.227,6.0756,-0.41093,-24.303,1.1937e-12,-0.20547,0,0,0.066667,-0,-0,0.66667
0.22821,0.027929,3.4231,-0.70811,-201.32,2008.1,6.4638,-2.1546,-0.21239,8.6183,5.7429e-10,-0.10619,0,0,0.066667,3.158e-16,0,0.66667
0.013768,0.77805,0.20651,0.41707,124.93,2959,-0.22967,0.076553,-1.3865,-0.30624,-7.7411e-06,-0.69327,0,0,0.066667,2.4672e-17,0,0.66667
0.41672,0.85534,6.2509,0.53301,131.98,1246.5,-8.8847,2.9616,-0.98544,-11.846,-9.4511e-12,-0.49272,0,0,0.066667,6.3159e-16,0,0.66667
0.93848,0.86094,14.077,0.5414,19.218,19.822,-20.324,6.7746,-0.96515,-27.099,-2.4435e-06,-0.48257,0,0,0.066667,-1.2632e-15,0,0.66667
0.34303,0.36286,5.1454,-0.20571,-54.342,1531,2.8226,-0.94088,-1.858,3.7635,1.925e-11,-0.92901,0,0,0.066667,-3.158e-16,0,0.66667
0.77974,0.63537,11.696,0.20306,23.77,207.17,-6.3333,2.1111,-1.8589,-8.4444,-4.5888e-12,-0.92943,0,0,0.066667,-0,-0,0.66667
0.17474,0.41445,2.621,-0.12832,-37.249,2239.2,0.8969,-0.29897,-1.9425,1.1959,-1.132e-10,-0.97126,0,0,0.066667,-3.158e-16,0,0.66667
0.34195,0.60786,5.1293,0.16178,42.77,1535.2,-2.2129,0.73763,-1.9111,-2.9505,1.4234e-11,-0.95557,0,0,0.066667,-6.3159e-16,0,0.66667
0.1446,0.66219,2.169,0.24329,71.335,2372.1,-1.4072,0.46906,-1.7879,-1.8762,1.7997e-10,-0.89397,0,0,0.066667,-0,-0,0.66667
0.71677,0.78186,10.752,0.42279,61.505,333.78,-12.122,4.0406,-1.3695,-16.162,-6.1595e-12,-0.68477,0,0,0.066667,2.5264e-15,0,0.66667
0.69931,0.22224,10.49,-0.41665,-63.7,373.29,11.655,-3.8848,-1.3819,15.539,2.7232e-12,-0.69096,0,0,0.066667,-0,-0,0.66667
0.6885,0.74969,10.327,0.37453,58.934,398.58,-10.315,3.4382,-1.5101,-13.753,1.0685e-12,-0.75507,0,0,0.066667,1.1842e-16,0,0.66667
0.2534,0.1817,3.8009,-0.47745,-133.87,1900.4,4.8394,-1.6131,-1.1893,6.4525,3.2275e-11,-0.59467,0,0,0.066667,-0,-0,0.66667
0.69236,0.64782,10.385,0.22173,34.514,388.98,-6.1406,2.0469,-1.8215,-8.1874,6.1235e-12,-0.91075,0,0,0.066667,-6.3159e-16,0,0.66667
0.2273,0.64085,3.4095,0.21128,59.995,2011.3,-1.9209,0.6403,-1.8348,-2.5612,-3.6008e-12,-0.91739,0,0,0.066667,-5.8497e-16,0,0.66667
0.42465,0.073921,6.3697,-0.63912,-157.06,1217.3,10.856,-3.6187,-0.54872,14.475,1.1394e-11,-0.27436,0,0,0.066667,-0,-0,0.66667
0.37192,0.44403,5.5788,-0.083958,-21.655,1416.9,1.249,-0.41634,-1.9756,1.6654,-6.2296e-12,-0.98778,0,0,0.066667,-0,-0,0.66667
0.35531,0.85665,5.3296,0.53498,140.08,1482.8,-7.6033,2.5344,-0.97997,-10.138,7.0837e-12,-0.48998,0,0,0.066667,-0,-0,0.66667
0.057655,0.8131,0.86482,0.46965,140.26,2760.9,-1.0831,0.36104,-1.2133,-1.4441,1.273e-06,-0.60664,0,0,0.066667,-0,-0,0.66667
0.63165,0.2477,9.4747,-0.37845,-68.072,544.04,9.5618,-3.1873,-1.4857,12.749,6.5059e-12,-0.74287,0,0,0.066667,1.2632e-15,0,0.66667
0.70732,0.67901,10.61,0.26851,40.116,354.44,-7.5969,2.5323,-1.7413,-10.129,-4.9232e-12,-0.87063,0,0,0.066667,6.3159e-16,0,0.66667
0.61359,0.30847,9.2038,-0.2873,-53.596,593.91,7.0512,-2.3504,-1.7047,9.4017,7.613e-12,-0.85234,0,0,0.066667,-6.3159e-16,0,0.66667
0.64831,0.033284,9.7247,-0.70007,-121.7,500.92,18.155,-6.0516,-0.25203,24.206,2.5173e-11,-0.12602,0,0,0.066667,-2.5264e-15,0,0.66667
0.16994,0.43088,2.5491,-0.10368,-30.148,2260.3,0.70481,-0.23494,-1.966,0.93974,1.1868e-10,-0.98302,0,0,0.066667,-5.7273e-17,0,0.66667
0.14945,0.55898,2.2417,0.088468,25.897,2350.6,-0.52885,0.17628,-1.9668,-0.70513,6.0078e-10,-0.98342,0,0,0.066667,4.4245e-17,0,0.66667
0.51418,0.30033,7.7126,-0.2995,-65.95,900.75,6.1599,-2.0533,-1.6866,8.2132,-2.2249e-13,-0.84331,0,0,0.066667,6.3159e-16,0,0.66667
0.87533,0.54355,13.13,0.065318,4.5434,69.706,-2.287,0.76233,-1.995,-3.0493,1.9605e-09,-0.99751,0,0,0.066667,-0,-0,0.66667
0.18395,0.46484,2.7593,-0.052738,-15.255,2198.9,0.38805,-0.12935,-1.9899,0.5174,1.8989e-10,-0.99493,0,0,0.066667,-0,-0,0.66667
0.46284,0.77951,6.9426,0.41926,98.667,1077.9,-7.7621,2.5874,-1.3708,-10.349,6.851e-12,-0.68538,0,0,0.066667,-1.579e-16,0,0.66667
0.42893,0.70663,6.434,0.30994,75.726,1200.6,-5.3178,1.7726,-1.652,-7.0904,1.2799e-12,-0.82601,0,0,0.066667,-0,-0,0.66667
0.49729,0.85799,7.4593,0.53699,121.1,958.3,-10.681,3.5605,-0.97589,-14.242,3.1291e-12,-0.48794,0,0,0.066667,-0,-0,0.66667
0.16151,0.44092,2.4227,-0.088626,-25.843,2297.3,0.57256,-0.19085,-1.9684,0.76342,7.6115e-11,-0.9842,0,0,0.066667,-0,-0,0.66667
0.34244,0.70226,5.1366,0.30339,80.196,1533.4,-4.1557,1.3852,-1.6787,-5.541,1.3962e-11,-0.83937,0,0,0.066667,-6.3159e-16,0,0.66667
0.26188,0.69858,3.9282,0.29787,83.086,1864.3,-3.1202,1.0401,-1.683,-4.1603,1.8214e-11,-0.84148,0,0,0.066667,-0,-0,0.66667
0.84453,0.44797,12.668,-0.078039,-6.6689,106.47,2.6363,-0.87875,-1.9867,3.515,1.1169e-10,-0.99335,0,0,0.066667,2.5264e-15,0,0.66667
0.80033,0.99014,12.005,0.7352,79.268,174.59,-23.536,7.8454,-0.077386,-31.382,1.9662e-09,-0.038693,0,0,0.066667,-1.8948e-15,0,0.66667
0.42664,0.4639,6.3996,-0.054156,-13.258,1208.8,0.92421,-0.30807,-1.9865,1.2323,-5.9303e-12,-0.99325,0,0,0.066667,7.8949e-16,0,0.66667
0.60702,0.010805,9.1052,-0.73379,-139.01,614.46,17.817,-5.939,-0.087915,23.756,1.3431e-11,-0.043958,0,0,0.066667,-2.5264e-15,7.1436e-17,0.66667
0.14547,0.5616,2.182,0.092399,27.08,2368.2,-0.53763,0.17921,-1.9671,-0.71685,3.7045e-10,-0.98357,0,0,0.066667,1.9737e-17,0,0.66667
0.50961,0.58758,7.6442,0.13137,29.101,915.74,-2.6779,0.89263,-1.9336,-3.5705,-4.2388e-13,-0.96678,0,0,0.066667,-0,-0,0.66667
0.29695,0.43294,4.4542,-0.10059,-27.458,1718,1.1948,-0.39826,-1.9762,1.593,1.9124e-11,-0.98809,0,0,0.066667,-3.158e-16,0,0.66667
0.85965,0.31459,12.895,-0.27812,-21.636,87.919,9.5633,-3.1878,-1.7366,12.751,-1.2154e-09,-0.86832,0,0,0.066667,2.5264e-15,0,0.66667
0.6716,0.41055,10.074,-0.13418,-22.021,439.25,3.6045,-1.2015,-1.9472,4.806,3.0609e-12,-0.97362,0,0,0.066667,-0,-0,0.66667
0.63347,0.15335,9.5021,-0.51997,-93.236,539.61,13.176,-4.3919,-1.0333,17.567,2.1974e-12,-0.51664,0,0,0.066667,1.6086e-15,0,0.66667
0.12475,0.44549,1.8713,-0.081772,-24.103,2460.1,0.40805,-0.13602,-1.9871,0.54406,-3.4294e-10,-0.99356,0,0,0.066667,-0,-0,0.66667
0.47059,0.32321,7.0588,-0.26519,-61.803,1050.1,4.9918,-1.6639,-1.7542,6.6557,5.1941e-12,-0.87708,0,0,0.066667,-0,-0,0.66667
0.98657,0.73172,14.799,0.34759,2.6222,1.8873,-13.717,4.5723,-1.5733,-18.289,2.7023e-06,-0.78663,0,0,0.066667,-0,-0,0.66667
0.9483,0.38557,14.224,-0.17165,-5.092,13.106,6.5109,-2.1703,-1.8914,8.6812,-2.7888e-07,-0.94571,0,0,0.066667,2.5264e-15,0,0.66667
0.64509,0.87411,9.6763,0.56117,98.15,508.67,-14.48,4.8267,-0.87853,-19.307,1.2257e-13,-0.43926,0,0,0.066667,-1.8158e-15,0,0.66667
0.15172,0.86373,2.2759,0.54559,159.76,2340.8,-3.3112,1.1037,-0.93832,-4.4149,-1.3926e-08,-0.46916,0,0,0.066667,-0,-0,0.66667
0.63913,0.73845,9.5869,0.35768,63.31,523.75,-9.144,3.048,-1.5505,-12.192,4.6203e-12,-0.77527,0,0,0.066667,-0,-0,0.66667
0.56566,0.97989,8.4849,0.71983,146.82,737.2,-16.287,5.4291,-0.15762,-21.716,-6.2172e-13,-0.078811,0,0,0.066667,-0,-0,0.66667
0.46867,0.55926,7.03,0.088886,20.758,1056.7,-1.6663,0.55544,-1.9842,-2.2218,3.9746e-13,-0.99211,0,0,0.066667,-0,-0,0.66667
0.42804,0.5768,6.4206,0.1152,28.162,1203.7,-1.9723,0.65745,-1.947,-2.6298,6.3876e-12,-0.97349,0,0,0.066667,-6.3159e-16,0,0.66667
0.59927,0.50969,8.989,0.014532,2.7855,634.62,-0.34835,0.11612,-1.9944,-0.46446,-4.8917e-12,-0.9972,0,0,0.066667,-0,-0,0.66667
0.84997,0.52678,12.75,0.040168,3.3212,99.422,-1.3657,0.45522,-1.9892,-1.8209,6.5251e-10,-0.99461,0,0,0.066667,-0,-0,0.66667
0.75112,0.24786,11.267,-0.37821,-49.285,261.61,11.363,-3.7878,-1.4994,15.151,-2.888e-11,-0.74972,0,0,0.066667,1.4211e-15,0,0.66667
0.57936,0.55503,8.6904,0.082548,16.405,693.54,-1.913,0.63767,-1.9825,-2.5507,2.8231e-12,-0.99127,0,0,0.066667,6.3159e-16,0,0.66667
0.9247,0.55605,13.871,0.08407,3.6066,26.515,-3.1096,1.0365,-1.9762,-4.1461,1.1007e-07,-0.98812,0,0,0.066667,-0,-0,0.66667
0.06474,0.071573,0.9711,-0.64264,-191.88,2729.1,1.6642,-0.55473,-0.53456,2.2189,-3.2168e-06,-0.26728,0,0,0.066667,-0,-0,0.66667
0.99135,0.18605,14.87,-0.47093,-2.268,1.9855,18.674,-6.2247,-1.2064,24.899,-2.4293e-05,-0.60321,0,0,0.066667,3.158e-16,0,0.66667
0.052995,0.087282,0.79492,-0.61908,-185.09,2782,1.3123,-0.43744,-0.63207,1.7497,-8.5698e-06,-0.31603,0,0,0.066667,-3.9475e-17,0,0.66667
0.1995,0.6076,2.9924,0.1614,46.402,2131.2,-1.2879,0.42931,-1.906,-1.7172,1.109e-11,-0.95299,0,0,0.066667,-0,-0,0.66667
0.42275,0.48425,6.3413,-0.023632,-5.8088,1223.2,0.39962,-0.13321,-2.0058,0.53283,8.3011e-12,-1.0029,0,0,0.066667,-0,-0,0.66667
0.10751,0.1584,1.6126,-0.5124,-151.78,2537.2,2.2035,-0.73451,-1.0717,2.938,-1.3224e-07,-0.53583,0,0,0.066667,-0,-0,0.66667
0.62367,0.27271,9.3551,-0.34093,-62.339,565.84,8.5052,-2.8351,-1.593,11.34,4.5466e-12,-0.7965,0,0,0.066667,6.3159e-16,0,0.66667
0.047993,0.073561,0.71989,-0.63966,-191.35,2804.6,1.2279,-0.40931,-0.55208,1.6373,1.3982e-05,-0.27604,0,0,0.066667,7.8949e-17,0,0.66667
0.28462,0.58312,4.2694,0.12468,34.303,1769,-1.4195,0.47316,-1.9441,-1.8926,3.1869e-11,-0.97207,0,0,0.066667,-0,-0,0.66667
0.061037,0.52665,0.91555,0.039981,11.926,2745.6,-0.097612,0.032537,-2.0006,-0.13015,-1.3039e-07,-1.0003,0,0,0.066667,-0,-0,0.66667
0.70352,0.70154,10.553,0.30231,45.657,363.19,-8.5072,2.8357,-1.6849,-11.343,1.8536e-12,-0.84246,0,0,0.066667,-0,-0,0.66667
0.66846,0.56295,10.027,0.094426,15.616,447.06,-2.5248,0.84159,-1.969,-3.3664,-7.4052e-12,-0.98451,0,0,0.066667,2.5264e-15,0,0.66667
0.37858,0.6871,5.6787,0.28065,71.987,1391.2,-4.25,1.4167,-1.7203,-5.6666,-1.5445e-12,-0.86013,0,0,0.066667,7.6975e-16,0,0.66667
0.18819,0.02023,2.8229,-0.71965,-208.22,2181,5.4174,-1.8058,-0.16724,7.2232,-5.1419e-09,-0.083622,0,0,0.066667,-0,-0,0.66667
0.747,0.50918,11.205,0.013767,1.8175,269.12,-0.41137,0.13712,-1.9999,-0.5485,4.3564e-12,-0.99995,0,0,0.066667,-2.5264e-15,0,0.66667
0.34038,0.80899,5.1057,0.46348,122.77,1541.9,-6.3103,2.1034,-1.2365,-8.4138,-5.5591e-12,-0.61825,0,0,0.066667,-3.158e-16,0,0.66667
0.7953,0.52375,11.93,0.035631,3.9076,180.05,-1.1335,0.37783,-2.001,-1.5113,-1.7132e-11,-1.0005,0,0,0.066667,-0,-0,0.66667
0.4879,0.56509,7.3185,0.097637,22.262,989.57,-1.9055,0.63516,-1.9661,-2.5406,-2.8054e-12,-0.98307,0,0,0.066667,-0,-0,0.66667
0.52567,0.96997,7.885,0.70495,153,864.19,-14.823,4.9409,-0.22932,-19.764,-2.1254e-12,-0.11466,0,0,0.066667,-0,-0,0.66667
0.028491,0.57824,0.42736,0.11736,35.112,2892.5,-0.13375,0.044583,-1.952,-0.17833,1.497e-06,-0.97601,0,0,0.066667,-3.9475e-17,0,0.66667
0.64423,0.66446,9.6635,0.2467,43.164,509.84,-6.3572,2.1191,-1.7826,-8.4763,-3.8289e-12,-0.89131,0,0,0.066667,-0,-0,0.66667
0.35066,0.41714,5.2598,-0.12428,-32.63,1500.6,1.7432,-0.58108,-1.9388,2.3243,1.3037e-11,-0.9694,0,0,0.066667,-0,-0,0.66667
0.22921,0.98754,3.4381,0.73131,207.85,2003.8,-6.7048,2.2349,-0.093913,-8.9398,-3.0129e-10,-0.046956,0,0,0.066667,-3.158e-16,0,0.66667
0.43388,0.23147,6.5083,-0.40279,-97.922,1182.5,6.9906,-2.3302,-1.4218,9.3208,9.5519e-12,-0.7109,0,0,0.066667,-6.3159e-16,0,0.66667
0.38247,0.74851,5.737,0.37277,95.309,1376.3,-5.7029,1.901,-1.5007,-7.6039,-5.854e-12,-0.75034,0,0,0.066667,7.8949e-17,0,0.66667
0.46979,0.99139,7.0468,0.73708,172.31,1054.4,-13.851,4.617,-0.075752,-18.468,1.4673e-11,-0.037876,0,0,0.066667,-9.4739e-16,0,0.66667
0.97948,0.35597,14.692,-0.21605,-2.5167,2.6222,8.4648,-2.8216,-1.83,11.286,3.3007e-06,-0.915,0,0,0.066667,-0,-0,0.66667
0.36438,0.42522,5.4657,-0.11217,-29.12,1446.4,1.6349,-0.54497,-1.951,2.1799,-7.4979e-12,-0.97552,0,0,0.066667,-6.3159e-16,0,0.66667
0.77441,0.93138,11.616,0.64707,77.608,218.74,-20.044,6.6813,-0.50554,-26.725,-1.0762e-09,-0.25277,0,0,0.066667,-6.3159e-16,0,0.66667
0.55277,0.45897,8.2915,-0.061552,-12.788,775.41,1.3609,-0.45365,-1.9812,1.8146,4.6997e-12,-0.9906,0,0,0.066667,-0,-0,0.66667
0.88913,0.82647,13.337,0.48971,30.606,57.047,-17.417,5.8055,-1.1527,-23.222,-4.5685e-08,-0.57633,0,0,0.066667,-0,-0,0.66667
0.35495,0.74497,5.3243,0.36746,96.186,1483.8,-5.2173,1.7391,-1.5175,-6.9563,2.6074e-11,-0.75873,0,0,0.066667,-1.579e-16,0,0.66667
0.24552,0.12662,3.6828,-0.56008,-157.75,1933.9,5.5004,-1.8335,-0.88271,7.3338,-1.2279e-10,-0.44135,0,0,0.066667,-6.3159e-16,0,0.66667
0.91102,0.49408,13.665,-0.0088781,-0.44771,36.463,0.32352,-0.10784,-1.9965,0.43137,8.2757e-08,-0.99824,0,0,0.066667,1.8948e-15,0,0.66667
0.043534,0.66162,0.65301,0.24243,72.464,2824.6,-0.42215,0.14072,-1.7911,-0.56287,-1.2235e-06,-0.89555,0,0,0.066667,-0,-0,0.66667
0.95075,0.70915,14.261,0.31372,8.8906,12.405,-11.931,3.977,-1.6525,-15.908,8.441e-07,-0.82626,0,0,0.066667,1.2632e-15,0,0.66667
0.55641,0.5027,8.3461,0.0040521,0.83692,763.98,-0.090185,0.030062,-1.9953,-0.12025,-3.8424e-12,-0.99766,0,0,0.066667,-0,-0,0.66667
0.37636,0.60035,5.6454,0.15052,38.675,1399.6,-2.266,0.75533,-1.9258,-3.0213,2.1785e-11,-0.96291,0,0,0.066667,-0,-0,0.66667
0.99505,0.896,14.926,0.594,1.6297,2.5559,-23.642,7.8808,-0.74155,-31.523,1.6469e-05,-0.37077,0,0,0.066667,-0,6.9613e-17,0.66667
0.058363,0.50854,0.87544,0.012815,3.8238,2757.7,-0.029916,0.0099721,-1.9971,-0.039887,3.8785e-07,-0.99857,0,0,0.066667,-0,-0,0.66667
0.51671,0.80625,7.7506,0.45937,100.85,892.75,-9.4943,3.1648,-1.2572,-12.659,-1.3909e-12,-0.62862,0,0,0.066667,-9.4739e-16,0,0.66667
0.031097,0.74523,0.46646,0.36785,110.09,2880.7,-0.45756,0.15252,-1.5306,-0.61008,3.8749e-06,-0.76532,0,0,0.066667,-3.9475e-17,0,0.66667
0.57118,0.0011151,8.5676,-0.74833,-151.26,720.46,17.097,-5.699,-0.003935,22.796,-9.3667e-12,-0.0019675,0,0,0.066667,5.0527e-15,0,0.66667
0.18047,0.69963,2.707,0.29944,86.76,2214.2,-2.1616,0.72053,-1.6748,-2.8821,-1.8226e-10,-0.83739,0,0,0.066667,-0,-0,0.66667
0.63096,0.3873,9.4644,-0.16904,-30.43,545.43,4.2664,-1.4221,-1.8928,5.6885,7.5957e-12,-0.94642,0,0,0.066667,1.2632e-15,0,0.66667
0.98092,0.77526,14.714,0.41289,4.5128,3.1476,-16.2,5.4002,-1.3935,-21.601,-8.2396e-06,-0.69676,0,0,0.066667,-1.8948e-15,0,0.66667
0.8749,0.21868,13.124,-0.42198,-29.524,71.182,14.768,-4.9225,-1.3798,19.69,9.9283e-09,-0.68988,0,0,0.066667,4.4409e-17,0,0.66667
0.45184,0.39203,6.7775,-0.16195,-38.576,1116.8,2.927,-0.97566,-1.9129,3.9027,-4.1345e-12,-0.95643,0,0,0.066667,6.3159e-16,0,0.66667
0.70846,0.7781,10.627,0.41715,62.165,352.32,-11.821,3.9405,-1.3775,-15.762,1.3927e-12,-0.68877,0,0,0.066667,3.158e-16,0,0.66667
0.77747,0.31181,11.662,-0.28228,-33.355,211.45,8.7786,-2.9262,-1.7164,11.705,-1.1502e-12,-0.85822,0,0,0.066667,-1.579e-15,0,0.66667
0.49484,0.46284,7.4226,-0.055739,-12.595,965.71,1.1033,-0.36776,-1.9851,1.471,1.9538e-11,-0.99253,0,0,0.066667,9.4739e-16,0,0.66667
0.52853,0.82472,7.928,0.48708,105.14,853.92,-10.298,3.4325,-1.1576,-13.73,-1.1528e-11,-0.57882,0,0,0.066667,1.2632e-15,0,0.66667
0.15078,0.95618,2.2618,0.68427,200.55,2345.1,-4.1271,1.3757,-0.33025,-5.5028,4.6074e-08,-0.16512,0,0,0.066667,-0,-0,0.66667
0.3694,0.86627,5.541,0.5494,142.18,1427.5,-8.118,2.706,-0.92191,-10.824,1.4407e-11,-0.46095,0,0,0.066667,-3.158e-16,0,0.66667
0.14222,0.52989,2.1333,0.044832,13.151,2382.5,-0.25504,0.085014,-1.9992,-0.34005,9.5529e-10,-0.9996,0,0,0.066667,-2.7632e-16,0,0.66667
0.72689,0.79734,10.903,0.44601,62.936,311.85,-12.968,4.3227,-1.2861,-17.291,5.0528e-12,-0.64304,0,0,0.066667,1.2632e-15,0,0.66667
0.47701,0.11649,7.1552,-0.57526,-133.17,1028.4,10.976,-3.6587,-0.81713,14.635,-7.9492e-13,-0.40857,0,0,0.066667,3.158e-16,0,0.66667
0.44888,0.48481,6.7332,-0.02278,-5.4436,1127.4,0.40901,-0.13634,-1.9953,0.54535,2.1996e-11,-0.99765,0,0,0.066667,6.3159e-16,0,0.66667
0.886,0.36503,13.29,-0.20246,-12.95,58.926,7.1752,-2.3917,-1.8508,9.567,-2.5703e-09,-0.92542,0,0,0.066667,-0,-0,0.66667
0.52762,0.20483,7.9143,-0.44276,-95.683,856.76,9.3444,-3.1148,-1.3016,12.459,8.8729e-12,-0.65078,0,0,0.066667,-0,-0,0.66667
0.40909,0.21943,6.1364,-0.42085,-104.96,1274.8,6.8866,-2.2955,-1.3726,9.1822,8.7446e-12,-0.68628,0,0,0.066667,-0,-0,0.66667
0.26889,0.11081,4.0334,-0.58378,-162.34,1835.3,6.279,-2.093,-0.78779,8.372,1.8558e-11,-0.3939,0,0,0.066667,-0,-0,0.66667
0.072012,0.5675,1.0802,0.10124,30.158,2696.2,-0.29163,0.097211,-1.9585,-0.38884,-1.763e-07,-0.97927,0,0,0.066667,-0,-0,0.66667
0.41814,0.52188,6.272,0.032816,8.1044,1240.4,-0.54886,0.18295,-1.9947,-0.73181,-1.757e-11,-0.99737,0,0,0.066667,-0,-0,0.66667
0.025753,0.45813,0.3863,-0.062798,-18.791,2904.8,0.064691,-0.021564,-1.9811,0.086255,-3.3844e-07,-0.99054,0,0,0.066667,-3.9475e-17,0,0.66667
0.29115,0.94646,4.3673,0.66969,183.8,1742.8,-7.7993,2.5998,-0.40036,-10.399,2.5941e-11,-0.20018,0,0,0.066667,-0,-0,0.66667
0.50351,0.52561,7.5526,0.03842,8.5816,936.24,-0.7738,0.25793,-1.9943,-1.0317,-7.7588e-12,-0.99717,0,0,0.066667,-0,-0,0.66667
0.96593,0.65248,14.489,0.22872,4.4745,6.2242,-8.8373,2.9458,-1.8158,-11.783,-5.2638e-07,-0.9079,0,0,0.066667,2.8597e-16,0,0.66667
0.10938,0.024019,1.6407,-0.71397,-211.59,2529,3.1239,-1.0413,-0.19963,4.1651,1.1833e-06,-0.099815,0,0,0.066667,-0,-0,0.66667
0.67304,0.12264,10.096,-0.56604,-92.747,437.01,15.239,-5.0795,-0.86862,20.318,4.5208e-12,-0.43431,0,0,0.066667,1.4211e-15,0,0.66667
0.49993,0.27832,7.499,-0.33252,-74.668,948.72,6.6495,-2.2165,-1.6193,8.866,-4.4142e-13,-0.80966,0,0,0.066667,9.375e-16,0,0.66667
0.7771,0.67419,11.656,0.26129,30.916,212.06,-8.1218,2.7073,-1.7546,-10.829,6.4659e-12,-0.87732,0,0,0.066667,-1.2632e-15,0,0.66667
0.14361,0.50882,2.1541,0.013232,3.88,2376.4,-0.076009,0.025336,-2,-0.10134,-4.5322e-10,-1,0,0,0.066667,-6.3159e-16,0,0.66667
0.083203,0.96121,1.248,0.69181,206.05,2646.2,-2.3024,0.76747,-0.29434,-3.0699,1.917e-06,-0.14717,0,0,0.066667,4.9266e-17,0,0.66667
0.39922,0.32228,5.9883,-0.26658,-67.093,1311.9,4.257,-1.419,-1.7411,5.676,2.9088e-12,-0.87053,0,0,0.066667,1.2632e-15,0,0.66667
0.79696,0.33682,11.954,-0.24477,-26.664,177.59,7.8028,-2.6009,-1.7987,10.404,6.2077e-11,-0.89937,0,0,0.066667,-1.2632e-15,0,0.66667
0.19168,0.28407,2.8751,-0.32389,-93.445,2165.3,2.4833,-0.82777,-1.6254,3.3111,-3.4404e-11,-0.81272,0,0,0.066667,-0,-0,0.66667
0.76778,0.65575,11.517,0.23363,28.65,229.1,-7.1751,2.3917,-1.8105,-9.5668,8.7526e-12,-0.90523,0,0,0.066667,-1.6185e-15,0,0.66667
0.2903,0.98991,4.3545,0.73486,201.86,1746.5,-8.5331,2.8444,-0.073926,-11.378,3.5412e-12,-0.036963,0,0,0.066667,-6.3159e-16,0,0.66667
0.21689,0.72754,3.2534,0.34131,97.418,2056.1,-2.9611,0.98703,-1.5901,-3.9481,-1.0261e-10,-0.79505,0,0,0.066667,-0,-0,0.66667
0.016716,0.41989,0.25073,-0.12016,-35.971,2945.7,0.080345,-0.026782,-1.9556,0.10713,-9.1223e-07,-0.97778,0,0,0.066667,-0,-0,0.66667
0.39866,0.24323,5.9799,-0.38515,-97.017,1314.2,6.1418,-2.0473,-1.4664,8.1891,4.1358e-12,-0.73322,0,0,0.066667,3.158e-16,0,0.66667
0.38108,0.80404,5.7162,0.45606,116.78,1381.8,-6.9519,2.3173,-1.2551,-9.2691,-1.4624e-11,-0.62753,0,0,0.066667,3.158e-16,0,0.66667
0.65934,0.70888,9.8902,0.31331,52.981,470.58,-8.2633,2.7544,-1.6512,-11.018,1.8536e-12,-0.8256,0,0,0.066667,-6.3159e-16,0,0.66667
0.070918,0.10029,1.0638,-0.59956,-178.84,2701.3,1.7008,-0.56693,-0.71589,2.2677,2.6611e-06,-0.35795,0,0,0.066667,-0,-0,0.66667
0.1526,0.82149,2.2891,0.48223,141.14,2336.9,-2.9436,0.9812,-1.172,-3.9248,7.2341e-09,-0.58601,0,0,0.066667,-0,-0,0.66667
0.016576,0.39518,0.24864,-0.15723,-47.069,2946.3,0.10425,-0.034751,-1.9197,0.139,-1.3165e-06,-0.95985,0,0,0.066667,-0,-0,0.66667
0.1138,0.9323,1.7069,0.64844,191.92,2509.3,-2.9516,0.98387,-0.5025,-3.9355,-1.0363e-07,-0.25125,0,0,0.066667,2.3685e-16,0,0.66667
0.65179,0.87058,9.7768,0.55587,95.769,491.04,-14.492,4.8308,-0.89895,-19.323,-1.1817e-11,-0.44948,0,0,0.066667,1.579e-15,0,0.66667
0.40266,0.8907,6.0399,0.58605,147.18,1299.6,-9.439,3.1463,-0.77751,-12.585,1.886e-11,-0.38876,0,0,0.066667,-6.3159e-16,0,0.66667
0.32103,0.24001,4.8154,-0.38998,-104.77,1619.8,5.0077,-1.6692,-1.453,6.677,2.813e-11,-0.72648,0,0,0.066667,-0,-0,0.66667
0.55791,0.011784,8.3687,-0.73232,-151.29,761.27,16.343,-5.4476,-0.089711,21.791,-1.3657e-11,-0.044855,0,0,0.066667,2.5264e-15,0,0.66667
0.99346,0.25567,14.902,-0.36649,-1.2705,1.2207,14.564,-4.8546,-1.5169,19.418,-7.2044e-06,-0.75847,0,0,0.066667,-0,-0,0.66667
0.83449,0.64213,12.517,0.2132,19.306,120.24,-7.1164,2.3721,-1.8324,-9.4885,-2.6613e-10,-0.91618,0,0,0.066667,-0,-0,0.66667
0.69962,0.47152,10.494,-0.042723,-6.5185,371.76,1.1956,-0.39853,-1.9936,1.5941,3.6987e-12,-0.99678,0,0,0.066667,-0,-0,0.66667
0.91826,0.45531,13.774,-0.067028,-3.1142,31.013,2.462,-0.82066,-1.9827,3.2826,-3.4408e-08,-0.99133,0,0,0.066667,1.2632e-15,0,0.66667
0.039729,0.58536,0.59593,0.12804,38.279,2841.7,-0.20347,0.067824,-1.9355,-0.2713,-3.0553e-07,-0.96777,0,0,0.066667,3.9475e-17,0,0.66667
0.070333,0.43132,1.055,-0.10302,-30.693,2703.8,0.28982,-0.096608,-1.9562,0.38643,1.8629e-07,-0.97811,0,0,0.066667,8.112e-17,0,0.66667
0.47401,0.72245,7.1101,0.33368,77.455,1038.2,-6.3266,2.1089,-1.6004,-8.4355,9.3565e-12,-0.8002,0,0,0.066667,-0,-0,0.66667
0.34917,0.38147,5.2375,-0.1778,-46.738,1506.5,2.4832,-0.82775,-1.8832,3.311,1.9374e-11,-0.94162,0,0,0.066667,-0,-0,0.66667
0.93725,0.73267,14.059,0.34901,12.568,19.442,-13.084,4.3614,-1.5774,-17.446,4.2189e-07,-0.78871,0,0,0.066667,-0,-0,0.66667
0.48956,0.74759,7.3435,0.37139,84.549,984.26,-7.2727,2.4242,-1.5062,-9.6969,2.1796e-12,-0.7531,0,0,0.066667,-6.3159e-16,0,0.66667
0.53965,0.95875,8.0947,0.68813,146.26,818.8,-14.854,4.9513,-0.31002,-19.805,1.3229e-11,-0.15501,0,0,0.066667,-6.3159e-16,0,0.66667
0.89526,0.38722,13.429,-0.16917,-9.981,50.039,6.0582,-2.0194,-1.8947,8.0776,-2.7055e-08,-0.94734,0,0,0.066667,-0,-0,0.66667
0.44664,0.48058,6.6995,-0.029131,-6.9791,1135.5,0.52045,-0.17348,-1.9909,0.69393,1.5653e-11,-0.99547,0,0,0.066667,1.2632e-15,0,0.66667
0.87703,0.93144,13.156,0.64717,44.715,70.315,-22.703,7.5678,-0.51483,-30.271,1.9459e-07,-0.25742,0,0,0.066667,-0,-0,0.66667
0.25358,0.91663,3.8037,0.62495,175.32,1899.9,-6.339,2.113,-0.61023,-8.452,4.7616e-11,-0.30511,0,0,0.066667,-0,-0,0.66667
0.27381,0.97812,4.1071,0.71719,198.99,1815,-7.8549,2.6183,-0.16482,-10.473,7.9776e-12,-0.08241,0,0,0.066667,-0,-0,0.66667
0.32836,0.54779,4.9254,0.071681,19.144,1589.8,-0.94149,0.31383,-1.9923,-1.2553,1.0697e-11,-0.99614,0,0,0.066667,-0,-0,0.66667
0.54756,0.32738,8.2135,-0.25893,-54.255,792.08,5.6711,-1.8904,-1.7702,7.5615,8.9297e-12,-0.88509,0,0,0.066667,-0,-0,0.66667
0.22013,0.20872,3.3019,-0.43692,-124.55,2042.3,3.8471,-1.2824,-1.3272,5.1295,5.0457e-11,-0.66361,0,0,0.066667,-0,-0,0.66667
0.67143,0.24719,10.071,-0.37921,-62.313,440.23,10.185,-3.3949,-1.4995,13.58,6.8745e-12,-0.74973,0,0,0.066667,-1.579e-16,0,0.66667
0.14279,0.63638,2.1419,0.20457,60.008,2380,-1.1684,0.38947,-1.8542,-1.5579,1.5915e-10,-0.92711,0,0,0.066667,-3.158e-16,0,0.66667
0.0941,0.72147,1.4115,0.33221,98.624,2597.1,-1.2504,0.41681,-1.6188,-1.6672,-2.8183e-08,-0.8094,0,0,0.066667,-0,-0,0.66667
0.87019,0.14565,13.053,-0.53152,-38.556,76.942,18.501,-6.167,-0.99171,24.668,2.6821e-09,-0.49586,0,0,0.066667,1.2632e-15,0,0.66667
0.23687,0.47229,3.553,-0.04157,-11.747,1970.2,0.39387,-0.13129,-1.9967,0.52516,2.287e-11,-0.99835,0,0,0.066667,-0,-0,0.66667
0.386,0.6026,5.7901,0.15389,39.203,1362.4,-2.3762,0.79205,-1.9125,-3.1682,8.4681e-12,-0.95625,0,0,0.066667,-0,-0,0.66667
0.57154,0.018526,8.5731,-0.72221,-145.86,719.2,16.511,-5.5037,-0.1393,22.015,1.9648e-11,-0.069649,0,0,0.066667,-0,-0,0.66667
0.5258,0.25784,7.887,-0.36324,-78.682,862.48,7.6397,-2.5466,-1.5263,10.186,4.039e-12,-0.76315,0,0,0.066667,-0,-0,0.66667
0.076024,0.90391,1.1404,0.60587,180.59,2678.4,-1.8424,0.61414,-0.69917,-2.4566,-2.4465e-06,-0.34959,0,0,0.066667,-3.9475e-17,0,0.66667
0.87413,0.35793,13.112,-0.2131,-14.967,71.247,7.4512,-2.4837,-1.8463,9.9349,3.5869e-10,-0.92316,0,0,0.066667,-0,-0,0.66667
0.95114,0.77545,14.267,0.41317,11.65,12.691,-15.719,5.2398,-1.3972,-20.959,1.5871e-06,-0.6986,0,0,0.066667,-1.2632e-15,0,0.66667
0.81251,0.63958,12.188,0.20937,21.233,152.53,-6.8047,2.2682,-1.8557,-9.0729,2.693e-11,-0.92787,0,0,0.066667,1.2632e-15,0,0.66667
0.2838,0.19715,4.257,-0.45428,-125.14,1772.8,5.157,-1.719,-1.2681,6.876,1.9445e-11,-0.63407,0,0,0.066667,6.3159e-16,0,0.66667
0.52785,0.54238,7.9177,0.063566,13.72,855.34,-1.3421,0.44738,-1.9849,-1.7895,4.0268e-12,-0.99247,0,0,0.066667,-0,-0,0.66667
0.33942,0.6917,5.0913,0.28755,76.184,1545.5,-3.904,1.3013,-1.7039,-5.2053,2.2696e-11,-0.85194,0,0,0.066667,-0,-0,0.66667
0.55467,0.71557,8.32,0.32335,67.008,769.82,-7.1741,2.3914,-1.6227,-9.5655,-1.4255e-12,-0.81133,0,0,0.066667,-1.579e-16,0,0.66667
0.9744,0.85768,14.616,0.53653,7.9815,5.3368,-20.912,6.9706,-0.97123,-27.882,-4.0807e-05,-0.48561,0,0,0.066667,-0,-0,0.66667
0.3117,0.86391,4.6755,0.54586,147.7,1658,-6.8059,2.2686,-0.9488,-9.0745,-4.6718e-12,-0.4744,0,0,0.066667,3.158e-16,0,0.66667
0.6688,0.99836,10.032,0.74754,123.95,448.66,-19.998,6.666,-0.014535,-26.664,-5.9153e-13,-0.0072677,0,0,0.066667,2.0527e-15,1.5724e-17,0.66667
0.32597,0.8812,4.8895,0.5718,153.17,1600.1,-7.4556,2.4852,-0.84101,-9.9408,-1.1342e-11,-0.42051,0,0,0.066667,6.3159e-16,0,0.66667
0.77448,0.34938,11.617,-0.22594,-27.005,216.72,6.9993,-2.3331,-1.8128,9.3324,-8.3835e-12,-0.90642,0,0,0.066667,-0,-0,0.66667
0.32581,0.25011,4.8871,-0.37483,-100.35,1600.4,4.8849,-1.6283,-1.5045,6.5132,1.5694e-11,-0.75227,0,0,0.066667,1.2632e-15,0,0.66667
0.88983,0.0015812,13.347,-0.74763,-46.696,58.272,26.61,-8.8701,-0.022099,35.481,3.2104e-07,-0.01105,0,0,0.066667,-0,-0,0.66667
0.75171,0.21483,11.276,-0.42776,-55.646,260.65,12.862,-4.2873,-1.3549,17.149,-3.8831e-11,-0.67744,0,0,0.066667,-1.2632e-15,0,0.66667
0.76263,0.35341,11.439,-0.21989,-27.483,238.77,6.7078,-2.2359,-1.8286,8.9437,3.5141e-12,-0.91431,0,0,0.066667,-0,-0,0.66667
0.46948,0.0077026,7.0422,-0.73845,-172.69,1055.5,13.867,-4.6225,-0.069965,18.49,2.1494e-11,-0.034982,0,0,0.066667,-0,-0,0.66667
0.21076,0.13624,3.1615,-0.54563,-156.27,2082.8,4.6,-1.5333,-0.93493,6.1333,-5.7791e-10,-0.46746,0,0,0.066667,-0,-0,0.66667
0.041475,0.36969,0.62213,-0.19546,-58.431,2833.8,0.32427,-0.10809,-1.86,0.43236,7.9704e-07,-0.92999,0,0,0.066667,-3.9475e-17,0,0.66667
0.32183,0.35233,4.8274,-0.22151,-59.452,1616.3,2.8515,-0.9505,-1.8199,3.802,3.9015e-11,-0.90995,0,0,0.066667,-6.3159e-16,0,0.66667
0.037113,0.12597,0.55669,-0.56104,-167.94,2853.6,0.83287,-0.27761,-0.87682,1.1105,1.5004e-05,-0.43841,0,0,0.066667,-0,-0,0.66667
0.69386,0.87005,10.408,0.55508,86.207,386.65,-15.406,5.1353,-0.89924,-20.541,1.0494e-11,-0.44962,0,0,0.066667,-9.4739e-16,0,0.66667
0.67035,0.64044,10.055,0.21066,34.685,442.48,-5.6485,1.8828,-1.8474,-7.5314,6.799e-13,-0.9237,0,0,0.066667,-0,-0,0.66667
0.43047,0.45787,6.4571,-0.063189,-15.407,1194.6,1.088,-0.36268,-1.9795,1.4507,-6.1218e-12,-0.98974,0,0,0.066667,6.3159e-16,0,0.66667
0.76779,0.47758,11.517,-0.033629,-4.1218,228.81,1.0328,-0.34427,-1.9992,1.3771,4.0181e-12,-0.9996,0,0,0.066667,-0,-0,0.66667
0.53601,0.77891,8.0401,0.41837,89.283,829.44,-8.97,2.99,-1.375,-11.96,1.227e-11,-0.68751,0,0,0.066667,-1.579e-16,0,0.66667
0.03986,0.82285,0.5979,0.48428,144.89,2841.2,-0.77213,0.25737,-1.1599,-1.0295,-1.0253e-05,-0.57993,0,0,0.066667,-0,-0,0.66667
0.13479,0.60328,2.0219,0.15491,45.543,2415.5,-0.83525,0.27842,-1.9094,-1.1137,-4.0045e-10,-0.95472,0,0,0.066667,-0,-0,0.66667
0.19342,0.20712,2.9012,-0.43933,-126.7,2157.9,3.3989,-1.133,-1.3083,4.5319,6.2276e-11,-0.65413,0,0,0.066667,-0,-0,0.66667
0.33566,0.62815,5.035,0.19223,51.066,1560.4,-2.581,0.86032,-1.8631,-3.4413,1.3336e-11,-0.93153,0,0,0.066667,-1.2632e-15,0,0.66667
0.052313,0.9368,0.78469,0.6552,195.93,2785.1,-1.371,0.45701,-0.4702,-1.828,9.9086e-06,-0.2351,0,0,0.066667,8.8818e-17,0,0.66667
0.60512,0.9105,9.0768,0.61575,116.97,619.25,-14.904,4.968,-0.64995,-19.872,1.1857e-11,-0.32498,0,0,0.066667,-1.2632e-15,0,0.66667
0.51206,0.50377,7.6809,0.0056572,1.2489,907.49,-0.11587,0.038624,-1.9996,-0.1545,-1.1964e-11,-0.99981,0,0,0.066667,-0,-0,0.66667
0.61746,0.51516,9.2619,0.022739,4.2076,582.67,-0.56161,0.1872,-1.9915,-0.74882,7.6186e-12,-0.99576,0,0,0.066667,-0,-0,0.66667
0.43236,0.26311,6.4853,-0.35534,-86.514,1188.1,6.1454,-2.0485,-1.5466,8.1938,7.6787e-12,-0.77328,0,0,0.066667,-0,-0,0.66667
0.8477,0.69687,12.716,0.29531,24.784,102.81,-10.013,3.3377,-1.688,-13.351,-1.0895e-09,-0.84401,0,0,0.066667,-0,-0,0.66667
0.45406,0.85927,6.8109,0.53891,128.19,1109.6,-9.7879,3.2626,-0.9749,-13.051,4.3059e-12,-0.48745,0,0,0.066667,-0,-0,0.66667
0.015404,0.99473,0.23105,0.7421,222.57,2951.7,-0.45683,0.15236,-0.053877,-0.60907,0.00012125,-0.026939,0,0,0.066667,-9.8686e-18,0,0.66667
0.87307,0.17672,13.096,-0.48492,-34.423,73.501,16.935,-5.6449,-1.1678,22.58,-1.1184e-08,-0.58389,0,0,0.066667,-1.2632e-15,0,0.66667
0.6562,0.87387,9.843,0.56081,95.653,479.61,-14.72,4.9067,-0.89463,-19.627,3.3298e-12,-0.44732,0,0,0.066667,-1.4211e-15,1.1078e-17,0.66667
0.823,0.49634,12.345,-0.0054941,-0.52862,136.42,0.18087,-0.060289,-1.9964,0.24116,1.4085e-10,-0.9982,0,0,0.066667,1.579e-15,0,0.66667
0.95178,0.1885,14.277,-0.46724,-13.027,12.707,17.788,-5.9295,-1.2311,23.718,-2.7045e-06,-0.61556,0,0,0.066667,-2.5264e-15,0,0.66667
0.050912,0.22251,0.76369,-0.41624,-124.38,2791.3,0.84766,-0.28255,-1.3826,1.1302,7.4456e-07,-0.69128,0,0,0.066667,-1.579e-16,0,0.66667
0.23507,0.51309,3.5261,0.019633,5.553,1977.9,-0.18461,0.061535,-2.0072,-0.24614,-2.3573e-11,-1.0036,0,0,0.066667,-0,-0,0.66667
0.063343,0.78115,0.95015,0.42172,125.84,2735.3,-1.0685,0.35618,-1.3772,-1.4247,-3.5486e-07,-0.68861,0,0,0.066667,-2.7756e-17,0,0.66667
0.42166,0.10358,6.3249,-0.59463,-146.54,1228.3,10.029,-3.3431,-0.75367,13.372,1.6985e-11,-0.37683,0,0,0.066667,-0,-0,0.66667
0.86383,0.76362,12.957,0.39542,29.941,83.447,-13.663,4.5544,-1.4408,-18.218,1.2811e-08,-0.72039,0,0,0.066667,-0,-0,0.66667
0.081624,0.43592,1.2244,-0.096121,-28.589,2653,0.31383,-0.10461,-1.9674,0.41844,4.7243e-08,-0.98372,0,0,0.066667,-1.9737e-17,0,0.66667
0.47311,0.50473,7.0967,0.0070975,1.6485,1041,-0.13432,0.044772,-1.9976,-0.17909,9.0401e-12,-0.99878,0,0,0.066667,-0,-0,0.66667
0.12554,0.2188,1.8831,-0.4218,-124.38,2456.8,2.1181,-0.70605,-1.3783,2.8242,-7.7604e-09,-0.68915,0,0,0.066667,-0,-0,0.66667
0.77289,0.97313,11.593,0.7097,85.684,221.96,-21.941,7.3136,-0.20346,-29.254,5.1282e-10,-0.10173,0,0,0.066667,-0,-0,0.66667
0.84142,0.33555,12.621,-0.24667,-21.48,110.89,8.3021,-2.7674,-1.7864,11.069,7.6922e-11,-0.8932,0,0,0.066667,-0,-0,0.66667
0.043291,0.60541,0.64936,0.15811,47.257,2825.6,-0.27379,0.091264,-1.9099,-0.36506,-5.5566e-07,-0.95496,0,0,0.066667,-0,-0,0.66667
0.48644,0.0021087,7.2966,-0.74684,-171.03,996.39,14.532,-4.8439,-0.021347,19.376,8.1357e-12,-0.010674,0,0,0.066667,-2.5264e-15,0,0.66667
0.23941,0.54655,3.5912,0.069826,19.707,1959.4,-0.66868,0.22289,-1.9783,-0.89157,2.2477e-11,-0.98915,0,0,0.066667,-0,-0,0.66667
0.95247,0.93191,14.287,0.64786,17.939,13.678,-24.683,8.2276,-0.51702,-32.91,1.8488e-05,-0.25851,0,0,0.066667,-0,-4.6397e-17,0.66667
0.94389,0.47782,14.158,-0.033265,-1.0691,15.1,1.2559,-0.41865,-1.9903,1.6746,-2.478e-09,-0.99515,0,0,0.066667,2.5264e-15,0,0.66667
0.61393,0.085434,9.209,-0.62185,-116.13,594.18,15.271,-5.0903,-0.62196,20.361,4.5555e-12,-0.31098,0,0,0.066667,-6.3159e-16,0,0.66667
0.97349,0.61607,14.602,0.1741,2.6367,3.895,-6.7795,2.2598,-1.8887,-9.0393,-2.5674e-06,-0.94435,0,0,0.066667,-1.2632e-15,0,0.66667
0.34486,0.62972,5.1729,0.19458,51.325,1523.7,-2.6841,0.8947,-1.873,-3.5788,-8.9218e-13,-0.93651,0,0,0.066667,-0,-0,0.66667
0.89785,0.7549,13.468,0.38236,22.072,48.402,-13.732,4.5773,-1.4744,-18.309,6.5224e-08,-0.73721,0,0,0.066667,2.5264e-15,0,0.66667
0.43459,0.35308,6.5189,-0.22038,-53.509,1179.6,3.831,-1.277,-1.8281,5.108,7.0963e-12,-0.91407,0,0,0.066667,-0,-0,0.66667
0.23581,0.77529,3.5372,0.41293,116.82,1975,-3.895,1.2983,-1.3999,-5.1934,4.0571e-11,-0.69995,0,0,0.066667,4.737e-16,0,0.66667
0.94083,0.010293,14.112,-0.73456,-25.29,20.086,27.644,-9.2146,-0.081028,36.858,-1.8922e-06,-0.040514,0,0,0.066667,-5.0527e-15,0,0.66667
0.68422,0.89072,10.263,0.58607,93.377,409.77,-16.04,5.3467,-0.77822,-21.387,-3.709e-12,-0.38911,0,0,0.066667,1.2632e-15,0,0.66667
0.064912,0.063489,0.97367,-0.65477,-195.51,2728.4,1.7001,-0.5667,-0.47925,2.2668,-3.4124e-06,-0.23963,0,0,0.066667,-1.579e-16,0,0.66667
0.87042,0.46582,13.056,-0.051275,-3.6983,75.059,1.7852,-0.59508,-1.9883,2.3803,3.206e-10,-0.99413,0,0,0.066667,1.579e-15,0,0.66667
0.70138,0.054154,10.521,-0.66877,-101.85,369.77,18.762,-6.2542,-0.41451,25.017,8.896e-12,-0.20726,0,0,0.066667,-0,-0,0.66667
0.60493,0.14859,9.0739,-0.52712,-100.11,619.39,12.755,-4.2516,-1.0092,17.006,3.3751e-12,-0.50461,0,0,0.066667,6.3159e-16,0,0.66667
0.73237,0.14282,10.986,-0.53576,-74.365,300.64,15.695,-5.2317,-0.9829,20.927,-7.649e-12,-0.49145,0,0,0.066667,1.2632e-15,-1.4573e-17,0.66667
0.25344,0.051839,3.8016,-0.67224,-188.64,1900.6,6.8149,-2.2716,-0.39245,9.0865,4.6706e-11,-0.19623,0,0,0.066667,-3.158e-16,0,0.66667
0.60049,0.24438,9.0073,-0.38344,-73.387,631.67,9.21,-3.07,-1.4716,12.28,1.3777e-11,-0.73581,0,0,0.066667,6.3159e-16,0,0.66667
0.81462,0.36459,12.219,-0.20311,-20.388,149.25,6.6183,-2.2061,-1.8566,8.8244,-2.4379e-11,-0.92828,0,0,0.066667,1.2632e-15,0,0.66667
0.054114,0.45881,0.8117,-0.061791,-18.447,2776.8,0.13375,-0.044583,-1.9801,0.17833,1.7701e-07,-0.99004,0,0,0.066667,-0,-0,0.66667
0.13051,0.63453,1.9577,0.2018,59.398,2434.5,-1.0535,0.35115,-1.8504,-1.4046,-1.4733e-09,-0.92519,0,0,0.066667,-0,-0,0.66667
0.84245,4.7129e-05,12.637,-0.74993,-65.308,112.34,25.271,-8.4237,-0.00811,33.695,-7.7258e-09,-0.004055,0,0,0.066667,-0,-0,0.66667
0.61835,0.66994,9.2752,0.25492,47.103,580.46,-6.3051,2.1017,-1.7627,-8.4068,1.0789e-11,-0.88135,0,0,0.066667,-1.2632e-15,0,0.66667
0.53129,0.086083,7.9693,-0.62087,-133.57,845.48,13.195,-4.3982,-0.64129,17.593,1.0928e-11,-0.32064,0,0,0.066667,3.158e-16,0,0.66667
0.24829,0.026404,3.7244,-0.71039,-199.94,1922.5,7.0554,-2.3518,-0.21097,9.4072,-1.5327e-10,-0.10548,0,0,0.066667,3.158e-16,0,0.66667
0.29508,0.72698,4.4262,0.34047,93.089,1725.9,-4.0186,1.3395,-1.5924,-5.3581,1.2743e-11,-0.79621,0,0,0.066667,-0,-0,0.66667
0.87269,0.29859,13.09,-0.30212,-21.462,73.081,10.546,-3.5154,-1.6779,14.062,7.4584e-10,-0.83894,0,0,0.066667,-0,-0,0.66667
0.42167,0.72729,6.325,0.34093,83.936,1227.6,-5.7504,1.9168,-1.5977,-7.6672,5.2207e-12,-0.79887,0,0,0.066667,-0,-0,0.66667
0.06443,0.31593,0.96645,-0.2761,-82.348,2730.4,0.71157,-0.23719,-1.7337,0.94876,4.3461e-07,-0.86685,0,0,0.066667,-0,-0,0.66667
0.89699,0.62131,13.455,0.18196,10.568,48.501,-6.5286,2.1762,-1.8772,-8.7048,3.3379e-08,-0.93862,0,0,0.066667,1.8948e-15,0,0.66667
0.20338,0.3474,3.0507,-0.2289,-65.707,2114.4,1.8621,-0.62071,-1.8252,2.4828,-4.0525e-11,-0.91259,0,0,0.066667,-0,-0,0.66667
0.82623,0.25483,12.393,-0.36776,-34.849,132.45,12.154,-4.0514,-1.5238,16.205,-1.5363e-11,-0.76188,0,0,0.066667,-2.5264e-15,0,0.66667
0.88177,0.8011,13.227,0.45164,29.977,64.134,-15.93,5.31,-1.2685,-21.24,-9.0366e-09,-0.63425,0,0,0.066667,-0,-0,0.66667
0.48675,0.55523,7.3013,0.082852,18.919,993.53,-1.6131,0.53771,-1.9783,-2.1508,-2.1976e-12,-0.98914,0,0,0.066667,-6.3159e-16,0,0.66667
0.59846,0.63226,8.977,0.19839,38.093,637.12,-4.7492,1.5831,-1.8568,-6.3322,-3.2099e-12,-0.92838,0,0,0.066667,1.2632e-15,0,0.66667
0.52727,0.58199,7.909,0.12298,26.568,857.27,-2.5938,0.8646,-1.9441,-3.4584,1.1795e-12,-0.97203,0,0,0.066667,-0,-0,0.66667
0.62482,0.66038,9.3723,0.24058,43.871,562.41,-6.0127,2.0042,-1.8059,-8.0169,7.5882e-12,-0.90297,0,0,0.066667,-0,-0,0.66667
0.85504,0.62513,12.826,0.18769,15.038,93.27,-6.4192,2.1397,-1.8734,-8.559,-2.8662e-10,-0.93669,0,0,0.066667,-2.5264e-15,0,0.66667
0.28214,0.20789,4.2321,-0.43816,-120.82,1779.7,4.9449,-1.6483,-1.3252,6.5932,1.7998e-11,-0.66262,0,0,0.066667,-3.158e-16,0,0.66667
0.88376,0.97,13.256,0.705,46.265,63.85,-24.922,8.3073,-0.22786,-33.229,-6.6382e-07,-0.11393,0,0,0.066667,-0,-0,0.66667
0.56769,0.21751,8.5154,-0.42374,-85.986,729.68,9.6221,-3.2074,-1.3584,12.829,3.8849e-12,-0.67921,0,0,0.066667,-7.8949e-17,0,0.66667
0.1151,0.30608,1.7265,-0.29087,-85.962,2503.2,1.3392,-0.44641,-1.6944,1.7856,-5.2048e-09,-0.8472,0,0,0.066667,2.3685e-16,0,0.66667
0.227,0.74964,3.405,0.37446,106.39,2012.7,-3.4001,1.1334,-1.4964,-4.5335,4.8472e-11,-0.74822,0,0,0.066667,-3.8488e-16,0,0.66667
0.59598,0.053452,8.9397,-0.66982,-129.49,645.98,15.968,-5.3227,-0.40773,21.291,-4.4142e-13,-0.20386,0,0,0.066667,6.3159e-16,0,0.66667
0.23945,0.71111,3.5917,0.31667,89.403,1959.4,-3.033,1.011,-1.6395,-4.044,1.722e-11,-0.81974,0,0,0.066667,-1.579e-16,0,0.66667
0.13142,0.67167,1.9712,0.25751,75.785,2430.5,-1.3536,0.4512,-1.7581,-1.8048,-2.603e-09,-0.87907,0,0,0.066667,-0,-0,0.66667
0.16185,0.013474,2.4277,-0.72979,-213.18,2296.4,4.7246,-1.5749,-0.10117,6.2994,6.5953e-09,-0.050585,0,0,0.066667,-0,-0,0.66667
0.84487,0.75115,12.673,0.37672,32.18,106.79,-12.731,4.2438,-1.5036,-16.975,-2.9337e-09,-0.75181,0,0,0.066667,-0,-0,0.66667
0.60218,0.8277,9.0328,0.49155,93.826,627.15,-11.84,3.9467,-1.1344,-15.787,4.4977e-12,-0.56718,0,0,0.066667,-0,-0,0.66667
0.96357,0.47857,14.454,-0.032143,-0.67113,6.6815,1.2389,-0.41296,-1.992,1.6519,-4.7077e-08,-0.99598,0,0,0.066667,-0,-0,0.66667
0.34568,0.0014392,5.1852,-0.74784,-197.54,1521.6,10.341,-3.4468,-0.016617,13.787,-1.1191e-13,-0.0083084,0,0,0.066667,-0,-0,0.66667
0.59563,0.10487,8.9344,-0.59269,-114.6,646.64,14.121,-4.7069,-0.75504,18.828,6.1569e-12,-0.37752,0,0,0.066667,-0,-0,0.66667
0.59899,0.77424,8.9848,0.41136,78.964,636.12,-9.856,3.2853,-1.3942,-13.141,-1.8545e-12,-0.69709,0,0,0.066667,-0,-0,0.66667
0.6157,0.73944,9.2356,0.35916,66.741,588.14,-8.8455,2.9485,-1.5355,-11.794,2.724e-12,-0.76775,0,0,0.066667,6.3159e-16,0,0.66667
0.059177,0.51101,0.88766,0.016521,4.9293,2754,-0.039107,0.013036,-1.9986,-0.052143,3.04e-07,-0.99928,0,0,0.066667,-0,-0,0.66667
0.75032,0.86068,11.255,0.54102,70.781,263.96,-16.238,5.4125,-0.96945,-21.65,-6.3174e-11,-0.48473,0,0,0.066667,-1.2632e-15,0,0.66667
0.94821,0.24959,14.223,-0.37562,-11.206,13.854,14.247,-4.7488,-1.4958,18.995,-5.0186e-07,-0.74791,0,0,0.066667,-1.8158e-15,0,0.66667
0.53468,0.14703,8.0202,-0.52945,-113.27,834.11,11.323,-3.7745,-1.0027,15.098,3.6371e-12,-0.50135,0,0,0.066667,-6.3159e-16,0,0.66667
0.19256,0.040148,2.8883,-0.68978,-199.2,2162,5.3128,-1.7709,-0.30422,7.0838,8.131e-10,-0.15211,0,0,0.066667,-0,-0,0.66667
0.75293,0.76307,11.294,0.39461,51.106,258.11,-11.885,3.9615,-1.4469,-15.846,3.6877e-11,-0.72344,0,0,0.066667,-1.2632e-15,0,0.66667
0.007319,0.80168,0.10978,0.45253,135.58,2988.2,-0.13247,0.044145,-1.2655,-0.17663,-1.7546e-05,-0.63273,0,0,0.066667,-0,-0,0.66667
0.32826,0.30168,4.9238,-0.29748,-79.482,1590.4,3.906,-1.302,-1.6965,5.208,3.2666e-11,-0.84827,0,0,0.066667,-3.158e-16,0,0.66667
0.91761,0.15324,13.764,-0.52014,-24.497,33.116,19.091,-6.3638,-1.0363,25.455,-6.5153e-08,-0.51813,0,0,0.066667,-0,-0,0.66667
0.58837,0.44391,8.8255,-0.084142,-16.456,666.64,1.9803,-0.66009,-1.9705,2.6404,-1.3145e-13,-0.98526,0,0,0.066667,-0,-0,0.66667
0.85519,0.79561,12.828,0.44341,35.568,94.007,-15.168,5.056,-1.2982,-20.224,-2.4907e-09,-0.64911,0,0,0.066667,-0,-0,0.66667
0.60467,0.0044579,9.0701,-0.74331,-141.45,621.23,17.978,-5.9928,-0.032605,23.971,9.2317e-12,-0.016302,0,0,0.066667,-0,-0,0.66667
0.82258,0.77852,12.339,0.41779,40.361,138,-13.746,4.5822,-1.3754,-18.329,-2.7931e-10,-0.68771,0,0,0.066667,-0,-0,0.66667
0.87948,0.58716,13.192,0.13073,8.8098,65.394,-4.5992,1.5331,-1.9365,-6.1322,-6.4822e-10,-0.96823,0,0,0.066667,-6.3159e-16,0,0.66667
0.32099,0.4595,4.8148,-0.060748,-16.311,1619.6,0.77997,-0.25999,-1.9806,1.04,1.5613e-11,-0.99031,0,0,0.066667,3.158e-16,0,0.66667
0.12295,0.54798,1.8443,0.071976,21.225,2468.1,-0.35399,0.118,-1.9849,-0.47199,-1.0586e-09,-0.99245,0,0,0.066667,-1.579e-16,0,0.66667
0.7213,0.26492,10.82,-0.35262,-50.588,323.57,10.174,-3.3913,-1.5595,13.565,2.1823e-12,-0.77976,0,0,0.066667,-1.2632e-15,0,0.66667
0.44035,0.10761,6.6052,-0.58859,-142.21,1159.4,10.367,-3.4558,-0.76897,13.823,2.121e-12,-0.38448,0,0,0.066667,-6.3159e-16,0,0.66667
0.12674,0.14001,1.901,-0.53999,-159.24,2451.5,2.7374,-0.91247,-0.96766,3.6499,4.0895e-08,-0.48383,0,0,0.066667,1.579e-16,0,0.66667
0.58982,0.35391,8.8474,-0.21914,-42.753,662.49,5.17,-1.7233,-1.8273,6.8934,7.4731e-12,-0.91366,0,0,0.066667,-0,-0,0.66667
0.036068,0.35701,0.54102,-0.21448,-64.146,2858.3,0.30944,-0.10315,-1.8325,0.41259,9.8279e-08,-0.91625,0,0,0.066667,-0,-0,0.66667
0.20018,0.077774,3.0027,-0.63334,-182.28,2128.7,5.0713,-1.6904,-0.57424,6.7618,-5.5774e-09,-0.28712,0,0,0.066667,3.158e-16,0,0.66667
0.7883,0.20315,11.825,-0.44528,-50.404,192.98,14.041,-4.6802,-1.2885,18.721,-1.4929e-11,-0.64426,0,0,0.066667,1.2632e-15,0,0.66667
0.012097,0.52124,0.18145,0.031855,9.5365,2966.6,-0.015414,0.0051371,-1.9954,-0.020552,-1.1292e-06,-0.99772,0,0,0.066667,1.9737e-17,0,0.66667
0.30335,0.88383,4.5502,0.57574,156.69,1692.3,-6.9859,2.3286,-0.81561,-9.3146,1.6397e-11,-0.4078,0,0,0.066667,-0,-0,0.66667
0.021376,0.11118,0.32064,-0.58323,-174.75,2924.7,0.49868,-0.16626,-0.78513,0.66489,-4.6988e-05,-0.39256,0,0,0.066667,-3.9475e-17,0,0.66667
0.99748,0.9641,14.962,0.69615,0.99282,3.3048,-27.776,9.2585,-0.27941,-37.034,-0.0001211,-0.13971,0,0,0.066667,-1.2632e-15,-1.2002e-16,0.66667
0.58203,0.92291,8.7304,0.63436,125.73,687.06,-14.769,4.9229,-0.56711,-19.692,-9.9112e-12,-0.28355,0,0,0.066667,1.2632e-15,0,0.66667
0.29338,0.39278,4.4006,-0.16083,-44.006,1732.7,1.8873,-0.6291,-1.907,2.5164,1.0211e-11,-0.95349,0,0,0.066667,-0,-0,0.66667
0.92895,0.99435,13.934,0.74152,30.478,27.094,-27.553,9.1845,-0.039155,-36.738,-3.106e-06,-0.019577,0,0,0.066667,2.5264e-15,0,0.66667
0.50712,0.12298,7.6068,-0.56553,-125.88,925.14,11.472,-3.8239,-0.85763,15.295,9.6358e-12,-0.42881,0,0,0.066667,-7.1054e-16,0,0.66667
0.45469,0.27625,6.8204,-0.33562,-79.713,1106.8,6.1041,-2.0347,-1.6053,8.1389,7.6765e-12,-0.80266,0,0,0.066667,-9.4739e-16,0,0.66667
0.58787,0.89535,8.8181,0.59303,116.3,669.46,-13.945,4.6483,-0.74417,-18.593,-7.5273e-12,-0.37208,0,0,0.066667,-0,-0,0.66667
0.26414,0.19676,3.9621,-0.45486,-126.77,1855,4.8058,-1.6019,-1.27,6.4078,-1.1551e-11,-0.63499,0,0,0.066667,-0,-0,0.66667
0.30529,0.47737,4.5793,-0.033952,-9.2166,1683.6,0.41461,-0.1382,-1.9897,0.55282,2.3096e-11,-0.99484,0,0,0.066667,-0,-0,0.66667
0.37165,0.14856,5.5748,-0.52715,-136.15,1418.6,7.8368,-2.6123,-1.0117,10.449,2.486e-11,-0.50585,0,0,0.066667,-9.5733e-17,0,0.66667
0.24445,0.53233,3.6667,0.04849,13.65,1938,-0.47413,0.15804,-1.988,-0.63218,2.6755e-11,-0.99399,0,0,0.066667,-0,-0,0.66667
0.58455,0.081756,8.7682,-0.62737,-123.79,679.5,14.669,-4.8897,-0.59458,19.559,1.4646e-12,-0.29729,0,0,0.066667,6.3159e-16,0,0.66667
0.69585,0.40395,10.438,-0.14408,-22.214,380.65,4.0103,-1.3368,-1.9208,5.347,1.8145e-12,-0.96042,0,0,0.066667,-4.737e-16,0,0.66667
0.071947,0.83129,1.0792,0.49693,148.14,2696.6,-1.4301,0.4767,-1.1162,-1.9068,-4.64e-07,-0.5581,0,0,0.066667,-7.8949e-17,0,0.66667
0.97108,0.77531,14.566,0.41296,6.8934,5.4447,-16.041,5.347,-1.3966,-21.388,-1.0029e-05,-0.69832,0,0,0.066667,-0,-0,0.66667
0.75307,0.23297,11.296,-0.40054,-51.85,257.85,12.065,-4.0218,-1.4297,16.087,-3.5053e-11,-0.71483,0,0,0.066667,-1.2632e-15,0,0.66667
0.80616,0.609,12.092,0.1635,17.081,162.41,-5.2722,1.7574,-1.8989,-7.0296,-1.3092e-11,-0.94947,0,0,0.066667,-0,-0,0.66667
0.75164,0.13543,11.275,-0.54686,-71.221,261.37,16.442,-5.4805,-0.94165,21.922,9.295e-11,-0.47083,0,0,0.066667,-0,-0,0.66667
0.080061,0.91817,1.2009,0.62725,186.86,2660.3,-2.0087,0.66958,-0.60486,-2.6783,-9.833e-07,-0.30243,0,0,0.066667,-1.579e-16,0,0.66667
0.4817,0.97358,7.2254,0.71038,163.62,1012.7,-13.687,4.5625,-0.20779,-18.25,3.4612e-12,-0.10389,0,0,0.066667,-0,-0,0.66667
0.44567,0.80946,6.6851,0.46419,111.43,1139.7,-8.275,2.7583,-1.2284,-11.033,-2.2364e-12,-0.61418,0,0,0.066667,1.579e-16,0,0.66667
0.67247,0.38704,10.087,-0.16944,-27.75,437.12,4.5577,-1.5192,-1.907,6.0769,1.0369e-11,-0.95348,0,0,0.066667,-1.2632e-15,0,0.66667
0.44874,0.41832,6.7311,-0.12252,-29.285,1128,2.1991,-0.73305,-1.9436,2.9322,8.8689e-12,-0.97178,0,0,0.066667,-0,-0,0.66667
0.70431,0.46385,10.565,-0.054218,-8.1654,360.96,1.5275,-0.50915,-1.9968,2.0366,2.3999e-12,-0.99842,0,0,0.066667,-6.3159e-16,0,0.66667
0.68165,0.037122,10.225,-0.69432,-111.45,416.63,18.931,-6.3104,-0.28109,25.242,9.1696e-12,-0.14055,0,0,0.066667,-0,-0,0.66667
0.69715,0.34295,10.457,-0.23557,-36.2,377.76,6.5691,-2.1897,-1.7986,8.7588,1.0293e-11,-0.89928,0,0,0.066667,-1.7369e-15,0,0.66667
0.6186,0.92771,9.279,0.64156,118.72,581.17,-15.875,5.2916,-0.53068,-21.167,1.3154e-11,-0.26534,0,0,0.066667,-0,-0,0.66667
0.15098,0.015788,2.2647,-0.72632,-212.9,2344.3,4.3864,-1.4621,-0.11958,5.8485,-6.2381e-08,-0.059788,0,0,0.066667,-0,-0,0.66667
0.7608,0.8971,11.412,0.59565,75.135,243.82,-18.127,6.0423,-0.73478,-24.169,-1.3057e-10,-0.36739,0,0,0.066667,-1.2632e-15,0,0.66667
0.78105,0.38766,11.716,-0.16851,-19.62,204.79,5.2645,-1.7548,-1.9098,7.0193,1.1676e-11,-0.9549,0,0,0.066667,-1.2632e-15,0,0.66667
0.9041,0.31027,13.562,-0.2846,-15.448,42.586,10.292,-3.4307,-1.7162,13.723,-3.8093e-08,-0.85811,0,0,0.066667,4.2557e-16,0,0.66667
0.23377,0.61386,3.5065,0.17079,48.342,1983.5,-1.597,0.53233,-1.9053,-2.1293,3.9302e-14,-0.95267,0,0,0.066667,-0,-0,0.66667
0.17668,0.77235,2.6502,0.40853,118.56,2230.9,-2.8871,0.96237,-1.403,-3.8495,1.0937e-10,-0.70148,0,0,0.066667,-1.579e-16,0,0.66667
0.3911,0.11183,5.8665,-0.58226,-147.82,1343.6,9.1089,-3.0363,-0.8041,12.145,2.5198e-12,-0.40205,0,0,0.066667,6.3159e-16,0,0.66667
0.32056,0.8923,4.8085,0.58845,158.26,1622,-7.5455,2.5152,-0.76215,-10.061,-2.2572e-11,-0.38108,0,0,0.066667,6.3159e-16,0,0.66667
0.81548,0.81432,12.232,0.47148,47.217,148.92,-15.379,5.1264,-1.2113,-20.506,-1.884e-09,-0.60564,0,0,0.066667,-0,-0,0.66667
0.61353,0.76502,9.2029,0.39753,74.201,594.4,-9.7558,3.2519,-1.4355,-13.008,6.5521e-12,-0.71773,0,0,0.066667,-0,-0,0.66667
0.76,0.24454,11.4,-0.38319,-48.393,244.3,11.649,-3.883,-1.4734,15.532,-1.4699e-11,-0.7367,0,0,0.066667,-6.3159e-16,0,0.66667
0.42767,0.26015,6.415,-0.35978,-88.03,1205.4,6.1545,-2.0515,-1.5345,8.2061,1.9649e-11,-0.76727,0,0,0.066667,-1.2632e-15,0,0.66667
0.099441,0.071717,1.4916,-0.64242,-190.72,2573.4,2.5553,-0.85177,-0.52755,3.4071,-6.3e-08,-0.26378,0,0,0.066667,-0,-0,0.66667
0.11504,0.106,1.7255,-0.59099,-174.82,2503.7,2.7194,-0.90647,-0.75293,3.6259,9.3914e-08,-0.37647,0,0,0.066667,-0,-0,0.66667
0.37341,0.33423,5.6011,-0.24865,-64.065,1411.2,3.7139,-1.238,-1.7854,4.9519,-4.8965e-12,-0.89268,0,0,0.066667,-0,-0,0.66667
0.19385,0.43896,2.9077,-0.091567,-26.385,2155.8,0.71,-0.23667,-1.9656,0.94667,8.5141e-11,-0.98278,0,0,0.066667,-0,-0,0.66667
0.82075,0.95153,12.311,0.67729,66.242,142.27,-22.235,7.4118,-0.36239,-29.647,4.1416e-09,-0.1812,0,0,0.066667,-0,-0,0.66667
0.59964,0.34772,8.9945,-0.22842,-43.766,633.76,5.4788,-1.8263,-1.8099,7.3051,4.9236e-12,-0.90494,0,0,0.066667,-0,-0,0.66667
0.68885,0.57627,10.333,0.1144,17.97,397.16,-3.1522,1.0507,-1.9594,-4.2029,8.4242e-12,-0.97968,0,0,0.066667,-1.2632e-15,0,0.66667
0.49111,0.068886,7.3666,-0.64667,-147.11,979.86,12.703,-4.2345,-0.5074,16.938,2.1201e-12,-0.2537,0,0,0.066667,-0,-0,0.66667
0.088174,0.35836,1.3226,-0.21246,-63.127,2623.6,0.74932,-0.24977,-1.8343,0.9991,1.244e-09,-0.91717,0,0,0.066667,-0,-0,0.66667
0.23508,0.11986,3.5262,-0.57021,-161.47,1978.4,5.3617,-1.7872,-0.85321,7.149,2.0348e-10,-0.4266,0,0,0.066667,-0,-0,0.66667
0.4616,0.87241,6.924,0.55861,131.73,1082.7,-10.314,3.4381,-0.88515,-13.752,1.1521e-11,-0.44258,0,0,0.066667,-1.579e-16,0,0.66667
0.19859,0.47505,2.9789,-0.037432,-10.765,2135.1,0.29734,-0.099115,-1.9922,0.39646,-4.76e-11,-0.99609,0,0,0.066667,-0,-0,0.66667
0.025476,0.73998,0.38214,0.35997,107.76,2906.1,-0.36682,0.12228,-1.5341,-0.48909,9.1995e-06,-0.76704,0,0,0.066667,1.9737e-17,0,0.66667
0.7294,0.12544,10.941,-0.56185,-78.736,307.08,16.392,-5.4641,-0.87497,21.857,-1.3825e-11,-0.43748,0,0,0.066667,2.5264e-15,0,0.66667
0.72492,0.70086,10.874,0.30128,42.74,315.58,-8.7362,2.9121,-1.6714,-11.648,-1.4433e-12,-0.83571,0,0,0.066667,-0,-0,0.66667
0.33039,0.98305,4.9559,0.72458,193.62,1582.7,-9.5758,3.1919,-0.13585,-12.768,-5.0768e-12,-0.067925,0,0,0.066667,6.3159e-16,0,0.66667
0.84349,0.23808,12.652,-0.39288,-33.839,108.67,13.256,-4.4186,-1.4617,17.674,2.476e-09,-0.73087,0,0,0.066667,-0,-0,0.66667
0.42844,0.54071,6.4266,0.061058,14.92,1202.1,-1.0464,0.3488,-1.9808,-1.3952,1.507e-12,-0.9904,0,0,0.066667,-0,-0,0.66667
0.86469,0.079441,12.97,-0.63084,-47.644,83.847,21.819,-7.273,-0.58026,29.092,1.4979e-07,-0.29013,0,0,0.066667,-2.2872e-15,0,0.66667
0.65707,0.87765,9.856,0.56648,96.431,477.41,-14.889,4.9628,-0.86823,-19.851,-1.0769e-11,-0.43411,0,0,0.066667,2.5264e-15,0,0.66667
0.58104,0.022094,8.7155,-0.71686,-142.42,690.47,16.661,-5.5536,-0.17367,22.214,1.1683e-11,-0.086837,0,0,0.066667,-0,-0,0.66667
0.20073,0.024963,3.0109,-0.71255,-205.11,2126.5,5.7212,-1.9071,-0.19746,7.6282,4.5177e-09,-0.098728,0,0,0.066667,3.158e-16,5.0749e-17,0.66667
0.52955,0.26288,7.9432,-0.35567,-76.62,850.23,7.5338,-2.5113,-1.5548,10.045,4.5315e-12,-0.77739,0,0,0.066667,-0,-0,0.66667
0.89443,0.022617,13.416,-0.71607,-42.925,53.686,25.619,-8.5397,-0.17532,34.159,-1.6831e-06,-0.08766,0,0,0.066667,-1.2632e-15,0,0.66667
0.30499,0.11459,4.5749,-0.57811,-157.16,1685.5,7.0529,-2.351,-0.80522,9.4038,2.4045e-11,-0.40261,0,0,0.066667,-0,-0,0.66667
0.87095,0.42729,13.064,-0.10906,-7.8376,74.535,3.7994,-1.2665,-1.9555,5.0659,-8.8507e-10,-0.97774,0,0,0.066667,-0,-0,0.66667
0.90875,0.95096,13.631,0.67643,35.273,41.044,-24.588,8.1961,-0.37495,-32.784,-3.3724e-06,-0.18747,0,0,0.066667,-0,-0,0.66667
0.32984,0.76248,4.9477,0.39373,105.1,1584.1,-5.1947,1.7316,-1.4534,-6.9263,-1.3101e-12,-0.72668,0,0,0.066667,6.3159e-16,0,0.66667
0.68307,0.48428,10.246,-0.023585,-3.7605,410.98,0.64443,-0.21481,-1.9948,0.85923,-5.1317e-12,-0.9974,0,0,0.066667,1.2632e-15,0,0.66667
0.89922,0.37635,13.488,-0.18548,-10.549,46.516,6.6714,-2.2238,-1.8726,8.8952,-3.5588e-08,-0.93631,0,0,0.066667,-2.5264e-15,0,0.66667
0.075697,0.28745,1.1355,-0.31883,-94.948,2679.7,0.96537,-0.32179,-1.6412,1.2872,2.7711e-07,-0.82061,0,0,0.066667,-0,-0,0.66667
0.87859,0.41294,13.179,-0.13059,-8.8616,66.329,4.5893,-1.5298,-1.9386,6.1191,6.1505e-10,-0.9693,0,0,0.066667,-0,-0,0.66667
0.19084,0.084586,2.8626,-0.62312,-180.02,2169.3,4.7566,-1.5855,-0.61907,6.3422,4.9717e-10,-0.30954,0,0,0.066667,-0,-0,0.66667
0.84977,0.55921,12.747,0.088809,7.3527,99.713,-3.0187,1.0062,-1.9673,-4.0249,-6.6113e-10,-0.98366,0,0,0.066667,2.1464e-15,0,0.66667
0.66712,0.96114,10.007,0.69171,115.1,452.52,-18.458,6.1527,-0.29536,-24.611,6.0165e-12,-0.14768,0,0,0.066667,-6.3159e-16,-4.5191e-17,0.66667
0.34434,0.78821,5.1651,0.43231,114.15,1526.1,-5.9544,1.9848,-1.345,-7.9392,6.1142e-12,-0.6725,0,0,0.066667,-0,-0,0.66667
0.15138,0.33955,2.2706,-0.24068,-70.422,2342.1,1.4573,-0.48577,-1.7909,1.9431,-3.1374e-10,-0.89544,0,0,0.066667,-1.4722e-16,0,0.66667
0.63537,0.43423,9.5306,-0.098659,-17.593,533.36,2.5074,-0.8358,-1.9618,3.3432,2.5666e-12,-0.98088,0,0,0.066667,1.4211e-15,0,0.66667
0.84779,0.51011,12.717,0.01517,1.2712,102.2,-0.51445,0.17148,-1.997,-0.68593,-1.7712e-09,-0.9985,0,0,0.066667,-0,-0,0.66667
0.82185,0.74238,12.328,0.36357,35.238,138.85,-11.952,3.984,-1.5245,-15.936,4.1725e-11,-0.76225,0,0,0.066667,1.2632e-15,0,0.66667
0.62824,0.097251,9.4236,-0.60412,-109.58,554.28,15.181,-5.0605,-0.70298,20.242,1.1902e-12,-0.35149,0,0,0.066667,-0,-0,0.66667
0.9563,0.45302,14.345,-0.070471,-1.7665,9.4277,2.6956,-0.89855,-1.9821,3.5942,-6.0387e-08,-0.99106,0,0,0.066667,-1.2632e-15,0,0.66667
0.58992,0.12933,8.8488,-0.55601,-108.61,663.22,13.12,-4.3734,-0.8998,17.493,5.7305e-12,-0.4499,0,0,0.066667,-0,-0,0.66667
0.19783,0.60633,2.9675,0.15949,45.886,2138.4,-1.2621,0.4207,-1.9049,-1.6828,4.7422e-12,-0.95243,0,0,0.066667,-3.158e-16,0,0.66667
0.42933,0.40048,6.44,-0.14928,-36.447,1198.9,2.5637,-0.85457,-1.9148,3.4183,1.4452e-11,-0.9574,0,0,0.066667,-0,-0,0.66667
0.33675,0.38567,5.0512,-0.17149,-45.519,1556.1,2.31,-0.77,-1.8891,3.08,6.1962e-12,-0.94456,0,0,0.066667,-0,-0,0.66667
0.99195,0.13328,14.879,-0.55008,-2.4995,2.4633,21.826,-7.2754,-0.91786,29.101,-5.283e-05,-0.45893,0,0,0.066667,-0,-0,0.66667
0.38024,0.51084,5.7035,0.016259,4.1629,1384.6,-0.24729,0.082428,-1.9945,-0.32971,1.2915e-11,-0.99727,0,0,0.066667,-0,-0,0.66667
0.9927,0.34129,14.891,-0.23806,-0.91385,0.76936,9.453,-3.151,-1.7931,12.604,-2.68e-06,-0.89655,0,0,0.066667,-9.6929e-16,0,0.66667
0.5188,0.32209,7.7821,-0.26686,-58.374,885.31,5.538,-1.846,-1.7468,7.3839,3.9133e-12,-0.87341,0,0,0.066667,-0,-0,0.66667
0.17228,0.28716,2.5842,-0.31926,-92.783,2250.1,2.2001,-0.73336,-1.648,2.9335,-3.5849e-10,-0.82402,0,0,0.066667,-0,-0,0.66667
0.074574,0.84822,1.1186,0.52233,155.67,2684.8,-1.5581,0.51936,-1.0296,-2.0775,-4.694e-07,-0.5148,0,0,0.066667,-0,-0,0.66667
0.37031,0.054253,5.5546,-0.66862,-173,1424.3,9.9038,-3.3013,-0.4071,13.205,8.872e-12,-0.20355,0,0,0.066667,-3.158e-16,5.4981e-18,0.66667
0.12342,0.93093,1.8513,0.6464,190.87,2466.4,-3.1911,1.0637,-0.51991,-4.2548,-1.8933e-07,-0.25996,0,0,0.066667,-0,-0,0.66667
0.63452,0.92656,9.5178,0.63985,114.57,537.36,-16.24,5.4133,-0.5387,-21.653,2.867e-12,-0.26935,0,0,0.066667,-0,-0,0.66667
0.41392,0.58092,6.2088,0.12138,30.105,1256.2,-2.0096,0.66986,-1.941,-2.6794,-7.0659e-12,-0.9705,0,0,0.066667,-6.3159e-16,0,0.66667
0.99092,0.82789,14.864,0.49184,2.505,2.1612,-19.495,6.4983,-1.1337,-25.993,3.2408e-05,-0.56686,0,0,0.066667,-1.2632e-15,0,0.66667
0.92996,0.67625,13.949,0.26437,10.586,23.484,-9.8342,3.2781,-1.745,-13.112,3.9246e-07,-0.87249,0,0,0.066667,-1.2632e-15,0,0.66667
0.14924,0.067946,2.2385,-0.64808,-190,2351.9,3.8687,-1.2896,-0.50088,5.1582,9.4228e-08,-0.25044,0,0,0.066667,-0,-0,0.66667
0.39488,0.58693,5.9232,0.13039,32.944,1328.3,-2.0596,0.68652,-1.9372,-2.7461,2.0127e-11,-0.9686,0,0,0.066667,-6.3159e-16,0,0.66667
0.46158,0.1635,6.9237,-0.50475,-119,1082.6,9.3193,-3.1064,-1.0881,12.426,2.5539e-11,-0.54404,0,0,0.066667,-0,-0,0.66667
0.56095,0.38273,8.4142,-0.17591,-36.07,749.94,3.9471,-1.3157,-1.8955,5.2628,3.7854e-12,-0.94775,0,0,0.066667,1.2632e-15,0,0.66667
0.78036,0.11102,11.705,-0.58348,-68.313,207.63,18.213,-6.071,-0.79726,24.284,4.1891e-10,-0.39863,0,0,0.066667,1.2632e-15,0,0.66667
0.48719,0.051525,7.3079,-0.67271,-153.83,993.45,13.11,-4.3699,-0.39192,17.48,-6.5903e-12,-0.19596,0,0,0.066667,6.3159e-16,0,0.66667
0.41999,0.21967,6.2999,-0.42049,-103.73,1234,7.0641,-2.3547,-1.3767,9.4188,1.0817e-11,-0.68837,0,0,0.066667,1.2632e-15,0,0.66667
0.262,0.083535,3.93,-0.6247,-174.43,1864.3,6.5468,-2.1823,-0.61125,8.7291,8.609e-11,-0.30562,0,0,0.066667,-0,-0,0.66667
0.91081,0.91739,13.662,0.62609,31.901,39.011,-22.81,7.6033,-0.6029,-30.413,-8.7697e-07,-0.30145,0,0,0.066667,-0,-0,0.66667
0.022272,0.87417,0.33407,0.56126,168.15,2920.6,-0.5,0.16669,-0.8752,-0.66665,4.3155e-05,-0.4376,0,0,0.066667,-3.2859e-18,0,0.66667
0.82112,0.83692,12.317,0.50538,49.229,140.6,-16.599,5.5331,-1.0859,-22.132,-2.5111e-09,-0.54297,0,0,0.066667,1.2632e-15,0,0.66667
0.18847,0.50194,2.827,0.0029144,0.84155,2179.2,-0.021971,0.0073235,-2.0087,-0.029294,2.1843e-10,-1.0043,0,0,0.066667,-0,-0,0.66667
0.68576,0.925,10.286,0.63749,101.21,406.36,-17.487,5.8289,-0.55947,-23.316,3.7996e-12,-0.27974,0,0,0.066667,-1.2632e-15,7.5799e-17,0.66667
0.35521,0.42421,5.3281,-0.11368,-29.736,1482.5,1.6152,-0.5384,-1.9514,2.1536,1.504e-11,-0.9757,0,0,0.066667,-0,-0,0.66667
0.97421,0.21512,14.613,-0.42733,-6.3581,4.7004,16.652,-5.5507,-1.3467,22.203,1.522e-05,-0.67336,0,0,0.066667,1.8948e-15,0,0.66667
0.12277,0.34332,1.8416,-0.23502,-69.32,2469,1.1542,-0.38472,-1.8079,1.5389,-4.9945e-09,-0.90395,0,0,0.066667,-6.4146e-17,0,0.66667
0.18757,0.44768,2.8135,-0.078484,-22.672,2183.1,0.58885,-0.19628,-1.9896,0.78514,-2.8782e-11,-0.99481,0,0,0.066667,-0,-0,0.66667
0.88944,0.40668,13.342,-0.13999,-8.6938,55.442,4.9804,-1.6601,-1.9385,6.6405,-7.6864e-09,-0.96923,0,0,0.066667,-0,-0,0.66667
0.58341,0.68299,8.7511,0.27449,54.179,681.67,-6.4055,2.1352,-1.7282,-8.5406,5.1354e-12,-0.86412,0,0,0.066667,-0,-0,0.66667
0.30925,0.49185,4.6387,-0.012222,-3.3089,1667.4,0.15119,-0.050396,-1.9994,0.20158,1.016e-11,-0.99971,0,0,0.066667,-0,-0,0.66667
0.00076439,0.73394,0.011466,0.3509,105.11,3017.8,-0.010725,0.0035749,-1.5704,-0.0143,3.3636e-08,-0.78522,0,0,0.066667,-1.2336e-18,0,0.66667
0.2276,0.98982,3.414,0.73473,208.98,2010.7,-6.6889,2.2296,-0.074472,-8.9185,-2.603e-10,-0.037236,0,0,0.066667,-4.6267e-17,0,0.66667
0.1454,0.13307,2.1811,-0.5504,-161.48,2368.7,3.2012,-1.0671,-0.91936,4.2683,1.5897e-09,-0.45968,0,0,0.066667,-0,-0,0.66667
0.20343,0.76535,3.0515,0.39803,114.3,2114.3,-3.2389,1.0796,-1.4469,-4.3186,1.3561e-10,-0.72346,0,0,0.066667,-0,-0,0.66667
0.89632,0.42788,13.445,-0.10818,-6.3189,48.971,3.8786,-1.2929,-1.9533,5.1715,-2.1961e-08,-0.97665,0,0,0.066667,-1.2632e-15,0,0.66667
0.87309,0.6111,13.096,0.16664,11.791,72.265,-5.8199,1.94,-1.9051,-7.7598,5.7895e-10,-0.95254,0,0,0.066667,-1.2632e-15,0,0.66667
0.70029,0.25598,10.504,-0.36603,-55.796,370.83,10.253,-3.4177,-1.525,13.671,-1.2257e-12,-0.76252,0,0,0.066667,-0,-0,0.66667
0.4705,0.89405,7.0575,0.59107,137.94,1051.3,-11.124,3.708,-0.76227,-14.832,1.3974e-11,-0.38113,0,0,0.066667,-0,-0,0.66667
0.82714,0.52335,12.407,0.035019,3.2978,130.4,-1.1586,0.3862,-2.0034,-1.5448,-1.1001e-10,-1.0017,0,0,0.066667,-0,-0,0.66667
0.49583,0.3491,7.4374,-0.22635,-51.092,962.51,4.4893,-1.4964,-1.8159,5.9857,-1.6924e-12,-0.90793,0,0,0.066667,1.2632e-15,0,0.66667
0.36349,0.45188,5.4523,-0.072185,-18.753,1449.9,1.0495,-0.34985,-1.9789,1.3994,1.8295e-12,-0.98946,0,0,0.066667,-0,-0,0.66667
0.2756,0.65639,4.134,0.23459,64.908,1806.7,-2.5861,0.86205,-1.8007,-3.4482,3.8716e-11,-0.90037,0,0,0.066667,-0,-0,0.66667
0.92474,0.62771,13.871,0.19157,8.2204,26.673,-7.0861,2.362,-1.8713,-9.4482,2.2354e-07,-0.93567,0,0,0.066667,-0,-0,0.66667
0.38699,0.99597,5.8048,0.74395,189.75,1359.9,-11.516,3.8387,-0.031648,-15.355,6.8123e-12,-0.015824,0,0,0.066667,-9.4739e-16,0,0.66667
0.49288,0.73206,7.3932,0.34809,78.898,972.81,-6.8626,2.2875,-1.5627,-9.1501,-3.8218e-12,-0.78135,0,0,0.066667,-0,-0,0.66667
0.25444,0.01507,3.8166,-0.72739,-204.07,1896.5,7.4031,-2.4677,-0.11549,9.8708,1.2952e-11,-0.057746,0,0,0.066667,6.3159e-16,0,0.66667
0.88497,0.41636,13.274,-0.12545,-8.0896,59.801,4.4409,-1.4803,-1.939,5.9212,-1.5388e-09,-0.96949,0,0,0.066667,-0,-0,0.66667
0.38326,0.68616,5.749,0.27924,71.326,1373.1,-4.2809,1.427,-1.7176,-5.7078,-1.1795e-12,-0.85879,0,0,0.066667,7.8949e-17,0,0.66667
0.29757,0.93383,4.4636,0.65074,177.84,1716.2,-7.7458,2.5819,-0.50386,-10.328,3.8467e-12,-0.25193,0,0,0.066667,-0,-0,0.66667
0.71759,0.13389,10.764,-0.54916,-79.763,332.55,15.763,-5.2543,-0.93467,21.017,1.1759e-12,-0.46734,0,0,0.066667,-0,-0,0.66667
0.19087,0.84168,2.863,0.51252,148,2169,-3.913,1.3043,-1.0666,-5.2173,1.8835e-10,-0.53328,0,0,0.066667,3.5527e-16,0,0.66667
0.11819,0.2356,1.7729,-0.3966,-117.15,2489.5,1.875,-0.62501,-1.4344,2.5,-2.2925e-08,-0.71719,0,0,0.066667,1.579e-16,0,0.66667
0.837,0.78453,12.555,0.4268,38.171,117.55,-14.289,4.763,-1.3471,-19.052,1.8004e-09,-0.67354,0,0,0.066667,-0,-0,0.66667
0.74414,0.8335,11.162,0.50025,66.811,276.15,-14.89,4.9634,-1.1049,-19.854,-1.9726e-12,-0.55244,0,0,0.066667,-6.3159e-16,0,0.66667
0.59052,0.41611,8.8578,-0.12584,-24.516,660.3,2.9724,-0.9908,-1.9436,3.9632,7.5207e-12,-0.97178,0,0,0.066667,-0,-0,0.66667
0.24289,0.32033,3.6434,-0.2695,-75.944,1944.7,2.6184,-0.8728,-1.7357,3.4912,2.5469e-12,-0.86783,0,0,0.066667,-0,-0,0.66667
0.62325,0.69466,9.3487,0.292,53.428,566.89,-7.2795,2.4265,-1.7017,-9.7059,9.4169e-12,-0.85084,0,0,0.066667,-0,-0,0.66667
0.63836,0.35986,9.5753,-0.21021,-37.253,525.47,5.3676,-1.7892,-1.8454,7.1568,6.2599e-12,-0.92271,0,0,0.066667,-0,-0,0.66667
0.32757,0.96694,4.9135,0.70041,187.52,1594,-9.1774,3.0591,-0.26618,-12.236,-3.1273e-12,-0.13309,0,0,0.066667,2.3685e-16,0,0.66667
0.067489,0.1757,1.0123,-0.48644,-145.1,2716.7,1.3132,-0.43773,-1.1545,1.7509,3.3846e-07,-0.57724,0,0,0.066667,-7.9923e-17,0,0.66667
0.88054,0.92236,13.208,0.63354,42.592,66.556,-22.314,7.438,-0.56779,-29.752,2.0644e-07,-0.2839,0,0,0.066667,-1.2632e-15,0,0.66667
0.45996,0.381,6.8994,-0.17851,-42.124,1087.7,3.2842,-1.0947,-1.881,4.3789,-1.2401e-12,-0.94048,0,0,0.066667,-0,-0,0.66667
0.76387,0.53964,11.458,0.059463,7.3954,236.19,-1.8169,0.60563,-1.9921,-2.4225,-6.6683e-12,-0.99607,0,0,0.066667,-0,-0,0.66667
0.25389,0.063164,3.8083,-0.65525,-183.81,1898.6,6.6545,-2.2182,-0.47291,8.8726,1.5764e-11,-0.23645,0,0,0.066667,-0,-0,0.66667
0.59139,0.72641,8.8708,0.33962,66.095,658.14,-8.0339,2.678,-1.5926,-10.712,-3.8378e-12,-0.79629,0,0,0.066667,-0,-0,0.66667
0.4288,0.99946,6.4319,0.74918,183.43,1202.4,-12.85,4.2833,0.00048603,-17.133,-4.0989e-12,0.00024301,0,0,0.066667,-6.5133e-16,0,0.66667
0.3821,0.59825,5.7315,0.14738,37.675,1377.4,-2.2525,0.75083,-1.9171,-3.0033,9.8677e-12,-0.95856,0,0,0.066667,-1.2632e-15,0,0.66667
0.12671,0.80338,1.9007,0.45507,134.16,2451.6,-2.3065,0.76885,-1.2685,-3.0754,-3.2416e-09,-0.63423,0,0,0.066667,1.579e-16,0,0.66667
0.24427,0.52402,3.664,0.036033,10.144,1938.7,-0.35207,0.11736,-1.9905,-0.46942,1.6002e-11,-0.99525,0,0,0.066667,3.158e-16,0,0.66667
0.079342,0.41414,1.1901,-0.1288,-38.323,2663.3,0.40876,-0.13625,-1.9478,0.54501,8.9523e-08,-0.97391,0,0,0.066667,-0,-0,0.66667
0.30286,0.37385,4.5429,-0.18922,-51.455,1693.7,2.2922,-0.76408,-1.8685,3.0563,9.3625e-12,-0.93425,0,0,0.066667,-1.579e-16,0,0.66667
0.7417,0.10543,11.126,-0.59185,-79.748,281.6,17.559,-5.8531,-0.74802,23.412,-1.5985e-10,-0.37401,0,0,0.066667,1.2632e-15,0,0.66667
0.61502,0.43358,9.2252,-0.09963,-18.526,589.59,2.451,-0.81698,-1.9604,3.2679,-2.7911e-13,-0.9802,0,0,0.066667,6.3159e-16,0,0.66667
0.67241,0.95375,10.086,0.68062,111.8,439.22,-18.306,6.1021,-0.36211,-24.408,6.5832e-12,-0.18106,0,0,0.066667,-1.2632e-15,0,0.66667
0.0083831,0.50704,0.12575,0.010559,3.1613,2983.3,-0.0035406,0.0011791,-1.9935,-0.0047214,-1.639e-06,-0.99677,0,0,0.066667,-0,-0,0.66667
0.67838,0.84177,10.176,0.51266,82.862,423.6,-13.911,4.637,-1.0607,-18.548,1.6218e-12,-0.53034,0,0,0.066667,-4.737e-16,0,0.66667
0.50318,0.15561,7.5477,-0.51659,-115.58,938.24,10.398,-3.4658,-1.0525,13.863,6.4722e-12,-0.52624,0,0,0.066667,-3.9475e-17,0,0.66667
0.23091,0.63245,3.4636,0.19867,56.316,1995.8,-1.835,0.61166,-1.8591,-2.4467,-1.2528e-11,-0.92956,0,0,0.066667,-0,-0,0.66667
0.1749,0.64107,2.6234,0.21161,61.428,2238.6,-1.4804,0.49347,-1.841,-1.9739,1.3253e-10,-0.9205,0,0,0.066667,-0,-0,0.66667
0.18498,0.40717,2.7747,-0.13925,-40.267,2194.4,1.0304,-0.34345,-1.9343,1.3738,5.2708e-11,-0.96715,0,0,0.066667,-0,-0,0.66667
0.84426,0.26408,12.664,-0.35388,-30.333,107.49,11.951,-3.9836,-1.5641,15.934,1.6864e-09,-0.78203,0,0,0.066667,-1.2632e-15,0,0.66667
0.98259,0.46884,14.739,-0.046741,-0.45684,1.7405,1.8371,-0.61236,-1.9981,2.4495,1.3087e-06,-0.99907,0,0,0.066667,-0,-0,0.66667
0.91374,0.66289,13.706,0.24434,11.973,34.717,-8.9304,2.9768,-1.7817,-11.907,6.3502e-09,-0.89083,0,0,0.066667,-0,-0,0.66667
0.34737,0.86339,5.2105,0.54509,143.65,1514.3,-7.5739,2.5246,-0.94227,-10.099,-2.8177e-12,-0.47113,0,0,0.066667,3.158e-16,0,0.66667
0.78022,0.19649,11.703,-0.45526,-53.268,207.18,14.208,-4.7361,-1.2705,18.944,-9.7771e-12,-0.63526,0,0,0.066667,-0,-0,0.66667
0.54645,0.37227,8.1968,-0.1916,-40.211,795.49,4.188,-1.396,-1.8804,5.584,1.3317e-11,-0.94018,0,0,0.066667,-7.8949e-16,0,0.66667
0.81644,0.069679,12.247,-0.64548,-64.467,148.51,21.08,-7.0266,-0.51691,28.107,-2.2313e-08,-0.25846,0,0,0.066667,-0,-0,0.66667
0.48373,0.58321,7.2559,0.12482,28.613,1004,-2.4151,0.80504,-1.9535,-3.2202,7.2189e-12,-0.97676,0,0,0.066667,-0,-0,0.66667
0.58995,0.62996,8.8493,0.19494,38.022,662.07,-4.6002,1.5334,-1.8638,-6.1336,-1.0143e-12,-0.93192,0,0,0.066667,1.2632e-15,0,0.66667
0.78726,0.50972,11.809,0.014579,1.6544,193.74,-0.4591,0.15303,-1.9938,-0.61213,-5.0967e-11,-0.99689,0,0,0.066667,-0,-0,0.66667
0.10023,0.81408,1.5035,0.47111,139.75,2569.7,-1.8889,0.62963,-1.2061,-2.5185,-1.5256e-08,-0.60304,0,0,0.066667,-3.158e-16,0,0.66667
0.53701,0.45522,8.0551,-0.067177,-14.302,825.61,1.443,-0.48099,-1.9786,1.924,4.5333e-12,-0.98929,0,0,0.066667,-6.3594e-16,0,0.66667
0.36598,0.14457,5.4898,-0.53315,-138.37,1440.8,7.8049,-2.6016,-0.98321,10.407,2.2888e-11,-0.49161,0,0,0.066667,-0,-0,0.66667
0.60431,0.53407,9.0646,0.051103,9.7025,620.06,-1.2353,0.41176,-1.9874,-1.647,-1.8006e-11,-0.99372,0,0,0.066667,2.5264e-15,0,0.66667
0.9588,0.20666,14.382,-0.44,-10.484,9.6453,16.875,-5.625,-1.3064,22.5,-7.0292e-06,-0.65321,0,0,0.066667,-0,-0,0.66667
0.39282,0.35104,5.8923,-0.22344,-56.569,1336.3,3.5109,-1.1703,-1.8258,4.6812,-7.222e-12,-0.91288,0,0,0.066667,-0,-0,0.66667
0.39297,0.49951,5.8946,-0.00074152,-0.18767,1335.5,0.011656,-0.0038853,-2.0039,0.015541,2.6686e-11,-1.0019,0,0,0.066667,6.9081e-16,0,0.66667
0.79064,0.72275,11.86,0.33412,37.421,188.52,-10.567,3.5222,-1.5981,-14.089,4.5116e-11,-0.79905,0,0,0.066667,-0,-0,0.66667
0.64508,0.77431,9.6762,0.41147,71.906,508.07,-10.617,3.5391,-1.3953,-14.156,-2.1734e-12,-0.69763,0,0,0.066667,6.3159e-16,0,0.66667
0.39388,0.72085,5.9083,0.33127,83.807,1332.4,-5.2193,1.7398,-1.6106,-6.9591,9.0949e-13,-0.80532,0,0,0.066667,-0,-0,0.66667
0.68896,0.11224,10.334,-0.58164,-91.533,398.39,16.029,-5.343,-0.80263,21.372,9.992e-12,-0.40131,0,0,0.066667,-0,-0,0.66667
0.404,0.86863,6.06,0.55295,138.66,1294.4,-8.9356,2.9785,-0.91611,-11.914,6.3149e-12,-0.45805,0,0,0.066667,-0,-0,0.66667
0.13611,0.82788,2.0417,0.49181,144.65,2409.8,-2.6777,0.89256,-1.1366,-3.5703,1.5222e-11,-0.56829,0,0,0.066667,3.158e-16,0,0.66667
0.45064,0.73024,6.7596,0.34536,82.408,1121.4,-6.2253,2.0751,-1.5779,-8.3004,-1.6285e-12,-0.78895,0,0,0.066667,-0,-0,0.66667
0.33442,0.15612,5.0163,-0.51582,-137.28,1565.9,6.9001,-2.3,-1.0497,9.2001,2.1879e-11,-0.52483,0,0,0.066667,-7.2535e-16,0,0.66667
0.21797,0.098926,3.2695,-0.60161,-171.78,2051.8,5.2453,-1.7484,-0.72204,6.9937,-8.1916e-10,-0.36102,0,0,0.066667,-6.3159e-16,-4.3641e-17,0.66667
0.92577,0.86853,13.887,0.55279,23.558,27.642,-20.47,6.8235,-0.91201,-27.294,8.596e-07,-0.45601,0,0,0.066667,-0,-0,0.66667
0.68964,0.32787,10.345,-0.25819,-40.486,395.51,7.1223,-2.3741,-1.766,9.4965,1.4921e-13,-0.88298,0,0,0.066667,1.2632e-15,0,0.66667
0.59882,0.26376,8.9823,-0.35436,-68.027,636.42,8.488,-2.8293,-1.5491,11.317,1.1346e-11,-0.77456,0,0,0.066667,-0,-0,0.66667
0.74666,0.4945,11.2,-0.0082528,-1.0907,269.81,0.24648,-0.08216,-1.9998,0.32864,8.5412e-12,-0.9999,0,0,0.066667,-2.2106e-15,0,0.66667
0.54197,0.058228,8.1296,-0.66266,-140.32,811.24,14.366,-4.7886,-0.43546,19.154,-6.6178e-12,-0.21773,0,0,0.066667,9.525e-16,0,0.66667
0.70053,0.023018,10.508,-0.71547,-109.27,372.03,20.048,-6.6828,-0.18179,26.731,1.2186e-12,-0.090896,0,0,0.066667,-0,-6.1274e-17,0.66667
0.93056,0.8719,13.958,0.55786,22.29,24.603,-20.765,6.9216,-0.88815,-27.686,7.8066e-07,-0.44408,0,0,0.066667,1.8545e-15,0,0.66667
0.86262,0.84342,12.939,0.51514,39.387,85.489,-17.775,5.9249,-1.0577,-23.7,-9.1666e-09,-0.52885,0,0,0.066667,-4.3422e-16,0,0.66667
0.16744,0.97023,2.5116,0.70534,205.62,2271.8,-4.7242,1.5747,-0.22923,-6.2989,-5.1819e-08,-0.11461,0,0,0.066667,6.3159e-16,0,0.66667
0.26314,0.15943,3.9471,-0.51085,-142.48,1859.3,5.377,-1.7923,-1.075,7.1693,2.7267e-11,-0.53752,0,0,0.066667,-6.3159e-16,0,0.66667
0.07161,0.39395,1.0742,-0.15908,-47.39,2698,0.45566,-0.15189,-1.9039,0.60755,2.344e-07,-0.95197,0,0,0.066667,-0,-0,0.66667
0.97867,0.66819,14.68,0.25229,3.0634,2.9009,-9.8765,3.2922,-1.7684,-13.169,-4.3415e-06,-0.88422,0,0,0.066667,-2.5264e-15,0,0.66667
0.23638,0.23406,3.5458,-0.39891,-112.82,1972.6,3.7718,-1.2573,-1.4376,5.0291,-2.2075e-11,-0.71882,0,0,0.066667,-0,-0,0.66667
0.6606,0.52562,9.909,0.038434,6.4762,466.94,-1.0156,0.33853,-1.9924,-1.3541,-1.7301e-12,-0.99619,0,0,0.066667,-0,-0,0.66667
0.089631,0.50405,1.3445,0.00607,1.8028,2617.1,-0.021762,0.0072542,-1.9982,-0.029017,9.1617e-08,-0.99911,0,0,0.066667,6.3159e-16,0,0.66667
0.21077,0.30052,3.1616,-0.29922,-85.632,2082.5,2.5227,-0.8409,-1.6751,3.3636,3.9924e-11,-0.83754,0,0,0.066667,-0,-0,0.66667
0.50282,0.76648,7.5424,0.39971,89.429,939.08,-8.0394,2.6798,-1.4327,-10.719,2.073e-12,-0.71636,0,0,0.066667,6.3159e-16,0,0.66667
0.10495,0.58318,1.5743,0.12477,36.947,2548.5,-0.52379,0.1746,-1.9416,-0.69839,-1.9616e-08,-0.9708,0,0,0.066667,-1.579e-16,0,0.66667
0.38887,0.039187,5.8331,-0.69122,-175.95,1352.5,10.752,-3.584,-0.30597,14.336,1.0747e-11,-0.15299,0,0,0.066667,-0,-5.9836e-17,0.66667
0.53799,0.91496,8.0698,0.62244,132.57,823.83,-13.395,4.4649,-0.61646,-17.86,8.1073e-12,-0.30823,0,0,0.066667,-0,-0,0.66667
0.3392,0.51534,5.0881,0.023016,6.097,1546.2,-0.31229,0.1041,-1.9946,-0.41639,3.3308e-11,-0.99732,0,0,0.066667,-0,-0,0.66667
0.5559,0.82919,8.3385,0.49379,102.2,766.47,-10.98,3.66,-1.1268,-14.64,1.7177e-12,-0.56342,0,0,0.066667,-0,-0,0.66667
0.53677,0.033895,8.0515,-0.69916,-149.26,828.11,15.011,-5.0038,-0.25806,20.015,-5.9668e-12,-0.12903,0,0,0.066667,1.2632e-15,0,0.66667
0.39061,0.83169,5.8592,0.49753,126.32,1345.2,-7.7736,2.5912,-1.1315,-10.365,4.9827e-13,-0.56577,0,0,0.066667,-0,2.9759e-17,0.66667
0.69627,0.89243,10.444,0.58864,90.849,381.17,-16.394,5.4647,-0.76164,-21.859,-1.4627e-11,-0.38082,0,0,0.066667,1.2632e-15,0,0.66667
0.67848,0.79131,10.177,0.43697,70.576,423.02,-11.859,3.953,-1.3151,-15.812,5.1257e-12,-0.65753,0,0,0.066667,-0,-0,0.66667
0.6873,0.86386,10.31,0.54579,86.24,402.15,-15.005,5.0016,-0.95172,-20.006,3.6122e-12,-0.47586,0,0,0.066667,-0,8.2484e-17,0.66667
0.56149,0.65652,8.4224,0.23478,48.104,748.35,-5.273,1.7577,-1.8129,-7.0307,4.6168e-12,-0.90644,0,0,0.066667,-0,-0,0.66667
0.35808,0.30396,5.3712,-0.29406,-76.762,1471.4,4.2119,-1.404,-1.699,5.6159,-4.5177e-12,-0.84948,0,0,0.066667,-0,-0,0.66667
0.61311,0.44538,9.1967,-0.081924,-15.291,594.95,2.0091,-0.66971,-1.9749,2.6788,6.8983e-12,-0.98743,0,0,0.066667,-0,-0,0.66667
0.93574,0.63888,14.036,0.20832,7.662,19.822,-7.7971,2.599,-1.85,-10.396,3.534e-07,-0.92502,0,0,0.066667,-0,-0,0.66667
0.59689,0.69919,8.9533,0.29879,57.554,641.91,-7.1337,2.3779,-1.6826,-9.5116,-2.9203e-12,-0.84129,0,0,0.066667,-0,-0,0.66667
0.97959,0.40312,14.694,-0.14533,-1.6799,2.4336,5.6944,-1.8981,-1.9221,7.5925,1.9757e-06,-0.96104,0,0,0.066667,-1.579e-15,0,0.66667
0.44101,0.15857,6.6151,-0.51215,-123.6,1156.8,9.0344,-3.0115,-1.0675,12.046,-1.5993e-11,-0.53376,0,0,0.066667,-0,-0,0.66667
0.73961,0.24531,11.094,-0.38203,-51.75,284.88,11.302,-3.7674,-1.4772,15.07,1.2593e-11,-0.73861,0,0,0.066667,3.158e-16,0,0.66667
0.037604,0.66383,0.56406,0.24574,73.491,2851.3,-0.36963,0.12321,-1.7797,-0.49285,-6.8309e-07,-0.88985,0,0,0.066667,-0,-0,0.66667
0.76473,0.82381,11.471,0.48571,60.335,235.76,-14.857,4.9525,-1.169,-19.81,7.8311e-12,-0.58449,0,0,0.066667,-0,-0,0.66667
0.51828,0.58915,7.7742,0.13373,29.266,886.86,-2.7723,0.9241,-1.9386,-3.6964,-3.1757e-12,-0.96929,0,0,0.066667,6.3159e-16,0,0.66667
0.0053165,0.49178,0.079748,-0.012323,-3.6897,2997.2,0.0026207,-0.00087765,-1.995,0.0034922,-6.1331e-06,-0.99752,0,0,0.066667,-4.9343e-18,0,0.66667
0.2772,0.27363,4.158,-0.33955,-93.88,1800.1,3.7649,-1.255,-1.5881,5.0199,1.7186e-11,-0.79404,0,0,0.066667,-3.158e-16,0,0.66667
0.53483,0.061645,8.0225,-0.65753,-140.75,834.16,14.067,-4.6889,-0.46299,18.756,4.7251e-13,-0.23149,0,0,0.066667,7.8949e-17,0,0.66667
0.76796,0.28539,11.519,-0.32192,-39.465,229.01,9.8889,-3.2963,-1.6348,13.185,1.9552e-11,-0.81739,0,0,0.066667,2.5264e-15,0,0.66667
0.053093,0.26418,0.79639,-0.35374,-105.66,2781.5,0.75123,-0.25041,-1.5492,1.0016,3.0788e-07,-0.7746,0,0,0.066667,-7.8949e-17,0,0.66667
0.54905,0.97093,8.2358,0.7064,147.99,788.94,-15.514,5.1713,-0.22991,-20.685,1.1262e-11,-0.11496,0,0,0.066667,-1.2632e-15,0,0.66667
0.80099,0.05329,12.015,-0.67007,-71.968,173.02,21.469,-7.1562,-0.40131,28.625,6.9528e-09,-0.20065,0,0,0.066667,6.3159e-16,0,0.66667
0.64958,0.23505,9.7437,-0.39742,-68.751,496.15,10.326,-3.4421,-1.4321,13.769,9.1882e-12,-0.71607,0,0,0.066667,-1.2632e-15,0,0.66667
0.93145,0.64322,13.972,0.21483,8.4185,22.408,-8.0042,2.6681,-1.8302,-10.672,3.4979e-07,-0.9151,0,0,0.066667,-0,-0,0.66667
0.074731,0.15584,1.121,-0.51624,-153.85,2684.1,1.5432,-0.51439,-1.0532,2.0576,3.7818e-07,-0.52662,0,0,0.066667,-2.1958e-16,0,0.66667
0.27681,0.99839,4.1521,0.74758,207.09,1802.6,-8.2774,2.7591,-0.010972,-11.037,-1.7948e-11,-0.0054861,0,0,0.066667,-1.579e-16,0,0.66667
0.91924,0.32394,13.789,-0.26409,-12.145,30.705,9.7105,-3.2368,-1.7535,12.947,-9.4978e-08,-0.87675,0,0,0.066667,-0,-0,0.66667
0.76501,0.06597,11.475,-0.65104,-80.916,236.19,19.922,-6.6407,-0.50283,26.563,7.6748e-10,-0.25141,0,0,0.066667,-0,3.1176e-17,0.66667
0.59974,0.042532,8.9961,-0.6862,-131.75,635.13,16.462,-5.4872,-0.32024,21.949,6.4393e-12,-0.16012,0,0,0.066667,-1.2632e-15,0,0.66667
0.83297,0.96011,12.495,0.69017,63.33,124.75,-22.996,7.6652,-0.30269,-30.661,2.3258e-08,-0.15135,0,0,0.066667,-6.3159e-16,0,0.66667
0.89604,0.64772,13.441,0.22158,12.985,49.448,-7.9419,2.6473,-1.8208,-10.589,4.0037e-08,-0.91041,0,0,0.066667,6.3159e-16,0,0.66667
0.97272,0.57326,14.591,0.10989,1.7113,3.976,-4.2756,1.4252,-1.955,-5.7008,-1.606e-06,-0.97749,0,0,0.066667,-0,-0,0.66667
0.99852,0.68117,14.978,0.27176,0.10329,0.53309,-10.854,3.6181,-1.7434,-14.472,4.1116e-06,-0.87169,0,0,0.066667,-0,-5.0208e-17,0.66667
0.13965,0.89621,2.0947,0.59431,174.69,2394.3,-3.3198,1.1066,-0.75174,-4.4264,8.2824e-08,-0.37587,0,0,0.066667,-0,-6.8879e-17,0.66667
0.070542,0.73936,1.0581,0.35904,107.01,2702.9,-1.0131,0.3377,-1.5352,-1.3508,-4.3681e-07,-0.76759,0,0,0.066667,-0,-0,0.66667
0.073467,0.59449,1.102,0.14173,42.21,2689.7,-0.4165,0.13883,-1.9264,-0.55533,-1.8416e-07,-0.96322,0,0,0.066667,-3.158e-16,0,0.66667
0.014744,0.80366,0.22116,0.45549,136.45,2954.6,-0.26862,0.089532,-1.2704,-0.35816,-9.7851e-06,-0.63518,0,0,0.066667,-0,-0,0.66667
0.97182,0.12439,14.577,-0.56341,-9.2486,6.1949,21.901,-7.3004,-0.87302,29.202,4.3386e-05,-0.43651,0,0,0.066667,-7.8949e-17,0,0.66667
0.094767,0.71652,1.4215,0.32478,96.405,2594.1,-1.2311,0.41038,-1.6334,-1.6415,-3.3467e-08,-0.81669,0,0,0.066667,-3.9475e-17,0,0.66667
0.84174,0.65233,12.626,0.22849,19.859,110.42,-7.6932,2.5644,-1.8187,-10.258,-1.6645e-11,-0.90937,0,0,0.066667,2.0774e-15,0,0.66667
0.68517,0.82537,10.278,0.48805,77.514,406.99,-13.376,4.4586,-1.1555,-17.835,2.1458e-12,-0.57775,0,0,0.066667,-0,-0,0.66667
0.48756,0.3318,7.3134,-0.2523,-57.568,990.93,4.9205,-1.6402,-1.7735,6.5606,1.2946e-11,-0.88676,0,0,0.066667,-0,-0,0.66667
0.34669,0.97758,5.2004,0.71637,189.04,1517.4,-9.9344,3.3115,-0.17612,-13.246,-8.5301e-12,-0.088059,0,0,0.066667,-0,-0,0.66667
0.35365,0.2922,5.3047,-0.3117,-81.664,1488.9,4.4092,-1.4697,-1.6493,5.879,7.0766e-12,-0.82467,0,0,0.066667,-0,-0,0.66667
0.25384,0.15639,3.8076,-0.51542,-144.5,1898.6,5.2333,-1.7444,-1.0552,6.9778,7.7307e-12,-0.52759,0,0,0.066667,-0,-0,0.66667
0.91102,0.86635,13.665,0.54953,27.885,38.298,-20.025,6.6751,-0.92273,-26.7,2.7453e-07,-0.46137,0,0,0.066667,-0,-0,0.66667
0.72564,0.35065,10.885,-0.22403,-31.7,313.82,6.5025,-2.1675,-1.8157,8.67,1.2665e-12,-0.90783,0,0,0.066667,-0,-0,0.66667
0.025926,0.00039345,0.38889,-0.74941,-224.67,2904.2,0.77708,-0.25901,0.00058205,1.0361,2.3951e-05,0.00029103,0,0,0.066667,-0,-0,0.66667
0.46152,0.83977,6.9228,0.50966,120.17,1082.9,-9.4087,3.1362,-1.0708,-12.545,2.1759e-11,-0.53541,0,0,0.066667,6.3159e-16,0,0.66667
0.2813,0.90316,4.2195,0.60475,166.94,1783.5,-6.8046,2.2682,-0.71216,-9.0729,7.4604e-11,-0.35608,0,0,0.066667,-3.9475e-16,0,0.66667
0.028966,0.825,0.43449,0.4875,145.96,2890.4,-0.56484,0.18829,-1.1576,-0.75312,1.9348e-05,-0.57879,0,0,0.066667,-0,-0,0.66667
0.88468,0.16394,13.27,-0.50409,-32.706,61.491,17.839,-5.9462,-1.0913,23.785,-1.0692e-08,-0.54565,0,0,0.066667,-0,-0,0.66667
0.77101,0.79759,11.565,0.44638,54.141,223.85,-13.766,4.5888,-1.2866,-18.355,-6.7652e-11,-0.64332,0,0,0.066667,-1.2632e-15,0,0.66667
0.32974,0.76462,4.946,0.39694,105.97,1584.6,-5.2353,1.7451,-1.4447,-6.9805,4.6372e-12,-0.72233,0,0,0.066667,-0,-0,0.66667
0.79656,0.31838,11.948,-0.27242,-29.733,178.33,8.68,-2.8933,-1.747,11.573,7.9332e-11,-0.87349,0,0,0.066667,-0,-0,0.66667
0.32464,0.45433,4.8696,-0.0685,-18.345,1604.8,0.88951,-0.2965,-1.9823,1.186,8.1449e-12,-0.99113,0,0,0.066667,6.3159e-16,0,0.66667
0.30788,0.95063,4.6182,0.67594,183.49,1673.9,-8.3244,2.7748,-0.37192,-11.099,-2.0969e-11,-0.18596,0,0,0.066667,-0,-1.3931e-17,0.66667
0.92811,0.17568,13.922,-0.48648,-20.065,25.692,18.06,-6.0201,-1.1527,24.081,-4.2939e-07,-0.57635,0,0,0.066667,-1.2632e-15,0,0.66667
0.97692,0.72747,14.654,0.34121,4.5134,3.6282,-13.333,4.4444,-1.5797,-17.778,-8.1493e-06,-0.78987,0,0,0.066667,-0,-0,0.66667
0.52356,0.16551,7.8533,-0.50174,-109.1,870.27,10.508,-3.5025,-1.0985,14.01,1.4291e-11,-0.54926,0,0,0.066667,-0,-0,0.66667
0.95194,0.62382,14.279,0.18573,5.1258,11.47,-7.0722,2.3574,-1.8853,-9.4295,4.3093e-07,-0.94265,0,0,0.066667,1.4211e-15,0,0.66667
0.888,0.75097,13.32,0.37645,23.717,57.563,-13.372,4.4572,-1.499,-17.829,2.5707e-09,-0.7495,0,0,0.066667,2.5264e-15,0,0.66667
0.51803,0.80664,7.7705,0.45996,100.79,888.35,-9.5309,3.177,-1.2505,-12.708,-6.4446e-12,-0.62527,0,0,0.066667,-0,-0,0.66667
0.37275,0.30877,5.5912,-0.28685,-73.955,1413.8,4.2769,-1.4256,-1.711,5.7025,-1.4009e-11,-0.85552,0,0,0.066667,7.8949e-16,0,0.66667
0.71035,0.43003,10.655,-0.10495,-15.537,347.28,2.982,-0.99402,-1.9547,3.9761,7.5739e-13,-0.97737,0,0,0.066667,-0,-0,0.66667
0.45564,0.57075,6.8347,0.10612,25.167,1103.1,-1.9342,0.64473,-1.9621,-2.5789,-2.9454e-12,-0.98104,0,0,0.066667,-0,-0,0.66667
0.60521,0.28434,9.0782,-0.32348,-61.346,617.87,7.8311,-2.6104,-1.6264,10.441,1.2061e-12,-0.81318,0,0,0.066667,-0,-0,0.66667
0.99041,0.13647,14.856,-0.54529,-2.9737,2.5798,21.602,-7.2009,-0.93717,28.803,-5.8805e-05,-0.46859,0,0,0.066667,-0,-0,0.66667
0.77392,0.72618,11.609,0.33927,40.663,218.08,-10.503,3.5009,-1.5846,-14.004,-3.1606e-11,-0.7923,0,0,0.066667,-0,-0,0.66667
0.33428,0.54121,5.0141,0.061818,16.437,1565.9,-0.82658,0.27553,-1.9808,-1.1021,2.5418e-11,-0.9904,0,0,0.066667,-0,-0,0.66667
0.088998,0.1752,1.335,-0.4872,-144.84,2620.1,1.7344,-0.57813,-1.1523,2.3125,1.5484e-07,-0.57613,0,0,0.066667,-0,-0,0.66667
0.18491,0.37657,2.7736,-0.18514,-53.541,2194.8,1.3693,-0.45644,-1.881,1.8258,1.2156e-11,-0.9405,0,0,0.066667,-0,-0,0.66667
0.52685,0.65911,7.9028,0.23866,51.6,858.78,-5.0296,1.6765,-1.7954,-6.7062,3.2605e-12,-0.89772,0,0,0.066667,1.2632e-15,0,0.66667
0.4171,0.082519,6.2565,-0.62622,-155.07,1245.4,10.448,-3.4826,-0.60191,13.931,1.9043e-11,-0.30096,0,0,0.066667,-0,-0,0.66667
0.80066,0.55304,12.01,0.079561,8.5215,171.2,-2.5481,0.84935,-1.976,-3.3974,3.1114e-11,-0.98798,0,0,0.066667,-6.3159e-16,0,0.66667
0.9332,0.76516,13.998,0.39774,15.241,22.035,-14.847,4.9489,-1.4346,-19.796,4.4654e-07,-0.71728,0,0,0.066667,-0,-0,0.66667
0.17786,0.86688,2.668,0.55031,159.72,2225.9,-3.9153,1.3051,-0.91794,-5.2203,7.733e-10,-0.45897,0,0,0.066667,-0,-0,0.66667
0.86007,0.54226,12.901,0.06339,4.9131,87.002,-2.1808,0.72693,-1.9944,-2.9077,-9.8928e-10,-0.9972,0,0,0.066667,-0,-0,0.66667
0.95739,0.25631,14.361,-0.36553,-8.9824,9.8101,13.998,-4.6661,-1.5226,18.664,-3.5509e-06,-0.76132,0,0,0.066667,-0,-0,0.66667
0.95947,0.92697,14.392,0.64046,15.158,10.777,-24.58,8.1934,-0.53572,-32.773,4.675e-05,-0.26786,0,0,0.066667,1.2632e-15,0,0.66667
0.037863,0.65843,0.56794,0.23765,71.067,2850.2,-0.35992,0.11997,-1.7942,-0.47989,-6.6773e-07,-0.89711,0,0,0.066667,-0,-0,0.66667
0.057584,0.57954,0.86375,0.11931,35.606,2761.2,-0.27481,0.091603,-1.9452,-0.36641,-1.5414e-07,-0.97262,0,0,0.066667,-0,-0,0.66667
0.0057974,0.91742,0.086961,0.62614,187.72,2995.1,-0.1452,0.048369,-0.60081,-0.19362,-4.7292e-05,-0.30041,0,0,0.066667,9.8686e-18,1.4509e-16,0.66667
0.31268,0.087831,4.6902,-0.61825,-167.23,1654.2,7.7327,-2.5776,-0.65239,10.31,1.7362e-11,-0.32619,0,0,0.066667,3.158e-16,0,0.66667
0.055698,0.099408,0.83548,-0.60089,-179.58,2769.8,1.3387,-0.44625,-0.71053,1.785,-1.0612e-05,-0.35527,0,0,0.066667,-0,-0,0.66667
0.29386,0.77346,4.4079,0.41018,112.26,1731,-4.8215,1.6072,-1.4024,-6.4287,-1.3351e-11,-0.70122,0,0,0.066667,-0,-0,0.66667
0.35602,0.66579,5.3402,0.24868,65.02,1479.4,-3.5414,1.1805,-1.7796,-4.7219,1.0188e-11,-0.88982,0,0,0.066667,-0,-0,0.66667
0.95368,0.36139,14.305,-0.20791,-5.5328,10.766,7.9312,-2.6437,-1.8555,10.575,-6.7891e-07,-0.92774,0,0,0.066667,-0,-0,0.66667
0.47695,0.64475,7.1543,0.21712,50.203,1027.7,-4.1423,1.3808,-1.8259,-5.523,2.8866e-12,-0.91294,0,0,0.066667,-0,-0,0.66667
0.27824,0.46086,4.1736,-0.058716,-16.217,1795.6,0.65348,-0.21783,-1.9884,0.87131,5.2552e-11,-0.9942,0,0,0.066667,-3.158e-16,0,0.66667
0.50301,0.026034,7.5451,-0.71095,-159.28,939.63,14.304,-4.7681,-0.20387,19.073,2.0181e-11,-0.10193,0,0,0.066667,-0,-0,0.66667
0.64336,0.010162,9.6504,-0.73476,-129.17,514.22,18.908,-6.3028,-0.081743,25.211,7.7929e-12,-0.040872,0,0,0.066667,-0,-0,0.66667
0.11125,0.8304,1.6687,0.4956,146.68,2520.5,-2.2053,0.73511,-1.1307,-2.9404,4.5405e-08,-0.56533,0,0,0.066667,1.579e-16,0,0.66667
0.75806,0.53119,11.371,0.046778,5.9418,247.31,-1.4184,0.47281,-1.9873,-1.8912,2.3181e-13,-0.99363,0,0,0.066667,4.7785e-16,0,0.66667
0.85195,0.94539,12.779,0.66809,54.874,99.453,-22.767,7.589,-0.40679,-30.356,3.3054e-08,-0.2034,0,0,0.066667,-0,-0,0.66667
0.84425,0.93885,12.664,0.65828,56.638,109.24,-22.23,7.4101,-0.47005,-29.64,7.5976e-08,-0.23503,0,0,0.066667,2.5264e-15,0,0.66667
0.89051,0.89533,13.358,0.593,36.695,56.394,-21.123,7.0409,-0.76095,-28.164,-2.3775e-07,-0.38048,0,0,0.066667,-0,-0,0.66667
0.38184,0.47507,5.7276,-0.0374,-9.5623,1378.4,0.57123,-0.19041,-1.9892,0.76164,1.5463e-11,-0.99462,0,0,0.066667,1.2632e-15,0,0.66667
0.44381,0.55685,6.6571,0.08528,20.496,1145.8,-1.5139,0.50463,-1.9688,-2.0185,-5.7321e-12,-0.98442,0,0,0.066667,9.4739e-16,0,0.66667
0.10158,0.86618,1.5237,0.54926,162.93,2563.7,-2.2318,0.74393,-0.92097,-2.9757,2.0967e-07,-0.46049,0,0,0.066667,7.8949e-17,0,0.66667
0.22581,0.08274,3.3871,-0.62589,-178.08,2018.2,5.6532,-1.8844,-0.6008,7.5376,-1.8904e-10,-0.3004,0,0,0.066667,-0,-0,0.66667
0.97132,0.04688,14.57,-0.67968,-11.457,7.2664,26.407,-8.8024,-0.35906,35.21,9.471e-05,-0.17953,0,0,0.066667,-0,-0,0.66667
0.28462,0.30902,4.2694,-0.28648,-78.838,1769.1,3.2615,-1.0872,-1.7085,4.3487,1.3756e-11,-0.85424,0,0,0.066667,-7.8949e-17,0,0.66667
0.9074,0.24996,13.611,-0.37507,-19.71,40.217,13.613,-4.5378,-1.5082,18.151,-1.7484e-08,-0.75409,0,0,0.066667,1.8948e-15,0,0.66667
0.89055,0.6129,13.358,0.16935,10.419,54.434,-6.0326,2.0109,-1.9094,-8.0435,1.3378e-08,-0.95471,0,0,0.066667,-0,-0,0.66667
0.9225,0.56707,13.838,0.10061,4.439,28.036,-3.7124,1.2375,-1.9737,-4.9499,1.1282e-07,-0.98684,0,0,0.066667,-2.5264e-15,0,0.66667
0.15615,0.86908,2.3422,0.55363,161.89,2321.3,-3.4579,1.1526,-0.92204,-4.6106,-8.8145e-09,-0.46102,0,0,0.066667,7.8949e-17,5.129e-17,0.66667
0.87972,0.90605,13.196,0.60908,41.19,67.221,-21.433,7.1442,-0.67884,-28.577,2.2393e-07,-0.33942,0,0,0.066667,-1.3816e-15,0,0.66667
0.63199,0.72483,9.4799,0.33724,60.605,542.97,-8.5254,2.8418,-1.5898,-11.367,9.9281e-12,-0.79489,0,0,0.066667,-1.2632e-15,0,0.66667
0.21063,0.48226,3.1594,-0.026605,-7.6119,2083,0.22415,-0.074717,-1.9909,0.29887,1.4616e-11,-0.99544,0,0,0.066667,-3.158e-16,0,0.66667
0.34512,0.46624,5.1767,-0.050647,-13.355,1522.6,0.69916,-0.23305,-1.9979,0.93221,2.4138e-11,-0.99894,0,0,0.066667,2.3685e-16,0,0.66667
0.15992,0.33473,2.3988,-0.2479,-72.34,2304.4,1.5858,-0.52859,-1.7803,2.1144,-1.7908e-10,-0.89014,0,0,0.066667,1.579e-16,0,0.66667
0.44435,0.066272,6.6652,-0.65059,-156.55,1145.1,11.564,-3.8545,-0.48963,15.418,-5.3308e-12,-0.24481,0,0,0.066667,1.2632e-15,0,0.66667
0.083775,0.15423,1.2566,-0.51865,-154.35,2643.5,1.738,-0.57933,-1.0396,2.3173,1.0371e-07,-0.51979,0,0,0.066667,3.9475e-17,0,0.66667
0.16532,0.40922,2.4798,-0.13616,-39.656,2280.6,0.90041,-0.30014,-1.929,1.2005,-2.4908e-10,-0.9645,0,0,0.066667,6.3159e-16,0,0.66667
0.1972,0.04087,2.9579,-0.68869,-198.51,2141.8,5.4323,-1.8108,-0.30824,7.2431,7.6914e-10,-0.15412,0,0,0.066667,-0,-0,0.66667
0.69103,0.95754,10.365,0.68632,107.51,394.08,-18.971,6.3235,-0.3242,-25.294,9.5017e-12,-0.1621,0,0,0.066667,-6.3159e-16,0,0.66667
0.5738,0.73962,8.607,0.35943,72.165,710.82,-8.2498,2.7499,-1.5378,-11,5.1497e-12,-0.76891,0,0,0.066667,-0,-0,0.66667
0.87332,0.79489,13.1,0.44233,31.322,72.993,-15.452,5.1506,-1.309,-20.602,9.0319e-10,-0.65449,0,0,0.066667,-0,-0,0.66667
0.24463,0.058835,3.6695,-0.66175,-186.56,1937.9,6.4754,-2.1585,-0.43911,8.6339,6.8066e-10,-0.21955,0,0,0.066667,-7.8949e-17,0,0.66667
0.62961,0.32692,9.4441,-0.25962,-46.879,549.29,6.5385,-2.1795,-1.7568,8.7179,1.2446e-11,-0.87838,0,0,0.066667,-1.2632e-15,0,0.66667
0.034431,0.034899,0.51647,-0.69765,-208.99,2865.7,0.96086,-0.32028,-0.27027,1.2811,1.5482e-05,-0.13514,0,0,0.066667,-0,-0,0.66667
0.5162,0.20014,7.743,-0.4498,-98.815,894.4,9.2873,-3.0958,-1.2898,12.383,4.7118e-12,-0.64488,0,0,0.066667,-0,-0,0.66667
0.86323,0.043143,12.948,-0.68528,-52.325,85.952,23.662,-7.8874,-0.32839,31.55,-1.7876e-07,-0.16419,0,0,0.066667,-0,-0,0.66667
0.98413,0.86776,14.762,0.55164,5.0644,3.4617,-21.715,7.2385,-0.92892,-28.954,2.0146e-05,-0.46446,0,0,0.066667,1.2632e-15,-6.0445e-17,0.66667
0.009873,0.063451,0.14809,-0.65482,-196.34,2976.6,0.25861,-0.086099,-0.47154,0.34487,0.00015778,-0.23577,0,0,0.066667,-0,-0,0.66667
0.25284,0.92044,3.7926,0.63067,177,1903,-6.3783,2.1261,-0.58657,-8.5045,2.6303e-11,-0.29328,0,0,0.066667,-0,-0,0.66667
0.22385,0.49,3.3577,-0.015003,-4.2667,2026,0.13434,-0.04478,-1.995,0.17912,9.0835e-12,-0.99748,0,0,0.066667,-3.158e-16,0,0.66667
0.047538,0.057416,0.71306,-0.66388,-198.63,2806.6,1.2624,-0.42077,-0.44235,1.6831,2.0309e-05,-0.22117,0,0,0.066667,7.8949e-17,0,0.66667
0.010172,0.97438,0.15259,0.71158,213.41,2975.3,-0.28967,0.096432,-0.19579,-0.38628,-0.00018563,-0.097893,0,0,0.066667,-0,-0,0.66667
0.4902,0.23232,7.3529,-0.40152,-91.345,982.16,7.873,-2.6243,-1.4213,10.497,9.9001e-12,-0.71066,0,0,0.066667,-0,-0,0.66667
0.045482,0.75299,0.68223,0.37948,113.45,2815.8,-0.69039,0.23013,-1.4948,-0.92052,-2.9715e-06,-0.74739,0,0,0.066667,-0,-0,0.66667
0.27833,0.47333,4.1749,-0.040001,-11.047,1795.2,0.44534,-0.14845,-1.9957,0.59379,4.7143e-11,-0.99783,0,0,0.066667,-0,-0,0.66667
0.63997,0.40484,9.5996,-0.14274,-25.203,521.02,3.654,-1.218,-1.9377,4.872,-5.7154e-13,-0.96884,0,0,0.066667,1.579e-15,0,0.66667
0.29469,0.98686,4.4204,0.73029,200.04,1728.3,-8.6085,2.8695,-0.10661,-11.478,-7.3044e-12,-0.053303,0,0,0.066667,-0,-0,0.66667
0.26965,0.55357,4.0448,0.080356,22.307,1831.5,-0.86673,0.28891,-1.975,-1.1556,9.6653e-12,-0.98749,0,0,0.066667,-3.158e-16,0,0.66667
0.59055,0.94633,8.8582,0.66949,130.72,661.93,-15.815,5.2716,-0.40635,-21.086,3.7845e-12,-0.20317,0,0,0.066667,-1.2632e-15,0,0.66667
0.38053,0.73494,5.708,0.35241,90.254,1383.7,-5.3642,1.7881,-1.5533,-7.1522,-9.0323e-12,-0.77665,0,0,0.066667,6.3159e-16,0,0.66667
0.70252,0.079398,10.538,-0.6309,-95.751,366.91,17.729,-5.9096,-0.59369,23.639,-8.8374e-12,-0.29684,0,0,0.066667,-0,7.8425e-17,0.66667
0.49612,0.76159,7.4419,0.39239,88.575,961.83,-7.7869,2.5956,-1.4506,-10.383,3.5185e-12,-0.72532,0,0,0.066667,-0,-0,0.66667
0.63321,0.63443,9.4981,0.20165,36.13,539.35,-5.1075,1.7025,-1.8491,-6.81,-6.7946e-13,-0.92453,0,0,0.066667,1.2632e-15,0,0.66667
0.35339,0.3823,5.3009,-0.17655,-46.252,1489.7,2.4956,-0.83187,-1.884,3.3275,1.0909e-11,-0.942,0,0,0.066667,-0,-0,0.66667
0.28704,0.1526,4.3057,-0.5211,-143.29,1759.4,5.9832,-1.9944,-1.03,7.9776,-3.0272e-11,-0.51502,0,0,0.066667,-0,-0,0.66667
0.13321,0.33248,1.9981,-0.25128,-73.917,2422.6,1.3389,-0.4463,-1.769,1.7852,2.8394e-09,-0.8845,0,0,0.066667,-0,-0,0.66667
0.93708,0.22866,14.056,-0.40701,-14.714,19.813,15.256,-5.0853,-1.421,20.341,-3.4707e-07,-0.71048,0,0,0.066667,-0,-0,0.66667
0.80484,0.9553,12.073,0.68296,72.101,166.9,-21.987,7.3289,-0.33495,-29.316,-8.913e-10,-0.16747,0,0,0.066667,-0,-0,0.66667
0.93803,0.6871,14.07,0.28065,9.9713,18.734,-10.53,3.5101,-1.7308,-14.041,3.856e-07,-0.86541,0,0,0.066667,2.7632e-16,0,0.66667
0.18538,0.96154,2.7807,0.69231,200.5,2193.2,-5.1336,1.7112,-0.29939,-6.8448,6.1661e-09,-0.1497,0,0,0.066667,-1.579e-16,5.6049e-17,0.66667
0.93316,0.26448,13.997,-0.35328,-13.535,21.856,13.186,-4.3955,-1.5532,17.582,-4.6831e-07,-0.7766,0,0,0.066667,-0,-0,0.66667
0.93575,0.86991,14.036,0.55487,20.555,21.463,-20.769,6.9229,-0.91046,-27.692,-8.508e-07,-0.45523,0,0,0.066667,1.8948e-15,0,0.66667
0.28354,0.31681,4.2532,-0.27478,-75.668,1773.6,3.1165,-1.0388,-1.7349,4.1553,1.8976e-11,-0.86745,0,0,0.066667,-0,-0,0.66667
0.27463,0.91549,4.1195,0.62324,172.76,1811.3,-6.8465,2.2822,-0.61297,-9.1287,5.5489e-11,-0.30648,0,0,0.066667,6.3159e-16,0,0.66667
0.55143,0.79023,8.2715,0.43535,90.723,780.3,-9.6026,3.2009,-1.3229,-12.803,-1.35e-12,-0.66147,0,0,0.066667,-0,-0,0.66667
0.18529,0.0098651,2.7793,-0.7352,-212.97,2193.7,5.449,-1.8163,-0.081115,7.2653,-4.7137e-09,-0.040558,0,0,0.066667,-0,-0,0.66667
0.4421,0.6481,6.6315,0.22215,53.501,1152.2,-3.9285,1.3095,-1.8213,-5.238,-1.71e-12,-0.91067,0,0,0.066667,3.158e-16,0,0.66667
0.18532,0.44149,2.7798,-0.087767,-25.375,2192.9,0.65059,-0.21686,-1.9764,0.86746,-1.1586e-10,-0.9882,0,0,0.066667,-0,-0,0.66667
0.94738,0.48968,14.211,-0.015483,-0.46697,13.363,0.58673,-0.19558,-1.9939,0.78231,1.5219e-07,-0.99697,0,0,0.066667,1.1219e-15,0,0.66667
0.49382,0.18125,7.4074,-0.47812,-108.29,969.93,9.4443,-3.1481,-1.182,12.592,1.0383e-11,-0.59098,0,0,0.066667,9.4739e-16,0,0.66667
0.96392,0.863,14.459,0.5445,11.425,8.4603,-20.994,6.9981,-0.94195,-27.992,9.6298e-06,-0.47098,0,0,0.066667,-0,-0,0.66667
0.64494,0.24706,9.6741,-0.37941,-66.314,508.32,9.7879,-3.2626,-1.4863,13.051,5.5529e-12,-0.74314,0,0,0.066667,1.579e-16,0,0.66667
0.48432,0.030589,7.2647,-0.70412,-161.64,1003.5,13.641,-4.5469,-0.25015,18.187,-7.5415e-12,-0.12508,0,0,0.066667,-6.3159e-16,6.5419e-18,0.66667
0.9677,0.57131,14.515,0.10697,1.9787,5.406,-4.1404,1.3801,-1.9667,-5.5206,-6.8399e-07,-0.98334,0,0,0.066667,-0,-0,0.66667
0.14319,0.12282,2.1478,-0.56577,-166.11,2378.6,3.2405,-1.0802,-0.86472,4.3207,-1.6255e-08,-0.43236,0,0,0.066667,-2.3685e-16,0,0.66667
0.63233,0.16212,9.4849,-0.50683,-91.092,542.66,12.819,-4.2731,-1.0807,17.092,6.0281e-12,-0.54037,0,0,0.066667,-0,-0,0.66667
0.66189,0.45049,9.9283,-0.074261,-12.475,463.67,1.9661,-0.65537,-1.9752,2.6215,7.2345e-12,-0.98759,0,0,0.066667,-1.2632e-15,0,0.66667
0.43384,0.045179,6.5076,-0.68223,-166.08,1183.6,11.839,-3.9464,-0.34362,15.786,2.1866e-11,-0.17181,0,0,0.066667,6.3159e-16,0,0.66667
0.059357,0.21843,0.89036,-0.42235,-126.09,2753.3,1.0028,-0.33426,-1.3673,1.3371,-3.5904e-07,-0.68363,0,0,0.066667,9.6219e-17,0,0.66667
0.49272,0.24179,7.3908,-0.38731,-87.818,973.45,7.6334,-2.5445,-1.4604,10.178,7.478e-12,-0.73022,0,0,0.066667,-0,-0,0.66667
0.46513,0.3874,6.977,-0.16891,-39.616,1069.3,3.1426,-1.0475,-1.8972,4.1901,2.633e-12,-0.94862,0,0,0.066667,-0,-0,0.66667
0.80675,0.077218,12.101,-0.63417,-66.323,163.5,20.465,-6.8216,-0.56465,27.286,3.3262e-09,-0.28232,0,0,0.066667,1.2632e-15,0,0.66667
0.25666,0.18852,3.8499,-0.46722,-130.77,1886.6,4.7967,-1.5989,-1.2191,6.3956,2.5957e-12,-0.60953,0,0,0.066667,-0,-0,0.66667
0.39143,0.80879,5.8715,0.46318,117.5,1342,-7.2521,2.4174,-1.2463,-9.6695,-3.4777e-12,-0.62313,0,0,0.066667,-1.579e-16,0,0.66667
0.24017,0.85135,3.6026,0.52702,148.83,1956.6,-5.0631,1.6877,-1.0074,-6.7508,3.696e-11,-0.50371,0,0,0.066667,-0,-0,0.66667
0.68644,0.19003,10.297,-0.46495,-73.592,403.84,12.767,-4.2555,-1.2396,17.022,1.4813e-11,-0.61979,0,0,0.066667,-2.5264e-15,0,0.66667
0.98988,0.85641,14.848,0.53462,3.0752,2.5599,-21.168,7.0562,-0.97874,-28.224,5.3694e-05,-0.48937,0,0,0.066667,-0,-0,0.66667
0.17743,0.94361,2.6614,0.66541,193.26,2227.9,-4.7226,1.5742,-0.42118,-6.2968,-7.3548e-09,-0.21059,0,0,0.066667,-0,-0,0.66667
0.82145,0.48853,12.322,-0.017201,-1.6682,138.72,0.56518,-0.18839,-1.9928,0.75358,1.7874e-10,-0.99639,0,0,0.066667,1.2632e-15,0,0.66667
0.23099,0.85755,3.4648,0.53632,152.16,1995.8,-4.9553,1.6518,-0.97652,-6.6071,-3.0984e-10,-0.48826,0,0,0.066667,-3.158e-16,0,0.66667
0.057976,0.97748,0.86964,0.71622,214.11,2759.6,-1.6609,0.55365,-0.17303,-2.2146,1.9128e-05,-0.086514,0,0,0.066667,-0,-0,0.66667
0.13882,0.34127,2.0822,-0.23809,-69.925,2397.7,1.322,-0.44068,-1.8038,1.7627,1.161e-09,-0.9019,0,0,0.066667,2.3685e-16,0,0.66667
0.93515,0.11339,14.027,-0.57991,-21.695,21.989,21.692,-7.2307,-0.80668,28.923,1.0373e-06,-0.40334,0,0,0.066667,1.2632e-15,0,0.66667
0.88854,0.56128,13.328,0.09192,5.7517,56.244,-3.267,1.089,-1.9746,-4.356,6.1836e-09,-0.98729,0,0,0.066667,-6.3159e-16,0,0.66667
0.28926,0.57546,4.3389,0.11319,31.052,1749.8,-1.3097,0.43656,-1.9478,-1.7462,2.2517e-11,-0.97392,0,0,0.066667,-0,-0,0.66667
0.94776,0.4443,14.216,-0.083545,-2.5019,13.219,3.1672,-1.0557,-1.9709,4.223,-1.2911e-07,-0.98543,0,0,0.066667,-0,-0,0.66667
0.84993,0.76718,12.749,0.40077,33.211,100.37,-13.625,4.5417,-1.4231,-18.167,-5.9315e-09,-0.71154,0,0,0.066667,-2.2697e-15,0,0.66667
0.43465,0.48949,6.5198,-0.015766,-3.8271,1179.2,0.27411,-0.091372,-2,0.36549,1.8056e-11,-1,0,0,0.066667,-1.2632e-15,0,0.66667
0.46805,0.087219,7.0207,-0.61917,-144.94,1060.1,11.592,-3.864,-0.64597,15.456,1.0742e-11,-0.32299,0,0,0.066667,-9.4739e-16,5.2208e-17,0.66667
0.62985,0.41685,9.4478,-0.12472,-22.501,548.4,3.1422,-1.0474,-1.9408,4.1896,8.1506e-12,-0.97041,0,0,0.066667,-0,-0,0.66667
0.15803,0.44023,2.3705,-0.089652,-26.172,2312.7,0.56671,-0.1889,-1.9768,0.75562,-2.0022e-10,-0.98841,0,0,0.066667,-0,-0,0.66667
0.014782,0.88683,0.22173,0.58024,173.9,2954.5,-0.34307,0.11432,-0.81082,-0.45744,-5.025e-05,-0.40541,0,0,0.066667,-0,-0,0.66667
0.26551,0.85934,3.9827,0.53901,150.15,1849.4,-5.7246,1.9082,-0.9781,-7.6328,1.0582e-11,-0.48905,0,0,0.066667,-3.158e-16,-9.8771e-17,0.66667
0.015444,0.038171,0.23165,-0.69274,-207.71,2951.5,0.42787,-0.14258,-0.30495,0.57052,6.5948e-05,-0.15247,0,0,0.066667,-0,-0,0.66667
0.6745,0.69593,10.117,0.2939,47.912,432.35,-7.9294,2.6431,-1.6946,-10.573,2.1894e-13,-0.84732,0,0,0.066667,-0,-0,0.66667
0.55147,0.95866,8.272,0.68798,143.56,781.23,-15.176,5.0587,-0.31373,-20.235,1.0465e-11,-0.15686,0,0,0.066667,-6.3159e-16,0,0.66667
0.32165,0.38164,4.8247,-0.17753,-47.652,1617,2.2841,-0.76138,-1.8824,3.0455,3.7403e-11,-0.94118,0,0,0.066667,-0,-0,0.66667
0.7802,0.66475,11.703,0.24713,28.881,206.46,-7.7125,2.5708,-1.7903,-10.283,5.0466e-12,-0.89513,0,0,0.066667,-0,-0,0.66667
0.14579,0.21052,2.1868,-0.43423,-127.33,2366.9,2.5322,-0.84405,-1.3254,3.3762,-3.7929e-09,-0.66271,0,0,0.066667,-0,-0,0.66667
0.24488,0.48967,3.6732,-0.015494,-4.3605,1936.1,0.15177,-0.05059,-1.9948,0.20236,1.6506e-11,-0.99742,0,0,0.066667,-3.158e-16,0,0.66667
0.29231,0.29424,4.3847,-0.30865,-84.533,1737.3,3.6089,-1.203,-1.6578,4.8118,1.7573e-11,-0.82892,0,0,0.066667,-0,-0,0.66667
0.19593,0.96608,2.939,0.69912,201.63,2147.3,-5.4792,1.8264,-0.25678,-7.3056,-4.3171e-09,-0.12839,0,0,0.066667,-3.158e-16,0,0.66667
0.087939,0.69379,1.3191,0.29068,86.386,2624.7,-1.0225,0.34083,-1.6947,-1.3633,1.7132e-08,-0.84735,0,0,0.066667,-0,-0,0.66667
0.86998,0.84083,13.05,0.51125,37.132,77.059,-17.791,5.9303,-1.0675,-23.721,5.7655e-09,-0.53373,0,0,0.066667,-0,-0,0.66667
0.088189,0.71431,1.3228,0.32146,95.535,2623.6,-1.134,0.37799,-1.6283,-1.512,2.4551e-08,-0.81415,0,0,0.066667,-1.579e-16,0,0.66667
0.68371,0.98802,10.256,0.73203,116.93,411.88,-20.02,6.6733,-0.092986,-26.693,2.0428e-12,-0.046493,0,0,0.066667,6.3159e-16,0,0.66667
0.1204,0.8729,1.806,0.55935,165.23,2479.8,-2.6938,0.89794,-0.88529,-3.5918,-1.78e-07,-0.44264,0,0,0.066667,2.3685e-16,0,0.66667
0.010699,0.77678,0.16049,0.41517,124.37,2972.9,-0.17767,0.059215,-1.3838,-0.2369,-1.2918e-05,-0.69192,0,0,0.066667,1.4008e-18,0,0.66667
0.55727,0.74736,8.359,0.37104,76.581,761.8,-8.2708,2.7569,-1.507,-11.028,-5.8682e-12,-0.7535,0,0,0.066667,9.4739e-16,0,0.66667
0.90711,0.68399,13.607,0.27598,14.528,40.061,-10.014,3.3379,-1.7381,-13.352,9.1856e-09,-0.86903,0,0,0.066667,3.158e-16,0,0.66667
0.86046,0.46222,12.907,-0.056668,-4.3807,86.533,1.9504,-0.65014,-1.9961,2.6006,1.639e-09,-0.99804,0,0,0.066667,-6.3159e-16,0,0.66667
0.33845,0.13298,5.0768,-0.55053,-146.09,1549.9,7.4531,-2.4844,-0.91802,9.9374,2.3043e-11,-0.45901,0,0,0.066667,6.3159e-16,0,0.66667
0.027159,0.41957,0.40738,-0.12065,-36.1,2898.5,0.13107,-0.043691,-1.9458,0.17476,-1.6942e-06,-0.97288,0,0,0.066667,-3.9475e-17,0,0.66667
0.80086,0.91678,12.013,0.62517,67.148,172.93,-20.027,6.6756,-0.60828,-26.702,-3.7794e-09,-0.30414,0,0,0.066667,-0,-0,0.66667
0.80598,0.82866,12.09,0.49299,51.658,163.86,-15.894,5.2979,-1.1297,-21.192,7.8902e-10,-0.56484,0,0,0.066667,-1.2632e-15,0,0.66667
0.86849,0.85845,13.027,0.53768,39.484,78.886,-18.679,6.2262,-0.96594,-24.905,-2.2662e-08,-0.48297,0,0,0.066667,1.2632e-15,0,0.66667
0.66965,0.98154,10.045,0.72232,119.49,446.37,-19.348,6.4493,-0.14766,-25.797,3.2685e-12,-0.073829,0,0,0.066667,-0,7.6358e-17,0.66667
0.80778,0.31826,12.117,-0.27262,-28.282,160.1,8.8086,-2.9362,-1.7326,11.745,3.8508e-11,-0.86631,0,0,0.066667,-0,-0,0.66667
0.8975,0.81972,13.462,0.47957,27.817,49.218,-17.217,5.7389,-1.1763,-22.956,-3.4084e-08,-0.58817,0,0,0.066667,-0,-0,0.66667
0.45383,0.59213,6.8074,0.1382,32.842,1109.6,-2.5087,0.83624,-1.9419,-3.345,-1.1196e-11,-0.97097,0,0,0.066667,7.8949e-17,0,0.66667
0.55783,0.037263,8.3674,-0.6941,-143.38,761.34,15.488,-5.1625,-0.28393,20.65,5.6977e-12,-0.14196,0,0,0.066667,-1.2632e-15,-5.1488e-17,0.66667
0.50613,0.7783,7.592,0.41745,92.986,927.97,-8.4514,2.8171,-1.3757,-11.269,1.5202e-11,-0.68784,0,0,0.066667,-9.4739e-16,0,0.66667
0.69198,0.25839,10.38,-0.36242,-56.501,390.25,10.031,-3.3438,-1.53,13.375,1.4202e-12,-0.76501,0,0,0.066667,1.2632e-15,0,0.66667
0.68291,0.80952,10.244,0.46427,74.159,412.36,-12.682,4.2274,-1.2312,-16.91,5.7536e-12,-0.61558,0,0,0.066667,-1.579e-15,0,0.66667
0.52031,0.51394,7.8047,0.020906,4.5617,880.08,-0.43511,0.14504,-1.9947,-0.58015,8.6722e-12,-0.99736,0,0,0.066667,-2.5264e-15,0,0.66667
0.82847,0.8045,12.427,0.45675,42.809,129.63,-15.136,5.0454,-1.2687,-20.182,2.4811e-09,-0.63435,0,0,0.066667,-6.3159e-16,0,0.66667
0.50578,0.61833,7.5867,0.1775,39.529,928.68,-3.5909,1.197,-1.8831,-4.7879,-1.0441e-11,-0.94156,0,0,0.066667,-0,-0,0.66667
0.82486,0.461,12.373,-0.058505,-5.5757,133.72,1.9304,-0.64345,-1.9878,2.5738,5.5827e-11,-0.9939,0,0,0.066667,-1.2632e-15,0,0.66667
0.28185,0.84183,4.2277,0.51274,141.44,1781,-5.7806,1.9269,-1.0755,-7.7074,1.4657e-11,-0.53775,0,0,0.066667,-7.8949e-17,0,0.66667
0.17849,0.86814,2.6774,0.55221,160.24,2223.1,-3.9427,1.3142,-0.91008,-5.2569,7.6899e-10,-0.45504,0,0,0.066667,4.2149e-16,0,0.66667
0.96987,0.034845,14.548,-0.69773,-12.368,7.8317,27.068,-9.0228,-0.27688,36.091,7.3299e-05,-0.13844,0,0,0.066667,2.5264e-15,0,0.66667
0.74194,0.28037,11.129,-0.32945,-44.274,279.92,9.7773,-3.2591,-1.609,13.036,-3.2836e-12,-0.80448,0,0,0.066667,6.0756e-16,0,0.66667
0.25979,0.94876,3.8969,0.67314,188.24,1873.7,-6.9951,2.3317,-0.38355,-9.3267,1.8788e-10,-0.19177,0,0,0.066667,-0,-0,0.66667
0.58124,0.77911,8.7185,0.41866,82.999,688.56,-9.7337,3.2446,-1.378,-12.978,5.1417e-12,-0.68901,0,0,0.066667,-4.737e-16,0,0.66667
0.95526,0.45898,14.329,-0.06153,-1.579,9.8467,2.3511,-0.7837,-1.9898,3.1348,5.5682e-08,-0.99488,0,0,0.066667,-1.2632e-15,0,0.66667
0.080754,0.12323,1.2113,-0.56515,-168.3,2657.1,1.8255,-0.60851,-0.86711,2.434,1.1733e-07,-0.43356,0,0,0.066667,7.8949e-17,0,0.66667
0.083534,0.64099,1.253,0.21149,62.891,2644.5,-0.70667,0.23556,-1.836,-0.94223,-4.338e-08,-0.91801,0,0,0.066667,-0,-0,0.66667
0.61913,0.73643,9.287,0.35464,65.449,578.5,-8.7829,2.9276,-1.5473,-11.71,-2.2551e-12,-0.77365,0,0,0.066667,1.2632e-15,0,0.66667
0.22449,0.55256,3.3674,0.078845,22.416,2023.2,-0.70801,0.236,-1.9727,-0.94401,4.4502e-12,-0.98637,0,0,0.066667,-3.158e-16,0,0.66667
0.76518,0.56241,11.478,0.093611,11.587,233.74,-2.8652,0.95506,-1.9802,-3.8203,6.7024e-12,-0.99008,0,0,0.066667,1.3816e-16,0,0.66667
0.56815,0.94366,8.5223,0.66549,135.12,729.26,-15.124,5.0413,-0.42069,-20.165,4.1673e-12,-0.21034,0,0,0.066667,-0,-0,0.66667
0.66619,0.25035,9.9928,-0.37448,-62.321,453.36,9.9789,-3.3263,-1.4977,13.305,1.1342e-11,-0.74885,0,0,0.066667,-2.5264e-15,0,0.66667
0.10781,0.23544,1.6172,-0.39683,-117.5,2535.8,1.7114,-0.57045,-1.4451,2.2818,3.0247e-08,-0.72257,0,0,0.066667,-0,-0,0.66667
0.084283,0.89781,1.2642,0.59672,177.62,2641.3,-2.0117,0.67058,-0.72846,-2.6823,7.5283e-08,-0.36423,0,0,0.066667,-0,-0,0.66667
0.62512,0.98917,9.3768,0.73376,134.09,563.59,-18.347,6.1158,-0.096932,-24.463,7.4429e-12,-0.048466,0,0,0.066667,-0,-0,0.66667
0.40973,0.45098,6.146,-0.073524,-18.312,1271.9,1.205,-0.40167,-1.9798,1.6067,7.3476e-12,-0.98988,0,0,0.066667,-0,-0,0.66667
0.087253,0.96616,1.3088,0.69923,208.12,2628,-2.4404,0.81347,-0.25662,-3.2539,5.9043e-06,-0.12831,0,0,0.066667,-2.1102e-16,0,0.66667
0.37106,0.93628,5.566,0.65442,169.2,1421.3,-9.7132,3.2377,-0.47658,-12.951,1.6792e-11,-0.23829,0,0,0.066667,-7.1054e-16,7.2898e-17,0.66667
0.67214,0.63611,10.082,0.20417,33.468,437.99,-5.4892,1.8297,-1.8623,-7.3189,2.4181e-12,-0.93116,0,0,0.066667,-0,-0,0.66667
0.18959,0.13587,2.8438,-0.54619,-157.82,2174.7,4.142,-1.3807,-0.94261,5.5227,-5.7895e-10,-0.47131,0,0,0.066667,-0,-0,0.66667
0.89573,0.64069,13.436,0.21103,12.401,49.706,-7.561,2.5203,-1.8372,-10.081,3.7391e-08,-0.91859,0,0,0.066667,1.2632e-15,0,0.66667
0.94985,0.518,14.248,0.026995,0.77624,12.2,-1.0257,0.34188,-1.9969,-1.3675,5.8798e-08,-0.99847,0,0,0.066667,-0,-0,0.66667
0.96157,0.58244,14.424,0.12366,2.7263,7.4744,-4.7565,1.5855,-1.9392,-6.342,2.0175e-07,-0.9696,0,0,0.066667,-0,-0,0.66667
0.73008,0.1254,10.951,-0.5619,-78.575,305.62,16.409,-5.4698,-0.87605,21.879,-5.2029e-12,-0.43802,0,0,0.066667,-0,-0,0.66667
0.40629,0.42644,6.0943,-0.11034,-27.575,1284.9,1.7932,-0.59774,-1.9683,2.3909,1.8807e-13,-0.98416,0,0,0.066667,-0,-0,0.66667
0.74375,0.13895,11.156,-0.54158,-72.448,277.15,16.112,-5.3707,-0.9512,21.483,-9.8748e-12,-0.4756,0,0,0.066667,-0,-0,0.66667
0.28799,0.83096,4.3198,0.49643,136.42,1755.5,-5.7187,1.9062,-1.1175,-7.6249,2.7191e-11,-0.55874,0,0,0.066667,-0,-0,0.66667
0.31442,0.091493,4.7163,-0.61276,-165.54,1647.1,7.7065,-2.5688,-0.66998,10.275,2.4253e-11,-0.33499,0,0,0.066667,-8.6844e-16,0,0.66667
0.6059,0.17256,9.0884,-0.49116,-93.091,616.46,11.904,-3.9679,-1.1412,15.872,8.1624e-12,-0.57062,0,0,0.066667,-0,-0,0.66667
0.59485,0.28744,8.9227,-0.31884,-61.654,647.92,7.5865,-2.5288,-1.646,10.115,5.576e-12,-0.82301,0,0,0.066667,-0,-0,0.66667
0.87866,0.75332,13.18,0.37999,25.821,66.998,-13.355,4.4517,-1.4862,-17.807,-2.233e-08,-0.74309,0,0,0.066667,-0,-0,0.66667
0.2546,0.31942,3.819,-0.27088,-75.858,1895,2.7586,-0.91953,-1.7361,3.6781,1.7179e-11,-0.86803,0,0,0.066667,-0,-0,0.66667
0.76619,0.078077,11.493,-0.63289,-78.3,233.85,19.396,-6.4655,-0.58494,25.862,2.8374e-10,-0.29247,0,0,0.066667,1.2632e-15,0,0.66667
0.94101,0.51154,14.115,0.017305,0.58429,16.604,-0.65136,0.21712,-1.9979,-0.86849,-2.9277e-07,-0.99896,0,0,0.066667,-0,-0,0.66667
0.0010329,0.5002,0.015494,0.00029469,0.088233,3016.6,-1.2178e-05,2.7641e-05,-2.0088,-4.4465e-06,3.5373e-05,-1.0044,0,0,0.066667,-0,-0,0.66667
0.47609,0.0022496,7.1413,-0.74663,-173.21,1032.4,14.218,-4.7395,-0.012603,18.958,3.4968e-12,-0.0063015,0,0,0.066667,-0,-0,0.66667
0.65704,0.39292,9.8556,-0.16062,-27.295,476.19,4.2214,-1.4071,-1.9164,5.6286,7.7716e-12,-0.95821,0,0,0.066667,-1.2632e-15,0,0.66667
0.84332,0.68375,12.65,0.27563,23.742,108.45,-9.2978,3.0993,-1.7406,-12.397,-6.6653e-11,-0.87028,0,0,0.066667,-1.2632e-15,0,0.66667
0.18374,0.3694,2.7561,-0.19589,-56.677,2199.9,1.4397,-0.47991,-1.8625,1.9196,1.744e-11,-0.93126,0,0,0.066667,7.8949e-17,0,0.66667
0.85616,0.21676,12.842,-0.42486,-33.862,92.728,14.55,-4.85,-1.3592,19.4,9.4879e-11,-0.67958,0,0,0.066667,-1.8948e-15,0,0.66667
0.36437,0.2435,5.4655,-0.38475,-99.937,1446.8,5.6077,-1.8692,-1.4699,7.4769,4.4373e-12,-0.73497,0,0,0.066667,-3.158e-16,0,0.66667
0.89227,0.051908,13.384,-0.67214,-41.027,55.323,23.989,-7.9964,-0.39861,31.986,-7.4534e-07,-0.19931,0,0,0.066667,-0,-0,0.66667
0.027712,0.30475,0.41568,-0.29288,-87.651,2896,0.32465,-0.10822,-1.6943,0.43286,-5.0382e-06,-0.84713,0,0,0.066667,-1.9737e-17,0,0.66667
0.08539,0.79016,1.2809,0.43524,129.45,2636.2,-1.4866,0.49554,-1.3202,-1.9821,-2.5267e-08,-0.66009,0,0,0.066667,-0,-0,0.66667
0.98141,0.81811,14.721,0.47717,5.107,3.4304,-18.732,6.244,-1.1915,-24.976,-9.4794e-06,-0.59574,0,0,0.066667,-0,-0,0.66667
0.6095,0.99872,9.1425,0.74808,141.05,607.45,-18.238,6.0794,-0.022724,-24.318,2.1352e-11,-0.011362,0,0,0.066667,-2.2106e-15,0,0.66667
0.41763,0.48497,6.2645,-0.022552,-5.5725,1242.3,0.37674,-0.12558,-1.9953,0.50232,2.5146e-11,-0.99767,0,0,0.066667,-0,-0,0.66667
0.16921,0.92122,2.5382,0.63183,184.01,2263.9,-4.2766,1.4255,-0.58188,-5.7021,3.3876e-08,-0.29094,0,0,0.066667,-0,-0,0.66667
0.6499,0.91786,9.7485,0.62678,108.5,496.34,-16.294,5.4313,-0.59725,-21.725,-4.2562e-12,-0.29863,0,0,0.066667,1.2632e-15,0,0.66667
0.036975,0.71269,0.55463,0.31903,95.425,2854.2,-0.47184,0.15728,-1.6334,-0.62913,-1.2947e-06,-0.8167,0,0,0.066667,-0,-0,0.66667
0.31161,0.23791,4.6742,-0.39314,-106.32,1658.1,4.9003,-1.6334,-1.4583,6.5337,2.0048e-11,-0.72914,0,0,0.066667,-0,-0,0.66667
0.32348,0.62892,4.8522,0.19338,51.839,1609.6,-2.5022,0.83408,-1.8643,-3.3363,8.1177e-12,-0.93216,0,0,0.066667,-0,-0,0.66667
0.60744,0.66326,9.1116,0.2449,46.232,611.3,-5.9504,1.9835,-1.791,-7.9339,1.7848e-12,-0.89549,0,0,0.066667,-0,-0,0.66667
0.65083,0.04386,9.7625,-0.68421,-118.25,494.23,17.812,-5.9374,-0.3306,23.75,1.0097e-11,-0.1653,0,0,0.066667,-0,-0,0.66667
0.84605,0.47027,12.691,-0.044588,-3.7755,104.46,1.509,-0.50299,-1.9968,2.0119,-1.0576e-09,-0.99838,0,0,0.066667,-2.5264e-15,0,0.66667
0.92758,0.47058,13.914,-0.044137,-1.8227,24.581,1.6376,-0.54588,-1.9891,2.1835,-2.6903e-09,-0.99453,0,0,0.066667,-0,-0,0.66667
0.66046,0.88105,9.9069,0.57157,96.535,468.73,-15.1,5.0333,-0.83628,-20.133,-3.2596e-13,-0.41814,0,0,0.066667,-0,-0,0.66667
0.57817,0.20679,8.6726,-0.43982,-87.67,697.84,10.172,-3.3906,-1.3237,13.562,4.7766e-12,-0.66186,0,0,0.066667,6.3159e-16,0,0.66667
0.39872,0.31854,5.9807,-0.27219,-68.538,1313.8,4.341,-1.447,-1.7306,5.7881,1.6561e-11,-0.86529,0,0,0.066667,-0,-0,0.66667
0.96661,0.9752,14.499,0.7128,14,8.9442,-27.56,9.1867,-0.1971,-36.747,2.4797e-06,-0.098548,0,0,0.066667,-0,-0,0.66667
0.15408,0.1192,2.3112,-0.5712,-167.15,2330.4,3.5204,-1.1735,-0.84349,4.6939,2.5301e-08,-0.42174,0,0,0.066667,-1.579e-16,-1.0009e-16,0.66667
0.89509,0.2356,13.426,-0.39661,-23.489,50.966,14.2,-4.7333,-1.4374,18.933,-4.8996e-08,-0.71871,0,0,0.066667,-0,-0,0.66667
0.31101,0.59706,4.6652,0.1456,39.372,1660.3,-1.8113,0.60377,-1.931,-2.4151,-2.2375e-12,-0.96551,0,0,0.066667,-0,-0,0.66667
0.54849,0.67908,8.2273,0.26862,56.207,789.17,-5.8935,1.9645,-1.7487,-7.858,2.7298e-12,-0.87433,0,0,0.066667,-0,-0,0.66667
0.68207,0.7577,10.231,0.38655,61.851,414.1,-10.546,3.5154,-1.4642,-14.061,3.4985e-12,-0.7321,0,0,0.066667,-0,-0,0.66667
0.23647,0.16106,3.547,-0.5084,-143.83,1972.4,4.8089,-1.603,-1.0849,6.4118,6.7867e-11,-0.54247,0,0,0.066667,-6.3159e-16,0,0.66667
0.16774,0.67084,2.5161,0.25626,74.584,2270,-1.7194,0.57313,-1.7639,-2.2925,3.7344e-10,-0.88194,0,0,0.066667,-0,-0,0.66667
0.50848,0.47845,7.6272,-0.032325,-7.1713,919.48,0.65747,-0.21916,-1.99,0.87662,7.7954e-12,-0.995,0,0,0.066667,-0,-0,0.66667
0.79186,0.48576,11.878,-0.021359,-2.3773,185.84,0.67654,-0.22551,-1.9941,0.90206,1.6582e-11,-0.99704,0,0,0.066667,-1.2632e-15,0,0.66667
0.69241,0.62988,10.386,0.19482,30.319,388.8,-5.3959,1.7986,-1.8617,-7.1945,7.3515e-12,-0.93085,0,0,0.066667,-0,-0,0.66667
0.11897,0.57724,1.7846,0.11586,34.201,2485.9,-0.55139,0.1838,-1.9466,-0.73519,1.7179e-09,-0.97328,0,0,0.066667,-0,-0,0.66667
0.90074,0.34296,13.511,-0.23556,-13.208,45.31,8.4871,-2.829,-1.7992,11.316,-4.3822e-08,-0.89959,0,0,0.066667,-4.737e-16,0,0.66667
0.47974,0.87081,7.1961,0.55622,128.32,1018.8,-10.674,3.5578,-0.89726,-14.231,-2.3936e-12,-0.44863,0,0,0.066667,1.0736e-15,0,0.66667
0.94668,0.024201,14.2,-0.7137,-22.186,16.916,27.026,-9.0086,-0.1833,36.034,1.5454e-05,-0.091652,0,0,0.066667,-0,-0,0.66667
0.55343,0.97461,8.3015,0.71192,148.12,775.17,-15.76,5.2533,-0.1924,-21.013,1.7382e-12,-0.096198,0,0,0.066667,-0,-0,0.66667
0.084802,0.096035,1.272,-0.60595,-180.35,2639,2.0554,-0.68514,-0.68945,2.7406,-1.8935e-07,-0.34473,0,0,0.066667,3.158e-16,0,0.66667
0.20246,0.23104,3.0369,-0.40343,-115.9,2118.5,3.2672,-1.0891,-1.43,4.3563,-1.2682e-10,-0.71502,0,0,0.066667,3.158e-16,0,0.66667
0.85424,0.84177,12.814,0.51266,41.409,95.558,-17.517,5.8391,-1.0623,-23.356,-4.9493e-09,-0.53116,0,0,0.066667,1.579e-16,0,0.66667
0.70593,0.004859,10.589,-0.74271,-111.77,359.85,20.972,-6.9907,-0.040351,27.963,-1.6129e-12,-0.020176,0,0,0.066667,-0,-0,0.66667
0.89494,0.46809,13.424,-0.047868,-2.8311,50.176,1.7135,-0.57118,-1.9904,2.2847,9.3374e-09,-0.99521,0,0,0.066667,-1.579e-16,0,0.66667
0.32915,0.75698,4.9372,0.38547,102.95,1586.9,-5.0751,1.6917,-1.4794,-6.7668,9.5639e-12,-0.73968,0,0,0.066667,-0,-0,0.66667
0.528,0.79567,7.92,0.44351,95.792,855.51,-9.367,3.1223,-1.3002,-12.489,-6.3514e-12,-0.6501,0,0,0.066667,-0,-0,0.66667
0.6504,0.75362,9.756,0.38043,65.686,493.96,-9.8973,3.2991,-1.4809,-13.196,4.4569e-12,-0.74045,0,0,0.066667,-0,-0,0.66667
0.59429,0.13512,8.9144,-0.54731,-106.05,650.34,13.011,-4.3369,-0.94432,17.347,5.4916e-12,-0.47216,0,0,0.066667,-0,-0,0.66667
0.23146,0.73631,3.4719,0.35447,100.48,1993.5,-3.2819,1.094,-1.5538,-4.3758,4.751e-11,-0.7769,0,0,0.066667,-0,-0,0.66667
0.42682,0.53126,6.4023,0.046883,11.475,1208.1,-0.80043,0.26681,-1.9897,-1.0672,6.2101e-12,-0.99484,0,0,0.066667,-0,-0,0.66667
0.24811,0.18445,3.7217,-0.47333,-133.09,1922.8,4.6976,-1.5659,-1.2084,6.2634,5.017e-11,-0.60418,0,0,0.066667,7.3456e-17,0,0.66667
0.84561,0.17353,12.684,-0.4897,-41.696,106.37,16.564,-5.5213,-1.1513,22.085,6.0598e-09,-0.57565,0,0,0.066667,-0,-0,0.66667
0.98668,0.11002,14.8,-0.58498,-4.5111,3.3289,23.087,-7.6958,-0.78567,30.783,-7.5138e-05,-0.39284,0,0,0.066667,-0,-0,0.66667
0.066571,0.30555,0.99856,-0.29168,-86.971,2720.7,0.77669,-0.2589,-1.6956,1.0356,4.4759e-07,-0.84778,0,0,0.066667,-1.1842e-16,0,0.66667
0.71393,0.62743,10.709,0.19115,28.013,339.4,-5.4588,1.8196,-1.8673,-7.2784,5.1545e-12,-0.93366,0,0,0.066667,-2.5264e-15,0,0.66667
0.33012,0.37162,4.9517,-0.19257,-51.371,1582.8,2.5429,-0.84762,-1.8727,3.3905,3.559e-11,-0.93634,0,0,0.066667,-1.579e-16,0,0.66667
0.62544,0.072902,9.3815,-0.64065,-116.91,562.19,16.027,-5.3424,-0.55054,21.37,1.4833e-12,-0.27527,0,0,0.066667,-0,-0,0.66667
0.25813,0.57542,3.8719,0.11313,31.614,1880,-1.1681,0.38937,-1.9479,-1.5575,8.5418e-12,-0.97395,0,0,0.066667,-0,-0,0.66667
0.65101,0.80118,9.7651,0.45176,77.922,492.62,-11.764,3.9214,-1.2698,-15.685,2.0473e-12,-0.63489,0,0,0.066667,-6.3159e-16,0,0.66667
0.37115,0.73905,5.5672,0.35858,92.594,1420.2,-5.3234,1.7745,-1.541,-7.0979,2.5418e-11,-0.77051,0,0,0.066667,-3.158e-16,0,0.66667
0.29482,0.13208,4.4223,-0.55189,-151.03,1727.3,6.5083,-2.1694,-0.92085,8.6777,5.6688e-12,-0.46042,0,0,0.066667,-0,-4.7241e-17,0.66667
0.91176,0.66366,13.676,0.24549,12.296,36.246,-8.9532,2.9844,-1.7811,-11.938,-5.3671e-09,-0.89055,0,0,0.066667,-0,-0,0.66667
0.9425,0.05954,14.137,-0.66069,-22.052,18.558,24.908,-8.3026,-0.44479,33.211,2.2117e-05,-0.22239,0,0,0.066667,5.9483e-16,0,0.66667
0.61355,0.56185,9.2033,0.092771,17.301,593.72,-2.2768,0.75893,-1.9683,-3.0357,1.2807e-11,-0.98413,0,0,0.066667,-1.3027e-15,0,0.66667
0.21447,0.81936,3.217,0.47905,136.94,2066.7,-4.1096,1.3699,-1.1817,-5.4795,2.219e-10,-0.59083,0,0,0.066667,-0,-0,0.66667
0.93942,0.099735,14.091,-0.6004,-21.037,19.726,22.561,-7.5203,-0.7227,30.081,8.5821e-06,-0.36135,0,0,0.066667,2.5264e-15,0,0.66667
0.75045,0.25306,11.257,-0.3704,-48.376,262.91,11.119,-3.7063,-1.5229,14.825,-2.3218e-11,-0.76143,0,0,0.066667,2.5264e-15,0,0.66667
0.75109,0.39933,11.266,-0.151,-19.66,261.07,4.5367,-1.5122,-1.9263,6.0489,1.6787e-12,-0.96317,0,0,0.066667,-6.3159e-16,0,0.66667
0.21172,0.16181,3.1758,-0.50729,-145.2,2078.6,4.2962,-1.4321,-1.0792,5.7282,-5.9062e-10,-0.53961,0,0,0.066667,-6.3159e-16,0,0.66667
0.83016,0.75935,12.452,0.38903,36.112,126.91,-12.918,4.306,-1.4655,-17.224,9.5731e-10,-0.73276,0,0,0.066667,-0,-0,0.66667
0.2401,0.054716,3.6014,-0.66793,-188.75,1957.2,6.4146,-2.1382,-0.40885,8.5528,1.9961e-10,-0.20442,0,0,0.066667,-1.5733e-17,0,0.66667
0.63162,0.51658,9.4743,0.024872,4.4702,543.51,-0.62837,0.20946,-1.9916,-0.83783,3.6397e-12,-0.99578,0,0,0.066667,-0,-0,0.66667
0.71074,0.039451,10.661,-0.69082,-102.49,348.62,19.64,-6.5466,-0.29688,26.186,4.8157e-12,-0.14844,0,0,0.066667,1.2632e-15,0,0.66667
0.74238,0.0051089,11.136,-0.74234,-99.954,281.2,22.044,-7.348,-0.034775,29.392,-1.7375e-11,-0.017387,0,0,0.066667,-0,-0,0.66667
0.39026,0.51603,5.854,0.024048,6.1017,1345.9,-0.37541,0.12514,-2.0079,-0.50054,1.7933e-11,-1.004,0,0,0.066667,-1.2632e-15,0,0.66667
0.75983,0.1383,11.397,-0.54255,-68.644,245.39,16.49,-5.4966,-0.94796,21.986,4.0606e-11,-0.47398,0,0,0.066667,-0,-0,0.66667
0.90294,0.30782,13.544,-0.28827,-15.83,43.588,10.412,-3.4705,-1.7048,13.882,-4.5603e-08,-0.85239,0,0,0.066667,-6.3159e-16,0,0.66667
0.58742,0.1235,8.8113,-0.56475,-110.82,670.67,13.27,-4.4232,-0.86138,17.693,1.3298e-11,-0.43069,0,0,0.066667,-7.8949e-16,0,0.66667
0.09041,0.72567,1.3561,0.3385,100.56,2613.7,-1.2241,0.40805,-1.5925,-1.6322,1.702e-08,-0.79623,0,0,0.066667,-0,-0,0.66667
0.12898,0.73047,1.9346,0.3457,101.83,2441.4,-1.7835,0.59449,-1.5729,-2.378,-2.6668e-09,-0.78647,0,0,0.066667,-0,-0,0.66667
0.10526,0.92111,1.5789,0.63166,187.29,2547.4,-2.6596,0.88654,-0.57879,-3.5461,5.1876e-08,-0.28939,0,0,0.066667,-0,-0,0.66667
0.17273,0.0034784,2.5909,-0.74478,-216.76,2248.7,5.1458,-1.7153,-0.036622,6.861,6.8857e-10,-0.018311,0,0,0.066667,-0,-0,0.66667
0.12643,0.37235,1.8965,-0.19148,-56.422,2452.7,0.96837,-0.32279,-1.8764,1.2912,1.5097e-10,-0.93818,0,0,0.066667,-3.9475e-17,0,0.66667
0.7783,0.32348,11.675,-0.26478,-31.181,209.91,8.243,-2.7477,-1.7513,10.991,-6.2714e-12,-0.87565,0,0,0.066667,-0,-0,0.66667
0.039412,0.10507,0.59117,-0.59239,-177.31,2843.2,0.93389,-0.31128,-0.74575,1.2452,2.9436e-05,-0.37288,0,0,0.066667,-0,-0,0.66667
0.24156,0.083162,3.6234,-0.62526,-176.52,1950.9,6.0414,-2.0138,-0.60359,8.0553,-1.4871e-11,-0.3018,0,0,0.066667,3.158e-16,0,0.66667
0.87907,0.67981,13.186,0.26972,18.25,66.155,-9.4841,3.1614,-1.7393,-12.645,-1.021e-08,-0.86966,0,0,0.066667,-0,-0,0.66667
0.97352,0.082767,14.603,-0.62585,-9.7013,6.2323,24.371,-8.1236,-0.60359,32.495,8.595e-05,-0.3018,0,0,0.066667,-1.2632e-15,0,0.66667
0.60542,0.22161,9.0813,-0.41759,-79.19,617.55,10.113,-3.3709,-1.3789,13.484,6.0769e-12,-0.68946,0,0,0.066667,-0,-0,0.66667
0.97624,0.70405,14.644,0.30608,4.1631,3.6352,-11.952,3.9841,-1.6603,-15.936,-6.5356e-06,-0.83013,0,0,0.066667,-2.4193e-15,0,0.66667
0.043452,0.4648,0.65177,-0.052801,-15.78,2824.9,0.091771,-0.030591,-1.9901,0.12236,-2.0818e-07,-0.99507,0,0,0.066667,3.9475e-17,0,0.66667
0.94857,0.022026,14.229,-0.71696,-21.518,16.041,27.204,-9.0679,-0.1691,36.271,7.0295e-06,-0.084551,0,0,0.066667,-0,1.0492e-16,0.66667
0.3113,0.94095,4.6694,0.66142,179.11,1660,-8.2359,2.7453,-0.45198,-10.981,-1.3741e-11,-0.22599,0,0,0.066667,-0,3.1005e-17,0.66667
0.79897,0.10573,11.985,-0.5914,-64.032,175.8,18.901,-6.3002,-0.75963,25.201,-6.8496e-10,-0.37982,0,0,0.066667,1.2632e-15,0,0.66667
0.81063,0.70618,12.159,0.30926,31.662,155.73,-10.028,3.3426,-1.6639,-13.371,6.6626e-11,-0.83196,0,0,0.066667,1.2632e-15,0,0.66667
0.86,0.018908,12.9,-0.72164,-56.343,90.046,24.824,-8.2748,-0.15731,33.099,-1.5648e-07,-0.078655,0,0,0.066667,-0,-0,0.66667
0.45855,0.92955,6.8783,0.64433,152.55,1093.9,-11.818,3.9394,-0.51934,-15.758,2.0909e-11,-0.25967,0,0,0.066667,-6.3159e-16,0,0.66667
0.93064,0.47833,13.96,-0.032503,-1.2867,22.626,1.21,-0.40332,-1.9901,1.6133,-7.3144e-08,-0.99505,0,0,0.066667,-0,-0,0.66667
0.25789,0.0080365,3.8684,-0.73795,-206.65,1881.9,7.6124,-2.5375,-0.057507,10.15,3.0244e-11,-0.028754,0,0,0.066667,-0,-0,0.66667
0.93445,0.98795,14.017,0.73192,27.824,23.646,-27.358,9.1192,-0.095469,-36.477,4.9287e-07,-0.047735,0,0,0.066667,1.2632e-15,0,0.66667
0.61912,0.65454,9.2868,0.2318,42.763,578.25,-5.7405,1.9135,-1.8048,-7.6541,-1.4699e-12,-0.90238,0,0,0.066667,3.158e-16,0,0.66667
0.98544,0.82198,14.782,0.48298,4.0221,2.7903,-19.038,6.346,-1.1778,-25.384,1.6267e-05,-0.5889,0,0,0.066667,-0,-0,0.66667
0.032644,0.10689,0.48966,-0.58967,-176.58,2873.8,0.76998,-0.25667,-0.76947,1.0266,-1.1312e-05,-0.38474,0,0,0.066667,-0,-0,0.66667
0.72517,0.34428,10.877,-0.23358,-33.102,314.86,6.7755,-2.2585,-1.8015,9.034,9.5608e-12,-0.90076,0,0,0.066667,-2.5264e-15,0,0.66667
0.56555,0.20203,8.4833,-0.44696,-91.032,736.33,10.111,-3.3704,-1.2898,13.482,7.4403e-12,-0.64491,0,0,0.066667,-0,-0,0.66667
0.49242,0.65104,7.3864,0.22656,51.368,974.15,-4.4626,1.4875,-1.8116,-5.9502,4.845e-12,-0.9058,0,0,0.066667,-9.4739e-16,0,0.66667
0.25922,0.49867,3.8883,-0.0020014,-0.55891,1875.4,0.020752,-0.0069173,-1.9953,0.027669,5.3666e-11,-0.99767,0,0,0.066667,-1.1842e-16,0,0.66667
0.32683,0.52068,4.9025,0.031027,8.2957,1595.9,-0.40562,0.13521,-2.0028,-0.54083,8.4992e-12,-1.0014,0,0,0.066667,-0,-0,0.66667
0.24946,0.52909,3.7419,0.04363,12.249,1916.7,-0.43536,0.14512,-2.0037,-0.58048,1.1807e-11,-1.0019,0,0,0.066667,-1.579e-16,0,0.66667
0.21927,0.23406,3.289,-0.39891,-113.75,2045.9,3.4987,-1.1662,-1.4435,4.6649,9.4955e-11,-0.72176,0,0,0.066667,-0,-0,0.66667
0.79966,0.25893,11.995,-0.3616,-38.95,173.5,11.566,-3.8554,-1.5363,15.422,2.3942e-10,-0.76816,0,0,0.066667,-0,-0,0.66667
0.5024,0.67891,7.5359,0.26836,60.051,940.24,-5.3929,1.7976,-1.7464,-7.1905,-6.8572e-12,-0.87321,0,0,0.066667,6.3159e-16,0,0.66667
0.08319,0.23104,1.2478,-0.40344,-120.03,2646.1,1.3425,-0.4475,-1.4169,1.79,9.888e-09,-0.70847,0,0,0.066667,-0,-0,0.66667
0.77698,0.10713,11.655,-0.5893,-69.929,213.71,18.315,-6.105,-0.76239,24.42,-1.6109e-10,-0.3812,0,0,0.066667,1.2632e-15,0,0.66667
0.53365,0.54138,8.0047,0.062073,13.283,836.46,-1.325,0.44167,-1.9886,-1.7667,8.2011e-12,-0.99431,0,0,0.066667,-0,-0,0.66667
0.73939,0.45409,11.091,-0.068865,-9.3252,284.64,2.0367,-0.67891,-1.9788,2.7156,-3.2028e-12,-0.98941,0,0,0.066667,-0,-0,0.66667
0.51539,0.29858,7.7309,-0.30214,-66.416,896.69,6.2287,-2.0762,-1.686,8.305,3.0003e-12,-0.84301,0,0,0.066667,-0,-0,0.66667
0.39995,0.87552,5.9992,0.56327,141.81,1309.8,-9.0112,3.0037,-0.86751,-12.015,1.5676e-11,-0.43376,0,0,0.066667,-0,-0,0.66667
0.98625,0.67703,14.794,0.26555,2.0407,1.6029,-10.476,3.4919,-1.7534,-13.968,-3.2031e-08,-0.87669,0,0,0.066667,-1.2632e-15,0,0.66667
0.028243,0.26881,0.42364,-0.34679,-103.79,2893.6,0.39177,-0.13059,-1.5727,0.52236,-6.8073e-06,-0.78636,0,0,0.066667,-0,-0,0.66667
0.93276,0.78051,13.991,0.42076,16.235,22.417,-15.699,5.233,-1.3682,-20.932,4.4535e-07,-0.68412,0,0,0.066667,1.5e-15,0,0.66667
0.93085,0.95752,13.963,0.68628,27.422,25.411,-25.553,8.5177,-0.31929,-34.071,8.5434e-06,-0.15965,0,0,0.066667,-0,-0,0.66667
0.39092,0.035116,5.8638,-0.69733,-177.17,1344.7,10.904,-3.6346,-0.28231,14.539,1.4617e-11,-0.14116,0,0,0.066667,-0,-0,0.66667
0.21446,0.23879,3.217,-0.39182,-111.97,2066.6,3.3613,-1.1204,-1.4513,4.4817,1.3889e-10,-0.72567,0,0,0.066667,-3.158e-16,0,0.66667
0.61921,0.54579,9.2882,0.068688,12.666,577.78,-1.7013,0.5671,-1.9778,-2.2684,1.0075e-11,-0.9889,0,0,0.066667,-0,-0,0.66667
0.17797,0.027285,2.6696,-0.70907,-205.94,2225.6,5.0478,-1.6826,-0.20748,6.7304,-8.3345e-09,-0.10374,0,0,0.066667,-1.579e-16,0,0.66667
0.80321,0.82878,12.048,0.49317,52.338,168.32,-15.845,5.2815,-1.1292,-21.126,1.1952e-09,-0.56462,0,0,0.066667,-0,-0,0.66667
0.25393,0.60618,3.809,0.15928,44.613,1897.8,-1.6178,0.53928,-1.9077,-2.1571,2.2607e-11,-0.95385,0,0,0.066667,-0,-0,0.66667
0.29081,0.30107,4.3621,-0.2984,-81.802,1743.5,3.471,-1.157,-1.6778,4.628,1.0401e-11,-0.83889,0,0,0.066667,-3.158e-16,0,0.66667
0.91592,0.45719,13.739,-0.064211,-3.0661,32.736,2.3525,-0.78415,-1.9798,3.1366,-3.0556e-08,-0.98991,0,0,0.066667,1.2632e-15,0,0.66667
0.90292,0.17205,13.544,-0.49192,-27.1,44.56,17.766,-5.9221,-1.139,23.689,-6.863e-08,-0.56948,0,0,0.066667,-1.0693e-15,0,0.66667
0.53538,0.76354,8.0307,0.39531,84.434,831.4,-8.4656,2.8219,-1.4418,-11.288,1.1919e-11,-0.7209,0,0,0.066667,-0,-0,0.66667
0.86284,0.96779,12.943,0.70169,53.735,86.535,-24.218,8.0726,-0.24988,-32.29,3.8565e-07,-0.12494,0,0,0.066667,1.3421e-15,0,0.66667
0.35253,0.057412,5.288,-0.66388,-174.33,1494.1,9.3616,-3.1205,-0.42731,12.482,2.4034e-12,-0.21365,0,0,0.066667,3.158e-16,0,0.66667
0.99788,0.27712,14.968,-0.33433,-0.26761,0.80891,13.345,-4.4483,-1.6066,17.793,-3.1082e-06,-0.80329,0,0,0.066667,-3.158e-16,-9.5693e-17,0.66667
0.43369,0.56475,6.5053,0.097129,23.602,1182.8,-1.685,0.56165,-1.9658,-2.2466,5.0704e-12,-0.98292,0,0,0.066667,-0,-0,0.66667
0.29481,0.87567,4.4222,0.5635,154.21,1727.4,-6.6451,2.215,-0.87581,-8.8601,1.5743e-11,-0.4379,0,0,0.066667,-0,-0,0.66667
0.041574,0.025527,0.62361,-0.71171,-213.1,2833.5,1.1836,-0.39449,-0.19493,1.5781,5.1276e-05,-0.097467,0,0,0.066667,-0,-0,0.66667
0.98971,0.39489,14.846,-0.15766,-0.88073,0.85762,6.2415,-2.0805,-1.9069,8.322,-5.8862e-07,-0.95346,0,0,0.066667,1.2632e-15,0,0.66667
0.46489,0.39844,6.9733,-0.15234,-35.741,1070.2,2.8329,-0.94431,-1.9159,3.7772,6.2137e-12,-0.95796,0,0,0.066667,3.158e-16,0,0.66667
0.73459,0.069634,11.019,-0.64555,-89.062,296.64,18.968,-6.3228,-0.52945,25.291,9.029e-11,-0.26473,0,0,0.066667,-0,-0,0.66667
0.64081,0.48597,9.6121,-0.021039,-3.7077,518.71,0.53928,-0.17976,-2.0092,0.71904,9.6064e-12,-1.0046,0,0,0.066667,-1.2632e-15,0,0.66667
0.72309,0.824,10.846,0.486,69.402,320.22,-14.057,4.6857,-1.1572,-18.743,1.0594e-11,-0.57862,0,0,0.066667,1.2632e-15,0,0.66667
0.051111,0.13883,0.76666,-0.54175,-161.95,2790.5,1.1076,-0.36919,-0.95364,1.4768,-8.2777e-08,-0.47682,0,0,0.066667,-0,-0,0.66667
0.92005,0.70973,13.801,0.3146,14.338,30.307,-11.578,3.8593,-1.6525,-15.437,1.0575e-07,-0.82623,0,0,0.066667,-6.3159e-16,0,0.66667
0.92684,0.90289,13.903,0.60434,25.433,27.308,-22.405,7.4683,-0.69824,-29.873,3.1362e-06,-0.34912,0,0,0.066667,1.8948e-15,0,0.66667
0.552,0.351,8.2799,-0.2235,-46.502,778.01,4.9349,-1.645,-1.8184,6.5799,2.1304e-11,-0.90919,0,0,0.066667,-1.2632e-15,0,0.66667
0.96392,0.17268,14.459,-0.49098,-10.274,8.1048,18.93,-6.3102,-1.1389,25.241,-5.7006e-06,-0.56945,0,0,0.066667,-1.2632e-15,0,0.66667
0.28096,0.26945,4.2143,-0.34583,-95.4,1784.5,3.8865,-1.2955,-1.5852,5.182,5.6077e-12,-0.79258,0,0,0.066667,3.158e-16,0,0.66667
0.60215,0.10684,9.0322,-0.58975,-112.64,627.68,14.205,-4.7349,-0.75685,18.939,7.4891e-12,-0.37842,0,0,0.066667,-0,-0,0.66667
0.39646,0.74668,5.9469,0.37002,93.395,1322.6,-5.868,1.956,-1.5087,-7.824,7.9003e-12,-0.75437,0,0,0.066667,-3.158e-16,0,0.66667
0.62802,0.93906,9.4203,0.6586,119.56,555.17,-16.545,5.5149,-0.45937,-22.059,9.2566e-12,-0.22968,0,0,0.066667,-0,-0,0.66667
0.30063,0.61927,4.5095,0.1789,48.721,1702.8,-2.1513,0.71711,-1.8851,-2.8684,5.6755e-12,-0.94257,0,0,0.066667,4.737e-16,0,0.66667
0.81936,0.65098,12.29,0.22647,22.209,142.12,-7.4225,2.4742,-1.812,-9.8966,4.508e-11,-0.90599,0,0,0.066667,-0,-0,0.66667
0.069786,0.25627,1.0468,-0.36559,-108.98,2706.3,1.0205,-0.34017,-1.5188,1.3607,4.5214e-07,-0.7594,0,0,0.066667,1.579e-16,0,0.66667
0.041878,0.59076,0.62816,0.13614,40.695,2832,-0.22805,0.076018,-1.9309,-0.30407,-4.094e-07,-0.96546,0,0,0.066667,-8.8818e-17,0,0.66667
0.049396,0.098127,0.74095,-0.60281,-180.28,2798.2,1.1911,-0.39702,-0.71058,1.5881,4.137e-06,-0.35529,0,0,0.066667,-0,-0,0.66667
0.15046,0.30816,2.2568,-0.28776,-84.23,2346.2,1.7318,-0.57726,-1.701,2.3091,-9.8092e-10,-0.85051,0,0,0.066667,-1.579e-16,0,0.66667
0.39535,0.42659,5.9303,-0.11012,-27.81,1326.5,1.7415,-0.58048,-1.9532,2.3219,1.0719e-12,-0.97661,0,0,0.066667,-0,-0,0.66667
0.95539,0.83906,14.331,0.50859,13.149,11.417,-19.436,6.4787,-1.0837,-25.915,1.0734e-05,-0.54185,0,0,0.066667,1.2632e-15,0,0.66667
0.1108,0.81344,1.6619,0.47016,139.15,2522.5,-2.0837,0.69455,-1.2211,-2.7782,2.9551e-08,-0.61057,0,0,0.066667,-3.158e-16,0,0.66667
0.64755,0.082432,9.7133,-0.62635,-109,502.5,16.224,-5.4079,-0.59879,21.632,7.6881e-12,-0.29939,0,0,0.066667,-0,-0,0.66667
0.52762,0.49316,7.9143,-0.010262,-2.2155,856.06,0.21657,-0.072191,-1.9987,0.28876,-7.8425e-12,-0.99937,0,0,0.066667,1.2632e-15,0,0.66667
0.35324,0.91869,5.2986,0.62803,164.79,1491.2,-8.8739,2.958,-0.59185,-11.832,-6.5015e-13,-0.29592,0,0,0.066667,-6.3159e-16,0,0.66667
0.1982,0.10858,2.973,-0.58714,-169.09,2137.3,4.6548,-1.5516,-0.77013,6.2064,7.2112e-10,-0.38507,0,0,0.066667,-0,-0,0.66667
0.22059,0.94728,3.3089,0.67092,191.4,2040.6,-5.92,1.9733,-0.4038,-7.8933,-9.6917e-10,-0.2019,0,0,0.066667,-0,-0,0.66667
0.043822,0.39758,0.65732,-0.15362,-45.913,2823.3,0.26928,-0.08976,-1.9166,0.35904,5.1851e-07,-0.95828,0,0,0.066667,-3.9475e-17,0,0.66667
0.71316,0.25558,10.697,-0.36662,-53.884,341.57,10.459,-3.4862,-1.5176,13.945,1.0303e-12,-0.7588,0,0,0.066667,-0,-0,0.66667
0.65384,0.50928,9.8076,0.013915,2.3817,484.36,-0.36392,0.12131,-2.0017,-0.48522,1.3941e-11,-1.0008,0,0,0.066667,-0,-0,0.66667
0.44377,0.84921,6.6565,0.52382,126.04,1146.8,-9.2982,3.0994,-1.0192,-12.398,-7.5122e-12,-0.50958,0,0,0.066667,-0,-0,0.66667
0.71894,0.19793,10.784,-0.4531,-65.504,329.13,13.03,-4.3434,-1.281,17.373,-9.9174e-12,-0.64049,0,0,0.066667,-0,-0,0.66667
0.10998,0.9803,1.6496,0.72044,213.49,2526.4,-3.1693,1.0564,-0.16357,-4.2257,-7.6482e-07,-0.081785,0,0,0.066667,-0,-0,0.66667
0.93872,0.75618,14.081,0.38426,13.53,18.78,-14.429,4.8095,-1.482,-19.238,1.5771e-07,-0.74099,0,0,0.066667,-0,-0,0.66667
0.84763,0.72608,12.714,0.33912,28.484,103.06,-11.498,3.8326,-1.5896,-15.33,-2.4167e-09,-0.79478,0,0,0.066667,-0,-0,0.66667
0.65904,0.61266,9.8855,0.169,28.585,471.07,-4.455,1.485,-1.8994,-5.94,4.4853e-14,-0.94972,0,0,0.066667,-0,-0,0.66667
0.37883,0.84554,5.6825,0.51832,133.02,1390.7,-7.8542,2.6181,-1.0442,-10.472,-3.9346e-12,-0.52211,0,0,0.066667,-0,-0,0.66667
0.41657,0.50484,6.2485,0.0072589,1.7956,1246.3,-0.12095,0.040318,-1.9958,-0.16127,-1.1441e-11,-0.99792,0,0,0.066667,-2.5264e-15,0,0.66667
0.48215,0.83986,7.2323,0.50979,117.22,1010.3,-9.8318,3.2773,-1.0796,-13.109,-2.3235e-12,-0.53982,0,0,0.066667,7.8949e-16,0,0.66667
0.93528,0.52966,14.029,0.044485,1.6456,19.828,-1.6642,0.55474,-1.9971,-2.219,1.1569e-07,-0.99853,0,0,0.066667,6.3159e-16,0,0.66667
0.86359,0.77173,12.954,0.4076,30.917,83.778,-14.08,4.6933,-1.4068,-18.773,1.3657e-08,-0.70338,0,0,0.066667,-0,-0,0.66667
0.47792,0.60191,7.1689,0.15286,35.299,1024.3,-2.9223,0.97409,-1.9112,-3.8964,1.8647e-11,-0.9556,0,0,0.066667,-0,-0,0.66667
0.55452,0.99925,8.3178,0.74888,155.58,771.97,-16.611,5.5369,-0.0008676,-22.148,1.2419e-11,-0.0004338,0,0,0.066667,-4.1054e-15,0,0.66667
0.8754,0.50913,13.131,0.0137,0.95237,69.606,-0.47972,0.15991,-2.0094,-0.63962,-7.0892e-09,-1.0047,0,0,0.066667,-0,-0,0.66667
0.94926,0.84801,14.239,0.52202,15.331,14.19,-19.821,6.6072,-1.03,-26.429,6.3236e-07,-0.515,0,0,0.066667,-0,-0,0.66667
0.63918,0.92265,9.5878,0.63397,112.38,524.76,-16.209,5.403,-0.57646,-21.612,-5.3202e-12,-0.28823,0,0,0.066667,1.2632e-15,0,0.66667
0.74852,0.89278,11.228,0.58917,77.589,267.81,-17.64,5.8801,-0.77116,-23.52,-1.0614e-10,-0.38558,0,0,0.066667,1.2632e-15,0,0.66667
0.35162,0.34528,5.2744,-0.23209,-60.895,1496.8,3.2643,-1.0881,-1.8032,4.3524,-3.1735e-12,-0.9016,0,0,0.066667,1.2632e-15,0,0.66667
0.91803,0.11432,13.77,-0.57852,-27.15,33.201,21.244,-7.0813,-0.80823,28.325,-1.4054e-07,-0.40411,0,0,0.066667,-0,-0,0.66667
0.83675,0.5015,12.551,0.0022474,0.20085,116.87,-0.075222,0.025074,-1.9949,-0.1003,8.6838e-10,-0.99745,0,0,0.066667,-5.0527e-15,0,0.66667
0.55206,0.80849,8.2808,0.46273,96.345,778.43,-10.218,3.406,-1.235,-13.624,-4.6185e-12,-0.61752,0,0,0.066667,-3.158e-16,0,0.66667
0.86763,0.79823,13.014,0.44734,33.01,79.342,-15.525,5.175,-1.2819,-20.7,1.1339e-08,-0.64094,0,0,0.066667,-0,-0,0.66667
0.84987,0.34178,12.748,-0.23733,-19.649,99.856,8.0681,-2.6894,-1.7952,10.757,2.8002e-10,-0.89761,0,0,0.066667,1.6727e-15,0,0.66667
0.80841,0.63881,12.126,0.20822,21.53,158.93,-6.733,2.2443,-1.8434,-8.9774,-2.8897e-12,-0.92168,0,0,0.066667,-0,-0,0.66667
0.13069,0.59766,1.9604,0.14649,43.113,2433.7,-0.76579,0.25526,-1.9193,-1.0211,-5.4364e-10,-0.95967,0,0,0.066667,-0,-0,0.66667
0.536,0.071404,8.04,-0.64289,-137.36,830.31,13.784,-4.5946,-0.5269,18.378,7.7423e-12,-0.26345,0,0,0.066667,-0,-0,0.66667
0.90078,0.69106,13.512,0.28659,16.071,45.434,-10.326,3.442,-1.704,-13.768,5.4222e-08,-0.85199,0,0,0.066667,-2.5264e-15,0,0.66667
0.77083,0.62552,11.562,0.18828,22.82,223.33,-5.8053,1.9351,-1.8709,-7.7405,9.1069e-12,-0.93546,0,0,0.066667,2.5264e-15,0,0.66667
0.42071,0.054666,6.3107,-0.668,-164.85,1232,11.241,-3.7472,-0.42044,14.989,1.4277e-11,-0.21022,0,0,0.066667,-6.3159e-16,0,0.66667
0.97788,0.3858,14.668,-0.17131,-2.1536,2.8469,6.7007,-2.2336,-1.8897,8.9343,2.6334e-06,-0.94483,0,0,0.066667,-0,-0,0.66667
0.25077,0.43402,3.7616,-0.098967,-27.766,1911.1,0.99273,-0.33091,-1.9744,1.3236,8.6099e-12,-0.9872,0,0,0.066667,-7.8949e-17,0,0.66667
0.33361,0.76528,5.0042,0.39792,105.92,1569,-5.31,1.77,-1.432,-7.08,7.5318e-12,-0.71598,0,0,0.066667,-0,-0,0.66667
0.9542,0.5192,14.313,0.028797,0.75642,10.273,-1.0991,0.36637,-2.0041,-1.4655,2.8625e-07,-1.002,0,0,0.066667,-0,-0,0.66667
0.80872,0.7709,12.131,0.40635,42.009,159.11,-13.145,4.3816,-1.4113,-17.527,-8.5907e-11,-0.70564,0,0,0.066667,-1.2632e-15,0,0.66667
0.90034,0.82369,13.505,0.48554,27.422,46.742,-17.486,5.8287,-1.1563,-23.315,2.2255e-09,-0.57816,0,0,0.066667,-0,-0,0.66667
0.01159,0.9442,0.17384,0.66631,199.78,2968.9,-0.30889,0.10285,-0.41965,-0.41192,-0.00016722,-0.20982,0,0,0.066667,-0,-0,0.66667
0.37976,0.85097,5.6965,0.52646,135,1387.1,-7.9972,2.6657,-1.0112,-10.663,-4.2779e-12,-0.50558,0,0,0.066667,-0,-0,0.66667
0.23552,0.65821,3.5328,0.23732,67.121,1976.1,-2.2357,0.74524,-1.8077,-2.981,2.3495e-12,-0.90386,0,0,0.066667,-0,-0,0.66667
0.29594,0.39715,4.439,-0.15428,-42.144,1722.2,1.8263,-0.60876,-1.9232,2.435,1.3462e-11,-0.96158,0,0,0.066667,-3.158e-16,0,0.66667
0.738,0.88047,11.07,0.57071,77.823,289.1,-16.847,5.6157,-0.84125,-22.463,6.7068e-11,-0.42062,0,0,0.066667,-0,-0,0.66667
0.72408,0.13761,10.861,-0.54358,-77.424,318.36,15.744,-5.248,-0.94463,20.992,5.2687e-12,-0.47232,0,0,0.066667,-1.2632e-15,0,0.66667
0.4618,0.40829,6.927,-0.13757,-32.392,1081.1,2.5412,-0.84706,-1.9276,3.3882,2.4289e-12,-0.96378,0,0,0.066667,-0,-0,0.66667
0.36527,0.60157,5.4791,0.15235,39.522,1442.9,-2.226,0.74201,-1.9123,-2.968,1.185e-11,-0.95616,0,0,0.066667,-0,-0,0.66667
0.58469,0.65981,8.7704,0.23972,47.204,677.76,-5.6064,1.8688,-1.7905,-7.4753,-5.3539e-12,-0.89525,0,0,0.066667,-0,-0,0.66667
0.53371,0.97983,8.0056,0.71974,154.39,838.1,-15.365,5.1218,-0.16019,-20.487,9.944e-12,-0.080097,0,0,0.066667,-1.2632e-15,0,0.66667
0.55058,0.79119,8.2587,0.43678,91.144,782.99,-9.6193,3.2064,-1.3203,-12.826,2.0481e-12,-0.66015,0,0,0.066667,-1.2632e-15,0,0.66667
0.61548,0.080558,9.2322,-0.62916,-117.14,589.87,15.489,-5.1631,-0.58679,20.653,5.8824e-12,-0.2934,0,0,0.066667,-6.3159e-16,0,0.66667
0.39565,0.51625,5.9347,0.024378,6.1544,1325.3,-0.38581,0.1286,-1.9936,-0.51441,1.6553e-11,-0.99678,0,0,0.066667,-0,-0,0.66667
0.77172,0.86542,11.576,0.54813,66.358,223.06,-16.92,5.64,-0.92623,-22.56,3.1234e-10,-0.46312,0,0,0.066667,6.3159e-16,0,0.66667
0.2512,0.54343,3.768,0.065152,18.274,1909.3,-0.65465,0.21822,-1.9914,-0.87287,1.5947e-11,-0.99571,0,0,0.066667,-0,-0,0.66667
0.65576,0.19345,9.8364,-0.45983,-78.46,480.3,12.062,-4.0205,-1.2583,16.082,3.7605e-12,-0.62914,0,0,0.066667,-0,-0,0.66667
0.9604,0.34749,14.406,-0.22877,-5.2073,8.141,8.7885,-2.9295,-1.8083,11.718,-9.022e-07,-0.90416,0,0,0.066667,-0,-0,0.66667
0.0035548,0.57727,0.053321,0.1159,34.705,3005.2,-0.01648,0.0054924,-1.951,-0.021974,-1.3459e-06,-0.9755,0,0,0.066667,-0,-0,0.66667
0.72336,0.56502,10.85,0.09753,13.893,318.55,-2.822,0.94066,-1.9638,-3.7626,1.2341e-12,-0.98189,0,0,0.066667,-2.5264e-15,0,0.66667
0.109,0.47879,1.6349,-0.031812,-9.4117,2530.4,0.13869,-0.046231,-2.0065,0.18493,4.0513e-09,-1.0033,0,0,0.066667,3.158e-16,0,0.66667
0.54379,0.48529,8.1568,-0.022063,-4.6488,803.85,0.4799,-0.15997,-1.9983,0.63987,3.0954e-12,-0.99915,0,0,0.066667,-1.2632e-15,0,0.66667
0.62692,0.93346,9.4037,0.65019,118.3,558.16,-16.304,5.4348,-0.50162,-21.739,1.4504e-11,-0.25081,0,0,0.066667,-6.3159e-16,0,0.66667
0.24295,0.0050485,3.6442,-0.74243,-209.57,1945.2,7.2148,-2.4049,-0.034467,9.6198,-4.5884e-11,-0.017234,0,0,0.066667,-1.2632e-15,0,0.66667
0.91384,0.8233,13.708,0.48495,23.824,35.707,-17.727,5.9089,-1.1573,-23.636,1.1117e-07,-0.57866,0,0,0.066667,-0,-0,0.66667
0.62231,0.65042,9.3347,0.22563,41.354,569.34,-5.6164,1.8721,-1.8209,-7.4885,-1.6458e-12,-0.91044,0,0,0.066667,9.4739e-16,0,0.66667
0.23169,0.051629,3.4754,-0.67256,-190.86,1993.1,6.2331,-2.0777,-0.3931,8.3108,-1.0956e-09,-0.19655,0,0,0.066667,3.158e-16,0,0.66667
0.77013,0.68277,11.552,0.27415,33.327,224.83,-8.4453,2.8151,-1.7302,-11.26,-7.4332e-12,-0.8651,0,0,0.066667,1.2632e-15,0,0.66667
0.10551,0.28883,1.5826,-0.31676,-93.818,2546.1,1.3368,-0.4456,-1.6417,1.7824,5.4676e-08,-0.82085,0,0,0.066667,-0,-0,0.66667
0.55523,0.22381,8.3284,-0.41429,-85.804,768.31,9.2009,-3.067,-1.3839,12.268,1.2204e-11,-0.69197,0,0,0.066667,-0,-0,0.66667
0.094956,0.23585,1.4243,-0.39623,-117.63,2593.3,1.505,-0.50165,-1.4482,2.0066,5.7493e-08,-0.72412,0,0,0.066667,-0,-0,0.66667
0.58098,0.9953,8.7148,0.74295,147.64,690.77,-17.266,5.7552,-0.038963,-23.021,-5.4676e-12,-0.019481,0,0,0.066667,-0,-0,0.66667
0.25298,0.54846,3.7947,0.072683,20.368,1901.8,-0.7355,0.24517,-1.9816,-0.98066,8.7703e-12,-0.99078,0,0,0.066667,3.158e-16,0,0.66667
0.64947,0.9985,9.742,0.74775,129.7,498.19,-19.425,6.4752,-0.0070419,-25.901,-2.1148e-11,-0.003521,0,0,0.066667,4.2015e-15,0,0.66667
0.71583,0.086208,10.737,-0.62069,-90.678,336.85,17.772,-5.9241,-0.63117,23.696,1.7376e-11,-0.31558,0,0,0.066667,-6.3159e-16,0,0.66667
0.52419,0.62285,7.8628,0.18428,39.993,867.44,-3.8639,1.288,-1.874,-5.1519,6.2736e-12,-0.93701,0,0,0.066667,1.579e-16,0,0.66667
0.65752,0.25229,9.8628,-0.37156,-63.114,475.44,9.7725,-3.2575,-1.5165,13.03,-7.3035e-12,-0.75826,0,0,0.066667,2.5264e-15,0,0.66667
0.81329,0.72625,12.199,0.33938,34.312,151.69,-11.041,3.6802,-1.599,-14.721,2.1129e-10,-0.79952,0,0,0.066667,-2.5264e-15,0,0.66667
0.80751,0.60856,12.113,0.16283,16.905,160.27,-5.2596,1.7532,-1.9015,-7.0128,-7.141e-12,-0.95073,0,0,0.066667,-1.2632e-15,0,0.66667
0.61968,0.4162,9.2952,-0.1257,-23.157,576.52,3.1157,-1.0386,-1.9392,4.1543,8.5643e-13,-0.96962,0,0,0.066667,1.2632e-15,0,0.66667
0.4511,0.030396,6.7665,-0.70441,-168.27,1120.9,12.71,-4.2368,-0.24069,16.947,-2.693e-11,-0.12034,0,0,0.066667,-1.579e-16,0,0.66667
0.40795,7.8936e-05,6.1192,-0.74988,-187.52,1280.2,12.237,-4.0789,-0.0068589,16.315,5.3983e-12,-0.0034294,0,0,0.066667,-0,-0,0.66667
0.87475,0.32057,13.121,-0.26914,-18.823,70.733,9.4172,-3.1391,-1.7533,12.556,2.9078e-09,-0.87666,0,0,0.066667,-0,-0,0.66667
0.70293,0.94575,10.544,0.66862,101.39,366.21,-18.8,6.2666,-0.42159,-25.066,-1.3959e-11,-0.2108,0,0,0.066667,-0,-0,0.66667
0.18494,0.10528,2.774,-0.59208,-171.42,2195,4.3799,-1.46,-0.75527,5.8398,1.7875e-09,-0.37764,0,0,0.066667,-0,-0,0.66667
0.56573,0.46482,8.486,-0.052771,-10.734,735.04,1.1942,-0.39806,-1.9907,1.5922,1.9822e-11,-0.99534,0,0,0.066667,-9.4739e-16,0,0.66667
0.90881,0.71955,13.632,0.32933,17.043,38.879,-11.972,3.9907,-1.6175,-15.963,-1.2593e-08,-0.80876,0,0,0.066667,-0,-0,0.66667
0.15069,0.92776,2.2603,0.64164,188.02,2345.5,-3.8675,1.2892,-0.53128,-5.1567,-9.3909e-08,-0.26564,0,0,0.066667,-0,-0,0.66667
0.84552,0.59636,12.683,0.14453,12.281,105.26,-4.8882,1.6294,-1.9312,-6.5176,2.6342e-10,-0.9656,0,0,0.066667,-0,-0,0.66667
0.8202,0.73389,12.303,0.35084,34.285,141.25,-11.51,3.8368,-1.5557,-15.347,9.7286e-11,-0.77784,0,0,0.066667,-0,-0,0.66667
0.49934,0.42485,7.4901,-0.11272,-25.321,950.4,2.2515,-0.7505,-1.9636,3.002,1.0971e-11,-0.98178,0,0,0.066667,-0,-0,0.66667
0.037584,0.2307,0.56376,-0.40395,-120.85,2851.4,0.60728,-0.20242,-1.4139,0.80971,3.6344e-06,-0.70695,0,0,0.066667,-0,-0,0.66667
0.1475,0.010517,2.2125,-0.73422,-215.46,2359.7,4.332,-1.444,-0.077026,5.776,-1.7388e-08,-0.038513,0,0,0.066667,-0,-0,0.66667
0.92264,0.22123,13.84,-0.41816,-18.491,28.956,15.432,-5.1441,-1.3877,20.576,-1.0725e-07,-0.69387,0,0,0.066667,2.5264e-15,0,0.66667
0.044155,0.73004,0.66232,0.34506,103.16,2821.8,-0.60943,0.20314,-1.5779,-0.81258,-2.7478e-06,-0.78895,0,0,0.066667,-0,-0,0.66667
0.3725,0.76511,5.5875,0.39767,102.58,1415,-5.9253,1.9751,-1.4395,-7.9004,1.8288e-11,-0.71975,0,0,0.066667,-0,-0,0.66667
0.61904,0.72466,9.2856,0.33699,62.199,578.72,-8.3444,2.7815,-1.5912,-11.126,-6.291e-12,-0.79562,0,0,0.066667,1.2632e-15,0,0.66667
0.19695,0.47846,2.9542,-0.032305,-9.2967,2142.3,0.25449,-0.084831,-1.9907,0.33933,-2.2248e-11,-0.99533,0,0,0.066667,-0,-0,0.66667
0.98108,0.74575,14.716,0.36862,3.9819,2.8917,-14.466,4.822,-1.5172,-19.288,-6.3636e-06,-0.7586,0,0,0.066667,-6.8227e-16,0,0.66667
0.15598,0.58103,2.3396,0.12155,35.508,2321.8,-0.75834,0.25278,-1.9579,-1.0111,-2.4394e-11,-0.97895,0,0,0.066667,-0,-0,0.66667
0.53968,0.01942,8.0952,-0.72087,-153.24,818.87,15.562,-5.1872,-0.14589,20.749,9.0621e-12,-0.072943,0,0,0.066667,-0,-0,0.66667
0.61801,0.79139,9.2702,0.43708,80.875,581.92,-10.805,3.6016,-1.3145,-14.407,9.9512e-12,-0.65724,0,0,0.066667,-0,-0,0.66667
0.23099,0.092722,3.4648,-0.61092,-173.38,1995.9,5.6446,-1.8815,-0.67369,7.5262,7.3793e-10,-0.33685,0,0,0.066667,4.3422e-16,8.5512e-20,0.66667
0.46631,0.95131,6.9946,0.67696,158.85,1066.5,-12.627,4.209,-0.37258,-16.836,2.4791e-11,-0.18629,0,0,0.066667,-0,-7.7881e-17,0.66667
0.49101,0.89664,7.3651,0.59496,135.33,980,-11.685,3.895,-0.73543,-15.58,-5.9428e-12,-0.36771,0,0,0.066667,-0,-0,0.66667
0.76686,0.34878,11.503,-0.22683,-27.91,230.8,6.9578,-2.3193,-1.8241,9.277,-4.2149e-12,-0.91207,0,0,0.066667,-0,-0,0.66667
0.63428,0.42487,9.5142,-0.1127,-20.143,536.33,2.8593,-0.95309,-1.9489,3.8124,1.3597e-11,-0.97444,0,0,0.066667,-6.3159e-16,0,0.66667
0.46755,0.81144,7.0133,0.46716,109.34,1061.3,-8.7369,2.9123,-1.232,-11.649,1.2388e-11,-0.61598,0,0,0.066667,-6.7107e-16,0,0.66667
0.66694,0.55931,10.004,0.08897,14.767,450.87,-2.3735,0.79117,-1.9688,-3.1647,-4.6667e-12,-0.98438,0,0,0.066667,5.1325e-16,0,0.66667
0.45338,0.79708,6.8007,0.44562,106.04,1111.8,-8.0814,2.6938,-1.3044,-10.775,5.2145e-12,-0.65221,0,0,0.066667,6.3159e-16,0,0.66667
0.52571,0.23067,7.8857,-0.404,-87.536,862.89,8.4955,-2.8318,-1.4147,11.327,6.3549e-12,-0.70733,0,0,0.066667,-0,-0,0.66667
0.65857,0.084514,9.8785,-0.62323,-105.77,473.85,16.418,-5.4725,-0.62164,21.89,6.2155e-12,-0.31082,0,0,0.066667,-6.3159e-16,0,0.66667
0.1812,0.9867,2.7179,0.73005,211.8,2211.6,-5.2913,1.7638,-0.099038,-7.055,7.0966e-09,-0.049519,0,0,0.066667,3.158e-16,0,0.66667
0.78805,0.58696,11.821,0.13045,14.757,192.46,-4.1119,1.3706,-1.9337,-5.4825,-1.3066e-11,-0.96684,0,0,0.066667,1.2632e-15,0,0.66667
0.60287,0.88024,9.043,0.57037,108.78,625.52,-13.754,4.5847,-0.8379,-18.339,5.1488e-12,-0.41895,0,0,0.066667,-0,-0,0.66667
0.98033,0.026902,14.705,-0.70965,-8.2482,5.4386,27.828,-9.2759,-0.2078,37.104,6.6429e-05,-0.1039,0,0,0.066667,-0,-3.7827e-17,0.66667
0.22238,0.37855,3.3357,-0.18218,-51.85,2032.3,1.6205,-0.54017,-1.8816,2.1607,3.2407e-13,-0.94079,0,0,0.066667,-0,-0,0.66667
0.46627,0.28498,6.994,-0.32254,-75.571,1065.5,6.0155,-2.0052,-1.633,8.0207,-5.4539e-12,-0.81648,0,0,0.066667,1.2632e-15,0,0.66667
0.89564,0.66299,13.435,0.24449,14.382,49.877,-8.7589,2.9196,-1.7837,-11.679,4.3972e-08,-0.89185,0,0,0.066667,-0,-0,0.66667
0.60143,0.13909,9.0215,-0.54136,-103.51,629.52,13.024,-4.3412,-0.95131,17.365,8.4235e-12,-0.47565,0,0,0.066667,-0,-0,0.66667
0.72596,0.54431,10.889,0.066464,9.3924,312.92,-1.93,0.64333,-1.9778,-2.5733,-3.0791e-12,-0.98889,0,0,0.066667,-0,-0,0.66667
0.41367,0.0111,6.2051,-0.73335,-182.34,1258.6,12.135,-4.0449,-0.081333,16.179,-7.8844e-12,-0.040666,0,0,0.066667,-0,-0,0.66667
0.68431,0.48235,10.265,-0.026469,-4.2068,407.99,0.72453,-0.24151,-1.9973,0.96603,7.9714e-13,-0.99864,0,0,0.066667,-0,-0,0.66667
0.94606,0.62019,14.191,0.18029,5.5789,14.211,-6.8225,2.2742,-1.8787,-9.0967,2.4652e-07,-0.93937,0,0,0.066667,-1.8948e-15,0,0.66667
0.20019,0.039015,3.0028,-0.69148,-199.07,2128.8,5.537,-1.8457,-0.30083,7.3826,1.3996e-09,-0.15041,0,0,0.066667,-0,5.897e-17,0.66667
0.80737,0.37334,12.11,-0.18998,-19.74,160.55,6.1354,-2.0451,-1.8685,8.1806,-2.3346e-12,-0.93426,0,0,0.066667,-0,-0,0.66667
0.96954,0.73929,14.543,0.35894,6.299,5.6131,-13.92,4.6401,-1.5502,-18.56,-4.6971e-06,-0.77511,0,0,0.066667,-1.2632e-15,0,0.66667
0.014569,0.13907,0.21853,-0.5414,-162.23,2955.4,0.31548,-0.10514,-0.9648,0.42065,3.4851e-05,-0.4824,0,0,0.066667,1.9737e-17,9.4161e-17,0.66667
0.21521,0.82021,3.2281,0.48031,137.25,2063.5,-4.1347,1.3782,-1.179,-5.513,2.3306e-10,-0.58949,0,0,0.066667,-0,-0,0.66667
0.11738,0.64385,1.7607,0.21577,63.725,2493,-1.0131,0.33769,-1.8279,-1.3508,3.6598e-09,-0.91393,0,0,0.066667,1.8896e-17,0,0.66667
0.76742,0.097061,11.511,-0.60441,-74.411,231.35,18.554,-6.1845,-0.70636,24.738,-6.9108e-10,-0.35318,0,0,0.066667,-0,-0,0.66667
0.081217,0.84402,1.2182,0.51603,153.63,2655,-1.6764,0.55881,-1.0548,-2.2352,-9.9522e-09,-0.52742,0,0,0.066667,-3.158e-16,0,0.66667
0.99841,0.88199,14.976,0.57298,0.40567,2.2305,-22.883,7.6276,-0.83828,-30.51,-8.6207e-05,-0.41914,0,0,0.066667,-0,-0,0.66667
0.38961,0.052719,5.8442,-0.67092,-170.64,1349.6,10.456,-3.4853,-0.40696,13.941,-1.4815e-12,-0.20348,0,0,0.066667,6.3159e-16,6.7904e-17,0.66667
0.9052,0.029718,13.578,-0.70542,-38.174,44.179,25.542,-8.514,-0.23913,34.056,2.5524e-06,-0.11956,0,0,0.066667,-9.4739e-16,0,0.66667
0.18858,0.53137,2.8287,0.047056,13.587,2178.7,-0.35495,0.11832,-2.0007,-0.47326,-1.5891e-10,-1.0004,0,0,0.066667,-0,-0,0.66667
0.44087,0.55179,6.6131,0.077681,18.73,1156.5,-1.3699,0.45663,-1.978,-1.8265,-2.0588e-12,-0.98898,0,0,0.066667,6.3159e-16,0,0.66667
0.84481,0.54198,12.672,0.062974,5.3722,106.09,-2.128,0.70935,-1.9931,-2.8374,4.2319e-10,-0.99653,0,0,0.066667,-0,-0,0.66667
0.59527,0.9668,8.929,0.70019,135.57,648.23,-16.672,5.5574,-0.26332,-22.23,4.464e-12,-0.13166,0,0,0.066667,-7.8949e-16,0,0.66667
0.46216,0.1416,6.9324,-0.53761,-126.68,1080.7,9.9384,-3.3128,-0.96615,13.251,2.238e-11,-0.48308,0,0,0.066667,-0,-0,0.66667
0.51265,0.72997,7.6897,0.34495,76.129,905.93,-7.0735,2.3578,-1.5774,-9.4314,1.2244e-12,-0.7887,0,0,0.066667,-0,-0,0.66667
0.57389,0.35246,8.6083,-0.2213,-44.408,710.27,5.0801,-1.6934,-1.8234,6.7735,1.4206e-11,-0.91168,0,0,0.066667,-1.2632e-15,0,0.66667
0.44032,0.031125,6.6048,-0.70331,-170.04,1160,12.387,-4.1291,-0.24374,16.516,-1.1642e-11,-0.12187,0,0,0.066667,-0,-0,0.66667
0.19356,0.15228,2.9034,-0.52159,-150.46,2157.3,4.0383,-1.3461,-1.0279,5.3844,9.357e-10,-0.51395,0,0,0.066667,-4.3288e-17,0,0.66667
0.11397,0.72152,1.7095,0.33227,98.231,2508.3,-1.5147,0.5049,-1.605,-2.0196,4.5228e-09,-0.80252,0,0,0.066667,-0,-0,0.66667
0.15123,0.92531,2.2684,0.63796,186.91,2343.1,-3.8591,1.2864,-0.54864,-5.1455,-8.9805e-08,-0.27432,0,0,0.066667,-0,-0,0.66667
0.052491,0.52225,0.78736,0.033374,9.9652,2784.1,-0.070073,0.023358,-1.9911,-0.093431,-2.4235e-08,-0.99556,0,0,0.066667,-0,-0,0.66667
0.55868,0.15299,8.3801,-0.52052,-107.26,757.9,11.632,-3.8774,-1.0358,15.51,2.0687e-11,-0.51791,0,0,0.066667,-9.4739e-16,0,0.66667
0.84772,0.018594,12.716,-0.72211,-60.923,105.24,24.486,-8.162,-0.1438,32.648,7.9773e-08,-0.0719,0,0,0.066667,-0,-0,0.66667
0.35912,0.44182,5.3868,-0.08727,-22.754,1467.1,1.2536,-0.41787,-1.9843,1.6715,-1.6224e-12,-0.99214,0,0,0.066667,1.2632e-15,0,0.66667
0.075311,0.74036,1.1297,0.36053,107.38,2681.5,-1.0861,0.36203,-1.5389,-1.4481,-2.8341e-07,-0.76945,0,0,0.066667,-0,-0,0.66667
0.42572,0.52558,6.3859,0.038375,9.4036,1212.2,-0.65349,0.21783,-1.9935,-0.87131,-6.5001e-12,-0.99675,0,0,0.066667,-0,-0,0.66667
0.60201,0.12138,9.0301,-0.56792,-108.49,627.98,13.676,-4.5586,-0.84759,18.234,8.2387e-12,-0.4238,0,0,0.066667,-0,-0,0.66667
0.4254,0.76747,6.3811,0.40121,98.414,1213.8,-6.827,2.2757,-1.4265,-9.1027,8.2641e-12,-0.71326,0,0,0.066667,-0,-0,0.66667
0.81072,0.40872,12.161,-0.13693,-14.002,155.17,4.4404,-1.4801,-1.9388,5.9205,-2.6423e-12,-0.9694,0,0,0.066667,-2.5264e-15,0,0.66667
0.94189,0.77915,14.128,0.41873,14.008,17.238,-15.776,5.2586,-1.3747,-21.034,-4.3059e-07,-0.68736,0,0,0.066667,-1.579e-16,0,0.66667
0.86991,0.85735,13.049,0.53603,38.964,77.283,-18.652,6.2173,-0.97398,-24.869,-7.9069e-09,-0.48699,0,0,0.066667,-0,-0,0.66667
0.704,0.99253,10.56,0.73879,111.78,364.22,-20.804,6.9348,-0.067561,-27.739,7.585e-13,-0.03378,0,0,0.066667,-0,-0,0.66667
0.4703,0.56065,7.0545,0.090975,21.204,1051,-1.7114,0.57047,-1.977,-2.2819,8.2209e-12,-0.9885,0,0,0.066667,3.158e-16,0,0.66667
0.6827,0.3637,10.24,-0.20445,-32.638,412.08,5.5832,-1.8611,-1.8475,7.4443,4.8082e-12,-0.92377,0,0,0.066667,-6.3159e-16,0,0.66667
0.013418,0.92086,0.20127,0.63129,189.25,2960.6,-0.33882,0.11286,-0.5857,-0.45179,-0.00011114,-0.29285,0,0,0.066667,-0,-0,0.66667
0.98248,0.33626,14.737,-0.24561,-2.4316,2.1411,9.6524,-3.2175,-1.7898,12.87,2.6676e-06,-0.8949,0,0,0.066667,6.3159e-16,0,0.66667
0.17208,0.80707,2.5812,0.46061,133.92,2251.1,-3.1704,1.0568,-1.2571,-4.2272,-2.2517e-09,-0.62854,0,0,0.066667,-2.3685e-16,0,0.66667
0.90626,0.67173,13.594,0.25759,13.676,40.699,-9.3378,3.1126,-1.7757,-12.45,2.1616e-08,-0.88783,0,0,0.066667,-0,-0,0.66667
0.80711,0.65161,12.107,0.22742,23.661,161.04,-7.3422,2.4474,-1.812,-9.7895,-2.6882e-11,-0.90602,0,0,0.066667,1.2632e-15,0,0.66667
0.80014,0.16455,12.002,-0.50318,-54.148,173.37,16.105,-5.3682,-1.0997,21.473,-1.4822e-09,-0.54984,0,0,0.066667,-0,-0,0.66667
0.26894,0.28425,4.034,-0.32362,-89.91,1834.7,3.4813,-1.1604,-1.6282,4.6417,1.7826e-11,-0.81408,0,0,0.066667,-0,-0,0.66667
0.21915,0.7287,3.2873,0.34305,97.814,2046.4,-3.0072,1.0024,-1.5916,-4.0096,-6.36e-11,-0.79579,0,0,0.066667,6.3159e-16,0,0.66667
0.4288,0.18844,6.432,-0.46735,-114.26,1201.4,8.0159,-2.672,-1.2185,10.688,2.693e-12,-0.60925,0,0,0.066667,1.2632e-15,0,0.66667
0.84937,0.6116,12.741,0.16739,13.896,100.33,-5.6871,1.8957,-1.8952,-7.5829,-6.4718e-11,-0.94759,0,0,0.066667,-0,-0,0.66667
0.45038,0.84148,6.7557,0.51222,122.34,1122.8,-9.2278,3.0759,-1.0694,-12.304,5.1008e-12,-0.5347,0,0,0.066667,-8.6844e-16,0,0.66667
0.93542,0.86102,14.031,0.54152,20.154,21.565,-20.262,6.754,-0.96055,-27.016,-5.1272e-07,-0.48027,0,0,0.066667,-1.2632e-15,-2.41e-17,0.66667
0.35268,0.9976,5.2902,0.7464,196.06,1493.8,-10.53,3.5099,-0.01406,-14.04,1.4098e-11,-0.0070299,0,0,0.066667,-1.1842e-15,0,0.66667
0.61939,0.70947,9.2909,0.31421,57.947,577.67,-7.7847,2.5949,-1.644,-10.38,1.7431e-12,-0.82202,0,0,0.066667,-0,-0,0.66667
0.9807,0.23522,14.71,-0.39716,-4.3882,3.1072,15.58,-5.1933,-1.4376,20.773,8.0076e-06,-0.7188,0,0,0.066667,-0,-0,0.66667
0.64346,0.24047,9.6519,-0.38929,-68.266,512.28,10.02,-3.3399,-1.4622,13.36,4.1522e-12,-0.73109,0,0,0.066667,6.3159e-16,0,0.66667
0.045498,0.82771,0.68247,0.49156,147,2815.8,-0.8946,0.2982,-1.1466,-1.1928,-7.8673e-06,-0.5733,0,0,0.066667,-0,-0,0.66667
0.46356,0.81284,6.9534,0.46927,110.36,1075.5,-8.7013,2.9004,-1.214,-11.602,1.981e-11,-0.60702,0,0,0.066667,-0,-0,0.66667
0.33475,0.47733,5.0213,-0.034,-9.0372,1564,0.45526,-0.15175,-1.99,0.60702,6.1202e-12,-0.99499,0,0,0.066667,-0,-0,0.66667
0.53218,0.91172,7.9827,0.61758,132.68,842.56,-13.146,4.3822,-0.65217,-17.529,-3.7161e-12,-0.32608,0,0,0.066667,-0,-0,0.66667
0.28475,0.85375,4.2712,0.53062,146.12,1769,-6.0437,2.0146,-0.99805,-8.0582,2.6999e-11,-0.49903,0,0,0.066667,-6.3159e-16,0,0.66667
0.12226,0.55383,1.8339,0.080749,23.816,2471.2,-0.3949,0.13163,-1.9782,-0.52653,8.0511e-10,-0.9891,0,0,0.066667,-0,-0,0.66667
0.66829,0.66226,10.024,0.24339,40.28,447.71,-6.5063,2.1688,-1.7887,-8.6751,-9.396e-12,-0.89435,0,0,0.066667,2.5264e-15,0,0.66667
0.68136,0.011367,10.22,-0.73295,-117.78,417.57,19.976,-6.6587,-0.084193,26.635,3.2472e-12,-0.042096,0,0,0.066667,-0,-0,0.66667
0.86714,0.58087,13.007,0.12131,8.9589,78.824,-4.2077,1.4026,-1.9411,-5.6102,9.1712e-10,-0.97053,0,0,0.066667,-0,-0,0.66667
0.13238,0.30419,1.9857,-0.29372,-86.425,2426.3,1.5553,-0.51843,-1.687,2.0737,4.517e-09,-0.84351,0,0,0.066667,-1.579e-16,0,0.66667
0.79862,0.13824,11.979,-0.54264,-58.814,176.09,17.335,-5.7782,-0.95743,23.113,-1.2847e-09,-0.47872,0,0,0.066667,-0,-0,0.66667
0.82677,0.76499,12.402,0.39749,37.569,131.79,-13.145,4.3817,-1.4441,-17.527,3.6448e-10,-0.72203,0,0,0.066667,-1.2632e-15,0,0.66667
0.64655,0.9649,9.6982,0.69735,121.7,505.54,-18.035,6.0116,-0.26631,-24.046,-3.1317e-12,-0.13316,0,0,0.066667,-6.3159e-16,0,0.66667
0.20492,0.44138,3.0738,-0.087934,-25.222,2107.7,0.72079,-0.24026,-1.9777,0.96105,3.8708e-12,-0.98883,0,0,0.066667,6.3159e-16,0,0.66667
0.26142,0.82186,3.9213,0.48279,134.77,1866.5,-5.0485,1.6828,-1.1688,-6.7313,6.6636e-11,-0.58438,0,0,0.066667,-0,-0,0.66667
0.4185,0.92308,6.2775,0.63463,156.94,1240.2,-10.624,3.5412,-0.56724,-14.165,-1.1761e-11,-0.28362,0,0,0.066667,-0,-0,0.66667
0.5418,0.27956,8.127,-0.33066,-69.922,810.6,7.166,-2.3887,-1.6082,9.5546,7.5606e-12,-0.8041,0,0,0.066667,-7.1054e-16,0,0.66667
0.47744,0.035454,7.1616,-0.69682,-161.34,1027.4,13.308,-4.4358,-0.26804,17.743,-1.4246e-12,-0.13402,0,0,0.066667,-0,-0,0.66667
0.46746,0.45925,7.0119,-0.06112,-14.294,1061,1.1428,-0.38095,-1.9931,1.5238,-3.8661e-12,-0.99653,0,0,0.066667,-0,-0,0.66667
0.83984,0.81635,12.598,0.47452,41.781,113.93,-15.941,5.3136,-1.1983,-21.254,4.3803e-10,-0.59914,0,0,0.066667,-0,-0,0.66667
0.8701,0.53944,13.052,0.059161,4.2772,75.423,-2.0591,0.68635,-1.9838,-2.7454,-3.4933e-10,-0.99191,0,0,0.066667,2.5264e-15,0,0.66667
0.81675,0.19377,12.251,-0.45935,-45.71,146.92,15.007,-5.0024,-1.2475,20.009,1.6563e-09,-0.62375,0,0,0.066667,-0,-0,0.66667
0.8778,0.82405,13.167,0.48608,33.297,68.438,-17.067,5.6891,-1.1609,-22.756,2.2674e-08,-0.58045,0,0,0.066667,-0,-0,0.66667
0.57101,0.2837,8.5651,-0.32445,-65.444,719.24,7.4105,-2.4702,-1.6204,9.8806,1.5357e-12,-0.81021,0,0,0.066667,-0,-0,0.66667
0.96404,0.96126,14.461,0.69189,14.601,9.5915,-26.68,8.8935,-0.29461,-35.574,3.4808e-05,-0.1473,0,0,0.066667,-0,4.5649e-17,0.66667
0.60654,0.54728,9.0982,0.07092,13.408,613.65,-1.7207,0.57355,-1.9829,-2.2942,-2.5266e-12,-0.99145,0,0,0.066667,-0,-0,0.66667
0.60395,0.028511,9.0592,-0.70723,-134.73,623.1,17.085,-5.6951,-0.21778,22.78,5.1141e-12,-0.10889,0,0,0.066667,-9.4739e-16,0,0.66667
0.3193,0.62087,4.7895,0.18131,48.748,1626.5,-2.3157,0.77189,-1.8777,-3.0876,1.1017e-11,-0.93884,0,0,0.066667,-0,-0,0.66667
0.6812,0.86354,10.218,0.5453,87.528,416.86,-14.859,4.9528,-0.93687,-19.811,-5.107e-13,-0.46844,0,0,0.066667,-0,-0,0.66667
0.051966,0.71068,0.77949,0.31601,94.396,2786.5,-0.65687,0.21896,-1.6409,-0.87583,-4.6341e-07,-0.82044,0,0,0.066667,-3.9475e-17,0,0.66667
0.13455,0.95185,2.0182,0.67777,199.58,2417,-3.6477,1.2159,-0.3609,-4.8636,-9.0048e-08,-0.18045,0,0,0.066667,-0,-0,0.66667
0.13024,0.96413,1.9536,0.6962,205.26,2436.1,-3.627,1.209,-0.27279,-4.836,-1.1176e-07,-0.1364,0,0,0.066667,7.8949e-17,0,0.66667
0.6552,0.63891,9.828,0.20836,35.562,481.02,-5.4607,1.8202,-1.8527,-7.2809,-3.1024e-12,-0.92636,0,0,0.066667,-0,-0,0.66667
0.17533,0.66059,2.63,0.24089,69.918,2236.7,-1.6894,0.56313,-1.7936,-2.2525,1.2792e-10,-0.8968,0,0,0.066667,-0,-0,0.66667
0.34115,0.24595,5.1172,-0.38108,-100.85,1538.7,5.2001,-1.7334,-1.4861,6.9335,2.7662e-11,-0.74304,0,0,0.066667,6.3159e-16,0,0.66667
0.044312,0.12878,0.66467,-0.55684,-166.58,2821.1,0.98696,-0.32898,-0.90012,1.316,1.7954e-05,-0.45006,0,0,0.066667,-0,-0,0.66667
0.23373,0.73166,3.506,0.34749,98.392,1983.8,-3.2488,1.0829,-1.5795,-4.3317,3.9774e-11,-0.78974,0,0,0.066667,-0,-0,0.66667
0.96422,0.46068,14.463,-0.058979,-1.2092,6.4736,2.2748,-0.75826,-1.9846,3.033,1.4352e-07,-0.9923,0,0,0.066667,6.3159e-16,0,0.66667
0.50914,0.06572,7.6371,-0.65142,-144.67,918.71,13.267,-4.4222,-0.48614,17.689,1.5394e-11,-0.24307,0,0,0.066667,-1.2632e-15,0,0.66667
0.15107,0.61272,2.2661,0.16909,49.474,2343.4,-1.0218,0.34059,-1.8938,-1.3624,6.4231e-11,-0.94692,0,0,0.066667,-0,-0,0.66667
0.52301,0.87148,7.8451,0.55723,121.3,872.27,-11.657,3.8858,-0.89041,-15.543,-1.3239e-11,-0.4452,0,0,0.066667,7.8949e-16,0,0.66667
0.94351,0.70272,14.153,0.30408,9.8672,15.872,-11.476,3.8254,-1.6655,-15.301,1.8313e-07,-0.83277,0,0,0.066667,-1.2632e-15,0,0.66667
0.86569,0.88042,12.985,0.57063,42.757,82.279,-19.759,6.5865,-0.83699,-26.346,-7.9555e-08,-0.41849,0,0,0.066667,2.5264e-15,0,0.66667
0.39207,0.75642,5.881,0.38463,97.486,1339.4,-6.032,2.0107,-1.4801,-8.0427,-8.9084e-12,-0.74005,0,0,0.066667,-0,-0,0.66667
0.28387,0.50436,4.258,0.0065333,1.7982,1772.1,-0.074184,0.024728,-2.0022,-0.098912,1.9937e-11,-1.0011,0,0,0.066667,-0,-0,0.66667
0.76173,0.81043,11.426,0.46565,58.472,241.35,-14.188,4.7293,-1.2283,-18.917,1.803e-11,-0.61414,0,0,0.066667,-1.579e-15,0,0.66667
0.24048,0.032041,3.6073,-0.70194,-198.35,1955.6,6.7522,-2.2507,-0.24385,9.0029,-1.1085e-10,-0.12193,0,0,0.066667,-0,-0,0.66667
0.25423,0.79581,3.8135,0.44372,124.34,1896.8,-4.5123,1.5041,-1.2971,-6.0164,3.8153e-11,-0.64857,0,0,0.066667,-0,-0,0.66667
0.084086,0.81966,1.2613,0.4795,142.67,2642.1,-1.6128,0.53759,-1.1774,-2.1504,-6.6283e-08,-0.58869,0,0,0.066667,-0,-0,0.66667
0.86414,0.49605,12.962,-0.0059298,-0.44706,82.181,0.20497,-0.068323,-1.9969,0.27329,-6.6317e-09,-0.99847,0,0,0.066667,6.3159e-16,0,0.66667
0.4479,0.29596,6.7185,-0.30606,-73.248,1131.2,5.4833,-1.8278,-1.6623,7.311,-1.3252e-12,-0.83115,0,0,0.066667,-0,-0,0.66667
0.56179,0.29995,8.4268,-0.30008,-61.465,747.56,6.7433,-2.2478,-1.6883,8.991,9.6794e-12,-0.84417,0,0,0.066667,6.3159e-16,0,0.66667
0.73671,0.42966,11.051,-0.10552,-14.414,290.22,3.1094,-1.0365,-1.9632,4.1459,-6.0338e-12,-0.98158,0,0,0.066667,6.3159e-16,0,0.66667
0.79649,0.48507,11.947,-0.022395,-2.4432,178.06,0.71349,-0.23783,-2.0081,0.95131,-2.1911e-11,-1.004,0,0,0.066667,-1.2632e-15,0,0.66667
0.44751,0.69123,6.7126,0.28684,68.677,1132.6,-5.1346,1.7115,-1.7032,-6.8461,-5.0036e-12,-0.85161,0,0,0.066667,-0,-0,0.66667
0.18413,0.0044013,2.7619,-0.7434,-215.45,2198.8,5.4752,-1.8251,-0.035179,7.3003,-1.8478e-09,-0.017589,0,0,0.066667,-0,3.8213e-17,0.66667
0.82873,0.32398,12.431,-0.26403,-24.673,128.48,8.7524,-2.9175,-1.7612,11.67,4.1016e-10,-0.88058,0,0,0.066667,-0,-0,0.66667
0.030998,0.3266,0.46497,-0.2601,-77.823,2881.2,0.32251,-0.1075,-1.7699,0.43001,-2.2711e-06,-0.88497,0,0,0.066667,7.8949e-17,0,0.66667
0.94673,0.68627,14.201,0.2794,8.5522,14.168,-10.581,3.5269,-1.7178,-14.108,3.3832e-07,-0.85891,0,0,0.066667,-4.737e-16,0,0.66667
0.57698,0.042983,8.6547,-0.68553,-137.13,702.51,15.821,-5.2738,-0.33585,21.095,1.4712e-11,-0.16792,0,0,0.066667,1.2632e-15,-7.4051e-17,0.66667
0.87539,0.58041,13.131,0.12061,8.3871,69.706,-4.2232,1.4077,-1.9582,-5.6309,2.7694e-11,-0.97909,0,0,0.066667,-0,-0,0.66667
0.60857,0.13023,9.1285,-0.55466,-104.62,609.1,13.502,-4.5006,-0.91495,18.002,5.7909e-13,-0.45748,0,0,0.066667,-0,-0,0.66667
0.25166,0.26359,3.7749,-0.35462,-99.487,1907.5,3.5697,-1.1899,-1.5576,4.7596,1.9203e-11,-0.7788,0,0,0.066667,-0,-0,0.66667
0.29613,0.71143,4.4419,0.31715,86.649,1721.5,-3.7567,1.2522,-1.6512,-5.0089,6.9129e-12,-0.82558,0,0,0.066667,-0,-0,0.66667
0.53292,0.073298,7.9938,-0.64005,-137.38,840.26,13.644,-4.548,-0.5482,18.192,4.7988e-12,-0.2741,0,0,0.066667,-0,-0,0.66667
0.96208,0.35193,14.431,-0.22211,-4.8396,7.5117,8.5474,-2.8491,-1.8187,11.397,-5.7256e-07,-0.90935,0,0,0.066667,-0,-0,0.66667
0.1845,0.1729,2.7674,-0.49066,-142.02,2196.8,3.621,-1.207,-1.1443,4.8279,-2.636e-09,-0.57215,0,0,0.066667,3.158e-16,0,0.66667
0.5099,0.76365,7.6485,0.39548,87.631,915.26,-8.0662,2.6887,-1.4386,-10.755,1.1092e-11,-0.71928,0,0,0.066667,-1.2632e-15,0,0.66667
0.34379,0.25253,5.1568,-0.3712,-98.036,1528.2,5.1046,-1.7015,-1.5227,6.8062,1.2716e-11,-0.76137,0,0,0.066667,-0,-0,0.66667
0.76973,0.073439,11.546,-0.63984,-78.123,227.3,19.7,-6.5667,-0.54198,26.267,1.0672e-09,-0.27099,0,0,0.066667,-1.2632e-15,0,0.66667
0.80287,0.86783,12.043,0.55175,58.681,169.2,-17.719,5.9064,-0.91241,-23.626,1.1875e-09,-0.4562,0,0,0.066667,-7.8779e-16,0,0.66667
0.42456,0.58573,6.3684,0.12859,31.551,1216.5,-2.1838,0.72794,-1.9428,-2.9118,1.247e-12,-0.97141,0,0,0.066667,-0,-0,0.66667
0.20412,0.39374,3.0618,-0.1594,-45.737,2111.2,1.3014,-0.43382,-1.917,1.7353,-2.343e-11,-0.9585,0,0,0.066667,-3.158e-16,0,0.66667
0.067089,0.71998,1.0063,0.32998,98.392,2718.4,-0.88552,0.29517,-1.6107,-1.1807,-4.7498e-07,-0.80537,0,0,0.066667,-0,-0,0.66667
0.19865,0.22176,2.9797,-0.41736,-120.1,2135.1,3.3163,-1.1054,-1.3784,4.4217,-2.9882e-11,-0.68922,0,0,0.066667,-0,-0,0.66667
0.2724,0.77203,4.086,0.40805,113.16,1820.3,-4.4461,1.482,-1.4019,-5.9281,1.3852e-11,-0.70096,0,0,0.066667,-0,-0,0.66667
0.59879,0.40738,8.9818,-0.13893,-26.657,636.09,3.3276,-1.1092,-1.9285,4.4368,4.2628e-12,-0.96424,0,0,0.066667,-0,-0,0.66667
0.87308,0.074503,13.096,-0.63825,-45.415,74.486,22.29,-7.4299,-0.55547,29.72,-5.8622e-08,-0.27773,0,0,0.066667,-0,7.4707e-17,0.66667
0.12823,0.93562,1.9235,0.65343,192.71,2445,-3.3516,1.1172,-0.48283,-4.4688,9.3528e-09,-0.24142,0,0,0.066667,1.7764e-16,0,0.66667
0.95819,0.43692,14.373,-0.09462,-2.2697,8.7025,3.6265,-1.2088,-1.9653,4.8354,-3.8503e-07,-0.98267,0,0,0.066667,-1.2632e-15,0,0.66667
0.68317,0.010479,10.248,-0.73428,-117.45,413.2,20.066,-6.6885,-0.080104,26.754,1.8382e-11,-0.040052,0,0,0.066667,-2.5264e-15,7.9262e-17,0.66667
0.74196,0.93562,11.129,0.65344,88.022,281.44,-19.393,6.4643,-0.47652,-25.857,-2.3532e-10,-0.23826,0,0,0.066667,-1.2632e-15,0,0.66667
0.98288,0.31946,14.743,-0.27081,-2.6204,2.1557,10.647,-3.549,-1.7451,14.196,2.7242e-06,-0.87253,0,0,0.066667,-0,-0,0.66667
0.4161,0.19303,6.2415,-0.46046,-114.05,1248.6,7.6639,-2.5546,-1.2414,10.219,2.8568e-12,-0.62072,0,0,0.066667,1.2632e-15,0,0.66667
0.53158,0.66128,7.9738,0.24192,51.941,843.36,-5.144,1.7147,-1.8028,-6.8587,7.5748e-12,-0.9014,0,0,0.066667,-0,-0,0.66667
0.67921,0.25117,10.188,-0.37325,-60.154,421,10.141,-3.3802,-1.4995,13.521,-2.9639e-12,-0.74976,0,0,0.066667,2.5264e-15,0,0.66667
0.51288,0.12661,7.6931,-0.56008,-123.68,905.85,11.49,-3.83,-0.88704,15.32,4.1451e-12,-0.44352,0,0,0.066667,-0,-0,0.66667
0.29911,0.79074,4.4867,0.43611,118.96,1709.4,-5.2178,1.7393,-1.3267,-6.9571,1.3231e-11,-0.66334,0,0,0.066667,-0,-0,0.66667
0.10538,0.15424,1.5808,-0.51865,-153.71,2546.7,2.1863,-0.72876,-1.0426,2.9151,-1.5491e-07,-0.52129,0,0,0.066667,-1.9737e-17,0,0.66667
0.28493,0.5065,4.274,0.0097506,2.682,1767.7,-0.11113,0.037043,-1.9987,-0.14817,2.0983e-11,-0.99934,0,0,0.066667,-1.2632e-15,0,0.66667
0.76885,0.78659,11.533,0.42988,52.561,227.76,-13.221,4.4069,-1.3433,-17.628,-8.0339e-11,-0.67165,0,0,0.066667,-0,-0,0.66667
0.64078,0.23237,9.6117,-0.40144,-70.815,519.46,10.289,-3.4298,-1.4379,13.719,6.2181e-12,-0.71897,0,0,0.066667,-0,-0,0.66667
0.80133,0.75652,12.02,0.38477,41.144,170.86,-12.333,4.1111,-1.4709,-16.444,-1.9697e-10,-0.73544,0,0,0.066667,-0,-0,0.66667
0.51712,0.86078,7.7568,0.54117,118.79,891.65,-11.194,3.7313,-0.96401,-14.925,-4.6283e-12,-0.482,0,0,0.066667,-6.3159e-16,0,0.66667
0.2321,0.45242,3.4815,-0.071375,-20.218,1990.6,0.66264,-0.22088,-1.9844,0.88353,1.9043e-11,-0.99221,0,0,0.066667,3.158e-16,0,0.66667
0.62796,0.61361,9.4194,0.17041,30.87,553.64,-4.2806,1.4269,-1.8973,-5.7074,5.9788e-12,-0.94863,0,0,0.066667,-0,-0,0.66667
0.30401,0.75399,4.5601,0.38098,103.57,1689.2,-4.6328,1.5443,-1.4783,-6.177,1.2279e-11,-0.73917,0,0,0.066667,-0,-0,0.66667
0.029529,0.3851,0.44293,-0.17236,-51.566,2887.8,0.20358,-0.067861,-1.8991,0.27144,-1.8889e-06,-0.94953,0,0,0.066667,-0,-0,0.66667
0.90333,0.76211,13.55,0.39316,21.535,43.682,-14.206,4.7354,-1.451,-18.942,6.1445e-08,-0.72549,0,0,0.066667,-0,-0,0.66667
0.42037,0.25116,6.3055,-0.37326,-92.026,1232.5,6.2762,-2.0921,-1.5114,8.3683,1.5692e-11,-0.75568,0,0,0.066667,-0,-0,0.66667
0.42613,0.98626,6.392,0.72939,179.06,1212.2,-12.433,4.1442,-0.10556,-16.577,-1.0015e-11,-0.052779,0,0,0.066667,-0,-0,0.66667
0.74125,0.92708,11.119,0.64063,86.488,282.82,-18.995,6.3315,-0.53457,-25.326,-1.201e-10,-0.26729,0,0,0.066667,-6.3159e-16,0,0.66667
0.94846,0.77605,14.227,0.41408,12.307,13.929,-15.709,5.2365,-1.3874,-20.946,5.3036e-07,-0.69371,0,0,0.066667,1.2632e-15,0,0.66667
0.072516,0.58975,1.0877,0.13462,40.099,2694,-0.39049,0.13016,-1.9313,-0.52066,-1.9061e-07,-0.96564,0,0,0.066667,1.6136e-16,0,0.66667
0.1727,0.31226,2.5905,-0.2816,-81.82,2248.2,1.9453,-0.64844,-1.7277,2.5938,-3.5553e-10,-0.86383,0,0,0.066667,4.0461e-16,0,0.66667
0.32236,0.69023,4.8354,0.28534,76.564,1614.2,-3.6793,1.2264,-1.7063,-4.9057,-4.8255e-12,-0.85313,0,0,0.066667,-0,-0,0.66667
0.24842,0.2848,3.7264,-0.3228,-90.71,1921.2,3.2076,-1.0692,-1.6355,4.2768,1.1056e-11,-0.81777,0,0,0.066667,6.3159e-16,0,0.66667
0.49549,0.43646,7.4324,-0.095311,-21.518,963.5,1.889,-0.62968,-1.9658,2.5187,6.0008e-12,-0.9829,0,0,0.066667,-2.7632e-16,0,0.66667
0.82446,0.8192,12.367,0.4788,45.837,135.54,-15.79,5.2633,-1.1839,-21.053,-3.6779e-11,-0.59197,0,0,0.066667,-0,-0,0.66667
0.85397,0.03393,12.81,-0.6991,-56.727,97.173,23.881,-7.9602,-0.25847,31.841,4.8504e-08,-0.12924,0,0,0.066667,-2.5264e-15,0,0.66667
0.59583,0.3374,8.9374,-0.2439,-47.065,644.88,5.8128,-1.9376,-1.7923,7.7504,5.8935e-12,-0.89614,0,0,0.066667,-0,-0,0.66667
0.24017,0.436,3.6026,-0.096,-27.084,1956.2,0.92227,-0.30742,-1.9632,1.2297,1.4677e-11,-0.98159,0,0,0.066667,4.737e-16,0,0.66667
0.18649,0.28082,2.7974,-0.32877,-95.047,2187.9,2.4526,-0.81752,-1.6245,3.2701,2.1244e-10,-0.81225,0,0,0.066667,4.5396e-16,0,0.66667
0.74339,0.94737,11.151,0.67106,89.985,278.66,-19.954,6.6514,-0.39286,-26.606,-1.1449e-10,-0.19643,0,0,0.066667,-0,-0,0.66667
0.23721,0.38557,3.5582,-0.17164,-48.501,1968.8,1.6286,-0.54288,-1.8962,2.1715,1.3185e-11,-0.94809,0,0,0.066667,-0,-0,0.66667
0.53949,0.81336,8.0924,0.47003,99.802,818.4,-10.143,3.381,-1.2094,-13.524,7.0433e-12,-0.60469,0,0,0.066667,-0,-0,0.66667
0.74928,0.94237,11.239,0.66355,87.222,266.76,-19.887,6.6292,-0.44371,-26.517,3.0133e-10,-0.22186,0,0,0.066667,-0,-0,0.66667
0.22825,0.064902,3.4237,-0.65265,-185.5,2007.8,5.9586,-1.9862,-0.48092,7.9449,-1.8357e-09,-0.24046,0,0,0.066667,6.3159e-16,0,0.66667
0.1745,0.1187,2.6175,-0.57195,-166.22,2240.6,3.9923,-1.3308,-0.83888,5.323,-1.3688e-09,-0.41944,0,0,0.066667,-0,-0,0.66667
0.039736,0.94292,0.59604,0.66438,198.92,2841.8,-1.056,0.35196,-0.42478,-1.408,-5.307e-05,-0.21239,0,0,0.066667,-0,-0,0.66667
0.14757,0.19773,2.2135,-0.45341,-132.89,2359.1,2.6764,-0.89212,-1.2628,3.5685,-6.3773e-09,-0.6314,0,0,0.066667,3.158e-16,0,0.66667
0.85144,0.42452,12.772,-0.11322,-9.2775,97.628,3.8558,-1.2853,-1.9478,5.1411,4.3535e-10,-0.9739,0,0,0.066667,-1.2632e-15,0,0.66667
0.10464,0.32075,1.5695,-0.26888,-79.644,2549.9,1.1254,-0.37512,-1.7395,1.5005,4.9059e-08,-0.86975,0,0,0.066667,-0,-0,0.66667
0.22365,0.90258,3.3547,0.60387,171.97,2027.4,-5.4021,1.8007,-0.70033,-7.2027,-3.1539e-10,-0.35017,0,0,0.066667,-4.737e-16,0,0.66667
0.032757,0.79283,0.49136,0.43924,131.46,2873.2,-0.57554,0.19185,-1.3194,-0.76739,2.5186e-06,-0.6597,0,0,0.066667,-0,-0,0.66667
0.67636,0.40079,10.145,-0.14882,-24.138,427.48,4.0261,-1.342,-1.9186,5.3681,4.3108e-12,-0.95932,0,0,0.066667,-0,-0,0.66667
0.2317,0.71796,3.4755,0.32695,92.663,1992.5,-3.0302,1.0101,-1.6227,-4.0402,4.0703e-11,-0.81136,0,0,0.066667,3.5527e-16,0,0.66667
0.41359,0.80115,6.2039,0.45172,112.17,1258,-7.4731,2.491,-1.268,-9.9642,1.2153e-11,-0.634,0,0,0.066667,-6.3159e-16,0,0.66667
0.1393,0.71115,2.0895,0.31672,93.022,2395.6,-1.7648,0.58827,-1.6497,-2.3531,-4.0377e-09,-0.82487,0,0,0.066667,-0,-0,0.66667
0.37722,0.66142,5.6583,0.24214,62.178,1396.4,-3.6535,1.2178,-1.795,-4.8714,-3.3893e-12,-0.89751,0,0,0.066667,-0,-0,0.66667
0.42444,0.45268,6.3666,-0.070977,-17.416,1217,1.205,-0.40167,-1.9837,1.6067,3.1113e-12,-0.99184,0,0,0.066667,-6.3159e-16,0,0.66667
0.47296,0.58658,7.0945,0.12986,30.171,1041.6,-2.4568,0.81895,-1.9377,-3.2758,1.2901e-11,-0.96887,0,0,0.066667,-6.3159e-16,0,0.66667
0.42284,0.63929,6.3426,0.20893,51.36,1223,-3.5338,1.1779,-1.8522,-4.7117,-1.0416e-12,-0.9261,0,0,0.066667,6.3159e-16,0,0.66667
0.10276,0.34249,1.5413,-0.23627,-70.008,2558.3,0.97113,-0.32371,-1.7967,1.2948,4.4922e-08,-0.89836,0,0,0.066667,-1.9737e-16,0,0.66667
0.77258,0.81601,11.589,0.47402,57.16,221.08,-14.649,4.8829,-1.1957,-19.532,-1.955e-11,-0.59783,0,0,0.066667,-0,-0,0.66667
0.13721,0.82864,2.0581,0.49296,144.94,2405,-2.7055,0.90183,-1.1351,-3.6073,6.7445e-10,-0.56754,0,0,0.066667,1.579e-16,0,0.66667
0.42429,0.023122,6.3644,-0.71532,-175.92,1218.9,12.14,-4.0467,-0.18316,16.187,2.1901e-11,-0.091578,0,0,0.066667,-0,-0,0.66667
0.27196,0.75338,4.0793,0.38008,105.43,1822.1,-4.1346,1.3782,-1.4814,-5.5128,1.7135e-11,-0.7407,0,0,0.066667,-0,-0,0.66667
0.30101,0.57008,4.5151,0.10512,28.618,1701.2,-1.2656,0.42188,-1.9586,-1.6875,1.4435e-11,-0.97928,0,0,0.066667,-0,-0,0.66667
0.67242,0.41213,10.086,-0.1318,-21.588,437.2,3.545,-1.1817,-1.9481,4.7267,3.7337e-12,-0.97403,0,0,0.066667,-0,-0,0.66667
0.51779,0.71978,7.7668,0.32968,72.231,888.81,-6.8281,2.276,-1.618,-9.1041,-4.4498e-12,-0.80898,0,0,0.066667,-0,-0,0.66667
0.19009,0.16025,2.8513,-0.50962,-147.2,2172.4,3.8749,-1.2916,-1.079,5.1665,-6.0809e-10,-0.53952,0,0,0.066667,6.3159e-16,0,0.66667
0.46913,0.18239,7.037,-0.47641,-111.3,1055.8,8.9401,-2.98,-1.2036,11.92,3.3271e-12,-0.60182,0,0,0.066667,-9.4739e-16,0,0.66667
0.33954,0.93038,5.0931,0.64557,171.24,1545.8,-8.7678,2.9226,-0.51593,-11.69,4.2224e-12,-0.25797,0,0,0.066667,-0,-0,0.66667
0.7045,0.6643,10.567,0.24644,37.11,360.81,-6.9447,2.3149,-1.7902,-9.2596,-1.1884e-12,-0.89511,0,0,0.066667,-0,-0,0.66667
0.2261,0.091557,3.3914,-0.61266,-174.28,2016.9,5.5408,-1.8469,-0.66005,7.3878,4.8222e-10,-0.33002,0,0,0.066667,3.9475e-17,0,0.66667
0.84499,0.34797,12.675,-0.22804,-19.445,106.13,7.7077,-2.5692,-1.8223,10.277,-2.3721e-11,-0.91115,0,0,0.066667,2.5264e-15,0,0.66667
0.52623,0.059024,7.8934,-0.66146,-143.4,862.15,13.923,-4.6411,-0.44102,18.564,1.2397e-11,-0.22051,0,0,0.066667,-6.3159e-16,0,0.66667
0.50062,0.94457,7.5093,0.66685,149.84,947.5,-13.353,4.4512,-0.42825,-17.805,1.115e-11,-0.21413,0,0,0.066667,-0,-0,0.66667
0.25369,0.24199,3.8053,-0.38701,-108.47,1899,3.9272,-1.3091,-1.4663,5.2362,9.913e-12,-0.73315,0,0,0.066667,-1.579e-16,0,0.66667
0.18616,0.96162,2.7923,0.69243,200.47,2189.9,-5.156,1.7187,-0.30163,-6.8747,5.1741e-09,-0.15082,0,0,0.066667,-0,-0,0.66667
0.47182,0.81109,7.0773,0.46664,108.66,1046.3,-8.8067,2.9356,-1.2273,-11.742,2.0092e-11,-0.61363,0,0,0.066667,-1.579e-16,0,0.66667
0.98182,0.50909,14.727,0.01364,0.13943,1.8652,-0.53568,0.17856,-2.0013,-0.71423,1.2747e-06,-1.0006,0,0,0.066667,-0,-0,0.66667
0.13291,0.039477,1.9936,-0.69078,-203.51,2424.3,3.6724,-1.2241,-0.29706,4.8965,2.1466e-07,-0.14853,0,0,0.066667,-3.158e-16,0,0.66667
0.28346,0.057857,4.2519,-0.66321,-182.89,1774.6,7.5199,-2.5066,-0.43966,10.026,2.1956e-11,-0.21983,0,0,0.066667,3.158e-16,0,0.66667
0.80064,0.10194,12.01,-0.59708,-64.174,173.1,19.122,-6.374,-0.73104,25.496,-5.9915e-10,-0.36552,0,0,0.066667,-0,-0,0.66667
0.66478,0.52854,9.9717,0.042809,7.1423,456.31,-1.1383,0.37945,-1.9881,-1.5178,-2.8422e-12,-0.99407,0,0,0.066667,9.4739e-16,0,0.66667
0.27876,0.71308,4.1814,0.31962,88.283,1793.6,-3.5639,1.188,-1.6393,-4.7519,2.0958e-11,-0.81964,0,0,0.066667,1.579e-16,0,0.66667
0.31465,0.99113,4.7197,0.73669,199.11,1646.5,-9.2719,3.0906,-0.073623,-12.363,1.7774e-11,-0.036812,0,0,0.066667,-3.158e-16,0,0.66667
0.41995,0.23498,6.2992,-0.39753,-98.061,1234.1,6.6778,-2.2259,-1.4418,8.9037,6.1982e-12,-0.72091,0,0,0.066667,6.3159e-16,0,0.66667
0.60279,0.77115,9.0418,0.40672,77.514,625.1,-9.8067,3.2689,-1.4058,-13.076,1.0898e-12,-0.70291,0,0,0.066667,-6.3159e-16,0,0.66667
0.71934,0.47355,10.79,-0.039673,-5.7201,327.28,1.1415,-0.38051,-2.0042,1.522,-1.1277e-12,-1.0021,0,0,0.066667,-0,-0,0.66667
0.8573,0.41572,12.86,-0.12642,-9.9798,90.399,4.3351,-1.445,-1.9466,5.7801,2.8618e-10,-0.97332,0,0,0.066667,-0,-0,0.66667
0.68111,0.25069,10.217,-0.37396,-59.978,416.37,10.188,-3.3961,-1.4983,13.584,-1.0578e-12,-0.74913,0,0,0.066667,2.5264e-15,0,0.66667
0.23698,0.83918,3.5547,0.50878,143.9,1970.2,-4.8228,1.6076,-1.0819,-6.4304,-4.931e-11,-0.54097,0,0,0.066667,-1.579e-16,0,0.66667
0.92572,0.51923,13.886,0.028851,1.2213,25.797,-1.0683,0.35611,-1.9952,-1.4244,8.7206e-08,-0.99759,0,0,0.066667,-0,-0,0.66667
0.7812,0.11394,11.718,-0.57909,-67.571,206.12,18.095,-6.0318,-0.81919,24.127,5.7015e-10,-0.40959,0,0,0.066667,-0,-7.2212e-17,0.66667
0.30738,0.49613,4.6107,-0.0057996,-1.5721,1675.1,0.071307,-0.023769,-1.9964,0.095076,5.3167e-12,-0.99818,0,0,0.066667,2.489e-16,0,0.66667
0.30497,0.48863,4.5745,-0.01706,-4.632,1685,0.20811,-0.069369,-1.9924,0.27748,1.8079e-11,-0.99622,0,0,0.066667,6.3159e-16,0,0.66667
0.88117,0.86905,13.218,0.55357,36.977,65.352,-19.512,6.5039,-0.90522,-26.015,1.5263e-07,-0.45261,0,0,0.066667,-0,-0,0.66667
0.12608,0.013482,1.8912,-0.72978,-215.43,2454.7,3.6804,-1.2268,-0.11336,4.9072,-1.5832e-07,-0.056682,0,0,0.066667,6.3159e-16,0,0.66667
0.63346,0.53289,9.5019,0.049335,8.8327,538.51,-1.2501,0.41669,-1.9862,-1.6668,1.9144e-12,-0.99308,0,0,0.066667,-0,-0,0.66667
0.27771,0.88961,4.1657,0.58441,161.67,1798.4,-6.492,2.164,-0.78445,-8.656,6.1473e-11,-0.39223,0,0,0.066667,-0,-0,0.66667
0.8272,0.52638,12.408,0.039564,3.7245,130.31,-1.3091,0.43636,-2.0028,-1.7454,-1.8296e-10,-1.0014,0,0,0.066667,-1.8948e-15,0,0.66667
0.36452,0.116,5.4679,-0.576,-149.7,1446.6,8.3986,-2.7995,-0.81612,11.198,1.889e-11,-0.40806,0,0,0.066667,-3.158e-16,0,0.66667
0.73337,0.36189,11,-0.20717,-28.613,297.36,6.0772,-2.0257,-1.8547,8.1029,9.0017e-13,-0.92733,0,0,0.066667,-1.2632e-15,0,0.66667
0.19242,0.32021,2.8863,-0.26968,-77.771,2162.1,2.0756,-0.69188,-1.7377,2.7675,-5.5839e-11,-0.86885,0,0,0.066667,-0,-0,0.66667
0.48145,0.39505,7.2217,-0.15742,-36.191,1012,3.0315,-1.0105,-1.9125,4.0421,6.6356e-12,-0.95625,0,0,0.066667,-0,-0,0.66667
0.80359,0.072667,12.054,-0.641,-68.019,168.6,20.604,-6.8681,-0.53298,27.472,7.7735e-09,-0.26649,0,0,0.066667,-0,-0,0.66667
0.39699,0.93731,5.9548,0.65596,165.68,1321.4,-10.416,3.4721,-0.46572,-13.888,1.9935e-11,-0.23286,0,0,0.066667,-2.1963e-16,0,0.66667
0.16157,0.78485,2.4236,0.42728,124.67,2297.3,-2.7615,0.9205,-1.3471,-3.682,-1.0173e-09,-0.67353,0,0,0.066667,-0,-0,0.66667
0.64898,0.91393,9.7347,0.6209,107.7,498.71,-16.118,5.3727,-0.62313,-21.491,8.6686e-13,-0.31157,0,0,0.066667,-0,-0,0.66667
0.75333,0.81254,11.3,0.46881,60.661,257.65,-14.127,4.7088,-1.2196,-18.835,6.3901e-11,-0.60982,0,0,0.066667,-0,-0,0.66667
0.28019,0.73733,4.2029,0.35599,98.252,1787.7,-3.9899,1.33,-1.5565,-5.3198,2.309e-11,-0.77824,0,0,0.066667,-3.3181e-16,0,0.66667
0.45136,0.10988,6.7704,-0.58519,-139.66,1119.5,10.565,-3.5217,-0.78673,14.087,2.0011e-12,-0.39337,0,0,0.066667,-6.3159e-16,-9.9891e-17,0.66667
0.90045,0.57259,13.507,0.10888,6.1175,45.303,-3.9216,1.3072,-1.9526,-5.2288,2.2457e-08,-0.9763,0,0,0.066667,-0,-0,0.66667
0.87199,0.004456,13.08,-0.74332,-53.431,76.53,25.926,-8.6421,-0.036596,34.569,5.0345e-09,-0.018298,0,0,0.066667,-0,-0,0.66667
0.70719,0.87298,10.608,0.55947,83.756,355.86,-15.826,5.2753,-0.88594,-21.101,-8.7885e-12,-0.44297,0,0,0.066667,1.4211e-15,0,0.66667
0.5909,0.40418,8.8635,-0.14373,-27.983,659.2,3.3973,-1.1324,-1.9285,4.5297,7.1749e-12,-0.96427,0,0,0.066667,3.158e-16,0,0.66667
0.81738,0.75078,12.261,0.37617,37.289,145.59,-12.299,4.0997,-1.4943,-16.399,3.3058e-11,-0.74716,0,0,0.066667,2.5264e-15,0,0.66667
0.90764,0.010909,13.615,-0.73364,-38.757,42.42,26.635,-8.8784,-0.092163,35.514,4.2437e-07,-0.046082,0,0,0.066667,-0,-0,0.66667
0.0025076,0.92261,0.037613,0.63392,190.07,3009.9,-0.063605,0.02127,-0.57309,-0.084772,0.00010286,-0.28654,0,0,0.066667,-0,-0,0.66667
0.39723,0.48711,5.9584,-0.019334,-4.8737,1319.3,0.3072,-0.1024,-1.9925,0.4096,2.0509e-11,-0.99624,0,0,0.066667,-6.3159e-16,0,0.66667
0.56141,0.24989,8.4211,-0.37516,-76.911,748.92,8.4247,-2.8082,-1.5081,11.233,5.9854e-12,-0.75407,0,0,0.066667,4.9343e-16,0,0.66667
0.73392,0.44019,11.009,-0.089712,-12.365,296.02,2.6337,-0.87789,-1.9821,3.5116,-1.2904e-11,-0.99107,0,0,0.066667,2.5264e-15,0,0.66667
0.087473,0.34063,1.3121,-0.23905,-71.042,2626.8,0.83643,-0.27881,-1.7919,1.1152,-3.1759e-10,-0.89597,0,0,0.066667,-0,-0,0.66667
0.39975,0.93919,5.9963,0.65879,165.96,1310.8,-10.534,3.5114,-0.4521,-14.046,8.2281e-12,-0.22605,0,0,0.066667,1.2632e-15,0,0.66667
0.27962,0.30149,4.1943,-0.29777,-82.2,1790,3.3305,-1.1102,-1.6897,4.4407,2.6618e-11,-0.84485,0,0,0.066667,-3.158e-16,0,0.66667
0.42351,0.045443,6.3527,-0.68183,-167.79,1221.7,11.551,-3.8502,-0.35182,15.401,2.0793e-11,-0.17591,0,0,0.066667,-6.3159e-16,0,0.66667
0.49798,0.49162,7.4697,-0.012567,-2.8277,955,0.25032,-0.083438,-2.0032,0.33375,9.596e-12,-1.0016,0,0,0.066667,-1.8948e-15,0,0.66667
0.66002,0.99133,9.9002,0.73699,124.77,470.82,-19.457,6.4857,-0.067345,-25.943,3.6096e-12,-0.033673,0,0,0.066667,-0,-0,0.66667
0.49624,0.47526,7.4435,-0.037117,-8.3715,960.94,0.73675,-0.24558,-1.9939,0.98234,1.851e-11,-0.99696,0,0,0.066667,-0,-0,0.66667
0.62047,0.63776,9.307,0.20664,38.015,574.44,-5.1286,1.7095,-1.8448,-6.8381,1.747e-12,-0.92239,0,0,0.066667,-0,-0,0.66667
0.58244,0.67442,8.7366,0.26162,51.727,684.53,-6.0952,2.0317,-1.7537,-8.1269,-1.7986e-13,-0.87684,0,0,0.066667,-0,-0,0.66667
0.42833,0.77768,6.425,0.41652,101.86,1203,-7.1364,2.3788,-1.378,-9.5152,1.918e-12,-0.68902,0,0,0.066667,-1.579e-16,0,0.66667
0.0049764,0.32716,0.074645,-0.25926,-77.643,2998.7,0.051605,-0.017199,-1.7568,0.068808,3.7819e-06,-0.87838,0,0,0.066667,-0,-0,0.66667
0.19452,0.8919,2.9177,0.58785,169.55,2153.3,-4.5739,1.5246,-0.76483,-6.0985,-6.2531e-10,-0.38241,0,0,0.066667,3.158e-16,0,0.66667
0.32021,0.038666,4.8031,-0.692,-186.25,1623.8,8.8633,-2.9544,-0.29117,11.818,3.354e-11,-0.14558,0,0,0.066667,-0,-0,0.66667
0.14698,0.086344,2.2047,-0.62048,-182.01,2361.9,3.6479,-1.216,-0.62555,4.8639,3.8858e-08,-0.31277,0,0,0.066667,-0,-0,0.66667
0.59866,0.59796,8.98,0.14693,28.2,636.47,-3.5186,1.1729,-1.92,-4.6914,3.185e-12,-0.96,0,0,0.066667,-0,-0,0.66667
0.6115,0.027467,9.1725,-0.7088,-133.08,601.54,17.337,-5.7791,-0.21772,23.116,-1.7959e-12,-0.10886,0,0,0.066667,6.3159e-16,0,0.66667
0.50009,0.58909,7.5014,0.13363,29.988,947.87,-2.6732,0.89106,-1.9485,-3.5642,-4.5268e-12,-0.97427,0,0,0.066667,-3.158e-16,0,0.66667
0.32085,0.72846,4.8127,0.3427,92.067,1620.4,-4.3981,1.466,-1.5761,-5.8642,-1.2124e-12,-0.78805,0,0,0.066667,-0,-0,0.66667
0.65326,0.81442,9.7989,0.47163,80.942,486.84,-12.324,4.1079,-1.2107,-16.432,1.0088e-11,-0.60537,0,0,0.066667,-2.5264e-15,0,0.66667
0.19028,0.88368,2.8543,0.57551,166.26,2171.7,-4.3804,1.4601,-0.82359,-5.8406,-1.7219e-10,-0.4118,0,0,0.066667,-0,-0,0.66667
0.005881,0.86649,0.088215,0.54974,164.77,2994.7,-0.1293,0.043083,-0.92031,-0.17242,-2.76e-05,-0.46016,0,0,0.066667,4.9343e-18,-8.3625e-17,0.66667
0.73494,0.94806,11.024,0.67209,92.644,296.06,-19.758,6.586,-0.40317,-26.344,-1.3185e-10,-0.20159,0,0,0.066667,-0,-0,0.66667
0.4435,0.12524,6.6526,-0.56214,-135.33,1147.8,9.9725,-3.3242,-0.8724,13.297,-6.7972e-12,-0.4362,0,0,0.066667,1.2632e-15,0,0.66667
0.69784,0.71755,10.468,0.32633,50.069,376.38,-9.109,3.0363,-1.6181,-12.145,1.1839e-11,-0.80903,0,0,0.066667,-1.2632e-15,0,0.66667
0.18504,0.80562,2.7757,0.45842,132.65,2194.4,-3.3931,1.131,-1.2553,-4.5242,1.4476e-09,-0.62763,0,0,0.066667,3.158e-16,0,0.66667
0.06262,0.48742,0.9393,-0.018872,-5.6285,2738.5,0.047271,-0.015757,-2.0099,0.063028,-1.2329e-07,-1.0049,0,0,0.066667,7.8949e-17,0,0.66667
0.37811,0.25503,5.6716,-0.36746,-94.315,1393.1,5.5576,-1.8525,-1.5207,7.4101,-1.5815e-11,-0.76033,0,0,0.066667,1.2632e-15,0,0.66667
0.696,0.35236,10.44,-0.22147,-34.138,380.43,6.1656,-2.0552,-1.8194,8.2208,2.2067e-12,-0.90971,0,0,0.066667,-0,-0,0.66667
0.10282,0.38054,1.5423,-0.17919,-53.091,2558,0.73697,-0.24566,-1.8803,0.98262,3.2791e-08,-0.94017,0,0,0.066667,-0,-0,0.66667
0.19583,0.081027,2.9375,-0.62846,-181.2,2147.6,4.923,-1.641,-0.58916,6.5639,-4.3487e-09,-0.29458,0,0,0.066667,3.158e-16,0,0.66667
0.45395,0.55058,6.8093,0.07587,18.027,1109.2,-1.3777,0.45922,-1.9876,-1.8369,1.432e-12,-0.9938,0,0,0.066667,-6.3159e-16,0,0.66667
0.62115,0.86793,9.3172,0.5519,101.54,573.62,-13.713,4.5708,-0.91554,-18.283,1.2297e-11,-0.45777,0,0,0.066667,-0,-0,0.66667
0.75012,0.59935,11.252,0.14902,19.468,262.99,-4.4715,1.4905,-1.9328,-5.962,-1.0609e-12,-0.9664,0,0,0.066667,-0,-0,0.66667
0.10974,0.20433,1.646,-0.44351,-131.28,2527.2,1.9467,-0.64891,-1.3106,2.5956,-1.0658e-08,-0.65532,0,0,0.066667,-0,-0,0.66667
0.62462,0.058156,9.3694,-0.66277,-121.17,564.55,16.559,-5.5197,-0.449,22.079,5.7145e-12,-0.2245,0,0,0.066667,-0,3.7795e-17,0.66667
0.38736,0.64797,5.8104,0.22195,56.476,1357.2,-3.439,1.1463,-1.8248,-4.5853,4.267e-12,-0.91238,0,0,0.066667,6.3159e-16,0,0.66667
0.67009,0.59954,10.051,0.1493,24.595,443.03,-4.0019,1.334,-1.9256,-5.3358,5.1883e-12,-0.96282,0,0,0.066667,-0,-0,0.66667
0.20356,0.092263,3.0534,-0.61161,-175.76,2114.1,4.98,-1.66,-0.68105,6.6399,2.9064e-10,-0.34053,0,0,0.066667,3.9475e-17,0,0.66667
0.52792,0.88719,7.9188,0.58078,125.54,856.28,-12.264,4.0881,-0.80013,-16.352,-1.3036e-11,-0.40006,0,0,0.066667,-0,-0,0.66667
0.17216,0.54261,2.5824,0.063922,18.571,2250.5,-0.4402,0.14673,-1.9959,-0.58693,1.4874e-10,-0.99796,0,0,0.066667,-0,-0,0.66667
0.018681,0.21477,0.28022,-0.42784,-128.14,2936.8,0.3197,-0.10657,-1.3502,0.42626,-7.8956e-06,-0.6751,0,0,0.066667,-1.9737e-17,0,0.66667
0.48695,0.3608,7.3043,-0.2088,-47.675,992.96,4.0671,-1.3557,-1.8466,5.4228,6.1773e-12,-0.92328,0,0,0.066667,-0,-0,0.66667
0.18418,0.015697,2.7627,-0.72646,-210.52,2198.6,5.3519,-1.784,-0.12298,7.1358,-8.7708e-09,-0.061488,0,0,0.066667,6.3159e-16,-7.8948e-17,0.66667
0.63834,0.33396,9.5751,-0.24906,-44.143,525.57,6.3594,-2.1198,-1.7822,8.4793,5.3788e-12,-0.89109,0,0,0.066667,-0,-0,0.66667
0.53657,0.61863,8.0486,0.17794,37.915,827.1,-3.8191,1.273,-1.8832,-5.0922,1.0909e-11,-0.9416,0,0,0.066667,-0,-0,0.66667
0.77495,0.14834,11.624,-0.52749,-63.058,217.04,16.351,-5.4504,-1.0051,21.802,-1.6491e-10,-0.50255,0,0,0.066667,-1.2632e-15,0,0.66667
0.39296,0.65092,5.8944,0.22637,57.305,1335.7,-3.5582,1.1861,-1.8209,-4.7443,6.2159e-12,-0.91043,0,0,0.066667,3.158e-16,0,0.66667
0.98945,0.018834,14.842,-0.72175,-4.5124,4.159,28.565,-9.5219,-0.14415,38.087,-0.00015451,-0.072073,0,0,0.066667,-0,-0,0.66667
0.51521,0.15826,7.7282,-0.5126,-112.8,897.88,10.564,-3.5213,-1.0768,14.085,1.2408e-11,-0.5384,0,0,0.066667,-1.2632e-15,-6.9099e-17,0.66667
0.47882,0.23182,7.1824,-0.40227,-92.845,1021.6,7.7047,-2.5682,-1.4195,10.273,3.5199e-12,-0.70977,0,0,0.066667,-0,-0,0.66667
0.74944,0.96057,11.242,0.69086,90.788,266.62,-20.71,6.9035,-0.31248,-27.614,5.3573e-11,-0.15624,0,0,0.066667,-0,-0,0.66667
0.57269,0.078966,8.5903,-0.63155,-127.22,715.24,14.467,-4.8224,-0.57687,19.29,1.7395e-11,-0.28844,0,0,0.066667,1.2632e-15,0,0.66667
0.36247,0.14557,5.437,-0.53165,-138.39,1454.6,7.7082,-2.5694,-0.99521,10.278,2.8014e-11,-0.4976,0,0,0.066667,-3.158e-16,0,0.66667
0.48924,0.76299,7.3387,0.39448,89.851,985.42,-7.7199,2.5733,-1.4427,-10.293,2.9803e-12,-0.72134,0,0,0.066667,-0,-0,0.66667
0.18914,0.049393,2.8371,-0.67591,-195.45,2176.8,5.1136,-1.7045,-0.38043,6.8182,4.0879e-09,-0.19022,0,0,0.066667,-0,-0,0.66667
0.39358,0.03785,5.9038,-0.69323,-175.69,1334.5,10.914,-3.6379,-0.2923,14.552,1.592e-11,-0.14615,0,0,0.066667,-0,-0,0.66667
0.029962,0.78925,0.44943,0.43387,129.88,2885.9,-0.51999,0.17334,-1.3372,-0.69331,9.5661e-06,-0.6686,0,0,0.066667,-0,-0,0.66667
0.46253,0.54319,6.9379,0.064779,15.239,1078.5,-1.1985,0.3995,-1.9793,-1.598,-6.3614e-12,-0.98963,0,0,0.066667,-0,-0,0.66667
0.27447,0.1732,4.1171,-0.49019,-135.82,1811.7,5.3818,-1.7939,-1.1393,7.1758,1.7595e-11,-0.56965,0,0,0.066667,3.158e-16,0,0.66667
0.52672,0.24332,7.9007,-0.38502,-83.296,859.54,8.1119,-2.704,-1.47,10.816,6.5636e-13,-0.73502,0,0,0.066667,6.3159e-16,0,0.66667
0.029272,0.34476,0.43908,-0.23287,-69.677,2888.9,0.27266,-0.090888,-1.8122,0.36354,-2.8444e-06,-0.90612,0,0,0.066667,-0,-0,0.66667
0.55509,0.75952,8.3263,0.38928,80.635,768.67,-8.6434,2.8811,-1.4548,-11.525,-5.4055e-12,-0.72741,0,0,0.066667,-0,-0,0.66667
0.293,0.15396,4.395,-0.51905,-142.19,1734.8,6.0833,-2.0278,-1.0413,8.111,-1.2729e-11,-0.52065,0,0,0.066667,3.158e-16,0,0.66667
0.57749,0.82766,8.6624,0.49149,98.111,700.08,-11.353,3.7844,-1.1499,-15.138,6.7253e-12,-0.57494,0,0,0.066667,-1.2632e-15,0,0.66667
0.73277,0.38579,10.992,-0.17131,-23.703,298.55,5.0213,-1.6738,-1.9007,6.695,-2.4727e-12,-0.95035,0,0,0.066667,-0,-0,0.66667
0.44034,0.74866,6.6051,0.37299,90.037,1158.8,-6.5697,2.1899,-1.5075,-8.7596,-1.1732e-11,-0.75376,0,0,0.066667,1.579e-16,0,0.66667
0.66316,0.62919,9.9474,0.19379,32.464,460.58,-5.1406,1.7135,-1.861,-6.8541,-1.4286e-12,-0.93048,0,0,0.066667,-0,-0,0.66667
0.23891,0.21644,3.5836,-0.42534,-120.15,1961.8,4.0648,-1.3549,-1.3545,5.4197,1.6471e-12,-0.67726,0,0,0.066667,-7.8949e-17,0,0.66667
0.9986,0.98727,14.979,0.7309,0.59239,3.5952,-29.194,9.7312,-0.1048,-38.925,-0.00019861,-0.052399,0,0,0.066667,1.2632e-15,0,0.66667
0.24288,0.21943,3.6432,-0.42085,-118.64,1944.9,4.0886,-1.3629,-1.3653,5.4515,2.3157e-11,-0.68264,0,0,0.066667,6.3159e-16,0,0.66667
0.94083,0.90488,14.112,0.60732,20.802,19.015,-22.855,7.6184,-0.68937,-30.474,-1.1265e-05,-0.34468,0,0,0.066667,-1.8948e-15,0,0.66667
0.21722,0.6298,3.2583,0.1947,55.547,2054.6,-1.6917,0.56389,-1.8712,-2.2556,2.9569e-11,-0.9356,0,0,0.066667,-0,-0,0.66667
0.49756,0.75145,7.4635,0.37717,84.975,956.88,-7.5067,2.5022,-1.4976,-10.009,4.7784e-13,-0.7488,0,0,0.066667,1.2632e-15,0,0.66667
0.82118,0.56522,12.318,0.097829,9.5018,139.17,-3.2134,1.0711,-1.9607,-4.2845,-1.691e-10,-0.98034,0,0,0.066667,-2.5264e-15,0,0.66667
0.71659,0.62571,10.749,0.18856,27.417,333.5,-5.4048,1.8016,-1.878,-7.2064,-1.9424e-12,-0.93902,0,0,0.066667,-0,-0,0.66667
0.70558,0.075836,10.584,-0.63625,-95.744,359.95,17.957,-5.9856,-0.56265,23.943,4.6665e-12,-0.28132,0,0,0.066667,-1.2632e-15,0,0.66667
0.44044,0.58317,6.6066,0.12475,30.094,1158.1,-2.1978,0.7326,-1.9453,-2.9304,-6.0969e-12,-0.97265,0,0,0.066667,6.3159e-16,0,0.66667
0.75418,0.18171,11.313,-0.47743,-61.597,256.02,14.403,-4.8009,-1.1875,19.203,-3.451e-11,-0.59376,0,0,0.066667,-6.3159e-16,0,0.66667
0.91995,0.63514,13.799,0.20271,9.2362,30.017,-7.4592,2.4864,-1.8579,-9.9456,1.0863e-07,-0.92893,0,0,0.066667,2.5264e-15,0,0.66667
0.44135,0.94394,6.6203,0.66591,160.78,1156,-11.756,3.9187,-0.42195,-15.675,-1.7606e-11,-0.21098,0,0,0.066667,1.2632e-15,0,0.66667
0.52797,0.39689,7.9195,-0.15466,-33.379,855.02,3.2662,-1.0887,-1.9147,4.355,-2.107e-12,-0.95735,0,0,0.066667,-0,-0,0.66667
0.066036,0.1883,0.99053,-0.46756,-139.49,2723.2,1.235,-0.41167,-1.2231,1.6467,3.1895e-07,-0.61154,0,0,0.066667,-0,-0,0.66667
0.39077,0.48207,5.8616,-0.026899,-6.8217,1344,0.42045,-0.14015,-2.0084,0.56061,1.0618e-11,-1.0042,0,0,0.066667,6.3159e-16,0,0.66667
0.46724,0.66215,7.0086,0.24322,56.909,1061.9,-4.5456,1.5152,-1.7956,-6.0609,-2.7423e-12,-0.89779,0,0,0.066667,1.2632e-15,0,0.66667
0.89514,0.65452,13.427,0.23177,13.696,50.301,-8.2988,2.7663,-1.8069,-11.065,3.9793e-08,-0.90347,0,0,0.066667,1.579e-15,0,0.66667
0.11056,0.3013,1.6584,-0.29806,-88.177,2523.5,1.3181,-0.43936,-1.6908,1.7575,1.6589e-08,-0.84539,0,0,0.066667,-0,-0,0.66667
0.73114,0.51735,10.967,0.026019,3.6178,301.85,-0.76093,0.25364,-1.9972,-1.0146,5.6266e-12,-0.99861,0,0,0.066667,-2.5264e-15,0,0.66667
0.54547,0.94781,8.1821,0.67172,141.48,800.13,-14.656,4.8854,-0.40157,-19.541,-2.6219e-12,-0.20078,0,0,0.066667,1.2632e-15,0,0.66667
0.60654,0.59221,9.098,0.13832,26.152,613.73,-3.3558,1.1186,-1.9341,-4.4744,4.4609e-12,-0.96705,0,0,0.066667,-5.5264e-16,0,0.66667
0.029783,0.4091,0.44674,-0.13635,-40.791,2886.6,0.16243,-0.054145,-1.9405,0.21658,-1.3626e-06,-0.97023,0,0,0.066667,-0,-0,0.66667
0.14675,0.22104,2.2012,-0.41844,-122.66,2362.7,2.4562,-0.81874,-1.3729,3.275,-4.6158e-09,-0.68643,0,0,0.066667,-0,-0,0.66667
0.28398,0.21564,4.2597,-0.42655,-117.48,1772,4.8453,-1.6151,-1.3553,6.4604,8.6788e-12,-0.67763,0,0,0.066667,7.8949e-17,0,0.66667
0.004872,0.14516,0.073081,-0.53225,-159.52,2999.2,0.10371,-0.034564,-0.98884,0.13829,1.0164e-05,-0.49442,0,0,0.066667,-0,1.4457e-16,0.66667
0.66916,0.64221,10.037,0.21332,35.226,445.47,-5.7097,1.9032,-1.8393,-7.613,5.1883e-12,-0.91967,0,0,0.066667,-7.9244e-16,0,0.66667
0.87026,0.40426,13.054,-0.14361,-10.373,75.349,4.9991,-1.6664,-1.9241,6.6654,-6.0511e-10,-0.96206,0,0,0.066667,1.579e-16,0,0.66667
0.54697,0.56226,8.2045,0.093392,19.582,793.76,-2.0433,0.6811,-1.9818,-2.7244,2.5289e-12,-0.99092,0,0,0.066667,5.9212e-17,0,0.66667
0.54316,0.57776,8.1475,0.11664,24.603,805.89,-2.5343,0.84475,-1.95,-3.379,5.5151e-12,-0.975,0,0,0.066667,-0,-0,0.66667
0.61573,0.47887,9.2359,-0.031693,-5.8849,587.55,0.78058,-0.26019,-1.9906,1.0408,6.8975e-12,-0.9953,0,0,0.066667,-0,-0,0.66667
0.30218,0.58409,4.5327,0.12614,34.315,1696.4,-1.5247,0.50823,-1.9389,-2.0329,2.3718e-11,-0.96944,0,0,0.066667,-3.158e-16,0,0.66667
0.36673,0.30941,5.501,-0.28588,-74.088,1437.3,4.1937,-1.3979,-1.7039,5.5916,-2.3981e-12,-0.85195,0,0,0.066667,-6.8092e-16,0,0.66667
0.57494,0.057366,8.6241,-0.66395,-133.26,708.57,15.269,-5.0898,-0.43312,20.359,1.686e-11,-0.21656,0,0,0.066667,-0,-0,0.66667
0.80922,0.8387,12.138,0.50805,52.449,158.82,-16.445,5.4817,-1.0825,-21.927,-2.1575e-10,-0.54126,0,0,0.066667,-1.579e-15,0,0.66667
0.2016,0.013761,3.0239,-0.72936,-209.89,2122.8,5.8814,-1.9605,-0.11377,7.8419,2.1781e-09,-0.056885,0,0,0.066667,-0,7.7826e-17,0.66667
0.32752,0.86471,4.9129,0.54707,146.36,1593.8,-7.1671,2.389,-0.94502,-9.5561,-3.9955e-12,-0.47251,0,0,0.066667,-0,7.8302e-17,0.66667
0.74292,0.040584,11.144,-0.68912,-92.57,279.73,20.479,-6.8262,-0.30526,27.305,3.6154e-11,-0.15263,0,0,0.066667,-1.2632e-15,0,0.66667
0.34092,0.65421,5.1138,0.23131,61.207,1539.4,-3.1544,1.0515,-1.8118,-4.2059,7.4278e-12,-0.90591,0,0,0.066667,-7.8949e-17,0,0.66667
0.047611,0.94025,0.71416,0.66037,197.58,2806.3,-1.2576,0.4192,-0.45891,-1.6768,-1.9426e-05,-0.22945,0,0,0.066667,-0,-0,0.66667
0.15636,0.26646,2.3454,-0.35032,-102.37,2320.2,2.191,-0.73033,-1.5748,2.9213,-1.2162e-09,-0.7874,0,0,0.066667,-3.158e-16,0,0.66667
0.19386,0.58058,2.908,0.12086,34.828,2155.7,-0.93725,0.31242,-1.9421,-1.2497,-3.6137e-11,-0.97103,0,0,0.066667,-0,-0,0.66667
0.49511,0.78932,7.4267,0.43398,98.111,965.4,-8.5948,2.8649,-1.3266,-11.46,-5.8389e-12,-0.66332,0,0,0.066667,1.2632e-15,0,0.66667
0.63512,0.63286,9.5269,0.19929,35.561,534.16,-5.0629,1.6876,-1.8541,-6.7505,2.0171e-12,-0.92707,0,0,0.066667,-0,-0,0.66667
0.88022,0.0020914,13.203,-0.74686,-50.457,67.803,26.296,-8.7654,-0.013321,35.062,-2.5786e-07,-0.0066607,0,0,0.066667,-0,-0,0.66667
0.90254,0.40366,13.538,-0.14451,-7.9576,43.554,5.217,-1.739,-1.9253,6.956,-2.5242e-08,-0.96265,0,0,0.066667,-1.8948e-15,0,0.66667
0.30716,0.062185,4.6074,-0.65672,-178.34,1676.9,8.0688,-2.6896,-0.46335,10.758,4.7523e-11,-0.23167,0,0,0.066667,8.5857e-16,0,0.66667
0.75338,0.33584,11.301,-0.24625,-31.816,256.74,7.4206,-2.4735,-1.784,9.8942,8.1344e-12,-0.89202,0,0,0.066667,-0,-0,0.66667
0.28243,0.7144,4.2364,0.3216,88.63,1778.3,-3.6331,1.211,-1.6397,-4.8441,1.9369e-11,-0.81985,0,0,0.066667,-1.579e-16,0,0.66667
0.36858,0.63641,5.5287,0.20461,52.934,1430,-3.0166,1.0055,-1.8452,-4.0221,9.8637e-12,-0.92259,0,0,0.066667,-6.3159e-16,0,0.66667
0.29273,0.73827,4.3909,0.3574,97.872,1735.6,-4.1849,1.395,-1.5433,-5.5798,1.05e-11,-0.77164,0,0,0.066667,-3.158e-16,0,0.66667
0.41369,0.29463,6.2054,-0.30806,-76.451,1257.3,5.0976,-1.6992,-1.656,6.7968,1.5981e-11,-0.82799,0,0,0.066667,-0,-0,0.66667
0.21472,0.87385,3.2207,0.56078,160.33,2065.8,-4.8163,1.6054,-0.88095,-6.4218,7.3833e-10,-0.44048,0,0,0.066667,-3.7501e-16,0,0.66667
0.31899,0.42615,4.7848,-0.11077,-29.786,1627.7,1.4133,-0.47111,-1.9504,1.8845,3.4953e-11,-0.97518,0,0,0.066667,-3.158e-16,0,0.66667
0.12192,0.71705,1.8288,0.32558,96.067,2472.8,-1.5878,0.52926,-1.6245,-2.117,1.6268e-08,-0.81226,0,0,0.066667,-1.9737e-17,0,0.66667
0.96302,0.1153,14.445,-0.57705,-12.43,9.0023,22.228,-7.4095,-0.81094,29.638,-1.7674e-05,-0.40547,0,0,0.066667,-0,-0,0.66667
0.50398,0.67603,7.5597,0.26404,58.958,934.87,-5.3229,1.7743,-1.75,-7.0972,-7.2977e-12,-0.87498,0,0,0.066667,-0,-0,0.66667
0.9231,0.88493,13.847,0.5774,25.479,29.614,-21.32,7.1067,-0.82117,-28.427,9.3794e-07,-0.41059,0,0,0.066667,-2.5264e-15,0,0.66667
0.74616,0.9877,11.192,0.73155,97.256,273.48,-21.834,7.278,-0.095338,-29.112,6.521e-12,-0.047669,0,0,0.066667,-0,-0,0.66667
0.45771,0.88457,6.8656,0.57686,136.67,1096.7,-10.561,3.5204,-0.81354,-14.082,9.3623e-12,-0.40677,0,0,0.066667,-1.2632e-15,0,0.66667
0.75462,0.99464,11.319,0.74197,95.826,256.77,-22.396,7.4654,-0.039733,-29.862,-5.398e-11,-0.019867,0,0,0.066667,1.0784e-15,0,0.66667
0.62802,0.44552,9.4203,-0.081714,-14.798,553.38,2.0527,-0.68424,-1.9769,2.737,2.7982e-12,-0.98844,0,0,0.066667,1.2632e-15,0,0.66667
0.30376,0.47262,4.5564,-0.041073,-11.161,1689.9,0.49905,-0.16635,-1.9886,0.66539,4.2272e-11,-0.99428,0,0,0.066667,-0,-0,0.66667
0.52166,0.73312,7.8249,0.34968,76.197,876.06,-7.2965,2.4322,-1.5595,-9.7287,-6.0618e-13,-0.77977,0,0,0.066667,-0,-0,0.66667
0.71231,0.97797,10.685,0.71696,105.92,345.28,-20.428,6.8093,-0.1665,-27.237,4.1869e-12,-0.083252,0,0,0.066667,-0,-0,0.66667
0.30531,0.19038,4.5797,-0.46442,-126.17,1684,5.6718,-1.8906,-1.2277,7.5624,2.5313e-11,-0.61384,0,0,0.066667,-0,-0,0.66667
0.012523,0.6668,0.18784,0.2502,74.92,2964.6,-0.12533,0.041776,-1.7776,-0.16711,-5.7026e-07,-0.88879,0,0,0.066667,-0,-0,0.66667
0.26826,0.88778,4.0239,0.58167,161.81,1837.9,-6.2416,2.0805,-0.79845,-8.3221,3.1544e-12,-0.39922,0,0,0.066667,-0,-0,0.66667
0.79675,0.20249,11.951,-0.44626,-48.723,178.69,14.222,-4.7407,-1.303,18.963,-8.9563e-11,-0.65148,0,0,0.066667,-0,-0,0.66667
0.92999,0.8512,13.95,0.52679,21.197,24.748,-19.597,6.5322,-1.0071,-26.129,6.0422e-07,-0.50356,0,0,0.066667,-0,-0,0.66667
0.62533,0.44,9.38,-0.089998,-16.39,560.8,2.2511,-0.75038,-1.9825,3.0015,1.1888e-12,-0.99126,0,0,0.066667,2.5264e-15,0,0.66667
0.13281,0.95638,1.9921,0.68456,201.68,2424.7,-3.6366,1.2122,-0.32717,-4.8488,-1.4962e-07,-0.16359,0,0,0.066667,1.579e-16,0,0.66667
0.75757,0.0092579,11.364,-0.73611,-94.079,250.99,22.306,-7.4354,-0.067006,29.742,7.3296e-11,-0.033503,0,0,0.066667,-0,-0,0.66667
0.52691,0.42966,7.9036,-0.10552,-22.806,858.44,2.2239,-0.74129,-1.9578,2.9652,-3.0229e-12,-0.97889,0,0,0.066667,-3.158e-16,0,0.66667
0.75387,0.1487,11.308,-0.52696,-68.087,256.87,15.89,-5.2967,-1.0111,21.187,9.4118e-11,-0.50557,0,0,0.066667,-0,-0,0.66667
0.85861,0.76819,12.879,0.40229,31.547,89.649,-13.816,4.6054,-1.4329,-18.422,4.7457e-09,-0.71643,0,0,0.066667,-0,-0,0.66667
0.94754,0.89185,14.213,0.58778,17.883,15.464,-22.278,7.4259,-0.76642,-29.704,-4.5369e-06,-0.38321,0,0,0.066667,-0,-0,0.66667
0.65454,0.021498,9.8181,-0.71775,-123.04,484.79,18.792,-6.2639,-0.17302,25.056,-3.0376e-13,-0.086511,0,0,0.066667,1.2632e-15,0,0.66667
0.85426,0.1742,12.814,-0.4887,-39.456,95.396,16.699,-5.5663,-1.1464,22.265,4.6447e-09,-0.57319,0,0,0.066667,-1.2632e-15,0,0.66667
0.74259,0.27224,11.139,-0.34164,-45.816,278.64,10.148,-3.3826,-1.5787,13.53,6.3149e-13,-0.78935,0,0,0.066667,-0,-0,0.66667
0.7271,0.47237,10.907,-0.041443,-5.8358,310.45,1.2053,-0.40177,-1.9883,1.6071,-2.7722e-13,-0.99416,0,0,0.066667,-0,-0,0.66667
0.85879,0.72938,12.882,0.34407,26.934,89.185,-11.819,3.9397,-1.5883,-15.759,2.73e-09,-0.79413,0,0,0.066667,-0,-0,0.66667
0.923,0.33756,13.845,-0.24366,-10.696,27.995,8.9958,-2.9986,-1.7963,11.994,-2.0943e-07,-0.89813,0,0,0.066667,-0,-0,0.66667
0.90208,0.11229,13.531,-0.58156,-32.361,45.857,20.985,-6.9948,-0.79482,27.979,4.7464e-08,-0.39741,0,0,0.066667,-0,-0,0.66667
0.39575,0.53705,5.9363,0.055571,14.028,1324.9,-0.87969,0.29323,-1.9852,-1.1729,3.2915e-11,-0.99259,0,0,0.066667,-1.2632e-15,0,0.66667
0.084021,0.70793,1.2603,0.3119,92.759,2642.3,-1.0483,0.34942,-1.6487,-1.3977,-1.3859e-08,-0.82435,0,0,0.066667,-0,-0,0.66667
0.82957,0.33773,12.444,-0.24341,-22.642,127.23,8.0771,-2.6924,-1.7955,10.769,4.053e-10,-0.89773,0,0,0.066667,-6.3159e-16,0,0.66667
0.53893,0.70795,8.084,0.31193,66.249,819.75,-6.7244,2.2415,-1.6475,-8.9658,1.4918e-11,-0.82377,0,0,0.066667,-6.3159e-16,0,0.66667
0.54208,0.18818,8.1311,-0.46772,-98.919,810.11,10.142,-3.3806,-1.2198,13.522,1.3226e-11,-0.60989,0,0,0.066667,-0,-0,0.66667
0.82518,0.04348,12.378,-0.68478,-65.484,135.82,22.603,-7.5342,-0.33322,30.137,1.2976e-09,-0.16661,0,0,0.066667,1.2632e-15,0,0.66667
0.031984,0.64623,0.47976,0.21934,65.617,2876.7,-0.28062,0.093539,-1.8375,-0.37415,1.3658e-06,-0.91876,0,0,0.066667,-3.9475e-17,0,0.66667
0.87796,0.85818,13.169,0.53727,36.788,68.577,-18.868,6.2894,-0.97405,-25.158,1.1148e-07,-0.48702,0,0,0.066667,-0,-0,0.66667
0.034634,0.10827,0.51951,-0.5876,-175.94,2864.8,0.81405,-0.27135,-0.77161,1.0854,5.6278e-06,-0.3858,0,0,0.066667,-0,-0,0.66667
0.69319,0.75452,10.398,0.38179,59.334,387.46,-10.586,3.5287,-1.4773,-14.115,9.1234e-12,-0.73864,0,0,0.066667,-2.5264e-15,0,0.66667
0.58748,0.6131,8.8123,0.16966,33.237,669.34,-3.9868,1.3289,-1.8918,-5.3158,5.5456e-12,-0.9459,0,0,0.066667,-6.3159e-16,0,0.66667
0.64175,0.98961,9.6262,0.73441,129.57,518.5,-18.852,6.2841,-0.089216,-25.136,-1.4353e-12,-0.044608,0,0,0.066667,-6.3159e-16,0,0.66667
0.37408,0.89815,5.6112,0.59722,153.97,1409.3,-8.9364,2.9788,-0.73979,-11.915,-3.3458e-12,-0.36989,0,0,0.066667,3.158e-16,6.0638e-17,0.66667
0.27546,0.88701,4.1319,0.58051,160.8,1807.8,-6.3963,2.1321,-0.79645,-8.5285,5.78e-11,-0.39823,0,0,0.066667,6.3159e-16,0,0.66667
0.50941,0.79628,7.6411,0.44442,98.56,917.04,-9.0557,3.0186,-1.2918,-12.074,8.9857e-12,-0.64592,0,0,0.066667,-0,-0,0.66667
0.88582,0.53092,13.287,0.046373,2.9685,58.87,-1.6431,0.54771,-1.99,-2.1908,3.0645e-09,-0.99502,0,0,0.066667,7.1054e-16,0,0.66667
0.56529,0.80762,8.4793,0.46144,94.028,737.19,-10.434,3.4779,-1.2446,-13.912,4.7979e-12,-0.62232,0,0,0.066667,-0,-0,0.66667
0.66315,0.6661,9.9472,0.24915,41.745,460.71,-6.6088,2.2029,-1.7731,-8.8118,-8.864e-13,-0.88655,0,0,0.066667,-0,-0,0.66667
0.44138,0.72586,6.6207,0.33878,81.677,1155,-5.9813,1.9938,-1.5904,-7.975,5.6475e-12,-0.7952,0,0,0.066667,-0,-0,0.66667
0.97214,0.95255,14.582,0.67883,11.118,7.0387,-26.397,8.7988,-0.3608,-35.195,-0.00010448,-0.1804,0,0,0.066667,-0,-0,0.66667
0.74252,0.69855,11.138,0.29783,39.94,278.63,-8.8457,2.9486,-1.6781,-11.794,4.7349e-12,-0.83906,0,0,0.066667,-1.2632e-15,0,0.66667
0.3549,0.034236,5.3235,-0.69865,-183.14,1484.9,9.918,-3.306,-0.26231,13.224,9.4147e-12,-0.13115,0,0,0.066667,-1.2632e-15,-6.458e-17,0.66667
0.65353,0.85951,9.803,0.53926,92.53,486.43,-14.097,4.699,-0.96715,-18.796,6.9962e-12,-0.48358,0,0,0.066667,-2.0371e-15,0,0.66667
0.54262,0.68063,8.1392,0.27094,57.213,807.86,-5.8807,1.9602,-1.7366,-7.841,3.2672e-12,-0.86832,0,0,0.066667,6.3159e-16,0,0.66667
0.88406,0.56841,13.261,0.10262,6.6661,60.681,-3.6288,1.2096,-1.957,-4.8384,-7.8046e-10,-0.97851,0,0,0.066667,-2.5264e-15,0,0.66667
0.27505,0.7112,4.1258,0.3168,87.699,1809.1,-3.4855,1.1618,-1.6377,-4.6474,1.37e-11,-0.81886,0,0,0.066667,4.737e-16,0,0.66667
0.10807,0.49788,1.621,-0.0031736,-0.93911,2534.5,0.013719,-0.0045728,-2.0073,0.018291,3.3615e-08,-1.0036,0,0,0.066667,-7.8949e-17,0,0.66667
0.19127,0.27824,2.8691,-0.33264,-95.985,2167.1,2.545,-0.84833,-1.6059,3.3933,-2.8838e-11,-0.80296,0,0,0.066667,-3.158e-16,0,0.66667
0.38705,0.027195,5.8057,-0.70921,-180.85,1359.6,10.98,-3.6599,-0.21128,14.64,1.5537e-11,-0.10564,0,0,0.066667,-3.158e-16,0,0.66667
0.85406,0.008419,12.811,-0.73737,-59.841,97.378,25.19,-8.3968,-0.062346,33.587,2.0396e-09,-0.031173,0,0,0.066667,-0,-0,0.66667
0.27084,0.34259,4.0627,-0.23611,-65.513,1826.6,2.558,-0.85265,-1.7986,3.4106,3.1505e-11,-0.8993,0,0,0.066667,-3.5527e-16,0,0.66667
0.62636,0.29184,9.3954,-0.31224,-56.771,558.34,7.8229,-2.6076,-1.6594,10.431,3.6304e-12,-0.82968,0,0,0.066667,-0,-0,0.66667
0.62355,0.55158,9.3533,0.077368,14.141,565.71,-1.9297,0.64324,-1.9843,-2.573,9.5083e-12,-0.99217,0,0,0.066667,-6.3159e-16,0,0.66667
0.40805,0.34272,6.1207,-0.23591,-58.866,1278.4,3.8506,-1.2835,-1.8078,5.1341,1.0861e-11,-0.90389,0,0,0.066667,-7.8949e-16,0,0.66667
0.050335,0.80148,0.75503,0.45223,135.16,2793.9,-0.91051,0.3035,-1.272,-1.214,-1.0715e-06,-0.63601,0,0,0.066667,-7.8949e-17,0,0.66667
0.74483,0.34505,11.173,-0.23243,-30.922,273.76,6.9248,-2.3083,-1.8048,9.233,-1.4248e-11,-0.90239,0,0,0.066667,2.5264e-15,0,0.66667
0.29573,0.0011921,4.4359,-0.74821,-204.83,1724.1,8.8506,-2.9502,-0.017629,11.801,1.2512e-11,-0.0088147,0,0,0.066667,-0,-0,0.66667
0.39846,0.50377,5.9769,0.0056558,1.424,1314.6,-0.090144,0.030048,-1.9942,-0.12019,1.1393e-12,-0.9971,0,0,0.066667,-0,-0,0.66667
0.37724,0.090199,5.6586,-0.6147,-158.05,1397.1,9.2756,-3.0919,-0.66017,12.367,1.6273e-11,-0.33009,0,0,0.066667,-7.8949e-16,0,0.66667
0.6636,0.65591,9.954,0.23387,39.141,459.52,-6.2079,2.0693,-1.8006,-8.2772,3.4968e-12,-0.90028,0,0,0.066667,-5.9212e-17,0,0.66667
0.086333,0.94906,1.295,0.67359,200.5,2632.1,-2.3261,0.77538,-0.38024,-3.1015,3.1109e-06,-0.19012,0,0,0.066667,-0,-0,0.66667
0.54989,0.84911,8.2483,0.52366,109.44,785.48,-11.518,3.8394,-1.026,-15.358,6.6258e-13,-0.51298,0,0,0.066667,-0,-0,0.66667
0.015422,0.066782,0.23133,-0.64983,-194.81,2951.6,0.40083,-0.13357,-0.51002,0.53447,6.869e-05,-0.25501,0,0,0.066667,-3.9475e-17,0,0.66667
0.98304,0.22499,14.746,-0.41252,-3.9945,2.763,16.221,-5.4069,-1.4015,21.628,2.918e-06,-0.70073,0,0,0.066667,-0,-0,0.66667
0.59843,0.68225,8.9764,0.27337,52.503,637.37,-6.5436,2.1812,-1.7313,-8.7249,-3.1353e-13,-0.86566,0,0,0.066667,-9.4739e-16,0,0.66667
0.38411,0.18432,5.7617,-0.47351,-120.93,1370.2,7.2753,-2.4251,-1.1977,9.7005,6.7089e-12,-0.59885,0,0,0.066667,7.8949e-16,0,0.66667
0.14675,0.18052,2.2012,-0.47922,-140.5,2362.7,2.813,-0.93766,-1.1782,3.7506,-5.5662e-09,-0.58909,0,0,0.066667,1.579e-16,0,0.66667
0.69688,0.70564,10.453,0.30847,47.449,378.58,-8.5986,2.8662,-1.6558,-11.465,-7.5406e-13,-0.82789,0,0,0.066667,1.2632e-15,0,0.66667
0.90581,0.105,13.587,-0.5925,-31.778,42.792,21.468,-7.1559,-0.76156,28.624,-1.7009e-07,-0.38078,0,0,0.066667,-0,-0,0.66667
0.31811,0.035867,4.7716,-0.6962,-187.67,1632.3,8.8587,-2.9529,-0.27228,11.812,4.5836e-11,-0.13614,0,0,0.066667,-0,-0,0.66667
0.76649,0.77633,11.497,0.41449,51.124,232.11,-12.708,4.2361,-1.3977,-16.944,-7.2766e-11,-0.69887,0,0,0.066667,1.2632e-15,0,0.66667
0.2875,0.49678,4.3125,-0.0048277,-1.3258,1757,0.055518,-0.018506,-1.9951,0.074025,5.213e-11,-0.99753,0,0,0.066667,-5.5264e-16,0,0.66667
0.95723,0.087171,14.358,-0.61924,-15.438,11.472,23.71,-7.9034,-0.6346,31.614,-3.8691e-05,-0.3173,0,0,0.066667,-0,-0,0.66667
0.70232,0.87702,10.535,0.56552,85.832,367.02,-15.887,5.2957,-0.8722,-21.183,1.0125e-12,-0.4361,0,0,0.066667,-0,1.9064e-17,0.66667
0.62502,0.99442,9.3752,0.74162,135.56,563.93,-18.541,6.1803,-0.0567,-24.721,1.5845e-12,-0.02835,0,0,0.066667,-0,-0,0.66667
0.93073,0.56922,13.961,0.10383,4.106,22.63,-3.8654,1.2885,-1.9559,-5.1538,1.902e-07,-0.97794,0,0,0.066667,-0,-0,0.66667
0.26904,0.060942,4.0356,-0.65859,-183.19,1834.8,7.0875,-2.3625,-0.45833,9.45,-1.2923e-11,-0.22916,0,0,0.066667,3.9475e-16,0,0.66667
0.92362,0.47562,13.854,-0.036571,-1.5908,27.218,1.3511,-0.45037,-2.0002,1.8015,-3.1773e-08,-1.0001,0,0,0.066667,-0,-0,0.66667
0.67808,0.036546,10.171,-0.69518,-112.6,425.32,18.856,-6.2852,-0.27653,25.141,8.7432e-12,-0.13827,0,0,0.066667,-0,-0,0.66667
0.77136,0.4331,11.57,-0.10035,-12.135,222.22,3.0963,-1.0321,-1.9597,4.1283,-1.7984e-11,-0.97985,0,0,0.066667,6.3159e-16,0,0.66667
0.57164,0.27649,8.5745,-0.33526,-67.555,717.36,7.6658,-2.5553,-1.595,10.221,5.5733e-12,-0.79752,0,0,0.066667,-3.158e-16,0,0.66667
0.8339,0.78749,12.509,0.43123,39.238,121.83,-14.384,4.7947,-1.334,-19.179,2.9018e-09,-0.667,0,0,0.066667,2.5264e-15,0,0.66667
0.69828,0.39135,10.474,-0.16297,-24.961,374.99,4.552,-1.5173,-1.9015,6.0693,7.8746e-12,-0.95077,0,0,0.066667,-1.2632e-15,0,0.66667
0.14661,0.36408,2.1991,-0.20388,-59.738,2363.2,1.1956,-0.39853,-1.8467,1.5941,-3.069e-10,-0.92335,0,0,0.066667,-0,-0,0.66667
0.61246,0.20542,9.1869,-0.44187,-82.668,597.56,10.825,-3.6084,-1.3058,14.434,1.062e-11,-0.65292,0,0,0.066667,-6.3159e-16,0,0.66667
0.27932,0.22966,4.1898,-0.40551,-111.99,1791.4,4.5307,-1.5102,-1.4192,6.0409,6.0076e-12,-0.7096,0,0,0.066667,-0,-0,0.66667
0.91588,0.58691,13.738,0.13036,6.2293,32.842,-4.7759,1.592,-1.9344,-6.3678,3.4388e-08,-0.96722,0,0,0.066667,-8.9284e-17,0,0.66667
0.19823,0.49436,2.9735,-0.008458,-2.4328,2136.7,0.067066,-0.022355,-1.9963,0.089421,1.5207e-10,-0.99816,0,0,0.066667,4.737e-16,0,0.66667
0.28572,0.16717,4.2857,-0.49924,-137.38,1764.9,5.7056,-1.9019,-1.1107,7.6075,-8.4399e-12,-0.55533,0,0,0.066667,-0,-0,0.66667
0.047655,0.83148,0.71482,0.49722,148.66,2806,-0.94779,0.31593,-1.1292,-1.2637,-4.2427e-06,-0.5646,0,0,0.066667,7.8949e-17,0,0.66667
0.44758,0.19944,6.7137,-0.45084,-107.99,1132.7,8.0715,-2.6905,-1.2723,10.762,-5.4676e-12,-0.63613,0,0,0.066667,1.2632e-15,0,0.66667
0.55759,0.7771,8.3638,0.41565,85.758,760.93,-9.2704,3.0901,-1.3825,-12.361,-8.9226e-12,-0.69125,0,0,0.066667,6.4596e-16,0,0.66667
0.57356,0.51667,8.6034,0.024998,5.0178,711.07,-0.57352,0.19117,-1.9943,-0.7647,2.3155e-12,-0.99714,0,0,0.066667,-0,-0,0.66667
0.90538,0.20224,13.581,-0.44664,-23.99,42.234,16.175,-5.3917,-1.2985,21.567,-1.004e-07,-0.64924,0,0,0.066667,1.2632e-15,0,0.66667
0.34741,0.90464,5.2112,0.60696,159.99,1514.3,-8.4346,2.8115,-0.69,-11.246,9.8472e-12,-0.345,0,0,0.066667,3.158e-16,0,0.66667
0.44753,0.45731,6.7129,-0.06404,-15.327,1132.3,1.1464,-0.38213,-1.9803,1.5285,2.1183e-11,-0.99017,0,0,0.066667,-0,-0,0.66667
0.85124,0.61128,12.769,0.16691,13.697,97.967,-5.6833,1.8944,-1.8943,-7.5777,-1.0324e-10,-0.94716,0,0,0.066667,-0,-0,0.66667
0.57683,0.091069,8.6524,-0.6134,-122.67,702.6,14.153,-4.7177,-0.66945,18.871,1.6739e-11,-0.33472,0,0,0.066667,-3.158e-16,0,0.66667
0.65399,0.08345,9.8099,-0.62483,-107.16,485.66,16.345,-5.4484,-0.61467,21.794,5.0395e-12,-0.30733,0,0,0.066667,6.3159e-16,-6.9781e-17,0.66667
0.27836,0.55505,4.1754,0.082573,22.805,1795.1,-0.9194,0.30647,-1.9768,-1.2259,2.8841e-11,-0.98841,0,0,0.066667,4.737e-16,0,0.66667
0.48747,0.0074161,7.3121,-0.73888,-168.98,992.8,14.407,-4.8024,-0.05936,19.21,1.2633e-11,-0.02968,0,0,0.066667,-0,-0,0.66667
0.62095,0.24362,9.3143,-0.38457,-70.72,573.52,9.5519,-3.184,-1.4723,12.736,3.0465e-13,-0.73617,0,0,0.066667,-0,-0,0.66667
0.13339,0.17423,2.0009,-0.48866,-143.83,2421.9,2.6074,-0.86913,-1.1444,3.4765,2.9523e-09,-0.57222,0,0,0.066667,-0,-0,0.66667
0.032909,0.9427,0.49363,0.66404,198.91,2872.6,-0.87413,0.29139,-0.43769,-1.1655,1.4538e-05,-0.21884,0,0,0.066667,-0,-0,0.66667
0.11341,0.72853,1.7012,0.3428,101.36,2510.8,-1.5551,0.51836,-1.58,-2.0734,2.8869e-09,-0.79002,0,0,0.066667,-0,-0,0.66667
0.47746,0.4321,7.1619,-0.10185,-23.531,1025.8,1.9452,-0.64839,-1.9574,2.5935,-3.4064e-12,-0.97871,0,0,0.066667,6.3159e-16,0,0.66667
0.024027,0.41009,0.3604,-0.13487,-40.36,2912.6,0.12962,-0.043206,-1.9297,0.17282,-2.0094e-06,-0.96487,0,0,0.066667,-7.8949e-17,0,0.66667
0.62621,0.93658,9.3931,0.65487,119.33,560.13,-16.403,5.4678,-0.48312,-21.871,9.2033e-12,-0.24156,0,0,0.066667,-1.579e-16,0,0.66667
0.097583,0.47113,1.4637,-0.043299,-12.841,2581.4,0.16901,-0.056337,-1.9926,0.22535,8.1892e-09,-0.99632,0,0,0.066667,-0,-0,0.66667
0.25096,0.46193,3.7644,-0.057099,-16.018,1910.3,0.57318,-0.19106,-1.9964,0.76424,7.508e-12,-0.99818,0,0,0.066667,1.579e-16,0,0.66667
0.42649,0.58072,6.3974,0.12108,29.649,1209.4,-2.0657,0.68855,-1.9443,-2.7542,7.0388e-14,-0.97215,0,0,0.066667,6.3159e-16,0,0.66667
0.11583,0.15506,1.7374,-0.51741,-152.98,2500.1,2.3972,-0.79906,-1.0435,3.1962,2.6194e-08,-0.52174,0,0,0.066667,1.579e-16,0,0.66667
0.27055,0.64958,4.0583,0.22436,62.263,1827.8,-2.4281,0.80936,-1.8174,-3.2374,2.1386e-11,-0.9087,0,0,0.066667,6.3389e-16,0,0.66667
0.02108,0.41103,0.3162,-0.13346,-39.945,2926,0.11253,-0.037512,-1.9325,0.15004,-1.8745e-06,-0.96624,0,0,0.066667,-7.8949e-17,0,0.66667
0.98505,0.91164,14.776,0.61746,5.3826,3.8226,-24.329,8.1097,-0.65368,-32.439,6.7814e-05,-0.32684,0,0,0.066667,-2.5264e-15,0,0.66667
0.61157,0.91266,9.1736,0.61899,116.13,600.85,-15.142,5.0474,-0.64109,-20.19,1.0144e-11,-0.32054,0,0,0.066667,-0,-0,0.66667
0.37835,0.31733,5.6753,-0.27401,-70.297,1392,4.1469,-1.3823,-1.7331,5.5293,2.3368e-12,-0.86657,0,0,0.066667,-0,-0,0.66667
0.026528,0.47707,0.39793,-0.034398,-10.292,2901.3,0.036501,-0.012168,-1.9924,0.048668,-6.7817e-07,-0.99618,0,0,0.066667,7.8949e-17,0,0.66667
0.38984,0.1005,5.8476,-0.59925,-152.33,1348.5,9.3445,-3.1148,-0.73188,12.459,3.7907e-12,-0.36594,0,0,0.066667,-0,-5.347e-17,0.66667
0.45256,0.60277,6.7884,0.15416,36.689,1114.2,-2.7906,0.93021,-1.9249,-3.7208,-8.034e-12,-0.96244,0,0,0.066667,-0,-0,0.66667
0.931,0.20014,13.965,-0.44978,-17.81,23.652,16.75,-5.5833,-1.2746,22.333,-4.0617e-07,-0.6373,0,0,0.066667,-0,-0,0.66667
0.2785,0.23484,4.1776,-0.39774,-109.9,1794.8,4.4309,-1.477,-1.4386,5.9078,9.269e-12,-0.71928,0,0,0.066667,-0,-0,0.66667
0.61478,0.45624,9.2217,-0.065639,-12.211,590.23,1.6141,-0.53805,-1.9798,2.1522,7.4581e-12,-0.98991,0,0,0.066667,-0,-0,0.66667
0.66517,0.4662,9.9775,-0.050705,-8.4517,455.32,1.3491,-0.4497,-1.9857,1.7988,3.0846e-12,-0.99287,0,0,0.066667,1.579e-15,0,0.66667
0.18596,0.22814,2.7894,-0.40778,-117.94,2190.3,3.0333,-1.0111,-1.4142,4.0444,-3.5141e-10,-0.70708,0,0,0.066667,-0,-0,0.66667
0.50576,0.12311,7.5865,-0.56534,-126.08,929.7,11.437,-3.8124,-0.85953,15.249,1.0525e-12,-0.42976,0,0,0.066667,-3.158e-16,0,0.66667
0.7865,0.58694,11.798,0.13041,14.849,195.15,-4.1028,1.3676,-1.9354,-5.4704,-1.193e-11,-0.96768,0,0,0.066667,1.2632e-15,0,0.66667
0.096579,0.3125,1.4487,-0.28125,-83.447,2586,1.0865,-0.36217,-1.7212,1.4487,4.1906e-08,-0.86062,0,0,0.066667,-0,-0,0.66667
0.60604,0.021674,9.0905,-0.71749,-136.16,617.17,17.393,-5.7976,-0.16922,23.191,1.7017e-12,-0.08461,0,0,0.066667,-0,6.7116e-17,0.66667
0.02606,0.10322,0.3909,-0.59518,-178.3,2903.5,0.62042,-0.20685,-0.73615,0.8272,-6.8926e-05,-0.36807,0,0,0.066667,-0,-0,0.66667
0.0070467,0.81731,0.1057,0.47597,142.62,2989.4,-0.13415,0.044703,-1.1888,-0.17887,-2.0889e-05,-0.59442,0,0,0.066667,-0,-0,0.66667
0.059529,0.029081,0.89293,-0.70638,-211.12,2752.6,1.682,-0.56068,-0.22753,2.2426,-2.8042e-05,-0.11376,0,0,0.066667,-3.9475e-17,0,0.66667
0.4814,0.75066,7.221,0.376,86.494,1012.5,-7.2402,2.4134,-1.4993,-9.6536,-4.5532e-12,-0.74963,0,0,0.066667,-0,-0,0.66667
0.9257,0.30437,13.886,-0.29345,-12.45,26.334,10.866,-3.622,-1.6923,14.488,-3.2115e-07,-0.84615,0,0,0.066667,6.3159e-16,0,0.66667
0.40556,0.40507,6.0834,-0.1424,-35.613,1287.7,2.31,-0.77001,-1.9379,3.08,9.76e-12,-0.96895,0,0,0.066667,8.2897e-16,0,0.66667
0.075033,0.5209,1.1255,0.031349,9.3335,2682.6,-0.094088,0.031363,-1.9967,-0.12545,-6.7873e-08,-0.99836,0,0,0.066667,-0,-0,0.66667
0.86135,0.6872,12.92,0.2808,21.599,85.905,-9.6748,3.2249,-1.7248,-12.9,2.7285e-09,-0.86241,0,0,0.066667,5.3291e-16,0,0.66667
0.5193,0.30955,7.7895,-0.28568,-62.45,883.71,5.9342,-1.9781,-1.7094,7.9122,-5.6728e-12,-0.8547,0,0,0.066667,9.4739e-16,0,0.66667
0.31894,0.62751,4.784,0.19127,51.439,1628,-2.4401,0.81336,-1.865,-3.2535,1.0702e-11,-0.93251,0,0,0.066667,-1.2632e-15,0,0.66667
0.96303,0.80991,14.445,0.46486,9.9532,8.2469,-17.907,5.969,-1.2275,-23.876,5.6503e-06,-0.61376,0,0,0.066667,1.2632e-15,0,0.66667
0.93826,0.4091,14.074,-0.13635,-4.818,18.227,5.1173,-1.7058,-1.9433,6.8231,-2.4214e-07,-0.97164,0,0,0.066667,2.5264e-15,0,0.66667
0.26002,0.97233,3.9003,0.7085,198.13,1872.9,-7.3689,2.4563,-0.21102,-9.8252,-3.3092e-11,-0.10551,0,0,0.066667,-0,-0,0.66667
0.20139,0.64727,3.0209,0.22091,63.466,2123,-1.7795,0.59318,-1.8312,-2.3727,4.0808e-11,-0.91561,0,0,0.066667,-1.579e-16,0,0.66667
0.58891,0.78847,8.8336,0.4327,84.622,665.74,-10.193,3.3976,-1.3308,-13.591,9.388e-13,-0.66538,0,0,0.066667,-0,-0,0.66667
0.84252,0.0061131,12.638,-0.74083,-64.478,112.17,24.967,-8.3222,-0.055557,33.289,6.4625e-09,-0.027779,0,0,0.066667,5.0527e-15,0,0.66667
0.33672,0.21691,5.0508,-0.42464,-112.78,1556.5,5.7194,-1.9065,-1.3537,7.6258,2.5184e-11,-0.67686,0,0,0.066667,-0,-0,0.66667
0.58643,0.57577,8.7964,0.11366,22.307,672.41,-2.6661,0.88872,-1.9475,-3.5549,6.2172e-13,-0.97375,0,0,0.066667,-0,-0,0.66667
0.16224,0.9534,2.4337,0.6801,198.59,2294.6,-4.4137,1.4712,-0.34974,-5.885,-2.0022e-09,-0.17487,0,0,0.066667,-0,-0,0.66667
0.19459,0.060445,2.9189,-0.65933,-190.22,2153.1,5.1321,-1.7107,-0.4491,6.8428,-7.8765e-09,-0.22455,0,0,0.066667,1.1842e-16,0,0.66667
0.76134,0.9671,11.42,0.70065,88.307,243.49,-21.337,7.1124,-0.25298,-28.449,-1.4101e-11,-0.12649,0,0,0.066667,1.579e-16,0,0.66667
0.1501,0.4822,2.2515,-0.026707,-7.8159,2347.7,0.16035,-0.053448,-1.9917,0.21379,-6.5119e-10,-0.99583,0,0,0.066667,3.158e-16,0,0.66667
0.26591,0.28937,3.9886,-0.31595,-87.931,1847.4,3.3605,-1.1202,-1.6558,4.4807,1.9806e-11,-0.8279,0,0,0.066667,-0,-0,0.66667
0.68949,0.45338,10.342,-0.06993,-10.965,395.57,1.9287,-0.64289,-1.9861,2.5715,1.8359e-12,-0.99305,0,0,0.066667,-0,-0,0.66667
0.015089,0.70277,0.22634,0.30415,91.077,2953,-0.18358,0.061193,-1.6803,-0.24477,7.6691e-07,-0.84014,0,0,0.066667,-0,-0,0.66667
0.032194,0.21036,0.48292,-0.43446,-130.04,2875.8,0.5595,-0.1865,-1.3367,0.74599,-3.6353e-06,-0.66836,0,0,0.066667,3.9475e-17,0,0.66667
0.28753,0.13666,4.3129,-0.54502,-149.84,1757.5,6.2683,-2.0894,-0.93799,8.3577,-9.4365e-12,-0.46899,0,0,0.066667,-0,-0,0.66667
0.33662,0.26819,5.0493,-0.34771,-92.334,1556.8,4.6819,-1.5606,-1.5636,6.2425,2.8543e-11,-0.78182,0,0,0.066667,-6.3159e-16,0,0.66667
0.36222,0.8167,5.4332,0.47505,123.65,1455.4,-6.8828,2.2943,-1.1993,-9.1771,1.0034e-11,-0.59964,0,0,0.066667,-0,-0,0.66667
0.80719,0.88738,12.108,0.58106,60.605,162.45,-18.761,6.2537,-0.7948,-25.015,5.2084e-10,-0.3974,0,0,0.066667,1.2632e-15,0,0.66667
0.035981,0.10633,0.53971,-0.59051,-176.79,2858.7,0.8499,-0.28329,-0.75643,1.1332,1.4892e-05,-0.37822,0,0,0.066667,-7.8949e-17,0,0.66667
0.3584,0.41538,5.3759,-0.12693,-33.117,1469.9,1.8197,-0.60656,-1.9503,2.4262,3.558e-12,-0.97517,0,0,0.066667,-0,-0,0.66667
0.63828,0.69615,9.5742,0.29422,52.162,525.85,-7.5119,2.504,-1.6948,-10.016,-2.6157e-12,-0.84742,0,0,0.066667,1.2632e-15,0,0.66667
0.143,0.43995,2.1451,-0.09007,-26.417,2379.1,0.51522,-0.17174,-1.9746,0.68695,7.3735e-11,-0.98728,0,0,0.066667,-0,-0,0.66667
0.85774,0.92906,12.866,0.64359,50.928,92.145,-22.081,7.3605,-0.53237,-29.442,-5.2949e-08,-0.26619,0,0,0.066667,-1.2632e-15,-6.2243e-17,0.66667
0.64556,0.89482,9.6835,0.59223,103.49,507.56,-15.293,5.0976,-0.74886,-20.391,-2.3528e-12,-0.37443,0,0,0.066667,6.3159e-16,0,0.66667
0.11529,0.65348,1.7294,0.23022,68.025,2502.3,-1.0617,0.3539,-1.8071,-1.4156,8.1485e-10,-0.90356,0,0,0.066667,-2.3685e-16,0,0.66667
0.2081,0.95595,3.1215,0.68393,196.23,2094.6,-5.693,1.8977,-0.33265,-7.5906,1.1648e-11,-0.16633,0,0,0.066667,3.158e-16,0,0.66667
0.7455,0.23223,11.182,-0.40166,-53.362,272.95,11.977,-3.9925,-1.423,15.97,6.7057e-13,-0.71151,0,0,0.066667,1.2632e-15,0,0.66667
0.40341,0.77653,6.0511,0.41479,104.02,1296.3,-6.6932,2.2311,-1.3898,-8.9243,1.3027e-11,-0.69491,0,0,0.066667,-3.9273e-16,0,0.66667
0.48447,0.70486,7.2671,0.30728,70.399,1001.7,-5.9548,1.9849,-1.6755,-7.9397,3.2174e-12,-0.83774,0,0,0.066667,-0,-0,0.66667
0.88746,0.48642,13.312,-0.020371,-1.2863,57.254,0.72314,-0.24105,-1.9983,0.96419,-1.8376e-09,-0.99917,0,0,0.066667,-1.2632e-15,0,0.66667
0.13744,0.35178,2.0617,-0.22233,-65.321,2403.8,1.2223,-0.40744,-1.8244,1.6298,1.4235e-09,-0.9122,0,0,0.066667,-0,-0,0.66667
0.96437,0.15595,14.466,-0.51608,-10.677,8.1136,19.908,-6.6359,-1.0515,26.544,-5.8827e-06,-0.52577,0,0,0.066667,-1.8158e-15,0,0.66667
0.04263,0.63231,0.63945,0.19847,59.325,2828.6,-0.33842,0.11281,-1.8576,-0.45123,-8.526e-07,-0.92879,0,0,0.066667,-0,-0,0.66667
0.09944,0.69079,1.4916,0.28618,84.862,2573.2,-1.1383,0.37944,-1.7045,-1.5177,-5.4801e-08,-0.85227,0,0,0.066667,3.158e-16,0,0.66667
0.22324,0.15437,3.3486,-0.51845,-147.62,2029,4.6295,-1.5432,-1.0423,6.1727,4.7327e-11,-0.52114,0,0,0.066667,-0,-0,0.66667
0.80659,0.14196,12.099,-0.53706,-56.145,163.15,17.327,-5.7758,-0.96889,23.103,-7.5047e-10,-0.48445,0,0,0.066667,-0,-0,0.66667
0.45587,0.70461,6.8381,0.30691,72.79,1102.5,-5.5966,1.8655,-1.6661,-7.4621,2.9186e-12,-0.83306,0,0,0.066667,6.3159e-16,0,0.66667
0.65325,0.76015,9.7988,0.39022,66.944,486.55,-10.197,3.3989,-1.4591,-13.595,1.716e-12,-0.72953,0,0,0.066667,-0,-0,0.66667
0.17432,0.64782,2.6148,0.22173,64.378,2241.1,-1.5461,0.51535,-1.8275,-2.0614,1.7074e-10,-0.91376,0,0,0.066667,1.579e-16,0,0.66667
0.16672,0.18163,2.5008,-0.47756,-139.12,2274.7,3.1848,-1.0616,-1.1852,4.2464,4.587e-09,-0.59261,0,0,0.066667,4.1452e-16,0,0.66667
0.52085,0.11611,7.8127,-0.57583,-125.75,879.46,11.997,-3.9989,-0.81671,15.996,1.6539e-11,-0.40836,0,0,0.066667,-0,-0,0.66667
0.74029,0.50936,11.104,0.014033,1.8945,282.76,-0.41553,0.13851,-1.994,-0.55404,1.0482e-11,-0.99699,0,0,0.066667,-2.5264e-15,0,0.66667
0.46247,0.45731,6.9371,-0.064035,-15.065,1078.7,1.1846,-0.39486,-1.9796,1.5794,-3.8538e-12,-0.98979,0,0,0.066667,6.3159e-16,0,0.66667
0.86961,0.95095,13.044,0.67642,49.394,78.6,-23.529,7.843,-0.36828,-31.372,3.4141e-08,-0.18414,0,0,0.066667,-1.2632e-15,0,0.66667
0.66041,0.42284,9.9062,-0.11573,-19.511,467.47,3.0573,-1.0191,-1.9497,4.0764,7.7605e-12,-0.97485,0,0,0.066667,-1.2632e-15,0,0.66667
0.24909,0.48536,3.7364,-0.021962,-6.1671,1918.2,0.21882,-0.072941,-2.0059,0.29176,1.1648e-11,-1.003,0,0,0.066667,-3.158e-16,0,0.66667
0.2349,0.11236,3.5235,-0.58147,-164.68,1979.2,5.4635,-1.8212,-0.80717,7.2847,2.7472e-10,-0.40358,0,0,0.066667,-0,-0,0.66667
0.37405,0.95986,5.6107,0.6898,177.92,1409.8,-10.321,3.4402,-0.31596,-13.761,1.1355e-11,-0.15798,0,0,0.066667,-3.158e-16,0,0.66667
0.75662,0.29089,11.349,-0.31367,-40.08,250.6,9.4931,-3.1644,-1.6442,12.657,-5.3824e-13,-0.82209,0,0,0.066667,-0,-0,0.66667
0.93794,0.59003,14.069,0.13505,4.7964,18.407,-5.0666,1.6889,-1.9458,-6.7554,2.4316e-07,-0.9729,0,0,0.066667,-1.2632e-15,0,0.66667
0.86191,0.86889,12.929,0.55334,42.535,86.558,-19.077,6.359,-0.91368,-25.436,-5.8294e-08,-0.45684,0,0,0.066667,6.3159e-16,0,0.66667
0.26161,0.10899,3.9242,-0.58651,-163.78,1865.9,6.1375,-2.0458,-0.77456,8.1833,1.5302e-10,-0.38728,0,0,0.066667,-0,-0,0.66667
0.41228,0.82737,6.1842,0.49105,122.11,1263,-8.098,2.6993,-1.1369,-10.797,8.0078e-12,-0.56847,0,0,0.066667,-6.3159e-16,0,0.66667
0.61154,0.33883,9.1732,-0.24176,-45.277,599.61,5.9139,-1.9713,-1.7959,7.8852,5.1665e-12,-0.89793,0,0,0.066667,-6.3159e-16,0,0.66667
0.54683,0.62379,8.2025,0.18569,38.948,794.28,-4.0617,1.3539,-1.8903,-5.4156,8.4652e-12,-0.94515,0,0,0.066667,-8.6844e-16,0,0.66667
0.38927,0.98299,5.8391,0.72448,184.38,1351.1,-11.281,3.7603,-0.13964,-15.041,-6.489e-12,-0.069822,0,0,0.066667,6.3159e-16,0,0.66667
0.10142,0.62979,1.5213,0.19469,57.701,2564.3,-0.78983,0.26328,-1.8594,-1.0531,-3.7548e-08,-0.92969,0,0,0.066667,-0,-0,0.66667
0.71224,0.91716,10.684,0.62575,92.382,344.85,-17.827,5.9425,-0.60179,-23.77,1.4992e-11,-0.30089,0,0,0.066667,-0,-0,0.66667
0.088135,0.25882,1.322,-0.36176,-107.52,2623.9,1.2754,-0.42512,-1.5298,1.7005,-2.2215e-08,-0.76489,0,0,0.066667,-0,-0,0.66667
0.86608,0.13337,12.991,-0.54994,-41.082,81.697,19.052,-6.3506,-0.91873,25.402,5.3645e-08,-0.45937,0,0,0.066667,-0,-0,0.66667
0.86345,0.45144,12.952,-0.072843,-5.5185,83.021,2.5158,-0.83861,-1.9787,3.3545,3.1006e-10,-0.98934,0,0,0.066667,-1.2632e-15,0,0.66667
0.70845,0.56295,10.627,0.094423,14.055,351.57,-2.6758,0.89192,-1.9651,-3.5677,-5.1885e-12,-0.98255,0,0,0.066667,-0,-0,0.66667
0.48642,0.019851,7.2964,-0.72022,-164.91,996.32,14.013,-4.6711,-0.15907,18.685,-5.592e-12,-0.079534,0,0,0.066667,-0,-0,0.66667
0.69915,0.99142,10.487,0.73713,113.03,375.39,-20.614,6.8715,-0.066132,-27.486,-6.434e-12,-0.033066,0,0,0.066667,1.2632e-15,0,0.66667
0.39499,0.35642,5.9248,-0.21538,-54.417,1328,3.4028,-1.1343,-1.832,4.5371,2.409e-12,-0.91601,0,0,0.066667,6.3159e-16,0,0.66667
0.7975,0.047867,11.962,-0.6782,-73.987,178.83,21.634,-7.2115,-0.37346,28.846,3.1693e-09,-0.18673,0,0,0.066667,1.2632e-15,0,0.66667
0.78642,0.17392,11.796,-0.48912,-55.822,196.46,15.386,-5.1286,-1.1448,20.515,3.9598e-10,-0.57242,0,0,0.066667,-0,-0,0.66667
0.15553,0.89369,2.3329,0.59053,172.74,2324.1,-3.6738,1.2246,-0.76857,-4.8984,-2.7624e-08,-0.38428,0,0,0.066667,-1.8418e-16,7.592e-17,0.66667
0.31782,0.39291,4.7673,-0.16064,-43.234,1632.5,2.0421,-0.6807,-1.9035,2.7228,4.2579e-11,-0.95174,0,0,0.066667,-0,-0,0.66667
0.34398,0.73087,5.1597,0.3463,91.439,1527.3,-4.7649,1.5883,-1.5842,-6.3532,9.5506e-12,-0.79212,0,0,0.066667,-6.3159e-16,0,0.66667
0.36417,0.16084,5.4626,-0.50873,-132.22,1447.8,7.4106,-2.4702,-1.0767,9.8808,2.219e-11,-0.53835,0,0,0.066667,-0,-0,0.66667
0.56665,0.61345,8.4997,0.17017,34.565,732.33,-3.857,1.2857,-1.8945,-5.1427,-1.6487e-12,-0.94726,0,0,0.066667,-0,-0,0.66667
0.041687,0.76339,0.62531,0.39508,118.15,2832.9,-0.6588,0.2196,-1.4404,-0.8784,-4.7037e-06,-0.72022,0,0,0.066667,7.8949e-17,0,0.66667
0.65997,0.70672,9.8995,0.31009,52.358,468.97,-8.1859,2.7286,-1.6566,-10.915,-2.4345e-12,-0.82828,0,0,0.066667,6.3159e-16,0,0.66667
0.20163,0.8168,3.0245,0.4752,136.6,2122.2,-3.8326,1.2775,-1.2033,-5.1102,-5.3857e-10,-0.60165,0,0,0.066667,-0,-0,0.66667
0.41646,0.2235,6.2469,-0.41476,-102.68,1247.1,6.9092,-2.3031,-1.3842,9.2123,7.1161e-12,-0.69212,0,0,0.066667,-0,-0,0.66667
0.45089,0.16681,6.7634,-0.49979,-119.29,1120.9,9.0141,-3.0047,-1.1147,12.019,-6.9402e-12,-0.55735,0,0,0.066667,-0,-0,0.66667
0.34873,0.88002,5.2309,0.57003,150.07,1508.9,-7.9514,2.6505,-0.84121,-10.602,5.3491e-12,-0.4206,0,0,0.066667,1.2632e-15,0,0.66667
0.38328,0.36035,5.7492,-0.20947,-53.497,1372.9,3.2115,-1.0705,-1.8374,4.282,-3.8602e-12,-0.91869,0,0,0.066667,-0,-0,0.66667
0.18031,0.54288,2.7046,0.064326,18.633,2214.8,-0.46393,0.15464,-1.9788,-0.61858,-9.276e-11,-0.98942,0,0,0.066667,-0,-0,0.66667
0.06813,0.81761,1.022,0.47642,142.1,2713.8,-1.2983,0.43278,-1.1885,-1.7311,-3.802e-07,-0.59425,0,0,0.066667,-1.579e-16,0,0.66667
0.55126,0.16418,8.2688,-0.50373,-105.04,781.09,11.107,-3.7025,-1.0951,14.81,1.5898e-11,-0.54753,0,0,0.066667,-0,-0,0.66667
0.59587,0.4447,8.938,-0.082947,-16.001,644.56,1.977,-0.659,-1.9791,2.636,2.6193e-12,-0.98955,0,0,0.066667,-0,-0,0.66667
0.1455,0.37933,2.1825,-0.181,-53.052,2368.1,1.0534,-0.35115,-1.8803,1.4046,-2.5904e-10,-0.94016,0,0,0.066667,3.158e-16,0,0.66667
0.23094,0.15872,3.4641,-0.51192,-145.23,1996,4.729,-1.5763,-1.0685,6.3053,2.6355e-10,-0.53426,0,0,0.066667,6.3159e-16,0,0.66667
0.28638,0.74191,4.2957,0.36287,99.77,1761.9,-4.1567,1.3856,-1.5277,-5.5422,5.0111e-12,-0.76386,0,0,0.066667,-3.158e-16,0,0.66667
0.83075,0.99515,12.461,0.74273,69.032,128.28,-24.681,8.227,-0.0408,-32.908,3.5812e-09,-0.0204,0,0,0.066667,3.158e-16,0,0.66667
0.15342,0.031936,2.3013,-0.7021,-205.62,2333.5,4.3087,-1.4362,-0.24967,5.7449,-1.3676e-07,-0.12483,0,0,0.066667,-6.3159e-16,0,0.66667
0.55214,0.032638,8.2821,-0.70104,-146.15,779.19,15.483,-5.161,-0.24927,20.644,-7.2573e-12,-0.12464,0,0,0.066667,-0,-0,0.66667
0.56814,0.19799,8.5221,-0.45302,-91.87,728.4,10.295,-3.4317,-1.2652,13.727,3.8822e-12,-0.63262,0,0,0.066667,1.2632e-15,0,0.66667
0.34342,0.76378,5.1513,0.39568,104.54,1529.7,-5.4353,1.8118,-1.4535,-7.2471,1.1168e-11,-0.72675,0,0,0.066667,-0,-0,0.66667
0.35062,0.99772,5.2593,0.74658,196.44,1502,-10.471,3.4902,-0.013049,-13.961,1.1186e-11,-0.0065244,0,0,0.066667,-1.9737e-15,0,0.66667
0.95911,0.57855,14.387,0.11782,2.7643,8.378,-4.52,1.5067,-1.945,-6.0267,3.6658e-07,-0.97249,0,0,0.066667,-0,-0,0.66667
0.55334,0.21879,8.3002,-0.42181,-87.628,774.24,9.3362,-3.1121,-1.363,12.448,-3.1175e-13,-0.68148,0,0,0.066667,2.5264e-15,0,0.66667
0.65273,0.84955,9.791,0.52433,90.124,488.44,-13.69,4.5633,-1.022,-18.253,-4.9294e-13,-0.51102,0,0,0.066667,-0,-0,0.66667
0.49074,0.44587,7.3611,-0.081192,-18.445,979.79,1.5938,-0.53126,-1.9709,2.125,9.2296e-12,-0.98544,0,0,0.066667,-0,-0,0.66667
0.64665,0.085672,9.6997,-0.62149,-108.37,504.85,16.076,-5.3585,-0.62134,21.434,8.0682e-12,-0.31067,0,0,0.066667,-0,-0,0.66667
0.60525,0.7387,9.0788,0.35805,67.904,617.86,-8.6684,2.8895,-1.5417,-11.558,5.8211e-12,-0.77086,0,0,0.066667,-0,-0,0.66667
0.14517,0.082599,2.1776,-0.6261,-183.76,2369.9,3.6357,-1.2119,-0.60288,4.8476,1.7282e-08,-0.30144,0,0,0.066667,-1.579e-16,0,0.66667
0.33468,0.095343,5.0202,-0.60699,-161.58,1565.1,8.1259,-2.7086,-0.6852,10.834,1.6502e-11,-0.3426,0,0,0.066667,1.2632e-15,0,0.66667
0.46043,0.92953,6.9065,0.64429,152.21,1087.2,-11.866,3.9554,-0.51788,-15.821,2.3482e-11,-0.25894,0,0,0.066667,-0,-0,0.66667
0.12782,0.81493,1.9173,0.47239,139.24,2446.7,-2.4153,0.80509,-1.2086,-3.2204,-7.5285e-09,-0.60429,0,0,0.066667,3.158e-16,0,0.66667
0.36307,0.98364,5.4461,0.72547,188.92,1452.8,-10.536,3.512,-0.12711,-14.048,2.8022e-12,-0.063557,0,0,0.066667,-0,-0,0.66667
0.22814,0.20279,3.4221,-0.44581,-126.61,2007.9,4.0683,-1.3561,-1.2874,5.4244,-4.6245e-11,-0.64371,0,0,0.066667,-0,-0,0.66667
0.8475,0.71505,12.713,0.32258,27.112,103.16,-10.936,3.6452,-1.6293,-14.581,-1.7525e-09,-0.81464,0,0,0.066667,-0,-0,0.66667
0.34147,0.44094,5.1221,-0.08859,-23.427,1537.1,1.2101,-0.40335,-1.9757,1.6134,-4.2889e-12,-0.98783,0,0,0.066667,-0,-0,0.66667
0.22679,0.76364,3.4018,0.39547,112.37,2013.6,-3.5875,1.1958,-1.4373,-4.7833,5.8683e-11,-0.71865,0,0,0.066667,3.158e-16,0,0.66667
0.40818,0.28952,6.1227,-0.31572,-78.784,1278,5.1549,-1.7183,-1.6497,6.8732,6.6818e-12,-0.82483,0,0,0.066667,-0,-0,0.66667
0.68306,0.37592,10.246,-0.18612,-29.682,411.16,5.0852,-1.6951,-1.8751,6.7803,4.0661e-12,-0.93755,0,0,0.066667,-0,-0,0.66667
0.065622,0.75153,0.98433,0.3773,112.54,2725,-0.99037,0.33012,-1.4952,-1.3205,-4.6783e-07,-0.74758,0,0,0.066667,-1.579e-16,0,0.66667
0.18073,0.67955,2.7109,0.26933,78.022,2213.1,-1.947,0.649,-1.7362,-2.596,-1.5227e-10,-0.86808,0,0,0.066667,3.158e-16,0,0.66667
0.69431,0.14693,10.415,-0.5296,-82.136,385.46,14.708,-4.9028,-0.99664,19.611,2.3448e-12,-0.49832,0,0,0.066667,-0,-0,0.66667
0.75226,0.021328,11.284,-0.71801,-93.473,261.24,21.605,-7.2017,-0.1698,28.807,1.2148e-10,-0.084901,0,0,0.066667,-0,-0,0.66667
0.61775,0.20667,9.2663,-0.43999,-81.456,582.65,10.872,-3.6241,-1.3052,14.496,6.9225e-12,-0.65259,0,0,0.066667,-0,-0,0.66667
0.8792,0.47542,13.188,-0.036873,-2.4897,65.599,1.2968,-0.43225,-1.993,1.729,-1.6943e-09,-0.99649,0,0,0.066667,-0,-0,0.66667
0.1688,0.90146,2.532,0.6022,175.39,2265.7,-4.066,1.3553,-0.71149,-5.4214,1.4387e-08,-0.35575,0,0,0.066667,1.789e-16,-5.6622e-17,0.66667
0.70355,0.018279,10.553,-0.72258,-109.45,365.15,20.335,-6.7783,-0.15331,27.113,-9.9192e-12,-0.076657,0,0,0.066667,2.5264e-15,0,0.66667
0.91726,0.070885,13.759,-0.64367,-30.533,34.249,23.617,-7.8722,-0.52364,31.489,5.9546e-08,-0.26182,0,0,0.066667,-0,-0,0.66667
0.15074,0.52781,2.2611,0.041709,12.204,2344.9,-0.25149,0.08383,-1.9898,-0.33532,-8.7681e-10,-0.99489,0,0,0.066667,7.8949e-17,0,0.66667
0.24376,0.012721,3.6565,-0.73092,-206.22,1941.7,7.1269,-2.3756,-0.094606,9.5025,-1.1622e-10,-0.047303,0,0,0.066667,-0,-0,0.66667
0.54668,0.99856,8.2003,0.74785,157.3,796.67,-16.353,5.4511,-0.023639,-21.805,-1.0949e-11,-0.01182,0,0,0.066667,2.3685e-16,0,0.66667
0.34412,0.48962,5.1618,-0.01557,-4.1087,1526.5,0.21431,-0.071438,-2.0093,0.28575,1.8001e-11,-1.0046,0,0,0.066667,6.3159e-16,0,0.66667
0.69064,0.82371,10.36,0.48556,76.023,393.92,-13.414,4.4713,-1.1617,-17.885,4.9196e-12,-0.58086,0,0,0.066667,-0,-0,0.66667
0.057568,0.96696,0.86351,0.70045,209.39,2761.4,-1.6129,0.53766,-0.25272,-2.1506,3.3291e-05,-0.12636,0,0,0.066667,-1.9737e-17,0,0.66667
0.16076,0.2414,2.4115,-0.3879,-113.2,2300.8,2.4944,-0.83146,-1.462,3.3258,-1.3e-11,-0.73098,0,0,0.066667,-0,-0,0.66667
0.71624,0.22011,10.744,-0.41983,-61.17,334.94,12.028,-4.0094,-1.3765,16.037,-6.3505e-13,-0.68824,0,0,0.066667,-0,-0,0.66667
0.97062,0.96997,14.559,0.70495,12.197,7.6864,-27.37,9.1232,-0.23843,-36.493,-8.5083e-05,-0.11921,0,0,0.066667,-0,-0,0.66667
0.92955,0.34051,13.943,-0.23924,-9.631,23.661,8.8955,-2.9652,-1.7909,11.861,-3.6012e-07,-0.89545,0,0,0.066667,3.158e-16,0,0.66667
0.90107,0.20697,13.516,-0.43954,-24.632,45.855,15.842,-5.2807,-1.3086,21.123,-5.2477e-08,-0.6543,0,0,0.066667,-1.2632e-15,0,0.66667
0.12774,0.17241,1.9161,-0.49138,-144.85,2447,2.5108,-0.83695,-1.1425,3.3478,1.1546e-08,-0.57126,0,0,0.066667,-1.579e-16,0,0.66667
0.14593,0.30722,2.1889,-0.28918,-84.762,2366.2,1.688,-0.56266,-1.6986,2.2506,-5.4952e-10,-0.84932,0,0,0.066667,-2.3685e-16,0,0.66667
0.072265,0.42631,1.084,-0.11053,-32.922,2695.1,0.31949,-0.1065,-1.9512,0.42599,1.796e-07,-0.97559,0,0,0.066667,-0,-0,0.66667
0.54254,0.11519,8.1381,-0.57721,-122.05,809.04,12.526,-4.1754,-0.81259,16.702,-1.4264e-12,-0.4063,0,0,0.066667,-6.3159e-16,0,0.66667
0.88249,0.37526,13.237,-0.18711,-12.316,62.411,6.605,-2.2017,-1.8705,8.8067,2.3758e-09,-0.93526,0,0,0.066667,-0,-0,0.66667
0.53179,0.78252,7.9769,0.42378,91.011,843.11,-9.0145,3.0048,-1.3721,-12.019,-2.0872e-12,-0.68605,0,0,0.066667,1.2632e-15,0,0.66667
0.78172,0.38596,11.726,-0.17106,-19.864,203.61,5.3489,-1.783,-1.9056,7.1319,1.0848e-11,-0.95281,0,0,0.066667,-0,-0,0.66667
0.18845,0.301,2.8268,-0.2985,-86.223,2179.4,2.2501,-0.75004,-1.6908,3.0002,1.095e-10,-0.84538,0,0,0.066667,-3.158e-16,0,0.66667
0.86311,0.71527,12.947,0.32291,24.553,83.984,-11.148,3.7161,-1.6286,-14.864,6.4881e-09,-0.8143,0,0,0.066667,-0,-0,0.66667
0.18742,0.90243,2.8114,0.60365,174.61,2184.2,-4.5256,1.5085,-0.71663,-6.0341,-1.1817e-09,-0.35832,0,0,0.066667,3.158e-16,3.3847e-17,0.66667
0.054764,0.79497,0.82146,0.44246,132.17,2774,-0.96924,0.32308,-1.2973,-1.2923,5.6544e-07,-0.64864,0,0,0.066667,-0,-0,0.66667
0.42149,0.62865,6.3224,0.19298,47.503,1228,-3.2535,1.0845,-1.8785,-4.338,-2.6037e-12,-0.93924,0,0,0.066667,-0,-0,0.66667
0.5551,0.16386,8.3266,-0.50421,-104.49,769,11.196,-3.7318,-1.0899,14.927,2.4626e-11,-0.54496,0,0,0.066667,-1.2632e-15,0,0.66667
0.97074,0.74895,14.561,0.37342,6.2956,5.3384,-14.5,4.8333,-1.5092,-19.333,-6.8683e-06,-0.75459,0,0,0.066667,1.3421e-15,0,0.66667
0.091754,0.59239,1.3763,0.13858,41.145,2607.6,-0.5086,0.16953,-1.9366,-0.67814,-1.525e-08,-0.96831,0,0,0.066667,1.875e-16,0,0.66667
0.27392,0.28359,4.1088,-0.32461,-89.924,1813.8,3.5567,-1.1856,-1.62,4.7423,1.6579e-11,-0.80998,0,0,0.066667,-0,-0,0.66667
0.10511,0.48108,1.5766,-0.028376,-8.4023,2547.8,0.1193,-0.039767,-1.9943,0.15907,1.2228e-08,-0.99715,0,0,0.066667,1.579e-16,0,0.66667
0.39044,0.77681,5.8566,0.41522,105.41,1345.7,-6.4847,2.1616,-1.3987,-8.6462,-1.3787e-11,-0.69933,0,0,0.066667,-7.8949e-16,0,0.66667
0.28901,0.22681,4.3352,-0.40979,-112.5,1751.1,4.7374,-1.5791,-1.3966,6.3165,1.1878e-11,-0.69832,0,0,0.066667,-0,-0,0.66667
0.5133,0.075364,7.6995,-0.63695,-140.64,904.74,13.078,-4.3593,-0.55989,17.437,2.3353e-11,-0.27995,0,0,0.066667,-1.2632e-15,8.9863e-17,0.66667
0.34826,0.67315,5.2239,0.25972,68.332,1510.2,-3.6179,1.206,-1.7568,-4.8239,2.683e-12,-0.87839,0,0,0.066667,-6.3159e-16,0,0.66667
0.92823,0.41132,13.923,-0.13302,-5.4477,24.26,4.939,-1.6463,-1.9318,6.5854,-1.9754e-07,-0.96592,0,0,0.066667,-0,-0,0.66667
0.78995,0.43275,11.849,-0.10088,-11.321,189.16,3.1875,-1.0625,-1.9582,4.25,3.3613e-11,-0.9791,0,0,0.066667,-3.158e-16,0,0.66667
0.86101,0.8875,12.915,0.58124,44.968,87.795,-20.018,6.6728,-0.80361,-26.691,-7.9498e-08,-0.40181,0,0,0.066667,-0,-0,0.66667
0.1295,0.053844,1.9425,-0.66923,-197.32,2439.4,3.4667,-1.1556,-0.40452,4.6222,-6.6945e-09,-0.20226,0,0,0.066667,-1.579e-16,0,0.66667
0.57507,0.27064,8.6261,-0.34403,-68.919,706.94,7.9137,-2.6379,-1.5795,10.552,2.264e-12,-0.78973,0,0,0.066667,6.3159e-16,0,0.66667
0.21478,0.17028,3.2217,-0.49458,-141.37,2065.4,4.2491,-1.4164,-1.1281,5.6655,-4.624e-10,-0.56403,0,0,0.066667,-0,-0,0.66667
0.86824,0.10273,13.024,-0.59591,-43.879,79.549,20.696,-6.8985,-0.73137,27.594,6.8627e-08,-0.36569,0,0,0.066667,-0,-0,0.66667
0.015019,0.60019,0.22529,0.15028,44.991,2953.3,-0.090288,0.030096,-1.9292,-0.12038,8.2514e-07,-0.9646,0,0,0.066667,-3.9475e-17,0,0.66667
0.10574,0.29871,1.5862,-0.30193,-89.419,2545,1.2771,-0.4257,-1.6745,1.7028,5.0961e-08,-0.83723,0,0,0.066667,3.2672e-17,0,0.66667
0.37606,0.61931,5.6409,0.17896,45.997,1400.9,-2.692,0.89733,-1.8938,-3.5893,1.5347e-11,-0.94692,0,0,0.066667,-6.3159e-16,0,0.66667
0.40209,0.93865,6.0314,0.65798,165.39,1302,-10.583,3.5276,-0.45948,-14.11,1.0381e-11,-0.22974,0,0,0.066667,-0,-1.072e-19,0.66667
0.27722,0.74272,4.1583,0.36408,100.67,1800.1,-4.0372,1.3457,-1.5268,-5.3829,1.4003e-11,-0.7634,0,0,0.066667,-0,-0,0.66667
0.096063,0.90372,1.4409,0.60558,179.88,2588.5,-2.327,0.77566,-0.69966,-3.1026,-5.9561e-09,-0.34983,0,0,0.066667,1.9737e-16,0,0.66667
0.11873,0.047085,1.781,-0.67937,-200.87,2487.3,3.2265,-1.0755,-0.35299,4.302,-4.2175e-07,-0.17649,0,0,0.066667,-0,-0,0.66667
0.31794,0.85232,4.7692,0.52849,142.36,1632.5,-6.7212,2.2404,-1.0023,-8.9616,1.0845e-11,-0.50115,0,0,0.066667,-0,-0,0.66667
0.95079,0.10084,14.262,-0.59873,-17.115,14.035,22.771,-7.5903,-0.72823,30.361,-4.7127e-06,-0.36411,0,0,0.066667,-0,-0,0.66667
0.20741,0.15554,3.1111,-0.51669,-148.18,2097.3,4.2866,-1.4289,-1.0494,5.7154,-6.3761e-11,-0.52471,0,0,0.066667,-1.3816e-16,0,0.66667
0.74728,0.73713,11.209,0.3557,46.959,269.19,-10.632,3.5441,-1.5513,-14.176,5.0475e-12,-0.77565,0,0,0.066667,-1.2632e-15,0,0.66667
0.25819,0.083307,3.8728,-0.62504,-174.9,1880.4,6.4551,-2.1517,-0.60449,8.6068,4.8224e-11,-0.30225,0,0,0.066667,-0,-0,0.66667
0.03724,0.51511,0.5586,0.022668,6.7777,2853,-0.033766,0.011255,-1.9925,-0.045022,-3.0056e-07,-0.99625,0,0,0.066667,-0,-0,0.66667
0.016052,0.10748,0.24078,-0.58878,-176.46,2948.7,0.37803,-0.12599,-0.77703,0.50405,2.8268e-05,-0.38852,0,0,0.066667,-0,-0,0.66667
0.15271,0.48613,2.2906,-0.020811,-6.0856,2336.2,0.12712,-0.042373,-1.9973,0.16949,-1.1777e-09,-0.99864,0,0,0.066667,-3.158e-16,0,0.66667
0.46208,0.31167,6.9313,-0.2825,-66.513,1080.3,5.2216,-1.7405,-1.7115,6.9621,-1.4598e-11,-0.85575,0,0,0.066667,2.3685e-16,0,0.66667
0.7559,0.25769,11.339,-0.36347,-46.574,252.16,10.99,-3.6633,-1.5251,14.653,-2.4556e-11,-0.76257,0,0,0.066667,-0,-0,0.66667
0.72881,0.74553,10.932,0.36829,51.637,307.44,-10.737,3.5789,-1.5134,-14.316,6.0307e-13,-0.75672,0,0,0.066667,-3.158e-16,0,0.66667
0.35239,0.71762,5.2858,0.32643,85.615,1493.9,-4.6013,1.5338,-1.6161,-6.135,5.2047e-12,-0.80806,0,0,0.066667,-1.0573e-16,0,0.66667
0.47914,0.78415,7.1871,0.42622,98.343,1020.5,-8.1688,2.7229,-1.3505,-10.892,-6.4269e-12,-0.67526,0,0,0.066667,1.2632e-15,0,0.66667
0.81407,0.49966,12.211,-0.00050605,-0.050909,149.87,0.016479,-0.0054928,-2.0066,0.021971,4.5472e-10,-1.0033,0,0,0.066667,-3.9475e-17,0,0.66667
0.8384,0.92464,12.576,0.63697,56.665,116.88,-21.361,7.1205,-0.55263,-28.482,-1.8103e-08,-0.27631,0,0,0.066667,-0,-0,0.66667
0.31992,0.86752,4.7988,0.55128,148.31,1624.6,-7.0546,2.3515,-0.91325,-9.4061,-5.3357e-12,-0.45663,0,0,0.066667,-0,-0,0.66667
0.004265,0.70859,0.063975,0.31288,93.712,3002,-0.053375,0.017789,-1.6492,-0.071168,-4.6012e-06,-0.82462,0,0,0.066667,-4.9343e-18,0,0.66667
0.046931,0.6721,0.70396,0.25816,77.144,2809.2,-0.48462,0.16154,-1.7744,-0.64616,-8.6999e-07,-0.88721,0,0,0.066667,-0,-0,0.66667
0.73781,0.43735,11.067,-0.093982,-12.793,287.93,2.7736,-0.92454,-1.9694,3.6982,-4.1849e-12,-0.98468,0,0,0.066667,-5.1317e-16,0,0.66667
0.27263,0.27182,4.0895,-0.34226,-94.889,1819.2,3.7325,-1.2442,-1.5773,4.9767,1.0277e-11,-0.78864,0,0,0.066667,3.158e-16,0,0.66667
0.48149,0.45736,7.2223,-0.063954,-14.701,1011.8,1.2317,-0.41057,-1.9862,1.6423,-3.3605e-12,-0.99309,0,0,0.066667,6.3159e-16,0,0.66667
0.19203,0.87317,2.8805,0.55976,161.59,2164,-4.2997,1.4332,-0.88382,-5.7329,-2.9435e-10,-0.44191,0,0,0.066667,3.9475e-17,0,0.66667
0.84711,0.65464,12.707,0.23197,19.53,103.38,-7.86,2.62,-1.8093,-10.48,-1.3206e-10,-0.90466,0,0,0.066667,1.7369e-15,0,0.66667
0.50338,0.3426,7.5507,-0.2361,-52.759,936.86,4.754,-1.5847,-1.8025,6.3386,1.4882e-11,-0.90125,0,0,0.066667,-0,-0,0.66667
0.52716,0.59032,7.9074,0.13548,29.274,857.64,-2.8569,0.95229,-1.9333,-3.8092,5.4956e-13,-0.96663,0,0,0.066667,-0,-0,0.66667
0.28808,0.59184,4.3212,0.13776,37.821,1754.7,-1.5875,0.52916,-1.9275,-2.1166,4.4936e-11,-0.96373,0,0,0.066667,8.3214e-16,0,0.66667
0.512,0.0050055,7.68,-0.74249,-164.35,909.58,15.206,-5.0687,-0.039219,20.275,7.8035e-12,-0.019609,0,0,0.066667,-0,-0,0.66667
0.0019636,0.26462,0.029455,-0.35307,-105.76,3012.4,0.027728,-0.0092414,-1.5604,0.036972,1.9057e-06,-0.78018,0,0,0.066667,-0,-0,0.66667
0.2773,0.82272,4.1594,0.48407,133.89,1799.9,-5.3692,1.7897,-1.1648,-7.159,-1.9089e-11,-0.58242,0,0,0.066667,-0,-0,0.66667
0.34876,0.43918,5.2314,-0.091233,-23.988,1508.1,1.2728,-0.42425,-1.9674,1.697,2.7514e-11,-0.98372,0,0,0.066667,-0,-0,0.66667
0.28395,0.056621,4.2593,-0.66507,-183.35,1772.6,7.5539,-2.518,-0.42915,10.072,7.1716e-12,-0.21458,0,0,0.066667,3.158e-16,0,0.66667
0.085952,0.497,1.2893,-0.0044972,-1.3366,2633.6,0.015462,-0.005154,-1.9944,0.020616,-7.793e-08,-0.99719,0,0,0.066667,2.7632e-16,0,0.66667
0.52178,0.62559,7.8267,0.18839,41.027,875.36,-3.9319,1.3106,-1.8695,-5.2426,7.7252e-12,-0.93477,0,0,0.066667,-0,-0,0.66667
0.78848,0.46064,11.827,-0.059035,-6.6657,191.65,1.8619,-0.62064,-1.9814,2.4826,-1.9031e-11,-0.99072,0,0,0.066667,6.3159e-16,0,0.66667
0.9426,0.42139,14.139,-0.11791,-3.8772,15.85,4.4456,-1.4819,-1.9461,5.9275,-1.4911e-07,-0.97305,0,0,0.066667,1.2632e-15,0,0.66667
0.49729,0.57243,7.4593,0.10864,24.471,957.38,-2.1611,0.72036,-1.9594,-2.8814,-1.8758e-12,-0.9797,0,0,0.066667,-0,-0,0.66667
0.59375,0.57209,8.9063,0.10814,20.942,650.77,-2.5682,0.85608,-1.9703,-3.4243,-1.6385e-12,-0.98515,0,0,0.066667,-0,-0,0.66667
0.29086,0.61677,4.3629,0.17516,48.006,1743.2,-2.0379,0.6793,-1.8856,-2.7172,3.4886e-11,-0.9428,0,0,0.066667,-0,-0,0.66667
0.14916,0.66568,2.2374,0.24852,72.769,2351.9,-1.4828,0.49426,-1.7741,-1.977,3.9721e-10,-0.88707,0,0,0.066667,-0,-0,0.66667
0.13187,0.73447,1.9781,0.35171,103.52,2428.6,-1.8552,0.6184,-1.5538,-2.4736,-7.6739e-09,-0.77689,0,0,0.066667,-0,-0,0.66667
0.73236,0.34327,10.985,-0.2351,-32.577,299.54,6.8871,-2.2957,-1.8085,9.1828,-7.0037e-12,-0.90425,0,0,0.066667,1.579e-15,0,0.66667
0.73447,0.44013,11.017,-0.089805,-12.356,294.88,2.6384,-0.87945,-1.9837,3.5178,-1.1093e-11,-0.99185,0,0,0.066667,2.5264e-15,0,0.66667
0.17935,0.52526,2.6903,0.03789,10.979,2219,-0.27182,0.090608,-1.9889,-0.36243,-8.2018e-11,-0.99445,0,0,0.066667,-0,-0,0.66667
0.41356,0.24938,6.2034,-0.37593,-93.327,1257.9,6.2189,-2.073,-1.4925,8.2918,1.351e-11,-0.74624,0,0,0.066667,-1.3816e-16,0,0.66667
0.59414,0.30618,8.9122,-0.29072,-56.285,649.91,6.9093,-2.3031,-1.7099,9.2124,1.0314e-11,-0.85496,0,0,0.066667,3.158e-16,0,0.66667
0.12528,0.028402,1.8792,-0.7074,-208.84,2458.2,3.545,-1.1817,-0.23225,4.7266,-5.191e-07,-0.11612,0,0,0.066667,-0,-0,0.66667
0.78537,0.53462,11.781,0.051929,5.9396,197.04,-1.6313,0.54378,-1.9889,-2.1751,3.5216e-11,-0.99444,0,0,0.066667,-0,-0,0.66667
0.61999,0.97729,9.2999,0.71594,132.18,577.71,-17.755,5.9184,-0.17356,-23.674,1.3497e-11,-0.086778,0,0,0.066667,-0,-0,0.66667
0.61522,0.1438,9.2283,-0.53431,-99.468,590.14,13.149,-4.3829,-0.97951,17.532,-1.4557e-12,-0.48975,0,0,0.066667,6.3159e-16,0,0.66667
0.70121,0.72359,10.518,0.33538,50.987,368.61,-9.4069,3.1356,-1.6046,-12.543,4.9631e-12,-0.80232,0,0,0.066667,-0,-0,0.66667
0.98718,0.23065,14.808,-0.40402,-2.9197,2.0824,15.954,-5.3179,-1.4205,21.272,-8.581e-06,-0.71027,0,0,0.066667,-0,-0,0.66667
0.56239,0.94628,8.4359,0.66942,137.23,747.02,-15.059,5.0197,-0.41812,-20.079,7.681e-12,-0.20906,0,0,0.066667,-1.2632e-15,-6.3812e-17,0.66667
0.86442,0.18481,12.966,-0.47279,-35.688,83.153,16.347,-5.4491,-1.202,21.796,-8.1756e-09,-0.60102,0,0,0.066667,-3.158e-16,0,0.66667
0.41871,0.46732,6.2806,-0.049024,-12.1,1238.3,0.82106,-0.27369,-1.9927,1.0948,1.5836e-11,-0.99633,0,0,0.066667,7.1054e-16,0,0.66667
0.65447,0.36218,9.817,-0.20673,-35.343,482.91,5.4119,-1.804,-1.8523,7.2159,1.9442e-12,-0.92617,0,0,0.066667,-0,-0,0.66667
0.92526,0.89516,13.879,0.59274,25.457,28.265,-21.938,7.3126,-0.75013,-29.25,2.3253e-06,-0.37506,0,0,0.066667,-0,-0,0.66667
0.66415,0.023376,9.9623,-0.71494,-119.84,460.15,18.993,-6.331,-0.17639,25.324,1.2079e-13,-0.088194,0,0,0.066667,-1.2632e-15,0,0.66667
0.30308,0.34674,4.5462,-0.2299,-62.512,1692.8,2.7871,-0.92903,-1.8073,3.7161,3.9336e-11,-0.90365,0,0,0.066667,-0,-0,0.66667
0.61995,0.97933,9.2992,0.71899,132.76,577.85,-17.829,5.9431,-0.15776,-23.772,8.4945e-12,-0.078882,0,0,0.066667,1.2632e-15,0,0.66667
0.35132,0.026396,5.2698,-0.71041,-186.77,1499.1,9.9831,-3.3277,-0.19975,13.311,-1.3607e-12,-0.099876,0,0,0.066667,-3.158e-16,0,0.66667
0.32237,0.86407,4.8355,0.5461,146.66,1614.6,-7.0418,2.3473,-0.93438,-9.3891,2.4349e-12,-0.46719,0,0,0.066667,3.158e-16,0,0.66667
0.61021,0.77502,9.1531,0.41253,77.51,603.87,-10.069,3.3564,-1.4035,-13.426,4.1949e-12,-0.70174,0,0,0.066667,3.158e-16,0,0.66667
0.16032,0.98614,2.4048,0.72922,213.12,2303.1,-4.6764,1.5588,-0.10685,-6.2352,1.7489e-09,-0.053427,0,0,0.066667,-3.158e-16,0,0.66667
0.48674,0.56437,7.3011,0.096555,22.048,993.58,-1.8799,0.62663,-1.9704,-2.5065,-6.4342e-12,-0.9852,0,0,0.066667,1.2632e-15,0,0.66667
0.94563,0.87144,14.185,0.55716,17.534,16.171,-21.075,7.0249,-0.89064,-28.099,-4.3709e-06,-0.44532,0,0,0.066667,-0,-0,0.66667
0.38391,0.026221,5.7587,-0.71067,-181.73,1371.6,10.913,-3.6378,-0.19875,14.551,1.667e-11,-0.099373,0,0,0.066667,3.158e-16,0,0.66667
0.18896,0.3976,2.8344,-0.1536,-44.35,2177.1,1.161,-0.387,-1.9219,1.548,8.0407e-12,-0.96094,0,0,0.066667,-0,-0,0.66667
0.46884,0.25317,7.0326,-0.37025,-86.495,1056.5,6.9434,-2.3145,-1.5249,9.2579,9.1176e-12,-0.76245,0,0,0.066667,-0,-0,0.66667
0.84091,0.14734,12.614,-0.52898,-46.323,112.81,17.793,-5.931,-1.0061,23.724,-7.5279e-10,-0.50306,0,0,0.066667,1.2632e-15,0,0.66667
0.84267,0.0057302,12.64,-0.7414,-64.472,111.98,24.99,-8.3301,-0.05318,33.32,5.9169e-09,-0.02659,0,0,0.066667,-0,4.7288e-17,0.66667
0.8278,0.069263,12.417,-0.64611,-60.91,131.74,21.394,-7.1313,-0.52643,28.525,2.6259e-08,-0.26322,0,0,0.066667,-0,-5.3551e-17,0.66667
0.011476,0.066649,0.17213,-0.65003,-194.89,2969.4,0.29837,-0.099356,-0.49591,0.39788,0.00015294,-0.24796,0,0,0.066667,-3.9475e-17,0,0.66667
0.26704,0.75264,4.0056,0.37896,105.42,1842.7,-4.0479,1.3493,-1.4962,-5.3972,2.4134e-11,-0.74808,0,0,0.066667,-0,-0,0.66667
0.99988,0.8338,14.998,0.50071,-0.12469,1.6739,-20.026,6.6752,-1.12,-26.701,-5.9722e-05,-0.55998,0,0,0.066667,1.2632e-15,-4.862e-18,0.66667
0.11968,0.26451,1.7952,-0.35324,-104.29,2482.8,1.6911,-0.56369,-1.5516,2.2547,-2.1255e-08,-0.77578,0,0,0.066667,-0,-0,0.66667
0.49009,0.72365,7.3513,0.33547,76.312,982.37,-6.5764,2.1921,-1.5953,-8.7686,-3.4137e-12,-0.79765,0,0,0.066667,-1.2632e-15,0,0.66667
0.79003,0.21443,11.85,-0.42836,-48.132,189.94,13.537,-4.5122,-1.3421,18.049,-5.7573e-11,-0.67104,0,0,0.066667,1.579e-15,0,0.66667
0.12221,0.62741,1.8332,0.19111,56.372,2471.5,-0.93424,0.31141,-1.8723,-1.2457,3.4085e-09,-0.93614,0,0,0.066667,-0,-0,0.66667
0.66241,0.7714,9.9361,0.4071,68.374,463.05,-10.787,3.5956,-1.4051,-14.382,-4.2224e-12,-0.70256,0,0,0.066667,6.3159e-16,0,0.66667
0.48808,0.77185,7.3212,0.40777,93.022,989.46,-7.961,2.6537,-1.4074,-10.615,-3.5727e-12,-0.70372,0,0,0.066667,-0,-0,0.66667
0.19429,0.75179,2.9143,0.37768,108.86,2154,-2.9352,0.97839,-1.4878,-3.9136,1.9093e-10,-0.7439,0,0,0.066667,-0,-0,0.66667
0.87863,0.66892,13.179,0.25339,17.201,66.561,-8.9053,2.9684,-1.7704,-11.874,-8.1239e-09,-0.88518,0,0,0.066667,1.2632e-15,0,0.66667
0.18149,0.54719,2.7223,0.070791,20.497,2209.7,-0.51391,0.1713,-1.9765,-0.68521,-2.7238e-11,-0.98824,0,0,0.066667,-3.158e-16,0,0.66667
0.63905,0.6496,9.5858,0.22439,39.707,523.62,-5.736,1.912,-1.8265,-7.648,-1.827e-12,-0.91327,0,0,0.066667,-0,-0,0.66667
0.74083,0.71345,11.112,0.32018,43.185,282.17,-9.488,3.1627,-1.6301,-12.651,-3.5687e-12,-0.81506,0,0,0.066667,1.579e-15,0,0.66667
0.56267,0.3174,8.4401,-0.2739,-56.016,744.76,6.1646,-2.0549,-1.7449,8.2195,9.4347e-12,-0.87245,0,0,0.066667,-0,-0,0.66667
0.62884,0.67071,9.4326,0.25606,46.309,551.38,-6.4408,2.1469,-1.7649,-8.5877,8.3253e-12,-0.88247,0,0,0.066667,-1.2632e-15,0,0.66667
0.11897,0.69832,1.7845,0.29748,87.833,2486,-1.4156,0.47186,-1.6798,-1.8874,1.3709e-08,-0.8399,0,0,0.066667,-0,-0,0.66667
0.30804,0.30569,4.6206,-0.29147,-78.999,1672.6,3.5913,-1.1971,-1.6952,4.7884,3.4771e-11,-0.84759,0,0,0.066667,-3.158e-16,0,0.66667
0.58696,0.82402,8.8044,0.48602,95.408,671.7,-11.411,3.8037,-1.1539,-15.215,-3.7153e-12,-0.57693,0,0,0.066667,-0,-0,0.66667
0.39546,0.068938,5.932,-0.64659,-163.54,1327.1,10.228,-3.4094,-0.51006,13.638,-4.21e-13,-0.25503,0,0,0.066667,-0,-0,0.66667
0.66395,0.084435,9.9592,-0.62335,-104.46,460.13,16.555,-5.5183,-0.61206,22.073,3.7836e-12,-0.30603,0,0,0.066667,-6.3159e-16,0,0.66667
0.85195,0.33421,12.779,-0.24869,-20.326,97.258,8.4749,-2.825,-1.7737,11.3,4.2009e-10,-0.88687,0,0,0.066667,-0,-0,0.66667
0.19022,0.95525,2.8533,0.68287,197.38,2172.1,-5.1959,1.732,-0.34313,-6.9279,-1.3494e-09,-0.17156,0,0,0.066667,3.158e-16,0,0.66667
0.90327,0.37994,13.549,-0.18009,-9.8474,42.996,6.5069,-2.169,-1.8858,8.6759,-2.9713e-08,-0.94291,0,0,0.066667,-0,-0,0.66667
0.38318,0.17095,5.7476,-0.49357,-126.17,1373.8,7.565,-2.5217,-1.1272,10.087,2.1676e-12,-0.56359,0,0,0.066667,-0,-0,0.66667
0.94312,0.51738,14.147,0.026069,0.84912,15.493,-0.98345,0.32782,-1.9924,-1.3113,-1.342e-07,-0.99618,0,0,0.066667,-0,-0,0.66667
0.61738,0.82548,9.2607,0.48822,90.475,583.87,-12.057,4.0189,-1.1459,-16.076,6.6924e-12,-0.57294,0,0,0.066667,-0,-0,0.66667
0.7901,0.40025,11.851,-0.14963,-16.783,188.97,4.7288,-1.5763,-1.9147,6.305,6.3118e-12,-0.95735,0,0,0.066667,-0,-0,0.66667
0.51478,0.39592,7.7216,-0.15612,-34.338,898.52,3.2148,-1.0716,-1.9214,4.2863,1.1878e-11,-0.9607,0,0,0.066667,-0,-0,0.66667
0.53114,0.32311,7.9672,-0.26534,-57.009,844.83,5.6373,-1.8791,-1.761,7.5164,3.2712e-12,-0.8805,0,0,0.066667,-0,-0,0.66667
0.32759,0.9063,4.9139,0.60945,163.09,1593.7,-7.986,2.662,-0.69031,-10.648,-6.6143e-12,-0.34515,0,0,0.066667,-1.2632e-15,0,0.66667
0.12936,0.2785,1.9405,-0.33225,-97.85,2439.7,1.7192,-0.57308,-1.6056,2.2923,2.9086e-09,-0.80278,0,0,0.066667,3.9475e-17,0,0.66667
0.38382,0.86047,5.7573,0.54071,138.16,1371.5,-8.3014,2.7671,-0.95411,-11.069,-1.9756e-11,-0.47706,0,0,0.066667,6.3159e-16,0,0.66667
0.21498,0.73514,3.2246,0.35271,100.76,2064.4,-3.0329,1.011,-1.5559,-4.0439,-1.2328e-10,-0.77795,0,0,0.066667,-0,-0,0.66667
0.032865,0.56739,0.49298,0.10109,30.235,2872.7,-0.13289,0.044297,-1.9693,-0.17719,5.6229e-07,-0.98466,0,0,0.066667,-7.8949e-17,0,0.66667
0.27489,0.69785,4.1233,0.29677,82.159,1809.7,-3.2632,1.0877,-1.681,-4.3509,2.8551e-11,-0.8405,0,0,0.066667,-6.3159e-16,0,0.66667
0.18058,0.11326,2.7086,-0.5801,-168.22,2214.1,4.1901,-1.3967,-0.79715,5.5868,1.0054e-09,-0.39857,0,0,0.066667,-3.158e-16,0,0.66667
0.87553,0.49453,13.133,-0.008206,-0.56991,69.469,0.28738,-0.095795,-2.0097,0.38318,9.6371e-09,-1.0049,0,0,0.066667,-0,-0,0.66667
0.081237,0.69773,1.2185,0.2966,88.247,2654.8,-0.9638,0.32127,-1.6874,-1.2851,-7.6532e-08,-0.84368,0,0,0.066667,-1.579e-16,0,0.66667
0.1839,0.31932,2.7584,-0.27102,-78.418,2199.2,1.9936,-0.66452,-1.738,2.6581,1.7981e-10,-0.86901,0,0,0.066667,-0,-0,0.66667
0.70403,0.1336,10.56,-0.5496,-83.007,363.01,15.477,-5.1591,-0.934,20.636,6.8576e-12,-0.467,0,0,0.066667,-0,-0,0.66667
0.91923,0.11438,13.788,-0.57844,-26.765,32.336,21.269,-7.0895,-0.81186,28.358,-2.0288e-07,-0.40593,0,0,0.066667,1.2632e-15,9.1241e-18,0.66667
0.25146,0.13385,3.7719,-0.54922,-154.2,1908.7,5.5243,-1.8414,-0.93325,7.3657,-3.8332e-11,-0.46662,0,0,0.066667,-0,-0,0.66667
0.021301,0.55831,0.31952,0.087459,26.176,2925,-0.074519,0.024841,-1.9684,-0.099359,1.2298e-06,-0.98421,0,0,0.066667,1.9737e-17,0,0.66667
0.9605,0.04349,14.408,-0.68476,-15.84,10.769,26.309,-8.7696,-0.32626,35.078,-5.9771e-05,-0.16313,0,0,0.066667,-0,-0,0.66667
0.68222,0.17197,10.233,-0.49205,-78.748,414.14,13.428,-4.4758,-1.1344,17.903,9.778e-12,-0.5672,0,0,0.066667,-0,-0,0.66667
0.31066,0.6582,4.6599,0.23731,64.197,1661.8,-2.9489,0.98297,-1.8051,-3.9319,1.0284e-11,-0.90256,0,0,0.066667,-0,-0,0.66667
0.47237,0.20238,7.0856,-0.44643,-103.88,1044.3,8.4352,-2.8117,-1.29,11.247,-1.2248e-12,-0.64499,0,0,0.066667,-0,-0,0.66667
0.59926,0.48702,8.9888,-0.019466,-3.7313,634.66,0.4666,-0.15553,-1.9936,0.62213,8.202e-12,-0.99681,0,0,0.066667,-0,-0,0.66667
0.37387,0.86508,5.608,0.54762,141.17,1410,-8.1895,2.7298,-0.94067,-10.919,6.9527e-12,-0.47034,0,0,0.066667,-0,7.6374e-17,0.66667
0.87449,0.032853,13.117,-0.70072,-49.406,73.453,24.511,-8.1703,-0.26488,32.681,4.8584e-07,-0.13244,0,0,0.066667,-0,-0,0.66667
0.72617,0.93322,10.893,0.64983,92.053,314.48,-18.876,6.2919,-0.49282,-25.168,7.84e-11,-0.24641,0,0,0.066667,-1.579e-15,0,0.66667
0.95434,0.26746,14.315,-0.34881,-9.1781,10.983,13.315,-4.4384,-1.5738,17.754,-2.2989e-06,-0.7869,0,0,0.066667,1.2632e-15,0,0.66667
0.35107,0.12445,5.266,-0.56333,-148.03,1499.6,7.9106,-2.6369,-0.86668,10.547,1.9799e-11,-0.43334,0,0,0.066667,-2.5658e-16,0,0.66667
0.93717,0.3407,14.058,-0.23895,-8.5992,19.082,8.9576,-2.9859,-1.8082,11.943,-3.8902e-07,-0.90412,0,0,0.066667,3.158e-16,0,0.66667
0.4791,0.76559,7.1865,0.39838,91.914,1020.6,-7.6345,2.5448,-1.431,-10.179,1.287e-12,-0.71549,0,0,0.066667,-6.3159e-16,0,0.66667
0.64232,0.090553,9.6348,-0.61417,-108.11,516.28,15.78,-5.2599,-0.66445,21.04,1.9638e-12,-0.33223,0,0,0.066667,9.4739e-16,0,0.66667
0.73665,0.31012,11.05,-0.28482,-38.937,290.69,8.3925,-2.7975,-1.7153,11.19,-1.1374e-11,-0.85766,0,0,0.066667,1.2632e-15,0,0.66667
0.80934,0.89091,12.14,0.58637,60.551,159.09,-18.983,6.3276,-0.77731,-25.31,4.4466e-10,-0.38865,0,0,0.066667,-1.2632e-15,0,0.66667
0.39626,0.89415,5.9439,0.59122,149.38,1323.9,-9.371,3.1237,-0.75203,-12.495,1.863e-11,-0.37602,0,0,0.066667,-0,-0,0.66667
0.44795,0.27074,6.7192,-0.34389,-82.309,1131.2,6.1618,-2.0539,-1.5751,8.2158,1.3998e-12,-0.78755,0,0,0.066667,-0,-0,0.66667
0.81728,0.33538,12.259,-0.24692,-24.469,145.31,8.0722,-2.6907,-1.7797,10.763,-1.2423e-10,-0.88984,0,0,0.066667,-1.2632e-15,0,0.66667
0.71756,0.077759,10.763,-0.63336,-92.069,333.11,18.179,-6.0596,-0.58018,24.239,1.1465e-11,-0.29009,0,0,0.066667,-0,-0,0.66667
0.94085,0.1697,14.113,-0.49544,-16.9,18.23,18.646,-6.2152,-1.1266,24.861,1.9513e-06,-0.56329,0,0,0.066667,-0,-0,0.66667
0.9796,0.28008,14.694,-0.32988,-3.8417,3.0048,12.926,-4.3087,-1.6106,17.235,6.4063e-06,-0.80531,0,0,0.066667,4.737e-16,0,0.66667
0.17891,0.3144,2.6837,-0.27841,-80.708,2221,1.9924,-0.66414,-1.7192,2.6566,6.9319e-11,-0.85962,0,0,0.066667,-0,-0,0.66667
0.22792,0.78968,3.4188,0.43452,123.42,2008.8,-3.9614,1.3205,-1.3229,-5.2819,8.6315e-11,-0.66147,0,0,0.066667,-0,-0,0.66667
0.71599,0.98282,10.74,0.72423,105.86,337.16,-20.742,6.9139,-0.13605,-27.656,1.6129e-12,-0.068025,0,0,0.066667,-0,7.817e-17,0.66667
0.74738,0.39468,11.211,-0.15798,-20.832,268.48,4.7228,-1.5743,-1.9128,6.2971,-1.9376e-12,-0.9564,0,0,0.066667,-0,-0,0.66667
0.60318,0.78779,9.0477,0.43169,82.22,624.05,-10.415,3.4718,-1.3321,-13.887,-7.9403e-12,-0.66605,0,0,0.066667,1.2632e-15,0,0.66667
0.8773,0.2043,13.159,-0.44355,-30.483,68.736,15.565,-5.1884,-1.3029,20.754,8.0356e-09,-0.65147,0,0,0.066667,-0,-0,0.66667
0.25199,0.84827,3.7799,0.5224,146.61,1906.4,-5.2656,1.7552,-1.034,-7.0208,4.5144e-11,-0.51702,0,0,0.066667,6.3159e-16,0,0.66667
0.33949,0.70518,5.0923,0.30777,81.541,1545.2,-4.1794,1.3931,-1.6603,-5.5725,1.6771e-11,-0.83017,0,0,0.066667,-0,-0,0.66667
0.49465,0.91912,7.4197,0.62868,142.35,967.67,-12.439,4.1463,-0.58989,-16.585,-5.4525e-12,-0.29494,0,0,0.066667,-0,-0,0.66667
0.31503,0.16911,4.7254,-0.49633,-133.96,1644.3,6.2544,-2.0848,-1.1259,8.3391,4.625e-11,-0.56293,0,0,0.066667,-0,-0,0.66667
0.54544,0.92985,8.1816,0.64477,135.79,800.1,-14.067,4.6891,-0.52781,-18.756,1.2452e-12,-0.26391,0,0,0.066667,6.3159e-16,0,0.66667
0.68248,0.15082,10.237,-0.52377,-83.786,413.67,14.298,-4.7661,-1.021,19.064,9.9494e-12,-0.5105,0,0,0.066667,3.158e-16,0,0.66667
0.22037,0.13559,3.3055,-0.54661,-155.87,2041.4,4.8182,-1.6061,-0.94268,6.4243,-2.6179e-10,-0.47134,0,0,0.066667,-0,-0,0.66667
0.48534,0.99547,7.2801,0.74321,170.43,1000.2,-14.428,4.8094,-0.044338,-19.238,-6.0663e-13,-0.022169,0,0,0.066667,-6.3159e-16,0,0.66667
0.99298,0.84286,14.895,0.51429,1.9991,2.1212,-20.427,6.809,-1.0546,-27.236,3.0024e-05,-0.52732,0,0,0.066667,1.6579e-15,0,0.66667
0.32416,0.68034,4.8624,0.27052,72.49,1606.9,-3.5076,1.1692,-1.7381,-4.6768,4.0654e-12,-0.86904,0,0,0.066667,-0,-0,0.66667
0.035362,0.8435,0.53043,0.51524,154.22,2861.5,-0.72881,0.24293,-1.0552,-0.97174,-5.0393e-06,-0.5276,0,0,0.066667,-3.8241e-17,0,0.66667
0.81735,0.041681,12.26,-0.68748,-68.396,147.44,22.476,-7.4922,-0.31569,29.969,3.3699e-09,-0.15785,0,0,0.066667,-0,-0,0.66667
0.50331,0.40403,7.5496,-0.14396,-32.167,936.99,2.8982,-0.96608,-1.927,3.8643,1.7349e-11,-0.96349,0,0,0.066667,-1.579e-16,0,0.66667
0.052784,0.58146,0.79176,0.12218,36.484,2782.8,-0.25797,0.085991,-1.9414,-0.34397,-1.7627e-07,-0.97071,0,0,0.066667,-0,-0,0.66667
0.89031,0.67001,13.355,0.25501,15.732,54.885,-9.0816,3.0272,-1.779,-12.109,1.9597e-08,-0.88948,0,0,0.066667,-0,-0,0.66667
0.40451,0.62195,6.0677,0.18293,45.799,1291.7,-2.9599,0.98664,-1.8865,-3.9466,3.2578e-12,-0.94327,0,0,0.066667,-1.579e-16,0,0.66667
0.92927,0.8715,13.939,0.55725,22.665,25.406,-20.713,6.9045,-0.89032,-27.618,9.4382e-07,-0.44516,0,0,0.066667,1.8948e-15,0,0.66667
0.40208,0.55247,6.0312,0.078702,19.748,1300.9,-1.2658,0.42192,-1.9755,-1.6877,1.1145e-11,-0.98775,0,0,0.066667,-6.3159e-16,0,0.66667
0.076832,0.83446,1.1525,0.50168,149.45,2674.7,-1.5418,0.51394,-1.1115,-2.0558,-1.0746e-07,-0.55574,0,0,0.066667,-0,-0,0.66667
0.2453,0.38432,3.6795,-0.17351,-48.826,1934.4,1.7025,-0.5675,-1.8895,2.27,1.2822e-11,-0.94473,0,0,0.066667,-0,-0,0.66667
0.35026,0.89047,5.2539,0.58571,154.02,1502.9,-8.206,2.7353,-0.7741,-10.941,6.5823e-12,-0.38705,0,0,0.066667,-6.3159e-16,0,0.66667
0.75073,0.17119,11.261,-0.49321,-64.409,262.89,14.811,-4.9369,-1.1435,19.748,-1.7844e-12,-0.57174,0,0,0.066667,-0,-0,0.66667
0.18475,0.30903,2.7712,-0.28645,-82.858,2195.5,2.1168,-0.70561,-1.7103,2.8224,2.0096e-10,-0.85515,0,0,0.066667,-2.4253e-17,0,0.66667
0.43097,0.14895,6.4646,-0.52657,-128.47,1193.6,9.0775,-3.0258,-1.0084,12.103,2.5873e-12,-0.50422,0,0,0.066667,-3.158e-16,0,0.66667
0.87325,0.71206,13.099,0.31809,22.506,72.528,-11.111,3.7036,-1.6451,-14.814,-2.2653e-09,-0.82257,0,0,0.066667,-1.2632e-15,0,0.66667
0.53376,0.92753,8.0064,0.64129,137.48,837.55,-13.692,4.564,-0.53974,-18.256,-1.946e-12,-0.26987,0,0,0.066667,-0,-0,0.66667
0.10315,0.2647,1.5473,-0.35295,-104.6,2556.6,1.4563,-0.48544,-1.5512,1.9418,6.5083e-08,-0.77559,0,0,0.066667,-0,-0,0.66667
0.024522,0.50121,0.36784,0.0018121,0.54225,2910.4,-0.0017775,0.00059449,-1.9951,-0.002369,2.9717e-06,-0.99756,0,0,0.066667,-0,-0,0.66667
0.70581,0.36035,10.587,-0.20947,-31.423,357.73,5.9139,-1.9713,-1.8452,7.8852,1.8381e-12,-0.9226,0,0,0.066667,-0,-0,0.66667
0.97913,0.22948,14.687,-0.40577,-4.8612,3.4653,15.892,-5.2974,-1.41,21.19,1.0896e-05,-0.70501,0,0,0.066667,2.5264e-15,0,0.66667
0.78517,0.72889,11.777,0.34334,39.344,198,-10.783,3.5944,-1.579,-14.377,1.1228e-10,-0.78948,0,0,0.066667,-0,-0,0.66667
0.76473,0.23788,11.471,-0.39318,-48.808,235.34,12.027,-4.009,-1.4581,16.036,3.7573e-11,-0.72905,0,0,0.066667,-0,-0,0.66667
0.67545,0.56173,10.132,0.092591,15.051,429.66,-2.5016,0.83387,-1.9698,-3.3355,5.8591e-12,-0.98489,0,0,0.066667,-1.4211e-15,0,0.66667
0.7955,0.18289,11.933,-0.47567,-52.23,180.9,15.136,-5.0453,-1.2021,20.181,-2.2087e-10,-0.60107,0,0,0.066667,-1.8948e-15,0,0.66667
0.040018,0.3316,0.60027,-0.2526,-75.529,2840.4,0.40434,-0.13478,-1.7668,0.53913,1.2211e-06,-0.88341,0,0,0.066667,-0,-0,0.66667
0.26468,0.2003,3.9702,-0.44954,-125.25,1852.7,4.7594,-1.5865,-1.289,6.3459,-9.7087e-12,-0.6445,0,0,0.066667,-0,-0,0.66667
0.6954,0.34,10.431,-0.24,-37.056,381.87,6.6758,-2.2253,-1.7895,8.901,2.3834e-12,-0.89476,0,0,0.066667,2.0588e-16,0,0.66667
0.86699,0.29003,13.005,-0.31495,-23.312,79.484,10.922,-3.6408,-1.641,14.563,-6.0325e-09,-0.82049,0,0,0.066667,2.5264e-15,0,0.66667
0.67461,0.86005,10.119,0.54008,88.136,433.01,-14.574,4.8579,-0.96397,-19.432,-7.2067e-12,-0.48199,0,0,0.066667,1.2632e-15,0,0.66667
0.17628,0.12409,2.6441,-0.56386,-163.76,2232.8,3.9758,-1.3253,-0.86788,5.3011,-6.1261e-10,-0.43394,0,0,0.066667,4.3422e-16,0,0.66667
0.93631,0.74351,14.045,0.36527,13.352,20.053,-13.68,4.5601,-1.5327,-18.24,4.399e-07,-0.76634,0,0,0.066667,1.2632e-15,0,0.66667
0.90338,0.39915,13.551,-0.15127,-8.2611,42.848,5.4661,-1.822,-1.9198,7.2881,-2.5699e-08,-0.9599,0,0,0.066667,-6.3159e-16,0,0.66667
0.086679,0.98346,1.3002,0.7252,215.9,2630.6,-2.5144,0.83812,-0.1236,-3.3525,1.6638e-06,-0.0618,0,0,0.066667,4.7398e-17,0,0.66667
0.193,0.95178,2.895,0.67766,195.65,2160,-5.2316,1.7439,-0.36213,-6.9754,9.5468e-10,-0.18107,0,0,0.066667,3.158e-16,0,0.66667
0.27519,0.24525,4.1279,-0.38212,-105.79,1808.6,4.2063,-1.4021,-1.4759,5.6084,1.9249e-11,-0.73795,0,0,0.066667,-3.158e-16,0,0.66667
0.73841,0.54548,11.076,0.068225,9.2681,286.66,-2.0151,0.67171,-1.9811,-2.6868,-3.5771e-13,-0.99053,0,0,0.066667,-0,-0,0.66667
0.85937,0.43075,12.891,-0.10387,-8.0885,87.87,3.5705,-1.1902,-1.9738,4.7607,-4.1649e-10,-0.98691,0,0,0.066667,6.3159e-16,0,0.66667
0.57832,0.13276,8.6748,-0.55085,-109.84,697.81,12.743,-4.2476,-0.93226,16.99,1.14e-11,-0.46613,0,0,0.066667,-0,-0,0.66667
0.19965,0.90285,2.9947,0.60427,173.93,2131,-4.8256,1.6085,-0.70171,-6.4341,-5.1725e-10,-0.35086,0,0,0.066667,7.8949e-17,0,0.66667
0.41509,0.24887,6.2263,-0.37669,-93.373,1252.2,6.2545,-2.0848,-1.4906,8.3393,1.1639e-11,-0.74529,0,0,0.066667,-9.0792e-16,0,0.66667
0.13786,0.83499,2.0679,0.50248,147.72,2402.1,-2.7709,0.92363,-1.1036,-3.6945,4.2183e-09,-0.55178,0,0,0.066667,-0,-0,0.66667
0.9174,0.070891,13.761,-0.64366,-30.485,34.149,23.62,-7.8733,-0.52395,31.493,-1.4506e-09,-0.26197,0,0,0.066667,-0,-0,0.66667
0.76453,0.35302,11.468,-0.22047,-27.364,235.17,6.7423,-2.2474,-1.8343,8.9897,-1.1249e-12,-0.91716,0,0,0.066667,-0,-0,0.66667
0.51021,0.8731,7.6532,0.55965,124.04,914.74,-11.422,3.8072,-0.88274,-15.229,4.416e-12,-0.44137,0,0,0.066667,6.3159e-16,0,0.66667
0.45358,0.35125,6.8036,-0.22313,-53.049,1110.6,4.0483,-1.3494,-1.833,5.3977,4.4715e-12,-0.91651,0,0,0.066667,-0,-0,0.66667
0.097842,0.98906,1.4676,0.7336,217.95,2580.6,-2.8711,0.95702,-0.084163,-3.8281,1.2884e-07,-0.042081,0,0,0.066667,-0,-0,0.66667
0.31868,0.31583,4.7801,-0.27626,-74.321,1629.1,3.5214,-1.1738,-1.7238,4.6952,3.1372e-11,-0.86192,0,0,0.066667,-1.2632e-15,0,0.66667
0.12063,0.30679,1.8095,-0.28982,-85.537,2478.5,1.3985,-0.46616,-1.6989,1.8646,-1.2824e-08,-0.84946,0,0,0.066667,-1.579e-16,0,0.66667
0.78234,0.87581,11.735,0.56372,65.465,204.01,-17.641,5.8802,-0.87855,-23.521,-6.2592e-10,-0.43927,0,0,0.066667,-0,-0,0.66667
0.54488,0.57959,8.1733,0.11939,25.115,800.41,-2.6022,0.86739,-1.9528,-3.4696,3.4637e-12,-0.97641,0,0,0.066667,-0,-0,0.66667
0.22728,0.29595,3.4092,-0.30608,-86.931,2011.4,2.7826,-0.92752,-1.6604,3.7101,-1.137e-11,-0.8302,0,0,0.066667,-0,-0,0.66667
0.2242,0.18597,3.363,-0.47104,-134.04,2024.8,4.2243,-1.4081,-1.2075,5.6324,-2.0351e-11,-0.60375,0,0,0.066667,-1.1842e-16,0,0.66667
0.2604,0.82258,3.906,0.48387,135.15,1870.8,-5.04,1.68,-1.1631,-6.72,6.2166e-11,-0.58153,0,0,0.066667,-0,-0,0.66667
0.30887,0.85683,4.6331,0.53525,145.1,1669.5,-6.613,2.2043,-0.97999,-8.8173,-9.2215e-12,-0.48999,0,0,0.066667,-0,-0,0.66667
0.38771,0.72858,5.8156,0.34287,87.242,1356.1,-5.3174,1.7725,-1.5827,-7.0898,-9.6021e-12,-0.79137,0,0,0.066667,-0,-0,0.66667
0.29755,0.321,4.4632,-0.2685,-73.282,1715.6,3.1957,-1.0652,-1.7526,4.2609,2.089e-11,-0.87632,0,0,0.066667,-0,-0,0.66667
0.67956,0.63185,10.193,0.19777,31.825,419.71,-5.3759,1.792,-1.8548,-7.1678,6.0849e-12,-0.9274,0,0,0.066667,-0,-0,0.66667
0.035074,0.57293,0.5261,0.1094,32.717,2862.7,-0.15348,0.05116,-1.9557,-0.20464,1.9732e-07,-0.97787,0,0,0.066667,-0,-0,0.66667
0.32811,0.48092,4.9217,-0.028619,-7.6448,1590.8,0.37561,-0.1252,-2.0087,0.50081,7.4625e-12,-1.0044,0,0,0.066667,6.3159e-16,0,0.66667
0.74529,0.026481,11.179,-0.71028,-94.681,275.07,21.175,-7.0582,-0.20328,28.233,-6.4322e-12,-0.10164,0,0,0.066667,-0,9.753e-17,0.66667
0.94281,0.52096,14.142,0.031446,1.0299,15.66,-1.1859,0.3953,-1.9919,-1.5812,-3.231e-08,-0.99595,0,0,0.066667,-0,-0,0.66667
0.80273,0.23002,12.041,-0.40498,-43.038,168.67,13.003,-4.3345,-1.4115,17.338,6.8137e-11,-0.70574,0,0,0.066667,1.2632e-15,0,0.66667
0.24083,0.46578,3.6124,-0.051333,-14.477,1953.4,0.49449,-0.16483,-1.9856,0.65932,3.8431e-11,-0.99282,0,0,0.066667,-7.8949e-17,0,0.66667
0.23292,0.0442,3.4937,-0.6837,-193.92,1987.9,6.3698,-2.1233,-0.34346,8.493,-4.6526e-10,-0.17173,0,0,0.066667,-0,-0,0.66667
0.19034,0.43366,2.8551,-0.099508,-28.714,2171,0.7576,-0.25253,-1.9665,1.0101,5.2018e-12,-0.98326,0,0,0.066667,-0,-0,0.66667
0.8825,0.96486,13.237,0.69729,46.216,65.054,-24.614,8.2047,-0.26558,-32.819,-7.8168e-07,-0.13279,0,0,0.066667,3.158e-16,0,0.66667
0.23786,0.66532,3.5678,0.24799,70.058,1966.1,-2.3594,0.78647,-1.7806,-3.1459,2.0026e-11,-0.8903,0,0,0.066667,-0,-0,0.66667
0.75818,0.80429,11.373,0.45643,58.05,248.12,-13.842,4.6141,-1.253,-18.457,4.6665e-11,-0.62651,0,0,0.066667,-0,-0,0.66667
0.26105,0.29049,3.9157,-0.31427,-87.705,1867.8,3.2816,-1.0939,-1.6456,4.3755,1.2412e-11,-0.8228,0,0,0.066667,-0,-0,0.66667
0.033082,0.166,0.49623,-0.50099,-149.97,2871.8,0.66296,-0.22099,-1.1119,0.88395,-2.9557e-06,-0.55595,0,0,0.066667,-0,-0,0.66667
0.73345,0.31348,11.002,-0.27978,-38.641,297.36,8.2081,-2.736,-1.7307,10.944,-3.8991e-12,-0.86537,0,0,0.066667,-0,-0,0.66667
0.7262,0.072275,10.893,-0.64159,-90.87,314.37,18.637,-6.2123,-0.53002,24.849,-3.7815e-11,-0.26501,0,0,0.066667,-0,-0,0.66667
0.088959,0.9787,1.3344,0.71805,213.67,2620.4,-2.5551,0.85169,-0.16308,-3.4068,3.5286e-06,-0.08154,0,0,0.066667,-0,-0,0.66667
0.3267,0.20181,4.9005,-0.44728,-119.69,1596.9,5.8451,-1.9484,-1.2943,7.7935,2.7696e-11,-0.64713,0,0,0.066667,6.3159e-16,0,0.66667
0.94837,0.52731,14.225,0.040972,1.2127,12.899,-1.5542,0.51808,-1.9911,-2.0723,8.2448e-08,-0.99556,0,0,0.066667,-6.3159e-16,0,0.66667
0.16295,0.60649,2.4442,0.15974,46.559,2291,-1.0412,0.34705,-1.903,-1.3882,1.5967e-10,-0.95152,0,0,0.066667,-0,-0,0.66667
0.086672,0.311,1.3001,-0.2835,-84.268,2630.4,0.98285,-0.32762,-1.7091,1.3105,-8.9027e-09,-0.85456,0,0,0.066667,-5.9212e-17,0,0.66667
0.5946,0.10846,8.9191,-0.58732,-113.77,649.6,13.969,-4.6563,-0.78141,18.625,4.9631e-12,-0.3907,0,0,0.066667,-0,-0,0.66667
0.93099,0.41975,13.965,-0.12038,-4.7439,22.494,4.4828,-1.4943,-1.9423,5.9771,-2.0828e-07,-0.97117,0,0,0.066667,-0,-0,0.66667
0.13378,0.9244,2.0067,0.63659,187.46,2420.4,-3.4065,1.1355,-0.55276,-4.542,1.4633e-07,-0.27638,0,0,0.066667,-0,-0,0.66667
0.51301,0.60154,7.6952,0.15231,33.583,904.39,-3.1255,1.0418,-1.9194,-4.1674,-2.2422e-12,-0.95969,0,0,0.066667,-0,-0,0.66667
0.684,0.41984,10.26,-0.12025,-19.128,408.8,3.2899,-1.0966,-1.9475,4.3866,2.2859e-12,-0.97376,0,0,0.066667,-0,-0,0.66667
0.17183,0.15753,2.5774,-0.5137,-149.4,2252.3,3.5307,-1.1769,-1.0746,4.7077,4.0858e-09,-0.5373,0,0,0.066667,-0,-7.259e-17,0.66667
0.01126,0.78351,0.1689,0.42526,127.39,2970.4,-0.19153,0.063833,-1.3551,-0.25538,-1.4029e-05,-0.67756,0,0,0.066667,3.9475e-17,0,0.66667
0.88768,0.07628,13.315,-0.63558,-40.322,59.42,22.568,-7.5226,-0.56416,30.09,-2.2882e-08,-0.28208,0,0,0.066667,-0,-0,0.66667
0.035231,0.98496,0.52847,0.72744,217.93,2862.1,-1.0252,0.34172,-0.11632,-1.3669,-1.9476e-05,-0.058158,0,0,0.066667,-0,-0,0.66667
0.25746,0.23209,3.8619,-0.40187,-112.4,1883.1,4.1386,-1.3795,-1.4192,5.5181,4.8934e-12,-0.7096,0,0,0.066667,-0,-0,0.66667
0.65168,0.14148,9.7753,-0.53778,-92.663,491.23,14.018,-4.6728,-0.96822,18.691,1.234e-11,-0.48411,0,0,0.066667,-1.2632e-15,0,0.66667
0.28578,0.30973,4.2867,-0.2854,-78.485,1764.3,3.2625,-1.0875,-1.7081,4.35,3.8767e-12,-0.85405,0,0,0.066667,3.158e-16,0,0.66667
0.0097076,0.94142,0.14561,0.66212,198.53,2977.4,-0.25713,0.0856,-0.43664,-0.34289,-0.00016254,-0.21832,0,0,0.066667,-0,-0,0.66667
0.57545,0.82088,8.6318,0.48132,96.416,706.21,-11.079,3.693,-1.1779,-14.772,1.3811e-12,-0.58895,0,0,0.066667,-0,-0,0.66667
0.30779,0.67716,4.6169,0.26574,72.034,1673.5,-3.2717,1.0906,-1.7453,-4.3623,6.7264e-12,-0.87266,0,0,0.066667,3.158e-16,0,0.66667
0.15151,0.8789,2.2727,0.56835,166.45,2341.8,-3.4445,1.1482,-0.84861,-4.5927,-2.7918e-08,-0.42431,0,0,0.066667,-0,-0,0.66667
0.97128,0.84119,14.569,0.51178,8.5317,5.9812,-19.883,6.6277,-1.0716,-26.511,-2.4885e-05,-0.53582,0,0,0.066667,3.158e-16,0,0.66667
0.16497,0.62094,2.4746,0.18141,52.841,2282.1,-1.1971,0.39903,-1.8775,-1.5961,1.4592e-10,-0.93875,0,0,0.066667,-3.158e-16,0,0.66667
0.72724,0.38019,10.909,-0.17972,-25.302,310.31,5.2279,-1.7426,-1.8794,6.9705,-1.0592e-12,-0.93969,0,0,0.066667,-0,-0,0.66667
0.89072,0.65823,13.361,0.23735,14.587,54.434,-8.4565,2.8188,-1.8122,-11.275,2.0371e-08,-0.90609,0,0,0.066667,-2.5264e-15,0,0.66667
0.85872,0.75999,12.881,0.38998,30.557,89.469,-13.395,4.4651,-1.4682,-17.86,4.4746e-09,-0.73408,0,0,0.066667,-0,-0,0.66667
0.18426,0.61874,2.7639,0.17811,51.52,2197.6,-1.3127,0.43756,-1.8874,-1.7503,1.2029e-11,-0.94371,0,0,0.066667,-1.579e-16,0,0.66667
0.23681,0.011331,3.5521,-0.733,-207.55,1971.3,6.9433,-2.3144,-0.09176,9.2577,7.5779e-12,-0.04588,0,0,0.066667,-0,-0,0.66667
0.018363,0.034815,0.27544,-0.69778,-209.21,2938.3,0.51246,-0.17085,-0.27079,0.68326,-3.9436e-05,-0.13539,0,0,0.066667,-0,-0,0.66667
0.93141,0.11443,13.971,-0.57836,-22.85,24.224,21.547,-7.1825,-0.80507,28.73,-1.1075e-06,-0.40254,0,0,0.066667,1.2632e-15,0,0.66667
0.88712,0.7494,13.307,0.3741,23.743,58.406,-13.275,4.4249,-1.5029,-17.7,-2.8723e-09,-0.75144,0,0,0.066667,1.6579e-15,0,0.66667
0.59547,0.73087,8.932,0.34631,66.896,646.18,-8.2486,2.7495,-1.5781,-10.998,3.2587e-12,-0.78907,0,0,0.066667,-0,-0,0.66667
0.10937,0.85699,1.6405,0.53548,158.57,2528.9,-2.3426,0.78086,-0.99211,-3.1234,1.6497e-07,-0.49606,0,0,0.066667,-1.579e-16,0,0.66667
0.17354,0.94325,2.6031,0.66487,193.37,2245,-4.6154,1.5385,-0.43358,-6.1538,1.4211e-08,-0.21679,0,0,0.066667,-0,-0,0.66667
0.57696,0.38179,8.6544,-0.17731,-35.388,700.88,4.092,-1.364,-1.8954,5.456,2.8217e-12,-0.94768,0,0,0.066667,-0,-0,0.66667
0.25166,0.617,3.7749,0.1755,49.219,1907.4,-1.7666,0.58888,-1.8956,-2.3555,2.2585e-11,-0.94779,0,0,0.066667,-1.579e-16,0,0.66667
0.30017,0.32765,4.5026,-0.25853,-70.437,1704.8,3.1041,-1.0347,-1.7618,4.1388,2.7439e-11,-0.8809,0,0,0.066667,-6.3159e-16,0,0.66667
0.17099,0.40007,2.5648,-0.14989,-43.569,2255.7,1.0252,-0.34173,-1.9285,1.3669,-2.5803e-10,-0.96423,0,0,0.066667,-0,-0,0.66667
0.18959,0.45801,2.8439,-0.062984,-18.18,2174.3,0.47765,-0.15922,-1.9892,0.63687,1.2921e-11,-0.9946,0,0,0.066667,1.579e-16,0,0.66667
0.46342,0.76701,6.9513,0.40052,94.183,1075.8,-7.4243,2.4748,-1.4248,-9.8991,1.4557e-11,-0.71242,0,0,0.066667,-6.3159e-16,0,0.66667
0.50987,0.59604,7.6481,0.14405,31.9,914.88,-2.938,0.97933,-1.9221,-3.9173,5.6617e-12,-0.96103,0,0,0.066667,-1.2632e-15,0,0.66667
0.51158,0.87649,7.6737,0.56473,124.94,910.19,-11.556,3.8521,-0.86505,-15.408,5.6293e-12,-0.43252,0,0,0.066667,-0,-0,0.66667
0.99714,0.3853,14.957,-0.17205,-0.19982,0.29464,6.8622,-2.2874,-1.8956,9.1496,-3.032e-06,-0.94782,0,0,0.066667,2.5264e-15,0,0.66667
0.1296,0.097212,1.9439,-0.60418,-178.09,2438.9,3.132,-1.044,-0.69956,4.176,-2.0187e-08,-0.34978,0,0,0.066667,-0,-0,0.66667
0.75617,0.18122,11.343,-0.47817,-61.261,252.13,14.463,-4.821,-1.1818,19.284,-3.2585e-11,-0.5909,0,0,0.066667,6.3159e-16,0,0.66667
0.79376,0.88384,11.906,0.57575,63.762,184.39,-18.28,6.0934,-0.82162,-24.374,2.1734e-11,-0.41081,0,0,0.066667,-0,-0,0.66667
0.58488,0.072043,8.7732,-0.64194,-126.6,678.58,15.018,-5.0061,-0.52874,20.024,5.6222e-13,-0.26437,0,0,0.066667,-0,-0,0.66667
0.46274,0.84465,6.9411,0.51697,121.72,1078.5,-9.5689,3.1896,-1.0456,-12.759,2.7187e-11,-0.52278,0,0,0.066667,-1.2632e-15,0,0.66667
0.89343,0.92174,13.401,0.63261,38.189,53.942,-22.608,7.5358,-0.57796,-30.143,-6.5464e-08,-0.28898,0,0,0.066667,-0,-0,0.66667
0.82818,0.56253,12.423,0.093788,8.7842,128.94,-3.1069,1.0356,-1.9818,-4.1426,1.4115e-10,-0.9909,0,0,0.066667,2.5264e-15,0,0.66667
0.050291,0.91,0.75436,0.615,183.92,2794.2,-1.2372,0.41238,-0.65528,-1.6495,-6.6686e-07,-0.32764,0,0,0.066667,-0,-0,0.66667
0.96298,0.69259,14.445,0.28889,6.1538,7.4123,-11.128,3.7092,-1.6986,-14.837,9.239e-07,-0.84932,0,0,0.066667,2.5264e-15,0,0.66667
0.0073399,0.77878,0.1101,0.41818,125.28,2988.1,-0.12277,0.040914,-1.3728,-0.16369,-1.2287e-05,-0.68642,0,0,0.066667,4.9343e-18,0,0.66667
0.57313,0.69458,8.597,0.29187,58.654,712.69,-6.6911,2.2304,-1.6933,-8.9215,1.4335e-12,-0.84667,0,0,0.066667,-0,-0,0.66667
0.57243,0.39127,8.5865,-0.16309,-32.805,714.61,3.7344,-1.2448,-1.9001,4.9792,-1.7319e-14,-0.95005,0,0,0.066667,-0,-0,0.66667
0.83438,0.63342,12.516,0.20012,18.132,120.36,-6.6792,2.2264,-1.852,-8.9056,-2.0458e-10,-0.92601,0,0,0.066667,-0,-0,0.66667
0.38472,0.93039,5.7707,0.64559,164.91,1368.3,-9.9347,3.3116,-0.51302,-13.246,-8.3071e-12,-0.25651,0,0,0.066667,3.158e-16,0,0.66667
0.091041,0.51944,1.3656,0.02916,8.6584,2610.8,-0.10619,0.035396,-1.9982,-0.14159,1.3108e-08,-0.99911,0,0,0.066667,-3.158e-16,0,0.66667
0.58169,0.17715,8.7253,-0.48428,-95.961,687.43,11.268,-3.756,-1.1651,15.024,8.1579e-12,-0.58253,0,0,0.066667,-0,-0,0.66667
0.024846,0.30672,0.37269,-0.28992,-86.778,2908.9,0.28813,-0.096048,-1.6957,0.38417,-5.812e-06,-0.84787,0,0,0.066667,-1.9737e-17,0,0.66667
0.3618,0.81508,5.4269,0.47262,123.06,1457.1,-6.8397,2.2799,-1.209,-9.1195,1.1306e-11,-0.60452,0,0,0.066667,-0,-0,0.66667
0.98532,0.54813,14.78,0.072202,0.58968,1.3115,-2.8457,0.94856,-1.989,-3.7943,-9.0858e-07,-0.99448,0,0,0.066667,1.2632e-15,0,0.66667
0.86878,0.45417,13.032,-0.068743,-5.0174,76.912,2.3889,-0.7963,-1.9773,3.1852,2.8943e-10,-0.98865,0,0,0.066667,-0,-0,0.66667
0.1525,0.53753,2.2875,0.056292,16.462,2337.1,-0.34338,0.11446,-1.9876,-0.45783,-9.3836e-10,-0.99381,0,0,0.066667,-0,-0,0.66667
0.79883,0.36958,11.982,-0.19563,-21.132,174.38,6.2509,-2.0836,-1.8683,8.3345,6.0867e-12,-0.93415,0,0,0.066667,6.3159e-16,0,0.66667
0.811,0.21045,12.165,-0.43432,-44.43,155.66,14.089,-4.6964,-1.3349,18.786,3.1829e-10,-0.66747,0,0,0.066667,-0,-0,0.66667
0.92821,0.0032513,13.923,-0.74512,-30.939,27.6,27.665,-9.2217,-0.020997,36.887,5.0396e-06,-0.010498,0,0,0.066667,5.0527e-15,0,0.66667
0.22438,0.044699,3.3658,-0.68295,-194.5,2024.4,6.1297,-2.0432,-0.33639,8.173,-1.3072e-10,-0.1682,0,0,0.066667,3.158e-16,0,0.66667
0.49897,0.2008,7.4845,-0.4488,-100.95,952.3,8.9574,-2.9858,-1.291,11.943,1.5958e-11,-0.6455,0,0,0.066667,-0,-0,0.66667
0.82744,0.030681,12.412,-0.70398,-66.548,132.68,23.3,-7.7667,-0.24809,31.067,-2.2901e-08,-0.12405,0,0,0.066667,-7.1054e-16,0,0.66667
0.66733,0.471,10.01,-0.043495,-7.2122,449.85,1.161,-0.38701,-1.9911,1.548,6.4722e-12,-0.99553,0,0,0.066667,-0,-0,0.66667
0.59394,0.9495,8.909,0.67425,130.85,651.99,-16.019,5.3395,-0.39446,-21.358,-4.4675e-12,-0.19723,0,0,0.066667,-0,-0,0.66667
0.65198,0.6444,9.7796,0.21661,37.244,489.41,-5.6489,1.883,-1.8304,-7.5319,-3.8884e-12,-0.91518,0,0,0.066667,-0,-0,0.66667
0.23852,0.028947,3.5777,-0.70658,-199.87,1964,6.7412,-2.2471,-0.22348,8.9883,-1.0215e-11,-0.11174,0,0,0.066667,-1.579e-16,0,0.66667
0.02554,0.77605,0.3831,0.41407,123.97,2905.8,-0.42302,0.14101,-1.3858,-0.56402,1.3784e-05,-0.6929,0,0,0.066667,5.9212e-17,0,0.66667
0.73626,0.50273,11.044,0.004102,0.56112,291.11,-0.1208,0.040268,-2.005,-0.16107,1.6135e-12,-1.0025,0,0,0.066667,-0,-0,0.66667
0.32679,0.79698,4.9019,0.44547,119.2,1596.5,-5.823,1.941,-1.3004,-7.764,-2.0717e-12,-0.65018,0,0,0.066667,2.4459e-16,0,0.66667
0.37676,0.50623,5.6514,0.0093459,2.4003,1398.1,-0.14085,0.046949,-2.0046,-0.18779,-6.2074e-12,-1.0023,0,0,0.066667,-0,-0,0.66667
0.61262,0.62438,9.1892,0.18657,34.863,596.47,-4.5718,1.5239,-1.8774,-6.0957,4.6922e-12,-0.93871,0,0,0.066667,-2.3685e-16,0,0.66667
0.65717,0.2622,9.8575,-0.35671,-60.636,476.31,9.3766,-3.1255,-1.5553,12.502,3.0269e-12,-0.77764,0,0,0.066667,-0,-0,0.66667
0.2029,0.44737,3.0435,-0.078939,-22.661,2116.4,0.64066,-0.21355,-1.9887,0.85422,3.6177e-11,-0.99433,0,0,0.066667,-0,-0,0.66667
0.82603,0.012646,12.39,-0.73103,-69.647,134.93,24.154,-8.0514,-0.10309,32.206,-4.8908e-09,-0.051544,0,0,0.066667,2.5264e-15,0,0.66667
0.38021,0.38165,5.7031,-0.17752,-45.459,1384.8,2.6998,-0.89992,-1.8839,3.5997,5.4623e-13,-0.94194,0,0,0.066667,-0,-0,0.66667
0.63174,0.62914,9.4762,0.19371,34.815,543.33,-4.895,1.6317,-1.8612,-6.5267,9.1163e-12,-0.93059,0,0,0.066667,-0,-0,0.66667
0.96641,0.9337,14.496,0.65055,12.796,8.4606,-25.148,8.3826,-0.49861,-33.53,-4.3524e-06,-0.2493,0,0,0.066667,-3.158e-16,0,0.66667
0.56479,0.17086,8.4718,-0.49371,-100.7,738.86,11.154,-3.7179,-1.1358,14.872,8.6713e-12,-0.56791,0,0,0.066667,-0,-0,0.66667
0.35891,0.26251,5.3837,-0.35624,-92.943,1468.2,5.1143,-1.7048,-1.5584,6.819,1.0385e-11,-0.77919,0,0,0.066667,-6.3159e-16,0,0.66667
0.61897,0.67482,9.2846,0.26223,48.395,578.73,-6.4925,2.1642,-1.7498,-8.6566,2.752e-12,-0.87492,0,0,0.066667,6.3159e-16,0,0.66667
0.50179,0.47176,7.5269,-0.042359,-9.4833,942.05,0.85022,-0.28341,-1.9989,1.1336,1.9455e-11,-0.99947,0,0,0.066667,-1.2632e-15,0,0.66667
0.45238,0.67688,6.7856,0.26532,63.171,1115,-4.8009,1.6003,-1.7582,-6.4012,3.8241e-12,-0.87909,0,0,0.066667,-6.3159e-16,0,0.66667
0.73227,0.793,10.984,0.4395,60.98,300.4,-12.873,4.2911,-1.3164,-17.164,-7.8879e-12,-0.65821,0,0,0.066667,-0,-0,0.66667
0.92451,0.63185,13.868,0.19778,8.5126,26.844,-7.3139,2.438,-1.8628,-9.7519,2.2278e-07,-0.93141,0,0,0.066667,-0,-0,0.66667
0.47927,0.71357,7.1891,0.32035,73.877,1019.8,-6.1414,2.0471,-1.6314,-8.1885,-4.9694e-13,-0.8157,0,0,0.066667,-0,-0,0.66667
0.08823,0.94708,1.3235,0.67062,199.54,2623.6,-2.3668,0.78892,-0.3961,-3.1557,3.2336e-06,-0.19805,0,0,0.066667,-1.579e-16,0,0.66667
0.56965,0.58594,8.5448,0.12891,26.051,723.05,-2.9374,0.97914,-1.9348,-3.9166,5.4106e-12,-0.9674,0,0,0.066667,6.3159e-16,0,0.66667
0.24495,0.44031,3.6743,-0.089532,-25.196,1935.8,0.87724,-0.29241,-1.9683,1.1696,2.154e-11,-0.98413,0,0,0.066667,-6.3159e-16,0,0.66667
0.039578,0.20941,0.59367,-0.43588,-130.39,2842.4,0.69005,-0.23001,-1.3182,0.92007,6.3377e-06,-0.65908,0,0,0.066667,-3.9475e-17,0,0.66667
0.78814,0.89843,11.822,0.59764,67.795,194.09,-18.841,6.2804,-0.72404,-25.121,-9.3445e-10,-0.36202,0,0,0.066667,6.3159e-16,0,0.66667
0.27277,0.71393,4.0915,0.3209,88.953,1818.6,-3.5012,1.1671,-1.6281,-4.6683,2.2035e-11,-0.81407,0,0,0.066667,-3.158e-16,0,0.66667
0.77707,0.58001,11.656,0.12002,14.195,211.83,-3.7304,1.2435,-1.9461,-4.9739,5.2798e-12,-0.97305,0,0,0.066667,-1.2632e-15,0,0.66667
0.48821,0.89328,7.3231,0.58992,134.66,989.61,-11.52,3.84,-0.76079,-15.36,-4.4666e-12,-0.3804,0,0,0.066667,-0,-0,0.66667
0.31794,0.42023,4.769,-0.11966,-32.202,1632,1.5218,-0.50726,-1.9441,2.0291,4.006e-11,-0.97206,0,0,0.066667,-6.3159e-16,0,0.66667
0.31403,0.9157,4.7104,0.62356,168.51,1648.7,-7.8325,2.6108,-0.62297,-10.443,-2.16e-12,-0.31149,0,0,0.066667,-0,-0,0.66667
0.042025,0.50116,0.63037,0.0017365,0.51903,2831.4,-0.0029191,0.00097207,-1.9974,-0.0038926,-1.4434e-06,-0.99871,0,0,0.066667,-0,-0,0.66667
0.5344,0.014319,8.016,-0.72852,-156.12,835.91,15.573,-5.191,-0.11277,20.764,1.2651e-11,-0.056385,0,0,0.066667,-0,-0,0.66667
0.82355,0.94548,12.353,0.66823,64.423,138.06,-22.013,7.3376,-0.40923,-29.35,2.1245e-09,-0.20461,0,0,0.066667,-0,-0,0.66667
0.083895,0.67282,1.2584,0.25923,77.088,2642.9,-0.86993,0.28998,-1.7557,-1.1599,-3.0868e-08,-0.87783,0,0,0.066667,-1.579e-16,0,0.66667
0.10856,0.37041,1.6284,-0.19438,-57.521,2532.4,0.84406,-0.28135,-1.8745,1.1254,2.0283e-08,-0.93726,0,0,0.066667,1.9737e-16,0,0.66667
0.52926,0.083308,7.9388,-0.62504,-134.88,852.11,13.232,-4.4107,-0.61462,17.643,1.0121e-11,-0.30731,0,0,0.066667,6.3159e-16,-7.0261e-17,0.66667
0.66014,0.12242,9.9021,-0.56637,-95.724,469.52,14.955,-4.9852,-0.85858,19.941,1.0197e-11,-0.42929,0,0,0.066667,-1.7369e-15,0,0.66667
0.69475,0.84787,10.421,0.5218,80.826,384.39,-14.501,4.8336,-1.0263,-19.334,1.7106e-12,-0.51313,0,0,0.066667,-0,-0,0.66667
0.31322,0.72766,4.6983,0.34148,92.236,1651.4,-4.2784,1.4261,-1.5941,-5.7045,-3.2805e-12,-0.79706,0,0,0.066667,-0,-0,0.66667
0.037778,0.51168,0.56667,0.017517,5.2373,2850.5,-0.02647,0.0088229,-1.9928,-0.035293,-4.9265e-07,-0.99642,0,0,0.066667,-1.579e-16,0,0.66667
0.41456,0.82318,6.2184,0.48476,120.27,1254.4,-8.0386,2.6795,-1.158,-10.718,5.6044e-13,-0.57902,0,0,0.066667,-0,-0,0.66667
0.22604,0.66723,3.3907,0.25085,71.279,2016.7,-2.2681,0.75604,-1.7698,-3.0241,2.8273e-12,-0.88491,0,0,0.066667,-6.3159e-16,0,0.66667
0.0011148,0.8879,0.016722,0.58185,174.42,3016.2,-0.025936,0.0087221,-0.80322,-0.034543,0.00011495,-0.40161,0,0,0.066667,2.4672e-18,0,0.66667
0.68572,0.62398,10.286,0.18597,29.456,404.75,-5.101,1.7003,-1.8828,-6.8013,-6.3727e-13,-0.94138,0,0,0.066667,1.8158e-15,0,0.66667
0.95206,0.33799,14.281,-0.24301,-6.6951,11.569,9.2544,-3.0848,-1.7977,12.339,-6.7169e-07,-0.89886,0,0,0.066667,-0,-0,0.66667
0.39115,0.18595,5.8673,-0.47108,-119.53,1343.1,7.3705,-2.4568,-1.2216,9.8273,1.0272e-12,-0.61081,0,0,0.066667,7.8949e-17,0,0.66667
0.3003,0.96131,4.5045,0.69196,188.81,1705.1,-8.3118,2.7706,-0.29715,-11.082,-3.463e-12,-0.14857,0,0,0.066667,-0,-0,0.66667
0.55375,0.33471,8.3063,-0.24793,-51.443,772.53,5.4917,-1.8306,-1.7753,7.3223,7.5455e-12,-0.88767,0,0,0.066667,-0,-0,0.66667
0.85198,0.46698,12.78,-0.049526,-4.0443,96.894,1.6878,-0.5626,-1.986,2.2504,-9.1553e-10,-0.993,0,0,0.066667,-3.158e-16,0,0.66667
0.79497,0.82856,11.925,0.49283,54.249,181.89,-15.671,5.2238,-1.1402,-20.895,2.9149e-10,-0.5701,0,0,0.066667,-0,-0,0.66667
0.68476,0.92505,10.271,0.63758,101.48,408.76,-17.464,5.8212,-0.55574,-23.285,5.8584e-12,-0.27787,0,0,0.066667,-1.2632e-15,0,0.66667
0.43211,0.81786,6.4816,0.47679,116.16,1189.3,-8.2409,2.747,-1.1875,-10.988,-9.6749e-12,-0.59377,0,0,0.066667,1.2632e-15,0,0.66667
0.69043,0.48274,10.357,-0.025893,-4.0498,393.32,0.71508,-0.23836,-1.9981,0.95345,7.9033e-12,-0.99905,0,0,0.066667,-1.2632e-15,0,0.66667
0.21603,0.31413,3.2404,-0.2788,-79.598,2059.8,2.4092,-0.80305,-1.7261,3.2122,2.9972e-11,-0.86304,0,0,0.066667,6.3159e-16,0,0.66667
0.28394,0.64158,4.2592,0.21237,58.462,1771.9,-2.4121,0.80403,-1.8408,-3.2161,3.1412e-11,-0.92041,0,0,0.066667,-0,-0,0.66667
0.77782,0.85455,11.667,0.53182,62.865,211.87,-16.546,5.5155,-0.99363,-22.062,-6.0188e-11,-0.49682,0,0,0.066667,-0,-0,0.66667
0.92998,0.58147,13.95,0.1222,4.8849,23.128,-4.5459,1.5153,-1.9403,-6.0612,2.0425e-07,-0.97017,0,0,0.066667,1.2632e-15,0,0.66667
0.19005,0.68764,2.8507,0.28146,81.247,2172.4,-2.1396,0.71322,-1.7216,-2.8529,-3.4792e-11,-0.86082,0,0,0.066667,-0,-0,0.66667
0.29606,0.87598,4.4409,0.56398,154.22,1722.2,-6.6789,2.2263,-0.87862,-8.9052,8.6775e-12,-0.43931,0,0,0.066667,-0,9.6312e-18,0.66667
0.0062103,0.86618,0.093154,0.54928,164.63,2993.2,-0.13643,0.045455,-0.92173,-0.18192,-3.2234e-05,-0.46086,0,0,0.066667,-4.9343e-18,0,0.66667
0.43156,0.11637,6.4734,-0.57544,-140.34,1191.6,9.9336,-3.3112,-0.81736,13.245,5.2722e-12,-0.40868,0,0,0.066667,3.158e-16,0,0.66667
0.2103,0.57264,3.1544,0.10896,31.181,2084.4,-0.91658,0.30553,-1.9514,-1.2221,3.8362e-11,-0.97572,0,0,0.066667,-0,-0,0.66667
0.64142,0.3382,9.6214,-0.2427,-42.727,517.31,6.2269,-2.0756,-1.7994,8.3025,4.9902e-12,-0.89968,0,0,0.066667,-0,-0,0.66667
0.70959,0.78758,10.644,0.43136,64.081,349.83,-12.244,4.0812,-1.3329,-16.325,1.541e-12,-0.66644,0,0,0.066667,-0,-0,0.66667
0.11878,0.49182,1.7817,-0.012266,-3.6207,2486.7,0.058276,-0.019425,-1.9939,0.077701,-1.187e-08,-0.99697,0,0,0.066667,3.158e-16,0,0.66667
0.082144,0.80883,1.2322,0.46325,137.87,2650.8,-1.5221,0.50737,-1.2356,-2.0295,-1.6049e-08,-0.61781,0,0,0.066667,3.9475e-17,0,0.66667
0.90634,0.57723,13.595,0.11584,6.1392,40.318,-4.1996,1.3999,-1.9635,-5.5995,1.4345e-08,-0.98177,0,0,0.066667,-1.2632e-15,0,0.66667
0.38924,0.23035,5.8386,-0.40447,-102.79,1350.3,6.2975,-2.0992,-1.4241,8.3966,5.5809e-12,-0.71207,0,0,0.066667,-0,-0,0.66667
0.5334,0.67716,8.0011,0.26574,56.903,837.49,-5.6698,1.8899,-1.752,-7.5597,1.0507e-11,-0.87602,0,0,0.066667,-6.3159e-16,0,0.66667
0.96324,0.52363,14.449,0.035451,0.74687,6.7951,-1.3659,0.45531,-1.9909,-1.8212,9.5409e-09,-0.99545,0,0,0.066667,-0,-0,0.66667
0.75905,0.78484,11.386,0.42725,54.157,246.31,-12.972,4.3241,-1.3457,-17.296,3.6722e-11,-0.67287,0,0,0.066667,-2.5264e-15,0,0.66667
0.32554,0.55126,4.8831,0.076891,20.578,1601.2,-1.0012,0.33375,-1.9806,-1.335,-1.4622e-12,-0.99032,0,0,0.066667,-0,-0,0.66667
0.085849,0.29063,1.2877,-0.31406,-93.373,2634.1,1.0785,-0.35949,-1.6429,1.438,-9.988e-09,-0.82145,0,0,0.066667,-0,-0,0.66667
0.53602,0.83952,8.0404,0.50929,108.73,829.69,-10.92,3.6399,-1.0748,-14.559,-1.9664e-12,-0.53739,0,0,0.066667,1.2648e-15,0,0.66667
0.33613,0.32556,5.0419,-0.26167,-69.497,1558.7,3.5181,-1.1727,-1.7499,4.6908,2.7263e-11,-0.87497,0,0,0.066667,-0,-0,0.66667
0.021685,0.34446,0.32528,-0.23331,-69.837,2923.2,0.20238,-0.067461,-1.8023,0.26983,-3.9064e-06,-0.90113,0,0,0.066667,-0,-0,0.66667
0.77115,0.89637,11.567,0.59456,72.168,224.37,-18.34,6.1133,-0.73824,-24.453,6.7658e-10,-0.36912,0,0,0.066667,-0,-0,0.66667
0.38491,0.65606,5.7736,0.23409,59.7,1366.7,-3.6042,1.2014,-1.8015,-4.8056,1.3883e-11,-0.90074,0,0,0.066667,-7.8949e-16,0,0.66667
0.57132,0.93655,8.5698,0.65483,132.24,719.52,-14.965,4.9883,-0.4705,-19.953,1.2692e-11,-0.23525,0,0,0.066667,-1.8158e-15,0,0.66667
0.75574,0.61748,11.336,0.17622,22.574,251.96,-5.327,1.7757,-1.8847,-7.1026,-8.9186e-12,-0.94233,0,0,0.066667,6.3159e-16,0,0.66667
0.94085,0.75185,14.113,0.37778,12.847,17.587,-14.217,4.7391,-1.4932,-18.956,-3.4827e-08,-0.7466,0,0,0.066667,-2.5264e-15,0,0.66667
0.61232,0.25147,9.1848,-0.37279,-69.741,597.73,9.1307,-3.0436,-1.5077,12.174,-8.8285e-13,-0.75385,0,0,0.066667,-0,-0,0.66667
0.3154,0.22927,4.7309,-0.4061,-109.54,1642.7,5.1232,-1.7077,-1.4144,6.831,3.8494e-11,-0.7072,0,0,0.066667,-0,-0,0.66667
0.11008,0.74138,1.6511,0.36206,107.14,2525.7,-1.5942,0.5314,-1.5427,-2.1256,-1.8703e-08,-0.77137,0,0,0.066667,1.579e-16,0,0.66667
0.073919,0.94857,1.1088,0.67286,200.68,2687.9,-1.9895,0.66316,-0.38762,-2.6527,-9.8748e-06,-0.19381,0,0,0.066667,-0,-0,0.66667
0.31969,0.41931,4.7954,-0.12103,-32.53,1624.9,1.5477,-0.5159,-1.9414,2.0636,3.1396e-11,-0.9707,0,0,0.066667,6.3159e-16,0,0.66667
0.66084,0.3612,9.9126,-0.2082,-35.071,466.51,5.5034,-1.8345,-1.8423,7.3379,7.0921e-12,-0.92117,0,0,0.066667,-0,-0,0.66667
0.69515,0.36788,10.427,-0.19818,-30.616,382.36,5.5106,-1.8369,-1.8542,7.3475,8.2863e-12,-0.9271,0,0,0.066667,-1.2632e-15,0,0.66667
0.20772,0.73831,3.1158,0.35747,102.45,2095.7,-2.9701,0.99003,-1.5422,-3.9601,-2.0748e-12,-0.7711,0,0,0.066667,-0,-0,0.66667
0.082796,0.67823,1.2419,0.26735,79.518,2647.8,-0.88541,0.29514,-1.7424,-1.1805,-4.8407e-08,-0.87122,0,0,0.066667,-7.8949e-17,0,0.66667
0.30551,0.52817,4.5827,0.042256,11.469,1682.7,-0.51639,0.17213,-1.9883,-0.68852,1.2273e-11,-0.99414,0,0,0.066667,-6.3159e-16,0,0.66667
0.54757,0.35916,8.2136,-0.21126,-44.262,791.97,4.6273,-1.5424,-1.8498,6.1697,1.2098e-11,-0.92491,0,0,0.066667,-0,-0,0.66667
0.75467,0.17376,11.32,-0.48936,-63.034,255.11,14.772,-4.9241,-1.1448,19.696,2.6183e-12,-0.57242,0,0,0.066667,-0,-0,0.66667
0.52966,0.44107,7.9449,-0.088389,-19.027,849.45,1.8726,-0.62421,-1.9782,2.4968,6.3242e-12,-0.98909,0,0,0.066667,-1.2632e-15,0,0.66667
0.28698,0.80929,4.3048,0.46394,127.55,1759.6,-5.3257,1.7752,-1.2304,-7.101,2.3004e-12,-0.6152,0,0,0.066667,4.7971e-16,0,0.66667
0.62418,0.90794,9.3627,0.61191,111.93,565.51,-15.278,5.0925,-0.67805,-20.37,6.2172e-14,-0.33903,0,0,0.066667,2.5264e-15,1.6127e-17,0.66667
0.26484,0.15852,3.9725,-0.51222,-142.73,1852.2,5.4262,-1.8087,-1.0765,7.2349,2.6065e-11,-0.53825,0,0,0.066667,-6.3159e-16,0,0.66667
0.65269,0.3553,9.7904,-0.21704,-37.258,487.54,5.6665,-1.8888,-1.8314,7.5554,5.3224e-12,-0.91569,0,0,0.066667,-0,-0,0.66667
0.8419,0.89203,12.628,0.58805,51.241,111.86,-19.803,6.6011,-0.77447,-26.404,1.1061e-08,-0.38723,0,0,0.066667,-0,9.4642e-17,0.66667
0.63895,0.18698,9.5842,-0.46953,-83.185,524.63,12,-4,-1.2224,16,-4.8548e-12,-0.61119,0,0,0.066667,5.9212e-16,0,0.66667
0.56563,0.34366,8.4845,-0.23452,-47.722,735.55,5.306,-1.7687,-1.806,7.0747,9.5146e-12,-0.90302,0,0,0.066667,3.454e-17,0,0.66667
0.30714,0.19339,4.6071,-0.45992,-124.79,1676.5,5.6505,-1.8835,-1.2437,7.5339,1.1195e-11,-0.62185,0,0,0.066667,6.3159e-16,0,0.66667
0.87678,0.66786,13.152,0.25179,17.338,68.509,-8.8305,2.9435,-1.779,-11.774,-5.8955e-09,-0.88948,0,0,0.066667,-0,-0,0.66667
0.98882,0.96964,14.832,0.70446,4.6497,4.0688,-27.863,9.2879,-0.23399,-37.151,0.00020636,-0.11699,0,0,0.066667,-0,-0,0.66667
0.77748,0.33041,11.662,-0.25439,-30.054,211.36,7.9113,-2.6371,-1.7682,10.548,-4.9494e-12,-0.88409,0,0,0.066667,-0,-0,0.66667
0.57364,0.040194,8.6047,-0.68971,-138.76,712.63,15.826,-5.2753,-0.3056,21.101,2.2148e-11,-0.1528,0,0,0.066667,-0,4.0224e-17,0.66667
0.14128,0.53468,2.1192,0.052027,15.266,2386.7,-0.29401,0.098004,-2.0001,-0.39201,1.2808e-09,-1.0001,0,0,0.066667,3.158e-16,0,0.66667
0.31493,0.96343,4.7239,0.69515,187.8,1645.2,-8.7569,2.919,-0.28462,-11.676,-2.0949e-11,-0.14231,0,0,0.066667,-1.579e-16,0,0.66667
0.36686,0.80289,5.5029,0.45433,117.79,1437.2,-6.6671,2.2224,-1.2597,-8.8894,1.568e-11,-0.62984,0,0,0.066667,-3.158e-16,0,0.66667
0.2919,0.9046,4.3784,0.60691,166.44,1739.5,-7.0861,2.362,-0.68746,-9.4482,-3.6221e-11,-0.34373,0,0,0.066667,-0,-0,0.66667
0.44595,0.45973,6.6893,-0.06041,-14.484,1138,1.0776,-0.3592,-1.9808,1.4368,1.6028e-11,-0.99039,0,0,0.066667,-0,-0,0.66667
0.61063,0.26,9.1595,-0.36,-67.568,602.49,8.7931,-2.931,-1.5456,11.724,1.3735e-11,-0.77282,0,0,0.066667,-1.2632e-15,0,0.66667
0.21291,0.26616,3.1937,-0.35077,-100.3,2073.3,2.9873,-0.99578,-1.557,3.9831,1.2051e-10,-0.77852,0,0,0.066667,-0,-0,0.66667
0.24976,0.47458,3.7464,-0.038133,-10.704,1915.4,0.38097,-0.12699,-2.006,0.50796,1.3783e-11,-1.003,0,0,0.066667,-0,-0,0.66667
0.11215,0.21552,1.6823,-0.42672,-126.24,2516.4,1.9143,-0.63809,-1.3546,2.5524,-8.1077e-09,-0.67729,0,0,0.066667,-3.9475e-17,0,0.66667
0.30759,0.83241,4.6138,0.49862,135.27,1674.7,-6.1348,2.0449,-1.112,-8.1797,-2.0925e-12,-0.556,0,0,0.066667,3.158e-16,0,0.66667
0.49745,0.16486,7.4617,-0.50271,-113.33,957.64,10.003,-3.3343,-1.1034,13.337,1.6083e-11,-0.55171,0,0,0.066667,-1.2632e-15,0,0.66667
0.48981,0.36145,7.3471,-0.20782,-47.278,983.11,4.0718,-1.3573,-1.8415,5.429,3.9555e-12,-0.92074,0,0,0.066667,-0,-0,0.66667
0.99558,0.89597,14.934,0.59395,1.4434,2.5236,-23.653,7.8843,-0.74273,-31.537,7.7821e-07,-0.37137,0,0,0.066667,1.2632e-15,0,0.66667
0.98111,0.77957,14.717,0.41935,4.5401,3.1477,-16.457,5.4857,-1.3756,-21.943,-8.0901e-06,-0.68781,0,0,0.066667,-1.579e-15,0,0.66667
0.43656,0.84552,6.5484,0.51828,125.69,1173,-9.0505,3.0168,-1.0538,-12.067,7.3443e-12,-0.52688,0,0,0.066667,-1.2632e-15,-8.7143e-17,0.66667
0.97202,0.93598,14.58,0.65397,10.733,6.8555,-25.427,8.4755,-0.48032,-33.902,-9.3347e-05,-0.24016,0,0,0.066667,4.737e-16,0,0.66667
0.2144,0.87543,3.216,0.56315,161.04,2067.1,-4.8295,1.6098,-0.87093,-6.4394,7.4214e-10,-0.43546,0,0,0.066667,-0,-0,0.66667
0.54112,0.71619,8.1168,0.32429,68.646,812.76,-7.0191,2.3397,-1.6219,-9.3589,1.4849e-11,-0.81094,0,0,0.066667,-0,-0,0.66667
0.45344,0.45992,6.8015,-0.060118,-14.292,1111,1.0904,-0.36346,-1.9977,1.4538,9.3221e-12,-0.99884,0,0,0.066667,3.158e-16,0,0.66667
0.96761,0.011828,14.514,-0.73226,-13.981,8.8176,28.341,-9.4472,-0.10025,37.789,-2.6167e-05,-0.050125,0,0,0.066667,-0,7.4287e-17,0.66667
0.83618,0.93103,12.543,0.64654,58.249,119.99,-21.625,7.2083,-0.50764,-28.833,-4.0649e-08,-0.25382,0,0,0.066667,-0,-0,0.66667
0.21415,0.084764,3.2122,-0.62285,-178.17,2068.3,5.3353,-1.7784,-0.61736,7.1137,7.2418e-10,-0.30868,0,0,0.066667,3.158e-16,0,0.66667
0.43954,0.93456,6.5931,0.65184,157.68,1162.6,-11.46,3.8201,-0.49373,-15.28,-1.491e-11,-0.24686,0,0,0.066667,7.8949e-16,0,0.66667
0.16848,0.84561,2.5272,0.51841,150.95,2267,-3.4936,1.1645,-1.045,-4.6581,-5.1493e-09,-0.52248,0,0,0.066667,-0,-0,0.66667
0.52909,0.96164,7.9363,0.69245,149.52,852.97,-14.655,4.8849,-0.29855,-19.54,-4.4231e-12,-0.14928,0,0,0.066667,3.158e-16,0,0.66667
0.79348,0.27304,11.902,-0.34044,-37.67,183.71,10.805,-3.6017,-1.5875,14.407,2.942e-11,-0.79375,0,0,0.066667,-6.3159e-16,0,0.66667
0.035879,0.48529,0.53819,-0.022063,-6.5975,2859.1,0.031664,-0.010555,-1.9946,0.042219,1.0631e-07,-0.99732,0,0,0.066667,-7.8949e-17,0,0.66667
0.19136,0.026703,2.8704,-0.70995,-205.14,2167.2,5.4342,-1.8114,-0.20679,7.2456,-3.326e-10,-0.1034,0,0,0.066667,1.579e-16,0,0.66667
0.97746,0.28172,14.662,-0.32742,-4.2243,3.4476,12.802,-4.2672,-1.614,17.069,7.2484e-06,-0.807,0,0,0.066667,-0,-0,0.66667
0.9608,0.01254,14.412,-0.73119,-16.84,11.083,28.101,-9.367,-0.092574,37.468,-1.3616e-05,-0.046287,0,0,0.066667,-0,-0,0.66667
0.55659,0.81711,8.3489,0.47566,98.325,764.24,-10.59,3.53,-1.1908,-14.12,-3.5625e-12,-0.59541,0,0,0.066667,-0,-0,0.66667
0.64609,0.68533,9.6914,0.278,48.446,504.99,-7.1845,2.3948,-1.7215,-9.5793,1.5374e-12,-0.86073,0,0,0.066667,-0,-0,0.66667
0.27209,0.8454,4.0814,0.5181,143.76,1821.8,-5.6388,1.8796,-1.0408,-7.5185,5.7994e-12,-0.52041,0,0,0.066667,-6.3159e-16,0,0.66667
0.95209,0.037442,14.281,-0.69384,-19.408,14.237,26.424,-8.808,-0.29601,35.232,-1.938e-05,-0.148,0,0,0.066667,2.5264e-15,5.0176e-17,0.66667
0.66977,0.21161,10.047,-0.43258,-71.39,444.56,11.589,-3.8631,-1.3383,15.452,5.3211e-12,-0.66914,0,0,0.066667,6.3159e-16,0,0.66667
0.66681,0.019403,10.002,-0.7209,-120.08,453.48,19.228,-6.4093,-0.1479,25.637,4.8672e-13,-0.07395,0,0,0.066667,-1.2632e-15,0,0.66667
0.011103,0.17334,0.16655,-0.49,-146.82,2971.1,0.21761,-0.072515,-1.1429,0.29016,3.2415e-05,-0.57145,0,0,0.066667,-1.9737e-17,0,0.66667
0.85297,0.59001,12.795,0.13502,10.959,95.74,-4.6066,1.5355,-1.9301,-6.1421,-4.6219e-11,-0.96505,0,0,0.066667,-1.8948e-15,0,0.66667
0.77833,0.0073443,11.675,-0.73898,-87.381,212.33,23.007,-7.6689,-0.0593,30.676,-2.6859e-12,-0.02965,0,0,0.066667,-0,-5.6775e-17,0.66667
0.68492,0.67393,10.274,0.26089,41.416,406.82,-7.1476,2.3825,-1.7596,-9.5301,-3.3893e-12,-0.87979,0,0,0.066667,1.2632e-15,0,0.66667
0.74078,0.83099,11.112,0.49649,67.048,282.97,-14.711,4.9038,-1.1175,-19.615,-8.6589e-12,-0.55877,0,0,0.066667,-0,-0,0.66667
0.15657,0.33546,2.3486,-0.24681,-72.1,2319.2,1.5458,-0.51525,-1.7939,2.061,4.9968e-11,-0.89697,0,0,0.066667,-0,-0,0.66667
0.71878,0.57047,10.782,0.1057,15.267,328.56,-3.0391,1.013,-1.9722,-4.0521,-5.6268e-12,-0.9861,0,0,0.066667,-0,-0,0.66667
0.096818,0.70117,1.4523,0.30175,89.529,2584.9,-1.1686,0.38954,-1.6764,-1.5581,-4.6221e-08,-0.83818,0,0,0.066667,1.579e-16,0,0.66667
0.70695,0.89364,10.604,0.59046,88.477,356.57,-16.697,5.5656,-0.75856,-22.263,3.3767e-11,-0.37928,0,0,0.066667,-0,-0,0.66667
0.0026318,0.10243,0.039477,-0.59636,-178.78,3009.4,0.062772,-0.020967,-0.73732,0.083674,-6.4376e-05,-0.36866,0,0,0.066667,-0,-4.431e-17,0.66667
0.77621,0.89618,11.643,0.59427,70.739,215.15,-18.451,6.1504,-0.74017,-24.601,2.866e-10,-0.37008,0,0,0.066667,6.3159e-16,0,0.66667
0.49156,0.16976,7.3734,-0.49536,-112.54,977.76,9.7399,-3.2466,-1.121,12.987,1.0588e-11,-0.5605,0,0,0.066667,-0,-0,0.66667
0.20439,0.90836,3.0658,0.61254,175.97,2110.5,-5.0078,1.6693,-0.67341,-6.6771,-6.5981e-11,-0.33671,0,0,0.066667,6.3159e-16,0,0.66667
0.72925,0.41868,10.939,-0.12197,-17.063,305.94,3.558,-1.186,-1.9427,4.744,-2.182e-12,-0.97133,0,0,0.066667,-0,-0,0.66667
0.31565,0.54415,4.7348,0.066219,17.848,1641.3,-0.83609,0.2787,-1.9843,-1.1148,-1.1151e-11,-0.99215,0,0,0.066667,-0,-0,0.66667
0.88382,0.91013,13.257,0.61519,40.276,63.089,-21.749,7.2496,-0.64895,-28.998,1.4706e-07,-0.32447,0,0,0.066667,-0,-0,0.66667
0.18023,0.3165,2.7035,-0.27525,-79.755,2215.2,1.9844,-0.66147,-1.725,2.6459,1.3018e-10,-0.86249,0,0,0.066667,-0,-0,0.66667
0.93855,0.72397,14.078,0.33595,11.849,18.656,-12.612,4.2041,-1.6065,-16.817,3.0578e-07,-0.80325,0,0,0.066667,-2.5264e-15,0,0.66667
0.97075,0.41629,14.561,-0.12557,-2.1003,4.5357,4.8758,-1.6253,-1.9476,6.5011,1.4137e-06,-0.97381,0,0,0.066667,2.5264e-15,0,0.66667
0.30449,0.12282,4.5673,-0.56577,-153.85,1687.6,6.8907,-2.2969,-0.85649,9.1876,3.2919e-11,-0.42825,0,0,0.066667,3.9475e-16,0,0.66667
0.86249,0.39431,12.937,-0.15854,-12.093,84.26,5.4694,-1.8231,-1.9107,7.2925,-1.7242e-10,-0.95534,0,0,0.066667,1.2632e-15,0,0.66667
0.84218,0.12743,12.633,-0.55885,-48.598,111.29,18.826,-6.2754,-0.89579,25.101,-6.3446e-09,-0.44789,0,0,0.066667,-0,6.7132e-17,0.66667
0.42461,0.24593,6.3692,-0.3811,-93.552,1216.7,6.4728,-2.1576,-1.4856,8.6304,1.5054e-11,-0.74279,0,0,0.066667,-7.8949e-16,0,0.66667
0.36368,0.45678,5.4553,-0.064837,-16.841,1449.1,0.94321,-0.3144,-1.9822,1.2576,-2.2483e-12,-0.99108,0,0,0.066667,-0,-0,0.66667
0.28244,0.41166,4.2366,-0.13251,-36.507,1778.1,1.497,-0.49901,-1.9448,1.996,2.3474e-11,-0.9724,0,0,0.066667,6.3159e-16,0,0.66667
0.99324,0.54349,14.899,0.065233,0.22604,0.37734,-2.5917,0.8639,-1.9786,-3.4556,1.0634e-06,-0.9893,0,0,0.066667,2.5264e-15,0,0.66667
0.25575,0.16402,3.8363,-0.50397,-141.14,1890.5,5.1556,-1.7185,-1.092,6.8742,1.7042e-11,-0.54599,0,0,0.066667,-0,-0,0.66667
0.92068,0.42194,13.81,-0.1171,-5.2855,29.337,4.3123,-1.4374,-1.9577,5.7498,-8.5671e-08,-0.97885,0,0,0.066667,-0,-0,0.66667
0.42834,0.66732,6.425,0.25098,61.351,1202.7,-4.3002,1.4334,-1.77,-5.7336,-1.815e-12,-0.88502,0,0,0.066667,-0,-0,0.66667
0.93543,0.38454,14.031,-0.17318,-6.3975,19.919,6.48,-2.16,-1.8968,8.6401,-3.033e-07,-0.94841,0,0,0.066667,2.5264e-15,0,0.66667
0.83884,0.035132,12.583,-0.6973,-61.936,116.73,23.397,-7.799,-0.26801,31.196,-1.1209e-08,-0.134,0,0,0.066667,2.5264e-15,0,0.66667
0.15578,0.83278,2.3367,0.49918,145.96,2322.9,-3.1104,1.0368,-1.1237,-4.1472,4.9517e-09,-0.56184,0,0,0.066667,-0,-0,0.66667
0.57428,0.88002,8.6143,0.57003,114.47,710.11,-13.094,4.3648,-0.8435,-17.459,5.6364e-12,-0.42175,0,0,0.066667,-0,-0,0.66667
0.6735,0.33368,10.103,-0.24948,-40.765,434.71,6.721,-2.2403,-1.7837,8.9613,4.2051e-12,-0.89186,0,0,0.066667,6.3159e-16,0,0.66667
0.40582,0.83678,6.0873,0.50516,126.43,1287.4,-8.2002,2.7334,-1.1029,-10.934,7.7938e-12,-0.55143,0,0,0.066667,3.158e-16,0,0.66667
0.004877,0.40127,0.073156,-0.14809,-44.343,2999.2,0.028889,-0.0096281,-1.9187,0.038519,2.2066e-06,-0.95936,0,0,0.066667,-0,-0,0.66667
0.32533,0.62406,4.88,0.1861,49.818,1602.1,-2.4217,0.80724,-1.8793,-3.229,1.2782e-11,-0.93963,0,0,0.066667,7.1054e-16,0,0.66667
0.83894,0.15074,12.584,-0.52389,-46.392,115.42,17.581,-5.8602,-1.0209,23.441,-1.8086e-09,-0.51044,0,0,0.066667,-6.3159e-16,0,0.66667
0.062824,0.53924,0.94236,0.058864,17.555,2737.6,-0.14792,0.049307,-1.9982,-0.19723,-1.6957e-07,-0.99912,0,0,0.066667,-0,-0,0.66667
0.10542,0.076539,1.5813,-0.63519,-188.33,2546.7,2.6785,-0.89282,-0.56325,3.5713,-2.5939e-08,-0.28163,0,0,0.066667,-0,-0,0.66667
0.70179,0.9331,10.527,0.64965,98.813,368.72,-18.237,6.0789,-0.50618,-24.316,-1.0001e-12,-0.25309,0,0,0.066667,-9.4739e-16,-3.8207e-17,0.66667
0.51416,0.58594,7.7124,0.12891,28.376,900.55,-2.6512,0.88373,-1.9467,-3.5349,-7.0395e-12,-0.97337,0,0,0.066667,6.3159e-16,0,0.66667
0.49817,0.097724,7.4725,-0.60341,-135.98,955.57,12.024,-4.008,-0.7104,16.032,4.6869e-12,-0.3552,0,0,0.066667,-1.2632e-15,3.6331e-17,0.66667
0.37361,0.13991,5.6041,-0.54014,-139.27,1411,8.072,-2.6907,-0.96838,10.763,1.0112e-11,-0.48419,0,0,0.066667,6.3159e-16,0,0.66667
0.60351,0.94096,9.0527,0.66144,126.07,624.1,-15.967,5.3225,-0.43995,-21.29,1.2736e-12,-0.21997,0,0,0.066667,-0,-0,0.66667
0.85147,0.35039,12.772,-0.22442,-18.395,97.803,7.6435,-2.5478,-1.8148,10.191,2.9157e-10,-0.90741,0,0,0.066667,-0,-0,0.66667
0.27692,0.80696,4.1538,0.46044,127.37,1801.5,-5.1003,1.7001,-1.2439,-6.8004,-1.1035e-11,-0.62194,0,0,0.066667,-0,-0,0.66667
0.84476,0.9507,12.671,0.67605,58.008,108.71,-22.844,7.6147,-0.38218,-30.459,1.2744e-08,-0.19109,0,0,0.066667,-0,-0,0.66667
0.41662,0.63669,6.2493,0.20504,50.725,1246.2,-3.4169,1.139,-1.8459,-4.5559,2.8646e-12,-0.92296,0,0,0.066667,6.3159e-16,0,0.66667
0.50098,0.51115,7.5148,0.016729,3.7494,944.78,-0.33524,0.11175,-2.0065,-0.44699,-1.4743e-11,-1.0032,0,0,0.066667,-0,-0,0.66667
0.72962,0.98144,10.944,0.72216,101.28,307.6,-21.076,7.0254,-0.14191,-28.102,-9.3259e-13,-0.070955,0,0,0.066667,-1.2632e-15,0,0.66667
0.25872,0.98466,3.8808,0.72699,203.47,1878.4,-7.5236,2.5079,-0.11439,-10.031,-2.302e-11,-0.057196,0,0,0.066667,-3.158e-16,0,0.66667
0.92164,0.60261,13.825,0.15392,6.8673,28.722,-5.6743,1.8914,-1.9266,-7.5657,1.2022e-07,-0.96331,0,0,0.066667,-0,-0,0.66667
0.70207,0.13128,10.531,-0.55309,-83.993,367.53,15.532,-5.1774,-0.91998,20.71,4.1771e-12,-0.45999,0,0,0.066667,-0,-0,0.66667
0.61893,0.33593,9.284,-0.2461,-45.419,578.8,6.0928,-2.0309,-1.7793,8.1237,5.6199e-12,-0.88966,0,0,0.066667,-0,-0,0.66667
0.27301,0.9016,4.0951,0.60241,167.13,1818.1,-6.5785,2.1928,-0.70394,-8.7713,1.0303e-10,-0.35197,0,0,0.066667,-0,-0,0.66667
0.69585,0.70998,10.438,0.31498,48.587,381,-8.767,2.9223,-1.641,-11.689,5.1941e-12,-0.8205,0,0,0.066667,-6.3159e-16,0,0.66667
0.25721,0.075316,3.8582,-0.63703,-178.36,1884.5,6.5541,-2.1847,-0.55064,8.7388,-6.811e-11,-0.27532,0,0,0.066667,-0,-0,0.66667
0.81645,0.36453,12.247,-0.2032,-20.215,146.45,6.6362,-2.2121,-1.8512,8.8483,-1.187e-11,-0.92558,0,0,0.066667,-1.2632e-15,0,0.66667
0.011472,0.17335,0.17209,-0.48998,-146.81,2969.4,0.22484,-0.074925,-1.1437,0.2998,3.1808e-05,-0.57186,0,0,0.066667,-1.9737e-17,0,0.66667
0.16654,0.077767,2.4981,-0.63335,-184.63,2275.7,4.2191,-1.4064,-0.56892,5.6254,-3.8615e-08,-0.28446,0,0,0.066667,-0,-0,0.66667
0.55783,0.50684,8.3674,0.010264,2.115,759.54,-0.22902,0.076339,-1.9965,-0.30536,4.4604e-12,-0.99823,0,0,0.066667,-0,-0,0.66667
0.71228,0.77762,10.684,0.41642,61.378,343.73,-11.864,3.9548,-1.3783,-15.819,-3.6984e-12,-0.68916,0,0,0.066667,1.579e-15,0,0.66667
0.49248,0.13862,7.3872,-0.54208,-123.03,974.75,10.678,-3.5595,-0.94859,14.238,4.2801e-12,-0.4743,0,0,0.066667,-0,-0,0.66667
0.87781,0.14713,13.167,-0.52931,-36.28,68.686,18.585,-6.1951,-1.005,24.78,-8.9823e-08,-0.50249,0,0,0.066667,-6.3159e-16,0,0.66667
0.97587,0.9162,14.638,0.6243,8.8176,5.6474,-24.369,8.1231,-0.60788,-32.493,-8.4853e-05,-0.30394,0,0,0.066667,-0,-0,0.66667
0.46428,0.87242,6.9642,0.55863,131.32,1073.2,-10.374,3.4581,-0.88831,-13.832,4.8015e-12,-0.44415,0,0,0.066667,-0,-0,0.66667
0.76799,0.93882,11.52,0.65824,80.913,230.65,-20.221,6.7402,-0.46314,-26.961,-1.7994e-09,-0.23157,0,0,0.066667,-0,-0,0.66667
0.49477,0.59227,7.4216,0.13841,31.279,966,-2.7392,0.91305,-1.9286,-3.6522,-1.4146e-12,-0.96431,0,0,0.066667,-7.8949e-16,0,0.66667
0.6651,0.07643,9.9765,-0.63535,-106.19,457.28,16.903,-5.6343,-0.55838,22.537,-4.3574e-12,-0.27919,0,0,0.066667,1.2632e-15,0,0.66667
0.22487,0.96408,3.3731,0.69613,198.22,2022.3,-6.2617,2.0872,-0.27203,-8.3489,-1.8344e-10,-0.13601,0,0,0.066667,3.158e-16,0,0.66667
0.10954,0.38954,1.6431,-0.16569,-49.018,2528,0.72599,-0.242,-1.9133,0.96798,1.2634e-08,-0.95663,0,0,0.066667,-0,-0,0.66667
0.97901,0.4721,14.685,-0.041852,-0.49724,2.4266,1.6389,-0.54631,-1.9899,2.1853,4.3363e-07,-0.99497,0,0,0.066667,-0,-0,0.66667
0.81499,0.78087,12.225,0.4213,42.271,149.42,-13.734,4.5781,-1.3724,-18.312,-6.5186e-10,-0.68618,0,0,0.066667,1.7369e-15,0,0.66667
0.28538,0.52687,4.2808,0.040305,11.083,1765.8,-0.4601,0.15337,-1.9925,-0.61347,3.4652e-11,-0.99625,0,0,0.066667,-3.158e-16,0,0.66667
0.58583,0.1774,8.7874,-0.48391,-95.185,675.07,11.339,-3.7798,-1.161,15.119,7.1827e-12,-0.58048,0,0,0.066667,-6.3159e-16,0,0.66667
0.38007,0.46947,5.7011,-0.045794,-11.727,1385.2,0.6962,-0.23207,-1.9897,0.92827,2.6159e-11,-0.99484,0,0,0.066667,-0,-0,0.66667
0.17634,0.25812,2.6451,-0.36282,-105.3,2232.4,2.5592,-0.85306,-1.529,3.4123,3.2585e-11,-0.76451,0,0,0.066667,-0,-0,0.66667
0.41884,0.34825,6.2825,-0.22763,-56.188,1237.9,3.8135,-1.2712,-1.8168,5.0847,5.4943e-12,-0.9084,0,0,0.066667,1.2632e-15,0,0.66667
0.29719,0.94853,4.4578,0.6728,183.94,1717.9,-7.9979,2.666,-0.40088,-10.664,1.4877e-11,-0.20044,0,0,0.066667,-0,-0,0.66667
0.016624,0.2961,0.24936,-0.30586,-91.583,2946.1,0.20338,-0.067796,-1.6746,0.27118,-2.554e-06,-0.83732,0,0,0.066667,-0,-0,0.66667
0.38737,0.78577,5.8105,0.42866,109.13,1357.5,-6.6419,2.214,-1.3471,-8.8559,-1.6141e-11,-0.67355,0,0,0.066667,-0,-0,0.66667
0.92091,0.56351,13.814,0.09527,4.2873,29.141,-3.5094,1.1698,-1.9766,-4.6792,8.4593e-08,-0.98831,0,0,0.066667,-2.5264e-15,0,0.66667
0.8282,0.44734,12.423,-0.078991,-7.3973,128.9,2.6168,-0.87227,-1.9893,3.4891,6.8834e-15,-0.99467,0,0,0.066667,-2.5264e-15,0,0.66667
0.57407,0.62939,8.6111,0.19409,38.932,709.65,-4.4569,1.4856,-1.8645,-5.9425,2.4767e-12,-0.93226,0,0,0.066667,-0,-0,0.66667
0.31865,0.24546,4.7797,-0.38181,-102.75,1629.4,4.8665,-1.6222,-1.4767,6.4886,2.3629e-11,-0.73835,0,0,0.066667,7.8949e-16,0,0.66667
0.23126,0.69081,3.469,0.28621,81.129,1994.3,-2.6476,0.88254,-1.7098,-3.5302,-7.105e-12,-0.85488,0,0,0.066667,-0,-0,0.66667
0.95602,0.77061,14.34,0.40591,10.308,10.561,-15.522,5.1741,-1.4149,-20.697,4.606e-06,-0.70746,0,0,0.066667,-1.2632e-15,0,0.66667
0.56461,0.36265,8.4692,-0.20602,-41.993,738.65,4.6529,-1.551,-1.8522,6.2039,1.1091e-11,-0.92612,0,0,0.066667,-0,-0,0.66667
0.21761,0.47162,3.2641,-0.042574,-12.143,2052.9,0.37058,-0.12353,-2.0014,0.4941,5.533e-11,-1.0007,0,0,0.066667,-0,-0,0.66667
0.24948,0.63019,3.7422,0.19528,54.831,1916.6,-1.9487,0.64958,-1.8745,-2.5983,2.8826e-11,-0.93723,0,0,0.066667,-0,-0,0.66667
0.9596,0.90128,14.394,0.60192,14.172,10.423,-23.104,7.7013,-0.70648,-30.805,3.3919e-05,-0.35324,0,0,0.066667,6.3159e-16,0,0.66667
0.23881,0.26484,3.5822,-0.35274,-99.628,1962.1,3.3696,-1.1232,-1.5543,4.4928,1.554e-11,-0.77717,0,0,0.066667,-3.158e-16,0,0.66667
0.10671,0.92568,1.6007,0.63852,189.27,2540.9,-2.7256,0.90853,-0.55175,-3.6341,2.4239e-08,-0.27587,0,0,0.066667,3.1524e-17,8.5552e-17,0.66667
0.18396,0.70113,2.7594,0.3017,87.298,2199,-2.22,0.74001,-1.6752,-2.96,-2.3319e-10,-0.8376,0,0,0.066667,-0,-0,0.66667
0.76622,0.043036,11.493,-0.68545,-84.84,234.13,21.008,-7.0027,-0.33851,28.011,3.3456e-10,-0.16925,0,0,0.066667,-0,-0,0.66667
0.70876,0.83208,10.631,0.49812,74.205,351.99,-14.122,4.7073,-1.1126,-18.829,-4.7597e-12,-0.55632,0,0,0.066667,-0,-0,0.66667
0.43794,0.41619,6.5691,-0.12571,-30.409,1167.2,2.2022,-0.73405,-1.9537,2.9362,8.1897e-12,-0.97683,0,0,0.066667,-0,-0,0.66667
0.7938,0.15426,11.907,-0.5186,-57.387,183.98,16.467,-5.4889,-1.0451,21.956,-2.0389e-10,-0.52255,0,0,0.066667,1.7369e-15,0,0.66667
0.51751,0.33621,7.7627,-0.24569,-53.839,889.55,5.0859,-1.6953,-1.7897,6.7813,-2.2764e-12,-0.89484,0,0,0.066667,6.3159e-16,0,0.66667
0.4136,0.82155,6.204,0.48233,119.78,1258,-7.9796,2.6599,-1.1665,-10.639,5.2109e-12,-0.58327,0,0,0.066667,-0,-0,0.66667
0.11744,0.69551,1.7616,0.29327,86.623,2492.8,-1.3777,0.45923,-1.6879,-1.8369,1.1297e-08,-0.84397,0,0,0.066667,-0,-0,0.66667
0.88391,0.27061,13.259,-0.34409,-22.417,61.462,12.166,-4.0552,-1.5729,16.221,1.4485e-08,-0.78645,0,0,0.066667,1.2632e-15,0,0.66667
0.27559,0.84032,4.1339,0.51048,141.35,1807.1,-5.6274,1.8758,-1.0692,-7.5032,1.2577e-11,-0.53461,0,0,0.066667,-7.8949e-17,0,0.66667
0.61626,0.071645,9.2439,-0.64253,-119.45,587.74,15.839,-5.2796,-0.52598,21.118,-2.605e-12,-0.26299,0,0,0.066667,1.2632e-15,0,0.66667
0.98458,0.4275,14.769,-0.10875,-0.93632,1.4698,4.2831,-1.4277,-1.9689,5.7108,3.4733e-07,-0.98443,0,0,0.066667,-0,-0,0.66667
0.18942,0.54934,2.8413,0.074005,21.362,2175,-0.56071,0.1869,-1.9843,-0.74762,-1.9028e-11,-0.99216,0,0,0.066667,-0,-0,0.66667
0.96519,0.74377,14.478,0.36566,7.342,6.9904,-14.117,4.7057,-1.524,-18.823,4.8158e-07,-0.76199,0,0,0.066667,1.8948e-15,0,0.66667
0.65272,0.27386,9.7907,-0.33921,-58.251,487.78,8.8563,-2.9521,-1.5902,11.808,7.8542e-12,-0.79509,0,0,0.066667,-6.3159e-16,0,0.66667
0.12873,0.62091,1.931,0.18136,53.408,2442.4,-0.93389,0.3113,-1.8823,-1.2452,-9.3478e-10,-0.94115,0,0,0.066667,1.579e-16,0,0.66667
0.77193,0.10576,11.579,-0.59136,-71.565,222.93,18.259,-6.0865,-0.7507,24.346,-6.1872e-10,-0.37535,0,0,0.066667,-1.2632e-15,0,0.66667
0.95178,0.8465,14.277,0.51975,14.518,13.036,-19.787,6.5958,-1.0465,-26.383,4.135e-06,-0.52326,0,0,0.066667,-0,-0,0.66667
0.56278,0.8287,8.4417,0.49305,100.9,745.06,-11.099,3.6997,-1.146,-14.799,5.6675e-12,-0.57301,0,0,0.066667,-0,-0,0.66667
0.68856,0.084959,10.328,-0.62256,-98.107,399.57,17.147,-5.7156,-0.62928,22.862,1.7387e-11,-0.31464,0,0,0.066667,-0,-0,0.66667
0.026348,0.2432,0.39522,-0.3852,-115.32,2902.2,0.40597,-0.13533,-1.4688,0.54129,-1.0663e-05,-0.73442,0,0,0.066667,1.9737e-17,0,0.66667
0.98908,0.41068,14.836,-0.13399,-0.79774,0.88532,5.3009,-1.767,-1.9333,7.0679,-3.0075e-07,-0.96664,0,0,0.066667,-0,-0,0.66667
0.31846,0.66236,4.7769,0.24353,65.523,1630,-3.1022,1.0341,-1.7841,-4.1363,-4.5544e-12,-0.89206,0,0,0.066667,-0,-0,0.66667
0.023904,0.55138,0.35856,0.077066,23.062,2913.2,-0.073687,0.024563,-1.9724,-0.098249,9.7003e-07,-0.98621,0,0,0.066667,-3.9475e-17,0,0.66667
0.80856,0.51856,12.128,0.027847,2.8762,158.46,-0.90066,0.30022,-1.9951,-1.2009,5.4166e-12,-0.99757,0,0,0.066667,-0,-0,0.66667
0.97325,0.66548,14.599,0.24822,3.8012,4.1585,-9.6631,3.221,-1.7778,-12.884,-4.1166e-06,-0.88892,0,0,0.066667,-2.5264e-15,0,0.66667
0.73759,0.58605,11.064,0.12907,17.583,288.42,-3.8081,1.2694,-1.9409,-5.0775,-6.9567e-13,-0.97044,0,0,0.066667,-0,-0,0.66667
0.0027358,0.94114,0.041037,0.66171,198.43,3008.9,-0.072496,0.024236,-0.4453,-0.096626,0.00010666,-0.22265,0,0,0.066667,9.8686e-18,3.7653e-16,0.66667
0.063361,0.84953,0.95041,0.5243,156.5,2735.3,-1.3288,0.44293,-1.0311,-1.7717,5.7917e-07,-0.51556,0,0,0.066667,-0,-0,0.66667
0.58427,0.26975,8.764,-0.34538,-68.084,679.26,8.0717,-2.6906,-1.5702,10.762,1.1473e-11,-0.78508,0,0,0.066667,-0,-0,0.66667
0.33572,0.56652,5.0357,0.099784,26.504,1560.2,-1.34,0.44665,-1.9589,-1.7866,1.3125e-11,-0.97944,0,0,0.066667,-0,-0,0.66667
0.88183,0.85003,13.228,0.52504,34.87,64.491,-18.52,6.1733,-1.0141,-24.693,7.1738e-08,-0.50703,0,0,0.066667,-0,-0,0.66667
0.87367,0.84528,13.105,0.51792,36.62,73.04,-18.1,6.0332,-1.0536,-24.133,2.897e-08,-0.52679,0,0,0.066667,-0,-0,0.66667
0.98752,0.56755,14.813,0.10132,0.69598,1.0306,-4.0023,1.3341,-1.9641,-5.3364,4.2524e-07,-0.98207,0,0,0.066667,-0,-0,0.66667
0.71583,0.72078,10.737,0.33118,48.287,335.52,-9.4827,3.1609,-1.6118,-12.644,5.6737e-12,-0.80592,0,0,0.066667,-2.5264e-15,0,0.66667
0.87688,0.53042,13.153,0.045626,3.1364,68.038,-1.6003,0.53345,-1.998,-2.1338,5.8295e-09,-0.999,0,0,0.066667,-1.579e-15,0,0.66667
0.31965,0.95201,4.7948,0.67802,182.55,1626,-8.6691,2.8897,-0.35896,-11.559,-4.1878e-12,-0.17948,0,0,0.066667,-0,-0,0.66667
0.11118,0.94499,1.6677,0.66749,197.69,2521,-2.9684,0.98946,-0.42047,-3.9578,-1.4575e-07,-0.21023,0,0,0.066667,-0,-0,0.66667
0.86536,0.52211,12.98,0.033162,2.4793,80.777,-1.1479,0.38263,-1.9907,-1.5305,1.988e-10,-0.99535,0,0,0.066667,-0,-0,0.66667
0.30347,0.93564,4.5521,0.65346,177.89,1692,-7.9323,2.6441,-0.47684,-10.576,-6.1826e-12,-0.23842,0,0,0.066667,8.6844e-16,0,0.66667
0.41933,0.99204,6.29,0.73806,182.47,1237.5,-12.38,4.1266,-0.065243,-16.506,-8.6846e-12,-0.032621,0,0,0.066667,-0,5.995e-17,0.66667
0.64603,0.073512,9.6905,-0.63973,-111.72,506.58,16.531,-5.5105,-0.54008,22.042,8.8249e-12,-0.27004,0,0,0.066667,-0,-0,0.66667
0.6051,0.14723,9.0765,-0.52916,-100.47,618.91,12.808,-4.2692,-1.0018,17.077,9.555e-12,-0.5009,0,0,0.066667,-6.3159e-16,0,0.66667
0.42092,0.13332,6.3138,-0.55001,-135.62,1230.9,9.2605,-3.0868,-0.93221,12.347,1.4257e-11,-0.46611,0,0,0.066667,-0,-0,0.66667
0.38615,0.62572,5.7923,0.18858,48.036,1361.8,-2.9129,0.97096,-1.8718,-3.8838,2.2085e-11,-0.93589,0,0,0.066667,-1.2632e-15,0,0.66667
0.12268,0.35356,1.8402,-0.21966,-64.79,2469.4,1.0779,-0.35931,-1.8311,1.4372,-4.3655e-09,-0.91553,0,0,0.066667,-0,-0,0.66667
0.53386,0.87758,8.0079,0.56637,121.34,836.9,-12.094,4.0315,-0.86212,-16.126,1.4437e-11,-0.43106,0,0,0.066667,-1.2632e-15,0,0.66667
0.23285,0.67426,3.4928,0.26138,74.03,1987.5,-2.4346,0.81153,-1.7623,-3.2461,-4.8115e-12,-0.88116,0,0,0.066667,-0,-0,0.66667
0.75481,0.99197,11.322,0.73796,95.242,256.37,-22.281,7.4269,-0.06013,-29.708,-7.3669e-11,-0.030065,0,0,0.066667,1.8948e-15,0,0.66667
0.67487,0.33042,10.123,-0.25437,-41.423,431.34,6.8666,-2.2889,-1.7703,9.1555,6.4486e-12,-0.88513,0,0,0.066667,-0,-0,0.66667
0.071927,0.85321,1.0789,0.52982,157.97,2696.7,-1.5243,0.50811,-0.9963,-2.0324,-6.9901e-07,-0.49815,0,0,0.066667,-1.579e-16,0,0.66667
0.98926,0.6389,14.839,0.20835,1.2226,1.0309,-8.2445,2.7482,-1.8416,-10.993,9.3685e-07,-0.92078,0,0,0.066667,2.5264e-15,0,0.66667
0.78046,0.28548,11.707,-0.32179,-37.581,206.23,10.046,-3.3485,-1.6409,13.394,-3.9743e-11,-0.82043,0,0,0.066667,-0,-0,0.66667
0.22783,0.58834,3.4174,0.13252,37.617,2009,-1.2076,0.40254,-1.9321,-1.6102,3.7759e-11,-0.96605,0,0,0.066667,-1.579e-16,0,0.66667
0.030743,0.30867,0.46114,-0.287,-85.875,2882.3,0.35293,-0.11764,-1.7175,0.47057,-2.8079e-06,-0.85873,0,0,0.066667,-4.9343e-17,0,0.66667
0.47837,0.3079,7.1756,-0.28816,-66.521,1022.9,5.5138,-1.8379,-1.6999,7.3518,1.2257e-12,-0.84996,0,0,0.066667,3.158e-16,0,0.66667
0.35274,0.37965,5.2911,-0.18053,-47.32,1492.3,2.5472,-0.84906,-1.8787,3.3962,1.7107e-11,-0.93936,0,0,0.066667,-0,-0,0.66667
0.54651,0.75877,8.1977,0.38815,81.5,795.73,-8.4851,2.8284,-1.4746,-11.314,-1.0907e-12,-0.73731,0,0,0.066667,1.2632e-15,0,0.66667
0.65966,0.95569,9.895,0.68353,115.76,471.38,-18.036,6.012,-0.33797,-24.048,1.6751e-12,-0.16899,0,0,0.066667,-0,-0,0.66667
0.79722,0.53956,11.958,0.059346,6.454,176.86,-1.8925,0.63082,-1.9979,-2.5233,-3.4174e-11,-0.99895,0,0,0.066667,-0,-0,0.66667
0.013544,0.95853,0.20317,0.68779,206.23,2960.1,-0.37261,0.12411,-0.32144,-0.49686,-0.00014611,-0.16072,0,0,0.066667,1.9737e-17,0,0.66667
0.7143,0.74003,10.714,0.36004,52.74,339.03,-10.287,3.429,-1.536,-13.716,4.2641e-12,-0.76802,0,0,0.066667,-6.3159e-16,0,0.66667
0.29531,0.23865,4.4297,-0.39202,-107.18,1725,4.6308,-1.5436,-1.4588,6.1744,1.4113e-11,-0.72938,0,0,0.066667,-3.158e-16,0,0.66667
0.9864,0.49396,14.796,-0.009055,-0.068084,1.1174,0.35727,-0.1191,-2.0037,0.47636,-6.3009e-06,-1.0019,0,0,0.066667,-1.8948e-15,0,0.66667
0.84624,0.47034,12.694,-0.044487,-3.7628,104.21,1.5059,-0.50196,-1.9962,2.0078,-1.0698e-09,-0.99808,0,0,0.066667,-0,-0,0.66667
0.5604,0.53674,8.406,0.055103,11.307,751.54,-1.2352,0.41173,-1.993,-1.6469,-2.4027e-12,-0.99652,0,0,0.066667,-0,-0,0.66667
0.59777,0.074711,8.9665,-0.63793,-122.89,640.62,15.253,-5.0845,-0.55077,20.338,4.9063e-12,-0.27538,0,0,0.066667,-0,-0,0.66667
0.19208,0.76766,2.8811,0.4015,115.84,2163.7,-3.0847,1.0282,-1.4233,-4.1129,1.062e-10,-0.71167,0,0,0.066667,-0,-0,0.66667
0.22625,0.24048,3.3938,-0.38927,-110.64,2015.9,3.523,-1.1743,-1.4548,4.6973,-5.9073e-11,-0.72741,0,0,0.066667,-0,-0,0.66667
0.15401,0.19809,2.3102,-0.45286,-132.47,2330.6,2.7899,-0.92995,-1.2737,3.7198,-7.1899e-09,-0.63683,0,0,0.066667,-0,-0,0.66667
0.37781,0.86326,5.6672,0.54489,139.98,1394.7,-8.2347,2.7449,-0.94526,-10.98,-1.0071e-11,-0.47263,0,0,0.066667,-0,-0,0.66667
0.11196,0.70221,1.6793,0.30331,89.704,2517.2,-1.3583,0.45276,-1.6744,-1.811,-7.9448e-09,-0.83722,0,0,0.066667,1.579e-16,0,0.66667
0.51127,0.8317,7.6691,0.49755,110.08,910.97,-10.175,3.3918,-1.1168,-13.567,3.8503e-12,-0.55841,0,0,0.066667,-0,-0,0.66667
0.63848,0.68781,9.5772,0.28172,49.921,525.29,-7.1948,2.3983,-1.7224,-9.5931,-8.3089e-13,-0.86121,0,0,0.066667,-0,-0,0.66667
0.12221,0.059733,1.8332,-0.6604,-195.07,2471.8,3.2284,-1.0761,-0.45138,4.3045,1.0026e-07,-0.22569,0,0,0.066667,2.3685e-16,0,0.66667
0.3442,0.67316,5.1629,0.25974,68.558,1526.4,-3.5761,1.192,-1.7697,-4.7681,1.4493e-11,-0.88487,0,0,0.066667,-6.3159e-16,0,0.66667
0.070348,0.47901,1.0552,-0.031482,-9.3797,2703.7,0.088589,-0.02953,-1.99,0.11812,7.8561e-08,-0.995,0,0,0.066667,-0,-0,0.66667
0.52576,0.68992,7.8864,0.28488,61.698,862.44,-5.9912,1.9971,-1.7076,-7.9882,1.3265e-11,-0.8538,0,0,0.066667,-0,-0,0.66667
0.65029,0.34471,9.7543,-0.23294,-40.208,493.85,6.0592,-2.0197,-1.8029,8.0789,6.6853e-12,-0.90147,0,0,0.066667,-0,-0,0.66667
0.61547,0.05929,9.2321,-0.66107,-123.11,590.06,16.275,-5.4249,-0.44148,21.7,4.8335e-12,-0.22074,0,0,0.066667,-3.158e-16,0,0.66667
0.81387,0.55144,12.208,0.077167,7.7713,150.21,-2.5121,0.83738,-1.9848,-3.3495,-5.4368e-11,-0.99238,0,0,0.066667,-0,-0,0.66667
0.23557,0.0050586,3.5335,-0.74241,-210.36,1976.7,6.9955,-2.3318,-0.047525,9.3273,4.8206e-12,-0.023763,0,0,0.066667,-0,-0,0.66667
0.61818,0.93901,9.2727,0.65851,121.97,582.44,-16.283,5.4277,-0.45322,-21.711,3.2372e-11,-0.22661,0,0,0.066667,-2.5264e-15,0,0.66667
0.30283,0.13792,4.5424,-0.54312,-147.84,1694.3,6.5789,-2.193,-0.9456,8.7718,3.3344e-11,-0.4728,0,0,0.066667,-0,-0,0.66667
0.088768,0.53462,1.3315,0.051934,15.427,2621,-0.1844,0.061467,-1.9872,-0.24587,-3.8379e-08,-0.9936,0,0,0.066667,-3.158e-16,0,0.66667
0.30526,0.22629,4.5789,-0.41057,-111.53,1684.1,5.0132,-1.6711,-1.3945,6.6843,2.1376e-11,-0.69727,0,0,0.066667,-0,-0,0.66667
0.071356,0.71687,1.0703,0.3253,96.939,2699.2,-0.92849,0.3095,-1.6187,-1.238,-4.1852e-07,-0.80936,0,0,0.066667,-1.4734e-16,0,0.66667
0.95857,0.85906,14.379,0.53859,12.957,10.349,-20.651,6.8837,-0.96363,-27.535,1.8219e-05,-0.48182,0,0,0.066667,-1.2632e-15,0,0.66667
0.72717,0.20937,10.907,-0.43594,-61.46,311.23,12.68,-4.2267,-1.318,16.907,-1.2427e-11,-0.659,0,0,0.066667,6.3159e-16,0,0.66667
0.10146,0.13603,1.5219,-0.54595,-161.95,2564.3,2.2157,-0.73857,-0.93371,2.9543,-1.9456e-07,-0.46686,0,0,0.066667,-0,-0,0.66667
0.78627,0.78415,11.794,0.42623,48.65,196.41,-13.405,4.4684,-1.3509,-17.874,8.1539e-11,-0.67543,0,0,0.066667,-0,-0,0.66667
0.35216,0.82593,5.2823,0.4889,128.32,1495.1,-6.8867,2.2956,-1.1436,-9.1823,1.055e-11,-0.57181,0,0,0.066667,6.3159e-16,0,0.66667
0.91144,0.56666,13.672,0.09999,5.0208,36.197,-3.6454,1.2151,-1.9608,-4.8605,-2.227e-09,-0.98038,0,0,0.066667,-2.5264e-15,0,0.66667
0.4955,0.889,7.4325,0.58349,131.94,964.59,-11.565,3.8549,-0.78609,-15.42,-1.5126e-12,-0.39305,0,0,0.066667,-0,-0,0.66667
0.87269,0.78984,13.09,0.43476,30.926,73.642,-15.176,5.0588,-1.3307,-20.235,1.6167e-09,-0.66535,0,0,0.066667,-0,-0,0.66667
0.22053,0.91023,3.3079,0.61535,175.51,2040.8,-5.4281,1.8094,-0.65887,-7.2375,1.9437e-10,-0.32944,0,0,0.066667,-0,-0,0.66667
0.36719,0.030129,5.5079,-0.70481,-182.88,1436.6,10.352,-3.4507,-0.22857,13.803,1.0692e-11,-0.11428,0,0,0.066667,4.737e-16,0,0.66667
0.36684,0.64267,5.5026,0.214,55.447,1436.8,-3.1402,1.0467,-1.8306,-4.1869,8.7153e-12,-0.91528,0,0,0.066667,-0,-0,0.66667
0.097133,0.2981,1.457,-0.30285,-89.849,2583.5,1.1767,-0.39222,-1.6731,1.5689,4.8174e-08,-0.83656,0,0,0.066667,1.579e-16,0,0.66667
0.33101,0.16031,4.9652,-0.50953,-135.95,1579.6,6.7465,-2.2488,-1.0784,8.9954,1.8193e-11,-0.53921,0,0,0.066667,-0,-0,0.66667
0.65971,0.87449,9.8956,0.56174,95.035,470.6,-14.823,4.9412,-0.87864,-19.765,2.5668e-13,-0.43932,0,0,0.066667,1.579e-16,0,0.66667
0.46654,0.36704,6.9982,-0.19944,-46.701,1064.3,3.722,-1.2407,-1.8617,4.9626,-4.9827e-12,-0.93087,0,0,0.066667,3.158e-16,0,0.66667
0.87923,0.12808,13.188,-0.55787,-37.838,67.38,19.62,-6.54,-0.8917,26.16,-1.7397e-07,-0.44585,0,0,0.066667,-0,-0,0.66667
0.26967,0.82695,4.0451,0.49043,136.27,1831.8,-5.2902,1.7634,-1.1424,-7.0535,1.0954e-11,-0.57121,0,0,0.066667,-0,-0,0.66667
0.35482,0.63572,5.3223,0.20358,53.275,1484.1,-2.8894,0.96313,-1.8493,-3.8525,5.298e-12,-0.92466,0,0,0.066667,-0,-0,0.66667
0.32035,0.41546,4.8053,-0.12681,-34.066,1622.2,1.6249,-0.54165,-1.9364,2.1666,2.9369e-11,-0.96822,0,0,0.066667,-0,-0,0.66667
0.55174,0.82339,8.2761,0.48509,101.06,779.5,-10.706,3.5685,-1.1594,-14.274,-5.8495e-12,-0.57972,0,0,0.066667,1.2632e-15,0,0.66667
0.18822,0.16183,2.8233,-0.50726,-146.63,2180.6,3.819,-1.273,-1.0942,5.0921,-1.7147e-09,-0.54712,0,0,0.066667,-0,-0,0.66667
0.17324,0.74696,2.5987,0.37045,107.63,2245.9,-2.5671,0.8557,-1.519,-3.4228,-7.6147e-11,-0.75948,0,0,0.066667,-3.158e-16,0,0.66667
0.93948,0.53816,14.092,0.057246,1.9826,17.455,-2.1513,0.71709,-1.9924,-2.8684,2.1002e-07,-0.9962,0,0,0.066667,-0,-0,0.66667
0.37665,0.70871,5.6497,0.31306,80.444,1398.7,-4.7166,1.5722,-1.6565,-6.2888,4.2353e-12,-0.82824,0,0,0.066667,3.158e-16,0,0.66667
0.5871,0.90861,8.8065,0.61292,120.38,671.85,-14.394,4.7979,-0.65926,-19.192,-7.2244e-12,-0.32963,0,0,0.066667,-0,-0,0.66667
0.055152,0.95702,0.82728,0.68553,204.97,2772.3,-1.5123,0.50413,-0.32254,-2.0165,2.6367e-05,-0.16127,0,0,0.066667,-7.8949e-17,0,0.66667
0.14086,0.28325,2.1129,-0.32512,-95.447,2388.7,1.8318,-0.61061,-1.636,2.4425,2.3986e-09,-0.81801,0,0,0.066667,-3.158e-16,0,0.66667
0.096359,0.44133,1.4454,-0.088012,-26.108,2586.9,0.33923,-0.11308,-1.9749,0.45231,1.3976e-08,-0.98744,0,0,0.066667,3.158e-16,0,0.66667
0.81212,0.68719,12.182,0.28078,28.539,153.32,-9.1212,3.0404,-1.7312,-12.162,1.353e-10,-0.8656,0,0,0.066667,-1.4408e-15,0,0.66667
0.10315,0.74702,1.5472,0.37053,109.81,2556.6,-1.5287,0.50958,-1.5071,-2.0383,-6.5817e-08,-0.75353,0,0,0.066667,-1.9737e-16,0,0.66667
0.51632,0.57336,7.7447,0.11004,24.148,893.36,-2.2726,0.75752,-1.9656,-3.0301,-3.1191e-12,-0.98282,0,0,0.066667,-0,-0,0.66667
0.15558,0.22373,2.3337,-0.41441,-121.15,2323.7,2.5789,-0.85964,-1.3988,3.4385,-4.6013e-09,-0.6994,0,0,0.066667,-0,-0,0.66667
0.27882,0.89741,4.1823,0.59612,164.8,1793.8,-6.6483,2.2161,-0.73884,-8.8644,8.3493e-11,-0.36942,0,0,0.066667,-0,-0,0.66667
0.8826,0.3607,13.239,-0.20895,-13.742,62.344,7.3769,-2.459,-1.8381,9.8359,3.377e-09,-0.91906,0,0,0.066667,-0,-0,0.66667
0.63159,0.41182,9.4739,-0.13227,-23.776,543.65,3.3415,-1.1138,-1.9323,4.4554,1.8419e-12,-0.96614,0,0,0.066667,1.2632e-15,0,0.66667
0.96366,0.48145,14.455,-0.02782,-0.57932,6.6471,1.0724,-0.35746,-1.9929,1.4298,-1.0184e-07,-0.99643,0,0,0.066667,-0,-0,0.66667
0.59971,0.20392,8.9957,-0.44412,-85.149,634.12,10.654,-3.5513,-1.293,14.205,7.5442e-12,-0.64652,0,0,0.066667,-0,-0,0.66667
0.0095197,0.90442,0.1428,0.60663,181.85,2978.2,-0.23098,0.076923,-0.68709,-0.30801,-0.00010686,-0.34355,0,0,0.066667,3.8764e-18,0,0.66667
0.41564,0.27589,6.2346,-0.33617,-83.272,1250.1,5.5891,-1.863,-1.593,7.4521,1.1429e-11,-0.7965,0,0,0.066667,6.3159e-16,0,0.66667
0.022442,0.69757,0.33663,0.29636,88.716,2919.8,-0.26603,0.088681,-1.6816,-0.35471,5.9852e-06,-0.84078,0,0,0.066667,-0,-0,0.66667
0.31398,0.27115,4.7098,-0.34327,-92.67,1648.3,4.3112,-1.4371,-1.5866,5.7483,3.5255e-11,-0.7933,0,0,0.066667,3.158e-16,0,0.66667
0.48162,0.09111,7.2244,-0.61333,-141.2,1012.5,11.816,-3.9386,-0.66467,15.755,-3.9311e-12,-0.33234,0,0,0.066667,-9.4739e-16,9.0596e-17,0.66667
0.57546,0.42752,8.6319,-0.10873,-21.754,705.35,2.5027,-0.83424,-1.9595,3.337,8.5452e-12,-0.97973,0,0,0.066667,-6.3159e-16,0,0.66667
0.23865,0.34422,3.5798,-0.23366,-65.984,1962.7,2.2306,-0.74352,-1.8046,2.9741,-1.1241e-11,-0.90228,0,0,0.066667,6.3159e-16,0,0.66667
0.55829,0.65889,8.3743,0.23833,49.089,758.32,-5.3223,1.7741,-1.7964,-7.0964,1.6586e-11,-0.89821,0,0,0.066667,-1.2632e-15,0,0.66667
0.39492,0.11675,5.9238,-0.57488,-145.43,1329,9.0813,-3.0271,-0.82235,12.108,1.3067e-11,-0.41117,0,0,0.066667,-3.158e-16,0,0.66667
0.50658,0.6597,7.5987,0.23955,53.297,926.06,-4.8541,1.618,-1.7908,-6.4721,-7.7245e-12,-0.89539,0,0,0.066667,-0,-0,0.66667
0.19597,0.40206,2.9395,-0.14691,-42.297,2146.5,1.1515,-0.38385,-1.9176,1.5354,-3.5868e-11,-0.95882,0,0,0.066667,1.9498e-16,0,0.66667
0.15675,0.35344,2.3513,-0.21984,-64.214,2318.4,1.3784,-0.45947,-1.8378,1.8379,7.7727e-11,-0.91889,0,0,0.066667,-3.158e-16,0,0.66667
0.75452,0.037676,11.318,-0.69349,-89.547,256.62,20.93,-6.9766,-0.28723,27.907,-7.1267e-12,-0.14361,0,0,0.066667,-0,-0,0.66667
0.32997,0.30211,4.9496,-0.29684,-79.21,1583.4,3.918,-1.306,-1.6909,5.224,3.3417e-11,-0.84545,0,0,0.066667,-0,-0,0.66667
0.6442,0.52222,9.6629,0.03333,5.8302,509.68,-0.85885,0.28628,-1.9951,-1.1451,8.4627e-13,-0.99754,0,0,0.066667,-0,-0,0.66667
0.56546,0.57795,8.4818,0.11692,23.795,735.93,-2.6446,0.88153,-1.9518,-3.5261,6.0092e-12,-0.9759,0,0,0.066667,-0,-0,0.66667
0.89953,0.93405,13.493,0.65108,37.183,48.579,-23.427,7.8089,-0.48751,-31.236,1.6397e-09,-0.24375,0,0,0.066667,-9.9687e-16,0,0.66667
0.88068,0.73,13.21,0.34499,23.066,64.75,-12.153,4.0511,-1.5716,-16.204,-2.0198e-08,-0.78582,0,0,0.066667,-0,-0,0.66667
0.44311,0.61645,6.6467,0.17468,42.017,1148.4,-3.096,1.032,-1.8866,-4.128,-8.1704e-12,-0.94332,0,0,0.066667,-3.158e-16,0,0.66667
0.20474,0.85457,3.071,0.53186,152.72,2108.8,-4.3556,1.4519,-0.99925,-5.8075,-5.6942e-10,-0.49963,0,0,0.066667,-0,-0,0.66667
0.63219,0.11451,9.4829,-0.57823,-104,543.36,14.622,-4.874,-0.80483,19.496,-2.6379e-12,-0.40242,0,0,0.066667,6.3159e-16,0,0.66667
0.63684,0.6087,9.5525,0.16304,28.985,529.48,-4.1533,1.3844,-1.9037,-5.5377,6.3531e-12,-0.95183,0,0,0.066667,-1.2632e-15,0,0.66667
0.69242,0.17986,10.386,-0.4802,-74.827,389.68,13.3,-4.4333,-1.1764,17.733,2.3572e-12,-0.5882,0,0,0.066667,-0,-0,0.66667
0.90747,0.84591,13.612,0.51887,27.315,40.932,-18.834,6.2781,-1.0504,-25.112,2.6458e-07,-0.52519,0,0,0.066667,2.5264e-15,0,0.66667
0.78258,0.79663,11.739,0.44494,51.565,202.96,-13.928,4.6427,-1.302,-18.571,3.346e-11,-0.65102,0,0,0.066667,-0,-0,0.66667
0.62529,0.025064,9.3794,-0.7124,-130.12,562.99,17.818,-5.9395,-0.20641,23.758,9.7522e-13,-0.10321,0,0,0.066667,-0,-0,0.66667
0.60097,0.25755,9.0145,-0.36368,-69.538,630.23,8.7424,-2.9141,-1.5236,11.656,1.2577e-11,-0.76181,0,0,0.066667,-0,-0,0.66667
0.21276,0.05614,3.1914,-0.66579,-190.61,2074.4,5.6661,-1.8887,-0.41883,7.5548,3.5811e-09,-0.20941,0,0,0.066667,-3.192e-17,0,0.66667
0.65137,0.27906,9.7705,-0.33141,-57.085,491.28,8.6349,-2.8783,-1.6066,11.513,6.926e-12,-0.80332,0,0,0.066667,3.158e-16,0,0.66667
0.8145,0.42002,12.218,-0.11997,-12.046,149.29,3.9085,-1.3028,-1.9523,5.2113,4.4682e-11,-0.97616,0,0,0.066667,1.2632e-15,0,0.66667
0.92232,0.14444,13.835,-0.53334,-23.738,29.848,19.676,-6.5588,-0.99833,26.235,-7.113e-08,-0.49917,0,0,0.066667,1.2632e-15,0,0.66667
0.91665,0.8757,13.75,0.56355,26.865,34.106,-20.663,6.8877,-0.8677,-27.551,1.6498e-07,-0.43385,0,0,0.066667,-2.5264e-15,0,0.66667
0.5611,0.10312,8.4165,-0.59532,-122.24,750.68,13.361,-4.4538,-0.74582,17.815,1.3288e-11,-0.37291,0,0,0.066667,-0,7.3396e-17,0.66667
0.25983,0.23635,3.8975,-0.39548,-110.47,1873.1,4.1103,-1.3701,-1.4385,5.4804,-3.8756e-12,-0.71924,0,0,0.066667,-0,-0,0.66667
0.3338,0.068058,5.007,-0.64791,-172.62,1568.8,8.6509,-2.8836,-0.50282,11.535,2.8249e-11,-0.25141,0,0,0.066667,-0,-0,0.66667
0.99776,0.75501,14.966,0.38251,0.3478,1.0436,-15.266,5.0888,-1.4832,-20.355,4.9925e-07,-0.74161,0,0,0.066667,-0,-0,0.66667
0.5256,0.8604,7.884,0.5406,117.23,863.71,-11.366,3.7885,-0.95563,-15.154,-1.0786e-11,-0.47782,0,0,0.066667,-0,-0,0.66667
0.81591,0.42173,12.239,-0.11741,-11.708,147.13,3.8317,-1.2772,-1.9501,5.1089,7.1931e-11,-0.97507,0,0,0.066667,1.2632e-15,0,0.66667
0.59702,0.8014,8.9552,0.4521,87.119,641.99,-10.796,3.5988,-1.2729,-14.395,3.8547e-12,-0.63647,0,0,0.066667,-6.3159e-16,0,0.66667
0.50693,0.080306,7.604,-0.62954,-140.22,926.03,12.765,-4.2551,-0.58445,17.02,8.118e-12,-0.29223,0,0,0.066667,-0,-0,0.66667
0.34854,0.985,5.2281,0.7275,191.71,1510.2,-10.143,3.3809,-0.11425,-13.523,-4.3556e-12,-0.057124,0,0,0.066667,-6.3159e-16,0,0.66667
0.53777,0.72092,8.0666,0.33139,70.51,823.53,-7.1284,2.3761,-1.6046,-9.5045,3.9369e-12,-0.80232,0,0,0.066667,1.2632e-15,0,0.66667
0.0067347,0.70592,0.10102,0.30887,92.508,2990.8,-0.083204,0.027732,-1.6545,-0.11094,-4.7316e-06,-0.82726,0,0,0.066667,-9.8686e-18,0,0.66667
0.87669,0.31612,13.15,-0.27582,-19.01,68.68,9.6722,-3.2241,-1.7351,12.896,7.8931e-09,-0.86755,0,0,0.066667,-2.5264e-15,0,0.66667
0.56149,0.035161,8.4223,-0.69726,-143.18,749.98,15.66,-5.22,-0.27955,20.88,6.9393e-12,-0.13978,0,0,0.066667,-0,-3.4574e-17,0.66667
0.024281,0.35853,0.36422,-0.2122,-63.508,2911.5,0.2061,-0.068702,-1.8334,0.2748,-3.5856e-06,-0.91672,0,0,0.066667,3.9475e-17,0,0.66667
0.81817,0.11886,12.273,-0.57171,-56.561,145.4,18.71,-6.2368,-0.83318,24.947,-4.7308e-10,-0.41659,0,0,0.066667,-0,-0,0.66667
0.13535,0.077722,2.0303,-0.63342,-186.44,2413.4,3.4294,-1.1431,-0.56872,4.5726,-1.5361e-07,-0.28436,0,0,0.066667,-0,-0,0.66667
0.030639,0.14839,0.45958,-0.52741,-157.92,2882.8,0.64638,-0.21547,-1.0203,0.86183,-1.8197e-05,-0.51016,0,0,0.066667,-0,-0,0.66667
0.46234,0.58827,6.935,0.13241,31.158,1079.2,-2.4487,0.81625,-1.9323,-3.265,1.0421e-12,-0.96615,0,0,0.066667,-6.3159e-16,0,0.66667
0.96066,0.28815,14.41,-0.31778,-7.2017,8.3568,12.211,-4.0703,-1.6348,16.281,-2.0864e-06,-0.81742,0,0,0.066667,-0,-0,0.66667
0.093614,0.20254,1.4042,-0.44619,-132.52,2599.3,1.6708,-0.55693,-1.3032,2.2277,1.1061e-07,-0.65158,0,0,0.066667,-0,-0,0.66667
0.065599,0.53313,0.98398,0.049695,14.815,2725.1,-0.1304,0.043466,-1.9925,-0.17386,-1.0515e-07,-0.99627,0,0,0.066667,-0,-0,0.66667
0.87994,0.49529,13.199,-0.0070684,-0.4745,64.824,0.24879,-0.08293,-1.9965,0.33172,1.5371e-08,-0.99823,0,0,0.066667,1.579e-15,0,0.66667
0.82137,0.55112,12.321,0.076686,7.4406,138.86,-2.5195,0.83983,-1.9729,-3.3593,-5.0449e-11,-0.98644,0,0,0.066667,-0,-0,0.66667
0.81997,0.68595,12.3,0.27893,27.277,141.35,-9.1485,3.0495,-1.7181,-12.198,1.279e-10,-0.85906,0,0,0.066667,-1.1418e-15,0,0.66667
0.46782,0.12852,7.0173,-0.55723,-130.44,1060.7,10.427,-3.4757,-0.90455,13.903,1.2141e-12,-0.45227,0,0,0.066667,1.2632e-15,0,0.66667
0.42749,0.71754,6.4124,0.32631,79.848,1205.9,-5.5798,1.8599,-1.6176,-7.4397,9.7966e-13,-0.80882,0,0,0.066667,7.5002e-16,0,0.66667
0.40107,0.85402,6.016,0.53103,133.53,1305.4,-8.5191,2.8397,-0.99298,-11.359,1.1966e-11,-0.49649,0,0,0.066667,-0,-0,0.66667
0.58222,0.013568,8.7332,-0.72965,-144.67,687.01,16.992,-5.6642,-0.10458,22.657,1.7382e-11,-0.052291,0,0,0.066667,-0,-0,0.66667
0.72897,0.23493,10.935,-0.39761,-55.729,307.22,11.594,-3.8646,-1.433,15.458,-3.3378e-12,-0.71648,0,0,0.066667,3.9991e-16,0,0.66667
0.78429,0.54908,11.764,0.073622,8.4583,198.94,-2.3097,0.76989,-1.9809,-3.0795,-9.3594e-12,-0.99046,0,0,0.066667,-0,-0,0.66667
0.6548,0.36977,9.822,-0.19535,-33.37,482.03,5.1165,-1.7055,-1.8705,6.822,4.6292e-12,-0.93527,0,0,0.066667,-6.3159e-16,0,0.66667
0.56247,0.5296,8.437,0.044395,9.0791,745.13,-0.99883,0.33294,-2.0058,-1.3318,7.1398e-13,-1.0029,0,0,0.066667,-3.158e-16,0,0.66667
0.41239,0.46755,6.1859,-0.048671,-12.09,1261.9,0.80287,-0.26762,-1.9872,1.0705,3.0723e-11,-0.9936,0,0,0.066667,-6.7107e-16,0,0.66667
0.31992,0.81286,4.7987,0.4693,126.21,1624.4,-6.0054,2.0018,-1.2119,-8.0072,-1.7715e-12,-0.60597,0,0,0.066667,1.2632e-15,0,0.66667
0.28625,0.61132,4.2937,0.16698,45.897,1762.3,-1.9119,0.63731,-1.8966,-2.5492,3.4586e-11,-0.9483,0,0,0.066667,-0,-0,0.66667
0.29618,0.59724,4.4427,0.14587,39.84,1721.2,-1.7281,0.57603,-1.9339,-2.3041,2.4901e-11,-0.96694,0,0,0.066667,-0,-0,0.66667
0.68275,0.51705,10.241,0.025582,4.0822,411.76,-0.69865,0.23288,-1.9938,-0.93154,4.8318e-12,-0.99692,0,0,0.066667,-0,-0,0.66667
0.76244,0.018706,11.437,-0.72194,-90.648,241.54,22.018,-7.3392,-0.14667,29.357,-2.3309e-11,-0.073334,0,0,0.066667,-0,-0,0.66667
0.59762,0.58582,8.9643,0.12873,24.754,639.49,-3.0773,1.0258,-1.9395,-4.1031,1.9544e-12,-0.96974,0,0,0.066667,-0,-0,0.66667
0.22286,0.38373,3.343,-0.1744,-49.625,2030.3,1.5547,-0.51824,-1.8896,2.0729,-4.8586e-12,-0.94481,0,0,0.066667,-0,-0,0.66667
0.1944,0.80605,2.9159,0.45908,132.35,2153.6,-3.5697,1.1899,-1.2448,-4.7596,-2.4489e-10,-0.62241,0,0,0.066667,1.579e-16,0,0.66667
0.76569,0.602,11.485,0.153,18.905,232.86,-4.6861,1.562,-1.9285,-6.2481,-2.4514e-13,-0.96425,0,0,0.066667,-0,-0,0.66667
0.97869,0.68049,14.68,0.27073,3.2867,2.9594,-10.599,3.5329,-1.7346,-14.131,-4.8436e-06,-0.8673,0,0,0.066667,-0,-0,0.66667
0.01591,0.40263,0.23865,-0.14605,-43.722,2949.3,0.092946,-0.030983,-1.9355,0.12393,-1.0603e-06,-0.96774,0,0,0.066667,-2.9606e-17,0,0.66667
0.2489,0.9486,3.7335,0.6729,189.29,1919.8,-6.6993,2.2331,-0.39704,-8.9325,-3.5143e-10,-0.19852,0,0,0.066667,-0,-0,0.66667
0.79231,0.16239,11.885,-0.50642,-56.392,186.43,16.05,-5.3499,-1.0853,21.4,1.3697e-10,-0.54263,0,0,0.066667,-0,-0,0.66667
0.71917,0.3993,10.787,-0.15105,-21.793,327.76,4.3452,-1.4484,-1.9291,5.7936,-4.885e-15,-0.96457,0,0,0.066667,-0,-0,0.66667
0.24598,0.85955,3.6897,0.53933,151.86,1931.9,-5.3065,1.7688,-0.96343,-7.0754,1.0863e-10,-0.48172,0,0,0.066667,-0,-0,0.66667
0.55489,0.017995,8.3234,-0.72301,-150.09,770.66,16.048,-5.3492,-0.13475,21.397,-7.6277e-12,-0.067376,0,0,0.066667,-0,-0,0.66667
0.58559,0.028822,8.7838,-0.70677,-139.28,676.82,16.555,-5.5183,-0.21851,22.073,1.5609e-11,-0.10926,0,0,0.066667,-1.2632e-15,0,0.66667
0.72138,0.0046581,10.821,-0.74301,-106.9,325.45,21.44,-7.1466,-0.039304,28.587,1.6858e-12,-0.019652,0,0,0.066667,-0,-0,0.66667
0.46367,0.96224,6.9551,0.69336,163.23,1075.9,-12.86,4.2866,-0.28682,-17.146,2.8662e-11,-0.14341,0,0,0.066667,-3.158e-16,0,0.66667
0.40485,0.39068,6.0727,-0.16398,-41.04,1290.4,2.6555,-0.88517,-1.91,3.5407,1.1537e-11,-0.95502,0,0,0.066667,-6.3159e-16,0,0.66667
0.30801,0.84948,4.6201,0.52422,142.19,1673.1,-6.4586,2.1529,-1.0202,-8.6114,-7.4833e-12,-0.51012,0,0,0.066667,-0,-0,0.66667
0.23831,0.48299,3.5746,-0.025513,-7.2043,1964.1,0.2432,-0.081066,-1.9955,0.32426,1.4634e-11,-0.99777,0,0,0.066667,3.158e-16,0,0.66667
0.092503,0.70356,1.3876,0.30534,90.669,2604.3,-1.1298,0.3766,-1.6748,-1.5064,-3.471e-09,-0.83738,0,0,0.066667,-0,-0,0.66667
0.64588,0.27362,9.6883,-0.33957,-59.216,505.71,8.7728,-2.9243,-1.5858,11.697,9.3232e-12,-0.79288,0,0,0.066667,-0,-0,0.66667
0.66957,0.9191,10.044,0.62865,103.93,446,-16.837,5.6123,-0.59733,-22.449,8.4199e-12,-0.29867,0,0,0.066667,-1.2632e-15,-1.0383e-16,0.66667
0.68734,0.37769,10.31,-0.18346,-28.935,400.85,5.044,-1.6813,-1.8924,6.7253,1.3814e-11,-0.9462,0,0,0.066667,-2.5264e-15,0,0.66667
0.0031457,0.66448,0.047186,0.24672,73.887,3007,-0.031043,0.010345,-1.7838,-0.041391,-3.9446e-06,-0.89191,0,0,0.066667,-0,-0,0.66667
0.43825,0.44637,6.5738,-0.080445,-19.452,1166.1,1.4102,-0.47007,-1.9856,1.8803,2.3598e-12,-0.99279,0,0,0.066667,-0,-0,0.66667
0.12255,0.69273,1.8383,0.28909,85.282,2470,-1.4172,0.47239,-1.7056,-1.8896,1.0638e-08,-0.85278,0,0,0.066667,-3.158e-16,0,0.66667
0.52661,0.36666,7.8991,-0.20001,-43.255,859.51,4.2131,-1.4044,-1.8545,5.6175,-5.8038e-12,-0.92724,0,0,0.066667,-0,-0,0.66667
0.97974,0.81182,14.696,0.46773,5.4615,3.6944,-18.33,6.1101,-1.22,-24.44,-1.4959e-05,-0.61001,0,0,0.066667,-7.8949e-17,0,0.66667
0.49928,0.56382,7.4892,0.095735,21.506,950.61,-1.9119,0.63731,-1.9772,-2.5492,-5.396e-12,-0.98862,0,0,0.066667,-0,-0,0.66667
0.37465,0.44306,5.6197,-0.085413,-21.978,1406.3,1.28,-0.42667,-1.9848,1.7067,1.2548e-11,-0.9924,0,0,0.066667,-0,-0,0.66667
0.81384,0.48757,12.208,-0.018645,-1.8779,150.23,0.60697,-0.20232,-2.0047,0.8093,1.6928e-10,-1.0024,0,0,0.066667,2.5264e-15,0,0.66667
0.9682,0.31474,14.523,-0.27789,-5.0776,5.6761,10.762,-3.5873,-1.7359,14.349,1.8646e-06,-0.86793,0,0,0.066667,-0,-0,0.66667
0.28712,0.88204,4.3069,0.57307,157.61,1759.2,-6.5816,2.1939,-0.82731,-8.7755,4.7988e-12,-0.41365,0,0,0.066667,-0,-0,0.66667
0.803,0.64524,12.045,0.21786,23.098,167.61,-6.9976,2.3325,-1.8256,-9.3302,-3.9163e-11,-0.91279,0,0,0.066667,-0,-0,0.66667
0.99614,0.49506,14.942,-0.0074053,-0.012785,0.14953,0.29507,-0.098347,-1.9986,0.39343,1.3524e-05,-0.99931,0,0,0.066667,3.7896e-15,0,0.66667
0.11182,0.90163,1.6774,0.60245,178.35,2518,-2.6947,0.89825,-0.71232,-3.593,6.9897e-08,-0.35616,0,0,0.066667,3.9475e-17,0,0.66667
0.53105,0.46964,7.9657,-0.045537,-9.782,844.9,0.96729,-0.32243,-2.0048,1.2897,1.17e-12,-1.0024,0,0,0.066667,-0,-0,0.66667
0.81353,0.69091,12.203,0.28636,28.909,151.16,-9.3185,3.1062,-1.7166,-12.425,1.8295e-10,-0.85831,0,0,0.066667,-0,-0,0.66667
0.37629,0.50666,5.6444,0.0099884,2.5664,1399.9,-0.15034,0.050114,-2.0063,-0.20046,-8.6204e-12,-1.0031,0,0,0.066667,-0,-0,0.66667
0.44577,0.54931,6.6866,0.07397,17.739,1138.7,-1.319,0.43965,-1.974,-1.7586,-2.7813e-12,-0.98699,0,0,0.066667,-0,-0,0.66667
0.7509,0.28924,11.264,-0.31614,-41.213,261.83,9.4957,-3.1652,-1.6527,12.661,1.8119e-13,-0.82635,0,0,0.066667,-0,-0,0.66667
0.098346,0.82575,1.4752,0.48862,145,2578.2,-1.9222,0.64072,-1.1476,-2.5629,-3.1288e-08,-0.57379,0,0,0.066667,-0,-0,0.66667
0.36053,0.12265,5.4079,-0.56603,-147.59,1462.3,8.1627,-2.7209,-0.86872,10.884,2.0417e-11,-0.43436,0,0,0.066667,-7.1054e-16,0,0.66667
0.56371,0.36723,8.4556,-0.19915,-40.653,741.43,4.4905,-1.4968,-1.8658,5.9874,1.2643e-11,-0.93292,0,0,0.066667,-0,-0,0.66667
0.23859,0.27512,3.5788,-0.33732,-95.277,1963.1,3.2191,-1.073,-1.5933,4.2922,2.0088e-11,-0.79665,0,0,0.066667,-0,-0,0.66667
0.83995,0.80416,12.599,0.45624,40.138,113.68,-15.329,5.1096,-1.2584,-20.438,9.1326e-11,-0.62922,0,0,0.066667,6.3159e-16,0,0.66667
0.76585,0.22319,11.488,-0.41521,-51.335,233.31,12.72,-4.2398,-1.3985,16.959,6.2349e-11,-0.69925,0,0,0.066667,-0,-0,0.66667
0.96554,0.61717,14.483,0.17575,3.4741,6.2128,-6.7879,2.2626,-1.8903,-9.0506,-3.8843e-07,-0.94514,0,0,0.066667,-6.3159e-16,0,0.66667
0.52299,0.88229,7.8448,0.57344,124.84,872.4,-11.996,3.9987,-0.8247,-15.995,-1.2484e-11,-0.41235,0,0,0.066667,-0,-0,0.66667
0.10652,0.22447,1.5979,-0.41329,-122.41,2541.6,1.761,-0.58701,-1.3941,2.348,3.2387e-08,-0.69704,0,0,0.066667,-0,-0,0.66667
0.93662,0.71312,14.049,0.31967,11.619,19.681,-11.976,3.9921,-1.6451,-15.969,4.4682e-07,-0.82254,0,0,0.066667,1.2632e-15,0,0.66667
0.83424,0.32772,12.514,-0.25842,-23.439,120.71,8.6233,-2.8744,-1.7568,11.498,3.7263e-10,-0.87838,0,0,0.066667,-0,-0,0.66667
0.54442,0.65691,8.1663,0.23536,49.556,802.04,-5.1253,1.7084,-1.8065,-6.8338,4.361e-13,-0.90327,0,0,0.066667,-1.2632e-15,0,0.66667
0.8363,0.67029,12.545,0.25544,22.903,117.85,-8.5449,2.8483,-1.7614,-11.393,-3.2206e-10,-0.8807,0,0,0.066667,-0,-0,0.66667
0.88169,0.6626,13.225,0.24389,16.161,63.366,-8.6015,2.8672,-1.7828,-11.469,-6.591e-09,-0.8914,0,0,0.066667,-0,-0,0.66667
0.77608,0.26882,11.641,-0.34678,-41.214,214.17,10.765,-3.5883,-1.5679,14.353,2.1188e-11,-0.78396,0,0,0.066667,-1.2632e-15,0,0.66667
0.57125,0.88668,8.5688,0.58002,117.09,719.37,-13.254,4.4179,-0.79752,-17.671,5.8114e-12,-0.39876,0,0,0.066667,-0,-0,0.66667
0.6153,0.65155,9.2295,0.22733,42.258,588.96,-5.595,1.865,-1.8115,-7.4599,-1.4211e-12,-0.90575,0,0,0.066667,6.8013e-16,0,0.66667
0.84439,0.16263,12.666,-0.50605,-43.411,108.06,17.092,-5.6974,-1.0988,22.79,4.8868e-09,-0.54941,0,0,0.066667,-0,-0,0.66667
0.62222,0.23257,9.3332,-0.40114,-73.584,570.06,9.9839,-3.328,-1.4288,13.312,2.1894e-12,-0.7144,0,0,0.066667,-0,-0,0.66667
0.20648,0.93416,3.0972,0.65125,186.95,2101.5,-5.3788,1.7929,-0.49235,-7.1717,5.8545e-10,-0.24618,0,0,0.066667,-7.8949e-17,0,0.66667
0.69149,0.20646,10.372,-0.44031,-68.763,391.71,12.179,-4.0596,-1.3085,16.238,5.4525e-12,-0.65424,0,0,0.066667,-0,-0,0.66667
0.53201,0.87383,7.9802,0.56075,120.47,842.87,-11.933,3.9777,-0.8917,-15.911,-1.3465e-12,-0.44585,0,0,0.066667,-0,-0,0.66667
0.26325,0.39347,3.9487,-0.1598,-44.528,1858.5,1.6826,-0.56088,-1.9115,2.2435,2.0709e-11,-0.95573,0,0,0.066667,-0,-0,0.66667
0.00078654,0.50475,0.011798,0.0071234,2.1329,3017.7,-0.00022416,9.4791e-05,-2.0088,-0.00028885,3.0105e-05,-1.0044,0,0,0.066667,4.9343e-18,0,0.66667
0.2355,0.038739,3.5325,-0.69189,-196,1976.8,6.5176,-2.1725,-0.30512,8.6901,-8.4244e-11,-0.15256,0,0,0.066667,-0,-0,0.66667
0.67357,0.21411,10.104,-0.42884,-70.115,435.1,11.554,-3.8514,-1.3515,15.406,7.9039e-12,-0.67576,0,0,0.066667,6.3159e-16,0,0.66667
0.87832,0.45599,13.175,-0.06602,-4.4885,66.535,2.3195,-0.77316,-1.9839,3.0926,-2.5302e-09,-0.99197,0,0,0.066667,-0,-0,0.66667
0.8307,0.70722,12.461,0.31083,28.751,125.83,-10.328,3.4428,-1.6581,-13.771,-2.7834e-10,-0.82907,0,0,0.066667,-1.2632e-15,0,0.66667
0.10811,0.54864,1.6216,0.072964,21.591,2534.4,-0.31552,0.10517,-1.9873,-0.42069,-5.4777e-09,-0.99364,0,0,0.066667,-0,-0,0.66667
0.071125,0.11008,1.0669,-0.58488,-174.44,2700.4,1.664,-0.55466,-0.77723,2.2186,2.064e-06,-0.38862,0,0,0.066667,7.3669e-17,0,0.66667
0.76159,0.35928,11.424,-0.21108,-26.481,240.74,6.4302,-2.1434,-1.8392,8.5735,4.6581e-12,-0.9196,0,0,0.066667,-0,-0,0.66667
0.28483,0.901,4.2725,0.60151,165.69,1768.8,-6.8532,2.2844,-0.71301,-9.1376,4.2815e-12,-0.3565,0,0,0.066667,-1.579e-16,0,0.66667
0.2718,0.18837,4.077,-0.46745,-129.71,1822.9,5.0822,-1.6941,-1.2187,6.7763,1.7142e-11,-0.60936,0,0,0.066667,-0,-0,0.66667
0.0020003,0.0071759,0.030005,-0.73924,-221.76,3012.2,0.06052,-0.020226,-0.059442,0.080667,-7.9635e-05,-0.029721,0,0,0.066667,-0,-0,0.66667
0.098539,0.62422,1.4781,0.18633,55.255,2577.2,-0.73445,0.24482,-1.8742,-0.97926,-3.416e-08,-0.93708,0,0,0.066667,-6.9081e-17,0,0.66667
0.1356,0.41263,2.034,-0.13105,-38.517,2411.9,0.71079,-0.23693,-1.9352,0.94772,2.4454e-10,-0.96759,0,0,0.066667,-0,-0,0.66667
0.15936,0.67684,2.3904,0.26526,77.421,2306.9,-1.6909,0.56362,-1.75,-2.2545,1.3288e-10,-0.87498,0,0,0.066667,1.579e-16,0,0.66667
0.44531,0.34086,6.6797,-0.23871,-57.287,1140.5,4.252,-1.4173,-1.7919,5.6694,3.435e-12,-0.89593,0,0,0.066667,7.8949e-16,0,0.66667
0.81414,0.92379,12.212,0.63569,64.198,151.97,-20.701,6.9005,-0.568,-27.602,1.3636e-08,-0.284,0,0,0.066667,-0,-0,0.66667
0.8123,0.092795,12.184,-0.61081,-62.214,154.63,19.846,-6.6154,-0.68568,26.462,-1.6778e-09,-0.34284,0,0,0.066667,1.7369e-15,-9.3547e-18,0.66667
0.90999,0.89039,13.65,0.58558,30.068,39.357,-21.315,7.105,-0.77907,-28.42,-8.5295e-09,-0.38954,0,0,0.066667,1.2632e-15,0,0.66667
0.44359,0.03121,6.6539,-0.70318,-169.4,1148.1,12.477,-4.159,-0.2378,16.636,-3.2812e-11,-0.1189,0,0,0.066667,-1.9327e-16,0,0.66667
0.70871,0.38419,10.631,-0.17371,-25.843,351.08,4.9245,-1.6415,-1.8878,6.566,2.6792e-12,-0.94391,0,0,0.066667,-0,-0,0.66667
0.48833,0.87911,7.325,0.56867,129.78,989.1,-11.108,3.7027,-0.84889,-14.811,8.6899e-12,-0.42444,0,0,0.066667,-1.2632e-15,0,0.66667
0.049843,0.39337,0.74764,-0.15994,-47.774,2796.1,0.31887,-0.10629,-1.9095,0.42516,3.0027e-07,-0.95473,0,0,0.066667,7.8949e-17,0,0.66667
0.080431,0.2615,1.2065,-0.35774,-106.47,2658.4,1.151,-0.38365,-1.5475,1.5346,7.0994e-08,-0.77375,0,0,0.066667,-0,-0,0.66667
0.24594,0.87117,3.6891,0.55676,156.78,1932.1,-5.4772,1.8257,-0.89637,-7.303,1.1656e-10,-0.44819,0,0,0.066667,1.579e-16,0,0.66667
0.98162,0.37245,14.724,-0.19133,-1.986,2.1409,7.5125,-2.5042,-1.872,10.017,2.2581e-06,-0.93602,0,0,0.066667,1.2632e-15,0,0.66667
0.69192,0.28051,10.379,-0.32923,-51.329,390.3,9.1121,-3.0374,-1.6129,12.149,9.809e-12,-0.80647,0,0,0.066667,-1.6579e-15,0,0.66667
0.26801,0.50003,4.0201,4.1974e-05,0.011663,1838.4,-0.00044997,0.00014999,-2.0039,-0.00059996,4.3793e-11,-1.0019,0,0,0.066667,-2.5264e-15,0,0.66667
0.70626,0.83926,10.594,0.50889,76.355,357.71,-14.376,4.7921,-1.08,-19.169,-2.0348e-12,-0.53999,0,0,0.066667,3.158e-16,0,0.66667
0.66135,0.53672,9.9202,0.055081,9.2649,465.04,-1.4571,0.4857,-1.9855,-1.9428,-3.709e-12,-0.99274,0,0,0.066667,-0,-0,0.66667
0.04329,0.19648,0.64935,-0.45528,-136.16,2825.7,0.78835,-0.26278,-1.262,1.0511,7.5276e-06,-0.63101,0,0,0.066667,-0,-0,0.66667
0.36149,0.42846,5.4223,-0.10731,-27.926,1457.8,1.5517,-0.51723,-1.9624,2.0689,-5.7853e-12,-0.98122,0,0,0.066667,-0,-0,0.66667
0.77373,0.27243,11.606,-0.34136,-40.943,218.43,10.565,-3.5216,-1.5794,14.086,3.2056e-11,-0.78968,0,0,0.066667,1.2632e-15,0,0.66667
0.078523,0.1796,1.1778,-0.48061,-143.13,2667.1,1.5095,-0.50318,-1.189,2.0127,-5.4644e-08,-0.59448,0,0,0.066667,7.8949e-17,0,0.66667
0.88438,0.88156,13.266,0.57234,37.268,62.221,-20.247,6.7489,-0.82994,-26.996,1.0534e-07,-0.41497,0,0,0.066667,-0,-0,0.66667
0.93087,0.21978,13.963,-0.42033,-16.664,23.576,15.651,-5.217,-1.367,20.868,-4.4462e-07,-0.68352,0,0,0.066667,2.5264e-15,0,0.66667
0.85309,0.51708,12.796,0.025622,2.0777,95.496,-0.87432,0.29144,-1.9917,-1.1658,-5.3095e-10,-0.99585,0,0,0.066667,2.5264e-15,0,0.66667
0.11738,0.68085,1.7607,0.27127,80.122,2493,-1.2736,0.42455,-1.7323,-1.6982,8.4873e-09,-0.86613,0,0,0.066667,-1.579e-16,0,0.66667
0.56517,0.32986,8.4776,-0.25521,-51.976,737,5.7696,-1.9232,-1.7697,7.6928,1.1972e-11,-0.88484,0,0,0.066667,-6.3159e-16,0,0.66667
0.70756,0.59401,10.613,0.14102,21.047,353.64,-3.9913,1.3304,-1.9277,-5.3217,-1.3598e-11,-0.96385,0,0,0.066667,2.5264e-15,0,0.66667
0.88798,0.39999,13.32,-0.15002,-9.4342,56.873,5.3285,-1.7762,-1.9219,7.1047,-6.1884e-09,-0.96097,0,0,0.066667,6.3159e-16,0,0.66667
0.095776,0.57822,1.4366,0.11733,34.811,2589.5,-0.44951,0.14984,-1.9544,-0.59935,-1.9368e-08,-0.97721,0,0,0.066667,-0,-0,0.66667
0.81577,0.54341,12.237,0.06511,6.4964,147.29,-2.1246,0.7082,-1.9845,-2.8328,5.7635e-11,-0.99226,0,0,0.066667,-0,-0,0.66667
0.27802,0.97921,4.1702,0.71882,198.94,1797.5,-7.9937,2.6646,-0.16265,-10.658,1.1167e-11,-0.081325,0,0,0.066667,-0,-0,0.66667
0.59229,0.4139,8.8843,-0.12915,-25.081,655.1,3.0598,-1.0199,-1.9466,4.0798,8.5554e-12,-0.97328,0,0,0.066667,-0,-0,0.66667
0.7198,0.32524,10.797,-0.26214,-37.763,326.6,7.5475,-2.5158,-1.7628,10.063,1.6018e-12,-0.8814,0,0,0.066667,-0,-0,0.66667
0.77702,0.94369,11.655,0.66553,79.031,214.14,-20.685,6.8951,-0.42292,-27.58,-7.4905e-11,-0.21146,0,0,0.066667,-0,3.0958e-18,0.66667
0.29466,0.88692,4.42,0.58039,158.86,1728,-6.8408,2.2803,-0.80515,-9.121,-9.365e-12,-0.40258,0,0,0.066667,-0,-0,0.66667
0.60738,0.23086,9.1106,-0.40372,-76.268,611.91,9.8083,-3.2694,-1.424,13.078,1.0533e-11,-0.71202,0,0,0.066667,-0,-0,0.66667
0.28747,0.85008,4.3121,0.52512,144.36,1757.7,-6.0383,2.0128,-1.0142,-8.0511,1.9524e-11,-0.50712,0,0,0.066667,-0,-0,0.66667
0.99832,0.9494,14.975,0.67409,0.60452,3.073,-26.918,8.9726,-0.38902,-35.891,-0.00019929,-0.19451,0,0,0.066667,-0,-0,0.66667
0.81451,0.47683,12.218,-0.034749,-3.4885,149.21,1.1321,-0.37738,-1.9995,1.5095,-4.2196e-11,-0.99977,0,0,0.066667,-0,-0,0.66667
0.41398,0.67123,6.2097,0.25685,63.717,1256.2,-4.2532,1.4177,-1.7588,-5.6709,-8.2099e-12,-0.87938,0,0,0.066667,6.3159e-16,0,0.66667
0.87914,0.064453,13.187,-0.65332,-44.42,68.151,22.974,-7.6582,-0.48107,30.633,-2.0602e-07,-0.24053,0,0,0.066667,-0,-0,0.66667
0.7325,0.067974,10.988,-0.64804,-90.003,301.02,18.988,-6.3292,-0.51145,25.317,4.4418e-11,-0.25573,0,0,0.066667,-0,-0,0.66667
0.92875,0.4071,13.931,-0.13935,-5.6668,23.938,5.177,-1.7257,-1.9261,6.9026,-2.0715e-07,-0.96304,0,0,0.066667,-0,-0,0.66667
0.17161,0.74723,2.5742,0.37085,107.81,2253.1,-2.5456,0.84855,-1.5226,-3.3942,-1.5599e-10,-0.7613,0,0,0.066667,3.158e-16,0,0.66667
0.29484,0.49468,4.4225,-0.0079807,-2.1814,1726.7,0.09412,-0.031373,-2.0038,0.12549,3.5713e-11,-1.0019,0,0,0.066667,4.737e-16,0,0.66667
0.093737,0.61069,1.4061,0.16603,49.279,2598.7,-0.62253,0.20751,-1.9136,-0.83004,-2.1338e-08,-0.95679,0,0,0.066667,-0,-0,0.66667
0.31798,0.069938,4.7697,-0.64509,-173.86,1632.7,8.2051,-2.735,-0.5158,10.94,4.247e-11,-0.2579,0,0,0.066667,-6.3159e-16,0,0.66667
0.38119,0.056603,5.7178,-0.6651,-170.45,1382,10.141,-3.3804,-0.42197,13.521,4.6194e-12,-0.21099,0,0,0.066667,-6.3159e-16,0,0.66667
0.63271,0.45312,9.4907,-0.070319,-12.61,540.55,1.7797,-0.59323,-1.9757,2.3729,6.9534e-12,-0.98787,0,0,0.066667,1.2632e-15,0,0.66667
0.47152,0.25066,7.0728,-0.37401,-87.092,1047.1,7.0541,-2.3514,-1.5052,9.4055,4.607e-12,-0.75258,0,0,0.066667,-0,-0,0.66667
0.71767,0.51415,10.765,0.021222,3.0751,330.94,-0.60921,0.20307,-2.0053,-0.81228,-6.4753e-12,-1.0027,0,0,0.066667,-0,-0,0.66667
0.26922,0.0027919,4.0384,-0.74581,-207.52,1834.3,8.0316,-2.6772,-0.02208,10.709,-3.7526e-12,-0.01104,0,0,0.066667,-0,-0,0.66667
0.17306,0.095606,2.5959,-0.60659,-176.4,2247,4.199,-1.3997,-0.69957,5.5986,-6.2395e-09,-0.34978,0,0,0.066667,-6.3159e-16,0,0.66667
0.37912,0.55089,5.6868,0.07633,19.564,1388.9,-1.1575,0.38585,-1.9768,-1.5434,1.2162e-11,-0.9884,0,0,0.066667,-6.3159e-16,0,0.66667
0.43808,0.74618,6.5712,0.36927,89.357,1167.1,-6.4708,2.1569,-1.5252,-8.6277,9.2721e-12,-0.76258,0,0,0.066667,-1.579e-16,0,0.66667
0.42213,0.089047,6.3319,-0.61643,-151.86,1226.6,10.408,-3.4695,-0.66025,13.878,1.6844e-11,-0.33013,0,0,0.066667,-9.4739e-16,0,0.66667
0.91357,0.6794,13.704,0.2691,13.215,34.925,-9.8337,3.2779,-1.7363,-13.112,-2.6894e-09,-0.86816,0,0,0.066667,1.2632e-15,0,0.66667
0.26957,0.055595,4.0435,-0.66661,-185.37,1832.6,7.1878,-2.3959,-0.41839,9.5838,8.6544e-12,-0.20919,0,0,0.066667,-3.158e-16,0,0.66667
0.35204,0.29457,5.2807,-0.30814,-80.837,1495.2,4.3392,-1.4464,-1.6558,5.7856,1.075e-11,-0.82791,0,0,0.066667,-6.3159e-16,0,0.66667
0.21521,0.32759,3.2281,-0.25861,-73.857,2063.3,2.2262,-0.74207,-1.761,2.9683,1.6747e-11,-0.88051,0,0,0.066667,-0,-0,0.66667
0.37192,0.22084,5.5788,-0.41875,-108.08,1417.3,6.2297,-2.0766,-1.3779,8.3062,1.1525e-11,-0.68894,0,0,0.066667,-1.2632e-15,0,0.66667
0.38986,0.3029,5.8478,-0.29565,-75.068,1347.7,4.6104,-1.5368,-1.6977,6.1472,1.0413e-11,-0.84884,0,0,0.066667,-6.3159e-16,0,0.66667
0.57543,0.20341,8.6314,-0.44489,-89.105,706.16,10.24,-3.4133,-1.2974,13.653,1.33e-11,-0.64872,0,0,0.066667,-1.2632e-15,0,0.66667
0.27836,0.34648,4.1755,-0.23028,-63.609,1795.1,2.5641,-0.8547,-1.8132,3.4188,2.5313e-11,-0.90661,0,0,0.066667,-0,-0,0.66667
0.25949,0.0021308,3.8924,-0.7468,-208.95,1875.2,7.7516,-2.5839,-0.012458,10.335,1.9574e-11,-0.0062292,0,0,0.066667,-0,-0,0.66667
0.71906,0.90357,10.786,0.60536,87.584,329.63,-17.412,5.8039,-0.70842,-23.215,-7.431e-11,-0.35421,0,0,0.066667,1.2632e-15,0,0.66667
0.91018,0.030298,13.653,-0.70455,-36.217,40.139,25.651,-8.5502,-0.23441,34.201,6.3468e-06,-0.1172,0,0,0.066667,3.158e-16,0,0.66667
0.1221,0.40545,1.8315,-0.14182,-41.833,2472,0.69265,-0.23088,-1.9306,0.92354,1.9218e-10,-0.96529,0,0,0.066667,1.6777e-16,0,0.66667
0.18229,0.24035,2.7343,-0.38947,-112.79,2206.3,2.8399,-0.94662,-1.4563,3.7865,-1.8368e-10,-0.72813,0,0,0.066667,-0,-0,0.66667
0.13311,0.3601,1.9966,-0.20985,-61.727,2423,1.1173,-0.37244,-1.8368,1.4898,1.8454e-09,-0.91839,0,0,0.066667,-0,-0,0.66667
0.68361,0.78134,10.254,0.42201,67.271,410.49,-11.54,3.8466,-1.3664,-15.386,-3.4923e-12,-0.6832,0,0,0.066667,2.5264e-15,0,0.66667
0.21401,0.72615,3.2101,0.33923,96.95,2068.5,-2.9039,0.96798,-1.5875,-3.8719,-1.0651e-10,-0.79374,0,0,0.066667,-0,-0,0.66667
0.60457,0.082913,9.0686,-0.62563,-118.98,620.87,15.13,-5.0432,-0.60451,20.173,6.9633e-12,-0.30226,0,0,0.066667,6.3159e-16,0,0.66667
0.20168,0.51455,3.0252,0.021827,6.2691,2121.7,-0.17608,0.058695,-2.0038,-0.23478,-5.043e-11,-1.0019,0,0,0.066667,-0,-0,0.66667
0.81776,0.27441,12.266,-0.33839,-33.472,144.87,11.069,-3.6896,-1.5887,14.758,-1.8801e-10,-0.79435,0,0,0.066667,-0,-0,0.66667
0.31611,0.17578,4.7416,-0.48634,-131.16,1639.9,6.1494,-2.0498,-1.1578,8.1992,5.3751e-11,-0.57889,0,0,0.066667,-3.158e-16,0,0.66667
0.66962,0.74389,10.044,0.36583,60.377,444.71,-9.7987,3.2662,-1.5274,-13.065,1.8368e-12,-0.76368,0,0,0.066667,-6.3159e-16,0,0.66667
0.14873,0.14992,2.231,-0.52512,-153.9,2354,3.1241,-1.0414,-1.0135,4.1655,2.6798e-10,-0.50675,0,0,0.066667,-0,-0,0.66667
0.30595,0.71867,4.5892,0.328,89.036,1681.2,-4.0141,1.338,-1.613,-5.3521,1.7863e-11,-0.80648,0,0,0.066667,-7.5212e-16,0,0.66667
0.29724,0.091263,4.4586,-0.61311,-167.56,1717.5,7.2896,-2.4299,-0.67464,9.7195,2.5406e-11,-0.33732,0,0,0.066667,-4.737e-16,0,0.66667
0.63508,0.65302,9.5262,0.22952,40.964,534.33,-5.8307,1.9436,-1.8086,-7.7742,-4.7979e-12,-0.90432,0,0,0.066667,1.2632e-15,0,0.66667
0.68088,0.68528,10.213,0.27792,44.582,416.65,-7.5691,2.523,-1.7204,-10.092,9.4547e-12,-0.86019,0,0,0.066667,-1.7369e-15,0,0.66667
0.84525,0.36392,12.679,-0.20412,-17.376,105.73,6.9012,-2.3004,-1.8573,9.2016,6.6207e-11,-0.92865,0,0,0.066667,-0,-0,0.66667
0.18335,0.93796,2.7502,0.65693,190.37,2202.1,-4.8179,1.606,-0.46452,-6.4238,-2.7671e-08,-0.23226,0,0,0.066667,6.3159e-16,0,0.66667
0.76043,0.21763,11.406,-0.42355,-53.421,243.65,12.883,-4.2944,-1.359,17.178,-2.0738e-11,-0.6795,0,0,0.066667,7.4416e-16,0,0.66667
0.71194,0.29792,10.679,-0.30312,-44.696,344.11,8.6321,-2.8774,-1.6669,11.509,2.0899e-12,-0.83347,0,0,0.066667,4.2008e-16,0,0.66667
0.55754,0.24686,8.3632,-0.37971,-78.337,760.96,8.4681,-2.8227,-1.4842,11.291,1.0214e-13,-0.74212,0,0,0.066667,6.3159e-16,0,0.66667
0.65016,0.73326,9.7524,0.34989,60.436,494.48,-9.0994,3.0331,-1.5589,-12.133,2.7729e-12,-0.77947,0,0,0.066667,-1.2632e-15,0,0.66667
0.089995,0.13806,1.3499,-0.5429,-161.4,2615.6,1.9544,-0.65145,-0.95033,2.6058,2.7749e-07,-0.47516,0,0,0.066667,-0,-0,0.66667
0.14688,0.48388,2.2031,-0.024173,-7.0812,2361.9,0.14201,-0.047338,-1.992,0.18935,-6.1373e-10,-0.99599,0,0,0.066667,-0,-0,0.66667
0.41557,0.29715,6.2336,-0.30427,-75.369,1250.3,5.0578,-1.6859,-1.6648,6.7438,1.19e-11,-0.83242,0,0,0.066667,-0,-0,0.66667
0.71137,0.52401,10.671,0.036014,5.3157,344.95,-1.0248,0.34159,-1.9893,-1.3663,-7.5792e-12,-0.99463,0,0,0.066667,1.2632e-15,0,0.66667
0.16782,0.14053,2.5173,-0.53921,-157.06,2269.9,3.6196,-1.2065,-0.96379,4.8262,3.261e-10,-0.48189,0,0,0.066667,-3.158e-16,0,0.66667
0.38898,0.83404,5.8347,0.50106,127.41,1351.5,-7.7961,2.5987,-1.1123,-10.395,1.8261e-12,-0.55615,0,0,0.066667,3.158e-16,0,0.66667
0.49795,0.92253,7.4692,0.63379,142.89,956.44,-12.624,4.2079,-0.57505,-16.832,-3.7002e-12,-0.28753,0,0,0.066667,6.3159e-16,7.8812e-17,0.66667
0.93505,0.55284,14.026,0.079267,2.9432,19.994,-2.9647,0.98825,-1.9798,-3.953,1.4343e-07,-0.98992,0,0,0.066667,-1.2632e-15,0,0.66667
0.055196,0.98,0.82794,0.72,215.31,2772.1,-1.5896,0.52989,-0.15032,-2.1195,1.3788e-05,-0.07516,0,0,0.066667,1.579e-16,0,0.66667
0.82901,0.96905,12.435,0.70357,65.963,130.44,-23.331,7.7769,-0.24933,-31.108,3.7521e-08,-0.12467,0,0,0.066667,-0,-0,0.66667
0.98416,0.73062,14.762,0.34593,3.1028,2.2449,-13.618,4.5393,-1.5852,-18.157,-1.3265e-06,-0.79262,0,0,0.066667,-0,-0,0.66667
0.26727,0.079996,4.0091,-0.63001,-175.39,1842.2,6.7353,-2.2451,-0.59352,8.9805,3.9841e-11,-0.29676,0,0,0.066667,-0,-0,0.66667
0.89006,0.15945,13.351,-0.51082,-31.684,56.284,18.186,-6.0621,-1.0824,24.249,9.1792e-08,-0.54119,0,0,0.066667,-0,-0,0.66667
0.2903,0.47104,4.3545,-0.043437,-11.908,1745.4,0.50439,-0.16813,-1.9883,0.67251,1.2027e-11,-0.99416,0,0,0.066667,-0,-0,0.66667
0.79901,0.91405,11.985,0.62108,67.258,175.94,-19.85,6.6166,-0.63192,-26.466,-2.1225e-09,-0.31596,0,0,0.066667,-0,-0,0.66667
0.45986,0.085968,6.8979,-0.62105,-146.8,1089.2,11.424,-3.8079,-0.62273,15.232,8.2991e-12,-0.31136,0,0,0.066667,6.3159e-16,0,0.66667
0.59761,0.95646,8.9641,0.68469,131.98,641.32,-16.367,5.4557,-0.33125,-21.823,1.279e-12,-0.16562,0,0,0.066667,-6.3159e-16,0,0.66667
0.23667,0.95245,3.55,0.67867,192.13,1971.8,-6.4248,2.1416,-0.36481,-8.5663,2.1999e-10,-0.1824,0,0,0.066667,-3.158e-16,0,0.66667
0.68761,0.71755,10.314,0.32633,51.456,400.53,-8.9754,2.9918,-1.6339,-11.967,8.8818e-14,-0.81697,0,0,0.066667,4.737e-16,0,0.66667
0.14868,0.1198,2.2303,-0.5703,-167.17,2354.3,3.3918,-1.1306,-0.83771,4.5224,2.3588e-08,-0.41885,0,0,0.066667,8.8039e-17,0,0.66667
0.55969,0.78058,8.3953,0.42086,86.54,754.41,-9.4221,3.1407,-1.3726,-12.563,-1.3552e-11,-0.6863,0,0,0.066667,1.8967e-15,0,0.66667
0.49433,0.88877,7.4149,0.58315,132.06,968.58,-11.531,3.8436,-0.78562,-15.374,-2.2533e-12,-0.39281,0,0,0.066667,-0,-0,0.66667
0.83721,0.89265,12.558,0.58897,52.714,118.18,-19.723,6.5745,-0.76048,-26.298,-6.5452e-09,-0.38024,0,0,0.066667,-0,-0,0.66667
0.48147,0.80111,7.222,0.45167,103.92,1012.5,-8.6986,2.8995,-1.2753,-11.598,1.3653e-11,-0.63766,0,0,0.066667,-6.3159e-16,0,0.66667
0.78473,0.85756,11.771,0.53634,61.666,199.65,-16.835,5.6118,-0.97617,-22.447,-7.6574e-10,-0.48809,0,0,0.066667,-0,-0,0.66667
0.40029,0.63914,6.0044,0.20871,52.469,1307.7,-3.3419,1.114,-1.8395,-4.4559,8.0864e-12,-0.91975,0,0,0.066667,-6.3159e-16,0,0.66667
0.30791,0.64452,4.6186,0.21677,58.751,1673,-2.6698,0.88994,-1.8295,-3.5598,1.1629e-11,-0.91473,0,0,0.066667,-3.6463e-16,0,0.66667
0.78723,0.13407,11.808,-0.5489,-62.47,195.38,17.284,-5.7614,-0.9234,23.046,7.1951e-10,-0.4617,0,0,0.066667,-0,-0,0.66667
0.41846,0.55708,6.277,0.085616,21.138,1239.2,-1.4331,0.4777,-1.9738,-1.9108,5.177e-12,-0.9869,0,0,0.066667,-0,-0,0.66667
0.49677,0.43418,7.4515,-0.098732,-22.254,959.16,1.9619,-0.65396,-1.966,2.6158,1.1345e-11,-0.98301,0,0,0.066667,-6.3159e-16,0,0.66667
0.57732,0.25909,8.6598,-0.36137,-72.116,700.17,8.3451,-2.7817,-1.5441,11.127,8.8658e-12,-0.77203,0,0,0.066667,-0,-0,0.66667
0.81967,0.76601,12.295,0.39901,39.114,142.25,-13.082,4.3608,-1.4274,-17.443,-3.5027e-10,-0.71369,0,0,0.066667,-0,-0,0.66667
0.58132,0.42556,8.7198,-0.11166,-22.113,687.67,2.5963,-0.86543,-1.9555,3.4617,9.2748e-13,-0.97775,0,0,0.066667,6.3159e-16,0,0.66667
0.40614,0.76356,6.0921,0.39534,98.871,1285.9,-6.4225,2.1408,-1.4555,-8.5634,9.3614e-12,-0.72773,0,0,0.066667,-6.3159e-16,0,0.66667
0.16059,0.9862,2.4088,0.7293,213.13,2302,-4.6847,1.5616,-0.10583,-6.2462,1.1431e-10,-0.052917,0,0,0.066667,-3.158e-16,0,0.66667
0.70211,0.45597,10.532,-0.066047,-10.008,366.02,1.8549,-0.6183,-1.9917,2.4732,1.5224e-12,-0.99587,0,0,0.066667,-0,-0,0.66667
0.88323,0.45637,13.248,-0.065439,-4.2791,61.474,2.3119,-0.77063,-1.9782,3.0825,-3.0462e-09,-0.98911,0,0,0.066667,-1.2632e-15,0,0.66667
0.10838,0.86201,1.6257,0.54302,160.84,2533.4,-2.3541,0.78469,-0.95889,-3.1388,2.1554e-07,-0.47944,0,0,0.066667,-0,9.0335e-17,0.66667
0.46621,0.14011,6.9932,-0.53984,-126.6,1066.3,10.067,-3.3558,-0.96549,13.423,8.1544e-12,-0.48275,0,0,0.066667,6.3159e-16,0,0.66667
0.93454,0.80444,14.018,0.45665,17.182,21.555,-17.07,5.6901,-1.2593,-22.761,3.0393e-07,-0.62966,0,0,0.066667,6.3159e-16,0,0.66667
0.56351,0.462,8.4526,-0.056998,-11.637,741.9,1.2848,-0.42825,-1.9962,1.713,8.1704e-12,-0.99811,0,0,0.066667,-0,-0,0.66667
0.54525,0.84944,8.1788,0.52416,110.34,800.18,-11.432,3.8107,-1.0287,-15.243,6.9003e-12,-0.51433,0,0,0.066667,-0,-0,0.66667
0.063476,0.28965,0.95213,-0.31553,-94.125,2734.7,0.80113,-0.26704,-1.6537,1.0682,4.4473e-07,-0.82687,0,0,0.066667,-1.579e-16,0,0.66667
0.5353,0.3209,8.0295,-0.26865,-57.363,831.36,5.7523,-1.9174,-1.7413,7.6697,1.7746e-11,-0.87067,0,0,0.066667,-1.2632e-15,0,0.66667
0.65454,0.3904,9.8181,-0.16441,-28.1,482.65,4.3044,-1.4348,-1.9084,5.7393,-2.1898e-12,-0.9542,0,0,0.066667,1.2632e-15,0,0.66667
0.14659,0.15396,2.1989,-0.51906,-152.21,2363.5,3.0436,-1.0145,-1.0377,4.0581,-3.6946e-09,-0.51883,0,0,0.066667,1.579e-16,0,0.66667
0.95636,0.50805,14.345,0.012075,0.30219,9.3713,-0.46192,0.15397,-1.9995,-0.6159,9.9858e-07,-0.99974,0,0,0.066667,-0,-0,0.66667
0.19615,0.49968,2.9423,-0.00048224,-0.13882,2145.7,0.0037837,-0.0012612,-1.9952,0.0050449,1.5236e-10,-0.99759,0,0,0.066667,5.7732e-16,0,0.66667
0.67393,0.52099,10.109,0.031492,5.1383,433.39,-0.84892,0.28297,-2,-1.1319,1.9099e-12,-0.99998,0,0,0.066667,-0,-0,0.66667
0.27434,0.58863,4.1151,0.13294,36.805,1811.9,-1.4588,0.48627,-1.9315,-1.9451,2.2965e-11,-0.96575,0,0,0.066667,-0,-0,0.66667
0.10843,0.35218,1.6265,-0.22172,-65.617,2533,0.96167,-0.32056,-1.833,1.2822,2.3691e-08,-0.91652,0,0,0.066667,-0,-0,0.66667
0.2609,0.33691,3.9135,-0.24463,-68.266,1868.4,2.553,-0.85099,-1.784,3.404,1.5777e-11,-0.89198,0,0,0.066667,1.579e-16,0,0.66667
0.33415,0.77339,5.0123,0.41008,109.12,1566.8,-5.4812,1.8271,-1.3968,-7.3082,7.6201e-12,-0.69839,0,0,0.066667,-3.158e-16,0,0.66667
0.46473,0.93001,6.971,0.64502,151.62,1071.9,-11.99,3.9968,-0.51882,-15.987,2.108e-11,-0.25941,0,0,0.066667,6.3159e-16,0,0.66667
0.23436,0.72636,3.5153,0.33954,96.109,1981.2,-3.1829,1.061,-1.6021,-4.2439,3.2472e-11,-0.80105,0,0,0.066667,-0,-0,0.66667
0.7275,0.094182,10.913,-0.60873,-85.844,311.38,17.714,-5.9047,-0.6777,23.619,8.6429e-11,-0.33885,0,0,0.066667,-0,-0,0.66667
0.80719,0.53525,12.108,0.052868,5.4958,160.65,-1.707,0.569,-1.9862,-2.276,-3.9515e-11,-0.99311,0,0,0.066667,-0,-0,0.66667
0.79098,0.92435,11.865,0.63652,71.382,189.49,-20.139,6.713,-0.55389,-26.852,1.4463e-09,-0.27694,0,0,0.066667,-1.2632e-15,0,0.66667
0.71575,0.49834,10.736,-0.0024972,-0.36391,335.18,0.071495,-0.023832,-2.0016,0.095327,-8.9786e-12,-1.0008,0,0,0.066667,2.0527e-15,0,0.66667
0.26964,0.72303,4.0446,0.33455,92.91,1831.7,-3.6083,1.2028,-1.6006,-4.8111,2.1927e-11,-0.8003,0,0,0.066667,-0,-0,0.66667
0.21046,0.52258,3.1569,0.033873,9.6921,2083.7,-0.28515,0.095051,-1.9897,-0.3802,5.4951e-11,-0.99483,0,0,0.066667,-0,-0,0.66667
0.10913,0.33713,1.6369,-0.24431,-72.291,2529.8,1.0664,-0.35548,-1.7989,1.4219,2.2008e-08,-0.89943,0,0,0.066667,-1.579e-16,0,0.66667
0.39668,0.4187,5.9502,-0.12195,-30.759,1321.4,1.935,-0.645,-1.9414,2.58,-1.4506e-12,-0.97072,0,0,0.066667,6.3159e-16,0,0.66667
0.087267,0.25741,1.309,-0.36388,-108.17,2627.8,1.2702,-0.4234,-1.5235,1.6936,-2.166e-08,-0.76177,0,0,0.066667,-0,-0,0.66667
0.65539,0.69228,9.8308,0.28842,49.216,480.7,-7.5611,2.5204,-1.7129,-10.081,-2.0841e-12,-0.85644,0,0,0.066667,-0,-0,0.66667
0.94983,0.2142,14.247,-0.4287,-12.413,13.368,16.288,-5.4292,-1.3469,21.717,-1.0761e-06,-0.67343,0,0,0.066667,1.8256e-15,0,0.66667
0.75563,0.7108,11.334,0.31621,40.546,252.52,-9.5575,3.1858,-1.6397,-12.743,-1.3838e-12,-0.81983,0,0,0.066667,6.3159e-16,0,0.66667
0.11689,0.275,1.7534,-0.33749,-99.707,2495.2,1.578,-0.526,-1.589,2.104,-1.5914e-08,-0.79449,0,0,0.066667,-0,-0,0.66667
0.020481,0.45033,0.30722,-0.074498,-22.297,2928.7,0.061032,-0.020345,-1.9763,0.081376,-9.2001e-07,-0.98813,0,0,0.066667,3.9475e-17,0,0.66667
0.33489,0.45488,5.0233,-0.067687,-17.99,1563.5,0.9067,-0.30223,-1.9774,1.2089,1.245e-11,-0.98869,0,0,0.066667,-3.9659e-16,0,0.66667
0.99288,0.53825,14.893,0.057381,0.2111,0.40104,-2.2789,0.75963,-1.9823,-3.0385,8.7339e-07,-0.99114,0,0,0.066667,-0,-0,0.66667
0.31283,0.21314,4.6925,-0.43029,-116.29,1653.2,5.3844,-1.7948,-1.3525,7.1792,3.1475e-11,-0.67625,0,0,0.066667,-0,-0,0.66667
0.73751,0.49241,11.063,-0.011388,-1.5515,288.51,0.33595,-0.11198,-1.9999,0.44794,-1.1692e-11,-0.99994,0,0,0.066667,1.8948e-15,0,0.66667
0.71653,0.9375,10.748,0.65624,95.706,335.51,-18.809,6.2696,-0.47319,-25.078,3.1541e-11,-0.2366,0,0,0.066667,-1.5113e-15,0,0.66667
0.57256,0.67636,8.5884,0.26453,53.209,714.39,-6.0584,2.0195,-1.7462,-8.0779,-5.5129e-12,-0.87308,0,0,0.066667,6.3159e-16,0,0.66667
0.36765,0.69952,5.5147,0.29928,77.501,1433.8,-4.4011,1.467,-1.675,-5.8681,8.1948e-12,-0.83751,0,0,0.066667,6.3159e-16,0,0.66667
0.20827,0.14151,3.124,-0.53773,-154.17,2093.6,4.4796,-1.4932,-0.96737,5.9728,-2.3932e-10,-0.48369,0,0,0.066667,-3.158e-16,0,0.66667
0.98,0.36891,14.7,-0.19664,-2.2293,2.466,7.7084,-2.5694,-1.86,10.278,2.7993e-06,-0.93001,0,0,0.066667,-5.1317e-17,0,0.66667
0.065894,0.74339,0.98841,0.36508,108.89,2723.8,-0.96227,0.32076,-1.5258,-1.283,-4.6847e-07,-0.76292,0,0,0.066667,7.8949e-17,0,0.66667
0.23623,0.81295,3.5434,0.46942,132.8,1973.3,-4.4356,1.4785,-1.2221,-5.9141,3.2627e-12,-0.61106,0,0,0.066667,-0,-0,0.66667
0.3089,0.77446,4.6335,0.41169,111.56,1669.2,-5.0869,1.6956,-1.3966,-6.7825,1.1967e-11,-0.69828,0,0,0.066667,-0,-0,0.66667
0.9095,0.47248,13.643,-0.041282,-2.1161,37.675,1.5018,-0.50062,-1.9945,2.0025,-2.4195e-08,-0.99725,0,0,0.066667,-0,-0,0.66667
0.71337,0.74036,10.701,0.36054,52.957,341.09,-10.288,3.4293,-1.5332,-13.717,5.9419e-13,-0.76658,0,0,0.066667,-0,-0,0.66667
0.26537,0.87586,3.9806,0.56379,157.08,1850,-5.9846,1.9949,-0.88182,-7.9794,-2.0038e-11,-0.44091,0,0,0.066667,-0,-0,0.66667
0.1645,0.15509,2.4675,-0.51737,-150.85,2284.5,3.4043,-1.1348,-1.0431,4.5391,4.7966e-09,-0.52157,0,0,0.066667,-3.5527e-16,0,0.66667
0.8805,0.82132,13.207,0.48199,32.329,65.607,-16.976,5.6585,-1.1693,-22.634,1.6332e-08,-0.58463,0,0,0.066667,-0,-0,0.66667
0.79378,0.65352,11.907,0.23028,25.433,182.87,-7.3118,2.4373,-1.8126,-9.749,-2.2577e-11,-0.90631,0,0,0.066667,-1.6598e-15,0,0.66667
0.038387,0.32472,0.57581,-0.26292,-78.624,2847.8,0.40371,-0.13457,-1.7478,0.53827,1.046e-06,-0.87389,0,0,0.066667,-0,-0,0.66667
0.8793,0.76816,13.19,0.40224,27.205,66.432,-14.148,4.7159,-1.4218,-18.864,-2.2492e-08,-0.7109,0,0,0.066667,-0,-0,0.66667
0.58794,0.79362,8.8191,0.44043,86.286,668.64,-10.358,3.4526,-1.3049,-13.81,2.2826e-13,-0.65246,0,0,0.066667,-0,-0,0.66667
0.45754,0.80761,6.8631,0.46142,109.28,1096.9,-8.4447,2.8149,-1.2406,-11.26,8.6251e-12,-0.6203,0,0,0.066667,-3.158e-16,0,0.66667
0.67385,0.025757,10.108,-0.71136,-116.46,435.84,19.174,-6.3914,-0.20501,25.566,2.8084e-12,-0.1025,0,0,0.066667,-0,-0,0.66667
0.039443,0.69116,0.59164,0.28674,85.745,2843,-0.45239,0.1508,-1.702,-0.60319,-1.5714e-06,-0.85102,0,0,0.066667,-0,-0,0.66667
0.33032,0.82292,4.9548,0.48437,129.29,1582.4,-6.4,2.1333,-1.1688,-8.5333,-4.591e-12,-0.58439,0,0,0.066667,-0,-0,0.66667
0.088048,0.50142,1.3207,0.0021283,0.6323,2624.2,-0.0074958,0.0024987,-1.9961,-0.0099944,1.0283e-07,-0.99803,0,0,0.066667,-0,-0,0.66667
0.68364,0.18775,10.255,-0.46838,-74.676,410.61,12.808,-4.2693,-1.2197,17.077,8.3276e-12,-0.60983,0,0,0.066667,-0,-0,0.66667
0.39801,0.78264,5.9702,0.42395,106.87,1316.8,-6.7496,2.2499,-1.3557,-8.9994,7.7613e-12,-0.67787,0,0,0.066667,-1.2632e-15,0,0.66667
0.47895,0.36755,7.1843,-0.19868,-45.822,1020.7,3.8063,-1.2688,-1.8552,5.075,5.9652e-12,-0.92758,0,0,0.066667,-0,-0,0.66667
0.2898,0.83643,4.3471,0.50465,138.52,1748,-5.8499,1.95,-1.0885,-7.7999,3.0831e-11,-0.54424,0,0,0.066667,-1.442e-16,0,0.66667
0.78829,0.78435,11.824,0.42652,48.275,192.91,-13.449,4.483,-1.3478,-17.932,7.1402e-11,-0.67388,0,0,0.066667,-0,-0,0.66667
0.046513,0.38134,0.69769,-0.17799,-53.183,2811.1,0.33115,-0.11038,-1.8979,0.44153,5.019e-07,-0.94897,0,0,0.066667,-0,-0,0.66667
0.28113,0.51985,4.2169,0.029777,8.2098,1783.5,-0.33485,0.11162,-2.008,-0.44646,1.2816e-11,-1.004,0,0,0.066667,-0,-0,0.66667
0.5906,0.81796,8.8589,0.47693,93.008,660.92,-11.267,3.7557,-1.1918,-15.023,-1.0157e-11,-0.5959,0,0,0.066667,1.2632e-15,0,0.66667
0.79013,0.95734,11.852,0.686,77.252,191.27,-21.681,7.2271,-0.32055,-28.909,1.6705e-10,-0.16027,0,0,0.066667,-0,-0,0.66667
0.6016,0.47447,9.024,-0.038298,-7.3089,627.87,0.92161,-0.3072,-1.9888,1.2288,8.5029e-12,-0.9944,0,0,0.066667,-0,-0,0.66667
0.73049,0.70496,10.957,0.30744,42.867,303.69,-8.9834,2.9945,-1.6619,-11.978,5.3735e-13,-0.83095,0,0,0.066667,-0,-0,0.66667
0.023528,0.064396,0.35292,-0.65341,-195.82,2915,0.61493,-0.20504,-0.4766,0.81987,-9.9764e-05,-0.2383,0,0,0.066667,-0,-0,0.66667
0.25492,0.46422,3.8239,-0.053665,-15.022,1893.5,0.54722,-0.18241,-1.9865,0.72963,-2.1463e-12,-0.99323,0,0,0.066667,1.579e-16,0,0.66667
0.042092,0.78866,0.63138,0.43298,129.5,2831.1,-0.729,0.243,-1.33,-0.972,-6.5212e-06,-0.66499,0,0,0.066667,-0,-0,0.66667
0.50001,0.50244,7.5002,0.0036639,0.82222,948.08,-0.07328,0.024427,-2.0127,-0.097706,-2.255e-11,-1.0064,0,0,0.066667,2.5264e-15,0,0.66667
0.98914,0.90718,14.837,0.61078,3.838,3.2193,-24.166,8.0553,-0.6712,-32.221,0.00011471,-0.3356,0,0,0.066667,-0,-0,0.66667
0.013531,0.76749,0.20296,0.40124,120.18,2960.1,-0.21715,0.072379,-1.4307,-0.28954,-6.7695e-06,-0.71537,0,0,0.066667,-1.6023e-17,0,0.66667
0.44088,0.33311,6.6132,-0.25033,-60.371,1156.7,4.4146,-1.4715,-1.7766,5.8861,3.6104e-13,-0.8883,0,0,0.066667,6.3159e-16,0,0.66667
0.0047864,0.10515,0.071796,-0.59228,-177.55,2999.6,0.11338,-0.037787,-0.74902,0.15118,1.1595e-05,-0.37451,0,0,0.066667,-9.8686e-18,0,0.66667
0.61289,0.027611,9.1933,-0.70858,-132.68,597.61,17.371,-5.7904,-0.21467,23.162,8.7734e-12,-0.10733,0,0,0.066667,-6.3159e-16,0,0.66667
0.18336,0.69746,2.7504,0.29619,85.724,2201.6,-2.1724,0.72413,-1.6857,-2.8965,-2.2367e-10,-0.84283,0,0,0.066667,-0,-0,0.66667
0.71274,0.82461,10.691,0.48692,71.704,343,-13.882,4.6273,-1.1514,-18.509,2.6468e-13,-0.57571,0,0,0.066667,-1.2632e-15,0,0.66667
0.15965,0.53158,2.3947,0.047376,13.823,2305.5,-0.30254,0.10085,-1.9928,-0.40339,-4.425e-11,-0.99641,0,0,0.066667,6.3159e-16,0,0.66667
0.82858,0.085825,12.429,-0.62126,-58.309,130.46,20.59,-6.8635,-0.63768,27.454,1.6853e-08,-0.31884,0,0,0.066667,-0,-0,0.66667
0.20618,0.40713,3.0927,-0.1393,-39.936,2102.2,1.1489,-0.38295,-1.9326,1.5318,-1.9381e-11,-0.96632,0,0,0.066667,-0,-0,0.66667
0.35222,0.51707,5.2832,0.025604,6.7134,1494.3,-0.36073,0.12024,-1.9911,-0.48097,-6.3143e-12,-0.99557,0,0,0.066667,1.2632e-15,0,0.66667
0.23058,0.27093,3.4587,-0.34361,-97.443,1997.3,3.1691,-1.0564,-1.5786,4.2255,-3.6251e-11,-0.78928,0,0,0.066667,-0,-0,0.66667
0.80768,0.74374,12.115,0.3656,37.968,160.57,-11.812,3.9372,-1.5214,-15.749,-1.1754e-10,-0.76069,0,0,0.066667,1.2632e-15,0,0.66667
0.49027,0.032144,7.354,-0.70178,-159.88,982.99,13.763,-4.5875,-0.24484,18.35,-1.3507e-11,-0.12242,0,0,0.066667,-0,-0,0.66667
0.87383,0.81098,13.108,0.46648,32.918,72.567,-16.305,5.435,-1.2343,-21.74,4.4383e-09,-0.61714,0,0,0.066667,-4.737e-16,0,0.66667
0.13009,0.090971,1.9513,-0.61354,-180.83,2436.7,3.1925,-1.0642,-0.65827,4.2567,-4.0282e-08,-0.32914,0,0,0.066667,1.9737e-16,0,0.66667
0.49896,0.47162,7.4844,-0.042576,-9.5682,951.67,0.84975,-0.28325,-2.0018,1.133,1.5002e-11,-1.0009,0,0,0.066667,-0,-0,0.66667
0.77661,0.80209,11.649,0.45314,53.783,213.65,-14.076,4.6921,-1.2665,-18.769,-3.2613e-11,-0.63324,0,0,0.066667,-6.3159e-16,0,0.66667
0.98121,0.96932,14.718,0.70397,7.813,5.2201,-27.63,9.21,-0.23923,-36.84,-5.4571e-05,-0.11961,0,0,0.066667,-0,-0,0.66667
0.67338,0.02095,10.101,-0.71858,-117.79,437.06,19.355,-6.4516,-0.16956,25.807,-8.5976e-13,-0.084779,0,0,0.066667,-0,-0,0.66667
0.183,0.38086,2.745,-0.1787,-51.718,2203.1,1.3081,-0.43604,-1.8837,1.7442,8.0532e-12,-0.94187,0,0,0.066667,-0,-0,0.66667
0.75977,0.56098,11.397,0.091473,11.548,244.04,-2.78,0.92665,-1.9661,-3.7066,-4.2248e-12,-0.98306,0,0,0.066667,-1.7369e-15,0,0.66667
0.074635,0.33789,1.1195,-0.24317,-72.417,2684.5,0.72595,-0.24198,-1.7894,0.96794,2.7906e-07,-0.89468,0,0,0.066667,-3.9475e-17,0,0.66667
0.76277,0.55075,11.442,0.076118,9.5052,238.29,-2.3224,0.77414,-1.9802,-3.0966,-5.7419e-12,-0.99011,0,0,0.066667,1.2632e-15,0,0.66667
0.82782,0.7945,12.417,0.44176,41.541,130.49,-14.628,4.8759,-1.3164,-19.504,1.6051e-09,-0.6582,0,0,0.066667,-1.2632e-15,0,0.66667
0.55921,0.024074,8.3881,-0.71389,-147.15,757.13,15.969,-5.3229,-0.18791,21.291,-9.8055e-13,-0.093957,0,0,0.066667,-0,-0,0.66667
0.49272,0.55737,7.3908,0.086054,19.499,972.99,-1.696,0.56534,-1.9679,-2.2614,-8.6225e-12,-0.98393,0,0,0.066667,-0,-0,0.66667
0.93653,0.075036,14.048,-0.63745,-23.402,21.632,23.879,-7.9598,-0.56269,31.839,5.7851e-06,-0.28134,0,0,0.066667,-0,-0,0.66667
9.6951e-05,0.66354,0.0014543,0.2453,73.464,3020.8,-0.00094911,0.00031352,-1.7977,-0.0012669,-4.2776e-06,-0.89886,0,0,0.066667,-0,-2.0578e-16,0.66667
0.0095669,0.8698,0.1435,0.55471,166.25,2978,-0.21226,0.070709,-0.90097,-0.28303,-6.4154e-05,-0.45048,0,0,0.066667,-1.4803e-17,0,0.66667
0.25195,0.53254,3.7793,0.048806,13.684,1906.1,-0.49187,0.16396,-1.9966,-0.65583,1.7289e-11,-0.9983,0,0,0.066667,-6.3159e-16,0,0.66667
0.50568,0.16472,7.5851,-0.50291,-112.13,929.77,10.172,-3.3908,-1.0958,13.563,4.7526e-12,-0.54789,0,0,0.066667,-0,-0,0.66667
0.54042,0.17315,8.1062,-0.49027,-103.96,815.5,10.598,-3.5327,-1.1392,14.131,9.0798e-12,-0.56962,0,0,0.066667,6.3159e-16,0,0.66667
0.37129,0.02789,5.5694,-0.70817,-183.12,1420.6,10.517,-3.5058,-0.21633,14.023,1.1944e-11,-0.10817,0,0,0.066667,-3.158e-16,-3.0306e-17,0.66667
0.29271,0.66384,4.3907,0.24577,67.285,1735.6,-2.8775,0.95918,-1.783,-3.8367,1.0819e-11,-0.89151,0,0,0.066667,-0,-0,0.66667
0.20237,0.94452,3.0355,0.66678,191.76,2119.3,-5.3974,1.7991,-0.428,-7.1965,6.2776e-09,-0.214,0,0,0.066667,-0,-0,0.66667
0.80028,0.0095423,12.004,-0.73569,-79.338,174.67,23.55,-7.8501,-0.075019,31.4,-1.8911e-09,-0.037509,0,0,0.066667,-0,-0,0.66667
0.31592,0.62313,4.7388,0.18469,49.776,1640.2,-2.3339,0.77797,-1.8792,-3.1119,1.7411e-11,-0.93958,0,0,0.066667,7.8949e-17,0,0.66667
0.49247,0.70933,7.387,0.31399,71.201,974.15,-6.1852,2.0617,-1.6431,-8.247,-8.0194e-12,-0.82154,0,0,0.066667,6.3159e-16,0,0.66667
0.81129,0.57736,12.169,0.11603,11.832,154.25,-3.7655,1.2552,-1.9585,-5.0206,-2.5973e-11,-0.97927,0,0,0.066667,-0,-0,0.66667
0.61236,0.76847,9.1854,0.40271,75.342,597.72,-9.8641,3.288,-1.4238,-13.152,8.2006e-12,-0.71188,0,0,0.066667,-0,-0,0.66667
0.40861,0.58763,6.1291,0.13144,32.775,1276.2,-2.1483,0.71611,-1.9415,-2.8644,-8.5039e-12,-0.97073,0,0,0.066667,-0,-0,0.66667
0.1769,0.2461,2.6536,-0.38085,-110.51,2229.9,2.6949,-0.89831,-1.4809,3.5932,6.195e-12,-0.74045,0,0,0.066667,7.8949e-17,0,0.66667
0.39765,0.54835,5.9648,0.072522,18.274,1317.7,-1.1535,0.38452,-1.9748,-1.5381,1.3037e-11,-0.98741,0,0,0.066667,-0,-0,0.66667
0.48521,0.072983,7.2782,-0.64053,-146.82,1000.2,12.432,-4.1439,-0.54936,16.576,5.5698e-12,-0.27468,0,0,0.066667,-1.2632e-15,0,0.66667
0.99058,0.50395,14.859,0.005929,0.029873,0.59781,-0.23493,0.078311,-1.9949,-0.31323,4.0439e-06,-0.99746,0,0,0.066667,-0,-0,0.66667
0.2842,0.34423,4.2629,-0.23366,-64.313,1770.9,2.6562,-0.8854,-1.8079,3.5416,1.5232e-11,-0.90396,0,0,0.066667,-0,-0,0.66667
0.16564,0.37379,2.4846,-0.18931,-55.132,2279.2,1.2543,-0.4181,-1.8681,1.6724,-1.6937e-10,-0.93405,0,0,0.066667,3.5527e-16,0,0.66667
0.22058,0.77582,3.3086,0.41373,117.91,2040.3,-3.6504,1.2168,-1.3962,-4.8672,-4.6527e-11,-0.69809,0,0,0.066667,3.158e-16,0,0.66667
0.21147,0.9348,3.172,0.65219,186.82,2079.9,-5.5167,1.8389,-0.4822,-7.3556,-4.1192e-09,-0.2411,0,0,0.066667,-3.9475e-16,0,0.66667
0.076048,0.51227,1.1407,0.018412,5.481,2678.1,-0.056009,0.01867,-2.0021,-0.074679,-1.3114e-07,-1.001,0,0,0.066667,-0,-0,0.66667
0.36491,0.34747,5.4736,-0.22879,-59.376,1444.4,3.3395,-1.1132,-1.8098,4.4526,1.112e-11,-0.90488,0,0,0.066667,-0,-0,0.66667
0.28473,0.46319,4.271,-0.055211,-15.188,1768.5,0.62882,-0.20961,-1.9888,0.83842,1.482e-11,-0.99441,0,0,0.066667,-0,-0,0.66667
0.88759,0.059514,13.314,-0.66073,-41.973,59.704,23.458,-7.8194,-0.44907,31.278,-7.1166e-08,-0.22453,0,0,0.066667,-1.579e-15,0,0.66667
0.78026,0.49029,11.704,-0.014563,-1.7006,206.04,0.45452,-0.15151,-2.0068,0.60603,2.2805e-11,-1.0034,0,0,0.066667,-1.8948e-15,0,0.66667
0.10906,0.92227,1.636,0.63341,187.66,2530.4,-2.7633,0.92111,-0.58369,-3.6844,1.2959e-07,-0.29185,0,0,0.066667,1.579e-16,-7.8898e-17,0.66667
0.8505,0.95279,12.758,0.67918,56.296,101.35,-23.106,7.7019,-0.35354,-30.808,-1.8095e-08,-0.17677,0,0,0.066667,-1.2632e-15,0,0.66667
0.1096,0.88191,1.644,0.57287,169.66,2527.9,-2.5114,0.83714,-0.84428,-3.3486,2.3319e-07,-0.42214,0,0,0.066667,-0,-0,0.66667
0.72021,0.23833,10.803,-0.39251,-56.508,326.11,11.308,-3.7692,-1.4578,15.077,-8.0567e-12,-0.72888,0,0,0.066667,1.2632e-15,0,0.66667
0.57282,0.33338,8.5924,-0.24993,-50.247,713.54,5.7267,-1.9089,-1.7733,7.6356,1.299e-11,-0.88665,0,0,0.066667,-0,-0,0.66667
0.086808,0.87481,1.3021,0.56221,167.25,2629.9,-1.9522,0.65073,-0.87137,-2.6029,-2.5384e-07,-0.43569,0,0,0.066667,-3.2073e-17,0,0.66667
0.90533,0.45149,13.58,-0.072758,-3.8952,41.103,2.6348,-0.87826,-1.9888,3.5131,-1.4239e-08,-0.99438,0,0,0.066667,1.2632e-15,0,0.66667
0.87457,0.84426,13.118,0.51639,36.267,72.061,-18.065,6.0215,-1.0632,-24.086,3.4947e-08,-0.53158,0,0,0.066667,-2.5264e-15,0,0.66667
0.84385,0.23736,12.658,-0.39396,-33.862,108.2,13.298,-4.4326,-1.4594,17.731,2.8343e-09,-0.72969,0,0,0.066667,-1.2632e-15,0,0.66667
0.36957,0.5191,5.5435,0.028647,7.4037,1426.1,-0.42348,0.14116,-1.9922,-0.56464,1.1293e-11,-0.9961,0,0,0.066667,-1.2632e-15,0,0.66667
0.22295,0.43047,3.3443,-0.10429,-29.672,2029.9,0.93005,-0.31002,-1.9591,1.2401,1.7025e-11,-0.97954,0,0,0.066667,-0,-0,0.66667
0.99711,0.50527,14.957,0.0079011,0.0090577,0.099559,-0.31513,0.10503,-2.0011,-0.42018,-1.7837e-05,-1.0006,0,0,0.066667,-0,-0,0.66667
0.81734,0.080668,12.26,-0.629,-62.531,147.04,20.564,-6.8547,-0.58931,27.419,-1.3845e-08,-0.29466,0,0,0.066667,1.2632e-15,0,0.66667
0.042128,0.96095,0.63192,0.69142,207,2831,-1.1651,0.38834,-0.29677,-1.5535,-6.5057e-05,-0.14838,0,0,0.066667,-0,-0,0.66667
0.37328,0.13563,5.5992,-0.54655,-140.97,1412.3,8.1606,-2.7202,-0.94253,10.881,1.2172e-11,-0.47126,0,0,0.066667,-0,-0,0.66667
0.81219,0.50778,12.183,0.011666,1.1843,152.79,-0.37898,0.12633,-2.0101,-0.50531,-1.802e-10,-1.0051,0,0,0.066667,-0,-0,0.66667
0.52838,0.49377,7.9258,-0.0093479,-2.016,853.57,0.19757,-0.065857,-2.001,0.26343,8.0189e-12,-1.0005,0,0,0.066667,-9.4739e-16,0,0.66667
0.24713,0.68265,3.707,0.27397,77.032,1926.7,-2.7082,0.90275,-1.7346,-3.611,2.4751e-11,-0.8673,0,0,0.066667,3.158e-16,0,0.66667
0.79289,0.23283,11.893,-0.40076,-44.477,184.95,12.71,-4.2368,-1.4267,16.947,-1.8714e-11,-0.71334,0,0,0.066667,1.2632e-15,0,0.66667
0.26175,0.72137,3.9263,0.33205,92.635,1864.9,-3.4766,1.1589,-1.6071,-4.6355,2.2206e-11,-0.80356,0,0,0.066667,6.3159e-16,0,0.66667
0.00039838,0.38209,0.0059757,-0.17686,-52.96,3019.4,0.0028169,-0.00093649,-1.8991,0.0037572,3.7336e-06,-0.94956,0,0,0.066667,-0,-0,0.66667
0.23132,0.81532,3.4698,0.47298,134.13,1994.3,-4.3763,1.4588,-1.2059,-5.8351,2.8656e-11,-0.60293,0,0,0.066667,6.3159e-16,0,0.66667
0.99337,0.47712,14.901,-0.034323,-0.1161,0.34612,1.3638,-0.45461,-1.9899,1.8184,-8.3549e-08,-0.99496,0,0,0.066667,-0,-0,0.66667
0.6562,0.28182,9.843,-0.32727,-55.75,478.71,8.5902,-2.8634,-1.6322,11.454,-5.1674e-12,-0.81609,0,0,0.066667,2.5264e-15,0,0.66667
0.22067,0.98312,3.31,0.72468,206.79,2040.4,-6.3965,2.1322,-0.13655,-8.5287,2.3366e-10,-0.068273,0,0,0.066667,3.158e-16,0,0.66667
0.68614,0.8728,10.292,0.55921,88.637,405.01,-15.348,5.1159,-0.89522,-20.464,1.5161e-12,-0.44761,0,0,0.066667,3.158e-16,-6.8243e-17,0.66667
0.68694,0.31488,10.304,-0.27768,-43.854,402.02,7.6299,-2.5433,-1.7362,10.173,4.5732e-12,-0.86808,0,0,0.066667,-0,-0,0.66667
0.64074,0.58544,9.6111,0.12817,22.592,518.95,-3.2849,1.095,-1.9531,-4.3798,2.8999e-12,-0.97653,0,0,0.066667,-0,-0,0.66667
0.070549,0.94505,1.0582,0.66758,199.2,2703,-1.8839,0.62795,-0.40921,-2.5118,-7.8219e-06,-0.2046,0,0,0.066667,-0,-0,0.66667
0.24296,0.21133,3.6445,-0.43301,-122.07,1944.6,4.2082,-1.4027,-1.3273,5.611,3.6912e-11,-0.66366,0,0,0.066667,-3.158e-16,0,0.66667
0.87084,0.17019,13.063,-0.49472,-35.701,76.007,17.233,-5.7443,-1.1271,22.977,-8.4886e-09,-0.56356,0,0,0.066667,1.2632e-15,0,0.66667
0.73474,0.14917,11.021,-0.52624,-72.49,295.63,15.466,-5.1553,-1.0258,20.621,-9.7282e-12,-0.51292,0,0,0.066667,6.3159e-16,0,0.66667
0.16782,0.72634,2.5172,0.33951,98.826,2269.7,-2.279,0.75966,-1.5882,-3.0386,-6.3153e-11,-0.79409,0,0,0.066667,-3.158e-16,0,0.66667
0.29859,0.30533,4.4788,-0.29201,-79.648,1711.4,3.4876,-1.1625,-1.7018,4.6502,2.4713e-11,-0.8509,0,0,0.066667,-3.158e-16,0,0.66667
0.56272,0.36168,8.4408,-0.20748,-42.422,744.49,4.6701,-1.5567,-1.8576,6.2268,9.4142e-12,-0.9288,0,0,0.066667,-0,-0,0.66667
0.82645,0.99167,12.397,0.73751,70.12,134.39,-24.381,8.1268,-0.071035,-32.507,3.4231e-09,-0.035518,0,0,0.066667,9.7871e-16,0,0.66667
0.20052,0.16403,3.0077,-0.50395,-144.95,2127.1,4.042,-1.3473,-1.0989,5.3894,1.424e-09,-0.54944,0,0,0.066667,-0,-0,0.66667
0.10167,0.99874,1.525,0.74812,222.11,2563.5,-3.0423,1.0141,-0.0048133,-4.0564,7.6967e-07,-0.0024067,0,0,0.066667,7.8949e-17,0,0.66667
0.38187,0.53458,5.728,0.051867,13.261,1378.3,-0.79226,0.26409,-1.9851,-1.0563,2.8878e-11,-0.99254,0,0,0.066667,-1.2632e-15,0,0.66667
0.91235,0.24369,13.685,-0.38447,-19.167,36.32,14.031,-4.6769,-1.4692,18.708,1.4558e-08,-0.73462,0,0,0.066667,-0,-0,0.66667
0.26051,0.52966,3.9077,0.044484,12.414,1869.9,-0.46355,0.15452,-1.9899,-0.61806,1.5644e-11,-0.99493,0,0,0.066667,-3.158e-16,0,0.66667
0.1083,0.56559,1.6246,0.098388,29.114,2533.5,-0.42623,0.14208,-1.9736,-0.56831,-1.4424e-08,-0.98682,0,0,0.066667,3.158e-16,0,0.66667
0.055943,0.15873,0.83914,-0.51191,-152.93,2768.7,1.1455,-0.38184,-1.0633,1.5273,-2.6075e-06,-0.53163,0,0,0.066667,-0,-0,0.66667
0.35167,0.32482,5.2751,-0.26277,-68.948,1496.7,3.6964,-1.2321,-1.7479,4.9285,-3.7175e-12,-0.87395,0,0,0.066667,-6.3159e-16,0,0.66667
0.037627,0.37532,0.5644,-0.18702,-55.924,2851.2,0.28148,-0.093826,-1.8712,0.3753,3.102e-07,-0.93561,0,0,0.066667,-0,-0,0.66667
0.58303,0.57185,8.7455,0.10778,21.282,682.54,-2.5136,0.83787,-1.9548,-3.3515,1.5048e-12,-0.97741,0,0,0.066667,-0,-0,0.66667
0.67256,0.39057,10.088,-0.16415,-26.879,436.9,4.416,-1.472,-1.9128,5.888,9.9289e-12,-0.95639,0,0,0.066667,-1.2632e-15,0,0.66667
0.46048,0.89103,6.9073,0.58654,138.52,1086.8,-10.804,3.6012,-0.77017,-14.405,7.3967e-12,-0.38508,0,0,0.066667,-0,-0,0.66667
0.74112,0.92567,11.117,0.6385,86.238,283.08,-18.928,6.3094,-0.54422,-25.238,-9.6517e-11,-0.27211,0,0,0.066667,-1.2632e-15,0,0.66667
0.50102,0.1426,7.5154,-0.53611,-120.31,945.6,10.744,-3.5814,-0.98528,14.325,1.1742e-12,-0.49264,0,0,0.066667,-0,-0,0.66667
0.70235,0.51993,10.535,0.029896,4.5271,365.45,-0.8399,0.27997,-2.0051,-1.1199,8.5515e-13,-1.0026,0,0,0.066667,-0,-0,0.66667
0.23064,0.34984,3.4596,-0.22524,-63.858,1996.9,2.078,-0.69267,-1.8186,2.7707,1.0516e-11,-0.90928,0,0,0.066667,-6.3159e-16,0,0.66667
0.74461,0.047222,11.169,-0.67917,-90.71,276.23,20.229,-6.7429,-0.35503,26.972,3.3365e-11,-0.17751,0,0,0.066667,1.2632e-15,0,0.66667
0.50164,0.77911,7.5246,0.41867,93.826,943.16,-8.4007,2.8002,-1.3828,-11.201,6.3265e-12,-0.69141,0,0,0.066667,-0,-0,0.66667
0.70537,0.68015,10.581,0.27022,40.595,358.87,-7.6243,2.5414,-1.7435,-10.166,-3.6122e-12,-0.87174,0,0,0.066667,-0,-0,0.66667
0.4467,0.08029,6.7005,-0.62956,-151.07,1136.5,11.249,-3.7497,-0.58469,14.999,-9.4325e-12,-0.29234,0,0,0.066667,6.3159e-16,0,0.66667
0.50594,0.34805,7.5891,-0.22793,-50.755,928.2,4.6128,-1.5376,-1.8106,6.1504,1.8067e-11,-0.90528,0,0,0.066667,-0,-0,0.66667
0.041535,0.68024,0.62303,0.27035,80.829,2833.6,-0.44917,0.14972,-1.7358,-0.59889,-1.5822e-06,-0.86789,0,0,0.066667,-0,-0,0.66667
0.48931,0.53802,7.3396,0.057029,12.979,984.7,-1.1162,0.37207,-1.9848,-1.4883,-1.4644e-11,-0.9924,0,0,0.066667,1.2632e-15,0,0.66667
0.14229,0.87903,2.1343,0.56854,166.97,2382.6,-3.2359,1.0786,-0.85631,-4.3145,2.677e-08,-0.42816,0,0,0.066667,-0,-0,0.66667
0.1425,0.33311,2.1374,-0.25034,-73.447,2381.4,1.4269,-0.47563,-1.7813,1.9025,5.2033e-11,-0.89063,0,0,0.066667,-0,-0,0.66667
0.43335,0.40162,6.5003,-0.14758,-35.876,1184.1,2.5581,-0.85269,-1.9208,3.4108,8.5909e-13,-0.96038,0,0,0.066667,7.8949e-16,0,0.66667
0.57621,0.92844,8.6432,0.64267,128.69,704.6,-14.813,4.9375,-0.53557,-19.75,1.9833e-12,-0.26778,0,0,0.066667,-0,-0,0.66667
0.34305,0.49925,5.1457,-0.0011251,-0.29716,1530.8,0.015439,-0.0051463,-2.01,0.020585,2.9002e-11,-1.005,0,0,0.066667,-8.487e-16,0,0.66667
0.16049,0.33873,2.4074,-0.2419,-70.574,2301.9,1.5529,-0.51764,-1.7899,2.0706,-1.8995e-10,-0.89494,0,0,0.066667,1.579e-16,0,0.66667
0.74141,0.77551,11.121,0.41326,55.66,281.31,-12.256,4.0853,-1.387,-16.341,-1.7637e-11,-0.69348,0,0,0.066667,-0,-0,0.66667
0.96309,0.98507,14.446,0.72761,15.79,10.238,-28.03,9.3434,-0.11244,-37.373,2.0307e-05,-0.056221,0,0,0.066667,-0,-0,0.66667
0.73364,0.45643,11.005,-0.065352,-9.0155,296.59,1.9178,-0.63927,-1.9933,2.5571,-1.4221e-12,-0.99663,0,0,0.066667,-0,-0,0.66667
0.077064,0.52718,1.156,0.040764,12.133,2673.5,-0.12566,0.041886,-2.002,-0.16755,-1.0598e-08,-1.001,0,0,0.066667,7.8949e-17,0,0.66667
0.84091,0.1331,12.614,-0.55035,-48.206,112.93,18.512,-6.1705,-0.92423,24.682,-2.562e-09,-0.46211,0,0,0.066667,-0,-0,0.66667
0.067514,0.3904,1.0127,-0.1644,-49.005,2716.5,0.44398,-0.14799,-1.8996,0.59198,2.7959e-07,-0.94979,0,0,0.066667,-0,-0,0.66667
0.43631,0.89494,6.5447,0.5924,143.76,1174.2,-10.339,3.4463,-0.75883,-13.785,-3.5794e-13,-0.37941,0,0,0.066667,-0,-0,0.66667
0.92886,0.65588,13.933,0.23382,9.5018,24.082,-8.6874,2.8958,-1.8008,-11.583,3.4463e-07,-0.90039,0,0,0.066667,-4.3422e-16,0,0.66667
0.26318,0.68553,3.9477,0.2783,77.566,1858.8,-2.9297,0.97656,-1.7279,-3.9062,2.0554e-11,-0.86395,0,0,0.066667,3.9475e-16,0,0.66667
0.12795,0.10336,1.9193,-0.59497,-175.44,2446.2,3.0451,-1.015,-0.74205,4.0602,3.1338e-08,-0.37102,0,0,0.066667,-0,-0,0.66667
0.76224,0.22871,11.434,-0.40693,-50.982,240.12,12.407,-4.1357,-1.4107,16.543,4.257e-12,-0.70533,0,0,0.066667,-0,-0,0.66667
0.92861,0.36518,13.929,-0.20223,-8.2439,24.16,7.5117,-2.5039,-1.8485,10.016,-3.0245e-07,-0.92425,0,0,0.066667,1.2632e-15,0,0.66667
0.32577,0.24551,4.8865,-0.38174,-102.2,1600.5,4.9743,-1.6581,-1.485,6.6324,4.2356e-11,-0.7425,0,0,0.066667,-6.3159e-16,0,0.66667
0.23246,0.2141,3.4869,-0.42885,-121.53,1989.4,3.9875,-1.3292,-1.3507,5.3167,-5.5032e-11,-0.67535,0,0,0.066667,-0,-0,0.66667
0.18249,0.7706,2.7373,0.40591,117.55,2205.5,-2.9629,0.98763,-1.41,-3.9505,4.9431e-10,-0.70502,0,0,0.066667,1.579e-16,0,0.66667
0.96324,0.61619,14.449,0.17428,3.6776,6.9841,-6.715,2.2383,-1.8872,-8.9533,1.0836e-07,-0.94362,0,0,0.066667,1.2632e-15,0,0.66667
0.57663,0.98105,8.6495,0.72157,144.46,703.74,-16.643,5.5478,-0.15415,-22.191,-1.5135e-12,-0.077073,0,0,0.066667,-0,-0,0.66667
0.86009,0.31223,12.901,-0.28165,-21.849,87.409,9.6898,-3.2299,-1.728,12.92,-1.7189e-09,-0.86402,0,0,0.066667,-1.5198e-15,0,0.66667
0.30834,0.77585,4.6252,0.41378,112.16,1671.5,-5.1035,1.7012,-1.3893,-6.8046,1.5217e-11,-0.69466,0,0,0.066667,4.737e-16,0,0.66667
0.056436,0.24122,0.84655,-0.38818,-115.92,2766.4,0.87629,-0.2921,-1.4588,1.1684,-1.667e-07,-0.72941,0,0,0.066667,-7.8949e-17,0,0.66667
0.4538,0.85581,6.8071,0.53372,126.99,1110.5,-9.6882,3.2294,-0.99586,-12.918,2.5375e-12,-0.49793,0,0,0.066667,1.2632e-15,0,0.66667
0.20711,0.3319,3.1067,-0.25215,-72.269,2098.3,2.0889,-0.6963,-1.7718,2.7852,-3.2567e-12,-0.88588,0,0,0.066667,-0,-0,0.66667
0.51898,0.38886,7.7848,-0.16671,-36.449,884.57,3.4608,-1.1536,-1.9005,4.6143,7.3141e-12,-0.95024,0,0,0.066667,-0,-0,0.66667
0.53799,0.30862,8.0698,-0.28707,-61.051,822.73,6.1775,-2.0592,-1.7016,8.2367,2.7072e-12,-0.85082,0,0,0.066667,1.5928e-16,0,0.66667
0.29429,0.54457,4.4143,0.066859,18.282,1728.9,-0.78704,0.26235,-1.9857,-1.0494,3.0026e-11,-0.99283,0,0,0.066667,-0,-0,0.66667
0.30745,0.34045,4.6118,-0.23933,-64.887,1674.9,2.9433,-0.98111,-1.793,3.9244,2.7e-11,-0.89651,0,0,0.066667,8.0157e-16,0,0.66667
0.024174,0.36262,0.36261,-0.20608,-61.676,2912,0.19927,-0.066424,-1.8426,0.26569,-3.4509e-06,-0.92128,0,0,0.066667,-0,-0,0.66667
0.4204,0.86712,6.306,0.55069,135.86,1232.8,-9.2604,3.0868,-0.92756,-12.347,-2.7907e-12,-0.46378,0,0,0.066667,-3.158e-16,0,0.66667
0.32369,0.11956,4.8553,-0.57066,-153.12,1609.3,7.3887,-2.4629,-0.8396,9.8515,3.3541e-11,-0.4198,0,0,0.066667,7.8949e-16,0,0.66667
0.61949,0.2447,9.2924,-0.38296,-70.632,577.6,9.4895,-3.1632,-1.4742,12.653,-1.7595e-12,-0.73711,0,0,0.066667,6.3159e-16,0,0.66667
0.85976,0.64633,12.896,0.2195,17.057,87.618,-7.5486,2.5162,-1.8388,-10.065,2.2355e-10,-0.91939,0,0,0.066667,-0,-0,0.66667
0.49264,0.092421,7.3896,-0.61137,-138.78,974.47,12.047,-4.0158,-0.66585,16.063,3.1797e-13,-0.33293,0,0,0.066667,1.579e-16,0,0.66667
0.082708,0.71921,1.2406,0.32881,97.814,2648.2,-1.0878,0.36261,-1.6136,-1.4504,-3.1334e-08,-0.80682,0,0,0.066667,-3.158e-16,0,0.66667
0.93348,0.034588,14.002,-0.69812,-26.882,23.917,26.067,-8.6891,-0.26584,34.756,-2.115e-06,-0.13292,0,0,0.066667,-2.5264e-15,-3.1031e-17,0.66667
0.80833,0.59907,12.125,0.1486,15.369,158.95,-4.8048,1.6016,-1.9195,-6.4064,-1.1141e-11,-0.95976,0,0,0.066667,-0,-0,0.66667
0.36552,0.88209,5.4828,0.57314,148.83,1442.7,-8.3797,2.7932,-0.82672,-11.173,2.1325e-11,-0.41336,0,0,0.066667,-0,-0,0.66667
0.33073,0.072396,4.9609,-0.64141,-171.27,1581.1,8.4853,-2.8284,-0.53893,11.314,2.3167e-11,-0.26947,0,0,0.066667,-6.3159e-16,0,0.66667
0.93793,0.86542,14.069,0.54812,19.629,20.173,-20.564,6.8547,-0.94169,-27.419,-2.0949e-06,-0.47084,0,0,0.066667,1.2632e-15,0,0.66667
0.37489,0.79099,5.6234,0.43648,112.37,1405.8,-6.5454,2.1818,-1.334,-8.7272,9.1482e-14,-0.667,0,0,0.066667,6.3159e-16,0,0.66667
0.6358,0.63864,9.537,0.20796,37.057,532.34,-5.289,1.763,-1.8423,-7.0519,1.8727e-12,-0.92113,0,0,0.066667,-0,-0,0.66667
0.98534,0.328,14.78,-0.258,-2.1194,1.7103,10.169,-3.3896,-1.7707,13.559,7.3162e-07,-0.88534,0,0,0.066667,-1.2632e-15,0,0.66667
0.03674,0.65771,0.5511,0.23656,70.748,2855.2,-0.34764,0.11588,-1.7974,-0.46353,-3.7829e-07,-0.89869,0,0,0.066667,-0,-0,0.66667
0.31463,0.0093527,4.7195,-0.73597,-198.92,1646.6,9.2624,-3.0875,-0.077408,12.35,7.5389e-12,-0.038704,0,0,0.066667,-1.2632e-15,0,0.66667
0.23124,0.72638,3.4685,0.33958,96.268,1994.5,-3.1409,1.047,-1.5903,-4.1879,5.1426e-11,-0.79516,0,0,0.066667,-0,-0,0.66667
0.92237,0.61519,13.835,0.17279,7.6407,28.253,-6.375,2.125,-1.9035,-8.5,1.5148e-07,-0.95175,0,0,0.066667,-1.2632e-15,0,0.66667
0.55114,0.35017,8.2671,-0.22475,-46.824,780.72,4.9546,-1.6515,-1.8181,6.6062,1.3894e-11,-0.90905,0,0,0.066667,-0,-0,0.66667
0.053714,0.80622,0.8057,0.45934,137.24,2778.7,-0.9869,0.32897,-1.244,-1.3159,5.1542e-07,-0.62202,0,0,0.066667,-3.9475e-17,0,0.66667
0.75525,0.52341,11.329,0.035118,4.5056,252.78,-1.0609,0.35364,-1.9913,-1.4146,-3.9146e-12,-0.99567,0,0,0.066667,1.2632e-15,0,0.66667
0.68408,0.71792,10.261,0.32688,52.018,409.02,-8.9445,2.9815,-1.6207,-11.926,1.5214e-12,-0.81037,0,0,0.066667,-1.579e-16,0,0.66667
0.66217,0.34227,9.9326,-0.23659,-39.731,463.16,6.2665,-2.0888,-1.7968,8.3553,1.581e-12,-0.89839,0,0,0.066667,1.2632e-15,0,0.66667
0.95573,0.022927,14.336,-0.71561,-18.55,12.893,27.357,-9.1191,-0.18106,36.476,-3.5073e-05,-0.090531,0,0,0.066667,-0,-0,0.66667
0.8746,0.64374,13.119,0.21561,15.09,70.739,-7.5429,2.5143,-1.8446,-10.057,-6.8995e-10,-0.9223,0,0,0.066667,1.2632e-15,0,0.66667
0.75325,0.43548,11.299,-0.096785,-12.506,256.74,2.9161,-0.97205,-1.9676,3.8882,1.6822e-12,-0.98378,0,0,0.066667,1.579e-15,0,0.66667
0.22267,0.40135,3.34,-0.14798,-42.11,2031.1,1.318,-0.43933,-1.9208,1.7573,-7.2958e-12,-0.96041,0,0,0.066667,4.737e-16,0,0.66667
0.13801,0.47717,2.0702,-0.034245,-10.058,2401.2,0.18905,-0.063018,-1.9976,0.25207,-3.0021e-10,-0.99882,0,0,0.066667,-0,-0,0.66667
0.22089,0.46397,3.3133,-0.054052,-15.393,2038.7,0.47757,-0.15919,-1.9934,0.63677,3.7644e-11,-0.99671,0,0,0.066667,-0,-0,0.66667
0.20551,0.68147,3.0826,0.27221,78.075,2105.2,-2.2377,0.74589,-1.7394,-2.9835,5.904e-11,-0.86968,0,0,0.066667,1.579e-16,0,0.66667
0.56796,0.424,8.5195,-0.11399,-23.101,728.21,2.5898,-0.86325,-1.9488,3.453,9.8277e-13,-0.97441,0,0,0.066667,6.3159e-16,0,0.66667
0.66304,0.12591,9.9457,-0.56114,-94.19,462.09,14.882,-4.9608,-0.87558,19.843,4.0412e-13,-0.43779,0,0,0.066667,-0,-0,0.66667
0.52742,0.039493,7.9113,-0.69076,-149.52,858.41,14.573,-4.8576,-0.30193,19.43,-1.6431e-13,-0.15096,0,0,0.066667,-0,-0,0.66667
0.056349,0.29911,0.84524,-0.30134,-89.967,2766.8,0.67921,-0.2264,-1.6713,0.90561,1.9112e-07,-0.83566,0,0,0.066667,-7.8949e-17,0,0.66667
0.36316,0.039103,5.4474,-0.69135,-179.99,1452.3,10.043,-3.3476,-0.2992,13.39,1.2372e-11,-0.1496,0,0,0.066667,-0,-0,0.66667
0.96773,0.87059,14.516,0.55588,10.444,7.3158,-21.518,7.1726,-0.90939,-28.69,-1.0541e-05,-0.45469,0,0,0.066667,1.8948e-15,3.9862e-17,0.66667
0.69551,0.87182,10.433,0.55772,86.234,382.78,-15.516,5.172,-0.88844,-20.688,1.2421e-11,-0.44422,0,0,0.066667,-1.8948e-15,0,0.66667
0.36974,0.69169,5.5461,0.28754,74.325,1425.6,-4.2526,1.4175,-1.7022,-5.6701,7.8839e-12,-0.85112,0,0,0.066667,-0,-0,0.66667
0.67163,0.61842,10.074,0.17763,29.153,439.24,-4.772,1.5907,-1.8989,-6.3626,8.904e-13,-0.94944,0,0,0.066667,-0,-0,0.66667
0.26511,0.76073,3.9766,0.3911,108.92,1850.8,-4.1474,1.3825,-1.4656,-5.5298,3.3272e-11,-0.73281,0,0,0.066667,-0,-0,0.66667
0.077478,0.81861,1.1622,0.47791,142.35,2671.8,-1.4811,0.4937,-1.1973,-1.9748,-1.2462e-08,-0.59864,0,0,0.066667,-1.579e-16,0,0.66667
0.52807,0.090709,7.921,-0.61394,-132.7,855.93,12.968,-4.3227,-0.66072,17.291,2.4499e-11,-0.33036,0,0,0.066667,-7.8949e-16,0,0.66667
0.28977,0.06578,4.3465,-0.65133,-178.9,1748.4,7.5494,-2.5165,-0.48617,10.066,-3.2465e-11,-0.24308,0,0,0.066667,-0,-0,0.66667
0.48165,0.58499,7.2248,0.12748,29.3,1011.2,-2.4561,0.81869,-1.9436,-3.2748,6.8416e-12,-0.97182,0,0,0.066667,-0,-0,0.66667
0.90199,0.6359,13.53,0.20385,11.289,44.143,-7.3548,2.4516,-1.8495,-9.8064,3.6177e-08,-0.92477,0,0,0.066667,-0,-0,0.66667
0.65174,0.1193,9.7761,-0.57105,-98.406,491.24,14.887,-4.9623,-0.83783,19.849,1.2163e-11,-0.41892,0,0,0.066667,-6.3159e-16,0,0.66667
0.72332,0.28612,10.85,-0.32082,-45.738,319.09,9.2823,-3.0941,-1.6313,12.376,-1.7764e-13,-0.81567,0,0,0.066667,-0,-0,0.66667
0.10259,0.07752,1.5388,-0.63372,-188.01,2559.3,2.6004,-0.86682,-0.56573,3.4673,-2.5565e-08,-0.28286,0,0,0.066667,-0,-0,0.66667
0.47966,0.16321,7.1949,-0.50519,-116.53,1018.9,9.6928,-3.2309,-1.0893,12.924,4.2721e-13,-0.54464,0,0,0.066667,-0,-0,0.66667
0.40434,0.72655,6.0651,0.33982,85.121,1292.6,-5.4961,1.832,-1.5936,-7.3282,5.0875e-12,-0.79681,0,0,0.066667,-0,-0,0.66667
0.64686,0.2863,9.7029,-0.32055,-55.774,503.08,8.2939,-2.7646,-1.6295,11.059,9.2539e-12,-0.81476,0,0,0.066667,-0,-0,0.66667
0.28774,0.79918,4.316,0.44878,123.32,1756.4,-5.1651,1.7217,-1.2778,-6.8869,8.9848e-12,-0.6389,0,0,0.066667,-0,-0,0.66667
0.38306,0.18867,5.746,-0.46699,-119.37,1374.2,7.1555,-2.3852,-1.2194,9.5406,-3.5381e-12,-0.60971,0,0,0.066667,1.2632e-15,0,0.66667
0.98102,0.27259,14.715,-0.34111,-3.6904,2.776,13.385,-4.4618,-1.5859,17.847,5.6221e-06,-0.79295,0,0,0.066667,-1.2632e-15,0,0.66667
0.11481,0.20952,1.7222,-0.43572,-128.82,2504.6,2.001,-0.667,-1.3203,2.668,-1.479e-08,-0.66015,0,0,0.066667,-0,-0,0.66667
0.19991,0.41875,2.9986,-0.12187,-35.031,2129.4,0.97452,-0.32484,-1.9469,1.2994,2.3184e-11,-0.97346,0,0,0.066667,-3.158e-16,0,0.66667
0.23905,0.42839,3.5857,-0.10741,-30.32,1961,1.027,-0.34234,-1.9556,1.3694,7.8769e-12,-0.97778,0,0,0.066667,3.158e-16,0,0.66667
0.69665,0.5648,10.45,0.097198,14.952,378.7,-2.7085,0.90284,-1.9615,-3.6114,1.2583e-11,-0.98076,0,0,0.066667,-2.5264e-15,0,0.66667
0.71369,0.93119,10.705,0.64679,95.107,341.75,-18.464,6.1548,-0.50878,-24.619,-4.5919e-12,-0.25439,0,0,0.066667,-0,-0,0.66667
0.78475,0.092771,11.771,-0.61084,-70.278,200.05,19.175,-6.3915,-0.67371,25.566,9.1188e-10,-0.33686,0,0,0.066667,2.3685e-16,0,0.66667
0.38104,0.80416,5.7157,0.45624,116.83,1382,-6.9538,2.3179,-1.2545,-9.2718,-1.1462e-11,-0.62727,0,0,0.066667,-0,-0,0.66667
0.8524,0.41338,12.786,-0.12993,-10.584,96.44,4.4301,-1.4767,-1.934,5.9068,1.1541e-10,-0.96701,0,0,0.066667,-0,-0,0.66667
0.69735,0.60291,10.46,0.15437,23.704,377.15,-4.306,1.4353,-1.9101,-5.7414,2.6303e-12,-0.95506,0,0,0.066667,-0,-0,0.66667
0.71326,0.81707,10.699,0.47561,69.928,341.79,-13.569,4.5231,-1.1915,-18.092,5.0147e-12,-0.59576,0,0,0.066667,-2.5264e-15,0,0.66667
0.82199,0.10694,12.33,-0.58959,-57.236,139.82,19.385,-6.4618,-0.75824,25.847,-5.4291e-10,-0.37912,0,0,0.066667,-0,-0,0.66667
0.62892,0.28476,9.4339,-0.32287,-58.394,551.31,8.1223,-2.7074,-1.6283,10.83,1.8874e-12,-0.81413,0,0,0.066667,-0,-0,0.66667
0.42223,0.39104,6.3334,-0.16344,-40.199,1225.2,2.7603,-0.9201,-1.915,3.6804,2.1583e-13,-0.95752,0,0,0.066667,6.3159e-16,0,0.66667
0.030799,0.44358,0.46198,-0.084627,-25.315,2882,0.10426,-0.034753,-1.9848,0.13901,-7.4708e-07,-0.99238,0,0,0.066667,-7.8949e-17,0,0.66667
0.59546,0.31477,8.9318,-0.27785,-53.66,646.04,6.6179,-2.206,-1.7313,8.8239,1.0383e-11,-0.86564,0,0,0.066667,-0,-0,0.66667
0.56376,0.1086,8.4565,-0.5871,-120.02,742.4,13.239,-4.4131,-0.78066,17.652,1.643e-11,-0.39033,0,0,0.066667,-0,-0,0.66667
0.60081,0.042332,9.0121,-0.6865,-131.54,632.04,16.498,-5.4994,-0.31796,21.998,2.3288e-12,-0.15898,0,0,0.066667,-0,-0,0.66667
0.32285,0.21016,4.8428,-0.43476,-116.67,1612.4,5.6146,-1.8715,-1.3235,7.4862,4.1225e-11,-0.66177,0,0,0.066667,-3.158e-16,0,0.66667
0.55488,0.28243,8.3232,-0.32636,-67.608,769.15,7.2436,-2.4145,-1.6161,9.6582,3.0007e-11,-0.80805,0,0,0.066667,-2.5264e-15,0,0.66667
0.17166,0.64815,2.5748,0.22223,64.585,2252.8,-1.5259,0.50862,-1.8354,-2.0345,3.2103e-10,-0.91772,0,0,0.066667,-0,-0,0.66667
0.64986,0.42536,9.7479,-0.11196,-19.339,494.8,2.9103,-0.97011,-1.9494,3.8805,8.8531e-12,-0.97472,0,0,0.066667,-0,-0,0.66667
0.071673,0.80958,1.0751,0.46437,138.43,2697.8,-1.3313,0.44377,-1.2283,-1.7751,-3.7657e-07,-0.61415,0,0,0.066667,4.0957e-17,0,0.66667
0.87508,0.94955,13.126,0.67433,47.311,72.608,-23.604,7.8679,-0.39457,-31.472,-9.2974e-08,-0.19729,0,0,0.066667,2.5264e-15,0,0.66667
0.21614,0.28575,3.2421,-0.32137,-91.754,2059.3,2.7784,-0.92613,-1.6351,3.7045,7.1004e-11,-0.81755,0,0,0.066667,-0,-0,0.66667
0.29384,0.91009,4.4077,0.61514,168.49,1731.5,-7.2302,2.4101,-0.65576,-9.6403,-3.0644e-11,-0.32788,0,0,0.066667,-0,-0,0.66667
0.88474,0.87537,13.271,0.56306,36.553,61.807,-19.926,6.6422,-0.86882,-26.569,8.6568e-08,-0.43441,0,0,0.066667,-0,-0,0.66667
0.88359,0.66685,13.254,0.25028,16.333,61.455,-8.8457,2.9486,-1.771,-11.794,-4.6817e-09,-0.88549,0,0,0.066667,-0,-0,0.66667
0.83627,0.8254,12.544,0.4881,43.861,118.86,-16.327,5.4424,-1.1463,-21.77,3.9729e-09,-0.57317,0,0,0.066667,1.2632e-15,0,0.66667
0.32694,0.67756,4.904,0.26634,71.225,1595.7,-3.483,1.161,-1.7545,-4.644,4.4014e-12,-0.87725,0,0,0.066667,-0,-0,0.66667
0.90234,0.30937,13.535,-0.28594,-15.793,44.085,10.321,-3.4402,-1.7083,13.761,-4.8215e-08,-0.85415,0,0,0.066667,-1.6276e-15,0,0.66667
0.7718,0.9036,11.577,0.6054,73.309,223.24,-18.69,6.23,-0.69217,-24.92,7.7289e-10,-0.34609,0,0,0.066667,6.3159e-16,0,0.66667
0.65808,0.3206,9.8712,-0.2691,-45.632,473.71,7.0837,-2.3612,-1.747,9.4449,4.0279e-13,-0.87348,0,0,0.066667,1.2632e-15,0,0.66667
0.8998,0.67711,13.497,0.26566,15.036,46.221,-9.5618,3.1873,-1.7431,-12.749,5.1854e-08,-0.87157,0,0,0.066667,1.2632e-15,0,0.66667
0.78313,0.19468,11.747,-0.45798,-52.963,202.05,14.346,-4.7821,-1.2586,19.128,4.6532e-12,-0.62931,0,0,0.066667,2.5264e-15,0,0.66667
0.42475,0.25533,6.3712,-0.367,-90.073,1216.2,6.2353,-2.0784,-1.5225,8.3137,7.724e-12,-0.76125,0,0,0.066667,-0,-0,0.66667
0.32426,0.30159,4.8638,-0.29762,-79.752,1606.5,3.8602,-1.2867,-1.6832,5.1469,3.3494e-11,-0.8416,0,0,0.066667,-0,-0,0.66667
0.39388,0.39443,5.9082,-0.15835,-40.047,1332.2,2.4948,-0.83161,-1.9105,3.3265,1.2742e-11,-0.95525,0,0,0.066667,-6.3159e-16,0,0.66667
0.061412,0.24962,0.92118,-0.37557,-112.08,2744,0.92259,-0.30753,-1.507,1.2301,2.3002e-07,-0.75349,0,0,0.066667,-1.1349e-16,0,0.66667
0.36343,0.10731,5.4515,-0.58904,-153.24,1450.9,8.563,-2.8543,-0.76394,11.417,1.6712e-11,-0.38197,0,0,0.066667,-0,-0,0.66667
0.35304,0.7713,5.2957,0.40695,106.7,1491.4,-5.7468,1.9156,-1.4054,-7.6624,1.0589e-11,-0.70269,0,0,0.066667,-3.158e-16,0,0.66667
0.86562,0.6549,12.984,0.23236,17.353,80.782,-8.0453,2.6818,-1.8035,-10.727,2.0794e-09,-0.90176,0,0,0.066667,1.4211e-15,0,0.66667
0.8887,0.57654,13.331,0.11482,7.1754,56.12,-4.0815,1.3605,-1.9569,-5.442,6.3241e-09,-0.97844,0,0,0.066667,1.2632e-15,0,0.66667
0.96305,0.81396,14.446,0.47094,10.081,8.2767,-18.142,6.0472,-1.2075,-24.189,5.9669e-06,-0.60375,0,0,0.066667,-0,-0,0.66667
0.3282,0.027373,4.923,-0.70894,-189.73,1591.5,9.3069,-3.1023,-0.22525,12.409,2.4434e-11,-0.11263,0,0,0.066667,-3.158e-16,0,0.66667
0.69332,0.95508,10.4,0.68263,106.28,388.64,-18.931,6.3104,-0.33773,-25.242,3.7481e-12,-0.16886,0,0,0.066667,1.2632e-15,0,0.66667
0.63307,0.5994,9.496,0.1491,26.72,539.67,-3.7756,1.2585,-1.915,-5.0341,5.2514e-12,-0.9575,0,0,0.066667,-0,-0,0.66667
0.24244,0.79486,3.6367,0.4423,124.72,1946.8,-4.2893,1.4298,-1.2978,-5.719,-5.5919e-11,-0.64891,0,0,0.066667,-0,-0,0.66667
0.86999,0.89016,13.05,0.58524,42.551,77.517,-20.366,6.7886,-0.7779,-27.155,-2.6968e-08,-0.38895,0,0,0.066667,-0,-0,0.66667
0.2141,0.29111,3.2115,-0.31333,-89.539,2068.1,2.6834,-0.89446,-1.6475,3.5778,6.4808e-11,-0.82375,0,0,0.066667,-0,-0,0.66667
0.74771,0.97281,11.216,0.70922,93.769,270.2,-21.212,7.0706,-0.21502,-28.282,-3.2975e-11,-0.10751,0,0,0.066667,-0,-3.5712e-17,0.66667
0.14466,0.96519,2.17,0.69778,204.9,2372.2,-4.0377,1.3459,-0.26744,-5.3836,3.1806e-09,-0.13372,0,0,0.066667,3.9475e-17,0,0.66667
0.10682,0.12218,1.6023,-0.56673,-167.94,2540.3,2.4215,-0.80717,-0.86079,3.2287,-3.1588e-07,-0.4304,0,0,0.066667,2.3685e-16,6.4215e-19,0.66667
0.72032,0.95738,10.805,0.68608,98.963,327.38,-19.768,6.5893,-0.33153,-26.357,2.6739e-11,-0.16577,0,0,0.066667,-0,-0,0.66667
0.52632,0.94254,7.8948,0.66382,143.9,861.87,-13.975,4.6584,-0.42984,-18.633,-8.1002e-12,-0.21492,0,0,0.066667,-0,-0,0.66667
0.44292,0.27849,6.6437,-0.33226,-79.969,1149.4,5.8866,-1.9622,-1.6037,7.8488,6.0729e-12,-0.80184,0,0,0.066667,1.579e-16,0,0.66667
0.77818,0.95955,11.673,0.68933,81.506,212.22,-21.457,7.1523,-0.31085,-28.609,1.3478e-10,-0.15543,0,0,0.066667,-1.2632e-15,0,0.66667
0.35874,0.71202,5.3812,0.31804,82.98,1468.8,-4.5638,1.5213,-1.6497,-6.085,4.917e-12,-0.82486,0,0,0.066667,2.1242e-16,0,0.66667
0.85335,0.49528,12.8,-0.007086,-0.57364,95.164,0.24187,-0.080624,-1.9949,0.3225,1.359e-09,-0.99747,0,0,0.066667,3.158e-16,0,0.66667
0.96217,0.57067,14.433,0.10601,2.2999,7.2339,-4.08,1.36,-1.9542,-5.44,1.4809e-07,-0.97711,0,0,0.066667,-0,-0,0.66667
0.97913,0.85427,14.687,0.53141,6.4318,4.2343,-20.813,6.9375,-0.99137,-27.75,-2.7817e-05,-0.49568,0,0,0.066667,2.5264e-15,0,0.66667
0.27763,0.48881,4.1644,-0.016783,-4.637,1798.1,0.18637,-0.062125,-1.9977,0.2485,2.3628e-11,-0.99887,0,0,0.066667,3.158e-16,0,0.66667
0.41501,0.88573,6.2251,0.5786,143.55,1253,-9.6049,3.2016,-0.80344,-12.807,-1.2914e-11,-0.40172,0,0,0.066667,-0,-0,0.66667
0.72501,0.30149,10.875,-0.29776,-42.228,315.37,8.6353,-2.8784,-1.679,11.514,1.954e-14,-0.83948,0,0,0.066667,-0,-0,0.66667
0.89487,0.35344,13.423,-0.21984,-13.021,50.518,7.8692,-2.6231,-1.8256,10.492,-3.6853e-08,-0.91278,0,0,0.066667,-0,-0,0.66667
0.71131,0.15703,10.67,-0.51445,-76.089,346.33,14.637,-4.8792,-1.0539,19.517,-1.5454e-12,-0.52694,0,0,0.066667,2.5264e-15,0,0.66667
0.75813,0.89858,11.372,0.59787,76.143,248.97,-18.131,6.0435,-0.72287,-24.174,-3.2177e-10,-0.36143,0,0,0.066667,-6.3159e-16,0,0.66667
0.8834,0.36374,13.251,-0.20439,-13.355,61.522,7.2223,-2.4074,-1.845,9.6298,2.1867e-09,-0.92252,0,0,0.066667,1.2632e-15,0,0.66667
0.36695,0.32603,5.5042,-0.26096,-67.612,1436.5,3.8303,-1.2768,-1.7512,5.1071,4.3852e-12,-0.87562,0,0,0.066667,-0,-0,0.66667
0.54254,0.69403,8.1382,0.29104,61.467,808.13,-6.3161,2.1054,-1.6964,-8.4214,1.1945e-11,-0.84819,0,0,0.066667,-0,-0,0.66667
0.53477,0.56825,8.0215,0.10238,21.872,832.86,-2.19,0.73,-1.9623,-2.92,5.095e-12,-0.98113,0,0,0.066667,-1.2632e-15,0,0.66667
0.64758,0.45064,9.7137,-0.074034,-12.853,500.75,1.9177,-0.63925,-1.9741,2.557,1.2184e-11,-0.98705,0,0,0.066667,-0,-0,0.66667
0.89518,0.59869,13.428,0.14804,8.7392,50.069,-5.3009,1.767,-1.9194,-7.0679,2.1096e-08,-0.95969,0,0,0.066667,-2.5264e-15,0,0.66667
0.60083,0.0087298,9.0124,-0.73691,-141.25,632.27,17.71,-5.9034,-0.06305,23.613,1.1612e-11,-0.031525,0,0,0.066667,-2.5264e-15,0,0.66667
0.96994,0.18092,14.549,-0.47863,-8.3376,6.1457,18.57,-6.1898,-1.1926,24.759,1.378e-05,-0.59628,0,0,0.066667,1.2632e-15,0,0.66667
0.73214,0.71999,10.982,0.32998,45.776,300.27,-9.6637,3.2212,-1.6169,-12.885,2.3466e-12,-0.80847,0,0,0.066667,-0,-0,0.66667
0.41529,0.77649,6.2294,0.41473,102.79,1251.5,-6.8894,2.2965,-1.383,-9.1859,-2.6867e-12,-0.69152,0,0,0.066667,4.038e-16,0,0.66667
0.58114,0.78705,8.7171,0.43058,85.38,688.89,-10.009,3.3363,-1.3417,-13.345,2.7169e-12,-0.67086,0,0,0.066667,-0,-0,0.66667
0.92232,0.76645,13.835,0.39967,17.737,29.083,-14.745,4.915,-1.4417,-19.66,1.159e-07,-0.72083,0,0,0.066667,1.2632e-15,0,0.66667
0.6185,0.055975,9.2775,-0.66604,-123.29,581.59,16.478,-5.4926,-0.41716,21.97,1.6787e-12,-0.20858,0,0,0.066667,3.158e-16,0,0.66667
0.70993,0.86622,10.649,0.54933,81.592,349.62,-15.599,5.1998,-0.92102,-20.799,-4.2721e-12,-0.46051,0,0,0.066667,6.3159e-16,0,0.66667
0.66129,0.83645,9.9194,0.50468,85.033,466.29,-13.35,4.4499,-1.0905,-17.8,2.4842e-12,-0.54525,0,0,0.066667,-0,-0,0.66667
0.33615,0.16339,5.0422,-0.50492,-134.2,1559,6.789,-2.263,-1.0874,9.052,2.3855e-11,-0.54369,0,0,0.066667,-0,-0,0.66667
0.20333,0.68331,3.05,0.27496,78.94,2114.6,-2.2364,0.74546,-1.7428,-2.9819,7.5293e-11,-0.87138,0,0,0.066667,4.737e-16,0,0.66667
0.40781,0.60288,6.1172,0.15432,38.51,1279.2,-2.5173,0.83911,-1.9207,-3.3564,-3.5101e-12,-0.96033,0,0,0.066667,-0,-0,0.66667
0.15077,0.59032,2.2615,0.13548,39.643,2344.7,-0.81703,0.27234,-1.9307,-1.0894,-1.7837e-10,-0.96537,0,0,0.066667,-1.1326e-16,0,0.66667
0.82633,0.26684,12.395,-0.34973,-33.118,132.23,11.56,-3.8533,-1.5693,15.413,8.0386e-11,-0.78466,0,0,0.066667,1.2632e-15,0,0.66667
0.71046,0.78904,10.657,0.43356,64.248,347.88,-12.321,4.1071,-1.3255,-16.428,1.2212e-12,-0.66273,0,0,0.066667,-0,-0,0.66667
0.40106,0.61814,6.0158,0.17722,44.516,1304.8,-2.8429,0.94765,-1.8843,-3.7906,-7.4163e-13,-0.94213,0,0,0.066667,2.3747e-16,0,0.66667
0.17138,0.049424,2.5707,-0.67586,-196.73,2254.5,4.6333,-1.5444,-0.3853,6.1777,-1.3234e-08,-0.19265,0,0,0.066667,-3.158e-16,7.6848e-17,0.66667
0.8758,0.63445,13.137,0.20168,13.986,69.418,-7.0651,2.355,-1.8637,-9.4201,-1.8838e-09,-0.93187,0,0,0.066667,-2.5264e-15,0,0.66667
0.63906,0.89305,9.586,0.58958,104.51,524.86,-15.071,5.0237,-0.76916,-20.095,-4.4498e-12,-0.38458,0,0,0.066667,1.2632e-15,9.1121e-17,0.66667
0.9966,0.21687,14.949,-0.4247,-0.69579,1.3227,16.93,-5.6434,-1.3592,22.574,-1.3338e-06,-0.67961,0,0,0.066667,1.8844e-15,0,0.66667
0.1011,0.98751,1.5165,0.73126,217.11,2566.1,-2.9571,0.98572,-0.092165,-3.9429,-2.1789e-07,-0.046083,0,0,0.066667,-0,-0,0.66667
0.24485,0.66684,3.6727,0.25026,70.446,1936.3,-2.451,0.817,-1.7729,-3.268,1.9878e-11,-0.88647,0,0,0.066667,-6.3159e-16,0,0.66667
0.083655,0.23528,1.2548,-0.39709,-118.13,2644,1.3287,-0.44291,-1.4343,1.7716,6.6429e-09,-0.71713,0,0,0.066667,-1.579e-16,0,0.66667
0.74474,0.00090398,11.171,-0.74864,-100.02,276.46,22.302,-7.434,-0.0040264,29.736,-7.5726e-12,-0.0020132,0,0,0.066667,-0,-0,0.66667
0.15958,0.2859,2.3936,-0.32115,-93.74,2306,2.0499,-0.68331,-1.6335,2.7332,-3.467e-10,-0.81675,0,0,0.066667,-0,-0,0.66667
0.88166,0.70227,13.225,0.30341,20.121,63.589,-10.7,3.5667,-1.6664,-14.267,-1.399e-08,-0.83321,0,0,0.066667,-0,-0,0.66667
0.49148,0.99858,7.3722,0.74787,170.16,979.06,-14.703,4.9009,-0.0062133,-19.603,-1.0241e-11,-0.0031067,0,0,0.066667,-3.158e-16,0,0.66667
0.52617,0.41923,7.8925,-0.12116,-26.215,860.87,2.55,-0.84998,-1.9434,3.3999,-1.0851e-12,-0.97171,0,0,0.066667,-0,-0,0.66667
0.04252,0.78422,0.6378,0.42633,127.5,2829.2,-0.7251,0.2417,-1.3518,-0.96681,-6.0029e-06,-0.6759,0,0,0.066667,-1.579e-16,0,0.66667
0.61405,0.85366,9.2108,0.53049,98.984,593.41,-13.03,4.3433,-0.9959,-17.373,1.5103e-11,-0.49795,0,0,0.066667,-0,-0,0.66667
0.22761,0.71451,3.4142,0.32177,91.375,2010,-2.9295,0.97652,-1.6264,-3.9061,3.0546e-11,-0.81322,0,0,0.066667,-0,-0,0.66667
0.2135,0.71716,3.2026,0.32574,93.114,2070.7,-2.7819,0.9273,-1.6194,-3.7092,-8.2593e-11,-0.8097,0,0,0.066667,1.579e-16,0,0.66667
0.89532,0.2267,13.43,-0.40995,-24.233,50.818,14.682,-4.8938,-1.3991,19.575,-4.4512e-08,-0.69955,0,0,0.066667,-0,-0,0.66667
0.88801,0.79504,13.32,0.44257,27.903,57.867,-15.72,5.2401,-1.3051,-20.96,-1.2273e-08,-0.65253,0,0,0.066667,-0,-0,0.66667
0.0052652,0.64798,0.078978,0.22198,66.473,2997.4,-0.046748,0.015581,-1.8205,-0.062332,-3.0572e-06,-0.91023,0,0,0.066667,-0,-0,0.66667
0.8323,0.28814,12.485,-0.31778,-29.142,123.6,10.58,-3.5266,-1.6388,14.106,2.0402e-10,-0.81938,0,0,0.066667,-0,-0,0.66667
0.9023,0.90172,13.534,0.60259,33.474,45.816,-21.749,7.2495,-0.7076,-28.998,-5.8377e-08,-0.3538,0,0,0.066667,1.2632e-15,0,0.66667
0.51195,0.85414,7.6792,0.53122,117.44,908.83,-10.878,3.6261,-0.9953,-14.504,1.5312e-12,-0.49765,0,0,0.066667,-0,-0,0.66667
0.65617,0.66839,9.8426,0.25258,43.018,478.59,-6.6295,2.2098,-1.7845,-8.8394,-5.1976e-12,-0.89227,0,0,0.066667,-0,-0,0.66667
0.76779,0.41411,11.517,-0.12883,-15.793,228.89,3.9566,-1.3189,-1.9443,5.2755,5.2762e-12,-0.97216,0,0,0.066667,-2.5264e-15,0,0.66667
0.68544,0.83276,10.282,0.49915,79.228,406.4,-13.685,4.5618,-1.1175,-18.247,2.5953e-12,-0.55877,0,0,0.066667,-0,-0,0.66667
0.45912,0.97478,6.8867,0.71217,168.58,1092.2,-13.079,4.3596,-0.19163,-17.438,2.3577e-11,-0.095815,0,0,0.066667,-1.2632e-15,0,0.66667
0.57345,0.11401,8.6018,-0.57899,-116.44,712.68,13.281,-4.427,-0.80452,17.708,1.5485e-11,-0.40226,0,0,0.066667,-0,-0,0.66667
0.57406,0.77051,8.6109,0.40576,81.446,710.18,-9.3173,3.1058,-1.4123,-12.423,3.1006e-12,-0.70615,0,0,0.066667,-0,-0,0.66667
0.84213,0.47502,12.632,-0.037463,-3.2466,109.61,1.2619,-0.42065,-2.0005,1.6826,-1.9622e-10,-1.0002,0,0,0.066667,-0,-0,0.66667
0.24044,0.97903,3.6066,0.71854,203.07,1955.8,-6.9107,2.3036,-0.15869,-9.2143,8.9142e-11,-0.079343,0,0,0.066667,-0,-0,0.66667
0.75723,0.56479,11.358,0.097187,12.382,248.97,-2.9437,0.98124,-1.9611,-3.9249,-6.0829e-12,-0.98055,0,0,0.066667,-2.5264e-15,0,0.66667
0.81234,0.75023,12.185,0.37534,38.133,153.31,-12.196,4.0654,-1.5116,-16.262,1.4238e-10,-0.75582,0,0,0.066667,-2.5264e-15,0,0.66667
0.79703,0.80607,11.955,0.45911,50.069,178.27,-14.637,4.879,-1.262,-19.516,1.997e-10,-0.63102,0,0,0.066667,-0,-0,0.66667
0.80771,0.26664,12.116,-0.35005,-36.344,160.47,11.309,-3.7698,-1.5604,15.079,1.0087e-10,-0.7802,0,0,0.066667,3.0667e-16,0,0.66667
0.82928,0.93794,12.439,0.65691,61.455,129.7,-21.79,7.2635,-0.47391,-29.054,-4.6052e-08,-0.23695,0,0,0.066667,-0,-0,0.66667
0.41752,0.65419,6.2627,0.23129,57.169,1242.9,-3.8627,1.2876,-1.808,-5.1502,-1.3709e-11,-0.904,0,0,0.066667,-8.6844e-16,0,0.66667
0.61789,0.76972,9.2683,0.40459,74.869,582.15,-9.9996,3.3332,-1.4116,-13.333,8.8169e-12,-0.70579,0,0,0.066667,-0,-0,0.66667
0.75525,0.51887,11.329,0.028308,3.6319,252.78,-0.85518,0.28506,-1.9925,-1.1402,-5.5468e-12,-0.99626,0,0,0.066667,-0,-0,0.66667
0.76977,0.0099375,11.546,-0.73509,-89.84,227.89,22.634,-7.5447,-0.076308,30.179,-2.3779e-10,-0.038154,0,0,0.066667,-2.5264e-15,0,0.66667
0.9586,0.017567,14.379,-0.72365,-17.572,11.831,27.748,-9.2493,-0.13313,36.997,-2.5155e-05,-0.066565,0,0,0.066667,-2.2704e-15,0,0.66667
0.97508,0.037552,14.626,-0.69367,-10.186,6.4297,27.055,-9.0184,-0.28368,36.074,0.00012814,-0.14184,0,0,0.066667,-0,-0,0.66667
0.56473,0.92279,8.471,0.63418,129.47,739.62,-14.326,4.7753,-0.57266,-19.101,4.9809e-12,-0.28633,0,0,0.066667,-0,-0,0.66667
0.46574,0.80396,6.9861,0.45595,106.95,1067.7,-8.4941,2.8314,-1.2614,-11.325,1.5653e-11,-0.63072,0,0,0.066667,-0,-0,0.66667
0.83553,0.050552,12.533,-0.67417,-60.984,121.09,22.532,-7.5105,-0.37744,30.042,1.1857e-08,-0.18872,0,0,0.066667,-1.2632e-15,0,0.66667
0.21996,0.088681,3.2994,-0.61698,-176.02,2043.3,5.4284,-1.8095,-0.65372,7.2379,-2.1143e-10,-0.32686,0,0,0.066667,3.158e-16,0,0.66667
0.7664,0.7811,11.496,0.42165,52.028,232.31,-12.926,4.3087,-1.3777,-17.235,-7.1269e-11,-0.68886,0,0,0.066667,-3.9475e-16,0,0.66667
0.19201,0.95311,2.8802,0.67967,196.31,2164.3,-5.2202,1.7401,-0.35412,-6.9602,-1.6134e-10,-0.17706,0,0,0.066667,-3.158e-16,0,0.66667
0.59163,0.43464,8.8744,-0.098046,-19.062,657.02,2.3203,-0.77342,-1.97,3.0937,-2.8419e-12,-0.985,0,0,0.066667,6.3159e-16,0,0.66667
0.60683,0.4064,9.1025,-0.1404,-26.531,612.89,3.408,-1.136,-1.9332,4.544,2.1767e-12,-0.96662,0,0,0.066667,-0,-0,0.66667
0.44184,0.77908,6.6277,0.41861,100.9,1153.5,-7.3985,2.4662,-1.3751,-9.8647,-1.7537e-12,-0.68757,0,0,0.066667,7.8949e-16,0,0.66667
0.86455,0.66916,12.968,0.25373,19.093,82.081,-8.7746,2.9249,-1.7666,-11.699,2.8934e-09,-0.88328,0,0,0.066667,-0,-0,0.66667
0.54348,0.82878,8.1522,0.49316,104.09,805.71,-10.721,3.5737,-1.1344,-14.295,9.4289e-12,-0.56722,0,0,0.066667,-6.3159e-16,0,0.66667
0.49273,0.55387,7.3909,0.080802,18.309,972.95,-1.5925,0.53085,-1.9705,-2.1234,-7.3702e-12,-0.98527,0,0,0.066667,-0,-0,0.66667
0.41813,0.22147,6.2719,-0.41779,-103.26,1240.9,6.9876,-2.3292,-1.3788,9.3167,8.2325e-12,-0.68941,0,0,0.066667,1.2632e-15,0,0.66667
0.062225,0.86446,0.93338,0.54669,163.22,2740.4,-1.3607,0.45357,-0.94791,-1.8143,1.8533e-06,-0.47396,0,0,0.066667,-0,7.9575e-17,0.66667
0.36215,0.97278,5.4322,0.70917,184.8,1456.3,-10.273,3.4243,-0.21372,-13.697,8.1695e-12,-0.10686,0,0,0.066667,1.2632e-15,0,0.66667
0.092815,0.84327,1.3922,0.51491,152.98,2603,-1.9116,0.63722,-1.0664,-2.5489,-2.6096e-07,-0.53322,0,0,0.066667,4.4409e-17,0,0.66667
0.56564,0.81434,8.4846,0.47151,96.03,736.16,-10.668,3.5561,-1.2107,-14.224,-1.9345e-12,-0.60536,0,0,0.066667,1.2632e-15,0,0.66667
0.6405,0.12523,9.6075,-0.56215,-99.317,520.87,14.402,-4.8008,-0.8891,19.203,4.0323e-12,-0.44455,0,0,0.066667,-0,-0,0.66667
0.76778,0.55578,11.517,0.083668,10.256,228.85,-2.5695,0.85651,-1.9786,-3.4261,8.5303e-12,-0.98929,0,0,0.066667,-0,-0,0.66667
0.63254,0.38361,9.488,-0.17458,-31.323,541.14,4.4172,-1.4724,-1.8853,5.8896,1.5588e-11,-0.94266,0,0,0.066667,-1.2632e-15,0,0.66667
0.18706,0.16559,2.8059,-0.50162,-145.06,2185.6,3.7533,-1.2511,-1.1153,5.0044,-2.2156e-09,-0.55764,0,0,0.066667,-0,-0,0.66667
0.75024,0.28735,11.254,-0.31897,-41.678,263.15,9.5724,-3.1908,-1.6494,12.763,-1.4539e-12,-0.82469,0,0,0.066667,-0,-0,0.66667
0.54886,0.83253,8.2329,0.49879,104.4,788.64,-10.951,3.6502,-1.119,-14.601,7.6561e-13,-0.55952,0,0,0.066667,6.3159e-16,0,0.66667
0.10217,0.51943,1.5326,0.029144,8.6351,2560.9,-0.11911,0.039703,-1.9905,-0.15881,-1.1781e-08,-0.99526,0,0,0.066667,-0,-0,0.66667
0.024827,0.7116,0.37241,0.3174,95.008,2909,-0.3152,0.10507,-1.6362,-0.42027,6.9514e-06,-0.81811,0,0,0.066667,1.9737e-17,0,0.66667
0.29875,0.048527,4.4812,-0.67721,-184.96,1711.4,8.0926,-2.6975,-0.37331,10.79,4.5173e-12,-0.18666,0,0,0.066667,6.3159e-16,0,0.66667
0.69002,0.60901,10.35,0.16351,25.607,394.44,-4.513,1.5043,-1.9067,-6.0173,4.3747e-12,-0.95334,0,0,0.066667,-0,-0,0.66667
0.93279,0.52742,13.992,0.041127,1.5789,21.312,-1.5345,0.51151,-1.9912,-2.046,6.5336e-08,-0.99559,0,0,0.066667,1.2632e-15,0,0.66667
0.9665,0.089648,14.497,-0.61553,-12.049,8.1478,23.796,-7.9321,-0.65647,31.728,4.4995e-06,-0.32824,0,0,0.066667,3.158e-16,0,0.66667
0.76455,0.44707,11.468,-0.079398,-9.8504,234.92,2.4282,-0.80939,-1.9848,3.2375,-4.0492e-12,-0.99239,0,0,0.066667,-0,-0,0.66667
0.29325,0.24457,4.3987,-0.38314,-104.89,1733.5,4.4942,-1.4981,-1.4774,5.9923,9.5204e-12,-0.73869,0,0,0.066667,1.574e-17,0,0.66667
0.62207,0.93099,9.331,0.64648,118.8,571.54,-16.086,5.3621,-0.51506,-21.448,1.133e-11,-0.25753,0,0,0.066667,3.158e-16,0,0.66667
0.2311,0.31647,3.4664,-0.2753,-78.04,1995,2.5448,-0.84827,-1.731,3.3931,1.8156e-11,-0.86549,0,0,0.066667,-0,-0,0.66667
0.75069,0.24721,11.26,-0.37919,-49.486,262.47,11.386,-3.7954,-1.4985,15.181,-2.6741e-11,-0.74923,0,0,0.066667,1.579e-15,0,0.66667
0.16587,0.0021379,2.488,-0.74679,-217.87,2278.8,4.9547,-1.6516,-0.012643,6.6063,-1.4064e-09,-0.0063217,0,0,0.066667,-0,-0,0.66667
0.75647,0.56323,11.347,0.094842,12.116,250.44,-2.8698,0.9566,-1.9634,-3.8264,-1.386e-11,-0.98172,0,0,0.066667,-0,-0,0.66667
0.86859,0.77441,13.029,0.41161,30.154,78.079,-14.301,4.767,-1.3921,-19.068,1.1071e-08,-0.69603,0,0,0.066667,5.1431e-16,0,0.66667
0.51951,0.49522,7.7926,-0.0071758,-1.5676,882.74,0.14912,-0.049705,-1.9986,0.19882,1.0157e-11,-0.9993,0,0,0.066667,-1.8948e-15,0,0.66667
0.065635,0.96551,0.98452,0.69826,208.52,2725.1,-1.8332,0.61107,-0.26739,-2.4443,1.3875e-06,-0.1337,0,0,0.066667,-0,-0,0.66667
0.44889,0.18768,6.7334,-0.46848,-112.06,1128,8.4119,-2.804,-1.2185,11.216,4.8841e-12,-0.60924,0,0,0.066667,1.2632e-15,0,0.66667
0.83783,0.79776,12.567,0.44664,39.767,116.51,-14.968,4.9894,-1.2851,-19.958,1.836e-09,-0.64256,0,0,0.066667,1.2632e-15,0,0.66667
0.17975,0.31887,2.6963,-0.27169,-78.736,2217.3,1.9535,-0.65116,-1.7315,2.6047,9.5372e-11,-0.86573,0,0,0.066667,-0,-0,0.66667
0.038559,0.64731,0.57839,0.22097,66.075,2847,-0.34082,0.11361,-1.8201,-0.45443,-6.8551e-07,-0.91005,0,0,0.066667,3.9475e-17,0,0.66667
0.73269,0.46514,10.99,-0.052295,-7.2359,298.58,1.5326,-0.51088,-1.9959,2.0435,-2.1023e-12,-0.99795,0,0,0.066667,3.158e-16,0,0.66667
0.56304,0.50767,8.4456,0.011504,2.3503,743.34,-0.25908,0.08636,-2.0092,-0.34544,-1.2834e-11,-1.0046,0,0,0.066667,2.5264e-15,0,0.66667
0.042061,0.4233,0.63091,-0.11506,-34.39,2831.2,0.19357,-0.064524,-1.949,0.2581,4.0236e-07,-0.97449,0,0,0.066667,-0,-0,0.66667
0.98489,0.79755,14.773,0.44633,3.8488,2.6519,-17.583,5.8611,-1.301,-23.444,6.7334e-06,-0.6505,0,0,0.066667,-0,-0,0.66667
0.56933,0.96942,8.54,0.70413,142.72,725.85,-16.035,5.3451,-0.23235,-21.38,-3.2703e-12,-0.11618,0,0,0.066667,-0,-0,0.66667
0.58516,0.34209,8.7774,-0.23686,-46.602,676.37,5.544,-1.848,-1.7954,7.392,4.5941e-12,-0.8977,0,0,0.066667,5.5264e-16,0,0.66667
0.78991,0.25661,11.849,-0.36508,-41.023,189.88,11.535,-3.845,-1.5202,15.38,-9.3889e-11,-0.76011,0,0,0.066667,-0,-0,0.66667
0.90263,0.44197,13.54,-0.087045,-4.7874,43.39,3.1428,-1.0476,-1.9725,4.1904,-1.5451e-08,-0.98627,0,0,0.066667,-0,-0,0.66667
0.060751,0.48691,0.91126,-0.019642,-5.8593,2746.9,0.04773,-0.01591,-2.003,0.06364,-2.021e-07,-1.0015,0,0,0.066667,7.8949e-17,0,0.66667
0.34851,0.42516,5.2277,-0.11226,-29.524,1509.1,1.565,-0.52166,-1.9514,2.0866,2.1446e-11,-0.97569,0,0,0.066667,6.3159e-16,0,0.66667
0.20009,0.85509,3.0014,0.53263,153.24,2129,-4.263,1.421,-0.9916,-5.684,-1.5554e-09,-0.4958,0,0,0.066667,-3.158e-16,0,0.66667
0.46515,0.11181,6.9773,-0.58229,-136.76,1070.2,10.834,-3.6114,-0.79314,14.446,2.6583e-12,-0.39657,0,0,0.066667,-0,-0,0.66667
0.091468,0.023298,1.372,-0.71505,-212.68,2609.2,2.6162,-0.87206,-0.18496,3.4882,-3.8501e-06,-0.09248,0,0,0.066667,-0,5.9911e-17,0.66667
0.068086,0.34419,1.0213,-0.23372,-69.667,2713.9,0.63652,-0.21217,-1.8022,0.84869,3.81e-07,-0.9011,0,0,0.066667,-0,-0,0.66667
0.30089,0.64732,4.5133,0.22098,60.174,1701.8,-2.6596,0.88653,-1.8243,-3.5461,7.3563e-12,-0.91217,0,0,0.066667,3.158e-16,0,0.66667
0.90435,0.165,13.565,-0.50251,-27.299,43.416,18.178,-6.0592,-1.1063,24.237,-1.3192e-07,-0.55315,0,0,0.066667,-0,-0,0.66667
0.97554,0.09895,14.633,-0.60157,-8.5948,5.5431,23.474,-7.8248,-0.70765,31.299,7.2609e-05,-0.35383,0,0,0.066667,-0,-0,0.66667
0.76372,0.42414,11.456,-0.11379,-14.161,236.53,3.4761,-1.1587,-1.9578,4.6348,1.168e-13,-0.9789,0,0,0.066667,-0,-0,0.66667
0.00074091,0.7009,0.011114,0.30134,90.256,3017.9,-0.0089277,0.0029738,-1.6855,-0.011905,-3.1849e-06,-0.84275,0,0,0.066667,-1.2336e-18,0,0.66667
0.73522,0.5078,11.028,0.011694,1.6051,293.28,-0.34391,0.11464,-2.0079,-0.45854,-7.8923e-13,-1.0039,0,0,0.066667,-0,-0,0.66667
0.021993,0.48901,0.32989,-0.016483,-4.933,2921.8,0.0145,-0.0048343,-1.9931,0.019333,-1.1744e-06,-0.99657,0,0,0.066667,-2.6044e-17,0,0.66667
0.16857,0.88915,2.5285,0.58373,170.01,2266.7,-3.9359,1.312,-0.7879,-5.2478,1.0046e-08,-0.39395,0,0,0.066667,-0,-0,0.66667
0.010514,0.5907,0.15771,0.13605,40.734,2973.7,-0.057217,0.019072,-1.9308,-0.07629,-3.8668e-07,-0.9654,0,0,0.066667,8.0471e-18,0,0.66667
0.14913,0.66125,2.2369,0.24188,70.824,2352,-1.4428,0.48094,-1.7862,-1.9238,3.1909e-10,-0.89312,0,0,0.066667,-0,-0,0.66667
0.68751,0.849,10.313,0.52349,82.661,401.56,-14.396,4.7987,-1.038,-19.195,-7.9794e-12,-0.51899,0,0,0.066667,2.5264e-15,0,0.66667
0.70202,0.66322,10.53,0.24483,37.123,366.5,-6.8749,2.2916,-1.7942,-9.1666,4.6629e-14,-0.89711,0,0,0.066667,-0,-0,0.66667
0.37108,0.62406,5.5662,0.18608,48.036,1420.2,-2.7621,0.92069,-1.8763,-3.6827,1.2732e-11,-0.93813,0,0,0.066667,-9.4739e-16,0,0.66667
0.73119,0.38961,10.968,-0.16559,-23.026,301.87,4.8432,-1.6144,-1.9023,6.4576,-3.0118e-12,-0.95113,0,0,0.066667,-0,-0,0.66667
0.8473,0.93495,12.71,0.65242,55.117,105.23,-22.112,7.3707,-0.48652,-29.483,1.083e-07,-0.24326,0,0,0.066667,6.3159e-16,0,0.66667
0.13036,0.34722,1.9554,-0.22917,-67.461,2435.2,1.195,-0.39832,-1.8094,1.5933,1.5862e-09,-0.90472,0,0,0.066667,-0,-0,0.66667
0.087407,0.31784,1.3111,-0.27324,-81.207,2627.1,0.95533,-0.31844,-1.7293,1.2738,-1.049e-08,-0.86463,0,0,0.066667,-0,-0,0.66667
0.37192,0.38719,5.5788,-0.16922,-43.65,1416.9,2.5175,-0.83916,-1.8983,3.3566,1.2808e-12,-0.94916,0,0,0.066667,-6.3159e-16,0,0.66667
0.40388,0.36851,6.0583,-0.19723,-49.411,1294.1,3.1864,-1.0621,-1.8645,4.2485,1.4301e-11,-0.93225,0,0,0.066667,-3.158e-16,0,0.66667
0.2764,0.26887,4.1461,-0.3467,-95.905,1803.5,3.8332,-1.2777,-1.5687,5.1109,1.9112e-11,-0.78433,0,0,0.066667,-0,-0,0.66667
0.75417,0.94955,11.313,0.67432,87.161,257.17,-20.342,6.7807,-0.38065,-27.123,4.2867e-10,-0.19032,0,0,0.066667,-0,-0,0.66667
0.32179,0.38059,4.8268,-0.17911,-48.07,1616.4,2.3054,-0.76847,-1.8806,3.0739,3.283e-11,-0.94031,0,0,0.066667,6.3159e-16,0,0.66667
0.80014,0.32556,12.002,-0.26167,-28.108,172.38,8.3748,-2.7916,-1.7561,11.166,1.099e-10,-0.87806,0,0,0.066667,-1.2632e-15,0,0.66667
0.91131,0.010434,13.67,-0.73435,-37.328,39.512,26.769,-8.9229,-0.078388,35.692,9.3474e-08,-0.039194,0,0,0.066667,5.0527e-15,0,0.66667
0.51315,0.34174,7.6972,-0.23739,-52.34,904.05,4.8727,-1.6242,-1.8028,6.497,1.0813e-11,-0.9014,0,0,0.066667,-2.3685e-16,0,0.66667
0.42942,0.85161,6.4413,0.52741,128.89,1199.3,-9.0593,3.0198,-1.0047,-12.079,1.2242e-11,-0.50237,0,0,0.066667,-0,-0,0.66667
0.091595,0.89346,1.3739,0.59018,175.44,2608.5,-2.1623,0.72077,-0.76452,-2.8831,-1.9089e-08,-0.38226,0,0,0.066667,-0,8.9591e-17,0.66667
0.27368,0.57463,4.1052,0.11194,31.004,1814.7,-1.2254,0.40848,-1.9489,-1.6339,2.8689e-11,-0.97444,0,0,0.066667,-0,-0,0.66667
0.88665,0.22596,13.3,-0.41106,-26.204,59.042,14.579,-4.8595,-1.3975,19.438,1.0772e-08,-0.69873,0,0,0.066667,-0,-0,0.66667
0.24594,0.84764,3.6892,0.52147,146.82,1932,-5.1301,1.71,-1.0317,-6.8401,9.0501e-11,-0.51584,0,0,0.066667,-0,-0,0.66667
0.62119,0.40113,9.3178,-0.14831,-27.24,572.34,3.685,-1.2283,-1.9207,4.9134,1.4553e-12,-0.96035,0,0,0.066667,6.3159e-16,0,0.66667
0.49501,0.13347,7.4251,-0.5498,-124.38,966.13,10.886,-3.6287,-0.92131,14.515,9.4831e-12,-0.46065,0,0,0.066667,-1.2632e-15,0,0.66667
0.094373,0.39387,1.4156,-0.15919,-47.244,2595.8,0.60094,-0.20031,-1.9188,0.80125,2.3061e-08,-0.9594,0,0,0.066667,-1.579e-16,0,0.66667
0.89937,0.2333,13.491,-0.40005,-22.772,47.139,14.392,-4.7972,-1.4246,19.189,-6.2465e-08,-0.71228,0,0,0.066667,-0,-0,0.66667
0.067771,0.42028,1.0166,-0.11958,-35.641,2715.3,0.32416,-0.10805,-1.9444,0.43221,2.1232e-07,-0.97222,0,0,0.066667,-0,-0,0.66667
0.6807,0.99542,10.211,0.74312,119.63,419.24,-20.234,6.7446,-0.030999,-26.978,8.2281e-12,-0.015499,0,0,0.066667,-1.8948e-15,0,0.66667
0.972,0.03792,14.58,-0.69312,-11.423,7.2033,26.948,-8.9827,-0.292,35.931,0.00010882,-0.146,0,0,0.066667,-2.5264e-15,0,0.66667
0.70937,0.60707,10.641,0.16061,23.847,349.56,-4.5572,1.5191,-1.9024,-6.0762,-6.0441e-12,-0.95119,0,0,0.066667,1.2632e-15,0,0.66667
0.32591,0.44267,4.8886,-0.085998,-23.01,1599.7,1.1211,-0.3737,-1.9772,1.4948,3.0949e-11,-0.9886,0,0,0.066667,-1.2632e-15,0,0.66667
0.07344,0.089115,1.1016,-0.61633,-183.78,2690,1.8105,-0.60351,-0.6465,2.414,3.9134e-06,-0.32325,0,0,0.066667,-0,-0,0.66667
0.57974,0.45462,8.6961,-0.068069,-13.518,692.4,1.5785,-0.52616,-1.9884,2.1046,6.9637e-12,-0.9942,0,0,0.066667,-0,-0,0.66667
0.73352,0.54604,11.003,0.069061,9.5309,296.86,-2.0263,0.67543,-1.9909,-2.7017,-1.9174e-12,-0.99544,0,0,0.066667,-0,-0,0.66667
0.35885,0.30163,5.3827,-0.29756,-77.627,1468.3,4.2711,-1.4237,-1.6946,5.6949,-1.8021e-12,-0.84729,0,0,0.066667,3.158e-16,0,0.66667
0.65375,0.45072,9.8063,-0.073922,-12.656,484.61,1.9331,-0.64435,-1.9824,2.5774,9.6115e-12,-0.9912,0,0,0.066667,-0,-0,0.66667
0.56659,0.28236,8.4989,-0.32645,-66.342,732.79,7.3986,-2.4662,-1.62,9.8648,3.4706e-12,-0.81002,0,0,0.066667,-0,-0,0.66667
0.034106,0.81002,0.5116,0.46503,139.18,2867.2,-0.63442,0.21147,-1.233,-0.8459,-4.1005e-07,-0.61651,0,0,0.066667,4.9343e-17,0,0.66667
0.92069,0.71045,13.81,0.31568,14.274,29.851,-11.626,3.8753,-1.6526,-15.501,1.2545e-07,-0.82629,0,0,0.066667,-0,-0,0.66667
0.38001,0.39284,5.7001,-0.16074,-41.17,1385.5,2.4433,-0.81444,-1.9039,3.2578,8.068e-12,-0.95193,0,0,0.066667,-6.3159e-16,0,0.66667
0.3794,0.47358,5.691,-0.039633,-10.155,1387.8,0.60147,-0.20049,-1.992,0.80196,4.2453e-11,-0.99602,0,0,0.066667,-1.2632e-15,0,0.66667
0.84636,0.95139,12.695,0.67708,57.55,106.64,-22.922,7.6407,-0.37146,-30.563,2.0775e-09,-0.18573,0,0,0.066667,-0,-0,0.66667
0.48428,0.74198,7.2642,0.36298,83.192,1002.5,-7.0312,2.3437,-1.5431,-9.375,-3.0451e-12,-0.77157,0,0,0.066667,3.158e-16,0,0.66667
0.45107,0.58382,6.766,0.12573,29.974,1119.6,-2.2686,0.7562,-1.9473,-3.0248,-1.1986e-11,-0.97364,0,0,0.066667,-0,-0,0.66667
0.63986,0.077903,9.5979,-0.63315,-112.07,522.96,16.205,-5.4016,-0.58289,21.607,1.0109e-11,-0.29144,0,0,0.066667,-1.2632e-15,0,0.66667
0.21177,0.37721,3.1766,-0.18419,-52.678,2078.1,1.5602,-0.52008,-1.8742,2.0803,-2.6416e-11,-0.93709,0,0,0.066667,-6.3159e-16,0,0.66667
0.5283,0.65954,7.9245,0.2393,51.628,854.05,-5.0569,1.6856,-1.7979,-6.7426,1.103e-11,-0.89894,0,0,0.066667,-1.2632e-15,0,0.66667
0.66857,0.73875,10.029,0.35812,59.253,447.31,-9.5771,3.1924,-1.5435,-12.77,-2.8955e-12,-0.77177,0,0,0.066667,6.3159e-16,0,0.66667
0.53878,0.53461,8.0817,0.051909,11.022,819.91,-1.1187,0.3729,-1.9848,-1.4916,1.1743e-11,-0.99241,0,0,0.066667,-1.2632e-15,0,0.66667
0.70876,0.51033,10.631,0.015493,2.304,350.82,-0.43922,0.14641,-1.9941,-0.58563,-6.9895e-12,-0.99705,0,0,0.066667,-0,-0,0.66667
0.59854,0.27236,8.978,-0.34145,-65.581,637.22,8.1749,-2.725,-1.5819,10.9,8.6304e-12,-0.79093,0,0,0.066667,-0,-0,0.66667
0.84141,0.97782,12.621,0.71673,62.757,113.45,-24.122,8.0408,-0.1761,-32.163,-2.2942e-08,-0.088048,0,0,0.066667,-0,-0,0.66667
0.87917,0.69178,13.188,0.28767,19.452,66.105,-10.116,3.3721,-1.704,-13.488,-1.2422e-08,-0.85199,0,0,0.066667,-0,-0,0.66667
0.097839,0.91423,1.4676,0.62134,184.5,2580.5,-2.4317,0.81055,-0.62522,-3.2422,9.0037e-08,-0.31261,0,0,0.066667,-0,-0,0.66667
0.25859,0.81313,3.8789,0.46969,131.32,1878.4,-4.8584,1.6195,-1.2107,-6.4778,8.1199e-11,-0.60535,0,0,0.066667,6.3159e-16,0,0.66667
0.054656,0.72675,0.81984,0.34013,101.58,2774.4,-0.7436,0.24787,-1.5824,-0.99146,-1.7927e-07,-0.7912,0,0,0.066667,-1.579e-16,0,0.66667
0.22889,0.72613,3.4334,0.3392,96.271,2004.5,-3.1056,1.0352,-1.5863,-4.1408,5.0249e-11,-0.79317,0,0,0.066667,-0,-0,0.66667
0.72092,0.92251,10.814,0.63376,91.209,325.75,-18.276,6.0919,-0.57479,-24.367,-4.5972e-12,-0.2874,0,0,0.066667,-0,-0,0.66667
0.078545,0.26805,1.1782,-0.34793,-103.58,2666.9,1.0931,-0.36438,-1.5793,1.4575,1.322e-07,-0.78967,0,0,0.066667,7.8949e-17,0,0.66667
0.15512,0.29818,2.3268,-0.30273,-88.487,2325.6,1.8784,-0.62613,-1.6809,2.5045,-7.1804e-10,-0.84044,0,0,0.066667,-0,-0,0.66667
0.77077,0.53238,11.562,0.04857,5.8864,223.28,-1.4975,0.49915,-1.9885,-1.9966,-2.0336e-11,-0.99427,0,0,0.066667,-0,-0,0.66667
0.44433,0.61235,6.6649,0.16852,40.482,1144,-2.9952,0.99839,-1.8927,-3.9936,-8.3877e-12,-0.94635,0,0,0.066667,-6.3159e-16,0,0.66667
0.29012,0.25853,4.3518,-0.36221,-99.354,1746.4,4.2034,-1.4011,-1.5275,5.6045,1.8217e-12,-0.76377,0,0,0.066667,-0,-0,0.66667
0.64398,0.052056,9.6598,-0.67192,-117.9,512.18,17.308,-5.7694,-0.39423,23.078,8.3791e-12,-0.19712,0,0,0.066667,-0,-0,0.66667
0.88694,0.78263,13.304,0.42394,26.965,58.82,-15.04,5.0135,-1.3608,-20.054,-1.1216e-08,-0.68041,0,0,0.066667,-0,-0,0.66667
0.037605,0.21276,0.56408,-0.43086,-128.91,2851.3,0.64811,-0.21603,-1.3346,0.86415,4.7115e-06,-0.66728,0,0,0.066667,5.9212e-17,0,0.66667
0.69309,0.34974,10.396,-0.22539,-35.016,387.25,6.2487,-2.0829,-1.8148,8.3316,2.192e-12,-0.90741,0,0,0.066667,-0,-0,0.66667
0.66855,0.79927,10.028,0.4489,74.31,447.69,-12.005,4.0015,-1.2829,-16.006,-9.2015e-13,-0.64146,0,0,0.066667,-0,-0,0.66667
0.86801,0.95452,13.02,0.68178,50.36,80.439,-23.672,7.8906,-0.34085,-31.562,1.0553e-07,-0.17042,0,0,0.066667,-1.0279e-15,0,0.66667
0.19637,0.81264,2.9456,0.46895,135.09,2145,-3.6836,1.2279,-1.2134,-4.9114,-4.6444e-10,-0.60671,0,0,0.066667,-0,-0,0.66667
0.71279,0.15627,10.692,-0.5156,-75.933,343.03,14.701,-4.9002,-1.0508,19.601,7.0521e-12,-0.52542,0,0,0.066667,-0,-0,0.66667
0.1039,0.056099,1.5585,-0.66585,-197.52,2553.5,2.7673,-0.92244,-0.41918,3.6897,6.7162e-07,-0.20959,0,0,0.066667,-7.8949e-17,0,0.66667
0.056626,0.54676,0.8494,0.070139,20.934,2765.5,-0.15887,0.052956,-1.977,-0.21182,-1.6861e-07,-0.98848,0,0,0.066667,-0,-0,0.66667
0.6808,0.40741,10.212,-0.13889,-22.277,416.59,3.7822,-1.2607,-1.9266,5.0429,4.0323e-13,-0.96329,0,0,0.066667,-0,-0,0.66667
0.022635,0.96403,0.33952,0.69604,208.65,2919,-0.63015,0.21013,-0.2717,-0.84016,0.00011846,-0.13585,0,0,0.066667,9.8686e-18,0,0.66667
0.044299,0.56065,0.66449,0.090972,27.186,2821.1,-0.1612,0.053733,-1.9735,-0.21493,-3.4819e-07,-0.98673,0,0,0.066667,3.9475e-17,0,0.66667
0.036953,0.65012,0.5543,0.22519,67.344,2854.3,-0.33285,0.11095,-1.815,-0.4438,-3.7288e-07,-0.9075,0,0,0.066667,-5.9212e-17,0,0.66667
0.46541,0.98725,6.9812,0.73087,171.75,1069.9,-13.606,4.5354,-0.1001,-18.142,3.5483e-12,-0.050051,0,0,0.066667,-0,-0,0.66667
0.75787,0.97817,11.368,0.71726,91.551,250.27,-21.744,7.2479,-0.16439,-28.992,-1.1837e-10,-0.082194,0,0,0.066667,-1.2632e-15,0,0.66667
0.9922,0.35965,14.883,-0.21052,-0.86831,0.73202,8.3551,-2.785,-1.8357,11.14,-2.0575e-06,-0.91787,0,0,0.066667,1.2632e-15,0,0.66667
0.22661,0.051699,3.3991,-0.67245,-191.3,2014.8,6.0953,-2.0318,-0.3857,8.1271,-8.782e-10,-0.19285,0,0,0.066667,-0,-0,0.66667
0.79238,0.9928,11.886,0.73919,82.511,187.85,-23.429,7.8096,-0.054341,-31.239,-2.0769e-10,-0.027171,0,0,0.066667,-6.3159e-16,6.0212e-17,0.66667
0.79525,0.63474,11.929,0.20211,22.178,180.35,-6.429,2.143,-1.8598,-8.5721,-1.7805e-11,-0.9299,0,0,0.066667,-0,-0,0.66667
0.87224,0.73008,13.084,0.34512,24.606,73.728,-12.041,4.0137,-1.5776,-16.055,-1.094e-10,-0.78881,0,0,0.066667,-0,-0,0.66667
0.31426,0.1988,4.7138,-0.4518,-121.99,1647.4,5.6793,-1.8931,-1.2787,7.5723,3.3759e-11,-0.63934,0,0,0.066667,6.3159e-16,0,0.66667
0.13293,0.97676,1.9939,0.71514,210.71,2424.2,-3.8024,1.2675,-0.17535,-5.0699,-2.1706e-07,-0.087673,0,0,0.066667,-0,-0,0.66667
0.7967,0.4663,11.951,-0.050555,-5.5105,177.72,1.6111,-0.53703,-2.003,2.1481,5.5559e-11,-1.0015,0,0,0.066667,-3.158e-16,0,0.66667
0.56746,0.72882,8.512,0.34323,69.653,730.15,-7.7908,2.5969,-1.5771,-10.388,5.6168e-12,-0.78856,0,0,0.066667,-0,-0,0.66667
0.41465,0.95374,6.2198,0.68061,169.01,1254.7,-11.289,3.7629,-0.34638,-15.052,-5.6701e-12,-0.17319,0,0,0.066667,-6.3159e-16,0,0.66667
0.058642,0.28368,0.87963,-0.32448,-96.854,2756.5,0.76111,-0.2537,-1.6249,1.0148,1.5577e-07,-0.81244,0,0,0.066667,-1.579e-16,0,0.66667
0.0065569,0.5739,0.098353,0.11085,33.189,2991.6,-0.029072,0.00969,-1.9502,-0.038763,-1.0096e-06,-0.97512,0,0,0.066667,-0,-0,0.66667
0.31602,0.75669,4.7404,0.38504,103.81,1640.1,-4.8672,1.6224,-1.4723,-6.4896,1.6737e-11,-0.73614,0,0,0.066667,-0,-0,0.66667
0.27146,0.081049,4.0719,-0.62843,-174.53,1824.6,6.8237,-2.2746,-0.5904,9.0982,1.9101e-11,-0.2952,0,0,0.066667,-0,-0,0.66667
0.47572,0.10702,7.1359,-0.58947,-136.69,1033,11.217,-3.739,-0.7581,14.956,1.3722e-12,-0.37905,0,0,0.066667,-0,-0,0.66667
0.92361,0.70004,13.854,0.30007,13.081,27.767,-11.086,3.6953,-1.6843,-14.781,2.4726e-07,-0.84216,0,0,0.066667,-0,-0,0.66667
0.41668,0.22976,6.2503,-0.40536,-100.33,1246.3,6.7563,-2.2521,-1.4113,9.0084,1.3401e-11,-0.70565,0,0,0.066667,-0,-0,0.66667
0.28788,0.10823,4.3183,-0.58766,-161.55,1756.1,6.7671,-2.2557,-0.76587,9.0228,1.7934e-11,-0.38293,0,0,0.066667,-0,-0,0.66667
0.84525,0.91623,12.679,0.62435,53.374,107.69,-21.109,7.0364,-0.61953,-28.145,5.7138e-08,-0.30976,0,0,0.066667,-0,-0,0.66667
0.30695,0.78329,4.6042,0.42494,115.3,1677.2,-5.2174,1.7391,-1.3541,-6.9566,3.2675e-11,-0.67705,0,0,0.066667,-1.2632e-15,0,0.66667
0.91558,0.72742,13.734,0.34113,16.391,33.669,-12.493,4.1644,-1.5806,-16.658,1.2322e-09,-0.7903,0,0,0.066667,-0,-0,0.66667
0.86341,0.41234,12.951,-0.13149,-9.9658,83.132,4.5413,-1.5138,-1.9368,6.055,-1.1616e-10,-0.96838,0,0,0.066667,-0,-0,0.66667
0.63882,0.45407,9.5823,-0.068897,-12.194,524.05,1.7605,-0.58684,-1.9873,2.3474,8.4944e-12,-0.99364,0,0,0.066667,1.2632e-15,0,0.66667
0.74768,0.11919,11.215,-0.57122,-75.429,269.4,17.083,-5.6945,-0.84289,22.778,3.4465e-11,-0.42145,0,0,0.066667,6.3159e-16,0,0.66667
0.15732,0.51803,2.3598,0.02704,7.8955,2315.8,-0.17016,0.05672,-2.0044,-0.22688,1.2281e-10,-1.0022,0,0,0.066667,-0,-0,0.66667
0.60287,0.40279,9.0431,-0.14582,-27.764,624.27,3.5164,-1.1721,-1.9193,4.6885,-2.0823e-12,-0.95964,0,0,0.066667,1.4417e-15,0,0.66667
0.32704,0.77317,4.9056,0.40975,109.61,1595.5,-5.3602,1.7867,-1.4103,-7.1469,-7.8648e-13,-0.70516,0,0,0.066667,-3.158e-16,0,0.66667
0.48868,0.32935,7.3302,-0.25597,-58.321,987.07,5.0035,-1.6678,-1.7641,6.6713,1.0784e-11,-0.88203,0,0,0.066667,-6.3159e-16,0,0.66667
0.22539,0.050825,3.3808,-0.67376,-191.78,2020.1,6.0743,-2.0248,-0.37978,8.099,-5.9724e-10,-0.18989,0,0,0.066667,-0,-0,0.66667
0.90196,0.60304,13.529,0.15455,8.5596,44.069,-5.576,1.8587,-1.9124,-7.4347,2.7112e-08,-0.9562,0,0,0.066667,-2.5264e-15,0,0.66667
0.41153,0.42271,6.173,-0.11593,-28.823,1265.2,1.9083,-0.63612,-1.9475,2.5445,4.7446e-12,-0.97373,0,0,0.066667,6.3159e-16,0,0.66667
0.47673,0.70617,7.151,0.30926,71.542,1028.6,-5.8974,1.9658,-1.6533,-7.8632,4.6771e-12,-0.82667,0,0,0.066667,-0,-0,0.66667
0.7214,0.15836,10.821,-0.51246,-73.57,324.02,14.788,-4.9292,-1.0688,19.717,-9.627e-12,-0.53442,0,0,0.066667,2.5264e-15,0,0.66667
0.1222,0.17644,1.833,-0.48533,-143.26,2471.7,2.3722,-0.79075,-1.1635,3.163,2.186e-08,-0.58175,0,0,0.066667,-0,-0,0.66667
0.50307,0.68793,7.546,0.28189,63.024,938,-5.6724,1.8908,-1.7192,-7.5631,-7.0561e-12,-0.85959,0,0,0.066667,-0,-0,0.66667
0.81315,0.36156,12.197,-0.20766,-20.994,151.53,6.7542,-2.2514,-1.8554,9.0056,-3.0501e-11,-0.92772,0,0,0.066667,-0,-0,0.66667
0.67734,0.69818,10.16,0.29728,48.12,425.35,-8.0543,2.6848,-1.6809,-10.739,-2.7711e-13,-0.84047,0,0,0.066667,-0,-0,0.66667
0.32165,0.80098,4.8248,0.45147,121.26,1617.3,-5.8086,1.9362,-1.2693,-7.7448,1.1271e-12,-0.63464,0,0,0.066667,-3.158e-16,0,0.66667
0.71067,0.039029,10.66,-0.69146,-102.61,348.8,19.656,-6.5519,-0.29382,26.208,7.5264e-12,-0.14691,0,0,0.066667,-0,-0,0.66667
0.93444,0.58484,14.017,0.12727,4.77,20.413,-4.7569,1.5856,-1.9428,-6.3426,2.2929e-07,-0.97141,0,0,0.066667,-6.3159e-16,0,0.66667
0.89478,0.50953,13.422,0.014295,0.84666,50.313,-0.51162,0.17054,-1.9969,-0.68216,2.9219e-08,-0.99844,0,0,0.066667,-0,-0,0.66667
0.74223,0.14996,11.134,-0.52505,-70.582,280.14,15.589,-5.1962,-1.0137,20.785,-1.0907e-11,-0.50687,0,0,0.066667,-6.3159e-16,0,0.66667
0.2661,0.93073,3.9915,0.64609,180.01,1847.1,-6.877,2.2923,-0.52581,-9.1694,9.0453e-11,-0.26291,0,0,0.066667,-0,-0,0.66667
0.37249,0.86234,5.5873,0.54351,140.28,1415.4,-8.0981,2.6994,-0.95148,-10.797,1.5763e-11,-0.47574,0,0,0.066667,-1.0727e-15,0,0.66667
0.55842,0.31668,8.3763,-0.27499,-56.632,757.98,6.1423,-2.0474,-1.7296,8.1897,7.6055e-12,-0.86478,0,0,0.066667,-0,-0,0.66667
0.38105,0.070133,5.7157,-0.6448,-165.25,1382.5,9.828,-3.276,-0.51642,13.104,3.0544e-12,-0.25821,0,0,0.066667,-0,-0,0.66667
0.45575,0.84494,6.8362,0.51742,122.83,1103.5,-9.4324,3.1441,-1.051,-12.577,2.4737e-11,-0.52549,0,0,0.066667,-0,-0,0.66667
0.79353,0.18086,11.903,-0.47872,-53.017,184.24,15.195,-5.065,-1.185,20.26,-6.5651e-11,-0.59252,0,0,0.066667,-0,-0,0.66667
0.10394,0.71371,1.5591,0.32057,94.978,2553.1,-1.3328,0.44426,-1.6304,-1.7771,-6.1579e-08,-0.81521,0,0,0.066667,1.579e-16,0,0.66667
0.973,0.92263,14.595,0.63395,10.027,6.4322,-24.673,8.2243,-0.56823,-32.897,-8.8569e-05,-0.28411,0,0,0.066667,-1.2632e-15,0,0.66667
0.70462,0.8528,10.569,0.52921,79.783,361.56,-14.916,4.9718,-1.0098,-19.887,-2.685e-12,-0.50492,0,0,0.066667,-0,-0,0.66667
0.86473,0.52076,12.971,0.031139,2.3383,81.51,-1.0771,0.35903,-1.9919,-1.4361,6.4001e-10,-0.99594,0,0,0.066667,-0,-0,0.66667
0.78168,0.68811,11.725,0.28216,32.785,203.93,-8.8224,2.9408,-1.7282,-11.763,2.8364e-11,-0.86409,0,0,0.066667,-2.5264e-15,0,0.66667
0.43218,0.39892,6.4828,-0.15162,-36.904,1188.4,2.621,-0.87368,-1.9139,3.4947,6.0136e-12,-0.95697,0,0,0.066667,-3.158e-16,0,0.66667
0.94251,0.66326,14.138,0.24489,8.0767,16.185,-9.2325,3.0775,-1.783,-12.31,2.4558e-07,-0.89148,0,0,0.066667,-0,-0,0.66667
0.25309,0.76368,3.7963,0.39553,110.89,1901.6,-4.0041,1.3347,-1.4438,-5.3388,1.4128e-11,-0.72191,0,0,0.066667,-0,-0,0.66667
0.046248,0.68612,0.69373,0.27918,83.434,2812.3,-0.51646,0.17215,-1.7331,-0.68862,-1.1826e-06,-0.86656,0,0,0.066667,-1.2891e-17,0,0.66667
0.096878,0.058385,1.4532,-0.66242,-196.78,2584.9,2.567,-0.85566,-0.44065,3.4226,-2.7738e-07,-0.22032,0,0,0.066667,-3.9475e-17,0,0.66667
0.20074,0.92202,3.011,0.63304,182.15,2126.3,-5.0829,1.6943,-0.57732,-6.7773,5.1742e-09,-0.28866,0,0,0.066667,3.158e-16,0,0.66667
0.53908,0.92003,8.0862,0.63004,133.98,820.35,-13.586,4.5286,-0.58197,-18.114,6.4704e-12,-0.29099,0,0,0.066667,-0,-0,0.66667
0.2236,0.96428,3.354,0.69642,198.43,2027.8,-6.2289,2.0763,-0.27236,-8.3052,-1.2721e-10,-0.13618,0,0,0.066667,-7.8949e-17,0,0.66667
0.83532,0.38831,12.53,-0.16754,-15.098,118.99,5.598,-1.866,-1.8937,7.4639,2.0099e-10,-0.94684,0,0,0.066667,-1.2632e-15,0,0.66667
0.0093387,0.58342,0.14008,0.12514,37.467,2979,-0.046745,0.015581,-1.9385,-0.062326,-7.2885e-07,-0.96927,0,0,0.066667,9.8686e-18,0,0.66667
0.7459,0.015099,11.189,-0.72735,-96.777,273.97,21.701,-7.2338,-0.11644,28.935,-1.2404e-11,-0.058218,0,0,0.066667,2.5264e-15,0,0.66667
0.96901,0.0082624,14.535,-0.73761,-13.489,8.4508,28.59,-9.5299,-0.076236,38.12,-4.467e-05,-0.038118,0,0,0.066667,-0,-0,0.66667
0.26718,0.74307,4.0077,0.36461,101.41,1842.1,-3.8967,1.2989,-1.5329,-5.1956,1.4944e-11,-0.76646,0,0,0.066667,4.737e-16,0,0.66667
0.62382,0.32965,9.3572,-0.25552,-46.694,565.23,6.3759,-2.1253,-1.7744,8.5012,4.5608e-13,-0.88719,0,0,0.066667,1.2632e-15,0,0.66667
0.71478,0.52636,10.722,0.039541,5.7788,337.34,-1.1305,0.37684,-1.993,-1.5074,-6.8486e-12,-0.9965,0,0,0.066667,6.3159e-16,0,0.66667
0.32696,0.7978,4.9044,0.4467,119.52,1595.9,-5.8421,1.9474,-1.2971,-7.7894,-4.8148e-12,-0.64855,0,0,0.066667,-3.872e-16,0,0.66667
0.43313,0.90443,6.4969,0.60665,147.73,1185.9,-10.51,3.5034,-0.68969,-14.014,2.2951e-12,-0.34484,0,0,0.066667,-2.3685e-16,0,0.66667
0.73441,0.54863,11.016,0.072945,10.038,294.99,-2.1428,0.71428,-1.9926,-2.8571,-7.514e-13,-0.99629,0,0,0.066667,-0,-0,0.66667
0.13115,0.57227,1.9673,0.10841,31.902,2431.7,-0.56873,0.18958,-1.9526,-0.75831,-1.276e-09,-0.9763,0,0,0.066667,-0,-0,0.66667
0.14369,0.47577,2.1553,-0.036347,-10.658,2376.1,0.20891,-0.069635,-1.9959,0.27854,-2.7312e-10,-0.99796,0,0,0.066667,-0,-0,0.66667
0.37541,0.69567,5.6311,0.2935,75.497,1403.5,-4.4073,1.4691,-1.7039,-5.8764,7.9718e-12,-0.85194,0,0,0.066667,-0,-0,0.66667
0.22841,0.19772,3.4261,-0.45343,-128.76,2006.7,4.1427,-1.3809,-1.2635,5.5236,-4.3542e-11,-0.63177,0,0,0.066667,-0,-0,0.66667
0.30699,0.88371,4.6048,0.57556,156.26,1677.4,-7.0676,2.3559,-0.8174,-9.4234,7.2844e-12,-0.4087,0,0,0.066667,-0,-0,0.66667
0.15007,0.072026,2.251,-0.64196,-188.15,2348.2,3.8535,-1.2845,-0.52909,5.1379,9.1863e-08,-0.26454,0,0,0.066667,-0,-0,0.66667
0.096636,0.18496,1.4495,-0.47256,-140.28,2585.8,1.8267,-0.60889,-1.2078,2.4356,8.4655e-08,-0.6039,0,0,0.066667,1.7764e-16,0,0.66667
0.91598,0.64756,13.74,0.22134,10.571,32.959,-8.1096,2.7032,-1.8206,-10.813,3.59e-08,-0.91029,0,0,0.066667,-6.3159e-16,0,0.66667
0.34589,0.11261,5.1884,-0.58109,-153.33,1520.2,8.0398,-2.6799,-0.80245,10.72,1.1672e-11,-0.40123,0,0,0.066667,6.3159e-16,0,0.66667
0.56597,0.13305,8.4895,-0.55042,-112.09,735.45,12.461,-4.1536,-0.92219,16.614,1.2042e-11,-0.4611,0,0,0.066667,-0,-0,0.66667
0.5472,0.55488,8.208,0.082323,17.254,793.02,-1.8019,0.60062,-1.9865,-2.4025,2.8106e-12,-0.99325,0,0,0.066667,-6.3159e-16,0,0.66667
0.45036,0.74018,6.7554,0.36028,86,1122.5,-6.4901,2.1634,-1.5397,-8.6535,3.4559e-12,-0.76984,0,0,0.066667,-0,-0,0.66667
0.74782,0.86528,11.217,0.54792,72.301,268.97,-16.39,5.4632,-0.93567,-21.853,-3.5373e-11,-0.46784,0,0,0.066667,-0,-0,0.66667
0.33158,0.45399,4.9736,-0.069014,-18.388,1576.8,0.91534,-0.30511,-1.9821,1.2205,-2.2132e-12,-0.99105,0,0,0.066667,6.3159e-16,0,0.66667
0.89248,0.95819,13.387,0.68728,41.891,55.255,-24.535,8.1785,-0.32466,-32.714,1.5132e-06,-0.16233,0,0,0.066667,1.2632e-15,0,0.66667
0.068033,0.51241,1.0205,0.018622,5.55,2714.1,-0.050677,0.016892,-1.9937,-0.06757,-9.0092e-08,-0.99686,0,0,0.066667,-0,-0,0.66667
0.57489,0.96135,8.6233,0.69202,138.93,708.86,-15.913,5.3045,-0.29735,-21.218,1.2879e-13,-0.14868,0,0,0.066667,-0,-5.7085e-17,0.66667
0.33905,0.43135,5.0858,-0.10297,-27.282,1546.8,1.3965,-0.46551,-1.9592,1.8621,-6.0483e-12,-0.97958,0,0,0.066667,-0,-0,0.66667
0.3639,0.66764,5.4585,0.25147,65.32,1448.4,-3.6604,1.2201,-1.7719,-4.8805,8.6353e-12,-0.88593,0,0,0.066667,-0,-0,0.66667
0.3051,0.37781,4.5765,-0.18329,-49.767,1684.5,2.2368,-0.74561,-1.8751,2.9824,5.5145e-12,-0.93754,0,0,0.066667,-0,-0,0.66667
0.60359,0.94863,9.0538,0.67295,128.26,623.95,-16.247,5.4158,-0.38452,-21.663,-6.3629e-12,-0.19226,0,0,0.066667,1.2632e-15,0,0.66667
0.23441,0.46749,3.5161,-0.048765,-13.797,1980.8,0.45724,-0.15241,-2.0045,0.60965,1.4306e-11,-1.0022,0,0,0.066667,-1.1842e-16,0,0.66667
0.29431,0.43836,4.4146,-0.092459,-25.282,1728.9,1.0884,-0.36282,-1.9727,1.4513,1.315e-11,-0.98635,0,0,0.066667,-0,-0,0.66667
0.28549,0.42049,4.2824,-0.11926,-32.794,1765.4,1.3619,-0.45397,-1.9466,1.8159,1.5869e-11,-0.97329,0,0,0.066667,-0,-0,0.66667
0.0067954,0.58364,0.10193,0.12547,37.567,2990.5,-0.034104,0.011367,-1.9379,-0.045472,-1.2411e-06,-0.96894,0,0,0.066667,-0,-0,0.66667
0.37162,0.0048918,5.5743,-0.74266,-192.02,1419.4,11.039,-3.6798,-0.038966,14.719,1.3703e-11,-0.019483,0,0,0.066667,-0,-4.1696e-17,0.66667
0.048897,0.076676,0.73346,-0.63499,-189.94,2800.5,1.242,-0.41398,-0.56974,1.6559,7.8356e-06,-0.28487,0,0,0.066667,-0,-0,0.66667
0.87438,0.14969,13.116,-0.52546,-36.963,72.321,18.378,-6.1261,-1.0277,24.504,-4.3553e-08,-0.51383,0,0,0.066667,6.3159e-16,0,0.66667
0.72182,0.92676,10.827,0.64014,91.881,323.81,-18.483,6.1609,-0.54325,-24.644,2.6938e-11,-0.27163,0,0,0.066667,6.3159e-16,0,0.66667
0.59531,0.62135,8.9296,0.18202,35.155,646.3,-4.3344,1.4448,-1.8883,-5.7792,-2.4567e-12,-0.94413,0,0,0.066667,3.158e-16,0,0.66667
0.74388,0.72732,11.158,0.34099,45.532,276.01,-10.146,3.382,-1.5811,-13.528,5.7421e-12,-0.79056,0,0,0.066667,-2.5264e-15,0,0.66667
0.90109,0.89498,13.516,0.59247,33.29,46.78,-21.355,7.1183,-0.74751,-28.473,-1.0379e-07,-0.37376,0,0,0.066667,1.2632e-15,0,0.66667
0.69409,0.53893,10.411,0.058402,9.046,384.69,-1.6215,0.54049,-1.9821,-2.1619,1.8729e-12,-0.99104,0,0,0.066667,1.2632e-15,0,0.66667
0.59076,0.78029,8.8613,0.42044,81.945,660.24,-9.9351,3.3117,-1.3733,-13.247,-1.0996e-12,-0.68664,0,0,0.066667,7.8949e-17,0,0.66667
0.12426,0.25482,1.8639,-0.36778,-108.47,2462.4,1.828,-0.60933,-1.5282,2.4373,-1.3294e-08,-0.76411,0,0,0.066667,3.158e-16,0,0.66667
0.40458,0.13421,6.0687,-0.54868,-137.51,1292.2,8.8795,-2.9598,-0.93454,11.839,1.4031e-11,-0.46727,0,0,0.066667,-0,-0,0.66667
0.57895,0.47578,8.6843,-0.036332,-7.225,694.75,0.84137,-0.28046,-2.0038,1.1218,8.3789e-12,-1.0019,0,0,0.066667,-0,-0,0.66667
0.60284,0.39327,9.0427,-0.16009,-30.484,624.37,3.8604,-1.2868,-1.9027,5.1472,8.0715e-12,-0.95137,0,0,0.066667,-7.1391e-16,0,0.66667
0.96078,0.57742,14.412,0.11613,2.6132,7.7519,-4.463,1.4877,-1.9454,-5.9507,2.6847e-07,-0.97269,0,0,0.066667,-0,-0,0.66667
0.2055,0.25097,3.0825,-0.37355,-107.17,2105.3,3.0706,-1.0235,-1.5076,4.0941,-7.3225e-11,-0.75378,0,0,0.066667,-6.3159e-16,0,0.66667
0.66315,0.28458,9.9473,-0.32312,-54.154,460.89,8.5712,-2.8571,-1.6234,11.428,2.6974e-12,-0.8117,0,0,0.066667,-0,-0,0.66667
0.25643,0.71292,3.8464,0.31938,89.362,1887.3,-3.276,1.092,-1.6319,-4.368,2.6476e-11,-0.81594,0,0,0.066667,3.158e-16,0,0.66667
0.41776,0.90282,6.2664,0.60424,149.51,1242.8,-10.097,3.3657,-0.70034,-13.463,-1.1702e-11,-0.35017,0,0,0.066667,1.0711e-15,0,0.66667
0.97195,0.79455,14.579,0.44182,7.163,5.3679,-17.177,5.7257,-1.3057,-22.903,-1.4689e-05,-0.65284,0,0,0.066667,-0,-0,0.66667
0.33108,0.21938,4.9662,-0.42092,-112.27,1579.2,5.5743,-1.8581,-1.372,7.4325,4.2655e-11,-0.68601,0,0,0.066667,-1.2632e-15,0,0.66667
0.36202,0.80588,5.4303,0.45882,119.44,1456.1,-6.6442,2.2147,-1.2534,-8.8589,1.0369e-11,-0.62669,0,0,0.066667,3.158e-16,0,0.66667
0.43957,0.88818,6.5935,0.58227,140.79,1162.2,-10.238,3.4126,-0.7978,-13.651,2.6503e-12,-0.3989,0,0,0.066667,-6.3159e-16,0,0.66667
0.040668,0.2298,0.61002,-0.4053,-121.22,2837.5,0.65931,-0.21977,-1.4102,0.87908,5.0625e-06,-0.70509,0,0,0.066667,-0,-0,0.66667
0.39857,0.98348,5.9786,0.72522,182.98,1315.6,-11.562,3.854,-0.12331,-15.416,1.1045e-11,-0.061654,0,0,0.066667,3.1241e-16,0,0.66667
0.61899,0.75301,9.2848,0.37952,70.068,579,-9.3967,3.1322,-1.4833,-12.529,1.5915e-11,-0.74164,0,0,0.066667,-2.5264e-15,0,0.66667
0.57808,0.34732,8.6712,-0.22902,-45.625,697.58,5.2957,-1.7652,-1.826,7.0609,1.6541e-11,-0.91298,0,0,0.066667,-1.2632e-15,0,0.66667
0.87341,0.69227,13.101,0.2884,20.375,72.241,-10.076,3.3585,-1.7101,-13.434,-1.6693e-09,-0.85503,0,0,0.066667,-0,-0,0.66667
0.64119,0.48266,9.6178,-0.02601,-4.5798,517.69,0.66708,-0.22236,-2.0067,0.88944,1.0371e-12,-1.0034,0,0,0.066667,1.2632e-15,0,0.66667
0.55696,0.28943,8.3543,-0.31585,-65.21,762.63,7.0366,-2.3455,-1.6406,9.3821,2.0207e-11,-0.82028,0,0,0.066667,-0,-0,0.66667
0.64065,0.67751,9.6097,0.26626,46.958,519.44,-6.8232,2.2744,-1.7597,-9.0976,2.2524e-12,-0.87984,0,0,0.066667,-6.3159e-16,0,0.66667
0.047617,0.81433,0.71425,0.47149,140.96,2806.2,-0.89803,0.29934,-1.2192,-1.1974,-3.3769e-06,-0.60962,0,0,0.066667,1.579e-16,0,0.66667
0.99612,0.68887,14.942,0.28331,0.51628,0.68329,-11.288,3.7628,-1.714,-15.051,4.2423e-06,-0.85701,0,0,0.066667,2.5264e-15,0,0.66667
0.15171,0.22945,2.2756,-0.40583,-118.78,2340.8,2.4627,-0.82089,-1.4111,3.2836,-6.3972e-09,-0.70555,0,0,0.066667,-0,-0,0.66667
0.41845,0.81781,6.2767,0.47671,117.81,1239.9,-7.9792,2.6597,-1.1918,-10.639,3.4723e-12,-0.59591,0,0,0.066667,-0,-0,0.66667
0.29525,0.80281,4.4288,0.45422,124.22,1725.4,-5.3644,1.7881,-1.2715,-7.1525,1.0409e-11,-0.63575,0,0,0.066667,3.158e-16,0,0.66667
0.57722,0.81039,8.6583,0.46559,92.973,700.82,-10.75,3.5833,-1.2382,-14.333,1.9273e-13,-0.61908,0,0,0.066667,3.158e-16,0,0.66667
0.55956,0.38471,8.3934,-0.17294,-35.541,754.25,3.8707,-1.2902,-1.8944,5.161,1.0739e-11,-0.94718,0,0,0.066667,-0,-0,0.66667
0.35211,0.38676,5.2817,-0.16986,-44.547,1494.8,2.3925,-0.79749,-1.8909,3.19,1.052e-11,-0.94547,0,0,0.066667,-0,-0,0.66667
0.97363,0.5925,14.604,0.13875,2.0882,3.7868,-5.4036,1.8012,-1.9289,-7.2047,-1.9161e-06,-0.96445,0,0,0.066667,-1.579e-16,0,0.66667
0.75127,0.074357,11.269,-0.63846,-83.33,262.64,19.186,-6.3955,-0.55689,25.582,-2.031e-10,-0.27844,0,0,0.066667,-1.2632e-15,0,0.66667
0.88984,0.47627,13.348,-0.035598,-2.2025,54.95,1.267,-0.42235,-2.0041,1.6894,-9.0552e-10,-1.0021,0,0,0.066667,-0,-0,0.66667
0.45541,0.35388,6.8312,-0.21918,-52,1104,3.9927,-1.3309,-1.8319,5.3236,3.5931e-12,-0.91595,0,0,0.066667,-0,-0,0.66667
0.59941,0.38751,8.9911,-0.16873,-32.339,634.34,4.0455,-1.3485,-1.8936,5.394,5.4743e-12,-0.94678,0,0,0.066667,-0,-0,0.66667
0.41345,0.26606,6.2018,-0.3509,-87.116,1258.3,5.8033,-1.9344,-1.5556,7.7377,1.4682e-11,-0.77781,0,0,0.066667,6.3159e-16,0,0.66667
0.30426,0.81819,4.5638,0.47729,129.77,1688.3,-5.8087,1.9362,-1.1841,-7.7449,3.5438e-13,-0.59205,0,0,0.066667,-0,-0,0.66667
0.52547,0.88331,7.8821,0.57497,124.72,864.26,-12.085,4.0284,-0.81953,-16.113,-2.015e-11,-0.40976,0,0,0.066667,1.2632e-15,0,0.66667
0.19097,0.46084,2.8645,-0.058738,-16.945,2168.3,0.44868,-0.14956,-1.9871,0.59824,-1.1314e-11,-0.99357,0,0,0.066667,3.158e-16,0,0.66667
0.2141,0.36253,3.2115,-0.2062,-58.913,2068,1.7659,-0.58864,-1.8452,2.3545,-1.6115e-11,-0.92261,0,0,0.066667,-0,-0,0.66667
0.51079,0.3033,7.6618,-0.29505,-65.275,912.05,6.0282,-2.0094,-1.6868,8.0376,3.7317e-12,-0.84338,0,0,0.066667,6.3159e-16,0,0.66667
0.013852,0.4555,0.20778,-0.066746,-19.981,2958.6,0.036983,-0.012329,-1.9885,0.049311,-1.1852e-06,-0.99423,0,0,0.066667,-0,-0,0.66667
0.44549,0.60343,6.6823,0.15514,37.219,1139.8,-2.7645,0.92152,-1.908,-3.6861,-8.2629e-12,-0.954,0,0,0.066667,-0,-0,0.66667
0.9967,0.13602,14.951,-0.54597,-0.92919,2.1,21.767,-7.2556,-0.9398,29.022,2.0537e-05,-0.4699,0,0,0.066667,-0,-7.209e-17,0.66667
0.82268,0.39534,12.34,-0.157,-15.134,137.03,5.1663,-1.7221,-1.9075,6.8884,5.6816e-11,-0.95377,0,0,0.066667,-0,-0,0.66667
0.083461,0.43763,1.2519,-0.093562,-27.819,2644.8,0.31235,-0.10412,-1.9657,0.41647,2.5643e-08,-0.98286,0,0,0.066667,-3.158e-16,0,0.66667
0.65589,0.91258,9.8384,0.61887,105.68,480.72,-16.236,5.4121,-0.64882,-21.649,-1.9718e-12,-0.32441,0,0,0.066667,-0,5.1006e-17,0.66667
0.22539,0.92737,3.3809,0.64106,182.45,2020,-5.7796,1.9265,-0.53278,-7.7061,8.0158e-10,-0.26639,0,0,0.066667,-0,-0,0.66667
0.11796,0.88753,1.7693,0.5813,171.83,2490.7,-2.7427,0.91424,-0.79211,-3.6569,-1.7483e-07,-0.39606,0,0,0.066667,-3.158e-16,0,0.66667
0.34868,0.49436,5.2302,-0.0084663,-2.2261,1508.4,0.11808,-0.03936,-1.9963,0.15744,3.2383e-11,-0.99813,0,0,0.066667,-1.1053e-15,0,0.66667
0.67717,0.62839,10.158,0.19259,31.177,425.55,-5.2165,1.7388,-1.8644,-6.9553,5.7789e-12,-0.9322,0,0,0.066667,-0,-0,0.66667
0.55076,0.47968,8.2615,-0.030475,-6.3515,781.71,0.67139,-0.2238,-1.9948,0.89518,1.2186e-11,-0.9974,0,0,0.066667,-0,-0,0.66667
0.043963,0.78433,0.65944,0.42649,127.53,2822.7,-0.74998,0.24999,-1.3549,-0.99998,-5.4447e-06,-0.67745,0,0,0.066667,-1.579e-16,0,0.66667
0.85675,0.0087876,12.851,-0.73682,-58.777,94.073,25.251,-8.417,-0.071423,33.668,-1.7912e-08,-0.035712,0,0,0.066667,-0,-6.3831e-17,0.66667
0.4776,0.76365,7.1639,0.39548,91.414,1025.8,-7.5551,2.5184,-1.4376,-10.073,1.1382e-12,-0.71879,0,0,0.066667,-0,-0,0.66667
0.85678,0.40213,12.852,-0.1468,-11.63,91.068,5.0311,-1.677,-1.9258,6.7082,2.9134e-10,-0.96289,0,0,0.066667,1.8948e-15,0,0.66667
0.18765,0.18459,2.8148,-0.47311,-136.77,2183,3.5512,-1.1837,-1.2162,4.735,-1.1331e-09,-0.6081,0,0,0.066667,-3.158e-16,0,0.66667
0.083733,0.59121,1.256,0.13681,40.679,2643.6,-0.45824,0.15275,-1.9294,-0.61098,-4.0906e-08,-0.96471,0,0,0.066667,2.1711e-16,0,0.66667
0.51597,0.75327,7.7395,0.37991,83.465,894.96,-7.8408,2.6136,-1.498,-10.454,2.963e-12,-0.74898,0,0,0.066667,-1.2632e-15,0,0.66667
0.45454,0.079215,6.8182,-0.63118,-150.12,1108.2,11.476,-3.8253,-0.58911,15.301,-3.5953e-12,-0.29456,0,0,0.066667,6.3159e-16,0,0.66667
0.013894,0.80385,0.20842,0.45578,136.54,2958.5,-0.2533,0.084424,-1.2661,-0.33774,-1.3766e-05,-0.63307,0,0,0.066667,-0,-0,0.66667
0.039355,0.13732,0.59032,-0.54401,-162.8,2843.5,0.85638,-0.28545,-0.94117,1.1418,1.7835e-05,-0.47059,0,0,0.066667,-0,-0,0.66667
0.093633,0.42198,1.4045,-0.11702,-34.733,2599.1,0.43829,-0.1461,-1.9624,0.58439,1.4604e-08,-0.9812,0,0,0.066667,-0,-0,0.66667
0.040677,0.40013,0.61016,-0.14981,-44.785,2837.4,0.24376,-0.081252,-1.9149,0.32501,4.2694e-07,-0.95747,0,0,0.066667,3.9475e-17,0,0.66667
0.17574,0.76862,2.6361,0.40294,116.98,2235,-2.8325,0.94415,-1.4208,-3.7766,-4.2846e-11,-0.7104,0,0,0.066667,3.158e-16,0,0.66667
0.57554,0.29493,8.633,-0.3076,-61.563,705.43,7.0814,-2.3605,-1.6651,9.4418,9.1434e-12,-0.83256,0,0,0.066667,-0,-0,0.66667
0.47675,0.54357,7.1513,0.065361,15.114,1028.3,-1.2464,0.41548,-1.9782,-1.6619,1.0084e-11,-0.98911,0,0,0.066667,-0,-0,0.66667
0.97977,0.095186,14.697,-0.60722,-7.1738,4.6677,23.797,-7.9325,-0.68675,31.73,4.3401e-05,-0.34338,0,0,0.066667,-0,-0,0.66667
0.070737,0.36442,1.0611,-0.20337,-60.595,2702,0.57542,-0.19181,-1.8465,0.76723,3.1259e-07,-0.92325,0,0,0.066667,-7.8949e-17,0,0.66667
0.86742,0.45709,13.011,-0.06437,-4.7439,78.449,2.2334,-0.74448,-1.9787,2.9779,8.7613e-10,-0.98936,0,0,0.066667,-1.2632e-15,0,0.66667
0.57852,0.75118,8.6778,0.37678,75.038,696.6,-8.7189,2.9063,-1.5065,-11.625,-3.431e-12,-0.75327,0,0,0.066667,-0,-0,0.66667
0.87648,0.76618,13.147,0.39927,27.597,69.391,-13.998,4.666,-1.4386,-18.664,-1.6017e-08,-0.71928,0,0,0.066667,-1.2632e-15,0,0.66667
0.055714,0.13538,0.8357,-0.54694,-163.42,2769.7,1.2189,-0.40629,-0.93022,1.6252,-4.5944e-06,-0.46511,0,0,0.066667,-1.579e-16,0,0.66667
0.099154,0.065607,1.4873,-0.65159,-193.46,2574.7,2.5843,-0.86143,-0.48659,3.4457,-7.8239e-08,-0.2433,0,0,0.066667,-3.158e-16,0,0.66667
0.86309,0.33672,12.946,-0.24493,-18.614,83.748,8.4558,-2.8186,-1.7856,11.274,-2.1567e-09,-0.89279,0,0,0.066667,-6.3159e-16,0,0.66667
0.57038,0.17495,8.5558,-0.48757,-98.519,721.66,11.124,-3.708,-1.1481,14.832,5.0164e-12,-0.57407,0,0,0.066667,-0,-0,0.66667
0.55849,0.65161,8.3774,0.22742,46.825,757.66,-5.0806,1.6935,-1.8146,-6.7741,1.2848e-12,-0.90731,0,0,0.066667,-3.158e-16,0,0.66667
0.013013,0.89615,0.19519,0.59422,178.11,2962.4,-0.30928,0.10304,-0.74612,-0.4124,-8.6144e-05,-0.37306,0,0,0.066667,1.9737e-17,0,0.66667
0.64225,0.11172,9.6338,-0.58241,-102.52,516.3,14.962,-4.9874,-0.79878,19.95,7.895e-12,-0.39939,0,0,0.066667,-0,-0,0.66667
0.84766,0.59015,12.715,0.13523,11.342,102.46,-4.5852,1.5284,-1.9339,-6.1136,1.66e-10,-0.96694,0,0,0.066667,1.579e-15,0,0.66667
0.99613,0.38683,14.942,-0.16975,-0.2998,0.34137,6.7636,-2.2545,-1.8956,9.0182,-2.7139e-06,-0.94781,0,0,0.066667,-0,-0,0.66667
0.43295,0.31054,6.4943,-0.28419,-69.133,1185.7,4.9216,-1.6405,-1.7107,6.5622,1.1268e-11,-0.85534,0,0,0.066667,1.579e-16,0,0.66667
0.31141,0.19017,4.6711,-0.46475,-125.74,1659,5.7891,-1.9297,-1.2401,7.7188,2.3733e-11,-0.62004,0,0,0.066667,-0,-0,0.66667
0.40477,0.16796,6.0716,-0.49806,-124.77,1291.3,8.064,-2.688,-1.1235,10.752,7.3896e-12,-0.56173,0,0,0.066667,-6.3159e-16,0,0.66667
0.22803,0.4193,3.4204,-0.12104,-34.356,2008.1,1.104,-0.36801,-1.9419,1.472,1.5598e-11,-0.97096,0,0,0.066667,-0,-0,0.66667
0.2261,0.81613,3.3915,0.4742,134.82,2016.7,-4.2886,1.4295,-1.1949,-5.7181,2.4911e-11,-0.59744,0,0,0.066667,-0,-0,0.66667
0.43364,0.22349,6.5047,-0.41477,-100.86,1183.5,7.1945,-2.3982,-1.3872,9.5927,-1.9673e-12,-0.69359,0,0,0.066667,-0,-0,0.66667
0.68454,0.32333,10.268,-0.265,-42.112,407.75,7.2562,-2.4187,-1.7509,9.6749,3.3418e-12,-0.87543,0,0,0.066667,-0,-0,0.66667
0.66074,0.85717,9.9111,0.53576,90.405,467.85,-14.16,4.72,-0.97609,-18.88,3.2108e-12,-0.48805,0,0,0.066667,-0,-0,0.66667
0.77249,0.27764,11.587,-0.33354,-40.195,220.67,10.306,-3.4355,-1.599,13.742,3.4503e-11,-0.79952,0,0,0.066667,-6.3159e-16,0,0.66667
0.21681,0.25066,3.2522,-0.37401,-106.76,2056.5,3.2436,-1.0812,-1.5079,4.3249,1.3162e-10,-0.75395,0,0,0.066667,-0,-0,0.66667
0.72871,0.40707,10.931,-0.1394,-19.534,307.11,4.0632,-1.3544,-1.9272,5.4175,-7.6015e-12,-0.96358,0,0,0.066667,2.5264e-15,0,0.66667
0.79525,0.59001,11.929,0.13502,14.813,180.22,-4.295,1.4317,-1.941,-5.7267,-1.7703e-11,-0.9705,0,0,0.066667,-0,-0,0.66667
0.56181,0.50053,8.4272,0.00080059,0.1639,747.14,-0.017991,0.0059971,-2.0102,-0.023988,-5.1953e-12,-1.0051,0,0,0.066667,-0,-0,0.66667
0.46567,0.96338,6.9851,0.69507,163.25,1068.8,-12.947,4.3157,-0.283,-17.263,2.1075e-11,-0.1415,0,0,0.066667,3.158e-16,4.4925e-17,0.66667
0.1582,0.082714,2.373,-0.62593,-182.97,2312.3,3.9609,-1.3203,-0.61077,5.2812,1.7869e-08,-0.30538,0,0,0.066667,-0,-0,0.66667
0.046453,0.33579,0.69679,-0.24631,-73.605,2811.4,0.45767,-0.15256,-1.7944,0.61023,8.8988e-07,-0.89721,0,0,0.066667,-0,-0,0.66667
0.46383,0.13498,6.9575,-0.54753,-128.77,1074.8,10.158,-3.3862,-0.93014,13.545,6.0503e-12,-0.46507,0,0,0.066667,1.2632e-15,0,0.66667
0.6543,0.80689,9.8145,0.46033,78.809,484.08,-12.048,4.0159,-1.2509,-16.064,-3.6904e-12,-0.62546,0,0,0.066667,1.019e-15,0,0.66667
0.21255,0.23422,3.1882,-0.39868,-114.03,2074.9,3.3895,-1.1298,-1.429,4.5193,1.2237e-10,-0.71449,0,0,0.066667,3.158e-16,0,0.66667
0.39995,0.31306,5.9992,-0.28042,-70.528,1309.1,4.4861,-1.4954,-1.716,5.9815,1.7639e-11,-0.85801,0,0,0.066667,-1.2632e-15,0,0.66667
0.49764,0.13385,7.4646,-0.54923,-123.82,957.16,10.933,-3.6442,-0.93003,14.577,3.2578e-12,-0.46502,0,0,0.066667,-0,-0,0.66667
0.9549,0.56247,14.324,0.093712,2.4246,10.028,-3.5795,1.1932,-1.9747,-4.7726,3.6105e-07,-0.98736,0,0,0.066667,3.158e-16,0,0.66667
0.87745,0.93564,13.162,0.65347,45.015,69.929,-22.935,7.6451,-0.48501,-30.58,1.983e-07,-0.24251,0,0,0.066667,-6.3159e-16,0,0.66667
0.87405,0.9128,13.111,0.61921,43.732,73.299,-21.649,7.2162,-0.64477,-28.865,1.1417e-07,-0.32238,0,0,0.066667,-0,-0,0.66667
0.9966,0.1661,14.949,-0.50086,-0.85787,1.7911,19.966,-6.6554,-1.1075,26.621,7.717e-06,-0.55376,0,0,0.066667,-0,-6.8151e-17,0.66667
0.77345,0.46386,11.602,-0.054206,-6.502,218.34,1.677,-0.55901,-1.9837,2.236,1.451e-11,-0.99184,0,0,0.066667,-1.579e-15,0,0.66667
0.20306,0.40338,3.0459,-0.14493,-41.605,2115.8,1.1772,-0.3924,-1.9378,1.5696,-2.6966e-11,-0.96889,0,0,0.066667,3.158e-16,0,0.66667
0.83989,0.6164,12.598,0.1746,15.335,112.78,-5.8659,1.9553,-1.89,-7.8212,-7.3902e-11,-0.94498,0,0,0.066667,-1.2632e-15,0,0.66667
0.16625,0.80773,2.4937,0.4616,134.48,2276.7,-3.0696,1.0232,-1.238,-4.0928,-4.0492e-09,-0.619,0,0,0.066667,7.8949e-17,0,0.66667
0.88909,0.90186,13.336,0.6028,37.766,57.821,-21.438,7.1458,-0.71406,-28.583,-1.3117e-07,-0.35703,0,0,0.066667,3.158e-16,0,0.66667
0.33858,0.2391,5.0787,-0.39135,-103.78,1549,5.3001,-1.7667,-1.451,7.0668,3.0645e-11,-0.72551,0,0,0.066667,3.158e-16,0,0.66667
0.28794,0.9023,4.3192,0.60344,165.9,1755.9,-6.9503,2.3168,-0.69992,-9.2671,-2.0608e-11,-0.34996,0,0,0.066667,-4.737e-16,0,0.66667
0.60622,0.68511,9.0933,0.27767,52.548,614.86,-6.7332,2.2444,-1.7269,-8.9776,-4.8943e-12,-0.86347,0,0,0.066667,7.8949e-16,0,0.66667
0.060612,0.36258,0.90917,-0.20613,-61.5,2747.6,0.49975,-0.16658,-1.8529,0.66633,2.8394e-07,-0.92643,0,0,0.066667,-0,-0,0.66667
0.90709,0.46791,13.606,-0.048132,-2.5306,39.632,1.7464,-0.58213,-2.0012,2.3285,-3.3054e-08,-1.0006,0,0,0.066667,-7.8949e-17,0,0.66667
0.38107,0.19756,5.7161,-0.45366,-116.17,1381.9,6.9151,-2.305,-1.2627,9.2201,1.0093e-11,-0.63134,0,0,0.066667,-0,-0,0.66667
0.78998,0.8593,11.85,0.53894,60.629,190.58,-17.03,5.6767,-0.96084,-22.707,-5.0917e-10,-0.48042,0,0,0.066667,-0,-0,0.66667
0.71055,0.77097,10.658,0.40645,60.205,347.58,-11.552,3.8507,-1.4062,-15.403,1.3127e-12,-0.70309,0,0,0.066667,6.3159e-16,0,0.66667
0.70415,0.27606,10.562,-0.3359,-50.65,361.85,9.4611,-3.1537,-1.6067,12.615,4.6372e-12,-0.80337,0,0,0.066667,-3.158e-16,0,0.66667
0.53263,0.1956,7.9894,-0.45659,-97.951,840.5,9.7278,-3.2426,-1.2649,12.97,7.4367e-12,-0.63245,0,0,0.066667,-0,-0,0.66667
0.46668,0.88395,7.0001,0.57593,135.01,1064.8,-10.751,3.5836,-0.82417,-14.334,3.0829e-12,-0.41208,0,0,0.066667,1.2632e-15,0,0.66667
0.6454,0.052621,9.681,-0.67107,-117.38,508.43,17.324,-5.7748,-0.39514,23.099,9.9707e-12,-0.19757,0,0,0.066667,-0,-0,0.66667
0.69158,0.00065314,10.374,-0.74902,-117.23,393.19,20.72,-6.9067,-0.0043034,27.627,1.9108e-11,-0.0021517,0,0,0.066667,-0,-0,0.66667
0.23582,0.80525,3.5373,0.45787,129.55,1975.1,-4.319,1.4397,-1.2606,-5.7586,1.6731e-11,-0.63029,0,0,0.066667,-3.158e-16,0,0.66667
0.75381,0.46888,11.307,-0.046674,-6.0187,255.61,1.4073,-0.46911,-1.9921,1.8765,-9.2525e-12,-0.99604,0,0,0.066667,-0,-0,0.66667
0.93662,0.86543,14.049,0.54814,20.036,20.919,-20.536,6.8453,-0.93968,-27.381,-1.1216e-06,-0.46984,0,0,0.066667,-0,-7.4502e-17,0.66667
0.8151,0.45436,12.226,-0.068458,-6.8531,148.32,2.232,-0.744,-1.9848,2.976,-2.3192e-11,-0.99242,0,0,0.066667,-0,-0,0.66667
0.73061,0.045553,10.959,-0.68167,-95.271,305.23,19.921,-6.6405,-0.34608,26.562,7.2369e-12,-0.17304,0,0,0.066667,-0,-0,0.66667
0.82171,0.12038,12.326,-0.56942,-55.342,140.1,18.716,-6.2387,-0.8419,24.955,6.0767e-11,-0.42095,0,0,0.066667,1.579e-15,0,0.66667
0.0069549,0.31145,0.10432,-0.28282,-84.702,2989.8,0.078679,-0.026224,-1.7106,0.10491,3.8024e-06,-0.85531,0,0,0.066667,-1.4186e-17,0,0.66667
0.17482,0.55718,2.6224,0.085764,24.893,2238.8,-0.59974,0.19991,-1.975,-0.79966,3.3778e-11,-0.98751,0,0,0.066667,-3.9475e-16,0,0.66667
0.34198,0.2631,5.1297,-0.35535,-93.977,1535.4,4.8609,-1.6203,-1.5554,6.4812,2.0602e-11,-0.77768,0,0,0.066667,-0,-0,0.66667
0.73352,0.46297,11.003,-0.055542,-7.665,296.85,1.6296,-0.54321,-1.9976,2.1728,-2.3743e-12,-0.99878,0,0,0.066667,6.3159e-16,0,0.66667
0.97837,0.14085,14.676,-0.53873,-6.7627,4.4422,21.083,-7.0277,-0.96235,28.111,3.3516e-05,-0.48118,0,0,0.066667,1.2632e-15,0,0.66667
0.73288,0.21193,10.993,-0.43211,-59.837,299.09,12.667,-4.2225,-1.3419,16.89,5.5502e-12,-0.67097,0,0,0.066667,-0,-0,0.66667
0.47899,0.50457,7.1849,0.006852,1.58,1020.4,-0.13128,0.04376,-1.9958,-0.17504,2.2014e-11,-0.99789,0,0,0.066667,-0,-0,0.66667
0.92105,0.61173,13.816,0.1676,7.5328,29.16,-6.1748,2.0583,-1.9081,-8.233,1.1852e-07,-0.95407,0,0,0.066667,-0,-0,0.66667
0.3777,0.35179,5.6655,-0.22231,-57.06,1394.5,3.3586,-1.1195,-1.8259,4.4782,1.3938e-12,-0.91293,0,0,0.066667,-0,-0,0.66667
0.64169,0.93411,9.6254,0.65117,114.82,518.16,-16.714,5.5713,-0.5004,-22.285,-1.1889e-11,-0.2502,0,0,0.066667,1.579e-15,0,0.66667
0.0015045,0.80301,0.022567,0.45452,136.19,3014.4,-0.027344,0.0091255,-1.271,-0.036453,1.647e-05,-0.63551,0,0,0.066667,-2.4672e-18,1.3352e-16,0.66667
0.17936,0.05775,2.6904,-0.66338,-192.53,2219.5,4.7593,-1.5864,-0.4295,6.3457,1.5646e-08,-0.21475,0,0,0.066667,-1.579e-16,0,0.66667
0.29484,0.44,4.4226,-0.089995,-24.6,1726.7,1.0614,-0.35379,-1.9757,1.4152,2.2682e-11,-0.98787,0,0,0.066667,-0,-0,0.66667
0.38699,0.65195,5.8048,0.22793,58.018,1358.6,-3.5283,1.1761,-1.8147,-4.7044,8.0131e-12,-0.90737,0,0,0.066667,-7.8949e-16,0,0.66667
0.45982,0.095491,6.8973,-0.60676,-143.42,1089.2,11.16,-3.72,-0.68603,14.88,4.3787e-13,-0.34301,0,0,0.066667,-0,-0,0.66667
0.79672,0.59366,11.951,0.14049,15.314,177.78,-4.4771,1.4924,-1.9424,-5.9695,-2.8739e-11,-0.97121,0,0,0.066667,1.352e-15,0,0.66667
0.27985,0.23424,4.1977,-0.39865,-110.06,1789.2,4.4624,-1.4875,-1.4406,5.9499,3.3258e-12,-0.7203,0,0,0.066667,6.3159e-16,0,0.66667
0.082662,0.06807,1.2399,-0.6479,-192.94,2648.6,2.1422,-0.71408,-0.50474,2.8563,-1.9572e-08,-0.25237,0,0,0.066667,3.158e-16,0,0.66667
0.52137,0.56691,7.8206,0.10036,21.867,876.62,-2.0931,0.69769,-1.9597,-2.7908,-2.0659e-12,-0.97984,0,0,0.066667,-0,-0,0.66667
0.98115,0.53115,14.717,0.046732,0.49634,2.0036,-1.834,0.61135,-1.9936,-2.4454,-8.8613e-07,-0.99678,0,0,0.066667,-2.3685e-16,0,0.66667
0.40076,0.89873,6.0114,0.59809,150.48,1306.8,-9.5876,3.1959,-0.72353,-12.783,1.8206e-11,-0.36176,0,0,0.066667,-0,-0,0.66667
0.25719,0.32695,3.8579,-0.25957,-72.588,1884.1,2.6704,-0.89013,-1.7539,3.5605,7.7389e-12,-0.87694,0,0,0.066667,-0,-0,0.66667
0.77634,0.79751,11.645,0.44627,53.022,214.1,-13.858,4.6194,-1.2878,-18.478,-3.4881e-11,-0.64388,0,0,0.066667,-0,-0,0.66667
0.61558,0.36792,9.2338,-0.19812,-36.805,588.11,4.8783,-1.6261,-1.8551,6.5045,6.2608e-12,-0.92753,0,0,0.066667,-6.3159e-16,0,0.66667
0.0075483,0.74472,0.11323,0.36707,109.95,2987.1,-0.11083,0.036937,-1.515,-0.14777,-7.6731e-06,-0.7575,0,0,0.066667,4.9343e-18,0,0.66667
0.98621,0.73741,14.793,0.35612,2.7662,1.9791,-14.048,4.6827,-1.5532,-18.731,2.6097e-06,-0.7766,0,0,0.066667,-0,-0,0.66667
0.48892,0.69282,7.3338,0.28922,65.883,986.31,-5.6563,1.8854,-1.6999,-7.5417,6.4677e-12,-0.84993,0,0,0.066667,-0,-0,0.66667
0.30402,0.41774,4.5603,-0.12339,-33.524,1688.9,1.5005,-0.50016,-1.9394,2.0006,2.4042e-11,-0.96972,0,0,0.066667,-0,-0,0.66667
0.66508,0.70055,9.9762,0.30082,50.18,455.94,-8.0027,2.6676,-1.6719,-10.67,-3.8138e-12,-0.83597,0,0,0.066667,-0,-0,0.66667
0.28556,0.65862,4.2834,0.23793,65.434,1765.2,-2.7178,0.90593,-1.7969,-3.6237,2.8556e-11,-0.89847,0,0,0.066667,-0,-0,0.66667
0.46354,0.45538,6.9532,-0.066924,-15.724,1074.9,1.2409,-0.41363,-1.9795,1.6545,-4.9424e-12,-0.98974,0,0,0.066667,6.3159e-16,0,0.66667
0.65182,0.80568,9.7773,0.45852,78.944,490.53,-11.955,3.9849,-1.2498,-15.94,-1.2346e-13,-0.6249,0,0,0.066667,-0,-0,0.66667
0.12188,0.20821,1.8282,-0.43769,-129.19,2473.1,2.1339,-0.71129,-1.319,2.8452,-1.2164e-08,-0.65948,0,0,0.066667,1.579e-16,0,0.66667
0.46722,0.709,7.0083,0.3135,73.368,1062.1,-5.8589,1.953,-1.656,-7.8119,9.4014e-12,-0.82799,0,0,0.066667,-0,-0,0.66667
0.73521,0.73287,11.028,0.3493,47.989,293.9,-10.272,3.4241,-1.5742,-13.696,-2.3777e-12,-0.78708,0,0,0.066667,-0,-0,0.66667
0.96052,0.8993,14.408,0.59895,13.782,10.058,-23.012,7.6707,-0.7184,-30.683,3.1451e-05,-0.3592,0,0,0.066667,-6.3159e-16,0,0.66667
0.021389,0.63735,0.32084,0.20602,61.667,2924.6,-0.17627,0.058758,-1.8437,-0.23502,3.2627e-06,-0.92187,0,0,0.066667,-3.9475e-17,0,0.66667
0.83248,0.66735,12.487,0.25102,22.987,123.14,-8.3588,2.7863,-1.773,-11.145,-3.9931e-10,-0.88651,0,0,0.066667,-0,-0,0.66667
0.93915,0.50438,14.087,0.00657,0.22875,17.619,-0.24681,0.082269,-2.0055,-0.32908,-4.1626e-07,-1.0027,0,0,0.066667,5.0527e-15,0,0.66667
0.98582,0.81944,14.787,0.47916,3.8829,2.7109,-18.895,6.2982,-1.1897,-25.193,1.7509e-05,-0.59483,0,0,0.066667,-0,-0,0.66667
0.93783,0.14503,14.067,-0.53245,-19.089,20.125,19.974,-6.658,-1.0022,26.632,1.444e-06,-0.50112,0,0,0.066667,-0,-0,0.66667
0.12925,0.31695,1.9388,-0.27458,-80.859,2440.2,1.4196,-0.4732,-1.7299,1.8928,1.6056e-09,-0.86497,0,0,0.066667,-0,-0,0.66667
0.88602,0.45458,13.29,-0.068132,-4.3545,58.69,2.4147,-0.80489,-1.9799,3.2196,-2.7514e-09,-0.98996,0,0,0.066667,1.2632e-15,0,0.66667
0.15286,0.39646,2.2929,-0.15531,-45.418,2335.5,0.94965,-0.31655,-1.9137,1.2662,1.1692e-10,-0.95684,0,0,0.066667,-0,-0,0.66667
0.36052,0.3097,5.4077,-0.28545,-74.363,1461.7,4.1164,-1.3721,-1.7181,5.4886,-1.9016e-11,-0.85906,0,0,0.066667,9.4739e-16,0,0.66667
0.36116,0.066237,5.4174,-0.65064,-169.64,1460,9.3995,-3.1332,-0.50001,12.533,1.2463e-11,-0.25,0,0,0.066667,-0,-0,0.66667
0.27979,0.66117,4.1968,0.24175,66.721,1789.2,-2.7055,0.90184,-1.7984,-3.6074,3.1032e-11,-0.89921,0,0,0.066667,-0,-0,0.66667
0.3548,0.85379,5.3221,0.53068,139.01,1484.8,-7.5315,2.5105,-0.99537,-10.042,1.3789e-11,-0.49768,0,0,0.066667,-0,-0,0.66667
0.543,0.856,8.145,0.53399,112.81,807.39,-11.598,3.8661,-0.9842,-15.465,6.235e-12,-0.4921,0,0,0.066667,-0,-0,0.66667
0.078517,0.23343,1.1778,-0.39986,-119.05,2667.1,1.2558,-0.41861,-1.4414,1.6744,7.6277e-08,-0.72068,0,0,0.066667,-0,-0,0.66667
0.37287,0.14908,5.593,-0.52638,-135.8,1413.9,7.8508,-2.6169,-1.0184,10.468,1.587e-11,-0.50918,0,0,0.066667,-3.158e-16,0,0.66667
0.58322,0.82772,8.7483,0.49158,97.149,682.88,-11.468,3.8227,-1.1363,-15.291,-9.8588e-14,-0.56816,0,0,0.066667,-1.2632e-15,0,0.66667
0.13425,0.012047,2.0137,-0.73193,-215.6,2418.4,3.9304,-1.3101,-0.089254,5.2406,8.2218e-08,-0.044627,0,0,0.066667,-6.3159e-16,0,0.66667
0.24299,0.89676,3.6448,0.59514,167.87,1944.7,-5.7844,1.9281,-0.73445,-7.7126,3.538e-10,-0.36722,0,0,0.066667,-0,-0,0.66667
0.31278,0.075172,4.6917,-0.63724,-172.37,1653.8,7.9726,-2.6575,-0.56659,10.63,3.3377e-11,-0.28329,0,0,0.066667,-0,-0,0.66667
0.074534,0.26455,1.118,-0.35318,-105.2,2684.9,1.0529,-0.35098,-1.5552,1.4039,3.1873e-07,-0.77759,0,0,0.066667,-0,-0,0.66667
0.80769,0.34351,12.115,-0.23473,-24.357,160.14,7.5837,-2.5279,-1.8018,10.112,1.861e-11,-0.90089,0,0,0.066667,2.3685e-16,0,0.66667
0.2634,0.12764,3.951,-0.55854,-155.79,1858.3,5.8847,-1.9616,-0.89466,7.8463,4.3345e-11,-0.44733,0,0,0.066667,-0,-6.6164e-17,0.66667
0.4106,0.45806,6.159,-0.062905,-15.654,1268.7,1.0332,-0.34439,-1.983,1.3775,1.5927e-11,-0.99151,0,0,0.066667,-0,-0,0.66667
0.40541,0.83519,6.0812,0.50278,125.88,1288.9,-8.1534,2.7178,-1.1095,-10.871,2.2666e-12,-0.55473,0,0,0.066667,6.3159e-16,0,0.66667
0.30474,0.99385,4.571,0.74077,201.58,1687,-9.0295,3.0098,-0.042886,-12.039,-3.7748e-13,-0.021443,0,0,0.066667,9.4739e-16,0,0.66667
0.12774,0.27162,1.9161,-0.34257,-100.94,2446.9,1.7504,-0.58346,-1.584,2.3339,-1.5867e-10,-0.79202,0,0,0.066667,-0,-0,0.66667
0.89356,0.27205,13.403,-0.34193,-20.517,52.132,12.221,-4.0738,-1.585,16.295,-5.0722e-08,-0.79252,0,0,0.066667,-0,-0,0.66667
0.68139,0.3169,10.221,-0.27465,-44,415.39,7.4857,-2.4952,-1.7269,9.9809,4.9063e-12,-0.86344,0,0,0.066667,-0,-0,0.66667
0.26689,0.1912,4.0034,-0.46321,-128.9,1843.5,4.945,-1.6483,-1.2443,6.5934,-2.1023e-12,-0.62215,0,0,0.066667,-0,-0,0.66667
0.092431,0.84151,1.3865,0.51226,152.21,2604.7,-1.894,0.63132,-1.0742,-2.5253,-2.5035e-07,-0.5371,0,0,0.066667,-1.211e-17,0,0.66667
0.1235,0.73021,1.8524,0.34532,101.86,2465.8,-1.7058,0.5686,-1.5814,-2.2744,1.4149e-08,-0.7907,0,0,0.066667,-0,-0,0.66667
0.27644,0.3347,4.1465,-0.24795,-68.571,1803.2,2.7417,-0.91389,-1.7777,3.6556,3.1023e-11,-0.88887,0,0,0.066667,-0,-0,0.66667
0.049043,0.94023,0.73565,0.66035,197.54,2799.8,-1.2954,0.4318,-0.45356,-1.7272,-8.2091e-06,-0.22678,0,0,0.066667,-0,-0,0.66667
0.14515,0.37122,2.1772,-0.19317,-56.624,2369.6,1.1215,-0.37383,-1.8649,1.4953,-2.6608e-10,-0.93244,0,0,0.066667,-0,-0,0.66667
0.47503,0.7379,7.1254,0.35685,82.736,1034.7,-6.7805,2.2602,-1.5414,-9.0407,3.0678e-12,-0.77068,0,0,0.066667,-6.3159e-16,0,0.66667
0.93598,0.14027,14.04,-0.5396,-19.912,21.228,20.202,-6.7341,-0.96994,26.936,6.8467e-07,-0.48497,0,0,0.066667,-0,2.0653e-17,0.66667
0.43407,0.47495,6.511,-0.037572,-9.126,1181.4,0.65236,-0.21745,-1.9947,0.86981,-2.5161e-12,-0.99734,0,0,0.066667,-0,-0,0.66667
0.70914,0.71212,10.637,0.31818,47.299,350.45,-9.0253,3.0084,-1.6349,-12.034,2.4922e-12,-0.81745,0,0,0.066667,-6.3159e-16,0,0.66667
0.57031,0.50896,8.5546,0.01344,2.7128,720.99,-0.30661,0.1022,-1.993,-0.40881,-7.2625e-12,-0.9965,0,0,0.066667,-0,-0,0.66667
0.97624,0.55261,14.644,0.078916,1.0659,3.0646,-3.0816,1.0272,-1.9714,-4.1089,-1.0401e-06,-0.98572,0,0,0.066667,-1.2632e-15,0,0.66667
0.17821,0.58353,2.6732,0.1253,36.324,2224,-0.89317,0.29772,-1.9384,-1.1909,7.0751e-11,-0.96918,0,0,0.066667,-1.579e-16,0,0.66667
0.73911,0.70115,11.087,0.30173,40.923,285.65,-8.9203,2.9734,-1.6725,-11.894,-1.2692e-12,-0.83626,0,0,0.066667,1.2632e-15,0,0.66667
0.35041,0.64576,5.2561,0.21864,57.421,1501.6,-3.0645,1.0215,-1.8239,-4.086,7.2005e-12,-0.91197,0,0,0.066667,3.158e-16,0,0.66667
0.99121,0.38334,14.868,-0.17499,-0.82209,0.73549,6.9382,-2.3127,-1.8851,9.251,-1.2441e-06,-0.94255,0,0,0.066667,-0,-0,0.66667
0.35281,0.13027,5.2922,-0.55459,-145.52,1492.7,7.8266,-2.6089,-0.90097,10.435,1.4639e-11,-0.45048,0,0,0.066667,-0,-0,0.66667
0.97878,0.15083,14.682,-0.52375,-6.4401,4.2523,20.506,-6.8352,-1.0201,27.341,2.7645e-05,-0.51007,0,0,0.066667,-1.8948e-15,0,0.66667
0.86037,0.64047,12.906,0.2107,16.306,86.87,-7.2512,2.4171,-1.8494,-9.6682,4.8154e-10,-0.92471,0,0,0.066667,1.2632e-15,0,0.66667
0.59774,0.91003,8.966,0.61505,118.47,640.59,-14.706,4.9018,-0.65368,-19.607,-2.9194e-12,-0.32684,0,0,0.066667,1.2632e-15,0,0.66667
0.027448,0.32369,0.41172,-0.26446,-79.143,2897.2,0.29036,-0.096789,-1.7496,0.38714,-4.3193e-06,-0.87481,0,0,0.066667,-0,-0,0.66667
0.18553,0.038911,2.783,-0.69163,-200.29,2192.6,5.1328,-1.7109,-0.30319,6.8437,-5.3936e-09,-0.1516,0,0,0.066667,-0,-5.8439e-17,0.66667
0.056512,0.027569,0.84768,-0.70865,-211.87,2766.2,1.6019,-0.53398,-0.20979,2.1358,-2.735e-05,-0.1049,0,0,0.066667,-3.9475e-17,0,0.66667
0.79246,0.66157,11.887,0.24235,26.92,185.14,-7.6822,2.5607,-1.7887,-10.243,-1.7768e-11,-0.89435,0,0,0.066667,-0,-0,0.66667
0.073951,0.96627,1.1093,0.69941,208.62,2687.7,-2.0689,0.68961,-0.25923,-2.7585,-1.4736e-05,-0.12962,0,0,0.066667,9.8686e-17,6.6918e-17,0.66667
0.78646,0.98878,11.797,0.73317,83.888,197.95,-23.064,7.6881,-0.084267,-30.752,-8.3725e-10,-0.042133,0,0,0.066667,1.2632e-15,0,0.66667
0.027952,0.91755,0.41928,0.62633,187.64,2895,-0.70029,0.23348,-0.6048,-0.93369,7.7927e-05,-0.3024,0,0,0.066667,-0,-0,0.66667
0.25521,0.65201,3.8281,0.22802,63.83,1892.4,-2.3277,0.77589,-1.8114,-3.1036,2.2232e-11,-0.9057,0,0,0.066667,3.158e-16,0,0.66667
0.29758,0.77834,4.4638,0.41751,113.99,1715.7,-4.9698,1.6566,-1.3898,-6.6264,6.0618e-12,-0.6949,0,0,0.066667,3.158e-16,0,0.66667
0.56461,0.38915,8.4691,-0.16628,-33.89,738.6,3.7553,-1.2518,-1.9048,5.0071,5.429e-12,-0.9524,0,0,0.066667,-0,-0,0.66667
0.56206,0.93534,8.4309,0.653,133.92,747.97,-14.681,4.8937,-0.49477,-19.575,-6.0574e-13,-0.24739,0,0,0.066667,1.579e-16,2.0361e-17,0.66667
0.8874,0.7612,13.311,0.3918,24.813,58.213,-13.907,4.6358,-1.454,-18.543,-4.0105e-09,-0.72699,0,0,0.066667,2.5264e-15,0,0.66667
0.63738,0.98187,9.5607,0.7228,128.72,530.13,-18.428,6.1426,-0.14207,-24.57,-8.6402e-12,-0.071033,0,0,0.066667,1.2632e-15,0,0.66667
0.16146,0.39915,2.4219,-0.15127,-44.114,2297.6,0.97699,-0.32566,-1.9145,1.3027,-1.4673e-10,-0.95725,0,0,0.066667,9.5605e-17,0,0.66667
0.026995,0.37125,0.40492,-0.19313,-57.791,2899.2,0.20854,-0.069515,-1.8655,0.27805,-2.8577e-06,-0.93275,0,0,0.066667,-4.9343e-17,0,0.66667
0.76198,0.9189,11.43,0.62835,78.947,241.77,-19.152,6.3839,-0.59478,-25.536,3.3491e-11,-0.29739,0,0,0.066667,-0,1.294e-17,0.66667
0.53557,0.25423,8.0335,-0.36866,-78.711,830.72,7.8977,-2.6326,-1.5147,10.53,1.5878e-11,-0.75733,0,0,0.066667,-1.2632e-15,0,0.66667
0.57863,0.89551,8.6794,0.59327,118.26,697.08,-13.731,4.5771,-0.75807,-18.308,1.9273e-12,-0.37904,0,0,0.066667,-6.3159e-16,0,0.66667
0.41411,0.023823,6.2116,-0.71427,-177.5,1256.9,11.831,-3.9437,-0.17984,15.775,-2.7047e-11,-0.089919,0,0,0.066667,6.3159e-16,0,0.66667
0.58982,0.11237,8.8472,-0.58144,-113.62,663.66,13.718,-4.5726,-0.79586,18.29,4.2517e-12,-0.39793,0,0,0.066667,-0,-0,0.66667
0.40563,0.5458,6.0845,0.068703,17.18,1287.4,-1.1147,0.37158,-1.9921,-1.4863,1.1008e-11,-0.99604,0,0,0.066667,-6.3159e-16,0,0.66667
0.44569,0.43046,6.6854,-0.10431,-25.017,1139,1.8596,-0.61987,-1.9552,2.4795,2.3888e-12,-0.9776,0,0,0.066667,3.158e-16,0,0.66667
0.59274,0.62907,8.8911,0.19361,37.571,653.85,-4.5904,1.5301,-1.8749,-6.1206,1.9931e-12,-0.93743,0,0,0.066667,-0,-0,0.66667
0.49234,0.31065,7.3852,-0.28402,-64.41,974.52,5.5934,-1.8645,-1.7078,7.4579,5.5604e-12,-0.85392,0,0,0.066667,7.8949e-16,0,0.66667
0.059103,0.71322,0.88655,0.31983,95.462,2754.4,-0.75613,0.25204,-1.6362,-1.0082,-1.7842e-07,-0.81809,0,0,0.066667,3.9475e-17,0,0.66667
0.97679,0.42932,14.652,-0.10602,-1.3987,2.9718,4.1424,-1.3808,-1.9538,5.5232,1.694e-06,-0.97688,0,0,0.066667,6.3159e-16,0,0.66667
0.85514,0.54424,12.827,0.066367,5.3122,92.976,-2.2701,0.75671,-1.9815,-3.0268,3.698e-11,-0.99077,0,0,0.066667,-1.2632e-15,0,0.66667
0.37909,0.50191,5.6863,0.0028618,0.73349,1389,-0.043395,0.014465,-1.9988,-0.05786,1.7236e-11,-0.99939,0,0,0.066667,-0,-0,0.66667
0.54652,0.047108,8.1979,-0.67934,-142.86,796.82,14.851,-4.9503,-0.36914,19.801,3.9346e-12,-0.18457,0,0,0.066667,-1.2632e-15,0,0.66667
0.93287,0.63826,13.993,0.20739,7.9607,21.517,-7.7388,2.5796,-1.8435,-10.318,3.4868e-07,-0.92174,0,0,0.066667,-0,-0,0.66667
0.39797,0.71966,5.9695,0.32949,83.036,1316.8,-5.245,1.7483,-1.6089,-6.9933,2.0313e-12,-0.80446,0,0,0.066667,1.2632e-15,0,0.66667
0.94477,0.71087,14.172,0.3163,10.04,15.276,-11.953,3.9844,-1.6381,-15.938,2.011e-07,-0.81906,0,0,0.066667,-1.2632e-15,0,0.66667
0.030486,0.42722,0.45729,-0.10918,-32.66,2883.5,0.13314,-0.044379,-1.9661,0.17751,-1.0891e-06,-0.98303,0,0,0.066667,3.9475e-17,0,0.66667
0.7458,0.91331,11.187,0.61997,82.425,273.45,-18.495,6.165,-0.63113,-24.66,4.2615e-12,-0.31556,0,0,0.066667,-0,-0,0.66667
0.79701,0.45601,11.955,-0.06599,-7.1834,177.22,2.1038,-0.70126,-1.9956,2.805,1.3641e-11,-0.9978,0,0,0.066667,-0,-0,0.66667
0.19384,0.65975,2.9075,0.23962,69.06,2155.9,-1.8579,0.61929,-1.7909,-2.4772,2.6061e-11,-0.89543,0,0,0.066667,-6.3159e-16,0,0.66667
0.16287,0.049645,2.443,-0.67553,-197.21,2291.9,4.4009,-1.467,-0.37125,5.8678,-5.4851e-09,-0.18563,0,0,0.066667,-3.158e-16,0,0.66667
0.59108,0.052066,8.8662,-0.6719,-131.07,660.38,15.886,-5.2953,-0.39629,21.181,1.6067e-12,-0.19814,0,0,0.066667,-0,-7.0234e-17,0.66667
0.47969,0.053234,7.1954,-0.67015,-154.7,1019.4,12.859,-4.2862,-0.39975,17.145,-7.2573e-12,-0.19988,0,0,0.066667,6.3159e-16,6.9407e-18,0.66667
0.58654,0.50702,8.7981,0.010534,2.0668,672.03,-0.24715,0.082382,-1.9936,-0.32953,-8.1518e-14,-0.99678,0,0,0.066667,2.5264e-15,0,0.66667
0.13227,0.082697,1.9841,-0.62595,-184.39,2427,3.3118,-1.1039,-0.60043,4.4158,-1.0838e-07,-0.30021,0,0,0.066667,1.579e-16,0,0.66667
0.27774,0.69664,4.1661,0.29496,81.516,1797.8,-3.2768,1.0923,-1.6898,-4.3691,3.7949e-11,-0.84492,0,0,0.066667,-6.3159e-16,0,0.66667
0.069672,0.33608,1.0451,-0.24588,-73.277,2706.8,0.68523,-0.22841,-1.7789,0.91364,3.7698e-07,-0.88947,0,0,0.066667,-7.8949e-17,0,0.66667
0.108,0.11412,1.62,-0.57882,-171.48,2535.1,2.5004,-0.83348,-0.81468,3.3339,-2.7957e-07,-0.40734,0,0,0.066667,-0,-0,0.66667
0.71638,0.17926,10.746,-0.48111,-70.097,334.9,13.786,-4.5955,-1.1796,18.382,-1.0179e-12,-0.58979,0,0,0.066667,-6.3159e-16,0,0.66667
0.026402,0.13146,0.39603,-0.5528,-165.58,2902,0.58381,-0.19463,-0.90999,0.7784,-4.5794e-05,-0.455,0,0,0.066667,-0,-0,0.66667
0.53965,0.9154,8.0948,0.6231,132.38,818.49,-13.45,4.4834,-0.61325,-17.934,4.9898e-12,-0.30662,0,0,0.066667,1.2632e-15,0,0.66667
0.29866,0.76246,4.4799,0.39369,107.4,1711.2,-4.7032,1.5677,-1.4532,-6.2709,7.7089e-12,-0.72661,0,0,0.066667,-0,-0,0.66667
0.8685,0.39235,13.027,-0.16147,-11.813,77.352,5.6094,-1.8698,-1.9012,7.4792,-7.9338e-10,-0.95058,0,0,0.066667,1.2632e-15,0,0.66667
0.54504,0.88012,8.1756,0.57018,120.1,801.04,-12.431,4.1436,-0.84887,-16.575,6.5112e-12,-0.42444,0,0,0.066667,-0,9.8467e-17,0.66667
0.99755,0.020554,14.963,-0.71917,-1.0229,3.5189,28.696,-9.5651,-0.16255,38.261,0.00015703,-0.081274,0,0,0.066667,-0,-2.1327e-16,0.66667
0.56108,0.72499,8.4161,0.33748,69.215,749.86,-7.5741,2.5247,-1.6012,-10.099,-3.352e-12,-0.80061,0,0,0.066667,-0,-0,0.66667
0.5621,0.31103,8.4315,-0.28346,-58.027,746.56,6.3732,-2.1244,-1.7255,8.4976,1.6227e-11,-0.86276,0,0,0.066667,-1.4211e-15,0,0.66667
0.33511,0.77139,5.0266,0.40708,108.24,1563,-5.4567,1.8189,-1.4045,-7.2756,2.8759e-12,-0.70227,0,0,0.066667,-0,-0,0.66667
0.25232,0.21904,3.7849,-0.42145,-118.22,1904.8,4.2537,-1.4179,-1.3725,5.6715,2.0571e-11,-0.68624,0,0,0.066667,-0,-0,0.66667
0.42737,0.8209,6.4105,0.48135,117.87,1206.7,-8.2286,2.7429,-1.1715,-10.972,3.6113e-12,-0.58574,0,0,0.066667,-0,-0,0.66667
0.22718,0.12757,3.4076,-0.55865,-158.8,2012.2,5.0765,-1.6922,-0.88497,6.7686,2.9529e-10,-0.44249,0,0,0.066667,-0,-0,0.66667
0.070876,0.2131,1.0631,-0.43035,-128.29,2701.4,1.2201,-0.40669,-1.3356,1.6268,4.0971e-07,-0.66781,0,0,0.066667,-0,-0,0.66667
0.42505,0.76592,6.3758,0.39888,97.878,1215.1,-6.7818,2.2606,-1.4341,-9.0424,1.0782e-11,-0.71703,0,0,0.066667,-6.3159e-16,0,0.66667
0.10642,0.55692,1.5963,0.085385,25.276,2541.9,-0.36346,0.12115,-1.9752,-0.48461,-1.4166e-08,-0.98759,0,0,0.066667,-1.579e-16,0,0.66667
0.72312,0.39708,10.847,-0.15438,-22.01,319.14,4.4654,-1.4885,-1.9124,5.9539,-1.5739e-12,-0.95622,0,0,0.066667,-0,-0,0.66667
0.29839,0.56864,4.4759,0.10296,28.078,1712,-1.2289,0.40962,-1.9682,-1.6385,1.1821e-11,-0.98408,0,0,0.066667,6.3159e-16,0,0.66667
0.49036,0.24559,7.3554,-0.38162,-86.792,981.54,7.4853,-2.4951,-1.4774,9.9804,7.5131e-12,-0.7387,0,0,0.066667,-6.5704e-16,0,0.66667
0.19558,0.42938,2.9337,-0.10593,-30.502,2148.2,0.8287,-0.27623,-1.9538,1.1049,8.36e-11,-0.97692,0,0,0.066667,-0,-0,0.66667
0.68083,0.02707,10.212,-0.7094,-114.13,418.72,19.319,-6.4397,-0.20533,25.759,6.7271e-12,-0.10266,0,0,0.066667,6.3159e-16,0,0.66667
0.83083,0.60977,12.462,0.16466,15.208,125.27,-5.4721,1.824,-1.9048,-7.2961,-2.3699e-10,-0.95238,0,0,0.066667,-1.2632e-15,0,0.66667
0.22041,0.50139,3.3061,0.0020806,0.59264,2040.8,-0.018343,0.0061143,-2.0061,-0.024457,4.7526e-11,-1.003,0,0,0.066667,-0,-0,0.66667
0.0078087,0.61138,0.11713,0.16707,50.024,2985.9,-0.052183,0.017393,-1.8941,-0.069577,-1.466e-06,-0.94706,0,0,0.066667,-0,-0,0.66667
0.2509,0.1504,3.7636,-0.5244,-147.26,1911,5.263,-1.7543,-1.0305,7.0173,-3.3067e-11,-0.51527,0,0,0.066667,-0,-0,0.66667
0.62764,0.88734,9.4145,0.58102,105.51,555.83,-14.587,4.8622,-0.80116,-19.449,5.2527e-12,-0.40058,0,0,0.066667,-0,-0,0.66667
0.31082,0.28871,4.6623,-0.31694,-85.744,1661.2,3.9404,-1.3135,-1.6479,5.2539,4.3585e-11,-0.82395,0,0,0.066667,-6.3159e-16,0,0.66667
0.83621,0.88998,12.543,0.58498,52.647,119.52,-19.566,6.5221,-0.77665,-26.089,-8.0344e-09,-0.38833,0,0,0.066667,1.2632e-15,0,0.66667
0.85274,0.33432,12.791,-0.24851,-20.212,96.276,8.4767,-2.8256,-1.7744,11.302,3.9178e-10,-0.88721,0,0,0.066667,6.3159e-16,0,0.66667
0.37174,0.67645,5.5761,0.26467,68.293,1417.7,-3.9355,1.3118,-1.7506,-5.2474,6.3374e-12,-0.87531,0,0,0.066667,-0,-0,0.66667
0.36533,0.17567,5.48,-0.48649,-126.3,1443.2,7.1092,-2.3697,-1.153,9.479,2.3053e-11,-0.57648,0,0,0.066667,-0,-0,0.66667
0.016563,0.1602,0.24844,-0.5097,-152.71,2946.4,0.33766,-0.11255,-1.0847,0.45022,4.4301e-06,-0.54235,0,0,0.066667,-0,-0,0.66667
0.54968,0.67011,8.2452,0.25516,53.288,785.38,-5.6103,1.8701,-1.7694,-7.4804,1.2417e-12,-0.88469,0,0,0.066667,-0,-0,0.66667
0.15427,0.22486,2.3141,-0.4127,-120.7,2329.4,2.5467,-0.84891,-1.3986,3.3956,-5.7388e-09,-0.69929,0,0,0.066667,-0,-0,0.66667
0.11268,0.77965,1.6902,0.41948,124.08,2514.1,-1.8907,0.63023,-1.3751,-2.5209,9.0309e-09,-0.68757,0,0,0.066667,3.9475e-17,0,0.66667
0.053338,0.17701,0.80007,-0.48449,-144.77,2780.4,1.0337,-0.34456,-1.1595,1.3782,-8.5793e-07,-0.57973,0,0,0.066667,7.8949e-17,0,0.66667
0.17928,0.97401,2.6893,0.71102,206.41,2219.9,-5.099,1.6997,-0.19662,-6.7986,1.1491e-08,-0.098311,0,0,0.066667,-0,-0,0.66667
0.15593,0.26048,2.339,-0.35928,-105,2322.1,2.2409,-0.74697,-1.5514,2.9879,-1.7733e-09,-0.7757,0,0,0.066667,-0,-0,0.66667
0.03549,0.11481,0.53236,-0.57778,-172.98,2860.9,0.82024,-0.2734,-0.81044,1.0937,1.0354e-05,-0.40522,0,0,0.066667,-3.9475e-17,0,0.66667
0.98243,0.08499,14.736,-0.62252,-6.3909,4.2923,24.463,-8.1544,-0.62601,32.618,-1.9903e-06,-0.31301,0,0,0.066667,-1.2632e-15,-6.371e-17,0.66667
0.6583,0.74969,9.8746,0.37453,63.503,473.43,-9.8622,3.2874,-1.5062,-13.15,-8.1091e-13,-0.75308,0,0,0.066667,4.5396e-16,0,0.66667
0.38699,0.55282,5.8049,0.07923,20.164,1358.5,-1.2265,0.40882,-1.9765,-1.6353,1.7528e-11,-0.98825,0,0,0.066667,-0,-0,0.66667
0.062485,0.063575,0.93728,-0.65464,-195.53,2739.3,1.6362,-0.54541,-0.48933,2.1816,-1.0341e-05,-0.24467,0,0,0.066667,-0,1.0487e-17,0.66667
0.047245,0.75793,0.70868,0.38689,115.64,2807.8,-0.73115,0.24372,-1.4781,-0.97487,-2.023e-06,-0.73907,0,0,0.066667,-0,-0,0.66667
0.80495,0.90286,12.074,0.60428,63.698,166.17,-19.457,6.4856,-0.69605,-25.942,5.7263e-10,-0.34803,0,0,0.066667,-1.579e-15,0,0.66667
0.42278,0.45365,6.3417,-0.069521,-17.088,1223.1,1.1757,-0.3919,-1.9905,1.5676,2.0236e-12,-0.99523,0,0,0.066667,-0,-0,0.66667
0.10826,0.93002,1.6239,0.64504,191.14,2534,-2.7933,0.93109,-0.52789,-3.7244,3.221e-08,-0.26394,0,0,0.066667,-7.8949e-17,-5.7478e-17,0.66667
0.16703,0.48184,2.5055,-0.027247,-7.93,2273,0.18204,-0.060681,-1.9934,0.24273,2.0163e-10,-0.99669,0,0,0.066667,-3.158e-16,0,0.66667
0.68019,0.93436,10.203,0.65155,104.94,419.9,-17.727,5.909,-0.48512,-23.636,-3.3751e-13,-0.24256,0,0,0.066667,-0,-0,0.66667
0.42723,0.51986,6.4085,0.029795,7.2895,1206.6,-0.50917,0.16972,-1.9921,-0.6789,-8.1576e-12,-0.99605,0,0,0.066667,-0,-0,0.66667
0.096808,0.74691,1.4521,0.37036,109.9,2585,-1.4342,0.47805,-1.5135,-1.9122,-5.7802e-08,-0.75675,0,0,0.066667,-7.8949e-17,0,0.66667
0.39201,0.345,5.8801,-0.2325,-58.908,1339.4,3.6457,-1.2152,-1.815,4.8609,3.1557e-12,-0.90749,0,0,0.066667,-1.2632e-15,0,0.66667
0.044756,0.050428,0.67134,-0.67436,-201.83,2819.2,1.2073,-0.40239,-0.38619,1.6097,4.7289e-05,-0.19309,0,0,0.066667,-7.8949e-17,0,0.66667
0.27103,0.50175,4.0654,0.00262,0.72674,1825.7,-0.028404,0.0094679,-1.9964,-0.037872,2.4967e-11,-0.9982,0,0,0.066667,-0,-0,0.66667
0.50308,0.93003,7.5462,0.64504,144.44,939.08,-12.98,4.3267,-0.52113,-17.307,1.2511e-11,-0.26057,0,0,0.066667,6.3159e-16,0,0.66667
0.45748,0.73319,6.8622,0.34979,82.816,1096.9,-6.4009,2.1336,-1.5619,-8.5345,1.654e-11,-0.78094,0,0,0.066667,-0,-0,0.66667
0.76863,0.51012,11.53,0.015173,1.8538,227.22,-0.46651,0.1555,-1.9996,-0.62201,1.4637e-11,-0.99982,0,0,0.066667,-0,-0,0.66667
0.16023,0.065735,2.4035,-0.6514,-190.31,2303.4,4.1749,-1.3916,-0.49012,5.5666,-5.7681e-09,-0.24506,0,0,0.066667,-0,-0,0.66667
0.51004,0.47306,7.6507,-0.040405,-8.9445,914.24,0.82432,-0.27477,-1.9899,1.0991,7.118e-12,-0.99496,0,0,0.066667,-1.2632e-15,0,0.66667
0.14153,0.57578,2.1229,0.11367,33.352,2385.6,-0.64347,0.21449,-1.9618,-0.85796,-5.7236e-12,-0.98088,0,0,0.066667,-0,-0,0.66667
0.18937,0.87093,2.8405,0.55639,160.78,2175.6,-4.2145,1.4048,-0.90417,-5.6194,4.8979e-10,-0.45208,0,0,0.066667,-0,-0,0.66667
0.4099,0.99863,6.1485,0.74795,186.68,1272.8,-12.263,4.0878,-0.010888,-16.351,-7.8266e-12,-0.0054438,0,0,0.066667,8.6844e-16,0,0.66667
0.14586,0.053295,2.1879,-0.67006,-196.66,2366.9,3.9094,-1.3031,-0.39925,5.2126,1.011e-08,-0.19962,0,0,0.066667,-0,-0,0.66667
0.56233,0.039981,8.4349,-0.69003,-141.49,747.33,15.521,-5.1736,-0.31823,20.695,1.1252e-11,-0.15912,0,0,0.066667,-0,-0,0.66667
0.45523,0.75448,6.8285,0.38172,90.618,1105,-6.9508,2.3169,-1.4859,-9.2677,9.9614e-12,-0.74295,0,0,0.066667,-0,-0,0.66667
0.9421,0.96945,14.131,0.70417,23.707,19.141,-26.536,8.8452,-0.23497,-35.381,-3.2776e-05,-0.11749,0,0,0.066667,-0,-0,0.66667
0.66999,0.20952,10.05,-0.43573,-71.871,444.02,11.677,-3.8925,-1.3291,15.57,1.1558e-11,-0.66456,0,0,0.066667,-6.3159e-16,0,0.66667
0.10314,0.39609,1.5471,-0.15587,-46.176,2556.6,0.64306,-0.21435,-1.9079,0.85741,2.5703e-08,-0.95395,0,0,0.066667,-0,-0,0.66667
0.60711,0.34802,9.1066,-0.22797,-43.062,612.23,5.536,-1.8453,-1.8187,7.3814,2.423e-12,-0.90934,0,0,0.066667,-0,-0,0.66667
0.42033,0.68516,6.3049,0.27774,68.461,1232.4,-4.6697,1.5566,-1.7321,-6.2263,5.4685e-12,-0.86603,0,0,0.066667,7.8949e-17,0,0.66667
0.50063,0.38817,7.5095,-0.16774,-37.616,946.07,3.359,-1.1197,-1.9088,4.4787,1.2647e-11,-0.9544,0,0,0.066667,-0,-0,0.66667
0.65581,0.97596,9.8371,0.71395,122.03,481.49,-18.728,6.2428,-0.19777,-24.971,2.915e-12,-0.098884,0,0,0.066667,-0,-0,0.66667
0.18572,0.4786,2.7858,-0.032101,-9.2795,2191.2,0.23847,-0.079491,-2.0008,0.31796,1.3593e-11,-1.0004,0,0,0.066667,-0,-0,0.66667
0.35953,0.58538,5.393,0.12807,33.382,1465.5,-1.8418,0.61394,-1.9529,-2.4557,1.1304e-11,-0.97647,0,0,0.066667,-3.158e-16,0,0.66667
0.48038,0.92355,7.2057,0.63532,146.51,1016.9,-12.208,4.0693,-0.56258,-16.277,1.0234e-11,-0.28129,0,0,0.066667,-5.6888e-16,0,0.66667
0.61478,0.10255,9.2217,-0.59617,-111.12,591.66,14.661,-4.8868,-0.73169,19.547,2.232e-12,-0.36584,0,0,0.066667,-0,-0,0.66667
0.28556,0.84647,4.2834,0.51971,143.04,1765.6,-5.9363,1.9788,-1.0378,-7.915,3.3146e-11,-0.51892,0,0,0.066667,6.3159e-16,0,0.66667
0.50277,0.28156,7.5416,-0.32766,-73.295,939.08,6.5895,-2.1965,-1.6209,8.786,1.0991e-11,-0.81043,0,0,0.066667,-0,-0,0.66667
0.27855,0.93816,4.1782,0.65723,181.78,1795.1,-7.3228,2.4409,-0.46688,-9.7637,-1.0203e-10,-0.23344,0,0,0.066667,1.2632e-15,0,0.66667
0.57239,0.9367,8.5858,0.65505,132.04,716.27,-14.998,4.9992,-0.47052,-19.997,3.1282e-12,-0.23526,0,0,0.066667,-4.737e-16,0,0.66667
0.34229,0.29746,5.1343,-0.30381,-80.316,1534,4.1596,-1.3865,-1.6773,5.5461,1.2603e-11,-0.83863,0,0,0.066667,6.3159e-16,0,0.66667
0.83916,0.90905,12.587,0.61358,54.332,115.69,-20.596,6.8652,-0.65901,-27.461,-2.4426e-09,-0.3295,0,0,0.066667,-0,-0,0.66667
0.68591,0.55116,10.289,0.076742,12.147,404.15,-2.1055,0.70184,-1.9841,-2.8074,8.4852e-12,-0.99207,0,0,0.066667,-6.3159e-16,0,0.66667
0.81613,0.50449,12.242,0.0067357,0.67086,146.72,-0.21989,0.073296,-1.9993,-0.29319,-4.3802e-10,-0.99964,0,0,0.066667,-0,-0,0.66667
0.15425,0.59451,2.3137,0.14176,41.437,2329.4,-0.87464,0.29155,-1.9335,-1.1662,-3.1817e-10,-0.96677,0,0,0.066667,-6.3159e-16,0,0.66667
0.18519,0.774,2.7779,0.41099,118.9,2193.7,-3.0445,1.0148,-1.4023,-4.0594,4.66e-10,-0.70116,0,0,0.066667,-3.158e-16,0,0.66667
0.54259,0.58437,8.1389,0.12656,26.718,807.72,-2.7469,0.91562,-1.9404,-3.6625,4.3912e-12,-0.9702,0,0,0.066667,-0,-0,0.66667
0.061398,0.40484,0.92097,-0.14274,-42.581,2744,0.35056,-0.11685,-1.9358,0.46742,2.5087e-07,-0.9679,0,0,0.066667,-6.986e-17,0,0.66667
0.53806,0.35769,8.0709,-0.21347,-45.385,822.37,4.5943,-1.5314,-1.8316,6.1257,9.341e-12,-0.91581,0,0,0.066667,-0,-0,0.66667
0.336,0.87976,5.04,0.56965,151.46,1559.7,-7.656,2.552,-0.84039,-10.208,-2.7343e-12,-0.42019,0,0,0.066667,-0,-0,0.66667
0.32445,0.50967,4.8668,0.014503,3.8844,1605.5,-0.18822,0.062741,-1.998,-0.25097,-1.0925e-11,-0.99899,0,0,0.066667,-0,-0,0.66667
0.22985,0.82909,3.4478,0.49364,140.1,2000.6,-4.5386,1.5129,-1.1302,-6.0514,-1.2872e-10,-0.56509,0,0,0.066667,3.158e-16,0,0.66667
0.0046867,0.61641,0.070301,0.17461,52.285,3000.1,-0.032733,0.010909,-1.8882,-0.043645,-2.5063e-06,-0.9441,0,0,0.066667,-0,-0,0.66667
0.68707,0.89772,10.306,0.59658,94.357,402.97,-16.396,5.4652,-0.74461,-21.861,-7.1356e-12,-0.3723,0,0,0.066667,-0,6.2681e-17,0.66667
0.75278,0.68346,11.292,0.2752,35.635,258,-8.2865,2.7622,-1.7326,-11.049,-1.2113e-11,-0.86629,0,0,0.066667,1.8948e-15,0,0.66667
0.33828,0.13222,5.0743,-0.55167,-146.41,1550.5,7.4649,-2.4883,-0.91336,9.9532,3.4887e-11,-0.45668,0,0,0.066667,-0,-0,0.66667
0.4698,0.51337,7.0471,0.02006,4.678,1052.7,-0.37696,0.12565,-2.0056,-0.50262,1.2125e-11,-1.0028,0,0,0.066667,-0,-0,0.66667
0.79738,0.22182,11.961,-0.41728,-45.421,177.5,13.309,-4.4364,-1.3914,17.746,6.548e-11,-0.69568,0,0,0.066667,-0,-0,0.66667
0.64747,0.62309,9.712,0.18463,32.068,501.17,-4.7817,1.5939,-1.8737,-6.3756,4.5817e-12,-0.93686,0,0,0.066667,-3.158e-16,0,0.66667
0.022978,0.49389,0.34467,-0.0091693,-2.744,2917.4,0.0084278,-0.0028105,-1.9937,0.011236,-1.9026e-06,-0.99686,0,0,0.066667,-0,-0,0.66667
0.28397,0.53922,4.2596,0.05883,16.192,1771.7,-0.66824,0.22275,-1.9892,-0.89099,3.1193e-11,-0.9946,0,0,0.066667,-0,-0,0.66667
0.95439,0.38983,14.316,-0.16526,-4.3271,10.36,6.3088,-2.1029,-1.9091,8.4118,-5.1735e-07,-0.95454,0,0,0.066667,-0,-0,0.66667
0.88315,0.60933,13.247,0.16399,10.734,61.686,-5.7932,1.9311,-1.8977,-7.7242,-1.3184e-10,-0.94887,0,0,0.066667,-0,-0,0.66667
0.32522,0.93694,4.8783,0.65541,175.74,1603.4,-8.526,2.842,-0.47481,-11.368,9.6554e-12,-0.23741,0,0,0.066667,-2.3685e-16,0,0.66667
0.91063,0.54656,13.66,0.069836,3.5368,36.796,-2.5438,0.84793,-1.9795,-3.3917,1.8781e-08,-0.98976,0,0,0.066667,1.2632e-15,0,0.66667
0.47918,0.33199,7.1876,-0.25202,-58.115,1020,4.8304,-1.6101,-1.7697,6.4405,1.7153e-11,-0.88483,0,0,0.066667,-6.3159e-16,0,0.66667
0.20207,0.0064462,3.031,-0.74033,-213.02,2120.8,5.9839,-1.9946,-0.058848,7.9785,8.6738e-10,-0.029424,0,0,0.066667,-0,-5.1705e-17,0.66667
0.27145,0.14925,4.0717,-0.52613,-146.05,1824.5,5.7127,-1.9042,-1.0108,7.6169,3.2044e-11,-0.50541,0,0,0.066667,-1.579e-16,0,0.66667
0.24098,0.060174,3.6147,-0.65974,-186.34,1953.4,6.3594,-2.1198,-0.44742,8.4792,4.2582e-10,-0.22371,0,0,0.066667,-1.579e-16,0,0.66667
0.055575,0.050093,0.83363,-0.67486,-201.76,2770.4,1.5002,-0.50009,-0.37431,2.0003,-2.4387e-05,-0.18715,0,0,0.066667,7.8949e-17,0,0.66667
0.43714,0.88836,6.557,0.58254,141.23,1171.1,-10.186,3.3953,-0.80343,-13.581,3.781e-12,-0.40171,0,0,0.066667,-6.3159e-16,-7.7288e-17,0.66667
0.90458,0.38064,13.569,-0.17904,-9.6624,41.888,6.4782,-2.1594,-1.8914,8.6375,-2.637e-08,-0.94569,0,0,0.066667,-0,-0,0.66667
0.52576,0.082671,7.8864,-0.62599,-135.78,863.54,13.165,-4.3883,-0.60178,17.553,1.3877e-11,-0.30089,0,0,0.066667,6.3159e-16,0,0.66667
0.54546,0.030784,8.1818,-0.70382,-148.28,800.33,15.356,-5.1187,-0.24589,20.475,-1.9291e-12,-0.12294,0,0,0.066667,1.9737e-16,-4.6434e-18,0.66667
0.227,0.55039,3.405,0.07558,21.462,2012.5,-0.68627,0.22876,-1.9732,-0.91502,6.1942e-12,-0.98658,0,0,0.066667,-0,-0,0.66667
0.046401,0.57717,0.69601,0.11575,34.586,2811.6,-0.21484,0.071614,-1.9618,-0.28646,-3.088e-07,-0.98092,0,0,0.066667,-0,-0,0.66667
0.12581,0.61854,1.8871,0.17781,52.399,2455.5,-0.89477,0.29826,-1.8962,-1.193,-1.6375e-10,-0.94811,0,0,0.066667,-0,-0,0.66667
0.21513,0.41516,3.2269,-0.12727,-36.341,2063.6,1.0951,-0.36504,-1.9413,1.4602,-1.6511e-11,-0.97066,0,0,0.066667,-0,-0,0.66667
0.87339,0.74188,13.101,0.36282,25.654,72.544,-12.675,4.2251,-1.5372,-16.9,-3.6637e-09,-0.76862,0,0,0.066667,6.3159e-16,0,0.66667
0.98833,0.9501,14.825,0.67514,4.6255,3.8617,-26.691,8.897,-0.37723,-35.587,0.0001744,-0.18861,0,0,0.066667,-0,-0,0.66667
0.017766,0.46314,0.26649,-0.055283,-16.548,2940.9,0.039287,-0.013096,-1.9928,0.052383,-1.098e-06,-0.9964,0,0,0.066667,-1.9737e-17,0,0.66667
0.44331,0.1646,6.6496,-0.5031,-121.11,1148.4,8.9211,-2.9737,-1.095,11.895,-2.2638e-11,-0.54748,0,0,0.066667,1.2632e-15,0,0.66667
0.3692,0.049496,5.538,-0.67576,-175.02,1428.6,9.9795,-3.3265,-0.37096,13.306,1.6724e-11,-0.18548,0,0,0.066667,-6.3159e-16,0,0.66667
0.53646,0.41015,8.047,-0.13478,-28.72,827.41,2.8921,-0.96403,-1.9317,3.8561,-3.7768e-12,-0.96587,0,0,0.066667,-0,-0,0.66667
0.61652,0.96458,9.2478,0.69687,129.54,587.3,-17.185,5.7285,-0.26772,-22.914,1.6184e-11,-0.13386,0,0,0.066667,6.3159e-16,0,0.66667
0.396,0.60956,5.94,0.16433,41.478,1324.1,-2.603,0.86768,-1.8991,-3.4707,8.8325e-12,-0.94954,0,0,0.066667,-0,-0,0.66667
0.18386,0.15177,2.758,-0.52235,-151.25,2199.6,3.8416,-1.2805,-1.0293,5.1222,-3.3367e-09,-0.51465,0,0,0.066667,2.3685e-16,0,0.66667
0.58527,0.1641,8.7791,-0.50386,-99.217,676.79,11.796,-3.9319,-1.0912,15.728,3.7783e-12,-0.54561,0,0,0.066667,1.2632e-15,0,0.66667
0.033297,0.65908,0.49945,0.23861,71.38,2870.8,-0.3178,0.10594,-1.802,-0.42374,8.5484e-07,-0.901,0,0,0.066667,-0,-0,0.66667
0.89398,0.57297,13.41,0.10945,6.531,51.119,-3.9139,1.3046,-1.9569,-5.2185,1.8705e-08,-0.97844,0,0,0.066667,2.5264e-15,0,0.66667
0.64441,0.81161,9.6662,0.46741,81.827,510.05,-12.048,4.0161,-1.2229,-16.064,-1.6875e-14,-0.61145,0,0,0.066667,-3.9475e-16,0,0.66667
0.094544,0.090236,1.4182,-0.61465,-182.63,2595.3,2.3245,-0.77482,-0.66588,3.0993,-7.6855e-09,-0.33294,0,0,0.066667,-1.579e-16,0,0.66667
0.55137,0.38788,8.2706,-0.16818,-35.021,779.89,3.7091,-1.2364,-1.8961,4.9455,1.4478e-11,-0.94805,0,0,0.066667,-0,-0,0.66667
0.12897,0.86454,1.9346,0.54682,161.17,2441.6,-2.821,0.94034,-0.93479,-3.7614,-3.8087e-09,-0.46739,0,0,0.066667,-0,-0,0.66667
0.11882,0.62957,1.7823,0.19435,57.376,2486.6,-0.92371,0.3079,-1.8607,-1.2316,3.725e-09,-0.93034,0,0,0.066667,-0,-0,0.66667
0.26555,0.068562,3.9832,-0.64716,-180.36,1849.5,6.8741,-2.2914,-0.52281,9.1654,-8.5786e-11,-0.26141,0,0,0.066667,6.3159e-16,-4.9375e-17,0.66667
0.76291,0.97716,11.444,0.71575,89.711,240.61,-21.842,7.2806,-0.18,-29.123,6.2139e-11,-0.089999,0,0,0.066667,-0,-0,0.66667
0.69822,0.50659,10.473,0.0098848,1.514,375.01,-0.27607,0.092024,-1.9961,-0.36809,9.9687e-12,-0.99804,0,0,0.066667,-0,-0,0.66667
0.55885,0.20512,8.3828,-0.44233,-91.086,757.07,9.8878,-3.2959,-1.3029,13.184,1.2538e-11,-0.65145,0,0,0.066667,-6.3159e-16,0,0.66667
0.25523,0.70714,3.8284,0.31071,86.992,1892.4,-3.1721,1.0574,-1.6522,-4.2295,1.7048e-11,-0.82609,0,0,0.066667,3.158e-16,0,0.66667
0.51787,0.62492,7.768,0.18738,41.036,888.28,-3.8816,1.2939,-1.8795,-5.1755,1.4573e-12,-0.93974,0,0,0.066667,-8.2403e-16,0,0.66667
0.92975,0.75604,13.946,0.38405,15.454,24.094,-14.283,4.761,-1.4695,-19.044,4.4088e-07,-0.73477,0,0,0.066667,-0,-0,0.66667
0.18532,0.29997,2.7798,-0.30005,-86.775,2193,2.2242,-0.74139,-1.6828,2.9656,1.9948e-10,-0.84141,0,0,0.066667,-3.158e-16,0,0.66667
0.73421,0.71474,11.013,0.32211,44.388,295.9,-9.4597,3.1532,-1.6429,-12.613,8.5265e-13,-0.82145,0,0,0.066667,3.158e-16,0,0.66667
0.87218,0.66614,13.083,0.24921,17.761,73.462,-8.6943,2.8981,-1.7802,-11.592,4.1848e-10,-0.89011,0,0,0.066667,-2.5264e-15,0,0.66667
0.66946,0.85609,10.042,0.53414,88.273,445.79,-14.303,4.7678,-0.98771,-19.071,1.1724e-13,-0.49385,0,0,0.066667,-0,-0,0.66667
0.2037,0.15554,3.0554,-0.51669,-148.42,2113.3,4.2099,-1.4033,-1.0614,5.6132,9.7291e-10,-0.5307,0,0,0.066667,3.5527e-16,0,0.66667
0.12917,0.18059,1.9375,-0.47912,-141.17,2440.7,2.4754,-0.82515,-1.1816,3.3006,8.1591e-09,-0.59082,0,0,0.066667,1.579e-16,0,0.66667
0.51503,0.26628,7.7255,-0.35058,-77.116,898,7.2224,-2.4075,-1.572,9.6299,6.1395e-12,-0.78599,0,0,0.066667,6.3159e-16,0,0.66667
0.13031,0.5904,1.9546,0.13561,39.915,2435.4,-0.70683,0.23561,-1.9309,-0.94244,-6.2974e-10,-0.96544,0,0,0.066667,-1.9737e-16,0,0.66667
0.8257,0.050328,12.386,-0.67451,-64.317,134.98,22.278,-7.4259,-0.38448,29.704,5.8272e-09,-0.19224,0,0,0.066667,-1.2632e-15,0,0.66667
0.52364,0.82894,7.8547,0.49341,107.27,869.95,-10.335,3.445,-1.1277,-13.78,-7.2902e-12,-0.56386,0,0,0.066667,-6.2012e-16,0,0.66667
0.29142,0.8793,4.3714,0.56895,156.05,1741.4,-6.6322,2.2107,-0.84495,-8.8429,7.3315e-12,-0.42248,0,0,0.066667,-0,-0,0.66667
0.56813,0.71415,8.5219,0.32122,65.11,728.06,-7.2998,2.4333,-1.6287,-9.7331,7.8937e-12,-0.81437,0,0,0.066667,-0,-0,0.66667
0.26064,0.35571,3.9096,-0.21643,-60.402,1869.5,2.2564,-0.75213,-1.8293,3.0085,2.732e-11,-0.91463,0,0,0.066667,-0,-0,0.66667
0.58447,0.10427,8.7671,-0.5936,-117.12,679.57,13.878,-4.6259,-0.74133,18.503,1.2792e-11,-0.37067,0,0,0.066667,-1.2632e-15,0,0.66667
0.23212,0.012567,3.4818,-0.73115,-207.51,1991.4,6.7887,-2.2629,-0.10194,9.0515,2.2302e-10,-0.050968,0,0,0.066667,-0,7.5924e-17,0.66667
0.21905,0.75306,3.2858,0.37959,108.25,2046.8,-3.326,1.1087,-1.499,-4.4347,-8.8996e-11,-0.74952,0,0,0.066667,-6.3159e-16,0,0.66667
0.51851,0.65488,7.7776,0.23231,50.834,886.24,-4.8182,1.6061,-1.8102,-6.4243,4.2135e-12,-0.90508,0,0,0.066667,-7.1054e-16,0,0.66667
0.83542,0.9508,12.531,0.67621,61.207,121.25,-22.597,7.5322,-0.36765,-30.129,-7.6952e-09,-0.18382,0,0,0.066667,-0,-0,0.66667
0.64477,0.94235,9.6716,0.66352,116.22,510.05,-17.113,5.7042,-0.43281,-22.817,-5.2012e-12,-0.21641,0,0,0.066667,-0,-0,0.66667
0.094191,0.083239,1.4129,-0.62514,-185.77,2596.9,2.3553,-0.7851,-0.6203,3.1404,-1.5484e-07,-0.31015,0,0,0.066667,-7.8949e-17,0,0.66667
0.13407,0.96471,2.011,0.69706,205.3,2419.1,-3.7381,1.246,-0.26713,-4.9842,-3.1495e-07,-0.13357,0,0,0.066667,-0,-0,0.66667
0.3903,0.50048,5.8545,0.00071809,0.18219,1345.8,-0.011211,0.003737,-2.0118,-0.014948,-9.2948e-13,-1.0059,0,0,0.066667,-0,-0,0.66667
0.31956,0.072127,4.7935,-0.64181,-172.78,1626.2,8.204,-2.7347,-0.52914,10.939,4.4098e-11,-0.26457,0,0,0.066667,-0,-0,0.66667
0.89122,0.96181,13.368,0.69271,42.693,56.48,-24.694,8.2314,-0.30336,-32.926,1.3942e-06,-0.15168,0,0,0.066667,6.3159e-16,0,0.66667
0.89129,0.34245,13.369,-0.23633,-14.453,53.893,8.4255,-2.8085,-1.8115,11.234,-2.3784e-08,-0.90575,0,0,0.066667,-3.158e-16,0,0.66667
0.029824,0.14414,0.44736,-0.53379,-159.84,2886.5,0.63681,-0.21229,-0.99256,0.84907,-2.5021e-05,-0.49628,0,0,0.066667,3.9475e-17,0,0.66667
0.21052,0.79144,3.1578,0.43716,125.17,2083.7,-3.6812,1.2271,-1.3141,-4.9083,-5.9669e-11,-0.65705,0,0,0.066667,-0,-0,0.66667
0.38835,0.20918,5.8253,-0.43623,-110.96,1353.8,6.7764,-2.2588,-1.3262,9.0352,8.0971e-12,-0.6631,0,0,0.066667,-0,-0,0.66667
0.17637,0.45022,2.6456,-0.074676,-21.663,2232,0.52684,-0.17561,-1.9769,0.70245,-1.4968e-11,-0.98843,0,0,0.066667,-0,-0,0.66667
0.91869,0.54374,13.78,0.06561,3.0329,30.701,-2.411,0.80367,-1.9845,-3.2147,3.4336e-08,-0.99225,0,0,0.066667,-0,-0,0.66667
0.1896,0.32043,2.844,-0.26936,-77.766,2174.3,2.0428,-0.68093,-1.7456,2.7237,3.2977e-11,-0.87278,0,0,0.066667,-0,-0,0.66667
0.73399,0.41842,11.01,-0.12237,-16.864,295.92,3.5926,-1.1975,-1.9567,4.7902,-4.4424e-12,-0.97835,0,0,0.066667,-0,-0,0.66667
0.95692,0.78192,14.354,0.42288,10.528,10.289,-16.187,5.3955,-1.3639,-21.582,5.6177e-06,-0.68195,0,0,0.066667,-2.5264e-15,0,0.66667
0.47772,0.45006,7.1658,-0.074904,-17.3,1024.9,1.4313,-0.4771,-1.9738,1.9084,-6.9061e-12,-0.98692,0,0,0.066667,-0,-0,0.66667
0.81422,0.39825,12.213,-0.15262,-15.347,149.77,4.9707,-1.6569,-1.9221,6.6275,-2.8023e-11,-0.96103,0,0,0.066667,-0,-0,0.66667
0.42822,0.80021,6.4233,0.45031,110.15,1203.5,-7.7133,2.5711,-1.2731,-10.284,-6.7297e-12,-0.63653,0,0,0.066667,6.3159e-16,0,0.66667
0.81345,0.93087,12.202,0.6463,65.496,153.1,-21.029,7.0097,-0.52287,-28.039,1.6484e-08,-0.26143,0,0,0.066667,-6.3159e-16,0,0.66667
0.7617,0.55632,11.425,0.084486,10.592,240.35,-2.5741,0.85804,-1.9731,-3.4321,-3.0234e-12,-0.98655,0,0,0.066667,-6.3159e-16,0,0.66667
0.9596,0.20572,14.394,-0.44142,-10.314,9.3492,16.943,-5.6478,-1.3011,22.591,-6.9921e-06,-0.65056,0,0,0.066667,-0,-0,0.66667
0.3366,0.22655,5.049,-0.41017,-108.94,1557,5.5225,-1.8408,-1.3957,7.3634,3.4413e-11,-0.69785,0,0,0.066667,-6.3159e-16,0,0.66667
0.76659,0.68871,11.499,0.28306,34.873,231.45,-8.6797,2.8932,-1.7239,-11.573,2.915e-12,-0.86197,0,0,0.066667,-2.5264e-15,0,0.66667
0.92162,0.40088,13.824,-0.14868,-6.6348,28.726,5.4809,-1.827,-1.9326,7.3079,-1.1577e-07,-0.9663,0,0,0.066667,-0,-0,0.66667
0.81077,0.81939,12.162,0.47909,49.082,156.23,-15.537,5.1791,-1.1889,-20.716,-6.7783e-10,-0.59443,0,0,0.066667,-0,-0,0.66667
0.81434,0.89498,12.215,0.59247,59.743,151.37,-19.299,6.433,-0.75609,-25.732,1.5554e-09,-0.37804,0,0,0.066667,1.2632e-15,0,0.66667
0.9483,0.37711,14.224,-0.18434,-5.4694,13.135,6.9922,-2.3307,-1.8765,9.323,-2.9527e-07,-0.93823,0,0,0.066667,2.5264e-15,0,0.66667
0.29068,0.29189,4.3602,-0.31216,-85.585,1744,3.6296,-1.2099,-1.6478,4.8395,2.1892e-11,-0.82391,0,0,0.066667,-6.3159e-16,0,0.66667
0.44015,0.95285,6.6022,0.67928,164.23,1160.5,-11.959,3.9864,-0.36072,-15.946,-6.1782e-12,-0.18036,0,0,0.066667,-0,-0,0.66667
0.10606,0.80128,1.5909,0.45191,133.88,2543.7,-1.9172,0.63905,-1.2734,-2.5562,1.0792e-08,-0.63669,0,0,0.066667,-0,-0,0.66667
0.87728,0.15756,13.159,-0.51366,-35.341,69.147,18.025,-6.0083,-1.0658,24.033,-5.1639e-08,-0.53291,0,0,0.066667,2.5264e-15,0,0.66667
0.3437,0.89534,5.1555,0.59302,156.76,1529,-8.1528,2.7176,-0.76118,-10.87,1.4447e-11,-0.38059,0,0,0.066667,-0,-0,0.66667
0.90524,0.92055,13.579,0.63083,34.058,43.542,-22.842,7.6141,-0.59233,-30.456,-2.1864e-07,-0.29616,0,0,0.066667,1.2632e-15,0,0.66667
0.20386,0.19547,3.0579,-0.45679,-131.18,2112.5,3.7248,-1.2416,-1.2669,4.9664,1.3533e-10,-0.63344,0,0,0.066667,-0,-0,0.66667
0.34961,0.80318,5.2441,0.45478,119.59,1505.2,-6.3597,2.1199,-1.2594,-8.4796,1.7142e-11,-0.62969,0,0,0.066667,-3.158e-16,0,0.66667
0.69048,0.77674,10.357,0.41511,64.993,394,-11.465,3.8217,-1.3885,-15.287,4.2615e-12,-0.69426,0,0,0.066667,-3.158e-16,0,0.66667
0.92271,0.56264,13.841,0.093958,4.135,27.888,-3.4678,1.1559,-1.9782,-4.6238,1.1534e-07,-0.98912,0,0,0.066667,-2.5264e-15,0,0.66667
0.68795,0.53771,10.319,0.056569,8.9062,399.26,-1.5567,0.51889,-1.9988,-2.0756,4.294e-12,-0.99941,0,0,0.066667,-0,-0,0.66667
0.34009,0.3772,5.1014,-0.1842,-48.769,1542.7,2.5059,-0.83529,-1.8791,3.3412,1.2389e-11,-0.93956,0,0,0.066667,-0,-0,0.66667
0.040043,0.92407,0.60065,0.63611,190.42,2840.4,-1.0189,0.3396,-0.55497,-1.3585,-4.4372e-05,-0.27749,0,0,0.066667,-7.8949e-17,0,0.66667
0.33175,0.17309,4.9763,-0.49037,-130.76,1576.6,6.5072,-2.1691,-1.1436,8.6762,3.1633e-11,-0.57182,0,0,0.066667,-0,-0,0.66667
0.47616,0.25174,7.1424,-0.37238,-86.222,1030.8,7.0926,-2.3642,-1.5017,9.4568,3.3786e-12,-0.75084,0,0,0.066667,-0,-0,0.66667
0.7304,0.22495,10.956,-0.41258,-57.575,304.24,12.054,-4.018,-1.3931,16.072,-8.9262e-13,-0.69657,0,0,0.066667,-0,-0,0.66667
0.89363,0.85203,13.404,0.52805,31.754,53.033,-18.875,6.2917,-1.0092,-25.167,-1.8978e-07,-0.50461,0,0,0.066667,-0,-0,0.66667
0.006309,0.32109,0.094636,-0.26836,-80.369,2992.7,0.067723,-0.022572,-1.7383,0.090298,3.6534e-06,-0.86914,0,0,0.066667,-0,-0,0.66667
0.076734,0.73156,1.151,0.34734,103.43,2675.1,-1.0661,0.35537,-1.5768,-1.4215,-2.2163e-07,-0.7884,0,0,0.066667,-0,-0,0.66667
0.28179,0.26187,4.2269,-0.3572,-98.49,1781,4.0262,-1.3421,-1.5556,5.3683,7.8266e-12,-0.77781,0,0,0.066667,-0,-0,0.66667
0.53562,0.1882,8.0343,-0.46771,-99.892,830.86,10.021,-3.3402,-1.2207,13.361,3.8343e-12,-0.61033,0,0,0.066667,1.2632e-15,0,0.66667
0.53579,0.95077,8.0368,0.67616,144.54,831.17,-14.491,4.8304,-0.37101,-19.321,-3.8458e-13,-0.18551,0,0,0.066667,1.2632e-15,0,0.66667
0.42526,0.96481,6.379,0.69721,171.28,1215.3,-11.86,3.9533,-0.2718,-15.813,-5.4676e-12,-0.1359,0,0,0.066667,1.579e-16,0,0.66667
0.88364,0.033297,13.255,-0.70005,-45.98,63.927,24.744,-8.2479,-0.25233,32.992,6.8115e-07,-0.12617,0,0,0.066667,-0,-0,0.66667
0.72735,0.61572,10.91,0.17358,24.429,310.05,-5.0503,1.6834,-1.8867,-6.7337,-1.1324e-13,-0.94333,0,0,0.066667,-0,-0,0.66667
0.13596,0.8092,2.0394,0.4638,136.4,2410.5,-2.5224,0.84079,-1.2325,-3.3632,-1.0301e-08,-0.61626,0,0,0.066667,-2.3685e-16,0,0.66667
0.23514,0.12705,3.527,-0.55942,-158.4,1978.1,5.2616,-1.7539,-0.89682,7.0155,1.7871e-10,-0.44841,0,0,0.066667,6.3159e-16,0,0.66667
0.50531,0.11181,7.5796,-0.58228,-129.95,931.31,11.769,-3.9231,-0.78974,15.692,4.2526e-12,-0.39487,0,0,0.066667,-0,-0,0.66667
0.36252,0.11994,5.4378,-0.5701,-148.41,1454.5,8.2668,-2.7556,-0.84506,11.022,1.574e-11,-0.42253,0,0,0.066667,7.8949e-16,0,0.66667
0.80862,0.54022,12.129,0.060326,6.2292,158.39,-1.9512,0.65041,-1.9853,-2.6016,-1.3151e-11,-0.99267,0,0,0.066667,-0,-0,0.66667
0.41934,0.064992,6.29,-0.65251,-161.24,1237.1,10.945,-3.6483,-0.48902,14.593,1.5173e-11,-0.24451,0,0,0.066667,-1.2632e-15,0,0.66667
0.94116,0.03024,14.117,-0.70464,-24.095,19.638,26.527,-8.8424,-0.23461,35.37,3.1219e-05,-0.11731,0,0,0.066667,1.4211e-15,0,0.66667
0.18246,0.41005,2.7368,-0.13493,-39.056,2205.4,0.98476,-0.32825,-1.9319,1.313,2.6643e-12,-0.96594,0,0,0.066667,-6.3159e-16,0,0.66667
0.48279,0.038145,7.2418,-0.69278,-159.33,1008.8,13.379,-4.4596,-0.29901,17.838,-1.4802e-11,-0.1495,0,0,0.066667,-0,5.4305e-17,0.66667
0.89425,0.90652,13.414,0.60977,36.525,53.016,-21.812,7.2705,-0.6782,-29.082,-2.3711e-07,-0.3391,0,0,0.066667,2.5264e-15,0,0.66667
0.065736,0.63568,0.98604,0.20352,60.682,2724.5,-0.53514,0.17838,-1.8525,-0.71352,-3.4763e-07,-0.92626,0,0,0.066667,-0,-0,0.66667
0.27923,0.6332,4.1885,0.1998,55.159,1791.5,-2.2317,0.74389,-1.8618,-2.9755,2.7461e-11,-0.93092,0,0,0.066667,6.3159e-16,0,0.66667
0.20277,0.21508,3.0416,-0.42737,-122.77,2117.2,3.4664,-1.1555,-1.3616,4.6219,-1.7561e-11,-0.68081,0,0,0.066667,7.8949e-17,0,0.66667
0.98481,0.92867,14.772,0.64301,5.7153,4.0698,-25.33,8.4433,-0.53976,-33.773,7.4138e-05,-0.26988,0,0,0.066667,1.2632e-15,1.2803e-16,0.66667
0.46845,0.39867,7.0268,-0.15199,-35.506,1057.5,2.848,-0.94934,-1.9286,3.7974,5.4436e-12,-0.9643,0,0,0.066667,-0,-0,0.66667
0.88817,0.87912,13.323,0.56868,35.882,58.469,-20.203,6.7344,-0.85303,-26.938,-8.0116e-08,-0.42651,0,0,0.066667,-2.5264e-15,-1.3706e-18,0.66667
0.85393,0.94951,12.809,0.67427,54.704,97.037,-23.031,7.677,-0.37862,-30.708,4.8518e-10,-0.18931,0,0,0.066667,1.2632e-15,0,0.66667
0.10397,0.078431,1.5595,-0.63235,-187.55,2553.1,2.6298,-0.8766,-0.5733,3.5064,-3.5482e-08,-0.28665,0,0,0.066667,-0,-0,0.66667
0.34994,0.82452,5.2492,0.48679,127.99,1503.9,-6.8139,2.2713,-1.1517,-9.0852,1.8016e-11,-0.57584,0,0,0.066667,-0,-0,0.66667
0.4967,0.0012393,7.4504,-0.74814,-169.07,961.22,14.864,-4.9546,-0.010774,19.819,1.223e-11,-0.005387,0,0,0.066667,-0,-0,0.66667
0.8789,0.34239,13.183,-0.23642,-16.014,66.235,8.3115,-2.7705,-1.8006,11.082,6.3624e-09,-0.90031,0,0,0.066667,1.4211e-15,0,0.66667
0.98185,0.26024,14.728,-0.35964,-3.7184,2.7052,14.125,-4.7082,-1.542,18.833,5.0512e-06,-0.77102,0,0,0.066667,-0,-0,0.66667
0.33695,0.53122,5.0542,0.046824,12.425,1555.2,-0.63109,0.21036,-1.9875,-0.84145,3.716e-11,-0.99377,0,0,0.066667,-0,-0,0.66667
0.78195,0.077452,11.729,-0.63382,-73.777,205.13,19.825,-6.6082,-0.58014,26.433,-1.2369e-09,-0.29007,0,0,0.066667,-1.2632e-15,0,0.66667
0.85872,0.044453,12.881,-0.68332,-53.765,91.268,23.471,-7.8237,-0.34854,31.295,-4.4886e-08,-0.17427,0,0,0.066667,-0,-0,0.66667
0.28125,0.89533,4.2187,0.593,163.7,1783.7,-6.6712,2.2237,-0.7615,-8.8949,5.3033e-11,-0.38075,0,0,0.066667,3.158e-16,7.179e-17,0.66667
0.19893,0.76491,2.9839,0.39737,114.33,2133.9,-3.1619,1.054,-1.4358,-4.2159,1.4679e-10,-0.71791,0,0,0.066667,3.158e-16,0,0.66667
0.64661,0.71678,9.6992,0.32517,56.609,503.74,-8.4103,2.8034,-1.6197,-11.214,-3.8822e-12,-0.80985,0,0,0.066667,3.158e-16,0,0.66667
0.56414,0.77004,8.4621,0.40507,82.678,740.56,-9.1405,3.0468,-1.4215,-12.187,-1.6218e-12,-0.71075,0,0,0.066667,6.3159e-16,0,0.66667
0.15458,0.13706,2.3186,-0.54441,-159.27,2328.2,3.3661,-1.122,-0.95093,4.4881,9.5978e-09,-0.47546,0,0,0.066667,-0,-2.9765e-17,0.66667
0.74217,0.62283,11.133,0.18425,24.727,279.07,-5.4697,1.8232,-1.8739,-7.2929,-3.3085e-13,-0.93695,0,0,0.066667,6.3159e-16,0,0.66667
0.36009,0.84422,5.4014,0.51633,134.65,1463.9,-7.4371,2.479,-1.0621,-9.9161,1.083e-11,-0.53107,0,0,0.066667,-0,-0,0.66667
0.60467,0.055232,9.0701,-0.66715,-126.88,620.79,16.136,-5.3788,-0.41417,21.515,1.9558e-12,-0.20709,0,0,0.066667,-0,-4.2706e-18,0.66667
0.006493,0.7986,0.097395,0.44789,134.19,2991.9,-0.11632,0.038763,-1.2806,-0.1551,-1.4364e-05,-0.6403,0,0,0.066667,9.8686e-18,0,0.66667
0.59052,0.79943,8.8577,0.44914,87.589,661.05,-10.609,3.5363,-1.2824,-14.145,-4.8095e-12,-0.6412,0,0,0.066667,6.3159e-16,0,0.66667
0.73343,0.88798,11.001,0.58197,80.541,298.68,-17.073,5.6911,-0.80328,-22.764,4.005e-11,-0.40164,0,0,0.066667,1.2632e-15,7.6686e-17,0.66667
0.34567,0.39184,5.1851,-0.16224,-42.765,1520.4,2.2432,-0.74774,-1.9102,2.991,6.3638e-12,-0.95508,0,0,0.066667,-0,-0,0.66667
0.75933,0.75572,11.39,0.38358,48.559,245.6,-11.651,3.8835,-1.4716,-15.534,1.0375e-11,-0.73578,0,0,0.066667,2.5264e-15,0,0.66667
0.42697,0.74292,6.4046,0.36438,89.223,1207.9,-6.2232,2.0744,-1.524,-8.2976,2.8098e-12,-0.76199,0,0,0.066667,5.6861e-16,0,0.66667
0.4232,0.39173,6.348,-0.16241,-39.905,1221.6,2.7492,-0.9164,-1.9122,3.6656,9.4276e-12,-0.95609,0,0,0.066667,-6.3159e-16,0,0.66667
0.29935,0.95199,4.4903,0.67798,185.1,1709,-8.1182,2.7061,-0.36753,-10.824,1.4779e-12,-0.18377,0,0,0.066667,-0,-0,0.66667
0.74106,0.040197,11.116,-0.6897,-93.22,283.54,20.444,-6.8148,-0.30267,27.259,3.9426e-11,-0.15134,0,0,0.066667,1.2632e-15,0,0.66667
0.91708,0.19076,13.756,-0.46386,-21.953,33.16,17.016,-5.672,-1.2321,22.688,-2.7298e-08,-0.61605,0,0,0.066667,-0,-0,0.66667
0.4431,0.36569,6.6465,-0.20147,-48.465,1148.5,3.5709,-1.1903,-1.8508,4.7612,-3.7281e-13,-0.92538,0,0,0.066667,-3.158e-16,0,0.66667
0.98698,0.79473,14.805,0.4421,3.2616,2.3213,-17.454,5.8179,-1.3065,-23.272,1.4281e-05,-0.65327,0,0,0.066667,-0,-0,0.66667
0.79949,0.64503,11.992,0.21755,23.432,173.34,-6.9571,2.319,-1.8333,-9.2761,-4.0574e-11,-0.91665,0,0,0.066667,-0,-0,0.66667
0.31124,0.50736,4.6685,0.011042,2.9854,1659.3,-0.13747,0.045824,-2.0062,-0.1833,1.7314e-12,-1.0031,0,0,0.066667,-0,-0,0.66667
0.23311,0.98419,3.4966,0.72628,206.02,1987.1,-6.772,2.2573,-0.13069,-9.0293,-2.3946e-10,-0.065343,0,0,0.066667,-0,7.8938e-17,0.66667
0.35894,0.13272,5.384,-0.55092,-143.84,1468.5,7.9098,-2.6366,-0.93091,10.546,2.3023e-11,-0.46545,0,0,0.066667,-0,6.3547e-17,0.66667
0.40467,0.41456,6.07,-0.12817,-32.081,1291.1,2.0746,-0.69154,-1.9469,2.7662,3.2192e-12,-0.97347,0,0,0.066667,-0,-0,0.66667
0.4959,0.6795,7.4385,0.26925,60.774,962.33,-5.3408,1.7803,-1.7401,-7.1211,5.0879e-12,-0.87005,0,0,0.066667,-0,-0,0.66667
0.70153,0.37924,10.523,-0.18114,-27.499,367.48,5.0831,-1.6944,-1.8892,6.7775,3.8405e-12,-0.94459,0,0,0.066667,-0,-0,0.66667
0.841,0.2069,12.615,-0.43965,-38.44,112.2,14.79,-4.93,-1.3138,19.72,1.0641e-09,-0.65692,0,0,0.066667,-1.2632e-15,0,0.66667
0.059074,0.43867,0.88611,-0.091996,-27.45,2754.5,0.21738,-0.072461,-1.9705,0.28984,9.1107e-08,-0.98524,0,0,0.066667,-0,-0,0.66667
0.45307,0.78614,6.7961,0.42921,102.16,1112.9,-7.7786,2.5929,-1.3572,-10.371,1.3159e-11,-0.67859,0,0,0.066667,-0,-0,0.66667
0.42756,0.30497,6.4133,-0.29255,-71.576,1205.6,5.0032,-1.6677,-1.6909,6.6709,1.0843e-11,-0.84543,0,0,0.066667,-0,-0,0.66667
0.42403,0.4577,6.3605,-0.063455,-15.577,1218.5,1.0763,-0.35876,-1.9888,1.435,8.5475e-12,-0.99438,0,0,0.066667,-6.3159e-16,0,0.66667
0.56368,0.41811,8.4552,-0.12283,-25.072,741.43,2.7695,-0.92317,-1.953,3.6927,3.6058e-12,-0.97649,0,0,0.066667,-0,-0,0.66667
0.9398,0.21483,14.097,-0.42776,-14.817,18.405,16.08,-5.3601,-1.3528,21.44,3.1556e-07,-0.67641,0,0,0.066667,1.579e-15,0,0.66667
0.33032,0.68057,4.9548,0.27085,72.252,1582,-3.5787,1.1929,-1.7425,-4.7716,1.2394e-11,-0.87124,0,0,0.066667,-0,-0,0.66667
0.94897,0.44349,14.235,-0.084761,-2.4803,12.65,3.2174,-1.0725,-1.9724,4.2899,-1.3829e-07,-0.98622,0,0,0.066667,-0,-0,0.66667
0.24588,0.58462,3.6883,0.12693,35.704,1931.9,-1.2484,0.41613,-1.9404,-1.6645,7.6293e-12,-0.97022,0,0,0.066667,3.158e-16,0,0.66667
0.54841,0.11128,8.2261,-0.58308,-122.18,790.41,12.791,-4.2635,-0.79636,17.054,-4.432e-13,-0.39818,0,0,0.066667,6.3159e-16,0,0.66667
0.7134,0.87394,10.701,0.5609,82.487,341.9,-16.006,5.3353,-0.878,-21.341,8.1002e-13,-0.439,0,0,0.066667,-2.3685e-16,0,0.66667
0.88062,0.85869,13.209,0.53803,36.085,65.814,-18.952,6.3174,-0.96551,-25.269,1.1544e-07,-0.48276,0,0,0.066667,-0,-0,0.66667
0.7817,0.32071,11.725,-0.26893,-31.243,203.86,8.4088,-2.8029,-1.7528,11.212,-1.4693e-11,-0.87642,0,0,0.066667,-0,-0,0.66667
0.96576,0.29485,14.486,-0.30772,-6.064,6.5525,11.887,-3.9625,-1.6637,15.85,3.1929e-07,-0.83183,0,0,0.066667,-0,-0,0.66667
0.55114,0.15396,8.2671,-0.51907,-108.26,781.5,11.443,-3.8144,-1.0404,15.258,1.8371e-11,-0.52019,0,0,0.066667,-0,-0,0.66667
0.90543,0.76401,13.581,0.39601,21.242,41.936,-14.342,4.7807,-1.4504,-19.123,5.5958e-08,-0.7252,0,0,0.066667,-0,-0,0.66667
0.65468,0.78061,9.8203,0.42091,71.983,482.94,-11.023,3.6742,-1.3767,-14.697,-1.7497e-13,-0.68834,0,0,0.066667,-1.1842e-16,0,0.66667
0.16901,0.38375,2.5352,-0.17437,-50.721,2264.4,1.1788,-0.39294,-1.8929,1.5718,-2.1973e-10,-0.94645,0,0,0.066667,-3.158e-16,0,0.66667
0.030661,0.79387,0.45991,0.4408,131.95,2882.7,-0.54062,0.18021,-1.3182,-0.72082,8.1312e-06,-0.65909,0,0,0.066667,-0,-0,0.66667
0.76078,0.52148,11.412,0.03222,4.0527,242.07,-0.9805,0.32683,-1.9925,-1.3073,-4.6593e-12,-0.99626,0,0,0.066667,-0,-0,0.66667
0.67762,0.93804,10.164,0.65706,106.52,426.22,-17.809,5.9365,-0.46118,-23.746,-1.3628e-11,-0.23059,0,0,0.066667,2.5264e-15,0,0.66667
0.28831,0.61978,4.3247,0.17967,49.322,1753.7,-2.072,0.69068,-1.8795,-2.7627,2.4303e-11,-0.93974,0,0,0.066667,-0,-0,0.66667
0.10602,0.11989,1.5902,-0.57016,-168.99,2543.9,2.4179,-0.80596,-0.84419,3.2238,-3.1501e-07,-0.4221,0,0,0.066667,-1.579e-16,0,0.66667
0.68946,0.0081631,10.342,-0.73776,-116.1,398.14,20.346,-6.782,-0.068763,27.128,1.1523e-11,-0.034381,0,0,0.066667,-0,-0,0.66667
0.74945,0.37868,11.242,-0.18197,-23.829,264.38,5.4552,-1.8184,-1.8924,7.2736,9.4449e-12,-0.94621,0,0,0.066667,-2.5264e-15,0,0.66667
0.55828,0.81749,8.3742,0.47623,98.173,758.97,-10.635,3.5449,-1.1916,-14.18,-2.0339e-13,-0.59581,0,0,0.066667,-0,-0,0.66667
0.66524,0.27045,9.9786,-0.34432,-57.425,455.66,9.1622,-3.0541,-1.5724,12.216,1.5401e-12,-0.78619,0,0,0.066667,-0,-0,0.66667
0.40406,0.16452,6.0609,-0.50321,-126.16,1294,8.1331,-2.711,-1.1028,10.844,-6.0698e-12,-0.55142,0,0,0.066667,1.2632e-15,0,0.66667
0.86609,0.64831,12.991,0.22247,16.56,80.225,-7.7072,2.5691,-1.8181,-10.276,1.9849e-09,-0.90906,0,0,0.066667,6.3159e-16,0,0.66667
0.5324,0.2351,7.986,-0.39735,-85.249,841.05,8.462,-2.8207,-1.4453,11.283,4.8512e-12,-0.72264,0,0,0.066667,-0,-0,0.66667
0.89484,0.3014,13.423,-0.29791,-17.662,50.784,10.663,-3.5544,-1.6818,14.217,-5.2949e-08,-0.8409,0,0,0.066667,-0,-0,0.66667
0.73971,0.030675,11.096,-0.70399,-95.587,286.4,20.83,-6.9433,-0.23463,27.773,-5.5673e-11,-0.11731,0,0,0.066667,3.9475e-16,0,0.66667
0.5229,0.73523,7.8435,0.35284,76.749,871.98,-7.38,2.46,-1.5508,-9.8401,-3.5443e-12,-0.77538,0,0,0.066667,-0,-0,0.66667
0.71966,0.35729,10.795,-0.21406,-30.845,326.79,6.1621,-2.054,-1.8447,8.2162,-3.3213e-12,-0.92237,0,0,0.066667,1.2632e-15,0,0.66667
0.88675,0.58768,13.301,0.13152,8.3569,58.049,-4.6652,1.5551,-1.9371,-6.2202,3.8106e-09,-0.96855,0,0,0.066667,1.2632e-15,0,0.66667
0.19451,0.80572,2.9177,0.45858,132.2,2153.1,-3.568,1.1893,-1.2463,-4.7573,-2.4718e-10,-0.62317,0,0,0.066667,-1.579e-16,0,0.66667
0.42981,0.76106,6.4471,0.39159,95.61,1197.5,-6.7323,2.2441,-1.4483,-8.9764,6.052e-12,-0.72413,0,0,0.066667,-0,-0,0.66667
0.85935,0.051229,12.89,-0.67316,-52.736,90.43,23.139,-7.713,-0.4005,30.852,1.95e-08,-0.20025,0,0,0.066667,-0,7.2819e-17,0.66667
0.030496,0.3059,0.45745,-0.29115,-87.119,2883.4,0.35516,-0.11839,-1.7075,0.47354,-3.0966e-06,-0.85373,0,0,0.066667,-5.9212e-17,0,0.66667
0.13308,0.81319,1.9962,0.46978,138.27,2423.3,-2.5008,0.83359,-1.2102,-3.3344,-9.723e-09,-0.60511,0,0,0.066667,-0,-0,0.66667
0.40535,0.062281,6.0802,-0.65658,-164.52,1289.6,10.646,-3.5486,-0.47653,14.194,7.5087e-12,-0.23827,0,0,0.066667,2.6645e-16,2.1927e-18,0.66667
0.11236,0.96136,1.6854,0.69205,204.93,2515.7,-3.1103,1.0368,-0.29794,-4.1471,-2.1767e-07,-0.14897,0,0,0.066667,7.8949e-17,0,0.66667
0.72615,0.042525,10.892,-0.68621,-97.247,314.76,19.932,-6.6439,-0.31924,26.576,-1.868e-11,-0.15962,0,0,0.066667,-1.2632e-15,0,0.66667
0.97481,0.36479,14.622,-0.20282,-2.917,3.6338,7.9083,-2.6361,-1.8482,10.544,3.3196e-06,-0.9241,0,0,0.066667,-1.2632e-15,0,0.66667
0.48907,0.64006,7.336,0.21009,47.839,985.67,-4.11,1.37,-1.8393,-5.48,-3.4177e-12,-0.91966,0,0,0.066667,6.3159e-16,0,0.66667
0.96027,0.59781,14.404,0.14672,3.3458,7.9919,-5.6355,1.8785,-1.9179,-7.5139,3.4357e-07,-0.95893,0,0,0.066667,2.5264e-15,0,0.66667
0.13577,0.63742,2.0365,0.20613,60.589,2411.2,-1.1195,0.37315,-1.8449,-1.4926,-1.6203e-09,-0.92247,0,0,0.066667,-0,-0,0.66667
0.70044,0.16041,10.507,-0.50939,-77.682,371.06,14.272,-4.7573,-1.0796,19.029,1.2483e-11,-0.53978,0,0,0.066667,-2.5264e-15,0,0.66667
0.58286,0.50707,8.7429,0.010607,2.0948,683.02,-0.24729,0.08243,-1.9963,-0.32972,8.0958e-12,-0.99814,0,0,0.066667,-0,-0,0.66667
0.79173,0.15422,11.876,-0.51867,-57.906,187.48,16.426,-5.4753,-1.0403,21.901,2.5975e-10,-0.52013,0,0,0.066667,1.4976e-15,0,0.66667
0.5377,0.032374,8.0655,-0.70144,-149.54,825.12,15.087,-5.0289,-0.24596,20.115,4.0297e-12,-0.12298,0,0,0.066667,-0,-0,0.66667
0.97989,0.7481,14.698,0.37215,4.2808,3.1393,-14.587,4.8622,-1.5055,-19.449,-7.9347e-06,-0.75277,0,0,0.066667,-1.579e-16,0,0.66667
0.43965,0.39214,6.5948,-0.16179,-39.064,1161,2.8452,-0.9484,-1.9099,3.7936,1.4286e-12,-0.95494,0,0,0.066667,-0,-0,0.66667
0.95027,0.5597,14.254,0.089546,2.5538,12.051,-3.4037,1.1346,-1.9733,-4.5383,1.6416e-07,-0.98667,0,0,0.066667,-1.8948e-15,0,0.66667
0.91828,0.069413,13.774,-0.64588,-30.278,33.525,23.724,-7.908,-0.51595,31.632,-4.5135e-07,-0.25797,0,0,0.066667,-0,-0,0.66667
0.42387,0.83958,6.358,0.50936,125.19,1219.8,-8.6361,2.8787,-1.0819,-11.515,6.7635e-12,-0.54095,0,0,0.066667,-0,-0,0.66667
0.41052,0.40633,6.1578,-0.1405,-34.967,1269,2.3071,-0.76903,-1.9286,3.0761,-9.4547e-13,-0.9643,0,0,0.066667,-0,-0,0.66667
0.019947,0.15337,0.29921,-0.51994,-155.76,2931.1,0.41485,-0.1383,-1.0369,0.55312,-2.0302e-05,-0.51843,0,0,0.066667,-1.9737e-17,0,0.66667
0.44849,0.183,6.7274,-0.47549,-113.79,1129.5,8.5303,-2.8434,-1.1933,11.374,-3.6131e-12,-0.59667,0,0,0.066667,-3.158e-16,0,0.66667
0.19941,0.66022,2.9912,0.24034,69.108,2131.6,-1.917,0.63901,-1.7939,-2.556,8.8382e-11,-0.89697,0,0,0.066667,-0,-0,0.66667
0.33593,0.65222,5.0389,0.22833,60.648,1559.4,-3.0681,1.0227,-1.8089,-4.0908,9.0388e-12,-0.90445,0,0,0.066667,3.5681e-16,0,0.66667
0.28252,0.058519,4.2377,-0.66222,-182.72,1778.6,7.4835,-2.4945,-0.44789,9.978,2.838e-11,-0.22394,0,0,0.066667,-0,-0,0.66667
0.6702,0.42633,10.053,-0.11051,-18.198,442.72,2.9624,-0.98748,-1.9613,3.9499,3.1641e-12,-0.98067,0,0,0.066667,-6.3159e-16,0,0.66667
0.44017,0.44975,6.6026,-0.075378,-18.189,1159.1,1.3272,-0.44239,-1.9811,1.7696,1.1143e-11,-0.99056,0,0,0.066667,-0,-0,0.66667
0.60025,0.34235,9.0037,-0.23648,-45.259,632,5.6779,-1.8926,-1.7964,7.5705,-7.7174e-12,-0.89821,0,0,0.066667,1.6579e-15,0,0.66667
0.84352,0.70547,12.653,0.3082,26.523,108.3,-10.399,3.4663,-1.6729,-13.865,-3.9764e-10,-0.83644,0,0,0.066667,1.2632e-15,0,0.66667
0.83277,0.6182,12.492,0.1773,16.204,122.56,-5.9059,1.9686,-1.8851,-7.8746,-1.9241e-10,-0.94256,0,0,0.066667,-1.2632e-15,0,0.66667
0.58556,0.98599,8.7834,0.72899,143.69,677.03,-17.075,5.6916,-0.10387,-22.766,-6.3984e-12,-0.051933,0,0,0.066667,-0,-0,0.66667
0.44054,0.038786,6.608,-0.69182,-167.21,1159.1,12.191,-4.0636,-0.29888,16.255,-1.8372e-11,-0.14944,0,0,0.066667,-0,-0,0.66667
0.40041,0.82476,6.0062,0.48715,122.55,1307.8,-7.8023,2.6008,-1.1508,-10.403,1.0733e-11,-0.5754,0,0,0.066667,-0,-0,0.66667
0.071127,0.73671,1.0669,0.35507,105.82,2700.3,-1.0102,0.33673,-1.5453,-1.3469,-4.2401e-07,-0.77265,0,0,0.066667,-1.6318e-16,0,0.66667
0.46738,0.98111,7.0107,0.72167,169.18,1062.9,-13.492,4.4973,-0.1541,-17.989,1.8918e-11,-0.077051,0,0,0.066667,-0,-0,0.66667
0.40304,0.4091,6.0456,-0.13636,-34.185,1297.2,2.1983,-0.73276,-1.9347,2.931,-5.6199e-13,-0.96736,0,0,0.066667,-0,-0,0.66667
0.20153,0.61706,3.023,0.17558,50.439,2122.4,-1.4154,0.47181,-1.8957,-1.8872,-5.3301e-12,-0.94786,0,0,0.066667,3.158e-16,0,0.66667
0.80272,0.92677,12.041,0.64015,68.196,170,-20.555,6.8515,-0.53761,-27.406,-7.9341e-09,-0.26881,0,0,0.066667,-0,-0,0.66667
0.69815,0.77512,10.472,0.41268,63.292,375.97,-11.524,3.8415,-1.3908,-15.366,4.8415e-12,-0.69542,0,0,0.066667,-6.3159e-16,0,0.66667
0.97541,0.64526,14.631,0.21789,3.059,3.5302,-8.5011,2.8337,-1.8251,-11.335,-3.7002e-06,-0.91254,0,0,0.066667,-0,-0,0.66667
0.38552,0.12996,5.7827,-0.55506,-141.62,1365,8.5593,-2.8531,-0.90089,11.412,-3.558e-12,-0.45044,0,0,0.066667,-0,-0,0.66667
0.41693,0.73451,6.2539,0.35176,87.025,1245.3,-5.8664,1.9555,-1.5558,-7.8219,5.385e-12,-0.77792,0,0,0.066667,-6.3159e-16,0,0.66667
0.51973,0.99757,7.796,0.74636,163.42,883.92,-15.516,5.1721,-0.018025,-20.688,-5.6328e-12,-0.0090127,0,0,0.066667,-3.158e-16,0,0.66667
0.35329,0.024974,5.2993,-0.71254,-187.04,1491.3,10.069,-3.3564,-0.18963,13.426,1.414e-12,-0.094817,0,0,0.066667,-0,-0,0.66667
0.54525,0.83111,8.1787,0.49666,104.54,800.1,-10.832,3.6107,-1.1278,-14.443,4.0199e-12,-0.5639,0,0,0.066667,-0,-0,0.66667
0.88975,0.49816,13.346,-0.0027625,-0.17105,55.028,0.098318,-0.032773,-2.0091,0.13109,-1.8585e-08,-1.0045,0,0,0.066667,-1.8948e-15,0,0.66667
0.73052,0.93548,10.958,0.65321,91.294,305.24,-19.087,6.3625,-0.48221,-25.45,-2.2684e-12,-0.24111,0,0,0.066667,-4.737e-16,-6.9049e-17,0.66667
0.20651,0.14358,3.0977,-0.53462,-153.39,2101.2,4.4163,-1.4721,-0.983,5.8883,1.1116e-10,-0.4915,0,0,0.066667,-0,-0,0.66667
0.80015,0.65123,12.002,0.22685,24.362,172.27,-7.2604,2.4201,-1.8173,-9.6806,-5.2473e-11,-0.90866,0,0,0.066667,-1.579e-15,0,0.66667
0.79531,0.20932,11.93,-0.43601,-47.9,181.04,13.871,-4.6235,-1.3294,18.494,-2.1849e-11,-0.66468,0,0,0.066667,-1.2632e-15,0,0.66667
0.79909,0.59601,11.986,0.14402,15.536,173.85,-4.6035,1.5345,-1.9302,-6.138,-3.2805e-11,-0.96511,0,0,0.066667,-0,-0,0.66667
0.3168,0.49343,4.752,-0.0098512,-2.653,1636.6,0.12484,-0.041612,-1.9973,0.16645,1.173e-11,-0.99863,0,0,0.066667,6.3159e-16,0,0.66667
0.61295,0.86959,9.1943,0.55439,103.68,596.63,-13.592,4.5308,-0.90666,-18.123,1.419e-11,-0.45333,0,0,0.066667,-0,-0,0.66667
0.65229,0.99038,9.7844,0.73556,126.76,490.74,-19.192,6.3973,-0.074291,-25.589,-4.4409e-14,-0.037146,0,0,0.066667,6.3159e-16,0,0.66667
0.12023,0.84892,1.8034,0.52339,154.59,2480.5,-2.517,0.83899,-1.0229,-3.356,-7.7808e-08,-0.51144,0,0,0.066667,3.158e-16,0,0.66667
0.91868,0.46765,13.78,-0.04853,-2.2435,30.697,1.7833,-0.59444,-1.9928,2.3778,-2.0866e-08,-0.99641,0,0,0.066667,1.4211e-15,0,0.66667
0.36814,0.84175,5.522,0.51262,132.79,1432.3,-7.5486,2.5162,-1.0606,-10.065,8.0616e-12,-0.53028,0,0,0.066667,-2.3685e-16,0,0.66667
0.68838,0.16083,10.326,-0.50876,-80.143,399.41,14.009,-4.6696,-1.0883,18.678,3.995e-12,-0.54415,0,0,0.066667,-0,-0,0.66667
0.92834,0.017931,13.925,-0.7231,-29.947,27.316,26.851,-8.9505,-0.13479,35.802,-4.9706e-06,-0.067396,0,0,0.066667,-0,-0,0.66667
0.67487,0.62506,10.123,0.18759,30.543,431.2,-5.0639,1.688,-1.8769,-6.7519,1.5679e-11,-0.93843,0,0,0.066667,-2.5264e-15,0,0.66667
0.93848,0.4245,14.077,-0.11325,-3.9872,18.071,4.2512,-1.4171,-1.9618,5.6683,-1.7407e-07,-0.9809,0,0,0.066667,-1.2632e-15,0,0.66667
0.69911,0.84806,10.487,0.52209,79.919,374.21,-14.6,4.8667,-1.0294,-19.467,4.4151e-12,-0.51468,0,0,0.066667,-0,-0,0.66667
0.17086,0.74637,2.5629,0.36955,107.47,2256.4,-2.5256,0.84188,-1.5226,-3.3675,-2.8452e-10,-0.7613,0,0,0.066667,-1.579e-16,0,0.66667
0.72891,0.18436,10.934,-0.47346,-66.406,307.68,13.804,-4.6014,-1.1991,18.406,-1.0482e-11,-0.59953,0,0,0.066667,8.4739e-16,0,0.66667
0.40572,0.53414,6.0858,0.05121,12.804,1287.1,-0.83108,0.27703,-2.001,-1.1081,3.2878e-12,-1.0005,0,0,0.066667,-0,-0,0.66667
0.31857,0.61105,4.7786,0.16657,44.807,1629.5,-2.1226,0.70753,-1.8956,-2.8301,1.251e-12,-0.9478,0,0,0.066667,-0,-0,0.66667
0.78065,0.35957,11.71,-0.21064,-24.569,205.58,6.5775,-2.1925,-1.8512,8.77,5.8762e-12,-0.92558,0,0,0.066667,-0,-0,0.66667
0.79049,0.36944,11.857,-0.19584,-21.933,188.39,6.1924,-2.0641,-1.8583,8.2565,2.4942e-11,-0.92914,0,0,0.066667,-6.3159e-16,0,0.66667
0.94901,0.35226,14.235,-0.22161,-6.4887,12.895,8.4123,-2.8041,-1.8232,11.216,-3.9217e-07,-0.91159,0,0,0.066667,-0,-0,0.66667
0.20319,0.74756,3.0478,0.37134,106.64,2115.4,-3.018,1.006,-1.5223,-4.024,2.0801e-10,-0.76114,0,0,0.066667,3.5527e-16,0,0.66667
0.53266,0.3068,7.99,-0.2898,-62.128,839.94,6.1746,-2.0582,-1.7077,8.2328,1.2609e-11,-0.85385,0,0,0.066667,-6.3159e-16,0,0.66667
0.77212,0.48237,11.582,-0.026439,-3.1877,220.77,0.81658,-0.27219,-1.9914,1.0888,-4.7425e-12,-0.99569,0,0,0.066667,-0,-0,0.66667
0.51635,0.57954,7.7452,0.11931,26.181,893.26,-2.4641,0.82138,-1.9578,-3.2855,-4.2435e-12,-0.9789,0,0,0.066667,-0,-0,0.66667
0.22879,0.53442,3.4318,0.051636,14.65,2004.8,-0.47254,0.15751,-1.9864,-0.63006,1.2826e-11,-0.99321,0,0,0.066667,-0,-0,0.66667
0.99529,0.92434,14.929,0.63651,1.6904,2.8882,-25.341,8.4469,-0.55583,-33.787,8.1254e-06,-0.27791,0,0,0.066667,-1.2632e-15,0,0.66667
0.88932,0.73493,13.34,0.35239,21.946,56.18,-12.536,4.1785,-1.5645,-16.714,1.4344e-08,-0.78225,0,0,0.066667,-1.2632e-15,0,0.66667
0.57714,0.2361,8.6572,-0.39585,-79.032,700.81,9.1386,-3.0462,-1.4502,12.185,9.7158e-12,-0.7251,0,0,0.066667,-0,-0,0.66667
0.53805,0.24345,8.0707,-0.38483,-81.861,822.77,8.2822,-2.7607,-1.4677,11.043,8.3213e-12,-0.73383,0,0,0.066667,-3.158e-16,0,0.66667
0.83998,0.28499,12.6,-0.32251,-28.334,113.07,10.836,-3.612,-1.6294,14.448,3.1075e-10,-0.81469,0,0,0.066667,-0,-0,0.66667
0.91463,0.66044,13.72,0.24067,11.675,34.027,-8.8048,2.9349,-1.7884,-11.74,1.6216e-08,-0.8942,0,0,0.066667,2.5264e-15,0,0.66667
0.81959,0.85147,12.294,0.5272,51.765,143.02,-17.283,5.7611,-1.0057,-23.045,-2.6259e-09,-0.50285,0,0,0.066667,-0,-0,0.66667
0.43281,0.67654,6.4921,0.2648,64.425,1186.2,-4.5844,1.5281,-1.7471,-6.1125,3.8645e-12,-0.87354,0,0,0.066667,-0,-0,0.66667
0.85562,0.96994,12.834,0.70491,56.607,95.189,-24.125,8.0418,-0.233,-32.167,1.4483e-08,-0.1165,0,0,0.066667,-0,1.1553e-17,0.66667
0.22561,0.09507,3.3841,-0.60739,-172.82,2019,5.4813,-1.8271,-0.68329,7.3083,5.8809e-10,-0.34164,0,0,0.066667,-0,-0,0.66667
0.54052,0.4383,8.1077,-0.092554,-19.601,814.35,2.0011,-0.66703,-1.965,2.6681,2.2939e-12,-0.98252,0,0,0.066667,1.2632e-15,0,0.66667
0.31515,0.66325,4.7273,0.24488,66.039,1643.5,-3.0869,1.029,-1.7886,-4.1159,-1.2259e-12,-0.89432,0,0,0.066667,-0,-0,0.66667
0.11963,0.32401,1.7945,-0.26399,-77.929,2483,1.2633,-0.4211,-1.7475,1.6844,-9.7369e-09,-0.87373,0,0,0.066667,-0,-0,0.66667
0.14551,0.41987,2.1827,-0.12019,-35.225,2368,0.69957,-0.23319,-1.9446,0.93275,-2.9736e-10,-0.97228,0,0,0.066667,-0,-0,0.66667
0.9366,0.14387,14.049,-0.5342,-19.522,20.832,20.013,-6.6711,-0.99312,26.684,8.0191e-07,-0.49656,0,0,0.066667,-0,-0,0.66667
0.19499,0.99856,2.9249,0.74783,215.82,2151.5,-5.8329,1.9443,-0.0063007,-7.7772,-4.6315e-10,-0.0031503,0,0,0.066667,-3.158e-16,0,0.66667
0.64991,0.17651,9.7487,-0.48524,-83.92,495.63,12.614,-4.2048,-1.157,16.819,3.4754e-12,-0.57848,0,0,0.066667,-0,-0,0.66667
0.23912,0.45247,3.5868,-0.071301,-20.126,1960.6,0.68198,-0.22733,-1.9781,0.90931,2.392e-11,-0.98904,0,0,0.066667,-0,-0,0.66667
0.52547,0.34398,7.882,-0.23402,-50.698,863.3,4.9189,-1.6396,-1.8015,6.5585,3.2281e-12,-0.90075,0,0,0.066667,-1.2632e-15,0,0.66667
0.13063,0.85588,1.9595,0.53382,157.26,2434.2,-2.7894,0.9298,-0.98163,-3.7192,1.1804e-08,-0.49081,0,0,0.066667,-3.158e-16,0,0.66667
0.28954,0.51812,4.3431,0.027185,7.4558,1748.6,-0.31484,0.10495,-1.9908,-0.41979,2.9523e-11,-0.99541,0,0,0.066667,-0,-0,0.66667
0.40052,0.98596,6.0079,0.72894,183.58,1308.2,-11.678,3.8928,-0.1054,-15.571,1.1017e-11,-0.052701,0,0,0.066667,6.3159e-16,0,0.66667
0.70668,0.93804,10.6,0.65705,98.588,357.58,-18.573,6.191,-0.46535,-24.764,-3.4364e-11,-0.23268,0,0,0.066667,-0,-0,0.66667
0.90107,0.40516,13.516,-0.14226,-7.9465,44.814,5.1274,-1.7091,-1.9249,6.8366,-2.4855e-08,-0.96246,0,0,0.066667,-5.5264e-16,0,0.66667
0.42858,0.59949,6.4287,0.14924,36.465,1201.7,-2.5584,0.85281,-1.9152,-3.4112,6.2255e-12,-0.95759,0,0,0.066667,-1.2632e-15,0,0.66667
0.71382,0.00089213,10.707,-0.74866,-110.15,342.13,21.376,-7.1255,-0.0044729,28.502,-4.2331e-12,-0.0022365,0,0,0.066667,-0,-0,0.66667
0.13909,0.17137,2.0863,-0.49295,-144.86,2396.7,2.7425,-0.91416,-1.1412,3.6566,-2.1507e-10,-0.57058,0,0,0.066667,3.158e-16,0,0.66667
0.10058,0.26769,1.5086,-0.34847,-103.32,2568.1,1.4019,-0.46729,-1.5619,1.8692,6.6582e-08,-0.78095,0,0,0.066667,1.579e-16,0,0.66667
0.44811,0.26291,6.7216,-0.35564,-85.106,1130.6,6.3746,-2.1249,-1.546,8.4994,-4.11e-12,-0.77302,0,0,0.066667,-0,-0,0.66667
0.76051,0.36574,11.408,-0.20139,-25.365,242.8,6.1264,-2.0421,-1.8516,8.1685,8.4066e-12,-0.92579,0,0,0.066667,-1.2632e-15,0,0.66667
0.23162,0.18404,3.4742,-0.47394,-134.39,1993,4.3909,-1.4636,-1.2034,5.8545,-5.5951e-12,-0.60169,0,0,0.066667,6.8572e-17,0,0.66667
0.80913,0.60592,12.137,0.15888,16.37,157.7,-5.1422,1.7141,-1.9096,-6.8562,-4.4311e-12,-0.95479,0,0,0.066667,-1.2632e-15,0,0.66667
0.25241,0.45778,3.7861,-0.06333,-17.752,1904.2,0.6394,-0.21313,-1.988,0.85254,1.0056e-11,-0.99399,0,0,0.066667,-0,-0,0.66667
0.083801,0.94775,1.257,0.67162,199.99,2643.5,-2.2513,0.75043,-0.39109,-3.0017,1.5684e-06,-0.19555,0,0,0.066667,-0,-0,0.66667
0.513,0.18077,7.695,-0.47885,-105.68,905.14,9.8261,-3.2754,-1.1867,13.101,1.1631e-11,-0.59333,0,0,0.066667,-3.2784e-16,0,0.66667
0.00097781,0.69041,0.014667,0.28562,85.544,3016.8,-0.011169,0.0037203,-1.7184,-0.014893,-3.8465e-06,-0.85921,0,0,0.066667,-2.4672e-18,-1.8323e-16,0.66667
0.70811,0.81301,10.622,0.46951,70.06,353.33,-13.299,4.4329,-1.2135,-17.732,-2.0952e-12,-0.60676,0,0,0.066667,-2.5264e-15,0,0.66667
0.73906,0.29006,11.086,-0.31491,-42.72,285.79,9.3095,-3.1032,-1.644,12.413,-5.6186e-12,-0.82199,0,0,0.066667,-0,-0,0.66667
0.97332,0.83098,14.6,0.49647,7.6788,5.3408,-19.329,6.443,-1.1202,-25.772,-2.7113e-05,-0.56008,0,0,0.066667,-1.2632e-15,0,0.66667
0.66316,0.7083,9.9475,0.31245,52.361,460.82,-8.2883,2.7628,-1.6466,-11.051,-9.0861e-13,-0.82332,0,0,0.066667,6.3159e-16,0,0.66667
0.49422,0.29566,7.4133,-0.30651,-69.344,968.15,6.0593,-2.0198,-1.6605,8.079,9.1811e-12,-0.83027,0,0,0.066667,-0,-0,0.66667
0.073623,0.5094,1.1043,0.014096,4.1977,2689,-0.041512,0.013837,-1.9962,-0.05535,-1.8124e-07,-0.99809,0,0,0.066667,-0,-0,0.66667
0.5343,0.45209,8.0144,-0.071862,-15.363,834.37,1.5358,-0.51194,-1.9818,2.0478,1.1331e-12,-0.9909,0,0,0.066667,-0,-0,0.66667
0.14183,0.40311,2.1275,-0.14533,-42.641,2384.3,0.82451,-0.27484,-1.9324,1.0993,-4.6922e-10,-0.96621,0,0,0.066667,-0,-0,0.66667
0.80239,0.59772,12.036,0.14658,15.58,168.46,-4.7045,1.5682,-1.9195,-6.2727,-3.295e-11,-0.95974,0,0,0.066667,-0,-0,0.66667
0.57615,0.058198,8.6422,-0.6627,-132.73,704.9,15.273,-5.0909,-0.44293,20.363,2.1362e-11,-0.22147,0,0,0.066667,-6.3159e-16,3.7486e-17,0.66667
0.21291,0.32221,3.1937,-0.26668,-76.242,2073.2,2.2712,-0.75707,-1.7419,3.0283,3.2665e-11,-0.87094,0,0,0.066667,-0,-0,0.66667
0.70706,0.23416,10.606,-0.39877,-59.657,355.44,11.278,-3.7593,-1.4325,15.037,-1.7719e-12,-0.71623,0,0,0.066667,1.2632e-15,0,0.66667
0.33301,0.48022,4.9951,-0.029665,-7.8954,1571,0.39515,-0.13172,-1.9929,0.52687,2.5507e-12,-0.99645,0,0,0.066667,-6.3159e-16,0,0.66667
0.6691,0.6906,10.036,0.2859,47.229,445.78,-7.6519,2.5506,-1.7114,-10.202,-5.1923e-12,-0.8557,0,0,0.066667,-0,-0,0.66667
0.77955,0.074944,11.693,-0.63758,-74.934,209.42,19.881,-6.6271,-0.55923,26.508,-5.7268e-10,-0.27961,0,0,0.066667,-0,-7.5677e-17,0.66667
0.086576,0.25356,1.2986,-0.36966,-109.9,2630.9,1.2801,-0.42672,-1.5086,1.7069,-2.008e-08,-0.7543,0,0,0.066667,-3.158e-16,0,0.66667
0.51066,0.065925,7.6598,-0.65111,-144.3,913.63,13.3,-4.4333,-0.48942,17.733,8.944e-13,-0.24471,0,0,0.066667,1.2632e-15,0,0.66667
0.10367,0.17119,1.5551,-0.49321,-146.21,2554.3,2.0453,-0.68177,-1.1298,2.7271,-7.8195e-08,-0.56488,0,0,0.066667,-0,-0,0.66667
0.64946,0.12302,9.7419,-0.56547,-97.943,497.17,14.69,-4.8966,-0.85805,19.587,1.4479e-11,-0.42903,0,0,0.066667,-6.3159e-16,0,0.66667
0.3155,0.033824,4.7325,-0.69926,-188.84,1642.9,8.8247,-2.9416,-0.26291,11.766,2.5592e-11,-0.13145,0,0,0.066667,-0,-0,0.66667
0.6435,0.067169,9.6525,-0.64925,-114.02,513.33,16.712,-5.5705,-0.50273,22.282,1.6724e-11,-0.25137,0,0,0.066667,-2.5264e-15,0,0.66667
0.048554,0.67673,0.72831,0.2651,79.208,2801.9,-0.51487,0.17162,-1.7549,-0.68649,-7.1623e-07,-0.87745,0,0,0.066667,-7.8949e-17,0,0.66667
0.867,0.23599,13.005,-0.39602,-29.335,79.808,13.734,-4.5779,-1.4357,18.312,-1.2133e-08,-0.71787,0,0,0.066667,-0,-0,0.66667
0.47816,0.47888,7.1724,-0.031673,-7.311,1023.4,0.6058,-0.20193,-1.9907,0.80773,9.533e-12,-0.99537,0,0,0.066667,-0,-0,0.66667
0.79355,0.50768,11.903,0.011514,1.2722,182.98,-0.36547,0.12182,-1.9993,-0.48729,3.9835e-12,-0.99967,0,0,0.066667,-0,-0,0.66667
0.22664,0.019746,3.3996,-0.72038,-204.98,2014.8,6.5306,-2.1769,-0.1483,8.7075,3.7199e-10,-0.074148,0,0,0.066667,-0,-0,0.66667
0.33497,0.25484,5.0246,-0.36774,-97.781,1563.4,4.9274,-1.6425,-1.5136,6.5698,2.8257e-11,-0.75679,0,0,0.066667,-0,-0,0.66667
0.76377,0.9978,11.457,0.7467,93.33,239.2,-22.813,7.6042,-0.022796,-30.417,-8.1588e-12,-0.011398,0,0,0.066667,-6.3159e-16,0,0.66667
0.85342,0.91213,12.801,0.61819,50.267,97.247,-21.103,7.0343,-0.63625,-28.137,3.164e-08,-0.31813,0,0,0.066667,-0,-0,0.66667
0.43712,0.35022,6.5569,-0.22467,-54.403,1170.3,3.9283,-1.3094,-1.831,5.2378,1.4259e-11,-0.91552,0,0,0.066667,-1.2632e-15,0,0.66667
0.93033,0.55636,13.955,0.084533,3.3617,22.859,-3.1457,1.0486,-1.9687,-4.1943,1.4579e-07,-0.98434,0,0,0.066667,-6.3159e-16,0,0.66667
0.57961,0.018522,8.6942,-0.72222,-143.84,694.77,16.744,-5.5814,-0.15082,22.326,1.1841e-11,-0.075408,0,0,0.066667,-0,-0,0.66667
0.049097,0.99358,0.73646,0.74037,221.57,2799.6,-1.454,0.48468,-0.054298,-1.9387,1.2494e-05,-0.027149,0,0,0.066667,3.9475e-17,0,0.66667
0.45286,0.070823,6.7929,-0.64377,-153.42,1114.3,11.661,-3.8872,-0.53725,15.549,-2.3457e-12,-0.26863,0,0,0.066667,-0,-0,0.66667
0.1604,0.3685,2.406,-0.19726,-57.547,2302.3,1.2656,-0.42187,-1.8596,1.6875,-9.6906e-11,-0.92979,0,0,0.066667,1.579e-16,0,0.66667
0.73282,0.089993,10.992,-0.61501,-85.302,300.14,18.028,-6.0093,-0.66123,24.037,-7.223e-11,-0.33061,0,0,0.066667,8.4855e-16,3.3404e-17,0.66667
0.34735,0.95256,5.2103,0.67885,179.01,1514.7,-9.432,3.144,-0.36013,-12.576,-1.3714e-11,-0.18007,0,0,0.066667,-0,-0,0.66667
0.20118,0.56136,3.0177,0.092041,26.442,2123.9,-0.74066,0.24689,-1.975,-0.98755,-9.2476e-11,-0.9875,0,0,0.066667,9.8686e-17,0,0.66667
0.84279,0.57898,12.642,0.11847,10.229,108.81,-3.9939,1.3313,-1.9575,-5.3252,-2.0893e-11,-0.97875,0,0,0.066667,-0,-0,0.66667
0.8178,0.15611,12.267,-0.51584,-51.097,145.64,16.874,-5.6247,-1.0508,22.499,3.8292e-09,-0.5254,0,0,0.066667,-2.1711e-16,0,0.66667
0.34365,0.11076,5.1547,-0.58386,-154.34,1529.2,8.0257,-2.6752,-0.79911,10.701,2.1773e-11,-0.39955,0,0,0.066667,-0,7.8329e-17,0.66667
0.40362,0.40093,6.0543,-0.14861,-37.236,1295.1,2.3992,-0.79975,-1.9236,3.199,1.4648e-11,-0.96181,0,0,0.066667,-3.158e-16,0,0.66667
0.0606,0.29818,0.909,-0.30274,-90.34,2747.6,0.73383,-0.24461,-1.678,0.97844,2.7545e-07,-0.83898,0,0,0.066667,7.8949e-17,0,0.66667
0.17888,0.86191,2.6833,0.54286,157.5,2221.4,-3.8844,1.2948,-0.94575,-5.1792,1.2676e-09,-0.47287,0,0,0.066667,3.158e-16,0,0.66667
0.73592,0.10824,11.039,-0.58764,-80.684,293.5,17.298,-5.7661,-0.77732,23.064,-1.1959e-10,-0.38866,0,0,0.066667,-0,-0,0.66667
0.56613,0.01939,8.492,-0.72092,-146.93,735.76,16.325,-5.4418,-0.15079,21.767,1.2344e-11,-0.075393,0,0,0.066667,-0,-0,0.66667
0.82324,0.18884,12.349,-0.46673,-44.959,137.27,15.369,-5.1231,-1.2228,20.492,4.6818e-10,-0.61139,0,0,0.066667,-0,-0,0.66667
0.50115,0.43709,7.5173,-0.094362,-21.145,944.25,1.8916,-0.63053,-1.9766,2.5221,1.0969e-12,-0.9883,0,0,0.066667,6.5133e-16,0,0.66667
0.76786,0.59669,11.518,0.14503,17.774,228.77,-4.4546,1.4849,-1.929,-5.9395,-9.9742e-12,-0.96449,0,0,0.066667,2.5264e-15,0,0.66667
0.50992,0.59353,7.6488,0.1403,31.066,914.73,-2.8616,0.95387,-1.9263,-3.8155,-1.3302e-11,-0.96317,0,0,0.066667,8.9805e-16,0,0.66667
0.56807,0.60153,8.521,0.1523,30.861,727.93,-3.4607,1.1536,-1.9128,-4.6142,3.6169e-12,-0.9564,0,0,0.066667,-0,-0,0.66667
0.18462,0.82906,2.7693,0.49358,142.87,2196.3,-3.645,1.215,-1.1344,-4.86,2.7095e-09,-0.5672,0,0,0.066667,3.158e-16,0,0.66667
0.5444,0.11315,8.166,-0.58028,-122.35,803.12,12.636,-4.2121,-0.80473,16.848,-2.8821e-12,-0.40236,0,0,0.066667,6.3159e-16,1.1361e-17,0.66667
0.20103,0.12017,3.0155,-0.56975,-163.88,2124.9,4.5816,-1.5272,-0.84977,6.1087,9.5444e-10,-0.42489,0,0,0.066667,-3.9475e-16,-9.7706e-17,0.66667
0.55622,0.11992,8.3433,-0.57011,-117.98,765.77,12.684,-4.2281,-0.83915,16.912,1.133e-11,-0.41958,0,0,0.066667,-6.3159e-16,0,0.66667
0.14144,0.22933,2.1216,-0.406,-119.2,2386.2,2.297,-0.76567,-1.4221,3.0627,4.8086e-09,-0.71105,0,0,0.066667,-3.158e-16,0,0.66667
0.18601,0.67068,2.7901,0.25602,74.017,2190,-1.9049,0.63496,-1.7723,-2.5399,-1.4697e-10,-0.88614,0,0,0.066667,-3.158e-16,0,0.66667
0.76478,0.26109,11.472,-0.35837,-44.466,235.1,10.963,-3.6543,-1.5514,14.617,2.7079e-11,-0.77571,0,0,0.066667,-0,-0,0.66667
0.070886,0.28377,1.0633,-0.32434,-96.659,2701.3,0.91965,-0.30655,-1.6206,1.2262,4.2775e-07,-0.8103,0,0,0.066667,-0,-0,0.66667
0.36931,0.27069,5.5397,-0.34396,-88.956,1427.3,5.0812,-1.6937,-1.5742,6.7749,2.2005e-12,-0.7871,0,0,0.066667,3.158e-16,0,0.66667
0.87788,0.1537,13.168,-0.51945,-35.58,68.554,18.241,-6.0802,-1.0424,24.321,-6.5304e-08,-0.52122,0,0,0.066667,1.8948e-15,0,0.66667
0.10434,0.81473,1.5651,0.4721,139.92,2551.4,-1.9703,0.65677,-1.2044,-2.6271,3.3464e-08,-0.60222,0,0,0.066667,-3.158e-16,0,0.66667
0.35915,0.43564,5.3873,-0.096545,-25.172,1466.9,1.387,-0.46233,-1.9788,1.8493,-4.2961e-12,-0.9894,0,0,0.066667,7.1054e-16,0,0.66667
0.11396,0.97971,1.7094,0.71957,213.03,2508.6,-3.2801,1.0934,-0.15562,-4.3734,2.7976e-08,-0.077812,0,0,0.066667,-0,-0,0.66667
0.87654,0.071392,13.148,-0.64291,-44.585,70.805,22.542,-7.5138,-0.53581,30.055,-1.8894e-07,-0.2679,0,0,0.066667,-0,-0,0.66667
0.12624,0.20061,1.8936,-0.44909,-132.41,2453.7,2.2677,-0.75589,-1.2893,3.0236,1.0125e-09,-0.64463,0,0,0.066667,-0,-0,0.66667
0.25456,0.13766,3.8183,-0.54352,-152.34,1895.6,5.5342,-1.8447,-0.94623,7.3789,1.5237e-11,-0.47311,0,0,0.066667,-0,-0,0.66667
0.42191,0.18885,6.3286,-0.46673,-114.93,1227,7.8766,-2.6255,-1.2384,10.502,1.128e-11,-0.61919,0,0,0.066667,-0,-0,0.66667
0.66526,0.27306,9.9788,-0.34041,-56.769,455.6,9.0583,-3.0194,-1.5821,12.078,-3.2481e-12,-0.79107,0,0,0.066667,6.3159e-16,0,0.66667
0.34471,0.26224,5.1706,-0.35664,-94.119,1524.5,4.9175,-1.6392,-1.5553,6.5566,2.0538e-11,-0.77763,0,0,0.066667,-0,-0,0.66667
0.2135,0.84467,3.2025,0.517,147.87,2070.9,-4.4152,1.4717,-1.0464,-5.887,7.9916e-10,-0.52322,0,0,0.066667,-0,-0,0.66667
0.37339,0.58753,5.6008,0.1313,33.824,1411.2,-1.961,0.65367,-1.9442,-2.6147,2.3688e-11,-0.97209,0,0,0.066667,-6.3159e-16,0,0.66667
0.57102,0.974,8.5654,0.71101,143.71,720.72,-16.24,5.4134,-0.19679,-21.653,-7.061e-12,-0.098397,0,0,0.066667,1.2632e-15,0,0.66667
0.99075,0.12581,14.861,-0.56129,-2.9561,2.661,22.244,-7.4146,-0.87534,29.658,-6.66e-05,-0.43767,0,0,0.066667,-0,-0,0.66667
0.32717,0.63899,4.9075,0.20849,55.74,1594.7,-2.7284,0.90948,-1.8529,-3.6379,2.7041e-12,-0.92644,0,0,0.066667,-0,-0,0.66667
0.3622,0.55245,5.4331,0.078675,20.461,1454.9,-1.1399,0.37995,-1.979,-1.5198,1.3915e-11,-0.98949,0,0,0.066667,-0,-0,0.66667
0.70624,0.099204,10.594,-0.60119,-90.276,358.26,16.983,-5.6611,-0.71558,22.645,-4.0481e-11,-0.35779,0,0,0.066667,-0,-0,0.66667
0.29894,0.44449,4.484,-0.083263,-22.699,1709.8,0.99562,-0.33187,-1.9791,1.3275,1.4931e-11,-0.98956,0,0,0.066667,-0,-0,0.66667
0.3497,0.51382,5.2455,0.020736,5.448,1504.3,-0.29006,0.096686,-1.9929,-0.38674,9.6625e-12,-0.99643,0,0,0.066667,1.2632e-15,0,0.66667
0.99471,0.016505,14.921,-0.72524,-2.2692,3.7264,28.856,-9.6186,-0.12517,38.474,-3.6609e-05,-0.062585,0,0,0.066667,-0,-0,0.66667
0.60427,0.94035,9.064,0.66053,125.72,621.93,-15.965,5.3218,-0.44539,-21.287,4.6603e-12,-0.2227,0,0,0.066667,-0,-0,0.66667
0.82881,0.22529,12.432,-0.41207,-38.534,128.93,13.661,-4.5537,-1.4054,18.215,-1.3153e-09,-0.7027,0,0,0.066667,-0,-0,0.66667
0.031666,0.037053,0.47499,-0.69442,-208.06,2878.2,0.87959,-0.29322,-0.29594,1.1728,-3.6632e-05,-0.14797,0,0,0.066667,-0,-0,0.66667
0.14549,0.46343,2.1824,-0.054849,-16.074,2368.1,0.3192,-0.1064,-1.986,0.4256,2.161e-10,-0.99299,0,0,0.066667,-0,-0,0.66667
0.72773,0.63177,10.916,0.19765,27.786,309.29,-5.7534,1.9178,-1.8554,-7.6712,9.4857e-13,-0.92769,0,0,0.066667,-0,-0,0.66667
0.53974,0.8246,8.0962,0.4869,103.35,817.64,-10.512,3.504,-1.1506,-14.016,3.9337e-12,-0.57532,0,0,0.066667,-0,-0,0.66667
0.99526,0.69767,14.929,0.29651,0.69448,0.78496,-11.804,3.9348,-1.6838,-15.739,4.4452e-06,-0.84189,0,0,0.066667,-2.5264e-15,0,0.66667
0.49563,0.63463,7.4344,0.20194,45.591,963.14,-4.0035,1.3345,-1.8521,-5.3381,-3.0664e-12,-0.92607,0,0,0.066667,-0,-0,0.66667
0.3841,0.69951,5.7616,0.29927,76.389,1369.9,-4.5981,1.5327,-1.6755,-6.1307,8.4528e-12,-0.83773,0,0,0.066667,-6.3159e-16,0,0.66667
0.19437,0.49297,2.9156,-0.010542,-3.0368,2153.4,0.08196,-0.02732,-1.9937,0.10928,9.577e-11,-0.99686,0,0,0.066667,-1.579e-16,0,0.66667
0.59017,0.13924,8.8525,-0.54114,-105.65,662.44,12.774,-4.2581,-0.95753,17.033,8.8098e-12,-0.47877,0,0,0.066667,-0,-0,0.66667
0.76663,0.18293,11.499,-0.47561,-58.66,232.14,14.585,-4.8615,-1.2038,19.446,2.6326e-11,-0.60191,0,0,0.066667,-3.158e-16,0,0.66667
0.92444,0.35378,13.867,-0.21933,-9.451,26.947,8.1103,-2.7034,-1.8308,10.814,-2.3682e-07,-0.91538,0,0,0.066667,-0,-0,0.66667
0.13763,0.68109,2.0644,0.27163,79.808,2403,-1.4953,0.49845,-1.7385,-1.9938,-3.0012e-09,-0.86926,0,0,0.066667,1.579e-16,0,0.66667
0.0080899,0.92709,0.12135,0.64064,192.08,2984.7,-0.20732,0.069027,-0.53433,-0.27646,-0.00011789,-0.26716,0,0,0.066667,9.8686e-18,0,0.66667
0.47796,0.63293,7.1694,0.1994,46.046,1024.2,-3.8122,1.2707,-1.853,-5.0829,3.3931e-12,-0.92648,0,0,0.066667,-0,-0,0.66667
0.18295,0.61762,2.7442,0.17643,51.061,2203.3,-1.2911,0.43037,-1.8863,-1.7215,4.392e-13,-0.94316,0,0,0.066667,1.579e-16,0,0.66667
0.61034,0.9303,9.1551,0.64544,121.4,604.49,-15.758,5.2525,-0.52666,-21.01,9.8632e-12,-0.26333,0,0,0.066667,-6.3159e-16,0,0.66667
0.62027,0.93104,9.304,0.64656,119.25,576.54,-16.042,5.3472,-0.5104,-21.389,1.2133e-11,-0.2552,0,0,0.066667,3.158e-16,0,0.66667
0.40963,0.15897,6.1445,-0.51155,-127.55,1273,8.3819,-2.794,-1.0699,11.176,1.8361e-11,-0.53497,0,0,0.066667,-0,-0,0.66667
0.67721,0.13441,10.158,-0.54838,-88.918,426.65,14.855,-4.9515,-0.92622,19.806,1.382e-11,-0.46311,0,0,0.066667,-0,-0,0.66667
0.19967,0.42881,2.9951,-0.10679,-30.699,2130.4,0.85292,-0.28431,-1.9588,1.1372,8.7401e-11,-0.97941,0,0,0.066667,-3.158e-16,0,0.66667
0.80858,0.53504,12.129,0.052556,5.4278,158.45,-1.6998,0.56661,-1.989,-2.2664,-1.1556e-11,-0.99452,0,0,0.066667,-0,-0,0.66667
0.05034,0.87518,0.7551,0.56276,168.26,2793.9,-1.1332,0.37772,-0.8746,-1.5109,-1.1069e-06,-0.4373,0,0,0.066667,1.579e-16,0,0.66667
0.17186,0.51451,2.5779,0.021767,6.3244,2251.8,-0.14963,0.049878,-2.0099,-0.19951,-1.8929e-10,-1.0049,0,0,0.066667,-0,-0,0.66667
0.9806,0.35881,14.709,-0.21179,-2.3273,2.3879,8.3071,-2.769,-1.8387,11.076,2.9161e-06,-0.91937,0,0,0.066667,-1.2632e-15,0,0.66667
0.90038,0.13807,13.506,-0.5429,-30.684,47.064,19.553,-6.5175,-0.94654,26.07,1.0909e-07,-0.47327,0,0,0.066667,-0,-0,0.66667
0.93973,0.94373,14.096,0.66559,23.262,20.074,-25.019,8.3397,-0.42814,-33.359,-1.968e-05,-0.21407,0,0,0.066667,-0,-0,0.66667
0.90844,0.39415,13.627,-0.15877,-8.234,38.667,5.7693,-1.9231,-1.9133,7.6925,-1.1717e-08,-0.95663,0,0,0.066667,-1.2632e-15,0,0.66667
0.44142,0.70962,6.6213,0.31443,75.798,1154.8,-5.5518,1.8506,-1.6466,-7.4024,-7.4944e-12,-0.82332,0,0,0.066667,6.3159e-16,0,0.66667
0.9388,0.3666,14.082,-0.2001,-7.0139,18.059,7.5142,-2.5047,-1.864,10.019,-2.9408e-07,-0.93202,0,0,0.066667,-0,-0,0.66667
0.23741,0.2357,3.5612,-0.39645,-112.07,1968.2,3.7649,-1.255,-1.4413,5.0199,-7.7121e-12,-0.72067,0,0,0.066667,3.158e-16,0,0.66667
0.049514,0.71385,0.74271,0.32078,95.845,2797.6,-0.63533,0.21177,-1.6363,-0.8471,-8.2471e-07,-0.81815,0,0,0.066667,-0,-0,0.66667
0.55726,0.69712,8.359,0.29569,61.013,761.63,-6.591,2.197,-1.6847,-8.788,-3.062e-12,-0.84235,0,0,0.066667,-0,-0,0.66667
0.31332,0.828,4.6998,0.49199,132.94,1651.3,-6.1661,2.0554,-1.1473,-8.2214,1.063e-11,-0.57367,0,0,0.066667,-0,-0,0.66667
0.53208,0.21201,7.9812,-0.43198,-92.737,842.21,9.1939,-3.0646,-1.345,12.259,9.1926e-12,-0.67251,0,0,0.066667,-9.4739e-16,0,0.66667
0.47161,0.23088,7.0741,-0.40368,-94.002,1046.8,7.6152,-2.5384,-1.4214,10.154,7.8431e-12,-0.71068,0,0,0.066667,-0,-0,0.66667
0.48313,0.64043,7.247,0.21064,48.329,1006.2,-4.0707,1.3569,-1.8485,-5.4276,7.7094e-13,-0.92426,0,0,0.066667,-6.3159e-16,0,0.66667
0.57008,0.15658,8.5512,-0.51513,-104.16,722.7,11.747,-3.9156,-1.0515,15.662,1.6076e-12,-0.52573,0,0,0.066667,-0,-0,0.66667
0.92344,0.43216,13.852,-0.10176,-4.4373,27.392,3.7589,-1.253,-1.9689,5.0119,-1.2768e-07,-0.98447,0,0,0.066667,-0,-0,0.66667
0.23619,0.67009,3.5429,0.25513,72.139,1973.2,-2.4104,0.80348,-1.7727,-3.2139,1.1833e-11,-0.88634,0,0,0.066667,-0,-0,0.66667
0.87608,0.80874,13.141,0.46311,32.133,70.134,-16.229,5.4096,-1.2453,-21.639,1.496e-09,-0.62267,0,0,0.066667,3.158e-16,0,0.66667
0.73384,0.74863,11.008,0.37294,51.468,296.85,-10.947,3.649,-1.5161,-14.596,-1.1682e-11,-0.75805,0,0,0.066667,1.8948e-15,0,0.66667
0.079211,0.028411,1.1882,-0.70738,-210.84,2664.1,2.2413,-0.7471,-0.22886,2.9884,5.3056e-06,-0.11443,0,0,0.066667,-3.9475e-17,0,0.66667
0.83539,0.86492,12.531,0.54738,49.464,120.41,-18.291,6.097,-0.9283,-24.388,-1.5023e-09,-0.46415,0,0,0.066667,1.2632e-15,0,0.66667
0.39764,0.23577,5.9647,-0.39635,-99.937,1318.1,6.3043,-2.1014,-1.435,8.4057,1.4176e-11,-0.71749,0,0,0.066667,-6.3159e-16,0,0.66667
0.33574,0.080976,5.0361,-0.62854,-167.2,1560.9,8.4409,-2.8136,-0.58875,11.255,1.4304e-11,-0.29438,0,0,0.066667,6.3159e-16,0,0.66667
0.000393,0.25022,0.005895,-0.37467,-112.24,3019.5,0.0058848,-0.0019639,-1.5124,0.0078452,-3.4129e-06,-0.75619,0,0,0.066667,-0,-4.3657e-18,0.66667
0.24581,0.10531,3.6871,-0.59204,-166.75,1932.8,5.821,-1.9403,-0.75111,7.7614,-3.5829e-10,-0.37556,0,0,0.066667,-0,-0,0.66667
0.68795,0.24636,10.319,-0.38046,-59.955,399.91,10.469,-3.4898,-1.4959,13.959,9.2522e-12,-0.74797,0,0,0.066667,-6.3159e-16,0,0.66667
0.85117,0.098149,12.768,-0.60278,-49.696,99.952,20.523,-6.8409,-0.70238,27.364,-3.9101e-08,-0.35119,0,0,0.066667,-0,-0,0.66667
0.24105,0.64252,3.6157,0.21378,60.293,1952.5,-2.0613,0.68709,-1.8312,-2.7484,1.5497e-11,-0.91562,0,0,0.066667,-0,-0,0.66667
0.37094,0.38261,5.5641,-0.17608,-45.458,1420.8,2.6126,-0.87086,-1.8878,3.4834,-6.6518e-12,-0.94388,0,0,0.066667,1.2632e-15,0,0.66667
0.15042,0.20899,2.2564,-0.43651,-127.82,2346.4,2.6265,-0.87549,-1.3173,3.502,-7.7335e-09,-0.65863,0,0,0.066667,1.579e-16,0,0.66667
0.8035,0.51627,12.053,0.024406,2.5806,166.55,-0.78442,0.26147,-1.9916,-1.0459,4.7432e-11,-0.99582,0,0,0.066667,-0,-0,0.66667
0.71702,0.198,10.755,-0.453,-65.863,333.34,12.993,-4.3309,-1.275,17.323,-9.8588e-14,-0.63749,0,0,0.066667,-1.2632e-15,0,0.66667
0.70048,0.76957,10.507,0.40436,61.618,370.53,-11.33,3.7766,-1.4201,-15.106,1.1351e-12,-0.71005,0,0,0.066667,-0,-0,0.66667
0.67885,0.33448,10.183,-0.24828,-40.03,421.53,6.7418,-2.2473,-1.7746,8.9891,6.4833e-12,-0.88732,0,0,0.066667,-0,-0,0.66667
0.89205,0.13771,13.381,-0.54343,-33.149,54.607,19.391,-6.4635,-0.95563,25.854,2.2666e-07,-0.47781,0,0,0.066667,-1.2632e-15,0,0.66667
0.88303,0.78875,13.245,0.43313,28.451,62.757,-15.299,5.0996,-1.3268,-20.398,-1.7343e-08,-0.66339,0,0,0.066667,-0,-0,0.66667
0.62537,0.21736,9.3805,-0.42396,-77.278,561.41,10.605,-3.5351,-1.3723,14.14,6.5388e-12,-0.68615,0,0,0.066667,-7.8949e-17,0,0.66667
0.28878,0.70249,4.3317,0.30374,83.375,1751.9,-3.5085,1.1695,-1.6653,-4.678,1.9347e-11,-0.83266,0,0,0.066667,-6.3159e-16,0,0.66667
0.4031,0.8038,6.0465,0.45569,114.33,1297.5,-7.3477,2.4492,-1.2619,-9.7969,1.0125e-11,-0.63093,0,0,0.066667,3.158e-16,0,0.66667
0.028957,0.47567,0.43436,-0.036499,-10.919,2890.4,0.042277,-0.014093,-1.9983,0.056369,-4.0637e-07,-0.99913,0,0,0.066667,7.8949e-17,0,0.66667
0.91648,0.81417,13.747,0.47126,22.462,33.645,-17.276,5.7587,-1.2068,-23.035,4.1383e-08,-0.60341,0,0,0.066667,-0,-0,0.66667
0.68745,0.47236,10.312,-0.041454,-6.535,400.45,1.1399,-0.37997,-2.0063,1.5199,2.6544e-12,-1.0031,0,0,0.066667,-0,-0,0.66667
0.90817,0.43877,13.623,-0.091846,-4.7753,38.787,3.3365,-1.1122,-1.9752,4.4486,1.547e-09,-0.98759,0,0,0.066667,-0,-0,0.66667
0.30209,0.58412,4.5313,0.12619,34.329,1696.8,-1.5248,0.50825,-1.939,-2.033,2.1575e-11,-0.9695,0,0,0.066667,-3.158e-16,0,0.66667
0.94483,0.029775,14.172,-0.70534,-22.658,17.753,26.657,-8.8856,-0.22591,35.543,2.8739e-05,-0.11295,0,0,0.066667,6.3159e-16,0,0.66667
0.86403,0.035656,12.96,-0.69652,-52.904,85.106,24.072,-8.0242,-0.27227,32.097,-3.3034e-07,-0.13614,0,0,0.066667,2.5264e-15,0,0.66667
0.88601,0.39178,13.29,-0.16234,-10.379,58.825,5.7533,-1.9178,-1.9027,7.671,-3.3408e-09,-0.95135,0,0,0.066667,-1.2632e-15,0,0.66667
0.00014133,0.88439,0.00212,0.57659,172.84,3020.6,-0.0032488,0.0011825,-0.82934,-0.004282,0.00014935,-0.41467,0,0,0.066667,-3.084e-19,2.6552e-16,0.66667
0.37724,0.44442,5.6586,-0.083376,-21.405,1396.2,1.2581,-0.41937,-1.9785,1.6775,2.3915e-11,-0.98923,0,0,0.066667,-0,-0,0.66667
0.12233,0.68876,1.8349,0.28315,83.531,2471,-1.3854,0.46181,-1.7176,-1.8472,1.0318e-08,-0.85882,0,0,0.066667,3.158e-16,0,0.66667
0.93281,0.82875,13.992,0.49312,19.049,22.801,-18.399,6.1331,-1.1317,-24.532,3.0757e-07,-0.56583,0,0,0.066667,1.2632e-15,0,0.66667
0.51371,0.7453,7.7056,0.36795,81.092,902.46,-7.5607,2.5202,-1.5232,-10.081,-9.7433e-13,-0.76161,0,0,0.066667,9.4739e-16,0,0.66667
0.48934,0.2351,7.34,-0.39735,-90.493,985.11,7.7774,-2.5925,-1.4344,10.37,5.6364e-12,-0.7172,0,0,0.066667,6.3159e-16,0,0.66667
0.48692,0.82297,7.3038,0.48445,110.71,993.69,-9.4356,3.1452,-1.1674,-12.581,7.7272e-14,-0.58368,0,0,0.066667,-0,-0,0.66667
0.57029,0.091207,8.5544,-0.61319,-124.01,722.46,13.988,-4.6626,-0.65763,18.65,2.9758e-11,-0.32882,0,0,0.066667,-6.3159e-16,0,0.66667
0.54451,0.97621,8.1676,0.71431,150.72,803.41,-15.558,5.186,-0.18851,-20.744,-5.1337e-13,-0.094256,0,0,0.066667,1.2632e-15,-5.737e-17,0.66667
0.91711,0.83033,13.757,0.4955,23.459,33.326,-18.177,6.059,-1.1232,-24.236,6.1336e-08,-0.5616,0,0,0.066667,-1.2632e-15,0,0.66667
0.88438,0.7742,13.266,0.4113,26.714,61.287,-14.55,4.8499,-1.3931,-19.4,-1.8737e-08,-0.69655,0,0,0.066667,-6.3159e-16,0,0.66667
0.78372,0.65947,11.756,0.23921,27.559,200.22,-7.4989,2.4996,-1.7995,-9.9985,3.809e-12,-0.89976,0,0,0.066667,-0,-0,0.66667
0.32273,0.018392,4.8409,-0.72241,-194.12,1613.7,9.3257,-3.1086,-0.13956,12.434,1.7653e-11,-0.069782,0,0,0.066667,-0,-0,0.66667
0.78444,0.93563,11.767,0.65345,75.314,200.89,-20.503,6.8345,-0.48288,-27.338,4.6616e-09,-0.24144,0,0,0.066667,-0,-0,0.66667
0.14519,0.66161,2.1778,0.24242,71.066,2369.5,-1.4078,0.46928,-1.7883,-1.8771,2.2358e-10,-0.89414,0,0,0.066667,3.158e-16,0,0.66667
0.86023,0.71005,12.903,0.31507,24.425,87.358,-10.841,3.6138,-1.6552,-14.455,3.3562e-09,-0.82762,0,0,0.066667,-0,-0,0.66667
0.773,0.017775,11.595,-0.72334,-87.307,221.85,22.366,-7.4552,-0.13309,29.821,-3.5992e-10,-0.066544,0,0,0.066667,-0,-0,0.66667
0.77597,0.17559,11.64,-0.48661,-57.918,214.98,15.104,-5.0346,-1.1534,20.138,-2.2581e-11,-0.57672,0,0,0.066667,-0,-0,0.66667
0.5287,0.12477,7.9305,-0.56285,-121.51,853.66,11.903,-3.9677,-0.87688,15.871,1.4954e-11,-0.43844,0,0,0.066667,-7.0067e-16,4.462e-21,0.66667
0.45019,0.82772,6.7528,0.49158,117.42,1123.4,-8.8521,2.9507,-1.1412,-11.803,-4.5652e-13,-0.57062,0,0,0.066667,-0,-0,0.66667
0.22663,0.51597,3.3995,0.023962,6.8055,2014.1,-0.21722,0.072408,-1.9913,-0.28963,-8.6919e-12,-0.99564,0,0,0.066667,-0,-0,0.66667
0.80868,0.1989,12.13,-0.45165,-46.718,159.38,14.609,-4.8698,-1.273,19.479,1.1202e-10,-0.63648,0,0,0.066667,1.2632e-15,0,0.66667
0.96593,0.60865,14.489,0.16297,3.1842,6.0596,-6.2968,2.0989,-1.9064,-8.3958,-4.6604e-07,-0.95319,0,0,0.066667,-0,-0,0.66667
0.54353,0.27461,8.153,-0.33809,-71.305,805.08,7.3505,-2.4502,-1.5935,9.8007,1.3248e-11,-0.79673,0,0,0.066667,-6.3159e-16,0,0.66667
0.90221,0.12983,13.533,-0.55525,-30.84,45.565,20.038,-6.6794,-0.90221,26.717,1.7881e-08,-0.4511,0,0,0.066667,-0,-0,0.66667
0.28235,0.71523,4.2353,0.32284,88.978,1778.6,-3.6462,1.2154,-1.6373,-4.8616,7.7029e-12,-0.81864,0,0,0.066667,3.9475e-16,0,0.66667
0.51776,0.9005,7.7663,0.60075,131.79,889.79,-12.442,4.1472,-0.72051,-16.589,-3.1717e-12,-0.36025,0,0,0.066667,6.3159e-16,0,0.66667
0.32816,0.69209,4.9224,0.28813,76.986,1590.7,-3.7821,1.2607,-1.7171,-5.0428,9.1263e-12,-0.85857,0,0,0.066667,-0,-0,0.66667
0.9918,0.18077,14.877,-0.47885,-2.1804,1.9919,18.997,-6.3323,-1.1787,25.329,-2.5825e-05,-0.58933,0,0,0.066667,1.8948e-15,0,0.66667
0.25032,0.96076,3.7547,0.69114,194.29,1913.8,-6.9201,2.3067,-0.31221,-9.2268,-4.3609e-11,-0.1561,0,0,0.066667,-1.579e-16,0,0.66667
0.67876,0.94686,10.181,0.67029,108.36,423.52,-18.198,6.0661,-0.39642,-24.265,1.8563e-12,-0.19821,0,0,0.066667,-0,-0,0.66667
0.7642,0.57436,11.463,0.11153,13.856,235.61,-3.4094,1.1365,-1.9614,-4.5459,-4.0472e-12,-0.98072,0,0,0.066667,1.2632e-15,0,0.66667
0.032227,0.52775,0.4834,0.041622,12.449,2875.6,-0.053654,0.017885,-2.0022,-0.071538,3.4458e-08,-1.0011,0,0,0.066667,3.9475e-17,0,0.66667
0.98227,0.045415,14.734,-0.68188,-7.1199,4.8277,26.792,-8.9305,-0.34982,35.722,1.0407e-05,-0.17491,0,0,0.066667,-0,-7.8259e-17,0.66667
0.091323,0.52092,1.3698,0.031385,9.3186,2609.5,-0.11465,0.038215,-1.9987,-0.15286,5.8298e-09,-0.99936,0,0,0.066667,-0,-0,0.66667
0.61407,0.67922,9.2111,0.26883,50.1,592.5,-6.6032,2.2011,-1.7397,-8.8043,1.0507e-11,-0.86983,0,0,0.066667,-6.3159e-16,0,0.66667
0.14935,0.55675,2.2403,0.085122,24.918,2351,-0.50852,0.16951,-1.9685,-0.67803,4.4595e-10,-0.98425,0,0,0.066667,-7.8949e-17,0,0.66667
0.5208,0.53773,7.8119,0.056594,12.34,878.49,-1.179,0.39298,-1.9846,-1.5719,-7.1099e-13,-0.99231,0,0,0.066667,-0,-0,0.66667
0.093345,0.67424,1.4002,0.26135,77.589,2600.5,-0.97584,0.32528,-1.767,-1.3011,-1.6163e-08,-0.88348,0,0,0.066667,-0,-0,0.66667
0.7812,0.40491,11.718,-0.14264,-16.596,204.47,4.4571,-1.4857,-1.9405,5.9428,-7.1436e-12,-0.97025,0,0,0.066667,1.7369e-15,0,0.66667
0.77293,0.22062,11.594,-0.41907,-50.444,220.19,12.956,-4.3188,-1.3703,17.275,6.8236e-11,-0.68515,0,0,0.066667,2.5264e-15,0,0.66667
0.59815,0.038863,8.9722,-0.69171,-133.21,639.79,16.55,-5.5166,-0.2961,22.066,-3.535e-13,-0.14805,0,0,0.066667,-0,-0,0.66667
0.014543,0.58802,0.21815,0.13202,39.524,2955.5,-0.076803,0.025601,-1.9456,-0.1024,5.5916e-07,-0.97281,0,0,0.066667,-0,-0,0.66667
0.042024,0.38922,0.63036,-0.16617,-49.671,2831.4,0.27933,-0.093108,-1.8978,0.37244,5.9964e-07,-0.9489,0,0,0.066667,-0,-0,0.66667
0.18097,0.21923,2.7146,-0.42116,-122.04,2212.1,3.0487,-1.0162,-1.3648,4.0649,-6.8262e-10,-0.68238,0,0,0.066667,-6.3159e-16,0,0.66667
0.97203,0.24904,14.58,-0.37644,-6.0645,4.9997,14.636,-4.8788,-1.4972,19.515,8.5602e-06,-0.74858,0,0,0.066667,1.6579e-15,0,0.66667
0.2546,0.50729,3.819,0.010938,3.0623,1894.9,-0.11139,0.037131,-1.9965,-0.14852,6.8128e-11,-0.99824,0,0,0.066667,-0,-0,0.66667
0.75101,0.64354,11.265,0.21531,28.047,261.35,-6.4681,2.156,-1.8424,-8.6242,-3.3875e-12,-0.92122,0,0,0.066667,-1.2632e-15,0,0.66667
0.28124,0.96917,4.2185,0.70376,194.38,1784,-7.9169,2.639,-0.2522,-10.556,4.5066e-12,-0.1261,0,0,0.066667,1.2632e-15,-4.2202e-18,0.66667
0.25552,0.67688,3.8328,0.26532,74.262,1891.1,-2.7117,0.90391,-1.7448,-3.6156,1.9377e-11,-0.8724,0,0,0.066667,3.158e-16,0,0.66667
0.25786,0.27749,3.868,-0.33377,-93.316,1881.3,3.4427,-1.1476,-1.5982,4.5902,1.1521e-11,-0.79911,0,0,0.066667,3.158e-16,0,0.66667
0.29705,0.4832,4.4558,-0.025193,-6.8763,1717.5,0.29935,-0.099782,-2.0086,0.39913,3.0546e-11,-1.0043,0,0,0.066667,6.3159e-16,0,0.66667
0.0089446,0.51066,0.13417,0.015989,4.7871,2980.8,-0.0057207,0.0019054,-1.993,-0.0076283,-2.1783e-06,-0.99649,0,0,0.066667,-3.9475e-17,0,0.66667
0.98718,0.13731,14.808,-0.54404,-4.0087,2.9569,21.483,-7.1609,-0.94853,28.643,-5.2126e-05,-0.47426,0,0,0.066667,2.5264e-15,0,0.66667
0.56646,0.68432,8.4969,0.27648,56.189,733.07,-6.2646,2.0882,-1.7271,-8.3527,-4.4542e-12,-0.86354,0,0,0.066667,6.3159e-16,0,0.66667
0.60184,0.57562,9.0276,0.11344,21.64,627.21,-2.7308,0.91028,-1.9476,-3.6411,8.6582e-12,-0.97382,0,0,0.066667,-1.2632e-15,0,0.66667
0.53826,0.63507,8.0739,0.2026,43.061,821.71,-4.362,1.454,-1.8478,-5.8161,-6.8212e-13,-0.9239,0,0,0.066667,1.2632e-15,0,0.66667
0.043838,0.35541,0.65756,-0.21688,-64.824,2823.2,0.3803,-0.12677,-1.833,0.50707,9.7672e-07,-0.91652,0,0,0.066667,-0,-0,0.66667
0.47152,0.65166,7.0728,0.22749,52.952,1046.8,-4.2906,1.4302,-1.8178,-5.7208,2.2138e-12,-0.9089,0,0,0.066667,-0,-0,0.66667
0.53968,0.22309,8.0951,-0.41537,-88.149,817.63,8.9666,-2.9889,-1.3809,11.955,2.6841e-12,-0.69045,0,0,0.066667,-0,-0,0.66667
0.67296,0.38852,10.094,-0.16722,-27.355,435.91,4.5013,-1.5004,-1.9075,6.0018,5.2456e-12,-0.95376,0,0,0.066667,-0,-0,0.66667
0.53417,0.35692,8.0125,-0.21463,-45.901,834.93,4.5859,-1.5286,-1.8368,6.1145,8.8733e-12,-0.91839,0,0,0.066667,-0,-0,0.66667
0.055072,0.75775,0.82608,0.38662,115.47,2772.6,-0.85169,0.2839,-1.4623,-1.1356,5.7736e-08,-0.73116,0,0,0.066667,-0,-0,0.66667
0.6201,0.41456,9.3015,-0.12816,-23.591,575.36,3.1789,-1.0596,-1.9378,4.2385,4.41e-12,-0.96892,0,0,0.066667,-0,-0,0.66667
0.58118,0.29494,8.7176,-0.30758,-60.958,688.43,7.1504,-2.3835,-1.6638,9.5338,1.6628e-11,-0.83189,0,0,0.066667,-0,-0,0.66667
0.5456,0.18404,8.1839,-0.47394,-99.691,798.9,10.343,-3.4477,-1.2085,13.791,1.9395e-11,-0.60427,0,0,0.066667,-7.8586e-16,0,0.66667
0.84328,0.86172,12.649,0.54257,46.87,109.73,-18.302,6.1006,-0.96284,-24.402,3.7518e-09,-0.48142,0,0,0.066667,-1.2632e-15,0,0.66667
0.44739,0.99378,6.7108,0.74067,177.72,1134.5,-13.255,4.4182,-0.044669,-17.673,8.0345e-12,-0.022335,0,0,0.066667,-3.158e-16,0,0.66667
0.60357,0.14087,9.0535,-0.5387,-102.58,623.36,13.006,-4.3352,-0.96272,17.341,5.5875e-12,-0.48136,0,0,0.066667,5.4842e-16,0,0.66667
0.12361,0.31378,1.8542,-0.27933,-82.378,2465.3,1.3812,-0.46038,-1.7297,1.8415,-7.5895e-09,-0.86486,0,0,0.066667,-0,-0,0.66667
0.25238,0.80233,3.7857,0.45349,127.21,1904.6,-4.5781,1.526,-1.2712,-6.1041,1.6427e-11,-0.63558,0,0,0.066667,3.158e-16,0,0.66667
0.85035,0.95624,12.755,0.68436,56.782,101.58,-23.278,7.7593,-0.32861,-31.037,-4.5452e-08,-0.16431,0,0,0.066667,-0,-0,0.66667
0.016224,0.75945,0.24337,0.38918,116.56,2947.9,-0.25256,0.084188,-1.4707,-0.33675,1.3168e-06,-0.73533,0,0,0.066667,-0,-0,0.66667
0.15625,0.92654,2.3438,0.63981,187.15,2320.9,-3.9988,1.3329,-0.55632,-5.3317,-5.502e-08,-0.27816,0,0,0.066667,-0,-0,0.66667
0.82338,0.089286,12.351,-0.61607,-59.402,137.94,20.291,-6.7635,-0.64754,27.054,-1.0812e-09,-0.32377,0,0,0.066667,-1.8948e-15,0,0.66667
0.22934,0.86686,3.4401,0.55029,156.25,2002.9,-5.048,1.6827,-0.91936,-6.7307,-3.3558e-10,-0.45968,0,0,0.066667,-1.579e-16,0,0.66667
0.25919,0.98398,3.8879,0.72597,203.13,1876.4,-7.5267,2.5089,-0.12003,-10.036,-2.5863e-11,-0.060016,0,0,0.066667,-3.158e-16,0,0.66667
0.70079,0.54162,10.512,0.062433,9.4954,369.06,-1.7501,0.58337,-1.9887,-2.3335,1.4213e-12,-0.99433,0,0,0.066667,-0,-0,0.66667
0.96653,0.84862,14.498,0.52293,10.17,7.4597,-20.217,6.739,-1.0312,-26.956,-1.8303e-06,-0.51562,0,0,0.066667,-0,-0,0.66667
0.19828,0.3819,2.9742,-0.17715,-50.958,2136.5,1.405,-0.46834,-1.8849,1.8733,-9.1791e-12,-0.94246,0,0,0.066667,-0,-0,0.66667
0.7475,0.68045,11.212,0.27068,35.693,268.49,-8.0932,2.6977,-1.7418,-10.791,-1.2879e-12,-0.8709,0,0,0.066667,-1.8899e-16,0,0.66667
0.14051,0.45118,2.1076,-0.073233,-21.494,2390.1,0.41159,-0.1372,-1.992,0.54878,-2.548e-10,-0.99602,0,0,0.066667,-0,-0,0.66667
0.3825,0.61937,5.7375,0.17905,45.758,1375.9,-2.7394,0.91315,-1.8801,-3.6526,1.8065e-11,-0.94003,0,0,0.066667,-3.158e-16,0,0.66667
0.32329,0.091756,4.8493,-0.61237,-164.39,1611.1,7.9189,-2.6396,-0.66398,10.558,5.0189e-11,-0.33199,0,0,0.066667,-9.4739e-16,0,0.66667
0.88379,0.90346,13.257,0.60519,39.624,63.049,-21.394,7.1314,-0.69254,-28.526,1.4435e-07,-0.34627,0,0,0.066667,-1.579e-15,0,0.66667
0.65538,0.015257,9.8307,-0.72711,-124.41,482.67,19.061,-6.3538,-0.12799,25.415,-2.3146e-12,-0.063994,0,0,0.066667,-0,7.8905e-17,0.66667
0.33358,0.55525,5.0036,0.082877,22.049,1568.8,-1.1058,0.36861,-1.9711,-1.4744,1.7763e-11,-0.98554,0,0,0.066667,-0,-0,0.66667
0.021608,0.10227,0.32412,-0.5966,-178.77,2923.6,0.51564,-0.17192,-0.72911,0.68751,-5.4554e-05,-0.36456,0,0,0.066667,3.9475e-17,0,0.66667
0.36901,0.96566,5.5351,0.69848,180.96,1429.4,-10.31,3.4366,-0.26073,-13.747,2.6033e-11,-0.13037,0,0,0.066667,1.0566e-15,0,0.66667
0.97218,0.49908,14.583,-0.001382,-0.02194,4.0411,0.053743,-0.017912,-2.0006,0.071659,3.3644e-06,-1.0003,0,0,0.066667,-4.0264e-15,0,0.66667
0.5291,0.98487,7.9365,0.7273,157.08,853.1,-15.393,5.1309,-0.12216,-20.524,-8.6509e-13,-0.061079,0,0,0.066667,-6.3159e-16,0,0.66667
0.74214,0.58376,11.132,0.12564,16.861,279.04,-3.7297,1.2432,-1.9374,-4.973,8.0158e-13,-0.96871,0,0,0.066667,-6.3159e-16,0,0.66667
0.34539,0.49914,5.1808,-0.0012893,-0.33991,1521.5,0.017813,-0.0059377,-2.0063,0.023751,5.1611e-11,-1.0031,0,0,0.066667,-9.4739e-16,0,0.66667
0.46059,0.39488,6.9088,-0.15769,-37.182,1085.4,2.9052,-0.96839,-1.9051,3.8735,2.5138e-12,-0.95254,0,0,0.066667,-0,-0,0.66667
0.21164,0.86318,3.1745,0.54477,155.96,2079,-4.6118,1.5373,-0.93836,-6.149,6.5098e-10,-0.46918,0,0,0.066667,3.158e-16,0,0.66667
0.83696,0.33704,12.554,-0.24444,-21.836,116.92,8.1835,-2.7278,-1.7817,10.911,2.9745e-10,-0.89087,0,0,0.066667,-6.3159e-16,0,0.66667
0.35981,0.72877,5.3971,0.34316,89.461,1464.6,-4.9388,1.6463,-1.5912,-6.5851,2.1032e-11,-0.7956,0,0,0.066667,-0,-0,0.66667
0.037088,0.10915,0.55632,-0.58628,-175.51,2853.7,0.86976,-0.28991,-0.77241,1.1597,2.0002e-05,-0.38621,0,0,0.066667,7.8949e-17,0,0.66667
0.68899,0.76592,10.335,0.39888,62.692,397.49,-10.993,3.6643,-1.4396,-14.657,6.4277e-12,-0.71981,0,0,0.066667,-1.2632e-15,0,0.66667
0.15579,0.72701,2.3368,0.34052,99.519,2322.7,-2.122,0.70733,-1.5976,-2.8293,1.2204e-09,-0.79882,0,0,0.066667,-0,-0,0.66667
0.79875,0.76671,11.981,0.40006,43.279,175.16,-12.782,4.2607,-1.4348,-17.043,-1.1589e-10,-0.71742,0,0,0.066667,-1.2632e-15,0,0.66667
0.015262,0.94685,0.22894,0.67028,200.96,2952.3,-0.40917,0.13634,-0.4127,-0.54559,-7.9265e-05,-0.20635,0,0,0.066667,-0,-0,0.66667
0.58562,0.11333,8.7843,-0.58001,-114.19,676.08,13.587,-4.5289,-0.79734,18.116,4.0261e-12,-0.39867,0,0,0.066667,-0,-0,0.66667
0.49552,0.19856,7.4327,-0.45216,-102.17,964.07,8.9621,-2.9874,-1.2699,11.949,1.3232e-11,-0.63494,0,0,0.066667,1.2632e-15,0,0.66667
0.99746,0.078256,14.962,-0.63262,-0.85561,2.7444,25.24,-8.4134,-0.57884,33.654,0.00010008,-0.28942,0,0,0.066667,-0,2.7697e-16,0.66667
0.13437,0.36215,2.0156,-0.20677,-60.799,2417.4,1.1113,-0.37045,-1.8421,1.4818,1.7944e-09,-0.92105,0,0,0.066667,-0,-0,0.66667
0.67255,0.46955,10.088,-0.045674,-7.4778,436.8,1.2287,-0.40958,-2.0027,1.6383,4.0391e-12,-1.0014,0,0,0.066667,-0,-0,0.66667
0.094945,0.52203,1.4242,0.033039,9.803,2593.3,-0.12547,0.041825,-2.0029,-0.1673,-5.3534e-09,-1.0014,0,0,0.066667,1.579e-16,0,0.66667
0.16177,0.3222,2.4265,-0.2667,-77.78,2296.3,1.7257,-0.57524,-1.7423,2.301,-2.7291e-10,-0.87113,0,0,0.066667,-0,-0,0.66667
0.98833,0.90904,14.825,0.61356,4.1521,3.3384,-24.256,8.0855,-0.66038,-32.341,0.00011485,-0.33019,0,0,0.066667,-2.5264e-15,0,0.66667
0.80667,0.64011,12.1,0.21017,21.91,161.71,-6.7813,2.2604,-1.8375,-9.0418,-1.1022e-11,-0.91873,0,0,0.066667,-1.2632e-15,0,0.66667
0.24464,0.76145,3.6696,0.39217,110.44,1937.4,-3.8376,1.2792,-1.4484,-5.1168,-2.7512e-11,-0.72421,0,0,0.066667,-0,-0,0.66667
0.8463,0.39634,12.695,-0.1555,-13.151,104.26,5.2639,-1.7546,-1.9159,7.0185,-1.407e-10,-0.95795,0,0,0.066667,-0,-0,0.66667
0.0356,0.97938,0.534,0.71907,215.41,2860.5,-1.024,0.34132,-0.15869,-1.3653,-2.2029e-05,-0.079347,0,0,0.066667,-0,-0,0.66667
0.53561,0.24299,8.0341,-0.38551,-82.31,830.64,8.2594,-2.7531,-1.469,11.012,4.4409e-13,-0.7345,0,0,0.066667,3.158e-16,0,0.66667
0.091475,0.94102,1.3721,0.66153,196.71,2609.1,-2.4205,0.80685,-0.44755,-3.2274,1.9344e-06,-0.22378,0,0,0.066667,-0,3.1573e-17,0.66667
0.97091,0.67899,14.564,0.26848,4.482,4.8567,-10.427,3.4756,-1.747,-13.902,-3.6361e-06,-0.87349,0,0,0.066667,6.3159e-16,0,0.66667
0.5831,0.53256,8.7465,0.048841,9.642,682.3,-1.1392,0.37972,-1.9887,-1.5189,1.0944e-11,-0.99435,0,0,0.066667,-0,-0,0.66667
0.55574,0.45343,8.3361,-0.069854,-14.443,766.08,1.5528,-0.51761,-1.9763,2.0704,-9.8066e-13,-0.98816,0,0,0.066667,1.2632e-15,0,0.66667
0.31797,0.3328,4.7696,-0.2508,-67.503,1632,3.1899,-1.0633,-1.7715,4.2532,2.9737e-11,-0.88574,0,0,0.066667,3.158e-16,0,0.66667
0.8499,0.65138,12.749,0.22708,18.795,99.788,-7.7197,2.5732,-1.8116,-10.293,-2.646e-10,-0.90581,0,0,0.066667,1.579e-15,0,0.66667
0.53015,0.10532,7.9523,-0.59202,-127.56,849.04,12.554,-4.1848,-0.76081,16.739,1.3258e-11,-0.38041,0,0,0.066667,-0,-0,0.66667
0.017098,0.25339,0.25647,-0.36991,-110.78,2944,0.25299,-0.084333,-1.5199,0.33732,-3.4963e-06,-0.75994,0,0,0.066667,-0,-0,0.66667
0.18489,0.92979,2.7734,0.64469,186.7,2195.3,-4.768,1.5893,-0.52414,-6.3573,-2.0137e-08,-0.26207,0,0,0.066667,-3.158e-16,0,0.66667
0.43347,0.2063,6.502,-0.44055,-107.16,1184.2,7.6385,-2.5462,-1.3076,10.185,1.0399e-11,-0.65381,0,0,0.066667,-6.3159e-16,0,0.66667
0.079976,0.81745,1.1996,0.47618,141.77,2660.5,-1.5233,0.50777,-1.1986,-2.0311,2.1414e-08,-0.59929,0,0,0.066667,-0,-0,0.66667
0.28066,0.34975,4.2099,-0.22538,-62.168,1785.6,2.5302,-0.84339,-1.829,3.3736,2.1874e-11,-0.9145,0,0,0.066667,-0,-0,0.66667
0.2504,0.73175,3.7559,0.34762,97.589,1912.9,-3.4817,1.1606,-1.5802,-4.6423,1.6325e-11,-0.79011,0,0,0.066667,-0,-0,0.66667
0.00060864,0.017586,0.0091296,-0.72362,-217.06,3018.5,0.018519,-0.0063823,-0.14564,0.024588,-0.00031376,-0.072819,0,0,0.066667,-0,3.1083e-16,0.66667
0.69289,0.69241,10.393,0.28862,44.873,387.9,-7.9991,2.6664,-1.6997,-10.666,1.8403e-12,-0.84986,0,0,0.066667,-0,-0,0.66667
0.77389,0.37919,11.608,-0.18121,-21.706,217.7,5.6096,-1.8699,-1.8775,7.4794,-1.0593e-11,-0.93877,0,0,0.066667,-0,-0,0.66667
0.82035,0.78334,12.305,0.425,41.528,141.34,-13.946,4.6487,-1.3524,-18.595,-6.8606e-10,-0.67619,0,0,0.066667,-0,-0,0.66667
0.85163,0.53326,12.774,0.049896,4.0834,97.329,-1.6997,0.56657,-1.9858,-2.2663,9.6345e-10,-0.99289,0,0,0.066667,-0,-0,0.66667
0.15152,0.91505,2.2729,0.62257,182.37,2341.8,-3.7734,1.2578,-0.61839,-5.0312,-6.8764e-08,-0.30919,0,0,0.066667,-0,-0,0.66667
0.89004,0.09805,13.351,-0.60292,-37.468,56.913,21.465,-7.155,-0.71737,28.62,2.0136e-07,-0.35869,0,0,0.066667,-2.5264e-15,0,0.66667
0.65821,0.5231,9.8732,0.034645,5.8704,473.06,-0.91216,0.30405,-1.9997,-1.2162,-3.6426e-13,-0.99986,0,0,0.066667,-0,-0,0.66667
0.69613,0.44381,10.442,-0.084278,-12.982,379.91,2.3467,-0.78225,-1.9689,3.129,-6.9234e-13,-0.98444,0,0,0.066667,-0,-0,0.66667
0.56407,0.79889,8.4611,0.44834,91.538,740.91,-10.116,3.3719,-1.2903,-13.488,4.0909e-12,-0.64517,0,0,0.066667,-0,-0,0.66667
0.93968,0.71298,14.095,0.31947,11.06,17.964,-12.008,4.0026,-1.6406,-16.011,2.407e-07,-0.82032,0,0,0.066667,6.3159e-16,0,0.66667
0.25185,0.58609,3.7777,0.12913,36.209,1906.6,-1.3009,0.43362,-1.9452,-1.7345,2.2942e-12,-0.97258,0,0,0.066667,-0,-0,0.66667
0.78688,0.73576,11.803,0.35364,40.241,195.05,-11.131,3.7104,-1.5501,-14.841,1.2258e-10,-0.77505,0,0,0.066667,-0,-0,0.66667
0.49526,0.56889,7.4289,0.10334,23.339,964.31,-2.0472,0.68241,-1.9588,-2.7296,-2.3335e-12,-0.97939,0,0,0.066667,-0,-0,0.66667
0.8909,0.55864,13.364,0.087958,5.393,53.978,-3.1345,1.0448,-1.9838,-4.1793,1.0492e-08,-0.99192,0,0,0.066667,-6.3159e-16,0,0.66667
0.2762,0.55276,4.143,0.079134,21.883,1804.1,-0.87427,0.29142,-1.9736,-1.1657,2.853e-11,-0.9868,0,0,0.066667,-0,-0,0.66667
0.015247,0.94548,0.2287,0.66822,200.34,2952.4,-0.4075,0.13578,-0.42256,-0.54336,-7.9789e-05,-0.21128,0,0,0.066667,-0,-0,0.66667
0.064891,0.3386,0.97337,-0.24211,-72.2,2728.3,0.62842,-0.20947,-1.7945,0.8379,3.994e-07,-0.89725,0,0,0.066667,-7.8949e-17,0,0.66667
0.89964,0.49255,13.495,-0.01117,-0.63237,45.946,0.40196,-0.13399,-1.9938,0.53595,-2.2224e-08,-0.99689,0,0,0.066667,-1.8948e-15,0,0.66667
0.64115,0.15504,9.6173,-0.51744,-91.261,518.93,13.27,-4.4234,-1.0587,17.694,-4.8983e-12,-0.52937,0,0,0.066667,1.8948e-15,0,0.66667
0.73027,0.016781,10.954,-0.72483,-101.46,306.25,21.173,-7.0576,-0.12946,28.23,-4.4178e-12,-0.064728,0,0,0.066667,2.5264e-15,7.8517e-17,0.66667
0.50436,0.53648,7.5654,0.054718,12.208,933.36,-1.1039,0.36797,-1.987,-1.4719,7.071e-13,-0.99351,0,0,0.066667,-1.2632e-15,0,0.66667
0.55757,0.76151,8.3636,0.39226,80.927,760.9,-8.7485,2.9162,-1.4489,-11.665,-1.2834e-12,-0.72443,0,0,0.066667,-0,-0,0.66667
0.36389,0.93027,5.4584,0.6454,167.88,1449.3,-9.3943,3.1314,-0.51605,-12.526,1.3952e-11,-0.25802,0,0,0.066667,3.158e-16,0,0.66667
0.78264,0.24378,11.74,-0.38433,-44.51,202.6,12.032,-4.0105,-1.4812,16.042,-1.2297e-10,-0.74058,0,0,0.066667,-6.3159e-16,0,0.66667
0.75687,0.73244,11.353,0.34866,44.52,250.24,-10.556,3.5185,-1.5614,-14.074,1.554e-11,-0.7807,0,0,0.066667,-1.2632e-15,0,0.66667
0.70001,0.70832,10.5,0.31249,47.659,371.32,-8.7497,2.9166,-1.6529,-11.666,1.5055e-12,-0.82647,0,0,0.066667,6.3159e-16,0,0.66667
0.96189,0.49649,14.428,-0.0052605,-0.11491,7.2618,0.2024,-0.067468,-1.9945,0.26987,-8.6075e-07,-0.99727,0,0,0.066667,1.8948e-15,0,0.66667
0.76884,0.29903,11.533,-0.30145,-36.83,227.31,9.2707,-3.0902,-1.6766,12.361,1.6448e-11,-0.8383,0,0,0.066667,-0,-0,0.66667
0.97792,0.91334,14.669,0.62001,8.0076,5.1525,-24.253,8.0842,-0.62755,-32.337,-6.9263e-05,-0.31378,0,0,0.066667,-0,-0,0.66667
0.59028,0.93306,8.8541,0.64958,126.88,662.62,-15.337,5.1125,-0.49955,-20.45,-6.4775e-12,-0.24977,0,0,0.066667,-6.3159e-16,5.8093e-17,0.66667
0.61926,0.066769,9.2889,-0.64985,-120.1,579.38,16.097,-5.3656,-0.494,21.463,1.8439e-12,-0.247,0,0,0.066667,-0,-0,0.66667
0.63905,0.57359,9.5858,0.11038,19.528,523.46,-2.8216,0.94054,-1.9618,-3.7622,6.4226e-12,-0.98092,0,0,0.066667,-0,-0,0.66667
0.32637,0.88039,4.8956,0.57059,152.8,1598.5,-7.4489,2.483,-0.84749,-9.9319,-5.552e-12,-0.42374,0,0,0.066667,1.2632e-15,0,0.66667
0.033029,0.97528,0.49544,0.71291,213.6,2872.1,-0.9419,0.31397,-0.19778,-1.2559,1.8907e-06,-0.098888,0,0,0.066667,-0,-0,0.66667
0.78818,0.97779,11.823,0.71668,81.402,194.85,-22.595,7.5316,-0.16763,-30.126,-1.3942e-09,-0.083816,0,0,0.066667,-0,-0,0.66667
0.71019,0.37933,10.653,-0.18101,-26.815,347.76,5.142,-1.714,-1.8779,6.856,-7.1063e-12,-0.93895,0,0,0.066667,2.5264e-15,0,0.66667
0.079032,0.91686,1.1855,0.62529,186.31,2664.9,-1.9767,0.65891,-0.61761,-2.6356,-1.407e-06,-0.3088,0,0,0.066667,-0,-0,0.66667
0.14858,0.17761,2.2287,-0.48359,-141.71,2354.6,2.8741,-0.95803,-1.1621,3.8321,-6.6913e-09,-0.58104,0,0,0.066667,-0,-0,0.66667
0.68634,0.1682,10.295,-0.4977,-78.813,404.23,13.664,-4.5546,-1.126,18.218,1.1187e-11,-0.56298,0,0,0.066667,-1.2632e-15,0,0.66667
0.53504,0.36214,8.0256,-0.2068,-44.168,832.11,4.4257,-1.4752,-1.8462,5.901,5.7399e-12,-0.92309,0,0,0.066667,-0,-0,0.66667
0.19121,0.097002,2.8682,-0.6045,-174.59,2167.7,4.6235,-1.5412,-0.70018,6.1647,7.9817e-10,-0.35009,0,0,0.066667,-0,-0,0.66667
0.055953,0.99093,0.8393,0.7364,220.21,2768.7,-1.6482,0.54938,-0.065953,-2.1975,-2.0263e-06,-0.032976,0,0,0.066667,-5.2162e-17,0,0.66667
0.61141,0.67982,9.1712,0.26973,50.533,600.04,-6.5967,2.1989,-1.7451,-8.7956,2.7316e-12,-0.87255,0,0,0.066667,6.3159e-16,0,0.66667
0.053612,0.54387,0.80417,0.065798,19.645,2779.1,-0.1411,0.047034,-1.9783,-0.18814,-1.616e-07,-0.98917,0,0,0.066667,-0,-0,0.66667
0.21358,0.92977,3.2036,0.64465,184.48,2070.8,-5.5073,1.8358,-0.51825,-7.343,-3.6927e-09,-0.25913,0,0,0.066667,2.8436e-16,0,0.66667
0.50266,0.99747,7.5399,0.74621,167.3,940.96,-15.004,5.0012,-0.022639,-20.005,-7.5246e-12,-0.01132,0,0,0.066667,-3.158e-16,0,0.66667
0.094031,0.81147,1.4105,0.46721,138.76,2597.5,-1.7573,0.58576,-1.2357,-2.343,-1.4644e-07,-0.61786,0,0,0.066667,-1.9737e-17,0,0.66667
0.40891,0.10233,6.1336,-0.5965,-148.9,1276,9.7565,-3.2522,-0.73653,13.009,1.8512e-11,-0.36827,0,0,0.066667,-0,-0,0.66667
0.020116,0.081173,0.30174,-0.62824,-188.29,2930.4,0.50549,-0.16853,-0.59329,0.67397,-4.8056e-05,-0.29664,0,0,0.066667,-0,-0,0.66667
0.11946,0.41425,1.792,-0.12863,-37.964,2483.7,0.61465,-0.20488,-1.9365,0.81953,-7.1051e-10,-0.96823,0,0,0.066667,-0,-0,0.66667
0.94006,0.55475,14.101,0.082129,2.8177,17.159,-3.0882,1.0294,-1.978,-4.1177,1.2983e-07,-0.98902,0,0,0.066667,-0,-0,0.66667
0.55886,0.66696,8.3829,0.25044,51.537,756.55,-5.5985,1.8662,-1.7757,-7.4646,-3.5847e-12,-0.88786,0,0,0.066667,1.2632e-15,0,0.66667
0.68646,0.79412,10.297,0.44118,69.816,403.7,-12.114,4.038,-1.3151,-16.152,3.3769e-12,-0.65755,0,0,0.066667,-0,-0,0.66667
0.37777,0.65512,5.6666,0.23268,59.721,1394.3,-3.5161,1.172,-1.8099,-4.6881,5.5638e-12,-0.90496,0,0,0.066667,-1.1842e-16,0,0.66667
0.76312,0.33171,11.447,-0.25244,-31.498,237.92,7.7056,-2.5685,-1.7753,10.274,-2.9798e-13,-0.88765,0,0,0.066667,1.2632e-15,0,0.66667
0.89639,0.78723,13.446,0.43084,25.228,49.951,-15.448,5.1493,-1.3352,-20.597,3.2279e-08,-0.66762,0,0,0.066667,-2.5264e-15,0,0.66667
0.91019,0.22406,13.653,-0.41391,-21.134,38.155,15.07,-5.0232,-1.3894,20.093,-1.8926e-08,-0.69471,0,0,0.066667,2.5264e-15,0,0.66667
0.49649,0.25482,7.4473,-0.36778,-82.973,960.53,7.3038,-2.4346,-1.5188,9.7384,2.9443e-13,-0.75938,0,0,0.066667,1.2632e-15,0,0.66667
0.76261,0.35026,11.439,-0.22461,-28.075,238.83,6.8516,-2.2839,-1.8214,9.1354,5.0537e-12,-0.91072,0,0,0.066667,-0,-0,0.66667
0.70896,0.44553,10.634,-0.081707,-12.145,350.4,2.3171,-0.77236,-1.9712,3.0894,-4.2566e-13,-0.98558,0,0,0.066667,-0,-0,0.66667
0.9513,0.46996,14.269,-0.045058,-1.2584,11.549,1.7145,-0.57151,-1.9983,2.286,2.21e-08,-0.99915,0,0,0.066667,-0,-0,0.66667
0.24155,0.90823,3.6233,0.61234,172.87,1950.9,-5.9166,1.9722,-0.66154,-7.8888,3.044e-10,-0.33077,0,0,0.066667,6.3159e-16,0,0.66667
0.56134,0.021485,8.4201,-0.71777,-147.44,750.54,16.117,-5.3722,-0.17503,21.489,1.0582e-11,-0.087514,0,0,0.066667,-1.2632e-15,0,0.66667
0.043773,0.8784,0.6566,0.56761,169.81,2823.6,-0.99383,0.33126,-0.85551,-1.3251,-2.1365e-05,-0.42775,0,0,0.066667,-0,-0,0.66667
0.92318,0.64989,13.848,0.22484,9.8461,27.82,-8.3027,2.7676,-1.8269,-11.07,2.0579e-07,-0.91345,0,0,0.066667,-0,-0,0.66667
0.94526,0.42456,14.179,-0.11316,-3.5506,14.484,4.2787,-1.4262,-1.9478,5.7049,-1.3761e-07,-0.97392,0,0,0.066667,-1.1194e-15,0,0.66667
0.50091,0.2533,7.5136,-0.37005,-82.998,945.5,7.4145,-2.4715,-1.5218,9.886,1.1674e-11,-0.7609,0,0,0.066667,-0,-0,0.66667
0.58612,0.86306,8.7918,0.5446,107.1,674.45,-12.768,4.256,-0.93891,-17.024,-1.0544e-11,-0.46945,0,0,0.066667,6.3159e-16,0,0.66667
0.77194,0.98008,11.579,0.72013,87.269,223.77,-22.236,7.4119,-0.15029,-29.648,4.3149e-10,-0.075143,0,0,0.066667,-0,-0,0.66667
0.24933,0.27881,3.74,-0.33178,-93.192,1917.4,3.309,-1.103,-1.6185,4.412,2.3388e-11,-0.80923,0,0,0.066667,-1.579e-16,0,0.66667
0.37899,0.96089,5.6849,0.69133,177.55,1390.6,-10.48,3.4935,-0.29878,-13.974,-1.3086e-11,-0.14939,0,0,0.066667,-3.158e-16,0,0.66667
0.28861,0.30959,4.3291,-0.28561,-78.405,1752.6,3.2972,-1.0991,-1.7045,4.3962,4.1691e-12,-0.85224,0,0,0.066667,4.737e-16,0,0.66667
0.5388,0.6625,8.0821,0.24375,51.768,820.02,-5.2533,1.7511,-1.7827,-7.0044,-7.3568e-12,-0.89136,0,0,0.066667,1.2632e-15,0,0.66667
0.94896,0.80237,14.234,0.45355,13.368,13.911,-17.216,5.7387,-1.2661,-22.955,6.7496e-07,-0.63305,0,0,0.066667,-1.2632e-15,0,0.66667
0.3854,0.40379,5.781,-0.14431,-36.782,1364.7,2.2247,-0.74158,-1.9225,2.9663,1.0576e-11,-0.96125,0,0,0.066667,8.2464e-16,0,0.66667
0.04501,0.98117,0.67515,0.72176,216.06,2818,-1.2995,0.43314,-0.15182,-1.7326,-1.9376e-05,-0.075909,0,0,0.066667,7.8949e-17,7.5632e-17,0.66667
0.68252,0.34293,10.238,-0.2356,-37.631,412.57,6.432,-2.144,-1.7999,8.576,8.1886e-12,-0.89996,0,0,0.066667,-4.737e-16,0,0.66667
0.49503,0.10967,7.4255,-0.5855,-132.47,966.19,11.594,-3.8645,-0.77688,15.458,4.0945e-12,-0.38844,0,0,0.066667,-6.3159e-16,0,0.66667
0.29651,0.15754,4.4477,-0.51369,-140.4,1720.3,6.0926,-2.0309,-1.0732,8.1235,-4.8481e-12,-0.53659,0,0,0.066667,-0,-0,0.66667
0.41589,0.082411,6.2383,-0.62638,-155.3,1249.9,10.42,-3.4734,-0.59941,13.894,1.6564e-11,-0.29971,0,0,0.066667,-0,-0,0.66667
0.86251,0.61661,12.938,0.17492,13.341,84.264,-6.0348,2.0116,-1.8915,-8.0465,6.6684e-10,-0.94573,0,0,0.066667,1.2632e-15,0,0.66667
0.82102,0.6035,12.315,0.15525,15.093,139.49,-5.0984,1.6995,-1.908,-6.7979,-2.1875e-11,-0.95401,0,0,0.066667,-0,-0,0.66667
0.17085,0.34657,2.5627,-0.23014,-66.905,2256.3,1.5727,-0.52425,-1.82,2.097,-3.773e-10,-0.90998,0,0,0.066667,-0,-0,0.66667
0.68513,0.38797,10.277,-0.16805,-26.656,406.13,4.6054,-1.5351,-1.9019,6.1406,7.0024e-12,-0.95093,0,0,0.066667,-1.2632e-15,0,0.66667
0.99766,0.59578,14.965,0.14367,0.12042,0.21173,-5.7332,1.9111,-1.9302,-7.6443,3.0757e-06,-0.96511,0,0,0.066667,-0,-0,0.66667
0.78436,0.50897,11.765,0.013454,1.5452,198.8,-0.42213,0.14071,-1.9996,-0.56283,-5.2459e-11,-0.99981,0,0,0.066667,-0,-0,0.66667
0.72505,0.71931,10.876,0.32896,46.653,315.38,-9.5404,3.1801,-1.6108,-12.721,-4.1478e-13,-0.80542,0,0,0.066667,-0,-0,0.66667
0.31002,0.56698,4.6503,0.10047,27.186,1664.3,-1.2459,0.4153,-1.9668,-1.6612,1.1935e-11,-0.98342,0,0,0.066667,-6.3159e-16,0,0.66667
0.15947,0.76608,2.3921,0.39912,116.52,2306.5,-2.5459,0.84863,-1.4333,-3.3945,5.2909e-10,-0.71664,0,0,0.066667,3.158e-16,0,0.66667
0.86432,0.86753,12.965,0.55129,41.686,83.725,-19.06,6.3532,-0.91565,-25.413,-6.0979e-08,-0.45782,0,0,0.066667,6.3159e-16,0,0.66667
0.61035,0.2493,9.1552,-0.37605,-70.625,603.35,9.1808,-3.0603,-1.5061,12.241,1.2362e-11,-0.75306,0,0,0.066667,-1.7369e-15,0,0.66667
0.39009,0.15794,5.8514,-0.51309,-130.35,1347.3,8.0061,-2.6687,-1.0745,10.675,-7.4323e-12,-0.53726,0,0,0.066667,-0,7.0651e-17,0.66667
0.75559,0.31295,11.334,-0.28057,-35.976,252.5,8.4799,-2.8266,-1.7165,11.307,-2.407e-12,-0.85826,0,0,0.066667,2.5264e-15,0,0.66667
0.71863,0.3892,10.779,-0.16619,-24.018,328.96,4.7773,-1.5924,-1.9129,6.3697,9.2548e-13,-0.95644,0,0,0.066667,-0,-0,0.66667
0.64733,0.20474,9.71,-0.44288,-77.021,502.23,11.468,-3.8226,-1.2963,15.29,8.7397e-12,-0.64815,0,0,0.066667,-1.2632e-15,0,0.66667
0.20726,0.57026,3.109,0.10539,30.198,2097.5,-0.87374,0.29125,-1.9583,-1.165,7.5329e-12,-0.97916,0,0,0.066667,-0,-0,0.66667
0.88553,0.62153,13.283,0.18229,11.704,59.346,-6.4571,2.1524,-1.8784,-8.6094,2.1007e-09,-0.93921,0,0,0.066667,1.579e-15,0,0.66667
0.71901,0.40706,10.785,-0.1394,-20.122,328.09,4.0093,-1.3364,-1.9429,5.3457,-7.6472e-13,-0.97145,0,0,0.066667,-0,-0,0.66667
0.30263,0.44428,4.5395,-0.08358,-22.73,1694.6,1.0118,-0.33725,-1.9703,1.349,2.5102e-13,-0.98515,0,0,0.066667,6.3159e-16,0,0.66667
0.063598,0.012423,0.95398,-0.73136,-218.5,2734.3,1.8605,-0.62018,-0.10508,2.4807,-8.069e-09,-0.05254,0,0,0.066667,-0,-0,0.66667
0.9128,0.36657,13.692,-0.20015,-9.907,35.322,7.3077,-2.4359,-1.8517,9.7436,-7.3576e-09,-0.92587,0,0,0.066667,-0,-0,0.66667
0.79385,0.23741,11.908,-0.39389,-43.532,183.3,12.507,-4.1692,-1.4486,16.677,2.346e-11,-0.72432,0,0,0.066667,-1.2632e-15,0,0.66667
0.49858,0.0023419,7.4788,-0.74649,-168.27,954.79,14.887,-4.9625,-0.025526,19.85,4.7216e-12,-0.012763,0,0,0.066667,-0,2.1893e-17,0.66667
0.41393,0.8369,6.2089,0.50535,125.47,1256.9,-8.3671,2.789,-1.0858,-11.156,4.0838e-12,-0.54292,0,0,0.066667,-3.865e-16,0,0.66667
0.61556,0.5883,9.2334,0.13245,24.603,588.08,-3.2612,1.0871,-1.9325,-4.3483,8.1515e-12,-0.96624,0,0,0.066667,-9.4739e-16,0,0.66667
0.39852,0.85424,5.9777,0.53135,133.94,1315.1,-8.4701,2.8234,-0.98965,-11.293,8.8933e-12,-0.49483,0,0,0.066667,6.3159e-16,0,0.66667
0.038918,0.58008,0.58377,0.12013,35.915,2845.4,-0.187,0.062335,-1.9421,-0.24934,-2.4518e-07,-0.97103,0,0,0.066667,3.2861e-17,0,0.66667
0.30197,0.0025177,4.5295,-0.74622,-203.45,1698.4,9.0134,-3.0045,-0.016838,12.018,1.7174e-11,-0.0084191,0,0,0.066667,-0,-0,0.66667
0.24628,0.56327,3.6942,0.0949,26.689,1930.2,-0.93488,0.31163,-1.9679,-1.2465,5.8096e-12,-0.98394,0,0,0.066667,6.3159e-16,0,0.66667
0.9723,0.88177,14.585,0.57265,9.2453,6.1341,-22.272,7.4238,-0.83337,-29.695,-5.0562e-05,-0.41668,0,0,0.066667,-0,-0,0.66667
0.7675,0.027742,11.512,-0.70839,-87.288,231.91,21.747,-7.2491,-0.22072,28.997,-4.8651e-10,-0.11036,0,0,0.066667,-1.2632e-15,0,0.66667
0.4037,0.24004,6.0554,-0.38994,-97.751,1295.1,6.2967,-2.0989,-1.4612,8.3956,9.0594e-12,-0.73061,0,0,0.066667,3.158e-16,0,0.66667
0.73663,0.078431,11.049,-0.63235,-86.661,292.3,18.632,-6.2108,-0.58084,24.843,9.2797e-12,-0.29042,0,0,0.066667,-1.2632e-15,0,0.66667
0.30266,0.2965,4.5398,-0.30525,-83.038,1694.6,3.6954,-1.2318,-1.6633,4.9272,3.3959e-11,-0.83163,0,0,0.066667,-6.3159e-16,0,0.66667
0.5273,0.84864,7.9094,0.52296,113.11,858.09,-11.03,3.6767,-1.0262,-14.707,-7.0166e-12,-0.51311,0,0,0.066667,-0,-0,0.66667
0.20714,0.25413,3.1071,-0.36881,-105.73,2098.2,3.0558,-1.0186,-1.515,4.0744,-9.8201e-12,-0.75748,0,0,0.066667,-6.3159e-16,0,0.66667
0.25426,0.56078,3.8139,0.091172,25.531,1896.3,-0.92726,0.30909,-1.9689,-1.2363,-7.9619e-12,-0.98446,0,0,0.066667,-3.5527e-16,0,0.66667
0.43402,0.37209,6.5103,-0.19187,-46.614,1181.7,3.3311,-1.1104,-1.8692,4.4414,1.0028e-11,-0.9346,0,0,0.066667,-1.579e-16,0,0.66667
0.082426,0.85079,1.2364,0.52618,156.63,2649.6,-1.7348,0.57828,-1.0131,-2.3131,-8.3894e-08,-0.50656,0,0,0.066667,-0,-0,0.66667
0.85329,0.51655,12.799,0.024825,2.0105,95.244,-0.84732,0.28244,-1.992,-1.1298,-5.3823e-10,-0.99602,0,0,0.066667,-2.5264e-15,0,0.66667
0.91633,0.15595,13.745,-0.51608,-24.666,34.03,18.916,-6.3053,-1.0495,25.221,-9.3443e-08,-0.52476,0,0,0.066667,3.9475e-17,0,0.66667
0.21311,0.096913,3.1966,-0.60463,-173.03,2072.8,5.1541,-1.718,-0.696,6.8721,-1.0261e-09,-0.348,0,0,0.066667,-6.3159e-16,0,0.66667
0.47372,0.06042,7.1058,-0.65937,-153.33,1040.3,12.494,-4.1648,-0.45119,16.659,2.5135e-12,-0.22559,0,0,0.066667,-1.579e-16,0,0.66667
0.84146,0.25392,12.622,-0.36912,-32.166,111.26,12.424,-4.1414,-1.519,16.565,8.6267e-10,-0.75949,0,0,0.066667,2.5264e-15,0,0.66667
0.28828,0.099731,4.3242,-0.6004,-165.03,1754.5,6.9234,-2.3078,-0.71244,9.2311,1.578e-11,-0.35622,0,0,0.066667,-0,-0,0.66667
0.61071,0.38536,9.1606,-0.17196,-32.252,601.86,4.2006,-1.4002,-1.901,5.6009,7.3754e-12,-0.95049,0,0,0.066667,-1.2632e-15,0,0.66667
0.44205,0.65647,6.6307,0.2347,56.529,1152.4,-4.15,1.3833,-1.8023,-5.5334,-1.1713e-11,-0.90116,0,0,0.066667,1.2632e-15,0,0.66667
0.39749,0.19711,5.9624,-0.45433,-114.6,1318.8,7.2238,-2.4079,-1.2599,9.6317,2.9594e-12,-0.62996,0,0,0.066667,-0,-0,0.66667
0.78937,0.74594,11.841,0.36891,41.548,190.81,-11.648,3.8828,-1.5104,-15.531,1.112e-10,-0.7552,0,0,0.066667,-3.158e-16,0,0.66667
0.46451,0.95143,6.9677,0.67715,159.24,1072.8,-12.582,4.1939,-0.36683,-16.776,2.2489e-11,-0.18342,0,0,0.066667,-0,-0,0.66667
0.4648,0.77752,6.972,0.41628,97.736,1070.9,-7.7395,2.5798,-1.3827,-10.319,1.6743e-11,-0.69133,0,0,0.066667,-7.8949e-16,0,0.66667
0.99203,0.85349,14.88,0.53023,2.3711,2.3139,-21.04,7.0135,-0.99395,-28.054,4.2919e-05,-0.49698,0,0,0.066667,-2.5264e-15,0,0.66667
0.96223,0.57661,14.433,0.11491,2.4895,7.2261,-4.423,1.4743,-1.9469,-5.8973,1.4048e-07,-0.97345,0,0,0.066667,1.2632e-15,0,0.66667
0.23508,0.043853,3.5262,-0.68422,-193.86,1978.6,6.4339,-2.1446,-0.34398,8.5785,-2.9357e-10,-0.17199,0,0,0.066667,-0,-0,0.66667
0.22695,0.52679,3.4043,0.040185,11.411,2012.7,-0.36481,0.1216,-1.9885,-0.48641,1.1444e-11,-0.99425,0,0,0.066667,1.579e-16,0,0.66667
0.66274,0.60061,9.9411,0.15091,25.304,461.58,-4.0007,1.3336,-1.9134,-5.3342,-2.081e-12,-0.95671,0,0,0.066667,-0,-0,0.66667
0.41195,0.8053,6.1792,0.45795,113.9,1264.2,-7.5461,2.5154,-1.2495,-10.061,1.8079e-12,-0.62474,0,0,0.066667,6.3159e-16,0,0.66667
0.71875,0.53795,10.781,0.056932,8.2231,328.57,-1.6368,0.5456,-2.0007,-2.1824,-4.3819e-12,-1.0003,0,0,0.066667,-0,-0,0.66667
0.73345,0.72526,11.002,0.33788,46.678,297.53,-9.9129,3.3043,-1.6022,-13.217,-9.6456e-13,-0.80112,0,0,0.066667,-0,-0,0.66667
0.78329,0.81524,11.749,0.47286,54.655,201.83,-14.816,4.9385,-1.2094,-19.754,-9.1261e-11,-0.60472,0,0,0.066667,-2.5264e-15,0,0.66667
0.26331,0.57555,3.9497,0.11333,31.576,1858.1,-1.1936,0.39787,-1.9568,-1.5915,1.7831e-11,-0.9784,0,0,0.066667,-0,-0,0.66667
0.99836,0.56466,14.975,0.096997,0.039811,0.10984,-3.8735,1.2912,-1.9726,-5.1647,-7.432e-08,-0.98628,0,0,0.066667,-0,-0,0.66667
0.4937,0.89602,7.4055,0.59403,134.64,970.77,-11.731,3.9103,-0.73954,-15.641,-7.9048e-12,-0.36977,0,0,0.066667,-0,-0,0.66667
0.083927,0.55091,1.2589,0.076359,22.702,2642.7,-0.25634,0.085447,-1.9739,-0.34179,-2.7408e-08,-0.98696,0,0,0.066667,-7.8949e-17,0,0.66667
0.11202,0.027984,1.6802,-0.70802,-209.7,2517.3,3.1724,-1.0575,-0.22002,4.2299,4.3438e-07,-0.11001,0,0,0.066667,-7.8949e-17,0,0.66667
0.5615,0.33473,8.4225,-0.2479,-50.793,748.34,5.5678,-1.8559,-1.7891,7.4237,1.1679e-11,-0.89453,0,0,0.066667,-0,-0,0.66667
0.51011,0.7499,7.6516,0.37486,83.03,914.5,-7.6487,2.5496,-1.497,-10.198,5.886e-12,-0.74849,0,0,0.066667,7.8949e-16,0,0.66667
0.93484,0.86543,14.023,0.54814,20.584,21.951,-20.497,6.8323,-0.93324,-27.329,-3.8403e-07,-0.46662,0,0,0.066667,-1.2632e-15,0,0.66667
0.90083,0.76864,13.512,0.40295,22.621,45.879,-14.52,4.8399,-1.4178,-19.36,6.4042e-08,-0.70889,0,0,0.066667,1.2632e-15,0,0.66667
0.4654,0.73271,6.9811,0.34907,81.879,1068.6,-6.4983,2.1661,-1.5661,-8.6645,1.2062e-11,-0.78304,0,0,0.066667,-0,-0,0.66667
0.20648,0.32326,3.0972,-0.26511,-76.007,2101,2.1896,-0.72986,-1.7496,2.9194,-1.9105e-11,-0.87478,0,0,0.066667,-0,-0,0.66667
0.56442,0.76085,8.4663,0.39128,79.823,739.66,-8.8338,2.9446,-1.4596,-11.778,-4.8486e-12,-0.72978,0,0,0.066667,1.2632e-15,0,0.66667
0.30873,0.30805,4.631,-0.28792,-78,1669.7,3.5557,-1.1852,-1.7044,4.7409,2.7708e-11,-0.85218,0,0,0.066667,-0,-0,0.66667
0.65059,0.52348,9.7588,0.035213,6.0721,492.85,-0.91636,0.30545,-1.9907,-1.2218,2.3618e-12,-0.99537,0,0,0.066667,-0,-0,0.66667
0.5151,0.81459,7.7266,0.47188,103.84,898.11,-9.7227,3.2409,-1.2188,-12.964,4.0403e-12,-0.60942,0,0,0.066667,-0,-3.5264e-19,0.66667
0.84318,0.79205,12.648,0.43807,37.819,109.29,-14.775,4.925,-1.3269,-19.7,-3.7057e-09,-0.66345,0,0,0.066667,-0,-0,0.66667
0.13174,0.20217,1.9761,-0.44674,-131.53,2429.2,2.3541,-0.78472,-1.2841,3.1389,1.0875e-08,-0.64204,0,0,0.066667,-0,-0,0.66667
0.25101,0.6546,3.7651,0.2319,65.065,1910.2,-2.3284,0.77612,-1.8174,-3.1045,2.611e-11,-0.90869,0,0,0.066667,-3.9475e-16,0,0.66667
0.59753,0.81349,8.963,0.47023,90.535,640.56,-11.239,3.7464,-1.2135,-14.985,6.7359e-12,-0.60675,0,0,0.066667,-0,-0,0.66667
0.62521,0.40775,9.3782,-0.13838,-25.208,561.16,3.4607,-1.1536,-1.944,4.6142,1.0755e-11,-0.97198,0,0,0.066667,-0,-0,0.66667
0.41259,0.43677,6.1889,-0.09485,-23.557,1261.2,1.5654,-0.5218,-1.9635,2.0872,1.5324e-11,-0.98177,0,0,0.066667,-9.0792e-16,0,0.66667
0.90059,0.93606,13.509,0.65409,36.982,47.676,-23.563,7.8543,-0.47494,-31.417,-6.062e-08,-0.23747,0,0,0.066667,-3.158e-16,0,0.66667
0.81028,0.22525,12.154,-0.41213,-42.296,156.68,13.358,-4.4525,-1.3994,17.81,1.3753e-10,-0.69968,0,0,0.066667,-0,-0,0.66667
0.54085,0.42281,8.1127,-0.11579,-24.509,813.29,2.5049,-0.83497,-1.9466,3.3399,-8.3045e-14,-0.97331,0,0,0.066667,-0,-0,0.66667
0.40503,0.63919,6.0754,0.20879,52.249,1289.8,-3.3827,1.1276,-1.8514,-4.5102,-7.5717e-13,-0.92569,0,0,0.066667,6.3159e-16,0,0.66667
0.39718,0.33766,5.9577,-0.24351,-61.402,1319.6,3.8687,-1.2896,-1.7836,5.1583,4.6434e-12,-0.8918,0,0,0.066667,-0,-0,0.66667
0.11399,0.36409,1.7098,-0.20387,-60.256,2508.1,0.92955,-0.30985,-1.8488,1.2394,2.5512e-09,-0.92439,0,0,0.066667,-0,-0,0.66667
0.93724,0.14245,14.059,-0.53632,-19.408,20.482,20.107,-6.7022,-0.98775,26.809,1.1004e-06,-0.49388,0,0,0.066667,-2.3731e-15,1.0249e-16,0.66667
0.23454,0.40188,3.518,-0.14717,-41.641,1980.2,1.3807,-0.46023,-1.9348,1.8409,7.027e-12,-0.96738,0,0,0.066667,-7.8949e-17,0,0.66667
0.15282,0.067395,2.2923,-0.64891,-190.03,2336.1,3.9666,-1.3222,-0.50271,5.2887,1.0262e-07,-0.25136,0,0,0.066667,-0,-0,0.66667
0.51002,0.8732,7.6502,0.55979,124.11,915.4,-11.42,3.8067,-0.88192,-15.227,1.3291e-11,-0.44096,0,0,0.066667,-7.1054e-16,0,0.66667
0.45504,0.037538,6.8257,-0.69369,-164.96,1106.7,12.626,-4.2088,-0.29339,16.835,-9.1527e-12,-0.14669,0,0,0.066667,-0,-0,0.66667
0.074027,0.29194,1.1104,-0.31208,-92.962,2687.2,0.92411,-0.30804,-1.6513,1.2321,3.3637e-07,-0.82567,0,0,0.066667,-0,-0,0.66667
0.57557,0.92189,8.6336,0.63284,126.85,706.49,-14.57,4.8566,-0.57768,-19.426,4.4347e-12,-0.28884,0,0,0.066667,-0,-0,0.66667
0.69854,0.76841,10.478,0.40261,61.68,375.03,-11.25,3.7499,-1.4201,-15,4.8406e-13,-0.71007,0,0,0.066667,-0,-0,0.66667
0.49055,0.93834,7.3582,0.65751,149.7,981.84,-12.902,4.3005,-0.45854,-17.202,-1.2647e-11,-0.22927,0,0,0.066667,1.2632e-15,0,0.66667
0.072894,0.054061,1.0934,-0.66891,-199.53,2692.5,1.9504,-0.65012,-0.40479,2.6005,9.2873e-06,-0.20239,0,0,0.066667,-0,-0,0.66667
0.17966,0.54278,2.695,0.064163,18.59,2217.6,-0.46111,0.1537,-1.9788,-0.61481,-7.4058e-11,-0.9894,0,0,0.066667,-0,-0,0.66667
0.11594,0.24126,1.739,-0.38811,-114.7,2499.5,1.7998,-0.59995,-1.4585,2.3998,-1.8303e-08,-0.72927,0,0,0.066667,7.8949e-17,0,0.66667
0.58346,0.72576,8.7519,0.33864,66.849,681.66,-7.9033,2.6344,-1.588,-10.538,-6.1497e-12,-0.79398,0,0,0.066667,-0,-0,0.66667
0.085088,0.97073,1.2763,0.70609,210.25,2637.8,-2.4032,0.80106,-0.22219,-3.2042,4.1408e-06,-0.1111,0,0,0.066667,-0,-0,0.66667
0.38405,0.75733,5.7608,0.386,98.554,1370.2,-5.9298,1.9766,-1.4645,-7.9064,-1.2464e-11,-0.73225,0,0,0.066667,-0,-0,0.66667
0.14716,0.11936,2.2073,-0.57095,-167.44,2361,3.3608,-1.1203,-0.83545,4.481,1.6564e-08,-0.41773,0,0,0.066667,-7.8949e-17,0,0.66667
0.41149,0.61001,6.1723,0.16502,41.032,1265.4,-2.7161,0.90537,-1.8985,-3.6215,-3.8365e-12,-0.94925,0,0,0.066667,6.3159e-16,0,0.66667
0.62527,0.24428,9.3791,-0.38358,-69.918,561.53,9.5937,-3.1979,-1.4879,12.792,3.4595e-12,-0.74396,0,0,0.066667,-3.158e-16,0,0.66667
0.35954,0.71342,5.3931,0.32013,83.472,1465.6,-4.604,1.5347,-1.6472,-6.1387,8.5776e-12,-0.82361,0,0,0.066667,-0,-0,0.66667
0.89598,0.84621,13.44,0.51932,30.567,50.819,-18.612,6.204,-1.0374,-24.816,-1.476e-07,-0.51872,0,0,0.066667,-0,-0,0.66667
0.41748,0.10465,6.2622,-0.59303,-146.77,1243.8,9.9031,-3.301,-0.74656,13.204,1.5374e-11,-0.37328,0,0,0.066667,-0,-0,0.66667
0.93366,0.26282,14.005,-0.35578,-13.532,21.567,13.287,-4.429,-1.5481,17.716,-4.6749e-07,-0.77403,0,0,0.066667,-0,-0,0.66667
0.82046,0.32313,12.307,-0.2653,-25.879,140.58,8.7068,-2.9023,-1.7432,11.609,-8.8724e-11,-0.87162,0,0,0.066667,-0,-0,0.66667
0.11664,0.87196,1.7496,0.55794,164.96,2496.5,-2.6032,0.86772,-0.8877,-3.4709,-1.2283e-07,-0.44385,0,0,0.066667,7.8949e-17,0,0.66667
0.10397,0.85778,1.5595,0.53667,159.11,2553.1,-2.2318,0.74393,-0.97104,-2.9757,2.1646e-07,-0.48552,0,0,0.066667,-1.579e-16,0,0.66667
0.13281,0.066259,1.9922,-0.65061,-191.65,2424.7,3.4563,-1.1521,-0.48927,4.6084,-1.5145e-07,-0.24463,0,0,0.066667,-0,-0,0.66667
0.63847,0.46753,9.577,-0.048698,-8.6258,524.98,1.2437,-0.41457,-1.9959,1.6583,8.9759e-12,-0.99797,0,0,0.066667,4.737e-16,0,0.66667
0.68459,0.35949,10.269,-0.21077,-33.484,407.51,5.7717,-1.9239,-1.8426,7.6956,9.297e-12,-0.92129,0,0,0.066667,-8.1072e-16,0,0.66667
0.79001,0.30871,11.85,-0.28694,-32.214,189.44,9.0674,-3.0225,-1.7018,12.09,-2.0488e-11,-0.85092,0,0,0.066667,1.8948e-15,0,0.66667
0.54233,0.58307,8.1349,0.1246,26.316,808.58,-2.703,0.901,-1.9415,-3.604,8.5065e-12,-0.97075,0,0,0.066667,-6.3159e-16,0,0.66667
0.67536,0.50057,10.13,0.00085322,0.13872,429.84,-0.023049,0.007683,-2.0005,-0.030732,1.5606e-12,-1.0003,0,0,0.066667,-0,-0,0.66667
0.68675,0.048312,10.301,-0.67753,-107.32,404.21,18.612,-6.2039,-0.37614,24.816,3.8352e-12,-0.18807,0,0,0.066667,-0,-7.8281e-17,0.66667
0.33823,0.9943,5.0734,0.74145,196.98,1551.3,-10.031,3.3437,-0.040934,-13.375,-4.8894e-12,-0.020467,0,0,0.066667,-1.579e-16,0,0.66667
0.65052,0.79776,9.7577,0.44664,77.123,493.89,-11.622,3.874,-1.2853,-15.496,6.164e-12,-0.64267,0,0,0.066667,-1.2632e-15,0,0.66667
0.4041,0.4784,6.0614,-0.032399,-8.1137,1293.2,0.5237,-0.17457,-1.9995,0.69826,9.0773e-12,-0.99973,0,0,0.066667,-0,-0,0.66667
0.64016,0.85952,9.6025,0.53929,95.332,521.67,-13.809,4.6031,-0.97548,-18.412,8.4377e-14,-0.48774,0,0,0.066667,-0,-9.8305e-17,0.66667
0.93462,0.99731,14.019,0.74597,28.301,23.673,-27.888,9.296,-0.023229,-37.184,4.1617e-06,-0.011615,0,0,0.066667,-6.3159e-16,-2.4807e-17,0.66667
0.42997,0.85972,6.4496,0.53958,131.8,1197.3,-9.2802,3.0934,-0.95816,-12.374,8.3853e-12,-0.47908,0,0,0.066667,-6.3159e-16,0,0.66667
0.50617,0.36276,7.5925,-0.20586,-45.825,927.41,4.168,-1.3893,-1.8435,5.5574,1.7233e-11,-0.92177,0,0,0.066667,-0,-0,0.66667
0.33206,0.37787,4.981,-0.18319,-48.796,1574.9,2.4332,-0.81108,-1.8796,3.2443,2.1693e-11,-0.93982,0,0,0.066667,1.2632e-15,0,0.66667
0.57872,0.95167,8.6808,0.67751,135.11,697.21,-15.684,5.2278,-0.3769,-20.911,2.883e-12,-0.18845,0,0,0.066667,-0,-0,0.66667
0.86342,0.55627,12.951,0.084402,6.3956,83.064,-2.915,0.97166,-1.9729,-3.8866,9.3512e-10,-0.98644,0,0,0.066667,-6.3159e-16,0,0.66667
0.28365,0.12436,4.2547,-0.56347,-155.3,1773.6,6.3931,-2.131,-0.87482,8.5241,1.7949e-11,-0.43741,0,0,0.066667,-8.8818e-16,0,0.66667
0.83439,0.1727,12.516,-0.49095,-44.58,121.47,16.386,-5.4619,-1.1371,21.847,-4.8382e-09,-0.56853,0,0,0.066667,-0,-0,0.66667
0.51948,0.46244,7.7922,-0.056345,-12.309,882.85,1.1708,-0.39026,-1.9874,1.5611,1.0986e-11,-0.99368,0,0,0.066667,3.158e-16,0,0.66667
0.22608,0.7184,3.3911,0.3276,93.102,2016.6,-2.9625,0.9875,-1.6134,-3.95,2.7151e-11,-0.80672,0,0,0.066667,1.2829e-16,0,0.66667
0.41945,0.52088,6.2917,0.031315,7.7234,1235.5,-0.5254,0.17513,-1.9987,-0.70053,-1.1177e-11,-0.99937,0,0,0.066667,-0,-0,0.66667
0.16699,0.77954,2.5049,0.4193,122.12,2273.4,-2.8009,0.93362,-1.3721,-3.7345,-2.5358e-09,-0.68607,0,0,0.066667,3.5527e-16,0,0.66667
0.91239,0.74393,13.686,0.3659,18.228,36.203,-13.354,4.4512,-1.5188,-17.805,-2.2112e-08,-0.75939,0,0,0.066667,-0,-0,0.66667
0.057947,0.30546,0.86921,-0.29181,-87.105,2759.6,0.67638,-0.22546,-1.6943,0.90184,2.0354e-07,-0.84713,0,0,0.066667,-3.9475e-17,0,0.66667
0.604,0.14348,9.0601,-0.53478,-101.75,622.08,12.92,-4.3068,-0.9783,17.227,6.585e-12,-0.48915,0,0,0.066667,-0,-0,0.66667
0.10395,0.11858,1.5593,-0.57213,-169.64,2553.2,2.3789,-0.79298,-0.8318,3.1719,-2.9747e-07,-0.4159,0,0,0.066667,-0,-0,0.66667
0.31348,0.43915,4.7022,-0.09127,-24.638,1650.2,1.1444,-0.38148,-1.9791,1.5259,2.0434e-11,-0.98954,0,0,0.066667,-0,-0,0.66667
0.14294,0.17127,2.1441,-0.49309,-144.74,2379.6,2.8193,-0.93978,-1.1379,3.7591,-2.132e-09,-0.56895,0,0,0.066667,-3.158e-16,0,0.66667
0.49951,0.23049,7.4927,-0.40427,-90.852,950.33,8.0774,-2.6925,-1.4284,10.77,1.0429e-11,-0.71421,0,0,0.066667,-0,-0,0.66667
0.6361,0.97022,9.5415,0.70532,125.93,533.47,-17.946,5.9821,-0.22915,-23.928,-4.0892e-12,-0.11457,0,0,0.066667,-0,-8.5833e-17,0.66667
0.82926,0.41907,12.439,-0.1214,-11.306,127.43,4.0267,-1.3422,-1.9544,5.369,9.9679e-11,-0.97719,0,0,0.066667,-0,-0,0.66667
0.45001,0.058475,6.7502,-0.66229,-158.36,1124.6,11.922,-3.9738,-0.44134,15.895,-8.4919e-12,-0.22067,0,0,0.066667,-1.579e-16,-3.5436e-17,0.66667
0.76945,0.51411,11.542,0.021163,2.5777,225.71,-0.65136,0.21712,-1.9965,-0.86847,6.2359e-12,-0.99826,0,0,0.066667,-0,-0,0.66667
0.59534,0.24004,8.9301,-0.38995,-75.356,646.69,9.286,-3.0953,-1.4645,12.381,1.1681e-11,-0.73226,0,0,0.066667,-0,-0,0.66667
0.97226,0.218,14.584,-0.42299,-6.7733,5.1785,16.451,-5.4835,-1.3642,21.934,1.2681e-05,-0.68212,0,0,0.066667,-7.8949e-17,0,0.66667
0.11972,0.99152,1.7957,0.73728,218,2483,-3.5306,1.1769,-0.062851,-4.7074,2.7535e-08,-0.031426,0,0,0.066667,6.1547e-16,0,0.66667
0.81632,0.66953,12.245,0.25429,25.32,146.78,-8.3033,2.7678,-1.7682,-11.071,1.4226e-10,-0.88412,0,0,0.066667,1.2632e-15,0,0.66667
0.83516,0.099316,12.527,-0.60103,-54.42,121.08,20.078,-6.6927,-0.70984,26.771,1.2852e-08,-0.35492,0,0,0.066667,-0,-0,0.66667
0.79157,0.72079,11.874,0.33118,36.944,186.92,-10.486,3.4953,-1.6065,-13.981,2.218e-11,-0.80327,0,0,0.066667,-0,-0,0.66667
0.45482,0.51049,6.8224,0.015738,3.7356,1106,-0.28633,0.095442,-2.0038,-0.38177,-9.8734e-12,-1.0019,0,0,0.066667,-0,-0,0.66667
0.52721,0.28593,7.9081,-0.3211,-69.403,857.77,6.7715,-2.2572,-1.6318,9.0287,1.1896e-11,-0.81592,0,0,0.066667,-0,-0,0.66667
0.98538,0.67792,14.781,0.26688,2.1872,1.7348,-10.519,3.5063,-1.7542,-14.025,-6.6876e-07,-0.87711,0,0,0.066667,-0,-0,0.66667
0.94464,0.25478,14.17,-0.36782,-11.717,15.567,13.898,-4.6328,-1.5132,18.531,-3.0562e-08,-0.75662,0,0,0.066667,2.5264e-15,0,0.66667
0.763,0.89419,11.445,0.59128,73.985,239.6,-18.046,6.0153,-0.75843,-24.061,8.3338e-11,-0.37921,0,0,0.066667,-1.2632e-15,2.9762e-17,0.66667
0.46026,0.91705,6.9039,0.62558,147.81,1087.7,-11.517,3.8391,-0.60216,-15.356,1.3885e-11,-0.30108,0,0,0.066667,-0,-0,0.66667
0.54024,0.41633,8.1035,-0.12551,-26.593,815.27,2.7122,-0.90407,-1.9379,3.6163,-2.5542e-12,-0.96897,0,0,0.066667,-0,-0,0.66667
0.80456,0.51223,12.068,0.018348,1.9306,164.84,-0.59048,0.19683,-1.9922,-0.78731,7.8984e-11,-0.99611,0,0,0.066667,-0,-0,0.66667
0.27687,0.64853,4.153,0.22279,61.596,1801.4,-2.4674,0.82246,-1.8208,-3.2899,3.8676e-11,-0.91041,0,0,0.066667,-3.158e-16,0,0.66667
0.25653,0.92592,3.848,0.63888,178.95,1887.4,-6.5558,2.1853,-0.54266,-8.741,9.8394e-11,-0.27133,0,0,0.066667,-3.158e-16,0,0.66667
0.21386,0.90675,3.2079,0.61013,174.55,2069.5,-5.2193,1.7398,-0.6739,-6.9591,9.9184e-10,-0.33695,0,0,0.066667,-0,-0,0.66667
0.55121,0.32995,8.2681,-0.25507,-53.14,780.55,5.6238,-1.8746,-1.7657,7.4984,5.3877e-12,-0.88283,0,0,0.066667,6.3159e-16,0,0.66667
0.9514,0.80414,14.271,0.45621,12.813,12.811,-17.361,5.7871,-1.2648,-23.149,2.2583e-06,-0.63239,0,0,0.066667,1.2632e-15,0,0.66667
0.23774,0.12669,3.5661,-0.55996,-158.35,1967,5.3249,-1.775,-0.88577,7.0999,5.1856e-11,-0.44288,0,0,0.066667,-6.3159e-16,0,0.66667
0.8016,0.91246,12.024,0.61869,66.227,171.68,-19.838,6.6125,-0.63584,-26.45,-2.0991e-09,-0.31792,0,0,0.066667,-0,-0,0.66667
0.03041,0.58781,0.45615,0.13171,39.401,2883.8,-0.16021,0.053404,-1.9469,-0.21361,1.1984e-06,-0.97345,0,0,0.066667,3.9475e-17,0,0.66667
0.50622,0.39804,7.5933,-0.15295,-34.04,927.16,3.097,-1.0323,-1.9113,4.1293,1.4863e-11,-0.95565,0,0,0.066667,-0,-0,0.66667
0.28403,0.33822,4.2604,-0.24266,-66.799,1771.6,2.7569,-0.91897,-1.7923,3.6759,1.7703e-11,-0.89614,0,0,0.066667,4.737e-16,0,0.66667
0.28272,0.82166,4.2408,0.48249,133.01,1777.3,-5.4565,1.8188,-1.1779,-7.2753,1.218e-11,-0.58897,0,0,0.066667,-6.3159e-16,0,0.66667
0.39197,0.10458,5.8796,-0.59314,-150.47,1340.3,9.2997,-3.0999,-0.75514,12.4,4.6061e-12,-0.37757,0,0,0.066667,-0,-0,0.66667
0.53546,0.88598,8.0319,0.57897,123.75,831.79,-12.401,4.1335,-0.80553,-16.534,2.3181e-12,-0.40277,0,0,0.066667,1.2632e-15,0,0.66667
0.77289,0.018424,11.593,-0.72236,-87.227,222.06,22.332,-7.4441,-0.13815,29.776,-3.7535e-10,-0.069076,0,0,0.066667,-0,-0,0.66667
0.96166,0.024513,14.425,-0.71323,-16.053,10.607,27.435,-9.1451,-0.18538,36.58,-4.2519e-05,-0.092692,0,0,0.066667,-0,-0,0.66667
0.15039,0.88174,2.2558,0.57261,167.76,2346.7,-3.4445,1.1482,-0.82921,-4.5927,-2.9412e-08,-0.41461,0,0,0.066667,3.158e-16,0,0.66667
0.39479,0.2005,5.9219,-0.44925,-113.6,1329.1,7.0943,-2.3648,-1.2798,9.4591,1.0709e-11,-0.63989,0,0,0.066667,-0,-0,0.66667
0.16274,0.45097,2.4411,-0.073544,-21.436,2291.9,0.47874,-0.15958,-1.9747,0.63832,-8.475e-11,-0.98733,0,0,0.066667,-0,-0,0.66667
0.83664,0.37561,12.55,-0.18659,-16.693,117.21,6.2444,-2.0815,-1.8713,8.3259,1.1848e-10,-0.93563,0,0,0.066667,-2.5264e-15,0,0.66667
0.084802,0.22377,1.272,-0.41435,-123.24,2638.8,1.4055,-0.4685,-1.3841,1.874,1.9808e-09,-0.69204,0,0,0.066667,-3.158e-16,0,0.66667
0.85629,0.9379,12.844,0.65685,52.48,94.006,-22.498,7.4994,-0.46757,-29.998,-1.0752e-08,-0.23378,0,0,0.066667,2.5264e-15,4.0215e-18,0.66667
0.74085,0.74376,11.113,0.36563,49.324,282.28,-10.835,3.6117,-1.5191,-14.447,-8.4164e-12,-0.75957,0,0,0.066667,-1.9293e-16,0,0.66667
0.85834,0.24122,12.875,-0.38816,-30.49,89.916,13.327,-4.4423,-1.4717,17.769,-3.6863e-09,-0.73585,0,0,0.066667,-1.2632e-15,0,0.66667
0.88992,0.0033146,13.349,-0.74503,-46.493,58.16,26.521,-8.8402,-0.035972,35.361,2.172e-07,-0.017986,0,0,0.066667,-0,-0,0.66667
0.15078,0.44213,2.2616,-0.086804,-25.399,2344.7,0.52352,-0.17451,-1.969,0.69802,-5.7202e-10,-0.98451,0,0,0.066667,-0,-0,0.66667
0.55669,0.51067,8.3503,0.016011,3.3054,763.11,-0.35652,0.11884,-1.9938,-0.47536,-1.448e-11,-0.99689,0,0,0.066667,2.5264e-15,0,0.66667
0.30252,0.76637,4.5378,0.39955,108.73,1695.3,-4.8348,1.6116,-1.4271,-6.4464,1.4356e-11,-0.71357,0,0,0.066667,-0,-0,0.66667
0.27122,0.35213,4.0683,-0.22181,-61.529,1825,2.4064,-0.80213,-1.8202,3.2085,2.9062e-11,-0.91012,0,0,0.066667,-0,-0,0.66667
0.016434,0.18353,0.24652,-0.47471,-142.21,2947,0.31205,-0.10402,-1.2077,0.41607,1.9567e-06,-0.60386,0,0,0.066667,-9.8686e-18,0,0.66667
0.51518,0.65322,7.7277,0.22982,50.526,897.27,-4.736,1.5787,-1.8229,-6.3147,3.2818e-13,-0.91146,0,0,0.066667,-1.579e-16,0,0.66667
0.019049,0.48891,0.28574,-0.016638,-4.98,2935.1,0.012678,-0.0042257,-1.9983,0.016904,4.3083e-07,-0.99913,0,0,0.066667,5.9212e-17,0,0.66667
0.89823,0.79698,13.473,0.44547,25.649,48.378,-16.005,5.3351,-1.2878,-21.34,2.4301e-08,-0.64388,0,0,0.066667,-0,-0,0.66667
0.26698,0.79501,4.0047,0.44252,123.13,1843.1,-4.7258,1.5753,-1.3096,-6.3011,3.4562e-11,-0.65479,0,0,0.066667,-0,-0,0.66667
0.49337,0.90514,7.4006,0.60771,137.81,971.94,-11.993,3.9977,-0.68211,-15.991,-1.3717e-11,-0.34105,0,0,0.066667,2.3685e-16,0,0.66667
0.63642,0.033281,9.5463,-0.70008,-124.91,532.58,17.822,-5.9406,-0.2559,23.762,-1.4552e-11,-0.12795,0,0,0.066667,2.5264e-15,0,0.66667
0.0014998,0.75922,0.022496,0.38883,116.48,3014.5,-0.023321,0.0077752,-1.468,-0.031093,2.5107e-06,-0.73401,0,0,0.066667,-0,1.3138e-16,0.66667
0.11324,0.90119,1.6986,0.60179,178.1,2511.7,-2.7258,0.90861,-0.71115,-3.6344,-1.3414e-08,-0.35557,0,0,0.066667,-1.579e-16,0,0.66667
0.46654,0.28062,6.9981,-0.32907,-77.078,1064.6,6.141,-2.047,-1.6193,8.188,7.5091e-12,-0.80965,0,0,0.066667,-8.2897e-16,0,0.66667
0.62328,0.50271,9.3492,0.0040617,0.74277,566.45,-0.10126,0.033754,-2.0056,-0.13502,2.1663e-11,-1.0028,0,0,0.066667,-5.0527e-15,0,0.66667
0.81967,0.030365,12.295,-0.70445,-69.299,144.08,23.097,-7.6989,-0.23051,30.796,1.6181e-08,-0.11526,0,0,0.066667,-6.6816e-16,0,0.66667
0.41481,0.35281,6.2221,-0.22079,-54.722,1253,3.6634,-1.2211,-1.8205,4.8845,1.495e-11,-0.91024,0,0,0.066667,-0,-0,0.66667
0.92685,0.49431,13.903,-0.0085361,-0.35594,25.044,0.31647,-0.10549,-1.9962,0.42196,-2.1588e-07,-0.99808,0,0,0.066667,-0,-0,0.66667
0.59738,0.84056,8.9607,0.51085,98.403,641.15,-12.207,4.0689,-1.0718,-16.276,9.6811e-13,-0.53589,0,0,0.066667,7.8949e-16,0,0.66667
0.0018308,0.99116,0.027462,0.73673,221,3013,-0.055238,0.01849,-0.073,-0.073612,0.00011624,-0.0365,0,0,0.066667,-2.4672e-18,2.5633e-16,0.66667
0.68004,0.8623,10.201,0.54345,87.488,419.69,-14.783,4.9275,-0.94334,-19.71,-1.1813e-12,-0.47167,0,0,0.066667,-0,-0,0.66667
0.21277,0.50727,3.1916,0.010899,3.1152,2073.7,-0.092758,0.030919,-1.9944,-0.12368,1.2407e-10,-0.9972,0,0,0.066667,-1.2632e-15,0,0.66667
0.015256,0.051402,0.22884,-0.6729,-201.75,2952.3,0.41059,-0.13681,-0.40006,0.54747,7.9576e-05,-0.20003,0,0,0.066667,-0,-0,0.66667
0.73575,0.59022,11.036,0.13533,18.546,292.26,-3.9829,1.3276,-1.9417,-5.3105,2.9698e-12,-0.97083,0,0,0.066667,-1.579e-15,0,0.66667
0.55191,0.4465,8.2787,-0.080252,-16.696,778.12,1.7717,-0.59056,-1.973,2.3622,2.4197e-12,-0.98652,0,0,0.066667,-0,-0,0.66667
0.78362,0.30711,11.754,-0.28934,-33.356,200.53,9.0692,-3.0231,-1.7053,12.092,-4.1922e-11,-0.85264,0,0,0.066667,1.2632e-15,0,0.66667
0.088169,0.094568,1.3225,-0.60815,-180.9,2623.9,2.1448,-0.71493,-0.68135,2.8597,-3.7458e-07,-0.34068,0,0,0.066667,-3.158e-16,0,0.66667
0.3557,0.075972,5.3355,-0.63604,-166.57,1481.5,9.0496,-3.0165,-0.5601,12.066,1.1608e-11,-0.28005,0,0,0.066667,-6.3159e-16,2.555e-17,0.66667
0.2997,0.58124,4.4955,0.12186,33.205,1706.6,-1.4609,0.48696,-1.9481,-1.9478,2.4808e-11,-0.97403,0,0,0.066667,-0,-0,0.66667
0.569,0.62994,8.535,0.19491,39.435,725.12,-4.4361,1.4787,-1.8596,-5.9149,-6.6982e-12,-0.92978,0,0,0.066667,1.2632e-15,0,0.66667
0.51015,0.34994,7.6523,-0.22509,-49.832,914.05,4.5931,-1.531,-1.8155,6.1242,1.2998e-11,-0.90773,0,0,0.066667,-0,-0,0.66667
0.78213,0.84185,11.732,0.51278,59.571,204.1,-16.042,5.3474,-1.0742,-21.39,-5.4227e-10,-0.53709,0,0,0.066667,-1.7369e-15,0,0.66667
0.18706,0.10068,2.8059,-0.59898,-173.28,2185.8,4.4818,-1.4939,-0.7345,5.9757,1.1959e-09,-0.36725,0,0,0.066667,-6.3159e-16,0,0.66667
0.5765,0.95686,8.6474,0.68529,137.19,703.97,-15.803,5.2676,-0.33512,-21.07,4.1069e-12,-0.16756,0,0,0.066667,-6.8271e-16,0,0.66667
0.64438,0.26259,9.6657,-0.35611,-62.312,509.74,9.1787,-3.0596,-1.5474,12.238,7.6898e-12,-0.77372,0,0,0.066667,-0,-0,0.66667
0.45987,0.40907,6.898,-0.13639,-32.188,1088,2.5089,-0.8363,-1.9287,3.3452,6.7177e-12,-0.96434,0,0,0.066667,-0,-0,0.66667
0.55798,0.56017,8.3697,0.09025,18.594,759.1,-2.0143,0.67143,-1.9688,-2.6857,4.4409e-13,-0.98442,0,0,0.066667,-9.4739e-16,0,0.66667
0.97433,0.008785,14.615,-0.73682,-11.189,7.0125,28.716,-9.5721,-0.064415,38.288,1.8157e-05,-0.032208,0,0,0.066667,-0,-0,0.66667
0.75167,0.15333,11.275,-0.52,-67.7,261.16,15.635,-5.2116,-1.0444,20.846,6.7266e-11,-0.52218,0,0,0.066667,3.158e-16,0,0.66667
0.38099,0.49936,5.7148,-0.00095643,-0.24472,1381.7,0.014575,-0.0048585,-1.9959,0.019434,6.1098e-11,-0.99795,0,0,0.066667,-1.9343e-15,0,0.66667
0.43402,0.37278,6.5102,-0.19082,-46.359,1181.7,3.3128,-1.1043,-1.8707,4.4171,6.072e-12,-0.93537,0,0,0.066667,-2.3685e-16,0,0.66667
0.71283,0.58404,10.692,0.12605,18.529,341.75,-3.5942,1.1981,-1.9382,-4.7923,-6.3141e-12,-0.96908,0,0,0.066667,-0,-0,0.66667
0.093712,0.91135,1.4057,0.61703,183.37,2599,-2.3129,0.77097,-0.65856,-3.0839,3.5866e-08,-0.32928,0,0,0.066667,-0,4.3133e-17,0.66667
0.63781,0.83104,9.5671,0.49657,88.206,527.8,-12.669,4.2229,-1.1242,-16.891,5.2252e-12,-0.56208,0,0,0.066667,-7.5532e-16,0,0.66667
0.11436,0.68526,1.7154,0.27789,82.137,2506.5,-1.2712,0.42372,-1.7224,-1.6949,1.3879e-09,-0.8612,0,0,0.066667,-1.6352e-16,0,0.66667
0.10185,0.1612,1.5277,-0.5082,-150.72,2562.5,2.0704,-0.69013,-1.0759,2.7605,-8.2312e-08,-0.53793,0,0,0.066667,-0,-0,0.66667
0.66667,0.38966,10,-0.16551,-27.493,451.64,4.4137,-1.4712,-1.898,5.8849,1.1716e-11,-0.94898,0,0,0.066667,-1.2632e-15,0,0.66667
0.1671,0.48798,2.5065,-0.018033,-5.2484,2272.7,0.12053,-0.040178,-1.995,0.16071,5.9735e-10,-0.99751,0,0,0.066667,-1.9789e-16,0,0.66667
0.76472,0.57545,11.471,0.11317,14.032,234.64,-3.4617,1.1539,-1.9621,-4.6156,-3.376e-12,-0.98107,0,0,0.066667,1.2632e-15,0,0.66667
0.75059,0.76309,11.259,0.39463,51.524,262.73,-11.848,3.9494,-1.4553,-15.798,2.9213e-11,-0.72765,0,0,0.066667,-1.2632e-15,0,0.66667
0.31202,0.34367,4.6803,-0.2345,-63.378,1656.2,2.9268,-0.97559,-1.8156,3.9024,2.9157e-11,-0.90781,0,0,0.066667,-2.2451e-16,0,0.66667
0.57086,0.56405,8.563,0.096081,19.376,719.32,-2.194,0.73133,-1.962,-2.9253,6.1091e-12,-0.98099,0,0,0.066667,-0,-0,0.66667
0.64514,0.68013,9.6771,0.2702,47.185,507.49,-6.9727,2.3242,-1.7375,-9.297,1.9362e-12,-0.86874,0,0,0.066667,-0,-0,0.66667
0.81146,0.63461,12.172,0.20191,20.578,154.13,-6.5538,2.1846,-1.8624,-8.7385,1.0382e-11,-0.9312,0,0,0.066667,-0,-0,0.66667
0.20147,0.54579,3.022,0.068685,19.729,2122.6,-0.5535,0.1845,-1.9879,-0.73801,4.5135e-12,-0.99396,0,0,0.066667,-0,-0,0.66667
0.67624,0.97175,10.144,0.70763,115.16,429.92,-19.141,6.3804,-0.21758,-25.522,4.0998e-12,-0.10879,0,0,0.066667,-0,-0,0.66667
0.82289,0.74368,12.343,0.36552,35.24,137.32,-12.031,4.0104,-1.5209,-16.042,3.3107e-11,-0.76044,0,0,0.066667,-0,-0,0.66667
0.41439,0.62937,6.2158,0.19406,48.114,1254.5,-3.2166,1.0722,-1.8604,-4.2888,4.2173e-12,-0.93018,0,0,0.066667,-1.2632e-15,0,0.66667
0.4937,0.79912,7.4055,0.44868,101.63,970.28,-8.8604,2.9535,-1.2783,-11.814,-1.9629e-12,-0.63913,0,0,0.066667,-0,-0,0.66667
0.51425,0.092599,7.7137,-0.6111,-134.73,901.47,12.57,-4.1901,-0.67942,16.76,2.1043e-11,-0.33971,0,0,0.066667,-1.6072e-16,0,0.66667
0.93933,0.20945,14.09,-0.43583,-15.216,18.708,16.376,-5.4585,-1.329,21.834,3.2699e-07,-0.66449,0,0,0.066667,1.2632e-15,0,0.66667
0.051651,0.18478,0.77476,-0.47283,-141.31,2788,0.97688,-0.32563,-1.2023,1.3025,2.456e-07,-0.60117,0,0,0.066667,-9.8686e-17,0,0.66667
0.57155,0.32931,8.5733,-0.25603,-51.586,717.43,5.8535,-1.9512,-1.7607,7.8046,9.6376e-12,-0.88036,0,0,0.066667,6.3159e-16,0,0.66667
0.48976,0.46441,7.3464,-0.05338,-12.142,983.14,1.0457,-0.34858,-1.9859,1.3943,1.3603e-11,-0.99293,0,0,0.066667,2.9e-16,0,0.66667
0.34383,0.10821,5.1574,-0.58769,-155.33,1528.5,8.0826,-2.6942,-0.78326,10.777,1.6287e-11,-0.39163,0,0,0.066667,-0,-0,0.66667
0.66992,0.35388,10.049,-0.21918,-36.127,443.58,5.8732,-1.9577,-1.833,7.831,6.473e-12,-0.91651,0,0,0.066667,-0,-0,0.66667
0.76944,0.22449,11.542,-0.41327,-50.411,226.6,12.719,-4.2398,-1.3916,16.959,8.5412e-11,-0.69578,0,0,0.066667,-0,-0,0.66667
0.54006,0.79796,8.1009,0.44694,94.807,816.5,-9.655,3.2183,-1.2834,-12.873,1.0353e-11,-0.64169,0,0,0.066667,-6.3159e-16,0,0.66667
0.041638,0.089342,0.62457,-0.61599,-184.36,2833.2,1.0259,-0.34195,-0.64708,1.3679,3.8949e-05,-0.32354,0,0,0.066667,9.8686e-17,0,0.66667
0.23508,0.4534,3.5262,-0.069903,-19.771,1977.9,0.65731,-0.2191,-1.9911,0.87642,1.6497e-11,-0.99555,0,0,0.066667,-0,-0,0.66667
0.02044,0.65854,0.3066,0.2378,71.187,2928.9,-0.19443,0.064812,-1.7962,-0.25923,3.741e-06,-0.8981,0,0,0.066667,-0,-0,0.66667
0.32778,0.89207,4.9167,0.58811,157.35,1592.9,-7.7108,2.5703,-0.78028,-10.281,-1.8969e-11,-0.39014,0,0,0.066667,6.3159e-16,7.827e-17,0.66667
0.46806,0.51805,7.0208,0.02708,6.3285,1058.9,-0.507,0.169,-2.006,-0.676,3.511e-12,-1.003,0,0,0.066667,-0,-0,0.66667
0.78457,0.58986,11.769,0.13479,15.47,198.52,-4.23,1.41,-1.9358,-5.64,2.1156e-12,-0.96788,0,0,0.066667,-1.579e-15,0,0.66667
0.53227,0.86651,7.9841,0.54976,118.05,841.98,-11.705,3.9017,-0.93288,-15.607,2.2213e-12,-0.46644,0,0,0.066667,-0,-0,0.66667
0.47743,0.57581,7.1614,0.11372,26.275,1026,-2.1717,0.7239,-1.9476,-2.8956,1.0937e-11,-0.9738,0,0,0.066667,-0,-0,0.66667
0.69795,0.16356,10.469,-0.50466,-77.485,376.82,14.089,-4.6963,-1.0904,18.785,1.2752e-11,-0.54519,0,0,0.066667,-2.5264e-15,0,0.66667
0.017417,0.65799,0.26126,0.23698,70.949,2942.5,-0.1651,0.055036,-1.8059,-0.22014,2.5089e-06,-0.90293,0,0,0.066667,3.9475e-17,0,0.66667
0.69499,0.7636,10.425,0.3954,61.158,383.28,-10.992,3.664,-1.4375,-14.656,3.1974e-14,-0.71876,0,0,0.066667,-0,-0,0.66667
0.31196,0.66653,4.6794,0.24979,67.514,1656.5,-3.1169,1.039,-1.7875,-4.1559,-2.562e-12,-0.89377,0,0,0.066667,-0,-0,0.66667
0.55979,0.62212,8.3969,0.18318,37.632,753.55,-4.1016,1.3672,-1.883,-5.4688,-1.3922e-11,-0.94149,0,0,0.066667,3.158e-16,0,0.66667
0.60681,0.15223,9.1021,-0.52166,-98.716,613.98,12.662,-4.2206,-1.0349,16.883,1.0261e-11,-0.51747,0,0,0.066667,4.3505e-17,0,0.66667
0.18214,0.49022,2.7321,-0.014664,-4.2446,2206.8,0.10684,-0.035612,-1.9946,0.14245,-2.677e-10,-0.99731,0,0,0.066667,1.579e-16,0,0.66667
0.25027,0.47403,3.7541,-0.038954,-10.932,1913.2,0.38996,-0.12999,-2.0057,0.51995,2.295e-11,-1.0029,0,0,0.066667,-0,-0,0.66667
0.57882,0.25958,8.6823,-0.36063,-71.781,695.65,8.3496,-2.7832,-1.5464,11.133,5.9579e-12,-0.77318,0,0,0.066667,-0,-0,0.66667
0.26262,0.56729,3.9393,0.10093,28.133,1861.1,-1.0603,0.35343,-1.9649,-1.4137,2.4726e-12,-0.98243,0,0,0.066667,-0,-0,0.66667
0.23942,0.14642,3.5913,-0.53036,-149.83,1959.8,5.0791,-1.693,-0.99573,6.7722,-1.631e-11,-0.49787,0,0,0.066667,-0,-0,0.66667
0.35903,0.53876,5.3855,0.058144,15.161,1467.4,-0.83502,0.27834,-1.9985,-1.1134,1.1606e-11,-0.99925,0,0,0.066667,-0,-0,0.66667
0.90441,0.57822,13.566,0.11734,6.3411,41.922,-4.2448,1.4149,-1.9551,-5.6597,1.9051e-08,-0.97754,0,0,0.066667,1.2632e-15,0,0.66667
0.86921,0.8369,13.038,0.50535,36.902,77.88,-17.57,5.8567,-1.0871,-23.427,3.4919e-09,-0.54354,0,0,0.066667,-6.3159e-16,0,0.66667
0.51404,0.81544,7.7105,0.47316,104.27,901.67,-9.7288,3.2429,-1.2101,-12.972,5.1887e-12,-0.60503,0,0,0.066667,-1.2632e-15,0,0.66667
0.051748,0.067147,0.77622,-0.64928,-194.17,2787.6,1.3439,-0.44799,-0.49785,1.7919,-7.037e-06,-0.24892,0,0,0.066667,1.579e-16,0,0.66667
0.80034,0.68407,12.005,0.2761,29.635,172.1,-8.8391,2.9464,-1.729,-11.785,-1.3103e-10,-0.8645,0,0,0.066667,6.3159e-16,0,0.66667
0.18119,0.35672,2.7178,-0.21492,-62.245,2211,1.5577,-0.51922,-1.8298,2.0769,3.8552e-11,-0.91491,0,0,0.066667,-0,-0,0.66667
0.66874,0.1063,10.031,-0.59055,-97.802,447.86,15.797,-5.2656,-0.75998,21.063,7.3674e-12,-0.37999,0,0,0.066667,-1.2632e-15,-2.8261e-17,0.66667
0.83537,0.12587,12.531,-0.56119,-50.726,120.52,18.752,-6.2507,-0.87517,25.003,4.2011e-09,-0.43758,0,0,0.066667,-2.5264e-15,0,0.66667
0.9648,0.024871,14.472,-0.71269,-14.748,9.5266,27.504,-9.1681,-0.19246,36.672,-2.2012e-05,-0.096231,0,0,0.066667,-1.2632e-15,-5.1307e-17,0.66667
0.12685,0.044622,1.9027,-0.68307,-201.55,2451.2,3.4658,-1.1553,-0.34509,4.621,-1.0582e-07,-0.17255,0,0,0.066667,-0,-0,0.66667
0.52331,0.95731,7.8497,0.68596,149.37,871.84,-14.359,4.7863,-0.32043,-19.145,-9.3214e-12,-0.16021,0,0,0.066667,6.3159e-16,0,0.66667
0.85061,0.63851,12.759,0.20777,17.12,98.845,-7.0693,2.3564,-1.8401,-9.4258,-3.1135e-10,-0.92007,0,0,0.066667,1.2632e-15,0,0.66667
0.53761,0.51156,8.0641,0.017343,3.6891,823.66,-0.37296,0.12432,-1.993,-0.49728,-2.3603e-12,-0.9965,0,0,0.066667,-0,-0,0.66667
0.73005,0.98469,10.951,0.72704,101.84,306.74,-21.231,7.077,-0.11755,-28.308,-2.3359e-12,-0.058777,0,0,0.066667,3.9864e-16,0,0.66667
0.78546,0.66195,11.782,0.24292,27.789,197.18,-7.6322,2.5441,-1.7881,-10.176,6.2723e-12,-0.89405,0,0,0.066667,-0,-0,0.66667
0.8366,0.44765,12.549,-0.078532,-7.0251,117.12,2.628,-0.87599,-1.9717,3.504,1.3288e-11,-0.98587,0,0,0.066667,-0,-0,0.66667
0.66653,0.9183,9.998,0.62745,104.5,453.61,-16.729,5.5762,-0.59544,-22.305,4.3112e-12,-0.29772,0,0,0.066667,-1.2632e-15,0,0.66667
0.89774,0.63682,13.466,0.20523,11.837,47.878,-7.3697,2.4566,-1.8438,-9.8262,3.9171e-08,-0.92191,0,0,0.066667,-2.5264e-15,0,0.66667
0.64779,0.7446,9.7169,0.36689,63.717,500.76,-9.5068,3.1689,-1.5156,-12.676,-9.9476e-13,-0.75778,0,0,0.066667,9.4739e-16,0,0.66667
0.94464,0.42481,14.17,-0.11278,-3.5782,14.794,4.2614,-1.4205,-1.9483,5.6819,-1.339e-07,-0.97415,0,0,0.066667,-1.2632e-15,0,0.66667
0.6293,0.61683,9.4395,0.17524,31.657,549.98,-4.4112,1.4704,-1.8882,-5.8817,5.6652e-12,-0.94411,0,0,0.066667,-0,-0,0.66667
0.87243,0.7129,13.086,0.31936,22.733,73.425,-11.145,3.7149,-1.6396,-14.86,-5.8556e-10,-0.81981,0,0,0.066667,-1.2632e-15,0,0.66667
0.59566,0.60651,8.9348,0.15977,30.835,645.26,-3.8066,1.2689,-1.9131,-5.0755,-1.1746e-13,-0.95655,0,0,0.066667,-0,-0,0.66667
0.34435,0.44667,5.1652,-0.080001,-21.108,1525.6,1.1019,-0.36731,-1.9865,1.4692,2.4342e-11,-0.99324,0,0,0.066667,-0,-0,0.66667
0.81346,0.022646,12.202,-0.71603,-72.63,153.6,23.298,-7.7661,-0.18483,31.065,9.5407e-09,-0.092417,0,0,0.066667,-0,-0,0.66667
0.43238,0.44689,6.4857,-0.079663,-19.385,1187.6,1.3778,-0.45926,-1.9732,1.8371,-1.4195e-12,-0.98661,0,0,0.066667,-0,-0,0.66667
0.12655,0.58318,1.8982,0.12477,36.76,2452.2,-0.63156,0.21052,-1.9499,-0.84207,-7.4126e-10,-0.97497,0,0,0.066667,-1.579e-16,0,0.66667
0.96857,0.34168,14.529,-0.23748,-4.2835,5.4311,9.2007,-3.0669,-1.8116,12.268,1.7603e-06,-0.90578,0,0,0.066667,1.4211e-15,0,0.66667
0.85256,0.45814,12.788,-0.062792,-5.1088,96.166,2.1414,-0.71379,-1.9798,2.8552,-4.0554e-10,-0.98989,0,0,0.066667,1.2632e-15,0,0.66667
0.56126,0.38188,8.4189,-0.17719,-36.313,748.98,3.9779,-1.326,-1.8952,5.3038,1.1129e-11,-0.9476,0,0,0.066667,-0,-0,0.66667
0.67061,0.97878,10.059,0.71817,118.52,443.93,-19.265,6.4215,-0.17258,-25.686,5.0377e-12,-0.08629,0,0,0.066667,-0,6.8823e-17,0.66667
0.99772,0.18062,14.966,-0.47907,-0.48785,1.5984,19.119,-6.373,-1.1871,25.492,1.6101e-05,-0.59354,0,0,0.066667,-0,-5.4202e-17,0.66667
0.16131,0.51522,2.4196,0.02283,6.6576,2298.2,-0.14731,0.049103,-1.9937,-0.19641,-1.6677e-10,-0.99687,0,0,0.066667,-0,-0,0.66667
0.53454,0.58657,8.0181,0.12986,27.753,833.62,-2.7766,0.92554,-1.94,-3.7022,1.0237e-11,-0.97,0,0,0.066667,-3.158e-16,0,0.66667
0.39098,0.9898,5.8647,0.73471,186.7,1344.6,-11.49,3.8301,-0.090962,-15.32,9.6101e-13,-0.045481,0,0,0.066667,6.3159e-16,0,0.66667
0.54115,0.97415,8.1172,0.71122,150.84,814.12,-15.395,5.1317,-0.19684,-20.527,1.8879e-11,-0.098421,0,0,0.066667,-1.2632e-15,0,0.66667
0.10338,0.37075,1.5507,-0.19387,-57.434,2555.5,0.80168,-0.26723,-1.8616,1.0689,3.575e-08,-0.93079,0,0,0.066667,-3.9475e-17,0,0.66667
0.44074,0.055551,6.6111,-0.66667,-161.07,1158.3,11.753,-3.9177,-0.41984,15.671,1.9629e-12,-0.20992,0,0,0.066667,-3.158e-16,0,0.66667
0.46146,0.5814,6.922,0.1221,28.76,1082.3,-2.2537,0.75125,-1.9405,-3.005,-5.6839e-12,-0.97024,0,0,0.066667,8.511e-17,0,0.66667
0.59589,0.23974,8.9384,-0.39039,-75.364,645.07,9.3052,-3.1017,-1.4613,12.407,7.9412e-12,-0.73065,0,0,0.066667,6.3159e-16,0,0.66667
0.66238,0.4353,9.9356,-0.097048,-16.285,462.44,2.5713,-0.8571,-1.962,3.4284,2.5315e-12,-0.98098,0,0,0.066667,-1.579e-16,0,0.66667
0.59015,0.89184,8.8522,0.58776,114.78,662.7,-13.875,4.6249,-0.77035,-18.5,1.025e-12,-0.38517,0,0,0.066667,-1.2632e-15,0,0.66667
0.72938,0.65646,10.941,0.23469,32.827,305.84,-6.8471,2.2824,-1.8015,-9.1294,-1.4744e-12,-0.90077,0,0,0.066667,-0,-0,0.66667
0.5809,0.85343,8.7135,0.53015,105.22,689.97,-12.319,4.1062,-1.0018,-16.425,-1.0034e-11,-0.50092,0,0,0.066667,1.2632e-15,0,0.66667
0.4431,0.15497,6.6465,-0.51754,-124.62,1149.2,9.173,-3.0577,-1.0439,12.231,-2.77e-11,-0.52194,0,0,0.066667,6.5592e-17,0,0.66667
0.49679,0.92105,7.4518,0.63158,142.6,960.38,-12.55,4.1835,-0.5814,-16.734,-8.1357e-13,-0.2907,0,0,0.066667,-0,1.006e-16,0.66667
0.43009,0.22275,6.4513,-0.41587,-101.51,1196.5,7.1544,-2.3848,-1.3794,9.5392,1.2039e-12,-0.6897,0,0,0.066667,-0,-0,0.66667
0.21007,0.5939,3.1511,0.14084,40.309,2085.4,-1.1835,0.3945,-1.9247,-1.578,2.1382e-11,-0.96235,0,0,0.066667,6.3159e-16,0,0.66667
0.2268,0.012168,3.402,-0.73175,-208.21,2014.1,6.6385,-2.2128,-0.089584,8.8513,2.477e-10,-0.044792,0,0,0.066667,-0,-0,0.66667
0.45739,0.63807,6.8608,0.2071,49.021,1096.9,-3.789,1.263,-1.8447,-5.052,9.0645e-12,-0.92233,0,0,0.066667,-6.3159e-16,0,0.66667
0.43355,0.32222,6.5033,-0.26667,-64.827,1183.5,4.6246,-1.5415,-1.7452,6.1661,1.6394e-11,-0.8726,0,0,0.066667,-1.2632e-15,0,0.66667
0.77928,0.45019,11.689,-0.07471,-8.7588,207.81,2.3288,-0.77627,-1.9838,3.1051,5.4234e-12,-0.9919,0,0,0.066667,-0,-0,0.66667
0.42086,0.38199,6.3129,-0.17701,-43.599,1230.3,2.9798,-0.99327,-1.8963,3.9731,1.7683e-11,-0.94815,0,0,0.066667,-0,-0,0.66667
0.67337,0.689,10.101,0.28349,46.344,435.13,-7.6359,2.5453,-1.7209,-10.181,-3.7397e-12,-0.86047,0,0,0.066667,-0,-0,0.66667
0.16604,0.71684,2.4906,0.32526,94.733,2277.5,-2.1602,0.72007,-1.6197,-2.8803,1.4253e-10,-0.80983,0,0,0.066667,4.1932e-16,0,0.66667
0.82406,0.98348,12.361,0.72522,69.795,137.76,-23.905,7.9683,-0.12753,-31.873,2.5964e-10,-0.063763,0,0,0.066667,-1.2632e-15,0,0.66667
0.68541,0.30098,10.281,-0.29852,-47.338,405.75,8.1844,-2.7281,-1.6864,10.913,4.1158e-12,-0.8432,0,0,0.066667,6.3159e-16,0,0.66667
0.78905,0.74114,11.836,0.36171,40.79,191.33,-11.416,3.8054,-1.5285,-15.222,1.099e-10,-0.76423,0,0,0.066667,-1.2632e-15,0,0.66667
0.35948,0.98533,5.3923,0.72799,190.15,1466.9,-10.468,3.4893,-0.1268,-13.957,5.3015e-12,-0.063402,0,0,0.066667,-0,-0,0.66667
0.66255,0.62731,9.9382,0.19097,32.037,462.12,-5.061,1.687,-1.8656,-6.748,-1.7821e-12,-0.93279,0,0,0.066667,-0,-0,0.66667
0.21709,0.49256,3.2564,-0.011164,-3.1849,2055.1,0.096946,-0.032315,-2.0047,0.12926,-2.8769e-11,-1.0024,0,0,0.066667,3.158e-16,0,0.66667
0.22101,0.67497,3.3151,0.26245,74.756,2038.3,-2.3201,0.77338,-1.7577,-3.0935,-1.3834e-11,-0.87887,0,0,0.066667,3.158e-16,0,0.66667
0.24246,0.15272,3.6369,-0.52092,-146.93,1946.9,5.052,-1.684,-1.0296,6.736,-5.7788e-11,-0.51478,0,0,0.066667,-7.8949e-17,0,0.66667
0.26459,0.13852,3.9688,-0.54222,-151.13,1853.3,5.7386,-1.9129,-0.9618,7.6514,3.2012e-11,-0.4809,0,0,0.066667,-0,-0,0.66667
0.40841,0.23231,6.1262,-0.40153,-100.2,1277.3,6.5596,-2.1865,-1.4297,8.7461,3.463e-12,-0.71485,0,0,0.066667,-0,-0,0.66667
0.8287,0.83192,12.43,0.49789,46.628,129.52,-16.504,5.5013,-1.1278,-22.005,3.8296e-09,-0.56389,0,0,0.066667,-1.2632e-15,0,0.66667
0.94742,0.63041,14.211,0.19561,5.9025,13.582,-7.413,2.471,-1.8593,-9.884,2.8901e-07,-0.92967,0,0,0.066667,-2.5264e-15,0,0.66667
0.63246,0.10229,9.4869,-0.59657,-107.25,542.73,15.092,-5.0308,-0.7283,20.123,-2.6645e-13,-0.36415,0,0,0.066667,-0,-0,0.66667
0.13474,0.43952,2.0211,-0.090721,-26.67,2415.7,0.48895,-0.16298,-1.9665,0.65193,1.7187e-09,-0.98324,0,0,0.066667,-0,-0,0.66667
0.41999,0.4292,6.2999,-0.1062,-26.178,1233.5,1.7841,-0.59468,-1.9642,2.3787,1.3487e-12,-0.98208,0,0,0.066667,6.3159e-16,0,0.66667
0.93619,0.74681,14.043,0.37021,13.559,20.147,-13.863,4.6211,-1.5198,-18.485,4.4474e-07,-0.75988,0,0,0.066667,-0,-0,0.66667
0.32054,0.37835,4.8082,-0.18248,-49.019,1621.5,2.3397,-0.7799,-1.876,3.1196,3.4257e-11,-0.938,0,0,0.066667,1.2632e-15,0,0.66667
0.61928,0.15504,9.2892,-0.51744,-95.541,578.68,12.818,-4.2725,-1.0441,17.09,-5.616e-12,-0.52206,0,0,0.066667,1.7369e-15,0,0.66667
0.93513,0.66733,14.027,0.25099,9.3217,20.296,-9.3884,3.1295,-1.7784,-12.518,4.0682e-07,-0.88919,0,0,0.066667,-0,-0,0.66667
0.46068,0.94583,6.9102,0.66875,157.97,1086.4,-12.323,4.1077,-0.40359,-16.431,3.1212e-11,-0.20179,0,0,0.066667,-0,-0,0.66667
0.5004,0.9102,7.506,0.61531,138.25,948.03,-12.316,4.1053,-0.66462,-16.421,1.462e-11,-0.33231,0,0,0.066667,-1.2632e-15,0,0.66667
0.91869,0.20322,13.78,-0.44518,-20.666,31.884,16.359,-5.4531,-1.2951,21.812,-1.5738e-08,-0.64756,0,0,0.066667,-1.2632e-15,0,0.66667
0.92982,0.53804,13.947,0.057065,2.2854,23.154,-2.1224,0.70748,-1.9823,-2.8299,4.4825e-08,-0.99115,0,0,0.066667,-0,-0,0.66667
0.90449,0.61406,13.567,0.1711,9.2423,41.951,-6.1902,2.0634,-1.9004,-8.2536,2.5954e-08,-0.95019,0,0,0.066667,-0,-0,0.66667
0.51363,0.47578,7.7045,-0.036323,-8.0009,902.24,0.74627,-0.24876,-1.9993,0.99502,-3.0322e-12,-0.99966,0,0,0.066667,1.2632e-15,0,0.66667
0.63981,0.044453,9.5972,-0.68332,-121.01,523.36,17.488,-5.8293,-0.34787,23.317,-1.2204e-12,-0.17394,0,0,0.066667,1.2632e-15,0,0.66667
0.58901,0.51044,8.8351,0.015665,3.0599,664.72,-0.36907,0.12302,-1.9955,-0.49209,4.0768e-12,-0.99773,0,0,0.066667,-0,-0,0.66667
0.15849,0.46472,2.3774,-0.052914,-15.445,2310.6,0.33546,-0.11182,-1.9936,0.44729,2.183e-10,-0.99681,0,0,0.066667,-3.158e-16,0,0.66667
0.62345,0.88361,9.3517,0.57541,105.39,567.35,-14.35,4.7832,-0.82819,-19.133,7.3159e-12,-0.4141,0,0,0.066667,-0,-0,0.66667
0.31914,0.89431,4.7872,0.59146,159.23,1627.8,-7.5505,2.5168,-0.75001,-10.067,-1.9128e-11,-0.375,0,0,0.066667,-3.158e-16,0,0.66667
0.13074,0.89931,1.961,0.59896,176.49,2433.8,-3.1322,1.0441,-0.71957,-4.1763,4.8769e-08,-0.35978,0,0,0.066667,7.8949e-17,0,0.66667
0.215,0.12075,3.225,-0.56888,-162.63,2064.5,4.8925,-1.6308,-0.84852,6.5233,-7.6347e-10,-0.42426,0,0,0.066667,-7.8949e-17,0,0.66667
0.31366,0.18441,4.7049,-0.47338,-127.88,1649.9,5.9392,-1.9797,-1.2109,7.919,3.8306e-11,-0.60547,0,0,0.066667,-3.158e-16,0,0.66667
0.95145,0.24594,14.272,-0.38108,-10.666,12.387,14.503,-4.8344,-1.4892,19.338,-1.432e-06,-0.74461,0,0,0.066667,-1.2632e-15,0,0.66667
0.99077,0.53119,14.862,0.046786,0.23079,0.59292,-1.8542,0.61805,-1.9878,-2.4722,-9.2197e-07,-0.99392,0,0,0.066667,3.3553e-16,0,0.66667
0.86689,0.43779,13.003,-0.093308,-6.9027,79.077,3.2355,-1.0785,-1.964,4.314,-1.8879e-09,-0.98202,0,0,0.066667,2.5264e-15,0,0.66667
0.46186,0.90018,6.9279,0.60027,141.54,1082,-11.09,3.6965,-0.71308,-14.786,6.4801e-12,-0.35654,0,0,0.066667,6.3159e-16,0,0.66667
0.46562,0.73428,6.9843,0.35141,82.408,1067.9,-6.545,2.1817,-1.5608,-8.7266,1.0439e-11,-0.78041,0,0,0.066667,6.3159e-16,0,0.66667
0.76473,0.7609,11.471,0.39135,48.579,235.33,-11.971,3.9903,-1.4633,-15.961,-3.979e-11,-0.73164,0,0,0.066667,-0,-0,0.66667
0.098408,0.80443,1.4761,0.45664,135.5,2577.9,-1.7975,0.59917,-1.2553,-2.3967,-5.1555e-08,-0.62765,0,0,0.066667,7.8949e-17,0,0.66667
0.99404,0.64014,14.911,0.21021,0.63675,0.57934,-8.3581,2.786,-1.8372,-11.144,2.6514e-06,-0.91862,0,0,0.066667,1.2632e-15,0,0.66667
0.69221,0.81168,10.383,0.46752,72.883,390.1,-12.945,4.315,-1.2206,-17.26,5.441e-12,-0.6103,0,0,0.066667,-3.158e-16,0,0.66667
0.29929,0.62281,4.4893,0.18422,50.214,1708.4,-2.2053,0.73511,-1.8827,-2.9404,2.4691e-11,-0.94134,0,0,0.066667,-3.158e-16,0,0.66667
0.90885,0.68066,13.633,0.27099,14.008,38.634,-9.8516,3.2839,-1.7409,-13.135,-6.8355e-09,-0.87046,0,0,0.066667,6.3159e-16,0,0.66667
0.55258,0.61331,8.2887,0.16997,35.327,776.1,-3.7569,1.2523,-1.8921,-5.0092,-1.2454e-11,-0.94603,0,0,0.066667,6.3159e-16,0,0.66667
0.08519,0.40236,1.2778,-0.14646,-43.536,2637,0.49906,-0.16635,-1.9182,0.66542,3.0678e-08,-0.9591,0,0,0.066667,3.9475e-17,0,0.66667
0.10825,0.20183,1.6237,-0.44725,-132.44,2533.9,1.9365,-0.64551,-1.2955,2.582,-1.1641e-08,-0.64775,0,0,0.066667,-0,-0,0.66667
0.031665,0.03733,0.47497,-0.694,-207.93,2878.2,0.87904,-0.29304,-0.29796,1.172,-3.6668e-05,-0.14898,0,0,0.066667,-0,-0,0.66667
0.21619,0.15132,3.2429,-0.52302,-149.42,2059.3,4.523,-1.5077,-1.0298,6.0307,-7.3722e-10,-0.51489,0,0,0.066667,4.4381e-16,0,0.66667
0.051414,0.59795,0.77121,0.14693,43.88,2789,-0.30217,0.10072,-1.9207,-0.40289,-2.4565e-07,-0.96035,0,0,0.066667,-0,-0,0.66667
0.51027,0.037254,7.6541,-0.69412,-153.96,915.11,14.168,-4.7225,-0.28272,18.89,1.5264e-11,-0.14136,0,0,0.066667,1.2632e-15,0,0.66667
0.08294,0.12949,1.2441,-0.55576,-165.44,2647.3,1.8438,-0.6146,-0.89868,2.4584,1.5419e-07,-0.44934,0,0,0.066667,-0,-0,0.66667
0.44312,0.93707,6.6468,0.6556,157.97,1149.6,-11.62,3.8735,-0.46816,-15.494,1.0569e-13,-0.23408,0,0,0.066667,-8.487e-16,0,0.66667
0.2362,0.86588,3.543,0.54883,155.31,1973.6,-5.1853,1.7284,-0.93341,-6.9138,-1.1344e-10,-0.46671,0,0,0.066667,3.158e-16,0,0.66667
0.55972,0.38976,8.3958,-0.16536,-33.975,753.74,3.7023,-1.2341,-1.9037,4.9363,1.162e-11,-0.95185,0,0,0.066667,-0,-0,0.66667
0.43897,0.0036207,6.5845,-0.74457,-180.32,1165.1,13.074,-4.3579,-0.035272,17.432,-1.6897e-11,-0.017636,0,0,0.066667,-0,-0,0.66667
0.83754,0.77516,12.563,0.41273,36.796,116.74,-13.827,4.6091,-1.389,-18.436,1.194e-09,-0.69452,0,0,0.066667,6.3159e-16,0,0.66667
0.33654,0.45015,5.0482,-0.074772,-19.848,1556.8,1.0066,-0.33552,-1.9736,1.3421,7.3919e-12,-0.98681,0,0,0.066667,-6.3159e-16,0,0.66667
0.23023,0.54214,3.4535,0.063215,17.923,1998.6,-0.58216,0.19405,-1.9833,-0.77622,1.9779e-12,-0.99166,0,0,0.066667,-0,-0,0.66667
0.94012,0.40432,14.102,-0.14353,-4.9219,17.217,5.3973,-1.7991,-1.9295,7.1964,-2.3436e-07,-0.96475,0,0,0.066667,1.579e-16,0,0.66667
0.46636,0.43249,6.9955,-0.10127,-23.715,1064.9,1.8891,-0.62971,-1.9665,2.5188,2.2635e-12,-0.98324,0,0,0.066667,-6.3159e-16,0,0.66667
0.028158,0.27018,0.42237,-0.34473,-103.18,2894,0.38828,-0.12943,-1.5776,0.5177,-6.7783e-06,-0.78881,0,0,0.066667,-3.9475e-17,0,0.66667
0.079436,0.52244,1.1915,0.03366,10.015,2662.8,-0.10695,0.035651,-2.0023,-0.1426,-2.6375e-08,-1.0012,0,0,0.066667,-0,-0,0.66667
0.55557,0.05728,8.3336,-0.66408,-137.65,768.23,14.758,-4.9193,-0.42631,19.677,7.5371e-12,-0.21316,0,0,0.066667,6.3159e-16,0,0.66667
0.21077,0.24305,3.1616,-0.38543,-110.33,2082.6,3.2495,-1.0832,-1.4657,4.3327,1.1785e-10,-0.73283,0,0,0.066667,-1.579e-16,0,0.66667
0.14824,0.15645,2.2235,-0.51533,-151.04,2356.2,3.0556,-1.0185,-1.0508,4.0741,-5.2145e-09,-0.52539,0,0,0.066667,-0,-0,0.66667
0.19553,0.38159,2.933,-0.17762,-51.151,2148.5,1.3892,-0.46307,-1.8817,1.8523,-1.1523e-11,-0.94087,0,0,0.066667,-0,-0,0.66667
0.74475,0.91589,11.171,0.62384,83.235,275.6,-18.584,6.1947,-0.61182,-24.779,2.0499e-11,-0.30591,0,0,0.066667,-1.2632e-15,0,0.66667
0.94901,0.069248,14.235,-0.64613,-19.165,15.224,24.527,-8.1758,-0.51359,32.703,3.3245e-06,-0.25679,0,0,0.066667,-0,-4.8534e-17,0.66667
0.12938,0.50742,1.9407,0.01113,3.2765,2439.5,-0.057597,0.019199,-1.9969,-0.076796,-9.5582e-10,-0.99845,0,0,0.066667,-0,-0,0.66667
0.87978,0.84159,13.197,0.51239,34.578,66.525,-18.031,6.0105,-1.0639,-24.042,5.2723e-08,-0.53194,0,0,0.066667,1.579e-16,0,0.66667
0.71192,0.8544,10.679,0.5316,78.497,345.06,-15.138,5.0461,-0.98898,-20.184,-1.0179e-12,-0.49449,0,0,0.066667,-0,-0,0.66667
0.55684,0.51423,8.3526,0.021348,4.406,762.62,-0.47549,0.1585,-1.9931,-0.63399,-4.7157e-12,-0.99656,0,0,0.066667,-0,-0,0.66667
0.067019,0.071265,1.0053,-0.6431,-191.96,2718.9,1.724,-0.57467,-0.52641,2.2987,1.1226e-06,-0.2632,0,0,0.066667,-0,-0,0.66667
0.78774,0.15648,11.816,-0.51528,-58.501,194.3,16.236,-5.4121,-1.0514,21.649,7.6397e-10,-0.52572,0,0,0.066667,-0,-0,0.66667
0.81228,0.093668,12.184,-0.6095,-62.085,154.65,19.803,-6.6011,-0.69147,26.404,-1.3892e-09,-0.34573,0,0,0.066667,3.4305e-16,0,0.66667
0.75458,0.67652,11.319,0.26479,34.07,254.43,-7.9921,2.664,-1.7473,-10.656,-9.6598e-12,-0.87366,0,0,0.066667,6.3159e-16,0,0.66667
0.55049,0.64035,8.2573,0.21052,43.904,782.74,-4.6356,1.5452,-1.841,-6.1808,-6.7226e-12,-0.92052,0,0,0.066667,1.2632e-15,0,0.66667
0.6316,0.10491,9.4741,-0.59263,-106.73,545.03,14.972,-4.9908,-0.74515,19.963,1.7986e-12,-0.37257,0,0,0.066667,-0,-0,0.66667
0.43666,0.89167,6.5499,0.58751,142.51,1172.9,-10.262,3.4206,-0.78066,-13.682,1.0454e-12,-0.39033,0,0,0.066667,-0,7.8593e-17,0.66667
0.30785,0.48799,4.6177,-0.018015,-4.8819,1673.2,0.22184,-0.073946,-1.9953,0.29579,1.9519e-11,-0.99763,0,0,0.066667,-3.158e-16,0,0.66667
0.20771,0.44408,3.1157,-0.083885,-24.031,2095.6,0.69695,-0.23232,-1.972,0.92927,3.1133e-12,-0.986,0,0,0.066667,-6.3159e-16,0,0.66667
0.77076,0.66046,11.561,0.24068,29.184,223.58,-7.4204,2.4735,-1.7904,-9.8939,1.0616e-11,-0.89521,0,0,0.066667,-2.5264e-15,0,0.66667
0.93478,0.97998,14.022,0.71997,27.224,23.344,-26.921,8.9735,-0.15818,-35.894,-1.8721e-06,-0.079088,0,0,0.066667,2.5264e-15,-7.271e-17,0.66667
0.62152,0.31795,9.3227,-0.27308,-50.14,571.65,6.7889,-2.263,-1.7345,9.0519,2.7693e-12,-0.86726,0,0,0.066667,1.2632e-15,0,0.66667
0.53425,0.80619,8.0137,0.45928,98.291,835.26,-9.8149,3.2716,-1.2509,-13.086,4.8361e-12,-0.62544,0,0,0.066667,-6.3159e-16,0,0.66667
0.88327,0.24692,13.249,-0.37962,-24.871,62.259,13.412,-4.4707,-1.4821,17.883,2.0183e-08,-0.74105,0,0,0.066667,-1.3175e-15,0,0.66667
0.044803,0.12335,0.67204,-0.56497,-169.01,2818.9,1.0125,-0.33748,-0.86967,1.35,1.8072e-05,-0.43484,0,0,0.066667,-1.0856e-16,-8.6613e-17,0.66667
0.30268,0.98015,4.5401,0.72022,196.24,1695.4,-8.7198,2.9066,-0.15032,-11.626,1.6964e-13,-0.075162,0,0,0.066667,-0,-0,0.66667
0.38247,0.83569,5.7371,0.50353,128.8,1376.6,-7.7034,2.5678,-1.0923,-10.271,-1.2859e-11,-0.54614,0,0,0.066667,-0,-0,0.66667
0.031099,0.038127,0.46649,-0.69281,-207.58,2880.8,0.86186,-0.28732,-0.30495,1.1491,-4.9733e-05,-0.15247,0,0,0.066667,-0,5.4203e-17,0.66667
0.51993,0.45172,7.799,-0.072419,-15.811,881.35,1.5061,-0.50204,-1.9784,2.0082,2.6795e-12,-0.98919,0,0,0.066667,-0,-0,0.66667
0.94058,0.87963,14.109,0.56945,19.559,18.871,-21.424,7.1414,-0.84794,-28.566,-6.1024e-06,-0.42397,0,0,0.066667,-0,-0,0.66667
0.79725,0.31631,11.959,-0.27554,-29.983,177.2,8.7869,-2.929,-1.741,11.716,1.0166e-10,-0.87049,0,0,0.066667,-2.5264e-15,0,0.66667
0.53509,0.91167,8.0264,0.6175,132.09,833.13,-13.217,4.4056,-0.64303,-17.622,1.0539e-11,-0.32151,0,0,0.066667,-0,-0,0.66667
0.67654,0.87204,10.148,0.55806,90.644,428.33,-15.102,5.034,-0.89012,-20.136,-4.3636e-12,-0.44506,0,0,0.066667,6.3159e-16,0,0.66667
0.78523,0.42885,11.779,-0.10673,-12.215,197.32,3.3523,-1.1174,-1.9576,4.4698,3.1318e-11,-0.97878,0,0,0.066667,6.3159e-16,0,0.66667
0.26109,0.27632,3.9164,-0.33552,-93.637,1867.7,3.5041,-1.168,-1.5971,4.6721,2.3444e-11,-0.79855,0,0,0.066667,-3.158e-16,0,0.66667
0.27566,0.85734,4.135,0.53601,148.43,1806.9,-5.9103,1.9701,-0.97333,-7.8804,1.0602e-11,-0.48666,0,0,0.066667,-0,-0,0.66667
0.60522,0.35685,9.0784,-0.21473,-40.707,617.6,5.1983,-1.7328,-1.8335,6.9311,1.5632e-12,-0.91673,0,0,0.066667,-0,-0,0.66667
0.67418,0.58495,10.113,0.12743,20.781,432.82,-3.4365,1.1455,-1.945,-4.582,1.2208e-12,-0.97251,0,0,0.066667,-0,-0,0.66667
0.0036135,0.87296,0.054202,0.55944,167.68,3004.9,-0.080846,0.02696,-0.8872,-0.10779,1.64e-05,-0.4436,0,0,0.066667,-7.4015e-18,-3.8571e-17,0.66667
0.8557,0.026302,12.836,-0.71055,-57.038,95.139,24.321,-8.1069,-0.20414,32.428,-1.8809e-08,-0.10207,0,0,0.066667,-0,-0,0.66667
0.14491,0.82087,2.1737,0.48131,141.2,2370.9,-2.7899,0.92997,-1.1737,-3.7199,3.6006e-09,-0.58687,0,0,0.066667,-3.158e-16,0,0.66667
0.51235,0.27029,7.6853,-0.34457,-76.077,906.92,7.0616,-2.3539,-1.5775,9.4155,6.9642e-12,-0.78876,0,0,0.066667,6.3159e-16,0,0.66667
0.56218,0.13851,8.4327,-0.54223,-111.11,747.11,12.193,-4.0644,-0.9648,16.258,1.0272e-11,-0.4824,0,0,0.066667,-0,9.226e-17,0.66667
0.0071911,0.63552,0.10787,0.20328,60.872,2988.7,-0.058473,0.01949,-1.8467,-0.077965,-2.145e-06,-0.92334,0,0,0.066667,1.9737e-17,0,0.66667
0.42885,0.29313,6.4328,-0.31031,-75.822,1200.9,5.3231,-1.7744,-1.6513,7.0974,9.7251e-12,-0.82563,0,0,0.066667,6.3159e-16,0,0.66667
0.53374,0.97323,8.0061,0.70985,152.24,837.94,-15.155,5.0517,-0.21109,-20.207,1.4234e-11,-0.10555,0,0,0.066667,-0,-0,0.66667
0.69071,0.66443,10.361,0.24665,38.565,392.95,-6.8145,2.2715,-1.7838,-9.086,1.0481e-13,-0.89189,0,0,0.066667,1.2632e-15,0,0.66667
0.90317,0.71305,13.548,0.31957,17.514,43.5,-11.545,3.8484,-1.6376,-15.394,4.8892e-08,-0.81882,0,0,0.066667,-0,-0,0.66667
0.068561,0.3189,1.0284,-0.27165,-80.973,2711.8,0.74498,-0.24833,-1.7325,0.9933,4.1919e-07,-0.86624,0,0,0.066667,1.579e-16,0,0.66667
0.2831,0.42108,4.2465,-0.11838,-32.601,1775.3,1.3405,-0.44685,-1.9542,1.7874,2.2702e-11,-0.97709,0,0,0.066667,-0,-0,0.66667
0.52793,0.72903,7.919,0.34355,74.181,855.46,-7.2548,2.4183,-1.5799,-9.6731,3.1348e-12,-0.78997,0,0,0.066667,-0,-0,0.66667
0.29023,0.95158,4.3535,0.67737,186.02,1746.6,-7.8638,2.6213,-0.36237,-10.485,2.1282e-11,-0.18119,0,0,0.066667,-0,-0,0.66667
0.42013,0.45016,6.302,-0.074766,-18.427,1233,1.2565,-0.41882,-1.9846,1.6753,1.2215e-11,-0.99228,0,0,0.066667,-6.3159e-16,0,0.66667
0.98205,0.077172,14.731,-0.63424,-6.6629,4.456,24.914,-8.3048,-0.57199,33.219,6.8175e-06,-0.28599,0,0,0.066667,1.2632e-15,0,0.66667
0.056933,0.4301,0.854,-0.10486,-31.295,2764.1,0.23879,-0.079598,-1.9562,0.31839,1.0903e-07,-0.97811,0,0,0.066667,-0,-0,0.66667
0.92891,0.067207,13.934,-0.64919,-26.61,26.321,24.122,-8.0406,-0.49586,32.162,-5.9043e-06,-0.24793,0,0,0.066667,-0,-0,0.66667
0.66798,0.90439,10.02,0.60659,100.66,449.86,-16.208,5.4025,-0.69099,-21.61,-1.7693e-12,-0.34549,0,0,0.066667,-3.158e-16,0,0.66667
0.49858,0.99958,7.4787,0.74937,168.93,954.82,-14.945,4.9816,-0.010585,-19.926,-2.7098e-11,-0.0052927,0,0,0.066667,1.1645e-15,-4.213e-18,0.66667
0.4647,0.30432,6.9705,-0.29352,-68.896,1071,5.4559,-1.8186,-1.6916,7.2745,-4.0128e-12,-0.84582,0,0,0.066667,-3.158e-16,0,0.66667
0.55893,0.45056,8.384,-0.074165,-15.256,756.11,1.6581,-0.55271,-1.9792,2.2109,5.5187e-12,-0.98961,0,0,0.066667,-0,-0,0.66667
0.29159,0.22546,4.3738,-0.41181,-112.87,1740.4,4.8032,-1.6011,-1.3928,6.4042,1.6585e-11,-0.69641,0,0,0.066667,-0,-0,0.66667
0.1718,0.26951,2.577,-0.34574,-100.5,2252.2,2.3759,-0.79198,-1.5864,3.1679,-2.0302e-10,-0.79319,0,0,0.066667,-0,-0,0.66667
0.61974,0.038283,9.2961,-0.69258,-127.91,578.27,17.169,-5.7229,-0.29034,22.892,4.8939e-12,-0.14517,0,0,0.066667,-0,-0,0.66667
0.98848,0.44304,14.827,-0.085442,-0.5381,0.88785,3.3783,-1.1261,-1.9722,4.5044,-1.9396e-07,-0.9861,0,0,0.066667,2.5264e-15,0,0.66667
0.51622,0.018567,7.7433,-0.72215,-158.88,895.43,14.912,-4.9705,-0.15479,19.882,1.3023e-11,-0.077397,0,0,0.066667,-0,-0,0.66667
0.67101,0.84887,10.065,0.5233,86.149,441.86,-14.046,4.6819,-1.0349,-18.727,1.1422e-12,-0.51745,0,0,0.066667,-0,-9.8457e-17,0.66667
0.51953,0.52528,7.793,0.03792,8.2833,882.66,-0.78802,0.26267,-1.9934,-1.0507,-9.9587e-13,-0.99672,0,0,0.066667,-0,-0,0.66667
0.20003,0.51937,3.0005,0.029061,8.3524,2128.9,-0.23252,0.077507,-1.9971,-0.31003,-2.7861e-11,-0.99855,0,0,0.066667,-0,-0,0.66667
0.5787,0.99398,8.6804,0.74097,147.84,697.64,-17.152,5.7173,-0.057554,-22.869,-4.9099e-12,-0.028777,0,0,0.066667,-0,-0,0.66667
0.95788,0.89281,14.368,0.58922,14.446,10.983,-22.576,7.5253,-0.76177,-30.101,3.0238e-05,-0.38088,0,0,0.066667,-0,-0,0.66667
0.69242,0.21137,10.386,-0.43295,-67.442,389.47,11.991,-3.9971,-1.3298,15.988,3.9613e-13,-0.66492,0,0,0.066667,6.3159e-16,0,0.66667
0.027337,0.20901,0.41005,-0.43649,-130.68,2897.7,0.47729,-0.15911,-1.3207,0.63638,-1.5092e-05,-0.66036,0,0,0.066667,3.9475e-17,0,0.66667
0.36312,0.53918,5.4468,0.058775,15.274,1451.3,-0.8537,0.28457,-1.9864,-1.1383,1.4599e-11,-0.99321,0,0,0.066667,-0,-0,0.66667
0.63389,0.62693,9.5083,0.19039,34.063,537.5,-4.8275,1.6092,-1.8661,-6.4367,1.4104e-11,-0.93305,0,0,0.066667,-2.5264e-15,0,0.66667
0.56707,0.87729,8.5061,0.56594,115.04,732.11,-12.837,4.2791,-0.85891,-17.116,-3.4435e-12,-0.42946,0,0,0.066667,1.2632e-15,0,0.66667
0.12133,0.2166,1.82,-0.4251,-125.48,2475.5,2.0632,-0.68772,-1.3572,2.7509,-1.9694e-08,-0.67861,0,0,0.066667,-3.9475e-17,0,0.66667
0.93647,0.038718,14.047,-0.69192,-25.475,22.115,25.919,-8.6396,-0.30538,34.558,1.0612e-05,-0.15269,0,0,0.066667,-0,-5.7433e-17,0.66667
0.39384,0.036604,5.9076,-0.69509,-176.13,1333.5,10.95,-3.6501,-0.28252,14.6,1.3312e-11,-0.14126,0,0,0.066667,-0,-0,0.66667
0.72926,0.50845,10.939,0.01267,1.7721,305.83,-0.36958,0.12319,-1.9953,-0.49277,-2.692e-12,-0.99765,0,0,0.066667,-0,-0,0.66667
0.78569,0.071463,11.785,-0.64281,-73.7,198.64,20.202,-6.7339,-0.52791,26.936,-3.4252e-09,-0.26395,0,0,0.066667,2.5264e-15,0,0.66667
0.21299,0.19504,3.1949,-0.45744,-130.84,2073,3.8973,-1.2991,-1.251,5.1963,-2.9617e-11,-0.62552,0,0,0.066667,-0,-0,0.66667
0.66262,0.018374,9.9394,-0.72244,-121.54,464.07,19.148,-6.3827,-0.13829,25.531,-3.5385e-12,-0.069144,0,0,0.066667,-0,-0,0.66667
0.52337,0.35384,7.8505,-0.21923,-47.638,870.18,4.5896,-1.5299,-1.8227,6.1194,5.7465e-13,-0.91133,0,0,0.066667,-0,-0,0.66667
0.1783,0.75623,2.6745,0.38435,111.47,2223.8,-2.7412,0.91372,-1.4693,-3.6549,7.3014e-11,-0.73464,0,0,0.066667,-0,-0,0.66667
0.71844,0.8444,10.777,0.5166,74.828,330.52,-14.846,4.9487,-1.0629,-19.795,1.4875e-11,-0.53144,0,0,0.066667,-2.5264e-15,8.2143e-17,0.66667
0.54058,0.53153,8.1086,0.047298,10.015,814.13,-1.0227,0.34091,-1.9877,-1.3636,-3.5913e-12,-0.99385,0,0,0.066667,2.5264e-15,0,0.66667
0.21409,0.65289,3.2114,0.22933,65.525,2068.1,-1.9639,0.65465,-1.8104,-2.6186,1.3377e-11,-0.90518,0,0,0.066667,-0,-0,0.66667
0.41806,0.52392,6.2709,0.035881,8.8621,1240.7,-0.60002,0.20001,-1.994,-0.80003,-1.1758e-11,-0.99701,0,0,0.066667,-0,-0,0.66667
0.68076,0.60811,10.211,0.16216,26.013,416.71,-4.4158,1.4719,-1.9002,-5.8877,3.6025e-12,-0.95009,0,0,0.066667,-0,-0,0.66667
0.99376,0.70561,14.906,0.30842,1.0013,0.93764,-12.26,4.0866,-1.6559,-16.346,4.7515e-06,-0.82795,0,0,0.066667,-0,-0,0.66667
0.54844,0.24087,8.2266,-0.38869,-81.367,789.62,8.5268,-2.8423,-1.4682,11.369,5.7669e-12,-0.73409,0,0,0.066667,-0,-0,0.66667
0.79392,0.92846,11.909,0.64269,71.179,184.55,-20.41,6.8032,-0.5321,-27.213,-7.2856e-10,-0.26605,0,0,0.066667,-0,-7.1543e-17,0.66667
0.33058,0.39259,4.9587,-0.16111,-42.962,1580.9,2.1304,-0.71014,-1.9097,2.8406,2.5647e-11,-0.95484,0,0,0.066667,-6.3159e-16,0,0.66667
0.51156,0.74819,7.6734,0.37228,82.294,909.64,-7.6178,2.5393,-1.5061,-10.157,-4.6647e-12,-0.75305,0,0,0.066667,8.6844e-16,0,0.66667
0.83503,0.060414,12.525,-0.65938,-59.797,121.67,22.024,-7.3413,-0.44898,29.365,4.7154e-08,-0.22449,0,0,0.066667,-2.2648e-16,0,0.66667
0.97046,0.96762,14.557,0.70143,12.198,7.6992,-27.228,9.0761,-0.25666,-36.305,-8.647e-05,-0.12833,0,0,0.066667,-1.7369e-15,0,0.66667
0.17847,0.99939,2.6771,0.74909,217.57,2223.5,-5.3476,1.7825,-0.0002109,-7.1302,2.8199e-10,-0.00010545,0,0,0.066667,4.9343e-17,0,0.66667
0.85131,0.80829,12.77,0.46244,38.022,98.934,-15.747,5.2491,-1.2339,-20.996,-7.4563e-09,-0.61695,0,0,0.066667,2.3989e-15,0,0.66667
0.9884,0.29136,14.826,-0.31297,-2.0153,1.4952,12.373,-4.1245,-1.6496,16.498,-2.8393e-06,-0.82479,0,0,0.066667,-0,-0,0.66667
0.45046,0.0052165,6.7569,-0.74218,-177.46,1123.4,13.373,-4.4576,-0.043555,17.83,-1.0695e-11,-0.021778,0,0,0.066667,-0,-0,0.66667
0.30796,0.75736,4.6194,0.38604,104.66,1673,-4.7554,1.5851,-1.4671,-6.3405,4.0186e-12,-0.73357,0,0,0.066667,-0,-0,0.66667
0.91246,0.27683,13.687,-0.33475,-16.656,36.02,12.218,-4.0726,-1.5965,16.29,2.3991e-08,-0.79827,0,0,0.066667,6.3159e-16,0,0.66667
0.21986,0.012547,3.2979,-0.73118,-208.73,2043.9,6.4302,-2.1434,-0.106,8.5736,-2.4555e-10,-0.052998,0,0,0.066667,6.3159e-16,0,0.66667
0.98826,0.78533,14.824,0.42799,2.8277,2.0733,-16.919,5.6396,-1.3476,-22.558,1.4009e-05,-0.67379,0,0,0.066667,-0,-0,0.66667
0.40154,0.51792,6.0231,0.026887,6.75,1302.9,-0.43186,0.14395,-1.9937,-0.57581,2.2995e-13,-0.99684,0,0,0.066667,1.2632e-15,0,0.66667
0.092234,0.92904,1.3835,0.64356,191.33,2605.7,-2.3743,0.79144,-0.53298,-3.1658,9.648e-07,-0.26649,0,0,0.066667,-7.8949e-17,-6.2349e-17,0.66667
0.13677,0.28011,2.0516,-0.32983,-96.942,2406.8,1.8045,-0.6015,-1.6127,2.406,7.0715e-09,-0.80635,0,0,0.066667,-1.9737e-17,0,0.66667
0.47707,0.18478,7.1561,-0.47283,-109.4,1027.9,9.023,-3.0077,-1.1996,12.031,-8.2423e-12,-0.59982,0,0,0.066667,9.4739e-16,0,0.66667
0.060948,0.26878,0.91422,-0.34683,-103.5,2746.1,0.84553,-0.28184,-1.5775,1.1274,2.2601e-07,-0.78873,0,0,0.066667,-7.8949e-17,0,0.66667
0.25189,0.04275,3.7783,-0.68588,-192.64,1907.2,6.9105,-2.3035,-0.33136,9.214,6.1577e-11,-0.16568,0,0,0.066667,-0,-0,0.66667
0.795,0.45099,11.925,-0.073516,-8.073,180.57,2.3378,-0.77927,-1.9847,3.1171,-4.865e-12,-0.99236,0,0,0.066667,1.2632e-15,0,0.66667
0.78533,0.226,11.78,-0.411,-47.087,197.98,12.911,-4.3036,-1.3974,17.214,-1.143e-10,-0.69869,0,0,0.066667,-0,-0,0.66667
0.81082,0.44991,12.162,-0.075141,-7.6789,154.95,2.437,-0.81234,-1.9846,3.2494,2.531e-11,-0.9923,0,0,0.066667,-0,-0,0.66667
0.046263,0.14681,0.69394,-0.52978,-158.44,2812.3,0.98035,-0.32678,-1.0112,1.3071,9.211e-06,-0.50561,0,0,0.066667,-0,1.0503e-16,0.66667
0.76645,0.18365,11.497,-0.47452,-58.564,232.46,14.548,-4.8493,-1.2083,19.397,2.8977e-11,-0.60417,0,0,0.066667,1.2632e-15,0,0.66667
0.80685,0.25212,12.103,-0.37181,-38.765,161.93,12,-3.9999,-1.5045,16,1.5334e-10,-0.75223,0,0,0.066667,-0,-0,0.66667
0.01605,0.0094212,0.24075,-0.73587,-220.69,2948.7,0.47208,-0.15742,-0.08499,0.62941,-8.9017e-05,-0.042495,0,0,0.066667,-0,-0,0.66667
0.39133,0.044415,5.8699,-0.68338,-173.55,1343.1,10.697,-3.5657,-0.34807,14.263,1.4492e-11,-0.17403,0,0,0.066667,-0,-0,0.66667
0.86558,0.98975,12.984,0.73463,55.251,83.64,-25.435,8.4784,-0.075435,-33.914,5.6118e-08,-0.037717,0,0,0.066667,-0,-0,0.66667
0.95847,0.019304,14.377,-0.72104,-17.56,11.856,27.644,-9.2147,-0.14676,36.859,-3.0658e-05,-0.073379,0,0,0.066667,-0,-0,0.66667
0.91959,0.75894,13.794,0.38841,17.819,30.948,-14.287,4.7624,-1.4664,-19.049,5.1788e-08,-0.73321,0,0,0.066667,-0,-0,0.66667
0.54699,0.71422,8.2048,0.32134,67.405,794.04,-7.0307,2.3436,-1.6448,-9.3742,6.1462e-13,-0.82242,0,0,0.066667,3.158e-16,0,0.66667
0.30992,0.40668,4.6488,-0.13998,-37.882,1664.7,1.7353,-0.57844,-1.9335,2.3138,4.1067e-11,-0.96675,0,0,0.066667,1.2632e-15,0,0.66667
0.58926,0.18277,8.839,-0.47585,-93.02,664.84,11.216,-3.7387,-1.1924,14.955,8.6189e-12,-0.59619,0,0,0.066667,3.158e-16,0,0.66667
0.59599,0.35697,8.9399,-0.21455,-41.387,644.36,5.1148,-1.7049,-1.839,6.8197,1.8709e-12,-0.91951,0,0,0.066667,-0,-0,0.66667
0.66455,0.17444,9.9683,-0.48834,-81.638,457.93,12.981,-4.327,-1.1455,17.308,3.2978e-12,-0.57277,0,0,0.066667,4.762e-16,0,0.66667
0.59082,0.61068,8.8622,0.16602,32.328,659.48,-3.9235,1.3078,-1.9025,-5.2313,4.019e-14,-0.95124,0,0,0.066667,-0,-0,0.66667
0.86806,0.053434,13.021,-0.66985,-49.452,80.297,23.259,-7.7529,-0.39849,31.012,4.2086e-09,-0.19924,0,0,0.066667,6.3159e-16,0,0.66667
0.37398,0.44872,5.6097,-0.076926,-19.806,1408.9,1.1507,-0.38358,-1.9863,1.5343,1.0357e-11,-0.99313,0,0,0.066667,-0,-0,0.66667
0.24402,0.73298,3.6602,0.34947,98.439,1940,-3.4111,1.137,-1.5601,-4.5481,-3.5594e-13,-0.78005,0,0,0.066667,3.158e-16,0,0.66667
0.020487,0.25432,0.3073,-0.36852,-110.35,2928.7,0.30199,-0.10067,-1.5139,0.40265,-8.1559e-06,-0.75697,0,0,0.066667,-0,-0,0.66667
0.23269,0.16672,3.4903,-0.49991,-141.69,1988.5,4.653,-1.551,-1.1162,6.204,1.4151e-10,-0.55809,0,0,0.066667,-0,-0,0.66667
0.1616,0.25634,2.424,-0.36549,-106.62,2297.1,2.3626,-0.78753,-1.5208,3.1501,-1.7086e-11,-0.76039,0,0,0.066667,-0,-0,0.66667
0.23816,0.78434,3.5724,0.42651,120.53,1965,-4.0631,1.3544,-1.3525,-5.4174,-5.6013e-12,-0.67625,0,0,0.066667,6.3159e-16,0,0.66667
0.88096,0.085815,13.214,-0.62128,-41.618,66.03,21.893,-7.2976,-0.62237,29.191,-2.0698e-07,-0.31119,0,0,0.066667,6.3159e-16,0,0.66667
0.7316,0.53757,10.974,0.05635,7.8241,300.89,-1.649,0.54967,-1.9903,-2.1987,-2.3355e-12,-0.99513,0,0,0.066667,-0,-0,0.66667
0.24339,0.12656,3.6508,-0.56017,-157.95,1943,5.4535,-1.8178,-0.87946,7.2714,-1.0985e-10,-0.43973,0,0,0.066667,-6.3159e-16,0,0.66667
0.79305,0.58087,11.896,0.12131,13.435,183.9,-3.8482,1.2827,-1.9458,-5.1309,-1.405e-11,-0.97292,0,0,0.066667,-0,-0,0.66667
0.54412,0.8354,8.1618,0.5031,106.08,803.71,-10.95,3.6499,-1.1014,-14.6,-1.4309e-12,-0.55072,0,0,0.066667,6.3159e-16,0,0.66667
0.40649,0.91017,6.0973,0.61526,153.96,1285.2,-10.004,3.3346,-0.66559,-13.338,1.6754e-11,-0.33279,0,0,0.066667,-0,-0,0.66667
0.2058,0.52327,3.087,0.034898,10.006,2103.8,-0.28728,0.095761,-1.9973,-0.38304,4.2071e-11,-0.99866,0,0,0.066667,3.158e-16,0,0.66667
0.31073,0.31513,4.661,-0.27731,-75.02,1661.5,3.4468,-1.1489,-1.732,4.5957,2.2745e-11,-0.86602,0,0,0.066667,-0,-0,0.66667
0.079247,0.64631,1.1887,0.21946,65.308,2663.7,-0.69567,0.23189,-1.8357,-0.92756,-1.3199e-07,-0.91787,0,0,0.066667,-0,-0,0.66667
0.23362,0.88911,3.5044,0.58366,165.41,1984.6,-5.4543,1.8181,-0.79706,-7.2724,-4.02e-10,-0.39853,0,0,0.066667,-3.158e-16,0,0.66667
0.66575,0.39219,9.9863,-0.16172,-26.922,453.95,4.3065,-1.4355,-1.9012,5.742,1.5191e-11,-0.95061,0,0,0.066667,-2.0516e-15,0,0.66667
0.35102,0.56818,5.2653,0.10227,26.841,1499.1,-1.4359,0.47863,-1.9569,-1.9145,9.0054e-12,-0.97846,0,0,0.066667,-0,-0,0.66667
0.81972,0.0065887,12.296,-0.74012,-72.829,144.29,24.268,-8.0892,-0.046366,32.357,2.9778e-09,-0.023183,0,0,0.066667,5.0527e-15,0,0.66667
0.66115,0.79381,9.9173,0.44072,74.252,466.37,-11.655,3.8851,-1.3053,-15.54,-5.9774e-13,-0.65267,0,0,0.066667,-0,-0,0.66667
0.62435,0.5208,9.3653,0.031199,5.6929,563.48,-0.77916,0.25972,-2.0054,-1.0389,6.683e-12,-1.0027,0,0,0.066667,-0,-0,0.66667
0.42028,0.53119,6.3042,0.046788,11.53,1232.4,-0.78656,0.26219,-1.9988,-1.0487,-8.9281e-12,-0.99941,0,0,0.066667,8.0429e-16,0,0.66667
0.645,0.33561,9.675,-0.24658,-43.071,507.8,6.3619,-2.1206,-1.7811,8.4825,6.541e-12,-0.89053,0,0,0.066667,-0,-0,0.66667
0.87483,0.76858,13.122,0.40287,28.195,71.168,-14.098,4.6993,-1.4338,-18.797,-9.2427e-09,-0.71691,0,0,0.066667,-0,-0,0.66667
0.31127,0.97505,4.6691,0.71258,193.02,1660.2,-8.8722,2.9574,-0.20155,-11.83,-4.0412e-12,-0.10078,0,0,0.066667,-0,-0,0.66667
0.34275,0.71128,5.1413,0.31692,83.756,1532.2,-4.345,1.4483,-1.6506,-5.7934,6.7288e-12,-0.8253,0,0,0.066667,-0,-0,0.66667
0.84868,0.79629,12.73,0.44443,37.13,102.18,-15.087,5.0291,-1.2935,-20.116,-7.9721e-09,-0.64677,0,0,0.066667,-0,-0,0.66667
0.52989,0.1128,7.9484,-0.5808,-125.18,849.84,12.311,-4.1035,-0.80651,16.414,1.4178e-11,-0.40326,0,0,0.066667,-6.3159e-16,0,0.66667
0.92369,0.83095,13.855,0.49643,21.7,28.678,-18.342,6.114,-1.1279,-24.456,1.6826e-07,-0.56397,0,0,0.066667,1.2632e-15,0,0.66667
0.18755,0.012216,2.8133,-0.73168,-211.76,2183.8,5.4891,-1.8297,-0.10801,7.3188,-3.6787e-09,-0.054004,0,0,0.066667,-0,-0,0.66667
0.21487,0.29796,3.2231,-0.30305,-86.571,2064.8,2.6047,-0.86824,-1.6714,3.473,6.5007e-11,-0.83572,0,0,0.066667,-0,-0,0.66667
0.86246,0.77279,12.937,0.40918,31.278,85.111,-14.116,4.7053,-1.4051,-18.821,1.279e-08,-0.70255,0,0,0.066667,6.3159e-16,0,0.66667
0.09949,0.38882,1.4924,-0.16676,-49.441,2572.9,0.66366,-0.22122,-1.8958,0.88487,3.0358e-08,-0.94788,0,0,0.066667,-1.579e-16,0,0.66667
0.47166,0.6585,7.0749,0.23775,55.332,1046.3,-4.4854,1.4951,-1.8008,-5.9806,5.3646e-13,-0.90041,0,0,0.066667,-0,-0,0.66667
0.8394,0.98559,12.591,0.72838,64.525,116.23,-24.456,8.1521,-0.11059,-32.608,2.1926e-11,-0.055295,0,0,0.066667,-1.2632e-15,0,0.66667
0.69374,0.010883,10.406,-0.73368,-114.16,387.99,20.359,-6.7864,-0.080342,27.145,3.6273e-12,-0.040171,0,0,0.066667,2.5264e-15,0,0.66667
0.46224,0.52394,6.9336,0.035911,8.4506,1079.5,-0.66399,0.22133,-1.9897,-0.88532,-7.9268e-12,-0.99487,0,0,0.066667,-0,-0,0.66667
0.1652,0.88897,2.478,0.58345,170.12,2281.5,-3.8554,1.2851,-0.78338,-5.1405,9.6083e-09,-0.39169,0,0,0.066667,-0,-0,0.66667
0.55082,0.30946,8.2622,-0.28581,-59.587,781.85,6.2972,-2.0991,-1.7085,8.3963,5.7083e-12,-0.85424,0,0,0.066667,9.4739e-16,0,0.66667
0.98798,0.64704,14.82,0.22056,1.4637,1.2232,-8.7162,2.9054,-1.826,-11.622,4.8419e-07,-0.91298,0,0,0.066667,-1.2632e-15,0,0.66667
0.80516,0.56896,12.077,0.10344,10.855,163.94,-3.3313,1.1104,-1.9559,-4.4418,5.4525e-11,-0.97797,0,0,0.066667,-2.5264e-15,0,0.66667
0.054929,0.72349,0.82393,0.33524,100.11,2773.2,-0.73657,0.24552,-1.5946,-0.98209,-1.7593e-07,-0.79729,0,0,0.066667,-0,-0,0.66667
0.71093,0.90805,10.664,0.61207,90.696,347.71,-17.406,5.8019,-0.66264,-23.207,5.2012e-11,-0.33132,0,0,0.066667,-2.5264e-15,0,0.66667
0.97662,0.88206,14.649,0.57309,7.8073,5.0766,-22.387,7.4624,-0.82606,-29.85,-5.3642e-05,-0.41303,0,0,0.066667,2.5264e-15,0,0.66667
0.19337,0.9309,2.9006,0.64634,186.56,2158.3,-4.9994,1.6665,-0.50965,-6.6659,5.1038e-09,-0.25483,0,0,0.066667,-3.158e-16,0,0.66667
0.95641,0.80361,14.346,0.45541,11.484,10.675,-17.422,5.8074,-1.2624,-23.23,7.3546e-06,-0.63119,0,0,0.066667,-0,-0,0.66667
0.23335,0.53065,3.5002,0.045981,13.017,1985.3,-0.42918,0.14306,-2.0012,-0.57224,1.1566e-11,-1.0006,0,0,0.066667,1.9244e-16,0,0.66667
0.8194,0.5339,12.291,0.050845,4.9826,141.79,-1.6665,0.5555,-1.9856,-2.222,1.7731e-10,-0.99278,0,0,0.066667,-0,-0,0.66667
0.14942,0.38342,2.2413,-0.17487,-51.193,2350.7,1.0452,-0.34838,-1.8853,1.3935,-1.8529e-10,-0.94263,0,0,0.066667,3.158e-16,0,0.66667
0.5141,0.23897,7.7116,-0.39154,-86.25,901.2,8.0517,-2.6839,-1.4603,10.736,9.4396e-12,-0.73013,0,0,0.066667,-6.3159e-16,0,0.66667
0.36401,0.67803,5.4602,0.26705,69.363,1448,-3.8884,1.2961,-1.743,-5.1845,1.0724e-11,-0.87152,0,0,0.066667,3.158e-16,0,0.66667
0.67069,0.36763,10.06,-0.19855,-32.664,441.61,5.3267,-1.7756,-1.8668,7.1023,4.6056e-12,-0.9334,0,0,0.066667,6.3159e-16,0,0.66667
0.17912,0.55688,2.6868,0.085316,24.725,2220,-0.61126,0.20375,-1.9682,-0.81502,1.1687e-10,-0.98412,0,0,0.066667,7.8949e-17,0,0.66667
0.57975,0.60444,8.6962,0.15665,31.113,692.44,-3.6328,1.2109,-1.9177,-4.8437,5.1108e-12,-0.95887,0,0,0.066667,-0,-0,0.66667
0.0024237,0.43417,0.036355,-0.098743,-29.566,3010.3,0.0095724,-0.0031906,-1.9684,0.012763,2.3399e-07,-0.98421,0,0,0.066667,1.2336e-18,0,0.66667
0.42565,0.52367,6.3848,0.03551,8.7021,1212.4,-0.60459,0.20153,-1.9942,-0.80612,-2.6359e-12,-0.99709,0,0,0.066667,-0,-0,0.66667
0.51579,0.38209,7.7369,-0.17687,-38.847,895.16,3.6492,-1.2164,-1.9001,4.8655,8.0618e-12,-0.95007,0,0,0.066667,-0,-0,0.66667
0.8378,0.85272,12.567,0.52908,47.16,117,-17.73,5.9102,-0.99938,-23.641,1.7539e-09,-0.49969,0,0,0.066667,-0,-0,0.66667
0.75764,0.89539,11.365,0.59309,75.664,249.9,-17.974,5.9913,-0.74283,-23.965,-3.1631e-10,-0.37141,0,0,0.066667,6.3159e-16,0,0.66667
0.091892,0.55444,1.3784,0.081655,24.243,2607,-0.30014,0.10005,-1.9807,-0.40018,-6.7521e-09,-0.99033,0,0,0.066667,-0,-0,0.66667
0.62503,0.90707,9.3755,0.61061,111.5,563.14,-15.266,5.0887,-0.68736,-20.355,-6.8496e-12,-0.34368,0,0,0.066667,2.5264e-15,0,0.66667
0.66,0.063188,9.9,-0.65522,-110.85,470.35,17.298,-5.7659,-0.4734,23.064,-5.2438e-12,-0.2367,0,0,0.066667,-0,-0,0.66667
0.73403,0.095351,11.01,-0.60697,-83.859,297.56,17.821,-5.9405,-0.7015,23.762,-1.3197e-10,-0.35075,0,0,0.066667,-0,1.5349e-17,0.66667
0.55486,0.55218,8.3229,0.078266,16.206,768.85,-1.7371,0.57902,-1.9718,-2.3161,1.5346e-12,-0.98588,0,0,0.066667,-6.3159e-16,0,0.66667
0.10736,0.98554,1.6103,0.72831,215.95,2538.1,-3.1275,1.0425,-0.1174,-4.17,-6.7308e-07,-0.0587,0,0,0.066667,1.579e-16,0,0.66667
0.64035,0.87877,9.6052,0.56816,100.42,521.31,-14.553,4.8509,-0.86359,-19.404,-8.7752e-13,-0.43179,0,0,0.066667,-0,-0,0.66667
0.67053,0.61891,10.058,0.17837,29.353,441.97,-4.784,1.5947,-1.8934,-6.3786,-1.8128e-12,-0.9467,0,0,0.066667,6.3159e-16,0,0.66667
0.25011,0.43582,3.7516,-0.096267,-27.018,1913.9,0.96308,-0.32103,-1.9796,1.2841,1.3307e-11,-0.98978,0,0,0.066667,3.9475e-17,0,0.66667
0.94828,0.49218,14.224,-0.011734,-0.34789,12.932,0.44508,-0.14836,-1.9959,0.59343,1.0165e-07,-0.99795,0,0,0.066667,-0,-0,0.66667
0.45265,0.40322,6.7897,-0.14518,-34.548,1113.9,2.6285,-0.87618,-1.9356,3.5047,-1.616e-12,-0.96782,0,0,0.066667,7.8949e-16,0,0.66667
0.86672,0.87647,13.001,0.5647,42.007,81.064,-19.577,6.5258,-0.86099,-26.103,-6.6412e-08,-0.43049,0,0,0.066667,-0,-0,0.66667
0.65308,0.72567,9.7962,0.3385,58.08,486.83,-8.8427,2.9476,-1.5929,-11.79,-1.0223e-12,-0.79646,0,0,0.066667,-0,-0,0.66667
0.61654,0.038218,9.248,-0.69267,-128.75,587.24,17.082,-5.6941,-0.28804,22.776,5.1923e-12,-0.14402,0,0,0.066667,-0,-0,0.66667
0.5494,0.91583,8.241,0.62375,130.53,787.44,-13.708,4.5692,-0.61863,-18.277,-7.7538e-13,-0.30932,0,0,0.066667,-0,-0,0.66667
0.64757,0.21319,9.7135,-0.43022,-74.774,501.56,11.144,-3.7146,-1.3362,14.858,7.1143e-12,-0.66809,0,0,0.066667,-6.3159e-16,0,0.66667
0.84434,0.22515,12.665,-0.41228,-35.341,107.65,13.924,-4.6413,-1.4053,18.565,4.3602e-09,-0.70263,0,0,0.066667,-2.5264e-15,0,0.66667
0.77688,0.73211,11.653,0.34816,41.25,212.73,-10.819,3.6064,-1.5659,-14.426,-3.3671e-12,-0.78296,0,0,0.066667,-1.2632e-15,0,0.66667
0.67263,0.83184,10.089,0.49777,81.606,437.72,-13.392,4.4642,-1.1274,-17.857,1.0445e-12,-0.56371,0,0,0.066667,-0,-0,0.66667
0.031845,0.21756,0.47768,-0.42366,-126.8,2877.4,0.53966,-0.17989,-1.3723,0.71955,-3.9688e-06,-0.68613,0,0,0.066667,-9.8686e-18,0,0.66667
0.0086948,0.86808,0.13042,0.55212,165.48,2982,-0.19201,0.063963,-0.91022,-0.25603,-5.8458e-05,-0.45511,0,0,0.066667,-0,-0,0.66667
0.35854,0.070706,5.3781,-0.64394,-168.25,1470.3,9.2351,-3.0784,-0.53396,12.313,1.4293e-11,-0.26698,0,0,0.066667,-0,-0,0.66667
0.030634,0.46881,0.45951,-0.046782,-13.994,2882.8,0.057324,-0.019108,-2.0028,0.076433,2.8154e-07,-1.0014,0,0,0.066667,-7.8949e-17,0,0.66667
0.51785,0.3809,7.7677,-0.17865,-39.124,888.34,3.7005,-1.2335,-1.8899,4.9341,-4.1704e-12,-0.94494,0,0,0.066667,1.2632e-15,0,0.66667
0.0035539,0.40624,0.053309,-0.14064,-42.112,3005.2,0.019992,-0.0066623,-1.9301,0.026657,2.6093e-06,-0.96507,0,0,0.066667,-6.5011e-18,0,0.66667
0.48073,0.65258,7.211,0.22887,52.673,1014.6,-4.4011,1.467,-1.8133,-5.8681,2.3186e-12,-0.90664,0,0,0.066667,-9.4739e-16,0,0.66667
0.37761,0.94904,5.6641,0.67356,173.18,1395.9,-10.174,3.3912,-0.38849,-13.565,-7.9696e-12,-0.19425,0,0,0.066667,6.3159e-16,0,0.66667
0.95746,0.5817,14.362,0.12255,2.9916,9.0258,-4.6936,1.5645,-1.9436,-6.2581,4.1387e-07,-0.97182,0,0,0.066667,-0,-0,0.66667
0.055854,0.24063,0.8378,-0.38906,-116.19,2769,0.86921,-0.28974,-1.4558,1.1589,-1.4195e-07,-0.72791,0,0,0.066667,-0,-0,0.66667
0.065191,0.52445,0.97786,0.03667,10.933,2726.9,-0.095621,0.031874,-1.997,-0.1275,-7.4008e-08,-0.99848,0,0,0.066667,-7.8949e-17,0,0.66667
0.84927,0.61228,12.739,0.16841,13.99,100.47,-5.7211,1.907,-1.8941,-7.6281,-7.747e-11,-0.94706,0,0,0.066667,1.2632e-15,0,0.66667
0.79526,0.36054,11.929,-0.2092,-22.955,180.35,6.6546,-2.2182,-1.8492,8.8728,2.3726e-11,-0.92462,0,0,0.066667,-0,-0,0.66667
0.93585,0.3409,14.038,-0.23865,-8.7663,19.843,8.9336,-2.9779,-1.8033,11.911,-3.9519e-07,-0.90167,0,0,0.066667,3.158e-16,0,0.66667
0.078237,0.9913,1.1735,0.73695,219.72,2668.5,-2.3063,0.76876,-0.080421,-3.075,7.4173e-07,-0.04021,0,0,0.066667,-0,-0,0.66667
0.6201,0.32638,9.3015,-0.26043,-47.952,575.57,6.4596,-2.1532,-1.7547,8.6128,3.5194e-12,-0.87737,0,0,0.066667,-0,-0,0.66667
0.5144,0.72858,7.7161,0.34286,75.483,900.08,-7.0548,2.3516,-1.5886,-9.4064,-8.6882e-12,-0.79431,0,0,0.066667,1.2632e-15,0,0.66667
0.32157,0.92545,4.8236,0.63817,171.55,1618.1,-8.2088,2.7363,-0.54584,-10.945,-1.1608e-11,-0.27292,0,0,0.066667,3.158e-16,0,0.66667
0.61081,0.55516,9.1622,0.082735,15.513,601.48,-2.0214,0.67381,-1.9817,-2.6952,3.1908e-12,-0.99083,0,0,0.066667,-0,-0,0.66667
0.91808,0.6612,13.771,0.2418,11.272,31.475,-8.8797,2.9599,-1.7911,-11.84,7.0801e-08,-0.89554,0,0,0.066667,2.5264e-15,0,0.66667
0.062566,0.96324,0.93848,0.69486,207.59,2738.9,-1.739,0.57967,-0.29532,-2.3186,1.6206e-05,-0.14766,0,0,0.066667,7.8949e-17,0,0.66667
0.65973,0.050748,9.8959,-0.67388,-114.1,471.17,17.783,-5.9277,-0.38446,23.711,-2.2169e-12,-0.19223,0,0,0.066667,-0,-0,0.66667
0.28517,0.9244,4.2776,0.63661,175.35,1767.5,-7.2617,2.4206,-0.55696,-9.6822,8.4657e-12,-0.27848,0,0,0.066667,-0,-0,0.66667
0.40545,0.76995,6.0817,0.40493,101.34,1288.5,-6.567,2.189,-1.4252,-8.7561,7.5815e-12,-0.71261,0,0,0.066667,-0,-0,0.66667
0.84969,0.68059,12.745,0.27088,22.456,100.18,-9.2067,3.0689,-1.734,-12.276,-6.9578e-10,-0.867,0,0,0.066667,-0,-0,0.66667
0.12173,0.018045,1.8259,-0.72293,-213.64,2474,3.5201,-1.1734,-0.14131,4.6935,-4.7522e-07,-0.070655,0,0,0.066667,-0,7.7056e-17,0.66667
0.84297,0.3251,12.645,-0.26235,-22.643,108.88,8.8463,-2.9488,-1.7635,11.795,4.1701e-11,-0.88175,0,0,0.066667,-1.2632e-15,0,0.66667
0.40424,0.59201,6.0636,0.13801,34.56,1292.7,-2.2316,0.74387,-1.9371,-2.9755,-4.13e-12,-0.96853,0,0,0.066667,9.4739e-16,0,0.66667
0.98389,0.60256,14.758,0.15384,1.3893,1.6596,-6.0544,2.0181,-1.9256,-8.0725,-1.153e-06,-0.9628,0,0,0.066667,2.5264e-15,0,0.66667
0.91802,0.68206,13.77,0.27309,12.745,31.618,-10.028,3.3427,-1.7336,-13.371,6.4299e-08,-0.86679,0,0,0.066667,-1.8948e-15,0,0.66667
0.40767,0.91421,6.1151,0.62132,155.3,1280.7,-10.132,3.3773,-0.6334,-13.509,4.1895e-12,-0.3167,0,0,0.066667,-0,-0,0.66667
0.29792,0.17841,4.4688,-0.48238,-131.71,1714.4,5.7485,-1.9162,-1.18,7.6646,1.1291e-11,-0.59,0,0,0.066667,-0,-0,0.66667
0.22095,0.13257,3.3142,-0.55114,-157.12,2038.9,4.8709,-1.6236,-0.92322,6.4945,-1.9141e-10,-0.46161,0,0,0.066667,-0,-0,0.66667
0.21774,0.65951,3.266,0.23926,68.251,2052.4,-2.0839,0.69462,-1.8047,-2.7785,-1.0978e-11,-0.90236,0,0,0.066667,-0,-0,0.66667
0.76874,0.63348,11.531,0.20022,24.461,227.24,-6.1567,2.0522,-1.8578,-8.2089,1.0683e-11,-0.92889,0,0,0.066667,-0,-0,0.66667
0.75544,0.15447,11.332,-0.51829,-66.594,253.75,15.662,-5.2205,-1.0412,20.882,9.0139e-11,-0.52062,0,0,0.066667,-1.2632e-15,0,0.66667
0.97825,0.53983,14.674,0.059749,0.73649,2.5982,-2.338,0.77933,-1.9818,-3.1173,-5.3466e-07,-0.99092,0,0,0.066667,-0,-0,0.66667
0.08331,0.51249,1.2496,0.01873,5.5689,2645.4,-0.062414,0.020805,-1.9942,-0.083219,1.2712e-08,-0.99711,0,0,0.066667,-3.158e-16,0,0.66667
0.22018,0.77882,3.3028,0.41823,119.22,2042,-3.6835,1.2278,-1.3848,-4.9113,-5.3041e-11,-0.69242,0,0,0.066667,-7.8949e-17,0,0.66667
0.98371,0.51229,14.756,0.018433,0.16794,1.5359,-0.72532,0.24177,-2.0075,-0.96709,2.3595e-06,-1.0038,0,0,0.066667,-0,-0,0.66667
0.54637,0.6823,8.1956,0.27346,57.409,795.89,-5.9764,1.9921,-1.7442,-7.9685,-5.282e-12,-0.87212,0,0,0.066667,1.2709e-15,0,0.66667
0.55367,0.87998,8.3051,0.56998,118.43,773.76,-12.623,4.2077,-0.83933,-16.831,-1.6991e-12,-0.41966,0,0,0.066667,-0,-0,0.66667
0.34877,0.58031,5.2316,0.12047,31.676,1508,-1.6807,0.56022,-1.9441,-2.2409,3.1194e-12,-0.97205,0,0,0.066667,-6.3159e-16,0,0.66667
0.70379,0.51064,10.557,0.015955,2.4064,362.15,-0.44915,0.14972,-2.0079,-0.59887,-2.3695e-12,-1.004,0,0,0.066667,-0,-0,0.66667
0.49976,0.33378,7.4965,-0.24933,-55.988,949.13,4.9843,-1.6614,-1.7897,6.6457,8.5985e-12,-0.89487,0,0,0.066667,-0,-0,0.66667
0.46949,0.67239,7.0424,0.25858,60.343,1054,-4.8561,1.6187,-1.7706,-6.4749,7.2964e-12,-0.88529,0,0,0.066667,-6.3159e-16,0,0.66667
0.54977,0.23752,8.2466,-0.39371,-82.248,785.41,8.6581,-2.886,-1.4495,11.544,4.94e-12,-0.72475,0,0,0.066667,-6.3159e-16,0,0.66667
0.02518,0.33842,0.3777,-0.24237,-72.54,2907.4,0.24412,-0.081377,-1.7861,0.32549,-4.2541e-06,-0.89305,0,0,0.066667,1.9737e-17,0,0.66667
0.53126,0.33415,7.9689,-0.24877,-53.439,844.42,5.2866,-1.7622,-1.7918,7.0488,9.7344e-12,-0.8959,0,0,0.066667,-6.3159e-16,0,0.66667
0.13296,0.9488,1.9945,0.67321,198.31,2424,-3.5805,1.1935,-0.38206,-4.774,-3.16e-08,-0.19103,0,0,0.066667,-0,-0,0.66667
0.45893,0.75295,6.8839,0.37943,89.689,1091.7,-6.9652,2.3217,-1.4838,-9.2869,1.0523e-11,-0.74189,0,0,0.066667,1.2632e-15,0,0.66667
0.082271,0.356,1.2341,-0.21601,-64.248,2650.1,0.71084,-0.23695,-1.8315,0.94779,6.423e-08,-0.91577,0,0,0.066667,-0,-0,0.66667
0.88896,0.7388,13.334,0.35819,22.378,56.549,-12.737,4.2456,-1.5486,-16.982,1.1135e-08,-0.77431,0,0,0.066667,1.2632e-15,0,0.66667
0.37843,0.63,5.6764,0.19501,50.018,1391.7,-2.9518,0.98394,-1.8647,-3.9358,1.3963e-11,-0.93234,0,0,0.066667,-0,-0,0.66667
0.43035,0.13911,6.4553,-0.54134,-132.17,1195.9,9.3187,-3.1062,-0.95153,12.425,7.9297e-12,-0.47577,0,0,0.066667,-0,-0,0.66667
0.74206,0.6167,11.131,0.17505,23.501,279.29,-5.1959,1.732,-1.8848,-6.9279,1.1586e-12,-0.94238,0,0,0.066667,-0,-0,0.66667
0.15577,0.78972,2.3366,0.43458,127.04,2322.8,-2.7078,0.90261,-1.3383,-3.6104,5.017e-09,-0.66917,0,0,0.066667,-0,-0,0.66667
0.57502,0.93349,8.6254,0.65024,130.48,708.24,-14.956,4.9854,-0.49761,-19.941,-1.9575e-12,-0.2488,0,0,0.066667,3.158e-16,0,0.66667
0.51105,0.038345,7.6657,-0.69248,-153.43,912.51,14.156,-4.7186,-0.29197,18.874,2.4889e-11,-0.14599,0,0,0.066667,-0,-0,0.66667
0.3683,0.76622,5.5246,0.39933,103.38,1431.4,-5.883,1.961,-1.4267,-7.844,3.324e-11,-0.71336,0,0,0.066667,-1.0678e-15,0,0.66667
0.68334,0.18924,10.25,-0.46614,-74.376,411.33,12.741,-4.2471,-1.2261,16.988,-4.1949e-12,-0.61304,0,0,0.066667,2.5264e-15,0,0.66667
0.79449,0.57925,11.917,0.11887,13.084,181.48,-3.7778,1.2593,-1.9519,-5.037,-1.2027e-11,-0.97596,0,0,0.066667,1.2632e-15,0,0.66667
0.46768,0.60175,7.0153,0.15263,35.688,1060.2,-2.8553,0.95177,-1.9246,-3.8071,3.1553e-12,-0.96228,0,0,0.066667,-0,-0,0.66667
0.62735,0.076552,9.4103,-0.63517,-115.45,556.88,15.939,-5.313,-0.56782,21.252,3.2854e-12,-0.28391,0,0,0.066667,-0,-0,0.66667
0.91254,0.74859,13.688,0.37289,18.548,36.123,-13.611,4.537,-1.501,-18.148,-2.2132e-08,-0.75052,0,0,0.066667,1.579e-15,0,0.66667
0.45697,0.46272,6.8546,-0.05592,-13.24,1098.3,1.0222,-0.34072,-1.9876,1.3629,1.4741e-11,-0.99379,0,0,0.066667,-9.4739e-16,0,0.66667
0.13502,0.97472,2.0253,0.71208,209.69,2414.9,-3.8458,1.2819,-0.19255,-5.1278,-3.0673e-07,-0.096273,0,0,0.066667,-0,-0,0.66667
0.54323,0.79162,8.1485,0.43743,92.334,806.31,-9.505,3.1683,-1.3184,-12.673,1.2057e-11,-0.6592,0,0,0.066667,-0,-0,0.66667
0.43003,0.1151,6.4504,-0.57736,-141.04,1197.2,9.9312,-3.3104,-0.80839,13.242,3.3831e-12,-0.40419,0,0,0.066667,6.3159e-16,0,0.66667
0.76831,0.21489,11.525,-0.42767,-52.395,228.76,13.143,-4.3811,-1.3519,17.524,8.5099e-11,-0.67593,0,0,0.066667,-1.8948e-15,0,0.66667
0.79767,0.15509,11.965,-0.51737,-56.294,177.51,16.508,-5.5025,-1.0578,22.01,-1.3845e-09,-0.52892,0,0,0.066667,-4.737e-16,0,0.66667
0.17185,0.48559,2.5777,-0.021612,-6.2797,2251.9,0.14856,-0.04952,-2.0099,0.19808,2.2297e-10,-1.0049,0,0,0.066667,-0,-0,0.66667
0.43794,0.82676,6.5691,0.49014,118.68,1167.9,-8.5861,2.862,-1.1555,-11.448,-1.755e-12,-0.57773,0,0,0.066667,-0,-0,0.66667
0.26682,0.55991,4.0023,0.089865,24.988,1843.4,-0.95911,0.3197,-1.9789,-1.2788,2.0065e-11,-0.98947,0,0,0.066667,-4.737e-16,0,0.66667
0.95469,0.45745,14.32,-0.063826,-1.6589,10.088,2.4373,-0.81245,-1.9907,3.2498,1.5976e-08,-0.99534,0,0,0.066667,1.2632e-15,0,0.66667
0.93687,0.26601,14.053,-0.35098,-12.714,19.666,13.153,-4.3843,-1.5708,17.537,-4.2892e-07,-0.78541,0,0,0.066667,-1.2632e-15,0,0.66667
0.43435,0.096443,6.5152,-0.60534,-147.22,1181.4,10.517,-3.5057,-0.69815,14.023,9.1722e-12,-0.34908,0,0,0.066667,-1.2632e-15,6.5928e-17,0.66667
0.43101,0.131,6.4652,-0.5535,-135.06,1193.5,9.5425,-3.1808,-0.90522,12.723,1.1757e-11,-0.45261,0,0,0.066667,-1.2632e-15,0,0.66667
0.74648,0.33578,11.197,-0.24633,-32.592,270.48,7.3552,-2.4517,-1.7835,9.8069,-2.5961e-12,-0.89176,0,0,0.066667,-6.3159e-16,0,0.66667
0.59598,0.24476,8.9396,-0.38286,-73.896,644.8,9.1269,-3.0423,-1.4823,12.169,1.2577e-11,-0.74114,0,0,0.066667,-0,-0,0.66667
0.25907,0.45586,3.8861,-0.06621,-18.491,1876,0.68612,-0.22871,-1.9783,0.91483,1.1304e-11,-0.98913,0,0,0.066667,8.9951e-18,0,0.66667
0.48317,0.59661,7.2476,0.14491,33.244,1006,-2.8007,0.93358,-1.9329,-3.7343,5.4097e-12,-0.96645,0,0,0.066667,-0,-0,0.66667
0.89011,0.55187,13.352,0.077807,4.8034,54.723,-2.7703,0.92342,-1.9879,-3.6937,5.8404e-09,-0.99397,0,0,0.066667,-0,-0,0.66667
0.68155,0.04317,10.223,-0.68525,-110.02,416.8,18.681,-6.2271,-0.32492,24.908,1.0509e-11,-0.16246,0,0,0.066667,-0,-0,0.66667
0.56313,0.22848,8.4469,-0.40727,-83.269,743.7,9.1739,-3.058,-1.4193,12.232,1.1357e-11,-0.70965,0,0,0.066667,-0,-0,0.66667
0.87675,0.15357,13.151,-0.51965,-35.901,69.742,18.224,-6.0747,-1.0454,24.299,-5.9825e-08,-0.5227,0,0,0.066667,3.158e-16,0,0.66667
0.27628,0.88114,4.1441,0.57171,158.28,1804.4,-6.318,2.106,-0.83424,-8.424,3.569e-11,-0.41712,0,0,0.066667,-6.3159e-16,0,0.66667
0.99685,0.59528,14.953,0.14292,0.18954,0.24768,-5.6989,1.8996,-1.9286,-7.5985,2.7727e-06,-0.9643,0,0,0.066667,-0,-0,0.66667
0.19984,0.7393,2.9976,0.35895,103.22,2129.9,-2.8693,0.95642,-1.5415,-3.8257,2.5287e-10,-0.77077,0,0,0.066667,3.158e-16,0,0.66667
0.83979,0.75664,12.597,0.38496,33.874,113.56,-12.931,4.3105,-1.4714,-17.242,-2.4434e-10,-0.73572,0,0,0.066667,2.5264e-15,0,0.66667
0.74234,0.41112,11.135,-0.13332,-17.88,278.65,3.9587,-1.3196,-1.9309,5.2782,-6.0723e-12,-0.96547,0,0,0.066667,-0,-0,0.66667
0.86405,0.17985,12.961,-0.48022,-36.343,83.614,16.598,-5.5325,-1.1768,22.13,-4.8689e-09,-0.58838,0,0,0.066667,-0,-0,0.66667
0.58492,0.37206,8.7738,-0.19191,-37.772,677.01,4.4902,-1.4967,-1.8638,5.9869,1.5102e-11,-0.93191,0,0,0.066667,-7.8949e-16,0,0.66667
0.23238,0.27996,3.4857,-0.33006,-93.516,1989.6,3.068,-1.0227,-1.6176,4.0907,-1.157e-11,-0.80879,0,0,0.066667,1.1842e-16,0,0.66667
0.48352,0.030188,7.2528,-0.70472,-161.94,1006.3,13.63,-4.5433,-0.24355,18.173,-1.7587e-11,-0.12177,0,0,0.066667,5.379e-16,1.0367e-17,0.66667
0.86238,0.081894,12.936,-0.62716,-48.114,86.508,21.634,-7.2113,-0.60187,28.845,1.3959e-07,-0.30094,0,0,0.066667,-1.2632e-15,0,0.66667
0.7978,0.10732,11.967,-0.58902,-64.102,177.72,18.797,-6.2656,-0.77399,25.062,-7.1013e-10,-0.387,0,0,0.066667,-0,-0,0.66667
0.17351,0.08388,2.6027,-0.62418,-181.5,2245,4.3321,-1.444,-0.61976,5.7761,-8.2604e-09,-0.30988,0,0,0.066667,-0,-0,0.66667
0.99221,0.37599,14.883,-0.18602,-0.76418,0.66677,7.3826,-2.4609,-1.8718,9.8435,-1.6798e-06,-0.9359,0,0,0.066667,2.5264e-15,0,0.66667
0.030412,0.98132,0.45618,0.72197,216.36,2883.9,-0.87831,0.29278,-0.15459,-1.1711,1.7715e-05,-0.077294,0,0,0.066667,7.8949e-17,0,0.66667
0.39265,0.79194,5.8897,0.43791,110.95,1337.3,-6.8779,2.2926,-1.3217,-9.1705,1.0081e-13,-0.66085,0,0,0.066667,-0,-0,0.66667
0.7544,0.023561,11.316,-0.71466,-92.341,257,21.566,-7.1885,-0.18131,28.754,1.594e-10,-0.090653,0,0,0.066667,-0,-0,0.66667
0.97374,0.77146,14.606,0.40719,6.1639,4.7101,-15.86,5.2866,-1.4064,-21.146,-1.2749e-05,-0.70322,0,0,0.066667,-1.2632e-15,0,0.66667
0.14213,0.77632,2.1319,0.41448,121.66,2383.1,-2.3564,0.78545,-1.3952,-3.1418,-3.5853e-09,-0.69762,0,0,0.066667,-7.8949e-17,0,0.66667
0.92404,0.439,13.861,-0.091506,-3.9595,26.972,3.3822,-1.1274,-1.9745,4.5096,-1.2777e-07,-0.98726,0,0,0.066667,-0,-0,0.66667
0.21902,0.22511,3.2854,-0.41234,-117.6,2047,3.6125,-1.2042,-1.4064,4.8167,1.0508e-10,-0.70322,0,0,0.066667,-6.3159e-16,0,0.66667
0.55264,0.50474,8.2896,0.0071117,1.4778,775.8,-0.15721,0.052403,-1.9952,-0.20961,-8.1442e-13,-0.99762,0,0,0.066667,-0,-0,0.66667
0.43281,0.30191,6.4921,-0.29714,-72.297,1186.3,5.1441,-1.7147,-1.6825,6.8588,1.0002e-11,-0.84125,0,0,0.066667,-0,-0,0.66667
0.80806,0.51426,12.121,0.021389,2.2144,159.27,-0.69134,0.23045,-1.9951,-0.92179,2.1613e-11,-0.99756,0,0,0.066667,-2.5264e-15,0,0.66667
0.13857,0.33453,2.0785,-0.24821,-72.904,2398.8,1.3758,-0.45859,-1.7845,1.8344,1.636e-09,-0.89225,0,0,0.066667,-0,-0,0.66667
0.19087,0.099821,2.863,-0.60027,-173.39,2169.2,4.5829,-1.5276,-0.71874,6.1106,7.297e-10,-0.35937,0,0,0.066667,-0,-0,0.66667
0.56751,0.683,8.5127,0.2745,55.689,729.84,-6.2313,2.0771,-1.7286,-8.3084,-3.9502e-12,-0.86432,0,0,0.066667,-0,-0,0.66667
0.20995,0.5164,3.1493,0.024601,7.0406,2085.9,-0.2066,0.068867,-1.9915,-0.27547,6.6045e-11,-0.99574,0,0,0.066667,-0,-0,0.66667
0.87999,0.035636,13.2,-0.69655,-47.089,67.611,24.518,-8.1727,-0.27153,32.691,9.0738e-07,-0.13576,0,0,0.066667,-2.5264e-15,0,0.66667
0.57835,0.11715,8.6753,-0.57427,-114.52,697.82,13.285,-4.4284,-0.83844,17.714,7.6783e-12,-0.41922,0,0,0.066667,6.3159e-16,0,0.66667
0.91176,0.10797,13.676,-0.58805,-29.629,37.988,21.446,-7.1488,-0.76542,28.595,9.1879e-08,-0.38271,0,0,0.066667,1.2632e-15,0,0.66667
0.76434,0.49026,11.465,-0.014611,-1.8139,235.28,0.4467,-0.1489,-2.0056,0.5956,-4.61e-12,-1.0028,0,0,0.066667,-6.3159e-16,0,0.66667
0.47494,0.59457,7.1241,0.14186,32.879,1034.7,-2.695,0.89835,-1.9241,-3.5934,1.5122e-11,-0.96205,0,0,0.066667,-0,-0,0.66667
0.69241,0.60405,10.386,0.15608,24.288,388.75,-4.3228,1.4409,-1.9094,-5.7637,-1.5716e-12,-0.95472,0,0,0.066667,1.2632e-15,0,0.66667
0.059802,0.57533,0.89703,0.11299,33.712,2751.2,-0.27029,0.090097,-1.9558,-0.36039,-1.5074e-07,-0.97792,0,0,0.066667,-0,-0,0.66667
0.63126,0.33956,9.4689,-0.24066,-43.301,544.74,6.0767,-2.0256,-1.789,8.1022,2.3457e-12,-0.89452,0,0,0.066667,-0,-0,0.66667
0.98405,0.019628,14.761,-0.72056,-6.8094,4.8843,28.363,-9.4542,-0.16434,37.817,9.2151e-06,-0.082169,0,0,0.066667,-0,7.3767e-17,0.66667
0.11938,0.074443,1.7908,-0.63834,-188.67,2484.4,3.0483,-1.0161,-0.54608,4.0644,2.0472e-07,-0.27304,0,0,0.066667,-0,-0,0.66667
0.45157,0.058123,6.7735,-0.66282,-158.21,1119,11.972,-3.9907,-0.4439,15.963,9.8588e-14,-0.22195,0,0,0.066667,-3.158e-16,-3.8038e-17,0.66667
0.018534,0.92438,0.27801,0.63657,190.8,2937.5,-0.47191,0.15732,-0.55968,-0.62921,2.0328e-05,-0.27984,0,0,0.066667,-0,-0,0.66667
0.68813,0.68056,10.322,0.27084,42.64,399.15,-7.4549,2.485,-1.7485,-9.9399,1.3283e-12,-0.87426,0,0,0.066667,6.3159e-16,0,0.66667
0.019423,0.87546,0.29134,0.56319,168.75,2933.5,-0.43754,0.14586,-0.87193,-0.58338,2.2744e-05,-0.43596,0,0,0.066667,-7.8949e-17,0,0.66667
0.45527,0.64893,6.8291,0.2234,53.009,1104.5,-4.0683,1.3561,-1.826,-5.4244,4.8384e-12,-0.913,0,0,0.066667,-3.158e-16,0,0.66667
0.21915,0.61545,3.2873,0.17318,49.363,2046.2,-1.5181,0.50603,-1.9034,-2.0241,2.7668e-11,-0.95172,0,0,0.066667,-0,-0,0.66667
0.80722,0.053099,12.108,-0.67035,-69.987,163.01,21.645,-7.2149,-0.39775,28.86,1.9232e-09,-0.19887,0,0,0.066667,6.3159e-16,0,0.66667
0.64564,0.84299,9.6846,0.51448,89.848,507,-13.287,4.4289,-1.0561,-17.716,7.4669e-12,-0.52805,0,0,0.066667,-1.7764e-15,0,0.66667
0.66627,0.77702,9.994,0.41553,69.153,453.3,-11.074,3.6914,-1.3818,-14.765,-5.3761e-12,-0.69089,0,0,0.066667,1.0261e-15,0,0.66667
0.54989,0.81526,8.2484,0.47289,98.803,785.29,-10.402,3.4672,-1.2063,-13.869,3.2596e-12,-0.60314,0,0,0.066667,-0,-0,0.66667
0.25045,0.29479,3.7567,-0.30782,-86.403,1912.6,3.0837,-1.0279,-1.6727,4.1116,5.9066e-12,-0.83637,0,0,0.066667,-0,-0,0.66667
0.81569,0.9147,12.235,0.62205,62.337,149.49,-20.296,6.7653,-0.62428,-27.061,9.4639e-09,-0.31214,0,0,0.066667,-0,-0,0.66667
0.88012,0.77327,13.202,0.40991,27.549,65.619,-14.431,4.8103,-1.3985,-19.241,-2.3124e-08,-0.69924,0,0,0.066667,-0,-0,0.66667
0.43832,0.8791,6.5748,0.56865,137.68,1166.8,-9.97,3.3233,-0.8592,-13.293,-2.9363e-12,-0.4296,0,0,0.066667,-0,-0,0.66667
0.58633,0.74113,8.7949,0.3617,71.044,673.17,-8.483,2.8277,-1.5285,-11.311,-2.7702e-12,-0.76426,0,0,0.066667,-0,-0,0.66667
0.6243,0.18345,9.3645,-0.47483,-86.764,564.55,11.857,-3.9525,-1.2078,15.81,1.9895e-12,-0.60389,0,0,0.066667,-3.158e-16,-1.3288e-18,0.66667
0.72761,0.10077,10.914,-0.59884,-84.416,311.1,17.429,-5.8096,-0.71911,23.238,6.9326e-11,-0.35955,0,0,0.066667,-0,-0,0.66667
0.5909,0.60245,8.8636,0.15368,29.919,659.2,-3.6323,1.2108,-1.9171,-4.843,1.1584e-12,-0.95855,0,0,0.066667,-0,-0,0.66667
0.8066,0.035633,12.099,-0.69655,-72.957,164.19,22.473,-7.4912,-0.27021,29.965,-2.1225e-09,-0.1351,0,0,0.066667,2.5264e-15,0,0.66667
0.82409,0.10417,12.361,-0.59375,-57.027,136.76,19.572,-6.524,-0.74433,26.096,1.1302e-09,-0.37217,0,0,0.066667,-0,-0,0.66667
0.55655,0.97893,8.3483,0.71839,148.73,765.45,-15.993,5.331,-0.15959,-21.324,-6.4384e-12,-0.079794,0,0,0.066667,-0,-0,0.66667
0.88295,0.62833,13.244,0.1925,12.623,61.949,-6.7987,2.2662,-1.8626,-9.0649,-2.1845e-09,-0.93132,0,0,0.066667,2.5264e-15,0,0.66667
0.20294,0.6236,3.0441,0.18541,53.23,2116.3,-1.505,0.50168,-1.89,-2.0067,1.7026e-11,-0.94498,0,0,0.066667,3.9475e-16,0,0.66667
0.41362,0.76532,6.2042,0.39798,98.8,1257.8,-6.5843,2.1948,-1.4302,-8.7791,1.2415e-11,-0.71512,0,0,0.066667,-6.3159e-16,0,0.66667
0.63011,0.75902,9.4516,0.38853,70.115,548.27,-9.7927,3.2642,-1.4591,-13.057,3.4897e-12,-0.72955,0,0,0.066667,-0,-0,0.66667
0.10257,0.91683,1.5386,0.62525,185.49,2559.4,-2.5653,0.85511,-0.60383,-3.4204,8.2459e-08,-0.30191,0,0,0.066667,-0,-0,0.66667
0.71864,0.8183,10.78,0.47745,69.096,329.89,-13.725,4.5749,-1.2013,-18.3,1.0604e-11,-0.60065,0,0,0.066667,-0,2.7196e-18,0.66667
0.47968,0.89464,7.1953,0.59196,136.6,1019.2,-11.358,3.786,-0.75043,-15.144,1.3427e-11,-0.37522,0,0,0.066667,-6.3159e-16,0,0.66667
0.37899,0.21618,5.6849,-0.42573,-109.21,1389.8,6.454,-2.1513,-1.3545,8.6054,1.5544e-11,-0.67723,0,0,0.066667,7.8949e-17,0,0.66667
0.45185,0.012101,6.7777,-0.73185,-174.71,1118.3,13.227,-4.4091,-0.10186,17.636,-4.9498e-12,-0.05093,0,0,0.066667,-0,7.4934e-17,0.66667
0.36759,0.15763,5.5138,-0.51356,-133.09,1434.4,7.5511,-2.517,-1.057,10.068,6.8665e-12,-0.52852,0,0,0.066667,1.2632e-15,0,0.66667
0.23954,0.15483,3.5931,-0.51776,-146.26,1959.3,4.9609,-1.6536,-1.0437,6.6146,-1.0999e-11,-0.52184,0,0,0.066667,-3.9876e-16,0,0.66667
0.91587,0.59212,13.738,0.13818,6.6038,32.86,-5.0624,1.6875,-1.9278,-6.7498,3.8193e-08,-0.96389,0,0,0.066667,-1.2632e-15,0,0.66667
0.79936,0.081268,11.99,-0.6281,-67.917,175.4,20.083,-6.6944,-0.59921,26.777,3.9916e-09,-0.29961,0,0,0.066667,-0,-0,0.66667
0.33394,0.58875,5.0091,0.13313,35.41,1567.3,-1.7783,0.59276,-1.9323,-2.3711,1.2213e-11,-0.96615,0,0,0.066667,-3.158e-16,0,0.66667
0.16905,0.84906,2.5358,0.52359,152.43,2264.5,-3.5405,1.1802,-1.0268,-4.7207,-3.9494e-09,-0.51341,0,0,0.066667,-0,-0,0.66667
0.11663,0.21968,1.7494,-0.42048,-124.26,2496.5,1.9616,-0.65386,-1.3663,2.6154,-2.1487e-08,-0.68315,0,0,0.066667,-0,-0,0.66667
0.79533,0.52872,11.93,0.043074,4.7232,180,-1.3703,0.45678,-1.9997,-1.8271,-3.2742e-11,-0.99986,0,0,0.066667,-0,-0,0.66667
0.70203,0.63458,10.53,0.20186,30.604,366.38,-5.6686,1.8895,-1.8622,-7.5581,-9.1926e-13,-0.93111,0,0,0.066667,-0,-0,0.66667
0.075233,0.23456,1.1285,-0.39815,-118.6,2681.8,1.1982,-0.39939,-1.4369,1.5976,2.6476e-07,-0.71847,0,0,0.066667,-1.579e-16,0,0.66667
0.11659,0.94458,1.7489,0.66687,197.26,2496.8,-3.1101,1.0367,-0.41273,-4.1468,6.5703e-08,-0.20636,0,0,0.066667,-3.158e-16,0,0.66667
0.9138,0.083089,13.707,-0.62537,-30.837,36.687,22.859,-7.6195,-0.603,30.478,7.325e-07,-0.3015,0,0,0.066667,-0,-0,0.66667
0.86977,0.14118,13.047,-0.53824,-39.165,77.452,18.726,-6.2419,-0.96529,24.968,1.0652e-08,-0.48265,0,0,0.066667,-0,-0,0.66667
0.29195,0.079273,4.3793,-0.63109,-173.08,1739.4,7.3699,-2.4566,-0.57975,9.8266,-6.1551e-13,-0.28988,0,0,0.066667,6.3159e-16,0,0.66667
0.102,0.12575,1.53,-0.56138,-166.52,2561.9,2.2904,-0.76347,-0.87442,3.0539,-2.6485e-07,-0.43721,0,0,0.066667,-0,-0,0.66667
0.80889,0.6429,12.133,0.21435,22.115,158.19,-6.9353,2.3118,-1.8353,-9.247,3.7974e-12,-0.91765,0,0,0.066667,-1.2632e-15,0,0.66667
0.026174,0.61649,0.3926,0.17474,52.29,2902.9,-0.18295,0.060983,-1.8874,-0.24393,2.6239e-06,-0.94368,0,0,0.066667,-0,-0,0.66667
0.63635,0.81808,9.5452,0.47713,85.01,531.65,-12.145,4.0482,-1.1884,-16.193,5.957e-12,-0.59418,0,0,0.066667,-1.2632e-15,0,0.66667
0.16009,0.3699,2.4013,-0.19515,-56.938,2303.6,1.2496,-0.41654,-1.8634,1.6662,-8.381e-11,-0.93172,0,0,0.066667,2.3685e-16,0,0.66667
0.69162,0.84504,10.374,0.51757,80.839,391.73,-14.318,4.7728,-1.0464,-19.091,1.4056e-11,-0.5232,0,0,0.066667,-2.5264e-15,0,0.66667
0.16802,0.53761,2.5203,0.056421,16.416,2268.7,-0.37919,0.1264,-1.9873,-0.50559,4.5524e-10,-0.99365,0,0,0.066667,-0,-0,0.66667
0.34905,0.76668,5.2357,0.40002,105.22,1507.3,-5.585,1.8617,-1.4263,-7.4467,1.8125e-11,-0.71315,0,0,0.066667,-6.3159e-16,0,0.66667
0.12209,0.43894,1.8313,-0.091597,-27.017,2472,0.44731,-0.1491,-1.9721,0.59642,-3.1918e-09,-0.98605,0,0,0.066667,3.158e-16,0,0.66667
0.28709,0.0035861,4.3063,-0.74462,-204.97,1759.8,8.5508,-2.8503,-0.024098,11.401,-3.7161e-12,-0.012049,0,0,0.066667,1.2632e-15,0,0.66667
0.1291,0.82795,1.9365,0.49192,144.95,2441,-2.5402,0.84674,-1.1371,-3.387,-8.5126e-09,-0.56854,0,0,0.066667,-0,-0,0.66667
0.46339,0.60416,6.9508,0.15624,36.721,1075.5,-2.8961,0.96536,-1.9085,-3.8614,-4.3121e-12,-0.95426,0,0,0.066667,1.2632e-15,0,0.66667
0.64941,0.9215,9.7411,0.63225,109.58,497.66,-16.424,5.4745,-0.5723,-21.898,-5.0449e-12,-0.28615,0,0,0.066667,1.2632e-15,0,0.66667
0.39451,0.77,5.9177,0.40499,102.42,1330.1,-6.391,2.1303,-1.4149,-8.5213,-3.5527e-12,-0.70745,0,0,0.066667,-0,-0,0.66667
0.95296,0.16314,14.294,-0.50529,-13.765,12.423,19.261,-6.4203,-1.1036,25.681,-5.4361e-06,-0.5518,0,0,0.066667,-0,-0,0.66667
0.75487,0.80105,11.323,0.45157,58.108,254.55,-13.635,4.545,-1.271,-18.18,5.3971e-11,-0.63551,0,0,0.066667,1.2632e-15,0,0.66667
0.54438,0.34144,8.1656,-0.23784,-50.083,802.18,5.179,-1.7263,-1.8019,6.9053,1.4841e-11,-0.90095,0,0,0.066667,-9.4739e-16,0,0.66667
0.56352,0.57896,8.4528,0.11844,24.181,741.9,-2.6698,0.88992,-1.9573,-3.5597,-4.8708e-12,-0.97864,0,0,0.066667,1.2632e-15,0,0.66667
0.3206,0.8383,4.8091,0.50745,136.43,1621.7,-6.5076,2.1692,-1.0785,-8.6769,1.324e-11,-0.53925,0,0,0.066667,5.0563e-16,0,0.66667
0.51252,0.96563,7.6878,0.69845,154.44,907.63,-14.319,4.7729,-0.26654,-19.092,1.4891e-11,-0.13327,0,0,0.066667,6.3159e-16,-2.8341e-17,0.66667
0.75781,0.73982,11.367,0.35973,45.782,248.44,-10.904,3.6348,-1.5334,-14.539,1.6193e-11,-0.76671,0,0,0.066667,-0,-0,0.66667
0.0018096,0.16617,0.027144,-0.50075,-150.06,3013.1,0.036235,-0.012099,-1.1129,0.048303,-3.0501e-05,-0.55644,0,0,0.066667,-0,1.3684e-16,0.66667
0.48059,0.64674,7.2089,0.22011,50.664,1015,-4.2313,1.4104,-1.8262,-5.6417,-2.2871e-12,-0.9131,0,0,0.066667,6.3159e-16,0,0.66667
0.90416,0.62556,13.562,0.18833,10.208,42.267,-6.8114,2.2705,-1.8786,-9.0818,2.856e-08,-0.93931,0,0,0.066667,2.5264e-15,0,0.66667
0.8495,0.90819,12.743,0.61228,51.009,102.13,-20.805,6.9351,-0.66297,-27.74,5.3372e-08,-0.33149,0,0,0.066667,-0,-0,0.66667
0.221,0.75037,3.3149,0.37556,107,2038.5,-3.3199,1.1066,-1.5028,-4.4265,-5.6203e-11,-0.75138,0,0,0.066667,-0,-0,0.66667
0.73624,0.14126,11.044,-0.53811,-73.777,292.57,15.847,-5.2823,-0.9744,21.129,-2.196e-11,-0.4872,0,0,0.066667,1.2632e-15,0,0.66667
0.58487,0.63432,8.7731,0.20148,39.659,677.15,-4.7137,1.5712,-1.8496,-6.2849,3.1317e-12,-0.9248,0,0,0.066667,-0,-0,0.66667
0.52554,0.11453,7.883,-0.57821,-125.42,864.06,12.155,-4.0516,-0.80612,16.206,1.87e-11,-0.40306,0,0,0.066667,-0,-0,0.66667
0.66144,0.4526,9.9217,-0.071098,-11.956,464.8,1.8811,-0.62703,-1.9774,2.5081,7.605e-14,-0.98871,0,0,0.066667,1.2632e-15,0,0.66667
0.63207,0.60237,9.481,0.15356,27.578,542.39,-3.8824,1.2941,-1.91,-5.1766,7.3643e-12,-0.955,0,0,0.066667,-1.2632e-15,0,0.66667
0.071417,0.045138,1.0713,-0.68229,-203.58,2699.1,1.9491,-0.64969,-0.33851,2.5988,1.1021e-05,-0.16926,0,0,0.066667,-0,-0,0.66667
0.41684,0.78662,6.2526,0.42994,106.4,1245.8,-7.1686,2.3895,-1.3392,-9.5582,3.2547e-12,-0.66958,0,0,0.066667,-0,-0,0.66667
0.1993,0.095559,2.9895,-0.60666,-174.65,2132.5,4.8362,-1.6121,-0.69085,6.4483,5.0829e-10,-0.34542,0,0,0.066667,6.3159e-16,0,0.66667
0.70058,0.52862,10.509,0.042923,6.5318,369.53,-1.2029,0.40095,-1.9963,-1.6038,-3.0087e-13,-0.99815,0,0,0.066667,9.4739e-16,0,0.66667
0.27331,0.28183,4.0997,-0.32726,-90.689,1816.4,3.5777,-1.1926,-1.6141,4.7703,1.0312e-11,-0.80706,0,0,0.066667,-0,-0,0.66667
0.43642,0.72147,6.5463,0.33221,80.525,1173.1,-5.7993,1.9331,-1.6157,-7.7324,5.5955e-12,-0.80784,0,0,0.066667,-0,-0,0.66667
0.82163,0.66364,12.324,0.24545,23.799,138.79,-8.0669,2.689,-1.7801,-10.756,1.5764e-11,-0.89005,0,0,0.066667,-0,-0,0.66667
0.78306,0.18049,11.746,-0.47927,-55.451,202.27,15.012,-5.004,-1.1879,20.016,1.7112e-10,-0.59397,0,0,0.066667,1.2632e-15,0,0.66667
0.85416,0.57525,12.812,0.11288,9.0929,94.23,-3.8567,1.2856,-1.9501,-5.1423,-3.5392e-10,-0.97505,0,0,0.066667,-0,-0,0.66667
0.47905,0.26242,7.1858,-0.35636,-82.213,1020.6,6.8287,-2.2762,-1.5437,9.1049,6.6245e-12,-0.77186,0,0,0.066667,-0,-0,0.66667
0.92649,0.15387,13.897,-0.5192,-21.899,26.944,19.241,-6.4138,-1.0392,25.655,-5.1391e-07,-0.51958,0,0,0.066667,1.579e-15,0,0.66667
0.031555,0.93274,0.47332,0.64911,194.44,2878.7,-0.81931,0.27313,-0.51305,-1.0924,3.6462e-05,-0.25653,0,0,0.066667,5.9212e-17,0,0.66667
0.93828,0.7027,14.074,0.30404,10.763,18.677,-11.411,3.8037,-1.6795,-15.215,3.537e-07,-0.83973,0,0,0.066667,-1.2632e-15,0,0.66667
0.34863,0.066985,5.2294,-0.64952,-171.08,1509.5,9.0577,-3.0192,-0.49676,12.077,1.6698e-13,-0.24838,0,0,0.066667,1.2632e-15,0,0.66667
0.81282,0.82677,12.192,0.49016,49.732,153.1,-15.936,5.3121,-1.1559,-21.249,-1.7585e-09,-0.57797,0,0,0.066667,-0,-0,0.66667
0.94832,0.039593,14.225,-0.69061,-20.799,15.925,26.197,-8.7323,-0.30059,34.929,1.2542e-05,-0.1503,0,0,0.066667,-0,-4.2423e-17,0.66667
0.89181,0.40842,13.377,-0.13737,-8.3572,53.18,4.9004,-1.6335,-1.9407,6.5339,-1.253e-08,-0.97033,0,0,0.066667,-2.5264e-15,0,0.66667
0.69802,0.9162,10.47,0.62431,95.925,377.29,-17.431,5.8104,-0.60994,-23.241,-4.2419e-12,-0.30497,0,0,0.066667,-0,-0,0.66667
0.67018,0.22221,10.053,-0.41668,-68.691,443.47,11.17,-3.7233,-1.3883,14.893,7.3106e-12,-0.69414,0,0,0.066667,-0,-0,0.66667
0.97358,0.6843,14.604,0.27645,4.1854,4.1711,-10.766,3.5887,-1.7253,-14.355,-4.988e-06,-0.86267,0,0,0.066667,1.5514e-15,0,0.66667
0.46511,0.43215,6.9766,-0.10177,-23.868,1069.3,1.8934,-0.63112,-1.9625,2.5245,-3.9657e-13,-0.98123,0,0,0.066667,6.3159e-16,0,0.66667
0.10402,0.46534,1.5603,-0.051992,-15.399,2552.7,0.21632,-0.072108,-1.9866,0.28843,-5.9247e-09,-0.99328,0,0,0.066667,-1.9737e-16,0,0.66667
0.024147,0.41298,0.36221,-0.13053,-39.063,2912.1,0.12608,-0.042029,-1.9334,0.16811,-1.9644e-06,-0.96672,0,0,0.066667,-0,-0,0.66667
0.8813,0.92694,13.22,0.64042,42.802,65.826,-22.576,7.5253,-0.53594,-30.101,1.9871e-07,-0.26797,0,0,0.066667,1.2632e-15,0,0.66667
0.026191,0.433,0.39287,-0.1005,-30.07,2902.9,0.10528,-0.035096,-1.9606,0.14038,-1.6234e-06,-0.98028,0,0,0.066667,-5.9212e-17,0,0.66667
0.95083,0.058909,14.262,-0.66164,-18.955,14.522,25.164,-8.388,-0.44694,33.552,-7.2397e-06,-0.22347,0,0,0.066667,-1.8948e-15,0,0.66667
0.56992,0.88755,8.5488,0.58133,117.62,723.46,-13.252,4.4175,-0.79186,-17.67,6.4313e-12,-0.39593,0,0,0.066667,-0,-0,0.66667
0.65757,0.77338,9.8635,0.41007,69.659,475.45,-10.786,3.5953,-1.4085,-14.381,-3.4754e-12,-0.70426,0,0,0.066667,6.3159e-16,0,0.66667
0.90917,0.27292,13.638,-0.34062,-17.562,38.634,12.387,-4.1291,-1.5884,16.516,1.3203e-08,-0.79418,0,0,0.066667,6.3159e-16,0,0.66667
0.90195,0.84431,13.529,0.51647,28.735,45.534,-18.633,6.2111,-1.0502,-24.844,2.9009e-08,-0.5251,0,0,0.066667,-0,-0,0.66667
0.39086,0.59887,5.8628,0.1483,37.611,1343.7,-2.3186,0.77287,-1.9331,-3.0915,1.9562e-11,-0.96657,0,0,0.066667,-0,-0,0.66667
0.61254,0.039673,9.1881,-0.69049,-129.36,598.49,16.918,-5.6394,-0.30497,22.557,6.0183e-12,-0.15248,0,0,0.066667,-0,-0,0.66667
0.52184,0.63292,7.8275,0.19938,43.419,875.19,-4.1618,1.3873,-1.8532,-5.5491,4.6896e-13,-0.92658,0,0,0.066667,-0,-0,0.66667
0.81704,0.11365,12.256,-0.57953,-57.662,147.16,18.94,-6.3134,-0.80251,25.253,-1.109e-09,-0.40125,0,0,0.066667,-0,-0,0.66667
0.056183,0.87675,0.84274,0.56513,168.86,2767.6,-1.27,0.42335,-0.85979,-1.6934,6.0702e-06,-0.42989,0,0,0.066667,-0,-0,0.66667
0.62698,0.98826,9.4046,0.73239,133.33,558.47,-18.368,6.1226,-0.096449,-24.49,1.1742e-12,-0.048224,0,0,0.066667,1.2632e-15,0,0.66667
0.42974,0.92015,6.4461,0.63022,154.04,1198.5,-10.833,3.6111,-0.58114,-14.444,-1.104e-12,-0.29057,0,0,0.066667,-0,-0,0.66667
0.86093,0.77428,12.914,0.41142,31.774,86.923,-14.168,4.7227,-1.4038,-18.891,1.0666e-08,-0.70188,0,0,0.066667,-1.2632e-15,0,0.66667
0.68787,0.75936,10.318,0.38905,61.324,400.13,-10.705,3.5682,-1.4721,-14.273,-4.0297e-12,-0.73604,0,0,0.066667,1.2632e-15,0,0.66667
0.26102,0.80646,3.9154,0.45969,128.34,1868.1,-4.7996,1.5999,-1.2457,-6.3995,8.4357e-11,-0.62287,0,0,0.066667,-0,-0,0.66667
0.13424,0.024918,2.0136,-0.71262,-209.89,2418.4,3.8265,-1.2755,-0.18892,5.1019,2.8508e-07,-0.094461,0,0,0.066667,-1.579e-16,0,0.66667
0.54134,0.32024,8.1201,-0.26964,-57.05,811.93,5.8388,-1.9463,-1.7368,7.785,9.9378e-12,-0.8684,0,0,0.066667,-0,-0,0.66667
0.9819,0.96711,14.728,0.70066,7.4884,5.0639,-27.519,9.173,-0.25763,-36.692,-3.4397e-05,-0.12881,0,0,0.066667,-4.8624e-16,0,0.66667
0.34991,0.32517,5.2486,-0.26224,-68.905,1503.7,3.6704,-1.2235,-1.7497,4.8938,2.2999e-12,-0.87485,0,0,0.066667,-0,-0,0.66667
0.99541,0.68646,14.931,0.27969,0.62769,0.71145,-11.136,3.7121,-1.7198,-14.849,4.1565e-06,-0.85989,0,0,0.066667,-5.5264e-16,0,0.66667
0.51808,0.83483,7.7711,0.50225,110.07,888.35,-10.408,3.4693,-1.1054,-13.877,-1.0262e-11,-0.55269,0,0,0.066667,-0,-0,0.66667
0.19034,0.60302,2.8551,0.15453,44.592,2171.1,-1.1765,0.39216,-1.9161,-1.5686,-2.2974e-11,-0.95807,0,0,0.066667,-0,-0,0.66667
0.030616,0.62382,0.45923,0.18574,55.567,2882.9,-0.22746,0.07582,-1.8876,-0.30328,1.6886e-06,-0.9438,0,0,0.066667,-4.9343e-18,0,0.66667
0.30302,0.21196,4.5453,-0.43206,-117.55,1693.3,5.237,-1.7457,-1.331,6.9826,1.7977e-11,-0.66548,0,0,0.066667,-3.158e-16,0,0.66667
0.035078,0.79402,0.52617,0.44102,131.98,2862.8,-0.61881,0.20627,-1.3066,-0.82509,-1.9227e-06,-0.6533,0,0,0.066667,-0,-0,0.66667
0.59005,0.69449,8.8508,0.29174,56.905,661.96,-6.8855,2.2952,-1.6963,-9.1807,4.3729e-12,-0.84816,0,0,0.066667,-1.2632e-15,0,0.66667
0.70162,0.70425,10.524,0.30638,46.518,367.57,-8.5985,2.8662,-1.6715,-11.465,-7.9936e-14,-0.83576,0,0,0.066667,1.2632e-15,0,0.66667
0.66999,0.56748,10.05,0.10121,16.676,443.23,-2.7125,0.90417,-1.9682,-3.6167,9.2726e-13,-0.98411,0,0,0.066667,-0,-0,0.66667
0.35621,0.52222,5.3431,0.033323,8.709,1478.5,-0.4748,0.15827,-1.9962,-0.63307,-3.418e-12,-0.99808,0,0,0.066667,6.3159e-16,0,0.66667
0.11164,0.33141,1.6747,-0.25288,-74.787,2518.6,1.1293,-0.37643,-1.7753,1.5057,9.9392e-09,-0.88763,0,0,0.066667,-0,-0,0.66667
0.64132,0.80213,9.6198,0.4532,79.873,518.21,-11.626,3.8753,-1.2784,-15.501,4.8885e-12,-0.63922,0,0,0.066667,-6.3159e-16,0,0.66667
0.063197,0.15304,0.94796,-0.52045,-155.35,2736,1.3156,-0.43855,-1.0465,1.7542,-5.2855e-07,-0.52326,0,0,0.066667,-1.9737e-17,0,0.66667
0.64436,0.39764,9.6654,-0.15354,-26.851,509.34,3.9574,-1.3191,-1.9148,5.2766,4.5655e-12,-0.95741,0,0,0.066667,-0,-0,0.66667
0.83529,0.12214,12.529,-0.56679,-51.259,120.67,18.937,-6.3124,-0.85237,25.25,5.4717e-09,-0.42619,0,0,0.066667,-0,-0,0.66667
0.057159,0.43351,0.85739,-0.099729,-29.764,2763.1,0.22802,-0.076006,-1.9607,0.30402,9.397e-08,-0.98037,0,0,0.066667,1.4108e-17,0,0.66667
0.35587,0.93599,5.338,0.65399,171.26,1480.9,-9.3094,3.1031,-0.47958,-12.413,-2.8528e-12,-0.23979,0,0,0.066667,-7.8949e-16,7.1513e-17,0.66667
0.61872,0.37724,9.2808,-0.18414,-33.994,579.28,4.5574,-1.5191,-1.8747,6.0765,4.6283e-12,-0.93736,0,0,0.066667,-0,-0,0.66667
0.6386,0.96193,9.579,0.6929,123.04,526.66,-17.699,5.8998,-0.29687,-23.599,-5.6133e-13,-0.14843,0,0,0.066667,-6.3159e-16,0,0.66667
0.19794,0.37041,2.9691,-0.19438,-55.923,2138,1.539,-0.513,-1.8619,2.052,-3.3126e-11,-0.93095,0,0,0.066667,4.33e-16,0,0.66667
0.62336,0.9519,9.3504,0.67785,124.26,568.12,-16.902,5.634,-0.37107,-22.536,8.3205e-12,-0.18553,0,0,0.066667,1.2632e-15,0,0.66667
0.55754,0.80246,8.3631,0.45369,93.631,761.2,-10.118,3.3727,-1.2641,-13.491,7.3364e-13,-0.63206,0,0,0.066667,-6.3159e-16,0,0.66667
0.88572,0.99214,13.286,0.73821,47.712,62.179,-26.154,8.7179,-0.058689,-34.872,4.8851e-08,-0.029344,0,0,0.066667,1.8948e-15,0,0.66667
0.69703,0.2449,10.455,-0.38265,-58.858,378.47,10.669,-3.5562,-1.4744,14.225,2.2169e-12,-0.73718,0,0,0.066667,3.158e-16,0,0.66667
0.36426,0.31484,5.4639,-0.27775,-72.128,1447,4.0469,-1.349,-1.7228,5.3959,-2.5326e-12,-0.86142,0,0,0.066667,-1.2632e-15,0,0.66667
0.22535,0.15108,3.3802,-0.52338,-148.88,2020,4.7177,-1.5726,-1.0206,6.2902,1.8506e-10,-0.5103,0,0,0.066667,-1.8236e-16,0,0.66667
0.61091,0.73881,9.1636,0.35821,67.195,601.69,-8.7533,2.9178,-1.5491,-11.671,7.3532e-12,-0.77453,0,0,0.066667,-6.3159e-16,0,0.66667
0.25557,0.89698,3.8335,0.59547,166.84,1891.4,-6.0873,2.0291,-0.73438,-8.1163,-8.3011e-11,-0.36719,0,0,0.066667,3.158e-16,0,0.66667
0.075813,0.71899,1.1372,0.32849,97.825,2679.2,-0.99615,0.33205,-1.6204,-1.3282,-2.7343e-07,-0.8102,0,0,0.066667,-3.158e-16,0,0.66667
0.8227,0.6044,12.341,0.1566,15.095,137,-5.1535,1.7178,-1.908,-6.8713,-5.7349e-11,-0.95401,0,0,0.066667,-0,-0,0.66667
0.22795,0.71192,3.4193,0.31788,90.258,2008.5,-2.8985,0.96617,-1.6352,-3.8647,2.1119e-11,-0.81758,0,0,0.066667,1.579e-16,0,0.66667
0.37955,0.3177,5.6933,-0.27345,-70.077,1387.4,4.1515,-1.3838,-1.7314,5.5353,-1.9096e-12,-0.86571,0,0,0.066667,-0,-0,0.66667
0.84649,0.95893,12.697,0.68839,58.476,106.56,-23.309,7.7695,-0.31638,-31.078,-5.9332e-08,-0.15819,0,0,0.066667,-0,-0,0.66667
0.10315,0.53457,1.5473,0.051858,15.362,2556.5,-0.21397,0.071323,-1.9856,-0.28529,5.0692e-09,-0.99279,0,0,0.066667,-3.158e-16,0,0.66667
0.96939,0.034086,14.541,-0.69887,-12.585,7.9801,27.099,-9.033,-0.27337,36.132,6.2249e-05,-0.13668,0,0,0.066667,2.5264e-15,0,0.66667
0.52282,0.72581,7.8424,0.33872,73.682,872.2,-7.0836,2.3612,-1.586,-9.4448,-2.0841e-12,-0.79301,0,0,0.066667,-0,-0,0.66667
0.67334,0.94224,10.1,0.66336,108.7,436.82,-17.867,5.9555,-0.44165,-23.822,6.6436e-13,-0.22082,0,0,0.066667,-0,-0,0.66667
0.73153,0.051846,10.973,-0.67223,-93.671,303.22,19.67,-6.5568,-0.39417,26.227,3.2488e-11,-0.19709,0,0,0.066667,-6.3159e-16,0,0.66667
0.98098,0.20338,14.715,-0.44493,-4.8613,3.3169,17.459,-5.8196,-1.2953,23.278,9.6008e-06,-0.64764,0,0,0.066667,1.0147e-16,0,0.66667
0.55276,0.046745,8.2914,-0.67988,-141.57,777.13,15.032,-5.0108,-0.35092,20.043,4.4134e-12,-0.17546,0,0,0.066667,-1.2632e-15,0,0.66667
0.69972,0.90663,10.496,0.60995,93.272,373.25,-17.072,5.6906,-0.67799,-22.762,8.9901e-12,-0.33899,0,0,0.066667,-2.5264e-15,0,0.66667
0.68269,0.78343,10.24,0.42514,67.931,412.74,-11.609,3.8698,-1.3546,-15.479,3.3289e-12,-0.67732,0,0,0.066667,-0,-0,0.66667
0.63023,0.75449,9.4535,0.38173,68.867,547.91,-9.6231,3.2077,-1.4781,-12.831,2.8404e-12,-0.73904,0,0,0.066667,-0,-0,0.66667
0.79934,0.48237,11.99,-0.026446,-2.849,173.33,0.84556,-0.28185,-1.9994,1.1274,-2.8197e-11,-0.99972,0,0,0.066667,-0,-0,0.66667
0.34565,0.64796,5.1848,0.22194,58.508,1520.5,-3.0686,1.0229,-1.829,-4.0914,8.6087e-13,-0.91452,0,0,0.066667,-0,-0,0.66667
0.48189,0.93812,7.2284,0.65718,151.28,1011.7,-12.668,4.2225,-0.46784,-16.89,8.9262e-12,-0.23392,0,0,0.066667,-1.2632e-15,6.1348e-18,0.66667
0.078123,0.46139,1.1718,-0.057908,-17.233,2668.8,0.18096,-0.060319,-2.0002,0.24128,2.0852e-08,-1.0001,0,0,0.066667,7.8949e-17,0,0.66667
0.91011,0.19459,13.652,-0.45811,-23.431,38.458,16.677,-5.5591,-1.2523,22.236,-1.0139e-07,-0.62617,0,0,0.066667,2.5264e-15,0,0.66667
0.55923,0.050662,8.3884,-0.67401,-138.89,756.88,15.077,-5.0256,-0.38437,20.103,1.769e-11,-0.19218,0,0,0.066667,-1.2938e-15,-7.4312e-17,0.66667
0.52499,0.16856,7.8748,-0.49716,-107.88,865.56,10.44,-3.48,-1.1153,13.92,1.0764e-11,-0.55766,0,0,0.066667,-0,-0,0.66667
0.26695,0.35196,4.0043,-0.22206,-61.754,1842.9,2.3712,-0.79041,-1.831,3.1616,3.2602e-11,-0.9155,0,0,0.066667,-6.3159e-16,0,0.66667
0.89999,0.16742,13.5,-0.49887,-28.275,47.124,17.959,-5.9864,-1.1093,23.946,2.4269e-08,-0.55465,0,0,0.066667,-0,-0,0.66667
0.013914,0.98328,0.2087,0.72492,217.41,2958.4,-0.40336,0.13441,-0.13656,-0.53783,-6.3632e-05,-0.068282,0,0,0.066667,-1.9737e-17,7.8562e-17,0.66667
0.097001,0.59699,1.455,0.14549,43.154,2584.1,-0.5645,0.18817,-1.9254,-0.75266,-2.5252e-08,-0.96269,0,0,0.066667,-0,-0,0.66667
0.060075,0.82778,0.90112,0.49167,146.8,2750.1,-1.1815,0.39383,-1.1425,-1.5753,1.5502e-06,-0.57126,0,0,0.066667,7.8949e-17,0,0.66667
0.24092,0.83077,3.6138,0.49615,140.04,1953.3,-4.7813,1.5938,-1.1186,-6.3751,-1.5379e-12,-0.55931,0,0,0.066667,3.158e-16,0,0.66667
0.49685,0.89628,7.4527,0.59442,134.18,960.02,-11.814,3.9379,-0.74375,-15.751,-5.4099e-12,-0.37188,0,0,0.066667,6.3159e-16,0,0.66667
0.46352,0.045407,6.9529,-0.68189,-160.55,1076.4,12.643,-4.2143,-0.34211,16.857,6.6098e-12,-0.17106,0,0,0.066667,6.3159e-16,0,0.66667
0.27055,0.65899,4.0582,0.23849,66.184,1827.8,-2.5809,0.86029,-1.7948,-3.4411,3.3432e-11,-0.89739,0,0,0.066667,-0,-0,0.66667
0.55511,0.72119,8.3266,0.33179,68.709,768.45,-7.3672,2.4557,-1.6032,-9.8229,-1.0605e-11,-0.80159,0,0,0.066667,1.2632e-15,0,0.66667
0.22734,0.9578,3.41,0.6867,195.3,2011.7,-6.2444,2.0815,-0.31701,-8.3259,2.1443e-10,-0.1585,0,0,0.066667,3.158e-16,0,0.66667
0.3657,0.53423,5.4854,0.051345,13.314,1441.2,-0.75106,0.25035,-1.9857,-1.0014,3.1665e-11,-0.99287,0,0,0.066667,-0,-0,0.66667
0.16996,0.63352,2.5494,0.20028,58.24,2260.2,-1.3616,0.45387,-1.8615,-1.8155,2.2849e-10,-0.93075,0,0,0.066667,-0,-0,0.66667
0.66427,0.8092,9.9641,0.46379,77.575,458.53,-12.323,4.1078,-1.2296,-16.431,2.2595e-12,-0.61479,0,0,0.066667,-3.158e-16,0,0.66667
0.081667,0.11209,1.225,-0.58187,-173.26,2653,1.9008,-0.6336,-0.79502,2.5344,1.6358e-07,-0.39751,0,0,0.066667,-1.579e-16,0,0.66667
0.34329,0.38553,5.1493,-0.1717,-45.346,1529.9,2.3578,-0.78592,-1.9049,3.1437,1.2844e-11,-0.95245,0,0,0.066667,-0,-0,0.66667
0.53103,0.68641,7.9654,0.27962,60.09,845.24,-5.9394,1.9798,-1.7341,-7.9191,8.773e-12,-0.86704,0,0,0.066667,7.8949e-16,0,0.66667
0.54953,0.13679,8.243,-0.54482,-113.94,786.7,11.976,-3.9919,-0.94602,15.968,9.8304e-12,-0.47301,0,0,0.066667,-0,-0,0.66667
0.36765,0.89809,5.5148,0.59714,154.8,1434.4,-8.7816,2.9272,-0.72596,-11.709,3.1726e-12,-0.36298,0,0,0.066667,-0,-0,0.66667
0.64375,0.6384,9.6563,0.2076,36.358,511.04,-5.3457,1.7819,-1.8467,-7.1277,-7.2609e-13,-0.92335,0,0,0.066667,-0,-0,0.66667
0.16445,0.23775,2.4667,-0.39338,-114.66,2284.6,2.5876,-0.86255,-1.4432,3.4502,1.2255e-09,-0.72162,0,0,0.066667,-3.5264e-16,0,0.66667
0.7243,0.38051,10.864,-0.17923,-25.463,316.63,5.1928,-1.7309,-1.8814,6.9237,-7.7893e-13,-0.94068,0,0,0.066667,-0,-0,0.66667
0.92525,0.66774,13.879,0.25161,10.733,26.496,-9.3121,3.104,-1.7743,-12.416,2.8165e-07,-0.88713,0,0,0.066667,-0,-0,0.66667
0.98983,0.045843,14.847,-0.68124,-4.0677,3.7426,26.972,-8.9908,-0.34505,35.963,-0.00018527,-0.17253,0,0,0.066667,-0,-0,0.66667
0.87848,0.077268,13.177,-0.6341,-43.318,68.694,22.282,-7.4273,-0.56934,29.709,-2.0888e-07,-0.28467,0,0,0.066667,-0,-0,0.66667
0.26092,0.73009,3.9138,0.34514,96.334,1868.4,-3.6021,1.2007,-1.5728,-4.8028,2.6867e-11,-0.78641,0,0,0.066667,-0,-0,0.66667
0.038093,0.33015,0.5714,-0.25478,-76.191,2849.1,0.38822,-0.1294,-1.7628,0.51762,8.9123e-07,-0.88142,0,0,0.066667,-0,-0,0.66667
0.97403,0.18866,14.61,-0.46701,-7.0167,4.9776,18.195,-6.065,-1.2213,24.26,2.101e-05,-0.61063,0,0,0.066667,-0,-0,0.66667
0.55712,0.2772,8.3568,-0.3342,-68.984,762.17,7.4475,-2.4825,-1.5989,9.93,2.411e-11,-0.79947,0,0,0.066667,-9.4739e-16,0,0.66667
0.53971,0.13165,8.0956,-0.55252,-117.33,818,11.928,-3.976,-0.90858,15.904,-5.123e-12,-0.45429,0,0,0.066667,-0,-0,0.66667
0.14646,0.18103,2.1969,-0.47846,-140.29,2364,2.803,-0.93434,-1.1811,3.7374,-5.2956e-09,-0.59057,0,0,0.066667,-1.579e-16,0,0.66667
0.91249,0.54032,13.687,0.060483,3.0016,35.336,-2.2076,0.73587,-1.9814,-2.9435,3.0434e-08,-0.99068,0,0,0.066667,-0,-0,0.66667
0.95761,0.19209,14.364,-0.46187,-11.331,10.234,17.692,-5.8972,-1.239,23.589,-8.3295e-06,-0.61951,0,0,0.066667,-0,-0,0.66667
0.85963,0.29768,12.894,-0.30348,-23.618,88.028,10.435,-3.4784,-1.683,13.914,-2.073e-09,-0.8415,0,0,0.066667,-0,-0,0.66667
0.69276,0.072768,10.391,-0.64085,-99.887,389.7,17.758,-5.9194,-0.53526,23.678,1.1138e-12,-0.26763,0,0,0.066667,-0,-0,0.66667
0.3859,0.10849,5.7885,-0.58727,-149.81,1363.6,9.0651,-3.0217,-0.76994,12.087,7.1587e-13,-0.38497,0,0,0.066667,6.3159e-16,0,0.66667
0.92673,0.36692,13.901,-0.19962,-8.346,25.372,7.3996,-2.4665,-1.8547,9.8661,-2.6957e-07,-0.92734,0,0,0.066667,-6.3159e-16,0,0.66667
0.85447,0.47745,12.817,-0.033828,-2.7192,93.785,1.1562,-0.3854,-1.9921,1.5416,1.1101e-10,-0.99606,0,0,0.066667,-0,-0,0.66667
0.83789,0.0019632,12.568,-0.74706,-66.771,118.44,25.038,-8.346,-0.011448,33.384,4.3046e-10,-0.0057239,0,0,0.066667,-0,-0,0.66667
0.58406,0.01764,8.7609,-0.72354,-142.99,681.47,16.904,-5.6345,-0.13305,22.538,1.8465e-11,-0.066525,0,0,0.066667,-1.2632e-15,0,0.66667
0.069977,0.02375,1.0497,-0.71437,-213.22,2705.6,1.9996,-0.66653,-0.17931,2.6661,7.512e-06,-0.089656,0,0,0.066667,-0,-0,0.66667
0.025655,0.76683,0.38482,0.40025,119.83,2905.3,-0.41073,0.13692,-1.4252,-0.54764,1.2436e-05,-0.71261,0,0,0.066667,-3.9475e-17,0,0.66667
0.2256,0.52562,3.384,0.038427,10.919,2018.5,-0.34677,0.11559,-1.9891,-0.46236,1.0334e-11,-0.99453,0,0,0.066667,-0,-0,0.66667
0.092302,0.687,1.3845,0.28049,83.29,2605.2,-1.0356,0.3452,-1.7273,-1.3808,-1.6946e-09,-0.86367,0,0,0.066667,1.7764e-16,0,0.66667
0.74511,0.67919,11.177,0.26878,35.731,273.3,-8.0108,2.6703,-1.7394,-10.681,2.7827e-12,-0.86969,0,0,0.066667,-6.3159e-16,0,0.66667
0.85106,0.74144,12.766,0.36216,29.792,98.782,-12.329,4.1095,-1.5274,-16.438,-3.3061e-09,-0.76371,0,0,0.066667,6.3159e-16,0,0.66667
0.54047,0.17388,8.107,-0.48918,-103.72,815.32,10.575,-3.5251,-1.1431,14.101,8.5585e-12,-0.57156,0,0,0.066667,-0,-0,0.66667
0.61127,0.96831,9.1691,0.70246,131.94,602.15,-17.176,5.7253,-0.25095,-22.901,1.1534e-11,-0.12547,0,0,0.066667,7.8949e-17,0,0.66667
0.47314,0.62937,7.0971,0.19405,45.077,1041.1,-3.6725,1.2242,-1.8638,-4.8966,1.0922e-11,-0.93192,0,0,0.066667,-0,-0,0.66667
0.93519,0.83149,14.028,0.49723,18.546,21.413,-18.6,6.2,-1.1234,-24.8,3.0381e-08,-0.56171,0,0,0.066667,1.557e-16,0,0.66667
0.61281,0.19283,9.1922,-0.46075,-86.149,596.64,11.294,-3.7647,-1.245,15.059,6.41e-12,-0.6225,0,0,0.066667,-0,-0,0.66667
0.62036,0.7915,9.3054,0.43725,80.524,575.35,-10.85,3.6167,-1.3168,-14.467,7.4003e-12,-0.65838,0,0,0.066667,-0,-0,0.66667
0.85801,0.91771,12.87,0.62657,49.481,91.698,-21.504,7.168,-0.61002,-28.672,-5.3263e-08,-0.30501,0,0,0.066667,-0,7.3352e-17,0.66667
0.38374,0.13184,5.7561,-0.55224,-141.13,1371.8,8.4767,-2.8256,-0.90978,11.302,-6.6853e-12,-0.45489,0,0,0.066667,-0,-0,0.66667
0.06411,0.67409,0.96164,0.26114,77.887,2731.8,-0.66967,0.22322,-1.7624,-0.89289,-4.1455e-07,-0.88122,0,0,0.066667,-0,-0,0.66667
0.74015,0.34466,11.102,-0.23301,-31.486,283.33,6.8984,-2.2995,-1.8031,9.1978,-9.7877e-13,-0.90153,0,0,0.066667,-2.5264e-15,0,0.66667
0.84419,0.26199,12.663,-0.35702,-30.615,107.6,12.056,-4.0186,-1.5565,16.074,1.7401e-09,-0.77826,0,0,0.066667,-1.2632e-15,0,0.66667
0.52023,0.13977,7.8035,-0.54035,-118.08,881.35,11.244,-3.7481,-0.95828,14.992,1.582e-11,-0.47914,0,0,0.066667,-0,-0,0.66667
0.46764,0.72691,7.0147,0.34036,79.621,1060.7,-6.3667,2.1222,-1.5953,-8.489,1.042e-11,-0.79766,0,0,0.066667,-0,-0,0.66667
0.098624,0.57044,1.4794,0.10566,31.33,2576.8,-0.41683,0.13894,-1.9566,-0.55578,-2.13e-08,-0.97832,0,0,0.066667,3.158e-16,0,0.66667
0.31326,0.64746,4.6989,0.22118,59.726,1651.1,-2.7715,0.92384,-1.8346,-3.6954,-2.8844e-13,-0.91732,0,0,0.066667,-0,-0,0.66667
0.18739,0.077767,2.8108,-0.63335,-183.23,2184.4,4.7472,-1.5824,-0.58487,6.3296,8.5313e-09,-0.29243,0,0,0.066667,-3.158e-16,0,0.66667
0.74742,0.024789,11.211,-0.71282,-94.341,270.8,21.311,-7.1037,-0.19554,28.415,2.5583e-11,-0.097769,0,0,0.066667,-0,-5.1794e-17,0.66667
0.16037,0.77034,2.4055,0.40551,118.36,2302.6,-2.6012,0.86707,-1.4129,-3.4683,-1.5998e-11,-0.70646,0,0,0.066667,-0,-0,0.66667
0.68463,0.69572,10.269,0.29358,46.648,407.61,-8.0399,2.68,-1.6946,-10.72,-2.4576e-12,-0.84729,0,0,0.066667,1.2632e-15,0,0.66667
0.44067,0.24092,6.6101,-0.38862,-93.779,1157.7,6.8501,-2.2834,-1.4631,9.1335,6.9074e-12,-0.73156,0,0,0.066667,-6.3159e-16,0,0.66667
0.0042513,0.93655,0.063769,0.65482,196.35,3002,-0.11141,0.037141,-0.47417,-0.14854,9.3825e-06,-0.23708,0,0,0.066667,9.2519e-19,1.8694e-17,0.66667
0.70234,0.12995,10.535,-0.55508,-84.235,366.92,15.594,-5.1981,-0.91341,20.792,4.6745e-12,-0.45671,0,0,0.066667,-0,-4.4046e-17,0.66667
0.79289,0.32764,11.893,-0.25855,-28.668,184.45,8.2,-2.7333,-1.7601,10.933,2.1599e-11,-0.88003,0,0,0.066667,-0,-0,0.66667
0.33849,0.31614,5.0773,-0.27579,-73.118,1549.2,3.7341,-1.2447,-1.7259,4.9788,2.4102e-11,-0.86293,0,0,0.066667,-0,-0,0.66667
0.47734,0.20532,7.16,-0.44202,-102.22,1026.9,8.4397,-2.8132,-1.2989,11.253,-1.0889e-12,-0.64943,0,0,0.066667,6.6314e-17,0,0.66667
0.048717,0.11058,0.73075,-0.58413,-174.69,2801.3,1.1383,-0.37942,-0.79083,1.5177,5.7918e-06,-0.39541,0,0,0.066667,-0,-0,0.66667
0.22657,0.15863,3.3986,-0.51205,-145.57,2014.7,4.6406,-1.5469,-1.0623,6.1875,2.1737e-10,-0.53115,0,0,0.066667,-0,-0,0.66667
0.69626,0.28613,10.444,-0.3208,-49.432,380.07,8.9343,-2.9781,-1.6285,11.912,2.1139e-12,-0.81425,0,0,0.066667,-0,-0,0.66667
0.14114,0.030166,2.1171,-0.70475,-207.17,2387.8,3.9787,-1.3262,-0.24484,5.3049,1.9124e-07,-0.12242,0,0,0.066667,-1.579e-16,0,0.66667
0.23059,0.78913,3.4589,0.43369,123.02,1997.4,-4.0002,1.3334,-1.3299,-5.3336,9.111e-11,-0.66493,0,0,0.066667,6.3159e-16,0,0.66667
0.69479,0.574,10.422,0.11099,17.161,383.09,-3.0847,1.0282,-1.9497,-4.1129,3.0815e-12,-0.97486,0,0,0.066667,-0,-0,0.66667
0.068365,0.09101,1.0255,-0.61349,-183.07,2712.8,1.6777,-0.55922,-0.65745,2.2369,1.9138e-06,-0.32872,0,0,0.066667,7.8949e-17,0,0.66667
0.72933,0.67694,10.94,0.2654,37.133,306.02,-7.7427,2.5809,-1.7454,-10.324,1.0791e-12,-0.87268,0,0,0.066667,-0,-0,0.66667
0.62746,0.66786,9.4119,0.25179,45.668,555.17,-6.3196,2.1065,-1.7766,-8.4261,5.3775e-12,-0.88831,0,0,0.066667,-0,-0,0.66667
0.65207,0.26076,9.781,-0.35886,-61.721,489.53,9.36,-3.12,-1.5396,12.48,2.9408e-12,-0.76978,0,0,0.066667,-0,-0,0.66667
0.32147,0.049843,4.822,-0.67524,-181.56,1618.6,8.6826,-2.8942,-0.37266,11.577,3.6553e-11,-0.18633,0,0,0.066667,-0,-0,0.66667
0.53844,0.55079,8.0766,0.076179,16.184,820.99,-1.6407,0.54691,-1.9729,-2.1876,9.534e-12,-0.98646,0,0,0.066667,-6.3159e-16,0,0.66667
0.078783,0.4845,1.1817,-0.023243,-6.916,2665.8,0.073245,-0.024415,-2.0068,0.09766,5.7083e-08,-1.0034,0,0,0.066667,-1.579e-16,0,0.66667
0.28452,0.3005,4.2677,-0.29925,-82.36,1769.6,3.4056,-1.1352,-1.6812,4.5408,5.9777e-12,-0.84061,0,0,0.066667,3.158e-16,0,0.66667
0.20287,0.72393,3.043,0.33589,96.463,2116.7,-2.7256,0.90854,-1.6101,-3.6341,1.8017e-10,-0.80503,0,0,0.066667,-0,-0,0.66667
0.51135,0.74782,7.6702,0.37173,82.196,910.35,-7.6033,2.5344,-1.507,-10.138,7.0388e-12,-0.75351,0,0,0.066667,-3.158e-16,0,0.66667
0.65221,0.47814,9.7831,-0.032787,-5.6329,488.6,0.85535,-0.28512,-1.994,1.1405,9.8161e-12,-0.99702,0,0,0.066667,-0,-0,0.66667
0.61509,0.40338,9.2263,-0.14493,-26.948,589.43,3.5658,-1.1886,-1.9211,4.7544,3.7814e-13,-0.96055,0,0,0.066667,-9.4739e-16,0,0.66667
0.13364,0.5529,2.0046,0.079344,23.332,2420.6,-0.42413,0.14138,-1.9714,-0.56551,-4.9725e-10,-0.9857,0,0,0.066667,1.579e-16,0,0.66667
0.18016,0.45509,2.7023,-0.067359,-19.513,2215.5,0.4854,-0.1618,-1.9773,0.6472,5.7517e-11,-0.98864,0,0,0.066667,-0,-0,0.66667
0.49726,0.89243,7.4589,0.58865,132.8,958.61,-11.708,3.9028,-0.76904,-15.611,3.2383e-12,-0.38452,0,0,0.066667,-6.3159e-16,0,0.66667
0.020049,0.61707,0.30073,0.1756,52.563,2930.6,-0.14083,0.046944,-1.8875,-0.18777,2.4314e-06,-0.94377,0,0,0.066667,-0,-0,0.66667
0.73614,0.27412,11.042,-0.33883,-46.408,291.92,9.9769,-3.3256,-1.5966,13.303,5.6311e-13,-0.79831,0,0,0.066667,-1.2632e-15,0,0.66667
0.59242,0.081343,8.8864,-0.62799,-122.17,656.19,14.881,-4.9605,-0.60383,19.842,2.1956e-12,-0.30192,0,0,0.066667,-0,-0,0.66667
0.15883,0.34742,2.3825,-0.22888,-66.809,2309.2,1.4541,-0.48471,-1.8163,1.9388,-7.8695e-11,-0.90814,0,0,0.066667,-0,-0,0.66667
0.91731,0.97515,13.76,0.71273,33.858,34.784,-26.152,8.7172,-0.19093,-34.869,-7.3059e-07,-0.095467,0,0,0.066667,-0,-1.0136e-16,0.66667
0.54373,0.84745,8.1559,0.52117,109.97,805.03,-11.335,3.7783,-1.0351,-15.113,1.4223e-11,-0.51755,0,0,0.066667,-1.2632e-15,0,0.66667
0.99776,0.065581,14.966,-0.65163,-0.78045,2.8947,26.007,-8.6688,-0.4941,34.676,0.00013055,-0.24705,0,0,0.066667,-0,8.4202e-17,0.66667
0.042324,0.2771,0.63487,-0.33435,-99.968,2830,0.56604,-0.18868,-1.6,0.75472,2.7469e-06,-0.79999,0,0,0.066667,1.9737e-17,0,0.66667
0.81295,0.48425,12.194,-0.023619,-2.3891,151.61,0.76803,-0.25601,-2.0076,1.024,8.3864e-11,-1.0038,0,0,0.066667,-0,-0,0.66667
0.077381,0.34908,1.1607,-0.22638,-67.388,2672.1,0.70071,-0.23357,-1.8268,0.93428,1.8974e-07,-0.91342,0,0,0.066667,1.579e-16,0,0.66667
0.94025,0.052189,14.104,-0.67172,-23.285,19.844,25.263,-8.421,-0.39696,33.684,2.2359e-05,-0.19848,0,0,0.066667,-0,-0,0.66667
0.36144,0.74681,5.4215,0.37022,96.394,1458.3,-5.3525,1.7842,-1.517,-7.1366,2.6253e-11,-0.7585,0,0,0.066667,9.4739e-16,0,0.66667
0.66661,0.32439,9.9992,-0.26341,-43.773,451.97,7.0237,-2.3412,-1.7487,9.365,4.7247e-12,-0.87434,0,0,0.066667,-0,-0,0.66667
0.71461,0.3643,10.719,-0.20355,-29.772,337.92,5.8184,-1.9395,-1.8502,7.7579,-1.7355e-12,-0.92511,0,0,0.066667,6.3159e-16,0,0.66667
0.7131,0.18449,10.696,-0.47327,-69.616,342.14,13.5,-4.4998,-1.1995,17.999,-1.9718e-12,-0.59973,0,0,0.066667,1.579e-15,0,0.66667
0.69395,0.019381,10.409,-0.72093,-112.09,387.4,20.012,-6.6705,-0.14603,26.682,7.3541e-12,-0.073014,0,0,0.066667,-0,-0,0.66667
0.01165,0.79441,0.17475,0.44162,132.3,2968.6,-0.20578,0.068582,-1.3043,-0.27438,-1.7256e-05,-0.65217,0,0,0.066667,-1.9737e-17,0,0.66667
0.22048,0.35625,3.3071,-0.21562,-61.428,2040.6,1.9016,-0.63387,-1.8392,2.5355,-3.6728e-12,-0.9196,0,0,0.066667,-3.158e-16,0,0.66667
0.79727,0.76274,11.959,0.39411,42.913,177.58,-12.569,4.1895,-1.4576,-16.758,-1.484e-10,-0.72881,0,0,0.066667,-0,-0,0.66667
0.78697,0.43065,11.805,-0.10403,-11.821,194.3,3.2747,-1.0916,-1.9567,4.3662,3.9466e-11,-0.97835,0,0,0.066667,-6.3159e-16,0,0.66667
0.80166,0.25381,12.025,-0.36928,-39.425,170.26,11.842,-3.9472,-1.5122,15.789,2.5375e-10,-0.75609,0,0,0.066667,-0,-0,0.66667
0.0078286,0.73778,0.11743,0.35666,106.83,2985.9,-0.11168,0.037223,-1.5411,-0.14891,-7.0953e-06,-0.77055,0,0,0.066667,9.8686e-18,0,0.66667
0.041346,0.66354,0.62019,0.2453,73.338,2834.4,-0.40569,0.13523,-1.7814,-0.54093,-1.2539e-06,-0.89071,0,0,0.066667,-0,-0,0.66667
0.073826,0.71318,1.1074,0.31977,95.254,2688.1,-0.94428,0.31476,-1.6342,-1.259,-3.4633e-07,-0.81709,0,0,0.066667,-7.8949e-17,0,0.66667
0.87375,0.85433,13.106,0.53149,37.565,73.038,-18.576,6.1919,-1.002,-24.768,4.1268e-08,-0.50101,0,0,0.066667,-0,-9.0491e-18,0.66667
0.47744,0.18345,7.1616,-0.47483,-109.81,1026.6,9.0681,-3.0227,-1.1929,12.091,-1.755e-12,-0.59643,0,0,0.066667,3.158e-16,0,0.66667
0.73172,0.38486,10.976,-0.17272,-23.977,300.76,5.0552,-1.6851,-1.8955,6.7403,-3.098e-12,-0.94774,0,0,0.066667,-0,-0,0.66667
0.21832,0.011827,3.2748,-0.73226,-209.19,2050.6,6.3946,-2.1315,-0.10326,8.5261,-4.6747e-10,-0.05163,0,0,0.066667,-0,-0,0.66667
0.66983,0.74717,10.047,0.37076,61.159,444.2,-9.9337,3.3112,-1.5157,-13.245,-6.7146e-13,-0.75785,0,0,0.066667,-4.737e-16,0,0.66667
0.44403,0.31563,6.6604,-0.27655,-66.469,1145.2,4.9119,-1.6373,-1.723,6.5492,-3.2383e-12,-0.86149,0,0,0.066667,-0,-0,0.66667
0.98864,0.26339,14.83,-0.35492,-2.2446,1.6498,14.035,-4.6785,-1.5492,18.714,-5.5442e-06,-0.77462,0,0,0.066667,2.5264e-15,0,0.66667
0.28625,0.46239,4.2937,-0.05642,-15.506,1762.2,0.646,-0.21533,-1.985,0.86134,1.8394e-11,-0.99249,0,0,0.066667,-0,-0,0.66667
0.10849,0.67679,1.6274,0.26519,78.485,2532.7,-1.1508,0.38362,-1.7579,-1.5345,-2.8936e-08,-0.87893,0,0,0.066667,-0,-0,0.66667
0.5469,0.11601,8.2035,-0.57598,-120.97,795.15,12.6,-4.2001,-0.83225,16.8,4.2517e-12,-0.41613,0,0,0.066667,-0,-0,0.66667
0.68117,0.99277,10.218,0.73916,118.85,418.07,-20.14,6.7133,-0.051883,-26.853,4.0288e-12,-0.025941,0,0,0.066667,-1.2632e-15,0,0.66667
0.13472,0.42222,2.0208,-0.11667,-34.299,2415.8,0.62871,-0.20957,-1.946,0.83828,1.0018e-09,-0.97301,0,0,0.066667,-3.1744e-16,0,0.66667
0.53924,0.84777,8.0887,0.52165,110.83,819.38,-11.252,3.7506,-1.0267,-15.003,3.0829e-12,-0.51337,0,0,0.066667,-0,-0,0.66667
0.74439,0.19068,11.166,-0.46399,-61.898,275.46,13.815,-4.6052,-1.2304,18.421,1.8789e-11,-0.61521,0,0,0.066667,-0,-0,0.66667
0.11184,0.55352,1.6777,0.080277,23.735,2517.7,-0.35914,0.11971,-1.9793,-0.47885,-4.321e-09,-0.98965,0,0,0.066667,7.8949e-17,0,0.66667
0.78567,0.93562,11.785,0.65343,74.932,198.74,-20.535,6.8451,-0.47998,-27.38,4.8816e-09,-0.23999,0,0,0.066667,-0,-0,0.66667
0.54416,0.41552,8.1624,-0.12671,-26.686,802.72,2.7581,-0.91937,-1.9443,3.6775,5.4383e-12,-0.97216,0,0,0.066667,-0,-0,0.66667
0.010525,0.60215,0.15787,0.15322,45.876,2973.7,-0.064503,0.021501,-1.9124,-0.086004,-4.7288e-07,-0.95621,0,0,0.066667,-0,-0,0.66667
0.5891,0.8754,8.8365,0.5631,110.16,665.69,-13.269,4.4229,-0.87056,-17.692,2.2631e-12,-0.43528,0,0,0.066667,-2.5264e-15,0,0.66667
0.80467,0.79198,12.07,0.43798,46.148,165.69,-14.097,4.699,-1.3115,-18.796,1.5024e-10,-0.65573,0,0,0.066667,1.2632e-15,0,0.66667
0.99094,0.46195,14.864,-0.05707,-0.27561,0.58185,2.2621,-0.75404,-1.9828,3.0162,4.5156e-07,-0.99138,0,0,0.066667,-6.7643e-16,0,0.66667
0.99131,0.64842,14.87,0.22264,1.0374,0.851,-8.828,2.9427,-1.8177,-11.771,1.9083e-06,-0.90887,0,0,0.066667,-0,-0,0.66667
0.41395,0.13027,6.2093,-0.55459,-137.72,1256.9,9.183,-3.061,-0.90048,12.244,3.4686e-11,-0.45024,0,0,0.066667,-1.2632e-15,0,0.66667
0.037335,0.10977,0.56003,-0.58534,-175.22,2852.6,0.87415,-0.29137,-0.77603,1.1655,2.0897e-05,-0.38802,0,0,0.066667,-1.2316e-16,0,0.66667
0.97041,0.53089,14.556,0.04634,0.78354,4.543,-1.7987,0.59958,-1.9987,-2.3983,3.1338e-07,-0.99934,0,0,0.066667,-2.3685e-16,0,0.66667
0.22054,0.39546,3.3081,-0.15682,-44.669,2040.3,1.3834,-0.46112,-1.9169,1.8445,-1.4235e-12,-0.95847,0,0,0.066667,-3.158e-16,0,0.66667
0.95501,0.65072,14.325,0.22608,5.8454,10.252,-8.6364,2.8788,-1.8228,-11.515,9.5502e-07,-0.91142,0,0,0.066667,1.2632e-15,0,0.66667
0.96537,0.38426,14.481,-0.17361,-3.4485,6.2634,6.7037,-2.2346,-1.8924,8.9383,3.4515e-07,-0.94618,0,0,0.066667,2.5264e-15,0,0.66667
0.32834,0.055942,4.9251,-0.66609,-178.2,1590.8,8.748,-2.916,-0.43374,11.664,2.4928e-11,-0.21687,0,0,0.066667,-0,-0,0.66667
0.76276,0.99924,11.441,0.74887,93.952,241.14,-22.848,7.616,-0.0082538,-30.464,-2.9713e-11,-0.0041269,0,0,0.066667,1.2632e-15,-7.4569e-18,0.66667
0.63192,0.10669,9.4788,-0.58996,-106.18,544.15,14.912,-4.9708,-0.75608,19.883,1.1999e-12,-0.37804,0,0,0.066667,-0,-0,0.66667
0.84643,0.89218,12.696,0.58827,49.91,105.91,-19.917,6.6391,-0.77081,-26.556,3.6118e-08,-0.3854,0,0,0.066667,-0,-0,0.66667
0.9544,0.37234,14.316,-0.19148,-5.0152,10.417,7.3101,-2.4367,-1.877,9.7468,-6.6399e-07,-0.93848,0,0,0.066667,1.8948e-15,0,0.66667
0.2058,0.9087,3.0871,0.61306,176.01,2104.3,-5.0468,1.6823,-0.66613,-6.729,1.1335e-10,-0.33307,0,0,0.066667,6.3159e-16,0,0.66667
0.40934,0.34792,6.1402,-0.22812,-56.848,1273.5,3.7352,-1.2451,-1.8159,4.9803,1.737e-11,-0.90795,0,0,0.066667,-0,-0,0.66667
0.72856,0.051773,10.928,-0.67234,-94.562,309.53,19.594,-6.5312,-0.38743,26.125,-2.8704e-11,-0.19371,0,0,0.066667,-0,-0,0.66667
0.58992,0.70393,8.8488,0.30589,59.683,662.39,-7.218,2.406,-1.6654,-9.624,1.668e-12,-0.8327,0,0,0.066667,-1.2632e-15,0,0.66667
0.9412,0.40722,14.118,-0.13917,-4.6873,16.626,5.2393,-1.7464,-1.9311,6.9858,-2.2063e-07,-0.96553,0,0,0.066667,-0,-0,0.66667
0.44689,0.077457,6.7033,-0.63381,-152.07,1135.8,11.33,-3.7766,-0.56574,15.106,-2.8377e-12,-0.28287,0,0,0.066667,-0,-0,0.66667
0.61758,0.92022,9.2638,0.63033,116.87,583.96,-15.571,5.1904,-0.58071,-20.762,1.1577e-11,-0.29036,0,0,0.066667,-0,-0,0.66667
0.082488,0.1309,1.2373,-0.55365,-164.82,2649.3,1.8268,-0.60893,-0.90767,2.4357,1.4013e-07,-0.45383,0,0,0.066667,-0,-0,0.66667
0.23041,0.76424,3.4562,0.39636,112.43,1998.1,-3.653,1.2177,-1.4392,-4.8707,8.1559e-11,-0.71961,0,0,0.066667,-0,-0,0.66667
0.12199,0.112,1.8298,-0.582,-171.87,2472.7,2.8398,-0.94661,-0.79594,3.7865,1.9579e-07,-0.39797,0,0,0.066667,-0,-1.3661e-17,0.66667
0.76669,0.71463,11.5,0.32194,39.657,231.39,-9.8731,3.291,-1.6394,-13.164,-2.4598e-11,-0.8197,0,0,0.066667,1.2632e-15,0,0.66667
0.019268,0.29361,0.28903,-0.30959,-92.693,2934.2,0.23861,-0.079541,-1.6578,0.31815,-5.0008e-06,-0.82891,0,0,0.066667,-0,-0,0.66667
0.941,0.45598,14.115,-0.066025,-2.2302,16.638,2.4852,-0.82839,-1.9835,3.3135,-1.8701e-07,-0.99173,0,0,0.066667,-0,-0,0.66667
0.83589,0.039249,12.538,-0.69113,-62.408,120.71,23.108,-7.7027,-0.2954,30.811,-2.2245e-08,-0.1477,0,0,0.066667,-2.5264e-15,0,0.66667
0.67901,0.97084,10.185,0.70627,114.15,423.13,-19.182,6.3942,-0.22119,-25.577,4.4569e-12,-0.1106,0,0,0.066667,-0,-0,0.66667
0.02865,0.93276,0.42975,0.64913,194.48,2891.8,-0.74392,0.24803,-0.50413,-0.99186,8.3603e-05,-0.25207,0,0,0.066667,1.9737e-17,0,0.66667
0.2579,0.43741,3.8685,-0.093888,-26.239,1881,0.96854,-0.32285,-1.9637,1.2914,1.8318e-11,-0.98184,0,0,0.066667,-1.3569e-16,0,0.66667
0.13628,0.84959,2.0442,0.52439,154.24,2409.1,-2.8586,0.95287,-1.0199,-3.8115,2.2124e-08,-0.50994,0,0,0.066667,3.158e-16,0,0.66667
0.7107,0.32717,10.66,-0.25925,-38.358,346.77,7.3698,-2.4566,-1.7544,9.8264,2.081e-12,-0.87719,0,0,0.066667,-0,-0,0.66667
0.069466,0.086263,1.042,-0.62061,-185.17,2707.9,1.7244,-0.57481,-0.62458,2.2993,3.0882e-06,-0.31229,0,0,0.066667,7.8949e-17,0,0.66667
0.88989,0.4529,13.348,-0.070649,-4.3697,54.927,2.5148,-0.83826,-1.9906,3.353,-3.5528e-09,-0.9953,0,0,0.066667,-0,-0,0.66667
0.55437,0.26041,8.3155,-0.35939,-74.52,770.84,7.9694,-2.6565,-1.5343,10.626,1.6397e-11,-0.76716,0,0,0.066667,-1.2632e-15,0,0.66667
0.10339,0.14302,1.5508,-0.53547,-158.77,2555.7,2.2145,-0.73816,-0.97488,2.9526,-2.0375e-07,-0.48744,0,0,0.066667,-0,-0,0.66667
0.46053,0.62673,6.9079,0.1901,44.831,1085.7,-3.5018,1.1673,-1.8662,-4.6691,6.158e-12,-0.93312,0,0,0.066667,1.2632e-15,0,0.66667
0.14199,0.44494,2.1298,-0.082593,-24.231,2383.6,0.46908,-0.15636,-1.982,0.62544,1.132e-10,-0.99102,0,0,0.066667,-0,-0,0.66667
0.42314,0.39424,6.3472,-0.15863,-38.981,1221.8,2.685,-0.895,-1.9168,3.58,3.5436e-12,-0.95839,0,0,0.066667,-6.3159e-16,0,0.66667
0.71387,0.435,10.708,-0.097497,-14.287,339.4,2.784,-0.92801,-1.9633,3.712,-9.5768e-13,-0.98166,0,0,0.066667,4.737e-16,0,0.66667
0.69629,0.95678,10.444,0.68517,105.83,381.68,-19.083,6.3611,-0.32452,-25.444,3.1957e-12,-0.16226,0,0,0.066667,1.2632e-15,0,0.66667
0.34815,0.67045,5.2222,0.25567,67.272,1510.6,-3.5604,1.1868,-1.7644,-4.7472,-6.6458e-13,-0.88221,0,0,0.066667,-0,-0,0.66667
0.34876,0.60419,5.2314,0.15629,41.096,1508.1,-2.1803,0.72676,-1.909,-2.907,4.2624e-12,-0.95451,0,0,0.066667,-6.3159e-16,0,0.66667
0.076125,0.95097,1.1419,0.67645,201.68,2678,-2.0598,0.68658,-0.37653,-2.7464,-8.7426e-06,-0.18826,0,0,0.066667,-0,-0,0.66667
0.087513,0.65898,1.3127,0.23848,70.87,2626.6,-0.83478,0.27826,-1.793,-1.113,3.6333e-10,-0.89651,0,0,0.066667,-3.158e-16,0,0.66667
0.049881,0.17337,0.74822,-0.48995,-146.46,2796,0.97756,-0.32585,-1.1467,1.3034,1.5485e-06,-0.57337,0,0,0.066667,-0,-0,0.66667
0.074476,0.088519,1.1171,-0.61722,-184.02,2685.3,1.8387,-0.61291,-0.64475,2.4516,3.7862e-06,-0.32237,0,0,0.066667,-1.1842e-16,2.2125e-18,0.66667
0.38509,0.84141,5.7763,0.51212,130.69,1366.5,-7.8885,2.6295,-1.0636,-10.518,-1.2103e-11,-0.5318,0,0,0.066667,-2.3685e-16,0,0.66667
0.81637,0.95834,12.246,0.68751,68.729,148.92,-22.45,7.4835,-0.31759,-29.934,-2.9824e-09,-0.1588,0,0,0.066667,-0,-0,0.66667
0.34118,0.49237,5.1177,-0.01145,-3.0286,1538.3,0.15626,-0.052088,-2.0015,0.20835,1.4766e-11,-1.0008,0,0,0.066667,-0,-0,0.66667
0.50612,0.15198,7.5918,-0.52203,-116.33,928.35,10.568,-3.5228,-1.0262,14.091,3.4195e-13,-0.51308,0,0,0.066667,9.3128e-16,0,0.66667
0.62349,0.73148,9.3523,0.34721,63.513,566.37,-8.6594,2.8865,-1.5766,-11.546,1.1982e-12,-0.78832,0,0,0.066667,-0,-0,0.66667
0.58529,0.71946,8.7793,0.3292,64.773,676.18,-7.707,2.569,-1.6097,-10.276,-1.4996e-11,-0.80485,0,0,0.066667,2.5264e-15,0,0.66667
0.13388,0.96206,2.0081,0.69309,204.14,2420,-3.7115,1.2372,-0.28621,-4.9487,-2.6524e-07,-0.14311,0,0,0.066667,-7.8949e-17,0,0.66667
0.61941,0.69096,9.2912,0.28644,52.819,577.54,-7.0969,2.3656,-1.7041,-9.4626,1.304e-11,-0.85207,0,0,0.066667,-0,-0,0.66667
0.52236,0.29755,7.8353,-0.30367,-66.095,873.66,6.345,-2.115,-1.6658,8.4599,1.1416e-11,-0.8329,0,0,0.066667,-6.1859e-16,0,0.66667
0.75148,0.084566,11.272,-0.62315,-81.261,262.14,18.731,-6.2438,-0.62497,24.975,1.3045e-10,-0.31249,0,0,0.066667,-0,-0,0.66667
0.67568,0.23686,10.135,-0.39471,-64.187,429.75,10.668,-3.556,-1.4442,14.224,1.2601e-11,-0.72212,0,0,0.066667,-1.2632e-15,0,0.66667
0.47896,0.36711,7.1844,-0.19933,-45.973,1020.7,3.8189,-1.273,-1.8542,5.0918,6.5759e-12,-0.9271,0,0,0.066667,-3.158e-16,0,0.66667
0.95613,0.64978,14.342,0.22466,5.664,9.7858,-8.5923,2.8641,-1.8214,-11.456,1.0343e-06,-0.91069,0,0,0.066667,1.8948e-15,0,0.66667
0.26092,0.3591,3.9137,-0.21135,-58.976,1868.3,2.2058,-0.73528,-1.8374,2.9411,2.8849e-11,-0.91869,0,0,0.066667,-0,-0,0.66667
0.71065,0.80208,10.66,0.45312,67.118,347.54,-12.88,4.2935,-1.2635,-17.174,-7.8177e-12,-0.63176,0,0,0.066667,6.3159e-16,0,0.66667
0.20164,0.60542,3.0246,0.15812,45.42,2121.9,-1.2754,0.42512,-1.9166,-1.7005,1.8806e-11,-0.95828,0,0,0.066667,-3.158e-16,0,0.66667
0.66362,0.81815,9.9543,0.47722,79.952,460.25,-12.668,4.2226,-1.1843,-16.89,3.3058e-12,-0.59217,0,0,0.066667,-0,-0,0.66667
0.24952,0.23314,3.7427,-0.4003,-112.45,1916.7,3.9952,-1.3317,-1.4397,5.3269,3.1136e-11,-0.71986,0,0,0.066667,-0,-0,0.66667
0.20625,0.31008,3.0937,-0.28489,-81.688,2102,2.3503,-0.78343,-1.7126,3.1337,-3.3888e-11,-0.85629,0,0,0.066667,1.1842e-16,0,0.66667
0.37017,0.025093,5.5526,-0.71236,-184.38,1424.9,10.548,-3.5159,-0.19233,14.064,7.0361e-12,-0.096165,0,0,0.066667,6.3159e-16,0,0.66667
0.50886,0.39287,7.6329,-0.16069,-35.635,918.31,3.2707,-1.0902,-1.9019,4.361,1.7737e-11,-0.95094,0,0,0.066667,6.3159e-16,0,0.66667
0.68093,0.94056,10.214,0.66084,106.24,418.17,-17.999,5.9998,-0.44213,-23.999,-1.0001e-12,-0.22106,0,0,0.066667,-0,-0,0.66667
0.3096,0.69843,4.6439,0.29764,80.587,1666.2,-3.6859,1.2286,-1.6857,-4.9146,7.1161e-12,-0.84286,0,0,0.066667,-0,-0,0.66667
0.38234,0.014758,5.7351,-0.72786,-186.41,1377.8,11.132,-3.7105,-0.10972,14.842,1.0569e-11,-0.05486,0,0,0.066667,-0,-0,0.66667
0.76093,0.98273,11.414,0.7241,91.422,244.44,-22.039,7.3465,-0.13203,-29.386,-3.7279e-11,-0.066014,0,0,0.066667,1.2632e-15,0,0.66667
0.33003,0.69773,4.9505,0.29659,79.14,1583.2,-3.9154,1.3051,-1.6912,-5.2205,5.2518e-12,-0.84561,0,0,0.066667,-0,-0,0.66667
0.063799,0.90406,0.95699,0.60609,180.96,2733.3,-1.5467,0.51558,-0.70122,-2.0623,3.1308e-06,-0.35061,0,0,0.066667,-7.8949e-17,0,0.66667
0.046104,0.46968,0.69157,-0.045476,-13.587,2812.9,0.083866,-0.027955,-2.0024,0.11182,-1.7071e-07,-1.0012,0,0,0.066667,-0,-0,0.66667
0.13493,0.090602,2.0239,-0.6141,-180.76,2415.2,3.3143,-1.1048,-0.6549,4.4191,-1.2459e-07,-0.32745,0,0,0.066667,1.9737e-16,0,0.66667
0.46952,0.8339,7.0427,0.50085,116.97,1054.5,-9.4062,3.1354,-1.1166,-12.542,1.2381e-11,-0.55828,0,0,0.066667,-0,-0,0.66667
0.3841,0.41569,5.7616,-0.12647,-32.271,1369.7,1.9431,-0.64769,-1.9372,2.5908,1.522e-11,-0.96861,0,0,0.066667,-0,-0,0.66667
0.6752,0.17222,10.128,-0.49167,-80.093,431.32,13.279,-4.4264,-1.1398,17.705,1.3253e-11,-0.56992,0,0,0.066667,-1.2632e-15,0,0.66667
0.095395,0.35155,1.4309,-0.22268,-66.077,2591.3,0.84969,-0.28323,-1.8289,1.1329,3.0352e-08,-0.91443,0,0,0.066667,-0,-0,0.66667
0.1618,0.388,2.4271,-0.168,-48.986,2296.1,1.0873,-0.36243,-1.8946,1.4497,-1.4702e-10,-0.94728,0,0,0.066667,3.158e-16,0,0.66667
0.96914,0.34178,14.537,-0.23733,-4.2014,5.2598,9.2001,-3.0667,-1.8109,12.267,2.0949e-06,-0.90544,0,0,0.066667,1.579e-15,0,0.66667
0.42449,0.22941,6.3673,-0.40589,-99.659,1217.2,6.8918,-2.2973,-1.4158,9.1891,8.463e-12,-0.70792,0,0,0.066667,-0,-0,0.66667
0.91605,0.32726,13.741,-0.25911,-12.37,33.018,9.4945,-3.1648,-1.7558,12.659,-3.0068e-08,-0.8779,0,0,0.066667,-0,-0,0.66667
0.23435,0.3619,3.5152,-0.20714,-58.619,1981.1,1.9417,-0.64725,-1.859,2.589,4.6279e-12,-0.92949,0,0,0.066667,-0,-0,0.66667
0.98255,0.069165,14.738,-0.64625,-6.611,4.4694,25.399,-8.4663,-0.51955,33.865,-5.1266e-06,-0.25978,0,0,0.066667,-2.5264e-15,0,0.66667
0.12649,0.55562,1.8973,0.083424,24.579,2452.4,-0.42209,0.1407,-1.9811,-0.56278,1.782e-11,-0.99056,0,0,0.066667,1.579e-16,0,0.66667
0.77992,0.33681,11.699,-0.24479,-28.639,206.95,7.6367,-2.5456,-1.7934,10.182,-2.47e-12,-0.89671,0,0,0.066667,-1.2632e-15,0,0.66667
0.98063,0.98689,14.709,0.73033,8.3827,5.576,-28.647,9.5491,-0.1018,-38.197,-6.2781e-05,-0.050899,0,0,0.066667,2.5264e-15,0,0.66667
0.48703,0.91383,7.3054,0.62075,141.94,993.81,-12.093,4.0309,-0.63172,-16.124,-8.1108e-12,-0.31586,0,0,0.066667,-0,-0,0.66667
0.48989,0.0087591,7.3483,-0.73686,-167.99,984.48,14.439,-4.813,-0.064706,19.252,4.805e-13,-0.032353,0,0,0.066667,-0,-0,0.66667
0.17515,0.1629,2.6272,-0.50564,-146.88,2237.7,3.5425,-1.1808,-1.091,4.7233,7.5282e-11,-0.5455,0,0,0.066667,-0,-0,0.66667
0.60894,0.28507,9.1341,-0.32239,-60.701,607.2,7.8528,-2.6176,-1.6411,10.47,6.8039e-12,-0.82054,0,0,0.066667,-0,-0,0.66667
0.24288,0.012775,3.6432,-0.73084,-206.3,1945.5,7.1003,-2.3668,-0.094426,9.467,-1.1481e-10,-0.047213,0,0,0.066667,-0,-0,0.66667
0.7168,0.099254,10.752,-0.60112,-87.554,334.59,17.235,-5.7451,-0.71957,22.98,2.4384e-11,-0.35978,0,0,0.066667,-0,4.8276e-17,0.66667
0.47407,0.30264,7.111,-0.29604,-68.706,1038,5.6136,-1.8712,-1.6838,7.4848,3.3369e-12,-0.84191,0,0,0.066667,6.3159e-16,0,0.66667
0.23239,0.26393,3.4858,-0.35411,-100.33,1989.6,3.2916,-1.0972,-1.5577,4.3888,-4.5922e-11,-0.77884,0,0,0.066667,3.158e-16,0,0.66667
0.46068,0.37624,6.9102,-0.18563,-43.77,1085.2,3.4207,-1.1402,-1.8723,4.5609,6.0507e-13,-0.93614,0,0,0.066667,-0,-0,0.66667
0.024607,0.50149,0.36911,0.002233,0.66819,2910,-0.0021979,0.00073463,-1.9951,-0.0029296,2.971e-06,-0.99756,0,0,0.066667,-0,-0,0.66667
0.097131,0.43378,1.457,-0.099325,-29.459,2583.5,0.3859,-0.12863,-1.9651,0.51454,1.7817e-08,-0.98257,0,0,0.066667,-0,-0,0.66667
0.10145,0.42528,1.5218,-0.11208,-33.213,2564.1,0.45483,-0.15161,-1.9487,0.60644,2.3041e-08,-0.97437,0,0,0.066667,-0,-0,0.66667
0.38922,0.12442,5.8383,-0.56338,-143.27,1350.8,8.7711,-2.9237,-0.87873,11.695,3.6939e-12,-0.43936,0,0,0.066667,-6.5133e-16,0,0.66667
0.71597,0.010907,10.739,-0.73364,-107.25,337.27,21.01,-7.0035,-0.087373,28.014,7.6774e-12,-0.043686,0,0,0.066667,-2.5264e-15,7.1751e-17,0.66667
0.052882,0.3437,0.79323,-0.23445,-70.014,2782.4,0.49592,-0.16531,-1.8006,0.66123,3.3053e-07,-0.90028,0,0,0.066667,-1.0177e-16,0,0.66667
0.012488,0.55875,0.18732,0.088124,26.382,2964.8,-0.04402,0.014673,-1.9733,-0.058693,-2.1717e-07,-0.98663,0,0,0.066667,-0,-0,0.66667
0.14747,0.85479,2.212,0.53219,156.03,2359.6,-3.1393,1.0464,-0.98673,-4.1857,-2.7057e-09,-0.49336,0,0,0.066667,-0,-0,0.66667
0.93668,0.72859,14.05,0.34288,12.457,19.744,-12.847,4.2823,-1.5902,-17.129,4.3761e-07,-0.7951,0,0,0.066667,-0,-0,0.66667
0.86574,0.22478,12.986,-0.41283,-30.856,81.327,14.296,-4.7653,-1.3886,19.061,-1.4296e-08,-0.69432,0,0,0.066667,-0,-0,0.66667
0.40252,0.88777,6.0378,0.58166,146.09,1300.1,-9.3652,3.1217,-0.79544,-12.487,1.0719e-11,-0.39772,0,0,0.066667,6.3159e-16,0,0.66667
0.16129,0.76328,2.4194,0.39492,115.23,2298.5,-2.548,0.84932,-1.4411,-3.3973,-3.7228e-10,-0.72056,0,0,0.066667,-3.158e-16,0,0.66667
0.35482,0.79219,5.3224,0.43828,114.76,1484.5,-6.2205,2.0735,-1.3137,-8.294,1.5764e-11,-0.65684,0,0,0.066667,-6.3159e-16,0,0.66667
0.93483,0.33782,14.022,-0.24327,-9.0749,20.449,9.0966,-3.0322,-1.7915,12.129,-4.0039e-07,-0.89576,0,0,0.066667,-0,-0,0.66667
0.64355,0.88129,9.6532,0.57194,100.38,512.8,-14.723,4.9076,-0.83803,-19.63,-4.8637e-12,-0.41901,0,0,0.066667,-0,-0,0.66667
0.47107,0.8897,7.066,0.58454,136.32,1049.3,-11.014,3.6715,-0.78749,-14.686,1.4397e-11,-0.39374,0,0,0.066667,-0,-0,0.66667
0.40237,0.24072,6.0355,-0.38892,-97.619,1300.2,6.2595,-2.0865,-1.4604,8.346,7.6925e-12,-0.73022,0,0,0.066667,-0,-0,0.66667
0.89655,0.85186,13.448,0.52779,30.908,50.357,-18.928,6.3092,-1.0044,-25.237,-1.7409e-07,-0.50218,0,0,0.066667,-0,-0,0.66667
0.97347,0.04841,14.602,-0.67739,-10.566,6.6798,26.377,-8.7921,-0.36473,35.169,0.00011444,-0.18236,0,0,0.066667,-1.2632e-15,0,0.66667
0.77868,0.38502,11.68,-0.17247,-20.273,209.03,5.372,-1.7907,-1.896,7.1626,6.4526e-12,-0.94801,0,0,0.066667,-1.2632e-15,0,0.66667
0.83334,0.52676,12.5,0.040142,3.6561,121.59,-1.3381,0.44603,-1.9905,-1.7841,-3.5832e-10,-0.99524,0,0,0.066667,-0,-0,0.66667
0.30709,0.11486,4.6063,-0.57771,-156.83,1676.9,7.0964,-2.3655,-0.80859,9.4619,2.6852e-11,-0.40429,0,0,0.066667,-3.158e-16,0,0.66667
0.93952,0.32229,14.093,-0.26656,-9.245,17.86,10.018,-3.3392,-1.751,13.357,-2.9734e-07,-0.8755,0,0,0.066667,-0,-0,0.66667
0.4527,0.30996,6.7905,-0.28506,-67.85,1113.9,5.1618,-1.7206,-1.722,6.8824,-1.1726e-11,-0.86099,0,0,0.066667,2.9192e-16,0,0.66667
0.17931,0.46583,2.6896,-0.05126,-14.854,2219.2,0.36765,-0.12255,-1.9852,0.4902,1.603e-10,-0.99258,0,0,0.066667,-0,-0,0.66667
0.5963,0.74654,8.9445,0.36981,71.332,643.81,-8.8208,2.9403,-1.5164,-11.761,3.2214e-12,-0.7582,0,0,0.066667,-0,-0,0.66667
0.6841,0.58017,10.262,0.12026,19.125,408.55,-3.2907,1.0969,-1.9478,-4.3876,8.771e-12,-0.97389,0,0,0.066667,-1.2632e-15,0,0.66667
0.43734,0.13403,6.5602,-0.54895,-133.04,1170.3,9.6031,-3.201,-0.93977,12.804,-6.6924e-12,-0.46989,0,0,0.066667,-0,7.1505e-17,0.66667
0.37334,0.74478,5.6002,0.36716,94.633,1411.7,-5.4832,1.8277,-1.5261,-7.3109,1.9447e-11,-0.76307,0,0,0.066667,1.579e-16,0,0.66667
0.70431,0.47125,10.565,-0.04312,-6.4939,360.95,1.2148,-0.40494,-2.0011,1.6197,2.2377e-12,-1.0005,0,0,0.066667,-0,-0,0.66667
0.25974,0.13312,3.8961,-0.55031,-153.81,1873.7,5.7176,-1.9059,-0.91805,7.6234,4.187e-11,-0.45903,0,0,0.066667,6.3159e-16,0,0.66667
0.68635,0.86072,10.295,0.54109,85.707,404.42,-14.855,4.9517,-0.96567,-19.807,-1.7311e-12,-0.48283,0,0,0.066667,1.2632e-15,-2.3295e-17,0.66667
0.57492,0.71539,8.6238,0.32308,64.734,707.33,-7.4298,2.4766,-1.6296,-9.9065,5.0298e-12,-0.81481,0,0,0.066667,-0,-0,0.66667
0.33501,0.38039,5.0251,-0.17942,-47.685,1563.1,2.4042,-0.80141,-1.8799,3.2056,2.2189e-11,-0.93993,0,0,0.066667,-0,-0,0.66667
0.67669,0.88759,10.15,0.58139,94.414,428.08,-15.737,5.2456,-0.79427,-20.982,4.4205e-12,-0.39714,0,0,0.066667,-0,-0,0.66667
0.042896,0.13669,0.64344,-0.54496,-163.04,2827.5,0.93506,-0.31167,-0.9419,1.2468,1.8472e-05,-0.47095,0,0,0.066667,-0,-0,0.66667
0.54883,0.72644,8.2324,0.33966,71.049,788.26,-7.4566,2.4855,-1.5939,-9.9422,5.9339e-12,-0.79693,0,0,0.066667,-0,-0,0.66667
0.5956,0.042348,8.934,-0.68648,-132.82,647.19,16.355,-5.4515,-0.32858,21.806,-6.0396e-14,-0.16429,0,0,0.066667,-0,-0,0.66667
0.28722,0.63992,4.3083,0.20988,57.656,1758.3,-2.4112,0.80374,-1.8377,-3.215,2.8692e-11,-0.91887,0,0,0.066667,-0,-0,0.66667
0.35628,0.8629,5.3442,0.54435,142.43,1479,-7.7577,2.5859,-0.94651,-10.344,6.9904e-12,-0.47325,0,0,0.066667,6.3159e-16,0,0.66667
0.86302,0.97445,12.945,0.71167,54.444,86.406,-24.567,8.1892,-0.19842,-32.757,3.1607e-07,-0.09921,0,0,0.066667,-0,-0,0.66667
0.61937,0.28437,9.2906,-0.32345,-59.657,577.76,8.0134,-2.6711,-1.6239,10.685,1.4794e-11,-0.81194,0,0,0.066667,-0,-0,0.66667
0.63994,0.61974,9.5991,0.17961,31.719,521.16,-4.5977,1.5326,-1.8946,-6.1303,5.5458e-12,-0.94731,0,0,0.066667,3.158e-16,0,0.66667
0.10461,0.96779,1.5692,0.70168,208.15,2550.3,-2.9361,0.97871,-0.24703,-3.9148,-2.6817e-06,-0.12352,0,0,0.066667,-1.9737e-17,0,0.66667
0.23792,0.6579,3.5688,0.23685,66.909,1965.9,-2.2541,0.75135,-1.8007,-3.0054,2.0578e-11,-0.90035,0,0,0.066667,6.3159e-16,0,0.66667
0.71928,0.009716,10.789,-0.73543,-106.47,329.99,21.159,-7.053,-0.086452,28.212,2.1227e-12,-0.043226,0,0,0.066667,-0,-0,0.66667
0.69947,0.16882,10.492,-0.49677,-75.954,373.25,13.899,-4.633,-1.1211,18.532,4.5066e-12,-0.56057,0,0,0.066667,-0,-0,0.66667
0.44662,0.39028,6.6993,-0.16458,-39.433,1135.7,2.9401,-0.98005,-1.8975,3.9202,4.4897e-13,-0.94877,0,0,0.066667,6.3159e-16,0,0.66667
0.039252,0.45917,0.58878,-0.06124,-18.308,2843.9,0.096152,-0.032051,-1.9803,0.1282,-1.2645e-07,-0.99013,0,0,0.066667,-3.9475e-17,0,0.66667
0.050396,0.52244,0.75595,0.033667,10.055,2793.6,-0.067867,0.022622,-1.9951,-0.09049,-4.9934e-08,-0.99757,0,0,0.066667,-0,-0,0.66667
0.088504,0.63435,1.3276,0.20153,59.875,2622.2,-0.71343,0.23781,-1.8512,-0.95124,-1.9066e-09,-0.92559,0,0,0.066667,-0,-0,0.66667
0.86433,0.31429,12.965,-0.27857,-20.998,82.416,9.631,-3.2103,-1.7212,12.841,-3.9599e-09,-0.8606,0,0,0.066667,-0,-0,0.66667
0.13609,0.1409,2.0414,-0.53865,-158.45,2410,2.9323,-0.97744,-0.96492,3.9098,-4.2772e-08,-0.48246,0,0,0.066667,-3.158e-16,0,0.66667
0.65826,0.20135,9.8739,-0.44797,-75.991,473.81,11.795,-3.9318,-1.2899,15.727,1.0354e-11,-0.64496,0,0,0.066667,-1.2632e-15,0,0.66667
0.57697,0.18307,8.6545,-0.47539,-94.976,701.61,10.971,-3.6571,-1.2039,14.629,1.0234e-11,-0.60197,0,0,0.066667,-6.3159e-16,0,0.66667
0.7266,0.93175,10.899,0.64763,91.62,313.56,-18.823,6.2742,-0.50273,-25.097,5.7353e-11,-0.25136,0,0,0.066667,6.3159e-16,0,0.66667
0.58257,0.65481,8.7385,0.23222,45.9,684.09,-5.4114,1.8038,-1.8064,-7.2152,-7.4758e-12,-0.9032,0,0,0.066667,1.579e-16,0,0.66667
0.17942,0.46234,2.6913,-0.056495,-16.37,2218.7,0.40545,-0.13515,-1.9826,0.5406,1.3978e-10,-0.9913,0,0,0.066667,-1.579e-16,0,0.66667
0.73408,0.64469,11.011,0.21704,29.909,295.88,-6.3731,2.1244,-1.8429,-8.4974,-1.1062e-12,-0.92146,0,0,0.066667,1.2632e-15,0,0.66667
0.59544,0.12312,8.9317,-0.56531,-109.32,647.04,13.465,-4.4882,-0.86959,17.953,6.2741e-12,-0.4348,0,0,0.066667,1.579e-16,0,0.66667
0.54618,0.031394,8.1928,-0.70291,-147.92,798.01,15.357,-5.1189,-0.25349,20.476,1.2828e-11,-0.12675,0,0,0.066667,-2.5264e-15,-1.4514e-18,0.66667
0.72712,0.81886,10.907,0.47829,67.458,311.51,-13.911,4.637,-1.1807,-18.548,1.2822e-11,-0.59033,0,0,0.066667,-0,-0,0.66667
0.31395,0.7762,4.7092,0.4143,111.87,1648.6,-5.2027,1.7342,-1.396,-6.937,9.087e-12,-0.69799,0,0,0.066667,-4.737e-16,0,0.66667
0.070608,0.36837,1.0591,-0.19745,-58.833,2702.6,0.55766,-0.18589,-1.8553,0.74355,3.0742e-07,-0.92765,0,0,0.066667,3.9475e-17,0,0.66667
0.088214,0.24035,1.3232,-0.38947,-115.77,2623.5,1.3743,-0.45809,-1.4558,1.8324,-9.5855e-09,-0.7279,0,0,0.066667,7.8949e-17,0,0.66667
0.32773,0.16596,4.9159,-0.50106,-134.01,1592.9,6.5684,-2.1895,-1.1174,8.7579,3.695e-11,-0.5587,0,0,0.066667,-0,-3.7509e-17,0.66667
0.23168,0.27243,3.4752,-0.34135,-96.751,1992.6,3.1634,-1.0545,-1.5872,4.2179,-2.1857e-11,-0.79361,0,0,0.066667,-0,-0,0.66667
0.74822,0.79584,11.223,0.44375,58.43,267.67,-13.281,4.427,-1.3041,-17.708,1.1398e-11,-0.65204,0,0,0.066667,1.2632e-15,0,0.66667
0.60764,0.93684,9.1146,0.65527,123.91,612.23,-15.927,5.3089,-0.47931,-21.235,1.553e-11,-0.23966,0,0,0.066667,-1.6974e-15,-6.4957e-18,0.66667
0.095431,0.94941,1.4315,0.67411,200.32,2591.4,-2.5733,0.85775,-0.38896,-3.431,8.8724e-07,-0.19448,0,0,0.066667,-1.579e-16,0,0.66667
0.71985,0.45678,10.798,-0.064827,-9.3328,326.16,1.8666,-0.62222,-1.992,2.4889,-3.4905e-13,-0.99599,0,0,0.066667,-0,-0,0.66667
0.9161,0.98994,13.741,0.73492,35.427,35.874,-26.93,8.9767,-0.074418,-35.907,1.1607e-07,-0.037209,0,0,0.066667,-1.2632e-15,0,0.66667
0.82438,0.18212,12.366,-0.47682,-45.666,135.65,15.723,-5.2411,-1.1906,20.964,5.0438e-11,-0.59532,0,0,0.066667,1.2632e-15,0,0.66667
0.67331,0.43523,10.1,-0.097159,-15.878,434.95,2.6167,-0.87224,-1.9732,3.489,-5.3813e-12,-0.98661,0,0,0.066667,1.7369e-15,0,0.66667
0.77664,0.41129,11.65,-0.13306,-15.766,212.62,4.1337,-1.3779,-1.9342,5.5115,-3.1068e-12,-0.96712,0,0,0.066667,-0,-0,0.66667
0.15012,0.97693,2.2519,0.71539,209.74,2348.1,-4.2959,1.432,-0.1749,-5.7278,9.9541e-08,-0.087452,0,0,0.066667,3.158e-16,0,0.66667
0.065513,0.43656,0.98269,-0.095165,-28.372,2725.5,0.24938,-0.083126,-1.9695,0.33251,1.6917e-07,-0.98477,0,0,0.066667,2.4672e-17,0,0.66667
0.74798,0.59705,11.22,0.14558,19.158,267.26,-4.3556,1.4519,-1.9291,-5.8075,-2.0184e-12,-0.96455,0,0,0.066667,-0,-0,0.66667
0.98478,0.3791,14.772,-0.18135,-1.5436,1.576,7.1434,-2.3811,-1.8938,9.5246,9.4572e-07,-0.94689,0,0,0.066667,-0,-0,0.66667
0.24024,0.34967,3.6036,-0.22549,-63.624,1955.9,2.1669,-0.72231,-1.8143,2.8892,1.0722e-11,-0.90717,0,0,0.066667,-6.3159e-16,0,0.66667
0.56194,0.65792,8.429,0.23687,48.498,746.97,-5.3243,1.7748,-1.811,-7.0991,6.2634e-12,-0.90548,0,0,0.066667,-0,-0,0.66667
0.080826,0.021624,1.2124,-0.71756,-213.83,2656.9,2.3199,-0.7733,-0.17066,3.0932,1.5173e-06,-0.085331,0,0,0.066667,-0,-0,0.66667
0.56119,0.93798,8.4178,0.65697,134.93,750.7,-14.747,4.9158,-0.47299,-19.663,1.1888e-11,-0.23649,0,0,0.066667,-2.5264e-15,-4.7812e-18,0.66667
0.45044,0.053266,6.7565,-0.6701,-160.16,1123.1,12.074,-4.0245,-0.40492,16.098,-1.054e-11,-0.20246,0,0,0.066667,-3.158e-16,-6.5742e-17,0.66667
0.24055,0.17723,3.6083,-0.48416,-136.68,1954.9,4.6586,-1.5529,-1.1609,6.2115,2.6106e-11,-0.58043,0,0,0.066667,-0,-0,0.66667
0.56538,0.38539,8.4807,-0.17191,-34.993,736.23,3.8878,-1.2959,-1.8957,5.1838,4.4063e-12,-0.94787,0,0,0.066667,-0,-0,0.66667
0.65399,0.91808,9.8099,0.62713,107.56,485.67,-16.405,5.4685,-0.60433,-21.874,-1.4584e-12,-0.30217,0,0,0.066667,-0,-0,0.66667
0.91167,0.98864,13.675,0.73297,37.11,39.217,-26.729,8.9097,-0.084982,-35.639,-3.5907e-07,-0.042491,0,0,0.066667,2.5264e-15,0,0.66667
0.78264,0.47761,11.74,-0.03358,-3.8838,201.82,1.0513,-0.35042,-2.002,1.4017,-6.6176e-12,-1.001,0,0,0.066667,-0,-0,0.66667
0.97683,0.18807,14.652,-0.46789,-6.2629,4.3155,18.282,-6.0939,-1.2165,24.376,2.083e-05,-0.60827,0,0,0.066667,-2.5264e-15,0,0.66667
0.44272,0.24631,6.6408,-0.38053,-91.619,1150.2,6.7387,-2.2462,-1.4815,8.9849,-4.0159e-12,-0.74075,0,0,0.066667,-0,-0,0.66667
0.14102,0.98614,2.1153,0.72921,214.39,2388.4,-4.1134,1.3711,-0.11919,-5.4845,-8.1862e-08,-0.059594,0,0,0.066667,-0,-0,0.66667
0.40997,0.3371,6.1495,-0.24435,-60.858,1271.2,4.0071,-1.3357,-1.7866,5.3428,1.3547e-11,-0.89331,0,0,0.066667,-6.3159e-16,0,0.66667
0.7923,0.71937,11.884,0.32906,36.594,185.68,-10.429,3.4762,-1.613,-13.905,-5.3362e-12,-0.80652,0,0,0.066667,2.5264e-15,0,0.66667
0.21104,0.72377,3.1655,0.33566,96.056,2081.4,-2.8334,0.94448,-1.5935,-3.7779,-6.8391e-11,-0.79676,0,0,0.066667,-0,-0,0.66667
0.17738,0.11632,2.6607,-0.57552,-167.09,2228,4.0835,-1.3612,-0.81757,5.4446,-1.4834e-10,-0.40879,0,0,0.066667,-1.579e-16,0,0.66667
0.6451,0.96021,9.6765,0.69032,120.85,509.33,-17.813,5.9377,-0.30264,-23.751,-4.686e-12,-0.15132,0,0,0.066667,-0,-0,0.66667
0.94704,0.0022828,14.206,-0.74658,-23.092,17.045,28.281,-9.4271,-0.013643,37.709,-2.0764e-06,-0.0068216,0,0,0.066667,-5.0527e-15,0,0.66667
0.40926,0.65573,6.1389,0.2336,58.219,1273.8,-3.8242,1.2747,-1.8078,-5.0989,-8.2778e-12,-0.90391,0,0,0.066667,-1.9737e-17,0,0.66667
0.69687,0.18304,10.453,-0.47544,-73.2,379.2,13.253,-4.4176,-1.1912,17.67,8.8693e-12,-0.59561,0,0,0.066667,-1.579e-15,0,0.66667
0.40397,0.80808,6.0596,0.46212,115.84,1294.2,-7.4674,2.4891,-1.2441,-9.9565,-1.0831e-12,-0.62204,0,0,0.066667,3.158e-16,0,0.66667
0.34982,0.86577,5.2472,0.54866,144.31,1504.6,-7.6772,2.5591,-0.92422,-10.236,1.0263e-11,-0.46211,0,0,0.066667,-3.158e-16,0,0.66667
0.13297,0.8846,1.9945,0.57689,169.87,2423.9,-3.0684,1.0228,-0.81028,-4.0911,7.3232e-08,-0.40514,0,0,0.066667,-3.158e-16,0,0.66667
0.019913,0.9709,0.29869,0.70634,211.77,2931.3,-0.56254,0.18756,-0.22427,-0.75002,7.6091e-05,-0.11214,0,0,0.066667,-0,-0,0.66667
0.11967,0.35455,1.7951,-0.21818,-64.399,2482.8,1.0444,-0.34813,-1.8261,1.3925,-5.3899e-09,-0.91304,0,0,0.066667,-0,-0,0.66667
0.44424,0.55486,6.6636,0.082295,19.769,1144.3,-1.4623,0.48745,-1.97,-1.9498,-1.0322e-12,-0.98502,0,0,0.066667,3.158e-16,0,0.66667
0.72978,0.088672,10.947,-0.61699,-86.401,306.57,18.011,-6.0036,-0.64369,24.014,1.233e-11,-0.32185,0,0,0.066667,9.4739e-16,0,0.66667
0.05369,0.22257,0.80535,-0.41615,-124.32,2778.8,0.89373,-0.29791,-1.3788,1.1916,-4.7439e-08,-0.68942,0,0,0.066667,-0,-0,0.66667
0.22167,0.46032,3.325,-0.059516,-16.943,2035.4,0.52771,-0.1759,-1.9883,0.70362,2.4741e-11,-0.99414,0,0,0.066667,1.579e-16,0,0.66667
0.031064,0.82726,0.46597,0.49088,146.96,2880.9,-0.60997,0.20333,-1.154,-0.81329,1.0685e-05,-0.57701,0,0,0.066667,3.9475e-17,1.7604e-17,0.66667
0.83332,0.0098636,12.5,-0.7352,-67.38,124.61,24.507,-8.1689,-0.073738,32.675,-1.3029e-08,-0.036869,0,0,0.066667,-0,-0,0.66667
0.38188,0.25125,5.7281,-0.37313,-95.451,1378.6,5.6996,-1.8999,-1.5,7.5994,-1.415e-11,-0.75001,0,0,0.066667,1.2632e-15,0,0.66667
0.28458,0.86424,4.2687,0.54636,150.49,1769.7,-6.2194,2.0731,-0.93814,-8.2925,1.7037e-11,-0.46907,0,0,0.066667,-0,-0,0.66667
0.78367,0.70085,11.755,0.30128,34.728,200.48,-9.4442,3.1481,-1.6793,-12.592,5.4842e-11,-0.83967,0,0,0.066667,-0,-0,0.66667
0.2789,0.33684,4.1836,-0.24474,-67.584,1792.9,2.7304,-0.91014,-1.7898,3.6405,2.1174e-11,-0.89492,0,0,0.066667,-1.579e-16,0,0.66667
0.28082,0.65141,4.2123,0.22712,62.642,1784.9,-2.5512,0.85039,-1.8271,-3.4016,2.934e-11,-0.91354,0,0,0.066667,1.579e-16,0,0.66667
0.935,0.29637,14.025,-0.30545,-11.376,20.563,11.424,-3.8079,-1.6701,15.232,-4.5122e-07,-0.83503,0,0,0.066667,-1.2632e-15,0,0.66667
0.16421,0.064978,2.4632,-0.65253,-190.39,2285.9,4.2862,-1.4287,-0.48059,5.715,-4.7436e-08,-0.2403,0,0,0.066667,-6.3159e-16,0,0.66667
0.03791,0.5235,0.56865,0.035257,10.541,2849.9,-0.053463,0.017821,-1.9897,-0.071285,-5.5788e-08,-0.99487,0,0,0.066667,-0,-0,0.66667
0.95604,0.13779,14.341,-0.54331,-13.864,11.383,20.777,-6.9258,-0.95101,27.703,-1.6634e-05,-0.4755,0,0,0.066667,-0,-0,0.66667
0.30613,0.047756,4.592,-0.67837,-184.37,1681.1,8.3069,-2.769,-0.35776,11.076,2.8322e-11,-0.17888,0,0,0.066667,-0,-0,0.66667
0.41408,0.38982,6.2111,-0.16527,-40.989,1255.7,2.7375,-0.91248,-1.8962,3.6499,6.2832e-12,-0.9481,0,0,0.066667,6.3159e-16,0,0.66667
0.79679,0.41034,11.952,-0.13448,-14.655,177.65,4.2862,-1.4287,-1.9479,5.7149,1.1546e-11,-0.97394,0,0,0.066667,2.5264e-15,0,0.66667
0.35618,0.37755,5.3428,-0.18367,-48.01,1478.7,2.6168,-0.87227,-1.881,3.4891,1.7986e-12,-0.94049,0,0,0.066667,1.2632e-15,0,0.66667
0.10486,0.91812,1.5729,0.62719,185.98,2549.2,-2.6306,0.87687,-0.59806,-3.5075,8.3244e-08,-0.29903,0,0,0.066667,1.579e-16,0,0.66667
0.7889,0.46697,11.834,-0.049539,-5.5835,190.92,1.5632,-0.52108,-1.986,2.0843,-3.4983e-11,-0.99298,0,0,0.066667,1.8948e-15,0,0.66667
0.12962,0.49695,1.9442,-0.0045743,-1.3466,2438.5,0.023716,-0.0079053,-1.9974,0.031621,1.3443e-09,-0.99871,0,0,0.066667,4.737e-16,0,0.66667
0.19804,0.53091,2.9706,0.046363,13.336,2137.5,-0.36727,0.12242,-1.9896,-0.48969,7.5013e-11,-0.99478,0,0,0.066667,-1.6298e-16,0,0.66667
0.13971,0.60177,2.0956,0.15265,44.816,2393.7,-0.85306,0.28435,-1.9251,-1.1374,3.0339e-10,-0.96257,0,0,0.066667,-0,-0,0.66667
0.22166,0.88614,3.3249,0.57921,165.09,2035.9,-5.1355,1.7118,-0.80786,-6.8473,6.0774e-11,-0.40393,0,0,0.066667,-0,-0,0.66667
0.23535,0.57571,3.5302,0.11356,32.117,1976.8,-1.0691,0.35636,-1.9616,-1.4254,1.1853e-11,-0.98078,0,0,0.066667,-0,-0,0.66667
0.7264,0.42413,10.896,-0.11381,-16.062,312,3.3069,-1.1023,-1.9473,4.4092,-1.8545e-12,-0.97366,0,0,0.066667,-0,-0,0.66667
0.095244,0.43219,1.4287,-0.10171,-30.178,2591.9,0.3875,-0.12917,-1.9693,0.51666,1.3893e-08,-0.98463,0,0,0.066667,7.8949e-17,0,0.66667
0.66824,0.85493,10.024,0.53239,88.242,448.82,-14.231,4.7436,-0.99092,-18.974,5.1843e-12,-0.49546,0,0,0.066667,-1.2632e-15,0,0.66667
0.91093,0.42093,13.664,-0.11861,-5.9888,36.617,4.3218,-1.4406,-1.9463,5.7624,-5.3185e-09,-0.97313,0,0,0.066667,1.2632e-15,0,0.66667
0.63,0.97624,9.45,0.71437,129.21,550.08,-18.002,6.0007,-0.1817,-24.003,2.7764e-12,-0.090851,0,0,0.066667,-0,-0,0.66667
0.33688,0.39549,5.0533,-0.15677,-41.606,1555.5,2.1126,-0.70419,-1.9064,2.8168,9.6614e-12,-0.95319,0,0,0.066667,3.158e-16,0,0.66667
0.83945,0.86837,12.592,0.55256,48.808,114.91,-18.554,6.1846,-0.91201,-24.738,7.9417e-10,-0.456,0,0,0.066667,-1.2632e-15,0,0.66667
0.89856,0.29002,13.478,-0.31498,-18.046,47.486,11.321,-3.7737,-1.6409,15.095,-6.3515e-08,-0.82046,0,0,0.066667,-0,-0,0.66667
0.49346,0.18092,7.4019,-0.47861,-108.46,971.19,9.4471,-3.149,-1.1799,12.596,1.3901e-11,-0.58995,0,0,0.066667,-0,-0,0.66667
0.56348,0.58696,8.4522,0.13044,26.633,742.04,-2.94,0.97999,-1.9474,-3.92,6.2277e-12,-0.97369,0,0,0.066667,-9.4739e-16,0,0.66667
0.58066,0.28307,8.7099,-0.32539,-64.55,690.01,7.5577,-2.5192,-1.6265,10.077,1.4398e-11,-0.81327,0,0,0.066667,-0,-0,0.66667
0.13276,0.87756,1.9914,0.56633,166.76,2424.8,-3.0074,1.0025,-0.85414,-4.0099,6.2401e-08,-0.42707,0,0,0.066667,-0,-0,0.66667
0.37306,0.47912,5.5959,-0.031325,-8.0714,1412.4,0.46744,-0.15581,-2.0004,0.62326,1.1793e-11,-1.0002,0,0,0.066667,-0,-0,0.66667
0.81161,0.54168,12.174,0.06252,6.3648,153.7,-2.0297,0.67656,-1.994,-2.7062,2.2415e-11,-0.99701,0,0,0.066667,-0,-0,0.66667
0.5196,0.27096,7.7941,-0.34356,-75.082,882.83,7.1406,-2.3802,-1.5783,9.5208,7.8608e-12,-0.78913,0,0,0.066667,-0,-0,0.66667
0.93958,0.2099,14.094,-0.43515,-15.129,18.564,16.355,-5.4515,-1.3302,21.806,3.7524e-07,-0.66511,0,0,0.066667,1.2632e-15,0,0.66667
0.61582,0.15283,9.2373,-0.52076,-96.823,588.4,12.828,-4.2759,-1.0307,17.104,6.8008e-12,-0.51535,0,0,0.066667,-1.0809e-15,0,0.66667
0.77945,0.17475,11.692,-0.48788,-57.276,208.71,15.211,-5.0704,-1.1579,20.282,7.9611e-11,-0.57897,0,0,0.066667,1.2632e-15,0,0.66667
0.24803,0.048347,3.7204,-0.67748,-190.67,1923.5,6.7214,-2.2405,-0.37165,8.9618,2.9607e-10,-0.18583,0,0,0.066667,-0,7.8249e-17,0.66667
0.55931,0.99284,8.3896,0.73926,152.39,756.97,-16.539,5.513,-0.05708,-22.052,2.057e-12,-0.02854,0,0,0.066667,-1.2632e-15,5.5762e-17,0.66667
0.81064,0.55802,12.16,0.087028,8.9015,155.24,-2.8219,0.94064,-1.9779,-3.7626,-5.4624e-11,-0.98895,0,0,0.066667,1.7432e-15,0,0.66667
0.15271,0.51122,2.2907,0.016834,4.9227,2336.1,-0.10283,0.034277,-1.9979,-0.13711,1.5335e-09,-0.99897,0,0,0.066667,-0,-0,0.66667
0.54016,0.65967,8.1024,0.23951,50.762,815.67,-5.1749,1.725,-1.7908,-6.8999,2.4087e-12,-0.89538,0,0,0.066667,-0,-0,0.66667
0.6103,0.37096,9.1545,-0.19356,-36.334,603.05,4.7252,-1.5751,-1.8753,6.3002,-3.3298e-12,-0.93764,0,0,0.066667,-0,-0,0.66667
0.18706,0.859,2.8059,0.5385,155.74,2185.7,-4.0292,1.3431,-0.97857,-5.3723,1.8528e-09,-0.48929,0,0,0.066667,3.158e-16,0,0.66667
0.63689,0.4807,9.5534,-0.028956,-5.1463,529.22,0.73767,-0.24589,-1.9954,0.98356,-1.3392e-12,-0.99771,0,0,0.066667,1.2632e-15,0,0.66667
0.067575,0.33906,1.0136,-0.24141,-71.965,2716.2,0.65252,-0.21751,-1.7892,0.87003,3.9196e-07,-0.8946,0,0,0.066667,-3.9475e-17,0,0.66667
0.77954,0.66646,11.693,0.24969,29.258,207.65,-7.7858,2.5953,-1.783,-10.381,4.2948e-12,-0.89151,0,0,0.066667,-0,-0,0.66667
0.32597,0.81993,4.8896,0.47989,128.5,1599.9,-6.2573,2.0858,-1.1846,-8.343,4.5106e-12,-0.59229,0,0,0.066667,-6.3159e-16,0,0.66667
0.48278,0.54781,7.2418,0.07171,16.457,1007.3,-1.3848,0.4616,-1.9867,-1.8464,7.3686e-13,-0.99333,0,0,0.066667,-0,-0,0.66667
0.38231,0.48385,5.7347,-0.024218,-6.1894,1376.5,0.37036,-0.12345,-1.9913,0.49381,3.9813e-11,-0.99566,0,0,0.066667,-6.3159e-16,0,0.66667
0.32698,0.33176,4.9047,-0.25236,-67.482,1595.5,3.3006,-1.1002,-1.7803,4.4008,2.5137e-11,-0.89016,0,0,0.066667,-0,-0,0.66667
0.98768,0.060623,14.815,-0.65907,-4.7542,3.8019,26.038,-8.6794,-0.4563,34.717,-0.00015369,-0.22815,0,0,0.066667,3.158e-16,0,0.66667
0.879,0.40083,13.185,-0.14876,-10.063,65.93,5.2303,-1.7434,-1.9197,6.9737,4.9855e-10,-0.95987,0,0,0.066667,6.3159e-16,0,0.66667
0.30229,0.1537,4.5344,-0.51946,-141.44,1696.5,6.2811,-2.0937,-1.0368,8.3749,3.2667e-11,-0.51841,0,0,0.066667,-7.1054e-16,0,0.66667
0.16065,0.60063,2.4097,0.15094,44.029,2301.2,-0.96993,0.32331,-1.9164,-1.2932,8.2766e-11,-0.95818,0,0,0.066667,-3.158e-16,0,0.66667
0.52931,0.88366,7.9397,0.57549,124.14,851.71,-12.185,4.0615,-0.82647,-16.246,-3.7685e-12,-0.41324,0,0,0.066667,-0,-0,0.66667
0.13806,0.40359,2.0709,-0.14461,-42.474,2401,0.79858,-0.26619,-1.9284,1.0648,-3.5422e-10,-0.96421,0,0,0.066667,3.9475e-17,0,0.66667
0.64979,0.46835,9.7469,-0.047474,-8.2011,494.93,1.2339,-0.41131,-1.9875,1.6452,6.579e-12,-0.99374,0,0,0.066667,3.9906e-16,0,0.66667
0.23295,0.057651,3.4943,-0.66352,-188.17,1987.7,6.1828,-2.0609,-0.44102,8.2437,-1.3733e-09,-0.22051,0,0,0.066667,-3.158e-16,0,0.66667
0.096557,0.62341,1.4483,0.18512,54.917,2586.1,-0.71499,0.23833,-1.8804,-0.95332,-3.0099e-08,-0.94019,0,0,0.066667,1.7764e-16,0,0.66667
0.021993,0.20103,0.32989,-0.44846,-134.3,2921.9,0.39451,-0.13151,-1.2789,0.526,-1.6729e-05,-0.63945,0,0,0.066667,3.9475e-17,0,0.66667
0.85906,0.79039,12.886,0.43559,34.07,89.266,-14.968,4.9893,-1.3359,-19.957,6.3981e-09,-0.66794,0,0,0.066667,-0,-0,0.66667
0.14271,0.339,2.1406,-0.2415,-70.849,2380.4,1.3786,-0.45953,-1.7966,1.8381,-6.4829e-11,-0.89831,0,0,0.066667,1.579e-16,0,0.66667
0.40293,0.079167,6.0439,-0.63125,-158.52,1298.7,10.174,-3.3913,-0.58258,13.565,1.2408e-11,-0.29129,0,0,0.066667,-4.7716e-16,0,0.66667
0.093564,0.2088,1.4035,-0.43681,-129.73,2599.6,1.6348,-0.54493,-1.3326,2.1797,9.4097e-08,-0.6663,0,0,0.066667,-0,-0,0.66667
0.11789,0.31406,1.7684,-0.27891,-82.368,2490.7,1.3152,-0.43842,-1.7183,1.7537,-1.0083e-08,-0.85914,0,0,0.066667,-3.158e-16,0,0.66667
0.37482,0.21334,5.6223,-0.42999,-110.7,1406.1,6.4466,-2.1489,-1.3541,8.5955,6.652e-12,-0.67707,0,0,0.066667,-1.579e-16,0,0.66667
0.16539,0.71545,2.4808,0.32318,94.148,2280.4,-2.138,0.71266,-1.6236,-2.8506,1.4057e-10,-0.81178,0,0,0.066667,-0,-0,0.66667
0.71895,0.96239,10.784,0.69359,100.46,330.42,-19.946,6.6487,-0.30086,-26.595,1.1015e-11,-0.15043,0,0,0.066667,-6.3159e-16,0,0.66667
0.12585,0.32394,1.8878,-0.26409,-77.839,2455.3,1.3295,-0.44316,-1.76,1.7726,-1.8818e-09,-0.88,0,0,0.066667,-0,-0,0.66667
0.73883,0.90311,11.083,0.60467,82.255,287.56,-17.87,5.9567,-0.6978,-23.827,2.3451e-10,-0.3489,0,0,0.066667,1.579e-15,0,0.66667
0.84138,0.72815,12.621,0.34223,29.828,111.26,-11.518,3.8393,-1.5861,-15.357,-5.445e-10,-0.79304,0,0,0.066667,-0,-0,0.66667
0.082681,0.18035,1.2402,-0.47948,-142.69,2648.4,1.5857,-0.52858,-1.1796,2.1143,3.9713e-08,-0.58979,0,0,0.066667,-0,-0,0.66667
0.040078,0.45357,0.60117,-0.069646,-20.82,2840.1,0.11165,-0.037217,-1.9764,0.14887,-7.6886e-09,-0.9882,0,0,0.066667,-4.7462e-17,0,0.66667
0.49353,0.80391,7.403,0.45587,103.28,970.86,-8.9995,2.9998,-1.2553,-11.999,-3.4834e-12,-0.62765,0,0,0.066667,6.3159e-16,0,0.66667
0.60076,0.72083,9.0114,0.33125,63.353,630.74,-7.96,2.6533,-1.6047,-10.613,8.1735e-12,-0.80234,0,0,0.066667,-0,-0,0.66667
0.684,0.14666,10.26,-0.53002,-84.459,410.02,14.501,-4.8337,-1.0003,19.335,1.041e-11,-0.50017,0,0,0.066667,-0,-0,0.66667
0.47827,0.095442,7.1741,-0.60684,-140.29,1024.1,11.609,-3.8698,-0.68623,15.479,-3.0402e-12,-0.34311,0,0,0.066667,-0,-0,0.66667
0.54316,0.93769,8.1474,0.65654,138.76,807.42,-14.264,4.7547,-0.46745,-19.019,6.4224e-12,-0.23372,0,0,0.066667,-0,-0,0.66667
0.54961,0.036507,8.2442,-0.69524,-145.51,787.13,15.284,-5.0948,-0.28321,20.379,-6.64e-12,-0.1416,0,0,0.066667,-0,-0,0.66667
0.71378,0.61642,10.707,0.17463,25.602,339.7,-4.986,1.662,-1.8877,-6.648,-3.9901e-12,-0.94383,0,0,0.066667,-0,-0,0.66667
0.15616,0.46235,2.3424,-0.056475,-16.497,2320.9,0.35277,-0.11759,-2.0005,0.47036,5.3456e-10,-1.0002,0,0,0.066667,-1.579e-16,0,0.66667
0.021742,0.16427,0.32614,-0.50359,-150.84,2923,0.43797,-0.14601,-1.0929,0.58395,-2.5313e-05,-0.54643,0,0,0.066667,-0,-0,0.66667
0.50805,0.38281,7.6208,-0.17579,-39.028,921.03,3.5724,-1.1908,-1.8839,4.7632,2.6446e-11,-0.94195,0,0,0.066667,-1.2632e-15,0,0.66667
0.95369,0.26879,14.305,-0.34681,-9.2548,11.251,13.23,-4.41,-1.5815,17.64,-1.956e-06,-0.79075,0,0,0.066667,-0,-0,0.66667
0.025153,0.49148,0.3773,-0.012773,-3.8221,2907.5,0.012852,-0.0042854,-1.994,0.017135,-2.3336e-06,-0.99699,0,0,0.066667,3.9475e-17,0,0.66667
0.6128,0.036919,9.192,-0.69462,-130.07,597.77,17.027,-5.6755,-0.28424,22.702,5.9366e-12,-0.14212,0,0,0.066667,-0,-0,0.66667
0.49388,0.50072,7.4082,0.0010843,0.24531,968.99,-0.021421,0.0071403,-1.9957,-0.028561,-8.9434e-12,-0.99787,0,0,0.066667,-0,-0,0.66667
0.9002,0.24539,13.503,-0.38191,-21.563,46.329,13.752,-4.5839,-1.4765,18.336,-6.685e-08,-0.73825,0,0,0.066667,1.579e-15,0,0.66667
0.023607,0.37281,0.35411,-0.19078,-57.098,2914.5,0.18015,-0.060053,-1.8652,0.2402,-3.1125e-06,-0.93259,0,0,0.066667,4.9343e-17,0,0.66667
0.65951,0.43161,9.8926,-0.10258,-17.331,469.78,2.7062,-0.90207,-1.9628,3.6083,6.9889e-12,-0.9814,0,0,0.066667,-3.158e-16,0,0.66667
0.65622,0.57281,9.8433,0.10921,18.593,478.24,-2.8667,0.95557,-1.9693,-3.8223,-7.4618e-12,-0.98464,0,0,0.066667,1.2632e-15,0,0.66667
0.88375,0.049455,13.256,-0.67582,-44.323,63.615,23.89,-7.9634,-0.36971,31.854,2.3789e-07,-0.18486,0,0,0.066667,-0,-0,0.66667
0.53642,0.59916,8.0463,0.14874,31.699,827.56,-3.1915,1.0638,-1.9175,-4.2554,7.1347e-12,-0.95874,0,0,0.066667,-0,-0,0.66667
0.69065,0.99089,10.36,0.73634,115.52,395.31,-20.342,6.7807,-0.072332,-27.123,-2.0162e-12,-0.036166,0,0,0.066667,6.3159e-16,0,0.66667
0.41267,0.89755,6.19,0.59633,148.3,1261.9,-9.8434,3.2811,-0.72987,-13.124,-3.6495e-12,-0.36494,0,0,0.066667,-0,-0,0.66667
0.82659,0.28181,12.399,-0.32729,-30.946,131.77,10.821,-3.6071,-1.6259,14.428,2.2595e-10,-0.81294,0,0,0.066667,-2.5264e-15,0,0.66667
0.68501,0.61965,10.275,0.17948,28.479,406.44,-4.9178,1.6393,-1.888,-6.557,7.0135e-12,-0.94402,0,0,0.066667,-9.4739e-16,0,0.66667
0.10801,0.71761,1.6202,0.32642,96.629,2534.9,-1.4103,0.4701,-1.6284,-1.8804,-3.9652e-08,-0.81422,0,0,0.066667,2.2698e-16,0,0.66667
0.13989,0.30359,2.0984,-0.29461,-86.509,2392.9,1.6486,-0.54953,-1.7001,2.1981,2.2957e-09,-0.85004,0,0,0.066667,-0,-0,0.66667
0.15807,0.40868,2.3711,-0.13698,-39.991,2312.5,0.86612,-0.28871,-1.9386,1.1548,7.8252e-11,-0.9693,0,0,0.066667,-0,-0,0.66667
0.12054,0.52979,1.8081,0.044682,13.184,2478.9,-0.21544,0.071812,-1.991,-0.28725,-6.1637e-09,-0.9955,0,0,0.066667,-3.7878e-18,0,0.66667
0.23028,0.076924,3.4542,-0.63461,-180.18,1999,5.8455,-1.9485,-0.56553,7.794,-7.2825e-10,-0.28277,0,0,0.066667,-0,2.2887e-17,0.66667
0.42336,0.25686,6.3504,-0.36471,-89.641,1221.3,6.1762,-2.0587,-1.5329,8.235,1.8421e-11,-0.76646,0,0,0.066667,-0,-0,0.66667
0.67076,0.025758,10.061,-0.71136,-117.35,443.52,19.086,-6.3621,-0.20827,25.448,-4.3041e-12,-0.10413,0,0,0.066667,6.3159e-16,0,0.66667
0.33662,0.78189,5.0493,0.42284,112.31,1556.9,-5.6935,1.8978,-1.3593,-7.5913,-4.0834e-12,-0.67967,0,0,0.066667,1.2632e-15,0,0.66667
0.51975,0.023978,7.7963,-0.71403,-156.3,883.69,14.845,-4.9483,-0.18511,19.793,6.2732e-12,-0.092556,0,0,0.066667,-0,-0,0.66667
0.82112,0.77866,12.317,0.41799,40.681,140.16,-13.729,4.5762,-1.3735,-18.305,-4.9485e-10,-0.68676,0,0,0.066667,1.8948e-15,0,0.66667
0.88459,0.13826,13.269,-0.54262,-35.254,61.818,19.2,-6.3999,-0.94745,25.6,-6.4314e-08,-0.47372,0,0,0.066667,-0,-0,0.66667
0.70449,0.98877,10.567,0.73316,110.77,363.05,-20.66,6.8868,-0.094726,-27.547,6.2013e-12,-0.047363,0,0,0.066667,-1.2632e-15,0,0.66667
0.83449,0.34166,12.517,-0.2375,-21.509,120.3,7.9278,-2.6426,-1.7947,10.57,3.6731e-10,-0.89734,0,0,0.066667,1.6681e-15,0,0.66667
0.30908,0.21261,4.6361,-0.43108,-116.8,1668.5,5.3295,-1.7765,-1.339,7.106,2.6199e-11,-0.6695,0,0,0.066667,-0,-0,0.66667
0.79062,0.10312,11.859,-0.59532,-66.831,189.83,18.827,-6.2756,-0.73422,25.102,6.7362e-10,-0.36711,0,0,0.066667,-0,-0,0.66667
0.91666,0.41763,13.75,-0.12355,-5.8502,32.249,4.5301,-1.51,-1.9412,6.0402,-3.8195e-08,-0.9706,0,0,0.066667,-0,-0,0.66667
0.038406,0.24269,0.57608,-0.38596,-115.45,2847.7,0.59292,-0.19764,-1.4643,0.79056,3.5108e-06,-0.73215,0,0,0.066667,-3.9475e-17,0,0.66667
0.44563,0.91675,6.6844,0.62513,150.18,1140.4,-11.143,3.7143,-0.60408,-14.857,3.3751e-12,-0.30204,0,0,0.066667,-0,-0,0.66667
0.23993,0.027215,3.5989,-0.70918,-200.46,1958,6.8061,-2.2687,-0.20759,9.0748,-8.2418e-11,-0.1038,0,0,0.066667,3.158e-16,0,0.66667
0.49402,0.38969,7.4102,-0.16547,-37.434,968.62,3.2698,-1.0899,-1.897,4.3597,3.3151e-12,-0.94849,0,0,0.066667,-0,-0,0.66667
0.61748,0.3126,9.2621,-0.28111,-52.037,582.95,6.943,-2.3143,-1.7141,9.2574,7.6517e-13,-0.85704,0,0,0.066667,2.5264e-15,0,0.66667
0.20905,0.67929,3.1357,0.26893,77.017,2089.9,-2.2488,0.7496,-1.7376,-2.9984,1.3204e-11,-0.86881,0,0,0.066667,-0,-0,0.66667
0.87443,0.52237,13.116,0.033554,2.3498,70.663,-1.1736,0.3912,-2.0054,-1.5648,5.8025e-10,-1.0027,0,0,0.066667,-1.2632e-15,0,0.66667
0.25589,0.18965,3.8384,-0.46552,-130.34,1889.8,4.7649,-1.5883,-1.2252,6.3532,5.3464e-12,-0.6126,0,0,0.066667,-6.3159e-16,0,0.66667
0.71361,0.64632,10.704,0.21949,32.198,340.17,-6.2651,2.0884,-1.8244,-8.3535,-4.948e-12,-0.9122,0,0,0.066667,-0,-0,0.66667
0.85223,0.21904,12.783,-0.42144,-34.437,97.571,14.367,-4.7888,-1.3636,19.155,5.8525e-09,-0.6818,0,0,0.066667,2.5264e-15,0,0.66667
0.93241,0.53865,13.986,0.057971,2.2378,21.551,-2.1621,0.7207,-1.9841,-2.8828,8.0479e-08,-0.99204,0,0,0.066667,-0,-0,0.66667
0.95573,0.86508,14.336,0.54762,14.075,11.54,-20.935,6.9783,-0.93543,-27.913,1.6668e-05,-0.46771,0,0,0.066667,1.2632e-15,0,0.66667
0.6802,0.24168,10.203,-0.38748,-62.295,418.64,10.543,-3.5142,-1.4599,14.057,9.523e-12,-0.72997,0,0,0.066667,-0,-0,0.66667
0.62852,0.37471,9.4278,-0.18793,-34.004,552.13,4.7247,-1.5749,-1.8749,6.2996,5.1683e-12,-0.93746,0,0,0.066667,7.8949e-17,0,0.66667
0.59597,0.96345,8.9395,0.69518,134.42,646.17,-16.572,5.524,-0.28516,-22.096,-4.8299e-12,-0.14258,0,0,0.066667,9.4739e-16,0,0.66667
0.48512,0.090965,7.2768,-0.61355,-140.63,1000.4,11.906,-3.9686,-0.67099,15.875,6.5814e-12,-0.33549,0,0,0.066667,-9.4739e-16,0,0.66667
0.36043,0.40206,5.4065,-0.14692,-38.267,1461.9,2.1181,-0.70605,-1.9312,2.8242,1.3004e-11,-0.96559,0,0,0.066667,-1.579e-16,0,0.66667
0.020765,0.37739,0.31148,-0.18391,-55.049,2927.4,0.15276,-0.050922,-1.8764,0.20368,-2.7109e-06,-0.93821,0,0,0.066667,7.8949e-17,0,0.66667
0.74867,0.45036,11.23,-0.074457,-9.7739,265.8,2.2298,-0.74325,-1.9863,2.973,-5.7641e-12,-0.99314,0,0,0.066667,1.2632e-15,0,0.66667
0.39368,0.29979,5.9051,-0.30031,-75.984,1333.1,4.7291,-1.5764,-1.6795,6.3054,6.1107e-12,-0.83976,0,0,0.066667,-0,-0,0.66667
0.27934,0.72659,4.1901,0.33988,93.851,1791.2,-3.7977,1.2659,-1.5935,-5.0636,1.7587e-11,-0.79673,0,0,0.066667,-0,-0,0.66667
0.77753,0.64453,11.663,0.2168,25.604,211.17,-6.7427,2.2476,-1.8313,-8.9903,7.3719e-14,-0.91567,0,0,0.066667,1.2632e-15,0,0.66667
0.66027,0.65236,9.904,0.22854,38.552,468.02,-6.036,2.012,-1.8129,-8.0479,9.4418e-12,-0.90645,0,0,0.066667,-1.579e-15,0,0.66667
0.9098,0.65141,13.647,0.22712,11.617,37.743,-8.2653,2.7551,-1.8162,-11.02,-2.0169e-09,-0.9081,0,0,0.066667,1.8948e-15,0,0.66667
0.12761,0.97485,1.9142,0.71228,210.16,2447.8,-3.6359,1.212,-0.19818,-4.8479,1.6211e-07,-0.099092,0,0,0.066667,3.158e-16,0,0.66667
0.38236,0.40878,5.7354,-0.13683,-34.97,1376.4,2.0927,-0.69757,-1.928,2.7903,1.5744e-11,-0.96401,0,0,0.066667,-0,-0,0.66667
0.57738,0.72787,8.6608,0.34181,68.2,699.92,-7.8942,2.6314,-1.5932,-10.526,5.671e-13,-0.79661,0,0,0.066667,-0,-0,0.66667
0.3545,0.83951,5.3175,0.50927,133.42,1485.9,-7.2213,2.4071,-1.0747,-9.6285,8.4586e-12,-0.53734,0,0,0.066667,3.158e-16,0,0.66667
0.34805,0.89432,5.2207,0.59148,155.82,1511.7,-8.2346,2.7449,-0.75321,-10.979,7.4785e-13,-0.3766,0,0,0.066667,-0,-0,0.66667
0.48409,0.52926,7.2613,0.04389,10.056,1002.7,-0.84988,0.28329,-2.0048,-1.1332,2.7583e-12,-1.0024,0,0,0.066667,-7.8949e-16,0,0.66667
0.071438,0.10391,1.0716,-0.59414,-177.2,2699,1.6978,-0.56592,-0.7388,2.2637,2.5357e-06,-0.3694,0,0,0.066667,-0,-0,0.66667
0.038686,0.98067,0.58029,0.72101,215.95,2846.6,-1.1157,0.37189,-0.14518,-1.4876,-3.033e-05,-0.072592,0,0,0.066667,-0,-0,0.66667
0.84061,0.71233,12.609,0.31849,27.879,112.2,-10.709,3.5697,-1.6398,-14.279,-3.3433e-10,-0.8199,0,0,0.066667,1.2632e-15,0,0.66667
0.0073689,0.070195,0.11053,-0.64471,-193.3,2988,0.19005,-0.063279,-0.51604,0.25343,0.00010526,-0.25802,0,0,0.066667,1.9737e-17,0,0.66667
0.70376,0.67832,10.556,0.26748,40.365,362.55,-7.5297,2.5099,-1.7547,-10.04,-5.2669e-13,-0.87735,0,0,0.066667,-0,-0,0.66667
0.44556,0.72811,6.6834,0.34217,82.113,1139.8,-6.0983,2.0328,-1.5773,-8.131,-7.5184e-12,-0.78867,0,0,0.066667,-0,-0,0.66667
0.96951,0.49011,14.543,-0.014832,-0.25855,4.7901,0.57521,-0.19173,-2.0077,0.76694,1.6329e-06,-1.0038,0,0,0.066667,-1.2632e-15,0,0.66667
0.80992,0.38482,12.149,-0.17278,-17.736,156.48,5.5974,-1.8658,-1.8956,7.4632,5.5245e-12,-0.94782,0,0,0.066667,-0,-0,0.66667
0.39961,0.44953,5.9942,-0.075708,-19.042,1310.2,1.2102,-0.40339,-1.9735,1.6135,-1.0271e-11,-0.98673,0,0,0.066667,6.3159e-16,0,0.66667
0.39383,0.58422,5.9074,0.12632,31.947,1332.3,-1.99,0.66333,-1.9432,-2.6533,1.5553e-11,-0.97161,0,0,0.066667,3.158e-16,0,0.66667
0.12859,0.28239,1.9289,-0.32642,-96.151,2443.1,1.679,-0.55967,-1.6213,2.2387,1.322e-09,-0.81065,0,0,0.066667,3.158e-16,0,0.66667
0.36459,0.98041,5.4689,0.72061,187.41,1446.8,-10.509,3.5031,-0.14912,-14.012,6.1569e-12,-0.074559,0,0,0.066667,-0,-0,0.66667
0.20418,0.83573,3.0627,0.5036,144.62,2111.2,-4.113,1.371,-1.1057,-5.484,-6.1275e-10,-0.55285,0,0,0.066667,-3.158e-16,0,0.66667
0.31607,0.38714,4.7411,-0.16929,-45.62,1639.6,2.1403,-0.71345,-1.8969,2.8538,3.1121e-11,-0.94845,0,0,0.066667,-0,-0,0.66667
0.56232,0.38288,8.4347,-0.17569,-35.943,745.7,3.9516,-1.3172,-1.9015,5.2689,8.3611e-12,-0.95073,0,0,0.066667,-0,-0,0.66667
0.86191,0.49465,12.929,-0.008032,-0.61483,84.792,0.27691,-0.092305,-2.0022,0.36922,-5.5503e-09,-1.0011,0,0,0.066667,-6.3159e-16,0,0.66667
0.098202,0.83654,1.473,0.50481,149.82,2578.8,-1.9829,0.66098,-1.0911,-2.6439,-2.6792e-08,-0.54557,0,0,0.066667,7.8949e-17,0,0.66667
0.83006,0.91389,12.451,0.62084,57.811,128.34,-20.613,6.8711,-0.63368,-27.484,-2.2633e-08,-0.31684,0,0,0.066667,-0,-0,0.66667
0.92067,0.33557,13.81,-0.24664,-11.146,29.632,9.083,-3.0277,-1.7905,12.111,-1.3434e-07,-0.89525,0,0,0.066667,-6.3159e-16,0,0.66667
0.22363,0.2116,3.3544,-0.4326,-123.12,2027.2,3.8696,-1.2899,-1.331,5.1595,-4.5894e-12,-0.66551,0,0,0.066667,3.158e-16,0,0.66667
0.20085,0.73423,3.0127,0.35135,100.99,2125.5,-2.8227,0.94091,-1.5636,-3.7636,2.3916e-10,-0.7818,0,0,0.066667,3.158e-16,0,0.66667
0.76844,0.32781,11.527,-0.25828,-31.597,227.94,7.9388,-2.6463,-1.7637,10.585,-3.852e-12,-0.88183,0,0,0.066667,1.2632e-15,0,0.66667
0.020528,0.78497,0.30792,0.42745,128.01,2928.5,-0.35099,0.117,-1.3472,-0.46798,1.1978e-05,-0.6736,0,0,0.066667,-0,-0,0.66667
0.48994,0.48942,7.3492,-0.015867,-3.6082,982.5,0.31095,-0.10365,-1.9941,0.4146,-6.2894e-13,-0.99706,0,0,0.066667,1.2632e-15,0,0.66667
0.022375,0.65851,0.33563,0.23776,71.167,2920.1,-0.2128,0.070936,-1.7939,-0.28373,4.1215e-06,-0.89696,0,0,0.066667,-7.8949e-17,0,0.66667
0.8073,0.44005,12.109,-0.089925,-9.3437,160.51,2.9038,-0.96794,-1.9678,3.8718,-2.3277e-11,-0.98391,0,0,0.066667,-0,-0,0.66667
0.024361,0.43118,0.36542,-0.10322,-30.889,2911.1,0.10059,-0.03353,-1.9563,0.13411,-1.6931e-06,-0.97815,0,0,0.066667,-1.9737e-17,0,0.66667
0.16055,0.69774,2.4083,0.29661,86.542,2301.6,-1.9049,0.63495,-1.6844,-2.5398,2.237e-10,-0.84221,0,0,0.066667,-0,-0,0.66667
0.24613,0.6043,3.692,0.15645,44.003,1930.8,-1.5403,0.51342,-1.9111,-2.0537,1.2844e-11,-0.95557,0,0,0.066667,-0,-0,0.66667
0.99712,0.39689,14.957,-0.15467,-0.18066,0.25788,6.1689,-2.0563,-1.9158,8.2252,-2.9336e-06,-0.95792,0,0,0.066667,-1.2632e-15,0,0.66667
0.42075,0.3075,6.3112,-0.28875,-71.147,1230.9,4.8597,-1.6199,-1.7111,6.4796,5.9628e-12,-0.85554,0,0,0.066667,3.158e-16,0,0.66667
0.072263,0.15535,1.0839,-0.51697,-154.12,2695.2,1.4943,-0.4981,-1.0457,1.9924,5.3884e-07,-0.52286,0,0,0.066667,2.1711e-16,0,0.66667
0.25027,0.67356,3.7541,0.26034,73.076,1913.3,-2.6062,0.86874,-1.7694,-3.475,1.7382e-11,-0.88471,0,0,0.066667,-0,-0,0.66667
0.41157,0.55579,6.1735,0.083679,20.803,1265,-1.3776,0.4592,-1.9709,-1.8368,-2.7359e-12,-0.98543,0,0,0.066667,-6.3159e-16,0,0.66667
0.42026,0.083525,6.3039,-0.62471,-154.2,1233.6,10.502,-3.5006,-0.61744,14.002,7.3594e-12,-0.30872,0,0,0.066667,-0,6.9521e-17,0.66667
0.12217,0.044824,1.8326,-0.68276,-201.7,2472,3.3366,-1.1122,-0.34333,4.4488,-4.6891e-07,-0.17166,0,0,0.066667,-0,-0,0.66667
0.0095038,0.0064081,0.14256,-0.74039,-222.09,2978.3,0.28187,-0.093868,-0.046804,0.37587,0.00013328,-0.023402,0,0,0.066667,-0,-0,0.66667
0.81546,0.18651,12.232,-0.47024,-47.097,148.95,15.338,-5.1128,-1.2157,20.451,1.8401e-09,-0.60784,0,0,0.066667,-1.4211e-15,0,0.66667
0.24196,0.10642,3.6293,-0.59036,-166.61,1949.1,5.7137,-1.9046,-0.75419,7.6182,-2.7744e-10,-0.37709,0,0,0.066667,-6.3159e-16,0,0.66667
0.083424,0.34088,1.2514,-0.23868,-70.981,2645,0.79648,-0.26549,-1.7938,1.062,4.3474e-08,-0.8969,0,0,0.066667,-1.9737e-16,0,0.66667
0.39022,0.95234,5.8533,0.67852,172.49,1347.3,-10.591,3.5303,-0.37288,-14.121,3.1228e-12,-0.18644,0,0,0.066667,-6.3159e-16,0,0.66667
0.43254,0.22345,6.4881,-0.41482,-100.99,1187.5,7.177,-2.3923,-1.3848,9.5694,1.8416e-12,-0.69239,0,0,0.066667,-0,-0,0.66667
0.5241,0.48992,7.8614,-0.01512,-3.2811,867.62,0.31696,-0.10565,-1.9929,0.42262,1.1052e-11,-0.99643,0,0,0.066667,-1.2632e-15,0,0.66667
0.76031,0.65454,11.405,0.23181,29.219,243.23,-7.0499,2.35,-1.8055,-9.3998,-1.2526e-11,-0.90275,0,0,0.066667,1.7369e-15,0,0.66667
0.78814,0.72111,11.822,0.33166,37.538,192.8,-10.456,3.4852,-1.6037,-13.941,8.1099e-11,-0.80186,0,0,0.066667,-0,-0,0.66667
0.46938,0.10204,7.0407,-0.59694,-139.5,1055.3,11.208,-3.7359,-0.74221,14.944,7.665e-13,-0.3711,0,0,0.066667,-0,-0,0.66667
0.88477,0.076088,13.272,-0.63587,-41.326,62.292,22.504,-7.5013,-0.55689,30.005,-1.3056e-07,-0.27844,0,0,0.066667,1.2632e-15,0,0.66667
0.079143,0.48168,1.1871,-0.027476,-8.175,2664.2,0.08698,-0.028993,-2.0045,0.11597,4.1237e-08,-1.0023,0,0,0.066667,-0,-0,0.66667
0.35568,0.0088445,5.3352,-0.73673,-193.04,1481.9,10.482,-3.4939,-0.068867,13.976,1.4751e-11,-0.034434,0,0,0.066667,-0,-0,0.66667
0.35988,0.66214,5.3982,0.24321,63.387,1464.2,-3.5011,1.167,-1.7997,-4.6681,6.4506e-12,-0.89985,0,0,0.066667,-0,-0,0.66667
0.71091,0.88156,10.664,0.57234,84.786,347.54,-16.275,5.4251,-0.8292,-21.7,1.0742e-11,-0.4146,0,0,0.066667,-0,-0,0.66667
0.84544,0.59199,12.682,0.13799,11.729,105.35,-4.6664,1.5555,-1.9382,-6.2219,2.5851e-10,-0.9691,0,0,0.066667,-1.7369e-15,0,0.66667
0.72322,0.15864,10.848,-0.51204,-73.106,320.07,14.813,-4.9376,-1.0657,19.75,6.0218e-13,-0.53284,0,0,0.066667,-0,-0,0.66667
0.11084,0.96872,1.6626,0.70308,208.28,2522.5,-3.1172,1.0391,-0.24954,-4.1563,-9.3181e-07,-0.12477,0,0,0.066667,-2.8681e-17,0,0.66667
0.59935,0.75124,8.9903,0.37687,72.282,634.95,-9.035,3.0117,-1.4913,-12.047,1.5197e-11,-0.74563,0,0,0.066667,-2.5264e-15,0,0.66667
0.50962,0.23845,7.6443,-0.39233,-86.964,916.18,7.9976,-2.6659,-1.4471,10.663,1.2268e-11,-0.72357,0,0,0.066667,-0,-0,0.66667
0.60538,0.94861,9.0808,0.67292,127.81,618.79,-16.295,5.4317,-0.38781,-21.727,2.9026e-12,-0.19391,0,0,0.066667,-0,-0,0.66667
0.012168,0.64615,0.18253,0.21922,65.64,2966.2,-0.1067,0.035568,-1.8284,-0.14227,-4.0801e-07,-0.91418,0,0,0.066667,-9.8686e-18,0,0.66667
0.2884,0.44757,4.326,-0.078639,-21.584,1753.3,0.90718,-0.30239,-1.9717,1.2096,1.9597e-11,-0.98584,0,0,0.066667,-0,-0,0.66667
0.051856,0.0098828,0.77785,-0.73518,-219.94,2787.2,1.5249,-0.50831,-0.074213,2.0332,-3.5953e-06,-0.037107,0,0,0.066667,-0,-0,0.66667
0.38587,0.56979,5.7881,0.10468,26.669,1362.8,-1.6157,0.53858,-1.9577,-2.1543,2.6273e-12,-0.97883,0,0,0.066667,1.2632e-15,0,0.66667
0.75909,0.45802,11.386,-0.062976,-7.97,245.34,1.9122,-0.63739,-1.9799,2.5495,-2.0847e-12,-0.98994,0,0,0.066667,-0,-0,0.66667
0.276,0.27136,4.14,-0.34296,-94.892,1805.1,3.7863,-1.2621,-1.5773,5.0484,1.7011e-11,-0.78866,0,0,0.066667,-0,-0,0.66667
0.61411,0.69529,9.2117,0.29294,54.593,592.44,-7.1959,2.3986,-1.6915,-9.5945,1.2732e-11,-0.84574,0,0,0.066667,-0,-0,0.66667
0.62743,0.92974,9.4115,0.64461,117.16,556.71,-16.178,5.3927,-0.52502,-21.571,6.5761e-12,-0.26251,0,0,0.066667,-0,-0,0.66667
0.25163,0.18691,3.7745,-0.46963,-131.8,1907.8,4.727,-1.5757,-1.2222,6.3026,4.8299e-11,-0.61109,0,0,0.066667,-3.5527e-16,0,0.66667
0.47504,0.35557,7.1256,-0.21665,-50.212,1034.4,4.1167,-1.3722,-1.8272,5.489,1.291e-11,-0.91362,0,0,0.066667,-0,-0,0.66667
0.1435,0.19964,2.1524,-0.45054,-132.21,2377.1,2.586,-0.862,-1.279,3.448,-2.1257e-10,-0.63951,0,0,0.066667,3.158e-16,0,0.66667
0.070018,0.21387,1.0503,-0.4292,-127.96,2705.3,1.2021,-0.40069,-1.3392,1.6028,4.2449e-07,-0.66959,0,0,0.066667,-3.9475e-17,0,0.66667
0.79297,0.32549,11.894,-0.26177,-29.017,184.34,8.3029,-2.7676,-1.7543,11.07,2.2593e-11,-0.87716,0,0,0.066667,-0,-0,0.66667
0.17947,0.57966,2.6921,0.11949,34.625,2218.5,-0.85784,0.28595,-1.9426,-1.1438,8.3432e-11,-0.97129,0,0,0.066667,-0,-0,0.66667
0.12621,0.82112,1.8931,0.48168,142.04,2453.8,-2.4316,0.81055,-1.1818,-3.2422,-1.0767e-08,-0.59091,0,0,0.066667,-0,-0,0.66667
0.96712,0.017,14.507,-0.7245,-14.032,8.8962,28.027,-9.3423,-0.13849,37.369,-1.1127e-05,-0.069244,0,0,0.066667,-0,7.8337e-17,0.66667
0.055643,0.21923,0.83464,-0.42116,-125.79,2770,0.93737,-0.31246,-1.3645,1.2498,-3.8404e-07,-0.68227,0,0,0.066667,-0,-0,0.66667
0.68195,0.49211,10.229,-0.011829,-1.8915,413.71,0.32267,-0.10756,-1.9948,0.43023,-2.309e-13,-0.99739,0,0,0.066667,-6.3159e-16,0,0.66667
0.37495,0.33703,5.6242,-0.24446,-62.899,1405.2,3.6663,-1.2221,-1.7995,4.8884,2.5087e-12,-0.89974,0,0,0.066667,-0,-0,0.66667
0.17349,0.642,2.6023,0.213,61.862,2244.8,-1.4781,0.4927,-1.8436,-1.9708,1.959e-10,-0.92178,0,0,0.066667,-0,-0,0.66667
0.27286,0.16373,4.0929,-0.50441,-139.89,1818.5,5.5054,-1.8351,-1.0893,7.3405,2.6334e-11,-0.54463,0,0,0.066667,-6.3159e-16,0,0.66667
0.7317,0.81412,10.975,0.47118,65.51,301.75,-13.79,4.5968,-1.2132,-18.387,-7.3701e-12,-0.60662,0,0,0.066667,-0,-0,0.66667
0.85547,0.51122,12.832,0.016829,1.344,92.539,-0.57587,0.19196,-1.997,-0.76782,-1.2397e-10,-0.99852,0,0,0.066667,-5.0527e-15,0,0.66667
0.26883,0.76578,4.0325,0.39867,110.79,1835.2,-4.287,1.429,-1.4346,-5.716,2.6636e-11,-0.71729,0,0,0.066667,-3.158e-16,0,0.66667
0.34714,0.13476,5.2072,-0.54785,-144.4,1515.2,7.6074,-2.5358,-0.93225,10.143,1.5002e-11,-0.46612,0,0,0.066667,6.3159e-16,0,0.66667
0.40955,0.22527,6.1433,-0.4121,-102.73,1273.1,6.7511,-2.2504,-1.3962,9.0014,7.6437e-12,-0.69809,0,0,0.066667,-0,-0,0.66667
0.82745,0.94514,12.412,0.66772,63.085,132.41,-22.1,7.3667,-0.42381,-29.467,-1.8892e-08,-0.2119,0,0,0.066667,-2.5264e-15,0,0.66667
0.74992,0.86114,11.249,0.54171,70.967,264.75,-16.25,5.4165,-0.96792,-21.666,-5.9037e-11,-0.48396,0,0,0.066667,-0,-0,0.66667
0.20942,0.13551,3.1413,-0.54674,-156.68,2088.6,4.5799,-1.5266,-0.93137,6.1066,-4.0873e-10,-0.46568,0,0,0.066667,-0,-0,0.66667
0.54285,0.51185,8.1428,0.01777,3.7496,806.83,-0.38586,0.12862,-1.9966,-0.51448,1.8699e-12,-0.99831,0,0,0.066667,-0,-0,0.66667
0.76674,0.02665,11.501,-0.71003,-87.74,233.34,21.776,-7.2587,-0.21515,29.035,-4.0867e-10,-0.10758,0,0,0.066667,1.2632e-15,0,0.66667
0.47874,0.99297,7.1811,0.73945,170.98,1023.1,-14.16,4.7201,-0.05115,-18.88,2.0132e-11,-0.025575,0,0,0.066667,-9.4739e-16,0,0.66667
0.5555,0.99862,8.3325,0.74793,155.14,768.89,-16.619,5.5397,-0.0059527,-22.159,3.1477e-12,-0.0029764,0,0,0.066667,-2.3685e-16,0,0.66667
0.21251,0.41918,3.1877,-0.12123,-34.659,2074.8,1.0306,-0.34352,-1.9419,1.3741,-3.2318e-11,-0.97093,0,0,0.066667,-3.158e-16,0,0.66667
0.65934,0.47552,9.89,-0.036724,-6.2065,470.18,0.96855,-0.32285,-1.9958,1.2914,1.1369e-11,-0.99789,0,0,0.066667,-0,-0,0.66667
0.072077,0.75977,1.0812,0.38966,116.12,2696,-1.1234,0.37447,-1.4547,-1.4979,-3.9541e-07,-0.72733,0,0,0.066667,-0,-0,0.66667
0.36173,0.15698,5.426,-0.51453,-134,1457.4,7.445,-2.4817,-1.0625,9.9266,3.4646e-11,-0.53124,0,0,0.066667,-1.2632e-15,0,0.66667
0.4004,0.13142,6.006,-0.55287,-139.12,1308,8.8548,-2.9516,-0.90828,11.806,2.0393e-12,-0.45414,0,0,0.066667,-0,-0,0.66667
0.60878,0.37436,9.1317,-0.18846,-35.48,607.38,4.5891,-1.5297,-1.8842,6.1188,-5.5009e-12,-0.94212,0,0,0.066667,1.3421e-15,0,0.66667
0.94867,0.29757,14.23,-0.30364,-8.9634,13.328,11.522,-3.8407,-1.6689,15.363,-5.2256e-07,-0.83445,0,0,0.066667,-0,-0,0.66667
0.21912,0.78268,3.2868,0.42401,120.93,2046.6,-3.7164,1.2388,-1.3721,-4.9553,-9.2873e-11,-0.68605,0,0,0.066667,6.3159e-16,0,0.66667
0.54416,0.02294,8.1624,-0.71559,-151.07,804.53,15.576,-5.1919,-0.1808,20.768,3.2836e-12,-0.090398,0,0,0.066667,-0,6.1647e-17,0.66667
0.80224,0.70969,12.034,0.31453,33.48,169.12,-10.093,3.3644,-1.6437,-13.458,-2.0075e-10,-0.82183,0,0,0.066667,1.2632e-15,0,0.66667
0.60296,0.95558,9.0443,0.68337,130.41,625.82,-16.482,5.4939,-0.33351,-21.976,-1.2008e-12,-0.16675,0,0,0.066667,-0,-0,0.66667
0.73883,0.79025,11.082,0.43538,59.147,286.71,-12.867,4.2889,-1.323,-17.156,-2.8241e-11,-0.66152,0,0,0.066667,-0,-0,0.66667
0.11645,0.041796,1.7468,-0.68731,-203.33,2497.5,3.2016,-1.0672,-0.31406,4.2688,-4.7147e-07,-0.15703,0,0,0.066667,3.158e-16,0,0.66667
0.83579,0.53313,12.537,0.04969,4.465,118.21,-1.6612,0.55373,-1.9859,-2.2149,-4.9628e-10,-0.99294,0,0,0.066667,2.5264e-15,0,0.66667
0.3113,0.32044,4.6695,-0.26934,-72.834,1659.2,3.3538,-1.1179,-1.7489,4.4717,3.4221e-11,-0.87446,0,0,0.066667,-0,-0,0.66667
0.43711,0.48176,6.5567,-0.027365,-6.6249,1170.2,0.47846,-0.15949,-2.0072,0.63794,-3.2874e-12,-1.0036,0,0,0.066667,6.3159e-16,0,0.66667
0.08488,0.3365,1.2732,-0.24524,-72.916,2638.4,0.83265,-0.27755,-1.7803,1.1102,2.0684e-08,-0.89015,0,0,0.066667,-0,-0,0.66667
0.68718,0.45155,10.308,-0.072676,-11.465,401.11,1.9976,-0.66588,-1.9914,2.6635,6.9509e-12,-0.9957,0,0,0.066667,-1.2632e-15,0,0.66667
0.84731,0.29003,12.71,-0.31496,-26.501,103.38,10.675,-3.5583,-1.6464,14.233,1.5352e-09,-0.82319,0,0,0.066667,-0,-0,0.66667
0.48369,0.21661,7.2553,-0.42508,-97.521,1004.7,8.2243,-2.7414,-1.3674,10.966,9.142e-12,-0.68368,0,0,0.066667,7.8949e-17,0,0.66667
0.10135,0.10131,1.5203,-0.59804,-177.44,2564.8,2.4245,-0.80816,-0.72215,3.2327,-1.8689e-07,-0.36107,0,0,0.066667,-0,-0,0.66667
0.10296,0.97275,1.5444,0.70912,210.44,2557.7,-2.9204,0.97346,-0.20693,-3.8939,-2.0918e-06,-0.10347,0,0,0.066667,-0,-0,0.66667
0.11563,0.75551,1.7344,0.38327,113.28,2500.9,-1.7727,0.59089,-1.4725,-2.3635,1.7038e-08,-0.73624,0,0,0.066667,-0,-0,0.66667
0.49491,0.68882,7.4237,0.28323,64.016,965.73,-5.607,1.869,-1.7118,-7.476,8.6215e-12,-0.85588,0,0,0.066667,-1.2632e-15,0,0.66667
0.62202,0.1323,9.3304,-0.55155,-101.3,571.19,13.723,-4.5744,-0.91919,18.298,9.1127e-13,-0.45959,0,0,0.066667,-0,-0,0.66667
0.033262,0.19542,0.49893,-0.45687,-136.74,2871,0.60786,-0.20262,-1.2617,0.81048,-1.5889e-06,-0.63085,0,0,0.066667,-0,-0,0.66667
0.062583,0.89206,0.93875,0.58809,175.6,2738.8,-1.4722,0.49073,-0.7816,-1.9629,3.607e-06,-0.3908,0,0,0.066667,7.8949e-17,0,0.66667
0.98655,0.59929,14.798,0.14894,1.1104,1.2419,-5.8773,1.9591,-1.9247,-7.8364,-4.0307e-07,-0.96235,0,0,0.066667,-2.5264e-15,0,0.66667
0.2911,0.77304,4.3666,0.40955,112.29,1742.4,-4.7689,1.5896,-1.3986,-6.3586,-1.1081e-11,-0.69929,0,0,0.066667,3.158e-16,0,0.66667
0.47673,0.10996,7.151,-0.58506,-135.49,1029.4,11.157,-3.7189,-0.77628,14.876,-5.2047e-13,-0.38814,0,0,0.066667,6.703e-17,0,0.66667
0.63063,0.97467,9.4595,0.712,128.61,548.33,-17.96,5.9868,-0.19295,-23.947,-3.3751e-14,-0.096474,0,0,0.066667,-0,-0,0.66667
0.7149,0.012412,10.723,-0.73138,-107.26,339.62,20.915,-6.9715,-0.096169,27.886,2.6823e-12,-0.048084,0,0,0.066667,-2.5264e-15,-7.561e-17,0.66667
0.10945,0.82384,1.6417,0.48575,143.82,2528.6,-2.1266,0.70885,-1.1725,-2.8354,6.0696e-08,-0.58624,0,0,0.066667,-0,-0,0.66667
0.10965,0.56197,1.6448,0.092961,27.5,2527.5,-0.40774,0.13591,-1.9812,-0.54366,-1.0671e-08,-0.99061,0,0,0.066667,-1.727e-16,0,0.66667
0.91206,0.57352,13.681,0.11028,5.5001,35.721,-4.0235,1.3412,-1.9514,-5.3646,3.8258e-09,-0.97571,0,0,0.066667,-0,-0,0.66667
0.32409,0.27996,4.8614,-0.33006,-88.464,1607.2,4.2788,-1.4263,-1.6117,5.7051,4.1672e-11,-0.80585,0,0,0.066667,7.8949e-17,0,0.66667
0.72386,0.56461,10.858,0.09692,13.785,317.47,-2.8063,0.93542,-1.9634,-3.7417,-1.5399e-11,-0.9817,0,0,0.066667,2.5264e-15,0,0.66667
0.70962,0.68164,10.644,0.27246,40.44,349.23,-7.7337,2.5779,-1.7306,-10.312,1.3678e-13,-0.86529,0,0,0.066667,-1.2632e-15,0,0.66667
0.46881,0.42504,7.0321,-0.11244,-26.254,1056.2,2.1085,-0.70283,-1.9665,2.8113,-4.7873e-13,-0.98324,0,0,0.066667,6.3159e-16,0,0.66667
0.091311,0.92629,1.3697,0.63944,190.13,2609.8,-2.3355,0.7785,-0.54834,-3.114,1.0521e-06,-0.27417,0,0,0.066667,-0,-0,0.66667
0.88983,0.77926,13.347,0.41888,25.995,55.992,-14.909,4.9698,-1.3855,-19.879,4.8352e-09,-0.69277,0,0,0.066667,1.7369e-15,0,0.66667
0.83452,0.93591,12.518,0.65387,59.458,122.33,-21.827,7.2755,-0.47517,-29.102,-5.4842e-08,-0.23758,0,0,0.066667,1.3867e-15,0,0.66667
0.43167,0.451,6.4751,-0.073498,-17.898,1190.2,1.2691,-0.42303,-1.9753,1.6921,3.8168e-12,-0.98767,0,0,0.066667,-0,-0,0.66667
0.4559,0.93917,6.8385,0.65875,156.46,1103.5,-12.013,4.0043,-0.45938,-16.017,1.7213e-11,-0.22969,0,0,0.066667,-0,-0,0.66667
0.5459,0.23233,8.1885,-0.40151,-84.39,797.7,8.7674,-2.9225,-1.4342,11.69,3.1672e-12,-0.7171,0,0,0.066667,-0,-0,0.66667
0.3785,0.91044,5.6774,0.61566,158.12,1392.3,-9.3209,3.107,-0.65215,-12.428,-1.503e-11,-0.32608,0,0,0.066667,1.2632e-15,0,0.66667
0.50468,0.78521,7.5702,0.42782,95.487,932.89,-8.6365,2.8788,-1.3465,-11.515,6.1e-12,-0.67323,0,0,0.066667,-0,-0,0.66667
0.47267,0.58678,7.0901,0.13018,30.254,1042.6,-2.4612,0.82041,-1.9381,-3.2816,1.3268e-11,-0.96907,0,0,0.066667,-0,-0,0.66667
0.28587,0.35413,4.288,-0.2188,-60.16,1763.9,2.502,-0.83399,-1.8264,3.336,3.4401e-11,-0.91318,0,0,0.066667,-6.3159e-16,0,0.66667
0.87249,0.90205,13.087,0.60307,43.074,74.884,-21.047,7.0157,-0.70951,-28.063,4.9626e-08,-0.35476,0,0,0.066667,6.3159e-16,0,0.66667
0.04716,0.14232,0.7074,-0.53652,-160.45,2808.3,1.0121,-0.33736,-0.98684,1.3495,7.1322e-06,-0.49342,0,0,0.066667,-7.8949e-17,0,0.66667
0.36431,0.56984,5.4647,0.10476,27.197,1446.7,-1.5266,0.50886,-1.9573,-2.0355,2.0252e-11,-0.97864,0,0,0.066667,-0,-0,0.66667
0.77404,0.05246,11.611,-0.67131,-80.654,219.59,20.785,-6.9282,-0.39131,27.713,8.1937e-10,-0.19566,0,0,0.066667,-0,-0,0.66667
0.48551,0.055455,7.2827,-0.66682,-152.81,999.23,12.95,-4.3167,-0.42624,17.267,1.5508e-12,-0.21312,0,0,0.066667,-0,-0,0.66667
0.78628,0.75986,11.794,0.38979,44.477,196.24,-12.259,4.0865,-1.4557,-16.346,1.3608e-10,-0.72783,0,0,0.066667,-0,-0,0.66667
0.48261,0.7558,7.2391,0.3837,88.134,1008.3,-7.407,2.469,-1.4815,-9.876,-4.0594e-12,-0.74075,0,0,0.066667,-0,-0,0.66667
0.98946,0.88287,14.842,0.5743,3.4726,2.897,-22.73,7.5767,-0.82327,-30.307,8.1046e-05,-0.41163,0,0,0.066667,2.5264e-15,0,0.66667
0.88404,0.16372,13.261,-0.50441,-32.898,62.132,17.837,-5.9456,-1.0896,23.783,-1.7882e-08,-0.5448,0,0,0.066667,-0,-0,0.66667
0.007732,0.43667,0.11598,-0.094999,-28.444,2986.3,0.029381,-0.0097932,-1.9628,0.039175,7.7763e-07,-0.98138,0,0,0.066667,6.1679e-19,0,0.66667
0.47505,0.46144,7.1258,-0.057837,-13.402,1034.2,1.099,-0.36634,-1.9826,1.4654,-9.4292e-12,-0.9913,0,0,0.066667,-0,-0,0.66667
0.85741,0.51545,12.861,0.02318,1.8282,90.173,-0.79499,0.265,-2.0017,-1.06,4.105e-10,-1.0008,0,0,0.066667,-0,-0,0.66667
0.34353,0.96147,5.1529,0.69221,183.1,1530,-9.5117,3.1706,-0.30744,-12.682,-1.2643e-11,-0.15372,0,0,0.066667,-0,-5.6417e-17,0.66667
0.72899,0.10651,10.935,-0.59024,-82.839,308.1,17.211,-5.7371,-0.75646,22.948,3.1109e-11,-0.37823,0,0,0.066667,1.2632e-15,0,0.66667
0.41832,0.21242,6.2747,-0.43138,-106.6,1240.3,7.2181,-2.406,-1.3377,9.6241,9.6518e-12,-0.66886,0,0,0.066667,-3.158e-16,0,0.66667
0.095764,0.39623,1.4365,-0.15565,-46.181,2589.6,0.59623,-0.19874,-1.9175,0.79498,2.5216e-08,-0.95875,0,0,0.066667,-0,-0,0.66667
0.31526,0.041313,4.7288,-0.68803,-185.83,1643.9,8.6762,-2.8921,-0.31806,11.568,3.6482e-11,-0.15903,0,0,0.066667,-0,-0,0.66667
0.31302,0.27078,4.6952,-0.34382,-92.882,1652.3,4.3049,-1.435,-1.5892,5.7399,3.7957e-11,-0.79458,0,0,0.066667,-0,-0,0.66667
0.65455,0.73351,9.8183,0.35026,59.899,483.05,-9.1706,3.0569,-1.5683,-12.227,3.8671e-12,-0.78417,0,0,0.066667,-1.2632e-15,0,0.66667
0.92687,0.083069,13.903,-0.6254,-26.326,27.449,23.186,-7.7288,-0.60523,30.915,-4.6512e-06,-0.30261,0,0,0.066667,-0,-0,0.66667
0.70369,0.96115,10.555,0.69172,104.7,364.61,-19.47,6.4901,-0.30828,-25.96,-5.4534e-13,-0.15414,0,0,0.066667,-0,-0,0.66667
0.32303,0.79047,4.8455,0.43571,116.9,1611.7,-5.6299,1.8766,-1.3208,-7.5066,-1.1482e-11,-0.66042,0,0,0.066667,6.3159e-16,0,0.66667
0.68312,0.04274,10.247,-0.68589,-109.68,413.01,18.742,-6.2473,-0.32428,24.989,1.0907e-11,-0.16214,0,0,0.066667,-0,-0,0.66667
0.084102,0.61924,1.2615,0.17887,53.182,2641.9,-0.60172,0.20057,-1.8813,-0.80229,-3.7737e-08,-0.94063,0,0,0.066667,-1.579e-16,0,0.66667
0.3755,0.39127,5.6325,-0.16309,-41.938,1403,2.4497,-0.81655,-1.9148,3.2662,6.4628e-12,-0.9574,0,0,0.066667,-6.3159e-16,0,0.66667
0.19006,0.68785,2.8509,0.28177,81.337,2172.3,-2.1421,0.71404,-1.7209,-2.8562,-4.5648e-11,-0.86047,0,0,0.066667,6.3159e-16,0,0.66667
0.69305,0.01768,10.396,-0.72348,-112.76,389.54,20.056,-6.6854,-0.13384,26.742,-4.9738e-14,-0.066918,0,0,0.066667,2.5264e-15,0,0.66667
0.66211,0.71928,9.9316,0.32893,55.264,463.57,-8.7114,2.9038,-1.6114,-11.615,3.3218e-12,-0.80569,0,0,0.066667,-0,-0,0.66667
0.35307,0.8519,5.2961,0.52785,138.46,1491.6,-7.4548,2.4849,-1.0037,-9.9397,1.0243e-11,-0.50187,0,0,0.066667,-0,-0,0.66667
0.1806,0.83313,2.709,0.49969,144.86,2213.8,-3.6098,1.2033,-1.106,-4.8131,2.9052e-09,-0.55298,0,0,0.066667,-1.579e-16,0,0.66667
0.15666,0.13687,2.3499,-0.5447,-159.25,2319,3.4133,-1.1378,-0.95494,4.5511,4.4861e-09,-0.47747,0,0,0.066667,-0,-0,0.66667
0.23699,0.95886,3.5548,0.68829,194.83,1970.5,-6.5247,2.1749,-0.31725,-8.6996,9.0485e-11,-0.15863,0,0,0.066667,-0,-0,0.66667
0.32846,0.11359,4.9269,-0.57961,-154.99,1590.1,7.6152,-2.5384,-0.81573,10.154,3.0662e-11,-0.40786,0,0,0.066667,-0,-0,0.66667
0.8696,0.45428,13.044,-0.068585,-4.9767,75.996,2.3857,-0.79522,-1.9784,3.1809,1.4922e-10,-0.98918,0,0,0.066667,-1.0298e-15,0,0.66667
0.12191,0.96751,1.8287,0.70126,207.2,2473.2,-3.4197,1.1399,-0.25299,-4.5596,9.8911e-07,-0.12649,0,0,0.066667,-3.9475e-17,0,0.66667
0.16814,0.20521,2.5221,-0.44219,-128.74,2268.4,2.974,-0.99135,-1.3031,3.9654,3.2675e-09,-0.65156,0,0,0.066667,3.158e-16,0,0.66667
0.37046,0.67156,5.5568,0.25733,66.473,1422.8,-3.8132,1.2711,-1.7611,-5.0843,7.1994e-12,-0.88054,0,0,0.066667,-0,-0,0.66667
0.60435,0.0019786,9.0652,-0.74703,-142.25,622.19,18.059,-6.0195,-0.012753,24.078,-1.147e-11,-0.0063763,0,0,0.066667,5.0527e-15,0,0.66667
0.055815,0.26573,0.83722,-0.35141,-104.93,2769.2,0.78456,-0.26152,-1.5546,1.0461,6.7398e-08,-0.77732,0,0,0.066667,-7.8949e-17,0,0.66667
0.24523,0.82851,3.6784,0.49276,138.78,1935,-4.8335,1.6112,-1.1328,-6.4447,2.6579e-12,-0.56638,0,0,0.066667,-0,-0,0.66667
0.83397,0.85241,12.51,0.52862,48.133,122.26,-17.634,5.8781,-1.0013,-23.512,2.6256e-09,-0.50063,0,0,0.066667,2.5264e-15,0,0.66667
0.66288,0.18898,9.9433,-0.46653,-78.292,462.07,12.37,-4.1234,-1.2213,16.494,1.4222e-11,-0.61064,0,0,0.066667,-2.5264e-15,0,0.66667
0.35143,0.16828,5.2715,-0.49759,-130.68,1498,6.9947,-2.3316,-1.1131,9.3262,2.0274e-11,-0.55655,0,0,0.066667,-0,-0,0.66667
0.11421,0.84243,1.7132,0.51364,151.92,2507.3,-2.3466,0.78219,-1.0594,-3.1288,2.5152e-09,-0.52968,0,0,0.066667,-2.2568e-17,0,0.66667
0.3249,0.45829,4.8736,-0.062558,-16.75,1603.7,0.81301,-0.271,-1.9859,1.084,1.7172e-11,-0.99296,0,0,0.066667,3.158e-16,0,0.66667
0.24452,0.87613,3.6677,0.5642,159,1938.2,-5.5182,1.8394,-0.86461,-7.3576,1.4092e-10,-0.43231,0,0,0.066667,-6.3159e-16,0,0.66667
0.71057,0.57143,10.658,0.10715,15.853,346.81,-3.0454,1.0151,-1.9529,-4.0606,-4.8148e-12,-0.97643,0,0,0.066667,-0,-0,0.66667
0.30055,0.45703,4.5082,-0.064461,-17.554,1703.1,0.77494,-0.25831,-1.9838,1.0333,2.4301e-11,-0.9919,0,0,0.066667,3.158e-16,0,0.66667
0.67724,0.78096,10.159,0.42143,68.275,426.02,-11.416,3.8055,-1.3653,-15.222,-9.8233e-13,-0.68264,0,0,0.066667,1.8553e-15,0,0.66667
0.41266,0.20486,6.1898,-0.44271,-110.03,1261.5,7.3075,-2.4358,-1.2971,9.7433,8.7654e-12,-0.64854,0,0,0.066667,6.3159e-16,0,0.66667
0.34994,0.56267,5.2491,0.094,24.693,1503.4,-1.3158,0.43859,-1.9644,-1.7544,1.3004e-11,-0.98219,0,0,0.066667,-0,-0,0.66667
0.78582,0.50929,11.787,0.013937,1.591,196.24,-0.43807,0.14602,-1.9961,-0.58409,-5.1876e-11,-0.99803,0,0,0.066667,-0,-0,0.66667
0.1854,0.90732,2.7811,0.61098,176.87,2193,-4.5311,1.5104,-0.67734,-6.0415,-3.5888e-09,-0.33867,0,0,0.066667,-0,1.0442e-17,0.66667
0.45682,0.96662,6.8523,0.69992,166.1,1100.3,-12.79,4.2632,-0.25783,-17.053,2.0056e-11,-0.12892,0,0,0.066667,-8.6844e-16,0,0.66667
0.58351,0.71058,8.7527,0.31587,62.345,681.45,-7.3726,2.4575,-1.6407,-9.8301,5.0626e-13,-0.82036,0,0,0.066667,-6.3159e-16,0,0.66667
0.3212,0.21449,4.818,-0.42826,-115.05,1619.1,5.5023,-1.8341,-1.3424,7.3364,3.2332e-11,-0.67118,0,0,0.066667,-1.2561e-16,0,0.66667
0.70625,0.4274,10.594,-0.1089,-16.312,356.58,3.0764,-1.0255,-1.958,4.1019,7.6317e-13,-0.97899,0,0,0.066667,-0,-0,0.66667
0.91783,0.77585,13.767,0.41377,19.395,32.349,-15.191,5.0636,-1.3896,-20.254,1.3207e-08,-0.69478,0,0,0.066667,5.4346e-16,0,0.66667
0.073071,0.43242,1.0961,-0.10138,-30.192,2691.5,0.2963,-0.098768,-1.9598,0.39507,1.6837e-07,-0.97992,0,0,0.066667,-0,-0,0.66667
0.18143,0.4371,2.7214,-0.094346,-27.318,2209.9,0.68468,-0.22823,-1.9642,0.91291,-2.0501e-10,-0.9821,0,0,0.066667,-1.3816e-16,0,0.66667
0.50911,0.76859,7.6367,0.40288,89.37,917.92,-8.2045,2.7348,-1.4168,-10.939,5.8016e-12,-0.70839,0,0,0.066667,-0,-0,0.66667
0.79988,0.60458,11.998,0.15687,16.864,172.58,-5.0192,1.6731,-1.9129,-6.6922,-2.384e-11,-0.95646,0,0,0.066667,1.2632e-15,0,0.66667
0.63096,0.5947,9.4644,0.14205,25.569,545.4,-3.585,1.195,-1.9241,-4.78,-6.5665e-12,-0.96206,0,0,0.066667,2.5264e-15,0,0.66667
0.019691,0.4018,0.29536,-0.14731,-44.092,2932.2,0.11602,-0.038675,-1.9213,0.1547,-1.9098e-06,-0.96063,0,0,0.066667,-2.9606e-17,0,0.66667
0.32998,0.85195,4.9497,0.52792,140.97,1583.8,-6.9681,2.3227,-1.0134,-9.2908,-1.0965e-12,-0.50671,0,0,0.066667,-0,-0,0.66667
0.65383,0.39671,9.8074,-0.15493,-26.524,484.49,4.052,-1.3507,-1.917,5.4027,2.629e-12,-0.95848,0,0,0.066667,-0,-0,0.66667
0.68714,0.81893,10.307,0.47839,75.589,402.23,-13.149,4.383,-1.1968,-17.532,2.8022e-12,-0.59842,0,0,0.066667,-0,-0,0.66667
0.48225,0.39361,7.2337,-0.15958,-36.651,1009.2,3.0783,-1.0261,-1.9125,4.1044,7.5733e-12,-0.95627,0,0,0.066667,6.3159e-16,0,0.66667
0.053735,0.41856,0.80602,-0.12216,-36.474,2778.5,0.26258,-0.087525,-1.9406,0.3501,1.6847e-07,-0.97031,0,0,0.066667,-0,-0,0.66667
0.62779,0.3525,9.4168,-0.22126,-40.099,554.2,5.556,-1.852,-1.8272,7.4081,5.6919e-12,-0.91359,0,0,0.066667,-0,-0,0.66667
0.50403,0.181,7.5605,-0.47851,-106.92,935.24,9.6473,-3.2158,-1.1841,12.863,7.784e-12,-0.59204,0,0,0.066667,6.3159e-16,0,0.66667
0.72541,0.45976,10.881,-0.060359,-8.5439,314.09,1.7514,-0.5838,-1.9811,2.3352,-1.7222e-12,-0.99054,0,0,0.066667,6.3159e-16,0,0.66667
0.39049,0.88182,5.8574,0.57273,145.48,1345.9,-8.946,2.982,-0.84526,-11.928,-1.0488e-11,-0.42263,0,0,0.066667,-0,5.3897e-17,0.66667
0.83573,0.64832,12.536,0.22248,20.009,118.55,-7.4373,2.4791,-1.8178,-9.9164,-2.8312e-10,-0.90888,0,0,0.066667,6.3159e-16,0,0.66667
0.3075,0.47001,4.6125,-0.044984,-12.193,1674.6,0.55331,-0.18444,-1.99,0.73774,3.6526e-11,-0.99498,0,0,0.066667,-0,-0,0.66667
0.86379,0.74578,12.957,0.36867,27.915,83.379,-12.738,4.246,-1.5144,-16.984,1.0713e-08,-0.75722,0,0,0.066667,-1.579e-15,0,0.66667
0.014481,0.16046,0.21721,-0.50931,-152.6,2955.8,0.29499,-0.098314,-1.0852,0.39333,2.362e-05,-0.54262,0,0,0.066667,-0,-0,0.66667
0.76274,0.80242,11.441,0.45363,56.748,239.36,-13.84,4.6134,-1.2692,-18.453,-5.9401e-12,-0.63459,0,0,0.066667,6.3159e-16,0,0.66667
0.82737,0.53621,12.411,0.054319,5.1092,130.08,-1.7977,0.59923,-1.9986,-2.3969,-2.4086e-10,-0.99928,0,0,0.066667,2.5264e-15,0,0.66667
0.6809,0.065784,10.213,-0.65132,-104.71,418.19,17.739,-5.9131,-0.48648,23.653,1.4822e-11,-0.24324,0,0,0.066667,-0,-0,0.66667
0.90273,0.99868,13.541,0.74802,41.529,46.627,-27.011,9.0036,-0.010822,-36.014,1.7547e-07,-0.0054112,0,0,0.066667,-4.1054e-15,-1.275e-17,0.66667
0.20173,0.82308,3.026,0.48462,139.3,2121.8,-3.9106,1.3035,-1.1708,-5.2141,-7.4496e-10,-0.58541,0,0,0.066667,-0,-0,0.66667
0.35195,0.74005,5.2792,0.36007,94.48,1495.7,-5.0691,1.6897,-1.5326,-6.7588,1.0438e-11,-0.76631,0,0,0.066667,-0,-0,0.66667
0.22914,0.20064,3.4371,-0.44904,-127.47,2003.6,4.1158,-1.3719,-1.2784,5.4877,-4.9467e-11,-0.63921,0,0,0.066667,-0,-0,0.66667
0.84492,0.2232,12.674,-0.4152,-35.47,106.9,14.032,-4.6774,-1.3945,18.71,5.1648e-09,-0.69726,0,0,0.066667,-0,-0,0.66667
0.74641,0.26853,11.196,-0.3472,-45.97,270.91,10.366,-3.4554,-1.5701,13.822,3.6442e-12,-0.78506,0,0,0.066667,-1.2632e-15,0,0.66667
0.86905,0.19166,13.036,-0.46252,-33.792,77.816,16.078,-5.3593,-1.2347,21.437,-9.5236e-09,-0.61734,0,0,0.066667,-2.5264e-15,0,0.66667
0.34762,0.9859,5.2143,0.72885,192.21,1513.8,-10.135,3.3782,-0.10919,-13.513,2.5739e-12,-0.054597,0,0,0.066667,-0,-0,0.66667
0.15395,0.34567,2.3093,-0.23149,-67.679,2330.7,1.4255,-0.47518,-1.8132,1.9007,-8.6526e-11,-0.90661,0,0,0.066667,6.3159e-16,0,0.66667
0.96828,0.26998,14.524,-0.34503,-6.3031,5.9215,13.363,-4.4544,-1.5864,17.818,2.6655e-06,-0.79319,0,0,0.066667,-0,-0,0.66667
0.44892,0.38104,6.7339,-0.17843,-42.644,1127.4,3.2041,-1.068,-1.8847,4.2722,1.4944e-13,-0.94234,0,0,0.066667,-0,-0,0.66667
0.7299,0.33153,10.949,-0.2527,-35.291,304.78,7.3779,-2.4593,-1.7697,9.8372,2.7001e-12,-0.88485,0,0,0.066667,-1.2632e-15,0,0.66667
0.65417,0.049432,9.8125,-0.67585,-115.92,485.5,17.685,-5.8949,-0.37913,23.58,5.7234e-12,-0.18956,0,0,0.066667,-0,-0,0.66667
0.14285,0.52089,2.1427,0.031338,9.1914,2379.8,-0.17906,0.059688,-1.9994,-0.23875,7.8045e-11,-0.9997,0,0,0.066667,-0,-0,0.66667
0.84418,0.86043,12.663,0.54065,46.457,108.54,-18.256,6.0854,-0.9704,-24.342,4.7287e-09,-0.4852,0,0,0.066667,-1.2632e-15,0,0.66667
0.97846,0.028444,14.677,-0.70733,-8.996,5.7936,27.684,-9.228,-0.21652,36.912,9.9585e-05,-0.10826,0,0,0.066667,-1.2632e-15,0,0.66667
0.96625,0.22659,14.494,-0.41012,-7.9973,6.8694,15.851,-5.2837,-1.4042,21.135,4.78e-07,-0.7021,0,0,0.066667,-0,-0,0.66667
0.3364,0.46031,5.0461,-0.059537,-15.805,1557.4,0.80114,-0.26705,-1.9812,1.0682,8.5794e-12,-0.99058,0,0,0.066667,-3.158e-16,0,0.66667
0.92595,0.6871,13.889,0.28065,11.867,26.126,-10.395,3.4649,-1.7191,-13.86,3.2478e-07,-0.85954,0,0,0.066667,-2.7632e-16,0,0.66667
0.13324,0.94588,1.9987,0.66881,197,2422.8,-3.5646,1.1882,-0.40331,-4.7528,1.7957e-08,-0.20165,0,0,0.066667,3.158e-16,0,0.66667
0.93972,0.9198,14.096,0.6297,21.979,19.786,-23.67,7.8899,-0.59287,-31.56,-1.3273e-05,-0.29644,0,0,0.066667,-0,-0,0.66667
0.0441,0.52136,0.6615,0.03204,9.5746,2822,-0.056518,0.018839,-1.9975,-0.075358,-2.4368e-07,-0.99876,0,0,0.066667,-0,-0,0.66667
0.40908,0.77445,6.1362,0.41167,102.67,1274.9,-6.7362,2.2454,-1.3988,-8.9817,9.1882e-13,-0.69938,0,0,0.066667,-0,-0,0.66667
0.84301,0.25814,12.645,-0.36279,-31.328,109.18,12.233,-4.0778,-1.5407,16.311,1.3103e-09,-0.77037,0,0,0.066667,-0,-0,0.66667
0.72623,0.86015,10.893,0.54022,76.439,313.72,-15.693,5.231,-0.95572,-20.924,3.2161e-12,-0.47786,0,0,0.066667,-8.6003e-16,0,0.66667
0.72093,0.58245,10.814,0.12367,17.748,323.87,-3.5663,1.1888,-1.9486,-4.7551,-3.1366e-12,-0.9743,0,0,0.066667,-0,-0,0.66667
0.27735,0.50647,4.1602,0.0097109,2.6835,1799.3,-0.10773,0.03591,-1.9982,-0.14364,-2.5288e-12,-0.99908,0,0,0.066667,-0,-0,0.66667
0.42121,0.15878,6.3182,-0.51183,-126.15,1229.7,8.6236,-2.8745,-1.0784,11.498,1.1632e-11,-0.53921,0,0,0.066667,-0,-0,0.66667
0.58955,0.098303,8.8432,-0.60255,-117.81,664.54,14.209,-4.7364,-0.70722,18.946,6.7599e-12,-0.35361,0,0,0.066667,-0,-0,0.66667
0.38914,0.70633,5.8371,0.30949,78.638,1350.5,-4.8174,1.6058,-1.6648,-6.4232,2.7067e-12,-0.83242,0,0,0.066667,-6.3159e-16,0,0.66667
0.50598,0.72314,7.5896,0.33472,74.551,928.29,-6.7743,2.2581,-1.5969,-9.0324,2.7915e-12,-0.79844,0,0,0.066667,-0,-0,0.66667
0.54035,0.21788,8.1052,-0.42318,-89.718,815.49,9.1466,-3.0489,-1.3586,12.195,5.3824e-12,-0.67931,0,0,0.066667,2.7632e-16,0,0.66667
0.82427,0.37278,12.364,-0.19082,-18.248,134.76,6.2916,-2.0972,-1.8698,8.3888,1.2624e-10,-0.93491,0,0,0.066667,1.579e-16,0,0.66667
0.72498,0.44651,10.875,-0.080231,-11.372,315.04,2.3266,-0.77554,-1.9715,3.1022,-2.28e-12,-0.98575,0,0,0.066667,-0,-0,0.66667
0.66049,0.41929,9.9073,-0.12107,-20.407,467.28,3.1985,-1.0662,-1.9451,4.2647,6.0296e-12,-0.97255,0,0,0.066667,-1.2632e-15,0,0.66667
0.035884,0.8363,0.53826,0.50445,150.98,2859.1,-0.72407,0.24135,-1.0921,-0.96542,-5.976e-06,-0.54604,0,0,0.066667,-0,-0,0.66667
0.15539,0.93296,2.3308,0.64944,190.03,2324.8,-4.0365,1.3455,-0.50904,-5.382,-7.9159e-08,-0.25452,0,0,0.066667,-0,-3.9216e-17,0.66667
0.88653,0.021107,13.298,-0.71834,-46.098,61.212,25.473,-8.491,-0.16297,33.964,-4.9499e-08,-0.081484,0,0,0.066667,-0,-0,0.66667
0.76576,0.83426,11.486,0.50138,62.053,233.9,-15.358,5.1192,-1.1175,-20.477,8.5615e-11,-0.55874,0,0,0.066667,-0,-0,0.66667
0.18038,0.79132,2.7058,0.43699,126.66,2214.7,-3.153,1.051,-1.3147,-4.204,9.9261e-10,-0.65737,0,0,0.066667,-0,-0,0.66667
0.065156,0.19595,0.97734,-0.45607,-136.07,2727.2,1.1886,-0.39621,-1.2621,1.5849,2.8967e-07,-0.63105,0,0,0.066667,-0,-0,0.66667
0.16273,0.59753,2.441,0.1463,42.645,2292,-0.9523,0.31743,-1.9187,-1.2697,1.7721e-10,-0.95937,0,0,0.066667,-0,-0,0.66667
0.83741,0.24947,12.561,-0.3758,-33.517,116.76,12.588,-4.1959,-1.4934,16.784,-2.7852e-10,-0.74672,0,0,0.066667,-1.6974e-15,0,0.66667
0.97311,0.56584,14.597,0.098756,1.5155,3.8599,-3.844,1.2813,-1.9633,-5.1254,-1.5636e-06,-0.98165,0,0,0.066667,-0,-0,0.66667
0.7551,0.55649,11.327,0.084735,10.877,253.09,-2.5593,0.85312,-1.9706,-3.4125,-1.3519e-11,-0.98532,0,0,0.066667,1.2632e-15,0,0.66667
0.7846,0.48547,11.769,-0.021795,-2.5007,198.37,0.68402,-0.22801,-1.9976,0.91203,2.73e-11,-0.9988,0,0,0.066667,-0,-0,0.66667
0.029384,0.80094,0.44077,0.45141,135.14,2888.5,-0.53058,0.17687,-1.2795,-0.70743,1.281e-05,-0.63977,0,0,0.066667,3.9475e-17,0,0.66667
0.87464,0.12655,13.12,-0.56018,-39.349,72.258,19.598,-6.5327,-0.89564,26.131,-1.0388e-07,-0.44782,0,0,0.066667,2.5264e-15,1.5074e-17,0.66667
0.68115,0.84575,10.217,0.51863,83.243,416.87,-14.131,4.7102,-1.0389,-18.841,9.4431e-12,-0.51945,0,0,0.066667,-2.5264e-15,0,0.66667
0.34905,0.69207,5.2357,0.2881,75.758,1507.1,-4.0225,1.3408,-1.701,-5.3633,-5.1092e-12,-0.85048,0,0,0.066667,-0,-0,0.66667
0.49958,0.18161,7.4937,-0.47759,-107.35,950.31,9.5438,-3.1813,-1.1994,12.725,1.5143e-11,-0.5997,0,0,0.066667,-3.158e-16,-2.8076e-18,0.66667
0.95006,0.90026,14.251,0.60039,17.416,14.382,-22.816,7.6054,-0.71906,-30.421,2.0193e-06,-0.35953,0,0,0.066667,-1.8948e-15,5.1573e-17,0.66667
0.054088,0.81076,0.81132,0.46613,139.26,2777,-1.0085,0.33616,-1.2222,-1.3446,7.1849e-07,-0.61111,0,0,0.066667,-1.0856e-16,0,0.66667
0.1917,0.65963,2.8755,0.23944,69.067,2165.2,-1.836,0.61201,-1.7944,-2.448,1.3456e-11,-0.89722,0,0,0.066667,-0,-0,0.66667
0.15015,0.93317,2.2523,0.64975,190.43,2347.9,-3.9024,1.3008,-0.49404,-5.2032,-1.0282e-07,-0.24702,0,0,0.066667,7.8949e-17,0,0.66667
0.53825,0.75052,8.0737,0.37578,79.909,822.11,-8.0904,2.6968,-1.4931,-10.787,2.0608e-11,-0.74653,0,0,0.066667,-1.2632e-15,0,0.66667
0.23563,0.25034,3.5344,-0.37449,-105.95,1975.8,3.5296,-1.1765,-1.5092,4.7061,-3.0259e-11,-0.75462,0,0,0.066667,-0,-0,0.66667
0.076734,0.46742,1.151,-0.048864,-14.545,2675,0.14998,-0.049994,-1.9986,0.19998,-1.1147e-08,-0.99932,0,0,0.066667,9.8686e-18,0,0.66667
0.515,0.90438,7.725,0.60657,133.58,898.96,-12.495,4.1651,-0.70198,-16.66,6.6303e-12,-0.35099,0,0,0.066667,2.3685e-16,0,0.66667
0.83625,0.84836,12.544,0.52254,46.978,119.07,-17.479,5.8263,-1.0234,-23.305,3.3918e-09,-0.51169,0,0,0.066667,2.5264e-15,0,0.66667
0.68195,0.55467,10.229,0.082006,13.113,413.74,-2.2369,0.74565,-1.9714,-2.9826,4.6523e-12,-0.98569,0,0,0.066667,6.3159e-16,0,0.66667
0.036724,0.025988,0.55086,-0.71102,-212.98,2855.4,1.0445,-0.34813,-0.19827,1.3926,3.6407e-05,-0.099134,0,0,0.066667,3.9475e-17,0,0.66667
0.04527,0.03859,0.67905,-0.69211,-207.15,2816.9,1.2533,-0.41773,-0.30213,1.6711,4.8098e-05,-0.15107,0,0,0.066667,-0,-5.6752e-17,0.66667
0.53809,0.072325,8.0713,-0.64151,-136.63,823.6,13.808,-4.6025,-0.5306,18.41,-5.9508e-13,-0.2653,0,0,0.066667,-0,-0,0.66667
0.14142,0.23022,2.1213,-0.40467,-118.81,2386.3,2.2891,-0.76303,-1.426,3.0521,4.799e-09,-0.71299,0,0,0.066667,-0,-0,0.66667
0.70723,0.11713,10.608,-0.5743,-85.976,355.84,16.247,-5.4155,-0.82516,21.662,-9.1802e-12,-0.41258,0,0,0.066667,-0,-0,0.66667
0.24745,0.18911,3.7117,-0.46633,-131.17,1925.6,4.6156,-1.5385,-1.2298,6.1542,6.6406e-11,-0.6149,0,0,0.066667,-0,-0,0.66667
0.43996,0.88505,6.5994,0.57758,139.6,1160.8,-10.164,3.3881,-0.81603,-13.553,5.2385e-12,-0.40801,0,0,0.066667,-1.2632e-15,0,0.66667
0.62029,0.35326,9.3044,-0.22011,-40.509,574.96,5.4613,-1.8204,-1.8242,7.2817,4.9556e-12,-0.91211,0,0,0.066667,-0,-0,0.66667
0.97274,0.2423,14.591,-0.38655,-6.0711,4.8622,15.04,-5.0135,-1.4669,20.054,1.0099e-05,-0.73344,0,0,0.066667,6.3159e-16,0,0.66667
0.19701,0.49506,2.9551,-0.0074058,-2.1312,2142,0.05836,-0.019453,-1.9948,0.077813,1.8014e-10,-0.9974,0,0,0.066667,-6.3159e-16,0,0.66667
0.91184,0.9253,13.678,0.63795,32.155,38.295,-23.268,7.7561,-0.54785,-31.024,-1.2259e-06,-0.27393,0,0,0.066667,-1.2632e-15,0,0.66667
0.35078,0.97482,5.2616,0.71223,187.34,1501.2,-9.9933,3.3311,-0.19052,-13.324,-2.567e-11,-0.095259,0,0,0.066667,-0,-0,0.66667
0.16192,0.63754,2.4289,0.2063,60.157,2295.6,-1.3362,0.44541,-1.8434,-1.7816,1.1337e-10,-0.92172,0,0,0.066667,-0,-0,0.66667
0.42086,0.34494,6.313,-0.23258,-57.294,1230.4,3.9155,-1.3052,-1.8163,5.2206,5.5418e-12,-0.90816,0,0,0.066667,-0,-0,0.66667
0.84148,0.0782,12.622,-0.6327,-55.301,112.72,21.296,-7.0987,-0.57922,28.395,-1.562e-08,-0.28961,0,0,0.066667,-0,-0,0.66667
0.043786,0.93575,0.65679,0.65362,195.62,2823.5,-1.1448,0.38156,-0.48234,-1.5264,-4.698e-05,-0.24117,0,0,0.066667,-1.1842e-16,-1.6974e-17,0.66667
0.13697,0.14018,2.0546,-0.53974,-158.73,2406.1,2.9571,-0.98571,-0.96273,3.9428,-4.336e-08,-0.48137,0,0,0.066667,-0,-0,0.66667
0.58994,0.33376,8.8491,-0.24936,-48.643,662.2,5.8842,-1.9614,-1.7773,7.8456,4.7509e-12,-0.88864,0,0,0.066667,-0,-0,0.66667
0.40858,0.96915,6.1287,0.70372,175.82,1277.6,-11.501,3.8337,-0.24318,-15.335,7.498e-12,-0.12159,0,0,0.066667,-0,-0,0.66667
0.47828,0.54932,7.1742,0.073976,17.074,1023,-1.4153,0.47175,-1.9748,-1.887,7.7066e-12,-0.9874,0,0,0.066667,6.3159e-16,0,0.66667
0.82205,0.36567,12.331,-0.20149,-19.49,138.04,6.6256,-2.2085,-1.8502,8.8341,6.9418e-11,-0.92508,0,0,0.066667,6.3159e-16,0,0.66667
0.16727,0.79239,2.5091,0.43858,127.73,2272.2,-2.9345,0.97817,-1.3126,-3.9127,-3.2515e-09,-0.65631,0,0,0.066667,-3.158e-16,0,0.66667
0.32202,0.70099,4.8303,0.30148,80.918,1615.6,-3.8833,1.2944,-1.6711,-5.1778,-5.2125e-12,-0.83553,0,0,0.066667,6.3159e-16,0,0.66667
0.20551,0.45933,3.0826,-0.061004,-17.493,2105.1,0.50148,-0.16716,-1.9892,0.66863,7.5273e-12,-0.9946,0,0,0.066667,-1.579e-16,0,0.66667
0.099323,0.71998,1.4898,0.32997,97.859,2573.7,-1.3109,0.43698,-1.6092,-1.7479,-6.2664e-08,-0.80458,0,0,0.066667,-3.158e-16,0,0.66667
0.52436,0.27671,7.8653,-0.33493,-72.697,867.16,7.025,-2.3417,-1.5956,9.3667,3.6433e-12,-0.79779,0,0,0.066667,9.4739e-16,0,0.66667
0.21257,0.6649,3.1886,0.24735,70.724,2074.7,-2.1032,0.70107,-1.7769,-2.8043,8.7346e-12,-0.88846,0,0,0.066667,-0,-0,0.66667
0.90438,0.51361,13.566,0.020417,1.1035,41.87,-0.73858,0.24619,-2.0025,-0.98478,-7.0073e-09,-1.0012,0,0,0.066667,2.5264e-15,0,0.66667
0.046031,0.22699,0.69046,-0.40952,-122.43,2813.3,0.75402,-0.25134,-1.412,1.0054,3.3677e-06,-0.70599,0,0,0.066667,-0,-0,0.66667
0.89727,0.77021,13.459,0.40531,23.531,49.026,-14.547,4.849,-1.4098,-19.396,5.5117e-08,-0.70489,0,0,0.066667,-1.2632e-15,0,0.66667
0.58773,0.0021656,8.816,-0.74675,-146.64,670.67,17.556,-5.8519,-0.012851,23.408,-4.7962e-13,-0.0064256,0,0,0.066667,-0,-0,0.66667
0.8616,0.33154,12.924,-0.25268,-19.401,85.53,8.7085,-2.9028,-1.7758,11.611,-1.8682e-09,-0.88788,0,0,0.066667,1.2632e-15,0,0.66667
0.02917,0.4359,0.43756,-0.096156,-28.767,2889.4,0.1122,-0.0374,-1.9717,0.1496,-1.2811e-06,-0.98584,0,0,0.066667,4.3181e-18,0,0.66667
0.33301,0.64438,4.9952,0.21657,57.65,1571.1,-2.8848,0.96161,-1.8292,-3.8464,3.0098e-12,-0.91461,0,0,0.066667,-3.158e-16,0,0.66667
0.50111,0.48759,7.5167,-0.018616,-4.1715,944.36,0.37314,-0.12438,-2.0056,0.49752,1.2297e-12,-1.0028,0,0,0.066667,-0,-0,0.66667
0.21711,0.23808,3.2567,-0.39288,-112.14,2055.2,3.4119,-1.1373,-1.456,4.5493,1.281e-10,-0.72802,0,0,0.066667,3.158e-16,0,0.66667
0.4226,0.50424,6.3389,0.0063536,1.562,1223.8,-0.1074,0.0358,-2.0092,-0.1432,-1.9165e-11,-1.0046,0,0,0.066667,-0,-0,0.66667
0.029533,0.25831,0.44299,-0.36254,-108.5,2887.8,0.42827,-0.14276,-1.5375,0.57102,-6.0997e-06,-0.76877,0,0,0.066667,-0,-0,0.66667
0.58718,0.57368,8.8078,0.11053,21.662,670.17,-2.596,0.86532,-1.9505,-3.4613,-8.2918e-12,-0.97525,0,0,0.066667,1.2632e-15,0,0.66667
0.92973,0.69916,13.946,0.29873,12.005,23.744,-11.11,3.7032,-1.6761,-14.813,4.1907e-07,-0.83807,0,0,0.066667,-0,-0,0.66667
0.075808,0.19848,1.1371,-0.45228,-134.74,2679.3,1.3715,-0.45715,-1.2752,1.8286,1.8042e-07,-0.63761,0,0,0.066667,-0,-0,0.66667
0.84182,0.40509,12.627,-0.14237,-12.363,110.13,4.7939,-1.598,-1.9331,6.3919,-7.9079e-11,-0.96656,0,0,0.066667,-1.8158e-15,0,0.66667
0.74778,0.026843,11.217,-0.70973,-93.817,270.07,21.229,-7.0763,-0.21257,28.305,3.8277e-11,-0.10629,0,0,0.066667,-6.3159e-16,0,0.66667
0.22999,0.47214,3.4498,-0.041792,-11.85,1999.7,0.38446,-0.12815,-1.9917,0.51261,9.5195e-12,-0.99584,0,0,0.066667,-0,-0,0.66667
0.51812,0.92372,7.7718,0.63557,139.38,888.73,-13.172,4.3907,-0.56556,-17.563,-6.4322e-12,-0.28278,0,0,0.066667,6.3159e-16,0,0.66667
0.31376,0.18887,4.7064,-0.4667,-126.06,1649.5,5.8572,-1.9524,-1.2332,7.8096,2.39e-11,-0.61661,0,0,0.066667,1.2632e-15,0,0.66667
0.61579,0.20308,9.2368,-0.44539,-82.782,588.19,10.971,-3.6568,-1.2886,14.627,7.1854e-13,-0.6443,0,0,0.066667,1.2632e-15,0,0.66667
0.21317,0.967,3.1976,0.7005,200.55,2072.7,-5.9731,1.991,-0.25147,-7.9641,1.6812e-09,-0.12573,0,0,0.066667,3.158e-16,0,0.66667
0.43589,0.61309,6.5383,0.16964,41.128,1174.8,-2.9577,0.9859,-1.9026,-3.9436,-1.5943e-13,-0.95132,0,0,0.066667,-0,-0,0.66667
0.78908,0.60201,11.836,0.15301,17.236,190.73,-4.8294,1.6098,-1.9105,-6.4393,-7.2906e-12,-0.95523,0,0,0.066667,-0,-0,0.66667
0.46647,0.89657,6.997,0.59486,139.5,1065.6,-11.099,3.6998,-0.7446,-14.799,1.4682e-11,-0.3723,0,0,0.066667,-0,-0,0.66667
0.67355,0.026473,10.103,-0.71029,-116.37,436.57,19.137,-6.3789,-0.21161,25.516,5.9579e-12,-0.10581,0,0,0.066667,-1.2632e-15,0,0.66667
0.88484,0.41989,13.273,-0.12016,-7.7563,59.923,4.2528,-1.4176,-1.9432,5.6704,-1.0732e-09,-0.97162,0,0,0.066667,1.2632e-15,0,0.66667
0.93814,0.55829,14.072,0.08743,3.0944,18.228,-3.2808,1.0936,-1.9825,-4.3745,1.318e-07,-0.99125,0,0,0.066667,1.2632e-15,0,0.66667
0.98474,0.47971,14.771,-0.03044,-0.25889,1.3732,1.199,-0.39967,-2.0068,1.5987,-9.7408e-07,-1.0034,0,0,0.066667,-0,-0,0.66667
0.88356,0.40096,13.253,-0.14857,-9.6921,61.251,5.2507,-1.7502,-1.9158,7.0009,-1.1546e-09,-0.95788,0,0,0.066667,1.2632e-15,0,0.66667
0.24358,0.51227,3.6537,0.018398,5.1811,1941.6,-0.17925,0.05975,-1.9928,-0.239,1.94e-11,-0.99639,0,0,0.066667,-0,-0,0.66667
0.4083,0.74213,6.1246,0.36319,90.63,1277.7,-5.9317,1.9772,-1.5347,-7.9089,3.2405e-12,-0.76735,0,0,0.066667,-3.158e-16,0,0.66667
0.37481,0.2551,5.6221,-0.36736,-94.562,1406,5.5075,-1.8358,-1.5317,7.3433,7.3461e-12,-0.76584,0,0,0.066667,-1.2632e-15,0,0.66667
0.15223,0.80743,2.2834,0.46115,134.97,2338.5,-2.808,0.936,-1.2423,-3.744,8.2056e-09,-0.62115,0,0,0.066667,-2.3685e-16,0,0.66667
0.070456,0.32084,1.0568,-0.26874,-80.086,2703.3,0.75738,-0.25246,-1.7369,1.0098,3.9186e-07,-0.86846,0,0,0.066667,-1.579e-16,0,0.66667
0.29574,0.65293,4.4362,0.2294,62.679,1723,-2.7137,0.90457,-1.8207,-3.6183,1.9765e-11,-0.91034,0,0,0.066667,4.737e-16,0,0.66667
0.85996,0.73063,12.899,0.34595,26.873,87.79,-11.9,3.9667,-1.5836,-15.867,4.5851e-09,-0.79178,0,0,0.066667,1.2632e-15,0,0.66667
0.038983,0.89515,0.58475,0.59272,177.42,2845.2,-0.92425,0.30806,-0.74436,-1.2323,-2.8477e-05,-0.37218,0,0,0.066667,-0,-0,0.66667
0.21547,0.85315,3.232,0.52972,151.38,2062.5,-4.5655,1.5218,-1.002,-6.0873,7.5995e-10,-0.50102,0,0,0.066667,-0,-0,0.66667
0.34655,0.42606,5.1982,-0.11091,-29.215,1516.9,1.5375,-0.5125,-1.9573,2.05,1.8955e-11,-0.97863,0,0,0.066667,3.158e-16,0,0.66667
0.64816,0.53466,9.7224,0.051989,9.0142,499.22,-1.3479,0.4493,-1.9848,-1.7972,-1.0309e-11,-0.99239,0,0,0.066667,2.5264e-15,0,0.66667
0.56317,0.93398,8.4475,0.65097,133.26,744.54,-14.664,4.8881,-0.50294,-19.552,1.0478e-11,-0.25147,0,0,0.066667,-9.4739e-16,0,0.66667
0.79618,0.04826,11.943,-0.67761,-74.348,181,21.58,-7.1934,-0.376,28.773,2.4869e-09,-0.188,0,0,0.066667,-2.2061e-15,0,0.66667
0.68696,0.38658,10.304,-0.17013,-26.859,401.73,4.6751,-1.5584,-1.9064,6.2334,-1.3465e-12,-0.9532,0,0,0.066667,1.2632e-15,0,0.66667
0.8895,0.80695,13.343,0.46043,28.671,56.524,-16.382,5.4607,-1.2537,-21.843,-2.3537e-08,-0.62686,0,0,0.066667,-6.3159e-16,0,0.66667
0.4869,0.91927,7.3035,0.6289,143.83,994.27,-12.249,4.0829,-0.59546,-16.331,-7.7964e-12,-0.29773,0,0,0.066667,-0,-0,0.66667
0.53592,0.51386,8.0388,0.020796,4.4348,829.1,-0.4458,0.1486,-1.9948,-0.59439,-2.4072e-12,-0.99739,0,0,0.066667,-0,-0,0.66667
0.83765,0.31094,12.565,-0.28359,-25.241,116.09,9.5018,-3.1673,-1.7096,12.669,2.8108e-10,-0.85482,0,0,0.066667,1.8948e-15,0,0.66667
0.0056932,0.87851,0.085398,0.56777,170.18,2995.5,-0.12928,0.043074,-0.84959,-0.17238,-2.8547e-05,-0.4248,0,0,0.066667,-1.9737e-17,0,0.66667
0.24257,0.67887,3.6386,0.2683,75.617,1946,-2.6033,0.86776,-1.7378,-3.471,2.4476e-11,-0.86888,0,0,0.066667,-0,-0,0.66667
0.22151,0.22852,3.3226,-0.40722,-116.01,2036.3,3.6081,-1.2027,-1.4116,4.8108,3.317e-11,-0.70581,0,0,0.066667,-0,-0,0.66667
0.56155,0.60838,8.4232,0.16258,33.303,748.07,-3.6518,1.2173,-1.9135,-4.869,-9.2992e-13,-0.95673,0,0,0.066667,-0,-0,0.66667
0.71761,0.1372,10.764,-0.54421,-79.037,332.48,15.621,-5.2071,-0.95376,20.828,1.9558e-12,-0.47688,0,0,0.066667,-0,-0,0.66667
0.2525,0.85647,3.7874,0.5347,150.03,1904.3,-5.4004,1.8001,-0.98532,-7.2005,4.1038e-11,-0.49266,0,0,0.066667,-0,-0,0.66667
0.50602,0.12309,7.5903,-0.56537,-126.04,928.83,11.443,-3.8145,-0.85911,15.258,8.4945e-12,-0.42956,0,0,0.066667,-7.1054e-16,0,0.66667
0.73927,0.39609,11.089,-0.15586,-21.117,284.98,4.6089,-1.5363,-1.9097,6.1451,-3.1108e-12,-0.95486,0,0,0.066667,-6.3159e-16,0,0.66667
0.7223,0.39672,10.835,-0.15492,-22.142,320.92,4.476,-1.492,-1.9137,5.968,-6.7635e-13,-0.95685,0,0,0.066667,-0,-0,0.66667
0.46831,0.78613,7.0247,0.4292,100.35,1058.5,-8.04,2.68,-1.3555,-10.72,8.3267e-12,-0.67774,0,0,0.066667,-0,-0,0.66667
0.70619,0.12307,10.593,-0.56539,-84.885,358.15,15.971,-5.3237,-0.8648,21.295,5.5973e-12,-0.4324,0,0,0.066667,-0,-0,0.66667
0.55907,0.17539,8.386,-0.48691,-100.25,756.56,10.889,-3.6296,-1.1562,14.518,1.0202e-11,-0.5781,0,0,0.066667,6.3159e-16,0,0.66667
0.078411,0.80388,1.1762,0.45581,135.74,2667.6,-1.4296,0.47654,-1.2719,-1.9062,2.2911e-08,-0.63597,0,0,0.066667,-7.8949e-17,0,0.66667
0.9528,0.75248,14.292,0.37871,10.307,11.78,-14.434,4.8112,-1.5014,-19.245,1.9028e-06,-0.75071,0,0,0.066667,-2.5264e-15,0,0.66667
0.97565,0.51169,14.635,0.017535,0.2428,3.1648,-0.68434,0.22811,-1.9926,-0.91246,-1.8404e-06,-0.99629,0,0,0.066667,-0,-0,0.66667
0.16201,0.17765,2.4302,-0.48352,-141.08,2295.4,3.1335,-1.0445,-1.1636,4.178,2.59e-09,-0.58178,0,0,0.066667,-0,-0,0.66667
0.41783,0.48323,6.2674,-0.025161,-6.2158,1241.6,0.42052,-0.14017,-1.9953,0.56069,1.2338e-11,-0.99767,0,0,0.066667,-0,-0,0.66667
0.61959,0.84469,9.2939,0.51704,95.407,577.81,-12.814,4.2714,-1.0461,-17.086,1.6762e-11,-0.52303,0,0,0.066667,-0,-0,0.66667
0.56812,0.55051,8.5218,0.075765,15.35,727.71,-1.7218,0.57392,-1.9745,-2.2957,6.2013e-12,-0.98723,0,0,0.066667,-0,-0,0.66667
0.37473,0.2973,5.621,-0.30405,-78.258,1406.2,4.5575,-1.5192,-1.6817,6.0767,1.19e-11,-0.84085,0,0,0.066667,1.8782e-16,0,0.66667
0.90355,0.70891,13.553,0.31336,17.108,43.153,-11.325,3.7752,-1.6523,-15.101,4.5487e-08,-0.82614,0,0,0.066667,-0,-0,0.66667
0.67718,0.81142,10.158,0.46713,75.708,426.34,-12.653,4.2177,-1.2208,-16.871,-2.2551e-12,-0.61042,0,0,0.066667,-0,-0,0.66667
0.11263,0.37792,1.6894,-0.18312,-54.137,2514.2,0.82497,-0.27499,-1.8815,1.1,5.9544e-09,-0.94073,0,0,0.066667,-3.158e-16,0,0.66667
0.66956,0.74831,10.043,0.37246,61.48,444.87,-9.9754,3.3251,-1.5105,-13.301,-1.7941e-12,-0.75526,0,0,0.066667,-1.579e-16,0,0.66667
0.21799,0.38985,3.2699,-0.16522,-47.12,2051.2,1.4407,-0.48023,-1.9112,1.9209,-1.367e-11,-0.9556,0,0,0.066667,-0,-0,0.66667
0.086095,0.94362,1.2914,0.66542,198.06,2633.2,-2.2916,0.76386,-0.41961,-3.0554,2.2665e-06,-0.2098,0,0,0.066667,-0,-0,0.66667
0.35993,0.23136,5.399,-0.40295,-105.06,1464.2,5.8014,-1.9338,-1.4319,7.7352,1.8812e-12,-0.71593,0,0,0.066667,-0,-0,0.66667
0.049607,0.068751,0.74411,-0.64687,-193.49,2797.3,1.2836,-0.42786,-0.51385,1.7114,4.1902e-06,-0.25692,0,0,0.066667,-0,-0,0.66667
0.14662,0.22325,2.1992,-0.41512,-121.69,2363.3,2.4345,-0.81151,-1.3825,3.246,-4.345e-09,-0.69124,0,0,0.066667,-3.158e-16,0,0.66667
0.45307,0.36716,6.796,-0.19926,-47.399,1112.4,3.6111,-1.2037,-1.8706,4.8147,2.9448e-12,-0.93531,0,0,0.066667,-0,-0,0.66667
0.9832,0.067792,14.748,-0.64831,-6.3834,4.3747,25.497,-8.499,-0.51273,33.996,-2.3643e-05,-0.25637,0,0,0.066667,2.5264e-15,-4.4422e-17,0.66667
0.84187,0.3386,12.628,-0.2421,-21.027,110.28,8.1525,-2.7175,-1.7963,10.87,2.8373e-11,-0.89813,0,0,0.066667,1.2632e-15,0,0.66667
0.013205,0.20892,0.19807,-0.43663,-130.8,2961.6,0.23062,-0.076864,-1.3244,0.30749,1.2638e-05,-0.66221,0,0,0.066667,-1.9737e-17,0,0.66667
0.86889,0.16389,13.033,-0.50417,-36.899,78.227,17.523,-5.8409,-1.0909,23.364,-2.74e-09,-0.54544,0,0,0.066667,-0,-0,0.66667
0.28341,0.57191,4.2512,0.10787,29.699,1774,-1.2228,0.40761,-1.9618,-1.6305,3.0929e-11,-0.9809,0,0,0.066667,-0,-0,0.66667
0.19764,0.32075,2.9646,-0.26888,-77.376,2139.4,2.1256,-0.70854,-1.7383,2.8342,-1.1814e-10,-0.86914,0,0,0.066667,-0,-0,0.66667
0.30963,0.38352,4.6445,-0.17472,-47.294,1665.9,2.164,-0.72132,-1.8925,2.8853,2.5004e-11,-0.94624,0,0,0.066667,-0,-0,0.66667
0.52923,0.1359,7.9385,-0.54615,-117.8,851.85,11.562,-3.8539,-0.943,15.416,1.314e-11,-0.4715,0,0,0.066667,-0,-0,0.66667
0.48269,0.68024,7.2403,0.27037,62.075,1007.8,-5.2201,1.74,-1.7452,-6.9601,8.0869e-13,-0.87258,0,0,0.066667,3.158e-16,0,0.66667
0.62987,0.90466,9.4481,0.60699,109.73,549.83,-15.293,5.0977,-0.6873,-20.391,6.9793e-12,-0.34365,0,0,0.066667,-1.579e-15,0,0.66667
0.16677,0.89205,2.5016,0.58808,171.39,2274.6,-3.923,1.3077,-0.76589,-5.2307,1.1645e-08,-0.38294,0,0,0.066667,-3.158e-16,0,0.66667
0.3743,0.98364,5.6144,0.72546,187.12,1408.9,-10.861,3.6205,-0.13723,-14.482,-5.2731e-12,-0.068614,0,0,0.066667,-6.3159e-16,-7.8774e-17,0.66667
0.58249,0.14137,8.7373,-0.53794,-106.47,685.25,12.534,-4.1779,-0.96799,16.712,1.0536e-11,-0.484,0,0,0.066667,-1.2632e-15,0,0.66667
0.81078,0.18814,12.162,-0.4678,-47.918,156.16,15.171,-5.0571,-1.228,20.228,6.1091e-10,-0.61398,0,0,0.066667,-0,-0,0.66667
0.36845,0.57641,5.5267,0.11461,29.651,1430.5,-1.6892,0.56306,-1.9471,-2.2522,1.4944e-11,-0.97356,0,0,0.066667,-0,-0,0.66667
0.83938,0.49715,12.591,-0.0042777,-0.37663,113.29,0.14362,-0.047875,-1.998,0.1915,-1.4806e-10,-0.99898,0,0,0.066667,6.3159e-16,0,0.66667
0.41681,0.062978,6.2521,-0.65553,-162.4,1246.6,10.929,-3.6431,-0.46929,14.572,1.3327e-11,-0.23464,0,0,0.066667,-1.2632e-15,0,0.66667
0.94249,0.79262,14.137,0.43893,14.542,17.031,-16.548,5.5159,-1.3108,-22.063,-7.6243e-07,-0.65541,0,0,0.066667,-2.5264e-15,0,0.66667
0.29636,0.61458,4.4454,0.17187,46.937,1720.4,-2.0374,0.67914,-1.9045,-2.7166,2.9704e-11,-0.95224,0,0,0.066667,-0,-0,0.66667
0.3686,0.15679,5.529,-0.51481,-133.3,1430.5,7.5905,-2.5302,-1.0532,10.121,2.4332e-11,-0.52659,0,0,0.066667,-0,-0,0.66667
0.65273,0.37856,9.791,-0.18216,-31.265,487.39,4.7561,-1.5854,-1.8819,6.3415,1.3616e-12,-0.94094,0,0,0.066667,-0,-0,0.66667
0.58342,0.50998,8.7512,0.014963,2.9523,681.35,-0.34919,0.1164,-1.9947,-0.46558,5.4802e-12,-0.99733,0,0,0.066667,-0,-0,0.66667
0.35417,0.54389,5.3125,0.065832,17.234,1486.6,-0.93263,0.31088,-1.98,-1.2435,4.6835e-12,-0.99001,0,0,0.066667,-0,-0,0.66667
0.48431,0.090671,7.2646,-0.61399,-140.88,1003.2,11.894,-3.9648,-0.67202,15.859,-3.1513e-12,-0.33601,0,0,0.066667,-9.4739e-16,0,0.66667
0.66432,0.93303,9.9648,0.64955,108.77,459.33,-17.26,5.7534,-0.49408,-23.014,3.7552e-12,-0.24704,0,0,0.066667,-6.3159e-16,0,0.66667
0.05634,0.4518,0.8451,-0.072304,-21.581,2766.8,0.16294,-0.054314,-1.9756,0.21726,1.5943e-07,-0.98779,0,0,0.066667,-7.8949e-17,0,0.66667
0.6064,0.11304,9.096,-0.58043,-109.96,615.4,14.079,-4.693,-0.80257,18.772,3.6087e-12,-0.40128,0,0,0.066667,-0,-0,0.66667
0.74678,0.32404,11.202,-0.26394,-34.889,269.91,7.8843,-2.6281,-1.7521,10.512,1.4788e-12,-0.87604,0,0,0.066667,-1.2632e-15,0,0.66667
0.79397,0.52707,11.91,0.040601,4.4783,182.28,-1.2894,0.42981,-1.9956,-1.7192,-2.0169e-11,-0.9978,0,0,0.066667,2.835e-15,0,0.66667
0.21378,0.15008,3.2068,-0.52488,-150.11,2069.7,4.4884,-1.4961,-1.0168,5.9845,-7.8536e-10,-0.50842,0,0,0.066667,-1.579e-16,0,0.66667
0.64111,0.51463,9.6166,0.02194,3.8639,517.91,-0.56263,0.18754,-2.0078,-0.75017,-4.9567e-12,-1.0039,0,0,0.066667,2.5264e-15,0,0.66667
0.73113,0.92557,10.967,0.63836,89.033,303.84,-18.669,6.223,-0.55081,-24.892,2.5668e-12,-0.2754,0,0,0.066667,-0,-0,0.66667
0.095062,0.31706,1.4259,-0.27441,-81.442,2592.8,1.0435,-0.34782,-1.7391,1.3913,3.1496e-08,-0.86956,0,0,0.066667,-0,-0,0.66667
0.070073,0.1833,1.0511,-0.47505,-141.65,2705.1,1.3315,-0.44384,-1.1919,1.7754,4.1318e-07,-0.59593,0,0,0.066667,-3.9475e-17,0,0.66667
0.88595,0.6207,13.289,0.18105,11.583,58.92,-6.4162,2.1387,-1.8806,-8.5549,2.9277e-09,-0.94032,0,0,0.066667,1.8948e-15,0,0.66667
0.36132,0.91635,5.4199,0.62453,162.79,1459.3,-9.0263,3.0088,-0.61705,-12.035,8.57e-12,-0.30853,0,0,0.066667,-0,-0,0.66667
0.70343,0.4219,10.551,-0.11715,-17.688,363.03,3.2963,-1.0988,-1.9614,4.3951,5.4023e-12,-0.98071,0,0,0.066667,-1.2632e-15,0,0.66667
0.56015,0.76839,8.4022,0.40258,82.712,752.92,-9.0202,3.0067,-1.4261,-12.027,-3.6087e-12,-0.71303,0,0,0.066667,-0,-0,0.66667
0.33775,0.58366,5.0662,0.12549,33.282,1552,-1.6954,0.56513,-1.9385,-2.2605,6.2589e-12,-0.96926,0,0,0.066667,3.158e-16,0,0.66667
0.34565,0.51714,5.1848,0.025704,6.7749,1520.4,-0.35539,0.11846,-2.0015,-0.47385,1.458e-11,-1.0007,0,0,0.066667,-0,-0,0.66667
0.90546,0.4408,13.582,-0.088801,-4.7478,41.007,3.2162,-1.0721,-1.9812,4.2883,-9.9311e-09,-0.99058,0,0,0.066667,-0,-0,0.66667
0.45348,0.48383,6.8022,-0.024261,-5.7673,1110.8,0.44007,-0.14669,-2.0079,0.58676,9.7722e-12,-1.004,0,0,0.066667,-0,-0,0.66667
0.48253,0.11957,7.2379,-0.57064,-131.19,1009.2,11.014,-3.6714,-0.84693,14.685,4.7855e-12,-0.42347,0,0,0.066667,3.158e-16,-9.923e-17,0.66667
0.97915,0.53962,14.687,0.059437,0.70145,2.4096,-2.3279,0.77596,-1.9831,-3.1039,-6.2634e-07,-0.99157,0,0,0.066667,-0,-0,0.66667
0.41169,0.62297,6.1753,0.18445,45.855,1264.7,-3.0374,1.0125,-1.8753,-4.0499,1.6211e-12,-0.93767,0,0,0.066667,6.3159e-16,0,0.66667
0.36945,0.28011,5.5417,-0.32984,-85.291,1426.8,4.8743,-1.6248,-1.6095,6.4991,-1.5188e-13,-0.80475,0,0,0.066667,-9.0792e-16,0,0.66667
0.079963,0.4915,1.1994,-0.012749,-3.7928,2660.5,0.040777,-0.013592,-2.0038,0.05437,5.2628e-08,-1.0019,0,0,0.066667,7.8949e-17,0,0.66667
0.38778,0.74477,5.8167,0.36715,93.419,1355.8,-5.695,1.8983,-1.5222,-7.5933,-9.8241e-12,-0.7611,0,0,0.066667,3.158e-16,0,0.66667
0.17793,0.79104,2.669,0.43657,126.65,2225.5,-3.1072,1.0357,-1.3168,-4.1429,5.9451e-10,-0.65842,0,0,0.066667,-0,-0,0.66667
0.13134,0.73756,1.9701,0.35634,104.9,2430.9,-1.8721,0.62403,-1.5426,-2.4961,-7.3052e-09,-0.77129,0,0,0.066667,-0,-0,0.66667
0.36767,0.8591,5.5151,0.53865,139.6,1434.2,-7.9218,2.6406,-0.96179,-10.562,1.3018e-11,-0.4809,0,0,0.066667,-0,-0,0.66667
0.15881,0.21267,2.3822,-0.431,-125.87,2309.4,2.7379,-0.91263,-1.3418,3.6505,-1.3344e-09,-0.67088,0,0,0.066667,-0,-0,0.66667
0.30756,0.79601,4.6135,0.44401,120.44,1674.7,-5.4625,1.8208,-1.2948,-7.2833,6.7062e-12,-0.64742,0,0,0.066667,-0,-0,0.66667
0.68798,0.24931,10.32,-0.37603,-59.251,399.82,10.348,-3.4494,-1.5083,13.798,4.9027e-13,-0.75413,0,0,0.066667,1.4606e-15,0,0.66667
0.83844,0.54326,12.577,0.064885,5.7441,114.59,-2.1761,0.72537,-1.9803,-2.9015,-1.4348e-10,-0.99016,0,0,0.066667,-1.2632e-15,0,0.66667
0.30482,0.83603,4.5723,0.50405,137,1686.1,-6.1458,2.0486,-1.0904,-8.1944,-4.9019e-12,-0.54522,0,0,0.066667,-0,-0,0.66667
0.3531,0.206,5.2965,-0.441,-115.64,1491.3,6.2287,-2.0762,-1.3026,8.3049,7.9843e-12,-0.6513,0,0,0.066667,2.1344e-16,0,0.66667
0.73064,0.65868,10.96,0.23802,33.162,303.18,-6.9564,2.3188,-1.7981,-9.2752,2.2324e-12,-0.89905,0,0,0.066667,-0,-0,0.66667
0.77783,0.81568,11.667,0.47352,55.943,211.55,-14.733,4.9109,-1.203,-19.644,-2.7115e-11,-0.60148,0,0,0.066667,-0,-0,0.66667
0.17703,0.72441,2.6555,0.33662,97.663,2229.3,-2.3837,0.79455,-1.5933,-3.1782,-4.9733e-11,-0.79663,0,0,0.066667,-0,-0,0.66667
0.40176,0.086231,6.0263,-0.62065,-156.03,1303.1,9.9741,-3.3247,-0.62746,13.299,9.19e-12,-0.31373,0,0,0.066667,3.158e-16,0,0.66667
0.0029414,0.092431,0.044122,-0.61135,-183.28,3008,0.071928,-0.024016,-0.6731,0.095884,-5.9653e-05,-0.33655,0,0,0.066667,5.5511e-18,0,0.66667
0.4006,0.34493,6.009,-0.2326,-58.459,1306.6,3.7272,-1.2424,-1.8038,4.9696,-5.5269e-12,-0.90191,0,0,0.066667,-0,-0,0.66667
0.8932,0.77894,13.398,0.4184,25.211,52.81,-14.949,4.9829,-1.3803,-19.932,2.8558e-08,-0.69017,0,0,0.066667,-1.7369e-15,0,0.66667
0.057463,0.40294,0.86195,-0.14558,-43.449,2761.7,0.33463,-0.11154,-1.9213,0.44617,2.1933e-07,-0.96067,0,0,0.066667,1.9737e-17,0,0.66667
0.38963,0.068362,5.8444,-0.64746,-164.65,1349.4,10.091,-3.3636,-0.51745,13.454,-5.9419e-13,-0.25872,0,0,0.066667,-0,-0,0.66667
0.26534,0.7912,3.9802,0.4368,121.65,1849.9,-4.6361,1.5454,-1.3322,-6.1815,6.1962e-11,-0.66609,0,0,0.066667,-0,-0,0.66667
0.036777,0.4591,0.55165,-0.061354,-18.346,2855,0.090255,-0.030085,-1.9818,0.12034,-1.3888e-07,-0.99088,0,0,0.066667,-0,-0,0.66667
0.4005,0.90449,6.0076,0.60674,152.7,1307.8,-9.72,3.24,-0.68704,-12.96,1.9897e-11,-0.34352,0,0,0.066667,-0,-0,0.66667
0.23781,0.74657,3.5671,0.36985,104.52,1966.4,-3.5182,1.1727,-1.5137,-4.6909,3.1952e-12,-0.75687,0,0,0.066667,3.9475e-16,0,0.66667
0.83097,0.80227,12.465,0.45341,41.929,126.06,-15.071,5.0236,-1.27,-20.094,3.5238e-09,-0.635,0,0,0.066667,1.2632e-15,0,0.66667
0.64363,0.54294,9.6544,0.064415,11.282,511.21,-1.6584,0.55279,-1.9856,-2.2111,-5.1803e-12,-0.99281,0,0,0.066667,1.2632e-15,0,0.66667
0.47657,0.7714,7.1485,0.40711,94.226,1029.4,-7.7606,2.5869,-1.4043,-10.347,1.5961e-12,-0.70214,0,0,0.066667,6.3159e-16,0,0.66667
0.70881,0.93015,10.632,0.64523,96.22,352.69,-18.294,6.0979,-0.51492,-24.392,-1.6636e-11,-0.25746,0,0,0.066667,6.3159e-16,0,0.66667
0.099384,0.78849,1.4908,0.43273,128.37,2573.5,-1.7203,0.57342,-1.3294,-2.2937,-5.4009e-08,-0.66472,0,0,0.066667,-0,-0,0.66667
0.75698,0.54939,11.355,0.074088,9.4475,249.43,-2.2433,0.74777,-1.9741,-2.9911,-9.8304e-12,-0.98703,0,0,0.066667,1.2632e-15,0,0.66667
0.29859,0.16286,4.4789,-0.50571,-138.03,1711.7,6.0401,-2.0134,-1.0957,8.0534,1.3909e-12,-0.54786,0,0,0.066667,6.3159e-16,0,0.66667
0.50277,0.54955,7.5416,0.074328,16.619,938.74,-1.4948,0.49827,-1.9814,-1.9931,-7.6414e-12,-0.99068,0,0,0.066667,-0,-0,0.66667
0.094178,0.89047,1.4127,0.58571,174.02,2596.9,-2.2064,0.73548,-0.78992,-2.9419,-2.0926e-07,-0.39496,0,0,0.066667,-1.579e-16,0,0.66667
0.81456,0.35541,12.218,-0.21688,-21.778,149.38,7.0666,-2.3555,-1.8361,9.4221,-6.0637e-11,-0.91807,0,0,0.066667,-0,-0,0.66667
0.51047,0.15369,7.657,-0.51947,-115.07,913.74,10.607,-3.5356,-1.0372,14.142,1.1246e-11,-0.51859,0,0,0.066667,-6.3159e-16,0,0.66667
0.44197,0.071251,6.6296,-0.64312,-155.15,1153.7,11.37,-3.7899,-0.5264,15.16,-2.3999e-12,-0.2632,0,0,0.066667,-0,-0,0.66667
0.13489,0.0659,2.0234,-0.65115,-191.7,2415.4,3.5134,-1.1711,-0.48812,4.6845,-1.7799e-07,-0.24406,0,0,0.066667,-3.158e-16,0,0.66667
0.63488,0.46804,9.5231,-0.047942,-8.5575,534.67,1.2175,-0.40583,-1.988,1.6233,7.8542e-12,-0.99399,0,0,0.066667,1.5e-15,0,0.66667
0.35231,0.22836,5.2846,-0.40745,-106.9,1494.4,5.742,-1.914,-1.4035,7.656,1.7633e-11,-0.70173,0,0,0.066667,-0,-0,0.66667
0.68271,0.11074,10.241,-0.5839,-93.39,413.41,15.945,-5.3151,-0.78386,21.26,1.3263e-11,-0.39193,0,0,0.066667,-8.0849e-16,0,0.66667
0.76246,0.28724,11.437,-0.31915,-39.932,239.38,9.7334,-3.2445,-1.6383,12.978,5.0298e-12,-0.81915,0,0,0.066667,-0,-0,0.66667
0.0067478,0.4084,0.10122,-0.1374,-41.141,2990.7,0.037086,-0.012361,-1.9278,0.049449,1.4501e-06,-0.9639,0,0,0.066667,-0,-0,0.66667
0.25906,0.70363,3.8859,0.30544,85.334,1876.2,-3.1651,1.055,-1.6621,-4.2201,1.3064e-11,-0.83104,0,0,0.066667,-0,-0,0.66667
0.67791,0.25964,10.169,-0.36053,-58.291,424.14,9.7764,-3.2588,-1.5324,13.035,8.2023e-12,-0.76618,0,0,0.066667,-0,-0,0.66667
0.3361,0.91638,5.0415,0.62456,166.09,1559.5,-8.3966,2.7989,-0.6066,-11.195,4.9285e-12,-0.3033,0,0,0.066667,-0,-0,0.66667
0.75013,0.95869,11.252,0.68803,90.202,265.24,-20.644,6.8815,-0.32811,-27.526,1.0082e-10,-0.16406,0,0,0.066667,6.3159e-16,0,0.66667
0.55698,0.90543,8.3547,0.60815,125.72,763.57,-13.549,4.5163,-0.68143,-18.065,-9.992e-12,-0.34071,0,0,0.066667,5.9212e-16,0,0.66667
0.85824,0.25463,12.874,-0.36806,-28.923,89.945,12.635,-4.2118,-1.5259,16.847,-2.9979e-09,-0.76295,0,0,0.066667,-2.5264e-15,0,0.66667
0.57058,0.99432,8.5587,0.74148,150.01,722.24,-16.923,5.641,-0.039218,-22.564,6.2812e-12,-0.019609,0,0,0.066667,9.4739e-16,0,0.66667
0.8894,0.98808,13.341,0.73211,45.876,58.545,-26.046,8.6819,-0.10069,-34.728,2.7184e-07,-0.050345,0,0,0.066667,-0,-0,0.66667
0.22748,0.53957,3.4122,0.05935,16.849,2010.4,-0.54003,0.18001,-1.9814,-0.72004,-6.9666e-14,-0.99071,0,0,0.066667,-0,-0,0.66667
0.79398,0.89735,11.91,0.59602,65.958,184.14,-18.929,6.3097,-0.73781,-25.239,-8.6684e-11,-0.36891,0,0,0.066667,6.3159e-16,-4.0376e-17,0.66667
0.033947,0.88993,0.5092,0.58489,175.13,2867.9,-0.79422,0.26474,-0.78487,-1.059,-3.4665e-07,-0.39243,0,0,0.066667,-0,-0,0.66667
0.077267,0.75948,1.159,0.38922,115.9,2672.7,-1.203,0.40099,-1.4695,-1.6039,-1.5707e-07,-0.73473,0,0,0.066667,-0,-0,0.66667
0.3959,0.79709,5.9385,0.44563,112.57,1324.9,-7.057,2.3523,-1.2892,-9.4094,5.9091e-12,-0.64459,0,0,0.066667,-0,-0,0.66667
0.18577,0.71553,2.7865,0.3233,93.489,2191.1,-2.4023,0.80078,-1.6339,-3.2031,-2.4977e-10,-0.81693,0,0,0.066667,-4.187e-16,0,0.66667
0.94419,0.54458,14.163,0.066873,2.138,14.968,-2.5256,0.84188,-1.9778,-3.3675,1.7729e-07,-0.98892,0,0,0.066667,-0,-0,0.66667
0.77968,0.66242,11.695,0.24363,28.53,207.38,-7.5981,2.5327,-1.7946,-10.131,3.6353e-12,-0.89731,0,0,0.066667,-0,-0,0.66667
0.74367,0.74282,11.155,0.36423,48.676,276.52,-10.835,3.6115,-1.5228,-14.446,-4.1336e-12,-0.7614,0,0,0.066667,-0,-0,0.66667
0.492,0.27352,7.38,-0.33972,-77.087,975.82,6.6856,-2.2285,-1.5834,8.9141,5.3526e-12,-0.79172,0,0,0.066667,-0,-0,0.66667
0.49005,0.14433,7.3507,-0.53351,-121.46,983.07,10.458,-3.4859,-0.98277,13.944,-1.4495e-12,-0.49139,0,0,0.066667,6.3159e-16,0,0.66667
0.58111,0.91334,8.7167,0.62002,123.08,689.74,-14.412,4.804,-0.634,-19.216,6.1586e-12,-0.317,0,0,0.066667,-1.2632e-15,0,0.66667
0.59663,0.99058,8.9494,0.73588,142.16,644.47,-17.562,5.8539,-0.075526,-23.416,-5.2403e-12,-0.037763,0,0,0.066667,-0,-0,0.66667
0.89803,0.58576,13.47,0.12864,7.3963,47.469,-4.6207,1.5402,-1.935,-6.161,2.284e-08,-0.96748,0,0,0.066667,-1.2632e-15,0,0.66667
0.12083,0.91703,1.8125,0.62555,184.81,2477.9,-3.0235,1.0078,-0.60616,-4.0313,-2.1457e-07,-0.30308,0,0,0.066667,-0,-0,0.66667
0.50961,0.017617,7.6442,-0.72357,-160.67,917.46,14.75,-4.9166,-0.13278,19.666,1.9222e-11,-0.066392,0,0,0.066667,-1.2632e-15,0,0.66667
0.99552,0.23744,14.933,-0.39384,-0.88931,1.2149,15.683,-5.2277,-1.4452,20.911,-5.5318e-06,-0.72262,0,0,0.066667,-1.2632e-15,1.2752e-17,0.66667
0.48143,0.36443,7.2214,-0.20336,-46.757,1012.1,3.9161,-1.3054,-1.8536,5.2214,6.0563e-12,-0.92679,0,0,0.066667,-0,-0,0.66667
0.83781,0.050104,12.567,-0.67484,-60.27,117.96,22.616,-7.5386,-0.37521,30.154,4.6247e-09,-0.1876,0,0,0.066667,-0,-0,0.66667
0.60366,0.62256,9.0548,0.18384,34.953,622.07,-4.439,1.4797,-1.8757,-5.9187,-1.255e-12,-0.93785,0,0,0.066667,4.737e-16,0,0.66667
0.66437,0.83198,9.9656,0.49796,83.287,458.42,-13.233,4.4111,-1.1118,-17.644,-1.0685e-12,-0.5559,0,0,0.066667,6.3159e-16,0,0.66667
0.27246,0.90328,4.0869,0.60492,167.88,1820.4,-6.5927,2.1976,-0.69367,-8.7902,9.218e-11,-0.34683,0,0,0.066667,7.8949e-17,0,0.66667
0.83093,0.65853,12.464,0.23779,21.957,125.28,-7.9035,2.6345,-1.801,-10.538,-4.1171e-10,-0.90052,0,0,0.066667,-0,-0,0.66667
0.24447,0.96022,3.667,0.69033,194.66,1938.6,-6.7505,2.2502,-0.30081,-9.0007,-5.0255e-11,-0.15041,0,0,0.066667,-0,-0,0.66667
0.67336,0.97752,10.1,0.71628,117.41,437.08,-19.293,6.4309,-0.18146,-25.723,-2.9257e-12,-0.09073,0,0,0.066667,1.2632e-15,0,0.66667
0.08813,0.96777,1.322,0.70165,208.81,2624.1,-2.4735,0.82449,-0.24584,-3.2979,6.4417e-06,-0.12292,0,0,0.066667,-1.875e-16,0,0.66667
0.018852,0.0022623,0.28278,-0.74661,-223.9,2936.1,0.56263,-0.18761,-0.018957,0.75014,-0.00010771,-0.0094784,0,0,0.066667,-0,-0,0.66667
0.47235,0.33858,7.0852,-0.24213,-56.307,1043.9,4.5748,-1.5249,-1.791,6.0998,9.9809e-12,-0.89548,0,0,0.066667,3.158e-16,0,0.66667
0.939,0.26801,14.085,-0.34798,-12.189,18.461,13.07,-4.3567,-1.5748,17.427,-2.2862e-07,-0.7874,0,0,0.066667,-0,-0,0.66667
0.32557,0.055699,4.8836,-0.66645,-178.66,1602,8.6792,-2.8931,-0.42296,11.572,2.8359e-11,-0.21148,0,0,0.066667,-0,-0,0.66667
0.32215,0.1398,4.8323,-0.5403,-145.12,1615.5,6.9623,-2.3208,-0.95641,9.2831,4.4059e-11,-0.4782,0,0,0.066667,-6.3159e-16,0,0.66667
0.052031,0.84613,0.78046,0.5192,155.18,2786.3,-1.0806,0.36019,-1.0382,-1.4408,6.9007e-07,-0.5191,0,0,0.066667,-1.579e-16,0,0.66667
0.67529,0.72947,10.129,0.34421,56.015,430.55,-9.2975,3.0992,-1.5781,-12.397,-4.9329e-12,-0.78903,0,0,0.066667,1.2632e-15,0,0.66667
0.72174,0.55175,10.826,0.077621,11.111,322.05,-2.2409,0.74697,-1.979,-2.9879,-6.9562e-12,-0.98952,0,0,0.066667,6.3159e-16,0,0.66667
0.90372,0.87191,13.556,0.55787,30.531,44.298,-20.166,6.7221,-0.89623,-26.888,1.0724e-07,-0.44812,0,0,0.066667,-1.2632e-15,0,0.66667
0.43715,0.36262,6.5572,-0.20608,-49.897,1170.2,3.6034,-1.2011,-1.8591,4.8046,2.9363e-12,-0.92955,0,0,0.066667,-0,-0,0.66667
0.10952,0.29585,1.6427,-0.30623,-90.618,2528.1,1.3415,-0.44716,-1.6776,1.7886,2.425e-08,-0.83878,0,0,0.066667,-0,-0,0.66667
0.037607,0.80895,0.56411,0.46343,138.67,2851.3,-0.69713,0.23237,-1.2314,-0.92951,-6.3947e-06,-0.61569,0,0,0.066667,9.8686e-17,0,0.66667
0.88077,0.71417,13.212,0.32125,21.459,64.569,-11.318,3.7727,-1.6285,-15.091,-1.7228e-08,-0.81424,0,0,0.066667,2.1005e-15,0,0.66667
0.65226,0.3708,9.7838,-0.1938,-33.3,488.64,5.0564,-1.6855,-1.8651,6.7419,6.5357e-12,-0.93253,0,0,0.066667,-1.2632e-15,0,0.66667
0.9155,0.93726,13.732,0.65589,31.76,35.65,-24.019,8.0062,-0.46602,-32.025,-8.7462e-07,-0.23301,0,0,0.066667,-1.6974e-15,0,0.66667
0.8806,0.63529,13.209,0.20293,13.561,64.382,-7.148,2.3827,-1.8486,-9.5306,-4.4728e-09,-0.92429,0,0,0.066667,2.5264e-15,0,0.66667
0.47024,0.13954,7.0536,-0.54068,-126.19,1052.1,10.17,-3.39,-0.9659,13.56,1.4094e-11,-0.48295,0,0,0.066667,-6.3159e-16,0,0.66667
0.67034,0.30475,10.055,-0.29287,-48.235,442.69,7.8528,-2.6176,-1.7006,10.47,5.7931e-12,-0.85031,0,0,0.066667,6.3159e-16,0,0.66667
0.74507,0.65826,11.176,0.23739,31.558,273.31,-7.0748,2.3583,-1.7967,-9.4331,1.581e-13,-0.89837,0,0,0.066667,-0,-0,0.66667
0.42221,0.73487,6.3332,0.35231,86.692,1225.6,-5.95,1.9833,-1.5688,-7.9333,1.0724e-11,-0.78438,0,0,0.066667,-6.3159e-16,0,0.66667
0.15392,0.28192,2.3088,-0.32712,-95.658,2330.9,2.014,-0.67134,-1.6234,2.6853,-1.5593e-09,-0.81171,0,0,0.066667,6.3159e-16,0,0.66667
0.28408,0.90538,4.2612,0.60806,167.58,1771.9,-6.9096,2.3032,-0.68765,-9.2128,2.8346e-11,-0.34383,0,0,0.066667,2.9606e-16,0,0.66667
0.54848,0.071755,8.2272,-0.64237,-134.64,790.45,14.093,-4.6977,-0.53803,18.791,3.6326e-12,-0.26901,0,0,0.066667,-0,-0,0.66667
0.25574,0.98992,3.836,0.73488,206.03,1891,-7.5174,2.5058,-0.074687,-10.023,-7.407e-12,-0.037344,0,0,0.066667,-3.158e-16,0,0.66667
0.89173,0.19672,13.376,-0.45493,-27.784,54.373,16.227,-5.409,-1.2712,21.636,2.0874e-08,-0.63562,0,0,0.066667,-0,-0,0.66667
0.58075,0.82853,8.7113,0.4928,97.814,690.28,-11.448,3.8159,-1.1379,-15.264,4.4942e-12,-0.56897,0,0,0.066667,-1.2632e-15,0,0.66667
0.71867,0.91353,10.78,0.62029,89.86,330.57,-17.831,5.9438,-0.64373,-23.775,-4.7802e-11,-0.32186,0,0,0.066667,-0,-0,0.66667
0.86203,0.93594,12.93,0.6539,50.305,87.108,-22.547,7.5158,-0.48237,-30.063,-1.7522e-07,-0.24119,0,0,0.066667,1.579e-16,0,0.66667
0.89656,0.84404,13.448,0.51605,30.212,50.276,-18.507,6.169,-1.0491,-24.676,-1.2708e-07,-0.52457,0,0,0.066667,-0,-0,0.66667
0.95761,0.90462,14.364,0.60693,14.987,11.224,-23.248,7.7493,-0.6883,-30.997,3.5362e-05,-0.34415,0,0,0.066667,-1.7369e-15,0,0.66667
0.62751,0.83674,9.4126,0.50511,91.702,555.83,-12.678,4.2261,-1.0952,-16.904,1.2736e-12,-0.54758,0,0,0.066667,-0,-0,0.66667
0.99898,0.18864,14.985,-0.46704,-0.11862,1.4792,18.663,-6.2208,-1.2331,24.883,2.5116e-05,-0.61656,0,0,0.066667,2.5264e-15,0,0.66667
0.79051,0.61114,11.858,0.16672,18.668,188.3,-5.2716,1.7572,-1.8952,-7.0288,-1.7917e-11,-0.94758,0,0,0.066667,1.2632e-15,0,0.66667
0.27082,0.39733,4.0624,-0.15401,-42.728,1826.6,1.6684,-0.55612,-1.9114,2.2245,4.1047e-11,-0.95568,0,0,0.066667,-3.158e-16,0,0.66667
0.99055,0.66225,14.858,0.24337,1.2462,0.9923,-9.6428,3.2143,-1.7842,-12.857,1.9689e-06,-0.89209,0,0,0.066667,-0,-0,0.66667
0.80151,0.29131,12.023,-0.31303,-33.43,170.31,10.036,-3.3452,-1.6482,13.381,1.9755e-10,-0.82409,0,0,0.066667,-0,-0,0.66667
0.25311,0.42333,3.7967,-0.115,-32.224,1901.2,1.1643,-0.38811,-1.9529,1.5524,5.1232e-12,-0.97647,0,0,0.066667,-0,-0,0.66667
0.031897,0.73674,0.47846,0.35511,106.26,2877.1,-0.45308,0.15103,-1.5604,-0.60411,2.5912e-06,-0.78021,0,0,0.066667,-0,-0,0.66667
0.95281,0.73377,14.292,0.35066,9.5344,11.647,-13.364,4.4548,-1.573,-17.819,1.5999e-06,-0.7865,0,0,0.066667,1.2632e-15,0,0.66667
0.55683,0.15503,8.3525,-0.51746,-106.95,763.64,11.525,-3.8418,-1.0441,15.367,2.4704e-11,-0.52206,0,0,0.066667,-4.7022e-16,0,0.66667
0.55271,0.82495,8.2906,0.48743,101.39,776.45,-10.776,3.5921,-1.1498,-14.368,-6.9305e-12,-0.57491,0,0,0.066667,1.2632e-15,0,0.66667
0.047378,0.51354,0.71067,0.02031,6.0675,2807.2,-0.03849,0.01283,-2.0079,-0.05132,-3.4364e-07,-1.004,0,0,0.066667,-1.579e-16,0,0.66667
0.63904,0.34107,9.5856,-0.2384,-42.188,523.69,6.0939,-2.0313,-1.804,8.1251,7.3213e-12,-0.90202,0,0,0.066667,-4.737e-16,0,0.66667
0.5001,0.19252,7.5016,-0.46123,-103.59,948.48,9.2265,-3.0755,-1.2556,12.302,1.1951e-11,-0.62778,0,0,0.066667,-0,-0,0.66667
0.80429,0.95777,12.064,0.68665,72.674,167.79,-22.091,7.3636,-0.31712,-29.454,1.9101e-10,-0.15856,0,0,0.066667,-1.2632e-15,0,0.66667
0.06955,0.88797,1.0432,0.58195,173.61,2707.5,-1.619,0.53966,-0.7894,-2.1587,-1.5589e-06,-0.3947,0,0,0.066667,-0,-0,0.66667
0.56293,0.6373,8.444,0.20595,42.095,743.84,-4.6374,1.5458,-1.8589,-6.1832,-3.0695e-12,-0.92947,0,0,0.066667,-0,-0,0.66667
0.40868,0.27336,6.1302,-0.33996,-84.795,1276.2,5.5573,-1.8524,-1.5915,7.4098,1.2534e-11,-0.79576,0,0,0.066667,-0,-0,0.66667
0.55177,0.25238,8.2765,-0.37143,-77.34,779.05,8.1977,-2.7326,-1.5066,10.93,8.4075e-12,-0.7533,0,0,0.066667,-0,-0,0.66667
0.35846,0.49466,5.377,-0.0080068,-2.0887,1469.6,0.11481,-0.038269,-2.0081,0.15308,1.5066e-11,-1.0041,0,0,0.066667,1.579e-16,0,0.66667
0.99938,0.97886,14.991,0.7183,0.23433,3.4526,-28.713,9.5708,-0.17336,-38.284,-0.00032784,-0.086682,0,0,0.066667,-2.5264e-15,-2.0739e-16,0.66667
0.45032,0.75416,6.7549,0.38124,91.014,1122.6,-6.8673,2.2891,-1.485,-9.1564,-6.803e-12,-0.7425,0,0,0.066667,1.2632e-15,0,0.66667
0.34582,0.069376,5.1874,-0.64594,-170.51,1520.7,8.9352,-2.9784,-0.52024,11.914,1.1971e-11,-0.26012,0,0,0.066667,-0,-0,0.66667
0.18973,0.48952,2.8459,-0.015713,-4.5349,2173.7,0.11924,-0.039748,-2.002,0.15899,-5.9139e-11,-1.001,0,0,0.066667,4.737e-16,0,0.66667
0.92353,0.31245,13.853,-0.28132,-12.273,27.757,10.392,-3.4641,-1.725,13.856,-2.4363e-07,-0.86251,0,0,0.066667,1.4359e-15,0,0.66667
0.10429,0.64551,1.5644,0.21826,64.65,2551.4,-0.91054,0.30351,-1.8263,-1.2141,-3.8719e-08,-0.91317,0,0,0.066667,-0,-0,0.66667
0.44034,0.14551,6.6052,-0.53174,-128.44,1159.2,9.3659,-3.122,-0.99557,12.488,-1.6186e-11,-0.49779,0,0,0.066667,-0,-0,0.66667
0.6862,0.70325,10.293,0.30488,48.247,403.86,-8.3683,2.7894,-1.6756,-11.158,1.5348e-12,-0.83778,0,0,0.066667,-0,-0,0.66667
0.14241,0.89648,2.1361,0.59472,174.67,2382.1,-3.3877,1.1292,-0.74689,-4.5169,3.4622e-08,-0.37345,0,0,0.066667,-0,-0,0.66667
0.9315,0.088475,13.972,-0.61729,-24.387,24.457,23,-7.6667,-0.64024,30.667,-2.1947e-06,-0.32012,0,0,0.066667,-1.2632e-15,0,0.66667
0.058875,0.82102,0.88312,0.48153,143.79,2755.5,-1.134,0.37801,-1.1745,-1.512,1.5582e-06,-0.58725,0,0,0.066667,-0,-0,0.66667
0.2181,0.50082,3.2715,0.0012249,0.34927,2050.7,-0.010686,0.0035619,-2.0102,-0.014248,1.1926e-10,-1.0051,0,0,0.066667,-0,-0,0.66667
0.077195,0.8302,1.1579,0.49529,147.54,2673,-1.5294,0.50979,-1.1353,-2.0392,-5.7363e-08,-0.56767,0,0,0.066667,-2.4932e-16,0,0.66667
0.41151,0.27601,6.1727,-0.33598,-83.569,1265.5,5.5304,-1.8435,-1.5947,7.3739,1.6037e-11,-0.79733,0,0,0.066667,-3.158e-16,0,0.66667
0.59726,0.83998,8.9589,0.50996,98.255,641.51,-12.183,4.0611,-1.0752,-16.244,-7.2031e-13,-0.5376,0,0,0.066667,-0,-0,0.66667
0.73114,0.79938,10.967,0.44908,62.536,302.83,-13.134,4.3778,-1.2826,-17.511,-4.2997e-12,-0.64131,0,0,0.066667,3.9734e-16,0,0.66667
0.87843,0.5875,13.176,0.13125,8.9171,66.492,-4.6117,1.5372,-1.9384,-6.1489,-5.3582e-10,-0.96922,0,0,0.066667,-6.3159e-16,0,0.66667
0.35325,0.77228,5.2987,0.40841,107.07,1490.6,-5.7709,1.9236,-1.4014,-7.6945,6.1324e-12,-0.70071,0,0,0.066667,-0,-0,0.66667
0.70246,0.63224,10.537,0.19836,30.036,365.37,-5.5737,1.8579,-1.8693,-7.4316,9.2109e-12,-0.93463,0,0,0.066667,-2.5264e-15,0,0.66667
0.048616,0.39034,0.72925,-0.16448,-49.137,2801.6,0.31986,-0.10662,-1.9082,0.42648,3.4582e-07,-0.9541,0,0,0.066667,-7.8949e-17,0,0.66667
0.81926,0.70255,12.289,0.30382,29.821,142.49,-9.9563,3.3188,-1.6655,-13.275,1.7205e-10,-0.83273,0,0,0.066667,-0,-0,0.66667
0.31828,0.8403,4.7741,0.51045,137.46,1631.2,-6.4986,2.1662,-1.0692,-8.6648,2.9795e-11,-0.53458,0,0,0.066667,-7.8949e-16,0,0.66667
0.22164,0.81954,3.3246,0.47931,136.56,2035.8,-4.2494,1.4165,-1.1843,-5.6659,4.2352e-11,-0.59213,0,0,0.066667,-0,-0,0.66667
0.36104,0.19907,5.4155,-0.45139,-117.6,1460,6.5187,-2.1729,-1.2803,8.6916,1.1435e-11,-0.64017,0,0,0.066667,-0,-0,0.66667
0.11407,0.92768,1.711,0.64152,189.85,2508,-2.9271,0.97571,-0.5332,-3.9028,-1.0141e-07,-0.2666,0,0,0.066667,1.579e-16,0,0.66667
0.29371,0.39314,4.4056,-0.16029,-43.849,1731.4,1.8831,-0.62769,-1.9085,2.5108,1.2965e-11,-0.95424,0,0,0.066667,3.158e-16,0,0.66667
0.008789,0.091676,0.13184,-0.61249,-183.61,2981.5,0.21532,-0.071702,-0.66109,0.28712,0.00010514,-0.33054,0,0,0.066667,1.2336e-17,0,0.66667
0.25326,0.0082937,3.799,-0.73756,-207.06,1901.5,7.4719,-2.4906,-0.06571,9.9625,-2.3532e-12,-0.032855,0,0,0.066667,-1.2632e-15,0,0.66667
0.83771,0.76864,12.566,0.40297,35.887,116.46,-13.503,4.5009,-1.417,-18.004,9.1812e-10,-0.70849,0,0,0.066667,-1.2632e-15,0,0.66667
0.80776,0.26752,12.116,-0.34872,-36.198,160.39,11.267,-3.7558,-1.5638,15.023,9.7998e-11,-0.7819,0,0,0.066667,-0,-0,0.66667
0.38257,0.11092,5.7385,-0.58361,-149.32,1376.4,8.9309,-2.977,-0.78233,11.908,5.5982e-12,-0.39116,0,0,0.066667,-0,-0,0.66667
0.43068,0.60817,6.4602,0.16226,39.559,1193.9,-2.7953,0.93177,-1.9,-3.7271,5.7037e-12,-0.95001,0,0,0.066667,-6.3159e-16,0,0.66667
0.18259,0.62822,2.7388,0.19233,55.671,2204.9,-1.4047,0.46823,-1.8654,-1.8729,8.6098e-12,-0.9327,0,0,0.066667,-0,-0,0.66667
0.31687,0.04861,4.7531,-0.67708,-182.66,1637.3,8.582,-2.8607,-0.36687,11.443,4.1315e-11,-0.18344,0,0,0.066667,-6.3159e-16,0,0.66667
0.41737,0.18496,6.2605,-0.47255,-116.9,1243.9,7.8892,-2.6297,-1.2038,10.519,5.7865e-12,-0.60191,0,0,0.066667,9.4739e-16,0,0.66667
0.066468,0.93124,0.99703,0.64686,193.1,2721.4,-1.7198,0.57328,-0.51063,-2.2931,-1.7425e-07,-0.25532,0,0,0.066667,-0,-0,0.66667
0.33789,0.11261,5.0683,-0.58109,-154.29,1552.2,7.8537,-2.6179,-0.79396,10.472,2.3648e-11,-0.39698,0,0,0.066667,-0,-0,0.66667
0.49567,0.024039,7.4351,-0.71394,-161.52,964.55,14.155,-4.7184,-0.18515,18.874,7.0157e-12,-0.092576,0,0,0.066667,-6.3159e-16,-1.0277e-16,0.66667
0.0067213,0.86003,0.10082,0.54005,161.86,2990.9,-0.14518,0.048369,-0.95672,-0.19358,-3.5841e-05,-0.47836,0,0,0.066667,9.8686e-18,0,0.66667
0.43808,0.21982,6.5711,-0.42026,-101.71,1167.2,7.3643,-2.4548,-1.3825,9.819,-7.7836e-12,-0.69127,0,0,0.066667,1.2632e-15,0,0.66667
0.21869,0.84929,3.2803,0.52393,149.51,2048.6,-4.5831,1.5277,-1.036,-6.1109,4.7791e-10,-0.51802,0,0,0.066667,-6.3159e-16,0,0.66667
0.2134,0.64424,3.201,0.21636,61.836,2071.1,-1.8468,0.61561,-1.8288,-2.4624,1.7947e-11,-0.9144,0,0,0.066667,-0,-0,0.66667
0.24924,0.77146,3.7386,0.40719,114.4,1917.9,-4.0595,1.3532,-1.419,-5.4127,-1.6659e-11,-0.70948,0,0,0.066667,-0,-0,0.66667
0.12833,0.62819,1.9249,0.19229,56.633,2444.3,-0.98704,0.32901,-1.869,-1.316,-8.8333e-10,-0.93449,0,0,0.066667,-3.158e-16,0,0.66667
0.94481,0.17354,14.172,-0.48969,-15.603,16.136,18.506,-6.1688,-1.1408,24.675,1.7004e-06,-0.57041,0,0,0.066667,-0,-0,0.66667
0.16907,0.18691,2.5361,-0.46964,-136.7,2264.3,3.1762,-1.0587,-1.2182,4.2349,4.1189e-09,-0.60911,0,0,0.066667,2.9606e-17,0,0.66667
0.56761,0.46806,8.5142,-0.047908,-9.714,729.25,1.0877,-0.36257,-1.9889,1.4503,8.8146e-12,-0.99446,0,0,0.066667,1.4606e-15,0,0.66667
0.17151,0.68881,2.5726,0.28322,82.325,2253.5,-1.943,0.64766,-1.7262,-2.5906,4.0862e-10,-0.86309,0,0,0.066667,-0,-0,0.66667
0.26092,0.90297,3.9138,0.60446,168.87,1868.9,-6.3086,2.1029,-0.69818,-8.4115,-2.2028e-10,-0.34909,0,0,0.066667,-0,-0,0.66667
0.67678,0.24808,10.152,-0.37788,-61.276,426.99,10.23,-3.4099,-1.4895,13.639,1.017e-11,-0.74474,0,0,0.066667,-3.158e-16,0,0.66667
0.50327,0.022845,7.549,-0.71573,-160.3,938.77,14.408,-4.8027,-0.17848,19.211,1.1307e-11,-0.08924,0,0,0.066667,1.2632e-15,0,0.66667
0.15729,0.96524,2.3593,0.69785,204.12,2316.5,-4.3906,1.4635,-0.27657,-5.8541,4.2957e-08,-0.13829,0,0,0.066667,7.8949e-17,0,0.66667
0.082507,0.62724,1.2376,0.19085,56.762,2649.1,-0.62987,0.20996,-1.8686,-0.83982,-5.9949e-08,-0.9343,0,0,0.066667,-0,-0,0.66667
0.88189,0.79276,13.228,0.43914,29.113,63.943,-15.491,5.1637,-1.308,-20.655,-1.48e-08,-0.65401,0,0,0.066667,-0,-0,0.66667
0.24189,0.88857,3.6284,0.58285,164.49,1949.4,-5.6394,1.8798,-0.78552,-7.5192,2.3205e-10,-0.39276,0,0,0.066667,-0,-0,0.66667
0.95897,0.63286,14.385,0.19929,4.697,8.5961,-7.6445,2.5482,-1.8537,-10.193,8.0385e-07,-0.92685,0,0,0.066667,-2.5264e-15,0,0.66667
0.89236,0.43385,13.385,-0.099221,-6.0061,52.609,3.5416,-1.1805,-1.9704,4.7222,-1.6064e-08,-0.9852,0,0,0.066667,1.579e-15,0,0.66667
0.15998,0.77837,2.3997,0.41755,121.89,2304.3,-2.672,0.89065,-1.3796,-3.5626,2.7293e-10,-0.68978,0,0,0.066667,7.8949e-17,0,0.66667
0.50371,0.66382,7.5556,0.24572,54.886,935.77,-4.9509,1.6503,-1.7842,-6.6012,-1.2267e-11,-0.89208,0,0,0.066667,-0,-0,0.66667
0.11892,0.74561,1.7838,0.36841,108.8,2486.2,-1.7525,0.58415,-1.5125,-2.3366,2.2903e-08,-0.75626,0,0,0.066667,7.8949e-17,0,0.66667
0.11084,0.31804,1.6626,-0.27295,-80.74,2522.2,1.2101,-0.40337,-1.7412,1.6135,1.4526e-08,-0.87062,0,0,0.066667,-0,-0,0.66667
0.6963,0.15929,10.444,-0.51106,-78.826,380.71,14.234,-4.7447,-1.0661,18.979,-4.7997e-12,-0.53303,0,0,0.066667,2.5264e-15,0,0.66667
0.27155,0.6912,4.0733,0.28679,79.551,1823.7,-3.1152,1.0384,-1.7029,-4.1536,2.85e-11,-0.85147,0,0,0.066667,6.3159e-16,0,0.66667
0.96639,0.47602,14.496,-0.035968,-0.69224,5.7497,1.3903,-0.46345,-1.9981,1.8538,1.3965e-07,-0.99907,0,0,0.066667,-0,-0,0.66667
0.83925,0.38764,12.589,-0.16853,-14.855,113.63,5.6576,-1.8859,-1.8957,7.5435,9.7989e-11,-0.94784,0,0,0.066667,1.2632e-15,0,0.66667
0.09252,0.63288,1.3878,0.19931,59.174,2604.2,-0.73762,0.24587,-1.8655,-0.9835,-1.1129e-08,-0.93275,0,0,0.066667,-3.158e-16,0,0.66667
0.39056,0.17051,5.8584,-0.49424,-125.49,1345.4,7.7212,-2.5737,-1.1428,10.295,7.7538e-13,-0.5714,0,0,0.066667,-6.3159e-16,2.3349e-17,0.66667
0.12422,0.48099,1.8633,-0.028517,-8.4065,2462.5,0.14169,-0.047231,-2.0053,0.18892,-1.6514e-09,-1.0027,0,0,0.066667,-0,-0,0.66667
0.55539,0.68838,8.3309,0.28257,58.48,767.45,-6.2774,2.0925,-1.7111,-8.3699,-2.1441e-12,-0.85555,0,0,0.066667,-0,-0,0.66667
0.16211,0.60796,2.4316,0.16194,47.216,2294.7,-1.0501,0.35002,-1.9012,-1.4001,1.3418e-10,-0.95062,0,0,0.066667,-3.158e-16,0,0.66667
0.83177,0.049378,12.477,-0.67593,-62.415,126.33,22.489,-7.4962,-0.37411,29.985,1.2637e-08,-0.18706,0,0,0.066667,-0,-0,0.66667
0.25769,0.24392,3.8654,-0.38412,-107.42,1882.1,3.9595,-1.3198,-1.4693,5.2793,-7.0393e-12,-0.73467,0,0,0.066667,-3.158e-16,0,0.66667
0.51057,0.17655,7.6585,-0.48517,-107.44,913.29,9.9084,-3.3028,-1.1588,13.211,7.5522e-12,-0.57941,0,0,0.066667,-0,-0,0.66667
0.78245,0.19913,11.737,-0.4513,-52.332,203.21,14.125,-4.7083,-1.2824,18.833,-2.1164e-11,-0.64118,0,0,0.066667,1.2632e-15,0,0.66667
0.53834,0.56889,8.0751,0.10334,21.959,821.35,-2.2253,0.74178,-1.9561,-2.9671,3.4825e-12,-0.97805,0,0,0.066667,1.2632e-15,0,0.66667
0.52882,0.91703,7.9324,0.62555,135.07,853.52,-13.232,4.4108,-0.61085,-17.643,-5.933e-12,-0.30542,0,0,0.066667,-0,1.0523e-16,0.66667
0.85484,0.20663,12.823,-0.44005,-35.376,94.421,15.047,-5.0156,-1.3081,20.062,2.985e-09,-0.65407,0,0,0.066667,-0,-0,0.66667
0.2451,0.082677,3.6765,-0.62598,-176.4,1935.8,6.1372,-2.0457,-0.60275,8.1829,-3.3586e-11,-0.30137,0,0,0.066667,-0,-0,0.66667
0.1271,0.87104,1.9065,0.55656,164.13,2449.9,-2.8296,0.94319,-0.90269,-3.7728,-4.7471e-08,-0.45135,0,0,0.066667,-2.3685e-16,0,0.66667
0.56024,0.70531,8.4037,0.30797,63.241,752.37,-6.9014,2.3005,-1.6654,-9.2019,-1.5485e-12,-0.8327,0,0,0.066667,6.3159e-16,0,0.66667
0.12838,0.63065,1.9257,0.19598,57.719,2444,-1.0064,0.33547,-1.8634,-1.3419,-9.0689e-10,-0.93168,0,0,0.066667,-0,-0,0.66667
0.33116,0.0071143,4.9674,-0.73933,-197.46,1579.7,9.7934,-3.2645,-0.057198,13.058,1.6934e-11,-0.028599,0,0,0.066667,-0,-0,0.66667
0.32644,0.60926,4.8966,0.16389,43.837,1597.6,-2.14,0.71335,-1.9091,-2.8534,1.7479e-11,-0.95454,0,0,0.066667,-6.3159e-16,0,0.66667
0.94804,0.79681,14.221,0.44522,13.35,14.294,-16.884,5.6279,-1.2908,-22.511,2.7103e-07,-0.64539,0,0,0.066667,1.2632e-15,0,0.66667
0.37591,0.52619,5.6387,0.039288,10.098,1401.3,-0.59076,0.19692,-2.0029,-0.78769,1.8383e-11,-1.0014,0,0,0.066667,6.3159e-16,0,0.66667
0.46911,0.15871,7.0367,-0.51194,-119.62,1056,9.6063,-3.2021,-1.0793,12.808,1.9997e-11,-0.53967,0,0,0.066667,-0,-0,0.66667
0.94734,0.6721,14.21,0.25815,7.8086,13.799,-9.7822,3.2607,-1.7576,-13.043,3.6178e-07,-0.87881,0,0,0.066667,1.2632e-15,0,0.66667
0.82838,0.15169,12.426,-0.52246,-49.025,130.11,17.312,-5.7706,-1.0408,23.082,-3.5532e-09,-0.52039,0,0,0.066667,-1.579e-15,0,0.66667
0.672,0.43977,10.08,-0.090339,-14.811,438.2,2.4283,-0.80944,-1.9833,3.2378,2.8764e-12,-0.99164,0,0,0.066667,-0,-0,0.66667
0.26731,0.52533,4.0097,0.038,10.563,1841.3,-0.40632,0.13544,-2.0001,-0.54176,1.9902e-11,-1.0001,0,0,0.066667,3.158e-16,0,0.66667
0.13326,0.44762,1.999,-0.078572,-23.108,2422.3,0.41884,-0.13961,-1.9716,0.55845,3.692e-10,-0.98582,0,0,0.066667,-3.158e-16,0,0.66667
0.33396,0.64467,5.0094,0.217,57.723,1567.3,-2.8988,0.96626,-1.8272,-3.8651,6.1791e-12,-0.91359,0,0,0.066667,-0,-0,0.66667
0.15982,0.52645,2.3973,0.039673,11.575,2304.8,-0.25362,0.084541,-1.9939,-0.33816,-3.5013e-11,-0.99697,0,0,0.066667,3.158e-16,0,0.66667
0.9604,0.16475,14.406,-0.50287,-11.55,9.424,19.318,-6.4394,-1.0947,25.758,-1.206e-05,-0.54733,0,0,0.066667,-0,-0,0.66667
0.20094,0.87979,3.0141,0.56969,163.87,2125.4,-4.5789,1.5263,-0.84969,-6.1052,-9.5896e-10,-0.42484,0,0,0.066667,-6.3159e-16,0,0.66667
0.31067,0.37074,4.66,-0.19389,-52.448,1661.7,2.4094,-0.80314,-1.8713,3.2126,2.14e-11,-0.93564,0,0,0.066667,1.579e-16,0,0.66667
0.66142,0.93218,9.9213,0.64828,109.31,466.69,-17.151,5.7171,-0.5019,-22.868,-6.4126e-13,-0.25095,0,0,0.066667,3.158e-16,0,0.66667
0.43762,0.007813,6.5643,-0.73828,-179.05,1170,12.924,-4.3078,-0.07351,17.231,4.1727e-12,-0.036755,0,0,0.066667,-0,-0,0.66667
0.58983,0.1248,8.8475,-0.5628,-109.96,663.52,13.278,-4.4261,-0.87333,17.705,-3.9195e-12,-0.43666,0,0,0.066667,1.3027e-15,0,0.66667
0.84885,0.71031,12.733,0.31547,26.297,101.41,-10.711,3.5704,-1.6421,-14.282,-1.6957e-09,-0.82103,0,0,0.066667,-6.3159e-16,0,0.66667
0.58815,0.055265,8.8222,-0.6671,-130.82,669.01,15.694,-5.2314,-0.41297,20.926,1.644e-12,-0.20649,0,0,0.066667,-0,-0,0.66667
0.49698,0.79371,7.4547,0.44056,99.356,959.05,-8.758,2.9193,-1.3102,-11.677,7.6081e-12,-0.65508,0,0,0.066667,-1.2632e-15,0,0.66667
0.83558,0.56519,12.534,0.097782,8.7974,118.54,-3.2682,1.0894,-1.9605,-4.3576,2.4041e-10,-0.98027,0,0,0.066667,-0,-0,0.66667
0.79797,0.49385,11.969,-0.009229,-1.0003,175.6,0.29458,-0.098193,-2.0072,0.39277,-1.2851e-10,-1.0036,0,0,0.066667,3.7896e-15,0,0.66667
0.98116,0.36389,14.717,-0.20417,-2.1758,2.2603,8.013,-2.671,-1.8516,10.684,2.6078e-06,-0.9258,0,0,0.066667,-0,-0,0.66667
0.94861,0.49415,14.229,-0.0087718,-0.25842,12.775,0.33284,-0.11095,-1.997,0.44378,7.9018e-08,-0.99849,0,0,0.066667,1.2632e-15,0,0.66667
0.91719,0.27032,13.758,-0.34452,-16.251,32.493,12.64,-4.2132,-1.5744,16.853,-2.5862e-08,-0.7872,0,0,0.066667,-1.2632e-15,0,0.66667
0.49483,0.19346,7.4224,-0.45981,-104,966.46,9.101,-3.0337,-1.2443,12.135,2.0163e-11,-0.62217,0,0,0.066667,-0,-0,0.66667
0.73715,0.52341,11.057,0.035108,4.7887,289.25,-1.0352,0.34506,-1.997,-1.3803,4.0138e-12,-0.99849,0,0,0.066667,-1.2632e-15,0,0.66667
0.60052,0.10126,9.0078,-0.59812,-114.6,632.42,14.367,-4.7891,-0.72213,19.156,3.058e-12,-0.36107,0,0,0.066667,-0,-0,0.66667
0.738,0.39337,11.07,-0.15994,-21.76,287.61,4.7215,-1.5738,-1.9077,6.2953,-2.8875e-12,-0.95384,0,0,0.066667,-0,-0,0.66667
0.37576,0.6771,5.6364,0.26566,68.308,1402.1,-3.9929,1.331,-1.7575,-5.3239,4.0234e-13,-0.87876,0,0,0.066667,-0,-0,0.66667
0.91111,0.45029,13.667,-0.074558,-3.7568,36.428,2.7172,-0.90574,-1.9762,3.623,-1.4416e-08,-0.98812,0,0,0.066667,-0,-0,0.66667
0.87231,0.5237,13.085,0.035555,2.5294,72.971,-1.2406,0.41354,-1.9972,-1.6541,6.4275e-10,-0.99858,0,0,0.066667,-0,-0,0.66667
0.70467,0.62868,10.57,0.19303,29.048,360.31,-5.4407,1.8136,-1.8736,-7.2543,-2.1494e-12,-0.93682,0,0,0.066667,-0,-0,0.66667
0.26123,0.57984,3.9184,0.11975,33.406,1866.9,-1.2513,0.41711,-1.9459,-1.6684,1.4578e-11,-0.97293,0,0,0.066667,3.158e-16,0,0.66667
0.50107,0.11302,7.516,-0.58047,-130.28,945.62,11.634,-3.8781,-0.80903,15.512,5.6826e-12,-0.40451,0,0,0.066667,-6.3159e-16,0,0.66667
0.21771,0.55662,3.2656,0.084935,24.224,2052.4,-0.73963,0.24654,-1.9821,-0.98618,3.514e-11,-0.99104,0,0,0.066667,4.737e-16,0,0.66667
0.10252,0.64209,1.5378,0.21314,63.156,2559.4,-0.87405,0.29135,-1.8321,-1.1654,-4.0531e-08,-0.91604,0,0,0.066667,-1.579e-16,0,0.66667
0.57796,0.31422,8.6694,-0.27866,-55.534,698.03,6.4423,-2.1474,-1.7361,8.5897,3.2885e-11,-0.86806,0,0,0.066667,-2.5264e-15,0,0.66667
0.4796,0.69801,7.1939,0.29701,68.463,1018.6,-5.6978,1.8993,-1.6826,-7.5971,2.0921e-12,-0.84131,0,0,0.066667,-0,-0,0.66667
0.24749,0.81062,3.7124,0.46593,131.05,1925.4,-4.6125,1.5375,-1.2312,-6.1501,-7.1459e-11,-0.61561,0,0,0.066667,-1.579e-16,0,0.66667
0.44668,0.003778,6.7001,-0.74433,-178.74,1137,13.299,-4.433,-0.024977,17.732,5.965e-12,-0.012489,0,0,0.066667,-0,-0,0.66667
0.13839,0.5755,2.0759,0.11325,33.259,2399.5,-0.6269,0.20897,-1.9571,-0.83587,-6.746e-10,-0.97856,0,0,0.066667,-0,-0,0.66667
0.5228,0.10844,7.842,-0.58733,-127.91,873.07,12.282,-4.0941,-0.76693,16.376,2.3543e-11,-0.38347,0,0,0.066667,-0,-0,0.66667
0.97037,0.025917,14.556,-0.71112,-12.412,7.8119,27.602,-9.2007,-0.2075,36.803,6.3107e-05,-0.10375,0,0,0.066667,-0,-0,0.66667
0.82378,0.73619,12.357,0.35428,33.998,135.96,-11.674,3.8914,-1.5507,-15.565,1.6712e-11,-0.77534,0,0,0.066667,-2.2387e-15,0,0.66667
0.0044396,0.58786,0.066594,0.13179,39.463,3001.2,-0.023404,0.0078,-1.9356,-0.031206,-1.9381e-06,-0.96782,0,0,0.066667,4.9343e-18,0,0.66667
0.09162,0.85325,1.3743,0.52987,157.47,2608.3,-1.9419,0.64729,-1.005,-2.5891,-2.7273e-07,-0.5025,0,0,0.066667,-0,7.291e-18,0.66667
0.025576,0.10481,0.38364,-0.59279,-177.59,2905.7,0.60644,-0.20219,-0.74543,0.80856,-6.8158e-05,-0.37271,0,0,0.066667,-0,-0,0.66667
0.30843,0.74443,4.6264,0.36665,99.368,1671.1,-4.5233,1.5078,-1.5203,-6.0311,3.8227e-12,-0.76013,0,0,0.066667,4.737e-16,0,0.66667
0.98064,0.89841,14.71,0.59762,6.7463,4.4217,-23.442,7.814,-0.72881,-31.256,-2.9046e-05,-0.36441,0,0,0.066667,-6.3159e-16,0,0.66667
0.4604,0.41938,6.9061,-0.12092,-28.519,1086.1,2.227,-0.74232,-1.9415,2.9693,4.1356e-12,-0.97073,0,0,0.066667,-0,-0,0.66667
0.40975,0.4452,6.1462,-0.082201,-20.473,1271.9,1.3473,-0.44909,-1.9753,1.7964,3.0924e-12,-0.98767,0,0,0.066667,-0,-0,0.66667
0.40822,0.057261,6.1233,-0.66411,-165.95,1278.8,10.844,-3.6147,-0.43618,14.459,2.089e-12,-0.21809,0,0,0.066667,6.3159e-16,0,0.66667
0.82481,0.81368,12.372,0.47052,44.958,134.98,-15.524,5.1746,-1.2137,-20.698,3.1906e-10,-0.60685,0,0,0.066667,-0,-0,0.66667
0.58171,0.29952,8.7256,-0.30072,-59.542,686.82,6.9973,-2.3324,-1.6772,9.3298,1.848e-11,-0.8386,0,0,0.066667,-6.3159e-16,0,0.66667
0.11935,0.27295,1.7903,-0.34058,-100.56,2484.3,1.6259,-0.54198,-1.5827,2.1679,-1.9698e-08,-0.79134,0,0,0.066667,1.579e-16,0,0.66667
0.44473,0.41263,6.671,-0.13106,-31.467,1142.5,2.3315,-0.77716,-1.933,3.1086,7.4474e-13,-0.96648,0,0,0.066667,-0,-0,0.66667
0.1464,0.00071456,2.1961,-0.74893,-219.86,2364.6,4.3859,-1.462,-0.0018354,5.8478,9.9254e-09,-0.00091772,0,0,0.066667,-0,-0,0.66667
0.66607,0.41235,9.9911,-0.13148,-21.87,453.1,3.5029,-1.1676,-1.9337,4.6706,3.7823e-12,-0.96686,0,0,0.066667,-0,-0,0.66667
0.12237,0.035943,1.8355,-0.69609,-205.64,2471.1,3.4072,-1.1357,-0.27943,4.5429,-8.1275e-07,-0.13971,0,0,0.066667,3.158e-16,0,0.66667
0.086689,0.37305,1.3003,-0.19043,-56.594,2630.3,0.66031,-0.2201,-1.8659,0.88042,1.2024e-08,-0.93294,0,0,0.066667,-7.8949e-17,0,0.66667
0.70336,0.16039,10.55,-0.50941,-77.059,364.34,14.332,-4.7774,-1.0888,19.109,8.3569e-12,-0.5444,0,0,0.066667,-0,-0,0.66667
0.41126,0.58077,6.1689,0.12116,30.131,1266.2,-1.9931,0.66435,-1.9435,-2.6574,-8.887e-12,-0.97177,0,0,0.066667,-0,-0,0.66667
0.99611,0.19017,14.942,-0.46474,-0.91527,1.5852,18.517,-6.1724,-1.2312,24.69,-1.4204e-06,-0.6156,0,0,0.066667,-0,-0,0.66667
0.53405,0.89124,8.0107,0.58686,125.71,836.38,-12.537,4.1789,-0.7763,-16.715,7.2093e-12,-0.38815,0,0,0.066667,-6.3159e-16,0,0.66667
0.77901,0.87135,11.685,0.55703,65.551,209.87,-17.357,5.7858,-0.90044,-23.143,-2.0824e-10,-0.45022,0,0,0.066667,-6.3159e-16,-6.1594e-17,0.66667
0.86863,0.22467,13.029,-0.413,-30.247,78.04,14.35,-4.7832,-1.3882,19.133,-1.1084e-08,-0.69408,0,0,0.066667,-0,-0,0.66667
0.79875,0.9449,11.981,0.66735,72.393,176.68,-21.322,7.1072,-0.42092,-28.429,-7.1396e-09,-0.21046,0,0,0.066667,-0,-0,0.66667
0.21409,0.55583,3.2113,0.083748,23.925,2068,-0.71717,0.23906,-1.9719,-0.95623,4.5463e-11,-0.98596,0,0,0.066667,-1.579e-16,0,0.66667
0.68037,0.69326,10.206,0.28989,46.566,417.93,-7.8892,2.6297,-1.6954,-10.519,3.0864e-13,-0.84768,0,0,0.066667,-0,-0,0.66667
0.0046244,0.54912,0.069367,0.073681,22.061,3000.3,-0.013629,0.0045417,-1.9771,-0.018173,-1.9562e-06,-0.98855,0,0,0.066667,-0,-0,0.66667
0.7958,0.13228,11.937,-0.55158,-60.532,180.82,17.558,-5.8526,-0.92568,23.411,-6.5539e-10,-0.46284,0,0,0.066667,-2.5264e-15,0,0.66667
0.21583,0.018666,3.2375,-0.722,-206.48,2061.2,6.2333,-2.0778,-0.14712,8.311,-1.1803e-09,-0.073559,0,0,0.066667,-6.3159e-16,7.596e-17,0.66667
0.98672,0.63188,14.801,0.19783,1.4581,1.329,-7.808,2.6027,-1.8637,-10.411,-1.7273e-07,-0.93183,0,0,0.066667,-0,-0,0.66667
0.94415,0.26021,14.162,-0.35968,-11.556,15.778,13.584,-4.5279,-1.534,18.112,-3.2483e-08,-0.76698,0,0,0.066667,-0,-0,0.66667
0.58512,0.95673,8.7767,0.6851,135.1,678.1,-16.035,5.3448,-0.32478,-21.379,-5.187e-13,-0.16239,0,0,0.066667,-6.1323e-17,0,0.66667
0.16047,0.66185,2.407,0.24278,70.832,2302,-1.5583,0.51945,-1.7883,-2.0778,1.3422e-10,-0.89417,0,0,0.066667,-0,-0,0.66667
0.7034,0.3659,10.551,-0.20115,-30.379,363.22,5.6596,-1.8865,-1.8668,7.5461,3.8947e-12,-0.9334,0,0,0.066667,-6.3159e-16,0,0.66667
0.41745,0.89585,6.2618,0.59377,146.96,1243.9,-9.9149,3.305,-0.7434,-13.22,-4.5128e-12,-0.3717,0,0,0.066667,-0,-0,0.66667
0.46677,0.78309,7.0015,0.42463,99.466,1064,-7.9282,2.6427,-1.3637,-10.571,1.1322e-11,-0.68187,0,0,0.066667,-1.2632e-15,0,0.66667
0.30497,0.45951,4.5745,-0.060728,-16.489,1685,0.7408,-0.24693,-1.9805,0.98774,2.8714e-11,-0.99026,0,0,0.066667,-0,-0,0.66667
0.86917,0.59235,13.037,0.13853,10.085,76.561,-4.8163,1.6054,-1.9277,-6.4217,4.8068e-10,-0.96384,0,0,0.066667,4.737e-16,0,0.66667
0.46942,0.84225,7.0413,0.51337,119.91,1054.9,-9.6395,3.2132,-1.073,-12.853,8.3809e-12,-0.53648,0,0,0.066667,-1.579e-16,0,0.66667
0.80616,0.94861,12.092,0.67291,70.601,164.71,-21.699,7.2329,-0.38414,-28.932,-2.8118e-09,-0.19207,0,0,0.066667,-1.2632e-15,0,0.66667
0.8068,0.5848,12.102,0.1272,13.249,161.34,-4.105,1.3683,-1.9374,-5.4733,1.4597e-12,-0.96872,0,0,0.066667,-6.3159e-16,0,0.66667
0.55703,0.23813,8.3554,-0.39281,-81.112,762.62,8.7522,-2.9174,-1.4465,11.67,8.7086e-12,-0.72323,0,0,0.066667,-0,-0,0.66667
0.38613,0.75043,5.7919,0.37564,95.727,1362.2,-5.8018,1.9339,-1.4965,-7.7358,-5.2269e-13,-0.74826,0,0,0.066667,-1.2632e-15,0,0.66667
0.68707,0.25157,10.306,-0.37265,-58.857,401.99,10.241,-3.4138,-1.5173,13.655,-1.3367e-12,-0.75865,0,0,0.066667,2.5264e-15,0,0.66667
0.6809,0.43568,10.214,-0.096483,-15.47,416.29,2.6278,-0.87594,-1.962,3.5038,9.2868e-12,-0.981,0,0,0.066667,-1.4782e-15,0,0.66667
0.18194,0.85222,2.7291,0.52834,153.1,2208,-3.8451,1.2817,-1.0027,-5.1268,2.8238e-09,-0.50136,0,0,0.066667,-0,-0,0.66667
0.76415,0.2725,11.462,-0.34125,-42.438,236.24,10.431,-3.4769,-1.5917,13.908,1.4545e-11,-0.79583,0,0,0.066667,6.3159e-16,0,0.66667
0.16518,0.19291,2.4776,-0.46064,-134.25,2281.4,3.0434,-1.0145,-1.24,4.0579,3.7159e-09,-0.62,0,0,0.066667,6.3159e-16,0,0.66667
0.32411,0.22206,4.8616,-0.41691,-111.77,1607.3,5.4049,-1.8016,-1.3807,7.2066,3.6293e-11,-0.69035,0,0,0.066667,-0,-0,0.66667
0.87021,0.71548,13.053,0.32322,23.383,75.888,-11.251,3.7502,-1.6257,-15.001,3.2614e-09,-0.81284,0,0,0.066667,-3.158e-16,0,0.66667
0.57167,0.5681,8.575,0.10215,20.571,716.87,-2.3358,0.77859,-1.9575,-3.1144,-2.4312e-12,-0.97874,0,0,0.066667,1.2632e-15,0,0.66667
0.2566,0.0028742,3.849,-0.74569,-208.97,1887.4,7.6537,-2.5512,-0.017834,10.205,1.747e-11,-0.0089172,0,0,0.066667,-0,-0,0.66667
0.92392,0.57012,13.859,0.10518,4.5582,27.068,-3.8871,1.2957,-1.9644,-5.1828,1.3532e-07,-0.9822,0,0,0.066667,-2.5264e-15,0,0.66667
0.66058,0.12216,9.9087,-0.56676,-95.692,468.4,14.975,-4.9918,-0.85602,19.967,5.6994e-12,-0.42801,0,0,0.066667,-1.579e-15,0,0.66667
0.55451,0.9045,8.3177,0.60674,125.93,771.28,-13.458,4.4859,-0.68574,-17.944,-1.0304e-11,-0.34287,0,0,0.066667,3.158e-16,0,0.66667
0.99332,0.17595,14.9,-0.48607,-1.777,1.9069,19.313,-6.4376,-1.1538,25.75,-2.1403e-05,-0.5769,0,0,0.066667,-0,-0,0.66667
0.84555,0.95639,12.683,0.68458,58.473,107.74,-23.154,7.718,-0.33793,-30.872,-3.1506e-08,-0.16896,0,0,0.066667,-1.2632e-15,0,0.66667
0.67719,0.3039,10.158,-0.29415,-47.632,425.71,7.9679,-2.656,-1.6879,10.624,3.4577e-12,-0.84395,0,0,0.066667,6.3159e-16,0,0.66667
0.081731,0.85741,1.226,0.53612,159.61,2652.7,-1.7527,0.58423,-0.97672,-2.3369,-8.875e-08,-0.48836,0,0,0.066667,-0,-0,0.66667
0.36445,0.54278,5.4667,0.064174,16.658,1446.1,-0.93551,0.31184,-1.9811,-1.2474,1.6829e-11,-0.99053,0,0,0.066667,-6.3159e-16,0,0.66667
0.50217,0.48077,7.5325,-0.028847,-6.455,940.77,0.57945,-0.19315,-2,0.77259,1.3997e-11,-1,0,0,0.066667,-1.2632e-15,0,0.66667
0.61766,0.53276,9.2648,0.049133,9.088,582.14,-1.2139,0.40463,-1.9862,-1.6185,1.1788e-11,-0.9931,0,0,0.066667,-0,-0,0.66667
0.63988,0.045828,9.5982,-0.68126,-120.63,523.17,17.437,-5.8123,-0.35813,23.249,3.423e-12,-0.17907,0,0,0.066667,-0,-7.8595e-17,0.66667
0.72511,0.27032,10.877,-0.34452,-48.853,315.29,9.9926,-3.3309,-1.5721,13.323,-2.2791e-12,-0.78605,0,0,0.066667,-0,-0,0.66667
0.91024,0.80438,13.654,0.45656,23.318,38.344,-16.623,5.5411,-1.2569,-22.164,9.6897e-08,-0.62847,0,0,0.066667,-6.3159e-16,0,0.66667
0.56828,0.63492,8.5242,0.20238,40.997,727.36,-4.6003,1.5334,-1.8492,-6.1337,2.8706e-12,-0.92459,0,0,0.066667,-0,-0,0.66667
0.98027,0.7613,14.704,0.39194,4.428,3.1638,-15.368,5.1228,-1.4514,-20.491,-8.4572e-06,-0.72568,0,0,0.066667,2.5264e-15,0,0.66667
0.1132,0.87359,1.698,0.56038,165.82,2511.9,-2.5374,0.84579,-0.88297,-3.3832,5.566e-09,-0.44149,0,0,0.066667,5.9212e-17,0,0.66667
0.46568,0.67703,6.9852,0.26555,62.254,1067.5,-4.9465,1.6488,-1.7495,-6.5953,2.2209e-12,-0.87476,0,0,0.066667,-0,-0,0.66667
0.10167,0.90383,1.5251,0.60575,179.72,2563.4,-2.4635,0.82117,-0.68992,-3.2847,1.8407e-07,-0.34496,0,0,0.066667,1.579e-16,0,0.66667
0.74245,0.35396,11.137,-0.21906,-29.375,278.58,6.5057,-2.1686,-1.8229,8.6742,-3.6788e-12,-0.91147,0,0,0.066667,-1.2632e-15,0,0.66667
0.80683,0.7336,12.102,0.35039,36.53,161.88,-11.308,3.7694,-1.5582,-15.078,-1.3392e-10,-0.77908,0,0,0.066667,-1.2632e-15,0,0.66667
0.52316,0.14529,7.8474,-0.53207,-115.78,871.69,11.134,-3.7114,-0.98693,14.846,1.4674e-11,-0.49346,0,0,0.066667,-6.3159e-16,0,0.66667
0.43253,0.37518,6.488,-0.18723,-45.557,1187.1,3.2392,-1.0797,-1.8728,4.319,1.5099e-13,-0.93639,0,0,0.066667,1.2632e-15,0,0.66667
0.066995,0.60593,1.0049,0.1589,47.368,2718.8,-0.42582,0.14194,-1.9069,-0.56776,-2.731e-07,-0.95347,0,0,0.066667,-0,-0,0.66667
0.56461,0.93203,8.4692,0.64805,132.34,740.06,-14.636,4.8786,-0.51057,-19.515,1.0253e-11,-0.25529,0,0,0.066667,-9.4739e-16,0,0.66667
0.25483,0.3156,3.8224,-0.2766,-77.453,1894.1,2.8195,-0.93982,-1.7251,3.7593,-1.9076e-12,-0.86253,0,0,0.066667,-0,-0,0.66667
0.082332,0.29831,1.235,-0.30254,-89.998,2649.9,0.99634,-0.33211,-1.6718,1.3285,4.8801e-08,-0.8359,0,0,0.066667,-0,-0,0.66667
0.73371,0.39424,11.006,-0.15864,-21.884,296.55,4.6559,-1.552,-1.9193,6.2079,-6.8554e-12,-0.95963,0,0,0.066667,1.2632e-15,0,0.66667
0.74344,0.52461,11.152,0.036919,4.9326,276.32,-1.0979,0.36596,-1.9895,-1.4638,1.3414e-12,-0.99476,0,0,0.066667,-0,-0,0.66667
0.37108,0.52504,5.5662,0.037562,9.695,1420.2,-0.55754,0.18585,-1.9935,-0.74338,1.3402e-11,-0.99674,0,0,0.066667,6.3159e-16,0,0.66667
0.18447,0.35779,2.7671,-0.21331,-61.7,2196.7,1.574,-0.52466,-1.8384,2.0987,5.4984e-11,-0.91922,0,0,0.066667,3.158e-16,0,0.66667
0.51289,0.28806,7.6933,-0.3179,-70.131,905.07,6.522,-2.174,-1.6423,8.696,3.0305e-12,-0.82113,0,0,0.066667,1.2632e-15,0,0.66667
0.093456,0.74398,1.4018,0.36597,108.67,2600,-1.3681,0.45603,-1.5347,-1.8241,-2.9017e-08,-0.76736,0,0,0.066667,2.1324e-16,0,0.66667
0.77844,0.91715,11.677,0.62572,73.854,211.32,-19.483,6.4945,-0.60891,-25.978,2.1112e-11,-0.30445,0,0,0.066667,-0,-0,0.66667
0.47595,0.27968,7.1393,-0.33048,-76.529,1031.4,6.2918,-2.0973,-1.6065,8.389,1.5374e-12,-0.80325,0,0,0.066667,7.8949e-17,0,0.66667
0.96096,0.35202,14.414,-0.22197,-4.9794,7.9133,8.5323,-2.8441,-1.8185,11.376,-7.7005e-07,-0.90926,0,0,0.066667,-0,-0,0.66667
0.10902,0.097227,1.6353,-0.60416,-178.97,2530.5,2.6346,-0.87821,-0.71324,3.5128,-2.5075e-07,-0.35662,0,0,0.066667,-3.158e-16,-3.1227e-17,0.66667
0.69796,0.66861,10.469,0.25292,38.782,375.91,-7.061,2.3537,-1.7681,-9.4147,9.5923e-13,-0.88403,0,0,0.066667,-0,-0,0.66667
0.80356,0.17973,12.053,-0.4804,-50.895,167.69,15.441,-5.1471,-1.1736,20.588,-8.0931e-10,-0.58678,0,0,0.066667,-0,-0,0.66667
0.72687,0.99026,10.903,0.73538,104.04,313.55,-21.381,7.1271,-0.070795,-28.508,-3.8156e-12,-0.035398,0,0,0.066667,-1.034e-15,0,0.66667
0.46145,0.58701,6.9218,0.13051,30.743,1082.3,-2.4091,0.80302,-1.9334,-3.2121,-7.6807e-12,-0.9667,0,0,0.066667,-4.2561e-17,0,0.66667
0.54611,0.65954,8.1917,0.23931,50.256,796.66,-5.2275,1.7425,-1.8057,-6.9701,-2.2133e-12,-0.90284,0,0,0.066667,-0,-0,0.66667
0.61519,0.61921,9.2278,0.17882,33.245,589.19,-4.4004,1.4668,-1.8815,-5.8671,4.9294e-12,-0.94075,0,0,0.066667,-0,-0,0.66667
0.059105,0.57011,0.88658,0.10517,31.381,2754.3,-0.24865,0.082882,-1.9603,-0.33153,-1.2028e-07,-0.98015,0,0,0.066667,-0,-0,0.66667
0.99567,0.70411,14.935,0.30616,0.64423,0.79852,-12.194,4.0645,-1.6637,-16.258,4.5405e-06,-0.83185,0,0,0.066667,-0,-0,0.66667
0.25491,0.65454,3.8236,0.23182,64.904,1893.7,-2.3637,0.78789,-1.8061,-3.1516,2.7899e-11,-0.90307,0,0,0.066667,-3.9475e-16,0,0.66667
0.64341,0.60733,9.6511,0.16099,28.214,511.88,-4.1433,1.3811,-1.9088,-5.5245,-4.3547e-12,-0.9544,0,0,0.066667,1.2632e-15,0,0.66667
0.12643,0.1123,1.8965,-0.58154,-171.54,2452.9,2.9411,-0.98035,-0.80313,3.9214,8.0237e-08,-0.40157,0,0,0.066667,-0,-0,0.66667
0.16786,0.05337,2.5179,-0.66994,-195.24,2269.9,4.4984,-1.4995,-0.40213,5.9978,-2.6939e-08,-0.20107,0,0,0.066667,-0,-0,0.66667
0.4911,0.17172,7.3666,-0.49242,-111.93,979.3,9.6732,-3.2244,-1.1315,12.898,1.2119e-11,-0.56577,0,0,0.066667,-0,-0,0.66667
0.2885,0.73032,4.3275,0.34548,94.858,1753.1,-3.9868,1.3289,-1.5692,-5.3158,6.3749e-12,-0.78458,0,0,0.066667,-6.3159e-16,0,0.66667
0.50424,0.043184,7.5636,-0.68522,-153.23,935.34,13.821,-4.6069,-0.32781,18.428,1.9408e-11,-0.1639,0,0,0.066667,-0,-0,0.66667
0.10218,0.47686,1.5327,-0.034713,-10.285,2560.9,0.14188,-0.047293,-1.9896,0.18917,6.037e-09,-0.99478,0,0,0.066667,-0,-0,0.66667
0.41929,0.31207,6.2894,-0.28189,-69.558,1236.3,4.7278,-1.5759,-1.7206,6.3037,1.5366e-11,-0.86031,0,0,0.066667,-3.9475e-17,0,0.66667
0.2686,0.46217,4.029,-0.056748,-15.763,1835.9,0.6097,-0.20323,-1.9895,0.81294,4.2076e-11,-0.99473,0,0,0.066667,4.737e-16,0,0.66667
0.5819,0.95133,8.7285,0.677,134.25,687.66,-15.758,5.2526,-0.36864,-21.01,-1.6565e-12,-0.18432,0,0,0.066667,-0,-0,0.66667
0.17171,0.71153,2.5756,0.31729,92.228,2252.6,-2.1792,0.7264,-1.6534,-2.9056,3.4292e-10,-0.8267,0,0,0.066667,-1.579e-16,0,0.66667
0.96232,0.3213,14.435,-0.26806,-5.8093,7.5698,10.318,-3.4394,-1.7388,13.758,-9.1536e-07,-0.86938,0,0,0.066667,-0,-0,0.66667
0.54421,0.36037,8.1632,-0.20944,-44.111,802.66,4.5592,-1.5197,-1.8453,6.0789,1.0945e-11,-0.92266,0,0,0.066667,-0,-0,0.66667
0.70195,0.51346,10.529,0.020196,3.0616,366.37,-0.56706,0.18902,-2.0051,-0.75608,1.0986e-11,-1.0026,0,0,0.066667,-2.5264e-15,0,0.66667
0.93237,0.113,13.985,-0.5805,-22.624,23.652,21.65,-7.2165,-0.79743,28.866,-7.3336e-07,-0.39871,0,0,0.066667,1.2632e-15,0,0.66667
0.34537,0.84351,5.1805,0.51526,135.98,1522.2,-7.1182,2.3727,-1.0625,-9.4909,5.413e-12,-0.53126,0,0,0.066667,-8.9805e-16,0,0.66667
0.51572,0.419,7.7358,-0.12149,-26.685,895.36,2.5063,-0.83543,-1.9588,3.3417,8.8873e-12,-0.97939,0,0,0.066667,-0,-0,0.66667
0.78659,0.039177,11.799,-0.69124,-79.004,197.41,21.749,-7.2496,-0.29671,28.998,2.9824e-10,-0.14835,0,0,0.066667,-0,-0,0.66667
0.06941,0.32548,1.0412,-0.26179,-78.024,2708,0.72683,-0.24227,-1.7499,0.9691,3.9768e-07,-0.87497,0,0,0.066667,1.579e-16,0,0.66667
0.75322,0.42424,11.298,-0.11364,-14.685,256.81,3.4238,-1.1413,-1.9538,4.5651,2.828e-12,-0.97689,0,0,0.066667,-0,-0,0.66667
0.11748,0.95419,1.7622,0.68128,201.49,2492.9,-3.2015,1.0672,-0.34306,-4.2686,4.2292e-07,-0.17153,0,0,0.066667,-0,-0,0.66667
0.38913,0.64055,5.837,0.21082,53.556,1350.4,-3.2814,1.0938,-1.8473,-4.3753,1.2302e-11,-0.92364,0,0,0.066667,-0,-0,0.66667
0.69699,0.57905,10.455,0.11858,18.224,377.93,-3.3059,1.102,-1.9442,-4.4079,3.7448e-12,-0.97209,0,0,0.066667,-0,-0,0.66667
0.059872,0.71595,0.89808,0.32393,96.676,2750.9,-0.77576,0.25859,-1.6295,-1.0343,-2.0945e-07,-0.81473,0,0,0.066667,1.1842e-16,0,0.66667
0.66498,0.064142,9.9747,-0.65379,-109.31,457.68,17.39,-5.7968,-0.47517,23.187,1.1589e-11,-0.23759,0,0,0.066667,-2.5264e-15,0,0.66667
0.97191,0.60156,14.579,0.15234,2.4458,4.2632,-5.9224,1.9741,-1.9177,-7.8966,-1.9108e-06,-0.95886,0,0,0.066667,-0,-0,0.66667
0.24942,0.25854,3.7413,-0.36219,-101.73,1917,3.6135,-1.2045,-1.543,4.818,2.9689e-11,-0.77148,0,0,0.066667,-0,-0,0.66667
0.25914,0.33311,3.8871,-0.25034,-69.929,1875.8,2.5949,-0.86496,-1.7712,3.4598,1.9393e-11,-0.8856,0,0,0.066667,-3.158e-16,0,0.66667
0.087231,0.61674,1.3085,0.1751,52.035,2627.9,-0.61098,0.20366,-1.8852,-0.81464,-1.2069e-08,-0.9426,0,0,0.066667,7.8949e-17,0,0.66667
0.093025,0.68387,1.3954,0.27581,81.888,2601.9,-1.0263,0.3421,-1.7389,-1.3684,-1.0942e-08,-0.86946,0,0,0.066667,-3.9475e-17,0,0.66667
0.31441,0.11066,4.7161,-0.584,-157.75,1647.1,7.3446,-2.4482,-0.79115,9.7927,3.2903e-11,-0.39557,0,0,0.066667,-0,-0,0.66667
0.83253,0.30777,12.488,-0.28835,-26.404,123.18,9.6023,-3.2008,-1.702,12.803,3.5955e-10,-0.85101,0,0,0.066667,-3.158e-16,0,0.66667
0.51242,0.21617,7.6863,-0.42575,-94.02,906.91,8.7265,-2.9088,-1.3564,11.635,1.3912e-11,-0.67819,0,0,0.066667,-1.6409e-16,0,0.66667
0.38564,0.8473,5.7846,0.52094,132.88,1364.4,-8.0359,2.6786,-1.0318,-10.714,-5.1292e-12,-0.51592,0,0,0.066667,-0,-0,0.66667
0.1825,0.9761,2.7376,0.71415,207.07,2205.8,-5.2134,1.7378,-0.18281,-6.9512,1.427e-08,-0.091404,0,0,0.066667,-0,-0,0.66667
0.97602,0.47668,14.64,-0.03498,-0.47695,3.085,1.3657,-0.45522,-1.9895,1.8209,6.406e-07,-0.99474,0,0,0.066667,-0,-0,0.66667
0.74144,0.91258,11.122,0.61886,83.481,282.3,-18.354,6.118,-0.63235,-24.472,1.2228e-10,-0.31618,0,0,0.066667,-0,-0,0.66667
0.34016,0.79368,5.1025,0.44052,116.69,1542.8,-5.9939,1.998,-1.3088,-7.9919,7.212e-12,-0.65439,0,0,0.066667,-0,-0,0.66667
0.92233,0.0018629,13.835,-0.74721,-33.464,31.524,27.567,-9.189,-0.025753,36.756,4.9739e-06,-0.012877,0,0,0.066667,5.0527e-15,0,0.66667
0.58633,0.84497,8.795,0.51746,101.71,673.7,-12.136,4.0454,-1.0428,-16.181,-2.1712e-11,-0.52139,0,0,0.066667,2.5264e-15,0,0.66667
0.2652,0.4424,3.978,-0.086401,-24.048,1850.2,0.91653,-0.30551,-1.984,1.222,2.3839e-11,-0.99198,0,0,0.066667,-0,-0,0.66667
0.48157,0.46284,7.2235,-0.055736,-12.811,1011.5,1.0736,-0.35788,-1.9905,1.4315,-1.3772e-12,-0.99523,0,0,0.066667,9.4739e-16,0,0.66667
0.43439,0.6225,6.5158,0.18375,44.623,1180.3,-3.1928,1.0643,-1.8811,-4.2571,-1.2551e-11,-0.94055,0,0,0.066667,6.3159e-16,0,0.66667
0.3025,0.62677,4.5375,0.19016,51.725,1695.2,-2.301,0.76699,-1.8675,-3.068,2.1907e-12,-0.93376,0,0,0.066667,1.2632e-15,0,0.66667
0.65676,0.83246,9.8514,0.49869,84.914,477.88,-13.101,4.367,-1.1252,-17.468,-3.7748e-13,-0.5626,0,0,0.066667,6.3159e-16,0,0.66667
0.79219,0.17371,11.883,-0.48944,-54.521,186.55,15.509,-5.1698,-1.1445,20.679,9.3718e-11,-0.57227,0,0,0.066667,-0,-0,0.66667
0.35326,0.69306,5.299,0.2896,75.893,1490.4,-4.0922,1.3641,-1.6967,-5.4562,-9.5737e-12,-0.84836,0,0,0.066667,1.2632e-15,0,0.66667
0.43787,0.45644,6.5681,-0.065336,-15.805,1167.5,1.1444,-0.38145,-1.9948,1.5258,1.1333e-11,-0.99741,0,0,0.066667,-6.3159e-16,0,0.66667
0.96304,0.018192,14.446,-0.72271,-15.702,10.212,27.84,-9.28,-0.13766,37.12,-2.4679e-05,-0.068828,0,0,0.066667,-2.2809e-15,0,0.66667
0.25951,0.47543,3.8927,-0.036859,-10.291,1874.1,0.38261,-0.12754,-1.9899,0.51015,2.4094e-11,-0.99496,0,0,0.066667,-0,-0,0.66667
0.71926,0.8446,10.789,0.5169,74.688,328.72,-14.871,4.9571,-1.0609,-19.828,4.1398e-12,-0.53044,0,0,0.066667,-0,-0,0.66667
0.85114,0.21637,12.767,-0.42545,-35.003,98.961,14.485,-4.8282,-1.351,19.313,6.841e-09,-0.67551,0,0,0.066667,2.1468e-15,0,0.66667
0.74183,0.96338,11.127,0.69508,93.712,281.99,-20.625,6.8751,-0.2763,-27.5,-3.7463e-12,-0.13815,0,0,0.066667,9.4739e-16,0,0.66667
0.21655,0.87343,3.2483,0.56015,160.02,2057.8,-4.8521,1.6174,-0.88854,-6.4695,7.0258e-10,-0.44427,0,0,0.066667,-3.5527e-16,0,0.66667
0.43531,0.60887,6.5296,0.1633,39.616,1176.9,-2.8434,0.94781,-1.908,-3.7912,2.1338e-13,-0.95399,0,0,0.066667,-0,-0,0.66667
0.60876,0.65497,9.1314,0.23245,43.77,607.51,-5.6603,1.8868,-1.8182,-7.547,1.0059e-11,-0.90909,0,0,0.066667,-1.8948e-15,0,0.66667
0.59156,0.56195,8.8733,0.09293,18.07,657.22,-2.1989,0.73298,-1.9737,-2.9319,-6.0796e-13,-0.98684,0,0,0.066667,-7.8949e-17,0,0.66667
0.95189,0.15731,14.278,-0.51403,-14.323,12.95,19.572,-6.524,-1.0683,26.096,-4.0831e-06,-0.53414,0,0,0.066667,2.5264e-15,0,0.66667
0.3584,0.072437,5.376,-0.64134,-167.59,1470.9,9.1944,-3.0648,-0.54511,12.259,6.8203e-12,-0.27256,0,0,0.066667,-0,-6.8488e-17,0.66667
0.53179,0.92257,7.9769,0.63385,136.27,843.89,-13.483,4.4944,-0.58067,-17.978,-1.8598e-12,-0.29034,0,0,0.066667,-0,-0,0.66667
0.39838,0.20662,5.9757,-0.44007,-110.9,1315.4,7.0126,-2.3375,-1.3048,9.3501,1.1257e-11,-0.65242,0,0,0.066667,-1.1034e-15,0,0.66667
0.61473,0.051728,9.2209,-0.67241,-125.42,592.21,16.534,-5.5113,-0.38772,22.045,7.1214e-12,-0.19386,0,0,0.066667,-0,-0,0.66667
0.46485,0.25474,6.9727,-0.36788,-86.354,1070.6,6.8404,-2.2801,-1.5175,9.1205,3.5185e-12,-0.75877,0,0,0.066667,-0,-0,0.66667
0.95549,0.54183,14.332,0.062752,1.6023,9.7548,-2.3984,0.79946,-1.9884,-3.1978,-4.2037e-08,-0.99421,0,0,0.066667,-0,-0,0.66667
0.70849,0.44988,10.627,-0.07518,-11.189,351.47,2.1306,-0.71018,-1.9751,2.8407,5.0753e-12,-0.98755,0,0,0.066667,-1.2632e-15,0,0.66667
0.49885,0.94631,7.4827,0.66946,150.78,953.53,-13.358,4.4528,-0.41345,-17.811,6.5157e-12,-0.20673,0,0,0.066667,-0,-0,0.66667
0.49291,0.27747,7.3936,-0.33379,-75.652,972.69,6.5812,-2.1937,-1.5983,8.7749,6.5277e-12,-0.79916,0,0,0.066667,9.4739e-16,0,0.66667
0.2485,0.39876,3.7274,-0.15187,-42.661,1920.8,1.5095,-0.50317,-1.9237,2.0127,7.1717e-12,-0.96186,0,0,0.066667,-1.579e-16,0,0.66667
0.21539,0.16364,3.2308,-0.50455,-144.18,2062.8,4.3469,-1.449,-1.0946,5.7959,-5.9062e-10,-0.54731,0,0,0.066667,-0,-0,0.66667
0.38386,0.34359,5.7579,-0.23461,-59.89,1370.7,3.6024,-1.2008,-1.7996,4.8031,-1.3779e-11,-0.89981,0,0,0.066667,3.454e-17,0,0.66667
0.26942,0.35289,4.0413,-0.22066,-61.275,1832.6,2.378,-0.79266,-1.8253,3.1706,3.3319e-11,-0.91267,0,0,0.066667,-0,-0,0.66667
0.29831,0.33635,4.4746,-0.24547,-66.959,1712.5,2.929,-0.97632,-1.7918,3.9053,2.6894e-11,-0.89589,0,0,0.066667,-0,-0,0.66667
0.21497,0.020409,3.2246,-0.71939,-205.81,2064.9,6.186,-2.062,-0.15832,8.248,-1.3658e-09,-0.079159,0,0,0.066667,-0,-0,0.66667
0.43072,0.15501,6.4607,-0.51749,-126.29,1194.5,8.9156,-2.9719,-1.0429,11.887,2.218e-11,-0.52147,0,0,0.066667,7.8949e-17,0,0.66667
0.23735,0.75909,3.5602,0.38863,109.86,1968.4,-3.6897,1.2299,-1.4636,-4.9196,1.1534e-11,-0.73182,0,0,0.066667,-0,-0,0.66667
0.42905,0.17085,6.4357,-0.49372,-120.69,1200.6,8.4732,-2.8244,-1.1268,11.298,1.3451e-11,-0.56338,0,0,0.066667,-6.3159e-16,0,0.66667
0.73823,0.60584,11.073,0.15875,21.582,287.14,-4.6879,1.5626,-1.9085,-6.2505,-4.1256e-13,-0.95425,0,0,0.066667,-0,-0,0.66667
0.19031,0.11985,2.8547,-0.57023,-164.73,2171.5,4.3409,-1.447,-0.84547,5.7878,5.594e-11,-0.42274,0,0,0.066667,-3.9475e-16,0,0.66667
0.98048,0.16187,14.707,-0.50719,-5.7218,3.8001,19.892,-6.6306,-1.0839,26.522,1.6346e-05,-0.54197,0,0,0.066667,2.5264e-15,0,0.66667
0.25094,0.1722,3.7641,-0.4917,-138.06,1910.8,4.9355,-1.6452,-1.1479,6.5806,2.9004e-11,-0.57394,0,0,0.066667,-3.158e-16,0,0.66667
0.091928,0.4598,1.3789,-0.060295,-17.901,2606.8,0.22171,-0.073904,-1.9915,0.29561,2.5176e-08,-0.99574,0,0,0.066667,-7.8949e-17,0,0.66667
0.6622,0.95684,9.9331,0.68526,115.36,464.91,-18.151,6.0505,-0.32482,-24.202,5.1159e-12,-0.16241,0,0,0.066667,-0,-0,0.66667
0.12414,0.13506,1.862,-0.54741,-161.54,2463.1,2.7181,-0.90604,-0.94258,3.6242,1.0918e-07,-0.47129,0,0,0.066667,-0,7.7119e-17,0.66667
0.45854,0.48308,6.8782,-0.025377,-5.9976,1092.7,0.46546,-0.15515,-1.9928,0.62062,-5.7182e-12,-0.99638,0,0,0.066667,-0,-0,0.66667
0.55491,0.83972,8.3237,0.50959,105.64,769.63,-11.311,3.7703,-1.071,-15.081,1.5392e-12,-0.53549,0,0,0.066667,-0,-0,0.66667
0.91222,0.64111,13.683,0.21167,10.545,35.798,-7.7234,2.5745,-1.8351,-10.298,2.7972e-09,-0.91753,0,0,0.066667,1.2632e-15,0,0.66667
0.84078,0.79813,12.612,0.44719,39.151,112.53,-15.04,5.0132,-1.2893,-20.053,-8.1555e-10,-0.64467,0,0,0.066667,-1.2632e-15,0,0.66667
0.47647,0.52464,7.1471,0.036956,8.5482,1029.3,-0.70433,0.23478,-1.989,-0.93911,1.0871e-11,-0.99452,0,0,0.066667,-0,-0,0.66667
0.8806,0.82029,13.209,0.48043,32.198,65.492,-16.923,5.6409,-1.1745,-22.564,1.4302e-08,-0.58727,0,0,0.066667,-0,-0,0.66667
0.81353,0.16821,12.203,-0.49769,-50.328,152.05,16.195,-5.3985,-1.1265,21.594,2.3273e-09,-0.56326,0,0,0.066667,-0,-0,0.66667
0.19464,0.39622,2.9196,-0.15566,-44.843,2152.3,1.2119,-0.40398,-1.9075,1.6159,-1.1908e-11,-0.95376,0,0,0.066667,1.579e-16,0,0.66667
0.67245,0.58822,10.087,0.13233,21.673,437.13,-3.5595,1.1865,-1.9475,-4.746,-4.0326e-12,-0.97375,0,0,0.066667,1.579e-15,0,0.66667
0.71923,0.41989,10.788,-0.12017,-17.334,327.58,3.4572,-1.1524,-1.9582,4.6096,-4.3188e-13,-0.97908,0,0,0.066667,-0,-0,0.66667
0.65257,0.12506,9.7886,-0.56241,-96.729,489.03,14.681,-4.8935,-0.8755,19.574,4.6363e-13,-0.43775,0,0,0.066667,2.5264e-15,0,0.66667
0.40566,0.80602,6.0849,0.45903,114.88,1287.9,-7.4483,2.4828,-1.2604,-9.9311,1.4483e-11,-0.63019,0,0,0.066667,-3.158e-16,0,0.66667
0.04361,0.98809,0.65416,0.73213,219.2,2824.4,-1.2771,0.42571,-0.093894,-1.7029,-1.634e-06,-0.046947,0,0,0.066667,-1.2171e-17,0,0.66667
0.37899,0.23112,5.6849,-0.40332,-103.45,1389.8,6.1142,-2.0381,-1.4194,8.1523,8.2632e-12,-0.7097,0,0,0.066667,-0,-0,0.66667
0.033161,0.86161,0.49742,0.54241,162.39,2871.4,-0.71949,0.23983,-0.95777,-0.95932,4.0389e-06,-0.47888,0,0,0.066667,-0,-0,0.66667
0.2442,0.48693,3.6631,-0.019599,-5.5177,1939,0.19145,-0.063816,-1.9932,0.25526,4.1497e-12,-0.99661,0,0,0.066667,3.158e-16,0,0.66667
0.84278,0.47684,12.642,-0.034735,-2.9988,108.74,1.171,-0.39033,-2.0035,1.5613,-1.5234e-10,-1.0017,0,0,0.066667,-0,-0,0.66667
0.47471,0.64723,7.1207,0.22085,51.206,1035.6,-4.1936,1.3979,-1.8212,-5.5914,5.3735e-14,-0.91062,0,0,0.066667,6.3159e-16,0,0.66667
0.19554,0.60545,2.9331,0.15817,45.548,2148.4,-1.2371,0.41238,-1.9045,-1.6495,-1.6751e-12,-0.95225,0,0,0.066667,-3.158e-16,0,0.66667
0.93344,0.088897,14.002,-0.61665,-23.691,23.275,23.024,-7.6748,-0.64632,30.699,-2.4002e-07,-0.32316,0,0,0.066667,-0,-0,0.66667
0.17584,0.69495,2.6377,0.29243,84.872,2234.5,-2.0569,0.68563,-1.6942,-2.7425,6.8131e-11,-0.84708,0,0,0.066667,-0,-0,0.66667
0.71019,0.86153,10.653,0.54229,80.482,348.99,-15.405,5.1351,-0.94791,-20.54,2.1938e-12,-0.47395,0,0,0.066667,-1.2632e-15,0,0.66667
0.25216,0.30615,3.7824,-0.29077,-81.54,1905.4,2.9328,-0.9776,-1.7029,3.9104,7.0515e-12,-0.85145,0,0,0.066667,4.737e-16,0,0.66667
0.12576,0.67788,1.8863,0.26683,78.646,2455.7,-1.3422,0.4474,-1.7554,-1.7896,2.0961e-09,-0.87769,0,0,0.066667,-0,-0,0.66667
0.42352,0.61043,6.3528,0.16565,40.689,1220.4,-2.8063,0.93542,-1.9072,-3.7417,-4.5228e-12,-0.95359,0,0,0.066667,6.3159e-16,0,0.66667
0.30687,0.21702,4.6031,-0.42447,-115.18,1677.5,5.2103,-1.7368,-1.3555,6.9471,2.5553e-11,-0.67775,0,0,0.066667,-6.3159e-16,0,0.66667
0.55624,0.17689,8.3435,-0.48466,-100.25,765.39,10.783,-3.5945,-1.159,14.378,9.6918e-12,-0.57952,0,0,0.066667,6.3159e-16,0,0.66667
0.0056956,0.16886,0.085434,-0.49671,-148.85,2995.5,0.11315,-0.037706,-1.1175,0.15087,1.6461e-05,-0.55876,0,0,0.066667,-0,-0,0.66667
0.40187,0.72846,6.0281,0.34268,86.044,1301.9,-5.5086,1.8362,-1.5796,-7.3449,1.0365e-11,-0.78979,0,0,0.066667,-0,-0,0.66667
0.32437,0.085679,4.8656,-0.62148,-166.71,1606.7,8.0637,-2.6879,-0.62538,10.752,4.7609e-11,-0.31269,0,0,0.066667,-3.158e-16,0,0.66667
0.20888,0.59186,3.1332,0.13778,39.454,2090.6,-1.1512,0.38373,-1.9284,-1.5349,3.2958e-11,-0.96421,0,0,0.066667,3.9475e-17,0,0.66667
0.7647,0.14669,11.47,-0.52996,-65.863,236.04,16.21,-5.4035,-1.0092,21.614,-1.2825e-10,-0.50459,0,0,0.066667,-6.3159e-16,-1.0509e-16,0.66667
0.21573,0.59044,3.2359,0.13565,38.726,2061,-1.1706,0.39019,-1.9358,-1.5608,3.3731e-11,-0.96792,0,0,0.066667,-7.8949e-17,0,0.66667
0.36723,0.19459,5.5084,-0.45811,-118.73,1435.7,6.7293,-2.2431,-1.2476,8.9724,1.6015e-11,-0.62382,0,0,0.066667,-0,-0,0.66667
0.061462,0.39229,0.92193,-0.16157,-48.198,2743.7,0.39722,-0.13241,-1.9143,0.52962,2.654e-07,-0.95715,0,0,0.066667,-0,-0,0.66667
0.79907,0.030563,11.986,-0.70416,-76.313,176.41,22.507,-7.5023,-0.24137,30.009,-5.4025e-09,-0.12069,0,0,0.066667,1.579e-16,0,0.66667
0.85776,0.92974,12.866,0.64461,51.002,92.123,-22.117,7.3723,-0.52787,-29.489,-5.433e-08,-0.26394,0,0,0.066667,1.2632e-15,0,0.66667
0.979,0.76823,14.685,0.40235,4.8483,3.4729,-15.756,5.252,-1.4196,-21.008,-1.0815e-05,-0.70979,0,0,0.066667,-0,-0,0.66667
0.95064,0.52667,14.26,0.040011,1.1324,11.841,-1.5214,0.50715,-1.997,-2.0286,3.4069e-08,-0.99851,0,0,0.066667,-1.2632e-15,0,0.66667
0.48709,0.67411,7.3063,0.26117,59.627,992.56,-5.0885,1.6962,-1.7586,-6.7846,2.7369e-12,-0.87932,0,0,0.066667,-0,-0,0.66667
0.29631,0.18938,4.4447,-0.46594,-127.34,1721,5.5225,-1.8408,-1.2385,7.3634,1.0369e-11,-0.61926,0,0,0.066667,-0,-0,0.66667
0.69417,0.60314,10.412,0.15471,23.962,384.61,-4.2958,1.4319,-1.9089,-5.7277,5.9868e-12,-0.95445,0,0,0.066667,-0,-0,0.66667
0.72461,0.63265,10.869,0.19898,28.244,316,-5.7673,1.9224,-1.8541,-7.6898,4.6896e-13,-0.92707,0,0,0.066667,-0,-0,0.66667
0.86836,0.68137,13.025,0.27205,19.936,77.79,-9.4494,3.1498,-1.7312,-12.599,3.1237e-09,-0.86561,0,0,0.066667,-1.2632e-15,0,0.66667
0.20632,0.21398,3.0948,-0.42903,-123.06,2101.8,3.5407,-1.1802,-1.3461,4.721,1.4015e-11,-0.67304,0,0,0.066667,-7.8949e-17,0,0.66667
0.39895,0.35357,5.9843,-0.21965,-55.29,1312.9,3.5052,-1.1684,-1.8221,4.6736,7.2724e-12,-0.91105,0,0,0.066667,-0,-0,0.66667
0.78884,0.11693,11.833,-0.5746,-64.974,192.74,18.131,-6.0436,-0.81982,24.174,6.8394e-10,-0.40991,0,0,0.066667,6.3159e-16,0,0.66667
0.22269,0.9841,3.3403,0.72615,207.01,2031.8,-6.4681,2.156,-0.12303,-8.6242,-2.1813e-11,-0.061513,0,0,0.066667,-3.158e-16,0,0.66667
0.48218,0.71631,7.2327,0.32446,74.554,1009.7,-6.258,2.086,-1.6297,-8.344,3.6273e-12,-0.81485,0,0,0.066667,-6.4674e-16,0,0.66667
0.78097,0.98027,11.714,0.7204,84.274,207.49,-22.504,7.5015,-0.16519,-30.006,-5.94e-10,-0.082593,0,0,0.066667,-1.2632e-15,0,0.66667
0.60466,0.8741,9.0699,0.56114,106.65,620.31,-13.572,4.524,-0.87814,-18.096,1.0052e-11,-0.43907,0,0,0.066667,-4.2894e-16,0,0.66667
0.19904,0.019905,2.9856,-0.72014,-207.45,2133.8,5.7335,-1.9112,-0.1537,7.6447,4.0601e-09,-0.076848,0,0,0.066667,-6.3159e-16,0,0.66667
0.49234,0.79671,7.3851,0.44506,100.98,974.92,-8.7648,2.9216,-1.2891,-11.686,-4.4578e-12,-0.64453,0,0,0.066667,-0,-0,0.66667
0.98027,0.33228,14.704,-0.25158,-2.8178,2.5724,9.8645,-3.2882,-1.7725,13.153,3.8245e-06,-0.88627,0,0,0.066667,-0,-0,0.66667
0.19192,0.006661,2.8787,-0.74001,-213.81,2164.8,5.6808,-1.8936,-0.050282,7.5744,3.8823e-10,-0.025141,0,0,0.066667,-0,-0,0.66667
0.24271,0.98931,3.6406,0.73397,207.2,1946.2,-7.1256,2.3752,-0.078169,-9.5008,8.5994e-11,-0.039084,0,0,0.066667,3.158e-16,0,0.66667
0.41545,0.075015,6.2318,-0.63748,-158.13,1251.6,10.594,-3.5312,-0.54908,14.125,1.259e-11,-0.27454,0,0,0.066667,-0,-0,0.66667
0.79504,0.88159,11.926,0.57238,63.035,182.21,-18.203,6.0676,-0.83975,-24.27,3.4251e-10,-0.41988,0,0,0.066667,-0,-0,0.66667
0.85992,0.20208,12.899,-0.44688,-34.76,88.295,15.371,-5.1237,-1.2991,20.495,-7.7877e-09,-0.64956,0,0,0.066667,-0,-0,0.66667
0.76878,0.93642,11.532,0.65463,80.226,229.14,-20.131,6.7103,-0.47759,-26.841,-1.9287e-09,-0.23879,0,0,0.066667,-0,-0,0.66667
0.42266,0.42529,6.3399,-0.11206,-27.55,1223.6,1.8946,-0.63153,-1.9636,2.5261,-2.6453e-12,-0.98179,0,0,0.066667,-0,-0,0.66667
0.26259,0.41026,3.9389,-0.1346,-37.521,1861.2,1.4138,-0.47128,-1.9367,1.8851,2.1107e-11,-0.96835,0,0,0.066667,-6.3159e-16,0,0.66667
0.59111,0.54918,8.8666,0.073766,14.355,658.53,-1.7441,0.58138,-1.982,-2.3255,-2.9238e-12,-0.99102,0,0,0.066667,-0,-0,0.66667
0.55633,0.69535,8.3449,0.29302,60.554,764.55,-6.5206,2.1735,-1.6893,-8.6941,-2.2449e-12,-0.84464,0,0,0.066667,-0,-0,0.66667
0.32302,0.30077,4.8453,-0.29885,-80.154,1611.5,3.8614,-1.2871,-1.6781,5.1485,3.2807e-11,-0.83904,0,0,0.066667,-6.6734e-17,0,0.66667
0.2448,0.59919,3.6721,0.14879,41.878,1936.5,-1.4569,0.48565,-1.9174,-1.9426,1.1139e-11,-0.9587,0,0,0.066667,-0,-0,0.66667
0.62917,0.66007,9.4376,0.2401,43.391,550.44,-6.0426,2.0142,-1.7933,-8.0568,-1.0028e-11,-0.89665,0,0,0.066667,2.5264e-15,0,0.66667
0.36144,0.13262,5.4216,-0.55107,-143.58,1458.6,7.9671,-2.6557,-0.92394,10.623,1.4968e-11,-0.46197,0,0,0.066667,1.2632e-15,0,0.66667
0.44656,0.0040602,6.6984,-0.74391,-178.66,1137.5,13.288,-4.4293,-0.02708,17.717,6.6969e-12,-0.01354,0,0,0.066667,-0,-0,0.66667
0.42369,0.47054,6.3553,-0.044197,-10.853,1219.7,0.74903,-0.24968,-1.9985,0.99871,3.1944e-12,-0.99926,0,0,0.066667,-0,-0,0.66667
0.60498,0.78444,9.0747,0.42666,80.983,618.85,-10.325,3.4417,-1.3507,-13.767,7.8639e-12,-0.67533,0,0,0.066667,-2.5264e-15,0,0.66667
0.067117,0.11203,1.0068,-0.58195,-173.66,2718.4,1.5624,-0.52078,-0.79229,2.0831,4.7729e-07,-0.39614,0,0,0.066667,-0,-0,0.66667
0.46478,0.8614,6.9718,0.5421,127.35,1071.4,-10.078,3.3595,-0.95291,-13.438,2.0623e-11,-0.47646,0,0,0.066667,-0,-0,0.66667
0.93632,0.049022,14.045,-0.67647,-24.951,22.072,25.336,-8.4452,-0.37952,33.781,8.2208e-06,-0.18976,0,0,0.066667,-0,-0,0.66667
0.14808,0.36654,2.2213,-0.20019,-58.632,2356.6,1.1858,-0.39527,-1.8512,1.5811,-3.1792e-10,-0.92561,0,0,0.066667,-0,-0,0.66667
0.88159,0.62735,13.224,0.19102,12.664,63.335,-6.736,2.2453,-1.8653,-8.9814,-3.3134e-09,-0.93264,0,0,0.066667,-0,-0,0.66667
0.19859,0.79705,2.9789,0.44558,128.23,2135.4,-3.5395,1.1798,-1.2906,-4.7194,-2.6571e-10,-0.64531,0,0,0.066667,-0,-0,0.66667
0.48283,0.46615,7.2424,-0.050771,-11.651,1007.1,0.98054,-0.32685,-1.9971,1.3074,3.3233e-12,-0.99856,0,0,0.066667,1.579e-16,0,0.66667
0.49097,0.46971,7.3645,-0.045434,-10.318,978.99,0.89226,-0.29742,-1.9879,1.1897,2.6643e-11,-0.99397,0,0,0.066667,-0,-0,0.66667
0.2348,0.76103,3.522,0.39155,110.82,1979.3,-3.6775,1.2258,-1.4647,-4.9033,4.5908e-11,-0.73237,0,0,0.066667,-6.3159e-16,0,0.66667
0.59658,0.98386,8.9488,0.72579,140.22,644.54,-17.32,5.7733,-0.12779,-23.093,-9.6563e-12,-0.063894,0,0,0.066667,1.2632e-15,0,0.66667
0.83706,0.94017,12.556,0.66025,59.203,118.88,-22.107,7.3689,-0.44491,-29.476,-3.2257e-08,-0.22246,0,0,0.066667,-2.5264e-15,0,0.66667
0.24277,0.73399,3.6416,0.35099,98.93,1945.3,-3.4084,1.1361,-1.5554,-4.5445,-2.6956e-12,-0.77771,0,0,0.066667,-0,-0,0.66667
0.50573,0.24703,7.5859,-0.37945,-84.556,929.24,7.6759,-2.5586,-1.4838,10.235,1.3879e-11,-0.74191,0,0,0.066667,-9.4739e-16,0,0.66667
0.46839,0.64587,7.0259,0.21881,51.124,1057.8,-4.0995,1.3665,-1.84,-5.466,9.8641e-12,-0.91999,0,0,0.066667,-6.3159e-16,0,0.66667
0.8049,0.69937,12.074,0.29906,31.446,164.77,-9.6285,3.2095,-1.6754,-12.838,-1.348e-10,-0.83772,0,0,0.066667,-1.2632e-15,0,0.66667
0.48547,0.79099,7.282,0.43648,99.916,998.57,-8.4759,2.8253,-1.3297,-11.301,-5.7909e-13,-0.66486,0,0,0.066667,-0,-0,0.66667
0.047994,0.56902,0.71991,0.10353,30.928,2804.4,-0.19875,0.066251,-1.9692,-0.265,-2.3465e-07,-0.98462,0,0,0.066667,-0,-0,0.66667
0.29891,0.054888,4.4836,-0.66767,-182.32,1710.8,7.9829,-2.661,-0.4188,10.644,1.2585e-12,-0.2094,0,0,0.066667,-3.158e-16,0,0.66667
0.72163,0.78061,10.825,0.42092,60.349,323.11,-12.15,4.05,-1.3722,-16.2,1.1156e-11,-0.68612,0,0,0.066667,-1.8158e-15,0,0.66667
0.54076,0.55602,8.1114,0.084023,17.787,813.55,-1.8175,0.60582,-1.9697,-2.4233,5.013e-12,-0.98484,0,0,0.066667,-3.158e-16,0,0.66667
0.71301,0.79379,10.695,0.44069,64.827,342.19,-12.569,4.1896,-1.3042,-16.758,9.4946e-13,-0.65208,0,0,0.066667,-0,-0,0.66667
0.89043,0.44086,13.356,-0.088714,-5.4619,54.431,3.1597,-1.0532,-1.9838,4.213,-9.6242e-09,-0.99189,0,0,0.066667,2.5264e-15,0,0.66667
0.036948,0.26201,0.55421,-0.35698,-106.79,2854.3,0.52759,-0.17586,-1.5417,0.70345,1.9433e-06,-0.77083,0,0,0.066667,-0,-0,0.66667
0.16157,0.6831,2.4236,0.27465,80.106,2297.1,-1.7751,0.59169,-1.7279,-2.3668,2.2738e-10,-0.86393,0,0,0.066667,-1.579e-16,0,0.66667
0.20618,0.93382,3.0927,0.65073,186.83,2102.8,-5.3667,1.7889,-0.49552,-7.1556,9.593e-10,-0.24776,0,0,0.066667,1.579e-16,0,0.66667
0.54819,0.36489,8.2229,-0.20266,-42.418,789.99,4.4439,-1.4813,-1.8602,5.9252,1.19e-11,-0.93008,0,0,0.066667,-0,-0,0.66667
0.6875,0.13204,10.312,-0.55194,-87.172,401.72,15.178,-5.0595,-0.92897,20.238,2.1281e-12,-0.46449,0,0,0.066667,-0,-0,0.66667
0.34233,0.21535,5.135,-0.42697,-112.91,1534.1,5.8466,-1.9489,-1.3584,7.7955,2.2745e-11,-0.67922,0,0,0.066667,9.4739e-16,0,0.66667
0.8698,0.73147,13.047,0.3472,25.198,76.437,-12.08,4.0266,-1.5668,-16.106,5.0281e-09,-0.78341,0,0,0.066667,-0,-0,0.66667
0.8792,0.14304,13.188,-0.53544,-36.312,67.272,18.83,-6.2767,-0.97794,25.107,-1.1132e-07,-0.48897,0,0,0.066667,-0,-0,0.66667
0.19012,0.73826,2.8518,0.35738,103.18,2172.1,-2.7179,0.90595,-1.5474,-3.6238,7.0137e-12,-0.7737,0,0,0.066667,-0,-0,0.66667
0.53183,0.077815,7.9774,-0.63328,-136.14,843.78,13.472,-4.4906,-0.58311,17.962,8.4972e-12,-0.29156,0,0,0.066667,-0,-0,0.66667
0.98953,0.23623,14.843,-0.39565,-2.3053,1.7462,15.66,-5.2202,-1.4389,20.881,-1.0501e-05,-0.71944,0,0,0.066667,-2.435e-15,0,0.66667
0.057573,0.18054,0.86359,-0.4792,-143.12,2761.3,1.1035,-0.36785,-1.1799,1.4714,-1.615e-06,-0.58994,0,0,0.066667,3.9475e-17,0,0.66667
0.083431,0.12343,1.2515,-0.56485,-168.13,2645.1,1.885,-0.62835,-0.86217,2.5134,1.59e-07,-0.43109,0,0,0.066667,-5.9212e-17,0,0.66667
0.41763,0.37178,6.2644,-0.19233,-47.531,1242.4,3.2129,-1.071,-1.8667,4.2839,1.8499e-11,-0.93335,0,0,0.066667,-0,-0,0.66667
0.85461,0.86451,12.819,0.54677,44.079,95.302,-18.691,6.2303,-0.93336,-24.921,1.0703e-09,-0.46668,0,0,0.066667,-0,-0,0.66667
0.39859,0.87339,5.9788,0.56008,141.19,1314.9,-8.9297,2.9766,-0.87935,-11.906,1.4416e-11,-0.43968,0,0,0.066667,-7.8949e-16,0,0.66667
0.0099489,0.23513,0.14923,-0.3973,-119.01,2976.3,0.1581,-0.052694,-1.4335,0.21081,1.099e-05,-0.71673,0,0,0.066667,7.9555e-18,0,0.66667
0.64554,0.83317,9.6831,0.49976,87.287,507.19,-12.905,4.3016,-1.108,-17.206,7.141e-13,-0.55399,0,0,0.066667,-0,-0,0.66667
0.2938,0.61627,4.4071,0.1744,47.708,1731,-2.0496,0.6832,-1.8923,-2.7328,2.0676e-11,-0.94613,0,0,0.066667,3.158e-16,0,0.66667
0.14993,0.39599,2.249,-0.15601,-45.663,2348.5,0.93562,-0.31187,-1.9077,1.2475,3.4972e-11,-0.95383,0,0,0.066667,-0,-0,0.66667
0.10779,0.76584,1.6168,0.39876,118.07,2535.9,-1.7192,0.57307,-1.4396,-2.2923,-2.9725e-08,-0.71979,0,0,0.066667,1.579e-16,0,0.66667
0.8689,0.90366,13.033,0.60549,44.383,78.874,-21.044,7.0148,-0.69186,-28.059,-5.978e-08,-0.34593,0,0,0.066667,-1.3217e-15,0,0.66667
0.0032652,0.16902,0.048979,-0.49647,-148.78,3006.5,0.064832,-0.021616,-1.1232,0.08644,-8.6923e-06,-0.56162,0,0,0.066667,4.9343e-18,0,0.66667
0.51859,0.51887,7.7788,0.028305,6.1914,885.79,-0.58714,0.19571,-1.9976,-0.78286,-5.6748e-12,-0.99881,0,0,0.066667,-0,-0,0.66667
0.55082,0.56016,8.2623,0.090235,18.805,781.56,-1.9881,0.66271,-1.9701,-2.6508,-2.1289e-12,-0.98505,0,0,0.066667,6.3159e-16,0,0.66667
0.11595,0.8304,1.7392,0.4956,146.52,2499.5,-2.2986,0.7662,-1.1205,-3.0648,-1.233e-08,-0.56025,0,0,0.066667,-1.579e-16,0,0.66667
0.20004,0.71909,3.0006,0.32864,94.491,2129,-2.6296,0.87654,-1.6177,-3.5062,2.2782e-10,-0.80883,0,0,0.066667,6.3159e-16,0,0.66667
0.86222,0.77056,12.933,0.40584,31.07,85.373,-13.997,4.6656,-1.4153,-18.662,1.2232e-08,-0.70764,0,0,0.066667,1.2632e-15,0,0.66667
0.11697,0.99245,1.7546,0.73867,218.56,2495.2,-3.4562,1.1521,-0.053763,-4.6082,-3.7393e-08,-0.026881,0,0,0.066667,-3.158e-16,0,0.66667
0.8247,0.20683,12.371,-0.43975,-42.03,134.99,14.507,-4.8355,-1.3116,19.342,-1.4537e-10,-0.65582,0,0,0.066667,-1.2632e-15,0,0.66667
0.19309,0.65675,2.8963,0.23513,67.784,2159.1,-1.816,0.60534,-1.7998,-2.4214,1.7008e-11,-0.89992,0,0,0.066667,-0,-0,0.66667
0.99555,0.84449,14.933,0.51673,1.2194,1.9562,-20.577,6.8591,-1.0489,-27.436,4.5425e-06,-0.52447,0,0,0.066667,-2.5264e-15,7.2737e-18,0.66667
0.47141,0.5506,7.0712,0.075894,17.665,1047,-1.4311,0.47703,-1.9809,-1.9081,1.1491e-11,-0.99045,0,0,0.066667,-6.3159e-16,0,0.66667
0.54727,0.051508,8.2091,-0.67274,-141.3,794.42,14.727,-4.9089,-0.40082,19.636,-4.7073e-13,-0.20041,0,0,0.066667,-0,-0,0.66667
0.082274,0.82521,1.2341,0.48782,145.19,2650.2,-1.6054,0.53513,-1.1513,-2.1405,-4.0665e-08,-0.57565,0,0,0.066667,1.579e-16,0,0.66667
0.051293,0.18006,0.7694,-0.47992,-143.43,2789.6,0.98465,-0.32822,-1.1783,1.3129,4.0686e-07,-0.58917,0,0,0.066667,3.9475e-17,0,0.66667
0.20742,0.92561,3.1114,0.63842,183.18,2097.4,-5.2969,1.7656,-0.54796,-7.0626,-5.3973e-10,-0.27398,0,0,0.066667,-0,-0,0.66667
0.16079,0.48158,2.4118,-0.027637,-8.0608,2300.5,0.17775,-0.059251,-1.9939,0.237,7.2267e-11,-0.99694,0,0,0.066667,3.158e-16,0,0.66667
0.45106,0.29321,6.766,-0.31018,-73.971,1119.8,5.5964,-1.8655,-1.6613,7.4619,4.0759e-12,-0.83063,0,0,0.066667,-0,-0,0.66667
0.62995,0.83047,9.4492,0.49571,89.535,549.11,-12.491,4.1636,-1.1221,-16.654,-4.17e-12,-0.56107,0,0,0.066667,1.2632e-15,0,0.66667
0.72633,0.68441,10.895,0.27661,39.066,312.47,-8.0365,2.6788,-1.7224,-10.715,-5.1408e-12,-0.86119,0,0,0.066667,1.2632e-15,0,0.66667
0.45605,0.7094,6.8407,0.3141,74.481,1101.9,-5.7298,1.9099,-1.65,-7.6397,6.1258e-12,-0.82499,0,0,0.066667,-0,-0,0.66667
0.37693,0.88298,5.654,0.57448,147.72,1398.2,-8.6615,2.8872,-0.8307,-11.549,-3.2268e-12,-0.41535,0,0,0.066667,-0,-0,0.66667
0.064415,0.017369,0.96622,-0.72395,-216.25,2730.6,1.8653,-0.62177,-0.14033,2.4871,-2.4299e-06,-0.070166,0,0,0.066667,-0,-0,0.66667
0.53834,0.38627,8.0751,-0.17059,-36.251,821.42,3.6734,-1.2245,-1.8901,4.8979,3.0398e-13,-0.94507,0,0,0.066667,-0,-0,0.66667
0.45104,0.69432,6.7655,0.29148,69.511,1119.9,-5.2587,1.7529,-1.7016,-7.0116,-8.2503e-12,-0.85081,0,0,0.066667,-0,-0,0.66667
0.40236,0.24368,6.0354,-0.38448,-96.506,1300.2,6.188,-2.0627,-1.4729,8.2506,-8.5798e-13,-0.73647,0,0,0.066667,2.3824e-16,0,0.66667
0.073837,0.21207,1.1076,-0.43189,-128.69,2688.1,1.2756,-0.4252,-1.3344,1.7008,3.1147e-07,-0.66719,0,0,0.066667,3.9475e-17,0,0.66667
0.19382,0.35916,2.9072,-0.21126,-60.885,2155.9,1.6379,-0.54595,-1.8353,2.1838,-1.2044e-11,-0.91765,0,0,0.066667,-3.158e-16,0,0.66667
0.60843,0.69692,9.1265,0.29538,55.665,608.58,-7.1889,2.3963,-1.6975,-9.5851,8.3173e-12,-0.84876,0,0,0.066667,-1.2632e-15,0,0.66667
0.91508,0.77214,13.726,0.40821,19.747,34.35,-14.942,4.9806,-1.4015,-19.922,1.0685e-09,-0.70073,0,0,0.066667,1.2632e-15,0,0.66667
0.63152,0.47343,9.4728,-0.039862,-7.1661,543.79,1.0069,-0.33565,-1.989,1.3426,9.8471e-12,-0.99451,0,0,0.066667,-0,-0,0.66667
0.57768,0.17616,8.6651,-0.48577,-96.934,699.5,11.225,-3.7415,-1.1707,14.966,3.0234e-12,-0.58536,0,0,0.066667,-0,-1.0403e-17,0.66667
0.34238,0.69081,5.1357,0.28622,75.658,1533.7,-3.9198,1.3066,-1.7156,-5.2265,1.3657e-11,-0.85778,0,0,0.066667,-0,-0,0.66667
0.13547,0.12426,2.0321,-0.56361,-165.84,2412.8,3.0541,-1.018,-0.86757,4.0722,-7.7706e-08,-0.43378,0,0,0.066667,-0,-0,0.66667
0.50839,0.27324,7.6258,-0.34014,-75.511,920.19,6.9169,-2.3056,-1.5825,9.2225,6.1315e-12,-0.79124,0,0,0.066667,6.3159e-16,0,0.66667
0.64626,0.39138,9.694,-0.16293,-28.373,504.32,4.2118,-1.4039,-1.9004,5.6157,1.8172e-12,-0.95018,0,0,0.066667,-0,-0,0.66667
0.96752,0.81559,14.513,0.47339,8.9104,6.8328,-18.32,6.1068,-1.2106,-24.427,-4.012e-06,-0.60532,0,0,0.066667,-0,-0,0.66667
0.76195,0.85486,11.429,0.53229,66.823,241.26,-16.223,5.4077,-0.9912,-21.631,1.665e-11,-0.4956,0,0,0.066667,1.2632e-15,0,0.66667
0.183,0.64412,2.745,0.21618,62.567,2203.1,-1.5824,0.52748,-1.8305,-2.1099,-5.7513e-11,-0.91527,0,0,0.066667,3.158e-16,0,0.66667
0.23966,0.22336,3.5949,-0.41496,-117.17,1958.6,3.978,-1.326,-1.3839,5.304,7.6117e-12,-0.69193,0,0,0.066667,-0,-0,0.66667
0.95701,0.3396,14.355,-0.2406,-5.9473,9.4818,9.2101,-3.07,-1.7931,12.28,-1.2208e-06,-0.89653,0,0,0.066667,-1.579e-15,0,0.66667
0.758,0.23111,11.37,-0.40333,-51.311,248.24,12.229,-4.0764,-1.415,16.305,-3.2599e-11,-0.7075,0,0,0.066667,-0,-0,0.66667
0.19292,0.84703,2.8938,0.52055,150.2,2160.1,-4.017,1.339,-1.0327,-5.356,-7.2126e-10,-0.51633,0,0,0.066667,-0,-0,0.66667
0.70195,0.38441,10.529,-0.17338,-26.289,366.51,4.8682,-1.6227,-1.8999,6.491,4.281e-12,-0.94997,0,0,0.066667,-0,-0,0.66667
0.83347,0.60193,12.502,0.15289,13.918,121.53,-5.0971,1.699,-1.9124,-6.7962,-2.7364e-10,-0.95621,0,0,0.066667,-0,-0,0.66667
0.43625,0.13515,6.5438,-0.54728,-132.79,1174.3,9.55,-3.1833,-0.94153,12.733,-7.4207e-12,-0.47076,0,0,0.066667,-0,-0,0.66667
0.0094767,0.45364,0.14215,-0.069545,-20.821,2978.4,0.026362,-0.0087875,-1.977,0.03515,-1.7167e-07,-0.98848,0,0,0.066667,-0,-0,0.66667
0.66811,0.47907,10.022,-0.031388,-5.1949,447.9,0.83883,-0.27961,-1.9949,1.1184,4.8218e-12,-0.99747,0,0,0.066667,-0,-0,0.66667
0.069735,0.47072,1.046,-0.043927,-13.089,2706.5,0.12253,-0.040844,-1.9879,0.16337,2.8171e-08,-0.99394,0,0,0.066667,-0,-0,0.66667
0.2378,0.35642,3.567,-0.21538,-60.844,1966.3,2.0487,-0.68289,-1.8342,2.7316,8.2563e-12,-0.91711,0,0,0.066667,-0,-0,0.66667
0.097031,0.025205,1.4555,-0.71219,-211.61,2584.2,2.7642,-0.9214,-0.19669,3.6856,-5.0821e-07,-0.098345,0,0,0.066667,-1.579e-16,0,0.66667
0.87047,0.11661,13.057,-0.57508,-41.662,76.915,20.024,-6.6746,-0.82103,26.698,1.2388e-08,-0.41051,0,0,0.066667,-0,-0,0.66667
0.83404,0.4647,12.511,-0.05295,-4.8043,120.63,1.7665,-0.58883,-1.9854,2.3553,5.09e-10,-0.99269,0,0,0.066667,1.1254e-15,0,0.66667
0.23516,0.93252,3.5274,0.64878,183.78,1978.2,-6.1027,2.0342,-0.51233,-8.137,6.3761e-10,-0.25617,0,0,0.066667,-4.737e-16,0,0.66667
0.75438,0.78506,11.316,0.4276,55.108,255.39,-12.903,4.301,-1.3477,-17.204,4.7574e-11,-0.67387,0,0,0.066667,-0,-0,0.66667
0.50836,0.37029,7.6255,-0.19457,-43.18,920.01,3.9565,-1.3188,-1.8596,5.2753,1.5611e-11,-0.92982,0,0,0.066667,3.158e-16,0,0.66667
0.42116,0.14188,6.3173,-0.53718,-132.42,1230,9.0494,-3.0165,-0.98245,12.066,2.0334e-11,-0.49122,0,0,0.066667,-0,-1.0148e-16,0.66667
0.21872,0.14525,3.2808,-0.53212,-151.85,2048.5,4.6554,-1.5518,-1.0049,6.2072,-4.6839e-10,-0.50244,0,0,0.066667,-3.158e-16,1.0518e-16,0.66667
0.22166,0.93891,3.3249,0.65837,187.72,2036.1,-5.8373,1.9458,-0.46079,-7.7831,-6.2518e-10,-0.23039,0,0,0.066667,6.3159e-16,0,0.66667
0.090802,0.76097,1.362,0.39146,116.3,2611.9,-1.4218,0.47393,-1.4557,-1.8957,-8.4833e-09,-0.72787,0,0,0.066667,-0,-0,0.66667
0.24882,0.026728,3.7323,-0.70991,-199.74,1920.2,7.0655,-2.3552,-0.21548,9.4207,-1.3628e-10,-0.10774,0,0,0.066667,-0,3.9088e-17,0.66667
0.58965,0.62878,8.8448,0.19316,37.696,662.96,-4.556,1.5187,-1.8658,-6.0746,7.967e-12,-0.93289,0,0,0.066667,-1.2632e-15,0,0.66667
0.88221,0.63154,13.233,0.19731,13.016,62.71,-6.9629,2.321,-1.8556,-9.2838,-3.171e-09,-0.92779,0,0,0.066667,-0,-0,0.66667
0.15505,0.93265,2.3257,0.64898,189.92,2326.3,-4.0249,1.3416,-0.50975,-5.3665,-8.3142e-08,-0.25488,0,0,0.066667,2.4971e-16,0,0.66667
0.26188,0.66923,3.9282,0.25385,70.801,1864.3,-2.6591,0.88638,-1.7692,-3.5455,2.1197e-11,-0.88461,0,0,0.066667,-0,-0,0.66667
0.63358,0.49126,9.5037,-0.01311,-2.3466,538.18,0.33225,-0.11075,-1.9932,0.44301,-1.2284e-12,-0.99661,0,0,0.066667,6.3159e-16,0,0.66667
0.1012,0.7394,1.5179,0.35909,106.46,2565.4,-1.4536,0.48452,-1.5351,-1.9381,-6.773e-08,-0.76753,0,0,0.066667,-1.579e-16,0,0.66667
0.51534,0.57134,7.7302,0.10701,23.515,896.59,-2.2058,0.73526,-1.97,-2.941,3.777e-12,-0.98498,0,0,0.066667,-1.2632e-15,0,0.66667
0.44685,0.77241,6.7028,0.40861,97.938,1135.2,-7.3035,2.4345,-1.4007,-9.738,4.1842e-12,-0.70036,0,0,0.066667,-0,-0,0.66667
0.050434,0.58372,0.75652,0.12559,37.509,2793.4,-0.25336,0.084452,-1.9429,-0.33781,-2.1299e-07,-0.97145,0,0,0.066667,-0,-0,0.66667
0.76578,0.93336,11.487,0.65005,80.561,234.73,-19.912,6.6372,-0.50943,-26.549,-9.6083e-10,-0.25471,0,0,0.066667,1.8948e-15,0,0.66667
0.095195,0.17618,1.4279,-0.48573,-144.23,2592.3,1.8496,-0.61652,-1.1667,2.4661,1.3207e-07,-0.58337,0,0,0.066667,-0,-0,0.66667
0.33837,0.15823,5.0756,-0.51265,-136.03,1550.1,6.9386,-2.3129,-1.062,9.2515,1.5805e-11,-0.53098,0,0,0.066667,-1.2632e-15,0,0.66667
0.57897,0.89137,8.6845,0.58705,116.95,696.04,-13.595,4.5318,-0.78255,-18.127,-2.5668e-12,-0.39128,0,0,0.066667,-0,-0,0.66667
0.85085,0.17392,12.763,-0.48912,-40.342,99.651,16.647,-5.549,-1.1429,22.196,6.6017e-09,-0.57144,0,0,0.066667,-1.2632e-15,0,0.66667
0.26085,0.13156,3.9128,-0.55266,-154.37,1869,5.7666,-1.9222,-0.91068,7.6888,4.6753e-11,-0.45534,0,0,0.066667,6.3159e-16,0,0.66667
0.81028,0.34521,12.154,-0.23218,-23.8,156.05,7.5253,-2.5084,-1.8124,10.034,-2.2952e-11,-0.90622,0,0,0.066667,-2.5264e-15,0,0.66667
0.43666,0.88637,6.55,0.57956,140.58,1172.8,-10.123,3.3743,-0.81378,-13.497,9.2459e-13,-0.40689,0,0,0.066667,-0,-0,0.66667
0.82762,0.9403,12.414,0.66046,62.336,132.11,-21.864,7.2881,-0.45954,-29.152,-2.7129e-08,-0.22977,0,0,0.066667,-2.5264e-15,-2.5795e-17,0.66667
0.92159,0.2574,13.824,-0.36391,-16.286,29.422,13.415,-4.4717,-1.54,17.887,-1.2144e-07,-0.76998,0,0,0.066667,-0,-0,0.66667
0.4382,0.095884,6.5731,-0.60617,-146.81,1167.3,10.625,-3.5417,-0.70328,14.167,6.9686e-12,-0.35164,0,0,0.066667,-0,-0,0.66667
0.26206,0.77643,3.9309,0.41464,115.68,1863.7,-4.3464,1.4488,-1.3883,-5.7952,4.3903e-11,-0.69413,0,0,0.066667,4.737e-16,0,0.66667
0.46144,0.92486,6.9216,0.63729,150.38,1083.6,-11.763,3.921,-0.5494,-15.684,2.057e-11,-0.2747,0,0,0.066667,-0,-0,0.66667
0.094812,0.0021036,1.4222,-0.74684,-222.04,2594.2,2.8324,-0.94413,-0.025071,3.7765,9.2698e-07,-0.012536,0,0,0.066667,-0,-0,0.66667
0.65878,0.3059,9.8817,-0.29115,-49.294,471.97,7.6721,-2.5574,-1.7009,10.23,6.541e-12,-0.85044,0,0,0.066667,-0,-0,0.66667
0.63235,0.068554,9.4852,-0.64717,-116.42,543.29,16.369,-5.4565,-0.50487,21.826,6.7661e-12,-0.25243,0,0,0.066667,-1.2632e-15,0,0.66667
0.4968,0.75362,7.452,0.38042,85.795,959.49,-7.5598,2.5199,-1.4862,-10.08,-6.8954e-12,-0.74308,0,0,0.066667,1.2632e-15,0,0.66667
0.47016,0.6291,7.0523,0.19365,45.149,1051.6,-3.6419,1.214,-1.8732,-4.8559,7.043e-12,-0.93661,0,0,0.066667,-0,-0,0.66667
0.12851,0.39432,1.9276,-0.15852,-46.682,2443.4,0.81483,-0.27161,-1.9096,1.0864,7.3725e-10,-0.95482,0,0,0.066667,-0,-0,0.66667
0.33439,0.65505,5.0158,0.23257,61.847,1565.6,-3.1108,1.0369,-1.8032,-4.1477,1.9119e-11,-0.90159,0,0,0.066667,-6.7107e-16,0,0.66667
0.2686,0.044112,4.0289,-0.68383,-190.28,1836.8,7.347,-2.449,-0.33774,9.796,3.4164e-12,-0.16887,0,0,0.066667,-0,-0,0.66667
0.53581,0.33024,8.0371,-0.25463,-54.328,829.69,5.4574,-1.8191,-1.766,7.2766,1.3099e-11,-0.883,0,0,0.066667,-6.3159e-16,0,0.66667
0.41981,0.20545,6.2971,-0.44183,-109.02,1234.7,7.4193,-2.4731,-1.3092,9.8924,1.0367e-11,-0.65459,0,0,0.066667,-0,-0,0.66667
0.83603,0.20952,12.54,-0.43572,-39.184,118.91,14.571,-4.857,-1.3186,19.428,-2.5177e-09,-0.65929,0,0,0.066667,6.3159e-16,0,0.66667
0.70121,0.67707,10.518,0.26561,40.368,368.41,-7.4499,2.4833,-1.7531,-9.9332,1.9464e-12,-0.87655,0,0,0.066667,-6.3159e-16,0,0.66667
0.4959,0.20641,7.4385,-0.44038,-99.457,962.73,8.7354,-2.9118,-1.308,11.647,1.7759e-11,-0.65399,0,0,0.066667,-6.3159e-16,0,0.66667
0.59952,0.74057,8.9928,0.36086,69.186,634.41,-8.6537,2.8846,-1.5318,-11.538,2.82e-12,-0.76592,0,0,0.066667,6.3159e-16,0,0.66667
0.39672,0.19321,5.9508,-0.46018,-116.16,1321.8,7.3024,-2.4341,-1.242,9.7366,1.1465e-11,-0.62098,0,0,0.066667,-0,-0,0.66667
0.21745,0.25738,3.2618,-0.36393,-103.85,2053.7,3.1654,-1.0551,-1.5356,4.2206,1.2249e-10,-0.76781,0,0,0.066667,-0,-0,0.66667
0.74224,0.067516,11.134,-0.64873,-87.304,280.86,19.26,-6.4201,-0.49778,25.681,1.7643e-10,-0.24889,0,0,0.066667,2.5264e-15,0,0.66667
0.92264,0.03978,13.84,-0.69033,-30.742,30.812,25.477,-8.4923,-0.31416,33.969,-8.7866e-06,-0.15708,0,0,0.066667,-2.5264e-15,0,0.66667
0.26129,0.86916,3.9193,0.55373,154.63,1867.2,-5.7873,1.9291,-0.90741,-7.7164,-1.2701e-11,-0.4537,0,0,0.066667,-0,-0,0.66667
0.63229,0.85857,9.4844,0.53785,96.694,542.9,-13.603,4.5344,-0.96486,-18.137,-4.1114e-12,-0.48243,0,0,0.066667,1.2632e-15,0,0.66667
0.70958,0.56351,10.644,0.095258,14.134,349.02,-2.7037,0.90124,-1.9631,-3.605,-3.7739e-12,-0.98156,0,0,0.066667,-0,-0,0.66667
0.73708,0.73766,11.056,0.35649,48.683,290.02,-10.51,3.5035,-1.5494,-14.014,-8.6953e-12,-0.77469,0,0,0.066667,1.2632e-15,0,0.66667
0.27022,0.14358,4.0533,-0.53463,-148.52,1829.6,5.7787,-1.9262,-0.98022,7.7049,2.2791e-11,-0.49011,0,0,0.066667,-0,-0,0.66667
0.10234,0.55983,1.5352,0.089748,26.591,2560.1,-0.36741,0.12247,-1.966,-0.48988,-2.0224e-08,-0.98302,0,0,0.066667,1.9737e-16,0,0.66667
0.71856,0.61273,10.778,0.16909,24.442,329.13,-4.86,1.62,-1.9092,-6.4801,2.0406e-12,-0.95458,0,0,0.066667,-8.5094e-16,0,0.66667
0.44319,0.60296,6.6479,0.15443,37.143,1148.1,-2.7378,0.91259,-1.9102,-3.6503,-3.7945e-12,-0.95508,0,0,0.066667,-0,-0,0.66667
0.6827,0.5378,10.241,0.056698,9.0487,411.88,-1.5483,0.51611,-1.9852,-2.0644,4.035e-12,-0.9926,0,0,0.066667,-0,-0,0.66667
0.058429,0.079962,0.87644,-0.63006,-188.26,2757.5,1.4725,-0.49086,-0.5861,1.9634,-1.5774e-05,-0.29305,0,0,0.066667,-0,1.5369e-17,0.66667
0.65428,0.65854,9.8142,0.23781,40.678,483.45,-6.2239,2.0746,-1.8037,-8.2985,-5.0466e-12,-0.90187,0,0,0.066667,-0,-0,0.66667
0.28838,0.50181,4.3257,0.0027126,0.74451,1753.4,-0.03129,0.01043,-1.9948,-0.041719,8.2273e-12,-0.99739,0,0,0.066667,-0,-0,0.66667
0.87785,0.94264,13.168,0.66396,45.607,69.588,-23.314,7.7714,-0.43406,-31.086,1.2034e-08,-0.21703,0,0,0.066667,2.5264e-15,0,0.66667
0.1653,0.16239,2.4795,-0.50642,-147.61,2280.9,3.3484,-1.1161,-1.0826,4.4646,5.2358e-09,-0.54128,0,0,0.066667,-0,-0,0.66667
0.44557,0.6772,6.6835,0.2658,63.774,1139.6,-4.7373,1.5791,-1.7423,-6.3164,-1.7115e-12,-0.87117,0,0,0.066667,-6.3159e-16,0,0.66667
0.96915,0.79812,14.537,0.44718,7.9805,6.1851,-17.336,5.7785,-1.2988,-23.114,-7.9561e-06,-0.6494,0,0,0.066667,-0,-0,0.66667
0.086128,0.09899,1.2919,-0.60151,-178.99,2633,2.0723,-0.69076,-0.70762,2.7631,-2.3937e-07,-0.35381,0,0,0.066667,3.158e-16,0,0.66667
0.40046,0.55068,6.007,0.076022,19.105,1307,-1.2178,0.40592,-1.9741,-1.6237,1.861e-11,-0.98706,0,0,0.066667,-6.3159e-16,0,0.66667
0.28546,0.22438,4.2819,-0.41343,-113.76,1765.8,4.7207,-1.5736,-1.3902,6.2943,1.5738e-11,-0.69509,0,0,0.066667,-6.3159e-16,0,0.66667
0.082679,0.83941,1.2402,0.50912,151.53,2648.4,-1.6837,0.56125,-1.0758,-2.245,-6.0961e-08,-0.5379,0,0,0.066667,3.9475e-17,0,0.66667
0.70977,0.10768,10.647,-0.58848,-87.473,350.18,16.707,-5.5692,-0.76243,22.277,-2.4091e-11,-0.38122,0,0,0.066667,-0,-0,0.66667
0.56244,0.5588,8.4366,0.088205,18.04,745.23,-1.9844,0.66147,-1.9847,-2.6459,4.9077e-12,-0.99235,0,0,0.066667,-7.8949e-16,0,0.66667
0.98804,0.26266,14.821,-0.35601,-2.378,1.7295,14.07,-4.6901,-1.5479,18.76,-5.0351e-06,-0.77394,0,0,0.066667,-0,-0,0.66667
0.22761,0.11116,3.4141,-0.58326,-165.78,2010.4,5.3102,-1.7701,-0.78412,7.0802,5.2827e-10,-0.39206,0,0,0.066667,-2.6954e-16,0,0.66667
0.10466,0.077583,1.5699,-0.63363,-187.9,2550,2.6527,-0.88422,-0.56872,3.5369,-3.0097e-08,-0.28436,0,0,0.066667,-0,-0,0.66667
0.46991,0.1978,7.0486,-0.4533,-105.79,1053,8.5204,-2.8401,-1.2762,11.361,-2.891e-12,-0.6381,0,0,0.066667,1.2632e-15,0,0.66667
0.72526,0.37891,10.879,-0.18163,-25.727,314.56,5.2691,-1.7564,-1.8775,7.0255,9.7615e-12,-0.93875,0,0,0.066667,-2.5264e-15,0,0.66667
0.20312,0.70621,3.0468,0.30932,88.817,2115.6,-2.5131,0.8377,-1.6715,-3.3508,1.443e-10,-0.83574,0,0,0.066667,-0,-0,0.66667
0.19345,0.1337,2.9017,-0.54945,-158.52,2157.9,4.2516,-1.4172,-0.9213,5.6688,6.5128e-10,-0.46065,0,0,0.066667,-6.3159e-16,0,0.66667
0.01645,0.13756,0.24674,-0.54366,-162.9,2946.9,0.3577,-0.11923,-0.95706,0.47694,1.0728e-05,-0.47853,0,0,0.066667,-0,-0,0.66667
0.61338,0.56042,9.2006,0.090624,16.907,594.21,-2.2235,0.74116,-1.9698,-2.9646,1.3982e-12,-0.98488,0,0,0.066667,4.737e-16,0,0.66667
0.58667,0.097704,8.8001,-0.60344,-118.6,673.07,14.161,-4.7203,-0.69971,18.881,5.3983e-12,-0.34985,0,0,0.066667,-0,-0,0.66667
0.46014,0.28463,6.9022,-0.32305,-76.242,1087.3,5.946,-1.982,-1.6235,7.928,4.3769e-12,-0.81175,0,0,0.066667,-1.2632e-15,0,0.66667
0.7062,0.97831,10.593,0.71747,107.86,359.05,-20.267,6.7557,-0.17003,-27.023,4.2206e-12,-0.085016,0,0,0.066667,-0,-0,0.66667
0.059315,0.41156,0.88972,-0.13265,-39.581,2753.4,0.31473,-0.10491,-1.9379,0.41964,2.0516e-07,-0.96896,0,0,0.066667,-0,-0,0.66667
0.66498,0.37536,9.9747,-0.18695,-31.183,455.94,4.9728,-1.6576,-1.8709,6.6304,8.6082e-12,-0.93547,0,0,0.066667,-0,-0,0.66667
0.18851,0.4474,2.8277,-0.078903,-22.784,2179,0.59497,-0.19832,-1.9853,0.79329,-2.3929e-11,-0.99265,0,0,0.066667,-0,-0,0.66667
0.13418,0.26542,2.0128,-0.35187,-103.5,2418.3,1.8886,-0.62954,-1.5537,2.5182,9.3649e-09,-0.77684,0,0,0.066667,-0,-0,0.66667
0.89487,0.59422,13.423,0.14133,8.3665,50.343,-5.0589,1.6863,-1.9277,-6.7452,1.8741e-08,-0.96386,0,0,0.066667,-0,-0,0.66667
0.68858,0.36354,10.329,-0.20469,-32.181,397.93,5.6379,-1.8793,-1.8581,7.5172,2.5406e-12,-0.92904,0,0,0.066667,6.3159e-16,0,0.66667
0.63478,0.56155,9.5217,0.092321,16.483,534.96,-2.3441,0.78138,-1.9657,-3.1255,9.9853e-12,-0.98285,0,0,0.066667,7.8949e-17,0,0.66667
0.062431,0.3765,0.93647,-0.18525,-55.258,2739.4,0.46262,-0.15421,-1.8907,0.61683,3.1528e-07,-0.94535,0,0,0.066667,-1.579e-16,0,0.66667
0.10037,0.94613,1.5056,0.66919,198.66,2569.3,-2.6867,0.89556,-0.40185,-3.5822,-5.4516e-07,-0.20093,0,0,0.066667,-0,-0,0.66667
0.41814,0.0010114,6.2722,-0.74848,-185.28,1241.9,12.519,-4.173,-0.0079019,16.692,1.9418e-11,-0.003951,0,0,0.066667,-0,-0,0.66667
0.77618,0.4522,11.643,-0.071707,-8.5107,213.4,2.2263,-0.7421,-1.9773,2.9684,4.5299e-12,-0.98865,0,0,0.066667,-1.2632e-15,0,0.66667
0.0092608,0.82901,0.13891,0.49352,147.88,2979.4,-0.1828,0.060911,-1.128,-0.24375,-3.3349e-05,-0.56399,0,0,0.066667,-1.9737e-17,0,0.66667
0.46474,0.586,6.9711,0.12901,30.27,1070.7,-2.3982,0.79939,-1.9389,-3.1976,-5.6259e-12,-0.96946,0,0,0.066667,2.7518e-16,0,0.66667
0.20022,0.36077,3.0034,-0.20884,-60.029,2128.1,1.6726,-0.55754,-1.8455,2.2302,-4.8035e-11,-0.92275,0,0,0.066667,3.158e-16,0,0.66667
0.89358,0.11128,13.404,-0.58308,-35.114,53.439,20.841,-6.9471,-0.79158,27.789,2.8815e-07,-0.39579,0,0,0.066667,-1.2632e-15,0,0.66667
0.59828,0.60656,8.9743,0.15984,30.699,637.58,-3.8253,1.2751,-1.9058,-5.1004,5.6888e-13,-0.95288,0,0,0.066667,-0,-0,0.66667
0.68755,0.3002,10.313,-0.2997,-47.26,400.6,8.2425,-2.7475,-1.6921,10.99,5.7812e-12,-0.84605,0,0,0.066667,-0,-0,0.66667
0.80757,0.22143,12.114,-0.41786,-43.434,160.97,13.498,-4.4993,-1.3762,17.997,7.2158e-11,-0.68809,0,0,0.066667,-0,-0,0.66667
0.5879,0.87413,8.8184,0.56119,110.02,669.24,-13.197,4.399,-0.87623,-17.596,-1.1238e-11,-0.43812,0,0,0.066667,1.4211e-15,0,0.66667
0.84743,0.9362,12.711,0.6543,55.237,105.09,-22.179,7.393,-0.47772,-29.572,1.1156e-07,-0.23886,0,0,0.066667,4.737e-16,0,0.66667
0.47046,0.23204,7.0569,-0.40194,-93.726,1050.9,7.5638,-2.5213,-1.4301,10.085,3.3014e-12,-0.71506,0,0,0.066667,-0,-0,0.66667
0.17437,0.54799,2.6156,0.07199,20.899,2240.8,-0.50213,0.16738,-1.9834,-0.66951,2.2188e-11,-0.99169,0,0,0.066667,3.158e-16,0,0.66667
0.64155,0.75616,9.6232,0.38425,67.663,517.36,-9.8605,3.2868,-1.4832,-13.147,1.4957e-12,-0.74162,0,0,0.066667,-0,-0,0.66667
0.97645,0.26735,14.647,-0.34897,-4.7142,3.7702,13.63,-4.5434,-1.5603,18.174,8.6882e-06,-0.78017,0,0,0.066667,-0,-0,0.66667
0.35024,0.7531,5.2536,0.37965,99.758,1502.5,-5.3188,1.7729,-1.4825,-7.0917,1.2994e-12,-0.74124,0,0,0.066667,1.2632e-15,0,0.66667
0.80271,0.2252,12.041,-0.41221,-43.814,168.74,13.235,-4.4118,-1.391,17.647,2.9583e-11,-0.69548,0,0,0.066667,-0,-0,0.66667
0.67727,0.43628,10.159,-0.095581,-15.467,425.16,2.5894,-0.86313,-1.964,3.4525,1.4535e-12,-0.98202,0,0,0.066667,4.737e-16,0,0.66667
0.52046,0.0078146,7.807,-0.73828,-161.47,881.47,15.37,-5.1233,-0.058433,20.493,6.9456e-13,-0.029216,0,0,0.066667,-0,-0,0.66667
0.14443,0.17836,2.1665,-0.48246,-141.55,2373,2.7873,-0.92911,-1.1708,3.7164,-3.0571e-09,-0.58541,0,0,0.066667,-0,-0,0.66667
0.83883,0.18186,12.583,-0.47721,-42.262,115.3,16.012,-5.3374,-1.1868,21.349,-1.616e-09,-0.59342,0,0,0.066667,-1.8948e-15,0,0.66667
0.42617,0.24512,6.3926,-0.38231,-93.698,1210.9,6.5173,-2.1724,-1.4781,8.6898,1.757e-11,-0.73907,0,0,0.066667,-7.8949e-16,0,0.66667
0.78295,0.31725,11.744,-0.27413,-31.687,201.67,8.5851,-2.8617,-1.7382,11.447,-3.0229e-11,-0.86909,0,0,0.066667,2.5264e-15,0,0.66667
0.59163,0.19987,8.8745,-0.45019,-87.616,657.77,10.654,-3.5513,-1.2825,14.205,9.0159e-12,-0.64126,0,0,0.066667,-0,-0,0.66667
0.25054,0.27554,3.7581,-0.33669,-94.509,1912.3,3.3741,-1.1247,-1.6068,4.4988,2.0349e-11,-0.80342,0,0,0.066667,-4.737e-16,0,0.66667
0.17356,0.66649,2.6034,0.24973,72.534,2244.4,-1.7338,0.57792,-1.783,-2.3117,2.3467e-10,-0.89152,0,0,0.066667,-0,-0,0.66667
0.73804,0.070876,11.071,-0.64369,-87.821,289.44,19.003,-6.3342,-0.52567,25.337,1.5365e-10,-0.26283,0,0,0.066667,-0,-0,0.66667
0.11212,0.81803,1.6817,0.47704,141.15,2516.6,-2.1394,0.71312,-1.1926,-2.8525,2.4329e-08,-0.59631,0,0,0.066667,-0,-0,0.66667
0.21762,0.74417,3.2644,0.36626,104.51,2053,-3.1883,1.0628,-1.5305,-4.251,-1.2934e-10,-0.76523,0,0,0.066667,-1.579e-16,0,0.66667
0.86531,0.047775,12.98,-0.67834,-51.057,83.492,23.479,-7.8263,-0.35833,31.305,-9.7319e-08,-0.17917,0,0,0.066667,-0,-0,0.66667
0.9046,0.7924,13.569,0.4386,23.739,42.838,-15.87,5.2901,-1.3209,-21.16,8.3258e-08,-0.66045,0,0,0.066667,-0,-0,0.66667
0.093513,0.8345,1.4027,0.50175,149.05,2599.8,-1.8768,0.62561,-1.1157,-2.5024,-2.2584e-07,-0.55784,0,0,0.066667,-0,-3.914e-17,0.66667
0.014555,0.89052,0.21833,0.58578,175.56,2955.5,-0.34103,0.11364,-0.78685,-0.45472,-5.7502e-05,-0.39342,0,0,0.066667,-0,-0,0.66667
0.30404,0.056843,4.5606,-0.66474,-180.9,1689.7,8.0842,-2.6947,-0.42304,10.779,2.8304e-11,-0.21152,0,0,0.066667,-0,-0,0.66667
0.12829,0.83822,1.9243,0.50733,149.53,2444.6,-2.6034,0.86779,-1.085,-3.4711,-1.3013e-08,-0.54252,0,0,0.066667,1.579e-16,0,0.66667
0.25704,0.59827,3.8556,0.1474,41.216,1884.6,-1.5156,0.50518,-1.9171,-2.0207,2.1893e-11,-0.95856,0,0,0.066667,-0,-0,0.66667
0.50233,0.45725,7.535,-0.064124,-14.346,940.23,1.2885,-0.42949,-1.9878,1.7179,9.0395e-12,-0.99392,0,0,0.066667,6.3159e-16,0,0.66667
0.56141,0.43258,8.4212,-0.10113,-20.718,748.43,2.271,-0.75699,-1.9713,3.028,5.1126e-12,-0.98567,0,0,0.066667,6.3159e-16,0,0.66667
0.98057,0.62685,14.708,0.19027,2.0932,2.3384,-7.4629,2.4876,-1.8707,-9.9506,-2.5453e-06,-0.93537,0,0,0.066667,-2.5264e-15,0,0.66667
0.42958,0.18921,6.4436,-0.46619,-113.88,1198.6,8.0106,-2.6702,-1.2219,10.681,3.4133e-12,-0.61097,0,0,0.066667,1.2632e-15,0,0.66667
0.67931,0.31843,10.19,-0.27236,-43.865,420.48,7.4006,-2.4669,-1.7303,9.8675,5.8575e-12,-0.86514,0,0,0.066667,-0,-0,0.66667
0.88941,0.93667,13.341,0.655,40.967,57.898,-23.303,7.7676,-0.48249,-31.07,7.6225e-09,-0.24124,0,0,0.066667,-1.579e-16,0,0.66667
0.15189,0.8952,2.2784,0.5928,173.61,2340.1,-3.6016,1.2005,-0.74759,-4.8022,-4.1808e-08,-0.37379,0,0,0.066667,1.579e-16,0,0.66667
0.09317,0.76162,1.3975,0.39243,116.54,2601.3,-1.4625,0.48749,-1.4616,-1.95,-3.9947e-08,-0.73079,0,0,0.066667,-0,-0,0.66667
0.29675,0.39727,4.4512,-0.15409,-42.071,1718.8,1.8291,-0.60969,-1.9269,2.4388,1.501e-11,-0.96347,0,0,0.066667,3.158e-16,0,0.66667
0.12968,0.40991,1.9452,-0.13513,-39.781,2438.2,0.70094,-0.23365,-1.9324,0.93458,7.0866e-10,-0.96618,0,0,0.066667,-0,-0,0.66667
0.16102,0.81612,2.4154,0.47418,138.4,2299.7,-3.0542,1.0181,-1.1976,-4.0723,-1.3811e-09,-0.59882,0,0,0.066667,-0,-0,0.66667
0.34358,0.97471,5.1537,0.71206,188.36,1529.8,-9.786,3.262,-0.20873,-13.048,4.5954e-12,-0.10437,0,0,0.066667,-0,-0,0.66667
0.31134,0.46702,4.67,-0.049475,-13.375,1658.9,0.61614,-0.20538,-1.9992,0.82152,2.8129e-11,-0.99962,0,0,0.066667,8.6844e-16,0,0.66667
0.76235,0.29486,11.435,-0.30771,-38.513,239.54,9.3834,-3.1278,-1.6629,12.511,1.0168e-11,-0.83144,0,0,0.066667,-1.2632e-15,0,0.66667
0.94892,0.56358,14.234,0.095363,2.7935,12.686,-3.6197,1.2066,-1.9664,-4.8262,1.4308e-07,-0.98319,0,0,0.066667,2.5264e-15,0,0.66667
0.58072,0.58003,8.7108,0.12005,23.801,689.49,-2.7886,0.92953,-1.9503,-3.7181,3.3229e-12,-0.97514,0,0,0.066667,-0,-0,0.66667
0.98347,0.50288,14.752,0.0043156,0.039922,1.574,-0.16977,0.056593,-2.0087,-0.22636,4.1127e-06,-1.0044,0,0,0.066667,-0,-0,0.66667
0.95183,0.40946,14.277,-0.1358,-3.7538,11.415,5.1705,-1.7235,-1.9416,6.894,-2.6767e-07,-0.97079,0,0,0.066667,-0,-0,0.66667
0.25764,0.23644,3.8647,-0.39533,-110.56,1882.3,4.0742,-1.3581,-1.4377,5.4323,-4.3223e-12,-0.71883,0,0,0.066667,-0,-0,0.66667
0.30135,0.78665,4.5203,0.42998,117.11,1700.2,-5.1831,1.7277,-1.34,-6.9108,2.186e-11,-0.67001,0,0,0.066667,-0,-0,0.66667
0.84189,0.8618,12.628,0.5427,47.262,111.57,-18.276,6.092,-0.95681,-24.368,2.5624e-09,-0.47841,0,0,0.066667,-0,-0,0.66667
0.58489,0.39145,8.7733,-0.16282,-32.046,677.05,3.8093,-1.2698,-1.8994,5.0791,1.8977e-11,-0.9497,0,0,0.066667,-1.2632e-15,0,0.66667
0.17505,0.14134,2.6258,-0.53799,-156.3,2238.2,3.767,-1.2557,-0.97068,5.0227,-1.2558e-10,-0.48534,0,0,0.066667,-0,-0,0.66667
0.052125,0.49578,0.78188,-0.0063334,-1.8912,2785.8,0.013205,-0.0044018,-1.9961,0.017607,-1.8085e-07,-0.99803,0,0,0.066667,2.5658e-16,0,0.66667
0.54514,0.32836,8.1771,-0.25746,-54.151,799.79,5.6139,-1.8713,-1.7687,7.4853,4.7597e-12,-0.88436,0,0,0.066667,1.2632e-15,0,0.66667
0.14795,0.34725,2.2192,-0.22912,-67.11,2357.2,1.3559,-0.45197,-1.8078,1.8079,-2.9941e-10,-0.90389,0,0,0.066667,3.158e-16,0,0.66667
0.77243,0.82979,11.586,0.49468,59.695,221.46,-15.284,5.0947,-1.1236,-20.379,1.2599e-10,-0.56179,0,0,0.066667,1.2632e-15,0,0.66667
0.60364,0.78353,9.0546,0.42529,80.929,622.7,-10.269,3.423,-1.3528,-13.692,-3.5563e-12,-0.67638,0,0,0.066667,-0,-0,0.66667
0.2545,0.086973,3.8174,-0.61954,-173.71,1896,6.3068,-2.1023,-0.63244,8.4091,1.3029e-11,-0.31622,0,0,0.066667,-0,-0,0.66667
0.0097104,0.56805,0.14566,0.10207,30.56,2977.3,-0.039646,0.013215,-1.9581,-0.052862,-7.5379e-07,-0.97904,0,0,0.066667,-0,-0,0.66667
0.29272,0.16565,4.3908,-0.50153,-137.4,1735.9,5.8722,-1.9574,-1.1033,7.8296,2.9301e-12,-0.55164,0,0,0.066667,-6.3159e-16,0,0.66667
0.61384,0.18713,9.2075,-0.46931,-87.576,593.78,11.523,-3.841,-1.2152,15.364,-7.7804e-13,-0.60761,0,0,0.066667,1.6382e-15,0,0.66667
0.19308,0.60797,2.8963,0.16195,46.685,2159.1,-1.2508,0.41694,-1.9016,-1.6678,-9.0783e-12,-0.95079,0,0,0.066667,-0,-0,0.66667
0.29108,0.9694,4.3662,0.7041,193.28,1743.1,-8.198,2.7327,-0.23346,-10.931,-2.8901e-12,-0.11673,0,0,0.066667,-0,-0,0.66667
0.98264,0.34097,14.74,-0.23854,-2.3375,2.0896,9.376,-3.1253,-1.8033,12.501,2.494e-06,-0.90163,0,0,0.066667,-1.2632e-15,0,0.66667
0.77969,0.5394,11.695,0.059102,6.9175,207.07,-1.8432,0.61442,-1.993,-2.4577,4.3914e-12,-0.99652,0,0,0.066667,-0,-0,0.66667
0.23048,0.27843,3.4571,-0.33235,-94.253,1997.7,3.064,-1.0213,-1.6063,4.0853,-2.0745e-11,-0.80316,0,0,0.066667,-0,-0,0.66667
0.27348,0.64063,4.1022,0.21095,58.439,1815.5,-2.3076,0.76921,-1.8351,-3.0768,2.5897e-11,-0.91755,0,0,0.066667,6.3159e-16,0,0.66667
0.68583,0.59511,10.287,0.14266,22.587,404.41,-3.9136,1.3045,-1.9337,-5.2182,1.976e-12,-0.96686,0,0,0.066667,-0,-0,0.66667
0.97299,0.56159,14.595,0.092385,1.4239,3.8823,-3.5956,1.1985,-1.9683,-4.7941,-1.4653e-06,-0.98416,0,0,0.066667,-3.9475e-16,0,0.66667
0.36782,0.57037,5.5173,0.10556,27.323,1432.9,-1.5531,0.51769,-1.9542,-2.0708,4.0385e-12,-0.97712,0,0,0.066667,-0,-0,0.66667
0.02374,0.36914,0.3561,-0.19628,-58.745,2913.9,0.18639,-0.062132,-1.857,0.24852,-3.236e-06,-0.92852,0,0,0.066667,3.9475e-17,0,0.66667
0.81142,0.74186,12.171,0.36279,37.016,154.69,-11.775,3.925,-1.5393,-15.7,9.1897e-11,-0.76967,0,0,0.066667,-1.2632e-15,0,0.66667
0.45963,0.17044,6.8944,-0.49434,-116.81,1089.6,9.0885,-3.0295,-1.125,12.118,2.6123e-11,-0.56249,0,0,0.066667,-6.3159e-16,0,0.66667
0.58271,0.16764,8.7406,-0.49854,-98.616,684.44,11.62,-3.8734,-1.1129,15.493,5.4863e-12,-0.55644,0,0,0.066667,-0,-0,0.66667
0.55146,0.5329,8.2719,0.049349,10.274,779.52,-1.0886,0.36285,-1.9892,-1.4514,-1.4326e-11,-0.99458,0,0,0.066667,1.2632e-15,0,0.66667
0.63102,0.039716,9.4653,-0.69043,-124.59,547.15,17.427,-5.809,-0.29976,23.236,-6.4411e-12,-0.14988,0,0,0.066667,-0,-0,0.66667
0.72115,0.65868,10.817,0.23803,34.147,323.59,-6.8661,2.2887,-1.8019,-9.1547,-9.2544e-12,-0.90095,0,0,0.066667,2.5264e-15,0,0.66667
0.37326,0.32717,5.599,-0.25924,-66.803,1411.8,3.8706,-1.2902,-1.7655,5.1608,7.1678e-12,-0.88273,0,0,0.066667,-6.3159e-16,0,0.66667
0.86276,0.27615,12.941,-0.33578,-25.596,84.447,11.588,-3.8626,-1.5991,15.451,-7.2413e-09,-0.79955,0,0,0.066667,6.3159e-16,0,0.66667
0.044935,0.49823,0.67403,-0.0026499,-0.7918,2818.2,0.0047628,-0.0015868,-2.005,0.0063509,1.2089e-06,-1.0025,0,0,0.066667,1.1842e-16,0,0.66667
0.63268,0.76952,9.4903,0.40429,72.569,541.3,-10.231,3.4105,-1.4123,-13.642,-1.4495e-12,-0.70615,0,0,0.066667,6.3159e-16,0,0.66667
0.32943,0.69593,4.9414,0.29389,78.454,1585.6,-3.8727,1.2909,-1.6993,-5.1636,3.2383e-12,-0.84965,0,0,0.066667,-0,-0,0.66667
0.5372,0.78836,8.0581,0.43254,92.146,825.63,-9.2945,3.0982,-1.3297,-12.393,1.056e-11,-0.66483,0,0,0.066667,-0,-0,0.66667
0.25122,0.80612,3.7684,0.45918,128.89,1909.5,-4.6143,1.5381,-1.2573,-6.1524,-6.0933e-12,-0.62863,0,0,0.066667,-0,-0,0.66667
0.30016,0.31266,4.5023,-0.28101,-76.568,1704.9,3.3739,-1.1246,-1.7204,4.4985,2.6165e-11,-0.86019,0,0,0.066667,-1.2632e-15,0,0.66667
0.68492,0.93824,10.274,0.65737,104.61,408.49,-18.01,6.0032,-0.46662,-24.013,5.0342e-12,-0.23331,0,0,0.066667,-0,-0,0.66667
0.30867,0.061581,4.63,-0.65763,-178.4,1670.7,8.1195,-2.7065,-0.4619,10.826,4.5152e-11,-0.23095,0,0,0.066667,2.3685e-16,-8.3389e-17,0.66667
0.48557,0.87777,7.2836,0.56666,129.77,998.63,-11.006,3.6687,-0.86592,-14.675,1.0891e-11,-0.43296,0,0,0.066667,-0,-0,0.66667
0.72351,0.48597,10.853,-0.021049,-2.9969,318.18,0.60917,-0.20306,-1.9946,0.81222,-1.5749e-12,-0.99728,0,0,0.066667,1.2632e-15,0,0.66667
0.93934,0.28048,14.09,-0.32929,-11.466,18.19,12.372,-4.1242,-1.62,16.497,-2.5448e-07,-0.81002,0,0,0.066667,-1.6579e-15,0,0.66667
0.18872,0.52448,2.8308,0.036714,10.601,2178.1,-0.27715,0.092383,-2.0021,-0.36953,-8.3916e-11,-1.0011,0,0,0.066667,-3.158e-16,0,0.66667
0.52997,0.4294,7.9495,-0.1059,-22.785,848.44,2.2449,-0.74829,-1.9667,2.9931,-2.8599e-13,-0.98333,0,0,0.066667,-0,-0,0.66667
0.74163,0.24219,11.124,-0.38671,-52.038,280.75,11.472,-3.824,-1.4621,15.296,1.1013e-11,-0.73106,0,0,0.066667,6.3159e-16,0,0.66667
0.53447,0.5874,8.0171,0.1311,28.021,833.84,-2.8028,0.93427,-1.9391,-3.7371,1.1674e-11,-0.96957,0,0,0.066667,-6.3159e-16,0,0.66667
0.78526,0.015055,11.779,-0.72742,-83.636,199.99,22.848,-7.6161,-0.1163,30.465,1.0555e-09,-0.05815,0,0,0.066667,-0,-0,0.66667
0.74517,0.86547,11.178,0.5482,72.989,274.3,-16.34,5.4467,-0.92774,-21.787,-3.7037e-12,-0.46387,0,0,0.066667,-6.3159e-16,0,0.66667
0.76862,0.49539,11.529,-0.0069182,-0.84529,227.25,0.2127,-0.070899,-2.001,0.2836,-3.6378e-11,-1.0005,0,0,0.066667,4.1054e-15,0,0.66667
0.77155,0.9836,11.573,0.72541,88.046,224.53,-22.388,7.4625,-0.12342,-29.85,3.6514e-10,-0.061708,0,0,0.066667,3.0906e-15,0,0.66667
0.88414,0.19785,13.262,-0.45323,-29.513,61.744,16.029,-5.3429,-1.2637,21.372,1.1157e-08,-0.63184,0,0,0.066667,2.5264e-15,0,0.66667
0.45436,0.36201,6.8154,-0.20699,-49.166,1107.8,3.762,-1.254,-1.854,5.016,1.235e-12,-0.927,0,0,0.066667,-0,-0,0.66667
0.45973,0.72499,6.896,0.33749,79.691,1088.8,-6.2062,2.0687,-1.5894,-8.275,1.9598e-11,-0.7947,0,0,0.066667,-1.2632e-15,0,0.66667
0.14676,0.58809,2.2015,0.13214,38.713,2362.4,-0.77574,0.25858,-1.9328,-1.0343,8.0994e-11,-0.96639,0,0,0.066667,-0,-0,0.66667
0.23564,0.030415,3.5346,-0.70438,-199.53,1976.3,6.6392,-2.2131,-0.24364,8.8522,1.8578e-10,-0.12182,0,0,0.066667,3.158e-16,0,0.66667
0.26969,0.0085646,4.0454,-0.73715,-205.05,1832.3,7.9521,-2.6507,-0.065818,10.603,8.3418e-12,-0.032909,0,0,0.066667,-0,-0,0.66667
0.73747,0.54593,11.062,0.068902,9.3888,288.61,-2.0325,0.6775,-1.9831,-2.71,-1.6431e-13,-0.99157,0,0,0.066667,-0,-0,0.66667
0.15702,0.43756,2.3553,-0.093663,-27.352,2317.1,0.58828,-0.19609,-1.9787,0.78437,-3.5372e-10,-0.98936,0,0,0.066667,-0,-0,0.66667
0.72315,0.84583,10.847,0.51875,74.083,320.25,-15.005,5.0018,-1.0413,-20.007,1.2808e-11,-0.52066,0,0,0.066667,-2.5264e-15,0,0.66667
0.59594,0.15424,8.9391,-0.51863,-100.17,645.39,12.363,-4.121,-1.0477,16.484,7.5078e-12,-0.52387,0,0,0.066667,-1.579e-16,0,0.66667
0.9303,0.58654,13.954,0.12982,5.1665,22.941,-4.8307,1.6102,-1.934,-6.441,2.133e-07,-0.96701,0,0,0.066667,-6.3159e-16,0,0.66667
0.72528,0.87418,10.879,0.56127,79.665,315.89,-16.283,5.4277,-0.87526,-21.711,-3.3626e-12,-0.43763,0,0,0.066667,1.3421e-15,0,0.66667
0.69888,0.4145,10.483,-0.12825,-19.611,373.56,3.5854,-1.1951,-1.939,4.7805,1.1118e-12,-0.96952,0,0,0.066667,-0,-0,0.66667
0.075963,0.58761,1.1394,0.13141,39.121,2678.5,-0.39929,0.1331,-1.9421,-0.53239,-1.4454e-07,-0.97107,0,0,0.066667,1.1842e-16,0,0.66667
0.50651,0.51371,7.5977,0.020562,4.574,926.1,-0.41659,0.13886,-1.9924,-0.55546,-1.1007e-11,-0.99618,0,0,0.066667,-0,-0,0.66667
0.76296,0.79402,11.444,0.44103,55.122,238.89,-13.46,4.4865,-1.3098,-17.946,-1.5895e-11,-0.65488,0,0,0.066667,1.2632e-15,0,0.66667
0.29181,0.026241,4.3771,-0.71064,-195,1740.2,8.2948,-2.7649,-0.2008,11.06,4.8281e-12,-0.1004,0,0,0.066667,-3.158e-16,0,0.66667
0.49858,0.83079,7.4786,0.49618,111.69,953.78,-9.8954,3.2985,-1.1302,-13.194,5.5671e-12,-0.56512,0,0,0.066667,-6.3159e-16,0,0.66667
0.30177,0.7986,4.5265,0.44789,121.96,1698.5,-5.4064,1.8021,-1.2826,-7.2085,1.7008e-11,-0.64132,0,0,0.066667,-3.5736e-16,0,0.66667
0.4502,0.77404,6.753,0.41105,98.155,1123.2,-7.4022,2.4674,-1.4002,-9.8696,7.3559e-12,-0.70011,0,0,0.066667,-3.158e-16,0,0.66667
0.24377,0.95846,3.6565,0.68769,193.98,1941.6,-6.7054,2.2351,-0.31281,-8.9405,-1.0733e-10,-0.1564,0,0,0.066667,-0,-0,0.66667
0.5657,0.12472,8.4854,-0.56292,-114.69,736.33,12.738,-4.2459,-0.87468,16.984,1.6405e-11,-0.43734,0,0,0.066667,-1.3816e-15,0,0.66667
0.94963,0.34226,14.244,-0.23662,-6.8462,12.649,8.9879,-2.996,-1.8013,11.984,-4.5853e-07,-0.90063,0,0,0.066667,-1.579e-16,0,0.66667
0.2179,0.39203,3.2685,-0.16195,-46.188,2051.6,1.4115,-0.47051,-1.9146,1.8821,-1.6196e-11,-0.95731,0,0,0.066667,-0,-0,0.66667
0.4385,0.10384,6.5775,-0.59423,-143.86,1166.2,10.423,-3.4743,-0.75194,13.897,3.3555e-12,-0.37597,0,0,0.066667,-0,-0,0.66667
0.76894,0.080707,11.534,-0.62894,-77.011,228.68,19.345,-6.4482,-0.59299,25.793,3.3853e-10,-0.29649,0,0,0.066667,-0,-0,0.66667
0.14093,0.63588,2.114,0.20383,59.823,2388.3,-1.149,0.38301,-1.8627,-1.532,4.248e-11,-0.93133,0,0,0.066667,-3.158e-16,0,0.66667
0.9131,0.24378,13.697,-0.38434,-19.002,35.74,14.038,-4.6792,-1.469,18.717,1.4492e-08,-0.73451,0,0,0.066667,-0,-0,0.66667
0.39416,0.29986,5.9124,-0.30021,-75.923,1331.2,4.7332,-1.5777,-1.6784,6.3109,1.6384e-11,-0.83922,0,0,0.066667,-6.3159e-16,0,0.66667
0.32525,0.83584,4.8787,0.50377,134.98,1602.9,-6.554,2.1847,-1.0987,-8.7386,1.5977e-11,-0.54936,0,0,0.066667,-0,-0,0.66667
0.57673,0.40088,8.6509,-0.14868,-29.684,701.54,3.4298,-1.1433,-1.9278,4.5731,2.556e-12,-0.96391,0,0,0.066667,-0,-0,0.66667
0.24807,0.98425,3.7211,0.72637,204.47,1923.4,-7.2076,2.4025,-0.12776,-9.6102,8.8837e-11,-0.063878,0,0,0.066667,3.158e-16,7.8944e-17,0.66667
0.81192,0.36376,12.179,-0.20436,-20.783,153.42,6.6371,-2.2124,-1.8607,8.8495,-1.6514e-11,-0.93033,0,0,0.066667,-0,-0,0.66667
0.88291,0.59285,13.244,0.13928,9.1337,61.894,-4.9187,1.6396,-1.9259,-6.5582,1.1134e-09,-0.96294,0,0,0.066667,1.579e-16,0,0.66667
0.83441,0.64376,12.516,0.21564,19.535,120.35,-7.1973,2.3991,-1.8288,-9.5964,-2.8024e-10,-0.91438,0,0,0.066667,-0,-0,0.66667
0.35124,0.25397,5.2686,-0.36904,-96.891,1498.5,5.1849,-1.7283,-1.5101,6.9132,1.3456e-11,-0.75503,0,0,0.066667,-0,-0,0.66667
0.14604,0.26902,2.1907,-0.34647,-101.57,2365.7,2.024,-0.67466,-1.5683,2.6987,-1.4662e-09,-0.78416,0,0,0.066667,-0,-0,0.66667
0.60481,0.18451,9.0721,-0.47324,-89.873,619.52,11.449,-3.8162,-1.2013,15.265,1.1749e-11,-0.60066,0,0,0.066667,-3.158e-16,0,0.66667
0.9963,0.96892,14.945,0.70338,1.5076,3.4263,-28.031,9.3436,-0.241,-37.374,-1.7549e-05,-0.1205,0,0,0.066667,-0,-0,0.66667
0.80367,0.81149,12.055,0.46724,49.469,167.44,-15.02,5.0067,-1.2189,-20.027,4.553e-10,-0.60946,0,0,0.066667,1.3421e-15,0,0.66667
0.74154,0.58003,11.123,0.12004,16.141,280.26,-3.5605,1.1868,-1.9422,-4.7474,-5.5105e-12,-0.97112,0,0,0.066667,1.2632e-15,0,0.66667
0.38666,0.13967,5.7999,-0.54049,-137.75,1360.5,8.3595,-2.7865,-0.95909,11.146,-6.5787e-12,-0.47954,0,0,0.066667,6.3159e-16,0,0.66667
0.40617,0.50856,6.0926,0.01284,3.2091,1285.4,-0.20861,0.069538,-2.011,-0.27815,-1.1699e-11,-1.0055,0,0,0.066667,-0,-0,0.66667
0.29465,0.0027351,4.4197,-0.7459,-204.34,1728.5,8.791,-2.9303,-0.025663,11.721,-2.2666e-12,-0.012831,0,0,0.066667,-0,-0,0.66667
0.29924,0.72252,4.4886,0.33377,91.01,1708.7,-3.9951,1.3317,-1.6071,-5.3268,1.998e-11,-0.80356,0,0,0.066667,-0,-0,0.66667
0.65307,0.7729,9.796,0.40934,70.26,487.1,-10.693,3.5644,-1.4044,-14.258,-9.7788e-13,-0.70218,0,0,0.066667,-0,-0,0.66667
0.042617,0.90375,0.63926,0.60563,181.24,2828.8,-1.0324,0.34411,-0.69418,-1.3766,-3.4634e-05,-0.34709,0,0,0.066667,-9.8686e-18,0,0.66667
0.60103,0.23314,9.0155,-0.40028,-76.538,630.15,9.6233,-3.2078,-1.4237,12.831,1.9351e-11,-0.71186,0,0,0.066667,-1.2632e-15,0,0.66667
0.45501,0.80477,6.8251,0.45715,108.58,1106,-8.3203,2.7734,-1.2612,-11.094,2.1565e-12,-0.63062,0,0,0.066667,-0,-0,0.66667
0.38402,0.73484,5.7604,0.35227,89.935,1370.3,-5.4112,1.8037,-1.5526,-7.2149,-1.1522e-11,-0.77628,0,0,0.066667,6.3159e-16,0,0.66667
0.72104,0.75542,10.816,0.38312,55.016,324.25,-11.05,3.6833,-1.4813,-14.733,1.0853e-11,-0.74065,0,0,0.066667,-2.5264e-15,0,0.66667
0.090843,0.66278,1.3626,0.24417,72.518,2611.7,-0.88723,0.29574,-1.7892,-1.183,2.9216e-09,-0.89458,0,0,0.066667,-0,-0,0.66667
0.24894,0.2326,3.7341,-0.4011,-112.71,1919.1,3.994,-1.3313,-1.435,5.3253,3.31e-11,-0.7175,0,0,0.066667,-0,-0,0.66667
0.16059,0.26301,2.4088,-0.35548,-103.73,2301.5,2.2834,-0.76115,-1.5477,3.0446,-2.473e-10,-0.77385,0,0,0.066667,-3.158e-16,0,0.66667
0.67252,0.43446,10.088,-0.098317,-16.099,436.91,2.6448,-0.88161,-1.9755,3.5264,2.1572e-12,-0.98774,0,0,0.066667,-4.737e-16,0,0.66667
0.19789,0.31044,2.9684,-0.28435,-81.821,2138.2,2.2508,-0.75027,-1.7091,3.0011,-1.4676e-10,-0.85457,0,0,0.066667,-7.8949e-17,0,0.66667
0.47419,0.44472,7.1129,-0.082925,-19.236,1037.3,1.5729,-0.5243,-1.9711,2.0972,-9.1485e-12,-0.98553,0,0,0.066667,-0,-0,0.66667
0.95248,0.16332,14.287,-0.50502,-13.896,12.63,19.241,-6.4136,-1.1024,25.654,-4.6987e-06,-0.55121,0,0,0.066667,-0,-0,0.66667
0.79059,0.82106,11.859,0.4816,54.009,189.23,-15.23,5.0766,-1.1697,-20.306,-1.5745e-10,-0.58486,0,0,0.066667,-0,-0,0.66667
0.6679,0.30867,10.018,-0.287,-47.549,448.79,7.6675,-2.5558,-1.7058,10.223,4.0545e-12,-0.85292,0,0,0.066667,3.158e-16,0,0.66667
0.85654,0.90607,12.848,0.60911,48.548,93.355,-20.869,6.9563,-0.68328,-27.825,-2.1923e-08,-0.34164,0,0,0.066667,1.5159e-15,-7.8044e-17,0.66667
0.28897,0.98897,4.3346,0.73346,201.64,1752,-8.478,2.826,-0.080717,-11.304,-1.4176e-11,-0.040358,0,0,0.066667,-0,-0,0.66667
0.77802,0.63128,11.67,0.19692,23.209,210.25,-6.1282,2.0427,-1.8624,-8.171,7.5859e-12,-0.93118,0,0,0.066667,-2.5264e-15,0,0.66667
0.019068,0.51385,0.28602,0.02077,6.2167,2935,-0.015842,0.0052805,-1.9975,-0.021123,-2.3726e-07,-0.99877,0,0,0.066667,-0,-0,0.66667
0.87353,0.51688,13.103,0.025323,1.7853,71.63,-0.88483,0.29494,-2.0031,-1.1798,-1.0217e-09,-1.0016,0,0,0.066667,2.5264e-15,0,0.66667
0.24772,0.057296,3.7158,-0.66406,-186.91,1924.8,6.58,-2.1933,-0.43537,8.7733,5.5992e-10,-0.21768,0,0,0.066667,-0,-0,0.66667
0.12308,0.25167,1.8462,-0.37249,-109.89,2467.7,1.8338,-0.61127,-1.5118,2.4451,-1.8156e-08,-0.75588,0,0,0.066667,-0,-0,0.66667
0.12635,0.28386,1.8953,-0.3242,-95.555,2453.1,1.6385,-0.54618,-1.6333,2.1847,-3.4791e-09,-0.81666,0,0,0.066667,-3.158e-16,0,0.66667
0.58781,0.20525,8.8171,-0.44212,-86.64,669.04,10.395,-3.4651,-1.2994,13.86,4.051e-12,-0.6497,0,0,0.066667,6.3159e-16,0,0.66667
0.89189,0.26146,13.378,-0.35781,-21.794,53.757,12.765,-4.255,-1.5511,17.02,-3.73e-08,-0.77555,0,0,0.066667,-0,-0,0.66667
0.092472,0.81384,1.3871,0.47077,139.86,2604.5,-1.7413,0.58044,-1.2196,-2.3217,-1.5147e-07,-0.60979,0,0,0.066667,-0,-0,0.66667
0.48349,0.19925,7.2523,-0.45113,-103.53,1005.5,8.7245,-2.9082,-1.2842,11.633,2.8164e-12,-0.6421,0,0,0.066667,-0,-0,0.66667
0.88532,0.85798,13.28,0.53698,34.678,61.061,-19.016,6.3386,-0.97,-25.354,3.7166e-08,-0.485,0,0,0.066667,1.2632e-15,0,0.66667
0.95716,0.88716,14.357,0.58073,14.472,11.204,-22.234,7.4114,-0.79858,-29.646,2.6813e-05,-0.39929,0,0,0.066667,-0,-0,0.66667
0.99077,0.98505,14.862,0.72757,3.984,4.0743,-28.834,9.6114,-0.11253,-38.445,0.00014218,-0.056266,0,0,0.066667,1.2632e-15,0,0.66667
0.36192,0.079453,5.4288,-0.63082,-164.35,1457,9.1322,-3.0441,-0.58679,12.176,5.2065e-12,-0.2934,0,0,0.066667,6.3159e-16,0,0.66667
0.58532,0.88982,8.7798,0.58474,115.19,677,-13.69,4.5634,-0.77774,-18.254,-6.4571e-13,-0.38887,0,0,0.066667,-1.2632e-15,0,0.66667
0.38493,0.55988,5.7739,0.089824,22.903,1366.5,-1.383,0.46101,-1.9672,-1.844,1.2058e-11,-0.98358,0,0,0.066667,1.579e-16,0,0.66667
0.13587,0.62579,2.038,0.18868,55.457,2410.8,-1.0254,0.34181,-1.8711,-1.3673,-1.3695e-09,-0.93554,0,0,0.066667,-0,-0,0.66667
0.76152,0.28575,11.423,-0.32138,-40.348,241.17,9.7895,-3.2632,-1.6311,13.053,4.4897e-12,-0.81555,0,0,0.066667,-0,-0,0.66667
0.22086,0.91893,3.3129,0.6284,179.21,2039.4,-5.5515,1.8505,-0.59912,-7.402,-1.6303e-10,-0.29956,0,0,0.066667,-0,-0,0.66667
0.6968,0.81949,10.452,0.47924,73.801,379.39,-13.357,4.4524,-1.1779,-17.81,2.1769e-12,-0.58895,0,0,0.066667,-0,-0,0.66667
0.80946,0.14408,12.142,-0.53388,-55.066,158.58,17.286,-5.762,-0.98682,23.048,3.0548e-10,-0.49341,0,0,0.066667,-1.2632e-15,0,0.66667
0.27256,0.92771,4.0884,0.64157,178.07,1820.1,-6.9947,2.3316,-0.53029,-9.3262,-1.0035e-11,-0.26515,0,0,0.066667,-3.158e-16,0,0.66667
0.5085,0.79705,7.6275,0.44557,98.94,920.09,-9.063,3.021,-1.2876,-12.084,7.7716e-12,-0.64378,0,0,0.066667,6.3159e-16,0,0.66667
0.42229,0.85988,6.3344,0.53982,132.91,1225.7,-9.1185,3.0395,-0.97361,-12.158,-3.4612e-12,-0.48681,0,0,0.066667,6.3159e-16,0,0.66667
0.054664,0.58636,0.81997,0.12953,38.67,2774.3,-0.28323,0.094411,-1.9341,-0.37764,-1.8414e-07,-0.96707,0,0,0.066667,-3.9475e-17,0,0.66667
0.74161,0.59326,11.124,0.13989,18.808,280.16,-4.1499,1.3833,-1.9254,-5.5331,-2.4825e-12,-0.96272,0,0,0.066667,1.8534e-16,0,0.66667
0.80872,0.17886,12.131,-0.48171,-49.833,159.47,15.583,-5.1943,-1.1735,20.777,5.4764e-11,-0.58674,0,0,0.066667,-1.2632e-15,0,0.66667
0.53813,0.90951,8.072,0.61427,130.8,823.33,-13.222,4.4074,-0.65305,-17.63,1.3835e-11,-0.32653,0,0,0.066667,-1.2632e-15,0,0.66667
0.75933,0.96086,11.39,0.69129,87.75,247.27,-20.997,6.9989,-0.29529,-27.996,1.3124e-11,-0.14765,0,0,0.066667,-1.2632e-15,0,0.66667
0.041085,0.10174,0.61628,-0.59739,-178.79,2835.7,0.98176,-0.32723,-0.72607,1.309,3.3052e-05,-0.36304,0,0,0.066667,-0,-0,0.66667
0.18226,0.92309,2.7339,0.63464,183.96,2206.8,-4.6268,1.5423,-0.56327,-6.169,-1.6827e-08,-0.28163,0,0,0.066667,-0,-0,0.66667
0.5671,0.98912,8.5065,0.73368,149.3,732.86,-16.643,5.5476,-0.082677,-22.19,-4.6558e-12,-0.041339,0,0,0.066667,1.2632e-15,0,0.66667
0.62121,0.67436,9.3181,0.26155,48.051,572.49,-6.4989,2.1663,-1.755,-8.6652,4.3099e-12,-0.8775,0,0,0.066667,6.3159e-16,0,0.66667
0.78202,0.95959,11.73,0.68938,80.274,205.39,-21.564,7.1881,-0.31875,-28.752,2.5554e-10,-0.15937,0,0,0.066667,-6.3159e-16,0,0.66667
0.60149,0.78602,9.0223,0.42903,81.975,628.92,-10.322,3.4408,-1.3397,-13.763,-1.4655e-13,-0.66984,0,0,0.066667,-1.2632e-15,0,0.66667
0.56027,0.64982,8.404,0.22473,46.136,752.13,-5.0363,1.6788,-1.8237,-6.715,2.9248e-12,-0.91185,0,0,0.066667,-6.1565e-16,0,0.66667
0.66962,0.97796,10.044,0.71694,118.6,446.4,-19.203,6.4011,-0.17532,-25.604,9.4058e-12,-0.087659,0,0,0.066667,-1.2632e-15,6.5643e-17,0.66667
0.18539,0.29702,2.7809,-0.30447,-88.054,2192.7,2.2579,-0.75262,-1.6735,3.0105,2.0798e-10,-0.83674,0,0,0.066667,-3.158e-16,0,0.66667
0.14813,0.40063,2.222,-0.14906,-43.652,2356.4,0.88319,-0.2944,-1.9151,1.1776,3.3705e-11,-0.95753,0,0,0.066667,-1.4914e-16,0,0.66667
0.2334,0.74877,3.501,0.37315,105.68,1985.3,-3.4837,1.1612,-1.5137,-4.645,4.4093e-11,-0.75685,0,0,0.066667,-7.8949e-17,0,0.66667
0.88661,0.57757,13.299,0.11635,7.4012,58.164,-4.1264,1.3755,-1.9495,-5.5019,2.9876e-09,-0.97476,0,0,0.066667,-0,-0,0.66667
0.62684,0.65672,9.4026,0.23508,42.69,556.83,-5.8944,1.9648,-1.8091,-7.8592,2.7192e-12,-0.90457,0,0,0.066667,-0,-0,0.66667
0.65717,0.14509,9.8576,-0.53236,-90.58,476.97,13.994,-4.6647,-1,18.659,1.0534e-12,-0.50001,0,0,0.066667,6.3159e-16,0,0.66667
0.3064,0.70785,4.596,0.31177,84.601,1679.3,-3.8211,1.2737,-1.6487,-5.0948,7.9636e-12,-0.82437,0,0,0.066667,3.158e-16,0,0.66667
0.25905,0.83032,3.8857,0.49548,138.51,1876.5,-5.1341,1.7114,-1.1209,-6.8455,4.921e-11,-0.56047,0,0,0.066667,-0,-0,0.66667
0.59709,0.85008,8.9563,0.52512,101.22,642.07,-12.542,4.1806,-1.0195,-16.722,-3.8369e-13,-0.50975,0,0,0.066667,-0,-0,0.66667
0.21493,0.16032,3.2239,-0.50952,-145.63,2064.8,4.3803,-1.4601,-1.076,5.8404,-6.9242e-10,-0.53799,0,0,0.066667,-0,-0,0.66667
0.93549,0.81204,14.032,0.46806,17.366,21.061,-17.515,5.8382,-1.2261,-23.353,2.3162e-07,-0.61304,0,0,0.066667,-5.5264e-16,0,0.66667
0.80368,0.67108,12.055,0.25662,27.129,166.62,-8.2495,2.7498,-1.7595,-10.999,-9.0848e-11,-0.87975,0,0,0.066667,-1.2632e-15,0,0.66667
0.077647,0.31879,1.1647,-0.27182,-80.916,2670.9,0.84424,-0.28141,-1.7474,1.1257,1.9427e-07,-0.87369,0,0,0.066667,-0,-0,0.66667
0.17487,0.50876,2.6231,0.013146,3.8155,2238.6,-0.091954,0.030651,-2,-0.12261,-6.3449e-11,-1,0,0,0.066667,6.3159e-16,0,0.66667
0.48717,0.46685,7.3075,-0.049732,-11.35,992.08,0.96912,-0.32304,-1.9934,1.2922,1.9616e-11,-0.9967,0,0,0.066667,-2.3685e-16,0,0.66667
0.26934,0.37478,4.0401,-0.18783,-52.159,1832.9,2.0236,-0.67453,-1.8746,2.6981,2.775e-11,-0.9373,0,0,0.066667,7.1548e-16,0,0.66667
0.2902,0.61015,4.353,0.16523,45.303,1745.9,-1.918,0.63933,-1.8966,-2.5573,3.3971e-11,-0.94832,0,0,0.066667,-0,-0,0.66667
0.96137,0.73957,14.421,0.35936,8.007,8.2777,-13.819,4.6064,-1.5344,-18.425,2.8241e-06,-0.76721,0,0,0.066667,-0,-0,0.66667
0.34206,0.85788,5.1309,0.53682,142.05,1535.4,-7.3449,2.4483,-0.97997,-9.7932,-7.6175e-12,-0.48998,0,0,0.066667,6.3159e-16,1.6136e-17,0.66667
0.8359,0.38975,12.538,-0.16538,-14.855,118.2,5.5295,-1.8432,-1.8961,7.3727,1.9257e-10,-0.94805,0,0,0.066667,1.2632e-15,0,0.66667
0.34459,0.88581,5.1689,0.57872,152.86,1525.4,-7.9769,2.659,-0.81726,-10.636,1.1081e-11,-0.40863,0,0,0.066667,-6.3159e-16,0,0.66667
0.72145,0.95561,10.822,0.68341,98.243,324.91,-19.722,6.5739,-0.34061,-26.296,3.662e-11,-0.1703,0,0,0.066667,-0,-0,0.66667
0.18399,0.30215,2.7599,-0.29678,-85.874,2198.8,2.1842,-0.72807,-1.6859,2.9123,2.0293e-10,-0.84296,0,0,0.066667,-1.579e-16,0,0.66667
0.68595,0.46095,10.289,-0.058575,-9.2701,404.05,1.6072,-0.53573,-1.9933,2.1429,-1.2974e-12,-0.99667,0,0,0.066667,6.3159e-16,0,0.66667
0.57425,0.40398,8.6138,-0.14402,-28.878,709.04,3.3083,-1.1028,-1.9255,4.411,2.7267e-12,-0.96274,0,0,0.066667,-6.1948e-16,0,0.66667
0.72788,0.25412,10.918,-0.36881,-51.861,309.44,10.738,-3.5794,-1.5111,14.317,-1.1755e-11,-0.75557,0,0,0.066667,2.5264e-15,0,0.66667
0.43689,0.28551,6.5534,-0.32173,-77.943,1171.3,5.6225,-1.8742,-1.6418,7.4966,6.0085e-12,-0.82089,0,0,0.066667,-0,-0,0.66667
0.94886,0.7014,14.233,0.3021,8.8846,13.231,-11.466,3.822,-1.6726,-15.288,5.4208e-07,-0.83632,0,0,0.066667,-1.2632e-15,0,0.66667
0.98993,0.48451,14.849,-0.02324,-0.12611,0.6717,0.92026,-0.30675,-1.9929,1.227,-2.3235e-06,-0.99646,0,0,0.066667,-2.4355e-15,0,0.66667
0.37841,0.39853,5.6761,-0.1522,-39.036,1391.7,2.3037,-0.7679,-1.9172,3.0716,3.4051e-12,-0.95861,0,0,0.066667,-0,-0,0.66667
0.75586,0.011683,11.338,-0.73248,-94.177,254.27,22.146,-7.382,-0.086944,29.528,8.515e-11,-0.043472,0,0,0.066667,2.5264e-15,0,0.66667
0.93393,0.78293,14.009,0.42439,16.1,21.739,-15.854,5.2846,-1.3597,-21.138,4.2104e-07,-0.67985,0,0,0.066667,-0,-0,0.66667
0.81266,0.43779,12.19,-0.09331,-9.4521,152.09,3.0332,-1.0111,-1.9816,4.0442,1.3204e-10,-0.99078,0,0,0.066667,-0,-0,0.66667
0.44965,0.018959,6.7448,-0.72156,-172.67,1126.2,12.978,-4.326,-0.14785,17.304,-1.5471e-11,-0.073923,0,0,0.066667,-0,7.5354e-17,0.66667
0.0019673,0.20045,0.02951,-0.44933,-134.63,3012.4,0.03535,-0.011791,-1.2858,0.047129,-1.1238e-05,-0.64291,0,0,0.066667,-0,-0,0.66667
0.94677,0.115,14.202,-0.5775,-17.817,15.761,21.87,-7.2901,-0.80837,29.16,4.9975e-06,-0.40419,0,0,0.066667,-0,-0,0.66667
0.34939,0.57471,5.2409,0.11206,29.451,1505.6,-1.5662,0.52206,-1.9502,-2.0882,8.2943e-12,-0.97509,0,0,0.066667,-0,-0,0.66667
0.037035,0.09806,0.55553,-0.60291,-180.5,2854,0.89316,-0.2977,-0.70304,1.1909,2.3038e-05,-0.35152,0,0,0.066667,-0,-0,0.66667
0.24443,0.3046,3.6665,-0.2931,-82.53,1938.1,2.8657,-0.95524,-1.6898,3.821,1.88e-11,-0.84491,0,0,0.066667,-0,-0,0.66667
0.96294,0.67631,14.444,0.26446,5.6363,7.3402,-10.186,3.3955,-1.746,-13.582,6.9722e-07,-0.873,0,0,0.066667,-1.2632e-15,0,0.66667
0.46377,0.11732,6.9566,-0.57402,-135.03,1075.1,10.648,-3.5495,-0.82464,14.198,-1.1866e-12,-0.41232,0,0,0.066667,3.158e-16,0,0.66667
0.12421,0.10987,1.8632,-0.5852,-172.72,2462.8,2.9076,-0.96919,-0.79049,3.8767,1.6115e-07,-0.39524,0,0,0.066667,-0,7.8872e-17,0.66667
0.66748,0.057237,10.012,-0.66414,-110.39,451.44,17.732,-5.9107,-0.42927,23.643,-2.8493e-12,-0.21464,0,0,0.066667,9.4739e-16,0,0.66667
0.013877,0.98545,0.20815,0.72818,218.39,2958.6,-0.40409,0.13466,-0.11968,-0.53881,-5.061e-05,-0.059839,0,0,0.066667,-0,-7.8573e-17,0.66667
0.79892,0.42357,11.984,-0.11465,-12.376,174.1,3.6639,-1.2213,-1.9566,4.8852,-2.1257e-11,-0.9783,0,0,0.066667,-1.2632e-15,0,0.66667
0.53493,0.28333,8.024,-0.32501,-69.448,832.67,6.9544,-2.3181,-1.6241,9.2725,-4.4333e-12,-0.81207,0,0,0.066667,1.2632e-15,0,0.66667
0.85021,0.49177,12.753,-0.012342,-1.019,99.11,0.41973,-0.13991,-1.9937,0.55964,1.9626e-09,-0.99686,0,0,0.066667,1.8948e-15,0,0.66667
0.2292,0.39748,3.438,-0.15379,-43.626,2003.1,1.4099,-0.46997,-1.9117,1.8799,7.2877e-12,-0.95583,0,0,0.066667,-1.579e-16,0,0.66667
0.090134,0.75312,1.352,0.37968,112.81,2614.9,-1.3689,0.45629,-1.4872,-1.8252,7.8014e-09,-0.74358,0,0,0.066667,-0,-0,0.66667
0.6928,0.87025,10.392,0.55538,86.498,389.15,-15.391,5.1302,-0.89937,-20.521,3.423e-12,-0.44968,0,0,0.066667,9.4739e-16,0,0.66667
0.81499,0.88573,12.225,0.57859,58.148,150.28,-18.862,6.2873,-0.81171,-25.149,7.2994e-10,-0.40585,0,0,0.066667,-2.5264e-15,0,0.66667
0.63154,0.75341,9.4731,0.38012,68.388,544.33,-9.6025,3.2008,-1.4811,-12.803,-9.6634e-12,-0.74055,0,0,0.066667,2.5264e-15,0,0.66667
0.77283,0.25272,11.592,-0.37091,-44.651,220.19,11.466,-3.822,-1.5054,15.288,7.4909e-11,-0.75272,0,0,0.066667,-2.5264e-15,0,0.66667
0.63111,0.69567,9.4666,0.2935,52.835,545.27,-7.4092,2.4697,-1.6883,-9.879,7.0082e-12,-0.84415,0,0,0.066667,-1.2632e-15,0,0.66667
0.89066,0.21171,13.36,-0.43243,-26.65,55.271,15.406,-5.1353,-1.3471,20.541,-1.8734e-10,-0.67356,0,0,0.066667,6.3159e-16,0,0.66667
0.99276,0.68328,14.891,0.27491,1.0511,0.88943,-10.917,3.639,-1.7256,-14.556,3.5338e-06,-0.86281,0,0,0.066667,-0,-0,0.66667
0.17377,0.15252,2.6065,-0.52122,-151.49,2243.8,3.6229,-1.2076,-1.0389,4.8305,1.4123e-09,-0.51944,0,0,0.066667,-1.579e-16,0,0.66667
0.54939,0.89922,8.2408,0.59883,125.3,787.37,-13.16,4.3865,-0.72725,-17.546,-3.9257e-12,-0.36363,0,0,0.066667,-0,-0,0.66667
0.11999,0.51846,1.7999,0.027697,8.1734,2481.3,-0.13294,0.044314,-1.993,-0.17726,3.5478e-09,-0.99651,0,0,0.066667,-0,-0,0.66667
0.76715,0.62586,11.507,0.18879,23.202,230.18,-5.7932,1.9311,-1.88,-7.7243,1.196e-11,-0.94,0,0,0.066667,-0,-0,0.66667
0.22811,0.13594,3.4216,-0.54608,-155.15,2008.2,4.9826,-1.6609,-0.9339,6.6435,3.1752e-10,-0.46695,0,0,0.066667,-0,-0,0.66667
0.11092,0.93622,1.6638,0.65434,193.79,2522.1,-2.9032,0.96772,-0.48422,-3.8709,-1.8376e-08,-0.24211,0,0,0.066667,-1.9737e-16,0,0.66667
0.96882,0.67706,14.532,0.2656,4.7556,5.4471,-10.293,3.4309,-1.7607,-13.724,-2.1933e-06,-0.88034,0,0,0.066667,-1.2632e-15,0,0.66667
0.44753,0.59294,6.7129,0.13941,33.367,1132.4,-2.4955,0.83184,-1.9272,-3.3274,-1.9428e-11,-0.96362,0,0,0.066667,9.4104e-16,0,0.66667
0.82994,0.93803,12.449,0.65705,61.252,128.76,-21.812,7.2708,-0.47073,-29.083,-5.0214e-08,-0.23536,0,0,0.066667,-0,-0,0.66667
0.025977,0.7558,0.38966,0.38369,114.87,2903.8,-0.39869,0.13291,-1.4725,-0.53159,1.0727e-05,-0.73624,0,0,0.066667,-0,-0,0.66667
0.090511,0.88705,1.3577,0.58058,172.61,2613.3,-2.1019,0.70065,-0.80122,-2.8026,-8.1759e-08,-0.40061,0,0,0.066667,-0,-0,0.66667
0.81523,0.42493,12.228,-0.1126,-11.266,148.17,3.6718,-1.2239,-1.9561,4.8957,9.7548e-11,-0.97804,0,0,0.066667,-1.2632e-15,0,0.66667
0.90936,0.78987,13.64,0.4348,22.405,38.922,-15.816,5.2719,-1.3281,-21.088,5.9337e-08,-0.66405,0,0,0.066667,-0,-0,0.66667
0.068241,0.54807,1.0236,0.072099,21.487,2713.2,-0.1968,0.065601,-1.9761,-0.2624,-1.1146e-07,-0.98807,0,0,0.066667,-0,-0,0.66667
0.65027,0.57187,9.7541,0.1078,18.604,493.7,-2.8041,0.93469,-1.9533,-3.7387,-7.7329e-12,-0.97665,0,0,0.066667,1.2632e-15,0,0.66667
0.55332,0.81868,8.2997,0.47802,99.334,774.52,-10.58,3.5266,-1.1821,-14.106,-4.2117e-12,-0.59104,0,0,0.066667,-0,-0,0.66667
0.20654,0.83462,3.0981,0.50193,143.99,2101,-4.1467,1.3822,-1.1037,-5.529,-7.4625e-11,-0.55183,0,0,0.066667,1.579e-16,0,0.66667
0.4248,0.36788,6.3719,-0.19818,-48.619,1215.7,3.3675,-1.1225,-1.8614,4.49,7.8986e-12,-0.93068,0,0,0.066667,-3.158e-16,0,0.66667
0.4726,0.24122,7.0891,-0.38816,-90.274,1043.3,7.3379,-2.446,-1.4626,9.7839,3.078e-12,-0.73132,0,0,0.066667,6.3159e-16,0,0.66667
0.011484,0.19768,0.17226,-0.45348,-135.86,2969.3,0.2083,-0.06942,-1.2664,0.27774,2.021e-05,-0.6332,0,0,0.066667,1.9737e-17,0,0.66667
0.54494,0.030193,8.1742,-0.70471,-148.58,801.97,15.361,-5.1204,-0.23944,20.482,-3.7756e-12,-0.11972,0,0,0.066667,1.579e-16,-1.0325e-17,0.66667
0.7824,0.56254,11.736,0.093817,10.862,202.29,-2.9361,0.9787,-1.977,-3.9148,-3.6144e-11,-0.98852,0,0,0.066667,-0,-0,0.66667
0.91446,0.69653,13.717,0.2948,14.337,34.332,-10.783,3.5945,-1.6847,-14.378,-1.2556e-09,-0.84234,0,0,0.066667,2.5264e-15,0,0.66667
0.046043,0.5624,0.69065,0.093599,27.966,2813.2,-0.17238,0.057461,-1.9785,-0.22984,-3.1706e-07,-0.98924,0,0,0.066667,1.9121e-17,0,0.66667
0.79178,0.84718,11.877,0.52077,58.131,187.42,-16.493,5.4978,-1.0323,-21.991,-2.5494e-10,-0.51616,0,0,0.066667,-0,-0,0.66667
0.43939,0.49438,6.5908,-0.0084251,-2.0346,1161.9,0.14808,-0.049359,-2.0043,0.19743,9.2966e-12,-1.0022,0,0,0.066667,-6.3159e-16,0,0.66667
0.70462,0.8257,10.569,0.48855,73.633,361.36,-13.77,4.5899,-1.1567,-18.36,-6.0743e-12,-0.57835,0,0,0.066667,-0,-0,0.66667
0.60938,0.72096,9.1407,0.33144,62.352,605.96,-8.0789,2.693,-1.6223,-10.772,8.062e-12,-0.81114,0,0,0.066667,-0,-0,0.66667
0.91416,0.091372,13.712,-0.61294,-30.095,36.323,22.413,-7.471,-0.65874,29.884,3.9548e-07,-0.32937,0,0,0.066667,3.158e-16,0,0.66667
0.67954,0.21584,10.193,-0.42624,-68.656,420.39,11.586,-3.862,-1.3485,15.448,8.8738e-12,-0.67424,0,0,0.066667,-3.158e-16,0,0.66667
0.20458,0.61786,3.0687,0.17679,50.721,2109.2,-1.4467,0.48224,-1.8948,-1.929,1.3468e-11,-0.94742,0,0,0.066667,-1.579e-16,0,0.66667
0.98969,0.11041,14.845,-0.58438,-3.4609,2.9483,23.134,-7.7116,-0.78094,30.846,-8.9789e-05,-0.39047,0,0,0.066667,1.2632e-15,0,0.66667
0.80836,0.96883,12.125,0.70325,73.064,161.45,-22.739,7.5797,-0.24064,-30.319,2.2566e-10,-0.12032,0,0,0.066667,-0,-0,0.66667
0.05115,0.84838,0.76725,0.52257,156.2,2790.3,-1.0692,0.35639,-1.027,-1.4256,-1.4167e-07,-0.51348,0,0,0.066667,-0,-0,0.66667
0.99025,0.55421,14.854,0.081317,0.42667,0.67744,-3.2209,1.0736,-1.9713,-4.2946,2.5171e-07,-0.98566,0,0,0.066667,6.3159e-16,0,0.66667
0.084374,0.42204,1.2656,-0.11695,-34.768,2640.7,0.39469,-0.13156,-1.9454,0.52626,2.6236e-08,-0.97272,0,0,0.066667,-0,-0,0.66667
0.41597,0.6851,6.2396,0.27765,68.743,1248.7,-4.6198,1.5399,-1.7215,-6.1598,6.2172e-12,-0.86077,0,0,0.066667,-7.8949e-17,0,0.66667
0.88805,0.48665,13.321,-0.020019,-1.2577,56.675,0.71111,-0.23704,-2.0002,0.94815,-3.4738e-09,-1.0001,0,0,0.066667,1.2632e-15,0,0.66667
0.76211,0.85011,11.432,0.52516,65.886,240.92,-16.009,5.3365,-1.0189,-21.346,2.3137e-11,-0.50943,0,0,0.066667,-0,-0,0.66667
0.67305,0.223,10.096,-0.4155,-68.016,436.34,11.186,-3.7287,-1.3936,14.915,7.0495e-12,-0.69682,0,0,0.066667,-0,-0,0.66667
0.53369,0.95804,8.0054,0.68706,147.35,837.99,-14.667,4.889,-0.32375,-19.556,7.3745e-12,-0.16188,0,0,0.066667,-0,-0,0.66667
0.34698,0.67441,5.2046,0.26161,68.901,1515.3,-3.631,1.2103,-1.7563,-4.8413,7.9361e-12,-0.87817,0,0,0.066667,-0,-0,0.66667
0.89994,0.24899,13.499,-0.37652,-21.308,46.524,13.554,-4.5179,-1.4915,18.072,-6.836e-08,-0.74573,0,0,0.066667,1.6579e-15,0,0.66667
0.81896,0.76853,12.284,0.40279,39.626,143.33,-13.195,4.3983,-1.4171,-17.593,-4.3039e-10,-0.70854,0,0,0.066667,-0,-0,0.66667
0.94589,0.56327,14.188,0.094906,2.9432,14.143,-3.5908,1.1969,-1.9629,-4.7878,9.3598e-08,-0.98147,0,0,0.066667,-0,-0,0.66667
0.39956,0.6123,5.9934,0.16845,42.375,1310.5,-2.6923,0.89743,-1.8929,-3.5897,8.9098e-12,-0.94643,0,0,0.066667,-0,-0,0.66667
0.23362,0.88896,3.5043,0.58343,165.34,1984.6,-5.4521,1.8174,-0.798,-7.2695,-4.124e-10,-0.399,0,0,0.066667,-0,-0,0.66667
0.72322,0.45298,10.848,-0.070529,-10.051,318.83,2.0403,-0.6801,-1.979,2.7204,3.0367e-12,-0.9895,0,0,0.066667,-1.2632e-15,0,0.66667
0.6891,0.71709,10.336,0.32564,51.147,396.98,-8.9758,2.9919,-1.6292,-11.968,7.1205e-12,-0.81462,0,0,0.066667,-1.4211e-15,0,0.66667
0.54337,0.36183,8.1505,-0.20725,-43.707,805.35,4.5046,-1.5015,-1.8462,6.0061,1.104e-11,-0.9231,0,0,0.066667,6.3159e-16,0,0.66667
0.53711,0.91797,8.0566,0.62695,133.72,826.68,-13.47,4.4899,-0.59701,-17.959,7.5682e-12,-0.29851,0,0,0.066667,-0,-0,0.66667
0.80969,0.85471,12.145,0.53207,54.819,158.21,-17.232,5.7441,-0.99443,-22.977,-4.2453e-10,-0.49721,0,0,0.066667,1.2632e-15,0,0.66667
0.79958,0.93922,11.994,0.65883,71.197,175.25,-21.072,7.0238,-0.45919,-28.095,-1.0732e-08,-0.22959,0,0,0.066667,-0,-0,0.66667
0.84777,0.23007,12.717,-0.40489,-33.998,103.15,13.73,-4.5767,-1.4149,18.307,6.2112e-09,-0.70744,0,0,0.066667,-0,-0,0.66667
0.19036,0.017808,2.8554,-0.72329,-209.09,2171.6,5.5075,-1.8358,-0.14064,7.3433,-1.371e-09,-0.070321,0,0,0.066667,-6.3159e-16,0,0.66667
0.20027,0.21397,3.0041,-0.42905,-123.38,2128.1,3.4371,-1.1457,-1.347,4.5828,7.1681e-11,-0.6735,0,0,0.066667,3.158e-16,0,0.66667
0.77366,0.37533,11.605,-0.18701,-22.42,218.12,5.7873,-1.9291,-1.8706,7.7164,-5.179e-12,-0.93532,0,0,0.066667,-2.5264e-15,0,0.66667
0.56553,0.59476,8.483,0.14214,28.924,735.71,-3.2154,1.0718,-1.9298,-4.2872,4.5821e-12,-0.96492,0,0,0.066667,-0,-0,0.66667
0.2689,0.094748,4.0335,-0.60788,-169.06,1835.3,6.5384,-2.1795,-0.68716,8.7179,3.132e-11,-0.34358,0,0,0.066667,-0,-0,0.66667
0.47936,0.47423,7.1903,-0.038656,-8.9095,1019.2,0.74119,-0.24706,-1.9911,0.98825,4.771e-12,-0.99554,0,0,0.066667,-0,-0,0.66667
0.67466,0.39539,10.12,-0.15692,-25.56,431.68,4.2346,-1.4115,-1.9135,5.6461,4.69e-12,-0.95676,0,0,0.066667,-0,-0,0.66667
0.68423,0.27147,10.263,-0.34279,-54.534,408.71,9.382,-3.1273,-1.582,12.509,7.4873e-12,-0.79098,0,0,0.066667,6.3159e-16,0,0.66667
0.82139,0.41112,12.321,-0.13332,-12.936,138.9,4.3802,-1.4601,-1.9313,5.8403,3.5037e-11,-0.96565,0,0,0.066667,2.5264e-15,0,0.66667
0.36466,0.0047454,5.47,-0.74288,-193.22,1446.6,10.836,-3.612,-0.033849,14.448,2.3926e-11,-0.016925,0,0,0.066667,-0,-0,0.66667
0.67275,0.24439,10.091,-0.38341,-62.8,436.96,10.318,-3.4392,-1.4858,13.757,1.2025e-11,-0.74289,0,0,0.066667,-1.2632e-15,0,0.66667
0.55308,0.35718,8.2961,-0.21423,-44.495,774.59,4.7395,-1.5798,-1.831,6.3193,8.8911e-12,-0.91548,0,0,0.066667,-0,-0,0.66667
0.40642,0.13019,6.0962,-0.55471,-138.78,1285.3,9.0177,-3.0059,-0.91757,12.024,6.3798e-12,-0.45879,0,0,0.066667,-0,-0,0.66667
0.39796,0.34808,5.9694,-0.22788,-57.416,1316.7,3.6274,-1.2091,-1.8097,4.8366,7.693e-12,-0.90483,0,0,0.066667,-0,-0,0.66667
0.61288,0.81187,9.1932,0.4678,87.458,596.48,-11.468,3.8227,-1.2224,-15.291,5.4365e-12,-0.61119,0,0,0.066667,1.1842e-16,0,0.66667
0.061349,0.072785,0.92024,-0.64082,-191.42,2744.4,1.5726,-0.5242,-0.54675,2.0968,-1.2403e-05,-0.27337,0,0,0.066667,-0,6.9726e-17,0.66667
0.7645,0.67763,11.467,0.26644,33.079,235.35,-8.1478,2.7159,-1.7546,-10.864,-1.867e-12,-0.87728,0,0,0.066667,-0,-0,0.66667
0.23365,0.93904,3.5047,0.65856,186.7,1984.7,-6.1549,2.0516,-0.46771,-8.2065,1.3604e-09,-0.23385,0,0,0.066667,-6.3159e-16,0,0.66667
0.16594,0.55642,2.4891,0.084633,24.642,2277.9,-0.56176,0.18725,-1.9696,-0.74901,-1.2291e-10,-0.98478,0,0,0.066667,9.8255e-17,0,0.66667
0.42348,0.15657,6.3523,-0.51515,-126.67,1221.2,8.7262,-2.9087,-1.063,11.635,1.8214e-11,-0.53148,0,0,0.066667,1.2632e-15,0,0.66667
0.46845,0.72071,7.0267,0.33106,77.368,1057.8,-6.2034,2.0678,-1.6219,-8.2712,-5.8882e-12,-0.81093,0,0,0.066667,1.2632e-15,0,0.66667
0.27444,0.64514,4.1165,0.21771,60.279,1811.5,-2.3899,0.79665,-1.8252,-3.1866,2.3353e-11,-0.91262,0,0,0.066667,-0,-0,0.66667
0.31013,0.37143,4.652,-0.19285,-52.186,1663.9,2.3924,-0.79745,-1.871,3.1898,1.0963e-11,-0.9355,0,0,0.066667,9.1817e-17,0,0.66667
0.67315,0.48338,10.097,-0.024926,-4.0748,435.31,0.67115,-0.22372,-2.004,0.89487,-3.3565e-12,-1.002,0,0,0.066667,1.2632e-15,0,0.66667
0.030054,0.92243,0.45081,0.63365,189.82,2885.5,-0.76176,0.25396,-0.57892,-1.0157,5.771e-05,-0.28946,0,0,0.066667,3.9475e-17,-7.8848e-17,0.66667
0.65518,0.84641,9.8278,0.51961,88.811,482.05,-13.618,4.5392,-1.0482,-18.157,9.2184e-12,-0.52408,0,0,0.066667,-2.5264e-15,9.0673e-17,0.66667
0.52145,0.99389,7.8218,0.74083,161.81,878.22,-15.452,5.1508,-0.043747,-20.603,4.8406e-13,-0.021874,0,0,0.066667,-0,-0,0.66667
0.47871,0.60007,7.1806,0.15011,34.629,1021.5,-2.8744,0.95812,-1.9152,-3.8325,9.6276e-12,-0.9576,0,0,0.066667,-0,-0,0.66667
0.72049,0.077973,10.807,-0.63304,-91.221,326.68,18.244,-6.0813,-0.57954,24.325,1.106e-11,-0.28977,0,0,0.066667,-0,-0,0.66667
0.68825,0.062768,10.324,-0.65585,-103.46,400.49,18.056,-6.0185,-0.48056,24.074,-1.7071e-12,-0.24028,0,0,0.066667,-0,-0,0.66667
0.064811,0.85186,0.97216,0.52779,157.52,2728.7,-1.3683,0.45609,-1.0124,-1.8244,2.4437e-07,-0.50618,0,0,0.066667,-0,-0,0.66667
0.80024,0.17718,12.004,-0.48423,-52.077,173.11,15.5,-5.1667,-1.1658,20.667,-9.4326e-10,-0.58288,0,0,0.066667,6.3159e-16,0,0.66667
0.039175,0.31591,0.58763,-0.27613,-82.573,2844.2,0.4327,-0.14423,-1.7233,0.57693,1.3656e-06,-0.86164,0,0,0.066667,-0,-0,0.66667
0.027013,0.73317,0.40519,0.34976,104.69,2899.2,-0.37792,0.12598,-1.5622,-0.50389,7.882e-06,-0.78111,0,0,0.066667,-0,-0,0.66667
0.52587,0.23344,7.888,-0.39983,-86.613,862.37,8.4104,-2.8035,-1.4267,11.214,3.0429e-12,-0.71334,0,0,0.066667,-0,-0,0.66667
0.7348,0.49708,11.022,-0.0043849,-0.60264,294.15,0.12888,-0.04296,-2.0108,0.17184,-3.7252e-12,-1.0054,0,0,0.066667,-3.158e-16,0,0.66667
0.50557,0.70884,7.5836,0.31326,69.807,929.59,-6.3352,2.1117,-1.6461,-8.4469,-3.8343e-12,-0.82307,0,0,0.066667,6.3159e-16,0,0.66667
0.29367,0.9591,4.405,0.68866,188.72,1732.4,-8.0895,2.6965,-0.31373,-10.786,6.8638e-12,-0.15686,0,0,0.066667,3.158e-16,-6.7387e-17,0.66667
0.18618,0.37326,2.7927,-0.19011,-54.952,2189.2,1.4158,-0.47193,-1.8788,1.8877,3.7769e-12,-0.93941,0,0,0.066667,3.5527e-16,0,0.66667
0.66274,0.91465,9.9411,0.62198,104.52,463.18,-16.488,5.4962,-0.61872,-21.985,-3.5314e-12,-0.30936,0,0,0.066667,-0,-0,0.66667
0.94213,0.57844,14.132,0.11766,3.9005,16.098,-4.4341,1.478,-1.9471,-5.9122,1.5023e-07,-0.97357,0,0,0.066667,-1.2632e-15,0,0.66667
0.15878,0.65999,2.3817,0.23998,70.053,2309.4,-1.5241,0.50805,-1.7979,-2.0322,4.213e-11,-0.89896,0,0,0.066667,-6.3159e-16,0,0.66667
0.27586,0.95722,4.138,0.68583,190.03,1806.4,-7.5679,2.5226,-0.32279,-10.091,-2.2375e-11,-0.1614,0,0,0.066667,-0,-0,0.66667
0.99109,0.69236,14.866,0.28855,1.3917,1.0952,-11.439,3.813,-1.6985,-15.252,3.3777e-06,-0.84923,0,0,0.066667,-0,-0,0.66667
0.83374,0.1849,12.506,-0.47265,-43.064,122.27,15.763,-5.2542,-1.2017,21.017,-4.4088e-09,-0.60083,0,0,0.066667,1.8948e-15,0,0.66667
0.75016,0.47517,11.252,-0.037248,-4.8646,262.82,1.1177,-0.37256,-2.0066,1.4902,-4.5233e-12,-1.0033,0,0,0.066667,-0,-0,0.66667
0.042073,0.27303,0.6311,-0.34046,-101.8,2831.2,0.57297,-0.19099,-1.5843,0.76396,2.9203e-06,-0.79215,0,0,0.066667,-0,-0,0.66667
0.027017,0.59236,0.40526,0.13854,41.452,2899.1,-0.14971,0.049906,-1.9304,-0.19962,1.8431e-06,-0.96518,0,0,0.066667,4.9343e-17,0,0.66667
0.48721,0.38564,7.3082,-0.17154,-39.152,992.02,3.3431,-1.1144,-1.8963,4.4575,-6.1999e-12,-0.94815,0,0,0.066667,1.2632e-15,0,0.66667
0.032196,0.75526,0.48294,0.38289,114.58,2875.8,-0.4931,0.16437,-1.487,-0.65747,2.5647e-06,-0.74349,0,0,0.066667,-7.8949e-17,0,0.66667
0.10153,0.068736,1.5229,-0.6469,-191.97,2564.1,2.6271,-0.87569,-0.50603,3.5027,3.0283e-08,-0.25302,0,0,0.066667,-0,-0,0.66667
0.56329,0.20885,8.4494,-0.43673,-89.279,743.27,9.8403,-3.2801,-1.3302,13.12,7.5477e-12,-0.66508,0,0,0.066667,-0,-0,0.66667
0.4278,0.23171,6.4171,-0.40244,-98.469,1204.9,6.8866,-2.2955,-1.4186,9.1822,9.1651e-12,-0.70929,0,0,0.066667,-0,-0,0.66667
0.79087,0.71861,11.863,0.32791,36.688,188.1,-10.373,3.4578,-1.6137,-13.831,3.3533e-11,-0.80684,0,0,0.066667,4.9343e-17,0,0.66667
0.27399,0.50562,4.1098,0.0084336,2.3352,1813.3,-0.092429,0.03081,-1.9939,-0.12324,3.1339e-11,-0.99693,0,0,0.066667,-0,-0,0.66667
0.27245,0.50798,4.0867,0.011964,3.3157,1819.8,-0.13038,0.04346,-1.9935,-0.17384,1.983e-11,-0.99676,0,0,0.066667,1.2632e-15,0,0.66667
0.40582,0.33431,6.0873,-0.24854,-62.152,1286.8,4.0345,-1.3448,-1.7903,5.3793,1.5925e-11,-0.89516,0,0,0.066667,-6.3159e-16,0,0.66667
0.67323,0.63754,10.098,0.20631,33.73,435.3,-5.5558,1.8519,-1.8546,-7.4078,-3.372e-12,-0.92728,0,0,0.066667,1.2632e-15,0,0.66667
0.9815,0.87609,14.722,0.56413,6.0615,4.0067,-22.148,7.3825,-0.87052,-29.53,-1.3034e-05,-0.43526,0,0,0.066667,2.5264e-15,-9.532e-20,0.66667
0.39748,0.70174,5.9622,0.30262,76.294,1318.6,-4.8114,1.6038,-1.668,-6.4152,1.7413e-12,-0.834,0,0,0.066667,-6.3159e-16,0,0.66667
0.74457,0.49309,11.169,-0.010359,-1.3788,274.02,0.30852,-0.10284,-1.9952,0.41136,-2.8025e-12,-0.99759,0,0,0.066667,-0,-0,0.66667
0.85672,0.19742,12.851,-0.45388,-36.055,92.184,15.554,-5.1846,-1.2691,20.739,-1.5288e-10,-0.63455,0,0,0.066667,-2.5264e-15,0,0.66667
0.67501,0.62333,10.125,0.185,30.111,430.86,-4.9951,1.665,-1.8796,-6.6601,1.0756e-11,-0.93979,0,0,0.066667,-1.579e-15,0,0.66667
0.77949,0.11469,11.692,-0.57797,-67.902,209.16,18.021,-6.0069,-0.81677,24.028,2.5558e-10,-0.40838,0,0,0.066667,-0,-0,0.66667
0.81192,0.48144,12.179,-0.027839,-2.8299,153.2,0.90414,-0.30138,-2.0063,1.2055,2.3703e-11,-1.0032,0,0,0.066667,-0,-0,0.66667
0.59693,0.29305,8.9539,-0.31043,-59.795,641.83,7.4121,-2.4707,-1.6572,9.8828,6.7235e-12,-0.82862,0,0,0.066667,-0,-0,0.66667
0.439,0.91189,6.5849,0.61784,149.52,1164.5,-10.849,3.6164,-0.64875,-14.466,-2.216e-12,-0.32438,0,0,0.066667,-0,-0,0.66667
0.16875,0.6492,2.5313,0.22381,65.111,2265.5,-1.5107,0.50357,-1.8223,-2.0143,3.2122e-10,-0.91117,0,0,0.066667,2.5782e-16,0,0.66667
0.78139,0.85571,11.721,0.53357,62.181,205.51,-16.677,5.559,-0.99883,-22.236,-5.0174e-10,-0.49942,0,0,0.066667,1.2632e-15,0,0.66667
0.19409,0.21275,2.9114,-0.43088,-124.22,2154.9,3.3452,-1.1151,-1.3343,4.4602,4.7888e-11,-0.66716,0,0,0.066667,-1.579e-16,0,0.66667
0.99872,0.067145,14.981,-0.64928,-0.403,2.8416,25.938,-8.6459,-0.50817,34.584,0.00019691,-0.25409,0,0,0.066667,-0,-0,0.66667
0.5426,0.83692,8.1391,0.50537,106.81,808.55,-10.969,3.6562,-1.0895,-14.625,7.8479e-12,-0.54476,0,0,0.066667,-0,-0,0.66667
0.0093665,0.55067,0.1405,0.076006,22.756,2978.9,-0.028476,0.009492,-1.9736,-0.037969,-1.1706e-07,-0.9868,0,0,0.066667,9.8686e-18,0,0.66667
0.4188,0.72064,6.282,0.33096,81.719,1238.2,-5.5443,1.8481,-1.6119,-7.3924,9.1558e-12,-0.80596,0,0,0.066667,-1.2632e-15,0,0.66667
0.24105,0.44452,3.6158,-0.083227,-23.469,1952.4,0.80248,-0.26749,-1.9696,1.07,1.6474e-11,-0.9848,0,0,0.066667,-0,-0,0.66667
0.053138,0.55421,0.79707,0.081314,24.278,2781.2,-0.17283,0.057611,-1.9709,-0.23044,-1.2863e-07,-0.98546,0,0,0.066667,7.8949e-17,0,0.66667
0.71613,0.503,10.742,0.0045025,0.65539,334.33,-0.12897,0.042992,-2.0025,-0.17197,-1.2069e-11,-1.0012,0,0,0.066667,-0,-0,0.66667
0.31649,0.553,4.7474,0.079499,21.415,1637.9,-1.0064,0.33548,-1.9755,-1.3419,-6.3195e-12,-0.98775,0,0,0.066667,3.158e-16,0,0.66667
0.82107,0.47779,12.316,-0.033312,-3.237,139.29,1.0941,-0.36469,-1.9899,1.4588,1.1666e-11,-0.99493,0,0,0.066667,-0,-0,0.66667
0.76442,0.10543,11.466,-0.59186,-73.673,236.92,18.097,-6.0324,-0.76105,24.129,-2.4678e-10,-0.38052,0,0,0.066667,-0,-8.4942e-17,0.66667
0.065672,0.63317,0.98507,0.19975,59.558,2724.8,-0.52471,0.1749,-1.8583,-0.69962,-3.4273e-07,-0.92916,0,0,0.066667,-0,-0,0.66667
0.71272,0.63446,10.691,0.20169,29.662,342.11,-5.75,1.9167,-1.8499,-7.6667,-4.4706e-12,-0.92495,0,0,0.066667,-0,-0,0.66667
0.19497,0.38152,2.9245,-0.17772,-51.192,2150.9,1.386,-0.46201,-1.8816,1.848,-2.3646e-11,-0.94082,0,0,0.066667,-0,-0,0.66667
0.77656,0.66816,11.648,0.25223,29.907,213.01,-7.8349,2.6116,-1.7701,-10.447,3.741e-12,-0.88507,0,0,0.066667,-0,-0,0.66667
0.25043,0.5076,3.7564,0.011397,3.198,1912.6,-0.11416,0.038055,-2.0097,-0.15222,4.353e-11,-1.0048,0,0,0.066667,-0,-0,0.66667
0.40375,0.97453,6.0562,0.7118,178.69,1295.9,-11.495,3.8318,-0.20103,-15.327,2.1423e-11,-0.10051,0,0,0.066667,-0,-0,0.66667
0.8833,0.82686,13.249,0.49029,32.164,62.801,-17.323,5.7742,-1.1387,-23.097,1.3885e-08,-0.56936,0,0,0.066667,-1.2632e-15,0,0.66667
0.65698,0.97919,9.8547,0.71879,122.53,478.5,-18.889,6.2964,-0.17157,-25.185,7.0415e-12,-0.085785,0,0,0.066667,-1.2632e-15,0,0.66667
0.081501,0.95598,1.2225,0.68396,203.76,2653.8,-2.2298,0.74325,-0.33597,-2.973,-4.5167e-07,-0.16798,0,0,0.066667,-0,-0,0.66667
0.13451,0.37497,2.0176,-0.18754,-55.143,2416.8,1.009,-0.33635,-1.8708,1.3454,1.5292e-09,-0.93541,0,0,0.066667,-1.2151e-16,0,0.66667
0.007682,0.092827,0.11523,-0.61076,-183.1,2986.5,0.18766,-0.062496,-0.66856,0.25025,8.8054e-05,-0.33428,0,0,0.066667,-1.3569e-17,0,0.66667
0.98219,0.018289,14.733,-0.72257,-7.6219,5.2161,28.388,-9.4627,-0.14653,37.851,4.1777e-05,-0.073266,0,0,0.066667,-0,-7.6654e-17,0.66667
0.047674,0.90892,0.71511,0.61338,183.48,2806,-1.1697,0.38989,-0.67149,-1.5596,-1.2908e-05,-0.33574,0,0,0.066667,1.579e-16,0,0.66667
0.10538,0.80014,1.5807,0.45022,133.4,2546.7,-1.8977,0.63257,-1.2771,-2.5303,5.3045e-09,-0.63854,0,0,0.066667,-1.579e-16,0,0.66667
0.45747,0.79156,6.862,0.43734,103.58,1097.1,-8.0027,2.6676,-1.3171,-10.67,6.8576e-12,-0.65855,0,0,0.066667,-0,-0,0.66667
0.054401,0.030179,0.81601,-0.70473,-210.75,2775.7,1.5335,-0.51119,-0.22897,2.0447,-2.7064e-05,-0.11449,0,0,0.066667,1.9737e-17,0,0.66667
0.28909,0.93075,4.3363,0.64612,177.54,1751.3,-7.4714,2.4905,-0.50954,-9.9618,1.8442e-11,-0.25477,0,0,0.066667,1.7117e-16,0,0.66667
0.67797,0.15526,10.17,-0.5171,-83.667,424.61,14.023,-4.6744,-1.045,18.698,6.1471e-12,-0.52248,0,0,0.066667,1.8948e-15,0,0.66667
0.048629,0.10223,0.72944,-0.59665,-178.44,2801.7,1.1606,-0.38685,-0.73893,1.5474,6.8865e-06,-0.36947,0,0,0.066667,-0,-0,0.66667
0.45797,0.27436,6.8696,-0.33847,-80.086,1095.1,6.2003,-2.0668,-1.5892,8.2671,-4.8574e-12,-0.79459,0,0,0.066667,3.158e-16,0,0.66667
0.57276,0.1317,8.5914,-0.55245,-111.22,714.67,12.657,-4.2189,-0.91053,16.876,8.6242e-12,-0.45527,0,0,0.066667,-0,-0,0.66667
0.19927,0.979,2.989,0.7185,206.96,2132.9,-5.727,1.909,-0.16267,-7.6359,-4.2174e-09,-0.081335,0,0,0.066667,-0,-0,0.66667
0.18617,0.27618,2.7925,-0.33574,-97.073,2189.4,2.5001,-0.83338,-1.6059,3.3335,2.0661e-10,-0.80297,0,0,0.066667,1.8918e-16,0,0.66667
0.10269,0.15264,1.5403,-0.52104,-154.51,2558.8,2.1402,-0.71339,-1.0294,2.8536,-1.3449e-07,-0.51472,0,0,0.066667,-1.9737e-16,0,0.66667
0.0688,0.62323,1.032,0.18485,55.09,2710.7,-0.5087,0.16957,-1.8739,-0.67826,-3.0859e-07,-0.93694,0,0,0.066667,-2.9606e-17,0,0.66667
0.16898,0.44195,2.5348,-0.087082,-25.329,2264.5,0.58862,-0.19621,-1.9745,0.78483,1.5064e-10,-0.98725,0,0,0.066667,-6.3159e-16,0,0.66667
0.060817,0.56416,0.91225,0.09624,28.71,2746.6,-0.23412,0.07804,-1.973,-0.31216,-1.1262e-07,-0.98652,0,0,0.066667,1.579e-16,0,0.66667
0.55168,0.48582,8.2752,-0.02127,-4.4265,778.83,0.46936,-0.15645,-1.9944,0.62581,1.7276e-11,-0.99722,0,0,0.066667,-0,-0,0.66667
0.80791,0.36717,12.119,-0.19925,-20.651,159.71,6.4391,-2.1464,-1.8557,8.5854,-5.9064e-13,-0.92785,0,0,0.066667,1.2632e-15,0,0.66667
0.80434,0.79191,12.065,0.43787,46.206,166.22,-14.088,4.6959,-1.3118,-18.784,1.6408e-10,-0.65592,0,0,0.066667,-0,-0,0.66667
0.63118,0.95628,9.4677,0.68443,123.46,546.67,-17.28,5.76,-0.32863,-23.04,6.0112e-12,-0.16432,0,0,0.066667,-0,-0,0.66667
0.54175,0.27632,8.1262,-0.33551,-70.957,810.78,7.2705,-2.4235,-1.596,9.6941,1.1073e-11,-0.79802,0,0,0.066667,-3.158e-16,0,0.66667
0.46714,0.39516,7.007,-0.15726,-36.796,1062.2,2.9385,-0.9795,-1.9171,3.918,1.1076e-12,-0.95853,0,0,0.066667,-0,-0,0.66667
0.96014,0.44631,14.402,-0.080539,-1.8415,7.9441,3.0931,-1.031,-1.9708,4.1242,-1.3003e-07,-0.98539,0,0,0.066667,-0,-0,0.66667
0.2899,0.52914,4.3484,0.043714,11.987,1747.1,-0.5069,0.16897,-1.988,-0.67586,3.8901e-11,-0.99401,0,0,0.066667,4.737e-16,0,0.66667
0.36643,0.44034,5.4965,-0.089489,-23.19,1438.3,1.3117,-0.43722,-1.9662,1.7489,-9.9398e-12,-0.98308,0,0,0.066667,-1.2632e-15,0,0.66667
0.57534,0.97488,8.6301,0.71232,142.92,707.6,-16.393,5.4644,-0.19747,-21.857,4.3823e-12,-0.098733,0,0,0.066667,-0,-0,0.66667
0.51258,0.54727,7.6887,0.07091,15.643,905.77,-1.4539,0.48463,-1.9823,-1.9385,-3.2405e-12,-0.99113,0,0,0.066667,-0,-0,0.66667
0.67424,0.021483,10.114,-0.71778,-117.41,434.93,19.358,-6.4527,-0.17065,25.811,1.6396e-12,-0.085326,0,0,0.066667,-0,-0,0.66667
0.77467,0.9113,11.62,0.61695,73.895,218.07,-19.117,6.3724,-0.64125,-25.49,2.1636e-10,-0.32062,0,0,0.066667,-0,-0,0.66667
0.18244,0.86178,2.7366,0.54267,157.23,2205.9,-3.9602,1.3201,-0.94855,-5.2803,1.778e-09,-0.47427,0,0,0.066667,-0,-0,0.66667
0.6289,0.1619,9.4335,-0.50715,-91.809,552.03,12.758,-4.2526,-1.0841,17.01,4.7882e-12,-0.54207,0,0,0.066667,-0,-0,0.66667
0.69402,0.58745,10.41,0.13118,20.324,384.91,-3.6417,1.2139,-1.9332,-4.8555,8.8454e-12,-0.96662,0,0,0.066667,-6.3159e-16,0,0.66667
0.27231,0.79202,4.0846,0.43804,121.5,1820.7,-4.7712,1.5904,-1.3116,-6.3616,7.7605e-12,-0.65582,0,0,0.066667,-0,-0,0.66667
0.92808,0.17284,13.921,-0.49073,-20.251,25.737,18.218,-6.0725,-1.1379,24.29,-4.4321e-07,-0.56893,0,0,0.066667,-1.2632e-15,0,0.66667
0.34525,0.51288,5.1788,0.019322,5.0943,1522,-0.26684,0.088945,-2.004,-0.35578,2.161e-11,-1.002,0,0,0.066667,-0,-0,0.66667
0.63808,0.87711,9.5712,0.56566,100.46,527.38,-14.437,4.8125,-0.86525,-19.25,2.931e-14,-0.43263,0,0,0.066667,-0,-0,0.66667
0.9258,0.6681,13.887,0.25216,10.679,26.134,-9.3378,3.1126,-1.7719,-12.45,2.9666e-07,-0.88595,0,0,0.066667,-0,-0,0.66667
0.98063,0.70771,14.709,0.31157,3.4354,2.7238,-12.221,4.0738,-1.6533,-16.295,-5.1267e-06,-0.82664,0,0,0.066667,-0,-0,0.66667
0.24873,0.16139,3.7309,-0.50792,-142.79,1920.2,5.0533,-1.6844,-1.0897,6.7378,-2.6271e-11,-0.54483,0,0,0.066667,-0,-0,0.66667
0.94195,0.0028303,14.129,-0.74575,-25.215,19.595,28.099,-9.3662,-0.020387,37.465,-1.3941e-05,-0.010193,0,0,0.066667,-0,-0,0.66667
0.90908,0.0056606,13.636,-0.74151,-38.603,41.337,26.964,-8.9879,-0.046501,35.951,-1.2317e-06,-0.02325,0,0,0.066667,-0,-0,0.66667
0.25098,0.69021,3.7646,0.28532,80.062,1910.4,-2.8643,0.95478,-1.7191,-3.8191,1.9652e-11,-0.85953,0,0,0.066667,-0,-0,0.66667
0.10105,0.12034,1.5158,-0.5695,-168.96,2566.1,2.302,-0.76732,-0.84109,3.0693,-2.1812e-07,-0.42054,0,0,0.066667,-7.8949e-17,0,0.66667
0.36236,0.45733,5.4354,-0.064002,-16.642,1454.3,0.92767,-0.30922,-1.9859,1.2369,6.6014e-12,-0.99294,0,0,0.066667,-0,-0,0.66667
0.92363,0.63064,13.854,0.19596,8.53,27.438,-7.2397,2.4132,-1.8685,-9.6529,2.0076e-07,-0.93426,0,0,0.066667,-0,-0,0.66667
0.84527,0.95444,12.679,0.68165,58.318,108.09,-23.047,7.6824,-0.35312,-30.73,-1.507e-08,-0.17656,0,0,0.066667,-0,-0,0.66667
0.25812,0.29777,3.8718,-0.30335,-84.794,1880.2,3.132,-1.044,-1.6662,4.1761,2.0647e-11,-0.83309,0,0,0.066667,-3.0568e-16,0,0.66667
0.27562,0.96631,4.1343,0.69947,193.85,1807.4,-7.7114,2.5705,-0.25641,-10.282,1.1942e-11,-0.12821,0,0,0.066667,-3.9475e-16,0,0.66667
0.29828,0.38595,4.4742,-0.17108,-46.663,1712.5,2.0412,-0.68039,-1.9017,2.7215,1.7069e-11,-0.95087,0,0,0.066667,-0,-0,0.66667
0.081417,0.65253,1.2213,0.22879,68.06,2654,-0.74509,0.24836,-1.8143,-0.99346,-8.1956e-08,-0.90717,0,0,0.066667,-0,-0,0.66667
0.16833,0.73778,2.525,0.35666,103.81,2267.5,-2.4015,0.80051,-1.5466,-3.2021,-3.5933e-10,-0.77329,0,0,0.066667,-0,-0,0.66667
0.61444,0.93696,9.2166,0.65544,122.31,592.94,-16.109,5.3697,-0.4697,-21.479,9.0523e-12,-0.23485,0,0,0.066667,1.3421e-15,0,0.66667
0.4924,0.90732,7.3859,0.61098,138.73,975.3,-12.034,4.0113,-0.66753,-16.045,-6.7155e-12,-0.33376,0,0,0.066667,-0,-0,0.66667
0.41191,0.2003,6.1786,-0.44955,-111.81,1264.3,7.4068,-2.4689,-1.2762,9.8758,1.5689e-11,-0.63811,0,0,0.066667,-0,-0,0.66667
0.5157,0.56419,7.7356,0.096291,21.149,895.38,-1.9863,0.6621,-1.9797,-2.6484,3.0451e-12,-0.98983,0,0,0.066667,-0,-0,0.66667
0.88736,0.49583,13.31,-0.0062554,-0.39529,57.341,0.22203,-0.074011,-2.0003,0.29605,-2.998e-09,-1.0002,0,0,0.066667,3.7896e-15,0,0.66667
0.9551,0.1493,14.326,-0.52605,-13.698,11.653,20.097,-6.6991,-1.0201,26.796,-1.224e-05,-0.51007,0,0,0.066667,-0,-0,0.66667
0.25568,0.73144,3.8352,0.34715,97.179,1890.5,-3.5504,1.1835,-1.5663,-4.7338,2.2381e-11,-0.78313,0,0,0.066667,-0,-0,0.66667
0.23367,0.23431,3.505,-0.39854,-112.87,1984.2,3.725,-1.2417,-1.4437,4.9666,-4.8099e-11,-0.72186,0,0,0.066667,-0,-0,0.66667
0.070154,0.19109,1.0523,-0.46336,-138.16,2704.7,1.3003,-0.43342,-1.231,1.7337,4.0129e-07,-0.61548,0,0,0.066667,-1.579e-16,0,0.66667
0.2597,0.13872,3.8955,-0.54193,-151.46,1873.9,5.6295,-1.8765,-0.95021,7.506,4.3885e-11,-0.47511,0,0,0.066667,-0,-0,0.66667
0.17421,0.29027,2.6132,-0.31459,-91.361,2241.6,2.1922,-0.73074,-1.6507,2.923,-1.93e-10,-0.82537,0,0,0.066667,-0,-0,0.66667
0.027562,0.31251,0.41344,-0.28124,-84.167,2896.7,0.31007,-0.10336,-1.7189,0.41342,-4.6961e-06,-0.85945,0,0,0.066667,7.8949e-17,0,0.66667
0.17447,0.00024811,2.617,-0.74963,-218.04,2241,5.2315,-1.7438,-0.0051357,6.9753,-1.4685e-09,-0.0025679,0,0,0.066667,-1.2632e-15,0,0.66667
0.78046,0.34589,11.707,-0.23116,-26.985,205.97,7.2164,-2.4055,-1.8194,9.6218,-9.1971e-13,-0.90969,0,0,0.066667,-0,-0,0.66667
0.92026,0.96037,13.804,0.69055,31.658,32.47,-25.42,8.4732,-0.30973,-33.893,3.6315e-06,-0.15486,0,0,0.066667,6.3159e-16,0,0.66667
0.72159,0.58927,10.824,0.1339,19.179,322.44,-3.8649,1.2883,-1.9379,-5.1532,1.0574e-12,-0.96893,0,0,0.066667,-1.2632e-15,0,0.66667
0.29842,0.88849,4.4763,0.58273,159.12,1712.6,-6.9559,2.3186,-0.79777,-9.2745,1.6649e-12,-0.39889,0,0,0.066667,-0,-0,0.66667
0.63146,0.25681,9.4718,-0.36478,-65.637,544.51,9.2138,-3.0713,-1.5213,12.285,7.9545e-12,-0.76065,0,0,0.066667,-0,-0,0.66667
0.77018,0.0001895,11.553,-0.74972,-91.498,227.23,23.097,-7.6989,0.00031575,30.796,-6.2288e-11,0.00015787,0,0,0.066667,-0,-0,0.66667
0.4425,0.25967,6.6375,-0.3605,-86.811,1150.9,6.3808,-2.1269,-1.5339,8.5078,7.1054e-13,-0.76694,0,0,0.066667,-0,-0,0.66667
0.61945,0.28477,9.2917,-0.32285,-59.536,577.54,7.9994,-2.6665,-1.6253,10.666,1.0071e-11,-0.81264,0,0,0.066667,-0,-0,0.66667
0.57375,0.57005,8.6062,0.10507,21.085,710.54,-2.4114,0.80379,-1.9581,-3.2151,1.4679e-12,-0.97904,0,0,0.066667,-0,-0,0.66667
0.90274,0.61167,13.541,0.16751,9.2066,43.422,-6.0486,2.0162,-1.8992,-8.0648,2.8637e-08,-0.94958,0,0,0.066667,-0,-0,0.66667
0.75239,0.17289,11.286,-0.49067,-63.707,259.59,14.767,-4.9223,-1.1461,19.689,-2.5979e-12,-0.57307,0,0,0.066667,1.2632e-15,0,0.66667
0.26495,0.048723,3.9743,-0.67692,-188.75,1852,7.1741,-2.3914,-0.37945,9.5654,-9.0006e-11,-0.18972,0,0,0.066667,-0,-0,0.66667
0.22937,0.136,3.4405,-0.546,-155.03,2002.8,5.0093,-1.6698,-0.93587,6.6791,3.3375e-10,-0.46793,0,0,0.066667,-0,-0,0.66667
0.6936,0.33972,10.404,-0.24042,-37.301,386.09,6.6702,-2.2234,-1.7896,8.8935,4.7424e-12,-0.89482,0,0,0.066667,-6.3159e-16,0,0.66667
0.23301,0.65629,3.4952,0.23443,66.387,1986.8,-2.185,0.72833,-1.8121,-2.9133,-3.3573e-13,-0.90605,0,0,0.066667,6.3159e-16,0,0.66667
0.62193,0.28459,9.3289,-0.32311,-59.286,570.63,8.038,-2.6793,-1.6299,10.717,6.6809e-12,-0.81496,0,0,0.066667,-0,-0,0.66667
0.25494,0.67987,3.8241,0.26981,75.545,1893.6,-2.7514,0.91713,-1.7374,-3.6685,1.5995e-11,-0.86871,0,0,0.066667,3.158e-16,0,0.66667
0.92042,0.50062,13.806,0.00092674,0.041948,29.434,-0.03412,0.011373,-2.007,-0.045493,8.7894e-08,-1.0035,0,0,0.066667,-0,-0,0.66667
0.30256,0.49417,4.5383,-0.0087448,-2.3782,1694.9,0.10583,-0.035277,-1.9951,0.14111,1.2408e-11,-0.99754,0,0,0.066667,-0,-0,0.66667
0.84854,0.45807,12.728,-0.062901,-5.2468,101.26,2.135,-0.71166,-1.9822,2.8466,-6.0251e-10,-0.99108,0,0,0.066667,-0,-0,0.66667
0.22971,0.052843,3.4456,-0.67074,-190.52,2001.5,6.163,-2.0543,-0.39695,8.2173,-1.2468e-09,-0.19848,0,0,0.066667,-3.158e-16,-7.5391e-18,0.66667
0.5721,0.47714,8.5815,-0.034287,-6.8994,715.53,0.78461,-0.26154,-1.9905,1.0461,6.3492e-12,-0.99523,0,0,0.066667,-0,-0,0.66667
0.1889,0.92066,2.8335,0.631,182.44,2177.8,-4.7679,1.5893,-0.58999,-6.3572,-4.1867e-09,-0.295,0,0,0.066667,-0,-0,0.66667
0.42001,0.78668,6.3001,0.43001,106.08,1233.9,-7.2244,2.4081,-1.3472,-9.6325,1.1898e-11,-0.6736,0,0,0.066667,-1.2632e-15,0,0.66667
0.37624,0.11005,5.6436,-0.58493,-150.51,1400.9,8.803,-2.9343,-0.78978,11.737,6.537e-12,-0.39489,0,0,0.066667,6.3159e-16,0,0.66667
0.039037,0.31379,0.58555,-0.27932,-83.527,2844.9,0.43615,-0.14538,-1.7174,0.58153,1.3746e-06,-0.85869,0,0,0.066667,1.579e-16,0,0.66667
0.12795,0.87577,1.9193,0.56366,166.19,2446.2,-2.8848,0.9616,-0.87232,-3.8464,-2.9569e-08,-0.43616,0,0,0.066667,-3.158e-16,0,0.66667
0.75376,0.24184,11.306,-0.38724,-50.002,256.44,11.675,-3.8918,-1.4655,15.567,-3.8624e-11,-0.73274,0,0,0.066667,1.2632e-15,0,0.66667
0.41261,0.29163,6.1892,-0.31256,-77.653,1261.4,5.1586,-1.7195,-1.6468,6.8782,1.336e-11,-0.8234,0,0,0.066667,-0,-0,0.66667
0.80409,0.41005,12.061,-0.13493,-14.231,165.7,4.3397,-1.4466,-1.9297,5.7863,1.8593e-11,-0.96484,0,0,0.066667,-0,-0,0.66667
0.6699,0.66664,10.048,0.24996,41.206,443.69,-6.6978,2.2326,-1.7816,-8.9304,7.1618e-12,-0.8908,0,0,0.066667,-1.2632e-15,0,0.66667
0.38282,0.14763,5.7423,-0.52855,-135.17,1375.3,8.0937,-2.6979,-1.0004,10.792,6.0396e-12,-0.50018,0,0,0.066667,-0,-0,0.66667
0.49483,0.50932,7.4225,0.013973,3.1573,965.74,-0.27657,0.092189,-1.995,-0.36876,-9.2559e-12,-0.9975,0,0,0.066667,-0,-0,0.66667
0.95056,0.12666,14.258,-0.56,-16.058,13.858,21.293,-7.0975,-0.88789,28.39,-2.9867e-06,-0.44394,0,0,0.066667,2.5264e-15,0,0.66667
0.94795,0.81977,14.219,0.47965,14.425,14.542,-18.187,6.0625,-1.1779,-24.25,-7.6106e-08,-0.58894,0,0,0.066667,-2.5264e-15,0,0.66667
0.48498,0.57913,7.2747,0.1187,27.166,999.67,-2.3026,0.76755,-1.9588,-3.0702,-1.4242e-12,-0.97941,0,0,0.066667,6.3159e-16,0,0.66667
0.71243,0.94193,10.687,0.66289,97.845,344.65,-18.891,6.2969,-0.43248,-25.188,-1.3479e-11,-0.21624,0,0,0.066667,-0,-0,0.66667
0.74983,0.30181,11.247,-0.29728,-38.894,263.9,8.9163,-2.9721,-1.6968,11.888,3.0553e-12,-0.8484,0,0,0.066667,-6.3159e-16,0,0.66667
0.5106,0.31647,7.659,-0.2753,-60.919,912.64,5.6227,-1.8742,-1.7271,7.4969,4.8503e-12,-0.86357,0,0,0.066667,-0,-0,0.66667
0.44701,0.71743,6.7052,0.32615,78.14,1134.5,-5.8317,1.9439,-1.6174,-7.7757,-1.5564e-11,-0.8087,0,0,0.066667,7.1054e-16,0,0.66667
0.76902,0.19985,11.535,-0.45023,-55.022,227.54,13.849,-4.6165,-1.2785,18.466,7.4606e-11,-0.63926,0,0,0.066667,-1.2632e-15,0,0.66667
0.41563,0.8541,6.2344,0.53114,131.66,1250.6,-8.8303,2.9434,-0.99118,-11.774,-1.6396e-11,-0.49559,0,0,0.066667,1.2632e-15,0,0.66667
0.50009,0.39768,7.5013,-0.15349,-34.444,947.9,3.0703,-1.0234,-1.9278,4.0937,1.4963e-11,-0.96391,0,0,0.066667,-6.3159e-16,0,0.66667
0.08748,0.21866,1.3122,-0.42201,-125.46,2626.8,1.4767,-0.49223,-1.3625,1.9689,9.2217e-09,-0.68126,0,0,0.066667,-2.1279e-16,0,0.66667
0.90434,0.31461,13.565,-0.27809,-15.058,42.368,10.059,-3.3531,-1.7301,13.413,-3.5891e-08,-0.86504,0,0,0.066667,2.5264e-15,0,0.66667
0.45473,0.95554,6.8209,0.68331,162.54,1107.8,-12.429,4.1429,-0.3448,-16.572,1.2929e-11,-0.1724,0,0,0.066667,-0,-0,0.66667
0.59906,0.65771,8.9858,0.23657,45.377,635.47,-5.6687,1.8896,-1.7976,-7.5583,1.6579e-11,-0.89881,0,0,0.066667,-2.5264e-15,0,0.66667
0.070556,0.64267,1.0583,0.21401,63.768,2702.8,-0.60398,0.20133,-1.8305,-0.8053,-3.2766e-07,-0.91527,0,0,0.066667,-0,-0,0.66667
0.52944,0.98419,7.9416,0.72629,156.78,851.99,-15.381,5.127,-0.12861,-20.508,-5.7714e-12,-0.064303,0,0,0.066667,1.2632e-15,0,0.66667
0.22131,0.21307,3.3197,-0.43039,-122.63,2037.2,3.81,-1.27,-1.3437,5.0801,2.4464e-11,-0.67183,0,0,0.066667,3.158e-16,0,0.66667
0.38519,0.50439,5.7778,0.0065848,1.6785,1365.4,-0.10146,0.033819,-1.9958,-0.13527,1.2286e-11,-0.99788,0,0,0.066667,-0,-0,0.66667
0.56,0.28796,8.4,-0.31806,-65.343,753.16,7.1246,-2.3749,-1.6427,9.4994,1.5705e-11,-0.82133,0,0,0.066667,-0,-0,0.66667
0.81503,0.43318,12.225,-0.10022,-10.037,148.45,3.2674,-1.0891,-1.9669,4.3565,1.6366e-10,-0.98343,0,0,0.066667,-6.3159e-16,0,0.66667
0.26284,0.84909,3.9426,0.52364,146.08,1860.6,-5.5053,1.8351,-1.0267,-7.3405,-2.176e-14,-0.51337,0,0,0.066667,-0,-0,0.66667
0.72782,0.47373,10.917,-0.039407,-5.5368,308.92,1.1472,-0.38241,-1.9891,1.5296,1.5786e-12,-0.99453,0,0,0.066667,-0,-0,0.66667
0.49204,0.3654,7.3806,-0.2019,-45.797,975.42,3.9738,-1.3246,-1.8486,5.2984,5.6513e-12,-0.92432,0,0,0.066667,-0,-0,0.66667
0.30424,0.35736,4.5637,-0.21396,-58.132,1688,2.6039,-0.86796,-1.8306,3.4718,1.8292e-11,-0.91532,0,0,0.066667,-0,-0,0.66667
0.29041,0.19412,4.3561,-0.45881,-125.87,1745.4,5.3297,-1.7766,-1.246,7.1063,1.4052e-11,-0.62298,0,0,0.066667,-0,-0,0.66667
0.2411,0.039655,3.6165,-0.69052,-195.05,1953,6.6594,-2.2198,-0.29871,8.8792,4.6714e-12,-0.14935,0,0,0.066667,-0,-0,0.66667
0.073163,0.15515,1.0975,-0.51727,-154.19,2691.2,1.5138,-0.5046,-1.0459,2.0184,5.0819e-07,-0.52294,0,0,0.066667,1.7764e-16,0,0.66667
0.58112,0.341,8.7168,-0.2385,-47.263,688.45,5.5439,-1.848,-1.7992,7.3919,7.6099e-12,-0.8996,0,0,0.066667,1.579e-16,0,0.66667
0.62494,0.43467,9.3741,-0.097991,-17.86,561.89,2.4495,-0.81652,-1.9784,3.2661,4.7991e-12,-0.98918,0,0,0.066667,1.579e-16,0,0.66667
0.23524,0.52149,3.5286,0.03224,9.118,1977.2,-0.30337,0.10112,-2.0043,-0.40449,-1.1257e-12,-1.0022,0,0,0.066667,6.3159e-16,0,0.66667
0.56429,0.40065,8.4644,-0.14902,-30.387,739.55,3.3636,-1.1212,-1.9259,4.4848,6.3105e-12,-0.96297,0,0,0.066667,-6.3159e-16,0,0.66667
0.8726,0.7893,13.089,0.43395,30.89,73.742,-15.147,5.0488,-1.333,-20.195,1.8037e-09,-0.66648,0,0,0.066667,-0,-0,0.66667
0.80766,0.36148,12.115,-0.20778,-21.561,160.12,6.7125,-2.2375,-1.8425,8.95,6.5379e-12,-0.92125,0,0,0.066667,-0,-0,0.66667
0.40735,0.52843,6.1102,0.042652,10.648,1280.9,-0.69497,0.23166,-2.0015,-0.92663,-5.3177e-12,-1.0008,0,0,0.066667,-3.158e-16,0,0.66667
0.49622,0.41891,7.4434,-0.12163,-27.435,961.03,2.4142,-0.80474,-1.9457,3.219,1.8242e-11,-0.97284,0,0,0.066667,-1.2632e-15,0,0.66667
0.70639,0.042664,10.596,-0.686,-103.04,358.42,19.383,-6.4611,-0.32641,25.845,1.2903e-11,-0.1632,0,0,0.066667,-0,-0,0.66667
0.57792,0.82615,8.6688,0.48922,97.584,698.78,-11.309,3.7698,-1.1597,-15.079,4.7962e-14,-0.57987,0,0,0.066667,-0,-1.506e-17,0.66667
0.75469,0.004817,11.32,-0.74277,-95.908,256.64,22.423,-7.4742,-0.035421,29.897,5.3371e-11,-0.017711,0,0,0.066667,-0,-0,0.66667
0.95016,0.2406,14.252,-0.3891,-11.18,13.011,14.788,-4.9295,-1.4623,19.718,-1.0543e-06,-0.73116,0,0,0.066667,-1.2632e-15,0,0.66667
0.17702,0.42636,2.6554,-0.11047,-32.038,2229.2,0.78221,-0.26074,-1.9522,1.0429,-1.0868e-10,-0.9761,0,0,0.066667,-0,-0,0.66667
0.78926,0.94083,11.839,0.66124,74.714,192.59,-20.876,6.9585,-0.43977,-27.834,3.4332e-09,-0.21989,0,0,0.066667,-2.5264e-15,0,0.66667
0.33497,0.19395,5.0245,-0.45907,-122.1,1563.6,6.1509,-2.0503,-1.2449,8.2013,3.4232e-11,-0.62244,0,0,0.066667,-0,-0,0.66667
0.56378,0.40497,8.4568,-0.14254,-29.09,741.12,3.2145,-1.0715,-1.9353,4.2859,1.4376e-11,-0.96766,0,0,0.066667,-1.2632e-15,0,0.66667
0.20689,0.20808,3.1033,-0.43789,-125.57,2099.4,3.6238,-1.2079,-1.3167,4.8317,1.781e-11,-0.65833,0,0,0.066667,-3.158e-16,0,0.66667
0.74097,0.045532,11.115,-0.6817,-92.157,283.66,20.205,-6.735,-0.34146,26.94,1.0433e-10,-0.17073,0,0,0.066667,-1.2632e-15,0,0.66667
0.98,0.51363,14.7,0.020449,0.23098,2.2154,-0.80161,0.2672,-1.9954,-1.0688,-2.2944e-07,-0.99771,0,0,0.066667,-0,-0,0.66667
0.83333,0.19865,12.5,-0.45203,-41.269,122.74,15.068,-5.0226,-1.269,20.09,-3.7266e-09,-0.63449,0,0,0.066667,-0,-0,0.66667
0.62051,0.48939,9.3077,-0.015914,-2.9267,574.14,0.39499,-0.13166,-1.9959,0.52666,1.0902e-11,-0.99796,0,0,0.066667,-0,-0,0.66667
0.49211,0.53688,7.3816,0.055317,12.544,975.08,-1.0889,0.36296,-1.9831,-1.4518,-1.2189e-11,-0.99157,0,0,0.066667,-0,-0,0.66667
0.52358,0.46563,7.8536,-0.051553,-11.196,869.33,1.0797,-0.35989,-1.985,1.4396,8.1414e-12,-0.99249,0,0,0.066667,-6.3159e-16,0,0.66667
0.93153,0.69868,13.973,0.29802,11.677,22.619,-11.104,3.7015,-1.6787,-14.806,4.4082e-07,-0.83935,0,0,0.066667,-0,-0,0.66667
0.15835,0.40239,2.3752,-0.14642,-42.743,2311.3,0.92742,-0.30914,-1.9279,1.2366,4.4626e-11,-0.96393,0,0,0.066667,7.8949e-17,0,0.66667
0.59051,0.34256,8.8576,-0.23616,-46.02,660.5,5.5783,-1.8594,-1.8027,7.4377,1.1159e-11,-0.90137,0,0,0.066667,-1.3421e-15,0,0.66667
0.63801,0.24598,9.5701,-0.38104,-67.616,526.83,9.7242,-3.2414,-1.4861,12.966,1.1257e-11,-0.74307,0,0,0.066667,-0,-0,0.66667
0.90792,0.27379,13.619,-0.33932,-17.725,39.633,12.323,-4.1077,-1.5957,16.431,4.4114e-11,-0.79786,0,0,0.066667,1.2632e-15,0,0.66667
0.2694,0.3406,4.041,-0.2391,-66.399,1832.7,2.5765,-0.85884,-1.796,3.4354,1.7272e-11,-0.89802,0,0,0.066667,-4.737e-16,0,0.66667
0.71075,0.50843,10.661,0.012651,1.8707,346.34,-0.35968,0.11989,-1.9931,-0.47957,-1.0437e-11,-0.99657,0,0,0.066667,-0,-0,0.66667
0.35033,0.7624,5.2549,0.3936,103.42,1502.2,-5.5155,1.8385,-1.443,-7.354,7.6117e-12,-0.72152,0,0,0.066667,6.3159e-16,0,0.66667
0.36439,0.96919,5.4658,0.70378,183.05,1447.5,-10.258,3.4193,-0.23619,-13.677,1.7333e-11,-0.1181,0,0,0.066667,-0,-0,0.66667
0.081405,0.23915,1.2211,-0.39128,-116.44,2654.1,1.2741,-0.4247,-1.4553,1.6988,3.3529e-08,-0.72764,0,0,0.066667,7.8949e-17,0,0.66667
0.3283,0.55945,4.9246,0.08917,23.816,1590,-1.171,0.39033,-1.9836,-1.5613,1.5969e-12,-0.99182,0,0,0.066667,-4.737e-16,0,0.66667
0.32443,0.42529,4.8664,-0.11206,-30.016,1605.7,1.4542,-0.48475,-1.9538,1.939,2.4904e-11,-0.97692,0,0,0.066667,-3.158e-16,0,0.66667
0.029581,0.22891,0.44371,-0.40663,-121.71,2887.6,0.48114,-0.16039,-1.417,0.64152,-8.4165e-06,-0.70848,0,0,0.066667,-7.8949e-17,0,0.66667
0.54957,0.33671,8.2435,-0.24494,-51.161,785.71,5.3845,-1.7948,-1.7884,7.1793,6.0245e-12,-0.89419,0,0,0.066667,-3.158e-16,0,0.66667
0.70674,0.3877,10.601,-0.16844,-25.199,355.53,4.7618,-1.5873,-1.8978,6.3491,-4.472e-13,-0.94889,0,0,0.066667,1.2632e-15,0,0.66667
0.4985,0.88039,7.4775,0.57059,128.5,954.3,-11.378,3.7925,-0.84844,-15.17,-9.3436e-13,-0.42422,0,0,0.066667,1.2632e-15,-9.9141e-17,0.66667
0.5273,0.29545,7.9096,-0.30682,-66.304,857.43,6.4715,-2.1572,-1.6631,8.6287,5.183e-12,-0.83155,0,0,0.066667,-0,-0,0.66667
0.10581,0.53832,1.5872,0.057485,17.019,2544.6,-0.24331,0.081103,-1.9875,-0.32441,3.0422e-09,-0.99376,0,0,0.066667,-0,-0,0.66667
0.68474,0.87934,10.271,0.56901,90.524,408.42,-15.585,5.195,-0.85069,-20.78,1.2115e-12,-0.42535,0,0,0.066667,-0,1.5236e-18,0.66667
0.47114,0.11289,7.0671,-0.58066,-135.39,1049,10.943,-3.6477,-0.80341,14.591,4.0501e-12,-0.4017,0,0,0.066667,-6.3159e-16,0,0.66667
0.22927,0.8793,3.439,0.56895,161.57,2003.2,-5.2178,1.7393,-0.84546,-6.957,-4.1408e-10,-0.42273,0,0,0.066667,-6.3159e-16,0,0.66667
0.85572,0.85186,12.836,0.52778,42.237,93.823,-18.065,6.0218,-1.0085,-24.087,-4.0747e-09,-0.50425,0,0,0.066667,-0,-0,0.66667
0.56519,0.76802,8.4779,0.40204,81.915,737.3,-9.0891,3.0297,-1.4265,-12.119,4.2686e-12,-0.71327,0,0,0.066667,-6.3159e-16,0,0.66667
0.99916,0.89649,14.987,0.59473,0.1698,2.3771,-23.769,7.923,-0.7507,-31.692,-0.00014385,-0.37535,0,0,0.066667,-0,-0,0.66667
0.077097,0.31797,1.1565,-0.27304,-81.287,2673.4,0.84203,-0.28068,-1.7428,1.1227,2.1633e-07,-0.87139,0,0,0.066667,-0,-0,0.66667
0.515,0.17398,7.725,-0.48903,-107.63,898.51,10.074,-3.358,-1.1585,13.432,7.9545e-12,-0.57927,0,0,0.066667,-0,1.4783e-17,0.66667
0.30396,0.20562,4.5593,-0.44158,-120.07,1689.5,5.3688,-1.7896,-1.3002,7.1584,2.6752e-11,-0.65012,0,0,0.066667,-0,-0,0.66667
0.86161,0.78636,12.924,0.42953,33.03,86.207,-14.804,4.9345,-1.3474,-19.738,1.1914e-08,-0.67372,0,0,0.066667,-2.5264e-15,0,0.66667
0.16178,0.44413,2.4266,-0.083803,-24.435,2296.2,0.54229,-0.18076,-1.9705,0.72305,1.6713e-11,-0.98525,0,0,0.066667,3.158e-16,0,0.66667
0.0013843,0.43984,0.020764,-0.090236,-27.019,3015,0.0049959,-0.0016651,-1.978,0.0066613,3.3327e-07,-0.989,0,0,0.066667,-4.9343e-18,0,0.66667
0.44299,0.16485,6.6448,-0.50272,-121.06,1149.5,8.908,-2.9693,-1.0967,11.877,-2.4532e-11,-0.54835,0,0,0.066667,-0,-0,0.66667
0.67716,0.99973,10.157,0.7496,121.76,427.95,-20.304,6.768,0.00096744,-27.072,6.72e-12,0.00048372,0,0,0.066667,-1.3027e-15,0,0.66667
0.96791,0.35873,14.519,-0.2119,-3.901,5.5567,8.2041,-2.7347,-1.8483,10.939,1.2782e-06,-0.92413,0,0,0.066667,-0,-0,0.66667
0.62011,0.12849,9.3017,-0.55726,-102.75,576.54,13.823,-4.6075,-0.89279,18.43,-9.0239e-13,-0.44639,0,0,0.066667,-0,-0,0.66667
0.19035,0.92635,2.8553,0.63953,184.81,2171.5,-4.8695,1.6232,-0.54662,-6.4927,-1.8606e-09,-0.27331,0,0,0.066667,-0,-0,0.66667
0.36217,0.29186,5.4326,-0.31221,-81.227,1455.3,4.523,-1.5077,-1.6545,6.0306,-4.5683e-12,-0.82723,0,0,0.066667,-0,-0,0.66667
0.78006,0.16497,11.701,-0.50254,-58.864,207.71,15.68,-5.2268,-1.1089,20.907,1.9754e-10,-0.55443,0,0,0.066667,2.5264e-15,0,0.66667
0.32974,0.15921,4.9462,-0.51119,-136.52,1584.7,6.7424,-2.2475,-1.0768,8.9899,2.5864e-11,-0.53842,0,0,0.066667,-1.2632e-15,0,0.66667
0.16424,0.31847,2.4636,-0.27229,-79.346,2285.4,1.7889,-0.59629,-1.7304,2.3852,-3.4356e-10,-0.86518,0,0,0.066667,3.158e-16,0,0.66667
0.28507,0.99317,4.2761,0.73975,203.88,1768.2,-8.4352,2.8117,-0.052948,-11.247,-4.1531e-12,-0.026474,0,0,0.066667,3.158e-16,0,0.66667
0.04034,0.82931,0.60511,0.49397,147.79,2839,-0.79708,0.26569,-1.1263,-1.0628,-1.1548e-05,-0.56313,0,0,0.066667,7.8949e-17,0,0.66667
0.75512,0.97231,11.327,0.70847,91.304,255.55,-21.399,7.133,-0.21189,-28.532,-1.8559e-10,-0.10594,0,0,0.066667,-0,-0,0.66667
0.28529,0.94636,4.2793,0.66953,184.43,1767.1,-7.6404,2.5468,-0.40406,-10.187,-2.8391e-12,-0.20203,0,0,0.066667,-0,-0,0.66667
0.7645,0.31156,11.467,-0.28265,-35.095,235.4,8.6435,-2.8812,-1.7242,11.525,3.7605e-12,-0.86209,0,0,0.066667,-7.8949e-17,0,0.66667
0.84257,0.63037,12.639,0.19556,16.912,109.24,-6.5909,2.197,-1.8713,-8.7879,-4.2633e-14,-0.93564,0,0,0.066667,-0,-0,0.66667
0.45502,0.68833,6.8253,0.28249,67.059,1105.6,-5.1415,1.7138,-1.7216,-6.8554,-1.1813e-13,-0.86082,0,0,0.066667,-1.2632e-15,0,0.66667
0.85839,0.65863,12.876,0.23794,18.661,89.315,-8.1699,2.7233,-1.8072,-10.893,1.0462e-11,-0.90362,0,0,0.066667,-0,-0,0.66667
0.99143,0.94876,14.871,0.67314,3.3697,3.5064,-26.695,8.8983,-0.38267,-35.593,0.0001566,-0.19134,0,0,0.066667,2.5264e-15,0,0.66667
0.94175,0.82043,14.126,0.48064,16.143,17.659,-18.106,6.0352,-1.1762,-24.141,-1.6189e-06,-0.58808,0,0,0.066667,-0,-0,0.66667
0.97927,0.49542,14.689,-0.0068697,-0.080532,2.3606,0.26909,-0.089698,-1.9962,0.35879,5.9497e-07,-0.99811,0,0,0.066667,-0,-0,0.66667
0.95065,0.89175,14.26,0.58762,16.836,14.014,-22.345,7.4484,-0.77414,-29.793,3.8107e-06,-0.38707,0,0,0.066667,-0,-0,0.66667
0.96389,0.84945,14.458,0.52417,10.996,8.3312,-20.21,6.7366,-1.0197,-26.946,7.9645e-06,-0.50986,0,0,0.066667,-0,-0,0.66667
0.69794,0.65299,10.469,0.22948,35.188,375.91,-6.4065,2.1355,-1.8092,-8.542,1.1478e-11,-0.90461,0,0,0.066667,-1.579e-15,0,0.66667
0.15618,0.43843,2.3428,-0.092353,-26.977,2320.8,0.57696,-0.19232,-1.9825,0.76928,-4.6971e-10,-0.99126,0,0,0.066667,-0,-0,0.66667
0.64676,0.28654,9.7014,-0.32019,-55.724,503.34,8.2834,-2.7611,-1.6304,11.045,-9.388e-13,-0.8152,0,0,0.066667,2.5264e-15,0,0.66667
0.99073,0.98547,14.861,0.7282,4.0087,4.0852,-28.858,9.6193,-0.10933,-38.477,0.0001416,-0.054665,0,0,0.066667,-1.2632e-15,0,0.66667
0.24429,0.35672,3.6643,-0.21492,-60.512,1938.7,2.1001,-0.70002,-1.8305,2.8001,1.3441e-11,-0.91524,0,0,0.066667,-0,-0,0.66667
0.68176,0.52694,10.226,0.040405,6.4639,414.16,-1.1019,0.36729,-1.9897,-1.4692,3.5086e-12,-0.99486,0,0,0.066667,6.3159e-16,0,0.66667
0.12926,0.94433,1.9389,0.66649,196.52,2440.4,-3.4461,1.1487,-0.41824,-4.5948,1.5095e-08,-0.20912,0,0,0.066667,-3.158e-16,0,0.66667
0.99818,0.4018,14.973,-0.1473,-0.077738,0.19804,5.8813,-1.9604,-1.9278,7.8417,-3.278e-06,-0.96392,0,0,0.066667,-1.8948e-15,0,0.66667
0.41986,0.3835,6.2979,-0.17476,-43.089,1234.1,2.9349,-0.97831,-1.8952,3.9132,1.3526e-11,-0.94759,0,0,0.066667,-0,-0,0.66667
0.35068,0.69955,5.2602,0.29933,78.608,1500.6,-4.1987,1.3996,-1.6751,-5.5983,-2.585e-12,-0.83754,0,0,0.066667,-0,-0,0.66667
0.20659,0.19178,3.0989,-0.46233,-132.61,2100.7,3.8205,-1.2735,-1.2399,5.094,8.142e-11,-0.61995,0,0,0.066667,-6.3159e-16,0,0.66667
0.85016,0.0082616,12.752,-0.73761,-61.332,102.26,25.083,-8.3611,-0.059845,33.444,1.7532e-08,-0.029922,0,0,0.066667,-0,-0,0.66667
0.6124,0.82578,9.1861,0.48866,91.455,597.9,-11.97,3.9901,-1.1512,-15.961,8.9004e-12,-0.5756,0,0,0.066667,-0,-0,0.66667
0.57534,0.67458,8.63,0.26187,52.422,705.94,-6.0265,2.0088,-1.7571,-8.0354,-4.345e-12,-0.87856,0,0,0.066667,6.3159e-16,0,0.66667
0.24805,0.19061,3.7207,-0.46409,-130.49,1923,4.6047,-1.5349,-1.2389,6.1396,6.9015e-11,-0.61946,0,0,0.066667,-0,-0,0.66667
0.13351,0.054195,2.0026,-0.66871,-196.96,2421.6,3.5711,-1.1904,-0.40391,4.7615,-2.0038e-08,-0.20195,0,0,0.066667,1.579e-16,0,0.66667
0.064967,0.69842,0.9745,0.29763,88.765,2728,-0.77343,0.25781,-1.6871,-1.0312,-4.4719e-07,-0.84355,0,0,0.066667,-0,-0,0.66667
0.60725,0.31245,9.1088,-0.28132,-53.134,611.92,6.8333,-2.2778,-1.7233,9.1111,1.3041e-11,-0.86167,0,0,0.066667,-1.3517e-15,0,0.66667
0.72959,0.57936,10.944,0.11904,16.635,305.19,-3.4741,1.158,-1.9457,-4.6321,2.8078e-12,-0.97285,0,0,0.066667,-1.2632e-15,0,0.66667
0.4249,0.43766,6.3735,-0.093517,-22.936,1215.3,1.5894,-0.5298,-1.9708,2.1192,4.2737e-12,-0.98539,0,0,0.066667,-1.2632e-15,0,0.66667
0.099,0.91922,1.485,0.62883,186.69,2575.4,-2.4902,0.83006,-0.58937,-3.3202,8.5619e-08,-0.29468,0,0,0.066667,-1.579e-16,0,0.66667
0.089276,0.6007,1.3391,0.15104,44.867,2618.7,-0.53938,0.17979,-1.9161,-0.71917,-1.2076e-08,-0.95804,0,0,0.066667,-0,-0,0.66667
0.52952,0.48026,7.9428,-0.029606,-6.3742,849.87,0.62708,-0.20903,-2.0014,0.83611,1.0891e-12,-1.0007,0,0,0.066667,-0,-0,0.66667
0.33597,0.25846,5.0396,-0.36231,-96.261,1559.4,4.869,-1.623,-1.527,6.492,1.8745e-11,-0.76348,0,0,0.066667,6.3159e-16,0,0.66667
0.6614,0.58679,9.9209,0.13019,21.898,464.97,-3.4444,1.1481,-1.9357,-4.5925,2.2835e-12,-0.96786,0,0,0.066667,-6.3159e-16,0,0.66667
0.9539,0.7147,14.308,0.32206,8.5501,11.057,-12.288,4.0961,-1.6404,-16.384,1.689e-06,-0.82018,0,0,0.066667,-0,-0,0.66667
0.048989,0.1339,0.73484,-0.54915,-164.2,2800,1.0761,-0.35869,-0.93116,1.4348,3.7321e-06,-0.46558,0,0,0.066667,-1.579e-16,0,0.66667
0.12125,0.59496,1.8187,0.14244,42.025,2475.7,-0.69085,0.23028,-1.9276,-0.92114,-7.1029e-11,-0.96379,0,0,0.066667,3.158e-16,0,0.66667
0.60823,0.069076,9.1235,-0.64639,-122.08,610.49,15.726,-5.242,-0.52168,20.968,6.7075e-12,-0.26084,0,0,0.066667,-0,-5.2469e-17,0.66667
0.29619,0.84512,4.4429,0.51768,141.52,1721.6,-6.1333,2.0444,-1.0572,-8.1777,2.1033e-11,-0.52858,0,0,0.066667,-1.2632e-15,8.5402e-17,0.66667
0.71874,0.77776,10.781,0.41664,60.255,329.41,-11.978,3.9928,-1.3954,-15.971,3.6788e-12,-0.69771,0,0,0.066667,3.158e-16,0,0.66667
0.48481,0.8088,7.2722,0.4632,106.13,1000.9,-8.9826,2.9942,-1.2478,-11.977,4.1886e-12,-0.62389,0,0,0.066667,9.4739e-16,0,0.66667
0.95416,0.90269,14.312,0.60404,16.108,12.605,-23.054,7.6847,-0.71082,-30.739,2.2449e-05,-0.35541,0,0,0.066667,-1.579e-15,0,0.66667
0.35878,0.25036,5.3817,-0.37446,-97.714,1468.7,5.3739,-1.7913,-1.512,7.1652,1.2268e-11,-0.756,0,0,0.066667,-0,-0,0.66667
0.72512,0.76654,10.877,0.39981,56.709,315.47,-11.596,3.8655,-1.4256,-15.462,-1.5206e-12,-0.71281,0,0,0.066667,1.2632e-15,0,0.66667
0.59297,0.27261,8.8945,-0.34108,-66.188,653.5,8.0899,-2.6966,-1.5949,10.787,7.4438e-12,-0.79743,0,0,0.066667,-6.3159e-16,0,0.66667
0.70173,0.86943,10.526,0.55415,84.235,368.32,-15.554,5.1848,-0.91453,-20.739,-4.7695e-12,-0.45727,0,0,0.066667,1.579e-15,0,0.66667
0.28609,0.64282,4.2913,0.21423,58.895,1763,-2.4516,0.81719,-1.8328,-3.2688,2.7215e-11,-0.91642,0,0,0.066667,3.158e-16,0,0.66667
0.55036,0.0073181,8.2555,-0.73902,-154.54,784.98,16.269,-5.4231,-0.057533,21.692,-1.0472e-11,-0.028766,0,0,0.066667,2.5264e-15,0,0.66667
0.0072068,0.9965,0.1081,0.74475,223.41,2988.7,-0.21551,0.071738,-0.023121,-0.2874,-0.00014803,-0.011561,0,0,0.066667,9.8686e-18,0,0.66667
0.95089,0.73424,14.263,0.35136,9.9392,12.502,-13.364,4.4548,-1.5637,-17.819,1.0704e-06,-0.78185,0,0,0.066667,-1.2632e-15,0,0.66667
0.43824,0.37122,6.5735,-0.19317,-46.715,1166.2,3.3861,-1.1287,-1.8767,4.5148,6.8323e-12,-0.93833,0,0,0.066667,-6.3159e-16,0,0.66667
0.35615,0.7316,5.3422,0.34739,90.84,1479.1,-4.9489,1.6496,-1.5706,-6.5985,1.7606e-11,-0.78529,0,0,0.066667,-6.3159e-16,0,0.66667
0.10194,0.58169,1.5291,0.12254,36.311,2562,-0.49967,0.16656,-1.9401,-0.66623,-2.2922e-08,-0.97003,0,0,0.066667,-0,-0,0.66667
0.23738,0.33081,3.5607,-0.25378,-71.713,1968.2,2.4097,-0.80323,-1.7713,3.2129,-1.4717e-12,-0.88566,0,0,0.066667,-0,-0,0.66667
0.29709,0.17858,4.4563,-0.48213,-131.71,1717.8,5.7294,-1.9098,-1.1845,7.6392,1.6332e-11,-0.59224,0,0,0.066667,-3.158e-16,0,0.66667
0.47856,0.18239,7.1784,-0.47641,-110.02,1022.7,9.1197,-3.0399,-1.1883,12.16,-4.3929e-12,-0.59415,0,0,0.066667,-3.158e-16,0,0.66667
0.41502,0.63324,6.2252,0.19986,49.522,1252.2,-3.3178,1.1059,-1.852,-4.4237,4.5934e-12,-0.92598,0,0,0.066667,-0,-0,0.66667
0.056184,0.26058,0.84276,-0.35913,-107.24,2767.5,0.8071,-0.26903,-1.5356,1.0761,2.0062e-08,-0.7678,0,0,0.066667,-0,-0,0.66667
0.58894,0.62004,8.8341,0.18006,35.183,665.05,-4.2417,1.4139,-1.8815,-5.6557,2.8861e-12,-0.94077,0,0,0.066667,-3.158e-16,0,0.66667
0.067005,0.13597,1.0051,-0.54605,-162.93,2718.9,1.4635,-0.48784,-0.9366,1.9514,2.0718e-07,-0.4683,0,0,0.066667,1.579e-16,0,0.66667
0.27883,0.90532,4.1825,0.60798,168.09,1793.8,-6.7809,2.2603,-0.68931,-9.0412,1.1923e-10,-0.34465,0,0,0.066667,-2.5568e-16,0,0.66667
0.93135,0.66958,13.97,0.25437,9.9868,22.583,-9.4765,3.1588,-1.7641,-12.635,3.9687e-07,-0.88206,0,0,0.066667,-2.5264e-15,0,0.66667
0.70165,0.30499,10.525,-0.29252,-44.407,367.45,8.2098,-2.7366,-1.7016,10.946,3.0109e-12,-0.85081,0,0,0.066667,-0,-0,0.66667
0.68369,0.22207,10.255,-0.41689,-66.438,410.27,11.401,-3.8004,-1.3812,15.201,4.6807e-13,-0.69062,0,0,0.066667,2.5264e-15,0,0.66667
0.35623,0.23193,5.3434,-0.4021,-105.16,1478.8,5.7296,-1.9099,-1.425,7.6395,1.1924e-11,-0.71251,0,0,0.066667,-6.3159e-16,0,0.66667
0.59594,0.52362,8.9391,0.035423,6.8322,644.34,-0.84439,0.28146,-1.9988,-1.1259,3.7759e-13,-0.9994,0,0,0.066667,-0,-0,0.66667
0.82071,0.68626,12.311,0.27939,27.22,140.24,-9.172,3.0573,-1.7173,-12.229,1.0171e-10,-0.85864,0,0,0.066667,-1.5e-15,0,0.66667
0.77901,0.60893,11.685,0.16339,19.18,208.41,-5.0914,1.6971,-1.9077,-6.7886,-3.2698e-12,-0.95386,0,0,0.066667,-0,-0,0.66667
0.75092,0.77838,11.264,0.41756,54.465,262.18,-12.542,4.1807,-1.3888,-16.723,3.8598e-11,-0.6944,0,0,0.066667,-1.579e-15,0,0.66667
0.53154,0.056081,7.9731,-0.66588,-143.24,844.86,14.158,-4.7192,-0.43439,18.877,1.6263e-12,-0.21719,0,0,0.066667,6.3159e-16,0,0.66667
0.74519,0.8227,11.178,0.48404,64.41,273.94,-14.428,4.8094,-1.1632,-19.238,-9.4307e-12,-0.58159,0,0,0.066667,-0,-0,0.66667
0.21772,0.41978,3.2658,-0.12033,-34.318,2052.4,1.0479,-0.3493,-1.9557,1.3972,-1.727e-11,-0.97784,0,0,0.066667,-3.158e-16,0,0.66667
0.51855,0.57939,7.7783,0.11908,26.05,885.95,-2.47,0.82332,-1.9501,-3.2933,-4.2033e-12,-0.97504,0,0,0.066667,6.3159e-16,0,0.66667
0.81265,0.86599,12.19,0.54898,55.782,153.7,-17.845,5.9484,-0.93969,-23.793,-1.4446e-09,-0.46984,0,0,0.066667,1.2632e-15,0,0.66667
0.27694,0.25652,4.1541,-0.36522,-101,1801.2,4.0457,-1.3486,-1.5233,5.3943,2.8422e-14,-0.76167,0,0,0.066667,-0,-0,0.66667
0.50368,0.54304,7.5551,0.064559,14.417,935.68,-1.3007,0.43356,-1.9837,-1.7342,-7.3909e-12,-0.99187,0,0,0.066667,-0,-0,0.66667
0.65239,0.09754,9.7858,-0.60369,-103.9,489.72,15.754,-5.2512,-0.7032,21.005,9.9831e-12,-0.3516,0,0,0.066667,-0,-0,0.66667
0.08124,0.28293,1.2186,-0.32561,-96.883,2654.8,1.0581,-0.3527,-1.6243,1.4108,6.5961e-08,-0.81217,0,0,0.066667,-3.158e-16,0,0.66667
0.14553,0.27324,2.1829,-0.34014,-99.722,2368,1.9799,-0.65998,-1.5849,2.6399,-1.0148e-09,-0.79246,0,0,0.066667,-0,-0,0.66667
0.59348,0.93421,8.9022,0.65132,126.48,653.21,-15.462,5.1539,-0.50315,-20.616,-2.9114e-12,-0.25157,0,0,0.066667,-7.8949e-16,-2.9739e-17,0.66667
0.41393,0.024229,6.2089,-0.71366,-177.38,1257.6,11.816,-3.9387,-0.18299,15.755,-1.9464e-11,-0.091493,0,0,0.066667,-0,-0,0.66667
0.13115,0.39261,1.9672,-0.16109,-47.405,2431.7,0.84503,-0.28168,-1.9019,1.1267,7.9421e-10,-0.95096,0,0,0.066667,-0,-0,0.66667
0.80877,0.86814,12.132,0.55221,57.153,159.77,-17.864,5.9548,-0.91466,-23.819,5.2671e-11,-0.45733,0,0,0.066667,1.2632e-15,0,0.66667
0.71564,0.28785,10.735,-0.31823,-46.424,335.91,9.1095,-3.0365,-1.6405,12.146,2.5855e-12,-0.82023,0,0,0.066667,-0,-0,0.66667
0.97583,0.28545,14.637,-0.32183,-4.4574,3.7949,12.562,-4.1873,-1.6261,16.749,7.1929e-06,-0.81307,0,0,0.066667,2.5264e-15,0,0.66667
0.040034,0.77323,0.60051,0.40984,122.59,2840.4,-0.65629,0.21876,-1.3968,-0.87506,-5.111e-06,-0.6984,0,0,0.066667,-0,-0,0.66667
0.80309,0.78713,12.046,0.43069,45.706,168.2,-13.836,4.6118,-1.3352,-18.447,1.1897e-10,-0.6676,0,0,0.066667,-0,-0,0.66667
0.49155,0.76403,7.3733,0.39604,89.937,977.48,-7.787,2.5957,-1.4358,-10.383,-2.2067e-12,-0.71789,0,0,0.066667,-0,-0,0.66667
0.19478,0.51431,2.9217,0.02147,6.184,2151.7,-0.16727,0.055757,-1.9918,-0.22303,-9.5648e-11,-0.99589,0,0,0.066667,-0,-0,0.66667
0.14213,0.99615,2.132,0.74423,218.75,2383.5,-4.2312,1.4104,-0.036897,-5.6416,1.1562e-09,-0.018449,0,0,0.066667,5.5264e-16,0,0.66667
0.19893,0.33177,2.984,-0.25234,-72.576,2133.7,2.008,-0.66932,-1.7709,2.6773,-1.0332e-10,-0.88547,0,0,0.066667,3.158e-16,0,0.66667
0.0073553,0.33649,0.11033,-0.24526,-73.446,2988,0.072158,-0.024051,-1.78,0.096211,2.8297e-06,-0.89,0,0,0.066667,-0,-0,0.66667
0.12102,0.53567,1.8153,0.053511,15.787,2476.7,-0.25904,0.086347,-1.9884,-0.34539,-5.7313e-09,-0.99422,0,0,0.066667,3.158e-16,0,0.66667
0.69054,0.31819,10.358,-0.27271,-42.663,393.41,7.5328,-2.5109,-1.7364,10.044,5.8926e-12,-0.86821,0,0,0.066667,-0,-0,0.66667
0.2922,0.89439,4.383,0.59159,162.19,1738.3,-6.9144,2.3048,-0.75201,-9.2192,-2.4196e-11,-0.376,0,0,0.066667,3.158e-16,0,0.66667
0.49257,0.89587,7.3885,0.5938,134.79,974.64,-11.699,3.8998,-0.73989,-15.599,-2.2231e-12,-0.36994,0,0,0.066667,-6.3159e-16,0,0.66667
0.88095,0.81143,13.214,0.46714,31.216,65.063,-16.461,5.487,-1.22,-21.948,-9.3594e-10,-0.60998,0,0,0.066667,7.8949e-17,0,0.66667
0.5238,0.641,7.857,0.2115,45.928,868.75,-4.4313,1.4771,-1.8343,-5.9084,5.3006e-12,-0.91716,0,0,0.066667,-0,-0,0.66667
0.70601,0.66852,10.59,0.25279,37.904,357.36,-7.1388,2.3796,-1.7735,-9.5184,-2.5726e-12,-0.88674,0,0,0.066667,-0,-0,0.66667
0.15105,0.79881,2.2658,0.44821,131.23,2343.7,-2.7082,0.90272,-1.2811,-3.6109,8.0253e-09,-0.64055,0,0,0.066667,-0,-0,0.66667
0.43644,0.12165,6.5466,-0.56753,-137.69,1173.6,9.9077,-3.3026,-0.86286,13.21,-2.5553e-12,-0.43143,0,0,0.066667,3.158e-16,3.0237e-17,0.66667
0.89086,0.94844,13.363,0.67266,41.567,56.655,-23.97,7.9899,-0.40192,-31.96,4.8714e-07,-0.20096,0,0,0.066667,2.5264e-15,0,0.66667
0.15977,0.19566,2.3965,-0.45651,-133.29,2305.2,2.9175,-0.97249,-1.2583,3.8899,-2.3443e-10,-0.62913,0,0,0.066667,-0,-0,0.66667
0.11866,0.40741,1.7798,-0.13889,-41.001,2487.3,0.65919,-0.21973,-1.9269,0.87892,4.1401e-10,-0.96343,0,0,0.066667,-3.158e-16,0,0.66667
0.82221,0.86054,12.333,0.54081,52.411,139.2,-17.786,5.9287,-0.95451,-23.715,-1.1033e-09,-0.47726,0,0,0.066667,-1.2632e-15,0,0.66667
0.058073,0.36444,0.8711,-0.20334,-60.685,2759,0.47234,-0.15745,-1.8499,0.62978,2.4133e-07,-0.92497,0,0,0.066667,-0,-0,0.66667
0.23225,0.68184,3.4837,0.27276,77.276,1990.1,-2.5339,0.84462,-1.7392,-3.3785,-4.2713e-12,-0.8696,0,0,0.066667,-0,-0,0.66667
0.59496,0.98912,8.9243,0.73367,142.17,649.34,-17.46,5.82,-0.092709,-23.28,-8.3311e-12,-0.046355,0,0,0.066667,-6.3159e-16,0,0.66667
0.71146,0.41434,10.672,-0.12848,-18.962,344.83,3.6565,-1.2188,-1.9351,4.8753,3.7967e-12,-0.96755,0,0,0.066667,-0,-0,0.66667
0.43296,0.072959,6.4943,-0.64056,-156.04,1186.7,11.093,-3.6978,-0.53781,14.791,5.5476e-12,-0.2689,0,0,0.066667,-0,-0,0.66667
0.47992,0.005084,7.1988,-0.74237,-171.41,1019,14.251,-4.7504,-0.037953,19.002,-4.6185e-13,-0.018977,0,0,0.066667,-0,-4.5107e-17,0.66667
0.086929,0.78992,1.3039,0.43489,129.31,2629.3,-1.5122,0.50406,-1.3215,-2.0162,-3.2033e-08,-0.66075,0,0,0.066667,-0,-0,0.66667
0.61004,0.94796,9.1506,0.67194,126.49,605.49,-16.396,5.4654,-0.4035,-21.862,9.8588e-12,-0.20175,0,0,0.066667,-0,-0,0.66667
0.28032,0.88183,4.2048,0.57274,158.18,1787.5,-6.422,2.1407,-0.84174,-8.5627,2.6265e-11,-0.42087,0,0,0.066667,-0,5.3925e-17,0.66667
0.91892,0.34558,13.784,-0.23163,-10.69,30.838,8.514,-2.838,-1.811,11.352,-8.9564e-08,-0.90548,0,0,0.066667,-2.5264e-15,0,0.66667
0.23822,0.098807,3.5733,-0.60179,-170.17,1965.1,5.7343,-1.9114,-0.71119,7.6457,-4.855e-11,-0.35559,0,0,0.066667,-0,-0,0.66667
0.75065,0.098175,11.26,-0.60274,-78.807,263.64,18.098,-6.0326,-0.71787,24.131,3.0941e-10,-0.35893,0,0,0.066667,2.5264e-15,0,0.66667
0.70514,0.74125,10.577,0.36188,54.42,359.66,-10.207,3.4023,-1.5381,-13.609,2.8875e-12,-0.76906,0,0,0.066667,-0,-0,0.66667
0.12278,0.10137,1.8417,-0.59794,-176.55,2469.2,2.9367,-0.97888,-0.73194,3.9155,2.0137e-07,-0.36597,0,0,0.066667,-0,-0,0.66667
0.20873,0.73491,3.1309,0.35236,100.94,2091.4,-2.9419,0.98064,-1.5533,-3.9226,-4.7961e-11,-0.77667,0,0,0.066667,-3.158e-16,0,0.66667
0.19717,0.33817,2.9576,-0.24274,-69.865,2141.4,1.9145,-0.63816,-1.7856,2.5526,-8.872e-11,-0.89278,0,0,0.066667,1.579e-16,0,0.66667
0.78433,0.68777,11.765,0.28165,32.375,199.26,-8.8362,2.9454,-1.7196,-11.782,2.5997e-11,-0.85982,0,0,0.066667,2.5264e-15,0,0.66667
0.55115,0.047646,8.2673,-0.67853,-141.65,782.18,14.959,-4.9863,-0.36009,19.945,-4.3521e-13,-0.18004,0,0,0.066667,-0,-0,0.66667
0.50799,0.84727,7.6198,0.5209,115.79,922.07,-10.584,3.5281,-1.0296,-14.112,-8.9804e-12,-0.51481,0,0,0.066667,1.2632e-15,0,0.66667
0.74258,0.32315,11.139,-0.26527,-35.563,278.43,7.8793,-2.6264,-1.7433,10.506,-7.1378e-12,-0.87167,0,0,0.066667,-0,-0,0.66667
0.87749,0.77433,13.162,0.41149,28.227,68.376,-14.443,4.8144,-1.4003,-19.258,-1.893e-08,-0.70016,0,0,0.066667,-0,-0,0.66667
0.070046,0.20967,1.0507,-0.4355,-129.84,2705.2,1.2202,-0.40673,-1.3193,1.6269,4.1687e-07,-0.65966,0,0,0.066667,7.8949e-17,0,0.66667
0.37632,0.79928,5.6448,0.44891,115.43,1400.2,-6.7575,2.2525,-1.2895,-9.01,-8.6993e-12,-0.64474,0,0,0.066667,-0,-0,0.66667
0.34177,0.35177,5.1266,-0.22235,-58.794,1536,3.0397,-1.0132,-1.8282,4.0529,1.5432e-11,-0.91409,0,0,0.066667,-0,-0,0.66667
0.84428,0.24471,12.664,-0.38294,-32.828,107.59,12.932,-4.3108,-1.4886,17.243,2.7558e-09,-0.7443,0,0,0.066667,-1.8948e-15,0,0.66667
0.76885,0.67753,11.533,0.2663,32.528,227.18,-8.1898,2.7299,-1.7477,-10.92,-9.0772e-13,-0.87386,0,0,0.066667,-6.3159e-16,0,0.66667
0.5325,0.78639,7.9875,0.42958,92.163,840.84,-9.1501,3.05,-1.3509,-12.2,8.8756e-12,-0.67544,0,0,0.066667,-1.2632e-15,0,0.66667
0.089548,0.037124,1.3432,-0.69431,-206.57,2617.7,2.487,-0.829,-0.28387,3.316,-5.7219e-06,-0.14194,0,0,0.066667,-0,-0,0.66667
0.92511,0.70405,13.877,0.30607,13.089,26.778,-11.326,3.7753,-1.6665,-15.101,3.0484e-07,-0.83327,0,0,0.066667,1.2632e-15,0,0.66667
0.55794,0.054578,8.3692,-0.66813,-137.96,760.84,14.911,-4.9704,-0.40972,19.882,8.5825e-12,-0.20486,0,0,0.066667,-0,-5.0735e-18,0.66667
0.023909,0.61852,0.35864,0.17778,53.205,2913.2,-0.17002,0.056677,-1.8816,-0.2267,2.835e-06,-0.9408,0,0,0.066667,1.4157e-17,0,0.66667
0.64606,0.72693,9.6909,0.34039,59.336,505.23,-8.7966,2.9322,-1.5834,-11.729,-2.4976e-12,-0.79172,0,0,0.066667,-0,-0,0.66667
0.27371,0.95235,4.1056,0.67852,188.23,1815.3,-7.4287,2.4762,-0.35641,-9.9049,-2.9608e-11,-0.17821,0,0,0.066667,-0,-0,0.66667
0.45368,0.64093,6.8051,0.21139,50.251,1110.3,-3.8361,1.2787,-1.8503,-5.1148,2.1712e-12,-0.92513,0,0,0.066667,-0,-0,0.66667
0.89562,0.55546,13.434,0.083191,4.8903,49.584,-2.9803,0.99343,-1.9716,-3.9737,1.4829e-08,-0.98581,0,0,0.066667,6.3159e-16,0,0.66667
0.20404,0.24962,3.0606,-0.37557,-107.82,2111.7,3.0653,-1.0218,-1.5077,4.0871,-1.6165e-10,-0.75384,0,0,0.066667,-3.6514e-16,0,0.66667
0.11364,0.12572,1.7046,-0.56142,-166.11,2509.9,2.552,-0.85065,-0.87798,3.4026,1.6024e-08,-0.43899,0,0,0.066667,-0,-0,0.66667
0.61817,0.82868,9.2725,0.49303,91.224,581.69,-12.191,4.0637,-1.1293,-16.255,1.077e-11,-0.56467,0,0,0.066667,-0,-0,0.66667
0.67549,0.37953,10.132,-0.1807,-29.376,429.67,4.8825,-1.6275,-1.8834,6.51,4.615e-12,-0.94169,0,0,0.066667,-0,-0,0.66667
0.98885,0.48398,14.833,-0.024031,-0.14585,0.7977,0.95052,-0.31684,-1.9946,1.2674,-2.683e-06,-0.99731,0,0,0.066667,-1.2632e-15,0,0.66667
0.32157,0.57126,4.8235,0.10689,28.689,1617.3,-1.3749,0.45829,-1.9535,-1.8332,-1.1185e-12,-0.97675,0,0,0.066667,-0,-0,0.66667
0.90723,0.6197,13.608,0.17955,9.4323,39.7,-6.5158,2.1719,-1.8935,-8.6877,1.3889e-08,-0.94673,0,0,0.066667,-0,-0,0.66667
0.59047,0.84133,8.8571,0.512,99.887,661.42,-12.093,4.031,-1.0686,-16.124,-2.6255e-12,-0.53432,0,0,0.066667,-1.579e-16,0,0.66667
0.076837,0.81593,1.1526,0.47389,141.16,2674.6,-1.4565,0.4855,-1.2086,-1.942,-7.4836e-08,-0.60432,0,0,0.066667,3.158e-16,0,0.66667
0.93059,0.025954,13.959,-0.71107,-28.544,25.791,26.468,-8.8228,-0.19656,35.291,-7.9817e-06,-0.098282,0,0,0.066667,-1.2632e-15,0,0.66667
0.54246,0.74558,8.137,0.36837,77.828,808.57,-7.9931,2.6644,-1.5152,-10.657,1.0279e-11,-0.7576,0,0,0.066667,3.158e-16,0,0.66667
0.47386,0.94375,7.1079,0.66563,154.77,1039.8,-12.617,4.2055,-0.4208,-16.822,1.7098e-11,-0.2104,0,0,0.066667,-1.2632e-15,0,0.66667
0.54448,0.051543,8.1671,-0.67268,-141.9,803.3,14.65,-4.8835,-0.39337,19.534,2.9745e-12,-0.19668,0,0,0.066667,-0,-0,0.66667
0.52734,0.99163,7.9101,0.73745,159.7,858.9,-15.555,5.1852,-0.064626,-20.741,-2.8599e-12,-0.032313,0,0,0.066667,1.2632e-15,-6.1907e-17,0.66667
0.66148,0.11325,9.9222,-0.58013,-97.751,466.17,15.35,-5.1166,-0.79881,20.466,4.1274e-12,-0.3994,0,0,0.066667,-6.3159e-16,0,0.66667
0.64445,0.93366,9.6667,0.65049,114.01,510.83,-16.768,5.5894,-0.49458,-22.358,-5.1426e-12,-0.24729,0,0,0.066667,-0,-0,0.66667
0.17293,0.29964,2.594,-0.30054,-87.318,2247.2,2.0789,-0.69297,-1.6859,2.7719,-3.1201e-10,-0.84296,0,0,0.066667,3.158e-16,0,0.66667
0.50754,0.067573,7.6131,-0.64864,-144.37,924.08,13.168,-4.3895,-0.49819,17.558,1.9907e-11,-0.24909,0,0,0.066667,-1.2632e-15,0,0.66667
0.17819,0.88408,2.6728,0.57612,167.21,2224.5,-4.1063,1.3688,-0.81414,-5.4751,-1.9281e-10,-0.40707,0,0,0.066667,-0,-0,0.66667
0.46566,0.75635,6.985,0.38453,90.179,1067.8,-7.1625,2.3875,-1.4749,-9.55,4.9942e-12,-0.73745,0,0,0.066667,-0,-0,0.66667
0.095605,0.1393,1.4341,-0.54106,-160.68,2590.5,2.0691,-0.6897,-0.96312,2.7588,1.5203e-07,-0.48156,0,0,0.066667,-1.579e-16,0,0.66667
0.90893,0.29188,13.634,-0.31218,-16.13,38.711,11.35,-3.7834,-1.6549,15.133,1.2355e-08,-0.82744,0,0,0.066667,2.5264e-15,0,0.66667
0.84302,0.68888,12.645,0.28332,24.45,108.88,-9.5537,3.1846,-1.7244,-12.738,-1.2034e-10,-0.86218,0,0,0.066667,-0,-0,0.66667
0.20466,0.17407,3.0699,-0.48889,-140.36,2109.1,4.0023,-1.3341,-1.1553,5.3364,3.1421e-10,-0.57767,0,0,0.066667,-0,-0,0.66667
0.22201,0.42071,3.3301,-0.11894,-33.855,2033.9,1.0562,-0.35207,-1.9493,1.4083,4.2777e-12,-0.97463,0,0,0.066667,-0,-0,0.66667
0.56481,0.059662,8.4721,-0.66051,-134.85,739.52,14.922,-4.9741,-0.45238,19.897,2.1648e-11,-0.22619,0,0,0.066667,9.4739e-16,0,0.66667
0.041276,0.55519,0.61914,0.082792,24.748,2834.7,-0.13669,0.045564,-1.9709,-0.18226,-2.0908e-07,-0.98546,0,0,0.066667,-0,-0,0.66667
0.97916,0.80337,14.687,0.45505,5.463,3.7356,-17.823,5.9409,-1.2594,-23.764,-1.5288e-05,-0.62969,0,0,0.066667,-1.2632e-15,0,0.66667
0.34441,0.22292,5.1662,-0.41563,-109.73,1525.7,5.7259,-1.9086,-1.3954,7.6345,1.6587e-11,-0.69769,0,0,0.066667,1.2632e-15,0,0.66667
0.29624,0.012106,4.4437,-0.73184,-200.26,1721.9,8.6721,-2.8907,-0.10456,11.563,7.2449e-12,-0.052279,0,0,0.066667,-0,-0,0.66667
0.92794,0.47992,13.919,-0.030121,-1.2378,24.339,1.118,-0.37268,-1.9912,1.4907,-8.6053e-08,-0.99558,0,0,0.066667,-0,-0,0.66667
0.24446,0.30123,3.6669,-0.29816,-83.955,1938.1,2.9155,-0.97182,-1.6789,3.8873,1.6953e-11,-0.83946,0,0,0.066667,-0,-0,0.66667
0.40519,0.92071,6.0778,0.63107,158.13,1290.2,-10.228,3.4093,-0.591,-13.637,7.0184e-12,-0.2955,0,0,0.066667,6.3159e-16,0,0.66667
0.1838,0.8968,2.757,0.59519,172.4,2200,-4.3759,1.4586,-0.7391,-5.8345,-2.3407e-09,-0.36955,0,0,0.066667,-1.579e-16,0,0.66667
0.086017,0.79136,1.2903,0.43704,129.97,2633.4,-1.5037,0.50124,-1.3144,-2.005,-3.1048e-08,-0.6572,0,0,0.066667,-0,-0,0.66667
0.91325,0.62485,13.699,0.18727,9.2218,34.939,-6.8411,2.2804,-1.8705,-9.1215,1.2104e-08,-0.93525,0,0,0.066667,1.6579e-15,0,0.66667
0.27731,0.32441,4.1597,-0.26338,-72.803,1799.6,2.9215,-0.97384,-1.7513,3.8953,2.4172e-11,-0.87564,0,0,0.066667,-0,-0,0.66667
0.7783,0.62723,11.675,0.19084,22.467,209.73,-5.9413,1.9804,-1.8722,-7.9217,-1.2039e-12,-0.9361,0,0,0.066667,-0,-0,0.66667
0.16216,0.50909,2.4323,0.013641,3.9768,2294.5,-0.08848,0.029493,-1.9941,-0.11797,-3.9659e-10,-0.99703,0,0,0.066667,-0,-0,0.66667
0.66577,0.30113,9.9865,-0.2983,-49.678,454.2,7.9439,-2.648,-1.6779,10.592,7.4629e-12,-0.83897,0,0,0.066667,-6.3159e-16,0,0.66667
0.27436,0.80006,4.1154,0.45009,124.69,1812.1,-4.9394,1.6465,-1.2734,-6.5859,1.704e-12,-0.63669,0,0,0.066667,-0,-0,0.66667
0.72525,0.54699,10.879,0.070492,9.9834,314.44,-2.045,0.68167,-1.9762,-2.7267,-9.4296e-12,-0.98809,0,0,0.066667,1.2632e-15,0,0.66667
0.057234,0.30616,0.85851,-0.29077,-86.8,2762.8,0.66567,-0.22189,-1.6953,0.88756,2.0271e-07,-0.84764,0,0,0.066667,7.8949e-17,0,0.66667
0.66212,0.32105,9.9318,-0.26843,-45.088,463.37,7.1093,-2.3698,-1.7386,9.479,5.4521e-12,-0.86931,0,0,0.066667,-0,-0,0.66667
0.056097,0.61804,0.84145,0.17707,52.855,2767.9,-0.39731,0.13244,-1.883,-0.52975,-2.2736e-07,-0.94149,0,0,0.066667,3.9475e-17,0,0.66667
0.65752,0.77573,9.8628,0.41359,70.266,475.58,-10.878,3.6259,-1.3987,-14.504,2.216e-12,-0.69934,0,0,0.066667,-9.4739e-16,0,0.66667
0.34971,0.85953,5.2457,0.53929,141.85,1504.9,-7.5439,2.5146,-0.96027,-10.058,5.7629e-12,-0.48014,0,0,0.066667,-6.3159e-16,0,0.66667
0.73581,0.79016,11.037,0.43524,59.708,292.96,-12.81,4.27,-1.3323,-17.08,-2.4988e-11,-0.66615,0,0,0.066667,-0,-0,0.66667
0.41791,0.029688,6.2686,-0.70547,-174.63,1242.6,11.793,-3.9309,-0.2296,15.724,-2.2754e-11,-0.1148,0,0,0.066667,1.579e-16,-1.4993e-17,0.66667
0.55544,0.54425,8.3315,0.066382,13.732,767.03,-1.4748,0.49162,-1.9779,-1.9665,-2.808e-12,-0.98894,0,0,0.066667,-0,-0,0.66667
0.18966,0.79106,2.8449,0.43659,126.1,2174.2,-3.3121,1.104,-1.3254,-4.4161,2.8534e-10,-0.66272,0,0,0.066667,-3.158e-16,0,0.66667
0.27767,0.57146,4.1651,0.1072,29.618,1797.9,-1.1906,0.39688,-1.9582,-1.5875,3.1293e-11,-0.97908,0,0,0.066667,-0,-0,0.66667
0.48609,0.32394,7.2914,-0.26408,-60.371,996.02,5.1348,-1.7116,-1.7566,6.8464,7.1205e-12,-0.87832,0,0,0.066667,-0,-0,0.66667
0.04653,0.67694,0.69796,0.26541,79.316,2811,-0.49399,0.16466,-1.7598,-0.65865,-1.0126e-06,-0.87988,0,0,0.066667,-0,-0,0.66667
0.84893,0.83095,12.734,0.49643,41.435,102.13,-16.858,5.6192,-1.1192,-22.477,-6.3942e-09,-0.5596,0,0,0.066667,-0,-0,0.66667
0.43861,0.11627,6.5792,-0.57559,-139.32,1165.7,10.099,-3.3662,-0.82914,13.465,2.8271e-12,-0.41457,0,0,0.066667,-6.3159e-16,0,0.66667
0.1903,0.8332,2.8545,0.4998,144.35,2171.5,-3.8045,1.2682,-1.1129,-5.0726,3.9797e-10,-0.55643,0,0,0.066667,-0,-0,0.66667
0.1496,0.48883,2.2439,-0.016748,-4.9021,2349.9,0.10022,-0.033405,-1.9929,0.13362,-1.5604e-09,-0.99644,0,0,0.066667,4.737e-16,0,0.66667
0.12624,0.20331,1.8936,-0.44503,-131.21,2453.7,2.2472,-0.74907,-1.3021,2.9963,1.7636e-10,-0.65105,0,0,0.066667,-0,-0,0.66667
0.48221,0.23428,7.2332,-0.39858,-91.603,1009.8,7.688,-2.5627,-1.438,10.251,7.8502e-12,-0.71902,0,0,0.066667,-0,-0,0.66667
0.99442,0.70979,14.916,0.31468,0.89942,0.91513,-12.517,4.1724,-1.643,-16.689,4.8919e-06,-0.82152,0,0,0.066667,1.2632e-15,0,0.66667
0.83565,0.99353,12.535,0.7403,66.991,121.44,-24.745,8.2484,-0.04536,-32.993,5.2453e-09,-0.02268,0,0,0.066667,-1.8948e-15,0,0.66667
0.87993,0.21715,13.199,-0.42427,-28.561,65.883,14.933,-4.9777,-1.3572,19.911,2.1672e-08,-0.67859,0,0,0.066667,1.579e-15,0,0.66667
0.51326,0.48015,7.6989,-0.029782,-6.5635,903.48,0.61144,-0.20381,-1.9992,0.81525,1.3371e-12,-0.9996,0,0,0.066667,-0,-0,0.66667
0.013105,0.87556,0.19658,0.56333,168.83,2962,-0.29528,0.098387,-0.87493,-0.39373,-6.0678e-05,-0.43746,0,0,0.066667,3.9475e-17,0,0.66667
0.78924,0.063982,11.839,-0.65403,-73.898,192.57,20.647,-6.8825,-0.47384,27.53,-3.9035e-09,-0.23692,0,0,0.066667,-2.5264e-15,0,0.66667
0.91445,0.39321,13.717,-0.16019,-7.782,33.973,5.8594,-1.9531,-1.9022,7.8126,-2.5875e-08,-0.95109,0,0,0.066667,-1.0829e-15,0,0.66667
0.063162,0.50324,0.94743,0.0048624,1.45,2736.1,-0.012285,0.0040951,-2.0097,-0.01638,2.4279e-07,-1.0048,0,0,0.066667,-0,-0,0.66667
0.17499,0.31232,2.6249,-0.28153,-81.731,2238.2,1.9706,-0.65686,-1.7198,2.6275,-1.5712e-10,-0.8599,0,0,0.066667,-3.7748e-16,0,0.66667
0.50956,0.72985,7.6433,0.34477,76.417,916.28,-7.0272,2.3424,-1.5717,-9.3696,3.2707e-12,-0.78587,0,0,0.066667,-0,-0,0.66667
0.43088,0.94451,6.4631,0.66676,162.81,1194.4,-11.492,3.8306,-0.41358,-15.322,1.4415e-11,-0.20679,0,0,0.066667,-1.2632e-15,0,0.66667
0.95888,0.52057,14.383,0.030855,0.72771,8.3855,-1.1835,0.39449,-1.9914,-1.578,2.9494e-07,-0.99569,0,0,0.066667,2.5264e-15,0,0.66667
0.98461,0.16511,14.769,-0.50233,-4.441,3.0436,19.784,-6.5947,-1.1136,26.379,-1.4001e-05,-0.55681,0,0,0.066667,-0,-0,0.66667
0.15433,0.54281,2.315,0.064213,18.768,2329,-0.3964,0.13213,-1.9892,-0.52853,-4.6263e-10,-0.9946,0,0,0.066667,-3.158e-16,0,0.66667
0.3531,0.004495,5.2966,-0.74326,-195.17,1492.1,10.498,-3.4993,-0.030706,13.997,4.3475e-11,-0.015353,0,0,0.066667,-2.5264e-15,0,0.66667
0.57686,0.067872,8.6528,-0.64819,-129.65,702.69,14.957,-4.9855,-0.51303,19.942,2.164e-11,-0.25652,0,0,0.066667,-1.2632e-15,-4.4953e-17,0.66667
0.42223,0.36136,6.3334,-0.20796,-51.153,1225.3,3.5122,-1.1707,-1.8563,4.6829,5.6957e-12,-0.92815,0,0,0.066667,-0,-0,0.66667
0.5079,0.84339,7.6185,0.51509,114.51,922.33,-10.465,3.4882,-1.0516,-13.953,-3.4941e-12,-0.52581,0,0,0.066667,7.8949e-17,0,0.66667
0.87702,0.051475,13.155,-0.67279,-46.514,70.527,23.602,-7.8673,-0.39414,31.469,1.7861e-07,-0.19707,0,0,0.066667,1.2632e-15,0,0.66667
0.060464,0.9197,0.90696,0.62954,188.06,2748.4,-1.5226,0.50754,-0.59422,-2.0301,1.2877e-05,-0.29711,0,0,0.066667,-0,-0,0.66667
0.91535,0.011289,13.73,-0.73307,-35.635,36.41,26.841,-8.9469,-0.083248,35.788,9.0093e-08,-0.041624,0,0,0.066667,-0,-0,0.66667
0.31256,0.86811,4.6884,0.55217,149.32,1654.5,-6.9034,2.3011,-0.92783,-9.2046,-5.5982e-12,-0.46392,0,0,0.066667,3.158e-16,0,0.66667
0.72914,0.59123,10.937,0.13685,19.151,306.19,-3.9913,1.3304,-1.9299,-5.3217,7.7316e-12,-0.96497,0,0,0.066667,-1.8948e-15,0,0.66667
0.27511,0.53398,4.1267,0.050977,14.106,1808.6,-0.56097,0.18699,-1.9861,-0.74796,-7.0099e-13,-0.99305,0,0,0.066667,-6.3159e-16,0,0.66667
0.72986,0.26527,10.948,-0.35209,-49.199,305.16,10.279,-3.4264,-1.5558,13.705,-3.9444e-12,-0.77791,0,0,0.066667,-0,-0,0.66667
0.78436,0.72778,11.765,0.34168,39.284,199.41,-10.72,3.5733,-1.5852,-14.293,1.06e-10,-0.7926,0,0,0.066667,-0,-0,0.66667
0.56721,0.29885,8.5081,-0.30172,-61.248,730.84,6.8455,-2.2818,-1.6726,9.1274,9.3006e-12,-0.83628,0,0,0.066667,-0,-0,0.66667
0.11097,0.68494,1.6645,0.27741,82.059,2521.6,-1.2314,0.41045,-1.7325,-1.6418,-1.4069e-08,-0.86625,0,0,0.066667,-1.9737e-16,0,0.66667
0.1247,0.32071,1.8705,-0.26894,-79.291,2460.4,1.3415,-0.44716,-1.7535,1.7886,-4.0898e-09,-0.87674,0,0,0.066667,-0,-0,0.66667
0.85571,0.090777,12.836,-0.61383,-49.19,94.4,21.011,-7.0035,-0.6599,28.014,5.485e-09,-0.32995,0,0,0.066667,-1.3256e-15,-7.1453e-19,0.66667
0.93388,0.010177,14.008,-0.73474,-28.166,24.003,27.446,-9.1488,-0.07941,36.595,-8.3229e-07,-0.039705,0,0,0.066667,-0,-0,0.66667
0.64865,0.4219,9.7298,-0.11715,-20.291,497.96,3.0396,-1.0132,-1.9445,4.0528,1.3188e-11,-0.97227,0,0,0.066667,-7.6816e-16,0,0.66667
0.18497,0.72501,2.7746,0.33751,97.632,2194.6,-2.4972,0.83242,-1.5973,-3.3297,-2.4355e-10,-0.79865,0,0,0.066667,6.3159e-16,0,0.66667
0.72233,0.58377,10.835,0.12566,17.957,320.83,-3.6306,1.2102,-1.9428,-4.8408,9.3259e-15,-0.9714,0,0,0.066667,-6.3159e-16,0,0.66667
0.22405,0.94462,3.3607,0.66693,189.95,2025.8,-5.9769,1.9923,-0.41425,-7.9692,4.6134e-10,-0.20712,0,0,0.066667,-0,-0,0.66667
0.75275,0.83358,11.291,0.50037,64.893,258.94,-15.066,5.022,-1.111,-20.088,-2.9824e-11,-0.55551,0,0,0.066667,-6.3159e-16,0,0.66667
0.99863,0.73645,14.979,0.35467,0.1313,0.8753,-14.167,4.7224,-1.5585,-18.89,7.7998e-07,-0.77927,0,0,0.066667,-1.2632e-15,0,0.66667
0.92131,0.72646,13.82,0.33969,15.25,29.516,-12.518,4.1728,-1.5992,-16.691,1.3361e-07,-0.79962,0,0,0.066667,-0,-0,0.66667
0.52727,0.85522,7.909,0.53282,115.25,858.22,-11.238,3.7459,-0.98842,-14.984,-9.1882e-12,-0.49421,0,0,0.066667,-0,-0,0.66667
0.62264,0.69028,9.3397,0.28543,52.289,568.54,-7.1088,2.3696,-1.7138,-9.4784,8.6429e-12,-0.85688,0,0,0.066667,-0,-0,0.66667
0.31542,0.25648,4.7313,-0.36528,-98.518,1642.5,4.6086,-1.5362,-1.5267,6.1448,2.8658e-11,-0.76335,0,0,0.066667,6.3159e-16,0,0.66667
0.88054,0.50339,13.208,0.0050788,0.33933,64.203,-0.17888,0.059627,-1.9958,-0.23851,-1.6273e-08,-0.99792,0,0,0.066667,-0,-0,0.66667
0.86029,0.74133,12.904,0.36199,28.063,87.464,-12.457,4.1522,-1.542,-16.609,6.2102e-09,-0.77101,0,0,0.066667,1.2632e-15,0,0.66667
0.060565,0.46919,0.90847,-0.04621,-13.785,2747.8,0.11195,-0.037316,-1.9977,0.14926,2.3439e-07,-0.99886,0,0,0.066667,-0,-0,0.66667
0.54964,0.49547,8.2446,-0.006794,-1.4185,785.26,0.14937,-0.04979,-2.0017,0.19916,1.0005e-11,-1.0008,0,0,0.066667,6.3159e-16,0,0.66667
0.38057,0.38521,5.7085,-0.17219,-44.08,1383.4,2.6211,-0.87371,-1.8896,3.4949,4.9871e-13,-0.94482,0,0,0.066667,-0,-0,0.66667
0.55684,0.59003,8.3526,0.13504,27.874,762.68,-3.0078,1.0026,-1.9309,-4.0104,2.2633e-12,-0.96544,0,0,0.066667,-6.2463e-16,0,0.66667
0.18217,0.57512,2.7326,0.11268,32.617,2206.7,-0.82107,0.27369,-1.9501,-1.0948,1.1448e-10,-0.97505,0,0,0.066667,-0,-0,0.66667
0.79219,0.59841,11.883,0.14761,16.41,185.4,-4.6775,1.5592,-1.9196,-6.2366,-9.6008e-12,-0.95981,0,0,0.066667,-0,-0,0.66667
0.11789,0.92298,1.7684,0.63447,187.59,2491,-2.992,0.99733,-0.56221,-3.9893,-1.8887e-07,-0.28111,0,0,0.066667,-1.3961e-16,0,0.66667
0.20303,0.13783,3.0455,-0.54325,-156.11,2116.2,4.4119,-1.4706,-0.96193,5.8825,1.0355e-09,-0.48096,0,0,0.066667,-0,-8.9737e-17,0.66667
0.02395,0.25079,0.35925,-0.37382,-111.92,2913,0.35812,-0.11938,-1.4981,0.47748,-1.0235e-05,-0.74904,0,0,0.066667,7.8949e-17,0,0.66667
0.058498,0.37725,0.87747,-0.18413,-54.948,2757.1,0.43085,-0.14361,-1.8784,0.57446,2.3669e-07,-0.9392,0,0,0.066667,-1.579e-16,0,0.66667
0.11918,0.33199,1.7877,-0.25201,-74.399,2485,1.2014,-0.40046,-1.7688,1.6018,-8.1559e-09,-0.8844,0,0,0.066667,-1.579e-16,0,0.66667
0.45136,0.15015,6.7705,-0.52478,-125.2,1119.3,9.4746,-3.1582,-1.0258,12.633,-1.4655e-12,-0.51289,0,0,0.066667,9.4739e-16,0,0.66667
0.89569,0.94915,13.435,0.67372,39.892,52.19,-24.138,8.0459,-0.38185,-32.183,1.1119e-06,-0.19093,0,0,0.066667,-0,-0,0.66667
0.10377,0.30876,1.5565,-0.28686,-84.987,2553.8,1.1907,-0.39689,-1.7032,1.5876,5.5495e-08,-0.8516,0,0,0.066667,7.8949e-17,0,0.66667
0.99739,0.48015,14.961,-0.029776,-0.029282,0.092389,1.1879,-0.39597,-1.9984,1.5839,4.2251e-06,-0.9992,0,0,0.066667,-0,-0,0.66667
0.92242,0.27988,13.836,-0.33017,-14.618,28.703,12.182,-4.0608,-1.623,16.243,-1.8843e-07,-0.8115,0,0,0.066667,1.4211e-15,0,0.66667
0.12597,0.54934,1.8896,0.074016,21.81,2454.7,-0.37295,0.12432,-1.9879,-0.49727,-5.9829e-10,-0.99397,0,0,0.066667,-1.579e-16,0,0.66667
0.56161,0.92168,8.4241,0.63252,129.8,749.28,-14.209,4.7364,-0.58519,-18.945,1.5534e-12,-0.2926,0,0,0.066667,-0,7.8937e-17,0.66667
0.57872,0.79049,8.6808,0.43574,86.772,696.17,-10.087,3.3623,-1.3341,-13.449,6.0725e-12,-0.66707,0,0,0.066667,-1.2632e-15,0,0.66667
0.78149,0.63883,11.722,0.20824,24.207,204.08,-6.5095,2.1698,-1.8564,-8.6794,-8.7272e-12,-0.92819,0,0,0.066667,-0,-0,0.66667
0.099377,0.19821,1.4907,-0.45268,-134.3,2573.5,1.7995,-0.59982,-1.2663,2.3993,4.0625e-08,-0.63316,0,0,0.066667,-0,-0,0.66667
0.089059,0.7685,1.3359,0.40274,119.7,2619.7,-1.4347,0.47824,-1.4196,-1.913,-4.5472e-09,-0.70979,0,0,0.066667,-0,-0,0.66667
0.94471,0.51726,14.171,0.025891,0.82007,14.681,-0.97839,0.32613,-1.9911,-1.3045,-1.2131e-07,-0.99554,0,0,0.066667,-0,-0,0.66667
0.42548,0.32683,6.3822,-0.25975,-63.685,1213.3,4.4208,-1.4736,-1.7588,5.8944,9.2713e-12,-0.87938,0,0,0.066667,-6.3159e-16,0,0.66667
0.81916,0.75611,12.287,0.38416,37.749,142.94,-12.587,4.1958,-1.4696,-16.783,-1.1671e-10,-0.73482,0,0,0.066667,-0,-0,0.66667
0.78299,0.12535,11.745,-0.56198,-65.089,202.85,17.601,-5.867,-0.8831,23.468,6.5896e-10,-0.44155,0,0,0.066667,2.5264e-15,0,0.66667
0.8379,0.22923,12.569,-0.40616,-36.133,116.22,13.613,-4.5376,-1.4081,18.15,-9.0178e-10,-0.70407,0,0,0.066667,-0,-0,0.66667
0.13975,0.37112,2.0963,-0.19332,-56.758,2393.5,1.0807,-0.36023,-1.8759,1.4409,3.4669e-10,-0.93793,0,0,0.066667,-0,-0,0.66667
0.091732,0.80778,1.376,0.46167,137.17,2607.8,-1.694,0.56467,-1.2464,-2.2587,-1.257e-07,-0.62319,0,0,0.066667,3.9475e-17,0,0.66667
0.44285,0.43537,6.6428,-0.096951,-23.325,1149.3,1.7174,-0.57246,-1.963,2.2899,1.9089e-12,-0.9815,0,0,0.066667,7.8949e-17,0,0.66667
0.8081,0.926,12.122,0.63901,66.412,161.39,-20.655,6.8851,-0.54511,-27.54,-1.5894e-09,-0.27256,0,0,0.066667,-0,-0,0.66667
0.14031,0.93136,2.1047,0.64705,190.2,2391.4,-3.6316,1.2105,-0.52223,-4.8421,1.2314e-07,-0.26112,0,0,0.066667,-0,-0,0.66667
0.17975,0.85749,2.6962,0.53624,155.52,2217.6,-3.8554,1.2851,-0.97095,-5.1406,1.8464e-09,-0.48548,0,0,0.066667,3.158e-16,0,0.66667
0.1606,0.044473,2.409,-0.68329,-199.63,2301.9,4.3894,-1.4631,-0.33693,5.8525,3.646e-09,-0.16846,0,0,0.066667,-3.158e-16,0,0.66667
0.23062,0.062793,3.4593,-0.65581,-186.19,1997.6,6.0497,-2.0166,-0.47071,8.0663,-2.0513e-09,-0.23536,0,0,0.066667,-0,-0,0.66667
0.32804,0.40405,4.9207,-0.14392,-38.45,1591.1,1.8885,-0.62952,-1.9389,2.5181,2.4434e-11,-0.96944,0,0,0.066667,-1.579e-16,0,0.66667
0.06778,0.081351,1.0167,-0.62797,-187.42,2715.4,1.7026,-0.56752,-0.5932,2.2701,1.8846e-06,-0.2966,0,0,0.066667,-8.0267e-17,0,0.66667
0.38652,0.61918,5.7979,0.17877,45.52,1360.4,-2.764,0.92132,-1.8845,-3.6853,1.8244e-11,-0.94225,0,0,0.066667,-3.158e-16,0,0.66667
0.28048,0.76723,4.2073,0.40084,110.63,1786.5,-4.4972,1.4991,-1.4369,-5.9963,6.104e-12,-0.71847,0,0,0.066667,-0,-0,0.66667
0.15318,0.87575,2.2978,0.56363,164.98,2334.4,-3.4536,1.1512,-0.87212,-4.6047,-2.3667e-08,-0.43606,0,0,0.066667,-0,4.5648e-20,0.66667
0.31327,0.55583,4.6991,0.083742,22.609,1651,-1.0494,0.34979,-1.9838,-1.3992,-7.882e-12,-0.99191,0,0,0.066667,-0,-0,0.66667
0.49926,0.70099,7.4889,0.30148,67.753,950.94,-6.0207,2.0069,-1.6852,-8.0277,-3.5971e-14,-0.84259,0,0,0.066667,-0,-0,0.66667
0.67091,0.26949,10.064,-0.34577,-56.881,441.42,9.2793,-3.0931,-1.5824,12.372,6.1195e-12,-0.7912,0,0,0.066667,-0,-0,0.66667
0.29158,0.70152,4.3736,0.30228,82.826,1740.3,-3.5255,1.1752,-1.6704,-4.7006,7.3921e-12,-0.83518,0,0,0.066667,-0,-0,0.66667
0.48683,0.93705,7.3025,0.65557,149.97,994.63,-12.766,4.2554,-0.47546,-17.021,-1.0086e-11,-0.23773,0,0,0.066667,1.7764e-16,0,0.66667
0.69406,0.034591,10.411,-0.69811,-108.49,387,19.381,-6.4604,-0.26201,25.842,-3.304e-12,-0.131,0,0,0.066667,-0,-0,0.66667
0.94232,0.17582,14.135,-0.48626,-16.179,17.396,18.329,-6.1095,-1.1554,24.438,1.859e-06,-0.5777,0,0,0.066667,1.2632e-15,0,0.66667
0.11331,0.60785,1.6997,0.16178,47.821,2511.1,-0.73327,0.24442,-1.9048,-0.97769,-4.4354e-09,-0.95239,0,0,0.066667,1.579e-16,0,0.66667
0.37705,0.53276,5.6558,0.049137,12.617,1396.9,-0.74109,0.24703,-1.9961,-0.98811,7.2368e-12,-0.99805,0,0,0.066667,1.2632e-15,0,0.66667
0.86667,0.21037,13,-0.43445,-32.269,80.361,15.061,-5.0203,-1.3227,20.081,-1.3116e-08,-0.66134,0,0,0.066667,-0,-0,0.66667
0.76793,0.81183,11.519,0.46774,57.406,229.66,-14.368,4.7892,-1.2261,-19.157,-6.7568e-11,-0.61305,0,0,0.066667,1.8948e-15,0,0.66667
0.82594,0.12599,12.389,-0.56102,-53.347,133.85,18.535,-6.1783,-0.88525,24.713,8.5969e-10,-0.44262,0,0,0.066667,2.5264e-15,0,0.66667
0.036904,0.38288,0.55356,-0.17568,-52.535,2854.5,0.25933,-0.086442,-1.8854,0.34577,1.3873e-07,-0.94271,0,0,0.066667,-0,-0,0.66667
0.80406,0.38067,12.061,-0.17899,-18.883,165.82,5.7567,-1.9189,-1.8802,7.6755,6.0263e-13,-0.94012,0,0,0.066667,-0,-0,0.66667
0.095263,0.42336,1.429,-0.11496,-34.109,2591.8,0.43805,-0.14602,-1.9583,0.58407,1.7827e-08,-0.97913,0,0,0.066667,-0,-0,0.66667
0.35271,0.098327,5.2906,-0.60251,-158.14,1493.2,8.5004,-2.8335,-0.70385,11.334,-1.0517e-11,-0.35192,0,0,0.066667,-0,-0,0.66667
0.23302,0.85235,3.4954,0.52852,149.79,1987.1,-4.9263,1.6421,-1.013,-6.5684,-2.4701e-10,-0.50651,0,0,0.066667,-0,5.9747e-18,0.66667
0.98438,0.12663,14.766,-0.56006,-5.0633,3.4826,22.052,-7.3508,-0.89765,29.403,-2.6192e-05,-0.44883,0,0,0.066667,-0,-0,0.66667
0.48234,0.089524,7.2351,-0.61571,-141.62,1010,11.879,-3.9598,-0.65633,15.839,-9.2868e-12,-0.32817,0,0,0.066667,1.579e-16,0,0.66667
0.28033,0.85604,4.2049,0.53407,147.48,1787.4,-5.9886,1.9962,-0.99351,-7.9848,2.3603e-12,-0.49675,0,0,0.066667,-0,1.0441e-16,0.66667
0.42077,0.1314,6.3116,-0.5529,-136.35,1231.4,9.3058,-3.1019,-0.92051,12.408,1.6711e-11,-0.46026,0,0,0.066667,-0,-0,0.66667
0.13901,0.42191,2.0851,-0.11714,-34.396,2396.8,0.65132,-0.21711,-1.956,0.86842,3.5413e-10,-0.97802,0,0,0.066667,-1.6462e-16,0,0.66667
0.78121,0.59495,11.718,0.14243,16.571,204.45,-4.4507,1.4836,-1.9408,-5.9342,-5.5023e-12,-0.9704,0,0,0.066667,2.5264e-15,0,0.66667
0.82105,0.86609,12.316,0.54913,53.535,140.95,-18.035,6.0115,-0.92166,-24.046,-9.7085e-10,-0.46083,0,0,0.066667,-6.3159e-16,0,0.66667
0.0059699,0.80743,0.089548,0.46114,138.17,2994.3,-0.11011,0.036693,-1.2391,-0.14682,-1.3696e-05,-0.61953,0,0,0.066667,-2.4672e-18,0,0.66667
0.35861,0.90751,5.3791,0.61127,159.68,1470,-8.7683,2.9228,-0.68113,-11.691,7.2662e-12,-0.34056,0,0,0.066667,-0,-0,0.66667
0.92793,0.57732,13.919,0.11597,4.768,24.425,-4.3047,1.4349,-1.9464,-5.7395,1.8429e-07,-0.97322,0,0,0.066667,-1.2632e-15,0,0.66667
0.55859,0.34121,8.3788,-0.23818,-49.034,757.38,5.3218,-1.7739,-1.7974,7.0957,4.0279e-12,-0.89869,0,0,0.066667,1.1128e-15,0,0.66667
0.17029,0.65394,2.5544,0.23091,67.143,2258.8,-1.5729,0.52431,-1.8166,-2.0973,3.5482e-10,-0.90832,0,0,0.066667,3.5527e-16,0,0.66667
0.39769,0.27575,5.9653,-0.33638,-84.796,1317.9,5.3509,-1.7836,-1.5919,7.1345,1.2648e-12,-0.79595,0,0,0.066667,-3.158e-16,0,0.66667
0.63071,0.012783,9.4607,-0.73083,-132.01,548.23,18.438,-6.1459,-0.095665,24.583,-3.002e-13,-0.047833,0,0,0.066667,-0,-0,0.66667
0.7635,0.13408,11.453,-0.54888,-68.526,238.41,16.763,-5.5876,-0.93217,22.35,-8.7516e-11,-0.46609,0,0,0.066667,-2.5264e-15,-3.9726e-17,0.66667
0.98548,0.12831,14.782,-0.55753,-4.6763,3.2947,21.978,-7.3259,-0.9026,29.303,-4.2076e-05,-0.4513,0,0,0.066667,-0,-0,0.66667
0.97769,0.7979,14.665,0.44685,5.7476,3.9996,-17.475,5.825,-1.2837,-23.3,-1.6978e-05,-0.64187,0,0,0.066667,1.2632e-15,0,0.66667
0.44414,0.81817,6.6621,0.47725,114.77,1145.3,-8.4785,2.8262,-1.1846,-11.305,-2.6823e-13,-0.5923,0,0,0.066667,-0,-0,0.66667
0.91798,0.25069,13.77,-0.37396,-17.485,32.044,13.731,-4.5772,-1.5023,18.309,-2.6575e-08,-0.75113,0,0,0.066667,2.5264e-15,0,0.66667
0.72376,0.76704,10.856,0.40056,57.054,318.41,-11.596,3.8655,-1.4252,-15.462,4.3858e-12,-0.7126,0,0,0.066667,-0,-0,0.66667
0.15494,0.29825,2.3241,-0.30262,-88.458,2326.4,1.8755,-0.62517,-1.6804,2.5007,-7.6127e-10,-0.84021,0,0,0.066667,1.3231e-16,0,0.66667
0.56932,0.47383,8.5398,-0.039254,-7.9365,724.02,0.89393,-0.29798,-1.9889,1.1919,1.138e-11,-0.99446,0,0,0.066667,-0,-0,0.66667
0.52955,0.08678,7.9433,-0.61983,-133.69,851.11,13.129,-4.3765,-0.63907,17.506,2.0422e-11,-0.31954,0,0,0.066667,-9.4739e-16,-5.4726e-17,0.66667
0.93954,0.47528,14.093,-0.037087,-1.2831,17.41,1.3938,-0.46459,-1.999,1.8584,-8.4056e-08,-0.9995,0,0,0.066667,-0,-0,0.66667
0.69262,0.80615,10.389,0.45922,71.509,389.1,-12.723,4.2409,-1.2463,-16.964,9.6065e-12,-0.62314,0,0,0.066667,-1.2632e-15,0,0.66667
0.53942,0.84989,8.0913,0.52484,111.48,818.81,-11.324,3.7748,-1.0146,-15.099,1.4508e-11,-0.5073,0,0,0.066667,-1.2632e-15,0,0.66667
0.91872,0.2421,13.781,-0.38684,-17.932,31.565,14.216,-4.7387,-1.4682,18.955,-3.716e-08,-0.73409,0,0,0.066667,-6.3159e-16,0,0.66667
0.080916,0.2071,1.2137,-0.43935,-130.77,2656.3,1.422,-0.47401,-1.3147,1.896,1.6218e-08,-0.65734,0,0,0.066667,-7.8949e-17,0,0.66667
0.30942,0.1449,4.6413,-0.53265,-144.34,1667.3,6.5925,-2.1975,-0.99143,8.79,4.8923e-11,-0.49572,0,0,0.066667,-3.158e-16,0,0.66667
0.36636,0.72165,5.4954,0.33247,86.197,1438.9,-4.8721,1.624,-1.6017,-6.4961,1.7497e-11,-0.80083,0,0,0.066667,1.2632e-15,0,0.66667
0.011747,0.3301,0.17621,-0.25485,-76.312,2968.1,0.11975,-0.039915,-1.7671,0.15966,1.0911e-06,-0.88354,0,0,0.066667,-1.9737e-17,0,0.66667
0.54516,0.50094,8.1774,0.0014064,0.29571,799.48,-0.030669,0.010223,-2.006,-0.040891,7.0609e-13,-1.003,0,0,0.066667,-0,-0,0.66667
0.38558,0.59638,5.7836,0.14457,36.842,1364,-2.2297,0.74324,-1.9225,-2.973,1.423e-11,-0.96124,0,0,0.066667,-1.2632e-15,0,0.66667
0.46514,0.19373,6.9772,-0.4594,-107.83,1069.8,8.5475,-2.8492,-1.2489,11.397,5.7927e-12,-0.62443,0,0,0.066667,-0,-0,0.66667
0.052614,0.35369,0.78921,-0.21947,-65.542,2783.6,0.46189,-0.15396,-1.8236,0.61585,3.2172e-07,-0.91179,0,0,0.066667,1.579e-16,0,0.66667
0.98055,0.26454,14.708,-0.35319,-3.9214,2.9204,13.853,-4.6175,-1.5546,18.47,6.4908e-06,-0.77729,0,0,0.066667,1.2632e-15,0,0.66667
0.87537,0.80673,13.131,0.4601,32.093,70.874,-16.11,5.3701,-1.2579,-21.481,6.1197e-10,-0.62896,0,0,0.066667,-1.2632e-15,0,0.66667
0.31262,0.25213,4.6893,-0.37181,-100.48,1653.9,4.6494,-1.5498,-1.5208,6.1992,1.7645e-11,-0.76042,0,0,0.066667,-0,-0,0.66667
0.081769,0.19176,1.2265,-0.46237,-137.62,2652.5,1.5123,-0.5041,-1.2393,2.0164,1.1055e-08,-0.61966,0,0,0.066667,-0,-0,0.66667
0.1066,0.10151,1.599,-0.59774,-177.16,2541.3,2.5488,-0.8496,-0.73099,3.3984,-2.6337e-07,-0.3655,0,0,0.066667,-0,-4.4626e-17,0.66667
0.11128,0.15852,1.6692,-0.51222,-151.6,2520.4,2.28,-0.75999,-1.0722,3.0399,-6.0835e-08,-0.53609,0,0,0.066667,-0,-0,0.66667
0.31416,0.97084,4.7125,0.70625,190.92,1648.4,-8.8752,2.9584,-0.23246,-11.834,-1.021e-11,-0.11623,0,0,0.066667,-0,-0,0.66667
0.74672,0.34448,11.201,-0.23328,-30.839,269.96,6.9679,-2.3226,-1.8075,9.2905,2.3461e-12,-0.90377,0,0,0.066667,-2.5264e-15,0,0.66667
0.86782,0.0019669,13.017,-0.74705,-55.327,81.192,25.932,-8.6441,-0.010458,34.576,5.4926e-08,-0.0052288,0,0,0.066667,-0,-0,0.66667
0.45038,0.92507,6.7557,0.6376,152.38,1123.2,-11.487,3.8289,-0.55564,-15.315,1.0711e-11,-0.27782,0,0,0.066667,-6.3159e-16,-8.8144e-17,0.66667
0.7354,0.7774,11.031,0.41609,57.151,293.74,-12.24,4.0799,-1.3925,-16.32,-1.8574e-11,-0.69626,0,0,0.066667,3.158e-16,0,0.66667
0.19541,0.90556,2.9312,0.60834,175.41,2149.4,-4.7551,1.585,-0.67906,-6.3401,-5.1833e-10,-0.33953,0,0,0.066667,-3.9475e-16,0,0.66667
0.1939,0.052008,2.9086,-0.67199,-193.94,2156.1,5.2121,-1.7374,-0.38853,6.9494,-3.1341e-09,-0.19427,0,0,0.066667,-0,-0,0.66667
0.36744,0.091851,5.5117,-0.61222,-158.75,1435.3,8.9983,-2.9994,-0.66198,11.998,1.5186e-11,-0.33099,0,0,0.066667,9.4739e-16,0,0.66667
0.34924,0.47648,5.2386,-0.035287,-9.2743,1506.1,0.49294,-0.16431,-1.991,0.65726,2.8587e-11,-0.99548,0,0,0.066667,-0,-0,0.66667
0.30208,0.6383,4.5312,0.20745,56.443,1696.9,-2.5066,0.83553,-1.8424,-3.3421,1.7102e-11,-0.9212,0,0,0.066667,-0,-0,0.66667
0.54976,0.12317,8.2464,-0.56524,-118.18,786.05,12.43,-4.1433,-0.86596,16.573,5.0777e-12,-0.43298,0,0,0.066667,2.3685e-16,0,0.66667
0.012695,0.45907,0.19043,-0.061393,-18.379,2963.9,0.031176,-0.010393,-1.9873,0.041568,-1.4259e-06,-0.99366,0,0,0.066667,9.8686e-18,0,0.66667
0.35923,0.86273,5.3885,0.54409,142.01,1467.3,-7.8181,2.606,-0.95849,-10.424,2.0717e-11,-0.47924,0,0,0.066667,-0,-8.7498e-17,0.66667
0.68499,0.67585,10.275,0.26377,41.867,406.66,-7.2273,2.4091,-1.7545,-9.6364,6.0263e-13,-0.87725,0,0,0.066667,-0,-0,0.66667
0.20754,0.64976,3.1131,0.22464,64.369,2096.4,-1.8649,0.62162,-1.8179,-2.4865,1.312e-11,-0.90897,0,0,0.066667,-0,-0,0.66667
0.18084,0.94673,2.7126,0.6701,194.38,2213,-4.8472,1.6157,-0.39745,-6.4629,-1.2649e-08,-0.19872,0,0,0.066667,-0,-0,0.66667
0.29412,0.78172,4.4117,0.42259,115.64,1730,-4.9716,1.6572,-1.3676,-6.6287,-1.9112e-11,-0.68382,0,0,0.066667,1.2632e-15,0,0.66667
0.0056085,0.85954,0.084128,0.53931,161.64,2995.9,-0.12097,0.04031,-0.96066,-0.16131,-2.1615e-05,-0.48033,0,0,0.066667,9.8686e-18,-4.0323e-17,0.66667
0.34478,0.093471,5.1718,-0.60979,-161.07,1524.7,8.4099,-2.8033,-0.68663,11.213,2.4958e-13,-0.34332,0,0,0.066667,6.5133e-16,0,0.66667
0.8284,0.54598,12.426,0.068969,6.4517,128.6,-2.2854,0.76179,-1.9934,-3.0472,-1.1613e-10,-0.99672,0,0,0.066667,-0,-0,0.66667
0.022289,0.46279,0.33434,-0.055819,-16.705,2920.5,0.049767,-0.016589,-1.9833,0.066356,-3.6829e-07,-0.99165,0,0,0.066667,1.9737e-17,0,0.66667
0.030319,0.51366,0.45479,0.020497,6.1315,2884.2,-0.024858,0.008287,-2.0061,-0.033144,1.3287e-06,-1.003,0,0,0.066667,-0,-0,0.66667
0.37436,0.48691,5.6153,-0.019641,-5.0551,1407.4,0.29411,-0.098038,-2.0074,0.39215,1.7512e-11,-1.0037,0,0,0.066667,-0,-0,0.66667
0.06536,0.46196,0.9804,-0.057059,-17.011,2726.2,0.14918,-0.049725,-1.9897,0.1989,1.1705e-07,-0.99483,0,0,0.066667,-1.1842e-16,0,0.66667
0.85305,0.87188,12.796,0.55782,45.425,97.31,-19.034,6.3447,-0.88872,-25.379,1.086e-08,-0.44436,0,0,0.066667,1.579e-15,0,0.66667
0.36355,0.95926,5.4533,0.68889,179.29,1450.8,-10.018,3.3393,-0.31022,-13.357,1.1197e-11,-0.15511,0,0,0.066667,-0,-0,0.66667
0.70869,0.054388,10.63,-0.66842,-99.734,353.1,18.948,-6.316,-0.40668,25.264,3.1122e-11,-0.20334,0,0,0.066667,-0,-0,0.66667
0.34251,0.84271,5.1376,0.51407,135.97,1533.6,-7.0429,2.3476,-1.0681,-9.3906,-7.2475e-12,-0.53407,0,0,0.066667,-1.1842e-16,0,0.66667
0.28541,0.31991,4.2812,-0.27014,-74.302,1765.8,3.084,-1.028,-1.7383,4.112,8.3442e-12,-0.86917,0,0,0.066667,-0,-0,0.66667
0.0054914,0.54289,0.082371,0.064328,19.261,2996.4,-0.01413,0.0047086,-1.9803,-0.01884,-1.9879e-06,-0.99017,0,0,0.066667,-0,-0,0.66667
0.27003,0.96627,4.0505,0.69941,194.47,1830.8,-7.5546,2.5182,-0.25872,-10.073,1.6718e-11,-0.12936,0,0,0.066667,-1.579e-16,0,0.66667
0.55821,0.31488,8.3731,-0.27767,-57.206,758.64,6.2,-2.0667,-1.7241,8.2666,6.247e-12,-0.86206,0,0,0.066667,-0,-0,0.66667
0.39521,0.10285,5.9282,-0.59572,-150.67,1327.9,9.4174,-3.1391,-0.73494,12.557,8.2965e-12,-0.36747,0,0,0.066667,-0,-0,0.66667
0.84515,0.74048,12.677,0.36073,30.758,106.36,-12.195,4.0649,-1.5433,-16.26,-2.4685e-09,-0.77163,0,0,0.066667,-6.3159e-16,0,0.66667
0.25356,0.77002,3.8034,0.40503,113.53,1899.6,-4.108,1.3693,-1.4156,-5.4773,1.7859e-11,-0.7078,0,0,0.066667,-0,-0,0.66667
0.92019,0.55431,13.803,0.081458,3.6981,29.638,-2.9983,0.99942,-1.9814,-3.9977,5.804e-08,-0.99069,0,0,0.066667,6.3159e-16,0,0.66667
0.14496,0.19467,2.1744,-0.458,-134.34,2370.6,2.6556,-0.88521,-1.2516,3.5408,-3.0619e-09,-0.62582,0,0,0.066667,-0,-0,0.66667
0.48392,0.9817,7.2587,0.72256,165.97,1005,-13.986,4.6621,-0.15329,-18.648,4.8193e-12,-0.076646,0,0,0.066667,-0,-0,0.66667
0.20199,0.34741,3.0298,-0.22888,-65.743,2120.4,1.8493,-0.61642,-1.8214,2.4657,-3.8155e-11,-0.91071,0,0,0.066667,6.3159e-16,0,0.66667
0.11218,0.70238,1.6827,0.30357,89.778,2516.2,-1.3622,0.45407,-1.6732,-1.8163,-6.6654e-09,-0.83659,0,0,0.066667,-1.579e-16,0,0.66667
0.078936,0.89002,1.184,0.58504,174.28,2665.3,-1.8472,0.61574,-0.79108,-2.4629,-4.4818e-07,-0.39554,0,0,0.066667,-1.579e-16,0,0.66667
0.097961,0.085307,1.4694,-0.62204,-184.71,2580,2.4374,-0.81248,-0.62181,3.2499,-9.1322e-08,-0.31091,0,0,0.066667,-1.579e-16,0,0.66667
0.44342,0.31687,6.6514,-0.27469,-66.066,1147.4,4.8722,-1.6241,-1.727,6.4963,-2.633e-12,-0.8635,0,0,0.066667,-0,-0,0.66667
0.49394,0.86576,7.409,0.54864,124.29,969.79,-10.84,3.6132,-0.92431,-14.453,2.6414e-12,-0.46215,0,0,0.066667,-6.3159e-16,0,0.66667
0.29445,0.90543,4.4168,0.60815,166.5,1729,-7.1628,2.3876,-0.68857,-9.5504,-4.2113e-11,-0.34428,0,0,0.066667,7.1054e-16,0,0.66667
0.71033,0.70738,10.655,0.31106,46.083,347.74,-8.8383,2.9461,-1.6495,-11.784,2.3004e-13,-0.82476,0,0,0.066667,-0,-0,0.66667
0.0215,0.4948,0.32251,-0.007805,-2.3359,2924.1,0.0067124,-0.0022382,-1.995,0.0089495,-1.1364e-06,-0.9975,0,0,0.066667,5.2205e-17,0,0.66667
0.30959,0.66677,4.6439,0.25015,67.724,1666.1,-3.0978,1.0326,-1.7782,-4.1304,1.4289e-12,-0.88911,0,0,0.066667,-0,-0,0.66667
0.84278,0.99771,12.642,0.74657,64.884,111.87,-25.168,8.3893,-0.026897,-33.557,2.6789e-09,-0.013448,0,0,0.066667,3.9475e-15,2.1431e-17,0.66667
0.54746,0.3655,8.2119,-0.20176,-42.277,792.32,4.4181,-1.4727,-1.8645,5.8908,1.6485e-11,-0.93227,0,0,0.066667,-0,-0,0.66667
0.05517,0.16096,0.82755,-0.50857,-151.95,2772.2,1.1223,-0.3741,-1.0746,1.4964,-2.2891e-06,-0.53731,0,0,0.066667,1.579e-16,0,0.66667
0.51017,0.8193,7.6525,0.47895,106.12,914.61,-9.7738,3.2579,-1.1799,-13.032,2.8963e-12,-0.58995,0,0,0.066667,-0,-0,0.66667
0.29425,0.90758,4.4138,0.61137,167.41,1729.8,-7.196,2.3987,-0.67385,-9.5946,-4.7671e-11,-0.33693,0,0,0.066667,1.2632e-15,8.5253e-17,0.66667
0.16633,0.020615,2.4949,-0.71908,-209.72,2276.7,4.7841,-1.5947,-0.15656,6.3788,3.3234e-08,-0.078279,0,0,0.066667,-0,-0,0.66667
0.67928,0.38913,10.189,-0.1663,-26.778,420.32,4.5187,-1.5062,-1.8951,6.025,8.133e-12,-0.94753,0,0,0.066667,-1.2632e-15,0,0.66667
0.19682,0.54707,2.9523,0.070602,20.319,2142.8,-0.55583,0.18528,-1.9763,-0.74111,-1.5572e-11,-0.98814,0,0,0.066667,3.158e-16,0,0.66667
0.39589,0.89271,5.9384,0.58907,148.89,1325.3,-9.3283,3.1094,-0.76152,-12.438,1.4041e-11,-0.38076,0,0,0.066667,-0,-0,0.66667
0.72776,0.28688,10.916,-0.31969,-44.958,309.52,9.3063,-3.1021,-1.6311,12.408,-2.2924e-12,-0.81554,0,0,0.066667,-0,-0,0.66667
0.80994,0.72485,12.149,0.33727,34.649,156.91,-10.927,3.6422,-1.5978,-14.569,2.5778e-11,-0.79889,0,0,0.066667,-0,-0,0.66667
0.60148,0.7141,9.0223,0.32115,61.336,628.61,-7.7267,2.5756,-1.6275,-10.302,9.6576e-12,-0.81373,0,0,0.066667,-3.158e-16,0,0.66667
0.13081,0.80871,1.9621,0.46306,136.37,2433.4,-2.4229,0.80763,-1.2331,-3.2305,-9.4275e-09,-0.61656,0,0,0.066667,-1.579e-16,0,0.66667
0.01089,0.87638,0.16336,0.56457,169.21,2972,-0.24592,0.081925,-0.86426,-0.32792,-7.2456e-05,-0.43213,0,0,0.066667,3.9475e-17,0,0.66667
0.29257,0.67485,4.3886,0.26227,71.812,1736.2,-3.0693,1.0231,-1.7525,-4.0925,1.5997e-11,-0.87626,0,0,0.066667,3.158e-16,0,0.66667
0.48388,0.98115,7.2583,0.72172,165.79,1005.1,-13.969,4.6564,-0.15745,-18.626,5.1807e-12,-0.078725,0,0,0.066667,-0,7.5584e-17,0.66667
0.075671,0.54659,1.1351,0.069881,20.804,2679.8,-0.21152,0.070506,-1.9846,-0.28202,-5.8831e-08,-0.99229,0,0,0.066667,-0,-0,0.66667
0.083491,0.55471,1.2524,0.082062,24.4,2644.6,-0.27406,0.091353,-1.9716,-0.36541,-2.8299e-08,-0.9858,0,0,0.066667,-0,-0,0.66667
0.97949,0.95961,14.692,0.68942,8.3328,5.4188,-27.011,9.0037,-0.30614,-36.015,-8.2773e-05,-0.15307,0,0,0.066667,-1.2632e-15,0,0.66667
0.62427,0.98317,9.3641,0.72475,132.66,565.88,-18.098,6.0326,-0.14078,-24.13,5.7696e-12,-0.070388,0,0,0.066667,1.2632e-15,-7.8478e-17,0.66667
0.82291,0.23267,12.344,-0.401,-38.668,137.44,13.199,-4.3998,-1.4236,17.599,1.481e-10,-0.71182,0,0,0.066667,1.2632e-15,0,0.66667
0.78101,0.77624,11.715,0.41436,48.314,205.6,-12.945,4.3149,-1.4009,-17.259,8.2228e-11,-0.70043,0,0,0.066667,1.094e-15,0,0.66667
0.51024,0.88808,7.6536,0.58212,129.04,914.74,-11.881,3.9603,-0.79028,-15.841,7.6774e-12,-0.39514,0,0,0.066667,1.2632e-15,0,0.66667
0.60696,0.87777,9.1044,0.56665,107.23,613.73,-13.757,4.5858,-0.86156,-18.343,1.7977e-12,-0.43078,0,0,0.066667,-0,-0,0.66667
0.28245,0.58043,4.2368,0.12065,33.239,1778,-1.3631,0.45437,-1.9547,-1.8175,2.7442e-11,-0.97736,0,0,0.066667,-0,-0,0.66667
0.936,0.6952,14.04,0.2928,10.739,19.936,-10.962,3.6541,-1.7009,-14.616,4.3914e-07,-0.85045,0,0,0.066667,-0,-0,0.66667
0.61687,0.87202,9.253,0.55803,103.56,585.61,-13.769,4.5898,-0.88727,-18.359,1.0275e-11,-0.44363,0,0,0.066667,6.3159e-16,0,0.66667
0.40685,0.23849,6.1027,-0.39227,-98.035,1283.2,6.3837,-2.1279,-1.462,8.5116,9.5688e-12,-0.73098,0,0,0.066667,-0,-0,0.66667
0.050178,0.86192,0.75268,0.54289,162.3,2794.7,-1.0896,0.36321,-0.95155,-1.4528,-1.3791e-06,-0.47577,0,0,0.066667,-0,-0,0.66667
0.10484,0.33565,1.5727,-0.24652,-73.015,2549,1.0339,-0.34462,-1.7809,1.3785,4.3111e-08,-0.89044,0,0,0.066667,-1.579e-16,0,0.66667
0.44394,0.88971,6.6591,0.58457,140.67,1146.3,-10.381,3.4602,-0.77888,-13.841,-5.4206e-12,-0.38944,0,0,0.066667,-6.3159e-16,0,0.66667
0.023763,0.31514,0.35644,-0.2773,-83.002,2913.8,0.26357,-0.087861,-1.7211,0.35143,-5.394e-06,-0.86057,0,0,0.066667,7.8949e-17,0,0.66667
0.28857,0.67346,4.3286,0.26019,71.422,1752.7,-3.0033,1.0011,-1.7527,-4.0044,1.465e-11,-0.87636,0,0,0.066667,-3.158e-16,0,0.66667
0.2149,0.54192,3.2234,0.062874,17.955,2064.5,-0.54046,0.18015,-1.9841,-0.72061,3.4499e-11,-0.99207,0,0,0.066667,-0,-0,0.66667
0.22151,0.077142,3.3227,-0.63429,-180.84,2036.6,5.6201,-1.8734,-0.57052,7.4934,1.6544e-10,-0.28526,0,0,0.066667,3.158e-16,0,0.66667
0.19268,0.10631,2.8903,-0.59054,-170.45,2161.3,4.5515,-1.5172,-0.75553,6.0686,5.8645e-10,-0.37776,0,0,0.066667,-0,-0,0.66667
0.83915,0.32154,12.587,-0.26769,-23.62,114,8.9853,-2.9951,-1.7419,11.98,2.3298e-10,-0.87097,0,0,0.066667,-0,-0,0.66667
0.46604,0.14617,6.9907,-0.53074,-124.49,1066.9,9.894,-3.298,-0.9998,13.192,2.4466e-11,-0.4999,0,0,0.066667,-0,-0,0.66667
0.54314,0.98238,8.1471,0.72357,153,807.82,-15.72,5.24,-0.13684,-20.96,4.4995e-12,-0.068419,0,0,0.066667,-0,7.7659e-17,0.66667
0.58082,0.14268,8.7123,-0.53598,-106.4,690.25,12.452,-4.1507,-0.97981,16.603,8.0975e-12,-0.48991,0,0,0.066667,-0,-0,0.66667
0.094346,0.70767,1.4152,0.31151,92.471,2596,-1.1756,0.39186,-1.6641,-1.5675,-2.8445e-08,-0.83203,0,0,0.066667,-1.579e-16,0,0.66667
0.064011,0.39216,0.96016,-0.16175,-48.237,2732.2,0.41416,-0.13805,-1.9122,0.55221,2.8658e-07,-0.95611,0,0,0.066667,-0,-0,0.66667
0.98681,0.23433,14.802,-0.39851,-2.966,2.1042,15.73,-5.2434,-1.4373,20.974,-7.2143e-06,-0.71867,0,0,0.066667,-0,-0,0.66667
0.28383,0.89667,4.2575,0.595,163.99,1772.9,-6.7552,2.2517,-0.74302,-9.007,1.6491e-11,-0.37151,0,0,0.066667,-3.158e-16,0,0.66667
0.1419,0.27554,2.1285,-0.33669,-98.816,2384.1,1.9111,-0.63702,-1.6038,2.5481,1.7792e-09,-0.80189,0,0,0.066667,2.3685e-16,0,0.66667
0.018779,0.25641,0.28169,-0.36538,-109.41,2936.4,0.27446,-0.09149,-1.5257,0.36594,-6.0747e-06,-0.76287,0,0,0.066667,-0,-0,0.66667
0.87071,0.11263,13.061,-0.58105,-42.026,76.689,20.237,-6.7457,-0.79669,26.983,8.1414e-09,-0.39834,0,0,0.066667,-0,-0,0.66667
0.17375,0.67566,2.6062,0.26349,76.527,2243.6,-1.8312,0.61041,-1.7572,-2.4416,2.2165e-10,-0.87858,0,0,0.066667,-0,-0,0.66667
0.17154,0.66201,2.573,0.24301,70.631,2253.3,-1.6674,0.5558,-1.8008,-2.2232,3.7134e-10,-0.90039,0,0,0.066667,-0,-0,0.66667
0.3727,0.75567,5.5904,0.38351,98.906,1414.2,-5.7173,1.9058,-1.4802,-7.6231,2.3114e-11,-0.74009,0,0,0.066667,-0,-0,0.66667
0.18251,0.071959,2.7376,-0.64206,-186.1,2205.7,4.6873,-1.5624,-0.53023,6.2497,2.0778e-08,-0.26511,0,0,0.066667,3.158e-16,0,0.66667
0.44101,0.26331,6.6151,-0.35503,-85.633,1156.4,6.2629,-2.0876,-1.5508,8.3505,5.2536e-13,-0.77538,0,0,0.066667,-0,-0,0.66667
0.57868,0.74507,8.6801,0.36761,73.189,696.1,-8.509,2.8363,-1.5295,-11.345,2.5633e-12,-0.76473,0,0,0.066667,-0,-0,0.66667
0.83616,0.99925,12.542,0.74887,67.585,120.81,-25.047,8.349,-0.00089943,-33.396,-2.7653e-09,-0.00044972,0,0,0.066667,1.4211e-15,0,0.66667
0.58829,0.88145,8.8244,0.57217,112.1,668.11,-13.464,4.4881,-0.83157,-17.952,-2.7534e-14,-0.41579,0,0,0.066667,-1.2632e-15,0,0.66667
0.92403,0.29377,13.86,-0.30934,-13.415,27.516,11.434,-3.8112,-1.6628,15.245,-2.6477e-07,-0.83138,0,0,0.066667,-0,-0,0.66667
0.48128,0.086455,7.2193,-0.62032,-142.87,1013.7,11.942,-3.9807,-0.63234,15.923,1.7364e-12,-0.31617,0,0,0.066667,-6.3159e-16,0,0.66667
0.62184,0.13831,9.3276,-0.54254,-99.673,571.65,13.495,-4.4983,-0.95329,17.993,-1.2053e-12,-0.47665,0,0,0.066667,-0,-0,0.66667
0.44171,0.99171,6.6256,0.73757,178.09,1155.1,-13.032,4.3439,-0.06335,-17.375,1.2799e-11,-0.031675,0,0,0.066667,3.158e-16,0,0.66667
0.91251,0.81749,13.688,0.47623,23.74,36.679,-17.383,5.7942,-1.1885,-23.177,1.1226e-07,-0.59423,0,0,0.066667,-0,-0,0.66667
0.71041,0.32137,10.656,-0.26794,-39.679,347.45,7.614,-2.538,-1.7385,10.152,5.7176e-12,-0.86923,0,0,0.066667,-1.2632e-15,0,0.66667
0.6028,0.34505,9.042,-0.23242,-44.268,624.62,5.6041,-1.868,-1.8032,7.4721,-1.2014e-11,-0.90158,0,0,0.066667,2.5264e-15,0,0.66667
0.84339,0.48622,12.651,-0.020668,-1.778,107.94,0.69724,-0.23241,-2.0085,0.92965,5.3942e-10,-1.0042,0,0,0.066667,-0,-0,0.66667
0.9065,0.013038,13.597,-0.73044,-39.042,43.328,26.486,-8.8286,-0.11349,35.314,9.1776e-07,-0.056746,0,0,0.066667,-2.5264e-15,0,0.66667
0.57799,0.65976,8.6698,0.23964,47.749,697.88,-5.5403,1.8468,-1.8078,-7.3871,-4.3952e-12,-0.90392,0,0,0.066667,-0,-0,0.66667
0.2076,0.6129,3.1139,0.16935,48.522,2096.1,-1.4063,0.46875,-1.8948,-1.875,3.8442e-11,-0.9474,0,0,0.066667,-0,-0,0.66667
0.33309,0.014867,4.9963,-0.7277,-194.06,1571.9,9.6956,-3.2319,-0.11293,12.927,-1.2601e-11,-0.056465,0,0,0.066667,1.2632e-15,0,0.66667
0.92001,0.49872,13.8,-0.0019155,-0.087135,29.724,0.070491,-0.023497,-2.0054,0.093988,-6.969e-08,-1.0027,0,0,0.066667,1.579e-15,0,0.66667
0.49116,0.22704,7.3674,-0.40944,-93.034,978.88,8.0441,-2.6814,-1.398,10.725,6.0112e-12,-0.69898,0,0,0.066667,1.2632e-15,0,0.66667
0.84515,0.33226,12.677,-0.25161,-21.436,105.98,8.5058,-2.8353,-1.7807,11.341,1.3561e-10,-0.89035,0,0,0.066667,-0,-0,0.66667
0.49158,0.99983,7.3736,0.74975,170.57,978.73,-14.742,4.9141,0.0035621,-19.657,-5.4428e-12,0.0017811,0,0,0.066667,-4.1448e-16,0,0.66667
0.048249,0.91957,0.72373,0.62936,188.26,2803.4,-1.2146,0.40486,-0.59745,-1.6195,-1.1251e-05,-0.29873,0,0,0.066667,-0,-0,0.66667
0.58842,0.035467,8.8263,-0.6968,-136.61,668.35,16.401,-5.4668,-0.26976,21.867,4.8832e-12,-0.13488,0,0,0.066667,-0,-0,0.66667
0.97989,0.095195,14.698,-0.60721,-7.1313,4.6441,23.8,-7.9333,-0.68704,31.733,4.1816e-05,-0.34352,0,0,0.066667,-0,-0,0.66667
0.15147,0.91791,2.272,0.62686,183.63,2342,-3.7979,1.266,-0.59901,-5.0639,-7.4572e-08,-0.2995,0,0,0.066667,-0,-0,0.66667
0.62692,0.7816,9.4038,0.4224,76.746,557.12,-10.592,3.5308,-1.371,-14.123,1.7349e-11,-0.68549,0,0,0.066667,-2.5264e-15,0,0.66667
0.64441,0.94021,9.6662,0.66032,115.75,510.97,-17.021,5.6736,-0.44906,-22.694,-4.1069e-12,-0.22453,0,0,0.066667,-0,-0,0.66667
0.10623,0.51827,1.5934,0.027401,8.1115,2542.8,-0.11643,0.038809,-1.9972,-0.15524,-1.2392e-08,-0.99862,0,0,0.066667,-0,-0,0.66667
0.29898,0.936,4.4846,0.654,178.57,1710.4,-7.8212,2.6071,-0.48374,-10.428,1.3589e-11,-0.24187,0,0,0.066667,-1.1842e-16,0,0.66667
0.38954,0.42618,5.8431,-0.11073,-28.116,1348.7,1.7254,-0.57512,-1.9634,2.3005,1.4659e-11,-0.98171,0,0,0.066667,-0,-0,0.66667
0.95436,0.18962,14.315,-0.46557,-12.29,11.578,17.773,-5.9243,-1.2369,23.697,-5.8391e-06,-0.61845,0,0,0.066667,-0,-0,0.66667
0.57675,0.84837,8.6513,0.52255,104.46,702.43,-12.055,4.0184,-1.0358,-16.074,1.6316e-12,-0.51788,0,0,0.066667,-0,-0,0.66667
0.087358,0.64723,1.3104,0.22084,65.629,2627.3,-0.77169,0.25723,-1.8208,-1.0289,-3.545e-09,-0.91042,0,0,0.066667,-7.8949e-17,0,0.66667
0.10716,0.037267,1.6074,-0.6941,-205.78,2538.9,2.9752,-0.99172,-0.2904,3.9669,1.9553e-06,-0.1452,0,0,0.066667,-0,4.9099e-17,0.66667
0.95368,0.43728,14.305,-0.094083,-2.5,10.545,3.589,-1.1963,-1.9793,4.7854,-3.0284e-07,-0.98965,0,0,0.066667,-1.4013e-15,0,0.66667
0.80534,0.53954,12.08,0.059309,6.2184,163.6,-1.9106,0.63686,-1.9813,-2.5474,-4.7691e-11,-0.99066,0,0,0.066667,-0,-0,0.66667
0.4283,0.67811,6.4245,0.26717,65.312,1202.8,-4.5772,1.5257,-1.7404,-6.1029,-3.2325e-12,-0.87019,0,0,0.066667,-0,-0,0.66667
0.67249,0.83457,10.087,0.50186,82.307,438.07,-13.5,4.4999,-1.1136,-18,1.6254e-12,-0.55682,0,0,0.066667,-6.3159e-16,0,0.66667
0.21193,0.078488,3.1789,-0.63227,-181.05,2077.9,5.3598,-1.7866,-0.57224,7.1464,1.9219e-09,-0.28612,0,0,0.066667,-2.5097e-16,0,0.66667
0.52016,0.56299,7.8025,0.09449,20.623,880.6,-1.966,0.65534,-1.9664,-2.6213,3.223e-13,-0.9832,0,0,0.066667,-0,-0,0.66667
0.97554,0.0057962,14.633,-0.74131,-10.736,6.7637,28.927,-9.6423,-0.039981,38.569,1.9231e-05,-0.01999,0,0,0.066667,-0,-0,0.66667
0.83042,0.74754,12.456,0.37132,34.413,126.45,-12.334,4.1113,-1.5134,-16.445,4.5709e-10,-0.75672,0,0,0.066667,-0,-0,0.66667
0.21598,0.68595,3.2397,0.27893,79.635,2060,-2.4097,0.80324,-1.7257,-3.213,-2.6151e-11,-0.86286,0,0,0.066667,-1.1842e-16,0,0.66667
0.44842,0.3499,6.7264,-0.22516,-53.845,1129.2,4.0386,-1.3462,-1.8166,5.3848,-4.7575e-12,-0.9083,0,0,0.066667,1.2632e-15,0,0.66667
0.57268,0.07627,8.5902,-0.63559,-128.04,715.28,14.56,-4.8532,-0.55866,19.413,2.4137e-11,-0.27933,0,0,0.066667,-0,-0,0.66667
0.5708,0.13038,8.562,-0.55443,-111.99,720.65,12.659,-4.2196,-0.90117,16.878,8.205e-12,-0.45058,0,0,0.066667,-0,-0,0.66667
0.93053,0.94964,13.958,0.67447,27.063,25.515,-25.104,8.3681,-0.37619,-33.472,7.5506e-06,-0.1881,0,0,0.066667,-0,-0,0.66667
0.2551,0.60925,3.8264,0.16388,45.874,1892.8,-1.6722,0.5574,-1.9001,-2.2296,2.4943e-11,-0.95003,0,0,0.066667,3.158e-16,0,0.66667
0.65634,0.52892,9.8451,0.04338,7.3826,477.89,-1.1389,0.37963,-2.0058,-1.5185,-7.8804e-13,-1.0029,0,0,0.066667,-0,-0,0.66667
0.78125,0.10612,11.719,-0.59082,-68.933,206.1,18.463,-6.1543,-0.77058,24.617,6.5617e-10,-0.38529,0,0,0.066667,-1.2632e-15,0,0.66667
0.11597,0.14207,1.7396,-0.53689,-158.75,2499.5,2.4906,-0.83019,-0.96888,3.3208,6.7704e-08,-0.48444,0,0,0.066667,-0,-0,0.66667
0.52639,0.76906,7.8958,0.40359,87.362,860.67,-8.4979,2.8326,-1.4169,-11.331,-2.0979e-12,-0.70843,0,0,0.066667,-6.3159e-16,0,0.66667
0.41234,0.50357,6.1852,0.0053589,1.3312,1262.1,-0.088388,0.029463,-1.9951,-0.11785,-9.3044e-12,-0.99756,0,0,0.066667,-0,-0,0.66667
0.50229,0.04608,7.5344,-0.68088,-152.66,941.9,13.68,-4.56,-0.35412,18.24,1.31e-11,-0.17706,0,0,0.066667,-0,-0,0.66667
0.065315,0.70099,0.97973,0.30149,89.913,2726.4,-0.78767,0.26255,-1.6777,-1.0502,-4.5061e-07,-0.83884,0,0,0.066667,-0,-0,0.66667
0.26954,0.92971,4.043,0.64456,179.22,1832.7,-6.9493,2.3164,-0.52112,-9.2658,1.12e-11,-0.26056,0,0,0.066667,-0,-0,0.66667
0.25,0.74757,3.75,0.37135,104.28,1914.6,-3.7135,1.2378,-1.5225,-4.9514,-1.0372e-12,-0.76126,0,0,0.066667,4.737e-16,0,0.66667
0.66868,0.45537,10.03,-0.066951,-11.066,446.49,1.7907,-0.59692,-1.9838,2.3877,3.8043e-12,-0.99191,0,0,0.066667,-0,-0,0.66667
0.050074,0.06621,0.75111,-0.65069,-194.62,2795.2,1.3033,-0.43443,-0.49528,1.7377,1.5215e-06,-0.24764,0,0,0.066667,1.579e-16,0,0.66667
0.97313,0.305,14.597,-0.2925,-4.5068,4.3444,11.386,-3.7953,-1.6931,15.181,5.4025e-06,-0.84655,0,0,0.066667,6.3159e-16,0,0.66667
0.37569,0.52209,5.6353,0.033132,8.5173,1402.2,-0.49789,0.16596,-2.0049,-0.66385,8.7651e-12,-1.0025,0,0,0.066667,-0,-0,0.66667
0.87187,0.85284,13.078,0.52926,37.927,75.073,-18.458,6.1527,-1.0042,-24.611,1.5429e-08,-0.50211,0,0,0.066667,-0,-0,0.66667
0.69429,0.93895,10.414,0.65843,102.22,386.2,-18.286,6.0952,-0.45361,-24.381,1.9718e-11,-0.22681,0,0,0.066667,-2.5264e-15,0,0.66667
0.029579,0.41966,0.44369,-0.1205,-36.051,2887.6,0.14257,-0.047526,-1.953,0.1901,-1.324e-06,-0.97652,0,0,0.066667,-0,-0,0.66667
0.087271,0.76168,1.3091,0.39252,116.69,2627.8,-1.3702,0.45673,-1.4462,-1.8269,8.9211e-09,-0.72308,0,0,0.066667,-0,-0,0.66667
0.094963,0.37423,1.4244,-0.18865,-55.981,2593.2,0.71659,-0.23886,-1.8814,0.95545,2.5736e-08,-0.9407,0,0,0.066667,-1.7764e-16,0,0.66667
0.56423,0.50795,8.4634,0.011919,2.4304,739.67,-0.269,0.089668,-2.0043,-0.35867,-1.1861e-11,-1.0022,0,0,0.066667,2.5264e-15,0,0.66667
0.56604,0.2336,8.4906,-0.39961,-81.304,734.68,9.0477,-3.0159,-1.431,12.064,1.1187e-11,-0.71552,0,0,0.066667,-0,-0,0.66667
0.31061,0.384,4.6591,-0.174,-47.067,1661.9,2.1618,-0.7206,-1.8965,2.8824,2.7743e-11,-0.94825,0,0,0.066667,-0,-0,0.66667
0.11319,0.87245,1.6979,0.55867,165.31,2511.9,-2.5295,0.84317,-0.88957,-3.3727,5.459e-09,-0.44478,0,0,0.066667,1.9737e-16,0,0.66667
0.76861,0.52494,11.529,0.037417,4.5721,227.28,-1.1504,0.38345,-1.996,-1.5338,-1.4549e-11,-0.99798,0,0,0.066667,1.2632e-15,0,0.66667
0.1382,0.84383,2.073,0.51574,151.61,2400.6,-2.851,0.95033,-1.058,-3.8013,8.8367e-09,-0.52899,0,0,0.066667,-0,-0,0.66667
0.58503,0.095523,8.7755,-0.60672,-119.6,677.96,14.198,-4.7326,-0.6861,18.931,-6.418e-12,-0.34305,0,0,0.066667,2.5264e-15,0,0.66667
0.50868,0.97428,7.6302,0.71142,158.16,920.54,-14.475,4.8251,-0.19472,-19.3,1.2634e-11,-0.097362,0,0,0.066667,-0,-0,0.66667
0.51012,0.013825,7.6518,-0.72926,-161.82,915.78,14.881,-4.9602,-0.10402,19.841,1.4396e-11,-0.052012,0,0,0.066667,-0,-0,0.66667
0.35934,0.72806,5.3901,0.34209,89.217,1466.5,-4.917,1.639,-1.5957,-6.556,2.3561e-11,-0.79783,0,0,0.066667,-0,-0,0.66667
0.055479,0.14494,0.83218,-0.53259,-159.13,2770.8,1.1819,-0.39397,-0.98508,1.5759,-3.6398e-06,-0.49254,0,0,0.066667,-7.8949e-17,0,0.66667
0.33619,0.049735,5.0429,-0.6754,-179.64,1559.2,9.0826,-3.0275,-0.3715,12.11,1.2558e-11,-0.18575,0,0,0.066667,-0,-0,0.66667
0.94985,0.013907,14.248,-0.72914,-21.365,15.56,27.703,-9.2343,-0.10922,36.937,4.0371e-06,-0.054608,0,0,0.066667,2.5264e-15,0,0.66667
0.94833,0.78205,14.225,0.42308,12.608,14.036,-16.049,5.3496,-1.3612,-21.398,4.694e-07,-0.68058,0,0,0.066667,-0,-0,0.66667
0.42932,0.44979,6.4398,-0.075315,-18.387,1198.9,1.2934,-0.43112,-1.9733,1.7245,-7.2604e-12,-0.98664,0,0,0.066667,-0,-0,0.66667
0.74205,0.14857,11.131,-0.52714,-70.908,280.53,15.647,-5.2155,-1.0058,20.862,-1.2555e-11,-0.50288,0,0,0.066667,-6.3159e-16,0,0.66667
0.55762,0.17284,8.3642,-0.49073,-101.28,761.1,10.946,-3.6485,-1.1397,14.594,1.4452e-11,-0.56983,0,0,0.066667,-0,-0,0.66667
0.914,0.87556,13.71,0.56334,27.674,36.086,-20.596,6.8653,-0.86655,-27.461,2.2485e-07,-0.43328,0,0,0.066667,-2.5264e-15,0,0.66667
0.73641,0.39326,11.046,-0.16011,-21.896,290.91,4.7164,-1.5721,-1.9122,6.2885,-8.209e-12,-0.95612,0,0,0.066667,1.2632e-15,0,0.66667
0.39393,0.63678,5.909,0.20517,51.889,1332,-3.2329,1.0776,-1.8499,-4.3106,1.4339e-11,-0.92493,0,0,0.066667,-0,-0,0.66667
0.060535,0.75189,0.90803,0.37783,112.77,2747.9,-0.91489,0.30496,-1.4973,-1.2199,-9.5573e-08,-0.74866,0,0,0.066667,-1.579e-16,0,0.66667
0.81061,0.58738,12.159,0.13107,13.409,155.33,-4.2499,1.4166,-1.9434,-5.6666,-1.831e-12,-0.97169,0,0,0.066667,1.2632e-15,0,0.66667
0.31642,0.97422,4.7463,0.71133,191.99,1639.2,-9.0031,3.001,-0.19954,-12.004,3.6717e-12,-0.09977,0,0,0.066667,-0,-0,0.66667
0.49421,0.68121,7.4131,0.27181,61.49,968.12,-5.3732,1.7911,-1.7325,-7.1643,9.1172e-13,-0.86623,0,0,0.066667,9.4739e-16,0,0.66667
0.54153,0.6435,8.1229,0.21525,45.523,811.23,-4.6626,1.5542,-1.8305,-6.2167,-1.9793e-12,-0.91524,0,0,0.066667,6.3159e-16,0,0.66667
0.51753,0.78627,7.7629,0.42941,94.151,889.93,-8.8893,2.9631,-1.349,-11.852,-1.0092e-11,-0.67448,0,0,0.066667,1.2632e-15,0,0.66667
0.14619,0.13214,2.1929,-0.5518,-161.85,2365.3,3.2267,-1.0756,-0.91276,4.3023,5.6729e-09,-0.45638,0,0,0.066667,3.158e-16,0,0.66667
0.35934,0.096238,5.3902,-0.60564,-158.11,1467,8.7054,-2.9018,-0.70851,11.607,1.79e-11,-0.35426,0,0,0.066667,-0,2.3139e-17,0.66667
0.36131,0.63708,5.4196,0.20562,53.521,1458.5,-2.9716,0.99055,-1.8535,-3.9622,4.9127e-12,-0.92673,0,0,0.066667,6.3159e-16,0,0.66667
0.2158,0.83074,3.2369,0.49611,141.74,2061,-4.2824,1.4275,-1.1253,-5.7098,4.6563e-10,-0.56267,0,0,0.066667,-3.158e-16,0,0.66667
0.036849,0.61652,0.55274,0.17478,52.266,2854.7,-0.25762,0.085873,-1.8865,-0.34349,-1.2589e-07,-0.94327,0,0,0.066667,-3.9475e-17,0,0.66667
0.92418,0.69037,13.863,0.28556,12.356,27.33,-10.556,3.5188,-1.7136,-14.075,2.6803e-07,-0.85682,0,0,0.066667,-0,-0,0.66667
0.35432,0.80691,5.3148,0.46037,120.61,1486.5,-6.5247,2.1749,-1.2427,-8.6996,2.124e-11,-0.62137,0,0,0.066667,-4.737e-16,0,0.66667
0.1958,0.54138,2.937,0.062064,17.869,2147.3,-0.48608,0.16203,-1.9799,-0.64811,8.8472e-12,-0.98996,0,0,0.066667,-0,-0,0.66667
0.86409,0.83363,12.961,0.50044,37.873,83.684,-17.297,5.7657,-1.106,-23.063,-3.4327e-09,-0.55298,0,0,0.066667,-0,-0,0.66667
0.49805,0.99137,7.4708,0.73706,166.25,956.55,-14.684,4.8946,-0.072432,-19.578,-1.4125e-11,-0.036216,0,0,0.066667,6.3159e-16,-6.3124e-17,0.66667
0.81993,0.12919,12.299,-0.55622,-54.54,142.68,18.242,-6.0808,-0.89427,24.323,6.6784e-10,-0.44714,0,0,0.066667,-0,-0,0.66667
0.76332,0.76385,11.45,0.39578,49.386,238.02,-12.084,4.0281,-1.4455,-16.112,-1.975e-11,-0.72275,0,0,0.066667,-0,-0,0.66667
0.11672,0.11806,1.7509,-0.57291,-169.39,2496.1,2.6749,-0.89164,-0.82689,3.5666,1.4051e-07,-0.41344,0,0,0.066667,7.8949e-17,0,0.66667
0.51608,0.038475,7.7412,-0.69229,-152.31,895.75,14.291,-4.7637,-0.30602,19.055,1.3883e-11,-0.15301,0,0,0.066667,-0,-0,0.66667
0.33424,0.051297,5.0136,-0.67305,-179.28,1567.1,8.9985,-2.9995,-0.38365,11.998,1.2172e-11,-0.19183,0,0,0.066667,3.158e-16,0,0.66667
0.68594,0.59465,10.289,0.14198,22.473,404.14,-3.8956,1.2985,-1.9349,-5.1942,1.2959e-11,-0.96746,0,0,0.066667,-2.5264e-15,0,0.66667
0.78722,0.7192,11.808,0.3288,37.357,194.38,-10.354,3.4512,-1.6116,-13.805,8.6905e-11,-0.80578,0,0,0.066667,-0,-0,0.66667
0.28471,0.056333,4.2706,-0.6655,-183.38,1769.5,7.579,-2.5263,-0.42491,10.105,9.7558e-12,-0.21246,0,0,0.066667,-0,-0,0.66667
0.42001,0.21253,6.3001,-0.4312,-106.37,1234,7.2443,-2.4148,-1.3434,9.6591,1.0373e-11,-0.67172,0,0,0.066667,-3.829e-16,0,0.66667
0.88235,0.1231,13.235,-0.56535,-37.417,64.22,19.953,-6.6512,-0.85829,26.605,-1.577e-07,-0.42914,0,0,0.066667,-1.7369e-15,0,0.66667
0.764,0.17385,11.46,-0.48922,-60.935,237.14,14.951,-4.9836,-1.1539,19.934,-9.8455e-12,-0.57694,0,0,0.066667,-9.0476e-16,0,0.66667
0.2849,0.58467,4.2735,0.127,34.935,1767.9,-1.4473,0.48243,-1.9415,-1.9297,3.7968e-11,-0.97074,0,0,0.066667,-0,-0,0.66667
0.72388,0.24783,10.858,-0.37826,-53.85,318.06,10.953,-3.6508,-1.488,14.603,-8.4377e-14,-0.74401,0,0,0.066667,-1.4211e-15,0,0.66667
0.02714,0.88026,0.4071,0.57039,170.85,2898.6,-0.61922,0.20644,-0.84143,-0.82562,5.1675e-05,-0.42071,0,0,0.066667,7.8949e-17,0,0.66667
0.5633,0.13067,8.4494,-0.554,-113.32,743.7,12.483,-4.1609,-0.91754,16.644,5.2074e-12,-0.45877,0,0,0.066667,1.2632e-15,0,0.66667
0.041077,0.30632,0.61616,-0.29052,-86.866,2835.7,0.47735,-0.15912,-1.6951,0.63647,1.8619e-06,-0.84754,0,0,0.066667,-3.9475e-17,0,0.66667
0.12608,0.92068,1.8912,0.63102,186.19,2454.5,-3.1824,1.0608,-0.59117,-4.2432,-1.0276e-07,-0.29559,0,0,0.066667,-0,-0,0.66667
0.8206,0.68309,12.309,0.27464,26.772,140.4,-9.0146,3.0049,-1.7261,-12.02,9.3294e-11,-0.86303,0,0,0.066667,1.2632e-15,0,0.66667
0.68161,0.36204,10.224,-0.20694,-33.128,414.73,5.6421,-1.8807,-1.8422,7.5228,5.0302e-12,-0.92111,0,0,0.066667,-0,-0,0.66667
0.43883,0.27458,6.5825,-0.33813,-81.747,1164.3,5.9352,-1.9784,-1.6,7.9137,6.6032e-12,-0.79999,0,0,0.066667,-3.158e-16,0,0.66667
0.39571,0.61688,5.9356,0.17532,44.264,1325.2,-2.7751,0.92502,-1.8867,-3.7001,8.8718e-12,-0.94333,0,0,0.066667,-0,-0,0.66667
0.8758,0.4865,13.137,-0.02025,-1.4035,69.187,0.70938,-0.23646,-2.0067,0.94584,5.0686e-09,-1.0033,0,0,0.066667,1.2632e-15,0,0.66667
0.23877,0.5567,3.5815,0.085047,24.011,1962.2,-0.81226,0.27075,-1.9718,-1.083,6.4964e-12,-0.9859,0,0,0.066667,-4.737e-16,0,0.66667
0.39398,0.001837,5.9098,-0.74724,-189.37,1333.1,11.776,-3.9254,-0.015278,15.701,-2.1037e-11,-0.0076388,0,0,0.066667,-0,-0,0.66667
0.14348,0.50665,2.1522,0.0099806,2.9267,2377,-0.05728,0.019093,-2.0009,-0.076373,-6.6363e-10,-1.0005,0,0,0.066667,6.3159e-16,0,0.66667
0.67243,0.68583,10.086,0.27874,45.672,437.45,-7.4973,2.4991,-1.7343,-9.9964,1.5192e-12,-0.86713,0,0,0.066667,-1.4211e-15,0,0.66667
0.17561,0.1644,2.6341,-0.5034,-146.2,2235.7,3.5361,-1.1787,-1.0977,4.7148,-3.5282e-10,-0.54884,0,0,0.066667,3.158e-16,0,0.66667
0.99975,0.58791,14.996,0.13187,-0.055093,0.12145,-5.2735,1.7579,-1.9493,-7.0314,3.0228e-06,-0.97467,0,0,0.066667,-0,-0,0.66667
0.96443,0.061345,14.466,-0.65798,-13.704,9.1649,25.383,-8.4611,-0.45916,33.844,-2.1224e-05,-0.22958,0,0,0.066667,6.1646e-16,1.079e-19,0.66667
0.067754,0.62595,1.0163,0.18893,56.314,2715.4,-0.51202,0.17067,-1.8699,-0.68269,-3.2226e-07,-0.93495,0,0,0.066667,-0,-0,0.66667
0.070849,0.68179,1.0627,0.27268,81.256,2701.5,-0.77277,0.25759,-1.7297,-1.0304,-3.9022e-07,-0.86486,0,0,0.066667,-7.6473e-17,0,0.66667
0.24709,0.98977,3.7064,0.73466,206.92,1927.6,-7.2611,2.4204,-0.081732,-9.6814,8.1386e-11,-0.040866,0,0,0.066667,-6.3159e-16,0,0.66667
0.31125,0.94493,4.6688,0.66739,180.74,1660.2,-8.309,2.7697,-0.42304,-11.079,-1.5985e-11,-0.21152,0,0,0.066667,-0,-5.7218e-17,0.66667
0.79794,0.47305,11.969,-0.040429,-4.3827,175.66,1.2904,-0.43013,-2.0021,1.7205,5.3673e-11,-1.001,0,0,0.066667,-0,-0,0.66667
0.75286,0.039929,11.293,-0.69011,-89.624,259.84,20.782,-6.9274,-0.30769,27.71,-8.4981e-11,-0.15384,0,0,0.066667,-0,-0,0.66667
0.1789,0.62924,2.6836,0.19387,56.193,2221,-1.3873,0.46245,-1.8608,-1.8498,6.8162e-11,-0.93039,0,0,0.066667,-6.3159e-16,0,0.66667
0.74052,0.97561,11.108,0.71342,96.62,284.8,-21.132,7.044,-0.18503,-28.176,4.6022e-11,-0.092516,0,0,0.066667,-0,-0,0.66667
0.37683,0.39631,5.6525,-0.15553,-39.947,1397.8,2.3444,-0.78146,-1.9183,3.1258,9.7473e-12,-0.95914,0,0,0.066667,-0,-0,0.66667
0.31534,0.70013,4.7301,0.30019,80.955,1642.7,-3.7865,1.2622,-1.6804,-5.0486,5.7359e-12,-0.8402,0,0,0.066667,-0,-0,0.66667
0.20011,0.44566,3.0016,-0.081505,-23.425,2128.5,0.6524,-0.21747,-1.977,0.86986,5.6543e-11,-0.9885,0,0,0.066667,-6.3159e-16,0,0.66667
0.55685,0.91835,8.3527,0.62753,129.77,764.06,-13.978,4.6592,-0.59467,-18.637,-3.1548e-12,-0.29734,0,0,0.066667,-0,-0,0.66667
0.50796,0.50437,7.6194,0.0065619,1.4568,921.24,-0.13333,0.044443,-1.9941,-0.17777,-6.5201e-12,-0.99703,0,0,0.066667,-0,-0,0.66667
0.90452,0.70466,13.568,0.30699,16.598,42.317,-11.107,3.7024,-1.6693,-14.81,3.7698e-08,-0.83467,0,0,0.066667,-0,-0,0.66667
0.16445,0.34793,2.4667,-0.22811,-66.461,2284.5,1.5005,-0.50016,-1.8093,2.0006,-3.2882e-10,-0.90464,0,0,0.066667,-6.3159e-16,0,0.66667
0.026083,0.59446,0.39124,0.14169,42.398,2903.4,-0.14783,0.049277,-1.9256,-0.1971,1.9791e-06,-0.9628,0,0,0.066667,-0,-0,0.66667
0.13921,0.95529,2.0881,0.68293,200.84,2396.3,-3.8027,1.2676,-0.34734,-5.0703,-1.0159e-07,-0.17367,0,0,0.066667,1.579e-16,0,0.66667
0.036355,0.54886,0.54532,0.073286,21.914,2857,-0.10657,0.035524,-1.9765,-0.1421,9.8931e-08,-0.98823,0,0,0.066667,-0,-0,0.66667
0.56867,0.14428,8.5301,-0.53358,-108.15,727.07,12.137,-4.0458,-0.98194,16.183,6.8647e-12,-0.49097,0,0,0.066667,-0,-0,0.66667
0.77158,0.8076,11.574,0.4614,55.847,222.86,-14.24,4.7468,-1.2382,-18.987,-6.6153e-11,-0.61911,0,0,0.066667,4.5687e-16,0,0.66667
0.98718,0.43122,14.808,-0.10317,-0.72963,1.0791,4.0738,-1.3579,-1.9636,5.4318,-3.3508e-07,-0.98181,0,0,0.066667,-1.2632e-15,0,0.66667
0.84725,0.28018,12.709,-0.32974,-27.757,103.51,11.175,-3.7249,-1.6138,14.9,1.9184e-09,-0.80691,0,0,0.066667,1.3421e-15,0,0.66667
0.16958,0.98056,2.5436,0.72084,210,2262.5,-4.8895,1.6298,-0.15505,-6.5193,-2.8488e-08,-0.077525,0,0,0.066667,-0,-0,0.66667
0.97796,0.71129,14.669,0.31693,3.9931,3.2933,-12.398,4.1326,-1.6372,-16.53,-6.6863e-06,-0.81862,0,0,0.066667,-0,-0,0.66667
0.57851,0.90904,8.6776,0.61356,122.35,697.54,-14.198,4.7327,-0.67251,-18.931,-7.9332e-12,-0.33626,0,0,0.066667,1.2632e-15,0,0.66667
0.81024,0.79035,12.154,0.43552,44.713,156.85,-14.115,4.705,-1.3285,-18.82,-2.4542e-10,-0.66423,0,0,0.066667,-0,-0,0.66667
0.011419,0.15292,0.17129,-0.52062,-156.01,2969.6,0.23779,-0.079232,-1.0346,0.31706,4.4672e-05,-0.51728,0,0,0.066667,-4.9343e-18,0,0.66667
0.19796,0.603,2.9694,0.15449,44.446,2137.9,-1.2233,0.40777,-1.9108,-1.6311,1.4766e-11,-0.95542,0,0,0.066667,-0,-0,0.66667
0.92504,0.52199,13.876,0.032981,1.4086,26.253,-1.2203,0.40678,-1.9962,-1.6271,5.8648e-08,-0.99811,0,0,0.066667,-0,-0,0.66667
0.24256,0.74135,3.6384,0.36202,102.05,1946.2,-3.5125,1.1708,-1.5277,-4.6833,-5.8402e-12,-0.76386,0,0,0.066667,-0,-0,0.66667
0.53957,0.25709,8.0935,-0.36437,-77.324,817.83,7.8641,-2.6214,-1.5219,10.485,5.9739e-12,-0.76093,0,0,0.066667,-0,-0,0.66667
0.72603,0.70667,10.891,0.31001,43.829,313.2,-9.0031,3.001,-1.6518,-12.004,-8.9972e-13,-0.82589,0,0,0.066667,-0,-0,0.66667
0.10091,0.60359,1.5137,0.15539,46.054,2566.6,-0.62721,0.20907,-1.9078,-0.83628,-2.7384e-08,-0.95392,0,0,0.066667,-3.158e-16,0,0.66667
0.57273,0.81592,8.591,0.47388,95.365,714.45,-10.856,3.6188,-1.1977,-14.475,8.7592e-12,-0.59884,0,0,0.066667,-0,-0,0.66667
0.21267,0.59838,3.1901,0.14757,42.187,2074.2,-1.2554,0.41846,-1.9176,-1.6739,2.7024e-11,-0.95882,0,0,0.066667,-0,-0,0.66667
0.35815,0.26562,5.3722,-0.35157,-91.783,1471.2,5.0366,-1.6789,-1.5668,6.7155,1.2466e-11,-0.78342,0,0,0.066667,6.3159e-16,0,0.66667
0.44382,0.0011254,6.6573,-0.74831,-180.27,1147.4,13.285,-4.4282,-0.0044584,17.713,-7.4349e-12,-0.0022292,0,0,0.066667,-0,-0,0.66667
0.74936,0.8214,11.24,0.48211,63.251,265.57,-14.451,4.8169,-1.1827,-19.268,2.0622e-11,-0.59133,0,0,0.066667,-0,-0,0.66667
0.91396,0.3715,13.709,-0.19275,-9.4171,34.409,7.0468,-2.3489,-1.8623,9.3957,-1.6533e-08,-0.93113,0,0,0.066667,1.579e-15,0,0.66667
0.96955,0.19833,14.543,-0.4525,-7.9745,6.1017,17.549,-5.8496,-1.2802,23.398,9.6579e-06,-0.64012,0,0,0.066667,-0,-0,0.66667
0.38163,0.5754,5.7245,0.1131,28.924,1379.2,-1.7265,0.5755,-1.9483,-2.302,1.2643e-11,-0.97416,0,0,0.066667,6.3159e-16,0,0.66667
0.2518,0.72976,3.777,0.34464,96.677,1907,-3.4711,1.157,-1.582,-4.6282,1.7678e-11,-0.79101,0,0,0.066667,-0,-0,0.66667
0.27102,0.27498,4.0652,-0.33753,-93.665,1826,3.6591,-1.2197,-1.5906,4.8788,8.61e-12,-0.79531,0,0,0.066667,-4.737e-16,0,0.66667
0.76456,0.37618,11.468,-0.18573,-23.046,235.04,5.6801,-1.8934,-1.8858,7.5735,-5.4547e-12,-0.94291,0,0,0.066667,-0,-0,0.66667
0.84258,0.21958,12.639,-0.42063,-36.435,110.01,14.177,-4.7255,-1.379,18.902,2.7689e-09,-0.6895,0,0,0.066667,-0,-0,0.66667
0.16474,0.29683,2.4712,-0.30476,-88.798,2283.2,2.0083,-0.66944,-1.6632,2.6778,-2.4187e-10,-0.83161,0,0,0.066667,-3.158e-16,0,0.66667
0.029941,0.43297,0.44911,-0.10055,-30.079,2885.9,0.12042,-0.04014,-1.9709,0.16056,-1.1671e-06,-0.98547,0,0,0.066667,-0,-0,0.66667
0.84738,0.81486,12.711,0.4723,39.782,103.99,-16.009,5.3362,-1.2067,-21.345,-8.044e-09,-0.60335,0,0,0.066667,2.5264e-15,0,0.66667
0.15971,0.19924,2.3956,-0.45114,-131.72,2305.5,2.882,-0.96066,-1.2755,3.8426,-3.0301e-10,-0.63774,0,0,0.066667,-0,-0,0.66667
0.94524,0.14806,14.179,-0.5279,-16.714,16.166,19.96,-6.6533,-1.0028,26.613,3.0475e-06,-0.50142,0,0,0.066667,6.3159e-16,0,0.66667
0.96751,0.35581,14.513,-0.21629,-4.0318,5.6904,8.3704,-2.7901,-1.8401,11.161,1.1328e-06,-0.92003,0,0,0.066667,-0,-0,0.66667
0.57819,0.83392,8.6728,0.50088,99.869,698.02,-11.584,3.8614,-1.1196,-15.446,4.1203e-12,-0.55978,0,0,0.066667,-0,-0,0.66667
0.48604,0.63591,7.2905,0.20386,46.601,996.12,-3.9634,1.3211,-1.8571,-5.2845,-1.8023e-12,-0.92853,0,0,0.066667,-0,-0,0.66667
0.35393,0.35613,5.3089,-0.21581,-56.517,1487.7,3.0552,-1.0184,-1.8295,4.0736,9.1935e-12,-0.91474,0,0,0.066667,-0,-0,0.66667
0.6594,0.29794,9.891,-0.30309,-51.243,470.41,7.9942,-2.6647,-1.6732,10.659,4.2917e-12,-0.83662,0,0,0.066667,-0,-0,0.66667
0.38436,0.38127,5.7654,-0.1781,-45.438,1368.7,2.7382,-0.91272,-1.8819,3.6509,6.1109e-12,-0.94094,0,0,0.066667,-0,-0,0.66667
0.4349,0.90146,6.5234,0.60219,146.36,1179.4,-10.476,3.4919,-0.7129,-13.968,-3.9106e-12,-0.35645,0,0,0.066667,1.2049e-15,0,0.66667
0.6133,0.52098,9.1995,0.031468,5.8712,594.4,-0.77198,0.25733,-1.9945,-1.0293,6.5886e-12,-0.99727,0,0,0.066667,-0,-0,0.66667
0.034635,0.203,0.51952,-0.4455,-133.32,2864.8,0.6172,-0.20573,-1.2935,0.82293,1.2412e-06,-0.64677,0,0,0.066667,-0,-0,0.66667
0.2188,0.11224,3.2821,-0.58163,-166,2048.2,5.0906,-1.6969,-0.80861,6.7874,-5.7727e-10,-0.4043,0,0,0.066667,-0,-0,0.66667
0.020192,0.93538,0.30288,0.65307,195.75,2930,-0.52746,0.17586,-0.48122,-0.70325,5.8434e-05,-0.24061,0,0,0.066667,-5.4278e-17,0,0.66667
0.76313,0.32398,11.447,-0.26403,-32.944,237.93,8.0595,-2.6865,-1.7541,10.746,6.6436e-12,-0.87704,0,0,0.066667,-1.2632e-15,0,0.66667
0.38987,0.84046,5.848,0.51069,129.76,1348.1,-7.9641,2.6547,-1.082,-10.619,2.6921e-12,-0.54101,0,0,0.066667,-3.158e-16,0,0.66667
0.42267,0.73317,6.34,0.34975,86.021,1223.9,-5.9132,1.9711,-1.5732,-7.8842,8.6509e-12,-0.78659,0,0,0.066667,-6.3159e-16,0,0.66667
0.54968,0.94503,8.2453,0.66754,139.67,786.76,-14.678,4.8925,-0.41689,-19.57,1.8758e-12,-0.20845,0,0,0.066667,-0,-0,0.66667
0.38846,0.4312,5.8269,-0.1032,-26.23,1352.9,1.6036,-0.53455,-1.9656,2.1382,1.6902e-11,-0.98282,0,0,0.066667,-8.5783e-17,0,0.66667
0.81063,0.04767,12.159,-0.67849,-69.719,157.69,22,-7.3335,-0.36712,29.334,-3.0697e-09,-0.18356,0,0,0.066667,1.2632e-15,7.8745e-17,0.66667
0.4359,0.39591,6.5386,-0.15614,-37.853,1174.7,2.7224,-0.90747,-1.9184,3.6299,2.8428e-12,-0.95922,0,0,0.066667,-0,-0,0.66667
0.58016,0.32005,8.7023,-0.26993,-53.586,691.4,6.264,-2.088,-1.7447,8.352,1.0941e-11,-0.87237,0,0,0.066667,1.2632e-15,0,0.66667
0.97117,0.91384,14.568,0.62076,10.468,6.8111,-24.115,8.0381,-0.63243,-32.153,-6.7128e-05,-0.31621,0,0,0.066667,2.5264e-15,0,0.66667
0.9921,0.033589,14.881,-0.69962,-3.2502,3.6853,27.763,-9.2546,-0.25444,37.018,-0.00018153,-0.12722,0,0,0.066667,-0,-0,0.66667
0.20287,0.55308,3.0431,0.079624,22.858,2116.5,-0.64614,0.21538,-1.9882,-0.86153,-2.6904e-11,-0.9941,0,0,0.066667,3.158e-16,0,0.66667
0.44452,0.55972,6.6678,0.089585,21.513,1143.2,-1.5929,0.53096,-1.9661,-2.1239,1.4744e-12,-0.98307,0,0,0.066667,1.579e-16,0,0.66667
0.47475,0.43021,7.1212,-0.10468,-24.266,1035.3,1.9878,-0.66261,-1.9558,2.6504,5.8764e-12,-0.97792,0,0,0.066667,-0,-0,0.66667
0.29764,0.31278,4.4646,-0.28082,-76.643,1715.3,3.3434,-1.1145,-1.7295,4.4578,1.2876e-11,-0.86474,0,0,0.066667,1.2632e-15,0,0.66667
0.2835,0.33054,4.2526,-0.25418,-69.995,1773.8,2.8825,-0.96083,-1.7729,3.8433,1.0115e-11,-0.88646,0,0,0.066667,-0,-0,0.66667
0.83962,0.2301,12.594,-0.40485,-35.666,113.88,13.597,-4.5322,-1.4148,18.129,1.2505e-11,-0.70739,0,0,0.066667,-0,-0,0.66667
0.96209,0.37044,14.431,-0.19434,-4.2304,7.4319,7.4789,-2.493,-1.8603,9.9718,-3.9973e-07,-0.93015,0,0,0.066667,-0,-0,0.66667
0.21069,0.41499,3.1603,-0.12752,-36.484,2082.7,1.0746,-0.35822,-1.9359,1.4329,-3.6181e-11,-0.96793,0,0,0.066667,-0,-0,0.66667
0.89173,0.15768,13.376,-0.51348,-31.391,54.711,18.315,-6.1051,-1.0708,24.421,1.2774e-07,-0.53538,0,0,0.066667,2.5264e-15,0,0.66667
0.39198,0.69947,5.8796,0.2992,75.822,1339.6,-4.6912,1.5637,-1.6877,-6.2549,-1.8261e-12,-0.84383,0,0,0.066667,6.3159e-16,0,0.66667
0.65143,0.76837,9.7714,0.40255,69.35,491.35,-10.489,3.4964,-1.4199,-13.986,1.1724e-12,-0.70995,0,0,0.066667,-0,-0,0.66667
0.28386,0.45812,4.2579,-0.062823,-17.292,1772.2,0.71332,-0.23777,-1.9876,0.9511,2.6479e-11,-0.99379,0,0,0.066667,3.158e-16,0,0.66667
0.94108,0.78644,14.116,0.42966,14.573,17.724,-16.174,5.3913,-1.3431,-21.565,-5.2712e-07,-0.67154,0,0,0.066667,-0,-0,0.66667
0.78682,0.96331,11.802,0.69497,79.36,197.04,-21.872,7.2908,-0.27831,-29.163,-8.7251e-10,-0.13915,0,0,0.066667,6.3159e-16,0,0.66667
0.19277,0.17672,2.8916,-0.48492,-139.9,2160.7,3.7392,-1.2464,-1.1594,4.9855,3.6711e-10,-0.57968,0,0,0.066667,-0,-0,0.66667
0.61504,0.38579,9.2256,-0.17132,-31.86,589.6,4.2147,-1.4049,-1.8905,5.6197,-4.8406e-14,-0.94526,0,0,0.066667,-0,-0,0.66667
0.9688,0.42481,14.532,-0.11279,-2.0144,5.0811,4.3709,-1.457,-1.9663,5.8278,9.3616e-07,-0.98313,0,0,0.066667,-0,-0,0.66667
0.28459,0.53069,4.2688,0.046028,12.663,1769.1,-0.52395,0.17465,-1.9934,-0.6986,3.4863e-11,-0.9967,0,0,0.066667,1.9737e-16,0,0.66667
0.36153,0.84654,5.423,0.51981,135.4,1458.2,-7.5171,2.5057,-1.0434,-10.023,6.5237e-13,-0.52168,0,0,0.066667,1.2632e-15,0,0.66667
0.20361,0.49983,3.0542,-0.00025463,-0.073072,2113.3,0.0020738,-0.00069127,-2.0111,0.0027651,1.3192e-10,-1.0055,0,0,0.066667,-1.0856e-16,0,0.66667
0.63877,0.44604,9.5815,-0.080933,-14.326,524.2,2.0679,-0.6893,-1.981,2.7572,1.1229e-11,-0.99051,0,0,0.066667,-0,-0,0.66667
0.89282,0.80222,13.392,0.45332,27.422,53.348,-16.189,5.3965,-1.2723,-21.586,-1.6617e-08,-0.63616,0,0,0.066667,-1.2632e-15,0,0.66667
0.3417,0.99116,5.1254,0.73675,195.2,1537.4,-10.07,3.3566,-0.073667,-13.426,-1.1481e-11,-0.036834,0,0,0.066667,7.2045e-16,6.4047e-17,0.66667
0.1244,0.22631,1.866,-0.41054,-121.09,2461.8,2.0428,-0.68094,-1.4101,2.7238,-1.2694e-08,-0.70506,0,0,0.066667,-0,-0,0.66667
0.34768,0.83832,5.2152,0.50749,133.68,1513,-7.0577,2.3526,-1.0829,-9.4102,2.0508e-12,-0.54144,0,0,0.066667,7.8949e-16,0,0.66667
0.62672,0.4387,9.4008,-0.091952,-16.698,556.96,2.3051,-0.76838,-1.9758,3.0735,-3.6098e-12,-0.98792,0,0,0.066667,2.5264e-15,0,0.66667
0.73484,0.11031,11.023,-0.58453,-80.534,295.74,17.181,-5.7272,-0.79468,22.909,-8.3153e-11,-0.39734,0,0,0.066667,-0,-0,0.66667
0.60653,0.35974,9.098,-0.21039,-39.784,613.85,5.1042,-1.7014,-1.8434,6.8056,-7.5717e-12,-0.92168,0,0,0.066667,1.2632e-15,0,0.66667
0.076207,0.20659,1.1431,-0.44012,-131.1,2677.5,1.3416,-0.4472,-1.3151,1.7888,1.6737e-07,-0.65755,0,0,0.066667,-7.8949e-17,0,0.66667
0.93982,0.37668,14.097,-0.18498,-6.3769,17.463,6.954,-2.318,-1.8821,9.2721,-2.5999e-07,-0.94103,0,0,0.066667,-0,-0,0.66667
0.18939,0.16917,2.8409,-0.49625,-143.37,2175.5,3.7594,-1.2531,-1.1283,5.0126,-8.0197e-10,-0.56415,0,0,0.066667,-3.158e-16,0,0.66667
0.57409,0.40738,8.6113,-0.13893,-27.864,709.54,3.1902,-1.0634,-1.9304,4.2536,-2.9989e-12,-0.96522,0,0,0.066667,-0,-0,0.66667
0.90683,0.96701,13.603,0.70051,37.282,42.792,-25.41,8.4699,-0.2656,-33.88,-4.3126e-06,-0.1328,0,0,0.066667,-1.579e-16,0,0.66667
0.97339,0.91148,14.601,0.61722,9.6085,6.1965,-24.032,8.0105,-0.6426,-32.042,-8.0336e-05,-0.3213,0,0,0.066667,2.5264e-15,0,0.66667
0.85777,0.33699,12.867,-0.24451,-19.255,90.079,8.3894,-2.7965,-1.7929,11.186,-2.9271e-11,-0.89643,0,0,0.066667,-0,-0,0.66667
0.12909,0.67561,1.9364,0.26341,77.571,2440.9,-1.3601,0.45338,-1.7509,-1.8135,-1.4018e-09,-0.87544,0,0,0.066667,1.579e-16,0,0.66667
0.90702,0.55242,13.605,0.078634,4.1376,39.712,-2.8529,0.95097,-1.9864,-3.8039,1.0563e-08,-0.99322,0,0,0.066667,-0,-0,0.66667
0.32751,0.93172,4.9127,0.64759,173.34,1594.1,-8.4837,2.8279,-0.51847,-11.312,-4.6718e-13,-0.25924,0,0,0.066667,7.8949e-16,4.7578e-17,0.66667
0.58239,0.57344,8.7358,0.11016,21.776,684.48,-2.5662,0.8554,-1.9541,-3.4216,-3.1157e-12,-0.97706,0,0,0.066667,-0,-0,0.66667
0.14046,0.33923,2.1069,-0.24115,-70.792,2390.4,1.3549,-0.45163,-1.805,1.8065,3.0957e-10,-0.90248,0,0,0.066667,-0,-0,0.66667
0.51272,0.75428,7.6909,0.38142,84.181,905.77,-7.8226,2.6075,-1.4842,-10.43,5.4081e-12,-0.74209,0,0,0.066667,-0,-0,0.66667
0.46733,0.73781,7.0099,0.35671,83.48,1061.8,-6.668,2.2227,-1.5533,-8.8907,1.4354e-11,-0.77663,0,0,0.066667,-0,-0,0.66667
0.005313,0.8455,0.079695,0.51825,155.31,2997.2,-0.11012,0.036698,-1.0416,-0.14684,-1.5044e-05,-0.52082,0,0,0.066667,-0,-1.7408e-16,0.66667
0.28621,0.26495,4.2931,-0.35258,-96.949,1762.6,4.0364,-1.3455,-1.5538,5.3819,1.5783e-12,-0.77689,0,0,0.066667,6.3159e-16,0,0.66667
0.14345,0.76977,2.1517,0.40465,118.73,2377.3,-2.3219,0.77395,-1.4187,-3.0958,-6.1653e-10,-0.70936,0,0,0.066667,1.579e-16,0,0.66667
0.35352,0.5611,5.3029,0.091657,24.008,1489.2,-1.2961,0.43204,-1.966,-1.7282,1.3953e-12,-0.98301,0,0,0.066667,1.1842e-16,0,0.66667
0.27167,0.78087,4.0751,0.42131,116.9,1823.4,-4.5783,1.5261,-1.3648,-6.1044,4.076e-11,-0.68239,0,0,0.066667,-7.6975e-16,0,0.66667
0.47113,0.40292,7.0669,-0.14562,-33.908,1048.1,2.7442,-0.91475,-1.9279,3.659,6.1442e-12,-0.96393,0,0,0.066667,-0,-0,0.66667
0.77155,0.78178,11.573,0.42266,51.148,222.74,-13.044,4.3481,-1.3608,-17.392,-8.245e-11,-0.6804,0,0,0.066667,-0,-0,0.66667
0.020636,0.78947,0.30955,0.43421,130.04,2928,-0.35842,0.11948,-1.3257,-0.47789,1.2811e-05,-0.66284,0,0,0.066667,-0,-0,0.66667
0.22758,0.69633,3.4137,0.29449,83.625,2010.1,-2.6808,0.8936,-1.6856,-3.5744,-7.967e-13,-0.84281,0,0,0.066667,-0,-0,0.66667
0.98353,0.72375,14.753,0.33562,3.1325,2.3025,-13.204,4.4012,-1.6082,-17.605,-2.4506e-06,-0.80409,0,0,0.066667,-2.5264e-15,0,0.66667
0.059609,0.94837,0.89414,0.67256,200.97,2752.2,-1.6036,0.53456,-0.39245,-2.1382,2.2885e-05,-0.19622,0,0,0.066667,-1.579e-16,0,0.66667
0.59551,0.4806,8.9326,-0.029103,-5.6178,645.59,0.69325,-0.23108,-2.0014,0.92433,1.2475e-11,-1.0007,0,0,0.066667,-1.2632e-15,0,0.66667
0.99828,0.55498,14.974,0.082467,0.037411,0.095266,-3.293,1.0977,-1.9807,-4.3907,1.9257e-06,-0.99037,0,0,0.066667,-6.3159e-16,0,0.66667
0.60079,0.1093,9.0118,-0.58606,-112.22,631.59,14.084,-4.6946,-0.77231,18.778,7.2591e-12,-0.38615,0,0,0.066667,-0,-0,0.66667
0.052634,0.76507,0.7895,0.3976,118.78,2783.6,-0.83708,0.27903,-1.4325,-1.1161,-2.7478e-07,-0.71625,0,0,0.066667,-0,-0,0.66667
0.12467,0.73391,1.8701,0.35087,103.46,2460.6,-1.7498,0.58325,-1.5724,-2.333,1.0082e-08,-0.78622,0,0,0.066667,-0,-0,0.66667
0.89515,0.24952,13.427,-0.37573,-22.234,50.815,13.453,-4.4844,-1.4962,17.938,-5.9102e-08,-0.74812,0,0,0.066667,-3.158e-16,0,0.66667
0.86842,0.58992,13.026,0.13488,9.8722,77.397,-4.6854,1.5618,-1.9301,-6.2472,5.0924e-10,-0.96503,0,0,0.066667,1.2632e-15,0,0.66667
0.54878,0.017173,8.2317,-0.72424,-151.81,789.9,15.898,-5.2993,-0.13884,21.197,-5.1106e-12,-0.069421,0,0,0.066667,1.2632e-15,0,0.66667
0.26258,0.71088,3.9387,0.31632,88.202,1861.4,-3.3224,1.1075,-1.6448,-4.4299,2.2204e-11,-0.8224,0,0,0.066667,-0,-0,0.66667
0.51035,0.25884,7.6552,-0.36175,-80.096,913.67,7.3846,-2.4615,-1.5303,9.8462,1.4488e-11,-0.76515,0,0,0.066667,-1.2632e-15,0,0.66667
0.25377,0.88673,3.8066,0.58009,162.68,1899,-5.8885,1.9628,-0.80187,-7.8513,4.2455e-12,-0.40094,0,0,0.066667,-0,-0,0.66667
0.69013,0.83257,10.352,0.49885,78.214,395.17,-13.771,4.5903,-1.1167,-18.361,1.9202e-12,-0.55836,0,0,0.066667,-0,-0,0.66667
0.60412,0.32563,9.0619,-0.26155,-49.694,620.86,6.3203,-2.1068,-1.7521,8.4271,2.7134e-13,-0.87606,0,0,0.066667,1.2632e-15,0,0.66667
0.78798,0.0058695,11.82,-0.7412,-84.283,195.38,23.362,-7.7873,-0.041024,31.149,5.0113e-10,-0.020512,0,0,0.066667,-0,-0,0.66667
0.48764,0.90576,7.3146,0.60864,139.05,991.65,-11.872,3.9573,-0.68399,-15.829,7.3541e-13,-0.342,0,0,0.066667,-7.1054e-16,0,0.66667
0.038361,0.48819,0.57541,-0.01771,-5.2948,2847.9,0.027174,-0.0090577,-1.9925,0.036233,5.6876e-07,-0.99623,0,0,0.066667,-5.9534e-18,0,0.66667
0.79002,0.70615,11.85,0.30923,34.718,189.49,-9.7718,3.2573,-1.6537,-13.029,3.3622e-11,-0.82684,0,0,0.066667,1.2632e-15,0,0.66667
0.20938,0.27453,3.1406,-0.33821,-96.857,2088.5,2.8325,-0.94416,-1.5879,3.7767,4.5288e-11,-0.79396,0,0,0.066667,-1.579e-16,0,0.66667
0.22664,0.40856,3.3996,-0.13716,-38.958,2014,1.2434,-0.41448,-1.9277,1.6579,5.8821e-12,-0.96384,0,0,0.066667,-0,-0,0.66667
0.54164,0.76662,8.1246,0.39992,84.612,811.3,-8.6645,2.8882,-1.4267,-11.553,1.1981e-11,-0.71333,0,0,0.066667,-0,-0,0.66667
0.82259,0.0084223,12.339,-0.73737,-71.511,140,24.262,-8.0874,-0.062063,32.35,1.8102e-09,-0.031032,0,0,0.066667,-0,-0,0.66667
0.94909,0.71515,14.236,0.32272,9.4527,13.204,-12.252,4.0839,-1.6283,-16.336,6.0732e-07,-0.81416,0,0,0.066667,-0,-0,0.66667
0.24077,0.50711,3.6116,0.010662,3.0069,1953.6,-0.10269,0.034228,-1.994,-0.13691,1.1647e-11,-0.99702,0,0,0.066667,-0,-0,0.66667
0.8962,0.13221,13.443,-0.55168,-32.429,50.834,19.777,-6.5922,-0.91318,26.369,2.745e-07,-0.45659,0,0,0.066667,-0,-0,0.66667
0.91103,0.70208,13.665,0.30312,15.313,37.011,-11.046,3.682,-1.6694,-14.728,-2.0712e-08,-0.8347,0,0,0.066667,1.2632e-15,0,0.66667
0.74442,0.56573,11.166,0.0986,13.131,274.38,-2.936,0.97866,-1.9613,-3.9146,-5.0249e-13,-0.98067,0,0,0.066667,-0,-0,0.66667
0.37426,0.45901,5.6139,-0.061478,-15.824,1407.8,0.92036,-0.30679,-1.9951,1.2271,1.304e-11,-0.99757,0,0,0.066667,-0,-0,0.66667
0.54785,0.78507,8.2178,0.42761,89.611,791.58,-9.3707,3.1236,-1.3582,-12.494,-5.7652e-12,-0.67909,0,0,0.066667,1.2632e-15,0,0.66667
0.13763,0.7112,2.0645,0.31681,93.089,2403,-1.7441,0.58137,-1.6439,-2.3255,-5.6199e-09,-0.82195,0,0,0.066667,-2.3685e-16,0,0.66667
0.57527,0.60766,8.6291,0.16149,32.323,705.97,-3.7159,1.2386,-1.908,-4.9546,4.2466e-12,-0.954,0,0,0.066667,-0,-0,0.66667
0.57561,0.7919,8.6342,0.43786,87.666,705.57,-10.081,3.3605,-1.3203,-13.442,3.8769e-12,-0.66013,0,0,0.066667,-0,-0,0.66667
0.58347,0.96086,8.7521,0.69129,136.72,683.04,-16.134,5.378,-0.29644,-21.512,2.0766e-12,-0.14822,0,0,0.066667,-0,-0,0.66667
0.92023,0.62228,13.803,0.18341,8.3277,29.774,-6.7513,2.2504,-1.8863,-9.0017,1.1024e-07,-0.94315,0,0,0.066667,-3.158e-16,0,0.66667
0.5331,0.60474,7.9965,0.15711,33.65,838.31,-3.3502,1.1167,-1.9164,-4.4669,8.7448e-12,-0.95819,0,0,0.066667,-0,-0,0.66667
0.24089,0.49877,3.6134,-0.0018469,-0.52085,1953.1,0.017797,-0.0059322,-1.9953,0.023729,1.0928e-11,-0.99763,0,0,0.066667,6.2778e-16,0,0.66667
0.54523,0.50459,8.1785,0.0068881,1.4481,799.24,-0.15022,0.050075,-2.0054,-0.2003,-4.4617e-12,-1.0027,0,0,0.066667,-0,-0,0.66667
0.12737,0.98434,1.9106,0.72651,214.39,2448.9,-3.7015,1.2338,-0.12552,-4.9354,1.1563e-07,-0.062759,0,0,0.066667,1.579e-16,0,0.66667
0.074781,0.44489,1.1217,-0.082665,-24.613,2683.8,0.24727,-0.082423,-1.9755,0.32969,1.0941e-07,-0.98775,0,0,0.066667,-0,-0,0.66667
0.83061,0.94063,12.459,0.66094,61.398,127.84,-21.959,7.3198,-0.44973,-29.279,-4.5518e-08,-0.22486,0,0,0.066667,-2.5264e-15,0,0.66667
0.72316,0.23692,10.847,-0.39463,-56.31,319.7,11.415,-3.805,-1.4431,15.22,-5.012e-12,-0.72157,0,0,0.066667,-0,-0,0.66667
0.083912,0.90251,1.2587,0.60377,179.73,2643,-2.0265,0.67551,-0.69942,-2.702,8.2625e-08,-0.34971,0,0,0.066667,-7.8949e-17,0,0.66667
0.55758,0.55523,8.3637,0.082841,17.078,760.33,-1.8476,0.61587,-1.9719,-2.4635,-4.2125e-12,-0.98596,0,0,0.066667,6.4595e-16,0,0.66667
0.52511,0.32076,7.8766,-0.26886,-58.282,864.55,5.6473,-1.8824,-1.7375,7.5297,-2.6281e-12,-0.86876,0,0,0.066667,-0,-0,0.66667
0.50731,0.95254,7.6097,0.67881,151.16,924.97,-13.775,4.5916,-0.35508,-18.366,1.6548e-11,-0.17754,0,0,0.066667,-0,-0,0.66667
0.032405,0.61453,0.48607,0.1718,51.391,2874.8,-0.22268,0.074229,-1.9019,-0.29691,9.4437e-07,-0.95094,0,0,0.066667,-3.9475e-17,0,0.66667
0.96037,0.12888,14.406,-0.55668,-12.828,9.7999,21.385,-7.1282,-0.89257,28.513,-2.03e-05,-0.44629,0,0,0.066667,2.5264e-15,0,0.66667
0.92765,0.54602,13.915,0.069027,2.8481,24.554,-2.5613,0.85377,-1.9776,-3.4151,7.2658e-08,-0.98882,0,0,0.066667,-0,-0,0.66667
0.96441,0.47711,14.466,-0.03433,-0.69996,6.3948,1.3243,-0.44144,-1.9931,1.7658,3.2503e-08,-0.99657,0,0,0.066667,-0,-0,0.66667
0.53338,0.30599,8.0007,-0.29102,-62.322,837.61,6.2089,-2.0696,-1.7025,8.2785,1.4248e-11,-0.85123,0,0,0.066667,-3.158e-16,0,0.66667
0.12664,0.59951,1.8996,0.14926,43.976,2451.7,-0.75609,0.25203,-1.9262,-1.0081,-8.9869e-10,-0.96311,0,0,0.066667,-3.158e-16,0,0.66667
0.73229,0.44414,10.984,-0.083789,-11.609,299.45,2.4543,-0.8181,-1.9788,3.2724,5.7474e-12,-0.98938,0,0,0.066667,-2.5264e-15,0,0.66667
0.94973,0.71303,14.246,0.31954,9.2426,12.895,-12.139,4.0464,-1.6368,-16.186,6.9699e-07,-0.81841,0,0,0.066667,-1.8948e-15,0,0.66667
0.25927,0.054636,3.889,-0.66805,-186.86,1876,6.9281,-2.3094,-0.40759,9.2374,-1.9197e-10,-0.2038,0,0,0.066667,1.579e-16,0,0.66667
0.28377,0.82477,4.2565,0.48716,134.22,1773,-5.5296,1.8432,-1.158,-7.3729,9.8948e-12,-0.57899,0,0,0.066667,-0,-0,0.66667
0.44706,0.55404,6.7058,0.081064,19.412,1134,-1.4496,0.4832,-1.9712,-1.9328,-4.17e-12,-0.98562,0,0,0.066667,-0,-0,0.66667
0.15862,0.62229,2.3793,0.18343,53.544,2310.1,-1.1638,0.38794,-1.8838,-1.5518,1.1332e-11,-0.94188,0,0,0.066667,3.5527e-16,0,0.66667
0.56858,0.50253,8.5287,0.0037911,0.76743,726.27,-0.086222,0.028741,-1.9954,-0.11496,-9.3724e-12,-0.99769,0,0,0.066667,2.5264e-15,0,0.66667
0.44953,0.50934,6.743,0.014017,3.3472,1125.1,-0.25205,0.084016,-1.9982,-0.33606,-1.2204e-13,-0.99912,0,0,0.066667,-0,-0,0.66667
0.88742,0.349,13.311,-0.2265,-14.318,57.586,8.0399,-2.68,-1.8181,10.72,-6.3912e-09,-0.90903,0,0,0.066667,-0,-0,0.66667
0.21483,0.29622,3.2225,-0.30566,-87.318,2064.9,2.6266,-0.87555,-1.6657,3.5022,6.3809e-11,-0.83284,0,0,0.066667,-0,-0,0.66667
0.16795,0.5515,2.5192,0.077251,22.477,2269,-0.51897,0.17299,-1.9768,-0.69196,2.4149e-11,-0.9884,0,0,0.066667,-1.579e-16,0,0.66667
0.49563,0.8242,7.4345,0.4863,109.89,963.78,-9.6411,3.2137,-1.1561,-12.855,-2.4452e-12,-0.57807,0,0,0.066667,-0,-0,0.66667
0.51663,0.25116,7.7494,-0.37326,-81.927,892.77,7.7134,-2.5711,-1.5133,10.285,-7.1454e-13,-0.75667,0,0,0.066667,1.2632e-15,0,0.66667
0.4062,0.61194,6.0929,0.16791,41.968,1285.3,-2.7281,0.90938,-1.9112,-3.6375,5.4732e-12,-0.95559,0,0,0.066667,-0,-0,0.66667
0.2368,0.32077,3.5519,-0.26885,-75.994,1970.7,2.5465,-0.84882,-1.7454,3.3953,1.3967e-11,-0.87272,0,0,0.066667,-0,-0,0.66667
0.53636,0.87708,8.0455,0.56562,120.73,828.81,-12.135,4.045,-0.85929,-16.18,7.1037e-12,-0.42964,0,0,0.066667,-0,-0,0.66667
0.96214,0.73626,14.432,0.35439,7.7371,7.9786,-13.639,4.5463,-1.5472,-18.185,2.3723e-06,-0.77362,0,0,0.066667,-0,-0,0.66667
0.25644,0.95506,3.8465,0.68259,191.24,1887.9,-7.0017,2.3339,-0.33727,-9.3355,7.02e-11,-0.16863,0,0,0.066667,-0,-0,0.66667
0.28319,0.24158,4.2478,-0.38763,-106.8,1775.2,4.3909,-1.4636,-1.4698,5.8546,7.7023e-12,-0.73489,0,0,0.066667,-3.158e-16,0,0.66667
0.031465,0.052704,0.47197,-0.67094,-201.01,2879.1,0.84446,-0.28152,-0.41038,1.1259,-4.0827e-05,-0.20519,0,0,0.066667,-0,-0,0.66667
0.87611,0.46468,13.142,-0.052978,-3.6635,68.87,1.8566,-0.61886,-1.9978,2.4754,-4.5611e-09,-0.99889,0,0,0.066667,-3.158e-16,0,0.66667
0.27438,0.46598,4.1158,-0.051032,-14.127,1811.7,0.5601,-0.1867,-1.9855,0.7468,6.5272e-11,-0.99275,0,0,0.066667,-3.9475e-16,0,0.66667
0.059762,0.85756,0.89644,0.53633,160.17,2751.5,-1.2821,0.42737,-0.9783,-1.7095,3.5407e-06,-0.48915,0,0,0.066667,-0,-0,0.66667
0.75205,0.16012,11.281,-0.50983,-66.283,260.36,15.337,-5.1122,-1.0801,20.449,5.2389e-11,-0.54004,0,0,0.066667,-0,-0,0.66667
0.92919,0.20933,13.938,-0.436,-17.7,24.713,16.205,-5.4017,-1.3178,21.607,-4.0584e-07,-0.65888,0,0,0.066667,-0,-0,0.66667
0.42393,0.7859,6.359,0.42884,105.36,1219.4,-7.272,2.424,-1.3502,-9.696,6.724e-12,-0.67511,0,0,0.066667,-1.2632e-15,0,0.66667
0.32511,0.2952,4.8766,-0.30719,-82.268,1603.1,3.9948,-1.3316,-1.6647,5.3264,3.0257e-11,-0.83236,0,0,0.066667,-6.3159e-16,0,0.66667
0.68882,0.61071,10.332,0.16606,26.089,397.28,-4.5755,1.5252,-1.9079,-6.1007,5.7954e-12,-0.95396,0,0,0.066667,-0,-0,0.66667
0.20706,0.41949,3.1059,-0.12076,-34.607,2098.4,1.0002,-0.33341,-1.946,1.3336,-1.6247e-11,-0.97301,0,0,0.066667,3.158e-16,0,0.66667
0.55152,0.052301,8.2728,-0.67155,-140.11,780.99,14.815,-4.9383,-0.39307,19.753,5.2971e-12,-0.19654,0,0,0.066667,-0,-0,0.66667
0.49453,0.83767,7.418,0.50651,114.63,967.6,-10.019,3.3398,-1.0834,-13.359,2.1112e-12,-0.54171,0,0,0.066667,-3.158e-16,0,0.66667
0.58736,0.97762,8.8104,0.71643,140.74,671.61,-16.832,5.6107,-0.16928,-22.443,-2.1814e-12,-0.084641,0,0,0.066667,-0,-0,0.66667
0.83524,0.090806,12.529,-0.61379,-55.56,121.05,20.507,-6.8355,-0.65508,27.342,1.8186e-08,-0.32754,0,0,0.066667,-1.2632e-15,0,0.66667
0.68413,0.90375,10.262,0.60562,96.528,410.1,-16.573,5.5243,-0.69635,-22.097,3.606e-12,-0.34817,0,0,0.066667,-4.737e-16,0,0.66667
0.88239,0.43633,13.236,-0.095512,-6.2889,62.36,3.3712,-1.1237,-1.9624,4.4949,2.7237e-09,-0.9812,0,0,0.066667,1.5e-15,0,0.66667
0.27936,0.75831,4.1903,0.38746,107,1791.2,-4.3296,1.4432,-1.4704,-5.7728,1.5354e-11,-0.73521,0,0,0.066667,-0,-0,0.66667
0.24996,0.66143,3.7493,0.24215,67.979,1914.7,-2.421,0.80701,-1.8037,-3.228,2.2079e-11,-0.90186,0,0,0.066667,-6.3159e-16,0,0.66667
0.18811,0.33757,2.8217,-0.24365,-70.381,2180.8,1.8333,-0.61111,-1.7984,2.4444,7.1243e-11,-0.89922,0,0,0.066667,1.579e-16,0,0.66667
0.008355,0.78295,0.12533,0.42443,127.15,2983.5,-0.14184,0.04727,-1.3543,-0.18912,-1.4294e-05,-0.67713,0,0,0.066667,-0,-0,0.66667
0.65746,0.6255,9.8618,0.18826,31.962,475.16,-4.9508,1.6503,-1.882,-6.6011,1.2772e-12,-0.94101,0,0,0.066667,-0,-0,0.66667
0.37182,0.28747,5.5773,-0.3188,-82.266,1417.5,4.7414,-1.5805,-1.639,6.3219,3.9613e-13,-0.81951,0,0,0.066667,-0,-0,0.66667
0.16613,0.63802,2.4919,0.20704,60.285,2277.1,-1.3758,0.45859,-1.8422,-1.8344,2.0621e-10,-0.92112,0,0,0.066667,3.158e-16,0,0.66667
0.25918,0.63243,3.8877,0.19865,55.483,1875.6,-2.0594,0.68646,-1.8541,-2.7459,2.5328e-11,-0.92703,0,0,0.066667,-0,-0,0.66667
0.1825,0.91907,2.7375,0.62861,182.19,2205.7,-4.5889,1.5296,-0.59078,-6.1186,-1.3668e-08,-0.29539,0,0,0.066667,-0,-0,0.66667
0.17807,0.60414,2.6711,0.15621,45.289,2224.6,-1.1127,0.37088,-1.9075,-1.4835,1.6206e-11,-0.95377,0,0,0.066667,-0,-0,0.66667
0.22777,0.66862,3.4165,0.25292,71.81,2009.3,-2.3043,0.76811,-1.7664,-3.0724,-7.3057e-12,-0.88319,0,0,0.066667,-0,-0,0.66667
0.096411,0.63322,1.4462,0.19983,59.284,2586.7,-0.77064,0.25688,-1.8597,-1.0275,-3.1635e-08,-0.92984,0,0,0.066667,-0,-0,0.66667
0.54411,0.1649,8.1616,-0.50265,-105.99,803.75,10.94,-3.6466,-1.103,14.586,6.4944e-12,-0.55148,0,0,0.066667,-0,-0,0.66667
0.8362,0.28579,12.543,-0.32132,-28.84,118.21,10.747,-3.5824,-1.6271,14.33,1.7442e-10,-0.81356,0,0,0.066667,-0,-0,0.66667
0.34664,0.87965,5.1996,0.56948,150.17,1517.2,-7.8962,2.6321,-0.84834,-10.528,5.2109e-12,-0.42417,0,0,0.066667,-0,-0,0.66667
0.9126,0.72889,13.689,0.34334,17.06,35.947,-12.533,4.1777,-1.575,-16.711,-2.2706e-08,-0.78752,0,0,0.066667,-0,-0,0.66667
0.68392,0.50132,10.259,0.0019736,0.31398,408.93,-0.053991,0.017997,-2.0001,-0.071988,7.8948e-12,-1.0001,0,0,0.066667,-0,-0,0.66667
0.82604,0.59318,12.391,0.13978,13.242,132.09,-4.6184,1.5395,-1.9353,-6.1579,-1.5656e-10,-0.96764,0,0,0.066667,-1.8158e-15,0,0.66667
0.92485,0.033422,13.873,-0.69987,-30.317,29.391,25.891,-8.6303,-0.26003,34.521,-1.3972e-05,-0.13002,0,0,0.066667,2.5264e-15,0,0.66667
0.71895,0.17543,10.784,-0.48685,-70.398,329.27,14.001,-4.667,-1.1681,18.668,-1.3465e-11,-0.58403,0,0,0.066667,1.2632e-15,0,0.66667
0.77043,0.47319,11.556,-0.040215,-4.8801,223.9,1.2393,-0.4131,-1.9912,1.6524,1.8038e-11,-0.99558,0,0,0.066667,-1.8247e-15,0,0.66667
0.074018,0.61092,1.1103,0.16638,49.549,2687.2,-0.49261,0.1642,-1.899,-0.65682,-2.1321e-07,-0.94952,0,0,0.066667,1.579e-16,0,0.66667
0.18869,0.72992,2.8303,0.34488,99.622,2178.4,-2.603,0.86766,-1.5837,-3.4706,-8.7608e-11,-0.79187,0,0,0.066667,-3.158e-16,0,0.66667
0.31405,0.81501,4.7108,0.47252,127.61,1648.3,-5.9358,1.9786,-1.2124,-7.9144,1.0525e-13,-0.60621,0,0,0.066667,1.2632e-15,0,0.66667
0.33439,0.44806,5.0159,-0.077912,-20.715,1565.5,1.0421,-0.34737,-1.9726,1.3895,9.4921e-12,-0.98632,0,0,0.066667,-0,-0,0.66667
0.4653,0.025686,6.9796,-0.71147,-167.19,1070.2,13.242,-4.414,-0.19996,17.656,1.1044e-11,-0.099982,0,0,0.066667,-0,4.6219e-17,0.66667
0.095259,0.88944,1.4289,0.58416,173.52,2592.1,-2.2258,0.74195,-0.79196,-2.9678,-1.3045e-07,-0.39598,0,0,0.066667,-0,-0,0.66667
0.34423,0.71265,5.1634,0.31898,84.202,1526.3,-4.3921,1.464,-1.6483,-5.8561,2.7351e-12,-0.82417,0,0,0.066667,-6.3159e-16,0,0.66667
0.073158,0.40136,1.0974,-0.14797,-44.069,2691.1,0.43299,-0.14433,-1.9187,0.57733,1.9751e-07,-0.95936,0,0,0.066667,-7.8949e-17,0,0.66667
0.32341,0.54665,4.8512,0.06998,18.758,1609.8,-0.9053,0.30177,-1.9788,-1.2071,-2.8927e-12,-0.9894,0,0,0.066667,-0,-0,0.66667
0.6615,0.7247,9.9225,0.33706,56.713,465.13,-8.9185,2.9728,-1.592,-11.891,-6.6933e-12,-0.79601,0,0,0.066667,2.5264e-15,0,0.66667
0.0029211,0.10146,0.043817,-0.59781,-179.22,3008,0.069844,-0.023317,-0.73036,0.093107,-5.3405e-05,-0.36518,0,0,0.066667,-9.8686e-18,0,0.66667
0.28436,0.25204,4.2655,-0.37194,-102.4,1770.3,4.2307,-1.4102,-1.5094,5.6409,-4.2211e-12,-0.75468,0,0,0.066667,-0,-0,0.66667
0.072846,0.45065,1.0927,-0.074032,-22.049,2692.5,0.21572,-0.071906,-1.9758,0.28763,8.9332e-08,-0.9879,0,0,0.066667,-0,-0,0.66667
0.71076,0.6475,10.661,0.22125,32.726,346.55,-6.2902,2.0967,-1.8196,-8.387,-5.6448e-12,-0.90981,0,0,0.066667,6.3159e-16,0,0.66667
0.84127,0.39577,12.619,-0.15634,-13.621,110.89,5.2609,-1.7536,-1.9151,7.0145,5.1017e-12,-0.95757,0,0,0.066667,-0,-0,0.66667
0.97833,0.89073,14.675,0.5861,7.4045,4.7988,-22.936,7.6453,-0.77284,-30.581,-5.0538e-05,-0.38642,0,0,0.066667,-0,-0,0.66667
0.61717,0.25578,9.2575,-0.36634,-67.877,584.05,9.0436,-3.0145,-1.5168,12.058,3.8547e-13,-0.75842,0,0,0.066667,-0,-0,0.66667
0.2249,0.6899,3.3735,0.28486,80.992,2021.6,-2.5626,0.85419,-1.7069,-3.4168,-1.1066e-11,-0.85343,0,0,0.066667,-0,-0,0.66667
0.22831,0.26414,3.4247,-0.35379,-100.44,2007,3.2309,-1.077,-1.5492,4.3079,-5.7626e-11,-0.77461,0,0,0.066667,-3.158e-16,0,0.66667
0.49353,0.036673,7.4029,-0.69499,-157.66,971.79,13.72,-4.5733,-0.27722,18.293,-8.4848e-12,-0.13861,0,0,0.066667,-0,-0,0.66667
0.93135,0.709,13.97,0.31351,12.32,22.794,-11.679,3.8931,-1.6449,-15.572,4.5067e-07,-0.82247,0,0,0.066667,-0,-0,0.66667
0.62806,0.62162,9.4208,0.18244,33.042,553.4,-4.5832,1.5277,-1.8828,-6.1109,1.0009e-11,-0.94141,0,0,0.066667,-6.3159e-16,0,0.66667
0.1814,0.49029,2.721,-0.01456,-4.2157,2210,0.10565,-0.035216,-1.9937,0.14086,-2.9653e-10,-0.99685,0,0,0.066667,-3.158e-16,0,0.66667
0.51601,0.12173,7.7401,-0.5674,-124.76,895.44,11.711,-3.9038,-0.86625,15.615,1.2569e-11,-0.43313,0,0,0.066667,7.8949e-16,0,0.66667
0.40912,0.8039,6.1368,0.45585,113.7,1274.8,-7.46,2.4867,-1.2621,-9.9466,9.19e-12,-0.63107,0,0,0.066667,-6.3159e-16,0,0.66667
0.86907,0.3015,13.036,-0.29776,-21.714,77.073,10.351,-3.4503,-1.6793,13.801,-3.7482e-09,-0.83965,0,0,0.066667,1.2632e-15,0,0.66667
0.10442,0.9808,1.5662,0.7212,213.97,2551.2,-3.0122,1.0041,-0.14652,-4.0162,-1.2462e-06,-0.073259,0,0,0.066667,-1.579e-16,0,0.66667
0.21763,0.476,3.2644,-0.035993,-10.266,2052.8,0.31333,-0.10444,-2.0026,0.41777,3.7899e-11,-1.0013,0,0,0.066667,-0,-0,0.66667
0.75933,0.064672,11.39,-0.65299,-82.855,247.01,19.833,-6.6111,-0.4792,26.445,-4.3071e-10,-0.2396,0,0,0.066667,-0,-0,0.66667
0.97325,0.54082,14.599,0.061235,0.93431,3.7847,-2.3839,0.79462,-1.9836,-3.1785,-2.265e-07,-0.99178,0,0,0.066667,-0,-0,0.66667
0.80883,0.11109,12.132,-0.58336,-60.382,159.87,18.874,-6.2912,-0.7885,25.165,-4.1429e-10,-0.39425,0,0,0.066667,-9.5785e-16,0,0.66667
0.57043,0.53734,8.5565,0.056008,11.302,720.61,-1.2779,0.42598,-1.9828,-1.7039,7.5966e-12,-0.99141,0,0,0.066667,-0,-0,0.66667
0.80961,0.67375,12.144,0.26062,26.804,157.18,-8.4399,2.8133,-1.7591,-11.253,1.2766e-11,-0.87956,0,0,0.066667,-0,-0,0.66667
0.37864,0.82315,5.6796,0.48473,124.41,1391.3,-7.3415,2.4472,-1.1633,-9.7887,-4.8082e-12,-0.58165,0,0,0.066667,-0,-0,0.66667
0.23981,0.65583,3.5971,0.23375,65.969,1957.8,-2.2422,0.7474,-1.8024,-2.9896,2.5691e-11,-0.90119,0,0,0.066667,-3.9475e-16,0,0.66667
0.44234,0.028268,6.635,-0.7076,-170.7,1152.6,12.52,-4.1733,-0.21686,16.693,-1.7511e-11,-0.10843,0,0,0.066667,-3.158e-16,0,0.66667
0.29305,0.53837,4.3957,0.05755,15.749,1734.1,-0.6746,0.22487,-1.9868,-0.89946,3.5776e-11,-0.99341,0,0,0.066667,-0,-0,0.66667
0.64436,0.15151,9.6654,-0.52273,-91.551,510.42,13.473,-4.491,-1.0276,17.964,7.9874e-12,-0.5138,0,0,0.066667,-9.4739e-16,0,0.66667
0.91612,0.28807,13.742,-0.3179,-15.175,33.173,11.65,-3.8832,-1.6358,15.533,-1.4084e-08,-0.81791,0,0,0.066667,-0,-0,0.66667
0.6714,0.85817,10.071,0.53725,88.369,440.96,-14.428,4.8094,-0.98321,-19.238,4.3734e-12,-0.4916,0,0,0.066667,-1.2632e-15,0,0.66667
0.78373,0.73189,11.756,0.34784,40.096,200.53,-10.904,3.6348,-1.5717,-14.539,1.0636e-10,-0.78585,0,0,0.066667,1.2632e-15,0,0.66667
0.9199,0.35328,13.799,-0.22009,-10.036,30.099,8.0983,-2.6994,-1.8316,10.798,-1.1065e-07,-0.9158,0,0,0.066667,-0,-0,0.66667
0.73198,0.51299,10.98,0.019487,2.7024,300.08,-0.57056,0.19019,-2.0008,-0.76074,7.9628e-12,-1.0004,0,0,0.066667,-2.5264e-15,0,0.66667
0.45633,0.46793,6.845,-0.048108,-11.399,1100.6,0.87813,-0.29271,-1.993,1.1708,-7.9532e-12,-0.9965,0,0,0.066667,7.8949e-16,0,0.66667
0.7422,0.56875,11.133,0.10312,13.836,278.91,-3.0615,1.0205,-1.9561,-4.0821,7.1765e-13,-0.97806,0,0,0.066667,-0,-0,0.66667
0.99059,0.28398,14.859,-0.32403,-1.6673,1.2905,12.839,-4.2798,-1.6219,17.119,-4.6009e-06,-0.81096,0,0,0.066667,-0,-0,0.66667
0.67386,0.21786,10.108,-0.42322,-69.144,434.36,11.407,-3.8025,-1.3682,15.21,2.1947e-12,-0.6841,0,0,0.066667,1.4211e-15,0,0.66667
0.72714,0.38533,10.907,-0.17201,-24.224,310.51,5.003,-1.6677,-1.8884,6.6707,-9.8588e-13,-0.94421,0,0,0.066667,-0,-0,0.66667
0.13533,0.76684,2.03,0.40027,117.71,2413.2,-2.1668,0.72225,-1.4256,-2.889,-1.3447e-08,-0.7128,0,0,0.066667,-1.579e-16,0,0.66667
0.81734,0.63433,12.26,0.20149,19.956,145.09,-6.5876,2.1959,-1.8519,-8.7834,1.2053e-12,-0.92595,0,0,0.066667,-0,-0,0.66667
0.92918,0.5976,13.938,0.14641,5.9187,23.675,-5.4415,1.8138,-1.9182,-7.2553,2.2188e-07,-0.95908,0,0,0.066667,-0,-0,0.66667
0.082941,0.033855,1.2441,-0.69922,-208.27,2647.4,2.3197,-0.77325,-0.25888,3.093,-1.7514e-06,-0.12944,0,0,0.066667,-0,-0,0.66667
0.92221,0.87325,13.833,0.55988,24.97,30.102,-20.653,6.8843,-0.8969,-27.537,1.3901e-07,-0.44845,0,0,0.066667,3.158e-16,0,0.66667
0.76001,0.14426,11.4,-0.53361,-67.462,244.98,16.222,-5.4073,-0.98247,21.629,4.1334e-11,-0.49123,0,0,0.066667,-2.1632e-15,0,0.66667
0.25267,0.75756,3.7901,0.38634,108.34,1903.3,-3.9047,1.3016,-1.471,-5.2063,2.4691e-11,-0.7355,0,0,0.066667,-6.3159e-16,0,0.66667
0.03478,0.67228,0.52169,0.25841,77.298,2864.1,-0.3595,0.11983,-1.7614,-0.47934,1.9077e-07,-0.8807,0,0,0.066667,-0,-0,0.66667
0.59333,0.70625,8.9,0.30937,59.989,652.35,-7.3424,2.4475,-1.6695,-9.7899,6.8829e-12,-0.83474,0,0,0.066667,-1.3342e-15,0,0.66667
0.14,0.62224,2.0999,0.18336,53.829,2392.4,-1.0268,0.34226,-1.8904,-1.3691,-1.7118e-10,-0.94521,0,0,0.066667,1.9737e-16,0,0.66667
0.88064,0.77223,13.21,0.40835,27.332,65.076,-14.384,4.7948,-1.4022,-19.179,-2.3324e-08,-0.70108,0,0,0.066667,-0,-0,0.66667
0.64348,0.1922,9.6522,-0.4617,-80.99,512.49,11.884,-3.9612,-1.2436,15.845,1.0134e-12,-0.62181,0,0,0.066667,-0,-0,0.66667
0.041189,0.84822,0.61784,0.52233,156.28,2835.2,-0.86057,0.28685,-1.0255,-1.1474,-1.5346e-05,-0.51276,0,0,0.066667,1.579e-16,0,0.66667
0.19441,0.39428,2.9162,-0.15858,-45.687,2153.3,1.2332,-0.41106,-1.9043,1.6443,-1.1469e-11,-0.95213,0,0,0.066667,3.158e-16,0,0.66667
0.62451,0.53799,9.3677,0.056992,10.396,563.04,-1.4237,0.47456,-1.9984,-1.8983,8.4576e-12,-0.99921,0,0,0.066667,-0,-0,0.66667
0.52665,0.45775,7.8998,-0.063379,-13.703,859.25,1.3351,-0.44505,-1.9823,1.7802,1.2315e-12,-0.99115,0,0,0.066667,6.3159e-16,0,0.66667
0.29026,0.019888,4.3539,-0.72017,-197.82,1746.6,8.3613,-2.7871,-0.14982,11.148,-1.1441e-11,-0.074912,0,0,0.066667,-6.3159e-16,0,0.66667
0.39512,0.075653,5.9268,-0.63652,-161.04,1328.4,10.06,-3.3533,-0.55611,13.413,9.5213e-12,-0.27806,0,0,0.066667,6.3159e-16,0,0.66667
0.24657,0.21184,3.6985,-0.43224,-121.62,1929.2,4.263,-1.421,-1.3353,5.684,5.6364e-11,-0.66767,0,0,0.066667,-0,-0,0.66667
0.99839,0.95592,14.976,0.68388,0.59307,3.1591,-27.311,9.1036,-0.34191,-36.415,-0.00020885,-0.17096,0,0,0.066667,-1.2632e-15,0,0.66667
0.88329,0.29313,13.249,-0.3103,-20.31,61.953,10.963,-3.6545,-1.6511,14.618,1.2064e-08,-0.82557,0,0,0.066667,-0,-0,0.66667
0.74097,0.82559,11.115,0.48839,65.909,282.55,-14.475,4.8251,-1.1457,-19.3,-1.4214e-11,-0.57287,0,0,0.066667,-1.2632e-15,0,0.66667
0.24654,0.84546,3.6981,0.51818,145.85,1929.5,-5.1101,1.7034,-1.0456,-6.8134,8.2015e-11,-0.52282,0,0,0.066667,6.3159e-16,0,0.66667
0.088881,0.35991,1.3332,-0.21013,-62.428,2620.5,0.74707,-0.24902,-1.8389,0.99609,-1.1622e-10,-0.91947,0,0,0.066667,-1.579e-16,0,0.66667
0.096131,0.070874,1.442,-0.64369,-191.22,2588.2,2.4751,-0.82505,-0.52935,3.3002,-2.769e-07,-0.26468,0,0,0.066667,-0,-0,0.66667
0.88147,0.090076,13.222,-0.61489,-41.019,65.46,21.68,-7.2268,-0.65056,28.907,-2.0268e-07,-0.32528,0,0,0.066667,-3.158e-16,0,0.66667
0.22391,0.4644,3.3587,-0.053407,-15.188,2025.7,0.47834,-0.15945,-1.9862,0.63779,1.1916e-11,-0.99309,0,0,0.066667,-7.8949e-17,0,0.66667
0.055036,0.94558,0.82554,0.66836,199.82,2772.8,-1.4714,0.49047,-0.40546,-1.9618,2.1623e-05,-0.20273,0,0,0.066667,-0,-0,0.66667
0.60875,0.47549,9.1312,-0.036769,-6.9216,607.33,0.89532,-0.29844,-2.0046,1.1938,7.7872e-12,-1.0023,0,0,0.066667,-0,-0,0.66667
0.75404,0.80218,11.311,0.45328,58.498,256.17,-13.672,4.5572,-1.2673,-18.229,5.9178e-11,-0.63364,0,0,0.066667,-6.3159e-16,0,0.66667
0.90554,0.18437,13.583,-0.47345,-25.4,42.251,17.149,-5.7163,-1.2126,22.865,-1.4302e-07,-0.60628,0,0,0.066667,-1.579e-15,-7.9232e-19,0.66667
0.48403,0.70618,7.2604,0.30927,70.893,1003.2,-5.9877,1.9959,-1.67,-7.9836,4.2255e-12,-0.83502,0,0,0.066667,-6.3159e-16,0,0.66667
0.71854,0.10451,10.778,-0.59323,-85.953,330.7,17.05,-5.6835,-0.75958,22.734,4.2579e-11,-0.37979,0,0,0.066667,-0,-0,0.66667
0.046842,0.66656,0.70263,0.24983,74.656,2809.6,-0.46811,0.15603,-1.7898,-0.62414,-8.2997e-07,-0.89488,0,0,0.066667,-0,-0,0.66667
0.30454,0.83813,4.5681,0.50719,137.89,1687.2,-6.1785,2.0595,-1.0794,-8.2379,-2.3701e-12,-0.53969,0,0,0.066667,-0,-0,0.66667
0.087153,0.047862,1.3073,-0.67821,-201.84,2628.5,2.3643,-0.7881,-0.35835,3.1524,-3.8211e-06,-0.17918,0,0,0.066667,-1.0321e-16,0,0.66667
0.40034,0.78815,6.0051,0.43223,108.72,1308,-6.9215,2.3072,-1.3307,-9.2286,8.8498e-12,-0.66534,0,0,0.066667,-0,-0,0.66667
0.19936,0.032605,2.9903,-0.70109,-201.92,2132.4,5.5907,-1.8636,-0.252,7.4542,5.4667e-09,-0.126,0,0,0.066667,-0,-0,0.66667
0.49854,0.11921,7.4781,-0.57118,-128.63,954.18,11.39,-3.7967,-0.84611,15.187,1.8634e-12,-0.42306,0,0,0.066667,6.3159e-16,-1.0007e-16,0.66667
0.24179,0.37391,3.6269,-0.18913,-53.319,1949.3,1.8292,-0.60974,-1.8677,2.439,2.2376e-11,-0.93383,0,0,0.066667,-1.579e-16,0,0.66667
0.19127,0.6201,2.8691,0.18014,51.967,2167,-1.3783,0.45942,-1.8836,-1.8377,-1.0468e-11,-0.94182,0,0,0.066667,3.158e-16,0,0.66667
0.60179,0.17706,9.0268,-0.48441,-92.53,628.27,11.66,-3.8868,-1.1592,15.547,1.271e-11,-0.5796,0,0,0.066667,-6.3159e-16,0,0.66667
0.48061,0.05945,7.2091,-0.66083,-152.37,1016.2,12.704,-4.2346,-0.44666,16.938,2.9567e-12,-0.22333,0,0,0.066667,-0,-0,0.66667
0.38153,0.7681,5.7229,0.40215,102.92,1380,-6.1372,2.0457,-1.4189,-8.1829,-1.502e-11,-0.70943,0,0,0.066667,-6.3159e-16,0,0.66667
0.41901,0.46244,6.2852,-0.056342,-13.902,1237.1,0.94431,-0.31477,-1.99,1.2591,7.6189e-12,-0.995,0,0,0.066667,-0,-0,0.66667
0.94696,0.10093,14.204,-0.5986,-18.419,15.826,22.674,-7.558,-0.72058,30.232,6.5984e-06,-0.36029,0,0,0.066667,-0,-0,0.66667
0.61125,0.60044,9.1688,0.15066,28.227,600.29,-3.6837,1.2279,-1.9238,-4.9116,-5.2924e-12,-0.96188,0,0,0.066667,1.2632e-15,0,0.66667
0.2018,0.14639,3.027,-0.53041,-152.49,2121.6,4.2814,-1.4271,-1.0059,5.7086,1.3692e-09,-0.50294,0,0,0.066667,-0,-0,0.66667
0.26679,0.73983,4.0018,0.35975,100.08,1843.8,-3.839,1.2797,-1.5467,-5.1187,2.0558e-11,-0.77333,0,0,0.066667,-3.158e-16,0,0.66667
0.29971,0.4323,4.4956,-0.10155,-27.669,1706.6,1.2174,-0.40579,-1.9649,1.6232,8.6622e-12,-0.98243,0,0,0.066667,4.737e-16,0,0.66667
0.71146,0.17728,10.672,-0.48407,-71.549,345.85,13.776,-4.592,-1.1604,18.368,1.1642e-11,-0.58022,0,0,0.066667,-6.3159e-16,0,0.66667
0.50952,0.084347,7.6428,-0.62348,-138.37,917.33,12.707,-4.2357,-0.61233,16.943,1.4779e-11,-0.30616,0,0,0.066667,-6.3159e-16,0,0.66667
0.21262,0.44045,3.1893,-0.089324,-25.535,2074.4,0.75968,-0.25323,-1.9669,1.0129,-5.2042e-11,-0.98346,0,0,0.066667,6.3159e-16,0,0.66667
0.58056,0.6026,8.7084,0.15389,30.521,690,-3.5738,1.1913,-1.9181,-4.7651,8.8813e-12,-0.95906,0,0,0.066667,-1.2632e-15,0,0.66667
0.87572,0.12346,13.136,-0.5648,-39.357,71.128,19.784,-6.5948,-0.87557,26.379,-1.4273e-07,-0.43778,0,0,0.066667,4.737e-16,0,0.66667
0.12633,0.85927,1.8949,0.5389,158.94,2453.4,-2.7232,0.90772,-0.97334,-3.6309,-4.7412e-08,-0.48667,0,0,0.066667,-0,-0,0.66667
0.99245,0.1879,14.887,-0.46814,-1.9449,1.866,18.584,-6.1948,-1.2157,24.779,-2.0745e-05,-0.60787,0,0,0.066667,-0,-0,0.66667
0.57331,0.26331,8.5997,-0.35504,-71.341,712.31,8.1418,-2.7139,-1.5479,10.856,1.116e-11,-0.77394,0,0,0.066667,-0,-0,0.66667
0.075515,0.74022,1.1327,0.36033,107.32,2680.5,-1.0884,0.3628,-1.5401,-1.4512,-2.7411e-07,-0.77003,0,0,0.066667,-0,-0,0.66667
0.9247,0.52843,13.87,0.04264,1.8292,26.487,-1.5772,0.52572,-1.9955,-2.1029,1.65e-09,-0.99774,0,0,0.066667,6.3159e-16,0,0.66667
0.6613,0.52629,9.9195,0.039431,6.6331,465.15,-1.043,0.34767,-1.9909,-1.3907,2.0994e-12,-0.99544,0,0,0.066667,-1.2632e-15,0,0.66667
0.25836,0.64804,3.8755,0.22205,62.051,1879.1,-2.2948,0.76494,-1.8185,-3.0598,2.1749e-11,-0.90924,0,0,0.066667,-0,-0,0.66667
0.011312,0.80925,0.16968,0.46387,138.98,2970.1,-0.20988,0.069944,-1.233,-0.27984,-2.2822e-05,-0.6165,0,0,0.066667,-2.1323e-17,0,0.66667
0.82783,0.24416,12.417,-0.38376,-36.065,130.21,12.707,-4.2358,-1.4873,16.943,-2.5531e-10,-0.74367,0,0,0.066667,1.2632e-15,0,0.66667
0.19681,0.63224,2.9522,0.19836,57.096,2142.9,-1.5616,0.52053,-1.8546,-2.0821,-2.0894e-12,-0.92729,0,0,0.066667,-0,-0,0.66667
0.91039,0.78621,13.656,0.42932,21.88,38.077,-15.634,5.2113,-1.3428,-20.845,3.8991e-08,-0.67141,0,0,0.066667,-0,-0,0.66667
0.26207,0.64751,3.931,0.22127,61.704,1863.5,-2.3195,0.77316,-1.825,-3.0926,2.8068e-11,-0.9125,0,0,0.066667,-3.158e-16,0,0.66667
0.30754,0.49221,4.6131,-0.011683,-3.1665,1674.4,0.14371,-0.047905,-1.9957,0.19162,2.7389e-11,-0.99785,0,0,0.066667,-0,-0,0.66667
0.429,0.64334,6.435,0.21501,52.517,1200.2,-3.6896,1.2299,-1.8291,-4.9195,3.6948e-12,-0.91457,0,0,0.066667,-0,-0,0.66667
0.84952,0.52675,12.743,0.04013,3.3273,99.994,-1.3637,0.45455,-1.9897,-1.8182,6.7251e-10,-0.99486,0,0,0.066667,6.3159e-16,0,0.66667
0.37631,0.37417,5.6446,-0.18875,-48.503,1399.9,2.8411,-0.94703,-1.8809,3.7881,-4.261e-13,-0.94044,0,0,0.066667,2.3685e-16,0,0.66667
0.66908,0.8686,10.036,0.5529,91.467,446.82,-14.797,4.9325,-0.91456,-19.73,-1.549e-12,-0.45728,0,0,0.066667,-2.3542e-16,0,0.66667
0.73119,0.59031,10.968,0.13547,18.836,301.84,-3.9621,1.3207,-1.9355,-5.2827,-8.9151e-13,-0.96776,0,0,0.066667,-0,-0,0.66667
0.89467,0.62265,13.42,0.18397,10.914,50.612,-6.5838,2.1946,-1.8785,-8.7784,2.9818e-08,-0.93924,0,0,0.066667,-6.3159e-16,0,0.66667
0.93853,0.92277,14.078,0.63416,22.566,20.479,-23.807,7.9357,-0.57726,-31.743,-1.1102e-05,-0.28863,0,0,0.066667,-0,-0,0.66667
0.87235,0.034354,13.085,-0.69847,-50.027,75.754,24.372,-8.1241,-0.26782,32.497,1.4956e-07,-0.13391,0,0,0.066667,-0,-0,0.66667
0.45255,0.87015,6.7882,0.55523,132.31,1115.1,-10.051,3.3502,-0.91376,-13.401,-5.4863e-12,-0.45688,0,0,0.066667,-6.3159e-16,0,0.66667
0.55083,0.5097,8.2625,0.014555,3.0332,781.49,-0.3207,0.1069,-1.9973,-0.42761,7.8069e-12,-0.99864,0,0,0.066667,-2.5264e-15,0,0.66667
0.57742,0.59246,8.6613,0.13869,27.656,699.44,-3.2032,1.0677,-1.9415,-4.271,-3.7514e-12,-0.97077,0,0,0.066667,1.3487e-15,0,0.66667
0.48558,0.16027,7.2837,-0.5096,-116.67,998.4,9.8981,-3.2994,-1.084,13.197,-1.2808e-12,-0.54201,0,0,0.066667,-0,-0,0.66667
0.91406,0.59597,13.711,0.14395,7.0232,34.238,-5.2633,1.7544,-1.9209,-7.0177,2.6059e-08,-0.96045,0,0,0.066667,-0,-0,0.66667
0.78635,0.18571,11.795,-0.47144,-53.812,196.49,14.829,-4.9428,-1.2066,19.771,1.0929e-10,-0.60332,0,0,0.066667,4.737e-16,0,0.66667
0.093327,0.43908,1.3999,-0.091375,-27.121,2600.5,0.34111,-0.1137,-1.9814,0.45482,4.5709e-09,-0.9907,0,0,0.066667,-0,-0,0.66667
0.99093,0.33241,14.864,-0.25138,-1.2312,0.97887,9.9641,-3.3214,-1.7692,13.285,-2.3239e-06,-0.88462,0,0,0.066667,-0,-0,0.66667
0.19126,0.7397,2.8689,0.35955,103.76,2167.2,-2.7507,0.91692,-1.5388,-3.6677,7.9448e-11,-0.7694,0,0,0.066667,1.579e-16,0,0.66667
0.26939,0.24188,4.0409,-0.38717,-107.56,1832.9,4.172,-1.3907,-1.4656,5.5627,1.2502e-11,-0.73282,0,0,0.066667,-0,-0,0.66667
0.15118,0.96321,2.2678,0.69481,203.62,2343.4,-4.2018,1.4006,-0.2798,-5.6024,1.0579e-07,-0.1399,0,0,0.066667,1.579e-16,0,0.66667
0.26352,0.17172,3.9528,-0.49243,-137.31,1857.7,5.1905,-1.7302,-1.1409,6.9207,9.317e-12,-0.57046,0,0,0.066667,-0,-0,0.66667
0.37276,0.77219,5.5915,0.40828,105.3,1414,-6.0878,2.0293,-1.4103,-8.117,1.5921e-11,-0.70513,0,0,0.066667,3.158e-16,0,0.66667
0.97389,0.51343,14.608,0.02015,0.29983,3.599,-0.78495,0.26165,-1.9941,-1.0466,-1.8455e-06,-0.99703,0,0,0.066667,-0,-0,0.66667
0.16693,0.92485,2.5039,0.63728,185.75,2274,-4.2552,1.4184,-0.55187,-5.6736,4.2421e-08,-0.27593,0,0,0.066667,-0,-0,0.66667
0.61018,0.0055709,9.1527,-0.74164,-139.64,605.47,18.102,-6.0338,-0.053071,24.135,6.7342e-12,-0.026536,0,0,0.066667,-0,-0,0.66667
0.44789,0.90494,6.7183,0.6074,145.55,1132.1,-10.882,3.6273,-0.68496,-14.509,-7.0584e-12,-0.34248,0,0,0.066667,-0,-0,0.66667
0.58703,0.91303,8.8054,0.61954,121.7,672.09,-14.547,4.8492,-0.6295,-19.397,-7.5229e-12,-0.31475,0,0,0.066667,-0,-0,0.66667
0.053649,0.45305,0.80474,-0.070432,-21.028,2778.9,0.15115,-0.050382,-1.976,0.20153,1.5217e-07,-0.98801,0,0,0.066667,-0,-0,0.66667
0.30933,0.17926,4.64,-0.48111,-130.36,1667.6,5.9529,-1.9843,-1.1772,7.9372,3.1939e-11,-0.58859,0,0,0.066667,-0,-0,0.66667
0.090911,0.37388,1.3637,-0.18918,-56.181,2611.4,0.68793,-0.22931,-1.875,0.91724,3.9997e-09,-0.93749,0,0,0.066667,1.875e-16,0,0.66667
0.46345,0.02857,6.9517,-0.70715,-166.53,1076.7,13.109,-4.3697,-0.21842,17.479,2.9399e-12,-0.10921,0,0,0.066667,6.3159e-16,0,0.66667
0.89199,0.63494,13.38,0.20241,12.3,53.149,-7.2219,2.4073,-1.8604,-9.6293,2.3582e-08,-0.93018,0,0,0.066667,-0,-0,0.66667
0.82138,0.32526,12.321,-0.2621,-25.446,139.19,8.6115,-2.8705,-1.7495,11.482,-4.9152e-11,-0.87473,0,0,0.066667,-0,-0,0.66667
0.87215,0.678,13.082,0.267,19.036,73.547,-9.3146,3.1049,-1.7475,-12.419,2.8438e-10,-0.87376,0,0,0.066667,-6.3159e-16,0,0.66667
0.3996,0.87241,5.9939,0.55862,140.68,1311.1,-8.9288,2.9763,-0.8854,-11.905,3.6984e-12,-0.4427,0,0,0.066667,7.1054e-16,0,0.66667
0.50934,0.78161,7.6401,0.42241,93.68,917.21,-8.606,2.8687,-1.3612,-11.475,1.1876e-11,-0.68062,0,0,0.066667,-0,-0,0.66667
0.25721,0.7528,3.8581,0.3792,106.07,1884.1,-3.9013,1.3004,-1.4833,-5.2018,2.7874e-11,-0.74166,0,0,0.066667,-0,-0,0.66667
0.60699,0.23631,9.1048,-0.39554,-74.775,612.99,9.6034,-3.2011,-1.4459,12.805,1.1453e-11,-0.72296,0,0,0.066667,-0,-0,0.66667
0.44631,0.86443,6.6947,0.54665,131.18,1137.6,-9.7591,3.253,-0.93131,-13.012,-2.8963e-12,-0.46565,0,0,0.066667,-6.3159e-16,0,0.66667
0.49641,0.1338,7.4461,-0.5493,-124.03,961.36,10.907,-3.6357,-0.92616,14.543,9.7167e-12,-0.46308,0,0,0.066667,-1.2632e-15,0,0.66667
0.54096,0.077607,8.1144,-0.63359,-134.35,814.33,13.71,-4.57,-0.56709,18.28,-1.0854e-12,-0.28354,0,0,0.066667,-0,-0,0.66667
0.58046,0.78111,8.7069,0.42167,83.71,690.89,-9.7905,3.2635,-1.3718,-13.054,-1.5783e-12,-0.6859,0,0,0.066667,-2.9606e-16,0,0.66667
0.46466,0.17761,6.9699,-0.48359,-113.59,1071.6,8.9881,-2.996,-1.1662,11.984,1.6196e-11,-0.58312,0,0,0.066667,-0,-0,0.66667
0.79849,0.22844,11.977,-0.40735,-44.121,175.62,13.01,-4.3368,-1.4151,17.347,8.6365e-11,-0.70756,0,0,0.066667,-0,-0,0.66667
0.40923,0.14912,6.1385,-0.52633,-131.3,1274.6,8.6156,-2.8719,-1.0159,11.488,1.7281e-11,-0.50793,0,0,0.066667,-3.158e-16,0,0.66667
0.043632,0.37543,0.65448,-0.18685,-55.845,2824.1,0.3261,-0.1087,-1.8771,0.4348,7.4727e-07,-0.93854,0,0,0.066667,1.579e-16,0,0.66667
0.83341,0.74806,12.501,0.3721,33.931,122.26,-12.404,4.1348,-1.5043,-16.539,6.3567e-10,-0.75213,0,0,0.066667,1.8948e-15,0,0.66667
0.48479,0.98389,7.2719,0.72583,166.55,1002,-14.075,4.6917,-0.13656,-18.767,3.8591e-12,-0.06828,0,0,0.066667,-6.3159e-16,0,0.66667
0.47847,0.9387,7.1771,0.65805,152.13,1023.6,-12.594,4.1981,-0.45623,-16.792,9.8739e-12,-0.22812,0,0,0.066667,-0,-0,0.66667
0.17683,0.54051,2.6525,0.060764,17.624,2230,-0.42981,0.14327,-1.9829,-0.57308,-3.549e-11,-0.99146,0,0,0.066667,3.158e-16,0,0.66667
0.443,0.81566,6.6451,0.47349,114,1149.4,-8.3902,2.7967,-1.1989,-11.187,-1.2085e-11,-0.59945,0,0,0.066667,1.2632e-15,0,0.66667
0.14347,0.67351,2.1521,0.26027,76.34,2377.1,-1.4937,0.49789,-1.7599,-1.9915,1.7898e-11,-0.87994,0,0,0.066667,-1.579e-16,0,0.66667
0.041238,0.90283,0.61857,0.60425,180.84,2835,-0.99671,0.33221,-0.6976,-1.329,-3.5199e-05,-0.3488,0,0,0.066667,-0,-0,0.66667
0.96316,0.75195,14.447,0.37792,8.0346,7.7314,-14.56,4.8534,-1.4883,-19.413,2.3104e-06,-0.74415,0,0,0.066667,-0,-0,0.66667
0.26195,0.74864,3.9293,0.37295,104.04,1864.1,-3.9078,1.3026,-1.5053,-5.2104,2.6786e-11,-0.75267,0,0,0.066667,1.1842e-16,0,0.66667
0.1361,0.86276,2.0415,0.54413,160.07,2410,-2.9622,0.98741,-0.94391,-3.9497,5.074e-08,-0.47196,0,0,0.066667,1.579e-16,0,0.66667
0.68806,0.48984,10.321,-0.015242,-2.3989,398.99,0.41949,-0.13983,-2.0085,0.55933,-4.7118e-12,-1.0043,0,0,0.066667,1.8948e-15,0,0.66667
0.37393,0.092253,5.609,-0.61162,-157.71,1410,9.1482,-3.0494,-0.67831,12.198,1.3013e-11,-0.33915,0,0,0.066667,2.3685e-16,0,0.66667
0.62308,0.2787,9.3462,-0.33195,-60.768,567.45,8.2734,-2.7578,-1.6131,11.031,1.3987e-11,-0.80657,0,0,0.066667,-1.4211e-15,0,0.66667
0.70645,0.33904,10.597,-0.24144,-36.157,356.35,6.8224,-2.2741,-1.793,9.0966,4.9973e-12,-0.89648,0,0,0.066667,-9.4739e-16,0,0.66667
0.66211,0.47136,9.9316,-0.042962,-7.2135,463.09,1.1378,-0.37928,-1.9891,1.5171,9.4093e-12,-0.99455,0,0,0.066667,-0,-0,0.66667
0.22691,0.73541,3.4037,0.35312,100.32,2013,-3.2051,1.0684,-1.55,-4.2735,4.3352e-11,-0.77501,0,0,0.066667,-0,-0,0.66667
0.78337,0.81728,11.751,0.47591,54.991,201.71,-14.913,4.9709,-1.1986,-19.884,-1.4702e-10,-0.59928,0,0,0.066667,2.5264e-15,0,0.66667
0.07097,0.90321,1.0645,0.60482,180.41,2701.1,-1.717,0.57232,-0.69391,-2.2893,-2.8973e-06,-0.34696,0,0,0.066667,9.8686e-17,0,0.66667
0.78814,0.58143,11.822,0.12214,13.812,192.29,-3.8507,1.2836,-1.9406,-5.1342,-1.9347e-11,-0.97031,0,0,0.066667,-0,-0,0.66667
0.16235,0.17138,2.4352,-0.49294,-143.82,2293.9,3.201,-1.067,-1.1303,4.268,3.1636e-09,-0.56513,0,0,0.066667,-0,-0,0.66667
0.40501,0.55042,6.0751,0.075625,18.922,1289.8,-1.2252,0.40839,-1.986,-1.6335,3.3515e-12,-0.99302,0,0,0.066667,-0,-0,0.66667
0.0061978,0.37221,0.092968,-0.19169,-57.399,2993.2,0.047521,-0.015839,-1.8646,0.063362,2.2565e-06,-0.93231,0,0,0.066667,6.7693e-18,0,0.66667
0.16285,0.26133,2.4428,-0.358,-104.39,2291.6,2.3321,-0.77736,-1.5382,3.1094,1.3482e-10,-0.76909,0,0,0.066667,-3.158e-16,0,0.66667
0.67786,0.57348,10.168,0.11022,17.81,423.74,-2.9885,0.99618,-1.9513,-3.9847,7.4802e-12,-0.97564,0,0,0.066667,-1.2632e-15,0,0.66667
0.75014,0.64889,11.252,0.22334,29.18,263.09,-6.7014,2.2338,-1.8341,-8.9352,-7.9297e-12,-0.91705,0,0,0.066667,6.3159e-16,0,0.66667
0.91019,0.70456,13.653,0.30684,15.643,37.687,-11.171,3.7238,-1.6631,-14.895,-1.9381e-08,-0.83154,0,0,0.066667,-1.2632e-15,0,0.66667
0.42023,0.48293,6.3034,-0.025606,-6.3103,1232.6,0.43041,-0.14347,-2.0024,0.57388,7.486e-12,-1.0012,0,0,0.066667,-0,-0,0.66667
0.61033,0.52186,9.1549,0.032795,6.1546,602.83,-0.80064,0.26688,-2.0039,-1.0675,2.7569e-12,-1.0019,0,0,0.066667,-0,-0,0.66667
0.49204,0.39577,7.3806,-0.15634,-35.461,975.37,3.0771,-1.0257,-1.9066,4.1028,8.0376e-12,-0.9533,0,0,0.066667,-0,-0,0.66667
0.025408,0.65798,0.38113,0.23697,70.922,2906.4,-0.24085,0.080285,-1.7962,-0.32113,4.0663e-06,-0.89809,0,0,0.066667,-0,-0,0.66667
0.44827,0.95793,6.7241,0.6869,164.6,1131,-12.317,4.1056,-0.3185,-16.422,-2.2773e-12,-0.15925,0,0,0.066667,-0,-3.3754e-17,0.66667
0.68945,0.66929,10.342,0.25393,39.837,395.96,-7.003,2.3343,-1.7744,-9.3373,2.8155e-12,-0.88721,0,0,0.066667,-0,-0,0.66667
0.67687,0.89353,10.153,0.59029,95.822,427.68,-15.982,5.3273,-0.75686,-21.309,6.5281e-12,-0.37843,0,0,0.066667,-0,-0,0.66667
0.29344,0.72719,4.4015,0.34079,93.276,1732.7,-4,1.3333,-1.5865,-5.3333,1.4695e-11,-0.79325,0,0,0.066667,-0,-0,0.66667
0.87748,0.2359,13.162,-0.39615,-27.172,68.317,13.905,-4.6349,-1.4439,18.539,1.9154e-08,-0.72195,0,0,0.066667,-0,-0,0.66667
0.77122,0.94106,11.568,0.66159,80.34,224.67,-20.409,6.8031,-0.43956,-27.212,-1.7716e-09,-0.21978,0,0,0.066667,-0,-0,0.66667
0.85372,0.43231,12.806,-0.10153,-8.2012,94.76,3.4672,-1.1557,-1.9588,4.6229,4.9287e-10,-0.97942,0,0,0.066667,-1.8948e-15,0,0.66667
0.93715,0.13402,14.057,-0.54897,-19.902,20.62,20.579,-6.8596,-0.93881,27.438,1.3966e-06,-0.4694,0,0,0.066667,-0,-7.1407e-17,0.66667
0.235,0.6695,3.5251,0.25426,71.933,1978.3,-2.3901,0.79668,-1.779,-3.1867,1.244e-11,-0.8895,0,0,0.066667,-0,-0,0.66667
0.71728,0.81253,10.759,0.4688,68.114,332.84,-13.45,4.4835,-1.2257,-17.934,-2.1254e-12,-0.61286,0,0,0.066667,2.5264e-15,0,0.66667
0.043952,0.86911,0.65929,0.55367,165.63,2822.7,-0.9734,0.32445,-0.9112,-1.2979,-1.8252e-05,-0.4556,0,0,0.066667,9.8686e-17,0,0.66667
0.30362,0.79505,4.5544,0.44257,120.36,1690.9,-5.375,1.7917,-1.2973,-7.1667,6.025e-12,-0.64864,0,0,0.066667,-0,-0,0.66667
0.48305,0.92466,7.2457,0.63698,146.4,1007.6,-12.308,4.1026,-0.56334,-16.41,7.0459e-12,-0.28167,0,0,0.066667,5.9549e-17,0,0.66667
0.36442,0.80167,5.4663,0.4525,117.56,1446.7,-6.5961,2.1987,-1.2678,-8.7948,1.4651e-11,-0.63388,0,0,0.066667,-3.158e-16,0,0.66667
0.19847,0.22597,2.9771,-0.41105,-118.29,2135.9,3.2633,-1.0878,-1.3961,4.351,-5.9244e-11,-0.69804,0,0,0.066667,-0,-0,0.66667
0.69868,0.42282,10.48,-0.11577,-17.711,373.99,3.2355,-1.0785,-1.9491,4.314,2.7498e-12,-0.97454,0,0,0.066667,-0,-0,0.66667
0.9253,0.78752,13.88,0.43128,18.439,27.218,-15.963,5.3209,-1.3384,-21.284,2.6834e-07,-0.66918,0,0,0.066667,-0,-0,0.66667
0.099858,0.00096794,1.4979,-0.74855,-222.32,2571.6,2.9899,-0.99665,-0.0034391,3.9866,-4.9235e-07,-0.0017196,0,0,0.066667,-0,-0,0.66667
0.23014,0.6117,3.4521,0.16755,47.509,1999.1,-1.5424,0.51412,-1.8974,-2.0565,3.0883e-12,-0.94869,0,0,0.066667,-3.158e-16,0,0.66667
0.28485,0.40123,4.2727,-0.14815,-40.755,1768.1,1.688,-0.56266,-1.9214,2.2506,2.2431e-11,-0.96071,0,0,0.066667,-3.158e-16,0,0.66667
0.66797,0.87084,10.02,0.55626,92.273,449.62,-14.863,4.9542,-0.89865,-19.817,-2.1165e-12,-0.44932,0,0,0.066667,3.158e-16,0,0.66667
0.38662,0.087595,5.7993,-0.61861,-157.73,1360.9,9.5666,-3.1889,-0.63768,12.755,8.7361e-12,-0.31884,0,0,0.066667,-3.158e-16,-3.0623e-18,0.66667
0.7656,0.041936,11.484,-0.6871,-85.244,235.32,21.042,-7.0138,-0.3331,28.055,2.4974e-10,-0.16655,0,0,0.066667,-0,-0,0.66667
0.095646,0.59141,1.4347,0.13712,40.681,2590.1,-0.52459,0.17486,-1.9382,-0.69945,-2.354e-08,-0.96911,0,0,0.066667,2.1711e-16,0,0.66667
0.46018,0.46724,6.9027,-0.049146,-11.593,1086.8,0.90465,-0.30155,-1.9863,1.2062,2.0031e-12,-0.99315,0,0,0.066667,-2.3685e-16,0,0.66667
0.29262,0.89562,4.3892,0.59343,162.66,1736.5,-6.9459,2.3153,-0.74516,-9.2612,-2.6303e-11,-0.37258,0,0,0.066667,-3.158e-16,0,0.66667
0.51342,0.20598,7.7012,-0.44103,-97.266,903.64,9.0574,-3.0191,-1.3112,12.076,8.6855e-12,-0.6556,0,0,0.066667,-6.0801e-16,0,0.66667
0.13575,0.89206,2.0362,0.58809,173.04,2411.6,-3.1932,1.0644,-0.76624,-4.2576,1.0135e-07,-0.38312,0,0,0.066667,-0,-0,0.66667
0.446,0.69126,6.69,0.28688,68.803,1138.1,-5.118,1.706,-1.7018,-6.824,-2.9732e-12,-0.85091,0,0,0.066667,-0,-0,0.66667
0.51639,0.36523,7.7458,-0.20216,-44.367,893.22,4.1758,-1.3919,-1.8632,5.5677,3.5367e-12,-0.93158,0,0,0.066667,-0,-0,0.66667
0.34421,0.82876,5.1631,0.49314,130.25,1526.7,-6.7897,2.2632,-1.1449,-9.0529,1.795e-12,-0.57245,0,0,0.066667,6.3159e-16,0,0.66667
0.55465,0.76869,8.3198,0.40304,83.548,770.08,-8.9419,2.9806,-1.4158,-11.923,-6.1489e-12,-0.70791,0,0,0.066667,-0,-0,0.66667
0.71429,0.66933,10.714,0.25399,37.189,338.73,-7.2569,2.419,-1.7674,-9.6758,-7.4163e-14,-0.88369,0,0,0.066667,-1.2632e-15,0,0.66667
0.66388,0.75389,9.9582,0.38083,63.731,459.22,-10.113,3.371,-1.4786,-13.484,-1.4611e-12,-0.73931,0,0,0.066667,-0,-0,0.66667
0.35567,0.59937,5.3351,0.14906,38.978,1480.7,-2.1207,0.70689,-1.9201,-2.8276,8.2161e-12,-0.96005,0,0,0.066667,-0,-0,0.66667
0.076579,0.96099,1.1487,0.69149,206.17,2675.9,-2.1181,0.70604,-0.30541,-2.8242,-1.0471e-05,-0.15271,0,0,0.066667,-0,-0,0.66667
0.83367,0.51761,12.505,0.026408,2.4008,121.13,-0.88061,0.29354,-1.9924,-1.1742,2.3208e-10,-0.99621,0,0,0.066667,-0,-0,0.66667
0.92624,0.11474,13.894,-0.57789,-24.493,27.507,21.411,-7.1369,-0.80968,28.548,-1.7795e-06,-0.40484,0,0,0.066667,-1.2632e-15,0,0.66667
0.23416,0.23332,3.5124,-0.40003,-113.26,1982,3.7469,-1.249,-1.4417,4.9958,-4.5156e-11,-0.72085,0,0,0.066667,-0,-0,0.66667
0.0015237,0.90798,0.022856,0.61196,183.47,3014.4,-0.037299,0.01252,-0.67513,-0.049688,0.00013012,-0.33757,0,0,0.066667,-4.9343e-18,0,0.66667
0.47964,0.20775,7.1946,-0.43837,-101.09,1018.8,8.4103,-2.8034,-1.3131,11.214,-3.6326e-13,-0.65653,0,0,0.066667,-0,-0,0.66667
0.61534,0.84279,9.2301,0.51418,95.688,589.71,-12.656,4.2187,-1.0558,-16.875,1.6498e-11,-0.52791,0,0,0.066667,1.579e-16,0,0.66667
0.65285,0.19172,9.7927,-0.46241,-79.432,487.87,12.075,-4.0251,-1.2398,16.101,1.4015e-12,-0.6199,0,0,0.066667,-0,-0,0.66667
0.60356,0.52104,9.0534,0.031566,6.0017,622.21,-0.76208,0.25403,-1.9912,-1.0161,-2.9168e-12,-0.99559,0,0,0.066667,-0,-0,0.66667
0.67867,0.19472,10.18,-0.45792,-73.934,422.66,12.431,-4.1436,-1.2486,16.575,5.1896e-12,-0.62429,0,0,0.066667,1.2632e-15,0,0.66667
0.73325,0.6589,10.999,0.23835,32.936,297.68,-6.9908,2.3303,-1.8059,-9.321,-6.1e-12,-0.90295,0,0,0.066667,2.5264e-15,0,0.66667
0.84341,0.81726,12.651,0.47589,41.045,109.18,-16.055,5.3516,-1.2057,-21.406,-4.6847e-09,-0.60284,0,0,0.066667,-2.5264e-15,0,0.66667
0.57512,0.82441,8.6268,0.48662,97.535,707.23,-11.195,3.7315,-1.1584,-14.926,3.8831e-12,-0.5792,0,0,0.066667,-0,-0,0.66667
0.033325,0.7909,0.49988,0.43635,130.59,2870.7,-0.58166,0.19389,-1.3265,-0.77554,1.2887e-06,-0.66325,0,0,0.066667,-7.8949e-17,0,0.66667
0.93264,0.028532,13.99,-0.7072,-27.575,24.503,26.382,-8.7942,-0.21885,35.177,-4.3702e-06,-0.10943,0,0,0.066667,6.3159e-16,9.089e-17,0.66667
0.41723,0.58885,6.2584,0.13327,32.946,1243.8,-2.2241,0.74138,-1.934,-2.9655,-2.0885e-11,-0.96699,0,0,0.066667,-0,-0,0.66667
0.46721,0.33871,7.0081,-0.24194,-56.612,1062,4.5215,-1.5072,-1.7978,6.0286,7.9159e-12,-0.89889,0,0,0.066667,-0,-0,0.66667
0.61906,0.97474,9.286,0.7121,131.72,580.27,-17.634,5.8778,-0.19204,-23.511,2.1441e-11,-0.096019,0,0,0.066667,-1.2632e-15,0,0.66667
0.27646,0.49105,4.1469,-0.013427,-3.7125,1803,0.14848,-0.049494,-1.9957,0.19798,2.6793e-11,-0.99787,0,0,0.066667,-9.4739e-16,0,0.66667
0.90942,0.73548,13.641,0.35323,18.167,38.486,-12.849,4.2831,-1.5562,-17.132,-1.2501e-08,-0.77809,0,0,0.066667,-0,-0,0.66667
0.6579,0.68892,9.8686,0.28338,48.075,474.2,-7.4575,2.4858,-1.7206,-9.9434,-5.727e-12,-0.86029,0,0,0.066667,-0,-0,0.66667
0.13349,0.75606,2.0024,0.38408,113.01,2421.4,-2.0509,0.68362,-1.4696,-2.7345,-1.1637e-08,-0.7348,0,0,0.066667,-3.158e-16,0,0.66667
0.37351,0.26203,5.6027,-0.35696,-91.986,1411,5.3331,-1.7777,-1.5524,7.1109,-4.2868e-12,-0.77619,0,0,0.066667,6.3159e-16,0,0.66667
0.21324,0.5171,3.1986,0.025649,7.3299,2071.7,-0.21878,0.072927,-1.9926,-0.29171,8.0485e-11,-0.9963,0,0,0.066667,-5.0506e-16,0,0.66667
0.44333,0.22543,6.6499,-0.41186,-99.107,1148.1,7.3035,-2.4345,-1.3919,9.738,1.6196e-12,-0.69597,0,0,0.066667,-0,-0,0.66667
0.20627,0.73535,3.0941,0.35302,101.24,2102,-2.9128,0.97092,-1.5567,-3.8837,5.3647e-11,-0.77837,0,0,0.066667,-0,-0,0.66667
0.097915,0.20319,1.4687,-0.44521,-132.12,2580.1,1.7437,-0.58124,-1.2926,2.325,5.9731e-08,-0.64628,0,0,0.066667,-0,-0,0.66667
0.32046,0.4094,4.8069,-0.13589,-36.505,1621.8,1.7419,-0.58065,-1.9288,2.3226,3.9501e-11,-0.96438,0,0,0.066667,-0,-0,0.66667
0.13448,0.34687,2.0173,-0.22969,-67.54,2416.9,1.2356,-0.41187,-1.8077,1.6475,2.0659e-09,-0.90384,0,0,0.066667,-0,-0,0.66667
0.035025,0.019489,0.52538,-0.72077,-215.93,2863.1,1.0098,-0.3366,-0.15124,1.3464,1.8593e-05,-0.075622,0,0,0.066667,-0,-0,0.66667
0.49839,0.64258,7.4759,0.21388,48.11,953.74,-4.2638,1.4213,-1.8423,-5.685,-7.7924e-12,-0.92113,0,0,0.066667,-0,-0,0.66667
0.60463,0.69489,9.0695,0.29233,55.493,619.46,-7.0701,2.3567,-1.6928,-9.4268,3.0598e-13,-0.84639,0,0,0.066667,-0,-0,0.66667
0.19647,0.84492,2.9471,0.51738,149.07,2144.7,-4.066,1.3553,-1.0434,-5.4214,-1.7215e-09,-0.52171,0,0,0.066667,-6.3159e-16,0,0.66667
0.35053,0.25142,5.2579,-0.37287,-97.954,1501.4,5.2281,-1.7427,-1.5007,6.9707,5.7945e-12,-0.75036,0,0,0.066667,-1.2632e-15,0,0.66667
0.45356,0.39422,6.8035,-0.15867,-37.719,1110.6,2.8786,-0.95954,-1.9202,3.8381,5.8549e-12,-0.96011,0,0,0.066667,-6.3159e-16,0,0.66667
0.25284,0.94633,3.7926,0.66949,187.93,1903.1,-6.7709,2.257,-0.4074,-9.0279,-7.1523e-11,-0.2037,0,0,0.066667,-0,-0,0.66667
0.33803,0.19921,5.0704,-0.45119,-119.72,1551.3,6.1006,-2.0335,-1.2709,8.1341,3.138e-11,-0.63547,0,0,0.066667,-6.3159e-16,0,0.66667
0.26085,0.77415,3.9127,0.41122,114.8,1868.8,-4.2906,1.4302,-1.3953,-5.7208,4.4891e-11,-0.69767,0,0,0.066667,3.158e-16,0,0.66667
0.66262,0.034337,9.9392,-0.69849,-117.49,463.94,18.513,-6.1711,-0.26032,24.684,-9.0683e-12,-0.13016,0,0,0.066667,-0,-0,0.66667
0.38944,0.52973,5.8415,0.04459,11.322,1349.1,-0.6946,0.23153,-2.0008,-0.92613,2.4222e-11,-1.0004,0,0,0.066667,-3.158e-16,0,0.66667
0.46579,0.52334,6.9868,0.035004,8.2025,1066.9,-0.65218,0.21739,-1.9964,-0.86957,1.6454e-13,-0.99822,0,0,0.066667,-0,-0,0.66667
0.25898,0.74408,3.8846,0.36611,102.3,1876.6,-3.7926,1.2642,-1.5178,-5.0568,1.9234e-11,-0.7589,0,0,0.066667,1.5334e-16,0,0.66667
0.57889,0.11708,8.6834,-0.57438,-114.43,696.19,13.3,-4.4334,-0.83559,17.734,1.04e-11,-0.4178,0,0,0.066667,6.3159e-16,0,0.66667
0.41565,0.79434,6.2348,0.44151,109.4,1250.2,-7.3406,2.4469,-1.301,-9.7875,1.2519e-11,-0.65052,0,0,0.066667,-6.3159e-16,0,0.66667
0.45718,0.89451,6.8578,0.59177,140.29,1098.6,-10.822,3.6073,-0.75255,-14.429,5.8993e-12,-0.37627,0,0,0.066667,-0,-0,0.66667
0.20956,0.98251,3.1435,0.72377,207.57,2088.3,-6.067,2.0223,-0.13136,-8.0894,7.2928e-10,-0.065682,0,0,0.066667,8.1214e-16,0,0.66667
0.51169,0.50405,7.6754,0.006078,1.3424,908.73,-0.1244,0.041468,-1.9986,-0.16587,-1.3014e-11,-0.99932,0,0,0.066667,-0,-0,0.66667
0.42103,0.47639,6.3155,-0.035419,-8.7215,1229.6,0.59651,-0.19884,-2.0039,0.79534,1.2877e-11,-1.0019,0,0,0.066667,-0,-0,0.66667
0.53816,0.18836,8.0724,-0.46746,-99.456,822.66,10.063,-3.3543,-1.2181,13.417,1.9775e-11,-0.60907,0,0,0.066667,-1.2632e-15,0,0.66667
0.51553,0.88346,7.7329,0.5752,126.56,897.07,-11.861,3.9537,-0.83519,-15.815,2.9985e-12,-0.4176,0,0,0.066667,-0,-0,0.66667
0.71232,0.1739,10.685,-0.48915,-72.124,343.96,13.937,-4.6458,-1.1432,18.583,1.0466e-11,-0.57159,0,0,0.066667,-8.4355e-16,0,0.66667
0.34543,0.73174,5.1815,0.34762,91.682,1521.6,-4.8031,1.601,-1.575,-6.4041,4.6501e-12,-0.78751,0,0,0.066667,6.3159e-16,0,0.66667
0.22924,0.70296,3.4386,0.30444,86.385,2003,-2.7916,0.93055,-1.6659,-3.7222,1.3683e-11,-0.83296,0,0,0.066667,3.158e-16,0,0.66667
0.91895,0.74021,13.784,0.36031,16.651,31.283,-13.244,4.4148,-1.5391,-17.659,5.4565e-08,-0.76956,0,0,0.066667,1.2632e-15,0,0.66667
0.39408,0.018967,5.9113,-0.72155,-182.82,1332.7,11.374,-3.7913,-0.14795,15.165,1.168e-11,-0.073975,0,0,0.066667,-0,-0,0.66667
0.81515,0.54034,12.227,0.060503,6.0553,148.24,-1.9728,0.65759,-1.9886,-2.6303,9.6947e-11,-0.99431,0,0,0.066667,-0,-0,0.66667
0.88049,0.10059,13.207,-0.59911,-40.266,66.357,21.101,-7.0335,-0.71927,28.134,-2.1009e-07,-0.35963,0,0,0.066667,-0,-0,0.66667
0.65189,0.73021,9.7784,0.34532,59.412,489.94,-9.0043,3.0014,-1.5731,-12.006,-2.558e-12,-0.78653,0,0,0.066667,-0,-0,0.66667
0.76748,0.18938,11.512,-0.46592,-57.279,230.5,14.303,-4.7678,-1.2335,19.071,6.4078e-11,-0.61673,0,0,0.066667,-0,-0,0.66667
0.89753,0.70632,13.463,0.30949,17.903,48.384,-11.111,3.7037,-1.6531,-14.815,6.2064e-08,-0.82654,0,0,0.066667,-0,-0,0.66667
0.49849,0.80594,7.4773,0.45891,103.3,953.97,-9.1504,3.0501,-1.257,-12.201,3.471e-12,-0.62851,0,0,0.066667,-3.158e-16,0,0.66667
0.42176,0.59375,6.3264,0.14062,34.604,1227,-2.3724,0.79079,-1.9425,-3.1631,6.4371e-13,-0.97125,0,0,0.066667,-8.3379e-16,0,0.66667
0.72854,0.76544,10.928,0.39816,55.881,308.13,-11.603,3.8677,-1.4308,-15.471,-5.8975e-13,-0.71542,0,0,0.066667,-0,-0,0.66667
0.57844,0.42862,8.6767,-0.10707,-21.312,696.32,2.4773,-0.82577,-1.9697,3.3031,3.3891e-12,-0.98487,0,0,0.066667,-6.3159e-16,0,0.66667
0.070112,0.92544,1.0517,0.63816,190.4,2705,-1.7897,0.59657,-0.54544,-2.3863,-4.5604e-06,-0.27272,0,0,0.066667,-0,-0,0.66667
0.80706,0.25358,12.106,-0.36963,-38.499,161.58,11.933,-3.9775,-1.5102,15.91,1.3775e-10,-0.75512,0,0,0.066667,2.5264e-15,0,0.66667
0.20204,0.24198,3.0307,-0.38703,-111.2,2120.3,3.1279,-1.0426,-1.4747,4.1705,-1.9324e-10,-0.73737,0,0,0.066667,-1.579e-16,0,0.66667
0.21501,0.11833,3.2251,-0.57251,-163.67,2064.5,4.9238,-1.6413,-0.83347,6.565,-7.888e-10,-0.41674,0,0,0.066667,-1.579e-16,0,0.66667
0.87429,0.12618,13.114,-0.56072,-39.49,72.637,19.609,-6.5365,-0.89202,26.146,-9.3468e-08,-0.44601,0,0,0.066667,-0,-1.163e-17,0.66667
0.81023,0.13172,12.153,-0.55242,-56.783,157.48,17.904,-5.9678,-0.91807,23.871,4.2522e-10,-0.45904,0,0,0.066667,-0,-0,0.66667
0.78716,0.30499,11.807,-0.29251,-33.236,194.37,9.2102,-3.0701,-1.6906,12.28,-4.0074e-11,-0.84532,0,0,0.066667,-6.3159e-16,0,0.66667
0.97848,0.71176,14.677,0.31764,3.9057,3.1852,-12.432,4.144,-1.6362,-16.576,-6.5292e-06,-0.81811,0,0,0.066667,1.2632e-15,0,0.66667
0.93575,0.91383,14.036,0.62074,23.048,21.95,-23.234,7.7447,-0.63479,-30.979,-3.1332e-06,-0.3174,0,0,0.066667,-0,-0,0.66667
0.12932,0.10887,1.9397,-0.5867,-172.93,2440.1,3.0348,-1.0116,-0.77313,4.0463,-9.8543e-09,-0.38657,0,0,0.066667,-0,-0,0.66667
0.46825,0.41579,7.0238,-0.12631,-29.514,1058.2,2.3658,-0.78861,-1.9529,3.1545,9.2593e-14,-0.97645,0,0,0.066667,-0,-0,0.66667
0.30416,0.10865,4.5625,-0.58702,-159.68,1689,7.1421,-2.3807,-0.76818,9.5228,1.753e-11,-0.38409,0,0,0.066667,6.3159e-16,0,0.66667
0.89049,0.0028373,13.357,-0.74574,-46.313,57.627,26.563,-8.8543,-0.034778,35.417,3.0653e-07,-0.017389,0,0,0.066667,-0,-0,0.66667
0.13731,0.18525,2.0597,-0.47213,-138.8,2404.5,2.5932,-0.86439,-1.2081,3.4576,7.8054e-09,-0.60405,0,0,0.066667,-3.9475e-17,0,0.66667
0.047972,0.52968,0.71959,0.04452,13.299,2804.5,-0.085429,0.028476,-2.0012,-0.11391,5.5469e-08,-1.0006,0,0,0.066667,3.9475e-17,0,0.66667
0.97746,0.31795,14.662,-0.27307,-3.5131,3.2339,10.677,-3.5589,-1.7292,14.236,5.1722e-06,-0.86458,0,0,0.066667,-0,-0,0.66667
0.56486,0.76435,8.4729,0.39653,80.835,738.3,-8.9593,2.9864,-1.4432,-11.946,-1.5197e-12,-0.7216,0,0,0.066667,-0,-0,0.66667
0.28488,0.94533,4.2733,0.668,184.05,1768.7,-7.6121,2.5374,-0.41242,-10.149,-7.5082e-12,-0.20621,0,0,0.066667,6.3159e-16,0,0.66667
0.33181,0.20233,4.9771,-0.44651,-119.04,1576.3,5.9261,-1.9754,-1.2896,7.9015,2.9041e-11,-0.64479,0,0,0.066667,6.3159e-16,0,0.66667
0.13838,0.077767,2.0757,-0.63335,-186.26,2399.9,3.5058,-1.1686,-0.57639,4.6744,-1.399e-07,-0.2882,0,0,0.066667,-3.158e-16,-7.8908e-17,0.66667
0.99127,0.13503,14.869,-0.54745,-2.7068,2.5083,21.707,-7.2357,-0.9282,28.942,-5.6211e-05,-0.4641,0,0,0.066667,-0,-0,0.66667
0.87071,0.91708,13.061,0.62562,45.282,76.994,-21.789,7.2631,-0.60557,-29.053,-2.9283e-08,-0.30279,0,0,0.066667,-0,-0,0.66667
0.24165,0.65454,3.6247,0.23181,65.361,1950,-2.2407,0.74689,-1.8037,-2.9876,2.3864e-11,-0.90185,0,0,0.066667,-3.9475e-17,0,0.66667
0.33244,0.2656,4.9866,-0.3516,-93.663,1573.6,4.6755,-1.5585,-1.5574,6.2339,3.7323e-11,-0.77872,0,0,0.066667,-6.3159e-16,0,0.66667
0.16541,0.25694,2.4812,-0.36459,-106.22,2280.3,2.4124,-0.80412,-1.5218,3.2165,4.7847e-10,-0.76089,0,0,0.066667,-0,-0,0.66667
0.51303,0.97731,7.6955,0.71596,158.22,906,-14.693,4.8975,-0.17926,-19.59,1.5633e-11,-0.08963,0,0,0.066667,-0,-0,0.66667
0.97972,0.097678,14.696,-0.60348,-7.145,4.6484,23.65,-7.8832,-0.70229,31.533,4.2949e-05,-0.35115,0,0,0.066667,2.5264e-15,0,0.66667
0.59628,0.15725,8.9442,-0.51412,-99.24,644.39,12.262,-4.0875,-1.0634,16.35,1.0318e-11,-0.53169,0,0,0.066667,-0,-0,0.66667
0.66446,0.059258,9.9669,-0.66111,-110.68,459.04,17.571,-5.8571,-0.44042,23.429,-7.752e-12,-0.22021,0,0,0.066667,1.579e-15,0,0.66667
0.67117,0.20017,10.068,-0.44975,-73.976,441.13,12.074,-4.0248,-1.2894,16.099,7.0726e-12,-0.64469,0,0,0.066667,-0,-0,0.66667
0.19112,0.94306,2.8668,0.66458,192.01,2168.2,-5.0806,1.6935,-0.42893,-6.7741,-9.9025e-10,-0.21446,0,0,0.066667,-0,-0,0.66667
0.24088,0.36424,3.6133,-0.20364,-57.436,1953.2,1.9621,-0.65404,-1.8466,2.6162,1.1833e-11,-0.92328,0,0,0.066667,-3.158e-16,0,0.66667
0.50091,0.16016,7.5137,-0.50976,-114.4,945.9,10.214,-3.4046,-1.0846,13.618,-2.9816e-12,-0.54232,0,0,0.066667,1.2632e-15,0,0.66667
0.46695,0.04271,7.0042,-0.68593,-160.85,1064.3,12.812,-4.2706,-0.33137,17.082,8.0007e-12,-0.16568,0,0,0.066667,-0,-7.334e-17,0.66667
0.32409,0.63384,4.8614,0.20076,53.794,1607.1,-2.6026,0.86755,-1.8546,-3.4702,9.6887e-12,-0.92731,0,0,0.066667,-0,-0,0.66667
0.72003,0.15895,10.801,-0.51157,-73.745,327,14.734,-4.9113,-1.0768,19.645,8.5576e-12,-0.53838,0,0,0.066667,-2.5264e-15,0,0.66667
0.27597,0.20702,4.1395,-0.43946,-121.63,1805.4,4.8511,-1.617,-1.3087,6.4681,1.4591e-11,-0.65434,0,0,0.066667,-3.158e-16,0,0.66667
0.89558,0.50801,13.434,0.012018,0.7066,49.573,-0.43053,0.14351,-1.9957,-0.57404,3.2286e-08,-0.99783,0,0,0.066667,5.0527e-15,0,0.66667
0.12274,0.80724,1.8411,0.46085,136.01,2469.2,-2.2627,0.75422,-1.2482,-3.0169,-1.347e-11,-0.62409,0,0,0.066667,1.579e-16,0,0.66667
0.92163,0.81815,13.824,0.47722,21.394,29.979,-17.593,5.8643,-1.2015,-23.457,-5.9022e-08,-0.60074,0,0,0.066667,-0,-0,0.66667
0.10352,0.98292,1.5528,0.72438,214.96,2555.2,-2.9994,0.99981,-0.12879,-3.9992,-9.279e-07,-0.064397,0,0,0.066667,8.7279e-17,0,0.66667
0.19298,0.15219,2.8947,-0.52172,-150.53,2159.9,4.0273,-1.3424,-1.0281,5.3697,7.2195e-10,-0.51406,0,0,0.066667,3.9475e-16,0,0.66667
0.45235,0.78545,6.7852,0.42817,102,1115.5,-7.7472,2.5824,-1.3572,-10.33,3.6979e-12,-0.67862,0,0,0.066667,-0,-0,0.66667
0.88235,0.31956,13.235,-0.27066,-17.845,62.776,9.5528,-3.1843,-1.7334,12.737,8.8451e-09,-0.86671,0,0,0.066667,-0,-0,0.66667
0.30753,0.56002,4.613,0.090036,24.404,1674.5,-1.1075,0.36918,-1.9681,-1.4767,1.1661e-11,-0.98407,0,0,0.066667,-7.8949e-17,0,0.66667
0.65742,0.57882,9.8614,0.11823,20.071,475.14,-3.109,1.0363,-1.9569,-4.1454,-8.2097e-12,-0.97843,0,0,0.066667,1.2632e-15,0,0.66667
0.33893,0.81709,5.084,0.47563,126.13,1547.8,-6.4483,2.1494,-1.1925,-8.5978,-2.4404e-11,-0.59626,0,0,0.066667,1.2632e-15,0,0.66667
0.016138,0.50406,0.24208,0.0060839,1.8211,2948.3,-0.0039273,0.0013062,-2.0101,-0.0052379,-4.3954e-06,-1.0051,0,0,0.066667,-0,-0,0.66667
0.62443,0.33254,9.3664,-0.25119,-45.843,563.52,6.2739,-2.0913,-1.7849,8.3652,7.4296e-12,-0.89243,0,0,0.066667,-0,-0,0.66667
0.23807,0.99076,3.571,0.73614,208.31,1966,-7.0101,2.3367,-0.071956,-9.3467,2.9202e-11,-0.035978,0,0,0.066667,-3.158e-16,0,0.66667
0.19454,0.27031,2.918,-0.34453,-99.289,2152.9,2.681,-0.89365,-1.5716,3.5746,-1.7612e-10,-0.7858,0,0,0.066667,-3.158e-16,0,0.66667
0.80885,0.463,12.133,-0.0555,-5.7246,158.02,1.7956,-0.59855,-1.9883,2.3942,5.1626e-12,-0.99413,0,0,0.066667,6.3159e-16,0,0.66667
0.61735,0.18407,9.2603,-0.47389,-87.819,583.91,11.702,-3.9008,-1.1959,15.603,1.1751e-12,-0.59794,0,0,0.066667,3.158e-16,0,0.66667
0.79544,0.85,11.932,0.525,57.69,181.27,-16.704,5.5681,-1.0261,-22.272,6.4155e-10,-0.51307,0,0,0.066667,-0,-0,0.66667
0.26534,0.7397,3.9802,0.35954,100.11,1849.8,-3.8161,1.272,-1.5509,-5.0881,1.7167e-11,-0.77546,0,0,0.066667,3.158e-16,0,0.66667
0.047177,0.7115,0.70766,0.31725,94.81,2808.1,-0.59867,0.19956,-1.6529,-0.79823,-1.2647e-06,-0.82644,0,0,0.066667,-3.9475e-17,0,0.66667
0.85345,0.52958,12.802,0.044363,3.5892,95.047,-1.5145,0.50482,-1.9888,-2.0193,4.9523e-10,-0.99438,0,0,0.066667,6.3159e-16,0,0.66667
0.76433,0.44983,11.465,-0.07525,-9.3432,235.34,2.3006,-0.76687,-1.986,3.0675,-6.9207e-12,-0.99301,0,0,0.066667,1.2632e-15,0,0.66667
0.0045005,0.36677,0.067508,-0.19984,-59.842,3000.9,0.035974,-0.011989,-1.855,0.047966,2.8938e-06,-0.9275,0,0,0.066667,4.9343e-18,0,0.66667
0.69985,0.38001,10.498,-0.17998,-27.449,371.38,5.0383,-1.6794,-1.8851,6.7178,1.9984e-12,-0.94256,0,0,0.066667,-0,-0,0.66667
0.24166,0.68772,3.6249,0.28158,79.4,1949.9,-2.7219,0.9073,-1.7132,-3.6292,1.7017e-11,-0.85658,0,0,0.066667,-6.3159e-16,0,0.66667
0.35967,0.78951,5.3951,0.43426,113.26,1465.3,-6.2477,2.0826,-1.3401,-8.3303,2.6545e-11,-0.67006,0,0,0.066667,-6.3159e-16,0,0.66667
0.78074,0.57833,11.711,0.1175,13.696,205.25,-3.6694,1.2231,-1.9603,-4.8925,-1.2602e-11,-0.98013,0,0,0.066667,1.2632e-15,0,0.66667
0.98652,0.59454,14.798,0.14181,1.0597,1.2329,-5.5959,1.8653,-1.933,-7.4612,-4.4482e-07,-0.9665,0,0,0.066667,-0,-0,0.66667
0.24556,0.09409,3.6834,-0.60886,-171.52,1933.8,5.9806,-1.9935,-0.68028,7.9741,-4.9063e-10,-0.34014,0,0,0.066667,-6.3159e-16,0,0.66667
0.4675,0.46054,7.0125,-0.059187,-13.841,1060.8,1.1068,-0.36893,-1.9942,1.4757,1.8296e-13,-0.99709,0,0,0.066667,-6.3159e-16,0,0.66667
0.40034,0.24305,6.005,-0.38542,-96.93,1307.9,6.1719,-2.0573,-1.4668,8.2292,1.2661e-11,-0.73338,0,0,0.066667,-0,-0,0.66667
0.55826,0.97012,8.3739,0.70518,145.57,760.04,-15.747,5.249,-0.23047,-20.996,2.971e-12,-0.11524,0,0,0.066667,-0,8.5418e-17,0.66667
0.52926,0.33967,7.939,-0.2405,-51.813,850.9,5.0915,-1.6972,-1.7988,6.7887,-2.5171e-12,-0.8994,0,0,0.066667,3.158e-16,0,0.66667
0.65803,0.67544,9.8704,0.26316,44.629,473.84,-6.9267,2.3089,-1.7581,-9.2356,-2.8129e-12,-0.87905,0,0,0.066667,-0,-0,0.66667
0.49673,0.93022,7.4509,0.64534,145.73,960.63,-12.822,4.2741,-0.51926,-17.096,-8.3871e-12,-0.25963,0,0,0.066667,3.158e-16,0,0.66667
0.68538,0.31345,10.281,-0.27982,-44.372,405.75,7.6714,-2.5571,-1.7262,10.228,1.2963e-11,-0.86309,0,0,0.066667,-2.5264e-15,0,0.66667
0.31286,0.26721,4.6929,-0.34919,-94.344,1652.9,4.3699,-1.4566,-1.5765,5.8265,3.8663e-11,-0.78824,0,0,0.066667,-6.3159e-16,0,0.66667
0.21438,0.67299,3.2156,0.25948,74.134,2066.9,-2.2251,0.74169,-1.7575,-2.9668,-4.394e-12,-0.87874,0,0,0.066667,-0,-0,0.66667
0.90718,0.53264,13.608,0.048955,2.5715,39.559,-1.7764,0.59214,-2.0004,-2.3686,3.2722e-08,-1.0002,0,0,0.066667,-2.5264e-15,0,0.66667
0.5576,0.59978,8.364,0.14967,30.856,760.33,-3.3382,1.1127,-1.9169,-4.451,4.9749e-12,-0.95844,0,0,0.066667,-1.2632e-15,0,0.66667
0.029017,0.013314,0.43526,-0.73003,-218.8,2890.2,0.84736,-0.28246,-0.10757,1.1298,-8.0689e-06,-0.053784,0,0,0.066667,7.8949e-17,0,0.66667
0.12197,0.56446,1.8295,0.096696,28.522,2472.5,-0.47175,0.15725,-1.9682,-0.629,3.4039e-09,-0.98412,0,0,0.066667,-0,-0,0.66667
0.6814,0.32724,10.221,-0.25913,-41.512,415.35,7.0629,-2.3543,-1.7555,9.4172,5.0835e-12,-0.87773,0,0,0.066667,-0,-0,0.66667
0.80871,0.53475,12.131,0.052121,5.3797,158.24,-1.686,0.56201,-1.9896,-2.248,-1.9316e-12,-0.99478,0,0,0.066667,-2.5264e-15,0,0.66667
0.82348,0.99343,12.352,0.74015,71.46,138.72,-24.38,8.1266,-0.04912,-32.506,-7.8037e-10,-0.02456,0,0,0.066667,-3.7896e-15,0,0.66667
0.4331,0.96494,6.4964,0.69741,169.92,1186.4,-12.082,4.0273,-0.26845,-16.109,-1.8145e-12,-0.13422,0,0,0.066667,-1.8757e-16,0,0.66667
0.58043,0.8931,8.7065,0.58965,117.17,691.64,-13.69,4.5634,-0.76623,-18.254,-5.5973e-12,-0.38311,0,0,0.066667,6.3159e-16,0,0.66667
0.80756,0.54538,12.113,0.068067,7.0636,160.07,-2.1987,0.73292,-1.9794,-2.9317,-1.7893e-11,-0.98968,0,0,0.066667,-0,-0,0.66667
0.95758,0.17055,14.364,-0.49418,-12.147,10.442,18.929,-6.3096,-1.1284,25.238,-1.1527e-05,-0.5642,0,0,0.066667,-0,-0,0.66667
0.87975,0.007039,13.196,-0.73944,-50.13,68.223,26.021,-8.6737,-0.052571,34.695,-3.1879e-08,-0.026286,0,0,0.066667,-0,-0,0.66667
0.38851,0.84028,5.8277,0.51042,129.85,1353.3,-7.9321,2.644,-1.0778,-10.576,-9.6634e-13,-0.53889,0,0,0.066667,-7.8949e-16,0,0.66667
0.96148,0.032333,14.422,-0.7015,-15.848,10.563,26.979,-8.9931,-0.24521,35.972,-6.1686e-05,-0.12261,0,0,0.066667,-2.5264e-15,0,0.66667
0.13705,0.30939,2.0557,-0.28591,-84.019,2405.6,1.5673,-0.52244,-1.7092,2.0898,3.9865e-09,-0.85458,0,0,0.066667,2.3685e-16,0,0.66667
0.90874,0.8535,13.631,0.53024,27.555,39.981,-19.274,6.4247,-1.0024,-25.699,2.697e-07,-0.5012,0,0,0.066667,-2.5264e-15,0,0.66667
0.52131,0.26241,7.8197,-0.35639,-77.7,877.22,7.4316,-2.4772,-1.5432,9.9088,8.9693e-12,-0.77158,0,0,0.066667,-0,-0,0.66667
0.71489,0.51258,10.723,0.018864,2.756,337.1,-0.53943,0.17981,-1.9968,-0.71924,-8.3422e-12,-0.9984,0,0,0.066667,-0,-0,0.66667
0.78467,0.85618,11.77,0.53426,61.44,199.74,-16.769,5.5896,-0.98429,-22.358,-7.6247e-10,-0.49215,0,0,0.066667,-1.2632e-15,0,0.66667
0.33468,0.95295,5.0202,0.67943,180.93,1565.3,-9.0957,3.0319,-0.35246,-12.128,1.9366e-11,-0.17623,0,0,0.066667,-6.3159e-16,0,0.66667
0.87769,0.17375,13.165,-0.48937,-33.554,68.579,17.181,-5.7269,-1.1497,22.908,-2.6191e-08,-0.57486,0,0,0.066667,1.2632e-15,0,0.66667
0.25801,0.39871,3.8702,-0.15194,-42.463,1880.5,1.5681,-0.5227,-1.9117,2.0908,-4.4407e-12,-0.95586,0,0,0.066667,-5.1252e-18,0,0.66667
0.083575,0.99267,1.2536,0.73901,220.14,2644.6,-2.4705,0.8235,-0.053685,-3.294,-3.513e-07,-0.026842,0,0,0.066667,7.8949e-17,0,0.66667
0.75937,0.67058,11.391,0.25587,32.365,245.11,-7.7719,2.5906,-1.7613,-10.363,-7.145e-12,-0.88065,0,0,0.066667,-0,-0,0.66667
0.89508,0.6414,13.426,0.2121,12.537,50.3,-7.5938,2.5313,-1.8368,-10.125,3.6056e-08,-0.91838,0,0,0.066667,-0,-0,0.66667
0.92645,0.20862,13.897,-0.43707,-18.411,26.49,16.197,-5.3989,-1.3175,21.596,-3.2156e-07,-0.65874,0,0,0.066667,-0,-0,0.66667
0.37407,0.017349,5.6111,-0.72398,-186.77,1409.8,10.833,-3.6109,-0.14395,14.444,1.2055e-11,-0.071976,0,0,0.066667,-1.2632e-15,-7.7988e-17,0.66667
0.34146,0.90198,5.1219,0.60297,159.67,1538,-8.2356,2.7452,-0.7107,-10.981,1.2269e-11,-0.35535,0,0,0.066667,-0,3.8751e-17,0.66667
0.25569,0.40847,3.8353,-0.13729,-38.416,1890.3,1.4041,-0.46804,-1.9289,1.8721,-1.7755e-12,-0.96446,0,0,0.066667,-0,-0,0.66667
0.47079,0.10481,7.0619,-0.59278,-138.29,1050.3,11.163,-3.721,-0.75408,14.884,-1.4646e-12,-0.37704,0,0,0.066667,-0,-0,0.66667
0.96717,0.76345,14.508,0.39517,7.4888,6.5004,-15.288,5.096,-1.4498,-20.384,-1.8244e-06,-0.7249,0,0,0.066667,2.5264e-15,0,0.66667
0.49887,0.13493,7.483,-0.5476,-123.25,952.98,10.927,-3.6424,-0.94074,14.57,4.5191e-12,-0.47037,0,0,0.066667,-0,-0,0.66667
0.23907,0.0486,3.5861,-0.6771,-191.45,1961.6,6.4751,-2.1584,-0.36616,8.6334,2.0106e-11,-0.18308,0,0,0.066667,-3.158e-16,0,0.66667
0.20791,0.67548,3.1187,0.26322,75.418,2094.8,-2.1891,0.7297,-1.7498,-2.9188,2.1327e-11,-0.87491,0,0,0.066667,-0,-0,0.66667
0.92671,0.2321,13.901,-0.40186,-16.857,26.136,14.896,-4.9654,-1.4218,19.862,-3.49e-07,-0.71092,0,0,0.066667,-0,-0,0.66667
0.68793,0.44692,10.319,-0.079618,-12.536,399.31,2.1909,-0.73029,-1.9874,2.9212,2.9241e-12,-0.9937,0,0,0.066667,-0,-0,0.66667
0.70478,0.51191,10.572,0.017863,2.6866,359.87,-0.50359,0.16786,-2.0037,-0.67145,4.4236e-12,-1.0018,0,0,0.066667,-2.5264e-15,0,0.66667
0.5889,0.30196,8.8335,-0.29706,-58.065,665.39,6.9974,-2.3325,-1.6824,9.3299,1.3912e-11,-0.84119,0,0,0.066667,-6.3159e-16,0,0.66667
0.61873,0.89418,9.2809,0.59128,109.35,580.57,-14.634,4.8779,-0.75107,-19.511,1.2957e-11,-0.37554,0,0,0.066667,-6.3159e-16,0,0.66667
0.045998,0.26669,0.68997,-0.34996,-104.61,2813.5,0.64389,-0.21463,-1.5723,0.85852,2.1619e-06,-0.78616,0,0,0.066667,-0,-0,0.66667
0.35616,0.15751,5.3424,-0.51374,-134.41,1479.3,7.3189,-2.4396,-1.0627,9.7586,3.5665e-11,-0.53136,0,0,0.066667,-1.2632e-15,0,0.66667
0.079759,0.31915,1.1964,-0.27128,-80.727,2661.4,0.86547,-0.28849,-1.7437,1.154,1.2229e-07,-0.87184,0,0,0.066667,-0,-0,0.66667
0.32577,0.26516,4.8866,-0.35227,-94.304,1600.5,4.5903,-1.5301,-1.5611,6.1204,2.4044e-11,-0.78053,0,0,0.066667,6.3159e-16,0,0.66667
0.71057,0.86564,10.659,0.54846,81.313,348.17,-15.589,5.1962,-0.9241,-20.785,-1.9602e-12,-0.46205,0,0,0.066667,6.3159e-16,0,0.66667
0.072478,0.94864,1.0872,0.67296,200.75,2694.3,-1.951,0.65032,-0.38464,-2.6013,-9.9365e-06,-0.19232,0,0,0.066667,-1.579e-16,0,0.66667
0.89901,0.46539,13.485,-0.051917,-2.9569,46.514,1.867,-0.62232,-1.9849,2.4893,1.3127e-09,-0.99245,0,0,0.066667,1.579e-15,0,0.66667
0.35431,0.52119,5.3147,0.031781,8.3188,1486,-0.45041,0.15014,-1.9922,-0.60054,5.5325e-12,-0.99611,0,0,0.066667,-0,-0,0.66667
0.089774,0.16373,1.3466,-0.5044,-149.94,2616.6,1.8113,-0.60376,-1.0936,2.4151,2.0355e-07,-0.5468,0,0,0.066667,-0,-0,0.66667
0.10048,0.3792,1.5072,-0.1812,-53.712,2568.5,0.72826,-0.24275,-1.8779,0.97102,3.4387e-08,-0.93893,0,0,0.066667,3.158e-16,0,0.66667
0.14697,0.39758,2.2046,-0.15364,-45.009,2361.5,0.90322,-0.30107,-1.9104,1.2043,-6.0181e-11,-0.95519,0,0,0.066667,-0,-0,0.66667
0.70481,0.67651,10.572,0.26476,39.837,360.15,-7.4642,2.4881,-1.7555,-9.9523,-3.9519e-12,-0.87776,0,0,0.066667,6.3159e-16,0,0.66667
0.94314,0.62989,14.147,0.19483,6.3519,15.719,-7.3503,2.4501,-1.8606,-9.8003,2.3277e-07,-0.93029,0,0,0.066667,-0,-0,0.66667
0.76054,0.50738,11.408,0.011072,1.3938,242.53,-0.33683,0.11228,-1.9956,-0.4491,-9.6326e-12,-0.9978,0,0,0.066667,-0,-0,0.66667
0.39221,0.48698,5.8831,-0.019537,-4.9481,1338.5,0.3065,-0.10217,-2.0037,0.40867,1.4697e-11,-1.0018,0,0,0.066667,1.2632e-15,0,0.66667
0.76781,0.75678,11.517,0.38517,47.263,229.51,-11.829,3.9431,-1.4759,-15.773,-7.288e-11,-0.73794,0,0,0.066667,-0,-0,0.66667
0.83593,0.072058,12.539,-0.64191,-57.907,120.29,21.464,-7.1546,-0.52851,28.618,3.8711e-08,-0.26425,0,0,0.066667,-0,-0,0.66667
0.061478,0.8206,0.92216,0.4809,143.56,2743.7,-1.1826,0.3942,-1.1853,-1.5768,6.7604e-07,-0.59264,0,0,0.066667,-0,-0,0.66667
0.31055,0.99724,4.6582,0.74587,202.18,1663.3,-9.2651,3.0884,-0.02677,-12.353,1.3062e-11,-0.013385,0,0,0.066667,2.3685e-16,0,0.66667
0.74228,0.9939,11.134,0.74086,99.787,281.41,-21.997,7.3323,-0.04244,-29.329,1.2012e-11,-0.02122,0,0,0.066667,-0,-0,0.66667
0.26043,0.072377,3.9064,-0.64143,-179.28,1871,6.6819,-2.2273,-0.53272,8.9092,-1.2525e-10,-0.26636,0,0,0.066667,6.3159e-16,0,0.66667
0.91053,0.052706,13.658,-0.67094,-34.328,39.582,24.436,-8.1455,-0.39674,32.582,3.2539e-06,-0.19837,0,0,0.066667,-1.2632e-15,0,0.66667
0.24225,0.72889,3.6337,0.34334,96.798,1947.5,-3.3269,1.109,-1.5744,-4.4359,1.0785e-11,-0.7872,0,0,0.066667,6.3159e-16,0,0.66667
0.78725,0.76106,11.809,0.39159,44.504,194.57,-12.331,4.1104,-1.4492,-16.442,1.2782e-10,-0.72462,0,0,0.066667,-0,-0,0.66667
0.39894,0.64504,5.9841,0.21756,54.763,1312.9,-3.4717,1.1572,-1.8253,-4.629,1.025e-11,-0.91263,0,0,0.066667,-0,-0,0.66667
0.88796,0.10982,13.319,-0.58527,-37.007,58.787,20.788,-6.9293,-0.78334,27.717,6.0146e-08,-0.39167,0,0,0.066667,1.2632e-15,0,0.66667
0.28813,0.41267,4.3219,-0.131,-35.962,1754.5,1.5098,-0.50325,-1.9332,2.013,2.1535e-11,-0.96658,0,0,0.066667,-0,-0,0.66667
0.57639,0.28541,8.6459,-0.32189,-64.331,702.87,7.4214,-2.4738,-1.6369,9.8952,1.0689e-11,-0.81847,0,0,0.066667,-0,-0,0.66667
0.015374,0.97498,0.23061,0.71246,213.65,2951.8,-0.43801,0.14598,-0.20637,-0.58403,-4.1574e-05,-0.10318,0,0,0.066667,-3.9475e-17,0,0.66667
0.80519,0.4797,12.078,-0.030446,-3.1943,163.84,0.98058,-0.32686,-1.9903,1.3074,-1.1849e-11,-0.99513,0,0,0.066667,1.2632e-15,0,0.66667
0.033564,0.84901,0.50346,0.52351,156.72,2869.6,-0.70286,0.23429,-1.0287,-0.93715,1.4483e-06,-0.51436,0,0,0.066667,-0,-0,0.66667
0.64091,0.62328,9.6137,0.18493,32.588,518.58,-4.7408,1.5803,-1.8901,-6.3211,-7.4287e-12,-0.94504,0,0,0.066667,1.8948e-15,0,0.66667
0.56365,0.89242,8.4547,0.58864,120.36,742.76,-13.271,4.4238,-0.7747,-17.695,2.5251e-12,-0.38735,0,0,0.066667,6.3159e-16,0,0.66667
0.92841,0.097254,13.926,-0.60412,-24.896,26.291,22.435,-7.4783,-0.69721,29.913,-3.0136e-06,-0.34861,0,0,0.066667,2.5264e-15,0,0.66667
0.91911,0.48623,13.787,-0.020661,-0.95013,30.369,0.7596,-0.2532,-1.9995,1.0128,-2.4438e-08,-0.99974,0,0,0.066667,-2.3516e-15,0,0.66667
0.24888,0.1898,3.7332,-0.4653,-130.78,1919.5,4.6321,-1.544,-1.2382,6.1762,7.1423e-11,-0.61911,0,0,0.066667,-0,-0,0.66667
0.26552,0.39479,3.9827,-0.15782,-43.92,1848.9,1.6762,-0.55872,-1.9227,2.2349,2.4927e-11,-0.96134,0,0,0.066667,-0,-0,0.66667
0.65743,0.069376,9.8614,-0.64594,-109.93,476.91,16.986,-5.6621,-0.52358,22.648,-1.1475e-12,-0.26179,0,0,0.066667,-0,-0,0.66667
0.28227,0.29315,4.234,-0.31028,-85.518,1779,3.5033,-1.1678,-1.665,4.6711,1.7051e-11,-0.83248,0,0,0.066667,-6.3159e-16,0,0.66667
0.17582,0.39995,2.6373,-0.15008,-43.548,2234.5,1.0555,-0.35183,-1.9183,1.4073,-9.3072e-11,-0.95917,0,0,0.066667,1.579e-16,0,0.66667
0.17263,0.92572,2.5895,0.63858,185.76,2248.9,-4.4095,1.4698,-0.55848,-5.8793,1.842e-08,-0.27924,0,0,0.066667,1.579e-16,0,0.66667
0.027872,0.40841,0.41808,-0.13738,-41.104,2895.3,0.15316,-0.051055,-1.9334,0.20421,-1.719e-06,-0.9667,0,0,0.066667,-0,-0,0.66667
0.46709,0.0049423,7.0063,-0.74259,-174.16,1064,13.874,-4.6247,-0.044814,18.499,1.7204e-12,-0.022407,0,0,0.066667,2.5264e-15,0,0.66667
0.48856,0.11444,7.3284,-0.57834,-131.95,988.35,11.302,-3.7674,-0.80821,15.07,1.6911e-12,-0.40411,0,0,0.066667,-0,-0,0.66667
0.42371,0.52207,6.3557,0.033105,8.1292,1219.6,-0.56108,0.18703,-2.0004,-0.7481,-8.5495e-12,-1.0002,0,0,0.066667,-0,-0,0.66667
0.98837,0.83094,14.825,0.49641,3.2821,2.4773,-19.626,6.5419,-1.1216,-26.167,3.3926e-05,-0.56078,0,0,0.066667,-1.2632e-15,0,0.66667
0.64354,0.43627,9.653,-0.095602,-16.748,511.47,2.4609,-0.82031,-1.9695,3.2813,2.0106e-11,-0.98474,0,0,0.066667,-1.4211e-15,0,0.66667
0.56225,0.96832,8.4338,0.70247,144.07,747.63,-15.799,5.2662,-0.25756,-21.065,2.8626e-12,-0.12878,0,0,0.066667,-1.579e-15,-4.3244e-18,0.66667
0.086457,0.071829,1.2968,-0.64226,-191.14,2631.6,2.2211,-0.74037,-0.52704,2.9615,-1.169e-06,-0.26352,0,0,0.066667,-0,-0,0.66667
0.45235,0.17326,6.7853,-0.49011,-116.78,1115.6,8.868,-2.956,-1.1542,11.824,-1.0649e-12,-0.57708,0,0,0.066667,-0,-1.6386e-17,0.66667
0.069724,0.16381,1.0459,-0.50429,-150.39,2706.6,1.4064,-0.46881,-1.0897,1.8752,4.681e-07,-0.54484,0,0,0.066667,-0,-0,0.66667
0.48716,0.80888,7.3073,0.46332,105.84,992.81,-9.0283,3.0094,-1.2387,-12.038,5.4516e-12,-0.61934,0,0,0.066667,1.579e-16,0,0.66667
0.01559,0.68949,0.23385,0.28424,85.11,2950.8,-0.17726,0.059086,-1.7255,-0.23634,1.4929e-06,-0.86275,0,0,0.066667,-0,-0,0.66667
0.14153,0.99532,2.1229,0.74299,218.42,2386.1,-4.2061,1.402,-0.045721,-5.6081,-3.9532e-09,-0.02286,0,0,0.066667,3.158e-16,0,0.66667
0.61893,0.79952,9.2839,0.44927,82.982,579.39,-11.123,3.7076,-1.2766,-14.83,6.7901e-12,-0.6383,0,0,0.066667,-0,-0,0.66667
0.67615,0.453,10.142,-0.070506,-11.441,427.91,1.9069,-0.63564,-1.9794,2.5425,2.5875e-12,-0.9897,0,0,0.066667,-0,-0,0.66667
0.60372,0.039058,9.0559,-0.69141,-131.76,623.65,16.697,-5.5656,-0.29542,22.263,-4.2633e-13,-0.14771,0,0,0.066667,-0,-0,0.66667
0.25097,0.0015909,3.7646,-0.74761,-210.15,1911.2,7.5053,-2.5018,-0.02144,10.007,-3.6979e-12,-0.01072,0,0,0.066667,-1.2632e-15,0,0.66667
0.066186,0.65806,0.99279,0.23709,70.692,2722.5,-0.62769,0.20923,-1.7999,-0.83692,-3.9441e-07,-0.89995,0,0,0.066667,-0,-0,0.66667
0.67727,0.69347,10.159,0.29021,46.983,425.5,-7.8621,2.6207,-1.6963,-10.483,-2.1143e-12,-0.84813,0,0,0.066667,-0,-0,0.66667
0.76834,0.83041,11.525,0.49562,60.747,229.03,-15.232,5.0774,-1.1278,-20.31,1.2505e-10,-0.56389,0,0,0.066667,-0,-0,0.66667
0.11928,0.61932,1.7891,0.17898,52.831,2484.5,-0.8539,0.28463,-1.8814,-1.1385,2.8227e-09,-0.94072,0,0,0.066667,-2.3685e-16,0,0.66667
0.73956,0.43683,11.093,-0.094753,-12.824,284.31,2.803,-0.93434,-1.965,3.7374,-5.3073e-12,-0.98252,0,0,0.066667,-1.3269e-15,0,0.66667
0.77319,0.22674,11.598,-0.40989,-49.288,219.68,12.677,-4.2257,-1.3964,16.903,7.1431e-11,-0.69819,0,0,0.066667,-0,-0,0.66667
0.10997,0.99691,1.6496,0.74537,220.9,2526.4,-3.2788,1.0929,-0.034658,-4.3717,2.4233e-07,-0.017329,0,0,0.066667,2.3685e-16,0,0.66667
0.48647,0.34491,7.297,-0.23263,-53.151,994.66,4.5268,-1.5089,-1.8122,6.0357,2.4261e-12,-0.90609,0,0,0.066667,1.2632e-15,0,0.66667
0.005725,0.5176,0.085875,0.026396,7.9033,2995.4,-0.0060447,0.0020161,-1.9922,-0.008059,1.8346e-06,-0.99609,0,0,0.066667,-0,-0,0.66667
0.62591,0.6763,9.3887,0.26446,48.12,559.45,-6.6211,2.207,-1.7591,-8.8281,7.4629e-12,-0.87954,0,0,0.066667,-6.3159e-16,0,0.66667
0.85898,0.92844,12.885,0.64266,50.441,90.639,-22.081,7.3604,-0.54169,-29.442,-9.5174e-08,-0.27084,0,0,0.066667,-1.2632e-15,6.5023e-17,0.66667
0.86017,0.92623,12.903,0.63934,49.786,89.196,-21.998,7.3326,-0.55486,-29.33,-1.2387e-07,-0.27743,0,0,0.066667,1.2632e-15,0,0.66667
0.93728,0.49991,14.059,-0.00014202,-0.005094,18.666,0.0053244,-0.0017746,-2.0123,0.0070993,3.4309e-07,-1.0061,0,0,0.066667,1.4507e-15,0,0.66667
0.78384,0.16209,11.758,-0.50686,-58.473,201.05,15.892,-5.2973,-1.0887,21.189,6.1318e-10,-0.54436,0,0,0.066667,-0,-0,0.66667
0.43204,0.63106,6.4806,0.19659,47.861,1189,-3.3973,1.1324,-1.8582,-4.5298,-2.21e-12,-0.92911,0,0,0.066667,-0,-0,0.66667
0.77402,0.82197,11.61,0.48296,57.92,218.5,-14.953,4.9843,-1.1644,-19.937,3.5357e-11,-0.58218,0,0,0.066667,-0,-0,0.66667
0.98356,0.79208,14.753,0.43813,4.1189,2.8184,-17.237,5.7456,-1.3256,-22.983,-2.7984e-07,-0.66281,0,0,0.066667,-0,-0,0.66667
0.36725,0.30389,5.5088,-0.29416,-76.201,1435.3,4.3213,-1.4404,-1.686,5.7617,-7.4429e-12,-0.843,0,0,0.066667,3.158e-16,0,0.66667
0.035895,0.38261,0.53842,-0.17608,-52.659,2859,0.25282,-0.084272,-1.8866,0.33709,-5.6158e-08,-0.94328,0,0,0.066667,-0,-0,0.66667
0.50774,0.93897,7.6161,0.65846,146.52,923.44,-13.373,4.4577,-0.45317,-17.831,1.2808e-11,-0.22659,0,0,0.066667,-0,-0,0.66667
0.3525,0.28517,5.2875,-0.32224,-84.506,1493.5,4.5435,-1.5145,-1.6253,6.0581,2.0016e-11,-0.81267,0,0,0.066667,-0,-0,0.66667
0.17606,0.8255,2.6409,0.48825,141.77,2233.7,-3.4385,1.1462,-1.1497,-4.5847,5.0408e-10,-0.57486,0,0,0.066667,-0,-0,0.66667
0.9343,0.093621,14.015,-0.60957,-23.118,22.708,22.781,-7.5936,-0.68025,30.374,8.0095e-07,-0.34012,0,0,0.066667,-5.9457e-16,-7.9598e-17,0.66667
0.11962,0.29154,1.7943,-0.31269,-92.315,2483.1,1.4962,-0.49872,-1.6476,1.9949,-1.6149e-08,-0.82382,0,0,0.066667,-0,-0,0.66667
0.65426,0.067241,9.8139,-0.64914,-111.29,485.1,16.988,-5.6627,-0.50609,22.651,-4.0625e-12,-0.25304,0,0,0.066667,2.5264e-15,0,0.66667
0.16873,0.39863,2.5309,-0.15206,-44.234,2265.6,1.0263,-0.3421,-1.9181,1.3684,-2.7722e-10,-0.95905,0,0,0.066667,-0,-0,0.66667
0.79644,0.5388,11.947,0.058205,6.3516,178.16,-1.8543,0.61809,-1.9981,-2.4723,-2.9802e-11,-0.99903,0,0,0.066667,-0,-0,0.66667
0.25811,0.11011,3.8716,-0.58483,-163.63,1880.7,6.0379,-2.0126,-0.77727,8.0505,1.3321e-10,-0.38864,0,0,0.066667,-3.158e-16,0,0.66667
0.69801,0.40249,10.47,-0.14627,-22.419,375.6,4.0838,-1.3613,-1.9204,5.4451,-2.4869e-13,-0.96021,0,0,0.066667,-0,-0,0.66667
0.62789,0.78602,9.4184,0.42902,77.796,554.48,-10.775,3.5917,-1.347,-14.367,1.0827e-11,-0.67349,0,0,0.066667,-1.2632e-15,0,0.66667
0.7158,0.76846,10.737,0.40269,58.743,335.85,-11.53,3.8433,-1.4239,-15.373,3.8858e-12,-0.71195,0,0,0.066667,-0,-0,0.66667
0.25083,0.34714,3.7624,-0.22928,-64.337,1910.9,2.3005,-0.76682,-1.8221,3.0673,4.1056e-13,-0.91104,0,0,0.066667,6.3159e-16,0,0.66667
0.50402,0.10931,7.5604,-0.58603,-131.01,935.65,11.815,-3.9383,-0.77653,15.753,2.121e-12,-0.38826,0,0,0.066667,6.3159e-16,0,0.66667
0.34213,0.071777,5.132,-0.64233,-170.04,1535.4,8.7906,-2.9302,-0.53813,11.721,2.0195e-11,-0.26907,0,0,0.066667,-0,6.5919e-17,0.66667
0.1803,0.45204,2.7045,-0.071934,-20.837,2214.9,0.51879,-0.17293,-1.975,0.69171,6.6686e-12,-0.98752,0,0,0.066667,-0,-0,0.66667
0.47551,0.66229,7.1326,0.24344,56.392,1032.8,-4.6303,1.5434,-1.7836,-6.1738,1.0685e-11,-0.89179,0,0,0.066667,-1.2632e-15,0,0.66667
0.91212,0.0070378,13.682,-0.73944,-37.263,38.924,26.979,-8.9928,-0.050875,35.971,-9.481e-07,-0.025437,0,0,0.066667,-0,-0,0.66667
0.56794,0.72272,8.5191,0.33408,67.739,728.65,-7.5895,2.5298,-1.5991,-10.119,1.0986e-11,-0.79957,0,0,0.066667,-1.2632e-15,0,0.66667
0.63089,0.86916,9.4633,0.55374,99.854,546.79,-13.974,4.658,-0.90489,-18.632,7.4039e-12,-0.45244,0,0,0.066667,-6.3159e-16,0,0.66667
0.54925,0.27158,8.2387,-0.34263,-71.622,786.93,7.5276,-2.5092,-1.585,10.037,1.1969e-11,-0.79252,0,0,0.066667,-0,-0,0.66667
0.04503,0.67377,0.67545,0.26065,77.904,2817.8,-0.46949,0.15649,-1.7625,-0.62598,-1.2747e-06,-0.88124,0,0,0.066667,-0,-0,0.66667
0.86867,0.98423,13.03,0.72634,53.451,80.065,-25.238,8.4127,-0.11817,-33.651,6.7741e-08,-0.059085,0,0,0.066667,7.9423e-16,0,0.66667
0.12479,0.15424,1.8719,-0.51864,-153.01,2460.2,2.5889,-0.86297,-1.0556,3.4519,4.403e-08,-0.5278,0,0,0.066667,-5.9212e-17,8.8117e-17,0.66667
0.73641,0.81132,11.046,0.46697,63.954,291.86,-13.755,4.5851,-1.2295,-18.34,-3.6686e-11,-0.61473,0,0,0.066667,-7.8949e-17,0,0.66667
0.45176,0.65296,6.7764,0.22943,54.662,1117.2,-4.146,1.382,-1.8197,-5.5279,8.4777e-13,-0.90984,0,0,0.066667,6.3159e-16,0,0.66667
0.71027,0.3137,10.654,-0.27946,-41.402,347.78,7.9396,-2.6465,-1.7172,10.586,1.3012e-12,-0.85862,0,0,0.066667,-0,-0,0.66667
0.86113,0.44997,12.917,-0.075042,-5.7752,85.749,2.5848,-0.86161,-1.9844,3.4464,1.1621e-10,-0.99219,0,0,0.066667,-0,-0,0.66667
0.69657,0.46552,10.449,-0.051721,-7.9575,378.86,1.4411,-0.48036,-1.9854,1.9215,2.9864e-12,-0.99268,0,0,0.066667,-3.158e-16,0,0.66667
0.8539,0.69472,12.809,0.29208,23.588,94.962,-9.9763,3.3254,-1.6921,-13.302,-6.3977e-10,-0.84607,0,0,0.066667,-0,-0,0.66667
0.48707,0.91018,7.306,0.61527,140.67,993.64,-11.987,3.9957,-0.65616,-15.983,-1.4195e-11,-0.32808,0,0,0.066667,1.2632e-15,0,0.66667
0.091798,0.17658,1.377,-0.48514,-144.15,2607.5,1.7814,-0.59379,-1.167,2.3752,1.7594e-07,-0.58348,0,0,0.066667,-0,-0,0.66667
0.37859,0.86533,5.6789,0.54799,140.68,1391.7,-8.2985,2.7662,-0.93122,-11.065,-7.7565e-12,-0.46561,0,0,0.066667,-0,-0,0.66667
0.19142,0.84459,2.8713,0.51689,149.23,2166.7,-3.9577,1.3192,-1.0495,-5.2769,-8.6154e-11,-0.52473,0,0,0.066667,6.3159e-16,0,0.66667
0.76352,0.74686,11.453,0.3703,46.165,237.55,-11.309,3.7697,-1.5166,-15.079,-2.5042e-11,-0.75832,0,0,0.066667,1.8948e-15,0,0.66667
0.69537,0.86598,10.431,0.54896,84.906,383.06,-15.269,5.0898,-0.92213,-20.359,9.6225e-12,-0.46107,0,0,0.066667,-6.3159e-16,0,0.66667
0.57953,0.73197,8.6929,0.34795,69.168,693.47,-8.066,2.6887,-1.5752,-10.755,5.7021e-13,-0.7876,0,0,0.066667,-0,-0,0.66667
0.76884,0.2495,11.533,-0.37575,-45.927,227.56,11.556,-3.8519,-1.4993,15.408,7.8357e-11,-0.74963,0,0,0.066667,-7.8949e-17,0,0.66667
0.36936,0.33561,5.5405,-0.24659,-63.755,1427,3.6432,-1.2144,-1.7789,4.8576,7.1263e-12,-0.88947,0,0,0.066667,-6.3159e-16,0,0.66667
0.36918,0.26958,5.5377,-0.34564,-89.4,1427.9,5.104,-1.7013,-1.5699,6.8054,-3.5882e-13,-0.78493,0,0,0.066667,-0,-0,0.66667
0.70021,0.80624,10.503,0.45936,70.074,371.37,-12.866,4.2886,-1.2509,-17.154,3.0846e-12,-0.62544,0,0,0.066667,-6.3159e-16,0,0.66667
0.4523,0.48638,6.7845,-0.020432,-4.8638,1115.1,0.36967,-0.12322,-2.0065,0.49289,1.3125e-11,-1.0033,0,0,0.066667,-6.3159e-16,0,0.66667
0.81192,0.41743,12.179,-0.12386,-12.593,153.29,4.0226,-1.3409,-1.9546,5.3634,1.2305e-11,-0.9773,0,0,0.066667,-0,-0,0.66667
0.15461,0.13783,2.3192,-0.54326,-158.93,2328.1,3.3597,-1.1199,-0.95548,4.4796,8.9168e-09,-0.47774,0,0,0.066667,-0,-2.7431e-17,0.66667
0.58986,0.062843,8.8478,-0.65574,-128.19,663.9,15.472,-5.1572,-0.47072,20.629,9.5595e-12,-0.23536,0,0,0.066667,-2.5264e-15,0,0.66667
0.37357,0.91616,5.6035,0.62424,161.03,1411.4,-9.3278,3.1093,-0.62026,-12.437,-2.7587e-12,-0.31013,0,0,0.066667,-0,-6.8385e-17,0.66667
0.24708,0.90333,3.7062,0.605,170.3,1927.4,-5.9793,1.9931,-0.70022,-7.9724,4.499e-10,-0.35011,0,0,0.066667,4.737e-16,0,0.66667
0.25433,0.54885,3.8149,0.073281,20.52,1896,-0.74551,0.2485,-1.9779,-0.99401,5.6725e-12,-0.98895,0,0,0.066667,3.158e-16,0,0.66667
0.74375,0.974,11.156,0.711,95.269,278.21,-21.152,7.0507,-0.19741,-28.203,2.7701e-11,-0.098706,0,0,0.066667,-0,-0,0.66667
0.32886,0.76158,4.933,0.39237,104.81,1588.1,-5.1614,1.7205,-1.4611,-6.8819,7.4971e-12,-0.73053,0,0,0.066667,-0,-0,0.66667
0.22792,0.93173,3.4187,0.6476,184.09,2009.2,-5.9039,1.968,-0.50341,-7.8719,1.4963e-09,-0.25171,0,0,0.066667,6.0865e-16,0,0.66667
0.90536,0.10871,13.58,-0.58694,-31.62,43.127,21.256,-7.0852,-0.78281,28.341,-1.6557e-07,-0.3914,0,0,0.066667,-1.2632e-15,0,0.66667
0.41629,0.82019,6.2444,0.48029,118.95,1247.9,-7.9976,2.6659,-1.1751,-10.663,5.3562e-12,-0.58754,0,0,0.066667,-0,-0,0.66667
0.5344,0.68411,8.0159,0.27616,59.05,834.3,-5.9032,1.9677,-1.7297,-7.871,2.0898e-11,-0.86487,0,0,0.066667,1.579e-16,0,0.66667
0.37206,0.68099,5.5809,0.27149,70.034,1416.5,-4.0404,1.3468,-1.739,-5.3872,4.6323e-12,-0.86948,0,0,0.066667,3.158e-16,0,0.66667
0.23386,0.78922,3.5079,0.43383,122.86,1983.4,-4.0581,1.3527,-1.3405,-5.4108,7.4573e-11,-0.67026,0,0,0.066667,-0,-0,0.66667
0.10234,0.046824,1.5352,-0.67976,-201.72,2560.4,2.7828,-0.92759,-0.35056,3.7104,1.3189e-06,-0.17528,0,0,0.066667,-1.579e-16,0,0.66667
0.055182,0.11138,0.82773,-0.58293,-174.21,2772.1,1.2867,-0.4289,-0.78523,1.7156,-7.883e-06,-0.39262,0,0,0.066667,-0,-0,0.66667
0.87287,0.84851,13.093,0.52276,37.183,73.937,-18.252,6.0841,-1.0322,-24.336,2.4469e-08,-0.51609,0,0,0.066667,-0,-0,0.66667
0.17297,0.49719,2.5945,-0.0042215,-1.2261,2247,0.029207,-0.0097358,-2.008,0.038943,4.4035e-10,-1.004,0,0,0.066667,1.9737e-16,0,0.66667
0.53895,0.14865,8.0843,-0.52702,-112.03,820.33,11.362,-3.7872,-1.0062,15.149,-4.8699e-12,-0.50311,0,0,0.066667,3.158e-16,0,0.66667
0.97872,0.76989,14.681,0.40483,4.9455,3.5441,-15.849,5.2829,-1.4121,-21.132,-1.1325e-05,-0.70607,0,0,0.066667,-1.2632e-15,0,0.66667
0.16733,0.61453,2.5099,0.1718,50.002,2271.8,-1.1499,0.38329,-1.8918,-1.5332,1.8012e-10,-0.94589,0,0,0.066667,-1.579e-16,0,0.66667
0.59576,0.51283,8.9365,0.019248,3.7136,644.84,-0.45869,0.1529,-2.0022,-0.61158,1.1824e-13,-1.0011,0,0,0.066667,-0,-0,0.66667
0.75137,0.4879,11.27,-0.018156,-2.3612,260.41,0.54566,-0.18189,-2.0047,0.72755,7.6087e-12,-1.0024,0,0,0.066667,-1.2632e-15,0,0.66667
0.079887,0.045654,1.1983,-0.68152,-203.08,2661.1,2.1778,-0.72592,-0.35287,2.9037,2.8116e-06,-0.17644,0,0,0.066667,1.579e-16,0,0.66667
0.45273,0.53329,6.7909,0.049934,11.881,1113.6,-0.90427,0.30142,-2.0022,-1.2057,-2.8837e-12,-1.0011,0,0,0.066667,-0,-0,0.66667
0.79183,0.43959,11.877,-0.090617,-10.088,185.95,2.8701,-0.95671,-1.9677,3.8268,1.859e-11,-0.98385,0,0,0.066667,-0,-0,0.66667
0.72178,0.43784,10.827,-0.093233,-13.345,321.98,2.6917,-0.89725,-1.9709,3.589,9.9698e-14,-0.98546,0,0,0.066667,-0,-0,0.66667
0.67856,0.73304,10.178,0.34957,56.423,422.51,-9.4881,3.1627,-1.5592,-12.651,4.4365e-12,-0.77962,0,0,0.066667,-1.2632e-15,0,0.66667
0.76669,0.72132,11.5,0.33197,40.895,231.42,-10.181,3.3936,-1.6163,-13.574,-1.9888e-11,-0.80817,0,0,0.066667,-2.5264e-15,0,0.66667
0.5821,0.8082,8.7315,0.4623,91.529,686.11,-10.764,3.5881,-1.2387,-14.352,-1.5916e-12,-0.61936,0,0,0.066667,-3.158e-16,0,0.66667
0.3749,0.9999,5.6235,0.74985,193.34,1406.7,-11.245,3.7482,-0.013644,-14.993,-2.5932e-11,-0.0068219,0,0,0.066667,-1.2252e-15,1.0064e-18,0.66667
0.44709,0.66049,6.7064,0.24073,57.658,1134.1,-4.3052,1.4351,-1.7891,-5.7403,-3.2472e-12,-0.89456,0,0,0.066667,-0,-0,0.66667
0.28043,0.33445,4.2064,-0.24833,-68.51,1786.6,2.7855,-0.92849,-1.789,3.714,1.9097e-11,-0.8945,0,0,0.066667,-0,-0,0.66667
0.33926,0.57442,5.0888,0.11163,29.572,1546,-1.5149,0.50497,-1.9524,-2.0199,1.1785e-11,-0.97621,0,0,0.066667,-0,-0,0.66667
0.88017,0.72153,13.202,0.3323,22.305,65.234,-11.699,3.8997,-1.604,-15.599,-1.8817e-08,-0.80199,0,0,0.066667,-0,-0,0.66667
0.53635,0.94941,8.0452,0.67411,143.98,829.34,-14.462,4.8208,-0.37988,-19.283,7.3266e-12,-0.18994,0,0,0.066667,-0,-0,0.66667
0.073744,0.57596,1.1062,0.11395,33.933,2688.4,-0.33612,0.11204,-1.9507,-0.44815,-1.6701e-07,-0.97536,0,0,0.066667,-0,-0,0.66667
0.67227,0.53905,10.084,0.058574,9.5965,437.51,-1.5751,0.52503,-1.9981,-2.1001,1.5812e-12,-0.99904,0,0,0.066667,-0,-0,0.66667
0.72976,0.45935,10.946,-0.060976,-8.5157,304.8,1.7799,-0.5933,-1.9834,2.3732,-3.3995e-13,-0.99172,0,0,0.066667,-0,-0,0.66667
0.39561,0.54769,5.9341,0.071529,18.059,1325.5,-1.1319,0.3773,-1.9775,-1.5092,1.924e-11,-0.98877,0,0,0.066667,-0,-0,0.66667
0.34753,0.54108,5.213,0.061626,16.219,1512.9,-0.85668,0.28556,-1.9849,-1.1422,8.4645e-12,-0.99246,0,0,0.066667,-0,-0,0.66667
0.10753,0.50883,1.613,0.013243,3.9193,2536.9,-0.056964,0.018988,-2.0037,-0.075952,-2.5409e-08,-1.0019,0,0,0.066667,-0,-0,0.66667
0.54663,0.89977,8.1994,0.59965,126.02,796.11,-13.112,4.3705,-0.73256,-17.482,-5.2847e-13,-0.36628,0,0,0.066667,9.4739e-16,-5.1907e-17,0.66667
0.26282,0.012239,3.9423,-0.73164,-204.31,1861.1,7.6917,-2.5639,-0.097652,10.256,3.2082e-11,-0.048826,0,0,0.066667,-0,-7.5242e-17,0.66667
0.91802,0.83585,13.77,0.50377,23.603,32.714,-18.499,6.1662,-1.0961,-24.665,4.0119e-08,-0.54805,0,0,0.066667,-6.3159e-16,0,0.66667
0.85065,0.4232,12.76,-0.1152,-9.487,98.632,3.9198,-1.3066,-1.9464,5.2265,3.9306e-10,-0.9732,0,0,0.066667,-0,-0,0.66667
0.65361,0.49038,9.8041,-0.014427,-2.4706,484.96,0.37717,-0.12572,-2.0009,0.5029,1.2239e-11,-1.0004,0,0,0.066667,-1.2632e-15,0,0.66667
0.87584,0.21553,13.138,-0.42671,-29.647,70.203,14.949,-4.9831,-1.3616,19.932,1.197e-08,-0.6808,0,0,0.066667,-6.3159e-16,0,0.66667
0.96891,0.19836,14.534,-0.45247,-8.141,6.2874,17.536,-5.8453,-1.2832,23.381,7.4019e-06,-0.64158,0,0,0.066667,-0,-0,0.66667
0.59079,0.73037,8.8618,0.34556,67.326,659.93,-8.1662,2.7221,-1.5759,-10.888,-2.1609e-12,-0.78796,0,0,0.066667,-0,-0,0.66667
0.98013,0.033586,14.702,-0.69962,-8.2042,5.3853,27.429,-9.1429,-0.25794,36.572,7.826e-05,-0.12897,0,0,0.066667,-0,-0,0.66667
0.54926,0.30971,8.2389,-0.28544,-59.655,786.75,6.2713,-2.0904,-1.7136,8.3617,6.5916e-12,-0.85681,0,0,0.066667,7.8949e-16,0,0.66667
0.2936,0.073799,4.4039,-0.6393,-175.16,1732.6,7.5078,-2.5026,-0.54645,10.01,-8.7432e-12,-0.27322,0,0,0.066667,-0,3.2179e-17,0.66667
0.49124,0.8718,7.3686,0.55769,126.79,979.08,-10.958,3.6528,-0.88882,-14.611,1.2346e-13,-0.44441,0,0,0.066667,6.3159e-16,0,0.66667
0.40509,0.61358,6.0763,0.17038,42.631,1289.5,-2.7607,0.92023,-1.9035,-3.6809,9.1889e-12,-0.95175,0,0,0.066667,-6.3159e-16,0,0.66667
0.59978,0.57004,8.9966,0.10506,20.121,633.19,-2.5206,0.84019,-1.9555,-3.3608,1.1984e-12,-0.97775,0,0,0.066667,-0,-0,0.66667
0.4807,0.31034,7.2105,-0.28449,-65.484,1014.8,5.4702,-1.8234,-1.712,7.2936,4.8237e-12,-0.85598,0,0,0.066667,-7.1054e-16,0,0.66667
0.2867,0.94749,4.3005,0.67124,184.74,1761.2,-7.6978,2.5659,-0.39324,-10.264,1.3693e-11,-0.19662,0,0,0.066667,-0,-0,0.66667
0.62519,0.16494,9.3778,-0.50259,-91.682,562.21,12.568,-4.1895,-1.113,16.758,4.4471e-12,-0.5565,0,0,0.066667,-0,-0,0.66667
0.8054,0.1257,12.081,-0.56145,-59.032,165.18,18.088,-6.0292,-0.87424,24.117,-7.3825e-10,-0.43712,0,0,0.066667,-2.5264e-15,0,0.66667
0.078748,0.48361,1.1812,-0.024585,-7.3154,2665.9,0.07744,-0.025813,-2.0067,0.10325,5.4036e-08,-1.0033,0,0,0.066667,-1.579e-16,0,0.66667
0.42362,0.43576,6.3544,-0.096361,-23.665,1220,1.6328,-0.54428,-1.9727,2.1771,-5.1836e-12,-0.98635,0,0,0.066667,2.3685e-16,0,0.66667
0.645,0.31715,9.675,-0.27427,-47.912,507.86,7.0763,-2.3588,-1.7302,9.4351,4.984e-12,-0.86512,0,0,0.066667,-0,-0,0.66667
0.0072838,0.8853,0.10926,0.57796,173.24,2988.3,-0.16837,0.056085,-0.80597,-0.22452,-5.9697e-05,-0.40298,0,0,0.066667,-0,-0,0.66667
0.87569,0.96509,13.135,0.69764,48.745,72.14,-24.437,8.1455,-0.27906,-32.582,-6.2602e-07,-0.13953,0,0,0.066667,3.158e-16,0,0.66667
0.69402,0.26173,10.41,-0.3574,-55.415,385.43,9.9218,-3.3073,-1.5398,13.229,-1.8732e-12,-0.76988,0,0,0.066667,1.2632e-15,0,0.66667
0.74977,0.22196,11.247,-0.41706,-54.615,264.45,12.508,-4.1693,-1.3932,16.677,-2.6944e-11,-0.6966,0,0,0.066667,-0,-0,0.66667
0.5233,0.5541,7.8494,0.081157,17.633,870.27,-1.6988,0.56626,-1.9703,-2.265,-1.7586e-13,-0.98514,0,0,0.066667,6.3159e-16,0,0.66667
0.97547,0.29674,14.632,-0.30489,-4.2844,3.812,11.896,-3.9655,-1.6632,15.862,6.465e-06,-0.83158,0,0,0.066667,-0,-0,0.66667
0.15309,0.88948,2.2963,0.58421,171.02,2334.8,-3.5774,1.1925,-0.78629,-4.7699,-3.523e-08,-0.39314,0,0,0.066667,-0,1.6941e-17,0.66667
0.95582,0.484,14.337,-0.023994,-0.60806,9.5976,0.91737,-0.30579,-1.9992,1.2232,-5.2944e-07,-0.99958,0,0,0.066667,1.2632e-15,0,0.66667
0.9956,0.87184,14.934,0.55776,1.3242,2.2457,-22.212,7.404,-0.89186,-29.616,1.7176e-06,-0.44593,0,0,0.066667,-1.8948e-15,0,0.66667
0.078553,0.7022,1.1783,0.30331,90.283,2666.9,-0.95303,0.31768,-1.6826,-1.2707,-1.5487e-07,-0.8413,0,0,0.066667,-0,-0,0.66667
0.33688,0.25567,5.0533,-0.36649,-97.307,1555.8,4.9386,-1.6462,-1.5167,6.5848,3.4015e-11,-0.75836,0,0,0.066667,-0,-0,0.66667
0.99274,0.98649,14.891,0.72974,3.1428,3.915,-28.977,9.6592,-0.10059,-38.636,0.00011253,-0.050294,0,0,0.066667,-1.2632e-15,0,0.66667
0.42676,0.4349,6.4014,-0.097643,-23.902,1208.4,1.6668,-0.5556,-1.9632,2.2224,-1.1828e-12,-0.98159,0,0,0.066667,-0,-0,0.66667
0.82335,0.29932,12.35,-0.30102,-28.94,136.41,9.9137,-3.3046,-1.674,13.218,1.4367e-11,-0.83698,0,0,0.066667,-0,-0,0.66667
0.28812,0.71248,4.3217,0.31872,87.527,1754.7,-3.6732,1.2244,-1.633,-4.8975,2.1065e-11,-0.81651,0,0,0.066667,-3.158e-16,0,0.66667
0.51209,0.28474,7.6814,-0.32289,-71.31,907.74,6.6139,-2.2046,-1.6292,8.8186,8.2521e-12,-0.81458,0,0,0.066667,-0,-0,0.66667
0.4661,0.86649,6.9916,0.54973,128.94,1066.7,-10.249,3.4164,-0.92719,-13.666,1.6955e-11,-0.4636,0,0,0.066667,-3.158e-16,0,0.66667
0.33294,0.43147,4.9941,-0.1028,-27.363,1571.3,1.3691,-0.45636,-1.9591,1.8254,1.4537e-12,-0.97954,0,0,0.066667,4.737e-16,0,0.66667
0.52708,0.20816,7.9062,-0.43776,-94.675,858.5,9.2295,-3.0765,-1.3161,12.306,1.2395e-11,-0.65806,0,0,0.066667,-6.3159e-16,0,0.66667
0.080511,0.20781,1.2077,-0.43828,-130.46,2658.1,1.4115,-0.47049,-1.3193,1.8819,1.6057e-08,-0.65967,0,0,0.066667,-0,-0,0.66667
0.2212,0.53078,3.3179,0.046176,13.148,2037.4,-0.40855,0.13618,-1.996,-0.54474,2.7719e-12,-0.998,0,0,0.066667,7.8949e-17,0,0.66667
0.33596,0.6173,5.0394,0.17594,46.729,1559.2,-2.3644,0.78813,-1.8837,-3.1525,7.506e-12,-0.94185,0,0,0.066667,3.158e-16,0,0.66667
0.96887,0.9425,14.533,0.66376,12.119,7.8215,-25.724,8.5746,-0.44546,-34.298,-4.7363e-05,-0.22273,0,0,0.066667,-0,-0,0.66667
0.44075,0.56262,6.6113,0.09393,22.651,1156.9,-1.656,0.552,-1.9699,-2.208,-4.754e-12,-0.98494,0,0,0.066667,-0,-0,0.66667
0.96131,0.79919,14.42,0.44878,10.047,8.7609,-17.257,5.7522,-1.2773,-23.009,6.5961e-06,-0.63866,0,0,0.066667,-0,-0,0.66667
0.57362,0.43295,8.6043,-0.10057,-20.186,710.93,2.3076,-0.7692,-1.9615,3.0768,7.7891e-12,-0.98075,0,0,0.066667,3.158e-16,0,0.66667
0.046616,0.072969,0.69923,-0.64055,-191.65,2810.8,1.1944,-0.39811,-0.55175,1.5925,2.4527e-05,-0.27587,0,0,0.066667,-0,-0,0.66667
0.65871,0.64037,9.8807,0.21056,35.646,471.96,-5.5479,1.8493,-1.8443,-7.3973,4.9374e-12,-0.92214,0,0,0.066667,-1.2632e-15,0,0.66667
0.014774,0.088352,0.22161,-0.61747,-185.09,2954.5,0.36488,-0.12158,-0.65285,0.48653,7.2323e-05,-0.32642,0,0,0.066667,-0,-0,0.66667
0.74247,0.058514,11.137,-0.66223,-89.065,280.47,19.667,-6.5558,-0.43502,26.223,1.9552e-10,-0.21751,0,0,0.066667,1.7028e-15,0,0.66667
0.4207,0.057161,6.3106,-0.66426,-163.92,1232.1,11.178,-3.7261,-0.43845,14.904,9.4991e-12,-0.21922,0,0,0.066667,3.158e-16,4.4737e-17,0.66667
0.53388,0.85369,8.0083,0.53053,113.64,836.69,-11.33,3.7766,-1.0008,-15.106,-3.9648e-12,-0.50041,0,0,0.066667,1.2632e-15,0,0.66667
0.78883,0.89574,11.832,0.59361,67.141,192.88,-18.73,6.2435,-0.74063,-24.974,-8.4755e-10,-0.37032,0,0,0.066667,-6.3159e-16,0,0.66667
0.9056,0.80456,13.584,0.45685,24.488,42.109,-16.549,5.5162,-1.267,-22.065,1.1893e-07,-0.63352,0,0,0.066667,-0,-0,0.66667
0.98688,0.4475,14.803,-0.078753,-0.57051,1.0907,3.1088,-1.0363,-1.9799,4.145,4.2356e-07,-0.98997,0,0,0.066667,-0,-0,0.66667
0.80208,0.46438,12.031,-0.053425,-5.6856,168.87,1.7141,-0.57135,-1.9861,2.2854,8.7683e-11,-0.99306,0,0,0.066667,-1.2632e-15,0,0.66667
0.0025426,0.083103,0.038139,-0.62534,-187.49,3009.8,0.06361,-0.021266,-0.61153,0.084782,-9.358e-05,-0.30576,0,0,0.066667,-0,-3.5237e-16,0.66667
0.60009,0.70987,9.0013,0.31481,60.282,632.65,-7.5565,2.5188,-1.6419,-10.075,-6.8523e-13,-0.82096,0,0,0.066667,6.3159e-16,0,0.66667
0.28885,0.91693,4.3327,0.62539,171.85,1752.2,-7.2256,2.4085,-0.60289,-9.6342,-1.5482e-11,-0.30145,0,0,0.066667,-0,-0,0.66667
0.70972,0.14026,10.646,-0.53962,-80.192,350.05,15.319,-5.1063,-0.95845,20.425,7.2058e-12,-0.47923,0,0,0.066667,-0,-0,0.66667
0.30554,0.87356,4.5832,0.56034,152.26,1683.2,-6.8483,2.2828,-0.87859,-9.1311,-1.6436e-11,-0.4393,0,0,0.066667,1.1842e-16,0,0.66667
0.55587,0.94912,8.338,0.67368,139.58,767.35,-14.979,4.993,-0.38018,-19.972,5.4623e-13,-0.19009,0,0,0.066667,-0,-0,0.66667
0.91807,0.86761,13.771,0.55142,25.849,32.984,-20.25,6.7499,-0.91749,-27,1.2257e-07,-0.45875,0,0,0.066667,-0,-0,0.66667
0.24787,0.50561,3.7181,0.0084075,2.3624,1923.4,-0.083359,0.027786,-2.0035,-0.11115,6.0933e-12,-1.0017,0,0,0.066667,-0,-0,0.66667
0.11184,0.14628,1.6776,-0.53058,-157.03,2517.9,2.3736,-0.79121,-1.0012,3.1648,-5.3926e-08,-0.50059,0,0,0.066667,-0,-0,0.66667
0.51354,0.80635,7.7031,0.45953,101.33,903.28,-9.4395,3.1465,-1.253,-12.586,2.7143e-12,-0.62649,0,0,0.066667,-1.172e-17,0,0.66667
0.91372,0.69013,13.706,0.2852,13.986,34.867,-10.424,3.4746,-1.7053,-13.898,-6.1948e-09,-0.85267,0,0,0.066667,2.5264e-15,0,0.66667
0.17924,0.021707,2.6886,-0.71744,-208.28,2220.1,5.1437,-1.7146,-0.16353,6.8583,-9.3461e-09,-0.081767,0,0,0.066667,-0,-0,0.66667
0.25588,0.41531,3.8382,-0.12704,-35.545,1889.5,1.3003,-0.43342,-1.9374,1.7337,3.8185e-12,-0.96868,0,0,0.066667,-0,-0,0.66667
0.033996,0.77354,0.50994,0.4103,122.78,2867.6,-0.55795,0.18598,-1.4029,-0.74393,1.1568e-07,-0.70145,0,0,0.066667,3.9475e-17,0,0.66667
0.015372,0.36256,0.23058,-0.20617,-61.724,2951.8,0.12676,-0.042256,-1.8594,0.16902,-1.1127e-06,-0.9297,0,0,0.066667,-1.9737e-17,0,0.66667
0.54222,0.41705,8.1333,-0.12443,-26.283,808.92,2.6986,-0.89955,-1.9414,3.5982,4.0292e-12,-0.97072,0,0,0.066667,-0,-0,0.66667
0.85536,0.16426,12.83,-0.50362,-40.384,94.124,17.231,-5.7436,-1.0963,22.975,4.2995e-09,-0.54813,0,0,0.066667,-0,-0,0.66667
0.44652,0.60834,6.6978,0.16251,38.943,1136,-2.9027,0.96755,-1.8999,-3.8702,-7.2948e-12,-0.94993,0,0,0.066667,6.3159e-16,0,0.66667
0.23564,0.36975,3.5346,-0.19538,-55.252,1975.6,1.8415,-0.61384,-1.8712,2.4554,1.5239e-11,-0.93561,0,0,0.066667,-4.737e-16,0,0.66667
0.93653,0.16722,14.048,-0.49918,-18.243,20.647,18.7,-6.2333,-1.1216,24.933,1.9843e-07,-0.56079,0,0,0.066667,-0,-0,0.66667
0.61921,0.32406,9.2881,-0.26391,-48.681,578.06,6.5365,-2.1788,-1.747,8.7153,3.6189e-12,-0.87352,0,0,0.066667,-0,-0,0.66667
0.86458,0.36069,12.969,-0.20897,-15.717,81.932,7.2267,-2.4089,-1.8401,9.6356,-1.6948e-09,-0.92006,0,0,0.066667,-1.2632e-15,0,0.66667
0.12811,0.42107,1.9217,-0.11839,-34.866,2445.2,0.60668,-0.20223,-1.9501,0.80891,7.7077e-10,-0.97506,0,0,0.066667,-0,-0,0.66667
0.44124,0.88525,6.6186,0.57787,139.47,1156.1,-10.199,3.3997,-0.81117,-13.599,-5.6968e-12,-0.40559,0,0,0.066667,-0,-0,0.66667
0.85755,0.79179,12.863,0.43768,34.575,91.095,-15.013,5.0045,-1.3232,-20.018,2.4618e-09,-0.66158,0,0,0.066667,-0,-0,0.66667
0.89819,0.44224,13.473,-0.086644,-4.9733,47.266,3.1129,-1.0376,-1.9675,4.1506,-1.8223e-08,-0.98374,0,0,0.066667,-0,-0,0.66667
0.87726,0.8731,13.159,0.55965,38.54,69.455,-19.638,6.5462,-0.89024,-26.185,1.6412e-07,-0.44512,0,0,0.066667,-4.737e-16,0,0.66667
0.62547,0.15694,9.3821,-0.51459,-93.824,561.48,12.874,-4.2915,-1.0695,17.166,1.2014e-11,-0.53476,0,0,0.066667,-2.5264e-15,0,0.66667
0.75811,0.024344,11.372,-0.71348,-90.987,249.78,21.636,-7.212,-0.1839,28.848,1.2757e-10,-0.091949,0,0,0.066667,-0,-0,0.66667
0.6755,0.68234,10.132,0.27351,44.475,429.83,-7.3903,2.4634,-1.7334,-9.8538,-2.5113e-12,-0.86668,0,0,0.066667,1.2632e-15,0,0.66667
0.84516,0.259,12.677,-0.3615,-30.822,106.34,12.221,-4.0737,-1.5413,16.295,2.5072e-09,-0.77063,0,0,0.066667,-0,-0,0.66667
0.63245,0.49056,9.4867,-0.014166,-2.5417,541.26,0.35838,-0.11946,-1.9929,0.47783,1.155e-12,-0.99646,0,0,0.066667,-1.2632e-15,0,0.66667
0.17189,0.57356,2.5783,0.11033,32.059,2251.7,-0.75861,0.25287,-1.9684,-1.0115,2.0514e-11,-0.98422,0,0,0.066667,-3.158e-16,0,0.66667
0.65052,0.90597,9.7578,0.60895,105.26,494.62,-15.845,5.2818,-0.6778,-21.127,2.0091e-12,-0.3389,0,0,0.066667,5.9212e-16,0,0.66667
0.45534,0.8052,6.8301,0.4578,108.7,1104.8,-8.3382,2.7794,-1.258,-11.118,1.4349e-11,-0.62902,0,0,0.066667,-6.3159e-16,0,0.66667
0.058851,0.69431,0.88276,0.29147,86.992,2755.5,-0.68612,0.22871,-1.697,-0.91482,-2.201e-07,-0.84851,0,0,0.066667,-0,-0,0.66667
0.53586,0.73053,8.0379,0.3458,73.793,829.71,-7.4121,2.4707,-1.5713,-9.8828,6.084e-12,-0.78567,0,0,0.066667,-0,-0,0.66667
0.43929,0.37989,6.5894,-0.18017,-43.52,1162.4,3.1658,-1.0553,-1.8896,4.2211,-6.6211e-12,-0.9448,0,0,0.066667,1.2632e-15,0,0.66667
0.87473,0.45892,13.121,-0.061626,-4.3062,70.355,2.1562,-0.71874,-1.9971,2.875,-2.1958e-09,-0.99855,0,0,0.066667,-0,-0,0.66667
0.66072,0.46659,9.9108,-0.050122,-8.4431,466.63,1.3247,-0.44155,-1.989,1.7662,5.0576e-12,-0.9945,0,0,0.066667,3.158e-16,0,0.66667
0.26079,0.53682,3.9118,0.055233,15.411,1868.8,-0.57617,0.19206,-1.9858,-0.76822,8.504e-12,-0.99292,0,0,0.066667,-0,-0,0.66667
0.21677,0.18658,3.2515,-0.47012,-134.24,2056.8,4.0763,-1.3588,-1.2192,5.435,-5.5801e-11,-0.6096,0,0,0.066667,-3.5527e-16,0,0.66667
0.097323,0.65904,1.4598,0.23855,70.763,2582.6,-0.92867,0.30956,-1.7975,-1.2382,-3.9574e-08,-0.89877,0,0,0.066667,3.158e-16,0,0.66667
0.46914,0.55838,7.0372,0.087563,20.437,1055,-1.6432,0.54773,-1.9835,-2.1909,8.9744e-12,-0.99175,0,0,0.066667,-9.4739e-16,0,0.66667
0.3498,0.79795,5.247,0.44692,117.5,1504.4,-6.2533,2.0844,-1.2841,-8.3378,2.3963e-11,-0.64204,0,0,0.066667,-4.1425e-16,0,0.66667
0.57735,0.45172,8.6602,-0.07242,-14.442,699.6,1.6725,-0.55749,-1.9895,2.2299,8.4532e-12,-0.99477,0,0,0.066667,-0,-0,0.66667
0.056942,0.55061,0.85413,0.075913,22.656,2764.1,-0.1729,0.057635,-1.9745,-0.23054,-1.4664e-07,-0.98723,0,0,0.066667,7.8949e-17,0,0.66667
0.24992,0.80474,3.7488,0.45711,128.4,1915.1,-4.5696,1.5232,-1.2687,-6.0928,-2.5614e-11,-0.63437,0,0,0.066667,-1.579e-16,0,0.66667
0.51229,0.63404,7.6844,0.20106,44.378,906.85,-4.12,1.3733,-1.8559,-5.4933,-4.0368e-12,-0.92796,0,0,0.066667,-0,-0,0.66667
0.37596,0.96171,5.6394,0.69256,178.34,1402.4,-10.415,3.4717,-0.30253,-13.887,4.0146e-13,-0.15126,0,0,0.066667,-0,-0,0.66667
0.6269,0.60129,9.4035,0.15194,27.583,556.53,-3.81,1.27,-1.9222,-5.08,2.7882e-12,-0.96109,0,0,0.066667,-0,-0,0.66667
0.37322,0.20451,5.5983,-0.44324,-114.28,1412.3,6.617,-2.2057,-1.3057,8.8226,1.5117e-11,-0.65287,0,0,0.066667,-6.3159e-16,0,0.66667
0.46031,0.28821,6.9047,-0.31768,-74.958,1086.7,5.8493,-1.9498,-1.6351,7.799,-5.1226e-12,-0.81757,0,0,0.066667,-0,-0,0.66667
0.23422,0.70824,3.5132,0.31236,88.418,1981.7,-2.9264,0.97547,-1.6642,-3.9019,1.6688e-11,-0.83208,0,0,0.066667,-3.158e-16,0,0.66667
0.29959,0.60307,4.4938,0.15461,42.133,1707.1,-1.8528,0.61759,-1.9164,-2.4704,2.2654e-11,-0.95821,0,0,0.066667,-6.3159e-16,0,0.66667
0.11528,0.094586,1.7293,-0.60812,-179.89,2502.6,2.8043,-0.93476,-0.68106,3.739,1.117e-07,-0.34053,0,0,0.066667,-3.158e-16,0,0.66667
0.77244,0.28268,11.587,-0.32598,-39.29,220.73,10.072,-3.3573,-1.6172,13.429,2.6212e-11,-0.80861,0,0,0.066667,-0,-0,0.66667
0.79388,0.78427,11.908,0.4264,47.13,183.39,-13.541,4.5135,-1.3549,-18.054,1.2582e-11,-0.67747,0,0,0.066667,-0,-0,0.66667
0.043936,0.23636,0.65904,-0.39546,-118.24,2822.8,0.69499,-0.23166,-1.4444,0.92666,4.251e-06,-0.72222,0,0,0.066667,-0,-0,0.66667
0.16096,0.63162,2.4144,0.19743,57.586,2299.8,-1.2711,0.4237,-1.8582,-1.6948,6.7483e-11,-0.9291,0,0,0.066667,-0,-0,0.66667
0.80286,0.88437,12.043,0.57656,61.339,169.37,-18.516,6.172,-0.81265,-24.688,8.1539e-10,-0.40633,0,0,0.066667,-0,-0,0.66667
0.91048,0.99515,13.657,0.74272,38.1,40.239,-27.049,9.0164,-0.036632,-36.066,1.6155e-06,-0.018316,0,0,0.066667,-1.8948e-15,0,0.66667
0.36919,0.63703,5.5379,0.20554,53.146,1427.6,-3.0353,1.0118,-1.8444,-4.0471,5.1155e-12,-0.92221,0,0,0.066667,-0,-0,0.66667
0.67531,0.033632,10.13,-0.69955,-114.1,432.16,18.897,-6.2989,-0.26031,25.195,3.9595e-12,-0.13015,0,0,0.066667,-0,-0,0.66667
0.18999,0.32843,2.8499,-0.25735,-74.286,2172.6,1.9558,-0.65194,-1.7663,2.6077,2.9081e-11,-0.88316,0,0,0.066667,-0,-0,0.66667
0.87123,0.85711,13.068,0.53567,38.568,75.815,-18.668,6.2225,-0.97804,-24.89,7.6508e-09,-0.48902,0,0,0.066667,-0,-0,0.66667
0.82471,0.78802,12.371,0.43203,41.288,134.95,-14.252,4.7507,-1.336,-19.003,1.5226e-10,-0.66801,0,0,0.066667,-0,-0,0.66667
0.25001,0.37891,3.7502,-0.18163,-50.984,1914.4,1.8164,-0.60547,-1.8952,2.4219,1.1691e-11,-0.94762,0,0,0.066667,-0,-0,0.66667
0.59285,0.94613,8.8927,0.66919,130.12,655.15,-15.869,5.2897,-0.41576,-21.159,-3.5998e-12,-0.20788,0,0,0.066667,-1.2632e-15,0,0.66667
0.73576,0.090402,11.036,-0.6144,-84.42,293.99,18.082,-6.0273,-0.6646,24.109,-1.6738e-10,-0.3323,0,0,0.066667,-1.2632e-15,0,0.66667
0.88384,0.16515,13.258,-0.50228,-32.811,62.319,17.757,-5.9192,-1.097,23.677,-1.8533e-08,-0.54848,0,0,0.066667,-0,-0,0.66667
0.46773,0.82289,7.0159,0.48433,113.35,1060.8,-9.0614,3.0205,-1.1733,-12.082,1.7621e-11,-0.58665,0,0,0.066667,-0,-0,0.66667
0.13462,0.68661,2.0193,0.27991,82.311,2416.3,-1.5073,0.50242,-1.7172,-2.0097,-4.1299e-09,-0.85862,0,0,0.066667,2.2698e-16,0,0.66667
0.1094,0.23772,1.6409,-0.39342,-116.45,2528.7,1.7215,-0.57385,-1.4613,2.2954,1.8177e-08,-0.73064,0,0,0.066667,1.579e-16,0,0.66667
0.52968,0.01156,7.9452,-0.73266,-158.11,851.25,15.523,-5.1743,-0.096538,20.697,4.3299e-12,-0.048269,0,0,0.066667,-0,7.3607e-17,0.66667
0.049289,0.51906,0.73933,0.028594,8.5407,2798.6,-0.056374,0.018791,-1.9992,-0.075166,-9.418e-08,-0.99962,0,0,0.066667,1.579e-16,0,0.66667
0.6209,0.66251,9.3134,0.24377,44.811,573.31,-6.0542,2.0181,-1.7868,-8.0723,3.1779e-12,-0.89339,0,0,0.066667,-0,-0,0.66667
0.033328,0.056907,0.49992,-0.66464,-199.09,2870.7,0.88606,-0.29536,-0.43331,1.1814,-7.7167e-06,-0.21666,0,0,0.066667,-0,-0,0.66667
0.021184,0.32907,0.31776,-0.2564,-76.754,2925.5,0.21726,-0.072424,-1.7611,0.28968,-4.4162e-06,-0.88055,0,0,0.066667,3.9475e-17,0,0.66667
0.075209,0.42609,1.1281,-0.11087,-33.009,2681.9,0.33353,-0.11118,-1.9569,0.4447,1.4849e-07,-0.97847,0,0,0.066667,-7.8949e-17,0,0.66667
0.36803,0.49041,5.5204,-0.01438,-3.7213,1432.1,0.21169,-0.070564,-1.9931,0.28226,-6.1734e-12,-0.99653,0,0,0.066667,-0,-0,0.66667
0.38175,0.093219,5.7263,-0.61017,-156.25,1379.6,9.3174,-3.1058,-0.67149,12.423,1.659e-11,-0.33575,0,0,0.066667,-7.8949e-16,0,0.66667
0.76697,0.43912,11.505,-0.091327,-11.229,230.38,2.8018,-0.93393,-1.9776,3.7357,-8.0078e-12,-0.9888,0,0,0.066667,-2.5264e-15,0,0.66667
0.84595,0.37439,12.689,-0.18842,-15.971,104.78,6.3756,-2.1252,-1.8781,8.5008,1.5618e-10,-0.93907,0,0,0.066667,-1.7764e-15,0,0.66667
0.7272,0.097796,10.908,-0.60331,-85.155,312,17.549,-5.8497,-0.70025,23.399,8.1386e-11,-0.35012,0,0,0.066667,-0,-0,0.66667
0.88443,0.38569,13.266,-0.17147,-11.108,60.414,6.0662,-2.0221,-1.8897,8.0883,-8.2675e-10,-0.94487,0,0,0.066667,-0,-0,0.66667
0.5749,0.039434,8.6235,-0.69085,-138.69,708.82,15.887,-5.2956,-0.30307,21.182,2.1431e-11,-0.15153,0,0,0.066667,-0,-6.1047e-17,0.66667
0.93988,0.11588,14.098,-0.57618,-20.02,19.294,21.662,-7.2206,-0.82207,28.882,6.3357e-06,-0.41104,0,0,0.066667,-0,-0,0.66667
0.90679,0.31882,13.602,-0.27176,-14.353,40.309,9.8573,-3.2858,-1.7472,13.143,-1.3686e-08,-0.8736,0,0,0.066667,-0,-0,0.66667
0.44844,0.65083,6.7266,0.22625,54.104,1129.2,-4.0583,1.3528,-1.815,-5.411,-5.5489e-12,-0.90749,0,0,0.066667,6.3159e-16,0,0.66667
0.47973,0.64494,7.1959,0.21741,50.097,1018,-4.172,1.3907,-1.8284,-5.5626,4.1198e-12,-0.9142,0,0,0.066667,-0,-0,0.66667
0.85666,0.2846,12.85,-0.3231,-25.643,91.684,11.071,-3.6905,-1.631,14.762,-4.4903e-10,-0.8155,0,0,0.066667,-2.5264e-15,0,0.66667
0.39841,0.34605,5.9761,-0.23092,-58.158,1315,3.68,-1.2267,-1.805,4.9066,1.1489e-11,-0.90249,0,0,0.066667,-1.2632e-15,0,0.66667
0.942,0.66282,14.13,0.24423,8.1252,16.452,-9.2024,3.0675,-1.7851,-12.27,2.4901e-07,-0.89256,0,0,0.066667,-2.5264e-15,0,0.66667
0.29331,0.63861,4.3997,0.20792,56.897,1733,-2.4394,0.81313,-1.8451,-3.2525,2.5728e-11,-0.92253,0,0,0.066667,-0,-0,0.66667
0.25901,0.26035,3.8851,-0.35948,-100.45,1876.5,3.7243,-1.2414,-1.5345,4.9657,-3.0205e-12,-0.76724,0,0,0.066667,-0,-0,0.66667
0.10893,0.16492,1.6339,-0.50262,-148.84,2530.9,2.19,-0.73,-1.1117,2.92,-9.7006e-08,-0.55585,0,0,0.066667,-0,-0,0.66667
0.24704,0.2299,3.7057,-0.40515,-113.96,1927.2,4.0036,-1.3345,-1.4169,5.3381,4.896e-11,-0.70846,0,0,0.066667,-0,-0,0.66667
0.53775,0.05872,8.0663,-0.66192,-141.07,824.76,14.238,-4.746,-0.437,18.984,-2.542e-12,-0.2185,0,0,0.066667,7.8949e-16,0,0.66667
0.98024,0.80962,14.704,0.46443,5.2854,3.5756,-18.21,6.07,-1.2316,-24.28,-1.3149e-05,-0.61579,0,0,0.066667,3.158e-16,0,0.66667
0.20773,0.99949,3.1159,0.74924,215.07,2096.3,-6.2255,2.0752,-0.0020891,-8.3007,2.1443e-10,-0.0010445,0,0,0.066667,-9.8686e-16,0,0.66667
0.54702,0.60911,8.2053,0.16367,34.317,793.66,-3.5811,1.1937,-1.9157,-4.7749,-4.1405e-12,-0.95786,0,0,0.066667,1.2632e-15,0,0.66667
0.87839,0.96393,13.176,0.6959,47.633,69.272,-24.451,8.1503,-0.27814,-32.601,-8.5646e-07,-0.13907,0,0,0.066667,1.2632e-15,0,0.66667
0.58966,0.79035,8.8449,0.43552,85.058,663.52,-10.272,3.4241,-1.3234,-13.697,4.186e-12,-0.66169,0,0,0.066667,-1.2632e-15,0,0.66667
0.83528,0.30487,12.529,-0.29269,-26.401,119.38,9.7792,-3.2597,-1.6893,13.039,2.8964e-10,-0.84465,0,0,0.066667,1.2632e-15,0,0.66667
0.23929,0.53627,3.5893,0.054402,15.354,1959.9,-0.5207,0.17357,-1.9861,-0.69427,2.2838e-11,-0.99306,0,0,0.066667,-0,-0,0.66667
0.07308,0.85908,1.0962,0.53862,160.57,2691.6,-1.5745,0.52483,-0.96411,-2.0993,-7.8009e-07,-0.48205,0,0,0.066667,-1.579e-16,0,0.66667
0.95297,0.91679,14.294,0.62519,17.117,13.281,-23.831,7.9438,-0.62133,-31.775,1.8323e-05,-0.31067,0,0,0.066667,-0,7.059e-17,0.66667
0.11233,0.57609,1.6849,0.11413,33.743,2515.5,-0.51282,0.17094,-1.9541,-0.68376,-4.5575e-09,-0.97706,0,0,0.066667,-0,-0,0.66667
0.8024,0.95493,12.036,0.68239,72.844,170.83,-21.902,7.3007,-0.33925,-29.203,-1.7545e-09,-0.16962,0,0,0.066667,-0,-0,0.66667
0.65102,0.20137,9.7652,-0.44795,-77.262,492.59,11.665,-3.8883,-1.2819,15.553,-3.1664e-12,-0.64094,0,0,0.066667,1.2632e-15,0,0.66667
0.86511,0.54174,12.977,0.062611,4.6892,81.081,-2.1666,0.72221,-1.9809,-2.8888,-1.3631e-09,-0.99043,0,0,0.066667,-0,-0,0.66667
0.62975,0.28445,9.4462,-0.32333,-58.377,549.06,8.1447,-2.7149,-1.6255,10.86,1.4156e-11,-0.81276,0,0,0.066667,-2.5264e-15,0,0.66667
0.29818,0.96827,4.4727,0.7024,191.93,1713.9,-8.3776,2.7925,-0.25346,-11.17,-1.2337e-12,-0.12673,0,0,0.066667,6.3159e-16,0,0.66667
0.93148,0.26834,13.972,-0.3475,-13.637,22.85,12.947,-4.3158,-1.565,17.263,-4.6192e-07,-0.7825,0,0,0.066667,-1.2632e-15,0,0.66667
0.6923,0.4791,10.385,-0.031351,-4.8792,388.89,0.86816,-0.28939,-1.9927,1.1576,4.9514e-12,-0.99637,0,0,0.066667,-0,-0,0.66667
0.87664,0.56446,13.15,0.096688,6.6597,68.343,-3.3904,1.1301,-1.9728,-4.5205,-2.7072e-09,-0.98642,0,0,0.066667,-2.5264e-15,0,0.66667
0.81549,0.062906,12.232,-0.65564,-65.796,150.03,21.387,-7.1289,-0.47351,28.516,-2.6672e-08,-0.23676,0,0,0.066667,-0,-0,0.66667
0.136,0.45519,2.04,-0.067214,-19.752,2410.1,0.36565,-0.12188,-1.9803,0.48753,-9.3168e-10,-0.99017,0,0,0.066667,-1.579e-16,0,0.66667
0.69941,0.6629,10.491,0.24435,37.319,372.51,-6.8362,2.2787,-1.7866,-9.1149,8.9173e-13,-0.89332,0,0,0.066667,-0,-0,0.66667
0.68101,0.63531,10.215,0.20296,32.54,416.18,-5.5287,1.8429,-1.8476,-7.3716,5.9908e-12,-0.92379,0,0,0.066667,-0,-0,0.66667
0.7558,0.78704,11.337,0.43056,55.215,252.64,-13.017,4.3389,-1.3361,-17.356,4.7421e-11,-0.66804,0,0,0.066667,-0,-0,0.66667
0.79965,0.40427,11.995,-0.14359,-15.451,172.93,4.5929,-1.531,-1.9289,6.1238,2.931e-11,-0.96447,0,0,0.066667,1.7369e-15,0,0.66667
0.94145,0.19147,14.122,-0.4628,-15.616,17.715,17.428,-5.8093,-1.2372,23.237,1.0819e-06,-0.61862,0,0,0.066667,-2.5264e-15,0,0.66667
0.065147,0.88475,0.97721,0.57712,172.26,2727.3,-1.5039,0.50131,-0.81732,-2.0052,7.6115e-07,-0.40866,0,0,0.066667,-0,-0,0.66667
0.50862,0.23227,7.6292,-0.40159,-89.144,919.58,8.1702,-2.7234,-1.4201,10.894,1.2526e-11,-0.71006,0,0,0.066667,-0,-0,0.66667
0.49966,0.59384,7.4949,0.14076,31.607,949.35,-2.8134,0.93779,-1.9413,-3.7512,-1.3077e-11,-0.97065,0,0,0.066667,-0,-0,0.66667
0.70076,0.70143,10.511,0.30215,45.984,369.53,-8.4694,2.8231,-1.6777,-11.292,2.3013e-12,-0.83883,0,0,0.066667,-0,-0,0.66667
0.9956,0.22599,14.934,-0.41102,-0.91404,1.3018,16.369,-5.4562,-1.3967,21.825,-5.3812e-06,-0.69833,0,0,0.066667,-0,-4.6623e-17,0.66667
0.90798,0.076073,13.62,-0.63589,-33.389,41.337,23.095,-7.6984,-0.56674,30.793,8.1979e-07,-0.28337,0,0,0.066667,1.2632e-15,0,0.66667
0.29689,0.17247,4.4533,-0.49129,-134.23,1718.7,5.8343,-1.9448,-1.1534,7.7791,1.0871e-11,-0.5767,0,0,0.066667,-0,-0,0.66667
0.33575,0.44506,5.0363,-0.082416,-21.89,1560,1.1069,-0.36895,-1.9696,1.4758,2.8271e-12,-0.98482,0,0,0.066667,-0,-0,0.66667
0.82017,0.48657,12.303,-0.020145,-1.9664,140.62,0.66088,-0.22029,-1.9919,0.88118,1.8288e-10,-0.99596,0,0,0.066667,1.2632e-15,0,0.66667
0.36161,0.93164,5.4242,0.64746,168.74,1458.2,-9.3653,3.1218,-0.5128,-12.487,6.3594e-12,-0.2564,0,0,0.066667,-0,-0,0.66667
0.32537,0.59323,4.8806,0.13985,37.433,1601.9,-1.8201,0.6067,-1.9331,-2.4268,1.5793e-11,-0.96654,0,0,0.066667,-2.5658e-16,0,0.66667
0.4447,0.12857,6.6706,-0.55714,-133.94,1143.5,9.9105,-3.3035,-0.8908,13.214,2.232e-12,-0.4454,0,0,0.066667,-1.2632e-15,0,0.66667
0.27712,0.74117,4.1568,0.36175,100.03,1800.5,-4.0099,1.3366,-1.5324,-5.3466,4.8432e-12,-0.76621,0,0,0.066667,3.158e-16,0,0.66667
0.74901,0.10613,11.235,-0.59081,-77.677,266.85,17.701,-5.9003,-0.76625,23.601,1.4132e-10,-0.38312,0,0,0.066667,-1.2632e-15,7.5535e-17,0.66667
0.45268,0.27907,6.7901,-0.33139,-78.889,1114.1,6.0005,-2.0002,-1.6204,8.0006,-2.7978e-14,-0.8102,0,0,0.066667,1.579e-16,0,0.66667
0.16392,0.69707,2.4589,0.29561,86.154,2286.8,-1.9383,0.64609,-1.6829,-2.5844,2.3326e-10,-0.84145,0,0,0.066667,-0,-0,0.66667
0.99046,0.051395,14.857,-0.67291,-3.7563,3.6006,26.659,-8.8866,-0.38449,35.546,-0.00017096,-0.19224,0,0,0.066667,1.2632e-15,0,0.66667
0.338,0.93037,5.07,0.64555,171.44,1551.9,-8.7278,2.9093,-0.51336,-11.637,1.1072e-11,-0.25668,0,0,0.066667,-0,-0,0.66667
0.30176,0.57693,4.5264,0.1154,31.402,1698.2,-1.3929,0.46431,-1.9486,-1.8573,2.0101e-11,-0.97428,0,0,0.066667,-6.3159e-16,0,0.66667
0.22533,0.64868,3.3799,0.22302,63.391,2019.7,-2.0101,0.67004,-1.8174,-2.6801,9.4191e-13,-0.9087,0,0,0.066667,-0,-0,0.66667
0.42574,0.23449,6.3862,-0.39826,-97.654,1212.6,6.7822,-2.2607,-1.434,9.043,3.4817e-12,-0.71702,0,0,0.066667,6.3159e-16,0,0.66667
0.69512,0.84104,10.427,0.51156,79.154,383.46,-14.224,4.7413,-1.064,-18.965,4.6585e-12,-0.53201,0,0,0.066667,-1.2153e-15,0,0.66667
0.60241,0.003976,9.0361,-0.74404,-142.2,627.76,17.928,-5.9762,-0.026172,23.905,1.171e-11,-0.013086,0,0,0.066667,-0,-0,0.66667
0.18146,0.58104,2.7219,0.12157,35.2,2209.8,-0.88239,0.29413,-1.9418,-1.1765,7.0627e-11,-0.97089,0,0,0.066667,-5.3069e-16,0,0.66667
0.26456,0.74613,3.9684,0.36919,102.84,1853.1,-3.9069,1.3023,-1.5233,-5.2093,2.1309e-11,-0.76167,0,0,0.066667,2.3622e-16,0,0.66667
0.59825,0.35817,8.9738,-0.21275,-40.867,637.76,5.0911,-1.697,-1.8357,6.7881,9.1571e-13,-0.91785,0,0,0.066667,-0,-0,0.66667
0.85805,0.25402,12.871,-0.36897,-29.032,90.183,12.664,-4.2212,-1.5228,16.885,-2.7552e-09,-0.76142,0,0,0.066667,-0,-0,0.66667
0.41292,0.66773,6.1937,0.2516,62.48,1260.1,-4.1555,1.3852,-1.7688,-5.5407,-4.9147e-12,-0.88439,0,0,0.066667,-0,-0,0.66667
0.21585,0.56912,3.2377,0.10368,29.596,2060.4,-0.89519,0.2984,-1.9629,-1.1936,5.0228e-11,-0.98145,0,0,0.066667,-0,-0,0.66667
0.32339,0.9004,4.8508,0.6006,161.21,1610.6,-7.7691,2.5897,-0.71427,-10.359,-2.5096e-11,-0.35713,0,0,0.066667,1.9148e-16,0,0.66667
0.69169,0.52444,10.375,0.036663,5.7153,390.34,-1.0144,0.33813,-1.993,-1.3525,1.3596e-12,-0.99651,0,0,0.066667,1.2632e-15,0,0.66667
0.70095,0.91847,10.514,0.62771,95.679,370.52,-17.6,5.8666,-0.60199,-23.466,9.754e-12,-0.30099,0,0,0.066667,-1.2632e-15,0,0.66667
0.22335,0.13333,3.3503,-0.55001,-156.62,2028.6,4.9138,-1.6379,-0.9212,6.5517,6.4859e-11,-0.4606,0,0,0.066667,-0,-0,0.66667
0.3965,0.12683,5.9474,-0.55976,-141.38,1322.9,8.8776,-2.9592,-0.88174,11.837,-7.7476e-12,-0.44087,0,0,0.066667,1.2632e-15,0,0.66667
0.69933,0.048643,10.49,-0.67703,-103.7,374.56,18.939,-6.3129,-0.36841,25.252,-4.4764e-13,-0.1842,0,0,0.066667,-0,1.024e-16,0.66667
0.72057,0.2263,10.809,-0.41056,-59.047,325.37,11.833,-3.9445,-1.4052,15.778,-6.3052e-12,-0.70261,0,0,0.066667,-0,-0,0.66667
0.13052,0.82631,1.9577,0.48946,144.17,2434.7,-2.5553,0.85176,-1.1431,-3.407,-6.0721e-09,-0.57157,0,0,0.066667,-0,-0,0.66667
0.60937,0.96806,9.1406,0.70209,132.36,607.54,-17.113,5.7045,-0.26054,-22.818,8.4537e-12,-0.13027,0,0,0.066667,-1.579e-16,0,0.66667
0.88607,0.62622,13.291,0.18934,12.102,58.828,-6.7106,2.2369,-1.8705,-8.9475,2.9844e-09,-0.93525,0,0,0.066667,-0,-0,0.66667
0.58236,0.70985,8.7354,0.31477,62.255,684.89,-7.3325,2.4442,-1.6452,-9.7766,-4.7113e-12,-0.82259,0,0,0.066667,-0,-0,0.66667
0.30721,0.081108,4.6081,-0.62834,-170.6,1676.6,7.7212,-2.5737,-0.59153,10.295,1.5892e-11,-0.29577,0,0,0.066667,-0,-0,0.66667
0.74514,0.96178,11.177,0.69267,92.364,275.26,-20.646,6.8819,-0.29052,-27.527,9.1127e-13,-0.14526,0,0,0.066667,-0,4.7668e-17,0.66667
0.9777,0.55144,14.665,0.077155,0.97642,2.7346,-3.0174,1.0058,-1.9727,-4.0232,-9.8794e-07,-0.98635,0,0,0.066667,-1.2632e-15,0,0.66667
0.90462,0.7658,13.569,0.3987,21.561,42.619,-14.427,4.8089,-1.4396,-19.236,6.0074e-08,-0.71981,0,0,0.066667,1.2632e-15,0,0.66667
0.8716,0.55652,13.074,0.084787,6.0637,73.781,-2.956,0.98535,-1.9743,-3.9414,3.7396e-10,-0.98713,0,0,0.066667,-0,-0,0.66667
0.00029225,0.37539,0.0043837,-0.18692,-55.974,3019.9,0.0021837,-0.00072539,-1.8877,0.0029128,3.7391e-06,-0.94384,0,0,0.066667,-1.2336e-18,0,0.66667
0.58262,0.84825,8.7392,0.52237,103.36,684.8,-12.174,4.0579,-1.0273,-16.232,-3.3973e-12,-0.51365,0,0,0.066667,-0,-0,0.66667
0.26272,0.06977,3.9408,-0.64535,-180.14,1861.4,6.7818,-2.2606,-0.52026,9.0424,-1.5313e-10,-0.26013,0,0,0.066667,-6.3159e-16,6.0646e-17,0.66667
0.81301,0.72228,12.195,0.33342,33.754,152.12,-10.843,3.6143,-1.6151,-14.457,2.088e-10,-0.80755,0,0,0.066667,2.5264e-15,0,0.66667
0.52348,0.22613,7.8522,-0.4108,-89.301,870.23,8.6019,-2.8673,-1.3938,11.469,-2.9452e-12,-0.69689,0,0,0.066667,1.2632e-15,0,0.66667
0.8939,0.33131,13.409,-0.25303,-15.122,51.501,9.0473,-3.0158,-1.7719,12.063,-4.0026e-08,-0.88597,0,0,0.066667,-0,-0,0.66667
0.52374,0.36309,7.8562,-0.20536,-44.598,868.92,4.3023,-1.4341,-1.8435,5.7365,-6.8638e-12,-0.92175,0,0,0.066667,6.3159e-16,0,0.66667
0.89114,0.12556,13.367,-0.56165,-34.546,55.584,20.02,-6.6734,-0.8893,26.694,2.7095e-07,-0.44465,0,0,0.066667,-0,-0,0.66667
0.44972,0.2729,6.7458,-0.34065,-81.369,1124.7,6.128,-2.0427,-1.5869,8.1706,-7.3985e-13,-0.79346,0,0,0.066667,3.158e-16,0,0.66667
0.5615,0.42539,8.4225,-0.11191,-22.925,748.16,2.5136,-0.83785,-1.9628,3.3514,4.982e-12,-0.9814,0,0,0.066667,-0,-0,0.66667
0.81248,0.84382,12.187,0.51573,52.426,153.76,-16.761,5.587,-1.0676,-22.348,-2.4933e-09,-0.53378,0,0,0.066667,-2.5264e-15,0,0.66667
0.40317,0.14155,6.0476,-0.53767,-134.93,1297.5,8.6709,-2.8903,-0.97219,11.561,8.2547e-12,-0.48609,0,0,0.066667,-0,-0,0.66667
0.56867,0.74954,8.53,0.37432,75.817,726.54,-8.5145,2.8382,-1.4976,-11.353,2.7054e-12,-0.74878,0,0,0.066667,-7.8949e-17,0,0.66667
0.89846,0.012079,13.477,-0.73188,-42.304,50.191,26.303,-8.7676,-0.08888,35.07,-2.1447e-07,-0.04444,0,0,0.066667,-0,-0,0.66667
0.48462,0.68094,7.2693,0.27141,62.162,1001.1,-5.2612,1.7537,-1.7492,-7.015,1.4042e-12,-0.87458,0,0,0.066667,6.3159e-16,0,0.66667
0.59059,0.70032,8.8588,0.30048,58.555,660.4,-7.0984,2.3661,-1.6788,-9.4646,-2.7516e-12,-0.83942,0,0,0.066667,-0,-0,0.66667
0.93638,0.18917,14.046,-0.46624,-17.064,20.537,17.463,-5.821,-1.2352,23.284,-1.7033e-07,-0.61761,0,0,0.066667,-2.5264e-15,0,0.66667
0.88325,0.71393,13.249,0.3209,21.013,62.036,-11.337,3.7791,-1.6281,-15.116,-1.3486e-08,-0.81403,0,0,0.066667,-0,-0,0.66667
0.75772,0.44919,11.366,-0.076217,-9.6934,247.99,2.3101,-0.77002,-1.9728,3.0801,7.7272e-13,-0.98639,0,0,0.066667,-0,-0,0.66667
0.71123,0.3525,10.668,-0.22125,-32.681,345.49,6.2943,-2.0981,-1.8196,8.3925,3.4865e-12,-0.90982,0,0,0.066667,-0,-0,0.66667
0.8192,0.10243,12.288,-0.59635,-58.718,144.02,19.541,-6.5137,-0.72955,26.055,-2.1943e-09,-0.36478,0,0,0.066667,-0,-0,0.66667
0.10608,0.27711,1.5912,-0.33433,-99.015,2543.5,1.4187,-0.47289,-1.6029,1.8916,5.3297e-08,-0.80147,0,0,0.066667,2.3685e-16,0,0.66667
0.38103,0.26441,5.7155,-0.35338,-90.463,1381.8,5.386,-1.7953,-1.5503,7.1814,5.7865e-13,-0.77513,0,0,0.066667,-0,-0,0.66667
0.54579,0.42325,8.1869,-0.11512,-24.183,797.52,2.5133,-0.83776,-1.9598,3.351,6.1728e-13,-0.9799,0,0,0.066667,6.3159e-16,0,0.66667
0.85851,0.27145,12.878,-0.34283,-26.887,89.518,11.773,-3.9243,-1.5902,15.697,-2.3701e-09,-0.79508,0,0,0.066667,-0,-0,0.66667
0.1464,0.84828,2.196,0.52243,153.21,2364.3,-3.0594,1.0198,-1.025,-4.0792,2.4727e-09,-0.51251,0,0,0.066667,3.158e-16,0,0.66667
0.71404,0.54564,10.711,0.06846,10.027,339,-1.9553,0.65177,-1.9796,-2.6071,-5.3746e-13,-0.98978,0,0,0.066667,-1.2632e-15,0,0.66667
0.59097,0.2553,8.8645,-0.36705,-71.496,659.46,8.6766,-2.8922,-1.5226,11.569,3.3431e-12,-0.76132,0,0,0.066667,1.2632e-15,0,0.66667
0.60872,0.12504,9.1308,-0.56243,-106.07,608.69,13.695,-4.5649,-0.88566,18.259,-7.7831e-12,-0.44283,0,0,0.066667,2.5264e-15,4.4964e-19,0.66667
0.37262,0.0050429,5.5893,-0.74244,-191.8,1415.5,11.066,-3.6886,-0.0431,14.754,5.1088e-12,-0.02155,0,0,0.066667,-0,4.2737e-17,0.66667
0.91582,0.18974,13.737,-0.46539,-22.349,34.103,17.049,-5.6829,-1.2254,22.732,-4.6127e-08,-0.61271,0,0,0.066667,-0,-0,0.66667
0.71391,0.00034991,10.709,-0.74948,-110.25,341.95,21.402,-7.1341,-0.00040041,28.536,-1.8041e-11,-0.00020021,0,0,0.066667,5.0527e-15,0,0.66667
0.6683,0.3937,10.024,-0.15944,-26.381,447.53,4.2622,-1.4207,-1.9084,5.683,5.7114e-12,-0.95419,0,0,0.066667,-0,-0,0.66667
0.22147,0.53332,3.322,0.049978,14.229,2036.2,-0.44274,0.14758,-1.9935,-0.59032,1.6185e-12,-0.99676,0,0,0.066667,-6.3159e-16,0,0.66667
0.81288,0.28447,12.193,-0.32329,-32.748,152.28,10.512,-3.5039,-1.6394,14.016,-2.1525e-10,-0.81969,0,0,0.066667,-0,-0,0.66667
0.49585,0.80812,7.4378,0.46219,104.4,962.95,-9.1671,3.0557,-1.2387,-12.223,-3.8973e-12,-0.61936,0,0,0.066667,9.4739e-16,0,0.66667
0.50837,0.49238,7.6256,-0.011432,-2.5366,919.85,0.23247,-0.07749,-1.9934,0.30996,2.7908e-12,-0.9967,0,0,0.066667,1.2632e-15,0,0.66667
0.084733,0.15079,1.271,-0.52381,-155.86,2639.2,1.7754,-0.59179,-1.0189,2.3672,1.4268e-07,-0.50946,0,0,0.066667,-3.9475e-17,0,0.66667
0.43727,0.60212,6.559,0.15318,37.082,1169.7,-2.6793,0.89309,-1.9275,-3.5723,-2.3548e-12,-0.96375,0,0,0.066667,-0,-0,0.66667
0.8632,0.82505,12.948,0.48757,37.118,84.647,-16.835,5.6116,-1.1529,-22.447,1.5465e-09,-0.57646,0,0,0.066667,-1.2632e-15,0,0.66667
0.68024,0.2775,10.204,-0.33375,-53.639,418.38,9.0812,-3.0271,-1.5983,12.108,1.0379e-11,-0.79917,0,0,0.066667,-3.158e-16,0,0.66667
0.18942,0.26118,2.8414,-0.35823,-103.45,2175.2,2.7143,-0.90477,-1.5476,3.6191,3.8843e-11,-0.77379,0,0,0.066667,-3.158e-16,0,0.66667
0.58407,0.23967,8.7611,-0.3905,-77.019,679.98,9.1232,-3.0411,-1.4524,12.164,2.9221e-13,-0.72619,0,0,0.066667,-0,-0,0.66667
0.94401,0.98578,14.16,0.72866,23.771,18.376,-27.515,9.1715,-0.10599,-36.686,-5.576e-06,-0.052997,0,0,0.066667,-0,-0,0.66667
0.50746,0.85823,7.6119,0.53735,119.54,923.89,-10.907,3.6358,-0.96673,-14.543,4.1949e-12,-0.48336,0,0,0.066667,-0,-0,0.66667
0.9674,0.60625,14.511,0.15938,2.9775,5.5863,-6.1672,2.0557,-1.9156,-8.223,-8.2177e-07,-0.95781,0,0,0.066667,-0,-0,0.66667
0.36627,0.70819,5.494,0.31228,80.965,1439.2,-4.5751,1.525,-1.647,-6.1001,1.2895e-11,-0.82351,0,0,0.066667,-0,-0,0.66667
0.29075,0.73922,4.3612,0.35882,98.385,1743.8,-4.1731,1.391,-1.5366,-5.5641,1.4654e-11,-0.76828,0,0,0.066667,-0,-0,0.66667
0.83985,0.49044,12.598,-0.014336,-1.2588,112.66,0.48159,-0.16053,-1.9974,0.64213,-3.0655e-11,-0.99872,0,0,0.066667,-1.2632e-15,0,0.66667
0.86973,0.26113,13.046,-0.3583,-26.021,76.568,12.465,-4.155,-1.5389,16.62,-5.6886e-09,-0.76947,0,0,0.066667,-0,-0,0.66667
0.20167,0.75065,3.025,0.37597,108.04,2122,-3.0328,1.0109,-1.5044,-4.0438,2.514e-10,-0.75221,0,0,0.066667,-0,-0,0.66667
0.71945,0.51063,10.792,0.015949,2.2987,327.02,-0.45897,0.15299,-2.0078,-0.61197,-6.5201e-12,-1.0039,0,0,0.066667,-0,-0,0.66667
0.59211,0.84253,8.8816,0.51379,99.94,656.61,-12.169,4.0563,-1.0676,-16.225,4.4587e-12,-0.53379,0,0,0.066667,-1.579e-15,0,0.66667
0.89451,0.93034,13.418,0.64551,38.604,53.04,-23.097,7.6989,-0.51692,-30.795,5.3098e-08,-0.25846,0,0,0.066667,-1.2632e-15,0,0.66667
0.14945,0.91249,2.2417,0.61873,181.36,2351,-3.6987,1.2329,-0.63307,-4.9316,-5.7815e-08,-0.31653,0,0,0.066667,-0,-0,0.66667
0.76303,0.2317,11.445,-0.40244,-50.274,238.6,12.283,-4.0943,-1.4257,16.377,1.7565e-11,-0.71284,0,0,0.066667,-1.2632e-15,0,0.66667
0.68996,0.26555,10.349,-0.35167,-55.119,395.02,9.7056,-3.2352,-1.5622,12.941,4.1602e-12,-0.7811,0,0,0.066667,-0,-0,0.66667
0.79502,0.1713,11.925,-0.49305,-54.262,181.81,15.679,-5.2265,-1.1396,20.906,-2.9789e-10,-0.5698,0,0,0.066667,-1.2632e-15,0,0.66667
0.45329,0.7585,6.7993,0.38774,92.257,1112,-7.0304,2.3435,-1.4767,-9.3738,1.2558e-11,-0.73834,0,0,0.066667,-0,-0,0.66667
0.22843,0.5811,3.4265,0.12165,34.521,2006.4,-1.1115,0.37051,-1.9418,-1.482,1.1215e-11,-0.97091,0,0,0.066667,3.158e-16,0,0.66667
0.28605,0.91735,4.2908,0.62602,172.33,1763.8,-7.1631,2.3877,-0.60275,-9.5507,3.6771e-13,-0.30138,0,0,0.066667,-0,-0,0.66667
0.3043,0.45483,4.5645,-0.06775,-18.404,1687.7,0.82466,-0.27489,-1.9771,1.0996,2.3238e-11,-0.98854,0,0,0.066667,-0,-0,0.66667
0.84027,0.44294,12.604,-0.085587,-7.4983,112.14,2.8767,-0.95888,-1.9736,3.8355,5.0596e-11,-0.98682,0,0,0.066667,-0,-0,0.66667
0.53716,0.36892,8.0574,-0.19662,-41.858,825.25,4.2245,-1.4082,-1.8576,5.6327,6.966e-12,-0.9288,0,0,0.066667,-0,-0,0.66667
0.56358,0.94969,8.4538,0.67454,138.01,743.37,-15.206,5.0688,-0.38919,-20.275,4.4693e-12,-0.19459,0,0,0.066667,-0,-0,0.66667
0.28417,0.072337,4.2625,-0.64149,-176.81,1771.7,7.2917,-2.4306,-0.53759,9.7222,2.2542e-12,-0.26879,0,0,0.066667,6.3159e-16,0,0.66667
0.83416,0.37351,12.512,-0.18973,-17.21,120.65,6.3306,-2.1102,-1.8677,8.4408,1.51e-10,-0.93384,0,0,0.066667,1.579e-15,0,0.66667
0.70493,0.97027,10.574,0.7054,106.41,361.87,-19.89,6.6301,-0.23633,-26.52,6.1195e-12,-0.11817,0,0,0.066667,-0,-0,0.66667
0.87814,0.99427,13.172,0.7414,50.896,69.917,-26.042,8.6807,-0.046146,-34.723,7.0227e-08,-0.023073,0,0,0.066667,-0,-0,0.66667
0.13153,0.58815,1.9729,0.13222,38.905,2430,-0.69562,0.23187,-1.9324,-0.92749,-6.1772e-10,-0.96618,0,0,0.066667,2.3685e-16,0,0.66667
0.8496,0.42671,12.744,-0.10994,-9.1121,99.954,3.7361,-1.2454,-1.9517,4.9815,5.1363e-10,-0.97584,0,0,0.066667,-1.2632e-15,0,0.66667
0.052112,0.35642,0.78169,-0.21536,-64.318,2785.9,0.44892,-0.14964,-1.8305,0.59856,3.3386e-07,-0.91523,0,0,0.066667,-0,-0,0.66667
0.87713,0.71102,13.157,0.31654,21.75,68.352,-11.106,3.7019,-1.6472,-14.808,-1.3173e-08,-0.8236,0,0,0.066667,-6.3159e-16,0,0.66667
0.23974,0.65169,3.5961,0.22753,64.216,1958.1,-2.182,0.72732,-1.8119,-2.9093,1.6331e-11,-0.90595,0,0,0.066667,4.737e-16,0,0.66667
0.88566,0.19819,13.285,-0.45272,-29.114,60.225,16.038,-5.3461,-1.2672,21.384,1.3085e-08,-0.6336,0,0,0.066667,-0,-0,0.66667
0.37931,0.60389,5.6896,0.15584,39.938,1388.2,-2.3644,0.78815,-1.9109,-3.1526,2.5173e-12,-0.95543,0,0,0.066667,-0,-0,0.66667
0.84292,0.60335,12.644,0.15503,13.377,108.7,-5.2271,1.7424,-1.9227,-6.9695,1.0221e-10,-0.96137,0,0,0.066667,-0,-0,0.66667
0.53961,0.25804,8.0942,-0.36294,-77.015,817.69,7.8338,-2.6113,-1.5255,10.445,4.5444e-12,-0.76273,0,0,0.066667,-0,-0,0.66667
0.56418,0.19308,8.4626,-0.46038,-93.986,740.63,10.389,-3.4631,-1.2517,13.853,1.7266e-12,-0.62587,0,0,0.066667,1.2632e-15,0,0.66667
0.98402,0.10745,14.76,-0.58883,-5.4683,3.7569,23.177,-7.7257,-0.77715,30.903,-2.9795e-05,-0.38857,0,0,0.066667,-0,7.7746e-17,0.66667
0.96375,0.83041,14.456,0.49562,10.422,8.1913,-19.106,6.3687,-1.1224,-25.475,6.3438e-06,-0.56118,0,0,0.066667,-1.2632e-15,0,0.66667
0.11432,0.097176,1.7149,-0.60424,-178.78,2506.9,2.7632,-0.92105,-0.69869,3.6842,6.868e-08,-0.34934,0,0,0.066667,-3.158e-16,0,0.66667
0.36415,0.51586,5.4622,0.023785,6.1755,1447.3,-0.34646,0.11549,-1.9941,-0.46194,1.7111e-11,-0.99704,0,0,0.066667,-1.2632e-15,0,0.66667
0.25055,0.26194,3.7582,-0.35709,-100.24,1912.3,3.5787,-1.1929,-1.5559,4.7717,1.5591e-11,-0.77794,0,0,0.066667,6.3159e-16,0,0.66667
0.4483,0.24406,6.7244,-0.3839,-91.86,1130,6.8841,-2.2947,-1.4726,9.1788,-2.2515e-12,-0.73632,0,0,0.066667,-3.158e-16,0,0.66667
0.12635,0.2501,1.8953,-0.37485,-110.5,2453.1,1.8945,-0.63151,-1.5079,2.5261,-5.0723e-09,-0.75396,0,0,0.066667,-0,-0,0.66667
0.51157,0.74802,7.6735,0.37203,82.237,909.61,-7.6128,2.5376,-1.5068,-10.15,1.3304e-11,-0.75338,0,0,0.066667,-8.6844e-16,0,0.66667
0.86558,0.36385,12.984,-0.20423,-15.254,80.76,7.0712,-2.3571,-1.8459,9.4282,-1.7359e-09,-0.92297,0,0,0.066667,-1.2632e-15,0,0.66667
0.35235,0.12157,5.2853,-0.56765,-149.01,1494.5,8.0006,-2.6669,-0.84885,10.667,2.1259e-11,-0.42443,0,0,0.066667,-9.4739e-16,0,0.66667
0.15564,0.32128,2.3346,-0.26808,-78.338,2323.3,1.6689,-0.55631,-1.7537,2.2253,-1.416e-10,-0.87685,0,0,0.066667,-0,-0,0.66667
0.30726,0.72654,4.6089,0.33981,92.161,1675.8,-4.1764,1.3921,-1.5852,-5.5686,1.1512e-11,-0.79259,0,0,0.066667,-0,-0,0.66667
0.74287,0.56136,11.143,0.092041,12.321,277.52,-2.735,0.91166,-1.9648,-3.6467,4.4218e-12,-0.98241,0,0,0.066667,-4.737e-16,0,0.66667
0.091276,0.13024,1.3691,-0.55464,-164.86,2609.9,2.025,-0.67501,-0.90885,2.7,3.2355e-07,-0.45442,0,0,0.066667,-3.158e-16,0,0.66667
0.73558,0.53741,11.034,0.056109,7.6923,292.53,-1.6509,0.5503,-1.9959,-2.2012,-2.3487e-12,-0.99793,0,0,0.066667,-0,-0,0.66667
0.61392,0.7415,9.2088,0.36226,67.554,593.17,-8.8959,2.9653,-1.5303,-11.861,8.0735e-12,-0.76515,0,0,0.066667,-6.3159e-16,0,0.66667
0.74026,0.93412,11.104,0.65118,88.21,284.92,-19.282,6.4273,-0.4878,-25.709,-2.5771e-10,-0.2439,0,0,0.066667,1.8948e-15,0,0.66667
0.0090497,0.26556,0.13575,-0.35167,-105.33,2980.3,0.1273,-0.042427,-1.5541,0.16973,6.6421e-06,-0.77704,0,0,0.066667,-0,-0,0.66667
0.72047,0.90883,10.807,0.61324,88.357,326.59,-17.673,5.891,-0.66854,-23.564,-9.1863e-11,-0.33427,0,0,0.066667,-0,-0,0.66667
0.32058,0.86544,4.8088,0.54817,147.4,1621.9,-7.0293,2.3431,-0.92522,-9.3724,2.0317e-12,-0.46261,0,0,0.066667,-0,-0,0.66667
0.63297,0.80922,9.4946,0.46383,83.232,540.74,-11.744,3.9146,-1.2295,-15.658,8.0247e-12,-0.61473,0,0,0.066667,-1.0758e-15,0,0.66667
0.053837,0.48802,0.80755,-0.017965,-5.3635,2778.1,0.038688,-0.012896,-1.9925,0.051584,-1.9763e-07,-0.99625,0,0,0.066667,-7.8949e-17,0,0.66667
0.55643,0.78756,8.3465,0.43133,89.167,764.58,-9.6004,3.2001,-1.3333,-12.8,-3.9524e-12,-0.66667,0,0,0.066667,-0,-0,0.66667
0.9416,0.29454,14.124,-0.30819,-10.334,16.887,11.608,-3.8692,-1.6598,15.477,-1.7769e-07,-0.8299,0,0,0.066667,-0,-0,0.66667
0.32009,0.57024,4.8013,0.10537,28.311,1623.3,-1.349,0.44968,-1.9543,-1.7987,-1.3026e-11,-0.97715,0,0,0.066667,-0,-0,0.66667
0.52274,0.47237,7.8411,-0.041452,-9.0134,872.09,0.86674,-0.28891,-1.9884,1.1557,5.9595e-12,-0.99419,0,0,0.066667,-0,-0,0.66667
0.40771,0.63552,6.1157,0.20328,50.737,1279.7,-3.3152,1.1051,-1.8587,-4.4203,1.0596e-11,-0.92934,0,0,0.066667,-1.2632e-15,0,0.66667
0.56965,0.35774,8.5448,-0.21339,-43.128,723.16,4.8622,-1.6207,-1.8316,6.483,1.029e-11,-0.91579,0,0,0.066667,-0,-0,0.66667
0.068319,0.51919,1.0248,0.028778,8.5764,2712.8,-0.078644,0.026215,-1.9917,-0.10486,-7.8481e-08,-0.99583,0,0,0.066667,-0,-0,0.66667
0.36188,0.86321,5.4282,0.54482,141.89,1456.9,-7.8864,2.6288,-0.9465,-10.515,2.3806e-11,-0.47325,0,0,0.066667,-0,-0,0.66667
0.52066,0.050126,7.8099,-0.67481,-147.49,880.51,14.054,-4.6846,-0.37663,18.738,1.0306e-11,-0.18831,0,0,0.066667,1.5009e-17,0,0.66667
0.084824,0.046696,1.2724,-0.67996,-202.45,2638.9,2.3071,-0.76903,-0.34982,3.0761,-2.8435e-06,-0.17491,0,0,0.066667,-1.579e-16,0,0.66667
0.46765,0.22172,7.0147,-0.41742,-97.673,1060.9,7.8083,-2.6028,-1.3884,10.411,1.5497e-11,-0.69421,0,0,0.066667,-1.2632e-15,0,0.66667
0.77223,0.17722,11.583,-0.48416,-58.467,221.78,14.955,-4.9851,-1.1605,19.941,-5.478e-11,-0.58024,0,0,0.066667,-0,-0,0.66667
0.443,0.71653,6.6451,0.32479,78.162,1149,-5.7554,1.9185,-1.6211,-7.6739,1.8492e-12,-0.81055,0,0,0.066667,-7.8949e-16,0,0.66667
0.39093,0.36022,5.8639,-0.20967,-53.175,1343.5,3.2786,-1.0929,-1.854,4.3715,3.0165e-12,-0.92698,0,0,0.066667,6.3159e-16,0,0.66667
0.27288,0.33928,4.0931,-0.24107,-66.81,1818.1,2.6313,-0.87711,-1.7877,3.5084,1.9977e-11,-0.89383,0,0,0.066667,-3.158e-16,0,0.66667
0.051852,0.1545,0.77778,-0.51826,-154.9,2787.1,1.0749,-0.3583,-1.0421,1.4332,-4.9706e-07,-0.52105,0,0,0.066667,-2.9606e-17,0,0.66667
0.76182,0.7215,11.427,0.33225,41.67,240.63,-10.125,3.3749,-1.6068,-13.499,-6.3798e-12,-0.80341,0,0,0.066667,-0,-0,0.66667
0.48578,0.75677,7.2867,0.38515,88.113,997.35,-7.4839,2.4946,-1.4788,-9.9786,-2.6361e-12,-0.73938,0,0,0.066667,-0,-0,0.66667
0.16135,0.88404,2.4202,0.57606,168.18,2298.4,-3.7178,1.2393,-0.81593,-4.9571,1.6467e-09,-0.40796,0,0,0.066667,-0,-0,0.66667
0.066079,0.95797,0.99118,0.68696,205.12,2723.1,-1.8157,0.60524,-0.32096,-2.421,-3.6322e-07,-0.16048,0,0,0.066667,-0,-0,0.66667
0.7579,0.037452,11.369,-0.69382,-88.526,250.05,21.034,-7.0113,-0.28234,28.045,1.2504e-11,-0.14117,0,0,0.066667,-0,-0,0.66667
0.58841,0.78504,8.8262,0.42755,83.688,667.2,-10.063,3.3544,-1.3462,-13.418,5.5307e-12,-0.67309,0,0,0.066667,-0,-0,0.66667
0.55876,0.074462,8.3815,-0.63831,-131.6,758.14,14.267,-4.7555,-0.54975,19.022,1.5294e-11,-0.27487,0,0,0.066667,-0,3.0075e-17,0.66667
0.20632,0.73958,3.0949,0.35938,103.06,2101.8,-2.9659,0.98864,-1.5407,-3.9546,4.8979e-11,-0.77035,0,0,0.066667,-3.158e-16,0,0.66667
0.59434,0.29369,8.9151,-0.30947,-59.896,649.38,7.3572,-2.4524,-1.6685,9.8097,8.7632e-12,-0.83426,0,0,0.066667,-0,-0,0.66667
0.93421,0.46812,14.013,-0.047826,-1.7979,20.461,1.7872,-0.59572,-1.9929,2.3829,-9.858e-08,-0.99646,0,0,0.066667,1.579e-15,0,0.66667
0.72548,0.45783,10.882,-0.063254,-8.9519,313.95,1.8356,-0.61186,-1.9796,2.4474,5.7288e-13,-0.9898,0,0,0.066667,-0,-0,0.66667
0.5866,0.51537,8.799,0.023059,4.5238,671.86,-0.54104,0.18035,-1.9916,-0.72139,-2.7545e-12,-0.99578,0,0,0.066667,2.5264e-15,0,0.66667
0.8653,0.82494,12.979,0.48742,36.577,82.22,-16.87,5.6235,-1.1498,-22.494,2.4314e-09,-0.57488,0,0,0.066667,-0,-0,0.66667
0.99657,0.72698,14.949,0.34047,0.54194,0.89623,-13.572,4.524,-1.5873,-18.096,4.1877e-06,-0.79366,0,0,0.066667,-0,-5.4753e-18,0.66667
0.86511,0.50145,12.977,0.0021719,0.16266,81.065,-0.075159,0.025053,-1.996,-0.10021,7.3463e-09,-0.99801,0,0,0.066667,-0,-0,0.66667
0.17918,0.052346,2.6877,-0.67148,-194.9,2220.3,4.8127,-1.6042,-0.39046,6.4169,8.5338e-09,-0.19523,0,0,0.066667,-1.579e-16,0,0.66667
0.69466,0.17494,10.42,-0.48758,-75.524,384.42,13.548,-4.5161,-1.1482,18.064,-1.8989e-12,-0.57412,0,0,0.066667,1.2632e-15,0,0.66667
0.29623,0.45335,4.4435,-0.069972,-19.109,1720.9,0.82911,-0.27637,-1.9913,1.1055,1.9366e-11,-0.99567,0,0,0.066667,-0,-0,0.66667
0.059534,0.045189,0.89301,-0.68222,-203.87,2752.6,1.6246,-0.54155,-0.34558,2.1661,-2.5515e-05,-0.17279,0,0,0.066667,-0,-0,0.66667
0.10804,0.69653,1.6207,0.29479,87.26,2534.7,-1.274,0.42467,-1.6972,-1.6987,-3.5785e-08,-0.84862,0,0,0.066667,-0,-0,0.66667
0.76279,0.29964,11.442,-0.30054,-37.553,238.68,9.1699,-3.0566,-1.6797,12.227,5.4525e-12,-0.83984,0,0,0.066667,-0,-0,0.66667
