xi,eta,X,Y,uX,uY,epsilon_X,epsilon_Y,gamma_XY,sigma_XX,sigma_YY,sigma_XY,fx,fy,dxidx,dxidy,detadx,detady,
0.41702,0.7655,2.9192,0.39825,21.327,131.21,-3.1001,1.0334,-1.4348,-4.1335,2.3359e-13,-0.71738,0,0,0.14286,-0,-0,0.66667
0.72032,0.30817,5.0423,-0.28774,-8.9017,35.396,3.869,-1.2897,-1.7072,5.1586,8.3666e-12,-0.85358,0,0,0.14286,-0,-0,0.66667
0.00011437,0.73538,0.00080062,0.35307,22.907,314.75,-0.00075369,0.00025102,-1.5588,-0.001005,-3.1127e-07,-0.77938,0,0,0.14286,-0,-0,0.66667
0.30233,0.8122,2.1163,0.4683,27.632,177.96,-2.6429,0.88095,-1.2204,-3.5238,5.6981e-12,-0.61018,0,0,0.14286,1.0045e-15,0,0.66667
0.14676,0.23669,1.0273,-0.39496,-25.082,246.79,1.082,-0.36066,-1.4437,1.4426,3.1017e-09,-0.72184,0,0,0.14286,-0,-0,0.66667
0.092339,0.062824,0.64637,-0.65576,-42.388,271.9,1.1303,-0.37677,-0.47343,1.5071,3.9657e-07,-0.23672,0,0,0.14286,-3.3835e-16,0,0.66667
0.18626,0.62204,1.3038,0.18307,11.445,228.78,-0.63649,0.21216,-1.8829,-0.84866,-4.6309e-10,-0.94144,0,0,0.14286,3.8065e-16,0,0.66667
0.34556,0.94394,2.4189,0.66591,38.229,160.11,-4.2954,1.4318,-0.4244,-5.7272,4.5874e-13,-0.2122,0,0,0.14286,-0,-0,0.66667
0.39677,0.34766,2.7774,-0.22851,-12.458,139,1.6924,-0.56414,-1.8136,2.2565,2.8988e-13,-0.90679,0,0,0.14286,-0,-0,0.66667
0.53882,0.43363,3.7717,-0.099561,-4.5591,86.907,1.0014,-0.33379,-1.9638,1.3352,4.8261e-13,-0.98191,0,0,0.14286,6.7671e-16,0,0.66667
0.41919,0.27723,2.9344,-0.33416,-17.839,130.31,2.6148,-0.8716,-1.6037,3.4864,-2.7756e-13,-0.80187,0,0,0.14286,8.4588e-16,0,0.66667
0.68522,0.69207,4.7965,0.28811,9.842,43.859,-3.6852,1.2284,-1.7058,-4.9135,-6.0498e-12,-0.85291,0,0,0.14286,-0,-0,0.66667
0.20445,0.18359,1.4312,-0.47461,-29.546,220.72,1.8113,-0.60377,-1.2009,2.4151,1.1515e-10,-0.60046,0,0,0.14286,-3.3835e-16,0,0.66667
0.87812,0.73211,6.1468,0.34817,5.0477,8.0576,-5.707,1.9023,-1.5686,-7.6094,8.2518e-09,-0.78428,0,0,0.14286,-0,-0,0.66667
0.027388,0.7503,0.19171,0.37544,24.346,302.02,-0.19194,0.06398,-1.4996,-0.25592,2.0716e-07,-0.74979,0,0,0.14286,8.4588e-17,0,0.66667
0.67047,0.45507,4.6933,-0.067393,-2.3847,47.485,0.84344,-0.28115,-1.9847,1.1246,2.6525e-12,-0.99233,0,0,0.14286,-2.1474e-15,0,0.66667
0.4173,0.75403,2.9211,0.38104,20.395,131.09,-2.9682,0.9894,-1.4835,-3.9576,-7.0965e-13,-0.74174,0,0,0.14286,1.3534e-15,0,0.66667
0.55869,0.15501,3.9108,-0.51748,-23.098,80.807,5.3968,-1.7989,-1.0485,7.1957,2.0783e-13,-0.52423,0,0,0.14286,-9.3047e-16,0,0.66667
0.14039,0.66052,0.98271,0.24078,15.295,249.66,-0.63097,0.21032,-1.7966,-0.8413,-3.5149e-09,-0.89831,0,0,0.14286,-0,-0,0.66667
0.1981,0.29391,1.3867,-0.30913,-19.254,223.49,1.1431,-0.38105,-1.6589,1.5242,4.337e-10,-0.82945,0,0,0.14286,-0,-0,0.66667
0.80074,0.44476,5.6052,-0.082854,-1.8945,18.944,1.2384,-0.41281,-1.9752,1.6513,-2.6559e-10,-0.9876,0,0,0.14286,-2.7068e-15,0,0.66667
0.96826,0.8319,6.7778,0.49785,1.8694,1.5172,-8.9982,2.9994,-1.1205,-11.998,-3.8153e-07,-0.56023,0,0,0.14286,1.3534e-15,0,0.66667
0.31342,0.90051,2.194,0.60077,35.269,173.4,-3.5148,1.1716,-0.71861,-4.6865,4.1342e-12,-0.3593,0,0,0.14286,-3.3835e-16,0,0.66667
0.69232,0.31828,4.8463,-0.27258,-9.1348,42.065,3.5227,-1.1742,-1.7352,4.6969,6.9711e-12,-0.86759,0,0,0.14286,-0,-0,0.66667
0.87639,0.17908,6.1347,-0.48138,-7.1294,8.5575,7.875,-2.625,-1.1773,10.5,-7.1963e-09,-0.58863,0,0,0.14286,1.3534e-15,0,0.66667
0.89461,0.45874,6.2622,-0.061888,-0.77151,5.9573,1.0335,-0.3445,-1.9857,1.378,1.3878e-08,-0.99283,0,0,0.14286,1.3534e-15,0,0.66667
0.085044,0.67898,0.59531,0.26847,17.277,275.18,-0.4262,0.14207,-1.7422,-0.56826,-1.0013e-08,-0.87112,0,0,0.14286,-0,-0,0.66667
0.039055,0.41442,0.27338,-0.12837,-8.3012,296.57,0.093583,-0.031194,-1.9399,0.12478,-1.147e-08,-0.96995,0,0,0.14286,8.4588e-17,0,0.66667
0.16983,0.056519,1.1888,-0.66522,-42.125,236.43,2.1089,-0.70295,-0.42753,2.8118,-4.3603e-09,-0.21376,0,0,0.14286,-1.5321e-16,-1.0472e-16,0.66667
0.87814,0.85403,6.147,0.53104,7.7859,8.494,-8.7048,2.9016,-0.99705,-11.606,2.9147e-09,-0.49852,0,0,0.14286,2.7068e-15,0,0.66667
0.098347,0.88562,0.68843,0.57843,37.289,269.1,-1.0619,0.35396,-0.80932,-1.4159,-2.8837e-08,-0.40466,0,0,0.14286,-0,-0,0.66667
0.42111,0.88824,2.9478,0.58236,31.165,129.87,-4.5777,1.5259,-0.79556,-6.1036,1.1671e-12,-0.39778,0,0,0.14286,-6.7671e-16,1.6523e-16,0.66667
0.95789,0.4772,6.7052,-0.034205,-0.16434,1.2207,0.61161,-0.20387,-1.9949,0.81548,-7.9365e-08,-0.99745,0,0,0.14286,-0,-0,0.66667
0.53317,0.77997,3.7322,0.41995,19.469,89.081,-4.1795,1.3932,-1.3748,-5.5727,1.3052e-12,-0.68738,0,0,0.14286,-2.5377e-16,0,0.66667
0.69188,0.39922,4.8431,-0.15117,-5.0641,42.064,1.9524,-0.65079,-1.9181,2.6032,4.3501e-12,-0.95907,0,0,0.14286,-0,-0,0.66667
0.31552,0.26626,2.2086,-0.35062,-20.467,172.29,2.065,-0.68833,-1.5625,2.7533,-4.396e-12,-0.78126,0,0,0.14286,-0,-0,0.66667
0.6865,0.27109,4.8055,-0.34337,-11.703,43.611,4.4002,-1.4667,-1.5821,5.8669,6.5987e-12,-0.79106,0,0,0.14286,-0,-0,0.66667
0.83463,0.64719,5.8424,0.22078,4.2588,13.584,-3.4397,1.1466,-1.8252,-4.5863,1.5126e-09,-0.9126,0,0,0.14286,6.7671e-16,0,0.66667
0.018288,0.040255,0.12802,-0.68962,-44.978,306.29,0.23542,-0.078476,-0.3092,0.31389,-4.0285e-06,-0.1546,0,0,0.14286,-0,-0,0.66667
0.75014,0.38441,5.251,-0.17338,-4.8576,28.72,2.4278,-0.80926,-1.8953,3.237,-1.1322e-11,-0.94767,0,0,0.14286,-0,-0,0.66667
0.98886,0.68293,6.922,0.27439,0.25851,0.39859,-5.0649,1.6883,-1.732,-6.7532,7.7054e-08,-0.86599,0,0,0.14286,6.7671e-16,0,0.66667
0.74817,0.69364,5.2372,0.29045,8.2103,29.263,-4.0564,1.3521,-1.7011,-5.4086,1.0101e-11,-0.85055,0,0,0.14286,-0,-0,0.66667
0.28044,0.87009,1.9631,0.55513,33.27,187.4,-2.9061,0.96869,-0.9064,-3.8748,3.4288e-12,-0.4532,0,0,0.14286,6.7359e-16,-9.3853e-17,0.66667
0.78928,0.78155,5.525,0.42232,10.235,21.408,-6.2221,2.074,-1.3656,-8.2962,1.1476e-10,-0.6828,0,0,0.14286,-2.7068e-15,0,0.66667
0.10323,0.17645,0.72258,-0.48532,-31.205,266.82,0.93516,-0.31172,-1.161,1.2469,1.9816e-08,-0.58048,0,0,0.14286,-0,-0,0.66667
0.44789,0.24052,3.1353,-0.38921,-20.162,119.44,3.2541,-1.0847,-1.4602,4.3388,4.0212e-13,-0.73009,0,0,0.14286,-3.3835e-16,0,0.66667
0.9086,0.94322,6.3602,0.66483,7.4945,5.8603,-11.276,3.7586,-0.42917,-15.035,2.2985e-07,-0.21458,0,0,0.14286,2.7068e-15,0,0.66667
0.29361,0.66536,2.0553,0.24804,14.68,181.53,-1.3595,0.45316,-1.781,-1.8126,1.0817e-11,-0.8905,0,0,0.14286,6.7671e-16,0,0.66667
0.28778,0.26459,2.0144,-0.35312,-21,184.09,1.8969,-0.6323,-1.5549,2.5292,-5.1243e-12,-0.77743,0,0,0.14286,-0,-0,0.66667
0.13003,0.17012,0.9102,-0.49481,-31.618,254.48,1.201,-0.40034,-1.1281,1.6013,6.4722e-09,-0.56404,0,0,0.14286,-0,-0,0.66667
0.019367,0.14803,0.13557,-0.52795,-34.324,305.77,0.19086,-0.063621,-1.0085,0.25448,-8.2034e-07,-0.50426,0,0,0.14286,2.1147e-17,0,0.66667
0.67884,0.90997,4.7518,0.61495,21.545,46.106,-7.7924,2.5975,-0.65454,-10.39,-3.0531e-12,-0.32727,0,0,0.14286,2.7068e-15,0,0.66667
0.21163,0.77616,1.4814,0.41424,25.684,217.48,-1.6364,0.54547,-1.3888,-2.1819,-1.1348e-10,-0.6944,0,0,0.14286,5.4825e-16,0,0.66667
0.26555,0.28807,1.8588,-0.3179,-19.153,193.67,1.5758,-0.52526,-1.6432,2.101,-6.0663e-13,-0.82162,0,0,0.14286,-0,-0,0.66667
0.49157,0.74725,3.441,0.37088,18.212,103.44,-3.4032,1.1344,-1.5102,-4.5376,-1.0936e-12,-0.75511,0,0,0.14286,8.4588e-16,0,0.66667
0.053363,0.86256,0.37354,0.54385,35.28,289.94,-0.54173,0.18058,-0.94666,-0.7223,-1.3784e-07,-0.47333,0,0,0.14286,2.1394e-17,0,0.66667
0.57412,0.61368,4.0188,0.17051,7.374,75.449,-1.8274,0.60912,-1.8958,-2.4365,-1.1102e-15,-0.9479,0,0,0.14286,-0,-0,0.66667
0.14673,0.9395,1.0271,0.65924,42.056,246.93,-1.8056,0.60188,-0.45433,-2.4075,-8.3364e-09,-0.22717,0,0,0.14286,3.3835e-16,0,0.66667
0.58931,0.60561,4.1251,0.15841,6.6672,70.697,-1.7426,0.58087,-1.9097,-2.3235,-2.5036e-13,-0.95486,0,0,0.14286,-0,-0,0.66667
0.69976,0.10229,4.8983,-0.59657,-19.763,40.853,7.7925,-2.5975,-0.73434,10.39,3.3906e-12,-0.36717,0,0,0.14286,-1.3534e-15,0,0.66667
0.10233,0.98938,0.71634,0.73408,47.439,267.32,-1.4023,0.46742,-0.082341,-1.8697,-3.1605e-08,-0.041171,0,0,0.14286,-0,-0,0.66667
0.41406,0.98682,2.8984,0.73022,39.507,132.85,-5.6439,1.8813,-0.10223,-7.5252,-4.5608e-13,-0.051114,0,0,0.14286,-6.7671e-16,0,0.66667
0.6944,0.90075,4.8608,0.60113,20.211,42.171,-7.7919,2.5973,-0.71406,-10.389,-2.2924e-12,-0.35703,0,0,0.14286,-6.7671e-16,0,0.66667
0.41418,0.73179,2.8993,0.34769,18.66,132.27,-2.6881,0.89603,-1.5683,-3.5841,9.9409e-13,-0.78416,0,0,0.14286,-0,-0,0.66667
0.049953,0.96362,0.34967,0.69543,45.264,291.56,-0.64846,0.21615,-0.28078,-0.86462,-4.7213e-07,-0.14039,0,0,0.14286,2.1147e-17,0,0.66667
0.5359,0.99431,3.7513,0.74146,34.521,88.786,-7.4172,2.4724,-0.044711,-9.8896,-4.4276e-13,-0.022355,0,0,0.14286,-3.3835e-16,0,0.66667
0.66379,0.020758,4.6466,-0.71886,-26.237,50.302,8.9073,-2.9691,-0.16091,11.876,3.0997e-13,-0.080454,0,0,0.14286,-0,-0,0.66667
0.51489,0.16433,3.6042,-0.50351,-24.013,95.439,4.8393,-1.6131,-1.1004,6.4524,-2.8022e-13,-0.55019,0,0,0.14286,-0,-0,0.66667
0.94459,0.88471,6.6122,0.57707,3.9247,2.906,-10.175,3.3917,-0.81434,-13.567,-3.9524e-08,-0.40717,0,0,0.14286,-0,-0,0.66667
0.58656,0.11667,4.1059,-0.575,-24.504,72.105,6.2957,-2.0986,-0.82294,8.3943,1.4433e-13,-0.41147,0,0,0.14286,-0,-0,0.66667
0.9034,0.45466,6.3238,-0.068006,-0.77758,5.101,1.1468,-0.38227,-1.9833,1.5291,1.0737e-09,-0.99164,0,0,0.14286,-0,-0,0.66667
0.13747,0.83135,0.96232,0.49702,31.696,251.07,-1.2755,0.42515,-1.1213,-1.7006,-5.7831e-09,-0.56063,0,0,0.14286,-1.6918e-16,0,0.66667
0.13928,0.69424,0.97493,0.29136,18.522,250.18,-0.75749,0.2525,-1.6995,-1.01,-4.6204e-09,-0.84977,0,0,0.14286,-0,-0,0.66667
0.80739,0.69526,5.6517,0.29288,6.5165,18.002,-4.4142,1.4714,-1.694,-5.8855,5.5812e-10,-0.84701,0,0,0.14286,-0,-0,0.66667
0.39768,0.57866,2.7837,0.11799,6.4224,138.6,-0.87587,0.29196,-1.9486,-1.1678,-9.4152e-13,-0.97432,0,0,0.14286,6.7671e-16,0,0.66667
0.16535,0.083831,1.1575,-0.62425,-39.558,238.43,1.9268,-0.64228,-0.61286,2.5691,2.0753e-09,-0.30643,0,0,0.14286,-0,-0,0.66667
0.92751,0.26774,6.4926,-0.34839,-3.0211,3.4143,6.0319,-2.0106,-1.5669,8.0425,-1.8544e-08,-0.78344,0,0,0.14286,-0,-0,0.66667
0.34777,0.76325,2.4344,0.39487,22.512,158.89,-2.5634,0.85446,-1.4447,-3.4178,2.7016e-12,-0.72234,0,0,0.14286,-0,-0,0.66667
0.75081,0.874,5.2557,0.56101,15.847,29.245,-7.8626,2.6209,-0.88377,-10.483,3.6096e-11,-0.44189,0,0,0.14286,1.6918e-15,0,0.66667
0.726,0.49922,5.082,-0.0011652,-0.035322,33.916,0.015791,-0.0052637,-1.9997,0.021055,2.8716e-12,-0.99983,0,0,0.14286,-2.0301e-15,0,0.66667
0.88331,0.57864,6.1831,0.11796,1.6266,7.1809,-1.945,0.64833,-1.9486,-2.5933,1.4326e-09,-0.97432,0,0,0.14286,-0,-0,0.66667
0.62367,0.62708,4.3657,0.19062,7.5058,60.446,-2.2192,0.73974,-1.8729,-2.959,-1.4442e-12,-0.93647,0,0,0.14286,2.7068e-15,0,0.66667
0.75094,0.38512,5.2566,-0.17233,-4.8145,28.552,2.4156,-0.8052,-1.8958,3.2208,-1.235e-11,-0.9479,0,0,0.14286,-0,-0,0.66667
0.3489,0.51957,2.4423,0.029352,1.6672,158.26,-0.19117,0.063722,-1.9956,-0.25489,2.353e-12,-0.99781,0,0,0.14286,-0,-0,0.66667
0.26993,0.39182,1.8895,-0.16228,-9.7393,191.7,0.81765,-0.27255,-1.9053,1.0902,-1.4294e-13,-0.95264,0,0,0.14286,-3.3835e-16,0,0.66667
0.89589,0.25282,6.2712,-0.37077,-4.6181,6.2009,6.2005,-2.0668,-1.5109,8.2673,-1.3817e-08,-0.75544,0,0,0.14286,-0,-0,0.66667
0.42809,0.5703,2.9966,0.10546,5.5669,126.75,-0.84271,0.2809,-1.9592,-1.1236,1.0508e-12,-0.97958,0,0,0.14286,-0,-0,0.66667
0.96484,0.92833,6.7539,0.64249,2.8001,2.1465,-11.571,3.8572,-0.53168,-15.429,2.104e-07,-0.26584,0,0,0.14286,-1.3534e-15,0,0.66667
0.66344,0.16741,4.6441,-0.49889,-18.085,49.843,6.1784,-2.0595,-1.1133,8.2378,3.3085e-12,-0.55666,0,0,0.14286,-1.3534e-15,0,0.66667
0.6217,0.76088,4.3519,0.39132,15.519,61.245,-4.5413,1.5138,-1.4551,-6.0551,-1.4633e-12,-0.72755,0,0,0.14286,1.3534e-15,0,0.66667
0.11475,0.42252,0.80322,-0.11621,-7.4265,261.43,0.24892,-0.082974,-1.9505,0.3319,1.3308e-09,-0.97524,0,0,0.14286,-1.6918e-16,0,0.66667
0.94949,0.59068,6.6464,0.13602,0.79834,1.7027,-2.4108,0.8036,-1.9346,-3.2144,-1.9996e-08,-0.96728,0,0,0.14286,-1.6918e-15,0,0.66667
0.44991,0.59821,3.1494,0.14731,7.5937,118.5,-1.2372,0.4124,-1.9232,-1.6496,4.9827e-13,-0.9616,0,0,0.14286,1.3534e-15,0,0.66667
0.57839,0.016081,4.0487,-0.72588,-31.532,74.998,7.837,-2.6123,-0.1284,10.449,-9.5612e-13,-0.064201,0,0,0.14286,-0,-0,0.66667
0.40814,0.79667,2.857,0.44501,24.063,134.72,-3.3903,1.1301,-1.2963,-4.5204,1.4508e-12,-0.64814,0,0,0.14286,-0,-0,0.66667
0.23703,0.047652,1.6592,-0.67852,-41.768,206.42,3.0021,-1.0007,-0.36289,4.0028,1.0025e-11,-0.18145,0,0,0.14286,-0,-0,0.66667
0.90338,0.069426,6.3237,-0.64586,-7.6628,6.2625,10.891,-3.6304,-0.51707,14.522,-2.5725e-08,-0.25854,0,0,0.14286,-0,1.2505e-16,0.66667
0.57368,0.45803,4.0158,-0.062959,-2.7231,75.543,0.6742,-0.22473,-1.9849,0.89894,2.1921e-13,-0.99246,0,0,0.14286,-0,-0,0.66667
0.0028703,0.76336,0.020092,0.39504,25.643,313.47,-0.021166,0.007055,-1.4449,-0.028221,-4.1272e-07,-0.72243,0,0,0.14286,-5.2868e-18,0,0.66667
0.61714,0.86404,4.32,0.54606,21.938,62.849,-6.2906,2.0969,-0.93805,-8.3875,4.13e-13,-0.46903,0,0,0.14286,-6.7671e-16,0,0.66667
0.32664,0.70793,2.2865,0.31189,18.052,167.59,-1.9017,0.63391,-1.655,-2.5356,4.5887e-12,-0.82751,0,0,0.14286,-0,-0,0.66667
0.52706,0.94802,3.6894,0.67203,31.632,91.598,-6.6117,2.2039,-0.39338,-8.8156,-1.994e-13,-0.19669,0,0,0.14286,-0,-0,0.66667
0.88594,0.046994,6.2016,-0.67951,-9.4786,8.1271,11.237,-3.7458,-0.35702,14.983,4.0247e-10,-0.17851,0,0,0.14286,-1.3534e-15,0,0.66667
0.35727,0.87399,2.5009,0.56098,31.829,155.17,-3.7412,1.2471,-0.88278,-4.9883,1.8465e-12,-0.44139,0,0,0.14286,-2.5377e-16,-1.5841e-16,0.66667
0.90854,0.80798,6.3597,0.46198,5.1015,5.2196,-7.8348,2.6116,-1.2421,-10.446,2.676e-08,-0.62106,0,0,0.14286,1.6918e-15,0,0.66667
0.62336,0.040489,4.3635,-0.68927,-27.471,61.388,8.0204,-2.6735,-0.31167,10.694,-3.0198e-14,-0.15583,0,0,0.14286,-0,-0,0.66667
0.015821,0.82076,0.11075,0.48114,31.261,307.42,-0.1421,0.047365,-1.1792,-0.18946,2.3482e-07,-0.58959,0,0,0.14286,-0,-0,0.66667
0.92944,0.52135,6.5061,0.032029,0.26625,2.9263,-0.55569,0.18523,-1.9947,-0.74091,2.4846e-08,-0.99734,0,0,0.14286,-0,-0,0.66667
0.6909,0.64605,4.8363,0.21908,7.364,42.362,-2.8254,0.9418,-1.8289,-3.7672,-5.9333e-12,-0.91447,0,0,0.14286,-0,-0,0.66667
0.99732,0.52553,6.9813,0.038299,-0.008899,0.0344,-0.713,0.23767,-1.9953,-0.95067,1.9167e-06,-0.99765,0,0,0.14286,-0,-0,0.66667
0.17234,0.77014,1.2064,0.40521,25.52,235.15,-1.3036,0.43453,-1.418,-1.7381,-1.1932e-09,-0.70898,0,0,0.14286,-0,-0,0.66667
0.13714,0.44245,0.95995,-0.086328,-5.4843,251.13,0.22099,-0.073662,-1.9736,0.29465,4.9875e-09,-0.98681,0,0,0.14286,-0,-0,0.66667
0.9326,0.1066,6.5282,-0.5901,-4.891,3.7099,10.273,-3.4242,-0.76061,13.697,-1.6922e-07,-0.3803,0,0,0.14286,-1.3534e-15,0,0.66667
0.69682,0.7649,4.8777,0.39735,13.188,41.138,-5.1684,1.7228,-1.4369,-6.8912,-7.1476e-12,-0.71844,0,0,0.14286,-1.3534e-15,0,0.66667
0.066,0.68562,0.462,0.27842,17.971,284.03,-0.34302,0.11434,-1.725,-0.45736,5.3e-09,-0.8625,0,0,0.14286,1.1631e-16,0,0.66667
0.75546,0.78652,5.2882,0.42977,11.885,27.978,-6.0607,2.0202,-1.3425,-8.0809,1.4042e-12,-0.67124,0,0,0.14286,-0,-0,0.66667
0.75388,0.82434,5.2771,0.48651,13.557,28.427,-6.8464,2.2821,-1.1576,-9.1285,3.8192e-12,-0.57881,0,0,0.14286,-0,-0,0.66667
0.92302,0.66459,6.4612,0.24688,2.2592,3.5786,-4.2537,1.4179,-1.7847,-5.6716,8.6111e-10,-0.89233,0,0,0.14286,-0,-0,0.66667
0.71152,0.45153,4.9807,-0.072711,-2.3034,37.271,0.96574,-0.32191,-1.9793,1.2876,2.8446e-12,-0.98967,0,0,0.14286,-0,-0,0.66667
0.12427,0.41282,0.8699,-0.13077,-8.3376,257.04,0.30334,-0.10111,-1.9412,0.40446,6.411e-09,-0.97058,0,0,0.14286,3.3835e-16,0,0.66667
0.01988,0.41813,0.13916,-0.12281,-7.9507,305.52,0.045574,-0.015191,-1.9454,0.060766,-8.0921e-08,-0.9727,0,0,0.14286,-4.2294e-17,0,0.66667
0.026211,0.61218,0.18348,0.16828,10.893,302.56,-0.082333,0.027444,-1.898,-0.10978,-2.1935e-08,-0.94899,0,0,0.14286,-4.2294e-17,0,0.66667
0.028306,0.29358,0.19815,-0.30963,-20.063,301.59,0.1636,-0.054534,-1.6589,0.21814,-1.0659e-07,-0.82943,0,0,0.14286,-4.2294e-17,0,0.66667
0.24621,0.89366,1.7235,0.59049,36.109,202.31,-2.7139,0.90463,-0.75946,-3.6185,9.9343e-13,-0.37973,0,0,0.14286,-0,-0,0.66667
0.86003,0.69778,6.0202,0.29667,4.9003,10.166,-4.7627,1.5876,-1.6887,-6.3503,4.4768e-09,-0.84436,0,0,0.14286,-0,-0,0.66667
0.53883,0.42705,3.7718,-0.10943,-5.0111,86.906,1.1006,-0.36688,-1.9557,1.4675,-1.0159e-13,-0.97786,0,0,0.14286,-0,-0,0.66667
0.55282,0.46517,3.8698,-0.052249,-2.34,82.259,0.53917,-0.17972,-1.9896,0.7189,4.3349e-13,-0.99482,0,0,0.14286,-0,-0,0.66667
0.84203,0.49463,5.8942,-0.008057,-0.14847,12.378,0.12664,-0.042213,-2.001,0.16885,8.0344e-10,-1.0005,0,0,0.14286,4.0602e-15,0,0.66667
0.12417,0.052057,0.86921,-0.67191,-43.144,257.25,1.5574,-0.51914,-0.39625,2.0766,4.6345e-08,-0.19813,0,0,0.14286,-0,-0,0.66667
0.27918,0.28218,1.9543,-0.32673,-19.528,187.77,1.7028,-0.56759,-1.6222,2.2703,-5.6324e-12,-0.8111,0,0,0.14286,-0,-0,0.66667
0.58576,0.087677,4.1003,-0.61848,-26.428,72.445,6.7626,-2.2542,-0.63866,9.0168,8.5665e-13,-0.31933,0,0,0.14286,-1.0151e-15,0,0.66667
0.9696,0.42581,6.7872,-0.11128,-0.3719,0.75733,2.0141,-0.67138,-1.9573,2.6855,1.9952e-07,-0.97867,0,0,0.14286,1.3534e-15,0,0.66667
0.56103,0.82255,3.9272,0.48383,21.496,79.992,-5.067,1.689,-1.1686,-6.756,8.6153e-14,-0.58431,0,0,0.14286,-0,-0,0.66667
0.018647,0.95834,0.13053,0.68752,44.838,306.12,-0.23931,0.079774,-0.31914,-0.31908,5.8807e-06,-0.15957,0,0,0.14286,2.1147e-17,0,0.66667
0.80063,0.53649,5.6044,0.054737,1.252,18.954,-0.81805,0.27268,-1.9893,-1.0907,4.6278e-12,-0.99464,0,0,0.14286,-0,-0,0.66667
0.23297,0.36165,1.6308,-0.20753,-12.711,207.91,0.90251,-0.30084,-1.8477,1.2033,6.4542e-11,-0.92385,0,0,0.14286,-0,-0,0.66667
0.80711,0.7965,5.6497,0.44475,9.9605,18.332,-6.7006,2.2335,-1.2952,-8.9341,3.3337e-10,-0.64759,0,0,0.14286,1.3534e-15,0,0.66667
0.38786,0.95404,2.715,0.68106,37.732,143.03,-4.9309,1.6436,-0.35057,-6.5745,-1.7106e-12,-0.17528,0,0,0.14286,-0,-1.686e-16,0.66667
0.86354,0.49395,6.0448,-0.0090723,-0.14543,9.482,0.14624,-0.048747,-1.9993,0.19499,-7.7902e-09,-0.99966,0,0,0.14286,-4.0602e-15,0,0.66667
0.74712,0.21536,5.2299,-0.42696,-12.156,29.712,5.9545,-1.9848,-1.3526,7.9393,7.4962e-13,-0.67629,0,0,0.14286,2.2513e-15,0,0.66667
0.55624,0.57963,3.8937,0.11945,5.3215,81.163,-1.2402,0.41342,-1.9475,-1.6537,-4.331e-13,-0.97377,0,0,0.14286,-0,-0,0.66667
0.13646,0.13934,0.95519,-0.54099,-34.535,251.56,1.378,-0.45933,-0.95836,1.8373,-1.7524e-10,-0.47918,0,0,0.14286,-0,-0,0.66667
0.059918,0.79638,0.41942,0.44457,28.773,286.88,-0.49723,0.16574,-1.2972,-0.66298,-3.5101e-08,-0.64859,0,0,0.14286,-8.4588e-17,0,0.66667
0.12134,0.67439,0.8494,0.26159,16.705,258.41,-0.59253,0.19751,-1.756,-0.79003,-7.2246e-09,-0.87798,0,0,0.14286,1.6918e-16,0,0.66667
0.044552,0.78309,0.31186,0.42464,27.519,294.03,-0.35314,0.11771,-1.3603,-0.47086,3.4718e-08,-0.68014,0,0,0.14286,1.6918e-16,0,0.66667
0.10749,0.66305,0.75246,0.24457,15.667,264.79,-0.49075,0.16358,-1.7883,-0.65433,-7.269e-09,-0.89413,0,0,0.14286,-0,-0,0.66667
0.22571,0.069303,1.58,-0.64604,-39.961,211.39,2.7219,-0.90731,-0.5147,3.6293,2.8032e-11,-0.25735,0,0,0.14286,-0,-0,0.66667
0.71299,0.38368,4.9909,-0.17448,-5.5081,36.982,2.3221,-0.77405,-1.8905,3.0962,5.8233e-12,-0.94524,0,0,0.14286,-0,-0,0.66667
0.55972,0.083583,3.918,-0.62462,-27.912,80.688,6.5261,-2.1754,-0.61274,8.7015,1.6964e-13,-0.30637,0,0,0.14286,-6.7671e-16,-2.2554e-16,0.66667
0.012556,0.90984,0.087892,0.61475,40.04,308.95,-0.14408,0.048025,-0.65686,-0.19211,-4.4696e-06,-0.32843,0,0,0.14286,-0,-2.0132e-16,0.66667
0.071974,0.96087,0.50382,0.69131,44.871,281.34,-0.92879,0.3096,-0.29946,-1.2384,-1.7817e-06,-0.14973,0,0,0.14286,-0,-0,0.66667
0.96728,0.87002,6.7709,0.55503,2.1879,1.7359,-10.021,3.3405,-0.90622,-13.362,-3.4162e-07,-0.45311,0,0,0.14286,-2.0301e-15,0,0.66667
0.5681,0.29118,3.9767,-0.31323,-13.709,77.484,3.3216,-1.1072,-1.6498,4.4289,8.7708e-14,-0.8249,0,0,0.14286,-0,-0,0.66667
0.20329,0.30427,1.4231,-0.29359,-18.244,221.15,1.1141,-0.37138,-1.6958,1.4855,3.4197e-10,-0.84791,0,0,0.14286,1.6918e-16,0,0.66667
0.25233,0.6315,1.7663,0.19724,11.959,199.39,-0.92903,0.30968,-1.8623,-1.2387,-6.9886e-12,-0.93116,0,0,0.14286,-0,-0,0.66667
0.74383,0.86372,5.2068,0.54558,15.773,30.679,-7.5752,2.5251,-0.94007,-10.1,-1.0072e-11,-0.47004,0,0,0.14286,-6.7671e-16,0,0.66667
0.19543,0.70603,1.368,0.30905,19.27,224.69,-1.1274,0.3758,-1.6586,-1.5032,-4.8568e-10,-0.82928,0,0,0.14286,-0,-0,0.66667
0.58136,0.27133,4.0695,-0.34301,-14.678,73.332,3.7224,-1.2408,-1.5814,4.9632,5.3735e-13,-0.79068,0,0,0.14286,-0,-0,0.66667
0.97002,0.50071,6.7901,0.0010632,0.0034812,0.70423,-0.019252,0.0064135,-2.0024,-0.025671,-5.5006e-06,-1.0012,0,0,0.14286,-0,-0,0.66667
0.84683,0.79527,5.9278,0.4429,8.0172,12.218,-7.0011,2.3337,-1.3021,-9.3348,2.4808e-09,-0.65106,0,0,0.14286,-0,-0,0.66667
0.23985,0.60418,1.6789,0.15627,9.5353,204.86,-0.69966,0.23322,-1.9118,-0.93288,-2.9693e-11,-0.95591,0,0,0.14286,-0,-0,0.66667
0.49377,0.38588,3.4564,-0.17118,-8.3624,102.49,1.5778,-0.52592,-1.8942,2.1037,9.0705e-14,-0.94712,0,0,0.14286,-0,-0,0.66667
0.61996,0.74546,4.3397,0.36819,14.647,61.717,-4.2609,1.4203,-1.5175,-5.6812,-2.8155e-13,-0.75873,0,0,0.14286,-3.3835e-16,0,0.66667
0.82898,0.13694,5.8029,-0.54459,-10.979,15.074,8.4272,-2.8091,-0.94684,11.236,1.9122e-10,-0.47342,0,0,0.14286,1.3534e-15,0,0.66667
0.15679,0.99325,1.0975,0.73987,47.138,242.4,-2.1654,0.72181,-0.055774,-2.8872,7.5014e-10,-0.027887,0,0,0.14286,5.9212e-16,0,0.66667
0.018576,0.083942,0.13003,-0.62409,-40.648,306.15,0.2164,-0.072136,-0.61504,0.28854,-1.4252e-06,-0.30752,0,0,0.14286,-2.1147e-17,0,0.66667
0.070022,0.79263,0.49016,0.43894,28.368,282.18,-0.57373,0.19124,-1.3132,-0.76497,-4.6764e-08,-0.6566,0,0,0.14286,-0,-0,0.66667
0.48635,0.22987,3.4044,-0.4052,-20.044,105.35,3.6786,-1.2262,-1.4167,4.9048,2.5602e-13,-0.70835,0,0,0.14286,-0,-0,0.66667
0.60633,0.37903,4.2443,-0.18145,-7.3968,65.541,2.0537,-0.68455,-1.8835,2.7382,2.5446e-12,-0.94173,0,0,0.14286,-1.3534e-15,0,0.66667
0.56885,0.14636,3.982,-0.53046,-23.287,77.569,5.6327,-1.8776,-0.99799,7.5103,2.145e-13,-0.499,0,0,0.14286,-6.7671e-16,0,0.66667
0.31736,0.37352,2.2215,-0.18972,-11.043,171.43,1.1239,-0.37463,-1.8721,1.4985,-2.112e-12,-0.93605,0,0,0.14286,-0,-0,0.66667
0.98862,0.025421,6.9203,-0.71187,-1.0117,1.7305,13.137,-4.379,-0.19782,17.516,-3.4267e-05,-0.098909,0,0,0.14286,-1.3534e-15,0,0.66667
0.57975,0.7844,4.0582,0.4266,18.335,73.952,-4.6166,1.5389,-1.3546,-6.1554,-3.0642e-13,-0.67732,0,0,0.14286,-0,-0,0.66667
0.38014,0.34034,2.661,-0.2395,-13.261,145.63,1.6995,-0.56649,-1.7957,2.266,2.285e-12,-0.89783,0,0,0.14286,1.6918e-16,0,0.66667
0.55095,0.34642,3.8566,-0.23037,-10.361,82.96,2.3692,-0.78974,-1.8115,3.159,-5.429e-13,-0.90575,0,0,0.14286,-0,-0,0.66667
0.74533,0.65726,5.2173,0.23588,6.7259,29.797,-3.2818,1.0939,-1.8024,-4.3758,8.0012e-12,-0.9012,0,0,0.14286,-2.7068e-15,0,0.66667
0.66923,0.98039,4.6846,0.72058,25.961,48.88,-9.0017,3.0006,-0.1538,-12.002,9.6811e-14,-0.076899,0,0,0.14286,-0,-0,0.66667
0.26492,0.49757,1.8544,-0.0036445,-0.21927,193.86,0.018023,-0.0060076,-2.0026,0.02403,2.6195e-12,-1.0013,0,0,0.14286,5.9212e-16,0,0.66667
0.066335,0.40013,0.46434,-0.1498,-9.6601,283.86,0.18549,-0.061831,-1.92,0.24732,-1.9681e-08,-0.95999,0,0,0.14286,1.2688e-16,0,0.66667
0.37008,0.11586,2.5906,-0.57621,-32.352,149.99,3.9806,-1.3269,-0.81845,5.3074,1.8252e-12,-0.40922,0,0,0.14286,-0,-0,0.66667
0.62972,0.21454,4.408,-0.4282,-16.714,58.996,5.0333,-1.6778,-1.3477,6.7111,1.4797e-12,-0.67386,0,0,0.14286,3.3835e-16,0,0.66667
0.21017,0.31647,1.4712,-0.2753,-17.053,218.07,1.0801,-0.36002,-1.7296,1.4401,2.3416e-10,-0.86481,0,0,0.14286,-6.7671e-16,0,0.66667
0.75276,0.78244,5.2693,0.42366,11.827,28.525,-5.953,1.9843,-1.363,-7.9374,-8.1672e-12,-0.68152,0,0,0.14286,2.7068e-15,0,0.66667
0.066536,0.79272,0.46576,0.43907,28.391,283.8,-0.54534,0.18178,-1.3137,-0.72712,-4.3968e-08,-0.65684,0,0,0.14286,-0,-0,0.66667
0.26032,0.77512,1.8222,0.41268,24.967,196,-2.0053,0.66844,-1.3936,-2.6738,2.4802e-12,-0.6968,0,0,0.14286,1.6918e-16,0,0.66667
0.80475,0.67466,5.6333,0.262,5.8974,18.407,-3.9357,1.3119,-1.7541,-5.2476,4.6045e-10,-0.87705,0,0,0.14286,-0,-0,0.66667
0.19343,0.05046,1.354,-0.67431,-42.331,225.8,2.4348,-0.81159,-0.38173,3.2464,-2.0331e-10,-0.19086,0,0,0.14286,-0,-0,0.66667
0.63946,0.055376,4.4762,-0.66694,-25.674,56.764,7.9609,-2.6536,-0.41997,10.615,8.1313e-13,-0.20999,0,0,0.14286,-0,-1.191e-16,0.66667
0.52467,0.41447,3.6727,-0.1283,-6.002,91.698,1.2565,-0.41884,-1.9401,1.6754,8.8896e-13,-0.97003,0,0,0.14286,-0,-0,0.66667
0.92481,0.049945,6.4737,-0.67508,-6.3086,4.5777,11.654,-3.8847,-0.37932,15.539,-5.4586e-07,-0.18966,0,0,0.14286,1.3534e-15,0,0.66667
0.2633,0.1957,1.8431,-0.45646,-27.587,194.73,2.2434,-0.74781,-1.2596,2.9912,-9.9172e-12,-0.62982,0,0,0.14286,-0,-0,0.66667
0.065961,0.014927,0.46173,-0.72761,-47.305,284.14,0.89589,-0.29863,-0.11698,1.1945,-1.8171e-07,-0.05849,0,0,0.14286,-1.6918e-16,0,0.66667
0.73507,0.81244,5.1455,0.46866,13.908,32.395,-6.4305,2.1435,-1.2222,-8.5741,-1.73e-11,-0.61109,0,0,0.14286,2.6963e-16,0,0.66667
0.77218,0.33477,5.4052,-0.24785,-6.4089,24.341,3.5725,-1.1908,-1.7801,4.7633,-7.5913e-11,-0.89005,0,0,0.14286,-0,-0,0.66667
0.90782,0.26441,6.3547,-0.35339,-3.9001,5.0338,5.9885,-1.9962,-1.5566,7.9847,-1.759e-08,-0.77831,0,0,0.14286,-0,-0,0.66667
0.93197,0.019914,6.5238,-0.72013,-6.1507,4.2467,12.528,-4.176,-0.15471,16.704,-4.4376e-07,-0.077356,0,0,0.14286,-0,-0,0.66667
0.013952,0.031277,0.097661,-0.70308,-45.876,308.31,0.1831,-0.061012,-0.24461,0.24415,3.3751e-05,-0.1223,0,0,0.14286,-4.2294e-17,0,0.66667
0.23436,0.086751,1.6405,-0.61987,-38.159,207.54,2.7118,-0.90393,-0.6364,3.6157,5.8155e-11,-0.3182,0,0,0.14286,3.3835e-16,1.1762e-16,0.66667
0.61678,0.47309,4.3174,-0.040361,-1.6103,62.387,0.46468,-0.15489,-1.9932,0.61957,4.7518e-13,-0.99661,0,0,0.14286,-0,-0,0.66667
0.94902,0.076726,6.6431,-0.63491,-4.0169,2.8644,11.247,-3.7491,-0.56572,14.997,-4.2905e-07,-0.28286,0,0,0.14286,-0,5.0207e-17,0.66667
0.95018,0.57818,6.6512,0.11728,0.67774,1.6512,-2.0801,0.69336,-1.9507,-2.7734,-4.0053e-08,-0.97537,0,0,0.14286,-0,-0,0.66667
0.55665,0.69103,3.8966,0.28655,12.777,81.146,-2.9775,0.99249,-1.7074,-3.9699,1.3136e-12,-0.85372,0,0,0.14286,-1.3534e-15,0,0.66667
0.91561,0.67466,6.4092,0.26199,2.633,4.1981,-4.4777,1.4926,-1.7543,-5.9703,1.0039e-08,-0.87713,0,0,0.14286,-0,-0,0.66667
0.64157,0.022684,4.491,-0.71597,-27.486,56.313,8.5744,-2.8581,-0.17889,11.433,7.665e-13,-0.089444,0,0,0.14286,-0,-0,0.66667
0.39001,0.92783,2.7301,0.64175,35.45,142.12,-4.672,1.5573,-0.5374,-6.2294,-1.7186e-13,-0.2687,0,0,0.14286,-3.3835e-16,-1.4457e-16,0.66667
0.48599,0.037084,3.4019,-0.69437,-34.593,105.95,6.2992,-2.0997,-0.28695,8.399,9.3214e-13,-0.14348,0,0,0.14286,-0,-0,0.66667
0.60431,0.18248,4.2302,-0.47628,-19.587,66.511,5.3726,-1.7909,-1.1928,7.1635,9.9032e-14,-0.59642,0,0,0.14286,1.0345e-15,0,0.66667
0.54955,0.60082,3.8468,0.15123,6.8119,83.369,-1.5514,0.51712,-1.919,-2.0685,2.7645e-14,-0.95951,0,0,0.14286,-0,-0,0.66667
0.92618,0.76435,6.4833,0.39653,3.5169,3.6158,-6.8554,2.2851,-1.4399,-9.1406,3.5205e-08,-0.71993,0,0,0.14286,1.3534e-15,0,0.66667
0.91873,0.23191,6.4311,-0.40214,-3.9296,4.2067,6.8966,-2.2989,-1.4246,9.1955,-2.54e-08,-0.71229,0,0,0.14286,-0,-0,0.66667
0.39488,0.80231,2.7641,0.45346,24.839,139.94,-3.3424,1.1141,-1.268,-4.4566,1.4975e-12,-0.63401,0,0,0.14286,-3.3835e-16,0,0.66667
0.96326,0.9542,6.7428,0.6813,3.1409,2.3651,-12.25,4.0835,-0.34807,-16.334,5.8869e-06,-0.17403,0,0,0.14286,-0,-0,0.66667
0.17396,0.49282,1.2177,-0.010764,-0.67567,234.33,0.034952,-0.011651,-2.0003,0.046602,3.0497e-10,-1.0002,0,0,0.14286,5.0753e-16,0,0.66667
0.12633,0.56279,0.88431,0.094185,6.0011,256.09,-0.2221,0.074034,-1.971,-0.29614,1.3508e-09,-0.98548,0,0,0.14286,3.3835e-16,0,0.66667
0.13508,0.38654,0.94555,-0.17019,-10.822,252.08,0.42913,-0.14304,-1.8956,0.57217,3.3755e-09,-0.94778,0,0,0.14286,-0,-0,0.66667
0.50566,0.27933,3.5396,-0.331,-15.94,98.417,3.1243,-1.0414,-1.6102,4.1658,7.1054e-14,-0.80508,0,0,0.14286,1.6918e-16,0,0.66667
0.021525,0.19526,0.15067,-0.45711,-29.683,304.76,0.18367,-0.061222,-1.2558,0.24489,-4.4302e-07,-0.62792,0,0,0.14286,-0,-0,0.66667
0.94797,0.55603,6.6358,0.084049,0.50814,1.7534,-1.4873,0.49576,-1.974,-1.9831,-1.4901e-08,-0.98702,0,0,0.14286,6.7671e-16,0,0.66667
0.82712,0.79877,5.7898,0.44815,9.0806,15.113,-6.9192,2.3064,-1.2871,-9.2257,9.3691e-10,-0.64353,0,0,0.14286,1.3534e-15,0,0.66667
0.015019,0.87567,0.10513,0.56351,36.664,307.8,-0.15798,0.052661,-0.87402,-0.21064,2.3741e-07,-0.43701,0,0,0.14286,-0,-0,0.66667
0.1762,0.039335,1.2334,-0.691,-43.683,233.57,2.2727,-0.75756,-0.3016,3.0303,2.6182e-10,-0.1508,0,0,0.14286,-0,-0,0.66667
0.33206,0.4427,2.3244,-0.085955,-4.947,165.24,0.53279,-0.1776,-1.9736,0.71039,-1.0174e-12,-0.98679,0,0,0.14286,6.7671e-16,0,0.66667
0.131,0.50089,0.91698,0.0013316,0.084729,253.94,-0.0032562,0.0010854,-1.9998,-0.0043416,-4.7336e-09,-0.99992,0,0,0.14286,-6.7671e-16,0,0.66667
0.80949,0.9747,5.6664,0.71206,15.996,18.71,-10.76,3.5865,-0.19751,-14.346,1.6621e-10,-0.098753,0,0,0.14286,-0,-0,0.66667
0.34474,0.29184,2.4132,-0.31224,-17.825,160.08,2.0093,-0.66976,-1.6547,2.6791,-1.1118e-12,-0.82734,0,0,0.14286,-0,-0,0.66667
0.94011,0.84743,6.5808,0.52114,3.7991,2.996,-9.1453,3.0484,-1.0352,-12.194,1.4267e-08,-0.51761,0,0,0.14286,-0,-0,0.66667
0.58201,0.85033,4.0741,0.52549,22.546,73.414,-5.709,1.903,-1.0179,-7.612,1.0103e-12,-0.50893,0,0,0.14286,-1.3534e-15,0,0.66667
0.87883,0.39457,6.1518,-0.15814,-2.264,7.7131,2.5943,-0.86477,-1.9103,3.4591,-7.2536e-09,-0.95516,0,0,0.14286,1.3534e-15,0,0.66667
0.84473,0.6288,5.9131,0.1932,3.5101,12.092,-3.0465,1.0155,-1.8694,-4.062,1.5362e-09,-0.9347,0,0,0.14286,-0,-0,0.66667
0.90539,0.41505,6.3377,-0.12742,-1.4285,4.9483,2.1535,-0.71785,-1.9439,2.8714,-9.493e-09,-0.97193,0,0,0.14286,-0,-0,0.66667
0.45988,0.91288,3.2192,0.61932,31.79,115.3,-5.3166,1.7722,-0.63496,-7.0887,-7.3852e-13,-0.31748,0,0,0.14286,-0,-0,0.66667
0.54635,0.89228,3.8244,0.58842,26.836,84.974,-6.001,2.0003,-0.77053,-8.0013,1.7364e-13,-0.38526,0,0,0.14286,-6.7671e-16,0,0.66667
0.7986,0.060767,5.5902,-0.65885,-15.504,20.38,9.8216,-3.2739,-0.45847,13.096,3.4517e-10,-0.22923,0,0,0.14286,1.6918e-16,0,0.66667
0.28572,0.024953,2,-0.71257,-42.714,185.31,3.8004,-1.2668,-0.19409,5.0672,1.0696e-12,-0.097043,0,0,0.14286,-0,-0,0.66667
0.49025,0.70925,3.4318,0.31387,15.427,103.85,-2.8724,0.95746,-1.6483,-3.8298,-3.9102e-13,-0.82416,0,0,0.14286,-0,-0,0.66667
0.59911,0.031142,4.1938,-0.70329,-29.406,68.575,7.8651,-2.6217,-0.24156,10.487,1.0689e-12,-0.12078,0,0,0.14286,8.776e-16,0,0.66667
0.015533,0.94002,0.10873,0.66003,43.025,307.57,-0.19137,0.063789,-0.45424,-0.25516,-3.0665e-06,-0.22712,0,0,0.14286,-0,-0,0.66667
0.59348,0.86699,4.1544,0.55048,23.149,69.927,-6.0984,2.0328,-0.92479,-8.1312,5.7288e-14,-0.46239,0,0,0.14286,-0,1.4014e-16,0.66667
0.43368,0.57866,3.0357,0.118,6.192,124.62,-0.95521,0.3184,-1.9496,-1.2736,1.0117e-12,-0.97482,0,0,0.14286,-0,-0,0.66667
0.80736,0.82224,5.6515,0.48336,10.83,18.379,-7.2846,2.4282,-1.1681,-9.7128,3.4992e-10,-0.58405,0,0,0.14286,-0,-0,0.66667
0.31524,0.61723,2.2067,0.17584,10.25,172.31,-1.0348,0.34492,-1.8903,-1.3797,6.1527e-12,-0.94514,0,0,0.14286,-0,-0,0.66667
0.89289,0.51368,6.2502,0.020517,0.25981,6.1229,-0.34195,0.11398,-1.9986,-0.45594,2.1294e-08,-0.99932,0,0,0.14286,-2.7068e-15,0,0.66667
0.57786,0.70046,4.045,0.30069,12.938,74.38,-3.2434,1.0811,-1.6804,-4.3245,6.4837e-14,-0.8402,0,0,0.14286,-0,-0,0.66667
0.18401,0.33289,1.2881,-0.25067,-15.693,229.81,0.86102,-0.28701,-1.7761,1.148,8.3068e-10,-0.88803,0,0,0.14286,-0,-0,0.66667
0.78793,0.74957,5.5155,0.37435,9.1096,21.561,-5.506,1.8353,-1.5015,-7.3413,2.0833e-10,-0.75076,0,0,0.14286,1.9878e-15,0,0.66667
0.61203,0.16101,4.2842,-0.50849,-20.617,64.275,5.8093,-1.9364,-1.0813,7.7457,-4.4098e-13,-0.54067,0,0,0.14286,1.3534e-15,0,0.66667
0.053909,0.075316,0.37736,-0.63703,-41.395,289.71,0.64104,-0.21368,-0.55534,0.85472,2.0168e-07,-0.27767,0,0,0.14286,-8.4588e-17,0,0.66667
0.42019,0.076161,2.9414,-0.63576,-34.098,130.31,4.9866,-1.6622,-0.56347,6.6489,1.0703e-12,-0.28173,0,0,0.14286,-0,-1.665e-16,0.66667
0.67907,0.014685,4.7535,-0.72797,-25.604,46.367,9.2277,-3.0759,-0.11389,12.304,8.189e-13,-0.056944,0,0,0.14286,-0,-0,0.66667
0.9186,0.96902,6.4302,0.70354,7.129,5.1697,-12.064,4.0212,-0.24122,-16.085,2.6756e-07,-0.12061,0,0,0.14286,-0,5.8922e-18,0.66667
0.00040202,0.73607,0.0028142,0.3541,22.974,314.62,-0.0026573,0.00088555,-1.5559,-0.0035431,-3.1035e-07,-0.77794,0,0,0.14286,-0,-0,0.66667
0.97676,0.16819,6.8373,-0.49772,-1.3314,1.2284,9.0748,-3.0249,-1.1174,12.1,8.5784e-07,-0.55871,0,0,0.14286,-0,-0,0.66667
0.37658,0.33489,2.6361,-0.24766,-13.757,147.06,1.7409,-0.58031,-1.7829,2.3212,9.4558e-13,-0.89144,0,0,0.14286,-0,-0,0.66667
0.97378,0.62236,6.8165,0.18354,0.51985,0.67359,-3.3363,1.1121,-1.88,-4.4484,-6.1501e-08,-0.94,0,0,0.14286,-1.6918e-15,0,0.66667
0.60472,0.84913,4.233,0.5237,21.547,66.478,-5.9115,1.9705,-1.0243,-7.882,3.5527e-15,-0.51217,0,0,0.14286,-0,-0,0.66667
0.82885,0.61039,5.8019,0.16559,3.2944,14.401,-2.5619,0.85398,-1.9039,-3.4159,1.0357e-09,-0.95195,0,0,0.14286,-0,-0,0.66667
0.57471,0.63837,4.023,0.20755,8.9693,75.286,-2.2266,0.74219,-1.8462,-2.9688,1.5543e-13,-0.92312,0,0,0.14286,-0,-0,0.66667
0.62808,0.19138,4.3965,-0.46293,-18.147,59.526,5.4275,-1.8092,-1.2386,7.2366,5.7909e-13,-0.61928,0,0,0.14286,1.3534e-15,0,0.66667
0.28558,0.93256,1.999,0.64883,38.838,185.29,-3.4588,1.1529,-0.50285,-4.6117,2.2065e-12,-0.25143,0,0,0.14286,1.6918e-16,0,0.66667
0.58683,0.65822,4.1078,0.23733,10.041,71.518,-2.5997,0.86658,-1.7992,-3.4663,1.823e-13,-0.8996,0,0,0.14286,-1.3534e-15,0,0.66667
0.75002,0.052986,5.2502,-0.67052,-19.086,29.725,9.3876,-3.1292,-0.40376,12.517,9.4076e-12,-0.20188,0,0,0.14286,6.7671e-16,0,0.66667
0.85831,0.94407,6.0082,0.66611,11.376,11.337,-10.672,3.5574,-0.42405,-14.23,-1.5404e-08,-0.21202,0,0,0.14286,-0,-0,0.66667
0.75508,0.10195,5.2856,-0.59707,-16.64,28.46,8.4156,-2.8052,-0.73145,11.221,1.3295e-11,-0.36573,0,0,0.14286,-1.3534e-15,0,0.66667
0.69806,0.58231,4.8864,0.12346,4.0657,40.526,-1.6088,0.53627,-1.9445,-2.1451,-4.0823e-12,-0.97226,0,0,0.14286,-0,-0,0.66667
0.86448,0.19316,6.0514,-0.46025,-7.4305,9.9335,7.4271,-2.4757,-1.2461,9.9028,-2.3597e-09,-0.62304,0,0,0.14286,-0,-0,0.66667
0.32268,0.015682,2.2588,-0.72648,-42.495,169.68,4.3758,-1.4586,-0.12196,5.8345,-3.082e-13,-0.060979,0,0,0.14286,-0,-0,0.66667
0.67079,0.14898,4.6955,-0.52653,-18.766,47.97,6.5929,-2.1976,-1.0158,8.7906,2.5531e-12,-0.5079,0,0,0.14286,-0,2.2043e-16,0.66667
0.45087,0.66329,3.1561,0.24493,12.621,118.19,-2.0614,0.68714,-1.7873,-2.7486,3.6793e-13,-0.89367,0,0,0.14286,-0,-0,0.66667
0.3821,0.65826,2.6747,0.23738,13.12,144.84,-1.6932,0.56439,-1.7991,-2.2575,3.2832e-12,-0.89954,0,0,0.14286,-1.3534e-15,0,0.66667
0.41081,0.60289,2.8757,0.15434,8.2956,133.45,-1.1836,0.39452,-1.9144,-1.5781,-4.9682e-13,-0.95719,0,0,0.14286,-0,-0,0.66667
0.40148,0.65624,2.8104,0.23436,12.72,137.15,-1.7564,0.58545,-1.8051,-2.3418,6.0896e-13,-0.90256,0,0,0.14286,2.6599e-16,0,0.66667
0.31738,0.90403,2.2217,0.60605,35.484,171.74,-3.5905,1.1968,-0.69398,-4.7874,5.5216e-12,-0.34699,0,0,0.14286,-6.7671e-16,0,0.66667
0.62192,0.25607,4.3534,-0.3659,-14.497,61.143,4.2478,-1.4159,-1.5242,5.6637,4.4009e-13,-0.76209,0,0,0.14286,1.3534e-15,0,0.66667
0.43025,0.91629,3.0117,0.62444,33.133,126.44,-5.0151,1.6717,-0.61194,-6.6867,6.0441e-13,-0.30597,0,0,0.14286,-0,-0,0.66667
0.9738,0.26277,6.8166,-0.35584,-1.0413,0.95453,6.4683,-2.1561,-1.5484,8.6244,1.7341e-07,-0.77422,0,0,0.14286,-0,-0,0.66667
0.6778,0.52651,4.7446,0.039763,1.3812,45.576,-0.5031,0.1677,-1.9935,-0.67079,-8.0763e-13,-0.99677,0,0,0.14286,-1.3534e-15,0,0.66667
0.19857,0.55568,1.39,0.083525,5.1937,223.22,-0.3096,0.1032,-1.9745,-0.41279,-2.7398e-10,-0.98727,0,0,0.14286,-0,-0,0.66667
0.4267,0.66776,2.9869,0.25163,13.317,127.36,-2.0043,0.6681,-1.7737,-2.6724,6.3971e-13,-0.88683,0,0,0.14286,-0,-0,0.66667
0.34335,0.20883,2.4034,-0.43675,-25.002,160.75,2.7992,-0.93307,-1.3237,3.7323,-6.5725e-14,-0.66184,0,0,0.14286,3.3835e-16,0,0.66667
0.79764,0.69944,5.5835,0.29916,6.9632,19.693,-4.4542,1.4847,-1.6832,-5.939,3.5204e-10,-0.84162,0,0,0.14286,-1.3534e-15,0,0.66667
0.88,0.89083,6.16,0.58625,8.508,8.4533,-9.6301,3.21,-0.77661,-12.84,-1.2929e-08,-0.3883,0,0,0.14286,-0,-0,0.66667
0.90384,0.68531,6.3269,0.27797,3.1848,5.264,-4.6898,1.5633,-1.7265,-6.2531,1.1329e-08,-0.86327,0,0,0.14286,-1.6918e-16,0,0.66667
0.66272,0.6735,4.639,0.26025,9.4018,49.661,-3.2195,1.0732,-1.7574,-4.2927,-3.3167e-12,-0.87871,0,0,0.14286,-0,-0,0.66667
0.27021,0.57254,1.8915,0.1088,6.5274,191.57,-0.54879,0.18293,-1.9569,-0.73173,5.1259e-12,-0.97845,0,0,0.14286,6.7671e-16,0,0.66667
0.25237,0.90755,1.7666,0.61133,37.277,199.63,-2.8799,0.95996,-0.67267,-3.8398,1.3189e-11,-0.33634,0,0,0.14286,-6.7671e-16,0,0.66667
0.8549,0.60397,5.9843,0.15596,2.6554,10.667,-2.4888,0.8296,-1.9126,-3.3184,2.7587e-09,-0.95628,0,0,0.14286,-0,-0,0.66667
0.52771,0.4464,3.694,-0.080401,-3.7437,90.645,0.792,-0.264,-1.9766,1.056,2.2482e-14,-0.98831,0,0,0.14286,-0,-0,0.66667
0.80216,0.39913,5.6151,-0.1513,-3.4396,18.739,2.2655,-0.75516,-1.9176,3.0207,-2.252e-10,-0.95882,0,0,0.14286,6.7671e-16,0,0.66667
0.57249,0.070747,4.0074,-0.64388,-28.181,76.652,6.8808,-2.2936,-0.52472,9.1744,3.8725e-13,-0.26236,0,0,0.14286,-0,-0,0.66667
0.73314,0.94816,5.132,0.67224,20.236,33.348,-9.1998,3.0666,-0.39434,-12.266,1.6991e-12,-0.19717,0,0,0.14286,-0,1.5208e-16,0.66667
0.51901,0.096499,3.6331,-0.60525,-28.768,94.202,5.8638,-1.9546,-0.69804,7.8184,8.0824e-14,-0.34902,0,0,0.14286,-1.3534e-15,0,0.66667
0.77088,0.68874,5.3962,0.28311,7.363,24.638,-4.0738,1.3579,-1.715,-5.4318,8.1863e-11,-0.8575,0,0,0.14286,2.7068e-15,0,0.66667
0.56886,0.32867,3.982,-0.257,-11.225,77.186,2.729,-0.90965,-1.7634,3.6386,2.5335e-13,-0.8817,0,0,0.14286,-0,-0,0.66667
0.46571,0.26073,3.26,-0.3589,-18.201,112.79,3.12,-1.04,-1.5418,4.16,1.575e-12,-0.77088,0,0,0.14286,-1.3534e-15,0,0.66667
0.34269,0.83409,2.3988,0.50114,28.734,161.09,-3.2057,1.0686,-1.1084,-4.2743,3.3371e-12,-0.5542,0,0,0.14286,-3.3835e-16,0,0.66667
0.068209,0.32015,0.47747,-0.26978,-17.406,283,0.34349,-0.1145,-1.7401,0.45799,-2.6095e-09,-0.87003,0,0,0.14286,-0,-0,0.66667
0.37792,0.6022,2.6455,0.1533,8.4992,146.48,-1.0814,0.36048,-1.9165,-1.4419,8.4699e-13,-0.95823,0,0,0.14286,6.7671e-16,0,0.66667
0.079626,0.7934,0.55738,0.44011,28.403,277.73,-0.65415,0.21805,-1.3121,-0.8722,-3.5696e-08,-0.65605,0,0,0.14286,-0,-0,0.66667
0.98282,0.91129,6.8797,0.61694,1.2569,1.4684,-11.318,3.7728,-0.64815,-15.091,-1.5725e-07,-0.32408,0,0,0.14286,-2.7068e-15,9.1546e-17,0.66667
0.18161,0.26992,1.2713,-0.34513,-21.646,230.93,1.17,-0.39001,-1.575,1.56,8.7552e-10,-0.78748,0,0,0.14286,-0,-0,0.66667
0.81186,0.75257,5.683,0.37885,8.2729,17.401,-5.7414,1.9138,-1.4923,-7.6552,6.4487e-10,-0.74616,0,0,0.14286,2.7068e-15,0,0.66667
0.87496,0.75787,6.1247,0.3868,5.7589,8.4994,-6.3175,2.1058,-1.4705,-8.4233,7.6998e-09,-0.73525,0,0,0.14286,-0,-0,0.66667
0.68841,0.50119,4.8189,0.0017857,0.060332,42.879,-0.022946,0.0076488,-2.0027,-0.030595,-7.8393e-13,-1.0013,0,0,0.14286,-0,-0,0.66667
0.56949,0.1455,3.9865,-0.53175,-23.319,77.367,5.6528,-1.8843,-0.99297,7.537,6.0396e-14,-0.49648,0,0,0.14286,-0,-0,0.66667
0.16097,0.39547,1.1268,-0.15679,-9.891,240.24,0.47113,-0.15704,-1.9115,0.62818,1.2679e-09,-0.95574,0,0,0.14286,1.6918e-16,0,0.66667
0.46688,0.13774,3.2682,-0.54339,-27.612,112.6,4.7357,-1.5786,-0.95061,6.3142,1.4571e-12,-0.47531,0,0,0.14286,-6.7671e-16,0,0.66667
0.34517,0.58735,2.4162,0.13102,7.4662,159.81,-0.84421,0.2814,-1.9403,-1.1256,3.1393e-12,-0.97016,0,0,0.14286,-0,-0,0.66667
0.22504,0.22191,1.5753,-0.41714,-25.705,211.51,1.7523,-0.5841,-1.3807,2.3364,9.4594e-11,-0.69033,0,0,0.14286,-6.7671e-16,0,0.66667
0.59251,0.67916,4.1476,0.26873,11.257,69.798,-2.9723,0.99075,-1.7445,-3.963,3.4506e-13,-0.87226,0,0,0.14286,-6.7671e-16,0,0.66667
0.31227,0.47161,2.1859,-0.042588,-2.4863,173.54,0.24825,-0.082749,-1.9965,0.331,1.3533e-12,-0.99827,0,0,0.14286,-0,-0,0.66667
0.91631,0.91367,6.4141,0.6205,6.3877,5.0417,-10.613,3.5378,-0.62992,-14.151,2.4575e-08,-0.31496,0,0,0.14286,-0,-0,0.66667
0.90964,0.17183,6.3674,-0.49225,-5.3863,5.2038,8.3584,-2.7861,-1.1378,11.145,-8.7012e-09,-0.56891,0,0,0.14286,-0,-0,0.66667
0.25712,0.53442,1.7998,0.051628,3.12,197.26,-0.24779,0.082596,-1.9897,-0.33039,4.9077e-12,-0.99487,0,0,0.14286,6.7671e-16,0,0.66667
0.11089,0.86258,0.77624,0.54387,34.946,263.3,-1.1258,0.37527,-0.94903,-1.5011,-8.8122e-09,-0.47452,0,0,0.14286,-0,-0,0.66667
0.19296,0.99456,1.3507,0.74184,46.653,226.07,-2.6721,0.8907,-0.042465,-3.5628,1.2553e-10,-0.021233,0,0,0.14286,3.3835e-16,0,0.66667
0.49958,0.71834,3.4971,0.32751,15.902,100.55,-3.0542,1.0181,-1.6219,-4.0722,-4.1966e-13,-0.81096,0,0,0.14286,-8.6703e-16,0,0.66667
0.72859,0.25635,5.1001,-0.36547,-11.04,33.636,4.9705,-1.6568,-1.5241,6.6274,6.9389e-12,-0.76203,0,0,0.14286,-0,-0,0.66667
0.20819,0.34881,1.4574,-0.22678,-14.054,218.94,0.88133,-0.29378,-1.8165,1.1751,2.52e-10,-0.90826,0,0,0.14286,-0,-0,0.66667
0.24803,0.42095,1.7362,-0.11857,-7.2027,201.25,0.54898,-0.18299,-1.9504,0.73198,1.4692e-11,-0.97518,0,0,0.14286,3.3835e-16,0,0.66667
0.85167,0.62289,5.9617,0.18434,3.2067,11.125,-2.9305,0.97685,-1.8786,-3.9074,1.8784e-09,-0.93928,0,0,0.14286,6.7671e-16,0,0.66667
0.41585,0.92533,2.9109,0.63799,34.371,131.99,-4.9524,1.6508,-0.55118,-6.6032,7.967e-13,-0.27559,0,0,0.14286,-0,-0,0.66667
0.61669,0.80406,4.3168,0.45609,18.298,62.811,-5.2502,1.7501,-1.2589,-7.0003,-4.9516e-13,-0.62944,0,0,0.14286,6.7671e-16,0,0.66667
0.23367,0.01841,1.6357,-0.72239,-44.588,207.95,3.1509,-1.0503,-0.14602,4.2012,-4.1284e-11,-0.07301,0,0,0.14286,-6.7671e-16,0,0.66667
0.10197,0.34928,0.71377,-0.22608,-14.497,267.34,0.43033,-0.14344,-1.8171,0.57377,7.4541e-09,-0.90854,0,0,0.14286,3.3835e-16,0,0.66667
0.51586,0.46645,3.611,-0.05032,-2.3835,94.702,0.48455,-0.16152,-1.9941,0.64606,2.4336e-13,-0.99705,0,0,0.14286,-1.0151e-15,0,0.66667
0.47714,0.213,3.34,-0.43049,-21.554,108.7,3.8343,-1.2781,-1.3399,5.1123,1.5004e-12,-0.66994,0,0,0.14286,-1.0151e-15,0,0.66667
0.15267,0.02292,1.0687,-0.71562,-45.627,244.26,2.0394,-0.67981,-0.1788,2.7192,-1.3312e-10,-0.089402,0,0,0.14286,-0,-0,0.66667
0.62181,0.75101,4.3526,0.37651,14.924,61.191,-4.3702,1.4567,-1.4969,-5.8269,-5.4046e-13,-0.74847,0,0,0.14286,-0,-0,0.66667
0.54401,0.69071,3.8081,0.28607,13.016,85.299,-2.905,0.96833,-1.7098,-3.8733,-7.8537e-13,-0.8549,0,0,0.14286,-0,-0,0.66667
0.65414,0.1128,4.579,-0.58081,-21.573,52.516,7.092,-2.364,-0.80089,9.4559,1.0338e-12,-0.40045,0,0,0.14286,6.7671e-16,0,0.66667
0.14455,0.12956,1.0118,-0.55567,-35.399,247.87,1.4993,-0.49976,-0.90212,1.9991,3.0209e-09,-0.45106,0,0,0.14286,-0,-0,0.66667
0.75153,0.27947,5.2607,-0.3308,-9.2504,28.616,4.6407,-1.5469,-1.6129,6.1875,-1.115e-11,-0.80647,0,0,0.14286,-1.3534e-15,0,0.66667
0.22205,0.25541,1.5543,-0.36688,-22.625,212.81,1.5207,-0.5069,-1.5216,2.0276,1.0647e-10,-0.76079,0,0,0.14286,-0,-0,0.66667
0.51935,0.46352,3.6355,-0.05472,-2.579,93.498,0.53049,-0.17683,-1.9893,0.70732,2.14e-13,-0.99465,0,0,0.14286,-1.0151e-15,0,0.66667
0.7853,0.42123,5.4971,-0.11816,-2.8918,21.736,1.7321,-0.57736,-1.9494,2.3094,-1.1414e-10,-0.97469,0,0,0.14286,1.3534e-15,0,0.66667
0.02233,0.58435,0.15631,0.12653,8.1907,304.37,-0.052741,0.01758,-1.9415,-0.070321,7.7054e-08,-0.97077,0,0,0.14286,-0,-0,0.66667
0.32436,0.65355,2.2705,0.23033,13.343,168.5,-1.3946,0.46486,-1.8117,-1.8595,7.741e-12,-0.90586,0,0,0.14286,-2.5377e-16,0,0.66667
0.87292,0.19874,6.1105,-0.45189,-6.8589,8.8873,7.3634,-2.4545,-1.2743,9.8179,-6.1554e-09,-0.63715,0,0,0.14286,1.3534e-15,0,0.66667
0.84471,0.51017,5.913,0.015252,0.27656,11.998,-0.2405,0.080166,-2.0006,-0.32066,-1.1939e-09,-1.0003,0,0,0.14286,-2.7068e-15,0,0.66667
0.53844,0.56601,3.7691,0.099019,4.537,87.033,-0.99523,0.33174,-1.9643,-1.327,-7.0216e-13,-0.98215,0,0,0.14286,-0,-0,0.66667
0.86661,0.38999,6.0663,-0.16502,-2.5928,9.1719,2.6694,-0.88981,-1.9013,3.5592,-2.7984e-09,-0.95065,0,0,0.14286,-0,-0,0.66667
0.94981,0.8486,6.6486,0.52291,3.1867,2.4387,-9.271,3.0903,-1.028,-12.361,8.6941e-08,-0.51402,0,0,0.14286,-0,-0,0.66667
0.82641,0.60697,5.7848,0.16046,3.2344,14.772,-2.4752,0.82508,-1.909,-3.3003,9.1833e-10,-0.95451,0,0,0.14286,-0,-0,0.66667
0.85412,0.52038,5.9788,0.030564,0.52233,10.709,-0.4873,0.16243,-1.9954,-0.64974,3.112e-10,-0.99768,0,0,0.14286,2.7068e-15,0,0.66667
0.098743,0.73637,0.6912,0.35456,22.778,268.85,-0.65353,0.21784,-1.5517,-0.87138,-1.5262e-08,-0.77583,0,0,0.14286,1.6918e-16,0,0.66667
0.6513,0.435,4.5591,-0.097499,-3.6119,52.62,1.1854,-0.39512,-1.966,1.5805,1.9473e-12,-0.98302,0,0,0.14286,-3.3835e-16,0,0.66667
0.70352,0.62066,4.9246,0.18099,5.8729,39.239,-2.3769,0.79229,-1.8861,-3.1692,-6.2144e-12,-0.94306,0,0,0.14286,-0,-0,0.66667
0.61024,0.35589,4.2717,-0.21617,-8.748,64.402,2.4624,-0.8208,-1.8352,3.2832,1.0114e-12,-0.9176,0,0,0.14286,-0,-0,0.66667
0.79962,0.88475,5.5973,0.57712,13.46,19.953,-8.6143,2.8714,-0.81576,-11.486,-1.589e-10,-0.40788,0,0,0.14286,-0,-0,0.66667
0.034571,0.93998,0.242,0.65997,42.98,298.71,-0.4259,0.14197,-0.45197,-0.56787,-6.0053e-07,-0.22598,0,0,0.14286,-0,-0,0.66667
0.77024,0.15509,5.3917,-0.51737,-13.59,25.214,7.4386,-2.4795,-1.0485,9.9181,-1.1709e-10,-0.52426,0,0,0.14286,1.9455e-15,0,0.66667
0.73173,0.61159,5.1221,0.16738,4.9876,32.695,-2.2862,0.76208,-1.9003,-3.0483,-2.1536e-12,-0.95013,0,0,0.14286,1.3534e-15,0,0.66667
0.2597,0.55495,1.8179,0.08243,4.9747,196.14,-0.39959,0.1332,-1.9746,-0.53279,-1.0696e-12,-0.98732,0,0,0.14286,-0,-0,0.66667
0.25707,0.081222,1.7995,-0.62817,-38.219,197.6,3.0143,-1.0048,-0.5952,4.0191,5.7867e-12,-0.2976,0,0,0.14286,-0,-0,0.66667
0.6323,0.95857,4.4261,0.68785,26.909,58.83,-8.1187,2.7062,-0.31604,-10.825,2.0517e-13,-0.15802,0,0,0.14286,-0,-0,0.66667
0.3453,0.50138,2.4171,0.0020751,0.1182,159.74,-0.013375,0.0044584,-2.0021,-0.017833,2.4156e-12,-1.001,0,0,0.14286,-0,-0,0.66667
0.79659,0.49989,5.5761,-0.00016278,-0.0037914,19.657,0.0024205,-0.00080683,-2.0035,0.0032273,-1.4099e-10,-1.0017,0,0,0.14286,-2.157e-15,0,0.66667
0.44615,0.54442,3.123,0.066626,3.4479,119.89,-0.55486,0.18495,-1.9824,-0.73982,9.5574e-13,-0.9912,0,0,0.14286,-0,-0,0.66667
0.78275,0.6879,5.4792,0.28185,6.9908,22.37,-4.1183,1.3728,-1.7199,-5.491,1.5188e-10,-0.85993,0,0,0.14286,-2.7068e-15,0,0.66667
0.99047,0.67713,6.9333,0.2657,0.19368,0.3534,-4.9125,1.6375,-1.7475,-6.55,8.771e-08,-0.87374,0,0,0.14286,-0,-0,0.66667
0.30025,0.3487,2.1017,-0.22695,-13.37,178.69,1.272,-0.42399,-1.8171,1.696,-4.9024e-12,-0.90853,0,0,0.14286,-6.7671e-16,0,0.66667
0.14301,0.21311,1.001,-0.43034,-27.372,248.51,1.1488,-0.38292,-1.3423,1.5317,3.734e-09,-0.67114,0,0,0.14286,-2.5377e-16,0,0.66667
0.90131,0.60768,6.3092,0.16153,1.8904,5.3598,-2.7176,0.90587,-1.9059,-3.6235,1.9226e-09,-0.95295,0,0,0.14286,1.3534e-15,0,0.66667
0.54156,0.77411,3.7909,0.41117,18.817,86.26,-4.1566,1.3855,-1.3979,-5.5421,-7.8915e-13,-0.69895,0,0,0.14286,1.0151e-15,0,0.66667
0.97474,0.61732,6.8232,0.17598,0.4765,0.63373,-3.202,1.0673,-1.8886,-4.2693,-1.4989e-08,-0.94432,0,0,0.14286,-6.7671e-16,0,0.66667
0.6366,0.46662,4.4562,-0.050077,-1.9167,56.687,0.59508,-0.19836,-1.9914,0.79344,1.1208e-12,-0.9957,0,0,0.14286,-8.4588e-16,0,0.66667
0.99391,0.27526,6.9574,-0.3371,-0.11038,0.42868,6.2543,-2.0848,-1.5949,8.3391,-1.9304e-07,-0.79745,0,0,0.14286,-6.7671e-16,0,0.66667
0.54607,0.10574,3.8225,-0.59139,-26.986,85.071,6.0283,-2.0094,-0.75786,8.0377,-3.1086e-15,-0.37893,0,0,0.14286,-0,-0,0.66667
0.52643,0.39061,3.685,-0.16408,-7.658,91.117,1.6124,-0.53745,-1.903,2.1498,5.3191e-13,-0.95148,0,0,0.14286,-0,-0,0.66667
0.13543,0.69224,0.948,0.28837,18.351,251.94,-0.72898,0.24299,-1.7037,-0.97198,-5.287e-09,-0.85186,0,0,0.14286,-0,-0,0.66667
0.35571,0.048348,2.4899,-0.67748,-38.589,155.97,4.4983,-1.4994,-0.36732,5.9978,3.7446e-12,-0.18366,0,0,0.14286,-0,-2.1832e-16,0.66667
0.026219,0.56508,0.18353,0.09762,6.3174,302.56,-0.047776,0.015926,-1.9659,-0.063702,5.953e-07,-0.98296,0,0,0.14286,-0,-0,0.66667
0.1604,0.055937,1.1228,-0.6661,-42.317,240.71,1.9943,-0.66477,-0.42202,2.6591,3.7921e-10,-0.21101,0,0,0.14286,-2.5377e-16,0,0.66667
0.74564,0.14103,5.2195,-0.53846,-15.468,30.276,7.4946,-2.4982,-0.96798,9.9928,6.501e-12,-0.48399,0,0,0.14286,1.3534e-15,0,0.66667
0.0304,0.50571,0.2128,0.0085664,0.55415,300.61,-0.0048614,0.0016231,-2.0017,-0.0064806,3.8971e-06,-1.0008,0,0,0.14286,-0,-0,0.66667
0.36654,0.95013,2.5658,0.67519,38.111,151.57,-4.6197,1.5399,-0.37729,-6.1596,2.5806e-12,-0.18865,0,0,0.14286,-6.7671e-16,0,0.66667
0.86235,0.0080939,6.0364,-0.73786,-12.344,11.094,11.877,-3.9591,-0.064257,15.837,-2.8967e-09,-0.032128,0,0,0.14286,-0,-0,0.66667
0.69268,0.3833,4.8487,-0.17505,-5.8526,41.883,2.2633,-0.75445,-1.89,3.0178,5.7447e-12,-0.94499,0,0,0.14286,-1.3534e-15,0,0.66667
0.69094,0.14015,4.8366,-0.53977,-18.278,42.874,6.9617,-2.3206,-0.96343,9.2823,4.5275e-12,-0.48171,0,0,0.14286,-0,-0,0.66667
0.18864,0.91449,1.3205,0.62174,39.061,227.92,-2.1893,0.72976,-0.62696,-2.919,5.7438e-10,-0.31348,0,0,0.14286,-0,-0,0.66667
0.4419,0.37747,3.0933,-0.18379,-9.5619,121.53,1.516,-0.50535,-1.88,2.0214,-4.553e-13,-0.93999,0,0,0.14286,-0,-0,0.66667
0.58158,0.72005,4.071,0.33007,14.116,73.248,-3.5833,1.1944,-1.6134,-4.7778,-4.4031e-13,-0.8067,0,0,0.14286,-0,-0,0.66667
0.98975,0.53793,6.9283,0.056899,0.042797,0.15944,-1.0512,0.35041,-1.9875,-1.4016,-2.473e-06,-0.99377,0,0,0.14286,-0,-0,0.66667
0.20391,0.43516,1.4273,-0.097265,-6.0347,220.83,0.37022,-0.12341,-1.9689,0.49362,2.3203e-10,-0.98446,0,0,0.14286,8.4588e-17,0,0.66667
0.24773,0.10903,1.7341,-0.58645,-35.83,201.64,2.7119,-0.90398,-0.77727,3.6159,1.3143e-11,-0.38864,0,0,0.14286,-3.3835e-16,0,0.66667
0.26217,0.87064,1.8352,0.55596,33.68,195.3,-2.7208,0.90694,-0.90123,-3.6278,2.2918e-11,-0.45062,0,0,0.14286,-3.3835e-16,0,0.66667
0.75017,0.16266,5.2512,-0.50601,-14.294,29.242,7.0858,-2.3619,-1.0921,9.4477,1.8471e-11,-0.54606,0,0,0.14286,-0,-0,0.66667
0.45698,0.75884,3.1988,0.38826,19.904,116.05,-3.312,1.104,-1.4635,-4.416,-7.8271e-13,-0.73173,0,0,0.14286,-0,-0,0.66667
0.056929,0.63569,0.39851,0.20353,13.144,288.24,-0.21629,0.072095,-1.8513,-0.28838,3.9879e-08,-0.92566,0,0,0.14286,-0,-0,0.66667
0.50852,0.45822,3.5596,-0.062668,-2.9993,97.253,0.59486,-0.19829,-1.9844,0.79315,-2.0123e-13,-0.99218,0,0,0.14286,6.7671e-16,0,0.66667
0.21196,0.051528,1.4837,-0.67271,-41.899,217.52,2.6616,-0.88721,-0.3893,3.5488,1.241e-10,-0.19465,0,0,0.14286,-3.3835e-16,0,0.66667
0.7986,0.30729,5.5902,-0.28906,-6.6973,19.509,4.3091,-1.4364,-1.7042,5.7455,-3.7722e-10,-0.85209,0,0,0.14286,-6.7671e-16,0,0.66667
0.29733,0.52923,2.0813,0.043851,2.5861,179.89,-0.24338,0.081126,-1.9961,-0.32451,4.3935e-12,-0.99805,0,0,0.14286,-3.3835e-16,0,0.66667
0.027606,0.46876,0.19324,-0.046866,-3.0323,301.91,0.024151,-0.0080488,-1.9931,0.032202,2.0756e-06,-0.99657,0,0,0.14286,-0,-0,0.66667
0.59343,0.62718,4.154,0.19077,7.9703,69.45,-2.1132,0.70441,-1.8736,-2.8176,4.1234e-13,-0.93682,0,0,0.14286,-0,-0,0.66667
0.84384,0.30896,5.9069,-0.28656,-5.2479,12.336,4.5138,-1.5046,-1.7111,6.0184,-2.3817e-09,-0.85553,0,0,0.14286,6.7671e-16,0,0.66667
0.38102,0.89776,2.6671,0.59664,33.194,145.63,-4.2435,1.4145,-0.73297,-5.658,-1.199e-13,-0.36648,0,0,0.14286,-3.3835e-16,0,0.66667
0.74986,0.95443,5.249,0.68164,19.424,29.794,-9.5412,3.1804,-0.34993,-12.722,-7.1392e-12,-0.17496,0,0,0.14286,1.3534e-15,0,0.66667
0.51114,0.4202,3.578,-0.11969,-5.7088,96.355,1.142,-0.38068,-1.9479,1.5227,-1.0015e-12,-0.97395,0,0,0.14286,-0,-0,0.66667
0.54095,0.70737,3.7867,0.31106,14.225,86.34,-3.141,1.047,-1.6544,-4.188,9.7478e-14,-0.82722,0,0,0.14286,-0,-0,0.66667
0.95943,0.57324,6.716,0.10986,0.50778,1.1807,-1.9675,0.65582,-1.9555,-2.6233,1.7315e-07,-0.97775,0,0,0.14286,-0,-0,0.66667
0.80396,0.57202,5.6277,0.10803,2.4343,18.401,-1.6212,0.5404,-1.9569,-2.1616,3.3036e-10,-0.97845,0,0,0.14286,-0,-0,0.66667
0.032323,0.24778,0.22626,-0.37832,-24.527,299.72,0.22827,-0.076089,-1.4934,0.30436,-1.6182e-07,-0.74671,0,0,0.14286,-5.2868e-17,0,0.66667
0.70939,0.71073,4.9657,0.3161,10.108,37.985,-4.1858,1.3953,-1.6434,-5.581,-8.3902e-12,-0.8217,0,0,0.14286,-6.7671e-16,0,0.66667
0.465,0.32335,3.255,-0.26497,-13.433,112.96,2.3,-0.76665,-1.7497,3.0666,4.7296e-13,-0.87485,0,0,0.14286,-0,-0,0.66667
0.94755,0.90312,6.6328,0.60468,3.9121,2.8342,-10.695,3.5651,-0.69948,-14.26,-2.4175e-07,-0.34974,0,0,0.14286,-1.0729e-15,0,0.66667
0.22143,0.92424,1.55,0.63635,39.433,213.28,-2.6303,0.87677,-0.56005,-3.5071,1.4614e-11,-0.28002,0,0,0.14286,-0,-0,0.66667
0.26707,0.027346,1.8695,-0.70898,-42.972,193.34,3.5345,-1.1782,-0.21449,4.7127,2.0719e-12,-0.10725,0,0,0.14286,-0,-0,0.66667
0.081474,0.59929,0.57032,0.14893,9.582,276.82,-0.2265,0.075499,-1.9213,-0.302,-3.3507e-09,-0.96063,0,0,0.14286,-0,-0,0.66667
0.42862,0.26328,3.0003,-0.35508,-18.776,126.71,2.841,-0.94699,-1.5499,3.7879,4.3299e-13,-0.77496,0,0,0.14286,-6.7671e-16,0,0.66667
0.10902,0.46135,0.76313,-0.057968,-3.7086,264.07,0.11797,-0.039322,-1.9903,0.15729,-9.7478e-09,-0.99513,0,0,0.14286,8.4588e-17,0,0.66667
0.63379,0.33156,4.4365,-0.25267,-9.7461,57.604,2.9892,-0.99641,-1.7713,3.9856,1.3491e-12,-0.88563,0,0,0.14286,6.7671e-16,0,0.66667
0.80296,0.89313,5.6207,0.58969,13.555,19.412,-8.8386,2.9462,-0.76195,-11.785,3.5693e-10,-0.38098,0,0,0.14286,-1.3534e-15,0,0.66667
0.6968,0.209,4.8776,-0.4365,-14.503,41.213,5.6776,-1.8925,-1.321,7.5701,6.6036e-12,-0.66052,0,0,0.14286,6.7671e-16,0,0.66667
0.76621,0.18089,5.3635,-0.47867,-12.748,25.913,6.8462,-2.2821,-1.1874,9.1282,8.4466e-13,-0.59371,0,0,0.14286,-6.7671e-16,0,0.66667
0.34245,0.071596,2.3972,-0.64261,-36.96,161.36,4.1078,-1.3693,-0.53293,5.4771,4.0625e-12,-0.26647,0,0,0.14286,-0,-0,0.66667
0.84585,0.9988,5.921,0.74821,13.907,13.31,-11.814,3.9379,-0.011241,-15.751,-1.1772e-09,-0.0056206,0,0,0.14286,1.3534e-15,0,0.66667
0.42877,0.20554,3.0014,-0.44169,-23.384,126.74,3.5352,-1.1784,-1.3045,4.7135,2.4536e-13,-0.65227,0,0,0.14286,6.7671e-16,0,0.66667
0.82401,0.509,5.7681,0.013498,0.27521,15.08,-0.20762,0.069207,-1.9987,-0.27683,4.4384e-11,-0.99933,0,0,0.14286,-0,-0,0.66667
0.6265,0.23424,4.3855,-0.39864,-15.655,59.871,4.662,-1.554,-1.4357,6.2159,6.8967e-13,-0.71784,0,0,0.14286,1.3534e-15,0,0.66667
0.14342,0.33686,1.004,-0.2447,-15.531,248.27,0.65513,-0.21838,-1.7874,0.8735,3.5714e-09,-0.89369,0,0,0.14286,-1.6918e-16,0,0.66667
0.078387,0.42365,0.54871,-0.11453,-7.3715,278.26,0.16758,-0.055861,-1.9552,0.22345,5.6472e-09,-0.9776,0,0,0.14286,-0,-0,0.66667
0.018333,0.35307,0.12833,-0.2204,-14.277,306.24,0.075423,-0.025141,-1.8274,0.10056,-6.4474e-09,-0.91368,0,0,0.14286,-0,-0,0.66667
0.066725,0.97154,0.46707,0.70731,45.959,283.78,-0.88098,0.29366,-0.22131,-1.1746,-1.4811e-07,-0.11065,0,0,0.14286,-0,-0,0.66667
0.45858,0.0013703,3.2101,-0.74794,-38.587,116.03,6.4026,-2.1342,-0.010833,8.5368,3.0091e-12,-0.0054165,0,0,0.14286,-0,-0,0.66667
0.11334,0.96778,0.79339,0.70167,45.203,262.24,-1.4845,0.49485,-0.25,-1.9794,-1.9335e-08,-0.125,0,0,0.14286,3.1721e-17,0,0.66667
0.027783,0.34728,0.19448,-0.22908,-14.834,301.83,0.11881,-0.039602,-1.8138,0.15841,-3.0771e-08,-0.90689,0,0,0.14286,8.4588e-17,0,0.66667
0.75486,0.18688,5.284,-0.46968,-13.034,28.186,6.6181,-2.206,-1.2159,8.8242,-3.3275e-11,-0.60795,0,0,0.14286,2.5377e-16,0,0.66667
0.39485,0.25428,2.764,-0.36858,-20.163,139.86,2.7166,-0.90554,-1.5168,3.6222,9.2104e-13,-0.75841,0,0,0.14286,1.3534e-15,0,0.66667
0.74694,0.36221,5.2286,-0.20668,-5.8581,29.426,2.8817,-0.96057,-1.8478,3.8423,-1.008e-11,-0.92388,0,0,0.14286,-1.3534e-15,0,0.66667
0.4524,0.14295,3.1668,-0.53558,-27.676,117.94,4.5229,-1.5076,-0.98153,6.0306,9.0461e-13,-0.49076,0,0,0.14286,-6.7671e-16,0,0.66667
0.45009,0.72696,3.1506,0.34044,17.579,118.56,-2.8603,0.95343,-1.5879,-3.8137,-9.4613e-13,-0.79394,0,0,0.14286,1.3534e-15,0,0.66667
0.47807,0.38599,3.3465,-0.17101,-8.5244,108.13,1.5261,-0.50869,-1.8944,2.0348,-2.2682e-13,-0.94721,0,0,0.14286,-0,-0,0.66667
0.474,0.36327,3.318,-0.2051,-10.279,109.62,1.8147,-0.60491,-1.8491,2.4197,1.8974e-13,-0.92453,0,0,0.14286,-0,-0,0.66667
0.80316,0.22394,5.6221,-0.4141,-9.4344,18.937,6.2083,-2.0694,-1.3893,8.2777,-4.5008e-10,-0.69466,0,0,0.14286,-0,-0,0.66667
0.40239,0.26003,2.8167,-0.35996,-19.548,136.88,2.7037,-0.90125,-1.5387,3.605,1.3072e-12,-0.76933,0,0,0.14286,6.7671e-16,0,0.66667
0.90469,0.54607,6.3328,0.069107,0.7797,4.9814,-1.167,0.38902,-1.9837,-1.5561,8.5344e-10,-0.99184,0,0,0.14286,-0,-0,0.66667
0.037061,0.36103,0.25943,-0.20845,-13.488,297.5,0.14421,-0.048069,-1.8439,0.19228,-2.5744e-08,-0.92194,0,0,0.14286,-0,-0,0.66667
0.77387,0.022193,5.4171,-0.71671,-18.746,25.101,10.353,-3.4511,-0.17202,13.804,3.8061e-11,-0.08601,0,0,0.14286,-0,-0,0.66667
0.12564,0.30208,0.87949,-0.29688,-18.944,256.44,0.69626,-0.23209,-1.6883,0.92835,6.781e-09,-0.84414,0,0,0.14286,-0,-0,0.66667
0.61851,0.73591,4.3296,0.35386,14.114,62.117,-4.0855,1.3618,-1.553,-5.4474,5.3291e-15,-0.77651,0,0,0.14286,-7.3247e-16,0,0.66667
0.010364,0.67108,0.07255,0.25662,16.632,309.97,-0.049647,0.016549,-1.7644,-0.066196,-7.7907e-08,-0.88219,0,0,0.14286,-2.1147e-17,0,0.66667
0.53863,0.61673,3.7704,0.1751,8.0242,87.005,-1.7605,0.58683,-1.8895,-2.3473,5.7054e-13,-0.94474,0,0,0.14286,-0,-0,0.66667
0.003018,0.17081,0.021126,-0.49378,-32.097,313.4,0.027817,-0.0092717,-1.1327,0.03709,9.5032e-07,-0.56635,0,0,0.14286,-5.2868e-18,3.3679e-16,0.66667
0.95119,0.70633,6.6584,0.30949,1.7758,1.8391,-5.4952,1.8317,-1.6599,-7.3269,-5.1806e-08,-0.82993,0,0,0.14286,-0,-0,0.66667
0.9054,0.10992,6.3378,-0.58512,-6.7569,5.866,9.889,-3.2963,-0.78397,13.185,-1.9817e-08,-0.39199,0,0,0.14286,1.3534e-15,1.6897e-16,0.66667
0.79597,0.86274,5.5718,0.54411,12.876,20.5,-8.0844,2.6948,-0.94866,-10.779,3.9972e-11,-0.47433,0,0,0.14286,-0,-1.8737e-16,0.66667
0.91527,0.80119,6.4069,0.45178,4.6218,4.6116,-7.7187,2.5729,-1.2726,-10.292,2.9939e-08,-0.63631,0,0,0.14286,1.3534e-15,0,0.66667
0.14556,0.38076,1.0189,-0.17885,-11.339,247.28,0.48596,-0.16199,-1.8856,0.64795,2.5985e-09,-0.94279,0,0,0.14286,-3.3835e-16,0,0.66667
0.15773,0.45044,1.1041,-0.074336,-4.6928,241.71,0.21887,-0.072956,-1.9811,0.29182,5.5432e-10,-0.99056,0,0,0.14286,-0,-0,0.66667
0.18763,0.90376,1.3134,0.60564,38.052,228.36,-2.1212,0.70707,-0.69899,-2.8283,1.0633e-09,-0.3495,0,0,0.14286,3.3835e-16,0,0.66667
0.6225,0.46076,4.3575,-0.058862,-2.3213,60.723,0.68397,-0.22799,-1.988,0.91196,8.038e-14,-0.99402,0,0,0.14286,6.7671e-16,0,0.66667
0.90581,0.9188,6.3407,0.62819,7.258,5.9761,-10.622,3.5406,-0.59859,-14.162,2.6962e-08,-0.2993,0,0,0.14286,-1.3534e-15,0,0.66667
0.98996,0.98044,6.9297,0.72066,0.90888,1.7451,-13.317,4.4391,-0.15199,-17.756,2.5587e-05,-0.075996,0,0,0.14286,-0,-0,0.66667
0.71112,0.40281,4.9779,-0.14579,-4.6263,37.401,1.9352,-0.64507,-1.9236,2.5803,5.8447e-12,-0.96179,0,0,0.14286,-1.6918e-15,0,0.66667
0.7318,0.74508,5.1226,0.36762,10.993,32.923,-5.0218,1.6739,-1.5202,-6.6958,-7.1219e-12,-0.76009,0,0,0.14286,-3.3835e-16,0,0.66667
0.90929,0.85251,6.3651,0.52876,5.8277,5.3394,-8.975,2.9917,-1.0058,-11.967,7.2957e-09,-0.50291,0,0,0.14286,-0,-0,0.66667
0.40087,0.68436,2.8061,0.27654,15.025,137.41,-2.0694,0.68979,-1.7277,-2.7592,5.9108e-13,-0.86383,0,0,0.14286,-8.4588e-16,0,0.66667
0.24985,0.15918,1.749,-0.51123,-31.156,200.64,2.3843,-0.79477,-1.0738,3.1791,-2.0797e-11,-0.5369,0,0,0.14286,-6.7671e-16,-1.3894e-16,0.66667
0.17343,0.79035,1.214,0.43553,27.43,234.67,-1.41,0.46999,-1.3265,-1.88,-1.0655e-09,-0.66326,0,0,0.14286,-0,-0,0.66667
0.11946,0.97041,0.8362,0.70561,45.395,259.43,-1.5734,0.52447,-0.22952,-2.0979,6.8329e-08,-0.11476,0,0,0.14286,-0,-0,0.66667
0.81261,0.84334,5.6883,0.51501,11.27,17.585,-7.812,2.604,-1.0605,-10.416,-1.6643e-10,-0.53027,0,0,0.14286,-1.6918e-16,0,0.66667
0.14679,0.13326,1.0275,-0.55011,-35.018,246.84,1.5074,-0.50245,-0.92269,2.0098,4.4965e-09,-0.46134,0,0,0.14286,-0,-0,0.66667
0.2643,0.72521,1.8501,0.33782,20.372,194.22,-1.6666,0.55554,-1.5957,-2.2222,6.4254e-12,-0.79784,0,0,0.14286,6.7671e-16,0,0.66667
0.81909,0.31561,5.7336,-0.27658,-5.8074,16.054,4.2289,-1.4096,-1.7273,5.6385,-8.731e-10,-0.86365,0,0,0.14286,-0,-0,0.66667
0.31059,0.5345,2.1741,0.051749,3.0247,174.25,-0.30002,0.10001,-1.9919,-0.40003,4.563e-12,-0.99596,0,0,0.14286,-0,-0,0.66667
0.98242,0.3513,6.8769,-0.22306,-0.38935,0.467,4.0905,-1.3635,-1.8239,5.454,-1.4803e-09,-0.91195,0,0,0.14286,-0,-0,0.66667
0.26664,0.95957,1.8665,0.68936,41.774,193.5,-3.4311,1.1437,-0.31175,-4.5748,1.7475e-13,-0.15587,0,0,0.14286,3.3835e-16,0,0.66667
0.53365,0.017028,3.7356,-0.72446,-33.824,89.495,7.2167,-2.4056,-0.13393,9.6223,-1.7675e-13,-0.066967,0,0,0.14286,-0,-0,0.66667
0.31447,0.73063,2.2013,0.34595,20.208,172.73,-2.0307,0.67692,-1.5749,-2.7077,7.8408e-12,-0.78745,0,0,0.14286,-0,-0,0.66667
0.91077,0.55158,6.3754,0.07737,0.81716,4.4345,-1.3154,0.43846,-1.9777,-1.7538,-2.971e-09,-0.98884,0,0,0.14286,-0,-0,0.66667
0.36656,0.39116,2.5659,-0.16327,-9.1428,151.07,1.1171,-0.37238,-1.9034,1.4895,1.5664e-12,-0.95168,0,0,0.14286,2.4262e-16,0,0.66667
0.43359,0.8565,3.0351,0.53476,28.216,125.02,-4.3282,1.4427,-0.98239,-5.7709,-8.0336e-13,-0.4912,0,0,0.14286,6.7671e-16,0,0.66667
0.51229,0.034253,3.586,-0.69862,-33.61,96.71,6.6808,-2.2269,-0.26517,8.9077,2.4025e-13,-0.13258,0,0,0.14286,1.3534e-15,6.0346e-17,0.66667
0.93889,0.72753,6.5722,0.34129,2.4842,2.6195,-5.9814,1.9938,-1.587,-7.9752,-5.2198e-09,-0.79349,0,0,0.14286,-0,-0,0.66667
0.030949,0.36445,0.21664,-0.20332,-13.161,300.35,0.11746,-0.039154,-1.855,0.15662,-4.3345e-08,-0.92749,0,0,0.14286,-0,-0,0.66667
0.71688,0.31476,5.0182,-0.27786,-8.6842,36.179,3.7182,-1.2394,-1.7272,4.9576,8.3453e-12,-0.86358,0,0,0.14286,-0,-0,0.66667
0.89102,0.85273,6.2371,0.52909,6.9687,7.0911,-8.8,2.9333,-1.0067,-11.733,1.7342e-08,-0.50334,0,0,0.14286,-0,-0,0.66667
0.027287,0.27446,0.19101,-0.33831,-21.929,302.07,0.17232,-0.05744,-1.5927,0.22976,-1.4342e-07,-0.79634,0,0,0.14286,4.2294e-17,0,0.66667
0.52205,0.92251,3.6544,0.63376,30.015,93.219,-6.176,2.0587,-0.57012,-8.2347,-2.3537e-13,-0.28506,0,0,0.14286,-0,-0,0.66667
0.32599,0.33953,2.2819,-0.2407,-13.929,167.83,1.4647,-0.48823,-1.7951,1.9529,-2.3102e-12,-0.89756,0,0,0.14286,-0,-0,0.66667
0.85949,0.25559,6.0164,-0.36662,-6.0955,10.359,5.8819,-1.9606,-1.5248,7.8426,-4.2519e-09,-0.76239,0,0,0.14286,-0,-0,0.66667
0.55852,0.69003,3.9096,0.28504,12.671,80.539,-2.9718,0.99059,-1.7114,-3.9624,4.9827e-13,-0.85569,0,0,0.14286,-1.3534e-15,0,0.66667
0.69023,0.86982,4.8316,0.55472,18.829,43.086,-7.1472,2.3824,-0.90645,-9.5296,-3.4963e-12,-0.45322,0,0,0.14286,3.3835e-16,0,0.66667
0.45285,0.65775,3.17,0.23663,12.165,117.45,-2.0003,0.66676,-1.8041,-2.667,-7.4052e-13,-0.90206,0,0,0.14286,1.3534e-15,0,0.66667
0.62831,0.027557,4.3982,-0.70866,-27.977,60.022,8.3115,-2.7705,-0.2148,11.082,6.6347e-13,-0.1074,0,0,0.14286,6.7671e-16,0,0.66667
0.2901,0.20927,2.0307,-0.4361,-25.925,183.15,2.3615,-0.78717,-1.3222,3.1487,-4.3638e-12,-0.66112,0,0,0.14286,-0,-0,0.66667
0.0093486,0.28707,0.06544,-0.31939,-20.712,310.44,0.055735,-0.018578,-1.6362,0.074314,1.275e-07,-0.81811,0,0,0.14286,-2.1147e-17,0,0.66667
0.57676,0.2741,4.0373,-0.33885,-14.617,74.77,3.6481,-1.216,-1.5931,4.8641,-2.3759e-14,-0.79654,0,0,0.14286,-0,-0,0.66667
0.31144,0.92233,2.1801,0.6335,37.268,174.28,-3.6829,1.2276,-0.57415,-4.9106,4.2006e-12,-0.28708,0,0,0.14286,-0,1.6903e-16,0.66667
0.51727,0.83517,3.6209,0.50275,23.896,94.618,-4.8544,1.6181,-1.1022,-6.4725,6.839e-14,-0.55112,0,0,0.14286,3.3835e-16,0,0.66667
0.91641,0.69139,6.4148,0.28708,2.8618,4.1707,-4.9109,1.637,-1.7064,-6.5479,1.0025e-08,-0.85319,0,0,0.14286,2.7068e-15,0,0.66667
0.42647,0.36825,2.9853,-0.19762,-10.456,127.41,1.5732,-0.52441,-1.8605,2.0976,6.4504e-14,-0.93023,0,0,0.14286,-3.3835e-16,0,0.66667
0.2474,0.070582,1.7318,-0.64413,-39.409,201.84,2.9746,-0.99154,-0.52507,3.9662,-1.1446e-11,-0.26253,0,0,0.14286,-0,-1.4106e-16,0.66667
0.37129,0.12777,2.5991,-0.55835,-31.305,149.48,3.8698,-1.2899,-0.8919,5.1598,2.5819e-12,-0.44595,0,0,0.14286,-0,-0,0.66667
0.93186,0.72999,6.523,0.34499,2.8083,3.0959,-6.001,2.0003,-1.5754,-8.0013,1.2152e-08,-0.78768,0,0,0.14286,2.7068e-15,0,0.66667
0.93687,0.75732,6.5581,0.38599,2.918,2.8447,-6.7502,2.2501,-1.4722,-9.0003,1.551e-08,-0.73611,0,0,0.14286,-0,-0,0.66667
0.84433,0.12589,5.9103,-0.56116,-10.382,12.878,8.8444,-2.9481,-0.88339,11.792,-5.1443e-09,-0.44169,0,0,0.14286,-0,-0,0.66667
0.92021,0.14392,6.4414,-0.53411,-5.1931,4.4424,9.1746,-3.0582,-0.98632,12.233,-4.2231e-08,-0.49316,0,0,0.14286,-1.3534e-15,-2.6319e-17,0.66667
0.2279,0.25044,1.5953,-0.37434,-23.023,210.22,1.5925,-0.53083,-1.5016,2.1233,5.7064e-11,-0.75079,0,0,0.14286,-0,-0,0.66667
0.087482,0.79664,0.61238,0.44496,28.68,274.09,-0.72662,0.24221,-1.2943,-0.96883,-2.4935e-08,-0.64715,0,0,0.14286,-0,-0,0.66667
0.22731,0.21676,1.5912,-0.42486,-26.155,210.51,1.8027,-0.60091,-1.3576,2.4036,8.693e-11,-0.67882,0,0,0.14286,3.8065e-16,0,0.66667
0.31438,0.036855,2.2006,-0.69472,-40.845,173.12,4.0769,-1.359,-0.28508,5.4358,-5.8176e-14,-0.14254,0,0,0.14286,-0,-0,0.66667
0.17477,0.82128,1.2234,0.48193,30.359,234.09,-1.5722,0.52406,-1.1742,-2.0963,-6.2551e-10,-0.58711,0,0,0.14286,3.3835e-16,0,0.66667
0.60709,0.98884,4.2497,0.73326,30.231,66.266,-8.3096,2.7699,-0.088507,-11.08,9.921e-13,-0.044254,0,0,0.14286,-6.7671e-16,1.5535e-16,0.66667
0.41359,0.46434,2.8951,-0.053489,-2.8658,132.35,0.41295,-0.13765,-1.9888,0.5506,4.4401e-13,-0.99441,0,0,0.14286,1.0151e-15,0,0.66667
0.81635,0.66144,5.7145,0.24216,5.151,16.45,-3.6902,1.2301,-1.7914,-4.9203,8.6855e-10,-0.89569,0,0,0.14286,-2.7068e-15,0,0.66667
0.18513,0.28239,1.2959,-0.32641,-20.44,229.33,1.128,-0.376,-1.6227,1.504,7.449e-10,-0.81134,0,0,0.14286,6.7671e-16,0,0.66667
0.70188,0.46054,4.9131,-0.059197,-1.928,39.571,0.77558,-0.25853,-1.9888,1.0341,2.7428e-12,-0.99442,0,0,0.14286,-6.7671e-16,0,0.66667
0.24036,0.46871,1.6825,-0.046935,-2.862,204.62,0.21058,-0.070193,-1.9922,0.28077,1.6686e-11,-0.99609,0,0,0.14286,3.5686e-17,0,0.66667
0.57422,0.32472,4.0195,-0.26292,-11.379,75.488,2.8182,-0.93938,-1.7534,3.7575,2.7334e-13,-0.8767,0,0,0.14286,-0,-0,0.66667
0.34899,0.81063,2.4429,0.46594,26.567,158.46,-3.0353,1.0118,-1.2279,-4.0471,1.553e-12,-0.61397,0,0,0.14286,7.613e-16,0,0.66667
0.056964,0.93735,0.39875,0.65602,42.631,288.29,-0.69757,0.23252,-0.46995,-0.93009,-5.4334e-07,-0.23497,0,0,0.14286,-1.216e-16,0,0.66667
0.22881,0.50881,1.6017,0.013219,0.81073,209.72,-0.056462,0.018821,-1.9981,-0.075283,-2.7192e-11,-0.99907,0,0,0.14286,-0,-0,0.66667
0.6641,0.47164,4.6487,-0.042542,-1.5289,49.157,0.52737,-0.17579,-1.9928,0.70316,2.2178e-12,-0.9964,0,0,0.14286,-2.7068e-15,0,0.66667
0.49725,0.51585,3.4808,0.023772,1.1552,101.21,-0.22065,0.073549,-1.9978,-0.2942,4.7672e-13,-0.99888,0,0,0.14286,-0,-0,0.66667
0.51902,0.75746,3.6331,0.3862,18.269,93.85,-3.7416,1.2472,-1.4695,-4.9888,3.9169e-13,-0.73477,0,0,0.14286,-0,-0,0.66667
0.17472,0.54071,1.223,0.06106,3.8321,233.98,-0.19914,0.066381,-1.9867,-0.26552,-3.5983e-10,-0.99336,0,0,0.14286,3.3835e-16,0,0.66667
0.57072,0.46964,3.995,-0.045534,-1.9794,76.48,0.48509,-0.1617,-1.9923,0.64678,6.373e-13,-0.99613,0,0,0.14286,-1.3534e-15,0,0.66667
0.99675,0.161,6.9773,-0.50851,-0.055092,0.83889,9.4613,-3.1538,-1.0809,12.615,-1.035e-06,-0.54045,0,0,0.14286,-0,-0,0.66667
0.81684,0.28888,5.7178,-0.31667,-6.7332,16.478,4.8285,-1.6095,-1.6428,6.438,-7.9867e-10,-0.82139,0,0,0.14286,-0,-0,0.66667
0.59437,0.87103,4.1606,0.55654,23.369,69.668,-6.1748,2.0583,-0.90114,-8.2331,5.4534e-13,-0.45057,0,0,0.14286,-0,-0,0.66667
0.97599,0.78684,6.8319,0.43026,1.1653,1.0618,-7.8386,2.6129,-1.3406,-10.452,-3.8369e-07,-0.67031,0,0,0.14286,-0,-0,0.66667
0.90156,0.92953,6.3109,0.64429,7.7808,6.4266,-10.843,3.6143,-0.52321,-14.457,-5.3181e-08,-0.2616,0,0,0.14286,-6.7671e-16,0,0.66667
0.59561,0.018087,4.1693,-0.72287,-30.444,69.686,8.0369,-2.679,-0.14254,10.716,7.4785e-13,-0.07127,0,0,0.14286,-0,-0,0.66667
0.032426,0.49057,0.22698,-0.014143,-0.91481,299.66,0.0085613,-0.0028548,-2.0005,0.011415,-1.5461e-06,-1.0003,0,0,0.14286,4.2294e-17,0,0.66667
0.093577,0.53087,0.65504,0.046298,2.9714,271.21,-0.080872,0.026957,-1.9959,-0.10783,-5.0938e-08,-0.99796,0,0,0.14286,8.4588e-17,0,0.66667
0.065372,0.033657,0.4576,-0.69951,-45.453,284.4,0.8536,-0.28453,-0.26112,1.1381,-6.6802e-07,-0.13056,0,0,0.14286,-1.6918e-16,0,0.66667
0.45173,0.72381,3.1621,0.33571,17.301,117.94,-2.8308,0.9436,-1.6009,-3.7744,7.7272e-14,-0.80043,0,0,0.14286,-0,-0,0.66667
0.37543,0.69553,2.628,0.29329,16.316,147.55,-2.0554,0.68513,-1.6962,-2.7405,2.2402e-12,-0.84811,0,0,0.14286,-0,-0,0.66667
0.97535,0.64852,6.8275,0.22279,0.59024,0.67064,-4.0561,1.352,-1.8222,-5.4082,-3.225e-08,-0.91108,0,0,0.14286,-1.3534e-15,0,0.66667
0.16798,0.89582,1.1759,0.59373,37.566,237.22,-1.8617,0.62058,-0.74592,-2.4823,-3.2114e-09,-0.37296,0,0,0.14286,1.6918e-16,0,0.66667
0.97279,0.56419,6.8095,0.09629,0.28248,0.63348,-1.7485,0.58283,-1.9674,-2.3313,-6.1821e-07,-0.98371,0,0,0.14286,-0,-0,0.66667
0.76747,0.86915,5.3723,0.55372,14.721,25.848,-7.9327,2.6442,-0.91094,-10.577,-7.2433e-11,-0.45547,0,0,0.14286,-1.3534e-15,0,0.66667
0.82424,0.22624,5.7697,-0.41063,-8.4342,15.476,6.3179,-2.106,-1.4,8.4239,-9.1219e-10,-0.70002,0,0,0.14286,-0,-0,0.66667
0.63262,0.8604,4.4283,0.54059,21.033,58.386,-6.3838,2.1279,-0.95903,-8.5117,-8.5931e-13,-0.47951,0,0,0.14286,6.0425e-16,0,0.66667
0.66873,0.36484,4.6811,-0.20274,-7.2127,48.016,2.5308,-0.84362,-1.8536,3.3745,3.8594e-12,-0.92679,0,0,0.14286,-0,-0,0.66667
0.47688,0.74241,3.3382,0.36361,18.191,108.71,-3.2368,1.0789,-1.5285,-4.3157,4.4542e-13,-0.76423,0,0,0.14286,3.3835e-16,0,0.66667
0.013136,0.46859,0.091954,-0.047109,-3.0499,308.67,0.011551,-0.0038536,-1.9937,0.0154,-4.7122e-06,-0.99687,0,0,0.14286,-1.0243e-17,0,0.66667
0.35301,0.94008,2.471,0.66012,37.667,157.05,-4.3499,1.45,-0.45005,-5.7998,-9.4902e-13,-0.22502,0,0,0.14286,-1.3534e-15,0,0.66667
0.49207,0.4744,3.4445,-0.038396,-1.8788,103.05,0.35268,-0.11756,-1.9936,0.47024,-3.1833e-13,-0.99678,0,0,0.14286,-0,-0,0.66667
0.73009,0.85606,5.1106,0.53409,16.141,33.644,-7.2788,2.4263,-0.98477,-9.705,-6.3536e-12,-0.49238,0,0,0.14286,-0,-0,0.66667
0.46863,0.0050218,3.2804,-0.74247,-37.846,112.33,6.4949,-2.165,-0.042725,8.6599,1.0991e-12,-0.021363,0,0,0.14286,-0,-9.127e-17,0.66667
0.4574,0.88319,3.2018,0.57479,29.558,116.14,-4.9077,1.6359,-0.82461,-6.5436,-1.3767e-13,-0.41231,0,0,0.14286,-1.3534e-15,0,0.66667
0.13766,0.26484,0.96364,-0.35274,-22.449,250.93,0.90645,-0.30215,-1.5572,1.2086,4.6783e-09,-0.77861,0,0,0.14286,-0,-0,0.66667
0.010889,0.68672,0.076221,0.28008,18.156,309.72,-0.056929,0.018976,-1.7213,-0.075905,-8.0788e-08,-0.86067,0,0,0.14286,-7.9302e-18,0,0.66667
0.75828,0.83746,5.3079,0.50619,13.895,27.57,-7.1648,2.3883,-1.0877,-9.5531,-2.0426e-11,-0.54385,0,0,0.14286,-6.7671e-16,0,0.66667
0.31995,0.86043,2.2397,0.54065,31.555,170.59,-3.229,1.0763,-0.95882,-4.3053,3.6782e-12,-0.47941,0,0,0.14286,6.7671e-16,0,0.66667
0.98438,0.31945,6.8907,-0.27082,-0.41093,0.49043,4.9764,-1.6588,-1.7418,6.6352,-3.0006e-08,-0.87091,0,0,0.14286,-0,-0,0.66667
0.22023,0.4353,1.5416,-0.097057,-5.9778,213.54,0.399,-0.133,-1.9685,0.53201,5.7934e-11,-0.98424,0,0,0.14286,-1.2688e-16,0,0.66667
0.33871,0.50907,2.371,0.013607,0.77909,162.47,-0.086034,0.028678,-1.9982,-0.11471,4.0677e-12,-0.99912,0,0,0.14286,-0,-0,0.66667
0.5239,0.61367,3.6673,0.17051,7.9882,91.983,-1.6675,0.55583,-1.8949,-2.2233,-5.3746e-13,-0.94743,0,0,0.14286,6.7671e-16,0,0.66667
0.75489,0.0091619,5.2842,-0.73626,-20.675,28.935,10.375,-3.4583,-0.071574,13.833,-2.8186e-11,-0.035787,0,0,0.14286,-0,-0,0.66667
0.46386,0.37444,3.247,-0.18835,-9.5547,113.33,1.6308,-0.54361,-1.8741,2.1744,7.6938e-13,-0.93706,0,0,0.14286,-9.0933e-16,0,0.66667
0.12482,0.28014,0.87376,-0.32978,-21.055,256.82,0.7684,-0.25613,-1.6167,1.0245,7.4463e-09,-0.80835,0,0,0.14286,-4.2294e-17,0,0.66667
0.3125,0.29996,2.1875,-0.30006,-17.542,173.53,1.7504,-0.58345,-1.682,2.3338,-4.5136e-12,-0.84101,0,0,0.14286,-0,-0,0.66667
0.50452,0.52287,3.5316,0.034305,1.6508,98.648,-0.32307,0.10769,-1.995,-0.43076,6.6128e-13,-0.9975,0,0,0.14286,-0,-0,0.66667
0.67385,0.31868,4.7169,-0.27198,-9.563,46.749,3.4211,-1.1404,-1.7379,4.5615,4.9241e-12,-0.86897,0,0,0.14286,-0,-0,0.66667
0.77015,0.54256,5.391,0.063843,1.6601,24.599,-0.91781,0.30594,-1.9844,-1.2238,2.0551e-11,-0.99222,0,0,0.14286,-0,-0,0.66667
0.13034,0.17934,0.91235,-0.48099,-30.725,254.34,1.1702,-0.39007,-1.1763,1.5603,5.2999e-09,-0.58816,0,0,0.14286,-8.4588e-17,0,0.66667
0.022915,0.35841,0.16041,-0.21238,-13.754,304.1,0.090846,-0.030282,-1.8377,0.12113,-4.1837e-08,-0.91887,0,0,0.14286,-0,-0,0.66667
0.51908,0.0024929,3.6336,-0.74626,-35.614,94.485,7.2309,-2.4103,-0.020441,9.6412,3.1974e-13,-0.01022,0,0,0.14286,-0,-0,0.66667
0.80999,0.020865,5.6699,-0.7187,-16.114,18.652,10.867,-3.6222,-0.16357,14.489,-2.3986e-10,-0.081783,0,0,0.14286,-0,-1.5015e-16,0.66667
0.012604,0.45379,0.088226,-0.069322,-4.4882,308.92,0.01631,-0.0054377,-1.9825,0.021746,-1.6738e-06,-0.99126,0,0,0.14286,-2.1147e-17,0,0.66667
0.67247,0.055898,4.7073,-0.66615,-23.759,47.881,8.3621,-2.7874,-0.42426,11.149,5.4712e-13,-0.21213,0,0,0.14286,6.7671e-16,0,0.66667
0.68681,0.435,4.8077,-0.097497,-3.3092,43.302,1.25,-0.41665,-1.9688,1.6666,3.6028e-12,-0.98441,0,0,0.14286,-1.8609e-15,0,0.66667
0.44925,0.28739,3.1447,-0.31891,-16.478,118.86,2.6744,-0.89145,-1.6381,3.5658,2.8755e-13,-0.81906,0,0,0.14286,-0,-0,0.66667
0.91479,0.19753,6.4035,-0.4537,-4.6686,4.6572,7.7474,-2.5825,-1.2665,10.33,-2.9935e-08,-0.63323,0,0,0.14286,2.7068e-15,0,0.66667
0.64436,0.4203,4.5105,-0.11955,-4.4996,54.541,1.4379,-0.47931,-1.9484,1.9173,1.2996e-12,-0.97419,0,0,0.14286,-0,-0,0.66667
0.0052398,0.20711,0.036679,-0.43934,-28.534,312.36,0.042972,-0.014324,-1.3124,0.057296,4.4743e-07,-0.65618,0,0,0.14286,-5.2868e-18,0,0.66667
0.48443,0.57285,3.391,0.10927,5.4012,105.8,-0.98809,0.32936,-1.9598,-1.3175,8.6237e-13,-0.97989,0,0,0.14286,-0,-0,0.66667
0.85932,0.14044,6.0152,-0.53934,-9.0651,10.8,8.6513,-2.8838,-0.96777,11.535,-2.1546e-09,-0.48389,0,0,0.14286,1.3534e-15,2.1046e-16,0.66667
0.8304,0.016633,5.8128,-0.72505,-14.678,15.451,11.239,-3.7463,-0.13096,14.985,8.767e-10,-0.065479,0,0,0.14286,-2.7068e-15,0,0.66667
0.64915,0.8039,4.5441,0.45585,17.064,53.61,-5.5238,1.8413,-1.2596,-7.365,-1.3856e-12,-0.62982,0,0,0.14286,-0,-0,0.66667
0.6737,0.39339,4.7159,-0.15991,-5.6167,46.687,2.011,-0.67034,-1.9096,2.6814,3.4019e-12,-0.95479,0,0,0.14286,6.7671e-16,0,0.66667
0.5785,0.24869,4.0495,-0.37697,-16.222,74.271,4.0708,-1.3569,-1.4979,5.4277,5.0537e-13,-0.74894,0,0,0.14286,3.3835e-16,0,0.66667
0.27412,0.80773,1.9188,0.46159,27.724,190.04,-2.3619,0.78731,-1.2414,-3.1492,5.3471e-12,-0.62069,0,0,0.14286,1.6231e-16,0,0.66667
0.56053,0.71072,3.9237,0.31608,14.011,79.92,-3.3072,1.1024,-1.6455,-4.4096,-2.911e-13,-0.82276,0,0,0.14286,6.7671e-16,0,0.66667
0.67173,0.62115,4.7021,0.18173,6.4159,47.214,-2.2787,0.75957,-1.8855,-3.0383,-3.3575e-12,-0.94274,0,0,0.14286,-3.3835e-16,0,0.66667
0.35243,0.34464,2.467,-0.23303,-13.211,156.87,1.533,-0.51102,-1.8066,2.0441,-3.8558e-13,-0.90329,0,0,0.14286,1.3534e-15,0,0.66667
0.85583,0.65273,5.9908,0.2291,3.8836,10.619,-3.66,1.22,-1.8137,-4.88,3.307e-09,-0.90685,0,0,0.14286,-1.7767e-15,0,0.66667
0.19504,0.51527,1.3653,0.0229,1.4259,224.81,-0.083374,0.027791,-1.9962,-0.11116,-1.0042e-10,-0.99812,0,0,0.14286,-0,-0,0.66667
0.74732,0.86961,5.2312,0.55441,15.845,29.96,-7.734,2.578,-0.90769,-10.312,1.3975e-12,-0.45384,0,0,0.14286,-1.0151e-15,0,0.66667
0.2896,0.35335,2.0272,-0.21998,-13.049,183.23,1.1892,-0.39639,-1.8263,1.5856,-4.7963e-12,-0.91316,0,0,0.14286,-0,-0,0.66667
0.7738,0.19872,5.4166,-0.45191,-11.679,24.371,6.5276,-2.1759,-1.2721,8.7034,-2.8366e-11,-0.63605,0,0,0.14286,-0,-0,0.66667
0.42774,0.59783,2.9942,0.14674,7.7509,126.9,-1.1717,0.39056,-1.9227,-1.5622,6.2728e-14,-0.96136,0,0,0.14286,-0,-0,0.66667
0.8077,0.9076,5.6539,0.6114,13.766,18.674,-9.2181,3.0727,-0.67101,-12.291,2.4991e-10,-0.3355,0,0,0.14286,-2.7068e-15,0,0.66667
0.35353,0.62332,2.4747,0.18498,10.473,156.39,-1.2207,0.4069,-1.8781,-1.6276,1.7853e-12,-0.93903,0,0,0.14286,2.2151e-16,0,0.66667
0.21369,0.80105,1.4959,0.45158,27.988,216.58,-1.8013,0.60044,-1.2737,-2.4018,-1.721e-10,-0.63683,0,0,0.14286,3.3835e-16,0,0.66667
0.76728,0.81803,5.371,0.47705,12.653,25.697,-6.8326,2.2775,-1.1921,-9.1101,-4.4484e-12,-0.59607,0,0,0.14286,-0,-0,0.66667
0.30864,0.73296,2.1605,0.34943,20.495,175.19,-2.0132,0.67107,-1.565,-2.6843,6.7784e-12,-0.78249,0,0,0.14286,-0,-0,0.66667
0.73325,0.037188,5.1327,-0.69422,-20.912,33.394,9.5019,-3.1673,-0.28811,12.669,-1.1102e-13,-0.14406,0,0,0.14286,-0,-0,0.66667
0.74447,0.1909,5.2113,-0.46365,-13.336,30.35,6.4433,-2.1478,-1.2351,8.5911,9.8304e-12,-0.61757,0,0,0.14286,-0,-0,0.66667
0.2214,0.1725,1.5498,-0.49125,-30.358,213.18,2.0302,-0.67673,-1.1418,2.7069,7.3602e-11,-0.57091,0,0,0.14286,3.3835e-16,0,0.66667
0.21411,0.83309,1.4988,0.49963,30.984,216.42,-1.9969,0.66563,-1.1114,-2.6625,1.5815e-11,-0.55568,0,0,0.14286,-0,-0,0.66667
0.19895,0.49478,1.3926,-0.0078289,-0.48667,223.05,0.029074,-0.0096913,-1.9995,0.038765,2.0367e-10,-0.99975,0,0,0.14286,-5.0753e-16,0,0.66667
0.14252,0.78951,0.99763,0.43426,27.627,248.74,-1.1553,0.3851,-1.3303,-1.5404,-3.8023e-09,-0.66513,0,0,0.14286,-0,-0,0.66667
0.37708,0.70695,2.6396,0.31042,17.247,146.9,-2.185,0.72834,-1.6577,-2.9134,1.9418e-12,-0.82886,0,0,0.14286,-3.3835e-16,0,0.66667
0.026628,0.82468,0.1864,0.48703,31.632,302.39,-0.24208,0.080693,-1.1555,-0.32277,6.9785e-07,-0.57775,0,0,0.14286,4.2294e-17,0,0.66667
0.11092,0.24085,0.77644,-0.38873,-24.919,263.24,0.80487,-0.26829,-1.4637,1.0732,1.1721e-08,-0.73184,0,0,0.14286,-8.4588e-17,0,0.66667
0.67456,0.57903,4.7219,0.11854,4.1531,46.438,-1.4926,0.49755,-1.9499,-1.9902,-3.0376e-12,-0.97493,0,0,0.14286,1.3534e-15,0,0.66667
0.79978,0.57762,5.5984,0.11643,2.6748,19.13,-1.7382,0.57939,-1.9515,-2.3176,2.3934e-10,-0.97574,0,0,0.14286,-0,-0,0.66667
0.08053,0.70157,0.56371,0.30235,19.478,277.28,-0.4545,0.1515,-1.675,-0.60599,-1.1723e-08,-0.8375,0,0,0.14286,-1.6918e-16,0,0.66667
0.2317,0.60343,1.6219,0.15515,9.5056,208.46,-0.67103,0.22368,-1.9145,-0.89471,-4.2378e-11,-0.95724,0,0,0.14286,6.7671e-16,0,0.66667
0.20763,0.26797,1.4534,-0.34804,-21.599,219.24,1.3489,-0.44964,-1.5682,1.7985,2.5919e-10,-0.78408,0,0,0.14286,3.3835e-16,0,0.66667
0.91733,0.93397,6.4213,0.65096,6.6472,5.0683,-11.147,3.7156,-0.49316,-14.862,1.4359e-07,-0.24658,0,0,0.14286,-1.6918e-15,0,0.66667
0.71131,0.24993,4.9792,-0.3751,-11.943,37.62,4.9805,-1.6602,-1.4995,6.6407,9.9618e-12,-0.74977,0,0,0.14286,1.6178e-15,0,0.66667
0.55388,0.3859,3.8772,-0.17115,-7.6568,81.958,1.7696,-0.58986,-1.8941,2.3594,-6.7724e-14,-0.94707,0,0,0.14286,-0,-0,0.66667
0.30452,0.53411,2.1316,0.051171,3.0035,176.83,-0.29088,0.096958,-1.9899,-0.38783,3.7745e-12,-0.99497,0,0,0.14286,-0,-0,0.66667
0.83485,0.80735,5.844,0.46103,8.9597,13.976,-7.1846,2.3949,-1.2432,-9.5795,6.2419e-10,-0.62161,0,0,0.14286,1.0151e-15,0,0.66667
0.43531,0.59396,3.0471,0.14094,7.3841,124.01,-1.1453,0.38175,-1.9312,-1.527,1.0502e-12,-0.9656,0,0,0.14286,-1.3534e-15,0,0.66667
0.92346,0.7841,6.4642,0.42615,3.9308,3.8919,-7.346,2.4487,-1.3561,-9.7946,4.2874e-08,-0.67804,0,0,0.14286,-2.7068e-15,0,0.66667
0.70605,0.022107,4.9424,-0.71684,-23.45,39.688,9.4477,-3.1492,-0.1729,12.597,5.3468e-13,-0.086451,0,0,0.14286,-0,-0,0.66667
0.47803,0.36938,3.3462,-0.19593,-9.7689,108.15,1.7483,-0.58277,-1.8625,2.3311,1.1341e-12,-0.93123,0,0,0.14286,-0,-0,0.66667
0.12621,0.48856,0.88347,-0.017157,-1.0931,256.14,0.040421,-0.013474,-2,0.053895,-3.1863e-09,-1,0,0,0.14286,-1.6918e-16,0,0.66667
0.97604,0.25886,6.8323,-0.36171,-0.95679,0.89523,6.5903,-2.1968,-1.5332,8.787,1.7277e-07,-0.76662,0,0,0.14286,-0,-0,0.66667
0.15983,0.51478,1.1188,0.022177,1.399,240.75,-0.066167,0.022056,-1.9975,-0.088222,-3.0488e-10,-0.99876,0,0,0.14286,-0,-0,0.66667
0.2026,0.38323,1.4182,-0.17515,-10.877,221.43,0.66241,-0.2208,-1.8929,0.88321,3.2268e-10,-0.94644,0,0,0.14286,-0,-0,0.66667
0.43118,0.93483,3.0183,0.65225,34.598,126.13,-5.2498,1.7499,-0.48679,-6.9997,1.8607e-13,-0.24339,0,0,0.14286,-1.6918e-16,0,0.66667
0.4042,0.52781,2.8294,0.041718,2.256,136.01,-0.31476,0.10492,-1.9951,-0.41968,-7.9164e-13,-0.99756,0,0,0.14286,-1.0151e-15,0,0.66667
0.14675,0.44714,1.0273,-0.079294,-5.0232,246.72,0.21722,-0.072405,-1.9762,0.28962,1.0562e-09,-0.98809,0,0,0.14286,-0,-0,0.66667
0.72932,0.58857,5.1052,0.13285,3.9879,33.209,-1.8087,0.60288,-1.9366,-2.4115,-2.3228e-12,-0.9683,0,0,0.14286,1.1086e-15,0,0.66667
0.18875,0.61402,1.3212,0.17103,10.681,227.66,-0.60256,0.20085,-1.8971,-0.80342,-4.8159e-10,-0.94854,0,0,0.14286,-0,-0,0.66667
0.6439,0.80578,4.5073,0.45867,17.375,55.063,-5.5129,1.8376,-1.252,-7.3505,-1.1382e-12,-0.626,0,0,0.14286,3.3835e-16,0,0.66667
0.75431,0.53135,5.2801,0.047021,1.2968,27.788,-0.66207,0.22069,-1.9927,-0.88276,1.6437e-11,-0.99637,0,0,0.14286,2.7068e-15,0,0.66667
0.21073,0.55585,1.4751,0.083768,5.1815,217.77,-0.32951,0.10984,-1.9737,-0.43935,-7.4264e-11,-0.98686,0,0,0.14286,-0,-0,0.66667
0.60095,0.4743,4.2067,-0.038552,-1.5867,67.098,0.43247,-0.14416,-1.9936,0.57663,1.0336e-13,-0.99678,0,0,0.14286,-0,-0,0.66667
0.74893,0.92472,5.2425,0.63708,18.173,29.852,-8.9063,2.9688,-0.55805,-11.875,-9.6492e-12,-0.27902,0,0,0.14286,-8.8691e-16,0,0.66667
0.63822,0.64505,4.4675,0.21758,8.3086,56.321,-2.5921,0.86402,-1.8318,-3.4561,-1.0087e-12,-0.91592,0,0,0.14286,-0,-0,0.66667
0.59713,0.87531,4.1799,0.56297,23.523,68.844,-6.275,2.0917,-0.87416,-8.3667,-3.3218e-13,-0.43708,0,0,0.14286,-0,-0,0.66667
0.29548,0.69398,2.0684,0.29098,17.206,180.75,-1.6049,0.53498,-1.7003,-2.1399,8.9082e-12,-0.85017,0,0,0.14286,-0,-0,0.66667
0.73161,0.43917,5.1212,-0.091241,-2.718,32.677,1.246,-0.41535,-1.9715,1.6614,1.5143e-13,-0.98576,0,0,0.14286,-0,-0,0.66667
0.94531,0.6355,6.6172,0.20324,1.3029,2.0069,-3.5864,1.1955,-1.8514,-4.7819,-4.289e-08,-0.92571,0,0,0.14286,-0,-0,0.66667
0.42556,0.15536,2.9789,-0.51696,-27.5,128.06,4.1067,-1.3689,-1.0505,5.4756,3.3475e-12,-0.52525,0,0,0.14286,-2.5377e-16,0,0.66667
0.78218,0.19467,5.4753,-0.458,-11.448,22.793,6.6871,-2.229,-1.2559,8.9161,-1.4019e-10,-0.62794,0,0,0.14286,-0,-0,0.66667
0.056141,0.68805,0.39299,0.28208,18.23,288.61,-0.29561,0.098535,-1.7169,-0.39414,3.1856e-08,-0.85846,0,0,0.14286,-1.6918e-16,0,0.66667
0.83527,0.028677,5.8469,-0.70698,-13.918,14.661,11.023,-3.6744,-0.22216,14.697,1.1817e-09,-0.11108,0,0,0.14286,6.7671e-16,0,0.66667
0.19225,0.70737,1.3458,0.31106,19.421,226.12,-1.1163,0.37209,-1.6548,-1.4884,-5.6e-10,-0.82741,0,0,0.14286,1.6918e-16,0,0.66667
0.3951,0.6846,2.7657,0.2769,15.127,139.69,-2.0421,0.68072,-1.7274,-2.7229,3.0553e-13,-0.86368,0,0,0.14286,1.6918e-16,0,0.66667
0.30008,0.27699,2.1006,-0.33451,-19.73,178.82,1.8737,-0.62458,-1.6025,2.4983,-4.3567e-12,-0.80127,0,0,0.14286,-1.6918e-16,0,0.66667
0.080104,0.11302,0.56073,-0.58048,-37.545,277.54,0.86797,-0.28932,-0.80236,1.1573,-3.0629e-10,-0.40118,0,0,0.14286,8.4588e-17,0,0.66667
0.90463,0.21641,6.3324,-0.42539,-4.8799,5.4824,7.1833,-2.3944,-1.3584,9.5777,-1.9142e-08,-0.67922,0,0,0.14286,1.5226e-15,0,0.66667
0.37015,0.67058,2.5911,0.25588,14.295,149.66,-1.768,0.58933,-1.7659,-2.3573,2.1694e-12,-0.88295,0,0,0.14286,-6.7671e-16,0,0.66667
0.5307,0.84534,3.7149,0.51801,24.153,90.065,-5.1315,1.7105,-1.0489,-6.8421,5.6977e-13,-0.52443,0,0,0.14286,-0,1.8505e-16,0.66667
0.49412,0.10752,3.4588,-0.58872,-28.94,102.85,5.43,-1.81,-0.76605,7.2401,2.3141e-12,-0.38303,0,0,0.14286,-6.7671e-16,0,0.66667
0.13216,0.061087,0.92513,-0.65837,-42.174,253.58,1.6242,-0.5414,-0.45839,2.1656,-3.0077e-08,-0.22919,0,0,0.14286,-2.3262e-16,0,0.66667
0.20645,0.38428,1.4452,-0.17358,-10.761,219.7,0.66895,-0.22298,-1.8926,0.89193,2.4554e-10,-0.94628,0,0,0.14286,-0,-0,0.66667
0.076189,0.5681,0.53332,0.10216,6.577,279.28,-0.14529,0.048429,-1.964,-0.19372,-5.6475e-08,-0.98198,0,0,0.14286,-1.6918e-16,0,0.66667
0.50792,0.63661,3.5555,0.20492,9.8234,97.521,-1.9429,0.64762,-1.8489,-2.5905,7.7494e-14,-0.92446,0,0,0.14286,-0,-0,0.66667
0.26155,0.1988,1.8308,-0.4518,-27.331,195.49,2.2058,-0.73527,-1.2734,2.9411,-8.4608e-12,-0.63668,0,0,0.14286,-6.7671e-16,0,0.66667
0.35706,0.84156,2.4994,0.51235,29.046,155.2,-3.4149,1.1383,-1.068,-4.5531,3.0751e-12,-0.53401,0,0,0.14286,-1.4805e-16,0,0.66667
0.10807,0.13021,0.75646,-0.55468,-35.67,264.61,1.1189,-0.37297,-0.90767,1.4919,-8.878e-09,-0.45384,0,0,0.14286,-3.3835e-16,0,0.66667
0.78755,0.93291,5.5129,0.64937,16.017,22.32,-9.5464,3.1821,-0.49979,-12.729,3.4798e-11,-0.24989,0,0,0.14286,-1.0151e-15,0,0.66667
0.10658,0.87107,0.74609,0.5566,35.806,265.29,-1.1074,0.36913,-0.89917,-1.4765,1.5133e-08,-0.44959,0,0,0.14286,-4.2294e-17,0,0.66667
0.98571,0.9298,6.9,0.6447,1.0971,1.5093,-11.862,3.9541,-0.52347,-15.816,4.6684e-06,-0.26173,0,0,0.14286,-6.7671e-16,-1.9212e-16,0.66667
0.17716,0.15703,1.2401,-0.51445,-32.397,233.02,1.7013,-0.5671,-1.0591,2.2684,1.5853e-10,-0.52953,0,0,0.14286,-6.7671e-16,0,0.66667
0.57241,0.75599,4.0068,0.38399,16.702,76.202,-4.1029,1.3676,-1.4748,-5.4705,-1.5454e-12,-0.73739,0,0,0.14286,1.3534e-15,0,0.66667
0.044845,0.56263,0.31392,0.093952,6.0719,293.87,-0.078648,0.026216,-1.9706,-0.10486,-3.0053e-07,-0.98529,0,0,0.14286,1.6918e-16,0,0.66667
0.78712,0.43913,5.5098,-0.0913,-2.2169,21.387,1.3415,-0.44715,-1.9701,1.7886,-4.0717e-11,-0.98504,0,0,0.14286,-0,-0,0.66667
0.18961,0.30387,1.3272,-0.29419,-18.384,227.3,1.0412,-0.34708,-1.6928,1.3883,6.3265e-10,-0.84642,0,0,0.14286,1.6918e-16,0,0.66667
0.5279,0.5253,3.6953,0.037957,1.7667,90.572,-0.37404,0.12468,-1.9949,-0.49872,1.9615e-13,-0.99747,0,0,0.14286,-6.7671e-16,0,0.66667
0.74008,0.36621,5.1805,-0.20069,-5.8215,30.891,2.7725,-0.92415,-1.8555,3.6966,-4.6358e-12,-0.92776,0,0,0.14286,-0,-0,0.66667
0.14993,0.60239,1.0495,0.15358,9.7225,245.27,-0.42983,0.14328,-1.9147,-0.57311,-2.9267e-09,-0.95736,0,0,0.14286,-0,-0,0.66667
0.55109,0.45316,3.8576,-0.070264,-3.1558,82.832,0.7228,-0.24093,-1.9814,0.96373,1.9296e-13,-0.9907,0,0,0.14286,6.7671e-16,0,0.66667
0.21662,0.72246,1.5163,0.33368,20.622,215.22,-1.3493,0.44975,-1.6053,-1.799,-1.5332e-10,-0.80266,0,0,0.14286,6.7671e-16,0,0.66667
0.7592,0.24977,5.3144,-0.37534,-10.224,27.111,5.3192,-1.7731,-1.499,7.0923,-2.9473e-11,-0.74949,0,0,0.14286,-1.8609e-15,0,0.66667
0.72292,0.084038,5.0604,-0.62394,-19.349,35.492,8.4197,-2.8066,-0.61502,11.226,5.5058e-12,-0.30751,0,0,0.14286,-0,-0,0.66667
0.17655,0.20822,1.2358,-0.43766,-27.534,233.26,1.4424,-0.48079,-1.3179,1.9231,9.0065e-10,-0.65893,0,0,0.14286,-0,-0,0.66667
0.86197,0.89903,6.0338,0.59854,9.9237,10.642,-9.6306,3.2102,-0.72659,-12.841,1.7821e-08,-0.3633,0,0,0.14286,1.3534e-15,0,0.66667
0.019775,0.62664,0.13843,0.18996,12.302,305.57,-0.070119,0.023373,-1.8721,-0.093493,3.1705e-08,-0.93603,0,0,0.14286,-8.4588e-17,0,0.66667
0.86024,0.54363,6.0217,0.065447,1.0738,9.9146,-1.0509,0.35031,-1.9861,-1.4012,4.083e-10,-0.99305,0,0,0.14286,-1.3534e-15,0,0.66667
0.5589,0.92791,3.9123,0.64186,28.735,80.989,-6.6965,2.2322,-0.53467,-8.9286,2.6645e-14,-0.26733,0,0,0.14286,-6.7671e-16,0,0.66667
0.40322,0.88194,2.8225,0.57292,31.206,136.81,-4.3122,1.4374,-0.83308,-5.7496,5.9508e-14,-0.41654,0,0,0.14286,-0,-0,0.66667
0.75875,0.73783,5.3112,0.35675,9.7285,27.17,-5.0527,1.6842,-1.5457,-6.737,2.9267e-11,-0.77286,0,0,0.14286,4.5488e-16,0,0.66667
0.71693,0.2611,5.0185,-0.35836,-11.218,36.282,4.7958,-1.5986,-1.544,6.3944,9.0692e-12,-0.77199,0,0,0.14286,1.3534e-15,0,0.66667
0.98733,0.60358,6.9113,0.15537,0.16891,0.27295,-2.8634,0.95447,-1.9141,-3.8179,-8.0497e-08,-0.95703,0,0,0.14286,-0,-0,0.66667
0.27809,0.4976,1.9466,-0.0035968,-0.21472,188.15,0.018671,-0.0062236,-2.0007,0.024894,-1.7852e-12,-1.0003,0,0,0.14286,-1.6918e-16,0,0.66667
0.0037937,0.97111,0.026556,0.70667,46.122,313.04,-0.050036,0.016688,-0.22486,-0.06671,1.3922e-05,-0.11243,0,0,0.14286,-0,-0,0.66667
0.9339,0.071572,6.5373,-0.64264,-5.2672,3.8094,11.203,-3.7344,-0.53116,14.937,1.3447e-07,-0.26558,0,0,0.14286,-0,-0,0.66667
0.8579,0.74205,6.0053,0.36307,6.1004,10.559,-5.8142,1.9381,-1.5324,-7.7523,4.102e-09,-0.76622,0,0,0.14286,-6.7671e-16,0,0.66667
0.72885,0.92647,5.102,0.63971,19.49,34.202,-8.7033,2.9011,-0.54358,-11.604,-4.0794e-12,-0.27179,0,0,0.14286,6.7671e-16,0,0.66667
0.51669,0.65174,3.6168,0.2276,10.78,94.494,-2.1952,0.73173,-1.8178,-2.9269,1.1315e-12,-0.90888,0,0,0.14286,-6.7671e-16,0,0.66667
0.70696,0.93042,4.9487,0.64563,21.002,39.26,-8.5201,2.84,-0.51755,-11.36,-1.2719e-12,-0.25878,0,0,0.14286,-0,-0,0.66667
0.78053,0.45537,5.4637,-0.06695,-1.6705,22.604,0.97546,-0.32515,-1.9855,1.3006,-5.4182e-11,-0.99274,0,0,0.14286,-0,-0,0.66667
0.37488,0.11087,2.6241,-0.58369,-32.641,148.07,4.0845,-1.3615,-0.79061,5.446,1.8257e-12,-0.3953,0,0,0.14286,-0,-0,0.66667
0.77032,0.95794,5.3923,0.68691,18.183,25.686,-9.8773,3.2924,-0.32124,-13.17,-3.6342e-11,-0.16062,0,0,0.14286,-6.7671e-16,0,0.66667
0.75062,0.10449,5.2544,-0.59326,-16.791,29.371,8.3125,-2.7708,-0.75025,11.083,2.4523e-12,-0.37512,0,0,0.14286,-0,-0,0.66667
0.61321,0.0099463,4.2925,-0.73508,-29.95,64.465,8.4142,-2.8047,-0.078139,11.219,8.189e-13,-0.03907,0,0,0.14286,-0,-0,0.66667
0.40187,0.45435,2.8131,-0.068473,-3.7115,136.93,0.51365,-0.17122,-1.9822,0.68486,2.7501e-12,-0.9911,0,0,0.14286,-6.7671e-16,0,0.66667
0.69731,0.15606,4.8812,-0.51591,-17.158,41.253,6.7153,-2.2384,-1.0537,8.9537,7.1281e-12,-0.52684,0,0,0.14286,-2.0301e-15,0,0.66667
0.0031129,0.95616,0.02179,0.68424,44.636,313.36,-0.039762,0.01326,-0.33498,-0.053012,9.6209e-06,-0.16749,0,0,0.14286,-5.2868e-18,-6.5117e-16,0.66667
0.7749,0.028189,5.4243,-0.70772,-18.428,24.875,10.237,-3.4123,-0.2185,13.649,2.7931e-11,-0.10925,0,0,0.14286,4.5883e-16,0,0.66667
0.89642,0.93699,6.2749,0.65549,8.3222,6.963,-10.968,3.6561,-0.47226,-14.625,-2.3646e-07,-0.23613,0,0,0.14286,-1.7341e-15,0,0.66667
0.23932,0.059047,1.6752,-0.66143,-40.653,205.4,2.9548,-0.98492,-0.44416,3.9397,3.3251e-12,-0.22208,0,0,0.14286,5.0753e-16,0,0.66667
0.12077,0.26721,0.84537,-0.34919,-22.322,258.69,0.78719,-0.2624,-1.5654,1.0496,8.5622e-09,-0.78271,0,0,0.14286,-0,-0,0.66667
0.22028,0.67864,1.542,0.26796,16.521,213.56,-1.1019,0.36729,-1.7457,-1.4691,-1.3171e-10,-0.87285,0,0,0.14286,-1.6918e-16,0,0.66667
0.3021,0.87235,2.1147,0.55852,33.015,178.15,-3.1496,1.0499,-0.89057,-4.1995,5.3553e-12,-0.44528,0,0,0.14286,3.3835e-16,0,0.66667
0.88303,0.092388,6.1812,-0.61142,-8.6789,8.2004,10.078,-3.3594,-0.67034,13.438,3.4252e-08,-0.33517,0,0,0.14286,2.9989e-16,0,0.66667
0.54317,0.68644,3.8022,0.27965,12.74,85.572,-2.8354,0.94515,-1.7226,-3.7806,-5.0226e-13,-0.86131,0,0,0.14286,-8.4588e-16,0,0.66667
0.28671,0.99719,2.007,0.74578,44.714,184.93,-3.9914,1.3305,-0.022032,-5.3219,4.7118e-13,-0.011016,0,0,0.14286,-5.9212e-16,0,0.66667
0.13835,0.8377,0.96848,0.50655,32.301,250.67,-1.3082,0.43608,-1.0884,-1.7443,-6.9443e-09,-0.5442,0,0,0.14286,-8.4588e-17,0,0.66667
0.29014,0.36219,2.031,-0.20672,-12.257,183,1.1196,-0.3732,-1.8463,1.4928,-3.7115e-12,-0.92315,0,0,0.14286,-0,-0,0.66667
0.61387,0.33942,4.2971,-0.24087,-9.6807,63.35,2.7602,-0.92005,-1.7934,3.6802,3.7215e-13,-0.89671,0,0,0.14286,6.7671e-16,0,0.66667
0.32414,0.4495,2.269,-0.075744,-4.385,168.55,0.4583,-0.15277,-1.9788,0.61106,1.009e-12,-0.98938,0,0,0.14286,-0,-0,0.66667
0.45736,0.033987,3.2015,-0.69902,-36.063,116.38,5.9678,-1.9893,-0.26275,7.9571,1.5685e-12,-0.13138,0,0,0.14286,-1.3534e-15,0,0.66667
0.44412,0.15561,3.1088,-0.51659,-26.935,121.01,4.2826,-1.4275,-1.0509,5.7102,8.7619e-13,-0.52546,0,0,0.14286,-8.8818e-16,0,0.66667
0.82814,0.28565,5.7969,-0.32153,-6.447,14.705,4.9704,-1.6568,-1.6354,6.6272,-1.3488e-09,-0.81769,0,0,0.14286,-0,-0,0.66667
0.42635,0.15942,2.9844,-0.51088,-27.15,127.75,4.0658,-1.3553,-1.0719,5.4211,1.4317e-12,-0.53597,0,0,0.14286,1.3534e-15,0,0.66667
0.3457,0.86473,2.4199,0.54709,31.322,159.9,-3.5304,1.1768,-0.93634,-4.7072,2.3392e-12,-0.46817,0,0,0.14286,-0,-0,0.66667
0.67497,0.57287,4.7248,0.1093,3.8253,46.328,-1.3771,0.45905,-1.9573,-1.8362,-2.9025e-12,-0.97863,0,0,0.14286,1.3534e-15,0,0.66667
0.22148,0.31745,1.5504,-0.27382,-16.874,213.03,1.1321,-0.37736,-1.734,1.5094,1.2723e-10,-0.867,0,0,0.14286,6.7671e-16,0,0.66667
0.46725,0.58764,3.2707,0.13146,6.6395,112.06,-1.1466,0.3822,-1.9399,-1.5288,1.0836e-13,-0.96994,0,0,0.14286,-3.3835e-16,0,0.66667
0.31477,0.54619,2.2034,0.06929,4.0384,172.49,-0.40712,0.13571,-1.983,-0.54283,5.1314e-12,-0.99152,0,0,0.14286,-0,-0,0.66667
0.62686,0.25406,4.388,-0.36891,-14.468,59.723,4.3167,-1.4389,-1.5175,5.7556,1.16e-12,-0.75874,0,0,0.14286,-0,-0,0.66667
0.87736,0.98126,6.1415,0.72189,10.828,9.2359,-11.823,3.9409,-0.14725,-15.763,-3.4332e-08,-0.073623,0,0,0.14286,1.3534e-15,0,0.66667
0.44769,0.45122,3.1338,-0.073165,-3.7798,119.31,0.61143,-0.20381,-1.9795,0.81524,-4.2349e-13,-0.98973,0,0,0.14286,6.7671e-16,0,0.66667
0.78446,0.28997,5.4912,-0.31505,-7.7656,22.1,4.6134,-1.5378,-1.6469,6.1512,-1.6401e-10,-0.82345,0,0,0.14286,-0,-0,0.66667
0.45697,0.6921,3.1988,0.28815,14.751,115.95,-2.4579,0.8193,-1.7048,-3.2772,5.2935e-13,-0.85238,0,0,0.14286,-0,-0,0.66667
0.65623,0.76542,4.5936,0.39813,14.643,51.586,-4.8769,1.6256,-1.4385,-6.5025,-2.7081e-12,-0.71925,0,0,0.14286,-0,-0,0.66667
0.13184,0.51895,0.92289,0.028423,1.8081,253.55,-0.069949,0.023316,-1.9954,-0.093266,-1.4876e-09,-0.99768,0,0,0.14286,-0,-0,0.66667
0.43298,0.21785,3.0309,-0.42323,-22.299,125.11,3.4206,-1.1402,-1.3635,4.5609,5.2203e-13,-0.68173,0,0,0.14286,-7.613e-16,0,0.66667
0.90931,0.84675,6.3652,0.52012,5.7264,5.3121,-8.8284,2.9428,-1.0388,-11.771,-7.8161e-09,-0.51942,0,0,0.14286,-0,-0,0.66667
0.60548,0.86881,4.2384,0.55322,22.746,66.31,-6.2526,2.0842,-0.91155,-8.3368,-3.3618e-13,-0.45577,0,0,0.14286,3.5852e-16,0,0.66667
0.76677,0.66496,5.3674,0.24743,6.5325,25.401,-3.5415,1.1805,-1.7837,-4.7221,5.5164e-11,-0.89183,0,0,0.14286,-0,-0,0.66667
0.5047,0.22736,3.5329,-0.40896,-19.745,98.845,3.8528,-1.2843,-1.4044,5.1371,7.2387e-13,-0.70222,0,0,0.14286,-0,-0,0.66667
0.49806,0.10606,3.4864,-0.59092,-28.899,101.46,5.4938,-1.8313,-0.7589,7.325,1.763e-12,-0.37945,0,0,0.14286,-0,-0,0.66667
0.8429,0.17196,5.9003,-0.49206,-9.144,12.889,7.7422,-2.5807,-1.1404,10.323,-1.6076e-09,-0.57019,0,0,0.14286,1.3534e-15,4.1849e-17,0.66667
0.067807,0.71147,0.47465,0.31721,20.477,283.19,-0.4015,0.13383,-1.6412,-0.53533,-5.7301e-09,-0.82062,0,0,0.14286,-8.4588e-17,0,0.66667
0.57327,0.028099,4.0129,-0.70785,-31.003,76.558,7.5748,-2.5249,-0.21824,10.1,-4.3299e-13,-0.10912,0,0,0.14286,-3.3835e-16,1.9814e-16,0.66667
0.94276,0.023751,6.5993,-0.71437,-5.1512,3.5341,12.572,-4.1906,-0.18448,16.762,4.4864e-06,-0.092242,0,0,0.14286,-0,-0,0.66667
0.51786,0.7344,3.625,0.3516,16.651,94.206,-3.3988,1.1329,-1.5606,-4.5317,1.9051e-13,-0.7803,0,0,0.14286,-6.7671e-16,0,0.66667
0.19447,0.63393,1.3613,0.2009,12.52,225.09,-0.72928,0.24309,-1.855,-0.97237,-4.8683e-10,-0.92748,0,0,0.14286,-0,-0,0.66667
0.84794,0.077065,5.9356,-0.6344,-11.541,12.608,10.041,-3.3472,-0.56797,13.389,-3.911e-09,-0.28399,0,0,0.14286,-0,-0,0.66667
0.25164,0.59101,1.7615,0.13651,8.2769,199.67,-0.64122,0.21374,-1.9355,-0.85497,-1.0388e-11,-0.96775,0,0,0.14286,4.2294e-16,0,0.66667
0.70073,0.79246,4.9051,0.4387,14.42,40.262,-5.7382,1.9127,-1.3159,-7.651,-7.7529e-12,-0.65794,0,0,0.14286,1.3534e-15,0,0.66667
0.54026,0.24544,3.7818,-0.38183,-17.5,86.653,3.8508,-1.2836,-1.4807,5.1343,-2.8555e-13,-0.74033,0,0,0.14286,-0,-0,0.66667
0.94884,0.28583,6.6419,-0.32125,-1.9397,1.9888,5.6898,-1.8966,-1.6328,7.5864,4.282e-08,-0.81642,0,0,0.14286,-0,-0,0.66667
0.62434,0.13077,4.3704,-0.55385,-21.933,60.78,6.4547,-2.1516,-0.91145,8.6063,6.7679e-13,-0.45572,0,0,0.14286,-0,1.0758e-16,0.66667
0.83798,0.34362,5.8658,-0.23457,-4.4404,13.107,3.6693,-1.2231,-1.8044,4.8923,-1.6892e-09,-0.90221,0,0,0.14286,-4.7581e-16,0,0.66667
0.0079329,0.37144,0.05553,-0.19284,-12.493,311.1,0.028556,-0.0095186,-1.8669,0.038075,4.6632e-08,-0.93345,0,0,0.14286,-0,-0,0.66667
0.98934,0.94382,6.9254,0.66573,0.83998,1.5216,-12.295,4.0982,-0.42341,-16.393,1.4892e-05,-0.2117,0,0,0.14286,-2.7068e-15,0,0.66667
0.077715,0.74187,0.544,0.3628,23.398,278.6,-0.5263,0.17543,-1.5341,-0.70174,-2.224e-08,-0.76704,0,0,0.14286,8.4588e-17,0,0.66667
0.32213,0.38509,2.2549,-0.17236,-9.9974,169.42,1.0364,-0.34548,-1.8929,1.3819,-2.489e-12,-0.94645,0,0,0.14286,-0,-0,0.66667
0.94615,0.91218,6.6231,0.61827,4.1175,2.9615,-10.92,3.6399,-0.63966,-14.559,-2.156e-07,-0.31983,0,0,0.14286,2.7068e-15,0,0.66667
0.0089391,0.8855,0.062574,0.57825,37.639,310.64,-0.096488,0.032161,-0.80948,-0.12865,-2.2915e-06,-0.40474,0,0,0.14286,-0,-0,0.66667
0.82273,0.98629,5.7591,0.72943,15.375,16.642,-11.202,3.7341,-0.1067,-14.936,1.4335e-10,-0.053349,0,0,0.14286,1.3534e-15,0,0.66667
0.86121,0.52822,6.0285,0.042337,0.68989,9.7828,-0.68061,0.22687,-1.9952,-0.90748,-3.2577e-09,-0.99759,0,0,0.14286,6.7671e-16,0,0.66667
0.43983,0.29252,3.0788,-0.31121,-16.249,122.4,2.5551,-0.8517,-1.6558,3.4068,2.9488e-13,-0.82791,0,0,0.14286,-0,-0,0.66667
0.25575,0.1184,1.7902,-0.57241,-34.812,198.12,2.7326,-0.91087,-0.83398,3.6435,-7.1678e-12,-0.41699,0,0,0.14286,3.3835e-16,0,0.66667
0.80269,0.11417,5.6188,-0.57874,-13.312,19.427,8.6715,-2.8905,-0.80764,11.562,3.9449e-11,-0.40382,0,0,0.14286,-6.7671e-16,0,0.66667
0.47786,0.73687,3.345,0.3553,17.752,108.35,-3.1694,1.0565,-1.5494,-4.2258,1.0778e-12,-0.7747,0,0,0.14286,-6.7671e-16,0,0.66667
0.13434,0.28461,0.94037,-0.32308,-20.573,252.45,0.81017,-0.27006,-1.6282,1.0802,5.4275e-09,-0.81409,0,0,0.14286,-0,-0,0.66667
0.92785,0.61403,6.4949,0.17105,1.4598,3.1234,-2.9625,0.9875,-1.8944,-3.95,-8.1269e-09,-0.94722,0,0,0.14286,-1.3534e-15,0,0.66667
0.89597,0.088964,6.2718,-0.61655,-7.8284,6.869,10.312,-3.4372,-0.64772,13.749,-4.9671e-08,-0.32386,0,0,0.14286,-0,-0,0.66667
0.49155,0.9408,3.4408,0.66119,32.675,103.9,-6.0668,2.0223,-0.44478,-8.0891,4.3743e-13,-0.22239,0,0,0.14286,-0,-0,0.66667
0.8567,0.39533,5.9969,-0.15701,-2.6416,10.429,2.5108,-0.83694,-1.9123,3.3478,-2.6085e-09,-0.95617,0,0,0.14286,1.3534e-15,0,0.66667
0.41858,0.024395,2.93,-0.71341,-38.403,131.07,5.5742,-1.8581,-0.19037,7.4322,-1.4229e-12,-0.095186,0,0,0.14286,6.7671e-16,-1.1588e-16,0.66667
0.68346,0.50365,4.7843,0.0054717,0.1873,44.127,-0.069808,0.023269,-1.9999,-0.093078,1.0658e-12,-0.99997,0,0,0.14286,-0,-0,0.66667
0.39799,0.069734,2.7859,-0.6454,-35.389,138.97,4.7948,-1.5983,-0.51757,6.393,2.1818e-12,-0.25879,0,0,0.14286,-0,-0,0.66667
0.50574,0.81307,3.5402,0.46961,22.667,98.564,-4.4333,1.4778,-1.2159,-5.9111,-9.8233e-13,-0.60793,0,0,0.14286,-0,-0,0.66667
0.18955,0.90487,1.3269,0.6073,38.13,227.49,-2.1488,0.71627,-0.69034,-2.8651,4.8168e-10,-0.34517,0,0,0.14286,4.2294e-16,0,0.66667
0.96499,0.28151,6.7549,-0.32774,-1.3184,1.2237,5.9036,-1.9679,-1.6189,7.8715,1.013e-07,-0.80945,0,0,0.14286,-0,-0,0.66667
0.29422,0.28752,2.0595,-0.31873,-18.869,181.31,1.7505,-0.58348,-1.6393,2.3339,-4.0511e-12,-0.81963,0,0,0.14286,-0,-0,0.66667
0.10346,0.97723,0.72422,0.71585,46.231,266.8,-1.3825,0.46083,-0.17667,-1.8433,-1.7516e-07,-0.088337,0,0,0.14286,-0,-0,0.66667
0.14432,0.60866,1.0102,0.16299,10.336,247.84,-0.43907,0.14636,-1.9048,-0.58543,-2.7885e-09,-0.95238,0,0,0.14286,-0,-0,0.66667
0.014092,0.54121,0.098646,0.061819,4.0022,308.22,-0.016262,0.0054224,-1.9873,-0.021682,2.4668e-06,-0.99366,0,0,0.14286,-0,-0,0.66667
0.71595,0.49463,5.0116,-0.0080557,-0.25183,36.224,0.10766,-0.035886,-2.0002,0.14355,1.382e-12,-1.0001,0,0,0.14286,-1.6918e-15,0,0.66667
0.5645,0.11561,3.9515,-0.57659,-25.529,79.05,6.0757,-2.0252,-0.81853,8.1009,2.478e-13,-0.40927,0,0,0.14286,-0,-0,0.66667
0.79458,0.78363,5.562,0.42544,10.078,20.462,-6.3102,2.1034,-1.3578,-8.4136,2.4241e-10,-0.67888,0,0,0.14286,-0,-0,0.66667
0.50708,0.74487,3.5496,0.36731,17.664,97.962,-3.4768,1.1589,-1.5192,-4.6357,0,-0.7596,0,0,0.14286,-6.7671e-16,0,0.66667
0.79182,0.4285,5.5427,-0.10726,-2.5526,20.538,1.5853,-0.52844,-1.958,2.1138,-1.309e-10,-0.979,0,0,0.14286,6.7671e-16,0,0.66667
0.69576,0.66349,4.8703,0.24523,8.138,41.185,-3.1849,1.0616,-1.7848,-4.2466,-6.672e-12,-0.89239,0,0,0.14286,-0,-0,0.66667
0.77785,0.79587,5.4449,0.44381,11.284,23.578,-6.444,2.148,-1.2991,-8.592,6.6577e-11,-0.64953,0,0,0.14286,-1.3534e-15,0,0.66667
0.40648,0.29458,2.8454,-0.30813,-16.656,135.23,2.338,-0.77933,-1.6643,3.1173,2.9776e-13,-0.83215,0,0,0.14286,-0,-0,0.66667
0.64777,0.74779,4.5344,0.37168,13.93,53.849,-4.4943,1.4981,-1.5082,-5.9924,-1.918e-12,-0.7541,0,0,0.14286,-8.4588e-16,0,0.66667
0.17979,0.85284,1.2586,0.52925,33.305,231.84,-1.7763,0.59209,-1.0025,-2.3684,-3.9796e-10,-0.50123,0,0,0.14286,3.3835e-16,0,0.66667
0.32182,0.45699,2.2527,-0.064517,-3.7412,169.52,0.38757,-0.12919,-1.9836,0.51676,8.4002e-13,-0.99178,0,0,0.14286,-7.1947e-16,0,0.66667
0.1726,0.44045,1.2082,-0.08932,-5.6104,234.94,0.28778,-0.095928,-1.9741,0.38371,9.6264e-10,-0.98707,0,0,0.14286,6.7671e-16,0,0.66667
0.40864,0.25108,2.8605,-0.37338,-20.157,134.45,2.8481,-0.94938,-1.5058,3.7975,2.532e-12,-0.7529,0,0,0.14286,-0,-0,0.66667
0.24142,0.51032,1.6899,0.015473,0.94299,204.15,-0.069731,0.023244,-1.9975,-0.092975,3.777e-12,-0.99874,0,0,0.14286,-0,-0,0.66667
0.40692,0.045262,2.8485,-0.68211,-37.116,135.53,5.1812,-1.7271,-0.34715,6.9083,7.6072e-13,-0.17358,0,0,0.14286,-0,-0,0.66667
0.97522,0.49627,6.8266,-0.0055942,-0.01462,0.52424,0.10184,-0.033943,-1.9991,0.13579,5.2819e-06,-0.99955,0,0,0.14286,-0,-0,0.66667
0.32032,0.7315,2.2422,0.34725,20.2,170.27,-2.0763,0.6921,-1.5694,-2.7684,6.4317e-12,-0.78472,0,0,0.14286,-0,-0,0.66667
0.98249,0.52178,6.8774,0.032676,0.055082,0.3163,-0.59927,0.19976,-1.9969,-0.79903,4.7755e-07,-0.99843,0,0,0.14286,-0,-0,0.66667
0.63631,0.70967,4.4541,0.3145,12.077,56.962,-3.7356,1.2452,-1.6475,-4.9808,-1.2543e-12,-0.82375,0,0,0.14286,-0,-0,0.66667
0.37509,0.51326,2.6256,0.019893,1.1052,147.59,-0.13929,0.046429,-2.0006,-0.18572,1.8857e-12,-1.0003,0,0,0.14286,-0,-0,0.66667
0.85748,0.30267,6.0024,-0.29599,-4.9734,10.494,4.7378,-1.5793,-1.6891,6.317,-3.9896e-09,-0.84456,0,0,0.14286,-0,-0,0.66667
0.61959,0.36798,4.3371,-0.19803,-7.8638,61.638,2.2903,-0.76345,-1.8596,3.0538,1.3214e-12,-0.92978,0,0,0.14286,-3.3835e-16,0,0.66667
0.25203,0.2038,1.7642,-0.4443,-27.015,199.64,2.0903,-0.69675,-1.2984,2.787,2.6807e-12,-0.64921,0,0,0.14286,-3.3835e-16,0,0.66667
0.79286,0.30441,5.55,-0.29338,-6.9736,20.535,4.3421,-1.4474,-1.6934,5.7894,-2.669e-10,-0.8467,0,0,0.14286,1.3534e-15,0,0.66667
0.43294,0.94668,3.0306,0.67002,35.491,125.49,-5.4147,1.8049,-0.40292,-7.2197,-5.2758e-13,-0.20146,0,0,0.14286,-0,-0,0.66667
0.35751,0.30176,2.5026,-0.29737,-16.799,154.82,1.9845,-0.6615,-1.6862,2.646,-6.8545e-13,-0.84309,0,0,0.14286,-3.3835e-16,0,0.66667
0.33028,0.38914,2.3119,-0.16629,-9.5869,166,1.0252,-0.34173,-1.9019,1.3669,-1.1831e-12,-0.95095,0,0,0.14286,-6.7671e-16,0,0.66667
0.69737,0.1887,4.8816,-0.46695,-15.504,41.134,6.0785,-2.0262,-1.2246,8.1047,6.1942e-12,-0.61229,0,0,0.14286,-0,-0,0.66667
0.26865,0.31974,1.8806,-0.27039,-16.253,192.3,1.356,-0.45199,-1.7401,1.8079,-8.9506e-13,-0.87007,0,0,0.14286,-0,-0,0.66667
0.80828,0.67173,5.6579,0.2576,5.7021,17.804,-3.8866,1.2955,-1.763,-5.1822,5.4433e-10,-0.8815,0,0,0.14286,-1.3534e-15,0,0.66667
0.29529,0.40241,2.067,-0.14639,-8.6482,180.78,0.80692,-0.26897,-1.9254,1.0759,-2.3875e-12,-0.9627,0,0,0.14286,-1.6918e-16,0,0.66667
0.54412,0.35964,3.8088,-0.21055,-9.5699,85.198,2.1385,-0.71283,-1.8422,2.8513,2.2804e-13,-0.92108,0,0,0.14286,-6.7671e-16,0,0.66667
0.48792,0.019674,3.4155,-0.72049,-35.833,105.32,6.5621,-2.1874,-0.1537,8.7495,1.9544e-12,-0.076848,0,0,0.14286,-0,-0,0.66667
0.85536,0.75373,5.9875,0.38059,6.5081,10.927,-6.0768,2.0256,-1.485,-8.1023,3.6582e-09,-0.74251,0,0,0.14286,-0,-0,0.66667
0.88839,0.49995,6.2187,-7.2455e-05,-0.00095538,6.5921,0.0012015,-0.00040052,-2.0018,0.001602,-1.7996e-08,-1.0009,0,0,0.14286,1.8451e-15,0,0.66667
0.18438,0.37194,1.2907,-0.19209,-12.018,229.63,0.66114,-0.22038,-1.8695,0.88151,4.9652e-10,-0.93473,0,0,0.14286,-0,-0,0.66667
0.58535,0.020792,4.0974,-0.71881,-30.837,72.817,7.8541,-2.618,-0.16119,10.472,6.7946e-14,-0.080596,0,0,0.14286,-0,-0,0.66667
0.89821,0.97006,6.2874,0.70509,8.8533,6.9769,-11.822,3.9406,-0.23191,-15.762,2.1286e-07,-0.11596,0,0,0.14286,-0,-0,0.66667
0.44612,0.35913,3.1228,-0.21131,-10.944,119.95,1.7597,-0.58655,-1.8394,2.3462,8.2967e-13,-0.91969,0,0,0.14286,-6.7671e-16,0,0.66667
0.92187,0.49659,6.4531,-0.0051189,-0.047228,3.494,0.088088,-0.029363,-2.003,0.11745,-2.2682e-07,-1.0015,0,0,0.14286,-3.3835e-16,0,0.66667
0.27899,0.61758,1.9529,0.17637,10.529,187.78,-0.91852,0.30617,-1.89,-1.2247,7.8847e-12,-0.94499,0,0,0.14286,1.6918e-16,0,0.66667
0.60883,0.34111,4.2618,-0.23833,-9.6741,64.84,2.7086,-0.90285,-1.8008,3.6114,4.9583e-13,-0.90039,0,0,0.14286,1.6918e-16,0,0.66667
0.68245,0.94513,4.7772,0.6677,23.225,45.33,-8.5059,2.8353,-0.41391,-11.341,-1.0321e-12,-0.20696,0,0,0.14286,-0,-0,0.66667
0.22821,0.027929,1.5974,-0.70811,-43.809,210.34,3.0164,-1.0055,-0.21653,4.0219,-4.6247e-11,-0.10826,0,0,0.14286,-3.3835e-16,0,0.66667
0.013768,0.77805,0.096373,0.41707,27.075,308.38,-0.10718,0.035728,-1.383,-0.14291,-2.8452e-08,-0.69151,0,0,0.14286,2.6434e-17,0,0.66667
0.41672,0.85534,2.9171,0.53301,28.622,131.49,-4.1462,1.3821,-0.98855,-5.5283,1.1373e-12,-0.49427,0,0,0.14286,-6.7671e-16,0,0.66667
0.93848,0.86094,6.5694,0.5414,4.0669,3.1611,-9.4845,3.1615,-0.95897,-12.646,9.67e-08,-0.47949,0,0,0.14286,-0,-0,0.66667
0.34303,0.36286,2.4012,-0.20571,-11.748,160.72,1.3172,-0.43908,-1.851,1.7563,-6.5459e-13,-0.9255,0,0,0.14286,-3.3835e-16,0,0.66667
0.77974,0.63537,5.4582,0.20306,5.0906,22.842,-2.9555,0.98518,-1.8543,-3.9407,1.2289e-10,-0.92715,0,0,0.14286,-0,-0,0.66667
0.17474,0.41445,1.2232,-0.12832,-8.0551,233.98,0.41855,-0.13952,-1.9415,0.55807,6.5205e-10,-0.97077,0,0,0.14286,-0,-0,0.66667
0.34195,0.60786,2.3937,0.16178,9.2439,161.15,-1.0327,0.34423,-1.9074,-1.3769,4.3402e-12,-0.95371,0,0,0.14286,-0,-0,0.66667
0.1446,0.66219,1.0122,0.24329,15.436,247.73,-0.65668,0.21889,-1.7893,-0.87558,-3.5045e-09,-0.89463,0,0,0.14286,-0,-0,0.66667
0.71677,0.78186,5.0174,0.42279,13.263,36.43,-5.6569,1.8856,-1.3663,-7.5425,-9.8304e-12,-0.68317,0,0,0.14286,-0,-0,0.66667
0.69931,0.22224,4.8952,-0.41665,-13.741,40.565,5.4388,-1.8129,-1.383,7.2517,7.379e-12,-0.69148,0,0,0.14286,-0,-0,0.66667
0.6885,0.74969,4.8195,0.37453,12.706,43.158,-4.8135,1.6045,-1.504,-6.418,-6.5481e-12,-0.75201,0,0,0.14286,2.9606e-16,0,0.66667
0.2534,0.1817,1.7738,-0.47745,-29.025,199.07,2.2584,-0.75279,-1.1895,3.0112,2.8586e-12,-0.59477,0,0,0.14286,-0,-0,0.66667
0.69236,0.64782,4.8465,0.22173,7.424,42.001,-2.8656,0.9552,-1.8242,-3.8208,-5.9204e-12,-0.91212,0,0,0.14286,-6.7671e-16,0,0.66667
0.2273,0.64085,1.5911,0.21128,12.977,210.42,-0.89643,0.29881,-1.8394,-1.1952,-8.3319e-11,-0.91971,0,0,0.14286,-2.6917e-16,0,0.66667
0.42465,0.073921,2.9725,-0.63912,-34.124,128.6,5.0662,-1.6887,-0.54754,6.7549,5.7243e-13,-0.27377,0,0,0.14286,-0,-0,0.66667
0.37192,0.44403,2.6035,-0.083958,-4.6781,148.88,0.58288,-0.19429,-1.9751,0.77717,1.1538e-12,-0.98754,0,0,0.14286,-0,-0,0.66667
0.35531,0.85665,2.4872,0.53498,30.386,155.94,-3.5482,1.1827,-0.98145,-4.731,2.035e-12,-0.49073,0,0,0.14286,6.7671e-16,0,0.66667
0.057655,0.8131,0.40358,0.46965,30.415,287.94,-0.50545,0.16848,-1.216,-0.67393,-5.639e-08,-0.608,0,0,0.14286,-0,-0,0.66667
0.63165,0.2477,4.4215,-0.37845,-14.696,58.368,4.4622,-1.4874,-1.4902,5.9495,1.5876e-12,-0.7451,0,0,0.14286,-5.0753e-16,0,0.66667
0.70732,0.67901,4.9512,0.26851,8.6297,38.416,-3.5452,1.1817,-1.743,-4.727,-8.0329e-12,-0.87148,0,0,0.14286,-6.7671e-16,0,0.66667
0.61359,0.30847,4.2951,-0.2873,-11.56,63.48,3.2906,-1.0969,-1.7064,4.3874,4.4342e-13,-0.85321,0,0,0.14286,6.7671e-16,0,0.66667
0.64831,0.033284,4.5382,-0.70007,-26.461,54.41,8.4722,-2.8241,-0.25681,11.296,9.2193e-13,-0.1284,0,0,0.14286,-2.7068e-15,0,0.66667
0.16994,0.43088,1.1896,-0.10368,-6.5191,236.15,0.32891,-0.10964,-1.9627,0.43855,1.211e-09,-0.98135,0,0,0.14286,1.0063e-16,0,0.66667
0.14945,0.55898,1.0461,0.088468,5.5999,245.49,-0.2468,0.082265,-1.9714,-0.32906,2.1959e-10,-0.98568,0,0,0.14286,4.4245e-17,0,0.66667
0.51418,0.30033,3.5992,-0.2995,-14.248,95.423,2.8746,-0.9582,-1.6819,3.8328,3.2463e-13,-0.84094,0,0,0.14286,-6.7671e-16,0,0.66667
0.87533,0.54355,6.1273,0.065318,0.95988,8.0603,-1.0673,0.35575,-1.9867,-1.423,3.4803e-09,-0.99333,0,0,0.14286,-1.3534e-15,0,0.66667
0.18395,0.46484,1.2877,-0.052738,-3.2983,229.8,0.18109,-0.060364,-1.9904,0.24145,5.4062e-10,-0.99518,0,0,0.14286,3.3835e-16,0,0.66667
0.46284,0.77951,3.2399,0.41926,21.356,113.91,-3.6223,1.2074,-1.3747,-4.8297,-1.2657e-14,-0.68734,0,0,0.14286,1.6918e-16,0,0.66667
0.42893,0.70663,3.0025,0.30994,16.374,126.55,-2.4816,0.82721,-1.6567,-3.3089,4.5808e-13,-0.82833,0,0,0.14286,6.7671e-16,0,0.66667
0.49729,0.85799,3.481,0.53699,26.254,101.64,-4.9847,1.6616,-0.97456,-6.6463,2.6334e-13,-0.48728,0,0,0.14286,-0,-0,0.66667
0.16151,0.44092,1.1306,-0.088626,-5.5882,239.99,0.2672,-0.089065,-1.9716,0.35626,1.0765e-09,-0.98582,0,0,0.14286,-0,-0,0.66667
0.34244,0.70226,2.3971,0.30339,17.349,161.02,-1.9393,0.64645,-1.6736,-2.5858,3.5577e-12,-0.8368,0,0,0.14286,-0,-0,0.66667
0.26188,0.69858,1.8332,0.29787,17.98,195.25,-1.4561,0.48537,-1.6839,-1.9415,1.5861e-12,-0.84193,0,0,0.14286,-0,-0,0.66667
0.84453,0.44797,5.9117,-0.078039,-1.4171,12.039,1.2303,-0.41008,-1.9799,1.6403,-3.231e-10,-0.98993,0,0,0.14286,-0,-0,0.66667
0.80033,0.99014,5.6023,0.7352,17.25,20.345,-10.984,3.6612,-0.077709,-14.645,-2.6046e-10,-0.038855,0,0,0.14286,6.7671e-16,0,0.66667
0.42664,0.4639,2.9865,-0.054156,-2.8628,127.3,0.4313,-0.14377,-1.9891,0.57506,1.5083e-12,-0.99455,0,0,0.14286,-0,-0,0.66667
0.60702,0.010805,4.2491,-0.73379,-30.258,66.291,8.3146,-2.7715,-0.085712,11.086,7.2742e-13,-0.042856,0,0,0.14286,-0,1.5308e-16,0.66667
0.14547,0.5616,1.0183,0.092399,5.8559,247.31,-0.2509,0.083632,-1.9698,-0.33453,-9.5053e-10,-0.98492,0,0,0.14286,-2.3262e-16,0,0.66667
0.50961,0.58758,3.5673,0.13137,6.2795,96.892,-1.2497,0.41656,-1.9376,-1.6663,5.0682e-13,-0.96879,0,0,0.14286,-0,-0,0.66667
0.29695,0.43294,2.0786,-0.10059,-5.9347,180.06,0.55757,-0.18586,-1.9669,0.74342,-1.128e-12,-0.98345,0,0,0.14286,-3.3835e-16,0,0.66667
0.85965,0.31459,6.0176,-0.27812,-4.6025,10.186,4.4629,-1.4876,-1.7281,5.9505,-4.45e-09,-0.86404,0,0,0.14286,-2.7068e-15,0,0.66667
0.6716,0.41055,4.7012,-0.13418,-4.7365,47.217,1.6821,-0.5607,-1.9387,2.2428,3.0821e-12,-0.96935,0,0,0.14286,-0,-0,0.66667
0.63347,0.15335,4.4343,-0.51997,-20.182,58.1,6.1486,-2.0495,-1.0379,8.1981,8.1757e-13,-0.51897,0,0,0.14286,1.2026e-15,0,0.66667
0.12475,0.44549,0.87326,-0.081772,-5.2121,256.81,0.19042,-0.063474,-1.9785,0.25389,-1.7163e-09,-0.98924,0,0,0.14286,-0,-0,0.66667
0.47059,0.32321,3.2941,-0.26519,-13.353,110.91,2.3295,-0.7765,-1.7506,3.106,6.2239e-13,-0.87528,0,0,0.14286,-0,-0,0.66667
0.98657,0.73172,6.906,0.34759,0.44653,0.58604,-6.4012,2.1337,-1.5706,-8.5349,6.1142e-08,-0.78532,0,0,0.14286,-0,-0,0.66667
0.9483,0.38557,6.6381,-0.17165,-1.0347,1.801,3.0384,-1.0128,-1.8941,4.0512,1.4214e-08,-0.94705,0,0,0.14286,-2.7068e-15,0,0.66667
0.64509,0.87411,4.5156,0.56117,21.262,54.944,-6.7574,2.2525,-0.88066,-9.0099,-7.5095e-13,-0.44033,0,0,0.14286,-3.3835e-16,0,0.66667
0.15172,0.86373,1.0621,0.54559,34.675,244.58,-1.5452,0.51507,-0.94056,-2.0603,-4.1816e-09,-0.47028,0,0,0.14286,-0,-0,0.66667
0.63913,0.73845,4.4739,0.35768,13.661,56.227,-4.2672,1.4224,-1.546,-5.6896,-1.3198e-12,-0.77298,0,0,0.14286,-0,-0,0.66667
0.56566,0.97989,3.9596,0.71983,31.948,79.004,-7.6007,2.5336,-0.15732,-10.134,7.2342e-13,-0.078661,0,0,0.14286,-0,-0,0.66667
0.46867,0.55926,3.2807,0.088886,4.4806,111.53,-0.77762,0.25921,-1.975,-1.0368,-2.4719e-13,-0.98749,0,0,0.14286,6.7671e-16,0,0.66667
0.42804,0.5768,2.9963,0.1152,6.0817,126.78,-0.92043,0.30681,-1.9511,-1.2272,7.1926e-13,-0.97555,0,0,0.14286,-0,-0,0.66667
0.59927,0.50969,4.1949,0.014532,0.59999,67.605,-0.16256,0.054187,-1.9979,-0.21675,-1.8821e-13,-0.99897,0,0,0.14286,-0,-0,0.66667
0.84997,0.52678,5.9498,0.040168,0.70502,11.271,-0.63731,0.21244,-1.9934,-0.84974,2.0643e-09,-0.9967,0,0,0.14286,-1.3534e-15,0,0.66667
0.75112,0.24786,5.2578,-0.37821,-10.604,28.78,5.3029,-1.7676,-1.4937,7.0705,-1.4175e-11,-0.74685,0,0,0.14286,5.0753e-16,0,0.66667
0.57936,0.55503,4.0555,0.082548,3.5353,73.757,-0.89274,0.29758,-1.9772,-1.1903,-4.1561e-13,-0.98858,0,0,0.14286,3.3835e-16,0,0.66667
0.9247,0.55605,6.4729,0.08407,0.74757,3.2947,-1.4511,0.48371,-1.9752,-1.9349,4.1236e-08,-0.98759,0,0,0.14286,-0,-0,0.66667
0.06474,0.071573,0.45318,-0.64264,-41.71,284.68,0.77662,-0.25887,-0.53203,1.0355,-3.4591e-08,-0.26602,0,0,0.14286,-0,-0,0.66667
0.99135,0.18605,6.9394,-0.47093,-0.36377,0.80395,8.7146,-2.9049,-1.211,11.619,-3.1523e-07,-0.60551,0,0,0.14286,6.7671e-16,0,0.66667
0.052995,0.087282,0.37096,-0.61908,-40.218,290.13,0.61241,-0.20414,-0.63619,0.81655,-9.9133e-08,-0.31809,0,0,0.14286,-4.2294e-17,0,0.66667
0.1995,0.6076,1.3965,0.1614,10.035,222.82,-0.60103,0.20034,-1.9066,-0.80137,-2.7288e-10,-0.95332,0,0,0.14286,-3.3835e-16,0,0.66667
0.42275,0.48425,2.9593,-0.023632,-1.2542,128.79,0.18649,-0.062163,-1.9993,0.24865,1.0041e-12,-0.99963,0,0,0.14286,-0,-0,0.66667
0.10751,0.1584,0.75256,-0.5124,-32.931,264.85,1.0283,-0.34277,-1.0681,1.3711,2.8631e-08,-0.53407,0,0,0.14286,-3.3835e-16,0,0.66667
0.62367,0.27271,4.3657,-0.34093,-13.453,60.602,3.9691,-1.323,-1.5879,5.2921,1.2523e-12,-0.79396,0,0,0.14286,-6.7671e-16,0,0.66667
0.047993,0.073561,0.33595,-0.63966,-41.593,292.46,0.57304,-0.19101,-0.54637,0.76406,7.7204e-07,-0.27319,0,0,0.14286,-0,-0,0.66667
0.28462,0.58312,1.9924,0.12468,7.4152,185.34,-0.66242,0.22081,-1.9443,-0.88323,6.1177e-12,-0.97215,0,0,0.14286,-0,-0,0.66667
0.061037,0.52665,0.42726,0.039981,2.5791,286.32,-0.045552,0.015184,-1.9959,-0.060737,-1.7085e-07,-0.99795,0,0,0.14286,-0,-0,0.66667
0.70352,0.70154,4.9246,0.30231,9.8276,39.367,-3.97,1.3233,-1.6768,-5.2933,-8.3722e-12,-0.83839,0,0,0.14286,-0,-0,0.66667
0.66846,0.56295,4.6792,0.094426,3.3583,48.021,-1.1782,0.39274,-1.9693,-1.571,-1.8111e-12,-0.98464,0,0,0.14286,-0,-0,0.66667
0.37858,0.6871,2.6501,0.28065,15.567,146.28,-1.9833,0.66111,-1.7208,-2.6444,2.2155e-12,-0.86042,0,0,0.14286,9.5162e-16,0,0.66667
0.18819,0.02023,1.3174,-0.71965,-45.319,228.19,2.5281,-0.84271,-0.16013,3.3708,4.8715e-10,-0.080064,0,0,0.14286,-0,-0,0.66667
0.747,0.50918,5.229,0.013767,0.38952,29.313,-0.19197,0.063991,-1.9992,-0.25597,7.7849e-13,-0.99962,0,0,0.14286,-0,-0,0.66667
0.34038,0.80899,2.3827,0.46348,26.605,162,-2.9448,0.98161,-1.2366,-3.9264,3.0351e-12,-0.61832,0,0,0.14286,-0,-0,0.66667
0.7953,0.52375,5.5671,0.035631,0.83476,19.889,-0.52897,0.17632,-1.9966,-0.70529,3.2973e-11,-0.9983,0,0,0.14286,-1.3534e-15,0,0.66667
0.4879,0.56509,3.4153,0.097637,4.8045,104.55,-0.88923,0.29641,-1.9666,-1.1856,9.4547e-13,-0.9833,0,0,0.14286,-0,-0,0.66667
0.52567,0.96997,3.6797,0.70495,33.282,92.143,-6.9173,2.3058,-0.23293,-9.2231,6.0396e-14,-0.11646,0,0,0.14286,-0,-0,0.66667
0.028491,0.57824,0.19944,0.11736,7.5944,301.5,-0.062414,0.020805,-1.9508,-0.083219,1.8754e-07,-0.9754,0,0,0.14286,-0,-0,0.66667
0.64423,0.66446,4.5096,0.2467,9.2998,54.67,-2.9667,0.9889,-1.7833,-3.9556,-1.6174e-12,-0.89163,0,0,0.14286,-0,-0,0.66667
0.35066,0.41714,2.4546,-0.12428,-7.0509,157.55,0.81351,-0.27117,-1.9434,1.0847,-7.5218e-14,-0.9717,0,0,0.14286,-0,-0,0.66667
0.22921,0.98754,1.6044,0.73131,45.248,209.93,-3.1289,1.043,-0.097049,-4.1719,6.5229e-11,-0.048524,0,0,0.14286,-6.7671e-16,0,0.66667
0.43388,0.23147,3.0372,-0.40279,-21.194,124.74,3.2623,-1.0874,-1.4225,4.3497,7.1498e-14,-0.71123,0,0,0.14286,-0,-0,0.66667
0.38247,0.74851,2.6773,0.37277,20.628,144.79,-2.6614,0.88712,-1.5054,-3.5485,1.7022e-12,-0.75272,0,0,0.14286,-7.613e-16,0,0.66667
0.46979,0.99139,3.2885,0.73708,37.513,111.9,-6.4637,2.1546,-0.06976,-8.6183,-3.1219e-13,-0.03488,0,0,0.14286,1.0151e-15,0,0.66667
0.97948,0.35597,6.8564,-0.21605,-0.45769,0.53691,3.9502,-1.3167,-1.8328,5.267,2.5486e-08,-0.91639,0,0,0.14286,-0,-0,0.66667
0.36438,0.42522,2.5506,-0.11217,-6.2916,151.94,0.76296,-0.25432,-1.954,1.0173,1.5442e-12,-0.97698,0,0,0.14286,-0,-0,0.66667
0.77441,0.93138,5.4209,0.64707,16.826,24.77,-9.3538,3.1179,-0.5101,-12.472,2.0671e-11,-0.25505,0,0,0.14286,6.7671e-16,0,0.66667
0.55277,0.45897,3.8694,-0.061552,-2.757,82.279,0.63511,-0.2117,-1.9851,0.84681,8.2845e-13,-0.99256,0,0,0.14286,-6.7671e-16,0,0.66667
0.88913,0.82647,6.2239,0.48971,6.5372,7.1766,-8.1277,2.7092,-1.1481,-10.837,1.0501e-08,-0.57403,0,0,0.14286,1.3534e-15,0,0.66667
0.35495,0.74497,2.4847,0.36746,20.82,155.92,-2.4347,0.81157,-1.5195,-3.2463,3.2021e-12,-0.75977,0,0,0.14286,1.6918e-16,0,0.66667
0.24552,0.12662,1.7186,-0.56008,-34.241,202.58,2.5668,-0.85561,-0.88488,3.4224,6.0654e-11,-0.44244,0,0,0.14286,-0,-0,0.66667
0.91102,0.49408,6.3771,-0.0088781,-0.093448,4.3962,0.15098,-0.050326,-1.9991,0.2013,1.3322e-07,-0.99954,0,0,0.14286,-4.0602e-15,0,0.66667
0.043534,0.66162,0.30474,0.24243,15.682,294.48,-0.19701,0.065669,-1.7912,-0.26267,6.2766e-08,-0.89559,0,0,0.14286,1.6918e-16,0,0.66667
0.95075,0.70915,6.6553,0.31372,1.8181,1.8704,-5.5678,1.8559,-1.6503,-7.4237,-5.0442e-08,-0.82517,0,0,0.14286,1.3534e-15,0,0.66667
0.55641,0.5027,3.8948,0.0040521,0.18041,81.084,-0.042086,0.014029,-1.9994,-0.056115,-7.4531e-14,-0.9997,0,0,0.14286,-0,-0,0.66667
0.37636,0.60035,2.6345,0.15052,8.3567,147.1,-1.0575,0.35249,-1.9208,-1.41,1.8953e-12,-0.96042,0,0,0.14286,-0,-0,0.66667
0.99505,0.896,6.9654,0.594,0.2539,1.1525,-11.033,3.6777,-0.74432,-14.711,2.2703e-06,-0.37216,0,0,0.14286,-1.3534e-15,1.4917e-16,0.66667
0.058363,0.50854,0.40854,0.012815,0.82689,287.57,-0.013961,0.004654,-1.9988,-0.018614,7.2382e-07,-0.99938,0,0,0.14286,-0,-0,0.66667
0.51671,0.80625,3.6169,0.45937,21.832,94.744,-4.4307,1.4769,-1.2514,-5.9076,-2.1272e-13,-0.62569,0,0,0.14286,-0,-0,0.66667
0.031097,0.74523,0.21768,0.36785,23.847,300.29,-0.21353,0.071176,-1.5216,-0.28471,1.6308e-07,-0.76082,0,0,0.14286,2.1147e-17,0,0.66667
0.57118,0.0011151,3.9982,-0.74833,-32.939,77.325,7.9786,-2.6595,-0.0085345,10.638,1.7835e-12,-0.0042672,0,0,0.14286,-0,-0,0.66667
0.18047,0.69963,1.2633,0.29944,18.78,231.43,-1.0087,0.33625,-1.6794,-1.345,-8.8166e-10,-0.83971,0,0,0.14286,-0,-0,0.66667
0.63096,0.3873,4.4167,-0.16904,-6.5538,58.339,1.991,-0.66366,-1.8968,2.6547,1.3358e-12,-0.9484,0,0,0.14286,-0,-0,0.66667
0.98092,0.77526,6.8665,0.41289,0.8515,0.87482,-7.5602,2.5201,-1.3939,-10.08,-2.1357e-07,-0.69693,0,0,0.14286,2.0301e-15,0,0.66667
0.8749,0.21868,6.1243,-0.42198,-6.298,8.5838,6.8915,-2.2972,-1.3706,9.1887,-6.3631e-09,-0.68528,0,0,0.14286,2.0301e-15,0,0.66667
0.45184,0.39203,3.1629,-0.16195,-8.3305,117.78,1.3659,-0.45531,-1.9076,1.8212,-1.1857e-13,-0.95382,0,0,0.14286,-0,-0,0.66667
0.70846,0.7781,4.9592,0.41715,13.407,38.368,-5.5166,1.8389,-1.3809,-7.3555,-7.0961e-12,-0.69044,0,0,0.14286,-0,-0,0.66667
0.77747,0.31181,5.4423,-0.28228,-7.1534,23.367,4.0967,-1.3656,-1.7174,5.4623,-1.1932e-10,-0.8587,0,0,0.14286,6.3441e-16,0,0.66667
0.49484,0.46284,3.4639,-0.055739,-2.7176,102.07,0.51486,-0.17162,-1.9882,0.68649,-4.1911e-13,-0.99409,0,0,0.14286,6.7671e-16,0,0.66667
0.52853,0.82472,3.6997,0.48708,22.769,90.746,-4.8055,1.6018,-1.1563,-6.4074,-2.8244e-13,-0.57817,0,0,0.14286,1.3534e-15,0,0.66667
0.15078,0.95618,1.0555,0.68427,43.622,245.09,-1.926,0.64199,-0.33373,-2.568,-6.6513e-09,-0.16687,0,0,0.14286,-1.6918e-16,0,0.66667
0.3694,0.86627,2.5858,0.5494,30.848,150.23,-3.7884,1.2628,-0.92553,-5.0512,-8.5487e-14,-0.46277,0,0,0.14286,3.3835e-16,0,0.66667
0.14222,0.52989,0.99555,0.044832,2.8437,248.79,-0.11902,0.039673,-1.9949,-0.15869,1.0808e-09,-0.99745,0,0,0.14286,2.1147e-16,0,0.66667
0.72689,0.79734,5.0883,0.44601,13.575,34.164,-6.0517,2.0172,-1.2908,-8.069,-7.3843e-12,-0.64542,0,0,0.14286,1.3534e-15,0,0.66667
0.47701,0.11649,3.3391,-0.57526,-28.894,108.96,5.1222,-1.7074,-0.82186,6.8297,1.0649e-12,-0.41093,0,0,0.14286,3.3835e-16,0,0.66667
0.44888,0.48481,3.1422,-0.02278,-1.1751,118.86,0.19087,-0.063624,-1.9971,0.2545,-1.6505e-12,-0.99854,0,0,0.14286,6.7671e-16,0,0.66667
0.886,0.36503,6.202,-0.20246,-2.7345,6.9614,3.3484,-1.1161,-1.8532,4.4646,-5.3886e-09,-0.92662,0,0,0.14286,-0,-0,0.66667
0.52762,0.20483,3.6933,-0.44276,-20.706,90.988,4.3607,-1.4536,-1.3022,5.8143,2.6512e-13,-0.65112,0,0,0.14286,6.7671e-16,0,0.66667
0.40909,0.21943,2.8636,-0.42085,-22.726,134.32,3.2138,-1.0713,-1.3715,4.285,1.9595e-12,-0.68577,0,0,0.14286,-0,-0,0.66667
0.26889,0.11081,1.8822,-0.58378,-35.249,192.41,2.9302,-0.97673,-0.78772,3.9069,-3.0209e-12,-0.39386,0,0,0.14286,3.3835e-16,0,0.66667
0.072012,0.5675,0.50408,0.10124,6.5224,281.22,-0.1361,0.045365,-1.9626,-0.18146,-7.1065e-08,-0.98132,0,0,0.14286,-0,-0,0.66667
0.41814,0.52188,2.927,0.032816,1.75,130.58,-0.25614,0.085378,-1.9956,-0.34151,1.8447e-12,-0.99782,0,0,0.14286,-6.7671e-16,0,0.66667
0.025753,0.45813,0.18027,-0.062798,-4.0637,302.78,0.030189,-0.010062,-1.9846,0.040253,1.1243e-06,-0.9923,0,0,0.14286,-2.1147e-17,0,0.66667
0.29115,0.94646,2.0381,0.66969,39.965,182.93,-3.6397,1.2132,-0.40411,-4.8529,-1.1524e-13,-0.20205,0,0,0.14286,6.7671e-16,0,0.66667
0.50351,0.52561,3.5246,0.03842,1.8514,99.003,-0.36111,0.12037,-1.9948,-0.48147,7.7457e-13,-0.99738,0,0,0.14286,6.7671e-16,0,0.66667
0.96593,0.65248,6.7615,0.22872,0.87979,1.0198,-4.1241,1.3747,-1.8147,-5.4988,-4.6724e-08,-0.90735,0,0,0.14286,2.8597e-16,0,0.66667
0.10938,0.024019,0.76568,-0.71397,-46.049,264.07,1.4578,-0.48593,-0.19011,1.9437,1.1326e-07,-0.095056,0,0,0.14286,1.6918e-16,0,0.66667
0.67304,0.12264,4.7113,-0.56604,-20.087,47.475,7.1114,-2.3705,-0.86303,9.4818,2.6281e-12,-0.43152,0,0,0.14286,-5.0753e-16,0,0.66667
0.49993,0.27832,3.4995,-0.33252,-16.139,100.43,3.1031,-1.0344,-1.61,4.1375,2.3981e-14,-0.80501,0,0,0.14286,1.4801e-16,0,0.66667
0.7771,0.67419,5.4397,0.26129,6.6281,23.41,-3.7902,1.2634,-1.7563,-5.0536,1.1189e-10,-0.87814,0,0,0.14286,1.3534e-15,0,0.66667
0.14361,0.50882,1.0052,0.013232,0.83894,248.16,-0.035471,0.011824,-1.9993,-0.047294,-7.758e-10,-0.99966,0,0,0.14286,6.7671e-16,0,0.66667
0.083203,0.96121,0.58242,0.69181,44.825,276.14,-1.0745,0.35815,-0.29736,-1.4326,1.9473e-07,-0.14868,0,0,0.14286,4.9266e-17,0,0.66667
0.39922,0.32228,2.7945,-0.26658,-14.505,138.06,1.9866,-0.6622,-1.7457,2.6488,1.1248e-12,-0.87285,0,0,0.14286,6.7671e-16,0,0.66667
0.79696,0.33682,5.5787,-0.24477,-5.7069,19.739,3.6413,-1.2138,-1.7895,4.8551,-3.1166e-10,-0.89476,0,0,0.14286,6.7671e-16,0,0.66667
0.19168,0.28407,1.3417,-0.32389,-20.23,226.38,1.1589,-0.38629,-1.6271,1.5452,5.7337e-10,-0.81355,0,0,0.14286,-0,-0,0.66667
0.76778,0.65575,5.3744,0.23363,6.1431,25.187,-3.3484,1.1161,-1.8077,-4.4645,5.1738e-11,-0.90386,0,0,0.14286,1.6495e-15,0,0.66667
0.2903,0.98991,2.0321,0.73486,43.948,183.38,-3.9821,1.3274,-0.078342,-5.3095,1.189e-12,-0.039171,0,0,0.14286,-3.3835e-16,0,0.66667
0.21689,0.72754,1.5182,0.34131,21.092,215.1,-1.3818,0.46061,-1.5866,-1.8425,-1.5161e-10,-0.79328,0,0,0.14286,-0,-0,0.66667
0.016716,0.41989,0.11701,-0.12016,-7.7802,307,0.037494,-0.012498,-1.9497,0.049992,6.0985e-08,-0.97487,0,0,0.14286,-0,-0,0.66667
0.39866,0.24323,2.7906,-0.38515,-20.999,138.37,2.8662,-0.95539,-1.4712,3.8216,1.9429e-12,-0.7356,0,0,0.14286,-0,-0,0.66667
0.38108,0.80404,2.6676,0.45606,25.301,145.43,-3.2442,1.0814,-1.2591,-4.3256,9.7011e-13,-0.62957,0,0,0.14286,-0,-0,0.66667
0.65934,0.70888,4.6154,0.31331,11.42,50.625,-3.8562,1.2854,-1.6508,-5.1416,-3.1801e-12,-0.82538,0,0,0.14286,6.7671e-16,0,0.66667
0.070918,0.10029,0.49643,-0.59956,-38.848,281.8,0.7937,-0.26457,-0.72058,1.0583,2.7901e-07,-0.36029,0,0,0.14286,1.6918e-16,0,0.66667
0.1526,0.82149,1.0682,0.48223,30.607,244.15,-1.3737,0.4579,-1.1727,-1.8316,-2.2493e-09,-0.58636,0,0,0.14286,-0,-0,0.66667
0.016576,0.39518,0.11603,-0.15723,-10.182,307.06,0.048651,-0.016217,-1.9134,0.064867,2.5898e-09,-0.95671,0,0,0.14286,-2.1147e-17,0,0.66667
0.1138,0.9323,0.79657,0.64844,41.721,262.01,-1.3774,0.45914,-0.50457,-1.8366,-2.1316e-08,-0.25229,0,0,0.14286,-8.4588e-17,0,0.66667
0.65179,0.87058,4.5625,0.55587,20.742,53.095,-6.7631,2.2544,-0.90109,-9.0174,-1.1098e-12,-0.45055,0,0,0.14286,-0,-0,0.66667
0.40266,0.8907,2.8186,0.58605,31.947,137.05,-4.4049,1.4683,-0.77811,-5.8732,-7.7005e-13,-0.38905,0,0,0.14286,6.7671e-16,0,0.66667
0.32103,0.24001,2.2472,-0.38998,-22.687,170,2.3369,-0.77898,-1.4576,3.1159,-2.8102e-12,-0.72881,0,0,0.14286,-0,-0,0.66667
0.55791,0.011784,3.9054,-0.73232,-32.933,81.525,7.6267,-2.5422,-0.092045,10.169,2.176e-13,-0.046023,0,0,0.14286,-0,-0,0.66667
0.99346,0.25567,6.9542,-0.36649,-0.1494,0.49951,6.7964,-2.2655,-1.5213,9.0619,-2.2649e-07,-0.76067,0,0,0.14286,-2.7068e-15,0,0.66667
0.83449,0.64213,5.8414,0.2132,4.1149,13.597,-3.321,1.107,-1.8366,-4.428,1.583e-09,-0.91832,0,0,0.14286,1.3534e-15,0,0.66667
0.69962,0.47152,4.8974,-0.042723,-1.4002,40.115,0.55795,-0.18598,-1.994,0.74393,2.007e-12,-0.99699,0,0,0.14286,-0,-0,0.66667
0.91826,0.45531,6.4278,-0.067028,-0.64787,3.7959,1.1489,-0.38297,-1.9833,1.5319,-9.0353e-09,-0.99166,0,0,0.14286,1.3534e-15,0,0.66667
0.039729,0.58536,0.2781,0.12804,8.2795,296.25,-0.094954,0.031651,-1.9402,-0.12661,1.1847e-08,-0.9701,0,0,0.14286,-0,-0,0.66667
0.070333,0.43132,0.49233,-0.10302,-6.6382,282,0.13525,-0.045084,-1.961,0.18033,5.782e-08,-0.9805,0,0,0.14286,8.394e-17,0,0.66667
0.47401,0.72245,3.318,0.33368,16.746,109.73,-2.9524,0.98414,-1.6036,-3.9365,9.3148e-13,-0.80182,0,0,0.14286,-0,-0,0.66667
0.34917,0.38147,2.4442,-0.1778,-10.102,158.18,1.1588,-0.38628,-1.8867,1.5451,1.6542e-13,-0.94333,0,0,0.14286,-0,-0,0.66667
0.93725,0.73267,6.5608,0.34901,2.6123,2.7404,-6.106,2.0353,-1.5688,-8.1414,7.7599e-10,-0.78439,0,0,0.14286,-0,-0,0.66667
0.48956,0.74759,3.427,0.37139,18.285,104.15,-3.3939,1.1313,-1.5094,-4.5252,-1.0376e-12,-0.75468,0,0,0.14286,3.3835e-16,0,0.66667
0.53965,0.95875,3.7775,0.68813,31.802,87.407,-6.9318,2.3106,-0.31471,-9.2424,-5.6755e-13,-0.15736,0,0,0.14286,6.7671e-16,0,0.66667
0.89526,0.38722,6.2668,-0.16917,-2.1004,5.9603,2.8271,-0.94238,-1.8971,3.7695,-4.6915e-09,-0.94854,0,0,0.14286,1.3534e-15,0,0.66667
0.44664,0.48058,3.1264,-0.029131,-1.5066,119.7,0.24287,-0.080958,-1.9953,0.32383,-1.2559e-12,-0.99765,0,0,0.14286,-6.7671e-16,0,0.66667
0.87703,0.93144,6.1392,0.64717,9.6626,8.9938,-10.595,3.5316,-0.51177,-14.127,7.2246e-08,-0.25589,0,0,0.14286,-0,-0,0.66667
0.25358,0.91663,1.7751,0.62495,38.093,199.11,-2.9582,0.98607,-0.6108,-3.9443,5.8396e-12,-0.3054,0,0,0.14286,-0,-0,0.66667
0.27381,0.97812,1.9167,0.71719,43.307,190.44,-3.6656,1.2219,-0.16956,-4.8875,2.5535e-13,-0.08478,0,0,0.14286,-0,-0,0.66667
0.32836,0.54779,2.2985,0.071681,4.1368,166.78,-0.43936,0.14645,-1.9836,-0.58582,3.9744e-12,-0.99179,0,0,0.14286,-0,-0,0.66667
0.54756,0.32738,3.8329,-0.25893,-11.711,84.098,2.6465,-0.88218,-1.763,3.5287,1.632e-13,-0.88152,0,0,0.14286,-0,-0,0.66667
0.22013,0.20872,1.5409,-0.43692,-26.994,213.71,1.7953,-0.59844,-1.3223,2.3938,8.2045e-11,-0.66114,0,0,0.14286,3.3835e-16,0,0.66667
0.67143,0.24719,4.7,-0.37921,-13.442,47.524,4.7528,-1.5843,-1.4915,6.3371,4.7624e-12,-0.74575,0,0,0.14286,-3.3835e-16,0,0.66667
0.14279,0.63638,0.99955,0.20457,12.982,248.55,-0.54526,0.18175,-1.8515,-0.72702,-3.2254e-09,-0.92576,0,0,0.14286,-0,-0,0.66667
0.0941,0.72147,0.6587,0.33221,21.356,271,-0.58353,0.19451,-1.6105,-0.77804,-1.5652e-08,-0.80525,0,0,0.14286,-0,-0,0.66667
0.87019,0.14565,6.0913,-0.53152,-8.276,9.4248,8.6338,-2.8779,-0.99437,11.512,-2.8398e-09,-0.49719,0,0,0.14286,-0,-0,0.66667
0.23687,0.47229,1.6581,-0.04157,-2.5394,206.16,0.18381,-0.061269,-1.9948,0.24507,9.0422e-12,-0.99741,0,0,0.14286,-0,-0,0.66667
0.386,0.6026,2.702,0.15389,8.4703,143.24,-1.1089,0.36962,-1.9149,-1.4785,1.014e-12,-0.95744,0,0,0.14286,-0,-0,0.66667
0.57154,0.018526,4.0008,-0.72221,-31.741,77.141,7.7051,-2.5684,-0.14372,10.273,6.8345e-13,-0.071859,0,0,0.14286,-0,-0,0.66667
0.5258,0.25784,3.6806,-0.36324,-17.008,91.501,3.5652,-1.1884,-1.5298,4.7536,-9.6922e-13,-0.76488,0,0,0.14286,1.3534e-15,0,0.66667
0.076024,0.90391,0.53217,0.60587,39.232,279.44,-0.8598,0.2866,-0.69629,-1.1464,-2.5378e-07,-0.34815,0,0,0.14286,-2.1147e-17,0,0.66667
0.87413,0.35793,6.1189,-0.2131,-3.1702,8.3138,3.4772,-1.1591,-1.8398,4.6363,-5.4157e-09,-0.9199,0,0,0.14286,-0,-0,0.66667
0.95114,0.77545,6.6579,0.41317,2.4057,2.0639,-7.3356,2.4452,-1.394,-9.7809,-3.5421e-08,-0.69701,0,0,0.14286,1.3534e-15,0,0.66667
0.81251,0.63958,5.6876,0.20937,4.5359,17.042,-3.1755,1.0585,-1.8462,-4.234,6.1508e-10,-0.92311,0,0,0.14286,1.3534e-15,0,0.66667
0.2838,0.19715,1.9866,-0.45428,-27.121,185.87,2.4066,-0.8022,-1.2664,3.2088,-4.4134e-12,-0.63321,0,0,0.14286,-0,-0,0.66667
0.52785,0.54238,3.6949,0.063566,2.9591,90.596,-0.62633,0.20878,-1.9851,-0.8351,-1.0682e-12,-0.99257,0,0,0.14286,-0,-0,0.66667
0.33942,0.6917,2.3759,0.28755,16.479,162.26,-1.8219,0.60729,-1.7058,-2.4292,4.6263e-12,-0.8529,0,0,0.14286,-0,-0,0.66667
0.55467,0.71557,3.8827,0.32335,14.473,81.832,-3.3479,1.116,-1.6274,-4.4639,-4.5541e-13,-0.81371,0,0,0.14286,-1.6918e-16,0,0.66667
0.9744,0.85768,6.8208,0.53653,1.6187,1.4235,-9.7588,3.2529,-0.97492,-13.012,-1.1521e-06,-0.48746,0,0,0.14286,-0,-0,0.66667
0.3117,0.86391,2.1819,0.54586,32.048,174.07,-3.1761,1.0587,-0.94203,-4.2348,4.8157e-12,-0.47101,0,0,0.14286,-0,-0,0.66667
0.6688,0.99836,4.6816,0.74754,26.991,49.076,-9.3324,3.1108,-0.01405,-12.443,1.0347e-12,-0.0070252,0,0,0.14286,-2.5377e-16,3.3693e-17,0.66667
0.32597,0.8812,2.2818,0.5718,33.249,168.11,-3.4793,1.1598,-0.83828,-4.639,2.9898e-12,-0.41914,0,0,0.14286,-0,-0,0.66667
0.77448,0.34938,5.4213,-0.22594,-5.7874,23.871,3.2663,-1.0888,-1.8174,4.3551,-9.1595e-11,-0.90869,0,0,0.14286,-0,-0,0.66667
0.32581,0.25011,2.2807,-0.37483,-21.725,167.99,2.2796,-0.75987,-1.5022,3.0395,-2.5326e-12,-0.75111,0,0,0.14286,-1.3534e-15,0,0.66667
0.88983,0.0015812,6.2288,-0.74763,-10.167,7.9872,12.418,-4.1394,-0.015326,16.558,-1.2605e-08,-0.007663,0,0,0.14286,-0,-0,0.66667
0.75171,0.21483,5.262,-0.42776,-11.987,28.751,6.0022,-2.0007,-1.3509,8.003,5.2478e-12,-0.67546,0,0,0.14286,-6.7671e-16,0,0.66667
0.76263,0.35341,5.3384,-0.21989,-5.8934,26.198,3.1303,-1.0434,-1.828,4.1737,-4.2402e-11,-0.91398,0,0,0.14286,-0,-0,0.66667
0.46948,0.0077026,3.2864,-0.73845,-37.598,112.01,6.4715,-2.1572,-0.062965,8.6286,2.6614e-12,-0.031482,0,0,0.14286,-2.7068e-15,0,0.66667
0.21076,0.13624,1.4754,-0.54563,-33.915,217.95,2.1467,-0.71556,-0.93969,2.8622,2.1307e-10,-0.46985,0,0,0.14286,-0,-0,0.66667
0.041475,0.36969,0.29033,-0.19546,-12.642,295.44,0.15133,-0.050442,-1.8634,0.20177,-3.7088e-09,-0.93169,0,0,0.14286,6.3441e-17,0,0.66667
0.32183,0.35233,2.2528,-0.22151,-12.855,169.56,1.3307,-0.44357,-1.8241,1.7743,-1.8052e-12,-0.91207,0,0,0.14286,-0,-0,0.66667
0.037113,0.12597,0.25979,-0.56104,-36.46,297.51,0.38867,-0.12956,-0.88068,0.51823,7.7906e-08,-0.44034,0,0,0.14286,-0,-0,0.66667
0.69386,0.87005,4.857,0.55508,18.659,42.19,-7.1894,2.3965,-0.90351,-9.5859,-4.0399e-12,-0.45176,0,0,0.14286,1.3534e-15,0,0.66667
0.67035,0.64044,4.6925,0.21066,7.465,47.599,-2.636,0.87866,-1.8429,-3.5146,-4.3456e-12,-0.92145,0,0,0.14286,1.3534e-15,0,0.66667
0.43047,0.45787,3.0133,-0.063189,-3.3267,125.83,0.50775,-0.16925,-1.9841,0.677,6.3854e-13,-0.99205,0,0,0.14286,6.7671e-16,0,0.66667
0.76779,0.47758,5.3745,-0.033629,-0.88233,25.057,0.48197,-0.16066,-1.9965,0.64263,-5.4604e-12,-0.99824,0,0,0.14286,-0,-0,0.66667
0.53601,0.77891,3.7521,0.41837,19.312,88.124,-4.186,1.3953,-1.3776,-5.5813,7.5495e-15,-0.6888,0,0,0.14286,6.7671e-16,0,0.66667
0.03986,0.82285,0.27902,0.48428,31.425,296.22,-0.36033,0.12011,-1.1645,-0.48044,-4.5938e-08,-0.58224,0,0,0.14286,-0,-0,0.66667
0.13479,0.60328,0.94355,0.15491,9.8506,252.21,-0.38978,0.12993,-1.9133,-0.51971,-1.4163e-09,-0.95665,0,0,0.14286,-3.3835e-16,0,0.66667
0.19342,0.20712,1.3539,-0.43933,-27.461,225.65,1.5862,-0.52872,-1.3122,2.1149,3.5757e-10,-0.6561,0,0,0.14286,3.3835e-16,0,0.66667
0.33566,0.62815,2.3496,0.19223,11.039,163.77,-1.2044,0.40148,-1.8678,-1.6059,6.5594e-12,-0.93391,0,0,0.14286,-0,-0,0.66667
0.052313,0.9368,0.36619,0.6552,42.599,290.45,-0.63981,0.21327,-0.47366,-0.85308,-4.9879e-07,-0.23683,0,0,0.14286,1.1102e-16,0,0.66667
0.60512,0.9105,4.2358,0.61575,25.381,66.556,-6.9552,2.3184,-0.65176,-9.2736,6.7502e-13,-0.32588,0,0,0.14286,-0,-0,0.66667
0.51206,0.50377,3.5844,0.0056572,0.26939,96.013,-0.054074,0.018025,-2.0002,-0.072099,1.4808e-13,-1.0001,0,0,0.14286,-0,-0,0.66667
0.61746,0.51516,4.3222,0.022739,0.90595,62.185,-0.26209,0.087362,-1.9963,-0.34945,1.8863e-13,-0.99813,0,0,0.14286,-0,-0,0.66667
0.43236,0.26311,3.0265,-0.35534,-18.715,125.28,2.8678,-0.95595,-1.5497,3.8238,-5.0404e-14,-0.77483,0,0,0.14286,-0,-0,0.66667
0.8477,0.69687,5.9339,0.29531,5.2836,11.81,-4.6728,1.5576,-1.6893,-6.2305,2.6683e-09,-0.84464,0,0,0.14286,-0,-0,0.66667
0.45406,0.85927,3.1784,0.53891,27.798,117.33,-4.5677,1.5226,-0.96857,-6.0902,4.5386e-13,-0.48429,0,0,0.14286,-0,-0,0.66667
0.015404,0.99473,0.10782,0.7421,48.463,307.64,-0.21331,0.071121,-0.044601,-0.2844,2.6403e-05,-0.022301,0,0,0.14286,2.1147e-17,0,0.66667
0.87307,0.17672,6.1115,-0.48492,-7.3677,8.9541,7.9029,-2.6343,-1.1644,10.537,-6.3919e-09,-0.58222,0,0,0.14286,1.3534e-15,0,0.66667
0.6562,0.87387,4.5934,0.56081,20.718,51.912,-6.8694,2.2898,-0.88526,-9.1592,-5.0848e-13,-0.44263,0,0,0.14286,-1.6072e-15,2.3738e-17,0.66667
0.823,0.49634,5.761,-0.0054941,-0.11261,15.237,0.084405,-0.028135,-1.9995,0.11254,1.1525e-10,-0.99973,0,0,0.14286,4.3986e-15,0,0.66667
0.95178,0.1885,6.6624,-0.46724,-2.7065,2.1712,8.3013,-2.7671,-1.2261,11.068,-1.6225e-09,-0.61304,0,0,0.14286,-2.7068e-15,0,0.66667
0.050912,0.22251,0.35639,-0.41624,-26.956,291.06,0.39558,-0.13186,-1.384,0.52744,-2.5891e-08,-0.692,0,0,0.14286,-1.6918e-16,0,0.66667
0.23507,0.51309,1.6455,0.019633,1.2004,206.95,-0.086149,0.028716,-2.0001,-0.11487,-8.6202e-12,-1,0,0,0.14286,-6.7671e-16,0,0.66667
0.063343,0.78115,0.4434,0.42172,27.274,285.28,-0.49865,0.16622,-1.3706,-0.66487,-2.9008e-08,-0.6853,0,0,0.14286,-2.7756e-17,0,0.66667
0.42166,0.10358,2.9516,-0.59463,-31.813,129.68,4.6803,-1.5601,-0.74491,6.2404,8.6819e-13,-0.37245,0,0,0.14286,1.3534e-15,0,0.66667
0.86383,0.76362,6.0468,0.39542,6.3902,9.8657,-6.3762,2.1254,-1.4429,-8.5015,5.1627e-09,-0.72146,0,0,0.14286,-0,-0,0.66667
0.081624,0.43592,0.57137,-0.096121,-6.1829,276.75,0.14646,-0.048818,-1.9678,0.19527,-1.1993e-09,-0.98392,0,0,0.14286,5.2868e-17,0,0.66667
0.47311,0.50473,3.3118,0.0070975,0.35576,109.89,-0.062681,0.020894,-1.9995,-0.083574,-1.6529e-12,-0.99977,0,0,0.14286,-0,-0,0.66667
0.12554,0.2188,0.8788,-0.4218,-26.955,256.52,0.98847,-0.32949,-1.3707,1.318,6.4215e-09,-0.68534,0,0,0.14286,-3.3835e-16,0,0.66667
0.77289,0.97313,5.4102,0.7097,18.626,25.267,-10.239,3.413,-0.20816,-13.652,-4.7304e-11,-0.10408,0,0,0.14286,-0,-0,0.66667
0.84142,0.33555,5.89,-0.24667,-4.5776,12.624,3.8743,-1.2914,-1.7841,5.1658,-2.1285e-09,-0.89206,0,0,0.14286,6.7671e-16,0,0.66667
0.043291,0.60541,0.30304,0.15811,10.223,294.59,-0.12777,0.04259,-1.9105,-0.17036,8.459e-08,-0.95525,0,0,0.14286,-0,-0,0.66667
0.48644,0.0021087,3.4051,-0.74684,-37.244,105.91,6.7814,-2.2605,-0.018372,9.0419,9.277e-13,-0.0091858,0,0,0.14286,-0,-0,0.66667
0.23941,0.54655,1.6759,0.069826,4.2601,205.04,-0.31205,0.10402,-1.9813,-0.41607,-1.3313e-11,-0.99063,0,0,0.14286,-0,-0,0.66667
0.95247,0.93191,6.6673,0.64786,3.8317,2.7317,-11.519,3.8396,-0.5098,-15.358,6.5987e-07,-0.2549,0,0,0.14286,6.7671e-16,-9.9422e-17,0.66667
0.94389,0.47782,6.6072,-0.033265,-0.21767,1.9724,0.58611,-0.19537,-1.9946,0.78148,5.1903e-08,-0.9973,0,0,0.14286,-0,-0,0.66667
0.61393,0.085434,4.2975,-0.62185,-25.201,63.959,7.1264,-2.3755,-0.62425,9.5019,1.1369e-13,-0.31212,0,0,0.14286,-0,-0,0.66667
0.97349,0.61607,6.8144,0.1741,0.49907,0.67332,-3.1638,1.0546,-1.8913,-4.2183,-1.2277e-08,-0.94563,0,0,0.14286,-0,-0,0.66667
0.34486,0.62972,2.414,0.19458,11.095,159.96,-1.2526,0.41753,-1.8673,-1.6701,3.888e-12,-0.93363,0,0,0.14286,1.3534e-15,0,0.66667
0.89785,0.7549,6.285,0.38236,4.6778,6.0309,-6.4083,2.1361,-1.4791,-8.5444,1.5533e-08,-0.73956,0,0,0.14286,-2.7068e-15,0,0.66667
0.43459,0.35308,3.0422,-0.22038,-11.561,124.32,1.7878,-0.59594,-1.8273,2.3837,7.7505e-13,-0.91363,0,0,0.14286,-1.3534e-15,0,0.66667
0.23581,0.77529,1.6507,0.41293,25.31,206.75,-1.8177,0.60589,-1.3951,-2.4236,-3.5583e-11,-0.69757,0,0,0.14286,-5.0753e-16,0,0.66667
0.94083,0.010293,6.5858,-0.73456,-5.494,3.7358,12.9,-4.3001,-0.081108,17.201,6.5017e-07,-0.040554,0,0,0.14286,-0,-0,0.66667
0.68422,0.89072,4.7895,0.58607,20.231,44.667,-7.4854,2.4951,-0.77818,-9.9805,-2.1987e-12,-0.38909,0,0,0.14286,-1.3534e-15,0,0.66667
0.064912,0.063489,0.45438,-0.65477,-42.507,284.6,0.79337,-0.26446,-0.47717,1.0578,6.7074e-08,-0.23858,0,0,0.14286,-0,-0,0.66667
0.87042,0.46582,6.093,-0.051275,-0.78212,8.6389,0.83311,-0.2777,-1.9906,1.1108,-8.5185e-11,-0.99528,0,0,0.14286,3.3835e-16,0,0.66667
0.70138,0.054154,4.9097,-0.66877,-22.119,40.66,8.7558,-2.9186,-0.41065,11.674,4.361e-13,-0.20532,0,0,0.14286,-0,-0,0.66667
0.60493,0.14859,4.2345,-0.52712,-21.681,66.422,5.9523,-1.9841,-1.0113,7.9363,5.7154e-13,-0.50567,0,0,0.14286,6.7671e-16,0,0.66667
0.73237,0.14282,5.1266,-0.53576,-16.075,33.142,7.3244,-2.4415,-0.97974,9.7659,5.179e-12,-0.48987,0,0,0.14286,-0,-3.1228e-17,0.66667
0.25344,0.051839,1.7741,-0.67224,-41.022,199.22,3.1803,-1.0601,-0.39274,4.2404,-9.0883e-13,-0.19637,0,0,0.14286,-0,-0,0.66667
0.60049,0.24438,4.2034,-0.38344,-15.853,67.51,4.298,-1.4327,-1.4761,5.7306,-1.5588e-13,-0.73806,0,0,0.14286,6.7671e-16,0,0.66667
0.81462,0.36459,5.7023,-0.20311,-4.3541,16.688,3.0886,-1.0295,-1.8537,4.1181,-5.8455e-10,-0.92686,0,0,0.14286,6.7671e-16,0,0.66667
0.054114,0.45881,0.3788,-0.061791,-3.9894,289.55,0.062417,-0.020806,-1.9848,0.083223,1.77e-07,-0.99239,0,0,0.14286,-8.4588e-17,0,0.66667
0.13051,0.63453,0.91357,0.2018,12.85,254.18,-0.49162,0.16387,-1.8539,-0.65549,-5.1819e-09,-0.92696,0,0,0.14286,-0,-0,0.66667
0.84245,4.7129e-05,5.8971,-0.74993,-14.223,13.793,11.793,-3.931,-0.0029442,15.724,2.3143e-09,-0.0014721,0,0,0.14286,-0,-0,0.66667
0.61835,0.66994,4.3284,0.25492,10.155,62.05,-2.9424,0.98079,-1.7672,-3.9232,-7.585e-13,-0.88358,0,0,0.14286,-0,-0,0.66667
0.53129,0.086083,3.719,-0.62087,-29,90.06,6.1574,-2.0525,-0.63188,8.2099,-8.3489e-14,-0.31594,0,0,0.14286,-6.7671e-16,0,0.66667
0.24829,0.026404,1.738,-0.71039,-43.509,201.51,3.2925,-1.0975,-0.207,4.39,1.7788e-11,-0.1035,0,0,0.14286,3.3835e-16,0,0.66667
0.29508,0.72698,2.0656,0.34047,20.149,180.95,-1.8753,0.62512,-1.5887,-2.5005,9.6894e-12,-0.79435,0,0,0.14286,-0,-0,0.66667
0.87269,0.29859,6.1088,-0.30212,-4.5584,8.6086,4.9216,-1.6405,-1.6756,6.5621,-6.6185e-09,-0.83778,0,0,0.14286,-0,-0,0.66667
0.42167,0.72729,2.9517,0.34093,18.156,129.36,-2.6835,0.8945,-1.589,-3.578,8.713e-13,-0.79448,0,0,0.14286,-0,-0,0.66667
0.06443,0.31593,0.45101,-0.2761,-17.825,284.76,0.33207,-0.11069,-1.7304,0.44276,-9.9709e-09,-0.86518,0,0,0.14286,-1.6918e-16,0,0.66667
0.89699,0.62131,6.2789,0.18196,2.2232,5.8005,-3.0467,1.0156,-1.8815,-4.0623,1.0389e-08,-0.94076,0,0,0.14286,-3.3835e-16,0,0.66667
0.20338,0.3474,1.4237,-0.2289,-14.215,221.09,0.86899,-0.28966,-1.8165,1.1587,2.9362e-10,-0.90827,0,0,0.14286,6.7671e-16,0,0.66667
0.82623,0.25483,5.7836,-0.36776,-7.4619,15.081,5.6719,-1.8906,-1.5203,7.5625,-1.1669e-09,-0.76016,0,0,0.14286,-0,-0,0.66667
0.88177,0.8011,6.1724,0.45164,6.3969,7.8728,-7.4339,2.478,-1.273,-9.9119,1.0513e-08,-0.63651,0,0,0.14286,-1.3534e-15,0,0.66667
0.48675,0.55523,3.4073,0.082852,4.0828,104.96,-0.75279,0.25093,-1.9761,-1.0037,1.2285e-12,-0.98806,0,0,0.14286,-6.7671e-16,0,0.66667
0.59846,0.63226,4.1893,0.19839,8.2115,67.922,-2.2163,0.73876,-1.8593,-2.955,1.4033e-13,-0.92964,0,0,0.14286,-1.3534e-15,0,0.66667
0.52727,0.58199,3.6909,0.12298,5.7313,90.811,-1.2104,0.40348,-1.9454,-1.6139,1.0225e-13,-0.97269,0,0,0.14286,-6.7671e-16,0,0.66667
0.62482,0.66038,4.3737,0.24058,9.4555,60.156,-2.8059,0.93531,-1.797,-3.7412,-6.2927e-13,-0.89852,0,0,0.14286,-0,-0,0.66667
0.85504,0.62513,5.9853,0.18769,3.1947,10.677,-2.9956,0.99855,-1.8753,-3.9942,2.6161e-09,-0.93766,0,0,0.14286,-0,-0,0.66667
0.28214,0.20789,1.975,-0.43816,-26.18,186.57,2.3076,-0.76921,-1.3188,3.0768,-6.4011e-12,-0.65938,0,0,0.14286,3.3835e-16,0,0.66667
0.88376,0.97,6.1863,0.705,10.038,8.4597,-11.63,3.8767,-0.23243,-15.507,-3.8557e-08,-0.11621,0,0,0.14286,2.7068e-15,0,0.66667
0.56769,0.21751,3.9738,-0.42374,-18.594,77.759,4.4903,-1.4968,-1.3616,5.9871,-3.7481e-13,-0.68079,0,0,0.14286,8.4588e-16,0,0.66667
0.1151,0.30608,0.80572,-0.29087,-18.608,261.29,0.62497,-0.20832,-1.6982,0.83329,8.4634e-09,-0.84908,0,0,0.14286,1.6918e-16,0,0.66667
0.227,0.74964,1.589,0.37446,23.04,210.62,-1.5867,0.52891,-1.5012,-2.1156,-5.8184e-11,-0.75059,0,0,0.14286,-1.4803e-16,0,0.66667
0.59598,0.053452,4.1719,-0.66982,-28.139,69.436,7.4518,-2.4839,-0.40519,9.9357,3.2863e-13,-0.2026,0,0,0.14286,6.7671e-16,0,0.66667
0.23945,0.71111,1.6761,0.31667,19.351,205.09,-1.4154,0.47181,-1.6425,-1.8872,-3.1288e-11,-0.82124,0,0,0.14286,1.6918e-16,0,0.66667
0.13142,0.67167,0.91991,0.25751,16.401,253.77,-0.63169,0.21056,-1.7625,-0.84225,-4.9904e-09,-0.88123,0,0,0.14286,-0,-0,0.66667
0.16185,0.013474,1.1329,-0.72979,-46.408,240.1,2.2048,-0.73494,-0.10479,2.9397,-2.8514e-10,-0.052397,0,0,0.14286,-0,-0,0.66667
0.84487,0.75115,5.9141,0.37672,6.8795,12.348,-5.9413,1.9804,-1.4979,-7.9217,2.6402e-09,-0.74895,0,0,0.14286,-2.7068e-15,0,0.66667
0.60218,0.8277,4.2153,0.49155,20.305,67.177,-5.5254,1.8418,-1.139,-7.3672,3.1397e-13,-0.56952,0,0,0.14286,-0,-0,0.66667
0.96357,0.47857,6.745,-0.032143,-0.13152,0.96408,0.57815,-0.19272,-1.9951,0.77086,-1.6136e-07,-0.99756,0,0,0.14286,-0,-0,0.66667
0.34568,0.0014392,2.4198,-0.74784,-43.018,160.19,4.8256,-1.6085,-0.013269,6.4341,4.6443e-12,-0.0066343,0,0,0.14286,-0,-0,0.66667
0.59563,0.10487,4.1694,-0.59269,-24.855,69.364,6.5897,-2.1966,-0.75155,8.7863,8.411e-13,-0.37577,0,0,0.14286,-0,-0,0.66667
0.59899,0.77424,4.1929,0.41136,17.065,68.006,-4.5995,1.5332,-1.3974,-6.1326,9.7344e-13,-0.69869,0,0,0.14286,-1.0151e-15,0,0.66667
0.6157,0.73944,4.3099,0.35916,14.408,62.947,-4.1279,1.376,-1.5398,-5.5039,-8.8152e-13,-0.76988,0,0,0.14286,6.7671e-16,0,0.66667
0.059177,0.51101,0.41424,0.016521,1.066,287.19,-0.01825,0.0060837,-1.9986,-0.024333,5.7426e-07,-0.9993,0,0,0.14286,-0,-0,0.66667
0.75032,0.86068,5.2522,0.54102,15.296,29.297,-7.5775,2.5258,-0.96105,-10.103,-1.1662e-12,-0.48052,0,0,0.14286,-0,-0,0.66667
0.94821,0.24959,6.6375,-0.37562,-2.3119,2.1353,6.6484,-2.2161,-1.4986,8.8645,3.2016e-08,-0.74931,0,0,0.14286,-1.6072e-15,0,0.66667
0.53468,0.14703,3.7428,-0.52945,-24.547,88.745,5.2843,-1.7614,-1.003,7.0457,6.0441e-13,-0.50148,0,0,0.14286,-0,-0,0.66667
0.19256,0.040148,1.3479,-0.68978,-43.332,226.21,2.4793,-0.82644,-0.30721,3.3058,-1.4823e-10,-0.1536,0,0,0.14286,-0,-0,0.66667
0.75293,0.76307,5.2705,0.39461,10.999,28.434,-5.5461,1.8487,-1.446,-7.3948,8.626e-12,-0.72302,0,0,0.14286,-0,-0,0.66667
0.007319,0.80168,0.051233,0.45253,29.396,311.39,-0.061824,0.020608,-1.2702,-0.082433,-3.5896e-07,-0.63509,0,0,0.14286,-0,-0,0.66667
0.32826,0.30168,2.2978,-0.29748,-17.195,166.91,1.8228,-0.6076,-1.6875,2.4304,-3.091e-12,-0.84373,0,0,0.14286,-0,-0,0.66667
0.91761,0.15324,6.4232,-0.52014,-5.2117,4.6089,8.9093,-2.9698,-1.0381,11.879,-2.116e-08,-0.51905,0,0,0.14286,-1.6918e-15,0,0.66667
0.58837,0.44391,4.1186,-0.084142,-3.5458,70.954,0.92412,-0.30804,-1.9739,1.2322,-1.405e-13,-0.98695,0,0,0.14286,-0,-0,0.66667
0.85519,0.79561,5.9863,0.44341,7.6143,11.086,-7.0784,2.3595,-1.2999,-9.4378,3.4462e-09,-0.64996,0,0,0.14286,1.3534e-15,0,0.66667
0.60467,0.0044579,4.2327,-0.74331,-30.799,67.015,8.3899,-2.7966,-0.03511,11.187,1.3687e-12,-0.017555,0,0,0.14286,-0,-0,0.66667
0.82258,0.77852,5.758,0.41779,8.6583,15.751,-6.415,2.1383,-1.379,-8.5533,7.6031e-10,-0.6895,0,0,0.14286,6.7671e-16,0,0.66667
0.87948,0.58716,6.1564,0.13073,1.8607,7.6174,-2.1463,0.71542,-1.9386,-2.8617,6.9709e-09,-0.96931,0,0,0.14286,6.7671e-16,0,0.66667
0.32099,0.4595,2.2469,-0.060748,-3.5247,169.87,0.36398,-0.12133,-1.9853,0.48531,1.2694e-12,-0.99265,0,0,0.14286,-3.3835e-16,0,0.66667
0.12295,0.54798,0.86068,0.071976,4.5897,257.64,-0.1652,0.055065,-1.9819,-0.22026,-2.0643e-09,-0.99093,0,0,0.14286,-1.6918e-16,0,0.66667
0.7213,0.26492,5.0491,-0.35262,-10.892,35.265,4.7478,-1.5826,-1.5578,6.3304,8.3733e-12,-0.7789,0,0,0.14286,1.3534e-15,0,0.66667
0.44035,0.10761,3.0824,-0.58859,-30.866,122.54,4.8381,-1.6127,-0.76796,6.4508,8.9706e-13,-0.38398,0,0,0.14286,6.7671e-16,0,0.66667
0.12674,0.14001,0.88715,-0.53999,-34.561,256.01,1.2775,-0.42582,-0.96377,1.7033,3.2338e-09,-0.48188,0,0,0.14286,-1.6918e-16,0,0.66667
0.58982,0.35391,4.1288,-0.21914,-9.2192,70.579,2.4127,-0.80423,-1.8286,3.2169,1.3078e-13,-0.91428,0,0,0.14286,-0,-0,0.66667
0.036068,0.35701,0.25248,-0.21448,-13.88,297.96,0.14441,-0.048136,-1.8352,0.19254,-3.3539e-08,-0.91758,0,0,0.14286,-0,-0,0.66667
0.20018,0.077774,1.4013,-0.63334,-39.614,222.74,2.3666,-0.78887,-0.57345,3.1555,2.773e-10,-0.28673,0,0,0.14286,-3.3835e-16,0,0.66667
0.7883,0.20315,5.5181,-0.44528,-10.845,21.635,6.5523,-2.1841,-1.2932,8.7364,-1.7146e-10,-0.64658,0,0,0.14286,-0,-0,0.66667
0.012097,0.52124,0.084677,0.031855,2.0623,309.15,-0.0071922,0.002396,-1.9959,-0.0095904,-2.0916e-06,-0.99796,0,0,0.14286,-0,-0,0.66667
0.30335,0.88383,2.1234,0.57574,34.016,177.64,-3.2601,1.0867,-0.81996,-4.3468,3.6702e-12,-0.40998,0,0,0.14286,-0,-0,0.66667
0.021376,0.11118,0.14963,-0.58323,-37.952,304.84,0.23272,-0.077574,-0.78895,0.31029,-2.4915e-06,-0.39448,0,0,0.14286,-4.2294e-17,0,0.66667
0.99748,0.9641,6.9824,0.69615,0.17225,1.5318,-12.962,4.3207,-0.27772,-17.283,-2.3228e-05,-0.13886,0,0,0.14286,-0,-2.5719e-16,0.66667
0.58203,0.92291,4.0742,0.63436,27.3,73.638,-6.8921,2.2974,-0.5683,-9.1894,3.0198e-14,-0.28415,0,0,0.14286,-0,-0,0.66667
0.29338,0.39278,2.0536,-0.16083,-9.5134,181.6,0.88074,-0.29358,-1.9074,1.1743,-2.723e-12,-0.95369,0,0,0.14286,-0,-0,0.66667
0.92895,0.99435,6.5026,0.74152,6.63,4.5477,-12.858,4.2861,-0.043789,-17.144,-1.0648e-07,-0.021894,0,0,0.14286,6.7671e-16,0,0.66667
0.50712,0.12298,3.5498,-0.56553,-27.304,98.24,5.3534,-1.7845,-0.86229,7.1379,1.0161e-12,-0.43114,0,0,0.14286,2.5377e-16,0,0.66667
0.45469,0.27625,3.1828,-0.33562,-17.237,116.84,2.8486,-0.94953,-1.6009,3.7981,3.1486e-13,-0.80047,0,0,0.14286,3.3835e-16,0,0.66667
0.58787,0.89535,4.1151,0.59303,25.225,71.737,-6.5077,2.1692,-0.74807,-8.6769,1.0303e-12,-0.37403,0,0,0.14286,-6.7671e-16,0,0.66667
0.26414,0.19676,1.849,-0.45486,-27.476,194.37,2.2427,-0.74757,-1.2654,2.9903,-8.8243e-12,-0.63268,0,0,0.14286,-0,-0,0.66667
0.30529,0.47737,2.137,-0.033952,-1.9917,176.5,0.19349,-0.064495,-1.9944,0.25798,1.1036e-12,-0.99718,0,0,0.14286,-0,-0,0.66667
0.37165,0.14856,2.6016,-0.52715,-29.528,149.3,3.6572,-1.2191,-1.0118,4.8762,5.1825e-13,-0.50589,0,0,0.14286,5.5842e-16,0,0.66667
0.24445,0.53233,1.7111,0.04849,2.9506,202.82,-0.22126,0.073754,-1.9916,-0.29502,-1.0467e-11,-0.99578,0,0,0.14286,-6.7671e-16,0,0.66667
0.58455,0.081756,4.0918,-0.62737,-26.873,72.84,6.8455,-2.2818,-0.5989,9.1274,-6.6613e-15,-0.29945,0,0,0.14286,6.7671e-16,0,0.66667
0.69585,0.40395,4.8709,-0.14408,-4.7743,41.079,1.8715,-0.62382,-1.9256,2.4953,4.3533e-12,-0.96278,0,0,0.14286,-1.6918e-16,0,0.66667
0.071947,0.83129,0.50363,0.49693,32.135,281.3,-0.66739,0.22246,-1.1203,-0.88985,-9.2083e-08,-0.56017,0,0,0.14286,8.4588e-17,0,0.66667
0.97108,0.77531,6.7976,0.41296,1.3699,1.1807,-7.4858,2.4953,-1.3944,-9.981,-2.9607e-07,-0.69718,0,0,0.14286,-2.0301e-15,0,0.66667
0.75307,0.23297,5.2715,-0.40054,-11.161,28.415,5.6306,-1.8769,-1.4292,7.5074,-5.1781e-12,-0.71458,0,0,0.14286,-0,-0,0.66667
0.80616,0.609,5.6431,0.1635,3.6489,18.062,-2.4604,0.82012,-1.9032,-3.2805,3.7071e-10,-0.9516,0,0,0.14286,-0,-0,0.66667
0.75164,0.13543,5.2615,-0.54686,-15.394,29.036,7.6727,-2.5576,-0.93749,10.23,-1.4785e-11,-0.46874,0,0,0.14286,-0,-0,0.66667
0.080061,0.91817,0.56043,0.62725,40.608,277.57,-0.93741,0.31247,-0.60153,-1.2499,-4.82e-08,-0.30077,0,0,0.14286,-1.6918e-16,0,0.66667
0.4817,0.97358,3.3719,0.71038,35.6,107.53,-6.3875,2.1292,-0.20638,-8.5166,-3.6948e-13,-0.10319,0,0,0.14286,-0,-0,0.66667
0.44567,0.80946,3.1197,0.46419,24.136,120.36,-3.8617,1.2872,-1.2331,-5.1489,1.6929e-12,-0.61655,0,0,0.14286,-1.6918e-16,0,0.66667
0.67247,0.38704,4.7073,-0.16944,-5.9701,47.012,2.1269,-0.70897,-1.8995,2.8359,3.6706e-12,-0.94976,0,0,0.14286,-0,-0,0.66667
0.44874,0.41832,3.1412,-0.12252,-6.3231,118.93,1.0263,-0.34209,-1.9456,1.3684,2.8522e-13,-0.97279,0,0,0.14286,-6.7671e-16,0,0.66667
0.70431,0.46385,4.9302,-0.054218,-1.7536,38.983,0.71281,-0.2376,-1.9913,0.95042,3.0991e-12,-0.99566,0,0,0.14286,-6.7671e-16,0,0.66667
0.68165,0.037122,4.7715,-0.69432,-24.227,45.611,8.8345,-2.9448,-0.28497,11.779,-2.0428e-13,-0.14248,0,0,0.14286,1.3534e-15,0,0.66667
0.69715,0.34295,4.88,-0.23557,-7.7867,40.835,3.0656,-1.0219,-1.8025,4.0874,7.6286e-12,-0.90127,0,0,0.14286,-1.8187e-15,0,0.66667
0.6186,0.92771,4.3302,0.64156,25.775,62.643,-7.4083,2.4694,-0.53499,-9.8777,-6.3061e-14,-0.26749,0,0,0.14286,-6.7671e-16,0,0.66667
0.15098,0.015788,1.0569,-0.72632,-46.345,245.03,2.047,-0.68233,-0.12283,2.7293,-1.2383e-10,-0.061417,0,0,0.14286,-0,-0,0.66667
0.7608,0.8971,5.3256,0.59565,16.262,27.292,-8.4592,2.8197,-0.73746,-11.279,-2.303e-12,-0.36873,0,0,0.14286,-6.7671e-16,0,0.66667
0.78105,0.38766,5.4673,-0.16851,-4.1999,22.565,2.4568,-0.81892,-1.901,3.2757,-1.1493e-10,-0.95049,0,0,0.14286,1.3534e-15,0,0.66667
0.9041,0.31027,6.3287,-0.2846,-3.253,5.2501,4.803,-1.601,-1.7135,6.404,-1.1886e-08,-0.85674,0,0,0.14286,-4.0904e-16,0,0.66667
0.23377,0.61386,1.6364,0.17079,10.454,207.55,-0.74527,0.24842,-1.8979,-0.99369,-5.3052e-11,-0.94896,0,0,0.14286,-3.3835e-16,0,0.66667
0.17668,0.77235,1.2368,0.40853,25.69,233.18,-1.3473,0.44911,-1.4056,-1.7964,-8.5098e-10,-0.70281,0,0,0.14286,-1.6918e-16,0,0.66667
0.3911,0.11183,2.7377,-0.58226,-32.087,141.6,4.2508,-1.4169,-0.79623,5.6677,2.7121e-12,-0.39812,0,0,0.14286,-0,-0,0.66667
0.32056,0.8923,2.244,0.58845,34.363,170.39,-3.5212,1.1737,-0.76691,-4.695,3.7559e-12,-0.38346,0,0,0.14286,6.7671e-16,0,0.66667
0.81548,0.81432,5.7083,0.47148,10.153,17.008,-7.177,2.3923,-1.2106,-9.5694,8.7985e-10,-0.60529,0,0,0.14286,-0,-0,0.66667
0.61353,0.76502,4.2947,0.39753,16.029,63.643,-4.5527,1.5176,-1.4371,-6.0703,-1.1822e-12,-0.71855,0,0,0.14286,1.3534e-15,0,0.66667
0.76,0.24454,5.32,-0.38319,-10.41,26.962,5.4363,-1.8121,-1.477,7.2483,-2.6637e-11,-0.73852,0,0,0.14286,-0,-0,0.66667
0.42767,0.26015,2.9937,-0.35978,-19.045,127.08,2.8721,-0.95737,-1.5384,3.8295,2.5313e-13,-0.76918,0,0,0.14286,-0,-0,0.66667
0.099441,0.071717,0.69608,-0.64242,-41.457,268.62,1.1925,-0.39749,-0.53127,1.59,-8.0367e-08,-0.26564,0,0,0.14286,-0,-0,0.66667
0.11504,0.106,0.80525,-0.59099,-37.97,261.41,1.2691,-0.42302,-0.75662,1.6921,-1.4004e-08,-0.37831,0,0,0.14286,-0,-0,0.66667
0.37341,0.33423,2.6138,-0.24865,-13.851,148.34,1.7332,-0.57772,-1.7811,2.3109,1.0349e-12,-0.89053,0,0,0.14286,-0,-0,0.66667
0.19385,0.43896,1.3569,-0.091567,-5.7049,225.35,0.33133,-0.11044,-1.9698,0.44178,3.3451e-10,-0.98492,0,0,0.14286,-0,-0,0.66667
0.82075,0.95153,5.7452,0.67729,14.369,16.766,-10.376,3.4588,-0.36712,-13.835,1.1239e-09,-0.18356,0,0,0.14286,-0,-0,0.66667
0.59964,0.34772,4.1975,-0.22842,-9.4367,67.591,2.5568,-0.85226,-1.8138,3.409,-1.6431e-14,-0.90689,0,0,0.14286,-0,-0,0.66667
0.68885,0.57627,4.8219,0.1144,3.8625,42.799,-1.471,0.49034,-1.9543,-1.9614,-3.4486e-12,-0.97716,0,0,0.14286,-0,-0,0.66667
0.49111,0.068886,3.4378,-0.64667,-31.962,104.03,5.9283,-1.9761,-0.5119,7.9044,1.2137e-12,-0.25595,0,0,0.14286,-0,-0,0.66667
0.088174,0.35836,0.61722,-0.21246,-13.659,273.72,0.34968,-0.11656,-1.8379,0.46624,3.4595e-09,-0.91897,0,0,0.14286,1.6918e-16,0,0.66667
0.23508,0.11986,1.6455,-0.57021,-35.055,207.18,2.5021,-0.83405,-0.84612,3.3362,-4.3986e-11,-0.42306,0,0,0.14286,5.0753e-16,0,0.66667
0.4616,0.87241,3.2312,0.55861,28.574,114.56,-4.8133,1.6044,-0.88983,-6.4177,-4.8272e-13,-0.44491,0,0,0.14286,3.3835e-16,0,0.66667
0.19859,0.47505,1.3901,-0.037432,-2.3273,223.21,0.13876,-0.046253,-1.9944,0.18501,5.2072e-13,-0.99722,0,0,0.14286,-0,-0,0.66667
0.025476,0.73998,0.17833,0.35997,23.341,302.91,-0.17118,0.057061,-1.5379,-0.22825,1.7875e-07,-0.76894,0,0,0.14286,-0,-0,0.66667
0.7294,0.12544,5.1058,-0.56185,-17.034,33.868,7.6498,-2.5499,-0.87785,10.2,4.3925e-12,-0.43893,0,0,0.14286,2.7068e-15,0,0.66667
0.72492,0.70086,5.0744,0.30128,9.1925,34.366,-4.0769,1.359,-1.6756,-5.4359,-8.8298e-12,-0.83778,0,0,0.14286,1.3534e-15,0,0.66667
0.33039,0.98305,2.3127,0.72458,42.143,166.47,-4.4687,1.4896,-0.13341,-5.9583,1.4433e-12,-0.066704,0,0,0.14286,-0,-0,0.66667
0.84349,0.23808,5.9045,-0.39288,-7.2394,12.575,6.186,-2.062,-1.4531,8.248,-2.3177e-09,-0.72656,0,0,0.14286,-0,-0,0.66667
0.42844,0.54071,2.9991,0.061058,3.2215,126.61,-0.48832,0.16277,-1.9852,-0.65109,4.8156e-13,-0.99261,0,0,0.14286,-0,-0,0.66667
0.86469,0.079441,6.0528,-0.63084,-10.292,10.408,10.182,-3.3941,-0.58356,13.576,6.4771e-09,-0.29178,0,0,0.14286,-2.3774e-15,0,0.66667
0.65707,0.87765,4.5995,0.56648,20.889,51.693,-6.948,2.316,-0.86151,-9.264,-1.1569e-12,-0.43076,0,0,0.14286,-0,-0,0.66667
0.58104,0.022094,4.0672,-0.71686,-30.987,74.149,7.7751,-2.5917,-0.17281,10.367,-2.8555e-13,-0.086405,0,0,0.14286,-0,-0,0.66667
0.20073,0.024963,1.4051,-0.71255,-44.637,222.57,2.6699,-0.88996,-0.19535,3.5598,-3.7597e-10,-0.097675,0,0,0.14286,-0,1.0875e-16,0.66667
0.52955,0.26288,3.7068,-0.35567,-16.56,90.221,3.5158,-1.1719,-1.5508,4.6877,-1.6809e-13,-0.7754,0,0,0.14286,-0,-0,0.66667
0.89443,0.022617,6.261,-0.71607,-9.3193,7.3911,11.956,-3.9852,-0.17633,15.941,-1.8281e-07,-0.088166,0,0,0.14286,-1.3534e-15,0,0.66667
0.30499,0.11459,2.135,-0.57811,-34.12,176.94,3.2913,-1.0971,-0.80997,4.3884,-1.8134e-12,-0.40499,0,0,0.14286,-0,-0,0.66667
0.87095,0.42729,6.0966,-0.10906,-1.6581,8.6013,1.7731,-0.59102,-1.9569,2.3641,-3.4741e-09,-0.97847,0,0,0.14286,-6.7671e-16,0,0.66667
0.90875,0.95096,6.3612,0.67643,7.6241,5.8911,-11.475,3.8248,-0.37309,-15.299,-7.6173e-08,-0.18654,0,0,0.14286,-0,-0,0.66667
0.32984,0.76248,2.3089,0.39373,22.758,166.32,-2.4242,0.80807,-1.4494,-3.2323,4.142e-12,-0.72471,0,0,0.14286,-0,-0,0.66667
0.68307,0.48428,4.7815,-0.023585,-0.8082,44.227,0.30073,-0.10024,-1.9969,0.40098,1.8553e-12,-0.99844,0,0,0.14286,-1.3534e-15,0,0.66667
0.89922,0.37635,6.2945,-0.18548,-2.2178,5.5845,3.1133,-1.0378,-1.8773,4.1511,-1.0765e-08,-0.93863,0,0,0.14286,2.7068e-15,0,0.66667
0.075697,0.28745,0.52988,-0.31883,-20.558,279.53,0.45051,-0.15017,-1.6392,0.60067,1.4002e-08,-0.8196,0,0,0.14286,-0,-0,0.66667
0.87859,0.41294,6.1501,-0.13059,-1.8721,7.7192,2.1417,-0.71389,-1.9392,2.8556,-6.9277e-09,-0.9696,0,0,0.14286,-0,-0,0.66667
0.19084,0.084586,1.3359,-0.62312,-39.115,226.93,2.2198,-0.73992,-0.61915,2.9597,-9.4519e-11,-0.30958,0,0,0.14286,-0,-0,0.66667
0.84977,0.55921,5.9484,0.088809,1.5613,11.315,-1.4087,0.46957,-1.9713,-1.8783,-3.8194e-10,-0.98567,0,0,0.14286,-1.4402e-15,0,0.66667
0.66712,0.96114,4.6698,0.69171,25.019,49.348,-8.6138,2.8713,-0.29794,-11.485,1.5987e-14,-0.14897,0,0,0.14286,-0,-9.6838e-17,0.66667
0.34434,0.78821,2.4104,0.43231,24.727,160.34,-2.7787,0.92624,-1.3375,-3.705,2.7767e-12,-0.66877,0,0,0.14286,-6.7671e-16,0,0.66667
0.15138,0.33955,1.0596,-0.24068,-15.238,244.63,0.68007,-0.22669,-1.7936,0.90676,3.0757e-09,-0.89681,0,0,0.14286,-7.9544e-17,0,0.66667
0.63537,0.43423,4.4476,-0.098659,-3.787,57.049,1.1701,-0.39004,-1.965,1.5602,1.571e-13,-0.98249,0,0,0.14286,1.6918e-16,0,0.66667
0.84779,0.51011,5.9345,0.01517,0.26991,11.568,-0.24007,0.080025,-1.9984,-0.3201,-1.8211e-09,-0.99921,0,0,0.14286,-0,-0,0.66667
0.82185,0.74238,5.7529,0.36357,7.5472,15.757,-5.5776,1.8592,-1.5287,-7.4368,1.0177e-09,-0.76436,0,0,0.14286,-6.7671e-16,0,0.66667
0.62824,0.097251,4.3977,-0.60412,-23.768,59.773,7.0846,-2.3615,-0.70284,9.4462,-6.3949e-14,-0.35142,0,0,0.14286,-0,-0,0.66667
0.9563,0.45302,6.6941,-0.070471,-0.35284,1.3087,1.258,-0.41932,-1.9818,1.6773,2.498e-07,-0.99092,0,0,0.14286,-0,-0,0.66667
0.58992,0.12933,4.1295,-0.55601,-23.538,71.028,6.1227,-2.0409,-0.90085,8.1636,8.4821e-14,-0.45042,0,0,0.14286,-0,-0,0.66667
0.19783,0.60633,1.3848,0.15949,9.9235,223.56,-0.58898,0.19633,-1.9081,-0.78531,-2.7922e-10,-0.95407,0,0,0.14286,3.3835e-16,0,0.66667
0.42933,0.40048,3.0053,-0.14928,-7.8718,126.29,1.1964,-0.3988,-1.9196,1.5952,-7.2864e-13,-0.95978,0,0,0.14286,3.3835e-16,0,0.66667
0.33675,0.38567,2.3572,-0.17149,-9.839,163.31,1.078,-0.35933,-1.8937,1.4373,-3.6093e-13,-0.94687,0,0,0.14286,-0,-0,0.66667
0.99195,0.13328,6.9436,-0.55008,-0.42837,1.0433,10.185,-3.3952,-0.92261,13.581,-7.7538e-07,-0.4613,0,0,0.14286,-0,-0,0.66667
0.38024,0.51084,2.6617,0.016259,0.89917,145.52,-0.1154,0.038467,-1.9978,-0.15387,3.5642e-12,-0.99888,0,0,0.14286,-1.3534e-15,0,0.66667
0.9927,0.34129,6.9489,-0.23806,-0.10134,0.27172,4.4114,-1.4705,-1.7978,5.8819,-9.2394e-08,-0.89891,0,0,0.14286,1.6473e-15,0,0.66667
0.5188,0.32209,3.6316,-0.26686,-12.606,93.796,2.5844,-0.86146,-1.7465,3.4458,3.3928e-13,-0.87327,0,0,0.14286,-0,-0,0.66667
0.17228,0.28716,1.206,-0.31926,-20.087,235.14,1.0267,-0.34224,-1.6399,1.3689,1.3237e-09,-0.81997,0,0,0.14286,-0,-0,0.66667
0.074574,0.84822,0.52202,0.52233,33.779,280.09,-0.72711,0.24237,-1.0301,-0.96948,-9.2396e-08,-0.51505,0,0,0.14286,1.6918e-16,0,0.66667
0.37031,0.054253,2.5921,-0.66862,-37.613,150.04,4.6218,-1.5406,-0.4096,6.1623,2.9128e-12,-0.2048,0,0,0.14286,-3.3835e-16,1.1782e-17,0.66667
0.12342,0.93093,0.86393,0.6464,41.491,257.59,-1.4892,0.4964,-0.51558,-1.9856,-6.5103e-08,-0.25779,0,0,0.14286,-0,-0,0.66667
0.63452,0.92656,4.4416,0.63985,24.871,58.079,-7.5786,2.5262,-0.54279,-10.105,-1.612e-13,-0.27139,0,0,0.14286,6.7671e-16,0,0.66667
0.41392,0.58092,2.8974,0.12138,6.5023,132.23,-0.93781,0.3126,-1.9458,-1.2504,2.8222e-13,-0.97289,0,0,0.14286,-0,-0,0.66667
0.99092,0.82789,6.9364,0.49184,0.41764,0.87345,-9.0975,3.0325,-1.1381,-12.13,4.6644e-07,-0.56905,0,0,0.14286,-1.3534e-15,0,0.66667
0.92996,0.67625,6.5097,0.26437,2.1999,3.0882,-4.5893,1.5298,-1.7497,-6.1191,-1.2781e-09,-0.87487,0,0,0.14286,-0,-0,0.66667
0.14924,0.067946,1.0447,-0.64808,-41.303,245.78,1.8054,-0.60179,-0.5055,2.4072,1.1981e-08,-0.25275,0,0,0.14286,-0,-0,0.66667
0.39488,0.58693,2.7642,0.13039,7.1168,139.7,-0.96113,0.32038,-1.939,-1.2815,-9.0511e-13,-0.96951,0,0,0.14286,-3.3835e-16,0,0.66667
0.46158,0.1635,3.2311,-0.50475,-25.79,114.49,4.349,-1.4497,-1.0928,5.7987,1.0254e-12,-0.54638,0,0,0.14286,-0,-0,0.66667
0.56095,0.38273,3.9266,-0.17591,-7.7795,79.664,1.842,-0.61399,-1.8911,2.456,3.9169e-13,-0.94554,0,0,0.14286,-0,-0,0.66667
0.78036,0.11102,5.4625,-0.58348,-14.772,23.451,8.4994,-2.8331,-0.79078,11.333,-6.8339e-11,-0.39539,0,0,0.14286,-1.3534e-15,0,0.66667
0.48719,0.051525,3.4104,-0.67271,-33.442,105.48,6.1178,-2.0393,-0.39084,8.1571,8.8551e-13,-0.19542,0,0,0.14286,-0,-0,0.66667
0.41999,0.21967,2.94,-0.42049,-22.458,130.09,3.2966,-1.0989,-1.3732,4.3954,2.3619e-12,-0.68662,0,0,0.14286,-1.3534e-15,0,0.66667
0.262,0.083535,1.834,-0.6247,-37.9,195.45,3.0552,-1.0184,-0.61191,4.0736,7.5868e-12,-0.30595,0,0,0.14286,-0,-0,0.66667
0.91081,0.91739,6.3756,0.62609,6.8607,5.5254,-10.645,3.5482,-0.60519,-14.193,6.4253e-08,-0.30259,0,0,0.14286,-0,-0,0.66667
0.022272,0.87417,0.1559,0.56126,36.506,304.42,-0.23333,0.077779,-0.87969,-0.31111,1.2931e-06,-0.43985,0,0,0.14286,6.509e-17,0,0.66667
0.82112,0.83692,5.7479,0.50538,10.595,16.187,-7.7463,2.5821,-1.0906,-10.328,6.353e-11,-0.54528,0,0,0.14286,-1.3534e-15,0,0.66667
0.18847,0.50194,1.3193,0.0029144,0.18194,227.76,-0.010253,0.0034176,-2.0024,-0.013671,2.4372e-10,-1.0012,0,0,0.14286,-1.3534e-15,0,0.66667
0.68576,0.925,4.8003,0.63749,21.96,44.414,-8.1604,2.7201,-0.5556,-10.881,-1.6716e-12,-0.2778,0,0,0.14286,-0,1.6243e-16,0.66667
0.35521,0.42421,2.4865,-0.11368,-6.4251,155.68,0.75376,-0.25125,-1.9531,1.005,1.8425e-12,-0.97653,0,0,0.14286,-0,-0,0.66667
0.97421,0.21512,6.8195,-0.42733,-1.253,1.1107,7.7711,-2.5904,-1.3502,10.361,3.7816e-07,-0.6751,0,0,0.14286,1.6918e-15,0,0.66667
0.12277,0.34332,0.8594,-0.23502,-15,257.74,0.53861,-0.17954,-1.8054,0.71814,7.6833e-09,-0.90268,0,0,0.14286,-2.2204e-16,0,0.66667
0.18757,0.44768,1.313,-0.078484,-4.902,228.17,0.2748,-0.091599,-1.9803,0.3664,1.7634e-10,-0.99016,0,0,0.14286,-3.3835e-16,0,0.66667
0.88944,0.40668,6.2261,-0.13999,-1.8317,6.5346,2.3242,-0.77473,-1.9329,3.0989,4.0786e-10,-0.96646,0,0,0.14286,-0,-0,0.66667
0.58341,0.68299,4.0838,0.27449,11.691,72.616,-2.9892,0.9964,-1.7315,-3.9856,1.4944e-13,-0.86575,0,0,0.14286,-6.7671e-16,0,0.66667
0.30925,0.49185,2.1647,-0.012222,-0.71503,174.82,0.070555,-0.023518,-1.9993,0.094073,1.6213e-12,-0.99966,0,0,0.14286,-6.7671e-16,0,0.66667
0.00076439,0.73394,0.0053507,0.3509,22.766,314.45,-0.0050068,0.0016687,-1.5635,-0.0066758,-2.9629e-07,-0.78177,0,0,0.14286,-1.3217e-18,0,0.66667
0.2276,0.98982,1.5932,0.73473,45.498,210.64,-3.1215,1.0405,-0.078995,-4.162,5.7908e-11,-0.039497,0,0,0.14286,-4.0718e-16,0,0.66667
0.1454,0.13307,1.0178,-0.5504,-35.051,247.47,1.4939,-0.49797,-0.92198,1.9919,3.7602e-09,-0.46099,0,0,0.14286,-0,-0,0.66667
0.20343,0.76535,1.424,0.39803,24.762,221.13,-1.5115,0.50383,-1.4385,-2.0153,-2.7481e-10,-0.71924,0,0,0.14286,3.3835e-16,0,0.66667
0.89632,0.42788,6.2743,-0.10818,-1.3278,5.8067,1.81,-0.60334,-1.957,2.4134,-1.5821e-08,-0.97852,0,0,0.14286,1.3534e-15,0,0.66667
0.87309,0.6111,6.1117,0.16664,2.4956,8.3877,-2.7159,0.90531,-1.9017,-3.6212,3.8336e-09,-0.95083,0,0,0.14286,-1.3534e-15,0,0.66667
0.70029,0.25598,4.902,-0.36603,-12.024,40.241,4.7848,-1.5949,-1.524,6.3797,7.9354e-12,-0.762,0,0,0.14286,1.3534e-15,0,0.66667
0.4705,0.89405,3.2935,0.59107,29.937,111.35,-5.1911,1.7304,-0.75841,-6.9215,-1.1027e-12,-0.37921,0,0,0.14286,6.7671e-16,0,0.66667
0.82714,0.52335,5.79,0.035019,0.70224,14.596,-0.54068,0.18023,-1.9972,-0.72091,1.663e-11,-0.9986,0,0,0.14286,1.3534e-15,0,0.66667
0.49583,0.3491,3.4708,-0.22635,-11.033,101.79,2.095,-0.69833,-1.8175,2.7933,1.3174e-12,-0.90877,0,0,0.14286,-1.3534e-15,0,0.66667
0.36349,0.45188,2.5444,-0.072185,-4.0513,152.29,0.48979,-0.16326,-1.9805,0.65305,1.9774e-12,-0.99024,0,0,0.14286,6.7671e-16,0,0.66667
0.2756,0.65639,1.9292,0.23459,14.039,189.27,-1.2069,0.40229,-1.8044,-1.6092,6.9019e-12,-0.90221,0,0,0.14286,-0,-0,0.66667
0.92474,0.62771,6.4732,0.19157,1.7085,3.3772,-3.3069,1.1023,-1.8704,-4.4091,1.4493e-08,-0.93519,0,0,0.14286,-2.7068e-15,0,0.66667
0.38699,0.99597,2.7089,0.74395,41.319,143.49,-5.3741,1.7914,-0.032329,-7.1655,1.0272e-12,-0.016164,0,0,0.14286,-1.6918e-16,0,0.66667
0.49288,0.73206,3.4502,0.34809,17.058,102.95,-3.2025,1.0675,-1.5674,-4.2701,-1.1833e-12,-0.78368,0,0,0.14286,-0,-0,0.66667
0.25444,0.01507,1.7811,-0.72739,-44.421,198.85,3.4548,-1.1516,-0.11759,4.6064,1.4058e-12,-0.058797,0,0,0.14286,-0,-0,0.66667
0.88497,0.41636,6.1948,-0.12545,-1.7061,7.0038,2.0724,-0.69081,-1.9427,2.7632,-3.4253e-09,-0.97133,0,0,0.14286,-0,-0,0.66667
0.38326,0.68616,2.6828,0.27924,15.423,144.4,-1.9977,0.66592,-1.7223,-2.6637,2.8475e-12,-0.86115,0,0,0.14286,-9.3047e-16,0,0.66667
0.29757,0.93383,2.083,0.65074,38.656,180.17,-3.6147,1.2049,-0.49676,-4.8196,2.585e-12,-0.24838,0,0,0.14286,8.4588e-17,0,0.66667
0.71759,0.13389,5.0232,-0.54916,-17.254,36.514,7.356,-2.452,-0.92905,9.8081,5.6355e-12,-0.46452,0,0,0.14286,-0,-0,0.66667
0.19087,0.84168,1.3361,0.51252,32.106,226.84,-1.8261,0.60869,-1.0667,-2.4348,-2.9933e-10,-0.53335,0,0,0.14286,1.6918e-16,0,0.66667
0.11819,0.2356,0.82735,-0.3966,-25.383,259.89,0.87501,-0.29167,-1.4389,1.1667,8.5266e-09,-0.71946,0,0,0.14286,-1.6918e-16,0,0.66667
0.837,0.78453,5.859,0.4268,8.1811,13.582,-6.6682,2.2227,-1.3516,-8.891,1.7729e-09,-0.67579,0,0,0.14286,-0,-0,0.66667
0.74414,0.8335,5.209,0.50025,14.423,30.503,-6.9488,2.3163,-1.1088,-9.265,1.7368e-12,-0.55439,0,0,0.14286,-0,-0,0.66667
0.59052,0.41611,4.1336,-0.12584,-5.2832,70.306,1.3871,-0.46237,-1.9434,1.8495,3.4772e-13,-0.9717,0,0,0.14286,-0,-0,0.66667
0.24289,0.32033,1.7002,-0.2695,-16.432,203.55,1.2219,-0.40731,-1.7403,1.6292,3.1364e-11,-0.87016,0,0,0.14286,-0,-0,0.66667
0.62325,0.69466,4.3627,0.292,11.522,60.664,-3.3971,1.1324,-1.6978,-4.5294,-9.1149e-13,-0.84892,0,0,0.14286,-0,-0,0.66667
0.63836,0.35986,4.4685,-0.21021,-8.0244,56.277,2.5049,-0.83496,-1.843,3.3399,1.5083e-12,-0.9215,0,0,0.14286,-0,-0,0.66667
0.32757,0.96694,2.293,0.70041,40.798,167.61,-4.2828,1.4276,-0.2586,-5.7104,2.5251e-12,-0.1293,0,0,0.14286,9.3047e-16,0,0.66667
0.067489,0.1757,0.47243,-0.48644,-31.472,283.37,0.61282,-0.20427,-1.1574,0.8171,7.867e-08,-0.57869,0,0,0.14286,-1.6451e-16,0,0.66667
0.88054,0.92236,6.1638,0.63354,9.1927,8.5509,-10.413,3.4711,-0.57135,-13.884,3.7457e-08,-0.28568,0,0,0.14286,-1.3534e-15,0,0.66667
0.45996,0.381,3.2197,-0.17851,-9.0969,114.77,1.5326,-0.51088,-1.8855,2.0435,-1.6298e-13,-0.94276,0,0,0.14286,-0,-0,0.66667
0.76387,0.53964,5.3471,0.059463,1.5836,25.842,-0.84788,0.28263,-1.9883,-1.1305,1.5674e-11,-0.99415,0,0,0.14286,-0,-0,0.66667
0.25389,0.063164,1.7772,-0.65525,-39.96,199.01,3.1054,-1.0351,-0.47407,4.1406,2.2242e-12,-0.23703,0,0,0.14286,-6.7671e-16,0,0.66667
0.59139,0.72641,4.1397,0.33962,14.271,70.222,-3.7492,1.2497,-1.5904,-4.9989,2.8977e-13,-0.79519,0,0,0.14286,-0,-0,0.66667
0.4288,0.99946,3.0016,0.74918,39.946,127.22,-5.9966,1.9989,-0.0041014,-7.9955,1.9673e-12,-0.0020507,0,0,0.14286,-8.4588e-16,0,0.66667
0.3821,0.59825,2.6747,0.14738,8.1401,144.8,-1.0512,0.35039,-1.9218,-1.4016,1.3805e-12,-0.96089,0,0,0.14286,-0,-0,0.66667
0.12671,0.80338,0.88699,0.45507,29.086,255.99,-1.0764,0.35879,-1.2645,-1.4352,-6.4548e-09,-0.63226,0,0,0.14286,-0,-0,0.66667
0.24427,0.52402,1.7099,0.036033,2.1927,202.89,-0.1643,0.054766,-1.9943,-0.21906,-4.1298e-12,-0.99713,0,0,0.14286,-3.3835e-16,0,0.66667
0.079342,0.41414,0.55539,-0.1288,-8.2888,277.81,0.19075,-0.063584,-1.9424,0.25434,-1.2163e-08,-0.97119,0,0,0.14286,-0,-0,0.66667
0.30286,0.37385,2.12,-0.18922,-11.125,177.56,1.0697,-0.35657,-1.8725,1.4263,-4.6345e-12,-0.93624,0,0,0.14286,-1.6918e-16,0,0.66667
0.7417,0.10543,5.1919,-0.59185,-17.265,31.254,8.1943,-2.7314,-0.75274,10.926,6.2998e-12,-0.37637,0,0,0.14286,-0,-0,0.66667
0.61502,0.43358,4.3051,-0.09963,-3.99,62.921,1.1438,-0.38126,-1.9641,1.525,7.9736e-13,-0.98204,0,0,0.14286,-6.7671e-16,0,0.66667
0.67241,0.95375,4.7069,0.68062,24.292,47.937,-8.543,2.8477,-0.35446,-11.391,2.3181e-13,-0.17723,0,0,0.14286,-1.3534e-15,0,0.66667
0.0083831,0.50704,0.058682,0.010559,0.68364,310.89,-0.0016522,0.00054882,-1.9982,-0.0022038,-2.8491e-06,-0.99912,0,0,0.14286,-0,-0,0.66667
0.67838,0.84177,4.7486,0.51266,17.921,45.98,-6.4918,2.1639,-1.065,-8.6558,-3.173e-12,-0.53252,0,0,0.14286,-3.3835e-16,0,0.66667
0.50318,0.15561,3.5223,-0.51659,-25.047,99.534,4.8522,-1.6174,-1.0522,6.4696,-1.2124e-13,-0.52611,0,0,0.14286,1.6918e-16,0,0.66667
0.23091,0.63245,1.6164,0.19867,12.18,208.82,-0.85633,0.28544,-1.8595,-1.1418,-7.3767e-11,-0.92973,0,0,0.14286,-0,-0,0.66667
0.1749,0.64107,1.2243,0.21161,13.289,233.92,-0.69086,0.23029,-1.8404,-0.92114,-1.0166e-09,-0.92019,0,0,0.14286,-3.3835e-16,0,0.66667
0.18498,0.40717,1.2949,-0.13925,-8.7079,229.35,0.48083,-0.16028,-1.9325,0.64111,8.0809e-10,-0.96625,0,0,0.14286,-0,-0,0.66667
0.84426,0.26408,5.9098,-0.35388,-6.4803,12.39,5.577,-1.859,-1.5563,7.436,-2.5084e-09,-0.77816,0,0,0.14286,-0,-0,0.66667
0.98259,0.46884,6.8781,-0.046741,-0.078247,0.31717,0.85731,-0.28577,-1.9944,1.1431,1.8539e-06,-0.9972,0,0,0.14286,-0,-0,0.66667
0.91374,0.66289,6.3962,0.24434,2.5078,4.3302,-4.1675,1.3892,-1.7864,-5.5567,1.1398e-08,-0.8932,0,0,0.14286,-0,-0,0.66667
0.34737,0.86339,2.4316,0.54509,31.165,159.21,-3.5345,1.1782,-0.94292,-4.7127,2.7529e-12,-0.47146,0,0,0.14286,-3.3835e-16,0,0.66667
0.78022,0.19649,5.4616,-0.45526,-11.469,23.154,6.6305,-2.2102,-1.2645,8.8406,-9.7983e-11,-0.63225,0,0,0.14286,-0,-0,0.66667
0.54645,0.37227,3.8252,-0.1916,-8.6753,84.413,1.9544,-0.65146,-1.8723,2.6059,-1.7031e-13,-0.93616,0,0,0.14286,-0,-0,0.66667
0.81644,0.069679,5.7151,-0.64548,-13.963,17.345,9.8373,-3.2791,-0.51817,13.116,-9.373e-10,-0.25909,0,0,0.14286,-2.7068e-15,0,0.66667
0.48373,0.58321,3.3861,0.12482,6.1759,106.06,-1.1271,0.37569,-1.9462,-1.5027,4.7007e-13,-0.97312,0,0,0.14286,-0,-0,0.66667
0.58995,0.62996,4.1297,0.19494,8.1974,70.522,-2.1468,0.71559,-1.8648,-2.8624,-8.6597e-13,-0.93242,0,0,0.14286,1.3534e-15,0,0.66667
0.78726,0.50972,5.5108,0.014579,0.35365,21.34,-0.21425,0.071415,-1.9978,-0.28566,-3.0759e-11,-0.9989,0,0,0.14286,-0,-0,0.66667
0.10023,0.81408,0.70164,0.47111,30.304,268.19,-0.88148,0.29383,-1.2104,-1.1753,-1.4646e-08,-0.60522,0,0,0.14286,-0,-0,0.66667
0.53701,0.45522,3.759,-0.067177,-3.0844,87.504,0.67339,-0.22446,-1.9824,0.89785,7.4502e-13,-0.99118,0,0,0.14286,-6.3594e-16,0,0.66667
0.36598,0.14457,2.5619,-0.53315,-30.013,151.6,3.6423,-1.2141,-0.98765,4.8564,9.619e-13,-0.49382,0,0,0.14286,-0,-0,0.66667
0.60431,0.53407,4.2301,0.051103,2.0898,66.09,-0.57646,0.19215,-1.9905,-0.76861,9.3259e-14,-0.99523,0,0,0.14286,-1.3534e-15,0,0.66667
0.9588,0.20666,6.7116,-0.44,-2.1515,1.7516,7.875,-2.625,-1.3101,10.5,4.3479e-08,-0.65506,0,0,0.14286,-1.3534e-15,0,0.66667
0.39282,0.35104,2.7498,-0.22344,-12.227,140.56,1.6384,-0.54614,-1.8231,2.1845,1.0415e-12,-0.91157,0,0,0.14286,-0,-0,0.66667
0.39297,0.49951,2.7508,-0.00074152,-0.040531,140.44,0.0054394,-0.0018131,-2.0017,0.0072526,2.0155e-12,-1.0008,0,0,0.14286,-1.1208e-15,0,0.66667
0.79064,0.72275,5.5345,0.33412,8.0273,20.998,-4.9311,1.6437,-1.6023,-6.5748,2.3252e-10,-0.80114,0,0,0.14286,-0,-0,0.66667
0.64508,0.77431,4.5155,0.41147,15.528,54.654,-4.9547,1.6516,-1.3974,-6.6063,-1.6005e-12,-0.69869,0,0,0.14286,-0,-0,0.66667
0.39388,0.72085,2.7572,0.33127,18.13,140.21,-2.4357,0.81189,-1.6105,-3.2476,7.5828e-13,-0.80527,0,0,0.14286,1.3534e-15,0,0.66667
0.68896,0.11224,4.8227,-0.58164,-19.828,43.469,7.4802,-2.4934,-0.79792,9.9737,2.4492e-12,-0.39896,0,0,0.14286,6.7671e-16,0,0.66667
0.404,0.86863,2.828,0.55295,30.082,136.47,-4.17,1.39,-0.91362,-5.5599,-6.2439e-13,-0.45681,0,0,0.14286,-3.3835e-16,0,0.66667
0.13611,0.82788,0.95279,0.49181,31.373,251.69,-1.2496,0.41653,-1.1388,-1.6661,-5.3989e-09,-0.5694,0,0,0.14286,-1.6918e-16,0,0.66667
0.45064,0.73024,3.1545,0.34536,17.822,118.36,-2.9051,0.96838,-1.576,-3.8735,-4.6563e-13,-0.788,0,0,0.14286,-0,-0,0.66667
0.33442,0.15612,2.3409,-0.51582,-29.773,164.53,3.22,-1.0733,-1.0539,4.2934,-5.4756e-13,-0.52694,0,0,0.14286,-9.0404e-16,0,0.66667
0.21797,0.098926,1.5258,-0.60161,-37.313,214.78,2.4478,-0.81594,-0.71521,3.2637,-1.3056e-10,-0.35761,0,0,0.14286,6.7671e-16,-9.3517e-17,0.66667
0.92577,0.86853,6.4804,0.55279,5.0151,4.0734,-9.5528,3.1843,-0.91319,-12.737,-1.4436e-08,-0.4566,0,0,0.14286,-6.7671e-16,0,0.66667
0.68964,0.32787,4.8275,-0.25819,-8.713,42.715,3.3238,-1.1079,-1.7632,4.4317,6.5448e-12,-0.88159,0,0,0.14286,-0,-0,0.66667
0.59882,0.26376,4.1917,-0.35436,-14.689,67.975,3.9611,-1.3204,-1.5521,5.2814,-8.6597e-15,-0.77607,0,0,0.14286,-0,-0,0.66667
0.74666,0.4945,5.2266,-0.0082528,-0.23377,29.386,0.11502,-0.038341,-1.9999,0.15337,-2.023e-13,-0.99994,0,0,0.14286,2.0301e-15,0,0.66667
0.54197,0.058228,3.7938,-0.66266,-30.492,86.578,6.704,-2.2347,-0.43825,8.9386,4.3432e-13,-0.21913,0,0,0.14286,-1.7442e-17,0,0.66667
0.70053,0.023018,4.9037,-0.71547,-23.767,41.005,9.356,-3.1187,-0.18017,12.475,3.8369e-13,-0.090086,0,0,0.14286,-0,-1.313e-16,0.66667
0.93056,0.8719,6.5139,0.55786,4.7406,3.7438,-9.6902,3.2301,-0.89274,-12.92,3.3305e-09,-0.44637,0,0,0.14286,9.5221e-16,0,0.66667
0.86262,0.84342,6.0383,0.51514,8.4535,10.311,-8.2948,2.7649,-1.0576,-11.06,9.164e-09,-0.52879,0,0,0.14286,4.6524e-16,0,0.66667
0.16744,0.97023,1.1721,0.70534,44.743,237.54,-2.2046,0.73487,-0.23132,-2.9395,1.3556e-09,-0.11566,0,0,0.14286,-0,-0,0.66667
0.26314,0.15943,1.842,-0.51085,-30.905,194.84,2.5093,-0.83642,-1.0731,3.3457,1.1291e-11,-0.53657,0,0,0.14286,-0,-0,0.66667
0.07161,0.39395,0.50127,-0.15908,-10.251,281.41,0.21264,-0.070881,-1.9083,0.28352,-2.5905e-08,-0.95416,0,0,0.14286,-0,-0,0.66667
0.97867,0.66819,6.8507,0.25229,0.56505,0.61185,-4.609,1.5363,-1.7722,-6.1454,-1.6162e-08,-0.88609,0,0,0.14286,-0,-0,0.66667
0.23638,0.23406,1.6547,-0.39891,-24.439,206.49,1.7602,-0.58673,-1.4345,2.3469,3.5329e-11,-0.71726,0,0,0.14286,-0,-0,0.66667
0.6606,0.52562,4.6242,0.038434,1.3929,50.09,-0.47394,0.15798,-1.9943,-0.63192,-4.7407e-14,-0.99717,0,0,0.14286,-6.7671e-16,0,0.66667
0.089631,0.50405,0.62741,0.00607,0.38984,273.04,-0.010156,0.0033854,-1.9998,-0.013541,1.485e-07,-0.9999,0,0,0.14286,-0,-0,0.66667
0.21077,0.30052,1.4754,-0.29922,-18.534,217.81,1.1773,-0.39242,-1.6799,1.5697,2.1639e-10,-0.83993,0,0,0.14286,-3.3835e-16,0,0.66667
0.50282,0.76648,3.5198,0.39971,19.345,99.491,-3.7517,1.2506,-1.4317,-5.0023,-3.6726e-13,-0.71583,0,0,0.14286,-0,-0,0.66667
0.10495,0.58318,0.73468,0.12477,7.9909,265.95,-0.24444,0.081479,-1.9437,-0.32592,-2.7483e-09,-0.97184,0,0,0.14286,8.4588e-17,0,0.66667
0.38887,0.039187,2.7221,-0.69122,-38.27,142.65,5.0175,-1.6725,-0.30213,6.6901,2.2995e-12,-0.15106,0,0,0.14286,-0,-1.2822e-16,0.66667
0.53799,0.91496,3.7659,0.62244,28.783,87.816,-6.2508,2.0836,-0.62096,-8.3345,3.2285e-13,-0.31048,0,0,0.14286,-0,-0,0.66667
0.3392,0.51534,2.3744,0.023016,1.3173,162.26,-0.14574,0.048578,-1.9969,-0.19431,1.3611e-12,-0.99846,0,0,0.14286,-0,-0,0.66667
0.5559,0.82919,3.8913,0.49379,22.128,81.671,-5.1239,1.708,-1.1313,-6.8319,-2.6601e-13,-0.56563,0,0,0.14286,6.7671e-16,0,0.66667
0.53677,0.033895,3.7574,-0.69916,-32.464,88.393,7.0053,-2.3351,-0.2616,9.3404,-1.1275e-12,-0.1308,0,0,0.14286,-0,-0,0.66667
0.39061,0.83169,2.7343,0.49753,27.383,141.68,-3.6277,1.2092,-1.122,-4.8369,-9.0417e-13,-0.56102,0,0,0.14286,-0,6.3769e-17,0.66667
0.69627,0.89243,4.8739,0.58864,19.682,41.681,-7.6506,2.5502,-0.7662,-10.201,-2.5135e-12,-0.3831,0,0,0.14286,-1.3534e-15,0,0.66667
0.67848,0.79131,4.7494,0.43697,15.238,45.801,-5.5342,1.8447,-1.3195,-7.379,-4.7251e-12,-0.65975,0,0,0.14286,-0,-0,0.66667
0.6873,0.86386,4.8111,0.54579,18.664,43.795,-7.0023,2.3341,-0.94289,-9.3364,-4.2055e-12,-0.47144,0,0,0.14286,6.7671e-16,1.7675e-16,0.66667
0.56149,0.65652,3.9304,0.23478,10.379,79.531,-2.4607,0.82024,-1.8068,-3.281,-1.0587e-12,-0.9034,0,0,0.14286,1.3534e-15,0,0.66667
0.35808,0.30396,2.5066,-0.29406,-16.603,154.59,1.9656,-0.65519,-1.6938,2.6207,-6.0951e-14,-0.84689,0,0,0.14286,-3.3835e-16,0,0.66667
0.61311,0.44538,4.2918,-0.081924,-3.2931,63.476,0.9376,-0.31253,-1.9757,1.2501,-4.4448e-13,-0.98787,0,0,0.14286,1.3534e-15,0,0.66667
0.93574,0.63888,6.5502,0.20832,1.5809,2.6119,-3.6387,1.2129,-1.8462,-4.8515,-1.1137e-08,-0.92311,0,0,0.14286,-1.3534e-15,0,0.66667
0.59689,0.69919,4.1782,0.29879,12.419,68.493,-3.329,1.1097,-1.6822,-4.4387,3.1308e-14,-0.84111,0,0,0.14286,-0,-0,0.66667
0.97959,0.40312,6.8571,-0.14533,-0.30202,0.45599,2.6574,-0.8858,-1.9247,3.5432,-8.5538e-08,-0.96235,0,0,0.14286,2.0301e-15,0,0.66667
0.44101,0.15857,3.087,-0.51215,-26.793,122.18,4.2161,-1.4054,-1.0679,5.6214,1.3198e-12,-0.53397,0,0,0.14286,-0,-0,0.66667
0.73961,0.24531,5.1773,-0.38203,-11.141,31.235,5.2744,-1.7581,-1.4804,7.0325,6.4464e-12,-0.74022,0,0,0.14286,-6.7671e-16,0,0.66667
0.037604,0.66383,0.26323,0.24574,15.905,297.25,-0.1725,0.057499,-1.784,-0.23,6.7215e-08,-0.89199,0,0,0.14286,-0,-0,0.66667
0.76473,0.82381,5.3531,0.48571,13.011,26.224,-6.9335,2.3112,-1.1625,-9.2446,9.3765e-12,-0.58127,0,0,0.14286,-0,-0,0.66667
0.51828,0.58915,3.628,0.13373,6.3144,93.89,-1.2937,0.43125,-1.9371,-1.725,3.5638e-14,-0.96855,0,0,0.14286,3.3835e-16,0,0.66667
0.0053165,0.49178,0.037216,-0.012323,-0.7979,312.32,0.0012232,-0.00041671,-1.9984,0.0016264,-1.349e-05,-0.99918,0,0,0.14286,1.586e-17,0,0.66667
0.2772,0.27363,1.9404,-0.33955,-20.322,188.63,1.757,-0.58566,-1.5895,2.3426,-6.8793e-12,-0.79477,0,0,0.14286,1.6918e-16,0,0.66667
0.53483,0.061645,3.7438,-0.65753,-30.582,88.946,6.5645,-2.1882,-0.46356,8.7527,-5.4712e-13,-0.23178,0,0,0.14286,9.3047e-16,0,0.66667
0.76796,0.28539,5.3757,-0.32192,-8.4748,25.267,4.6148,-1.5383,-1.6325,6.1531,-6.3364e-11,-0.81626,0,0,0.14286,-0,-0,0.66667
0.053093,0.26418,0.37165,-0.35374,-22.885,290.04,0.35058,-0.11686,-1.5534,0.46743,-2.8361e-08,-0.77669,0,0,0.14286,8.4588e-17,0,0.66667
0.54905,0.97093,3.8434,0.7064,32.192,84.345,-7.2398,2.4133,-0.22724,-9.6531,-5.3735e-14,-0.11362,0,0,0.14286,-0,-0,0.66667
0.80099,0.05329,5.607,-0.67007,-15.611,20.003,10.019,-3.3396,-0.40288,13.358,4.3095e-10,-0.20144,0,0,0.14286,-0,-0,0.66667
0.64958,0.23505,4.5471,-0.39742,-14.842,53.392,4.819,-1.6063,-1.4366,6.4253,2.4158e-12,-0.7183,0,0,0.14286,-0,-0,0.66667
0.93145,0.64322,6.5201,0.21483,1.7434,2.9137,-3.7353,1.2451,-1.8343,-4.9804,-2.0118e-09,-0.91713,0,0,0.14286,-1.3534e-15,0,0.66667
0.074731,0.15584,0.52312,-0.51624,-33.381,280.01,0.72015,-0.24005,-1.0534,0.9602,1.1034e-07,-0.52671,0,0,0.14286,1.8239e-16,0,0.66667
0.27681,0.99839,1.9376,0.74758,45.097,189.18,-3.8628,1.2876,-0.013083,-5.1504,-5.3901e-12,-0.0065415,0,0,0.14286,1.0574e-15,0,0.66667
0.91924,0.32394,6.4347,-0.26409,-2.5394,3.9031,4.5315,-1.5105,-1.752,6.0421,-8.3321e-09,-0.876,0,0,0.14286,-0,-0,0.66667
0.76501,0.06597,5.355,-0.65104,-17.548,26.616,9.297,-3.099,-0.49546,12.396,-9.5781e-12,-0.24773,0,0,0.14286,-0,6.6805e-17,0.66667
0.59974,0.042532,4.1982,-0.6862,-28.641,68.341,7.6821,-2.5607,-0.32423,10.243,1.5365e-12,-0.16212,0,0,0.14286,-1.3534e-15,0,0.66667
0.83297,0.96011,5.8308,0.69017,13.744,14.94,-10.731,3.5771,-0.3054,-14.308,-2.5725e-09,-0.1527,0,0,0.14286,-1.3534e-15,0,0.66667
0.89604,0.64772,6.2723,0.22158,2.7355,5.9389,-3.7062,1.2354,-1.8243,-4.9416,7.8254e-09,-0.91213,0,0,0.14286,6.7671e-16,0,0.66667
0.97272,0.57326,6.809,0.10989,0.32363,0.64428,-1.9953,0.66509,-1.9563,-2.6604,-3.5423e-07,-0.97815,0,0,0.14286,-0,-0,0.66667
0.99852,0.68117,6.9896,0.27176,-0.085215,0.24511,-5.0653,1.6884,-1.7387,-6.7537,1.3393e-07,-0.86937,0,0,0.14286,6.7671e-16,-1.0759e-16,0.66667
0.13965,0.89621,0.97755,0.59431,37.942,250.12,-1.5492,0.51641,-0.74554,-2.0656,-1.0837e-08,-0.37277,0,0,0.14286,1.6918e-16,-1.476e-16,0.66667
0.070542,0.73936,0.49379,0.35904,23.179,281.93,-0.47278,0.15759,-1.5399,-0.63037,-1.9338e-08,-0.76997,0,0,0.14286,-0,-0,0.66667
0.073467,0.59449,0.51427,0.14173,9.13,280.54,-0.19437,0.064789,-1.9289,-0.25915,5.0076e-08,-0.96444,0,0,0.14286,-0,-0,0.66667
0.014744,0.80366,0.10321,0.45549,29.585,307.93,-0.12536,0.041786,-1.2639,-0.16715,8.3773e-08,-0.63194,0,0,0.14286,-2.1147e-17,0,0.66667
0.97182,0.12439,6.8027,-0.56341,-1.9021,1.5989,10.221,-3.4069,-0.87251,13.627,1.0703e-06,-0.43625,0,0,0.14286,-1.8609e-15,0,0.66667
0.094767,0.71652,0.66337,0.32478,20.874,270.69,-0.57453,0.19151,-1.6273,-0.76604,-1.511e-08,-0.81366,0,0,0.14286,1.6918e-16,0,0.66667
0.84174,0.65233,5.8922,0.22849,4.2303,12.557,-3.5902,1.1967,-1.8156,-4.7869,2.1732e-09,-0.90781,0,0,0.14286,8.3676e-16,0,0.66667
0.68517,0.82537,4.7962,0.48805,16.752,44.202,-6.2421,2.0807,-1.1532,-8.3228,-4.7695e-12,-0.57661,0,0,0.14286,-0,-0,0.66667
0.48756,0.3318,3.4129,-0.2523,-12.435,104.76,2.2962,-0.76541,-1.7733,3.0616,7.7649e-13,-0.88663,0,0,0.14286,-6.7671e-16,0,0.66667
0.34669,0.97758,2.4269,0.71637,41.14,159.72,-4.6361,1.5454,-0.17533,-6.1814,-2.2631e-12,-0.087666,0,0,0.14286,-0,-0,0.66667
0.35365,0.2922,2.4755,-0.3117,-17.667,156.41,2.0576,-0.68588,-1.6531,2.7435,-1.4073e-12,-0.82655,0,0,0.14286,-0,-0,0.66667
0.25384,0.15639,1.7769,-0.51542,-31.346,198.9,2.4422,-0.81408,-1.0563,3.2563,-1.491e-12,-0.52813,0,0,0.14286,6.7671e-16,0,0.66667
0.91102,0.86635,6.3771,0.54953,5.9566,5.2519,-9.3451,3.115,-0.92533,-12.46,5.2839e-08,-0.46267,0,0,0.14286,-1.3534e-15,0,0.66667
0.72564,0.35065,5.0795,-0.22403,-6.8105,34.11,3.0345,-1.0115,-1.8202,4.046,4.4809e-12,-0.91012,0,0,0.14286,1.3534e-15,0,0.66667
0.025926,0.00039345,0.18148,-0.74941,-48.928,302.74,0.36266,-0.12089,-0.0032026,0.48355,2.2739e-06,-0.0016013,0,0,0.14286,-0,-0,0.66667
0.46152,0.83977,3.2306,0.50966,26.045,114.52,-4.3907,1.4636,-1.0755,-5.8543,1.1058e-13,-0.53776,0,0,0.14286,1.6918e-16,0,0.66667
0.2813,0.90316,1.9691,0.60475,36.26,187.08,-3.1755,1.0585,-0.7028,-4.234,4.1704e-12,-0.3514,0,0,0.14286,4.2294e-16,0,0.66667
0.028966,0.825,0.20276,0.4875,31.659,301.3,-0.26359,0.087864,-1.1552,-0.35145,5.8183e-07,-0.57759,0,0,0.14286,4.2294e-17,0,0.66667
0.88468,0.16394,6.1928,-0.50409,-6.9966,7.6909,8.3247,-2.7749,-1.0953,11.1,-2.3496e-09,-0.54763,0,0,0.14286,-0,-0,0.66667
0.77101,0.79759,5.397,0.44638,11.659,24.9,-6.4243,2.1414,-1.29,-8.5658,2.9004e-11,-0.64502,0,0,0.14286,-1.3534e-15,0,0.66667
0.32974,0.76462,2.3081,0.39694,22.947,166.36,-2.4432,0.81439,-1.4404,-3.2576,4.6072e-12,-0.72021,0,0,0.14286,-0,-0,0.66667
0.79656,0.31838,5.5759,-0.27242,-6.3672,19.846,4.0507,-1.3502,-1.7386,5.4009,-3.4064e-10,-0.86928,0,0,0.14286,-0,-0,0.66667
0.32464,0.45433,2.2725,-0.0685,-3.964,168.34,0.4151,-0.13837,-1.9827,0.55347,6.1323e-13,-0.99133,0,0,0.14286,-0,-0,0.66667
0.30788,0.95063,2.1552,0.67594,39.901,175.83,-3.8847,1.2949,-0.37429,-5.1796,4.8388e-12,-0.18715,0,0,0.14286,-0,-2.9852e-17,0.66667
0.92811,0.17568,6.4968,-0.48648,-4.2412,3.7033,8.4282,-2.8094,-1.1569,11.238,-7.4024e-08,-0.57844,0,0,0.14286,-0,-0,0.66667
0.97692,0.72747,6.8384,0.34121,0.85945,0.82458,-6.2222,2.0741,-1.5845,-8.2963,-1.2794e-07,-0.79225,0,0,0.14286,-0,-0,0.66667
0.52356,0.16551,3.6649,-0.50174,-23.633,92.462,4.9035,-1.6345,-1.1033,6.5381,-6.9322e-13,-0.55165,0,0,0.14286,-0,-0,0.66667
0.95194,0.62382,6.6635,0.18573,1.0367,1.6184,-3.3003,1.1001,-1.8798,-4.4005,-1.8469e-08,-0.93989,0,0,0.14286,-3.3835e-16,0,0.66667
0.888,0.75097,6.216,0.37645,5.0366,7.0252,-6.2401,2.08,-1.4975,-8.3201,1.144e-08,-0.74874,0,0,0.14286,-0,-0,0.66667
0.51803,0.80664,3.6262,0.45996,21.819,94.288,-4.4478,1.4826,-1.2485,-5.9303,1.2301e-13,-0.62423,0,0,0.14286,3.3835e-16,0,0.66667
0.37275,0.30877,2.6092,-0.28685,-15.994,148.63,1.9959,-0.66529,-1.7086,2.6612,-2.0983e-13,-0.85428,0,0,0.14286,5.0753e-16,0,0.66667
0.71035,0.43003,4.9725,-0.10495,-3.3368,37.56,1.3916,-0.46387,-1.9594,1.8555,3.234e-12,-0.97971,0,0,0.14286,6.7671e-16,0,0.66667
0.45564,0.57075,3.1895,0.10612,5.4333,116.34,-0.90262,0.30087,-1.9603,-1.2035,-1.1313e-13,-0.98013,0,0,0.14286,-0,-0,0.66667
0.60521,0.28434,4.2365,-0.32348,-13.24,66.011,3.6545,-1.2182,-1.628,4.8727,3.4683e-13,-0.814,0,0,0.14286,-0,-0,0.66667
0.99041,0.13647,6.9328,-0.54529,-0.53034,1.0533,10.081,-3.3604,-0.9412,13.442,-6.6833e-07,-0.4706,0,0,0.14286,-0,-0,0.66667
0.77392,0.72618,5.4174,0.33927,8.7323,24.134,-4.9013,1.6338,-1.5893,-6.5351,8.5158e-11,-0.79466,0,0,0.14286,-0,-0,0.66667
0.33428,0.54121,2.3399,0.061818,3.5517,164.31,-0.38574,0.12858,-1.9849,-0.51431,3.1171e-12,-0.99246,0,0,0.14286,-6.7671e-16,0,0.66667
0.088998,0.1752,0.62299,-0.4872,-31.414,273.39,0.80938,-0.26979,-1.1548,1.0792,1.2762e-08,-0.57742,0,0,0.14286,-8.4588e-17,0,0.66667
0.18491,0.37657,1.2943,-0.18514,-11.581,229.39,0.63902,-0.21301,-1.8794,0.85202,4.621e-10,-0.9397,0,0,0.14286,-0,-0,0.66667
0.52685,0.65911,3.688,0.23866,11.14,91.021,-2.3472,0.78239,-1.7975,-3.1296,7.1076e-13,-0.89874,0,0,0.14286,-0,-0,0.66667
0.4171,0.082519,2.9197,-0.62622,-33.685,131.49,4.8757,-1.6252,-0.60452,6.5009,1.2998e-12,-0.30226,0,0,0.14286,-0,-0,0.66667
0.80066,0.55304,5.6046,0.079561,1.8199,18.958,-1.1891,0.39636,-1.9769,-1.5855,2.3539e-10,-0.98846,0,0,0.14286,-6.7671e-16,0,0.66667
0.9332,0.76516,6.5324,0.39774,3.1888,3.1169,-6.9285,2.3095,-1.4364,-9.238,3.056e-08,-0.71822,0,0,0.14286,-0,-0,0.66667
0.17786,0.86688,1.2451,0.55031,34.668,232.72,-1.8271,0.60904,-0.92193,-2.4362,-1.088e-09,-0.46097,0,0,0.14286,-1.6918e-16,0,0.66667
0.86007,0.54226,6.0205,0.06339,1.0412,9.9359,-1.0177,0.33923,-1.9873,-1.3569,5.863e-11,-0.99364,0,0,0.14286,1.3534e-15,0,0.66667
0.95739,0.25631,6.7018,-0.36553,-1.829,1.6388,6.5326,-2.1775,-1.5245,8.7101,7.976e-08,-0.76223,0,0,0.14286,-0,-0,0.66667
0.95947,0.92697,6.7163,0.64046,3.2219,2.3674,-11.471,3.8236,-0.53999,-15.294,1.6388e-06,-0.26999,0,0,0.14286,1.3534e-15,0,0.66667
0.037863,0.65843,0.26504,0.23765,15.379,297.13,-0.16796,0.055987,-1.7987,-0.22395,6.6679e-08,-0.89933,0,0,0.14286,-8.4588e-17,0,0.66667
0.057584,0.57954,0.40308,0.11931,7.7011,287.93,-0.12824,0.042748,-1.9481,-0.17099,5.5693e-08,-0.97403,0,0,0.14286,-8.4588e-17,0,0.66667
0.0057974,0.91742,0.040582,0.62614,40.796,312.1,-0.067756,0.022584,-0.60456,-0.090342,-2.1688e-06,-0.30228,0,0,0.14286,-0,3.1091e-16,0.66667
0.31268,0.087831,2.1888,-0.61825,-36.328,173.74,3.6086,-1.2029,-0.6435,4.8114,1.8519e-13,-0.32175,0,0,0.14286,-5.0753e-16,0,0.66667
0.055698,0.099408,0.38989,-0.60089,-39.011,288.87,0.62474,-0.20825,-0.71507,0.83299,-4.5352e-07,-0.35754,0,0,0.14286,-1.6918e-16,0,0.66667
0.29386,0.77346,2.057,0.41018,24.317,181.52,-2.25,0.75001,-1.4018,-3,8.9826e-12,-0.70091,0,0,0.14286,-3.3835e-16,0,0.66667
0.35602,0.66579,2.4921,0.24868,14.059,155.4,-1.6527,0.55089,-1.7798,-2.2036,2.9418e-12,-0.88988,0,0,0.14286,-0,-0,0.66667
0.95368,0.36139,6.6757,-0.20791,-1.1173,1.5538,3.7012,-1.2337,-1.8479,4.935,3.3575e-08,-0.92394,0,0,0.14286,1.3534e-15,0,0.66667
0.47695,0.64475,3.3387,0.21712,10.842,108.56,-1.9331,0.64435,-1.8306,-2.5774,6.3782e-13,-0.91531,0,0,0.14286,-6.7671e-16,0,0.66667
0.27824,0.46086,1.9477,-0.058716,-3.5051,188.09,0.30496,-0.10165,-1.9878,0.40661,5.3943e-13,-0.99388,0,0,0.14286,1.6918e-16,0,0.66667
0.50301,0.026034,3.521,-0.71095,-34.654,99.968,6.6754,-2.2251,-0.20322,8.9005,1.2137e-12,-0.10161,0,0,0.14286,-0,-0,0.66667
0.64336,0.010162,4.5035,-0.73476,-28.118,55.872,8.824,-2.9413,-0.080463,11.765,2.0322e-12,-0.040231,0,0,0.14286,-0,-0,0.66667
0.11125,0.8304,0.77872,0.4956,31.815,263.12,-1.0291,0.34305,-1.1271,-1.3722,-1.0457e-08,-0.56357,0,0,0.14286,-0,-0,0.66667
0.75806,0.53119,5.3064,0.046778,1.2727,27.015,-0.66193,0.22064,-1.992,-0.88258,1.7443e-11,-0.99601,0,0,0.14286,-2.5031e-16,0,0.66667
0.85195,0.94539,5.9636,0.66809,11.887,12.181,-10.625,3.5415,-0.41153,-14.166,9.5529e-09,-0.20577,0,0,0.14286,-0,-0,0.66667
0.84425,0.93885,5.9097,0.65828,12.265,13.201,-10.374,3.458,-0.46228,-13.832,1.1752e-08,-0.23114,0,0,0.14286,-0,-0,0.66667
0.89051,0.89533,6.2335,0.593,7.8899,7.3428,-9.8572,3.2857,-0.75183,-13.143,2.2153e-08,-0.37592,0,0,0.14286,-1.3534e-15,0,0.66667
0.38184,0.47507,2.6729,-0.0374,-2.0654,144.88,0.26658,-0.088859,-1.9938,0.35543,-1.0808e-12,-0.9969,0,0,0.14286,-0,-0,0.66667
0.44381,0.55685,3.1066,0.08528,4.4251,120.77,-0.70649,0.2355,-1.9731,-0.94198,5.278e-13,-0.98654,0,0,0.14286,3.3835e-16,0,0.66667
0.10158,0.86618,0.71107,0.54926,35.366,267.6,-1.0415,0.34717,-0.92575,-1.3887,4.1046e-09,-0.46287,0,0,0.14286,-1.6918e-16,0,0.66667
0.22581,0.08274,1.5806,-0.62589,-38.696,211.33,2.6382,-0.87939,-0.60544,3.5176,5.9672e-11,-0.30272,0,0,0.14286,3.3835e-16,0,0.66667
0.97132,0.04688,6.7992,-0.67968,-2.4397,2.0529,12.323,-4.1078,-0.35736,16.431,1.3763e-05,-0.17868,0,0,0.14286,1.3534e-15,0,0.66667
0.28462,0.30902,1.9924,-0.28648,-17.057,185.4,1.522,-0.50735,-1.7086,2.0294,-5.5578e-12,-0.85431,0,0,0.14286,4.2294e-16,0,0.66667
0.9074,0.24996,6.3518,-0.37507,-4.1642,5.1162,6.3529,-2.1176,-1.5025,8.4705,-1.9716e-08,-0.75126,0,0,0.14286,-1.8927e-15,0,0.66667
0.89055,0.6129,6.2339,0.16935,2.1956,6.4432,-2.8152,0.9384,-1.9001,-3.7536,6.3889e-09,-0.95007,0,0,0.14286,-0,-0,0.66667
0.9225,0.56707,6.4575,0.10061,0.92164,3.4731,-1.7325,0.57749,-1.9663,-2.3099,4.7387e-08,-0.98317,0,0,0.14286,-2.7068e-15,0,0.66667
0.15615,0.86908,1.093,0.55363,35.141,242.57,-1.6137,0.5379,-0.91286,-2.1516,-3.4147e-09,-0.45643,0,0,0.14286,1.6918e-16,1.0991e-16,0.66667
0.87972,0.90605,6.1581,0.60908,8.8758,8.5589,-10.002,3.334,-0.68138,-13.336,-5.0462e-08,-0.34069,0,0,0.14286,1.8609e-15,0,0.66667
0.63199,0.72483,4.424,0.33724,13.076,58.211,-3.9785,1.3262,-1.5944,-5.3047,-1.1025e-12,-0.7972,0,0,0.14286,-0,-0,0.66667
0.21063,0.48226,1.4744,-0.026605,-1.6456,217.81,0.1046,-0.034868,-1.9956,0.13947,3.0982e-11,-0.99781,0,0,0.14286,-3.3835e-16,0,0.66667
0.34512,0.46624,2.4158,-0.050647,-2.8854,159.82,0.32627,-0.10876,-1.9929,0.43503,5.5628e-13,-0.99645,0,0,0.14286,1.6918e-16,0,0.66667
0.15992,0.33473,1.1194,-0.2479,-15.653,240.74,0.74003,-0.24668,-1.781,0.9867,1.9688e-09,-0.89051,0,0,0.14286,-1.6918e-16,0,0.66667
0.44435,0.066272,3.1104,-0.65059,-34.019,121.14,5.3963,-1.7988,-0.49418,7.1951,1.5157e-12,-0.24709,0,0,0.14286,-0,-0,0.66667
0.083775,0.15423,0.58642,-0.51865,-33.49,275.82,0.81107,-0.27036,-1.0433,1.0814,8.0764e-09,-0.52163,0,0,0.14286,2.1147e-16,0,0.66667
0.16532,0.40922,1.1572,-0.13616,-8.576,238.26,0.42019,-0.14006,-1.9334,0.56025,5.7237e-10,-0.9667,0,0,0.14286,-0,-0,0.66667
0.1972,0.04087,1.3804,-0.68869,-43.182,224.13,2.5351,-0.84503,-0.31218,3.3801,-4.3519e-10,-0.15609,0,0,0.14286,-0,-0,0.66667
0.69103,0.95754,4.8372,0.68632,23.363,43.239,-8.8529,2.951,-0.32467,-11.804,-8.8285e-13,-0.16233,0,0,0.14286,-0,-0,0.66667
0.5738,0.73962,4.0166,0.35943,15.59,75.727,-3.8499,1.2833,-1.5397,-5.1332,-3.9191e-13,-0.76987,0,0,0.14286,-6.7671e-16,0,0.66667
0.87332,0.79489,6.1133,0.44233,6.6896,8.8168,-7.2109,2.4036,-1.3049,-9.6145,6.2355e-09,-0.65246,0,0,0.14286,1.3534e-15,0,0.66667
0.24463,0.058835,1.7124,-0.66175,-40.561,203.07,3.0219,-1.0073,-0.44248,4.0292,-3.505e-12,-0.22124,0,0,0.14286,-5.0753e-16,0,0.66667
0.62961,0.32692,4.4073,-0.25962,-10.105,58.8,3.0513,-1.0171,-1.7591,4.0684,5.5689e-13,-0.87956,0,0,0.14286,1.3534e-15,0,0.66667
0.034431,0.034899,0.24102,-0.69765,-45.471,298.78,0.44839,-0.14946,-0.26997,0.59786,1.5998e-06,-0.13498,0,0,0.14286,-0,-0,0.66667
0.5162,0.20014,3.6134,-0.4498,-21.388,94.905,4.3341,-1.4447,-1.2822,5.7788,-1.8696e-13,-0.64112,0,0,0.14286,-0,-0,0.66667
0.86323,0.043143,6.0426,-0.68528,-11.344,10.783,11.042,-3.6808,-0.32948,14.723,8.2442e-09,-0.16474,0,0,0.14286,-1.3534e-15,0,0.66667
0.98413,0.86776,6.8889,0.55164,0.98739,1.2037,-10.134,3.378,-0.92035,-13.512,-3.5671e-07,-0.46017,0,0,0.14286,-6.7671e-16,-1.2952e-16,0.66667
0.009873,0.063451,0.069111,-0.65482,-42.687,310.21,0.12068,-0.040221,-0.47529,0.16091,7.7024e-06,-0.23765,0,0,0.14286,-4.2294e-17,0,0.66667
0.25284,0.92044,1.7699,0.63067,38.462,199.44,-2.9766,0.99219,-0.58554,-3.9687,6.9311e-12,-0.29277,0,0,0.14286,-3.3835e-16,0,0.66667
0.22385,0.49,1.5669,-0.015003,-0.92235,211.92,0.062692,-0.020897,-1.998,0.083589,1.9745e-11,-0.999,0,0,0.14286,3.3835e-16,0,0.66667
0.047538,0.057416,0.33276,-0.66388,-43.191,292.68,0.5891,-0.19637,-0.43517,0.78547,9.4796e-07,-0.21758,0,0,0.14286,-6.3441e-17,0,0.66667
0.010172,0.97438,0.071207,0.71158,46.443,310.07,-0.13512,0.045018,-0.19886,-0.18017,-3.3149e-05,-0.09943,0,0,0.14286,-2.1147e-17,0,0.66667
0.4902,0.23232,3.4314,-0.40152,-19.762,103.96,3.6741,-1.2247,-1.4252,4.8987,1.0876e-12,-0.71258,0,0,0.14286,-0,-0,0.66667
0.045482,0.75299,0.31838,0.37948,24.577,293.59,-0.32218,0.10739,-1.4899,-0.42958,6.5489e-08,-0.74494,0,0,0.14286,1.6918e-16,0,0.66667
0.27833,0.47333,1.9483,-0.040001,-2.3877,188.04,0.20783,-0.069275,-1.9948,0.2771,2.7089e-12,-0.99741,0,0,0.14286,-0,-0,0.66667
0.63997,0.40484,4.4798,-0.14274,-5.4259,55.776,1.7052,-0.5684,-1.9304,2.2736,6.759e-13,-0.96521,0,0,0.14286,1.9455e-15,0,0.66667
0.29469,0.98686,2.0628,0.73029,43.547,181.5,-4.0173,1.3391,-0.10394,-5.3564,1.2088e-12,-0.051971,0,0,0.14286,-3.3835e-16,0,0.66667
0.26965,0.55357,1.8876,0.080356,4.8218,191.8,-0.40447,0.13482,-1.9764,-0.5393,4.6475e-12,-0.9882,0,0,0.14286,3.3835e-16,0,0.66667
0.59055,0.94633,4.1338,0.66949,28.407,71.092,-7.3802,2.4601,-0.40614,-9.8402,-9.7478e-13,-0.20307,0,0,0.14286,1.3534e-15,0,0.66667
0.38053,0.73494,2.6637,0.35241,19.53,145.55,-2.5033,0.83443,-1.5569,-3.3377,6.9877e-13,-0.77843,0,0,0.14286,-0,-0,0.66667
0.70252,0.079398,4.9177,-0.6309,-20.768,40.277,8.2735,-2.7578,-0.58626,11.031,1.5294e-12,-0.29313,0,0,0.14286,1.3534e-15,1.6805e-16,0.66667
0.49612,0.76159,3.4729,0.39239,19.16,101.85,-3.6339,1.2113,-1.4518,-4.8452,-5.52e-13,-0.72589,0,0,0.14286,-0,-0,0.66667
0.63321,0.63443,4.4325,0.20165,7.783,57.722,-2.3835,0.7945,-1.8538,-3.178,-1.0614e-12,-0.9269,0,0,0.14286,-0,-0,0.66667
0.35339,0.3823,2.4738,-0.17655,-9.9965,156.44,1.1646,-0.3882,-1.888,1.5528,4.6319e-13,-0.94399,0,0,0.14286,-0,-0,0.66667
0.28704,0.1526,2.0093,-0.5211,-31.083,184.53,2.7922,-0.93072,-1.0339,3.7229,-1.6516e-12,-0.51693,0,0,0.14286,-8.4588e-17,0,0.66667
0.13321,0.33248,0.93245,-0.25128,-15.996,252.95,0.62483,-0.20828,-1.7737,0.8331,4.4806e-09,-0.88687,0,0,0.14286,-0,-0,0.66667
0.93708,0.22866,6.5596,-0.40701,-3.0734,2.8795,7.1195,-2.3732,-1.4129,9.4926,-2.2738e-08,-0.70645,0,0,0.14286,2.7068e-15,0,0.66667
0.80484,0.9553,5.6339,0.68296,15.649,19.389,-10.26,3.4202,-0.33972,-13.681,-3.6023e-10,-0.16986,0,0,0.14286,-0,-0,0.66667
0.93803,0.6871,6.5662,0.28065,2.0614,2.5645,-4.9142,1.6381,-1.7231,-6.5523,-1.7236e-08,-0.86157,0,0,0.14286,-1.8609e-15,0,0.66667
0.18538,0.96154,1.2977,0.69231,43.617,229.43,-2.3957,0.79857,-0.29656,-3.1943,-1.0097e-09,-0.14828,0,0,0.14286,-1.6918e-16,1.201e-16,0.66667
0.93316,0.26448,6.5321,-0.35328,-2.8221,3.0231,6.1537,-2.0512,-1.5552,8.2049,-1.2065e-08,-0.77758,0,0,0.14286,-1.3534e-15,0,0.66667
0.93575,0.86991,6.5503,0.55487,4.3619,3.3807,-9.6921,3.2307,-0.9066,-12.923,1.0849e-07,-0.4533,0,0,0.14286,-1.3534e-15,0,0.66667
0.28354,0.31681,1.9848,-0.27478,-16.37,185.86,1.4544,-0.48479,-1.7325,1.9392,-5.9351e-12,-0.86626,0,0,0.14286,-0,-0,0.66667
0.27463,0.91549,1.9224,0.62324,37.535,189.97,-3.195,1.065,-0.61741,-4.2601,5.8209e-12,-0.3087,0,0,0.14286,-6.7671e-16,0,0.66667
0.55143,0.79023,3.86,0.43535,19.626,83.036,-4.4812,1.4937,-1.3252,-5.975,6.9722e-13,-0.66261,0,0,0.14286,-1.3534e-15,0,0.66667
0.18529,0.0098651,1.297,-0.7352,-46.367,229.51,2.5429,-0.84762,-0.078526,3.3905,4.2564e-10,-0.039263,0,0,0.14286,-0,-0,0.66667
0.4421,0.6481,3.0947,0.22215,11.559,121.47,-1.8333,0.6111,-1.8237,-2.4444,7.3219e-13,-0.91185,0,0,0.14286,-3.3835e-16,0,0.66667
0.18532,0.44149,1.2972,-0.087767,-5.4867,229.19,0.30361,-0.1012,-1.9737,0.40481,7.1903e-11,-0.98687,0,0,0.14286,-0,-0,0.66667
0.94738,0.48968,6.6316,-0.015483,-0.094632,1.7668,0.27381,-0.09127,-1.9977,0.36508,3.1729e-07,-0.99886,0,0,0.14286,2.4753e-15,0,0.66667
0.49382,0.18125,3.4568,-0.47812,-23.454,102.78,4.4073,-1.4691,-1.1861,5.8765,1.1289e-12,-0.59305,0,0,0.14286,-6.7671e-16,0,0.66667
0.96392,0.863,6.7474,0.5445,2.3706,1.8352,-9.7973,3.2658,-0.94462,-13.063,-2.3142e-08,-0.47231,0,0,0.14286,-1.3534e-15,0,0.66667
0.64494,0.24706,4.5146,-0.37941,-14.313,54.641,4.5677,-1.5226,-1.4882,6.0903,2.6601e-12,-0.7441,0,0,0.14286,-1.5226e-15,0,0.66667
0.48432,0.030589,3.3902,-0.70412,-35.163,106.57,6.3656,-2.1219,-0.24082,8.4875,8.9173e-13,-0.12041,0,0,0.14286,4.2294e-16,1.4018e-17,0.66667
0.9677,0.57131,6.7739,0.10697,0.3831,0.82695,-1.9322,0.64407,-1.9607,-2.5763,-1.2074e-07,-0.98036,0,0,0.14286,-0,-0,0.66667
0.14319,0.12282,1.0023,-0.56577,-36.064,248.49,1.5122,-0.50408,-0.86304,2.0163,2.2766e-10,-0.43152,0,0,0.14286,1.6918e-16,0,0.66667
0.63233,0.16212,4.4263,-0.50683,-19.712,58.397,5.9823,-1.9941,-1.0855,7.9764,1.2799e-12,-0.54273,0,0,0.14286,-0,-0,0.66667
0.66189,0.45049,4.6332,-0.074261,-2.6833,49.754,0.91751,-0.30584,-1.9789,1.2234,1.6061e-12,-0.98943,0,0,0.14286,-0,-0,0.66667
0.43384,0.045179,3.0369,-0.68223,-36.114,125.17,5.5249,-1.8416,-0.34435,7.3666,2.276e-12,-0.17218,0,0,0.14286,-0,-0,0.66667
0.059357,0.21843,0.4155,-0.42235,-27.328,287.14,0.46797,-0.15599,-1.3669,0.62396,1.1007e-08,-0.68346,0,0,0.14286,-1.586e-17,0,0.66667
0.49272,0.24179,3.4491,-0.38731,-18.995,103.05,3.5623,-1.1874,-1.4651,4.7497,1.2874e-12,-0.73257,0,0,0.14286,-0,-0,0.66667
0.46513,0.3874,3.2559,-0.16891,-8.5542,112.85,1.4665,-0.48884,-1.8979,1.9554,5.0759e-13,-0.94894,0,0,0.14286,-0,-0,0.66667
0.80675,0.077218,5.6472,-0.63417,-14.361,18.906,9.5502,-3.1834,-0.56843,12.734,-1.0552e-10,-0.28421,0,0,0.14286,-0,-0,0.66667
0.25666,0.18852,1.7966,-0.46722,-28.348,197.63,2.2385,-0.74616,-1.2235,2.9846,-1.113e-11,-0.61176,0,0,0.14286,6.7671e-16,0,0.66667
0.39143,0.80879,2.74,0.46318,25.457,141.31,-3.3843,1.1281,-1.2395,-4.5124,4.6008e-13,-0.61975,0,0,0.14286,-0,-0,0.66667
0.24017,0.85135,1.6812,0.52702,32.29,204.9,-2.3628,0.78759,-1.0112,-3.1504,5.884e-12,-0.50562,0,0,0.14286,-0,-0,0.66667
0.68644,0.19003,4.8051,-0.46495,-15.896,43.835,5.9577,-1.9859,-1.2336,7.9436,5.8189e-12,-0.61682,0,0,0.14286,-2.7068e-15,0,0.66667
0.98988,0.85641,6.9292,0.53462,0.54972,1.0272,-9.8786,3.2929,-0.98228,-13.171,5.8865e-07,-0.49114,0,0,0.14286,-0,-0,0.66667
0.17743,0.94361,1.242,0.66541,42.022,233,-2.2039,0.73462,-0.42475,-2.9385,-6.4586e-10,-0.21238,0,0,0.14286,-0,-0,0.66667
0.82145,0.48853,5.7501,-0.017201,-0.35545,15.484,0.26375,-0.087918,-1.9973,0.35167,8.883e-11,-0.99863,0,0,0.14286,-1.3534e-15,0,0.66667
0.23099,0.85755,1.6169,0.53632,33.017,208.96,-2.3125,0.77083,-0.9767,-3.0833,-9.3845e-12,-0.48835,0,0,0.14286,3.3835e-16,0,0.66667
0.057976,0.97748,0.40583,0.71622,46.599,287.84,-0.7751,0.25837,-0.17527,-1.0335,4.1681e-06,-0.087634,0,0,0.14286,-0,-0,0.66667
0.13882,0.34127,0.97172,-0.23809,-15.131,250.38,0.61695,-0.20565,-1.8001,0.8226,3.4216e-09,-0.90006,0,0,0.14286,-0,-0,0.66667
0.93515,0.11339,6.5461,-0.57991,-4.6184,3.5031,10.123,-3.3743,-0.80445,13.497,-1.1657e-07,-0.40222,0,0,0.14286,-0,-0,0.66667
0.88854,0.56128,6.2198,0.09192,1.2113,6.599,-1.5246,0.5082,-1.9717,-2.0328,8.1631e-09,-0.98583,0,0,0.14286,-1.5226e-15,0,0.66667
0.28926,0.57546,2.0248,0.11319,6.7119,183.35,-0.61118,0.20373,-1.9526,-0.81491,5.5604e-12,-0.9763,0,0,0.14286,-0,-0,0.66667
0.94776,0.4443,6.6343,-0.083545,-0.50722,1.7647,1.478,-0.49268,-1.9742,1.9707,1.4608e-08,-0.98711,0,0,0.14286,-2.7068e-15,0,0.66667
0.84993,0.76718,5.9495,0.40077,7.102,11.697,-6.3583,2.1194,-1.4272,-8.4778,2.5561e-09,-0.71361,0,0,0.14286,-1.0065e-15,0,0.66667
0.43465,0.48949,3.0426,-0.015766,-0.82626,124.23,0.12792,-0.04264,-1.999,0.17056,-4.7637e-13,-0.99951,0,0,0.14286,1.3534e-15,0,0.66667
0.46805,0.087219,3.2763,-0.61917,-31.476,112.3,5.4097,-1.8032,-0.63888,7.2129,3.9613e-13,-0.31944,0,0,0.14286,-3.3835e-16,1.1187e-16,0.66667
0.62985,0.41685,4.409,-0.12472,-4.845,58.629,1.4663,-0.48878,-1.9435,1.9551,6.0785e-13,-0.97177,0,0,0.14286,-0,-0,0.66667
0.15803,0.44023,1.1062,-0.089652,-5.6594,241.57,0.26447,-0.088156,-1.9731,0.35262,4.1408e-10,-0.98653,0,0,0.14286,-0,-0,0.66667
0.014782,0.88683,0.10347,0.58024,37.765,307.91,-0.16011,0.053368,-0.80428,-0.21348,-5.3217e-07,-0.40214,0,0,0.14286,-0,-0,0.66667
0.26551,0.85934,1.8586,0.53901,32.581,193.84,-2.6715,0.89049,-0.96896,-3.562,6.3631e-12,-0.48448,0,0,0.14286,3.3835e-16,-2.1165e-16,0.66667
0.015444,0.038171,0.10811,-0.69274,-45.189,307.61,0.1997,-0.066556,-0.29611,0.26627,1.6094e-05,-0.14805,0,0,0.14286,-0,-0,0.66667
0.6745,0.69593,4.7215,0.2939,10.321,46.607,-3.7004,1.2335,-1.6931,-4.9339,-4.6805e-12,-0.84655,0,0,0.14286,-0,-0,0.66667
0.55147,0.95866,3.8603,0.68798,31.215,83.51,-7.0822,2.3607,-0.31607,-9.4429,-1.3634e-13,-0.15803,0,0,0.14286,-6.7671e-16,0,0.66667
0.32165,0.38164,2.2515,-0.17753,-10.301,169.62,1.0659,-0.35531,-1.8867,1.4212,-1.127e-12,-0.94336,0,0,0.14286,-6.7671e-16,0,0.66667
0.7802,0.66475,5.4614,0.24713,6.1891,22.803,-3.5992,1.1997,-1.7843,-4.7989,1.4234e-10,-0.89215,0,0,0.14286,-0,-0,0.66667
0.14579,0.21052,1.0205,-0.43423,-27.598,247.25,1.1817,-0.39389,-1.3285,1.5756,3.1956e-09,-0.66427,0,0,0.14286,-0,-0,0.66667
0.24488,0.48967,1.7142,-0.015494,-0.94254,202.62,0.070826,-0.023609,-1.9979,0.094434,-3.5041e-12,-0.99896,0,0,0.14286,-3.3835e-16,0,0.66667
0.29231,0.29424,2.0462,-0.30865,-18.292,182.12,1.6841,-0.56138,-1.6601,2.2455,-4.7637e-12,-0.83006,0,0,0.14286,6.7671e-16,0,0.66667
0.19593,0.96608,1.3715,0.69912,43.869,224.7,-2.5569,0.85232,-0.26147,-3.4093,4.0823e-10,-0.13073,0,0,0.14286,8.4588e-17,0,0.66667
0.087939,0.69379,0.61557,0.29068,18.7,273.84,-0.47716,0.15905,-1.6985,-0.63622,-1.0936e-08,-0.84927,0,0,0.14286,-0,-0,0.66667
0.86998,0.84083,6.0898,0.51125,7.9617,9.3935,-8.3025,2.7675,-1.0704,-11.07,7.1121e-09,-0.5352,0,0,0.14286,3.3835e-16,0,0.66667
0.088189,0.71431,0.61732,0.32146,20.686,273.73,-0.52918,0.17639,-1.6319,-0.70558,-1.5103e-08,-0.81594,0,0,0.14286,-0,-0,0.66667
0.68371,0.98802,4.786,0.73203,25.449,45.204,-9.3426,3.1142,-0.093962,-12.457,-3.3129e-13,-0.046981,0,0,0.14286,-6.7671e-16,0,0.66667
0.1204,0.8729,0.84281,0.55935,35.869,258.93,-1.2571,0.41904,-0.88764,-1.6762,-2.2766e-08,-0.44382,0,0,0.14286,-0,-0,0.66667
0.010699,0.77678,0.074893,0.41517,26.953,309.81,-0.082916,0.027638,-1.3867,-0.11055,-1.6603e-07,-0.69333,0,0,0.14286,1.0483e-18,0,0.66667
0.55727,0.74736,3.9009,0.37104,16.55,81.042,-3.8597,1.2866,-1.5102,-5.1463,-5.5511e-14,-0.75511,0,0,0.14286,1.0151e-15,0,0.66667
0.90711,0.68399,6.3498,0.27598,3.055,4.9601,-4.6731,1.5577,-1.7315,-6.2308,1.0541e-08,-0.86574,0,0,0.14286,-1.6918e-15,0,0.66667
0.86046,0.46222,6.0232,-0.056668,-0.9283,9.8835,0.9102,-0.3034,-1.9902,1.2136,1.5977e-09,-0.99511,0,0,0.14286,6.7671e-16,0,0.66667
0.33845,0.13298,2.3692,-0.55053,-31.7,162.89,3.4781,-1.1594,-0.92131,4.6375,2.1543e-12,-0.46065,0,0,0.14286,-0,-0,0.66667
0.027159,0.41957,0.19011,-0.12065,-7.8081,302.12,0.061165,-0.020389,-1.9473,0.081554,-1.6026e-07,-0.97364,0,0,0.14286,-0,-0,0.66667
0.80086,0.91678,5.606,0.62517,14.536,19.881,-9.3458,3.1153,-0.60961,-12.461,5.3416e-10,-0.30481,0,0,0.14286,-0,-0,0.66667
0.80598,0.82866,5.6419,0.49299,11.122,18.635,-7.4171,2.4724,-1.1341,-9.8895,3.9093e-10,-0.56703,0,0,0.14286,-0,-0,0.66667
0.86849,0.85845,6.0794,0.53768,8.4796,9.6483,-8.7167,2.9056,-0.97031,-11.622,1.1916e-09,-0.48516,0,0,0.14286,-0,-0,0.66667
0.66965,0.98154,4.6875,0.72232,25.999,48.777,-9.029,3.0097,-0.14512,-12.039,7.3097e-13,-0.072558,0,0,0.14286,-1.3534e-15,1.6362e-16,0.66667
0.80778,0.31826,5.6545,-0.27262,-6.0512,17.908,4.1107,-1.3702,-1.7352,5.4809,-5.4999e-10,-0.86758,0,0,0.14286,-0,-0,0.66667
0.8975,0.81972,6.2825,0.47957,5.9286,6.2995,-8.0345,2.6782,-1.1809,-10.713,1.7097e-08,-0.59045,0,0,0.14286,-0,-0,0.66667
0.45383,0.59213,3.1768,0.1382,7.0914,117.03,-1.1707,0.39024,-1.9349,-1.561,6.7613e-14,-0.96743,0,0,0.14286,6.7671e-16,0,0.66667
0.55783,0.037263,3.9048,-0.6941,-31.179,81.459,7.2275,-2.4092,-0.28639,9.6367,1.2292e-12,-0.14319,0,0,0.14286,-0,-1.1033e-16,0.66667
0.50613,0.7783,3.5429,0.41745,20.119,98.355,-3.944,1.3147,-1.3798,-5.2587,1.3034e-13,-0.6899,0,0,0.14286,-6.7671e-16,0,0.66667
0.69198,0.25839,4.8439,-0.36242,-12.178,42.271,4.6813,-1.5604,-1.5322,6.2418,7.0455e-12,-0.76609,0,0,0.14286,-0,-0,0.66667
0.68291,0.80952,4.7803,0.46427,16.02,44.726,-5.9184,1.9728,-1.2335,-7.8912,-4.7038e-12,-0.61675,0,0,0.14286,-1.6918e-16,0,0.66667
0.52031,0.51394,3.6422,0.020906,0.98391,93.163,-0.20305,0.067684,-1.9972,-0.27074,-1.1931e-12,-0.9986,0,0,0.14286,2.7068e-15,0,0.66667
0.82847,0.8045,5.7993,0.45675,9.1918,14.926,-7.0636,2.3545,-1.2604,-9.4181,7.1215e-10,-0.63019,0,0,0.14286,-1.3534e-15,0,0.66667
0.50578,0.61833,3.5405,0.1775,8.5321,98.254,-1.6758,0.55859,-1.8869,-2.2344,6.8001e-13,-0.94346,0,0,0.14286,6.7671e-16,0,0.66667
0.82486,0.461,5.774,-0.058505,-1.1877,14.955,0.90083,-0.30028,-1.9877,1.2011,-3.479e-10,-0.99386,0,0,0.14286,6.7671e-16,0,0.66667
0.28185,0.84183,1.9729,0.51274,30.679,186.76,-2.6976,0.8992,-1.068,-3.5968,1.3074e-11,-0.53402,0,0,0.14286,-1.2688e-16,0,0.66667
0.17849,0.86814,1.2495,0.55221,34.781,232.44,-1.8399,0.6133,-0.91452,-2.4532,-1.2202e-09,-0.45726,0,0,0.14286,1.0569e-16,0,0.66667
0.96987,0.034845,6.7891,-0.69773,-2.6508,2.1787,12.632,-4.2106,-0.27111,16.843,1.7331e-05,-0.13555,0,0,0.14286,-0,-0,0.66667
0.74194,0.28037,5.1936,-0.32945,-9.5205,30.646,4.5627,-1.5209,-1.6137,6.0836,-2.0259e-12,-0.80686,0,0,0.14286,1.7467e-15,0,0.66667
0.25979,0.94876,1.8185,0.67314,40.934,196.46,-3.2644,1.0881,-0.3874,-4.3525,-1.5286e-12,-0.1937,0,0,0.14286,-0,-0,0.66667
0.58124,0.77911,4.0686,0.41866,17.944,73.474,-4.5424,1.5141,-1.3776,-6.0565,4.6807e-13,-0.6888,0,0,0.14286,1.6918e-16,0,0.66667
0.95526,0.45898,6.6868,-0.06153,-0.31599,1.3566,1.0972,-0.36573,-1.987,1.4629,4.3772e-07,-0.99349,0,0,0.14286,-1.3534e-15,0,0.66667
0.080754,0.12323,0.56528,-0.56515,-36.54,277.23,0.85191,-0.28397,-0.86558,1.1359,1.2097e-08,-0.43279,0,0,0.14286,6.3441e-17,0,0.66667
0.083534,0.64099,0.58474,0.21149,13.607,275.87,-0.32978,0.10993,-1.8394,-0.43971,-1.6328e-09,-0.91972,0,0,0.14286,1.6918e-16,0,0.66667
0.61913,0.73643,4.3339,0.35464,14.128,61.937,-4.0987,1.3662,-1.5512,-5.4649,-4.0012e-13,-0.7756,0,0,0.14286,-0,-0,0.66667
0.22449,0.55256,1.5715,0.078845,4.8461,211.64,-0.3304,0.11013,-1.9765,-0.44054,-4.7093e-11,-0.98825,0,0,0.14286,-0,-0,0.66667
0.76518,0.56241,5.3563,0.093611,2.4813,25.592,-1.3371,0.4457,-1.9722,-1.7828,4.3916e-11,-0.98609,0,0,0.14286,1.586e-15,0,0.66667
0.56815,0.94366,3.9771,0.66549,29.361,78.077,-7.0578,2.3526,-0.42437,-9.4105,1.4508e-12,-0.21218,0,0,0.14286,-1.3534e-15,0,0.66667
0.66619,0.25035,4.6633,-0.37448,-13.444,48.891,4.6568,-1.5523,-1.5014,6.2091,5.2731e-12,-0.75071,0,0,0.14286,-2.7068e-15,0,0.66667
0.10781,0.23544,0.7547,-0.39683,-25.458,264.67,0.79864,-0.26621,-1.4407,1.0648,1.3925e-08,-0.72037,0,0,0.14286,-0,-0,0.66667
0.084283,0.89781,0.58998,0.59672,38.581,275.61,-0.93881,0.31294,-0.7326,-1.2517,6.9478e-08,-0.3663,0,0,0.14286,8.4588e-17,0,0.66667
0.62512,0.98917,4.3758,0.73376,29.187,61.004,-8.5621,2.854,-0.087824,-11.416,7.9048e-14,-0.043912,0,0,0.14286,-0,-0,0.66667
0.40973,0.45098,2.8681,-0.073524,-3.9547,133.85,0.56233,-0.18744,-1.9801,0.74978,1.5865e-12,-0.99007,0,0,0.14286,-0,-0,0.66667
0.087253,0.96616,0.61077,0.69923,45.282,274.27,-1.1389,0.37962,-0.26099,-1.5185,7.5262e-07,-0.13049,0,0,0.14286,4.6848e-18,0,0.66667
0.37106,0.93628,2.5974,0.65442,36.777,149.71,-4.5328,1.5109,-0.47782,-6.0438,2.6739e-12,-0.23891,0,0,0.14286,8.0359e-16,1.5621e-16,0.66667
0.67214,0.63611,4.705,0.20417,7.2024,47.124,-2.5616,0.85387,-1.8538,-3.4155,-3.5476e-12,-0.92688,0,0,0.14286,-0,-0,0.66667
0.18959,0.13587,1.3271,-0.54619,-34.252,227.44,1.9329,-0.64432,-0.9397,2.5773,3.0022e-10,-0.46985,0,0,0.14286,-0,-0,0.66667
0.89573,0.64069,6.2701,0.21103,2.612,5.9576,-3.5285,1.1762,-1.8402,-4.7046,9.4692e-09,-0.92012,0,0,0.14286,-1.3534e-15,0,0.66667
0.94985,0.518,6.6489,0.026995,0.15675,1.6307,-0.47864,0.15955,-1.9969,-0.63818,-1.376e-08,-0.99845,0,0,0.14286,-0,-0,0.66667
0.96157,0.58244,6.731,0.12366,0.53883,1.0935,-2.2197,0.7399,-1.9439,-2.9596,3.5296e-08,-0.97194,0,0,0.14286,-1.3534e-15,0,0.66667
0.73008,0.1254,5.1106,-0.5619,-17,33.715,7.6577,-2.5526,-0.87792,10.21,6.7493e-12,-0.43896,0,0,0.14286,-0,-0,0.66667
0.40629,0.42644,2.844,-0.11034,-5.956,135.21,0.83683,-0.27894,-1.9589,1.1158,6.1179e-13,-0.97945,0,0,0.14286,-0,-0,0.66667
0.74375,0.13895,5.2062,-0.54158,-15.659,30.685,7.5189,-2.5063,-0.9554,10.025,8.8103e-12,-0.4777,0,0,0.14286,-0,-0,0.66667
0.28799,0.83096,2.0159,0.49643,29.581,184.11,-2.6687,0.88957,-1.122,-3.5583,7.1116e-12,-0.56099,0,0,0.14286,-0,-0,0.66667
0.31442,0.091493,2.2009,-0.61276,-35.957,173,3.5964,-1.1988,-0.6666,4.7952,-5.9397e-13,-0.3333,0,0,0.14286,4.2294e-16,0,0.66667
0.6059,0.17256,4.2413,-0.49116,-20.145,66.064,5.555,-1.8517,-1.1416,7.4067,7.9847e-13,-0.5708,0,0,0.14286,-0,-0,0.66667
0.59485,0.28744,4.1639,-0.31884,-13.308,69.138,3.5403,-1.1801,-1.6402,4.7205,8.3111e-13,-0.82011,0,0,0.14286,-1.3534e-15,0,0.66667
0.87866,0.75332,6.1506,0.37999,5.4944,8.059,-6.2324,2.0775,-1.4869,-8.3099,8.6991e-09,-0.74345,0,0,0.14286,-2.7068e-15,0,0.66667
0.2546,0.31942,1.7822,-0.27088,-16.413,198.42,1.2873,-0.42912,-1.7384,1.7165,7.6356e-12,-0.86921,0,0,0.14286,-0,-0,0.66667
0.76619,0.078077,5.3633,-0.63289,-16.969,26.326,9.0516,-3.0172,-0.57738,12.069,-3.9878e-11,-0.28869,0,0,0.14286,-0,-0,0.66667
0.94101,0.51154,6.5871,0.017305,0.11935,2.1458,-0.30397,0.10132,-1.9984,-0.40529,-5.5494e-07,-0.99918,0,0,0.14286,-0,-0,0.66667
0.0010329,0.5002,0.0072305,0.00029469,0.019081,314.32,-5.7025e-06,5.1499e-05,-2.0028,1.7195e-05,7.4397e-05,-1.0014,0,0,0.14286,-0,-0,0.66667
0.47609,0.0022496,3.3326,-0.74663,-37.719,109.63,6.6353,-2.2118,-0.017325,8.847,-5.7909e-13,-0.0086624,0,0,0.14286,-0,-0,0.66667
0.65704,0.39292,4.5993,-0.16062,-5.8743,51.096,1.97,-0.65667,-1.9096,2.6267,2.4625e-12,-0.95481,0,0,0.14286,6.7671e-16,0,0.66667
0.84332,0.68375,5.9033,0.27563,5.0617,12.393,-4.339,1.4463,-1.7325,-5.7853,2.3103e-09,-0.86627,0,0,0.14286,3.3835e-16,0,0.66667
0.18374,0.3694,1.2862,-0.19589,-12.26,229.92,0.67187,-0.22396,-1.8634,0.89583,5.4184e-10,-0.93172,0,0,0.14286,2.5377e-16,0,0.66667
0.85616,0.21676,5.9931,-0.42486,-7.2427,10.916,6.79,-2.2633,-1.359,9.0533,-3.4916e-09,-0.67949,0,0,0.14286,-1.8609e-15,0,0.66667
0.36437,0.2435,2.5506,-0.38475,-21.635,152.1,2.6169,-0.8723,-1.4729,3.4892,6.3349e-13,-0.73643,0,0,0.14286,3.3835e-16,0,0.66667
0.89227,0.051908,6.2459,-0.67214,-8.8743,7.4391,11.195,-3.7317,-0.39447,14.927,7.4263e-08,-0.19724,0,0,0.14286,-0,-0,0.66667
0.027712,0.30475,0.19398,-0.29288,-18.975,301.87,0.1515,-0.050501,-1.6947,0.202,-9.031e-08,-0.84737,0,0,0.14286,2.1147e-17,0,0.66667
0.08539,0.79016,0.59773,0.43524,28.06,275.05,-0.69375,0.23125,-1.3249,-0.925,-2.4416e-08,-0.66245,0,0,0.14286,-0,-0,0.66667
0.98141,0.81811,6.8699,0.47717,0.9826,1.0366,-8.7416,2.9139,-1.1908,-11.655,-4.4478e-07,-0.59538,0,0,0.14286,-0,-0,0.66667
0.6095,0.99872,4.2665,0.74808,30.716,65.594,-8.5112,2.8371,-0.013637,-11.348,1.1013e-12,-0.0068184,0,0,0.14286,-1.5226e-15,0,0.66667
0.41763,0.48497,2.9234,-0.022552,-1.2033,130.77,0.17581,-0.058604,-1.9971,0.23442,9.0675e-13,-0.99856,0,0,0.14286,-0,-0,0.66667
0.16921,0.92122,1.1845,0.63183,39.991,236.69,-1.9957,0.66525,-0.58043,-2.661,-5.988e-10,-0.29021,0,0,0.14286,-0,-0,0.66667
0.6499,0.91786,4.5493,0.62678,23.544,53.779,-7.6038,2.5346,-0.60153,-10.138,-2.0606e-13,-0.30076,0,0,0.14286,-0,-0,0.66667
0.036975,0.71269,0.25883,0.31903,20.662,297.55,-0.22019,0.073398,-1.6371,-0.29359,8.9763e-08,-0.81857,0,0,0.14286,-6.3441e-17,0,0.66667
0.31161,0.23791,2.1813,-0.39314,-23.025,173.97,2.2868,-0.76227,-1.4518,3.0491,-4.2366e-12,-0.72589,0,0,0.14286,-0,-0,0.66667
0.32348,0.62892,2.2644,0.19338,11.207,168.86,-1.1677,0.38924,-1.8667,-1.5569,4.6745e-12,-0.93337,0,0,0.14286,6.7671e-16,0,0.66667
0.60744,0.66326,4.2521,0.2449,9.9685,65.26,-2.7769,0.92562,-1.7876,-3.7025,-6.0463e-13,-0.89382,0,0,0.14286,-0,-0,0.66667
0.65083,0.04386,4.5558,-0.68421,-25.7,53.678,8.3124,-2.7708,-0.33403,11.083,4.7962e-14,-0.16702,0,0,0.14286,-0,-0,0.66667
0.84605,0.47027,5.9224,-0.044588,-0.80196,11.814,0.70418,-0.23473,-1.9944,0.93891,-2.6416e-09,-0.9972,0,0,0.14286,-0,-0,0.66667
0.92758,0.47058,6.4931,-0.044137,-0.37688,3.0643,0.76423,-0.25474,-1.9928,1.019,1.4604e-07,-0.9964,0,0,0.14286,-0,-0,0.66667
0.66046,0.88105,4.6232,0.57157,20.914,50.796,-7.0467,2.3489,-0.83801,-9.3956,-1.0125e-12,-0.419,0,0,0.14286,-0,-0,0.66667
0.57817,0.20679,4.0472,-0.43982,-18.961,74.465,4.7468,-1.5823,-1.3143,6.329,-4.6674e-13,-0.65717,0,0,0.14286,6.7671e-16,0,0.66667
0.39872,0.31854,2.791,-0.27219,-14.818,138.26,2.0258,-0.67527,-1.7353,2.7011,1.8083e-12,-0.86766,0,0,0.14286,1.3534e-15,0,0.66667
0.96661,0.9752,6.7663,0.7128,3.0175,2.3632,-12.861,4.2871,-0.19428,-17.149,-3.015e-06,-0.09714,0,0,0.14286,2.7068e-15,0,0.66667
0.15408,0.1192,1.0786,-0.5712,-36.292,243.53,1.6428,-0.54762,-0.84079,2.1905,3.8257e-09,-0.4204,0,0,0.14286,-0,-2.1449e-16,0.66667
0.89509,0.2356,6.2656,-0.39661,-4.9851,6.3361,6.6266,-2.2089,-1.4396,8.8355,-1.5691e-08,-0.71978,0,0,0.14286,-0,-0,0.66667
0.31101,0.59706,2.1771,0.1456,8.5105,174.09,-0.84527,0.28176,-1.9264,-1.127,6.4652e-12,-0.9632,0,0,0.14286,-0,-0,0.66667
0.54849,0.67908,3.8394,0.26862,12.134,83.802,-2.7503,0.91676,-1.7444,-3.6671,-8.32e-13,-0.87221,0,0,0.14286,6.7671e-16,0,0.66667
0.68207,0.7577,4.7745,0.38655,13.34,44.799,-4.9215,1.6405,-1.4676,-6.562,-5.7785e-12,-0.73382,0,0,0.14286,-0,-0,0.66667
0.23647,0.16106,1.6553,-0.5084,-31.198,206.52,2.2441,-0.74805,-1.082,2.9922,3.0758e-11,-0.54102,0,0,0.14286,-6.7671e-16,0,0.66667
0.16774,0.67084,1.1742,0.25626,16.139,237.18,-0.80238,0.26746,-1.7655,-1.0698,-1.4279e-09,-0.88275,0,0,0.14286,-0,-0,0.66667
0.50848,0.47845,3.5594,-0.032325,-1.547,97.261,0.30682,-0.10227,-1.9947,0.40909,-1.8799e-13,-0.99733,0,0,0.14286,-0,-0,0.66667
0.79186,0.48576,5.543,-0.021359,-0.50799,20.503,0.31572,-0.10524,-1.997,0.42096,-2.0394e-11,-0.9985,0,0,0.14286,1.3534e-15,0,0.66667
0.69241,0.62988,4.8469,0.19482,6.5199,41.964,-2.5181,0.83936,-1.8645,-3.3574,-6.191e-12,-0.93225,0,0,0.14286,-0,-0,0.66667
0.11897,0.57724,0.83281,0.11586,7.3967,259.48,-0.25732,0.085772,-1.9506,-0.34309,-6.2405e-10,-0.97529,0,0,0.14286,-0,-0,0.66667
0.90074,0.34296,6.3052,-0.23556,-2.7796,5.4964,3.9606,-1.3202,-1.8027,5.2808,-7.296e-09,-0.90135,0,0,0.14286,-0,-0,0.66667
0.47974,0.87081,3.3582,0.55622,27.83,107.94,-4.981,1.6603,-0.89967,-6.6413,-2.3355e-12,-0.44983,0,0,0.14286,9.6077e-16,0,0.66667
0.94668,0.024201,6.6267,-0.7137,-4.8008,3.3062,12.612,-4.204,-0.18766,16.816,2.7877e-06,-0.093828,0,0,0.14286,-0,-0,0.66667
0.55343,0.97461,3.874,0.71192,32.225,82.927,-7.3547,2.4516,-0.1968,-9.8063,-8.0869e-13,-0.098401,0,0,0.14286,1.3534e-15,0,0.66667
0.084802,0.096035,0.59361,-0.60595,-39.181,275.37,0.9592,-0.31973,-0.69393,1.2789,-1.0681e-07,-0.34696,0,0,0.14286,-0,-0,0.66667
0.20246,0.23104,1.4172,-0.40343,-25.11,221.57,1.5247,-0.50823,-1.4228,2.0329,3.1012e-10,-0.71141,0,0,0.14286,-3.3835e-16,0,0.66667
0.85424,0.84177,5.9797,0.51266,8.8932,11.389,-8.1747,2.7249,-1.0654,-10.9,8.1153e-10,-0.5327,0,0,0.14286,1.6918e-16,0,0.66667
0.70593,0.004859,4.9415,-0.74271,-24.334,39.8,9.7869,-3.2623,-0.039235,13.049,3.5847e-12,-0.019618,0,0,0.14286,-0,-0,0.66667
0.89494,0.46809,6.2646,-0.047868,-0.59479,5.9193,0.79965,-0.26655,-1.9923,1.0662,3.2574e-08,-0.99616,0,0,0.14286,1.8609e-15,0,0.66667
0.32915,0.75698,2.304,0.38547,22.29,166.6,-2.3684,0.78946,-1.4733,-3.1578,4.5348e-12,-0.73666,0,0,0.14286,-0,-0,0.66667
0.528,0.79567,3.696,0.44351,20.73,90.86,-4.3713,1.4571,-1.3001,-5.8284,4.5519e-13,-0.65004,0,0,0.14286,-0,-0,0.66667
0.6504,0.75362,4.5528,0.38043,14.176,53.142,-4.6187,1.5396,-1.4848,-6.1583,-3.4293e-12,-0.74239,0,0,0.14286,2.7068e-15,0,0.66667
0.59429,0.13512,4.16,-0.54731,-22.98,69.674,6.0716,-2.0239,-0.93669,8.0955,7.403e-13,-0.46834,0,0,0.14286,-0,-0,0.66667
0.23146,0.73631,1.6202,0.35447,21.757,208.64,-1.5315,0.51051,-1.5529,-2.042,-5.085e-11,-0.77647,0,0,0.14286,-0,-0,0.66667
0.42682,0.53126,2.9877,0.046883,2.4778,127.23,-0.37354,0.12451,-1.9925,-0.49805,-9.3189e-13,-0.99627,0,0,0.14286,-0,-0,0.66667
0.24811,0.18445,1.7368,-0.47333,-28.854,201.38,2.1922,-0.73073,-1.2049,2.9229,2.5724e-11,-0.60245,0,0,0.14286,4.1181e-16,0,0.66667
0.84561,0.17353,5.9193,-0.4897,-8.9523,12.501,7.7298,-2.5766,-1.1478,10.306,-1.5336e-09,-0.57389,0,0,0.14286,1.3534e-15,0,0.66667
0.98668,0.11002,6.9067,-0.58498,-0.87789,1.2633,10.774,-3.5914,-0.78339,14.365,-1.6719e-06,-0.39169,0,0,0.14286,-0,-0,0.66667
0.066571,0.30555,0.466,-0.29168,-18.827,283.76,0.36246,-0.12082,-1.697,0.48327,-9.5948e-10,-0.84852,0,0,0.14286,8.4588e-17,0,0.66667
0.71393,0.62743,4.9975,0.19115,6.019,36.776,-2.5474,0.84914,-1.87,-3.3966,-6.0876e-12,-0.93499,0,0,0.14286,-0,-0,0.66667
0.33012,0.37162,2.3108,-0.19257,-11.105,166.08,1.1867,-0.39556,-1.8695,1.5822,-2.1677e-12,-0.93475,0,0,0.14286,3.3835e-16,0,0.66667
0.62544,0.072902,4.378,-0.64065,-25.382,60.665,7.4794,-2.4931,-0.54255,9.9726,1.3678e-13,-0.27127,0,0,0.14286,-0,-0,0.66667
0.25813,0.57542,1.8069,0.11313,6.8344,196.83,-0.54512,0.18171,-1.9527,-0.72683,-2.2041e-12,-0.97633,0,0,0.14286,-0,-0,0.66667
0.65101,0.80118,4.5571,0.45176,16.838,53.096,-5.4899,1.83,-1.273,-7.3199,-1.648e-12,-0.6365,0,0,0.14286,-0,-0,0.66667
0.37115,0.73905,2.598,0.35858,20.039,149.33,-2.4843,0.82809,-1.5421,-3.3124,1.5112e-12,-0.77105,0,0,0.14286,3.3835e-16,0,0.66667
0.29482,0.13208,2.0637,-0.55189,-32.775,181.24,3.0372,-1.0124,-0.91784,4.0496,-3.1881e-12,-0.45892,0,0,0.14286,-0,-1.0123e-16,0.66667
0.91176,0.66366,6.3823,0.24549,2.5777,4.5019,-4.1782,1.3927,-1.7846,-5.5709,1.2044e-08,-0.89232,0,0,0.14286,-0,-0,0.66667
0.9425,0.05954,6.5975,-0.66069,-4.735,3.3333,11.624,-3.8746,-0.4477,15.498,1.3804e-07,-0.22385,0,0,0.14286,-1.4127e-15,0,0.66667
0.61355,0.56185,4.2949,0.092771,3.7261,63.35,-1.0625,0.35417,-1.9699,-1.4167,-1.0192e-13,-0.98497,0,0,0.14286,1.2688e-16,0,0.66667
0.21447,0.81936,1.5013,0.47905,29.693,216.25,-1.9178,0.63927,-1.1835,-2.5571,-1.4403e-10,-0.59175,0,0,0.14286,-6.7671e-16,0,0.66667
0.93942,0.099735,6.5759,-0.6004,-4.4829,3.2988,10.528,-3.5095,-0.71933,14.038,3.1308e-07,-0.35966,0,0,0.14286,-0,-0,0.66667
0.75045,0.25306,5.2532,-0.3704,-10.408,28.906,5.1888,-1.7296,-1.5149,6.9184,-1.2673e-11,-0.75746,0,0,0.14286,-0,-0,0.66667
0.75109,0.39933,5.2576,-0.151,-4.2155,28.505,2.1171,-0.70571,-1.9205,2.8228,-1.9019e-11,-0.96026,0,0,0.14286,1.3534e-15,0,0.66667
0.21172,0.16181,1.482,-0.50729,-31.497,217.49,2.0049,-0.66829,-1.0839,2.6732,-4.9749e-11,-0.54193,0,0,0.14286,-0,-0,0.66667
0.83016,0.75935,5.8111,0.38903,7.7346,14.521,-6.0285,2.0095,-1.4625,-8.0379,1.3083e-09,-0.73123,0,0,0.14286,-0,-0,0.66667
0.2401,0.054716,1.6807,-0.66793,-41.042,205.06,2.9935,-0.99783,-0.4126,3.9913,6.8265e-12,-0.2063,0,0,0.14286,-1.9619e-16,0,0.66667
0.63162,0.51658,4.4213,0.024872,0.96219,58.095,-0.29324,0.097747,-1.996,-0.39099,5.0945e-13,-0.998,0,0,0.14286,-0,-0,0.66667
0.71074,0.039451,4.9752,-0.69082,-22.273,38.5,9.1652,-3.0551,-0.30165,12.22,1.7408e-13,-0.15082,0,0,0.14286,-0,-0,0.66667
0.74238,0.0051089,5.1967,-0.74234,-21.761,31.573,10.287,-3.4291,-0.03954,13.716,1.2957e-11,-0.01977,0,0,0.14286,-0,-0,0.66667
0.39026,0.51603,2.7319,0.024048,1.3178,141.52,-0.17519,0.058397,-1.9997,-0.23359,1.1333e-12,-0.99984,0,0,0.14286,-0,-0,0.66667
0.75983,0.1383,5.3188,-0.54255,-14.831,27.346,7.6952,-2.5651,-0.95178,10.26,-1.5804e-11,-0.47589,0,0,0.14286,-0,-0,0.66667
0.90294,0.30782,6.3206,-0.28827,-3.3354,5.3653,4.8587,-1.6196,-1.7048,6.4783,-1.24e-08,-0.8524,0,0,0.14286,1.6918e-15,0,0.66667
0.58742,0.1235,4.1119,-0.56475,-24.022,71.816,6.1925,-2.0642,-0.86564,8.2567,2.9088e-13,-0.43282,0,0,0.14286,7.613e-16,0,0.66667
0.09041,0.72567,0.63287,0.3385,21.777,272.71,-0.57127,0.19042,-1.5925,-0.76169,-1.67e-08,-0.79627,0,0,0.14286,-1.6918e-16,0,0.66667
0.12898,0.73047,0.90283,0.3457,22.051,254.92,-0.83229,0.27743,-1.5743,-1.1097,-6.3713e-09,-0.78713,0,0,0.14286,-0,-0,0.66667
0.10526,0.92111,0.73684,0.63166,40.704,265.93,-1.2412,0.41372,-0.58035,-1.6549,6.0691e-08,-0.29017,0,0,0.14286,-0,-0,0.66667
0.17273,0.0034784,1.2091,-0.74478,-47.201,235.18,2.4014,-0.80045,-0.030029,3.2018,2.7447e-10,-0.015014,0,0,0.14286,-0,-0,0.66667
0.12643,0.37235,0.88502,-0.19148,-12.206,256.05,0.45191,-0.15064,-1.8716,0.60254,3.9484e-09,-0.93579,0,0,0.14286,-2.5377e-16,0,0.66667
0.7783,0.32348,5.4481,-0.26478,-6.6848,23.185,3.8468,-1.2823,-1.7505,5.129,-1.2169e-10,-0.87526,0,0,0.14286,-0,-0,0.66667
0.039412,0.10507,0.27588,-0.59239,-38.513,296.44,0.43581,-0.14527,-0.75048,0.58109,1.3623e-06,-0.37524,0,0,0.14286,-0,-0,0.66667
0.24156,0.083162,1.6909,-0.62526,-38.355,204.38,2.8193,-0.93978,-0.60827,3.7591,-1.3281e-11,-0.30414,0,0,0.14286,-0,-0,0.66667
0.87907,0.67981,6.1535,0.26972,3.8674,7.817,-4.4259,1.4753,-1.7408,-5.9012,7.1174e-09,-0.8704,0,0,0.14286,-6.7671e-16,0,0.66667
0.97352,0.082767,6.8146,-0.62585,-2.026,1.7668,11.373,-3.7911,-0.60619,15.164,4.7383e-06,-0.30309,0,0,0.14286,-0,-0,0.66667
0.60542,0.22161,4.238,-0.41759,-17.114,66.079,4.7192,-1.5731,-1.3802,6.2923,-2.1805e-13,-0.6901,0,0,0.14286,-0,-0,0.66667
0.97624,0.70405,6.8337,0.30608,0.79023,0.77634,-5.5777,1.8592,-1.665,-7.437,-9.007e-08,-0.8325,0,0,0.14286,1.9732e-16,0,0.66667
0.043452,0.4648,0.30416,-0.052801,-3.4125,294.52,0.042827,-0.014276,-1.9904,0.057102,-7.5292e-07,-0.9952,0,0,0.14286,8.4588e-17,0,0.66667
0.94857,0.022026,6.64,-0.71696,-4.6579,3.2158,12.695,-4.2317,-0.1714,16.927,7.6081e-07,-0.085701,0,0,0.14286,-1.3534e-15,2.2483e-16,0.66667
0.3113,0.94095,2.1791,0.66142,38.94,174.37,-3.8434,1.2811,-0.44651,-5.1246,4.9087e-12,-0.22325,0,0,0.14286,-0,6.6438e-17,0.66667
0.79897,0.10573,5.5928,-0.5914,-13.843,20.106,8.8203,-2.9401,-0.75675,11.76,-2.9907e-10,-0.37837,0,0,0.14286,-0,-0,0.66667
0.81063,0.70618,5.6744,0.30926,6.7782,17.484,-4.6797,1.5599,-1.6604,-6.2396,6.3799e-10,-0.8302,0,0,0.14286,-1.3534e-15,0,0.66667
0.86,0.018908,6.02,-0.72164,-12.246,11.327,11.585,-3.8616,-0.14996,15.446,-4.1324e-09,-0.074979,0,0,0.14286,2.7068e-15,0,0.66667
0.45855,0.92955,3.2099,0.64433,33.146,115.84,-5.5152,1.8384,-0.52277,-7.3536,-4.5297e-13,-0.26139,0,0,0.14286,-6.7671e-16,0,0.66667
0.93064,0.47833,6.5145,-0.032503,-0.26542,2.8398,0.56465,-0.18822,-1.9947,0.75286,-2.0861e-08,-0.99733,0,0,0.14286,-0,-0,0.66667
0.25789,0.0080365,1.8053,-0.73795,-44.992,197.36,3.5525,-1.1842,-0.06228,4.7366,-9.8994e-12,-0.03114,0,0,0.14286,-0,-0,0.66667
0.93445,0.98795,6.5411,0.73192,6.0436,4.1299,-12.767,4.2556,-0.094925,-17.023,-1.2626e-07,-0.047462,0,0,0.14286,-1.3534e-15,0,0.66667
0.61912,0.65454,4.3338,0.2318,9.2171,61.803,-2.6789,0.89297,-1.8087,-3.5719,-1.7208e-13,-0.90433,0,0,0.14286,-1.6918e-16,0,0.66667
0.98544,0.82198,6.8981,0.48298,0.74695,0.95589,-8.8843,2.9614,-1.1719,-11.846,-1.0905e-07,-0.58597,0,0,0.14286,-0,-0,0.66667
0.032644,0.10689,0.22851,-0.58967,-38.353,299.59,0.35932,-0.11977,-0.76453,0.47909,-4.7924e-07,-0.38227,0,0,0.14286,-0,-0,0.66667
0.72517,0.34428,5.0762,-0.23358,-7.1126,34.228,3.1619,-1.054,-1.8058,4.2159,4.7784e-12,-0.90291,0,0,0.14286,-0,-0,0.66667
0.56555,0.20203,3.9589,-0.44696,-19.693,78.478,4.7186,-1.5729,-1.2893,6.2914,3.3884e-13,-0.64464,0,0,0.14286,-0,-0,0.66667
0.49242,0.65104,3.447,0.22656,11.093,103,-2.0826,0.69419,-1.8164,-2.7767,-1.2079e-13,-0.90818,0,0,0.14286,1.0151e-15,0,0.66667
0.25922,0.49867,1.8145,-0.0020014,-0.1208,196.34,0.0096843,-0.0032281,-1.9996,0.012912,2.4156e-12,-0.99982,0,0,0.14286,-1.2688e-16,0,0.66667
0.32683,0.52068,2.2878,0.031027,1.7925,167.42,-0.18929,0.063097,-1.9976,-0.25239,2.3042e-12,-0.99882,0,0,0.14286,-0,-0,0.66667
0.24946,0.52909,1.7462,0.04363,2.6477,200.61,-0.20317,0.067722,-1.9961,-0.27089,-4.7619e-12,-0.99803,0,0,0.14286,3.3835e-16,0,0.66667
0.21927,0.23406,1.5349,-0.39891,-24.642,214.07,1.6327,-0.54424,-1.4358,2.177,1.1494e-10,-0.7179,0,0,0.14286,3.3835e-16,0,0.66667
0.79966,0.25893,5.5976,-0.3616,-8.3558,19.442,5.3976,-1.7992,-1.5352,7.1968,-3.2262e-10,-0.76758,0,0,0.14286,1.3534e-15,0,0.66667
0.5024,0.67891,3.5168,0.26836,12.971,99.505,-2.5167,0.8389,-1.7443,-3.3556,-5.2824e-13,-0.87215,0,0,0.14286,-0,-0,0.66667
0.08319,0.23104,0.58233,-0.40344,-26.009,276.06,0.6265,-0.20883,-1.42,0.83533,2.2843e-08,-0.70998,0,0,0.14286,-0,-0,0.66667
0.77698,0.10713,5.4389,-0.5893,-15.126,24.106,8.547,-2.849,-0.76421,11.396,-2.672e-11,-0.38211,0,0,0.14286,-1.3534e-15,0,0.66667
0.53365,0.54138,3.7355,0.062073,2.8646,88.632,-0.61834,0.20611,-1.9865,-0.82445,-1.4114e-12,-0.99326,0,0,0.14286,1.3534e-15,0,0.66667
0.73939,0.45409,5.1757,-0.068865,-1.9997,30.958,0.95047,-0.31682,-1.9818,1.2673,-1.1756e-12,-0.99088,0,0,0.14286,-0,-0,0.66667
0.51539,0.29858,3.6078,-0.30214,-14.348,95.004,2.9067,-0.96892,-1.6773,3.8757,1.763e-13,-0.83865,0,0,0.14286,-0,-0,0.66667
0.39995,0.87552,2.7996,0.56327,30.771,138.08,-4.2052,1.4017,-0.87175,-5.6069,-9.9654e-13,-0.43588,0,0,0.14286,1.3534e-15,0,0.66667
0.98625,0.67703,6.9037,0.26555,0.33845,0.43883,-4.8887,1.6296,-1.7499,-6.5183,5.0937e-08,-0.87494,0,0,0.14286,-0,-0,0.66667
0.028243,0.26881,0.1977,-0.34679,-22.48,301.62,0.18283,-0.060942,-1.5721,0.24377,-1.5652e-07,-0.78604,0,0,0.14286,4.2294e-17,0,0.66667
0.93276,0.78051,6.5293,0.42076,3.4042,3.2017,-7.3262,2.4421,-1.3708,-9.7682,4.2681e-08,-0.68539,0,0,0.14286,-5.0753e-16,0,0.66667
0.93085,0.95752,6.516,0.68628,5.921,4.1858,-11.925,3.9749,-0.32375,-15.9,1.0593e-06,-0.16187,0,0,0.14286,-0,-0,0.66667
0.39092,0.035116,2.7364,-0.69733,-38.541,141.85,5.0885,-1.6962,-0.27382,6.7847,3.868e-12,-0.13691,0,0,0.14286,-0,-0,0.66667
0.21446,0.23879,1.5013,-0.39182,-24.255,216.2,1.5686,-0.52286,-1.4532,2.0914,1.519e-10,-0.7266,0,0,0.14286,-3.3835e-16,0,0.66667
0.61921,0.54579,4.3345,0.068688,2.7272,61.681,-0.79394,0.26465,-1.9816,-1.0586,-2.0423e-13,-0.9908,0,0,0.14286,-0,-0,0.66667
0.17797,0.027285,1.2458,-0.70907,-44.815,232.79,2.3556,-0.78522,-0.21157,3.1409,4.7027e-10,-0.10578,0,0,0.14286,-1.6918e-16,0,0.66667
0.80321,0.82878,5.6225,0.49317,11.27,19.109,-7.3941,2.4647,-1.1335,-9.8589,3.6135e-10,-0.56675,0,0,0.14286,-0,-0,0.66667
0.25393,0.60618,1.7775,0.15928,9.6464,198.67,-0.75499,0.25166,-1.909,-1.0067,-4.6007e-12,-0.95448,0,0,0.14286,-0,-0,0.66667
0.29081,0.30107,2.0356,-0.2984,-17.7,182.76,1.6198,-0.53994,-1.6818,2.1598,-4.0914e-12,-0.84092,0,0,0.14286,-3.3835e-16,0,0.66667
0.91592,0.45719,6.4114,-0.064211,-0.63864,3.9884,1.0978,-0.36594,-1.9838,1.4638,-2.4108e-08,-0.99189,0,0,0.14286,-1.3534e-15,0,0.66667
0.90292,0.17205,6.3204,-0.49192,-5.7738,5.8134,8.291,-2.7637,-1.139,11.055,-2.2811e-08,-0.56951,0,0,0.14286,-1.0693e-15,0,0.66667
0.53538,0.76354,3.7477,0.39531,18.258,88.303,-3.9506,1.3169,-1.4434,-5.2675,6.9722e-14,-0.7217,0,0,0.14286,-0,-0,0.66667
0.86284,0.96779,6.0399,0.70169,11.662,10.892,-11.302,3.7672,-0.25022,-15.069,1.2938e-08,-0.12511,0,0,0.14286,1.5226e-15,0,0.66667
0.35253,0.057412,2.4677,-0.66388,-37.899,157.25,4.3688,-1.4563,-0.43186,5.825,3.7645e-12,-0.21593,0,0,0.14286,-3.3835e-16,0,0.66667
0.99788,0.27712,6.9852,-0.33433,0.063954,0.37006,6.2276,-2.0759,-1.6037,8.3034,-2.3782e-07,-0.80186,0,0,0.14286,-1.3534e-15,-2.0506e-16,0.66667
0.43369,0.56475,3.0358,0.097129,5.0965,124.61,-0.78631,0.2621,-1.9669,-1.0484,-4.7834e-13,-0.98343,0,0,0.14286,1.3534e-15,0,0.66667
0.29481,0.87567,2.0637,0.5635,33.472,181.25,-3.101,1.0337,-0.87282,-4.1347,6.6978e-12,-0.43641,0,0,0.14286,-0,-0,0.66667
0.041574,0.025527,0.29102,-0.71171,-46.377,295.46,0.55232,-0.1841,-0.1982,0.73644,1.171e-05,-0.099102,0,0,0.14286,-0,-0,0.66667
0.98971,0.39489,6.9279,-0.15766,-0.12304,0.22687,2.9127,-0.9709,-1.9103,3.8836,3.4876e-08,-0.95513,0,0,0.14286,1.3534e-15,0,0.66667
0.46489,0.39844,3.2542,-0.15234,-7.7169,112.94,1.322,-0.44068,-1.917,1.7627,2.7101e-13,-0.95851,0,0,0.14286,6.7671e-16,0,0.66667
0.73459,0.069634,5.1421,-0.64555,-19.32,32.951,8.8519,-2.9506,-0.52067,11.803,-4.8761e-13,-0.26033,0,0,0.14286,-0,-0,0.66667
0.64081,0.48597,4.4857,-0.021039,-0.79785,55.503,0.25167,-0.083888,-2.0003,0.33555,2.9027e-13,-1.0002,0,0,0.14286,-0,-0,0.66667
0.72309,0.824,5.0617,0.486,14.986,35.108,-6.56,2.1867,-1.1592,-8.7466,-7.2711e-12,-0.57959,0,0,0.14286,-0,-0,0.66667
0.051111,0.13883,0.35778,-0.54175,-35.151,290.99,0.51687,-0.17229,-0.95543,0.68916,1.4649e-07,-0.47771,0,0,0.14286,-0,-0,0.66667
0.92005,0.70973,6.4403,0.3146,3.0041,3.9219,-5.403,1.801,-1.6488,-7.204,1.3372e-08,-0.82442,0,0,0.14286,-6.7671e-16,0,0.66667
0.92684,0.90289,6.4879,0.60434,5.4421,4.1666,-10.456,3.4852,-0.70111,-13.941,3.167e-07,-0.35056,0,0,0.14286,1.3534e-15,0,0.66667
0.552,0.351,3.864,-0.2235,-10.034,82.612,2.303,-0.76765,-1.8215,3.0706,-2.8866e-14,-0.91073,0,0,0.14286,-0,-0,0.66667
0.96392,0.17268,6.7474,-0.49098,-2.1095,1.6691,8.8342,-2.9447,-1.1416,11.779,5.5962e-08,-0.57079,0,0,0.14286,1.3534e-15,0,0.66667
0.28096,0.26945,1.9667,-0.34583,-20.652,187.01,1.8137,-0.60457,-1.5767,2.4183,-5.7711e-12,-0.78833,0,0,0.14286,3.3835e-16,0,0.66667
0.60215,0.10684,4.215,-0.58975,-24.429,67.387,6.6288,-2.2096,-0.76154,8.8384,4.9205e-13,-0.38077,0,0,0.14286,-0,-0,0.66667
0.39646,0.74668,2.7752,0.37002,20.212,139.23,-2.7384,0.9128,-1.5126,-3.6512,2.125e-13,-0.7563,0,0,0.14286,6.7671e-16,0,0.66667
0.62802,0.93906,4.3962,0.6586,25.969,59.97,-7.7208,2.5736,-0.45876,-10.294,-2.8644e-13,-0.22938,0,0,0.14286,-0,-0,0.66667
0.30063,0.61927,2.1044,0.1789,10.533,178.51,-1.0039,0.33465,-1.8861,-1.3386,7.036e-12,-0.94303,0,0,0.14286,-1.6918e-16,0,0.66667
0.81936,0.65098,5.7355,0.22647,4.7427,15.947,-3.4638,1.1546,-1.8165,-4.6184,9.1039e-10,-0.90827,0,0,0.14286,1.6918e-15,0,0.66667
0.069786,0.25627,0.4885,-0.36559,-23.606,282.28,0.47624,-0.15875,-1.5235,0.63499,2.0191e-08,-0.76176,0,0,0.14286,-0,-0,0.66667
0.041878,0.59076,0.29314,0.13614,8.8023,295.25,-0.10643,0.035475,-1.9338,-0.1419,1.0958e-07,-0.96692,0,0,0.14286,1.0574e-17,0,0.66667
0.049396,0.098127,0.34577,-0.60281,-39.163,291.8,0.55583,-0.18528,-0.7088,0.74111,2.7041e-07,-0.3544,0,0,0.14286,-0,-0,0.66667
0.15046,0.30816,1.0532,-0.28776,-18.232,245.06,0.80817,-0.26939,-1.7048,1.0776,2.8053e-09,-0.85242,0,0,0.14286,8.4588e-17,0,0.66667
0.39535,0.42659,2.7675,-0.11012,-6.0072,139.51,0.81268,-0.27089,-1.9558,1.0836,1.0296e-12,-0.97788,0,0,0.14286,-0,-0,0.66667
0.95539,0.83906,6.6877,0.50859,2.7382,2.1078,-9.0702,3.0234,-1.0812,-12.094,2.0591e-07,-0.54062,0,0,0.14286,-6.7671e-16,0,0.66667
0.1108,0.81344,0.77557,0.47016,30.174,263.32,-0.97238,0.32413,-1.2163,-1.2965,-1.0002e-08,-0.60816,0,0,0.14286,-0,-0,0.66667
0.64755,0.082432,4.5329,-0.62635,-23.652,54.421,7.5711,-2.5237,-0.60338,10.095,8.9928e-13,-0.30169,0,0,0.14286,-6.7671e-16,0,0.66667
0.52762,0.49316,3.6934,-0.010262,-0.4778,90.666,0.10107,-0.033689,-1.9994,0.13476,1.7463e-13,-0.99971,0,0,0.14286,1.0151e-15,0,0.66667
0.35324,0.91869,2.4727,0.62803,35.802,156.91,-4.1412,1.3804,-0.59596,-5.5215,-9.6811e-13,-0.29798,0,0,0.14286,6.7671e-16,0,0.66667
0.1982,0.10858,1.3874,-0.58714,-36.72,223.6,2.1722,-0.72408,-0.77295,2.8963,2.4936e-10,-0.38648,0,0,0.14286,-0,-0,0.66667
0.22059,0.94728,1.5442,0.67092,41.622,213.68,-2.7627,0.92089,-0.40021,-3.6836,-1.0389e-11,-0.20011,0,0,0.14286,-0,-0,0.66667
0.043822,0.39758,0.30675,-0.15362,-9.9316,294.35,0.12566,-0.041888,-1.916,0.16755,-9.6694e-08,-0.958,0,0,0.14286,-4.2294e-17,0,0.66667
0.71316,0.25558,4.9921,-0.36662,-11.608,37.172,4.8806,-1.6269,-1.5212,6.5075,8.9249e-12,-0.76061,0,0,0.14286,2.7068e-15,0,0.66667
0.65384,0.50928,4.5769,0.013915,0.51233,51.911,-0.16983,0.05661,-1.9996,-0.22644,2.0241e-13,-0.9998,0,0,0.14286,-0,-0,0.66667
0.44377,0.84921,3.1064,0.52382,27.327,121.16,-4.3392,1.4464,-1.0234,-5.7856,-7.1587e-13,-0.51169,0,0,0.14286,1.3534e-15,0,0.66667
0.71894,0.19793,5.0326,-0.4531,-14.134,35.989,6.0807,-2.0269,-1.2721,8.1076,7.6259e-12,-0.63606,0,0,0.14286,1.3534e-15,0,0.66667
0.10998,0.9803,0.76983,0.72044,46.467,263.8,-1.479,0.493,-0.15614,-1.972,-7.6196e-08,-0.078071,0,0,0.14286,-0,-0,0.66667
0.93872,0.75618,6.571,0.38426,2.8173,2.7213,-6.7333,2.2444,-1.4766,-8.9778,9.4513e-09,-0.73828,0,0,0.14286,-0,-0,0.66667
0.84763,0.72608,5.9334,0.33912,6.0801,11.893,-5.3656,1.7885,-1.5907,-7.1542,2.8381e-09,-0.79535,0,0,0.14286,-0,-0,0.66667
0.65904,0.61266,4.6132,0.169,6.152,50.565,-2.079,0.693,-1.8983,-2.772,-2.5713e-12,-0.94914,0,0,0.14286,6.7671e-16,0,0.66667
0.37883,0.84554,2.6518,0.51832,28.845,146.4,-3.6653,1.2218,-1.0453,-4.887,1.2621e-12,-0.52264,0,0,0.14286,-1.3534e-15,0,0.66667
0.41657,0.50484,2.916,0.0072589,0.38772,131.18,-0.056445,0.018815,-1.9991,-0.07526,6.1598e-13,-0.99957,0,0,0.14286,-0,-0,0.66667
0.48215,0.83986,3.3751,0.50979,25.403,107,-4.5882,1.5294,-1.0771,-6.1176,-2.0117e-13,-0.53854,0,0,0.14286,1.6918e-16,0,0.66667
0.93528,0.52966,6.547,0.044485,0.33814,2.5216,-0.77664,0.25888,-1.9945,-1.0355,8.1692e-08,-0.99724,0,0,0.14286,-3.3835e-16,0,0.66667
0.86359,0.77173,6.0452,0.4076,6.6019,9.9216,-6.5706,2.1902,-1.4085,-8.7609,5.434e-09,-0.70425,0,0,0.14286,-1.3534e-15,0,0.66667
0.47792,0.60191,3.3455,0.15286,7.6204,108.17,-1.3637,0.45457,-1.9155,-1.8183,6.8634e-13,-0.95777,0,0,0.14286,-0,-0,0.66667
0.55452,0.99925,3.8816,0.74888,33.881,82.667,-7.7516,2.5839,-0.0056352,-10.336,2.0886e-12,-0.0028176,0,0,0.14286,8.4588e-17,0,0.66667
0.8754,0.50913,6.1278,0.0137,0.20115,8.0409,-0.22387,0.074623,-2.0013,-0.29849,-8.876e-09,-1.0007,0,0,0.14286,-0,-0,0.66667
0.94926,0.84801,6.6449,0.52202,3.2159,2.4652,-9.25,3.0833,-1.0311,-12.333,7.1183e-08,-0.51556,0,0,0.14286,2.7068e-15,0,0.66667
0.63918,0.92265,4.4743,0.63397,24.392,56.756,-7.5642,2.5214,-0.5717,-10.086,1.7986e-13,-0.28585,0,0,0.14286,-0,-0,0.66667
0.74852,0.89278,5.2396,0.58917,16.794,29.8,-8.2322,2.7441,-0.76653,-10.976,3.3662e-13,-0.38326,0,0,0.14286,-0,-0,0.66667
0.35162,0.34528,2.4614,-0.23209,-13.166,157.2,1.5233,-0.50778,-1.808,2.0311,1.6764e-13,-0.90399,0,0,0.14286,1.3534e-15,0,0.66667
0.91803,0.11432,6.4262,-0.57852,-5.8058,4.7578,9.9138,-3.3046,-0.80931,13.218,4.9136e-09,-0.40466,0,0,0.14286,-0,-0,0.66667
0.83675,0.5015,5.8573,0.0022474,0.042714,13.144,-0.035104,0.011701,-1.9995,-0.046805,1.0107e-09,-0.99976,0,0,0.14286,-0,-0,0.66667
0.55206,0.80849,3.8644,0.46273,20.851,82.874,-4.7685,1.5895,-1.2382,-6.358,-2.7001e-13,-0.61909,0,0,0.14286,-0,-0,0.66667
0.86763,0.79823,6.0734,0.44734,7.0573,9.5129,-7.245,2.415,-1.2866,-9.66,4.2011e-09,-0.6433,0,0,0.14286,-1.3534e-15,0,0.66667
0.84987,0.34178,5.9491,-0.23733,-4.1816,11.429,3.7651,-1.255,-1.7993,5.0201,-3.2152e-09,-0.89966,0,0,0.14286,-2.5592e-16,0,0.66667
0.80841,0.63881,5.6589,0.20822,4.6011,17.724,-3.1421,1.0474,-1.8449,-4.1894,5.3439e-10,-0.92244,0,0,0.14286,-1.3534e-15,0,0.66667
0.13069,0.59766,0.91485,0.14649,9.3248,254.09,-0.35737,0.11912,-1.9231,-0.47649,-1.8579e-09,-0.96153,0,0,0.14286,-0,-0,0.66667
0.536,0.071404,3.752,-0.64289,-29.836,88.523,6.4324,-2.1441,-0.52947,8.5765,7.665e-13,-0.26474,0,0,0.14286,-0,-0,0.66667
0.90078,0.69106,6.3055,0.28659,3.3883,5.5672,-4.8189,1.6063,-1.7075,-6.4251,1.2485e-08,-0.85373,0,0,0.14286,-0,-0,0.66667
0.77083,0.62552,5.3958,0.18828,4.8891,24.541,-2.7092,0.90305,-1.8741,-3.6122,9.1174e-11,-0.93705,0,0,0.14286,-0,-0,0.66667
0.42071,0.054666,2.945,-0.668,-35.837,130.16,5.246,-1.7487,-0.41484,6.9947,-3.7614e-13,-0.20742,0,0,0.14286,6.7671e-16,0,0.66667
0.97788,0.3858,6.8452,-0.17131,-0.39494,0.53075,3.127,-1.0423,-1.894,4.1693,-2.7435e-08,-0.94702,0,0,0.14286,2.7068e-15,0,0.66667
0.25077,0.43402,1.7554,-0.098967,-6.0025,200.04,0.46328,-0.15443,-1.9675,0.6177,7.6879e-12,-0.98377,0,0,0.14286,-8.4588e-17,0,0.66667
0.33361,0.76528,2.3353,0.39792,22.937,164.75,-2.478,0.826,-1.4355,-3.304,3.7694e-12,-0.71773,0,0,0.14286,-0,-0,0.66667
0.9542,0.5192,6.6794,0.028797,0.15161,1.4013,-0.51292,0.17097,-1.9982,-0.68389,3.0875e-07,-0.9991,0,0,0.14286,-0,-0,0.66667
0.80872,0.7709,5.661,0.40635,9.0177,17.979,-6.1343,2.0448,-1.4123,-8.1791,5.1006e-10,-0.70613,0,0,0.14286,-6.7671e-16,0,0.66667
0.90034,0.82369,6.3024,0.48554,5.8432,6.04,-8.1602,2.7201,-1.1602,-10.88,2.1991e-08,-0.58012,0,0,0.14286,-0,-0,0.66667
0.01159,0.9442,0.081127,0.66631,43.444,309.41,-0.14414,0.048038,-0.42105,-0.1922,-1.4729e-05,-0.21052,0,0,0.14286,-0,-0,0.66667
0.37976,0.85097,2.6584,0.52646,29.279,146.04,-3.732,1.244,-1.0137,-4.976,-8.793e-14,-0.50687,0,0,0.14286,-0,-0,0.66667
0.23552,0.65821,1.6487,0.23732,14.52,206.79,-1.0433,0.34778,-1.8021,-1.3911,-4.7509e-11,-0.90103,0,0,0.14286,6.7671e-16,0,0.66667
0.29594,0.39715,2.0715,-0.15428,-9.1106,180.5,0.85226,-0.28409,-1.9169,1.1363,-2.2967e-12,-0.95843,0,0,0.14286,-0,-0,0.66667
0.738,0.88047,5.166,0.57071,16.839,31.998,-7.862,2.6207,-0.8419,-10.483,-2.2814e-11,-0.42095,0,0,0.14286,2.7068e-15,0,0.66667
0.72408,0.13761,5.0686,-0.54358,-16.744,35.016,7.3472,-2.4491,-0.94797,9.7963,5.5667e-12,-0.47398,0,0,0.14286,-0,-0,0.66667
0.4618,0.40829,3.2326,-0.13757,-6.9936,114.07,1.1859,-0.39529,-1.9322,1.5812,-5.923e-13,-0.96608,0,0,0.14286,1.3534e-15,0,0.66667
0.36527,0.60157,2.5569,0.15235,8.5404,151.59,-1.0388,0.34627,-1.9162,-1.3851,2.4114e-12,-0.95812,0,0,0.14286,-6.7671e-16,0,0.66667
0.58469,0.65981,4.0928,0.23972,10.182,72.184,-2.6163,0.87211,-1.7949,-3.4885,1.2434e-13,-0.89745,0,0,0.14286,-0,-0,0.66667
0.53371,0.97983,3.736,0.71974,33.596,89.466,-7.1705,2.3902,-0.15824,-9.5606,-7.4607e-14,-0.079119,0,0,0.14286,-0,-0,0.66667
0.55058,0.79119,3.8541,0.43678,19.717,83.317,-4.489,1.4963,-1.3211,-5.9853,-7.4696e-13,-0.66056,0,0,0.14286,1.3534e-15,0,0.66667
0.61548,0.080558,4.3083,-0.62916,-25.425,63.524,7.2284,-2.4095,-0.59088,9.6379,5.7421e-13,-0.29544,0,0,0.14286,-6.7671e-16,0,0.66667
0.39565,0.51625,2.7695,0.024378,1.3292,139.38,-0.18004,0.060015,-1.9965,-0.24006,8.972e-14,-0.99825,0,0,0.14286,-0,-0,0.66667
0.77172,0.86542,5.402,0.54813,14.335,25.004,-7.896,2.632,-0.93031,-10.528,-5.496e-11,-0.46516,0,0,0.14286,6.7671e-16,0,0.66667
0.2512,0.54343,1.7584,0.065152,3.9502,199.85,-0.3055,0.10183,-1.9859,-0.40734,-1.8074e-12,-0.99297,0,0,0.14286,-0,-0,0.66667
0.65576,0.19345,4.5903,-0.45983,-16.956,51.821,5.6287,-1.8762,-1.2505,7.5049,2.6632e-12,-0.62523,0,0,0.14286,-0,-0,0.66667
0.9604,0.34749,6.7228,-0.22877,-1.0394,1.2569,4.1013,-1.3671,-1.813,5.4684,5.8597e-08,-0.90651,0,0,0.14286,-0,-0,0.66667
0.0035548,0.57727,0.024883,0.1159,7.5063,313.14,-0.007691,0.0025643,-1.9515,-0.010254,9.9875e-07,-0.97576,0,0,0.14286,-5.2868e-18,0,0.66667
0.72336,0.56502,5.0635,0.09753,2.9819,34.537,-1.3169,0.43897,-1.9662,-1.7559,-4.3797e-12,-0.98308,0,0,0.14286,-0,-0,0.66667
0.109,0.47879,0.76297,-0.031812,-2.0352,264.08,0.064724,-0.021575,-1.9983,0.086298,-2.9747e-09,-0.99917,0,0,0.14286,-0,-0,0.66667
0.54379,0.48529,3.8065,-0.022063,-1.0023,85.235,0.22395,-0.074651,-1.9978,0.2986,1.4005e-12,-0.99892,0,0,0.14286,-1.3534e-15,0,0.66667
0.62692,0.93346,4.3884,0.65019,25.689,60.265,-7.6088,2.5363,-0.49823,-10.145,1.2212e-13,-0.24912,0,0,0.14286,-0,-0,0.66667
0.24295,0.0050485,1.7006,-0.74243,-45.634,203.89,3.3669,-1.1223,-0.039106,4.4892,3.3083e-11,-0.019553,0,0,0.14286,1.3534e-15,0,0.66667
0.91384,0.8233,6.3969,0.48495,5.0597,4.8202,-8.2725,2.7575,-1.1621,-11.03,1.6554e-08,-0.58104,0,0,0.14286,-0,-0,0.66667
0.62231,0.65042,4.3562,0.22563,8.9125,60.868,-2.621,0.87366,-1.8195,-3.4947,-5.3335e-13,-0.90974,0,0,0.14286,3.3835e-16,0,0.66667
0.23169,0.051629,1.6219,-0.67256,-41.505,208.77,2.9088,-0.96959,-0.39169,3.8784,-4.144e-12,-0.19585,0,0,0.14286,-3.3835e-16,0,0.66667
0.77013,0.68277,5.3909,0.27415,7.1495,24.773,-3.9411,1.3137,-1.7324,-5.2549,7.6467e-11,-0.86621,0,0,0.14286,6.7671e-16,0,0.66667
0.10551,0.28883,0.73855,-0.31676,-20.313,265.72,0.62384,-0.20795,-1.6428,0.83179,1.2312e-08,-0.82141,0,0,0.14286,-3.3835e-16,0,0.66667
0.55523,0.22381,3.8866,-0.41429,-18.555,81.766,4.2937,-1.4312,-1.3887,5.725,3.8369e-13,-0.69433,0,0,0.14286,-0,-0,0.66667
0.094956,0.23585,0.66469,-0.39623,-25.487,270.61,0.70232,-0.23411,-1.4428,0.93642,1.9282e-08,-0.72138,0,0,0.14286,1.6918e-16,0,0.66667
0.58098,0.9953,4.0669,0.74295,32.147,74.234,-8.0573,2.6858,-0.037979,-10.743,2.4869e-14,-0.01899,0,0,0.14286,-2.0301e-15,0,0.66667
0.25298,0.54846,1.7709,0.072683,4.4027,199.07,-0.34323,0.11441,-1.9809,-0.45764,-1.1529e-12,-0.99043,0,0,0.14286,-0,-0,0.66667
0.64947,0.9985,4.5463,0.74775,28.244,54.234,-9.0652,3.0217,-0.011568,-12.087,-7.7005e-13,-0.0057838,0,0,0.14286,2.2109e-15,0,0.66667
0.71583,0.086208,5.0108,-0.62069,-19.659,37.109,8.2937,-2.7646,-0.63033,11.058,3.4577e-12,-0.31517,0,0,0.14286,-0,-0,0.66667
0.52419,0.62285,3.6693,0.18428,8.6306,91.892,-1.8032,0.60106,-1.8787,-2.4042,3.7625e-13,-0.93933,0,0,0.14286,-0,-0,0.66667
0.65752,0.25229,4.6026,-0.37156,-13.617,51.196,4.5605,-1.5202,-1.5113,6.0806,2.8062e-12,-0.75563,0,0,0.14286,-0,-0,0.66667
0.81329,0.72625,5.6931,0.33938,7.3492,17.093,-5.1523,1.7174,-1.5923,-6.8697,6.9285e-10,-0.79613,0,0,0.14286,-0,-0,0.66667
0.80751,0.60856,5.6526,0.16283,3.6108,17.833,-2.4545,0.81816,-1.9044,-3.2726,3.9669e-10,-0.95218,0,0,0.14286,1.3534e-15,0,0.66667
0.61968,0.4162,4.3378,-0.1257,-4.9874,61.565,1.454,-0.48466,-1.9426,1.9387,6.9134e-13,-0.97128,0,0,0.14286,-0,-0,0.66667
0.4511,0.030396,3.1577,-0.70441,-36.608,118.72,5.9315,-1.9772,-0.2376,7.9087,1.2434e-14,-0.1188,0,0,0.14286,-3.3835e-16,0,0.66667
0.40795,7.8936e-05,2.8556,-0.74988,-40.839,135.25,5.7104,-1.9035,-0.0028654,7.6139,-4.7873e-13,-0.0014327,0,0,0.14286,-0,-0,0.66667
0.87475,0.32057,6.1232,-0.26914,-3.9922,8.3144,4.3947,-1.4649,-1.7447,5.8596,-6.3357e-09,-0.87234,0,0,0.14286,-0,-0,0.66667
0.70293,0.94575,4.9205,0.66862,22.019,40.287,-8.7733,2.9244,-0.41274,-11.698,-5.7021e-13,-0.20637,0,0,0.14286,-0,-0,0.66667
0.18494,0.10528,1.2945,-0.59208,-37.229,229.56,2.0439,-0.68131,-0.75359,2.7252,-6.2369e-10,-0.37679,0,0,0.14286,-0,-0,0.66667
0.56573,0.46482,3.9601,-0.052771,-2.3136,78.074,0.55728,-0.18576,-1.9905,0.74305,-2.1005e-13,-0.99526,0,0,0.14286,8.4588e-16,0,0.66667
0.90881,0.71955,6.3617,0.32933,3.5902,4.8985,-5.5869,1.8623,-1.6158,-7.4492,1.5932e-08,-0.8079,0,0,0.14286,-0,-0,0.66667
0.15069,0.92776,1.0548,0.64164,40.868,245.11,-1.8048,0.60162,-0.53486,-2.4065,-8.9822e-09,-0.26743,0,0,0.14286,-0,-0,0.66667
0.84552,0.59636,5.9186,0.14453,2.611,11.939,-2.2812,0.76039,-1.9274,-3.0416,2.8243e-09,-0.9637,0,0,0.14286,-2.7068e-15,0,0.66667
0.8202,0.73389,5.7414,0.35084,7.3416,15.995,-5.3715,1.7905,-1.5605,-7.162,9.5083e-10,-0.78023,0,0,0.14286,-0,-0,0.66667
0.49934,0.42485,3.4954,-0.11272,-5.464,100.49,1.0507,-0.35023,-1.9563,1.4009,-3.0675e-13,-0.97816,0,0,0.14286,-0,-0,0.66667
0.037584,0.2307,0.26309,-0.40395,-26.187,297.27,0.2834,-0.094466,-1.4182,0.37786,-1.0507e-07,-0.70908,0,0,0.14286,-0,-0,0.66667
0.1475,0.010517,1.0325,-0.73422,-46.908,246.62,2.0216,-0.67387,-0.081595,2.6955,6.275e-10,-0.040797,0,0,0.14286,-0,-0,0.66667
0.92264,0.22123,6.4585,-0.41816,-3.8954,3.9355,7.2018,-2.4006,-1.3808,9.6023,-3.8996e-08,-0.69042,0,0,0.14286,2.7068e-15,0,0.66667
0.044155,0.73004,0.30908,0.34506,22.341,294.2,-0.2844,0.094801,-1.5766,-0.3792,7.1512e-08,-0.7883,0,0,0.14286,-0,-0,0.66667
0.3725,0.76511,2.6075,0.39767,22.209,148.82,-2.7651,0.92171,-1.4377,-3.6868,1.8994e-12,-0.71883,0,0,0.14286,-0,-0,0.66667
0.61904,0.72466,4.3333,0.33699,13.423,61.941,-3.8941,1.298,-1.5952,-5.1921,-8.0291e-13,-0.7976,0,0,0.14286,-0,-0,0.66667
0.19695,0.47846,1.3786,-0.032305,-2.0099,223.95,0.11876,-0.039588,-1.9948,0.15835,4.7689e-11,-0.9974,0,0,0.14286,-0,-0,0.66667
0.98108,0.74575,6.8676,0.36862,0.73961,0.76508,-6.7508,2.2503,-1.5172,-9.001,-1.0266e-07,-0.7586,0,0,0.14286,2.4256e-16,0,0.66667
0.15598,0.58103,1.0918,0.12155,7.6789,242.51,-0.35389,0.11796,-1.9493,-0.47186,-1.6185e-09,-0.97467,0,0,0.14286,1.6918e-16,0,0.66667
0.53968,0.01942,3.7778,-0.72087,-33.348,87.475,7.262,-2.4207,-0.15057,9.6827,-1.6875e-13,-0.075286,0,0,0.14286,-0,-0,0.66667
0.61801,0.79139,4.3261,0.43708,17.481,62.39,-5.0423,1.6808,-1.3191,-6.7231,-4.9516e-13,-0.65955,0,0,0.14286,-0,-0,0.66667
0.23099,0.092722,1.6169,-0.61092,-37.664,209.02,2.6342,-0.87805,-0.67387,3.5122,1.2089e-10,-0.33693,0,0,0.14286,-5.0753e-16,1.8324e-19,0.66667
0.46631,0.95131,3.2642,0.67696,34.538,113.04,-5.8926,1.9642,-0.37058,-7.8568,-1.954e-13,-0.18529,0,0,0.14286,-0,-1.6689e-16,0.66667
0.49101,0.89664,3.4371,0.59496,29.371,103.97,-5.4531,1.8177,-0.73987,-7.2708,-2.6645e-13,-0.36994,0,0,0.14286,-0,-0,0.66667
0.76686,0.34878,5.368,-0.22683,-5.9842,25.36,3.247,-1.0823,-1.8188,4.3293,-5.2478e-11,-0.90939,0,0,0.14286,-0,-0,0.66667
0.63428,0.42487,4.44,-0.1127,-4.3364,57.363,1.3343,-0.44477,-1.9531,1.7791,7.8026e-13,-0.97657,0,0,0.14286,-6.7671e-16,0,0.66667
0.46755,0.81144,3.2729,0.46716,23.682,112.24,-4.0772,1.3591,-1.2265,-5.4363,-1.0685e-12,-0.61324,0,0,0.14286,-2.5377e-16,0,0.66667
0.66694,0.55931,4.6686,0.08897,3.176,48.418,-1.1076,0.36921,-1.9716,-1.4768,-1.4768e-12,-0.98579,0,0,0.14286,-1.409e-16,0,0.66667
0.45338,0.79708,3.1736,0.44562,22.961,117.45,-3.7713,1.2571,-1.2958,-5.0284,-6.084e-14,-0.64789,0,0,0.14286,-0,-0,0.66667
0.52571,0.23067,3.68,-0.404,-18.933,91.583,3.9646,-1.3215,-1.4182,5.2861,8.8818e-15,-0.70911,0,0,0.14286,-0,-0,0.66667
0.65857,0.084514,4.61,-0.62323,-22.945,51.428,7.6615,-2.5538,-0.61933,10.215,1.0694e-12,-0.30966,0,0,0.14286,-6.7671e-16,0,0.66667
0.1812,0.9867,1.2684,0.73005,46.108,231.35,-2.4693,0.82308,-0.10328,-3.2923,-4.6504e-10,-0.051639,0,0,0.14286,-3.3835e-16,0,0.66667
0.78805,0.58696,5.5163,0.13045,3.156,21.237,-1.9189,0.63963,-1.9382,-2.5585,1.7103e-10,-0.96911,0,0,0.14286,1.3534e-15,0,0.66667
0.60287,0.88024,4.2201,0.57037,23.58,67.129,-6.4186,2.1395,-0.84228,-8.5581,1.7097e-13,-0.42114,0,0,0.14286,-0,-0,0.66667
0.98033,0.026902,6.8623,-0.70965,-1.7624,1.9067,12.986,-4.3287,-0.20932,17.315,8.549e-06,-0.10466,0,0,0.14286,6.7671e-16,-8.1058e-17,0.66667
0.22238,0.37855,1.5567,-0.18218,-11.214,212.6,0.75624,-0.25208,-1.8823,1.0083,1.0668e-10,-0.94113,0,0,0.14286,-0,-0,0.66667
0.46627,0.28498,3.2639,-0.32254,-16.338,112.55,2.8072,-0.93575,-1.6311,3.743,-1.1871e-12,-0.81553,0,0,0.14286,1.3534e-15,0,0.66667
0.89564,0.66299,6.2695,0.24449,3.0324,6.0088,-4.0875,1.3625,-1.7866,-5.45,7.124e-09,-0.89332,0,0,0.14286,-0,-0,0.66667
0.60143,0.13909,4.21,-0.54136,-22.424,67.499,6.0777,-2.0259,-0.95608,8.1037,6.5681e-13,-0.47804,0,0,0.14286,-0,-0,0.66667
0.72596,0.54431,5.0817,0.066464,2.0154,33.935,-0.90067,0.30022,-1.9825,-1.2009,-1.028e-12,-0.99123,0,0,0.14286,-0,-0,0.66667
0.41367,0.0111,2.8957,-0.73335,-39.695,133,5.6628,-1.8876,-0.086071,7.5504,-3.8369e-13,-0.043036,0,0,0.14286,-0,-0,0.66667
0.68431,0.48235,4.7902,-0.026469,-0.9041,43.914,0.33811,-0.1127,-1.997,0.45082,9.8294e-13,-0.99852,0,0,0.14286,1.3534e-15,0,0.66667
0.94606,0.62019,6.6224,0.18029,1.1375,1.9376,-3.1838,1.0613,-1.8834,-4.2451,-3.3695e-08,-0.94169,0,0,0.14286,1.3534e-15,0,0.66667
0.20019,0.039015,1.4013,-0.69148,-43.306,222.79,2.5839,-0.86131,-0.30003,3.4452,-4.0401e-10,-0.15001,0,0,0.14286,-0,1.2637e-16,0.66667
0.80737,0.37334,5.6516,-0.18998,-4.2178,17.882,2.8632,-0.9544,-1.8716,3.8176,-5.0739e-10,-0.9358,0,0,0.14286,-1.6918e-15,0,0.66667
0.96954,0.73929,6.7868,0.35894,1.2455,1.1107,-6.4961,2.1654,-1.5434,-8.6614,-1.599e-07,-0.7717,0,0,0.14286,-1.3534e-15,0,0.66667
0.014569,0.13907,0.10198,-0.5414,-35.213,308.01,0.14723,-0.049078,-0.95892,0.19631,-1.0326e-08,-0.47946,0,0,0.14286,-2.1147e-17,2.0177e-16,0.66667
0.21521,0.82021,1.5065,0.48031,29.762,215.92,-1.9295,0.64318,-1.1795,-2.5727,-1.3304e-10,-0.58973,0,0,0.14286,-0,-0,0.66667
0.11738,0.64385,0.82164,0.21577,13.788,260.22,-0.47277,0.15759,-1.8326,-0.63036,-5.895e-09,-0.91632,0,0,0.14286,-1.39e-16,0,0.66667
0.76742,0.097061,5.372,-0.60441,-16.108,25.999,8.6583,-2.8861,-0.70264,11.544,-7.5775e-11,-0.35132,0,0,0.14286,-2.7068e-15,0,0.66667
0.081217,0.84402,0.56852,0.51603,33.333,277.01,-0.78233,0.26078,-1.0544,-1.0431,-2.8559e-08,-0.5272,0,0,0.14286,-0,-0,0.66667
0.99841,0.88199,6.9889,0.57298,-0.020494,1.0367,-10.679,3.5596,-0.83385,-14.238,2.7911e-07,-0.41692,0,0,0.14286,-0,-0,0.66667
0.38961,0.052719,2.7273,-0.67092,-37.101,142.32,4.8794,-1.6265,-0.40088,6.5059,2.2249e-12,-0.20044,0,0,0.14286,-0,1.4551e-16,0.66667
0.9052,0.029718,6.3364,-0.70542,-8.2763,6.3214,11.92,-3.9732,-0.23316,15.893,3.5006e-07,-0.11658,0,0,0.14286,-1.0151e-15,0,0.66667
0.18858,0.53137,1.32,0.047056,2.9376,227.72,-0.16564,0.055214,-1.9949,-0.22086,-3.3497e-10,-0.99744,0,0,0.14286,-0,-0,0.66667
0.44087,0.55179,3.0861,0.077681,4.0439,121.88,-0.63928,0.21309,-1.9781,-0.85238,5.4878e-13,-0.98905,0,0,0.14286,-0,-0,0.66667
0.84481,0.54198,5.9137,0.062974,1.1414,11.994,-0.99309,0.33103,-1.9871,-1.3241,1.3172e-09,-0.99357,0,0,0.14286,-0,-0,0.66667
0.59527,0.9668,4.1669,0.70019,29.484,69.729,-7.7804,2.5935,-0.2588,-10.374,1.5992e-12,-0.1294,0,0,0.14286,-6.7671e-16,0,0.66667
0.46216,0.1416,3.2351,-0.53761,-27.469,114.33,4.6379,-1.546,-0.97058,6.1839,1.4997e-12,-0.48529,0,0,0.14286,-0,-0,0.66667
0.51265,0.72997,3.5885,0.34495,16.455,95.998,-3.301,1.1003,-1.5767,-4.4013,6.0574e-13,-0.78835,0,0,0.14286,-0,-0,0.66667
0.57389,0.35246,4.0172,-0.2213,-9.5788,75.558,2.3707,-0.79024,-1.8251,3.161,-5.3291e-14,-0.91257,0,0,0.14286,-0,-0,0.66667
0.44032,0.031125,3.0822,-0.70331,-36.991,122.76,5.7807,-1.9269,-0.24266,7.7076,-1.3767e-13,-0.12133,0,0,0.14286,3.7007e-16,0,0.66667
0.19356,0.15228,1.3549,-0.52159,-32.643,225.63,1.8845,-0.62818,-1.032,2.5127,3.7273e-10,-0.51598,0,0,0.14286,-5.4567e-17,0,0.66667
0.11397,0.72152,0.79776,0.33227,21.271,261.82,-0.70687,0.23562,-1.6074,-0.94249,-1.0109e-08,-0.80369,0,0,0.14286,3.3835e-16,0,0.66667
0.15123,0.92531,1.0586,0.63796,40.624,244.86,-1.8009,0.60031,-0.55159,-2.4012,-6.552e-09,-0.27579,0,0,0.14286,-1.6918e-16,0,0.66667
0.052491,0.52225,0.36744,0.033374,2.155,290.3,-0.032701,0.0109,-1.9948,-0.043601,5.5903e-08,-0.99738,0,0,0.14286,8.4588e-17,0,0.66667
0.55868,0.15299,3.9107,-0.52052,-23.236,80.817,5.4283,-1.8094,-1.0369,7.2378,-1.1946e-13,-0.51843,0,0,0.14286,1.6918e-16,0,0.66667
0.84772,0.018594,5.934,-0.72211,-13.244,12.952,11.427,-3.8089,-0.14511,15.236,9.8694e-11,-0.072555,0,0,0.14286,-0,-0,0.66667
0.35912,0.44182,2.5138,-0.08727,-4.9161,154.08,0.58502,-0.19501,-1.9756,0.78002,1.2559e-12,-0.98782,0,0,0.14286,-0,-0,0.66667
0.075311,0.74036,0.52718,0.36053,23.26,279.71,-0.50684,0.16895,-1.5378,-0.67579,-2.2412e-08,-0.76891,0,0,0.14286,8.4588e-17,0,0.66667
0.42572,0.52558,2.9801,0.038375,2.0304,127.65,-0.30496,0.10165,-1.9946,-0.40661,3.9699e-13,-0.99729,0,0,0.14286,-6.7671e-16,0,0.66667
0.60201,0.12138,4.2141,-0.56792,-23.516,67.381,6.382,-2.1273,-0.85232,8.5094,3.2285e-13,-0.42616,0,0,0.14286,8.4588e-16,0,0.66667
0.4254,0.76747,2.9778,0.40121,21.302,127.98,-3.1859,1.062,-1.427,-4.2479,1.251e-12,-0.7135,0,0,0.14286,-0,-0,0.66667
0.81072,0.40872,5.675,-0.13693,-2.9888,17.275,2.0722,-0.69073,-1.935,2.7629,-5.1764e-10,-0.96751,0,0,0.14286,-2.7068e-15,0,0.66667
0.94189,0.77915,6.5932,0.41873,2.9191,2.6046,-7.362,2.454,-1.3767,-9.8161,4.7774e-09,-0.68837,0,0,0.14286,-1.6918e-15,0,0.66667
0.86991,0.85735,6.0894,0.53603,8.3659,9.4716,-8.7042,2.9014,-0.97701,-11.606,1.8765e-09,-0.48851,0,0,0.14286,-0,-0,0.66667
0.704,0.99253,4.928,0.73879,24.333,40.247,-9.7087,3.2362,-0.061039,-12.945,-8.8374e-13,-0.03052,0,0,0.14286,-0,-0,0.66667
0.4703,0.56065,3.2921,0.090975,4.5768,110.93,-0.79866,0.26622,-1.9726,-1.0649,-2.5258e-14,-0.98628,0,0,0.14286,1.6918e-16,0,0.66667
0.6827,0.3637,4.7789,-0.20445,-7.0216,44.41,2.6055,-0.8685,-1.8502,3.474,4.6865e-12,-0.9251,0,0,0.14286,6.7671e-16,0,0.66667
0.013418,0.92086,0.093928,0.63129,41.129,308.55,-0.15812,0.052703,-0.58317,-0.21083,-5.0805e-06,-0.29159,0,0,0.14286,2.1147e-17,0,0.66667
0.98248,0.33626,6.8773,-0.24561,-0.42949,0.49776,4.5044,-1.5015,-1.7864,6.0059,-1.6367e-08,-0.89318,0,0,0.14286,6.7671e-16,0,0.66667
0.17208,0.80707,1.2045,0.46061,29.035,235.29,-1.4795,0.49317,-1.2483,-1.9727,-6.5327e-10,-0.62414,0,0,0.14286,8.4588e-17,0,0.66667
0.90626,0.67173,6.3438,0.25759,2.8747,5.0097,-4.3576,1.4525,-1.7662,-5.8102,1.0362e-08,-0.88308,0,0,0.14286,1.3534e-15,0,0.66667
0.80711,0.65161,5.6498,0.22742,5.0587,17.964,-3.4263,1.1421,-1.8154,-4.5685,4.9818e-10,-0.90772,0,0,0.14286,1.6918e-15,0,0.66667
0.80014,0.16455,5.601,-0.50318,-11.666,19.663,7.5155,-2.5052,-1.0996,10.021,-4.2569e-10,-0.5498,0,0,0.14286,-0,-0,0.66667
0.26894,0.28425,1.8826,-0.32362,-19.46,192.2,1.6246,-0.54154,-1.6282,2.1661,-4.0943e-12,-0.81409,0,0,0.14286,-0,-0,0.66667
0.21915,0.7287,1.5341,0.34305,21.178,214.09,-1.4034,0.46779,-1.5835,-1.8712,-1.3237e-10,-0.79174,0,0,0.14286,-0,-0,0.66667
0.4288,0.18844,3.0016,-0.46735,-24.752,126.76,3.7408,-1.2469,-1.2231,4.9877,9.3459e-13,-0.61154,0,0,0.14286,1.3534e-15,0,0.66667
0.84937,0.6116,5.9456,0.16739,2.9537,11.423,-2.654,0.88467,-1.8988,-3.5387,2.298e-09,-0.94941,0,0,0.14286,1.3534e-15,0,0.66667
0.45038,0.84148,3.1527,0.51222,26.518,118.66,-4.3063,1.4354,-1.0682,-5.7417,9.1127e-13,-0.53408,0,0,0.14286,-3.3835e-16,0,0.66667
0.93542,0.86102,6.5479,0.54152,4.2708,3.3601,-9.4556,3.1519,-0.95761,-12.608,7.5889e-08,-0.4788,0,0,0.14286,-0,-5.1643e-17,0.66667
0.35268,0.9976,2.4688,0.7464,42.695,157.31,-4.9138,1.6379,-0.018541,-6.5518,8.4821e-14,-0.0092707,0,0,0.14286,-2.1993e-15,0,0.66667
0.61939,0.70947,4.3357,0.31421,12.501,61.81,-3.6328,1.2109,-1.6477,-4.8438,-4.4742e-13,-0.82384,0,0,0.14286,-6.7671e-16,0,0.66667
0.9807,0.23522,6.8649,-0.39716,-0.82526,0.84197,7.2706,-2.4235,-1.4384,9.6942,1.8083e-07,-0.71919,0,0,0.14286,-0,-0,0.66667
0.64346,0.24047,4.5042,-0.38929,-14.737,55.066,4.6759,-1.5586,-1.4611,6.2345,1.8412e-12,-0.73057,0,0,0.14286,-0,-0,0.66667
0.045498,0.82771,0.31849,0.49156,31.885,293.59,-0.41749,0.13916,-1.1417,-0.55665,-9.5212e-08,-0.57083,0,0,0.14286,-0,-0,0.66667
0.46356,0.81284,3.2449,0.46927,23.904,113.71,-4.0606,1.3535,-1.2172,-5.4141,-1.6711e-12,-0.6086,0,0,0.14286,1.3534e-15,0,0.66667
0.33475,0.47733,2.3433,-0.034,-1.9526,164.11,0.21246,-0.070819,-1.9944,0.28327,1.3223e-12,-0.99721,0,0,0.14286,-0,-0,0.66667
0.53218,0.91172,3.7253,0.61758,28.805,89.752,-6.135,2.045,-0.64583,-8.18,3.4772e-13,-0.32292,0,0,0.14286,-0,-0,0.66667
0.28475,0.85375,1.9932,0.53062,31.702,185.53,-2.8204,0.94012,-0.99846,-3.7605,7.7902e-12,-0.49923,0,0,0.14286,-0,-0,0.66667
0.12226,0.55383,0.85583,0.080749,5.1502,257.96,-0.18429,0.061429,-1.9769,-0.24571,1.8192e-09,-0.98847,0,0,0.14286,-8.4588e-17,0,0.66667
0.66829,0.66226,4.678,0.24339,8.6728,48.17,-3.0363,1.0121,-1.7893,-4.0484,-3.5909e-12,-0.89464,0,0,0.14286,-0,-0,0.66667
0.68136,0.011367,4.7695,-0.73295,-25.636,45.8,9.3222,-3.1074,-0.088311,12.43,2.5002e-12,-0.044155,0,0,0.14286,-2.7068e-15,0,0.66667
0.86714,0.58087,6.07,0.12131,1.8972,9.0725,-1.9636,0.65452,-1.9458,-2.6181,3.0503e-09,-0.97292,0,0,0.14286,1.3534e-15,0,0.66667
0.13238,0.30419,0.92667,-0.29372,-18.708,253.34,0.72581,-0.24194,-1.6918,0.96774,5.7606e-09,-0.84588,0,0,0.14286,-0,-0,0.66667
0.79862,0.13824,5.5903,-0.54264,-12.69,20.03,8.0895,-2.6965,-0.95357,10.786,5.5781e-11,-0.47679,0,0,0.14286,-0,-0,0.66667
0.82677,0.76499,5.7874,0.39749,8.0513,15.056,-6.1344,2.0448,-1.4391,-8.1793,1.1132e-09,-0.71953,0,0,0.14286,-1.3534e-15,0,0.66667
0.64655,0.9649,4.5258,0.69735,26.46,54.885,-8.4163,2.8054,-0.27025,-11.222,1.0481e-13,-0.13513,0,0,0.14286,-0,-0,0.66667
0.20492,0.44138,1.4345,-0.087934,-5.4532,220.37,0.33637,-0.11212,-1.9739,0.44849,1.9092e-10,-0.98697,0,0,0.14286,-6.7671e-16,0,0.66667
0.26142,0.82186,1.8299,0.48279,29.222,195.57,-2.3559,0.78531,-1.1705,-3.1413,1.3564e-11,-0.58524,0,0,0.14286,-0,-0,0.66667
0.4185,0.92308,2.9295,0.63463,34.095,130.96,-4.9577,1.6526,-0.5674,-6.6102,9.3792e-13,-0.2837,0,0,0.14286,-6.7671e-16,0,0.66667
0.5418,0.27956,3.7926,-0.33066,-15.106,86.079,3.3441,-1.1147,-1.6112,4.4588,5.9286e-14,-0.80561,0,0,0.14286,-1.6918e-16,0,0.66667
0.47744,0.035454,3.3421,-0.69682,-35.093,109.03,6.2102,-2.0701,-0.27264,8.2802,-6.6613e-15,-0.13632,0,0,0.14286,-0,-0,0.66667
0.46746,0.45925,3.2722,-0.06112,-3.0852,111.96,0.53333,-0.17778,-1.9879,0.7111,6.492e-13,-0.99393,0,0,0.14286,-0,-0,0.66667
0.83984,0.81635,5.8789,0.47452,8.9692,13.281,-7.439,2.4797,-1.1995,-9.9187,1.5021e-09,-0.59974,0,0,0.14286,-0,-0,0.66667
0.8701,0.53944,6.0907,0.059161,0.90464,8.6803,-0.9609,0.3203,-1.9866,-1.2812,-2.0599e-11,-0.9933,0,0,0.14286,2.7068e-15,0,0.66667
0.81675,0.19377,5.7173,-0.45935,-9.8236,16.772,7.0033,-2.3344,-1.2493,9.3377,-8.8693e-10,-0.62465,0,0,0.14286,-0,-0,0.66667
0.8778,0.82405,6.1446,0.48608,7.1227,8.408,-7.9647,2.6549,-1.1598,-10.62,5.5713e-09,-0.57989,0,0,0.14286,1.3534e-15,0,0.66667
0.57101,0.2837,3.9971,-0.32445,-14.132,76.57,3.4582,-1.1527,-1.6251,4.611,7.2164e-14,-0.81254,0,0,0.14286,-0,-0,0.66667
0.96404,0.96126,6.7483,0.69189,3.1328,2.3769,-12.451,4.1503,-0.29709,-16.601,5.8663e-06,-0.14855,0,0,0.14286,-0,9.782e-17,0.66667
0.60654,0.54728,4.2458,0.07092,2.8878,65.424,-0.80297,0.26766,-1.9818,-1.0706,2.9338e-13,-0.99092,0,0,0.14286,-1.3534e-15,0,0.66667
0.60395,0.028511,4.2276,-0.70723,-29.306,67.133,7.9731,-2.6577,-0.22122,10.631,5.5111e-13,-0.11061,0,0,0.14286,-0,-0,0.66667
0.3193,0.62087,2.2351,0.18131,10.538,170.61,-1.0807,0.36022,-1.8822,-1.4409,5.0869e-12,-0.94111,0,0,0.14286,-1.6918e-16,0,0.66667
0.6812,0.86354,4.7684,0.5453,18.944,45.332,-6.934,2.3113,-0.94111,-9.2453,-3.4848e-12,-0.47055,0,0,0.14286,6.7671e-16,0,0.66667
0.051966,0.71068,0.36376,0.31601,20.439,290.56,-0.30654,0.10218,-1.6439,-0.40872,3.9859e-08,-0.82196,0,0,0.14286,-0,-0,0.66667
0.13455,0.95185,0.94182,0.67777,43.407,252.5,-1.7023,0.56742,-0.36496,-2.2697,1.6366e-08,-0.18248,0,0,0.14286,-0,-0,0.66667
0.13024,0.96413,0.9117,0.6962,44.657,254.48,-1.6926,0.5642,-0.27601,-2.2568,5.5322e-10,-0.13801,0,0,0.14286,-8.4588e-17,0,0.66667
0.6552,0.63891,4.5864,0.20836,7.6568,51.629,-2.5483,0.84944,-1.8468,-3.3978,-1.8077e-12,-0.92338,0,0,0.14286,-1.3534e-15,0,0.66667
0.17533,0.66059,1.2273,0.24089,15.128,233.73,-0.78839,0.2628,-1.7939,-1.0512,-1.1117e-09,-0.89696,0,0,0.14286,-0,-0,0.66667
0.34115,0.24595,2.388,-0.38108,-21.834,161.61,2.4267,-0.80891,-1.4845,3.2356,3.3062e-13,-0.74224,0,0,0.14286,-8.4588e-16,0,0.66667
0.044312,0.12878,0.31018,-0.55684,-36.163,294.16,0.46059,-0.15353,-0.89843,0.61412,2.4019e-07,-0.44921,0,0,0.14286,-1.6918e-16,0,0.66667
0.23373,0.73166,1.6361,0.34749,21.303,207.63,-1.5161,0.50537,-1.5722,-2.0215,-4.9775e-11,-0.78609,0,0,0.14286,-3.3835e-16,0,0.66667
0.96422,0.46068,6.7496,-0.058979,-0.23658,0.94359,1.0616,-0.35385,-1.9868,1.4154,1.7647e-07,-0.99342,0,0,0.14286,6.7671e-16,0,0.66667
0.50914,0.06572,3.564,-0.65142,-31.434,97.702,6.1911,-2.0637,-0.4905,8.2547,-1.2479e-13,-0.24525,0,0,0.14286,1.3534e-15,0,0.66667
0.15107,0.61272,1.0575,0.16909,10.701,244.75,-0.47683,0.15894,-1.897,-0.63577,-2.1775e-09,-0.94849,0,0,0.14286,-0,-0,0.66667
0.52301,0.87148,3.6611,0.55723,26.302,92.744,-5.4401,1.8134,-0.89514,-7.2535,-1.0374e-12,-0.44757,0,0,0.14286,1.0151e-15,0,0.66667
0.94351,0.70272,6.6046,0.30408,2.0329,2.2635,-5.3555,1.7852,-1.6696,-7.1407,-2.6293e-08,-0.83478,0,0,0.14286,-1.3534e-15,0,0.66667
0.86569,0.88042,6.0598,0.57063,9.202,10.09,-9.221,3.0737,-0.84123,-12.295,-1.7912e-09,-0.42062,0,0,0.14286,-0,-0,0.66667
0.39207,0.75642,2.7445,0.38463,21.101,140.98,-2.8149,0.93831,-1.4753,-3.7532,1.172e-12,-0.73767,0,0,0.14286,-0,-0,0.66667
0.28387,0.50436,1.9871,0.0065333,0.38863,185.66,-0.034619,0.01154,-2.0006,-0.046159,4.0286e-12,-1.0003,0,0,0.14286,-0,-0,0.66667
0.76173,0.81043,5.3321,0.46565,12.603,26.779,-6.621,2.207,-1.2294,-8.828,2.0414e-11,-0.61472,0,0,0.14286,-1.5226e-15,0,0.66667
0.24048,0.032041,1.6834,-0.70194,-43.157,204.93,3.151,-1.0503,-0.24795,4.2014,1.2341e-11,-0.12397,0,0,0.14286,-6.7671e-16,0,0.66667
0.25423,0.79581,1.7796,0.44372,26.948,198.68,-2.1057,0.70191,-1.2989,-2.8076,7.1492e-12,-0.64946,0,0,0.14286,3.3835e-16,0,0.66667
0.084086,0.81966,0.5886,0.4795,30.94,275.67,-0.75262,0.25087,-1.1813,-1.0035,-2.4518e-08,-0.59067,0,0,0.14286,-0,-0,0.66667
0.86414,0.49605,6.049,-0.0059298,-0.094652,9.406,0.095652,-0.031884,-1.9995,0.12754,-8.9098e-09,-0.99977,0,0,0.14286,1.3534e-15,0,0.66667
0.4479,0.29596,3.1353,-0.30606,-15.835,119.35,2.5589,-0.85295,-1.6655,3.4118,-4.0457e-13,-0.83275,0,0,0.14286,-0,-0,0.66667
0.56179,0.29995,3.9325,-0.30008,-13.271,79.497,3.1469,-1.049,-1.6813,4.1958,-8.8818e-14,-0.84064,0,0,0.14286,-0,-0,0.66667
0.73671,0.42966,5.157,-0.10552,-3.0919,31.557,1.4511,-0.48369,-1.9609,1.9347,-2.4849e-12,-0.98045,0,0,0.14286,-6.7671e-16,0,0.66667
0.79649,0.48507,5.5754,-0.022395,-0.52187,19.676,0.33296,-0.11099,-1.9999,0.44395,-5.8369e-11,-0.99996,0,0,0.14286,-1.3534e-15,0,0.66667
0.44751,0.69123,3.1326,0.28684,14.844,119.48,-2.3961,0.79871,-1.7069,-3.1948,5.953e-13,-0.85343,0,0,0.14286,-0,-0,0.66667
0.18413,0.0044013,1.2889,-0.7434,-46.914,230.04,2.5551,-0.8517,-0.035327,3.4068,2.7515e-10,-0.017663,0,0,0.14286,-0,8.1886e-17,0.66667
0.82873,0.32398,5.8011,-0.26403,-5.2678,14.527,4.0844,-1.3615,-1.7537,5.4459,-1.3539e-09,-0.87687,0,0,0.14286,-0,-0,0.66667
0.030998,0.3266,0.21699,-0.2601,-16.844,300.33,0.1505,-0.050168,-1.7613,0.20067,-6.2545e-08,-0.88065,0,0,0.14286,-4.2294e-17,0,0.66667
0.94673,0.68627,6.6271,0.2794,1.7527,2.033,-4.9376,1.6459,-1.7221,-6.5835,-3.7923e-08,-0.86106,0,0,0.14286,-2.0301e-15,0,0.66667
0.57698,0.042983,4.0388,-0.68553,-29.812,75.337,7.3833,-2.4611,-0.33019,9.8444,-6.7368e-13,-0.1651,0,0,0.14286,-0,-1.5868e-16,0.66667
0.87539,0.58041,6.1277,0.12061,1.7729,8.0818,-1.9708,0.65694,-1.95,-2.6278,3.8126e-09,-0.97501,0,0,0.14286,-0,-0,0.66667
0.60857,0.13023,4.26,-0.55466,-22.67,65.394,6.3008,-2.1003,-0.90822,8.4011,1.3074e-12,-0.45411,0,0,0.14286,-1.3534e-15,0,0.66667
0.25166,0.26359,1.7616,-0.35462,-21.54,199.75,1.6659,-0.55529,-1.5535,2.2212,1.0131e-11,-0.77674,0,0,0.14286,-0,-0,0.66667
0.29613,0.71143,2.0729,0.31715,18.751,180.49,-1.7531,0.58437,-1.6442,-2.3375,1.0583e-11,-0.82211,0,0,0.14286,-0,-0,0.66667
0.53292,0.073298,3.7305,-0.64005,-29.839,89.55,6.3672,-2.1224,-0.54413,8.4896,1.9407e-13,-0.27206,0,0,0.14286,-0,-0,0.66667
0.96208,0.35193,6.7345,-0.22211,-0.9615,1.1731,3.9888,-1.3296,-1.8232,5.3184,4.5655e-08,-0.91159,0,0,0.14286,-0,-0,0.66667
0.1845,0.1729,1.2915,-0.49066,-30.801,229.7,1.6898,-0.56326,-1.1436,2.253,3.492e-10,-0.57182,0,0,0.14286,3.3835e-16,0,0.66667
0.5099,0.76365,3.5693,0.39548,18.954,97.013,-3.7642,1.2547,-1.4423,-5.019,-1.2323e-13,-0.72115,0,0,0.14286,-0,-0,0.66667
0.34379,0.25253,2.4065,-0.3712,-21.222,160.51,2.3822,-0.79405,-1.5133,3.1762,4.1611e-13,-0.75666,0,0,0.14286,-0,-0,0.66667
0.76973,0.073439,5.3881,-0.63984,-16.934,25.653,9.1934,-3.0645,-0.54352,12.258,-4.2615e-11,-0.27176,0,0,0.14286,-0,-0,0.66667
0.80287,0.86783,5.6201,0.55175,12.664,19.32,-8.269,2.7563,-0.91641,-11.025,-3.625e-10,-0.4582,0,0,0.14286,-2.0131e-16,0,0.66667
0.42456,0.58573,2.9719,0.12859,6.8142,128.12,-1.0191,0.3397,-1.9414,-1.3588,1.6238e-12,-0.97071,0,0,0.14286,-6.7671e-16,0,0.66667
0.20412,0.39374,1.4289,-0.1594,-9.8911,220.74,0.60734,-0.20245,-1.9109,0.80979,2.4475e-10,-0.95543,0,0,0.14286,3.3835e-16,0,0.66667
0.067089,0.71998,0.46963,0.32998,21.306,283.53,-0.41324,0.13775,-1.6131,-0.55099,-6.0518e-09,-0.80654,0,0,0.14286,-1.6918e-16,0,0.66667
0.19865,0.22176,1.3905,-0.41736,-26.023,223.29,1.5476,-0.51587,-1.3806,2.0635,4.3124e-10,-0.6903,0,0,0.14286,6.7671e-16,0,0.66667
0.2724,0.77203,1.9068,0.40805,24.513,190.75,-2.0748,0.69162,-1.4064,-2.7665,1.2841e-11,-0.70322,0,0,0.14286,-0,-0,0.66667
0.59879,0.40738,4.1915,-0.13893,-5.744,67.786,1.5529,-0.51762,-1.9314,2.0705,9.1926e-14,-0.96572,0,0,0.14286,-0,-0,0.66667
0.87308,0.074503,6.1116,-0.63825,-9.8101,9.4201,10.402,-3.4673,-0.55208,13.869,-9.2871e-09,-0.27604,0,0,0.14286,-1.3534e-15,1.6009e-16,0.66667
0.12823,0.93562,0.89762,0.65343,41.897,255.38,-1.5641,0.52136,-0.48268,-2.0854,-1.0483e-08,-0.24134,0,0,0.14286,4.2294e-17,0,0.66667
0.95819,0.43692,6.7073,-0.09462,-0.45181,1.2296,1.6924,-0.56413,-1.9683,2.2565,-3.3954e-07,-0.98417,0,0,0.14286,1.9878e-15,0,0.66667
0.68317,0.010479,4.7822,-0.73428,-25.565,45.347,9.3639,-3.1213,-0.082031,12.485,1.2017e-12,-0.041016,0,0,0.14286,-0,1.6985e-16,0.66667
0.74196,0.93562,5.1937,0.65344,19.097,31.376,-9.0501,3.0167,-0.48128,-12.067,3.4026e-12,-0.24064,0,0,0.14286,-1.3534e-15,0,0.66667
0.98288,0.31946,6.8802,-0.27081,-0.46321,0.5273,4.9685,-1.6562,-1.7405,6.6247,-9.6744e-09,-0.87024,0,0,0.14286,-0,-0,0.66667
0.4161,0.19303,2.9127,-0.46046,-24.707,131.64,3.5765,-1.1922,-1.2452,4.7686,1.8094e-12,-0.62262,0,0,0.14286,-0,-0,0.66667
0.53158,0.66128,3.7211,0.24192,11.213,89.419,-2.4005,0.80018,-1.7945,-3.2007,-3.6682e-13,-0.89723,0,0,0.14286,1.3534e-15,0,0.66667
0.67921,0.25117,4.7545,-0.37325,-12.972,45.505,4.7323,-1.5774,-1.5042,6.3098,4.5519e-12,-0.75212,0,0,0.14286,2.7068e-15,0,0.66667
0.51288,0.12661,3.5901,-0.56008,-26.822,96.231,5.362,-1.7873,-0.8858,7.1494,7.4163e-13,-0.4429,0,0,0.14286,-0,-0,0.66667
0.29911,0.79074,2.0938,0.43611,25.775,179.3,-2.435,0.81166,-1.3242,-3.2466,7.6599e-12,-0.66208,0,0,0.14286,-0,-0,0.66667
0.10538,0.15424,0.73769,-0.51865,-33.351,265.83,1.0203,-0.34009,-1.0439,1.3604,3.2205e-08,-0.52197,0,0,0.14286,6.3441e-17,0,0.66667
0.28493,0.5065,1.9945,0.0097506,0.57963,185.2,-0.051861,0.017287,-1.9995,-0.069148,2.4002e-12,-0.99973,0,0,0.14286,-0,-0,0.66667
0.76885,0.78659,5.382,0.42988,11.315,25.286,-6.1697,2.0566,-1.3431,-8.2262,5.9884e-11,-0.67157,0,0,0.14286,-0,-0,0.66667
0.64078,0.23237,4.4855,-0.40144,-15.291,55.83,4.8018,-1.6006,-1.429,6.4023,1.9118e-12,-0.71448,0,0,0.14286,-0,-0,0.66667
0.80133,0.75652,5.6093,0.38477,8.8309,19.195,-5.7555,1.9185,-1.473,-7.674,3.4157e-10,-0.73651,0,0,0.14286,2.7068e-15,0,0.66667
0.51712,0.86078,3.6198,0.54117,25.75,94.733,-5.2239,1.7413,-0.95942,-6.9652,1.7719e-13,-0.47971,0,0,0.14286,-0,-0,0.66667
0.2321,0.45242,1.6247,-0.071375,-4.3707,208.27,0.30923,-0.10308,-1.982,0.41231,3.1846e-11,-0.991,0,0,0.14286,-3.3835e-16,0,0.66667
0.62796,0.61361,4.3957,0.17041,6.649,59.197,-1.9976,0.66586,-1.8965,-2.6635,-6.4249e-13,-0.94825,0,0,0.14286,-0,-0,0.66667
0.30401,0.75399,2.128,0.38098,22.425,177.18,-2.162,0.72066,-1.483,-2.8826,7.053e-12,-0.7415,0,0,0.14286,-0,-0,0.66667
0.029529,0.3851,0.2067,-0.17236,-11.156,301.01,0.095003,-0.031668,-1.8951,0.12667,-2.6222e-08,-0.94756,0,0,0.14286,-0,-0,0.66667
0.90333,0.76211,6.3233,0.39316,4.5599,5.5291,-6.6296,2.2099,-1.4501,-8.8395,1.877e-08,-0.72507,0,0,0.14286,1.3534e-15,0,0.66667
0.42037,0.25116,2.9426,-0.37326,-19.913,129.89,2.9289,-0.9763,-1.5068,3.9052,1.5643e-12,-0.7534,0,0,0.14286,-1.3534e-15,0,0.66667
0.42613,0.98626,2.9829,0.72939,38.977,128.2,-5.8019,1.934,-0.10736,-7.7358,8.4865e-13,-0.053682,0,0,0.14286,-0,-0,0.66667
0.74125,0.92708,5.1888,0.64063,18.756,31.49,-8.8642,2.9547,-0.53914,-11.819,3.9782e-12,-0.26957,0,0,0.14286,-6.7671e-16,0,0.66667
0.94846,0.77605,6.6392,0.41408,2.5489,2.2111,-7.3311,2.4437,-1.3899,-9.7748,-2.3743e-08,-0.69493,0,0,0.14286,-0,-0,0.66667
0.072516,0.58975,0.50761,0.13462,8.6732,280.98,-0.18223,0.060743,-1.9349,-0.24297,3.2655e-08,-0.96746,0,0,0.14286,8.5232e-17,0,0.66667
0.1727,0.31226,1.2089,-0.2816,-17.708,234.94,0.90782,-0.30261,-1.721,1.2104,1.3436e-09,-0.86049,0,0,0.14286,-4.5995e-16,0,0.66667
0.32236,0.69023,2.2565,0.28534,16.563,169.37,-1.717,0.57233,-1.71,-2.2893,5.4419e-12,-0.85502,0,0,0.14286,-0,-0,0.66667
0.24842,0.2848,1.739,-0.3228,-19.635,201.15,1.4969,-0.49897,-1.6312,1.9959,1.2623e-11,-0.81559,0,0,0.14286,6.7671e-16,0,0.66667
0.49549,0.43646,3.4685,-0.095311,-4.6435,101.84,0.88155,-0.29385,-1.968,1.1754,-8.8629e-13,-0.984,0,0,0.14286,-2.5377e-16,0,0.66667
0.82446,0.8192,5.7712,0.4788,9.8529,15.597,-7.3686,2.4562,-1.1847,-9.8248,6.7114e-10,-0.59234,0,0,0.14286,-2.7068e-15,0,0.66667
0.85397,0.03393,5.9778,-0.6991,-12.312,12.024,11.144,-3.7148,-0.26189,14.859,-1.8396e-09,-0.13094,0,0,0.14286,-2.7068e-15,0,0.66667
0.59583,0.3374,4.1708,-0.2439,-10.15,68.76,2.7126,-0.90421,-1.7893,3.6169,-7.2875e-13,-0.89467,0,0,0.14286,1.0151e-15,0,0.66667
0.24017,0.436,1.6812,-0.096,-5.8551,204.7,0.43039,-0.14346,-1.967,0.57386,1.8212e-11,-0.9835,0,0,0.14286,-3.8065e-16,0,0.66667
0.18649,0.28082,1.3054,-0.32877,-20.578,228.72,1.1445,-0.38151,-1.6184,1.526,7.0977e-10,-0.80921,0,0,0.14286,-4.8638e-16,0,0.66667
0.74339,0.94737,5.2037,0.67106,19.536,31.125,-9.312,3.104,-0.39729,-12.416,-7.8781e-13,-0.19865,0,0,0.14286,-1.3534e-15,0,0.66667
0.23721,0.38557,1.6605,-0.17164,-10.488,206.02,0.76004,-0.25335,-1.8951,1.0134,4.5634e-11,-0.94757,0,0,0.14286,-6.7671e-16,0,0.66667
0.53949,0.81336,3.7764,0.47003,21.605,87.036,-4.7335,1.5778,-1.2141,-6.3113,-2.6823e-13,-0.60705,0,0,0.14286,-0,-0,0.66667
0.74928,0.94237,5.245,0.66355,18.929,29.858,-9.2808,3.0936,-0.43668,-12.374,-9.2939e-12,-0.21834,0,0,0.14286,-0,-0,0.66667
0.22825,0.064902,1.5977,-0.65265,-40.326,210.27,2.7807,-0.9269,-0.48503,3.7076,1.7816e-11,-0.24252,0,0,0.14286,-6.7671e-16,0,0.66667
0.1745,0.1187,1.2215,-0.57195,-36.09,234.26,1.8631,-0.62102,-0.83734,2.4841,-5.4874e-11,-0.41867,0,0,0.14286,-0,-0,0.66667
0.039736,0.94292,0.27815,0.66438,43.254,296.3,-0.49279,0.16426,-0.42944,-0.65706,-3.806e-06,-0.21472,0,0,0.14286,8.4588e-17,0,0.66667
0.14757,0.19773,1.033,-0.45341,-28.81,246.44,1.249,-0.41632,-1.2674,1.6653,3.4583e-09,-0.6337,0,0,0.14286,-3.3835e-16,0,0.66667
0.85144,0.42452,5.9601,-0.11322,-1.9699,11.101,1.7994,-0.5998,-1.9526,2.3992,-9.6941e-10,-0.97629,0,0,0.14286,1.3534e-15,0,0.66667
0.10464,0.32075,0.73245,-0.26888,-17.238,266.11,0.52517,-0.17506,-1.742,0.70023,1.0374e-08,-0.87102,0,0,0.14286,-0,-0,0.66667
0.22365,0.90258,1.5655,0.60387,37.355,212.27,-2.521,0.84032,-0.70311,-3.3613,-2.6098e-11,-0.35156,0,0,0.14286,-1.6918e-16,0,0.66667
0.032757,0.79283,0.2293,0.43924,28.498,299.52,-0.26858,0.089528,-1.3148,-0.35811,2.3336e-07,-0.65741,0,0,0.14286,-0,-0,0.66667
0.67636,0.40079,4.7345,-0.14882,-5.1915,45.992,1.8788,-0.62628,-1.9208,2.5051,3.9091e-12,-0.9604,0,0,0.14286,-0,-0,0.66667
0.2317,0.71796,1.6219,0.32695,20.059,208.52,-1.4141,0.47136,-1.6213,-1.8854,-6.4629e-11,-0.81065,0,0,0.14286,6.3441e-17,0,0.66667
0.41359,0.80115,2.8951,0.45172,24.296,132.6,-3.4875,1.1625,-1.2727,-4.65,5.9441e-13,-0.63636,0,0,0.14286,6.7671e-16,0,0.66667
0.1393,0.71115,0.97511,0.31672,20.139,250.17,-0.82357,0.27452,-1.6446,-1.0981,-4.5696e-09,-0.82232,0,0,0.14286,-1.6918e-16,0,0.66667
0.37722,0.66142,2.6405,0.24214,13.442,146.8,-1.705,0.56833,-1.7924,-2.2733,2.6602e-12,-0.89622,0,0,0.14286,-0,-0,0.66667
0.42444,0.45268,2.9711,-0.070977,-3.7608,128.15,0.56234,-0.18745,-1.982,0.74979,1.1858e-12,-0.991,0,0,0.14286,-0,-0,0.66667
0.47296,0.58658,3.3108,0.12986,6.513,109.97,-1.1465,0.38218,-1.9395,-1.5287,4.3721e-13,-0.96974,0,0,0.14286,-0,-0,0.66667
0.42284,0.63929,2.9599,0.20893,11.097,128.82,-1.6491,0.5497,-1.846,-2.1988,4.8817e-13,-0.92298,0,0,0.14286,6.7671e-16,0,0.66667
0.10276,0.34249,0.7193,-0.23627,-15.149,266.98,0.45319,-0.15106,-1.8012,0.60426,6.1995e-09,-0.90058,0,0,0.14286,2.3262e-16,0,0.66667
0.77258,0.81601,5.4081,0.47402,12.318,24.655,-6.8361,2.2787,-1.2003,-9.1148,4.384e-12,-0.60013,0,0,0.14286,-0,-0,0.66667
0.13721,0.82864,0.96044,0.49296,31.437,251.19,-1.2626,0.42085,-1.1353,-1.6834,-5.2016e-09,-0.56766,0,0,0.14286,-0,-0,0.66667
0.42429,0.023122,2.97,-0.71532,-38.283,128.87,5.6654,-1.8885,-0.1811,7.5539,1.9642e-12,-0.09055,0,0,0.14286,-6.7671e-16,0,0.66667
0.27196,0.75338,1.9037,0.38008,22.83,190.92,-1.9295,0.64316,-1.4857,-2.5726,1.0244e-11,-0.74283,0,0,0.14286,-0,-0,0.66667
0.30101,0.57008,2.1071,0.10512,6.1853,178.33,-0.59064,0.19688,-1.9602,-0.78751,7.5212e-12,-0.98008,0,0,0.14286,-0,-0,0.66667
0.67242,0.41213,4.7069,-0.1318,-4.643,47.002,1.6543,-0.55145,-1.9405,2.2058,3.9827e-12,-0.97023,0,0,0.14286,-1.3534e-15,0,0.66667
0.51779,0.71978,3.6245,0.32968,15.609,94.207,-3.1864,1.0621,-1.6152,-4.2486,-7.2053e-13,-0.80762,0,0,0.14286,1.3534e-15,0,0.66667
0.19009,0.16025,1.3306,-0.50962,-31.932,227.19,1.8083,-0.60276,-1.0774,2.411,2.58e-10,-0.5387,0,0,0.14286,6.7671e-16,0,0.66667
0.46913,0.18239,3.2839,-0.47641,-24.11,111.67,4.172,-1.3907,-1.1955,5.5627,3.9257e-13,-0.59774,0,0,0.14286,-0,-0,0.66667
0.33954,0.93038,2.3768,0.64557,37.217,162.56,-4.0917,1.3639,-0.51766,-5.4555,1.0063e-12,-0.25883,0,0,0.14286,3.3835e-16,0,0.66667
0.7045,0.6643,4.9315,0.24644,7.9815,39.065,-3.2409,1.0803,-1.7853,-4.3212,-7.8884e-12,-0.89264,0,0,0.14286,-0,-0,0.66667
0.2261,0.091557,1.5827,-0.61266,-37.862,211.19,2.5857,-0.86191,-0.66477,3.4476,8.8053e-11,-0.33239,0,0,0.14286,1.6918e-16,0,0.66667
0.84499,0.34797,5.9149,-0.22804,-4.1402,12.095,3.5969,-1.199,-1.8169,4.7959,-2.5826e-09,-0.90847,0,0,0.14286,2.7068e-15,0,0.66667
0.52623,0.059024,3.6836,-0.66146,-31.163,91.856,6.4975,-2.1658,-0.44396,8.6634,-5.6533e-13,-0.22198,0,0,0.14286,1.0151e-15,0,0.66667
0.50062,0.94457,3.5043,0.66685,32.567,100.71,-6.2316,2.0772,-0.42089,-8.3088,1.5898e-13,-0.21044,0,0,0.14286,-0,-0,0.66667
0.25369,0.24199,1.7758,-0.38701,-23.492,198.88,1.8327,-0.61089,-1.4671,2.4436,5.8412e-12,-0.73354,0,0,0.14286,-1.6918e-16,0,0.66667
0.18616,0.96162,1.3031,0.69243,43.611,229.09,-2.4061,0.80204,-0.29659,-3.2082,-8.9193e-10,-0.14829,0,0,0.14286,-1.6918e-16,0,0.66667
0.47182,0.81109,3.3027,0.46664,23.533,110.68,-4.1098,1.3699,-1.2268,-5.4797,-1.4122e-13,-0.61338,0,0,0.14286,-6.7671e-16,0,0.66667
0.98182,0.50909,6.8728,0.01364,0.024141,0.331,-0.24998,0.08333,-1.9995,-0.33331,2.8772e-06,-0.99977,0,0,0.14286,-0,-0,0.66667
0.13291,0.039477,0.93034,-0.69078,-44.273,253.26,1.7138,-0.57126,-0.30183,2.285,-2.937e-10,-0.15092,0,0,0.14286,3.3835e-16,0,0.66667
0.28346,0.057857,1.9842,-0.66321,-39.764,186.22,3.5093,-1.1698,-0.43707,4.679,7.4452e-13,-0.21854,0,0,0.14286,-1.6918e-16,0,0.66667
0.80064,0.10194,5.6045,-0.59708,-13.876,19.833,8.9236,-2.9745,-0.73197,11.898,-5.8215e-10,-0.36598,0,0,0.14286,-0,-0,0.66667
0.66478,0.52854,4.6534,0.042809,1.536,48.978,-0.53123,0.17708,-1.9928,-0.70831,-1.0864e-13,-0.99639,0,0,0.14286,-3.3835e-16,0,0.66667
0.27876,0.71308,1.9513,0.31962,19.107,187.95,-1.6632,0.55439,-1.6374,-2.2175,1.0772e-11,-0.81871,0,0,0.14286,3.3835e-16,0,0.66667
0.31465,0.99113,2.2025,0.73669,43.35,173.07,-4.3269,1.4423,-0.070867,-5.7692,-1.7892e-12,-0.035433,0,0,0.14286,6.7671e-16,0,0.66667
0.41995,0.23498,2.9396,-0.39753,-21.225,130.08,3.1163,-1.0388,-1.4385,4.1551,5.0293e-13,-0.71923,0,0,0.14286,6.7671e-16,0,0.66667
0.60279,0.77115,4.2195,0.40672,16.75,66.853,-4.5764,1.5255,-1.4102,-6.1019,5.9819e-13,-0.70512,0,0,0.14286,-6.7671e-16,0,0.66667
0.71934,0.47355,5.0354,-0.039673,-1.2277,35.441,0.53271,-0.17757,-1.9967,0.71028,1.5705e-12,-0.99837,0,0,0.14286,-2.7068e-15,0,0.66667
0.8573,0.41572,6.0011,-0.12642,-2.1173,10.328,2.023,-0.67434,-1.9437,2.6974,-1.6342e-09,-0.97185,0,0,0.14286,-0,-0,0.66667
0.68111,0.25069,4.7678,-0.37396,-12.934,45.021,4.7545,-1.5848,-1.5026,6.3394,6.1986e-12,-0.75128,0,0,0.14286,-0,-0,0.66667
0.23698,0.83918,1.6589,0.50878,31.213,206.3,-2.2507,0.75022,-1.0804,-3.0009,-1.5423e-11,-0.54018,0,0,0.14286,-0,-0,0.66667
0.92572,0.51923,6.48,0.028851,0.25282,3.1998,-0.49856,0.16619,-1.9963,-0.66474,5.7555e-08,-0.99813,0,0,0.14286,-0,-0,0.66667
0.7812,0.11394,5.4684,-0.57909,-14.609,23.283,8.4445,-2.8148,-0.80984,11.259,-1.1836e-10,-0.40492,0,0,0.14286,6.7671e-16,-1.5474e-16,0.66667
0.30738,0.49613,2.1517,-0.0057996,-0.33972,175.61,0.033277,-0.011092,-1.9994,0.044369,1.2951e-12,-0.99971,0,0,0.14286,-9.2406e-16,0,0.66667
0.30497,0.48863,2.1348,-0.01706,-1.001,176.63,0.097117,-0.032372,-1.9972,0.12949,1.2068e-12,-0.9986,0,0,0.14286,-3.3835e-16,0,0.66667
0.88117,0.86905,6.1682,0.55357,7.9378,8.2206,-9.1054,3.0351,-0.90936,-12.141,1.9203e-08,-0.45468,0,0,0.14286,6.7671e-16,0,0.66667
0.12608,0.013482,0.88255,-0.72978,-46.898,256.41,1.7175,-0.5725,-0.1075,2.29,-1.2201e-08,-0.053749,0,0,0.14286,-0,-0,0.66667
0.63346,0.53289,4.4342,0.049335,1.9012,57.576,-0.58336,0.19445,-1.9908,-0.77782,6.9017e-13,-0.99542,0,0,0.14286,-0,-0,0.66667
0.27771,0.88961,1.944,0.58441,35.103,188.6,-3.0296,1.0099,-0.78494,-4.0395,2.0992e-12,-0.39247,0,0,0.14286,-0,-0,0.66667
0.8272,0.52638,5.7904,0.039564,0.79312,14.587,-0.6109,0.20363,-1.9964,-0.81454,-5.386e-11,-0.99822,0,0,0.14286,1.3534e-15,0,0.66667
0.36452,0.116,2.5517,-0.576,-32.494,152.24,3.9194,-1.3065,-0.81923,5.2258,2.0643e-12,-0.40961,0,0,0.14286,-3.3835e-16,0,0.66667
0.73337,0.36189,5.1336,-0.20717,-6.1439,32.366,2.836,-0.94534,-1.8486,3.7814,2.3899e-12,-0.92429,0,0,0.14286,-1.3534e-15,0,0.66667
0.19242,0.32021,1.3469,-0.26968,-16.83,226.03,0.96863,-0.32288,-1.7405,1.2915,5.4322e-10,-0.87025,0,0,0.14286,-0,-0,0.66667
0.48145,0.39505,3.3701,-0.15742,-7.813,106.9,1.4147,-0.47157,-1.9117,1.8863,3.4306e-14,-0.95584,0,0,0.14286,-0,-0,0.66667
0.80359,0.072667,5.6252,-0.641,-14.734,19.462,9.6153,-3.2051,-0.53748,12.82,-1.8454e-11,-0.26874,0,0,0.14286,-0,-0,0.66667
0.39699,0.93731,2.7789,0.65596,36.012,139.38,-4.861,1.6203,-0.47,-6.4813,-1.561e-12,-0.235,0,0,0.14286,9.5897e-16,0,0.66667
0.16157,0.78485,1.131,0.42728,27.019,240.04,-1.2887,0.42957,-1.3504,-1.7183,-1.7894e-09,-0.67519,0,0,0.14286,-0,-0,0.66667
0.64898,0.91393,4.5429,0.6209,23.366,54.016,-7.5218,2.5073,-0.62784,-10.029,-2.4958e-13,-0.31392,0,0,0.14286,-0,-0,0.66667
0.75333,0.81254,5.2733,0.46881,13.08,28.501,-6.5924,2.1975,-1.2197,-8.7898,3.1551e-11,-0.60984,0,0,0.14286,-0,-0,0.66667
0.28019,0.73733,1.9613,0.35599,21.271,187.35,-1.8619,0.62064,-1.5505,-2.4826,1.2022e-11,-0.77527,0,0,0.14286,-6.7017e-16,0,0.66667
0.45136,0.10988,3.1595,-0.58519,-30.31,118.41,4.9304,-1.6435,-0.78292,6.5739,7.8382e-13,-0.39146,0,0,0.14286,-6.7671e-16,-2.1405e-16,0.66667
0.90045,0.57259,6.3031,0.10888,1.2836,5.4024,-1.8301,0.61003,-1.9564,-2.4401,1.1368e-08,-0.97821,0,0,0.14286,-0,-0,0.66667
0.87199,0.004456,6.1039,-0.74332,-11.63,9.9432,12.099,-4.033,-0.035968,16.132,8.6107e-09,-0.017984,0,0,0.14286,-0,-0,0.66667
0.70719,0.87298,4.9503,0.55947,18.127,38.976,-7.3854,2.4618,-0.88742,-9.8472,-7.1001e-12,-0.44371,0,0,0.14286,-5.0753e-16,0,0.66667
0.5909,0.40418,4.1363,-0.14373,-6.031,70.198,1.5854,-0.52847,-1.9275,2.1139,2.0894e-13,-0.96377,0,0,0.14286,-3.3835e-16,0,0.66667
0.81738,0.75078,5.7217,0.37617,7.9923,16.494,-5.7395,1.9132,-1.4971,-7.6527,8.5486e-10,-0.74854,0,0,0.14286,-0,-0,0.66667
0.90764,0.010909,6.3535,-0.73364,-8.426,6.2164,12.43,-4.1433,-0.087271,16.573,1.4228e-07,-0.043636,0,0,0.14286,-0,-0,0.66667
0.0025076,0.92261,0.017553,0.63392,41.31,313.64,-0.029668,0.009893,-0.57115,-0.039556,5.3304e-06,-0.28558,0,0,0.14286,-5.2868e-18,0,0.66667
0.39723,0.48711,2.7806,-0.019334,-1.0526,138.76,0.14336,-0.047787,-1.9969,0.19115,2.6791e-12,-0.99846,0,0,0.14286,-1.3534e-15,0,0.66667
0.56141,0.24989,3.9299,-0.37516,-16.621,79.707,3.9315,-1.3105,-1.5023,5.2421,1.6365e-13,-0.75116,0,0,0.14286,-1.3217e-16,0,0.66667
0.73392,0.44019,5.1375,-0.089712,-2.6525,32.163,1.229,-0.40968,-1.9742,1.6387,-1.8594e-12,-0.9871,0,0,0.14286,-0,-0,0.66667
0.087473,0.34063,0.61231,-0.23905,-15.373,274.05,0.39033,-0.13011,-1.7962,0.52045,1.2203e-08,-0.89808,0,0,0.14286,-1.0574e-16,0,0.66667
0.39975,0.93919,2.7983,0.65879,36.075,138.3,-4.9159,1.6386,-0.45646,-6.5546,1.132e-12,-0.22823,0,0,0.14286,-1.3534e-15,0,0.66667
0.27962,0.30149,1.9573,-0.29777,-17.787,187.56,1.5542,-0.51808,-1.6855,2.0723,-4.6125e-12,-0.84275,0,0,0.14286,-0,-0,0.66667
0.42351,0.045443,2.9646,-0.68183,-36.488,129.11,5.3903,-1.7968,-0.34764,7.187,1.2226e-12,-0.17382,0,0,0.14286,-6.7671e-16,0,0.66667
0.49798,0.49162,3.4859,-0.012567,-0.61008,100.95,0.11681,-0.038938,-2.0001,0.15575,-1.0888e-12,-1,0,0,0.14286,1.0151e-15,0,0.66667
0.66002,0.99133,4.6201,0.73699,27.16,51.359,-9.08,3.0267,-0.068276,-12.107,5.8886e-13,-0.034138,0,0,0.14286,-0,-0,0.66667
0.49624,0.47526,3.4737,-0.037117,-1.8062,101.57,0.34382,-0.11461,-1.9949,0.45842,-1.4241e-13,-0.99743,0,0,0.14286,-0,-0,0.66667
0.62047,0.63776,4.3433,0.20664,8.1917,61.388,-2.3933,0.79778,-1.847,-3.1911,-2.5646e-13,-0.92352,0,0,0.14286,-0,-0,0.66667
0.58244,0.67442,4.0771,0.26162,11.16,72.905,-2.8444,0.94814,-1.7556,-3.7926,3.797e-14,-0.87779,0,0,0.14286,-0,-0,0.66667
0.42833,0.77768,2.9983,0.41652,22.052,126.88,-3.3303,1.1101,-1.3824,-4.4404,1.0394e-12,-0.69119,0,0,0.14286,-0,-0,0.66667
0.0049764,0.32716,0.034835,-0.25926,-16.805,312.48,0.024083,-0.0080276,-1.7596,0.032111,1.1378e-07,-0.87982,0,0,0.14286,1.0574e-17,0,0.66667
0.19452,0.8919,1.3616,0.58785,36.821,225.25,-2.1345,0.71149,-0.76945,-2.846,-2.987e-10,-0.38473,0,0,0.14286,3.3835e-16,0,0.66667
0.32021,0.038666,2.2414,-0.692,-40.515,170.67,4.1362,-1.3787,-0.29594,5.515,1.2212e-13,-0.14797,0,0,0.14286,-0,-0,0.66667
0.14698,0.086344,1.0288,-0.62048,-39.548,246.79,1.7024,-0.56745,-0.62982,2.2698,-1.8041e-09,-0.31491,0,0,0.14286,-0,-0,0.66667
0.59866,0.59796,4.1906,0.14693,6.0768,67.828,-1.642,0.54733,-1.9228,-2.1893,5.6699e-13,-0.9614,0,0,0.14286,-1.3534e-15,0,0.66667
0.6115,0.027467,4.2805,-0.7088,-28.948,64.896,8.0907,-2.6969,-0.2149,10.788,-2.1405e-13,-0.10745,0,0,0.14286,-0,-0,0.66667
0.50009,0.58909,3.5007,0.13363,6.4718,100.23,-1.2475,0.41583,-1.9393,-1.6633,1.1333e-12,-0.96967,0,0,0.14286,-6.7671e-16,0,0.66667
0.32085,0.72846,2.2459,0.3427,19.926,170.04,-2.0525,0.68416,-1.5808,-2.7366,7.0948e-12,-0.7904,0,0,0.14286,-0,-0,0.66667
0.65326,0.81442,4.5728,0.47163,17.497,52.521,-5.7511,1.917,-1.2101,-7.6681,-2.4687e-12,-0.60503,0,0,0.14286,2.7068e-15,0,0.66667
0.19028,0.88368,1.332,0.57551,36.101,227.14,-2.0442,0.6814,-0.82243,-2.7256,-3.4897e-10,-0.41122,0,0,0.14286,-0,-0,0.66667
0.005881,0.86649,0.041167,0.54974,35.767,312.06,-0.060349,0.020116,-0.92417,-0.080465,-7.9604e-07,-0.46208,0,0,0.14286,-5.2868e-18,-1.792e-16,0.66667
0.73494,0.94806,5.1446,0.67209,20.115,32.953,-9.2204,3.0735,-0.39563,-12.294,2.7356e-12,-0.19781,0,0,0.14286,-0,-0,0.66667
0.4435,0.12524,3.1045,-0.56214,-29.359,121.31,4.6538,-1.5513,-0.87641,6.2051,7.6961e-13,-0.43821,0,0,0.14286,-0,-0,0.66667
0.69784,0.71755,4.8849,0.32633,10.783,40.776,-4.2509,1.417,-1.6213,-5.6678,-8.2316e-12,-0.81067,0,0,0.14286,1.6072e-15,0,0.66667
0.18504,0.80562,1.2953,0.45842,28.757,229.43,-1.5835,0.52782,-1.2533,-2.1113,-7.8384e-10,-0.62665,0,0,0.14286,1.6918e-16,0,0.66667
0.06262,0.48742,0.43834,-0.018872,-1.2172,285.58,0.02206,-0.0073535,-2.0008,0.029413,-2.4919e-07,-1.0004,0,0,0.14286,-8.4588e-17,0,0.66667
0.37811,0.25503,2.6468,-0.36746,-20.412,146.53,2.5936,-0.86452,-1.5202,3.4581,2.2915e-13,-0.76012,0,0,0.14286,-0,-0,0.66667
0.696,0.35236,4.872,-0.22147,-7.3422,41.104,2.8773,-0.95909,-1.8241,3.8364,6.493e-12,-0.91204,0,0,0.14286,-0,-0,0.66667
0.10282,0.38054,0.71973,-0.17919,-11.485,266.94,0.34392,-0.11464,-1.8847,0.45856,8.9728e-09,-0.94237,0,0,0.14286,-0,-0,0.66667
0.19583,0.081027,1.3708,-0.62846,-39.375,224.69,2.2974,-0.76579,-0.59387,3.0632,3.5296e-10,-0.29694,0,0,0.14286,3.3835e-16,0,0.66667
0.45395,0.55058,3.1777,0.07587,3.8916,116.96,-0.64291,0.2143,-1.9809,-0.85721,-1.6764e-13,-0.99046,0,0,0.14286,-0,-0,0.66667
0.62115,0.86793,4.348,0.5519,21.998,61.696,-6.3992,2.1331,-0.91663,-8.5322,-9.3259e-15,-0.45832,0,0,0.14286,6.7671e-16,0,0.66667
0.75012,0.59935,5.2509,0.14902,4.1743,28.706,-2.0867,0.69556,-1.9237,-2.7823,1.6973e-11,-0.96185,0,0,0.14286,-0,-0,0.66667
0.10974,0.20433,0.76815,-0.44351,-28.459,263.8,0.90847,-0.30282,-1.3024,1.2113,1.2892e-08,-0.65119,0,0,0.14286,-1.6918e-16,0,0.66667
0.62462,0.058156,4.3724,-0.66277,-26.322,60.954,7.7276,-2.5759,-0.4408,10.303,-3.082e-13,-0.2204,0,0,0.14286,1.0151e-15,8.0989e-17,0.66667
0.38736,0.64797,2.7115,0.22195,12.207,142.73,-1.6049,0.53496,-1.8247,-2.1398,1.6801e-12,-0.91234,0,0,0.14286,-0,-0,0.66667
0.67009,0.59954,4.6906,0.1493,5.2908,47.62,-1.8675,0.62251,-1.9219,-2.49,-2.7601e-12,-0.96095,0,0,0.14286,-0,-0,0.66667
0.20356,0.092263,1.4249,-0.61161,-38.183,221.21,2.324,-0.77466,-0.67306,3.0986,5.2597e-10,-0.33653,0,0,0.14286,1.6918e-16,0,0.66667
0.52792,0.88719,3.6954,0.58078,27.234,91.119,-5.7233,1.9078,-0.80019,-7.6311,4.4853e-14,-0.40009,0,0,0.14286,-0,-0,0.66667
0.17216,0.54261,1.2051,0.063922,4.0154,235.14,-0.20543,0.068475,-1.9874,-0.2739,-3.3584e-10,-0.9937,0,0,0.14286,-0,-0,0.66667
0.018681,0.21477,0.13077,-0.42784,-27.774,306.09,0.14919,-0.049732,-1.3497,0.19893,-2.3571e-07,-0.67484,0,0,0.14286,2.1147e-17,0,0.66667
0.48695,0.3608,3.4087,-0.2088,-10.295,104.95,1.898,-0.63265,-1.8449,2.5306,6.3904e-13,-0.92245,0,0,0.14286,-6.7671e-16,0,0.66667
0.18418,0.015697,1.2892,-0.72646,-45.826,230,2.4975,-0.83251,-0.12302,3.3301,6.0572e-10,-0.06151,0,0,0.14286,-0,-1.6917e-16,0.66667
0.63834,0.33396,4.4684,-0.24906,-9.5121,56.316,2.9677,-0.98925,-1.7798,3.957,1.7164e-12,-0.88989,0,0,0.14286,-0,-0,0.66667
0.53657,0.61863,3.756,0.17794,8.1803,87.694,-1.7823,0.59409,-1.8865,-2.3763,-2.5313e-14,-0.94326,0,0,0.14286,1.0151e-15,0,0.66667
0.77495,0.14834,5.4246,-0.52749,-13.611,24.329,7.6305,-2.5435,-1.0093,10.174,-4.4474e-11,-0.50467,0,0,0.14286,-1.3534e-15,0,0.66667
0.39296,0.65092,2.7507,0.22637,12.386,140.51,-1.6605,0.5535,-1.8186,-2.214,5.4468e-13,-0.9093,0,0,0.14286,-0,-0,0.66667
0.98945,0.018834,6.9262,-0.72175,-0.95837,1.7588,13.331,-4.4435,-0.14656,17.774,-2.5563e-05,-0.073279,0,0,0.14286,-0,-0,0.66667
0.51521,0.15826,3.6065,-0.5126,-24.441,95.341,4.9299,-1.6433,-1.0687,6.5732,3.5394e-13,-0.53436,0,0,0.14286,-1.3534e-15,-1.4807e-16,0.66667
0.47882,0.23182,3.3518,-0.40227,-20.089,108.05,3.5955,-1.1985,-1.4231,4.794,-9.6367e-14,-0.71156,0,0,0.14286,6.7671e-16,0,0.66667
0.74944,0.96057,5.2461,0.69086,19.724,29.911,-9.6649,3.2216,-0.3049,-12.886,-2.9736e-12,-0.15245,0,0,0.14286,6.7671e-16,0,0.66667
0.57269,0.078966,4.0088,-0.63155,-27.622,76.561,6.7514,-2.2505,-0.58032,9.0019,-4.3787e-13,-0.29016,0,0,0.14286,6.7671e-16,0,0.66667
0.36247,0.14557,2.5373,-0.53165,-30.017,153.02,3.5971,-1.199,-0.99475,4.7962,1.9025e-12,-0.49737,0,0,0.14286,3.3835e-16,0,0.66667
0.48924,0.76299,3.4247,0.39448,19.437,104.29,-3.6026,1.2009,-1.4454,-4.8035,-2.1472e-13,-0.72271,0,0,0.14286,-0,-0,0.66667
0.18914,0.049393,1.324,-0.67591,-42.506,227.73,2.3864,-0.79545,-0.37626,3.1818,4.07e-10,-0.18813,0,0,0.14286,3.3835e-16,0,0.66667
0.39358,0.03785,2.7551,-0.69323,-38.216,140.79,5.0931,-1.6977,-0.29155,6.7907,3.8374e-12,-0.14577,0,0,0.14286,-0,-0,0.66667
0.029962,0.78925,0.20973,0.43387,28.152,300.83,-0.24266,0.080886,-1.332,-0.32354,3.2476e-07,-0.66599,0,0,0.14286,-0,-0,0.66667
0.46253,0.54319,3.2377,0.064779,3.2893,113.78,-0.5593,0.18643,-1.9834,-0.74573,-2.6618e-13,-0.99172,0,0,0.14286,-0,-0,0.66667
0.27447,0.1732,1.9213,-0.49019,-29.449,189.91,2.5115,-0.83717,-1.1438,3.3487,-4.1982e-12,-0.57191,0,0,0.14286,-0,-0,0.66667
0.52672,0.24332,3.687,-0.38502,-18.011,91.217,3.7855,-1.2618,-1.4723,5.0474,-2.891e-13,-0.73614,0,0,0.14286,-6.7671e-16,0,0.66667
0.029272,0.34476,0.2049,-0.23287,-15.078,301.14,0.12724,-0.042414,-1.809,0.16965,-3.1844e-08,-0.90451,0,0,0.14286,-0,-0,0.66667
0.55509,0.75952,3.8856,0.38928,17.431,81.776,-4.0336,1.3445,-1.4596,-5.3781,-2.3537e-14,-0.72978,0,0,0.14286,-0,-0,0.66667
0.293,0.15396,2.051,-0.51905,-30.843,181.98,2.8389,-0.94629,-1.0424,3.7851,5.9397e-13,-0.52122,0,0,0.14286,-4.2294e-16,0,0.66667
0.57749,0.82766,4.0424,0.49149,21.238,74.766,-5.2982,1.7661,-1.1426,-7.0643,5.973e-13,-0.57128,0,0,0.14286,-0,-0,0.66667
0.73277,0.38579,5.1294,-0.17131,-5.0879,32.467,2.3433,-0.78108,-1.8964,3.1243,8.7064e-13,-0.94822,0,0,0.14286,-0,-0,0.66667
0.44034,0.74866,3.0824,0.37299,19.48,122.26,-3.0658,1.0219,-1.5065,-4.0878,6.0574e-13,-0.75325,0,0,0.14286,9.3047e-16,0,0.66667
0.66316,0.62919,4.6421,0.19379,6.9875,49.482,-2.3989,0.79965,-1.8655,-3.1986,-3.0398e-12,-0.93277,0,0,0.14286,-0,-0,0.66667
0.23891,0.21644,1.6724,-0.42534,-26.035,205.39,1.8969,-0.6323,-1.3568,2.5292,2.3614e-11,-0.67839,0,0,0.14286,3.3835e-16,0,0.66667
0.9986,0.98727,6.9902,0.7309,0.11225,1.6745,-13.624,4.5414,-0.10125,-18.166,-2.2633e-05,-0.050624,0,0,0.14286,-0,-0,0.66667
0.24288,0.21943,1.7001,-0.42085,-25.706,203.64,1.908,-0.63601,-1.3699,2.544,4.0701e-12,-0.68497,0,0,0.14286,-0,-0,0.66667
0.94083,0.90488,6.5858,0.60732,4.4347,3.236,-10.666,3.5553,-0.68942,-14.221,-5.3789e-07,-0.34471,0,0,0.14286,-1.5226e-15,0,0.66667
0.21722,0.6298,1.5205,0.1947,12.014,214.9,-0.78945,0.26315,-1.8667,-1.0526,-1.1553e-10,-0.93336,0,0,0.14286,6.7671e-16,0,0.66667
0.49756,0.75145,3.483,0.37717,18.377,101.32,-3.5031,1.1677,-1.4956,-4.6709,-4.7651e-13,-0.74779,0,0,0.14286,-1.3534e-15,0,0.66667
0.82118,0.56522,5.7482,0.097829,2.0254,15.55,-1.4996,0.49986,-1.9653,-1.9994,2.4603e-10,-0.98264,0,0,0.14286,-0,-0,0.66667
0.71659,0.62571,5.0161,0.18856,5.8903,36.154,-2.5222,0.84074,-1.8753,-3.363,-7.6341e-12,-0.93766,0,0,0.14286,2.7068e-15,0,0.66667
0.70558,0.075836,4.9391,-0.63625,-20.77,39.561,8.3799,-2.7933,-0.56069,11.173,1.9833e-12,-0.28034,0,0,0.14286,-1.3534e-15,0,0.66667
0.44044,0.58317,3.0831,0.12475,6.4985,122.06,-1.0256,0.34188,-1.9445,-1.3675,9.3525e-13,-0.97225,0,0,0.14286,-0,-0,0.66667
0.75418,0.18171,5.2792,-0.47743,-13.285,28.345,6.7212,-2.2404,-1.1892,8.9616,-1.9233e-11,-0.5946,0,0,0.14286,-3.3835e-16,0,0.66667
0.91995,0.63514,6.4397,0.20271,1.9257,3.7636,-3.481,1.1603,-1.8545,-4.6413,2.193e-09,-0.92724,0,0,0.14286,-0,-0,0.66667
0.44135,0.94394,3.0895,0.66591,34.949,122.3,-5.4862,1.8287,-0.42304,-7.3149,-1.9895e-13,-0.21152,0,0,0.14286,-0,-0,0.66667
0.52797,0.39689,3.6958,-0.15466,-7.2015,90.588,1.5242,-0.50808,-1.9147,2.0323,-3.8158e-13,-0.95733,0,0,0.14286,6.7671e-16,0,0.66667
0.066036,0.1883,0.46225,-0.46756,-30.247,284.04,0.57634,-0.19211,-1.2236,0.76845,5.6638e-08,-0.61178,0,0,0.14286,1.6918e-16,0,0.66667
0.39077,0.48207,2.7354,-0.026899,-1.4734,141.31,0.19621,-0.065404,-1.9994,0.26162,1.0721e-12,-0.9997,0,0,0.14286,-6.7671e-16,0,0.66667
0.46724,0.66215,3.2707,0.24322,12.294,112.12,-2.1213,0.7071,-1.791,-2.8284,4.1944e-13,-0.89551,0,0,0.14286,-0,-0,0.66667
0.89514,0.65452,6.266,0.23177,2.887,6.0425,-3.8728,1.2909,-1.8092,-5.1637,6.1112e-09,-0.90458,0,0,0.14286,2.0301e-15,0,0.66667
0.11056,0.3013,0.7739,-0.29806,-19.089,263.38,0.61511,-0.20504,-1.6852,0.82015,1.0164e-08,-0.84262,0,0,0.14286,1.6918e-16,0,0.66667
0.73114,0.51735,5.118,0.026019,0.77603,32.764,-0.3551,0.11837,-1.9971,-0.47346,3.4417e-14,-0.99854,0,0,0.14286,-0,-0,0.66667
0.54547,0.94781,3.8183,0.67172,30.75,85.441,-6.8395,2.2798,-0.3967,-9.1193,2.0828e-13,-0.19835,0,0,0.14286,-1.3534e-15,0,0.66667
0.60654,0.59221,4.2457,0.13832,5.6344,65.454,-1.5661,0.52202,-1.9331,-2.0881,-2.1272e-13,-0.96654,0,0,0.14286,-5.0753e-16,0,0.66667
0.029783,0.4091,0.20848,-0.13635,-8.8232,300.9,0.075802,-0.025267,-1.9358,0.10107,9.5393e-08,-0.96789,0,0,0.14286,-0,-0,0.66667
0.14675,0.22104,1.0272,-0.41844,-26.582,246.8,1.1462,-0.38208,-1.377,1.5283,2.6969e-09,-0.68848,0,0,0.14286,-0,-0,0.66667
0.28398,0.21564,1.9879,-0.42655,-25.452,185.77,2.2611,-0.75371,-1.354,3.0148,-5.046e-12,-0.67699,0,0,0.14286,8.4588e-17,0,0.66667
0.004872,0.14516,0.034104,-0.53225,-34.619,312.53,0.048405,-0.016134,-0.99154,0.06454,8.1697e-07,-0.49577,0,0,0.14286,5.2868e-18,3.098e-16,0.66667
0.66916,0.64221,4.6841,0.21332,7.5819,47.913,-2.6645,0.88818,-1.838,-3.5527,-3.0425e-12,-0.91901,0,0,0.14286,-7.9244e-16,0,0.66667
0.87026,0.40426,6.0918,-0.14361,-2.196,8.7078,2.3329,-0.77763,-1.9267,3.1105,-2.3851e-09,-0.96335,0,0,0.14286,-3.3835e-16,0,0.66667
0.54697,0.56226,3.8288,0.093392,4.2225,84.195,-0.95354,0.31785,-1.9726,-1.2714,5.842e-13,-0.98632,0,0,0.14286,-7.613e-16,0,0.66667
0.54316,0.57776,3.8021,0.11664,5.306,85.464,-1.1827,0.39422,-1.9508,-1.5769,-1.8663e-13,-0.97541,0,0,0.14286,-0,-0,0.66667
0.61573,0.47887,4.3101,-0.031693,-1.2672,62.695,0.36427,-0.12142,-1.9949,0.48569,6.1368e-14,-0.99744,0,0,0.14286,-0,-0,0.66667
0.30218,0.58409,2.1153,0.12614,7.4171,177.83,-0.71152,0.23717,-1.9422,-0.94869,6.3476e-12,-0.97109,0,0,0.14286,-0,-0,0.66667
0.36673,0.30941,2.5671,-0.28588,-16.023,151.06,1.9571,-0.65235,-1.7086,2.6094,-9.3148e-14,-0.85431,0,0,0.14286,2.7775e-16,0,0.66667
0.57494,0.057366,4.0246,-0.66395,-28.955,75.925,7.1257,-2.3752,-0.43287,9.5009,7.9936e-14,-0.21644,0,0,0.14286,-0,-0,0.66667
0.80922,0.8387,5.6645,0.50805,11.297,18.129,-7.6743,2.5581,-1.0825,-10.232,3.2371e-10,-0.54124,0,0,0.14286,-3.3835e-16,0,0.66667
0.2016,0.013761,1.4112,-0.72936,-45.692,222.19,2.7447,-0.91489,-0.10928,3.6596,-2.7269e-10,-0.054639,0,0,0.14286,-0,1.6677e-16,0.66667
0.32752,0.86471,2.2927,0.54707,31.758,167.43,-3.3446,1.1149,-0.93759,-4.4595,3.0429e-12,-0.46879,0,0,0.14286,3.3835e-16,1.6779e-16,0.66667
0.74292,0.040584,5.2004,-0.68912,-20.111,31.282,9.5567,-3.1856,-0.30991,12.742,2.3226e-12,-0.15495,0,0,0.14286,-0,-0,0.66667
0.34092,0.65421,2.3864,0.23131,13.234,161.61,-1.472,0.49068,-1.8108,-1.9627,4.4026e-12,-0.90539,0,0,0.14286,-8.4588e-17,0,0.66667
0.047611,0.94025,0.33328,0.66037,42.96,292.64,-0.5869,0.19563,-0.45197,-0.78253,-6.6822e-07,-0.22599,0,0,0.14286,-0,-0,0.66667
0.15636,0.26646,1.0945,-0.35032,-22.168,242.39,1.0225,-0.34082,-1.5656,1.3633,2.4404e-09,-0.78282,0,0,0.14286,-3.3835e-16,0,0.66667
0.19386,0.58058,1.3571,0.12086,7.531,225.34,-0.43738,0.14579,-1.9463,-0.58318,-3.2086e-10,-0.97317,0,0,0.14286,-3.3835e-16,0,0.66667
0.49511,0.78932,3.4658,0.43398,21.235,102.26,-4.0109,1.337,-1.3294,-5.3479,-3.1619e-13,-0.6647,0,0,0.14286,-0,-0,0.66667
0.63512,0.63286,4.4459,0.19929,7.6599,57.178,-2.3627,0.78756,-1.8577,-3.1502,-1.1662e-12,-0.92883,0,0,0.14286,-0,-0,0.66667
0.88022,0.0020914,6.1615,-0.74686,-10.986,9.0148,12.272,-4.0905,-0.016519,16.362,-1.0101e-08,-0.0082593,0,0,0.14286,-0,-0,0.66667
0.90254,0.40366,6.3178,-0.14451,-1.6695,5.2283,2.4346,-0.81153,-1.9261,3.2461,-2.6104e-09,-0.96307,0,0,0.14286,-0,-0,0.66667
0.30716,0.062185,2.1501,-0.65672,-38.768,176.11,3.7654,-1.2551,-0.46669,5.0206,1.2896e-12,-0.23334,0,0,0.14286,-9.5162e-16,0,0.66667
0.75338,0.33584,5.2737,-0.24625,-6.8286,28.117,3.463,-1.1543,-1.7842,4.6173,-2.36e-11,-0.8921,0,0,0.14286,6.7671e-16,0,0.66667
0.28243,0.7144,1.977,0.3216,19.182,186.37,-1.6954,0.56515,-1.6341,-2.2606,1.2049e-11,-0.81707,0,0,0.14286,3.3835e-16,0,0.66667
0.36858,0.63641,2.58,0.20461,11.441,150.27,-1.4077,0.46925,-1.8495,-1.877,1.908e-12,-0.92475,0,0,0.14286,-0,-0,0.66667
0.29273,0.73827,2.0491,0.3574,21.188,181.97,-1.9529,0.65098,-1.5449,-2.6039,1.1188e-11,-0.77245,0,0,0.14286,-3.3835e-16,0,0.66667
0.41369,0.29463,2.8958,-0.30806,-16.533,132.42,2.3789,-0.79296,-1.6607,3.1718,1.3478e-13,-0.83036,0,0,0.14286,-6.7671e-16,0,0.66667
0.21472,0.87385,1.503,0.56078,34.804,216.2,-2.2476,0.7492,-0.88238,-2.9968,-3.7711e-10,-0.44119,0,0,0.14286,-3.8065e-16,0,0.66667
0.31899,0.42615,2.2329,-0.11077,-6.4373,170.72,0.65956,-0.21985,-1.9547,0.87941,-1.2644e-12,-0.97736,0,0,0.14286,-3.3835e-16,0,0.66667
0.12192,0.71705,0.85344,0.32558,20.801,258.15,-0.74096,0.24699,-1.624,-0.98795,-7.9466e-09,-0.81202,0,0,0.14286,-6.3441e-17,0,0.66667
0.96302,0.1153,6.7411,-0.57705,-2.5996,1.9822,10.373,-3.4578,-0.81467,13.831,-5.2692e-07,-0.40734,0,0,0.14286,-1.3534e-15,0,0.66667
0.50398,0.67603,3.5279,0.26404,12.734,98.943,-2.484,0.82801,-1.7513,-3.312,3.7681e-13,-0.87565,0,0,0.14286,-6.7671e-16,0,0.66667
0.9231,0.88493,6.4617,0.5774,5.4416,4.3551,-9.9493,3.3164,-0.81577,-13.266,2.3882e-08,-0.40788,0,0,0.14286,-2.7068e-15,0,0.66667
0.74616,0.9877,5.2231,0.73155,21.164,30.734,-10.189,3.3964,-0.096408,-13.586,2.9132e-13,-0.048204,0,0,0.14286,1.3534e-15,0,0.66667
0.45771,0.88457,3.2039,0.57686,29.655,116.03,-4.9286,1.6429,-0.81586,-6.5715,8.4555e-13,-0.40793,0,0,0.14286,-1.3534e-15,0,0.66667
0.75462,0.99464,5.2824,0.74197,20.862,29.01,-10.452,3.4839,-0.042119,-13.935,3.1561e-11,-0.02106,0,0,0.14286,2.4769e-15,0,0.66667
0.62802,0.44552,4.3962,-0.081714,-3.1859,59.135,0.95794,-0.31931,-1.9763,1.2772,3.5133e-13,-0.98813,0,0,0.14286,-0,-0,0.66667
0.30376,0.47262,2.1263,-0.041073,-2.4119,177.15,0.23289,-0.077629,-1.9931,0.31052,1.3417e-12,-0.99656,0,0,0.14286,-6.7671e-16,0,0.66667
0.52166,0.73312,3.6516,0.34968,16.469,92.899,-3.405,1.135,-1.5636,-4.5401,-3.9946e-13,-0.78178,0,0,0.14286,6.7671e-16,0,0.66667
0.71231,0.97797,4.9862,0.71696,23.039,38.213,-9.5331,3.1777,-0.17083,-12.711,-7.8781e-13,-0.085417,0,0,0.14286,-0,-0,0.66667
0.30531,0.19038,2.1372,-0.46442,-27.347,176.69,2.6468,-0.88228,-1.2324,3.5291,-2.1867e-12,-0.61619,0,0,0.14286,-6.7671e-16,0,0.66667
0.012523,0.6668,0.08766,0.2502,16.214,308.96,-0.058488,0.019496,-1.7771,-0.077984,-5.8793e-08,-0.88857,0,0,0.14286,-0,-0,0.66667
0.26826,0.88778,1.8778,0.58167,35.132,192.69,-2.9127,0.97091,-0.79694,-3.8836,7.8137e-12,-0.39847,0,0,0.14286,-0,-0,0.66667
0.79675,0.20249,5.5772,-0.44626,-10.479,20.123,6.637,-2.2123,-1.2939,8.8494,-2.1819e-10,-0.64694,0,0,0.14286,-0,-0,0.66667
0.92999,0.8512,6.51,0.52679,4.4945,3.6862,-9.1451,3.0484,-1.0119,-12.193,8.499e-08,-0.50593,0,0,0.14286,-2.7068e-15,0,0.66667
0.62533,0.44,4.3773,-0.089998,-3.5289,59.912,1.0505,-0.35018,-1.9742,1.4007,8.1735e-13,-0.98708,0,0,0.14286,-0,-0,0.66667
0.13281,0.95638,0.92965,0.68456,43.869,253.3,-1.6971,0.56569,-0.33195,-2.2628,5.9862e-09,-0.16597,0,0,0.14286,-0,-0,0.66667
0.75757,0.0092579,5.303,-0.73611,-20.476,28.388,10.41,-3.4699,-0.071766,13.879,-2.2928e-11,-0.035883,0,0,0.14286,-0,-0,0.66667
0.52691,0.42966,3.6883,-0.10552,-4.9195,90.927,1.0378,-0.34594,-1.9597,1.3837,6.4393e-15,-0.97986,0,0,0.14286,6.7671e-16,0,0.66667
0.75387,0.1487,5.2771,-0.52696,-14.706,28.524,7.4154,-2.4718,-1.0123,9.8872,2.1485e-11,-0.50613,0,0,0.14286,6.7671e-16,0,0.66667
0.85861,0.76819,6.0103,0.40229,6.7396,10.546,-6.4476,2.1492,-1.426,-8.5968,4.0702e-09,-0.71299,0,0,0.14286,1.3534e-15,0,0.66667
0.94754,0.89185,6.6328,0.58778,3.791,2.7752,-10.396,3.4654,-0.77004,-13.862,-9.2226e-08,-0.38502,0,0,0.14286,-1.3534e-15,0,0.66667
0.65454,0.021498,4.5818,-0.71775,-26.768,52.77,8.7695,-2.9232,-0.16906,11.693,5.5067e-13,-0.084532,0,0,0.14286,-1.3534e-15,0,0.66667
0.85426,0.1742,5.9798,-0.4887,-8.4643,11.322,7.7929,-2.5976,-1.1495,10.39,-1.9777e-09,-0.57473,0,0,0.14286,-1.3534e-15,0,0.66667
0.74259,0.27224,5.1981,-0.34164,-9.8541,30.525,4.7356,-1.5785,-1.5834,6.3142,-3.4994e-13,-0.79171,0,0,0.14286,6.7671e-16,0,0.66667
0.7271,0.47237,5.0897,-0.041443,-1.2521,33.671,0.56248,-0.18749,-1.993,0.74998,-1.4366e-13,-0.99651,0,0,0.14286,-0,-0,0.66667
0.85879,0.72938,6.0115,0.34407,5.7418,10.407,-5.5156,1.8385,-1.5808,-7.3542,4.3109e-09,-0.79039,0,0,0.14286,-0,-0,0.66667
0.923,0.33756,6.461,-0.24366,-2.2299,3.5757,4.198,-1.3993,-1.7906,5.5974,1.7828e-10,-0.89528,0,0,0.14286,6.7671e-16,0,0.66667
0.90208,0.11229,6.3145,-0.58156,-6.9417,6.1625,9.7928,-3.2643,-0.79649,13.057,-3.2312e-08,-0.39824,0,0,0.14286,-1.3534e-15,0,0.66667
0.39575,0.53705,2.7703,0.055571,3.0298,139.34,-0.41052,0.13684,-1.9883,-0.54736,-2.5361e-12,-0.99413,0,0,0.14286,1.3534e-15,0,0.66667
0.084021,0.70793,0.58815,0.3119,20.083,275.66,-0.48919,0.16306,-1.6526,-0.65225,-1.3433e-08,-0.8263,0,0,0.14286,-0,-0,0.66667
0.82957,0.33773,5.807,-0.24341,-4.8316,14.372,3.7693,-1.2564,-1.7907,5.0257,-1.2187e-09,-0.89536,0,0,0.14286,-6.7671e-16,0,0.66667
0.53893,0.70795,3.7725,0.31193,14.31,87.015,-3.138,1.046,-1.6523,-4.1841,-5.1004e-13,-0.82615,0,0,0.14286,6.7671e-16,0,0.66667
0.54208,0.18818,3.7945,-0.46772,-21.412,86.172,4.7328,-1.5776,-1.2224,6.3104,1.7586e-13,-0.61121,0,0,0.14286,-0,-0,0.66667
0.82518,0.04348,5.7762,-0.68478,-14.209,16.101,10.548,-3.5159,-0.33244,14.064,2.9328e-10,-0.16622,0,0,0.14286,-0,-0,0.66667
0.031984,0.64623,0.22389,0.21934,14.198,299.87,-0.13095,0.043651,-1.8305,-0.1746,3.4686e-08,-0.91527,0,0,0.14286,-4.2294e-17,0,0.66667
0.87796,0.85818,6.1457,0.53727,7.8922,8.5329,-8.8051,2.935,-0.9733,-11.74,6.5365e-09,-0.48665,0,0,0.14286,-0,-0,0.66667
0.034634,0.10827,0.24244,-0.5876,-38.212,298.67,0.37989,-0.12663,-0.77174,0.50651,2.4309e-07,-0.38587,0,0,0.14286,-0,-0,0.66667
0.69319,0.75452,4.8524,0.38179,12.793,42.003,-4.9402,1.6467,-1.481,-6.5869,-6.8696e-12,-0.7405,0,0,0.14286,-0,-0,0.66667
0.58748,0.6131,4.1124,0.16966,7.1647,71.266,-1.8605,0.62017,-1.896,-2.4807,2.1994e-13,-0.94801,0,0,0.14286,-6.7671e-16,0,0.66667
0.64175,0.98961,4.4922,0.73441,28.203,56.316,-8.7977,2.9326,-0.083493,-11.73,3.8991e-13,-0.041746,0,0,0.14286,-6.7671e-16,0,0.66667
0.37408,0.89815,2.6186,0.59722,33.431,148.41,-4.1703,1.3901,-0.73341,-5.5604,6.3594e-13,-0.36671,0,0,0.14286,-0,1.2994e-16,0.66667
0.27546,0.88701,1.9282,0.58051,34.913,189.57,-2.985,0.99499,-0.80027,-3.9799,2.5191e-12,-0.40013,0,0,0.14286,-0,-0,0.66667
0.50941,0.79628,3.5659,0.44442,21.333,97.249,-4.226,1.4087,-1.296,-5.6346,-1.4788e-13,-0.64801,0,0,0.14286,-0,-0,0.66667
0.88582,0.53092,6.2008,0.046373,0.6254,6.8732,-0.76679,0.2556,-1.9927,-1.0224,4.6266e-09,-0.99634,0,0,0.14286,-9.3047e-16,0,0.66667
0.56529,0.80762,3.957,0.46144,20.346,78.586,-4.8691,1.623,-1.2435,-6.4922,1.3323e-13,-0.62175,0,0,0.14286,1.0151e-15,0,0.66667
0.66315,0.6661,4.642,0.24915,8.9899,49.535,-3.0841,1.028,-1.7777,-4.1122,-3.5063e-12,-0.88884,0,0,0.14286,-0,-0,0.66667
0.44138,0.72586,3.0897,0.33878,17.664,121.84,-2.7913,0.93042,-1.5915,-3.7217,1.6787e-13,-0.79577,0,0,0.14286,-0,-0,0.66667
0.97214,0.95255,6.805,0.67883,2.3652,2.0216,-12.318,4.1061,-0.36097,-16.424,-1.4907e-05,-0.18049,0,0,0.14286,1.3534e-15,0,0.66667
0.74252,0.69855,5.1977,0.29783,8.5837,30.475,-4.128,1.376,-1.6829,-5.504,3.2427e-12,-0.84144,0,0,0.14286,-0,-0,0.66667
0.3549,0.034236,2.4843,-0.69865,-39.842,156.33,4.6284,-1.5428,-0.26446,6.1712,3.4572e-12,-0.13223,0,0,0.14286,-0,-1.3839e-16,0.66667
0.65353,0.85951,4.5747,0.53926,20.032,52.585,-6.5786,2.1929,-0.96584,-8.7714,-7.8648e-13,-0.48292,0,0,0.14286,-7.7394e-16,0,0.66667
0.54262,0.68063,3.7983,0.27094,12.352,85.747,-2.7443,0.91478,-1.7384,-3.6591,-1.3101e-14,-0.86922,0,0,0.14286,-1.0151e-15,0,0.66667
0.88406,0.56841,6.1884,0.10262,1.4058,7.089,-1.6934,0.56448,-1.9614,-2.2579,-2.4125e-09,-0.98071,0,0,0.14286,-0,-0,0.66667
0.27505,0.7112,1.9254,0.3168,18.98,189.54,-1.6266,0.54219,-1.6419,-2.1688,1.0757e-11,-0.82094,0,0,0.14286,-1.6918e-16,0,0.66667
0.10807,0.49788,0.75647,-0.0031736,-0.20307,264.5,0.006402,-0.002134,-2.0021,0.008536,5.1624e-08,-1.0011,0,0,0.14286,-8.4588e-17,0,0.66667
0.19127,0.27824,1.3389,-0.33264,-20.781,226.57,1.1877,-0.39589,-1.6069,1.5835,5.7182e-10,-0.80343,0,0,0.14286,-5.0753e-16,0,0.66667
0.38705,0.027195,2.7093,-0.70921,-39.35,143.4,5.1239,-1.708,-0.21185,6.8319,4.2819e-12,-0.10593,0,0,0.14286,-1.0151e-15,0,0.66667
0.85406,0.008419,5.9784,-0.73737,-13.021,12.159,11.756,-3.9185,-0.065657,15.674,-1.3742e-09,-0.032829,0,0,0.14286,-0,-0,0.66667
0.27084,0.34259,1.8959,-0.23611,-14.17,191.33,1.1937,-0.3979,-1.8018,1.5916,-1.7997e-12,-0.9009,0,0,0.14286,3.8065e-16,0,0.66667
0.62636,0.29184,4.3845,-0.31224,-12.246,59.79,3.6507,-1.2169,-1.6544,4.8676,1.0933e-12,-0.82718,0,0,0.14286,-0,-0,0.66667
0.62355,0.55158,4.3649,0.077368,3.0447,60.422,-0.90054,0.30018,-1.9796,-1.2007,-2.9754e-13,-0.98981,0,0,0.14286,6.7671e-16,0,0.66667
0.40805,0.34272,2.8563,-0.23591,-12.723,134.57,1.7969,-0.59898,-1.8041,2.3959,1.3951e-12,-0.90204,0,0,0.14286,8.4588e-17,0,0.66667
0.050335,0.80148,0.35235,0.45223,29.303,291.34,-0.42491,0.14164,-1.2723,-0.56654,-7.5448e-09,-0.63617,0,0,0.14286,-0,-0,0.66667
0.74483,0.34505,5.2138,-0.23243,-6.6382,29.9,3.2316,-1.0772,-1.8079,4.3088,-6.4027e-12,-0.90396,0,0,0.14286,-0,-0,0.66667
0.29573,0.0011921,2.0701,-0.74821,-44.606,181.09,4.1303,-1.3768,-0.011986,5.507,-2.7636e-12,-0.0059928,0,0,0.14286,1.3534e-15,0,0.66667
0.39846,0.50377,2.7892,0.0056558,0.30754,138.27,-0.042067,0.014022,-1.999,-0.056089,-1.6745e-12,-0.99949,0,0,0.14286,-0,-0,0.66667
0.37724,0.090199,2.6407,-0.6147,-34.328,147.17,4.3286,-1.4429,-0.65766,5.7715,2.4758e-12,-0.32883,0,0,0.14286,-6.7671e-16,0,0.66667
0.6636,0.65591,4.6452,0.23387,8.4278,49.399,-2.897,0.96567,-1.8053,-3.8627,-2.8439e-12,-0.90264,0,0,0.14286,-5.9212e-16,0,0.66667
0.086333,0.94906,0.60433,0.67359,43.604,274.69,-1.0855,0.36184,-0.38498,-1.4474,6.9242e-08,-0.19249,0,0,0.14286,-0,-0,0.66667
0.54989,0.84911,3.8492,0.52366,23.711,83.686,-5.3752,1.7917,-1.0253,-7.1669,-5.298e-13,-0.51267,0,0,0.14286,-0,-0,0.66667
0.015422,0.066782,0.10795,-0.64983,-42.351,307.62,0.18706,-0.062353,-0.50135,0.24942,2.7711e-06,-0.25068,0,0,0.14286,-0,-0,0.66667
0.98304,0.22499,6.8813,-0.41252,-0.73864,0.81947,7.5697,-2.5232,-1.3964,10.093,1.2334e-07,-0.69821,0,0,0.14286,2.7068e-15,0,0.66667
0.59843,0.68225,4.189,0.27337,11.326,67.999,-3.0537,1.0179,-1.7338,-4.0716,-1.1773e-12,-0.86689,0,0,0.14286,1.0151e-15,0,0.66667
0.38411,0.18432,2.6888,-0.47351,-26.206,144.24,3.3952,-1.1317,-1.2021,4.5269,1.539e-12,-0.60104,0,0,0.14286,-1.6918e-16,0,0.66667
0.14675,0.18052,1.0272,-0.47922,-30.469,246.82,1.3127,-0.43757,-1.1823,1.7503,2.6733e-09,-0.59114,0,0,0.14286,-1.6918e-16,0,0.66667
0.69688,0.70564,4.8781,0.30847,10.216,40.987,-4.0127,1.3376,-1.66,-5.3502,-7.8511e-12,-0.82999,0,0,0.14286,-0,-0,0.66667
0.90581,0.105,6.3407,-0.5925,-6.819,5.8535,10.018,-3.3394,-0.75358,13.358,1.1249e-09,-0.37679,0,0,0.14286,-0,-0,0.66667
0.31811,0.035867,2.2268,-0.6962,-40.826,171.56,4.1341,-1.378,-0.27591,5.5121,-2.7889e-13,-0.13796,0,0,0.14286,-0,-0,0.66667
0.76649,0.77633,5.3654,0.41449,11.002,25.721,-5.9305,1.9768,-1.3912,-7.9073,5.4995e-11,-0.6956,0,0,0.14286,-3.3835e-16,0,0.66667
0.2875,0.49678,2.0125,-0.0048277,-0.28652,184.09,0.025909,-0.0086362,-1.9993,0.034545,1.453e-12,-0.99963,0,0,0.14286,1.6918e-16,0,0.66667
0.95723,0.087171,6.7006,-0.61924,-3.2721,2.391,11.065,-3.6883,-0.63615,14.753,-1.9943e-06,-0.31808,0,0,0.14286,-0,-0,0.66667
0.70232,0.87702,4.9162,0.56552,18.581,40.156,-7.414,2.4713,-0.86547,-9.8853,-4.5208e-12,-0.43273,0,0,0.14286,-2.7068e-15,4.0851e-17,0.66667
0.62502,0.99442,4.3751,0.74162,29.515,61.057,-8.6525,2.8842,-0.047209,-11.537,-3.9257e-13,-0.023604,0,0,0.14286,3.3835e-16,0,0.66667
0.93073,0.56922,6.5151,0.10383,0.84773,2.8616,-1.8038,0.60128,-1.9604,-2.4051,4.7425e-08,-0.9802,0,0,0.14286,-0,-0,0.66667
0.26904,0.060942,1.8833,-0.65859,-39.825,192.43,3.3075,-1.1025,-0.45857,4.41,1.3141e-12,-0.22929,0,0,0.14286,-1.2688e-16,0,0.66667
0.92362,0.47562,6.4653,-0.036571,-0.32979,3.3617,0.63052,-0.21017,-1.9963,0.84069,4.9134e-08,-0.99815,0,0,0.14286,-0,-0,0.66667
0.67808,0.036546,4.7466,-0.69518,-24.478,46.52,8.7993,-2.9331,-0.2807,11.732,2.6734e-13,-0.14035,0,0,0.14286,-0,-0,0.66667
0.77136,0.4331,5.3995,-0.10035,-2.5978,24.377,1.4449,-0.48164,-1.9635,1.9266,-6.5839e-11,-0.98173,0,0,0.14286,-1.6918e-15,0,0.66667
0.57164,0.27649,4.0014,-0.33526,-14.59,76.384,3.5774,-1.1925,-1.5994,4.7698,8.6198e-13,-0.7997,0,0,0.14286,-1.0151e-15,0,0.66667
0.8339,0.78749,5.8373,0.43123,8.4134,14.048,-6.7126,2.2375,-1.3378,-8.9502,1.5133e-09,-0.6689,0,0,0.14286,-0,-0,0.66667
0.69828,0.39135,4.888,-0.16297,-5.3652,40.495,2.1243,-0.70808,-1.9042,2.8323,5.473e-12,-0.95212,0,0,0.14286,-1.3534e-15,0,0.66667
0.14661,0.36408,1.0263,-0.20388,-12.923,246.8,0.55794,-0.18598,-1.8507,0.74393,2.4874e-09,-0.92534,0,0,0.14286,-0,-0,0.66667
0.61246,0.20542,4.2872,-0.44187,-17.872,64.028,5.0518,-1.6839,-1.3054,6.7357,5.4889e-13,-0.65268,0,0,0.14286,-0,-0,0.66667
0.27932,0.22966,1.9552,-0.40551,-24.259,187.76,2.1143,-0.70478,-1.4158,2.8191,-7.2649e-12,-0.70792,0,0,0.14286,-0,-0,0.66667
0.91588,0.58691,6.4112,0.13036,1.2989,4.0282,-2.2287,0.74292,-1.9384,-2.9717,3.779e-09,-0.96922,0,0,0.14286,5.4231e-16,0,0.66667
0.19823,0.49436,1.3876,-0.008458,-0.52594,223.37,0.031298,-0.010433,-1.9991,0.04173,2e-10,-0.99955,0,0,0.14286,-0,-0,0.66667
0.28572,0.16717,2,-0.49924,-29.792,185.08,2.6626,-0.88754,-1.1128,3.5502,-2.581e-12,-0.5564,0,0,0.14286,6.7671e-16,0,0.66667
0.047655,0.83148,0.33358,0.49722,32.249,292.59,-0.4423,0.14743,-1.1224,-0.58974,-6.4481e-08,-0.56119,0,0,0.14286,-0,-0,0.66667
0.44758,0.19944,3.1331,-0.45084,-23.386,119.63,3.7667,-1.2556,-1.2758,5.0223,7.554e-13,-0.63792,0,0,0.14286,-0,-0,0.66667
0.55759,0.7771,3.9031,0.41565,18.545,81,-4.3262,1.4421,-1.3853,-5.7682,-7.061e-14,-0.69265,0,0,0.14286,6.6851e-16,0,0.66667
0.57356,0.51667,4.0149,0.024998,1.0814,75.574,-0.26764,0.089215,-1.9966,-0.35686,2.2149e-13,-0.99829,0,0,0.14286,-0,-0,0.66667
0.90538,0.20224,6.3376,-0.44664,-5.0929,5.4658,7.5484,-2.5161,-1.292,10.065,-2.0066e-08,-0.64598,0,0,0.14286,-1.3534e-15,0,0.66667
0.34741,0.90464,2.4319,0.60696,34.746,159.27,-3.9362,1.3121,-0.69073,-5.2482,-4.8339e-13,-0.34537,0,0,0.14286,8.4588e-16,0,0.66667
0.44753,0.45731,3.1327,-0.06404,-3.3089,119.37,0.53498,-0.17833,-1.984,0.71331,7.086e-13,-0.99198,0,0,0.14286,-0,-0,0.66667
0.85124,0.61128,5.9587,0.16691,2.9106,11.168,-2.6522,0.88407,-1.8991,-3.5363,2.4879e-09,-0.94954,0,0,0.14286,-0,-0,0.66667
0.57683,0.091069,4.0378,-0.6134,-26.622,75.216,6.6047,-2.2016,-0.66425,8.8063,-1.7453e-13,-0.33213,0,0,0.14286,-3.3835e-16,0,0.66667
0.65399,0.08345,4.578,-0.62483,-23.251,52.663,7.6278,-2.5426,-0.6122,10.17,5.862e-13,-0.3061,0,0,0.14286,6.7671e-16,-1.4953e-16,0.66667
0.27836,0.55505,1.9485,0.082573,4.9292,188.04,-0.42905,0.14302,-1.9759,-0.57207,6.9585e-12,-0.98795,0,0,0.14286,-5.0753e-16,0,0.66667
0.48747,0.0074161,3.4123,-0.73888,-36.789,105.52,6.7234,-2.2411,-0.058915,8.9645,1.7795e-12,-0.029457,0,0,0.14286,-2.7068e-15,0,0.66667
0.62095,0.24362,4.3467,-0.38457,-15.272,61.451,4.4576,-1.4859,-1.4738,5.9434,1.2679e-12,-0.73689,0,0,0.14286,-3.3835e-16,0,0.66667
0.13339,0.17423,0.93376,-0.48866,-31.194,252.94,1.2168,-0.40559,-1.1491,1.6224,5.562e-09,-0.57457,0,0,0.14286,-0,-0,0.66667
0.032909,0.9427,0.23036,0.66404,43.253,299.48,-0.40792,0.13597,-0.43351,-0.5439,6.6514e-07,-0.21675,0,0,0.14286,-0,-0,0.66667
0.11341,0.72853,0.79388,0.3428,21.95,262.08,-0.7257,0.2419,-1.5815,-0.9676,-1.0536e-08,-0.79073,0,0,0.14286,-3.3835e-16,0,0.66667
0.47746,0.4321,3.3422,-0.10185,-5.0789,108.32,0.90774,-0.30258,-1.962,1.2103,-1.0516e-12,-0.981,0,0,0.14286,-0,-0,0.66667
0.024027,0.41009,0.16819,-0.13487,-8.73,303.58,0.060487,-0.020162,-1.9344,0.080649,6.6507e-08,-0.96721,0,0,0.14286,-0,-0,0.66667
0.62621,0.93658,4.3835,0.65487,25.916,60.479,-7.6549,2.5516,-0.47766,-10.207,-3.7215e-13,-0.23883,0,0,0.14286,-4.2294e-16,0,0.66667
0.097583,0.47113,0.68308,-0.043299,-2.7768,269.35,0.078871,-0.02629,-1.9937,0.10516,3.3284e-09,-0.99685,0,0,0.14286,-0,-0,0.66667
0.25096,0.46193,1.7567,-0.057099,-3.4624,199.96,0.26748,-0.089162,-1.9901,0.35665,9.9424e-12,-0.99506,0,0,0.14286,-1.6918e-16,0,0.66667
0.42649,0.58072,2.9855,0.12108,6.4031,127.37,-0.96397,0.32132,-1.9467,-1.2853,1.5063e-12,-0.97334,0,0,0.14286,-6.7671e-16,0,0.66667
0.11583,0.15506,0.81079,-0.51741,-33.192,261.02,1.1187,-0.37289,-1.0478,1.4916,4.423e-11,-0.52391,0,0,0.14286,2.4319e-16,0,0.66667
0.27055,0.64958,1.8939,0.22436,13.466,191.45,-1.1331,0.3777,-1.8202,-1.5108,5.7023e-12,-0.91011,0,0,0.14286,1.602e-16,0,0.66667
0.02108,0.41103,0.14756,-0.13346,-8.6402,304.96,0.052515,-0.017505,-1.936,0.070021,1.0527e-08,-0.96798,0,0,0.14286,-0,-0,0.66667
0.98505,0.91164,6.8953,0.61746,1.0814,1.4184,-11.353,3.7845,-0.6466,-15.138,2.669e-06,-0.3233,0,0,0.14286,-2.7068e-15,0,0.66667
0.61157,0.91266,4.281,0.61899,25.2,64.647,-7.0664,2.3555,-0.63846,-9.4218,4.9294e-13,-0.31923,0,0,0.14286,-1.3534e-15,0,0.66667
0.37835,0.31733,2.6485,-0.27401,-15.201,146.36,1.9352,-0.64508,-1.7333,2.5803,1.1598e-12,-0.86663,0,0,0.14286,-0,-0,0.66667
0.026528,0.47707,0.1857,-0.034398,-2.2257,302.41,0.017034,-0.0056782,-1.9949,0.022712,-3.0801e-07,-0.99745,0,0,0.14286,-0,-0,0.66667
0.38984,0.1005,2.7289,-0.59925,-33.075,142.12,4.3608,-1.4536,-0.72507,5.8143,2.855e-12,-0.36253,0,0,0.14286,-0,-1.1458e-16,0.66667
0.45256,0.60277,3.1679,0.15416,7.9228,117.51,-1.3023,0.4341,-1.9173,-1.7364,5.5755e-13,-0.95867,0,0,0.14286,-0,-0,0.66667
0.931,0.20014,6.517,-0.44978,-3.7472,3.3973,7.8167,-2.6056,-1.279,10.422,-4.7042e-08,-0.63948,0,0,0.14286,-0,-0,0.66667
0.2785,0.23484,1.9495,-0.39774,-23.803,188.1,2.0677,-0.68924,-1.4373,2.757,-6.2503e-12,-0.71866,0,0,0.14286,-0,-0,0.66667
0.61478,0.45624,4.3035,-0.065639,-2.6296,62.979,0.75327,-0.25109,-1.9832,1.0044,9.6367e-14,-0.99161,0,0,0.14286,6.7671e-16,0,0.66667
0.66517,0.4662,4.6562,-0.050705,-1.8176,48.876,0.62957,-0.20986,-1.9902,0.83943,1.158e-12,-0.99512,0,0,0.14286,5.0753e-16,0,0.66667
0.18596,0.22814,1.3017,-0.40778,-25.553,228.99,1.4155,-0.47184,-1.4097,1.8874,5.3049e-10,-0.70485,0,0,0.14286,-0,-0,0.66667
0.50576,0.12311,3.5403,-0.56534,-27.345,98.713,5.3373,-1.7791,-0.86332,7.1164,4.1478e-13,-0.43166,0,0,0.14286,7.613e-16,0,0.66667
0.7865,0.58694,5.5055,0.13041,3.176,21.521,-1.9147,0.63822,-1.9386,-2.5529,1.6469e-10,-0.9693,0,0,0.14286,-0,-0,0.66667
0.096579,0.3125,0.67605,-0.28125,-18.063,269.84,0.50704,-0.16901,-1.7202,0.67605,1.174e-08,-0.86009,0,0,0.14286,-0,-0,0.66667
0.60604,0.021674,4.2422,-0.71749,-29.624,66.538,8.1167,-2.7056,-0.1693,10.822,5.6755e-13,-0.08465,0,0,0.14286,-0,1.4382e-16,0.66667
0.02606,0.10322,0.18242,-0.59518,-38.73,302.66,0.28953,-0.096511,-0.73931,0.38603,-3.531e-06,-0.36966,0,0,0.14286,-0,-0,0.66667
0.0070467,0.81731,0.049327,0.47597,30.929,311.52,-0.062608,0.020869,-1.1935,-0.083478,-4.8492e-07,-0.59673,0,0,0.14286,-0,-0,0.66667
0.059529,0.029081,0.4167,-0.70638,-45.94,287.12,0.78493,-0.26165,-0.22679,1.0466,-5.7449e-06,-0.11339,0,0,0.14286,-8.4588e-17,0,0.66667
0.4814,0.75066,3.3698,0.376,18.708,107.09,-3.3788,1.1263,-1.4985,-4.505,4.9072e-13,-0.74927,0,0,0.14286,-0,-0,0.66667
0.9257,0.30437,6.4799,-0.29345,-2.598,3.4466,5.0708,-1.6903,-1.6933,6.761,-1.0529e-08,-0.84667,0,0,0.14286,-0,-0,0.66667
0.40556,0.40507,2.8389,-0.1424,-7.6931,135.5,1.078,-0.35934,-1.9308,1.4374,2.4311e-12,-0.96539,0,0,0.14286,-9.7277e-16,0,0.66667
0.075033,0.5209,0.52523,0.031349,2.0183,279.81,-0.043908,0.014636,-1.9963,-0.058543,-1.9071e-08,-0.99813,0,0,0.14286,-0,-0,0.66667
0.86135,0.6872,6.0295,0.2808,4.5937,9.9713,-4.5149,1.505,-1.7216,-6.0199,4.7967e-09,-0.86081,0,0,0.14286,1.438e-15,0,0.66667
0.5193,0.30955,3.6351,-0.28568,-13.489,93.644,2.7693,-0.92309,-1.7102,3.6924,3.5971e-13,-0.85508,0,0,0.14286,-3.3835e-16,0,0.66667
0.31894,0.62751,2.2326,0.19127,11.121,170.76,-1.1387,0.37957,-1.8694,-1.5183,6.3577e-12,-0.93468,0,0,0.14286,-0,-0,0.66667
0.96303,0.80991,6.7412,0.46486,2.037,1.6313,-8.3566,2.7855,-1.2312,-11.142,-1.1575e-07,-0.61562,0,0,0.14286,3.3835e-16,0,0.66667
0.93826,0.4091,6.5678,-0.13635,-0.98909,2.3738,2.3881,-0.79602,-1.9364,3.1841,-3.37e-08,-0.96819,0,0,0.14286,-0,-0,0.66667
0.26002,0.97233,1.8201,0.7085,43.115,196.4,-3.4388,1.1463,-0.21465,-4.5851,4.6392e-12,-0.10733,0,0,0.14286,-0,-0,0.66667
0.20139,0.64727,1.4097,0.22091,13.729,221.98,-0.83046,0.27682,-1.8273,-1.1073,-3.2055e-10,-0.91366,0,0,0.14286,1.6918e-16,0,0.66667
0.58891,0.78847,4.1224,0.4327,18.297,71.116,-4.7567,1.5856,-1.3335,-6.3423,5.7065e-13,-0.66673,0,0,0.14286,-0,-0,0.66667
0.84252,0.0061131,5.8976,-0.74083,-14.034,13.747,11.651,-3.8837,-0.050169,15.535,8.6435e-10,-0.025085,0,0,0.14286,-0,-0,0.66667
0.33672,0.21691,2.357,-0.42464,-24.429,163.48,2.669,-0.88968,-1.3583,3.5587,-4.9583e-13,-0.67917,0,0,0.14286,9.3047e-16,0,0.66667
0.58643,0.57577,4.105,0.11366,4.8073,71.564,-1.2442,0.41473,-1.9522,-1.6589,-4.3721e-13,-0.97611,0,0,0.14286,-0,-0,0.66667
0.16224,0.9534,1.1357,0.6801,43.193,239.88,-2.0597,0.68658,-0.35374,-2.7463,1.6148e-09,-0.17687,0,0,0.14286,-3.3835e-16,0,0.66667
0.19459,0.060445,1.3622,-0.65933,-41.358,225.27,2.395,-0.79832,-0.45375,3.1933,-2.5985e-10,-0.22688,0,0,0.14286,-4.6524e-16,0,0.66667
0.76134,0.9671,5.3293,0.70065,19.191,27.507,-9.9573,3.3191,-0.25484,-13.276,-5.4534e-13,-0.12742,0,0,0.14286,-1.5226e-15,0,0.66667
0.1501,0.4822,1.0507,-0.026707,-1.69,245.19,0.074828,-0.024943,-1.9958,0.09977,-3.6158e-11,-0.99789,0,0,0.14286,-0,-0,0.66667
0.26591,0.28937,1.8613,-0.31595,-19.031,193.51,1.5682,-0.52275,-1.6473,2.091,-1.3338e-12,-0.82364,0,0,0.14286,-0,-0,0.66667
0.68949,0.45338,4.8265,-0.06993,-2.3563,42.619,0.90004,-0.30001,-1.9829,1.2001,2.8393e-12,-0.99146,0,0,0.14286,-1.3534e-15,0,0.66667
0.015089,0.70277,0.10563,0.30415,19.719,307.76,-0.08567,0.028557,-1.6726,-0.11423,-2.8424e-08,-0.83632,0,0,0.14286,-2.1147e-17,0,0.66667
0.032194,0.21036,0.22536,-0.43446,-28.187,299.79,0.2611,-0.087032,-1.3304,0.34813,-2.4559e-07,-0.6652,0,0,0.14286,2.1147e-17,0,0.66667
0.28753,0.13666,2.0127,-0.54502,-32.514,184.35,2.9252,-0.97506,-0.94221,3.9003,-2.6823e-12,-0.4711,0,0,0.14286,-0,-0,0.66667
0.33662,0.26819,2.3564,-0.34771,-19.984,163.46,2.1849,-0.7283,-1.5683,2.9132,-7.4007e-13,-0.78415,0,0,0.14286,-3.3835e-16,0,0.66667
0.36222,0.8167,2.5355,0.47505,26.799,153.06,-3.212,1.0707,-1.1982,-4.2826,1.5592e-12,-0.59912,0,0,0.14286,-0,-0,0.66667
0.80719,0.88738,5.6503,0.58106,13.092,18.669,-8.7552,2.9184,-0.7981,-11.674,1.9157e-10,-0.39905,0,0,0.14286,-0,-0,0.66667
0.035981,0.10633,0.25187,-0.59051,-38.399,298.04,0.39661,-0.1322,-0.75895,0.52882,6.7512e-07,-0.37947,0,0,0.14286,-0,-0,0.66667
0.3584,0.41538,2.5088,-0.12693,-7.1558,154.38,0.84918,-0.28306,-1.9442,1.1322,1.5765e-12,-0.97208,0,0,0.14286,-0,-0,0.66667
0.63828,0.69615,4.4679,0.29422,11.246,56.383,-3.5055,1.1685,-1.6926,-4.6741,-1.2195e-12,-0.8463,0,0,0.14286,-0,-0,0.66667
0.143,0.43995,1.001,-0.09007,-5.7125,248.44,0.24043,-0.080145,-1.9724,0.32058,2.4862e-09,-0.9862,0,0,0.14286,3.3835e-16,0,0.66667
0.85774,0.92906,6.0042,0.64359,11.014,11.333,-10.305,3.4349,-0.5282,-13.74,-5.8781e-09,-0.2641,0,0,0.14286,-6.7671e-16,-1.3338e-16,0.66667
0.64556,0.89482,4.519,0.59223,22.437,54.884,-7.1367,2.3789,-0.7517,-9.5156,-6.9855e-13,-0.37585,0,0,0.14286,-0,-0,0.66667
0.11529,0.65348,0.80705,0.23022,14.719,261.19,-0.49546,0.16515,-1.811,-0.66061,-7.7736e-09,-0.90552,0,0,0.14286,-2.5377e-16,0,0.66667
0.2081,0.95595,1.4567,0.68393,42.681,219.25,-2.6567,0.88557,-0.33553,-3.5423,-6.3291e-11,-0.16777,0,0,0.14286,3.3835e-16,0,0.66667
0.7455,0.23223,5.2185,-0.40166,-11.49,30.007,5.5895,-1.8632,-1.4252,7.4526,-2.538e-12,-0.71261,0,0,0.14286,-0,-0,0.66667
0.40341,0.77653,2.8238,0.41479,22.522,136.54,-3.1235,1.0412,-1.3888,-4.1647,1.5437e-12,-0.6944,0,0,0.14286,4.0804e-16,0,0.66667
0.48447,0.70486,3.3913,0.30728,15.215,105.91,-2.7789,0.9263,-1.6663,-3.7052,1.0592e-13,-0.83314,0,0,0.14286,-0,-0,0.66667
0.88746,0.48642,6.2122,-0.020371,-0.27084,6.6927,0.33747,-0.11249,-1.9981,0.44996,-9.9529e-10,-0.99903,0,0,0.14286,-2.7068e-15,0,0.66667
0.13744,0.35178,0.9621,-0.22233,-14.133,251,0.57042,-0.19014,-1.8241,0.76056,3.7774e-09,-0.91207,0,0,0.14286,-0,-0,0.66667
0.96437,0.15595,6.7506,-0.51608,-2.2012,1.726,9.2903,-3.0968,-1.0535,12.387,1.9894e-08,-0.52676,0,0,0.14286,1.9878e-15,0,0.66667
0.04263,0.63231,0.29841,0.19847,12.835,294.9,-0.15793,0.052644,-1.8594,-0.21058,1.009e-08,-0.92968,0,0,0.14286,8.4588e-17,0,0.66667
0.09944,0.69079,0.69608,0.28618,18.37,268.52,-0.53121,0.17707,-1.7083,-0.70828,-1.2457e-08,-0.85413,0,0,0.14286,-0,-0,0.66667
0.22324,0.15437,1.5627,-0.51845,-32.026,212.38,2.1604,-0.72014,-1.0445,2.8806,5.9433e-11,-0.52223,0,0,0.14286,-4.6524e-16,0,0.66667
0.80659,0.14196,5.6461,-0.53706,-12.108,18.647,8.0861,-2.6954,-0.97282,10.781,-7.355e-11,-0.48641,0,0,0.14286,-0,-0,0.66667
0.45587,0.70461,3.1911,0.30691,15.736,116.37,-2.6117,0.87058,-1.6649,-3.4823,-1.0392e-13,-0.83244,0,0,0.14286,6.7671e-16,0,0.66667
0.65325,0.76015,4.5728,0.39022,14.449,52.38,-4.7584,1.5861,-1.4584,-6.3445,-2.5442e-12,-0.7292,0,0,0.14286,-0,-0,0.66667
0.17432,0.64782,1.2202,0.22173,13.928,234.19,-0.72149,0.2405,-1.8255,-0.96199,-1.0629e-09,-0.91277,0,0,0.14286,-0,-0,0.66667
0.16672,0.18163,1.1671,-0.47756,-30.168,237.73,1.4862,-0.49541,-1.1883,1.9817,6.9428e-10,-0.59416,0,0,0.14286,-1.5505e-16,0,0.66667
0.52085,0.11611,3.6459,-0.57583,-27.277,93.516,5.5985,-1.8662,-0.81991,7.4647,-2.9132e-13,-0.40996,0,0,0.14286,-0,-0,0.66667
0.74029,0.50936,5.1821,0.014033,0.40617,30.751,-0.19391,0.064638,-1.9979,-0.25855,3.0565e-12,-0.99896,0,0,0.14286,2.7068e-15,0,0.66667
0.46247,0.45731,3.2373,-0.064035,-3.2517,113.8,0.5528,-0.18427,-1.9838,0.73707,3.5899e-13,-0.9919,0,0,0.14286,-0,-0,0.66667
0.86961,0.95095,6.0873,0.67642,10.699,9.9679,-10.98,3.6601,-0.37168,-14.64,-4.6799e-09,-0.18584,0,0,0.14286,-1.3534e-15,0,0.66667
0.66041,0.42284,4.6229,-0.11573,-4.1975,50.165,1.4267,-0.47557,-1.9514,1.9023,2.3351e-12,-0.97568,0,0,0.14286,-0,-0,0.66667
0.24909,0.48536,1.7436,-0.021962,-1.333,200.77,0.10212,-0.034039,-1.9995,0.13616,1.5721e-12,-0.99975,0,0,0.14286,-0,-0,0.66667
0.2349,0.11236,1.6443,-0.58147,-35.758,207.27,2.5496,-0.84988,-0.79949,3.3995,-2.0898e-11,-0.39974,0,0,0.14286,-0,-0,0.66667
0.37405,0.95986,2.6183,0.6898,38.699,148.56,-4.8163,1.6054,-0.30969,-6.4217,1.0005e-12,-0.15485,0,0,0.14286,3.3835e-16,0,0.66667
0.75662,0.29089,5.2963,-0.31367,-8.6104,27.538,4.4301,-1.4767,-1.6486,5.9068,-2.2259e-11,-0.82431,0,0,0.14286,1.3534e-15,0,0.66667
0.93794,0.59003,6.5656,0.13505,0.98494,2.3937,-2.3644,0.78813,-1.9378,-3.1525,2.877e-08,-0.9689,0,0,0.14286,1.3534e-15,0,0.66667
0.86191,0.86889,6.0333,0.55334,9.1481,10.51,-8.9026,2.9675,-0.91191,-11.87,-4.471e-09,-0.45596,0,0,0.14286,-6.7671e-16,0,0.66667
0.26161,0.10899,1.8313,-0.58651,-35.563,195.58,2.8642,-0.95472,-0.77595,3.8189,-7.9274e-12,-0.38798,0,0,0.14286,3.3835e-16,0,0.66667
0.41228,0.82737,2.886,0.49105,26.465,133.16,-3.779,1.2597,-1.141,-5.0387,1.8234e-12,-0.57048,0,0,0.14286,-6.7671e-16,0,0.66667
0.61154,0.33883,4.2808,-0.24176,-9.7615,64.038,2.7598,-0.91994,-1.7932,3.6798,8.4421e-13,-0.89658,0,0,0.14286,-6.7671e-16,0,0.66667
0.54683,0.62379,3.8278,0.18569,8.4024,84.283,-1.8955,0.63182,-1.8809,-2.5273,4.3898e-13,-0.94045,0,0,0.14286,-1.0151e-15,0,0.66667
0.38927,0.98299,2.7249,0.72448,40.132,142.54,-5.2644,1.7548,-0.13462,-7.0192,-1.3087e-12,-0.067309,0,0,0.14286,-0,-0,0.66667
0.10142,0.62979,0.70995,0.19469,12.483,267.59,-0.36859,0.12286,-1.8641,-0.49145,-1.15e-08,-0.93207,0,0,0.14286,-0,-0,0.66667
0.71224,0.91716,4.9857,0.62575,20.032,37.957,-8.3194,2.7731,-0.60616,-11.093,-2.6441e-12,-0.30308,0,0,0.14286,-0,-0,0.66667
0.088135,0.25882,0.61695,-0.36176,-23.29,273.76,0.59517,-0.19839,-1.5334,0.79356,1.9517e-08,-0.76671,0,0,0.14286,-0,-0,0.66667
0.86608,0.13337,6.0625,-0.54994,-8.8308,9.9792,8.8908,-2.9636,-0.92322,11.854,3.7113e-09,-0.46161,0,0,0.14286,-0,-0,0.66667
0.86345,0.45144,6.0441,-0.072843,-1.1689,9.5078,1.1741,-0.39135,-1.9802,1.5654,-1.5377e-09,-0.99008,0,0,0.14286,-0,-0,0.66667
0.70845,0.56295,4.9592,0.094423,3.0185,38.007,-1.2487,0.41623,-1.9684,-1.6649,-1.4558e-12,-0.98421,0,0,0.14286,-2.7068e-15,0,0.66667
0.48642,0.019851,3.405,-0.72022,-35.888,105.85,6.5396,-2.1799,-0.15605,8.7194,1.3545e-12,-0.078024,0,0,0.14286,-0,-0,0.66667
0.69915,0.99142,4.894,0.73713,24.604,41.409,-9.6201,3.2067,-0.067456,-12.827,-8.2601e-14,-0.033728,0,0,0.14286,-0,-0,0.66667
0.39499,0.35642,2.7649,-0.21538,-11.761,139.7,1.588,-0.52933,-1.834,2.1173,1.466e-12,-0.917,0,0,0.14286,-0,-0,0.66667
0.7975,0.047867,5.5825,-0.6782,-16.056,20.638,10.096,-3.3654,-0.36609,13.461,2.3417e-10,-0.18305,0,0,0.14286,-1.3534e-15,0,0.66667
0.78642,0.17392,5.5049,-0.48912,-12.029,22.08,7.1801,-2.3934,-1.148,9.5735,-7.0444e-11,-0.57399,0,0,0.14286,-0,-0,0.66667
0.15553,0.89369,1.0887,0.59053,37.517,242.88,-1.7144,0.57147,-0.76154,-2.2859,2.086e-09,-0.38077,0,0,0.14286,-1.5006e-17,1.6268e-16,0.66667
0.31782,0.39291,2.2247,-0.16064,-9.3454,171.22,0.95298,-0.31766,-1.9068,1.2706,-2.8688e-12,-0.9534,0,0,0.14286,-0,-0,0.66667
0.34398,0.73087,2.4079,0.3463,19.789,160.41,-2.2236,0.7412,-1.5755,-2.9648,3.1399e-12,-0.78777,0,0,0.14286,-0,-0,0.66667
0.36417,0.16084,2.5492,-0.50873,-28.669,152.3,3.4583,-1.1528,-1.0793,4.6111,4.6363e-13,-0.53967,0,0,0.14286,-0,-0,0.66667
0.56665,0.61345,3.9665,0.17017,7.4538,77.828,-1.7999,0.59998,-1.8961,-2.3999,-5.55e-13,-0.94807,0,0,0.14286,-0,-0,0.66667
0.041687,0.76339,0.29181,0.39508,25.601,295.36,-0.30744,0.10248,-1.4436,-0.40992,7.0688e-08,-0.7218,0,0,0.14286,8.4588e-17,0,0.66667
0.65997,0.70672,4.6198,0.31009,11.285,50.453,-3.8201,1.2734,-1.6574,-5.0935,-2.7307e-12,-0.8287,0,0,0.14286,-6.7671e-16,0,0.66667
0.20163,0.8168,1.4114,0.4752,29.618,221.98,-1.7886,0.59619,-1.1987,-2.3848,-7.5259e-11,-0.59935,0,0,0.14286,6.7671e-16,0,0.66667
0.41646,0.2235,2.9152,-0.41476,-22.23,131.45,3.2243,-1.0748,-1.3877,4.2991,1.912e-12,-0.69384,0,0,0.14286,-0,-0,0.66667
0.45089,0.16681,3.1562,-0.49979,-25.852,118.45,4.2066,-1.4022,-1.1122,5.6087,-3.6415e-14,-0.55609,0,0,0.14286,1.3534e-15,0,0.66667
0.34873,0.88002,2.4411,0.57003,32.572,158.68,-3.7106,1.2369,-0.84409,-4.9475,1.5998e-12,-0.42205,0,0,0.14286,-0,-0,0.66667
0.38328,0.36035,2.683,-0.20947,-11.562,144.35,1.4987,-0.49956,-1.8421,1.9982,1.0112e-12,-0.92105,0,0,0.14286,6.7671e-16,0,0.66667
0.18031,0.54288,1.2621,0.064326,4.0287,231.45,-0.2165,0.072167,-1.9835,-0.28867,-4.303e-10,-0.99176,0,0,0.14286,-0,-0,0.66667
0.06813,0.81761,0.47691,0.47642,30.816,283.07,-0.60589,0.20196,-1.1922,-0.80786,-6.4059e-08,-0.59608,0,0,0.14286,-0,-0,0.66667
0.55126,0.16418,3.8588,-0.50373,-22.748,83.203,5.1835,-1.7278,-1.0971,6.9113,4.9916e-13,-0.54854,0,0,0.14286,-0,-0,0.66667
0.59587,0.4447,4.1711,-0.082947,-3.4473,68.652,0.9226,-0.30753,-1.9763,1.2301,-5.6843e-14,-0.98813,0,0,0.14286,-0,-0,0.66667
0.1455,0.37933,1.0185,-0.181,-11.476,247.31,0.49161,-0.16387,-1.8831,0.65548,2.5745e-09,-0.94153,0,0,0.14286,-0,-0,0.66667
0.23094,0.15872,1.6166,-0.51192,-31.502,208.96,2.2068,-0.73561,-1.0688,2.9425,1.1421e-10,-0.53439,0,0,0.14286,-0,-0,0.66667
0.28638,0.74191,2.0046,0.36287,21.601,184.69,-1.9398,0.64659,-1.5308,-2.5864,1.0677e-11,-0.7654,0,0,0.14286,3.3835e-16,0,0.66667
0.83075,0.99515,5.8153,0.74273,15.027,15.465,-11.518,3.8393,-0.039263,-15.357,-1.5355e-10,-0.019631,0,0,0.14286,3.3835e-16,0,0.66667
0.15342,0.031936,1.0739,-0.7021,-44.74,243.91,2.0107,-0.67023,-0.24861,2.6809,-7.3962e-11,-0.12431,0,0,0.14286,6.7671e-16,0,0.66667
0.55214,0.032638,3.865,-0.70104,-31.787,83.323,7.2254,-2.4085,-0.25252,9.6338,7.0077e-13,-0.12626,0,0,0.14286,1.3534e-15,0,0.66667
0.56814,0.19799,3.977,-0.45302,-19.876,77.661,4.8044,-1.6015,-1.2689,6.4059,2.5269e-13,-0.63445,0,0,0.14286,-0,-0,0.66667
0.34342,0.76378,2.4039,0.39568,22.635,160.68,-2.5365,0.84549,-1.4451,-3.382,4.1307e-12,-0.72256,0,0,0.14286,-6.7671e-16,0,0.66667
0.35062,0.99772,2.4543,0.74658,42.776,158.16,-4.8862,1.6287,-0.017613,-6.515,-1.5627e-12,-0.0088067,0,0,0.14286,-8.4588e-16,0,0.66667
0.95911,0.57855,6.7138,0.11782,0.54957,1.201,-2.1094,0.70312,-1.949,-2.8125,9.0413e-08,-0.97448,0,0,0.14286,1.3534e-15,0,0.66667
0.55334,0.21879,3.8734,-0.42181,-18.952,82.39,4.3569,-1.4523,-1.3673,5.8092,-7.7716e-13,-0.68365,0,0,0.14286,1.3534e-15,0,0.66667
0.65273,0.84955,4.5691,0.52433,19.505,52.77,-6.3886,2.1295,-1.0225,-8.5181,-1.3407e-12,-0.51125,0,0,0.14286,-0,-0,0.66667
0.49074,0.44587,3.4352,-0.081192,-3.9803,103.53,0.74376,-0.24792,-1.9752,0.99168,-2.4325e-13,-0.98758,0,0,0.14286,-0,-0,0.66667
0.64665,0.085672,4.5265,-0.62149,-23.512,54.656,7.5019,-2.5006,-0.62537,10.003,7.8337e-13,-0.31268,0,0,0.14286,-0,-0,0.66667
0.60525,0.7387,4.2368,0.35805,14.662,66.044,-4.0453,1.3484,-1.5433,-5.3937,-9.3037e-13,-0.77165,0,0,0.14286,6.7671e-16,0,0.66667
0.14517,0.082599,1.0162,-0.6261,-39.932,247.62,1.6967,-0.56556,-0.60515,2.2622,1.7417e-09,-0.30258,0,0,0.14286,1.6918e-16,0,0.66667
0.33468,0.095343,2.3428,-0.60699,-35.092,164.52,3.7921,-1.264,-0.6896,5.0561,1.481e-12,-0.3448,0,0,0.14286,-0,-0,0.66667
0.46043,0.92953,3.223,0.64429,33.071,115.14,-5.5375,1.8458,-0.52259,-7.3833,-8.1002e-13,-0.26129,0,0,0.14286,6.7671e-16,0,0.66667
0.12782,0.81493,0.89475,0.47239,30.192,255.49,-1.1271,0.37571,-1.2075,-1.5028,-6.0913e-09,-0.60376,0,0,0.14286,-0,-0,0.66667
0.36307,0.98364,2.5415,0.72547,41.122,153.05,-4.9168,1.6389,-0.12792,-6.5557,2.7129e-12,-0.063958,0,0,0.14286,-6.7671e-16,0,0.66667
0.22814,0.20279,1.597,-0.44581,-27.442,210.16,1.8985,-0.63285,-1.2916,2.5314,3.7727e-11,-0.6458,0,0,0.14286,-0,-0,0.66667
0.8475,0.71505,5.9325,0.32258,5.7844,11.881,-5.1032,1.7011,-1.6302,-6.8043,2.7859e-09,-0.81509,0,0,0.14286,-0,-0,0.66667
0.34147,0.44094,2.3903,-0.08859,-5.062,161.33,0.56469,-0.18823,-1.9732,0.75292,-8.5409e-13,-0.98662,0,0,0.14286,-0,-0,0.66667
0.22679,0.76364,1.5875,0.39547,24.342,210.73,-1.6742,0.55805,-1.4421,-2.2322,-7.3461e-11,-0.72103,0,0,0.14286,-0,-0,0.66667
0.40818,0.28952,2.8573,-0.31572,-17.039,134.58,2.4056,-0.80187,-1.6463,3.2075,7.3697e-13,-0.82316,0,0,0.14286,-0,-0,0.66667
0.68306,0.37592,4.7814,-0.18612,-6.3844,44.302,2.3731,-0.79103,-1.8772,3.1641,4.6096e-12,-0.9386,0,0,0.14286,-0,-0,0.66667
0.065622,0.75153,0.45935,0.3773,24.38,284.22,-0.46217,0.15406,-1.4948,-0.61623,-1.7457e-08,-0.74739,0,0,0.14286,1.6918e-16,0,0.66667
0.18073,0.67955,1.2651,0.26933,16.884,231.3,-0.90861,0.30287,-1.7407,-1.2115,-8.9678e-10,-0.87034,0,0,0.14286,1.6918e-16,0,0.66667
0.69431,0.14693,4.8601,-0.5296,-17.766,42.019,6.8639,-2.288,-1.0012,9.1519,5.5449e-12,-0.50059,0,0,0.14286,-0,-0,0.66667
0.75226,0.021328,5.2658,-0.71801,-20.329,29.415,10.082,-3.3608,-0.16733,13.443,-1.8252e-11,-0.083666,0,0,0.14286,-0,-0,0.66667
0.61775,0.20667,4.3243,-0.43999,-17.608,62.47,5.0737,-1.6912,-1.3099,6.765,1.1617e-12,-0.65494,0,0,0.14286,-6.7671e-16,0,0.66667
0.8792,0.47542,6.1544,-0.036873,-0.52543,7.6067,0.60515,-0.20172,-1.9947,0.80687,-6.92e-09,-0.99734,0,0,0.14286,-2.7068e-15,0,0.66667
0.1688,0.90146,1.1816,0.6022,38.098,236.86,-1.8975,0.6325,-0.711,-2.53,-4.6747e-09,-0.3555,0,0,0.14286,-6.9227e-17,-1.2133e-16,0.66667
0.70355,0.018279,4.9248,-0.72258,-23.811,40.303,9.4896,-3.1632,-0.14527,12.653,7.5939e-13,-0.072637,0,0,0.14286,-0,-0,0.66667
0.91726,0.070885,6.4208,-0.64367,-6.5721,5.0473,11.021,-3.6737,-0.52602,14.695,-1.4015e-07,-0.26301,0,0,0.14286,-0,-0,0.66667
0.15074,0.52781,1.0552,0.041709,2.6388,244.9,-0.11736,0.039121,-1.9933,-0.15648,-2.3778e-09,-0.99665,0,0,0.14286,-8.4588e-17,0,0.66667
0.24376,0.012721,1.7063,-0.73092,-44.894,203.52,3.3259,-1.1086,-0.098797,4.4345,2.7323e-11,-0.049399,0,0,0.14286,-0,-0,0.66667
0.54668,0.99856,3.8268,0.74785,34.254,85.225,-7.6316,2.5439,-0.01478,-10.175,3.2863e-13,-0.0073902,0,0,0.14286,8.4588e-16,0,0.66667
0.34412,0.48962,2.4088,-0.01557,-0.88769,160.23,0.10001,-0.033338,-2.0011,0.13335,8.7522e-13,-1.0005,0,0,0.14286,-1.0151e-15,0,0.66667
0.69064,0.82371,4.8345,0.48556,16.427,42.83,-6.2599,2.0866,-1.1614,-8.3465,-5.1852e-12,-0.58068,0,0,0.14286,-0,-0,0.66667
0.057568,0.96696,0.40297,0.70045,45.559,288.02,-0.7527,0.2509,-0.25554,-1.0036,6.3614e-06,-0.12777,0,0,0.14286,-1.1631e-16,0,0.66667
0.16076,0.2414,1.1253,-0.3879,-24.522,240.4,1.164,-0.38802,-1.4642,1.5521,1.9749e-09,-0.73209,0,0,0.14286,-0,-0,0.66667
0.71624,0.22011,5.0137,-0.41983,-13.19,36.548,5.6131,-1.871,-1.3747,7.4841,1.0132e-11,-0.68733,0,0,0.14286,-0,-0,0.66667
0.97062,0.96997,6.7943,0.70495,2.6187,2.1829,-12.773,4.2575,-0.23491,-17.03,-2.1934e-05,-0.11746,0,0,0.14286,-0,-0,0.66667
0.92955,0.34051,6.5069,-0.23924,-1.9994,3.0806,4.1512,-1.3837,-1.7957,5.535,8.8901e-09,-0.89783,0,0,0.14286,6.7671e-16,0,0.66667
0.90107,0.20697,6.3075,-0.43954,-5.2326,5.8513,7.393,-2.4643,-1.3117,9.8573,-1.7551e-08,-0.65587,0,0,0.14286,-0,-0,0.66667
0.12774,0.17241,0.8942,-0.49138,-31.416,255.53,1.1717,-0.39058,-1.1413,1.5623,6.0556e-09,-0.57063,0,0,0.14286,-0,-0,0.66667
0.14593,0.30722,1.0215,-0.28918,-18.347,247.13,0.78772,-0.26257,-1.7019,1.0503,3.4038e-09,-0.85097,0,0,0.14286,-1.6918e-16,0,0.66667
0.072265,0.42631,0.50585,-0.11053,-7.1204,281.1,0.1491,-0.049699,-1.9551,0.1988,4.3538e-08,-0.97753,0,0,0.14286,-8.4588e-17,0,0.66667
0.54254,0.11519,3.7978,-0.57721,-26.473,86.211,5.8456,-1.9485,-0.81453,7.7942,-2.2427e-13,-0.40726,0,0,0.14286,-0,-0,0.66667
0.88249,0.37526,6.1774,-0.18711,-2.602,7.3296,3.0823,-1.0274,-1.8753,4.1098,-2.4997e-09,-0.93764,0,0,0.14286,-0,-0,0.66667
0.53179,0.78252,3.7225,0.42378,19.689,89.549,-4.2068,1.4023,-1.3645,-5.609,7.5984e-13,-0.68223,0,0,0.14286,-0,-0,0.66667
0.78172,0.38596,5.472,-0.17106,-4.2521,22.441,2.4962,-0.83206,-1.8977,3.3282,-1.1665e-10,-0.94887,0,0,0.14286,1.3534e-15,0,0.66667
0.18845,0.301,1.3192,-0.2985,-18.663,227.82,1.0501,-0.35002,-1.6845,1.4001,6.6333e-10,-0.84224,0,0,0.14286,-0,-0,0.66667
0.86311,0.71527,6.0418,0.32291,5.227,9.8161,-5.2025,1.7342,-1.6295,-6.9367,4.9837e-09,-0.81474,0,0,0.14286,-1.6918e-15,0,0.66667
0.18742,0.90243,1.312,0.60365,37.929,228.45,-2.1119,0.70398,-0.70736,-2.8159,9.9635e-10,-0.35368,0,0,0.14286,-8.4588e-17,7.253e-17,0.66667
0.054764,0.79497,0.38335,0.44246,28.652,289.28,-0.45231,0.15077,-1.302,-0.60308,-1.6659e-08,-0.65102,0,0,0.14286,-0,-0,0.66667
0.42149,0.62865,2.9504,0.19298,10.263,129.33,-1.5183,0.5061,-1.8703,-2.0244,-5.7343e-13,-0.93515,0,0,0.14286,-0,-0,0.66667
0.5551,0.16386,3.8857,-0.50421,-22.63,81.948,5.2246,-1.7415,-1.0946,6.9661,5.8709e-13,-0.54732,0,0,0.14286,-0,-0,0.66667
0.97074,0.74895,6.7952,0.37342,1.2429,1.0989,-6.7666,2.2555,-1.506,-9.0222,-1.9195e-07,-0.753,0,0,0.14286,1.6918e-15,0,0.66667
0.091754,0.59239,0.64228,0.13858,8.8995,272.06,-0.23735,0.079116,-1.9335,-0.31646,-2.3604e-08,-0.96673,0,0,0.14286,5.2868e-17,0,0.66667
0.27392,0.28359,1.9174,-0.32461,-19.463,190.04,1.6598,-0.55327,-1.6247,2.2131,-7.0151e-12,-0.81234,0,0,0.14286,6.7671e-16,0,0.66667
0.10511,0.48108,0.73575,-0.028376,-1.8169,265.87,0.055674,-0.018558,-1.9961,0.074232,7.7031e-09,-0.99807,0,0,0.14286,-1.6918e-16,0,0.66667
0.39044,0.77681,2.7331,0.41522,22.824,141.66,-3.0262,1.0087,-1.3898,-4.0349,2.8211e-12,-0.69489,0,0,0.14286,3.3835e-16,0,0.66667
0.28901,0.22681,2.0231,-0.40979,-24.369,183.6,2.2108,-0.73692,-1.4014,2.9477,-4.6461e-12,-0.70071,0,0,0.14286,-0,-0,0.66667
0.5133,0.075364,3.5931,-0.63695,-30.546,96.231,6.103,-2.0343,-0.5576,8.1374,3.0242e-13,-0.2788,0,0,0.14286,-0,1.9256e-16,0.66667
0.34826,0.67315,2.4378,0.25972,14.777,158.59,-1.6884,0.56279,-1.759,-2.2512,4.5881e-12,-0.8795,0,0,0.14286,-6.7671e-16,0,0.66667
0.92823,0.41132,6.4976,-0.13302,-1.1276,3.0623,2.3049,-0.7683,-1.9361,3.0732,2.6417e-08,-0.96805,0,0,0.14286,-0,-0,0.66667
0.78995,0.43275,5.5296,-0.10088,-2.4202,20.874,1.4875,-0.49583,-1.9628,1.9833,-9.0806e-11,-0.9814,0,0,0.14286,6.7671e-16,0,0.66667
0.86101,0.8875,6.0271,0.58124,9.6871,10.709,-9.3419,3.114,-0.79944,-12.456,3.3874e-09,-0.39972,0,0,0.14286,1.3534e-15,0,0.66667
0.1295,0.053844,0.90651,-0.66923,-42.91,254.81,1.6178,-0.53926,-0.40672,2.157,-1.0698e-09,-0.20336,0,0,0.14286,-0,-0,0.66667
0.57507,0.27064,4.0255,-0.34403,-14.885,75.307,3.6931,-1.231,-1.5789,4.9241,-1.2768e-13,-0.78946,0,0,0.14286,6.7671e-16,0,0.66667
0.21478,0.17028,1.5035,-0.49458,-30.659,216.12,1.9829,-0.66097,-1.1294,2.6439,3.0807e-11,-0.56468,0,0,0.14286,-0,-0,0.66667
0.86824,0.10273,6.0777,-0.59591,-9.4555,9.8569,9.6579,-3.2193,-0.73589,12.877,-1.5366e-08,-0.36794,0,0,0.14286,-0,-0,0.66667
0.015019,0.60019,0.10514,0.15028,9.7322,307.79,-0.042134,0.014045,-1.9218,-0.056179,8.8415e-08,-0.96089,0,0,0.14286,-0,-0,0.66667
0.10574,0.29871,0.74021,-0.30193,-19.358,265.61,0.59598,-0.19866,-1.6751,0.79464,1.1967e-08,-0.83757,0,0,0.14286,-2.944e-16,0,0.66667
0.37606,0.61931,2.6324,0.17896,9.9402,147.24,-1.2563,0.41875,-1.8879,-1.675,1.9519e-12,-0.94395,0,0,0.14286,-0,-0,0.66667
0.40209,0.93865,2.8147,0.65798,35.949,137.38,-4.9386,1.6462,-0.46112,-6.5848,-4.7962e-14,-0.23056,0,0,0.14286,-0,-2.2971e-19,0.66667
0.27722,0.74272,1.9405,0.36408,21.796,188.64,-1.884,0.62801,-1.5282,-2.512,9.8421e-12,-0.76411,0,0,0.14286,3.3835e-16,0,0.66667
0.096063,0.90372,0.67244,0.60558,39.077,270.16,-1.0859,0.36197,-0.69734,-1.4479,-4.8476e-09,-0.34867,0,0,0.14286,4.2294e-17,0,0.66667
0.11873,0.047085,0.83111,-0.67937,-43.689,259.75,1.5057,-0.5019,-0.3572,2.0076,1.6923e-08,-0.1786,0,0,0.14286,1.6918e-16,0,0.66667
0.31794,0.85232,2.2256,0.52849,30.882,171.42,-3.1365,1.0455,-1.0058,-4.1821,4.6165e-12,-0.50288,0,0,0.14286,-0,-0,0.66667
0.95079,0.10084,6.6555,-0.59873,-3.6283,2.6376,10.626,-3.5421,-0.72597,14.169,-2.7822e-07,-0.36299,0,0,0.14286,2.7068e-15,0,0.66667
0.20741,0.15554,1.4518,-0.51669,-32.146,219.43,2.0004,-0.6668,-1.0513,2.6672,7.924e-11,-0.52563,0,0,0.14286,8.4588e-17,0,0.66667
0.74728,0.73713,5.231,0.3557,10.101,29.548,-4.9617,1.6539,-1.55,-6.6157,4.8797e-12,-0.77499,0,0,0.14286,-1.3534e-15,0,0.66667
0.25819,0.083307,1.8073,-0.62504,-38.002,197.1,3.0124,-1.0041,-0.60923,4.0165,5.9597e-12,-0.30462,0,0,0.14286,-0,-0,0.66667
0.03724,0.51511,0.26068,0.022668,1.4657,297.41,-0.015758,0.0052523,-1.9965,-0.021011,-5.8058e-07,-0.99825,0,0,0.14286,-1.6918e-16,0,0.66667
0.016052,0.10748,0.11237,-0.58878,-38.325,307.32,0.17642,-0.058807,-0.76911,0.23523,-7.0725e-08,-0.38456,0,0,0.14286,-0,-0,0.66667
0.15271,0.48613,1.0689,-0.020811,-1.3158,244,0.059322,-0.019774,-1.9978,0.079096,-8.8163e-10,-0.99889,0,0,0.14286,1.6918e-16,0,0.66667
0.46208,0.31167,3.2346,-0.2825,-14.374,114.05,2.4367,-0.81225,-1.716,3.249,-5.5e-13,-0.85798,0,0,0.14286,4.2294e-17,0,0.66667
0.7559,0.25769,5.2913,-0.36347,-10.016,27.764,5.1286,-1.7095,-1.5291,6.8382,-2.39e-11,-0.76453,0,0,0.14286,-0,-0,0.66667
0.72881,0.74553,5.1017,0.36829,11.118,33.589,-5.0105,1.6702,-1.517,-6.6806,-6.4952e-12,-0.75852,0,0,0.14286,-6.7671e-16,0,0.66667
0.35239,0.71762,2.4667,0.32643,18.524,156.94,-2.1473,0.71575,-1.6207,-2.863,2.9392e-12,-0.81037,0,0,0.14286,5.2164e-17,0,0.66667
0.47914,0.78415,3.354,0.42622,21.285,107.97,-3.8121,1.2707,-1.3537,-5.0828,-6.6502e-13,-0.67687,0,0,0.14286,1.3534e-15,0,0.66667
0.81407,0.49966,5.6985,-0.00050605,-0.010856,16.673,0.00769,-0.0025633,-2.0023,0.010253,5.3216e-10,-1.0011,0,0,0.14286,-1.4803e-15,0,0.66667
0.8384,0.92464,5.8688,0.63697,12.259,13.96,-9.9686,3.3229,-0.55597,-13.292,-5.6026e-10,-0.27799,0,0,0.14286,-0,-0,0.66667
0.31992,0.86752,2.2394,0.55128,32.183,170.62,-3.2921,1.0974,-0.91799,-4.3895,3.8713e-12,-0.459,0,0,0.14286,-3.3835e-16,0,0.66667
0.004265,0.70859,0.029855,0.31288,20.29,312.81,-0.02491,0.0083031,-1.6511,-0.033213,-1.812e-07,-0.82553,0,0,0.14286,-0,-0,0.66667
0.046931,0.6721,0.32852,0.25816,16.696,292.9,-0.22616,0.075386,-1.7651,-0.30154,4.8997e-08,-0.88254,0,0,0.14286,-0,-0,0.66667
0.73781,0.43735,5.1647,-0.093982,-2.7437,31.312,1.2944,-0.43145,-1.9696,1.7258,-5.5952e-12,-0.98481,0,0,0.14286,2.1147e-17,0,0.66667
0.27263,0.27182,1.9084,-0.34226,-20.541,190.61,1.7418,-0.58061,-1.5819,2.3224,-5.4793e-12,-0.79095,0,0,0.14286,-0,-0,0.66667
0.48149,0.45736,3.3704,-0.063954,-3.1726,106.85,0.5748,-0.1916,-1.9853,0.7664,-3.556e-13,-0.99263,0,0,0.14286,6.7671e-16,0,0.66667
0.19203,0.87317,1.3442,0.55976,35.078,226.35,-2.0065,0.66884,-0.88607,-2.6753,1.636e-12,-0.44304,0,0,0.14286,4.2294e-17,0,0.66667
0.84711,0.65464,5.9298,0.23197,4.1574,11.803,-3.668,1.2227,-1.8095,-4.8907,2.9137e-09,-0.90473,0,0,0.14286,1.6918e-15,0,0.66667
0.50338,0.3426,3.5236,-0.2361,-11.393,99.134,2.2185,-0.7395,-1.8026,2.958,-2.6135e-13,-0.90132,0,0,0.14286,9.3047e-16,0,0.66667
0.52716,0.59032,3.6901,0.13548,6.3154,90.853,-1.3332,0.4444,-1.9348,-1.7776,5.5433e-13,-0.96739,0,0,0.14286,-8.4588e-16,0,0.66667
0.28808,0.59184,2.0166,0.13776,8.1759,183.86,-0.74082,0.24694,-1.932,-0.98776,7.2901e-12,-0.966,0,0,0.14286,-3.38e-16,0,0.66667
0.512,0.0050055,3.584,-0.74249,-35.784,96.913,7.0962,-2.3654,-0.03988,9.4616,6.8345e-13,-0.01994,0,0,0.14286,-2.7068e-15,0,0.66667
0.0019636,0.26462,0.013746,-0.35307,-22.907,313.89,0.012942,-0.0043137,-1.5571,0.017256,2.849e-07,-0.77855,0,0,0.14286,2.6434e-18,0,0.66667
0.2773,0.82272,1.9411,0.48407,29.03,188.69,-2.5056,0.83522,-1.1661,-3.3409,7.9845e-12,-0.58306,0,0,0.14286,-0,-0,0.66667
0.34876,0.43918,2.4413,-0.091233,-5.1831,158.32,0.59395,-0.19798,-1.9704,0.79194,8.3816e-13,-0.98519,0,0,0.14286,-0,-0,0.66667
0.28395,0.056621,1.9877,-0.66507,-39.865,186.01,3.5251,-1.175,-0.4278,4.7002,-4.6407e-14,-0.2139,0,0,0.14286,1.6918e-16,0,0.66667
0.085952,0.497,0.60167,-0.0044972,-0.28902,274.74,0.0072156,-0.0024053,-1.9991,0.0096207,-1.2441e-07,-0.99957,0,0,0.14286,1.9032e-16,0,0.66667
0.52178,0.62559,3.6525,0.18839,8.8542,92.717,-1.8349,0.61163,-1.8737,-2.4465,-5.4734e-13,-0.93684,0,0,0.14286,1.3534e-15,0,0.66667
0.78848,0.46064,5.5194,-0.059035,-1.4249,21.125,0.86889,-0.28963,-1.9861,1.1585,-1.0241e-10,-0.99306,0,0,0.14286,6.7671e-16,0,0.66667
0.9426,0.42139,6.5982,-0.11791,-0.79191,2.088,2.0746,-0.69154,-1.9492,2.7662,6.4585e-08,-0.97458,0,0,0.14286,-0,-0,0.66667
0.49729,0.57243,3.481,0.10864,5.2806,101.21,-1.0085,0.33617,-1.9581,-1.3447,1.3595e-12,-0.97903,0,0,0.14286,-0,-0,0.66667
0.59375,0.57209,4.1563,0.10814,4.5124,69.306,-1.1985,0.3995,-1.9608,-1.598,3.0753e-14,-0.98038,0,0,0.14286,-0,-0,0.66667
0.29086,0.61677,2.036,0.17516,10.379,182.68,-0.95101,0.317,-1.8896,-1.268,7.595e-12,-0.9448,0,0,0.14286,-0,-0,0.66667
0.14916,0.66568,1.0441,0.24852,15.747,245.65,-0.69197,0.23066,-1.7788,-0.92262,-3.1934e-09,-0.8894,0,0,0.14286,-0,-0,0.66667
0.13187,0.73447,0.9231,0.35171,22.418,253.59,-0.86576,0.28859,-1.5583,-1.1543,-5.6818e-09,-0.77917,0,0,0.14286,-0,-0,0.66667
0.73236,0.34327,5.1265,-0.2351,-6.9979,32.617,3.214,-1.0713,-1.8054,4.2853,4.1422e-12,-0.90269,0,0,0.14286,-1.6495e-15,0,0.66667
0.73447,0.44013,5.1413,-0.089805,-2.6506,32.043,1.2312,-0.41041,-1.9745,1.6416,-1.7395e-12,-0.98725,0,0,0.14286,-2.7068e-15,0,0.66667
0.17935,0.52526,1.2555,0.03789,2.3738,231.88,-0.12685,0.042284,-1.9937,-0.16913,-3.3903e-10,-0.99683,0,0,0.14286,-1.6918e-16,0,0.66667
0.41356,0.24938,2.8949,-0.37593,-20.196,132.53,2.9021,-0.96738,-1.4972,3.8695,2.4003e-12,-0.7486,0,0,0.14286,-1.4803e-16,0,0.66667
0.59414,0.30618,4.159,-0.29072,-12.145,69.321,3.2243,-1.0748,-1.7018,4.2991,5.5289e-14,-0.85089,0,0,0.14286,6.7671e-16,0,0.66667
0.12528,0.028402,0.87697,-0.7074,-45.446,256.76,1.6543,-0.55144,-0.22371,2.2058,-3.2285e-08,-0.11186,0,0,0.14286,8.4588e-17,0,0.66667
0.78537,0.53462,5.4976,0.051929,1.2699,21.695,-0.7613,0.25377,-1.9905,-1.0151,1.0792e-10,-0.99523,0,0,0.14286,-0,-0,0.66667
0.61999,0.97729,4.3399,0.71594,28.758,62.433,-8.2857,2.7619,-0.17649,-11.048,-5.2314e-13,-0.088243,0,0,0.14286,-0,-0,0.66667
0.61522,0.1438,4.3066,-0.53431,-21.542,63.388,6.136,-2.0453,-0.98337,8.1814,2.7001e-13,-0.49169,0,0,0.14286,-0,-0,0.66667
0.70121,0.72359,4.9085,0.33538,10.981,39.971,-4.3899,1.4633,-1.6013,-5.8532,-8.5292e-12,-0.80063,0,0,0.14286,-0,-0,0.66667
0.98718,0.23065,6.9103,-0.40402,-0.50501,0.70321,7.4451,-2.4817,-1.4194,9.9268,-7.1927e-08,-0.70972,0,0,0.14286,-0,-0,0.66667
0.56239,0.94628,3.9368,0.66942,29.823,79.927,-7.0276,2.3425,-0.40896,-9.3702,1.3234e-13,-0.20448,0,0,0.14286,-0,-1.3674e-16,0.66667
0.86442,0.18481,6.0509,-0.47279,-7.642,9.9728,7.6288,-2.5429,-1.205,10.172,-2.2171e-09,-0.60251,0,0,0.14286,1.6918e-15,0,0.66667
0.41871,0.46732,2.931,-0.049024,-2.6129,130.36,0.38316,-0.12772,-1.9924,0.51088,1.2829e-12,-0.99619,0,0,0.14286,-2.5377e-16,0,0.66667
0.65447,0.36218,4.5813,-0.20673,-7.6097,51.826,2.5256,-0.84186,-1.8486,3.3674,2.4705e-12,-0.92429,0,0,0.14286,-0,-0,0.66667
0.92526,0.89516,6.4768,0.59274,5.4425,4.2435,-10.238,3.4125,-0.7503,-13.65,1.8198e-07,-0.37515,0,0,0.14286,-0,-0,0.66667
0.66415,0.023376,4.6491,-0.71494,-26.068,50.196,8.8634,-2.9545,-0.18116,11.818,3.3129e-13,-0.09058,0,0,0.14286,-0,-0,0.66667
0.30308,0.34674,2.1216,-0.2299,-13.519,177.48,1.3006,-0.43355,-1.8115,1.7342,-6.0287e-12,-0.90573,0,0,0.14286,6.7671e-16,0,0.66667
0.61995,0.97933,4.3396,0.71899,28.886,62.455,-8.3204,2.7735,-0.16075,-11.094,-2.7445e-13,-0.080376,0,0,0.14286,-0,-0,0.66667
0.35132,0.026396,2.4592,-0.71041,-40.642,157.81,4.6588,-1.5529,-0.20451,6.2117,4.6709e-12,-0.10226,0,0,0.14286,6.7671e-16,0,0.66667
0.32237,0.86407,2.2566,0.5461,31.821,169.59,-3.2862,1.0954,-0.93817,-4.3816,3.6169e-12,-0.46908,0,0,0.14286,3.3835e-16,0,0.66667
0.61021,0.77502,4.2714,0.41253,16.749,64.647,-4.6989,1.5663,-1.3968,-6.2653,2.4158e-13,-0.6984,0,0,0.14286,-6.7671e-16,0,0.66667
0.16032,0.98614,1.1223,0.72922,46.394,240.79,-2.1823,0.72744,-0.10835,-2.9098,1.0537e-10,-0.054174,0,0,0.14286,-1.6918e-16,0,0.66667
0.48674,0.56437,3.4072,0.096555,4.7583,104.97,-0.87728,0.29243,-1.9682,-1.1697,7.2115e-13,-0.98411,0,0,0.14286,1.3534e-15,0,0.66667
0.94563,0.87144,6.6194,0.55716,3.7047,2.7796,-9.8348,3.2783,-0.8954,-13.113,1.9188e-07,-0.4477,0,0,0.14286,2.0301e-15,0,0.66667
0.38391,0.026221,2.6874,-0.71067,-39.545,144.65,5.0929,-1.6976,-0.20324,6.7906,8.9573e-13,-0.10162,0,0,0.14286,6.7671e-16,0,0.66667
0.18896,0.3976,1.3227,-0.1536,-9.5912,227.56,0.5418,-0.1806,-1.9172,0.7224,5.1325e-10,-0.95859,0,0,0.14286,1.6918e-16,0,0.66667
0.46884,0.25317,3.2819,-0.37025,-18.709,111.65,3.2403,-1.0801,-1.5157,4.3204,2.2871e-14,-0.75784,0,0,0.14286,-0,-0,0.66667
0.84091,0.14734,5.8864,-0.52898,-9.9667,13.271,8.3034,-2.7678,-1.0051,11.071,-6.9146e-10,-0.50255,0,0,0.14286,6.7671e-16,0,0.66667
0.84267,0.0057302,5.8987,-0.7414,-14.033,13.728,11.662,-3.8874,-0.047325,15.55,9.4969e-10,-0.023662,0,0,0.14286,-0,1.0133e-16,0.66667
0.8278,0.069263,5.7946,-0.64611,-13.189,15.565,9.9838,-3.3279,-0.51804,13.312,1.2424e-09,-0.25902,0,0,0.14286,-2.7068e-15,-1.1475e-16,0.66667
0.011476,0.066649,0.080329,-0.65003,-42.368,309.46,0.13924,-0.046408,-0.49756,0.18565,7.3147e-06,-0.24878,0,0,0.14286,4.2294e-17,0,0.66667
0.26704,0.75264,1.8693,0.37896,22.829,193.05,-1.889,0.62968,-1.4913,-2.5187,1.1874e-11,-0.74567,0,0,0.14286,-6.7671e-16,0,0.66667
0.99988,0.8338,6.9991,0.50071,-0.15378,0.78112,-9.3453,3.1151,-1.1108,-12.46,1.1416e-06,-0.55539,0,0,0.14286,-0,-1.0419e-17,0.66667
0.11968,0.26451,0.83778,-0.35324,-22.587,259.19,0.78916,-0.26305,-1.5549,1.0522,8.9359e-09,-0.77744,0,0,0.14286,-0,-0,0.66667
0.49009,0.72365,3.4306,0.33547,16.497,103.93,-3.069,1.023,-1.5991,-4.092,3.9524e-13,-0.79953,0,0,0.14286,-1.3534e-15,0,0.66667
0.79003,0.21443,5.5302,-0.42836,-10.35,21.285,6.3171,-2.1057,-1.3466,8.4228,-1.451e-10,-0.67332,0,0,0.14286,3.3835e-16,0,0.66667
0.12221,0.62741,0.8555,0.19111,12.195,257.99,-0.43598,0.14533,-1.8711,-0.58131,-2.332e-09,-0.93556,0,0,0.14286,-0,-0,0.66667
0.66241,0.7714,4.6369,0.4071,14.759,49.945,-5.0338,1.6779,-1.4092,-6.7117,-3.3e-12,-0.70462,0,0,0.14286,6.7671e-16,0,0.66667
0.48808,0.77185,3.4166,0.40777,20.127,104.73,-3.7152,1.2384,-1.4083,-4.9535,-6.0685e-13,-0.70413,0,0,0.14286,-0,-0,0.66667
0.19429,0.75179,1.36,0.37768,23.579,225.23,-1.3698,0.45658,-1.4923,-1.8263,-4.2361e-10,-0.74617,0,0,0.14286,-0,-0,0.66667
0.87863,0.66892,6.1504,0.25339,3.6437,7.8433,-4.1558,1.3853,-1.771,-5.5411,7.4526e-09,-0.88551,0,0,0.14286,1.3534e-15,0,0.66667
0.18149,0.54719,1.2704,0.070791,4.4317,230.92,-0.23982,0.079941,-1.9805,-0.31976,-3.3729e-10,-0.99025,0,0,0.14286,3.3835e-16,0,0.66667
0.63905,0.6496,4.4734,0.22439,8.5541,56.093,-2.6768,0.89227,-1.8222,-3.5691,-1.4744e-12,-0.91109,0,0,0.14286,3.3835e-16,0,0.66667
0.74083,0.71345,5.1858,0.32018,9.2852,30.872,-4.4277,1.4759,-1.6345,-5.9036,9.5302e-13,-0.81723,0,0,0.14286,-0,-0,0.66667
0.56267,0.3174,3.9387,-0.2739,-12.091,79.185,2.8768,-0.95894,-1.736,3.8358,-2.0806e-13,-0.86799,0,0,0.14286,1.3534e-15,0,0.66667
0.62884,0.67071,4.4019,0.25606,9.9818,59.016,-3.0057,1.0019,-1.766,-4.0076,-4.7251e-13,-0.88301,0,0,0.14286,-1.3534e-15,0,0.66667
0.11897,0.69832,0.83276,0.29748,19.014,259.51,-0.6606,0.2202,-1.6838,-0.8808,-7.689e-09,-0.84192,0,0,0.14286,-0,-0,0.66667
0.30804,0.30569,2.1563,-0.29147,-17.091,175.41,1.676,-0.55865,-1.6973,2.2346,-3.1735e-12,-0.84866,0,0,0.14286,-5.0753e-16,0,0.66667
0.58696,0.82402,4.1087,0.48602,20.649,71.807,-5.3252,1.7751,-1.1584,-7.1002,1.1724e-13,-0.5792,0,0,0.14286,-0,-0,0.66667
0.39546,0.068938,2.7682,-0.64659,-35.541,139.97,4.7731,-1.591,-0.51276,6.3642,2.2169e-12,-0.25638,0,0,0.14286,-0,-0,0.66667
0.66395,0.084435,4.6476,-0.62335,-22.66,49.997,7.7256,-2.5752,-0.61683,10.301,9.2326e-13,-0.30841,0,0,0.14286,-0,-0,0.66667
0.85195,0.33421,5.9637,-0.24869,-4.3256,11.161,3.955,-1.3183,-1.7785,5.2733,-3.2937e-09,-0.88923,0,0,0.14286,-6.7671e-16,0,0.66667
0.19022,0.95525,1.3316,0.68287,42.932,227.25,-2.4247,0.80825,-0.34182,-3.233,-1.7349e-10,-0.17091,0,0,0.14286,3.3835e-16,0,0.66667
0.90327,0.37994,6.3229,-0.18009,-2.0671,5.1913,3.0366,-1.0122,-1.8851,4.0488,-4.6121e-09,-0.94255,0,0,0.14286,-0,-0,0.66667
0.38318,0.17095,2.6822,-0.49357,-27.349,144.63,3.5303,-1.1768,-1.1319,4.7071,1.2976e-12,-0.56596,0,0,0.14286,-0,-0,0.66667
0.94312,0.51738,6.6019,0.026069,0.17304,2.0173,-0.45894,0.15298,-1.996,-0.61192,-2.8537e-07,-0.99801,0,0,0.14286,-0,-0,0.66667
0.61738,0.82548,4.3217,0.48822,19.575,62.665,-5.6265,1.8755,-1.1507,-7.502,-5.0626e-13,-0.57533,0,0,0.14286,1.3534e-15,0,0.66667
0.7901,0.40025,5.5307,-0.14963,-3.5893,20.877,2.2068,-0.73558,-1.9192,2.9423,-2.0731e-10,-0.95961,0,0,0.14286,6.7671e-16,0,0.66667
0.51478,0.39592,3.6034,-0.15612,-7.41,95.111,1.5002,-0.50007,-1.9148,2.0003,9.1038e-14,-0.9574,0,0,0.14286,-6.7671e-16,0,0.66667
0.53114,0.32311,3.718,-0.26534,-12.309,89.587,2.6307,-0.87691,-1.7518,3.5076,3.1308e-13,-0.87592,0,0,0.14286,-0,-0,0.66667
0.32759,0.9063,2.2932,0.60945,35.423,167.48,-3.7268,1.2423,-0.68264,-4.9691,2.1234e-12,-0.34132,0,0,0.14286,-0,-0,0.66667
0.12936,0.2785,0.90555,-0.33225,-21.188,254.73,0.80231,-0.26744,-1.6075,1.0698,6.3716e-09,-0.80377,0,0,0.14286,2.1147e-16,0,0.66667
0.38382,0.86047,2.6868,0.54071,29.971,144.43,-3.874,1.2913,-0.95865,-5.1653,-1.1295e-12,-0.47932,0,0,0.14286,6.7671e-16,0,0.66667
0.21498,0.73514,1.5048,0.35271,21.818,215.96,-1.4154,0.47179,-1.5569,-1.8872,-1.737e-10,-0.77843,0,0,0.14286,3.3835e-16,0,0.66667
0.032865,0.56739,0.23006,0.10109,6.5393,299.46,-0.062015,0.020672,-1.9651,-0.082687,1.3236e-07,-0.98254,0,0,0.14286,8.4588e-17,0,0.66667
0.27489,0.69785,1.9242,0.29677,17.778,189.61,-1.5228,0.5076,-1.6853,-2.0304,1.0848e-11,-0.84264,0,0,0.14286,-0,-0,0.66667
0.18058,0.11326,1.264,-0.5801,-36.528,231.52,1.9554,-0.6518,-0.80174,2.6072,2.6301e-10,-0.40087,0,0,0.14286,-0,-0,0.66667
0.87553,0.49453,6.1287,-0.008206,-0.12037,8.0258,0.13411,-0.044704,-2.002,0.17882,1.3291e-08,-1.001,0,0,0.14286,-1.3534e-15,0,0.66667
0.081237,0.69773,0.56866,0.2966,19.104,276.95,-0.44977,0.14992,-1.687,-0.5997,-1.1046e-08,-0.84348,0,0,0.14286,-0,-0,0.66667
0.1839,0.31932,1.2873,-0.27102,-16.97,229.87,0.93032,-0.31011,-1.7386,1.2404,7.7702e-10,-0.86932,0,0,0.14286,-0,-0,0.66667
0.70403,0.1336,4.9282,-0.5496,-17.961,39.706,7.2228,-2.4076,-0.92758,9.6303,5.8233e-12,-0.46379,0,0,0.14286,-1.3534e-15,0,0.66667
0.91923,0.11438,6.4346,-0.57844,-5.7218,4.6614,9.9253,-3.3084,-0.81037,13.234,2.7057e-09,-0.40519,0,0,0.14286,-1.3534e-15,1.9552e-17,0.66667
0.25146,0.13385,1.7602,-0.54922,-33.465,199.97,2.578,-0.85933,-0.92855,3.4373,7.5504e-12,-0.46427,0,0,0.14286,-0,-0,0.66667
0.021301,0.55831,0.14911,0.087459,5.6611,304.85,-0.034776,0.011592,-1.9721,-0.046368,9.0645e-08,-0.98606,0,0,0.14286,-1.0574e-17,0,0.66667
0.9605,0.04349,6.7235,-0.68476,-3.3976,2.4968,12.277,-4.0925,-0.33098,16.37,-9.5163e-06,-0.16549,0,0,0.14286,-2.7068e-15,0,0.66667
0.68222,0.17197,4.7755,-0.49205,-17.022,44.956,6.2662,-2.0887,-1.1377,8.3549,4.3676e-12,-0.56883,0,0,0.14286,-0,-0,0.66667
0.31066,0.6582,2.1746,0.23731,13.883,174.27,-1.3762,0.45872,-1.8015,-1.8349,7.3731e-12,-0.90076,0,0,0.14286,-0,-0,0.66667
0.47237,0.20238,3.3066,-0.44643,-22.49,110.45,3.9364,-1.3121,-1.2906,5.2486,7.7272e-13,-0.64532,0,0,0.14286,-6.7671e-16,0,0.66667
0.59926,0.48702,4.1948,-0.019466,-0.80371,67.61,0.21775,-0.072582,-1.9972,0.29033,-5.1209e-15,-0.99858,0,0,0.14286,-6.7671e-16,0,0.66667
0.37387,0.86508,2.6171,0.54762,30.628,148.43,-3.8218,1.2739,-0.93497,-5.0957,5.9108e-13,-0.46749,0,0,0.14286,-0,1.6366e-16,0.66667
0.87449,0.032853,6.1214,-0.70072,-10.719,9.4836,11.438,-3.8128,-0.25715,15.251,2.8814e-08,-0.12858,0,0,0.14286,-2.7068e-15,0,0.66667
0.72617,0.93322,5.0832,0.64983,19.973,34.831,-8.8086,2.9362,-0.49756,-11.745,-4.9027e-12,-0.24878,0,0,0.14286,6.7671e-16,0,0.66667
0.95434,0.26746,6.6804,-0.34881,-1.8741,1.7529,6.2138,-2.0713,-1.5684,8.2851,6.5649e-08,-0.78419,0,0,0.14286,-0,-0,0.66667
0.35107,0.12445,2.4575,-0.56333,-32.125,157.71,3.6916,-1.2305,-0.87139,4.9221,3.2598e-12,-0.4357,0,0,0.14286,-9.7277e-16,0,0.66667
0.93717,0.3407,6.5602,-0.23895,-1.7748,2.5568,4.1802,-1.3934,-1.7999,5.5736,1.104e-08,-0.89993,0,0,0.14286,3.3835e-16,0,0.66667
0.4791,0.76559,3.3537,0.39838,19.886,107.95,-3.5628,1.1876,-1.4342,-4.7504,3.4039e-13,-0.71712,0,0,0.14286,-0,-0,0.66667
0.64232,0.090553,4.4963,-0.61417,-23.453,55.833,7.3639,-2.4546,-0.66045,9.8186,6.7502e-13,-0.33023,0,0,0.14286,8.4588e-16,0,0.66667
0.73665,0.31012,5.1565,-0.28482,-8.3683,31.731,3.9165,-1.3055,-1.7129,5.222,1.9902e-12,-0.85645,0,0,0.14286,-1.6918e-15,0,0.66667
0.80934,0.89091,5.6654,0.58637,13.083,18.325,-8.8587,2.9529,-0.77701,-11.812,2.3026e-10,-0.3885,0,0,0.14286,-1.3534e-15,0,0.66667
0.39626,0.89415,2.7738,0.59122,32.431,139.57,-4.3731,1.4577,-0.75569,-5.8309,-2.5135e-13,-0.37785,0,0,0.14286,-0,-0,0.66667
0.44795,0.27074,3.1356,-0.34389,-17.801,119.37,2.8755,-0.95851,-1.5782,3.834,6.4837e-14,-0.78912,0,0,0.14286,-0,-0,0.66667
0.81728,0.33538,5.7209,-0.24692,-5.2284,16.306,3.767,-1.2557,-1.7823,5.0227,-8.8596e-10,-0.89114,0,0,0.14286,-6.7671e-16,0,0.66667
0.71756,0.077759,5.0229,-0.63336,-19.968,36.745,8.4835,-2.8278,-0.57467,11.311,3.5953e-12,-0.28733,0,0,0.14286,-1.3534e-15,0,0.66667
0.94085,0.1697,6.5859,-0.49544,-3.5531,2.8736,8.7012,-2.9004,-1.1267,11.602,-2.35e-08,-0.56334,0,0,0.14286,1.3534e-15,0,0.66667
0.9796,0.28008,6.8572,-0.32988,-0.71524,0.72306,6.0321,-2.0107,-1.6132,8.0428,7.5411e-08,-0.80662,0,0,0.14286,1.6918e-16,0,0.66667
0.17891,0.3144,1.2524,-0.27841,-17.467,232.12,0.9298,-0.30993,-1.7239,1.2397,9.6017e-10,-0.86193,0,0,0.14286,6.7671e-16,0,0.66667
0.22792,0.78968,1.5954,0.43452,26.745,210.25,-1.8487,0.61622,-1.3273,-2.4649,-5.6956e-11,-0.66364,0,0,0.14286,-0,-0,0.66667
0.71599,0.98282,5.0119,0.72423,23.032,37.383,-9.6794,3.2265,-0.13484,-12.906,8.2245e-13,-0.067421,0,0,0.14286,-1.3534e-15,1.6751e-16,0.66667
0.74738,0.39468,5.2317,-0.15798,-4.4679,29.291,2.204,-0.73466,-1.9112,2.9386,-9.7382e-12,-0.95562,0,0,0.14286,-0,-0,0.66667
0.60318,0.78779,4.2223,0.43169,17.774,66.774,-4.8605,1.6202,-1.3363,-6.4807,1.2346e-12,-0.66813,0,0,0.14286,-1.3534e-15,0,0.66667
0.8773,0.2043,6.1411,-0.44355,-6.5069,8.3574,7.2638,-2.4213,-1.3006,9.685,-7.8602e-09,-0.65029,0,0,0.14286,-0,-0,0.66667
0.25199,0.84827,1.7639,0.5224,31.806,199.72,-2.4573,0.81909,-1.0309,-3.2764,1.7193e-11,-0.51543,0,0,0.14286,-0,-0,0.66667
0.33949,0.70518,2.3764,0.30777,17.641,162.24,-1.9504,0.65013,-1.6622,-2.6005,2.7189e-12,-0.83108,0,0,0.14286,6.7671e-16,0,0.66667
0.49465,0.91912,3.4625,0.62868,30.915,102.74,-5.8049,1.935,-0.59324,-7.7398,5.6843e-14,-0.29662,0,0,0.14286,-0,-0,0.66667
0.31503,0.16911,2.2052,-0.49633,-29.046,172.62,2.9187,-0.9729,-1.1241,3.8916,-1.3809e-12,-0.56204,0,0,0.14286,-0,-0,0.66667
0.54544,0.92985,3.8181,0.64477,29.495,85.392,-6.5648,2.1883,-0.52305,-8.753,-9.6412e-13,-0.26152,0,0,0.14286,3.3835e-16,0,0.66667
0.68248,0.15082,4.7773,-0.52377,-18.124,44.959,6.6726,-2.2242,-1.0239,8.8967,3.8041e-12,-0.51197,0,0,0.14286,3.3835e-16,0,0.66667
0.22037,0.13559,1.5426,-0.54661,-33.828,213.68,2.2485,-0.7495,-0.93845,2.998,6.8466e-11,-0.46922,0,0,0.14286,-0,-0,0.66667
0.48534,0.99547,3.3974,0.74321,37.111,106.29,-6.7332,2.2444,-0.038101,-8.9776,-3.6326e-13,-0.01905,0,0,0.14286,2.1993e-15,0,0.66667
0.99298,0.84286,6.9509,0.51429,0.31105,0.90916,-9.5326,3.1775,-1.0593,-12.71,8.1017e-07,-0.52963,0,0,0.14286,1.7764e-15,0,0.66667
0.32416,0.68034,2.2691,0.27052,15.679,168.61,-1.6369,0.54563,-1.7394,-2.1825,5.2472e-12,-0.86969,0,0,0.14286,-0,-0,0.66667
0.035362,0.8435,0.24753,0.51524,33.462,298.32,-0.34011,0.11337,-1.0567,-0.45348,4.2377e-08,-0.52837,0,0,0.14286,1.3217e-17,0,0.66667
0.81735,0.041681,5.7215,-0.68748,-14.845,17.341,10.489,-3.4963,-0.31841,13.985,-1.2851e-09,-0.15921,0,0,0.14286,-0,-0,0.66667
0.50331,0.40403,3.5231,-0.14396,-6.942,99.104,1.3525,-0.45084,-1.927,1.8034,-6.8212e-13,-0.9635,0,0,0.14286,8.4588e-16,0,0.66667
0.052784,0.58146,0.36949,0.12218,7.8911,290.17,-0.12039,0.04013,-1.9453,-0.16052,4.8527e-08,-0.97267,0,0,0.14286,-0,-0,0.66667
0.89031,0.67001,6.2321,0.25501,3.3232,6.5698,-4.2381,1.4127,-1.7706,-5.6508,8.6576e-09,-0.88528,0,0,0.14286,-0,-0,0.66667
0.40451,0.62195,2.8316,0.18293,9.8955,135.93,-1.3813,0.46043,-1.8826,-1.8417,-6.0174e-13,-0.94132,0,0,0.14286,8.4588e-16,0,0.66667
0.92927,0.8715,6.5049,0.55725,4.8221,3.8329,-9.6663,3.2221,-0.89505,-12.888,-1.142e-08,-0.44753,0,0,0.14286,1.6918e-15,0,0.66667
0.40208,0.55247,2.8145,0.078702,4.2652,136.85,-0.59069,0.1969,-1.9772,-0.78759,-8.2712e-13,-0.98858,0,0,0.14286,-3.3835e-16,0,0.66667
0.076832,0.83446,0.53783,0.50168,32.421,279.03,-0.71951,0.23984,-1.1063,-0.95935,-6.9535e-08,-0.55314,0,0,0.14286,-8.4588e-17,0,0.66667
0.2453,0.38432,1.7171,-0.17351,-10.558,202.46,0.79451,-0.26484,-1.892,1.0593,2.0009e-11,-0.94598,0,0,0.14286,-6.7671e-16,0,0.66667
0.35026,0.89047,2.4518,0.58571,33.438,158.07,-3.8295,1.2765,-0.77847,-5.106,9.6168e-13,-0.38924,0,0,0.14286,-0,-0,0.66667
0.75073,0.17119,5.2551,-0.49321,-13.899,29.096,6.9117,-2.3039,-1.1365,9.2155,3.6566e-12,-0.56823,0,0,0.14286,1.3534e-15,0,0.66667
0.18475,0.30903,1.2932,-0.28645,-17.933,229.49,0.98785,-0.32928,-1.7091,1.3171,7.329e-10,-0.85453,0,0,0.14286,-1.1448e-16,0,0.66667
0.43097,0.14895,3.0168,-0.52657,-27.857,126.01,4.2362,-1.4121,-1.0128,5.6482,2.47e-12,-0.50641,0,0,0.14286,6.7671e-16,0,0.66667
0.87325,0.71206,6.1127,0.31809,4.7823,8.5693,-5.185,1.7283,-1.6413,-6.9134,6.9143e-09,-0.82065,0,0,0.14286,-0,-0,0.66667
0.53376,0.92753,3.7363,0.64129,29.86,89.271,-6.3895,2.1298,-0.53792,-8.5194,-1.4211e-14,-0.26896,0,0,0.14286,-0,-0,0.66667
0.10315,0.2647,0.72208,-0.35295,-22.653,266.81,0.67962,-0.22654,-1.5554,0.90615,1.373e-08,-0.77768,0,0,0.14286,-0,-0,0.66667
0.024522,0.50121,0.17166,0.0018121,0.11726,303.35,-0.00082948,0.00028032,-1.9996,-0.0011041,5.7408e-06,-0.99981,0,0,0.14286,-0,-0,0.66667
0.70581,0.36035,4.9407,-0.20947,-6.7552,38.713,2.7598,-0.91994,-1.8438,3.6798,6.6749e-12,-0.92191,0,0,0.14286,-0,-0,0.66667
0.97913,0.22948,6.8539,-0.40577,-0.92772,0.90642,7.4164,-2.4721,-1.4133,9.8885,2.4849e-07,-0.70663,0,0,0.14286,-0,-0,0.66667
0.78517,0.72889,5.4962,0.34334,8.4445,22.015,-5.0321,1.6774,-1.5802,-6.7095,1.7213e-10,-0.79008,0,0,0.14286,-0,-0,0.66667
0.76473,0.23788,5.3531,-0.39318,-10.499,26.031,5.6126,-1.8709,-1.4516,7.4835,-3.49e-11,-0.72582,0,0,0.14286,-1.3534e-15,0,0.66667
0.67545,0.56173,4.7281,0.092591,3.2362,46.198,-1.1674,0.38914,-1.9703,-1.5566,-1.9397e-12,-0.98517,0,0,0.14286,-0,-0,0.66667
0.7955,0.18289,5.5685,-0.47567,-11.245,20.409,7.0634,-2.3545,-1.1972,9.4178,-1.1362e-10,-0.59859,0,0,0.14286,-3.3835e-16,0,0.66667
0.040018,0.3316,0.28012,-0.2526,-16.346,296.12,0.18869,-0.062898,-1.7714,0.25159,-6.6939e-08,-0.88569,0,0,0.14286,-0,-0,0.66667
0.26468,0.2003,1.8528,-0.44954,-27.145,194.13,2.2211,-0.74036,-1.2827,2.9614,-6.4406e-12,-0.64135,0,0,0.14286,-0,-0,0.66667
0.6954,0.34,4.8678,-0.24,-7.9718,41.269,3.1154,-1.0385,-1.7943,4.1538,6.5039e-12,-0.89715,0,0,0.14286,5.4423e-16,0,0.66667
0.86699,0.29003,6.0689,-0.31495,-4.9585,9.319,5.0971,-1.699,-1.6457,6.7961,-5.6745e-09,-0.82287,0,0,0.14286,2.7068e-15,0,0.66667
0.67461,0.86005,4.7222,0.54008,19.075,47.01,-6.801,2.267,-0.96269,-9.068,-2.0468e-12,-0.48134,0,0,0.14286,-1.3534e-15,0,0.66667
0.17628,0.12409,1.2339,-0.56386,-35.551,233.45,1.8554,-0.61846,-0.86992,2.4738,6.9128e-10,-0.43496,0,0,0.14286,-3.8065e-16,0,0.66667
0.93631,0.74351,6.5542,0.36527,2.7806,2.8361,-6.3841,2.128,-1.5272,-8.5121,8.5917e-09,-0.76358,0,0,0.14286,-6.7671e-16,0,0.66667
0.90338,0.39915,6.3237,-0.15127,-1.7329,5.1545,2.5509,-0.85028,-1.9188,3.4011,-4.2487e-09,-0.95942,0,0,0.14286,6.7671e-16,0,0.66667
0.086679,0.98346,0.60675,0.7252,46.996,274.55,-1.1734,0.39112,-0.12825,-1.5645,2.8116e-07,-0.064123,0,0,0.14286,3.7447e-16,0,0.66667
0.193,0.95178,1.351,0.67766,42.552,226,-2.4414,0.8138,-0.36565,-3.2552,1.7478e-10,-0.18283,0,0,0.14286,3.3835e-16,0,0.66667
0.27519,0.24525,1.9264,-0.38212,-22.91,189.52,1.9629,-0.65431,-1.48,2.6173,-3.6742e-12,-0.73998,0,0,0.14286,-3.3835e-16,0,0.66667
0.73841,0.54548,5.1689,0.068225,1.9875,31.171,-0.94039,0.31346,-1.9825,-1.2539,1.2038e-12,-0.99125,0,0,0.14286,-1.3534e-15,0,0.66667
0.85937,0.43075,6.0156,-0.10387,-1.715,10.044,1.6663,-0.55542,-1.9643,2.2217,-3.4401e-09,-0.98214,0,0,0.14286,-1.3534e-15,0,0.66667
0.57832,0.13276,4.0483,-0.55085,-23.804,74.617,5.9467,-1.9822,-0.92343,7.9289,5.1203e-13,-0.46171,0,0,0.14286,-1.3534e-15,0,0.66667
0.19965,0.90285,1.3975,0.60427,37.782,222.96,-2.252,0.75065,-0.70208,-3.0026,-8.3685e-10,-0.35104,0,0,0.14286,-0,-0,0.66667
0.41509,0.24887,2.9056,-0.37669,-20.206,131.94,2.9188,-0.97292,-1.4951,3.8917,2.3452e-12,-0.74756,0,0,0.14286,1.2688e-16,0,0.66667
0.13786,0.83499,0.96501,0.50248,32.043,250.9,-1.2931,0.43103,-1.1024,-1.7241,-6.537e-09,-0.55118,0,0,0.14286,1.6918e-16,0,0.66667
0.9174,0.070891,6.4218,-0.64366,-6.5616,5.0363,11.023,-3.6742,-0.52612,14.697,-1.3232e-07,-0.26306,0,0,0.14286,-0,-0,0.66667
0.76453,0.35302,5.3517,-0.22047,-5.8673,25.818,3.1464,-1.0488,-1.8285,4.1952,-4.7788e-11,-0.91425,0,0,0.14286,-0,-0,0.66667
0.51021,0.8731,3.5715,0.55965,26.901,97.153,-5.3301,1.7767,-0.88616,-7.1068,-1.3993e-12,-0.44308,0,0,0.14286,9.3047e-16,0,0.66667
0.45358,0.35125,3.175,-0.22313,-11.46,117.17,1.8892,-0.62973,-1.8251,2.5189,4.5519e-15,-0.91254,0,0,0.14286,-0,-0,0.66667
0.097842,0.98906,0.68489,0.7336,47.451,269.4,-1.3398,0.44661,-0.085688,-1.7864,2.9478e-08,-0.042844,0,0,0.14286,8.4588e-17,0,0.66667
0.31868,0.31583,2.2307,-0.27626,-16.076,170.91,1.6433,-0.54778,-1.728,2.1911,-4.7798e-12,-0.86399,0,0,0.14286,6.7671e-16,0,0.66667
0.12063,0.30679,0.84443,-0.28982,-18.515,258.74,0.65262,-0.21754,-1.7009,0.87016,7.1655e-09,-0.85046,0,0,0.14286,-2.5377e-16,0,0.66667
0.78234,0.87581,5.4764,0.56372,14.145,23.027,-8.2323,2.7441,-0.87271,-10.976,2.9645e-10,-0.43636,0,0,0.14286,-2.7068e-15,0,0.66667
0.54488,0.57959,3.8142,0.11939,5.4165,84.894,-1.2143,0.40478,-1.9496,-1.6191,-7.1976e-13,-0.97482,0,0,0.14286,6.7671e-16,0,0.66667
0.22728,0.29595,1.5909,-0.30608,-18.815,210.47,1.2985,-0.43284,-1.665,1.7314,9.3129e-11,-0.83252,0,0,0.14286,-0,-0,0.66667
0.2242,0.18597,1.5694,-0.47104,-29.061,211.92,1.9714,-0.65712,-1.211,2.6285,3.722e-11,-0.60548,0,0,0.14286,-4.2294e-17,0,0.66667
0.2604,0.82258,1.8228,0.48387,29.305,196.02,-2.352,0.784,-1.1663,-3.136,1.2347e-11,-0.58314,0,0,0.14286,-0,-0,0.66667
0.30887,0.85683,2.1621,0.53525,31.48,175.25,-3.0861,1.0287,-0.98065,-4.1147,5.7621e-12,-0.49033,0,0,0.14286,-0,-0,0.66667
0.38771,0.72858,2.7139,0.34287,18.876,142.68,-2.4814,0.82714,-1.5819,-3.3086,2.4576e-12,-0.79095,0,0,0.14286,-6.7671e-16,0,0.66667
0.29755,0.321,2.0828,-0.2685,-15.852,179.86,1.4913,-0.4971,-1.7455,1.9884,-4.6552e-12,-0.87273,0,0,0.14286,-0,-0,0.66667
0.67956,0.63185,4.7569,0.19777,6.8468,45.205,-2.5087,0.83625,-1.8596,-3.345,-3.8223e-12,-0.92979,0,0,0.14286,-1.3534e-15,0,0.66667
0.035074,0.57293,0.24552,0.1094,7.0761,298.43,-0.071624,0.023875,-1.9568,-0.095499,-4.915e-08,-0.97839,0,0,0.14286,8.4588e-17,0,0.66667
0.32811,0.48092,2.2968,-0.028619,-1.6518,166.88,0.17528,-0.058428,-1.9992,0.23371,2.1633e-13,-0.99962,0,0,0.14286,6.7671e-16,0,0.66667
0.74529,0.026481,5.217,-0.71028,-20.586,30.847,9.8815,-3.2938,-0.20579,13.175,6.3327e-13,-0.1029,0,0,0.14286,-0,2.0899e-16,0.66667
0.94281,0.52096,6.5997,0.031446,0.20997,2.0374,-0.55342,0.18447,-1.9952,-0.7379,-1.0583e-07,-0.9976,0,0,0.14286,-0,-0,0.66667
0.80273,0.23002,5.6191,-0.40498,-9.2418,18.992,6.0683,-2.0228,-1.4154,8.0911,-4.2112e-10,-0.70768,0,0,0.14286,-0,-0,0.66667
0.24083,0.46578,1.6858,-0.051333,-3.1294,204.41,0.23076,-0.076921,-1.99,0.30768,1.8225e-11,-0.99499,0,0,0.14286,8.4588e-17,0,0.66667
0.23292,0.0442,1.6304,-0.6837,-42.178,208.24,2.9726,-0.99085,-0.33876,3.9634,-8.531e-12,-0.16938,0,0,0.14286,-0,-0,0.66667
0.19034,0.43366,1.3324,-0.099508,-6.2087,226.93,0.35355,-0.11785,-1.9655,0.4714,2.8593e-10,-0.98274,0,0,0.14286,-8.4588e-17,0,0.66667
0.8825,0.96486,6.1775,0.69729,10.022,8.5671,-11.487,3.8289,-0.27033,-15.315,-4.1976e-08,-0.13516,0,0,0.14286,1.6918e-15,0,0.66667
0.23786,0.66532,1.665,0.24799,15.156,205.76,-1.1011,0.36702,-1.781,-1.4681,-4.3392e-11,-0.89048,0,0,0.14286,-0,-0,0.66667
0.75818,0.80429,5.3073,0.45643,12.511,27.477,-6.4598,2.1533,-1.2578,-8.613,2.6399e-11,-0.62888,0,0,0.14286,6.7671e-16,0,0.66667
0.26105,0.29049,1.8273,-0.31427,-18.982,195.62,1.5314,-0.51047,-1.6479,2.0419,4.2828e-12,-0.82395,0,0,0.14286,-0,-0,0.66667
0.033082,0.166,0.23157,-0.50099,-32.534,299.38,0.30938,-0.10313,-1.1083,0.4125,-2.5857e-07,-0.55413,0,0,0.14286,8.4588e-17,0,0.66667
0.73345,0.31348,5.1341,-0.27978,-8.3053,32.428,3.8305,-1.2768,-1.7244,5.1073,2.5884e-12,-0.86219,0,0,0.14286,2.7068e-15,0,0.66667
0.7262,0.072275,5.0834,-0.64159,-19.711,34.8,8.6972,-2.8991,-0.53476,11.596,5.2651e-12,-0.26738,0,0,0.14286,-0,-0,0.66667
0.088959,0.9787,0.62271,0.71805,46.506,273.49,-1.1924,0.39746,-0.16571,-1.5898,5.2648e-07,-0.082855,0,0,0.14286,-0,-0,0.66667
0.3267,0.20181,2.2869,-0.44728,-25.935,167.67,2.7277,-0.90924,-1.2895,3.6369,-1.4677e-13,-0.64473,0,0,0.14286,-6.7671e-16,0,0.66667
0.94837,0.52731,6.6386,0.040972,0.24547,1.7153,-0.72531,0.24177,-1.9937,-0.96708,2.3324e-08,-0.99685,0,0,0.14286,-2.0301e-15,0,0.66667
0.16295,0.60649,1.1406,0.15974,10.07,239.34,-0.48587,0.16196,-1.9075,-0.64783,-1.1252e-09,-0.95376,0,0,0.14286,-0,-0,0.66667
0.086672,0.311,0.60671,-0.2835,-18.241,274.43,0.45866,-0.15289,-1.7138,0.61155,9.8078e-09,-0.85689,0,0,0.14286,-4.2294e-17,0,0.66667
0.5946,0.10846,4.1622,-0.58732,-24.672,69.662,6.5188,-2.1729,-0.77482,8.6917,4.4942e-13,-0.38741,0,0,0.14286,-0,-0,0.66667
0.93099,0.41975,6.5169,-0.12038,-0.97961,2.8542,2.092,-0.69732,-1.9467,2.7893,-1.2576e-08,-0.97336,0,0,0.14286,-0,-0,0.66667
0.13378,0.9244,0.93645,0.63659,40.743,252.83,-1.5897,0.5299,-0.55731,-2.1196,1.5332e-08,-0.27866,0,0,0.14286,-1.6918e-16,0,0.66667
0.51301,0.60154,3.5911,0.15231,7.2469,95.72,-1.4586,0.48619,-1.9178,-1.9448,5.137e-13,-0.95891,0,0,0.14286,-0,-0,0.66667
0.684,0.41984,4.788,-0.12025,-4.1122,44.022,1.5353,-0.51177,-1.9479,2.0471,2.7945e-12,-0.97397,0,0,0.14286,1.3534e-15,0,0.66667
0.17183,0.15753,1.2028,-0.5137,-32.412,235.43,1.6477,-0.54923,-1.0652,2.1969,1.5913e-09,-0.53261,0,0,0.14286,-0,-1.5555e-16,0.66667
0.01126,0.78351,0.078819,0.42526,27.612,309.55,-0.089383,0.029794,-1.3571,-0.11918,-1.4416e-07,-0.67856,0,0,0.14286,4.2294e-17,0,0.66667
0.88768,0.07628,6.2138,-0.63558,-8.6995,7.7827,10.532,-3.5105,-0.56336,14.042,-3.6919e-09,-0.28168,0,0,0.14286,-0,-0,0.66667
0.035231,0.98496,0.24662,0.72744,47.442,298.41,-0.4784,0.15947,-0.1176,-0.63787,-2.402e-06,-0.058801,0,0,0.14286,4.2294e-17,0,0.66667
0.25746,0.23209,1.8022,-0.40187,-24.348,197.24,1.9313,-0.64377,-1.4239,2.5751,3.3091e-12,-0.71197,0,0,0.14286,-0,-0,0.66667
0.65168,0.14148,4.5618,-0.53778,-20.061,53.084,6.5419,-2.1806,-0.97052,8.7226,1.6067e-12,-0.48526,0,0,0.14286,-0,-0,0.66667
0.28578,0.30973,2.0005,-0.2854,-16.981,184.9,1.5225,-0.5075,-1.7103,2.03,-5.4713e-12,-0.85517,0,0,0.14286,8.4588e-17,0,0.66667
0.0097076,0.94142,0.067953,0.66212,43.169,310.28,-0.11998,0.039985,-0.44052,-0.15998,-1.2122e-05,-0.22026,0,0,0.14286,-0,-0,0.66667
0.57545,0.82088,4.0282,0.48132,20.868,75.39,-5.1703,1.7234,-1.1765,-6.8937,-4.1345e-13,-0.58823,0,0,0.14286,1.3534e-15,0,0.66667
0.30779,0.67716,2.1545,0.26574,15.581,175.5,-1.5268,0.50894,-1.7478,-2.0357,8.6858e-12,-0.87392,0,0,0.14286,-0,-0,0.66667
0.15151,0.8789,1.0606,0.56835,36.139,244.69,-1.6074,0.53581,-0.85116,-2.1433,-5.104e-09,-0.42558,0,0,0.14286,-0,-0,0.66667
0.97128,0.84119,6.799,0.51178,1.7332,1.4497,-9.2789,3.093,-1.0699,-12.372,-8.1183e-07,-0.53493,0,0,0.14286,-1.6918e-15,0,0.66667
0.16497,0.62094,1.1548,0.18141,11.43,238.42,-0.55864,0.18621,-1.8821,-0.74485,-1.6549e-09,-0.94104,0,0,0.14286,1.6918e-16,0,0.66667
0.72724,0.38019,5.0906,-0.17972,-5.433,33.71,2.4397,-0.81323,-1.8841,3.2529,4.7162e-12,-0.94203,0,0,0.14286,-0,-0,0.66667
0.89072,0.65823,6.2351,0.23735,3.0793,6.5019,-3.9464,1.3155,-1.803,-5.2618,6.8011e-09,-0.9015,0,0,0.14286,-0,-0,0.66667
0.85872,0.75999,6.011,0.38998,6.5249,10.506,-6.2511,2.0837,-1.4609,-8.3348,4.0373e-09,-0.73046,0,0,0.14286,-0,-0,0.66667
0.18426,0.61874,1.2898,0.17811,11.143,229.68,-0.61259,0.2042,-1.8873,-0.81678,-5.2428e-10,-0.94365,0,0,0.14286,3.3835e-16,0,0.66667
0.23681,0.011331,1.6577,-0.733,-45.185,206.58,3.2402,-1.0801,-0.089744,4.3202,-1.0781e-11,-0.044872,0,0,0.14286,-0,-0,0.66667
0.018363,0.034815,0.12854,-0.69778,-45.518,306.25,0.23918,-0.079728,-0.2696,0.3189,-3.9455e-06,-0.1348,0,0,0.14286,4.2294e-17,0,0.66667
0.93141,0.11443,6.5198,-0.57836,-4.8693,3.7522,10.055,-3.3518,-0.80915,13.407,-1.1825e-07,-0.40458,0,0,0.14286,-0,-0,0.66667
0.88712,0.7494,6.2098,0.3741,5.0424,7.1136,-6.1949,2.065,-1.5033,-8.2599,1.1239e-08,-0.75165,0,0,0.14286,-8.4588e-17,0,0.66667
0.59547,0.73087,4.1683,0.34631,14.444,68.983,-3.8494,1.2831,-1.5742,-5.1325,3.2796e-13,-0.7871,0,0,0.14286,-0,-0,0.66667
0.10937,0.85699,0.76557,0.53548,34.413,264,-1.0932,0.3644,-0.98259,-1.4576,-1.2855e-08,-0.49129,0,0,0.14286,-0,-0,0.66667
0.17354,0.94325,1.2148,0.66487,42.047,234.75,-2.1538,0.71794,-0.42949,-2.8718,1.5103e-09,-0.21475,0,0,0.14286,-3.3835e-16,0,0.66667
0.57696,0.38179,4.0387,-0.17731,-7.6303,74.556,1.9096,-0.63653,-1.8898,2.5461,6.7724e-15,-0.94488,0,0,0.14286,-0,-0,0.66667
0.25166,0.617,1.7616,0.1755,10.643,199.67,-0.82443,0.27481,-1.8915,-1.0992,-6.5953e-12,-0.94574,0,0,0.14286,-0,-0,0.66667
0.30017,0.32765,2.1012,-0.25853,-15.236,178.74,1.4486,-0.48286,-1.7618,1.9315,-5.3172e-12,-0.8809,0,0,0.14286,-0,-0,0.66667
0.17099,0.40007,1.1969,-0.14989,-9.4226,235.69,0.47842,-0.15947,-1.922,0.63789,6.4984e-10,-0.96099,0,0,0.14286,8.4588e-17,0,0.66667
0.18959,0.45801,1.3271,-0.062984,-3.9306,227.26,0.2229,-0.074301,-1.9863,0.29721,2.204e-10,-0.99315,0,0,0.14286,-0,-0,0.66667
0.46342,0.76701,3.2439,0.40052,20.38,113.68,-3.4647,1.1549,-1.4282,-4.6196,-7.9647e-13,-0.71408,0,0,0.14286,-0,-0,0.66667
0.50987,0.59604,3.5691,0.14405,6.8839,96.807,-1.3711,0.45702,-1.9258,-1.8281,2.6046e-13,-0.96292,0,0,0.14286,-0,-0,0.66667
0.51158,0.87649,3.5811,0.56473,27.097,96.688,-5.3929,1.7976,-0.86649,-7.1905,-6.2927e-13,-0.43325,0,0,0.14286,-0,-0,0.66667
0.99714,0.3853,6.98,-0.17205,0.030849,0.12397,3.2024,-1.0675,-1.8947,4.2698,-1.5344e-07,-0.94733,0,0,0.14286,-0,-0,0.66667
0.1296,0.097212,0.90717,-0.60418,-38.687,254.73,1.4616,-0.4872,-0.7019,1.9488,1.025e-08,-0.35095,0,0,0.14286,3.3835e-16,0,0.66667
0.75617,0.18122,5.2932,-0.47817,-13.212,27.936,6.7494,-2.2498,-1.1859,8.9992,-1.8516e-11,-0.59297,0,0,0.14286,-1.3534e-15,0,0.66667
0.79376,0.88384,5.5563,0.57575,13.778,20.98,-8.5308,2.8436,-0.82123,-11.374,-1.509e-12,-0.41061,0,0,0.14286,1.3534e-15,0,0.66667
0.58488,0.072043,4.0942,-0.64194,-27.493,72.77,7.0085,-2.3362,-0.53325,9.3447,2.9843e-13,-0.26663,0,0,0.14286,-0,-0,0.66667
0.46274,0.84465,3.2392,0.51697,26.385,114.08,-4.4655,1.4885,-1.0496,-5.954,6.9589e-13,-0.52478,0,0,0.14286,-0,-0,0.66667
0.89343,0.92174,6.254,0.63261,8.2335,7.179,-10.55,3.5167,-0.57684,-14.067,-5.9109e-08,-0.28842,0,0,0.14286,-0,-0,0.66667
0.82818,0.56253,5.7973,0.093788,1.8709,14.455,-1.4499,0.4833,-1.9725,-1.9332,1.1985e-09,-0.98623,0,0,0.14286,2.7068e-15,0,0.66667
0.050291,0.91,0.35204,0.615,39.961,291.39,-0.57734,0.19245,-0.65554,-0.76979,-2.4355e-07,-0.32777,0,0,0.14286,-0,-0,0.66667
0.96298,0.69259,6.7409,0.28889,1.2279,1.236,-5.1929,1.731,-1.7024,-6.9239,-7.2043e-08,-0.85121,0,0,0.14286,-0,-0,0.66667
0.0073399,0.77878,0.051379,0.41818,27.151,311.38,-0.057295,0.019098,-1.3776,-0.076393,-3.1614e-07,-0.68878,0,0,0.14286,-1.3217e-17,0,0.66667
0.57313,0.69458,4.0119,0.29187,12.661,75.861,-3.1225,1.0408,-1.6962,-4.1634,-7.9714e-14,-0.84812,0,0,0.14286,1.3534e-15,0,0.66667
0.57243,0.39127,4.007,-0.16309,-7.0732,75.979,1.7427,-0.5809,-1.9038,2.3236,2.6301e-13,-0.95191,0,0,0.14286,-0,-0,0.66667
0.83438,0.63342,5.8407,0.20012,3.8638,13.598,-3.117,1.039,-1.8562,-4.1559,1.7134e-09,-0.92811,0,0,0.14286,-2.7068e-15,0,0.66667
0.38472,0.93039,2.693,0.64559,35.838,144.23,-4.6362,1.5454,-0.51695,-6.1816,-1.7231e-13,-0.25847,0,0,0.14286,-0,-0,0.66667
0.091041,0.51944,0.63729,0.02916,1.8723,272.38,-0.049555,0.016518,-1.9969,-0.066073,1.2896e-08,-0.99844,0,0,0.14286,-1.6918e-16,0,0.66667
0.58169,0.17715,4.0718,-0.48428,-20.769,73.441,5.2584,-1.7528,-1.1656,7.0112,-2.9177e-13,-0.5828,0,0,0.14286,6.7671e-16,0,0.66667
0.024846,0.30672,0.17392,-0.28992,-18.786,303.21,0.13446,-0.044821,-1.7001,0.17928,-8.0014e-08,-0.85003,0,0,0.14286,2.1147e-17,0,0.66667
0.3618,0.81508,2.5326,0.47262,26.67,153.23,-3.1918,1.0639,-1.207,-4.2558,2.4127e-12,-0.6035,0,0,0.14286,-1.3534e-15,0,0.66667
0.98532,0.54813,6.8972,0.072202,0.095783,0.25969,-1.328,0.44266,-1.9827,-1.7706,-1.0564e-06,-0.99133,0,0,0.14286,-0,-0,0.66667
0.86878,0.45417,6.0815,-0.068743,-1.0616,8.8444,1.1148,-0.37161,-1.9815,1.4864,-4.474e-10,-0.99074,0,0,0.14286,-1.3534e-15,0,0.66667
0.1525,0.53753,1.0675,0.056292,3.5596,244.09,-0.16024,0.053414,-1.9885,-0.21366,-2.3381e-09,-0.99426,0,0,0.14286,3.3835e-16,0,0.66667
0.79883,0.36958,5.5918,-0.19563,-4.5188,19.358,2.9171,-0.97236,-1.865,3.8895,-3.8389e-10,-0.9325,0,0,0.14286,6.7671e-16,0,0.66667
0.811,0.21045,5.677,-0.43432,-9.5441,17.658,6.575,-2.1917,-1.3304,8.7667,-4.4294e-10,-0.66519,0,0,0.14286,6.7671e-16,0,0.66667
0.92821,0.0032513,6.4975,-0.74512,-6.7334,4.616,12.91,-4.3035,-0.025242,17.214,3.4144e-07,-0.012621,0,0,0.14286,-0,-0,0.66667
0.22438,0.044699,1.5707,-0.68295,-42.305,212.01,2.8605,-0.95351,-0.34006,3.8141,-1.4776e-11,-0.17003,0,0,0.14286,-3.3835e-16,0,0.66667
0.49897,0.2008,3.4928,-0.4488,-21.853,100.91,4.1801,-1.3934,-1.285,5.5735,3.5971e-13,-0.64249,0,0,0.14286,-0,-0,0.66667
0.82744,0.030681,5.7921,-0.70398,-14.454,15.821,10.873,-3.6245,-0.24093,14.498,7.5983e-10,-0.12047,0,0,0.14286,-8.4588e-17,0,0.66667
0.66733,0.471,4.6713,-0.043495,-1.5509,48.302,0.54181,-0.1806,-1.9933,0.72241,1.2809e-12,-0.99666,0,0,0.14286,-0,-0,0.66667
0.59394,0.9495,4.1576,0.67425,28.436,70.069,-7.4753,2.4918,-0.38558,-9.9671,8.9262e-13,-0.19279,0,0,0.14286,-0,-0,0.66667
0.65198,0.6444,4.5638,0.21661,8.0203,52.513,-2.6361,0.87872,-1.8322,-3.5149,-1.9629e-12,-0.9161,0,0,0.14286,-6.7671e-16,0,0.66667
0.23852,0.028947,1.6696,-0.70658,-43.491,205.8,3.1459,-1.0486,-0.22509,4.1945,2.339e-12,-0.11255,0,0,0.14286,4.2294e-16,0,0.66667
0.02554,0.77605,0.17878,0.41407,26.867,302.89,-0.19741,0.065803,-1.3895,-0.26321,3.3363e-07,-0.69477,0,0,0.14286,-4.2294e-17,0,0.66667
0.73626,0.50273,5.1538,0.004102,0.12033,31.631,-0.056375,0.018792,-2.0015,-0.075167,3.4791e-12,-1.0008,0,0,0.14286,5.4137e-15,0,0.66667
0.32679,0.79698,2.2875,0.44547,25.827,167.63,-2.7174,0.9058,-1.2953,-3.6232,5.0953e-12,-0.64764,0,0,0.14286,2.8971e-16,0,0.66667
0.37676,0.50623,2.6373,0.0093459,0.51847,146.92,-0.065728,0.021909,-2.0008,-0.087637,2.5926e-13,-1.0004,0,0,0.14286,-0,-0,0.66667
0.61262,0.62438,4.2883,0.18657,7.5125,63.676,-2.1335,0.71117,-1.8773,-2.8447,-7.7494e-14,-0.93864,0,0,0.14286,-6.3441e-16,0,0.66667
0.65717,0.2622,4.6002,-0.35671,-13.079,51.27,4.3757,-1.4586,-1.5489,5.8343,3.7415e-12,-0.77444,0,0,0.14286,-1.3534e-15,0,0.66667
0.2029,0.44737,1.4203,-0.078939,-4.8995,221.28,0.29898,-0.099659,-1.9799,0.39864,1.9767e-10,-0.98997,0,0,0.14286,-0,-0,0.66667
0.82603,0.012646,5.7822,-0.73103,-15.151,16.137,11.272,-3.7573,-0.10019,15.029,2.884e-10,-0.050094,0,0,0.14286,2.7068e-15,0,0.66667
0.38021,0.38165,2.6614,-0.17752,-9.8236,145.57,1.2599,-0.41996,-1.8871,1.6798,2.7467e-13,-0.94353,0,0,0.14286,-0,-0,0.66667
0.63174,0.62914,4.4222,0.19371,7.4994,58.132,-2.2844,0.76145,-1.8657,-3.0458,-1.5692e-12,-0.93284,0,0,0.14286,1.3534e-15,0,0.66667
0.96641,0.9337,6.7649,0.65055,2.7133,2.1157,-11.736,3.9119,-0.49629,-15.648,-4.028e-07,-0.24814,0,0,0.14286,1.6918e-15,0,0.66667
0.56479,0.17086,3.9535,-0.49371,-21.804,78.801,5.2051,-1.735,-1.1334,6.9401,4.3654e-13,-0.56671,0,0,0.14286,-0,-0,0.66667
0.35891,0.26251,2.5124,-0.35624,-20.115,154.29,2.3867,-0.79556,-1.5505,3.1822,-1.5077e-13,-0.77524,0,0,0.14286,-0,-0,0.66667
0.61897,0.67482,4.3328,0.26223,10.434,61.875,-3.0298,1.0099,-1.7539,-4.0398,-9.6323e-13,-0.87694,0,0,0.14286,6.7671e-16,0,0.66667
0.50179,0.47176,3.5126,-0.042359,-2.046,99.607,0.39677,-0.13226,-1.9952,0.52903,2.7381e-13,-0.9976,0,0,0.14286,-0,-0,0.66667
0.45238,0.67688,3.1666,0.26532,13.651,117.64,-2.2404,0.74681,-1.7513,-2.9872,5.2669e-13,-0.87563,0,0,0.14286,-6.7671e-16,0,0.66667
0.73227,0.793,5.1259,0.4395,13.149,32.951,-6.0075,2.0025,-1.3136,-8.01,-6.5103e-12,-0.65678,0,0,0.14286,-0,-0,0.66667
0.92451,0.63185,6.4716,0.19778,1.7699,3.4017,-3.4132,1.1377,-1.8613,-4.5509,1.0815e-08,-0.93066,0,0,0.14286,-0,-0,0.66667
0.47927,0.71357,3.3549,0.32035,15.969,107.8,-2.866,0.95533,-1.6345,-3.8213,1.142e-12,-0.81723,0,0,0.14286,-3.3835e-16,0,0.66667
0.08823,0.94708,0.61761,0.67062,43.395,273.81,-1.1045,0.36816,-0.39964,-1.4727,-3.2752e-08,-0.19982,0,0,0.14286,-0,-0,0.66667
0.56965,0.58594,3.9876,0.12891,5.6162,76.845,-1.3708,0.45693,-1.9395,-1.8277,-3.1697e-13,-0.96973,0,0,0.14286,-0,-0,0.66667
0.24495,0.44031,1.7147,-0.089532,-5.447,202.6,0.40938,-0.13646,-1.9712,0.54584,6.513e-12,-0.98562,0,0,0.14286,-0,-0,0.66667
0.039578,0.20941,0.27705,-0.43588,-28.265,296.35,0.32202,-0.10734,-1.3229,0.42937,-6.736e-08,-0.66143,0,0,0.14286,4.2294e-17,0,0.66667
0.78814,0.89843,5.517,0.59764,14.665,22.054,-8.7925,2.9308,-0.72862,-11.723,-1.3463e-10,-0.36431,0,0,0.14286,-6.7671e-16,0,0.66667
0.27277,0.71393,1.9094,0.3209,19.252,190.54,-1.6339,0.54463,-1.6328,-2.1785,1.0539e-11,-0.81641,0,0,0.14286,1.6918e-16,0,0.66667
0.77707,0.58001,5.4395,0.12002,3.0381,23.285,-1.7409,0.58029,-1.9478,-2.3212,7.7857e-11,-0.97389,0,0,0.14286,1.3534e-15,0,0.66667
0.48821,0.89328,3.4175,0.58992,29.224,104.96,-5.376,1.792,-0.76185,-7.168,-2.3315e-13,-0.38093,0,0,0.14286,-0,-0,0.66667
0.31794,0.42023,2.2256,-0.11966,-6.9596,171.16,0.71017,-0.23672,-1.9476,0.94689,-2.5399e-12,-0.97379,0,0,0.14286,-0,-0,0.66667
0.31403,0.9157,2.1982,0.62356,36.609,173.18,-3.6552,1.2184,-0.61847,-4.8736,4.1647e-12,-0.30923,0,0,0.14286,-0,-0,0.66667
0.042025,0.50116,0.29417,0.0017365,0.11224,295.18,-0.0013623,0.00045226,-2.0001,-0.0018172,-2.7392e-06,-1.0001,0,0,0.14286,-0,-0,0.66667
0.5344,0.014319,3.7408,-0.72852,-33.98,89.255,7.2673,-2.4224,-0.11244,9.6898,1.652e-13,-0.056221,0,0,0.14286,-0,-0,0.66667
0.82355,0.94548,5.7649,0.66823,13.967,16.295,-10.273,3.4242,-0.41154,-13.697,2.3406e-10,-0.20577,0,0,0.14286,-0,-0,0.66667
0.083895,0.67282,0.58727,0.25923,16.684,275.71,-0.40597,0.13532,-1.7594,-0.54129,-9.8366e-09,-0.87972,0,0,0.14286,1.6918e-16,0,0.66667
0.10856,0.37041,0.75991,-0.19438,-12.444,264.29,0.3939,-0.1313,-1.8678,0.52519,1.0033e-08,-0.93391,0,0,0.14286,2.1147e-16,0,0.66667
0.52926,0.083308,3.7048,-0.62504,-29.286,90.754,6.175,-2.0583,-0.61145,8.2334,-4.774e-13,-0.30572,0,0,0.14286,-0,-1.5056e-16,0.66667
0.66014,0.12242,4.621,-0.56637,-20.736,50.868,6.9792,-2.3264,-0.85975,9.3056,8.491e-13,-0.42988,0,0,0.14286,5.0753e-16,0,0.66667
0.69475,0.84787,4.8632,0.5218,17.479,41.894,-6.767,2.2557,-1.0309,-9.0227,-6.1195e-12,-0.51547,0,0,0.14286,-0,-0,0.66667
0.31322,0.72766,2.1926,0.34148,19.963,173.25,-1.9966,0.66553,-1.5871,-2.6621,7.4546e-12,-0.79354,0,0,0.14286,-0,-0,0.66667
0.037778,0.51168,0.26444,0.017517,1.1326,297.16,-0.012353,0.004117,-1.9972,-0.016471,-9.1684e-07,-0.99861,0,0,0.14286,-0,-0,0.66667
0.41456,0.82318,2.9019,0.48476,26.063,132.27,-3.7513,1.2504,-1.1627,-5.0018,1.3689e-12,-0.58137,0,0,0.14286,-0,-0,0.66667
0.22604,0.66723,1.5823,0.25085,15.421,210.99,-1.0585,0.35282,-1.7745,-1.4113,-8.4717e-11,-0.88727,0,0,0.14286,-0,-0,0.66667
0.0011148,0.8879,0.0078038,0.58185,37.879,314.29,-0.012108,0.0040363,-0.79735,-0.016144,4.0248e-07,-0.39868,0,0,0.14286,-0,-0,0.66667
0.68572,0.62398,4.8,0.18597,6.3353,43.631,-2.3805,0.79349,-1.879,-3.1739,-5.7188e-12,-0.9395,0,0,0.14286,1.9455e-15,0,0.66667
0.95206,0.33799,6.6644,-0.24301,-1.3588,1.6845,4.3187,-1.4396,-1.7918,5.7583,4.5287e-08,-0.8959,0,0,0.14286,-0,-0,0.66667
0.39115,0.18595,2.7381,-0.47108,-25.902,141.43,3.4396,-1.1465,-1.2139,4.5861,1.6853e-13,-0.60696,0,0,0.14286,8.4588e-16,0,0.66667
0.3003,0.96131,2.1021,0.69196,41.071,179.07,-3.8788,1.2929,-0.2974,-5.1718,1.7761e-12,-0.1487,0,0,0.14286,-0,-0,0.66667
0.55375,0.33471,3.8763,-0.24793,-11.102,82.056,2.5628,-0.85427,-1.7799,3.4171,-2.7889e-13,-0.88995,0,0,0.14286,-0,-0,0.66667
0.85198,0.46698,5.9638,-0.049526,-0.85825,11.001,0.78764,-0.26255,-1.9907,1.0502,-2.5084e-09,-0.99537,0,0,0.14286,2.0301e-15,0,0.66667
0.79497,0.82856,5.5648,0.49283,11.687,20.546,-7.3134,2.4378,-1.1368,-9.7511,1.4232e-10,-0.56839,0,0,0.14286,1.3534e-15,0,0.66667
0.68476,0.92505,4.7933,0.63758,22.02,44.665,-8.1496,2.7165,-0.55448,-10.866,-1.9247e-12,-0.27724,0,0,0.14286,6.7671e-16,0,0.66667
0.43211,0.81786,3.0247,0.47679,25.168,125.51,-3.8458,1.2819,-1.1909,-5.1277,6.2172e-14,-0.59547,0,0,0.14286,-0,-0,0.66667
0.69043,0.48274,4.833,-0.025893,-0.87016,42.376,0.33371,-0.11124,-1.9973,0.44494,1.201e-12,-0.99865,0,0,0.14286,-0,-0,0.66667
0.21603,0.31413,1.5122,-0.2788,-17.225,215.46,1.1243,-0.37476,-1.7248,1.499,1.6636e-10,-0.86239,0,0,0.14286,-6.7671e-16,0,0.66667
0.28394,0.64158,1.9876,0.21237,12.643,185.66,-1.1256,0.37522,-1.8395,-1.5009,8.8008e-12,-0.91973,0,0,0.14286,-0,-0,0.66667
0.77782,0.85455,5.4447,0.53182,13.57,23.791,-7.7217,2.5739,-0.9939,-10.296,1.9932e-11,-0.49695,0,0,0.14286,-0,-0,0.66667
0.92998,0.58147,6.5099,0.1222,1.0095,2.9274,-2.1214,0.70714,-1.9451,-2.8286,8.5615e-09,-0.97254,0,0,0.14286,1.3534e-15,0,0.66667
0.19005,0.68764,1.3303,0.28146,17.583,227.1,-0.9985,0.33283,-1.7199,-1.3313,-6.1037e-10,-0.85996,0,0,0.14286,6.7671e-16,0,0.66667
0.29606,0.87598,2.0724,0.56398,33.474,180.72,-3.1168,1.0389,-0.87189,-4.1558,7.4163e-12,-0.43595,0,0,0.14286,-1.3534e-15,2.0638e-17,0.66667
0.0062103,0.86618,0.043472,0.54928,35.736,311.91,-0.063674,0.021224,-0.92586,-0.084899,-7.9982e-07,-0.46293,0,0,0.14286,-0,-0,0.66667
0.43156,0.11637,3.0209,-0.57544,-30.455,125.86,4.6357,-1.5452,-0.82131,6.1809,2.7245e-12,-0.41065,0,0,0.14286,-0,-0,0.66667
0.2103,0.57264,1.4721,0.10896,6.7419,217.97,-0.42774,0.14258,-1.9561,-0.57032,-1.0891e-10,-0.97806,0,0,0.14286,-0,-0,0.66667
0.64142,0.3382,4.49,-0.2427,-9.2058,55.447,2.9059,-0.96862,-1.7926,3.8745,2.1279e-12,-0.8963,0,0,0.14286,-1.0151e-15,0,0.66667
0.70959,0.78758,4.9671,0.43136,13.824,38.128,-5.7137,1.9046,-1.3372,-7.6183,-7.7414e-12,-0.66861,0,0,0.14286,-0,-0,0.66667
0.11878,0.49182,0.83144,-0.012266,-0.7829,259.56,0.027195,-0.0090652,-1.9981,0.036261,-1.5869e-08,-0.99906,0,0,0.14286,1.6918e-16,0,0.66667
0.082144,0.80883,0.57501,0.46325,29.894,276.56,-0.71032,0.23677,-1.237,-0.9471,-3.433e-08,-0.61851,0,0,0.14286,1.6918e-16,0,0.66667
0.90634,0.57723,6.3443,0.11584,1.2854,4.8536,-1.9598,0.65327,-1.9543,-2.6131,2.314e-11,-0.97715,0,0,0.14286,-0,-0,0.66667
0.38924,0.23035,2.7247,-0.40447,-22.255,142.12,2.9388,-0.9796,-1.4192,3.9184,2.4736e-13,-0.70962,0,0,0.14286,-6.7671e-16,0,0.66667
0.5334,0.67716,3.7338,0.26574,12.286,88.825,-2.6459,0.88197,-1.7493,-3.5279,-1.763e-13,-0.87465,0,0,0.14286,-0,-0,0.66667
0.96324,0.52363,6.7427,0.035451,0.14652,0.97867,-0.63743,0.21248,-1.9944,-0.8499,5.9732e-08,-0.99721,0,0,0.14286,-0,-0,0.66667
0.75905,0.78484,5.3134,0.42725,11.663,27.239,-6.0538,2.0179,-1.3502,-8.0717,9.8073e-12,-0.67508,0,0,0.14286,2.7068e-15,0,0.66667
0.32554,0.55126,2.2788,0.076891,4.4468,167.96,-0.46725,0.15575,-1.979,-0.62299,4.9051e-12,-0.9895,0,0,0.14286,-3.3835e-16,0,0.66667
0.085849,0.29063,0.60095,-0.31406,-20.216,274.82,0.50329,-0.16776,-1.6477,0.67105,1.3931e-08,-0.82384,0,0,0.14286,-0,-0,0.66667
0.53602,0.83952,3.7522,0.50929,23.553,88.259,-5.0958,1.6986,-1.0774,-6.7944,-4.2188e-13,-0.5387,0,0,0.14286,1.3325e-15,0,0.66667
0.33613,0.32556,2.3529,-0.26167,-15.03,163.61,1.6418,-0.54726,-1.7547,2.189,-1.9726e-12,-0.87735,0,0,0.14286,-0,-0,0.66667
0.021685,0.34446,0.1518,-0.23331,-15.113,304.68,0.094442,-0.031481,-1.8063,0.12592,-4.4295e-09,-0.90316,0,0,0.14286,8.4588e-17,0,0.66667
0.77115,0.89637,5.3981,0.59456,15.616,25.242,-8.5586,2.8529,-0.74179,-11.411,4.4469e-11,-0.37089,0,0,0.14286,-6.7671e-16,0,0.66667
0.38491,0.65606,2.6944,0.23409,12.905,143.72,-1.6819,0.56065,-1.8052,-2.2426,2.3899e-12,-0.90261,0,0,0.14286,-3.3835e-16,0,0.66667
0.57132,0.93655,3.9992,0.65483,28.727,77.046,-6.9836,2.3279,-0.47504,-9.3114,8.1668e-13,-0.23752,0,0,0.14286,-4.2294e-17,0,0.66667
0.75574,0.61748,5.2902,0.17622,4.8402,27.559,-2.4859,0.82864,-1.8884,-3.3146,1.9149e-11,-0.94422,0,0,0.14286,-0,-0,0.66667
0.94085,0.75185,6.5859,0.37778,2.6691,2.573,-6.6347,2.2116,-1.4933,-8.8462,8.6131e-10,-0.74665,0,0,0.14286,-0,-0,0.66667
0.61232,0.25147,4.2863,-0.37279,-15.06,63.961,4.261,-1.4203,-1.5069,5.6813,5.933e-13,-0.75346,0,0,0.14286,-0,-0,0.66667
0.3154,0.22927,2.2078,-0.4061,-23.725,172.38,2.3908,-0.79695,-1.4135,3.1878,-3.9417e-12,-0.70675,0,0,0.14286,-0,-0,0.66667
0.11008,0.74138,0.77054,0.36206,23.206,263.62,-0.74395,0.24798,-1.5357,-0.99194,-1.19e-08,-0.76783,0,0,0.14286,8.4588e-17,0,0.66667
0.073919,0.94857,0.51743,0.67286,43.643,280.43,-0.92843,0.30948,-0.38935,-1.2379,-4.8835e-07,-0.19467,0,0,0.14286,-1.6918e-16,0,0.66667
0.31969,0.41931,2.2378,-0.12103,-7.0305,170.43,0.72226,-0.24075,-1.9461,0.96302,-1.8832e-12,-0.97304,0,0,0.14286,-0,-0,0.66667
0.66084,0.3612,4.6259,-0.2082,-7.55,50.112,2.5683,-0.85609,-1.8447,3.4244,3.7208e-12,-0.92234,0,0,0.14286,-1.3534e-15,0,0.66667
0.69515,0.36788,4.8661,-0.19818,-6.5834,41.29,2.5716,-0.85721,-1.859,3.4288,5.8877e-12,-0.92948,0,0,0.14286,-0,-0,0.66667
0.20772,0.73831,1.454,0.35747,22.186,219.2,-1.386,0.46202,-1.5445,-1.8481,-2.5107e-10,-0.77227,0,0,0.14286,-0,-0,0.66667
0.082796,0.67823,0.57957,0.26735,17.211,276.22,-0.41319,0.13773,-1.7449,-0.55092,-9.3887e-09,-0.87245,0,0,0.14286,-0,-0,0.66667
0.30551,0.52817,2.1386,0.042256,2.4785,176.4,-0.24098,0.080327,-1.9929,-0.32131,3.1179e-12,-0.99645,0,0,0.14286,-0,-0,0.66667
0.54757,0.35916,3.833,-0.21126,-9.5505,84.056,2.1594,-0.7198,-1.8427,2.8792,-9.1704e-14,-0.92136,0,0,0.14286,6.7671e-16,0,0.66667
0.75467,0.17376,5.2827,-0.48936,-13.599,28.27,6.8938,-2.2979,-1.1473,9.1917,2.8377e-13,-0.57365,0,0,0.14286,1.3534e-15,0,0.66667
0.52966,0.44107,3.7076,-0.088389,-4.1039,89.987,0.87389,-0.2913,-1.9739,1.1652,-2.9149e-13,-0.98693,0,0,0.14286,-0,-0,0.66667
0.28698,0.80929,2.0089,0.46394,27.647,184.51,-2.4853,0.82844,-1.2342,-3.3138,9.531e-12,-0.61708,0,0,0.14286,4.2332e-16,0,0.66667
0.62418,0.90794,4.3693,0.61191,24.283,60.956,-7.1295,2.3765,-0.67135,-9.506,-3.6149e-13,-0.33568,0,0,0.14286,-0,3.4558e-17,0.66667
0.26484,0.15852,1.8539,-0.51222,-30.959,194.11,2.5322,-0.84408,-1.0697,3.3763,8.2008e-12,-0.53485,0,0,0.14286,6.7671e-16,0,0.66667
0.65269,0.3553,4.5689,-0.21704,-8.0233,52.318,2.6444,-0.88146,-1.8319,3.5258,2.476e-12,-0.91595,0,0,0.14286,-0,-0,0.66667
0.8419,0.89203,5.8933,0.58805,11.056,13.303,-9.2415,3.0805,-0.7709,-12.322,4.8284e-10,-0.38545,0,0,0.14286,-0,2.028e-16,0.66667
0.63895,0.18698,4.4726,-0.46953,-17.986,56.461,5.6001,-1.8667,-1.2183,7.4667,1.0689e-12,-0.60916,0,0,0.14286,1.6918e-15,0,0.66667
0.56563,0.34366,3.9594,-0.23452,-10.296,78.198,2.4761,-0.82538,-1.8057,3.3015,-3.1353e-13,-0.90284,0,0,0.14286,3.7007e-17,0,0.66667
0.30714,0.19339,2.15,-0.45992,-27.046,175.91,2.6369,-0.87896,-1.2471,3.5158,-1.3323e-12,-0.62353,0,0,0.14286,-0,-0,0.66667
0.87678,0.66786,6.1374,0.25179,3.674,8.0537,-4.1209,1.3736,-1.7752,-5.4945,7.0331e-09,-0.88759,0,0,0.14286,-0,-0,0.66667
0.98882,0.96964,6.9218,0.70446,0.97477,1.6944,-13.003,4.3343,-0.23587,-17.337,4.18e-05,-0.11793,0,0,0.14286,2.7068e-15,0,0.66667
0.77748,0.33041,5.4424,-0.25439,-6.4423,23.329,3.6919,-1.2306,-1.7691,4.9226,-1.1473e-10,-0.88456,0,0,0.14286,-0,-0,0.66667
0.57364,0.040194,4.0155,-0.68971,-30.171,76.396,7.3854,-2.4618,-0.30777,9.8472,-5.2713e-13,-0.15388,0,0,0.14286,-0,8.6194e-17,0.66667
0.14128,0.53468,0.98896,0.052027,3.301,249.22,-0.13721,0.045735,-1.9929,-0.18294,1.2266e-09,-0.99643,0,0,0.14286,-0,-0,0.66667
0.31493,0.96343,2.2045,0.69515,40.855,172.89,-4.0865,1.3622,-0.28259,-5.4487,5.9757e-12,-0.1413,0,0,0.14286,-1.6918e-16,0,0.66667
0.36686,0.80289,2.568,0.45433,25.52,151.15,-3.1113,1.0371,-1.2644,-4.1484,1.2701e-12,-0.63221,0,0,0.14286,-0,-0,0.66667
0.2919,0.9046,2.0433,0.60691,36.151,182.54,-3.3069,1.1023,-0.69036,-4.4091,5.4936e-12,-0.34518,0,0,0.14286,-5.0753e-16,0,0.66667
0.44595,0.45973,3.1217,-0.06041,-3.1269,119.96,0.50288,-0.16763,-1.9855,0.67051,1.2507e-12,-0.99273,0,0,0.14286,-6.7671e-16,0,0.66667
0.61063,0.26,4.2744,-0.36,-14.588,64.443,4.1034,-1.3678,-1.5403,5.4713,1.1773e-12,-0.77017,0,0,0.14286,-1.3534e-15,0,0.66667
0.21291,0.26616,1.4904,-0.35077,-21.718,216.87,1.3941,-0.4647,-1.5609,1.8588,1.9749e-10,-0.78045,0,0,0.14286,-0,-0,0.66667
0.24976,0.47458,1.7483,-0.038133,-2.3138,200.48,0.17778,-0.059262,-1.9973,0.23705,8.1067e-12,-0.99867,0,0,0.14286,-0,-0,0.66667
0.11215,0.21552,0.78505,-0.42672,-27.36,262.68,0.89333,-0.29778,-1.3534,1.1911,1.1736e-08,-0.6767,0,0,0.14286,4.2294e-17,0,0.66667
0.30759,0.83241,2.1531,0.49862,29.332,175.76,-2.8629,0.9543,-1.1148,-3.8172,6.6724e-12,-0.5574,0,0,0.14286,3.3835e-16,0,0.66667
0.49745,0.16486,3.4821,-0.50271,-24.555,101.53,4.668,-1.556,-1.1017,6.224,7.7138e-13,-0.55085,0,0,0.14286,-0,-0,0.66667
0.48981,0.36145,3.4287,-0.20782,-10.208,103.92,1.9002,-0.63339,-1.8449,2.5335,1.9429e-13,-0.92247,0,0,0.14286,-6.7671e-16,0,0.66667
0.99558,0.89597,6.969,0.59395,0.21331,1.1455,-11.038,3.6794,-0.74473,-14.717,1.9094e-06,-0.37237,0,0,0.14286,-1.3534e-15,0,0.66667
0.98111,0.77957,6.8678,0.41935,0.85722,0.88632,-7.68,2.56,-1.3756,-10.24,-2.2217e-07,-0.68778,0,0,0.14286,3.3835e-16,0,0.66667
0.43656,0.84552,3.0559,0.51828,27.25,123.87,-4.2236,1.4079,-1.0474,-5.6314,-1.5206e-12,-0.52372,0,0,0.14286,1.3534e-15,-1.8674e-16,0.66667
0.97202,0.93598,6.8041,0.65397,2.266,1.9254,-11.866,3.9553,-0.48022,-15.821,-4.3515e-06,-0.24011,0,0,0.14286,-1.6918e-15,0,0.66667
0.2144,0.87543,1.5008,0.56315,34.958,216.34,-2.2538,0.75126,-0.87289,-3.005,-3.9025e-10,-0.43645,0,0,0.14286,-6.7671e-16,0,0.66667
0.54112,0.71619,3.7878,0.32429,14.829,86.298,-3.2756,1.0919,-1.6257,-4.3675,6.9655e-13,-0.81283,0,0,0.14286,-3.3835e-16,0,0.66667
0.45344,0.45992,3.174,-0.060118,-3.0853,117.15,0.50885,-0.16962,-1.9893,0.67846,5.2763e-13,-0.99463,0,0,0.14286,-3.3835e-16,0,0.66667
0.96761,0.011828,6.7733,-0.73226,-3.0291,2.41,13.226,-4.4087,-0.094619,17.635,-1.9984e-06,-0.047309,0,0,0.14286,-0,1.5919e-16,0.66667
0.83618,0.93103,5.8532,0.64654,12.61,14.316,-10.092,3.3639,-0.5124,-13.456,-2.7199e-09,-0.2562,0,0,0.14286,-1.3534e-15,0,0.66667
0.21415,0.084764,1.499,-0.62285,-38.714,216.5,2.4898,-0.82993,-0.61972,3.3197,-1.9957e-10,-0.30986,0,0,0.14286,1.6918e-16,0,0.66667
0.43954,0.93456,3.0768,0.65184,34.266,122.96,-5.3481,1.7827,-0.49068,-7.1309,1.9407e-13,-0.24534,0,0,0.14286,3.3835e-16,0,0.66667
0.16848,0.84561,1.1793,0.51841,32.75,236.95,-1.6303,0.54345,-1.0452,-2.1738,-2.1639e-09,-0.52258,0,0,0.14286,-0,-0,0.66667
0.52909,0.96164,3.7036,0.69245,32.516,90.957,-6.8389,2.2796,-0.29584,-9.1185,1.5055e-13,-0.14792,0,0,0.14286,6.7671e-16,0,0.66667
0.79348,0.27304,5.5544,-0.34044,-8.0803,20.496,5.0424,-1.6808,-1.5877,6.7232,-2.7261e-10,-0.79384,0,0,0.14286,6.7671e-16,0,0.66667
0.035879,0.48529,0.25115,-0.022063,-1.4267,298.05,0.014777,-0.0049255,-1.997,0.019703,2.8655e-07,-0.99852,0,0,0.14286,-0,-0,0.66667
0.19136,0.026703,1.3395,-0.70995,-44.642,226.76,2.5359,-0.84532,-0.2079,3.3813,4.9584e-11,-0.10395,0,0,0.14286,-0,-0,0.66667
0.97746,0.28172,6.8422,-0.32742,-0.79905,0.78027,5.9741,-1.9914,-1.6186,7.9654,9.8805e-08,-0.8093,0,0,0.14286,-0,-0,0.66667
0.9608,0.01254,6.7256,-0.73119,-3.651,2.6805,13.114,-4.3713,-0.097247,17.485,-3.752e-06,-0.048624,0,0,0.14286,-0,-0,0.66667
0.55659,0.81711,3.8961,0.47566,21.283,81.416,-4.9419,1.6473,-1.1947,-6.5893,8.793e-13,-0.59737,0,0,0.14286,-1.3534e-15,0,0.66667
0.64609,0.68533,4.5226,0.278,10.441,54.189,-3.3527,1.1176,-1.7249,-4.4703,-1.4246e-12,-0.86247,0,0,0.14286,3.3835e-16,0,0.66667
0.27209,0.8454,1.9047,0.5181,31.185,190.97,-2.6315,0.87715,-1.0452,-3.5086,1.3297e-11,-0.52259,0,0,0.14286,-0,-0,0.66667
0.95209,0.037442,6.6646,-0.69384,-4.1811,2.934,12.331,-4.1104,-0.29004,16.441,-3.9876e-06,-0.14502,0,0,0.14286,-0,1.0752e-16,0.66667
0.66977,0.21161,4.6884,-0.43258,-15.415,48.047,5.4084,-1.8028,-1.3354,7.2112,3.7472e-12,-0.66769,0,0,0.14286,6.7671e-16,0,0.66667
0.66681,0.019403,4.6677,-0.7209,-26.125,49.515,8.973,-2.991,-0.15091,11.964,6.9278e-13,-0.075453,0,0,0.14286,-1.3534e-15,0,0.66667
0.011103,0.17334,0.077723,-0.49,-31.845,309.63,0.10156,-0.033852,-1.1451,0.13541,2.6144e-07,-0.57257,0,0,0.14286,-0,-0,0.66667
0.85297,0.59001,5.9708,0.13502,2.327,10.908,-2.1497,0.71658,-1.9344,-2.8663,2.6324e-09,-0.9672,0,0,0.14286,-0,-0,0.66667
0.77833,0.0073443,5.4483,-0.73898,-19.02,24.333,10.737,-3.5788,-0.058466,14.315,-1.8283e-11,-0.029233,0,0,0.14286,-0,-1.2166e-16,0.66667
0.68492,0.67393,4.7945,0.26089,8.915,43.902,-3.3355,1.1118,-1.7579,-4.4474,-6.3622e-12,-0.87896,0,0,0.14286,1.3534e-15,0,0.66667
0.74078,0.83099,5.1855,0.49649,14.474,31.213,-6.8654,2.2885,-1.1219,-9.1538,1.025e-12,-0.56093,0,0,0.14286,-0,-0,0.66667
0.15657,0.33546,1.096,-0.24681,-15.601,242.26,0.72135,-0.24045,-1.7856,0.9618,2.3992e-09,-0.89278,0,0,0.14286,-0,-0,0.66667
0.71878,0.57047,5.0314,0.1057,3.2776,35.593,-1.4182,0.47274,-1.9627,-1.891,-3.6783e-12,-0.98137,0,0,0.14286,-0,-0,0.66667
0.096818,0.70117,0.67773,0.30175,19.382,269.73,-0.54535,0.18178,-1.6759,-0.72713,-1.3328e-08,-0.83793,0,0,0.14286,-1.6918e-16,0,0.66667
0.70695,0.89364,4.9486,0.59046,19.166,39.111,-7.7919,2.5973,-0.7596,-10.389,-4.8712e-12,-0.3798,0,0,0.14286,-6.7671e-16,0,0.66667
0.0026318,0.10243,0.018423,-0.59636,-38.834,313.58,0.029296,-0.009765,-0.73569,0.039061,2.6298e-07,-0.36785,0,0,0.14286,-0,-9.495e-17,0.66667
0.77621,0.89618,5.4334,0.59427,15.304,24.268,-8.6105,2.8702,-0.74314,-11.481,3.0281e-11,-0.37157,0,0,0.14286,-0,-0,0.66667
0.49156,0.16976,3.4409,-0.49536,-24.381,103.61,4.5453,-1.5151,-1.1257,6.0604,5.7465e-13,-0.56285,0,0,0.14286,6.7671e-16,0,0.66667
0.20439,0.90836,1.4307,0.61254,38.229,220.85,-2.337,0.77899,-0.66812,-3.116,-3.9316e-10,-0.33406,0,0,0.14286,-0,-0,0.66667
0.72925,0.41868,5.1047,-0.12197,-3.6618,33.219,1.6604,-0.55346,-1.9457,2.2139,1.5434e-12,-0.97287,0,0,0.14286,1.3534e-15,0,0.66667
0.31565,0.54415,2.2096,0.066219,3.8569,172.11,-0.39018,0.13006,-1.984,-0.52023,4.8112e-12,-0.99199,0,0,0.14286,-0,-0,0.66667
0.88382,0.91013,6.1867,0.61519,8.6794,8.1269,-10.149,3.3831,-0.65349,-13.533,-1.7817e-08,-0.32674,0,0,0.14286,2.7068e-15,0,0.66667
0.18023,0.3165,1.2616,-0.27525,-17.26,231.53,0.92605,-0.30868,-1.7297,1.2347,9.0684e-10,-0.86484,0,0,0.14286,-0,-0,0.66667
0.93855,0.72397,6.5699,0.33595,2.458,2.6304,-5.8858,1.9619,-1.6005,-7.8477,-6.0645e-09,-0.80027,0,0,0.14286,-2.7068e-15,0,0.66667
0.97075,0.41629,6.7953,-0.12557,-0.40171,0.72511,2.2754,-0.75846,-1.9445,3.0338,3.9455e-08,-0.97223,0,0,0.14286,-0,-0,0.66667
0.30449,0.12282,2.1314,-0.56577,-33.394,177.14,3.2157,-1.0719,-0.86126,4.2876,-7.0655e-13,-0.43063,0,0,0.14286,-4.2294e-16,0,0.66667
0.86249,0.39431,6.0374,-0.15854,-2.5644,9.6828,2.5524,-0.8508,-1.9103,3.4032,-1.8825e-09,-0.95514,0,0,0.14286,1.3534e-15,0,0.66667
0.84218,0.12743,5.8953,-0.55885,-10.47,13.175,8.7855,-2.9285,-0.89142,11.714,-2.4125e-09,-0.44571,0,0,0.14286,-2.7068e-15,1.4385e-16,0.66667
0.42461,0.24593,2.9723,-0.3811,-20.245,128.27,3.0206,-1.0069,-1.4843,4.0275,9.9609e-13,-0.74216,0,0,0.14286,-8.4588e-16,0,0.66667
0.36368,0.45678,2.5458,-0.064837,-3.6382,152.21,0.44016,-0.14672,-1.984,0.58688,1.8353e-12,-0.99202,0,0,0.14286,-0,-0,0.66667
0.28244,0.41166,1.9771,-0.13251,-7.8918,186.29,0.69862,-0.23287,-1.9393,0.93149,-2.2398e-12,-0.96963,0,0,0.14286,-0,-0,0.66667
0.99324,0.54349,6.9527,0.065233,0.019685,0.1011,-1.2095,0.40315,-1.9831,-1.6126,9.4352e-07,-0.99156,0,0,0.14286,-0,-0,0.66667
0.25575,0.16402,1.7903,-0.50397,-30.611,198.06,2.406,-0.80199,-1.0958,3.2079,5.5957e-12,-0.54788,0,0,0.14286,-0,-0,0.66667
0.92068,0.42194,6.4447,-0.1171,-1.0989,3.6275,2.0124,-0.67081,-1.9522,2.6832,1.7057e-09,-0.9761,0,0,0.14286,-0,-0,0.66667
0.42834,0.66732,2.9983,0.25098,13.259,126.73,-2.0068,0.66892,-1.7744,-2.6757,6.95e-14,-0.8872,0,0,0.14286,-0,-0,0.66667
0.93543,0.38454,6.548,-0.17318,-1.3184,2.5935,3.024,-1.008,-1.8939,4.032,1.8068e-08,-0.94694,0,0,0.14286,-0,-0,0.66667
0.83884,0.035132,5.8719,-0.6973,-13.445,14.106,10.919,-3.6396,-0.2708,14.558,8.7091e-10,-0.1354,0,0,0.14286,-0,-0,0.66667
0.15578,0.83278,1.0904,0.49918,31.659,242.72,-1.4515,0.48384,-1.1158,-1.9354,-9.1173e-10,-0.55791,0,0,0.14286,-0,-0,0.66667
0.57428,0.88002,4.02,0.57003,24.819,75.925,-6.1107,2.0369,-0.84458,-8.1477,-1.8652e-13,-0.42229,0,0,0.14286,1.3534e-15,0,0.66667
0.6735,0.33368,4.7145,-0.24948,-8.7764,46.814,3.1365,-1.0455,-1.7795,4.182,4.6219e-12,-0.88976,0,0,0.14286,-0,-0,0.66667
0.40582,0.83678,2.8407,0.50516,27.408,135.7,-3.8268,1.2756,-1.0948,-5.1024,4.674e-13,-0.54742,0,0,0.14286,3.3835e-16,0,0.66667
0.004877,0.40127,0.034139,-0.14809,-9.5919,312.53,0.013482,-0.0044937,-1.9215,0.017976,3.6359e-07,-0.96074,0,0,0.14286,5.2868e-18,0,0.66667
0.32533,0.62406,2.2773,0.1861,10.77,168.08,-1.1301,0.37671,-1.8781,-1.5069,6.3929e-12,-0.93906,0,0,0.14286,-9.7277e-16,0,0.66667
0.83894,0.15074,5.8726,-0.52389,-9.9807,13.539,8.2043,-2.7348,-1.0235,10.939,-1.1545e-09,-0.51177,0,0,0.14286,6.7671e-16,0,0.66667
0.062824,0.53924,0.43977,0.058864,3.7965,285.49,-0.06903,0.02301,-1.9899,-0.092041,-1.0554e-07,-0.99493,0,0,0.14286,-0,-0,0.66667
0.10542,0.076539,0.73794,-0.63519,-40.933,265.86,1.25,-0.41665,-0.56454,1.6666,-8.6353e-08,-0.28227,0,0,0.14286,-1.6918e-16,0,0.66667
0.70179,0.9331,4.9125,0.64965,21.445,40.507,-8.5104,2.8368,-0.50112,-11.347,-1.6769e-12,-0.25056,0,0,0.14286,1.0151e-15,-8.1873e-17,0.66667
0.51416,0.58594,3.5991,0.12891,6.1227,95.312,-1.2372,0.41241,-1.9421,-1.6496,1.0636e-13,-0.97104,0,0,0.14286,6.7671e-16,0,0.66667
0.49817,0.097724,3.4872,-0.60341,-29.515,101.45,5.6112,-1.8704,-0.70678,7.4816,9.2415e-13,-0.35339,0,0,0.14286,1.3534e-15,7.7853e-17,0.66667
0.37361,0.13991,2.6153,-0.54014,-30.212,148.53,3.7669,-1.2556,-0.96347,5.0226,7.5806e-13,-0.48174,0,0,0.14286,6.7671e-16,0,0.66667
0.60351,0.94096,4.2246,0.66144,27.388,67.145,-7.4515,2.4838,-0.44383,-9.9353,1.934e-12,-0.22191,0,0,0.14286,-1.3534e-15,0,0.66667
0.85147,0.35039,5.9603,-0.22442,-3.9129,11.196,3.5669,-1.189,-1.8196,4.7559,-2.9512e-09,-0.9098,0,0,0.14286,-0,-0,0.66667
0.27692,0.80696,1.9385,0.46044,27.608,188.83,-2.3801,0.79338,-1.2458,-3.1735,5.7916e-12,-0.6229,0,0,0.14286,-5.0753e-16,0,0.66667
0.84476,0.9507,5.9133,0.67605,12.575,13.192,-10.661,3.5535,-0.3761,-14.214,7.9786e-09,-0.18805,0,0,0.14286,1.3534e-15,0,0.66667
0.41662,0.63669,2.9163,0.20504,10.96,131.22,-1.5946,0.53152,-1.8492,-2.1261,4.5552e-13,-0.92458,0,0,0.14286,-6.7671e-16,0,0.66667
0.50098,0.51115,3.5069,0.016729,0.8089,99.889,-0.15645,0.052149,-2.0003,-0.2086,-3.5529e-13,-1.0001,0,0,0.14286,-0,-0,0.66667
0.72962,0.98144,5.1074,0.72216,22.034,34.285,-9.8356,3.2785,-0.14449,-13.114,4.805e-13,-0.072243,0,0,0.14286,-0,-0,0.66667
0.25872,0.98466,1.8111,0.72699,44.292,196.98,-3.511,1.1703,-0.11897,-4.6813,7.0746e-12,-0.059486,0,0,0.14286,3.3835e-16,0,0.66667
0.92164,0.60261,6.4515,0.15392,1.4283,3.58,-2.648,0.88266,-1.9179,-3.5307,-1.1371e-08,-0.95897,0,0,0.14286,-0,-0,0.66667
0.70207,0.13128,4.9145,-0.55309,-18.177,40.185,7.2484,-2.4161,-0.91404,9.6645,5.711e-12,-0.45702,0,0,0.14286,-1.3534e-15,0,0.66667
0.61893,0.33593,4.3325,-0.2461,-9.7912,61.871,2.8433,-0.94776,-1.7834,3.7911,7.4718e-13,-0.89169,0,0,0.14286,6.7671e-16,0,0.66667
0.27301,0.9016,1.9111,0.60241,36.299,190.65,-3.07,1.0233,-0.70867,-4.0933,5.3193e-12,-0.35434,0,0,0.14286,1.6918e-16,0,0.66667
0.69585,0.70998,4.8709,0.31498,10.463,41.249,-4.0913,1.3638,-1.6457,-5.455,-7.6361e-12,-0.82285,0,0,0.14286,-0,-0,0.66667
0.25721,0.075316,1.8005,-0.63703,-38.762,197.54,3.0586,-1.0195,-0.55533,4.0781,5.5604e-12,-0.27766,0,0,0.14286,-0,-0,0.66667
0.81645,0.36453,5.7152,-0.2032,-4.3164,16.39,3.0969,-1.0323,-1.8524,4.1292,-6.1354e-10,-0.92622,0,0,0.14286,-0,-0,0.66667
0.011472,0.17335,0.080307,-0.48998,-31.844,309.45,0.10493,-0.034977,-1.1454,0.13991,2.2455e-07,-0.57268,0,0,0.14286,-2.1147e-17,0,0.66667
0.16654,0.077767,1.1658,-0.63335,-40.125,237.9,1.9689,-0.6563,-0.57226,2.6252,-1.0166e-10,-0.28613,0,0,0.14286,-0,-0,0.66667
0.55783,0.50684,3.9048,0.010264,0.45592,80.622,-0.10688,0.035625,-1.9989,-0.1425,-1.8148e-12,-0.99946,0,0,0.14286,2.7068e-15,0,0.66667
0.71228,0.77762,4.986,0.41642,13.235,37.466,-5.5367,1.8456,-1.3827,-7.3823,-7.621e-12,-0.69133,0,0,0.14286,-6.7671e-16,0,0.66667
0.49248,0.13862,3.4474,-0.54208,-26.675,103.35,4.9833,-1.6611,-0.95335,6.6444,1.0183e-12,-0.47667,0,0,0.14286,-0,-0,0.66667
0.87781,0.14713,6.1447,-0.52931,-7.7797,8.5269,8.6731,-2.891,-1.0039,11.564,-1.7815e-09,-0.50194,0,0,0.14286,-1.3534e-15,0,0.66667
0.97587,0.9162,6.8311,0.6243,1.8328,1.6867,-11.372,3.7908,-0.61257,-15.163,-4.7226e-06,-0.30628,0,0,0.14286,-0,-0,0.66667
0.46428,0.87242,3.2499,0.55863,28.485,113.58,-4.8413,1.6138,-0.89046,-6.4551,-3.5216e-13,-0.44523,0,0,0.14286,-1.6918e-16,0,0.66667
0.76799,0.93882,5.3759,0.65824,17.552,26.05,-9.4363,3.1454,-0.46095,-12.582,3.5252e-12,-0.23047,0,0,0.14286,-2.7068e-15,0,0.66667
0.49477,0.59227,3.4634,0.13841,6.7509,102.12,-1.2783,0.42609,-1.9318,-1.7044,-3.324e-13,-0.96591,0,0,0.14286,7.613e-16,0,0.66667
0.6651,0.07643,4.6557,-0.63535,-23.043,49.724,7.888,-2.6293,-0.5629,10.517,7.474e-13,-0.28145,0,0,0.14286,-0,-0,0.66667
0.22487,0.96408,1.5741,0.69613,43.124,211.81,-2.9221,0.97403,-0.27614,-3.8961,3.2255e-11,-0.13807,0,0,0.14286,-4.2294e-16,0,0.66667
0.10954,0.38954,0.76679,-0.16569,-10.603,263.83,0.33879,-0.11293,-1.9043,0.45173,5.4436e-09,-0.95216,0,0,0.14286,1.6918e-16,0,0.66667
0.97901,0.4721,6.8531,-0.041852,-0.089254,0.41362,0.76484,-0.25495,-1.9933,1.0198,-2.3527e-07,-0.99666,0,0,0.14286,-0,-0,0.66667
0.81499,0.78087,5.705,0.4213,9.0742,16.972,-6.4093,2.1364,-1.3705,-8.5457,4.1642e-10,-0.68525,0,0,0.14286,1.9032e-15,0,0.66667
0.28538,0.52687,1.9977,0.040305,2.3954,185,-0.21471,0.071571,-1.9941,-0.28628,3.3988e-12,-0.99705,0,0,0.14286,3.3835e-16,0,0.66667
0.58583,0.1774,4.1008,-0.48391,-20.6,72.153,5.2917,-1.7639,-1.1657,7.0557,4.2144e-13,-0.58286,0,0,0.14286,-6.7671e-16,0,0.66667
0.38007,0.46947,2.6605,-0.045794,-2.5331,145.59,0.32489,-0.1083,-1.9927,0.43319,-7.3275e-13,-0.99635,0,0,0.14286,-0,-0,0.66667
0.17634,0.25812,1.2344,-0.36282,-22.805,233.32,1.1943,-0.3981,-1.5312,1.5924,1.0869e-09,-0.76558,0,0,0.14286,-3.3835e-16,0,0.66667
0.41884,0.34825,2.9318,-0.22763,-12.142,130.37,1.7797,-0.59322,-1.8162,2.3729,4.6207e-13,-0.90811,0,0,0.14286,-0,-0,0.66667
0.29719,0.94853,2.0803,0.6728,39.997,180.36,-3.7324,1.2441,-0.39246,-4.9765,7.2986e-13,-0.19623,0,0,0.14286,-0,-0,0.66667
0.016624,0.2961,0.11637,-0.30586,-19.828,307.04,0.094913,-0.031638,-1.6685,0.12655,-4.3617e-10,-0.83426,0,0,0.14286,-2.1147e-17,0,0.66667
0.38737,0.78577,2.7116,0.42866,23.635,142.89,-3.0996,1.0332,-1.347,-4.1328,3.5438e-13,-0.6735,0,0,0.14286,-0,-0,0.66667
0.92091,0.56351,6.4464,0.09527,0.89091,3.5954,-1.6377,0.54591,-1.9704,-2.1836,3.6468e-08,-0.9852,0,0,0.14286,-2.7068e-15,0,0.66667
0.8282,0.44734,5.7974,-0.078991,-1.5753,14.445,1.2212,-0.40706,-1.9801,1.6282,-8.0779e-10,-0.99003,0,0,0.14286,-0,-0,0.66667
0.57407,0.62939,4.0185,0.19409,8.3959,75.478,-2.0799,0.69329,-1.866,-2.7732,-9.9232e-13,-0.93298,0,0,0.14286,1.3534e-15,0,0.66667
0.31865,0.24546,2.2305,-0.38181,-22.247,170.99,2.271,-0.75701,-1.4808,3.028,-4.1538e-12,-0.74041,0,0,0.14286,-1.6918e-16,0,0.66667
0.23126,0.69081,1.6189,0.28621,17.556,208.69,-1.2356,0.41185,-1.7093,-1.6474,-6.8593e-11,-0.85467,0,0,0.14286,-6.7671e-16,0,0.66667
0.95602,0.77061,6.6921,0.40591,2.114,1.7978,-7.2438,2.4146,-1.414,-9.6584,-5.0956e-08,-0.70701,0,0,0.14286,-1.3534e-15,0,0.66667
0.56461,0.36265,3.9523,-0.20602,-9.0582,78.504,2.1714,-0.72379,-1.8494,2.8952,1.1546e-14,-0.92469,0,0,0.14286,-0,-0,0.66667
0.21761,0.47162,1.5232,-0.042574,-2.6251,214.7,0.17294,-0.057645,-1.9957,0.23058,8.4863e-11,-0.99785,0,0,0.14286,-0,-0,0.66667
0.24948,0.63019,1.7464,0.19528,11.858,200.63,-0.90941,0.30314,-1.8668,-1.2126,-8.3815e-12,-0.93338,0,0,0.14286,-6.7671e-16,0,0.66667
0.9596,0.90128,6.7172,0.60192,2.9886,2.2188,-10.782,3.5939,-0.71082,-14.376,1.8192e-06,-0.35541,0,0,0.14286,1.3534e-15,0,0.66667
0.23881,0.26484,1.6717,-0.35274,-21.571,205.39,1.5725,-0.52416,-1.5564,2.0967,3.6596e-11,-0.77822,0,0,0.14286,-0,-0,0.66667
0.10671,0.92568,0.747,0.63852,41.139,265.26,-1.2719,0.42398,-0.55029,-1.6959,9.997e-08,-0.27515,0,0,0.14286,-1.2637e-16,1.8333e-16,0.66667
0.18396,0.70113,1.2877,0.3017,18.896,229.85,-1.036,0.34534,-1.6757,-1.3814,-7.6275e-10,-0.83785,0,0,0.14286,-0,-0,0.66667
0.76622,0.043036,5.3636,-0.68545,-18.425,26.484,9.8038,-3.2679,-0.33107,13.072,1.0402e-11,-0.16554,0,0,0.14286,-0,-0,0.66667
0.70876,0.83208,4.9613,0.49812,16.033,38.46,-6.5903,2.1968,-1.1163,-8.787,-6.1249e-12,-0.55815,0,0,0.14286,6.7671e-16,0,0.66667
0.43794,0.41619,3.0656,-0.12571,-6.5666,123,1.0277,-0.34256,-1.9457,1.3702,-3.3751e-14,-0.97284,0,0,0.14286,-0,-0,0.66667
0.7938,0.15426,5.5566,-0.5186,-12.374,20.817,7.6845,-2.5615,-1.0446,10.246,-1.5359e-10,-0.5223,0,0,0.14286,-3.3835e-16,0,0.66667
0.51751,0.33621,3.6226,-0.24569,-11.625,94.224,2.3734,-0.79115,-1.7862,3.1646,-2.8444e-13,-0.89311,0,0,0.14286,-0,-0,0.66667
0.4136,0.82155,2.8952,0.48233,25.956,132.64,-3.7238,1.2413,-1.1713,-4.9651,1.2323e-12,-0.58563,0,0,0.14286,-0,-0,0.66667
0.11744,0.69551,0.82209,0.29327,18.751,260.21,-0.64292,0.21431,-1.6927,-0.85723,-7.8967e-09,-0.84635,0,0,0.14286,-0,-0,0.66667
0.88391,0.27061,6.1874,-0.34409,-4.758,7.4016,5.6773,-1.8924,-1.5774,7.5698,-9.7738e-09,-0.78869,0,0,0.14286,1.3534e-15,0,0.66667
0.27559,0.84032,1.9292,0.51048,30.658,189.45,-2.6261,0.87537,-1.0729,-3.5015,1.5945e-11,-0.53645,0,0,0.14286,8.4588e-17,0,0.66667
0.61626,0.071645,4.3138,-0.64253,-25.936,63.328,7.3914,-2.4638,-0.53055,9.8552,-1.1013e-13,-0.26527,0,0,0.14286,-0,-0,0.66667
0.98458,0.4275,6.8921,-0.10875,-0.15533,0.29733,1.9988,-0.66626,-1.9601,2.665,-4.3161e-07,-0.98003,0,0,0.14286,-0,-0,0.66667
0.18942,0.54934,1.3259,0.074005,4.6187,227.34,-0.26167,0.087222,-1.9809,-0.34889,-2.012e-10,-0.99047,0,0,0.14286,3.3835e-16,0,0.66667
0.96519,0.74377,6.7563,0.36566,1.4717,1.2945,-6.588,2.196,-1.5245,-8.784,-1.2876e-07,-0.76225,0,0,0.14286,-1.3534e-15,0,0.66667
0.65272,0.27386,4.569,-0.33921,-12.563,52.45,4.1329,-1.3776,-1.5907,5.5106,3.0642e-12,-0.79533,0,0,0.14286,6.7671e-16,0,0.66667
0.12873,0.62091,0.90112,0.18136,11.553,254.99,-0.43582,0.14527,-1.8832,-0.58109,-4.2209e-09,-0.94158,0,0,0.14286,-2.5377e-16,0,0.66667
0.77193,0.10576,5.4035,-0.59136,-15.483,25.082,8.5211,-2.8404,-0.75494,11.361,-2.8791e-11,-0.37747,0,0,0.14286,-0,-0,0.66667
0.95178,0.8465,6.6624,0.51975,3.0385,2.3246,-9.2341,3.078,-1.0415,-12.312,1.2294e-07,-0.52075,0,0,0.14286,-0,-0,0.66667
0.56278,0.8287,3.9395,0.49305,21.847,79.444,-5.1796,1.7265,-1.1375,-6.9061,1.5543e-13,-0.56874,0,0,0.14286,-0,-0,0.66667
0.68856,0.084959,4.8199,-0.62256,-21.277,43.674,8.0018,-2.6673,-0.62334,10.669,2.2249e-12,-0.31167,0,0,0.14286,-6.7671e-16,0,0.66667
0.026348,0.2432,0.18444,-0.3852,-24.984,302.51,0.18945,-0.063151,-1.4716,0.2526,-2.3905e-07,-0.73581,0,0,0.14286,2.1147e-17,0,0.66667
0.98908,0.41068,6.9235,-0.13399,-0.11455,0.21793,2.4737,-0.82458,-1.9358,3.2983,2.2487e-08,-0.96789,0,0,0.14286,-2.7068e-15,0,0.66667
0.31846,0.66236,2.2292,0.24353,14.17,170.99,-1.4477,0.48256,-1.7881,-1.9303,6.4968e-12,-0.89404,0,0,0.14286,-0,-0,0.66667
0.023904,0.55138,0.16733,0.077066,4.9876,303.64,-0.034387,0.011462,-1.9771,-0.04585,-2.994e-07,-0.98857,0,0,0.14286,2.1147e-17,0,0.66667
0.80856,0.51856,5.6599,0.027847,0.61369,17.591,-0.42031,0.1401,-1.9964,-0.56041,1.0446e-10,-0.99819,0,0,0.14286,-2.7068e-15,0,0.66667
0.97325,0.66548,6.8128,0.24822,0.72697,0.77604,-4.5095,1.5032,-1.78,-6.0126,-4.0249e-08,-0.89002,0,0,0.14286,2.7068e-15,0,0.66667
0.73759,0.58605,5.1631,0.12907,3.772,31.378,-1.7771,0.59237,-1.9407,-2.3695,-1.1718e-12,-0.97034,0,0,0.14286,-0,-0,0.66667
0.0027358,0.94114,0.019151,0.66171,43.146,313.53,-0.033796,0.01127,-0.44396,-0.045059,6.3966e-06,-0.22198,0,0,0.14286,-0,8.0685e-16,0.66667
0.063361,0.84953,0.44352,0.5243,33.96,285.29,-0.6201,0.2067,-1.0246,-0.8268,-6.1224e-08,-0.51228,0,0,0.14286,-0,-0,0.66667
0.58427,0.26975,4.0899,-0.34538,-14.703,72.428,3.7668,-1.2556,-1.5743,5.0224,3.6215e-13,-0.78714,0,0,0.14286,-0,-0,0.66667
0.33572,0.56652,2.35,0.099784,5.7273,163.72,-0.62532,0.20844,-1.9636,-0.83375,3.8231e-12,-0.98182,0,0,0.14286,-0,-0,0.66667
0.88183,0.85003,6.1728,0.52504,7.4717,8.0624,-8.6427,2.8809,-1.0186,-11.524,1.3943e-09,-0.50931,0,0,0.14286,-0,-0,0.66667
0.87367,0.84528,6.1157,0.51792,7.8513,8.9733,-8.4465,2.8155,-1.0485,-11.262,1.4702e-09,-0.52425,0,0,0.14286,2.7068e-15,0,0.66667
0.98752,0.56755,6.9126,0.10132,0.10618,0.22623,-1.8677,0.62258,-1.9638,-2.4903,8.979e-07,-0.9819,0,0,0.14286,-0,-0,0.66667
0.71583,0.72078,5.0108,0.33118,10.394,36.494,-4.4253,1.4751,-1.611,-5.9003,-8.7228e-12,-0.8055,0,0,0.14286,-2.7068e-15,0,0.66667
0.87688,0.53042,6.1382,0.045626,0.66229,7.8741,-0.74683,0.24894,-1.9945,-0.99577,1.3333e-08,-0.99726,0,0,0.14286,1.6918e-16,0,0.66667
0.31965,0.95201,2.2376,0.67802,39.699,170.89,-4.0456,1.3485,-0.36363,-5.3941,3.5949e-12,-0.18182,0,0,0.14286,6.7671e-16,0,0.66667
0.11118,0.94499,0.77824,0.66749,42.989,263.22,-1.3852,0.46175,-0.41676,-1.847,5.1802e-08,-0.20838,0,0,0.14286,-0,-0,0.66667
0.86536,0.52211,6.0575,0.033162,0.52483,9.256,-0.53569,0.17856,-1.9947,-0.71425,-2.9926e-10,-0.99735,0,0,0.14286,-0,-0,0.66667
0.30347,0.93564,2.1243,0.65346,38.669,177.67,-3.7017,1.2339,-0.48127,-4.9356,4.0008e-12,-0.24064,0,0,0.14286,3.3835e-16,0,0.66667
0.41933,0.99204,2.9353,0.73806,39.727,130.82,-5.7772,1.9257,-0.0635,-7.7029,-1.9429e-12,-0.03175,0,0,0.14286,1.0151e-15,1.2847e-16,0.66667
0.64603,0.073512,4.5222,-0.63973,-24.25,54.873,7.7147,-2.5716,-0.54349,10.286,2.7445e-13,-0.27175,0,0,0.14286,1.3534e-15,0,0.66667
0.6051,0.14723,4.2357,-0.52916,-21.758,66.375,5.9769,-1.9923,-1.0036,7.9693,1.0201e-12,-0.50182,0,0,0.14286,-0,-0,0.66667
0.42092,0.13332,2.9465,-0.55001,-29.419,129.89,4.3216,-1.4405,-0.92594,5.7621,1.5326e-12,-0.46297,0,0,0.14286,-0,-0,0.66667
0.38615,0.62572,2.7031,0.18858,10.381,143.2,-1.3593,0.45312,-1.8739,-1.8125,1.906e-12,-0.93697,0,0,0.14286,-1.3534e-15,0,0.66667
0.12268,0.35356,0.85877,-0.21966,-14.018,257.78,0.50304,-0.16768,-1.8287,0.67071,6.1051e-09,-0.91437,0,0,0.14286,-0,-0,0.66667
0.53386,0.87758,3.737,0.56637,26.315,89.086,-5.6441,1.8814,-0.86054,-7.5254,-8.2911e-13,-0.43027,0,0,0.14286,-0,-0,0.66667
0.23285,0.67426,1.63,0.26138,16.017,207.98,-1.1361,0.37871,-1.7578,-1.5149,-5.7758e-11,-0.8789,0,0,0.14286,-0,-0,0.66667
0.75481,0.99197,5.2837,0.73796,20.731,28.958,-10.398,3.4659,-0.062786,-13.864,3.0191e-11,-0.031393,0,0,0.14286,-1.3534e-15,0,0.66667
0.67487,0.33042,4.7241,-0.25437,-8.9184,46.465,3.2044,-1.0681,-1.7696,4.2726,4.7238e-12,-0.8848,0,0,0.14286,-0,-0,0.66667
0.071927,0.85321,0.50349,0.52982,34.281,281.32,-0.71136,0.23712,-1.0005,-0.94848,-7.3136e-08,-0.50023,0,0,0.14286,-1.6918e-16,0,0.66667
0.98926,0.6389,6.9249,0.20835,0.17853,0.29255,-3.8474,1.2825,-1.8443,-5.1299,6.3779e-08,-0.92217,0,0,0.14286,-0,-0,0.66667
0.78046,0.28548,5.4632,-0.32179,-8.0646,22.858,4.688,-1.5627,-1.6341,6.2506,-1.3632e-10,-0.81703,0,0,0.14286,-0,-0,0.66667
0.22783,0.58834,1.5948,0.13252,8.1335,210.17,-0.56356,0.18785,-1.9365,-0.75142,-4.4775e-11,-0.96825,0,0,0.14286,-0,-0,0.66667
0.030743,0.30867,0.2152,-0.287,-18.59,300.45,0.1647,-0.054899,-1.7097,0.2196,-8.0526e-08,-0.85485,0,0,0.14286,-1.0574e-17,0,0.66667
0.47837,0.3079,3.3486,-0.28816,-14.375,108.1,2.5731,-0.85771,-1.7039,3.4308,2.3825e-13,-0.85197,0,0,0.14286,8.4588e-16,0,0.66667
0.35274,0.37965,2.4692,-0.18053,-10.228,156.71,1.1887,-0.39623,-1.8832,1.5849,9.579e-13,-0.94158,0,0,0.14286,-0,-0,0.66667
0.54651,0.75877,3.8256,0.38815,17.619,84.588,-3.9597,1.3199,-1.4664,-5.2796,-6.6036e-13,-0.73319,0,0,0.14286,1.3534e-15,0,0.66667
0.65966,0.95569,4.6176,0.68353,25.157,51.297,-8.4168,2.8056,-0.3382,-11.222,5.3646e-13,-0.1691,0,0,0.14286,-6.7671e-16,0,0.66667
0.79722,0.53956,5.5805,0.059346,1.3786,19.554,-0.88315,0.29438,-1.9896,-1.1775,6.8017e-11,-0.9948,0,0,0.14286,-0,-0,0.66667
0.013544,0.95853,0.09481,0.68779,44.863,308.5,-0.17389,0.057946,-0.31846,-0.23186,-2.4826e-05,-0.15923,0,0,0.14286,1.0574e-17,0,0.66667
0.7143,0.74003,5.0001,0.36004,11.359,36.897,-4.8006,1.6002,-1.5382,-6.4008,-9.4773e-12,-0.76908,0,0,0.14286,-0,-0,0.66667
0.29531,0.23865,2.0672,-0.39202,-23.212,180.89,2.161,-0.72034,-1.4544,2.8814,-5.5689e-12,-0.72718,0,0,0.14286,3.3835e-16,0,0.66667
0.9864,0.49396,6.9048,-0.009055,-0.010692,0.21924,0.16673,-0.055585,-2.0006,0.2223,-1.2877e-05,-1.0003,0,0,0.14286,6.7671e-16,0,0.66667
0.84624,0.47034,5.9237,-0.044487,-0.79922,11.788,0.70274,-0.23425,-1.9943,0.93699,-2.6655e-09,-0.99715,0,0,0.14286,2.7068e-15,0,0.66667
0.5604,0.53674,3.9228,0.055103,2.4375,79.793,-0.57642,0.19214,-1.9902,-0.76856,-1.3675e-12,-0.99508,0,0,0.14286,1.3534e-15,0,0.66667
0.59777,0.074711,4.1844,-0.63793,-26.683,68.818,7.1182,-2.3727,-0.55216,9.491,5.7998e-13,-0.27608,0,0,0.14286,-0,-0,0.66667
0.19208,0.76766,1.3445,0.4015,25.096,226.23,-1.4395,0.47984,-1.4257,-1.9194,-5.0154e-10,-0.71283,0,0,0.14286,-0,-0,0.66667
0.22625,0.24048,1.5838,-0.38927,-23.965,210.96,1.644,-0.54802,-1.4596,2.1921,7.7525e-11,-0.72979,0,0,0.14286,-3.3835e-16,0,0.66667
0.15401,0.19809,1.0781,-0.45286,-28.717,243.5,1.3019,-0.43398,-1.2711,1.7359,2.7225e-09,-0.63557,0,0,0.14286,3.3835e-16,0,0.66667
0.37781,0.86326,2.6447,0.54489,30.368,146.84,-3.8429,1.281,-0.94417,-5.1238,4.3299e-13,-0.47209,0,0,0.14286,-3.3835e-16,0,0.66667
0.11196,0.70221,0.78369,0.30331,19.42,262.74,-0.63387,0.21129,-1.6728,-0.84516,-9.7622e-09,-0.8364,0,0,0.14286,-0,-0,0.66667
0.51127,0.8317,3.5789,0.49755,23.847,96.681,-4.7485,1.5828,-1.1188,-6.3313,2.8022e-13,-0.55939,0,0,0.14286,-0,-0,0.66667
0.63848,0.68781,4.4693,0.28172,10.761,56.312,-3.3576,1.1192,-1.7197,-4.4768,6.5725e-14,-0.85983,0,0,0.14286,-2.7068e-15,0,0.66667
0.12221,0.059733,0.85549,-0.6604,-42.415,258.15,1.5066,-0.50219,-0.45022,2.0088,9.6191e-08,-0.22511,0,0,0.14286,4.2294e-17,0,0.66667
0.3442,0.67316,2.4094,0.25974,14.826,160.27,-1.6689,0.55628,-1.7618,-2.2251,3.7401e-12,-0.88089,0,0,0.14286,-0,-0,0.66667
0.070348,0.47901,0.49244,-0.031482,-2.0283,281.99,0.041342,-0.01378,-1.9948,0.055122,3.1313e-08,-0.99739,0,0,0.14286,-0,-0,0.66667
0.52576,0.68992,3.6803,0.28488,13.325,91.432,-2.7959,0.93196,-1.7111,-3.7278,6.3682e-13,-0.85556,0,0,0.14286,-0,-0,0.66667
0.65029,0.34471,4.552,-0.23294,-8.6603,52.988,2.8276,-0.94253,-1.8069,3.7701,2.2458e-12,-0.90345,0,0,0.14286,-0,-0,0.66667
0.61547,0.05929,4.3083,-0.66107,-26.743,63.604,7.5949,-2.5316,-0.44557,10.126,3.3751e-13,-0.22278,0,0,0.14286,-3.3835e-16,0,0.66667
0.81387,0.55144,5.6971,0.077167,1.6576,16.722,-1.1723,0.39078,-1.9798,-1.5631,1.836e-10,-0.98989,0,0,0.14286,1.3534e-15,0,0.66667
0.23557,0.0050586,1.649,-0.74241,-45.804,207.13,3.2646,-1.0882,-0.042011,4.3527,-2.5443e-11,-0.021006,0,0,0.14286,-0,-0,0.66667
0.61818,0.93901,4.3273,0.65851,26.493,62.807,-7.5988,2.5329,-0.45776,-10.132,-6.6258e-13,-0.22888,0,0,0.14286,-0,-0,0.66667
0.30283,0.13792,2.1198,-0.54312,-32.079,177.82,3.0701,-1.0234,-0.94957,4.0935,-2.4125e-12,-0.47478,0,0,0.14286,-6.7671e-16,0,0.66667
0.088768,0.53462,0.62137,0.051934,3.3361,273.44,-0.086054,0.028685,-1.9901,-0.11474,-6.8215e-08,-0.99504,0,0,0.14286,-0,-0,0.66667
0.30526,0.22629,2.1368,-0.41057,-24.156,176.67,2.3395,-0.77984,-1.3992,3.1193,-5.2447e-12,-0.69962,0,0,0.14286,-0,-0,0.66667
0.071356,0.71687,0.4995,0.3253,20.991,281.54,-0.43329,0.14443,-1.6232,-0.57773,-1.2019e-08,-0.81162,0,0,0.14286,-8.4599e-17,0,0.66667
0.95857,0.85906,6.71,0.53859,2.7028,2.0498,-9.6371,3.2124,-0.96709,-12.85,2.6132e-07,-0.48355,0,0,0.14286,-0,-0,0.66667
0.72717,0.20937,5.0902,-0.43594,-13.253,34.083,5.9173,-1.9724,-1.3227,7.8898,9.5119e-12,-0.66134,0,0,0.14286,-6.7671e-16,0,0.66667
0.10146,0.13603,0.71023,-0.54595,-35.152,267.65,1.034,-0.34466,-0.93848,1.3787,-3.6589e-10,-0.46924,0,0,0.14286,1.6918e-16,0,0.66667
0.78627,0.78415,5.5039,0.42623,10.463,21.967,-6.2558,2.0853,-1.3538,-8.3411,8.8646e-11,-0.6769,0,0,0.14286,-0,-0,0.66667
0.35216,0.82593,2.4651,0.4889,27.816,157.18,-3.2138,1.0713,-1.1483,-4.2851,1.4977e-12,-0.57415,0,0,0.14286,6.7671e-16,0,0.66667
0.91144,0.56666,6.38,0.09999,1.0486,4.3879,-1.7012,0.56706,-1.9639,-2.2682,-3.7939e-08,-0.98196,0,0,0.14286,-0,-0,0.66667
0.4955,0.889,3.4685,0.58349,28.628,102.35,-5.3969,1.799,-0.78829,-7.1959,-1.168e-13,-0.39415,0,0,0.14286,-0,-0,0.66667
0.87269,0.78984,6.1088,0.43476,6.6034,8.8732,-7.0823,2.3608,-1.3284,-9.4431,6.1296e-09,-0.66419,0,0,0.14286,-0,-0,0.66667
0.22053,0.91023,1.5437,0.61535,38.13,213.66,-2.5331,0.84437,-0.65511,-3.3775,8.2246e-11,-0.32755,0,0,0.14286,6.7671e-16,0,0.66667
0.36719,0.030129,2.5703,-0.70481,-39.791,151.35,4.8309,-1.6103,-0.23334,6.4412,4.956e-13,-0.11667,0,0,0.14286,-4.2294e-16,0,0.66667
0.36684,0.64267,2.5679,0.214,11.985,150.98,-1.4654,0.48847,-1.8353,-1.9539,2.5711e-12,-0.91765,0,0,0.14286,-0,-0,0.66667
0.097133,0.2981,0.67993,-0.30285,-19.452,269.59,0.54911,-0.18304,-1.6733,0.73214,1.3399e-08,-0.83664,0,0,0.14286,-1.6918e-16,0,0.66667
0.33101,0.16031,2.3171,-0.50953,-29.482,165.94,3.1484,-1.0495,-1.0775,4.1978,-1.1995e-12,-0.53876,0,0,0.14286,-0,-0,0.66667
0.65971,0.87449,4.618,0.56174,20.584,50.973,-6.9176,2.3059,-0.87897,-9.2235,-5.0093e-13,-0.43949,0,0,0.14286,-1.9878e-15,0,0.66667
0.46654,0.36704,3.2658,-0.19944,-10.086,112.35,1.7369,-0.57897,-1.8591,2.3159,-2.2338e-13,-0.92957,0,0,0.14286,-3.3835e-16,0,0.66667
0.87923,0.12808,6.1546,-0.55787,-8.1265,8.4506,9.156,-3.052,-0.89347,12.208,-2.1506e-08,-0.44673,0,0,0.14286,-0,-0,0.66667
0.26967,0.82695,1.8877,0.49043,29.547,191.99,-2.4687,0.82291,-1.1439,-3.2917,1.0728e-11,-0.57193,0,0,0.14286,-0,-0,0.66667
0.35482,0.63572,2.4837,0.20358,11.516,155.87,-1.3484,0.44946,-1.8516,-1.7978,1.9541e-12,-0.9258,0,0,0.14286,-0,-0,0.66667
0.32035,0.41546,2.2425,-0.12681,-7.3627,170.15,0.75831,-0.25277,-1.9412,1.0111,-2.3088e-12,-0.97061,0,0,0.14286,-0,-0,0.66667
0.55174,0.82339,3.8622,0.48509,21.88,83.014,-4.9959,1.6653,-1.1622,-6.6613,2.891e-13,-0.58109,0,0,0.14286,-0,-0,0.66667
0.18822,0.16183,1.3175,-0.50726,-31.806,228.03,1.7822,-0.59407,-1.0872,2.3763,1.2401e-10,-0.5436,0,0,0.14286,-0,-0,0.66667
0.17324,0.74696,1.2127,0.37045,23.313,234.72,-1.198,0.39933,-1.514,-1.5973,-1.171e-09,-0.757,0,0,0.14286,2.1147e-16,0,0.66667
0.93948,0.53816,6.5764,0.057246,0.40578,2.2508,-1.0039,0.33464,-1.9892,-1.3386,2.2515e-07,-0.9946,0,0,0.14286,-0,-0,0.66667
0.37665,0.70871,2.6365,0.31306,17.401,147.08,-2.2011,0.73369,-1.6523,-2.9348,1.5643e-12,-0.82616,0,0,0.14286,3.3835e-16,0,0.66667
0.5871,0.90861,4.1097,0.61292,26.123,72.019,-6.717,2.239,-0.66372,-8.9561,-3.4639e-14,-0.33186,0,0,0.14286,1.3534e-15,0,0.66667
0.055152,0.95702,0.38606,0.68553,44.586,289.14,-0.70576,0.23526,-0.32726,-0.94101,3.7065e-06,-0.16363,0,0,0.14286,8.4588e-17,0,0.66667
0.14086,0.28325,0.98601,-0.32512,-20.666,249.46,0.85486,-0.28495,-1.6273,1.1398,4.364e-09,-0.81366,0,0,0.14286,-3.3835e-16,0,0.66667
0.096359,0.44133,0.67451,-0.088012,-5.6461,269.92,0.15831,-0.052769,-1.9733,0.21108,-5.1821e-09,-0.98665,0,0,0.14286,3.3835e-16,0,0.66667
0.81212,0.68719,5.6848,0.28078,6.1049,17.195,-4.2565,1.4188,-1.723,-5.6754,6.5972e-10,-0.86151,0,0,0.14286,1.7975e-15,0,0.66667
0.10315,0.74702,0.72203,0.37053,23.787,266.82,-0.71341,0.2378,-1.5112,-0.95122,-1.4169e-08,-0.75562,0,0,0.14286,-0,-0,0.66667
0.51632,0.57336,3.6142,0.11004,5.2098,94.559,-1.0605,0.35351,-1.9585,-1.414,6.295e-13,-0.97926,0,0,0.14286,-1.3534e-15,0,0.66667
0.15558,0.22373,1.089,-0.41441,-26.251,242.77,1.2035,-0.40116,-1.3916,1.6047,1.9436e-09,-0.69581,0,0,0.14286,-0,-0,0.66667
0.27882,0.89741,1.9517,0.59612,35.791,188.14,-3.1025,1.0342,-0.73682,-4.1367,4.0952e-12,-0.36841,0,0,0.14286,-0,-0,0.66667
0.8826,0.3607,6.1782,-0.20895,-2.9048,7.3405,3.4426,-1.1475,-1.8429,4.5901,-5.0252e-09,-0.92144,0,0,0.14286,1.3534e-15,0,0.66667
0.63159,0.41182,4.4212,-0.13227,-5.1195,58.136,1.5594,-0.5198,-1.9367,2.0792,9.0616e-13,-0.96835,0,0,0.14286,-0,-0,0.66667
0.96366,0.48145,6.7456,-0.02782,-0.11349,0.95923,0.50044,-0.16681,-1.9959,0.66725,-2.6819e-07,-0.99795,0,0,0.14286,2.7068e-15,0,0.66667
0.59971,0.20392,4.198,-0.44412,-18.412,67.838,4.9718,-1.6573,-1.297,6.6291,4.4853e-14,-0.64851,0,0,0.14286,-0,-0,0.66667
0.0095197,0.90442,0.066638,0.60663,39.507,310.37,-0.1078,0.035929,-0.69118,-0.14373,-4.6383e-06,-0.34559,0,0,0.14286,-9.1644e-18,0,0.66667
0.41564,0.27589,2.9095,-0.33617,-18.012,131.69,2.6082,-0.86941,-1.5972,3.4776,3.7748e-14,-0.79859,0,0,0.14286,1.6918e-16,0,0.66667
0.022442,0.69757,0.15709,0.29636,19.206,304.33,-0.12415,0.041383,-1.6861,-0.16553,7.102e-08,-0.84305,0,0,0.14286,-0,-0,0.66667
0.31398,0.27115,2.1979,-0.34327,-20.058,172.93,2.0119,-0.67064,-1.582,2.6826,-4.7082e-12,-0.79098,0,0,0.14286,3.3835e-16,0,0.66667
0.48162,0.09111,3.3714,-0.61333,-30.658,107.36,5.5141,-1.838,-0.66343,7.3521,6.1284e-13,-0.33172,0,0,0.14286,3.3835e-16,1.9414e-16,0.66667
0.57546,0.42752,4.0282,-0.10873,-4.689,74.994,1.1679,-0.38931,-1.958,1.5572,-7.6383e-14,-0.97901,0,0,0.14286,6.7671e-16,0,0.66667
0.23865,0.34422,1.6706,-0.23366,-14.274,205.41,1.0409,-0.34698,-1.8064,1.3879,4.4296e-11,-0.9032,0,0,0.14286,-0,-0,0.66667
0.55829,0.65889,3.908,0.23833,10.593,80.571,-2.4837,0.82792,-1.7982,-3.3117,-5.3979e-13,-0.89908,0,0,0.14286,-0,-0,0.66667
0.39492,0.11675,2.7644,-0.57488,-31.563,140.07,4.2379,-1.4126,-0.82422,5.6506,3.3706e-12,-0.41211,0,0,0.14286,-6.7671e-16,0,0.66667
0.50658,0.6597,3.5461,0.23955,11.509,98.013,-2.2652,0.75508,-1.7952,-3.0203,1.5987e-14,-0.8976,0,0,0.14286,-0,-0,0.66667
0.19597,0.40206,1.3718,-0.14691,-9.1468,224.4,0.53739,-0.17913,-1.9223,0.71652,2.3263e-10,-0.96116,0,0,0.14286,-2.2232e-16,0,0.66667
0.15675,0.35344,1.0973,-0.21984,-13.893,242.17,0.64325,-0.21442,-1.83,0.85767,2.2475e-09,-0.915,0,0,0.14286,-0,-0,0.66667
0.75452,0.037676,5.2816,-0.69349,-19.456,28.868,9.7673,-3.2558,-0.28946,13.023,-8.7912e-12,-0.14473,0,0,0.14286,-0,-0,0.66667
0.32997,0.30211,2.3098,-0.29684,-17.136,166.19,1.8284,-0.60947,-1.6873,2.4379,-1.8805e-12,-0.84366,0,0,0.14286,-3.3835e-16,0,0.66667
0.6442,0.52222,4.5094,0.03333,1.2545,54.561,-0.4008,0.1336,-1.9956,-0.53439,-1.2212e-14,-0.99782,0,0,0.14286,-0,-0,0.66667
0.56546,0.57795,3.9582,0.11692,5.1299,78.182,-1.2341,0.41138,-1.951,-1.6455,-2.468e-13,-0.97552,0,0,0.14286,-0,-0,0.66667
0.89953,0.93405,6.2967,0.65108,8.0244,6.6444,-10.932,3.6441,-0.492,-14.577,-1.4081e-07,-0.246,0,0,0.14286,1.6197e-15,0,0.66667
0.88068,0.73,6.1648,0.34499,4.8991,7.7611,-5.6715,1.8905,-1.5753,-7.562,8.8835e-09,-0.78767,0,0,0.14286,-0,-0,0.66667
0.44311,0.61645,3.1018,0.17468,9.075,121.07,-1.4448,0.4816,-1.8903,-1.9264,1.0055e-12,-0.94514,0,0,0.14286,-3.3835e-16,0,0.66667
0.20474,0.85457,1.4331,0.53186,33.137,220.63,-2.0326,0.67754,-0.995,-2.7102,-1.7366e-10,-0.4975,0,0,0.14286,-0,-0,0.66667
0.63219,0.11451,4.4253,-0.57823,-22.542,58.589,6.8236,-2.2745,-0.80952,9.0982,1.0933e-12,-0.40476,0,0,0.14286,-6.7671e-16,0,0.66667
0.63684,0.6087,4.4579,0.16304,6.2415,56.669,-1.9382,0.64607,-1.9046,-2.5843,-1.3093e-12,-0.95232,0,0,0.14286,1.3534e-15,0,0.66667
0.69242,0.17986,4.8469,-0.4802,-16.166,42.378,6.2067,-2.0689,-1.1792,8.2756,5.1776e-12,-0.5896,0,0,0.14286,-0,-0,0.66667
0.90747,0.84591,6.3523,0.51887,5.8251,5.4722,-8.7893,2.9298,-1.045,-11.719,-4.3346e-09,-0.52249,0,0,0.14286,-0,-0,0.66667
0.78258,0.79663,5.4781,0.44494,11.098,22.69,-6.4998,2.1666,-1.2969,-8.6664,1.111e-10,-0.64847,0,0,0.14286,-0,-0,0.66667
0.62529,0.025064,4.377,-0.7124,-28.305,60.895,8.3152,-2.7717,-0.19791,11.087,2.1227e-13,-0.098954,0,0,0.14286,6.7671e-16,0,0.66667
0.60097,0.25755,4.2068,-0.36368,-15.017,67.339,4.0798,-1.3599,-1.5283,5.4397,4.6674e-13,-0.76416,0,0,0.14286,-0,-0,0.66667
0.21276,0.05614,1.4893,-0.66579,-41.447,217.16,2.6442,-0.8814,-0.42282,3.5256,1.1196e-10,-0.21141,0,0,0.14286,1.2598e-16,0,0.66667
0.65137,0.27906,4.5596,-0.33141,-12.31,52.807,4.0296,-1.3432,-1.6094,5.3728,3.868e-12,-0.8047,0,0,0.14286,-5.0753e-16,0,0.66667
0.8145,0.42002,5.7015,-0.11997,-2.5699,16.64,1.824,-0.60799,-1.9492,2.4319,-4.7442e-10,-0.97458,0,0,0.14286,-0,-0,0.66667
0.92232,0.14444,6.4563,-0.53334,-5.0492,4.2745,9.1823,-3.0608,-0.99038,12.243,-4.9934e-08,-0.49519,0,0,0.14286,1.3534e-15,0,0.66667
0.91665,0.8757,6.4166,0.56355,5.7387,4.8212,-9.6428,3.2143,-0.8709,-12.857,4.7738e-08,-0.43545,0,0,0.14286,-0,-0,0.66667
0.5611,0.10312,3.9277,-0.59532,-26.521,80.18,6.2353,-2.0784,-0.74095,8.3137,-1.4033e-13,-0.37048,0,0,0.14286,-0,1.5728e-16,0.66667
0.25983,0.23635,1.8188,-0.39548,-23.927,196.2,1.9181,-0.63938,-1.4423,2.5575,1.0579e-12,-0.72115,0,0,0.14286,-3.3835e-16,0,0.66667
0.3338,0.068058,2.3366,-0.64791,-37.518,164.94,4.0371,-1.3457,-0.50652,5.3828,3.4905e-12,-0.25326,0,0,0.14286,-6.7671e-16,0,0.66667
0.99776,0.75501,6.9843,0.38251,-0.053389,0.47869,-7.1242,2.3747,-1.4807,-9.499,3.7304e-07,-0.74034,0,0,0.14286,-2.7068e-15,0,0.66667
0.5256,0.8604,3.6792,0.5406,25.411,91.832,-5.3039,1.768,-0.95931,-7.0719,-1.6787e-13,-0.47966,0,0,0.14286,6.7671e-16,0,0.66667
0.81591,0.42173,5.7113,-0.11741,-2.4974,16.409,1.7881,-0.59604,-1.9504,2.3842,-4.3949e-10,-0.97518,0,0,0.14286,-0,-0,0.66667
0.59702,0.8014,4.1791,0.4521,18.841,68.668,-5.0383,1.6794,-1.2729,-6.7177,-1.7186e-13,-0.63644,0,0,0.14286,6.7671e-16,0,0.66667
0.50693,0.080306,3.5485,-0.62954,-30.452,98.426,5.9572,-1.9857,-0.58904,7.9429,4.7873e-13,-0.29452,0,0,0.14286,-0,-0,0.66667
0.34854,0.985,2.4398,0.7275,41.731,158.98,-4.7332,1.5777,-0.11688,-6.3109,-5.0582e-13,-0.058439,0,0,0.14286,-6.7671e-16,0,0.66667
0.53777,0.72092,3.7644,0.33139,15.234,87.424,-3.3266,1.1089,-1.609,-4.4355,-8.8374e-14,-0.80451,0,0,0.14286,1.3534e-15,0,0.66667
0.0067347,0.70592,0.047143,0.30887,20.029,311.66,-0.03883,0.012943,-1.659,-0.051773,-1.5056e-07,-0.82951,0,0,0.14286,1.0574e-17,0,0.66667
0.87669,0.31612,6.1368,-0.27582,-4.0311,8.0988,4.5137,-1.5046,-1.7311,6.0182,-6.6043e-09,-0.86554,0,0,0.14286,-2.7068e-15,0,0.66667
0.56149,0.035161,3.9304,-0.69726,-31.137,80.286,7.308,-2.436,-0.27348,9.744,1.2523e-12,-0.13674,0,0,0.14286,-0,-7.4088e-17,0.66667
0.024281,0.35853,0.16997,-0.2122,-13.742,303.47,0.09618,-0.03206,-1.8381,0.12824,-4.6305e-08,-0.91903,0,0,0.14286,4.2294e-17,0,0.66667
0.81817,0.11886,5.7272,-0.57171,-12.208,16.838,8.7315,-2.9105,-0.83689,11.642,-1.0839e-09,-0.41844,0,0,0.14286,-6.7671e-16,0,0.66667
0.13535,0.077722,0.94748,-0.63342,-40.519,252.11,1.6004,-0.53347,-0.57197,2.1339,-1.0676e-08,-0.28599,0,0,0.14286,-0,-0,0.66667
0.030639,0.14839,0.21447,-0.52741,-34.27,300.52,0.30164,-0.10055,-1.0129,0.40218,-6.6743e-07,-0.50645,0,0,0.14286,2.1147e-17,0,0.66667
0.46234,0.58827,3.2363,0.13241,6.7269,113.87,-1.1427,0.38092,-1.9366,-1.5237,3.6249e-13,-0.96831,0,0,0.14286,1.0151e-15,0,0.66667
0.96066,0.28815,6.7246,-0.31778,-1.4494,1.3906,5.6984,-1.8995,-1.6396,7.5979,8.2675e-08,-0.8198,0,0,0.14286,-0,-0,0.66667
0.093614,0.20254,0.6553,-0.44619,-28.727,271.25,0.7797,-0.2599,-1.2941,1.0396,2.0822e-08,-0.64705,0,0,0.14286,1.6918e-16,0,0.66667
0.065599,0.53313,0.45919,0.049695,3.2039,284.2,-0.060852,0.020284,-1.9921,-0.081136,-2.7829e-08,-0.99605,0,0,0.14286,-1.6918e-16,0,0.66667
0.87994,0.49529,6.1595,-0.0070684,-0.10011,7.5196,0.1161,-0.038701,-1.9993,0.1548,2.1417e-08,-0.99965,0,0,0.14286,-3.3835e-16,0,0.66667
0.82137,0.55112,5.7496,0.076686,1.5858,15.51,-1.1758,0.39192,-1.9774,-1.5677,3.5994e-10,-0.9887,0,0,0.14286,-0,-0,0.66667
0.81997,0.68595,5.7398,0.27893,5.8307,15.917,-4.2693,1.4231,-1.7229,-5.6924,9.0515e-10,-0.86143,0,0,0.14286,1.644e-15,0,0.66667
0.46782,0.12852,3.2747,-0.55723,-28.292,112.28,4.866,-1.622,-0.89821,6.4881,1.0565e-12,-0.44911,0,0,0.14286,-0,-0,0.66667
0.42749,0.71754,2.9924,0.32631,17.269,127.11,-2.6039,0.86797,-1.6213,-3.4719,1.0598e-12,-0.81064,0,0,0.14286,-0,-0,0.66667
0.40107,0.85402,2.8075,0.53103,28.958,137.59,-3.9756,1.3252,-0.99613,-5.3008,-5.3979e-13,-0.49807,0,0,0.14286,-0,-0,0.66667
0.58222,0.013568,4.0755,-0.72965,-31.489,73.816,7.9298,-2.6433,-0.1061,10.573,2.9754e-14,-0.053052,0,0,0.14286,-0,-0,0.66667
0.72897,0.23493,5.1028,-0.39761,-12.006,33.605,5.4104,-1.8035,-1.4364,7.2139,9.5253e-12,-0.71819,0,0,0.14286,-8.6327e-16,0,0.66667
0.78429,0.54908,5.49,0.073622,1.8088,21.902,-1.0778,0.35928,-1.9804,-1.4371,6.0251e-11,-0.99018,0,0,0.14286,-0,-0,0.66667
0.6548,0.36977,4.5836,-0.19535,-7.1842,51.728,2.3877,-0.7959,-1.8658,3.1836,2.8713e-12,-0.93291,0,0,0.14286,-1.0151e-15,0,0.66667
0.56247,0.5296,3.9373,0.044395,1.957,79.124,-0.46612,0.15537,-1.9964,-0.62149,5.8592e-14,-0.99821,0,0,0.14286,3.3835e-16,0,0.66667
0.41239,0.46755,2.8867,-0.048671,-2.6108,132.81,0.37467,-0.12489,-1.9913,0.49956,1.6067e-12,-0.99566,0,0,0.14286,-8.4588e-17,0,0.66667
0.31992,0.81286,2.2394,0.4693,27.356,170.54,-2.8025,0.93417,-1.2167,-3.7367,2.8479e-12,-0.60834,0,0,0.14286,1.3534e-15,0,0.66667
0.28625,0.61132,2.0037,0.16698,9.923,184.66,-0.89223,0.29741,-1.8995,-1.1896,8.0245e-12,-0.94975,0,0,0.14286,-0,-0,0.66667
0.29618,0.59724,2.0732,0.14587,8.6121,180.4,-0.80645,0.26882,-1.9268,-1.0753,6.6251e-12,-0.96339,0,0,0.14286,-0,-0,0.66667
0.68275,0.51705,4.7793,0.025582,0.87735,44.309,-0.32604,0.10868,-1.9964,-0.43472,-5.51e-13,-0.9982,0,0,0.14286,-0,-0,0.66667
0.76244,0.018706,5.3371,-0.72194,-19.717,27.358,10.275,-3.4249,-0.14641,13.7,1.0003e-11,-0.073207,0,0,0.14286,-0,-0,0.66667
0.59762,0.58582,4.1833,0.12873,5.3338,68.136,-1.4361,0.47869,-1.9406,-1.9148,2.2427e-14,-0.9703,0,0,0.14286,-0,-0,0.66667
0.22286,0.38373,1.56,-0.1744,-10.732,212.38,0.72553,-0.24184,-1.8912,0.96737,1.0188e-10,-0.94559,0,0,0.14286,-0,-0,0.66667
0.1944,0.80605,1.3608,0.45908,28.692,225.22,-1.6659,0.55529,-1.2494,-2.2211,-1.9975e-10,-0.6247,0,0,0.14286,1.6918e-16,0,0.66667
0.76569,0.602,5.3598,0.153,4.0501,25.527,-2.1868,0.72894,-1.9192,-2.9158,3.9852e-11,-0.95959,0,0,0.14286,-0,-0,0.66667
0.97869,0.68049,6.8509,0.27073,0.60834,0.64061,-4.946,1.6487,-1.7383,-6.5947,-3.488e-08,-0.86915,0,0,0.14286,1.3534e-15,0,0.66667
0.01591,0.40263,0.11137,-0.14605,-9.4575,307.37,0.043375,-0.014458,-1.927,0.057833,-8.7118e-08,-0.96349,0,0,0.14286,-5.2868e-18,0,0.66667
0.2489,0.9486,1.7423,0.6729,41.163,201.21,-3.1264,1.0421,-0.39125,-4.1685,9.3152e-12,-0.19562,0,0,0.14286,-0,-0,0.66667
0.79231,0.16239,5.5462,-0.50642,-12.155,21.053,7.4899,-2.4966,-1.0876,9.9865,-6.3784e-11,-0.54378,0,0,0.14286,-0,-0,0.66667
0.71917,0.3993,5.0342,-0.15105,-4.68,35.528,2.0277,-0.67592,-1.9211,2.7037,4.2644e-12,-0.96054,0,0,0.14286,-0,-0,0.66667
0.24598,0.85955,1.7219,0.53933,32.952,202.36,-2.4764,0.82546,-0.96483,-3.3018,-2.6368e-12,-0.48242,0,0,0.14286,-3.3835e-16,0,0.66667
0.55489,0.017995,3.8842,-0.72301,-32.662,82.48,7.4889,-2.4963,-0.13952,9.9852,1.2581e-12,-0.069758,0,0,0.14286,-1.3534e-15,0,0.66667
0.58559,0.028822,4.0991,-0.70677,-30.295,72.712,7.7256,-2.5752,-0.22326,10.301,-4.4986e-13,-0.11163,0,0,0.14286,3.3835e-16,0,0.66667
0.72138,0.0046581,5.0497,-0.74301,-23.274,36.206,10.005,-3.3351,-0.037786,13.34,-5.5325e-12,-0.018893,0,0,0.14286,-0,-0,0.66667
0.46367,0.96224,3.2457,0.69336,35.502,114.04,-6.0012,2.0004,-0.28984,-8.0016,6.9278e-14,-0.14492,0,0,0.14286,-0,-0,0.66667
0.40485,0.39068,2.8339,-0.16398,-8.8664,135.79,1.2392,-0.41308,-1.9052,1.6523,1.1356e-12,-0.95259,0,0,0.14286,-0,-0,0.66667
0.30801,0.84948,2.1561,0.52422,30.843,175.61,-3.014,1.0047,-1.0224,-4.0187,6.6795e-12,-0.51121,0,0,0.14286,-0,-0,0.66667
0.23831,0.48299,1.6682,-0.025513,-1.5573,205.52,0.11349,-0.037831,-1.9968,0.15132,8.3419e-12,-0.99839,0,0,0.14286,-3.3835e-16,0,0.66667
0.092503,0.70356,0.64752,0.30534,19.63,271.73,-0.52724,0.17575,-1.6694,-0.70298,-1.3436e-08,-0.83471,0,0,0.14286,-1.6918e-16,0,0.66667
0.64588,0.27362,4.5212,-0.33957,-12.773,54.323,4.094,-1.3647,-1.589,5.4586,2.7485e-12,-0.7945,0,0,0.14286,-0,-0,0.66667
0.66957,0.9191,4.687,0.62865,22.549,48.534,-7.8573,2.6191,-0.59499,-10.476,-6.3416e-13,-0.29749,0,0,0.14286,-0,-2.225e-16,0.66667
0.68734,0.37769,4.8114,-0.18346,-6.2227,43.219,2.3539,-0.78462,-1.8834,3.1385,4.5275e-12,-0.94171,0,0,0.14286,2.7068e-15,0,0.66667
0.0031457,0.66448,0.02202,0.24672,15.99,313.34,-0.014487,0.004829,-1.7835,-0.019316,-1.2092e-07,-0.89174,0,0,0.14286,-0,-0,0.66667
0.43825,0.44637,3.0678,-0.080445,-4.1999,122.87,0.6581,-0.21937,-1.9787,0.87746,1.0698e-12,-0.98933,0,0,0.14286,-0,-0,0.66667
0.12255,0.69273,0.85787,0.28909,18.46,257.85,-0.66135,0.22045,-1.7036,-0.8818,-6.8706e-09,-0.85179,0,0,0.14286,-3.3835e-16,0,0.66667
0.52661,0.36666,3.6863,-0.20001,-9.3352,91.076,1.9661,-0.65538,-1.8569,2.6215,6.6613e-16,-0.92845,0,0,0.14286,-0,-0,0.66667
0.97974,0.81182,6.8582,0.46773,1.059,1.0542,-8.5542,2.8514,-1.2225,-11.406,-4.4732e-07,-0.61123,0,0,0.14286,-8.4588e-17,0,0.66667
0.49928,0.56382,3.4949,0.095735,4.6406,100.51,-0.89223,0.29741,-1.9702,-1.1896,5.5034e-13,-0.98511,0,0,0.14286,1.3534e-15,0,0.66667
0.37465,0.44306,2.6225,-0.085413,-4.7479,147.78,0.59734,-0.19911,-1.9765,0.79645,1.1263e-12,-0.98825,0,0,0.14286,-1.3534e-15,0,0.66667
0.81384,0.48757,5.6969,-0.018645,-0.40046,16.713,0.28325,-0.094418,-1.9997,0.37767,8.5444e-11,-0.99984,0,0,0.14286,-0,-0,0.66667
0.9682,0.31474,6.7774,-0.27789,-0.99641,1.0055,5.0223,-1.6741,-1.7282,6.6963,7.29e-08,-0.86412,0,0,0.14286,-0,-0,0.66667
0.28712,0.88204,2.0099,0.57307,34.215,184.55,-3.0714,1.0238,-0.8312,-4.0952,7.5788e-12,-0.4156,0,0,0.14286,-0,-0,0.66667
0.803,0.64524,5.621,0.21786,4.9392,18.655,-3.2656,1.0885,-1.8297,-4.3541,4.0918e-10,-0.91484,0,0,0.14286,-0,-0,0.66667
0.99614,0.49506,6.973,-0.0074053,0.00059793,0.04526,0.1377,-0.04588,-1.9997,0.18361,2.8897e-05,-0.99986,0,0,0.14286,2.7068e-15,0,0.66667
0.11182,0.90163,0.78277,0.60245,38.743,262.89,-1.2575,0.41918,-0.71035,-1.6767,-8.5083e-09,-0.35517,0,0,0.14286,8.4588e-17,0,0.66667
0.53105,0.46964,3.7173,-0.045537,-2.1096,89.507,0.4514,-0.15047,-1.996,0.60187,2.6107e-13,-0.99802,0,0,0.14286,-0,-0,0.66667
0.81353,0.69091,5.6947,0.28636,6.1842,16.971,-4.3486,1.4495,-1.7106,-5.7982,6.9381e-10,-0.8553,0,0,0.14286,-2.7068e-15,0,0.66667
0.37629,0.50666,2.6341,0.0099884,0.55434,147.1,-0.07016,0.023387,-2.0011,-0.093547,1.6315e-12,-1.0005,0,0,0.14286,-0,-0,0.66667
0.44577,0.54931,3.1204,0.07397,3.8296,120.03,-0.61551,0.20517,-1.9787,-0.82068,4.5725e-13,-0.98935,0,0,0.14286,6.7671e-16,0,0.66667
0.7509,0.28924,5.2563,-0.31614,-8.8568,28.725,4.4313,-1.4771,-1.6463,5.9084,-1.196e-11,-0.82313,0,0,0.14286,-0,-0,0.66667
0.098346,0.82575,0.68842,0.48862,31.45,269.07,-0.89701,0.299,-1.1499,-1.196,-2.3061e-08,-0.57497,0,0,0.14286,-0,-0,0.66667
0.36053,0.12265,2.5237,-0.56603,-32.032,153.85,3.8093,-1.2698,-0.86308,5.079,2.3945e-12,-0.43154,0,0,0.14286,8.4588e-17,0,0.66667
0.56371,0.36723,3.9459,-0.19915,-8.7687,78.79,2.0956,-0.69853,-1.8604,2.7941,6.3927e-13,-0.93018,0,0,0.14286,-0,-0,0.66667
0.23859,0.27512,1.6701,-0.33732,-20.626,205.48,1.5023,-0.50076,-1.595,2.003,3.834e-11,-0.79751,0,0,0.14286,3.3835e-16,0,0.66667
0.83995,0.80416,5.8797,0.45624,8.61,13.221,-7.1534,2.3845,-1.2594,-9.5379,1.4542e-09,-0.62971,0,0,0.14286,6.7671e-16,0,0.66667
0.76585,0.22319,5.361,-0.41521,-11.048,25.849,5.9358,-1.9786,-1.3898,7.9144,-5.0233e-11,-0.69488,0,0,0.14286,-0,-0,0.66667
0.96554,0.61717,6.7588,0.17575,0.6808,0.97128,-3.1677,1.0559,-1.8901,-4.2236,-4.4686e-08,-0.94504,0,0,0.14286,6.7671e-16,0,0.66667
0.52299,0.88229,3.6609,0.57344,27.078,92.781,-5.5981,1.866,-0.82943,-7.4642,-4.9605e-13,-0.41471,0,0,0.14286,-0,-0,0.66667
0.10652,0.22447,0.74567,-0.41329,-26.527,265.27,0.82181,-0.27394,-1.3931,1.0957,1.6422e-08,-0.69654,0,0,0.14286,-0,-0,0.66667
0.93662,0.71312,6.5563,0.31967,2.411,2.7248,-5.589,1.863,-1.6386,-7.452,-4.4909e-09,-0.8193,0,0,0.14286,1.3534e-15,0,0.66667
0.83424,0.32772,5.8397,-0.25842,-5.0005,13.689,4.0242,-1.3414,-1.7608,5.3656,-1.5574e-09,-0.88042,0,0,0.14286,1.3534e-15,0,0.66667
0.54442,0.65691,3.8109,0.23536,10.695,85.118,-2.3918,0.79727,-1.8046,-3.1891,-2.8266e-13,-0.90229,0,0,0.14286,-1.3534e-15,0,0.66667
0.8363,0.67029,5.8541,0.25544,4.8848,13.38,-3.9876,1.3292,-1.7661,-5.3168,1.6663e-09,-0.88307,0,0,0.14286,-1.3534e-15,0,0.66667
0.88169,0.6626,6.1718,0.24389,3.4201,7.4852,-4.014,1.338,-1.7873,-5.3521,8.2509e-09,-0.89364,0,0,0.14286,-0,-0,0.66667
0.77608,0.26882,5.4326,-0.34678,-8.8512,23.73,5.0237,-1.6746,-1.5711,6.6982,-9.4497e-11,-0.78553,0,0,0.14286,-0,-0,0.66667
0.57125,0.88668,3.9988,0.58002,25.393,76.903,-6.185,2.0617,-0.80209,-8.2467,5.2669e-13,-0.40104,0,0,0.14286,-1.3534e-15,0,0.66667
0.6153,0.65155,4.3071,0.22733,9.1087,62.918,-2.611,0.87033,-1.8154,-3.4813,-2.84e-13,-0.90771,0,0,0.14286,-3.1238e-16,0,0.66667
0.84439,0.16263,5.9107,-0.50605,-9.3281,12.715,7.9764,-2.6588,-1.0915,10.635,-2.3768e-10,-0.54576,0,0,0.14286,-0,-0,0.66667
0.62222,0.23257,4.3555,-0.40114,-15.894,61.109,4.6592,-1.5531,-1.4276,6.2122,1.4033e-12,-0.71382,0,0,0.14286,-0,-0,0.66667
0.20648,0.93416,1.4454,0.65125,40.641,219.94,-2.5101,0.8367,-0.49246,-3.3468,2.1252e-11,-0.24623,0,0,0.14286,-5.0753e-16,0,0.66667
0.69149,0.20646,4.8404,-0.44031,-14.843,42.529,5.6834,-1.8945,-1.3098,7.5779,6.2674e-12,-0.65491,0,0,0.14286,-0,-0,0.66667
0.53201,0.87383,3.7241,0.56075,26.122,89.698,-5.5687,1.8562,-0.88482,-7.425,-3.2685e-13,-0.44241,0,0,0.14286,-3.3835e-16,0,0.66667
0.26325,0.39347,1.8427,-0.1598,-9.6275,194.61,0.78523,-0.26174,-1.9093,1.047,2.4177e-12,-0.95465,0,0,0.14286,-0,-0,0.66667
0.00078654,0.50475,0.0055058,0.0071234,0.46124,314.44,-0.00010504,7.7344e-05,-2.002,-0.00011888,6.3498e-05,-1.001,0,0,0.14286,-5.2868e-18,0,0.66667
0.2355,0.038739,1.6485,-0.69189,-42.636,207.11,3.0415,-1.0138,-0.2994,4.0554,-3.717e-13,-0.1497,0,0,0.14286,-0,-0,0.66667
0.67357,0.21411,4.715,-0.42884,-15.138,47.053,5.3919,-1.7973,-1.3475,7.1892,4.3907e-12,-0.67375,0,0,0.14286,-0,-0,0.66667
0.87832,0.45599,6.1482,-0.06602,-0.94761,7.7151,1.0824,-0.36081,-1.984,1.4432,-5.6934e-09,-0.99199,0,0,0.14286,-0,-0,0.66667
0.8307,0.70722,5.8149,0.31083,6.1439,14.297,-4.8199,1.6066,-1.6565,-6.4265,1.5036e-09,-0.82824,0,0,0.14286,-0,-0,0.66667
0.10811,0.54864,0.75675,0.072964,4.6691,264.49,-0.14724,0.049081,-1.982,-0.19632,-3.0346e-09,-0.991,0,0,0.14286,-0,-0,0.66667
0.071125,0.11008,0.49787,-0.58488,-37.885,281.7,0.77652,-0.25884,-0.78185,1.0354,1.5892e-07,-0.39092,0,0,0.14286,-1.6882e-16,0,0.66667
0.76159,0.35928,5.3311,-0.21108,-5.6782,26.398,3.0007,-1.0002,-1.8406,4.001,-3.8558e-11,-0.92031,0,0,0.14286,-0,-0,0.66667
0.28483,0.901,1.9938,0.60151,35.985,185.56,-3.1981,1.066,-0.71359,-4.2642,4.6729e-12,-0.35679,0,0,0.14286,3.3835e-16,0,0.66667
0.2718,0.18837,1.9026,-0.46745,-28.117,191.05,2.3717,-0.79056,-1.2229,3.1623,6.9433e-13,-0.61144,0,0,0.14286,-0,-0,0.66667
0.0020003,0.0071759,0.014002,-0.73924,-48.284,313.87,0.027817,-0.0092596,-0.057604,0.037096,1.9331e-05,-0.028802,0,0,0.14286,-0,-0,0.66667
0.098539,0.62422,0.68977,0.18633,11.954,268.92,-0.34274,0.11425,-1.8768,-0.45699,-8.5786e-09,-0.9384,0,0,0.14286,-2.009e-16,0,0.66667
0.1356,0.41263,0.94918,-0.13105,-8.3303,251.84,0.3317,-0.11057,-1.9381,0.44227,1.0593e-09,-0.96907,0,0,0.14286,-0,-0,0.66667
0.15936,0.67684,1.1155,0.26526,16.755,241,-0.78906,0.26302,-1.7495,-1.0521,-2.0721e-09,-0.87477,0,0,0.14286,-0,-0,0.66667
0.44531,0.34086,3.1172,-0.23871,-12.378,120.27,1.9843,-0.66143,-1.7966,2.6457,4.3876e-13,-0.89832,0,0,0.14286,-0,-0,0.66667
0.81414,0.92379,5.699,0.63569,13.899,17.687,-9.6607,3.2202,-0.56382,-12.881,-7.11e-11,-0.28191,0,0,0.14286,-0,-0,0.66667
0.8123,0.092795,5.6861,-0.61081,-13.455,17.909,9.2616,-3.0872,-0.67687,12.349,1.2486e-09,-0.33843,0,0,0.14286,1.6072e-15,-2.0046e-17,0.66667
0.90999,0.89039,6.3699,0.58558,6.4439,5.4574,-9.947,3.3157,-0.77995,-13.263,-2.5867e-08,-0.38998,0,0,0.14286,-0,-0,0.66667
0.44359,0.03121,3.1051,-0.70318,-36.852,121.53,5.8226,-1.9409,-0.24188,7.7635,-1.2337e-12,-0.12094,0,0,0.14286,-1.9151e-16,0,0.66667
0.70871,0.38419,4.961,-0.17371,-5.553,37.992,2.2981,-0.76603,-1.8914,3.0641,5.6388e-12,-0.94571,0,0,0.14286,-0,-0,0.66667
0.48833,0.87911,3.4183,0.56867,28.152,104.88,-5.1838,1.7279,-0.85018,-6.9117,-2.3315e-13,-0.42509,0,0,0.14286,1.3534e-15,0,0.66667
0.049843,0.39337,0.3489,-0.15994,-10.334,291.54,0.14881,-0.049602,-1.9087,0.19841,-1.1678e-08,-0.95437,0,0,0.14286,-0,-0,0.66667
0.080431,0.2615,0.56302,-0.35774,-23.06,277.34,0.53711,-0.17904,-1.5452,0.71615,2.075e-08,-0.77258,0,0,0.14286,1.6918e-16,0,0.66667
0.24594,0.87117,1.7216,0.55676,34.029,202.39,-2.556,0.85202,-0.89784,-3.4081,-4.1605e-11,-0.44892,0,0,0.14286,-4.2294e-16,0,0.66667
0.98162,0.37245,6.8714,-0.19133,-0.35089,0.44759,3.5058,-1.1686,-1.8708,4.6744,1.1227e-08,-0.93541,0,0,0.14286,-1.3534e-15,0,0.66667
0.69192,0.28051,4.8434,-0.32923,-11.057,42.238,4.2523,-1.4174,-1.615,5.6697,7.1028e-12,-0.8075,0,0,0.14286,1.3957e-15,0,0.66667
0.26801,0.50003,1.8761,4.1974e-05,0.0025208,192.51,-0.00020999,6.9996e-05,-2.0017,-0.00027998,1.7232e-12,-1.0009,0,0,0.14286,-1.3534e-15,0,0.66667
0.70626,0.83926,4.9438,0.50889,16.503,39.078,-6.709,2.2363,-1.0796,-8.9453,-4.0314e-12,-0.53981,0,0,0.14286,-3.3835e-16,0,0.66667
0.66135,0.53672,4.6294,0.055081,1.9927,49.894,-0.67998,0.22666,-1.9885,-0.90664,-4.9893e-13,-0.99426,0,0,0.14286,-0,-0,0.66667
0.04329,0.19648,0.30303,-0.45528,-29.521,294.62,0.3679,-0.12263,-1.2626,0.49053,-1.5274e-08,-0.6313,0,0,0.14286,8.4588e-17,0,0.66667
0.36149,0.42846,2.5304,-0.10731,-6.0336,153.11,0.72412,-0.24137,-1.9596,0.96549,1.5113e-12,-0.97979,0,0,0.14286,-0,-0,0.66667
0.77373,0.27243,5.4161,-0.34136,-8.7929,24.173,4.9302,-1.6434,-1.5841,6.5736,-8.3294e-11,-0.79206,0,0,0.14286,6.7671e-16,0,0.66667
0.078523,0.1796,0.54966,-0.48061,-31.041,278.25,0.70445,-0.23482,-1.1808,0.93927,3.7602e-08,-0.59042,0,0,0.14286,-0,-0,0.66667
0.88438,0.88156,6.1907,0.57234,8.0071,7.9254,-9.4485,3.1495,-0.83414,-12.598,5.44e-09,-0.41707,0,0,0.14286,-0,-0,0.66667
0.93087,0.21978,6.5161,-0.42033,-3.4975,3.3325,7.3038,-2.4346,-1.3715,9.7384,-4.6236e-08,-0.68575,0,0,0.14286,-0,-0,0.66667
0.85309,0.51708,5.9716,0.025622,0.44081,10.846,-0.40801,0.136,-1.9959,-0.54402,-9.555e-11,-0.99797,0,0,0.14286,-2.7068e-15,0,0.66667
0.11738,0.68085,0.82164,0.27127,17.341,260.23,-0.59437,0.19812,-1.737,-0.79249,-7.8145e-09,-0.86851,0,0,0.14286,-8.4588e-17,0,0.66667
0.56517,0.32986,3.9562,-0.25521,-11.216,78.363,2.6925,-0.89749,-1.7683,3.59,-3.0753e-13,-0.88413,0,0,0.14286,-0,-0,0.66667
0.70756,0.59401,4.9529,0.14102,4.5215,38.243,-1.8626,0.62086,-1.9298,-2.4835,-5.9091e-12,-0.96489,0,0,0.14286,-0,-0,0.66667
0.88798,0.39999,6.2159,-0.15002,-1.9889,6.6976,2.4867,-0.82888,-1.9204,3.3155,-4.3883e-09,-0.96022,0,0,0.14286,1.3534e-15,0,0.66667
0.095776,0.57822,0.67043,0.11733,7.5287,270.19,-0.20977,0.069924,-1.9513,-0.2797,-4.9185e-09,-0.97567,0,0,0.14286,-0,-0,0.66667
0.81577,0.54341,5.7104,0.06511,1.3853,16.407,-0.99148,0.33049,-1.9845,-1.322,3.6243e-10,-0.99223,0,0,0.14286,-1.3534e-15,0,0.66667
0.27802,0.97921,1.9461,0.71882,43.299,188.63,-3.7304,1.2435,-0.1625,-4.9739,-3.3928e-13,-0.081252,0,0,0.14286,-0,-0,0.66667
0.59229,0.4139,4.146,-0.12915,-5.4048,69.764,1.4279,-0.47598,-1.9419,1.9039,1.5066e-13,-0.97094,0,0,0.14286,-0,-0,0.66667
0.7198,0.32524,5.0386,-0.26214,-8.1189,35.486,3.5222,-1.1741,-1.7568,4.6962,7.1902e-12,-0.87841,0,0,0.14286,1.3534e-15,0,0.66667
0.77702,0.94369,5.4391,0.66553,17.147,24.331,-9.6531,3.2177,-0.42469,-12.871,1.0676e-12,-0.21234,0,0,0.14286,-0,6.634e-18,0.66667
0.29466,0.88692,2.0627,0.58039,34.49,181.33,-3.1924,1.0641,-0.80256,-4.2565,6.376e-12,-0.40128,0,0,0.14286,-0,-0,0.66667
0.60738,0.23086,4.2516,-0.40372,-16.479,65.474,4.5772,-1.5257,-1.4209,6.103,-3.0642e-14,-0.71044,0,0,0.14286,-0,-0,0.66667
0.28747,0.85008,2.0123,0.52512,31.317,184.35,-2.8179,0.9393,-1.0184,-3.7572,5.5935e-12,-0.50921,0,0,0.14286,6.7671e-16,0,0.66667
0.99832,0.9494,6.9882,0.67409,0.072556,1.4293,-12.562,4.1873,-0.38502,-16.749,-1.8656e-05,-0.19251,0,0,0.14286,-0,-0,0.66667
0.81451,0.47683,5.7015,-0.034749,-0.74391,16.606,0.52833,-0.17611,-1.9964,0.70444,-2.8333e-10,-0.9982,0,0,0.14286,-0,-0,0.66667
0.41398,0.67123,2.8978,0.25685,13.773,132.27,-1.9848,0.66161,-1.7635,-2.6464,-2.1705e-13,-0.88177,0,0,0.14286,6.7671e-16,0,0.66667
0.87914,0.064453,6.154,-0.65332,-9.6019,8.7769,10.721,-3.5738,-0.48268,14.295,-1.0739e-07,-0.24134,0,0,0.14286,-0,-0,0.66667
0.7325,0.067974,5.1275,-0.64804,-19.526,33.417,8.8609,-2.9536,-0.50795,11.814,1.4424e-12,-0.25398,0,0,0.14286,-0,-0,0.66667
0.92875,0.4071,6.5012,-0.13935,-1.1727,3.0294,2.4159,-0.8053,-1.9306,3.2212,4.5869e-08,-0.96532,0,0,0.14286,-2.7068e-15,0,0.66667
0.17161,0.74723,1.2013,0.37085,23.352,235.46,-1.188,0.39599,-1.514,-1.584,-1.2148e-09,-0.757,0,0,0.14286,-0,-0,0.66667
0.29484,0.49468,2.0638,-0.0079807,-0.47142,180.95,0.043923,-0.014641,-2.0008,0.058564,4.6074e-12,-1.0004,0,0,0.14286,-1.6918e-16,0,0.66667
0.093737,0.61069,0.65616,0.16603,10.66,271.14,-0.29051,0.096838,-1.9041,-0.38735,-4.9389e-09,-0.95204,0,0,0.14286,-1.6918e-16,0,0.66667
0.31798,0.069938,2.2259,-0.64509,-37.787,171.54,3.829,-1.2763,-0.5193,5.1054,6.064e-13,-0.25965,0,0,0.14286,-0,-0,0.66667
0.38119,0.056603,2.6683,-0.6651,-37.056,145.66,4.7325,-1.5775,-0.42613,6.31,2.498e-12,-0.21306,0,0,0.14286,3.3835e-16,0,0.66667
0.63271,0.45312,4.429,-0.070319,-2.7144,57.793,0.83052,-0.27684,-1.9805,1.1074,-1.7569e-13,-0.99026,0,0,0.14286,1.3534e-15,0,0.66667
0.47152,0.25066,3.3006,-0.37401,-18.839,110.67,3.2919,-1.0973,-1.504,4.3892,-4.543e-13,-0.75199,0,0,0.14286,-0,-0,0.66667
0.71767,0.51415,5.0237,0.021222,0.66001,35.824,-0.2843,0.094766,-1.9995,-0.37906,-8.4588e-13,-0.99974,0,0,0.14286,-0,-0,0.66667
0.26922,0.0027919,1.8846,-0.74581,-45.19,192.45,3.7481,-1.2494,-0.022687,4.9974,1.7495e-12,-0.011344,0,0,0.14286,-0,-0,0.66667
0.17306,0.095606,1.2114,-0.60659,-38.321,234.93,1.9595,-0.65318,-0.69403,2.6127,2.3332e-09,-0.34701,0,0,0.14286,6.7671e-16,0,0.66667
0.37912,0.55089,2.6539,0.07633,4.226,145.97,-0.54018,0.18006,-1.9784,-0.72024,3.0893e-12,-0.98919,0,0,0.14286,3.3835e-16,0,0.66667
0.43808,0.74618,3.0666,0.36927,19.332,123.11,-3.0197,1.0066,-1.5177,-4.0263,1.0114e-12,-0.75883,0,0,0.14286,8.4588e-16,0,0.66667
0.42213,0.089047,2.9549,-0.61643,-32.98,129.53,4.8573,-1.6191,-0.65161,6.4764,6.1684e-13,-0.32581,0,0,0.14286,1.6918e-16,0,0.66667
0.91357,0.6794,6.395,0.2691,2.771,4.3808,-4.5891,1.5297,-1.741,-6.1188,1.0268e-08,-0.87052,0,0,0.14286,-6.7671e-16,0,0.66667
0.26957,0.055595,1.887,-0.66661,-40.305,192.21,3.3543,-1.1181,-0.41964,4.4724,2.4027e-12,-0.20982,0,0,0.14286,-3.3835e-16,0,0.66667
0.35204,0.29457,2.4643,-0.30814,-17.488,157.07,2.025,-0.67499,-1.6605,2.6999,-1.0816e-12,-0.83027,0,0,0.14286,-0,-0,0.66667
0.21521,0.32759,1.5065,-0.25861,-15.98,215.81,1.0389,-0.3463,-1.7615,1.3852,1.8506e-10,-0.88075,0,0,0.14286,3.3835e-16,0,0.66667
0.37192,0.22084,2.6035,-0.41875,-23.406,149.07,2.9072,-0.96906,-1.3774,3.8762,-4.6407e-13,-0.68869,0,0,0.14286,-1.3534e-15,0,0.66667
0.38986,0.3029,2.729,-0.29565,-16.234,141.78,2.1515,-0.71717,-1.6908,2.8687,1.89e-12,-0.84541,0,0,0.14286,-3.3835e-16,0,0.66667
0.57543,0.20341,4.028,-0.44489,-19.273,75.337,4.7787,-1.5929,-1.2961,6.3715,-9.5035e-14,-0.64804,0,0,0.14286,-0,-0,0.66667
0.27836,0.34648,1.9486,-0.23028,-13.758,188.07,1.1966,-0.39886,-1.8123,1.5954,-2.9512e-12,-0.90615,0,0,0.14286,-6.7671e-16,0,0.66667
0.25949,0.0021308,1.8164,-0.7468,-45.502,196.67,3.6174,-1.2058,-0.01657,4.8232,-1.0965e-11,-0.0082852,0,0,0.14286,-0,-0,0.66667
0.71906,0.90357,5.0334,0.60536,18.978,36.321,-8.1254,2.7085,-0.69999,-10.834,-4.9596e-12,-0.35,0,0,0.14286,1.8609e-15,0,0.66667
0.91018,0.030298,6.3713,-0.70455,-7.8494,5.8755,11.97,-3.9901,-0.23564,15.96,8.7733e-07,-0.11782,0,0,0.14286,8.4588e-16,0,0.66667
0.1221,0.40545,0.85468,-0.14182,-9.048,258.04,0.32324,-0.10775,-1.9297,0.43099,1.0213e-08,-0.96485,0,0,0.14286,-1.0574e-17,0,0.66667
0.18229,0.24035,1.276,-0.38947,-24.434,230.64,1.3253,-0.44176,-1.4595,1.767,7.5123e-10,-0.72973,0,0,0.14286,-1.6918e-16,0,0.66667
0.13311,0.3601,0.93177,-0.20985,-13.354,252.99,0.52142,-0.17381,-1.8415,0.69523,4.9071e-09,-0.92077,0,0,0.14286,-1.6918e-16,0,0.66667
0.68361,0.78134,4.7853,0.42201,14.519,44.469,-5.3852,1.7951,-1.3676,-7.1803,-4.5932e-12,-0.68378,0,0,0.14286,-2.7068e-15,0,0.66667
0.21401,0.72615,1.4981,0.33923,20.991,216.38,-1.3552,0.45172,-1.59,-1.8069,-1.7904e-10,-0.79501,0,0,0.14286,-0,-0,0.66667
0.60457,0.082913,4.232,-0.62563,-25.824,66.742,7.0605,-2.3535,-0.60716,9.4139,5.782e-13,-0.30358,0,0,0.14286,-0,-0,0.66667
0.20168,0.51455,1.4118,0.021827,1.3553,221.82,-0.082172,0.027391,-1.9991,-0.10956,-7.9355e-11,-0.99953,0,0,0.14286,-6.7671e-16,0,0.66667
0.81776,0.27441,5.7243,-0.33839,-7.1665,16.365,5.1654,-1.7218,-1.5919,6.8872,-8.4441e-10,-0.79597,0,0,0.14286,-6.7671e-16,0,0.66667
0.31611,0.17578,2.2127,-0.48634,-28.435,172.15,2.8697,-0.95657,-1.1584,3.8263,-1.3356e-12,-0.5792,0,0,0.14286,-0,-0,0.66667
0.66962,0.74389,4.6873,0.36583,13.022,47.977,-4.5727,1.5242,-1.5249,-6.097,-4.1984e-12,-0.76245,0,0,0.14286,-0,-0,0.66667
0.14873,0.14992,1.0411,-0.52512,-33.393,245.94,1.4579,-0.48598,-1.0183,1.9439,8.2427e-10,-0.50913,0,0,0.14286,-2.5377e-16,0,0.66667
0.30595,0.71867,2.1416,0.328,19.269,176.32,-1.8732,0.62441,-1.6174,-2.4976,6.6337e-12,-0.80868,0,0,0.14286,1.5086e-16,0,0.66667
0.29724,0.091263,2.0807,-0.61311,-36.399,180.27,3.4018,-1.1339,-0.6664,4.5358,-1.8852e-12,-0.3332,0,0,0.14286,5.0753e-16,0,0.66667
0.63508,0.65302,4.4456,0.22952,8.8261,57.216,-2.721,0.90699,-1.8122,-3.628,-1.2979e-12,-0.9061,0,0,0.14286,3.3835e-16,0,0.66667
0.68088,0.68528,4.7662,0.27792,9.5997,44.948,-3.5323,1.1774,-1.7248,-4.7097,-4.756e-12,-0.86241,0,0,0.14286,-1.5226e-15,0,0.66667
0.84525,0.36392,5.9167,-0.20412,-3.6978,12.031,3.2205,-1.0735,-1.8527,4.2941,-1.8883e-09,-0.92636,0,0,0.14286,-0,-0,0.66667
0.18335,0.93796,1.2834,0.65693,41.388,230.32,-2.2483,0.74945,-0.46615,-2.9978,-1.8984e-09,-0.23307,0,0,0.14286,-6.7671e-16,0,0.66667
0.76043,0.21763,5.323,-0.42355,-11.502,26.952,6.0122,-2.0041,-1.3622,8.0163,-1.4567e-11,-0.68108,0,0,0.14286,7.8927e-16,0,0.66667
0.71194,0.29792,4.9836,-0.30312,-9.6181,37.365,4.0283,-1.3428,-1.6715,5.3711,9.0652e-12,-0.83574,0,0,0.14286,-8.4311e-16,0,0.66667
0.55754,0.24686,3.9028,-0.37971,-16.931,80.964,3.9518,-1.3173,-1.4871,5.269,-3.2019e-13,-0.74355,0,0,0.14286,1.6918e-16,0,0.66667
0.65016,0.73326,4.5511,0.34989,13.037,53.161,-4.2464,1.4155,-1.563,-5.6618,-1.7626e-12,-0.78151,0,0,0.14286,-1.3534e-15,0,0.66667
0.089995,0.13806,0.62997,-0.5429,-35.032,272.95,0.91203,-0.30401,-0.95124,1.216,3.6401e-08,-0.47562,0,0,0.14286,-0,-0,0.66667
0.14688,0.48388,1.0281,-0.024173,-1.5311,246.66,0.066273,-0.022091,-1.9962,0.088365,-2.2674e-10,-0.99809,0,0,0.14286,-0,-0,0.66667
0.41557,0.29715,2.909,-0.30427,-16.298,131.69,2.3603,-0.78678,-1.6691,3.1471,-1.7297e-13,-0.83454,0,0,0.14286,-0,-0,0.66667
0.71137,0.52401,4.9796,0.036014,1.1413,37.299,-0.47822,0.15941,-1.994,-0.63763,-1.9238e-12,-0.997,0,0,0.14286,-0,-0,0.66667
0.16782,0.14053,1.1747,-0.53921,-34.084,237.26,1.6892,-0.56306,-0.96525,2.2522,-7.0557e-11,-0.48262,0,0,0.14286,-0,-0,0.66667
0.38898,0.83404,2.7229,0.50106,27.621,142.33,-3.6382,1.2127,-1.1082,-4.8509,4.5675e-13,-0.55408,0,0,0.14286,-0,-0,0.66667
0.49795,0.92253,3.4856,0.63379,31.035,101.58,-5.8911,1.9637,-0.57204,-7.8548,-4.4098e-13,-0.28602,0,0,0.14286,6.7671e-16,1.6888e-16,0.66667
0.93505,0.55284,6.5453,0.079267,0.6052,2.5502,-1.3835,0.46118,-1.9779,-1.8447,-3.1216e-08,-0.98894,0,0,0.14286,-1.3534e-15,0,0.66667
0.055196,0.98,0.38637,0.72,46.864,289.13,-0.74184,0.24728,-0.15505,-0.98912,2.935e-06,-0.077525,0,0,0.14286,8.4588e-17,0,0.66667
0.82901,0.96905,5.8031,0.70357,14.327,15.582,-10.888,3.6292,-0.24283,-14.517,-1.1255e-09,-0.12142,0,0,0.14286,-0,-0,0.66667
0.98416,0.73062,6.8891,0.34593,0.55145,0.63763,-6.3551,2.1184,-1.5765,-8.4734,3.4002e-09,-0.78824,0,0,0.14286,-0,-0,0.66667
0.26727,0.079996,1.8709,-0.63001,-38.112,193.16,3.1432,-1.0477,-0.58938,4.1909,1.4968e-12,-0.29469,0,0,0.14286,3.3835e-16,0,0.66667
0.89006,0.15945,6.2304,-0.51082,-6.7752,7.1382,8.487,-2.829,-1.0748,11.316,-1.8176e-08,-0.53742,0,0,0.14286,-0,-0,0.66667
0.2903,0.47104,2.0321,-0.043437,-2.5734,182.89,0.23538,-0.07846,-1.9927,0.31384,5.0793e-15,-0.99637,0,0,0.14286,-0,-0,0.66667
0.79901,0.91405,5.5931,0.62108,14.558,20.19,-9.2633,3.0878,-0.62912,-12.351,6.09e-10,-0.31456,0,0,0.14286,-0,-0,0.66667
0.45986,0.085968,3.219,-0.62105,-31.881,115.31,5.3311,-1.777,-0.62723,7.1081,7.8515e-13,-0.31361,0,0,0.14286,-0,-0,0.66667
0.59761,0.95646,4.1833,0.68469,28.691,68.98,-7.638,2.546,-0.33235,-10.184,1.3118e-12,-0.16618,0,0,0.14286,-6.7671e-16,0,0.66667
0.23667,0.95245,1.6567,0.67867,41.784,206.58,-2.9982,0.99941,-0.36243,-3.9976,1.3189e-13,-0.18122,0,0,0.14286,-0,-0,0.66667
0.68761,0.71755,4.8133,0.32633,11.085,43.307,-4.1885,1.3962,-1.6248,-5.5847,-6.9331e-12,-0.8124,0,0,0.14286,8.4588e-17,0,0.66667
0.14868,0.1198,1.0408,-0.5703,-36.295,245.98,1.5828,-0.52761,-0.84247,2.1104,3.6233e-09,-0.42123,0,0,0.14286,1.7263e-16,0,0.66667
0.55969,0.78058,3.9178,0.42086,18.715,80.327,-4.397,1.4657,-1.3715,-5.8626,-1.1129e-12,-0.68576,0,0,0.14286,9.719e-16,0,0.66667
0.49433,0.88877,3.4603,0.58315,28.655,102.77,-5.381,1.7937,-0.78932,-7.1746,-1.0436e-13,-0.39466,0,0,0.14286,-0,-0,0.66667
0.83721,0.89265,5.8604,0.58897,11.377,13.98,-9.2043,3.0681,-0.76487,-12.272,2.2134e-09,-0.38244,0,0,0.14286,1.3534e-15,0,0.66667
0.48147,0.80111,3.3703,0.45167,22.501,107.16,-4.0593,1.3531,-1.2744,-5.4124,7.2431e-13,-0.63722,0,0,0.14286,-6.7671e-16,0,0.66667
0.78473,0.85756,5.4931,0.53634,13.31,22.509,-7.8565,2.6188,-0.97654,-10.475,8.5778e-11,-0.48827,0,0,0.14286,-0,-0,0.66667
0.40029,0.63914,2.8021,0.20871,11.339,137.6,-1.5595,0.51985,-1.8435,-2.0794,5.8054e-13,-0.92173,0,0,0.14286,-0,-0,0.66667
0.30791,0.64452,2.1553,0.21677,12.704,175.43,-1.2459,0.41531,-1.8318,-1.6612,8.5812e-12,-0.9159,0,0,0.14286,-3.6463e-16,0,0.66667
0.78723,0.13407,5.5106,-0.5489,-13.488,22.084,8.066,-2.6887,-0.92738,10.755,-2.5103e-10,-0.46369,0,0,0.14286,-0,-0,0.66667
0.41846,0.55708,2.9292,0.085616,4.5648,130.46,-0.66878,0.22293,-1.974,-0.8917,9.8621e-13,-0.98702,0,0,0.14286,3.3835e-16,0,0.66667
0.49677,0.43418,3.4774,-0.098732,-4.8021,101.39,0.91554,-0.30518,-1.9659,1.2207,-4.3432e-13,-0.98294,0,0,0.14286,8.4588e-16,0,0.66667
0.57732,0.25909,4.0413,-0.36137,-15.579,74.62,3.8944,-1.2981,-1.5373,5.1925,3.7059e-13,-0.76865,0,0,0.14286,-0,-0,0.66667
0.81967,0.76601,5.7377,0.39901,8.3875,16.173,-6.1051,2.035,-1.432,-8.1401,7.3025e-10,-0.71602,0,0,0.14286,-0,-0,0.66667
0.58132,0.42556,4.0692,-0.11166,-4.766,73.154,1.2116,-0.40387,-1.9553,1.6155,-4.8628e-14,-0.97763,0,0,0.14286,-0,-0,0.66667
0.40614,0.76356,2.843,0.39534,21.402,135.45,-2.9972,0.99906,-1.4463,-3.9962,3.0442e-13,-0.72315,0,0,0.14286,6.7671e-16,0,0.66667
0.16059,0.9862,1.1241,0.7293,46.396,240.67,-2.1862,0.72872,-0.10777,-2.9149,1.3958e-10,-0.053886,0,0,0.14286,1.6918e-16,0,0.66667
0.70211,0.45597,4.9148,-0.066047,-2.1497,39.517,0.86562,-0.28854,-1.9857,1.1542,2.6199e-12,-0.99283,0,0,0.14286,-0,-0,0.66667
0.88323,0.45637,6.1826,-0.065439,-0.90226,7.1625,1.0789,-0.35963,-1.983,1.4385,-6.4854e-09,-0.99148,0,0,0.14286,-1.3534e-15,0,0.66667
0.10838,0.86201,0.75865,0.54302,34.91,264.46,-1.0986,0.36619,-0.95276,-1.4648,-5.1032e-09,-0.47638,0,0,0.14286,1.6918e-16,1.9358e-16,0.66667
0.46621,0.14011,3.2635,-0.53984,-27.452,112.84,4.6981,-1.566,-0.96373,6.2641,1.2577e-12,-0.48187,0,0,0.14286,-0,-0,0.66667
0.93454,0.80444,6.5417,0.45665,3.6107,3.1727,-7.9662,2.6554,-1.2586,-10.622,5.0888e-08,-0.62929,0,0,0.14286,6.7671e-16,0,0.66667
0.56351,0.462,3.9446,-0.056998,-2.5083,78.79,0.59955,-0.19985,-1.9901,0.79941,4.5824e-13,-0.99506,0,0,0.14286,3.3835e-16,0,0.66667
0.54525,0.84944,3.8168,0.52416,23.908,85.214,-5.3349,1.7783,-1.0244,-7.1132,6.6613e-15,-0.51222,0,0,0.14286,-0,-0,0.66667
0.063476,0.28965,0.44433,-0.31553,-20.38,285.21,0.37386,-0.12462,-1.6475,0.49848,-4.8619e-09,-0.82377,0,0,0.14286,-0,-0,0.66667
0.5353,0.3209,3.7471,-0.26865,-12.386,88.19,2.6844,-0.8948,-1.7428,3.5792,-3.5172e-13,-0.87139,0,0,0.14286,-0,-0,0.66667
0.65454,0.3904,4.5818,-0.16441,-6.0481,51.775,2.0087,-0.66958,-1.9044,2.6783,2.3839e-12,-0.95222,0,0,0.14286,-0,-0,0.66667
0.14659,0.15396,1.0261,-0.51906,-33.025,246.91,1.4203,-0.47345,-1.0416,1.8938,6.7706e-10,-0.52081,0,0,0.14286,-0,-0,0.66667
0.95636,0.50805,6.6946,0.012075,0.060298,1.2912,-0.21556,0.071856,-1.9994,-0.28742,1.8053e-06,-0.99968,0,0,0.14286,-5.4137e-15,0,0.66667
0.19615,0.49968,1.3731,-0.00048224,-0.030012,224.3,0.0017657,-0.00058857,-1.9998,0.0023543,2.2257e-10,-0.99989,0,0,0.14286,1.2688e-16,0,0.66667
0.67393,0.52099,4.7175,0.031492,1.1047,46.576,-0.39616,0.13205,-1.9969,-0.52822,-6.1931e-13,-0.99847,0,0,0.14286,-0,-0,0.66667
0.27434,0.58863,1.9204,0.13294,7.9565,189.78,-0.68078,0.22693,-1.9361,-0.90771,4.3721e-12,-0.96805,0,0,0.14286,1.6918e-16,0,0.66667
0.10843,0.35218,0.75902,-0.22172,-14.198,264.35,0.44878,-0.14959,-1.8267,0.59837,6.9971e-09,-0.91337,0,0,0.14286,-0,-0,0.66667
0.2609,0.33691,1.8263,-0.24463,-14.767,195.66,1.1914,-0.39713,-1.7865,1.5885,1.2882e-12,-0.89324,0,0,0.14286,-0,-0,0.66667
0.33415,0.77339,2.3391,0.41008,23.633,164.54,-2.5579,0.85263,-1.4008,-3.4105,3.6937e-12,-0.7004,0,0,0.14286,3.3835e-16,0,0.66667
0.46473,0.93001,3.2531,0.64502,32.942,113.56,-5.5955,1.8652,-0.52021,-7.4607,-7.7716e-14,-0.26011,0,0,0.14286,-3.3835e-16,0,0.66667
0.23436,0.72636,1.6405,0.33954,20.807,207.35,-1.4854,0.49512,-1.5926,-1.9805,-5.0541e-11,-0.79631,0,0,0.14286,-0,-0,0.66667
0.7275,0.094182,5.0925,-0.60873,-18.6,34.415,8.2666,-2.7555,-0.68227,11.022,5.0511e-12,-0.34113,0,0,0.14286,-0,-0,0.66667
0.80719,0.53525,5.6503,0.052868,1.1729,17.828,-0.7966,0.26553,-1.9895,-1.0621,1.0177e-10,-0.99476,0,0,0.14286,-0,-0,0.66667
0.79098,0.92435,5.5368,0.63652,15.464,21.659,-9.3982,3.1327,-0.55781,-12.531,-1.2544e-11,-0.2789,0,0,0.14286,-1.3534e-15,0,0.66667
0.71575,0.49834,5.0102,-0.0024972,-0.07811,36.27,0.033364,-0.011121,-2.001,0.044486,6.5621e-13,-1.0005,0,0,0.14286,1.6918e-16,0,0.66667
0.26964,0.72303,1.8875,0.33455,20.111,191.9,-1.6839,0.56129,-1.602,-2.2452,7.5973e-12,-0.801,0,0,0.14286,-0,-0,0.66667
0.21046,0.52258,1.4732,0.033873,2.0953,217.89,-0.13307,0.044357,-1.9944,-0.17743,-5.6964e-11,-0.99719,0,0,0.14286,3.3835e-16,0,0.66667
0.10913,0.33713,0.7639,-0.24431,-15.644,264.03,0.49767,-0.16589,-1.7902,0.66355,7.539e-09,-0.8951,0,0,0.14286,8.4588e-17,0,0.66667
0.39668,0.4187,2.7768,-0.12195,-6.6444,138.99,0.903,-0.301,-1.9455,1.204,1.1594e-12,-0.97275,0,0,0.14286,-0,-0,0.66667
0.087267,0.25741,0.61087,-0.36388,-23.43,274.17,0.59276,-0.19758,-1.5279,0.79034,1.9992e-08,-0.76395,0,0,0.14286,-0,-0,0.66667
0.65539,0.69228,4.5877,0.28842,10.606,51.659,-3.5285,1.1762,-1.7063,-4.7047,-2.1101e-12,-0.85316,0,0,0.14286,-1.3534e-15,0,0.66667
0.94983,0.2142,6.6488,-0.4287,-2.5715,2.1725,7.6008,-2.5336,-1.3469,10.134,1.8042e-08,-0.67343,0,0,0.14286,-1.4677e-15,0,0.66667
0.75563,0.7108,5.2894,0.31621,8.7114,27.743,-4.4602,1.4867,-1.6433,-5.9469,1.9501e-11,-0.82166,0,0,0.14286,-0,-0,0.66667
0.11689,0.275,0.81824,-0.33749,-21.591,260.47,0.7364,-0.24547,-1.5937,0.98187,9.3971e-09,-0.79687,0,0,0.14286,8.4588e-17,0,0.66667
0.020481,0.45033,0.14337,-0.074498,-4.8221,305.24,0.028482,-0.0094939,-1.979,0.037976,1.8748e-07,-0.9895,0,0,0.14286,-0,-0,0.66667
0.33489,0.45488,2.3442,-0.067687,-3.8871,164.06,0.42313,-0.14104,-1.9819,0.56417,5.4401e-15,-0.99095,0,0,0.14286,2.8012e-16,0,0.66667
0.99288,0.53825,6.9501,0.057381,0.01994,0.10397,-1.0635,0.35449,-1.9869,-1.418,8.1652e-07,-0.99347,0,0,0.14286,-0,-0,0.66667
0.31283,0.21314,2.1898,-0.43029,-25.193,173.48,2.5127,-0.83757,-1.3441,3.3503,-3.9606e-12,-0.67207,0,0,0.14286,5.0753e-16,0,0.66667
0.73751,0.49241,5.1626,-0.011388,-0.33269,31.357,0.15678,-0.05226,-1.9995,0.20904,-3.7152e-12,-0.99976,0,0,0.14286,-6.7671e-16,0,0.66667
0.71653,0.9375,5.0157,0.65624,20.772,37.048,-8.7774,2.9258,-0.47063,-11.703,-3.0678e-12,-0.23531,0,0,0.14286,1.7371e-15,0,0.66667
0.57256,0.67636,4.0079,0.26453,11.482,76.016,-2.8273,0.94242,-1.7498,-3.7697,-3.2063e-13,-0.87488,0,0,0.14286,6.7671e-16,0,0.66667
0.36765,0.69952,2.5735,0.29928,16.763,150.7,-2.0539,0.68462,-1.6797,-2.7385,2.1179e-12,-0.83987,0,0,0.14286,-6.7671e-16,0,0.66667
0.20827,0.14151,1.4579,-0.53773,-33.455,219.06,2.0905,-0.69683,-0.97047,2.7873,1.4732e-10,-0.48523,0,0,0.14286,3.3835e-16,0,0.66667
0.98,0.36891,6.86,-0.19664,-0.40194,0.49799,3.5972,-1.1991,-1.862,4.7963,3.4631e-08,-0.93101,0,0,0.14286,2.6104e-15,0,0.66667
0.065894,0.74339,0.46126,0.36508,23.586,284.09,-0.44906,0.14969,-1.526,-0.59875,-1.3633e-08,-0.76302,0,0,0.14286,-4.2294e-17,0,0.66667
0.23623,0.81295,1.6536,0.46942,28.791,206.6,-2.0699,0.68998,-1.2186,-2.7599,-1.9047e-12,-0.60928,0,0,0.14286,-6.7671e-16,0,0.66667
0.3089,0.77446,2.1623,0.41169,24.163,175.13,-2.3739,0.79129,-1.3972,-3.1652,7.7516e-12,-0.69858,0,0,0.14286,-3.3835e-16,0,0.66667
0.9095,0.47248,6.3665,-0.041282,-0.44206,4.5346,0.70086,-0.23362,-1.9944,0.93448,-5.0491e-08,-0.9972,0,0,0.14286,-0,-0,0.66667
0.71337,0.74036,4.9936,0.36054,11.406,37.114,-4.801,1.6003,-1.5366,-6.4014,-9.5621e-12,-0.76828,0,0,0.14286,-0,-0,0.66667
0.26537,0.87586,1.8576,0.56379,34.097,193.92,-2.7928,0.93094,-0.87319,-3.7237,2.196e-11,-0.43659,0,0,0.14286,-0,-0,0.66667
0.1645,0.15509,1.1515,-0.51737,-32.729,238.76,1.5887,-0.52956,-1.0479,2.1182,2.2913e-09,-0.52393,0,0,0.14286,-3.8065e-16,0,0.66667
0.8805,0.82132,6.1635,0.48199,6.9115,8.0924,-7.9219,2.6406,-1.1728,-10.563,7.0218e-09,-0.58639,0,0,0.14286,-0,-0,0.66667
0.79378,0.65352,5.5565,0.23028,5.4436,20.287,-3.4122,1.1374,-1.8122,-4.5495,2.7032e-10,-0.90609,0,0,0.14286,-2.7252e-16,0,0.66667
0.038387,0.32472,0.26871,-0.26292,-17.017,296.89,0.1884,-0.062799,-1.7524,0.25119,-6.7574e-08,-0.87622,0,0,0.14286,-0,-0,0.66667
0.8793,0.76816,6.1551,0.40224,5.7939,8.034,-6.6022,2.2007,-1.4237,-8.803,7.5715e-09,-0.71184,0,0,0.14286,-0,-0,0.66667
0.58794,0.79362,4.1156,0.44043,18.66,71.428,-4.8336,1.6112,-1.3088,-6.4448,1.2967e-13,-0.65438,0,0,0.14286,1.3534e-15,0,0.66667
0.45754,0.80761,3.2028,0.46142,23.668,115.93,-3.9408,1.3136,-1.2427,-5.2545,-3.8791e-13,-0.62133,0,0,0.14286,6.7671e-16,0,0.66667
0.67385,0.025757,4.717,-0.71136,-25.331,47.654,8.948,-2.9827,-0.20179,11.931,2.0517e-13,-0.1009,0,0,0.14286,6.7671e-16,0,0.66667
0.039443,0.69116,0.2761,0.28674,18.562,296.4,-0.21111,0.070372,-1.7068,-0.28149,6.7207e-08,-0.85339,0,0,0.14286,-0,-0,0.66667
0.33032,0.82292,2.3122,0.48437,28.028,166.2,-2.9867,0.99555,-1.1662,-3.9822,3.9135e-12,-0.58308,0,0,0.14286,-0,-0,0.66667
0.088048,0.50142,0.61634,0.0021283,0.13673,273.77,-0.0034981,0.0011661,-1.9998,-0.004664,1.6649e-07,-0.99989,0,0,0.14286,-0,-0,0.66667
0.68364,0.18775,4.7855,-0.46838,-16.132,44.549,5.977,-1.9923,-1.2208,7.9694,6.148e-12,-0.61039,0,0,0.14286,-2.7068e-15,0,0.66667
0.39801,0.78264,2.7861,0.42395,23.142,138.67,-3.1498,1.0499,-1.3605,-4.1997,3.8796e-12,-0.68023,0,0,0.14286,-1.3534e-15,0,0.66667
0.47895,0.36755,3.3527,-0.19868,-9.8948,107.82,1.7763,-0.59208,-1.8586,2.3683,-9.9032e-14,-0.9293,0,0,0.14286,3.3835e-16,0,0.66667
0.2898,0.83643,2.0286,0.50465,30.04,183.33,-2.73,0.90999,-1.0931,-3.64,4.8841e-12,-0.54657,0,0,0.14286,6.7913e-16,0,0.66667
0.78829,0.78435,5.5181,0.42652,10.382,21.596,-6.2762,2.0921,-1.3524,-8.3683,1.1198e-10,-0.6762,0,0,0.14286,2.7068e-15,0,0.66667
0.046513,0.38134,0.32559,-0.17799,-11.506,293.09,0.15454,-0.051512,-1.8897,0.20605,-1.3585e-08,-0.94484,0,0,0.14286,-0,-0,0.66667
0.28113,0.51985,1.9679,0.029777,1.7744,186.84,-0.15626,0.052087,-1.9989,-0.20835,1.7283e-12,-0.99947,0,0,0.14286,-0,-0,0.66667
0.5906,0.81796,4.1342,0.47693,20.125,70.671,-5.2579,1.7526,-1.1915,-7.0106,-5.2847e-14,-0.59574,0,0,0.14286,1.3534e-15,0,0.66667
0.79013,0.95734,5.5309,0.686,16.773,21.972,-10.118,3.3727,-0.32505,-13.491,1.1317e-10,-0.16253,0,0,0.14286,-1.3534e-15,0,0.66667
0.6016,0.47447,4.2112,-0.038298,-1.5743,66.903,0.43008,-0.14336,-1.9936,0.57345,6.3222e-13,-0.99679,0,0,0.14286,-0,-0,0.66667
0.73049,0.70496,5.1134,0.30744,9.2188,33.122,-4.1922,1.3974,-1.6631,-5.5897,-6.6809e-12,-0.83153,0,0,0.14286,-0,-0,0.66667
0.023528,0.064396,0.1647,-0.65341,-42.574,303.85,0.28697,-0.095659,-0.48141,0.38262,-5.0861e-06,-0.2407,0,0,0.14286,-0,-0,0.66667
0.25492,0.46422,1.7845,-0.053665,-3.2471,198.22,0.25537,-0.085124,-1.9893,0.34049,5.8381e-12,-0.99463,0,0,0.14286,-0,-0,0.66667
0.042092,0.78866,0.29464,0.43298,28.07,295.17,-0.3402,0.1134,-1.3326,-0.4536,3.9471e-08,-0.6663,0,0,0.14286,-0,-0,0.66667
0.50001,0.50244,3.5001,0.0036639,0.17739,100.23,-0.034197,0.011399,-2.0032,-0.045596,-8.1608e-13,-1.0016,0,0,0.14286,-0,-0,0.66667
0.98914,0.90718,6.924,0.61078,0.74197,1.3094,-11.277,3.7591,-0.67382,-15.036,4.8094e-06,-0.33691,0,0,0.14286,-2.7068e-15,0,0.66667
0.013531,0.76749,0.094714,0.40124,26.042,308.49,-0.10134,0.03378,-1.4278,-0.13512,-4.3495e-08,-0.71392,0,0,0.14286,-1.6023e-17,0,0.66667
0.44088,0.33311,3.0862,-0.25033,-13.046,121.95,2.0601,-0.68671,-1.7768,2.7468,3.2352e-13,-0.88838,0,0,0.14286,-0,-0,0.66667
0.0047864,0.10515,0.033505,-0.59228,-38.564,312.57,0.052917,-0.017637,-0.75157,0.070556,2.1308e-06,-0.37578,0,0,0.14286,-0,-0,0.66667
0.61289,0.027611,4.2902,-0.70858,-28.86,64.487,8.1066,-2.7022,-0.2151,10.809,-6.3416e-13,-0.10755,0,0,0.14286,-6.7671e-16,0,0.66667
0.18336,0.69746,1.2835,0.29619,18.555,230.12,-1.0138,0.33793,-1.6873,-1.3517,-7.7616e-10,-0.84364,0,0,0.14286,-0,-0,0.66667
0.71274,0.82461,4.9892,0.48692,15.487,37.499,-6.4782,2.1594,-1.1554,-8.6376,-7.9403e-12,-0.57771,0,0,0.14286,-0,-0,0.66667
0.15965,0.53158,1.1175,0.047376,2.9888,240.83,-0.14119,0.047062,-1.993,-0.18825,-6.7496e-10,-0.99652,0,0,0.14286,-0,-0,0.66667
0.82858,0.085825,5.8,-0.62126,-12.609,15.366,9.6089,-3.203,-0.62973,12.812,-2.6326e-09,-0.31487,0,0,0.14286,-1.3534e-15,0,0.66667
0.20618,0.40713,1.4432,-0.1393,-8.6358,219.82,0.53613,-0.17871,-1.9321,0.71484,1.9258e-10,-0.96605,0,0,0.14286,-0,-0,0.66667
0.35222,0.51707,2.4655,0.025604,1.4504,156.89,-0.16834,0.056113,-1.9958,-0.22445,3.956e-13,-0.99791,0,0,0.14286,1.3534e-15,0,0.66667
0.23058,0.27093,1.614,-0.34361,-21.097,209.02,1.4789,-0.49298,-1.5796,1.9719,6.4615e-11,-0.78978,0,0,0.14286,-0,-0,0.66667
0.80768,0.74374,5.6538,0.3656,8.1413,18.073,-5.5121,1.8374,-1.524,-7.3495,4.9074e-10,-0.76202,0,0,0.14286,-6.7671e-16,0,0.66667
0.49027,0.032144,3.4319,-0.70178,-34.778,104.44,6.4225,-2.1408,-0.24875,8.5634,2.6721e-12,-0.12437,0,0,0.14286,-1.3534e-15,0,0.66667
0.87383,0.81098,6.1168,0.46648,7.0382,8.8164,-7.6089,2.5363,-1.2287,-10.145,7.5195e-09,-0.61435,0,0,0.14286,-1.6918e-16,0,0.66667
0.13009,0.090971,0.9106,-0.61354,-39.288,254.51,1.4899,-0.49662,-0.6613,1.9865,8.9209e-09,-0.33065,0,0,0.14286,-4.2294e-17,0,0.66667
0.49896,0.47162,3.4927,-0.042576,-2.0644,100.61,0.39655,-0.13218,-1.9958,0.52873,-7.1637e-14,-0.9979,0,0,0.14286,-0,-0,0.66667
0.77661,0.80209,5.4363,0.45314,11.581,23.834,-6.569,2.1897,-1.2689,-8.7587,4.9623e-11,-0.63444,0,0,0.14286,-0,-0,0.66667
0.98121,0.96932,6.8685,0.70397,1.6633,1.8596,-12.894,4.298,-0.23901,-17.192,-5.9547e-06,-0.1195,0,0,0.14286,-0,-0,0.66667
0.67338,0.02095,4.7136,-0.71858,-25.625,47.798,9.0323,-3.0108,-0.16499,12.043,1.1209e-12,-0.082495,0,0,0.14286,-1.3534e-15,0,0.66667
0.183,0.38086,1.281,-0.1787,-11.186,230.25,0.61046,-0.20349,-1.8859,0.81395,5.5587e-10,-0.94297,0,0,0.14286,-0,-0,0.66667
0.75977,0.56098,5.3184,0.091473,2.4739,26.681,-1.2973,0.43244,-1.97,-1.7297,1.5929e-11,-0.985,0,0,0.14286,-1.6918e-15,0,0.66667
0.074635,0.33789,0.52245,-0.24317,-15.672,280.01,0.33878,-0.11293,-1.7897,0.45171,-3.3802e-09,-0.89487,0,0,0.14286,-0,-0,0.66667
0.76277,0.55075,5.3394,0.076118,2.0357,26.068,-1.0838,0.36126,-1.9792,-1.4451,2.3253e-11,-0.98961,0,0,0.14286,-0,-0,0.66667
0.82782,0.7945,5.7947,0.44176,8.915,14.991,-6.8263,2.2754,-1.308,-9.1017,1.0479e-09,-0.65398,0,0,0.14286,1.3534e-15,0,0.66667
0.55921,0.024074,3.9145,-0.71389,-32.016,81.06,7.452,-2.484,-0.18789,9.936,1.1577e-12,-0.093945,0,0,0.14286,-6.7671e-16,0,0.66667
0.49272,0.55737,3.449,0.086054,4.2078,102.83,-0.79148,0.26383,-1.9726,-1.0553,1.575e-12,-0.98628,0,0,0.14286,-1.0151e-15,0,0.66667
0.93653,0.075036,6.5557,-0.63745,-5.0158,3.6169,11.144,-3.7146,-0.55647,14.858,-1.7218e-09,-0.27824,0,0,0.14286,-1.3534e-15,0,0.66667
9.6951e-05,0.66354,0.00067865,0.2453,15.899,314.76,-0.00044391,0.00014788,-1.7885,-0.00059192,-1.3798e-07,-0.89426,0,0,0.14286,-0,-4.4095e-16,0.66667
0.0095669,0.8698,0.066968,0.55471,36.091,310.34,-0.09906,0.03302,-0.90502,-0.13208,-7.0127e-07,-0.45251,0,0,0.14286,-1.586e-17,0,0.66667
0.25195,0.53254,1.7637,0.048806,2.9579,199.52,-0.22954,0.076513,-1.9933,-0.30605,3.7112e-13,-0.99666,0,0,0.14286,-6.7671e-16,0,0.66667
0.50568,0.16472,3.5397,-0.50291,-24.294,98.638,4.7471,-1.5824,-1.0995,6.3295,-3.5572e-13,-0.54974,0,0,0.14286,-0,-0,0.66667
0.54042,0.17315,3.7829,-0.49027,-22.513,86.76,4.9458,-1.6486,-1.1436,6.5944,4.5386e-13,-0.57179,0,0,0.14286,6.7671e-16,0,0.66667
0.37129,0.02789,2.599,-0.70817,-39.844,149.7,4.9081,-1.636,-0.21715,6.5442,1.7741e-12,-0.10858,0,0,0.14286,-3.3835e-16,-6.4941e-17,0.66667
0.29271,0.66384,2.049,0.24577,14.553,181.91,-1.3429,0.44762,-1.7847,-1.7905,1.1276e-11,-0.89233,0,0,0.14286,-6.7671e-16,0,0.66667
0.20237,0.94452,1.4166,0.66678,41.697,221.79,-2.5188,0.83959,-0.42109,-3.3584,2.5216e-10,-0.21055,0,0,0.14286,-0,-0,0.66667
0.80028,0.0095423,5.602,-0.73569,-17.265,20.355,10.99,-3.6634,-0.075238,14.653,2.5705e-10,-0.037619,0,0,0.14286,-0,-0,0.66667
0.31592,0.62313,2.2115,0.18469,10.761,172.03,-1.0892,0.36305,-1.8794,-1.4522,6.7047e-12,-0.9397,0,0,0.14286,1.6918e-16,0,0.66667
0.49247,0.70933,3.4473,0.31399,15.388,103.06,-2.8864,0.96215,-1.6478,-3.8486,-6.4948e-13,-0.82391,0,0,0.14286,-0,-0,0.66667
0.81129,0.57736,5.679,0.11603,2.5251,17.167,-1.7572,0.58574,-1.9531,-2.3429,3.9683e-10,-0.97654,0,0,0.14286,1.3534e-15,0,0.66667
0.61236,0.76847,4.2865,0.40271,16.277,63.995,-4.6032,1.5344,-1.4231,-6.1376,-5.0804e-13,-0.71153,0,0,0.14286,-0,-0,0.66667
0.40861,0.58763,2.8603,0.13144,7.0795,134.31,-1.0026,0.33419,-1.9392,-1.3367,8.0158e-14,-0.96962,0,0,0.14286,3.3835e-16,0,0.66667
0.1769,0.2461,1.2383,-0.38085,-23.938,233.07,1.2576,-0.41921,-1.4839,1.6768,1.0051e-09,-0.74193,0,0,0.14286,8.4588e-17,0,0.66667
0.39765,0.54835,2.7836,0.072522,3.947,138.59,-0.53832,0.17944,-1.9795,-0.71776,-1.6414e-12,-0.98973,0,0,0.14286,-0,-0,0.66667
0.48521,0.072983,3.3965,-0.64053,-31.894,106.12,5.8014,-1.9338,-0.54272,7.7352,1.5965e-12,-0.27136,0,0,0.14286,-1.3534e-15,0,0.66667
0.99058,0.50395,6.9341,0.005929,0.0037971,0.13388,-0.10963,0.036549,-1.9991,-0.14617,7.939e-06,-0.99955,0,0,0.14286,-0,-0,0.66667
0.2842,0.34423,1.9894,-0.23366,-13.91,185.56,1.2396,-0.41319,-1.8071,1.6528,-4.6138e-12,-0.90357,0,0,0.14286,-0,-0,0.66667
0.16564,0.37379,1.1595,-0.18931,-11.926,238.12,0.58535,-0.19512,-1.8723,0.78046,1.8243e-09,-0.93614,0,0,0.14286,3.3835e-16,0,0.66667
0.22058,0.77582,1.544,0.41373,25.547,213.49,-1.7035,0.56784,-1.3926,-2.2713,-8.7569e-11,-0.69628,0,0,0.14286,3.3835e-16,0,0.66667
0.21147,0.9348,1.4803,0.65219,40.612,217.72,-2.5745,0.85816,-0.4869,-3.4326,-5.0576e-11,-0.24345,0,0,0.14286,5.0753e-16,0,0.66667
0.076048,0.51227,0.53233,0.018412,1.1853,279.34,-0.026137,0.0087124,-1.9991,-0.03485,-1.7092e-07,-0.99956,0,0,0.14286,-0,-0,0.66667
0.36491,0.34747,2.5544,-0.22879,-12.836,151.77,1.5584,-0.51947,-1.8133,2.0779,4.2522e-14,-0.90666,0,0,0.14286,-0,-0,0.66667
0.28473,0.46319,1.9931,-0.055211,-3.2826,185.29,0.29345,-0.097816,-1.9892,0.39126,-7.718e-13,-0.9946,0,0,0.14286,3.3835e-16,0,0.66667
0.88759,0.059514,6.2131,-0.66073,-9.0733,7.8827,10.947,-3.6491,-0.44849,14.596,2.6816e-08,-0.22424,0,0,0.14286,6.7671e-16,0,0.66667
0.78026,0.49029,5.4618,-0.014563,-0.36371,22.645,0.21211,-0.070704,-2.0006,0.28281,6.3073e-12,-1.0003,0,0,0.14286,-6.7671e-16,0,0.66667
0.10906,0.92227,0.76345,0.63341,40.785,264.18,-1.2895,0.42985,-0.57526,-1.7194,3.3048e-08,-0.28763,0,0,0.14286,1.6918e-16,-1.6907e-16,0.66667
0.8505,0.95279,5.9535,0.67918,12.204,12.415,-10.783,3.5942,-0.35805,-14.377,7.857e-09,-0.17902,0,0,0.14286,-0,-0,0.66667
0.1096,0.88191,0.76719,0.57287,36.839,263.91,-1.172,0.39067,-0.83554,-1.5627,4.4569e-09,-0.41777,0,0,0.14286,3.3835e-16,0,0.66667
0.72021,0.23833,5.0415,-0.39251,-12.176,35.582,5.2769,-1.759,-1.4531,7.0358,9.1425e-12,-0.72653,0,0,0.14286,6.7671e-16,0,0.66667
0.57282,0.33338,4.0098,-0.24993,-10.841,75.918,2.6725,-0.89082,-1.7766,3.5633,-3.4595e-13,-0.8883,0,0,0.14286,6.7671e-16,0,0.66667
0.086808,0.87481,0.60766,0.56221,36.311,274.43,-0.91102,0.30367,-0.87597,-1.2147,-7.7079e-08,-0.43799,0,0,0.14286,1.1895e-17,0,0.66667
0.90533,0.45149,6.3373,-0.072758,-0.8154,4.9234,1.2296,-0.40986,-1.9824,1.6394,2.0406e-09,-0.9912,0,0,0.14286,-0,-0,0.66667
0.87457,0.84426,6.122,0.51639,7.7743,8.864,-8.4301,2.81,-1.0552,-11.24,-2.8641e-10,-0.52758,0,0,0.14286,-0,-0,0.66667
0.84385,0.23736,5.907,-0.39396,-7.2442,12.526,6.2057,-2.0686,-1.4502,8.2742,-2.3264e-09,-0.7251,0,0,0.14286,-0,-0,0.66667
0.36957,0.5191,2.587,0.028647,1.5993,149.82,-0.19762,0.065875,-1.9956,-0.2635,2.5255e-13,-0.99782,0,0,0.14286,-0,-0,0.66667
0.22295,0.43047,1.5607,-0.10429,-6.4151,212.33,0.43402,-0.14467,-1.9608,0.57869,7.2647e-11,-0.9804,0,0,0.14286,3.3835e-16,0,0.66667
0.99711,0.50527,6.9798,0.0079011,-0.001636,0.032675,-0.14706,0.048995,-2.0002,-0.19609,-3.7913e-05,-1.0001,0,0,0.14286,-0,-0,0.66667
0.81734,0.080668,5.7214,-0.629,-13.533,17.147,9.5966,-3.1989,-0.59201,12.795,5.1698e-10,-0.29601,0,0,0.14286,-1.3534e-15,0,0.66667
0.042128,0.96095,0.2949,0.69142,45.032,295.2,-0.54373,0.18124,-0.29935,-0.72498,-1.1951e-05,-0.14967,0,0,0.14286,-4.2294e-17,0,0.66667
0.37328,0.13563,2.6129,-0.54655,-30.583,148.67,3.8083,-1.2694,-0.9386,5.0777,1.5292e-12,-0.4693,0,0,0.14286,-0,-0,0.66667
0.81219,0.50778,5.6853,0.011666,0.25259,16.985,-0.17686,0.058953,-2.0017,-0.23581,-1.442e-10,-1.0009,0,0,0.14286,-0,-0,0.66667
0.52838,0.49377,3.6987,-0.0093479,-0.43476,90.407,0.0922,-0.030733,-2,0.12293,1.0583e-12,-1,0,0,0.14286,-0,-0,0.66667
0.24713,0.68265,1.7299,0.27397,16.668,201.69,-1.2638,0.42128,-1.7336,-1.6851,-1.4372e-11,-0.86682,0,0,0.14286,-3.3835e-16,0,0.66667
0.79289,0.23283,5.5502,-0.40076,-9.5555,20.713,5.9315,-1.9772,-1.428,7.9086,-2.0818e-10,-0.71401,0,0,0.14286,-0,-0,0.66667
0.26175,0.72137,1.8323,0.33205,20.052,195.33,-1.6224,0.54081,-1.6083,-2.1632,4.5057e-12,-0.80413,0,0,0.14286,-6.7671e-16,0,0.66667
0.00039838,0.38209,0.0027887,-0.17686,-11.457,314.62,0.0013151,-0.0004383,-1.891,0.0017535,8.5074e-08,-0.94549,0,0,0.14286,-0,-0,0.66667
0.23132,0.81532,1.6192,0.47298,29.081,208.77,-2.0423,0.68076,-1.2053,-2.723,1.6306e-11,-0.60267,0,0,0.14286,6.7671e-16,0,0.66667
0.99337,0.47712,6.9536,-0.034323,-0.0096592,0.089451,0.63645,-0.21215,-1.9944,0.8486,6.2016e-07,-0.99719,0,0,0.14286,-0,-0,0.66667
0.6562,0.28182,4.5934,-0.32727,-12.02,51.489,4.0088,-1.3363,-1.6228,5.345,4.5439e-12,-0.8114,0,0,0.14286,-2.7068e-15,0,0.66667
0.22067,0.98312,1.5447,0.72468,45.012,213.7,-2.985,0.99501,-0.13317,-3.9801,-5.3562e-11,-0.066583,0,0,0.14286,-0,-0,0.66667
0.68614,0.8728,4.803,0.55921,19.19,44.118,-7.1623,2.3874,-0.89022,-9.5497,-3.5918e-12,-0.44511,0,0,0.14286,2.0301e-15,-1.4624e-16,0.66667
0.68694,0.31488,4.8086,-0.27768,-9.4412,43.414,3.5606,-1.1869,-1.7286,4.7475,7.8422e-12,-0.8643,0,0,0.14286,-2.7068e-15,0,0.66667
0.64074,0.58544,4.4852,0.12817,4.8632,55.553,-1.5329,0.51098,-1.9439,-2.0439,-3.4084e-13,-0.97197,0,0,0.14286,-6.7671e-16,0,0.66667
0.070549,0.94505,0.49384,0.66758,43.317,281.99,-0.87914,0.29305,-0.41397,-1.1722,-1.8843e-07,-0.20698,0,0,0.14286,-0,-0,0.66667
0.24296,0.21133,1.7007,-0.43301,-26.452,203.61,1.9638,-0.65461,-1.332,2.6185,1.3287e-11,-0.66598,0,0,0.14286,-0,-0,0.66667
0.87084,0.17019,6.0959,-0.49472,-7.6473,9.2452,8.042,-2.6807,-1.1288,10.723,-6.3031e-09,-0.56439,0,0,0.14286,-0,-0,0.66667
0.73474,0.14917,5.1432,-0.52624,-15.665,32.597,7.2175,-2.4058,-1.0176,9.6233,-1.5095e-12,-0.5088,0,0,0.14286,6.7671e-16,0,0.66667
0.16782,0.72634,1.1747,0.33951,21.399,237.17,-1.0635,0.35451,-1.5896,-1.418,-1.5228e-09,-0.79482,0,0,0.14286,-0,-0,0.66667
0.29859,0.30533,2.0901,-0.29201,-17.233,179.43,1.6276,-0.54252,-1.6978,2.1701,-4.815e-12,-0.84892,0,0,0.14286,-0,-0,0.66667
0.56272,0.36168,3.9391,-0.20748,-9.1511,79.113,2.1794,-0.72646,-1.8488,2.9058,2.1783e-13,-0.92442,0,0,0.14286,-6.7671e-16,0,0.66667
0.82645,0.99167,5.7851,0.73751,15.26,16.098,-11.378,3.7925,-0.066982,-15.17,-9.8582e-11,-0.033491,0,0,0.14286,-3.7471e-16,0,0.66667
0.20052,0.16403,1.4036,-0.50395,-31.44,222.5,1.8863,-0.62876,-1.0973,2.515,4.1627e-10,-0.54865,0,0,0.14286,-0,-0,0.66667
0.10167,0.99874,0.71166,0.74812,48.37,267.64,-1.4197,0.47325,-0.0095841,-1.893,5.6195e-08,-0.004792,0,0,0.14286,-5.0753e-16,0,0.66667
0.38187,0.53458,2.6731,0.051867,2.8644,144.87,-0.36972,0.12324,-1.9897,-0.49296,5.4335e-12,-0.99483,0,0,0.14286,1.3534e-15,0,0.66667
0.91235,0.24369,6.3865,-0.38447,-4.0448,4.6993,6.5477,-2.1826,-1.4733,8.7303,-2.0429e-08,-0.73667,0,0,0.14286,1.3534e-15,0,0.66667
0.26051,0.52966,1.8236,0.044484,2.6832,195.78,-0.21632,0.072107,-1.9929,-0.28843,6.5193e-12,-0.99646,0,0,0.14286,4.2294e-16,0,0.66667
0.1083,0.56559,0.75813,0.098388,6.2962,264.4,-0.19891,0.066303,-1.9678,-0.26521,-1.758e-08,-0.98388,0,0,0.14286,-0,-0,0.66667
0.055943,0.15873,0.3916,-0.51191,-33.181,288.74,0.53457,-0.17819,-1.0677,0.71276,-2.0456e-08,-0.53384,0,0,0.14286,-0,-0,0.66667
0.35167,0.32482,2.4617,-0.26277,-14.91,157.19,1.725,-0.57499,-1.7527,2.3,3.697e-14,-0.87634,0,0,0.14286,-0,-0,0.66667
0.037627,0.37532,0.26339,-0.18702,-12.099,297.24,0.13136,-0.043786,-1.8755,0.17514,-2.0835e-09,-0.93776,0,0,0.14286,-0,-0,0.66667
0.58303,0.57185,4.0812,0.10778,4.5865,72.617,-1.173,0.39101,-1.9576,-1.564,2.2093e-14,-0.97881,0,0,0.14286,-1.3534e-15,0,0.66667
0.67256,0.39057,4.7079,-0.16415,-5.7822,46.986,2.0608,-0.68693,-1.9056,2.7477,4.2439e-12,-0.95281,0,0,0.14286,-1.3534e-15,0,0.66667
0.46048,0.89103,3.2234,0.58654,30.062,115.02,-5.0417,1.6806,-0.77489,-6.7223,5.9508e-14,-0.38745,0,0,0.14286,-0,-0,0.66667
0.74112,0.92567,5.1878,0.6385,18.701,31.513,-8.8332,2.9444,-0.54873,-11.778,3.5874e-12,-0.27436,0,0,0.14286,6.7671e-16,0,0.66667
0.50102,0.1426,3.5072,-0.53611,-26.08,100.32,5.0139,-1.6713,-0.97924,6.6852,4.5386e-13,-0.48962,0,0,0.14286,6.7671e-16,0,0.66667
0.70235,0.51993,4.9165,0.029896,0.97229,39.451,-0.39196,0.13065,-1.9983,-0.52261,-6.114e-13,-0.99915,0,0,0.14286,-1.3534e-15,0,0.66667
0.23064,0.34984,1.6145,-0.22524,-13.813,208.95,0.96973,-0.32324,-1.8194,1.293,6.4813e-11,-0.90972,0,0,0.14286,-0,-0,0.66667
0.74461,0.047222,5.2123,-0.67917,-19.699,30.89,9.44,-3.1467,-0.35842,12.587,2.4283e-12,-0.17921,0,0,0.14286,1.3534e-15,0,0.66667
0.50164,0.77911,3.5115,0.41867,20.302,99.932,-3.9203,1.3068,-1.3786,-5.2271,-9.5923e-13,-0.68932,0,0,0.14286,8.4588e-16,0,0.66667
0.70537,0.68015,4.9376,0.27022,8.7335,38.883,-3.558,1.186,-1.741,-4.744,-8.2074e-12,-0.87049,0,0,0.14286,-0,-0,0.66667
0.4467,0.08029,3.1269,-0.62956,-32.816,120.22,5.2495,-1.7498,-0.58901,6.9994,1.219e-12,-0.2945,0,0,0.14286,-0,-0,0.66667
0.50594,0.34805,3.5416,-0.22793,-10.959,98.229,2.1526,-0.71754,-1.8145,2.8702,-4.0323e-13,-0.90725,0,0,0.14286,-0,-0,0.66667
0.041535,0.68024,0.29075,0.27035,17.495,295.42,-0.20961,0.069871,-1.7391,-0.27948,6.2681e-08,-0.86956,0,0,0.14286,-4.2294e-17,0,0.66667
0.48931,0.53802,3.4252,0.057029,2.8008,104.04,-0.52089,0.17363,-1.9876,-0.69453,-4.5436e-13,-0.99381,0,0,0.14286,-0,-0,0.66667
0.14229,0.87903,0.99601,0.56854,36.252,248.9,-1.5101,0.50336,-0.85221,-2.0134,9.9957e-10,-0.42611,0,0,0.14286,3.3835e-16,0,0.66667
0.1425,0.33311,0.99747,-0.25034,-15.894,248.69,0.66588,-0.22196,-1.7778,0.88784,3.6979e-09,-0.88888,0,0,0.14286,1.6918e-16,0,0.66667
0.43335,0.40162,3.0335,-0.14758,-7.7482,124.76,1.1938,-0.39792,-1.9224,1.5917,-1.5373e-12,-0.96119,0,0,0.14286,8.4588e-16,0,0.66667
0.57621,0.92844,4.0335,0.64267,27.947,75.475,-6.9125,2.3042,-0.53217,-9.2167,2.3448e-13,-0.26608,0,0,0.14286,-0,-0,0.66667
0.34305,0.49925,2.4013,-0.0011251,-0.0642,160.67,0.0072048,-0.0024016,-2.0029,0.0096064,-1.0836e-12,-1.0015,0,0,0.14286,2.1993e-15,0,0.66667
0.16049,0.33873,1.1234,-0.2419,-15.271,240.48,0.7247,-0.24157,-1.7917,0.96626,1.8908e-09,-0.89583,0,0,0.14286,-1.6918e-16,0,0.66667
0.74141,0.77551,5.1899,0.41326,11.99,30.903,-5.7194,1.9065,-1.3916,-7.6258,2.2089e-12,-0.6958,0,0,0.14286,-3.3835e-16,0,0.66667
0.96309,0.98507,6.7416,0.72761,3.4193,2.5676,-13.081,4.3602,-0.11606,-17.441,3.6983e-06,-0.05803,0,0,0.14286,-1.3534e-15,0,0.66667
0.73364,0.45643,5.1355,-0.065352,-1.9338,32.217,0.89498,-0.29833,-1.9863,1.1933,-1.4877e-13,-0.99313,0,0,0.14286,1.3534e-15,0,0.66667
0.077064,0.52718,0.53945,0.040764,2.6238,278.87,-0.058641,0.019547,-1.9961,-0.078188,8.8277e-08,-0.99805,0,0,0.14286,-0,-0,0.66667
0.84091,0.1331,5.8864,-0.55035,-10.382,13.331,8.6387,-2.8796,-0.92321,11.518,-8.7538e-10,-0.4616,0,0,0.14286,-0,-0,0.66667
0.067514,0.3904,0.4726,-0.1644,-10.601,283.31,0.20719,-0.069064,-1.9025,0.27626,-1.9367e-08,-0.95126,0,0,0.14286,8.4588e-17,0,0.66667
0.43631,0.89494,3.0542,0.5924,31.206,124.08,-4.8248,1.6083,-0.7533,-6.4331,-3.6016e-13,-0.37665,0,0,0.14286,6.7671e-16,0,0.66667
0.92886,0.65588,6.502,0.23382,1.973,3.1229,-4.0541,1.3514,-1.8054,-5.4055,-9.6956e-09,-0.90269,0,0,0.14286,-1.8609e-15,0,0.66667
0.26318,0.68553,1.8423,0.2783,16.783,194.68,-1.3672,0.45573,-1.7259,-1.8229,2.1263e-12,-0.86296,0,0,0.14286,1.2688e-16,0,0.66667
0.12795,0.10336,0.89567,-0.59497,-38.106,255.48,1.4211,-0.47368,-0.74128,1.8947,4.0116e-09,-0.37064,0,0,0.14286,-0,-0,0.66667
0.76224,0.22871,5.3357,-0.40693,-10.972,26.555,5.79,-1.93,-1.4108,7.7199,-2.5364e-11,-0.70542,0,0,0.14286,-0,-0,0.66667
0.92861,0.36518,6.5003,-0.20223,-1.7098,3.1016,3.5055,-1.1685,-1.853,4.6739,-7.6375e-09,-0.9265,0,0,0.14286,1.3534e-15,0,0.66667
0.32577,0.24551,2.2804,-0.38174,-22.128,168.01,2.3213,-0.77378,-1.4828,3.0951,-3.6444e-12,-0.74139,0,0,0.14286,5.0753e-16,0,0.66667
0.23246,0.2141,1.6272,-0.42885,-26.336,208.24,1.8609,-0.62029,-1.3473,2.4811,6.0668e-11,-0.67366,0,0,0.14286,-1.6918e-16,0,0.66667
0.18249,0.7706,1.2774,0.40591,25.469,230.56,-1.3827,0.46089,-1.413,-1.8436,-5.9771e-10,-0.70649,0,0,0.14286,-0,-0,0.66667
0.96324,0.61619,6.7426,0.17428,0.72567,1.0662,-3.1337,1.0446,-1.8908,-4.1782,-4.4819e-08,-0.94539,0,0,0.14286,-0,-0,0.66667
0.57663,0.98105,4.0364,0.72157,31.436,75.536,-7.7669,2.589,-0.14954,-10.356,2.9887e-13,-0.07477,0,0,0.14286,-0,-0,0.66667
0.86009,0.31223,6.0206,-0.28165,-4.6477,10.135,4.5219,-1.5073,-1.721,6.0292,-4.5815e-09,-0.8605,0,0,0.14286,6.3441e-16,0,0.66667
0.30834,0.77585,2.1584,0.41378,24.295,175.36,-2.3816,0.79388,-1.3909,-3.1755,8.1357e-12,-0.69547,0,0,0.14286,3.3835e-16,0,0.66667
0.056436,0.24122,0.39506,-0.38818,-25.114,288.49,0.40894,-0.13631,-1.4629,0.54525,-6.9774e-09,-0.73144,0,0,0.14286,8.4588e-17,0,0.66667
0.4538,0.85581,3.1766,0.53372,27.535,117.41,-4.5211,1.507,-0.98869,-6.0282,2.6468e-13,-0.49435,0,0,0.14286,-0,-0,0.66667
0.20711,0.3319,1.4498,-0.25215,-15.637,219.43,0.97482,-0.32494,-1.7731,1.2998,2.7827e-10,-0.88655,0,0,0.14286,-0,-0,0.66667
0.51898,0.38886,3.6329,-0.16671,-7.8656,93.665,1.615,-0.53834,-1.9006,2.1534,8.6042e-14,-0.9503,0,0,0.14286,-0,-0,0.66667
0.53799,0.30862,3.7659,-0.28707,-13.184,87.306,2.8828,-0.96095,-1.7061,3.8438,-1.1562e-12,-0.85307,0,0,0.14286,1.1743e-15,0,0.66667
0.29429,0.54457,2.06,0.066859,3.9511,181.19,-0.36728,0.12243,-1.984,-0.48971,4.1133e-12,-0.99201,0,0,0.14286,-0,-0,0.66667
0.30745,0.34045,2.1522,-0.23933,-14.033,175.63,1.3735,-0.45785,-1.796,1.8314,-4.5487e-12,-0.898,0,0,0.14286,9.1025e-17,0,0.66667
0.024174,0.36262,0.16922,-0.20608,-13.345,303.52,0.09299,-0.030997,-1.8472,0.12399,-5.4132e-08,-0.92361,0,0,0.14286,-4.2294e-17,0,0.66667
0.4204,0.86712,2.9428,0.55069,29.471,130.1,-4.3215,1.4405,-0.9229,-5.762,6.8834e-14,-0.46145,0,0,0.14286,-3.3835e-16,0,0.66667
0.32369,0.11956,2.2658,-0.57066,-33.237,169.06,3.448,-1.1493,-0.8417,4.5974,-5.802e-13,-0.42085,0,0,0.14286,-1.6918e-16,0,0.66667
0.61949,0.2447,4.3364,-0.38296,-15.253,61.874,4.4284,-1.4761,-1.4778,5.9046,1.4202e-12,-0.73888,0,0,0.14286,-1.0151e-15,0,0.66667
0.85976,0.64633,6.0183,0.2195,3.623,10.093,-3.5227,1.1742,-1.8306,-4.6969,3.5013e-09,-0.91531,0,0,0.14286,1.3534e-15,0,0.66667
0.49264,0.092421,3.4485,-0.61137,-30.129,103.42,5.6221,-1.874,-0.67058,7.4962,1.9185e-12,-0.33529,0,0,0.14286,7.613e-16,0,0.66667
0.082708,0.71921,0.57896,0.32881,21.181,276.27,-0.50765,0.16922,-1.616,-0.67687,-1.5906e-08,-0.80799,0,0,0.14286,3.3835e-16,0,0.66667
0.93348,0.034588,6.5344,-0.69812,-5.8117,4.0538,12.165,-4.0549,-0.26723,16.22,-1.7259e-07,-0.13362,0,0,0.14286,2.7068e-15,-6.6494e-17,0.66667
0.80833,0.59907,5.6583,0.1486,3.2818,17.685,-2.2422,0.74741,-1.9212,-2.9896,3.8953e-10,-0.9606,0,0,0.14286,-0,-0,0.66667
0.36552,0.88209,2.5586,0.57314,32.303,151.83,-3.9105,1.3035,-0.83084,-5.214,5.2736e-13,-0.41542,0,0,0.14286,-0,-0,0.66667
0.33073,0.072396,2.3151,-0.64141,-37.221,166.21,3.9598,-1.3199,-0.53734,5.2797,2.7423e-12,-0.26867,0,0,0.14286,-0,-0,0.66667
0.93793,0.86542,6.5655,0.54812,4.1583,3.2174,-9.5966,3.1989,-0.93369,-12.795,1.254e-07,-0.46684,0,0,0.14286,-1.3534e-15,0,0.66667
0.37489,0.79099,2.6243,0.43648,24.34,147.89,-3.0545,1.0182,-1.3248,-4.0727,2.562e-12,-0.66242,0,0,0.14286,-6.7671e-16,0,0.66667
0.6358,0.63864,4.4506,0.20796,7.9825,56.994,-2.4682,0.82273,-1.8449,-3.2909,-1.2159e-12,-0.92247,0,0,0.14286,-0,-0,0.66667
0.98534,0.328,6.8974,-0.258,-0.35776,0.44713,4.7455,-1.5818,-1.7645,6.3273,-4.2117e-08,-0.88224,0,0,0.14286,-1.3534e-15,0,0.66667
0.03674,0.65771,0.25718,0.23656,15.31,297.65,-0.16223,0.054078,-1.8009,-0.21631,6.4268e-08,-0.90044,0,0,0.14286,-0,-0,0.66667
0.31463,0.0093527,2.2024,-0.73597,-43.308,173.07,4.3224,-1.4408,-0.074607,5.7633,-4.7962e-13,-0.037304,0,0,0.14286,-0,-0,0.66667
0.23124,0.72638,1.6187,0.33958,20.842,208.73,-1.4658,0.48858,-1.59,-1.9543,-6.0699e-11,-0.79499,0,0,0.14286,-0,-0,0.66667
0.92237,0.61519,6.4566,0.17279,1.5893,3.5406,-2.975,0.99166,-1.8957,-3.9667,3.0187e-09,-0.94784,0,0,0.14286,-1.3534e-15,0,0.66667
0.55114,0.35017,3.858,-0.22475,-10.104,82.894,2.3122,-0.77072,-1.8199,3.0829,1.6498e-13,-0.90996,0,0,0.14286,-0,-0,0.66667
0.053714,0.80622,0.37599,0.45934,29.756,289.77,-0.46055,0.15352,-1.2486,-0.61407,-3.1191e-08,-0.6243,0,0,0.14286,-0,-0,0.66667
0.75525,0.52341,5.2867,0.035118,0.96524,27.591,-0.4951,0.16503,-1.9946,-0.66013,9.5876e-12,-0.99729,0,0,0.14286,-0,-0,0.66667
0.68408,0.71792,4.7886,0.32688,11.208,44.197,-4.1741,1.3914,-1.621,-5.5655,-5.9535e-12,-0.81049,0,0,0.14286,-4.2294e-16,0,0.66667
0.66217,0.34227,4.6352,-0.23659,-8.5553,49.782,2.9244,-0.97479,-1.8007,3.8992,3.8518e-12,-0.90036,0,0,0.14286,-1.438e-15,0,0.66667
0.95573,0.022927,6.6901,-0.71561,-4.0106,2.8448,12.767,-4.2556,-0.17946,17.022,-9.0307e-06,-0.089728,0,0,0.14286,-0,-0,0.66667
0.8746,0.64374,6.1222,0.21561,3.196,8.2609,-3.52,1.1733,-1.8365,-4.6934,5.6211e-09,-0.91824,0,0,0.14286,-0,-0,0.66667
0.75325,0.43548,5.2728,-0.096785,-2.68,28.023,1.3609,-0.45362,-1.9674,1.8145,-3.4719e-12,-0.98372,0,0,0.14286,1.8609e-15,0,0.66667
0.22267,0.40135,1.5587,-0.14798,-9.1057,212.46,0.61507,-0.20502,-1.922,0.82009,9.122e-11,-0.96102,0,0,0.14286,1.6918e-16,0,0.66667
0.13801,0.47717,0.9661,-0.034245,-2.1748,250.72,0.088225,-0.029408,-1.9961,0.11763,-1.0314e-09,-0.99803,0,0,0.14286,-0,-0,0.66667
0.22089,0.46397,1.5462,-0.054052,-3.3277,213.24,0.22287,-0.074289,-1.9906,0.29716,5.4682e-11,-0.99532,0,0,0.14286,5.0753e-16,0,0.66667
0.20551,0.68147,1.4386,0.27221,16.895,220.15,-1.0442,0.34808,-1.7372,-1.3923,-3.0228e-10,-0.86861,0,0,0.14286,-0,-0,0.66667
0.56796,0.424,3.9758,-0.11399,-4.9801,77.377,1.2086,-0.40285,-1.9523,1.6114,1.7308e-13,-0.97615,0,0,0.14286,-0,-0,0.66667
0.66304,0.12591,4.6413,-0.56114,-20.4,50.084,6.9451,-2.315,-0.88011,9.2602,1.4939e-12,-0.44006,0,0,0.14286,-0,-0,0.66667
0.52742,0.039493,3.6919,-0.69076,-32.515,91.518,6.8006,-2.2669,-0.30299,9.0675,-9.4458e-13,-0.15149,0,0,0.14286,-0,-0,0.66667
0.056349,0.29911,0.39445,-0.30134,-19.478,288.52,0.31697,-0.10566,-1.6755,0.42262,-2.7255e-08,-0.83773,0,0,0.14286,-8.4588e-17,0,0.66667
0.36316,0.039103,2.5421,-0.69135,-39.15,152.96,4.6867,-1.5622,-0.30017,6.2489,2.5815e-12,-0.15009,0,0,0.14286,-0,-0,0.66667
0.96773,0.87059,6.7741,0.55588,2.1602,1.7216,-10.042,3.3472,-0.90331,-13.389,-3.9222e-07,-0.45165,0,0,0.14286,-1.3534e-15,8.5418e-17,0.66667
0.69551,0.87182,4.8686,0.55772,18.666,41.79,-7.2409,2.4136,-0.89321,-9.6545,-4.0514e-12,-0.4466,0,0,0.14286,8.4588e-16,0,0.66667
0.36974,0.69169,2.5882,0.28754,16.075,149.85,-1.9845,0.66151,-1.7055,-2.646,2.0107e-12,-0.85274,0,0,0.14286,-0,-0,0.66667
0.67163,0.61842,4.7014,0.17763,6.2724,47.238,-2.2269,0.74231,-1.8902,-2.9692,-3.5028e-12,-0.94511,0,0,0.14286,-0,-0,0.66667
0.26511,0.76073,1.8558,0.3911,23.59,193.9,-1.9354,0.64514,-1.4579,-2.5806,9.7758e-12,-0.72895,0,0,0.14286,-0,-0,0.66667
0.077478,0.81861,0.54234,0.47791,30.87,278.73,-0.69118,0.23039,-1.19,-0.92157,-4.0549e-08,-0.595,0,0,0.14286,-1.6918e-16,0,0.66667
0.52807,0.090709,3.6965,-0.61394,-28.807,91.133,6.0517,-2.0172,-0.66046,8.069,-9.0328e-13,-0.33023,0,0,0.14286,-8.4588e-16,0,0.66667
0.28977,0.06578,2.0284,-0.65133,-38.887,183.5,3.5231,-1.1744,-0.49082,4.6974,2.4241e-12,-0.24541,0,0,0.14286,-0,-0,0.66667
0.48165,0.58499,3.3716,0.12748,6.3244,106.81,-1.1462,0.38206,-1.9423,-1.5282,4.7939e-13,-0.97117,0,0,0.14286,-0,-0,0.66667
0.90199,0.6359,6.314,0.20385,2.3724,5.3377,-3.4322,1.1441,-1.8513,-4.5763,8.8812e-09,-0.92567,0,0,0.14286,-0,-0,0.66667
0.65174,0.1193,4.5622,-0.57105,-21.321,53.143,6.9473,-2.3158,-0.84005,9.263,8.9262e-13,-0.42002,0,0,0.14286,-0,-0,0.66667
0.72332,0.28612,5.0632,-0.32082,-9.8412,34.756,4.3317,-1.4439,-1.6336,5.7756,9.3818e-12,-0.81682,0,0,0.14286,-0,-0,0.66667
0.10259,0.07752,0.71811,-0.63372,-40.862,267.16,1.2135,-0.40451,-0.57026,1.6181,-7.7833e-08,-0.28513,0,0,0.14286,1.6918e-16,0,0.66667
0.47966,0.16321,3.3576,-0.50519,-25.251,107.89,4.5233,-1.5078,-1.0918,6.0311,6.6835e-13,-0.5459,0,0,0.14286,-0,-0,0.66667
0.40434,0.72655,2.8304,0.33982,18.414,136.1,-2.5649,0.85495,-1.5902,-3.4198,1.6587e-13,-0.79511,0,0,0.14286,-0,-0,0.66667
0.64686,0.2863,4.528,-0.32055,-12.027,54.029,3.8705,-1.2902,-1.6337,5.1607,2.9305e-12,-0.81686,0,0,0.14286,-0,-0,0.66667
0.28774,0.79918,2.0141,0.44878,26.725,184.17,-2.4104,0.80347,-1.2822,-3.2139,1.0081e-11,-0.64108,0,0,0.14286,-0,-0,0.66667
0.38306,0.18867,2.6815,-0.46699,-25.866,144.65,3.3392,-1.1131,-1.2242,4.4523,8.8063e-13,-0.61209,0,0,0.14286,-0,-0,0.66667
0.98102,0.27259,6.8671,-0.34111,-0.68025,0.70716,6.2465,-2.0822,-1.586,8.3287,6.7096e-08,-0.79301,0,0,0.14286,-6.7671e-16,0,0.66667
0.11481,0.20952,0.80367,-0.43572,-27.923,261.46,0.9338,-0.31127,-1.3237,1.2451,1.0403e-08,-0.66187,0,0,0.14286,1.6918e-16,0,0.66667
0.19991,0.41875,1.3994,-0.12187,-7.5748,222.63,0.45478,-0.15159,-1.9467,0.60637,2.1837e-10,-0.97337,0,0,0.14286,-0,-0,0.66667
0.23905,0.42839,1.6733,-0.10741,-6.555,205.2,0.47928,-0.15976,-1.958,0.63904,2.4962e-11,-0.97901,0,0,0.14286,-3.3835e-16,0,0.66667
0.69665,0.5648,4.8766,0.097198,3.2126,40.857,-1.264,0.42133,-1.9659,-1.6853,-3.6634e-12,-0.98294,0,0,0.14286,-0,-0,0.66667
0.71369,0.93119,4.9958,0.64679,20.637,37.68,-8.6167,2.8722,-0.51178,-11.489,-1.5277e-12,-0.25589,0,0,0.14286,-6.7671e-16,0,0.66667
0.78475,0.092771,5.4933,-0.61084,-15.211,22.714,8.9481,-2.9827,-0.67413,11.931,3.141e-10,-0.33707,0,0,0.14286,-1.8609e-15,0,0.66667
0.38104,0.80416,2.6673,0.45624,25.312,145.44,-3.2451,1.0817,-1.2586,-4.3268,5.9686e-13,-0.62929,0,0,0.14286,-3.3835e-16,0,0.66667
0.8524,0.41338,5.9668,-0.12993,-2.2474,10.981,2.0674,-0.68913,-1.9386,2.7565,-2.2945e-09,-0.96931,0,0,0.14286,-0,-0,0.66667
0.69735,0.60291,4.8814,0.15437,5.0948,40.718,-2.0095,0.66983,-1.9139,-2.6793,-4.8654e-12,-0.95697,0,0,0.14286,-0,-0,0.66667
0.71326,0.81707,4.9928,0.47561,15.099,37.353,-6.3323,2.1108,-1.195,-8.4431,-9.7549e-12,-0.59752,0,0,0.14286,2.7068e-15,0,0.66667
0.82199,0.10694,5.7539,-0.58959,-12.362,16.286,9.0466,-3.0155,-0.76236,12.062,3.282e-10,-0.38118,0,0,0.14286,1.3534e-15,0,0.66667
0.62892,0.28476,4.4025,-0.32287,-12.597,59.068,3.7904,-1.2635,-1.6295,5.0539,1.2688e-12,-0.81474,0,0,0.14286,-0,-0,0.66667
0.42223,0.39104,2.9556,-0.16344,-8.6835,129.03,1.2881,-0.42938,-1.9068,1.7175,-7.5806e-13,-0.95338,0,0,0.14286,6.7671e-16,0,0.66667
0.030799,0.44358,0.21559,-0.084627,-5.475,300.42,0.048653,-0.016218,-1.9768,0.06487,-1.9867e-07,-0.98841,0,0,0.14286,-0,-0,0.66667
0.59546,0.31477,4.1682,-0.27785,-11.577,68.907,3.0884,-1.0295,-1.7273,4.1178,8.9995e-13,-0.86365,0,0,0.14286,-1.3534e-15,0,0.66667
0.56376,0.1086,3.9463,-0.5871,-26.033,79.307,6.1784,-2.0595,-0.77537,8.2378,2.3004e-13,-0.38768,0,0,0.14286,-0,-0,0.66667
0.60081,0.042332,4.2057,-0.6865,-28.597,68.02,7.6992,-2.5664,-0.3226,10.266,1.0649e-12,-0.1613,0,0,0.14286,-0,-0,0.66667
0.32285,0.21016,2.26,-0.43476,-25.276,169.27,2.6202,-0.87338,-1.3268,3.4935,-1.5703e-12,-0.6634,0,0,0.14286,-0,-0,0.66667
0.55488,0.28243,3.8842,-0.32636,-14.603,81.765,3.3804,-1.1268,-1.6209,4.5072,-3.0465e-13,-0.81043,0,0,0.14286,-0,-0,0.66667
0.17166,0.64815,1.2016,0.22223,13.973,235.4,-0.71206,0.23735,-1.8267,-0.94942,-1.155e-09,-0.91334,0,0,0.14286,-0,-0,0.66667
0.64986,0.42536,4.549,-0.11196,-4.1617,53.022,1.3582,-0.45272,-1.9537,1.8109,1.6749e-12,-0.97687,0,0,0.14286,-0,-0,0.66667
0.071673,0.80958,0.50171,0.46437,30.016,281.42,-0.62128,0.20709,-1.2326,-0.82838,-4.4711e-08,-0.61632,0,0,0.14286,-1.0566e-16,0,0.66667
0.87508,0.94955,6.1255,0.67433,10.244,9.3166,-11.015,3.6717,-0.38531,-14.687,3.6753e-08,-0.19265,0,0,0.14286,-0,-0,0.66667
0.21614,0.28575,1.513,-0.32137,-19.862,215.42,1.2966,-0.4322,-1.6335,1.7288,1.6156e-10,-0.81676,0,0,0.14286,-0,-0,0.66667
0.29384,0.91009,2.0569,0.61514,36.601,181.72,-3.3741,1.1247,-0.65516,-4.4988,3.8562e-12,-0.32758,0,0,0.14286,-0,-0,0.66667
0.88474,0.87537,6.1932,0.56306,7.8482,7.8582,-9.299,3.0997,-0.87272,-12.399,1.7106e-08,-0.43636,0,0,0.14286,-0,-0,0.66667
0.88359,0.66685,6.1851,0.25028,3.4556,7.2833,-4.128,1.376,-1.7756,-5.504,8.3219e-09,-0.8878,0,0,0.14286,-0,-0,0.66667
0.83627,0.8254,5.8539,0.4881,9.4236,13.835,-7.6194,2.5398,-1.1511,-10.159,1.4386e-09,-0.57554,0,0,0.14286,1.3534e-15,0,0.66667
0.32694,0.67756,2.2885,0.26634,15.405,167.44,-1.6254,0.5418,-1.749,-2.1672,5.6661e-12,-0.87449,0,0,0.14286,-0,-0,0.66667
0.90234,0.30937,6.3164,-0.28594,-3.328,5.4174,4.8163,-1.6054,-1.7095,6.4217,-1.2308e-08,-0.85474,0,0,0.14286,-1.4246e-15,0,0.66667
0.7718,0.9036,5.4026,0.6054,15.869,25.147,-8.722,2.9073,-0.69632,-11.629,9.7605e-11,-0.34816,0,0,0.14286,-1.6918e-16,0,0.66667
0.65808,0.3206,4.6066,-0.2691,-9.8306,50.911,3.3057,-1.1019,-1.7434,4.4076,3.247e-12,-0.87168,0,0,0.14286,-0,-0,0.66667
0.8998,0.67711,6.2986,0.26566,3.1684,5.6292,-4.4622,1.4874,-1.7475,-5.9496,1.0214e-08,-0.87374,0,0,0.14286,-0,-0,0.66667
0.78313,0.19468,5.4819,-0.45798,-11.403,22.616,6.6949,-2.2316,-1.2551,8.9266,-1.567e-10,-0.62757,0,0,0.14286,-0,-0,0.66667
0.42475,0.25533,2.9732,-0.367,-19.489,128.2,2.9098,-0.96994,-1.5215,3.8797,1.148e-13,-0.76077,0,0,0.14286,-0,-0,0.66667
0.32426,0.30159,2.2698,-0.29762,-17.254,168.58,1.8014,-0.60047,-1.6843,2.4019,-3.168e-12,-0.84217,0,0,0.14286,-0,-0,0.66667
0.39388,0.39443,2.7571,-0.15835,-8.6523,140.11,1.1643,-0.38809,-1.9104,1.5523,1.4408e-12,-0.9552,0,0,0.14286,6.7671e-16,0,0.66667
0.061412,0.24962,0.42989,-0.37557,-24.281,286.17,0.43054,-0.14351,-1.5012,0.57406,6.5601e-09,-0.75058,0,0,0.14286,-1.0045e-16,0,0.66667
0.36343,0.10731,2.544,-0.58904,-33.269,152.7,3.9961,-1.332,-0.7654,5.3281,1.5219e-12,-0.3827,0,0,0.14286,6.7671e-16,0,0.66667
0.35304,0.7713,2.4713,0.40695,23.106,156.74,-2.6818,0.89395,-1.4096,-3.5758,2.258e-12,-0.70482,0,0,0.14286,-0,-0,0.66667
0.86562,0.6549,6.0594,0.23236,3.6832,9.366,-3.7545,1.2515,-1.8077,-5.006,3.7836e-09,-0.90386,0,0,0.14286,6.7671e-16,0,0.66667
0.8887,0.57654,6.2209,0.11482,1.5115,6.5953,-1.9047,0.6349,-1.9535,-2.5396,3.2733e-09,-0.97676,0,0,0.14286,-0,-0,0.66667
0.96305,0.81396,6.7414,0.47094,2.0652,1.6476,-8.4661,2.822,-1.2112,-11.288,-1.0532e-07,-0.60561,0,0,0.14286,-0,-0,0.66667
0.3282,0.027373,2.2974,-0.70894,-41.284,167.36,4.3432,-1.4477,-0.21597,5.791,2.8919e-12,-0.10799,0,0,0.14286,-6.7671e-16,0,0.66667
0.69332,0.95508,4.8532,0.68263,23.092,42.663,-8.8345,2.9448,-0.34157,-11.779,-1.0649e-12,-0.17078,0,0,0.14286,-0,-0,0.66667
0.63307,0.5994,4.4315,0.1491,5.7536,57.727,-1.7619,0.58732,-1.9198,-2.3493,-6.1151e-13,-0.95988,0,0,0.14286,-0,-0,0.66667
0.24244,0.79486,1.6971,0.4423,27.03,203.84,-2.0017,0.66722,-1.3026,-2.6689,-1.4034e-11,-0.65129,0,0,0.14286,-0,-0,0.66667
0.86999,0.89016,6.0899,0.58524,9.1623,9.6117,-9.5041,3.168,-0.78084,-12.672,8.4154e-09,-0.39042,0,0,0.14286,-1.3534e-15,0,0.66667
0.2141,0.29111,1.4987,-0.31333,-19.382,216.33,1.2522,-0.41742,-1.6499,1.6697,1.7834e-10,-0.82496,0,0,0.14286,-0,-0,0.66667
0.74771,0.97281,5.234,0.70922,20.387,30.332,-9.8988,3.2996,-0.21262,-13.198,3.1548e-12,-0.10631,0,0,0.14286,-0,-7.6525e-17,0.66667
0.14466,0.96519,1.0126,0.69778,44.579,247.89,-1.8843,0.62809,-0.26887,-2.5124,-1.9801e-09,-0.13443,0,0,0.14286,2.1147e-16,0,0.66667
0.10682,0.12218,0.74774,-0.56673,-36.462,265.19,1.13,-0.37668,-0.85908,1.5067,-1.4538e-08,-0.42954,0,0,0.14286,-1.6918e-16,1.376e-18,0.66667
0.72032,0.95738,5.0423,0.68608,21.501,36.266,-9.225,3.075,-0.32717,-12.3,-2.3936e-12,-0.16358,0,0,0.14286,6.7671e-16,0,0.66667
0.52632,0.94254,3.6842,0.66382,31.272,91.831,-6.5217,2.1739,-0.43267,-8.6956,3.5705e-13,-0.21633,0,0,0.14286,-0,-0,0.66667
0.44292,0.27849,3.1004,-0.33226,-17.294,121.25,2.7471,-0.91569,-1.6071,3.6628,2.3737e-13,-0.80355,0,0,0.14286,1.6918e-16,0,0.66667
0.77818,0.95955,5.4473,0.68933,17.701,24.189,-10.013,3.3377,-0.31035,-13.351,5.1106e-12,-0.15517,0,0,0.14286,-6.7671e-16,0,0.66667
0.35874,0.71202,2.5112,0.31804,17.952,154.33,-2.1298,0.70992,-1.6424,-2.8397,2.9128e-12,-0.82119,0,0,0.14286,2.1242e-16,0,0.66667
0.85335,0.49528,5.9734,-0.007086,-0.12169,10.809,0.11287,-0.037625,-1.999,0.1505,1.4769e-09,-0.99948,0,0,0.14286,-3.3835e-16,0,0.66667
0.96217,0.57067,6.7352,0.10601,0.45347,1.0549,-1.904,0.63467,-1.9586,-2.5387,1.6205e-07,-0.97932,0,0,0.14286,-2.7068e-15,0,0.66667
0.97913,0.85427,6.8539,0.53141,1.28,1.2651,-9.7126,3.2375,-0.99464,-12.95,-9.8928e-07,-0.49732,0,0,0.14286,-0,-0,0.66667
0.27763,0.48881,1.9434,-0.016783,-1.0022,188.35,0.086975,-0.028992,-1.9984,0.11597,-4.7892e-13,-0.99919,0,0,0.14286,-0,-0,0.66667
0.41501,0.88573,2.905,0.5786,31.155,132.22,-4.4823,1.4941,-0.808,-5.9764,2.7267e-13,-0.404,0,0,0.14286,-0,-0,0.66667
0.72501,0.30149,5.0751,-0.29776,-9.0819,34.34,4.0298,-1.3433,-1.6832,5.3731,7.7516e-12,-0.84158,0,0,0.14286,6.7671e-16,0,0.66667
0.89487,0.35344,6.2641,-0.21984,-2.7441,6.0549,3.6723,-1.2241,-1.8273,4.8964,-7.8944e-09,-0.91367,0,0,0.14286,2.7068e-15,0,0.66667
0.71131,0.15703,4.9792,-0.51445,-16.446,37.895,6.8308,-2.2769,-1.0586,9.1077,4.4347e-12,-0.52932,0,0,0.14286,-0,-0,0.66667
0.75813,0.89858,5.3069,0.59787,16.483,27.839,-8.4609,2.8203,-0.72762,-11.281,-1.1233e-11,-0.36381,0,0,0.14286,6.7671e-16,0,0.66667
0.8834,0.36374,6.1838,-0.20439,-2.822,7.2467,3.3704,-1.1235,-1.8497,4.4939,-4.6387e-09,-0.92486,0,0,0.14286,-0,-0,0.66667
0.36695,0.32603,2.5686,-0.26096,-14.62,150.96,1.7875,-0.59583,-1.756,2.3833,-6.265e-13,-0.878,0,0,0.14286,-6.7671e-16,0,0.66667
0.54254,0.69403,3.7978,0.29104,13.273,85.79,-2.9475,0.9825,-1.6983,-3.93,-2.9643e-13,-0.84915,0,0,0.14286,-0,-0,0.66667
0.53477,0.56825,3.7434,0.10238,4.7174,88.265,-1.022,0.34067,-1.9627,-1.3627,-8.1601e-14,-0.98136,0,0,0.14286,-0,-0,0.66667
0.64758,0.45064,4.5331,-0.074034,-2.7657,53.633,0.89494,-0.29831,-1.9787,1.1933,1.2645e-12,-0.98935,0,0,0.14286,-0,-0,0.66667
0.89518,0.59869,6.2663,0.14804,1.8383,5.9493,-2.4738,0.82459,-1.9217,-3.2984,-5.5232e-09,-0.96083,0,0,0.14286,-2.7068e-15,0,0.66667
0.60083,0.0087298,4.2058,-0.73691,-30.75,68.148,8.2647,-2.7549,-0.067698,11.02,2.3892e-13,-0.033849,0,0,0.14286,-0,-0,0.66667
0.96994,0.18092,6.7896,-0.47863,-1.6863,1.3985,8.6658,-2.8886,-1.187,11.554,4.4586e-07,-0.59351,0,0,0.14286,1.3534e-15,0,0.66667
0.73214,0.71999,5.1249,0.32998,9.8476,32.789,-4.5097,1.5032,-1.6144,-6.013,-5.8353e-12,-0.80721,0,0,0.14286,-0,-0,0.66667
0.41529,0.77649,2.907,0.41473,22.255,131.9,-3.215,1.0717,-1.3875,-4.2867,-1.1871e-12,-0.69373,0,0,0.14286,1.261e-15,0,0.66667
0.58114,0.78705,4.068,0.43058,18.462,73.523,-4.6709,1.557,-1.3411,-6.2278,5.6088e-13,-0.67054,0,0,0.14286,-0,-0,0.66667
0.92232,0.76645,6.4562,0.39967,3.7322,3.9168,-6.881,2.2937,-1.4337,-9.1747,3.12e-08,-0.71685,0,0,0.14286,-0,-0,0.66667
0.6185,0.055975,4.3295,-0.66604,-26.786,62.734,7.6896,-2.5632,-0.42153,10.253,-6.1684e-13,-0.21076,0,0,0.14286,1.0151e-15,0,0.66667
0.70993,0.86622,4.9695,0.54933,17.653,38.303,-7.2797,2.4266,-0.92556,-9.7063,-6.4699e-12,-0.46278,0,0,0.14286,-0,-0,0.66667
0.66129,0.83645,4.629,0.50468,18.392,50.426,-6.2298,2.0766,-1.0935,-8.3064,-2.3181e-12,-0.54674,0,0,0.14286,-0,-0,0.66667
0.33615,0.16339,2.353,-0.50492,-29.099,163.8,3.1682,-1.0561,-1.0922,4.2243,-3.4417e-13,-0.54608,0,0,0.14286,-0,-0,0.66667
0.20333,0.68331,1.4233,0.27496,17.083,221.13,-1.0436,0.34788,-1.734,-1.3915,-3.4404e-10,-0.86699,0,0,0.14286,-0,-0,0.66667
0.40781,0.60288,2.8547,0.15432,8.3191,134.62,-1.1747,0.39158,-1.9163,-1.5663,-3.1863e-13,-0.95814,0,0,0.14286,-0,-0,0.66667
0.15077,0.59032,1.0554,0.13548,8.5735,244.89,-0.38128,0.12709,-1.9342,-0.50837,-2.947e-09,-0.96712,0,0,0.14286,8.6931e-17,0,0.66667
0.82633,0.26684,5.7843,-0.34973,-7.0875,15.031,5.3946,-1.7982,-1.5656,7.1928,-1.2206e-09,-0.78279,0,0,0.14286,-0,-0,0.66667
0.71046,0.78904,4.9732,0.43356,13.86,37.926,-5.7499,1.9166,-1.3302,-7.6665,-7.502e-12,-0.66509,0,0,0.14286,-1.3534e-15,0,0.66667
0.40106,0.61814,2.8074,0.17722,9.6182,137.29,-1.3267,0.44224,-1.8874,-1.7689,3.2863e-13,-0.94371,0,0,0.14286,5.7583e-16,0,0.66667
0.17138,0.049424,1.1997,-0.67586,-42.785,235.74,2.1622,-0.72073,-0.3775,2.8829,-2.5637e-09,-0.18875,0,0,0.14286,3.3835e-16,1.6467e-16,0.66667
0.8758,0.63445,6.1306,0.20168,2.9606,8.1051,-3.297,1.099,-1.857,-4.3961,4.1693e-09,-0.92848,0,0,0.14286,-0,-0,0.66667
0.63906,0.89305,4.4734,0.58958,22.656,56.681,-7.0332,2.3444,-0.76477,-9.3776,-4.8717e-13,-0.38238,0,0,0.14286,-0,1.9526e-16,0.66667
0.9966,0.21687,6.9762,-0.4247,-0.019889,0.59822,7.9007,-2.6336,-1.3594,10.534,-5.0074e-07,-0.6797,0,0,0.14286,-2.165e-17,0,0.66667
0.1011,0.98751,0.70769,0.73126,47.266,267.89,-1.38,0.46,-0.096889,-1.84,-3.4041e-08,-0.048444,0,0,0.14286,-0,-0,0.66667
0.24485,0.66684,1.7139,0.25026,15.24,202.69,-1.1438,0.38127,-1.7761,-1.5251,-2.4837e-11,-0.88803,0,0,0.14286,-0,-0,0.66667
0.083655,0.23528,0.58558,-0.39709,-25.595,275.85,0.62007,-0.20669,-1.4378,0.82676,2.2146e-08,-0.71891,0,0,0.14286,-0,-0,0.66667
0.74474,0.00090398,5.2132,-0.74864,-21.782,31.093,10.408,-3.4692,-0.0072697,13.877,8.3489e-12,-0.0036348,0,0,0.14286,-0,-0,0.66667
0.15958,0.2859,1.117,-0.32115,-20.295,240.91,0.95664,-0.31888,-1.6335,1.2755,2.2008e-09,-0.81677,0,0,0.14286,-0,-0,0.66667
0.88166,0.70227,6.1716,0.30341,4.266,7.5781,-4.9934,1.6645,-1.6709,-6.6579,8.0077e-09,-0.83544,0,0,0.14286,1.3534e-15,0,0.66667
0.49148,0.99858,3.4404,0.74787,37.056,104.11,-6.8612,2.2871,-0.01087,-9.1483,1.6254e-13,-0.005435,0,0,0.14286,2.1993e-15,0,0.66667
0.52617,0.41923,3.6832,-0.12116,-5.6553,91.184,1.19,-0.39666,-1.9464,1.5866,2.2538e-14,-0.97322,0,0,0.14286,-0,-0,0.66667
0.04252,0.78422,0.29764,0.42633,27.635,294.97,-0.33838,0.11279,-1.3538,-0.45118,4.1903e-08,-0.67688,0,0,0.14286,-0,-0,0.66667
0.61405,0.85366,4.2984,0.53049,21.436,63.723,-6.0807,2.0269,-0.99837,-8.1075,-1.0392e-13,-0.49918,0,0,0.14286,-0,-0,0.66667
0.22761,0.71451,1.5933,0.32177,19.78,210.32,-1.3671,0.45571,-1.631,-1.8228,-8.6041e-11,-0.81548,0,0,0.14286,4.2294e-16,0,0.66667
0.2135,0.71716,1.4945,0.32574,20.158,216.6,-1.2982,0.43274,-1.6226,-1.731,-1.805e-10,-0.81132,0,0,0.14286,-0,-0,0.66667
0.89532,0.2267,6.2672,-0.40995,-5.1463,6.3429,6.8514,-2.2838,-1.4016,9.1352,-1.7291e-08,-0.7008,0,0,0.14286,-0,-0,0.66667
0.88801,0.79504,6.2161,0.44257,5.9451,7.173,-7.3361,2.4454,-1.3035,-9.7814,1.2049e-08,-0.65174,0,0,0.14286,-0,-0,0.66667
0.0052652,0.64798,0.036856,0.22198,14.384,312.35,-0.021816,0.0072721,-1.8237,-0.029089,-8.0303e-08,-0.91186,0,0,0.14286,-0,-0,0.66667
0.8323,0.28814,5.8261,-0.31778,-6.2274,14.067,4.9372,-1.6457,-1.6404,6.5829,-1.5979e-09,-0.82022,0,0,0.14286,-0,-0,0.66667
0.9023,0.90172,6.3161,0.60259,7.1924,6.2115,-10.149,3.3831,-0.70888,-13.532,3.8882e-08,-0.35444,0,0,0.14286,3.3835e-16,0,0.66667
0.51195,0.85414,3.5836,0.53122,25.456,96.502,-5.0765,1.6922,-0.99606,-6.7687,3.4683e-13,-0.49803,0,0,0.14286,-0,-0,0.66667
0.65617,0.66839,4.5932,0.25258,9.2662,51.408,-3.0938,1.0313,-1.7753,-4.125,-2.7554e-12,-0.88763,0,0,0.14286,-0,-0,0.66667
0.76779,0.41411,5.3745,-0.12883,-3.3823,25.095,1.8464,-0.61548,-1.9416,2.4619,-3.3443e-11,-0.9708,0,0,0.14286,-0,-0,0.66667
0.68544,0.83276,4.7981,0.49915,17.127,44.158,-6.3865,2.1288,-1.1146,-8.5154,-4.5839e-12,-0.55728,0,0,0.14286,-0,-0,0.66667
0.45912,0.97478,3.2138,0.71217,36.68,115.76,-6.1034,2.0345,-0.19563,-8.1379,-3.5083e-13,-0.097813,0,0,0.14286,1.3534e-15,0,0.66667
0.57345,0.11401,4.0142,-0.57899,-25.251,76.206,6.1977,-2.0659,-0.80698,8.2637,2.8555e-13,-0.40349,0,0,0.14286,-6.7671e-16,0,0.66667
0.57406,0.77051,4.0184,0.40576,17.606,75.709,-4.3481,1.4494,-1.4138,-5.7974,-5.4179e-13,-0.70689,0,0,0.14286,6.7671e-16,0,0.66667
0.84213,0.47502,5.8949,-0.037463,-0.69,12.367,0.5889,-0.1963,-1.9962,0.78521,-9.416e-10,-0.99811,0,0,0.14286,2.7068e-15,0,0.66667
0.24044,0.97903,1.6831,0.71854,44.196,204.96,-3.225,1.075,-0.16275,-4.3,-4.6336e-12,-0.081373,0,0,0.14286,-0,-0,0.66667
0.75723,0.56479,5.3006,0.097187,2.653,27.203,-1.3737,0.45791,-1.9658,-1.8316,9.4961e-12,-0.98289,0,0,0.14286,-2.7068e-15,0,0.66667
0.81234,0.75023,5.6864,0.37534,8.1761,17.316,-5.6915,1.8972,-1.5027,-7.5887,6.7605e-10,-0.75134,0,0,0.14286,2.7068e-15,0,0.66667
0.79703,0.80607,5.5792,0.45911,10.773,20.101,-6.8306,2.2769,-1.2531,-9.1075,1.3295e-10,-0.62654,0,0,0.14286,-6.7671e-16,0,0.66667
0.80771,0.26664,5.654,-0.35005,-7.79,18.041,5.2777,-1.7592,-1.563,7.0369,-5.0907e-10,-0.78152,0,0,0.14286,-2.3099e-15,0,0.66667
0.82928,0.93794,5.805,0.65691,13.314,15.377,-10.169,3.3896,-0.46828,-13.559,-4.4454e-09,-0.23414,0,0,0.14286,-2.7068e-15,0,0.66667
0.41752,0.65419,2.9226,0.23129,12.355,130.89,-1.8026,0.60086,-1.81,-2.4034,1.0997e-12,-0.90498,0,0,0.14286,-9.3047e-16,0,0.66667
0.61789,0.76972,4.3252,0.40459,16.174,62.374,-4.6665,1.5555,-1.4162,-6.222,-7.4651e-13,-0.70812,0,0,0.14286,-0,-0,0.66667
0.75525,0.51887,5.2867,0.028308,0.77804,27.59,-0.39908,0.13303,-1.9958,-0.53211,4.604e-12,-0.99788,0,0,0.14286,-0,-0,0.66667
0.76977,0.0099375,5.3884,-0.73509,-19.552,25.959,10.563,-3.5208,-0.077918,14.083,6.3832e-11,-0.038959,0,0,0.14286,-0,-0,0.66667
0.9586,0.017567,6.7102,-0.72365,-3.804,2.7451,12.949,-4.3163,-0.13656,17.265,-6.5518e-06,-0.068278,0,0,0.14286,-2.2704e-15,0,0.66667
0.97508,0.037552,6.8255,-0.69367,-2.1725,1.9886,12.626,-4.2086,-0.28799,16.834,2.4919e-05,-0.144,0,0,0.14286,2.7068e-15,0,0.66667
0.56473,0.92279,3.9531,0.63418,28.114,79.096,-6.6854,2.2285,-0.57013,-8.9139,-7.0166e-14,-0.28506,0,0,0.14286,-0,-0,0.66667
0.46574,0.80396,3.2602,0.45595,23.159,112.89,-3.9639,1.3213,-1.2608,-5.2852,-4.7029e-13,-0.6304,0,0,0.14286,3.3835e-16,0,0.66667
0.83553,0.050552,5.8487,-0.67417,-13.222,14.506,10.515,-3.5049,-0.38218,14.02,3.3792e-09,-0.19109,0,0,0.14286,1.3534e-15,0,0.66667
0.21996,0.088681,1.5397,-0.61698,-38.243,213.91,2.5333,-0.84442,-0.64826,3.3777,-9.4493e-11,-0.32413,0,0,0.14286,-4.2294e-16,0,0.66667
0.7664,0.7811,5.3648,0.42165,11.199,25.754,-6.0322,2.0107,-1.3709,-8.043,5.8934e-11,-0.68543,0,0,0.14286,1.5755e-15,0,0.66667
0.19201,0.95311,1.3441,0.67967,42.697,226.44,-2.4361,0.81202,-0.35634,-3.2481,6.8028e-11,-0.17817,0,0,0.14286,3.3835e-16,0,0.66667
0.59163,0.43464,4.1414,-0.098046,-4.1073,69.954,1.0828,-0.36093,-1.9672,1.4437,-7.7827e-13,-0.98359,0,0,0.14286,8.4588e-16,0,0.66667
0.60683,0.4064,4.2478,-0.1404,-5.716,65.366,1.5904,-0.53014,-1.9315,2.1205,2.3817e-12,-0.96575,0,0,0.14286,-2.7068e-15,0,0.66667
0.44184,0.77908,3.0929,0.41861,21.842,121.74,-3.4526,1.1509,-1.3771,-4.6035,1.2765e-12,-0.68854,0,0,0.14286,-9.3047e-16,0,0.66667
0.86455,0.66916,6.0519,0.25373,4.0555,9.528,-4.0948,1.3649,-1.7697,-5.4598,4.2596e-09,-0.88485,0,0,0.14286,-0,-0,0.66667
0.54348,0.82878,3.8044,0.49316,22.54,85.747,-5.0032,1.6677,-1.1346,-6.6709,-6.9278e-14,-0.56731,0,0,0.14286,-0,-0,0.66667
0.49273,0.55387,3.4491,0.080802,3.9508,102.82,-0.74318,0.24773,-1.9752,-0.99091,3.022e-13,-0.98762,0,0,0.14286,6.7671e-16,0,0.66667
0.41813,0.22147,2.9269,-0.41779,-22.355,130.81,3.2609,-1.087,-1.3797,4.3478,2.1951e-12,-0.68986,0,0,0.14286,-0,-0,0.66667
0.062225,0.86446,0.43558,0.54669,35.429,285.83,-0.635,0.21167,-0.93935,-0.84666,-1.1838e-07,-0.46968,0,0,0.14286,-0,1.7052e-16,0.66667
0.36215,0.97278,2.535,0.70917,40.212,153.4,-4.7941,1.598,-0.21254,-6.3921,2.7964e-12,-0.10627,0,0,0.14286,-0,-0,0.66667
0.092815,0.84327,0.64971,0.51491,33.192,271.64,-0.8921,0.29737,-1.0601,-1.1895,5.1733e-09,-0.53006,0,0,0.14286,-2.0618e-16,0,0.66667
0.56564,0.81434,3.9595,0.47151,20.783,78.491,-4.9785,1.6595,-1.2104,-6.638,-1.5987e-14,-0.60519,0,0,0.14286,1.3534e-15,0,0.66667
0.6405,0.12523,4.4835,-0.56215,-21.517,56.217,6.7211,-2.2404,-0.88,8.9615,4.4365e-13,-0.44,0,0,0.14286,2.7068e-15,0,0.66667
0.76778,0.55578,5.3745,0.083668,2.1958,25.072,-1.1991,0.39971,-1.9759,-1.5988,4.597e-11,-0.98793,0,0,0.14286,1.3534e-15,0,0.66667
0.63254,0.38361,4.4277,-0.17458,-6.7462,57.894,2.0614,-0.68712,-1.8901,2.7485,2.1976e-12,-0.94504,0,0,0.14286,-1.3534e-15,0,0.66667
0.18706,0.16559,1.3094,-0.50162,-31.464,228.55,1.7515,-0.58385,-1.1073,2.3354,1.5145e-10,-0.55364,0,0,0.14286,-0,-0,0.66667
0.75024,0.28735,5.2517,-0.31897,-8.9573,28.867,4.4671,-1.489,-1.6407,5.9561,-1.1201e-11,-0.82036,0,0,0.14286,-0,-0,0.66667
0.54886,0.83253,3.842,0.49879,22.609,83.981,-5.1103,1.7034,-1.1158,-6.8138,-3.979e-13,-0.55792,0,0,0.14286,6.7671e-16,0,0.66667
0.10217,0.51943,0.71519,0.029144,1.8672,267.23,-0.055584,0.018528,-1.9952,-0.074111,-7.395e-09,-0.9976,0,0,0.14286,-3.3835e-16,0,0.66667
0.024827,0.7116,0.17379,0.3174,20.572,303.22,-0.14709,0.049031,-1.6405,-0.19613,1.0727e-07,-0.82027,0,0,0.14286,-4.2294e-17,0,0.66667
0.29875,0.048527,2.0912,-0.67721,-40.223,179.71,3.7765,-1.2588,-0.3698,5.0354,2.4145e-12,-0.1849,0,0,0.14286,-0,-0,0.66667
0.69002,0.60901,4.8301,0.16351,5.5056,42.536,-2.106,0.70202,-1.9049,-2.8081,-4.1462e-12,-0.95244,0,0,0.14286,-1.3534e-15,0,0.66667
0.93279,0.52742,6.5295,0.041127,0.32514,2.6911,-0.71611,0.2387,-1.9937,-0.95481,-1.5174e-08,-0.99684,0,0,0.14286,6.7671e-16,0,0.66667
0.9665,0.089648,6.7655,-0.61553,-2.5322,1.9791,11.105,-3.7016,-0.65394,14.807,4.1931e-07,-0.32697,0,0,0.14286,2.0301e-15,0,0.66667
0.76455,0.44707,5.3518,-0.079398,-2.1094,25.713,1.1331,-0.37771,-1.9789,1.5109,-3.1189e-11,-0.98945,0,0,0.14286,1.3534e-15,0,0.66667
0.29325,0.24457,2.0527,-0.38314,-22.714,181.76,2.0973,-0.6991,-1.478,2.7964,-7.3164e-12,-0.73902,0,0,0.14286,-1.6472e-16,0,0.66667
0.62207,0.93099,4.3545,0.64648,25.795,61.649,-7.5069,2.5023,-0.51425,-10.009,-1.2546e-12,-0.25712,0,0,0.14286,1.0151e-15,0,0.66667
0.2311,0.31647,1.6177,-0.2753,-16.887,208.76,1.1876,-0.39586,-1.7309,1.5834,7.5216e-11,-0.86546,0,0,0.14286,-6.7671e-16,0,0.66667
0.75069,0.24721,5.2548,-0.37919,-10.648,28.871,5.3135,-1.7712,-1.4913,7.0847,-1.2814e-11,-0.74567,0,0,0.14286,1.6918e-16,0,0.66667
0.16587,0.0021379,1.1611,-0.74679,-47.444,238.29,2.3122,-0.77074,-0.016654,3.0829,-4.3371e-10,-0.0083268,0,0,0.14286,-0,-0,0.66667
0.75647,0.56323,5.2953,0.094842,2.596,27.357,-1.3392,0.44641,-1.9678,-1.7856,5.6462e-12,-0.9839,0,0,0.14286,-0,-0,0.66667
0.86859,0.77441,6.0801,0.41161,6.4356,9.3127,-6.6738,2.2246,-1.3964,-8.8983,6.4344e-09,-0.69818,0,0,0.14286,-8.3911e-16,0,0.66667
0.51951,0.49522,3.6365,-0.0071758,-0.3381,93.44,0.069587,-0.023196,-1.9998,0.092783,1.072e-12,-0.99988,0,0,0.14286,-0,-0,0.66667
0.065635,0.96551,0.45944,0.69826,45.369,284.28,-0.8555,0.28517,-0.26702,-1.1407,4.2613e-07,-0.13351,0,0,0.14286,-2.1147e-17,0,0.66667
0.44889,0.18768,3.1422,-0.46848,-24.273,119.16,3.9256,-1.3085,-1.2202,5.2341,1.5943e-13,-0.61012,0,0,0.14286,-0,-0,0.66667
0.83783,0.79776,5.8648,0.44664,8.5289,13.506,-6.9852,2.3284,-1.2891,-9.3136,1.2947e-09,-0.64453,0,0,0.14286,-1.3534e-15,0,0.66667
0.17975,0.31887,1.2583,-0.27169,-17.039,231.74,0.91163,-0.30388,-1.7362,1.2155,9.3761e-10,-0.86812,0,0,0.14286,-0,-0,0.66667
0.038559,0.64731,0.26991,0.22097,14.298,296.8,-0.15905,0.053016,-1.8248,-0.21207,4.4451e-08,-0.91241,0,0,0.14286,-0,-0,0.66667
0.73269,0.46514,5.1289,-0.052295,-1.5521,32.423,0.71524,-0.23841,-1.9918,0.95365,8.2151e-13,-0.99592,0,0,0.14286,6.7671e-16,0,0.66667
0.56304,0.50767,3.9413,0.011504,0.5066,78.935,-0.1209,0.040301,-2.0015,-0.16121,-2.7672e-13,-1.0008,0,0,0.14286,-0,-0,0.66667
0.042061,0.4233,0.29442,-0.11506,-7.4382,295.17,0.090334,-0.030111,-1.9516,0.12045,1.1386e-07,-0.97582,0,0,0.14286,8.4588e-17,0,0.66667
0.98489,0.79755,6.8942,0.44633,0.70667,0.86422,-8.2055,2.7352,-1.2933,-10.941,-8.2567e-08,-0.64665,0,0,0.14286,-0,-0,0.66667
0.56933,0.96942,3.9853,0.70413,31.043,77.796,-7.4831,2.4944,-0.2369,-9.9775,1.4229e-12,-0.11845,0,0,0.14286,-0,-0,0.66667
0.58516,0.34209,4.0961,-0.23686,-10.052,72.037,2.5872,-0.8624,-1.8,3.4496,2.931e-13,-0.90002,0,0,0.14286,1.6918e-16,0,0.66667
0.78991,0.25661,5.5293,-0.36508,-8.8069,21.184,5.3831,-1.7944,-1.5248,7.1774,-2.2647e-10,-0.76241,0,0,0.14286,-0,-0,0.66667
0.90263,0.44197,6.3184,-0.087045,-1.0034,5.1816,1.4666,-0.48888,-1.9732,1.9555,2.3591e-10,-0.98659,0,0,0.14286,2.7068e-15,0,0.66667
0.060751,0.48691,0.42526,-0.019642,-1.2671,286.45,0.022274,-0.007425,-1.9992,0.029699,-3.9083e-07,-0.99959,0,0,0.14286,-1.6918e-16,0,0.66667
0.34851,0.42516,2.4396,-0.11226,-6.3795,158.43,0.73032,-0.24344,-1.954,0.97376,2.4014e-13,-0.97699,0,0,0.14286,3.3835e-16,0,0.66667
0.20009,0.85509,1.4006,0.53263,33.252,222.71,-1.9894,0.66314,-0.99102,-2.6526,-1.6664e-10,-0.49551,0,0,0.14286,-0,-0,0.66667
0.46515,0.11181,3.2561,-0.58229,-29.677,113.3,5.0559,-1.6853,-0.79375,6.7412,5.7998e-13,-0.39687,0,0,0.14286,6.7671e-16,0,0.66667
0.091468,0.023298,0.64028,-0.71505,-46.288,272.33,1.2209,-0.40696,-0.18255,1.6278,-5.5183e-07,-0.091277,0,0,0.14286,-0,1.2838e-16,0.66667
0.068086,0.34419,0.4766,-0.23372,-15.076,283.05,0.29704,-0.099014,-1.8058,0.39605,-1.0966e-08,-0.90291,0,0,0.14286,-0,-0,0.66667
0.30089,0.64732,2.1062,0.22098,13.012,178.41,-1.2411,0.41371,-1.8257,-1.6549,8.279e-12,-0.91287,0,0,0.14286,3.3835e-16,0,0.66667
0.90435,0.165,6.3304,-0.50251,-5.8188,5.7101,8.4829,-2.8276,-1.1029,11.311,-1.8536e-08,-0.55144,0,0,0.14286,-0,-0,0.66667
0.97554,0.09895,6.8288,-0.60157,-1.7739,1.6122,10.955,-3.6516,-0.7122,14.606,4.0968e-06,-0.3561,0,0,0.14286,-0,-0,0.66667
0.76372,0.42414,5.346,-0.11379,-3.0332,25.895,1.6222,-0.54073,-1.9544,2.1629,-3.1e-11,-0.97719,0,0,0.14286,-1.3534e-15,0,0.66667
0.00074091,0.7009,0.0051864,0.30134,19.54,314.46,-0.0041677,0.0013891,-1.6785,-0.0055569,-1.8674e-07,-0.83926,0,0,0.14286,1.3217e-18,0,0.66667
0.73522,0.5078,5.1465,0.011694,0.34421,31.86,-0.16049,0.053497,-2.0012,-0.21399,3.3302e-12,-1.0006,0,0,0.14286,-0,-0,0.66667
0.021993,0.48901,0.15395,-0.016483,-1.0668,304.53,0.0067664,-0.0022567,-1.9974,0.0090213,-1.8416e-06,-0.99871,0,0,0.14286,-6.8339e-17,0,0.66667
0.16857,0.88915,1.18,0.58373,36.919,236.95,-1.8367,0.61225,-0.78792,-2.449,-1.153e-09,-0.39396,0,0,0.14286,-0,-0,0.66667
0.010514,0.5907,0.073598,0.13605,8.8109,309.89,-0.026701,0.0089005,-1.9339,-0.035602,5.1288e-08,-0.96694,0,0,0.14286,5.7562e-18,0,0.66667
0.14913,0.66125,1.0439,0.24188,15.325,245.66,-0.67332,0.22444,-1.7909,-0.89776,-3.2463e-09,-0.89545,0,0,0.14286,-3.3835e-16,0,0.66667
0.68751,0.849,4.8125,0.52349,17.879,43.693,-6.7182,2.2394,-1.0285,-8.9576,-4.8961e-12,-0.51423,0,0,0.14286,-0,-0,0.66667
0.70202,0.66322,4.9141,0.24483,7.9848,39.661,-3.2083,1.0694,-1.7884,-4.2777,-7.5078e-12,-0.89422,0,0,0.14286,-0,-0,0.66667
0.37108,0.62406,2.5975,0.18608,10.382,149.25,-1.289,0.42965,-1.8775,-1.7186,1.0987e-12,-0.93874,0,0,0.14286,7.613e-16,0,0.66667
0.73119,0.38961,5.1183,-0.16559,-4.9427,32.813,2.2601,-0.75338,-1.902,3.0135,1.9189e-12,-0.95101,0,0,0.14286,-0,-0,0.66667
0.8473,0.93495,5.9311,0.65242,11.931,12.757,-10.319,3.4396,-0.48704,-13.759,1.5543e-08,-0.24352,0,0,0.14286,-1.8609e-15,0,0.66667
0.13036,0.34722,0.9125,-0.22917,-14.597,254.25,0.55765,-0.18588,-1.8128,0.74353,4.8086e-09,-0.9064,0,0,0.14286,-3.3835e-16,0,0.66667
0.087407,0.31784,0.61185,-0.27324,-17.577,274.09,0.44582,-0.14861,-1.7335,0.59442,1.0127e-08,-0.86676,0,0,0.14286,-0,-0,0.66667
0.37192,0.38719,2.6035,-0.16922,-9.4328,148.9,1.1748,-0.39161,-1.8978,1.5664,1.2765e-12,-0.94892,0,0,0.14286,-0,-0,0.66667
0.40388,0.36851,2.8272,-0.19723,-10.677,136.18,1.487,-0.49566,-1.8623,1.9826,1.2516e-12,-0.93115,0,0,0.14286,-3.3835e-16,0,0.66667
0.2764,0.26887,1.9348,-0.3467,-20.762,188.98,1.7888,-0.59627,-1.5714,2.3851,-5.7176e-12,-0.78568,0,0,0.14286,-0,-0,0.66667
0.75417,0.94955,5.2792,0.67432,18.923,28.878,-9.493,3.1643,-0.3823,-12.657,-2.994e-12,-0.19115,0,0,0.14286,-1.3534e-15,0,0.66667
0.32179,0.38059,2.2525,-0.17911,-10.392,169.56,1.0759,-0.35862,-1.8849,1.4345,-1.7433e-12,-0.94244,0,0,0.14286,-0,-0,0.66667
0.80014,0.32556,5.601,-0.26167,-6.0164,19.202,3.9083,-1.3028,-1.756,5.211,-3.7512e-10,-0.87802,0,0,0.14286,-0,-0,0.66667
0.91131,0.010434,6.3792,-0.73435,-8.1153,5.8995,12.492,-4.164,-0.081384,16.656,1.2025e-07,-0.040692,0,0,0.14286,-0,-0,0.66667
0.51315,0.34174,3.592,-0.23739,-11.301,95.725,2.2739,-0.75798,-1.8009,3.0319,6.6169e-13,-0.90044,0,0,0.14286,-9.3047e-16,0,0.66667
0.42942,0.85161,3.006,0.52741,27.948,126.6,-4.2277,1.4092,-1.0095,-5.6369,3.3173e-13,-0.50475,0,0,0.14286,-0,-0,0.66667
0.091595,0.89346,0.64116,0.59018,38.104,272.22,-1.0091,0.33636,-0.76179,-1.3454,3.2845e-08,-0.38089,0,0,0.14286,1.6918e-16,1.9198e-16,0.66667
0.27368,0.57463,1.9157,0.11194,6.7019,190.07,-0.57187,0.19062,-1.9536,-0.7625,6.7704e-12,-0.97682,0,0,0.14286,-0,-0,0.66667
0.88665,0.22596,6.2065,-0.41106,-5.5755,7.2443,6.8033,-2.2678,-1.3988,9.0711,-1.0352e-08,-0.69939,0,0,0.14286,-0,-0,0.66667
0.24594,0.84764,1.7216,0.52147,31.851,202.36,-2.394,0.79801,-1.0331,-3.192,3.8274e-11,-0.51657,0,0,0.14286,-0,-0,0.66667
0.62119,0.40113,4.3483,-0.14831,-5.8673,61.139,1.7197,-0.57323,-1.9217,2.2929,4.5097e-13,-0.96086,0,0,0.14286,-0,-0,0.66667
0.49501,0.13347,3.4651,-0.5498,-26.97,102.47,5.0802,-1.6934,-0.92422,6.7736,1.4357e-12,-0.46211,0,0,0.14286,-0,-0,0.66667
0.094373,0.39387,0.66061,-0.15919,-10.219,270.85,0.28044,-0.093479,-1.9114,0.37392,6.8785e-09,-0.95572,0,0,0.14286,-1.6918e-16,0,0.66667
0.89937,0.2333,6.2956,-0.40005,-4.8287,5.9216,6.7161,-2.2387,-1.4291,8.9549,-1.8063e-08,-0.71457,0,0,0.14286,-0,-0,0.66667
0.067771,0.42028,0.4744,-0.11958,-7.7086,283.19,0.15127,-0.050425,-1.9477,0.2017,1.1836e-08,-0.97385,0,0,0.14286,-0,-0,0.66667
0.6807,0.99542,4.7649,0.74312,26.047,45.999,-9.4424,3.1475,-0.035531,-12.59,4.5386e-13,-0.017766,0,0,0.14286,-1.6918e-15,0,0.66667
0.972,0.03792,6.804,-0.69312,-2.4415,2.0857,12.576,-4.192,-0.29189,16.768,2.1853e-05,-0.14595,0,0,0.14286,-0,-0,0.66667
0.70937,0.60707,4.9656,0.16061,5.1234,37.825,-2.1267,0.7089,-1.9066,-2.8356,-5.3442e-12,-0.95329,0,0,0.14286,-1.3534e-15,0,0.66667
0.32591,0.44267,2.2814,-0.085998,-4.9723,167.81,0.52318,-0.17439,-1.9746,0.69758,7.9337e-13,-0.98731,0,0,0.14286,-6.7671e-16,0,0.66667
0.07344,0.089115,0.51408,-0.61633,-39.933,280.64,0.84491,-0.28164,-0.64897,1.1266,2.1688e-07,-0.32449,0,0,0.14286,1.2688e-16,0,0.66667
0.57974,0.45462,4.0582,-0.068069,-2.9131,73.635,0.73662,-0.24554,-1.9842,0.98216,2.7112e-13,-0.99208,0,0,0.14286,-0,-0,0.66667
0.73352,0.54604,5.1346,0.069061,2.0444,32.245,-0.94561,0.3152,-1.9843,-1.2608,2.2921e-13,-0.99215,0,0,0.14286,-0,-0,0.66667
0.35885,0.30163,2.5119,-0.29756,-16.791,154.28,1.9932,-0.6644,-1.6869,2.6576,-1.2463e-12,-0.84345,0,0,0.14286,-0,-0,0.66667
0.65375,0.45072,4.5763,-0.073922,-2.7227,51.945,0.90209,-0.3007,-1.9806,1.2028,1.5013e-12,-0.99028,0,0,0.14286,-0,-0,0.66667
0.56659,0.28236,3.9661,-0.32645,-14.327,77.982,3.4527,-1.1509,-1.6216,4.6036,4.5364e-13,-0.81078,0,0,0.14286,-1.3534e-15,0,0.66667
0.034106,0.81002,0.23874,0.46503,30.18,298.9,-0.29606,0.098688,-1.232,-0.39475,2.0624e-07,-0.61601,0,0,0.14286,-4.2294e-17,0,0.66667
0.92069,0.71045,6.4449,0.31568,2.99,3.8722,-5.4254,1.8085,-1.647,-7.2338,1.344e-08,-0.82351,0,0,0.14286,-6.7671e-16,0,0.66667
0.38001,0.39284,2.66,-0.16074,-8.8959,145.64,1.1402,-0.38007,-1.9068,1.5203,9.6489e-13,-0.95339,0,0,0.14286,-6.7671e-16,0,0.66667
0.3794,0.47358,2.6558,-0.039633,-2.1936,145.86,0.28069,-0.093562,-1.9941,0.37425,2.1252e-13,-0.99705,0,0,0.14286,-1.3534e-15,0,0.66667
0.84636,0.95139,5.9245,0.67708,12.476,12.974,-10.697,3.5657,-0.36987,-14.263,9.1735e-09,-0.18494,0,0,0.14286,-0,-0,0.66667
0.48428,0.74198,3.3899,0.36298,17.991,106.04,-3.2812,1.0937,-1.5339,-4.375,-3.2085e-13,-0.76697,0,0,0.14286,3.3835e-16,0,0.66667
0.45107,0.58382,3.1575,0.12573,6.472,118.06,-1.0587,0.35289,-1.9443,-1.4116,1.3187e-12,-0.97214,0,0,0.14286,-6.7671e-16,0,0.66667
0.63986,0.077903,4.479,-0.63315,-24.324,56.566,7.5623,-2.5208,-0.57602,10.083,3.3351e-13,-0.28801,0,0,0.14286,-0,-0,0.66667
0.21177,0.37721,1.4824,-0.18419,-11.393,217.33,0.72811,-0.2427,-1.8788,0.97082,1.5403e-10,-0.93939,0,0,0.14286,-0,-0,0.66667
0.5283,0.65954,3.6981,0.2393,11.145,90.529,-2.3599,0.78664,-1.7971,-3.1465,3.2685e-13,-0.89855,0,0,0.14286,-0,-0,0.66667
0.66857,0.73875,4.68,0.35812,12.778,48.24,-4.4693,1.4898,-1.5436,-5.9591,-4.0439e-12,-0.77178,0,0,0.14286,-0,-0,0.66667
0.53878,0.53461,3.7714,0.051909,2.3768,86.908,-0.52206,0.17402,-1.9896,-0.69608,-2.735e-13,-0.99479,0,0,0.14286,-1.3534e-15,0,0.66667
0.70876,0.51033,4.9613,0.015493,0.49469,37.914,-0.20497,0.068324,-1.9978,-0.2733,1.5236e-12,-0.99888,0,0,0.14286,-2.7068e-15,0,0.66667
0.59854,0.27236,4.1898,-0.34145,-14.158,68.044,3.8149,-1.2716,-1.5845,5.0866,1.4677e-13,-0.79224,0,0,0.14286,-0,-0,0.66667
0.84141,0.97782,5.8898,0.71673,13.639,13.812,-11.257,3.7524,-0.17385,-15.01,3.1291e-10,-0.086926,0,0,0.14286,-0,-0,0.66667
0.87917,0.69178,6.1542,0.28767,4.1243,7.8325,-4.721,1.5737,-1.7056,-6.2946,7.0711e-09,-0.85282,0,0,0.14286,2.7068e-15,0,0.66667
0.097839,0.91423,0.68487,0.62134,40.092,269.35,-1.1348,0.37826,-0.62674,-1.513,9.365e-10,-0.31337,0,0,0.14286,-0,-0,0.66667
0.25859,0.81313,1.8102,0.46969,28.468,196.79,-2.2672,0.75575,-1.2153,-3.023,2.0841e-11,-0.60766,0,0,0.14286,-0,-0,0.66667
0.054656,0.72675,0.38259,0.34013,21.998,289.31,-0.34701,0.11567,-1.5872,-0.46268,2.5177e-08,-0.79359,0,0,0.14286,-1.6918e-16,0,0.66667
0.22889,0.72613,1.6022,0.3392,20.843,209.77,-1.4493,0.48309,-1.5898,-1.9324,-7.1718e-11,-0.79492,0,0,0.14286,-0,-0,0.66667
0.72092,0.92251,5.0464,0.63376,19.781,35.975,-8.5286,2.8429,-0.57209,-11.371,-3.709e-12,-0.28604,0,0,0.14286,-1.3534e-15,0,0.66667
0.078545,0.26805,0.54982,-0.34793,-22.432,278.21,0.51013,-0.17004,-1.5713,0.68017,1.9319e-08,-0.78565,0,0,0.14286,-8.4588e-17,0,0.66667
0.15512,0.29818,1.0858,-0.30273,-19.155,242.94,0.87659,-0.2922,-1.6752,1.1688,2.5116e-09,-0.83759,0,0,0.14286,-1.6918e-16,0,0.66667
0.77077,0.53238,5.3954,0.04857,1.2599,24.474,-0.69881,0.23294,-1.9916,-0.93175,-2.4429e-12,-0.99582,0,0,0.14286,-0,-0,0.66667
0.44433,0.61235,3.1103,0.16852,8.7432,120.61,-1.3977,0.46591,-1.8972,-1.8637,3.8758e-13,-0.94862,0,0,0.14286,-6.7671e-16,0,0.66667
0.29012,0.25853,2.0308,-0.36221,-21.51,183.09,1.9616,-0.65386,-1.5321,2.6154,-7.5482e-12,-0.76603,0,0,0.14286,-0,-0,0.66667
0.64398,0.052056,4.5079,-0.67192,-25.616,55.522,8.0771,-2.6924,-0.39435,10.77,3.4639e-13,-0.19718,0,0,0.14286,-0,-0,0.66667
0.88694,0.78263,6.2086,0.42394,5.7407,7.2429,-7.0189,2.3396,-1.3616,-9.3585,1.0803e-08,-0.6808,0,0,0.14286,-0,-0,0.66667
0.037605,0.21276,0.26324,-0.43086,-27.941,297.26,0.30245,-0.10082,-1.3388,0.40327,-1.0239e-07,-0.66942,0,0,0.14286,-0,-0,0.66667
0.69309,0.34974,4.8517,-0.22539,-7.5321,41.823,2.916,-0.97201,-1.8184,3.8881,6.2776e-12,-0.90922,0,0,0.14286,-0,-0,0.66667
0.66855,0.79927,4.6799,0.4489,16.052,48.397,-5.6021,1.8674,-1.283,-7.4695,-3.3173e-12,-0.64148,0,0,0.14286,-0,-0,0.66667
0.86801,0.95452,6.0761,0.68178,10.913,10.181,-11.047,3.6823,-0.34546,-14.729,-6.968e-09,-0.17273,0,0,0.14286,-1.0279e-15,0,0.66667
0.19637,0.81264,1.3746,0.46895,29.29,224.34,-1.719,0.573,-1.2179,-2.292,-6.0562e-11,-0.60896,0,0,0.14286,-6.7671e-16,0,0.66667
0.71279,0.15627,4.9895,-0.5156,-16.412,37.551,6.8603,-2.2868,-1.0548,9.1471,4.9911e-12,-0.5274,0,0,0.14286,-0,-0,0.66667
0.1039,0.056099,0.72731,-0.66585,-42.95,266.57,1.2914,-0.43047,-0.42267,1.7219,-1.3121e-07,-0.21133,0,0,0.14286,1.6918e-16,0,0.66667
0.056626,0.54676,0.39638,0.070139,4.5272,288.38,-0.074139,0.024713,-1.9809,-0.098851,-1.0972e-07,-0.99043,0,0,0.14286,-0,-0,0.66667
0.6808,0.40741,4.7656,-0.13889,-4.7902,44.846,1.765,-0.58834,-1.9311,2.3534,3.3069e-12,-0.96553,0,0,0.14286,-0,-0,0.66667
0.022635,0.96403,0.15844,0.69604,45.395,304.27,-0.29409,0.098044,-0.2764,-0.39211,2.2761e-05,-0.1382,0,0,0.14286,5.2868e-17,0,0.66667
0.044299,0.56065,0.31009,0.090972,5.8796,294.12,-0.075227,0.025075,-1.9718,-0.1003,-2.5956e-07,-0.9859,0,0,0.14286,-0,-0,0.66667
0.036953,0.65012,0.25867,0.22519,14.573,297.55,-0.15533,0.051777,-1.8187,-0.20711,4.9185e-08,-0.90936,0,0,0.14286,-0,-0,0.66667
0.46541,0.98725,3.2579,0.73087,37.386,113.48,-6.3496,2.1165,-0.10018,-8.4661,6.9855e-13,-0.050091,0,0,0.14286,-6.7671e-16,0,0.66667
0.75787,0.97817,5.3051,0.71726,19.91,28.262,-10.147,3.3823,-0.16916,-13.529,1.3718e-11,-0.08458,0,0,0.14286,-0,-0,0.66667
0.9922,0.35965,6.9454,-0.21052,-0.10061,0.24192,3.899,-1.2997,-1.8405,5.1987,-6.4925e-08,-0.92026,0,0,0.14286,1.3534e-15,0,0.66667
0.22661,0.051699,1.5863,-0.67245,-41.601,211.02,2.8445,-0.94816,-0.39048,3.7926,-1.2274e-11,-0.19524,0,0,0.14286,-3.3835e-16,0,0.66667
0.79238,0.9928,5.5467,0.73919,17.959,21.755,-10.933,3.6445,-0.056532,-14.578,2.4058e-11,-0.028266,0,0,0.14286,-1.3534e-15,1.2903e-16,0.66667
0.79525,0.63474,5.5667,0.20211,4.7444,19.996,-3.0002,1.0001,-1.8556,-4.0003,2.8572e-10,-0.9278,0,0,0.14286,1.3534e-15,0,0.66667
0.87224,0.73008,6.1057,0.34512,5.2346,8.7368,-5.6192,1.8731,-1.5764,-7.4923,6.6827e-09,-0.7882,0,0,0.14286,-1.3534e-15,0,0.66667
0.31426,0.1988,2.1998,-0.4518,-26.435,172.9,2.6503,-0.88344,-1.2749,3.5338,-2.2125e-12,-0.63743,0,0,0.14286,-0,-0,0.66667
0.13293,0.97676,0.93048,0.71514,45.859,253.27,-1.7744,0.59148,-0.18012,-2.3659,-7.4817e-09,-0.090058,0,0,0.14286,-0,-0,0.66667
0.7967,0.4663,5.5769,-0.050555,-1.1771,19.643,0.75184,-0.25061,-1.994,1.0025,-1.6659e-11,-0.99702,0,0,0.14286,-0,-0,0.66667
0.56746,0.72882,3.9722,0.34323,15.045,77.723,-3.6357,1.2119,-1.58,-4.8476,-4.6563e-13,-0.78999,0,0,0.14286,-0,-0,0.66667
0.41465,0.95374,2.9026,0.68061,36.751,132.52,-5.2681,1.756,-0.35107,-7.0241,1.9327e-12,-0.17553,0,0,0.14286,-0,-0,0.66667
0.058642,0.28368,0.41049,-0.32448,-20.972,287.46,0.35519,-0.1184,-1.626,0.47358,-1.623e-08,-0.813,0,0,0.14286,-1.6918e-16,0,0.66667
0.0065569,0.5739,0.045898,0.11085,7.1784,311.74,-0.013567,0.0045226,-1.9546,-0.018089,2.8031e-07,-0.97732,0,0,0.14286,-0,-0,0.66667
0.31602,0.75669,2.2122,0.38504,22.478,172.1,-2.2714,0.75712,-1.4727,-3.0285,6.618e-12,-0.73637,0,0,0.14286,-0,-0,0.66667
0.27146,0.081049,1.9002,-0.62843,-37.922,191.35,3.1844,-1.0615,-0.59426,4.2458,-6.0929e-13,-0.29713,0,0,0.14286,-0,-0,0.66667
0.47572,0.10702,3.3301,-0.58947,-29.665,109.45,5.2346,-1.7449,-0.76271,6.9795,1.2004e-12,-0.38136,0,0,0.14286,-6.7671e-16,0,0.66667
0.92361,0.70004,6.4653,0.30007,2.7337,3.6169,-5.1734,1.7245,-1.6804,-6.8978,1.1723e-08,-0.84022,0,0,0.14286,-1.3534e-15,0,0.66667
0.41668,0.22976,2.9168,-0.40536,-21.718,131.35,3.153,-1.051,-1.4145,4.2039,1.5732e-12,-0.70723,0,0,0.14286,-0,-0,0.66667
0.28788,0.10823,2.0152,-0.58766,-35.079,184.24,3.158,-1.0527,-0.77031,4.2106,-2.6072e-12,-0.38516,0,0,0.14286,-0,-0,0.66667
0.84525,0.91623,5.9167,0.62435,11.536,12.947,-9.8509,3.2836,-0.61494,-13.135,-3.1738e-09,-0.30747,0,0,0.14286,-0,-0,0.66667
0.30695,0.78329,2.1486,0.42494,24.979,175.96,-2.4348,0.8116,-1.3577,-3.2464,8.1353e-12,-0.67884,0,0,0.14286,-0,-0,0.66667
0.91558,0.72742,6.4091,0.34113,3.4461,4.3359,-5.8302,1.9434,-1.5848,-7.7736,1.7753e-08,-0.79242,0,0,0.14286,2.7068e-15,0,0.66667
0.86341,0.41234,6.0439,-0.13149,-2.1122,9.5446,2.1193,-0.70642,-1.9382,2.8257,-8.6723e-10,-0.9691,0,0,0.14286,-0,-0,0.66667
0.63882,0.45407,4.4717,-0.068897,-2.6245,56.068,0.82157,-0.27386,-1.9836,1.0954,4.9905e-13,-0.99179,0,0,0.14286,-0,-0,0.66667
0.74768,0.11919,5.2337,-0.57122,-16.317,29.93,7.9723,-2.6574,-0.8406,10.63,-5.9139e-12,-0.4203,0,0,0.14286,-1.3534e-15,0,0.66667
0.15732,0.51803,1.1013,0.02704,1.7071,241.89,-0.079408,0.026469,-1.9985,-0.10588,-3.8148e-10,-0.99925,0,0,0.14286,3.3835e-16,0,0.66667
0.60287,0.40279,4.2201,-0.14582,-5.9823,66.556,1.641,-0.54699,-1.9236,2.188,4.9605e-13,-0.96182,0,0,0.14286,1.0244e-15,0,0.66667
0.32704,0.77317,2.2893,0.40975,23.74,167.5,-2.5014,0.8338,-1.4045,-3.3352,3.8813e-12,-0.70225,0,0,0.14286,3.3835e-16,0,0.66667
0.48868,0.32935,3.4207,-0.25597,-12.598,104.36,2.335,-0.77832,-1.766,3.1133,5.7643e-13,-0.88298,0,0,0.14286,6.7671e-16,0,0.66667
0.22539,0.050825,1.5777,-0.67376,-41.707,211.56,2.8347,-0.94488,-0.38423,3.7795,-1.1366e-11,-0.19212,0,0,0.14286,3.3835e-16,0,0.66667
0.90196,0.60304,6.3137,0.15455,1.7966,5.2917,-2.6021,0.86738,-1.9143,-3.4695,1.563e-09,-0.95713,0,0,0.14286,-0,-0,0.66667
0.41153,0.42271,2.8807,-0.11593,-6.2253,133.16,0.89056,-0.29685,-1.9507,1.1874,7.2237e-13,-0.97537,0,0,0.14286,-0,-0,0.66667
0.47673,0.70617,3.3371,0.30926,15.463,108.71,-2.7521,0.91737,-1.6581,-3.6695,4.4631e-13,-0.82906,0,0,0.14286,-0,-0,0.66667
0.7214,0.15836,5.0498,-0.51246,-15.897,35.552,6.9009,-2.3003,-1.0674,9.2012,1.589e-11,-0.53369,0,0,0.14286,-2.7068e-15,0,0.66667
0.1222,0.17644,0.85538,-0.48533,-31.07,258.08,1.107,-0.36902,-1.1624,1.4761,5.82e-09,-0.58119,0,0,0.14286,-0,-0,0.66667
0.50307,0.68793,3.5215,0.28189,13.615,99.281,-2.6471,0.88237,-1.7187,-3.5295,6.0396e-13,-0.85933,0,0,0.14286,-1.3534e-15,0,0.66667
0.81315,0.36156,5.692,-0.20766,-4.4845,16.935,3.152,-1.0507,-1.8482,4.2026,-6.0856e-10,-0.92408,0,0,0.14286,1.3534e-15,0,0.66667
0.67734,0.69818,4.7414,0.29728,10.365,45.877,-3.7587,1.2529,-1.6844,-5.0116,-4.6965e-12,-0.84221,0,0,0.14286,-1.3534e-15,0,0.66667
0.32165,0.80098,2.2516,0.45147,26.276,169.79,-2.7107,0.90356,-1.2736,-3.6142,3.9588e-12,-0.63682,0,0,0.14286,3.3835e-16,0,0.66667
0.71067,0.039029,4.9747,-0.69146,-22.299,38.519,9.1727,-3.0576,-0.29858,12.23,6.3061e-14,-0.14929,0,0,0.14286,-0,-0,0.66667
0.93444,0.58484,6.5411,0.12727,0.9824,2.62,-2.2199,0.73996,-1.9423,-2.9599,2.9373e-09,-0.97115,0,0,0.14286,-0,-0,0.66667
0.89478,0.50953,6.2634,0.014295,0.17786,5.93,-0.23876,0.079586,-1.9985,-0.31834,3.9443e-08,-0.99926,0,0,0.14286,-0,-0,0.66667
0.74223,0.14996,5.1956,-0.52505,-15.249,30.968,7.2746,-2.4249,-1.0185,9.6995,-3.0811e-12,-0.50926,0,0,0.14286,6.7671e-16,0,0.66667
0.2661,0.93073,1.8627,0.64609,39.125,193.69,-3.2093,1.0698,-0.51795,-4.279,1.3229e-12,-0.25898,0,0,0.14286,1.6918e-16,0,0.66667
0.37249,0.86234,2.6074,0.54351,30.432,148.98,-3.7791,1.2597,-0.94966,-5.0388,1.09e-12,-0.47483,0,0,0.14286,-4.4111e-16,0,0.66667
0.55842,0.31668,3.9089,-0.27499,-12.225,80.562,2.8664,-0.95546,-1.7311,3.8219,-1.8052e-13,-0.86553,0,0,0.14286,-0,-0,0.66667
0.38105,0.070133,2.6673,-0.6448,-35.912,145.69,4.5864,-1.5288,-0.52046,6.1152,2.5406e-12,-0.26023,0,0,0.14286,-0,-0,0.66667
0.45575,0.84494,3.1902,0.51742,26.625,116.67,-4.4018,1.4673,-1.0494,-5.8691,-7.1054e-14,-0.52472,0,0,0.14286,-0,-0,0.66667
0.79353,0.18086,5.5547,-0.47872,-11.417,20.768,7.091,-2.3637,-1.1851,9.4546,-1.354e-10,-0.59257,0,0,0.14286,-0,-0,0.66667
0.10394,0.71371,0.72758,0.32057,20.565,266.44,-0.62197,0.20732,-1.6339,-0.82929,-1.2842e-08,-0.81694,0,0,0.14286,1.2688e-16,0,0.66667
0.973,0.92263,6.811,0.63395,2.101,1.8148,-11.514,3.838,-0.57001,-15.352,-4.7235e-06,-0.285,0,0,0.14286,1.3534e-15,0,0.66667
0.70462,0.8528,4.9323,0.52921,17.254,39.517,-6.9606,2.3202,-1.0052,-9.2808,-3.8205e-12,-0.50262,0,0,0.14286,-1.3534e-15,0,0.66667
0.86473,0.52076,6.0531,0.031139,0.49505,9.3352,-0.50264,0.16755,-1.9952,-0.67019,2.8628e-10,-0.99762,0,0,0.14286,-0,-0,0.66667
0.78168,0.68811,5.4718,0.28216,7.0293,22.57,-4.1171,1.3724,-1.7202,-5.4895,1.4589e-10,-0.86008,0,0,0.14286,-2.7068e-15,0,0.66667
0.43218,0.39892,3.0253,-0.15162,-7.9705,125.2,1.2231,-0.40772,-1.9173,1.6309,-3.1319e-13,-0.95863,0,0,0.14286,-3.3835e-16,0,0.66667
0.94251,0.66326,6.5976,0.24489,1.6591,2.2284,-4.3085,1.4362,-1.7859,-5.7447,-1.597e-08,-0.89295,0,0,0.14286,2.7068e-15,0,0.66667
0.25309,0.76368,1.7716,0.39553,24.019,199.15,-1.8686,0.62286,-1.4434,-2.4914,-1.1835e-13,-0.72168,0,0,0.14286,-3.3835e-16,0,0.66667
0.046248,0.68612,0.32374,0.27918,18.06,293.22,-0.24102,0.080339,-1.7258,-0.32136,5.3309e-08,-0.86289,0,0,0.14286,1.1258e-16,0,0.66667
0.096878,0.058385,0.67815,-0.66242,-42.787,269.81,1.1979,-0.39931,-0.44027,1.5972,4.6781e-08,-0.22014,0,0,0.14286,4.2294e-17,0,0.66667
0.20074,0.92202,1.4052,0.63304,39.586,222.49,-2.372,0.79068,-0.57519,-3.1627,-2.7905e-10,-0.28759,0,0,0.14286,-0,-0,0.66667
0.53908,0.92003,3.7736,0.63004,29.092,87.468,-6.34,2.1133,-0.58675,-8.4533,2.3137e-13,-0.29337,0,0,0.14286,-0,-0,0.66667
0.2236,0.96428,1.5652,0.69642,43.169,212.37,-2.9068,0.96894,-0.27508,-3.8758,1.833e-11,-0.13754,0,0,0.14286,8.4588e-17,0,0.66667
0.83532,0.38831,5.8472,-0.16754,-3.2154,13.428,2.6124,-0.87079,-1.8984,3.4832,-1.2401e-09,-0.94918,0,0,0.14286,-0,-0,0.66667
0.0093387,0.58342,0.065371,0.12514,8.1039,310.44,-0.021814,0.0072713,-1.9428,-0.029086,-1.3178e-07,-0.97139,0,0,0.14286,1.0574e-17,0,0.66667
0.7459,0.015099,5.2213,-0.72735,-21.056,30.775,10.127,-3.3758,-0.11797,13.503,3.1086e-14,-0.058987,0,0,0.14286,2.7068e-15,0,0.66667
0.96901,0.0082624,6.7831,-0.73761,-2.9266,2.3822,13.342,-4.4473,-0.067751,17.789,-5.7266e-06,-0.033876,0,0,0.14286,-0,-0,0.66667
0.26718,0.74307,1.8703,0.36461,21.958,192.98,-1.8184,0.60615,-1.5285,-2.4246,9.559e-12,-0.76426,0,0,0.14286,5.0753e-16,0,0.66667
0.62382,0.32965,4.3667,-0.25552,-10.066,60.461,2.9754,-0.99181,-1.7688,3.9672,9.71e-13,-0.88442,0,0,0.14286,-0,-0,0.66667
0.71478,0.52636,5.0035,0.039541,1.2405,36.499,-0.52758,0.17586,-1.9943,-0.70344,-1.7508e-12,-0.99716,0,0,0.14286,-0,-0,0.66667
0.32696,0.7978,2.2887,0.4467,25.896,167.57,-2.7263,0.90876,-1.2915,-3.6351,5.8547e-12,-0.64576,0,0,0.14286,-1.0639e-15,0,0.66667
0.43313,0.90443,3.0319,0.60665,32.077,125.31,-4.9048,1.6349,-0.69169,-6.5397,1.1542e-12,-0.34584,0,0,0.14286,-7.613e-16,0,0.66667
0.73441,0.54863,5.1409,0.072945,2.1532,32.05,-1,0.33333,-1.9832,-1.3333,3.3534e-13,-0.99158,0,0,0.14286,1.3534e-15,0,0.66667
0.13115,0.57227,0.91805,0.10841,6.8992,253.87,-0.26541,0.088469,-1.9567,-0.35388,-4.2723e-09,-0.97837,0,0,0.14286,-0,-0,0.66667
0.14369,0.47577,1.0058,-0.036347,-2.3045,248.12,0.097489,-0.032496,-1.9954,0.12999,6.4285e-11,-0.9977,0,0,0.14286,3.3835e-16,0,0.66667
0.37541,0.69567,2.6278,0.2935,16.328,147.56,-2.0567,0.68558,-1.6958,-2.7423,3.3809e-12,-0.84789,0,0,0.14286,-6.7671e-16,0,0.66667
0.22841,0.19772,1.5989,-0.45343,-27.911,210.04,1.9332,-0.64441,-1.2675,2.5777,1.8674e-11,-0.63376,0,0,0.14286,6.7671e-16,0,0.66667
0.30699,0.88371,2.1489,0.57556,33.921,176.09,-3.2982,1.0994,-0.82094,-4.3976,3.4377e-12,-0.41047,0,0,0.14286,-0,-0,0.66667
0.15007,0.072026,1.0505,-0.64196,-40.897,245.39,1.7983,-0.59943,-0.53324,2.3977,9.0684e-09,-0.26662,0,0,0.14286,-0,-0,0.66667
0.096636,0.18496,0.67645,-0.47256,-30.42,269.86,0.85244,-0.28415,-1.2069,1.1366,2.0476e-08,-0.60344,0,0,0.14286,1.9032e-16,0,0.66667
0.91598,0.64756,6.4119,0.22134,2.2099,4.1105,-3.7845,1.2615,-1.8245,-5.046,4.8129e-09,-0.91225,0,0,0.14286,-0,-0,0.66667
0.34589,0.11261,2.4213,-0.58109,-33.287,159.86,3.7519,-1.2506,-0.79968,5.0026,2.3779e-12,-0.39984,0,0,0.14286,-0,-0,0.66667
0.56597,0.13305,3.9618,-0.55042,-24.294,78.528,5.815,-1.9383,-0.92253,7.7534,-1.9185e-13,-0.46127,0,0,0.14286,-0,-0,0.66667
0.5472,0.55488,3.8304,0.082323,3.7205,84.116,-0.84087,0.28029,-1.9781,-1.1212,-4.7562e-13,-0.98906,0,0,0.14286,3.3835e-16,0,0.66667
0.45036,0.74018,3.1525,0.36028,18.602,118.48,-3.0287,1.0096,-1.5385,-4.0383,-2.5779e-13,-0.76925,0,0,0.14286,6.7671e-16,0,0.66667
0.74782,0.86528,5.2347,0.54792,15.629,29.838,-7.6485,2.5495,-0.933,-10.198,-8.5398e-13,-0.4665,0,0,0.14286,-0,-0,0.66667
0.33158,0.45399,2.321,-0.069014,-3.9733,165.44,0.42716,-0.14239,-1.9824,0.56954,2.1649e-13,-0.99121,0,0,0.14286,6.7671e-16,0,0.66667
0.89248,0.95819,6.2473,0.68728,9.0727,7.4756,-11.45,3.8166,-0.3211,-15.266,7.5113e-08,-0.16055,0,0,0.14286,-1.3534e-15,0,0.66667
0.068033,0.51241,0.47623,0.018622,1.2002,283.06,-0.02365,0.0078831,-1.9973,-0.031533,-9.7857e-08,-0.99864,0,0,0.14286,-0,-0,0.66667
0.57489,0.96135,4.0242,0.69202,30.21,76.009,-7.4263,2.4754,-0.29721,-9.9017,7.1498e-13,-0.14861,0,0,0.14286,6.7671e-16,-1.2233e-16,0.66667
0.33905,0.43135,2.3734,-0.10297,-5.8953,162.34,0.65172,-0.21724,-1.9617,0.86896,-1.3651e-12,-0.98083,0,0,0.14286,5.0753e-16,0,0.66667
0.3639,0.66764,2.5473,0.25147,14.123,152.19,-1.7082,0.56939,-1.7741,-2.2776,2.1045e-12,-0.88705,0,0,0.14286,-0,-0,0.66667
0.3051,0.37781,2.1357,-0.18329,-10.76,176.61,1.0439,-0.34795,-1.8798,1.3918,-4.3129e-12,-0.93991,0,0,0.14286,6.7671e-16,0,0.66667
0.60359,0.94863,4.2251,0.67295,27.872,67.152,-7.5821,2.5274,-0.38833,-10.109,1.2697e-12,-0.19416,0,0,0.14286,-0,-0,0.66667
0.23441,0.46749,1.6409,-0.048765,-2.9826,207.24,0.21338,-0.071126,-1.995,0.2845,3.0971e-12,-0.99752,0,0,0.14286,4.2294e-17,0,0.66667
0.29431,0.43836,2.0601,-0.092459,-5.4643,181.18,0.50794,-0.16931,-1.971,0.67726,-2.232e-12,-0.98551,0,0,0.14286,-0,-0,0.66667
0.28549,0.42049,1.9985,-0.11926,-7.0887,184.97,0.63556,-0.21185,-1.9484,0.84741,-1.9592e-12,-0.97419,0,0,0.14286,-0,-0,0.66667
0.0067954,0.58364,0.047568,0.12547,8.1256,311.63,-0.015915,0.0053051,-1.9424,-0.02122,8.062e-09,-0.97121,0,0,0.14286,-0,-0,0.66667
0.37162,0.0048918,2.6013,-0.74266,-41.811,149.63,5.1518,-1.7173,-0.039133,6.869,-2.6112e-13,-0.019567,0,0,0.14286,-0,-8.9348e-17,0.66667
0.048897,0.076676,0.34228,-0.63499,-41.282,292.04,0.57958,-0.19319,-0.56668,0.77278,6.8954e-07,-0.28334,0,0,0.14286,-0,-0,0.66667
0.87438,0.14969,6.1206,-0.52546,-7.9276,8.912,8.5765,-2.8588,-1.0203,11.435,-1.0595e-09,-0.51016,0,0,0.14286,6.7671e-16,0,0.66667
0.72182,0.92676,5.0528,0.64014,19.93,35.787,-8.6252,2.8751,-0.54275,-11.5,-4.6043e-12,-0.27138,0,0,0.14286,-0,-0,0.66667
0.59531,0.62135,4.1671,0.18202,7.5778,68.871,-2.0227,0.67424,-1.8839,-2.697,-4.8805e-13,-0.94193,0,0,0.14286,-8.4588e-16,0,0.66667
0.74388,0.72732,5.2071,0.34099,9.7924,30.248,-4.7348,1.5783,-1.5852,-6.3131,1.8168e-12,-0.79261,0,0,0.14286,-1.3534e-15,0,0.66667
0.90109,0.89498,6.3077,0.59247,7.1483,6.2912,-9.9656,3.3219,-0.75063,-13.287,4.6757e-08,-0.37532,0,0,0.14286,-0,-0,0.66667
0.69409,0.53893,4.8586,0.058402,1.9435,41.474,-0.75668,0.25223,-1.9865,-1.0089,-8.5559e-13,-0.99326,0,0,0.14286,-1.3534e-15,0,0.66667
0.59076,0.78029,4.1353,0.42044,17.714,70.529,-4.6364,1.5455,-1.3726,-6.1819,1.9851e-13,-0.6863,0,0,0.14286,1.438e-15,0,0.66667
0.12426,0.25482,0.86981,-0.36778,-23.494,257.09,0.85306,-0.28435,-1.5213,1.1374,7.9621e-09,-0.76063,0,0,0.14286,3.3835e-16,0,0.66667
0.40458,0.13421,2.8321,-0.54868,-29.831,136.24,4.1438,-1.3813,-0.93045,5.525,2.4096e-12,-0.46523,0,0,0.14286,-6.7671e-16,0,0.66667
0.57895,0.47578,4.0527,-0.036332,-1.5569,73.876,0.39264,-0.13088,-1.9971,0.52352,2.3509e-14,-0.99856,0,0,0.14286,-0,-0,0.66667
0.60284,0.39327,4.2199,-0.16009,-6.569,66.573,1.8015,-0.60051,-1.9071,2.402,1.1566e-12,-0.95357,0,0,0.14286,-3.7204e-17,0,0.66667
0.96078,0.57742,6.7254,0.11613,0.51738,1.1236,-2.0827,0.69425,-1.9502,-2.777,1.0576e-07,-0.97508,0,0,0.14286,-0,-0,0.66667
0.2055,0.25097,1.4385,-0.37355,-23.211,220.2,1.4329,-0.47764,-1.5054,1.9106,2.6389e-10,-0.7527,0,0,0.14286,-0,-0,0.66667
0.66315,0.28458,4.6421,-0.32312,-11.673,49.621,3.9999,-1.3333,-1.628,5.3332,3.9588e-12,-0.81399,0,0,0.14286,-0,-0,0.66667
0.25643,0.71292,1.795,0.31938,19.342,197.64,-1.5288,0.5096,-1.6362,-2.0384,-1.4782e-12,-0.81811,0,0,0.14286,-0,-0,0.66667
0.41776,0.90282,2.9243,0.60424,32.463,131.2,-4.712,1.5707,-0.7019,-6.2826,2.3093e-14,-0.35095,0,0,0.14286,4.6204e-16,0,0.66667
0.97195,0.79455,6.8037,0.44182,1.4283,1.2249,-8.016,2.672,-1.3055,-10.688,-3.9826e-07,-0.65273,0,0,0.14286,-0,-0,0.66667
0.33108,0.21938,2.3175,-0.42092,-24.318,165.82,2.6014,-0.86712,-1.3713,3.4685,-6.6191e-13,-0.68563,0,0,0.14286,-0,-0,0.66667
0.36202,0.80588,2.5342,0.45882,25.88,153.12,-3.1006,1.0335,-1.2519,-4.1342,1.5987e-12,-0.62595,0,0,0.14286,3.3835e-16,0,0.66667
0.43957,0.88818,3.077,0.58227,30.556,122.83,-4.7777,1.5926,-0.79483,-6.3702,-9.9565e-13,-0.39741,0,0,0.14286,6.7671e-16,0,0.66667
0.040668,0.2298,0.28467,-0.4053,-26.269,295.83,0.30768,-0.10256,-1.4143,0.41024,-7.1185e-08,-0.70717,0,0,0.14286,-0,-0,0.66667
0.39857,0.98348,2.79,0.72522,39.827,138.88,-5.3956,1.7985,-0.12808,-7.1942,-1.6143e-12,-0.064039,0,0,0.14286,9.44e-16,0,0.66667
0.61899,0.75301,4.3329,0.37952,15.131,62.016,-4.3851,1.4617,-1.4873,-5.8468,-8.1224e-13,-0.74365,0,0,0.14286,-0,-0,0.66667
0.57808,0.34732,4.0466,-0.22902,-9.8414,74.241,2.4713,-0.82378,-1.8166,3.2951,-2.2515e-13,-0.90828,0,0,0.14286,-0,-0,0.66667
0.87341,0.69227,6.1139,0.2884,4.325,8.5006,-4.702,1.5673,-1.7057,-6.2693,6.4879e-09,-0.85287,0,0,0.14286,2.7068e-15,0,0.66667
0.64119,0.48266,4.4883,-0.02601,-0.98553,55.398,0.3113,-0.10377,-1.9992,0.41507,3.8269e-13,-0.99958,0,0,0.14286,-0,-0,0.66667
0.55696,0.28943,3.8987,-0.31585,-14.083,81.078,3.2837,-1.0946,-1.6441,4.3783,6.1062e-14,-0.82206,0,0,0.14286,-0,-0,0.66667
0.64065,0.67751,4.4845,0.26626,10.12,55.688,-3.1842,1.0614,-1.7502,-4.2456,-1.3671e-12,-0.87511,0,0,0.14286,-0,-0,0.66667
0.047617,0.81433,0.33332,0.47149,30.568,292.61,-0.41908,0.13969,-1.2123,-0.55878,-1.9791e-09,-0.60614,0,0,0.14286,-0,-0,0.66667
0.99612,0.68887,6.9728,0.28331,0.0016151,0.2941,-5.2678,1.7559,-1.7152,-7.0238,1.3565e-07,-0.85758,0,0,0.14286,-0,-0,0.66667
0.15171,0.22945,1.0619,-0.40583,-25.737,244.53,1.1492,-0.38308,-1.4134,1.5323,2.2785e-09,-0.70669,0,0,0.14286,-0,-0,0.66667
0.41845,0.81781,2.9291,0.47671,25.526,130.75,-3.7236,1.2412,-1.1921,-4.9648,1.0747e-12,-0.59604,0,0,0.14286,1.3534e-15,0,0.66667
0.29525,0.80281,2.0668,0.45422,26.921,180.96,-2.5034,0.83446,-1.2673,-3.3378,8.9011e-12,-0.63364,0,0,0.14286,-0,-0,0.66667
0.57722,0.81039,4.0405,0.46559,20.117,74.808,-5.0166,1.6722,-1.2317,-6.6888,5.3735e-14,-0.61587,0,0,0.14286,-0,-0,0.66667
0.55956,0.38471,3.9169,-0.17294,-7.6653,80.111,1.8063,-0.60211,-1.8936,2.4084,5.3046e-13,-0.94678,0,0,0.14286,-0,-0,0.66667
0.35211,0.38676,2.4648,-0.16986,-9.6278,156.97,1.1165,-0.37216,-1.8956,1.4886,4.5619e-13,-0.94782,0,0,0.14286,-0,-0,0.66667
0.97363,0.5925,6.8154,0.13875,0.39362,0.63503,-2.5217,0.84055,-1.9317,-3.3622,1.4932e-07,-0.96583,0,0,0.14286,-1.5226e-15,0,0.66667
0.75127,0.074357,5.2589,-0.63846,-18.067,29.367,8.9537,-2.9846,-0.55162,11.938,1.678e-11,-0.27581,0,0,0.14286,-0,-0,0.66667
0.88984,0.47627,6.2289,-0.035598,-0.46346,6.4418,0.59129,-0.1971,-1.9973,0.78839,6.1063e-09,-0.99864,0,0,0.14286,-2.7068e-15,0,0.66667
0.45541,0.35388,3.1879,-0.21918,-11.233,116.48,1.8633,-0.62109,-1.8295,2.4843,-1.3733e-13,-0.91475,0,0,0.14286,-0,-0,0.66667
0.59941,0.38751,4.1958,-0.16873,-6.9696,67.616,1.8879,-0.6293,-1.8972,2.5172,9.6867e-13,-0.94862,0,0,0.14286,-0,-0,0.66667
0.41345,0.26606,2.8942,-0.3509,-18.847,132.55,2.7082,-0.90274,-1.5603,3.6109,6.1307e-13,-0.78016,0,0,0.14286,-0,-0,0.66667
0.30426,0.81819,2.1298,0.47729,28.131,177.15,-2.7107,0.90358,-1.1888,-3.6143,6.612e-12,-0.59442,0,0,0.14286,-6.7671e-16,0,0.66667
0.52547,0.88331,3.6783,0.57497,27.054,91.938,-5.6397,1.8799,-0.82333,-7.5196,-1.1102e-13,-0.41166,0,0,0.14286,-0,-0,0.66667
0.19097,0.46084,1.3368,-0.058738,-3.6636,226.64,0.20939,-0.069795,-1.9875,0.27918,1.8084e-10,-0.99374,0,0,0.14286,1.6918e-16,0,0.66667
0.2141,0.36253,1.4987,-0.2062,-12.743,216.29,0.82409,-0.2747,-1.8476,1.0988,1.5907e-10,-0.92382,0,0,0.14286,-0,-0,0.66667
0.51079,0.3033,3.5755,-0.29505,-14.102,96.594,2.8132,-0.93772,-1.6895,3.7509,7.9203e-13,-0.84473,0,0,0.14286,-6.7671e-16,0,0.66667
0.013852,0.4555,0.096965,-0.066746,-4.3213,308.33,0.017259,-0.0057543,-1.9847,0.023012,-1.892e-06,-0.99234,0,0,0.14286,-0,-0,0.66667
0.44549,0.60343,3.1184,0.15514,8.0377,120.16,-1.2901,0.43004,-1.9128,-1.7202,7.7793e-13,-0.95639,0,0,0.14286,-0,-0,0.66667
0.9967,0.13602,6.9769,-0.54597,-0.085269,0.96203,10.158,-3.3859,-0.93973,13.544,-6.7402e-07,-0.46986,0,0,0.14286,2.7068e-15,-1.5448e-16,0.66667
0.82268,0.39534,5.7588,-0.157,-3.2274,15.351,2.4109,-0.80365,-1.911,3.2146,-8.659e-10,-0.95549,0,0,0.14286,-0,-0,0.66667
0.083461,0.43763,0.58422,-0.093562,-6.0164,275.9,0.14576,-0.048588,-1.9691,0.19435,-2.0641e-08,-0.98453,0,0,0.14286,3.3835e-16,0,0.66667
0.65589,0.91258,4.5912,0.61887,22.924,52.136,-7.577,2.5257,-0.64056,-10.103,-1.0889e-12,-0.32028,0,0,0.14286,1.3534e-15,1.093e-16,0.66667
0.22539,0.92737,1.5778,0.64106,39.654,211.52,-2.6971,0.89905,-0.53723,-3.5962,-2.7073e-11,-0.26861,0,0,0.14286,-3.3835e-16,0,0.66667
0.11796,0.88753,0.82569,0.5813,37.314,260.06,-1.2799,0.42664,-0.79675,-1.7066,6.006e-09,-0.39837,0,0,0.14286,-0,-0,0.66667
0.34868,0.49436,2.4407,-0.0084663,-0.48094,158.35,0.055104,-0.018368,-1.9991,0.073472,2.5474e-12,-0.99954,0,0,0.14286,1.6918e-16,0,0.66667
0.67717,0.62839,4.7402,0.19259,6.7077,45.814,-2.4344,0.81146,-1.8677,-3.2458,-3.8762e-12,-0.93385,0,0,0.14286,-0,-0,0.66667
0.55076,0.47968,3.8554,-0.030475,-1.3693,82.931,0.31331,-0.10444,-1.996,0.41775,4.827e-13,-0.99798,0,0,0.14286,-0,-0,0.66667
0.043963,0.78433,0.30774,0.42649,27.642,294.3,-0.34999,0.11666,-1.354,-0.46666,3.4303e-08,-0.67702,0,0,0.14286,1.6918e-16,0,0.66667
0.85675,0.0087876,5.9973,-0.73682,-12.789,11.804,11.784,-3.9279,-0.069872,15.712,-2.2435e-09,-0.034936,0,0,0.14286,-0,-1.3678e-16,0.66667
0.4776,0.76365,3.3432,0.39548,19.778,108.49,-3.5257,1.1752,-1.4421,-4.701,3.7481e-13,-0.72105,0,0,0.14286,-0,-0,0.66667
0.85678,0.40213,5.9974,-0.1468,-2.4683,10.411,2.3479,-0.78262,-1.9242,3.1305,-2.1842e-09,-0.96209,0,0,0.14286,-3.3835e-16,0,0.66667
0.18765,0.18459,1.3136,-0.47311,-29.655,228.26,1.6572,-0.55242,-1.2072,2.2097,6.5879e-10,-0.60361,0,0,0.14286,3.8065e-16,0,0.66667
0.083733,0.59121,0.58613,0.13681,8.7987,275.78,-0.21384,0.071281,-1.9331,-0.28512,-1.0286e-08,-0.96653,0,0,0.14286,8.4588e-17,0,0.66667
0.51597,0.75327,3.6118,0.37991,18.048,94.891,-3.659,1.2197,-1.4896,-4.8787,-1.3722e-13,-0.74482,0,0,0.14286,1.3534e-15,0,0.66667
0.45454,0.079215,3.1818,-0.63118,-32.61,117.3,5.3554,-1.7851,-0.5843,7.1406,3.3351e-13,-0.29215,0,0,0.14286,6.7671e-16,0,0.66667
0.013894,0.80385,0.097261,0.45578,29.604,308.32,-0.11821,0.039404,-1.2622,-0.15762,3.2554e-08,-0.63112,0,0,0.14286,-0,-0,0.66667
0.039355,0.13732,0.27548,-0.54401,-35.337,296.46,0.39964,-0.13321,-0.94591,0.53286,1.8936e-07,-0.47296,0,0,0.14286,-0,-0,0.66667
0.093633,0.42198,0.65543,-0.11702,-7.512,271.18,0.20454,-0.068179,-1.9533,0.27272,1.1326e-09,-0.97664,0,0,0.14286,-0,-0,0.66667
0.040677,0.40013,0.28474,-0.14981,-9.6876,295.81,0.11375,-0.037918,-1.9191,0.15167,-1.2275e-07,-0.95955,0,0,0.14286,6.3441e-17,0,0.66667
0.17574,0.76862,1.2302,0.40294,25.345,233.61,-1.3218,0.44061,-1.4219,-1.7624,-9.3386e-10,-0.71096,0,0,0.14286,-1.6918e-16,0,0.66667
0.57554,0.29493,4.0288,-0.3076,-13.29,75.118,3.3046,-1.1015,-1.6635,4.4062,4.5408e-13,-0.83175,0,0,0.14286,-0,-0,0.66667
0.47675,0.54357,3.3373,0.065361,3.2618,108.57,-0.58167,0.19389,-1.983,-0.77556,-1.0461e-12,-0.9915,0,0,0.14286,1.3534e-15,0,0.66667
0.97977,0.095186,6.8584,-0.60722,-1.4669,1.5105,11.105,-3.7018,-0.68918,14.807,3.1151e-06,-0.34459,0,0,0.14286,-0,-0,0.66667
0.070737,0.36442,0.49516,-0.20337,-13.11,281.82,0.26853,-0.08951,-1.8512,0.35804,6.2177e-09,-0.92562,0,0,0.14286,-8.4588e-17,0,0.66667
0.86742,0.45709,6.0719,-0.06437,-1.004,9.01,1.0423,-0.34742,-1.9835,1.3897,5.4608e-10,-0.99174,0,0,0.14286,1.3534e-15,0,0.66667
0.57852,0.75118,4.0496,0.37678,16.213,74.264,-4.0688,1.3563,-1.4984,-5.4251,-1.0516e-12,-0.74921,0,0,0.14286,1.3534e-15,0,0.66667
0.87648,0.76618,6.1353,0.39927,5.8795,8.3504,-6.5325,2.1775,-1.4339,-8.7099,7.3863e-09,-0.71695,0,0,0.14286,-0,-0,0.66667
0.055714,0.13538,0.39,-0.54694,-35.473,288.85,0.56881,-0.1896,-0.93475,0.75841,1.4115e-07,-0.46738,0,0,0.14286,-0,-0,0.66667
0.099154,0.065607,0.69407,-0.65159,-42.059,268.76,1.206,-0.402,-0.49,1.608,-9.1739e-08,-0.245,0,0,0.14286,-0,-0,0.66667
0.86309,0.33672,6.0417,-0.24493,-3.9539,9.6993,3.946,-1.3153,-1.7864,5.2614,-3.7772e-09,-0.89321,0,0,0.14286,-1.3534e-15,0,0.66667
0.57038,0.17495,3.9927,-0.48757,-21.327,77.004,5.1913,-1.7304,-1.1529,6.9217,4.3743e-13,-0.57646,0,0,0.14286,-0,-0,0.66667
0.55849,0.65161,3.9095,0.22742,10.103,80.495,-2.3709,0.79031,-1.816,-3.1612,4.5963e-14,-0.908,0,0,0.14286,-0,-0,0.66667
0.013013,0.89615,0.091089,0.59422,38.687,308.74,-0.14434,0.048111,-0.74461,-0.19245,-2.5336e-06,-0.37231,0,0,0.14286,-1.0574e-17,0,0.66667
0.64225,0.11172,4.4958,-0.58241,-22.22,55.777,6.9824,-2.3275,-0.79458,9.3098,1.12e-12,-0.39729,0,0,0.14286,-6.7671e-16,0,0.66667
0.84766,0.59015,5.9337,0.13523,2.4104,11.633,-2.1398,0.71325,-1.9351,-2.853,2.8705e-09,-0.96754,0,0,0.14286,2.0301e-15,0,0.66667
0.99613,0.38683,6.9729,-0.16975,0.0081915,0.13459,3.1564,-1.0521,-1.8968,4.2085,-1.5751e-07,-0.94838,0,0,0.14286,-0,-0,0.66667
0.43295,0.31054,3.0307,-0.28419,-14.945,124.99,2.2968,-0.76559,-1.7129,3.0624,9.3148e-13,-0.85647,0,0,0.14286,-0,-0,0.66667
0.31141,0.19017,2.1799,-0.46475,-27.252,174.11,2.7016,-0.90053,-1.2343,3.6021,-8.2512e-13,-0.61713,0,0,0.14286,-0,-0,0.66667
0.40477,0.16796,2.8334,-0.49806,-27.046,136.1,3.7632,-1.2544,-1.1188,5.0176,1.7628e-12,-0.55941,0,0,0.14286,-0,-0,0.66667
0.22803,0.4193,1.5962,-0.12104,-7.4282,210.08,0.51522,-0.17174,-1.9462,0.68695,5.5168e-11,-0.9731,0,0,0.14286,3.3835e-16,0,0.66667
0.2261,0.81613,1.5827,0.4742,29.231,211.08,-2.0013,0.66712,-1.1996,-2.6685,-1.501e-11,-0.59981,0,0,0.14286,6.7671e-16,0,0.66667
0.43364,0.22349,3.0355,-0.41477,-21.835,124.85,3.3574,-1.1191,-1.3883,4.4766,6.6835e-14,-0.69414,0,0,0.14286,-0,-0,0.66667
0.68454,0.32333,4.7918,-0.265,-9.0652,44.004,3.3862,-1.1287,-1.7501,4.515,6.1466e-12,-0.87505,0,0,0.14286,-0,-0,0.66667
0.66074,0.85717,4.6252,0.53576,19.569,50.64,-6.6079,2.2026,-0.97827,-8.8106,-1.688e-12,-0.48914,0,0,0.14286,-0,-0,0.66667
0.77249,0.27764,5.4074,-0.33354,-8.6315,24.4,4.8096,-1.6032,-1.6036,6.4129,-8.1997e-11,-0.8018,0,0,0.14286,1.6918e-15,0,0.66667
0.21681,0.25066,1.5177,-0.37401,-23.123,215.15,1.5137,-0.50457,-1.5046,2.0183,1.6656e-10,-0.75228,0,0,0.14286,6.7671e-16,0,0.66667
0.72871,0.40707,5.1009,-0.1394,-4.1927,33.35,1.8961,-0.63205,-1.9308,2.5282,1.6239e-12,-0.96542,0,0,0.14286,-0,-0,0.66667
0.79525,0.59001,5.5668,0.13502,3.1662,19.939,-2.0043,0.66811,-1.9368,-2.6724,1.7534e-10,-0.96839,0,0,0.14286,-3.3835e-16,0,0.66667
0.56181,0.50053,3.9327,0.00080059,0.035328,79.331,-0.0083959,0.0027986,-2.003,-0.011195,3.5524e-13,-1.0015,0,0,0.14286,-0,-0,0.66667
0.46567,0.96338,3.2597,0.69507,35.507,113.31,-6.0419,2.014,-0.28252,-8.0559,4.0901e-13,-0.14126,0,0,0.14286,-1.0151e-15,9.6269e-17,0.66667
0.1582,0.082714,1.1074,-0.62593,-39.76,241.68,1.8484,-0.61614,-0.60747,2.4645,-1.245e-09,-0.30374,0,0,0.14286,-0,-0,0.66667
0.046453,0.33579,0.32517,-0.24631,-15.929,293.12,0.21358,-0.071193,-1.7864,0.28477,-5.1863e-08,-0.89319,0,0,0.14286,-0,-0,0.66667
0.46383,0.13498,3.2468,-0.54753,-27.927,113.72,4.7406,-1.5802,-0.93295,6.3208,8.1357e-13,-0.46648,0,0,0.14286,-0,-0,0.66667
0.6543,0.80689,4.5801,0.46033,17.032,52.216,-5.6223,1.8741,-1.2476,-7.4964,-1.8741e-12,-0.62381,0,0,0.14286,3.8742e-16,0,0.66667
0.21255,0.23422,1.4878,-0.39868,-24.703,217.06,1.5818,-0.52725,-1.4331,2.109,1.4883e-10,-0.71657,0,0,0.14286,-0,-0,0.66667
0.39995,0.31306,2.7996,-0.28042,-15.249,137.78,2.0935,-0.69784,-1.7203,2.7914,1.4684e-12,-0.86013,0,0,0.14286,-1.3534e-15,0,0.66667
0.49764,0.13385,3.4835,-0.54923,-26.848,101.54,5.1019,-1.7006,-0.92783,6.8025,9.2903e-13,-0.46392,0,0,0.14286,-0,-0,0.66667
0.9549,0.56247,6.6843,0.093712,0.48594,1.3893,-1.6704,0.5568,-1.971,-2.2272,2.9311e-07,-0.98548,0,0,0.14286,4.9696e-16,0,0.66667
0.87745,0.93564,6.1421,0.65347,9.7314,8.9694,-10.703,3.5677,-0.48303,-14.271,9.8586e-08,-0.24151,0,0,0.14286,3.3835e-16,0,0.66667
0.87405,0.9128,6.1183,0.61921,9.4338,9.2419,-10.103,3.3676,-0.63849,-13.47,-1.05e-08,-0.31925,0,0,0.14286,-0,-0,0.66667
0.9966,0.1661,6.9762,-0.50086,-0.060224,0.81681,9.3175,-3.1058,-1.1077,12.423,-9.8042e-07,-0.55384,0,0,0.14286,2.7068e-15,-1.4604e-16,0.66667
0.77345,0.46386,5.4142,-0.054206,-1.3914,23.953,0.78262,-0.26087,-1.9885,1.0435,-1.3315e-11,-0.99423,0,0,0.14286,-1.6918e-15,0,0.66667
0.20306,0.40338,1.4214,-0.14493,-8.997,221.22,0.54936,-0.18312,-1.9285,0.73248,1.7911e-10,-0.96424,0,0,0.14286,8.4588e-17,0,0.66667
0.83989,0.6164,5.8792,0.1746,3.2642,12.766,-2.7374,0.91248,-1.8911,-3.6499,1.5446e-09,-0.94553,0,0,0.14286,-0,-0,0.66667
0.16625,0.80773,1.1637,0.4616,29.157,237.94,-1.4325,0.47749,-1.2417,-1.91,-5.2088e-10,-0.62083,0,0,0.14286,-1.6918e-16,0,0.66667
0.88909,0.90186,6.2236,0.6028,8.1271,7.5229,-10.004,3.3347,-0.7096,-13.339,2.0507e-08,-0.3548,0,0,0.14286,-6.7671e-16,0,0.66667
0.33858,0.2391,2.3701,-0.39135,-22.471,162.68,2.4734,-0.82447,-1.4542,3.2979,-1.8763e-13,-0.72708,0,0,0.14286,-0,-0,0.66667
0.28794,0.9023,2.0156,0.60344,36.032,184.23,-3.2435,1.0812,-0.7044,-4.3247,4.9911e-12,-0.3522,0,0,0.14286,1.6918e-16,0,0.66667
0.60622,0.68511,4.2436,0.27767,11.334,65.656,-3.1422,1.0474,-1.7266,-4.1896,-3.3928e-13,-0.8633,0,0,0.14286,-6.7671e-16,0,0.66667
0.060612,0.36258,0.42428,-0.20613,-13.306,286.53,0.23322,-0.077739,-1.8494,0.31095,-2.6976e-08,-0.9247,0,0,0.14286,-0,-0,0.66667
0.90709,0.46791,6.3496,-0.048132,-0.52923,4.7536,0.81498,-0.27166,-1.9946,1.0866,-5.7661e-08,-0.99729,0,0,0.14286,-5.9212e-16,0,0.66667
0.38107,0.19756,2.6675,-0.45366,-25.167,145.43,3.227,-1.0757,-1.2667,4.3027,3.7481e-13,-0.63337,0,0,0.14286,6.7671e-16,0,0.66667
0.78998,0.8593,5.5299,0.53894,13.085,21.556,-7.9474,2.6491,-0.96541,-10.597,1.5229e-10,-0.48271,0,0,0.14286,-0,-0,0.66667
0.71055,0.77097,4.9738,0.40645,12.98,37.855,-5.391,1.797,-1.4109,-7.188,-7.5566e-12,-0.70546,0,0,0.14286,-6.7671e-16,0,0.66667
0.70415,0.27606,4.929,-0.3359,-10.908,39.263,4.4152,-1.4717,-1.6007,5.8869,8.5656e-12,-0.80035,0,0,0.14286,3.3835e-16,0,0.66667
0.53263,0.1956,3.7284,-0.45659,-21.2,89.316,4.5396,-1.5132,-1.2599,6.0528,9.1083e-13,-0.62997,0,0,0.14286,-0,-0,0.66667
0.46668,0.88395,3.2667,0.57593,29.295,112.73,-5.0171,1.6724,-0.82121,-6.6894,-4.0146e-13,-0.41061,0,0,0.14286,-0,-0,0.66667
0.6454,0.052621,4.5178,-0.67107,-25.503,55.13,8.0847,-2.6949,-0.39775,10.78,3.8813e-13,-0.19887,0,0,0.14286,-0,-0,0.66667
0.69158,0.00065314,4.841,-0.74902,-25.53,43.297,9.6694,-3.2231,-0.0058035,12.893,-1.0409e-12,-0.0029018,0,0,0.14286,-0,-0,0.66667
0.23582,0.80525,1.6507,0.45787,28.083,206.77,-2.0155,0.67184,-1.2558,-2.6874,-1.2571e-11,-0.62792,0,0,0.14286,1.6918e-16,0,0.66667
0.75381,0.46888,5.2767,-0.046674,-1.2895,27.891,0.65676,-0.21892,-1.9931,0.87568,-1.7383e-11,-0.99654,0,0,0.14286,-0,-0,0.66667
0.93662,0.86543,6.5563,0.54814,4.2469,3.3025,-9.5835,3.1945,-0.93319,-12.778,1.0688e-07,-0.46659,0,0,0.14286,-0,-1.5965e-16,0.66667
0.8151,0.45436,5.7057,-0.068458,-1.4615,16.517,1.0416,-0.3472,-1.9832,1.3888,-3.0217e-10,-0.99161,0,0,0.14286,-0,-0,0.66667
0.73061,0.045553,5.1143,-0.68167,-20.694,33.937,9.2966,-3.0989,-0.34701,12.396,7.1854e-13,-0.1735,0,0,0.14286,-0,-0,0.66667
0.82171,0.12038,5.752,-0.56942,-11.942,16.27,8.7342,-2.9114,-0.84622,11.646,-8.9321e-10,-0.42311,0,0,0.14286,-1.6918e-15,0,0.66667
0.0069549,0.31145,0.048684,-0.28282,-18.335,311.56,0.036718,-0.012239,-1.7152,0.048957,1.1645e-07,-0.85761,0,0,0.14286,1.5199e-17,0,0.66667
0.17482,0.55718,1.2238,0.085764,5.3826,233.94,-0.27988,0.093294,-1.9742,-0.37317,-6.1632e-10,-0.98712,0,0,0.14286,-3.3835e-16,0,0.66667
0.34198,0.2631,2.3939,-0.35535,-20.34,161.25,2.2684,-0.75614,-1.5516,3.0246,-9.9787e-13,-0.77578,0,0,0.14286,-0,-0,0.66667
0.73352,0.46297,5.1346,-0.055542,-1.6441,32.241,0.7605,-0.2535,-1.991,1.014,8.3927e-13,-0.99549,0,0,0.14286,1.0151e-15,0,0.66667
0.97837,0.14085,6.8486,-0.53873,-1.3538,1.3102,9.8388,-3.2796,-0.96639,13.118,1.0853e-06,-0.4832,0,0,0.14286,-0,-0,0.66667
0.73288,0.21193,5.1301,-0.43211,-12.9,32.802,5.9114,-1.9705,-1.3374,7.8819,5.8851e-12,-0.66868,0,0,0.14286,-0,-0,0.66667
0.47899,0.50457,3.353,0.006852,0.34095,107.75,-0.061265,0.020422,-1.9992,-0.081686,-1.6451e-12,-0.99959,0,0,0.14286,-0,-0,0.66667
0.92105,0.61173,6.4474,0.1676,1.5678,3.6389,-2.8816,0.96052,-1.9015,-3.8421,1.4506e-09,-0.95073,0,0,0.14286,-0,-0,0.66667
0.3777,0.35179,2.6439,-0.22231,-12.334,146.6,1.5674,-0.52245,-1.8245,2.0898,2.0377e-12,-0.91225,0,0,0.14286,-0,-0,0.66667
0.64169,0.93411,4.4918,0.65117,24.932,56.102,-7.7998,2.5999,-0.49449,-10.4,5.7554e-13,-0.24725,0,0,0.14286,-8.4588e-16,0,0.66667
0.0015045,0.80301,0.010531,0.45452,29.528,314.1,-0.012764,0.0042543,-1.2664,-0.017019,-6.9822e-07,-0.63321,0,0,0.14286,-0,2.8612e-16,0.66667
0.17936,0.05775,1.2555,-0.66338,-41.862,232.12,2.221,-0.74034,-0.43425,2.9613,1.3029e-09,-0.21713,0,0,0.14286,1.6918e-16,0,0.66667
0.29484,0.44,2.0639,-0.089995,-5.3168,180.96,0.4953,-0.1651,-1.9727,0.66041,-2.0506e-12,-0.98634,0,0,0.14286,-0,-0,0.66667
0.38699,0.65195,2.7089,0.22793,12.541,142.88,-1.6465,0.54884,-1.8154,-2.1954,2.3888e-12,-0.90771,0,0,0.14286,3.3835e-16,0,0.66667
0.45982,0.095491,3.2187,-0.60676,-31.138,115.3,5.208,-1.736,-0.69051,6.9441,1.4211e-13,-0.34525,0,0,0.14286,-0,-0,0.66667
0.79672,0.59366,5.577,0.14049,3.2732,19.683,-2.0893,0.69644,-1.9334,-2.7858,1.5828e-10,-0.96672,0,0,0.14286,6.2384e-16,0,0.66667
0.27985,0.23424,1.9589,-0.39865,-23.838,187.53,2.0824,-0.69415,-1.4357,2.7766,-5.9734e-12,-0.71787,0,0,0.14286,-3.3835e-16,0,0.66667
0.082662,0.06807,0.57863,-0.6479,-41.944,276.38,0.99971,-0.33324,-0.507,1.333,1.4146e-07,-0.2535,0,0,0.14286,-0,-0,0.66667
0.52137,0.56691,3.6496,0.10036,4.7172,92.816,-0.97677,0.32559,-1.9634,-1.3024,-1.0044e-12,-0.98172,0,0,0.14286,1.3534e-15,0,0.66667
0.98115,0.53115,6.8681,0.046732,0.086852,0.35505,-0.85589,0.2853,-1.9934,-1.1412,-7.6211e-07,-0.9967,0,0,0.14286,9.9391e-16,0,0.66667
0.40076,0.89873,2.8053,0.59809,32.673,137.81,-4.4742,1.4914,-0.72704,-5.9656,-1.9051e-13,-0.36352,0,0,0.14286,-0,-0,0.66667
0.25719,0.32695,1.8003,-0.25957,-15.704,197.28,1.2462,-0.4154,-1.7586,1.6616,4.9322e-12,-0.87928,0,0,0.14286,3.3835e-16,0,0.66667
0.77634,0.79751,5.4344,0.44627,11.415,23.871,-6.4672,2.1557,-1.2905,-8.6229,5.341e-11,-0.64527,0,0,0.14286,1.3534e-15,0,0.66667
0.61558,0.36792,4.3091,-0.19812,-7.9313,62.81,2.2766,-0.75885,-1.8592,3.0354,1.3725e-12,-0.92961,0,0,0.14286,-0,-0,0.66667
0.0075483,0.74472,0.052838,0.36707,23.818,311.28,-0.051722,0.01724,-1.5198,-0.068962,-2.0481e-07,-0.75988,0,0,0.14286,-1.586e-17,0,0.66667
0.98621,0.73741,6.9034,0.35612,0.47658,0.61251,-6.5558,2.1853,-1.5496,-8.7411,5.0516e-08,-0.7748,0,0,0.14286,1.3534e-15,0,0.66667
0.48892,0.69282,3.4224,0.28922,14.235,104.3,-2.6396,0.87987,-1.7021,-3.5195,-9.015e-14,-0.85106,0,0,0.14286,-0,-0,0.66667
0.30402,0.41774,2.1282,-0.12339,-7.2461,177.05,0.70022,-0.23341,-1.9441,0.93363,-5.2325e-13,-0.97206,0,0,0.14286,-6.7671e-16,0,0.66667
0.66508,0.70055,4.6555,0.30082,10.813,49.082,-3.7346,1.2449,-1.6765,-4.9795,-4.1216e-12,-0.83823,0,0,0.14286,-0,-0,0.66667
0.28556,0.65862,1.9989,0.23793,14.153,184.98,-1.2683,0.42277,-1.7988,-1.6911,1.103e-11,-0.89942,0,0,0.14286,-6.7671e-16,0,0.66667
0.46354,0.45538,3.2448,-0.066924,-3.3941,113.4,0.57908,-0.19303,-1.9827,0.77211,7.3996e-14,-0.99133,0,0,0.14286,-0,-0,0.66667
0.65182,0.80568,4.5627,0.45852,17.061,52.886,-5.5789,1.8596,-1.2519,-7.4386,-1.6969e-12,-0.62594,0,0,0.14286,3.3835e-16,0,0.66667
0.12188,0.20821,0.85317,-0.43769,-28.003,258.2,0.99581,-0.33194,-1.3186,1.3277,7.5923e-09,-0.65928,0,0,0.14286,-1.6918e-16,0,0.66667
0.46722,0.709,3.2706,0.3135,15.86,112.19,-2.7342,0.91139,-1.6515,-3.6456,8.6819e-14,-0.82574,0,0,0.14286,6.7671e-16,0,0.66667
0.73521,0.73287,5.1464,0.3493,10.326,32.141,-4.7937,1.5979,-1.5675,-6.3917,-5.973e-12,-0.78374,0,0,0.14286,1.3534e-15,0,0.66667
0.96052,0.8993,6.7236,0.59895,2.9024,2.1671,-10.739,3.5797,-0.72312,-14.319,1.6207e-06,-0.36156,0,0,0.14286,1.3534e-15,0,0.66667
0.021389,0.63735,0.14973,0.20602,13.343,304.82,-0.082258,0.027419,-1.8475,-0.10968,4.1264e-08,-0.92377,0,0,0.14286,-0,-0,0.66667
0.83248,0.66735,5.8274,0.25102,4.9044,13.942,-3.9008,1.3003,-1.775,-5.201,1.3914e-09,-0.88749,0,0,0.14286,-1.3534e-15,0,0.66667
0.93915,0.50438,6.574,0.00657,0.046815,2.2628,-0.11518,0.038392,-2.0013,-0.15357,-7.7399e-07,-1.0007,0,0,0.14286,-0,-0,0.66667
0.98582,0.81944,6.9007,0.47916,0.71622,0.93633,-8.8175,2.9392,-1.1849,-11.757,-7.5644e-08,-0.59247,0,0,0.14286,-0,-0,0.66667
0.93783,0.14503,6.5648,-0.53245,-4.0368,3.1746,9.3212,-3.1071,-0.99387,12.428,-6.723e-08,-0.49694,0,0,0.14286,-0,-0,0.66667
0.12925,0.31695,0.90476,-0.27458,-17.501,254.77,0.66248,-0.22083,-1.7317,0.88331,5.8687e-09,-0.86587,0,0,0.14286,-3.3835e-16,0,0.66667
0.88602,0.45458,6.2021,-0.068132,-0.91747,6.8588,1.1268,-0.37562,-1.9823,1.5025,-4.5613e-09,-0.99114,0,0,0.14286,1.3534e-15,0,0.66667
0.15286,0.39646,1.07,-0.15531,-9.8232,243.94,0.44317,-0.14772,-1.9139,0.59089,2.6076e-09,-0.95693,0,0,0.14286,-0,-0,0.66667
0.36052,0.3097,2.5236,-0.28545,-16.083,153.59,1.921,-0.64033,-1.7124,2.5613,-1.8893e-12,-0.85622,0,0,0.14286,1.6918e-16,0,0.66667
0.36116,0.066237,2.5281,-0.65064,-36.87,153.71,4.3864,-1.4621,-0.49626,5.8486,3.3347e-12,-0.24813,0,0,0.14286,-0,-0,0.66667
0.27979,0.66117,1.9585,0.24175,14.432,187.47,-1.2626,0.42086,-1.7937,-1.6834,8.2345e-12,-0.89687,0,0,0.14286,-0,-0,0.66667
0.3548,0.85379,2.4836,0.53068,30.152,156.14,-3.5147,1.1716,-0.99768,-4.6863,2.4847e-12,-0.49884,0,0,0.14286,-6.7671e-16,0,0.66667
0.543,0.856,3.801,0.53399,24.447,85.977,-5.4126,1.8042,-0.98533,-7.2168,3.7881e-13,-0.49266,0,0,0.14286,-0,-0,0.66667
0.078517,0.23343,0.54962,-0.39986,-25.796,278.23,0.58605,-0.19535,-1.4332,0.7814,2.95e-08,-0.71661,0,0,0.14286,-0,-0,0.66667
0.37287,0.14908,2.6101,-0.52638,-29.453,148.81,3.6637,-1.2212,-1.0156,4.885,1.4069e-12,-0.50778,0,0,0.14286,3.3835e-16,0,0.66667
0.58322,0.82772,4.0825,0.49158,21.029,72.977,-5.3518,1.7839,-1.1394,-7.1357,2.6334e-13,-0.56968,0,0,0.14286,-0,-0,0.66667
0.13425,0.012047,0.93975,-0.73193,-46.937,252.67,1.8342,-0.6114,-0.093544,2.4456,3.1845e-09,-0.046772,0,0,0.14286,-0,-0,0.66667
0.24299,0.89676,1.7009,0.59514,36.458,203.72,-2.6994,0.8998,-0.73907,-3.5992,1.0469e-11,-0.36954,0,0,0.14286,-3.3835e-16,0,0.66667
0.31278,0.075172,2.1895,-0.63724,-37.457,173.72,3.7206,-1.2402,-0.55804,4.9607,-2.478e-13,-0.27902,0,0,0.14286,6.7671e-16,0,0.66667
0.074534,0.26455,0.52174,-0.35318,-22.786,280.07,0.49137,-0.16379,-1.5558,0.65516,2.0726e-08,-0.77789,0,0,0.14286,-0,-0,0.66667
0.80769,0.34351,5.6538,-0.23473,-5.2078,17.875,3.5391,-1.1797,-1.8044,4.7187,-5.1292e-10,-0.90222,0,0,0.14286,-5.0753e-16,0,0.66667
0.2634,0.12764,1.8438,-0.55854,-33.814,194.77,2.7462,-0.9154,-0.89212,3.6616,-1.9041e-11,-0.44606,0,0,0.14286,-0,-1.4178e-16,0.66667
0.4106,0.45806,2.8742,-0.062905,-3.3805,133.51,0.48214,-0.16071,-1.985,0.64285,1.2678e-12,-0.99249,0,0,0.14286,-0,-0,0.66667
0.40541,0.83519,2.8379,0.50278,27.288,135.85,-3.8049,1.2683,-1.1028,-5.0732,-7.5895e-13,-0.55141,0,0,0.14286,6.7671e-16,0,0.66667
0.30474,0.99385,2.1331,0.74077,43.892,177.25,-4.2138,1.4046,-0.04766,-5.6184,-2.5029e-12,-0.02383,0,0,0.14286,3.3835e-16,0,0.66667
0.12774,0.27162,0.89417,-0.34257,-21.858,255.48,0.81685,-0.27228,-1.5828,1.0891,6.6879e-09,-0.79138,0,0,0.14286,-0,-0,0.66667
0.89356,0.27205,6.2549,-0.34193,-4.3446,6.3781,5.7033,-1.9011,-1.5842,7.6045,-1.26e-08,-0.79212,0,0,0.14286,-0,-0,0.66667
0.68139,0.3169,4.7698,-0.27465,-9.4736,44.813,3.4933,-1.1644,-1.731,4.6578,6.1051e-12,-0.86549,0,0,0.14286,-0,-0,0.66667
0.26689,0.1912,1.8682,-0.46321,-27.94,193.18,2.3077,-0.76923,-1.239,3.0769,-8.3433e-12,-0.61951,0,0,0.14286,-0,-0,0.66667
0.092431,0.84151,0.64702,0.51226,33.023,271.81,-0.88385,0.29462,-1.0691,-1.1785,4.6697e-09,-0.53454,0,0,0.14286,4.8512e-17,0,0.66667
0.1235,0.73021,0.86447,0.34532,22.058,257.44,-0.79604,0.26535,-1.5768,-1.0614,-7.7944e-09,-0.78842,0,0,0.14286,-0,-0,0.66667
0.27644,0.3347,1.9351,-0.24795,-14.832,188.91,1.2794,-0.42648,-1.7804,1.7059,-2.6097e-12,-0.8902,0,0,0.14286,-3.3835e-16,0,0.66667
0.049043,0.94023,0.3433,0.66035,42.953,291.97,-0.60454,0.20151,-0.45089,-0.80605,-4.3083e-07,-0.22545,0,0,0.14286,-0,-0,0.66667
0.14515,0.37122,1.016,-0.19317,-12.249,247.47,0.52337,-0.17446,-1.8671,0.69782,2.6039e-09,-0.93356,0,0,0.14286,1.6918e-16,0,0.66667
0.47503,0.7379,3.3252,0.35685,17.892,109.38,-3.1643,1.0548,-1.5456,-4.219,6.3993e-13,-0.77279,0,0,0.14286,-6.7671e-16,0,0.66667
0.93598,0.14027,6.5519,-0.5396,-4.2176,3.3172,9.4277,-3.1426,-0.96542,12.57,-7.8062e-08,-0.48271,0,0,0.14286,-0,4.4257e-17,0.66667
0.43407,0.47495,3.0385,-0.037572,-1.9703,124.46,0.30443,-0.10148,-1.995,0.40591,2.9649e-13,-0.99748,0,0,0.14286,-0,-0,0.66667
0.70914,0.71212,4.964,0.31818,10.182,38.047,-4.2118,1.4039,-1.6389,-5.6157,-8.8103e-12,-0.81946,0,0,0.14286,-0,-0,0.66667
0.57031,0.50896,3.9921,0.01344,0.58466,76.608,-0.14308,0.047694,-1.9978,-0.19078,-1.3291e-13,-0.99888,0,0,0.14286,-0,-0,0.66667
0.97624,0.55261,6.8337,0.078916,0.19653,0.51053,-1.4381,0.47937,-1.9762,-1.9175,2.0567e-07,-0.9881,0,0,0.14286,-0,-0,0.66667
0.17821,0.58353,1.2475,0.1253,7.855,232.41,-0.41681,0.13894,-1.9426,-0.55575,-6.3975e-10,-0.97131,0,0,0.14286,-0,-0,0.66667
0.73911,0.70115,5.1737,0.30173,8.7966,31.218,-4.1628,1.3876,-1.6751,-5.5504,-3.7748e-14,-0.83753,0,0,0.14286,-0,-0,0.66667
0.35041,0.64576,2.4528,0.21864,12.414,157.69,-1.4301,0.4767,-1.8284,-1.9068,4.2965e-12,-0.9142,0,0,0.14286,3.3835e-16,0,0.66667
0.99121,0.38334,6.9385,-0.17499,-0.10354,0.21678,3.2378,-1.0793,-1.8897,4.3171,-3.9685e-08,-0.94483,0,0,0.14286,-0,-0,0.66667
0.35281,0.13027,2.4697,-0.55459,-31.576,156.99,3.6524,-1.2175,-0.90538,4.8699,2.5246e-12,-0.45269,0,0,0.14286,-0,-0,0.66667
0.97878,0.15083,6.8515,-0.52375,-1.2801,1.2502,9.5693,-3.1898,-1.0238,12.759,9.9074e-07,-0.5119,0,0,0.14286,1.3534e-15,0,0.66667
0.86037,0.64047,6.0226,0.2107,3.4626,10.005,-3.3839,1.128,-1.8433,-4.5118,3.8325e-09,-0.92165,0,0,0.14286,1.3534e-15,0,0.66667
0.59774,0.91003,4.1842,0.61505,25.709,68.773,-6.8626,2.2875,-0.65501,-9.1501,9.7256e-14,-0.32751,0,0,0.14286,1.3534e-15,0,0.66667
0.027448,0.32369,0.19214,-0.26446,-17.13,301.99,0.1355,-0.045167,-1.7506,0.18067,-6.1451e-08,-0.87531,0,0,0.14286,-0,-0,0.66667
0.18553,0.038911,1.2987,-0.69163,-43.571,229.37,2.3953,-0.79844,-0.29995,3.1937,1.0006e-09,-0.14998,0,0,0.14286,-0,-1.2523e-16,0.66667
0.056512,0.027569,0.39558,-0.70865,-46.106,288.52,0.74754,-0.24918,-0.21379,0.99672,-5.482e-06,-0.10689,0,0,0.14286,-0,-0,0.66667
0.79246,0.66157,5.5472,0.24235,5.7636,20.538,-3.585,1.195,-1.7908,-4.78,2.6851e-10,-0.89538,0,0,0.14286,-0,-0,0.66667
0.073951,0.96627,0.51766,0.69941,45.391,280.43,-0.96547,0.32182,-0.26091,-1.2873,-2.3701e-06,-0.13045,0,0,0.14286,-0,1.434e-16,0.66667
0.78646,0.98878,5.5052,0.73317,18.254,22.803,-10.763,3.5878,-0.087451,-14.351,1.3491e-10,-0.043725,0,0,0.14286,6.7671e-16,0,0.66667
0.027952,0.91755,0.19566,0.62633,40.777,301.78,-0.3268,0.10894,-0.60477,-0.43573,4.3159e-06,-0.30239,0,0,0.14286,-4.2294e-17,0,0.66667
0.25521,0.65201,1.7864,0.22802,13.806,198.14,-1.0862,0.36208,-1.8146,-1.4483,-2.2987e-12,-0.90729,0,0,0.14286,1.6918e-16,0,0.66667
0.29758,0.77834,2.0831,0.41751,24.694,179.94,-2.3192,0.77308,-1.3827,-3.0923,8.0105e-12,-0.69137,0,0,0.14286,8.4588e-17,0,0.66667
0.56461,0.38915,3.9522,-0.16628,-7.3083,78.479,1.7525,-0.58416,-1.9019,2.3366,7.7383e-14,-0.95097,0,0,0.14286,-0,-0,0.66667
0.56206,0.93534,3.9344,0.653,29.093,79.996,-6.8512,2.2837,-0.48679,-9.1349,-7.5673e-13,-0.24339,0,0,0.14286,1.0151e-15,4.3632e-17,0.66667
0.8874,0.7612,6.2118,0.3918,5.2738,7.1211,-6.4901,2.1634,-1.4538,-8.6535,1.0927e-08,-0.7269,0,0,0.14286,-0,-0,0.66667
0.63738,0.98187,4.4616,0.7228,28.009,57.5,-8.5996,2.8665,-0.14195,-11.466,1.0543e-12,-0.070975,0,0,0.14286,-1.3534e-15,0,0.66667
0.16146,0.39915,1.1302,-0.15127,-9.5408,240.02,0.45593,-0.15198,-1.9177,0.6079,1.1362e-09,-0.95884,0,0,0.14286,9.5605e-17,0,0.66667
0.026995,0.37125,0.18896,-0.19313,-12.503,302.2,0.097319,-0.03244,-1.8673,0.12976,-7.4268e-08,-0.93365,0,0,0.14286,5.2868e-17,0,0.66667
0.76198,0.9189,5.3339,0.62835,17.107,27.15,-8.9375,2.9792,-0.59547,-11.917,2.6281e-12,-0.29774,0,0,0.14286,1.3534e-15,2.7728e-17,0.66667
0.53557,0.25423,3.749,-0.36866,-17.014,88.206,3.6856,-1.2285,-1.5166,4.9141,-6.2084e-13,-0.75829,0,0,0.14286,-0,-0,0.66667
0.57863,0.89551,4.0504,0.59327,25.653,74.608,-6.4079,2.136,-0.75032,-8.5439,4.6807e-13,-0.37516,0,0,0.14286,6.7671e-16,0,0.66667
0.41411,0.023823,2.8987,-0.71427,-38.624,132.8,5.5212,-1.8404,-0.18461,7.3617,-9.921e-13,-0.092306,0,0,0.14286,-6.7671e-16,0,0.66667
0.58982,0.11237,4.1287,-0.58144,-24.637,71.114,6.4016,-2.1339,-0.7971,8.5355,-3.1353e-13,-0.39855,0,0,0.14286,6.7671e-16,0,0.66667
0.40563,0.5458,2.8394,0.068703,3.7103,135.45,-0.52021,0.1734,-1.9847,-0.69361,2.5419e-13,-0.99235,0,0,0.14286,-6.7671e-16,0,0.66667
0.44569,0.43046,3.1198,-0.10431,-5.4015,120.07,0.86782,-0.28927,-1.9599,1.1571,1.0883e-12,-0.97997,0,0,0.14286,-3.3835e-16,0,0.66667
0.59274,0.62907,4.1492,0.19361,8.0996,69.664,-2.1422,0.71407,-1.8688,-2.8563,6.8168e-14,-0.93439,0,0,0.14286,-1.3534e-15,0,0.66667
0.49234,0.31065,3.4464,-0.28402,-13.916,103.07,2.6103,-0.87009,-1.7126,3.4803,-1.823e-13,-0.85631,0,0,0.14286,7.613e-16,0,0.66667
0.059103,0.71322,0.41372,0.31983,20.67,287.24,-0.35286,0.11762,-1.6364,-0.47048,1.5712e-08,-0.81819,0,0,0.14286,4.2294e-17,0,0.66667
0.97679,0.42932,6.8375,-0.10602,-0.25719,0.50879,1.9331,-0.64437,-1.9585,2.5775,3.7056e-07,-0.97926,0,0,0.14286,-0,-0,0.66667
0.85514,0.54424,5.986,0.066367,1.1268,10.582,-1.0594,0.35313,-1.9833,-1.4125,1.4823e-09,-0.99166,0,0,0.14286,-1.3534e-15,0,0.66667
0.37909,0.50191,2.6536,0.0028618,0.15843,145.98,-0.020251,0.0067503,-2.0003,-0.027001,-1.4056e-13,-1.0001,0,0,0.14286,-0,-0,0.66667
0.54652,0.047108,3.8257,-0.67934,-31.055,85.112,6.9305,-2.3102,-0.36085,9.2406,8.7175e-13,-0.18042,0,0,0.14286,-0,-0,0.66667
0.93287,0.63826,6.5301,0.20739,1.6463,2.8051,-3.6115,1.2038,-1.8459,-4.8153,-2.5159e-09,-0.92294,0,0,0.14286,-0,-0,0.66667
0.39797,0.71966,2.7858,0.32949,17.962,138.6,-2.4477,0.81588,-1.6136,-3.2635,-2.1116e-13,-0.80682,0,0,0.14286,1.3534e-15,0,0.66667
0.94477,0.71087,6.6134,0.3163,2.0678,2.2109,-5.5782,1.8594,-1.6428,-7.4376,-2.8208e-08,-0.82141,0,0,0.14286,6.7671e-16,0,0.66667
0.030486,0.42722,0.2134,-0.10918,-7.0639,300.57,0.06213,-0.02071,-1.9592,0.08284,-2.2634e-07,-0.97958,0,0,0.14286,-0,-0,0.66667
0.7458,0.91331,5.2206,0.61997,17.861,30.461,-8.631,2.877,-0.63284,-11.508,-4.0119e-12,-0.31642,0,0,0.14286,-0,-0,0.66667
0.79701,0.45601,5.579,-0.06599,-1.5345,19.594,0.98176,-0.32725,-1.9865,1.309,-1.1445e-10,-0.99327,0,0,0.14286,-0,-0,0.66667
0.19384,0.65975,1.3568,0.23962,14.942,225.38,-0.86701,0.289,-1.7951,-1.156,-4.6026e-10,-0.89756,0,0,0.14286,6.7671e-16,0,0.66667
0.16287,0.049645,1.1401,-0.67553,-42.89,239.6,2.0537,-0.68458,-0.37569,2.7383,-2.258e-09,-0.18785,0,0,0.14286,1.6918e-16,0,0.66667
0.59108,0.052066,4.1375,-0.6719,-28.483,70.935,7.4134,-2.4711,-0.39486,9.8845,6.164e-13,-0.19743,0,0,0.14286,-6.7671e-16,-1.505e-16,0.66667
0.47969,0.053234,3.3578,-0.67015,-33.63,108.17,6.0007,-2.0002,-0.40223,8.0009,-4.7073e-14,-0.20111,0,0,0.14286,-0,1.4873e-17,0.66667
0.58654,0.50702,4.1058,0.010534,0.4453,71.505,-0.11534,0.038445,-1.9982,-0.15378,-2.0746e-13,-0.99912,0,0,0.14286,-0,-0,0.66667
0.13227,0.082697,0.9259,-0.62595,-40.069,253.52,1.5455,-0.51517,-0.60514,2.0607,-1.4169e-10,-0.30257,0,0,0.14286,-0,-0,0.66667
0.27774,0.69664,1.9442,0.29496,17.639,188.37,-1.5292,0.50973,-1.6903,-2.0389,1.0736e-11,-0.84514,0,0,0.14286,-0,-0,0.66667
0.069672,0.33608,0.48771,-0.24588,-15.858,282.32,0.31977,-0.10659,-1.7836,0.42636,-7.4937e-09,-0.89181,0,0,0.14286,4.2294e-17,0,0.66667
0.108,0.11412,0.75598,-0.57882,-37.239,264.65,1.1669,-0.38896,-0.80974,1.5558,7.2148e-09,-0.40487,0,0,0.14286,-0,-0,0.66667
0.71638,0.17926,5.0146,-0.48111,-15.136,36.639,6.4336,-2.1445,-1.1774,8.5782,7.6397e-12,-0.5887,0,0,0.14286,-6.7671e-16,0,0.66667
0.026402,0.13146,0.18481,-0.5528,-35.944,302.5,0.27244,-0.090815,-0.91271,0.36326,-1.1804e-06,-0.45636,0,0,0.14286,-0,-0,0.66667
0.53965,0.9154,3.7776,0.6231,28.741,87.264,-6.2768,2.0923,-0.61794,-8.3691,5.6666e-13,-0.30897,0,0,0.14286,-1.3534e-15,0,0.66667
0.29866,0.76246,2.0906,0.39369,23.26,179.46,-2.1948,0.7316,-1.4495,-2.9264,9.9896e-12,-0.72474,0,0,0.14286,-0,-0,0.66667
0.8685,0.39235,6.0795,-0.16147,-2.5022,8.9365,2.6177,-0.87257,-1.9055,3.4903,-2.6666e-09,-0.95277,0,0,0.14286,-1.3534e-15,0,0.66667
0.54504,0.88012,3.8153,0.57018,26.045,85.37,-5.8011,1.9337,-0.84526,-7.7348,6.3061e-14,-0.42263,0,0,0.14286,-0,2.11e-16,0.66667
0.99755,0.020554,6.9828,-0.71917,-0.19636,1.6322,13.392,-4.4638,-0.16116,17.855,3.6676e-05,-0.080582,0,0,0.14286,-0,-4.5702e-16,0.66667
0.56108,0.72499,3.9275,0.33748,14.951,79.768,-3.5346,1.1782,-1.5964,-4.7128,1.279e-13,-0.79821,0,0,0.14286,-0,-0,0.66667
0.5621,0.31103,3.9347,-0.28346,-12.526,79.379,2.9742,-0.99139,-1.7174,3.9656,-7.5273e-14,-0.85871,0,0,0.14286,9.3047e-16,0,0.66667
0.33511,0.77139,2.3457,0.40708,23.442,164.14,-2.5464,0.84881,-1.4092,-3.3953,3.6122e-12,-0.70458,0,0,0.14286,-0,-0,0.66667
0.25232,0.21904,1.7663,-0.42145,-25.613,199.5,1.985,-0.66168,-1.3702,2.6467,1.2793e-12,-0.68509,0,0,0.14286,-0,-0,0.66667
0.42737,0.8209,2.9916,0.48135,25.539,127.32,-3.84,1.28,-1.175,-5.12,8.5554e-13,-0.58749,0,0,0.14286,-0,-0,0.66667
0.22718,0.12757,1.5902,-0.55865,-34.47,210.67,2.369,-0.78967,-0.88966,3.1587,-9.4208e-11,-0.44483,0,0,0.14286,-0,-0,0.66667
0.070876,0.2131,0.49613,-0.43035,-27.807,281.78,0.56937,-0.18979,-1.3403,0.75916,4.7715e-08,-0.67016,0,0,0.14286,-0,-0,0.66667
0.42505,0.76592,2.9754,0.39888,21.185,128.12,-3.1648,1.0549,-1.4338,-4.2198,7.4185e-13,-0.7169,0,0,0.14286,6.7671e-16,0,0.66667
0.10642,0.55692,0.74492,0.085385,5.4662,265.27,-0.16961,0.056538,-1.9744,-0.22615,-1.604e-08,-0.98721,0,0,0.14286,-8.4588e-17,0,0.66667
0.72312,0.39708,5.0618,-0.15438,-4.7258,34.624,2.0839,-0.69462,-1.9144,2.7785,3.5361e-12,-0.95721,0,0,0.14286,-0,-0,0.66667
0.29839,0.56864,2.0888,0.10296,6.0686,179.44,-0.57347,0.19116,-1.9636,-0.76462,6.1312e-12,-0.98182,0,0,0.14286,-0,-0,0.66667
0.49036,0.24559,3.4325,-0.38162,-18.772,103.88,3.4931,-1.1644,-1.4814,4.6575,-2.3093e-14,-0.74069,0,0,0.14286,1.1362e-15,0,0.66667
0.19558,0.42938,1.3691,-0.10593,-6.5953,224.57,0.38673,-0.12891,-1.9586,0.51564,3.4007e-10,-0.9793,0,0,0.14286,3.3835e-16,0,0.66667
0.68083,0.02707,4.7658,-0.7094,-24.82,45.864,9.0155,-3.0052,-0.2098,12.021,-1.9273e-13,-0.1049,0,0,0.14286,1.3534e-15,0,0.66667
0.83083,0.60977,5.8158,0.16466,3.2405,14.098,-2.5536,0.85121,-1.9034,-3.4048,1.0267e-09,-0.95171,0,0,0.14286,1.3534e-15,0,0.66667
0.22041,0.50139,1.5428,0.0020806,0.12811,213.45,-0.00856,0.0028533,-2.002,-0.011413,2.7353e-11,-1.001,0,0,0.14286,-0,-0,0.66667
0.0078087,0.61138,0.054661,0.16707,10.822,311.16,-0.024352,0.0081173,-1.8989,-0.032469,-5.1142e-08,-0.94944,0,0,0.14286,-0,-0,0.66667
0.2509,0.1504,1.7563,-0.5244,-31.948,200.19,2.4561,-0.81869,-1.0241,3.2748,-1.5319e-11,-0.51206,0,0,0.14286,-0,-0,0.66667
0.62764,0.88734,4.3935,0.58102,22.871,59.892,-6.8071,2.269,-0.79964,-9.0762,-1.9318e-13,-0.39982,0,0,0.14286,-0,-0,0.66667
0.31082,0.28871,2.1757,-0.31694,-18.554,174.25,1.8388,-0.61295,-1.6439,2.4518,-5.3257e-12,-0.82193,0,0,0.14286,-6.7671e-16,0,0.66667
0.83621,0.88998,5.8534,0.58498,11.361,14.114,-9.131,3.0437,-0.78141,-12.175,1.793e-09,-0.3907,0,0,0.14286,-0,-0,0.66667
0.85274,0.33432,5.9692,-0.24851,-4.3008,11.055,3.9558,-1.3186,-1.7789,5.2744,-3.3578e-09,-0.88944,0,0,0.14286,6.7671e-16,0,0.66667
0.37174,0.67645,2.6022,0.26467,14.767,149.02,-1.8366,0.6122,-1.7505,-2.4488,1.9699e-12,-0.87527,0,0,0.14286,3.3835e-16,0,0.66667
0.36533,0.17567,2.5573,-0.48649,-27.377,151.81,3.3176,-1.1059,-1.1569,4.4235,1.1902e-12,-0.57847,0,0,0.14286,-0,-0,0.66667
0.016563,0.1602,0.11594,-0.5097,-33.131,307.08,0.15758,-0.052528,-1.0784,0.21011,-4.0779e-07,-0.53922,0,0,0.14286,-4.2294e-17,0,0.66667
0.54968,0.67011,3.8478,0.25516,11.502,83.398,-2.6181,0.87272,-1.7683,-3.4909,-4.5031e-13,-0.88413,0,0,0.14286,-0,-0,0.66667
0.15427,0.22486,1.0799,-0.4127,-26.154,243.36,1.1885,-0.39616,-1.3954,1.5846,1.9822e-09,-0.69768,0,0,0.14286,-0,-0,0.66667
0.11268,0.77965,0.78876,0.41948,26.89,262.44,-0.88232,0.29411,-1.3752,-1.1764,-1.096e-08,-0.68758,0,0,0.14286,6.3441e-17,0,0.66667
0.053338,0.17701,0.37337,-0.48449,-31.399,289.95,0.48238,-0.16079,-1.1638,0.64317,1.9988e-08,-0.5819,0,0,0.14286,8.4588e-17,0,0.66667
0.17928,0.97401,1.255,0.71102,44.918,232.2,-2.3795,0.79317,-0.20136,-3.1727,-6.0878e-10,-0.10068,0,0,0.14286,-0,-0,0.66667
0.15593,0.26048,1.0915,-0.35928,-22.741,242.59,1.0458,-0.34859,-1.543,1.3943,2.5004e-09,-0.7715,0,0,0.14286,-0,-0,0.66667
0.03549,0.11481,0.24843,-0.57778,-37.564,298.27,0.38277,-0.12759,-0.81219,0.51036,3.015e-07,-0.40609,0,0,0.14286,-0,-0,0.66667
0.98243,0.08499,6.877,-0.62252,-1.3035,1.499,11.416,-3.8054,-0.62281,15.222,3.7361e-07,-0.3114,0,0,0.14286,6.7671e-16,-1.3652e-16,0.66667
0.6583,0.74969,4.6081,0.37453,13.701,50.99,-4.6024,1.5341,-1.5032,-6.1365,-3.3933e-12,-0.75158,0,0,0.14286,1.3746e-15,0,0.66667
0.38699,0.55282,2.709,0.07923,4.3554,142.83,-0.57235,0.19078,-1.9772,-0.76313,2.5172e-12,-0.98859,0,0,0.14286,-3.3835e-16,0,0.66667
0.062485,0.063575,0.4374,-0.65464,-42.512,285.73,0.76357,-0.25452,-0.47982,1.0181,4.9918e-07,-0.23991,0,0,0.14286,-1.6918e-16,2.2473e-17,0.66667
0.047245,0.75793,0.33072,0.38689,25.055,292.77,-0.34121,0.11374,-1.4699,-0.45494,5.5262e-08,-0.73496,0,0,0.14286,-0,-0,0.66667
0.80495,0.90286,5.6347,0.60428,13.775,19.116,-9.0798,3.0266,-0.70081,-12.106,7.0119e-10,-0.3504,0,0,0.14286,2.0301e-15,0,0.66667
0.42278,0.45365,2.9595,-0.069521,-3.69,128.79,0.54866,-0.18289,-1.984,0.73154,1.8109e-12,-0.99202,0,0,0.14286,-6.7671e-16,0,0.66667
0.10826,0.93002,0.75782,0.64504,41.55,264.55,-1.3035,0.43451,-0.52214,-1.738,1.1862e-07,-0.26107,0,0,0.14286,1.6918e-16,-1.2317e-16,0.66667
0.16703,0.48184,1.1692,-0.027247,-1.7146,237.47,0.084954,-0.028318,-1.9961,0.11327,3.1053e-10,-0.99804,0,0,0.14286,-0,-0,0.66667
0.68019,0.93436,4.7614,0.65155,22.78,45.858,-8.2727,2.7576,-0.48983,-11.03,-3.828e-13,-0.24492,0,0,0.14286,-1.3534e-15,0,0.66667
0.42723,0.51986,2.9906,0.029795,1.5739,127.07,-0.23761,0.079205,-1.9955,-0.31682,-8.0726e-13,-0.99773,0,0,0.14286,-0,-0,0.66667
0.096808,0.74691,0.67766,0.37036,23.807,269.75,-0.66927,0.22309,-1.513,-0.89236,-1.7083e-08,-0.75649,0,0,0.14286,-0,-0,0.66667
0.39201,0.345,2.7441,-0.2325,-12.733,140.89,1.7013,-0.5671,-1.8101,2.2684,7.5295e-13,-0.90503,0,0,0.14286,1.3534e-15,0,0.66667
0.044756,0.050428,0.31329,-0.67436,-43.894,293.97,0.56338,-0.18779,-0.38339,0.75118,5.1399e-06,-0.19169,0,0,0.14286,-4.2294e-17,0,0.66667
0.27103,0.50175,1.8972,0.00262,0.15707,191.2,-0.013255,0.0044184,-1.9998,-0.017673,3.5981e-12,-0.9999,0,0,0.14286,-0,-0,0.66667
0.50308,0.93003,3.5216,0.64504,31.379,99.803,-6.0574,2.0191,-0.52065,-8.0766,-2.5402e-13,-0.26033,0,0,0.14286,3.3835e-16,0,0.66667
0.45748,0.73319,3.2024,0.34979,17.911,115.82,-2.9871,0.99569,-1.5639,-3.9828,3.7081e-14,-0.78193,0,0,0.14286,-0,-0,0.66667
0.76863,0.51012,5.3804,0.015173,0.3968,24.888,-0.2177,0.072568,-1.999,-0.29027,2.4586e-11,-0.9995,0,0,0.14286,-2.7068e-15,0,0.66667
0.16023,0.065735,1.1216,-0.6514,-41.372,240.78,1.9483,-0.64944,-0.49145,2.5977,4.7179e-10,-0.24572,0,0,0.14286,-0,-0,0.66667
0.51004,0.47306,3.5703,-0.040405,-1.9295,96.717,0.38468,-0.12823,-1.9935,0.51291,1.0025e-13,-0.99676,0,0,0.14286,-0,-0,0.66667
0.14153,0.57578,0.99069,0.11367,7.2126,249.11,-0.30029,0.1001,-1.9553,-0.40038,-2.1712e-09,-0.97766,0,0,0.14286,-0,-0,0.66667
0.18937,0.87093,1.3256,0.55639,34.901,227.54,-1.9668,0.65559,-0.90065,-2.6224,-5.0875e-10,-0.45033,0,0,0.14286,3.3835e-16,0,0.66667
0.4099,0.99863,2.8693,0.74795,40.653,134.49,-5.7229,1.9076,-0.011593,-7.6305,-2.4474e-12,-0.0057966,0,0,0.14286,-3.3835e-16,0,0.66667
0.14586,0.053295,1.021,-0.67006,-42.767,247.33,1.8244,-0.60814,-0.40246,2.4325,3.5259e-09,-0.20123,0,0,0.14286,-0,-0,0.66667
0.56233,0.039981,3.9363,-0.69003,-30.765,79.998,7.2431,-2.4144,-0.30931,9.6574,7.4252e-13,-0.15465,0,0,0.14286,-0,-0,0.66667
0.45523,0.75448,3.1866,0.38172,19.606,116.69,-3.2437,1.0812,-1.483,-4.3249,-1.3458e-12,-0.74151,0,0,0.14286,1.3534e-15,0,0.66667
0.9421,0.96945,6.5947,0.70417,5.1248,3.5313,-12.383,4.1278,-0.23731,-16.511,-6.5644e-06,-0.11865,0,0,0.14286,-0,-0,0.66667
0.66999,0.20952,4.69,-0.43573,-15.52,47.995,5.4494,-1.8165,-1.3256,7.2659,4.281e-12,-0.66282,0,0,0.14286,-6.7671e-16,0,0.66667
0.10314,0.39609,0.722,-0.15587,-9.988,266.79,0.30009,-0.10003,-1.9121,0.40013,-1.9049e-09,-0.95605,0,0,0.14286,-8.4588e-17,0,0.66667
0.60711,0.34802,4.2497,-0.22797,-9.2836,65.345,2.5835,-0.86116,-1.8162,3.4446,7.4163e-14,-0.90812,0,0,0.14286,-0,-0,0.66667
0.42033,0.68516,2.9423,0.27774,14.8,129.83,-2.1792,0.7264,-1.7276,-2.9056,4.2011e-13,-0.86381,0,0,0.14286,-7.613e-16,0,0.66667
0.50063,0.38817,3.5044,-0.16774,-8.1193,100.06,1.5675,-0.52251,-1.9015,2.09,-6.0063e-14,-0.95074,0,0,0.14286,-0,-0,0.66667
0.65581,0.97596,4.5906,0.71395,26.545,52.417,-8.7399,2.9133,-0.1898,-11.653,-3.1264e-13,-0.094901,0,0,0.14286,1.3534e-15,0,0.66667
0.18572,0.4786,1.3,-0.032101,-2.0063,229.01,0.11129,-0.037096,-1.997,0.14838,2.199e-10,-0.99852,0,0,0.14286,-0,-0,0.66667
0.35953,0.58538,2.5167,0.12807,7.2131,153.92,-0.85951,0.2865,-1.944,-1.146,3.0669e-12,-0.97199,0,0,0.14286,-3.3835e-16,0,0.66667
0.48038,0.92355,3.3627,0.63532,31.824,107.85,-5.697,1.899,-0.56394,-7.596,5.0537e-13,-0.28197,0,0,0.14286,1.0782e-16,0,0.66667
0.61478,0.10255,4.3035,-0.59617,-24.1,63.65,6.8416,-2.2805,-0.7351,9.1221,-1.1502e-13,-0.36755,0,0,0.14286,1.3534e-15,0,0.66667
0.28556,0.84647,1.9989,0.51971,31.028,185.17,-2.7703,0.92342,-1.0397,-3.6937,7.6936e-12,-0.51986,0,0,0.14286,6.7671e-16,0,0.66667
0.50277,0.28156,3.5194,-0.32766,-15.841,99.427,3.0751,-1.025,-1.6197,4.1001,-8.3888e-13,-0.80984,0,0,0.14286,-0,-0,0.66667
0.27855,0.93816,1.9498,0.65723,39.519,188.32,-3.4173,1.1391,-0.46553,-4.5564,6.5421e-12,-0.23277,0,0,0.14286,6.7671e-16,0,0.66667
0.57239,0.9367,4.0067,0.65505,28.684,76.709,-6.9989,2.333,-0.47428,-9.3319,1.9229e-13,-0.23714,0,0,0.14286,7.19e-16,0,0.66667
0.34229,0.29746,2.396,-0.30381,-17.375,161.08,1.9412,-0.64705,-1.6726,2.5882,-9.1227e-13,-0.83628,0,0,0.14286,-6.7671e-16,0,0.66667
0.83916,0.90905,5.8741,0.61358,11.74,13.774,-9.6113,3.2038,-0.66134,-12.815,1.1847e-09,-0.33067,0,0,0.14286,-0,-0,0.66667
0.68591,0.55116,4.8014,0.076742,2.6106,43.52,-0.98258,0.32753,-1.9798,-1.3101,-2.1733e-12,-0.98991,0,0,0.14286,-6.7671e-16,0,0.66667
0.81613,0.50449,5.7129,0.0067357,0.14302,16.338,-0.10261,0.034205,-2,-0.13682,-4.581e-10,-0.99998,0,0,0.14286,-0,-0,0.66667
0.15425,0.59451,1.0797,0.14176,8.9616,243.3,-0.40817,0.13606,-1.9304,-0.54422,-2.9976e-09,-0.9652,0,0,0.14286,-6.7671e-16,0,0.66667
0.18519,0.774,1.2964,0.41099,25.763,229.34,-1.4208,0.47359,-1.4,-1.8944,-5.0483e-10,-0.69999,0,0,0.14286,-0,-0,0.66667
0.54259,0.58437,3.7982,0.12656,5.7626,85.657,-1.2819,0.42729,-1.9422,-1.7092,-4.0778e-13,-0.97112,0,0,0.14286,-0,-0,0.66667
0.061398,0.40484,0.42979,-0.14274,-9.2103,286.16,0.1636,-0.054532,-1.93,0.21813,4.2076e-08,-0.96501,0,0,0.14286,1.1482e-16,0,0.66667
0.53806,0.35769,3.7664,-0.21347,-9.7944,87.22,2.144,-0.71467,-1.8362,2.8587,-5.7154e-13,-0.91808,0,0,0.14286,-0,-0,0.66667
0.336,0.87976,2.352,0.56965,32.875,163.93,-3.5728,1.1909,-0.84516,-4.7637,2.5517e-12,-0.42258,0,0,0.14286,-0,-0,0.66667
0.32445,0.50967,2.2712,0.014503,0.83933,168.41,-0.087838,0.029279,-1.9987,-0.11712,1.1551e-12,-0.99936,0,0,0.14286,1.3534e-15,0,0.66667
0.22985,0.82909,1.609,0.49364,30.384,209.43,-2.118,0.706,-1.1324,-2.824,-5.3548e-11,-0.5662,0,0,0.14286,3.3835e-16,0,0.66667
0.0046867,0.61641,0.032807,0.17461,11.311,312.62,-0.015276,0.0050919,-1.8907,-0.020368,-7.8836e-08,-0.94534,0,0,0.14286,-5.2868e-18,0,0.66667
0.68707,0.89772,4.8095,0.59658,20.449,43.976,-7.6513,2.5504,-0.73658,-10.202,-2.6774e-12,-0.36829,0,0,0.14286,-0,1.3432e-16,0.66667
0.75278,0.68346,5.2695,0.2752,7.6519,28.276,-3.867,1.289,-1.7314,-5.156,1.7012e-11,-0.86571,0,0,0.14286,-6.7671e-16,0,0.66667
0.33828,0.13222,2.368,-0.55167,-31.77,162.96,3.4836,-1.1612,-0.91685,4.6448,2.1714e-12,-0.45842,0,0,0.14286,-0,-0,0.66667
0.4698,0.51337,3.2886,0.02006,1.0096,111.1,-0.17592,0.058639,-1.9997,-0.23456,-3.0162e-13,-0.99985,0,0,0.14286,-1.3534e-15,0,0.66667
0.79738,0.22182,5.5817,-0.41728,-9.7603,19.948,6.2109,-2.0703,-1.3836,8.2812,-3.3077e-10,-0.6918,0,0,0.14286,-0,-0,0.66667
0.64747,0.62309,4.5323,0.18463,6.9046,53.723,-2.2315,0.74382,-1.8783,-2.9753,-1.2783e-12,-0.93914,0,0,0.14286,-1.6918e-16,0,0.66667
0.022978,0.49389,0.16085,-0.0091693,-0.59339,304.07,0.0039327,-0.0013132,-1.9984,0.0052425,-3.4253e-06,-0.99922,0,0,0.14286,6.3441e-17,0,0.66667
0.28397,0.53922,1.9878,0.05883,3.4995,185.61,-0.31185,0.10395,-1.9879,-0.4158,2.7056e-12,-0.99395,0,0,0.14286,-0,-0,0.66667
0.95439,0.38983,6.6808,-0.16526,-0.8706,1.47,2.9441,-0.98137,-1.9038,3.9255,4.2757e-08,-0.9519,0,0,0.14286,-0,-0,0.66667
0.88315,0.60933,6.1821,0.16399,2.2664,7.2333,-2.7035,0.90116,-1.9025,-3.6046,6.7258e-09,-0.95124,0,0,0.14286,-1.3534e-15,0,0.66667
0.32522,0.93694,2.2765,0.65541,38.201,168.53,-3.9788,1.3263,-0.47394,-5.3051,3.6515e-12,-0.23697,0,0,0.14286,-1.6918e-16,0,0.66667
0.91063,0.54656,6.3744,0.069836,0.73866,4.4436,-1.1871,0.3957,-1.9815,-1.5828,1.7761e-08,-0.99076,0,0,0.14286,-0,-0,0.66667
0.47918,0.33199,3.3542,-0.25202,-12.554,107.78,2.2542,-0.75139,-1.7728,3.0056,1.1255e-12,-0.88642,0,0,0.14286,-6.7671e-16,0,0.66667
0.20207,0.0064462,1.4145,-0.74033,-46.382,221.99,2.7925,-0.93083,-0.052911,3.7233,-1.8628e-10,-0.026455,0,0,0.14286,-0,-1.108e-16,0.66667
0.27145,0.14925,1.9001,-0.52613,-31.685,191.25,2.6659,-0.88864,-1.0147,3.5546,-4.7997e-12,-0.50733,0,0,0.14286,-0,-0,0.66667
0.24098,0.060174,1.6869,-0.65974,-40.513,204.67,2.9677,-0.98924,-0.45186,3.957,1.3989e-14,-0.22593,0,0,0.14286,4.2294e-16,0,0.66667
0.055575,0.050093,0.38903,-0.67486,-43.88,288.94,0.7001,-0.23337,-0.3789,0.93347,-2.2896e-06,-0.18945,0,0,0.14286,8.4588e-17,0,0.66667
0.43714,0.88836,3.06,0.58254,30.652,123.75,-4.7534,1.5845,-0.79518,-6.3379,2.025e-13,-0.39759,0,0,0.14286,-6.7671e-16,-1.6562e-16,0.66667
0.90458,0.38064,6.3321,-0.17904,-2.0272,5.0678,3.0231,-1.0077,-1.8873,4.0308,-2.926e-09,-0.94365,0,0,0.14286,-0,-0,0.66667
0.52576,0.082671,3.6803,-0.62599,-29.482,91.941,6.1436,-2.0479,-0.60529,8.1914,-1.0116e-12,-0.30265,0,0,0.14286,-0,-0,0.66667
0.54546,0.030784,3.8182,-0.70382,-32.253,85.521,7.1662,-2.3887,-0.24107,9.555,1.7715e-12,-0.12053,0,0,0.14286,-2.9606e-16,-9.9501e-18,0.66667
0.227,0.55039,1.589,0.07558,4.6398,210.53,-0.32026,0.10675,-1.9779,-0.42701,-4.0753e-11,-0.98894,0,0,0.14286,-3.3835e-16,0,0.66667
0.046401,0.57717,0.32481,0.11575,7.4804,293.14,-0.10026,0.03342,-1.954,-0.13368,-2.7612e-08,-0.97699,0,0,0.14286,-0,-0,0.66667
0.12581,0.61854,0.88066,0.17781,11.335,256.34,-0.41756,0.13919,-1.8895,-0.55675,-3.4881e-09,-0.94474,0,0,0.14286,-2.5377e-16,0,0.66667
0.21513,0.41516,1.5059,-0.12727,-7.8579,215.82,0.51106,-0.17035,-1.942,0.68142,1.4654e-10,-0.97099,0,0,0.14286,-0,-0,0.66667
0.87339,0.74188,6.1138,0.36282,5.4601,8.6345,-5.9151,1.9717,-1.533,-7.8868,7.1096e-09,-0.76649,0,0,0.14286,1.3534e-15,0,0.66667
0.98833,0.9501,6.9183,0.67514,0.94892,1.5793,-12.456,4.1519,-0.37844,-16.607,2.1052e-05,-0.18922,0,0,0.14286,-0,-0,0.66667
0.017766,0.46314,0.12436,-0.055283,-3.5786,306.51,0.018334,-0.0061121,-1.99,0.024445,-1.0727e-06,-0.99502,0,0,0.14286,-3.1721e-17,0,0.66667
0.44331,0.1646,3.1032,-0.5031,-26.248,121.3,4.1632,-1.3877,-1.0988,5.5509,4.6141e-13,-0.5494,0,0,0.14286,-0,-0,0.66667
0.3692,0.049496,2.5844,-0.67576,-38.057,150.49,4.6571,-1.5524,-0.37479,6.2095,2.4354e-12,-0.18739,0,0,0.14286,-6.7671e-16,0,0.66667
0.53646,0.41015,3.7552,-0.13478,-6.1951,87.709,1.3496,-0.44988,-1.9349,1.7995,-3.1175e-13,-0.96746,0,0,0.14286,1.3534e-15,0,0.66667
0.61652,0.96458,4.3157,0.69687,28.168,63.391,-8.0198,2.6733,-0.27239,-10.693,-9.4591e-13,-0.1362,0,0,0.14286,6.7671e-16,0,0.66667
0.396,0.60956,2.772,0.16433,8.9616,139.27,-1.2148,0.40492,-1.9025,-1.6197,2.1261e-13,-0.95123,0,0,0.14286,-0,-0,0.66667
0.18386,0.15177,1.287,-0.52235,-32.816,230,1.7928,-0.59759,-1.03,2.3904,-1.3544e-10,-0.51499,0,0,0.14286,-2.5377e-16,0,0.66667
0.58527,0.1641,4.0969,-0.50386,-21.481,72.361,5.5047,-1.8349,-1.0959,7.3396,-2.6201e-13,-0.54795,0,0,0.14286,-0,-0,0.66667
0.033297,0.65908,0.23308,0.23861,15.447,299.26,-0.14831,0.049436,-1.799,-0.19774,5.3152e-08,-0.89949,0,0,0.14286,8.4588e-17,0,0.66667
0.89398,0.57297,6.2578,0.10945,1.3734,6.0437,-1.8265,0.60883,-1.957,-2.4353,1.3649e-08,-0.9785,0,0,0.14286,2.7068e-15,0,0.66667
0.64441,0.81161,4.5109,0.46741,17.69,54.937,-5.6225,1.8742,-1.2239,-7.4967,-1.2523e-13,-0.61194,0,0,0.14286,-1.8609e-15,0,0.66667
0.094544,0.090236,0.66181,-0.61465,-39.68,270.87,1.0847,-0.36158,-0.65909,1.4463,-3.3445e-08,-0.32955,0,0,0.14286,8.4588e-17,0,0.66667
0.55137,0.38788,3.8596,-0.16818,-7.554,82.778,1.7309,-0.57698,-1.8983,2.3079,-7.3941e-14,-0.94915,0,0,0.14286,-0,-0,0.66667
0.12897,0.86454,0.90282,0.54682,34.982,254.99,-1.3165,0.43882,-0.93611,-1.7553,-1.1356e-09,-0.46805,0,0,0.14286,-1.6918e-16,0,0.66667
0.11882,0.62957,0.83175,0.19435,12.412,259.56,-0.43107,0.14369,-1.8648,-0.57475,-2.8675e-09,-0.93242,0,0,0.14286,-0,-0,0.66667
0.26555,0.068562,1.8588,-0.64716,-39.203,193.93,3.2079,-1.0693,-0.51354,4.2772,3.4628e-12,-0.25677,0,0,0.14286,-0,-1.058e-16,0.66667
0.76291,0.97716,5.3404,0.71575,19.508,27.243,-10.193,3.3976,-0.17868,-13.591,-1.3413e-11,-0.089339,0,0,0.14286,-1.3534e-15,0,0.66667
0.69822,0.50659,4.8875,0.0098848,0.3252,40.453,-0.12883,0.042944,-1.9989,-0.17178,3.6765e-13,-0.99944,0,0,0.14286,-2.7068e-15,0,0.66667
0.55885,0.20512,3.912,-0.44233,-19.705,80.629,4.6143,-1.5381,-1.3036,6.1524,4.8539e-13,-0.6518,0,0,0.14286,-6.7671e-16,0,0.66667
0.25523,0.70714,1.7866,0.31071,18.828,198.16,-1.4803,0.49344,-1.6554,-1.9738,-4.2069e-12,-0.82769,0,0,0.14286,-0,-0,0.66667
0.51787,0.62492,3.6251,0.18738,8.8566,94.06,-1.8114,0.60381,-1.877,-2.4152,-8.6064e-13,-0.93849,0,0,0.14286,-2.7491e-16,0,0.66667
0.92975,0.75604,6.5083,0.38405,3.2362,3.3273,-6.6654,2.2218,-1.4743,-8.8872,2.8129e-08,-0.73716,0,0,0.14286,-0,-0,0.66667
0.18532,0.29997,1.2972,-0.30005,-18.783,229.24,1.0379,-0.34598,-1.6801,1.3839,7.3176e-10,-0.84007,0,0,0.14286,-0,-0,0.66667
0.73421,0.71474,5.1395,0.32211,9.5469,32.319,-4.4145,1.4715,-1.634,-5.8861,-4.2197e-12,-0.81698,0,0,0.14286,-6.7671e-16,0,0.66667
0.87218,0.66614,6.1053,0.24921,3.7668,8.5893,-4.0573,1.3524,-1.7791,-5.4098,5.6415e-09,-0.88957,0,0,0.14286,-0,-0,0.66667
0.66946,0.85609,4.6862,0.53414,19.104,48.334,-6.6749,2.225,-0.98565,-8.8999,-2.4416e-12,-0.49283,0,0,0.14286,-0,-0,0.66667
0.2037,0.15554,1.4259,-0.51669,-32.198,221.09,1.9646,-0.65487,-1.0539,2.6195,3.4327e-10,-0.52694,0,0,0.14286,4.8638e-16,0,0.66667
0.12917,0.18059,0.90416,-0.47912,-30.615,254.87,1.1552,-0.38507,-1.1833,1.5403,5.6062e-09,-0.59165,0,0,0.14286,-1.6918e-16,0,0.66667
0.51503,0.26628,3.6052,-0.35058,-16.669,95.18,3.3705,-1.1235,-1.5645,4.4939,1.2434e-13,-0.78226,0,0,0.14286,-6.7671e-16,0,0.66667
0.13031,0.5904,0.91216,0.13561,8.6327,254.26,-0.32985,0.10995,-1.9342,-0.43981,-2.3388e-09,-0.96709,0,0,0.14286,4.2294e-17,0,0.66667
0.8257,0.050328,5.7799,-0.67451,-13.948,15.984,10.396,-3.4654,-0.38244,13.862,7.5379e-10,-0.19122,0,0,0.14286,-0,-0,0.66667
0.52364,0.82894,3.6655,0.49341,23.234,92.418,-4.8229,1.6076,-1.1325,-6.4306,-2.0561e-13,-0.56625,0,0,0.14286,5.6588e-17,0,0.66667
0.29142,0.8793,2.04,0.56895,33.874,182.7,-3.095,1.0317,-0.84842,-4.1267,8.4697e-12,-0.42421,0,0,0.14286,-6.7671e-16,0,0.66667
0.56813,0.71415,3.9769,0.32122,14.06,77.485,-3.4066,1.1355,-1.6324,-4.5421,2.8599e-13,-0.81619,0,0,0.14286,-1.0151e-15,0,0.66667
0.26064,0.35571,1.8245,-0.21643,-13.064,195.76,1.053,-0.35099,-1.8322,1.404,3.8695e-12,-0.91608,0,0,0.14286,-0,-0,0.66667
0.58447,0.10427,4.0913,-0.5936,-25.404,72.789,6.4762,-2.1587,-0.7456,8.6349,-2.0872e-14,-0.3728,0,0,0.14286,-0,-0,0.66667
0.23212,0.012567,1.6249,-0.73115,-45.173,208.64,3.168,-1.056,-0.099455,4.2241,-5.6898e-11,-0.049728,0,0,0.14286,-0,1.6269e-16,0.66667
0.21905,0.75306,1.5334,0.37959,23.445,214.15,-1.5521,0.51738,-1.4906,-2.0695,-1.3554e-10,-0.74529,0,0,0.14286,6.7671e-16,0,0.66667
0.51851,0.65488,3.6295,0.23231,10.975,93.871,-2.2485,0.7495,-1.8092,-2.998,-2.5602e-13,-0.90461,0,0,0.14286,1.0151e-15,0,0.66667
0.83542,0.9508,5.8479,0.67621,13.272,14.529,-10.545,3.515,-0.37236,-14.06,-3.2732e-09,-0.18618,0,0,0.14286,-0,-0,0.66667
0.64477,0.94235,4.5134,0.66352,25.244,55.282,-7.9859,2.662,-0.43443,-10.648,4.7473e-13,-0.21722,0,0,0.14286,-0,-0,0.66667
0.094191,0.083239,0.65934,-0.62514,-40.369,271.04,1.0991,-0.36638,-0.61232,1.4655,8.7848e-09,-0.30616,0,0,0.14286,-0,-0,0.66667
0.13407,0.96471,0.93848,0.69706,44.667,252.73,-1.7445,0.58149,-0.27154,-2.326,-6.54e-09,-0.13577,0,0,0.14286,-4.2294e-17,0,0.66667
0.3903,0.50048,2.7321,0.00071809,0.039349,141.5,-0.0052317,0.0017439,-2.0034,-0.0069756,-6.1659e-13,-1.0017,0,0,0.14286,-0,-0,0.66667
0.31956,0.072127,2.237,-0.64181,-37.549,170.87,3.8285,-1.2762,-0.53379,5.1047,8.9218e-13,-0.26689,0,0,0.14286,-6.7671e-16,0,0.66667
0.89122,0.96181,6.2385,0.69271,9.2511,7.6245,-11.524,3.8413,-0.29592,-15.365,9.2827e-08,-0.14796,0,0,0.14286,-0,-0,0.66667
0.89129,0.34245,6.239,-0.23633,-3.0503,6.4416,3.9319,-1.3106,-1.8043,5.2426,-6.506e-09,-0.90214,0,0,0.14286,-3.3835e-16,0,0.66667
0.029824,0.14414,0.20877,-0.53379,-34.69,300.9,0.29717,-0.099058,-0.98774,0.39623,-7.9778e-07,-0.49387,0,0,0.14286,-0,-0,0.66667
0.21052,0.79144,1.4737,0.43716,27.127,217.99,-1.7179,0.57264,-1.3188,-2.2906,-1.5824e-10,-0.65942,0,0,0.14286,-0,-0,0.66667
0.38835,0.20918,2.7185,-0.43623,-24.033,142.51,3.1623,-1.0541,-1.3238,4.2164,-3.9524e-13,-0.66188,0,0,0.14286,-3.3835e-16,0,0.66667
0.17637,0.45022,1.2346,-0.074676,-4.6839,233.23,0.24586,-0.081952,-1.979,0.32781,4.5998e-10,-0.98952,0,0,0.14286,-0,-0,0.66667
0.91869,0.54374,6.4308,0.06561,0.63078,3.7606,-1.1251,0.37505,-1.9843,-1.5002,5.3719e-09,-0.99213,0,0,0.14286,-0,-0,0.66667
0.1896,0.32043,1.3272,-0.26936,-16.829,227.3,0.95331,-0.31777,-1.7427,1.2711,6.1487e-10,-0.87134,0,0,0.14286,-0,-0,0.66667
0.73399,0.41842,5.1379,-0.12237,-3.6182,32.165,1.6766,-0.55886,-1.9485,2.2354,1.0622e-12,-0.97427,0,0,0.14286,-0,-0,0.66667
0.95692,0.78192,6.6984,0.42288,2.1611,1.7963,-7.5537,2.5179,-1.3649,-10.072,-4.1926e-08,-0.68244,0,0,0.14286,-2.7068e-15,0,0.66667
0.47772,0.45006,3.344,-0.074904,-3.7336,108.22,0.66795,-0.22265,-1.9783,0.8906,2.7073e-13,-0.98915,0,0,0.14286,-0,-0,0.66667
0.81422,0.39825,5.6995,-0.15262,-3.2754,16.708,2.3196,-0.77321,-1.9181,3.0929,-6.8127e-10,-0.95906,0,0,0.14286,-1.3534e-15,0,0.66667
0.42822,0.80021,2.9975,0.45031,23.858,126.96,-3.5995,1.1998,-1.2773,-4.7994,6.9278e-14,-0.63866,0,0,0.14286,6.7671e-16,0,0.66667
0.81345,0.93087,5.6941,0.6463,14.188,17.833,-9.8136,3.2712,-0.51659,-13.085,6.2259e-10,-0.25829,0,0,0.14286,-0,-0,0.66667
0.7617,0.55632,5.3319,0.084486,2.2686,26.288,-1.2013,0.40042,-1.9743,-1.6017,2.2232e-11,-0.98717,0,0,0.14286,-0,-0,0.66667
0.9596,0.20572,6.7172,-0.44142,-2.1146,1.7185,7.9069,-2.6356,-1.3055,10.543,5.2831e-08,-0.65273,0,0,0.14286,-0,-0,0.66667
0.3366,0.22655,2.3562,-0.41017,-23.594,163.52,2.5772,-0.85906,-1.4004,3.4363,-5.56e-13,-0.70019,0,0,0.14286,-0,-0,0.66667
0.76659,0.68871,5.3662,0.28306,7.4838,25.482,-4.0505,1.3502,-1.7177,-5.4007,6.288e-11,-0.85887,0,0,0.14286,-0,-0,0.66667
0.92162,0.40088,6.4513,-0.14868,-1.3797,3.577,2.5578,-0.85259,-1.924,3.4103,1.6864e-08,-0.96199,0,0,0.14286,1.3534e-15,0,0.66667
0.81077,0.81939,5.6754,0.47909,10.56,17.798,-7.2507,2.4169,-1.185,-9.6677,4.9097e-10,-0.59248,0,0,0.14286,-0,-0,0.66667
0.81434,0.89498,5.7004,0.59247,12.909,17.519,-9.0061,3.002,-0.75249,-12.008,-5.6258e-10,-0.37624,0,0,0.14286,-0,-0,0.66667
0.9483,0.37711,6.6381,-0.18434,-1.1121,1.8144,3.263,-1.0877,-1.8791,4.3507,3.7242e-08,-0.93957,0,0,0.14286,-0,-0,0.66667
0.29068,0.29189,2.0348,-0.31216,-18.521,182.82,1.6938,-0.56461,-1.652,2.2584,-4.8053e-12,-0.82599,0,0,0.14286,-0,-0,0.66667
0.44015,0.95285,3.081,0.67928,35.711,122.78,-5.581,1.8603,-0.35923,-7.4414,2.0339e-13,-0.17962,0,0,0.14286,-6.7671e-16,0,0.66667
0.10606,0.80128,0.7424,0.45191,29.025,265.5,-0.89467,0.29822,-1.2734,-1.1929,-1.2289e-08,-0.63671,0,0,0.14286,-1.6918e-16,0,0.66667
0.87728,0.15756,6.141,-0.51366,-7.5721,8.5426,8.4117,-2.8039,-1.0634,11.216,4.1673e-09,-0.53171,0,0,0.14286,-2.7068e-15,0,0.66667
0.3437,0.89534,2.4059,0.59302,34.037,160.78,-3.8046,1.2682,-0.75181,-5.0728,1.2006e-12,-0.37591,0,0,0.14286,-3.3835e-16,0,0.66667
0.90524,0.92055,6.3367,0.63083,7.3328,6.0369,-10.66,3.5532,-0.58623,-14.213,3.1881e-08,-0.29311,0,0,0.14286,1.3534e-15,0,0.66667
0.20386,0.19547,1.427,-0.45679,-28.436,220.98,1.7383,-0.57942,-1.2599,2.3177,1.6671e-10,-0.62994,0,0,0.14286,-0,-0,0.66667
0.34961,0.80318,2.4472,0.45478,25.913,158.19,-2.9679,0.98929,-1.2633,-3.9571,1.5168e-12,-0.63163,0,0,0.14286,-0,-0,0.66667
0.69048,0.77674,4.8334,0.41511,14.023,42.733,-5.3503,1.7834,-1.3878,-7.1338,-7.7103e-12,-0.6939,0,0,0.14286,1.6918e-15,0,0.66667
0.92271,0.56264,6.4589,0.093958,0.85832,3.4537,-1.6183,0.53944,-1.9716,-2.1578,6.9986e-08,-0.98579,0,0,0.14286,2.7068e-15,0,0.66667
0.68795,0.53771,4.8156,0.056569,1.9139,43.003,-0.72644,0.24215,-1.9909,-0.96859,-1.5084e-12,-0.99543,0,0,0.14286,-0,-0,0.66667
0.34009,0.3772,2.3807,-0.1842,-10.542,161.93,1.1694,-0.3898,-1.8798,1.5592,-2.9678e-12,-0.93992,0,0,0.14286,1.3534e-15,0,0.66667
0.040043,0.92407,0.2803,0.63611,41.388,296.16,-0.47547,0.15849,-0.55952,-0.63397,-1.645e-06,-0.27976,0,0,0.14286,-0,-0,0.66667
0.33175,0.17309,2.3223,-0.49037,-28.347,165.61,3.0367,-1.0122,-1.1443,4.0489,2.367e-13,-0.57215,0,0,0.14286,-0,-0,0.66667
0.47616,0.25174,3.3331,-0.37238,-18.649,108.98,3.3099,-1.1033,-1.5064,4.4132,6.5281e-14,-0.75321,0,0,0.14286,1.3534e-15,0,0.66667
0.7304,0.22495,5.1128,-0.41258,-12.407,33.314,5.6252,-1.8751,-1.3945,7.5002,1.0163e-11,-0.69723,0,0,0.14286,-2.7068e-15,0,0.66667
0.89363,0.85203,6.2554,0.52805,6.7938,6.8212,-8.8084,2.9361,-1.0086,-11.745,2.0334e-08,-0.50428,0,0,0.14286,2.7068e-15,0,0.66667
0.006309,0.32109,0.044163,-0.26836,-17.396,311.86,0.031605,-0.010535,-1.7425,0.04214,1.1079e-07,-0.87126,0,0,0.14286,-0,-0,0.66667
0.076734,0.73156,0.53714,0.34734,22.4,279.05,-0.49752,0.16584,-1.5719,-0.66336,-1.9634e-08,-0.78595,0,0,0.14286,-1.6918e-16,0,0.66667
0.28179,0.26187,1.9725,-0.3572,-21.323,186.66,1.8789,-0.6263,-1.548,2.5052,-5.7796e-12,-0.774,0,0,0.14286,-0,-0,0.66667
0.53562,0.1882,3.7493,-0.46771,-21.624,88.327,4.6762,-1.5587,-1.2227,6.235,5.6e-13,-0.61133,0,0,0.14286,-0,-0,0.66667
0.53579,0.95077,3.7505,0.67616,31.421,88.669,-6.7625,2.2542,-0.37327,-9.0167,-1.8652e-14,-0.18663,0,0,0.14286,-0,-0,0.66667
0.42526,0.96481,2.9768,0.69721,37.258,128.47,-5.5346,1.8449,-0.27198,-7.3795,1.2541e-12,-0.13599,0,0,0.14286,-8.4588e-16,0,0.66667
0.88364,0.033297,6.1855,-0.70005,-9.9722,8.4534,11.547,-3.849,-0.25694,15.396,3.6963e-08,-0.12847,0,0,0.14286,-2.7068e-15,0,0.66667
0.72735,0.61572,5.0915,0.17358,5.2452,33.679,-2.3568,0.7856,-1.8913,-3.1424,-4.2713e-12,-0.94564,0,0,0.14286,6.7671e-16,0,0.66667
0.13596,0.8092,0.95173,0.4638,29.575,251.75,-1.1771,0.39237,-1.235,-1.5695,-1.9472e-09,-0.61748,0,0,0.14286,4.2294e-17,0,0.66667
0.23514,0.12705,1.646,-0.55942,-34.383,207.15,2.4554,-0.81847,-0.88993,3.2739,-4.516e-11,-0.44496,0,0,0.14286,-0,-0,0.66667
0.50531,0.11181,3.5371,-0.58228,-28.194,98.903,5.4923,-1.8308,-0.79304,7.323,1.191e-12,-0.39652,0,0,0.14286,-0,-0,0.66667
0.36252,0.11994,2.5376,-0.5701,-32.211,153.05,3.8578,-1.2859,-0.84472,5.1438,2.5326e-12,-0.42236,0,0,0.14286,-0,-0,0.66667
0.80862,0.54022,5.6603,0.060326,1.3292,17.589,-0.91057,0.30352,-1.9865,-1.2141,1.6983e-10,-0.99324,0,0,0.14286,-0,-0,0.66667
0.41934,0.064992,2.9353,-0.65251,-35.042,130.67,5.1076,-1.7025,-0.48727,6.8101,7.8026e-13,-0.24363,0,0,0.14286,-1.3534e-15,0,0.66667
0.94116,0.03024,6.5881,-0.70464,-5.2097,3.5894,12.379,-4.1265,-0.23533,16.506,6.3116e-06,-0.11767,0,0,0.14286,-1.1842e-15,0,0.66667
0.18246,0.41005,1.2772,-0.13493,-8.4459,230.49,0.45956,-0.15319,-1.9348,0.61274,8.01e-10,-0.96742,0,0,0.14286,-0,-0,0.66667
0.48279,0.038145,3.3795,-0.69278,-34.653,107.1,6.2434,-2.0811,-0.29469,8.3245,1.2657e-12,-0.14734,0,0,0.14286,-1.3534e-15,1.1637e-16,0.66667
0.89425,0.90652,6.2597,0.60977,7.8599,7.0175,-10.179,3.3929,-0.67886,-13.572,9.7246e-08,-0.33943,0,0,0.14286,2.7068e-15,0,0.66667
0.065736,0.63568,0.46015,0.20352,13.129,284.14,-0.24973,0.083244,-1.8524,-0.33298,6.4765e-09,-0.92618,0,0,0.14286,-0,-0,0.66667
0.27923,0.6332,1.9546,0.1998,11.928,187.69,-1.0414,0.34715,-1.8587,-1.3886,9.107e-12,-0.92937,0,0,0.14286,-6.7671e-16,0,0.66667
0.20277,0.21508,1.4194,-0.42737,-26.605,221.45,1.6176,-0.53922,-1.3533,2.1569,3.198e-10,-0.67666,0,0,0.14286,-0,-0,0.66667
0.98481,0.92867,6.8937,0.64301,1.1669,1.5223,-11.821,3.9402,-0.5319,-15.761,3.2946e-06,-0.26595,0,0,0.14286,6.7671e-16,2.7434e-16,0.66667
0.46845,0.39867,3.2792,-0.15199,-7.6659,111.63,1.3291,-0.44303,-1.9201,1.7721,9.5957e-13,-0.96005,0,0,0.14286,-6.7671e-16,0,0.66667
0.88817,0.87912,6.2172,0.56868,7.704,7.5087,-9.4282,3.1427,-0.85106,-12.571,4.7081e-10,-0.42553,0,0,0.14286,-2.7068e-15,-2.937e-18,0.66667
0.85393,0.94951,5.9775,0.67427,11.854,11.94,-10.748,3.5826,-0.38208,-14.33,3.6129e-09,-0.19104,0,0,0.14286,1.3534e-15,0,0.66667
0.10397,0.078431,0.72778,-0.63235,-40.761,266.53,1.2272,-0.40908,-0.57672,1.6363,-6.9581e-08,-0.28836,0,0,0.14286,-1.6918e-16,0,0.66667
0.34994,0.82452,2.4496,0.48679,27.744,158.09,-3.1798,1.0599,-1.1558,-4.2398,2.5577e-12,-0.57792,0,0,0.14286,-6.7671e-16,0,0.66667
0.4967,0.0012393,3.4769,-0.74814,-36.818,102.27,6.9365,-2.3122,-0.010779,9.2487,-5.3735e-13,-0.0053897,0,0,0.14286,-0,-0,0.66667
0.8789,0.34239,6.1523,-0.23642,-3.3904,7.7904,3.8787,-1.2929,-1.8018,5.1716,-8.0525e-09,-0.9009,0,0,0.14286,-1.8609e-15,0,0.66667
0.98185,0.26024,6.873,-0.35964,-0.68344,0.72474,6.5915,-2.1972,-1.5403,8.7886,7.1859e-08,-0.77013,0,0,0.14286,-0,-0,0.66667
0.33695,0.53122,2.3586,0.046824,2.6846,163.2,-0.29451,0.098169,-1.9921,-0.39268,3.353e-12,-0.99604,0,0,0.14286,1.7975e-16,0,0.66667
0.78195,0.077452,5.4736,-0.63382,-15.984,23.304,9.2515,-3.0838,-0.57304,12.335,8.4598e-11,-0.28652,0,0,0.14286,-0,-0,0.66667
0.85872,0.044453,6.011,-0.68332,-11.656,11.347,10.953,-3.6511,-0.3413,14.604,7.6325e-09,-0.17065,0,0,0.14286,-0,-0,0.66667
0.28125,0.89533,1.9687,0.593,35.548,187.09,-3.1132,1.0377,-0.75196,-4.151,4.4635e-12,-0.37598,0,0,0.14286,-3.3835e-16,1.5384e-16,0.66667
0.19893,0.76491,1.3925,0.39737,24.767,223.15,-1.4756,0.49185,-1.4375,-1.9674,-3.6621e-10,-0.71876,0,0,0.14286,3.3835e-16,0,0.66667
0.64661,0.71678,4.5263,0.32517,12.208,54.102,-3.9248,1.3083,-1.6237,-5.2331,-1.3096e-12,-0.81184,0,0,0.14286,-1.3534e-15,0,0.66667
0.56414,0.77004,3.949,0.40507,17.875,78.869,-4.2656,1.4219,-1.4173,-5.6874,-4.3965e-13,-0.70867,0,0,0.14286,-0,-0,0.66667
0.15458,0.13706,1.082,-0.54441,-34.568,243.29,1.5708,-0.52361,-0.94686,2.0944,2.9666e-09,-0.47343,0,0,0.14286,-0,-6.3781e-17,0.66667
0.74217,0.62283,5.1952,0.18425,5.306,30.424,-2.5525,0.85084,-1.8787,-3.4034,6.9793e-12,-0.93934,0,0,0.14286,-3.3835e-16,0,0.66667
0.36009,0.84422,2.5206,0.51633,29.201,153.97,-3.4706,1.1569,-1.0551,-4.6275,3.0962e-12,-0.52755,0,0,0.14286,-1.3534e-15,0,0.66667
0.60467,0.055232,4.2327,-0.66715,-27.569,66.812,7.5303,-2.5101,-0.41667,10.04,3.6415e-13,-0.20834,0,0,0.14286,-0,-9.1513e-18,0.66667
0.006493,0.7986,0.045451,0.44789,29.093,311.78,-0.054286,0.018095,-1.285,-0.072381,-3.9817e-07,-0.64248,0,0,0.14286,-0,-0,0.66667
0.59052,0.79943,4.1336,0.44914,18.943,70.649,-4.9509,1.6503,-1.2823,-6.6012,1.2004e-12,-0.64113,0,0,0.14286,-6.7671e-16,0,0.66667
0.73343,0.88798,5.134,0.58197,17.434,33.027,-7.9675,2.6558,-0.797,-10.623,-9.2322e-12,-0.3985,0,0,0.14286,-1.3534e-15,1.6433e-16,0.66667
0.34567,0.39184,2.4197,-0.16224,-9.2427,159.61,1.0468,-0.34895,-1.9068,1.3958,2.8577e-13,-0.9534,0,0,0.14286,-0,-0,0.66667
0.75933,0.75572,5.3153,0.38358,10.446,27.099,-5.4369,1.8123,-1.4758,-7.2492,2.5125e-11,-0.7379,0,0,0.14286,-0,-0,0.66667
0.42697,0.74292,2.9888,0.36438,19.304,127.35,-2.9042,0.96805,-1.527,-3.8722,1.5892e-12,-0.76351,0,0,0.14286,5.9117e-16,0,0.66667
0.4232,0.39173,2.9624,-0.16241,-8.6199,128.65,1.283,-0.42765,-1.9071,1.7106,-5.6244e-13,-0.95354,0,0,0.14286,6.7671e-16,0,0.66667
0.29935,0.95199,2.0955,0.67798,40.253,179.45,-3.7885,1.2628,-0.36563,-5.0513,2.0057e-12,-0.18281,0,0,0.14286,-0,-0,0.66667
0.74106,0.040197,5.1874,-0.6897,-20.253,31.682,9.5407,-3.1802,-0.30715,12.721,1.8225e-12,-0.15357,0,0,0.14286,-0,-0,0.66667
0.91708,0.19076,6.4196,-0.46386,-4.6502,4.4934,7.9408,-2.6469,-1.2347,10.588,-3.4002e-08,-0.61736,0,0,0.14286,-2.7068e-15,0,0.66667
0.4431,0.36569,3.1017,-0.20147,-10.469,121.08,1.6664,-0.55547,-1.8544,2.2219,-2.9887e-13,-0.92719,0,0,0.14286,6.7671e-16,0,0.66667
0.98698,0.79473,6.9089,0.4421,0.57868,0.80633,-8.1451,2.715,-1.305,-10.86,4.1947e-08,-0.65248,0,0,0.14286,1.3534e-15,0,0.66667
0.79949,0.64503,5.5964,0.21755,5.0122,19.264,-3.2466,1.0822,-1.8317,-4.3289,3.434e-10,-0.91586,0,0,0.14286,-1.3534e-15,0,0.66667
0.31124,0.50736,2.1786,0.011042,0.64511,173.98,-0.064154,0.021385,-2.0009,-0.085538,1.0438e-12,-1.0005,0,0,0.14286,-0,-0,0.66667
0.23311,0.98419,1.6317,0.72628,44.845,208.2,-3.1603,1.0534,-0.12541,-4.2137,5.5357e-11,-0.062707,0,0,0.14286,3.3835e-16,1.6915e-16,0.66667
0.35894,0.13272,2.5126,-0.55092,-31.208,154.48,3.6913,-1.2304,-0.92292,4.9217,2.6739e-12,-0.46146,0,0,0.14286,-6.7671e-16,1.3617e-16,0.66667
0.40467,0.41456,2.8327,-0.12817,-6.9298,135.85,0.96815,-0.32272,-1.9426,1.2909,1.2361e-12,-0.9713,0,0,0.14286,-0,-0,0.66667
0.4959,0.6795,3.4713,0.26925,13.128,101.8,-2.4924,0.8308,-1.7416,-3.3232,4.4054e-13,-0.87082,0,0,0.14286,3.3835e-16,0,0.66667
0.70153,0.37924,4.9107,-0.18114,-5.9108,39.718,2.3721,-0.79071,-1.8849,3.1628,5.8327e-12,-0.94243,0,0,0.14286,-0,-0,0.66667
0.841,0.2069,5.887,-0.43965,-8.2398,13.032,6.9019,-2.3006,-1.3126,9.2026,-1.7024e-09,-0.6563,0,0,0.14286,-0,-0,0.66667
0.059074,0.43867,0.41352,-0.091996,-5.9366,287.24,0.10145,-0.033815,-1.9707,0.13526,-1.784e-07,-0.98536,0,0,0.14286,-0,-0,0.66667
0.45307,0.78614,3.1715,0.42921,22.117,117.55,-3.63,1.21,-1.3478,-4.84,-3.4461e-13,-0.67391,0,0,0.14286,-0,-0,0.66667
0.42756,0.30497,2.9929,-0.29255,-15.474,127.06,2.3348,-0.77827,-1.6946,3.1131,2.8111e-13,-0.84728,0,0,0.14286,6.7671e-16,0,0.66667
0.42403,0.4577,2.9682,-0.063455,-3.3636,128.3,0.50226,-0.16742,-1.986,0.66969,1.003e-12,-0.99301,0,0,0.14286,-0,-0,0.66667
0.56368,0.41811,3.9457,-0.12283,-5.4055,78.756,1.2924,-0.43081,-1.9474,1.7233,7.7904e-13,-0.97372,0,0,0.14286,-1.3534e-15,0,0.66667
0.9398,0.21483,6.5786,-0.42776,-3.095,2.756,7.5041,-2.5014,-1.3505,10.005,-1.9406e-08,-0.67523,0,0,0.14286,-3.3835e-16,0,0.66667
0.33032,0.68057,2.3122,0.27085,15.627,166.03,-1.6701,0.55669,-1.7399,-2.2267,4.6165e-12,-0.86993,0,0,0.14286,3.3835e-16,0,0.66667
0.94897,0.44349,6.6428,-0.084761,-0.50197,1.698,1.5015,-0.50049,-1.9741,2.002,-4.0894e-10,-0.98704,0,0,0.14286,-0,-0,0.66667
0.24588,0.58462,1.7212,0.12693,7.7194,202.19,-0.58258,0.19419,-1.942,-0.77677,-1.6212e-11,-0.971,0,0,0.14286,3.3835e-16,0,0.66667
0.54841,0.11128,3.8388,-0.58308,-26.503,84.286,5.969,-1.9897,-0.79187,7.9586,7.9758e-13,-0.39593,0,0,0.14286,-6.7671e-16,0,0.66667
0.7134,0.87394,4.9938,0.5609,17.851,37.517,-7.4695,2.4898,-0.88136,-9.9593,-6.1608e-12,-0.44068,0,0,0.14286,-2.5377e-16,0,0.66667
0.88062,0.85869,6.1644,0.53803,7.7393,8.2351,-8.8443,2.9481,-0.96916,-11.792,8.9739e-09,-0.48458,0,0,0.14286,-0,-0,0.66667
0.7817,0.32071,5.4719,-0.26893,-6.6971,22.549,3.9241,-1.308,-1.7449,5.2322,-1.4788e-10,-0.87244,0,0,0.14286,-0,-0,0.66667
0.96576,0.29485,6.7603,-0.30772,-1.2038,1.1541,5.5475,-1.8492,-1.663,7.3966,8.8662e-08,-0.83148,0,0,0.14286,-0,-0,0.66667
0.55114,0.15396,3.858,-0.51907,-23.453,83.267,5.3401,-1.78,-1.0422,7.1202,-6.3638e-13,-0.5211,0,0,0.14286,1.0151e-15,0,0.66667
0.90543,0.76401,6.338,0.39601,4.4957,5.3411,-6.693,2.231,-1.4437,-8.9241,1.9358e-08,-0.72186,0,0,0.14286,-0,-0,0.66667
0.65468,0.78061,4.5828,0.42091,15.545,52.042,-5.1439,1.7146,-1.3723,-6.8585,-3.2778e-12,-0.68615,0,0,0.14286,1.6918e-15,0,0.66667
0.16901,0.38375,1.1831,-0.17437,-10.971,236.59,0.55012,-0.18337,-1.8919,0.7335,1.3105e-09,-0.94596,0,0,0.14286,-3.3835e-16,0,0.66667
0.030661,0.79387,0.21463,0.4408,28.604,300.5,-0.25229,0.084096,-1.3107,-0.33638,3.1449e-07,-0.65535,0,0,0.14286,-0,-0,0.66667
0.76078,0.52148,5.3255,0.03222,0.86792,26.459,-0.45756,0.15252,-1.9952,-0.61009,7.9674e-12,-0.99761,0,0,0.14286,-0,-0,0.66667
0.67762,0.93804,4.7433,0.65706,23.128,46.53,-8.3111,2.7704,-0.46495,-11.081,-1.4628e-12,-0.23248,0,0,0.14286,2.7068e-15,0,0.66667
0.28831,0.61978,2.0182,0.17967,10.664,183.77,-0.96696,0.32232,-1.8841,-1.2893,7.8667e-12,-0.94206,0,0,0.14286,-0,-0,0.66667
0.10602,0.11989,0.74212,-0.57016,-36.692,265.56,1.1283,-0.37611,-0.84431,1.5045,-6.8173e-09,-0.42216,0,0,0.14286,4.2294e-17,0,0.66667
0.68946,0.0081631,4.8262,-0.73776,-25.274,43.785,9.4949,-3.165,-0.0655,12.66,8.8995e-13,-0.03275,0,0,0.14286,-2.7068e-15,0,0.66667
0.74945,0.37868,5.2462,-0.18197,-5.1112,28.873,2.5458,-0.84859,-1.8848,3.3943,-1.0631e-11,-0.9424,0,0,0.14286,2.7068e-15,0,0.66667
0.55828,0.81749,3.908,0.47623,21.25,80.868,-4.9629,1.6543,-1.1934,-6.6172,-3.4595e-13,-0.59668,0,0,0.14286,-0,-0,0.66667
0.66524,0.27045,4.6567,-0.34432,-12.382,49.098,4.2757,-1.4252,-1.5768,5.7009,4.3689e-12,-0.78841,0,0,0.14286,-6.7671e-16,0,0.66667
0.40406,0.16452,2.8284,-0.50321,-27.348,136.38,3.7955,-1.2652,-1.1002,5.0606,2.2171e-12,-0.5501,0,0,0.14286,-0,-0,0.66667
0.86609,0.64831,6.0626,0.22247,3.5138,9.2964,-3.5967,1.1989,-1.8226,-4.7956,4.2956e-09,-0.91131,0,0,0.14286,-1.3534e-15,0,0.66667
0.5324,0.2351,3.7268,-0.39735,-18.435,89.308,3.9489,-1.3163,-1.4396,5.2652,5.8176e-14,-0.71982,0,0,0.14286,-0,-0,0.66667
0.89484,0.3014,6.2639,-0.29791,-3.7319,6.1701,4.9761,-1.6587,-1.6835,6.6348,-1.2079e-08,-0.84177,0,0,0.14286,-0,-0,0.66667
0.73971,0.030675,5.178,-0.70399,-20.779,32.018,9.7206,-3.2402,-0.23796,12.961,3.1433e-12,-0.11898,0,0,0.14286,-1.6918e-16,0,0.66667
0.5229,0.73523,3.6603,0.35284,16.589,92.478,-3.444,1.148,-1.5555,-4.592,5.4468e-13,-0.77774,0,0,0.14286,-6.7671e-16,0,0.66667
0.71966,0.35729,5.0376,-0.21406,-6.6277,35.467,2.8757,-0.95855,-1.8383,3.8342,6.6533e-12,-0.91916,0,0,0.14286,-1.3534e-15,0,0.66667
0.88675,0.58768,6.2072,0.13152,1.7618,6.8154,-2.1771,0.72569,-1.9382,-2.9028,3.5348e-09,-0.96912,0,0,0.14286,-0,-0,0.66667
0.19451,0.80572,1.3616,0.45858,28.66,225.17,-1.6651,0.55502,-1.251,-2.2201,-1.9827e-10,-0.62548,0,0,0.14286,3.3835e-16,0,0.66667
0.42981,0.76106,3.0086,0.39159,20.692,126.29,-3.1418,1.0473,-1.453,-4.189,1.0105e-12,-0.72651,0,0,0.14286,6.7671e-16,0,0.66667
0.85935,0.051229,6.0155,-0.67316,-11.425,11.229,10.798,-3.5994,-0.39103,14.398,1.6966e-08,-0.19552,0,0,0.14286,-0,1.5604e-16,0.66667
0.030496,0.3059,0.21347,-0.29115,-18.86,300.57,0.16574,-0.055247,-1.7005,0.22099,-8.4627e-08,-0.85027,0,0,0.14286,-0,-0,0.66667
0.13308,0.81319,0.93158,0.46978,29.982,253.07,-1.167,0.38901,-1.215,-1.556,-2.4602e-09,-0.60749,0,0,0.14286,-0,-0,0.66667
0.40535,0.062281,2.8374,-0.65658,-35.759,136.1,4.968,-1.656,-0.4701,6.624,9.9343e-13,-0.23505,0,0,0.14286,-1.7975e-16,4.6987e-18,0.66667
0.11236,0.96136,0.78651,0.69205,44.583,262.69,-1.4515,0.48383,-0.29724,-1.9353,-1.7726e-08,-0.14862,0,0,0.14286,8.4588e-17,0,0.66667
0.72615,0.042525,5.0831,-0.68621,-21.127,34.945,9.3015,-3.1005,-0.32398,12.402,2.3492e-12,-0.16199,0,0,0.14286,-0,-0,0.66667
0.97481,0.36479,6.8237,-0.20282,-0.54949,0.66229,3.6905,-1.2302,-1.8523,4.9207,6.0542e-08,-0.92613,0,0,0.14286,-0,-0,0.66667
0.48907,0.64006,3.4235,0.21009,10.33,104.19,-1.918,0.63933,-1.8418,-2.5573,7.615e-13,-0.9209,0,0,0.14286,-0,-0,0.66667
0.96027,0.59781,6.7219,0.14672,0.66426,1.1707,-2.6299,0.87663,-1.9225,-3.5065,-1.2908e-07,-0.96127,0,0,0.14286,-0,-0,0.66667
0.13577,0.63742,0.95038,0.20613,13.108,251.77,-0.52242,0.17414,-1.8477,-0.69655,-4.7338e-09,-0.92383,0,0,0.14286,-0,-0,0.66667
0.70044,0.16041,4.9031,-0.50939,-16.792,40.477,6.6603,-2.2201,-1.0781,8.8803,5.8908e-12,-0.53907,0,0,0.14286,-0,-0,0.66667
0.58286,0.50707,4.08,0.010607,0.45137,72.651,-0.1154,0.038467,-1.9988,-0.15387,-5.9282e-13,-0.99942,0,0,0.14286,-0,-0,0.66667
0.79173,0.15422,5.5421,-0.51867,-12.487,21.188,7.6654,-2.5551,-1.0434,10.221,-4.3779e-11,-0.52168,0,0,0.14286,-4.4231e-16,0,0.66667
0.5377,0.032374,3.7639,-0.70144,-32.526,88.087,7.0404,-2.3468,-0.2503,9.3872,-9.7922e-13,-0.12515,0,0,0.14286,1.3534e-15,0,0.66667
0.97989,0.7481,6.8592,0.37215,0.80428,0.80528,-6.8071,2.269,-1.5077,-9.0761,-1.3478e-07,-0.75386,0,0,0.14286,-1.8609e-15,0,0.66667
0.43965,0.39214,3.0776,-0.16179,-8.4369,122.37,1.3278,-0.44258,-1.9071,1.7703,-6.8168e-13,-0.95357,0,0,0.14286,6.7671e-16,0,0.66667
0.95027,0.5597,6.6519,0.089546,0.51589,1.629,-1.5884,0.52947,-1.9723,-2.1179,2.6226e-08,-0.98617,0,0,0.14286,1.6918e-15,0,0.66667
0.91828,0.069413,6.4279,-0.64588,-6.5177,4.9732,11.071,-3.6904,-0.51655,14.762,-7.3264e-08,-0.25828,0,0,0.14286,-0,-0,0.66667
0.42387,0.83958,2.9671,0.50936,27.139,128.7,-4.0302,1.3434,-1.0787,-5.3736,1.1102e-13,-0.53937,0,0,0.14286,-0,-0,0.66667
0.41052,0.40633,2.8737,-0.1405,-7.5531,133.56,1.0766,-0.35888,-1.9304,1.4355,3.8725e-13,-0.96521,0,0,0.14286,-0,-0,0.66667
0.019947,0.15337,0.13963,-0.51994,-33.799,305.5,0.1936,-0.064533,-1.0388,0.25813,-8.7296e-07,-0.51941,0,0,0.14286,-5.2868e-18,0,0.66667
0.44849,0.183,3.1395,-0.47549,-24.651,119.31,3.9808,-1.3269,-1.1957,5.3077,-3.5083e-14,-0.59787,0,0,0.14286,8.4588e-16,0,0.66667
0.19941,0.66022,1.3959,0.24034,14.952,222.88,-0.89461,0.2982,-1.7948,-1.1928,-3.332e-10,-0.89739,0,0,0.14286,-0,-0,0.66667
0.33593,0.65222,2.3515,0.22833,13.113,163.68,-1.4318,0.47726,-1.8137,-1.909,4.2e-12,-0.90684,0,0,0.14286,8.7562e-16,0,0.66667
0.28252,0.058519,1.9776,-0.66222,-39.727,186.62,3.4923,-1.1641,-0.4426,4.6564,-2.1538e-14,-0.2213,0,0,0.14286,5.0753e-16,0,0.66667
0.6702,0.42633,4.6914,-0.11051,-3.9138,47.571,1.3825,-0.46082,-1.9573,1.8433,2.9539e-12,-0.97864,0,0,0.14286,-6.7671e-16,0,0.66667
0.44017,0.44975,3.0812,-0.075378,-3.927,122.14,0.61935,-0.20645,-1.9797,0.8258,2.7145e-13,-0.98985,0,0,0.14286,6.7671e-16,0,0.66667
0.60025,0.34235,4.2017,-0.23648,-9.7592,67.413,2.6497,-0.88323,-1.8008,3.5329,2.7423e-13,-0.9004,0,0,0.14286,-3.3835e-16,0,0.66667
0.84352,0.70547,5.9046,0.3082,5.6593,12.415,-4.8528,1.6176,-1.6642,-6.4705,2.4489e-09,-0.83208,0,0,0.14286,1.3534e-15,0,0.66667
0.83277,0.6182,5.8294,0.1773,3.4526,13.816,-2.7561,0.9187,-1.8875,-3.6748,1.4611e-09,-0.94377,0,0,0.14286,-0,-0,0.66667
0.58556,0.98599,4.0989,0.72899,31.274,72.779,-7.9682,2.6561,-0.10861,-10.624,2.3048e-13,-0.054303,0,0,0.14286,-0,-0,0.66667
0.44054,0.038786,3.0838,-0.69182,-36.367,122.65,5.6891,-1.8964,-0.2983,7.5855,4.1078e-13,-0.14915,0,0,0.14286,-0,-0,0.66667
0.40041,0.82476,2.8029,0.48715,26.56,137.8,-3.6411,1.2137,-1.1547,-4.8548,-5.7132e-13,-0.57733,0,0,0.14286,6.7671e-16,0,0.66667
0.071127,0.73671,0.49789,0.35507,22.92,281.65,-0.47143,0.15714,-1.5499,-0.62857,-1.8946e-08,-0.77496,0,0,0.14286,-8.4231e-17,0,0.66667
0.46738,0.98111,3.2717,0.72167,36.818,112.74,-6.2962,2.0987,-0.14913,-8.3949,-6.7457e-13,-0.074566,0,0,0.14286,6.7671e-16,0,0.66667
0.40304,0.4091,2.8213,-0.13636,-7.3845,136.49,1.0259,-0.34196,-1.9345,1.3678,1.625e-12,-0.96726,0,0,0.14286,-0,-0,0.66667
0.20153,0.61706,1.4107,0.17558,10.909,221.91,-0.66053,0.22018,-1.8914,-0.88071,-3.3614e-10,-0.94571,0,0,0.14286,-3.3835e-16,0,0.66667
0.80272,0.92677,5.6191,0.64015,14.772,19.608,-9.5921,3.1974,-0.54148,-12.79,4.6453e-11,-0.27074,0,0,0.14286,-0,-0,0.66667
0.69815,0.77512,4.887,0.41268,13.652,40.84,-5.3781,1.7927,-1.3937,-7.1707,-7.2342e-12,-0.69687,0,0,0.14286,-1.0151e-15,0,0.66667
0.97541,0.64526,6.8279,0.21789,0.57516,0.66223,-3.9672,1.3224,-1.8295,-5.2896,-3.9119e-08,-0.91477,0,0,0.14286,-0,-0,0.66667
0.38552,0.12996,2.6986,-0.55506,-30.728,143.78,3.9944,-1.3315,-0.90395,5.3258,1.7539e-12,-0.45197,0,0,0.14286,-0,-0,0.66667
0.41693,0.73451,2.9185,0.35176,18.827,131.2,-2.7377,0.91255,-1.5587,-3.6502,6.819e-13,-0.77934,0,0,0.14286,-0,-0,0.66667
0.51973,0.99757,3.6381,0.74636,35.586,94.262,-7.241,2.4137,-0.019583,-9.6546,-4.0545e-13,-0.0097913,0,0,0.14286,-1.1842e-15,0,0.66667
0.35329,0.024974,2.473,-0.71254,-40.702,157.01,4.699,-1.5663,-0.19371,6.2653,3.4777e-12,-0.096854,0,0,0.14286,-0,-0,0.66667
0.54525,0.83111,3.8167,0.49666,22.639,85.168,-5.055,1.685,-1.1236,-6.74,-4.5297e-13,-0.5618,0,0,0.14286,6.7671e-16,0,0.66667
0.88975,0.49816,6.2283,-0.0027625,-0.035988,6.4477,0.045882,-0.015294,-2.0026,0.061176,-2.9427e-08,-1.0013,0,0,0.14286,-1.6918e-16,0,0.66667
0.73052,0.93548,5.1136,0.65321,19.81,33.87,-8.9074,2.9691,-0.48331,-11.877,-2.3919e-12,-0.24166,0,0,0.14286,1.6918e-16,-1.4796e-16,0.66667
0.20651,0.14358,1.4456,-0.53462,-33.286,219.84,2.0609,-0.68697,-0.98318,2.7479,1.4683e-10,-0.49159,0,0,0.14286,3.3835e-16,0,0.66667
0.80015,0.65123,5.6011,0.22685,5.2116,19.158,-3.3882,1.1294,-1.8173,-4.5176,3.3276e-10,-0.90863,0,0,0.14286,6.7671e-16,0,0.66667
0.79531,0.20932,5.5672,-0.43601,-10.3,20.355,6.473,-2.1577,-1.325,8.6306,-2.4384e-10,-0.66249,0,0,0.14286,-0,-0,0.66667
0.79909,0.59601,5.5936,0.14402,3.3202,19.268,-2.1483,0.7161,-1.9276,-2.8644,1.5575e-10,-0.96382,0,0,0.14286,-0,-0,0.66667
0.3168,0.49343,2.2176,-0.0098512,-0.57327,171.63,0.058257,-0.019419,-1.9991,0.077675,-2.4508e-14,-0.99957,0,0,0.14286,1.0151e-15,0,0.66667
0.61295,0.86959,4.2907,0.55439,22.465,64.097,-6.3432,2.1144,-0.90722,-8.4575,1.3367e-13,-0.45361,0,0,0.14286,-3.3835e-16,0,0.66667
0.65229,0.99038,4.566,0.73556,27.593,53.43,-8.9563,2.9854,-0.075581,-11.942,-1.6609e-13,-0.03779,0,0,0.14286,2.0301e-15,0,0.66667
0.12023,0.84892,0.84158,0.52339,33.544,259,-1.1746,0.39153,-1.0255,-1.5661,1.166e-09,-0.51274,0,0,0.14286,3.3835e-16,0,0.66667
0.91868,0.46765,6.4307,-0.04853,-0.46654,3.7559,0.83222,-0.27741,-1.9926,1.1096,1.4202e-08,-0.9963,0,0,0.14286,4.2294e-16,0,0.66667
0.36814,0.84175,2.577,0.51262,28.793,150.7,-3.5227,1.1742,-1.0651,-4.6969,7.9226e-13,-0.53256,0,0,0.14286,8.4588e-17,0,0.66667
0.68838,0.16083,4.8186,-0.50876,-17.328,43.443,6.5374,-2.1791,-1.0818,8.7165,6.2892e-12,-0.5409,0,0,0.14286,-2.7068e-15,0,0.66667
0.92834,0.017931,6.4984,-0.7231,-6.4986,4.5133,12.531,-4.1769,-0.13914,16.708,-1.0191e-06,-0.069568,0,0,0.14286,-0,-0,0.66667
0.67487,0.62506,4.7241,0.18759,6.5713,46.403,-2.3632,0.78772,-1.8762,-3.1509,-3.5529e-12,-0.9381,0,0,0.14286,-0,-0,0.66667
0.93848,0.4245,6.5693,-0.11325,-0.81783,2.343,1.9839,-0.6613,-1.9556,2.6452,5.0735e-08,-0.9778,0,0,0.14286,-0,-0,0.66667
0.69911,0.84806,4.8938,0.52209,17.282,40.829,-6.8133,2.2711,-1.0308,-9.0844,-5.0981e-12,-0.51538,0,0,0.14286,-0,-0,0.66667
0.17086,0.74637,1.196,0.36955,23.276,235.81,-1.1786,0.39288,-1.5165,-1.5715,-1.2433e-09,-0.75827,0,0,0.14286,-1.6918e-16,0,0.66667
0.72891,0.18436,5.1023,-0.47346,-14.332,33.77,6.4419,-2.1473,-1.2025,8.5893,6.299e-12,-0.60127,0,0,0.14286,1.5692e-15,0,0.66667
0.40572,0.53414,2.84,0.05121,2.7653,135.42,-0.38784,0.12928,-1.9934,-0.51712,-2.1265e-12,-0.99669,0,0,0.14286,1.3534e-15,0,0.66667
0.31857,0.61105,2.23,0.16657,9.6858,170.91,-0.99055,0.33018,-1.8997,-1.3207,6.4835e-12,-0.94983,0,0,0.14286,-0,-0,0.66667
0.78065,0.35957,5.4645,-0.21064,-5.2622,22.679,3.0695,-1.0232,-1.8437,4.0927,-1.3533e-10,-0.92187,0,0,0.14286,-0,-0,0.66667
0.79049,0.36944,5.5334,-0.19584,-4.6932,20.845,2.8898,-0.96326,-1.8626,3.853,-1.9174e-10,-0.93129,0,0,0.14286,3.3835e-16,0,0.66667
0.94901,0.35226,6.6431,-0.22161,-1.3208,1.8194,3.9257,-1.3086,-1.8247,5.2343,3.7223e-08,-0.91237,0,0,0.14286,-0,-0,0.66667
0.20319,0.74756,1.4223,0.37134,23.096,221.23,-1.4084,0.46947,-1.513,-1.8779,-2.7892e-10,-0.75648,0,0,0.14286,4.6524e-16,0,0.66667
0.53266,0.3068,3.7287,-0.2898,-13.418,89.097,2.8815,-0.96049,-1.7029,3.842,-1.5699e-13,-0.85143,0,0,0.14286,-0,-0,0.66667
0.77212,0.48237,5.4049,-0.026439,-0.68216,24.206,0.38107,-0.12702,-1.9958,0.50809,-1.6399e-11,-0.99788,0,0,0.14286,1.3534e-15,0,0.66667
0.51635,0.57954,3.6144,0.11931,5.6486,94.551,-1.1499,0.38331,-1.9508,-1.5332,4.4642e-13,-0.97539,0,0,0.14286,-6.7671e-16,0,0.66667
0.22879,0.53442,1.6015,0.051636,3.167,209.73,-0.22052,0.073507,-1.99,-0.29403,3.1156e-14,-0.99501,0,0,0.14286,-0,-0,0.66667
0.99529,0.92434,6.967,0.63651,0.28691,1.3114,-11.826,3.9419,-0.55825,-15.767,-6.2529e-08,-0.27913,0,0,0.14286,1.3534e-15,0,0.66667
0.88932,0.73493,6.2252,0.35239,4.6541,6.8368,-5.8499,1.95,-1.5593,-7.7999,1.1598e-08,-0.77967,0,0,0.14286,1.3534e-15,0,0.66667
0.57714,0.2361,4.04,-0.39585,-17.081,74.723,4.2647,-1.4216,-1.444,5.6862,8.3045e-14,-0.72201,0,0,0.14286,-0,-0,0.66667
0.53805,0.24345,3.7663,-0.38483,-17.698,87.396,3.865,-1.2883,-1.4722,5.1534,-2.4181e-13,-0.7361,0,0,0.14286,-6.7671e-16,0,0.66667
0.83998,0.28499,5.8798,-0.32251,-6.0507,12.945,5.0568,-1.6856,-1.6303,6.7424,-2.1585e-09,-0.81517,0,0,0.14286,-0,-0,0.66667
0.91463,0.66044,6.4024,0.24067,2.444,4.2493,-4.1089,1.3696,-1.7931,-5.4786,1.091e-08,-0.89655,0,0,0.14286,-2.7068e-15,0,0.66667
0.81959,0.85147,5.7371,0.5272,11.152,16.489,-8.0656,2.6885,-1.0103,-10.754,2.6168e-10,-0.50517,0,0,0.14286,-0,-0,0.66667
0.43281,0.67654,3.0297,0.2648,13.925,125.03,-2.1394,0.71313,-1.7496,-2.8525,6.6636e-13,-0.87478,0,0,0.14286,-0,-0,0.66667
0.85562,0.96994,5.9894,0.70491,12.29,11.829,-11.259,3.7528,-0.2339,-15.011,2.7483e-09,-0.11695,0,0,0.14286,2.7068e-15,2.4757e-17,0.66667
0.22561,0.09507,1.5792,-0.60739,-37.541,211.4,2.5579,-0.85264,-0.68785,3.4106,7.8967e-11,-0.34392,0,0,0.14286,-6.7671e-16,0,0.66667
0.54052,0.4383,3.7836,-0.092554,-4.2271,86.337,0.93384,-0.31128,-1.9693,1.2451,-6.426e-13,-0.98466,0,0,0.14286,1.3534e-15,0,0.66667
0.31515,0.66325,2.2061,0.24488,14.282,172.38,-1.4406,0.48019,-1.7872,-1.9208,7.488e-12,-0.89358,0,0,0.14286,-0,-0,0.66667
0.11963,0.32401,0.83744,-0.26399,-16.866,259.19,0.58954,-0.19651,-1.7508,0.78605,7.523e-09,-0.87541,0,0,0.14286,-0,-0,0.66667
0.14551,0.41987,1.0186,-0.12019,-7.6179,247.29,0.32646,-0.10882,-1.9473,0.43529,1.612e-09,-0.97366,0,0,0.14286,-0,-0,0.66667
0.9366,0.14387,6.5562,-0.5342,-4.1313,3.2594,9.3395,-3.1132,-0.98666,12.453,-7.2358e-08,-0.49333,0,0,0.14286,-1.3534e-15,0,0.66667
0.19499,0.99856,1.3649,0.74783,46.998,225.16,-2.722,0.90734,-0.011051,-3.6293,2.0574e-10,-0.0055255,0,0,0.14286,4.2294e-16,0,0.66667
0.64991,0.17651,4.5494,-0.48524,-18.147,53.459,5.8867,-1.9622,-1.1612,7.849,2.0148e-12,-0.58061,0,0,0.14286,6.7671e-16,0,0.66667
0.23912,0.45247,1.6738,-0.071301,-4.3508,205.16,0.31826,-0.10609,-1.9806,0.42435,1.994e-11,-0.99032,0,0,0.14286,-0,-0,0.66667
0.52547,0.34398,3.6783,-0.23402,-10.945,91.488,2.2955,-0.76516,-1.8053,3.0606,-3.1952e-13,-0.90265,0,0,0.14286,-0,-0,0.66667
0.13063,0.85588,0.91444,0.53382,34.128,254.22,-1.3017,0.43391,-0.98529,-1.7356,-2.3467e-09,-0.49264,0,0,0.14286,-0,-0,0.66667
0.28954,0.51812,2.0268,0.027185,1.6113,183.22,-0.14693,0.048975,-1.9955,-0.1959,4.5671e-12,-0.99777,0,0,0.14286,-0,-0,0.66667
0.40052,0.98596,2.8037,0.72894,39.961,138.12,-5.4499,1.8166,-0.10915,-7.2665,-1.0085e-12,-0.054577,0,0,0.14286,6.7671e-16,0,0.66667
0.70668,0.93804,4.9468,0.65705,21.401,39.358,-8.6674,2.8891,-0.46587,-11.557,-7.0788e-13,-0.23294,0,0,0.14286,-0,-0,0.66667
0.90107,0.40516,6.3075,-0.14226,-1.668,5.3662,2.3928,-0.7976,-1.9281,3.1904,1.4537e-09,-0.96404,0,0,0.14286,1.6072e-15,0,0.66667
0.42858,0.59949,3,0.14924,7.8758,126.58,-1.1939,0.39798,-1.9197,-1.5919,-1.9984e-15,-0.95984,0,0,0.14286,-0,-0,0.66667
0.71382,0.00089213,4.9968,-0.74866,-23.988,37.964,9.9757,-3.3252,-0.0072948,13.301,1.7568e-12,-0.0036474,0,0,0.14286,-0,-0,0.66667
0.13909,0.17137,0.97361,-0.49295,-31.419,250.33,1.2798,-0.42661,-1.1367,1.7064,4.3228e-09,-0.56834,0,0,0.14286,-0,-0,0.66667
0.10058,0.26769,0.70403,-0.34847,-22.377,268,0.65421,-0.21807,-1.5664,0.87228,1.4416e-08,-0.78322,0,0,0.14286,-0,-0,0.66667
0.44811,0.26291,3.1368,-0.35564,-18.408,119.32,2.9748,-0.9916,-1.549,3.9664,1.9096e-14,-0.77448,0,0,0.14286,-0,-0,0.66667
0.76051,0.36574,5.3235,-0.20139,-5.4386,26.608,2.859,-0.95299,-1.8547,3.812,-3.3511e-11,-0.92733,0,0,0.14286,-6.7671e-16,0,0.66667
0.23162,0.18404,1.6213,-0.47394,-29.137,208.64,2.0491,-0.68303,-1.2022,2.7321,-6.9498e-12,-0.60108,0,0,0.14286,5.761e-16,0,0.66667
0.80913,0.60592,5.6639,0.15888,3.4958,17.557,-2.3997,0.79989,-1.9097,-3.1996,4.3259e-10,-0.95486,0,0,0.14286,-0,-0,0.66667
0.25241,0.45778,1.7669,-0.06333,-3.8373,199.32,0.29839,-0.099463,-1.9859,0.39785,7.977e-12,-0.99295,0,0,0.14286,3.3835e-16,0,0.66667
0.083801,0.94775,0.58661,0.67162,43.493,275.86,-1.0506,0.3502,-0.3948,-1.4008,3.056e-08,-0.1974,0,0,0.14286,-0,-0,0.66667
0.513,0.18077,3.591,-0.47885,-22.886,96.053,4.5855,-1.5285,-1.1851,6.114,-3.8858e-13,-0.59256,0,0,0.14286,3.0376e-16,0,0.66667
0.00097781,0.69041,0.0068447,0.28562,18.518,314.35,-0.0052132,0.0017376,-1.7122,-0.006951,-1.5178e-07,-0.85611,0,0,0.14286,2.6434e-18,-3.9263e-16,0.66667
0.70811,0.81301,4.9568,0.46951,15.127,38.553,-6.2061,2.0687,-1.2164,-8.2748,-1.1801e-11,-0.60821,0,0,0.14286,2.7068e-15,0,0.66667
0.73906,0.29006,5.1734,-0.31491,-9.185,31.247,4.3444,-1.4481,-1.6465,5.7926,4.3476e-13,-0.82323,0,0,0.14286,-0,-0,0.66667
0.97332,0.83098,6.8132,0.49647,1.545,1.3336,-9.0202,3.0067,-1.1225,-12.027,-7.9614e-07,-0.56123,0,0,0.14286,-1.3534e-15,0,0.66667
0.66316,0.7083,4.6422,0.31245,11.285,49.604,-3.8679,1.2893,-1.6512,-5.1571,-3.0707e-12,-0.82561,0,0,0.14286,-6.7671e-16,0,0.66667
0.49422,0.29566,3.4595,-0.30651,-14.985,102.43,2.8277,-0.94255,-1.6643,3.7702,-4.1522e-13,-0.83217,0,0,0.14286,-0,-0,0.66667
0.073623,0.5094,0.51536,0.014096,0.90773,280.47,-0.019372,0.0064573,-1.9984,-0.02583,-2.6707e-07,-0.99919,0,0,0.14286,3.3835e-16,0,0.66667
0.5343,0.45209,3.7401,-0.071862,-3.3132,88.416,0.71672,-0.23891,-1.9812,0.95562,-8.3822e-15,-0.99062,0,0,0.14286,-0,-0,0.66667
0.14183,0.40311,0.99281,-0.14533,-9.2225,248.98,0.38477,-0.12826,-1.9269,0.51303,1.6075e-09,-0.96347,0,0,0.14286,-1.6918e-16,0,0.66667
0.80239,0.59772,5.6167,0.14658,3.3286,18.696,-2.1954,0.73181,-1.923,-2.9272,1.9674e-10,-0.9615,0,0,0.14286,2.7068e-15,0,0.66667
0.57615,0.058198,4.033,-0.6627,-28.84,75.542,7.1272,-2.3757,-0.43971,9.503,1.4522e-13,-0.21986,0,0,0.14286,3.3835e-16,8.0327e-17,0.66667
0.21291,0.32221,1.4904,-0.26668,-16.498,216.84,1.0599,-0.3533,-1.7457,1.4132,2.0458e-10,-0.87287,0,0,0.14286,-0,-0,0.66667
0.70706,0.23416,4.9494,-0.39877,-12.861,38.669,5.2631,-1.7544,-1.4337,7.0174,8.1122e-12,-0.71685,0,0,0.14286,1.3534e-15,0,0.66667
0.33301,0.48022,2.3311,-0.029665,-1.7059,164.84,0.1844,-0.061468,-1.9957,0.24587,7.0587e-13,-0.99783,0,0,0.14286,-6.7671e-16,0,0.66667
0.6691,0.6906,4.6837,0.2859,10.174,48.004,-3.5709,1.1903,-1.7102,-4.7612,-4.5215e-12,-0.85511,0,0,0.14286,-0,-0,0.66667
0.77955,0.074944,5.4569,-0.63758,-16.238,23.764,9.2779,-3.0926,-0.55523,12.371,2.592e-11,-0.27762,0,0,0.14286,-0,-1.6216e-16,0.66667
0.086576,0.25356,0.60603,-0.36966,-23.807,274.49,0.5974,-0.19913,-1.5133,0.79654,2.0861e-08,-0.75664,0,0,0.14286,-0,-0,0.66667
0.51066,0.065925,3.5746,-0.65111,-31.353,97.175,6.2066,-2.0689,-0.4923,8.2754,-1.7808e-13,-0.24615,0,0,0.14286,1.3534e-15,0,0.66667
0.10367,0.17119,0.72572,-0.49321,-31.713,266.61,0.95448,-0.31816,-1.1335,1.2726,2.4043e-08,-0.56675,0,0,0.14286,1.6918e-16,0,0.66667
0.64946,0.12302,4.5462,-0.56547,-21.218,53.752,6.8553,-2.2851,-0.86258,9.1404,1.541e-12,-0.43129,0,0,0.14286,-6.7671e-16,0,0.66667
0.3155,0.033824,2.2085,-0.69926,-41.084,172.66,4.1182,-1.3727,-0.26224,5.4909,6.6169e-13,-0.13112,0,0,0.14286,-0,-0,0.66667
0.6435,0.067169,4.5045,-0.64925,-24.758,55.595,7.7988,-2.5996,-0.50179,10.398,5.2847e-13,-0.2509,0,0,0.14286,-0,-0,0.66667
0.048554,0.67673,0.33988,0.2651,17.144,292.15,-0.24027,0.080091,-1.7508,-0.32036,4.4463e-08,-0.87542,0,0,0.14286,-0,-0,0.66667
0.867,0.23599,6.069,-0.39602,-6.2581,9.4735,6.4091,-2.1364,-1.4405,8.5455,-5.8492e-09,-0.72025,0,0,0.14286,-1.3534e-15,0,0.66667
0.47816,0.47888,3.3471,-0.031673,-1.5778,108.05,0.2827,-0.094235,-1.9949,0.37694,-9.0974e-13,-0.99746,0,0,0.14286,1.3534e-15,0,0.66667
0.79355,0.50768,5.5549,0.011514,0.27181,20.198,-0.17055,0.056851,-1.9994,-0.2274,2.7713e-11,-0.99969,0,0,0.14286,-0,-0,0.66667
0.22664,0.019746,1.5865,-0.72038,-44.615,211.05,3.0476,-1.0159,-0.15307,4.0635,-3.8271e-11,-0.076535,0,0,0.14286,-0,-0,0.66667
0.33497,0.25484,2.3448,-0.36774,-21.167,164.16,2.2994,-0.76648,-1.5181,3.0659,-1.5861e-12,-0.75907,0,0,0.14286,-0,-0,0.66667
0.76377,0.9978,5.3464,0.7467,20.322,27.178,-10.646,3.5486,-0.019228,-14.194,-1.6054e-11,-0.0096139,0,0,0.14286,-1.3534e-15,0,0.66667
0.85342,0.91213,5.974,0.61819,10.857,11.814,-9.8481,3.2827,-0.64022,-13.131,-2.2468e-09,-0.32011,0,0,0.14286,-0,-0,0.66667
0.43712,0.35022,3.0599,-0.22467,-11.754,123.36,1.8332,-0.61107,-1.8228,2.4443,3.9202e-13,-0.91141,0,0,0.14286,-0,-0,0.66667
0.93033,0.55636,6.5123,0.084533,0.69403,2.8797,-1.468,0.48934,-1.9734,-1.9573,2.043e-08,-0.98668,0,0,0.14286,6.7671e-16,0,0.66667
0.57961,0.018522,4.0573,-0.72222,-31.302,74.606,7.814,-2.6047,-0.14621,10.419,-3.0775e-13,-0.073104,0,0,0.14286,-0,-0,0.66667
0.049097,0.99358,0.34368,0.74037,48.244,291.97,-0.67854,0.22618,-0.051739,-0.90472,1.7821e-06,-0.025869,0,0,0.14286,-0,-0,0.66667
0.45286,0.070823,3.17,-0.64377,-33.335,117.95,5.442,-1.814,-0.52865,7.256,2.7844e-13,-0.26433,0,0,0.14286,-0,-0,0.66667
0.1604,0.3685,1.1228,-0.19726,-12.449,240.51,0.59061,-0.19687,-1.8612,0.78748,1.8379e-09,-0.93061,0,0,0.14286,2.5377e-16,0,0.66667
0.73282,0.089993,5.1298,-0.61501,-18.485,33.25,8.413,-2.8043,-0.6568,11.217,1.4797e-12,-0.3284,0,0,0.14286,1.9087e-15,7.1579e-17,0.66667
0.34735,0.95256,2.4315,0.67885,38.929,159.39,-4.4016,1.4672,-0.36075,-5.8688,-8.3933e-14,-0.18037,0,0,0.14286,-0,-0,0.66667
0.20118,0.56136,1.4082,0.092041,5.7171,222.05,-0.34564,0.11521,-1.9717,-0.46086,-3.1474e-10,-0.98585,0,0,0.14286,4.8638e-16,0,0.66667
0.84279,0.57898,5.8995,0.11847,2.175,12.307,-1.8638,0.62127,-1.9513,-2.4851,1.4159e-09,-0.97563,0,0,0.14286,-0,-0,0.66667
0.8178,0.15611,5.7246,-0.51584,-11.004,16.744,7.8746,-2.6249,-1.0541,10.499,4.3164e-10,-0.52705,0,0,0.14286,1.4169e-15,0,0.66667
0.34365,0.11076,2.4055,-0.58386,-33.507,160.79,3.7453,-1.2484,-0.78993,4.9937,2.2427e-12,-0.39497,0,0,0.14286,6.7671e-16,1.6785e-16,0.66667
0.40362,0.40093,2.8254,-0.14861,-8.044,136.26,1.1196,-0.37322,-1.9221,1.4929,2.2241e-12,-0.96104,0,0,0.14286,5.0753e-16,0,0.66667
0.0606,0.29818,0.4242,-0.30274,-19.558,286.54,0.34246,-0.11415,-1.6745,0.45661,-1.5125e-08,-0.83727,0,0,0.14286,-8.4588e-17,0,0.66667
0.17888,0.86191,1.2522,0.54286,34.181,232.26,-1.8127,0.60424,-0.95037,-2.4169,-9.6847e-10,-0.47519,0,0,0.14286,3.3835e-16,0,0.66667
0.73592,0.10824,5.1514,-0.58764,-17.468,32.496,8.0725,-2.6908,-0.77288,10.763,1.0569e-11,-0.38644,0,0,0.14286,-1.3534e-15,0,0.66667
0.56613,0.01939,3.9629,-0.72092,-31.972,78.857,7.6185,-2.5395,-0.15145,10.158,7.2475e-13,-0.075727,0,0,0.14286,-0,-0,0.66667
0.82324,0.18884,5.7627,-0.46673,-9.6606,15.758,7.1724,-2.3908,-1.2255,9.5631,-9.1825e-10,-0.61277,0,0,0.14286,-2.7068e-15,0,0.66667
0.50115,0.43709,3.5081,-0.094362,-4.5625,99.844,0.88274,-0.29425,-1.971,1.177,-1.0538e-12,-0.98548,0,0,0.14286,1.2688e-16,0,0.66667
0.76786,0.59669,5.375,0.14503,3.8072,25.09,-2.0788,0.69294,-1.9265,-2.7718,3.1234e-11,-0.96323,0,0,0.14286,-0,-0,0.66667
0.50992,0.59353,3.5694,0.1403,6.7038,96.79,-1.3354,0.44514,-1.9301,-1.7806,1.1047e-12,-0.96503,0,0,0.14286,-9.9391e-16,0,0.66667
0.56807,0.60153,3.9765,0.1523,6.6541,77.362,-1.615,0.53833,-1.9164,-2.1533,-6.0063e-14,-0.95819,0,0,0.14286,-0,-0,0.66667
0.18462,0.82906,1.2923,0.49358,30.985,229.64,-1.701,0.567,-1.1335,-2.268,-2.6162e-10,-0.56674,0,0,0.14286,-0,-0,0.66667
0.5444,0.11315,3.8108,-0.58028,-26.54,85.601,5.8969,-1.9656,-0.80281,7.8625,8.8818e-14,-0.40141,0,0,0.14286,-0,2.4344e-17,0.66667
0.20103,0.12017,1.4072,-0.56975,-35.579,222.31,2.1381,-0.71269,-0.84687,2.8507,-3.841e-10,-0.42343,0,0,0.14286,1.6918e-16,-2.0937e-16,0.66667
0.55622,0.11992,3.8935,-0.57011,-25.583,81.708,5.9193,-1.9731,-0.84338,7.8925,3.3129e-13,-0.42169,0,0,0.14286,-0,-0,0.66667
0.14144,0.22933,0.99009,-0.406,-25.827,249.22,1.0719,-0.35731,-1.4154,1.4292,4.088e-09,-0.7077,0,0,0.14286,-0,-0,0.66667
0.18601,0.67068,1.3021,0.25602,16.016,228.91,-0.88895,0.29632,-1.7677,-1.1853,-7.3723e-10,-0.88383,0,0,0.14286,3.3835e-16,0,0.66667
0.76478,0.26109,5.3535,-0.35837,-9.5576,25.957,5.116,-1.7053,-1.5448,6.8214,-4.2691e-11,-0.7724,0,0,0.14286,-0,-0,0.66667
0.070886,0.28377,0.4962,-0.32434,-20.93,281.76,0.42917,-0.14306,-1.6253,0.57223,1.1362e-08,-0.81265,0,0,0.14286,1.6918e-16,0,0.66667
0.36931,0.27069,2.5852,-0.34396,-19.249,150.06,2.3712,-0.79041,-1.5779,3.1616,3.5083e-13,-0.78896,0,0,0.14286,-0,-0,0.66667
0.87788,0.1537,6.1451,-0.51945,-7.6252,8.4909,8.5123,-2.8374,-1.0415,11.35,3.5475e-09,-0.52075,0,0,0.14286,-1.6918e-15,0,0.66667
0.10434,0.81473,0.73036,0.4721,30.342,266.3,-0.91948,0.30649,-1.2074,-1.226,-1.122e-08,-0.6037,0,0,0.14286,-0,-0,0.66667
0.35915,0.43564,2.5141,-0.096545,-5.4386,154.06,0.64726,-0.21575,-1.97,0.86301,1.756e-12,-0.98502,0,0,0.14286,-2.5377e-16,0,0.66667
0.11396,0.97971,0.79772,0.71957,46.368,261.97,-1.5307,0.51023,-0.15795,-2.0409,-5.4714e-09,-0.078977,0,0,0.14286,-0,-0,0.66667
0.87654,0.071392,6.1358,-0.64291,-9.6318,9.0353,10.519,-3.5065,-0.53135,14.026,-5.3234e-08,-0.26568,0,0,0.14286,-0,-0,0.66667
0.12624,0.20061,0.88366,-0.44909,-28.705,256.21,1.0582,-0.35275,-1.2839,1.411,6.563e-09,-0.64194,0,0,0.14286,-0,-0,0.66667
0.25456,0.13766,1.7819,-0.54352,-33.058,198.61,2.5826,-0.86087,-0.94851,3.4435,-4.6259e-12,-0.47426,0,0,0.14286,-0,-0,0.66667
0.42191,0.18885,2.9533,-0.46673,-24.898,129.4,3.6758,-1.2253,-1.229,4.901,1.1759e-12,-0.61448,0,0,0.14286,-0,-0,0.66667
0.66526,0.27306,4.6568,-0.34041,-12.24,49.087,4.2272,-1.4091,-1.5866,5.6363,3.9879e-12,-0.79329,0,0,0.14286,-0,-0,0.66667
0.34471,0.26224,2.4129,-0.35664,-20.371,160.12,2.2948,-0.76494,-1.549,3.0598,6.0174e-14,-0.7745,0,0,0.14286,-6.7671e-16,0,0.66667
0.2135,0.84467,1.4945,0.517,32.079,216.71,-2.0604,0.68681,-1.0497,-2.7473,1.2406e-10,-0.52484,0,0,0.14286,-6.7671e-16,0,0.66667
0.37339,0.58753,2.6137,0.1313,7.3081,148.3,-0.91514,0.30505,-1.9399,-1.2202,1.6702e-12,-0.96997,0,0,0.14286,-0,-0,0.66667
0.57102,0.974,3.9972,0.71101,31.264,77.276,-7.5787,2.5262,-0.20145,-10.105,7.3319e-13,-0.10072,0,0,0.14286,-0,-0,0.66667
0.99075,0.12581,6.9353,-0.56129,-0.53112,1.1018,10.38,-3.4601,-0.87962,13.841,-7.4991e-07,-0.43981,0,0,0.14286,-0,-0,0.66667
0.32717,0.63899,2.2902,0.20849,12.051,167.32,-1.2733,0.42443,-1.8466,-1.6977,5.5456e-12,-0.92332,0,0,0.14286,-0,-0,0.66667
0.3622,0.55245,2.5354,0.078675,4.4204,152.82,-0.53193,0.17731,-1.9779,-0.70924,2.1279e-12,-0.98897,0,0,0.14286,-0,-0,0.66667
0.70624,0.099204,4.9436,-0.60119,-19.562,39.309,7.9256,-2.6419,-0.71517,10.567,3.4626e-12,-0.35758,0,0,0.14286,-0,-0,0.66667
0.29894,0.44449,2.0925,-0.083263,-4.9058,179.21,0.46462,-0.15487,-1.9761,0.61949,-7.0149e-13,-0.98807,0,0,0.14286,-6.7671e-16,0,0.66667
0.3497,0.51382,2.4479,0.020736,1.177,157.93,-0.13536,0.04512,-1.9968,-0.18048,2.2186e-12,-0.99841,0,0,0.14286,-0,-0,0.66667
0.99471,0.016505,6.963,-0.72524,-0.47271,1.693,13.466,-4.4887,-0.1284,17.955,-1.9976e-06,-0.0642,0,0,0.14286,-0,-0,0.66667
0.60427,0.94035,4.2299,0.66053,27.311,66.917,-7.4505,2.4835,-0.44845,-9.934,7.9714e-13,-0.22423,0,0,0.14286,1.3534e-15,0,0.66667
0.82881,0.22529,5.8017,-0.41207,-8.2607,14.773,6.3752,-2.1251,-1.3983,8.5002,-1.3434e-09,-0.69913,0,0,0.14286,-0,-0,0.66667
0.031666,0.037053,0.22166,-0.69442,-45.265,300.06,0.41047,-0.13683,-0.28781,0.54729,-8.9237e-06,-0.14391,0,0,0.14286,-0,-0,0.66667
0.14549,0.46343,1.0184,-0.054849,-3.4758,247.3,0.14896,-0.049653,-1.9887,0.19861,1.5032e-09,-0.99436,0,0,0.14286,-0,-0,0.66667
0.72773,0.63177,5.0941,0.19765,5.9671,33.614,-2.6849,0.89497,-1.8598,-3.5799,-4.7888e-12,-0.92992,0,0,0.14286,-1.3534e-15,0,0.66667
0.53974,0.8246,3.7782,0.4869,22.379,86.979,-4.9056,1.6352,-1.1553,-6.5408,2.931e-14,-0.57766,0,0,0.14286,-0,-0,0.66667
0.99526,0.69767,6.9669,0.29651,0.037098,0.32945,-5.5087,1.8362,-1.6863,-7.3449,1.5246e-07,-0.84316,0,0,0.14286,-0,-0,0.66667
0.49563,0.63463,3.4694,0.20194,9.8433,101.85,-1.8683,0.62277,-1.8541,-2.4911,8.3711e-13,-0.92706,0,0,0.14286,-0,-0,0.66667
0.3841,0.69951,2.6887,0.29927,16.521,144.08,-2.1458,0.71525,-1.6799,-2.861,1.8023e-12,-0.83993,0,0,0.14286,-6.7671e-16,0,0.66667
0.19437,0.49297,1.3606,-0.010542,-0.65654,225.1,0.038248,-0.012749,-1.9983,0.050997,1.3858e-10,-0.99914,0,0,0.14286,1.6918e-16,0,0.66667
0.59017,0.13924,4.1312,-0.54114,-22.889,70.923,5.9614,-1.9871,-0.95811,7.9485,-7.1498e-14,-0.47906,0,0,0.14286,-0,-0,0.66667
0.76663,0.18293,5.3664,-0.47561,-12.645,25.824,6.8061,-2.2687,-1.1977,9.0748,6.5876e-12,-0.59886,0,0,0.14286,3.3835e-16,0,0.66667
0.92444,0.35378,6.4711,-0.21933,-1.9667,3.433,3.7848,-1.2616,-1.8291,5.0464,-3.1612e-10,-0.91454,0,0,0.14286,-0,-0,0.66667
0.13763,0.68109,0.96338,0.27163,17.273,250.93,-0.69783,0.23261,-1.7379,-0.93044,-4.6601e-09,-0.86893,0,0,0.14286,1.6918e-16,0,0.66667
0.0080899,0.92709,0.056629,0.64064,41.751,311.04,-0.096741,0.032243,-0.53904,-0.12899,-5.4028e-06,-0.26952,0,0,0.14286,-0,-0,0.66667
0.47796,0.63293,3.3457,0.1994,9.9432,108.18,-1.779,0.59301,-1.8573,-2.372,2.0872e-14,-0.92864,0,0,0.14286,-0,-0,0.66667
0.18295,0.61762,1.2806,0.17643,11.044,230.27,-0.60252,0.20084,-1.8886,-0.80336,-5.7314e-10,-0.9443,0,0,0.14286,-1.6918e-16,0,0.66667
0.61034,0.9303,4.2724,0.64544,26.363,65.075,-7.3535,2.4512,-0.52043,-9.8047,5.3602e-13,-0.26021,0,0,0.14286,-6.7671e-16,0,0.66667
0.62027,0.93104,4.3419,0.64656,25.893,62.171,-7.4861,2.4954,-0.51294,-9.9815,-8.9173e-13,-0.25647,0,0,0.14286,1.0151e-15,0,0.66667
0.40963,0.15897,2.8674,-0.51155,-27.654,134.22,3.9115,-1.3038,-1.0701,5.2154,1.3038e-12,-0.53506,0,0,0.14286,-1.3534e-15,0,0.66667
0.67721,0.13441,4.7404,-0.54838,-19.248,46.36,6.9321,-2.3107,-0.92955,9.2429,2.9901e-12,-0.46477,0,0,0.14286,-0,-0,0.66667
0.19967,0.42881,1.3977,-0.10679,-6.6378,222.73,0.39803,-0.13268,-1.9591,0.5307,2.9607e-10,-0.97956,0,0,0.14286,-0,-0,0.66667
0.80858,0.53504,5.6601,0.052556,1.1582,17.593,-0.79325,0.26442,-1.9903,-1.0577,1.5659e-10,-0.99513,0,0,0.14286,-0,-0,0.66667
0.05034,0.87518,0.35238,0.56276,36.531,291.35,-0.52881,0.17627,-0.87495,-0.70509,-1.7783e-07,-0.43747,0,0,0.14286,1.6918e-16,0,0.66667
0.17186,0.51451,1.203,0.021767,1.3674,235.28,-0.06983,0.023277,-2.0004,-0.093106,-3.0525e-10,-1.0002,0,0,0.14286,-0,-0,0.66667
0.9806,0.35881,6.8642,-0.21179,-0.4179,0.50019,3.8767,-1.2922,-1.8397,5.1689,2.1973e-08,-0.91985,0,0,0.14286,-0,-0,0.66667
0.90038,0.13807,6.3026,-0.5429,-6.5643,6.2017,9.1245,-3.0415,-0.95043,12.166,-5.6179e-09,-0.47522,0,0,0.14286,-0,-0,0.66667
0.93973,0.94373,6.5781,0.66559,5.0014,3.5208,-11.676,3.8919,-0.42559,-15.567,-5.718e-07,-0.21279,0,0,0.14286,-0,-0,0.66667
0.90844,0.39415,6.3591,-0.15877,-1.724,4.6957,2.6924,-0.89745,-1.9106,3.5898,-1.2554e-08,-0.95531,0,0,0.14286,-0,-0,0.66667
0.44142,0.70962,3.0899,0.31443,16.389,121.8,-2.5908,0.86361,-1.6479,-3.4545,3.7059e-13,-0.82393,0,0,0.14286,-3.3835e-16,0,0.66667
0.9388,0.3666,6.5716,-0.2001,-1.4427,2.4015,3.5066,-1.1689,-1.8589,4.6755,2.9399e-08,-0.92944,0,0,0.14286,6.7671e-16,0,0.66667
0.23741,0.2357,1.6619,-0.39645,-24.275,206.03,1.757,-0.58566,-1.4408,2.3426,3.1568e-11,-0.72038,0,0,0.14286,-3.3835e-16,0,0.66667
0.049514,0.71385,0.3466,0.32078,20.753,291.7,-0.29649,0.098829,-1.6348,-0.39532,4.9804e-08,-0.81739,0,0,0.14286,-0,-0,0.66667
0.55726,0.69712,3.9008,0.29569,13.173,80.957,-3.0758,1.0253,-1.6879,-4.1011,4.3543e-13,-0.84396,0,0,0.14286,-1.3534e-15,0,0.66667
0.31332,0.828,2.1932,0.49199,28.825,173.33,-2.8775,0.95916,-1.1406,-3.8367,5.6646e-12,-0.57032,0,0,0.14286,-6.7671e-16,0,0.66667
0.53208,0.21201,3.7245,-0.43198,-20.064,89.465,4.2905,-1.4302,-1.3384,5.7206,-7.061e-14,-0.66918,0,0,0.14286,6.7671e-16,0,0.66667
0.47161,0.23088,3.3013,-0.40368,-20.341,110.68,3.5537,-1.1846,-1.4204,4.7383,-1.3856e-13,-0.71019,0,0,0.14286,-0,-0,0.66667
0.48313,0.64043,3.3819,0.21064,10.436,106.32,-1.8996,0.63322,-1.8432,-2.5329,2.7467e-13,-0.92158,0,0,0.14286,-0,-0,0.66667
0.57008,0.15658,3.9905,-0.51513,-22.559,77.151,5.4818,-1.8273,-1.0562,7.309,-4.4498e-13,-0.52811,0,0,0.14286,-0,-0,0.66667
0.92344,0.43216,6.4641,-0.10176,-0.92076,3.401,1.7542,-0.58472,-1.9646,2.3389,-5.4359e-08,-0.98228,0,0,0.14286,-2.0301e-15,0,0.66667
0.23619,0.67009,1.6533,0.25513,15.607,206.5,-1.1249,0.37496,-1.769,-1.4998,-4.7763e-11,-0.88451,0,0,0.14286,3.3835e-16,0,0.66667
0.87608,0.80874,6.1326,0.46311,6.867,8.5462,-7.5735,2.5245,-1.2395,-10.098,9.2539e-09,-0.61974,0,0,0.14286,-1.6918e-15,0,0.66667
0.73384,0.74863,5.1368,0.37294,11.08,32.482,-5.1086,1.7029,-1.5085,-6.8115,-8.0838e-12,-0.75423,0,0,0.14286,3.3835e-16,0,0.66667
0.079211,0.028411,0.55448,-0.70738,-45.88,277.99,1.0459,-0.34865,-0.22303,1.3946,9.3506e-07,-0.11151,0,0,0.14286,-4.2294e-17,0,0.66667
0.83539,0.86492,5.8477,0.54738,10.655,14.124,-8.5358,2.8453,-0.93301,-11.381,-9.139e-10,-0.4665,0,0,0.14286,-0,-0,0.66667
0.39764,0.23577,2.7835,-0.39635,-21.634,138.79,2.942,-0.98066,-1.4396,3.9226,1.0341e-12,-0.7198,0,0,0.14286,-0,-0,0.66667
0.33574,0.080976,2.3502,-0.62854,-36.326,164.11,3.9391,-1.313,-0.59352,5.2521,2.4789e-12,-0.29676,0,0,0.14286,-0,-0,0.66667
0.000393,0.25022,0.002751,-0.37467,-24.315,314.62,0.0027485,-0.00091592,-1.5042,0.0036648,3.7192e-07,-0.75211,0,0,0.14286,1.3217e-18,-9.355e-18,0.66667
0.24581,0.10531,1.7206,-0.59204,-36.213,202.49,2.7165,-0.9055,-0.75281,3.622,2.9032e-12,-0.37641,0,0,0.14286,-0,-0,0.66667
0.68795,0.24636,4.8156,-0.38046,-12.928,43.306,4.8857,-1.6286,-1.488,6.5143,6.3864e-12,-0.74399,0,0,0.14286,-6.7671e-16,0,0.66667
0.85117,0.098149,5.9582,-0.60278,-10.725,12.065,9.5772,-3.1924,-0.70712,12.77,8.5945e-09,-0.35356,0,0,0.14286,-0,-0,0.66667
0.24105,0.64252,1.6873,0.21378,13.041,204.34,-0.96193,0.32064,-1.8357,-1.2826,-3.0689e-11,-0.91786,0,0,0.14286,3.3835e-16,0,0.66667
0.37094,0.38261,2.5966,-0.17608,-9.8239,149.3,1.2192,-0.4064,-1.8892,1.6256,7.6816e-13,-0.94462,0,0,0.14286,6.7671e-16,0,0.66667
0.15042,0.20899,1.053,-0.43651,-27.705,245.13,1.2257,-0.40856,-1.3211,1.6343,2.5864e-09,-0.66055,0,0,0.14286,-0,-0,0.66667
0.8035,0.51627,5.6245,0.024406,0.55087,18.452,-0.36606,0.12202,-1.9961,-0.48809,9.5605e-11,-0.99804,0,0,0.14286,2.7068e-15,0,0.66667
0.71702,0.198,5.0192,-0.453,-14.212,36.431,6.0632,-2.0211,-1.2711,8.0843,8.3009e-12,-0.63553,0,0,0.14286,1.3534e-15,0,0.66667
0.70048,0.76957,4.9033,0.40436,13.288,40.259,-5.2872,1.7624,-1.4186,-7.0496,-8.1903e-12,-0.7093,0,0,0.14286,6.7671e-16,0,0.66667
0.67885,0.33448,4.752,-0.24828,-8.6167,45.432,3.1462,-1.0487,-1.7793,4.1949,5.1084e-12,-0.88963,0,0,0.14286,-0,-0,0.66667
0.89205,0.13771,6.2443,-0.54343,-7.1013,7.0282,9.0489,-3.0163,-0.95081,12.065,-3.9468e-09,-0.47541,0,0,0.14286,-1.3534e-15,0,0.66667
0.88303,0.78875,6.1812,0.43313,6.0644,7.6885,-7.1394,2.3798,-1.3315,-9.5192,9.0442e-09,-0.66577,0,0,0.14286,-0,-0,0.66667
0.62537,0.21736,4.3776,-0.42396,-16.698,60.236,4.9491,-1.6497,-1.3641,6.5988,1.2488e-12,-0.68203,0,0,0.14286,8.4588e-17,0,0.66667
0.28878,0.70249,2.0214,0.30374,18.041,183.63,-1.6373,0.54577,-1.6701,-2.1831,1.061e-11,-0.83504,0,0,0.14286,-0,-0,0.66667
0.4031,0.8038,2.8217,0.45569,24.767,136.7,-3.4289,1.143,-1.2615,-4.5719,1.1862e-12,-0.63076,0,0,0.14286,-0,-0,0.66667
0.028957,0.47567,0.2027,-0.036499,-2.3614,301.28,0.019729,-0.0065763,-1.9959,0.026306,1.6871e-07,-0.99794,0,0,0.14286,-0,-0,0.66667
0.91648,0.81417,6.4154,0.47126,4.7616,4.5625,-8.0621,2.6874,-1.2102,-10.749,3.2254e-08,-0.60511,0,0,0.14286,-0,-0,0.66667
0.68745,0.47236,4.8121,-0.041454,-1.4043,43.125,0.53195,-0.17732,-1.9969,0.70927,1.3492e-12,-0.99847,0,0,0.14286,-0,-0,0.66667
0.90817,0.43877,6.3572,-0.091846,-0.99869,4.6729,1.557,-0.51901,-1.9718,2.076,3.7039e-08,-0.98591,0,0,0.14286,-0,-0,0.66667
0.30209,0.58412,2.1146,0.12619,7.4203,177.87,-0.71155,0.23718,-1.9422,-0.94874,6.0575e-12,-0.97109,0,0,0.14286,3.3835e-16,0,0.66667
0.94483,0.029775,6.6138,-0.70534,-4.8972,3.3761,12.44,-4.1466,-0.23062,16.587,5.5521e-06,-0.11531,0,0,0.14286,3.3835e-16,0,0.66667
0.86403,0.035656,6.0482,-0.69652,-11.478,10.724,11.234,-3.7446,-0.27471,14.978,-6.6687e-09,-0.13736,0,0,0.14286,-0,-0,0.66667
0.88601,0.39178,6.2021,-0.16234,-2.1898,6.9194,2.6849,-0.89496,-1.9051,3.5798,-6.5181e-09,-0.95254,0,0,0.14286,-0,-0,0.66667
0.00014133,0.88439,0.00098931,0.57659,37.533,314.74,-0.0015211,0.00050753,-0.82017,-0.0020278,7.6333e-07,-0.41009,0,0,0.14286,-0,5.6897e-16,0.66667
0.37724,0.44442,2.6407,-0.083376,-4.624,146.73,0.58712,-0.19571,-1.9759,0.78282,-1.4189e-13,-0.98797,0,0,0.14286,-0,-0,0.66667
0.12233,0.68876,0.85628,0.28315,18.08,257.96,-0.64654,0.21551,-1.7162,-0.86205,-6.7187e-09,-0.85811,0,0,0.14286,-0,-0,0.66667
0.93281,0.82875,6.5297,0.49312,4.0207,3.3905,-8.5864,2.8621,-1.1342,-11.448,8.6574e-08,-0.56708,0,0,0.14286,-0,-0,0.66667
0.51371,0.7453,3.596,0.36795,17.533,95.658,-3.5283,1.1761,-1.5198,-4.7045,-1.2434e-13,-0.75992,0,0,0.14286,3.3835e-16,0,0.66667
0.48934,0.2351,3.4254,-0.39735,-19.577,104.27,3.6295,-1.2098,-1.4373,4.8393,3.6415e-13,-0.71864,0,0,0.14286,6.7671e-16,0,0.66667
0.48692,0.82297,3.4084,0.48445,23.982,105.25,-4.4033,1.4678,-1.1656,-5.871,-5.4623e-14,-0.58282,0,0,0.14286,-0,-0,0.66667
0.57029,0.091207,3.992,-0.61319,-26.914,77.279,6.5277,-2.1759,-0.66241,8.7036,-5.5955e-14,-0.3312,0,0,0.14286,1.6918e-16,0,0.66667
0.54451,0.97621,3.8116,0.71431,32.793,85.859,-7.2603,2.4201,-0.18633,-9.6804,-2.3093e-14,-0.093164,0,0,0.14286,-0,-1.2293e-16,0.66667
0.91711,0.83033,6.4198,0.4955,4.9814,4.5779,-8.4826,2.8275,-1.1258,-11.31,1.7256e-08,-0.56289,0,0,0.14286,-0,-0,0.66667
0.88438,0.7742,6.1907,0.4113,5.6865,7.4895,-6.7899,2.2633,-1.3973,-9.0532,8.9186e-09,-0.69865,0,0,0.14286,6.7671e-16,0,0.66667
0.78372,0.65947,5.486,0.23921,5.9038,22.135,-3.4995,1.1665,-1.7976,-4.666,1.863e-10,-0.8988,0,0,0.14286,-0,-0,0.66667
0.32273,0.018392,2.2591,-0.72241,-42.251,169.66,4.352,-1.4507,-0.14297,5.8026,1.6125e-12,-0.071485,0,0,0.14286,-0,-0,0.66667
0.78444,0.93563,5.4911,0.65345,16.33,22.904,-9.5683,3.1894,-0.48263,-12.758,6.1927e-11,-0.24132,0,0,0.14286,-1.3534e-15,0,0.66667
0.14519,0.66161,1.0163,0.24242,15.378,247.46,-0.65699,0.219,-1.7906,-0.87598,-3.4739e-09,-0.89529,0,0,0.14286,-0,-0,0.66667
0.86023,0.71005,6.0216,0.31507,5.2009,10.17,-5.0593,1.6864,-1.6486,-6.7458,4.4946e-09,-0.82432,0,0,0.14286,6.7671e-16,0,0.66667
0.773,0.017775,5.411,-0.72334,-18.991,25.292,10.437,-3.4791,-0.13782,13.916,4.7232e-11,-0.068909,0,0,0.14286,-0,-0,0.66667
0.77597,0.17559,5.4318,-0.48661,-12.485,24.033,7.0484,-2.3495,-1.1567,9.3978,-6.025e-11,-0.57835,0,0,0.14286,-0,-0,0.66667
0.5287,0.12477,3.7009,-0.56285,-26.351,90.821,5.5548,-1.8516,-0.87516,7.4064,5.3157e-13,-0.43758,0,0,0.14286,-2.5377e-16,9.5614e-21,0.66667
0.45019,0.82772,3.1513,0.49158,25.444,118.7,-4.131,1.377,-1.1404,-5.508,6.7057e-13,-0.57022,0,0,0.14286,-0,-0,0.66667
0.22663,0.51597,1.5864,0.023962,1.4712,210.69,-0.10137,0.033791,-1.9961,-0.13516,-1.7592e-11,-0.99803,0,0,0.14286,6.7671e-16,0,0.66667
0.80868,0.1989,5.6607,-0.45165,-10.043,18.083,6.8178,-2.2726,-1.274,9.0903,-3.5964e-10,-0.63699,0,0,0.14286,1.3534e-15,0,0.66667
0.96593,0.60865,6.7615,0.16297,0.6226,0.94256,-2.9385,0.9795,-1.9053,-3.918,-5.0146e-08,-0.95265,0,0,0.14286,1.3534e-15,0,0.66667
0.54353,0.27461,3.8047,-0.33809,-15.406,85.512,3.4302,-1.1434,-1.5936,4.5736,-5.7199e-13,-0.79678,0,0,0.14286,1.0151e-15,0,0.66667
0.90221,0.12983,6.3155,-0.55525,-6.6018,6.0662,9.3511,-3.117,-0.90365,12.468,-7.9328e-09,-0.45182,0,0,0.14286,-0,-0,0.66667
0.28235,0.71523,1.9765,0.32284,19.257,186.4,-1.7016,0.56719,-1.6315,-2.2687,1.1276e-11,-0.81574,0,0,0.14286,1.6918e-16,0,0.66667
0.51776,0.9005,3.6243,0.60075,28.602,94.624,-5.8061,1.9354,-0.71771,-7.7414,-1.5232e-13,-0.35885,0,0,0.14286,-0,-0,0.66667
0.32816,0.69209,2.2971,0.28813,16.654,166.94,-1.765,0.58833,-1.7077,-2.3533,5.696e-12,-0.85387,0,0,0.14286,-0,-0,0.66667
0.9918,0.18077,6.9426,-0.47885,-0.34542,0.81948,8.8653,-2.9551,-1.1834,11.82,-4.2799e-07,-0.59169,0,0,0.14286,-6.7671e-16,0,0.66667
0.25032,0.96076,1.7522,0.69114,42.264,200.61,-3.2294,1.0765,-0.3038,-4.3059,4.811e-12,-0.1519,0,0,0.14286,-0,-0,0.66667
0.67876,0.94686,4.7513,0.67029,23.538,46.276,-8.4926,2.8309,-0.40099,-11.323,-8.5798e-13,-0.20049,0,0,0.14286,-0,-0,0.66667
0.7642,0.57436,5.3494,0.11153,2.9677,25.797,-1.5911,0.53035,-1.9566,-2.1214,3.3125e-11,-0.97832,0,0,0.14286,-0,-0,0.66667
0.032227,0.52775,0.22559,0.041622,2.6923,299.75,-0.025039,0.0083459,-1.996,-0.033385,-5.6328e-07,-0.99801,0,0,0.14286,4.2294e-17,0,0.66667
0.98227,0.045415,6.8759,-0.68188,-1.4966,1.7396,12.503,-4.1676,-0.34704,16.67,1.6379e-06,-0.17352,0,0,0.14286,1.3534e-15,-1.677e-16,0.66667
0.091323,0.52092,0.63926,0.031385,2.0151,272.25,-0.053501,0.017834,-1.9967,-0.071335,5.6612e-10,-0.99835,0,0,0.14286,-0,-0,0.66667
0.61407,0.67922,4.2985,0.26883,10.804,63.317,-3.0815,1.0272,-1.7422,-4.1087,-8.3444e-13,-0.87108,0,0,0.14286,6.7671e-16,0,0.66667
0.14935,0.55675,1.0455,0.085122,5.3883,245.53,-0.23731,0.079104,-1.9731,-0.31641,-8.9498e-11,-0.98654,0,0,0.14286,2.5377e-16,0,0.66667
0.5208,0.53773,3.6456,0.056594,2.6618,93.002,-0.55018,0.18339,-1.9878,-0.73357,-2.7744e-13,-0.99388,0,0,0.14286,-0,-0,0.66667
0.093345,0.67424,0.65342,0.26135,16.792,271.33,-0.45539,0.1518,-1.7589,-0.60719,-1.0454e-08,-0.87943,0,0,0.14286,-0,-0,0.66667
0.7812,0.40491,5.4684,-0.14264,-3.5516,22.516,2.08,-0.69332,-1.9311,2.7733,-1.4219e-10,-0.96556,0,0,0.14286,-1.5226e-15,0,0.66667
0.77293,0.22062,5.4105,-0.41907,-10.854,24.47,6.0463,-2.0154,-1.375,8.0618,-8.7208e-11,-0.68751,0,0,0.14286,-2.7068e-15,0,0.66667
0.59815,0.038863,4.187,-0.69171,-28.962,68.835,7.7232,-2.5744,-0.29813,10.298,6.1418e-13,-0.14907,0,0,0.14286,-0,-0,0.66667
0.014543,0.58802,0.1018,0.13202,8.5491,308.01,-0.035841,0.011947,-1.9398,-0.047788,4.338e-08,-0.96989,0,0,0.14286,3.1721e-17,0,0.66667
0.042024,0.38922,0.29417,-0.16617,-10.745,295.18,0.13035,-0.043451,-1.9005,0.1738,-6.2604e-08,-0.95026,0,0,0.14286,8.4588e-17,0,0.66667
0.18097,0.21923,1.2668,-0.42116,-26.446,231.25,1.4227,-0.47424,-1.3691,1.897,5.2555e-10,-0.68457,0,0,0.14286,-0,-0,0.66667
0.97203,0.24904,6.8042,-0.37644,-1.1922,1.0603,6.8303,-2.2768,-1.4971,9.1071,2.0747e-07,-0.74855,0,0,0.14286,-1.6072e-15,0,0.66667
0.2546,0.50729,1.7822,0.010938,0.66191,198.36,-0.051983,0.017328,-1.9988,-0.069311,-6.4049e-13,-0.99942,0,0,0.14286,-0,-0,0.66667
0.75101,0.64354,5.2571,0.21531,6.0178,28.577,-3.0185,1.0062,-1.8363,-4.0246,1.6575e-11,-0.91817,0,0,0.14286,-0,-0,0.66667
0.28124,0.96917,1.9686,0.70376,42.293,187.22,-3.6945,1.2315,-0.2427,-4.9261,1.6718e-12,-0.12135,0,0,0.14286,-0,-9.0434e-18,0.66667
0.25552,0.67688,1.7886,0.26532,16.067,198.01,-1.2655,0.42182,-1.7483,-1.6873,-2.1576e-12,-0.87417,0,0,0.14286,-0,-0,0.66667
0.25786,0.27749,1.805,-0.33377,-20.2,197.02,1.6066,-0.53552,-1.603,2.1421,3.861e-12,-0.8015,0,0,0.14286,-0,-0,0.66667
0.29705,0.4832,2.0794,-0.025193,-1.486,180,0.13969,-0.046565,-1.9997,0.18626,3.7065e-13,-0.99983,0,0,0.14286,6.7671e-16,0,0.66667
0.0089446,0.51066,0.062612,0.015989,1.0352,310.63,-0.0026694,0.00088715,-1.9974,-0.0035605,-3.9799e-06,-0.99872,0,0,0.14286,-0,-0,0.66667
0.98718,0.13731,6.9102,-0.54404,-0.75539,1.111,10.025,-3.3417,-0.94745,13.367,-2.8828e-07,-0.47373,0,0,0.14286,-0,-0,0.66667
0.56646,0.68432,3.9652,0.27648,12.128,77.97,-2.9235,0.97449,-1.7284,-3.8979,8.4155e-13,-0.86418,0,0,0.14286,-1.6918e-16,0,0.66667
0.60184,0.57562,4.2129,0.11344,4.6621,66.851,-1.2744,0.4248,-1.9524,-1.6992,2.0084e-13,-0.9762,0,0,0.14286,-0,-0,0.66667
0.53826,0.63507,3.7678,0.2026,9.292,87.145,-2.0356,0.67854,-1.8524,-2.7142,8.6064e-13,-0.92621,0,0,0.14286,-0,-0,0.66667
0.043838,0.35541,0.30686,-0.21688,-14.027,294.34,0.17748,-0.059159,-1.8325,0.23663,-4.1178e-08,-0.91623,0,0,0.14286,-8.4588e-17,0,0.66667
0.47152,0.65166,3.3006,0.22749,11.438,110.54,-2.0023,0.66742,-1.8166,-2.6697,4.563e-13,-0.90831,0,0,0.14286,3.3835e-16,0,0.66667
0.53968,0.22309,3.7777,-0.41537,-19.066,86.893,4.1844,-1.3948,-1.3856,5.5792,-9.0816e-13,-0.69279,0,0,0.14286,1.3534e-15,0,0.66667
0.67296,0.38852,4.7107,-0.16722,-5.8848,46.885,2.1006,-0.7002,-1.9017,2.8008,3.8904e-12,-0.95083,0,0,0.14286,-0,-0,0.66667
0.53417,0.35692,3.7392,-0.21463,-9.9063,88.527,2.1401,-0.71336,-1.8359,2.8534,-5.3269e-13,-0.91796,0,0,0.14286,-0,-0,0.66667
0.055072,0.75775,0.38551,0.38662,25.017,289.12,-0.39746,0.13249,-1.4671,-0.52994,1.3195e-08,-0.73353,0,0,0.14286,-0,-0,0.66667
0.6201,0.41456,4.3407,-0.12816,-5.0809,61.445,1.4835,-0.49449,-1.9406,1.978,1.1257e-12,-0.97031,0,0,0.14286,-1.3534e-15,0,0.66667
0.58118,0.29494,4.0682,-0.30758,-13.159,73.347,3.3368,-1.1123,-1.6632,4.4491,2.1783e-13,-0.83161,0,0,0.14286,-0,-0,0.66667
0.5456,0.18404,3.8192,-0.47394,-21.581,85.015,4.8268,-1.6089,-1.2033,6.4357,4.2633e-13,-0.60164,0,0,0.14286,1.6153e-16,0,0.66667
0.84328,0.86172,5.903,0.54257,10.089,12.972,-8.5408,2.8469,-0.95496,-11.388,1.6157e-09,-0.47748,0,0,0.14286,1.3534e-15,0,0.66667
0.44739,0.99378,3.1317,0.74067,38.694,120.18,-6.1855,2.0618,-0.048434,-8.2474,6.0441e-13,-0.024217,0,0,0.14286,-6.7671e-16,0,0.66667
0.60357,0.14087,4.225,-0.5387,-22.222,66.853,6.0693,-2.0231,-0.96655,8.0924,1.91e-12,-0.48328,0,0,0.14286,-2.0682e-15,0,0.66667
0.12361,0.31378,0.86529,-0.27933,-17.83,257.37,0.64454,-0.21485,-1.7248,0.85938,6.5445e-09,-0.86241,0,0,0.14286,-0,-0,0.66667
0.25238,0.80233,1.7667,0.45349,27.573,199.49,-2.1364,0.71215,-1.269,-2.8486,3.6988e-12,-0.63451,0,0,0.14286,-3.3835e-16,0,0.66667
0.85035,0.95624,5.9525,0.68436,12.314,12.454,-10.863,3.621,-0.33304,-14.484,6.1336e-09,-0.16652,0,0,0.14286,1.3534e-15,0,0.66667
0.016224,0.75945,0.11357,0.38918,25.254,307.23,-0.11786,0.039288,-1.4632,-0.15715,5.3372e-08,-0.73162,0,0,0.14286,-0,-0,0.66667
0.15625,0.92654,1.0938,0.63981,40.678,242.58,-1.8661,0.62204,-0.54677,-2.4881,-2.8767e-09,-0.27339,0,0,0.14286,-0,-0,0.66667
0.82338,0.089286,5.7637,-0.61607,-12.845,16.149,9.4689,-3.1563,-0.6501,12.625,6.4985e-11,-0.32505,0,0,0.14286,3.3835e-16,0,0.66667
0.22934,0.86686,1.6054,0.55029,33.913,209.7,-2.3558,0.78525,-0.92233,-3.141,7.1606e-11,-0.46116,0,0,0.14286,-0,-0,0.66667
0.25919,0.98398,1.8144,0.72597,44.217,196.78,-3.5124,1.1708,-0.12436,-4.6833,7.4662e-12,-0.062179,0,0,0.14286,3.3835e-16,0,0.66667
0.70079,0.54162,4.9055,0.062433,2.0396,39.835,-0.81672,0.27224,-1.9864,-1.089,-1.777e-12,-0.9932,0,0,0.14286,-0,-0,0.66667
0.96653,0.84862,6.7657,0.52293,2.0923,1.661,-9.4346,3.1449,-1.0287,-12.579,-2.656e-07,-0.51433,0,0,0.14286,-0,-0,0.66667
0.19828,0.3819,1.388,-0.17715,-11.021,223.37,0.65567,-0.21856,-1.8876,0.87423,3.957e-10,-0.94381,0,0,0.14286,-0,-0,0.66667
0.7475,0.68045,5.2325,0.27068,7.6658,29.379,-3.7768,1.2589,-1.74,-5.0358,9.1314e-12,-0.86998,0,0,0.14286,4.4261e-16,0,0.66667
0.14051,0.45118,0.98354,-0.073233,-4.6478,249.58,0.19207,-0.064024,-1.9829,0.2561,2.0159e-09,-0.99146,0,0,0.14286,-0,-0,0.66667
0.3825,0.61937,2.6775,0.17905,9.888,144.65,-1.2784,0.42614,-1.8848,-1.7045,1.1815e-12,-0.94241,0,0,0.14286,1.6918e-16,0,0.66667
0.32329,0.091756,2.263,-0.61237,-35.707,169.28,3.6955,-1.2318,-0.66667,4.9273,-6.4437e-13,-0.33334,0,0,0.14286,-6.7671e-16,0,0.66667
0.88379,0.90346,6.1865,0.60519,8.5328,8.0969,-9.984,3.328,-0.69709,-13.312,-3.2343e-08,-0.34855,0,0,0.14286,1.6918e-15,0,0.66667
0.65538,0.015257,4.5877,-0.72711,-27.075,52.57,8.8954,-2.9651,-0.12145,11.86,-2.3093e-14,-0.060724,0,0,0.14286,-0,1.6908e-16,0.66667
0.33358,0.55525,2.335,0.082877,4.7644,164.61,-0.51605,0.17202,-1.9745,-0.68807,3.9183e-12,-0.98727,0,0,0.14286,-3.3835e-16,0,0.66667
0.021608,0.10227,0.15126,-0.5966,-38.832,304.73,0.24064,-0.080214,-0.73315,0.32085,-3.2797e-06,-0.36658,0,0,0.14286,-0,-0,0.66667
0.36901,0.96566,2.5831,0.69848,39.366,150.61,-4.8113,1.6038,-0.26473,-6.415,2.7964e-12,-0.13236,0,0,0.14286,9.5513e-16,0,0.66667
0.97218,0.49908,6.8053,-0.001382,-0.0041462,0.6265,0.02508,-0.0083556,-2.0009,0.033442,6.6405e-06,-1.0004,0,0,0.14286,1.6918e-15,0,0.66667
0.5291,0.98487,3.7037,0.7273,34.19,91.035,-7.1832,2.3944,-0.11941,-9.5776,-5.8709e-13,-0.059705,0,0,0.14286,6.7671e-16,0,0.66667
0.74214,0.58376,5.195,0.12564,3.6162,30.388,-1.7405,0.58018,-1.9422,-2.3207,2.9186e-12,-0.9711,0,0,0.14286,-0,-0,0.66667
0.34539,0.49914,2.4177,-0.0012893,-0.073435,159.7,0.0083127,-0.0027709,-2.0021,0.011084,-1.9769e-12,-1.0011,0,0,0.14286,2.0724e-15,0,0.66667
0.46059,0.39488,3.2241,-0.15769,-8.0287,114.53,1.3557,-0.45191,-1.9098,1.8077,-7.2831e-14,-0.95491,0,0,0.14286,-0,-0,0.66667
0.21164,0.86318,1.4814,0.54477,33.848,217.56,-2.1522,0.71738,-0.94302,-2.8695,-2.0554e-10,-0.47151,0,0,0.14286,-0,-0,0.66667
0.83696,0.33704,5.8587,-0.24444,-4.6556,13.269,3.819,-1.273,-1.7863,5.092,-1.6367e-09,-0.89314,0,0,0.14286,-6.7671e-16,0,0.66667
0.35981,0.72877,2.5187,0.34316,19.359,153.92,-2.3048,0.76826,-1.5832,-3.073,2.9468e-12,-0.7916,0,0,0.14286,-0,-0,0.66667
0.037088,0.10915,0.25962,-0.58628,-38.118,297.52,0.40589,-0.13529,-0.77625,0.54118,8.163e-07,-0.38812,0,0,0.14286,8.4588e-17,0,0.66667
0.68899,0.76592,4.8229,0.39888,13.522,43.076,-5.13,1.71,-1.435,-6.8401,-6.5188e-12,-0.7175,0,0,0.14286,-0,-0,0.66667
0.15579,0.72701,1.0905,0.34052,21.55,242.65,-0.99026,0.33009,-1.5897,-1.3203,-2.4943e-09,-0.79486,0,0,0.14286,-0,-0,0.66667
0.79875,0.76671,5.5913,0.40006,9.2947,19.673,-5.9649,1.9883,-1.4313,-7.9533,3.2638e-10,-0.71567,0,0,0.14286,-0,-0,0.66667
0.015262,0.94685,0.10684,0.67028,43.703,307.7,-0.19095,0.063647,-0.40455,-0.25461,-7.1241e-06,-0.20228,0,0,0.14286,4.2294e-17,0,0.66667
0.58562,0.11333,4.0994,-0.58001,-24.762,72.403,6.3404,-2.1135,-0.80209,8.4539,-3.0642e-14,-0.40105,0,0,0.14286,-0,-0,0.66667
0.49552,0.19856,3.4686,-0.45216,-22.12,102.14,4.1823,-1.3941,-1.272,5.5764,3.5527e-13,-0.63602,0,0,0.14286,-0,-0,0.66667
0.99746,0.078256,6.9822,-0.63262,-0.10306,1.2701,11.779,-3.9263,-0.57699,15.705,5.0921e-06,-0.28849,0,0,0.14286,1.3534e-15,5.9351e-16,0.66667
0.13437,0.36215,0.9406,-0.20677,-13.153,252.41,0.51863,-0.17288,-1.8463,0.6915,4.8917e-09,-0.92315,0,0,0.14286,1.6918e-16,0,0.66667
0.67255,0.46955,4.7079,-0.045674,-1.6077,46.935,0.57341,-0.19114,-1.9955,0.76455,1.6018e-12,-0.99777,0,0,0.14286,-0,-0,0.66667
0.094945,0.52203,0.66462,0.033039,2.1198,270.57,-0.058555,0.019518,-1.9974,-0.078073,-9.5352e-09,-0.99868,0,0,0.14286,-0,-0,0.66667
0.16177,0.3222,1.1324,-0.2667,-16.832,239.9,0.80534,-0.26845,-1.7458,1.0738,1.899e-09,-0.8729,0,0,0.14286,-0,-0,0.66667
0.98833,0.90904,6.9183,0.61356,0.81166,1.3353,-11.32,3.7732,-0.6617,-15.093,4.7769e-06,-0.33085,0,0,0.14286,-0,-0,0.66667
0.80667,0.64011,5.6467,0.21017,4.6831,18.021,-3.1646,1.0549,-1.8413,-4.2195,5.0046e-10,-0.92066,0,0,0.14286,-0,-0,0.66667
0.24464,0.76145,1.7125,0.39217,23.922,202.85,-1.7909,0.59696,-1.4518,-2.3879,-1.174e-11,-0.72589,0,0,0.14286,-0,-0,0.66667
0.8463,0.39634,5.9241,-0.1555,-2.7961,11.838,2.4565,-0.81883,-1.9142,3.2753,-2.4834e-09,-0.95708,0,0,0.14286,6.7671e-16,0,0.66667
0.0356,0.97938,0.2492,0.71907,46.886,298.24,-0.47785,0.15928,-0.16061,-0.63714,-2.7553e-06,-0.080305,0,0,0.14286,-8.4588e-17,0,0.66667
0.53561,0.24299,3.7492,-0.38551,-17.796,88.214,3.8544,-1.2848,-1.471,5.1392,-4.5919e-13,-0.73548,0,0,0.14286,1.0151e-15,0,0.66667
0.091475,0.94102,0.64032,0.66153,42.773,272.31,-1.1296,0.37653,-0.44513,-1.5061,-3.1152e-07,-0.22257,0,0,0.14286,-0,6.7656e-17,0.66667
0.97091,0.67899,6.7963,0.26848,0.86929,0.88959,-4.8659,1.622,-1.7443,-6.4878,-6.8588e-08,-0.87213,0,0,0.14286,-1.3534e-15,0,0.66667
0.5831,0.53256,4.0817,0.048841,2.0776,72.579,-0.53161,0.1772,-1.9916,-0.70881,-8.2556e-13,-0.99579,0,0,0.14286,1.3534e-15,0,0.66667
0.55574,0.45343,3.8902,-0.069854,-3.1139,81.309,0.72465,-0.24155,-1.9808,0.9662,-2.0367e-13,-0.99041,0,0,0.14286,6.7671e-16,0,0.66667
0.31797,0.3328,2.2258,-0.2508,-14.599,171.2,1.4886,-0.49621,-1.775,1.9848,-3.8386e-12,-0.88748,0,0,0.14286,3.3835e-16,0,0.66667
0.8499,0.65138,5.9493,0.22708,3.999,11.412,-3.6025,1.2008,-1.8158,-4.8034,2.9534e-09,-0.90788,0,0,0.14286,-1.6918e-15,0,0.66667
0.53015,0.10532,3.7111,-0.59202,-27.677,90.384,5.8587,-1.9529,-0.755,7.8116,-1.5188e-13,-0.3775,0,0,0.14286,-0,-0,0.66667
0.017098,0.25339,0.11969,-0.36991,-23.997,306.82,0.11806,-0.039355,-1.5152,0.15742,-5.4189e-08,-0.75762,0,0,0.14286,4.2294e-17,0,0.66667
0.18489,0.92979,1.2943,0.64469,40.581,229.62,-2.2251,0.74168,-0.52255,-2.9667,-7.5119e-10,-0.26127,0,0,0.14286,-1.6918e-16,0,0.66667
0.43347,0.2063,3.0343,-0.44055,-23.206,124.95,3.5647,-1.1882,-1.309,4.7529,3.2863e-13,-0.65452,0,0,0.14286,6.7671e-16,0,0.66667
0.079976,0.81745,0.55983,0.47618,30.745,277.57,-0.71088,0.23696,-1.195,-0.94784,-3.3379e-08,-0.59751,0,0,0.14286,-1.6918e-16,0,0.66667
0.28066,0.34975,1.9646,-0.22538,-13.445,187.08,1.1807,-0.39358,-1.8215,1.5743,-3.7639e-12,-0.91077,0,0,0.14286,-0,-0,0.66667
0.2504,0.73175,1.7528,0.34762,21.128,200.3,-1.6248,0.5416,-1.5721,-2.1664,-5.7946e-12,-0.78604,0,0,0.14286,-0,-0,0.66667
0.00060864,0.017586,0.0042605,-0.72362,-47.247,314.52,0.0082849,-0.0027996,-0.13959,0.011028,-5.6877e-05,-0.069793,0,0,0.14286,-0,6.6605e-16,0.66667
0.69289,0.69241,4.8502,0.28862,9.6602,41.945,-3.7329,1.2443,-1.7031,-4.9772,-6.5723e-12,-0.85156,0,0,0.14286,-2.7068e-15,0,0.66667
0.77389,0.37919,5.4172,-0.18121,-4.6492,23.941,2.6178,-0.8726,-1.8823,3.4904,-9.3821e-11,-0.94114,0,0,0.14286,-0,-0,0.66667
0.82035,0.78334,5.7424,0.425,8.9122,16.119,-6.5082,2.1694,-1.3572,-8.6775,6.2354e-10,-0.67858,0,0,0.14286,-0,-0,0.66667
0.85163,0.53326,5.9614,0.049896,0.8666,11.048,-0.7932,0.2644,-1.9905,-1.0576,2.5902e-09,-0.99527,0,0,0.14286,-2.7068e-15,0,0.66667
0.15152,0.91505,1.0607,0.62257,39.628,244.72,-1.7609,0.58698,-0.62092,-2.3479,3.8303e-09,-0.31046,0,0,0.14286,-0,-0,0.66667
0.89004,0.09805,6.2303,-0.60292,-8.0624,7.4244,10.017,-3.339,-0.7099,13.356,-3.4304e-08,-0.35495,0,0,0.14286,-0,-0,0.66667
0.65821,0.5231,4.6075,0.034645,1.2627,50.73,-0.42567,0.14189,-1.9965,-0.56756,-1.1838e-13,-0.99823,0,0,0.14286,-0,-0,0.66667
0.69613,0.44381,4.8729,-0.084278,-2.7893,40.979,1.0951,-0.36505,-1.9735,1.4602,3.2392e-12,-0.98675,0,0,0.14286,-0,-0,0.66667
0.56407,0.79889,3.9485,0.44834,19.804,78.956,-4.7207,1.5736,-1.286,-6.2943,4.9472e-13,-0.64299,0,0,0.14286,-6.7671e-16,0,0.66667
0.93968,0.71298,6.5778,0.31947,2.2894,2.5269,-5.6037,1.8679,-1.638,-7.4716,-1.2467e-08,-0.81899,0,0,0.14286,-6.7671e-16,0,0.66667
0.25185,0.58609,1.7629,0.12913,7.8284,199.58,-0.60707,0.20236,-1.9416,-0.80942,-9.4562e-12,-0.97079,0,0,0.14286,-3.3835e-16,0,0.66667
0.78688,0.73576,5.5082,0.35364,8.6381,21.715,-5.1945,1.7315,-1.5538,-6.926,1.9324e-10,-0.77688,0,0,0.14286,-0,-0,0.66667
0.49526,0.56889,3.4668,0.10334,5.0364,101.93,-0.95537,0.31846,-1.9613,-1.2738,1.3577e-12,-0.98067,0,0,0.14286,-0,-0,0.66667
0.8909,0.55864,6.2363,0.087958,1.1349,6.3489,-1.4627,0.48758,-1.9753,-1.9503,1.481e-08,-0.98764,0,0,0.14286,3.3835e-16,0,0.66667
0.2762,0.55276,1.9334,0.079134,4.73,188.97,-0.40799,0.136,-1.9766,-0.54399,5.8742e-12,-0.98829,0,0,0.14286,-0,-0,0.66667
0.015247,0.94548,0.10673,0.66822,43.567,307.7,-0.19017,0.063387,-0.41447,-0.25357,-6.4573e-06,-0.20724,0,0,0.14286,-0,-0,0.66667
0.064891,0.3386,0.45424,-0.24211,-15.625,284.54,0.29326,-0.097755,-1.7924,0.39102,-1.1186e-08,-0.89619,0,0,0.14286,4.2294e-17,0,0.66667
0.89964,0.49255,6.2974,-0.01117,-0.13262,5.4483,0.18758,-0.062527,-1.9982,0.25011,-2.9808e-08,-0.99911,0,0,0.14286,2.0301e-15,0,0.66667
0.64115,0.15504,4.4881,-0.51744,-19.751,55.94,6.1928,-2.0643,-1.0511,8.257,1.918e-12,-0.52553,0,0,0.14286,-6.7671e-16,0,0.66667
0.73027,0.016781,5.1119,-0.72483,-22.073,34.15,9.8806,-3.2935,-0.13101,13.174,1.6875e-14,-0.065503,0,0,0.14286,2.7068e-15,1.6825e-16,0.66667
0.50436,0.53648,3.5305,0.054718,2.6338,98.706,-0.51516,0.17172,-1.989,-0.68688,8.2778e-13,-0.9945,0,0,0.14286,1.3534e-15,0,0.66667
0.55757,0.76151,3.903,0.39226,17.494,80.971,-4.0827,1.3609,-1.4517,-5.4435,-9.8144e-14,-0.72584,0,0,0.14286,-0,-0,0.66667
0.36389,0.93027,2.5473,0.6454,36.485,152.59,-4.384,1.4613,-0.51828,-5.8453,1.8492e-12,-0.25914,0,0,0.14286,-0,-0,0.66667
0.78264,0.24378,5.4784,-0.38433,-9.5641,22.557,5.6147,-1.8716,-1.4762,7.4863,-1.4305e-10,-0.73812,0,0,0.14286,-0,-0,0.66667
0.75687,0.73244,5.2981,0.34866,9.5707,27.541,-4.9259,1.642,-1.566,-6.5679,2.4319e-11,-0.78298,0,0,0.14286,-0,-0,0.66667
0.70001,0.70832,4.9,0.31249,10.261,40.23,-4.0832,1.3611,-1.6525,-5.4442,-7.8044e-12,-0.82627,0,0,0.14286,-6.7671e-16,0,0.66667
0.96189,0.49649,6.7332,-0.0052605,-0.022622,1.0337,0.094454,-0.031486,-1.9991,0.12594,-1.5884e-06,-0.99955,0,0,0.14286,4.3986e-15,0,0.66667
0.76884,0.29903,5.3819,-0.30145,-7.9055,25.065,4.3263,-1.4421,-1.6764,5.7684,-6.9388e-11,-0.83821,0,0,0.14286,-1.3534e-15,0,0.66667
0.97792,0.91334,6.8455,0.62001,1.6543,1.6097,-11.318,3.7726,-0.63194,-15.091,-4.0435e-06,-0.31597,0,0,0.14286,2.7068e-15,0,0.66667
0.59028,0.93306,4.1319,0.64958,27.558,71.127,-7.1574,2.3858,-0.4999,-9.5433,-1.7852e-13,-0.24995,0,0,0.14286,-0,1.2449e-16,0.66667
0.61926,0.066769,4.3348,-0.64985,-26.081,62.472,7.5119,-2.504,-0.49777,10.016,8.8951e-13,-0.24888,0,0,0.14286,-1.3534e-15,0,0.66667
0.63905,0.57359,4.4734,0.11038,4.2035,56.017,-1.3168,0.43892,-1.9575,-1.7557,-4.7051e-13,-0.97873,0,0,0.14286,-0,-0,0.66667
0.32637,0.88039,2.2846,0.57059,33.167,167.94,-3.4762,1.1587,-0.84365,-4.6349,3.366e-12,-0.42182,0,0,0.14286,-0,-0,0.66667
0.033029,0.97528,0.2312,0.71291,46.486,299.43,-0.43954,0.14652,-0.19398,-0.58605,4.2242e-06,-0.096989,0,0,0.14286,-0,-0,0.66667
0.78818,0.97779,5.5172,0.71668,17.699,22.431,-10.544,3.5147,-0.17222,-14.059,1.3256e-10,-0.086111,0,0,0.14286,-0,-0,0.66667
0.71019,0.37933,4.9713,-0.18101,-5.7619,37.647,2.3996,-0.79987,-1.8825,3.1995,6.0167e-12,-0.94127,0,0,0.14286,-0,-0,0.66667
0.079032,0.91686,0.55322,0.62529,40.486,278.05,-0.92247,0.30749,-0.61119,-1.23,-4.7098e-08,-0.3056,0,0,0.14286,1.6918e-16,0,0.66667
0.14858,0.17761,1.0401,-0.48359,-30.732,245.99,1.3412,-0.44708,-1.1668,1.7883,2.207e-09,-0.58342,0,0,0.14286,1.6918e-16,0,0.66667
0.68634,0.1682,4.8044,-0.4977,-17.037,43.929,6.3764,-2.1255,-1.1203,8.5019,4.6487e-12,-0.56017,0,0,0.14286,-0,-0,0.66667
0.53504,0.36214,3.7453,-0.2068,-9.5315,88.229,2.0653,-0.68845,-1.8472,2.7538,3.7526e-14,-0.92358,0,0,0.14286,-0,-0,0.66667
0.19121,0.097002,1.3385,-0.6045,-37.926,226.74,2.1577,-0.71922,-0.70101,2.8769,5.9907e-11,-0.35051,0,0,0.14286,6.7671e-16,0,0.66667
0.055953,0.99093,0.39167,0.7364,47.945,288.78,-0.76914,0.25638,-0.070388,-1.0255,5.4234e-07,-0.035194,0,0,0.14286,1.5085e-16,0,0.66667
0.61141,0.67982,4.2799,0.26973,10.898,64.104,-3.0785,1.0262,-1.742,-4.1046,-6.8456e-13,-0.87102,0,0,0.14286,6.7671e-16,0,0.66667
0.053612,0.54387,0.37528,0.065798,4.2484,289.78,-0.065848,0.021949,-1.9828,-0.087797,-1.3054e-07,-0.99142,0,0,0.14286,-0,-0,0.66667
0.21358,0.92977,1.495,0.64465,40.098,216.77,-2.5701,0.85668,-0.52139,-3.4267,4.4433e-12,-0.2607,0,0,0.14286,-2.1189e-16,0,0.66667
0.50266,0.99747,3.5186,0.74621,36.43,100.17,-7.0017,2.3339,-0.02119,-9.3356,-8.0469e-13,-0.010595,0,0,0.14286,2.0301e-15,0,0.66667
0.094031,0.81147,0.65822,0.46721,30.087,271.06,-0.82006,0.27335,-1.2272,-1.0934,-2.5313e-08,-0.61359,0,0,0.14286,1.7975e-16,0,0.66667
0.40891,0.10233,2.8623,-0.5965,-32.327,134.62,4.553,-1.5177,-0.73507,6.0707,2.6001e-12,-0.36753,0,0,0.14286,-0,-0,0.66667
0.020116,0.081173,0.14081,-0.62824,-40.919,305.43,0.2359,-0.078635,-0.59555,0.31453,-2.7846e-06,-0.29778,0,0,0.14286,-0,-0,0.66667
0.11946,0.41425,0.83625,-0.12863,-8.2109,259.25,0.28684,-0.095612,-1.94,0.38245,5.9499e-09,-0.97001,0,0,0.14286,-0,-0,0.66667
0.94006,0.55475,6.5804,0.082129,0.57661,2.2242,-1.4412,0.48039,-1.9764,-1.9216,-6.2443e-08,-0.98818,0,0,0.14286,-0,-0,0.66667
0.55886,0.66696,3.912,0.25044,11.122,80.395,-2.6126,0.87087,-1.7764,-3.4835,-3.475e-13,-0.8882,0,0,0.14286,-0,-0,0.66667
0.68646,0.79412,4.8052,0.44118,15.073,43.785,-5.6532,1.8844,-1.3091,-7.5376,-5.6528e-12,-0.65455,0,0,0.14286,-0,-0,0.66667
0.37777,0.65512,2.6444,0.23268,12.91,146.57,-1.6408,0.54694,-1.8087,-2.1878,1.4396e-12,-0.90436,0,0,0.14286,3.3835e-16,0,0.66667
0.76312,0.33171,5.3418,-0.25244,-6.7575,26.136,3.596,-1.1987,-1.7735,4.7946,-4.7073e-11,-0.88673,0,0,0.14286,-0,-0,0.66667
0.89639,0.78723,6.2747,0.43084,5.3623,6.2851,-7.2091,2.403,-1.339,-9.6121,1.744e-08,-0.66952,0,0,0.14286,-0,-0,0.66667
0.91019,0.22406,6.3713,-0.41391,-4.4712,4.9539,7.0325,-2.3442,-1.3907,9.3766,-1.7525e-08,-0.69534,0,0,0.14286,-0,-0,0.66667
0.49649,0.25482,3.4754,-0.36778,-17.942,101.69,3.4085,-1.1362,-1.5192,4.5446,9.801e-13,-0.7596,0,0,0.14286,-0,-0,0.66667
0.76261,0.35026,5.3383,-0.22461,-6.0209,26.207,3.1974,-1.0658,-1.8208,4.2632,-4.2633e-11,-0.91041,0,0,0.14286,-0,-0,0.66667
0.70896,0.44553,4.9627,-0.081707,-2.608,37.88,1.0813,-0.36043,-1.975,1.4417,2.8569e-12,-0.98751,0,0,0.14286,-0,-0,0.66667
0.9513,0.46996,6.6591,-0.045058,-0.25357,1.5562,0.80011,-0.2667,-1.9947,1.0668,2.472e-07,-0.99734,0,0,0.14286,-2.7068e-15,0,0.66667
0.24155,0.90823,1.6909,0.61234,37.553,204.37,-2.7611,0.92036,-0.66622,-3.6814,2.4088e-11,-0.33311,0,0,0.14286,-0,-0,0.66667
0.56134,0.021485,3.9294,-0.71777,-32.083,80.384,7.5211,-2.507,-0.16942,10.028,1.9007e-13,-0.084709,0,0,0.14286,1.3534e-15,0,0.66667
0.043773,0.8784,0.30641,0.56761,36.871,294.41,-0.46379,0.1546,-0.85508,-0.61839,-4.045e-07,-0.42754,0,0,0.14286,-0,-0,0.66667
0.92318,0.64989,6.4622,0.22484,2.0509,3.5369,-3.8746,1.2915,-1.8217,-5.1661,-1.3361e-09,-0.91086,0,0,0.14286,-6.7671e-16,0,0.66667
0.94526,0.42456,6.6168,-0.11316,-0.72279,1.9261,1.9967,-0.66557,-1.9526,2.6623,9.178e-08,-0.97631,0,0,0.14286,-1.1194e-15,0,0.66667
0.50091,0.2533,3.5063,-0.37005,-17.947,100.13,3.4601,-1.1534,-1.5154,4.6135,1.0061e-12,-0.75769,0,0,0.14286,-0,-0,0.66667
0.58612,0.86306,4.1028,0.5446,23.207,72.178,-5.9584,1.9861,-0.94367,-7.9445,1.2612e-13,-0.47184,0,0,0.14286,6.7671e-16,0,0.66667
0.77194,0.98008,5.4036,0.72013,18.98,25.485,-10.377,3.4589,-0.15453,-13.836,-5.3639e-11,-0.077267,0,0,0.14286,-0,-0,0.66667
0.24933,0.27881,1.7453,-0.33178,-20.173,200.75,1.5442,-0.51473,-1.6113,2.0589,1.382e-11,-0.80563,0,0,0.14286,-5.0753e-16,0,0.66667
0.37899,0.96089,2.6529,0.69133,38.619,146.58,-4.8908,1.6303,-0.30012,-6.5211,-2.0202e-12,-0.15006,0,0,0.14286,3.3835e-16,0,0.66667
0.28861,0.30959,2.0202,-0.28561,-16.963,183.69,1.5387,-0.5129,-1.7092,2.0516,-6.2874e-12,-0.8546,0,0,0.14286,8.4588e-17,0,0.66667
0.5388,0.6625,3.7716,0.24375,11.175,86.994,-2.4515,0.81718,-1.7875,-3.2687,-5.7132e-13,-0.89374,0,0,0.14286,-0,-0,0.66667
0.94896,0.80237,6.6427,0.45355,2.78,2.2848,-8.0341,2.678,-1.2678,-10.712,1.2454e-08,-0.63389,0,0,0.14286,-0,-0,0.66667
0.3854,0.40379,2.6978,-0.14431,-7.9469,143.48,1.0382,-0.34607,-1.9257,1.3843,2.0872e-14,-0.96285,0,0,0.14286,-7.3178e-16,0,0.66667
0.04501,0.98117,0.31507,0.72176,47.028,293.86,-0.60641,0.20213,-0.14827,-0.80855,-6.0091e-06,-0.074134,0,0,0.14286,-1.6918e-16,1.6207e-16,0.66667
0.68252,0.34293,4.7776,-0.2356,-8.0983,44.485,3.0016,-1.0005,-1.8028,4.0021,4.9745e-12,-0.9014,0,0,0.14286,1.6918e-16,0,0.66667
0.49503,0.10967,3.4652,-0.5855,-28.745,102.52,5.4103,-1.8034,-0.77976,7.2138,1.8154e-12,-0.38988,0,0,0.14286,-0,-0,0.66667
0.29651,0.15754,2.0756,-0.51369,-30.452,180.48,2.8432,-0.94775,-1.0649,3.791,-2.4158e-12,-0.53246,0,0,0.14286,6.7671e-16,0,0.66667
0.41589,0.082411,2.9112,-0.62638,-33.735,131.96,4.8628,-1.6209,-0.6034,6.4837,7.4696e-13,-0.3017,0,0,0.14286,-0,-0,0.66667
0.86251,0.61661,6.0376,0.17492,2.83,9.6945,-2.8163,0.93875,-1.8911,-3.755,3.8932e-09,-0.94555,0,0,0.14286,6.7671e-16,0,0.66667
0.82102,0.6035,5.7471,0.15525,3.2192,15.613,-2.3793,0.79309,-1.9127,-3.1724,8.5254e-10,-0.95634,0,0,0.14286,-0,-0,0.66667
0.17085,0.34657,1.1959,-0.23014,-14.475,235.77,0.73395,-0.24465,-1.8139,0.9786,1.1506e-09,-0.90697,0,0,0.14286,-0,-0,0.66667
0.68513,0.38797,4.7959,-0.16805,-5.7324,43.764,2.1492,-0.7164,-1.8997,2.8656,4.7622e-12,-0.94984,0,0,0.14286,-0,-0,0.66667
0.99766,0.59578,6.9836,0.14367,-0.036923,0.089755,-2.6755,0.89184,-1.928,-3.5673,8.3927e-07,-0.96398,0,0,0.14286,2.7068e-15,0,0.66667
0.78436,0.50897,5.4905,0.013454,0.33038,21.877,-0.19699,0.065664,-1.9992,-0.26266,-3.6581e-11,-0.99961,0,0,0.14286,-0,-0,0.66667
0.72505,0.71931,5.0753,0.32896,10.039,34.376,-4.4522,1.4841,-1.6151,-5.9363,-8.479e-12,-0.80754,0,0,0.14286,-2.7068e-15,0,0.66667
0.31002,0.56698,2.1701,0.10047,5.8755,174.5,-0.58141,0.1938,-1.9649,-0.77522,7.9974e-12,-0.98247,0,0,0.14286,-0,-0,0.66667
0.15947,0.76608,1.1163,0.39912,25.246,240.99,-1.1881,0.39603,-1.4331,-1.5841,-2.0577e-09,-0.71655,0,0,0.14286,-3.3835e-16,0,0.66667
0.86432,0.86753,6.0503,0.55129,8.9627,10.201,-8.8945,2.9648,-0.9185,-11.859,-4.5217e-09,-0.45925,0,0,0.14286,-6.7671e-16,0,0.66667
0.61035,0.2493,4.2724,-0.37605,-15.252,64.551,4.2844,-1.4281,-1.4999,5.7125,1.2195e-12,-0.74996,0,0,0.14286,-1.7341e-15,0,0.66667
0.39009,0.15794,2.7306,-0.51309,-28.262,141.9,3.7362,-1.2454,-1.0669,4.9816,2.0659e-12,-0.53343,0,0,0.14286,-0,1.5139e-16,0.66667
0.75559,0.31295,5.2891,-0.28057,-7.7246,27.702,3.9573,-1.3191,-1.7201,5.2764,-2.0668e-11,-0.86007,0,0,0.14286,-2.7068e-15,0,0.66667
0.71863,0.3892,5.0304,-0.16619,-5.1585,35.663,2.2294,-0.74313,-1.9038,2.9725,5.4052e-12,-0.95189,0,0,0.14286,-0,-0,0.66667
0.64733,0.20474,4.5313,-0.44288,-16.642,54.086,5.3516,-1.7839,-1.3008,7.1355,1.8172e-12,-0.6504,0,0,0.14286,1.3534e-15,0,0.66667
0.20726,0.57026,1.4508,0.10539,6.5294,219.33,-0.40774,0.13591,-1.9599,-0.54366,-1.4143e-10,-0.97996,0,0,0.14286,6.7671e-16,0,0.66667
0.88553,0.62153,6.1987,0.18229,2.4706,6.9909,-3.0133,1.0044,-1.8815,-4.0177,4.9569e-09,-0.94073,0,0,0.14286,-3.3835e-16,0,0.66667
0.71901,0.40706,5.033,-0.1394,-4.3208,35.558,1.871,-0.62367,-1.9343,2.4947,2.27e-12,-0.96713,0,0,0.14286,2.7068e-15,0,0.66667
0.30263,0.44428,2.1184,-0.08358,-4.9123,177.63,0.47215,-0.15738,-1.9741,0.62954,-6.5078e-13,-0.98704,0,0,0.14286,6.7671e-16,0,0.66667
0.063598,0.012423,0.44519,-0.73136,-47.568,285.23,0.86826,-0.28942,-0.099273,1.1577,-4.9874e-07,-0.049636,0,0,0.14286,-0,-0,0.66667
0.9128,0.36657,6.3896,-0.20015,-2.0727,4.3552,3.4103,-1.1368,-1.8561,4.547,2.0191e-09,-0.92807,0,0,0.14286,6.7671e-16,0,0.66667
0.79385,0.23741,5.557,-0.39389,-9.3501,20.528,5.8368,-1.9456,-1.448,7.7824,-2.2956e-10,-0.72402,0,0,0.14286,-1.3534e-15,0,0.66667
0.49858,0.0023419,3.4901,-0.74649,-36.643,101.6,6.9475,-2.3158,-0.0207,9.2633,-1.2879e-13,-0.01035,0,0,0.14286,-0,4.6913e-17,0.66667
0.41393,0.8369,2.8975,0.50535,27.199,132.54,-3.9047,1.3016,-1.0906,-5.2062,1.7273e-12,-0.54531,0,0,0.14286,-4.3161e-16,0,0.66667
0.61556,0.5883,4.3089,0.13245,5.2995,62.775,-1.5219,0.5073,-1.9366,-2.0292,-5.4401e-14,-0.96831,0,0,0.14286,-1.0151e-15,0,0.66667
0.39852,0.85424,2.7896,0.53135,29.047,138.6,-3.9527,1.3176,-0.99442,-5.2703,-6.7057e-13,-0.49721,0,0,0.14286,-0,-0,0.66667
0.038918,0.58008,0.27243,0.12013,7.7682,296.63,-0.087269,0.02909,-1.9468,-0.11636,-6.7826e-08,-0.97341,0,0,0.14286,-8.8382e-17,0,0.66667
0.30197,0.0025177,2.1138,-0.74622,-44.303,178.43,4.2063,-1.4021,-0.019877,5.6084,-5.6621e-13,-0.0099387,0,0,0.14286,-0,-0,0.66667
0.24628,0.56327,1.7239,0.0949,5.7696,202.02,-0.43628,0.14543,-1.9687,-0.5817,-2.9265e-13,-0.98436,0,0,0.14286,-0,-0,0.66667
0.9723,0.88177,6.8061,0.57265,1.9045,1.6142,-10.393,3.4645,-0.83387,-13.858,-1.6988e-06,-0.41694,0,0,0.14286,-0,-0,0.66667
0.7675,0.027742,5.3725,-0.70839,-18.975,26.31,10.149,-3.3829,-0.21721,13.532,4.9662e-11,-0.10861,0,0,0.14286,1.3534e-15,0,0.66667
0.4037,0.24004,2.8259,-0.38994,-21.158,136.4,2.9385,-0.97949,-1.4595,3.9179,2.6283e-12,-0.72975,0,0,0.14286,-0,-0,0.66667
0.73663,0.078431,5.1564,-0.63235,-18.789,32.466,8.6951,-2.8984,-0.57836,11.593,-3.002e-12,-0.28918,0,0,0.14286,1.3534e-15,0,0.66667
0.30266,0.2965,2.1186,-0.30525,-17.968,177.7,1.7245,-0.57484,-1.6671,2.2994,-4.8347e-12,-0.83354,0,0,0.14286,-0,-0,0.66667
0.5273,0.84864,3.6911,0.52296,24.51,91.225,-5.1474,1.7158,-1.0275,-6.8632,-1.064e-12,-0.51375,0,0,0.14286,1.3534e-15,0,0.66667
0.20714,0.25413,1.45,-0.36881,-22.898,219.46,1.4261,-0.47535,-1.5163,1.9014,2.575e-10,-0.75817,0,0,0.14286,-6.7671e-16,0,0.66667
0.25426,0.56078,1.7798,0.091172,5.5191,198.51,-0.43272,0.14424,-1.9707,-0.57696,-4.6836e-12,-0.98536,0,0,0.14286,4.2294e-16,0,0.66667
0.43402,0.37209,3.0382,-0.19187,-10.07,124.52,1.5545,-0.51817,-1.8696,2.0727,1.7608e-13,-0.93478,0,0,0.14286,6.7671e-16,0,0.66667
0.082426,0.85079,0.57698,0.52618,33.988,276.45,-0.80959,0.26986,-1.015,-1.0795,-2.7698e-08,-0.5075,0,0,0.14286,-1.6918e-16,0,0.66667
0.85329,0.51655,5.973,0.024825,0.42653,10.819,-0.39542,0.13181,-1.9961,-0.52722,-1.5217e-10,-0.99806,0,0,0.14286,2.7068e-15,0,0.66667
0.91633,0.15595,6.4143,-0.51608,-5.2477,4.7014,8.8275,-2.9425,-1.0531,11.77,-4.4354e-09,-0.52655,0,0,0.14286,5.7097e-16,0,0.66667
0.21311,0.096913,1.4918,-0.60463,-37.585,216.95,2.4052,-0.80174,-0.69967,3.207,-2.4634e-10,-0.34983,0,0,0.14286,-0,-0,0.66667
0.47372,0.06042,3.3161,-0.65937,-33.324,110.31,5.8307,-1.9436,-0.45407,7.7742,-5.9108e-13,-0.22703,0,0,0.14286,9.3047e-16,0,0.66667
0.84146,0.25392,5.8902,-0.36912,-6.8774,12.816,5.7979,-1.9326,-1.5166,7.7305,-2.1959e-09,-0.7583,0,0,0.14286,-0,-0,0.66667
0.28828,0.099731,2.018,-0.6004,-35.841,184.08,3.2309,-1.077,-0.71707,4.3079,-2.8166e-12,-0.35853,0,0,0.14286,6.7671e-16,0,0.66667
0.61071,0.38536,4.275,-0.17196,-6.9494,64.231,1.9603,-0.65343,-1.8959,2.6137,5.3468e-13,-0.94795,0,0,0.14286,1.3534e-15,0,0.66667
0.44205,0.65647,3.0943,0.2347,12.214,121.5,-1.9367,0.64556,-1.8046,-2.5822,4.7629e-13,-0.9023,0,0,0.14286,-1.3534e-15,0,0.66667
0.39749,0.19711,2.7824,-0.45433,-24.825,138.91,3.3711,-1.1237,-1.2645,4.4948,3.3573e-13,-0.63224,0,0,0.14286,-0,-0,0.66667
0.78937,0.74594,5.5256,0.36891,8.9207,21.287,-5.4359,1.812,-1.5151,-7.2479,2.2127e-10,-0.75757,0,0,0.14286,6.7671e-16,0,0.66667
0.46451,0.95143,3.2516,0.67715,34.622,113.7,-5.8715,1.9572,-0.36861,-7.8287,3.0242e-13,-0.1843,0,0,0.14286,-6.7671e-16,0,0.66667
0.4648,0.77752,3.2536,0.41628,21.153,113.19,-3.6118,1.2039,-1.3839,-4.8157,-5.0515e-13,-0.69197,0,0,0.14286,-0,-0,0.66667
0.99203,0.85349,6.9442,0.53023,0.39537,0.97574,-9.8188,3.2729,-0.99871,-13.092,7.3404e-07,-0.49935,0,0,0.14286,-0,-0,0.66667
0.96223,0.57661,6.7356,0.11491,0.49096,1.0583,-2.064,0.68802,-1.9513,-2.7521,1.0189e-07,-0.97564,0,0,0.14286,-0,-0,0.66667
0.23508,0.043853,1.6456,-0.68422,-42.165,207.29,3.0025,-1.0008,-0.3369,4.0033,4.6756e-12,-0.16845,0,0,0.14286,-0,-0,0.66667
0.22695,0.52679,1.5887,0.040185,2.4668,210.54,-0.17024,0.056748,-1.9932,-0.22699,-5.1223e-12,-0.99662,0,0,0.14286,-1.6918e-16,0,0.66667
0.66274,0.60061,4.6392,0.15091,5.4447,49.563,-1.867,0.62233,-1.9178,-2.4893,-2.9908e-12,-0.95889,0,0,0.14286,1.3534e-15,0,0.66667
0.41195,0.8053,2.8836,0.45795,24.675,133.25,-3.5215,1.1738,-1.2532,-4.6954,1.583e-12,-0.62661,0,0,0.14286,3.3835e-16,0,0.66667
0.71875,0.53795,5.0313,0.056932,1.765,35.58,-0.76384,0.25461,-1.9911,-1.0185,-1.4463e-12,-0.99556,0,0,0.14286,-0,-0,0.66667
0.73345,0.72526,5.1342,0.33788,10.043,32.509,-4.626,1.542,-1.5959,-6.168,-5.1212e-12,-0.79793,0,0,0.14286,-0,-0,0.66667
0.78329,0.81524,5.4831,0.47286,11.773,22.619,-6.914,2.3047,-1.2064,-9.2186,1.7257e-10,-0.60321,0,0,0.14286,-0,-0,0.66667
0.26331,0.57555,1.8432,0.11333,6.826,194.57,-0.55702,0.18567,-1.9545,-0.74269,1.6862e-12,-0.97723,0,0,0.14286,-6.7671e-16,0,0.66667
0.99836,0.56466,6.9885,0.096997,-0.034849,0.046756,-1.8076,0.60254,-1.9684,-2.4102,-3.9871e-06,-0.9842,0,0,0.14286,2.7068e-15,0,0.66667
0.4937,0.89602,3.4559,0.59403,29.221,103.01,-5.4745,1.8248,-0.74378,-7.2993,-4.885e-15,-0.37189,0,0,0.14286,-0,-0,0.66667
0.083927,0.55091,0.58749,0.076359,4.9096,275.68,-0.11963,0.039875,-1.9777,-0.1595,-6.8924e-09,-0.98887,0,0,0.14286,-0,-0,0.66667
0.11202,0.027984,0.78411,-0.70802,-45.632,262.86,1.4805,-0.49348,-0.21852,1.9739,5.2832e-08,-0.10926,0,0,0.14286,-2.5377e-16,0,0.66667
0.5615,0.33473,3.9305,-0.2479,-10.961,79.539,2.5983,-0.8661,-1.7829,3.4644,-1.3167e-13,-0.89147,0,0,0.14286,6.7671e-16,0,0.66667
0.51011,0.7499,3.5708,0.37486,17.954,96.915,-3.5694,1.1898,-1.5005,-4.7592,1.8652e-14,-0.75026,0,0,0.14286,-8.3002e-16,0,0.66667
0.93484,0.86543,6.5438,0.54814,4.3663,3.4199,-9.5652,3.1884,-0.93179,-12.754,7.6191e-08,-0.4659,0,0,0.14286,1.3534e-15,0,0.66667
0.90083,0.76864,6.3058,0.40295,4.7956,5.7879,-6.7758,2.2586,-1.4212,-9.0345,1.879e-08,-0.71061,0,0,0.14286,-1.3534e-15,0,0.66667
0.4654,0.73271,3.2578,0.34907,17.707,112.89,-3.0326,1.0109,-1.5662,-4.0434,1.5676e-13,-0.78309,0,0,0.14286,-0,-0,0.66667
0.20648,0.32326,1.4453,-0.26511,-16.447,219.72,1.0218,-0.3406,-1.7497,1.3624,2.902e-10,-0.87483,0,0,0.14286,3.3835e-16,0,0.66667
0.56442,0.76085,3.9509,0.39128,17.254,78.76,-4.1224,1.3741,-1.4562,-5.4966,-2.1227e-13,-0.72809,0,0,0.14286,-0,-0,0.66667
0.30873,0.30805,2.1611,-0.28792,-16.875,175.12,1.6593,-0.5531,-1.7053,2.2124,-3.5474e-12,-0.85265,0,0,0.14286,1.6918e-16,0,0.66667
0.65059,0.52348,4.5541,0.035213,1.3063,52.8,-0.42763,0.14254,-1.9944,-0.57018,-7.0971e-13,-0.99721,0,0,0.14286,-0,-0,0.66667
0.5151,0.81459,3.6057,0.47188,22.483,95.315,-4.5373,1.5124,-1.2111,-6.0497,4.4631e-13,-0.60556,0,0,0.14286,-0,-7.5565e-19,0.66667
0.84318,0.79205,5.9023,0.43807,8.1044,12.718,-6.895,2.2983,-1.3194,-9.1933,1.8926e-09,-0.65968,0,0,0.14286,-0,-0,0.66667
0.13174,0.20217,0.92218,-0.44674,-28.512,253.68,1.0986,-0.3662,-1.2886,1.4648,4.4123e-09,-0.64429,0,0,0.14286,-0,-0,0.66667
0.25101,0.6546,1.757,0.2319,14.074,199.98,-1.0866,0.36219,-1.8113,-1.4488,-1.2813e-11,-0.90564,0,0,0.14286,-3.8065e-16,0,0.66667
0.59753,0.81349,4.1827,0.47023,19.586,68.543,-5.2449,1.7483,-1.2145,-6.9932,8.3178e-13,-0.60723,0,0,0.14286,-2.7068e-15,0,0.66667
0.62521,0.40775,4.3765,-0.13838,-5.4288,59.967,1.615,-0.53833,-1.9352,2.1533,9.5335e-13,-0.96759,0,0,0.14286,-0,-0,0.66667
0.41259,0.43677,2.8882,-0.09485,-5.0875,132.74,0.73051,-0.2435,-1.9678,0.97402,1.4929e-12,-0.9839,0,0,0.14286,-8.4588e-16,0,0.66667
0.90059,0.93606,6.3041,0.65409,7.9825,6.5541,-10.996,3.6653,-0.47862,-14.661,-1.0766e-07,-0.23931,0,0,0.14286,-1.6918e-16,0,0.66667
0.81028,0.22525,5.6719,-0.41213,-9.08,17.73,6.2335,-2.0778,-1.3968,8.3114,-5.0476e-10,-0.69841,0,0,0.14286,2.7068e-15,0,0.66667
0.54085,0.42281,3.7859,-0.11579,-5.2859,86.234,1.169,-0.38965,-1.9506,1.5586,4.3632e-14,-0.97532,0,0,0.14286,-0,-0,0.66667
0.40503,0.63919,2.8352,0.20879,11.291,135.74,-1.5786,0.52619,-1.846,-2.1048,-3.1652e-13,-0.92298,0,0,0.14286,6.7671e-16,0,0.66667
0.39718,0.33766,2.7802,-0.24351,-13.273,138.85,1.8054,-0.6018,-1.788,2.4072,6.9433e-13,-0.894,0,0,0.14286,3.3835e-16,0,0.66667
0.11399,0.36409,0.79792,-0.20387,-13.036,261.78,0.43379,-0.1446,-1.8511,0.57839,5.4728e-09,-0.92557,0,0,0.14286,-1.6918e-16,0,0.66667
0.93724,0.14245,6.5607,-0.53632,-4.107,3.2244,9.3831,-3.1277,-0.97912,12.511,-7.8932e-08,-0.48956,0,0,0.14286,-1.1099e-15,2.1962e-16,0.66667
0.23454,0.40188,1.6417,-0.14717,-9.0039,207.2,0.64433,-0.21478,-1.9258,0.8591,3.6881e-11,-0.9629,0,0,0.14286,-8.4588e-17,0,0.66667
0.15282,0.067395,1.0697,-0.64891,-41.31,244.15,1.8511,-0.61702,-0.50299,2.4681,1.3103e-08,-0.25149,0,0,0.14286,-0,-0,0.66667
0.51002,0.8732,3.5701,0.55979,26.915,97.222,-5.3294,1.7765,-0.88555,-7.1059,-1.3856e-12,-0.44278,0,0,0.14286,2.5377e-16,0,0.66667
0.45504,0.037538,3.1853,-0.69369,-35.878,117.23,5.8923,-1.9641,-0.29001,7.8565,6.4038e-13,-0.14501,0,0,0.14286,-0,-0,0.66667
0.074027,0.29194,0.51819,-0.31208,-20.127,280.3,0.43125,-0.14375,-1.6529,0.575,1.2612e-08,-0.82644,0,0,0.14286,-1.6918e-16,0,0.66667
0.57557,0.92189,4.029,0.63284,27.542,75.654,-6.7992,2.2664,-0.57596,-9.0657,-4.9605e-13,-0.28798,0,0,0.14286,1.3534e-15,0,0.66667
0.69854,0.76841,4.8897,0.40261,13.302,40.728,-5.2498,1.7499,-1.4225,-6.9998,-8.2498e-12,-0.71124,0,0,0.14286,1.3534e-15,0,0.66667
0.49055,0.93834,3.4338,0.65751,32.531,104.25,-6.0207,2.0069,-0.46268,-8.0276,5.1825e-13,-0.23134,0,0,0.14286,-0,-0,0.66667
0.072894,0.054061,0.51026,-0.66891,-43.39,280.91,0.91017,-0.30339,-0.408,1.2136,2.4867e-07,-0.204,0,0,0.14286,8.4588e-17,0,0.66667
0.17966,0.54278,1.2576,0.064163,4.0195,231.74,-0.21518,0.071728,-1.9836,-0.28691,-4.3525e-10,-0.99179,0,0,0.14286,-0,-0,0.66667
0.11594,0.24126,0.81155,-0.38811,-24.85,260.93,0.83993,-0.27998,-1.463,1.1199,9.7162e-09,-0.73148,0,0,0.14286,-0,-0,0.66667
0.58346,0.72576,4.0842,0.33864,14.435,72.67,-3.6882,1.2294,-1.5913,-4.9176,2.0073e-13,-0.79565,0,0,0.14286,-0,-0,0.66667
0.085088,0.97073,0.59561,0.70609,45.75,275.27,-1.1215,0.37383,-0.2268,-1.4953,5.3333e-07,-0.1134,0,0,0.14286,-3.3835e-16,0,0.66667
0.38405,0.75733,2.6884,0.386,21.333,144.17,-2.7673,0.92242,-1.4689,-3.6897,7.3941e-14,-0.73446,0,0,0.14286,-0,-0,0.66667
0.14716,0.11936,1.0301,-0.57095,-36.354,246.68,1.5684,-0.52279,-0.83984,2.0911,2.7019e-09,-0.41992,0,0,0.14286,8.4588e-17,0,0.66667
0.41149,0.61001,2.8804,0.16502,8.8641,133.19,-1.2675,0.42251,-1.9017,-1.69,1.0414e-13,-0.95086,0,0,0.14286,-0,-0,0.66667
0.62527,0.24428,4.3769,-0.38358,-15.097,60.199,4.4771,-1.4924,-1.4794,5.9694,1.2386e-12,-0.73968,0,0,0.14286,-3.3835e-16,0,0.66667
0.35954,0.71342,2.5168,0.32013,18.059,154.01,-2.1485,0.71618,-1.6383,-2.8647,3.8245e-12,-0.81914,0,0,0.14286,-8.4588e-16,0,0.66667
0.89598,0.84621,6.2719,0.51932,6.5335,6.5597,-8.6857,2.8952,-1.0408,-11.581,3.2396e-08,-0.5204,0,0,0.14286,-0,-0,0.66667
0.41748,0.10465,2.9224,-0.59303,-31.862,131.29,4.6215,-1.5405,-0.74859,6.1619,1.6058e-12,-0.3743,0,0,0.14286,-6.7671e-16,0,0.66667
0.93366,0.26282,6.5356,-0.35578,-2.8211,2.9941,6.2005,-2.0668,-1.5491,8.2674,-1.1785e-08,-0.77457,0,0,0.14286,-0,-0,0.66667
0.82046,0.32313,5.7432,-0.2653,-5.53,15.82,4.0632,-1.3544,-1.748,5.4176,-9.5921e-10,-0.87401,0,0,0.14286,-1.3534e-15,0,0.66667
0.11664,0.87196,0.8165,0.55794,35.811,260.66,-1.2148,0.40494,-0.8924,-1.6197,-1.9735e-08,-0.4462,0,0,0.14286,-4.2294e-17,0,0.66667
0.10397,0.85778,0.72776,0.53667,34.53,266.49,-1.0415,0.34717,-0.97446,-1.3887,-9.6599e-09,-0.48723,0,0,0.14286,-1.6918e-16,0,0.66667
0.13281,0.066259,0.92967,-0.65061,-41.663,253.28,1.6129,-0.53765,-0.49404,2.1506,-3.0941e-08,-0.24702,0,0,0.14286,-0,-0,0.66667
0.63847,0.46753,4.4693,-0.048698,-1.8564,56.162,0.58039,-0.19346,-1.9932,0.77386,-1.224e-13,-0.99661,0,0,0.14286,1.5226e-15,0,0.66667
0.68459,0.35949,4.7921,-0.21077,-7.2035,43.936,2.6935,-0.89782,-1.8417,3.5913,5.6557e-12,-0.92086,0,0,0.14286,-8.1072e-16,0,0.66667
0.79001,0.30871,5.5301,-0.28694,-6.9037,21.04,4.2315,-1.4105,-1.7064,5.6419,-2.2571e-10,-0.8532,0,0,0.14286,1.3534e-15,0,0.66667
0.54233,0.58307,3.7963,0.1246,5.6757,85.746,-1.2614,0.42047,-1.9438,-1.6819,-1.068e-12,-0.97188,0,0,0.14286,6.7671e-16,0,0.66667
0.67536,0.50057,4.7275,0.00085322,0.02982,46.203,-0.010756,0.0035854,-2.0009,-0.014342,1.4789e-12,-1.0005,0,0,0.14286,-0,-0,0.66667
0.68675,0.048312,4.8073,-0.67753,-23.316,44.277,8.6855,-2.8952,-0.3692,11.581,1.6245e-12,-0.1846,0,0,0.14286,-1.3534e-15,-1.6775e-16,0.66667
0.33823,0.9943,2.3676,0.74145,42.89,163.24,-4.6812,1.5604,-0.044475,-6.2416,8.9795e-13,-0.022238,0,0,0.14286,-6.7671e-16,0,0.66667
0.65052,0.79776,4.5536,0.44664,16.664,53.22,-5.4236,1.8079,-1.2891,-7.2314,-1.7923e-12,-0.64455,0,0,0.14286,-0,-0,0.66667
0.4041,0.4784,2.8287,-0.032399,-1.7522,136.05,0.24439,-0.081464,-1.9967,0.32586,1.96e-12,-0.99836,0,0,0.14286,-0,-0,0.66667
0.64016,0.85952,4.4812,0.53929,20.642,56.261,-6.4443,2.1481,-0.96757,-8.5924,-8.9395e-13,-0.48379,0,0,0.14286,-0,-2.1065e-16,0.66667
0.93462,0.99731,6.5423,0.74597,6.1598,4.1787,-13.014,4.3381,-0.022291,-17.353,6.171e-07,-0.011146,0,0,0.14286,4.3986e-15,-5.3159e-17,0.66667
0.42997,0.85972,3.0098,0.53958,28.583,126.41,-4.3307,1.4436,-0.96291,-5.7743,-3.9879e-13,-0.48146,0,0,0.14286,-0,-0,0.66667
0.50617,0.36276,3.5432,-0.20586,-9.8928,98.135,1.9451,-0.64836,-1.8477,2.5934,-1.5099e-14,-0.92384,0,0,0.14286,-0,-0,0.66667
0.33206,0.37787,2.3245,-0.18319,-10.548,165.26,1.1355,-0.3785,-1.8809,1.514,-1.3617e-12,-0.94045,0,0,0.14286,-1.3534e-15,0,0.66667
0.57872,0.95167,4.051,0.67751,29.366,74.772,-7.319,2.4397,-0.36945,-9.7586,6.0885e-13,-0.18473,0,0,0.14286,-0,-0,0.66667
0.86342,0.55627,6.0439,0.084402,1.3548,9.5162,-1.3603,0.45344,-1.9743,-1.8138,4.5363e-09,-0.98716,0,0,0.14286,-0,-0,0.66667
0.28365,0.12436,1.9855,-0.56347,-33.708,186.03,2.9834,-0.99448,-0.87272,3.9779,-6.2284e-13,-0.43636,0,0,0.14286,-4.8638e-16,0,0.66667
0.83439,0.1727,5.8407,-0.49095,-9.5805,14.119,7.6466,-2.5489,-1.1413,10.195,-1.4381e-09,-0.57064,0,0,0.14286,-1.3534e-15,0,0.66667
0.51948,0.46244,3.6363,-0.056345,-2.6551,93.455,0.54637,-0.18212,-1.9884,0.72849,-5.0188e-13,-0.99422,0,0,0.14286,1.0151e-15,0,0.66667
0.22608,0.7184,1.5825,0.3276,20.155,211.01,-1.3825,0.46084,-1.6182,-1.8433,-9.2819e-11,-0.80908,0,0,0.14286,-4.6524e-16,0,0.66667
0.41945,0.52088,2.9361,0.031315,1.6677,130.07,-0.24519,0.081729,-1.9967,-0.32692,9.471e-13,-0.99835,0,0,0.14286,-0,-0,0.66667
0.16699,0.77954,1.169,0.4193,26.462,237.58,-1.3071,0.43569,-1.3749,-1.7428,-1.7438e-09,-0.68745,0,0,0.14286,1.6918e-16,0,0.66667
0.91239,0.74393,6.3868,0.3659,3.8424,4.6562,-6.2317,2.0772,-1.5229,-8.309,2.0149e-08,-0.76145,0,0,0.14286,-0,-0,0.66667
0.057947,0.30546,0.40563,-0.29181,-18.856,287.77,0.31565,-0.10522,-1.6965,0.42086,-2.4897e-08,-0.84827,0,0,0.14286,-4.2294e-17,0,0.66667
0.604,0.14348,4.228,-0.53478,-22.039,66.714,6.0295,-2.0098,-0.98168,8.0394,1.0387e-12,-0.49084,0,0,0.14286,-0,-0,0.66667
0.10395,0.11858,0.72766,-0.57213,-36.835,266.51,1.1102,-0.37006,-0.83523,1.4802,1.8235e-09,-0.41762,0,0,0.14286,-1.6918e-16,0,0.66667
0.31348,0.43915,2.1943,-0.09127,-5.3246,173.04,0.53408,-0.17803,-1.9729,0.7121,-5.5611e-13,-0.98645,0,0,0.14286,-0,-0,0.66667
0.14294,0.17127,1.0006,-0.49309,-31.394,248.57,1.3157,-0.43856,-1.1356,1.7543,2.5229e-09,-0.56779,0,0,0.14286,-0,-0,0.66667
0.49951,0.23049,3.4966,-0.40427,-19.655,100.66,3.7695,-1.2565,-1.4206,5.026,6.1751e-13,-0.71031,0,0,0.14286,-0,-0,0.66667
0.6361,0.97022,4.4527,0.70532,27.388,57.809,-8.3749,2.7916,-0.23139,-11.167,5.5334e-13,-0.11569,0,0,0.14286,-0,-1.8393e-16,0.66667
0.82926,0.41907,5.8048,-0.1214,-2.4082,14.305,1.8791,-0.62638,-1.9487,2.5055,-7.1605e-10,-0.97434,0,0,0.14286,-0,-0,0.66667
0.45001,0.058475,3.1501,-0.66229,-34.422,119.04,5.5634,-1.8545,-0.44093,7.4178,1.2323e-12,-0.22047,0,0,0.14286,-1.6918e-16,-7.5934e-17,0.66667
0.76945,0.51411,5.3861,0.021163,0.55171,24.728,-0.30397,0.10132,-1.9976,-0.40529,1.9755e-11,-0.99878,0,0,0.14286,-2.7068e-15,0,0.66667
0.59534,0.24004,4.1674,-0.38995,-16.281,69.082,4.3335,-1.4445,-1.4602,5.778,2.5979e-13,-0.7301,0,0,0.14286,-0,-0,0.66667
0.97226,0.218,6.8059,-0.42299,-1.3435,1.1648,7.6769,-2.559,-1.3647,10.236,3.4615e-07,-0.68234,0,0,0.14286,-1.7764e-15,0,0.66667
0.11972,0.99152,0.83801,0.73728,47.464,259.33,-1.6476,0.5492,-0.066125,-2.1968,7.2879e-09,-0.033063,0,0,0.14286,3.1095e-16,0,0.66667
0.81632,0.66953,5.7142,0.25429,5.4115,16.471,-3.8749,1.2916,-1.7693,-5.1665,8.2867e-10,-0.88463,0,0,0.14286,-0,-0,0.66667
0.83516,0.099316,5.8461,-0.60103,-11.753,14.318,9.3697,-3.1232,-0.71447,12.493,-4.4671e-09,-0.35723,0,0,0.14286,-0,-0,0.66667
0.79157,0.72079,5.541,0.33118,7.924,20.824,-4.8935,1.6312,-1.6098,-6.5246,2.4469e-10,-0.80492,0,0,0.14286,-0,-0,0.66667
0.45482,0.51049,3.1838,0.015738,0.80635,116.63,-0.13362,0.04454,-1.9998,-0.17816,6.0607e-13,-0.99992,0,0,0.14286,-0,-0,0.66667
0.52721,0.28593,3.6905,-0.3211,-14.995,90.975,3.16,-1.0533,-1.6333,4.2134,-5.0848e-13,-0.81663,0,0,0.14286,-0,-0,0.66667
0.98538,0.67792,6.8977,0.26688,0.36997,0.46048,-4.9089,1.6363,-1.7481,-6.5452,4.2113e-08,-0.87407,0,0,0.14286,1.3534e-15,0,0.66667
0.94464,0.25478,6.6125,-0.36782,-2.4243,2.3226,6.4859,-2.162,-1.5179,8.6479,1.5723e-08,-0.75895,0,0,0.14286,-0,-0,0.66667
0.763,0.89419,5.341,0.59128,16.01,26.838,-8.4214,2.8071,-0.75688,-11.229,-1.2683e-12,-0.37844,0,0,0.14286,1.3534e-15,6.3776e-17,0.66667
0.46026,0.91705,3.2218,0.62558,32.102,115.17,-5.3747,1.7916,-0.60683,-7.1663,-6.0174e-13,-0.30342,0,0,0.14286,-0,-0,0.66667
0.54024,0.41633,3.7816,-0.12551,-5.7356,86.443,1.2657,-0.4219,-1.9424,1.6876,2.0883e-13,-0.9712,0,0,0.14286,-0,-0,0.66667
0.80456,0.51223,5.6319,0.018348,0.41207,18.27,-0.27556,0.091853,-1.997,-0.36741,1.2631e-10,-0.99849,0,0,0.14286,-2.7068e-15,0,0.66667
0.27687,0.64853,1.9381,0.22279,13.322,188.72,-1.1514,0.38382,-1.8228,-1.5353,7.3634e-12,-0.91141,0,0,0.14286,-1.6918e-16,0,0.66667
0.25653,0.92592,1.7957,0.63888,38.891,197.84,-3.0594,1.0198,-0.54705,-4.0792,-2.3559e-12,-0.27352,0,0,0.14286,3.3835e-16,0,0.66667
0.21386,0.90675,1.497,0.61013,37.918,216.62,-2.4357,0.8119,-0.67666,-3.2476,3.2203e-10,-0.33833,0,0,0.14286,-6.7671e-16,0,0.66667
0.55121,0.32995,3.8584,-0.25507,-11.47,82.896,2.6244,-0.87481,-1.7676,3.4993,1.4921e-13,-0.8838,0,0,0.14286,-6.7671e-16,0,0.66667
0.9514,0.80414,6.6598,0.45621,2.6593,2.1609,-8.102,2.7007,-1.2609,-10.803,2.0529e-10,-0.63044,0,0,0.14286,-1.3534e-15,0,0.66667
0.23774,0.12669,1.6642,-0.55996,-34.372,206,2.485,-0.82832,-0.88589,3.3133,1.0227e-12,-0.44295,0,0,0.14286,-6.7671e-16,0,0.66667
0.8016,0.91246,5.6112,0.61869,14.333,19.733,-9.2575,3.0858,-0.63837,-12.343,7.4264e-10,-0.31919,0,0,0.14286,-0,-0,0.66667
0.03041,0.58781,0.21287,0.13171,8.5225,300.6,-0.074765,0.024922,-1.9403,-0.099686,-4.8907e-08,-0.97013,0,0,0.14286,-2.1147e-17,0,0.66667
0.50622,0.39804,3.5435,-0.15295,-7.3463,98.087,1.4453,-0.48175,-1.9155,1.927,-5.6477e-13,-0.95774,0,0,0.14286,-0,-0,0.66667
0.28403,0.33822,1.9882,-0.24266,-14.448,185.64,1.2866,-0.42885,-1.7911,1.7154,-4.4837e-12,-0.89555,0,0,0.14286,5.0753e-16,0,0.66667
0.28272,0.82166,1.9791,0.48249,28.838,186.35,-2.5463,0.84878,-1.1733,-3.3951,7.2935e-12,-0.58664,0,0,0.14286,-0,-0,0.66667
0.39197,0.10458,2.7438,-0.59314,-32.668,141.27,4.3399,-1.4466,-0.75011,5.7865,3.1095e-12,-0.37506,0,0,0.14286,-0,-0,0.66667
0.53546,0.88598,3.7482,0.57897,26.844,88.575,-5.7869,1.929,-0.80725,-7.7159,-3.9968e-14,-0.40363,0,0,0.14286,-0,-0,0.66667
0.77289,0.018424,5.4102,-0.72236,-18.972,25.311,10.422,-3.4739,-0.14286,13.896,4.7967e-11,-0.071428,0,0,0.14286,-0,-0,0.66667
0.96166,0.024513,6.7316,-0.71323,-3.465,2.5659,12.803,-4.2677,-0.18999,17.071,-8.5977e-06,-0.094996,0,0,0.14286,-0,-0,0.66667
0.15039,0.88174,1.0527,0.57261,36.425,245.21,-1.6074,0.53581,-0.8331,-2.1432,-3.0872e-09,-0.41655,0,0,0.14286,-0,-0,0.66667
0.39479,0.2005,2.7635,-0.44925,-24.608,139.97,3.3107,-1.1036,-1.2814,4.4143,6.9211e-13,-0.64071,0,0,0.14286,-0,-0,0.66667
0.16274,0.45097,1.1392,-0.073544,-4.6351,239.42,0.22341,-0.074471,-1.979,0.29788,6.4295e-10,-0.98951,0,0,0.14286,-0,-0,0.66667
0.83664,0.37561,5.8565,-0.18659,-3.5555,13.25,2.9141,-0.97135,-1.8759,3.8854,-1.8322e-09,-0.93796,0,0,0.14286,-0,-0,0.66667
0.084802,0.22377,0.59362,-0.41435,-26.708,275.32,0.6559,-0.21863,-1.3885,0.87453,2.1053e-08,-0.69427,0,0,0.14286,-1.6918e-16,0,0.66667
0.85629,0.9379,5.994,0.65685,11.359,11.568,-10.499,3.4997,-0.46711,-13.999,-5.742e-09,-0.23355,0,0,0.14286,-2.7068e-15,8.6174e-18,0.66667
0.74085,0.74376,5.1859,0.36563,10.614,30.94,-5.0564,1.6855,-1.5235,-6.7418,-5.6288e-12,-0.76175,0,0,0.14286,1.1154e-15,0,0.66667
0.85834,0.24122,6.0084,-0.38816,-6.5105,10.552,6.2193,-2.0731,-1.4657,8.2924,-3.9743e-09,-0.73285,0,0,0.14286,-6.7671e-16,0,0.66667
0.88992,0.0033146,6.2294,-0.74503,-10.121,7.9668,12.376,-4.1254,-0.028891,16.502,-1.69e-08,-0.014446,0,0,0.14286,-0,-0,0.66667
0.15078,0.44213,1.0554,-0.086804,-5.4923,244.88,0.24431,-0.081436,-1.9725,0.32574,-2.6556e-10,-0.98626,0,0,0.14286,-3.3835e-16,0,0.66667
0.55669,0.51067,3.8968,0.016011,0.71254,80.994,-0.16638,0.055459,-1.9976,-0.22184,-5.0285e-13,-0.99881,0,0,0.14286,-0,-0,0.66667
0.30252,0.76637,2.1176,0.39955,23.548,177.82,-2.2562,0.75208,-1.4308,-3.0083,8.938e-12,-0.7154,0,0,0.14286,-6.7671e-16,0,0.66667
0.27122,0.35213,1.8986,-0.22181,-13.307,191.16,1.123,-0.37433,-1.8239,1.4973,-6.3183e-13,-0.91193,0,0,0.14286,-0,-0,0.66667
0.016434,0.18353,0.11504,-0.47471,-30.84,307.14,0.14563,-0.048543,-1.201,0.19417,-2.7009e-07,-0.60051,0,0,0.14286,-3.1721e-17,0,0.66667
0.51518,0.65322,3.6063,0.22982,10.909,95.016,-2.2102,0.73672,-1.815,-2.9469,7.867e-13,-0.90748,0,0,0.14286,-1.6918e-16,0,0.66667
0.019049,0.48891,0.13335,-0.016638,-1.0769,305.91,0.0059156,-0.001971,-1.9985,0.0078879,1.2454e-06,-0.99926,0,0,0.14286,-2.1147e-17,0,0.66667
0.89823,0.79698,6.2876,0.44547,5.4543,6.1399,-7.4692,2.4897,-1.2925,-9.9589,1.5303e-08,-0.64626,0,0,0.14286,1.3534e-15,0,0.66667
0.26698,0.79501,1.8689,0.44252,26.682,193.12,-2.2054,0.73512,-1.3046,-2.9405,9.2188e-12,-0.65229,0,0,0.14286,-0,-0,0.66667
0.49337,0.90514,3.4536,0.60771,29.917,103.15,-5.5968,1.8656,-0.68655,-7.4624,-6.7102e-13,-0.34328,0,0,0.14286,3.3835e-16,0,0.66667
0.63642,0.033281,4.4549,-0.70008,-27.161,57.705,8.3168,-2.7723,-0.25763,11.089,2.2329e-12,-0.12881,0,0,0.14286,-2.7068e-15,0,0.66667
0.0014998,0.75922,0.010498,0.38883,25.238,314.11,-0.010885,0.0036282,-1.4634,-0.014514,-4.239e-07,-0.73171,0,0,0.14286,2.6434e-18,2.8153e-16,0.66667
0.11324,0.90119,0.79267,0.60179,38.688,262.24,-1.2721,0.42402,-0.71226,-1.6961,7.0178e-09,-0.35613,0,0,0.14286,-0,-0,0.66667
0.46654,0.28062,3.2658,-0.32907,-16.665,112.45,2.8658,-0.95526,-1.6167,3.821,9.5191e-13,-0.80835,0,0,0.14286,-4.2294e-17,0,0.66667
0.62328,0.50271,4.3629,0.0040617,0.1599,60.49,-0.047255,0.015752,-2.0016,-0.063007,3.1885e-13,-1.0008,0,0,0.14286,-0,-0,0.66667
0.81967,0.030365,5.7377,-0.70445,-15.054,17.032,10.779,-3.5928,-0.23519,14.371,-8.8707e-10,-0.11759,0,0,0.14286,4.5969e-16,0,0.66667
0.41481,0.35281,2.9036,-0.22079,-11.825,131.93,1.7096,-0.56986,-1.8251,2.2794,1.5765e-13,-0.91256,0,0,0.14286,-0,-0,0.66667
0.92685,0.49431,6.488,-0.0085361,-0.073618,3.1128,0.14769,-0.049229,-1.9991,0.19691,-3.4454e-07,-0.99953,0,0,0.14286,-2.0301e-15,0,0.66667
0.59738,0.84056,4.1817,0.51085,21.305,68.662,-5.6965,1.8988,-1.0725,-7.5954,1.954e-13,-0.53623,0,0,0.14286,-0,-0,0.66667
0.0018308,0.99116,0.012816,0.73673,48.118,313.95,-0.025364,0.0084506,-0.0707,-0.033821,-6.0749e-06,-0.03535,0,0,0.14286,-3.9651e-18,5.4928e-16,0.66667
0.68004,0.8623,4.7603,0.54345,18.935,45.624,-6.8986,2.2995,-0.94809,-9.1981,-3.443e-12,-0.47404,0,0,0.14286,6.7671e-16,0,0.66667
0.21277,0.50727,1.4894,0.010899,0.67345,216.86,-0.043287,0.014429,-1.9984,-0.057716,4.8572e-11,-0.99919,0,0,0.14286,-0,-0,0.66667
0.015256,0.051402,0.10679,-0.6729,-43.876,307.7,0.19162,-0.063867,-0.39192,0.25549,8.1402e-06,-0.19596,0,0,0.14286,-2.1147e-17,0,0.66667
0.73575,0.59022,5.1502,0.13533,3.9792,31.785,-1.8587,0.61956,-1.9367,-2.4782,-2.939e-12,-0.96836,0,0,0.14286,6.7671e-16,0,0.66667
0.55191,0.4465,3.8634,-0.080252,-3.5998,82.565,0.82678,-0.27559,-1.976,1.1024,2.0195e-13,-0.98801,0,0,0.14286,-0,-0,0.66667
0.78362,0.30711,5.4853,-0.28934,-7.1519,22.218,4.2323,-1.4108,-1.7031,5.6431,-1.5793e-10,-0.85156,0,0,0.14286,-6.7671e-16,0,0.66667
0.088169,0.094568,0.61718,-0.60815,-39.302,273.81,1.0009,-0.33363,-0.68496,1.3345,-1.5088e-07,-0.34248,0,0,0.14286,-3.3835e-16,0,0.66667
0.3557,0.075972,2.4899,-0.63604,-36.193,155.91,4.2231,-1.4077,-0.56086,5.6309,3.7534e-12,-0.28043,0,0,0.14286,-6.7671e-16,5.475e-17,0.66667
0.2997,0.58124,2.0979,0.12186,7.1772,178.89,-0.68174,0.22725,-1.947,-0.90899,6.3427e-12,-0.9735,0,0,0.14286,-0,-0,0.66667
0.569,0.62994,3.983,0.19491,8.5052,77.09,-2.0702,0.69007,-1.8639,-2.7603,-7.5606e-13,-0.93197,0,0,0.14286,1.3534e-15,0,0.66667
0.51015,0.34994,3.5711,-0.22509,-10.759,96.757,2.1435,-0.71449,-1.8189,2.858,4.8317e-13,-0.90947,0,0,0.14286,-1.3534e-15,0,0.66667
0.78213,0.84185,5.4749,0.51278,12.849,22.933,-7.4864,2.4955,-1.0677,-9.9819,-7.8509e-11,-0.53383,0,0,0.14286,-1.6918e-16,0,0.66667
0.18706,0.10068,1.3094,-0.59898,-37.638,228.61,2.0915,-0.69716,-0.72652,2.7887,-7.7436e-10,-0.36326,0,0,0.14286,-0,-0,0.66667
0.5765,0.95686,4.0355,0.68529,29.826,75.488,-7.3746,2.4582,-0.33092,-9.8328,1.3429e-12,-0.16546,0,0,0.14286,-6.8271e-16,0,0.66667
0.64438,0.26259,4.5106,-0.35611,-13.444,54.762,4.2834,-1.4278,-1.5484,5.7112,2.3728e-12,-0.77418,0,0,0.14286,-0,-0,0.66667
0.45987,0.40907,3.2191,-0.13639,-6.9496,114.78,1.1708,-0.39027,-1.9332,1.5611,3.4694e-13,-0.96659,0,0,0.14286,-0,-0,0.66667
0.55798,0.56017,3.9058,0.09025,4.0087,80.587,-0.94001,0.31334,-1.9711,-1.2533,-9.2926e-14,-0.98554,0,0,0.14286,-8.4588e-16,0,0.66667
0.97433,0.008785,6.8203,-0.73682,-2.4251,2.1991,13.401,-4.467,-0.068367,17.868,5.3488e-06,-0.034184,0,0,0.14286,-0,-0,0.66667
0.75167,0.15333,5.2617,-0.52,-14.62,28.963,7.2962,-2.4321,-1.0403,9.7283,3.4222e-11,-0.52014,0,0,0.14286,-1.5226e-15,0,0.66667
0.38099,0.49936,2.6669,-0.00095643,-0.052858,145.22,0.0068019,-0.0022673,-1.9999,0.0090692,1.7107e-12,-0.99994,0,0,0.14286,2.3262e-16,0,0.66667
0.43402,0.37278,3.0381,-0.19082,-10.015,124.52,1.546,-0.51533,-1.8711,2.0613,-4.1078e-14,-0.93556,0,0,0.14286,2.5377e-16,0,0.66667
0.71283,0.58404,4.9898,0.12605,3.9794,36.987,-1.6773,0.5591,-1.9421,-2.2364,-4.4066e-12,-0.97104,0,0,0.14286,-0,-0,0.66667
0.093712,0.91135,0.65598,0.61703,39.842,271.25,-1.0794,0.35979,-0.64915,-1.4391,3.7713e-08,-0.32457,0,0,0.14286,-0,9.2428e-17,0.66667
0.63781,0.83104,4.4647,0.49657,19.082,56.832,-5.912,1.9707,-1.1231,-7.8827,-1.2212e-13,-0.56153,0,0,0.14286,-1.432e-15,0,0.66667
0.11436,0.68526,0.80051,0.27789,17.778,261.63,-0.59321,0.19774,-1.7253,-0.79095,-8.5183e-09,-0.86265,0,0,0.14286,-1.3532e-16,0,0.66667
0.10185,0.1612,0.71294,-0.5082,-32.698,267.46,0.96618,-0.32206,-1.0806,1.2882,3.2833e-08,-0.5403,0,0,0.14286,-0,-0,0.66667
0.66667,0.38966,4.6667,-0.16551,-5.9156,48.531,2.0597,-0.68657,-1.9011,2.7463,3.8045e-12,-0.95057,0,0,0.14286,-1.3534e-15,0,0.66667
0.1671,0.48798,1.1697,-0.018033,-1.1348,237.44,0.056249,-0.01875,-1.9976,0.074999,7.6838e-10,-0.99882,0,0,0.14286,1.4047e-16,0,0.66667
0.76472,0.57545,5.353,0.11317,3.0054,25.695,-1.6155,0.53849,-1.9557,-2.1539,3.4242e-11,-0.97787,0,0,0.14286,-0,-0,0.66667
0.75059,0.76309,5.2541,0.39463,11.091,28.92,-5.5292,1.8431,-1.4478,-7.3723,6.9256e-12,-0.72391,0,0,0.14286,-0,-0,0.66667
0.31202,0.34367,2.1841,-0.2345,-13.706,173.7,1.3658,-0.45528,-1.8078,1.8211,-4.8523e-12,-0.90389,0,0,0.14286,7.6658e-16,0,0.66667
0.57086,0.56405,3.9961,0.096081,4.1765,76.446,-1.0239,0.34129,-1.9667,-1.3651,-7.2209e-13,-0.98334,0,0,0.14286,-1.3534e-15,0,0.66667
0.64514,0.68013,4.516,0.2702,10.169,54.443,-3.2539,1.0846,-1.7397,-4.3386,-1.473e-12,-0.86985,0,0,0.14286,-0,-0,0.66667
0.81146,0.63461,5.6803,0.20191,4.3961,17.207,-3.0585,1.0195,-1.8564,-4.078,5.5923e-10,-0.9282,0,0,0.14286,-0,-0,0.66667
0.20147,0.54579,1.4103,0.068685,4.2655,221.92,-0.2583,0.086101,-1.9838,-0.3444,-1.2827e-10,-0.9919,0,0,0.14286,-3.3835e-16,0,0.66667
0.67624,0.97175,4.7337,0.70763,25.045,47.028,-8.9326,2.9775,-0.21957,-11.91,-6.2617e-13,-0.10979,0,0,0.14286,-0,-0,0.66667
0.82289,0.74368,5.7602,0.36552,7.5473,15.597,-5.6146,1.8715,-1.5241,-7.4861,1.0543e-09,-0.76205,0,0,0.14286,6.7671e-16,0,0.66667
0.41439,0.62937,2.9007,0.19406,10.396,132.08,-1.5011,0.50035,-1.8651,-2.0014,-1.2843e-12,-0.93255,0,0,0.14286,-0,-0,0.66667
0.4937,0.79912,3.4559,0.44868,22.001,102.78,-4.1349,1.3783,-1.2825,-5.5132,2.2204e-15,-0.64125,0,0,0.14286,-0,-0,0.66667
0.51425,0.092599,3.5997,-0.6111,-29.247,95.852,5.8662,-1.9554,-0.67447,7.8216,-8.4155e-13,-0.33723,0,0,0.14286,7.5283e-16,0,0.66667
0.93933,0.20945,6.5753,-0.43583,-3.1819,2.8061,7.6419,-2.5473,-1.3253,10.189,-2.8359e-08,-0.66267,0,0,0.14286,-6.7671e-16,0,0.66667
0.051651,0.18478,0.36156,-0.47283,-30.643,290.73,0.45588,-0.15196,-1.2049,0.60784,2.5386e-08,-0.60247,0,0,0.14286,1.0574e-16,0,0.66667
0.57155,0.32931,4.0009,-0.25603,-11.131,76.327,2.7316,-0.91054,-1.7651,3.6422,1.6209e-14,-0.88257,0,0,0.14286,6.7671e-16,0,0.66667
0.48976,0.46441,3.4283,-0.05338,-2.62,103.88,0.48801,-0.16267,-1.9892,0.65068,5.3599e-13,-0.99462,0,0,0.14286,2.9e-16,0,0.66667
0.34383,0.10821,2.4068,-0.58769,-33.724,160.72,3.7719,-1.2573,-0.774,5.0292,2.3741e-12,-0.387,0,0,0.14286,-0,-0,0.66667
0.66992,0.35388,4.6894,-0.21918,-7.7762,47.72,2.7408,-0.91361,-1.8297,3.6545,3.4761e-12,-0.91487,0,0,0.14286,1.3534e-15,0,0.66667
0.76944,0.22449,5.3861,-0.41327,-10.847,25.138,5.9357,-1.9786,-1.3926,7.9142,-7.2078e-11,-0.69629,0,0,0.14286,2.7068e-15,0,0.66667
0.54006,0.79796,3.7804,0.44694,20.515,86.811,-4.5057,1.5019,-1.2879,-6.0076,5.1958e-14,-0.64396,0,0,0.14286,-0,-0,0.66667
0.041638,0.089342,0.29147,-0.61599,-40.058,295.41,0.47877,-0.15959,-0.65029,0.63836,2.0694e-06,-0.32515,0,0,0.14286,-2.1147e-17,0,0.66667
0.23508,0.4534,1.6456,-0.069903,-4.2742,206.95,0.30675,-0.10225,-1.984,0.40899,2.6498e-11,-0.99201,0,0,0.14286,-0,-0,0.66667
0.02044,0.65854,0.14308,0.2378,15.405,305.26,-0.090733,0.030244,-1.7989,-0.12098,-1.0695e-09,-0.89943,0,0,0.14286,-0,-0,0.66667
0.32778,0.89207,2.2944,0.58811,34.163,167.37,-3.5984,1.1995,-0.77198,-4.7978,3.6926e-12,-0.38599,0,0,0.14286,-0,1.6772e-16,0.66667
0.46806,0.51805,3.2764,0.02708,1.3659,111.74,-0.2366,0.078867,-1.9988,-0.31547,-1.3005e-12,-0.99942,0,0,0.14286,1.3534e-15,0,0.66667
0.78457,0.58986,5.492,0.13479,3.3094,21.882,-1.974,0.658,-1.9358,-2.632,1.6855e-10,-0.96789,0,0,0.14286,-0,-0,0.66667
0.53227,0.86651,3.7259,0.54976,25.593,89.59,-5.4623,1.8208,-0.92684,-7.2831,-2.3359e-13,-0.46342,0,0,0.14286,6.7671e-16,0,0.66667
0.47743,0.57581,3.342,0.11372,5.6713,108.34,-1.0135,0.33782,-1.9522,-1.3513,-4.9605e-13,-0.9761,0,0,0.14286,6.7671e-16,0,0.66667
0.69795,0.16356,4.8856,-0.50466,-16.749,41.072,6.5749,-2.1916,-1.0935,8.7665,6.2674e-12,-0.54676,0,0,0.14286,-0,-0,0.66667
0.017417,0.65799,0.12192,0.23698,15.354,306.67,-0.077048,0.025683,-1.8021,-0.10273,-1.8181e-08,-0.90107,0,0,0.14286,4.2294e-17,0,0.66667
0.69499,0.7636,4.8649,0.3954,13.189,41.583,-5.1296,1.7099,-1.4423,-6.8394,-7.3168e-12,-0.72113,0,0,0.14286,-0,-0,0.66667
0.31196,0.66653,2.1837,0.24979,14.602,173.73,-1.4546,0.48486,-1.7799,-1.9394,6.8239e-12,-0.88996,0,0,0.14286,-0,-0,0.66667
0.55979,0.62212,3.9185,0.18318,8.1168,80.043,-1.9141,0.63803,-1.8816,-2.5521,-7.2153e-13,-0.94082,0,0,0.14286,-0,-0,0.66667
0.60681,0.15223,4.2476,-0.52166,-21.375,65.85,5.9089,-1.9696,-1.0333,7.8785,6.1862e-13,-0.51663,0,0,0.14286,3.593e-16,0,0.66667
0.18214,0.49022,1.275,-0.014664,-0.91769,230.62,0.049857,-0.016619,-1.998,0.066476,-2.4399e-10,-0.99898,0,0,0.14286,-0,-0,0.66667
0.25027,0.47403,1.7519,-0.038954,-2.3629,200.26,0.18198,-0.060661,-1.9972,0.24264,9.1702e-12,-0.99858,0,0,0.14286,-0,-0,0.66667
0.57882,0.25958,4.0517,-0.36063,-15.506,74.149,3.8965,-1.2988,-1.5392,5.1953,2.2382e-13,-0.76962,0,0,0.14286,-0,-0,0.66667
0.26262,0.56729,1.8384,0.10093,6.0816,194.86,-0.4948,0.16493,-1.9642,-0.65973,-6.487e-13,-0.98211,0,0,0.14286,-0,-0,0.66667
0.23942,0.14642,1.6759,-0.53036,-32.51,205.24,2.3703,-0.79009,-0.99871,3.1604,1.221e-11,-0.49935,0,0,0.14286,-3.3835e-16,0,0.66667
0.35903,0.53876,2.5132,0.058144,3.2753,154.11,-0.38968,0.12989,-1.9902,-0.51957,1.6691e-12,-0.99509,0,0,0.14286,-0,-0,0.66667
0.90441,0.57822,6.3309,0.11734,1.3287,5.0323,-1.9809,0.6603,-1.9515,-2.6412,4.6757e-09,-0.97574,0,0,0.14286,-0,-0,0.66667
0.86921,0.8369,6.0845,0.50535,7.9106,9.4696,-8.1994,2.7331,-1.0909,-10.933,7.3875e-09,-0.54545,0,0,0.14286,6.7671e-16,0,0.66667
0.51404,0.81544,3.5983,0.47316,22.579,95.686,-4.5401,1.5134,-1.2057,-6.0535,-1.3101e-13,-0.60287,0,0,0.14286,-1.3534e-15,0,0.66667
0.051748,0.067147,0.36223,-0.64928,-42.211,290.72,0.62717,-0.20906,-0.50061,0.83623,4.7544e-07,-0.25031,0,0,0.14286,-0,-0,0.66667
0.80034,0.68407,5.6024,0.2761,6.345,19.188,-4.1249,1.375,-1.7293,-5.4999,4.0751e-10,-0.86466,0,0,0.14286,-2.0301e-15,0,0.66667
0.18119,0.35672,1.2683,-0.21492,-13.466,231.08,0.72691,-0.2423,-1.8341,0.96922,7.8707e-10,-0.91703,0,0,0.14286,3.3835e-16,0,0.66667
0.66874,0.1063,4.6812,-0.59055,-21.197,48.653,7.3719,-2.4573,-0.75962,9.8292,1.1777e-12,-0.37981,0,0,0.14286,1.3534e-15,-6.0559e-17,0.66667
0.83537,0.12587,5.8476,-0.56119,-10.934,14.166,8.751,-2.917,-0.87986,11.668,2.2355e-09,-0.43993,0,0,0.14286,-0,-0,0.66667
0.9648,0.024871,6.7536,-0.71269,-3.1803,2.4338,12.835,-4.2784,-0.1937,17.114,-2.4308e-06,-0.09685,0,0,0.14286,-1.3534e-15,-1.0994e-16,0.66667
0.12685,0.044622,0.88792,-0.68307,-43.841,256.03,1.6174,-0.53912,-0.34151,2.1565,8.3278e-09,-0.17076,0,0,0.14286,-0,-0,0.66667
0.52331,0.95731,3.6632,0.68596,32.477,92.901,-6.7008,2.2336,-0.3252,-8.9344,-1.4655e-13,-0.1626,0,0,0.14286,6.7671e-16,0,0.66667
0.85061,0.63851,5.9543,0.20777,3.6409,11.294,-3.299,1.0997,-1.8447,-4.3987,2.2686e-09,-0.92235,0,0,0.14286,-0,-0,0.66667
0.53761,0.51156,3.7633,0.017343,0.79549,87.295,-0.17405,0.058016,-1.9973,-0.23206,-3.3896e-13,-0.99864,0,0,0.14286,-0,-0,0.66667
0.73005,0.98469,5.1103,0.72704,22.158,34.207,-9.9077,3.3026,-0.11948,-13.21,5.9774e-13,-0.05974,0,0,0.14286,-8.6455e-16,0,0.66667
0.78546,0.66195,5.4982,0.24292,5.9525,21.816,-3.5617,1.1872,-1.7898,-4.7489,2.009e-10,-0.89491,0,0,0.14286,-0,-0,0.66667
0.8366,0.44765,5.8562,-0.078532,-1.4945,13.183,1.2264,-0.4088,-1.9764,1.6352,-8.4977e-10,-0.98821,0,0,0.14286,-0,-0,0.66667
0.66653,0.9183,4.6657,0.62745,22.672,49.326,-7.8067,2.6022,-0.59878,-10.409,-3.8813e-13,-0.29939,0,0,0.14286,-0,-0,0.66667
0.89774,0.63682,6.2842,0.20523,2.4913,5.7511,-3.4392,1.1464,-1.8485,-4.5856,1.0468e-08,-0.92424,0,0,0.14286,-0,-0,0.66667
0.64779,0.7446,4.5345,0.36689,13.749,53.836,-4.4365,1.4788,-1.5202,-5.9154,-2.3053e-12,-0.76012,0,0,0.14286,3.3835e-16,0,0.66667
0.94464,0.42481,6.6125,-0.11278,-0.72896,1.9622,1.9886,-0.66288,-1.953,2.6515,9.5657e-08,-0.97648,0,0,0.14286,1.3534e-15,0,0.66667
0.6293,0.61683,4.4051,0.17524,6.8186,58.817,-2.0586,0.68619,-1.8901,-2.7448,-7.9869e-13,-0.94505,0,0,0.14286,-0,-0,0.66667
0.87243,0.7129,6.107,0.31936,4.8314,8.6683,-5.2008,1.7336,-1.6379,-6.9344,6.7545e-09,-0.81897,0,0,0.14286,-0,-0,0.66667
0.59566,0.60651,4.1696,0.15977,6.6456,68.751,-1.7764,0.59214,-1.9097,-2.3686,5.7609e-13,-0.95484,0,0,0.14286,-1.3534e-15,0,0.66667
0.34435,0.44667,2.4104,-0.080001,-4.5608,160.14,0.51424,-0.17141,-1.979,0.68565,1.1219e-12,-0.98952,0,0,0.14286,-6.7671e-16,0,0.66667
0.81346,0.022646,5.6942,-0.71603,-15.788,18.072,10.873,-3.6242,-0.17858,14.497,-6.9605e-10,-0.089291,0,0,0.14286,-0,-0,0.66667
0.43238,0.44689,3.0267,-0.079663,-4.1857,125.11,0.64297,-0.21432,-1.9763,0.85729,-3.2752e-15,-0.98814,0,0,0.14286,-0,-0,0.66667
0.12655,0.58318,0.88582,0.12477,7.9502,255.99,-0.29473,0.098242,-1.9455,-0.39297,-4.3301e-09,-0.97275,0,0,0.14286,1.6918e-16,0,0.66667
0.96857,0.34168,6.78,-0.23748,-0.83537,0.92871,4.2937,-1.4312,-1.8027,5.7249,4.2201e-08,-0.90133,0,0,0.14286,-1.5226e-15,0,0.66667
0.85256,0.45814,5.9679,-0.062792,-1.0841,10.925,0.9993,-0.3331,-1.9843,1.3324,-1.7875e-09,-0.99216,0,0,0.14286,-1.3534e-15,0,0.66667
0.56126,0.38188,3.9288,-0.17719,-7.8319,79.565,1.8563,-0.61878,-1.8898,2.4751,2.9932e-13,-0.94492,0,0,0.14286,-0,-0,0.66667
0.67061,0.97878,4.6943,0.71817,25.784,48.513,-8.9901,2.9967,-0.16729,-11.987,3.2063e-13,-0.083643,0,0,0.14286,-0,1.4748e-16,0.66667
0.99772,0.18062,6.9841,-0.47907,0.023154,0.73735,8.9222,-2.9741,-1.1846,11.896,-8.5246e-07,-0.59231,0,0,0.14286,-6.7671e-16,-1.1615e-16,0.66667
0.16131,0.51522,1.1292,0.02283,1.4395,240.07,-0.068744,0.022915,-1.9967,-0.091659,-4.1894e-10,-0.99837,0,0,0.14286,-0,-0,0.66667
0.53454,0.58657,3.7418,0.12986,5.9865,88.353,-1.2958,0.43192,-1.94,-1.7277,-2.7633e-13,-0.96999,0,0,0.14286,3.3835e-16,0,0.66667
0.39098,0.9898,2.7369,0.73471,40.646,141.89,-5.3621,1.7874,-0.082681,-7.1494,-7.9936e-15,-0.04134,0,0,0.14286,-1.0151e-15,0,0.66667
0.54115,0.97415,3.788,0.71122,32.817,86.964,-7.1843,2.3948,-0.2006,-9.5791,4.6763e-13,-0.1003,0,0,0.14286,-0,-0,0.66667
0.10338,0.37075,0.72364,-0.19387,-12.425,266.68,0.37412,-0.12471,-1.8656,0.49882,1.2245e-08,-0.93279,0,0,0.14286,-2.1147e-16,0,0.66667
0.44074,0.055551,3.0852,-0.66667,-35.013,122.53,5.4848,-1.8283,-0.41972,7.3131,1.7422e-12,-0.20986,0,0,0.14286,-3.3835e-16,0,0.66667
0.46146,0.5814,3.2302,0.1221,6.209,114.19,-1.0517,0.35058,-1.9452,-1.4023,7.4585e-13,-0.97259,0,0,0.14286,-5.4648e-16,0,0.66667
0.59589,0.23974,4.1712,-0.39039,-16.283,68.914,4.3424,-1.4475,-1.4585,5.7899,1.5943e-13,-0.72926,0,0,0.14286,-0,-0,0.66667
0.66238,0.4353,4.6366,-0.097048,-3.503,49.632,1.1999,-0.39998,-1.9661,1.5999,1.8411e-12,-0.98303,0,0,0.14286,6.7671e-16,0,0.66667
0.59015,0.89184,4.131,0.58776,24.894,71.025,-6.4748,2.1583,-0.77096,-8.6331,5.4357e-13,-0.38548,0,0,0.14286,6.7671e-16,0,0.66667
0.72938,0.65646,5.1057,0.23469,7.0523,33.28,-3.1953,1.0651,-1.8045,-4.2604,-4.3441e-12,-0.90223,0,0,0.14286,-0,-0,0.66667
0.5809,0.85343,4.0663,0.53015,22.794,73.769,-5.7487,1.9162,-1.0007,-7.665,2.2515e-13,-0.50034,0,0,0.14286,-0,-0,0.66667
0.4431,0.15497,3.1017,-0.51754,-27.016,121.4,4.2807,-1.4269,-1.0475,5.7076,9.206e-13,-0.52376,0,0,0.14286,-2.7276e-16,0,0.66667
0.49679,0.92105,3.4775,0.63158,30.972,101.99,-5.8569,1.9523,-0.58121,-7.8092,2.4114e-13,-0.2906,0,0,0.14286,-6.7671e-16,2.1557e-16,0.66667
0.43009,0.22275,3.0106,-0.41587,-21.976,126.21,3.3387,-1.1129,-1.3841,4.4516,1.3911e-12,-0.69207,0,0,0.14286,-1.3534e-15,0,0.66667
0.21007,0.5939,1.4705,0.14084,8.7165,218.07,-0.5523,0.1841,-1.9293,-0.7364,-2.0783e-10,-0.96465,0,0,0.14286,-0,-0,0.66667
0.2268,0.012168,1.5876,-0.73175,-45.328,210.99,3.0979,-1.0326,-0.094345,4.1306,-4.6101e-11,-0.047172,0,0,0.14286,-0,-0,0.66667
0.45739,0.63807,3.2017,0.2071,10.588,115.74,-1.7682,0.5894,-1.8465,-2.3576,5.7732e-13,-0.92323,0,0,0.14286,-0,-0,0.66667
0.43355,0.32222,3.0349,-0.26667,-14.012,124.75,2.1581,-0.71938,-1.7465,2.8775,4.2522e-13,-0.87324,0,0,0.14286,-0,-0,0.66667
0.77928,0.45019,5.455,-0.07471,-1.8737,22.842,1.0868,-0.36226,-1.9805,1.449,-4.8535e-11,-0.99027,0,0,0.14286,-1.3534e-15,0,0.66667
0.42086,0.38199,2.946,-0.17701,-9.4187,129.56,1.3906,-0.46353,-1.8902,1.8541,3.0065e-13,-0.94512,0,0,0.14286,-0,-0,0.66667
0.67337,0.689,4.7136,0.28349,9.9817,46.887,-3.5634,1.1878,-1.7163,-4.7512,-5.9714e-12,-0.85817,0,0,0.14286,2.7068e-15,0,0.66667
0.16604,0.71684,1.1623,0.32526,20.51,237.98,-1.0081,0.33603,-1.6235,-1.3441,-1.6956e-09,-0.81176,0,0,0.14286,4.4752e-16,0,0.66667
0.82406,0.98348,5.7684,0.72522,15.178,16.42,-11.156,3.7185,-0.12901,-14.874,-6.0707e-11,-0.064504,0,0,0.14286,1.3534e-15,0,0.66667
0.68541,0.30098,4.7978,-0.29852,-10.195,43.825,3.8194,-1.2731,-1.6835,5.0925,6.4646e-12,-0.84175,0,0,0.14286,-0,-0,0.66667
0.78905,0.74114,5.5234,0.36171,8.7566,21.333,-5.3276,1.7759,-1.5332,-7.1035,2.1777e-10,-0.76662,0,0,0.14286,-0,-0,0.66667
0.35948,0.98533,2.5164,0.72799,41.391,154.51,-4.8851,1.6284,-0.11765,-6.5134,2.3856e-12,-0.058827,0,0,0.14286,-6.7671e-16,0,0.66667
0.66255,0.62731,4.6378,0.19097,6.8955,49.642,-2.3618,0.78727,-1.8698,-3.1491,-3.1672e-12,-0.93491,0,0,0.14286,-0,-0,0.66667
0.21709,0.49256,1.5196,-0.011164,-0.68851,214.93,0.045242,-0.015081,-2.0006,0.060322,-3.3808e-11,-1.0003,0,0,0.14286,-3.3835e-16,0,0.66667
0.22101,0.67497,1.547,0.26245,16.175,213.23,-1.0827,0.36091,-1.7553,-1.4436,-1.2548e-10,-0.87764,0,0,0.14286,3.3835e-16,0,0.66667
0.24246,0.15272,1.6972,-0.52092,-31.875,203.89,2.3576,-0.78586,-1.0343,3.1435,-2.0536e-11,-0.51716,0,0,0.14286,5.0753e-16,0,0.66667
0.26459,0.13852,1.8521,-0.54222,-32.794,194.24,2.678,-0.89267,-0.9558,3.5707,-4.8361e-12,-0.4779,0,0,0.14286,-0,-0,0.66667
0.40841,0.23231,2.8589,-0.40153,-21.69,134.56,3.0611,-1.0204,-1.427,4.0815,1.3203e-12,-0.71349,0,0,0.14286,6.7671e-16,0,0.66667
0.8287,0.83192,5.8009,0.49789,10.028,14.992,-7.7018,2.5673,-1.1202,-10.269,1.1082e-09,-0.56012,0,0,0.14286,-0,-0,0.66667
0.94742,0.63041,6.6319,0.19561,1.2023,1.8764,-3.4594,1.1531,-1.8631,-4.6125,-4.5604e-08,-0.93154,0,0,0.14286,2.7068e-15,0,0.66667
0.63246,0.10229,4.4272,-0.59657,-23.258,58.556,7.0431,-2.3477,-0.73305,9.3907,4.13e-13,-0.36652,0,0,0.14286,-0,-0,0.66667
0.13474,0.43952,0.94317,-0.090721,-5.7673,252.22,0.22817,-0.076058,-1.9704,0.30423,6.0938e-09,-0.98519,0,0,0.14286,3.3835e-16,0,0.66667
0.41999,0.4292,2.94,-0.1062,-5.6535,129.87,0.83256,-0.27752,-1.9607,1.1101,1.233e-12,-0.98034,0,0,0.14286,-6.7671e-16,0,0.66667
0.93619,0.74681,6.5533,0.37021,2.8251,2.8548,-6.4696,2.1565,-1.5146,-8.6261,1.0559e-08,-0.75732,0,0,0.14286,-0,-0,0.66667
0.32054,0.37835,2.2438,-0.18248,-10.597,170.09,1.0919,-0.36395,-1.8808,1.4558,-2.4495e-12,-0.94038,0,0,0.14286,-0,-0,0.66667
0.61928,0.15504,4.335,-0.51744,-20.683,62.168,5.9816,-1.9939,-1.0479,7.9754,-6.5148e-13,-0.52393,0,0,0.14286,1.6072e-15,0,0.66667
0.93513,0.66733,6.5459,0.25099,1.9284,2.7092,-4.3813,1.4604,-1.7762,-5.8417,-1.1016e-08,-0.8881,0,0,0.14286,-0,-0,0.66667
0.46068,0.94583,3.2248,0.66875,34.339,115.1,-5.7508,1.9169,-0.40835,-7.6678,-3.344e-13,-0.20417,0,0,0.14286,-0,-0,0.66667
0.5004,0.9102,3.5028,0.61531,30.017,100.68,-5.7475,1.9158,-0.6565,-7.6633,-3.2152e-13,-0.32825,0,0,0.14286,-0,-0,0.66667
0.91869,0.20322,6.4309,-0.44518,-4.3691,4.3141,7.6343,-2.5448,-1.2949,10.179,-3.315e-08,-0.64743,0,0,0.14286,-1.3534e-15,0,0.66667
0.92982,0.53804,6.5088,0.057065,0.47181,2.9049,-0.99047,0.33016,-1.9871,-1.3206,-1.0769e-07,-0.99353,0,0,0.14286,-0,-0,0.66667
0.90449,0.61406,6.3314,0.1711,1.9388,5.0689,-2.8888,0.96292,-1.8966,-3.8517,3.4153e-09,-0.94828,0,0,0.14286,1.3534e-15,0,0.66667
0.51363,0.47578,3.5954,-0.036323,-1.7259,95.469,0.34826,-0.11609,-1.9961,0.46434,-6.5234e-13,-0.99807,0,0,0.14286,1.3534e-15,0,0.66667
0.63981,0.044453,4.4787,-0.68332,-26.301,56.71,8.161,-2.7203,-0.34115,10.881,6.6436e-13,-0.17058,0,0,0.14286,-0,-0,0.66667
0.58901,0.51044,4.123,0.015665,0.65924,70.744,-0.17223,0.057411,-1.998,-0.22964,-5.8389e-13,-0.99902,0,0,0.14286,2.7068e-15,0,0.66667
0.15849,0.46472,1.1095,-0.052914,-3.3395,241.36,0.15655,-0.052183,-1.9911,0.20873,9.4677e-10,-0.99556,0,0,0.14286,8.4588e-17,0,0.66667
0.62345,0.88361,4.3641,0.57541,22.843,61.083,-6.6965,2.2322,-0.82377,-8.9286,5.7421e-13,-0.41188,0,0,0.14286,-1.3534e-15,0,0.66667
0.31914,0.89431,2.234,0.59146,34.576,170.99,-3.5235,1.1745,-0.75446,-4.6981,4.355e-12,-0.37723,0,0,0.14286,3.3835e-16,0,0.66667
0.13074,0.89931,0.91515,0.59896,38.337,254.21,-1.4617,0.48724,-0.72333,-1.9489,-1.403e-08,-0.36167,0,0,0.14286,8.4588e-17,0,0.66667
0.215,0.12075,1.505,-0.56888,-35.308,216.08,2.2831,-0.76105,-0.84941,3.0442,3.0374e-10,-0.42471,0,0,0.14286,4.2294e-16,0,0.66667
0.31366,0.18441,2.1956,-0.47338,-27.719,173.17,2.7716,-0.92388,-1.2053,3.6955,-9.2415e-13,-0.60267,0,0,0.14286,-8.4588e-17,0,0.66667
0.95145,0.24594,6.6602,-0.38108,-2.1939,1.9718,6.7682,-2.2561,-1.4851,9.0243,4.9594e-08,-0.74257,0,0,0.14286,-6.7671e-16,0,0.66667
0.99077,0.53119,6.9354,0.046786,0.028997,0.13716,-0.86527,0.28842,-1.9921,-1.1537,-2.338e-06,-0.99607,0,0,0.14286,-5.604e-16,0,0.66667
0.86689,0.43779,6.0682,-0.093308,-1.4613,9.0875,1.5099,-0.5033,-1.9688,2.0132,-6.2425e-09,-0.9844,0,0,0.14286,2.7068e-15,0,0.66667
0.46186,0.90018,3.233,0.60027,30.726,114.54,-5.1752,1.7251,-0.71765,-6.9002,-4.21e-13,-0.35883,0,0,0.14286,6.7671e-16,0,0.66667
0.46562,0.73428,3.2593,0.35141,17.822,112.81,-3.0543,1.0181,-1.5605,-4.0724,-3.4572e-13,-0.78023,0,0,0.14286,6.7671e-16,0,0.66667
0.76473,0.7609,5.3531,0.39135,10.449,26.027,-5.5865,1.8622,-1.4568,-7.4486,3.4631e-11,-0.72842,0,0,0.14286,1.3534e-15,0,0.66667
0.098408,0.80443,0.68886,0.45664,29.378,269.03,-0.83883,0.27961,-1.2577,-1.1184,-1.6485e-08,-0.62887,0,0,0.14286,-0,-0,0.66667
0.99404,0.64014,6.9583,0.21021,0.050294,0.21202,-3.9004,1.3001,-1.8412,-5.2006,5.5123e-08,-0.92061,0,0,0.14286,-0,-0,0.66667
0.69221,0.81168,4.8455,0.46752,15.742,42.402,-6.0409,2.0136,-1.2231,-8.0546,-4.7411e-12,-0.61156,0,0,0.14286,-3.3835e-16,0,0.66667
0.29929,0.62281,2.095,0.18422,10.856,179.08,-1.0292,0.34305,-1.8806,-1.3722,7.3618e-12,-0.94031,0,0,0.14286,8.4588e-17,0,0.66667
0.90885,0.68066,6.3619,0.27099,2.9431,4.7959,-4.5974,1.5325,-1.7393,-6.1299,1.0533e-08,-0.86966,0,0,0.14286,6.7671e-16,0,0.66667
0.55258,0.61331,3.8681,0.16997,7.6199,82.384,-1.7532,0.5844,-1.8958,-2.3376,-7.7804e-13,-0.94789,0,0,0.14286,-0,-0,0.66667
0.08519,0.40236,0.59633,-0.14646,-9.4168,275.1,0.2329,-0.077632,-1.9228,0.31053,1.9225e-08,-0.96142,0,0,0.14286,4.2294e-17,0,0.66667
0.10825,0.20183,0.75772,-0.44725,-28.71,264.49,0.90371,-0.30124,-1.2898,1.2049,1.2729e-08,-0.6449,0,0,0.14286,-0,-0,0.66667
0.031665,0.03733,0.22165,-0.694,-45.238,300.06,0.41021,-0.13674,-0.28983,0.54695,-8.8024e-06,-0.14491,0,0,0.14286,-0,-0,0.66667
0.21619,0.15132,1.5134,-0.52302,-32.417,215.51,2.1107,-0.70358,-1.0281,2.8143,-5.9204e-11,-0.51404,0,0,0.14286,2.126e-16,0,0.66667
0.051414,0.59795,0.3599,0.14693,9.4917,290.81,-0.14101,0.047004,-1.923,-0.18802,-8.3573e-09,-0.96148,0,0,0.14286,1.6918e-16,0,0.66667
0.51027,0.037254,3.5719,-0.69412,-33.483,97.4,6.6115,-2.2038,-0.28607,8.8154,1.664e-12,-0.14304,0,0,0.14286,-1.3534e-15,0,0.66667
0.08294,0.12949,0.58058,-0.55576,-35.914,276.22,0.86044,-0.28681,-0.90135,1.1473,4.6384e-08,-0.45067,0,0,0.14286,-0,-0,0.66667
0.44312,0.93707,3.1019,0.6556,34.332,121.61,-5.4229,1.8076,-0.47181,-7.2305,1.7453e-13,-0.2359,0,0,0.14286,-2.7491e-16,0,0.66667
0.2362,0.86588,1.6534,0.54883,33.707,206.67,-2.4198,0.8066,-0.92977,-3.2264,9.3832e-12,-0.46489,0,0,0.14286,-3.3835e-16,0,0.66667
0.55972,0.38976,3.918,-0.16536,-7.3272,80.055,1.7277,-0.57591,-1.9025,2.3036,3.1053e-13,-0.95127,0,0,0.14286,-0,-0,0.66667
0.43897,0.0036207,3.0728,-0.74457,-39.265,123.35,6.101,-2.0337,-0.0306,8.1347,-6.1728e-14,-0.0153,0,0,0.14286,-0,-0,0.66667
0.83754,0.77516,5.8628,0.41273,7.882,13.472,-6.4527,2.1509,-1.3932,-8.6036,1.9188e-09,-0.69661,0,0,0.14286,6.7671e-16,0,0.66667
0.33654,0.45015,2.3558,-0.074772,-4.2886,163.37,0.46973,-0.15658,-1.9783,0.62631,6.0818e-13,-0.98915,0,0,0.14286,-0,-0,0.66667
0.23023,0.54214,1.6116,0.063215,3.8745,209.09,-0.27168,0.090558,-1.9849,-0.36223,-1.4784e-11,-0.99246,0,0,0.14286,-0,-0,0.66667
0.94012,0.40432,6.5808,-0.14353,-1.0088,2.2614,2.5187,-0.83957,-1.9279,3.3583,-5.1674e-08,-0.96397,0,0,0.14286,-0,-0,0.66667
0.46636,0.43249,3.2645,-0.10127,-5.1192,112.37,0.88159,-0.29386,-1.9643,1.1755,-6.27e-13,-0.98217,0,0,0.14286,3.3835e-16,0,0.66667
0.028158,0.27018,0.1971,-0.34473,-22.346,301.66,0.1812,-0.060399,-1.5772,0.24159,-1.5335e-07,-0.78858,0,0,0.14286,4.2294e-17,0,0.66667
0.079436,0.52244,0.55605,0.03366,2.1657,277.77,-0.049912,0.016637,-1.9972,-0.066549,1.891e-08,-0.99858,0,0,0.14286,-0,-0,0.66667
0.55557,0.05728,3.889,-0.66408,-29.911,82.118,6.887,-2.2957,-0.4309,9.1826,3.4772e-13,-0.21545,0,0,0.14286,-0,-0,0.66667
0.21077,0.24305,1.4754,-0.38543,-23.897,217.85,1.5164,-0.50548,-1.4704,2.0219,1.9872e-10,-0.73521,0,0,0.14286,-1.6918e-16,0,0.66667
0.14824,0.15645,1.0376,-0.51533,-32.77,246.16,1.426,-0.47532,-1.0555,1.9013,-7.5885e-10,-0.52777,0,0,0.14286,-0,-0,0.66667
0.19553,0.38159,1.3687,-0.17762,-11.063,224.6,0.6483,-0.2161,-1.8865,0.8644,4.3017e-10,-0.94325,0,0,0.14286,-0,-0,0.66667
0.74475,0.91589,5.2132,0.62384,18.039,30.694,-8.6726,2.8909,-0.61505,-11.563,-1.2585e-12,-0.30753,0,0,0.14286,-0,-0,0.66667
0.94901,0.069248,6.6431,-0.64613,-4.0977,2.9069,11.446,-3.8154,-0.51517,15.261,-4.9451e-07,-0.25758,0,0,0.14286,-0,-1.04e-16,0.66667
0.12938,0.50742,0.90565,0.01113,0.70846,254.68,-0.026879,0.0089595,-1.9989,-0.035838,-1.2581e-09,-0.99945,0,0,0.14286,-0,-0,0.66667
0.87978,0.84159,6.1585,0.51239,7.4057,8.2556,-8.4147,2.8049,-1.0665,-11.22,-4.8289e-09,-0.53325,0,0,0.14286,-1.8609e-15,0,0.66667
0.71192,0.8544,4.9834,0.5316,16.974,37.792,-7.0646,2.3549,-0.99353,-9.4194,-5.6746e-12,-0.49677,0,0,0.14286,-0,-0,0.66667
0.55684,0.51423,3.8979,0.021348,0.9498,80.943,-0.2219,0.073965,-1.9968,-0.29586,-9.7886e-13,-0.9984,0,0,0.14286,-0,-0,0.66667
0.067019,0.071265,0.46913,-0.6431,-41.728,283.62,0.80453,-0.26818,-0.52863,1.0727,-1.941e-07,-0.26431,0,0,0.14286,-0,-0,0.66667
0.78774,0.15648,5.5142,-0.51528,-12.616,21.902,7.577,-2.5257,-1.0558,10.103,1.188e-10,-0.52791,0,0,0.14286,-0,-0,0.66667
0.81228,0.093668,5.686,-0.6095,-13.426,17.908,9.2415,-3.0805,-0.68271,12.322,1.2899e-09,-0.34136,0,0,0.14286,1.7839e-15,0,0.66667
0.75458,0.67652,5.2821,0.26479,7.314,27.89,-3.7296,1.2432,-1.7496,-4.9729,2.2472e-11,-0.87482,0,0,0.14286,-0,-0,0.66667
0.55049,0.64035,3.8534,0.21052,9.4729,83.096,-2.1633,0.72109,-1.8417,-2.8844,-1.1e-12,-0.92084,0,0,0.14286,6.7671e-16,0,0.66667
0.6316,0.10491,4.4212,-0.59263,-23.143,58.789,6.9871,-2.329,-0.74958,9.3161,-2.8511e-13,-0.37479,0,0,0.14286,1.3534e-15,0,0.66667
0.43666,0.89167,3.0566,0.58751,30.933,123.94,-4.7888,1.5963,-0.77402,-6.3851,4.3432e-13,-0.38701,0,0,0.14286,-6.7671e-16,1.6841e-16,0.66667
0.30785,0.48799,2.1549,-0.018015,-1.055,175.41,0.10352,-0.034508,-1.9977,0.13803,1.0209e-12,-0.99885,0,0,0.14286,-6.7671e-16,0,0.66667
0.20771,0.44408,1.454,-0.083885,-5.1957,219.12,0.32524,-0.10841,-1.9743,0.43366,1.2301e-10,-0.98717,0,0,0.14286,-0,-0,0.66667
0.77076,0.66046,5.3953,0.24068,6.2572,24.609,-3.4629,1.1543,-1.7935,-4.6172,6.6002e-11,-0.89676,0,0,0.14286,-0,-0,0.66667
0.93478,0.97998,6.5434,0.71997,5.903,4.0576,-12.563,4.1876,-0.15687,-16.751,-6.4856e-07,-0.078433,0,0,0.14286,-0,-1.5581e-16,0.66667
0.62152,0.31795,4.3506,-0.27308,-10.811,61.145,3.1682,-1.0561,-1.7349,4.2242,4.19e-13,-0.86745,0,0,0.14286,1.3534e-15,0,0.66667
0.53425,0.80619,3.7397,0.45928,21.275,88.774,-4.5803,1.5268,-1.2502,-6.107,7.2076e-13,-0.6251,0,0,0.14286,-1.0151e-15,0,0.66667
0.88327,0.24692,6.1829,-0.37962,-5.2875,7.5426,6.259,-2.0863,-1.4868,8.3454,-9.943e-09,-0.74341,0,0,0.14286,2.615e-16,0,0.66667
0.044803,0.12335,0.31362,-0.56497,-36.695,293.93,0.4725,-0.1575,-0.86672,0.63,2.7993e-07,-0.43336,0,0,0.14286,4.2294e-17,-1.856e-16,0.66667
0.30268,0.98015,2.1187,0.72022,42.711,178.1,-4.0692,1.3564,-0.15415,-5.4256,6.2217e-13,-0.077074,0,0,0.14286,6.7671e-16,0,0.66667
0.38247,0.83569,2.6773,0.50353,27.924,144.93,-3.5949,1.1983,-1.097,-4.7932,5.0826e-13,-0.54851,0,0,0.14286,-0,-0,0.66667
0.031099,0.038127,0.2177,-0.69281,-45.16,300.33,0.4022,-0.13407,-0.29588,0.53626,-1.0991e-05,-0.14794,0,0,0.14286,-0,1.1615e-16,0.66667
0.51993,0.45172,3.6395,-0.072419,-3.4105,93.302,0.70286,-0.23429,-1.9803,0.93714,1.8935e-13,-0.99014,0,0,0.14286,-6.7671e-16,0,0.66667
0.94058,0.87963,6.584,0.56945,4.1495,3.1211,-9.998,3.3327,-0.84746,-13.331,1.1424e-07,-0.42373,0,0,0.14286,2.7068e-15,0,0.66667
0.79725,0.31631,5.5807,-0.27554,-6.4209,19.729,4.1006,-1.3669,-1.7328,5.4674,-3.5522e-10,-0.86638,0,0,0.14286,-0,-0,0.66667
0.53509,0.91167,3.7457,0.6175,28.676,88.774,-6.1678,2.0559,-0.64411,-8.2238,9.2371e-14,-0.32205,0,0,0.14286,-0,-0,0.66667
0.67654,0.87204,4.7358,0.55806,19.627,46.553,-7.0476,2.3492,-0.89257,-9.3968,-2.9394e-12,-0.44628,0,0,0.14286,1.0151e-15,0,0.66667
0.78523,0.42885,5.4966,-0.10673,-2.6125,21.742,1.5644,-0.52147,-1.9589,2.0859,-7.2275e-11,-0.97945,0,0,0.14286,-0,-0,0.66667
0.26109,0.27632,1.8277,-0.33552,-20.27,195.61,1.6352,-0.54508,-1.5993,2.1803,1.2447e-12,-0.79967,0,0,0.14286,5.0753e-16,0,0.66667
0.27566,0.85734,1.9296,0.53601,32.205,189.44,-2.7581,0.91938,-0.97694,-3.6775,1.0163e-11,-0.48847,0,0,0.14286,-0,-0,0.66667
0.60522,0.35685,4.2366,-0.21473,-8.7751,65.897,2.4259,-0.80863,-1.8351,3.2345,6.0263e-13,-0.91754,0,0,0.14286,-0,-0,0.66667
0.67418,0.58495,4.7193,0.12743,4.4692,46.542,-1.6037,0.53457,-1.9427,-2.1383,-3.0226e-12,-0.97134,0,0,0.14286,-0,-0,0.66667
0.0036135,0.87296,0.025294,0.55944,36.405,313.12,-0.037734,0.012578,-0.88776,-0.050313,-6.8372e-07,-0.44388,0,0,0.14286,-0,-8.2651e-17,0.66667
0.8557,0.026302,5.9899,-0.71055,-12.388,11.84,11.35,-3.7832,-0.2049,15.133,-1.8701e-09,-0.10245,0,0,0.14286,-6.7671e-16,0,0.66667
0.14491,0.82087,1.0144,0.48131,30.62,247.66,-1.302,0.43398,-1.1756,-1.7359,-2.4915e-09,-0.5878,0,0,0.14286,-3.3835e-16,0,0.66667
0.51235,0.27029,3.5865,-0.34457,-16.444,96.101,3.2954,-1.0985,-1.5775,4.3939,3.7081e-14,-0.78873,0,0,0.14286,-0,-0,0.66667
0.56218,0.13851,3.9353,-0.54223,-24.079,79.727,5.6902,-1.8967,-0.9564,7.587,4.7073e-14,-0.4782,0,0,0.14286,-0,1.977e-16,0.66667
0.0071911,0.63552,0.050338,0.20328,13.171,311.45,-0.027288,0.0090959,-1.8514,-0.036384,-5.2054e-08,-0.92569,0,0,0.14286,-0,-0,0.66667
0.42885,0.29313,3.002,-0.31031,-16.395,126.58,2.4841,-0.82803,-1.6559,3.3121,1.0214e-12,-0.82794,0,0,0.14286,-6.7671e-16,0,0.66667
0.53374,0.97323,3.7362,0.70985,33.122,89.431,-7.0724,2.3575,-0.20923,-9.4298,-1.0658e-14,-0.10461,0,0,0.14286,1.3534e-15,0,0.66667
0.69071,0.66443,4.8349,0.24665,8.2983,42.437,-3.1801,1.06,-1.7836,-4.2401,-5.7543e-12,-0.89179,0,0,0.14286,-1.3534e-15,0,0.66667
0.90317,0.71305,6.3222,0.31957,3.6949,5.3964,-5.3877,1.7959,-1.6371,-7.1836,1.443e-08,-0.81857,0,0,0.14286,1.3534e-15,0,0.66667
0.068561,0.3189,0.47993,-0.27165,-17.527,282.84,0.34766,-0.11589,-1.7365,0.46354,-1.4284e-09,-0.86826,0,0,0.14286,-1.6918e-16,0,0.66667
0.2831,0.42108,1.9817,-0.11838,-7.0471,186,0.62559,-0.20853,-1.9506,0.83412,-2.1171e-12,-0.9753,0,0,0.14286,-0,-0,0.66667
0.52793,0.72903,3.6955,0.34355,16.031,90.754,-3.3856,1.1285,-1.58,-4.5141,-5.0893e-13,-0.78999,0,0,0.14286,-0,-0,0.66667
0.29023,0.95158,2.0316,0.67737,40.454,183.33,-3.6698,1.2233,-0.36682,-4.8931,-4.1678e-13,-0.18341,0,0,0.14286,-0,-0,0.66667
0.42013,0.45016,2.9409,-0.074766,-3.9793,129.81,0.58635,-0.19545,-1.9807,0.7818,1.234e-12,-0.99035,0,0,0.14286,-0,-0,0.66667
0.98205,0.077172,6.8744,-0.63424,-1.3686,1.5534,11.627,-3.8756,-0.5698,15.502,6.3325e-07,-0.2849,0,0,0.14286,1.3534e-15,0,0.66667
0.056933,0.4301,0.39853,-0.10486,-6.7684,288.23,0.11144,-0.037146,-1.9598,0.14858,-1.4079e-07,-0.97991,0,0,0.14286,-4.2294e-17,0,0.66667
0.92891,0.067207,6.5024,-0.64919,-5.7208,4.1792,11.257,-3.7523,-0.50049,15.009,4.6647e-07,-0.25025,0,0,0.14286,-0,-0,0.66667
0.66798,0.90439,4.6758,0.60659,21.825,48.893,-7.5635,2.5212,-0.69216,-10.085,-6.9811e-13,-0.34608,0,0,0.14286,-1.3534e-15,0,0.66667
0.49858,0.99958,3.4901,0.74937,36.788,101.61,-6.9742,2.3247,-0.0057687,-9.299,1.9442e-12,-0.0028843,0,0,0.14286,-1.1631e-15,-9.0278e-18,0.66667
0.4647,0.30432,3.2529,-0.29352,-14.891,113.1,2.5461,-0.84869,-1.6931,3.3948,-3.6549e-13,-0.84654,0,0,0.14286,3.3835e-16,0,0.66667
0.55893,0.45056,3.9125,-0.074165,-3.2889,80.272,0.7738,-0.25793,-1.9798,1.0317,1.1491e-12,-0.98988,0,0,0.14286,-1.3534e-15,0,0.66667
0.29159,0.22546,2.0411,-0.41181,-24.45,182.49,2.2415,-0.74716,-1.3961,2.9886,-2.7063e-12,-0.69805,0,0,0.14286,-6.7671e-16,0,0.66667
0.1718,0.26951,1.2026,-0.34574,-21.763,235.37,1.1088,-0.36959,-1.5771,1.4784,1.3234e-09,-0.78855,0,0,0.14286,-1.6918e-16,0,0.66667
0.61974,0.038283,4.3382,-0.69258,-27.81,62.443,8.0121,-2.6707,-0.29358,10.683,-3.3307e-13,-0.14679,0,0,0.14286,-1.3534e-15,0,0.66667
0.98848,0.44304,6.9193,-0.085442,-0.078712,0.19718,1.5765,-0.52551,-1.9738,2.1021,-2.2708e-07,-0.98688,0,0,0.14286,-0,-0,0.66667
0.51622,0.018567,3.6135,-0.72215,-34.577,95.41,6.9587,-2.3196,-0.14735,9.2783,7.0211e-13,-0.073673,0,0,0.14286,-0,-0,0.66667
0.67101,0.84887,4.6971,0.5233,18.639,47.906,-6.5546,2.1849,-1.0284,-8.7395,-2.391e-12,-0.51418,0,0,0.14286,-0,-2.1098e-16,0.66667
0.51953,0.52528,3.6367,0.03792,1.7867,93.433,-0.36774,0.12258,-1.9946,-0.49032,5.1625e-15,-0.99732,0,0,0.14286,-0,-0,0.66667
0.20003,0.51937,1.4002,0.029061,1.8057,222.56,-0.10851,0.03617,-1.9967,-0.14468,-4.6793e-11,-0.99833,0,0,0.14286,-0,-0,0.66667
0.5787,0.99398,4.0509,0.74097,32.188,74.942,-8.0042,2.6681,-0.050022,-10.672,-1.3918e-12,-0.025011,0,0,0.14286,2.0301e-15,0,0.66667
0.95788,0.89281,6.7052,0.58922,3.043,2.2522,-10.535,3.5118,-0.76434,-14.047,1.3061e-06,-0.38217,0,0,0.14286,-0,-0,0.66667
0.69242,0.21137,4.847,-0.43295,-14.556,42.283,5.5959,-1.8653,-1.3327,7.4612,6.9531e-12,-0.66633,0,0,0.14286,-0,-0,0.66667
0.027337,0.20901,0.19136,-0.43649,-28.327,302.05,0.22273,-0.074245,-1.3219,0.29698,-3.9501e-07,-0.66097,0,0,0.14286,-4.2294e-17,0,0.66667
0.36312,0.53918,2.5418,0.058775,3.2996,152.44,-0.39839,0.1328,-1.9873,-0.53119,2.5546e-13,-0.99366,0,0,0.14286,-6.7671e-16,0,0.66667
0.63389,0.62693,4.4372,0.19039,7.337,57.522,-2.2528,0.75095,-1.8706,-3.0038,4.0412e-14,-0.9353,0,0,0.14286,-2.7068e-15,0,0.66667
0.56707,0.87729,3.9695,0.56594,24.943,78.205,-5.9907,1.9969,-0.86122,-7.9876,9.8588e-14,-0.43061,0,0,0.14286,-1.3534e-15,0,0.66667
0.12133,0.2166,0.84934,-0.4251,-27.196,258.45,0.96281,-0.32094,-1.358,1.2838,6.5573e-09,-0.67898,0,0,0.14286,4.2294e-17,0,0.66667
0.93647,0.038718,6.5553,-0.69192,-5.501,3.8314,12.095,-4.0318,-0.29933,16.127,1.6075e-06,-0.14966,0,0,0.14286,-0,-1.2307e-16,0.66667
0.39384,0.036604,2.7569,-0.69509,-38.312,140.69,5.1101,-1.7034,-0.28233,6.8135,4.3396e-12,-0.14117,0,0,0.14286,-0,-0,0.66667
0.72926,0.50845,5.1048,0.01267,0.38014,33.182,-0.17247,0.05749,-1.9984,-0.22996,-1.3859e-12,-0.99918,0,0,0.14286,2.7068e-15,0,0.66667
0.78569,0.071463,5.4998,-0.64281,-15.972,22.64,9.4275,-3.1425,-0.53001,12.57,2.3668e-11,-0.265,0,0,0.14286,1.3534e-15,0,0.66667
0.21299,0.19504,1.4909,-0.45744,-28.363,216.9,1.8187,-0.60624,-1.2548,2.425,2.0406e-10,-0.62741,0,0,0.14286,-0,-0,0.66667
0.66262,0.018374,4.6384,-0.72244,-26.445,50.622,8.9358,-2.9786,-0.14258,11.914,1.5987e-13,-0.071289,0,0,0.14286,-0,-0,0.66667
0.52337,0.35384,3.6636,-0.21923,-10.283,92.194,2.1418,-0.71393,-1.8274,2.8557,-2.4847e-13,-0.91371,0,0,0.14286,-0,-0,0.66667
0.1783,0.75623,1.2481,0.38435,24.147,232.44,-1.2792,0.4264,-1.4736,-1.7056,-9.2372e-10,-0.7368,0,0,0.14286,-3.3835e-16,0,0.66667
0.71844,0.8444,5.0291,0.5166,16.172,36.241,-6.9281,2.3094,-1.0544,-9.2375,-1.2013e-11,-0.52722,0,0,0.14286,-0,1.7602e-16,0.66667
0.54058,0.53153,3.784,0.047298,2.1596,86.306,-0.47727,0.15909,-1.9919,-0.63636,-2.7714e-13,-0.99597,0,0,0.14286,-0,-0,0.66667
0.21409,0.65289,1.4987,0.22933,14.175,216.3,-0.91651,0.3055,-1.8128,-1.222,-2.0076e-10,-0.9064,0,0,0.14286,4.2294e-16,0,0.66667
0.41806,0.52392,2.9264,0.035881,1.9136,130.61,-0.28001,0.093337,-1.9951,-0.37335,1.5217e-12,-0.99753,0,0,0.14286,-6.7671e-16,0,0.66667
0.68076,0.60811,4.7653,0.16216,5.5945,44.87,-2.0607,0.6869,-1.9047,-2.7476,-4.4307e-12,-0.95234,0,0,0.14286,1.3534e-15,0,0.66667
0.99376,0.70561,6.9563,0.30842,0.10113,0.37372,-5.7212,1.9071,-1.6601,-7.6282,1.5528e-07,-0.83005,0,0,0.14286,-1.3534e-15,0,0.66667
0.54844,0.24087,3.8391,-0.38869,-17.59,83.953,3.9792,-1.3264,-1.4638,5.3056,4.6629e-14,-0.73189,0,0,0.14286,-0,-0,0.66667
0.79392,0.92846,5.5574,0.64269,15.423,21.152,-9.5245,3.1748,-0.53133,-12.699,2.7981e-11,-0.26567,0,0,0.14286,6.7671e-16,-1.5331e-16,0.66667
0.33058,0.39259,2.314,-0.16111,-9.2861,165.88,0.9942,-0.3314,-1.9077,1.3256,-3.1114e-13,-0.95386,0,0,0.14286,-6.7671e-16,0,0.66667
0.51156,0.74819,3.5809,0.37228,17.794,96.407,-3.555,1.185,-1.5076,-4.74,-2.5802e-13,-0.75379,0,0,0.14286,-8.4588e-17,0,0.66667
0.83503,0.060414,5.8452,-0.65938,-12.954,14.528,10.278,-3.4259,-0.45355,13.704,4.9407e-09,-0.22678,0,0,0.14286,-1.6137e-15,0,0.66667
0.97046,0.96762,6.7932,0.70143,2.6163,2.1736,-12.707,4.2355,-0.25268,-16.942,-2.1449e-05,-0.12634,0,0,0.14286,-1.438e-15,0,0.66667
0.17847,0.99939,1.2493,0.74909,47.38,232.59,-2.4956,0.83186,-0.0046385,-3.3274,-4.3471e-10,-0.0023193,0,0,0.14286,-4.1237e-16,0,0.66667
0.85131,0.80829,5.9592,0.46244,8.1496,11.651,-7.3487,2.4496,-1.2387,-9.7983,3.6873e-09,-0.61933,0,0,0.14286,8.4243e-16,0,0.66667
0.9884,0.29136,6.9188,-0.31297,-0.32097,0.47756,5.7742,-1.9247,-1.651,7.699,-8.8725e-08,-0.8255,0,0,0.14286,-2.7068e-15,0,0.66667
0.45046,0.0052165,3.1532,-0.74218,-38.641,119.03,6.2407,-2.0802,-0.042107,8.3209,-6.9855e-13,-0.021053,0,0,0.14286,-0,-0,0.66667
0.30796,0.75736,2.1557,0.38604,22.664,175.51,-2.2192,0.73973,-1.4694,-2.9589,8.4186e-12,-0.7347,0,0,0.14286,-0,-0,0.66667
0.91246,0.27683,6.3872,-0.33475,-3.5051,4.5886,5.7017,-1.9006,-1.6007,7.6022,-1.6715e-08,-0.80036,0,0,0.14286,3.3835e-16,0,0.66667
0.21986,0.012547,1.539,-0.73118,-45.44,214.06,3.0008,-1.0003,-0.10022,4.001,7.3724e-11,-0.05011,0,0,0.14286,6.7671e-16,0,0.66667
0.98826,0.78533,6.9178,0.42799,0.48412,0.74229,-7.8954,2.6318,-1.3487,-10.527,1.2013e-07,-0.67437,0,0,0.14286,-0,-0,0.66667
0.40154,0.51792,2.8108,0.026887,1.4578,137.06,-0.20153,0.067178,-1.9962,-0.26871,-2.7922e-12,-0.9981,0,0,0.14286,1.3534e-15,0,0.66667
0.092234,0.92904,0.64564,0.64356,41.589,271.95,-1.108,0.36934,-0.52845,-1.4774,-2.3706e-07,-0.26422,0,0,0.14286,-8.4588e-17,-1.3361e-16,0.66667
0.13677,0.28011,0.95742,-0.32983,-20.99,251.33,0.8421,-0.2807,-1.6138,1.1228,4.9938e-09,-0.8069,0,0,0.14286,-2.1147e-16,0,0.66667
0.47707,0.18478,3.3395,-0.47283,-23.695,108.78,4.2108,-1.4036,-1.2044,5.6143,9.1349e-13,-0.60218,0,0,0.14286,-8.4588e-16,0,0.66667
0.060948,0.26878,0.42663,-0.34683,-22.416,286.38,0.39458,-0.13153,-1.573,0.52611,-3.9232e-09,-0.78652,0,0,0.14286,-0,-0,0.66667
0.25189,0.04275,1.7632,-0.68588,-41.902,199.92,3.2249,-1.075,-0.32789,4.2999,8.4444e-13,-0.16395,0,0,0.14286,-0,-0,0.66667
0.795,0.45099,5.565,-0.073516,-1.7249,19.952,1.091,-0.36366,-1.9812,1.4546,-1.3921e-10,-0.99061,0,0,0.14286,-0,-0,0.66667
0.78533,0.226,5.4973,-0.411,-10.123,22.108,6.025,-2.0083,-1.3989,8.0334,-9.6647e-11,-0.69945,0,0,0.14286,-0,-0,0.66667
0.81082,0.44991,5.6757,-0.075141,-1.6384,17.226,1.1373,-0.37909,-1.9806,1.5164,-2.0229e-10,-0.99028,0,0,0.14286,1.3534e-15,0,0.66667
0.046263,0.14681,0.32384,-0.52978,-34.383,293.24,0.4575,-0.1525,-1.0038,0.61,2.1627e-07,-0.50192,0,0,0.14286,-4.2294e-17,2.2507e-16,0.66667
0.76645,0.18365,5.3651,-0.47452,-12.624,25.857,6.789,-2.263,-1.2017,9.052,7.8382e-12,-0.60083,0,0,0.14286,1.3534e-15,0,0.66667
0.80685,0.25212,5.6479,-0.37181,-8.3142,18.226,5.5999,-1.8666,-1.5081,7.4666,-4.5831e-10,-0.75407,0,0,0.14286,-0,-0,0.66667
0.01605,0.0094212,0.11235,-0.73587,-48.048,307.33,0.22042,-0.073481,-0.07663,0.29388,-1.4392e-05,-0.038315,0,0,0.14286,-0,-0,0.66667
0.39133,0.044415,2.7393,-0.68338,-37.742,141.66,4.9919,-1.664,-0.34098,6.6559,3.32e-12,-0.17049,0,0,0.14286,-0,-0,0.66667
0.86558,0.98975,6.059,0.73463,12.019,10.68,-11.87,3.9566,-0.079601,-15.826,2.2143e-09,-0.0398,0,0,0.14286,1.3534e-15,0,0.66667
0.95847,0.019304,6.7093,-0.72104,-3.7993,2.7398,12.901,-4.3002,-0.15005,17.201,-7.6421e-06,-0.075024,0,0,0.14286,-0,-0,0.66667
0.91959,0.75894,6.4371,0.38841,3.751,4.1066,-6.6673,2.2224,-1.464,-8.8897,2.4679e-08,-0.73201,0,0,0.14286,-0,-0,0.66667
0.54699,0.71422,3.8289,0.32134,14.56,84.35,-3.281,1.0937,-1.6357,-4.3746,8.9395e-13,-0.81785,0,0,0.14286,-3.3835e-16,0,0.66667
0.30992,0.40668,2.1694,-0.13998,-8.1882,174.55,0.80982,-0.26994,-1.9318,1.0798,-1.7418e-12,-0.96592,0,0,0.14286,-1.3534e-15,0,0.66667
0.58926,0.18277,4.1249,-0.47585,-20.128,71.079,5.2342,-1.7447,-1.1946,6.9789,5.1248e-13,-0.59728,0,0,0.14286,-0,-0,0.66667
0.59599,0.35697,4.1719,-0.21455,-8.9233,68.687,2.3869,-0.79563,-1.8365,3.1825,1.6431e-13,-0.91825,0,0,0.14286,-0,-0,0.66667
0.66455,0.17444,4.6519,-0.48834,-17.651,49.527,6.0578,-2.0193,-1.1503,8.0771,3.411e-12,-0.57513,0,0,0.14286,-1.1028e-16,0,0.66667
0.59082,0.61068,4.1357,0.16602,6.9684,70.237,-1.831,0.61032,-1.9017,-2.4413,1.0425e-13,-0.95083,0,0,0.14286,-6.7671e-16,0,0.66667
0.86806,0.053434,6.0764,-0.66985,-10.708,10.132,10.854,-3.618,-0.40308,14.472,1.701e-08,-0.20154,0,0,0.14286,-0,-0,0.66667
0.37398,0.44872,2.6178,-0.076926,-4.2785,148.04,0.53701,-0.179,-1.9802,0.71602,6.6624e-13,-0.9901,0,0,0.14286,-0,-0,0.66667
0.24402,0.73298,1.7081,0.34947,21.313,203.1,-1.5918,0.53061,-1.5641,-2.1224,-2.019e-11,-0.78205,0,0,0.14286,-0,-0,0.66667
0.020487,0.25432,0.14341,-0.36852,-23.904,305.24,0.14093,-0.046976,-1.5167,0.18791,-1.3678e-07,-0.75834,0,0,0.14286,-0,-0,0.66667
0.23269,0.16672,1.6288,-0.49991,-30.731,208.18,2.1714,-0.7238,-1.1122,2.8952,6.0365e-11,-0.55608,0,0,0.14286,-0,-0,0.66667
0.1616,0.25634,1.1312,-0.36549,-23.093,240.01,1.1025,-0.36751,-1.5241,1.4701,1.8572e-09,-0.76206,0,0,0.14286,3.3835e-16,0,0.66667
0.23816,0.78434,1.6671,0.42651,26.116,205.72,-1.8961,0.63204,-1.3535,-2.5281,-2.1608e-11,-0.67674,0,0,0.14286,6.7671e-16,0,0.66667
0.88096,0.085815,6.1667,-0.62128,-8.9745,8.4615,10.217,-3.4056,-0.62634,13.622,5.9374e-09,-0.31317,0,0,0.14286,6.7671e-16,0,0.66667
0.7316,0.53757,5.1212,0.05635,1.6783,32.667,-0.76954,0.25651,-1.9891,-1.0261,-2.8699e-13,-0.99454,0,0,0.14286,-0,-0,0.66667
0.24339,0.12656,1.7037,-0.56017,-34.285,203.52,2.545,-0.84833,-0.88389,3.3933,5.6712e-11,-0.44195,0,0,0.14286,-0,-0,0.66667
0.79305,0.58087,5.5514,0.12131,2.872,20.323,-1.7958,0.5986,-1.9469,-2.3944,1.6402e-10,-0.97344,0,0,0.14286,1.3534e-15,0,0.66667
0.54412,0.8354,3.8088,0.5031,22.976,85.552,-5.1099,1.7033,-1.1002,-6.8132,9.2371e-14,-0.5501,0,0,0.14286,6.7671e-16,0,0.66667
0.40649,0.91017,2.8454,0.61526,33.438,135.59,-4.6684,1.5561,-0.65689,-6.2245,-6.7057e-14,-0.32845,0,0,0.14286,-1.3534e-15,0,0.66667
0.2058,0.52327,1.4406,0.034898,2.1631,219.97,-0.13407,0.044689,-1.9959,-0.17875,-3.8689e-11,-0.99795,0,0,0.14286,3.3835e-16,0,0.66667
0.31073,0.31513,2.1751,-0.27731,-16.229,174.26,1.6085,-0.53616,-1.7282,2.1446,-4.4978e-12,-0.86412,0,0,0.14286,6.7671e-16,0,0.66667
0.079247,0.64631,0.55473,0.21946,14.131,277.87,-0.32464,0.10821,-1.83,-0.43286,-9.7386e-10,-0.915,0,0,0.14286,-0,-0,0.66667
0.23362,0.88911,1.6354,0.58366,35.917,207.84,-2.5453,0.84844,-0.79014,-3.3938,2.7404e-11,-0.39507,0,0,0.14286,-0,-0,0.66667
0.66575,0.39219,4.6603,-0.16172,-5.7926,48.77,2.0097,-0.6699,-1.9053,2.6796,3.7448e-12,-0.95266,0,0,0.14286,-7.8841e-16,0,0.66667
0.35102,0.56818,2.4571,0.10227,5.7996,157.4,-0.67008,0.22336,-1.9616,-0.89344,3.3843e-12,-0.98081,0,0,0.14286,-0,-0,0.66667
0.81972,0.0065887,5.738,-0.74012,-15.852,17.155,11.325,-3.775,-0.051058,15.1,-3.5094e-10,-0.025529,0,0,0.14286,-0,-0,0.66667
0.66115,0.79381,4.6281,0.44072,16.039,50.338,-5.4391,1.813,-1.3081,-7.2522,-2.6965e-12,-0.65406,0,0,0.14286,-0,-0,0.66667
0.62435,0.5208,4.3705,0.031199,1.2256,60.181,-0.36361,0.1212,-1.9982,-0.48481,-6.4884e-13,-0.99909,0,0,0.14286,1.3534e-15,0,0.66667
0.42028,0.53119,2.9419,0.046788,2.4897,129.75,-0.36706,0.12235,-1.9945,-0.48941,1.594e-13,-0.99727,0,0,0.14286,7.1371e-16,0,0.66667
0.645,0.33561,4.515,-0.24658,-9.2796,54.457,2.9689,-0.98963,-1.7831,3.9585,1.9802e-12,-0.89154,0,0,0.14286,-0,-0,0.66667
0.87483,0.76858,6.1238,0.40287,6.0096,8.5492,-6.579,2.193,-1.4249,-8.7719,7.1986e-09,-0.71245,0,0,0.14286,1.3534e-15,0,0.66667
0.31127,0.97505,2.1789,0.71258,42.004,174.45,-4.1404,1.3801,-0.19615,-5.5205,4.3392e-12,-0.098076,0,0,0.14286,-0,-0,0.66667
0.34275,0.71128,2.3993,0.31692,18.121,160.9,-2.0277,0.6759,-1.6445,-2.7036,3.1073e-12,-0.82224,0,0,0.14286,-3.3835e-16,0,0.66667
0.84868,0.79629,5.9408,0.44443,7.9544,11.966,-7.0407,2.3469,-1.2964,-9.3876,2.7909e-09,-0.64818,0,0,0.14286,-0,-0,0.66667
0.52989,0.1128,3.7093,-0.5808,-27.155,90.45,5.7449,-1.915,-0.8015,7.6599,-2.8244e-13,-0.40075,0,0,0.14286,-0,-0,0.66667
0.92369,0.83095,6.4658,0.49643,4.5985,4.0605,-8.5595,2.8532,-1.1243,-11.413,6.7168e-08,-0.56213,0,0,0.14286,-0,-0,0.66667
0.18755,0.012216,1.3129,-0.73168,-46.101,228.49,2.5616,-0.85386,-0.098653,3.4155,4.1581e-10,-0.049326,0,0,0.14286,-6.7671e-16,0,0.66667
0.21487,0.29796,1.5041,-0.30305,-18.737,215.98,1.2155,-0.40518,-1.6726,1.6207,1.7363e-10,-0.83629,0,0,0.14286,-0,-0,0.66667
0.86246,0.77279,6.0372,0.40918,6.6804,10.068,-6.5875,2.1958,-1.4046,-8.7833,5.2108e-09,-0.70231,0,0,0.14286,6.7671e-16,0,0.66667
0.09949,0.38882,0.69643,-0.16676,-10.695,268.48,0.30971,-0.10324,-1.8995,0.41294,2.9701e-09,-0.94976,0,0,0.14286,-0,-0,0.66667
0.47166,0.6585,3.3016,0.23775,11.952,110.5,-2.0932,0.69773,-1.8,-2.7909,3.4439e-13,-0.89998,0,0,0.14286,-0,-0,0.66667
0.8394,0.98559,5.8758,0.72838,14.033,14.142,-11.413,3.8043,-0.11254,-15.217,-1.1811e-10,-0.056272,0,0,0.14286,1.3534e-15,0,0.66667
0.69374,0.010883,4.8562,-0.73368,-24.846,42.716,9.5009,-3.167,-0.084534,12.668,-4.5031e-13,-0.042267,0,0,0.14286,-0,-0,0.66667
0.46224,0.52394,3.2357,0.035911,1.824,113.88,-0.30986,0.10329,-1.9941,-0.41315,1.9268e-13,-0.99706,0,0,0.14286,-6.7671e-16,0,0.66667
0.1652,0.88897,1.1564,0.58345,36.944,238.48,-1.7992,0.59973,-0.78785,-2.3989,-1.509e-09,-0.39393,0,0,0.14286,-0,-0,0.66667
0.55082,0.30946,3.8557,-0.28581,-12.865,83.053,2.9387,-0.97957,-1.7097,3.9183,3.4595e-13,-0.85487,0,0,0.14286,-6.7671e-16,0,0.66667
0.98798,0.64704,6.9159,0.22056,0.22683,0.33453,-4.0676,1.3559,-1.8266,-5.4234,5.314e-08,-0.91329,0,0,0.14286,-1.3534e-15,0,0.66667
0.80516,0.56896,5.6361,0.10344,2.3177,18.193,-1.5546,0.51821,-1.9607,-2.0728,3.4815e-10,-0.98033,0,0,0.14286,-0,-0,0.66667
0.054929,0.72349,0.3845,0.33524,21.68,289.18,-0.34373,0.11458,-1.5993,-0.45831,2.5548e-08,-0.79967,0,0,0.14286,-0,-0,0.66667
0.71093,0.90805,4.9765,0.61207,19.658,38.229,-8.1226,2.7075,-0.66741,-10.83,-3.5882e-12,-0.33371,0,0,0.14286,-0,-0,0.66667
0.97662,0.88206,6.8363,0.57309,1.5915,1.4779,-10.447,3.4825,-0.83087,-13.93,-2.0814e-06,-0.41543,0,0,0.14286,-0,-0,0.66667
0.19337,0.9309,1.3536,0.64634,40.552,225.81,-2.3331,0.77769,-0.51354,-3.1108,3.2782e-11,-0.25677,0,0,0.14286,3.3835e-16,0,0.66667
0.95641,0.80361,6.6949,0.45541,2.3698,1.9058,-8.1304,2.7101,-1.2623,-10.841,-1.338e-08,-0.63117,0,0,0.14286,-1.3534e-15,0,0.66667
0.23335,0.53065,1.6334,0.045981,2.8138,207.71,-0.20028,0.066761,-1.9952,-0.26705,6.5016e-12,-0.99759,0,0,0.14286,-3.0381e-16,0,0.66667
0.8194,0.5339,5.7358,0.050845,1.062,15.816,-0.7777,0.25923,-1.9901,-1.0369,5.7335e-10,-0.99507,0,0,0.14286,-0,-0,0.66667
0.14942,0.38342,1.0459,-0.17487,-11.073,245.51,0.48774,-0.16258,-1.8898,0.65032,2.1062e-09,-0.9449,0,0,0.14286,-0,-0,0.66667
0.5141,0.23897,3.5987,-0.39154,-18.653,95.549,3.7575,-1.2525,-1.4558,5.01,8.6597e-15,-0.72788,0,0,0.14286,6.7671e-16,0,0.66667
0.36401,0.67803,2.5481,0.26705,14.999,152.15,-1.8146,0.60486,-1.7455,-2.4195,2.7409e-12,-0.87273,0,0,0.14286,-0,-0,0.66667
0.67069,0.36763,4.6948,-0.19855,-7.0293,47.5,2.4858,-0.8286,-1.8613,3.3144,3.6573e-12,-0.93064,0,0,0.14286,-0,-0,0.66667
0.17912,0.55688,1.2538,0.085316,5.3461,231.99,-0.28526,0.095086,-1.9729,-0.38034,-2.5641e-10,-0.98647,0,0,0.14286,3.3835e-16,0,0.66667
0.57975,0.60444,4.0582,0.15665,6.7073,73.667,-1.6953,0.5651,-1.9135,-2.2604,-2.2427e-14,-0.95676,0,0,0.14286,-0,-0,0.66667
0.0024237,0.43417,0.016966,-0.098743,-6.3946,313.67,0.0044673,-0.0014912,-1.9664,0.0059553,-3.126e-06,-0.98319,0,0,0.14286,-1.3217e-18,0,0.66667
0.42565,0.52367,2.9796,0.03551,1.879,127.68,-0.28214,0.094048,-1.9951,-0.37619,-4.5505e-13,-0.99757,0,0,0.14286,-6.7671e-16,0,0.66667
0.51579,0.38209,3.6106,-0.17687,-8.3839,94.77,1.7029,-0.56765,-1.8912,2.2706,1.501e-13,-0.9456,0,0,0.14286,-0,-0,0.66667
0.8378,0.85272,5.8646,0.52908,10.149,13.72,-8.2742,2.7581,-1.0033,-11.032,8.8476e-10,-0.50167,0,0,0.14286,-0,-0,0.66667
0.75764,0.89539,5.3035,0.59309,16.377,27.926,-8.3878,2.7959,-0.74759,-11.184,-4.9054e-12,-0.3738,0,0,0.14286,6.7671e-16,0,0.66667
0.091892,0.55444,0.64324,0.081655,5.2427,271.99,-0.14006,0.046688,-1.9771,-0.18675,1.5836e-08,-0.98856,0,0,0.14286,-0,-0,0.66667
0.62503,0.90707,4.3752,0.61061,24.188,60.707,-7.1241,2.3747,-0.67793,-9.4988,7.9003e-13,-0.33897,0,0,0.14286,-2.7068e-15,0,0.66667
0.66,0.063188,4.62,-0.65522,-24.07,51.128,8.0723,-2.6908,-0.4743,10.763,-1.4211e-13,-0.23715,0,0,0.14286,-0,-0,0.66667
0.73403,0.095351,5.1382,-0.60697,-18.167,32.963,8.3167,-2.7722,-0.69319,11.089,2.2515e-12,-0.3466,0,0,0.14286,-2.7068e-15,3.289e-17,0.66667
0.55486,0.55218,3.884,0.078266,3.494,81.599,-0.81063,0.27021,-1.9765,-1.0808,1.058e-13,-0.98826,0,0,0.14286,-6.7671e-16,0,0.66667
0.10736,0.98554,0.75149,0.72831,47.01,265.01,-1.4595,0.4865,-0.1143,-1.946,-8.5548e-08,-0.05715,0,0,0.14286,1.6918e-16,0,0.66667
0.64035,0.87877,4.4824,0.56816,21.758,56.274,-6.7913,2.2638,-0.85504,-9.0551,-3.7081e-13,-0.42752,0,0,0.14286,-0,-0,0.66667
0.67053,0.61891,4.6937,0.17837,6.3156,47.525,-2.2325,0.74417,-1.8884,-2.9767,-3.2627e-12,-0.94418,0,0,0.14286,-0,-0,0.66667
0.25011,0.43582,1.7507,-0.096267,-5.8408,200.34,0.44944,-0.14981,-1.9704,0.59925,5.1264e-12,-0.9852,0,0,0.14286,4.6524e-16,0,0.66667
0.94828,0.49218,6.6379,-0.011734,-0.070406,1.7158,0.2077,-0.069234,-1.9986,0.27694,2.0888e-07,-0.99931,0,0,0.14286,-0,-0,0.66667
0.45265,0.40322,3.1685,-0.14518,-7.4599,117.47,1.2267,-0.40888,-1.9278,1.6355,-4.1833e-13,-0.9639,0,0,0.14286,8.4588e-16,0,0.66667
0.86672,0.87647,6.067,0.5647,9.0366,9.945,-9.1361,3.0454,-0.86571,-12.181,-5.8319e-09,-0.43286,0,0,0.14286,-0,-0,0.66667
0.65308,0.72567,4.5716,0.3385,12.526,52.349,-4.1266,1.3755,-1.5926,-5.5021,-2.3692e-12,-0.79632,0,0,0.14286,-0,-0,0.66667
0.61654,0.038218,4.3157,-0.69267,-27.993,63.376,7.9717,-2.6572,-0.29271,10.629,-5.6088e-13,-0.14636,0,0,0.14286,-0,-0,0.66667
0.5494,0.91583,3.8458,0.62375,28.339,84.043,-6.3968,2.1323,-0.61685,-8.5291,-1.6609e-13,-0.30843,0,0,0.14286,-0,-0,0.66667
0.64757,0.21319,4.533,-0.43022,-16.152,53.999,5.2004,-1.7335,-1.3408,6.9339,2.4838e-12,-0.67039,0,0,0.14286,-6.7671e-16,0,0.66667
0.84434,0.22515,5.9103,-0.41228,-7.5652,12.497,6.4978,-2.1659,-1.3978,8.6638,-1.9934e-09,-0.69888,0,0,0.14286,-0,-0,0.66667
0.77688,0.73211,5.4382,0.34816,8.8587,23.58,-5.0489,1.683,-1.5679,-6.7319,9.892e-11,-0.78396,0,0,0.14286,1.3534e-15,0,0.66667
0.67263,0.83184,4.7084,0.49777,17.645,47.43,-6.2498,2.0833,-1.1205,-8.3331,-3.197e-12,-0.56024,0,0,0.14286,-0,-0,0.66667
0.031845,0.21756,0.22292,-0.42366,-27.483,299.95,0.25184,-0.083947,-1.3648,0.33579,-2.3825e-07,-0.6824,0,0,0.14286,5.2868e-17,0,0.66667
0.0086948,0.86808,0.060863,0.55212,35.922,310.75,-0.089611,0.02987,-0.9148,-0.11948,-7.5261e-07,-0.4574,0,0,0.14286,-0,-0,0.66667
0.35854,0.070706,2.5098,-0.64394,-36.564,154.77,4.3097,-1.4366,-0.52732,5.7463,3.2538e-12,-0.26366,0,0,0.14286,-0,-0,0.66667
0.030634,0.46881,0.21444,-0.046782,-3.0264,300.5,0.026752,-0.0089162,-1.9954,0.035669,1.4989e-06,-0.9977,0,0,0.14286,-0,-0,0.66667
0.51785,0.3809,3.6249,-0.17865,-8.4435,94.062,1.7269,-0.57564,-1.8873,2.3026,1.7764e-13,-0.94366,0,0,0.14286,-0,-0,0.66667
0.0035539,0.40624,0.024877,-0.14064,-9.1092,313.15,0.0093301,-0.0031096,-1.9307,0.01244,6.8274e-07,-0.96533,0,0,0.14286,5.5137e-19,0,0.66667
0.48073,0.65258,3.3651,0.22887,11.376,107.2,-2.0538,0.68461,-1.814,-2.7384,4.996e-13,-0.90699,0,0,0.14286,-8.4588e-16,0,0.66667
0.37761,0.94904,2.6433,0.67356,37.655,147.11,-4.7477,1.5826,-0.38691,-6.3303,-4.885e-15,-0.19346,0,0,0.14286,-0,-0,0.66667
0.95746,0.5817,6.7022,0.12255,0.59709,1.2822,-2.1903,0.73012,-1.9456,-2.9205,2.942e-08,-0.97279,0,0,0.14286,1.3534e-15,0,0.66667
0.055854,0.24063,0.39097,-0.38906,-25.173,288.76,0.40563,-0.13521,-1.4603,0.54084,-9.2871e-09,-0.73014,0,0,0.14286,4.2294e-17,0,0.66667
0.065191,0.52445,0.45634,0.03667,2.3642,284.39,-0.044623,0.014874,-1.9956,-0.059498,-3.4505e-08,-0.99779,0,0,0.14286,8.4588e-17,0,0.66667
0.84927,0.61228,5.9449,0.16841,2.9737,11.438,-2.6698,0.88995,-1.8977,-3.5598,2.2436e-09,-0.94883,0,0,0.14286,-0,-0,0.66667
0.79526,0.36054,5.5668,-0.2092,-4.9112,20.001,3.1055,-1.0352,-1.845,4.1406,-2.823e-10,-0.92251,0,0,0.14286,-0,-0,0.66667
0.93585,0.3409,6.5509,-0.23865,-1.8112,2.644,4.169,-1.3897,-1.7992,5.5587,1.1145e-08,-0.89961,0,0,0.14286,-1.6918e-15,0,0.66667
0.078237,0.9913,0.54766,0.73695,47.838,278.45,-1.0763,0.35875,-0.071279,-1.435,-1.1708e-07,-0.03564,0,0,0.14286,-8.4588e-17,0,0.66667
0.6201,0.32638,4.3407,-0.26043,-10.338,61.544,3.0145,-1.0048,-1.7575,4.0193,9.5723e-13,-0.87877,0,0,0.14286,-0,-0,0.66667
0.5144,0.72858,3.6008,0.34286,16.315,95.388,-3.2922,1.0974,-1.5832,-4.3897,4.0545e-13,-0.7916,0,0,0.14286,-0,-0,0.66667
0.32157,0.92545,2.251,0.63817,37.28,170.03,-3.8308,1.2769,-0.55024,-5.1077,3.4792e-12,-0.27512,0,0,0.14286,3.3835e-16,0,0.66667
0.61081,0.55516,4.2757,0.082735,3.341,64.157,-0.94333,0.31444,-1.9769,-1.2578,2.4369e-14,-0.98845,0,0,0.14286,-0,-0,0.66667
0.91808,0.6612,6.4265,0.2418,2.3559,3.9649,-4.1439,1.3813,-1.7921,-5.5251,7.2811e-09,-0.89603,0,0,0.14286,-2.7068e-15,0,0.66667
0.062566,0.96324,0.43796,0.69486,45.163,285.7,-0.81153,0.27051,-0.28599,-1.082,2.6712e-06,-0.14299,0,0,0.14286,-8.4588e-17,0,0.66667
0.65973,0.050748,4.6181,-0.67388,-24.789,51.253,8.2987,-2.7662,-0.38482,11.065,2.558e-13,-0.19241,0,0,0.14286,-0,-0,0.66667
0.28517,0.9244,1.9962,0.63661,38.105,185.45,-3.3888,1.1296,-0.55818,-4.5184,1.7486e-12,-0.27909,0,0,0.14286,-0,-0,0.66667
0.40545,0.76995,2.8381,0.40493,21.939,135.73,-3.0646,1.0215,-1.4185,-4.0862,1.4126e-12,-0.70923,0,0,0.14286,-0,-0,0.66667
0.84969,0.68059,5.9479,0.27088,4.7829,11.499,-4.2965,1.4322,-1.738,-5.7286,2.8862e-09,-0.86898,0,0,0.14286,6.7671e-16,0,0.66667
0.12173,0.018045,0.85211,-0.72293,-46.502,258.4,1.6427,-0.54757,-0.14124,2.1903,-3.4901e-08,-0.070621,0,0,0.14286,-0,1.6512e-16,0.66667
0.84297,0.3251,5.9008,-0.26235,-4.8261,12.424,4.1283,-1.3761,-1.7567,5.5044,-2.2817e-09,-0.87833,0,0,0.14286,-1.3534e-15,0,0.66667
0.40424,0.59201,2.8297,0.13801,7.4656,136.02,-1.0414,0.34714,-1.9339,-1.3886,-1.1351e-12,-0.96696,0,0,0.14286,2.5377e-16,0,0.66667
0.98389,0.60256,6.8872,0.15384,0.23531,0.35032,-2.8254,0.9418,-1.9178,-3.7672,-2.6807e-08,-0.95889,0,0,0.14286,-0,-0,0.66667
0.91802,0.68206,6.4261,0.27309,2.6674,4.016,-4.6797,1.5599,-1.7347,-6.2397,9.2429e-09,-0.86734,0,0,0.14286,1.3534e-15,0,0.66667
0.40767,0.91421,2.8537,0.62132,33.733,135.14,-4.7282,1.5761,-0.6286,-6.3043,-8.1268e-14,-0.3143,0,0,0.14286,-0,-0,0.66667
0.29792,0.17841,2.0854,-0.48238,-28.553,179.85,2.6826,-0.89421,-1.174,3.5768,-4.253e-12,-0.58702,0,0,0.14286,-0,-0,0.66667
0.22095,0.13257,1.5466,-0.55114,-34.102,213.42,2.2731,-0.7577,-0.9206,3.0308,6.7419e-11,-0.4603,0,0,0.14286,-0,-0,0.66667
0.21774,0.65951,1.5242,0.23926,14.765,214.68,-0.97247,0.32416,-1.7986,-1.2966,-1.6627e-10,-0.89932,0,0,0.14286,-6.7671e-16,0,0.66667
0.76874,0.63348,5.3812,0.20022,5.2422,24.963,-2.8731,0.95771,-1.8574,-3.8308,7.413e-11,-0.92868,0,0,0.14286,-0,-0,0.66667
0.75544,0.15447,5.2881,-0.51829,-14.379,28.179,7.3087,-2.4362,-1.0447,9.745,3.8872e-11,-0.52235,0,0,0.14286,5.0753e-16,0,0.66667
0.97825,0.53983,6.8478,0.059749,0.1333,0.44125,-1.0911,0.36369,-1.9859,-1.4548,6.7889e-07,-0.99297,0,0,0.14286,2.7068e-15,0,0.66667
0.08331,0.51249,0.58317,0.01873,1.2042,275.97,-0.029127,0.0097089,-1.9974,-0.038835,3.2608e-08,-0.99869,0,0,0.14286,-0,-0,0.66667
0.22018,0.77882,1.5413,0.41823,25.831,213.67,-1.719,0.57299,-1.3801,-2.2919,-8.0639e-11,-0.69003,0,0,0.14286,-0,-0,0.66667
0.98371,0.51229,6.886,0.018433,0.028165,0.28327,-0.33848,0.11283,-2.0003,-0.45131,4.903e-06,-1.0002,0,0,0.14286,-0,-0,0.66667
0.54637,0.6823,3.8246,0.27346,12.394,84.504,-2.789,0.92966,-1.7365,-3.7187,-1.6431e-14,-0.86824,0,0,0.14286,-3.5319e-16,0,0.66667
0.55367,0.87998,3.8757,0.56998,25.682,82.537,-5.8908,1.9636,-0.84386,-7.8544,-1.3043e-12,-0.42193,0,0,0.14286,1.3534e-15,0,0.66667
0.34877,0.58031,2.4414,0.12047,6.8448,158.33,-0.7843,0.26143,-1.947,-1.0457,2.8612e-12,-0.97352,0,0,0.14286,6.7671e-16,0,0.66667
0.70379,0.51064,4.9265,0.015955,0.51677,39.103,-0.20961,0.069868,-2.0007,-0.27947,-1.1614e-12,-1.0004,0,0,0.14286,2.7068e-15,0,0.66667
0.49976,0.33378,3.4983,-0.24933,-12.092,100.42,2.326,-0.77534,-1.781,3.1013,3.646e-13,-0.89052,0,0,0.14286,6.7671e-16,0,0.66667
0.46949,0.67239,3.2865,0.25858,13.037,111.31,-2.2662,0.7554,-1.7636,-3.0216,-2.7645e-13,-0.88181,0,0,0.14286,6.7671e-16,0,0.66667
0.54977,0.23752,3.8484,-0.39371,-17.782,83.521,4.0405,-1.3468,-1.4486,5.3873,2.3315e-13,-0.7243,0,0,0.14286,-6.7671e-16,0,0.66667
0.02518,0.33842,0.17626,-0.24237,-15.698,303.05,0.11392,-0.037975,-1.7902,0.1519,-2.6652e-08,-0.89508,0,0,0.14286,-2.1147e-17,0,0.66667
0.53126,0.33415,3.7188,-0.24877,-11.537,89.534,2.4671,-0.82236,-1.7823,3.2894,2.5491e-13,-0.89114,0,0,0.14286,-0,-0,0.66667
0.13296,0.9488,0.93075,0.67321,43.129,253.22,-1.6709,0.55697,-0.38683,-2.2279,1.7974e-08,-0.19342,0,0,0.14286,-3.3835e-16,0,0.66667
0.45893,0.75295,3.2125,0.37943,19.404,115.31,-3.2504,1.0835,-1.4876,-4.3339,-6.3682e-13,-0.74381,0,0,0.14286,-0,-0,0.66667
0.082271,0.356,0.5759,-0.21601,-13.901,276.46,0.33173,-0.11058,-1.8332,0.4423,2.3637e-09,-0.91658,0,0,0.14286,-0,-0,0.66667
0.88896,0.7388,6.2227,0.35819,4.7472,6.886,-5.9438,1.9813,-1.5445,-7.9251,1.1575e-08,-0.77226,0,0,0.14286,-1.3534e-15,0,0.66667
0.37843,0.63,2.649,0.19501,10.81,146.29,-1.3775,0.45917,-1.8649,-1.8367,1.4017e-12,-0.93247,0,0,0.14286,-0,-0,0.66667
0.43035,0.13911,3.0125,-0.54134,-28.666,126.27,4.3487,-1.4496,-0.9562,5.7983,3.4821e-12,-0.4781,0,0,0.14286,-6.7671e-16,0,0.66667
0.74206,0.6167,5.1944,0.17505,5.0424,30.44,-2.4248,0.80825,-1.8895,-3.233,5.5869e-12,-0.94476,0,0,0.14286,-6.7671e-16,0,0.66667
0.15577,0.78972,1.0904,0.43458,27.535,242.69,-1.2637,0.42122,-1.3305,-1.6849,-1.9305e-09,-0.66524,0,0,0.14286,3.3835e-16,0,0.66667
0.57502,0.93349,4.0252,0.65024,28.341,75.867,-6.9795,2.3265,-0.49717,-9.306,2.3181e-13,-0.24859,0,0,0.14286,1.0151e-15,0,0.66667
0.51105,0.038345,3.5773,-0.69248,-33.367,97.128,6.606,-2.202,-0.29429,8.808,3.2685e-13,-0.14715,0,0,0.14286,-0,-0,0.66667
0.3683,0.76622,2.5781,0.39933,22.384,150.51,-2.7454,0.91513,-1.4312,-3.6605,2.4778e-12,-0.7156,0,0,0.14286,-4.3616e-16,0,0.66667
0.68334,0.18924,4.7833,-0.46614,-16.067,44.621,5.9459,-1.982,-1.2277,7.9279,4.7211e-12,-0.61387,0,0,0.14286,-0,-0,0.66667
0.79449,0.57925,5.5614,0.11887,2.7966,20.066,-1.763,0.58765,-1.9498,-2.3506,1.7161e-10,-0.97489,0,0,0.14286,1.3534e-15,0,0.66667
0.46768,0.60175,3.2738,0.15263,7.7054,111.91,-1.3325,0.44416,-1.9187,-1.7766,3.7004e-13,-0.95933,0,0,0.14286,-0,-0,0.66667
0.62735,0.076552,4.3915,-0.63517,-25.061,60.103,7.4382,-2.4794,-0.5656,9.9176,1.1147e-13,-0.2828,0,0,0.14286,-0,-0,0.66667
0.91254,0.74859,6.3878,0.37289,3.9114,4.6584,-6.3518,2.1173,-1.5053,-8.4691,2.1006e-08,-0.75264,0,0,0.14286,-5.0753e-16,0,0.66667
0.45697,0.46272,3.1988,-0.05592,-2.8581,115.84,0.47701,-0.159,-1.9887,0.63601,2.1505e-13,-0.99433,0,0,0.14286,-0,-0,0.66667
0.13502,0.97472,0.94514,0.71208,45.634,252.31,-1.7947,0.59824,-0.19618,-2.393,-1.1156e-08,-0.098089,0,0,0.14286,-0,-0,0.66667
0.54323,0.79162,3.8026,0.43743,19.977,85.741,-4.4357,1.4786,-1.3191,-5.9142,7.9714e-13,-0.65955,0,0,0.14286,-1.3534e-15,0,0.66667
0.43003,0.1151,3.0102,-0.57736,-30.608,126.44,4.6345,-1.5448,-0.81313,6.1794,2.6632e-12,-0.40657,0,0,0.14286,3.3835e-16,0,0.66667
0.76831,0.21489,5.3782,-0.42767,-11.279,25.388,6.1335,-2.0445,-1.3505,8.178,-6.1994e-11,-0.67524,0,0,0.14286,-0,-0,0.66667
0.79767,0.15509,5.5837,-0.51737,-12.136,20.129,7.7035,-2.5678,-1.0511,10.271,-4.3911e-10,-0.52554,0,0,0.14286,1.6918e-16,0,0.66667
0.17185,0.48559,1.2029,-0.021612,-1.3577,235.28,0.069328,-0.023109,-2.0004,0.092438,3.1512e-10,-1.0002,0,0,0.14286,3.3835e-16,0,0.66667
0.43794,0.82676,3.0656,0.49014,25.717,123.31,-4.0069,1.3356,-1.1475,-5.3425,1.0538e-12,-0.57374,0,0,0.14286,-6.7671e-16,0,0.66667
0.26682,0.55991,1.8677,0.089865,5.4015,193.04,-0.44759,0.1492,-1.9734,-0.59678,3.2056e-12,-0.98672,0,0,0.14286,-4.2294e-16,0,0.66667
0.95469,0.45745,6.6828,-0.063826,-0.33236,1.3862,1.1374,-0.37914,-1.9863,1.5166,3.4044e-07,-0.99315,0,0,0.14286,-0,-0,0.66667
0.93687,0.26601,6.5581,-0.35098,-2.6438,2.7693,6.138,-2.046,-1.5635,8.1841,-2.4737e-09,-0.78174,0,0,0.14286,-0,-0,0.66667
0.43435,0.096443,3.0404,-0.60534,-31.964,124.84,4.908,-1.636,-0.69783,6.544,9.317e-13,-0.34891,0,0,0.14286,1.3534e-15,1.4127e-16,0.66667
0.43101,0.131,3.0171,-0.5535,-29.297,126.03,4.4532,-1.4844,-0.90958,5.9376,2.8377e-12,-0.45479,0,0,0.14286,-0,-0,0.66667
0.74648,0.33578,5.2253,-0.24633,-6.9976,29.566,3.4324,-1.1441,-1.784,4.5766,-8.8103e-12,-0.89198,0,0,0.14286,6.7671e-16,0,0.66667
0.59598,0.24476,4.1718,-0.38286,-15.964,68.877,4.2592,-1.4197,-1.4797,5.679,-1.6609e-13,-0.73986,0,0,0.14286,1.0151e-15,0,0.66667
0.25907,0.45586,1.8135,-0.06621,-3.997,196.41,0.32019,-0.10673,-1.9827,0.42692,4.6566e-12,-0.99134,0,0,0.14286,-3.068e-16,0,0.66667
0.48317,0.59661,3.3822,0.14491,7.1761,106.27,-1.307,0.43567,-1.9274,-1.7427,8.8063e-13,-0.96371,0,0,0.14286,-1.3534e-15,0,0.66667
0.89011,0.55187,6.2308,0.077807,1.011,6.427,-1.2928,0.43093,-1.9802,-1.7237,7.393e-09,-0.99011,0,0,0.14286,-0,-0,0.66667
0.68155,0.04317,4.7709,-0.68525,-23.907,45.608,8.7179,-2.906,-0.32888,11.624,6.1906e-13,-0.16444,0,0,0.14286,-0,-0,0.66667
0.56313,0.22848,3.9419,-0.40727,-18.003,79.198,4.2811,-1.427,-1.412,5.7082,-2.0561e-13,-0.70598,0,0,0.14286,-0,-0,0.66667
0.87675,0.15357,6.1373,-0.51965,-7.6951,8.62,8.5046,-2.8349,-1.0416,11.339,2.7434e-09,-0.52078,0,0,0.14286,2.0301e-15,0,0.66667
0.27628,0.88114,1.9339,0.57171,34.361,189.21,-2.9484,0.9828,-0.83712,-3.9312,1.5539e-12,-0.41856,0,0,0.14286,-0,-0,0.66667
0.99685,0.59528,6.9779,0.14292,-0.021568,0.09918,-2.6595,0.88649,-1.9283,-3.546,7.0792e-07,-0.96414,0,0,0.14286,-2.7068e-15,0,0.66667
0.19984,0.7393,1.3989,0.35895,22.353,222.73,-1.339,0.44633,-1.5415,-1.7853,-3.3258e-10,-0.77075,0,0,0.14286,1.6918e-16,0,0.66667
0.83979,0.75664,5.8786,0.38496,7.2477,13.087,-6.0347,2.0116,-1.4727,-8.0462,2.0212e-09,-0.73636,0,0,0.14286,-2.7068e-15,0,0.66667
0.74234,0.41112,5.1964,-0.13332,-3.8349,30.35,1.8474,-0.61579,-1.9357,2.4632,-2.1556e-12,-0.96786,0,0,0.14286,-0,-0,0.66667
0.86405,0.17985,6.0484,-0.48022,-7.7854,10.037,7.7455,-2.5818,-1.1792,10.327,-3.4201e-09,-0.58961,0,0,0.14286,-1.3534e-15,0,0.66667
0.58492,0.37206,4.0944,-0.19191,-8.144,72.076,2.0954,-0.69847,-1.8683,2.7939,-7.5628e-13,-0.93417,0,0,0.14286,1.6918e-16,0,0.66667
0.23238,0.27996,1.6267,-0.33006,-20.244,208.22,1.4317,-0.47725,-1.6144,1.909,6.3755e-11,-0.8072,0,0,0.14286,-0,-0,0.66667
0.48352,0.030188,3.3846,-0.70472,-35.229,106.86,6.3606,-2.1202,-0.23696,8.4808,9.1394e-13,-0.11848,0,0,0.14286,5.8562e-17,2.2215e-17,0.66667
0.86238,0.081894,6.0366,-0.62716,-10.392,10.685,10.096,-3.3653,-0.60121,13.461,-1.257e-09,-0.30061,0,0,0.14286,-0,-0,0.66667
0.7978,0.10732,5.5846,-0.58902,-13.857,20.303,8.7719,-2.924,-0.76765,11.696,-1.5807e-10,-0.38383,0,0,0.14286,1.3534e-15,0,0.66667
0.17351,0.08388,1.2146,-0.62418,-39.44,234.74,2.0216,-0.67388,-0.61558,2.6955,1.2974e-09,-0.30779,0,0,0.14286,-0,-0,0.66667
0.99221,0.37599,6.9455,-0.18602,-0.086771,0.21174,3.4452,-1.1484,-1.8766,4.5936,-3.8546e-08,-0.93829,0,0,0.14286,-2.7068e-15,0,0.66667
0.030412,0.98132,0.21289,0.72197,47.094,300.65,-0.40986,0.13663,-0.14802,-0.54648,8.5807e-06,-0.074012,0,0,0.14286,-0,-0,0.66667
0.39265,0.79194,2.7485,0.43791,24.031,140.8,-3.2097,1.0699,-1.3186,-4.2796,1.1577e-12,-0.65931,0,0,0.14286,-0,-0,0.66667
0.7544,0.023561,5.2808,-0.71466,-20.08,28.962,10.064,-3.3546,-0.18335,13.419,-1.8408e-11,-0.091675,0,0,0.14286,-1.3534e-15,0,0.66667
0.97374,0.77146,6.8162,0.40719,1.2113,1.0753,-7.4013,2.4671,-1.4093,-9.8684,-3.094e-07,-0.70467,0,0,0.14286,-1.3534e-15,0,0.66667
0.14213,0.77632,0.99489,0.41448,26.365,248.91,-1.0996,0.36654,-1.3907,-1.4662,-3.9636e-09,-0.69534,0,0,0.14286,2.5377e-16,0,0.66667
0.92404,0.439,6.4683,-0.091506,-0.82116,3.3492,1.5784,-0.52612,-1.9718,2.1045,-7.5844e-08,-0.9859,0,0,0.14286,-2.7068e-15,0,0.66667
0.21902,0.22511,1.5332,-0.41234,-25.479,214.18,1.6858,-0.56194,-1.3979,2.2478,9.3677e-11,-0.69894,0,0,0.14286,-0,-0,0.66667
0.55264,0.50474,3.8685,0.0071117,0.31858,82.315,-0.073364,0.024455,-1.999,-0.097819,-1.3851e-12,-0.99951,0,0,0.14286,-0,-0,0.66667
0.43281,0.30191,3.0297,-0.29714,-15.63,125.05,2.4006,-0.8002,-1.685,3.2008,1.0629e-12,-0.8425,0,0,0.14286,-0,-0,0.66667
0.80806,0.51426,5.6564,0.021389,0.4725,17.676,-0.32263,0.10754,-1.9972,-0.43017,8.8077e-11,-0.99861,0,0,0.14286,-2.7068e-15,0,0.66667
0.13857,0.33453,0.96999,-0.24821,-15.776,250.49,0.64203,-0.21401,-1.7815,0.85604,3.7919e-09,-0.89075,0,0,0.14286,-0,-0,0.66667
0.19087,0.099821,1.3361,-0.60027,-37.663,226.9,2.1387,-0.7129,-0.71888,2.8516,5.7984e-11,-0.35944,0,0,0.14286,-0,-0,0.66667
0.56751,0.683,3.9726,0.2745,12.019,77.632,-2.9079,0.96931,-1.7316,-3.8772,3.9013e-13,-0.86578,0,0,0.14286,-3.3835e-16,0,0.66667
0.20995,0.5164,1.4697,0.024601,1.5221,218.12,-0.096413,0.032138,-1.996,-0.12855,-2.0883e-11,-0.99801,0,0,0.14286,-0,-0,0.66667
0.87999,0.035636,6.1599,-0.69655,-10.211,8.8413,11.442,-3.8139,-0.27444,15.256,4.9387e-08,-0.13722,0,0,0.14286,-0,-0,0.66667
0.57835,0.11715,4.0485,-0.57427,-24.831,74.655,6.1998,-2.0666,-0.82971,8.2664,6.5903e-13,-0.41486,0,0,0.14286,-6.7671e-16,0,0.66667
0.91176,0.10797,6.3823,-0.58805,-6.3493,5.3125,10.008,-3.3361,-0.76894,13.344,4.726e-08,-0.38447,0,0,0.14286,-0,-0,0.66667
0.76434,0.49026,5.3504,-0.014611,-0.38836,25.74,0.20846,-0.069487,-2.0004,0.27795,-1.0825e-11,-1.0002,0,0,0.14286,-0,-0,0.66667
0.47494,0.59457,3.3246,0.14186,7.0978,109.25,-1.2577,0.41923,-1.9283,-1.6769,1.1843e-12,-0.96413,0,0,0.14286,-1.3534e-15,0,0.66667
0.69241,0.60405,4.8469,0.15608,5.2212,41.936,-2.0173,0.67243,-1.9122,-2.6897,-3.9091e-12,-0.95612,0,0,0.14286,-1.3534e-15,0,0.66667
0.059802,0.57533,0.41862,0.11299,7.2914,286.9,-0.12614,0.042045,-1.9545,-0.16818,7.527e-08,-0.97723,0,0,0.14286,8.4588e-17,0,0.66667
0.63126,0.33956,4.4188,-0.24066,-9.3316,58.311,2.8358,-0.94526,-1.7933,3.781,1.5647e-12,-0.89663,0,0,0.14286,3.3835e-16,0,0.66667
0.98405,0.019628,6.8883,-0.72056,-1.4576,1.8635,13.236,-4.412,-0.15581,17.648,-8.8588e-06,-0.077905,0,0,0.14286,-0,1.5807e-16,0.66667
0.11938,0.074443,0.83569,-0.63834,-41.008,259.43,1.4225,-0.47418,-0.54972,1.8967,5.4392e-08,-0.27486,0,0,0.14286,-0,-0,0.66667
0.45157,0.058123,3.161,-0.66282,-34.389,118.47,5.587,-1.8623,-0.4395,7.4494,-6.1018e-13,-0.21975,0,0,0.14286,8.4588e-16,-8.151e-17,0.66667
0.018534,0.92438,0.12974,0.63657,41.471,306.17,-0.22023,0.073411,-0.55891,-0.29364,1.3075e-06,-0.27946,0,0,0.14286,2.1147e-17,0,0.66667
0.68813,0.68056,4.8169,0.27084,9.1786,43.108,-3.479,1.1597,-1.7412,-4.6386,-6.3134e-12,-0.87059,0,0,0.14286,-6.7671e-16,0,0.66667
0.019423,0.87546,0.13596,0.56319,36.638,305.75,-0.20419,0.068064,-0.87298,-0.27225,1.1188e-06,-0.43649,0,0,0.14286,-0,-0,0.66667
0.45527,0.64893,3.1869,0.2234,11.451,116.54,-1.8985,0.63284,-1.8232,-2.5314,-1.4189e-13,-0.91162,0,0,0.14286,3.3835e-16,0,0.66667
0.21915,0.61545,1.5341,0.17318,10.675,214.03,-0.70844,0.23615,-1.8953,-0.94459,-1.0953e-10,-0.94766,0,0,0.14286,-1.6918e-16,0,0.66667
0.80722,0.053099,5.6505,-0.67035,-15.18,18.945,10.101,-3.367,-0.40102,13.468,1.2163e-10,-0.20051,0,0,0.14286,6.7671e-16,0,0.66667
0.64564,0.84299,4.5195,0.51448,19.443,54.691,-6.2005,2.0668,-1.059,-8.2673,-1.5556e-12,-0.52951,0,0,0.14286,1.9455e-15,0,0.66667
0.66627,0.77702,4.6639,0.41553,14.929,48.937,-5.1679,1.7226,-1.3854,-6.8906,-3.1743e-12,-0.69271,0,0,0.14286,-2.822e-16,0,0.66667
0.54989,0.81526,3.8492,0.47289,21.387,83.599,-4.8541,1.618,-1.2056,-6.4721,-1.2879e-13,-0.60282,0,0,0.14286,-0,-0,0.66667
0.25045,0.29479,1.7531,-0.30782,-18.7,200.25,1.439,-0.47968,-1.6648,1.9187,1.4578e-11,-0.83239,0,0,0.14286,-3.3835e-16,0,0.66667
0.81569,0.9147,5.7098,0.62205,13.487,17.391,-9.4715,3.1572,-0.62405,-12.629,-1.187e-09,-0.31202,0,0,0.14286,-0,-0,0.66667
0.88012,0.77327,6.1608,0.40991,5.8684,7.9587,-6.7344,2.2448,-1.4016,-8.9792,7.2922e-09,-0.70078,0,0,0.14286,-1.3534e-15,0,0.66667
0.43832,0.8791,3.0682,0.56865,29.873,123.28,-4.6526,1.5509,-0.85249,-6.2035,-2.2116e-13,-0.42625,0,0,0.14286,-0,-0,0.66667
0.58633,0.74113,4.1043,0.3617,15.345,71.81,-3.9588,1.3196,-1.5333,-5.2783,4.11e-13,-0.76663,0,0,0.14286,6.7671e-16,0,0.66667
0.6243,0.18345,4.3701,-0.47483,-18.765,60.632,5.5335,-1.8445,-1.2007,7.378,5.1159e-13,-0.60035,0,0,0.14286,1.0151e-15,-2.8475e-18,0.66667
0.72761,0.10077,5.0932,-0.59884,-18.285,34.365,8.1335,-2.7112,-0.72363,10.845,4.3485e-12,-0.36181,0,0,0.14286,-0,-0,0.66667
0.5909,0.60245,4.1363,0.15368,6.4485,70.202,-1.6951,0.56502,-1.9161,-2.2601,-1.1391e-13,-0.95804,0,0,0.14286,-0,-0,0.66667
0.8066,0.035633,5.6462,-0.69655,-15.845,19.139,10.488,-3.4959,-0.27413,13.983,2.3926e-10,-0.13706,0,0,0.14286,-2.7068e-15,0,0.66667
0.82409,0.10417,5.7686,-0.59375,-12.318,15.971,9.1336,-3.0445,-0.74576,12.178,4.9214e-12,-0.37288,0,0,0.14286,-1.3534e-15,0,0.66667
0.55655,0.97893,3.8959,0.71839,32.362,81.931,-7.4634,2.4878,-0.16355,-9.9511,-1.2967e-13,-0.081774,0,0,0.14286,-0,-0,0.66667
0.88295,0.62833,6.1807,0.1925,2.6669,7.2834,-3.1727,1.0576,-1.8674,-4.2303,3.1738e-09,-0.9337,0,0,0.14286,2.7068e-15,0,0.66667
0.20294,0.6236,1.4206,0.18541,11.513,221.28,-0.70235,0.23412,-1.8811,-0.93647,-3.5087e-10,-0.94055,0,0,0.14286,4.6524e-16,0,0.66667
0.41362,0.76532,2.8953,0.39798,21.386,132.53,-3.0727,1.0242,-1.435,-4.0969,-3.1486e-13,-0.71749,0,0,0.14286,-0,-0,0.66667
0.63011,0.75902,4.4108,0.38853,15.14,58.821,-4.5699,1.5233,-1.4622,-6.0932,-8.3489e-13,-0.73108,0,0,0.14286,-0,-0,0.66667
0.10257,0.91683,0.71801,0.62525,40.308,267.17,-1.1972,0.39905,-0.60836,-1.5962,1.799e-08,-0.30418,0,0,0.14286,1.6918e-16,0,0.66667
0.71864,0.8183,5.0305,0.47745,14.918,36.108,-6.4048,2.1349,-1.1921,-8.5398,-5.6857e-12,-0.59607,0,0,0.14286,-0,5.8277e-18,0.66667
0.47968,0.89464,3.3578,0.59196,29.646,108.02,-5.3005,1.7668,-0.75292,-7.0673,-4.6629e-13,-0.37646,0,0,0.14286,-0,-0,0.66667
0.37899,0.21618,2.653,-0.42573,-23.651,146.23,3.0119,-1.004,-1.3558,4.0158,-7.0011e-13,-0.6779,0,0,0.14286,7.613e-16,0,0.66667
0.45185,0.012101,3.1629,-0.73185,-38.032,118.5,6.1728,-2.0576,-0.096615,8.2303,-1.7755e-12,-0.048307,0,0,0.14286,1.3534e-15,1.6057e-16,0.66667
0.36759,0.15763,2.5731,-0.51356,-28.86,150.92,3.5238,-1.1746,-1.0618,4.6984,6.7168e-13,-0.53089,0,0,0.14286,-0,-0,0.66667
0.23954,0.15483,1.6768,-0.51776,-31.728,205.18,2.3151,-0.7717,-1.0468,3.0868,-3.2023e-12,-0.52341,0,0,0.14286,-3.8748e-16,0,0.66667
0.91587,0.59212,6.4111,0.13818,1.3773,4.0347,-2.3624,0.78748,-1.9318,-3.1499,1.3808e-08,-0.9659,0,0,0.14286,-1.5226e-15,0,0.66667
0.79936,0.081268,5.5955,-0.6281,-14.705,20.15,9.3721,-3.124,-0.59733,12.496,-4.2348e-10,-0.29867,0,0,0.14286,-0,-0,0.66667
0.33394,0.58875,2.3376,0.13313,7.6526,164.47,-0.82987,0.27662,-1.9361,-1.1065,4.5663e-12,-0.96807,0,0,0.14286,-3.3835e-16,0,0.66667
0.16905,0.84906,1.1834,0.52359,33.073,236.7,-1.6522,0.55075,-1.0257,-2.203,-1.6082e-09,-0.51287,0,0,0.14286,-0,-0,0.66667
0.11663,0.21968,0.81638,-0.42048,-26.93,260.62,0.9154,-0.30513,-1.371,1.2205,8.0429e-09,-0.6855,0,0,0.14286,3.3835e-16,0,0.66667
0.79533,0.52872,5.5673,0.043074,1.009,19.884,-0.63949,0.21316,-1.9953,-0.85265,2.7017e-11,-0.99764,0,0,0.14286,-1.3534e-15,0,0.66667
0.70203,0.63458,4.9142,0.20186,6.5794,39.616,-2.6453,0.88177,-1.8564,-3.5271,-6.4624e-12,-0.92821,0,0,0.14286,-0,-0,0.66667
0.075233,0.23456,0.52663,-0.39815,-25.699,279.76,0.55914,-0.18638,-1.436,0.74552,3.4706e-08,-0.71802,0,0,0.14286,-0,-0,0.66667
0.11659,0.94458,0.81616,0.66687,42.895,260.73,-1.4514,0.4838,-0.41742,-1.9352,-4.8043e-08,-0.20871,0,0,0.14286,-0,-0,0.66667
0.9138,0.083089,6.3966,-0.62537,-6.6287,5.2668,10.667,-3.5558,-0.60776,14.223,-6.6538e-08,-0.30388,0,0,0.14286,-0,-0,0.66667
0.86977,0.14118,6.0884,-0.53824,-8.4103,9.4948,8.7387,-2.9129,-0.9685,11.652,-1.3755e-09,-0.48425,0,0,0.14286,-0,-0,0.66667
0.29195,0.079273,2.0437,-0.63109,-37.609,182.55,3.4393,-1.1464,-0.58257,4.5857,2.1916e-13,-0.29128,0,0,0.14286,-0,-0,0.66667
0.102,0.12575,0.714,-0.56138,-36.151,267.41,1.0689,-0.35629,-0.87915,1.4251,-1.7942e-08,-0.43958,0,0,0.14286,-3.3835e-16,0,0.66667
0.80889,0.6429,5.6622,0.21435,4.7262,17.65,-3.2365,1.0788,-1.8359,-4.3153,5.5075e-10,-0.91797,0,0,0.14286,-0,-0,0.66667
0.026174,0.61649,0.18322,0.17474,11.312,302.58,-0.085374,0.028458,-1.8904,-0.11383,1.3597e-08,-0.94519,0,0,0.14286,-0,-0,0.66667
0.63635,0.81808,4.4544,0.47713,18.384,57.205,-5.6675,1.8892,-1.1902,-7.5567,-1.2701e-12,-0.5951,0,0,0.14286,-0,-0,0.66667
0.16009,0.3699,1.1206,-0.19515,-12.317,240.65,0.58316,-0.19439,-1.8645,0.77755,1.8203e-09,-0.93225,0,0,0.14286,-1.6918e-16,0,0.66667
0.69162,0.84504,4.8414,0.51757,17.481,42.654,-6.682,2.2273,-1.048,-8.9093,-6.37e-12,-0.52399,0,0,0.14286,-0,-0,0.66667
0.16802,0.53761,1.1761,0.056421,3.5494,237.02,-0.17696,0.058985,-1.9884,-0.23594,2.0586e-10,-0.9942,0,0,0.14286,3.3835e-16,0,0.66667
0.34905,0.76668,2.4433,0.40002,22.783,158.37,-2.6063,0.86878,-1.4296,-3.4751,2.641e-12,-0.71479,0,0,0.14286,-6.7671e-16,0,0.66667
0.12209,0.43894,0.85461,-0.091597,-5.8425,258.04,0.20875,-0.069582,-1.9712,0.27833,-6.8603e-09,-0.98562,0,0,0.14286,-3.3835e-16,0,0.66667
0.28709,0.0035861,2.0096,-0.74462,-44.633,184.77,3.9904,-1.3301,-0.027956,5.3205,1.3469e-12,-0.013978,0,0,0.14286,-0,-0,0.66667
0.1291,0.82795,0.90368,0.49192,31.44,254.91,-1.1854,0.39515,-1.1386,-1.5806,-6.2196e-09,-0.56931,0,0,0.14286,-0,-0,0.66667
0.46339,0.60416,3.2437,0.15624,7.9289,113.49,-1.3515,0.4505,-1.9119,-1.802,1.5824e-12,-0.95594,0,0,0.14286,-0,-0,0.66667
0.64941,0.9215,4.5459,0.63225,23.78,53.928,-7.6643,2.5548,-0.57685,-10.219,-7.0921e-13,-0.28843,0,0,0.14286,1.3534e-15,0,0.66667
0.39451,0.77,2.7616,0.40499,22.174,140.03,-2.9824,0.99415,-1.4161,-3.9766,1.8079e-12,-0.70803,0,0,0.14286,-0,-0,0.66667
0.95296,0.16314,6.6707,-0.50529,-2.8719,2.2196,8.9883,-2.9961,-1.0947,11.984,-1.0396e-07,-0.54733,0,0,0.14286,-0,-0,0.66667
0.75487,0.80105,5.2841,0.45157,12.523,28.146,-6.363,2.121,-1.2738,-8.4839,1.9699e-11,-0.63688,0,0,0.14286,-6.7671e-16,0,0.66667
0.54438,0.34144,3.8106,-0.23784,-10.809,85.135,2.4169,-0.80562,-1.8001,3.2225,-6.4726e-13,-0.90003,0,0,0.14286,3.3835e-16,0,0.66667
0.56352,0.57896,3.9447,0.11844,5.2134,78.804,-1.2459,0.4153,-1.9512,-1.6612,-3.3307e-16,-0.97562,0,0,0.14286,-6.7671e-16,0,0.66667
0.3206,0.8383,2.2442,0.50745,29.585,170.28,-3.0369,1.0123,-1.0832,-4.0492,4.5004e-12,-0.54162,0,0,0.14286,3.5901e-16,0,0.66667
0.51252,0.96563,3.5876,0.69845,33.592,96.632,-6.6821,2.2274,-0.26612,-8.9095,-3.495e-13,-0.13306,0,0,0.14286,8.4588e-16,-6.0732e-17,0.66667
0.75781,0.73982,5.3047,0.35973,9.8439,27.366,-5.0887,1.6962,-1.5382,-6.7849,2.7509e-11,-0.7691,0,0,0.14286,-0,-0,0.66667
0.0018096,0.16617,0.012667,-0.50075,-32.554,313.96,0.016915,-0.0056375,-1.1091,0.022553,1.0673e-06,-0.55457,0,0,0.14286,-0,2.9322e-16,0.66667
0.48059,0.64674,3.3641,0.22011,10.942,107.24,-1.9746,0.6582,-1.8272,-2.6328,-4.5408e-13,-0.91358,0,0,0.14286,6.7671e-16,0,0.66667
0.90416,0.62556,6.3291,0.18833,2.1427,5.1171,-3.1786,1.0595,-1.8757,-4.2382,4.2354e-09,-0.93786,0,0,0.14286,-2.7068e-15,0,0.66667
0.8495,0.90819,5.9465,0.61228,11.016,12.322,-9.7092,3.2364,-0.66675,-12.946,-1.0446e-08,-0.33337,0,0,0.14286,-0,-0,0.66667
0.221,0.75037,1.547,0.37556,23.174,213.29,-1.5493,0.51642,-1.5003,-2.0657,-1.1316e-10,-0.75013,0,0,0.14286,-0,-0,0.66667
0.73624,0.14126,5.1537,-0.53811,-15.948,32.299,7.3953,-2.4651,-0.97087,9.8604,5.6741e-12,-0.48543,0,0,0.14286,-0,-0,0.66667
0.58487,0.63432,4.0941,0.20148,8.5516,72.097,-2.1997,0.73324,-1.8541,-2.933,-3.6304e-13,-0.92706,0,0,0.14286,-0,-0,0.66667
0.52554,0.11453,3.6788,-0.57821,-27.206,91.922,5.6722,-1.8907,-0.80986,7.563,-4.7784e-13,-0.40493,0,0,0.14286,-0,-0,0.66667
0.66144,0.4526,4.6301,-0.071098,-2.5717,49.872,0.87785,-0.29262,-1.9806,1.1705,2.1075e-12,-0.99029,0,0,0.14286,-1.3534e-15,0,0.66667
0.63207,0.60237,4.4245,0.15356,5.9387,58.013,-1.8118,0.60394,-1.9146,-2.4157,-4.915e-13,-0.95732,0,0,0.14286,-0,-0,0.66667
0.071417,0.045138,0.49992,-0.68229,-44.281,281.59,0.90958,-0.30319,-0.343,1.2128,1.1591e-06,-0.1715,0,0,0.14286,-1.6918e-16,0,0.66667
0.41684,0.78662,2.9179,0.42994,23.04,131.32,-3.3454,1.1151,-1.3421,-4.4605,5.4845e-14,-0.67106,0,0,0.14286,-0,-0,0.66667
0.1993,0.095559,1.3951,-0.60666,-37.939,223.12,2.2569,-0.7523,-0.69189,3.0092,9.4091e-10,-0.34595,0,0,0.14286,-0,-0,0.66667
0.70058,0.52862,4.9041,0.042923,1.403,39.881,-0.56133,0.18711,-1.9945,-0.74844,-1.0335e-12,-0.99727,0,0,0.14286,-3.3835e-16,0,0.66667
0.27331,0.28183,1.9132,-0.32726,-19.629,190.3,1.6696,-0.55653,-1.6189,2.2261,-6.2647e-12,-0.80945,0,0,0.14286,-0,-0,0.66667
0.43642,0.72147,3.0549,0.33221,17.415,123.71,-2.7063,0.90212,-1.6098,-3.6085,-3.1108e-13,-0.80491,0,0,0.14286,1.3534e-15,0,0.66667
0.82163,0.66364,5.7514,0.24545,5.0828,15.609,-3.7645,1.2548,-1.7845,-5.0194,1.0355e-09,-0.89224,0,0,0.14286,-0,-0,0.66667
0.78306,0.18049,5.4814,-0.47927,-11.947,22.677,7.0056,-2.3352,-1.1843,9.3408,-1.32e-10,-0.59213,0,0,0.14286,-1.3534e-15,0,0.66667
0.85416,0.57525,5.9791,0.11288,1.9299,10.734,-1.7998,0.59994,-1.9533,-2.3997,1.2762e-09,-0.97665,0,0,0.14286,-0,-0,0.66667
0.47905,0.26242,3.3534,-0.35636,-17.778,107.92,3.1867,-1.0622,-1.547,4.249,-1.0569e-13,-0.77352,0,0,0.14286,-0,-0,0.66667
0.92649,0.15387,6.4855,-0.5192,-4.6457,3.9163,8.9793,-2.9931,-1.0415,11.972,-1.0792e-07,-0.52077,0,0,0.14286,3.3835e-16,0,0.66667
0.031555,0.93274,0.22088,0.64911,42.271,300.11,-0.38234,0.12745,-0.50452,-0.50979,1.5854e-06,-0.25226,0,0,0.14286,-4.2294e-17,0,0.66667
0.93828,0.7027,6.568,0.30404,2.228,2.588,-5.3252,1.7751,-1.6726,-7.1003,-1.1904e-08,-0.83632,0,0,0.14286,-0,-0,0.66667
0.34863,0.066985,2.4404,-0.64952,-37.183,158.83,4.2269,-1.409,-0.49952,5.6359,3.6375e-12,-0.24976,0,0,0.14286,-0,-0,0.66667
0.81282,0.82677,5.6898,0.49016,10.702,17.487,-7.437,2.479,-1.1475,-9.916,4.0761e-10,-0.57377,0,0,0.14286,-1.3534e-15,0,0.66667
0.94832,0.039593,6.6382,-0.69061,-4.4817,3.12,12.225,-4.0751,-0.30326,16.3,1.8325e-06,-0.15163,0,0,0.14286,-0,-9.0906e-17,0.66667
0.89181,0.40842,6.2427,-0.13737,-1.7594,6.2849,2.2869,-0.76229,-1.9351,3.0491,4.5998e-09,-0.96757,0,0,0.14286,-0,-0,0.66667
0.69802,0.9162,4.8861,0.62431,20.803,41.348,-8.1345,2.7115,-0.613,-10.846,-2.4762e-12,-0.3065,0,0,0.14286,-0,-0,0.66667
0.67018,0.22221,4.6913,-0.41668,-14.828,47.912,5.2127,-1.7376,-1.3843,6.9503,4.3689e-12,-0.69213,0,0,0.14286,-0,-0,0.66667
0.97358,0.6843,6.815,0.27645,0.80249,0.80994,-5.0241,1.6747,-1.728,-6.6989,-7.1588e-08,-0.86401,0,0,0.14286,6.2659e-16,0,0.66667
0.46511,0.43215,3.2558,-0.10177,-5.1524,112.84,0.88357,-0.29452,-1.9632,1.1781,-3.5483e-13,-0.98158,0,0,0.14286,3.3835e-16,0,0.66667
0.10402,0.46534,0.72812,-0.051992,-3.3299,266.38,0.10095,-0.03365,-1.9899,0.1346,-2.7134e-08,-0.99496,0,0,0.14286,-4.2294e-17,0,0.66667
0.024147,0.41298,0.16903,-0.13053,-8.4494,303.53,0.058838,-0.019613,-1.9381,0.078451,-8.9503e-09,-0.96905,0,0,0.14286,-0,-0,0.66667
0.8813,0.92694,6.1691,0.64042,9.2422,8.4903,-10.535,3.5118,-0.54018,-14.047,6.061e-08,-0.27009,0,0,0.14286,-1.3534e-15,0,0.66667
0.026191,0.433,0.18334,-0.1005,-6.5036,302.57,0.049132,-0.016378,-1.9636,0.065509,-5.4153e-07,-0.98178,0,0,0.14286,5.2868e-17,0,0.66667
0.95083,0.058909,6.6558,-0.66164,-4.061,2.8703,11.743,-3.9144,-0.44461,15.658,-4.0838e-07,-0.22231,0,0,0.14286,1.3534e-15,0,0.66667
0.56992,0.88755,3.9894,0.58133,25.509,77.33,-6.1845,2.0615,-0.7966,-8.2459,-2.7178e-13,-0.3983,0,0,0.14286,-0,-0,0.66667
0.65757,0.77338,4.603,0.41007,15.039,51.245,-5.0334,1.6778,-1.4034,-6.7112,-2.8559e-12,-0.70169,0,0,0.14286,-0,-0,0.66667
0.90917,0.27292,6.3642,-0.34062,-3.7013,4.8876,5.7807,-1.9269,-1.5875,7.7076,-1.6821e-08,-0.79376,0,0,0.14286,6.7671e-16,0,0.66667
0.90195,0.84431,6.3137,0.51647,6.134,5.9736,-8.6955,2.8985,-1.0521,-11.594,2.5306e-08,-0.52604,0,0,0.14286,-2.7068e-15,0,0.66667
0.39086,0.59887,2.736,0.1483,8.1259,141.31,-1.082,0.36067,-1.9244,-1.4427,-3.3784e-13,-0.96221,0,0,0.14286,-0,-0,0.66667
0.61254,0.039673,4.2878,-0.69049,-28.124,64.541,7.8951,-2.6317,-0.30467,10.527,-8.5976e-13,-0.15234,0,0,0.14286,-0,-0,0.66667
0.52184,0.63292,3.6528,0.19938,9.371,92.705,-1.9422,0.64739,-1.8573,-2.5896,-4.7662e-13,-0.92867,0,0,0.14286,-0,-0,0.66667
0.81704,0.11365,5.7193,-0.57953,-12.451,17.043,8.8387,-2.9462,-0.80477,11.785,-3.9218e-10,-0.40238,0,0,0.14286,-0,-0,0.66667
0.056183,0.87675,0.39328,0.56513,36.663,288.64,-0.59268,0.19756,-0.86405,-0.79024,-1.7254e-07,-0.43202,0,0,0.14286,1.6918e-16,0,0.66667
0.62698,0.98826,4.3888,0.73239,29.02,60.469,-8.5716,2.8572,-0.093228,-11.429,2.6823e-13,-0.046614,0,0,0.14286,-6.7671e-16,0,0.66667
0.42974,0.92015,3.0082,0.63022,33.463,126.64,-5.0555,1.6852,-0.58591,-6.7407,3.7437e-13,-0.29296,0,0,0.14286,6.7671e-16,0,0.66667
0.86093,0.77428,6.0265,0.41142,6.7885,10.267,-6.6118,2.2039,-1.3994,-8.8157,4.8714e-09,-0.69968,0,0,0.14286,-6.7671e-16,0,0.66667
0.68787,0.75936,4.8151,0.38905,13.225,43.34,-4.9954,1.6651,-1.4638,-6.6606,-6.863e-12,-0.73192,0,0,0.14286,1.3534e-15,0,0.66667
0.26102,0.80646,1.8272,0.45969,27.819,195.72,-2.2398,0.7466,-1.2481,-2.9864,1.9379e-11,-0.62404,0,0,0.14286,-3.3835e-16,0,0.66667
0.13424,0.024918,0.93967,-0.71262,-45.679,252.66,1.7857,-0.59523,-0.19322,2.3809,1.0244e-08,-0.096609,0,0,0.14286,-1.6918e-16,0,0.66667
0.54134,0.32024,3.7894,-0.26964,-12.317,86.17,2.7248,-0.90825,-1.7404,3.633,-4.412e-13,-0.87018,0,0,0.14286,-0,-0,0.66667
0.9819,0.96711,6.8733,0.70066,1.5901,1.8281,-12.842,4.2807,-0.25579,-17.123,-1.8131e-06,-0.1279,0,0,0.14286,-2.3827e-17,0,0.66667
0.34991,0.32517,2.4494,-0.26224,-14.901,157.92,1.7128,-0.57095,-1.7538,2.2838,-8.4965e-13,-0.87691,0,0,0.14286,-0,-0,0.66667
0.99541,0.68646,6.9679,0.27969,0.026832,0.2974,-5.197,1.7323,-1.7221,-6.9293,1.2732e-07,-0.86106,0,0,0.14286,-1.438e-15,0,0.66667
0.51808,0.83483,3.6265,0.50225,23.845,94.339,-4.8571,1.619,-1.1034,-6.4761,-8.3045e-14,-0.5517,0,0,0.14286,6.7671e-16,0,0.66667
0.19034,0.60302,1.3324,0.15453,9.6437,226.94,-0.54903,0.18301,-1.9151,-0.73204,-4.4995e-10,-0.95755,0,0,0.14286,-0,-0,0.66667
0.030616,0.62382,0.21431,0.18574,12.022,300.51,-0.10615,0.035382,-1.8803,-0.14153,6.3872e-08,-0.94014,0,0,0.14286,-4.7581e-17,0,0.66667
0.30302,0.21196,2.1212,-0.43206,-25.468,177.64,2.4439,-0.81464,-1.3351,3.2586,-4.3954e-12,-0.66754,0,0,0.14286,-5.0753e-16,0,0.66667
0.035078,0.79402,0.24555,0.44102,28.61,298.44,-0.28878,0.09626,-1.3076,-0.38504,1.6372e-07,-0.65382,0,0,0.14286,-0,-0,0.66667
0.59005,0.69449,4.1304,0.29174,12.28,70.577,-3.2133,1.0711,-1.6971,-4.2843,-8.6331e-13,-0.84856,0,0,0.14286,1.3534e-15,0,0.66667
0.70162,0.70425,4.9113,0.30638,10.014,39.831,-4.0126,1.3375,-1.667,-5.3502,-8.1926e-12,-0.83348,0,0,0.14286,-0,-0,0.66667
0.66999,0.56748,4.6899,0.10121,3.5864,47.622,-1.2658,0.42195,-1.9648,-1.6878,-1.6654e-12,-0.98238,0,0,0.14286,-1.3534e-15,0,0.66667
0.35621,0.52222,2.4935,0.033323,1.8815,155.26,-0.22157,0.073858,-1.9959,-0.29543,1.8174e-12,-0.99793,0,0,0.14286,-0,-0,0.66667
0.11164,0.33141,0.78151,-0.25288,-16.185,262.87,0.52701,-0.17567,-1.7728,0.70268,8.5302e-09,-0.88641,0,0,0.14286,1.6918e-16,0,0.66667
0.64132,0.80213,4.4892,0.4532,17.263,55.769,-5.4254,1.8085,-1.2713,-7.2339,-1.3078e-12,-0.63566,0,0,0.14286,-0,-0,0.66667
0.063197,0.15304,0.44238,-0.52045,-33.709,285.37,0.61396,-0.20465,-1.0394,0.81861,5.7863e-08,-0.51971,0,0,0.14286,-1.0574e-16,0,0.66667
0.64436,0.39764,4.5105,-0.15354,-5.7805,54.559,1.8468,-0.6156,-1.9157,2.4624,1.4285e-12,-0.95785,0,0,0.14286,6.7671e-16,0,0.66667
0.83529,0.12214,5.847,-0.56679,-11.052,14.194,8.8374,-2.9458,-0.85705,11.783,1.5387e-09,-0.42852,0,0,0.14286,3.3835e-16,0,0.66667
0.057159,0.43351,0.40011,-0.099729,-6.4372,288.13,0.10641,-0.03547,-1.9641,0.14188,-1.7018e-07,-0.98204,0,0,0.14286,-7.1891e-17,0,0.66667
0.35587,0.93599,2.4911,0.65399,37.225,155.87,-4.3444,1.4481,-0.48,-5.7925,-3.6593e-13,-0.24,0,0,0.14286,1.6918e-16,1.5324e-16,0.66667
0.61872,0.37724,4.331,-0.18414,-7.3243,61.881,2.1268,-0.70892,-1.8789,2.8357,-2.1982e-14,-0.93947,0,0,0.14286,2.7068e-15,0,0.66667
0.6386,0.96193,4.4702,0.6929,26.749,57.074,-8.2597,2.7532,-0.29378,-11.013,7.6206e-13,-0.14689,0,0,0.14286,-1.0151e-15,0,0.66667
0.19794,0.37041,1.3856,-0.19438,-12.096,223.52,0.7182,-0.2394,-1.8651,0.9576,4.5121e-10,-0.93253,0,0,0.14286,5.4015e-16,0,0.66667
0.62336,0.9519,4.3635,0.67785,27.005,61.357,-7.8875,2.6292,-0.36689,-10.517,4.4853e-14,-0.18345,0,0,0.14286,-1.3534e-15,0,0.66667
0.55754,0.80246,3.9028,0.45369,20.259,81.072,-4.7218,1.5739,-1.267,-6.2957,1.1235e-13,-0.63349,0,0,0.14286,-0,-0,0.66667
0.88572,0.99214,6.2,0.73821,10.38,8.3804,-12.205,4.0683,-0.061483,-16.273,1.1042e-08,-0.030741,0,0,0.14286,-0,-0,0.66667
0.69703,0.2449,4.8792,-0.38265,-12.689,41.063,4.9787,-1.6596,-1.4785,6.6383,8.062e-12,-0.73923,0,0,0.14286,-6.7671e-16,0,0.66667
0.36426,0.31484,2.5498,-0.27775,-15.599,152.06,1.8886,-0.62952,-1.7256,2.5181,-1.3125e-12,-0.86281,0,0,0.14286,1.3534e-15,0,0.66667
0.22535,0.15108,1.5774,-0.52338,-32.301,211.45,2.2016,-0.73386,-1.025,2.9354,6.9521e-11,-0.51251,0,0,0.14286,-3.5744e-17,0,0.66667
0.61091,0.73881,4.2764,0.35821,14.507,64.359,-4.0849,1.3616,-1.5446,-5.4465,-2.1583e-13,-0.7723,0,0,0.14286,-6.7671e-16,0,0.66667
0.25557,0.89698,1.789,0.59547,36.235,198.22,-2.8407,0.94691,-0.73797,-3.7876,4.3445e-12,-0.36899,0,0,0.14286,3.3835e-16,0,0.66667
0.075813,0.71899,0.53069,0.32849,21.183,279.47,-0.46487,0.15496,-1.6181,-0.61983,-1.5377e-08,-0.80904,0,0,0.14286,3.3835e-16,0,0.66667
0.8227,0.6044,5.7589,0.1566,3.219,15.347,-2.405,0.80165,-1.9115,-3.2066,8.6632e-10,-0.95573,0,0,0.14286,-0,-0,0.66667
0.22795,0.71192,1.5957,0.31788,19.537,210.17,-1.3526,0.45088,-1.6395,-1.8035,-8.3557e-11,-0.81974,0,0,0.14286,-1.6918e-16,0,0.66667
0.37955,0.3177,2.6569,-0.27345,-15.153,145.88,1.9374,-0.64578,-1.7337,2.5831,2.2605e-12,-0.86685,0,0,0.14286,-0,-0,0.66667
0.84649,0.95893,5.9254,0.68839,12.685,12.996,-10.877,3.6258,-0.31511,-14.503,5.0069e-09,-0.15756,0,0,0.14286,6.7671e-16,0,0.66667
0.10315,0.53457,0.72205,0.051858,3.3219,266.78,-0.099852,0.033284,-1.9898,-0.13314,2.6357e-08,-0.99488,0,0,0.14286,-0,-0,0.66667
0.96939,0.034086,6.7857,-0.69887,-2.6988,2.2007,12.646,-4.2154,-0.26602,16.862,1.5664e-05,-0.13301,0,0,0.14286,-2.7068e-15,0,0.66667
0.52282,0.72581,3.6598,0.33872,15.923,92.489,-3.3057,1.1019,-1.5907,-4.4076,7.1565e-13,-0.79535,0,0,0.14286,-1.3534e-15,0,0.66667
0.67334,0.94224,4.7134,0.66336,23.606,47.649,-8.3377,2.7792,-0.43695,-11.117,-4.059e-13,-0.21848,0,0,0.14286,-0,-0,0.66667
0.73153,0.051846,5.1207,-0.67223,-20.339,33.704,9.1795,-3.0598,-0.39315,12.239,1.1369e-13,-0.19658,0,0,0.14286,6.7671e-16,0,0.66667
0.98098,0.20338,6.8669,-0.44493,-0.92712,0.95724,8.1474,-2.7158,-1.2955,10.863,3.0528e-07,-0.64775,0,0,0.14286,-1.1617e-15,0,0.66667
0.55276,0.046745,3.8693,-0.67988,-30.777,83.071,7.0151,-2.3384,-0.35482,9.3535,1.0916e-12,-0.17741,0,0,0.14286,-6.7671e-16,0,0.66667
0.69972,0.90663,4.8981,0.60995,20.218,40.896,-7.9669,2.6556,-0.6782,-10.622,-3.0251e-12,-0.3391,0,0,0.14286,-0,-0,0.66667
0.68269,0.78343,4.7788,0.42514,14.662,44.708,-5.4178,1.8059,-1.3573,-7.2237,-6.1013e-12,-0.67865,0,0,0.14286,2.7068e-15,0,0.66667
0.63023,0.75449,4.4116,0.38173,14.869,58.775,-4.4908,1.4969,-1.4813,-5.9877,-8.4821e-14,-0.74065,0,0,0.14286,-1.3534e-15,0,0.66667
0.79934,0.48237,5.5954,-0.026446,-0.6084,19.173,0.3946,-0.13153,-1.9975,0.52613,-6.3404e-11,-0.99875,0,0,0.14286,-1.3534e-15,0,0.66667
0.34565,0.64796,2.4196,0.22194,12.649,159.65,-1.432,0.47733,-1.8256,-1.9093,4.3499e-12,-0.91281,0,0,0.14286,-3.3835e-16,0,0.66667
0.48189,0.93812,3.3732,0.65718,32.876,107.35,-5.9115,1.9705,-0.46594,-7.882,-1.7053e-13,-0.23297,0,0,0.14286,1.3534e-15,1.3146e-17,0.66667
0.078123,0.46139,0.54686,-0.057908,-3.7267,278.38,0.084447,-0.028149,-1.9906,0.1126,-5.8571e-08,-0.99532,0,0,0.14286,-0,-0,0.66667
0.91011,0.19459,6.3707,-0.45811,-4.9717,5.0706,7.7827,-2.5942,-1.2534,10.377,-2.6927e-08,-0.62672,0,0,0.14286,-0,-0,0.66667
0.55923,0.050662,3.9146,-0.67401,-30.188,80.958,7.0359,-2.3453,-0.38431,9.3812,1.0045e-12,-0.19215,0,0,0.14286,-6.6226e-16,-1.5924e-16,0.66667
0.52499,0.16856,3.6749,-0.49716,-23.366,91.967,4.872,-1.624,-1.1195,6.496,1.914e-13,-0.55976,0,0,0.14286,-0,-0,0.66667
0.26695,0.35196,1.8687,-0.22206,-13.356,193.01,1.1066,-0.36886,-1.8259,1.4754,-1.2682e-12,-0.91295,0,0,0.14286,-0,-0,0.66667
0.89999,0.16742,6.3,-0.49887,-6.0308,6.1101,8.381,-2.7937,-1.1135,11.175,-2.7324e-08,-0.55675,0,0,0.14286,-0,-0,0.66667
0.013914,0.98328,0.097395,0.72492,47.325,308.33,-0.18827,0.062747,-0.1321,-0.25103,-1.5662e-05,-0.066052,0,0,0.14286,-0,1.6835e-16,0.66667
0.097001,0.59699,0.67901,0.14549,9.3341,269.63,-0.26343,0.087811,-1.9253,-0.35124,-3.8792e-09,-0.96264,0,0,0.14286,-0,-0,0.66667
0.060075,0.82778,0.42052,0.49167,31.843,286.81,-0.55135,0.18378,-1.1405,-0.73514,-3.7356e-08,-0.57025,0,0,0.14286,-8.4588e-17,0,0.66667
0.24092,0.83077,1.6865,0.49615,30.371,204.55,-2.2313,0.74376,-1.123,-2.975,9.1152e-12,-0.5615,0,0,0.14286,3.3835e-16,0,0.66667
0.49685,0.89628,3.4779,0.59442,29.12,101.9,-5.513,1.8377,-0.74343,-7.3507,-3.4106e-13,-0.37171,0,0,0.14286,-0,-0,0.66667
0.46352,0.045407,3.2447,-0.68189,-34.909,114.08,5.9,-1.9667,-0.34532,7.8667,6.4571e-13,-0.17266,0,0,0.14286,6.7671e-16,0,0.66667
0.27055,0.65899,1.8938,0.23849,14.316,191.46,-1.2044,0.40147,-1.7976,-1.6059,6.2986e-12,-0.89879,0,0,0.14286,-6.7671e-16,0,0.66667
0.55511,0.72119,3.8858,0.33179,14.842,81.697,-3.438,1.146,-1.6079,-4.584,6.7746e-13,-0.80396,0,0,0.14286,-1.3534e-15,0,0.66667
0.22734,0.9578,1.5913,0.6867,42.481,210.71,-2.9141,0.97136,-0.32164,-3.8854,4.0504e-11,-0.16082,0,0,0.14286,-0,-0,0.66667
0.3657,0.53423,2.5599,0.051345,2.8761,151.39,-0.35049,0.11683,-1.99,-0.46733,-1.2218e-13,-0.995,0,0,0.14286,1.3534e-15,0,0.66667
0.16996,0.63352,1.1897,0.20028,12.598,236.16,-0.63542,0.21181,-1.8581,-0.84722,-1.4352e-09,-0.92905,0,0,0.14286,-0,-0,0.66667
0.66427,0.8092,4.6499,0.46379,16.763,49.553,-5.7509,1.917,-1.2344,-7.6679,-2.5047e-12,-0.61718,0,0,0.14286,-5.0753e-16,0,0.66667
0.081667,0.11209,0.57167,-0.58187,-37.627,276.82,0.88704,-0.29568,-0.79552,1.1827,-9.4391e-09,-0.39776,0,0,0.14286,-0,-0,0.66667
0.34329,0.38553,2.403,-0.1717,-9.8011,160.6,1.1003,-0.36676,-1.897,1.467,2.4758e-14,-0.94849,0,0,0.14286,-0,-0,0.66667
0.53103,0.68641,3.7172,0.27962,12.976,89.641,-2.7717,0.9239,-1.7253,-3.6956,-2.589e-13,-0.86267,0,0,0.14286,-8.4588e-17,0,0.66667
0.54953,0.13679,3.8467,-0.54482,-24.696,83.843,5.5887,-1.8629,-0.94455,7.4516,-2.8866e-14,-0.47227,0,0,0.14286,-0,-0,0.66667
0.36765,0.89809,2.5736,0.59714,33.612,151,-4.0981,1.366,-0.73068,-5.4641,1.4033e-12,-0.36534,0,0,0.14286,-0,-0,0.66667
0.64375,0.6384,4.5063,0.2076,7.8306,54.768,-2.4947,0.83156,-1.8463,-3.3262,-1.2652e-12,-0.92317,0,0,0.14286,-0,-0,0.66667
0.16445,0.23775,1.1511,-0.39338,-24.84,238.72,1.2076,-0.40252,-1.448,1.6101,1.7092e-09,-0.72399,0,0,0.14286,-3.6392e-16,0,0.66667
0.7243,0.38051,5.0701,-0.17923,-5.4683,34.374,2.4233,-0.80776,-1.8849,3.231,5.5163e-12,-0.94247,0,0,0.14286,-0,-0,0.66667
0.92525,0.66774,6.4767,0.25161,2.2355,3.4152,-4.3457,1.4486,-1.7744,-5.7942,-1.3812e-10,-0.88721,0,0,0.14286,-0,-0,0.66667
0.98983,0.045843,6.9288,-0.68124,-0.83149,1.5772,12.587,-4.1957,-0.34839,16.783,-2.6466e-05,-0.1742,0,0,0.14286,-0,-0,0.66667
0.87848,0.077268,6.1494,-0.6341,-9.3511,8.7836,10.398,-3.4661,-0.56971,13.864,-3.5345e-08,-0.28486,0,0,0.14286,-0,-0,0.66667
0.26092,0.73009,1.8264,0.34514,20.855,195.7,-1.681,0.56033,-1.5753,-2.2413,5.2743e-12,-0.78766,0,0,0.14286,-0,-0,0.66667
0.038093,0.33015,0.26665,-0.25478,-16.49,297.02,0.18117,-0.060389,-1.7674,0.24156,-6.7843e-08,-0.8837,0,0,0.14286,-0,-0,0.66667
0.97403,0.18866,6.8182,-0.46701,-1.3976,1.2243,8.4911,-2.8304,-1.2245,11.321,5.1456e-07,-0.61226,0,0,0.14286,-2.7068e-15,0,0.66667
0.55712,0.2772,3.8998,-0.3342,-14.901,81.046,3.4755,-1.1585,-1.6023,4.634,6.4393e-14,-0.80116,0,0,0.14286,-6.7671e-16,0,0.66667
0.53971,0.13165,3.778,-0.55252,-25.436,87.104,5.5664,-1.8555,-0.91325,7.4219,2.3759e-13,-0.45663,0,0,0.14286,-0,-0,0.66667
0.14646,0.18103,1.0252,-0.47846,-30.423,246.95,1.3081,-0.43603,-1.185,1.7441,2.7357e-09,-0.5925,0,0,0.14286,-8.4588e-17,0,0.66667
0.91249,0.54032,6.3874,0.060483,0.62627,4.2781,-1.0302,0.34341,-1.9856,-1.3736,4.3995e-08,-0.99278,0,0,0.14286,-0,-0,0.66667
0.95761,0.19209,6.7033,-0.46187,-2.3368,1.8661,8.2561,-2.752,-1.2412,11.008,1.9199e-08,-0.6206,0,0,0.14286,-0,-0,0.66667
0.85963,0.29768,6.0174,-0.30348,-5.0276,10.228,4.8697,-1.6232,-1.6744,6.493,-4.388e-09,-0.83719,0,0,0.14286,-0,-0,0.66667
0.69276,0.072768,4.8493,-0.64085,-21.674,42.681,8.2871,-2.7624,-0.53851,11.05,8.9173e-13,-0.26925,0,0,0.14286,1.3534e-15,0,0.66667
0.3859,0.10849,2.7013,-0.58727,-32.522,143.67,4.2304,-1.4101,-0.77248,5.6405,2.331e-12,-0.38624,0,0,0.14286,6.7671e-16,0,0.66667
0.92673,0.36692,6.4871,-0.19962,-1.7329,3.2368,3.4531,-1.151,-1.8574,4.6042,-1.0447e-08,-0.9287,0,0,0.14286,6.7671e-16,0,0.66667
0.85447,0.47745,5.9813,-0.033828,-0.57679,10.663,0.53956,-0.17985,-1.9949,0.71941,-4.7969e-10,-0.99746,0,0,0.14286,-0,-0,0.66667
0.83789,0.0019632,5.8652,-0.74706,-14.539,14.432,11.684,-3.8948,-0.015331,15.579,1.029e-09,-0.0076654,0,0,0.14286,-0,-0,0.66667
0.58406,0.01764,4.0884,-0.72354,-31.117,73.228,7.8883,-2.6294,-0.13699,10.518,3.2019e-13,-0.068497,0,0,0.14286,-1.3534e-15,0,0.66667
0.069977,0.02375,0.48984,-0.71437,-46.405,282.27,0.93315,-0.31105,-0.18406,1.2442,1.2833e-06,-0.092029,0,0,0.14286,-0,-0,0.66667
0.025655,0.76683,0.17958,0.40025,25.965,302.83,-0.19167,0.063892,-1.4288,-0.25557,2.8792e-07,-0.71442,0,0,0.14286,-0,-0,0.66667
0.2256,0.52562,1.5792,0.038427,2.3604,211.14,-0.16183,0.053942,-1.9936,-0.21577,-1.1411e-11,-0.99681,0,0,0.14286,3.3835e-16,0,0.66667
0.092302,0.687,0.64612,0.28049,18.029,271.82,-0.48328,0.16109,-1.7226,-0.64438,-1.0469e-08,-0.86131,0,0,0.14286,4.2294e-17,0,0.66667
0.74511,0.67919,5.2157,0.26878,7.6745,29.884,-3.7384,1.2461,-1.7422,-4.9845,5.9661e-12,-0.87108,0,0,0.14286,-0,-0,0.66667
0.85106,0.74144,5.9574,0.36216,6.3614,11.466,-5.7533,1.9178,-1.5321,-7.6711,3.301e-09,-0.76607,0,0,0.14286,-0,-0,0.66667
0.54047,0.17388,3.7833,-0.48918,-22.46,86.741,4.9352,-1.6451,-1.1474,6.5802,8.1934e-13,-0.57372,0,0,0.14286,-6.7671e-16,0,0.66667
0.61127,0.96831,4.2789,0.70246,28.695,64.946,-8.0154,2.6718,-0.24751,-10.687,8.8463e-13,-0.12375,0,0,0.14286,-4.4409e-16,0,0.66667
0.47314,0.62937,3.312,0.19405,9.7342,109.93,-1.7138,0.57127,-1.8659,-2.2851,2.6168e-13,-0.93294,0,0,0.14286,-0,-0,0.66667
0.93519,0.83149,6.5463,0.49723,3.9118,3.2416,-8.6801,2.8934,-1.1211,-11.573,7.9684e-08,-0.56055,0,0,0.14286,-1.1075e-15,0,0.66667
0.61281,0.19283,4.2897,-0.46075,-18.63,63.956,5.2706,-1.7569,-1.2453,7.0275,2.82e-13,-0.62264,0,0,0.14286,-0,-0,0.66667
0.62036,0.7915,4.3425,0.43725,17.405,61.706,-5.0634,1.6878,-1.3192,-6.7512,-4.3565e-13,-0.65959,0,0,0.14286,-0,-0,0.66667
0.85801,0.91771,6.006,0.62657,10.69,11.24,-10.035,3.3451,-0.60505,-13.38,3.8832e-09,-0.30253,0,0,0.14286,-1.3534e-15,1.5718e-16,0.66667
0.38374,0.13184,2.6862,-0.55224,-30.619,144.48,3.9558,-1.3186,-0.91435,5.2744,2.663e-12,-0.45717,0,0,0.14286,-1.3534e-15,0,0.66667
0.06411,0.67409,0.44877,0.26114,16.857,284.9,-0.31251,0.10417,-1.7582,-0.41668,1.1807e-08,-0.87909,0,0,0.14286,-0,-0,0.66667
0.74015,0.34466,5.181,-0.23301,-6.7608,30.908,3.2192,-1.0731,-1.8069,4.2923,4.2899e-13,-0.90343,0,0,0.14286,-0,-0,0.66667
0.84419,0.26199,5.9093,-0.35702,-6.5413,12.406,5.626,-1.8753,-1.5485,7.5013,-2.5076e-09,-0.77427,0,0,0.14286,1.3534e-15,0,0.66667
0.52023,0.13977,3.6416,-0.54035,-25.597,93.663,5.2473,-1.7491,-0.96065,6.9964,-5.1203e-13,-0.48032,0,0,0.14286,6.7671e-16,0,0.66667
0.46764,0.72691,3.2735,0.34036,17.216,112.06,-2.9711,0.99038,-1.5895,-3.9615,7.1254e-13,-0.79477,0,0,0.14286,-0,-0,0.66667
0.098624,0.57044,0.69037,0.10566,6.7757,268.87,-0.19452,0.064841,-1.9594,-0.25936,-9.7822e-09,-0.97969,0,0,0.14286,-0,-0,0.66667
0.31326,0.64746,2.1928,0.22118,12.915,173.17,-1.2934,0.43112,-1.8277,-1.7245,7.0438e-12,-0.91387,0,0,0.14286,-0,-0,0.66667
0.18739,0.077767,1.3117,-0.63335,-39.82,228.49,2.2154,-0.73846,-0.57573,2.9538,-2.8957e-10,-0.28787,0,0,0.14286,-3.3835e-16,0,0.66667
0.74742,0.024789,5.232,-0.71282,-20.514,30.405,9.9452,-3.3151,-0.19387,13.26,-3.7126e-12,-0.096937,0,0,0.14286,1.3534e-15,-1.1099e-16,0.66667
0.16037,0.77034,1.1226,0.40551,25.645,240.58,-1.2139,0.40463,-1.4145,-1.6185,-1.9927e-09,-0.70724,0,0,0.14286,1.6918e-16,0,0.66667
0.68463,0.69572,4.7924,0.29358,10.045,44.015,-3.7519,1.2506,-1.6936,-5.0026,-5.939e-12,-0.84681,0,0,0.14286,-0,-0,0.66667
0.44067,0.24092,3.0847,-0.38862,-20.293,122.15,3.1967,-1.0656,-1.4628,4.2623,-2.7578e-13,-0.73142,0,0,0.14286,3.3835e-16,0,0.66667
0.0042513,0.93655,0.029759,0.65482,42.69,312.82,-0.051965,0.017322,-0.47587,-0.069287,9.1944e-07,-0.23793,0,0,0.14286,7.2693e-18,4.0058e-17,0.66667
0.70234,0.12995,4.9164,-0.55508,-18.23,40.125,7.2773,-2.4258,-0.9066,9.7031,5.3304e-12,-0.4533,0,0,0.14286,-0,-9.4384e-17,0.66667
0.79289,0.32764,5.5502,-0.25855,-6.1393,20.481,3.8267,-1.2756,-1.7614,5.1022,-2.7602e-10,-0.88069,0,0,0.14286,-1.3534e-15,0,0.66667
0.33849,0.31614,2.3694,-0.27579,-15.815,162.64,1.7426,-0.58085,-1.7291,2.3234,-1.4853e-12,-0.86455,0,0,0.14286,1.3534e-15,0,0.66667
0.47734,0.20532,3.3414,-0.44202,-22.13,108.64,3.9385,-1.3128,-1.3035,5.2513,1.0074e-12,-0.65174,0,0,0.14286,-5.6528e-16,0,0.66667
0.048717,0.11058,0.34102,-0.58413,-37.939,292.11,0.5312,-0.17706,-0.78725,0.70826,2.4754e-07,-0.39363,0,0,0.14286,-8.4588e-17,0,0.66667
0.22657,0.15863,1.586,-0.51205,-31.577,210.9,2.1656,-0.72188,-1.0671,2.8875,1.1339e-10,-0.53354,0,0,0.14286,-6.7671e-16,0,0.66667
0.69626,0.28613,4.8738,-0.3208,-10.646,41.157,4.1693,-1.3898,-1.6331,5.5591,7.7374e-12,-0.81653,0,0,0.14286,-0,-0,0.66667
0.14114,0.030166,0.98796,-0.70475,-45.078,249.51,1.8567,-0.6189,-0.23711,2.4756,5.973e-09,-0.11856,0,0,0.14286,-4.2294e-17,0,0.66667
0.23059,0.78913,1.6141,0.43369,26.659,209.07,-1.8668,0.62225,-1.3308,-2.489,-5.062e-11,-0.66541,0,0,0.14286,-0,-0,0.66667
0.69479,0.574,4.8635,0.11099,3.6877,41.322,-1.4395,0.47984,-1.9544,-1.9193,-3.8325e-12,-0.97722,0,0,0.14286,-0,-0,0.66667
0.068365,0.09101,0.47856,-0.61349,-39.775,282.99,0.7829,-0.26097,-0.66133,1.0439,1.9185e-07,-0.33066,0,0,0.14286,8.4588e-17,0,0.66667
0.72933,0.67694,5.1053,0.2654,7.9809,33.326,-3.6133,1.2044,-1.7483,-4.8177,-5.1799e-12,-0.87417,0,0,0.14286,-0,-0,0.66667
0.62746,0.66786,4.3922,0.25179,9.8435,59.408,-2.9491,0.98304,-1.7747,-3.9322,-8.4444e-13,-0.88733,0,0,0.14286,-0,-0,0.66667
0.65207,0.26076,4.5645,-0.35886,-13.315,52.654,4.368,-1.456,-1.5412,5.824,2.5313e-12,-0.77062,0,0,0.14286,-0,-0,0.66667
0.32147,0.049843,2.2503,-0.67524,-39.482,170.12,4.0519,-1.3506,-0.37712,5.4025,1.0396e-12,-0.18856,0,0,0.14286,-0,-0,0.66667
0.53844,0.55079,3.7691,0.076179,3.4901,87.025,-0.76567,0.25522,-1.9776,-1.0209,-3.9801e-13,-0.9888,0,0,0.14286,-6.7671e-16,0,0.66667
0.078783,0.4845,0.55148,-0.023243,-1.4956,278.07,0.034181,-0.011394,-1.9995,0.045575,4.4771e-08,-0.99976,0,0,0.14286,-1.6918e-16,0,0.66667
0.28452,0.3005,1.9916,-0.29925,-17.821,185.46,1.5893,-0.52976,-1.6811,2.1191,-4.8277e-12,-0.84057,0,0,0.14286,3.3835e-16,0,0.66667
0.20287,0.72393,1.4201,0.33589,20.885,221.36,-1.272,0.42398,-1.6015,-1.6959,-3.3089e-10,-0.80073,0,0,0.14286,-0,-0,0.66667
0.51135,0.74782,3.5794,0.37173,17.772,96.481,-3.5482,1.1827,-1.5089,-4.731,-8.8862e-13,-0.75443,0,0,0.14286,9.3047e-16,0,0.66667
0.65221,0.47814,4.5655,-0.032787,-1.2118,52.356,0.39916,-0.13305,-1.9955,0.53222,9.2912e-13,-0.99774,0,0,0.14286,-0,-0,0.66667
0.61509,0.40338,4.3056,-0.14493,-5.8051,62.921,1.664,-0.55468,-1.9248,2.2187,9.6656e-13,-0.96242,0,0,0.14286,-8.4588e-16,0,0.66667
0.13364,0.5529,0.93546,0.079344,5.0454,252.73,-0.19793,0.065976,-1.976,-0.2639,-2.8627e-09,-0.98801,0,0,0.14286,-0,-0,0.66667
0.18016,0.45509,1.2611,-0.067359,-4.219,231.52,0.22652,-0.075507,-1.982,0.30203,4.0527e-10,-0.99101,0,0,0.14286,-0,-0,0.66667
0.49726,0.89243,3.4808,0.58865,28.817,101.74,-5.4639,1.8213,-0.76779,-7.2852,-3.4461e-13,-0.38389,0,0,0.14286,-0,-0,0.66667
0.020049,0.61707,0.14034,0.1756,11.371,305.44,-0.06572,0.021907,-1.8896,-0.087626,-1.8967e-08,-0.94481,0,0,0.14286,-0,-0,0.66667
0.73614,0.27412,5.153,-0.33883,-9.9835,31.92,4.6559,-1.552,-1.5928,6.2079,4.3556e-12,-0.7964,0,0,0.14286,-6.7671e-16,0,0.66667
0.59242,0.081343,4.147,-0.62799,-26.519,70.419,6.9446,-2.3149,-0.59873,9.2595,3.193e-13,-0.29937,0,0,0.14286,-0,-0,0.66667
0.15883,0.34742,1.1118,-0.22888,-14.455,241.23,0.67859,-0.2262,-1.8146,0.90479,2.0996e-09,-0.90732,0,0,0.14286,-0,-0,0.66667
0.91731,0.97515,6.4212,0.71273,7.342,5.3105,-12.204,4.068,-0.19323,-16.272,-3.0507e-08,-0.096616,0,0,0.14286,-0,-2.1719e-16,0.66667
0.54373,0.84745,3.8061,0.52117,23.826,85.714,-5.2896,1.7632,-1.0348,-7.0529,1.0161e-12,-0.51738,0,0,0.14286,-1.3534e-15,0,0.66667
0.99776,0.065581,6.9843,-0.65163,-0.097102,1.3426,12.137,-4.0455,-0.49149,16.182,7.3664e-06,-0.24574,0,0,0.14286,2.7068e-15,1.8043e-16,0.66667
0.042324,0.2771,0.29627,-0.33435,-21.648,295.06,0.26415,-0.08805,-1.6023,0.3522,-7.8545e-08,-0.80113,0,0,0.14286,4.2294e-17,0,0.66667
0.81295,0.48425,5.6906,-0.023619,-0.50953,16.86,0.35841,-0.11947,-1.9997,0.47789,-4.4068e-11,-0.99983,0,0,0.14286,-1.3534e-15,0,0.66667
0.077381,0.34908,0.54166,-0.22638,-14.582,278.73,0.327,-0.109,-1.8199,0.436,-1.424e-09,-0.90994,0,0,0.14286,-0,-0,0.66667
0.94025,0.052189,6.5817,-0.67172,-5.0103,3.5127,11.789,-3.9298,-0.3957,15.719,1.4969e-06,-0.19785,0,0,0.14286,1.3534e-15,0,0.66667
0.36144,0.74681,2.5301,0.37022,20.865,153.28,-2.4978,0.8326,-1.514,-3.3304,2.309e-12,-0.757,0,0,0.14286,8.4588e-16,0,0.66667
0.66661,0.32439,4.6663,-0.26341,-9.4274,48.633,3.2777,-1.0926,-1.7519,4.3703,4.0663e-12,-0.87596,0,0,0.14286,-0,-0,0.66667
0.71461,0.3643,5.0022,-0.20355,-6.3976,36.628,2.7152,-0.90508,-1.8518,3.6203,6.338e-12,-0.92592,0,0,0.14286,-0,-0,0.66667
0.7131,0.18449,4.9917,-0.47327,-15.031,37.386,6.2998,-2.0999,-1.2031,8.3997,8.3848e-12,-0.60157,0,0,0.14286,1.6918e-15,0,0.66667
0.69395,0.019381,4.8577,-0.72093,-24.386,42.623,9.3387,-3.1129,-0.15037,12.452,3.2152e-13,-0.075184,0,0,0.14286,-0,-0,0.66667
0.01165,0.79441,0.081548,0.44162,28.68,309.37,-0.096035,0.032012,-1.3057,-0.12805,-1.162e-07,-0.65283,0,0,0.14286,2.1147e-17,0,0.66667
0.22048,0.35625,1.5433,-0.21562,-13.287,213.45,0.88741,-0.2958,-1.8353,1.1832,1.3515e-10,-0.91764,0,0,0.14286,3.3835e-16,0,0.66667
0.79727,0.76274,5.5809,0.39411,9.2153,19.921,-5.8654,1.9551,-1.4495,-7.8205,2.8563e-10,-0.72474,0,0,0.14286,1.3534e-15,0,0.66667
0.78697,0.43065,5.5088,-0.10403,-2.5277,21.42,1.5282,-0.50939,-1.9604,2.0376,-7.0941e-11,-0.98022,0,0,0.14286,6.7671e-16,0,0.66667
0.80166,0.25381,5.6116,-0.36928,-8.4582,19.108,5.5261,-1.842,-1.5148,7.3681,-3.3561e-10,-0.7574,0,0,0.14286,-2.7068e-15,0,0.66667
0.0078286,0.73778,0.0548,0.35666,23.14,311.15,-0.052121,0.017373,-1.5459,-0.069494,-1.8699e-07,-0.77294,0,0,0.14286,1.0574e-17,0,0.66667
0.041346,0.66354,0.28942,0.2453,15.871,295.5,-0.18932,0.063108,-1.785,-0.25243,6.6409e-08,-0.89249,0,0,0.14286,8.4588e-17,0,0.66667
0.073826,0.71318,0.51678,0.31977,20.625,280.4,-0.44066,0.14689,-1.6361,-0.58755,-1.3449e-08,-0.81803,0,0,0.14286,8.4588e-17,0,0.66667
0.87375,0.85433,6.1162,0.53149,8.0602,9.0028,-8.6687,2.8896,-0.99669,-11.558,2.2453e-09,-0.49835,0,0,0.14286,-0,-1.9391e-17,0.66667
0.47744,0.18345,3.3421,-0.47483,-23.785,108.65,4.2318,-1.4106,-1.1974,5.6423,4.4187e-13,-0.59872,0,0,0.14286,1.0151e-15,0,0.66667
0.73172,0.38486,5.1221,-0.17272,-5.147,32.7,2.3591,-0.78637,-1.894,3.1455,1.4722e-12,-0.947,0,0,0.14286,-0,-0,0.66667
0.21832,0.011827,1.5282,-0.73226,-45.541,214.75,2.9841,-0.99471,-0.095255,3.9789,1.1076e-10,-0.047628,0,0,0.14286,-6.7671e-16,0,0.66667
0.66983,0.74717,4.6888,0.37076,13.191,47.929,-4.6357,1.5452,-1.5127,-6.181,-3.7574e-12,-0.75634,0,0,0.14286,-1.0151e-15,0,0.66667
0.44403,0.31563,3.1082,-0.27655,-14.366,120.79,2.2922,-0.76407,-1.7274,3.0563,-4.17e-13,-0.86368,0,0,0.14286,-1.3534e-15,0,0.66667
0.98864,0.26339,6.9205,-0.35492,-0.36315,0.55886,6.5499,-2.1833,-1.5511,8.7332,-1.09e-07,-0.77554,0,0,0.14286,-1.3534e-15,0,0.66667
0.28625,0.46239,2.0037,-0.05642,-3.3513,184.63,0.30147,-0.10049,-1.9879,0.40196,-9.0652e-13,-0.99395,0,0,0.14286,1.6918e-16,0,0.66667
0.10849,0.67679,0.75945,0.26519,16.986,264.33,-0.53706,0.17902,-1.7514,-0.71608,-9.5739e-09,-0.87568,0,0,0.14286,-0,-0,0.66667
0.5469,0.11601,3.8283,-0.57598,-26.238,84.767,5.8801,-1.96,-0.8228,7.8401,-3.9302e-13,-0.4114,0,0,0.14286,6.7671e-16,0,0.66667
0.68117,0.99277,4.7682,0.73916,25.872,45.868,-9.3986,3.1329,-0.05614,-12.531,-7.7449e-13,-0.02807,0,0,0.14286,6.7671e-16,0,0.66667
0.13472,0.42222,0.94304,-0.11667,-7.4176,252.24,0.2934,-0.097799,-1.9499,0.3912,3.4867e-09,-0.97497,0,0,0.14286,9.636e-18,0,0.66667
0.53924,0.84777,3.7747,0.52165,24.014,87.204,-5.2509,1.7503,-1.0315,-7.0012,-2.0828e-13,-0.51575,0,0,0.14286,1.3534e-15,0,0.66667
0.74439,0.19068,5.2107,-0.46399,-13.349,30.368,6.4472,-2.1491,-1.2341,8.5963,1.0194e-11,-0.61703,0,0,0.14286,-0,-0,0.66667
0.11184,0.55352,0.7829,0.080277,5.1328,262.76,-0.1676,0.055866,-1.9774,-0.22346,-5.8093e-09,-0.98868,0,0,0.14286,-8.4588e-17,0,0.66667
0.78567,0.93562,5.4997,0.65343,16.247,22.677,-9.5831,3.1944,-0.48206,-12.777,6.7283e-11,-0.24103,0,0,0.14286,-1.6918e-16,0,0.66667
0.54416,0.41552,3.8091,-0.12671,-5.7555,85.138,1.2871,-0.42904,-1.943,1.7161,-6.7946e-14,-0.9715,0,0,0.14286,-0,-0,0.66667
0.010525,0.60215,0.073672,0.15322,9.9237,309.89,-0.030101,0.010034,-1.9155,-0.040135,6.2673e-08,-0.95774,0,0,0.14286,-0,-0,0.66667
0.5891,0.8754,4.1237,0.5631,23.878,71.296,-6.1921,2.064,-0.87299,-8.2561,1.0631e-12,-0.4365,0,0,0.14286,-0,-0,0.66667
0.80467,0.79198,5.6327,0.43798,9.9184,18.73,-6.5786,2.1929,-1.3162,-8.7715,3.3732e-10,-0.65812,0,0,0.14286,-0,-0,0.66667
0.99094,0.46195,6.9366,-0.05707,-0.034129,0.13724,1.0557,-0.35189,-1.9872,1.4075,1.4968e-06,-0.99358,0,0,0.14286,1.9402e-15,0,0.66667
0.99131,0.64842,6.9392,0.22264,0.13329,0.27348,-4.1197,1.3733,-1.8223,-5.493,7.3724e-08,-0.91117,0,0,0.14286,1.3534e-15,0,0.66667
0.41395,0.13027,2.8977,-0.55459,-29.878,132.6,4.2854,-1.4285,-0.90525,5.7139,1.0179e-12,-0.45263,0,0,0.14286,-0,-0,0.66667
0.037335,0.10977,0.26135,-0.58534,-38.055,297.41,0.40794,-0.13598,-0.78008,0.54391,8.3209e-07,-0.39004,0,0,0.14286,-1.288e-16,0,0.66667
0.97041,0.53089,6.7929,0.04634,0.14958,0.69629,-0.83941,0.2798,-1.9946,-1.1192,1.7148e-06,-0.99729,0,0,0.14286,-5.9212e-16,0,0.66667
0.22054,0.39546,1.5438,-0.15682,-9.6595,213.41,0.64557,-0.21519,-1.9132,0.86076,1.1154e-10,-0.9566,0,0,0.14286,-3.3835e-16,0,0.66667
0.95501,0.65072,6.6851,0.22608,1.1792,1.5097,-4.0303,1.3434,-1.8194,-5.3738,-5.2435e-08,-0.90969,0,0,0.14286,-2.0301e-15,0,0.66667
0.96537,0.38426,6.7576,-0.17361,-0.67605,0.97596,3.1284,-1.0428,-1.8925,4.1712,4.7271e-08,-0.94625,0,0,0.14286,-2.7068e-15,0,0.66667
0.32834,0.055942,2.2984,-0.66609,-38.744,167.24,4.0824,-1.3608,-0.42495,5.4432,1.99e-12,-0.21248,0,0,0.14286,-3.3835e-16,0,0.66667
0.76276,0.99924,5.3393,0.74887,20.46,27.389,-10.662,3.5541,-0.007291,-14.217,-3.3715e-12,-0.0036455,0,0,0.14286,-2.6222e-15,-1.5979e-17,0.66667
0.63192,0.10669,4.4235,-0.58996,-23.021,58.692,6.9591,-2.3197,-0.76067,9.2788,4.1833e-13,-0.38033,0,0,0.14286,-0,-0,0.66667
0.84643,0.89218,5.925,0.58827,10.766,12.668,-9.2947,3.0982,-0.7694,-12.393,-2.7737e-09,-0.3847,0,0,0.14286,1.3534e-15,0,0.66667
0.9544,0.37234,6.6808,-0.19148,-1.0105,1.4976,3.4114,-1.1371,-1.8717,4.5485,7.3772e-09,-0.93585,0,0,0.14286,1.3534e-15,0,0.66667
0.2058,0.9087,1.4406,0.61306,38.238,220.21,-2.3552,0.78506,-0.66472,-3.1402,-2.0937e-10,-0.33236,0,0,0.14286,6.7671e-16,0,0.66667
0.40934,0.34792,2.8654,-0.22812,-12.286,134.06,1.7431,-0.58104,-1.8154,2.3241,1.5393e-12,-0.90772,0,0,0.14286,-0,-0,0.66667
0.72856,0.051773,5.0999,-0.67234,-20.533,34.364,9.1437,-3.0479,-0.39127,12.192,2.4141e-12,-0.19563,0,0,0.14286,-0,-0,0.66667
0.58992,0.70393,4.1294,0.30589,12.881,70.634,-3.3684,1.1228,-1.6665,-4.4912,-3.8058e-13,-0.83323,0,0,0.14286,6.7671e-16,0,0.66667
0.9412,0.40722,6.5884,-0.13917,-0.95949,2.1902,2.445,-0.81501,-1.9318,3.26,-5.7079e-08,-0.96592,0,0,0.14286,-0,-0,0.66667
0.44689,0.077457,3.1282,-0.63381,-33.034,120.16,5.2872,-1.7624,-0.56993,7.0496,8.4288e-13,-0.28496,0,0,0.14286,6.7671e-16,0,0.66667
0.61758,0.92022,4.3231,0.63033,25.367,62.912,-7.2666,2.4222,-0.58545,-9.6888,-3.5971e-13,-0.29272,0,0,0.14286,-0,-0,0.66667
0.082488,0.1309,0.57742,-0.55365,-35.779,276.43,0.8525,-0.28417,-0.90965,1.1367,4.261e-08,-0.45483,0,0,0.14286,-0,-0,0.66667
0.23041,0.76424,1.6129,0.39636,24.354,209.12,-1.7047,0.56825,-1.4405,-2.273,-5.6622e-11,-0.72026,0,0,0.14286,-3.3835e-16,0,0.66667
0.12199,0.112,0.85391,-0.582,-37.323,258.21,1.3253,-0.44175,-0.79531,1.767,-3.5441e-09,-0.39765,0,0,0.14286,1.6918e-16,-2.9273e-17,0.66667
0.76669,0.71463,5.3668,0.32194,8.5165,25.519,-4.6075,1.5358,-1.6335,-6.1433,5.7225e-11,-0.81674,0,0,0.14286,1.0151e-15,0,0.66667
0.019268,0.29361,0.13488,-0.30959,-20.069,305.81,0.11135,-0.037118,-1.6585,0.14847,-4.5575e-08,-0.82926,0,0,0.14286,-0,-0,0.66667
0.941,0.45598,6.587,-0.066025,-0.45578,2.1586,1.1597,-0.38658,-1.9839,1.5463,-1.463e-07,-0.99194,0,0,0.14286,-0,-0,0.66667
0.83589,0.039249,5.8512,-0.69113,-13.543,14.513,10.784,-3.5946,-0.30017,14.378,2.0401e-09,-0.15009,0,0,0.14286,-0,-0,0.66667
0.67901,0.97084,4.7531,0.70627,24.822,46.316,-8.9518,2.9839,-0.22586,-11.936,-5.5067e-13,-0.11293,0,0,0.14286,-0,-0,0.66667
0.02865,0.93276,0.20055,0.64913,42.28,301.46,-0.34716,0.11572,-0.50249,-0.46288,4.0058e-06,-0.25124,0,0,0.14286,6.3441e-17,0,0.66667
0.2579,0.43741,1.8053,-0.093888,-5.6721,196.92,0.45198,-0.15066,-1.9684,0.60265,9.1328e-12,-0.98422,0,0,0.14286,-4.9431e-16,0,0.66667
0.13628,0.84959,0.95397,0.52439,33.468,251.63,-1.334,0.44467,-1.0218,-1.7787,-6.3678e-09,-0.51091,0,0,0.14286,-0,-0,0.66667
0.7107,0.32717,4.9749,-0.25925,-8.2493,37.603,3.4393,-1.1464,-1.7591,4.5857,8.3473e-12,-0.87957,0,0,0.14286,-0,-0,0.66667
0.069466,0.086263,0.48626,-0.62061,-40.236,282.48,0.80474,-0.26825,-0.62918,1.073,8.3191e-08,-0.31459,0,0,0.14286,-4.2294e-17,0,0.66667
0.88989,0.4529,6.2292,-0.070649,-0.91968,6.4472,1.1736,-0.39119,-1.9836,1.5647,-3.1257e-09,-0.99181,0,0,0.14286,-0,-0,0.66667
0.55437,0.26041,3.8806,-0.35939,-16.103,81.971,3.719,-1.2397,-1.5391,4.9587,-1.8896e-13,-0.76953,0,0,0.14286,-0,-0,0.66667
0.10339,0.14302,0.72372,-0.53547,-34.457,266.76,1.0334,-0.34448,-0.97887,1.3779,1.1196e-08,-0.48943,0,0,0.14286,-0,-0,0.66667
0.46053,0.62673,3.2237,0.1901,9.6819,114.57,-1.6342,0.54472,-1.871,-2.1789,3.6748e-14,-0.93549,0,0,0.14286,1.3534e-15,0,0.66667
0.14199,0.44494,0.9939,-0.082593,-5.2397,248.9,0.2189,-0.072968,-1.977,0.29187,2.6819e-09,-0.98852,0,0,0.14286,3.3835e-16,0,0.66667
0.42314,0.39424,2.962,-0.15863,-8.42,128.67,1.253,-0.41767,-1.9115,1.6707,-3.2152e-13,-0.95576,0,0,0.14286,-0,-0,0.66667
0.71387,0.435,4.9971,-0.097497,-3.0677,36.729,1.2992,-0.43307,-1.9661,1.7323,2.2389e-12,-0.98304,0,0,0.14286,2.0301e-15,0,0.66667
0.69629,0.95678,4.8741,0.68517,22.995,41.942,-8.9055,2.9685,-0.32907,-11.874,-8.6242e-13,-0.16453,0,0,0.14286,-0,-0,0.66667
0.34815,0.67045,2.437,0.25567,14.547,158.64,-1.6615,0.55385,-1.7665,-2.2154,2.9432e-12,-0.88323,0,0,0.14286,6.7671e-16,0,0.66667
0.34876,0.60419,2.4413,0.15629,8.8816,158.34,-1.0175,0.33915,-1.912,-1.3566,4.2607e-12,-0.95598,0,0,0.14286,-0,-0,0.66667
0.076125,0.95097,0.53287,0.67645,43.865,279.41,-0.96123,0.32041,-0.37338,-1.2816,-5.2329e-07,-0.18669,0,0,0.14286,-0,-0,0.66667
0.087513,0.65898,0.61259,0.23848,15.336,274.03,-0.38957,0.12986,-1.7972,-0.51942,-1.2247e-08,-0.89861,0,0,0.14286,3.3835e-16,0,0.66667
0.049881,0.17337,0.34917,-0.48995,-31.767,291.55,0.4562,-0.15207,-1.1461,0.60827,2.7061e-08,-0.57305,0,0,0.14286,8.4588e-17,0,0.66667
0.074476,0.088519,0.52133,-0.61722,-39.985,280.16,0.85808,-0.28603,-0.64545,1.1441,1.9272e-07,-0.32273,0,0,0.14286,-4.2294e-17,4.7411e-18,0.66667
0.38509,0.84141,2.6956,0.51212,28.337,143.89,-3.6813,1.2271,-1.0672,-4.9084,9.992e-14,-0.53358,0,0,0.14286,-2.5377e-16,0,0.66667
0.81637,0.95834,5.7146,0.68751,14.917,17.499,-10.477,3.4923,-0.31872,-13.969,1.2549e-09,-0.15936,0,0,0.14286,-6.7671e-16,0,0.66667
0.34118,0.49237,2.3882,-0.01145,-0.65433,161.44,0.072923,-0.024308,-1.9999,0.097231,-4.0381e-13,-0.99994,0,0,0.14286,-6.7671e-16,0,0.66667
0.50612,0.15198,3.5428,-0.52203,-25.212,98.514,4.9319,-1.644,-1.0303,6.5758,5.0848e-13,-0.51513,0,0,0.14286,-3.8672e-17,0,0.66667
0.62349,0.73148,4.3644,0.34721,13.707,60.663,-4.041,1.347,-1.5721,-5.388,-6.0441e-13,-0.78605,0,0,0.14286,-0,-0,0.66667
0.58529,0.71946,4.097,0.3292,13.985,72.092,-3.5966,1.1989,-1.6144,-4.7955,-1.0401e-12,-0.80718,0,0,0.14286,2.7068e-15,0,0.66667
0.13388,0.96206,0.93713,0.69309,44.412,252.82,-1.732,0.57735,-0.29072,-2.3094,-2.1831e-09,-0.14536,0,0,0.14286,2.5377e-16,0,0.66667
0.61941,0.69096,4.3359,0.28644,11.391,61.771,-3.3119,1.104,-1.7077,-4.4159,-8.3489e-14,-0.85387,0,0,0.14286,-1.3534e-15,0,0.66667
0.52236,0.29755,3.6565,-0.30367,-14.278,92.612,2.961,-0.98699,-1.6703,3.948,4.1034e-13,-0.83515,0,0,0.14286,-6.1859e-16,0,0.66667
0.75148,0.084566,5.2603,-0.62315,-17.609,29.279,8.7413,-2.9138,-0.62033,11.655,2.3584e-11,-0.31017,0,0,0.14286,-0,-0,0.66667
0.67568,0.23686,4.7297,-0.39471,-13.848,46.448,4.9784,-1.6595,-1.4452,6.6379,5.2101e-12,-0.72262,0,0,0.14286,-0,-0,0.66667
0.47896,0.36711,3.3527,-0.19933,-9.9274,107.82,1.7821,-0.59404,-1.8576,2.3762,-1.9384e-13,-0.92881,0,0,0.14286,6.7671e-16,0,0.66667
0.95613,0.64978,6.6929,0.22466,1.1402,1.4523,-4.0097,1.3366,-1.8207,-5.3463,-5.1831e-08,-0.91037,0,0,0.14286,6.7671e-16,0,0.66667
0.26092,0.3591,1.8264,-0.21135,-12.755,195.64,1.0294,-0.34313,-1.8399,1.3725,4.1287e-12,-0.91995,0,0,0.14286,-0,-0,0.66667
0.71065,0.80208,4.9745,0.45312,14.486,37.92,-6.0109,2.0036,-1.2683,-8.0145,-9.6692e-12,-0.63413,0,0,0.14286,-0,-0,0.66667
0.20164,0.60542,1.4115,0.15812,9.8225,221.85,-0.59517,0.19839,-1.9119,-0.79356,-2.4125e-10,-0.95596,0,0,0.14286,-0,-0,0.66667
0.66362,0.81815,4.6453,0.47722,17.282,49.752,-5.9116,1.9705,-1.1891,-7.8822,-2.6104e-12,-0.59453,0,0,0.14286,-0,-0,0.66667
0.24952,0.23314,1.7466,-0.4003,-24.357,200.71,1.8644,-0.62148,-1.4319,2.4859,8.3407e-12,-0.71594,0,0,0.14286,-3.3835e-16,0,0.66667
0.20625,0.31008,1.4437,-0.28489,-17.679,219.83,1.0968,-0.3656,-1.7122,1.4624,2.8939e-10,-0.85609,0,0,0.14286,4.2294e-17,0,0.66667
0.37017,0.025093,2.5912,-0.71236,-40.123,150.16,4.9223,-1.6408,-0.19501,6.5631,4.1256e-13,-0.097507,0,0,0.14286,-0,-0,0.66667
0.50886,0.39287,3.562,-0.16069,-7.6906,97.169,1.5263,-0.50878,-1.9064,2.0351,-6.829e-13,-0.9532,0,0,0.14286,-0,-0,0.66667
0.68093,0.94056,4.7665,0.66084,23.07,45.698,-8.3997,2.7999,-0.44654,-11.2,3.2419e-13,-0.22327,0,0,0.14286,-2.7068e-15,0,0.66667
0.3096,0.69843,2.1672,0.29764,17.436,174.76,-1.7201,0.57337,-1.6848,-2.2935,7.3682e-12,-0.84242,0,0,0.14286,-0,-0,0.66667
0.38234,0.014758,2.6764,-0.72786,-40.578,145.31,5.1947,-1.7316,-0.11444,6.9263,1.9411e-12,-0.057221,0,0,0.14286,-1.3534e-15,0,0.66667
0.76093,0.98273,5.3265,0.7241,19.887,27.668,-10.285,3.4284,-0.13452,-13.713,6.1995e-13,-0.067262,0,0,0.14286,1.3534e-15,0,0.66667
0.33003,0.69773,2.3102,0.29659,17.121,166.17,-1.8272,0.60906,-1.6878,-2.4362,4.0997e-12,-0.84391,0,0,0.14286,-0,-0,0.66667
0.063799,0.90406,0.4466,0.60609,39.314,285.11,-0.7218,0.2406,-0.69603,-0.9624,3.9019e-08,-0.34802,0,0,0.14286,-8.4588e-17,0,0.66667
0.046104,0.46968,0.32273,-0.045476,-2.9384,293.28,0.039137,-0.013046,-1.9955,0.052183,-6.2161e-07,-0.99775,0,0,0.14286,-0,-0,0.66667
0.13493,0.090602,0.94448,-0.6141,-39.273,252.29,1.5467,-0.51556,-0.65863,2.0622,2.1077e-08,-0.32931,0,0,0.14286,2.1147e-16,0,0.66667
0.46952,0.8339,3.2866,0.50085,25.347,111.57,-4.3896,1.4632,-1.1097,-5.8527,1.2079e-13,-0.55484,0,0,0.14286,-0,-0,0.66667
0.3841,0.41569,2.6887,-0.12647,-6.9719,143.99,0.90677,-0.30226,-1.9416,1.209,-2.3914e-13,-0.9708,0,0,0.14286,-6.7671e-16,0,0.66667
0.6752,0.17222,4.7264,-0.49167,-17.315,46.752,6.1969,-2.0656,-1.1399,8.2626,3.8676e-12,-0.56994,0,0,0.14286,-0,-0,0.66667
0.095395,0.35155,0.66776,-0.22268,-14.297,270.38,0.39652,-0.13217,-1.8247,0.5287,9.0654e-09,-0.91236,0,0,0.14286,-0,-0,0.66667
0.1618,0.388,1.1326,-0.168,-10.595,239.86,0.50741,-0.16914,-1.8981,0.67654,1.3807e-09,-0.94907,0,0,0.14286,-0,-0,0.66667
0.96914,0.34178,6.784,-0.23733,-0.81752,0.90675,4.2934,-1.4311,-1.8027,5.7245,3.9856e-08,-0.90137,0,0,0.14286,-1.5226e-15,0,0.66667
0.42449,0.22941,2.9714,-0.40589,-21.573,128.34,3.2162,-1.0721,-1.4143,4.2882,3.9235e-13,-0.70714,0,0,0.14286,6.7671e-16,0,0.66667
0.91605,0.32726,6.4124,-0.25911,-2.5898,4.1565,4.4308,-1.4769,-1.7596,5.9077,-9.8795e-09,-0.87982,0,0,0.14286,-0,-0,0.66667
0.23435,0.3619,1.6404,-0.20714,-12.679,207.3,0.90615,-0.30205,-1.8495,1.2082,5.8405e-11,-0.92477,0,0,0.14286,-3.3835e-16,0,0.66667
0.98255,0.069165,6.8778,-0.64625,-1.3638,1.5882,11.853,-3.9509,-0.51604,15.804,1.8382e-07,-0.25802,0,0,0.14286,-0,-0,0.66667
0.12649,0.55562,0.88542,0.083424,5.3151,256.02,-0.19697,0.065658,-1.9765,-0.26263,4.7384e-10,-0.98825,0,0,0.14286,-0,-0,0.66667
0.77992,0.33681,5.4595,-0.24479,-6.1372,22.853,3.5638,-1.1879,-1.7883,4.7517,-1.3984e-10,-0.89416,0,0,0.14286,-1.3534e-15,0,0.66667
0.98063,0.98689,6.8644,0.73033,1.8083,1.9898,-13.369,4.4562,-0.10275,-17.825,-9.072e-06,-0.051376,0,0,0.14286,-0,-0,0.66667
0.48703,0.91383,3.4092,0.62075,30.822,105.44,-5.6433,1.8811,-0.63024,-7.5244,1.4211e-14,-0.31512,0,0,0.14286,-0,-0,0.66667
0.48989,0.0087591,3.4292,-0.73686,-36.573,104.66,6.7383,-2.2461,-0.068237,8.9843,1.1018e-12,-0.034118,0,0,0.14286,-0,-0,0.66667
0.17515,0.1629,1.226,-0.50564,-31.861,233.93,1.6531,-0.55105,-1.0909,2.2042,5.6125e-10,-0.54547,0,0,0.14286,-0,-0,0.66667
0.60894,0.28507,4.2626,-0.32239,-13.099,64.897,3.6646,-1.2215,-1.6331,4.8862,1.9029e-13,-0.81654,0,0,0.14286,-0,-0,0.66667
0.24288,0.012775,1.7002,-0.73084,-44.91,203.91,3.3135,-1.1045,-0.099087,4.418,2.6537e-11,-0.049544,0,0,0.14286,-0,-0,0.66667
0.7168,0.099254,5.0176,-0.60112,-18.969,36.831,8.0431,-2.681,-0.71628,10.724,4.8095e-12,-0.35814,0,0,0.14286,-2.7068e-15,1.0345e-16,0.66667
0.47407,0.30264,3.3185,-0.29604,-14.849,109.67,2.6197,-0.87323,-1.6871,3.4929,6.6569e-13,-0.84357,0,0,0.14286,-6.7671e-16,0,0.66667
0.23239,0.26393,1.6267,-0.35411,-21.725,208.23,1.5361,-0.51203,-1.5545,2.0481,5.2323e-11,-0.77725,0,0,0.14286,-0,-0,0.66667
0.46068,0.37624,3.2248,-0.18563,-9.4525,114.51,1.5963,-0.53211,-1.877,2.1284,-1.4878e-12,-0.93851,0,0,0.14286,1.3534e-15,0,0.66667
0.024607,0.50149,0.17225,0.002233,0.1445,303.31,-0.0010257,0.00034571,-1.9996,-0.0013657,5.7326e-06,-0.99979,0,0,0.14286,-1.6918e-16,0,0.66667
0.097131,0.43378,0.67992,-0.099325,-6.3711,269.56,0.18009,-0.060029,-1.9653,0.24012,2.9682e-09,-0.98265,0,0,0.14286,2.1147e-16,0,0.66667
0.10145,0.42528,0.71018,-0.11208,-7.1831,267.56,0.21225,-0.070751,-1.9535,0.28301,1.2297e-08,-0.97676,0,0,0.14286,-0,-0,0.66667
0.38922,0.12442,2.7245,-0.56338,-31.088,142.31,4.0932,-1.3644,-0.87386,5.4576,4.186e-12,-0.43693,0,0,0.14286,1.6918e-16,0,0.66667
0.71597,0.010907,5.0118,-0.73364,-23.343,37.418,9.8049,-3.2683,-0.086214,13.073,1.0907e-12,-0.043107,0,0,0.14286,-2.7068e-15,1.5375e-16,0.66667
0.052882,0.3437,0.37017,-0.23445,-15.151,290.13,0.23143,-0.077144,-1.8046,0.30858,-2.3932e-08,-0.90229,0,0,0.14286,-1.13e-16,0,0.66667
0.012488,0.55875,0.087416,0.088124,5.7058,308.97,-0.020543,0.0068472,-1.9729,-0.027391,-5.6231e-07,-0.98645,0,0,0.14286,-0,-0,0.66667
0.14747,0.85479,1.0323,0.53219,33.859,246.52,-1.465,0.48833,-0.99128,-1.9533,-2.3498e-09,-0.49564,0,0,0.14286,-0,-0,0.66667
0.93668,0.72859,6.5567,0.34288,2.5891,2.7658,-5.9952,1.9984,-1.5835,-7.9935,5.7015e-10,-0.79175,0,0,0.14286,-0,-0,0.66667
0.86574,0.22478,6.0601,-0.41283,-6.5885,9.6659,6.6714,-2.2238,-1.3929,8.8952,-6.0193e-09,-0.69646,0,0,0.14286,-0,-0,0.66667
0.40252,0.88777,2.8176,0.58166,31.709,137.09,-4.3704,1.4568,-0.79631,-5.8272,-7.4696e-13,-0.39815,0,0,0.14286,-0,-0,0.66667
0.16129,0.76328,1.1291,0.39492,24.964,240.16,-1.189,0.39635,-1.4441,-1.5854,-1.9402e-09,-0.72205,0,0,0.14286,-0,-0,0.66667
0.35482,0.79219,2.4838,0.43828,24.861,156.04,-2.9029,0.96763,-1.316,-3.8705,2.9101e-12,-0.65798,0,0,0.14286,-6.7671e-16,0,0.66667
0.93483,0.33782,6.5438,-0.24327,-1.877,2.7184,4.2451,-1.415,-1.7901,5.6601,1.1045e-08,-0.89504,0,0,0.14286,6.7671e-16,0,0.66667
0.64355,0.88129,4.5048,0.57194,21.752,55.393,-6.8707,2.2902,-0.83719,-9.1609,-1.0791e-12,-0.4186,0,0,0.14286,1.3534e-15,0,0.66667
0.47107,0.8897,3.2975,0.58454,29.582,111.13,-5.1401,1.7134,-0.78518,-6.8534,-5.1337e-13,-0.39259,0,0,0.14286,-6.7671e-16,0,0.66667
0.40237,0.24072,2.8166,-0.38892,-21.13,136.92,2.9211,-0.9737,-1.4616,3.8948,1.7839e-12,-0.7308,0,0,0.14286,-3.3835e-16,0,0.66667
0.89655,0.85186,6.2759,0.52779,6.6096,6.528,-8.8328,2.9443,-1.0083,-11.777,2.1262e-08,-0.50415,0,0,0.14286,-0,-0,0.66667
0.97347,0.04841,6.8143,-0.67739,-2.244,1.9717,12.309,-4.103,-0.36727,16.412,1.5822e-05,-0.18364,0,0,0.14286,-0,-0,0.66667
0.77868,0.38502,5.4507,-0.17247,-4.3406,23.016,2.5069,-0.83564,-1.8943,3.3426,-1.0225e-10,-0.94717,0,0,0.14286,-0,-0,0.66667
0.83334,0.52676,5.8334,0.040142,0.77797,13.653,-0.62444,0.20815,-1.9937,-0.83259,-3.3082e-10,-0.99684,0,0,0.14286,1.3534e-15,0,0.66667
0.30709,0.11486,2.1496,-0.57771,-34.048,176.05,3.3117,-1.1039,-0.81201,4.4155,-1.0831e-12,-0.406,0,0,0.14286,3.3835e-16,0,0.66667
0.93952,0.32229,6.5766,-0.26656,-1.9071,2.4467,4.6749,-1.5583,-1.7479,6.2332,1.8348e-08,-0.87395,0,0,0.14286,2.7068e-15,0,0.66667
0.4527,0.30996,3.1689,-0.28506,-14.665,117.54,2.4089,-0.80295,-1.7139,3.2118,-1.2055e-12,-0.85697,0,0,0.14286,4.7238e-16,0,0.66667
0.17931,0.46583,1.2551,-0.05126,-3.2115,231.91,0.17157,-0.05719,-1.9899,0.22876,5.3246e-10,-0.99495,0,0,0.14286,-0,-0,0.66667
0.5963,0.74654,4.1741,0.36981,15.407,68.76,-4.1164,1.3721,-1.5147,-5.4885,-2.4736e-13,-0.75734,0,0,0.14286,-1.6918e-16,0,0.66667
0.6841,0.58017,4.7887,0.12026,4.1115,43.995,-1.5357,0.51189,-1.948,-2.0475,-3.228e-12,-0.97399,0,0,0.14286,-0,-0,0.66667
0.43734,0.13403,3.0614,-0.54895,-28.856,123.62,4.4815,-1.4938,-0.93079,5.9753,1.9695e-12,-0.4654,0,0,0.14286,-0,1.5322e-16,0.66667
0.37334,0.74478,2.6134,0.36716,20.482,148.45,-2.5588,0.85294,-1.522,-3.4117,1.8072e-12,-0.76101,0,0,0.14286,-0,-0,0.66667
0.70431,0.47125,4.9302,-0.04312,-1.3946,38.98,0.56691,-0.18897,-1.9956,0.75588,2.6577e-12,-0.99778,0,0,0.14286,-0,-0,0.66667
0.25974,0.13312,1.8182,-0.55031,-33.38,196.36,2.6682,-0.8894,-0.92195,3.5576,-1.4438e-11,-0.46098,0,0,0.14286,-0,-0,0.66667
0.68635,0.86072,4.8044,0.54109,18.547,44.023,-6.9323,2.3108,-0.96003,-9.2431,-4.6301e-12,-0.48002,0,0,0.14286,1.3534e-15,-4.9917e-17,0.66667
0.57492,0.71539,4.0244,0.32308,13.978,75.33,-3.4673,1.1558,-1.6294,-4.623,-5.2269e-13,-0.8147,0,0,0.14286,-3.3835e-16,0,0.66667
0.33501,0.38039,2.345,-0.17942,-10.308,164.04,1.122,-0.37399,-1.8844,1.496,-3.9646e-13,-0.94222,0,0,0.14286,-6.7671e-16,0,0.66667
0.67669,0.88759,4.7368,0.58139,20.455,46.57,-7.3438,2.4479,-0.79694,-9.7918,-2.4363e-12,-0.39847,0,0,0.14286,-0,-0,0.66667
0.042896,0.13669,0.30027,-0.54496,-35.389,294.81,0.43636,-0.14545,-0.94322,0.58182,2.7295e-07,-0.47161,0,0,0.14286,-0,-0,0.66667
0.54883,0.72644,3.8418,0.33966,15.35,83.765,-3.4798,1.1599,-1.5906,-4.6397,7.3896e-13,-0.79529,0,0,0.14286,-0,-0,0.66667
0.5956,0.042348,4.1692,-0.68648,-28.875,69.594,7.6322,-2.5441,-0.32501,10.176,6.5592e-13,-0.1625,0,0,0.14286,-0,-0,0.66667
0.28722,0.63992,2.0105,0.20988,12.468,184.25,-1.1252,0.37508,-1.8417,-1.5003,9.1566e-12,-0.92086,0,0,0.14286,-0,-0,0.66667
0.35628,0.8629,2.494,0.54435,30.9,155.56,-3.6203,1.2068,-0.94605,-4.827,2.0084e-12,-0.47303,0,0,0.14286,-0,-0,0.66667
0.86302,0.97445,6.0411,0.71167,11.824,10.908,-11.465,3.8216,-0.19912,-15.286,1.1362e-08,-0.099558,0,0,0.14286,-0,-0,0.66667
0.61937,0.28437,4.3356,-0.32345,-12.872,61.827,3.7396,-1.2465,-1.6275,4.9861,1.1675e-12,-0.81376,0,0,0.14286,-0,-0,0.66667
0.63994,0.61974,4.4796,0.17961,6.8303,55.808,-2.1456,0.7152,-1.8875,-2.8608,-7.0033e-13,-0.94373,0,0,0.14286,-1.0151e-15,0,0.66667
0.10461,0.96779,0.73228,0.70168,45.29,266.26,-1.3702,0.45673,-0.24963,-1.8269,-2.7154e-07,-0.12481,0,0,0.14286,2.2204e-16,0,0.66667
0.23792,0.6579,1.6654,0.23685,14.474,205.73,-1.0519,0.35063,-1.8012,-1.4025,-4.2141e-11,-0.9006,0,0,0.14286,-0,-0,0.66667
0.71928,0.009716,5.035,-0.73543,-23.173,36.661,9.8742,-3.2914,-0.078783,13.166,-2.8537e-12,-0.039391,0,0,0.14286,-0,-0,0.66667
0.69947,0.16882,4.8963,-0.49677,-16.414,40.685,6.4862,-2.1621,-1.1219,8.6483,6.3078e-12,-0.56093,0,0,0.14286,-0,-0,0.66667
0.44662,0.39028,3.1264,-0.16458,-8.5162,119.74,1.3721,-0.45736,-1.9019,1.8294,-5.4468e-13,-0.95095,0,0,0.14286,6.7671e-16,0,0.66667
0.039252,0.45917,0.27477,-0.06124,-3.9594,296.47,0.044871,-0.014957,-1.985,0.059828,-4.8218e-07,-0.99251,0,0,0.14286,-0,-0,0.66667
0.050396,0.52244,0.35277,0.033667,2.1744,291.28,-0.031671,0.010557,-1.9956,-0.042229,4.9382e-08,-0.9978,0,0,0.14286,-0,-0,0.66667
0.088504,0.63435,0.61952,0.20153,12.954,273.57,-0.33293,0.11098,-1.8544,-0.44391,1.0748e-09,-0.9272,0,0,0.14286,-0,-0,0.66667
0.86433,0.31429,6.0503,-0.27857,-4.4634,9.5916,4.4945,-1.4982,-1.7241,5.9926,-5.1845e-09,-0.86203,0,0,0.14286,-0,-0,0.66667
0.13609,0.1409,0.95266,-0.53865,-34.388,251.72,1.3684,-0.45614,-0.96717,1.8246,7.0533e-10,-0.48358,0,0,0.14286,-1.6918e-16,0,0.66667
0.65826,0.20135,4.6078,-0.44797,-16.418,51.125,5.5045,-1.8348,-1.2868,7.3393,3.1783e-12,-0.6434,0,0,0.14286,-0,-0,0.66667
0.57697,0.18307,4.0388,-0.47539,-20.554,74.903,5.12,-1.7067,-1.1983,6.8267,9.5346e-13,-0.59916,0,0,0.14286,-0,-0,0.66667
0.7266,0.93175,5.0862,0.64763,19.878,34.729,-8.7839,2.928,-0.5075,-11.712,-3.9844e-12,-0.25375,0,0,0.14286,-1.6918e-15,0,0.66667
0.58257,0.65481,4.078,0.23222,9.9002,72.839,-2.5253,0.84177,-1.8085,-3.3671,-1.9384e-13,-0.90426,0,0,0.14286,-0,-0,0.66667
0.17942,0.46234,1.2559,-0.056495,-3.5394,231.85,0.18921,-0.06307,-1.9874,0.25228,4.9948e-10,-0.99368,0,0,0.14286,1.6918e-16,0,0.66667
0.73408,0.64469,5.1386,0.21704,6.4227,32.217,-2.9741,0.99137,-1.8344,-3.9655,-2.341e-12,-0.91721,0,0,0.14286,-0,-0,0.66667
0.59544,0.12312,4.1681,-0.56531,-23.696,69.36,6.2835,-2.0945,-0.86558,8.3779,6.6214e-13,-0.43279,0,0,0.14286,-0,-0,0.66667
0.54618,0.031394,3.8233,-0.70291,-32.174,85.279,7.1665,-2.3888,-0.24636,9.5553,6.608e-13,-0.12318,0,0,0.14286,-0,-3.1101e-18,0.66667
0.72712,0.81886,5.0899,0.47829,14.561,34.18,-6.4918,2.1639,-1.1854,-8.6557,-6.0503e-12,-0.59268,0,0,0.14286,-0,-0,0.66667
0.31395,0.7762,2.1976,0.4143,24.232,173,-2.4279,0.80931,-1.3912,-3.2373,7.5435e-12,-0.69562,0,0,0.14286,-0,-0,0.66667
0.070608,0.36837,0.49425,-0.19745,-12.729,281.88,0.26024,-0.086748,-1.8601,0.34699,8.7511e-09,-0.93003,0,0,0.14286,-0,-0,0.66667
0.088214,0.24035,0.6175,-0.38947,-25.082,273.73,0.64133,-0.21378,-1.4594,0.8551,1.9842e-08,-0.72968,0,0,0.14286,-0,-0,0.66667
0.32773,0.16596,2.2941,-0.50106,-29.058,167.3,3.0653,-1.0218,-1.1093,4.087,-1.1333e-12,-0.55464,0,0,0.14286,-0,-8.0375e-17,0.66667
0.23168,0.27243,1.6218,-0.34135,-20.947,208.53,1.4763,-0.49209,-1.5858,1.9684,6.0932e-11,-0.79292,0,0,0.14286,-1.6918e-16,0,0.66667
0.74822,0.79584,5.2375,0.44375,12.593,29.514,-6.1978,2.0659,-1.3003,-8.2637,-7.1232e-13,-0.65017,0,0,0.14286,-0,-0,0.66667
0.60764,0.93684,4.2535,0.65527,26.913,65.9,-7.4324,2.4775,-0.47542,-9.9099,7.3763e-13,-0.23771,0,0,0.14286,1.2688e-16,-1.3919e-17,0.66667
0.095431,0.94941,0.66802,0.67411,43.565,270.48,-1.2009,0.40029,-0.38491,-1.6011,-4.7771e-08,-0.19245,0,0,0.14286,-0,-0,0.66667
0.71985,0.45678,5.039,-0.064827,-2.0031,35.328,0.8711,-0.29037,-1.9862,1.1615,1.5757e-12,-0.9931,0,0,0.14286,6.7671e-16,0,0.66667
0.9161,0.98994,6.4127,0.73492,7.702,5.5008,-12.567,4.1891,-0.078223,-16.757,-1.4338e-08,-0.039111,0,0,0.14286,2.7068e-15,0,0.66667
0.82438,0.18212,5.7707,-0.47682,-9.8154,15.604,7.3375,-2.4458,-1.1915,9.7834,-7.0032e-10,-0.59576,0,0,0.14286,1.6918e-15,0,0.66667
0.67331,0.43523,4.7132,-0.097159,-3.4143,46.754,1.2211,-0.40705,-1.9684,1.6282,2.2193e-12,-0.98422,0,0,0.14286,3.3835e-16,0,0.66667
0.77664,0.41129,5.4365,-0.13306,-3.3746,23.375,1.929,-0.64301,-1.9366,2.5721,-7.8515e-11,-0.9683,0,0,0.14286,-0,-0,0.66667
0.15012,0.97693,1.0509,0.71539,45.648,245.41,-2.0047,0.66825,-0.17901,-2.673,2.8028e-10,-0.089505,0,0,0.14286,-3.3835e-16,0,0.66667
0.065513,0.43656,0.45859,-0.095165,-6.1361,284.24,0.11638,-0.038792,-1.9689,0.15517,-1.7564e-08,-0.98446,0,0,0.14286,1.586e-17,0,0.66667
0.74798,0.59705,5.2359,0.14558,4.1082,29.155,-2.0326,0.67755,-1.926,-2.7102,1.1222e-11,-0.963,0,0,0.14286,2.7068e-15,0,0.66667
0.98478,0.3791,6.8935,-0.18135,-0.25826,0.35703,3.3336,-1.1112,-1.8857,4.4448,-5.3783e-08,-0.94284,0,0,0.14286,-2.7068e-15,0,0.66667
0.24024,0.34967,1.6817,-0.22549,-13.762,204.7,1.0112,-0.33708,-1.8182,1.3483,3.865e-11,-0.90911,0,0,0.14286,-0,-0,0.66667
0.56194,0.65792,3.9336,0.23687,10.465,79.389,-2.4847,0.82823,-1.8034,-3.3129,-1.6633e-12,-0.9017,0,0,0.14286,1.3534e-15,0,0.66667
0.080826,0.021624,0.56578,-0.71756,-46.539,277.25,1.0826,-0.36087,-0.16931,1.4435,3.254e-07,-0.084654,0,0,0.14286,1.6918e-16,0,0.66667
0.56119,0.93798,3.9283,0.65697,29.315,80.287,-6.8821,2.294,-0.46785,-9.1761,-2.0917e-13,-0.23393,0,0,0.14286,-0,-1.0245e-17,0.66667
0.45044,0.053266,3.1531,-0.6701,-34.818,118.9,5.6343,-1.8781,-0.40353,7.5124,-2.1316e-14,-0.20177,0,0,0.14286,3.3835e-16,-1.4087e-16,0.66667
0.24055,0.17723,1.6839,-0.48416,-29.637,204.7,2.174,-0.72468,-1.165,2.8987,1.3426e-11,-0.58251,0,0,0.14286,-0,-0,0.66667
0.56538,0.38539,3.9577,-0.17191,-7.5464,78.235,1.8143,-0.60477,-1.8948,2.4191,9.7933e-13,-0.9474,0,0,0.14286,-1.3534e-15,0,0.66667
0.65399,0.91808,4.578,0.62713,23.338,52.669,-7.6559,2.552,-0.60186,-10.208,-1.0427e-12,-0.30093,0,0,0.14286,1.3534e-15,0,0.66667
0.91167,0.98864,6.3817,0.73297,8.0668,5.8627,-12.474,4.1578,-0.088416,-16.631,-1.486e-07,-0.044208,0,0,0.14286,2.7068e-15,0,0.66667
0.78264,0.47761,5.4785,-0.03358,-0.83052,22.199,0.49058,-0.16353,-1.9971,0.65411,-4.9277e-11,-0.99855,0,0,0.14286,-0,-0,0.66667
0.97683,0.18807,6.8378,-0.46789,-1.2335,1.1387,8.5315,-2.8438,-1.2213,11.375,5.1942e-07,-0.61066,0,0,0.14286,-0,-0,0.66667
0.44272,0.24631,3.099,-0.38053,-19.824,121.37,3.1447,-1.0482,-1.4847,4.193,-1.0223e-12,-0.74234,0,0,0.14286,8.4588e-16,0,0.66667
0.14102,0.98614,0.98715,0.72921,46.671,249.57,-1.9196,0.63986,-0.11106,-2.5594,-2.4604e-09,-0.055528,0,0,0.14286,1.6918e-16,0,0.66667
0.40997,0.3371,2.8698,-0.24435,-13.154,133.83,1.87,-0.62332,-1.7875,2.4933,-5.2447e-13,-0.89373,0,0,0.14286,6.7671e-16,0,0.66667
0.7923,0.71937,5.5461,0.32906,7.8482,20.69,-4.8667,1.6222,-1.6154,-6.4889,2.5436e-10,-0.80768,0,0,0.14286,2.7068e-15,0,0.66667
0.21104,0.72377,1.4773,0.33566,20.796,217.71,-1.3223,0.44076,-1.5983,-1.763,-2.1149e-10,-0.79915,0,0,0.14286,-6.7671e-16,0,0.66667
0.17738,0.11632,1.2417,-0.57552,-36.28,232.96,1.9056,-0.63521,-0.8211,2.5408,3.7912e-10,-0.41055,0,0,0.14286,-0,-0,0.66667
0.6451,0.96021,4.5157,0.69032,26.27,55.264,-8.3128,2.7709,-0.3048,-11.084,5.8265e-13,-0.1524,0,0,0.14286,-0,-0,0.66667
0.94704,0.0022828,6.6293,-0.74658,-5.0259,3.4277,13.198,-4.3993,-0.017758,17.597,5.4842e-07,-0.0088788,0,0,0.14286,-0,-0,0.66667
0.40926,0.65573,2.8648,0.2336,12.583,134.1,-1.7846,0.59487,-1.8072,-2.3795,9.992e-13,-0.90359,0,0,0.14286,2.3262e-16,0,0.66667
0.69687,0.18304,4.8781,-0.47544,-15.812,41.273,6.1847,-2.0616,-1.1954,8.2462,6.1391e-12,-0.59771,0,0,0.14286,-3.3835e-16,0,0.66667
0.40397,0.80808,2.8278,0.46212,25.098,136.37,-3.4848,1.1616,-1.2417,-4.6464,1.3516e-12,-0.62084,0,0,0.14286,-0,-0,0.66667
0.34982,0.86577,2.4487,0.54866,31.31,158.21,-3.5827,1.1942,-0.92828,-4.7769,2.049e-12,-0.46414,0,0,0.14286,-0,-0,0.66667
0.13297,0.8846,0.93078,0.57689,36.887,253.17,-1.4319,0.4773,-0.81505,-1.9092,-4.0229e-09,-0.40752,0,0,0.14286,-3.3835e-16,0,0.66667
0.019913,0.9709,0.13939,0.70634,46.083,305.53,-0.26255,0.087525,-0.22622,-0.35007,1.1465e-05,-0.11311,0,0,0.14286,-0,-0,0.66667
0.11967,0.35455,0.83769,-0.21818,-13.934,259.17,0.48738,-0.16246,-1.8294,0.64984,6.0729e-09,-0.91471,0,0,0.14286,-3.3835e-16,0,0.66667
0.44424,0.55486,3.1097,0.082295,4.2681,120.61,-0.68243,0.22748,-1.9745,-0.90991,6.6863e-13,-0.98727,0,0,0.14286,-6.7671e-16,0,0.66667
0.72978,0.088672,5.1085,-0.61699,-18.725,33.929,8.4051,-2.8017,-0.64603,11.207,4.0847e-12,-0.32301,0,0,0.14286,1.3534e-15,0,0.66667
0.05369,0.22257,0.37583,-0.41615,-26.942,289.77,0.41707,-0.13902,-1.3834,0.5561,-1.4337e-08,-0.69169,0,0,0.14286,-0,-0,0.66667
0.22167,0.46032,1.5517,-0.059516,-3.6628,212.89,0.24627,-0.082089,-1.9874,0.32836,4.6682e-11,-0.99372,0,0,0.14286,1.6918e-16,0,0.66667
0.031064,0.82726,0.21745,0.49088,31.876,300.32,-0.28465,0.094884,-1.1451,-0.37953,4.2166e-07,-0.57257,0,0,0.14286,-0,3.7722e-17,0.66667
0.83332,0.0098636,5.8333,-0.7352,-14.661,15.053,11.436,-3.8121,-0.07691,15.249,5.0993e-10,-0.038455,0,0,0.14286,2.7068e-15,0,0.66667
0.38188,0.25125,2.6731,-0.37313,-20.659,145.03,2.6598,-0.8866,-1.5046,3.5464,1.7983e-12,-0.75229,0,0,0.14286,-1.3534e-15,0,0.66667
0.28458,0.86424,1.9921,0.54636,32.655,185.61,-2.9024,0.96746,-0.9382,-3.8698,6.6185e-12,-0.4691,0,0,0.14286,-0,-0,0.66667
0.78367,0.70085,5.4857,0.30128,7.4477,22.225,-4.4073,1.4691,-1.6773,-5.8764,1.5928e-10,-0.83865,0,0,0.14286,-1.3534e-15,0,0.66667
0.2789,0.33684,1.9523,-0.24474,-14.619,187.85,1.2742,-0.42473,-1.7876,1.6989,-3.742e-12,-0.8938,0,0,0.14286,5.0753e-16,0,0.66667
0.28082,0.65141,1.9657,0.22712,13.548,187.01,-1.1905,0.39685,-1.8191,-1.5874,8.8872e-12,-0.90953,0,0,0.14286,-1.6918e-16,0,0.66667
0.935,0.29637,6.545,-0.30545,-2.3613,2.8063,5.3311,-1.777,-1.6682,7.1082,2.3221e-09,-0.83411,0,0,0.14286,1.3534e-15,0,0.66667
0.16421,0.064978,1.1495,-0.65253,-41.39,238.97,2.0002,-0.66675,-0.48536,2.667,-4.0111e-09,-0.24268,0,0,0.14286,6.7671e-16,0,0.66667
0.03791,0.5235,0.26537,0.035257,2.2796,297.1,-0.02495,0.0083166,-1.9942,-0.033266,-5.4019e-08,-0.9971,0,0,0.14286,-0,-0,0.66667
0.95604,0.13779,6.6923,-0.54331,-2.9015,2.1846,9.696,-3.232,-0.95016,12.928,-2.7069e-07,-0.47508,0,0,0.14286,-0,-0,0.66667
0.30613,0.047756,2.1429,-0.67837,-40.094,176.58,3.8765,-1.2922,-0.36205,5.1687,2.7423e-13,-0.18102,0,0,0.14286,6.7671e-16,0,0.66667
0.41408,0.38982,2.8985,-0.16527,-8.8548,132.19,1.2775,-0.42583,-1.901,1.7033,1.3235e-12,-0.95049,0,0,0.14286,-6.7671e-16,0,0.66667
0.79679,0.41034,5.5775,-0.13448,-3.1321,19.666,2.0002,-0.66674,-1.9386,2.667,-1.6403e-10,-0.96932,0,0,0.14286,-0,-0,0.66667
0.35618,0.37755,2.4933,-0.18367,-10.377,155.3,1.2212,-0.40706,-1.8807,1.6282,4.815e-13,-0.94037,0,0,0.14286,-0,-0,0.66667
0.10486,0.91812,0.73401,0.62719,40.416,266.11,-1.2276,0.40921,-0.60028,-1.6368,2.8726e-08,-0.30014,0,0,0.14286,-0,-0,0.66667
0.7889,0.46697,5.5223,-0.049539,-1.1935,21.045,0.72951,-0.24317,-1.9907,0.97269,-1.1254e-10,-0.99536,0,0,0.14286,1.5226e-15,0,0.66667
0.12962,0.49695,0.90731,-0.0045743,-0.29116,254.57,0.011067,-0.0036892,-1.9998,0.014757,1.4503e-09,-0.9999,0,0,0.14286,-5.0753e-16,0,0.66667
0.19804,0.53091,1.3863,0.046363,2.8833,223.46,-0.17139,0.057131,-1.9926,-0.22852,6.3778e-11,-0.99629,0,0,0.14286,2.5785e-16,0,0.66667
0.13971,0.60177,0.97795,0.15265,9.6932,249.95,-0.3981,0.1327,-1.9188,-0.53079,-1.5376e-09,-0.95938,0,0,0.14286,-3.3835e-16,0,0.66667
0.22166,0.88614,1.5516,0.57921,35.846,213.13,-2.3966,0.79885,-0.80699,-3.1954,-5.064e-11,-0.4035,0,0,0.14286,3.3835e-16,0,0.66667
0.23535,0.57571,1.6474,0.11356,6.9438,206.84,-0.4989,0.1663,-1.9553,-0.6652,-3.074e-11,-0.97767,0,0,0.14286,-0,-0,0.66667
0.7264,0.42413,5.0848,-0.11381,-3.4473,33.854,1.5432,-0.51441,-1.9521,2.0576,2.3188e-12,-0.97604,0,0,0.14286,1.3534e-15,0,0.66667
0.095244,0.43219,0.66671,-0.10171,-6.5266,270.44,0.18083,-0.060277,-1.9647,0.24111,-6.4567e-09,-0.98234,0,0,0.14286,1.2688e-16,0,0.66667
0.66824,0.85493,4.6777,0.53239,19.097,48.648,-6.641,2.2137,-0.99159,-8.8547,-2.3732e-12,-0.49579,0,0,0.14286,-0,-0,0.66667
0.91093,0.42093,6.3765,-0.11861,-1.2515,4.4434,2.0169,-0.67229,-1.9487,2.6891,6.7045e-09,-0.97436,0,0,0.14286,-0,-0,0.66667
0.63,0.97624,4.41,0.71437,28.109,59.557,-8.4009,2.8003,-0.18462,-11.201,4.885e-13,-0.092309,0,0,0.14286,-1.3534e-15,0,0.66667
0.33688,0.39549,2.3582,-0.15677,-8.9926,163.25,0.98586,-0.32862,-1.9109,1.3145,-3.5499e-13,-0.95547,0,0,0.14286,-3.3835e-16,0,0.66667
0.83945,0.86837,5.8762,0.55256,10.514,13.547,-8.6585,2.8862,-0.91388,-11.545,7.1744e-11,-0.45694,0,0,0.14286,6.7671e-16,0,0.66667
0.89856,0.29002,6.2899,-0.31498,-3.8117,5.8298,5.2832,-1.7611,-1.6457,7.0442,-1.3342e-08,-0.82284,0,0,0.14286,-0,-0,0.66667
0.49346,0.18092,3.4542,-0.47861,-23.49,102.91,4.4086,-1.4695,-1.1843,5.8782,9.9876e-13,-0.59215,0,0,0.14286,-3.3835e-16,0,0.66667
0.56348,0.58696,3.9444,0.13044,5.7423,78.822,-1.372,0.45733,-1.9412,-1.8293,-7.2675e-13,-0.9706,0,0,0.14286,6.7671e-16,0,0.66667
0.58066,0.28307,4.0646,-0.32539,-13.937,73.528,3.5269,-1.1756,-1.6248,4.7026,-1.3589e-13,-0.81239,0,0,0.14286,-0,-0,0.66667
0.13276,0.87756,0.9293,0.56633,36.206,253.26,-1.4034,0.46782,-0.85891,-1.8713,3.9236e-09,-0.42946,0,0,0.14286,-0,-0,0.66667
0.37306,0.47912,2.6114,-0.031325,-1.7435,148.41,0.21814,-0.072714,-1.9971,0.29085,1.8626e-12,-0.99853,0,0,0.14286,-0,-0,0.66667
0.81161,0.54168,5.6813,0.06252,1.3578,17.089,-0.94718,0.31573,-1.9875,-1.2629,2.562e-10,-0.99376,0,0,0.14286,-0,-0,0.66667
0.5196,0.27096,3.6372,-0.34356,-16.227,93.597,3.3323,-1.1108,-1.5796,4.4431,-5.3135e-13,-0.78979,0,0,0.14286,6.7671e-16,0,0.66667
0.93958,0.2099,6.5771,-0.43515,-3.1631,2.7883,7.6321,-2.544,-1.3273,10.176,-2.6943e-08,-0.66364,0,0,0.14286,6.7671e-16,0,0.66667
0.61582,0.15283,4.3107,-0.52076,-20.963,63.185,5.9863,-1.9954,-1.035,7.9817,3.7881e-13,-0.51752,0,0,0.14286,-4.9439e-16,0,0.66667
0.77945,0.17475,5.4562,-0.48788,-12.345,23.374,7.0985,-2.3662,-1.1542,9.4647,-7.6569e-11,-0.57711,0,0,0.14286,1.3534e-15,0,0.66667
0.24803,0.048347,1.7362,-0.67748,-41.466,201.59,3.1366,-1.0455,-0.36842,4.1822,1.0401e-12,-0.18421,0,0,0.14286,-0,1.6768e-16,0.66667
0.55931,0.99284,3.9152,0.73926,33.177,81.092,-7.7182,2.5727,-0.056845,-10.291,7.0788e-13,-0.028422,0,0,0.14286,-0,1.1949e-16,0.66667
0.81064,0.55802,5.6745,0.087028,1.8994,17.261,-1.3169,0.43897,-1.9744,-1.7559,1.9682e-10,-0.98718,0,0,0.14286,1.1567e-15,0,0.66667
0.15271,0.51122,1.069,0.016834,1.0644,243.99,-0.047988,0.015996,-1.9984,-0.063984,1.5163e-09,-0.99921,0,0,0.14286,-0,-0,0.66667
0.54016,0.65967,3.7811,0.23951,10.957,86.538,-2.4149,0.80498,-1.7953,-3.2199,-7.3208e-13,-0.89763,0,0,0.14286,-0,-0,0.66667
0.6103,0.37096,4.2721,-0.19356,-7.8303,64.367,2.2051,-0.73503,-1.8689,2.9401,9.3281e-13,-0.93446,0,0,0.14286,3.3835e-16,0,0.66667
0.18706,0.859,1.3094,0.5385,33.799,228.57,-1.8803,0.62676,-0.9706,-2.5071,-3.8583e-10,-0.4853,0,0,0.14286,-3.3835e-16,0,0.66667
0.63689,0.4807,4.4582,-0.028956,-1.1076,56.603,0.34425,-0.11475,-1.9963,0.45899,3.9671e-13,-0.99815,0,0,0.14286,-0,-0,0.66667
0.067575,0.33906,0.47302,-0.24141,-15.574,283.29,0.30451,-0.1015,-1.7922,0.40601,-1.0117e-08,-0.89611,0,0,0.14286,8.4588e-17,0,0.66667
0.77954,0.66646,5.4568,0.24969,6.2704,22.932,-3.6334,1.2111,-1.7791,-4.8445,1.3413e-10,-0.88953,0,0,0.14286,1.3534e-15,0,0.66667
0.32597,0.81993,2.2818,0.47989,27.856,168.01,-2.9201,0.97335,-1.1818,-3.8934,3.9362e-12,-0.59092,0,0,0.14286,-0,-0,0.66667
0.48278,0.54781,3.3795,0.07171,3.5516,106.39,-0.64625,0.21542,-1.9824,-0.86166,5.5184e-13,-0.99118,0,0,0.14286,-0,-0,0.66667
0.38231,0.48385,2.6762,-0.024218,-1.3369,144.69,0.17283,-0.057611,-1.996,0.23044,9.1695e-13,-0.99802,0,0,0.14286,-6.7671e-16,0,0.66667
0.32698,0.33176,2.2888,-0.25236,-14.594,167.42,1.5403,-0.51342,-1.7747,2.0537,-2.0091e-12,-0.88733,0,0,0.14286,-0,-0,0.66667
0.98768,0.060623,6.9138,-0.65907,-0.96687,1.526,12.151,-4.0503,-0.45633,16.201,-8.9932e-06,-0.22817,0,0,0.14286,1.6918e-16,0,0.66667
0.879,0.40083,6.153,-0.14876,-2.1263,7.6864,2.4408,-0.8136,-1.9211,3.2544,-9.2149e-09,-0.96055,0,0,0.14286,6.7671e-16,0,0.66667
0.30229,0.1537,2.1161,-0.51946,-30.679,178.02,2.9312,-0.97707,-1.0403,3.9083,-3.5032e-12,-0.52013,0,0,0.14286,-5.0753e-16,0,0.66667
0.16065,0.60063,1.1245,0.15094,9.5225,240.39,-0.45263,0.15088,-1.9184,-0.60351,-1.2508e-09,-0.9592,0,0,0.14286,-3.3835e-16,0,0.66667
0.52931,0.88366,3.7052,0.57549,26.926,90.636,-5.6861,1.8954,-0.82314,-7.5815,-2.2915e-13,-0.41157,0,0,0.14286,1.3534e-15,0,0.66667
0.13806,0.40359,0.96642,-0.14461,-9.1864,250.71,0.37267,-0.12422,-1.9267,0.4969,1.6035e-10,-0.96336,0,0,0.14286,1.6918e-16,0,0.66667
0.64979,0.46835,4.5485,-0.047474,-1.7644,53.02,0.57583,-0.19194,-1.9918,0.76777,1.1505e-12,-0.99592,0,0,0.14286,-1.4513e-16,0,0.66667
0.23295,0.057651,1.6307,-0.66352,-40.914,208.2,2.8853,-0.96177,-0.4362,3.8471,8.8063e-12,-0.2181,0,0,0.14286,-3.3835e-16,0,0.66667
0.096557,0.62341,0.6759,0.18512,11.88,269.84,-0.33366,0.11122,-1.8793,-0.44488,-5.1138e-09,-0.93963,0,0,0.14286,2.1147e-16,0,0.66667
0.021993,0.20103,0.15395,-0.44846,-29.117,304.54,0.1841,-0.061368,-1.2832,0.24547,-4.2021e-07,-0.6416,0,0,0.14286,-0,-0,0.66667
0.85906,0.79039,6.0134,0.43559,7.288,10.562,-6.985,2.3283,-1.3274,-9.3134,4.0836e-09,-0.66372,0,0,0.14286,2.7068e-15,0,0.66667
0.14271,0.339,0.99897,-0.2415,-15.33,248.59,0.64334,-0.21445,-1.7937,0.85779,3.5416e-09,-0.89685,0,0,0.14286,-2.5377e-16,0,0.66667
0.40293,0.079167,2.8205,-0.63125,-34.439,137.01,4.7478,-1.5826,-0.58262,6.3305,2.8795e-12,-0.29131,0,0,0.14286,1.9954e-16,0,0.66667
0.093564,0.2088,0.65495,-0.43681,-28.12,271.27,0.7629,-0.2543,-1.3237,1.0172,1.9383e-08,-0.66186,0,0,0.14286,-0,-0,0.66667
0.11789,0.31406,0.82526,-0.27891,-17.828,260,0.61378,-0.20459,-1.7229,0.81838,7.5256e-09,-0.86147,0,0,0.14286,-0,-0,0.66667
0.37482,0.21334,2.6237,-0.42999,-23.977,147.92,3.0084,-1.0028,-1.3453,4.0112,-7.1276e-13,-0.67263,0,0,0.14286,6.7671e-16,0,0.66667
0.16539,0.71545,1.1577,0.32318,20.383,238.27,-0.99772,0.33257,-1.6279,-1.3303,-1.7432e-09,-0.81396,0,0,0.14286,4.2294e-17,0,0.66667
0.71895,0.96239,5.0327,0.69359,21.833,36.603,-9.3082,3.1027,-0.29204,-12.411,-1.2417e-12,-0.14602,0,0,0.14286,-1.3534e-15,0,0.66667
0.12585,0.32394,0.88096,-0.26409,-16.846,256.33,0.62042,-0.20681,-1.7534,0.82722,6.2092e-09,-0.8767,0,0,0.14286,-3.3835e-16,0,0.66667
0.73883,0.90311,5.1718,0.60467,17.817,31.908,-8.3393,2.7798,-0.69993,-11.119,7.4163e-13,-0.34997,0,0,0.14286,1.6918e-15,0,0.66667
0.84138,0.72815,5.8897,0.34223,6.3723,12.777,-5.375,1.7917,-1.5839,-7.1666,2.2112e-09,-0.79194,0,0,0.14286,-0,-0,0.66667
0.082681,0.18035,0.57876,-0.47948,-30.946,276.32,0.74001,-0.24667,-1.1819,0.98669,2.6911e-08,-0.59094,0,0,0.14286,-8.4588e-17,0,0.66667
0.040078,0.45357,0.28055,-0.069646,-4.5026,296.09,0.052104,-0.017368,-1.9809,0.069472,-3.1046e-07,-0.99046,0,0,0.14286,3.7126e-17,0,0.66667
0.49353,0.80391,3.4547,0.45587,22.361,102.85,-4.1998,1.3999,-1.2597,-5.5997,5.7732e-15,-0.62983,0,0,0.14286,-6.7671e-16,0,0.66667
0.60076,0.72083,4.2053,0.33125,13.675,67.359,-3.7147,1.2382,-1.6093,-4.9529,1.0725e-13,-0.80465,0,0,0.14286,-0,-0,0.66667
0.684,0.14666,4.788,-0.53002,-18.272,44.589,6.7672,-2.2557,-1.0008,9.023,3.6557e-12,-0.50038,0,0,0.14286,6.7671e-16,0,0.66667
0.47827,0.095442,3.3479,-0.60684,-30.455,108.56,5.4177,-1.8059,-0.69031,7.2236,1.0685e-12,-0.34516,0,0,0.14286,-0,-0,0.66667
0.54316,0.93769,3.8021,0.65654,30.15,86.171,-6.6566,2.2189,-0.46828,-8.8755,-2.82e-13,-0.23414,0,0,0.14286,-0,-0,0.66667
0.54961,0.036507,3.8473,-0.69524,-31.644,84.136,7.1327,-2.3776,-0.28193,9.5103,1.1124e-12,-0.14097,0,0,0.14286,-0,-0,0.66667
0.71378,0.61642,4.9965,0.17463,5.5001,36.797,-2.3268,0.7756,-1.8905,-3.1024,-6.2212e-12,-0.94527,0,0,0.14286,6.7671e-16,0,0.66667
0.15616,0.46235,1.0931,-0.056475,-3.567,242.42,0.16463,-0.054875,-1.9913,0.2195,1.4977e-09,-0.99563,0,0,0.14286,-2.5377e-16,0,0.66667
0.021742,0.16427,0.1522,-0.50359,-32.724,304.66,0.20439,-0.06813,-1.097,0.27252,-8.7872e-07,-0.5485,0,0,0.14286,-0,-0,0.66667
0.50805,0.38281,3.5564,-0.17579,-8.4236,97.458,1.6671,-0.55571,-1.8887,2.2228,-5.6188e-13,-0.94433,0,0,0.14286,1.3534e-15,0,0.66667
0.95369,0.26879,6.6758,-0.34681,-1.8911,1.7819,6.1741,-2.058,-1.5739,8.2321,6.3281e-08,-0.78697,0,0,0.14286,-0,-0,0.66667
0.025153,0.49148,0.17607,-0.012773,-0.82654,303.05,0.0059973,-0.0020019,-1.9981,0.007995,-4.2076e-06,-0.99903,0,0,0.14286,2.1147e-17,0,0.66667
0.6128,0.036919,4.2896,-0.69462,-28.282,64.475,7.9458,-2.6486,-0.2845,10.594,-2.4958e-13,-0.14225,0,0,0.14286,-1.3534e-15,0,0.66667
0.49388,0.50072,3.4572,0.0010843,0.052928,102.4,-0.0099964,0.0033321,-1.9998,-0.013329,-1.14e-12,-0.99992,0,0,0.14286,2.7068e-15,0,0.66667
0.9002,0.24539,6.3014,-0.38191,-4.567,5.8021,6.4175,-2.1392,-1.4806,8.5567,-1.6574e-08,-0.74028,0,0,0.14286,3.3835e-16,0,0.66667
0.023607,0.37281,0.16525,-0.19078,-12.353,303.78,0.084071,-0.028024,-1.87,0.11209,-6.9363e-08,-0.93498,0,0,0.14286,6.3441e-17,0,0.66667
0.65951,0.43161,4.6165,-0.10258,-3.7284,50.402,1.2629,-0.42097,-1.9627,1.6839,1.6561e-12,-0.98135,0,0,0.14286,1.0151e-15,0,0.66667
0.65622,0.57281,4.5935,0.10921,4.0003,51.289,-1.3378,0.44593,-1.9598,-1.7837,-1.4494e-12,-0.97992,0,0,0.14286,-0,-0,0.66667
0.88375,0.049455,6.1863,-0.67582,-9.5946,8.3492,11.149,-3.7163,-0.37428,14.865,-1.8273e-08,-0.18714,0,0,0.14286,1.3534e-15,0,0.66667
0.53642,0.59916,3.755,0.14874,6.8382,87.73,-1.4894,0.49646,-1.9206,-1.9858,-5.7476e-13,-0.96031,0,0,0.14286,-0,-0,0.66667
0.69065,0.99089,4.8345,0.73634,25.145,43.486,-9.493,3.1643,-0.071999,-12.657,4.5386e-13,-0.035999,0,0,0.14286,6.7671e-16,0,0.66667
0.41267,0.89755,2.8887,0.59633,32.197,133.16,-4.5936,1.5312,-0.73419,-6.1248,8.6775e-13,-0.36709,0,0,0.14286,-6.7671e-16,0,0.66667
0.82659,0.28181,5.7861,-0.32729,-6.6184,14.953,5.0499,-1.6833,-1.6214,6.7333,-1.2607e-09,-0.8107,0,0,0.14286,2.7068e-15,0,0.66667
0.68501,0.61965,4.7951,0.17948,6.1249,43.803,-2.295,0.76499,-1.8862,-3.0599,-4.8761e-12,-0.94308,0,0,0.14286,-0,-0,0.66667
0.10801,0.71761,0.75609,0.32642,20.923,264.56,-0.65814,0.21938,-1.6234,-0.87752,-1.18e-08,-0.81172,0,0,0.14286,3.1721e-17,0,0.66667
0.13989,0.30359,0.97926,-0.29461,-18.726,249.89,0.76934,-0.25645,-1.6931,1.0258,4.4981e-09,-0.84654,0,0,0.14286,-0,-0,0.66667
0.15807,0.40868,1.1065,-0.13698,-8.6487,241.56,0.40419,-0.13473,-1.9349,0.53892,1.8377e-09,-0.96747,0,0,0.14286,-0,-0,0.66667
0.12054,0.52979,0.84378,0.044682,2.8508,258.75,-0.10054,0.033512,-1.9931,-0.13405,-1.4296e-08,-0.99657,0,0,0.14286,7.7981e-17,0,0.66667
0.23028,0.076924,1.6119,-0.63461,-39.158,209.36,2.7279,-0.9093,-0.56707,3.6372,6.1007e-11,-0.28353,0,0,0.14286,3.3835e-16,4.9045e-17,0.66667
0.42336,0.25686,2.9635,-0.36471,-19.395,128.73,2.8822,-0.96075,-1.5283,3.843,-3.7903e-13,-0.76415,0,0,0.14286,1.3534e-15,0,0.66667
0.67076,0.025758,4.6953,-0.71136,-25.524,48.454,8.9069,-2.969,-0.20251,11.876,-4.9738e-14,-0.10126,0,0,0.14286,6.7671e-16,0,0.66667
0.33662,0.78189,2.3563,0.42284,24.327,163.52,-2.6569,0.88565,-1.364,-3.5426,4.6869e-12,-0.682,0,0,0.14286,-1.3534e-15,0,0.66667
0.51975,0.023978,3.6383,-0.71403,-34.009,94.179,6.9276,-2.3092,-0.1867,9.2368,-1.4211e-14,-0.093352,0,0,0.14286,-6.7671e-16,0,0.66667
0.82112,0.77866,5.7478,0.41799,8.7279,15.981,-6.4067,2.1356,-1.3781,-8.5423,6.5969e-10,-0.68907,0,0,0.14286,-2.0301e-15,0,0.66667
0.88459,0.13826,6.1921,-0.54262,-7.5596,7.8117,8.9599,-2.9866,-0.95148,11.947,-1.2556e-08,-0.47574,0,0,0.14286,-0,-0,0.66667
0.70449,0.98877,4.9315,0.73316,24.108,40.111,-9.6415,3.2138,-0.089756,-12.855,-1.2044e-12,-0.044878,0,0,0.14286,6.7671e-16,0,0.66667
0.83449,0.34166,5.8414,-0.2375,-4.5867,13.624,3.6996,-1.2332,-1.799,4.9329,-1.3824e-09,-0.89948,0,0,0.14286,-1.2755e-15,0,0.66667
0.30908,0.21261,2.1635,-0.43108,-25.305,175.07,2.4871,-0.82903,-1.3393,3.3161,-3.1399e-12,-0.66963,0,0,0.14286,-5.0753e-16,0,0.66667
0.79062,0.10312,5.5343,-0.59532,-14.454,21.599,8.7858,-2.9286,-0.73843,11.714,5.4827e-11,-0.36922,0,0,0.14286,-0,-0,0.66667
0.91666,0.41763,6.4166,-0.12355,-1.2192,3.958,2.1141,-0.70468,-1.9444,2.8187,4.7204e-09,-0.9722,0,0,0.14286,2.7068e-15,0,0.66667
0.038406,0.24269,0.26884,-0.38596,-25.013,296.89,0.2767,-0.092232,-1.469,0.36893,-1.0176e-07,-0.73448,0,0,0.14286,4.2294e-17,0,0.66667
0.44563,0.91675,3.1194,0.62513,32.62,120.62,-5.2001,1.7334,-0.60883,-6.9334,2.6068e-13,-0.30442,0,0,0.14286,-1.3534e-15,0,0.66667
0.23993,0.027215,1.6795,-0.70918,-43.622,205.18,3.1762,-1.0587,-0.21117,4.2349,9.4491e-12,-0.10558,0,0,0.14286,1.6918e-16,0,0.66667
0.49402,0.38969,3.4581,-0.16547,-8.0805,102.4,1.5259,-0.50864,-1.901,2.0345,1.8985e-14,-0.95049,0,0,0.14286,-0,-0,0.66667
0.61748,0.3126,4.3223,-0.28111,-11.222,62.332,3.2401,-1.08,-1.7188,4.3201,-2.8821e-13,-0.85942,0,0,0.14286,2.7068e-15,0,0.66667
0.20905,0.67929,1.4633,0.26893,16.666,218.57,-1.0494,0.34981,-1.7416,-1.3993,-2.4697e-10,-0.87078,0,0,0.14286,1.6918e-16,0,0.66667
0.87443,0.52237,6.121,0.033554,0.49646,8.1579,-0.54769,0.18256,-1.9978,-0.73025,3.514e-09,-0.99892,0,0,0.14286,-0,-0,0.66667
0.25589,0.18965,1.7912,-0.46552,-28.255,197.97,2.2236,-0.7412,-1.2291,2.9648,-6.4138e-12,-0.61455,0,0,0.14286,6.7671e-16,0,0.66667
0.71361,0.64632,4.9953,0.21949,6.9204,36.876,-2.9237,0.97457,-1.8275,-3.8983,-6.91e-12,-0.91375,0,0,0.14286,-0,-0,0.66667
0.85223,0.21904,5.9656,-0.42144,-7.368,11.431,6.7044,-2.2348,-1.3683,8.9392,-2.4338e-09,-0.68413,0,0,0.14286,-0,-0,0.66667
0.93241,0.53865,6.5269,0.057971,0.46105,2.7221,-1.009,0.33633,-1.9871,-1.3453,-5.5796e-08,-0.99356,0,0,0.14286,-0,-0,0.66667
0.95573,0.86508,6.6901,0.54762,2.9485,2.2138,-9.7697,3.2566,-0.93384,-13.026,2.6087e-07,-0.46692,0,0,0.14286,1.3534e-15,0,0.66667
0.6802,0.24168,4.7614,-0.38748,-13.437,45.275,4.9199,-1.64,-1.4647,6.5598,5.9432e-12,-0.73233,0,0,0.14286,-6.7671e-16,0,0.66667
0.62852,0.37471,4.3996,-0.18793,-7.325,59.049,2.2049,-0.73495,-1.8754,2.9398,2.387e-12,-0.93769,0,0,0.14286,-1.7341e-15,0,0.66667
0.59597,0.96345,4.1718,0.69518,29.23,69.505,-7.7337,2.5779,-0.28259,-10.312,1.5539e-12,-0.14129,0,0,0.14286,-0,-0,0.66667
0.48512,0.090965,3.3958,-0.61355,-30.533,106.11,5.5561,-1.852,-0.66404,7.4081,9.3081e-13,-0.33202,0,0,0.14286,8.4588e-16,0,0.66667
0.36043,0.40206,2.523,-0.14692,-8.2692,153.56,0.98846,-0.32949,-1.9253,1.318,1.9674e-12,-0.96263,0,0,0.14286,6.7671e-16,0,0.66667
0.020765,0.37739,0.14536,-0.18391,-11.91,305.11,0.071288,-0.023763,-1.8795,0.095051,-2.5263e-08,-0.93976,0,0,0.14286,-0,-0,0.66667
0.74867,0.45036,5.2407,-0.074457,-2.0949,28.973,1.0406,-0.34685,-1.9812,1.3874,-5.1976e-12,-0.9906,0,0,0.14286,-0,-0,0.66667
0.39368,0.29979,2.7557,-0.30031,-16.433,140.27,2.2069,-0.73563,-1.679,2.9425,1.7513e-12,-0.83949,0,0,0.14286,-0,-0,0.66667
0.27934,0.72659,1.9554,0.33988,20.315,187.71,-1.7723,0.59075,-1.5901,-2.363,1.0841e-11,-0.79503,0,0,0.14286,6.7671e-16,0,0.66667
0.77753,0.64453,5.4427,0.2168,5.4853,23.276,-3.1466,1.0489,-1.8322,-4.1955,1.165e-10,-0.91609,0,0,0.14286,-0,-0,0.66667
0.66027,0.65236,4.6219,0.22854,8.3011,50.284,-2.8168,0.93893,-1.8143,-3.7557,-2.6334e-12,-0.90715,0,0,0.14286,-3.3835e-16,0,0.66667
0.9098,0.65141,6.3686,0.22712,2.4359,4.6498,-3.8571,1.2857,-1.8167,-5.1429,1.032e-08,-0.90835,0,0,0.14286,-0,-0,0.66667
0.12761,0.97485,0.8933,0.71228,45.737,255.7,-1.6967,0.56558,-0.19662,-2.2623,1.2226e-08,-0.098309,0,0,0.14286,-0,-0,0.66667
0.38236,0.40878,2.6765,-0.13683,-7.5554,144.69,0.9766,-0.32553,-1.9327,1.3021,-9.1954e-13,-0.96637,0,0,0.14286,-0,-0,0.66667
0.57738,0.72787,4.0417,0.34181,14.729,74.575,-3.684,1.228,-1.5863,-4.912,-3.2596e-13,-0.79313,0,0,0.14286,-0,-0,0.66667
0.3545,0.83951,2.4815,0.50927,28.931,156.24,-3.37,1.1233,-1.0774,-4.4933,2.5491e-12,-0.53872,0,0,0.14286,-5.0753e-16,0,0.66667
0.34805,0.89432,2.4363,0.59148,33.832,158.99,-3.8428,1.2809,-0.75509,-5.1237,8.2445e-13,-0.37754,0,0,0.14286,-3.3835e-16,0,0.66667
0.48409,0.52926,3.3886,0.04389,2.17,105.91,-0.39661,0.1322,-1.9963,-0.52881,-5.1764e-14,-0.99813,0,0,0.14286,5.0753e-16,0,0.66667
0.071438,0.10391,0.50007,-0.59414,-38.49,281.56,0.79229,-0.2641,-0.74328,1.0564,2.3574e-07,-0.37164,0,0,0.14286,-0,-0,0.66667
0.038686,0.98067,0.2708,0.72101,47.003,296.8,-0.52066,0.17355,-0.14986,-0.69422,-6.411e-06,-0.07493,0,0,0.14286,-8.4588e-17,0,0.66667
0.84061,0.71233,5.8843,0.31849,5.9523,12.847,-4.9975,1.6658,-1.6395,-6.6634,2.2142e-09,-0.81973,0,0,0.14286,-6.7671e-16,0,0.66667
0.0073689,0.070195,0.051582,-0.64471,-42.02,311.37,0.088679,-0.029556,-0.52071,0.11824,4.8115e-06,-0.26035,0,0,0.14286,-2.1147e-17,0,0.66667
0.70376,0.67832,4.9263,0.26748,8.6842,39.266,-3.5139,1.1713,-1.7474,-4.6852,-7.9887e-12,-0.87368,0,0,0.14286,-6.7671e-16,0,0.66667
0.44556,0.72811,3.1189,0.34217,17.759,120.26,-2.8459,0.94862,-1.5821,-3.7945,-2.2626e-13,-0.79105,0,0,0.14286,-0,-0,0.66667
0.96951,0.49011,6.7866,-0.014832,-0.049539,0.72386,0.26843,-0.089474,-2.0008,0.35791,2.8618e-06,-1.0004,0,0,0.14286,1.3534e-15,0,0.66667
0.80992,0.38482,5.6695,-0.17278,-3.788,17.437,2.6121,-0.87071,-1.894,3.4828,-4.6563e-10,-0.94699,0,0,0.14286,-0,-0,0.66667
0.39961,0.44953,2.7973,-0.075708,-4.1127,137.82,0.56474,-0.18825,-1.9779,0.75299,1.0887e-12,-0.98895,0,0,0.14286,6.7671e-16,0,0.66667
0.39383,0.58422,2.7568,0.12632,6.9014,140.12,-0.92866,0.30955,-1.943,-1.2382,1.0292e-13,-0.97151,0,0,0.14286,-3.3835e-16,0,0.66667
0.12859,0.28239,0.90016,-0.32642,-20.819,255.09,0.78354,-0.26118,-1.6219,1.0447,6.574e-09,-0.81095,0,0,0.14286,-0,-0,0.66667
0.36459,0.98041,2.5521,0.72061,40.79,152.43,-4.9043,1.6348,-0.15231,-6.539,2.7742e-12,-0.076155,0,0,0.14286,-0,-0,0.66667
0.20418,0.83573,1.4293,0.5036,31.369,220.86,-1.9194,0.6398,-1.0998,-2.5592,-2.1743e-10,-0.54988,0,0,0.14286,1.6918e-16,0,0.66667
0.31607,0.38714,2.2125,-0.16929,-9.8618,171.96,0.99883,-0.33294,-1.8975,1.3318,-2.6261e-12,-0.94873,0,0,0.14286,-0,-0,0.66667
0.56232,0.38288,3.9362,-0.17569,-7.7519,79.223,1.8441,-0.6147,-1.8926,2.4588,5.9486e-13,-0.94629,0,0,0.14286,-0,-0,0.66667
0.86191,0.49465,6.0334,-0.008032,-0.13023,9.6887,0.12923,-0.043075,-2.0004,0.1723,-7.4638e-09,-1.0002,0,0,0.14286,2.0301e-15,0,0.66667
0.098202,0.83654,0.68741,0.50481,32.502,269.14,-0.92537,0.30846,-1.0933,-1.2338,-2.592e-08,-0.54663,0,0,0.14286,1.6918e-16,0,0.66667
0.83006,0.91389,5.8104,0.62084,12.501,15.14,-9.6196,3.2065,-0.63034,-12.826,3.1331e-09,-0.31517,0,0,0.14286,-2.7068e-15,0,0.66667
0.92067,0.33557,6.4447,-0.24664,-2.327,3.7632,4.2387,-1.4129,-1.785,5.6516,-4.2664e-09,-0.89252,0,0,0.14286,-1.3534e-15,0,0.66667
0.22363,0.2116,1.5654,-0.4326,-26.681,212.15,1.8058,-0.60194,-1.3338,2.4078,7.6299e-11,-0.66689,0,0,0.14286,-3.3835e-16,0,0.66667
0.20085,0.73423,1.4059,0.35135,21.869,222.27,-1.3173,0.43909,-1.5612,-1.7564,-3.3257e-10,-0.78059,0,0,0.14286,-0,-0,0.66667
0.76844,0.32781,5.379,-0.25828,-6.7773,25.086,3.7048,-1.2349,-1.7626,4.9397,-6.3607e-11,-0.88128,0,0,0.14286,-0,-0,0.66667
0.020528,0.78497,0.1437,0.42745,27.746,305.23,-0.1638,0.054599,-1.35,-0.21839,3.0385e-07,-0.675,0,0,0.14286,-0,-0,0.66667
0.48994,0.48942,3.4296,-0.015867,-0.77854,103.81,0.14511,-0.04837,-1.9977,0.19348,2.5131e-13,-0.99886,0,0,0.14286,-6.7671e-16,0,0.66667
0.022375,0.65851,0.15663,0.23776,15.401,304.36,-0.099306,0.033102,-1.7984,-0.13241,8.6336e-09,-0.89922,0,0,0.14286,-0,-0,0.66667
0.8073,0.44005,5.6511,-0.089925,-1.9944,17.823,1.3551,-0.45171,-1.971,1.8068,-2.9792e-10,-0.9855,0,0,0.14286,-2.7068e-15,0,0.66667
0.024361,0.43118,0.17053,-0.10322,-6.6808,303.43,0.04694,-0.015647,-1.9609,0.062587,-4.58e-07,-0.98044,0,0,0.14286,2.1147e-17,0,0.66667
0.16055,0.69774,1.1239,0.29661,18.733,240.46,-0.88893,0.29631,-1.6863,-1.1852,-2.1146e-09,-0.84315,0,0,0.14286,-0,-0,0.66667
0.24613,0.6043,1.7229,0.15645,9.5147,202.09,-0.71879,0.2396,-1.9123,-0.95838,-1.8533e-11,-0.95614,0,0,0.14286,-0,-0,0.66667
0.99712,0.39689,6.9798,-0.15467,0.028228,0.10661,2.8788,-0.95961,-1.9149,3.8384,-4.9638e-07,-0.95745,0,0,0.14286,-0,-0,0.66667
0.42075,0.3075,2.9452,-0.28875,-15.382,129.67,2.2679,-0.75596,-1.7054,3.0238,4.2366e-13,-0.85268,0,0,0.14286,8.4588e-16,0,0.66667
0.072263,0.15535,0.50584,-0.51697,-33.441,281.16,0.69735,-0.23245,-1.0496,0.9298,1.2016e-07,-0.5248,0,0,0.14286,-1.216e-16,0,0.66667
0.25027,0.67356,1.7519,0.26034,15.81,200.31,-1.2162,0.40541,-1.7609,-1.6217,-1.0751e-11,-0.88043,0,0,0.14286,-0,-0,0.66667
0.41157,0.55579,2.881,0.083679,4.4928,133.14,-0.64288,0.21429,-1.9742,-0.85717,4.8145e-13,-0.98708,0,0,0.14286,-3.3835e-16,0,0.66667
0.42026,0.083525,2.9418,-0.62471,-33.494,130.26,4.9008,-1.6336,-0.6132,6.5344,1.0552e-12,-0.3066,0,0,0.14286,-0,1.4897e-16,0.66667
0.12217,0.044824,0.8552,-0.68276,-43.873,258.18,1.5571,-0.51902,-0.34227,2.0761,1.0076e-08,-0.17114,0,0,0.14286,-1.6918e-16,0,0.66667
0.0095038,0.0064081,0.066527,-0.74039,-48.357,310.38,0.13142,-0.043789,-0.049968,0.17523,2.4063e-05,-0.024984,0,0,0.14286,-4.2294e-17,0,0.66667
0.81546,0.18651,5.7082,-0.47024,-10.126,17.008,7.1579,-2.386,-1.2149,9.5439,-9.118e-10,-0.60746,0,0,0.14286,1.7764e-15,0,0.66667
0.24196,0.10642,1.6937,-0.59036,-36.181,204.17,2.6664,-0.88879,-0.75895,3.5552,6.5401e-12,-0.37948,0,0,0.14286,-0,-0,0.66667
0.083424,0.34088,0.58397,-0.23868,-15.36,275.93,0.37169,-0.1239,-1.7971,0.49559,8.9471e-09,-0.89855,0,0,0.14286,6.3441e-17,0,0.66667
0.39022,0.95234,2.7316,0.67852,37.508,142.09,-4.9424,1.6475,-0.36477,-6.5899,-1.2368e-12,-0.18238,0,0,0.14286,6.7671e-16,0,0.66667
0.43254,0.22345,3.0278,-0.41482,-21.863,125.27,3.3493,-1.1164,-1.3876,4.4657,-1.9318e-14,-0.69382,0,0,0.14286,-0,-0,0.66667
0.5241,0.48992,3.6687,-0.01512,-0.70766,91.868,0.14792,-0.049305,-1.9975,0.19722,4.899e-13,-0.99877,0,0,0.14286,-6.7671e-16,0,0.66667
0.76031,0.65454,5.3222,0.23181,6.2676,26.678,-3.2899,1.0966,-1.8088,-4.3866,3.8874e-11,-0.9044,0,0,0.14286,1.6918e-16,0,0.66667
0.78814,0.72111,5.517,0.33166,8.0531,21.449,-4.8793,1.6264,-1.6083,-6.5058,1.9991e-10,-0.80414,0,0,0.14286,2.7068e-15,0,0.66667
0.46938,0.10204,3.2857,-0.59694,-30.28,111.77,5.2302,-1.7434,-0.73488,6.9736,9.2193e-13,-0.36744,0,0,0.14286,-0,-0,0.66667
0.88477,0.076088,6.1934,-0.63587,-8.9184,8.0952,10.502,-3.5006,-0.56077,14.002,-3.1274e-08,-0.28038,0,0,0.14286,-1.3534e-15,0,0.66667
0.079143,0.48168,0.554,-0.027476,-1.7678,277.9,0.040591,-0.01353,-1.9985,0.054121,1.3016e-08,-0.99924,0,0,0.14286,-0,-0,0.66667
0.35568,0.0088445,2.4898,-0.73673,-42.029,156.07,4.8914,-1.6305,-0.069662,6.5219,4.6221e-12,-0.034831,0,0,0.14286,-1.3534e-15,0,0.66667
0.35988,0.66214,2.5191,0.24321,13.705,153.82,-1.6338,0.54461,-1.7919,-2.1784,2.1466e-12,-0.89597,0,0,0.14286,-0,-0,0.66667
0.71091,0.88156,4.9764,0.57234,18.355,38.129,-7.5951,2.5317,-0.83398,-10.127,-6.4859e-12,-0.41699,0,0,0.14286,-0,-0,0.66667
0.84544,0.59199,5.9181,0.13799,2.4936,11.944,-2.1777,0.72589,-1.9342,-2.9036,2.808e-09,-0.9671,0,0,0.14286,6.7671e-16,0,0.66667
0.72322,0.15864,5.0626,-0.51204,-15.796,35.137,6.9126,-2.3042,-1.0678,9.2168,1.635e-11,-0.53392,0,0,0.14286,-2.7068e-15,0,0.66667
0.11084,0.96872,0.77589,0.70308,45.32,263.39,-1.4547,0.4849,-0.24486,-1.9396,-1.0045e-07,-0.12243,0,0,0.14286,6.1128e-17,0,0.66667
0.59935,0.75124,4.1955,0.37687,15.613,67.844,-4.2163,1.4054,-1.4949,-5.6218,2.78e-13,-0.74744,0,0,0.14286,-2.7068e-15,0,0.66667
0.50962,0.23845,3.5674,-0.39233,-18.809,97.106,3.7322,-1.2441,-1.4512,4.9763,3.5172e-13,-0.72558,0,0,0.14286,-6.7671e-16,0,0.66667
0.60538,0.94861,4.2377,0.67292,27.775,66.615,-7.6043,2.5348,-0.38916,-10.139,1.3176e-12,-0.19458,0,0,0.14286,-0,-0,0.66667
0.012168,0.64615,0.085179,0.21922,14.204,309.12,-0.049795,0.016598,-1.8287,-0.066394,-5.22e-08,-0.91434,0,0,0.14286,1.0574e-17,0,0.66667
0.2884,0.44757,2.0188,-0.078639,-4.665,183.71,0.42335,-0.14112,-1.9764,0.56447,-1.0127e-12,-0.98818,0,0,0.14286,-0,-0,0.66667
0.051856,0.0098828,0.36299,-0.73518,-47.886,290.68,0.71164,-0.23721,-0.077132,0.94885,-7.6174e-07,-0.038566,0,0,0.14286,-0,-0,0.66667
0.38587,0.56979,2.7011,0.10468,5.761,143.28,-0.75401,0.25134,-1.9602,-1.0054,1.757e-12,-0.98012,0,0,0.14286,-0,-0,0.66667
0.75909,0.45802,5.3136,-0.062976,-1.7072,26.81,0.89234,-0.29745,-1.9843,1.1898,-1.6352e-11,-0.99214,0,0,0.14286,6.7671e-16,0,0.66667
0.276,0.27136,1.932,-0.34296,-20.542,189.15,1.7669,-0.58898,-1.5805,2.3559,-6.1284e-12,-0.79027,0,0,0.14286,-0,-0,0.66667
0.61411,0.69529,4.2988,0.29294,11.776,63.331,-3.3581,1.1194,-1.694,-4.4774,-6.4704e-13,-0.84702,0,0,0.14286,-0,-0,0.66667
0.62743,0.92974,4.392,0.64461,25.437,60.103,-7.5498,2.5166,-0.523,-10.066,2.5979e-13,-0.2615,0,0,0.14286,-6.7671e-16,0,0.66667
0.25163,0.18691,1.7614,-0.46963,-28.573,199.83,2.2059,-0.7353,-1.218,2.9412,9.4833e-12,-0.609,0,0,0.14286,3.8065e-16,0,0.66667
0.47504,0.35557,3.3253,-0.21665,-10.845,109.25,1.9211,-0.64038,-1.8315,2.5615,6.406e-14,-0.91573,0,0,0.14286,-0,-0,0.66667
0.1435,0.19964,1.0045,-0.45054,-28.661,248.3,1.2068,-0.40227,-1.2781,1.6091,3.4541e-09,-0.63903,0,0,0.14286,-0,-0,0.66667
0.070018,0.21387,0.49013,-0.4292,-27.735,282.18,0.56097,-0.18699,-1.3439,0.74796,4.7362e-08,-0.67196,0,0,0.14286,1.2688e-16,0,0.66667
0.79297,0.32549,5.5508,-0.26177,-6.2143,20.472,3.8747,-1.2916,-1.7555,5.1662,-2.7744e-10,-0.87776,0,0,0.14286,-0,-0,0.66667
0.17947,0.57966,1.2563,0.11949,7.4875,231.84,-0.40033,0.13344,-1.9474,-0.53377,-5.3397e-10,-0.97368,0,0,0.14286,-0,-0,0.66667
0.12621,0.82112,0.88345,0.48168,30.803,256.23,-1.1348,0.37826,-1.1764,-1.513,-6.8359e-09,-0.58818,0,0,0.14286,-0,-0,0.66667
0.96712,0.017,6.7698,-0.7245,-3.0337,2.3946,13.079,-4.3597,-0.13431,17.439,1.4365e-06,-0.067154,0,0,0.14286,-0,1.6787e-16,0.66667
0.055643,0.21923,0.3895,-0.42116,-27.262,288.86,0.43744,-0.14581,-1.3691,0.58326,-5.5535e-09,-0.68455,0,0,0.14286,-0,-0,0.66667
0.68195,0.49211,4.7736,-0.011829,-0.40652,44.512,0.15058,-0.050194,-1.9984,0.20077,4.4496e-13,-0.99918,0,0,0.14286,6.7671e-16,0,0.66667
0.37495,0.33703,2.6246,-0.24446,-13.598,147.72,1.711,-0.57032,-1.7901,2.2813,1.8172e-12,-0.89506,0,0,0.14286,3.3835e-16,0,0.66667
0.17349,0.642,1.2144,0.213,13.383,234.56,-0.68978,0.22993,-1.8393,-0.91971,-1.0933e-09,-0.91966,0,0,0.14286,-0,-0,0.66667
0.27286,0.16373,1.91,-0.50441,-30.34,190.62,2.5692,-0.85639,-1.094,3.4256,-7.2071e-12,-0.54698,0,0,0.14286,-0,-0,0.66667
0.7317,0.81412,5.1219,0.47118,14.136,33.144,-6.4355,2.1452,-1.2118,-8.5807,-1.0781e-11,-0.60591,0,0,0.14286,2.7068e-15,0,0.66667
0.85547,0.51122,5.9883,0.016829,0.28503,10.526,-0.26874,0.089579,-1.9982,-0.35832,1.0584e-10,-0.99911,0,0,0.14286,-2.7068e-15,0,0.66667
0.26883,0.76578,1.8818,0.39867,23.997,192.29,-2.0006,0.66686,-1.4344,-2.6674,1.0485e-11,-0.71719,0,0,0.14286,-0,-0,0.66667
0.34714,0.13476,2.43,-0.54785,-31.331,159.3,3.5501,-1.1834,-0.93244,4.7335,2.1418e-12,-0.46622,0,0,0.14286,-0,-0,0.66667
0.40955,0.22527,2.8669,-0.4121,-22.24,134.13,3.1505,-1.0502,-1.3962,4.2007,2.047e-12,-0.69809,0,0,0.14286,-0,-0,0.66667
0.82745,0.94514,5.7921,0.66772,13.675,15.693,-10.313,3.4378,-0.41664,-13.751,-2.1107e-09,-0.20832,0,0,0.14286,-2.7068e-15,0,0.66667
0.74992,0.86114,5.2494,0.54171,15.337,29.382,-7.5831,2.5277,-0.95866,-10.111,-1.5601e-12,-0.47933,0,0,0.14286,-0,-0,0.66667
0.20942,0.13551,1.4659,-0.54674,-34.004,218.55,2.1373,-0.71243,-0.9356,2.8497,2.017e-10,-0.4678,0,0,0.14286,-3.3835e-16,0,0.66667
0.54285,0.51185,3.8,0.01777,0.80848,85.544,-0.18007,0.060023,-1.998,-0.24009,-1.1718e-13,-0.99901,0,0,0.14286,-0,-0,0.66667
0.76674,0.02665,5.3672,-0.71003,-19.074,26.465,10.162,-3.3874,-0.2094,13.55,4.5075e-11,-0.1047,0,0,0.14286,-0,-0,0.66667
0.47874,0.99297,3.3512,0.73945,37.226,108.65,-6.6081,2.2027,-0.054809,-8.8108,-7.3008e-13,-0.027405,0,0,0.14286,2.0301e-15,0,0.66667
0.5555,0.99862,3.8885,0.74793,33.784,82.346,-7.7556,2.5852,-0.010572,-10.341,2.0135e-12,-0.0052861,0,0,0.14286,-2.5377e-16,0,0.66667
0.21251,0.41918,1.4876,-0.12123,-7.4941,216.98,0.48093,-0.16031,-1.9461,0.64124,1.3857e-10,-0.97303,0,0,0.14286,-0,-0,0.66667
0.65934,0.47552,4.6154,-0.036724,-1.3349,50.429,0.45199,-0.15066,-1.9953,0.60265,9.5385e-13,-0.99766,0,0,0.14286,-0,-0,0.66667
0.072077,0.75977,0.50454,0.38966,25.159,281.22,-0.52426,0.17475,-1.4587,-0.69901,-3.2058e-08,-0.72935,0,0,0.14286,-0,-0,0.66667
0.36173,0.15698,2.5321,-0.51453,-29.059,153.3,3.4743,-1.1581,-1.0603,4.6324,9.539e-13,-0.53014,0,0,0.14286,-1.3534e-15,0,0.66667
0.4004,0.13142,2.8028,-0.55287,-30.182,137.88,4.1322,-1.3774,-0.91215,5.5096,3.4213e-12,-0.45608,0,0,0.14286,-0,-0,0.66667
0.60878,0.37436,4.2615,-0.18846,-7.6463,64.815,2.1416,-0.71386,-1.8768,2.8554,2.2808e-12,-0.9384,0,0,0.14286,-1.8609e-15,0,0.66667
0.94867,0.29757,6.6407,-0.30364,-1.8362,1.9655,5.377,-1.7923,-1.671,7.1694,4.2563e-08,-0.83551,0,0,0.14286,1.3534e-15,0,0.66667
0.21912,0.78268,1.5339,0.42401,26.204,214.15,-1.7343,0.57811,-1.3639,-2.3125,-6.8793e-11,-0.68194,0,0,0.14286,-0,-0,0.66667
0.54416,0.02294,3.8091,-0.71559,-32.871,85.978,7.2687,-2.4229,-0.17948,9.6916,5.1692e-13,-0.08974,0,0,0.14286,-0,1.321e-16,0.66667
0.80224,0.70969,5.6157,0.31453,7.1729,18.915,-4.7102,1.5701,-1.647,-6.2803,4.3372e-10,-0.82352,0,0,0.14286,-0,-0,0.66667
0.60296,0.95558,4.2207,0.68337,28.348,67.367,-7.6915,2.5638,-0.33782,-10.255,1.2852e-12,-0.16891,0,0,0.14286,-0,-0,0.66667
0.73883,0.79025,5.1718,0.43538,12.749,31.505,-6.0045,2.0015,-1.3252,-8.006,-4.0696e-12,-0.66259,0,0,0.14286,1.3534e-15,0,0.66667
0.11645,0.041796,0.81518,-0.68731,-44.231,260.8,1.4941,-0.49802,-0.31871,1.9921,-1.0508e-08,-0.15935,0,0,0.14286,-0,-0,0.66667
0.83579,0.53313,5.8505,0.04969,0.94979,13.292,-0.77523,0.25841,-1.9906,-1.0336,-3.3586e-10,-0.99532,0,0,0.14286,-2.7068e-15,0,0.66667
0.3113,0.32044,2.1791,-0.26934,-15.755,174.02,1.5651,-0.5217,-1.7434,2.0868,-4.3943e-12,-0.87172,0,0,0.14286,6.7671e-16,0,0.66667
0.43711,0.48176,3.0598,-0.027365,-1.4303,123.3,0.22328,-0.074427,-1.9991,0.29771,-1.3966e-12,-0.99954,0,0,0.14286,6.7671e-16,0,0.66667
0.08488,0.3365,0.59416,-0.24524,-15.779,275.25,0.38857,-0.12952,-1.7848,0.5181,1.0492e-08,-0.89241,0,0,0.14286,-0,-0,0.66667
0.68718,0.45155,4.8102,-0.072676,-2.464,43.2,0.93223,-0.31074,-1.983,1.243,3.0154e-12,-0.9915,0,0,0.14286,-1.3534e-15,0,0.66667
0.84731,0.29003,5.9312,-0.31496,-5.653,11.896,4.9816,-1.6605,-1.6469,6.6421,-2.7332e-09,-0.82345,0,0,0.14286,-0,-0,0.66667
0.48369,0.21661,3.3858,-0.42508,-21.106,106.32,3.838,-1.2793,-1.3602,5.1173,-6.4437e-13,-0.68011,0,0,0.14286,8.4588e-17,0,0.66667
0.10135,0.10131,0.70946,-0.59804,-38.543,267.72,1.1314,-0.37714,-0.72691,1.5086,6.9166e-08,-0.36346,0,0,0.14286,-0,-0,0.66667
0.10296,0.97275,0.72071,0.70912,45.794,267.03,-1.3628,0.45428,-0.21125,-1.8171,-2.1792e-07,-0.10562,0,0,0.14286,-0,-0,0.66667
0.11563,0.75551,0.80939,0.38327,24.54,261.07,-0.82724,0.27575,-1.4767,-1.103,-1.0057e-08,-0.73834,0,0,0.14286,-0,-0,0.66667
0.49491,0.68882,3.4644,0.28323,13.83,102.16,-2.6166,0.8722,-1.7148,-3.4888,1.3145e-13,-0.8574,0,0,0.14286,-0,-0,0.66667
0.62202,0.1323,4.3542,-0.55155,-21.945,61.442,6.4042,-2.1347,-0.91847,8.5389,5.1648e-13,-0.45924,0,0,0.14286,-0,-0,0.66667
0.033262,0.19542,0.23283,-0.45687,-29.648,299.29,0.28367,-0.094556,-1.2586,0.37822,-2.3264e-07,-0.62928,0,0,0.14286,-0,-0,0.66667
0.062583,0.89206,0.43808,0.58809,38.139,285.67,-0.68702,0.22901,-0.77235,-0.91602,-2.7711e-08,-0.38618,0,0,0.14286,-0,-0,0.66667
0.98655,0.59929,6.9058,0.14894,0.17654,0.28381,-2.7427,0.91424,-1.922,-3.657,-1.2835e-07,-0.96101,0,0,0.14286,-2.7068e-15,0,0.66667
0.2911,0.77304,2.0377,0.40955,24.322,182.7,-2.2255,0.74183,-1.4024,-2.9673,9.341e-12,-0.70118,0,0,0.14286,-0,-0,0.66667
0.47673,0.10996,3.3371,-0.58506,-29.403,109.08,5.2065,-1.7355,-0.78105,6.942,1.2399e-12,-0.39052,0,0,0.14286,1.1214e-16,0,0.66667
0.63063,0.97467,4.4144,0.712,27.976,59.37,-8.3815,2.7938,-0.19661,-11.175,4.2899e-13,-0.098304,0,0,0.14286,-0,-0,0.66667
0.7149,0.012412,5.0043,-0.73138,-23.341,37.657,9.7601,-3.2534,-0.09726,13.014,8.8285e-13,-0.04863,0,0,0.14286,-0,-1.6202e-16,0.66667
0.10945,0.82384,0.76612,0.48575,31.191,263.95,-0.99239,0.3308,-1.1632,-1.3232,-1.1639e-08,-0.5816,0,0,0.14286,-0,-0,0.66667
0.10965,0.56197,0.76758,0.092961,5.947,263.77,-0.19028,0.063427,-1.9727,-0.25371,-1.54e-08,-0.98634,0,0,0.14286,-4.2294e-17,0,0.66667
0.91206,0.57352,6.3844,0.11028,1.1486,4.3394,-1.8776,0.62587,-1.9553,-2.5035,-2.1378e-08,-0.97763,0,0,0.14286,-0,-0,0.66667
0.32409,0.27996,2.2686,-0.33006,-19.144,168.67,1.9968,-0.6656,-1.6131,2.6624,-4.0343e-12,-0.80656,0,0,0.14286,9.7277e-16,0,0.66667
0.72386,0.56461,5.067,0.09692,2.9587,34.423,-1.3096,0.43653,-1.9665,-1.7461,-3.447e-12,-0.98323,0,0,0.14286,-2.7068e-15,0,0.66667
0.70962,0.68164,4.9673,0.27246,8.699,37.873,-3.6091,1.203,-1.7349,-4.8121,-8.1981e-12,-0.86747,0,0,0.14286,-3.3835e-16,0,0.66667
0.46881,0.42504,3.2817,-0.11244,-5.6673,111.48,0.98396,-0.32799,-1.9571,1.3119,-4.3116e-13,-0.97857,0,0,0.14286,-0,-0,0.66667
0.091311,0.92629,0.63918,0.63944,41.326,272.37,-1.0899,0.3633,-0.54634,-1.4532,-2.116e-07,-0.27317,0,0,0.14286,-0,-0,0.66667
0.88983,0.77926,6.2288,0.41888,5.5297,6.925,-6.9577,2.3192,-1.3787,-9.277,1.3479e-08,-0.68937,0,0,0.14286,1.6918e-16,0,0.66667
0.83452,0.93591,5.8416,0.65387,12.877,14.584,-10.186,3.3952,-0.47947,-13.581,-5.0009e-09,-0.23974,0,0,0.14286,4.6189e-16,0,0.66667
0.43167,0.451,3.0217,-0.073498,-3.8646,125.38,0.59224,-0.19741,-1.9792,0.78965,5.1747e-13,-0.98959,0,0,0.14286,6.7671e-16,0,0.66667
0.4559,0.93917,3.1913,0.65875,34.005,116.85,-5.606,1.8687,-0.45819,-7.4747,-1.5077e-12,-0.2291,0,0,0.14286,1.3534e-15,0,0.66667
0.5459,0.23233,3.8213,-0.40151,-18.248,84.807,4.0915,-1.3638,-1.428,5.4553,-1.3767e-13,-0.714,0,0,0.14286,-0,-0,0.66667
0.3785,0.91044,2.6495,0.61566,34.344,146.67,-4.3498,1.4499,-0.65255,-5.7997,-3.3351e-13,-0.32628,0,0,0.14286,-0,-0,0.66667
0.50468,0.78521,3.5328,0.42782,20.663,98.877,-4.0304,1.3435,-1.3489,-5.3738,-3.4772e-13,-0.67446,0,0,0.14286,-0,-0,0.66667
0.47267,0.58678,3.3087,0.13018,6.531,110.07,-1.1486,0.38286,-1.9394,-1.5314,1.6531e-13,-0.96968,0,0,0.14286,6.7671e-16,0,0.66667
0.28587,0.35413,2.0011,-0.2188,-13.01,184.84,1.1676,-0.3892,-1.8287,1.5568,-3.7345e-12,-0.91437,0,0,0.14286,-0,-0,0.66667
0.87249,0.90205,6.1074,0.60307,9.2833,9.3718,-9.8219,3.274,-0.7077,-13.096,-1.4531e-09,-0.35385,0,0,0.14286,1.3534e-15,0,0.66667
0.04716,0.14232,0.33012,-0.53652,-34.822,292.83,0.47231,-0.15744,-0.97833,0.62975,1.8853e-07,-0.48917,0,0,0.14286,8.4588e-17,0,0.66667
0.36431,0.56984,2.5502,0.10476,5.8759,151.96,-0.71241,0.23747,-1.9601,-0.94988,2.9195e-12,-0.98005,0,0,0.14286,-0,-0,0.66667
0.77404,0.05246,5.4182,-0.67131,-17.504,24.919,9.6995,-3.2332,-0.396,12.933,1.629e-11,-0.198,0,0,0.14286,-0,-0,0.66667
0.48551,0.055455,3.3986,-0.66682,-33.215,106.07,6.0433,-2.0144,-0.42056,8.0578,9.7256e-13,-0.21028,0,0,0.14286,-6.7671e-16,0,0.66667
0.78628,0.75986,5.504,0.38979,9.5562,21.892,-5.7211,1.907,-1.4586,-7.6281,1.5732e-10,-0.72931,0,0,0.14286,-1.3534e-15,0,0.66667
0.48261,0.7558,3.3782,0.3837,19.064,106.66,-3.4566,1.1522,-1.4777,-4.6088,1.2244e-12,-0.73885,0,0,0.14286,-1.3534e-15,0,0.66667
0.98946,0.88287,6.9262,0.5743,0.64786,1.1703,-10.607,3.5358,-0.82632,-14.143,1.7368e-06,-0.41316,0,0,0.14286,-0,-0,0.66667
0.88404,0.16372,6.1883,-0.50441,-7.0385,7.7613,8.3239,-2.7746,-1.094,11.099,-1.3113e-09,-0.54701,0,0,0.14286,-0,-0,0.66667
0.007732,0.43667,0.054124,-0.094999,-6.1517,311.19,0.013711,-0.0045704,-1.9675,0.018282,-3.1087e-09,-0.98377,0,0,0.14286,-1.1895e-17,0,0.66667
0.47505,0.46144,3.3254,-0.057837,-2.8924,109.19,0.51287,-0.17096,-1.9868,0.68383,3.1891e-13,-0.99342,0,0,0.14286,-0,-0,0.66667
0.85741,0.51545,6.0019,0.02318,0.38757,10.271,-0.37099,0.12366,-1.9984,-0.49466,6.2033e-10,-0.99921,0,0,0.14286,-0,-0,0.66667
0.34353,0.96147,2.4047,0.69221,39.828,160.99,-4.4388,1.4796,-0.2987,-5.9184,-3.2863e-13,-0.14935,0,0,0.14286,-3.3835e-16,-1.2089e-16,0.66667
0.72899,0.10651,5.103,-0.59024,-17.938,34.032,8.0319,-2.6773,-0.75985,10.709,5.1372e-12,-0.37993,0,0,0.14286,-1.3534e-15,0,0.66667
0.41832,0.21242,2.9282,-0.43138,-23.083,130.75,3.3684,-1.1228,-1.3383,4.4912,1.9607e-12,-0.66913,0,0,0.14286,-3.3835e-16,0,0.66667
0.095764,0.39623,0.67034,-0.15565,-9.9891,270.2,0.27824,-0.092747,-1.9144,0.37099,5.3805e-09,-0.95719,0,0,0.14286,-8.4588e-17,0,0.66667
0.31526,0.041313,2.2068,-0.68803,-40.42,172.74,4.0489,-1.3496,-0.31684,5.3985,8.2601e-13,-0.15842,0,0,0.14286,-0,-0,0.66667
0.31302,0.27078,2.1911,-0.34382,-20.104,173.34,2.009,-0.66965,-1.5814,2.6786,-3.9015e-12,-0.79072,0,0,0.14286,-0,-0,0.66667
0.65455,0.73351,4.5819,0.35026,12.92,51.967,-4.2796,1.4265,-1.5643,-5.7061,-2.7502e-12,-0.78217,0,0,0.14286,-0,-0,0.66667
0.92687,0.083069,6.4881,-0.6254,-5.6463,4.2391,10.82,-3.6068,-0.60814,14.427,-2.3387e-08,-0.30407,0,0,0.14286,-0,-0,0.66667
0.70369,0.96115,4.9258,0.69172,22.754,40.173,-9.0861,3.0287,-0.30073,-12.115,6.2172e-15,-0.15037,0,0,0.14286,-0,-0,0.66667
0.32303,0.79047,2.2612,0.43571,25.327,169.2,-2.6273,0.87577,-1.3239,-3.5031,4.9509e-12,-0.66194,0,0,0.14286,-0,-0,0.66667
0.68312,0.04274,4.7818,-0.68589,-23.835,45.214,8.7462,-2.9154,-0.32629,11.662,1.8918e-13,-0.16315,0,0,0.14286,1.3534e-15,0,0.66667
0.084102,0.61924,0.58872,0.17887,11.505,275.61,-0.2808,0.093601,-1.8853,-0.3744,-1.1718e-09,-0.94263,0,0,0.14286,-8.4588e-17,0,0.66667
0.3755,0.39127,2.6285,-0.16309,-9.0623,147.45,1.1432,-0.38106,-1.907,1.5242,3.5361e-13,-0.95351,0,0,0.14286,6.7671e-16,0,0.66667
0.19006,0.68785,1.3304,0.28177,17.603,227.09,-0.99966,0.33322,-1.7192,-1.3329,-6.1028e-10,-0.85962,0,0,0.14286,6.7671e-16,0,0.66667
0.69305,0.01768,4.8513,-0.72348,-24.535,42.853,9.3596,-3.1199,-0.13741,12.479,1.2506e-12,-0.068704,0,0,0.14286,-2.7068e-15,0,0.66667
0.66211,0.71928,4.6347,0.32893,11.914,49.907,-4.0653,1.3551,-1.6153,-5.4204,-3.078e-12,-0.80763,0,0,0.14286,-0,-0,0.66667
0.35307,0.8519,2.4715,0.52785,30.032,156.85,-3.4789,1.1596,-1.008,-4.6385,2.3324e-12,-0.50399,0,0,0.14286,-0,-0,0.66667
0.1806,0.83313,1.2642,0.49969,31.42,231.46,-1.6846,0.56153,-1.1105,-2.2461,-9.9475e-11,-0.55526,0,0,0.14286,1.6918e-16,0,0.66667
0.15666,0.13687,1.0966,-0.5447,-34.563,242.34,1.5929,-0.53096,-0.94686,2.1238,1.8677e-09,-0.47343,0,0,0.14286,-0,-0,0.66667
0.23699,0.95886,1.6589,0.68829,42.379,206.45,-3.0449,1.015,-0.31568,-4.0598,3.3444e-12,-0.15784,0,0,0.14286,3.3835e-16,0,0.66667
0.32846,0.11359,2.2992,-0.57961,-33.647,167.08,3.5538,-1.1846,-0.80738,4.7383,7.8093e-13,-0.40369,0,0,0.14286,3.3835e-16,0,0.66667
0.8696,0.45428,6.0872,-0.068585,-1.0528,8.7449,1.1133,-0.3711,-1.9818,1.4844,-5.3547e-10,-0.99088,0,0,0.14286,-1.0298e-15,0,0.66667
0.12191,0.96751,0.8534,0.70126,45.083,258.3,-1.5959,0.53196,-0.25252,-2.1278,6.5045e-08,-0.12626,0,0,0.14286,1.6918e-16,0,0.66667
0.16814,0.20521,1.177,-0.44219,-27.905,237.07,1.3879,-0.46263,-1.304,1.8505,1.0861e-09,-0.652,0,0,0.14286,-0,-0,0.66667
0.37046,0.67156,2.5932,0.25733,14.373,149.54,-1.7795,0.59317,-1.7633,-2.3727,2.9862e-12,-0.88167,0,0,0.14286,-6.7671e-16,0,0.66667
0.60435,0.0019786,4.2304,-0.74703,-30.977,67.123,8.4274,-2.8091,-0.015709,11.236,-9.1482e-14,-0.0078543,0,0,0.14286,-0,-0,0.66667
0.055815,0.26573,0.3907,-0.35141,-22.727,288.77,0.36613,-0.12204,-1.5591,0.48817,-1.7848e-08,-0.77956,0,0,0.14286,-0,-0,0.66667
0.24523,0.82851,1.7166,0.49276,30.094,202.66,-2.2556,0.75188,-1.1354,-3.0075,1.1093e-11,-0.56768,0,0,0.14286,3.3835e-16,0,0.66667
0.83397,0.85241,5.8378,0.52862,10.361,14.28,-8.2293,2.7431,-1.0051,-10.972,1.0822e-09,-0.50257,0,0,0.14286,-0,-0,0.66667
0.66288,0.18898,4.6402,-0.46653,-16.92,49.926,5.7728,-1.9243,-1.2257,7.697,3.7206e-12,-0.61286,0,0,0.14286,-0,-0,0.66667
0.35143,0.16828,2.46,-0.49759,-28.331,157.49,3.2642,-1.0881,-1.1179,4.3522,4.2344e-13,-0.55893,0,0,0.14286,-0,-0,0.66667
0.11421,0.84243,0.79949,0.51364,32.961,261.76,-1.0951,0.36502,-1.0621,-1.4601,-3.317e-09,-0.53103,0,0,0.14286,5.9201e-17,0,0.66667
0.3249,0.45829,2.2743,-0.062558,-3.6194,168.23,0.3794,-0.12647,-1.9858,0.50587,1.0343e-12,-0.99288,0,0,0.14286,-0,-0,0.66667
0.24452,0.87613,1.7116,0.5642,34.514,203.03,-2.5752,0.85839,-0.86812,-3.4336,-5.0844e-11,-0.43406,0,0,0.14286,-6.7671e-16,0,0.66667
0.71057,0.57143,4.974,0.10715,3.4046,37.511,-1.4212,0.47373,-1.9576,-1.8949,-3.2552e-12,-0.9788,0,0,0.14286,-0,-0,0.66667
0.30055,0.45703,2.1038,-0.064461,-3.7937,178.52,0.36164,-0.12055,-1.9846,0.48219,-3.3396e-13,-0.99228,0,0,0.14286,-3.3835e-16,0,0.66667
0.67724,0.78096,4.7407,0.42143,14.737,46.092,-5.3277,1.7759,-1.3686,-7.1035,-3.8654e-12,-0.68432,0,0,0.14286,-4.6524e-16,0,0.66667
0.41266,0.20486,2.8886,-0.44271,-23.83,132.96,3.4102,-1.1367,-1.3014,4.5469,1.9611e-12,-0.65069,0,0,0.14286,-0,-0,0.66667
0.34994,0.56267,2.4496,0.094,5.3353,157.84,-0.61402,0.20467,-1.9685,-0.8187,4.2793e-12,-0.98426,0,0,0.14286,-0,-0,0.66667
0.78582,0.50929,5.5008,0.013937,0.34013,21.605,-0.20443,0.068144,-1.9984,-0.27257,-3.7e-11,-0.99919,0,0,0.14286,2.7068e-15,0,0.66667
0.1854,0.90732,1.2978,0.61098,38.425,229.36,-2.1145,0.70484,-0.67444,-2.8194,1.9844e-09,-0.33722,0,0,0.14286,-6.7671e-16,2.2376e-17,0.66667
0.45682,0.96662,3.1978,0.69992,36.133,116.58,-5.9685,1.9895,-0.25864,-7.958,6.1995e-13,-0.12932,0,0,0.14286,7.613e-16,0,0.66667
0.58351,0.71058,4.0846,0.31587,13.459,72.628,-3.4405,1.1468,-1.6441,-4.5874,-3.9346e-13,-0.82206,0,0,0.14286,6.7671e-16,0,0.66667
0.3212,0.21449,2.2484,-0.42826,-24.925,169.96,2.5677,-0.85591,-1.3469,3.4236,-2.4842e-12,-0.67347,0,0,0.14286,-3.1734e-16,0,0.66667
0.70625,0.4274,4.9437,-0.1089,-3.5038,38.538,1.4357,-0.47855,-1.9576,1.9142,4.0943e-12,-0.97879,0,0,0.14286,-6.7671e-16,0,0.66667
0.91783,0.77585,6.4248,0.41377,4.0924,4.3074,-7.0891,2.363,-1.391,-9.4521,2.5275e-08,-0.69551,0,0,0.14286,1.2202e-15,0,0.66667
0.073071,0.43242,0.51149,-0.10138,-6.5298,280.73,0.13828,-0.046092,-1.9628,0.18437,7.2337e-08,-0.98142,0,0,0.14286,-8.4588e-17,0,0.66667
0.18143,0.4371,1.27,-0.094346,-5.9069,230.95,0.31952,-0.10651,-1.9683,0.42602,4.7756e-11,-0.98414,0,0,0.14286,4.4409e-16,0,0.66667
0.50911,0.76859,3.5638,0.40288,19.332,97.296,-3.8288,1.2763,-1.4212,-5.105,-8.2157e-15,-0.71058,0,0,0.14286,-6.7671e-16,0,0.66667
0.79988,0.60458,5.5992,0.15687,3.6041,19.139,-2.3423,0.78076,-1.9123,-3.123,2.4033e-10,-0.95614,0,0,0.14286,-0,-0,0.66667
0.63096,0.5947,4.4167,0.14205,5.5058,58.323,-1.673,0.55766,-1.9281,-2.2307,-2.3626e-13,-0.96405,0,0,0.14286,-0,-0,0.66667
0.019691,0.4018,0.13783,-0.14731,-9.5376,305.61,0.054144,-0.018048,-1.9227,0.072191,6.5374e-08,-0.96137,0,0,0.14286,3.1721e-17,0,0.66667
0.32998,0.85195,2.3099,0.52792,30.58,166.39,-3.2518,1.0839,-1.0099,-4.3357,2.3896e-12,-0.50494,0,0,0.14286,6.7671e-16,0,0.66667
0.65383,0.39671,4.5768,-0.15493,-5.7086,51.962,1.8909,-0.63031,-1.9149,2.5213,2.4671e-12,-0.95745,0,0,0.14286,-6.7671e-16,0,0.66667
0.68714,0.81893,4.81,0.47839,16.332,43.688,-6.1361,2.0454,-1.1886,-8.1815,-4.9982e-12,-0.5943,0,0,0.14286,1.3534e-15,0,0.66667
0.48225,0.39361,3.3757,-0.15958,-7.9123,106.61,1.4365,-0.47884,-1.9097,1.9154,3.6648e-13,-0.95487,0,0,0.14286,-0,-0,0.66667
0.053735,0.41856,0.37614,-0.12216,-7.8889,289.72,0.12254,-0.040845,-1.9452,0.16338,-4.8728e-08,-0.97259,0,0,0.14286,-8.4588e-17,0,0.66667
0.62779,0.3525,4.3945,-0.22126,-8.6404,59.285,2.5928,-0.86427,-1.826,3.4571,1.2599e-12,-0.91301,0,0,0.14286,-0,-0,0.66667
0.50403,0.181,3.5282,-0.47851,-23.155,99.176,4.5021,-1.5007,-1.1855,6.0027,3.4417e-13,-0.59275,0,0,0.14286,-0,-0,0.66667
0.72541,0.45976,5.0779,-0.060359,-1.8333,34.057,0.81732,-0.27244,-1.9855,1.0898,5.6549e-13,-0.99277,0,0,0.14286,-0,-0,0.66667
0.39049,0.88182,2.7335,0.57273,31.574,141.82,-4.1748,1.3916,-0.83619,-5.5664,1.612e-13,-0.41809,0,0,0.14286,-1.3534e-15,1.1549e-16,0.66667
0.83573,0.64832,5.8501,0.22248,4.265,13.424,-3.4707,1.1569,-1.8225,-4.6276,1.5746e-09,-0.91126,0,0,0.14286,1.3534e-15,0,0.66667
0.3075,0.47001,2.1525,-0.044984,-2.6349,175.56,0.25821,-0.08607,-1.9929,0.34428,3.0254e-13,-0.99643,0,0,0.14286,-0,-0,0.66667
0.86379,0.74578,6.0465,0.36867,5.9518,9.8161,-5.9444,1.9815,-1.5165,-7.9259,4.742e-09,-0.75825,0,0,0.14286,-0,-0,0.66667
0.014481,0.16046,0.10136,-0.50931,-33.108,308.05,0.13767,-0.04589,-1.0796,0.18356,-7.909e-08,-0.53981,0,0,0.14286,-0,-0,0.66667
0.76274,0.80242,5.3392,0.45363,12.227,26.549,-6.4587,2.1529,-1.2682,-8.6116,2.2054e-11,-0.63412,0,0,0.14286,6.7671e-16,0,0.66667
0.82737,0.53621,5.7916,0.054319,1.088,14.565,-0.83892,0.27964,-1.9917,-1.1186,6.7829e-11,-0.99583,0,0,0.14286,-0,-0,0.66667
0.6809,0.065784,4.7663,-0.65132,-22.731,45.678,8.2784,-2.7595,-0.49091,11.038,1.5481e-12,-0.24546,0,0,0.14286,-0,-0,0.66667
0.90273,0.99868,6.3191,0.74802,9.0423,6.7224,-12.605,4.2017,-0.011264,-16.807,-1.501e-08,-0.005632,0,0,0.14286,1.6918e-16,-2.7321e-17,0.66667
0.20173,0.82308,1.4121,0.48462,30.209,221.94,-1.8249,0.60831,-1.1659,-2.4333,-1.5476e-10,-0.58296,0,0,0.14286,3.3835e-16,0,0.66667
0.35195,0.74005,2.4636,0.36007,20.449,157.15,-2.3656,0.78853,-1.5373,-3.1541,3.0596e-12,-0.76867,0,0,0.14286,-0,-0,0.66667
0.22914,0.20064,1.604,-0.44904,-27.629,209.72,1.9207,-0.64023,-1.2816,2.5609,2.7741e-11,-0.64082,0,0,0.14286,-0,-0,0.66667
0.84492,0.2232,5.9144,-0.4152,-7.5932,12.421,6.5484,-2.1828,-1.3889,8.7312,-1.9191e-09,-0.69446,0,0,0.14286,-0,-0,0.66667
0.74641,0.26853,5.2249,-0.3472,-9.8869,29.719,4.8375,-1.6125,-1.5707,6.4501,-3.3333e-12,-0.78535,0,0,0.14286,-1.3534e-15,0,0.66667
0.86905,0.19166,6.0834,-0.46252,-7.2285,9.3766,7.5031,-2.501,-1.2386,10.004,-3.7255e-09,-0.61932,0,0,0.14286,-0,-0,0.66667
0.34762,0.9859,2.4334,0.72885,41.84,159.36,-4.7295,1.5765,-0.11033,-6.306,1.0925e-13,-0.055163,0,0,0.14286,-0,-0,0.66667
0.15395,0.34567,1.0777,-0.23149,-14.643,243.45,0.66525,-0.22175,-1.8109,0.88699,2.7888e-09,-0.90543,0,0,0.14286,-0,-0,0.66667
0.96828,0.26998,6.778,-0.34503,-1.2486,1.1284,6.2362,-2.0787,-1.5785,8.315,1.3129e-07,-0.78925,0,0,0.14286,-0,-0,0.66667
0.44892,0.38104,3.1425,-0.17843,-9.2101,118.88,1.4953,-0.49842,-1.8864,1.9937,-3.3085e-13,-0.9432,0,0,0.14286,-0,-0,0.66667
0.7299,0.33153,5.1093,-0.2527,-7.5834,33.183,3.443,-1.1477,-1.7719,4.5907,4.2975e-12,-0.88593,0,0,0.14286,-0,-0,0.66667
0.65417,0.049432,4.5792,-0.67585,-25.186,52.751,8.2529,-2.751,-0.3762,11.004,6.3061e-14,-0.1881,0,0,0.14286,-0,-0,0.66667
0.14285,0.52089,0.99993,0.031338,1.9874,248.51,-0.083563,0.027854,-1.9968,-0.11142,-1.072e-11,-0.99842,0,0,0.14286,-0,-0,0.66667
0.84418,0.86043,5.9092,0.54065,9.9989,12.84,-8.5196,2.8399,-0.96237,-11.359,1.8057e-09,-0.48119,0,0,0.14286,-1.3534e-15,0,0.66667
0.97846,0.028444,6.8492,-0.70733,-1.9235,1.9472,12.919,-4.3064,-0.22055,17.226,1.8285e-05,-0.11028,0,0,0.14286,1.3534e-15,0,0.66667
0.96625,0.22659,6.7637,-0.41012,-1.6105,1.3554,7.3971,-2.4657,-1.4023,9.8628,1.7156e-07,-0.70117,0,0,0.14286,-0,-0,0.66667
0.3364,0.46031,2.3548,-0.059537,-3.415,163.43,0.37386,-0.12462,-1.9859,0.49849,1.0893e-12,-0.99294,0,0,0.14286,-3.3835e-16,0,0.66667
0.92595,0.6871,6.4816,0.28065,2.4742,3.4071,-4.8509,1.617,-1.7206,-6.4679,8.8085e-09,-0.86029,0,0,0.14286,6.3441e-16,0,0.66667
0.13324,0.94588,0.93271,0.66881,42.84,253.09,-1.6635,0.5545,-0.40804,-2.218,2.4019e-08,-0.20402,0,0,0.14286,-0,-0,0.66667
0.93972,0.9198,6.5781,0.6297,4.7018,3.3853,-11.046,3.682,-0.59031,-14.728,-1.5673e-07,-0.29515,0,0,0.14286,1.3534e-15,0,0.66667
0.0441,0.52136,0.3087,0.03204,2.0705,294.21,-0.026375,0.0087916,-1.9963,-0.035167,-1.9851e-07,-0.99817,0,0,0.14286,8.4588e-17,0,0.66667
0.40908,0.77445,2.8635,0.41167,22.227,134.32,-3.1436,1.0479,-1.3977,-4.1914,7.5917e-13,-0.69885,0,0,0.14286,-0,-0,0.66667
0.84301,0.25814,5.901,-0.36279,-6.6958,12.584,5.7089,-1.903,-1.5338,7.6118,-2.3788e-09,-0.7669,0,0,0.14286,-0,-0,0.66667
0.72623,0.86015,5.0836,0.54022,16.528,34.523,-7.3234,2.4411,-0.96047,-9.7645,-6.3234e-12,-0.48024,0,0,0.14286,4.9338e-16,0,0.66667
0.72093,0.58245,5.0465,0.12367,3.8103,35.106,-1.6643,0.55476,-1.9459,-2.2191,-3.3583e-12,-0.97296,0,0,0.14286,-0,-0,0.66667
0.27735,0.50647,1.9414,0.0097109,0.57998,188.47,-0.050274,0.016758,-1.9993,-0.067033,4.3944e-12,-0.99967,0,0,0.14286,-1.3534e-15,0,0.66667
0.42121,0.15878,2.9485,-0.51183,-27.347,129.73,4.0244,-1.3415,-1.0712,5.3658,1.0925e-12,-0.5356,0,0,0.14286,-0,-0,0.66667
0.58955,0.098303,4.1268,-0.60255,-25.559,71.242,6.631,-2.2103,-0.70893,8.8413,-4.7695e-13,-0.35446,0,0,0.14286,1.3534e-15,0,0.66667
0.38914,0.70633,2.724,0.30949,17.008,142.08,-2.2481,0.74937,-1.6602,-2.9975,2.0393e-12,-0.83011,0,0,0.14286,-6.7671e-16,0,0.66667
0.50598,0.72314,3.5418,0.33472,16.113,98.312,-3.1614,1.0538,-1.6009,-4.2151,2.4114e-13,-0.80043,0,0,0.14286,-0,-0,0.66667
0.54035,0.21788,3.7824,-0.42318,-19.407,86.679,4.2684,-1.4228,-1.363,5.6912,4.9871e-13,-0.6815,0,0,0.14286,8.8818e-16,0,0.66667
0.82427,0.37278,5.7699,-0.19082,-3.8926,15.132,2.9361,-0.9787,-1.8709,3.9148,-9.3568e-10,-0.93546,0,0,0.14286,5.0753e-16,0,0.66667
0.72498,0.44651,5.0748,-0.080231,-2.4405,34.162,1.0858,-0.36192,-1.9757,1.4477,2.8604e-12,-0.98784,0,0,0.14286,-1.3534e-15,0,0.66667
0.66049,0.41929,4.6234,-0.12107,-4.3904,50.147,1.4927,-0.49755,-1.9469,1.9902,2.2635e-12,-0.97343,0,0,0.14286,-0,-0,0.66667
0.035884,0.8363,0.25119,0.50445,32.754,298.07,-0.3379,0.11263,-1.0945,-0.45053,2.5774e-08,-0.54723,0,0,0.14286,-6.3441e-17,0,0.66667
0.15539,0.93296,1.0877,0.64944,41.311,242.98,-1.8837,0.6279,-0.50248,-2.5116,-9.4436e-09,-0.25124,0,0,0.14286,-0,-8.4035e-17,0.66667
0.88653,0.021107,6.2057,-0.71834,-10.012,8.2144,11.887,-3.9625,-0.16451,15.85,-1.2832e-08,-0.082253,0,0,0.14286,-0,-0,0.66667
0.76576,0.83426,5.3603,0.50138,13.387,26.057,-7.1668,2.3889,-1.1084,-9.5558,4.1508e-11,-0.5542,0,0,0.14286,-0,-0,0.66667
0.18038,0.79132,1.2627,0.43699,27.452,231.52,-1.4714,0.49047,-1.3194,-1.9619,-7.2199e-10,-0.6597,0,0,0.14286,-0,-0,0.66667
0.065156,0.19595,0.45609,-0.45607,-29.503,284.45,0.5547,-0.1849,-1.2606,0.7396,5.0731e-08,-0.63032,0,0,0.14286,-0,-0,0.66667
0.16273,0.59753,1.1391,0.1463,9.223,239.44,-0.44441,0.14814,-1.9231,-0.59254,-8.7434e-10,-0.96155,0,0,0.14286,-6.7671e-16,0,0.66667
0.83741,0.24947,5.8618,-0.3758,-7.1708,13.416,5.8743,-1.9581,-1.4977,7.8324,-1.7459e-09,-0.74885,0,0,0.14286,1.7341e-15,0,0.66667
0.97311,0.56584,6.8117,0.098756,0.28576,0.624,-1.7939,0.59796,-1.9653,-2.3918,-5.7318e-07,-0.98263,0,0,0.14286,-0,-0,0.66667
0.7551,0.55649,5.2857,0.084735,2.3307,27.634,-1.1944,0.39812,-1.9737,-1.5925,5.8549e-12,-0.98685,0,0,0.14286,-0,-0,0.66667
0.7846,0.48547,5.4922,-0.021795,-0.53466,21.832,0.31921,-0.1064,-1.9977,0.42561,-1.4038e-12,-0.99886,0,0,0.14286,1.3534e-15,0,0.66667
0.029384,0.80094,0.20569,0.45141,29.299,301.1,-0.2476,0.082534,-1.276,-0.33013,3.8582e-07,-0.63801,0,0,0.14286,-0,-0,0.66667
0.87464,0.12655,6.1225,-0.56018,-8.4564,8.984,9.1458,-3.0486,-0.88739,12.194,-1.294e-08,-0.4437,0,0,0.14286,-0,3.2302e-17,0.66667
0.68115,0.84575,4.768,0.51863,18.005,45.285,-6.5943,2.1981,-1.0432,-8.7923,-4.6145e-12,-0.52159,0,0,0.14286,2.7068e-15,0,0.66667
0.34905,0.69207,2.4433,0.2881,16.386,158.29,-1.8772,0.62572,-1.7042,-2.5029,3.1538e-12,-0.85212,0,0,0.14286,-0,-0,0.66667
0.49958,0.18161,3.4971,-0.47759,-23.249,100.74,4.4538,-1.4846,-1.1913,5.9384,-6.1728e-14,-0.59567,0,0,0.14286,1.0151e-15,-6.0163e-18,0.66667
0.95006,0.90026,6.6504,0.60039,3.6944,2.6824,-10.647,3.5492,-0.71857,-14.197,1.5488e-07,-0.35929,0,0,0.14286,-1.3534e-15,1.1051e-16,0.66667
0.054088,0.81076,0.37861,0.46613,30.198,289.59,-0.47062,0.15687,-1.2269,-0.6275,-3.9814e-08,-0.61346,0,0,0.14286,1.0574e-16,0,0.66667
0.1917,0.65963,1.3419,0.23944,14.943,226.34,-0.85682,0.28561,-1.7962,-1.1424,-5.3485e-10,-0.89808,0,0,0.14286,-0,-0,0.66667
0.15015,0.93317,1.0511,0.64975,41.399,245.36,-1.8211,0.60704,-0.49813,-2.4282,-1.3777e-08,-0.24906,0,0,0.14286,8.4588e-17,0,0.66667
0.53825,0.75052,3.7677,0.37578,17.274,87.318,-3.7755,1.2585,-1.4977,-5.034,-8.8685e-13,-0.74884,0,0,0.14286,-0,-0,0.66667
0.23563,0.25034,1.6494,-0.37449,-22.944,206.81,1.6471,-0.54905,-1.5039,2.1962,3.7304e-11,-0.75196,0,0,0.14286,-6.7671e-16,0,0.66667
0.076734,0.46742,0.53714,-0.048864,-3.1453,279.02,0.069992,-0.023331,-1.9937,0.093322,-1.4024e-07,-0.99687,0,0,0.14286,-5.2868e-17,0,0.66667
0.515,0.90438,3.605,0.60657,28.996,95.584,-5.8311,1.9437,-0.69463,-7.7748,2.8511e-13,-0.34732,0,0,0.14286,-7.613e-16,0,0.66667
0.83625,0.84836,5.8538,0.52254,10.108,13.927,-8.1569,2.719,-1.0281,-10.876,1.6362e-09,-0.51406,0,0,0.14286,2.7068e-15,0,0.66667
0.68195,0.55467,4.7736,0.082006,2.8188,44.526,-1.0439,0.34797,-1.9749,-1.3919,-2.4301e-12,-0.98747,0,0,0.14286,6.7671e-16,0,0.66667
0.036724,0.025988,0.25707,-0.71102,-46.349,297.71,0.48741,-0.16247,-0.20172,0.64988,6.4379e-06,-0.10086,0,0,0.14286,-0,-0,0.66667
0.04527,0.03859,0.31689,-0.69211,-45.066,293.73,0.58486,-0.19495,-0.2979,0.77982,9.0247e-06,-0.14895,0,0,0.14286,-0,-1.2161e-16,0.66667
0.53809,0.072325,3.7666,-0.64151,-29.677,87.824,6.4435,-2.1478,-0.53515,8.5914,7.6961e-13,-0.26757,0,0,0.14286,-0,-0,0.66667
0.14142,0.23022,0.98992,-0.40467,-25.742,249.23,1.0682,-0.35608,-1.4192,1.4243,4.0819e-09,-0.7096,0,0,0.14286,-3.3835e-16,0,0.66667
0.70723,0.11713,4.9506,-0.5743,-18.615,39.003,7.5818,-2.5273,-0.82671,10.109,6.2448e-12,-0.41336,0,0,0.14286,-6.7671e-16,0,0.66667
0.24745,0.18911,1.7321,-0.46633,-28.434,201.66,2.154,-0.71799,-1.2281,2.872,3.1245e-11,-0.61404,0,0,0.14286,-0,-0,0.66667
0.43996,0.88505,3.0797,0.57758,30.294,122.67,-4.7434,1.5811,-0.81408,-6.3245,-6.4171e-13,-0.40704,0,0,0.14286,-0,-0,0.66667
0.62029,0.35326,4.342,-0.22011,-8.7301,61.451,2.5486,-0.84953,-1.8267,3.3981,2.1245e-12,-0.91337,0,0,0.14286,-1.3534e-15,0,0.66667
0.97274,0.2423,6.8092,-0.38655,-1.1926,1.0593,7.0189,-2.3396,-1.4682,9.3585,2.4025e-07,-0.73411,0,0,0.14286,-0,-0,0.66667
0.19701,0.49506,1.379,-0.0074058,-0.46074,223.92,0.027234,-0.0090782,-1.9989,0.036313,1.9819e-10,-0.99945,0,0,0.14286,1.6918e-16,0,0.66667
0.91184,0.9253,6.3829,0.63795,6.9221,5.4789,-10.859,3.6195,-0.55147,-14.478,2.2847e-07,-0.27573,0,0,0.14286,-1.3534e-15,0,0.66667
0.35078,0.97482,2.4554,0.71223,40.766,158.04,-4.6635,1.5545,-0.19515,-6.2181,-1.7297e-12,-0.097573,0,0,0.14286,-0,-0,0.66667
0.16192,0.63754,1.1335,0.2063,13.014,239.82,-0.62357,0.20786,-1.8471,-0.83143,-1.8177e-09,-0.92357,0,0,0.14286,-0,-0,0.66667
0.42086,0.34494,2.946,-0.23258,-12.381,129.59,1.8272,-0.60907,-1.8102,2.4363,1.2487e-12,-0.90512,0,0,0.14286,-1.3534e-15,0,0.66667
0.84148,0.0782,5.8904,-0.6327,-11.96,13.505,9.9382,-3.3127,-0.57678,13.251,1.5444e-10,-0.28839,0,0,0.14286,-1.3534e-15,0,0.66667
0.043786,0.93575,0.3065,0.65362,42.53,294.42,-0.53423,0.17808,-0.48191,-0.71231,-1.2783e-06,-0.24095,0,0,0.14286,-2.1147e-17,-3.6373e-17,0.66667
0.13697,0.14018,0.9588,-0.53974,-34.449,251.32,1.38,-0.46,-0.96345,1.84,4.4693e-10,-0.48172,0,0,0.14286,-0,-0,0.66667
0.58994,0.33376,4.1296,-0.24936,-10.492,70.57,2.746,-0.91532,-1.7783,3.6613,4.4786e-13,-0.88915,0,0,0.14286,-6.7671e-16,0,0.66667
0.40858,0.96915,2.8601,0.70372,38.252,134.92,-5.3671,1.789,-0.2409,-7.1562,1.156e-12,-0.12045,0,0,0.14286,-0,-0,0.66667
0.47828,0.54932,3.3479,0.073976,3.6848,108.02,-0.66045,0.22015,-1.9789,-0.8806,2.8e-13,-0.98944,0,0,0.14286,-0,-0,0.66667
0.82205,0.36567,5.7544,-0.20149,-4.1592,15.491,3.0919,-1.0306,-1.8542,4.1226,-8.1103e-10,-0.92711,0,0,0.14286,6.7671e-16,0,0.66667
0.16727,0.79239,1.1709,0.43858,27.684,237.46,-1.3694,0.45648,-1.315,-1.8259,-1.2233e-09,-0.65749,0,0,0.14286,-3.3835e-16,0,0.66667
0.32202,0.70099,2.2542,0.30148,17.507,169.52,-1.8122,0.60408,-1.6752,-2.4163,6.8717e-12,-0.83758,0,0,0.14286,-0,-0,0.66667
0.20551,0.45933,1.4386,-0.061004,-3.7819,220.11,0.23402,-0.078007,-1.9871,0.31203,9.7972e-11,-0.99353,0,0,0.14286,1.6918e-16,0,0.66667
0.099323,0.71998,0.69526,0.32997,21.19,268.58,-0.61177,0.20392,-1.6128,-0.81569,-1.4281e-08,-0.80638,0,0,0.14286,-0,-0,0.66667
0.52436,0.27671,3.6705,-0.33493,-15.709,91.962,3.2783,-1.0928,-1.6001,4.3711,7.4563e-13,-0.80007,0,0,0.14286,-1.0151e-15,0,0.66667
0.21257,0.6649,1.488,0.24735,15.302,216.99,-0.9815,0.32717,-1.7811,-1.3087,-2.1544e-10,-0.89054,0,0,0.14286,-0,-0,0.66667
0.90438,0.51361,6.3306,0.020417,0.231,4.9979,-0.34467,0.11489,-1.999,-0.45956,-1.1585e-08,-0.99948,0,0,0.14286,-0,-0,0.66667
0.046031,0.22699,0.32221,-0.40952,-26.531,293.34,0.35188,-0.11729,-1.4054,0.46917,-4.5126e-08,-0.70268,0,0,0.14286,-0,-0,0.66667
0.89727,0.77021,6.2809,0.40531,4.9936,6.138,-6.7886,2.2629,-1.4142,-9.0515,1.7779e-08,-0.70712,0,0,0.14286,-1.3534e-15,0,0.66667
0.58773,0.0021656,4.1141,-0.74675,-31.931,72.156,8.1926,-2.7309,-0.016868,10.924,-2.2942e-12,-0.0084338,0,0,0.14286,-0,-0,0.66667
0.8616,0.33154,6.0312,-0.25268,-4.1228,9.8999,4.064,-1.3547,-1.7732,5.4186,-3.9561e-09,-0.8866,0,0,0.14286,-0,-0,0.66667
0.02917,0.4359,0.20419,-0.096156,-6.2217,301.18,0.052358,-0.017453,-1.9687,0.069811,-5.499e-07,-0.98437,0,0,0.14286,5.1899e-17,0,0.66667
0.33301,0.64438,2.3311,0.21657,12.464,164.88,-1.3462,0.44875,-1.832,-1.795,5.7296e-12,-0.916,0,0,0.14286,3.3835e-16,0,0.66667
0.50111,0.48759,3.5078,-0.018616,-0.89997,99.845,0.17413,-0.058044,-1.9999,0.23218,1.4944e-13,-0.99994,0,0,0.14286,-0,-0,0.66667
0.21711,0.23808,1.5198,-0.39288,-24.292,215.02,1.5922,-0.53075,-1.4519,2.123,1.3207e-10,-0.72594,0,0,0.14286,3.3835e-16,0,0.66667
0.4226,0.50424,2.9582,0.0063536,0.33726,128.85,-0.05012,0.016707,-2.0022,-0.066827,-1.7536e-13,-1.0011,0,0,0.14286,-2.7068e-15,0,0.66667
0.029533,0.25831,0.20673,-0.36254,-23.503,301.02,0.19986,-0.06662,-1.5336,0.26648,-1.7375e-07,-0.76679,0,0,0.14286,-0,-0,0.66667
0.58718,0.57368,4.1103,0.11053,4.6682,71.329,-1.2114,0.40382,-1.9549,-1.6153,-5.0293e-14,-0.97745,0,0,0.14286,-0,-0,0.66667
0.92973,0.69916,6.5081,0.29873,2.4998,3.1601,-5.1845,1.7282,-1.6809,-6.9127,7.3397e-09,-0.84045,0,0,0.14286,-0,-0,0.66667
0.075808,0.19848,0.53066,-0.45228,-29.211,279.5,0.64001,-0.21334,-1.2729,0.85335,4.1291e-08,-0.63646,0,0,0.14286,-0,-0,0.66667
0.84182,0.40509,5.8928,-0.14237,-2.6297,12.461,2.2372,-0.74572,-1.9298,2.9829,-1.8344e-09,-0.96488,0,0,0.14286,-0,-0,0.66667
0.74778,0.026843,5.2345,-0.70973,-20.397,30.32,9.9069,-3.3023,-0.21001,13.209,-3.3751e-12,-0.105,0,0,0.14286,-6.7671e-16,0,0.66667
0.22999,0.47214,1.6099,-0.041792,-2.5617,209.2,0.17942,-0.059805,-1.9937,0.23922,1.203e-12,-0.99685,0,0,0.14286,-6.7671e-16,0,0.66667
0.51812,0.92372,3.6268,0.63557,30.273,94.569,-6.147,2.049,-0.56369,-8.196,-3.9968e-13,-0.28185,0,0,0.14286,6.7671e-16,0,0.66667
0.31376,0.18887,2.1963,-0.4667,-27.322,173.12,2.7334,-0.91112,-1.2279,3.6445,-2.5189e-12,-0.61396,0,0,0.14286,-0,-0,0.66667
0.61579,0.20308,4.3105,-0.44539,-17.896,63.055,5.1196,-1.7065,-1.2929,6.8261,6.4482e-13,-0.64646,0,0,0.14286,-0,-0,0.66667
0.21317,0.967,1.4922,0.7005,43.634,217,-2.7874,0.92915,-0.25507,-3.7166,-1.7425e-10,-0.12753,0,0,0.14286,-8.4588e-17,0,0.66667
0.43589,0.61309,3.0512,0.16964,8.8833,123.8,-1.3803,0.46009,-1.8984,-1.8404,9.8466e-13,-0.9492,0,0,0.14286,-0,-0,0.66667
0.78908,0.60201,5.5235,0.15301,3.6868,21.065,-2.2537,0.75125,-1.9152,-3.005,2.0005e-10,-0.95762,0,0,0.14286,-0,-0,0.66667
0.46647,0.89657,3.2653,0.59486,30.279,112.84,-5.1797,1.7266,-0.74219,-6.9062,1.1813e-13,-0.3711,0,0,0.14286,-0,-0,0.66667
0.67355,0.026473,4.7149,-0.71029,-25.31,47.727,8.9305,-2.9768,-0.20756,11.907,7.6206e-13,-0.10378,0,0,0.14286,-6.7671e-16,0,0.66667
0.88484,0.41989,6.1939,-0.12016,-1.6357,7.0144,1.9846,-0.66155,-1.9471,2.6462,-2.1239e-09,-0.97353,0,0,0.14286,-1.3534e-15,0,0.66667
0.93814,0.55829,6.567,0.08743,0.63455,2.3498,-1.5311,0.51035,-1.9752,-2.0414,-1.0399e-07,-0.9876,0,0,0.14286,1.6918e-15,0,0.66667
0.98474,0.47971,6.8932,-0.03044,-0.042518,0.26017,0.55954,-0.18651,-1.9986,0.74605,-2.023e-06,-0.99929,0,0,0.14286,-0,-0,0.66667
0.88356,0.40096,6.1849,-0.14857,-2.0456,7.1757,2.4503,-0.81677,-1.9204,3.2671,-8.6251e-09,-0.9602,0,0,0.14286,1.3534e-15,0,0.66667
0.24358,0.51227,1.7051,0.018398,1.1199,203.2,-0.08365,0.027883,-1.9971,-0.11153,4.0517e-12,-0.99855,0,0,0.14286,-0,-0,0.66667
0.4083,0.74213,2.8581,0.36319,19.61,134.57,-2.7681,0.92271,-1.5317,-3.6908,-5.7976e-13,-0.76584,0,0,0.14286,3.3835e-16,0,0.66667
0.37481,0.2551,2.6236,-0.36736,-20.466,147.86,2.5702,-0.85672,-1.5228,3.4269,1.6895e-12,-0.76142,0,0,0.14286,-1.3534e-15,0,0.66667
0.15223,0.80743,1.0656,0.46115,29.263,244.32,-1.3104,0.4368,-1.2437,-1.7472,-3.3661e-09,-0.62185,0,0,0.14286,1.6918e-16,0,0.66667
0.070456,0.32084,0.49319,-0.26874,-17.334,281.95,0.35345,-0.11782,-1.7417,0.47126,7.3807e-10,-0.87084,0,0,0.14286,-0,-0,0.66667
0.29574,0.65293,2.0702,0.2294,13.555,180.61,-1.2664,0.42213,-1.815,-1.6885,1.0215e-11,-0.90749,0,0,0.14286,8.4588e-17,0,0.66667
0.85996,0.73063,6.0197,0.34595,5.7281,10.259,-5.5533,1.8511,-1.5761,-7.4045,4.452e-09,-0.78804,0,0,0.14286,1.3534e-15,0,0.66667
0.038983,0.89515,0.27288,0.59272,38.536,296.64,-0.43132,0.14377,-0.74912,-0.57509,-1.3273e-06,-0.37456,0,0,0.14286,-0,-0,0.66667
0.21547,0.85315,1.5083,0.52972,32.847,215.84,-2.1306,0.71019,-1.002,-2.8407,-8.4595e-12,-0.501,0,0,0.14286,-0,-0,0.66667
0.34655,0.42606,2.4258,-0.11091,-6.3129,159.24,0.7175,-0.23917,-1.9561,0.95666,1.5726e-13,-0.97806,0,0,0.14286,-0,-0,0.66667
0.64816,0.53466,4.5371,0.051989,1.9395,53.469,-0.62902,0.20967,-1.9895,-0.83869,-1.0371e-12,-0.99477,0,0,0.14286,-0,-0,0.66667
0.56317,0.93398,3.9422,0.65097,28.948,79.637,-6.8433,2.2811,-0.49574,-9.1244,2.8511e-13,-0.24787,0,0,0.14286,-1.0151e-15,0,0.66667
0.79618,0.04826,5.5733,-0.67761,-16.134,20.866,10.071,-3.3569,-0.36887,13.428,1.3066e-10,-0.18444,0,0,0.14286,-9.4287e-16,0,0.66667
0.68696,0.38658,4.8087,-0.17013,-5.7757,43.305,2.1817,-0.72723,-1.8988,2.9089,4.7462e-12,-0.94938,0,0,0.14286,-0,-0,0.66667
0.8895,0.80695,6.2265,0.46043,6.1131,7.0605,-7.6449,2.5483,-1.248,-10.193,1.0999e-08,-0.62399,0,0,0.14286,6.7671e-16,0,0.66667
0.4869,0.91927,3.4083,0.6289,31.238,105.5,-5.716,1.9053,-0.59368,-7.6213,3.828e-13,-0.29684,0,0,0.14286,-0,-0,0.66667
0.53592,0.51386,3.7514,0.020796,0.95631,87.862,-0.20804,0.069346,-1.9972,-0.27738,-1.8552e-13,-0.99862,0,0,0.14286,-0,-0,0.66667
0.83765,0.31094,5.8635,-0.28359,-5.3859,13.222,4.4342,-1.4781,-1.7137,5.9123,-1.9924e-09,-0.85687,0,0,0.14286,1.5226e-15,0,0.66667
0.0056932,0.87851,0.039852,0.56777,36.951,312.15,-0.060338,0.020112,-0.85326,-0.080451,-1.2486e-06,-0.42663,0,0,0.14286,-0,-0,0.66667
0.24257,0.67887,1.698,0.2683,16.361,203.69,-1.2149,0.40495,-1.7425,-1.6198,-2.6245e-11,-0.87125,0,0,0.14286,1.6918e-16,0,0.66667
0.22151,0.22852,1.5505,-0.40722,-25.132,213.08,1.6838,-0.56126,-1.4104,2.2451,1.0042e-10,-0.70519,0,0,0.14286,-0,-0,0.66667
0.56155,0.60838,3.9308,0.16258,7.1819,79.463,-1.7042,0.56806,-1.9072,-2.2722,-7.0033e-13,-0.9536,0,0,0.14286,-0,-0,0.66667
0.71761,0.1372,5.0233,-0.54421,-17.095,36.498,7.2899,-2.43,-0.94808,9.7198,6.4002e-12,-0.47404,0,0,0.14286,-0,-0,0.66667
0.2525,0.85647,1.7675,0.5347,32.553,199.51,-2.5202,0.84006,-0.98346,-3.3602,1.0876e-11,-0.49173,0,0,0.14286,-0,-0,0.66667
0.50602,0.12309,3.5421,-0.56537,-27.337,98.623,5.3403,-1.7801,-0.86313,7.1204,1.1831e-12,-0.43157,0,0,0.14286,-7.613e-16,0,0.66667
0.73927,0.39609,5.1749,-0.15586,-4.5307,31.029,2.1508,-0.71693,-1.9125,2.8677,-1.3833e-13,-0.95625,0,0,0.14286,-6.7671e-16,0,0.66667
0.7223,0.39672,5.0561,-0.15492,-4.7544,34.811,2.0888,-0.69626,-1.9142,2.7851,3.7876e-12,-0.95711,0,0,0.14286,-0,-0,0.66667
0.46831,0.78613,3.2782,0.4292,21.723,111.91,-3.752,1.2507,-1.3475,-5.0027,2.0406e-13,-0.67374,0,0,0.14286,-0,-0,0.66667
0.70619,0.12307,4.9434,-0.56539,-18.375,39.228,7.4531,-2.4844,-0.86429,9.9375,6.3975e-12,-0.43215,0,0,0.14286,1.3534e-15,0,0.66667
0.55907,0.17539,3.9135,-0.48691,-21.704,80.632,5.0814,-1.6938,-1.1565,6.7752,4.8139e-13,-0.57824,0,0,0.14286,-0,-0,0.66667
0.078411,0.80388,0.54888,0.45581,29.429,278.29,-0.66716,0.22239,-1.2634,-0.88955,-3.7272e-08,-0.63171,0,0,0.14286,-0,-0,0.66667
0.9528,0.75248,6.6696,0.37871,2.1158,1.8959,-6.7357,2.2452,-1.493,-8.9809,-5.9553e-08,-0.74651,0,0,0.14286,-0,-0,0.66667
0.97565,0.51169,6.8296,0.017535,0.044878,0.51122,-0.31936,0.10645,-1.9972,-0.42581,-3.1015e-06,-0.99858,0,0,0.14286,-0,-0,0.66667
0.16201,0.17765,1.1341,-0.48352,-30.596,239.87,1.4623,-0.48743,-1.1673,1.9497,1.4216e-09,-0.58367,0,0,0.14286,-0,-0,0.66667
0.41783,0.48323,2.9248,-0.025161,-1.3422,130.7,0.19624,-0.065414,-1.9968,0.26166,-1.1283e-12,-0.99839,0,0,0.14286,6.7671e-16,0,0.66667
0.61959,0.84469,4.3371,0.51704,20.654,62.077,-5.9799,1.9933,-1.0495,-7.9733,-5.8797e-13,-0.52474,0,0,0.14286,-0,-0,0.66667
0.56812,0.55051,3.9768,0.075765,3.3086,77.315,-0.80348,0.26783,-1.9781,-1.0713,-6.1168e-13,-0.98905,0,0,0.14286,-6.7671e-16,0,0.66667
0.37473,0.2973,2.6231,-0.30405,-16.927,147.84,2.1268,-0.70894,-1.6731,2.8358,1.4306e-12,-0.83656,0,0,0.14286,-4.4377e-16,0,0.66667
0.90355,0.70891,6.3249,0.31336,3.6077,5.3497,-5.2852,1.7617,-1.6509,-7.0469,1.4124e-08,-0.82546,0,0,0.14286,-1.3534e-15,0,0.66667
0.67718,0.81142,4.7403,0.46713,16.357,46.192,-5.9048,1.9683,-1.2241,-7.8731,-4.9716e-12,-0.61207,0,0,0.14286,5.9212e-16,0,0.66667
0.11263,0.37792,0.78841,-0.18312,-11.711,262.41,0.38499,-0.12833,-1.8814,0.51331,6.2312e-09,-0.94068,0,0,0.14286,-3.3835e-16,0,0.66667
0.66956,0.74831,4.6869,0.37246,13.261,48.001,-4.6552,1.5517,-1.5082,-6.2069,-4.4946e-12,-0.75409,0,0,0.14286,6.7671e-16,0,0.66667
0.21799,0.38985,1.5259,-0.16522,-10.19,214.55,0.67232,-0.22411,-1.9043,0.89643,1.278e-10,-0.95215,0,0,0.14286,-3.3835e-16,0,0.66667
0.086095,0.94362,0.60266,0.66542,43.069,274.79,-1.0694,0.35647,-0.42437,-1.4259,-1.4481e-07,-0.21219,0,0,0.14286,1.6918e-16,0,0.66667
0.35993,0.23136,2.5195,-0.40295,-22.748,153.92,2.7073,-0.90244,-1.4243,3.6098,1.007e-12,-0.71214,0,0,0.14286,-0,-0,0.66667
0.049607,0.068751,0.34725,-0.64687,-42.062,291.71,0.59901,-0.19967,-0.51259,0.79867,5.641e-07,-0.2563,0,0,0.14286,-0,-0,0.66667
0.14662,0.22325,1.0263,-0.41512,-26.37,246.86,1.1361,-0.3787,-1.3865,1.5148,2.7714e-09,-0.69324,0,0,0.14286,-0,-0,0.66667
0.45307,0.36716,3.1715,-0.19926,-10.238,117.34,1.6852,-0.56172,-1.8613,2.2469,5.5511e-16,-0.93064,0,0,0.14286,-0,-0,0.66667
0.9832,0.067792,6.8824,-0.64831,-1.3154,1.5806,11.899,-3.9662,-0.50729,15.865,-6.4036e-07,-0.25364,0,0,0.14286,-0,-9.519e-17,0.66667
0.84187,0.3386,5.8931,-0.2421,-4.4803,12.555,3.8045,-1.2682,-1.7928,5.0727,-2.1986e-09,-0.89639,0,0,0.14286,-1.3534e-15,0,0.66667
0.013205,0.20892,0.092435,-0.43663,-28.353,308.64,0.10763,-0.035875,-1.3224,0.1435,3.897e-08,-0.6612,0,0,0.14286,1.0574e-17,0,0.66667
0.86889,0.16389,6.0823,-0.50417,-7.9096,9.5047,8.1773,-2.7258,-1.095,10.903,-7.443e-09,-0.54748,0,0,0.14286,-0,-0,0.66667
0.28341,0.57191,1.9839,0.10787,6.4196,185.86,-0.57066,0.19022,-1.9591,-0.76088,6.2593e-12,-0.97954,0,0,0.14286,-0,-0,0.66667
0.19764,0.32075,1.3835,-0.26888,-16.744,223.68,0.99196,-0.33065,-1.7418,1.3226,4.3155e-10,-0.87089,0,0,0.14286,-6.7671e-16,0,0.66667
0.30963,0.38352,2.1674,-0.17472,-10.224,174.68,1.0098,-0.33661,-1.8915,1.3465,-2.8305e-12,-0.94576,0,0,0.14286,-0,-0,0.66667
0.52923,0.1359,3.7046,-0.54615,-25.538,90.609,5.3955,-1.7985,-0.93989,7.194,2.3448e-13,-0.46995,0,0,0.14286,-0,-0,0.66667
0.48269,0.68024,3.3788,0.27037,13.411,106.52,-2.436,0.81201,-1.7411,-3.2481,-4.3454e-13,-0.87057,0,0,0.14286,6.7671e-16,0,0.66667
0.62987,0.90466,4.4091,0.60699,23.801,59.315,-7.1368,2.3789,-0.69004,-9.5157,7.5495e-14,-0.34502,0,0,0.14286,-3.3835e-16,0,0.66667
0.16677,0.89205,1.1674,0.58808,37.221,237.77,-1.8307,0.61025,-0.76894,-2.441,-2.2756e-09,-0.38447,0,0,0.14286,-0,-0,0.66667
0.3743,0.98364,2.6201,0.72546,40.729,148.52,-5.0687,1.6896,-0.13015,-6.7582,1.66e-12,-0.065073,0,0,0.14286,-0,-1.688e-16,0.66667
0.58249,0.14137,4.0774,-0.53794,-23.069,73.291,5.8491,-1.9497,-0.96997,7.7988,-5.2847e-14,-0.48499,0,0,0.14286,-0,-0,0.66667
0.81078,0.18814,5.6755,-0.4678,-10.305,17.77,7.0799,-2.36,-1.224,9.4399,-5.2574e-10,-0.61201,0,0,0.14286,-2.7068e-15,0,0.66667
0.36845,0.57641,2.5791,0.11461,6.4063,150.29,-0.78828,0.26276,-1.9515,-1.051,3.0211e-12,-0.97576,0,0,0.14286,-0,-0,0.66667
0.83938,0.49715,5.8757,-0.0042777,-0.080068,12.759,0.067024,-0.022341,-2,0.089366,-1.4791e-10,-0.99998,0,0,0.14286,-4.3986e-15,0,0.66667
0.41681,0.062978,2.9177,-0.65553,-35.297,131.65,5.1003,-1.7001,-0.47229,6.8005,4.4009e-13,-0.23615,0,0,0.14286,-0,-0,0.66667
0.94249,0.79262,6.5974,0.43893,3.0353,2.6189,-7.7222,2.5741,-1.3137,-10.296,2.1895e-08,-0.65686,0,0,0.14286,-0,-0,0.66667
0.29636,0.61458,2.0745,0.17187,10.148,180.33,-0.9508,0.31693,-1.8967,-1.2677,7.4762e-12,-0.94837,0,0,0.14286,-0,-0,0.66667
0.3686,0.15679,2.5802,-0.51481,-28.906,150.51,3.5422,-1.1807,-1.0575,4.7229,2.599e-12,-0.52874,0,0,0.14286,-1.3534e-15,0,0.66667
0.65273,0.37856,4.5691,-0.18216,-6.7307,52.28,2.2195,-0.73984,-1.8823,2.9594,2.2506e-12,-0.94117,0,0,0.14286,-0,-0,0.66667
0.58342,0.50998,4.0839,0.014963,0.63611,72.477,-0.16295,0.054318,-1.9979,-0.21727,-5.4814e-13,-0.99897,0,0,0.14286,-0,-0,0.66667
0.35417,0.54389,2.4792,0.065832,3.7234,156.1,-0.43523,0.14508,-1.9832,-0.5803,4.3513e-12,-0.9916,0,0,0.14286,-6.7671e-16,0,0.66667
0.48431,0.090671,3.3901,-0.61399,-30.587,106.4,5.5507,-1.8502,-0.66272,7.401,2.002e-12,-0.33136,0,0,0.14286,-6.7671e-16,0,0.66667
0.66432,0.93303,4.6502,0.64955,23.614,49.967,-8.0548,2.6849,-0.49884,-10.74,2.7001e-13,-0.24942,0,0,0.14286,-3.3835e-16,0,0.66667
0.05634,0.4518,0.39438,-0.072304,-4.6671,288.51,0.076041,-0.025347,-1.9797,0.10139,8.2488e-08,-0.98985,0,0,0.14286,-0,-0,0.66667
0.6064,0.11304,4.2448,-0.58043,-23.841,66.093,6.5702,-2.1901,-0.80184,8.7603,7.0877e-13,-0.40092,0,0,0.14286,-0,-0,0.66667
0.74678,0.32404,5.2275,-0.26394,-7.4925,29.522,3.6793,-1.2264,-1.7519,4.9058,-8.3673e-12,-0.87595,0,0,0.14286,-0,-0,0.66667
0.79397,0.52707,5.5578,0.040601,0.95681,20.127,-0.60173,0.20058,-1.9947,-0.80231,4.6039e-11,-0.99737,0,0,0.14286,1.617e-15,0,0.66667
0.21378,0.15008,1.4965,-0.52488,-32.568,216.59,2.0946,-0.6982,-1.0197,2.7928,-2.9102e-11,-0.50986,0,0,0.14286,-0,-0,0.66667
0.64111,0.51463,4.4877,0.02194,0.83146,55.42,-0.26256,0.08752,-1.9999,-0.35008,3.0559e-13,-0.99995,0,0,0.14286,-0,-0,0.66667
0.73113,0.92557,5.1179,0.63836,19.309,33.69,-8.7122,2.9041,-0.55068,-11.616,-2.6121e-12,-0.27534,0,0,0.14286,-0,-0,0.66667
0.095062,0.31706,0.66543,-0.27441,-17.628,270.54,0.48695,-0.16232,-1.734,0.64926,1.0824e-08,-0.86699,0,0,0.14286,-0,-0,0.66667
0.070073,0.1833,0.49051,-0.47505,-30.718,282.17,0.62138,-0.20713,-1.1966,0.82851,5.8471e-08,-0.59831,0,0,0.14286,8.4588e-17,0,0.66667
0.88595,0.6207,6.2017,0.18105,2.4447,6.9434,-2.9942,0.99807,-1.8831,-3.9923,5.3523e-09,-0.94155,0,0,0.14286,-3.3835e-16,0,0.66667
0.36132,0.91635,2.5293,0.62453,35.364,153.61,-4.2123,1.4041,-0.61376,-5.6164,1.6978e-12,-0.30688,0,0,0.14286,-0,-0,0.66667
0.70343,0.4219,4.924,-0.11715,-3.7999,39.218,1.5383,-0.51276,-1.953,2.051,4.7451e-12,-0.97649,0,0,0.14286,-1.3534e-15,0,0.66667
0.56015,0.76839,3.921,0.40258,17.882,80.152,-4.2094,1.4031,-1.4238,-5.6126,-1.1546e-14,-0.71192,0,0,0.14286,-0,-0,0.66667
0.33775,0.58366,2.3642,0.12549,7.1925,162.88,-0.79119,0.26373,-1.9425,-1.0549,3.8032e-12,-0.97127,0,0,0.14286,-0,-0,0.66667
0.34565,0.51714,2.4196,0.025704,1.4637,159.6,-0.16585,0.055282,-1.998,-0.22113,3.689e-12,-0.99902,0,0,0.14286,-0,-0,0.66667
0.90546,0.4408,6.3382,-0.088801,-0.99402,4.9182,1.5009,-0.5003,-1.9744,2.0012,1.6875e-08,-0.98718,0,0,0.14286,2.7068e-15,0,0.66667
0.45348,0.48383,3.1744,-0.024261,-1.2449,117.13,0.20537,-0.068455,-1.9996,0.27382,-3.0927e-13,-0.99982,0,0,0.14286,-6.7671e-16,0,0.66667
0.48253,0.11957,3.3777,-0.57064,-28.461,106.96,5.1399,-1.7133,-0.84335,6.8532,1.3323e-12,-0.42168,0,0,0.14286,-0,-2.1264e-16,0.66667
0.97915,0.53962,6.854,0.059437,0.12581,0.41507,-1.0864,0.36212,-1.9863,-1.4485,4.2019e-07,-0.99317,0,0,0.14286,-0,-0,0.66667
0.41169,0.62297,2.8818,0.18445,9.9071,133.12,-1.4175,0.47249,-1.8788,-1.8899,-1.2712e-13,-0.9394,0,0,0.14286,9.3047e-16,0,0.66667
0.36945,0.28011,2.5861,-0.32984,-18.453,149.99,2.2747,-0.75823,-1.6131,3.0329,8.4754e-13,-0.80654,0,0,0.14286,-8.4588e-17,0,0.66667
0.079963,0.4915,0.55974,-0.012749,-0.82016,277.52,0.019029,-0.0063431,-2.0002,0.025373,7.0303e-08,-1.0001,0,0,0.14286,2.5377e-16,0,0.66667
0.38778,0.74477,2.7145,0.36715,20.217,142.67,-2.6577,0.88589,-1.5212,-3.5435,4.8739e-13,-0.76059,0,0,0.14286,-1.6918e-16,0,0.66667
0.17793,0.79104,1.2455,0.43657,27.451,232.63,-1.45,0.48333,-1.3209,-1.9333,-8.2609e-10,-0.66044,0,0,0.14286,3.3835e-16,0,0.66667
0.13134,0.73756,0.91939,0.35634,22.718,253.83,-0.87364,0.29121,-1.5468,-1.1649,-5.7771e-09,-0.77342,0,0,0.14286,-0,-0,0.66667
0.36767,0.8591,2.5737,0.53865,30.282,150.92,-3.6969,1.2323,-0.96651,-4.9291,1.225e-12,-0.48325,0,0,0.14286,-0,-0,0.66667
0.15881,0.21267,1.1117,-0.431,-27.28,241.3,1.2777,-0.42589,-1.3401,1.7036,1.7874e-09,-0.67003,0,0,0.14286,2.5377e-16,0,0.66667
0.30756,0.79601,2.1529,0.44401,26.097,175.72,-2.5492,0.84972,-1.2977,-3.3989,6.851e-12,-0.64884,0,0,0.14286,-6.7671e-16,0,0.66667
0.68798,0.24931,4.8159,-0.37603,-12.775,43.291,4.8291,-1.6097,-1.5004,6.4388,7.272e-12,-0.75021,0,0,0.14286,-1.7764e-15,0,0.66667
0.83844,0.54326,5.8691,0.064885,1.2215,12.907,-1.0155,0.3385,-1.9836,-1.354,4.1611e-10,-0.99182,0,0,0.14286,1.3534e-15,0,0.66667
0.30482,0.83603,2.1338,0.50405,29.71,176.94,-2.868,0.95601,-1.0952,-3.824,6.9067e-12,-0.5476,0,0,0.14286,3.3835e-16,0,0.66667
0.3531,0.206,2.4717,-0.441,-25.052,156.75,2.9067,-0.9689,-1.3068,3.8756,1.0811e-12,-0.65341,0,0,0.14286,2.5856e-16,0,0.66667
0.73064,0.65868,5.1145,0.23802,7.1243,33.002,-3.2463,1.0821,-1.799,-4.3284,-3.9393e-12,-0.89948,0,0,0.14286,-0,-0,0.66667
0.77783,0.81568,5.4448,0.47352,12.053,23.647,-6.8753,2.2918,-1.2032,-9.1671,6.7131e-11,-0.6016,0,0,0.14286,2.7068e-15,0,0.66667
0.17703,0.72441,1.2392,0.33662,21.146,233,-1.1124,0.37079,-1.5964,-1.4832,-1.0656e-09,-0.79819,0,0,0.14286,-0,-0,0.66667
0.40176,0.086231,2.8123,-0.62065,-33.89,137.45,4.6546,-1.5515,-0.62964,6.2061,2.5611e-12,-0.31482,0,0,0.14286,-0,-0,0.66667
0.0029414,0.092431,0.02059,-0.61135,-39.822,313.43,0.033564,-0.011188,-0.67219,0.044752,-5.0324e-07,-0.3361,0,0,0.14286,6.9389e-18,0,0.66667
0.4006,0.34493,2.8042,-0.2326,-12.635,137.49,1.7393,-0.57978,-1.8075,2.3191,7.4463e-13,-0.90375,0,0,0.14286,-1.3534e-15,0,0.66667
0.8932,0.77894,6.2524,0.4184,5.3589,6.576,-6.9761,2.3254,-1.3787,-9.3015,1.6791e-08,-0.68934,0,0,0.14286,-2.0301e-15,0,0.66667
0.057463,0.40294,0.40224,-0.14558,-9.3983,287.99,0.15616,-0.052053,-1.9243,0.20821,5.2764e-08,-0.96215,0,0,0.14286,-4.2294e-17,0,0.66667
0.38963,0.068362,2.7274,-0.64746,-35.783,142.28,4.709,-1.5697,-0.51131,6.2787,2.7272e-12,-0.25566,0,0,0.14286,-0,-0,0.66667
0.26534,0.7912,1.8574,0.4368,26.36,193.83,-2.1635,0.72118,-1.3236,-2.8847,7.4463e-12,-0.66182,0,0,0.14286,-0,-0,0.66667
0.036777,0.4591,0.25744,-0.061354,-3.9675,297.63,0.042119,-0.01404,-1.9853,0.056159,-2.8752e-07,-0.99265,0,0,0.14286,-4.2294e-17,0,0.66667
0.4005,0.90449,2.8035,0.60674,33.16,137.92,-4.536,1.512,-0.69081,-6.048,8.4643e-13,-0.34541,0,0,0.14286,-1.6918e-16,0,0.66667
0.23781,0.74657,1.6647,0.36985,22.634,205.84,-1.6418,0.54727,-1.514,-2.1891,-3.438e-11,-0.75701,0,0,0.14286,-4.2294e-16,0,0.66667
0.83097,0.80227,5.8168,0.45341,9,14.538,-7.033,2.3443,-1.269,-9.3773,7.2361e-10,-0.63449,0,0,0.14286,-0,-0,0.66667
0.64363,0.54294,4.5054,0.064415,2.4278,54.725,-0.7739,0.25797,-1.985,-1.0319,-1.2601e-14,-0.99248,0,0,0.14286,-1.3534e-15,0,0.66667
0.47657,0.7714,3.336,0.40711,20.389,108.87,-3.6216,1.2072,-1.4091,-4.8288,7.8848e-13,-0.70453,0,0,0.14286,-0,-0,0.66667
0.70881,0.93015,4.9616,0.64523,20.878,38.821,-8.5371,2.8457,-0.51863,-11.383,-1.3083e-12,-0.25932,0,0,0.14286,-0,-0,0.66667
0.099384,0.78849,0.69569,0.43273,27.824,268.58,-0.80278,0.26759,-1.3331,-1.0704,-1.836e-08,-0.66655,0,0,0.14286,-0,-0,0.66667
0.75698,0.54939,5.2988,0.074088,2.024,27.245,-1.0469,0.34896,-1.9787,-1.3958,1.2171e-11,-0.98934,0,0,0.14286,-1.3534e-15,0,0.66667
0.29859,0.16286,2.0901,-0.50571,-29.933,179.58,2.8187,-0.93957,-1.0918,3.7583,-3.5396e-12,-0.54589,0,0,0.14286,-0,-0,0.66667
0.50277,0.54955,3.5194,0.074328,3.5856,99.268,-0.69758,0.23253,-1.9802,-0.9301,9.4547e-13,-0.99008,0,0,0.14286,-0,-0,0.66667
0.094178,0.89047,0.65924,0.58571,37.794,271.03,-1.0297,0.34322,-0.7819,-1.3729,-1.5782e-08,-0.39095,0,0,0.14286,-0,-0,0.66667
0.81456,0.35541,5.7019,-0.21688,-4.6522,16.713,3.2977,-1.0992,-1.8331,4.397,-6.9657e-10,-0.91656,0,0,0.14286,-0,-0,0.66667
0.51047,0.15369,3.5733,-0.51947,-24.937,96.996,4.9499,-1.65,-1.0403,6.5998,4.996e-13,-0.52015,0,0,0.14286,-8.4588e-16,0,0.66667
0.44197,0.071251,3.0938,-0.64312,-33.71,122.02,5.3058,-1.7686,-0.52856,7.0745,1.382e-12,-0.26428,0,0,0.14286,-0,-0,0.66667
0.13489,0.0659,0.94424,-0.65115,-41.674,252.33,1.6396,-0.54653,-0.49188,2.1861,-3.8574e-08,-0.24594,0,0,0.14286,-3.3835e-16,0,0.66667
0.63488,0.46804,4.4441,-0.047942,-1.8419,57.175,0.56816,-0.18939,-1.9918,0.75754,6.0874e-13,-0.99588,0,0,0.14286,-1.3957e-15,0,0.66667
0.35231,0.22836,2.4662,-0.40745,-23.149,157.04,2.6796,-0.8932,-1.4081,3.5728,7.4474e-13,-0.70405,0,0,0.14286,-6.7671e-16,0,0.66667
0.68271,0.11074,4.779,-0.5839,-20.233,45.043,7.4411,-2.4804,-0.78649,9.9215,2.6721e-12,-0.39325,0,0,0.14286,5.4493e-16,0,0.66667
0.76246,0.28724,5.3372,-0.31915,-8.577,26.36,4.5423,-1.5141,-1.638,6.0563,-3.9877e-11,-0.81901,0,0,0.14286,-0,-0,0.66667
0.0067478,0.4084,0.047235,-0.1374,-8.8991,311.65,0.017307,-0.0057689,-1.9323,0.023076,1.5232e-07,-0.96616,0,0,0.14286,-2.1147e-17,0,0.66667
0.25906,0.70363,1.8134,0.30544,18.468,196.49,-1.477,0.49235,-1.6665,-1.9694,-6.5614e-14,-0.83324,0,0,0.14286,-0,-0,0.66667
0.67791,0.25964,4.7454,-0.36053,-12.568,45.818,4.5623,-1.5208,-1.5364,6.0831,5.7701e-12,-0.76819,0,0,0.14286,-0,-0,0.66667
0.3361,0.91638,2.3527,0.62456,36.084,163.96,-3.9184,1.3061,-0.61137,-5.2246,1.3824e-12,-0.30568,0,0,0.14286,-0,-0,0.66667
0.75013,0.95869,5.2509,0.68803,19.594,29.759,-9.6341,3.2114,-0.31902,-12.845,-3.662e-12,-0.15951,0,0,0.14286,-0,-0,0.66667
0.55698,0.90543,3.8988,0.60815,27.285,81.539,-6.3229,2.1076,-0.68497,-8.4305,-1.5543e-14,-0.34249,0,0,0.14286,8.4588e-17,0,0.66667
0.85824,0.25463,6.0077,-0.36806,-6.1714,10.524,5.8965,-1.9655,-1.5202,7.862,-4.1058e-09,-0.7601,0,0,0.14286,-0,-0,0.66667
0.57058,0.99432,3.9941,0.74148,32.662,77.495,-7.8974,2.6325,-0.043975,-10.53,6.8878e-13,-0.021987,0,0,0.14286,-3.3835e-16,0,0.66667
0.8894,0.98808,6.2258,0.73211,9.9752,7.968,-12.155,4.0516,-0.095283,-16.206,3.8292e-08,-0.047641,0,0,0.14286,1.3534e-15,0,0.66667
0.22748,0.53957,1.5924,0.05935,3.6424,210.31,-0.25201,0.084005,-1.986,-0.33602,-1.6462e-11,-0.993,0,0,0.14286,6.7671e-16,0,0.66667
0.79398,0.89735,5.5579,0.59602,14.264,20.999,-8.8336,2.9445,-0.73691,-11.778,8.1402e-11,-0.36846,0,0,0.14286,-0,-8.652e-17,0.66667
0.033947,0.88993,0.23763,0.58489,38.035,298.99,-0.37063,0.12354,-0.78346,-0.49417,-1.038e-08,-0.39173,0,0,0.14286,-0,-0,0.66667
0.077267,0.75948,0.54087,0.38922,25.111,278.81,-0.56138,0.18713,-1.4629,-0.74851,-2.8561e-08,-0.73144,0,0,0.14286,-0,-0,0.66667
0.3959,0.79709,2.7713,0.44563,24.383,139.52,-3.2933,1.0978,-1.2924,-4.391,2.1179e-12,-0.64622,0,0,0.14286,-6.7671e-16,0,0.66667
0.18577,0.71553,1.3004,0.3233,20.24,229.04,-1.1211,0.3737,-1.63,-1.4948,-7.2319e-10,-0.81498,0,0,0.14286,5.4998e-17,0,0.66667
0.94419,0.54458,6.6094,0.066873,0.43533,1.9643,-1.1786,0.39288,-1.9823,-1.5715,1.4914e-07,-0.99116,0,0,0.14286,-0,-0,0.66667
0.77968,0.66242,5.4578,0.24363,6.1138,22.897,-3.5458,1.1819,-1.7902,-4.7277,1.3817e-10,-0.89512,0,0,0.14286,-0,-0,0.66667
0.74367,0.74282,5.2057,0.36423,10.474,30.331,-5.0561,1.6854,-1.5271,-6.7415,-1.5827e-12,-0.76353,0,0,0.14286,-6.7671e-16,0,0.66667
0.492,0.27352,3.444,-0.33972,-16.665,103.25,3.1199,-1.04,-1.5882,4.1599,-1.1702e-13,-0.7941,0,0,0.14286,3.3835e-16,0,0.66667
0.49005,0.14433,3.4303,-0.53351,-26.332,104.2,4.8803,-1.6268,-0.98647,6.5071,1.1946e-13,-0.49324,0,0,0.14286,6.7671e-16,0,0.66667
0.58111,0.91334,4.0678,0.62002,26.714,73.891,-6.7256,2.2419,-0.63331,-8.9674,1.8296e-13,-0.31665,0,0,0.14286,-0,-0,0.66667
0.59663,0.99058,4.1764,0.73588,30.947,69.413,-8.1955,2.7318,-0.074583,-10.927,1.8003e-12,-0.037291,0,0,0.14286,-2.0301e-15,0,0.66667
0.89803,0.58576,6.2862,0.12864,1.5538,5.6514,-2.1563,0.71878,-1.9397,-2.8751,1.3605e-09,-0.96984,0,0,0.14286,-0,-0,0.66667
0.12083,0.91703,0.84584,0.62555,40.161,258.76,-1.411,0.47032,-0.60782,-1.8813,-6.6984e-09,-0.30391,0,0,0.14286,3.3835e-16,0,0.66667
0.50961,0.017617,3.5673,-0.72357,-34.967,97.694,6.8832,-2.2944,-0.1368,9.1776,-6.1728e-14,-0.068398,0,0,0.14286,-0,-0,0.66667
0.99552,0.23744,6.9687,-0.39384,-0.063529,0.53399,7.3187,-2.4396,-1.4474,9.7583,-3.5754e-07,-0.7237,0,0,0.14286,-0,2.7327e-17,0.66667
0.48143,0.36443,3.37,-0.20336,-10.097,106.93,1.8275,-0.60916,-1.8528,2.4367,2.1061e-13,-0.9264,0,0,0.14286,-0,-0,0.66667
0.83781,0.050104,5.8647,-0.67484,-13.067,14.175,10.554,-3.518,-0.37916,14.072,1.7196e-09,-0.18958,0,0,0.14286,-0,-0,0.66667
0.60366,0.62256,4.2256,0.18384,7.5333,66.344,-2.0715,0.69051,-1.8794,-2.762,-9.0372e-13,-0.93972,0,0,0.14286,-0,-0,0.66667
0.66437,0.83198,4.6506,0.49796,18.011,49.593,-6.1756,2.0585,-1.1165,-8.2341,-2.5837e-12,-0.55827,0,0,0.14286,-0,-0,0.66667
0.27246,0.90328,1.9072,0.60492,36.464,190.89,-3.0766,1.0255,-0.69822,-4.1021,4.2113e-12,-0.34911,0,0,0.14286,-5.0753e-16,0,0.66667
0.83093,0.65853,5.8165,0.23779,4.6843,14.158,-3.6883,1.2294,-1.7999,-4.9177,1.2019e-09,-0.89997,0,0,0.14286,-2.7068e-15,0,0.66667
0.24447,0.96022,1.7113,0.69033,42.345,203.17,-3.1502,1.0501,-0.30437,-4.2003,-4.5981e-12,-0.15218,0,0,0.14286,-3.3835e-16,0,0.66667
0.67336,0.97752,4.7135,0.71628,25.542,47.795,-9.0032,3.0011,-0.17685,-12.004,-4.1389e-13,-0.088423,0,0,0.14286,-0,-0,0.66667
0.08813,0.96777,0.61691,0.70165,45.434,273.87,-1.1543,0.38476,-0.24948,-1.539,8.6053e-07,-0.12474,0,0,0.14286,7.4015e-17,0,0.66667
0.018852,0.0022623,0.13196,-0.74661,-48.757,306.03,0.26266,-0.087573,-0.018781,0.35021,-2.6305e-05,-0.0093907,0,0,0.14286,-8.4588e-17,0,0.66667
0.47235,0.33858,3.3064,-0.24213,-12.163,110.25,2.1349,-0.71164,-1.7916,2.8466,5.3291e-13,-0.89579,0,0,0.14286,3.3835e-16,0,0.66667
0.939,0.26801,6.573,-0.34798,-2.5299,2.6261,6.0993,-2.0331,-1.5702,8.1324,3.411e-09,-0.78511,0,0,0.14286,1.3534e-15,0,0.66667
0.32557,0.055699,2.279,-0.66645,-38.844,168.39,4.0503,-1.3501,-0.42123,5.4004,1.0218e-12,-0.21062,0,0,0.14286,5.0753e-16,0,0.66667
0.32215,0.1398,2.2551,-0.5403,-31.484,169.67,3.2491,-1.083,-0.96039,4.3321,-2.689e-13,-0.48019,0,0,0.14286,-6.7671e-16,0,0.66667
0.052031,0.84613,0.36422,0.5192,33.671,290.56,-0.50427,0.16809,-1.0413,-0.67235,-3.1595e-08,-0.52067,0,0,0.14286,-1.6918e-16,0,0.66667
0.67529,0.72947,4.727,0.34421,12.075,46.471,-4.3388,1.4463,-1.5783,-5.7851,-5.2323e-12,-0.78914,0,0,0.14286,-0,-0,0.66667
0.72174,0.55175,5.0522,0.077621,2.3848,34.899,-1.0458,0.34858,-1.9784,-1.3943,-2.9884e-12,-0.98918,0,0,0.14286,6.7671e-16,0,0.66667
0.90372,0.87191,6.326,0.55787,6.5352,5.9334,-9.4109,3.137,-0.89446,-12.548,2.0593e-08,-0.44723,0,0,0.14286,2.0301e-15,0,0.66667
0.43715,0.36262,3.06,-0.20608,-10.78,123.34,1.6816,-0.56054,-1.8508,2.2421,4.7407e-14,-0.92541,0,0,0.14286,-0,-0,0.66667
0.10952,0.29585,0.76662,-0.30623,-19.618,263.87,0.62603,-0.20868,-1.6685,0.8347,1.0711e-08,-0.83426,0,0,0.14286,-1.6918e-16,0,0.66667
0.037607,0.80895,0.26325,0.46343,30.067,297.27,-0.32533,0.10844,-1.2356,-0.43377,9.9449e-08,-0.61782,0,0,0.14286,1.0574e-17,0,0.66667
0.88077,0.71417,6.1654,0.32125,4.5536,7.7082,-5.2818,1.7606,-1.6323,-7.0423,8.3898e-09,-0.81614,0,0,0.14286,1.8317e-16,0,0.66667
0.65226,0.3708,4.5658,-0.1938,-7.1695,52.418,2.3597,-0.78655,-1.8664,3.1462,2.4705e-12,-0.93321,0,0,0.14286,3.3835e-16,0,0.66667
0.9155,0.93726,6.4085,0.65589,6.8462,5.237,-11.209,3.7362,-0.47032,-14.945,3.0182e-07,-0.23516,0,0,0.14286,1.5437e-15,0,0.66667
0.8806,0.63529,6.1642,0.20293,2.8674,7.5576,-3.3357,1.1119,-1.8522,-4.4476,3.9649e-09,-0.9261,0,0,0.14286,-0,-0,0.66667
0.47024,0.13954,3.2917,-0.54068,-27.362,111.36,4.746,-1.582,-0.96129,6.328,8.9484e-13,-0.48065,0,0,0.14286,-0,-0,0.66667
0.67034,0.30475,4.6924,-0.29287,-10.391,47.687,3.6647,-1.2216,-1.6961,4.8862,4.9658e-12,-0.84807,0,0,0.14286,-0,-0,0.66667
0.74507,0.65826,5.2155,0.23739,6.7752,29.856,-3.3016,1.1005,-1.7996,-4.4021,6.4306e-12,-0.89979,0,0,0.14286,-0,-0,0.66667
0.42221,0.73487,2.9555,0.35231,18.754,129.16,-2.7767,0.92555,-1.5604,-3.7022,2.8444e-13,-0.78021,0,0,0.14286,6.7671e-16,0,0.66667
0.15392,0.28192,1.0774,-0.32712,-20.711,243.49,0.93987,-0.31329,-1.6212,1.2532,2.6802e-09,-0.81058,0,0,0.14286,-0,-0,0.66667
0.28408,0.90538,1.9886,0.60806,36.399,185.89,-3.2245,1.0748,-0.68661,-4.2993,4.8275e-12,-0.3433,0,0,0.14286,1.2688e-16,0,0.66667
0.54848,0.071755,3.8393,-0.64237,-29.243,84.386,6.5767,-2.1922,-0.53375,8.769,1.5277e-13,-0.26688,0,0,0.14286,-0,-0,0.66667
0.25574,0.98992,1.7902,0.73488,44.855,198.29,-3.5081,1.1694,-0.07845,-4.6775,6.529e-12,-0.039225,0,0,0.14286,-3.3835e-16,0,0.66667
0.89173,0.19672,6.2421,-0.45493,-5.9196,6.8149,7.5726,-2.5242,-1.2655,10.097,-1.1417e-08,-0.63274,0,0,0.14286,-0,-0,0.66667
0.58075,0.82853,4.0653,0.4928,21.174,73.748,-5.3423,1.7808,-1.1364,-7.123,-8.2601e-14,-0.5682,0,0,0.14286,6.7671e-16,0,0.66667
0.71867,0.91353,5.0307,0.62029,19.48,36.451,-8.3214,2.7738,-0.63446,-11.095,-3.805e-12,-0.31723,0,0,0.14286,-0,-0,0.66667
0.86203,0.93594,6.0342,0.6539,10.884,10.82,-10.522,3.5074,-0.48091,-14.029,-4.0625e-08,-0.24045,0,0,0.14286,-1.8609e-15,0,0.66667
0.89656,0.84404,6.2759,0.51605,6.4556,6.493,-8.6366,2.8789,-1.0531,-11.515,3.6816e-08,-0.52654,0,0,0.14286,2.7068e-15,0,0.66667
0.95761,0.90462,6.7033,0.60693,3.1683,2.328,-10.849,3.6163,-0.69048,-14.465,2.0219e-06,-0.34524,0,0,0.14286,-1.6918e-16,0,0.66667
0.62751,0.83674,4.3926,0.50511,19.845,59.768,-5.9166,1.9722,-1.0933,-7.8887,-3.7925e-13,-0.54666,0,0,0.14286,-6.7671e-16,0,0.66667
0.99898,0.18864,6.9929,-0.46704,0.10462,0.68852,8.7092,-2.9031,-1.227,11.612,-7.9466e-07,-0.61351,0,0,0.14286,-0,-0,0.66667
0.79051,0.61114,5.5336,0.16672,3.9932,20.815,-2.4601,0.82003,-1.8994,-3.2801,2.0007e-10,-0.94972,0,0,0.14286,1.3534e-15,0,0.66667
0.27082,0.39733,1.8958,-0.15401,-9.2378,191.31,0.77857,-0.25952,-1.9145,1.0381,5.5927e-13,-0.95726,0,0,0.14286,-3.3835e-16,0,0.66667
0.99055,0.66225,6.9339,0.24337,0.17205,0.31692,-4.5,1.5,-1.7883,-6,7.8941e-08,-0.89417,0,0,0.14286,-0,-0,0.66667
0.80151,0.29131,5.6105,-0.31303,-7.1623,19.039,4.6833,-1.5611,-1.6506,6.2445,-4.1934e-10,-0.82529,0,0,0.14286,-0,-0,0.66667
0.25311,0.42333,1.7718,-0.115,-6.9665,199.02,0.54335,-0.18112,-1.9525,0.72447,1.027e-11,-0.97627,0,0,0.14286,3.3835e-16,0,0.66667
0.031897,0.73674,0.22328,0.35511,23.016,299.92,-0.21144,0.070479,-1.5531,-0.28192,1.4139e-07,-0.77657,0,0,0.14286,4.2294e-17,0,0.66667
0.95281,0.73377,6.6697,0.35066,1.9514,1.8349,-6.2367,2.0789,-1.5646,-8.3156,-5.9328e-08,-0.78229,0,0,0.14286,1.3534e-15,0,0.66667
0.55683,0.15503,3.8978,-0.51746,-23.167,81.41,5.3786,-1.7929,-1.0478,7.1714,2.4869e-14,-0.5239,0,0,0.14286,7.5914e-16,0,0.66667
0.55271,0.82495,3.869,0.48743,21.953,82.7,-5.0289,1.6763,-1.1537,-6.7052,-1.8208e-13,-0.57684,0,0,0.14286,-0,-0,0.66667
0.047378,0.51354,0.33164,0.02031,1.3121,292.68,-0.017962,0.0059869,-2.0002,-0.023949,-5.0211e-07,-1.0001,0,0,0.14286,-1.6918e-16,0,0.66667
0.63904,0.34107,4.4733,-0.2384,-9.0899,56.11,2.8438,-0.94793,-1.7997,3.7917,1.1071e-12,-0.89986,0,0,0.14286,6.7671e-16,0,0.66667
0.5001,0.19252,3.5007,-0.46123,-22.43,100.53,4.3057,-1.4352,-1.2464,5.7409,1.43e-13,-0.6232,0,0,0.14286,-0,-0,0.66667
0.80429,0.95777,5.6301,0.68665,15.776,19.494,-10.309,3.4363,-0.32186,-13.745,-3.9194e-10,-0.16093,0,0,0.14286,6.7671e-16,0,0.66667
0.06955,0.88797,0.48685,0.58195,37.702,282.43,-0.75553,0.25184,-0.79403,-1.0074,-1.4048e-07,-0.39702,0,0,0.14286,-0,-0,0.66667
0.56293,0.6373,3.9405,0.20595,9.0804,79.045,-2.1641,0.72138,-1.8509,-2.8855,-4.0057e-13,-0.92546,0,0,0.14286,-0,-0,0.66667
0.40868,0.27336,2.8608,-0.33996,-18.343,134.4,2.5934,-0.86447,-1.5895,3.4579,1.2257e-13,-0.79475,0,0,0.14286,6.7671e-16,0,0.66667
0.55177,0.25238,3.8624,-0.37143,-16.715,82.837,3.8256,-1.2752,-1.5094,5.1008,-8.6064e-13,-0.75469,0,0,0.14286,1.3534e-15,0,0.66667
0.35846,0.49466,2.5092,-0.0080068,-0.45122,154.34,0.053576,-0.017859,-2.0017,0.071435,2.1967e-12,-1.0009,0,0,0.14286,-1.0151e-15,0,0.66667
0.99938,0.97886,6.9956,0.7183,0.023916,1.6106,-13.4,4.4666,-0.16711,-17.866,-6.7515e-05,-0.083557,0,0,0.14286,-2.7068e-15,-4.4441e-16,0.66667
0.45032,0.75416,3.1523,0.38124,19.692,118.52,-3.2047,1.0682,-1.4839,-4.273,1.6491e-12,-0.74194,0,0,0.14286,-1.3534e-15,0,0.66667
0.34582,0.069376,2.4208,-0.64594,-37.057,159.97,4.1698,-1.3899,-0.51729,5.5597,3.1877e-12,-0.25864,0,0,0.14286,-6.7671e-16,0,0.66667
0.18973,0.48952,1.3281,-0.015713,-0.98044,227.2,0.055647,-0.018549,-1.9994,0.074196,6.5428e-12,-0.99972,0,0,0.14286,-0,-0,0.66667
0.92353,0.31245,6.4647,-0.28132,-2.5625,3.592,4.8497,-1.6166,-1.7209,6.4663,-9.7999e-09,-0.86045,0,0,0.14286,1.4327e-15,0,0.66667
0.10429,0.64551,0.73006,0.21826,13.988,266.26,-0.42492,0.14164,-1.8294,-0.56656,-8.2903e-09,-0.91469,0,0,0.14286,1.6918e-16,0,0.66667
0.44034,0.14551,3.0824,-0.53174,-27.85,122.46,4.3708,-1.4569,-0.99456,5.8277,1.6165e-13,-0.49728,0,0,0.14286,6.7671e-16,0,0.66667
0.6862,0.70325,4.8034,0.30488,10.391,43.633,-3.9052,1.3017,-1.6704,-5.2069,-5.9293e-12,-0.83519,0,0,0.14286,-1.3534e-15,0,0.66667
0.14241,0.89648,0.99684,0.59472,37.939,248.86,-1.5809,0.52697,-0.74313,-2.1079,-3.6226e-09,-0.37156,0,0,0.14286,-0,-0,0.66667
0.9315,0.088475,6.5205,-0.61729,-5.22,3.8807,10.733,-3.5778,-0.64424,14.311,-1.2314e-07,-0.32212,0,0,0.14286,-2.0301e-15,0,0.66667
0.058875,0.82102,0.41212,0.48153,31.186,287.37,-0.52921,0.1764,-1.1752,-0.70561,-4.3372e-08,-0.58758,0,0,0.14286,-1.6918e-16,0,0.66667
0.2181,0.50082,1.5267,0.0012249,0.075503,214.48,-0.0049867,0.0016622,-2.003,-0.0066489,6.8344e-11,-1.0015,0,0,0.14286,-0,-0,0.66667
0.077195,0.8302,0.54037,0.49529,32.003,278.86,-0.71371,0.2379,-1.129,-0.95161,-5.8081e-08,-0.5645,0,0,0.14286,-6.8292e-18,0,0.66667
0.41151,0.27601,2.8806,-0.33598,-18.077,133.29,2.5809,-0.86029,-1.5979,3.4411,1.684e-12,-0.79896,0,0,0.14286,-6.7671e-16,0,0.66667
0.59726,0.83998,4.1808,0.50996,21.273,68.698,-5.6855,1.8952,-1.0756,-7.5807,1.0361e-12,-0.53781,0,0,0.14286,-1.0151e-15,0,0.66667
0.73114,0.79938,5.118,0.44908,13.488,33.22,-6.129,2.043,-1.2825,-8.172,-6.7764e-12,-0.64123,0,0,0.14286,-8.6585e-16,0,0.66667
0.87843,0.5875,6.149,0.13125,1.8839,7.7374,-2.1521,0.71737,-1.9387,-2.8695,7.1753e-09,-0.96936,0,0,0.14286,1.3534e-15,0,0.66667
0.35325,0.77228,2.4727,0.40841,23.186,156.65,-2.6931,0.89769,-1.4055,-3.5908,2.655e-12,-0.70276,0,0,0.14286,-3.3835e-16,0,0.66667
0.70246,0.63224,4.9172,0.19836,6.457,39.508,-2.601,0.86701,-1.862,-3.4681,-6.9165e-12,-0.93102,0,0,0.14286,1.3534e-15,0,0.66667
0.048616,0.39034,0.34031,-0.16448,-10.63,292.11,0.14927,-0.049757,-1.9043,0.19903,-1.9452e-08,-0.95216,0,0,0.14286,8.4588e-17,0,0.66667
0.81926,0.70255,5.7348,0.30382,6.3786,16.067,-4.6463,1.5488,-1.67,-6.195,8.757e-10,-0.83499,0,0,0.14286,-1.3534e-15,0,0.66667
0.31828,0.8403,2.2279,0.51045,29.812,171.26,-3.0327,1.0109,-1.073,-4.0436,3.8061e-12,-0.53648,0,0,0.14286,5.0753e-16,0,0.66667
0.22164,0.81954,1.5515,0.47931,29.611,213.06,-1.9831,0.66102,-1.1833,-2.6441,-7.5909e-11,-0.59167,0,0,0.14286,-0,-0,0.66667
0.36104,0.19907,2.5273,-0.45139,-25.479,153.51,3.0421,-1.014,-1.2762,4.0561,1.9769e-12,-0.63812,0,0,0.14286,-6.7671e-16,0,0.66667
0.11407,0.92768,0.79849,0.64152,41.267,261.88,-1.366,0.45533,-0.5357,-1.8213,-2.527e-08,-0.26785,0,0,0.14286,-1.6918e-16,0,0.66667
0.29371,0.39314,2.0559,-0.16029,-9.4795,181.46,0.87877,-0.29292,-1.9082,1.1717,-2.8082e-12,-0.9541,0,0,0.14286,-0,-0,0.66667
0.008789,0.091676,0.061523,-0.61249,-39.894,310.71,0.10048,-0.033491,-0.66562,0.13398,4.808e-06,-0.33281,0,0,0.14286,1.0574e-17,0,0.66667
0.25326,0.0082937,1.7728,-0.73756,-45.082,199.37,3.4869,-1.1623,-0.065629,4.6492,5.524e-12,-0.032814,0,0,0.14286,-0,-0,0.66667
0.83771,0.76864,5.864,0.40297,7.6845,13.426,-6.3013,2.1004,-1.421,-8.4017,1.9019e-09,-0.71051,0,0,0.14286,-1.3534e-15,0,0.66667
0.80776,0.26752,5.6543,-0.34872,-7.7584,18.031,5.2581,-1.7527,-1.5664,7.0108,-5.1271e-10,-0.78318,0,0,0.14286,-1.3534e-15,0,0.66667
0.38257,0.11092,2.678,-0.58361,-32.415,144.99,4.1677,-1.3892,-0.78709,5.557,2.0255e-12,-0.39354,0,0,0.14286,6.7671e-16,0,0.66667
0.43068,0.60817,3.0148,0.16226,8.5445,125.78,-1.3045,0.43483,-1.9046,-1.7393,4.4709e-13,-0.95228,0,0,0.14286,-0,-0,0.66667
0.18259,0.62822,1.2781,0.19233,12.042,230.44,-0.65552,0.21851,-1.8682,-0.87403,-5.3286e-10,-0.9341,0,0,0.14286,-0,-0,0.66667
0.31687,0.04861,2.2181,-0.67708,-39.721,172.05,4.0049,-1.335,-0.36887,5.3399,-1.3367e-13,-0.18444,0,0,0.14286,-0,-0,0.66667
0.41737,0.18496,2.9216,-0.47255,-25.329,131.16,3.6816,-1.2272,-1.206,4.9088,7.2164e-13,-0.60302,0,0,0.14286,9.3047e-16,0,0.66667
0.066468,0.93124,0.46528,0.64686,41.978,283.88,-0.80259,0.26753,-0.51193,-1.0701,1.6567e-07,-0.25597,0,0,0.14286,-1.2688e-16,0,0.66667
0.33789,0.11261,2.3652,-0.58109,-33.495,163.16,3.6651,-1.2217,-0.79785,4.8867,2.3448e-12,-0.39892,0,0,0.14286,3.3835e-16,0,0.66667
0.49567,0.024039,3.4697,-0.71394,-35.145,102.55,6.6058,-2.2019,-0.18708,8.8077,1.9602e-12,-0.093539,0,0,0.14286,-6.7671e-16,-2.2023e-16,0.66667
0.0067213,0.86003,0.047049,0.54005,35.13,311.67,-0.067757,0.022585,-0.96119,-0.090343,-7.8662e-07,-0.48059,0,0,0.14286,1.0574e-17,0,0.66667
0.43808,0.21982,3.0665,-0.42026,-22.02,123.17,3.4367,-1.1456,-1.375,4.5822,6.9034e-13,-0.68751,0,0,0.14286,-0,-0,0.66667
0.21869,0.84929,1.5308,0.52393,32.437,214.4,-2.1388,0.71293,-1.0267,-2.8517,3.8677e-11,-0.51336,0,0,0.14286,-0,-0,0.66667
0.2134,0.64424,1.4938,0.21636,13.376,216.61,-0.86185,0.28728,-1.8321,-1.1491,-1.8024e-10,-0.91607,0,0,0.14286,3.3835e-16,0,0.66667
0.24924,0.77146,1.7447,0.40719,24.783,200.84,-1.8944,0.63148,-1.4121,-2.5259,1.4151e-12,-0.70603,0,0,0.14286,-0,-0,0.66667
0.12833,0.62819,0.89828,0.19229,12.251,255.18,-0.46062,0.15354,-1.869,-0.61416,-4.6802e-09,-0.93451,0,0,0.14286,-0,-0,0.66667
0.94481,0.17354,6.6137,-0.48969,-3.2698,2.6193,8.6364,-2.8788,-1.1455,11.515,-1.5036e-08,-0.57277,0,0,0.14286,1.3534e-15,0,0.66667
0.16907,0.18691,1.1835,-0.46964,-29.639,236.66,1.4822,-0.49407,-1.2171,1.9763,2.5287e-10,-0.60855,0,0,0.14286,3.9122e-16,0,0.66667
0.56761,0.46806,3.9733,-0.047908,-2.0937,77.471,0.5076,-0.1692,-1.992,0.67681,6.7751e-13,-0.99599,0,0,0.14286,-8.4588e-17,0,0.66667
0.17151,0.68881,1.2006,0.28322,17.818,235.48,-0.90672,0.30224,-1.718,-1.209,-1.4213e-09,-0.85898,0,0,0.14286,-0,-0,0.66667
0.26092,0.90297,1.8264,0.60446,36.679,195.9,-2.944,0.98134,-0.70069,-3.9253,2.6734e-13,-0.35035,0,0,0.14286,-5.0753e-16,0,0.66667
0.67678,0.24808,4.7374,-0.37788,-13.216,46.138,4.7738,-1.5913,-1.4923,6.3651,5.3229e-12,-0.74613,0,0,0.14286,6.7671e-16,0,0.66667
0.50327,0.022845,3.5229,-0.71573,-34.88,99.888,6.7238,-2.2413,-0.1784,8.9651,1.7026e-12,-0.089202,0,0,0.14286,-6.7671e-16,0,0.66667
0.15729,0.96524,1.101,0.69785,44.41,242.14,-2.0489,0.68297,-0.27058,-2.7319,-8.8315e-10,-0.13529,0,0,0.14286,-2.1147e-16,0,0.66667
0.082507,0.62724,0.57755,0.19085,12.28,276.35,-0.29394,0.097979,-1.8706,-0.39192,1.3255e-09,-0.93531,0,0,0.14286,-0,-0,0.66667
0.88189,0.79276,6.1733,0.43914,6.2085,7.8285,-7.2292,2.4097,-1.3126,-9.6389,9.1855e-09,-0.6563,0,0,0.14286,1.3534e-15,0,0.66667
0.24189,0.88857,1.6932,0.58285,35.717,204.2,-2.6317,0.87725,-0.79027,-3.509,-9.3991e-12,-0.39514,0,0,0.14286,-0,-0,0.66667
0.95897,0.63286,6.7128,0.19929,0.93838,1.2846,-3.5674,1.1891,-1.8576,-4.7566,-9.9905e-09,-0.92878,0,0,0.14286,-0,-0,0.66667
0.89236,0.43385,6.2465,-0.099221,-1.2635,6.203,1.6528,-0.55092,-1.9665,2.2037,-1.8753e-08,-0.98326,0,0,0.14286,-1.6918e-15,0,0.66667
0.15998,0.77837,1.1198,0.41755,26.414,240.77,-1.2469,0.41564,-1.3804,-1.6626,-1.9521e-09,-0.69021,0,0,0.14286,8.4588e-17,0,0.66667
0.50371,0.66382,3.5259,0.24572,11.853,99.026,-2.3104,0.77014,-1.785,-3.0806,-9.6256e-13,-0.89249,0,0,0.14286,1.3534e-15,0,0.66667
0.11892,0.74561,0.83244,0.36841,23.566,259.55,-0.81781,0.2726,-1.5166,-1.0904,-9.4687e-09,-0.7583,0,0,0.14286,-2.1147e-16,0,0.66667
0.11084,0.31804,0.77587,-0.27295,-17.475,263.25,0.56472,-0.18824,-1.7366,0.75296,9.5785e-09,-0.86828,0,0,0.14286,-3.3835e-16,0,0.66667
0.6963,0.15929,4.8741,-0.51106,-17.042,41.49,6.6426,-2.2142,-1.0706,8.8567,6.4277e-12,-0.53531,0,0,0.14286,-0,-0,0.66667
0.27155,0.6912,1.9009,0.28679,17.213,191.05,-1.4537,0.48458,-1.7069,-1.9383,9.2154e-12,-0.85344,0,0,0.14286,-0,-0,0.66667
0.96639,0.47602,6.7647,-0.035968,-0.13438,0.84811,0.64883,-0.21628,-1.9959,0.8651,-1.1719e-07,-0.99797,0,0,0.14286,-0,-0,0.66667
0.83925,0.38764,5.8747,-0.16853,-3.1622,12.853,2.6402,-0.88007,-1.8979,3.5203,-1.4378e-09,-0.94894,0,0,0.14286,-0,-0,0.66667
0.09252,0.63288,0.64764,0.19931,12.802,271.71,-0.34422,0.11474,-1.8601,-0.45897,-1.4148e-09,-0.93005,0,0,0.14286,-0,-0,0.66667
0.39056,0.17051,2.7339,-0.49424,-27.202,141.7,3.6032,-1.2011,-1.1335,4.8043,2.0921e-12,-0.56675,0,0,0.14286,-6.7671e-16,5.0033e-17,0.66667
0.12422,0.48099,0.86952,-0.028517,-1.8178,257.06,0.066123,-0.022041,-1.9985,0.088164,6.8526e-10,-0.99926,0,0,0.14286,-3.3835e-16,0,0.66667
0.55539,0.68838,3.8877,0.28257,12.625,81.553,-2.9295,0.97649,-1.7158,-3.906,-7.7294e-13,-0.85788,0,0,0.14286,1.3534e-15,0,0.66667
0.16211,0.60796,1.1347,0.16194,10.212,239.72,-0.49003,0.16334,-1.9051,-0.65338,-1.2368e-09,-0.95256,0,0,0.14286,3.3835e-16,0,0.66667
0.83177,0.049378,5.8224,-0.67593,-13.535,15.068,10.495,-3.4982,-0.3748,13.993,3.8739e-09,-0.1874,0,0,0.14286,-0,-0,0.66667
0.25769,0.24392,1.8039,-0.38412,-23.264,197.12,1.8477,-0.61592,-1.4741,2.4637,-5.3813e-13,-0.73706,0,0,0.14286,-0,-0,0.66667
0.51057,0.17655,3.574,-0.48517,-23.27,96.907,4.6239,-1.5413,-1.1618,6.1653,-5.8886e-13,-0.58091,0,0,0.14286,6.7671e-16,0,0.66667
0.78245,0.19913,5.4772,-0.4513,-11.265,22.727,6.5916,-2.1972,-1.2769,8.7889,-1.2571e-10,-0.63844,0,0,0.14286,-1.3534e-15,0,0.66667
0.53834,0.56889,3.7684,0.10334,4.7359,87.068,-1.0385,0.34616,-1.9608,-1.3847,-3.7181e-13,-0.98038,0,0,0.14286,-0,-0,0.66667
0.52882,0.91703,3.7018,0.62555,29.329,90.901,-6.1751,2.0584,-0.60882,-8.2334,-9.1482e-13,-0.30441,0,0,0.14286,1.3534e-15,2.255e-16,0.66667
0.85484,0.20663,5.9839,-0.44005,-7.5725,11.125,7.0218,-2.3406,-1.3104,9.3625,-3.382e-09,-0.65519,0,0,0.14286,-1.3534e-15,0,0.66667
0.2451,0.082677,1.7157,-0.62598,-38.33,202.83,2.864,-0.95467,-0.60553,3.8187,-2.2581e-11,-0.30277,0,0,0.14286,-3.3835e-16,0,0.66667
0.1271,0.87104,0.8897,0.55656,35.629,255.85,-1.3205,0.44015,-0.89981,-1.7606,-5.6613e-09,-0.4499,0,0,0.14286,-0,-0,0.66667
0.56024,0.70531,3.9217,0.30797,13.656,80.003,-3.2207,1.0736,-1.6629,-4.2942,-4.8184e-13,-0.83147,0,0,0.14286,6.7671e-16,0,0.66667
0.12838,0.63065,0.89866,0.19598,12.487,255.16,-0.46965,0.15655,-1.8635,-0.62621,-4.8271e-09,-0.93176,0,0,0.14286,-0,-0,0.66667
0.33116,0.0071143,2.3181,-0.73933,-42.993,166.17,4.5702,-1.5234,-0.05661,6.0936,-4.5031e-13,-0.028305,0,0,0.14286,-0,-0,0.66667
0.32644,0.60926,2.2851,0.16389,9.4756,167.61,-0.99869,0.3329,-1.905,-1.3316,6.854e-12,-0.95252,0,0,0.14286,-6.7671e-16,0,0.66667
0.94804,0.79681,6.6363,0.44522,2.7758,2.313,-7.879,2.6263,-1.2938,-10.505,8.646e-09,-0.6469,0,0,0.14286,1.3534e-15,0,0.66667
0.37591,0.52619,2.6314,0.039288,2.1813,147.26,-0.27569,0.091897,-1.9965,-0.36759,2.3782e-12,-0.99825,0,0,0.14286,-6.7671e-16,0,0.66667
0.46911,0.15871,3.2838,-0.51194,-25.927,111.73,4.4829,-1.4943,-1.0711,5.9772,1.7866e-12,-0.53554,0,0,0.14286,-1.3534e-15,0,0.66667
0.94734,0.6721,6.6314,0.25815,1.5967,1.9645,-4.565,1.5217,-1.7614,-6.0867,-3.1003e-08,-0.88071,0,0,0.14286,1.3534e-15,0,0.66667
0.82838,0.15169,5.7987,-0.52246,-10.554,15.105,8.0789,-2.693,-1.0321,10.772,-1.4214e-09,-0.51607,0,0,0.14286,3.3835e-16,0,0.66667
0.672,0.43977,4.704,-0.090339,-3.1849,47.092,1.1332,-0.37774,-1.9742,1.511,3.2088e-12,-0.9871,0,0,0.14286,-2.7068e-15,0,0.66667
0.26731,0.52533,1.8712,0.038,2.2832,192.82,-0.18961,0.063205,-1.9961,-0.25282,3.1904e-12,-0.99804,0,0,0.14286,3.3835e-16,0,0.66667
0.13326,0.44762,0.93285,-0.078572,-4.9969,252.9,0.19546,-0.065153,-1.9764,0.26061,2.603e-09,-0.98819,0,0,0.14286,-0,-0,0.66667
0.33396,0.64467,2.3377,0.217,12.48,164.49,-1.3528,0.45092,-1.831,-1.8037,4.8569e-12,-0.91552,0,0,0.14286,3.3835e-16,0,0.66667
0.15982,0.52645,1.1187,0.039673,2.5027,240.75,-0.11836,0.039453,-1.9945,-0.15781,-5.7075e-10,-0.99725,0,0,0.14286,-0,-0,0.66667
0.9604,0.16475,6.7228,-0.50287,-2.3891,1.856,9.0152,-3.0051,-1.0994,12.02,-1.5169e-07,-0.54968,0,0,0.14286,-0,-0,0.66667
0.20094,0.87979,1.4066,0.56969,35.577,222.36,-2.1368,0.71227,-0.84704,-2.8491,3.9097e-10,-0.42352,0,0,0.14286,-0,-0,0.66667
0.31067,0.37074,2.1747,-0.19389,-11.339,174.25,1.1244,-0.3748,-1.8677,1.4992,-3.9685e-12,-0.93384,0,0,0.14286,-5.0753e-16,0,0.66667
0.66142,0.93218,4.6299,0.64828,23.73,50.732,-8.0039,2.668,-0.50504,-10.672,-1.4921e-13,-0.25252,0,0,0.14286,6.7671e-16,0,0.66667
0.43762,0.007813,3.0634,-0.73828,-38.983,123.84,6.031,-2.0103,-0.064407,8.0413,1.9553e-12,-0.032204,0,0,0.14286,-0,-0,0.66667
0.58983,0.1248,4.1288,-0.5628,-23.834,71.07,6.1966,-2.0655,-0.87454,8.2621,1.3722e-13,-0.43727,0,0,0.14286,5.8155e-16,0,0.66667
0.84885,0.71031,5.9419,0.31547,5.6083,11.684,-4.9986,1.6662,-1.6451,-6.6648,2.8761e-09,-0.82255,0,0,0.14286,6.7671e-16,0,0.66667
0.58815,0.055265,4.117,-0.6671,-28.426,71.823,7.324,-2.4413,-0.4166,9.7653,3.9213e-13,-0.2083,0,0,0.14286,-3.3835e-16,0,0.66667
0.49698,0.79371,3.4788,0.44056,21.506,101.6,-4.0871,1.3624,-1.3096,-5.4494,-4.1256e-13,-0.65478,0,0,0.14286,-0,-0,0.66667
0.83558,0.56519,5.849,0.097782,1.872,13.342,-1.5251,0.50838,-1.9653,-2.0335,1.5512e-09,-0.98264,0,0,0.14286,-0,-0,0.66667
0.79797,0.49385,5.5858,-0.009229,-0.21364,19.414,0.13747,-0.045823,-2.0014,0.18329,-1.4549e-10,-1.0007,0,0,0.14286,-2.0301e-15,0,0.66667
0.98116,0.36389,6.8681,-0.20417,-0.38759,0.47539,3.7394,-1.2465,-1.8514,4.9859,2.0543e-08,-0.9257,0,0,0.14286,-0,-0,0.66667
0.94861,0.49415,6.6402,-0.0087718,-0.052271,1.6972,0.15532,-0.051775,-1.9992,0.2071,1.4863e-07,-0.9996,0,0,0.14286,1.3534e-15,0,0.66667
0.91719,0.27032,6.4203,-0.34452,-3.415,4.2096,5.8985,-1.9662,-1.5769,7.8646,-1.839e-08,-0.78844,0,0,0.14286,-1.3534e-15,0,0.66667
0.49483,0.19346,3.4638,-0.45981,-22.518,102.39,4.2471,-1.4157,-1.2475,5.6629,4.0679e-13,-0.62374,0,0,0.14286,1.3534e-15,0,0.66667
0.73715,0.52341,5.1601,0.035108,1.0269,31.438,-0.48309,0.16103,-1.9958,-0.64412,-8.4796e-13,-0.9979,0,0,0.14286,-0,-0,0.66667
0.60052,0.10126,4.2037,-0.59812,-24.858,67.894,6.7047,-2.2349,-0.72665,8.9396,5.369e-13,-0.36333,0,0,0.14286,-0,-0,0.66667
0.738,0.39337,5.166,-0.15994,-4.6692,31.308,2.2034,-0.73445,-1.9083,2.9378,-4.3832e-13,-0.95417,0,0,0.14286,-0,-0,0.66667
0.37576,0.6771,2.6303,0.26566,14.77,147.4,-1.8634,0.62112,-1.7506,-2.4845,2.2656e-12,-0.87531,0,0,0.14286,-0,-0,0.66667
0.91111,0.45029,6.3777,-0.074558,-0.78447,4.404,1.268,-0.42268,-1.979,1.6907,-5.3358e-09,-0.98948,0,0,0.14286,-0,-0,0.66667
0.87231,0.5237,6.1062,0.035555,0.53468,8.4092,-0.57895,0.19298,-1.9958,-0.77193,2.4824e-09,-0.99789,0,0,0.14286,-0,-0,0.66667
0.70467,0.62868,4.9327,0.19303,6.2438,38.973,-2.539,0.84634,-1.8692,-3.3853,-5.0786e-12,-0.9346,0,0,0.14286,-2.7068e-15,0,0.66667
0.26123,0.57984,1.8286,0.11975,7.2219,195.48,-0.58395,0.19465,-1.9479,-0.7786,5.6832e-13,-0.97395,0,0,0.14286,-0,-0,0.66667
0.50107,0.11302,3.5075,-0.58047,-28.267,100.38,5.4293,-1.8098,-0.80313,7.2391,9.9343e-13,-0.40157,0,0,0.14286,6.7671e-16,0,0.66667
0.21771,0.55662,1.5239,0.084935,5.2372,214.66,-0.34516,0.11505,-1.9761,-0.46022,-3.8391e-11,-0.98805,0,0,0.14286,-0,-0,0.66667
0.10252,0.64209,0.71764,0.21314,13.665,267.08,-0.40789,0.13596,-1.8366,-0.54386,-9.3251e-09,-0.91832,0,0,0.14286,1.6918e-16,0,0.66667
0.57796,0.31422,4.0457,-0.27866,-11.984,74.324,3.0064,-1.0021,-1.7272,4.0085,-5.9219e-13,-0.86359,0,0,0.14286,1.3534e-15,0,0.66667
0.4796,0.69801,3.3572,0.29701,14.795,107.66,-2.659,0.88633,-1.6852,-3.5453,3.8636e-14,-0.84261,0,0,0.14286,-0,-0,0.66667
0.24749,0.81062,1.7324,0.46593,28.409,201.64,-2.1525,0.71751,-1.2294,-2.87,-2.5092e-11,-0.61469,0,0,0.14286,4.2294e-16,0,0.66667
0.44668,0.003778,3.1267,-0.74433,-38.921,120.45,6.2062,-2.0687,-0.029315,8.275,-3.2596e-13,-0.014658,0,0,0.14286,-0,-0,0.66667
0.13839,0.5755,0.96875,0.11325,7.1925,250.55,-0.29255,0.097518,-1.9546,-0.39007,-3.2815e-09,-0.97729,0,0,0.14286,-0,-0,0.66667
0.5228,0.10844,3.6596,-0.58733,-27.752,92.87,5.7318,-1.9106,-0.77161,7.6424,-1.2212e-13,-0.38581,0,0,0.14286,-6.7671e-16,0,0.66667
0.97037,0.025917,6.7926,-0.71112,-2.6704,2.218,12.881,-4.2937,-0.20332,17.175,1.7639e-05,-0.10166,0,0,0.14286,1.3534e-15,0,0.66667
0.82378,0.73619,5.7665,0.35428,7.2783,15.436,-5.4479,1.816,-1.5526,-7.2639,1.0999e-09,-0.77631,0,0,0.14286,3.7786e-16,0,0.66667
0.0044396,0.58786,0.031077,0.13179,8.5358,312.73,-0.010922,0.0036407,-1.9377,-0.014563,-9.7766e-08,-0.96887,0,0,0.14286,-0,-0,0.66667
0.09162,0.85325,0.64134,0.52987,34.173,272.19,-0.9062,0.30207,-1.0022,-1.2083,-8.8225e-09,-0.5011,0,0,0.14286,-0,1.5624e-17,0.66667
0.025576,0.10481,0.17903,-0.59279,-38.574,302.89,0.283,-0.094337,-0.74914,0.37734,-3.4268e-06,-0.37457,0,0,0.14286,-0,-0,0.66667
0.30843,0.74443,2.159,0.36665,21.513,175.29,-2.1109,0.70363,-1.5218,-2.8145,7.5664e-12,-0.76088,0,0,0.14286,-0,-0,0.66667
0.98064,0.89841,6.8645,0.59762,1.3697,1.4519,-10.94,3.6465,-0.72976,-14.586,-2.3111e-06,-0.36488,0,0,0.14286,6.7671e-16,0,0.66667
0.4604,0.41938,3.2228,-0.12092,-6.157,114.58,1.0392,-0.34642,-1.9462,1.3857,3.0365e-13,-0.97309,0,0,0.14286,-6.7671e-16,0,0.66667
0.40975,0.4452,2.8682,-0.082201,-4.4215,133.85,0.62872,-0.20957,-1.9757,0.8383,1.4564e-12,-0.98787,0,0,0.14286,-0,-0,0.66667
0.40822,0.057261,2.8575,-0.66411,-36.074,135,5.0606,-1.6869,-0.43294,6.7474,-1.7453e-13,-0.21647,0,0,0.14286,6.7671e-16,0,0.66667
0.82481,0.81368,5.7737,0.47052,9.6608,15.521,-7.2444,2.4148,-1.2137,-9.6592,7.6606e-10,-0.60686,0,0,0.14286,2.7068e-15,0,0.66667
0.58171,0.29952,4.0719,-0.30072,-12.852,73.174,3.2654,-1.0885,-1.6778,4.3539,3.4861e-13,-0.83889,0,0,0.14286,-6.7671e-16,0,0.66667
0.11935,0.27295,0.83546,-0.34058,-21.776,259.34,0.75878,-0.25293,-1.5864,1.0117,8.79e-09,-0.79318,0,0,0.14286,-0,-0,0.66667
0.44473,0.41263,3.1131,-0.13106,-6.7949,120.44,1.088,-0.36268,-1.9376,1.4507,-3.1608e-13,-0.96882,0,0,0.14286,-0,-0,0.66667
0.1464,0.00071456,1.0248,-0.74893,-47.88,247.13,2.0467,-0.68224,-0.0056398,2.729,3.0849e-09,-0.0028199,0,0,0.14286,-0,-0,0.66667
0.66607,0.41235,4.6625,-0.13148,-4.7046,48.667,1.6347,-0.5449,-1.9375,2.1796,3.1182e-12,-0.96877,0,0,0.14286,-0,-0,0.66667
0.12237,0.035943,0.85659,-0.69609,-44.74,258.09,1.59,-0.53001,-0.2779,2.12,-4.1853e-08,-0.13895,0,0,0.14286,-0,-0,0.66667
0.086689,0.37305,0.60682,-0.19043,-12.244,274.41,0.30815,-0.10272,-1.8705,0.41086,-5.8022e-09,-0.93526,0,0,0.14286,-8.4588e-17,0,0.66667
0.70336,0.16039,4.9235,-0.50941,-16.657,39.773,6.6883,-2.2294,-1.0801,8.9177,4.7349e-12,-0.54005,0,0,0.14286,-0,-0,0.66667
0.41126,0.58077,2.8788,0.12116,6.5079,133.27,-0.93009,0.31003,-1.9465,-1.2401,5.2919e-13,-0.97324,0,0,0.14286,-0,-0,0.66667
0.99611,0.19017,6.9728,-0.46474,-0.068706,0.71484,8.6414,-2.8805,-1.2323,11.522,-5.9792e-07,-0.61617,0,0,0.14286,-2.7068e-15,0,0.66667
0.53405,0.89124,3.7383,0.58686,27.274,89.063,-5.8504,1.9501,-0.77518,-7.8005,3.415e-13,-0.38759,0,0,0.14286,-6.7671e-16,0,0.66667
0.77901,0.87135,5.4531,0.55703,14.162,23.632,-8.1001,2.7,-0.89792,-10.8,8.4413e-11,-0.44896,0,0,0.14286,3.3835e-16,-1.3199e-16,0.66667
0.86863,0.22467,6.0804,-0.413,-6.4559,9.3109,6.6965,-2.2322,-1.3924,8.9287,-6.4589e-09,-0.69622,0,0,0.14286,-0,-0,0.66667
0.79875,0.9449,5.5912,0.66735,15.702,20.383,-9.9501,3.3167,-0.41741,-13.267,-3.3811e-10,-0.2087,0,0,0.14286,-0,-0,0.66667
0.21409,0.55583,1.4986,0.083748,5.1725,216.27,-0.33468,0.11156,-1.9744,-0.44624,-4.6763e-11,-0.98719,0,0,0.14286,-3.3835e-16,0,0.66667
0.68037,0.69326,4.7626,0.28989,10.028,45.093,-3.6816,1.2272,-1.7,-4.9088,-5.6506e-12,-0.85001,0,0,0.14286,-0,-0,0.66667
0.0046244,0.54912,0.032371,0.073681,4.7711,312.64,-0.0063601,0.0021187,-1.9795,-0.0084808,-1.9624e-06,-0.98975,0,0,0.14286,5.2868e-18,0,0.66667
0.7958,0.13228,5.5706,-0.55158,-13.067,20.55,8.1937,-2.7312,-0.9198,10.925,5.738e-11,-0.4599,0,0,0.14286,-0,-0,0.66667
0.21583,0.018666,1.5108,-0.722,-44.943,215.84,2.9089,-0.96962,-0.14627,3.8785,1.544e-10,-0.073134,0,0,0.14286,-6.7671e-16,1.6277e-16,0.66667
0.98672,0.63188,6.9071,0.19783,0.23355,0.33204,-3.6437,1.2146,-1.8614,-4.8583,5.8408e-08,-0.93072,0,0,0.14286,-0,-0,0.66667
0.94415,0.26021,6.609,-0.35968,-2.3902,2.334,6.3391,-2.113,-1.5384,8.4521,1.5601e-08,-0.7692,0,0,0.14286,-2.7068e-15,0,0.66667
0.58512,0.95673,4.0958,0.6851,29.37,72.802,-7.4828,2.4943,-0.32939,-9.977,4.8184e-13,-0.1647,0,0,0.14286,-1.3696e-15,0,0.66667
0.16047,0.66185,1.1233,0.24278,15.326,240.49,-0.72723,0.24241,-1.7901,-0.96963,-1.891e-09,-0.89504,0,0,0.14286,-3.3835e-16,0,0.66667
0.7034,0.3659,4.9238,-0.20115,-6.5307,39.284,2.6411,-0.88038,-1.8582,3.5215,6.4766e-12,-0.92912,0,0,0.14286,-0,-0,0.66667
0.41745,0.89585,2.9222,0.59377,31.904,131.3,-4.627,1.5423,-0.74547,-6.1693,6.0929e-13,-0.37274,0,0,0.14286,-0,-0,0.66667
0.46677,0.78309,3.2674,0.42463,21.53,112.47,-3.6998,1.2333,-1.3605,-4.9331,-6.7835e-13,-0.68027,0,0,0.14286,1.3534e-15,0,0.66667
0.30497,0.45951,2.1348,-0.060728,-3.5634,176.64,0.34571,-0.11524,-1.9853,0.46095,3.6313e-13,-0.99264,0,0,0.14286,3.3835e-16,0,0.66667
0.86917,0.59235,6.0842,0.13853,2.1353,8.8364,-2.2476,0.7492,-1.9315,-2.9968,1.7065e-09,-0.96577,0,0,0.14286,-1.6918e-15,0,0.66667
0.46942,0.84225,3.2859,0.51337,25.99,111.62,-4.4984,1.4995,-1.0658,-5.9979,-2.9887e-13,-0.53288,0,0,0.14286,7.613e-16,0,0.66667
0.80616,0.94861,5.6431,0.67291,15.315,19.132,-10.126,3.3754,-0.38841,-13.501,-2.4201e-10,-0.1942,0,0,0.14286,-0,-0,0.66667
0.8068,0.5848,5.6476,0.1272,2.8289,17.928,-1.9157,0.63856,-1.9412,-2.5542,3.2722e-10,-0.97059,0,0,0.14286,6.7671e-16,0,0.66667
0.55703,0.23813,3.8992,-0.39281,-17.534,81.15,4.0843,-1.3614,-1.4499,5.4458,-1.6076e-13,-0.72497,0,0,0.14286,-0,-0,0.66667
0.38613,0.75043,2.7029,0.37564,20.719,143.33,-2.7075,0.90251,-1.4987,-3.61,1.9471e-12,-0.74936,0,0,0.14286,-1.3534e-15,0,0.66667
0.68707,0.25157,4.8095,-0.37265,-12.69,43.514,4.7793,-1.5931,-1.5093,6.3724,7.2191e-12,-0.75465,0,0,0.14286,-2.7068e-15,0,0.66667
0.6809,0.43568,4.7663,-0.096483,-3.3257,44.798,1.2263,-0.40877,-1.9664,1.6351,2.1496e-12,-0.98322,0,0,0.14286,1.9617e-15,0,0.66667
0.18194,0.85222,1.2736,0.52834,33.22,230.87,-1.7944,0.59812,-1.0063,-2.3925,-2.3348e-10,-0.50315,0,0,0.14286,-3.3835e-16,0,0.66667
0.76415,0.2725,5.3491,-0.34125,-9.1185,26.055,4.8677,-1.6226,-1.587,6.4902,-4.5452e-11,-0.7935,0,0,0.14286,-0,-0,0.66667
0.16518,0.19291,1.1562,-0.46064,-29.106,238.42,1.4203,-0.47342,-1.2445,1.8937,6.3375e-10,-0.62224,0,0,0.14286,3.3835e-16,0,0.66667
0.32411,0.22206,2.2688,-0.41691,-24.209,168.73,2.5223,-0.84077,-1.3821,3.3631,-2.4039e-12,-0.69105,0,0,0.14286,-1.3534e-15,0,0.66667
0.87021,0.71548,6.0915,0.32322,4.9723,8.9405,-5.2503,1.7501,-1.6283,-7.0005,6.3124e-09,-0.81416,0,0,0.14286,3.3835e-16,0,0.66667
0.57167,0.5681,4.0017,0.10215,4.4342,76.192,-1.09,0.36334,-1.9618,-1.4534,-3.3451e-13,-0.98091,0,0,0.14286,-0,-0,0.66667
0.2566,0.0028742,1.7962,-0.74569,-45.506,197.93,3.5717,-1.1906,-0.022263,4.7623,-9.835e-12,-0.011132,0,0,0.14286,-0,-0,0.66667
0.92392,0.57012,6.4675,0.10518,0.94562,3.3659,-1.814,0.60467,-1.9614,-2.4187,4.805e-08,-0.98069,0,0,0.14286,-0,-0,0.66667
0.66058,0.12216,4.624,-0.56676,-20.729,50.753,6.9886,-2.3295,-0.85795,9.3181,1.35e-12,-0.42897,0,0,0.14286,-0,-0,0.66667
0.55451,0.9045,3.8816,0.60674,27.33,82.338,-6.2803,2.0934,-0.69051,-8.3738,3.0864e-13,-0.34526,0,0,0.14286,-2.5377e-16,0,0.66667
0.99332,0.17595,6.9532,-0.48607,-0.25836,0.81674,9.0127,-3.0042,-1.1583,12.017,-6.183e-07,-0.57913,0,0,0.14286,1.3534e-15,0,0.66667
0.84555,0.95639,5.9189,0.68458,12.682,13.112,-10.805,3.6017,-0.33423,-14.407,5.9943e-09,-0.16711,0,0,0.14286,-0,-0,0.66667
0.67719,0.3039,4.7403,-0.29415,-10.26,45.912,3.7184,-1.2395,-1.6912,4.9578,5.6104e-12,-0.8456,0,0,0.14286,-6.7671e-16,0,0.66667
0.081731,0.85741,0.57211,0.53612,34.639,276.77,-0.81792,0.27264,-0.97734,-1.0906,-3.7282e-08,-0.48867,0,0,0.14286,-0,-0,0.66667
0.36445,0.54278,2.5511,0.064174,3.5986,151.9,-0.43657,0.14552,-1.9841,-0.5821,3.5433e-13,-0.99203,0,0,0.14286,-0,-0,0.66667
0.50217,0.48077,3.5152,-0.028847,-1.3926,99.473,0.27041,-0.090136,-1.9973,0.36054,6.6758e-13,-0.99866,0,0,0.14286,-1.3534e-15,0,0.66667
0.61766,0.53276,4.3236,0.049133,1.9568,62.132,-0.56648,0.18883,-1.9909,-0.7553,5.0515e-15,-0.99546,0,0,0.14286,-0,-0,0.66667
0.63988,0.045828,4.4791,-0.68126,-26.215,56.686,8.1372,-2.7124,-0.35119,10.85,-1.0658e-13,-0.1756,0,0,0.14286,1.3534e-15,-1.6842e-16,0.66667
0.72511,0.27032,5.0758,-0.34452,-10.515,34.384,4.6632,-1.5544,-1.5764,6.2176,8.2352e-12,-0.78819,0,0,0.14286,-0,-0,0.66667
0.91024,0.80438,6.3717,0.45656,4.947,5.0549,-7.7575,2.5858,-1.2583,-10.343,2.6533e-08,-0.62915,0,0,0.14286,-6.7671e-16,0,0.66667
0.56828,0.63492,3.9779,0.20238,8.8427,77.327,-2.1468,0.7156,-1.853,-2.8624,-5.711e-13,-0.92649,0,0,0.14286,-0,-0,0.66667
0.98027,0.7613,6.8619,0.39194,0.83433,0.84106,-7.1719,2.3906,-1.4529,-9.5626,-1.7893e-07,-0.72646,0,0,0.14286,-0,-0,0.66667
0.1132,0.87359,0.79239,0.56038,35.998,262.25,-1.1841,0.3947,-0.88401,-1.5788,-1.0266e-08,-0.44201,0,0,0.14286,2.1147e-16,0,0.66667
0.46568,0.67703,3.2598,0.26555,13.452,112.71,-2.3084,0.76945,-1.749,-3.0778,5.6932e-13,-0.87451,0,0,0.14286,-0,-0,0.66667
0.10167,0.90383,0.71171,0.60575,39.043,267.58,-1.1496,0.38321,-0.69469,-1.5328,-8.7124e-08,-0.34735,0,0,0.14286,8.4588e-17,0,0.66667
0.74245,0.35396,5.1971,-0.21906,-6.3059,30.396,3.036,-1.012,-1.8277,4.048,-4.3066e-12,-0.91384,0,0,0.14286,-0,-0,0.66667
0.80683,0.7336,5.6478,0.35039,7.8304,18.191,-5.2772,1.7591,-1.5619,-7.0362,4.8463e-10,-0.78094,0,0,0.14286,1.3534e-15,0,0.66667
0.52316,0.14529,3.6621,-0.53207,-25.094,92.649,5.196,-1.732,-0.99168,6.928,-3.3307e-13,-0.49584,0,0,0.14286,-6.7671e-16,0,0.66667
0.43253,0.37518,3.0277,-0.18723,-9.8413,125.09,1.5116,-0.50388,-1.8757,2.0155,2.397e-13,-0.93783,0,0,0.14286,-1.3534e-15,0,0.66667
0.066995,0.60593,0.46896,0.1589,10.246,283.55,-0.19872,0.066239,-1.9091,-0.26496,2.1393e-08,-0.95456,0,0,0.14286,-0,-0,0.66667
0.56461,0.93203,3.9523,0.64805,28.746,79.167,-6.8301,2.2767,-0.50772,-9.1068,1.7319e-13,-0.25386,0,0,0.14286,-0,-0,0.66667
0.25483,0.3156,1.7838,-0.2766,-16.759,198.32,1.3157,-0.43858,-1.7277,1.7543,7.9842e-12,-0.86387,0,0,0.14286,6.7671e-16,0,0.66667
0.082332,0.29831,0.57632,-0.30254,-19.484,276.44,0.46496,-0.15499,-1.6735,0.61994,1.1928e-08,-0.83676,0,0,0.14286,1.6918e-16,0,0.66667
0.73371,0.39424,5.136,-0.15864,-4.6967,32.249,2.1728,-0.72426,-1.912,2.897,1.0418e-12,-0.95602,0,0,0.14286,-0,-0,0.66667
0.74344,0.52461,5.2041,0.036919,1.0574,30.075,-0.51234,0.17078,-1.9939,-0.68313,6.7846e-13,-0.99696,0,0,0.14286,-0,-0,0.66667
0.37108,0.52504,2.5976,0.037562,2.0943,149.21,-0.26018,0.086728,-1.9947,-0.34691,5.5739e-13,-0.99735,0,0,0.14286,-0,-0,0.66667
0.18447,0.35779,1.2913,-0.21331,-13.347,229.59,0.73453,-0.24484,-1.8378,0.97937,6.8899e-10,-0.91892,0,0,0.14286,-0,-0,0.66667
0.51289,0.28806,3.5902,-0.3179,-15.154,95.887,3.0436,-1.0145,-1.641,4.0581,8.4355e-13,-0.8205,0,0,0.14286,-1.3534e-15,0,0.66667
0.093456,0.74398,0.65419,0.36597,23.538,271.3,-0.63844,0.21281,-1.5262,-0.85125,-1.8415e-08,-0.76312,0,0,0.14286,1.3993e-16,0,0.66667
0.77844,0.91715,5.4491,0.62572,15.997,23.937,-9.0923,3.0308,-0.6078,-12.123,-2.6501e-11,-0.3039,0,0,0.14286,-0,-0,0.66667
0.47595,0.27968,3.3317,-0.33048,-16.545,109.01,2.9362,-0.97872,-1.6112,3.9149,6.557e-13,-0.80559,0,0,0.14286,-2.5377e-16,0,0.66667
0.96096,0.35202,6.7267,-0.22197,-0.992,1.2223,3.9817,-1.3272,-1.8233,5.309,4.6523e-08,-0.91165,0,0,0.14286,-0,-0,0.66667
0.10902,0.097227,0.76314,-0.60416,-38.879,264.19,1.2295,-0.40983,-0.70496,1.6393,5.159e-08,-0.35248,0,0,0.14286,-3.3835e-16,-6.6916e-17,0.66667
0.69796,0.66861,4.8857,0.25292,8.3435,40.655,-3.2951,1.0984,-1.7712,-4.3935,-7.1472e-12,-0.8856,0,0,0.14286,-0,-0,0.66667
0.80356,0.17973,5.6249,-0.4804,-10.955,19.017,7.206,-2.402,-1.178,9.608,-2.0917e-10,-0.58902,0,0,0.14286,-0,-0,0.66667
0.72687,0.99026,5.0881,0.73538,22.644,34.942,-9.9779,3.326,-0.075547,-13.304,3.1051e-12,-0.037774,0,0,0.14286,8.6079e-16,0,0.66667
0.46145,0.58701,3.2302,0.13051,6.6374,114.19,-1.1242,0.37474,-1.9381,-1.499,2.9177e-13,-0.96905,0,0,0.14286,-4.0347e-16,0,0.66667
0.54611,0.65954,3.8228,0.23931,10.847,84.561,-2.4395,0.81317,-1.7988,-3.2527,-8.8352e-13,-0.8994,0,0,0.14286,-0,-0,0.66667
0.61519,0.61921,4.3063,0.17882,7.1631,62.912,-2.0535,0.6845,-1.8853,-2.738,-3.0553e-13,-0.94267,0,0,0.14286,3.3835e-16,0,0.66667
0.059105,0.57011,0.41374,0.10517,6.787,287.22,-0.11604,0.038679,-1.9605,-0.15471,1.2806e-07,-0.98025,0,0,0.14286,-0,-0,0.66667
0.99567,0.70411,6.9697,0.30616,0.023887,0.34184,-5.6903,1.8968,-1.6656,-7.5871,1.7059e-07,-0.83281,0,0,0.14286,-0,-0,0.66667
0.25491,0.65454,1.7844,0.23182,14.039,198.27,-1.103,0.36768,-1.8089,-1.4707,-3.084e-12,-0.90447,0,0,0.14286,-3.8065e-16,0,0.66667
0.64341,0.60733,4.5039,0.16099,6.0743,54.829,-1.9336,0.64452,-1.9076,-2.5781,-1.0928e-12,-0.95381,0,0,0.14286,-0,-0,0.66667
0.12643,0.1123,0.88503,-0.58154,-37.252,256.17,1.3725,-0.4575,-0.79836,1.83,4.9514e-09,-0.39918,0,0,0.14286,1.6918e-16,0,0.66667
0.16786,0.05337,1.175,-0.66994,-42.457,237.33,2.0992,-0.69975,-0.40352,2.799,-4.5199e-09,-0.20176,0,0,0.14286,-1.6918e-16,0,0.66667
0.4911,0.17172,3.4377,-0.49242,-24.249,103.76,4.5142,-1.5047,-1.136,6.0189,4.7429e-13,-0.56802,0,0,0.14286,-0,-0,0.66667
0.2885,0.73032,2.0195,0.34548,20.534,183.77,-1.8605,0.62017,-1.5739,-2.4807,1.1452e-11,-0.78693,0,0,0.14286,-0,-0,0.66667
0.50424,0.043184,3.5297,-0.68522,-33.319,99.48,6.4497,-2.1499,-0.32959,8.5995,1.3198e-12,-0.16479,0,0,0.14286,-0,-0,0.66667
0.10218,0.47686,0.71527,-0.034713,-2.224,267.22,0.06621,-0.02207,-1.9942,0.08828,-3.7487e-09,-0.99712,0,0,0.14286,-0,-0,0.66667
0.41929,0.31207,2.9351,-0.28189,-15.038,130.23,2.2063,-0.73544,-1.719,2.9417,-7.383e-13,-0.85949,0,0,0.14286,2.3262e-16,0,0.66667
0.2686,0.46217,1.8802,-0.056748,-3.4071,192.26,0.28453,-0.094842,-1.9888,0.37937,2.4387e-12,-0.99438,0,0,0.14286,-0,-0,0.66667
0.5819,0.95133,4.0733,0.677,29.18,73.779,-7.3536,2.4512,-0.36959,-9.8049,2.1849e-13,-0.1848,0,0,0.14286,-0,-0,0.66667
0.17171,0.71153,1.2019,0.31729,19.966,235.4,-1.017,0.33899,-1.6445,-1.356,-1.3526e-09,-0.82223,0,0,0.14286,-1.6918e-16,0,0.66667
0.96232,0.3213,6.7363,-0.26806,-1.1585,1.2299,4.8152,-1.6051,-1.7431,6.4202,6.7949e-08,-0.87154,0,0,0.14286,-0,-0,0.66667
0.54421,0.36037,3.8095,-0.20944,-9.5182,85.167,2.1276,-0.70921,-1.8439,2.8368,-4.7962e-14,-0.92194,0,0,0.14286,-0,-0,0.66667
0.70195,0.51346,4.9137,0.020196,0.65753,39.546,-0.26463,0.088209,-1.9996,-0.35284,-6.0982e-13,-0.99978,0,0,0.14286,-0,-0,0.66667
0.93237,0.113,6.5266,-0.5805,-4.8209,3.693,10.103,-3.3677,-0.80051,13.471,-1.3099e-07,-0.40026,0,0,0.14286,1.3534e-15,0,0.66667
0.34537,0.84351,2.4176,0.51526,29.49,160,-3.3218,1.1073,-1.0583,-4.4291,2.8764e-12,-0.52914,0,0,0.14286,1.0574e-16,0,0.66667
0.51572,0.419,3.61,-0.12149,-5.7575,94.77,1.1696,-0.38987,-1.9496,1.5595,-2.891e-13,-0.97478,0,0,0.14286,-0,-0,0.66667
0.78659,0.039177,5.5061,-0.69124,-17.158,22.632,10.149,-3.3831,-0.30005,13.533,-1.5881e-10,-0.15002,0,0,0.14286,-0,-0,0.66667
0.06941,0.32548,0.48587,-0.26179,-16.887,282.44,0.33919,-0.11306,-1.7545,0.45225,-3.0188e-09,-0.87727,0,0,0.14286,-1.6918e-16,0,0.66667
0.75322,0.42424,5.2725,-0.11364,-3.1475,28.038,1.5978,-0.5326,-1.9536,2.1304,-1.2544e-11,-0.9768,0,0,0.14286,-0,-0,0.66667
0.11748,0.95419,0.82236,0.68128,43.827,260.33,-1.494,0.49801,-0.34782,-1.992,-6.9345e-09,-0.17391,0,0,0.14286,-0,-0,0.66667
0.38913,0.64055,2.7239,0.21082,11.575,142.02,-1.5313,0.51045,-1.8427,-2.0418,1.3378e-12,-0.92134,0,0,0.14286,-0,-0,0.66667
0.69699,0.57905,4.879,0.11858,3.9161,40.784,-1.5428,0.51426,-1.9483,-2.057,-3.3815e-12,-0.97415,0,0,0.14286,-1.3534e-15,0,0.66667
0.059872,0.71595,0.4191,0.32393,20.934,286.88,-0.36202,0.12067,-1.6279,-0.4827,1.2921e-08,-0.81397,0,0,0.14286,1.0574e-16,0,0.66667
0.66498,0.064142,4.6549,-0.65379,-23.734,49.804,8.1155,-2.7052,-0.47975,10.821,6.3505e-13,-0.23987,0,0,0.14286,-0,-0,0.66667
0.97191,0.60156,6.8034,0.15234,0.46601,0.70602,-2.7638,0.92127,-1.9174,-3.6851,9.3855e-08,-0.95871,0,0,0.14286,-0,-0,0.66667
0.24942,0.25854,1.7459,-0.36219,-22.029,200.73,1.6863,-0.5621,-1.5355,2.2484,1.4376e-11,-0.76773,0,0,0.14286,6.7671e-16,0,0.66667
0.25914,0.33311,1.814,-0.25034,-15.127,196.43,1.2109,-0.40365,-1.7756,1.6146,2.6825e-12,-0.88778,0,0,0.14286,-0,-0,0.66667
0.087231,0.61674,0.61062,0.1751,11.256,274.16,-0.28512,0.095041,-1.8896,-0.38016,-2.6478e-09,-0.94479,0,0,0.14286,-0,-0,0.66667
0.093025,0.68387,0.65117,0.27581,17.725,271.48,-0.47893,0.15964,-1.7319,-0.63858,-1.0534e-08,-0.86596,0,0,0.14286,-0,-0,0.66667
0.31441,0.11066,2.2008,-0.584,-34.249,172.97,3.4275,-1.1425,-0.78773,4.5699,-1.4837e-12,-0.39387,0,0,0.14286,-0,-0,0.66667
0.83253,0.30777,5.8277,-0.28835,-5.6381,13.986,4.4811,-1.4937,-1.7041,5.9747,-1.6648e-09,-0.85203,0,0,0.14286,-1.3534e-15,0,0.66667
0.51242,0.21617,3.5869,-0.42575,-20.344,96.177,4.0724,-1.3575,-1.3562,5.4298,4.3476e-13,-0.67809,0,0,0.14286,-1.8665e-16,0,0.66667
0.38564,0.8473,2.6995,0.52094,28.816,143.68,-3.7501,1.25,-1.0347,-5.0001,-9.5035e-14,-0.51737,0,0,0.14286,-0,-0,0.66667
0.1825,0.9761,1.2775,0.71415,45.065,230.75,-2.4329,0.81098,-0.18572,-3.2439,-7.917e-10,-0.092861,0,0,0.14286,-0,-0,0.66667
0.97602,0.47668,6.8321,-0.03498,-0.087947,0.50246,0.63731,-0.21244,-1.9942,0.84974,2.2253e-07,-0.99709,0,0,0.14286,-0,-0,0.66667
0.74144,0.91258,5.1901,0.61886,18.09,31.387,-8.5652,2.8551,-0.63699,-11.42,3.3902e-12,-0.3185,0,0,0.14286,-0,-0,0.66667
0.34016,0.79368,2.3811,0.44052,25.282,162.07,-2.7972,0.93239,-1.3094,-3.7295,4.0199e-12,-0.65468,0,0,0.14286,-0,-0,0.66667
0.92233,0.0018629,6.4563,-0.74721,-7.2852,5.0594,12.865,-4.2882,-0.017834,17.153,4.2289e-07,-0.0089172,0,0,0.14286,-0,-0,0.66667
0.58633,0.84497,4.1043,0.51746,22.027,72.059,-5.6635,1.8878,-1.0475,-7.5513,-3.2019e-13,-0.52376,0,0,0.14286,1.3534e-15,0,0.66667
0.2652,0.4424,1.8564,-0.086401,-5.1981,193.74,0.42772,-0.14257,-1.9759,0.57029,5.2373e-12,-0.98796,0,0,0.14286,-0,-0,0.66667
0.48157,0.46284,3.371,-0.055736,-2.7646,106.82,0.50103,-0.16701,-1.9894,0.66803,-1.722e-13,-0.99468,0,0,0.14286,-3.3835e-16,0,0.66667
0.43439,0.6225,3.0407,0.18375,9.6392,124.38,-1.49,0.49666,-1.8807,-1.9866,4.1989e-13,-0.94035,0,0,0.14286,1.6918e-16,0,0.66667
0.3025,0.62677,2.1175,0.19016,11.183,177.72,-1.0738,0.35793,-1.8712,-1.4317,8.9211e-12,-0.93559,0,0,0.14286,6.7671e-16,0,0.66667
0.65676,0.83246,4.5973,0.49869,18.365,51.627,-6.1137,2.0379,-1.1175,-8.1517,-1.4819e-12,-0.55874,0,0,0.14286,-6.7671e-16,0,0.66667
0.79219,0.17371,5.5454,-0.48944,-11.745,21.032,7.2377,-2.4126,-1.147,9.6502,-1.0221e-10,-0.57351,0,0,0.14286,-0,-0,0.66667
0.35326,0.69306,2.4728,0.2896,16.415,156.56,-1.9097,0.63656,-1.7008,-2.5462,3.6876e-12,-0.8504,0,0,0.14286,-0,-0,0.66667
0.43787,0.45644,3.0651,-0.065336,-3.4123,123.01,0.53403,-0.17801,-1.9866,0.71204,2.2593e-14,-0.99331,0,0,0.14286,6.7671e-16,0,0.66667
0.96304,0.018192,6.7413,-0.72271,-3.396,2.5486,12.992,-4.3307,-0.14133,17.323,-4.3461e-06,-0.070667,0,0,0.14286,4.259e-16,0,0.66667
0.25951,0.47543,1.8166,-0.036859,-2.2245,196.21,0.17855,-0.059518,-1.994,0.23807,1.6533e-12,-0.99701,0,0,0.14286,-0,-0,0.66667
0.71926,0.8446,5.0348,0.5169,16.142,36.053,-6.9399,2.3133,-1.0531,-9.2533,-1.2156e-11,-0.52657,0,0,0.14286,-2.7068e-15,0,0.66667
0.85114,0.21637,5.958,-0.42545,-7.4913,11.587,6.7595,-2.2532,-1.3558,9.0127,-2.3663e-09,-0.67788,0,0,0.14286,-1.609e-15,0,0.66667
0.74183,0.96338,5.1928,0.69508,20.364,31.533,-9.6251,3.2084,-0.28105,-12.833,-2.8946e-12,-0.14052,0,0,0.14286,1.3534e-15,0,0.66667
0.21655,0.87343,1.5159,0.56015,34.736,215.38,-2.2643,0.75477,-0.88592,-3.0191,-3.2783e-10,-0.44296,0,0,0.14286,1.6918e-16,0,0.66667
0.43531,0.60887,3.0472,0.1633,8.5565,124.02,-1.3269,0.44231,-1.9054,-1.7692,6.0485e-13,-0.95268,0,0,0.14286,-0,-0,0.66667
0.60876,0.65497,4.2613,0.23245,9.4362,64.856,-2.6415,0.88049,-1.8108,-3.522,-1.027e-12,-0.9054,0,0,0.14286,6.7671e-16,0,0.66667
0.59156,0.56195,4.1409,0.09293,3.8934,69.974,-1.0262,0.34206,-1.971,-1.3682,6.0041e-13,-0.98552,0,0,0.14286,-1.3534e-15,0,0.66667
0.95189,0.15731,6.6632,-0.51403,-2.9949,2.3014,9.1336,-3.0445,-1.0629,12.178,-1.0284e-07,-0.53146,0,0,0.14286,-0,-0,0.66667
0.3584,0.072437,2.5088,-0.64134,-36.418,154.82,4.2907,-1.4302,-0.53891,5.721,3.0331e-12,-0.26945,0,0,0.14286,-0,-1.4676e-16,0.66667
0.53179,0.92257,3.7226,0.63385,29.595,89.916,-6.2921,2.0974,-0.57305,-8.3895,1.8918e-13,-0.28652,0,0,0.14286,-6.7671e-16,0,0.66667
0.39838,0.20662,2.7886,-0.44007,-24.02,138.54,3.2725,-1.0908,-1.3096,4.3634,1.4793e-12,-0.6548,0,0,0.14286,-1.1485e-15,0,0.66667
0.61473,0.051728,4.3031,-0.67241,-27.253,63.851,7.7158,-2.5719,-0.39108,10.288,-7.5584e-13,-0.19554,0,0,0.14286,6.7671e-16,0,0.66667
0.46485,0.25474,3.2539,-0.36788,-18.679,113.11,3.1922,-1.0641,-1.5187,4.2562,6.0529e-13,-0.75936,0,0,0.14286,-0,-0,0.66667
0.95549,0.54183,6.6884,0.062752,0.32052,1.3458,-1.1192,0.37308,-1.9862,-1.4923,-4.1911e-07,-0.99311,0,0,0.14286,2.7068e-15,0,0.66667
0.70849,0.44988,4.9594,-0.07518,-2.4029,37.991,0.99426,-0.33142,-1.9785,1.3257,3.0115e-12,-0.98924,0,0,0.14286,-0,-0,0.66667
0.49885,0.94631,3.4919,0.66946,32.774,101.34,-6.2339,2.078,-0.40782,-8.3119,2.3093e-13,-0.20391,0,0,0.14286,-0,-0,0.66667
0.49291,0.27747,3.4504,-0.33379,-16.353,102.92,3.0712,-1.0237,-1.603,4.0949,-1.2834e-13,-0.80148,0,0,0.14286,-6.7671e-16,0,0.66667
0.2485,0.39876,1.7395,-0.15187,-9.2242,201.05,0.70444,-0.23481,-1.9192,0.93926,2.0846e-11,-0.95958,0,0,0.14286,1.6918e-16,0,0.66667
0.21539,0.16364,1.5077,-0.50455,-31.273,215.86,2.0286,-0.67618,-1.0947,2.7047,-4.8617e-11,-0.54737,0,0,0.14286,-0,-0,0.66667
0.38386,0.34359,2.687,-0.23461,-12.946,144.14,1.6811,-0.56037,-1.8041,2.2415,7.3075e-13,-0.90207,0,0,0.14286,8.406e-16,0,0.66667
0.26942,0.35289,1.8859,-0.22066,-13.252,191.94,1.1097,-0.36991,-1.8263,1.4796,-1.2097e-12,-0.91316,0,0,0.14286,-0,-0,0.66667
0.29831,0.33635,2.0881,-0.24547,-14.482,179.52,1.3669,-0.45562,-1.787,1.8225,-5.3769e-12,-0.8935,0,0,0.14286,-5.0753e-16,0,0.66667
0.21497,0.020409,1.5048,-0.71939,-44.794,216.22,2.8868,-0.96227,-0.15927,3.8491,1.6006e-10,-0.079634,0,0,0.14286,-0,-0,0.66667
0.43072,0.15501,3.015,-0.51749,-27.379,126.09,4.1606,-1.3869,-1.0475,5.5475,3.3968e-12,-0.52374,0,0,0.14286,-2.9606e-16,0,0.66667
0.23735,0.75909,1.6614,0.38863,23.795,206.05,-1.7218,0.57395,-1.4629,-2.2958,-2.7682e-11,-0.73146,0,0,0.14286,-0,-0,0.66667
0.42905,0.17085,3.0033,-0.49372,-26.155,126.7,3.9541,-1.318,-1.1314,5.2722,1.9409e-12,-0.56572,0,0,0.14286,6.7671e-16,0,0.66667
0.73823,0.60584,5.1676,0.15875,4.631,31.258,-2.1877,0.72923,-1.9096,-2.9169,5.4823e-13,-0.9548,0,0,0.14286,-1.3534e-15,0,0.66667
0.19031,0.11985,1.3322,-0.57023,-35.765,227.13,2.0257,-0.67524,-0.84438,2.701,3.8083e-10,-0.42219,0,0,0.14286,1.6918e-16,0,0.66667
0.98048,0.16187,6.8634,-0.50719,-1.1205,1.1514,9.2828,-3.0943,-1.0852,12.377,7.612e-07,-0.54258,0,0,0.14286,-2.7068e-15,0,0.66667
0.25094,0.1722,1.7566,-0.4917,-29.938,200.15,2.3032,-0.76774,-1.1416,3.071,3.3049e-12,-0.57078,0,0,0.14286,-0,-0,0.66667
0.091928,0.4598,0.64349,-0.060295,-3.871,271.97,0.10347,-0.034488,-1.9878,0.13795,3.4568e-08,-0.99392,0,0,0.14286,8.4588e-17,0,0.66667
0.6622,0.95684,4.6354,0.68526,25.072,50.626,-8.4706,2.8235,-0.32879,-11.294,-6.2172e-15,-0.16439,0,0,0.14286,6.7671e-16,0,0.66667
0.12414,0.13506,0.86895,-0.54741,-35.064,257.21,1.2685,-0.42282,-0.93602,1.6913,9.6386e-09,-0.46801,0,0,0.14286,-0,1.6525e-16,0.66667
0.45854,0.48308,3.2098,-0.025377,-1.2946,115.25,0.21722,-0.072405,-1.9962,0.28962,-2.6407e-13,-0.9981,0,0,0.14286,6.7671e-16,0,0.66667
0.55491,0.83972,3.8844,0.50959,22.881,82.02,-5.2785,1.7595,-1.0757,-7.038,-4.8495e-13,-0.53787,0,0,0.14286,3.3835e-16,0,0.66667
0.91222,0.64111,6.3855,0.21167,2.2076,4.4186,-3.6043,1.2014,-1.839,-4.8057,2.9559e-09,-0.91951,0,0,0.14286,-1.3534e-15,0,0.66667
0.84078,0.79813,5.8855,0.44719,8.3948,13.08,-7.0184,2.3395,-1.2886,-9.3579,1.6368e-09,-0.64431,0,0,0.14286,-1.3534e-15,0,0.66667
0.47647,0.52464,3.3353,0.036956,1.8448,108.67,-0.32869,0.10956,-1.9938,-0.43825,3.1991e-13,-0.99691,0,0,0.14286,-0,-0,0.66667
0.8806,0.82029,6.1642,0.48043,6.8828,8.0768,-7.8973,2.6324,-1.1782,-10.53,7.6313e-09,-0.58908,0,0,0.14286,-0,-0,0.66667
0.81353,0.16821,5.6947,-0.49769,-10.833,17.389,7.5579,-2.5193,-1.1205,10.077,-2.0893e-10,-0.56025,0,0,0.14286,-0,-0,0.66667
0.19464,0.39622,1.3625,-0.15566,-9.6979,225,0.56557,-0.18852,-1.9122,0.75409,3.1391e-10,-0.9561,0,0,0.14286,1.6918e-16,0,0.66667
0.67245,0.58822,4.7071,0.13233,4.6615,46.995,-1.6611,0.5537,-1.94,-2.2148,-2.8535e-12,-0.96999,0,0,0.14286,-0,-0,0.66667
0.71923,0.41989,5.0346,-0.12017,-3.7215,35.495,1.6133,-0.53778,-1.9503,2.1511,4.0352e-12,-0.97515,0,0,0.14286,-1.3534e-15,0,0.66667
0.65257,0.12506,4.568,-0.56241,-20.953,52.897,6.851,-2.2837,-0.87626,9.1346,2.4505e-12,-0.43813,0,0,0.14286,-2.7068e-15,0,0.66667
0.40566,0.80602,2.8396,0.45903,24.887,135.7,-3.4759,1.1586,-1.2529,-4.6345,1.1466e-12,-0.62646,0,0,0.14286,-0,-0,0.66667
0.04361,0.98809,0.30527,0.73213,47.721,294.51,-0.596,0.19866,-0.093733,-0.79467,-2.4613e-06,-0.046867,0,0,0.14286,-1.7853e-16,0,0.66667
0.37899,0.23112,2.653,-0.40332,-22.398,146.21,2.8533,-0.95111,-1.4208,3.8044,6.3305e-13,-0.71038,0,0,0.14286,-6.7671e-16,0,0.66667
0.033161,0.86161,0.23213,0.54241,35.248,299.35,-0.33576,0.11192,-0.95434,-0.44768,3.2494e-07,-0.47717,0,0,0.14286,4.2294e-17,0,0.66667
0.2442,0.48693,1.7094,-0.019599,-1.1927,202.92,0.089342,-0.029781,-1.997,0.11912,-1.2639e-12,-0.99852,0,0,0.14286,-3.3835e-16,0,0.66667
0.84278,0.47684,5.8995,-0.034735,-0.63726,12.274,0.54646,-0.18215,-1.9973,0.72861,-9.1366e-10,-0.99864,0,0,0.14286,-0,-0,0.66667
0.47471,0.64723,3.323,0.22085,11.059,109.38,-1.957,0.65233,-1.8252,-2.6093,2.4691e-13,-0.91261,0,0,0.14286,6.7671e-16,0,0.66667
0.19554,0.60545,1.3688,0.15817,9.8504,224.59,-0.57733,0.19244,-1.9093,-0.76978,-3.078e-10,-0.95463,0,0,0.14286,3.3835e-16,0,0.66667
0.93344,0.088897,6.5341,-0.61665,-5.0682,3.7456,10.745,-3.5816,-0.64779,14.326,-5.7862e-08,-0.32389,0,0,0.14286,-0,-0,0.66667
0.17584,0.69495,1.2309,0.29243,18.37,233.52,-0.95988,0.31996,-1.6955,-1.2798,-1.1088e-09,-0.84774,0,0,0.14286,-0,-0,0.66667
0.71019,0.86153,4.9713,0.54229,17.409,38.224,-7.1891,2.3964,-0.95255,-9.5855,-6.3678e-12,-0.47628,0,0,0.14286,1.3534e-15,0,0.66667
0.25216,0.30615,1.7651,-0.29077,-17.645,199.5,1.3686,-0.45621,-1.7002,1.8249,1.2125e-11,-0.85009,0,0,0.14286,-0,-0,0.66667
0.12576,0.67788,0.88029,0.26683,17.021,256.38,-0.62636,0.20879,-1.7485,-0.83514,-6.231e-09,-0.87423,0,0,0.14286,-0,-0,0.66667
0.42352,0.61043,2.9646,0.16565,8.7894,128.53,-1.3096,0.43653,-1.903,-1.7461,8.6198e-13,-0.95151,0,0,0.14286,-0,-0,0.66667
0.30687,0.21702,2.1481,-0.42447,-24.952,176,2.4315,-0.81049,-1.3592,3.242,-6.7575e-12,-0.67958,0,0,0.14286,2.5377e-16,0,0.66667
0.55624,0.17689,3.8936,-0.48466,-21.703,81.547,5.0323,-1.6774,-1.1632,6.7097,1.1537e-12,-0.58162,0,0,0.14286,-6.7671e-16,0,0.66667
0.0056956,0.16886,0.039869,-0.49671,-32.288,312.15,0.052809,-0.017602,-1.1212,0.070412,7.9197e-07,-0.56061,0,0,0.14286,-0,-0,0.66667
0.40187,0.72846,2.8131,0.34268,18.615,137.07,-2.5707,0.8569,-1.5816,-3.4276,1.2907e-12,-0.79079,0,0,0.14286,-0,-0,0.66667
0.32437,0.085679,2.2706,-0.62148,-36.218,168.83,3.7631,-1.2544,-0.62628,5.0174,1.3189e-13,-0.31314,0,0,0.14286,-3.3835e-16,0,0.66667
0.20888,0.59186,1.4621,0.13778,8.5315,218.61,-0.53723,0.17908,-1.9322,-0.7163,-1.9739e-10,-0.9661,0,0,0.14286,-3.3835e-16,0,0.66667
0.7647,0.14669,5.3529,-0.52996,-14.223,26.337,7.5649,-2.5216,-1.0028,10.086,-3.2121e-11,-0.50142,0,0,0.14286,-6.7671e-16,-2.2519e-16,0.66667
0.21573,0.59044,1.5101,0.13565,8.3738,215.55,-0.54627,0.18209,-1.9352,-0.72836,-1.6723e-10,-0.96762,0,0,0.14286,-0,-0,0.66667
0.36723,0.19459,2.5706,-0.45811,-25.726,151.01,3.1403,-1.0468,-1.2524,4.1871,1.3094e-12,-0.6262,0,0,0.14286,-0,-0,0.66667
0.061462,0.39229,0.43023,-0.16157,-10.426,286.13,0.18537,-0.061789,-1.9083,0.24716,-8.5492e-10,-0.95415,0,0,0.14286,-0,-0,0.66667
0.79907,0.030563,5.5935,-0.70416,-16.581,20.452,10.503,-3.5011,-0.23875,14.004,4.0608e-10,-0.11938,0,0,0.14286,-9.3047e-16,0,0.66667
0.85776,0.92974,6.0043,0.64461,11.03,11.333,-10.321,3.4404,-0.52362,-13.762,-6.6671e-09,-0.26181,0,0,0.14286,-0,-0,0.66667
0.979,0.76823,6.853,0.40235,0.92512,0.90151,-7.3528,2.4509,-1.423,-9.8037,-2.4114e-07,-0.71148,0,0,0.14286,-1.3534e-15,0,0.66667
0.95064,0.52667,6.6545,0.040011,0.2284,1.59,-0.71001,0.23667,-1.9951,-0.94667,-1.1859e-07,-0.99756,0,0,0.14286,-6.7671e-16,0,0.66667
0.48709,0.67411,3.4096,0.26117,12.881,104.93,-2.3746,0.79154,-1.7573,-3.1662,5.3091e-13,-0.87866,0,0,0.14286,-6.7671e-16,0,0.66667
0.29631,0.18938,2.0742,-0.46594,-27.601,180.52,2.5772,-0.85906,-1.231,3.4362,-5.8455e-12,-0.61548,0,0,0.14286,-6.7671e-16,0,0.66667
0.69417,0.60314,4.8592,0.15471,5.1508,41.5,-2.0047,0.66823,-1.9134,-2.6729,-4.5011e-12,-0.95668,0,0,0.14286,-0,-0,0.66667
0.72461,0.63265,5.0722,0.19898,6.0664,34.321,-2.6914,0.89714,-1.858,-3.5886,-6.1668e-12,-0.92901,0,0,0.14286,-0,-0,0.66667
0.86836,0.68137,6.0785,0.27205,4.2338,9.0834,-4.4097,1.4699,-1.7357,-5.8796,5.4678e-09,-0.86784,0,0,0.14286,-0,-0,0.66667
0.20632,0.21398,1.4443,-0.42903,-26.668,219.86,1.6523,-0.55078,-1.3459,2.2031,2.2274e-10,-0.67293,0,0,0.14286,-1.6918e-16,0,0.66667
0.39895,0.35357,2.7927,-0.21965,-11.949,138.13,1.6358,-0.54526,-1.8268,2.181,2.9143e-13,-0.91341,0,0,0.14286,-0,-0,0.66667
0.78884,0.11693,5.5219,-0.5746,-14.042,21.86,8.461,-2.8203,-0.82459,11.281,-1.7557e-10,-0.41229,0,0,0.14286,1.3534e-15,0,0.66667
0.22269,0.9841,1.5588,0.72615,45.062,212.8,-3.0185,1.0062,-0.12428,-4.0246,-8.6273e-12,-0.062138,0,0,0.14286,-3.3835e-16,0,0.66667
0.48218,0.71631,3.3753,0.32446,16.116,106.75,-2.9204,0.97346,-1.6271,-3.8938,-1.0993e-12,-0.81353,0,0,0.14286,1.1578e-15,0,0.66667
0.78097,0.98027,5.4668,0.7204,18.328,23.772,-10.502,3.5007,-0.15666,-14.003,9.9379e-11,-0.078331,0,0,0.14286,1.3534e-15,0,0.66667
0.60466,0.8741,4.2326,0.56114,23.113,66.572,-6.3336,2.1112,-0.88067,-8.4448,-5.4978e-13,-0.44033,0,0,0.14286,6.3687e-16,0,0.66667
0.19904,0.019905,1.3933,-0.72014,-45.153,223.33,2.6756,-0.89188,-0.15521,3.5675,-3.4874e-10,-0.077604,0,0,0.14286,-0,-0,0.66667
0.49234,0.79671,3.4464,0.44506,21.861,103.26,-4.0902,1.3634,-1.2938,-5.4537,-8.0336e-13,-0.64691,0,0,0.14286,6.7671e-16,0,0.66667
0.98027,0.33228,6.8619,-0.25158,-0.51178,0.56543,4.6034,-1.5345,-1.7741,6.1379,3.7815e-09,-0.88705,0,0,0.14286,1.3534e-15,0,0.66667
0.19192,0.006661,1.3434,-0.74001,-46.555,226.54,2.651,-0.88368,-0.05235,3.5347,-6.7834e-11,-0.026175,0,0,0.14286,-0,-0,0.66667
0.24271,0.98931,1.699,0.73397,45.11,203.99,-3.3253,1.1084,-0.08288,-4.4337,-1.8933e-11,-0.04144,0,0,0.14286,-3.3835e-16,0,0.66667
0.41545,0.075015,2.9082,-0.63748,-34.357,132.14,4.9437,-1.6479,-0.5534,6.5916,-1.1191e-13,-0.2767,0,0,0.14286,6.7671e-16,0,0.66667
0.79504,0.88159,5.5653,0.57238,13.619,20.742,-8.4946,2.8315,-0.83613,-11.326,-8.8046e-11,-0.41807,0,0,0.14286,-2.7068e-15,0,0.66667
0.85992,0.20208,6.0195,-0.44688,-7.4383,10.478,7.1732,-2.3911,-1.2915,9.5643,-3.5061e-09,-0.64576,0,0,0.14286,-0,-0,0.66667
0.76878,0.93642,5.3815,0.65463,17.4,25.883,-9.3944,3.1315,-0.47728,-12.526,7.2626e-12,-0.23864,0,0,0.14286,-5.0753e-16,0,0.66667
0.42266,0.42529,2.9586,-0.11206,-5.9497,128.85,0.88415,-0.29472,-1.9568,1.1789,3.4045e-13,-0.97838,0,0,0.14286,-0,-0,0.66667
0.26259,0.41026,1.8382,-0.1346,-8.1118,194.88,0.6598,-0.21993,-1.9361,0.87973,1.0115e-12,-0.96806,0,0,0.14286,-6.7671e-16,0,0.66667
0.59111,0.54918,4.1378,0.073766,3.0928,70.106,-0.81393,0.27131,-1.9805,-1.0852,1.9801e-13,-0.99027,0,0,0.14286,-0,-0,0.66667
0.55633,0.69535,3.8943,0.29302,13.074,81.259,-3.0429,1.0143,-1.6934,-4.0572,-5.9974e-13,-0.84671,0,0,0.14286,-0,-0,0.66667
0.32302,0.30077,2.2611,-0.29885,-17.341,169.1,1.802,-0.60066,-1.6811,2.4026,-2.7732e-12,-0.84056,0,0,0.14286,-3.8253e-16,0,0.66667
0.2448,0.59919,1.7136,0.14879,9.0548,202.67,-0.67991,0.22664,-1.9206,-0.90654,-2.3437e-11,-0.96028,0,0,0.14286,-0,-0,0.66667
0.62917,0.66007,4.4042,0.2401,9.3513,58.906,-2.8199,0.93996,-1.795,-3.7599,-6.4193e-13,-0.89748,0,0,0.14286,-0,-0,0.66667
0.36144,0.13262,2.5301,-0.55107,-31.152,153.46,3.718,-1.2393,-0.92096,4.9573,2.1774e-12,-0.46048,0,0,0.14286,6.7671e-16,0,0.66667
0.44656,0.0040602,3.1259,-0.74391,-38.903,120.49,6.2011,-2.067,-0.031489,8.2681,-1.4255e-12,-0.015744,0,0,0.14286,-0,-0,0.66667
0.42369,0.47054,2.9658,-0.044197,-2.3435,128.43,0.34955,-0.11652,-1.9948,0.46606,7.2478e-13,-0.99742,0,0,0.14286,-0,-0,0.66667
0.60498,0.78444,4.2349,0.42666,17.505,66.225,-4.8183,1.6061,-1.3527,-6.4244,2.1849e-13,-0.67634,0,0,0.14286,-0,-0,0.66667
0.067117,0.11203,0.46982,-0.58195,-37.715,283.56,0.7291,-0.24303,-0.79466,0.97213,1.3528e-07,-0.39733,0,0,0.14286,-0,-0,0.66667
0.46478,0.8614,3.2535,0.5421,27.615,113.37,-4.7032,1.5677,-0.95422,-6.271,-7.5051e-14,-0.47711,0,0,0.14286,-0,-0,0.66667
0.93632,0.049022,6.5542,-0.67647,-5.3761,3.7798,11.823,-3.9411,-0.37396,15.764,4.9317e-07,-0.18698,0,0,0.14286,-0,-0,0.66667
0.14808,0.36654,1.0366,-0.20019,-12.684,246.13,0.55337,-0.18446,-1.856,0.73783,2.164e-09,-0.92799,0,0,0.14286,1.6918e-16,0,0.66667
0.88159,0.62735,6.1711,0.19102,2.6763,7.4335,-3.1435,1.0478,-1.8697,-4.1913,2.5371e-09,-0.93485,0,0,0.14286,-2.7068e-15,0,0.66667
0.19859,0.79705,1.3901,0.44558,27.795,223.33,-1.6518,0.5506,-1.2929,-2.2024,-2.2698e-10,-0.64644,0,0,0.14286,-0,-0,0.66667
0.48283,0.46615,3.3798,-0.050771,-2.5143,106.37,0.45759,-0.15253,-1.9927,0.61012,-2.5902e-13,-0.99634,0,0,0.14286,8.4588e-16,0,0.66667
0.49097,0.46971,3.4368,-0.045434,-2.2264,103.45,0.41639,-0.1388,-1.9924,0.55518,3.991e-13,-0.99618,0,0,0.14286,-0,-0,0.66667
0.2348,0.76103,1.6436,0.39155,24.005,207.18,-1.7161,0.57205,-1.4567,-2.2882,-3.4925e-11,-0.72835,0,0,0.14286,-0,-0,0.66667
0.59658,0.98386,4.1761,0.72579,30.515,69.398,-8.0826,2.6942,-0.12675,-10.777,1.5197e-12,-0.063373,0,0,0.14286,-1.3534e-15,0,0.66667
0.83706,0.94017,5.8594,0.66025,12.825,14.234,-10.316,3.4388,-0.44939,-13.755,-3.1326e-09,-0.2247,0,0,0.14286,-0,-0,0.66667
0.24277,0.73399,1.6994,0.35099,21.42,203.64,-1.5906,0.53019,-1.5601,-2.1208,-2.3879e-11,-0.78005,0,0,0.14286,-0,-0,0.66667
0.50573,0.24703,3.5401,-0.37945,-18.286,98.449,3.5821,-1.194,-1.4876,4.7761,4.1211e-13,-0.74378,0,0,0.14286,1.6918e-16,0,0.66667
0.46839,0.64587,3.2788,0.21881,11.042,111.68,-1.9131,0.6377,-1.8317,-2.5508,-2.9199e-13,-0.91585,0,0,0.14286,6.7671e-16,0,0.66667
0.8049,0.69937,5.6343,0.29906,6.7334,18.434,-4.4933,1.4978,-1.6802,-5.991,4.9958e-10,-0.84011,0,0,0.14286,1.3534e-15,0,0.66667
0.48547,0.79099,3.3983,0.43648,21.628,105.7,-3.9554,1.3185,-1.3239,-5.2739,-5.3046e-13,-0.66195,0,0,0.14286,-0,-0,0.66667
0.047994,0.56902,0.33596,0.10353,6.6891,292.4,-0.092752,0.030917,-1.9635,-0.12367,-5.5842e-08,-0.98175,0,0,0.14286,-0,-0,0.66667
0.29891,0.054888,2.0924,-0.66767,-39.643,179.63,3.7253,-1.2418,-0.41574,4.9671,2.5884e-12,-0.20787,0,0,0.14286,-3.3835e-16,0,0.66667
0.72163,0.78061,5.0514,0.42092,13.011,35.308,-5.67,1.89,-1.3713,-7.56,-1.2157e-11,-0.68566,0,0,0.14286,-1.438e-15,0,0.66667
0.54076,0.55602,3.7853,0.084023,3.8358,86.252,-0.84814,0.28271,-1.9738,-1.1309,7.8826e-14,-0.98689,0,0,0.14286,-3.3835e-16,0,0.66667
0.71301,0.79379,4.9911,0.44069,13.986,37.34,-5.8654,1.9551,-1.3079,-7.8205,-8.9324e-12,-0.65396,0,0,0.14286,-0,-0,0.66667
0.89043,0.44086,6.233,-0.088714,-1.1496,6.3989,1.4745,-0.49151,-1.975,1.966,-1.3827e-08,-0.98748,0,0,0.14286,2.7068e-15,0,0.66667
0.036948,0.26201,0.25863,-0.35698,-23.13,297.56,0.24621,-0.08207,-1.5454,0.32828,-1.0908e-07,-0.77269,0,0,0.14286,-0,-0,0.66667
0.16157,0.6831,1.131,0.27465,17.337,239.99,-0.82837,0.27612,-1.7312,-1.1045,-1.9733e-09,-0.86559,0,0,0.14286,-0,-0,0.66667
0.20618,0.93382,1.4433,0.65073,40.613,220.07,-2.5045,0.83483,-0.49499,-3.3393,2.2998e-11,-0.2475,0,0,0.14286,8.4588e-17,0,0.66667
0.54819,0.36489,3.8373,-0.20266,-9.152,83.846,2.0738,-0.69127,-1.855,2.7651,-1.8074e-13,-0.92752,0,0,0.14286,6.7671e-16,0,0.66667
0.6875,0.13204,4.8125,-0.55194,-18.869,43.76,7.0832,-2.3611,-0.91943,9.4443,3.5212e-12,-0.45972,0,0,0.14286,-0,-0,0.66667
0.34233,0.21535,2.3963,-0.42697,-24.458,161.16,2.7284,-0.90948,-1.3536,3.6379,-7.5939e-13,-0.67681,0,0,0.14286,-0,-0,0.66667
0.8698,0.73147,6.0886,0.3472,5.3631,9.0334,-5.6372,1.8791,-1.57,-7.5163,6.083e-09,-0.785,0,0,0.14286,-0,-0,0.66667
0.8792,0.14304,6.1544,-0.53544,-7.7881,8.3873,8.7874,-2.9291,-0.97965,11.717,-6.2971e-09,-0.48982,0,0,0.14286,1.3534e-15,0,0.66667
0.19012,0.73826,1.3309,0.35738,22.344,227.09,-1.2683,0.42278,-1.5458,-1.6911,-5.6731e-10,-0.77292,0,0,0.14286,3.3835e-16,0,0.66667
0.53183,0.077815,3.7228,-0.63328,-29.566,89.904,6.2868,-2.0956,-0.5756,8.3824,1.6875e-14,-0.2878,0,0,0.14286,-0,-0,0.66667
0.98953,0.23623,6.9267,-0.39565,-0.37176,0.63564,7.3082,-2.4361,-1.442,9.7443,-1.5877e-07,-0.721,0,0,0.14286,-2.5253e-15,0,0.66667
0.057573,0.18054,0.40301,-0.4792,-31.038,287.97,0.51499,-0.17166,-1.1827,0.68665,4.0675e-08,-0.59135,0,0,0.14286,-0,-0,0.66667
0.083431,0.12343,0.58402,-0.56485,-36.504,275.99,0.87968,-0.29323,-0.86547,1.1729,4.3333e-08,-0.43274,0,0,0.14286,-7.4015e-17,0,0.66667
0.41763,0.37178,2.9234,-0.19233,-10.269,130.82,1.4994,-0.49979,-1.8685,1.9991,1.0129e-12,-0.93424,0,0,0.14286,-6.7671e-16,0,0.66667
0.85461,0.86451,5.9823,0.54677,9.4826,11.435,-8.7224,2.9075,-0.93595,-11.63,3.6279e-09,-0.46798,0,0,0.14286,1.3534e-15,0,0.66667
0.39859,0.87339,2.7901,0.56008,30.634,138.61,-4.1672,1.3891,-0.88412,-5.5563,1.612e-13,-0.44206,0,0,0.14286,1.6918e-16,0,0.66667
0.0099489,0.23513,0.069642,-0.3973,-25.788,310.16,0.073784,-0.024595,-1.4372,0.098379,1.7941e-07,-0.71858,0,0,0.14286,-1.1782e-17,0,0.66667
0.64554,0.83317,4.5188,0.49976,18.882,54.687,-6.0222,2.0074,-1.1108,-8.0296,-9.5302e-13,-0.55539,0,0,0.14286,6.7671e-16,0,0.66667
0.2938,0.61627,2.0566,0.1744,10.314,181.42,-0.95648,0.31883,-1.8918,-1.2753,7.6582e-12,-0.94588,0,0,0.14286,-3.3835e-16,0,0.66667
0.14993,0.39599,1.0495,-0.15601,-9.8763,245.28,0.43662,-0.14554,-1.9119,0.58216,2.8319e-09,-0.95596,0,0,0.14286,-0,-0,0.66667
0.10779,0.76584,0.7545,0.39876,25.583,264.69,-0.80229,0.26743,-1.4353,-1.0697,-1.4091e-08,-0.71764,0,0,0.14286,-0,-0,0.66667
0.8689,0.90366,6.0823,0.60549,9.5695,9.8081,-9.8207,3.2736,-0.69594,-13.094,1.7255e-08,-0.34797,0,0,0.14286,-1.7729e-15,0,0.66667
0.0032652,0.16902,0.022857,-0.49647,-32.273,313.28,0.03026,-0.010086,-1.1231,0.040347,9.5664e-07,-0.56156,0,0,0.14286,5.2868e-18,0,0.66667
0.51859,0.51887,3.6301,0.028305,1.3355,93.758,-0.274,0.091334,-1.9969,-0.36533,3.8208e-13,-0.99843,0,0,0.14286,-0,-0,0.66667
0.55082,0.56016,3.8557,0.090235,4.0548,82.925,-0.92779,0.30926,-1.9714,-1.2371,-2.4897e-13,-0.98568,0,0,0.14286,3.3835e-16,0,0.66667
0.11595,0.8304,0.81165,0.4956,31.781,260.95,-1.0727,0.35756,-1.1249,-1.4302,-3.6427e-09,-0.56246,0,0,0.14286,-0,-0,0.66667
0.20004,0.71909,1.4003,0.32864,20.457,222.62,-1.2272,0.40905,-1.6172,-1.6362,-3.81e-10,-0.80859,0,0,0.14286,-0,-0,0.66667
0.86222,0.77056,6.0356,0.40584,6.6355,10.091,-6.5319,2.1773,-1.4143,-8.7092,5.0641e-09,-0.70714,0,0,0.14286,-0,-0,0.66667
0.11697,0.99245,0.81881,0.73867,47.587,260.59,-1.6129,0.53762,-0.058526,-2.1505,-2.4378e-09,-0.029263,0,0,0.14286,-0,-0,0.66667
0.8247,0.20683,5.7729,-0.43975,-9.0215,15.467,6.7697,-2.2566,-1.3119,9.0263,-9.5529e-10,-0.65594,0,0,0.14286,-0,-0,0.66667
0.19309,0.65675,1.3516,0.23513,14.665,225.72,-0.84748,0.28249,-1.8035,-1.13,-4.8173e-10,-0.90173,0,0,0.14286,6.7671e-16,0,0.66667
0.99555,0.84449,6.9688,0.51673,0.14172,0.88025,-9.6027,3.2009,-1.051,-12.804,9.8502e-07,-0.52551,0,0,0.14286,-2.7068e-15,1.5586e-17,0.66667
0.47141,0.5506,3.2999,0.075894,3.8127,110.52,-0.66784,0.22261,-1.9795,-0.89046,3.5422e-13,-0.98973,0,0,0.14286,-6.7671e-16,0,0.66667
0.54727,0.051508,3.8309,-0.67274,-30.712,84.851,6.8725,-2.2908,-0.39269,9.1633,1.0836e-12,-0.19634,0,0,0.14286,-6.7671e-16,0,0.66667
0.082274,0.82521,0.57592,0.48782,31.491,276.51,-0.74919,0.24973,-1.1529,-0.99891,-2.3368e-08,-0.57646,0,0,0.14286,-0,-0,0.66667
0.051293,0.18006,0.35905,-0.47992,-31.107,290.9,0.45951,-0.15317,-1.1804,0.61268,2.1351e-08,-0.59021,0,0,0.14286,4.2294e-17,0,0.66667
0.20742,0.92561,1.452,0.63842,39.813,219.51,-2.4719,0.82397,-0.54984,-3.2959,-2.225e-11,-0.27492,0,0,0.14286,-0,-0,0.66667
0.16079,0.48158,1.1255,-0.027637,-1.7429,240.31,0.082951,-0.02765,-1.9961,0.1106,4.0177e-10,-0.99807,0,0,0.14286,-0,-0,0.66667
0.45106,0.29321,3.1574,-0.31018,-15.992,118.17,2.6117,-0.87055,-1.6583,3.4822,2.9954e-13,-0.82914,0,0,0.14286,-0,-0,0.66667
0.62995,0.83047,4.4096,0.49571,19.371,59.053,-5.829,1.943,-1.125,-7.772,-5.2847e-13,-0.56249,0,0,0.14286,-6.7671e-16,0,0.66667
0.72633,0.68441,5.0843,0.27661,8.3987,34.014,-3.7504,1.2501,-1.7272,-5.0005,-6.9604e-12,-0.86358,0,0,0.14286,3.3835e-16,0,0.66667
0.45605,0.7094,3.1923,0.3141,16.102,116.32,-2.6739,0.8913,-1.6491,-3.5652,2.9199e-13,-0.82457,0,0,0.14286,-0,-0,0.66667
0.37693,0.88298,2.6385,0.57448,32.061,147.24,-4.042,1.3473,-0.82736,-5.3894,3.5083e-13,-0.41368,0,0,0.14286,6.7671e-16,0,0.66667
0.064415,0.017369,0.4509,-0.72395,-47.073,284.85,0.87048,-0.29016,-0.13694,1.1606,-8.2413e-07,-0.068468,0,0,0.14286,-0,-0,0.66667
0.53834,0.38627,3.7684,-0.17059,-7.8209,87.1,1.7143,-0.57142,-1.8948,2.2857,8.0713e-14,-0.9474,0,0,0.14286,-0,-0,0.66667
0.45104,0.69432,3.1573,0.29148,15.025,118.17,-2.4541,0.81803,-1.6987,-3.2721,6.5348e-13,-0.84935,0,0,0.14286,-0,-0,0.66667
0.40236,0.24368,2.8165,-0.38448,-20.888,136.92,2.8877,-0.96257,-1.4741,3.8503,1.6471e-12,-0.73705,0,0,0.14286,5.766e-16,0,0.66667
0.073837,0.21207,0.51686,-0.43189,-27.895,280.41,0.59528,-0.19843,-1.3362,0.7937,4.6623e-08,-0.66812,0,0,0.14286,-0,-0,0.66667
0.19382,0.35916,1.3567,-0.21126,-13.171,225.38,0.76433,-0.25478,-1.8396,1.0191,4.9186e-10,-0.91978,0,0,0.14286,-3.3835e-16,0,0.66667
0.60843,0.69692,4.259,0.29538,12.009,65.017,-3.3548,1.1183,-1.6912,-4.4731,-2.7445e-13,-0.84561,0,0,0.14286,-0,-0,0.66667
0.91508,0.77214,6.4056,0.40821,4.1695,4.5208,-6.9728,2.3243,-1.406,-9.2971,2.0923e-08,-0.70299,0,0,0.14286,6.7671e-16,0,0.66667
0.63152,0.47343,4.4206,-0.039862,-1.5425,58.126,0.46991,-0.15664,-1.9934,0.62655,3.3742e-13,-0.9967,0,0,0.14286,-0,-0,0.66667
0.57768,0.17616,4.0437,-0.48577,-20.981,74.698,5.2381,-1.746,-1.1628,6.9842,3.082e-13,-0.58139,0,0,0.14286,6.7671e-16,-2.2292e-17,0.66667
0.34238,0.69081,2.3967,0.28622,16.365,161.03,-1.8293,0.60975,-1.7106,-2.439,6.7651e-12,-0.8553,0,0,0.14286,-1.3534e-15,0,0.66667
0.13547,0.12426,0.9483,-0.56361,-36.003,252.02,1.4253,-0.47509,-0.87068,1.9003,-8.2219e-09,-0.43534,0,0,0.14286,-5.2868e-17,0,0.66667
0.50839,0.27324,3.5587,-0.34014,-16.321,97.475,3.2279,-1.076,-1.5872,4.3038,2.1827e-13,-0.79358,0,0,0.14286,-3.3835e-16,0,0.66667
0.64626,0.39138,4.5239,-0.16293,-6.1083,54.039,1.9655,-0.65517,-1.904,2.6207,1.9124e-12,-0.95201,0,0,0.14286,-0,-0,0.66667
0.96752,0.81559,6.7726,0.47339,1.8106,1.474,-8.5495,2.8498,-1.2052,-11.399,-2.7502e-07,-0.60262,0,0,0.14286,2.7068e-15,0,0.66667
0.76195,0.85486,5.3337,0.53229,14.432,26.891,-7.5708,2.5236,-0.99195,-10.094,1.3744e-11,-0.49598,0,0,0.14286,-0,-0,0.66667
0.183,0.64412,1.281,0.21618,13.535,230.26,-0.73847,0.24616,-1.8327,-0.98462,-7.4368e-10,-0.91637,0,0,0.14286,-1.6918e-16,0,0.66667
0.23966,0.22336,1.6776,-0.41496,-25.385,205.05,1.8564,-0.61879,-1.3871,2.4752,1.8691e-11,-0.69357,0,0,0.14286,6.7671e-16,0,0.66667
0.95701,0.3396,6.699,-0.2406,-1.1967,1.432,4.2981,-1.4327,-1.7942,5.7307,6.4456e-08,-0.89711,0,0,0.14286,1.6918e-15,0,0.66667
0.758,0.23111,5.306,-0.40333,-11.044,27.406,5.7069,-1.9023,-1.4198,7.6092,-1.1356e-11,-0.70988,0,0,0.14286,-0,-0,0.66667
0.19292,0.84703,1.3504,0.52055,32.586,225.92,-1.8746,0.62486,-1.0361,-2.4995,-3.5915e-10,-0.51804,0,0,0.14286,-0,-0,0.66667
0.70195,0.38441,4.9137,-0.17338,-5.6504,39.611,2.2718,-0.75728,-1.8944,3.0291,5.2758e-12,-0.94718,0,0,0.14286,-0,-0,0.66667
0.83347,0.60193,5.8343,0.15289,2.9643,13.69,-2.3787,0.79289,-1.9158,-3.1715,7.2139e-10,-0.95789,0,0,0.14286,-0,-0,0.66667
0.43625,0.13515,3.0538,-0.54728,-28.801,124.03,4.4567,-1.4856,-0.93619,5.9422,2.2888e-12,-0.4681,0,0,0.14286,-0,-0,0.66667
0.0094767,0.45364,0.066337,-0.069545,-4.503,310.38,0.012303,-0.0041015,-1.9811,0.016403,-9.6215e-07,-0.99054,0,0,0.14286,2.1147e-17,0,0.66667
0.66811,0.47907,4.6768,-0.031388,-1.1171,48.096,0.39146,-0.13049,-1.9959,0.52194,7.7532e-13,-0.99793,0,0,0.14286,-0,-0,0.66667
0.069735,0.47072,0.48815,-0.043927,-2.8304,282.27,0.057181,-0.01906,-1.9926,0.076242,-1.0311e-07,-0.99628,0,0,0.14286,1.6918e-16,0,0.66667
0.2378,0.35642,1.6646,-0.21538,-13.16,205.78,0.95605,-0.31868,-1.8345,1.2747,4.3685e-11,-0.91724,0,0,0.14286,-0,-0,0.66667
0.097031,0.025205,0.67922,-0.71219,-46.051,269.76,1.29,-0.42998,-0.19664,1.7199,-9.2759e-08,-0.098322,0,0,0.14286,-1.6918e-16,0,0.66667
0.87047,0.11661,6.0933,-0.57508,-8.9649,9.5223,9.3444,-3.1148,-0.82327,12.459,-4.9606e-09,-0.41164,0,0,0.14286,6.7671e-16,0,0.66667
0.83404,0.4647,5.8383,-0.05295,-1.0222,13.553,0.82436,-0.27479,-1.9893,1.0992,3.4896e-10,-0.99465,0,0,0.14286,-1.1979e-15,0,0.66667
0.23516,0.93252,1.6461,0.64878,39.948,207.22,-2.8479,0.94931,-0.50552,-3.7973,-7.5515e-12,-0.25276,0,0,0.14286,-1.6918e-16,0,0.66667
0.75438,0.78506,5.2807,0.4276,11.87,28.196,-6.0213,2.0071,-1.3498,-8.0284,-2.5162e-12,-0.67488,0,0,0.14286,-0,-0,0.66667
0.50836,0.37029,3.5585,-0.19457,-9.3208,97.36,1.8463,-0.61545,-1.8644,2.4618,3.8169e-13,-0.93218,0,0,0.14286,-0,-0,0.66667
0.42116,0.14188,2.9481,-0.53718,-28.718,129.79,4.223,-1.4077,-0.97542,5.6307,1.394e-12,-0.48771,0,0,0.14286,6.7671e-16,-2.1746e-16,0.66667
0.21872,0.14525,1.531,-0.53212,-32.948,214.4,2.1725,-0.72418,-0.99544,2.8967,1.2735e-11,-0.49772,0,0,0.14286,3.3835e-16,2.2539e-16,0.66667
0.22166,0.93891,1.5516,0.65837,40.812,213.19,-2.7241,0.90803,-0.45992,-3.6321,-1.3989e-11,-0.22996,0,0,0.14286,-6.7671e-16,0,0.66667
0.090802,0.76097,0.63562,0.39146,25.198,272.54,-0.66351,0.22117,-1.455,-0.88468,-1.9226e-08,-0.72748,0,0,0.14286,-0,-0,0.66667
0.24882,0.026728,1.7417,-0.70991,-43.466,201.28,3.2972,-1.0991,-0.20994,4.3963,1.6924e-11,-0.10497,0,0,0.14286,-0,8.376e-17,0.66667
0.58965,0.62878,4.1276,0.19316,8.127,70.613,-2.1261,0.7087,-1.8673,-2.8348,-1.5543e-15,-0.93366,0,0,0.14286,-1.3534e-15,0,0.66667
0.88221,0.63154,6.1755,0.19731,2.7508,7.3705,-3.2493,1.0831,-1.8603,-4.3324,3.4929e-09,-0.93014,0,0,0.14286,-0,-0,0.66667
0.15505,0.93265,1.0853,0.64898,41.285,243.13,-1.8783,0.6261,-0.50427,-2.5044,-9.9196e-09,-0.25214,0,0,0.14286,9.1807e-17,0,0.66667
0.26188,0.66923,1.8332,0.25385,15.316,195.23,-1.2409,0.41364,-1.7701,-1.6546,3.8177e-12,-0.88506,0,0,0.14286,-0,-0,0.66667
0.63358,0.49126,4.4351,-0.01311,-0.50505,57.538,0.15505,-0.051684,-1.9979,0.20674,-2.9969e-13,-0.99893,0,0,0.14286,-6.7671e-16,0,0.66667
0.1012,0.7394,0.70837,0.35909,23.059,267.72,-0.67833,0.22611,-1.5398,-0.90444,-1.4548e-08,-0.7699,0,0,0.14286,-0,-0,0.66667
0.51534,0.57134,3.6074,0.10701,5.0732,94.894,-1.0294,0.34312,-1.9614,-1.3725,3.0143e-13,-0.98071,0,0,0.14286,-0,-0,0.66667
0.44685,0.77241,3.128,0.40861,21.198,119.85,-3.4083,1.1361,-1.4049,-4.5444,2.0539e-13,-0.70247,0,0,0.14286,3.3835e-16,0,0.66667
0.050434,0.58372,0.35304,0.12559,8.1129,291.26,-0.11823,0.039411,-1.9434,-0.15764,4.0538e-08,-0.97171,0,0,0.14286,-4.2294e-17,0,0.66667
0.76578,0.93336,5.3604,0.65005,17.471,26.46,-9.2921,3.0974,-0.50043,-12.389,1.361e-11,-0.25021,0,0,0.14286,6.7671e-16,0,0.66667
0.095195,0.17618,0.66637,-0.48573,-31.282,270.53,0.86313,-0.28771,-1.162,1.1508,2.1663e-08,-0.581,0,0,0.14286,8.4588e-17,0,0.66667
0.33837,0.15823,2.3686,-0.51265,-29.499,162.88,3.238,-1.0793,-1.0653,4.3174,-1.2137e-12,-0.53267,0,0,0.14286,-0,-0,0.66667
0.57897,0.89137,4.0528,0.58705,25.365,74.49,-6.3445,2.1148,-0.77592,-8.4593,-7.9048e-14,-0.38796,0,0,0.14286,6.7671e-16,0,0.66667
0.85085,0.17392,5.956,-0.48912,-8.6574,11.78,7.7685,-2.5895,-1.1475,10.358,-1.5772e-09,-0.57376,0,0,0.14286,-0,-0,0.66667
0.26085,0.13156,1.826,-0.55266,-33.503,195.88,2.6911,-0.89702,-0.91329,3.5881,-1.7027e-11,-0.45664,0,0,0.14286,6.7671e-16,0,0.66667
0.81028,0.34521,5.672,-0.23218,-5.0873,17.437,3.5118,-1.1706,-1.8099,4.6824,-6.2238e-10,-0.90494,0,0,0.14286,-0,-0,0.66667
0.43666,0.88637,3.0567,0.57956,30.509,123.92,-4.724,1.5747,-0.80713,-6.2987,-3.1353e-13,-0.40357,0,0,0.14286,-0,-0,0.66667
0.82762,0.9403,5.7933,0.66046,13.508,15.642,-10.203,3.4011,-0.4518,-13.604,-2.5954e-09,-0.2259,0,0,0.14286,-2.7068e-15,-5.5274e-17,0.66667
0.92159,0.2574,6.4511,-0.36391,-3.4199,3.8953,6.2603,-2.0868,-1.5314,8.3471,-2.2149e-08,-0.76571,0,0,0.14286,-0,-0,0.66667
0.4382,0.095884,3.0674,-0.60617,-31.876,123.38,4.9584,-1.6528,-0.6962,6.6112,1.9735e-12,-0.3481,0,0,0.14286,-0,-0,0.66667
0.26206,0.77643,1.8344,0.41464,25.061,195.24,-2.0283,0.6761,-1.3888,-2.7044,2.0299e-12,-0.6944,0,0,0.14286,5.0753e-16,0,0.66667
0.46144,0.92486,3.2301,0.63729,32.668,114.76,-5.4894,1.8298,-0.55411,-7.3192,-7.816e-14,-0.27706,0,0,0.14286,-6.7671e-16,0,0.66667
0.094812,0.0021036,0.66368,-0.74684,-48.352,270.8,1.3218,-0.44059,-0.019152,1.7624,2.1563e-08,-0.0095761,0,0,0.14286,6.7671e-16,0,0.66667
0.65878,0.3059,4.6114,-0.29115,-10.622,50.749,3.5803,-1.1934,-1.6991,4.7738,3.5774e-12,-0.84955,0,0,0.14286,3.3835e-16,0,0.66667
0.63235,0.068554,4.4264,-0.64717,-25.278,58.711,7.6391,-2.5464,-0.50959,10.185,4.5031e-13,-0.25479,0,0,0.14286,-0,-0,0.66667
0.4968,0.75362,3.4776,0.38042,18.555,101.59,-3.5279,1.176,-1.4859,-4.7039,-5.107e-13,-0.74297,0,0,0.14286,-0,-0,0.66667
0.47016,0.6291,3.2911,0.19365,9.75,111.02,-1.6996,0.56652,-1.8684,-2.2661,-6.4548e-13,-0.93419,0,0,0.14286,-0,-0,0.66667
0.12851,0.39432,0.89955,-0.15852,-10.097,255.09,0.38026,-0.12675,-1.9101,0.50701,3.3824e-09,-0.95503,0,0,0.14286,-1.6918e-16,0,0.66667
0.33439,0.65505,2.3407,0.23257,13.373,164.32,-1.4517,0.4839,-1.8074,-1.9356,6.1918e-12,-0.9037,0,0,0.14286,-1.0151e-15,0,0.66667
0.2686,0.044112,1.8802,-0.68383,-41.387,192.65,3.4286,-1.1429,-0.33701,4.5715,2.7121e-12,-0.16851,0,0,0.14286,6.7671e-16,0,0.66667
0.53581,0.33024,3.7507,-0.25463,-11.729,88.006,2.5468,-0.84893,-1.7683,3.3957,4.7407e-13,-0.88414,0,0,0.14286,-6.7671e-16,0,0.66667
0.41981,0.20545,2.9387,-0.44183,-23.61,130.18,3.4623,-1.1541,-1.3062,4.6165,1.7688e-12,-0.65311,0,0,0.14286,-0,-0,0.66667
0.83603,0.20952,5.8522,-0.43572,-8.4016,13.743,6.7999,-2.2666,-1.3234,9.0665,-1.4629e-09,-0.66168,0,0,0.14286,-1.3534e-15,0,0.66667
0.70121,0.67707,4.9085,0.26561,8.6852,39.88,-3.4766,1.1589,-1.7497,-4.6355,-7.4287e-12,-0.87486,0,0,0.14286,-6.7671e-16,0,0.66667
0.4959,0.20641,3.4713,-0.44038,-21.528,101.99,4.0765,-1.3588,-1.3095,5.4353,-3.5083e-14,-0.65476,0,0,0.14286,6.7671e-16,0,0.66667
0.59952,0.74057,4.1966,0.36086,14.941,67.771,-4.0384,1.3461,-1.5356,-5.3846,-4.5564e-13,-0.76782,0,0,0.14286,-0,-0,0.66667
0.39672,0.19321,2.777,-0.46018,-25.166,139.22,3.4078,-1.1359,-1.246,4.5437,4.5608e-13,-0.62302,0,0,0.14286,1.3534e-15,0,0.66667
0.21745,0.25738,1.5222,-0.36393,-22.49,214.86,1.4772,-0.4924,-1.5304,1.9696,1.5602e-10,-0.76522,0,0,0.14286,-0,-0,0.66667
0.74224,0.067516,5.1957,-0.64873,-18.938,31.303,8.9882,-2.9961,-0.50255,11.984,-2.963e-12,-0.25127,0,0,0.14286,-0,-0,0.66667
0.92264,0.03978,6.4585,-0.69033,-6.6468,4.8016,11.889,-3.9631,-0.30728,15.852,-1.0588e-06,-0.15364,0,0,0.14286,-0,-0,0.66667
0.26129,0.86916,1.829,0.55373,33.56,195.69,-2.7008,0.90025,-0.90935,-3.601,2.082e-11,-0.45467,0,0,0.14286,3.3835e-16,0,0.66667
0.63229,0.85857,4.426,0.53785,20.939,58.472,-6.3481,2.116,-0.96957,-8.4641,-1.0267e-12,-0.48479,0,0,0.14286,1.3534e-15,0,0.66667
0.70958,0.56351,4.967,0.095258,3.0353,37.739,-1.2617,0.42058,-1.9675,-1.6823,-3.4848e-12,-0.98373,0,0,0.14286,2.7068e-15,0,0.66667
0.73708,0.73766,5.1596,0.35649,10.476,31.742,-4.9048,1.6349,-1.548,-6.5398,-6.0054e-12,-0.77401,0,0,0.14286,-0,-0,0.66667
0.27022,0.14358,1.8915,-0.53463,-32.225,191.79,2.6967,-0.8989,-0.98257,3.5956,-3.4963e-12,-0.49128,0,0,0.14286,3.3835e-16,0,0.66667
0.10234,0.55983,0.71641,0.089748,5.7505,267.15,-0.17146,0.057152,-1.9707,-0.22861,-1.9078e-08,-0.98534,0,0,0.14286,-2.1147e-16,0,0.66667
0.71856,0.61273,5.0299,0.16909,5.2497,35.682,-2.268,0.75601,-1.9003,-3.024,-5.2331e-12,-0.95016,0,0,0.14286,-1.5276e-15,0,0.66667
0.44319,0.60296,3.1024,0.15443,8.0215,121.03,-1.2776,0.42587,-1.9139,-1.7035,1.6787e-13,-0.95694,0,0,0.14286,-0,-0,0.66667
0.6827,0.5378,4.7789,0.056698,1.9449,44.326,-0.72255,0.24085,-1.9878,-0.9634,-1.6103e-12,-0.99392,0,0,0.14286,-0,-0,0.66667
0.058429,0.079962,0.409,-0.63006,-40.915,287.61,0.68719,-0.22906,-0.58758,0.91625,-1.5819e-07,-0.29379,0,0,0.14286,-8.4588e-17,3.2933e-17,0.66667
0.65428,0.65854,4.58,0.23781,8.7612,51.905,-2.9045,0.96816,-1.8005,-3.8727,-2.9838e-12,-0.90025,0,0,0.14286,-0,-0,0.66667
0.28838,0.50181,2.0186,0.0027126,0.1609,183.72,-0.014602,0.0048673,-1.9994,-0.019469,2.1099e-13,-0.99972,0,0,0.14286,-0,-0,0.66667
0.87785,0.94264,6.1449,0.66396,9.8667,8.9616,-10.88,3.6266,-0.43304,-14.507,8.2969e-08,-0.21652,0,0,0.14286,2.7068e-15,0,0.66667
0.1653,0.16239,1.1571,-0.50642,-32.021,238.39,1.5626,-0.52087,-1.087,2.0835,2.1608e-09,-0.54349,0,0,0.14286,-0,-0,0.66667
0.44557,0.6772,3.119,0.2658,13.782,120.2,-2.2108,0.73692,-1.7471,-2.9477,1.7748e-12,-0.87355,0,0,0.14286,-6.7671e-16,0,0.66667
0.96915,0.79812,6.7841,0.44718,1.6065,1.3395,-8.0899,2.6966,-1.2907,-10.787,-3.1845e-07,-0.64534,0,0,0.14286,-0,-0,0.66667
0.086128,0.09899,0.6029,-0.60151,-38.882,274.76,0.96707,-0.32236,-0.71239,1.2894,-1.0821e-07,-0.35619,0,0,0.14286,-0,-0,0.66667
0.40046,0.55068,2.8032,0.076022,4.1264,137.49,-0.56829,0.18943,-1.9779,-0.75772,-1.436e-12,-0.98896,0,0,0.14286,-0,-0,0.66667
0.28546,0.22438,1.9982,-0.41343,-24.642,185.12,2.203,-0.73434,-1.3919,2.9373,-5.5675e-12,-0.69595,0,0,0.14286,-0,-0,0.66667
0.082679,0.83941,0.57875,0.50912,32.875,276.33,-0.78574,0.26191,-1.0781,-1.0477,-1.3692e-08,-0.53904,0,0,0.14286,-8.4588e-17,0,0.66667
0.70977,0.10768,4.9684,-0.58848,-18.947,38.438,7.7968,-2.5989,-0.76689,10.396,4.4773e-12,-0.38344,0,0,0.14286,1.3534e-15,0,0.66667
0.56244,0.5588,3.9371,0.088205,3.889,79.142,-0.92606,0.30869,-1.9754,-1.2347,-1.6172e-12,-0.98768,0,0,0.14286,1.0151e-15,0,0.66667
0.98804,0.26266,6.9163,-0.35601,-0.39204,0.57328,6.5661,-2.1887,-1.5486,8.7548,-9.5311e-08,-0.77432,0,0,0.14286,-0,-0,0.66667
0.22761,0.11116,1.5933,-0.58326,-35.998,210.49,2.4781,-0.82603,-0.78863,3.3041,-4.7979e-12,-0.39432,0,0,0.14286,6.881e-17,0,0.66667
0.10466,0.077583,0.73264,-0.63363,-40.838,266.21,1.2379,-0.41264,-0.57124,1.6506,-7.7773e-08,-0.28562,0,0,0.14286,-0,-0,0.66667
0.46991,0.1978,3.2893,-0.4533,-22.908,111.36,3.9762,-1.3254,-1.2706,5.3016,1.0956e-12,-0.63529,0,0,0.14286,-0,-0,0.66667
0.72526,0.37891,5.0768,-0.18163,-5.5249,34.158,2.4589,-0.81964,-1.8819,3.2786,6.5945e-12,-0.94094,0,0,0.14286,-2.7068e-15,0,0.66667
0.20312,0.70621,1.4218,0.30932,19.225,221.24,-1.1728,0.39093,-1.662,-1.5637,-3.3167e-10,-0.83098,0,0,0.14286,3.3835e-16,0,0.66667
0.19345,0.1337,1.3541,-0.54945,-34.405,225.7,1.9841,-0.66137,-0.92526,2.6455,-1.1109e-10,-0.46263,0,0,0.14286,-0,-0,0.66667
0.01645,0.13756,0.11515,-0.54366,-35.359,307.14,0.16694,-0.055646,-0.95044,0.22258,-4.1237e-07,-0.47522,0,0,0.14286,4.2294e-17,0,0.66667
0.61338,0.56042,4.2936,0.090624,3.6411,63.401,-1.0376,0.34587,-1.9711,-1.3835,-6.6813e-13,-0.98557,0,0,0.14286,8.4588e-16,0,0.66667
0.58667,0.097704,4.1067,-0.60344,-25.731,72.13,6.6084,-2.2028,-0.70436,8.8112,7.4207e-13,-0.35218,0,0,0.14286,-1.3534e-15,0,0.66667
0.46014,0.28463,3.221,-0.32305,-16.484,114.8,2.7748,-0.92494,-1.6281,3.6998,1.9451e-13,-0.81406,0,0,0.14286,-0,-0,0.66667
0.7062,0.97831,4.9434,0.71747,23.462,39.654,-9.458,3.1527,-0.16954,-12.611,-8.2867e-13,-0.084772,0,0,0.14286,-0,-0,0.66667
0.059315,0.41156,0.4152,-0.13265,-8.5612,287.13,0.14687,-0.048958,-1.9377,0.19583,2.4261e-08,-0.96884,0,0,0.14286,1.6918e-16,0,0.66667
0.66498,0.37536,4.6549,-0.18695,-6.7109,48.993,2.3206,-0.77355,-1.8755,3.0942,2.1156e-12,-0.93776,0,0,0.14286,2.7068e-15,0,0.66667
0.18851,0.4474,1.3196,-0.078903,-4.9263,227.75,0.27765,-0.09255,-1.9792,0.3702,1.8952e-10,-0.98961,0,0,0.14286,-3.3835e-16,0,0.66667
0.13418,0.26542,0.93929,-0.35187,-22.415,252.53,0.88135,-0.29378,-1.558,1.1751,5.2275e-09,-0.779,0,0,0.14286,1.6918e-16,0,0.66667
0.89487,0.59422,6.2641,0.14133,1.7598,5.9754,-2.3608,0.78694,-1.9295,-3.1477,-8.7718e-09,-0.96476,0,0,0.14286,-2.7068e-15,0,0.66667
0.68858,0.36354,4.82,-0.20469,-6.922,42.928,2.631,-0.877,-1.8522,3.508,5.5409e-12,-0.92611,0,0,0.14286,-0,-0,0.66667
0.63478,0.56155,4.4435,0.092321,3.5482,57.214,-1.0939,0.36464,-1.9696,-1.4586,5.087e-13,-0.98478,0,0,0.14286,-2.5377e-16,0,0.66667
0.062431,0.3765,0.43702,-0.18525,-11.955,285.68,0.21589,-0.071964,-1.8814,0.28785,-3.2159e-08,-0.9407,0,0,0.14286,-0,-0,0.66667
0.10037,0.94613,0.70259,0.66919,43.2,268.2,-1.2538,0.41793,-0.4063,-1.6717,4.454e-08,-0.20315,0,0,0.14286,-0,-0,0.66667
0.41814,0.0010114,2.927,-0.74848,-40.349,131.3,5.8422,-1.9474,-0.0087671,7.7896,1.8785e-13,-0.0043836,0,0,0.14286,-0,-0,0.66667
0.77618,0.4522,5.4332,-0.071707,-1.821,23.434,1.0389,-0.34631,-1.9803,1.3853,-4.3003e-11,-0.99016,0,0,0.14286,-0,-0,0.66667
0.0092608,0.82901,0.064826,0.49352,32.077,310.49,-0.085313,0.028437,-1.1323,-0.11375,-4.6298e-07,-0.56613,0,0,0.14286,-0,-0,0.66667
0.46474,0.586,3.2532,0.12901,6.535,112.98,-1.1191,0.37305,-1.9403,-1.4922,5.9397e-14,-0.97015,0,0,0.14286,-6.3173e-17,0,0.66667
0.20022,0.36077,1.4016,-0.20884,-12.985,222.5,0.78056,-0.26019,-1.8446,1.0407,3.713e-10,-0.92231,0,0,0.14286,-0,-0,0.66667
0.89358,0.11128,6.2551,-0.58308,-7.5419,6.9958,9.726,-3.242,-0.79082,12.968,-2.3253e-08,-0.39541,0,0,0.14286,1.3534e-15,0,0.66667
0.59828,0.60656,4.188,0.15984,6.616,67.951,-1.7851,0.59504,-1.908,-2.3802,-2.8333e-13,-0.95401,0,0,0.14286,-0,-0,0.66667
0.68755,0.3002,4.8129,-0.2997,-10.177,43.287,3.8465,-1.2822,-1.6827,5.1287,6.3398e-12,-0.84137,0,0,0.14286,6.7671e-16,0,0.66667
0.80757,0.22143,5.653,-0.41786,-9.3275,18.195,6.2991,-2.0997,-1.379,8.3988,-4.9058e-10,-0.6895,0,0,0.14286,2.7068e-15,0,0.66667
0.5879,0.87413,4.1153,0.56119,23.848,71.662,-6.1585,2.0528,-0.88011,-8.2114,8.7352e-13,-0.44005,0,0,0.14286,-9.7277e-16,0,0.66667
0.84743,0.9362,5.932,0.6543,11.958,12.746,-10.35,3.4501,-0.47848,-13.8,1.6888e-08,-0.23924,0,0,0.14286,4.2294e-16,0,0.66667
0.47046,0.23204,3.2932,-0.40194,-20.281,111.09,3.5298,-1.1766,-1.4262,4.7064,9.2015e-13,-0.71308,0,0,0.14286,-6.7671e-16,0,0.66667
0.17437,0.54799,1.2206,0.07199,4.5187,234.14,-0.23433,0.078109,-1.9815,-0.31244,-5.0995e-10,-0.99076,0,0,0.14286,3.3835e-16,0,0.66667
0.64155,0.75616,4.4908,0.38425,14.606,55.59,-4.6016,1.5339,-1.4769,-6.1354,-1.8061e-12,-0.73843,0,0,0.14286,-0,-0,0.66667
0.97645,0.26735,6.8351,-0.34897,-0.9019,0.85527,6.3607,-2.1202,-1.5651,8.481,1.4632e-07,-0.78256,0,0,0.14286,1.3534e-15,0,0.66667
0.35024,0.7531,2.4517,0.37965,21.596,157.86,-2.4821,0.82736,-1.4868,-3.3095,1.9038e-12,-0.74342,0,0,0.14286,1.3534e-15,0,0.66667
0.80271,0.2252,5.619,-0.41221,-9.4104,19.011,6.1765,-2.0588,-1.3948,8.2353,-4.383e-10,-0.6974,0,0,0.14286,-0,-0,0.66667
0.67727,0.43628,4.7409,-0.095581,-3.3254,45.728,1.2084,-0.40279,-1.9675,1.6112,2.1279e-12,-0.98373,0,0,0.14286,1.6918e-16,0,0.66667
0.52046,0.0078146,3.6433,-0.73828,-35.155,93.993,7.1726,-2.3909,-0.061134,9.5635,4.2855e-13,-0.030567,0,0,0.14286,-0,-0,0.66667
0.14443,0.17836,1.011,-0.48246,-30.698,247.88,1.3007,-0.43358,-1.1718,1.7343,2.4476e-09,-0.58592,0,0,0.14286,-1.6918e-16,0,0.66667
0.83883,0.18186,5.8718,-0.47721,-9.0741,13.433,7.4723,-2.4908,-1.1896,9.9631,-1.3636e-09,-0.59482,0,0,0.14286,-6.7671e-16,0,0.66667
0.42617,0.24512,2.9832,-0.38231,-20.276,127.67,3.0414,-1.0138,-1.48,4.0552,5.993e-13,-0.74001,0,0,0.14286,-3.3835e-16,0,0.66667
0.78295,0.31725,5.4806,-0.27413,-6.7923,22.322,4.0064,-1.3355,-1.7342,5.3418,-1.554e-10,-0.86709,0,0,0.14286,-0,-0,0.66667
0.59163,0.19987,4.1414,-0.45019,-18.949,70.308,4.9718,-1.6573,-1.2797,6.6291,2.8022e-13,-0.63984,0,0,0.14286,-0,-0,0.66667
0.25054,0.27554,1.7538,-0.33669,-20.459,200.23,1.5746,-0.52486,-1.5992,2.0995,1.1366e-11,-0.7996,0,0,0.14286,-1.6918e-16,0,0.66667
0.17356,0.66649,1.2149,0.24973,15.695,234.54,-0.80909,0.2697,-1.779,-1.0788,-1.187e-09,-0.8895,0,0,0.14286,-0,-0,0.66667
0.73804,0.070876,5.1663,-0.64369,-19.048,32.192,8.8679,-2.956,-0.52641,11.824,-3.8014e-12,-0.2632,0,0,0.14286,-0,-0,0.66667
0.11212,0.81803,0.78481,0.47704,30.609,262.71,-0.99837,0.33279,-1.1914,-1.3312,-9.759e-09,-0.59568,0,0,0.14286,3.3835e-16,0,0.66667
0.21762,0.74417,1.5234,0.36626,22.633,214.78,-1.4879,0.49595,-1.5247,-1.9838,-1.4985e-10,-0.76237,0,0,0.14286,3.3835e-16,0,0.66667
0.86531,0.047775,6.0571,-0.67834,-11.063,10.499,10.957,-3.6523,-0.36228,14.609,1.5865e-08,-0.18114,0,0,0.14286,1.3534e-15,0,0.66667
0.9046,0.7924,6.3322,0.4386,5.0381,5.5171,-7.4061,2.4687,-1.3168,-9.8748,1.9002e-08,-0.65838,0,0,0.14286,-0,-0,0.66667
0.093513,0.8345,0.65459,0.50175,32.333,271.31,-0.87585,0.29195,-1.107,-1.1678,-1.0263e-08,-0.5535,0,0,0.14286,-8.4588e-17,-8.3871e-17,0.66667
0.014555,0.89052,0.10189,0.58578,38.129,308.02,-0.15915,0.053051,-0.78104,-0.21221,-9.637e-07,-0.39052,0,0,0.14286,-0,-0,0.66667
0.30404,0.056843,2.1283,-0.66474,-39.332,177.45,3.7726,-1.2575,-0.42772,5.0302,3.1286e-13,-0.21386,0,0,0.14286,1.6918e-16,0,0.66667
0.12829,0.83822,0.89801,0.50733,32.439,255.29,-1.2149,0.40497,-1.085,-1.6199,-5.53e-09,-0.54251,0,0,0.14286,2.5377e-16,0,0.66667
0.25704,0.59827,1.7993,0.1474,8.9114,197.31,-0.70726,0.23575,-1.9217,-0.94301,6.4021e-13,-0.96087,0,0,0.14286,-0,-0,0.66667
0.50233,0.45725,3.5163,-0.064124,-3.0951,99.42,0.60128,-0.20043,-1.9856,0.80171,-6.1851e-13,-0.99278,0,0,0.14286,6.7671e-16,0,0.66667
0.56141,0.43258,3.9299,-0.10113,-4.4667,79.478,1.0598,-0.35326,-1.9655,1.4131,2.0306e-13,-0.98275,0,0,0.14286,-0,-0,0.66667
0.98057,0.62685,6.864,0.19027,0.37462,0.47479,-3.4827,1.1609,-1.8718,-4.6436,-2.6952e-08,-0.93588,0,0,0.14286,-0,-0,0.66667
0.42958,0.18921,3.007,-0.46619,-24.67,126.46,3.7383,-1.2461,-1.2267,4.9844,1.473e-12,-0.61336,0,0,0.14286,-0,-0,0.66667
0.67931,0.31843,4.7551,-0.27236,-9.445,45.343,3.4536,-1.1512,-1.735,4.6048,6.1831e-12,-0.86751,0,0,0.14286,-1.3534e-15,0,0.66667
0.88941,0.93667,6.2259,0.655,8.8508,7.6706,-10.875,3.6249,-0.47704,-14.5,-9.5252e-08,-0.23852,0,0,0.14286,-1.5226e-15,0,0.66667
0.15189,0.8952,1.0632,0.5928,37.706,244.53,-1.6808,0.56025,-0.74956,-2.241,5.4518e-09,-0.37478,0,0,0.14286,-0,-0,0.66667
0.09317,0.76162,0.65219,0.39243,25.25,271.44,-0.68249,0.2275,-1.4541,-0.90999,-1.9367e-08,-0.72704,0,0,0.14286,-0,-0,0.66667
0.29675,0.39727,2.0772,-0.15409,-9.0948,180.16,0.85357,-0.28452,-1.9178,1.1381,-2.7627e-12,-0.95892,0,0,0.14286,-0,-0,0.66667
0.12968,0.40991,0.90774,-0.13513,-8.6038,254.55,0.3271,-0.10903,-1.9348,0.43614,2.7937e-09,-0.96741,0,0,0.14286,-0,-0,0.66667
0.16102,0.81612,1.1272,0.47418,30.011,240.32,-1.4253,0.4751,-1.2002,-1.9004,-1.3068e-09,-0.60012,0,0,0.14286,-0,-0,0.66667
0.34358,0.97471,2.4051,0.71206,40.989,160.99,-4.5668,1.5223,-0.1998,-6.089,-1.3314e-12,-0.099902,0,0,0.14286,-0,-0,0.66667
0.31134,0.46702,2.1793,-0.049475,-2.8903,173.94,0.28753,-0.095844,-1.9936,0.38338,1.219e-13,-0.99682,0,0,0.14286,2.5377e-16,0,0.66667
0.76235,0.29486,5.3365,-0.30771,-8.2705,26.363,4.3789,-1.4596,-1.6628,5.8386,-4.0004e-11,-0.83141,0,0,0.14286,-0,-0,0.66667
0.94892,0.56358,6.6424,0.095363,0.56554,1.7065,-1.6892,0.56306,-1.9681,-2.2522,-5.3947e-08,-0.98405,0,0,0.14286,-0,-0,0.66667
0.58072,0.58003,4.065,0.12005,5.13,73.346,-1.3013,0.43378,-1.9487,-1.7351,-4.2188e-14,-0.97433,0,0,0.14286,-0,-0,0.66667
0.98347,0.50288,6.8843,0.0043156,0.0067222,0.28822,-0.079227,0.026415,-2.0023,-0.10563,8.6226e-06,-1.0011,0,0,0.14286,-0,-0,0.66667
0.95183,0.40946,6.6628,-0.1358,-0.75757,1.5765,2.4129,-0.80429,-1.9364,3.2172,5.9575e-08,-0.96819,0,0,0.14286,-0,-0,0.66667
0.25764,0.23644,1.8035,-0.39533,-23.947,197.15,1.9013,-0.63377,-1.4424,2.5351,2.91e-12,-0.72122,0,0,0.14286,-0,-0,0.66667
0.30135,0.78665,2.1095,0.42998,25.373,178.34,-2.4188,0.80625,-1.3422,-3.225,8.5478e-12,-0.67109,0,0,0.14286,-0,-0,0.66667
0.84189,0.8618,5.8933,0.5427,10.175,13.169,-8.5288,2.8429,-0.95326,-11.372,1.057e-09,-0.47663,0,0,0.14286,1.3534e-15,0,0.66667
0.58489,0.39145,4.0942,-0.16282,-6.9081,72.067,1.7777,-0.59256,-1.9039,2.3702,-2.4958e-13,-0.95196,0,0,0.14286,-0,-0,0.66667
0.17505,0.14134,1.2254,-0.53799,-33.919,233.99,1.7579,-0.58598,-0.97041,2.3439,7.1298e-10,-0.4852,0,0,0.14286,3.3835e-16,0,0.66667
0.052125,0.49578,0.36488,-0.0063334,-0.40896,290.47,0.0061624,-0.0020543,-1.9993,0.0082164,-3.1956e-07,-0.99965,0,0,0.14286,2.1147e-17,0,0.66667
0.54514,0.32836,3.816,-0.25746,-11.689,84.899,2.6198,-0.87328,-1.7648,3.4931,-1.7675e-13,-0.88242,0,0,0.14286,-0,-0,0.66667
0.14795,0.34725,1.0356,-0.22912,-14.52,246.19,0.63276,-0.21092,-1.8125,0.84368,3.1656e-09,-0.90625,0,0,0.14286,-0,-0,0.66667
0.77243,0.82979,5.407,0.49468,12.873,24.732,-7.1326,2.3775,-1.1281,-9.5102,6.6696e-11,-0.56406,0,0,0.14286,-1.3534e-15,0,0.66667
0.60364,0.78353,4.2255,0.42529,17.493,66.625,-4.7922,1.5974,-1.3565,-6.3895,3.2152e-13,-0.67826,0,0,0.14286,1.3534e-15,0,0.66667
0.2545,0.086973,1.7815,-0.61954,-37.74,198.71,2.9432,-0.98106,-0.63464,3.9242,5.0515e-13,-0.31732,0,0,0.14286,-1.6918e-16,0,0.66667
0.0097104,0.56805,0.067973,0.10207,6.6096,310.27,-0.018502,0.0061669,-1.962,-0.024669,-5.5625e-07,-0.981,0,0,0.14286,-0,-0,0.66667
0.29272,0.16565,2.049,-0.50153,-29.797,182.09,2.7404,-0.91345,-1.1049,3.6538,-1.432e-12,-0.55246,0,0,0.14286,-0,-0,0.66667
0.61384,0.18713,4.2968,-0.46931,-18.942,63.67,5.3774,-1.7925,-1.2174,7.1699,7.9492e-14,-0.60868,0,0,0.14286,5.4982e-16,0,0.66667
0.19308,0.60797,1.3516,0.16195,10.096,225.7,-0.58372,0.19457,-1.9052,-0.7783,-3.7854e-10,-0.95259,0,0,0.14286,-3.3835e-16,0,0.66667
0.29108,0.9694,2.0376,0.7041,42.055,183.01,-3.8257,1.2752,-0.23727,-5.101,-1.5881e-12,-0.11864,0,0,0.14286,-0,-0,0.66667
0.98264,0.34097,6.8785,-0.23854,-0.41123,0.48308,4.3755,-1.4585,-1.7994,5.8339,-1.8443e-08,-0.89968,0,0,0.14286,-3.3835e-16,0,0.66667
0.77969,0.5394,5.4578,0.059102,1.4797,22.76,-0.86018,0.28673,-1.9886,-1.1469,5.3612e-11,-0.99431,0,0,0.14286,-0,-0,0.66667
0.23048,0.27843,1.6133,-0.33235,-20.404,209.06,1.4298,-0.47662,-1.6075,1.9065,7.1237e-11,-0.80376,0,0,0.14286,3.3835e-16,0,0.66667
0.27348,0.64063,1.9143,0.21095,12.638,190.18,-1.0769,0.35896,-1.8399,-1.4359,7.6754e-12,-0.91994,0,0,0.14286,-0,-0,0.66667
0.68583,0.59511,4.8008,0.14266,4.8562,43.571,-1.8264,0.60879,-1.9296,-2.4352,-4.0397e-12,-0.96482,0,0,0.14286,-0,-0,0.66667
0.97299,0.56159,6.8109,0.092385,0.26857,0.62428,-1.6779,0.55931,-1.9701,-2.2372,-5.9431e-07,-0.98505,0,0,0.14286,1.7764e-15,0,0.66667
0.36782,0.57037,2.5748,0.10556,5.9031,150.54,-0.72477,0.24159,-1.9589,-0.96636,2.0331e-12,-0.97946,0,0,0.14286,6.7671e-16,0,0.66667
0.02374,0.36914,0.16618,-0.19628,-12.71,303.72,0.086982,-0.028994,-1.8618,0.11598,-6.4316e-08,-0.93089,0,0,0.14286,2.1147e-17,0,0.66667
0.81142,0.74186,5.6799,0.36279,7.9346,17.444,-5.495,1.8317,-1.5335,-7.3267,6.2595e-10,-0.76674,0,0,0.14286,-6.7671e-16,0,0.66667
0.45963,0.17044,3.2174,-0.49434,-25.311,115.2,4.2413,-1.4138,-1.1293,5.655,1.3576e-12,-0.56467,0,0,0.14286,-6.7671e-16,0,0.66667
0.58271,0.16764,4.0789,-0.49854,-21.349,73.149,5.4227,-1.8076,-1.1152,7.2303,1.9407e-13,-0.5576,0,0,0.14286,-0,-0,0.66667
0.55146,0.5329,3.8602,0.049349,2.215,82.705,-0.508,0.16933,-1.9915,-0.67733,-3.5477e-13,-0.99574,0,0,0.14286,-0,-0,0.66667
0.63102,0.039716,4.4171,-0.69043,-27.085,59.201,8.1325,-2.7108,-0.30378,10.843,8.7486e-13,-0.15189,0,0,0.14286,-0,-0,0.66667
0.72115,0.65868,5.048,0.23803,7.3388,35.149,-3.2042,1.0681,-1.7998,-4.2722,-5.1594e-12,-0.8999,0,0,0.14286,-2.7068e-15,0,0.66667
0.37326,0.32717,2.6128,-0.25924,-14.444,148.4,1.8063,-0.60209,-1.7616,2.4084,-2.0617e-13,-0.88078,0,0,0.14286,6.7671e-16,0,0.66667
0.86276,0.27615,6.0393,-0.33578,-5.4517,9.8836,5.4077,-1.8026,-1.5993,7.2102,-4.8761e-09,-0.79964,0,0,0.14286,-0,-0,0.66667
0.044935,0.49823,0.31455,-0.0026499,-0.17123,293.82,0.0022226,-0.00073934,-2.0017,0.0029643,2.3095e-06,-1.0008,0,0,0.14286,1.586e-16,0,0.66667
0.63268,0.76952,4.4288,0.40429,15.673,58.113,-4.7747,1.5916,-1.4171,-6.3662,-9.3614e-13,-0.70853,0,0,0.14286,-0,-0,0.66667
0.32943,0.69593,2.306,0.29389,16.972,166.42,-1.8072,0.60241,-1.6941,-2.4097,5.0516e-12,-0.84706,0,0,0.14286,-6.7671e-16,0,0.66667
0.5372,0.78836,3.7604,0.43254,19.936,87.743,-4.3374,1.4458,-1.3336,-5.7832,1.5365e-13,-0.66681,0,0,0.14286,-0,-0,0.66667
0.25122,0.80612,1.7586,0.45918,27.939,200,-2.1534,0.71779,-1.2518,-2.8711,-1.8909e-12,-0.62592,0,0,0.14286,3.3835e-16,0,0.66667
0.30016,0.31266,2.1011,-0.28101,-16.565,178.75,1.5745,-0.52483,-1.7203,2.0993,-4.0185e-12,-0.86017,0,0,0.14286,-0,-0,0.66667
0.68492,0.93824,4.7944,0.65737,22.712,44.679,-8.4045,2.8015,-0.46498,-11.206,-1.3767e-12,-0.23249,0,0,0.14286,-0,-0,0.66667
0.30867,0.061581,2.1607,-0.65763,-38.783,175.48,3.7891,-1.263,-0.46296,5.0522,-7.0011e-13,-0.23148,0,0,0.14286,2.5377e-16,-1.7869e-16,0.66667
0.48557,0.87777,3.399,0.56666,28.151,105.86,-5.1362,1.7121,-0.86042,-6.8483,-4.8095e-13,-0.43021,0,0,0.14286,-0,-0,0.66667
0.72351,0.48597,5.0646,-0.021049,-0.64305,34.482,0.28428,-0.094759,-1.9972,0.37904,1.9001e-12,-0.99858,0,0,0.14286,-1.3534e-15,0,0.66667
0.93934,0.28048,6.5754,-0.32929,-2.3757,2.567,5.7738,-1.9246,-1.6164,7.6984,9.8939e-09,-0.80822,0,0,0.14286,-5.0753e-16,0,0.66667
0.18872,0.52448,1.3211,0.036714,2.2919,227.65,-0.12934,0.043112,-1.9967,-0.17245,-2.1805e-10,-0.99835,0,0,0.14286,-0,-0,0.66667
0.52997,0.4294,3.7098,-0.1059,-4.9148,89.887,1.0476,-0.3492,-1.9614,1.3968,-2.2837e-13,-0.98071,0,0,0.14286,6.7671e-16,0,0.66667
0.74163,0.24219,5.1914,-0.38671,-11.203,30.807,5.3536,-1.7845,-1.4668,7.1381,2.9154e-12,-0.73342,0,0,0.14286,6.7671e-16,0,0.66667
0.53447,0.5874,3.7413,0.1311,6.0444,88.376,-1.308,0.43599,-1.939,-1.744,2.9776e-13,-0.96948,0,0,0.14286,-1.0151e-15,0,0.66667
0.78526,0.015055,5.4968,-0.72742,-18.194,23.002,10.663,-3.5542,-0.11768,14.217,-1.4571e-10,-0.058838,0,0,0.14286,2.7068e-15,0,0.66667
0.74517,0.86547,5.2162,0.5482,15.779,30.399,-7.6254,2.5418,-0.93042,-10.167,-8.4857e-12,-0.46521,0,0,0.14286,-0,-0,0.66667
0.76862,0.49539,5.3803,-0.0069182,-0.18093,24.891,0.099259,-0.033086,-2.0003,0.13235,-3.2088e-11,-1.0001,0,0,0.14286,6.7671e-16,0,0.66667
0.77155,0.9836,5.4009,0.72541,19.153,25.579,-10.448,3.4825,-0.12736,-13.93,-5.7757e-11,-0.063678,0,0,0.14286,1.8274e-15,0,0.66667
0.88414,0.19785,6.189,-0.45323,-6.296,7.6157,7.4801,-2.4934,-1.268,9.9734,-1.1303e-08,-0.63402,0,0,0.14286,2.7068e-15,0,0.66667
0.45436,0.36201,3.1805,-0.20699,-10.62,116.86,1.7556,-0.5852,-1.8486,2.3408,-3.5072e-13,-0.92432,0,0,0.14286,6.7671e-16,0,0.66667
0.45973,0.72499,3.2181,0.33749,17.232,114.97,-2.8962,0.96542,-1.5938,-3.8617,-2.0806e-13,-0.79692,0,0,0.14286,-0,-0,0.66667
0.14676,0.58809,1.0274,0.13214,8.3725,246.72,-0.36201,0.12067,-1.9369,-0.48268,-2.3759e-09,-0.96845,0,0,0.14286,8.4588e-17,0,0.66667
0.23564,0.030415,1.6495,-0.70438,-43.416,207.06,3.0983,-1.0328,-0.23835,4.131,-1.46e-11,-0.11918,0,0,0.14286,4.6524e-16,0,0.66667
0.26969,0.0085646,1.8878,-0.73715,-44.643,192.24,3.711,-1.237,-0.067297,4.948,1.5243e-12,-0.033649,0,0,0.14286,-0,-0,0.66667
0.73747,0.54593,5.1623,0.068902,2.0135,31.377,-0.9485,0.31617,-1.9827,-1.2647,2.7933e-13,-0.99134,0,0,0.14286,1.3534e-15,0,0.66667
0.15702,0.43756,1.0991,-0.093663,-5.9147,242.03,0.27453,-0.09151,-1.9718,0.36604,7.8082e-11,-0.98592,0,0,0.14286,-0,-0,0.66667
0.72315,0.84583,5.0621,0.51875,16.01,35.168,-7.0025,2.3342,-1.0434,-9.3366,-1.5157e-11,-0.52168,0,0,0.14286,-0,-0,0.66667
0.59594,0.15424,4.1716,-0.51863,-21.692,69.115,5.7694,-1.9231,-1.0451,7.6925,8.6553e-13,-0.52255,0,0,0.14286,-6.7671e-16,0,0.66667
0.9303,0.58654,6.5121,0.12982,1.0677,2.9104,-2.2543,0.75145,-1.9387,-3.0058,-1.2004e-08,-0.96935,0,0,0.14286,-1.3534e-15,0,0.66667
0.72528,0.87418,5.0769,0.56127,17.237,34.791,-7.5988,2.5329,-0.87964,-10.132,7.9314e-13,-0.43982,0,0,0.14286,2.5377e-16,0,0.66667
0.69888,0.4145,4.8921,-0.12825,-4.214,40.328,1.6732,-0.55772,-1.9408,2.2309,4.5325e-12,-0.97041,0,0,0.14286,-0,-0,0.66667
0.075963,0.58761,0.53174,0.13141,8.4616,279.38,-0.18634,0.062112,-1.9394,-0.24845,2.3133e-08,-0.96971,0,0,0.14286,4.2294e-17,0,0.66667
0.50651,0.51371,3.5456,0.020562,0.98674,97.948,-0.19441,0.064803,-1.9967,-0.25921,1.7499e-12,-0.99837,0,0,0.14286,-1.3534e-15,0,0.66667
0.76296,0.79402,5.3407,0.44103,11.873,26.478,-6.2812,2.0937,-1.3083,-8.3749,2.7769e-11,-0.65415,0,0,0.14286,-0,-0,0.66667
0.29181,0.026241,2.0427,-0.71064,-42.433,182.7,3.8709,-1.2903,-0.2038,5.1612,1.9471e-12,-0.1019,0,0,0.14286,-0,-0,0.66667
0.49858,0.83079,3.49,0.49618,24.196,101.12,-4.6179,1.5393,-1.1254,-6.1572,3.082e-13,-0.56272,0,0,0.14286,-6.7671e-16,0,0.66667
0.30177,0.7986,2.1124,0.44789,26.43,178.18,-2.523,0.84099,-1.2854,-3.364,7.5937e-12,-0.6427,0,0,0.14286,-1.901e-17,0,0.66667
0.4502,0.77404,3.1514,0.41105,21.245,118.6,-3.4544,1.1515,-1.3994,-4.6058,-2.3559e-13,-0.6997,0,0,0.14286,-0,-0,0.66667
0.24377,0.95846,1.7064,0.68769,42.195,203.47,-3.1292,1.0431,-0.317,-4.1723,-3.2128e-12,-0.1585,0,0,0.14286,-0,-0,0.66667
0.5657,0.12472,3.9599,-0.56292,-24.865,78.638,5.9443,-1.9814,-0.87446,7.9257,1.1369e-13,-0.43723,0,0,0.14286,-2.9606e-16,0,0.66667
0.94963,0.34226,6.6474,-0.23662,-1.3937,1.8056,4.1944,-1.3981,-1.8017,5.5925,3.4163e-08,-0.90083,0,0,0.14286,1.8609e-15,0,0.66667
0.2179,0.39203,1.5253,-0.16195,-9.9883,214.59,0.65872,-0.21957,-1.908,0.87829,1.3241e-10,-0.95401,0,0,0.14286,-0,-0,0.66667
0.4385,0.10384,3.0695,-0.59423,-31.229,123.25,4.864,-1.6213,-0.74583,6.4854,2.0965e-12,-0.37292,0,0,0.14286,-0,-0,0.66667
0.76894,0.080707,5.3826,-0.62894,-16.686,25.773,9.0275,-3.0092,-0.59301,12.037,-6.8067e-11,-0.29651,0,0,0.14286,1.3534e-15,0,0.66667
0.14093,0.63588,0.98653,0.20383,12.942,249.4,-0.53622,0.17874,-1.8542,-0.71495,-3.6995e-09,-0.92711,0,0,0.14286,3.3835e-16,0,0.66667
0.9131,0.24378,6.3917,-0.38434,-4.009,4.6346,6.5509,-2.1836,-1.4736,8.7345,-2.0693e-08,-0.73679,0,0,0.14286,6.7671e-16,0,0.66667
0.39416,0.29986,2.7591,-0.30021,-16.419,140.08,2.2088,-0.73627,-1.6789,2.9451,1.9789e-12,-0.83946,0,0,0.14286,-6.7671e-16,0,0.66667
0.32525,0.83584,2.2767,0.50377,29.27,168.34,-3.0585,1.0195,-1.0978,-4.078,4.5621e-12,-0.54889,0,0,0.14286,-3.3835e-16,0,0.66667
0.57673,0.40088,4.0371,-0.14868,-6.3993,74.612,1.6006,-0.53353,-1.9229,2.1341,6.4682e-13,-0.96147,0,0,0.14286,-6.7671e-16,0,0.66667
0.24807,0.98425,1.7365,0.72637,44.509,201.63,-3.3636,1.1212,-0.12441,-4.4847,-1.9865e-11,-0.062205,0,0,0.14286,-0,1.6917e-16,0.66667
0.81192,0.36376,5.6835,-0.20436,-4.4397,17.134,3.0973,-1.0324,-1.8532,4.1297,-5.7711e-10,-0.92658,0,0,0.14286,-0,-0,0.66667
0.88291,0.59285,6.1803,0.13928,1.9278,7.2403,-2.2954,0.76513,-1.9307,-3.0605,9.4217e-09,-0.96533,0,0,0.14286,-3.3835e-16,0,0.66667
0.83441,0.64376,5.8409,0.21564,4.1641,13.61,-3.3587,1.1196,-1.833,-4.4783,1.5532e-09,-0.91649,0,0,0.14286,-1.3534e-15,0,0.66667
0.35124,0.25397,2.4587,-0.36904,-20.973,157.44,2.4196,-0.80654,-1.5148,3.2261,-1.624e-12,-0.75741,0,0,0.14286,-0,-0,0.66667
0.14604,0.26902,1.0223,-0.34647,-21.994,247.1,0.94453,-0.31484,-1.5717,1.2594,3.6248e-09,-0.78587,0,0,0.14286,-0,-0,0.66667
0.60481,0.18451,4.2337,-0.47324,-19.442,66.357,5.3427,-1.7809,-1.2036,7.1236,-4.2011e-13,-0.60181,0,0,0.14286,1.0151e-15,0,0.66667
0.9963,0.96892,6.9741,0.70338,0.28968,1.5764,-13.081,4.3604,-0.24185,-17.442,-9.9614e-06,-0.12092,0,0,0.14286,-0,-0,0.66667
0.80367,0.81149,5.6257,0.46724,10.643,18.967,-7.0094,2.3365,-1.2235,-9.3459,7.2506e-11,-0.61173,0,0,0.14286,2.5377e-16,0,0.66667
0.74154,0.58003,5.1908,0.12004,3.4618,30.514,-1.6616,0.55386,-1.9469,-2.2154,3.549e-12,-0.97346,0,0,0.14286,-1.3534e-15,0,0.66667
0.38666,0.13967,2.7066,-0.54049,-29.881,143.3,3.9011,-1.3004,-0.96038,5.2015,2.4056e-12,-0.48019,0,0,0.14286,-0,-0,0.66667
0.40617,0.50856,2.8432,0.01284,0.693,135.24,-0.097353,0.032451,-2.0018,-0.1298,6.2415e-13,-1.0009,0,0,0.14286,-0,-0,0.66667
0.29465,0.0027351,2.0625,-0.7459,-44.496,181.54,4.1025,-1.3675,-0.023122,5.47,-1.0592e-12,-0.011561,0,0,0.14286,-0,-0,0.66667
0.29924,0.72252,2.0947,0.33377,19.698,179.18,-1.8644,0.62146,-1.6049,-2.4858,9.0846e-12,-0.80246,0,0,0.14286,-0,-0,0.66667
0.65307,0.7729,4.5715,0.40934,15.17,52.461,-4.9901,1.6634,-1.4041,-6.6535,-2.6437e-12,-0.70205,0,0,0.14286,-0,-0,0.66667
0.042617,0.90375,0.29832,0.60563,39.373,294.95,-0.48179,0.1606,-0.69599,-0.64239,-1.9498e-06,-0.34799,0,0,0.14286,1.2688e-16,0,0.66667
0.60103,0.23314,4.2072,-0.40028,-16.538,67.371,4.4909,-1.497,-1.4284,5.9879,-1.7053e-13,-0.71422,0,0,0.14286,-0,-0,0.66667
0.45501,0.80477,3.1851,0.45715,23.516,116.86,-3.8828,1.2943,-1.2578,-5.1771,-2.0561e-13,-0.62889,0,0,0.14286,-0,-0,0.66667
0.38402,0.73484,2.6882,0.35227,19.461,144.15,-2.5252,0.84173,-1.557,-3.3669,2.127e-12,-0.77849,0,0,0.14286,-6.7671e-16,0,0.66667
0.72104,0.75542,5.0473,0.38312,11.852,35.375,-5.1566,1.7189,-1.4789,-6.8755,-9.0945e-12,-0.73946,0,0,0.14286,2.7068e-15,0,0.66667
0.090843,0.66278,0.6359,0.24417,15.693,272.49,-0.41404,0.13801,-1.7883,-0.55205,-1.2079e-08,-0.89414,0,0,0.14286,-0,-0,0.66667
0.24894,0.2326,1.7426,-0.4011,-24.414,200.97,1.8638,-0.62128,-1.4291,2.4851,7.4737e-12,-0.71454,0,0,0.14286,-0,-0,0.66667
0.16059,0.26301,1.1241,-0.35548,-22.465,240.46,1.0656,-0.3552,-1.5496,1.4208,1.981e-09,-0.77482,0,0,0.14286,-0,-0,0.66667
0.67252,0.43446,4.7077,-0.098317,-3.4618,46.959,1.2343,-0.41142,-1.9682,1.6457,2.6928e-12,-0.9841,0,0,0.14286,-1.5226e-15,0,0.66667
0.19789,0.31044,1.3853,-0.28435,-17.708,223.57,1.0504,-0.35013,-1.7123,1.4005,4.5153e-10,-0.85617,0,0,0.14286,8.4588e-17,0,0.66667
0.47419,0.44472,3.3193,-0.082925,-4.1518,109.5,0.73402,-0.24467,-1.9745,0.97869,-9.7961e-13,-0.98726,0,0,0.14286,-0,-0,0.66667
0.95248,0.16332,6.6674,-0.50502,-2.9003,2.2434,8.9791,-2.993,-1.0951,11.972,-9.1069e-08,-0.54757,0,0,0.14286,2.7068e-15,0,0.66667
0.79059,0.82106,5.5341,0.4816,11.633,21.302,-7.1073,2.3691,-1.1739,-9.4764,1.3398e-10,-0.58697,0,0,0.14286,-0,-0,0.66667
0.6679,0.30867,4.6753,-0.287,-10.243,48.321,3.5782,-1.1927,-1.7072,4.7709,4.1558e-12,-0.85358,0,0,0.14286,6.7671e-16,0,0.66667
0.85654,0.90607,5.9958,0.60911,10.478,11.374,-9.7388,3.2463,-0.68224,-12.985,4.1464e-09,-0.34112,0,0,0.14286,5.8682e-16,-1.6724e-16,0.66667
0.28897,0.98897,2.0228,0.73346,43.899,183.94,-3.9564,1.3188,-0.085489,-5.2752,2.0481e-12,-0.042745,0,0,0.14286,-6.7671e-16,0,0.66667
0.77802,0.63128,5.4461,0.19692,4.9708,23.163,-2.8598,0.95328,-1.8622,-3.8131,1.1168e-10,-0.93111,0,0,0.14286,2.7068e-15,0,0.66667
0.019068,0.51385,0.13348,0.02077,1.3444,305.9,-0.0073921,0.0024634,-1.9978,-0.0098564,-8.9907e-07,-0.99892,0,0,0.14286,-0,-0,0.66667
0.87353,0.51688,6.1147,0.025323,0.37725,8.2621,-0.41292,0.13764,-1.9985,-0.55056,2.8213e-10,-0.99923,0,0,0.14286,-0,-0,0.66667
0.24772,0.057296,1.734,-0.66406,-40.639,201.72,3.0707,-1.0236,-0.43296,4.0942,-3.022e-12,-0.21648,0,0,0.14286,5.0753e-16,0,0.66667
0.12308,0.25167,0.86155,-0.37249,-23.804,257.63,0.85578,-0.28526,-1.5084,1.141,8.4049e-09,-0.7542,0,0,0.14286,-3.3835e-16,0,0.66667
0.12635,0.28386,0.88445,-0.3242,-20.689,256.12,0.76465,-0.25488,-1.6283,1.0195,7.0582e-09,-0.81415,0,0,0.14286,-3.3835e-16,0,0.66667
0.58781,0.20525,4.1146,-0.44212,-18.737,71.472,4.8511,-1.617,-1.3034,6.4681,-1.199e-13,-0.65168,0,0,0.14286,-0,-0,0.66667
0.89189,0.26146,6.2432,-0.35781,-4.6201,6.5798,5.957,-1.9857,-1.5458,7.9427,-1.2398e-08,-0.77291,0,0,0.14286,-0,-0,0.66667
0.092472,0.81384,0.64731,0.47077,30.327,271.78,-0.81261,0.27087,-1.2143,-1.0835,-2.7012e-08,-0.60717,0,0,0.14286,-3.3835e-16,0,0.66667
0.48349,0.19925,3.3844,-0.45113,-22.416,106.43,4.0714,-1.3571,-1.2777,5.4286,5.5733e-13,-0.63887,0,0,0.14286,-0,-0,0.66667
0.88532,0.85798,6.1972,0.53698,7.4326,7.7165,-8.874,2.958,-0.9733,-11.832,1.066e-08,-0.48665,0,0,0.14286,-0,-0,0.66667
0.95716,0.88716,6.7001,0.58073,3.0457,2.2565,-10.376,3.4586,-0.8,-13.835,9.3152e-07,-0.4,0,0,0.14286,-2.7068e-15,0,0.66667
0.99077,0.98505,6.9354,0.72757,0.8481,1.762,-13.456,4.4853,-0.11617,-17.941,2.1651e-05,-0.058084,0,0,0.14286,-1.3534e-15,0,0.66667
0.36192,0.079453,2.5334,-0.63082,-35.708,153.37,4.2617,-1.4206,-0.58505,5.6823,2.0974e-12,-0.29253,0,0,0.14286,6.7671e-16,0,0.66667
0.58532,0.88982,4.0972,0.58474,24.981,72.508,-6.3888,2.1296,-0.78242,-8.5184,7.474e-13,-0.39121,0,0,0.14286,-0,-0,0.66667
0.38493,0.55988,2.6945,0.089824,4.9473,143.65,-0.64541,0.21514,-1.9709,-0.86055,1.915e-12,-0.98545,0,0,0.14286,-0,-0,0.66667
0.13587,0.62579,0.95107,0.18868,11.997,251.72,-0.47854,0.15951,-1.8737,-0.63805,-5.5429e-09,-0.93683,0,0,0.14286,-3.3835e-16,0,0.66667
0.76152,0.28575,5.3307,-0.32138,-8.6673,26.551,4.5685,-1.5228,-1.6326,6.0913,-3.6306e-11,-0.81632,0,0,0.14286,-0,-0,0.66667
0.22086,0.91893,1.546,0.6284,38.943,213.52,-2.5907,0.86356,-0.59626,-3.4543,4.1837e-11,-0.29813,0,0,0.14286,-3.3835e-16,0,0.66667
0.6968,0.81949,4.8776,0.47924,15.943,41.299,-6.2334,2.0778,-1.1822,-8.3112,-5.4632e-12,-0.59108,0,0,0.14286,-1.3534e-15,0,0.66667
0.80946,0.14408,5.6662,-0.53388,-11.872,18.156,8.0669,-2.689,-0.98625,10.756,-1.5698e-10,-0.49312,0,0,0.14286,1.3534e-15,0,0.66667
0.27256,0.92771,1.9079,0.64157,38.701,190.89,-3.2642,1.0881,-0.53489,-4.3522,7.826e-12,-0.26744,0,0,0.14286,-3.3835e-16,0,0.66667
0.5085,0.79705,3.5595,0.44557,21.415,97.567,-4.2294,1.4098,-1.2922,-5.6392,-8.9928e-13,-0.64611,0,0,0.14286,6.7671e-16,0,0.66667
0.42229,0.85988,2.9561,0.53982,28.827,129.35,-4.2553,1.4184,-0.96556,-5.6738,-1.0747e-13,-0.48278,0,0,0.14286,-0,-0,0.66667
0.054664,0.58636,0.38265,0.12953,8.3642,289.29,-0.13218,0.044059,-1.9389,-0.17623,9.5866e-09,-0.96946,0,0,0.14286,4.2294e-17,0,0.66667
0.74161,0.59326,5.1912,0.13989,4.0343,30.512,-1.9366,0.64553,-1.9301,-2.5821,8.5487e-15,-0.96507,0,0,0.14286,-1.4173e-16,0,0.66667
0.80872,0.17886,5.661,-0.48171,-10.723,18.147,7.272,-2.424,-1.1744,9.696,-3.9008e-10,-0.58722,0,0,0.14286,-1.3534e-15,0,0.66667
0.53813,0.90951,3.7669,0.61427,28.393,87.751,-6.1704,2.0568,-0.65763,-8.2272,9.4591e-14,-0.32881,0,0,0.14286,-0,-0,0.66667
0.75933,0.96086,5.3153,0.69129,19.063,27.88,-9.7985,3.2662,-0.29952,-13.065,6.0858e-12,-0.14976,0,0,0.14286,-6.7671e-16,0,0.66667
0.041085,0.10174,0.2876,-0.59739,-38.836,295.66,0.45816,-0.15272,-0.72988,0.61087,1.6594e-06,-0.36494,0,0,0.14286,8.4588e-17,0,0.66667
0.18226,0.92309,1.2758,0.63464,39.981,230.8,-2.1592,0.71972,-0.56649,-2.8789,-2.0291e-11,-0.28324,0,0,0.14286,-0,-0,0.66667
0.5671,0.98912,3.9697,0.73368,32.5,78.581,-7.7666,2.5889,-0.085028,-10.355,1.5543e-13,-0.042514,0,0,0.14286,-0,-0,0.66667
0.62121,0.67436,4.3484,0.26155,10.36,61.224,-3.0328,1.0109,-1.756,-4.0438,-4.1145e-13,-0.87799,0,0,0.14286,-6.7671e-16,0,0.66667
0.78202,0.95959,5.4741,0.68938,17.433,23.469,-10.063,3.3544,-0.31188,-13.418,8.1571e-11,-0.15594,0,0,0.14286,-0,-0,0.66667
0.60149,0.78602,4.2104,0.42903,17.721,67.278,-4.8171,1.6057,-1.3445,-6.4228,1.0312e-12,-0.67223,0,0,0.14286,-1.3534e-15,0,0.66667
0.56027,0.64982,3.9219,0.22473,9.9541,79.918,-2.3503,0.78342,-1.8212,-3.1337,-1.4515e-12,-0.91058,0,0,0.14286,1.3468e-15,0,0.66667
0.66962,0.97796,4.6874,0.71694,25.801,48.768,-8.9615,2.9872,-0.17284,-11.949,2.1227e-13,-0.08642,0,0,0.14286,-0,1.4066e-16,0.66667
0.18539,0.29702,1.2977,-0.30447,-19.06,229.21,1.0537,-0.35122,-1.6706,1.4049,7.3175e-10,-0.83531,0,0,0.14286,-0,-0,0.66667
0.14813,0.40063,1.0369,-0.14906,-9.4411,246.1,0.41216,-0.13739,-1.9198,0.54954,3.0669e-09,-0.95991,0,0,0.14286,-8.1465e-17,0,0.66667
0.2334,0.74877,1.6338,0.37315,22.888,207.79,-1.6257,0.54191,-1.5075,-2.1677,-3.5418e-11,-0.75376,0,0,0.14286,-0,-0,0.66667
0.88661,0.57757,6.2062,0.11635,1.56,6.82,-1.9257,0.64189,-1.9509,-2.5676,1.8767e-09,-0.97545,0,0,0.14286,-0,-0,0.66667
0.62684,0.65672,4.3879,0.23508,9.2002,59.57,-2.7507,0.91691,-1.8055,-3.6676,-6.7546e-13,-0.90277,0,0,0.14286,-0,-0,0.66667
0.65717,0.14509,4.6002,-0.53236,-19.606,51.587,6.5306,-2.1769,-0.99366,8.7075,1.8567e-12,-0.49683,0,0,0.14286,-0,-0,0.66667
0.3064,0.70785,2.1448,0.31177,18.307,176.12,-1.7832,0.59439,-1.6528,-2.3776,7.5013e-12,-0.82642,0,0,0.14286,-0,-0,0.66667
0.25905,0.83032,1.8133,0.49548,30.036,196.61,-2.3959,0.79864,-1.1254,-3.1946,2.7098e-12,-0.56268,0,0,0.14286,-0,-0,0.66667
0.59709,0.85008,4.1796,0.52512,21.921,68.78,-5.8528,1.9509,-1.0196,-7.8037,6.4659e-13,-0.50978,0,0,0.14286,-0,-0,0.66667
0.21493,0.16032,1.5045,-0.50952,-31.591,216.07,2.0442,-0.68138,-1.077,2.7255,-9.0442e-11,-0.53851,0,0,0.14286,-0,-0,0.66667
0.93549,0.81204,6.5484,0.46806,3.6515,3.1396,-8.1735,2.7245,-1.2229,-10.898,6.1003e-08,-0.61147,0,0,0.14286,-1.6072e-15,0,0.66667
0.80368,0.67108,5.6257,0.25662,5.8047,18.585,-3.8498,1.2833,-1.764,-5.133,4.2599e-10,-0.88201,0,0,0.14286,1.3534e-15,0,0.66667
0.077647,0.31879,0.54353,-0.27182,-17.514,278.61,0.39398,-0.13133,-1.7395,0.52531,7.9503e-09,-0.86976,0,0,0.14286,1.6918e-16,0,0.66667
0.17487,0.50876,1.2241,0.013146,0.82494,233.91,-0.042912,0.014304,-1.9993,-0.057216,-1.593e-10,-0.99967,0,0,0.14286,6.7671e-16,0,0.66667
0.48717,0.46685,3.4102,-0.049732,-2.4492,104.81,0.45226,-0.15075,-1.9923,0.60301,-3.6737e-13,-0.99614,0,0,0.14286,1.0151e-15,0,0.66667
0.26934,0.37478,1.8854,-0.18783,-11.279,191.97,0.94434,-0.31478,-1.8754,1.2591,-2.1794e-13,-0.93771,0,0,0.14286,1.216e-16,0,0.66667
0.2902,0.61015,2.0314,0.16523,9.7942,182.96,-0.89506,0.29835,-1.9011,-1.1934,7.4824e-12,-0.95056,0,0,0.14286,-0,-0,0.66667
0.96137,0.73957,6.7296,0.35936,1.6174,1.4431,-6.4489,2.1496,-1.5391,-8.5985,-9.9912e-08,-0.76957,0,0,0.14286,-0,-0,0.66667
0.34206,0.85788,2.3944,0.53682,30.816,161.39,-3.4276,1.1425,-0.97595,-4.5702,2.4192e-12,-0.48798,0,0,0.14286,-0,3.4577e-17,0.66667
0.8359,0.38975,5.8513,-0.16538,-3.1634,13.341,2.5804,-0.86015,-1.9009,3.4406,-1.2028e-09,-0.95043,0,0,0.14286,1.3534e-15,0,0.66667
0.34459,0.88581,2.4121,0.57872,33.183,160.39,-3.7225,1.2408,-0.81064,-4.9634,1.5399e-12,-0.40532,0,0,0.14286,-6.7671e-16,0,0.66667
0.72145,0.95561,5.0501,0.68341,21.342,36.001,-9.2035,3.0678,-0.33924,-12.271,-2.9035e-12,-0.16962,0,0,0.14286,1.3534e-15,0,0.66667
0.18399,0.30215,1.2879,-0.29678,-18.587,229.83,1.0193,-0.33977,-1.6863,1.3591,7.6308e-10,-0.84317,0,0,0.14286,1.6918e-16,0,0.66667
0.68595,0.46095,4.8017,-0.058575,-1.9923,43.505,0.75002,-0.25001,-1.9889,1,2.1266e-12,-0.99445,0,0,0.14286,-0,-0,0.66667
0.57425,0.40398,4.0198,-0.14402,-6.2257,75.391,1.5439,-0.51462,-1.9266,2.0585,5.4845e-13,-0.96331,0,0,0.14286,-5.0669e-16,0,0.66667
0.72788,0.25412,5.0951,-0.36881,-11.167,33.8,5.0111,-1.6704,-1.5155,6.6815,6.1933e-12,-0.75775,0,0,0.14286,2.7068e-15,0,0.66667
0.43689,0.28551,3.0583,-0.32173,-16.854,123.52,2.6238,-0.87461,-1.6344,3.4984,6.164e-13,-0.81718,0,0,0.14286,-0,-0,0.66667
0.94886,0.7014,6.642,0.3021,1.8194,1.9521,-5.3508,1.7836,-1.6745,-7.1344,-4.3228e-08,-0.83723,0,0,0.14286,-1.3534e-15,0,0.66667
0.98993,0.48451,6.9295,-0.02324,-0.01687,0.14765,0.42946,-0.14315,-1.9965,0.57261,-4.3506e-06,-0.99826,0,0,0.14286,1.811e-16,0,0.66667
0.37841,0.39853,2.6488,-0.1522,-8.4347,146.28,1.0751,-0.35835,-1.9174,1.4334,1.2312e-13,-0.95872,0,0,0.14286,3.3835e-16,0,0.66667
0.75586,0.011683,5.2911,-0.73248,-20.494,28.722,10.335,-3.4449,-0.090828,13.78,-2.5376e-11,-0.045414,0,0,0.14286,-0,-0,0.66667
0.93393,0.78293,6.5375,0.42439,3.3747,3.1312,-7.3985,2.4662,-1.3603,-9.8646,4.0159e-08,-0.68013,0,0,0.14286,-2.7068e-15,0,0.66667
0.81266,0.43779,5.6887,-0.09331,-2.0165,16.927,1.4155,-0.47183,-1.9726,1.8873,-9.5008e-11,-0.98631,0,0,0.14286,-0,-0,0.66667
0.44965,0.018959,3.1476,-0.72156,-37.579,119.29,6.0564,-2.0188,-0.14821,8.0752,-4.1211e-13,-0.074103,0,0,0.14286,-1.3534e-15,1.6147e-16,0.66667
0.0019673,0.20045,0.013771,-0.44933,-29.188,313.89,0.0165,-0.0054997,-1.2825,0.022001,6.4903e-07,-0.64127,0,0,0.14286,5.2868e-18,0,0.66667
0.94677,0.115,6.6274,-0.5775,-3.7728,2.7832,10.206,-3.4021,-0.81266,13.608,7.0738e-09,-0.40633,0,0,0.14286,-0,-0,0.66667
0.34939,0.57471,2.4457,0.11206,6.3638,158.07,-0.73088,0.24363,-1.9538,-0.97451,3.2598e-12,-0.97692,0,0,0.14286,-0,-0,0.66667
0.037035,0.09806,0.25925,-0.60291,-39.212,297.55,0.41681,-0.13893,-0.70682,0.55574,1.2622e-06,-0.35341,0,0,0.14286,-8.4588e-17,0,0.66667
0.24443,0.3046,1.711,-0.2931,-17.86,202.88,1.3373,-0.44578,-1.6934,1.7831,2.3571e-11,-0.8467,0,0,0.14286,1.6918e-16,0,0.66667
0.96294,0.67631,6.7406,0.26446,1.1218,1.1974,-4.7537,1.5846,-1.7498,-6.3383,-6.8341e-08,-0.87491,0,0,0.14286,-1.3534e-15,0,0.66667
0.46377,0.11732,3.2464,-0.57402,-29.298,113.79,4.9693,-1.6564,-0.82753,6.6257,7.9936e-13,-0.41377,0,0,0.14286,-0,-0,0.66667
0.12421,0.10987,0.86948,-0.5852,-37.51,257.19,1.3569,-0.45229,-0.78368,1.8091,-2.5373e-09,-0.39184,0,0,0.14286,1.6918e-16,1.6901e-16,0.66667
0.66748,0.057237,4.6724,-0.66414,-23.975,49.175,8.275,-2.7583,-0.43131,11.033,8.7397e-13,-0.21565,0,0,0.14286,-3.3835e-16,0,0.66667
0.013877,0.98545,0.097139,0.72818,47.541,308.34,-0.18862,0.062864,-0.11525,-0.25149,-1.1779e-05,-0.057627,0,0,0.14286,-2.1147e-17,-1.6837e-16,0.66667
0.79892,0.42357,5.5924,-0.11465,-2.6442,19.279,1.7098,-0.56993,-1.9536,2.2797,-2.3498e-10,-0.97678,0,0,0.14286,1.3534e-15,0,0.66667
0.53493,0.28333,3.7445,-0.32501,-15.004,88.369,3.2454,-1.0818,-1.6249,4.3272,-3.213e-13,-0.81246,0,0,0.14286,-0,-0,0.66667
0.85021,0.49177,5.9515,-0.012342,-0.21627,11.235,0.19588,-0.065292,-1.9981,0.26117,2.1553e-09,-0.99903,0,0,0.14286,-0,-0,0.66667
0.2292,0.39748,1.6044,-0.15379,-9.4336,209.56,0.65796,-0.21932,-1.9148,0.87728,5.1785e-11,-0.9574,0,0,0.14286,1.6918e-16,0,0.66667
0.090134,0.75312,0.63094,0.37968,24.439,272.84,-0.6388,0.21293,-1.4878,-0.85174,-2.0125e-08,-0.7439,0,0,0.14286,-0,-0,0.66667
0.6928,0.87025,4.8496,0.55538,18.723,42.452,-7.1822,2.3941,-0.90266,-9.5763,-3.6202e-12,-0.45133,0,0,0.14286,3.3835e-16,0,0.66667
0.81499,0.88573,5.7049,0.57859,12.557,17.372,-8.8022,2.9341,-0.80984,-11.736,5.2736e-10,-0.40492,0,0,0.14286,-0,-0,0.66667
0.63154,0.75341,4.4208,0.38012,14.765,58.4,-4.4812,1.4937,-1.4855,-5.9749,-9.0195e-13,-0.74275,0,0,0.14286,-0,-0,0.66667
0.77283,0.25272,5.4098,-0.37091,-9.5962,24.398,5.3508,-1.7836,-1.5101,7.1345,-6.1975e-11,-0.75506,0,0,0.14286,2.7068e-15,0,0.66667
0.63111,0.69567,4.4177,0.2935,11.393,58.409,-3.4576,1.1525,-1.6924,-4.6102,-1.4322e-12,-0.8462,0,0,0.14286,-0,-0,0.66667
0.89066,0.21171,6.2346,-0.43243,-5.672,6.8707,7.1894,-2.3965,-1.3377,9.5859,-1.4106e-08,-0.66885,0,0,0.14286,-6.7671e-16,0,0.66667
0.99276,0.68328,6.9493,0.27491,0.12033,0.32915,-5.0946,1.6982,-1.7303,-6.7928,1.0856e-07,-0.86515,0,0,0.14286,2.0301e-15,0,0.66667
0.17377,0.15252,1.2164,-0.52122,-32.868,234.56,1.6907,-0.56356,-1.0354,2.2542,9.7443e-10,-0.51772,0,0,0.14286,-2.5377e-16,0,0.66667
0.54939,0.89922,3.8457,0.59883,27.188,83.995,-6.1412,2.0471,-0.72544,-8.1882,6.386e-13,-0.36272,0,0,0.14286,-1.0151e-15,0,0.66667
0.11999,0.51846,0.83996,0.027697,1.7674,259,-0.062039,0.02068,-1.9959,-0.082719,2.0155e-09,-0.99797,0,0,0.14286,-3.3835e-16,0,0.66667
0.76715,0.62586,5.37,0.18879,4.9722,25.266,-2.7035,0.90116,-1.8755,-3.6047,7.301e-11,-0.93774,0,0,0.14286,-0,-0,0.66667
0.22811,0.13594,1.5968,-0.54608,-33.671,210.24,2.3252,-0.77508,-0.93812,3.1003,-3.9212e-11,-0.46906,0,0,0.14286,6.7671e-16,0,0.66667
0.11092,0.93622,0.77645,0.65434,42.133,263.33,-1.3548,0.4516,-0.47978,-1.8064,7.8519e-08,-0.23989,0,0,0.14286,-0,-0,0.66667
0.96882,0.67706,6.7817,0.2656,0.92967,0.96176,-4.8032,1.6011,-1.7514,-6.4043,-6.6529e-08,-0.87569,0,0,0.14286,-0,-0,0.66667
0.44753,0.59294,3.1327,0.13941,7.2052,119.39,-1.1646,0.38819,-1.9309,-1.5528,1.2104e-12,-0.96543,0,0,0.14286,-8.5505e-16,0,0.66667
0.82994,0.93803,5.8096,0.65705,13.27,15.277,-10.179,3.3931,-0.46707,-13.572,-4.9654e-09,-0.23353,0,0,0.14286,2.7068e-15,0,0.66667
0.025977,0.7558,0.18184,0.38369,24.886,302.68,-0.18606,0.062019,-1.4757,-0.24808,2.3443e-07,-0.73787,0,0,0.14286,-0,-0,0.66667
0.090511,0.88705,0.63358,0.58058,37.485,272.72,-0.98091,0.32697,-0.80108,-1.3079,-1.0476e-09,-0.40054,0,0,0.14286,-0,-0,0.66667
0.81523,0.42493,5.7066,-0.1126,-2.4032,16.517,1.7135,-0.57117,-1.9548,2.2847,-3.4763e-10,-0.97739,0,0,0.14286,-1.3534e-15,0,0.66667
0.90936,0.78987,6.3655,0.4348,4.7477,5.0771,-7.3807,2.4602,-1.3277,-9.8409,1.9607e-08,-0.66385,0,0,0.14286,-0,-0,0.66667
0.068241,0.54807,0.47768,0.072099,4.6468,282.97,-0.091841,0.030614,-1.9799,-0.12245,3.6153e-08,-0.98995,0,0,0.14286,8.4588e-17,0,0.66667
0.65027,0.57187,4.5519,0.1078,4.0033,52.906,-1.3086,0.43619,-1.9573,-1.7447,-5.4978e-13,-0.97864,0,0,0.14286,-1.3534e-15,0,0.66667
0.55332,0.81868,3.8732,0.47802,21.503,82.486,-4.9372,1.6457,-1.1864,-6.583,3.6859e-14,-0.5932,0,0,0.14286,-0,-0,0.66667
0.20654,0.83462,1.4458,0.50193,31.232,219.81,-1.9351,0.64505,-1.1039,-2.5802,-1.0866e-10,-0.55195,0,0,0.14286,-0,-0,0.66667
0.4248,0.36788,2.9736,-0.19818,-10.504,128.06,1.5715,-0.52384,-1.8605,2.0953,-1.2205e-12,-0.93026,0,0,0.14286,6.7671e-16,0,0.66667
0.4726,0.24122,3.3082,-0.38816,-19.53,110.29,3.4244,-1.1415,-1.4637,4.5658,3.3595e-13,-0.73187,0,0,0.14286,-6.7671e-16,0,0.66667
0.011484,0.19768,0.080389,-0.45348,-29.455,309.45,0.097212,-0.032404,-1.268,0.12962,1.1599e-07,-0.63401,0,0,0.14286,-0,-0,0.66667
0.54494,0.030193,3.8146,-0.70471,-32.32,85.692,7.1685,-2.3895,-0.23609,9.558,4.8539e-13,-0.11805,0,0,0.14286,6.7671e-16,-2.2124e-17,0.66667
0.7824,0.56254,5.4768,0.093817,2.3234,22.263,-1.3702,0.45673,-1.9714,-1.8269,3.0155e-11,-0.9857,0,0,0.14286,-2.7068e-15,0,0.66667
0.91446,0.69653,6.4012,0.2948,3.0086,4.3461,-5.0323,1.6774,-1.6894,-6.7097,1.1217e-08,-0.8447,0,0,0.14286,-0,-0,0.66667
0.046043,0.5624,0.3223,0.093599,6.0484,293.31,-0.080445,0.026815,-1.9718,-0.10726,-2.4977e-07,-0.98591,0,0,0.14286,-3.3042e-18,0,0.66667
0.79178,0.84718,5.5424,0.52077,12.537,21.185,-7.6969,2.5656,-1.0354,-10.262,5.9737e-11,-0.51768,0,0,0.14286,-0,-0,0.66667
0.43939,0.49438,3.0757,-0.0084251,-0.43925,122.43,0.069102,-0.023034,-2.0008,0.092136,-3.0878e-12,-1.0004,0,0,0.14286,2.0301e-15,0,0.66667
0.70462,0.8257,4.9323,0.48855,15.907,39.426,-6.4259,2.142,-1.1521,-8.5678,-7.26e-12,-0.57605,0,0,0.14286,-0,-0,0.66667
0.60938,0.72096,4.2657,0.33144,13.457,64.777,-3.7701,1.2567,-1.6128,-5.0268,4.3365e-13,-0.80638,0,0,0.14286,-1.3534e-15,0,0.66667
0.91416,0.091372,6.3991,-0.61294,-6.4612,5.1932,10.459,-3.4865,-0.66352,13.946,8.9297e-08,-0.33176,0,0,0.14286,-1.3534e-15,0,0.66667
0.67954,0.21584,4.7568,-0.42624,-14.82,45.511,5.4068,-1.8023,-1.3533,7.209,5.7474e-12,-0.67663,0,0,0.14286,-1.5226e-15,0,0.66667
0.20458,0.61786,1.432,0.17679,10.97,220.54,-0.67514,0.22505,-1.8901,-0.90018,-2.8376e-10,-0.94506,0,0,0.14286,1.6918e-16,0,0.66667
0.98969,0.11041,6.9279,-0.58438,-0.64896,1.2021,10.796,-3.5987,-0.78427,14.395,-2.6987e-06,-0.39214,0,0,0.14286,1.3534e-15,0,0.66667
0.80836,0.96883,5.6585,0.70325,15.873,18.867,-10.612,3.5372,-0.24224,-14.149,-4.5912e-11,-0.12112,0,0,0.14286,-0,-0,0.66667
0.05115,0.84838,0.35805,0.52257,33.895,290.97,-0.49895,0.16632,-1.0288,-0.66527,-6.5898e-08,-0.5144,0,0,0.14286,-1.6918e-16,0,0.66667
0.99025,0.55421,6.9317,0.081317,0.056258,0.16044,-1.5031,0.50103,-1.9752,-2.0041,-1.6606e-07,-0.98761,0,0,0.14286,-6.7671e-16,0,0.66667
0.084374,0.42204,0.59062,-0.11695,-7.5196,275.48,0.18419,-0.061397,-1.9496,0.24559,-1.0803e-08,-0.97482,0,0,0.14286,-1.6918e-16,0,0.66667
0.41597,0.6851,2.9118,0.27765,14.861,131.51,-2.1559,0.71864,-1.7255,-2.8746,2.9998e-13,-0.86273,0,0,0.14286,8.4588e-17,0,0.66667
0.88805,0.48665,6.2163,-0.020019,-0.26478,6.6291,0.33185,-0.11062,-1.9985,0.44247,-2.8786e-09,-0.99925,0,0,0.14286,2.7068e-15,0,0.66667
0.76211,0.85011,5.3348,0.52516,14.226,26.841,-7.471,2.4903,-1.0193,-9.9614,1.4496e-11,-0.50965,0,0,0.14286,-0,-0,0.66667
0.67305,0.223,4.7113,-0.4155,-14.681,47.164,5.2201,-1.74,-1.3881,6.9602,4.1238e-12,-0.69403,0,0,0.14286,-0,-0,0.66667
0.53369,0.95804,3.7358,0.68706,32.038,89.395,-6.8446,2.2815,-0.32175,-9.1262,6.4215e-13,-0.16088,0,0,0.14286,-6.7671e-16,0,0.66667
0.34698,0.67441,2.4288,0.26161,14.9,159.12,-1.6945,0.56482,-1.7562,-2.2593,3.2758e-12,-0.87808,0,0,0.14286,-0,-0,0.66667
0.89994,0.24899,6.2996,-0.37652,-4.512,5.8149,6.3251,-2.1084,-1.4957,8.4334,-1.589e-08,-0.74785,0,0,0.14286,1.5226e-15,0,0.66667
0.81896,0.76853,5.7327,0.40279,8.4988,16.294,-6.1576,2.0525,-1.4214,-8.2101,6.7229e-10,-0.71071,0,0,0.14286,1.3534e-15,0,0.66667
0.94589,0.56327,6.6212,0.094906,0.59836,1.8778,-1.6757,0.55857,-1.9676,-2.2343,-1.5659e-07,-0.98382,0,0,0.14286,2.7068e-15,0,0.66667
0.39956,0.6123,2.7969,0.16845,9.1554,137.87,-1.2564,0.4188,-1.8973,-1.6752,4.9649e-13,-0.94867,0,0,0.14286,-0,-0,0.66667
0.23362,0.88896,1.6354,0.58343,35.903,207.84,-2.5443,0.84811,-0.79108,-3.3924,2.7361e-11,-0.39554,0,0,0.14286,-0,-0,0.66667
0.72322,0.45298,5.0625,-0.070529,-2.157,34.559,0.95215,-0.31738,-1.9811,1.2695,1.9151e-12,-0.99057,0,0,0.14286,-0,-0,0.66667
0.6891,0.71709,4.8237,0.32564,11.018,42.935,-4.1887,1.3962,-1.625,-5.5849,-7.8564e-12,-0.81248,0,0,0.14286,1.6918e-15,0,0.66667
0.54337,0.36183,3.8036,-0.20725,-9.4311,85.447,2.1021,-0.70071,-1.8466,2.8028,1.3545e-13,-0.92331,0,0,0.14286,-0,-0,0.66667
0.53711,0.91797,3.7597,0.62695,29.034,88.12,-6.2858,2.0953,-0.60089,-8.3811,1.6476e-13,-0.30044,0,0,0.14286,-0,-0,0.66667
0.80969,0.85471,5.6678,0.53207,11.818,18.113,-8.0418,2.6806,-0.99333,-10.722,1.5801e-10,-0.49666,0,0,0.14286,-0,-0,0.66667
0.79958,0.93922,5.5971,0.65883,15.436,20.209,-9.8334,3.2778,-0.45785,-13.111,-3.9837e-10,-0.22893,0,0,0.14286,-2.7068e-15,0,0.66667
0.84777,0.23007,5.9344,-0.40489,-7.2732,12.002,6.4074,-2.1358,-1.4163,8.5432,-2.2655e-09,-0.70814,0,0,0.14286,1.3534e-15,0,0.66667
0.19036,0.017808,1.3325,-0.72329,-45.513,227.22,2.5702,-0.85672,-0.13967,3.4269,1.8628e-10,-0.069833,0,0,0.14286,-0,-0,0.66667
0.20027,0.21397,1.4019,-0.42905,-26.739,222.57,1.604,-0.53466,-1.346,2.1387,3.5607e-10,-0.673,0,0,0.14286,8.4588e-17,0,0.66667
0.77366,0.37533,5.4156,-0.18701,-4.8025,23.989,2.7007,-0.90025,-1.8754,3.601,-1.0055e-10,-0.9377,0,0,0.14286,-0,-0,0.66667
0.56553,0.59476,3.9587,0.14214,6.2364,78.168,-1.5005,0.50017,-1.9293,-2.0007,7.1543e-13,-0.96463,0,0,0.14286,-1.3534e-15,0,0.66667
0.2689,0.094748,1.8823,-0.60788,-36.721,192.43,3.0513,-1.0171,-0.68711,4.0683,1.9131e-12,-0.34355,0,0,0.14286,-6.7671e-16,0,0.66667
0.47936,0.47423,3.3555,-0.038656,-1.9227,107.62,0.34589,-0.1153,-1.994,0.46118,-1.3944e-13,-0.99701,0,0,0.14286,-0,-0,0.66667
0.67466,0.39539,4.7226,-0.15692,-5.498,46.436,1.9761,-0.65871,-1.9124,2.6348,3.5599e-12,-0.95618,0,0,0.14286,-0,-0,0.66667
0.68423,0.27147,4.7896,-0.34279,-11.753,44.183,4.3783,-1.4594,-1.5819,5.8377,6.2657e-12,-0.79094,0,0,0.14286,-0,-0,0.66667
0.82139,0.41112,5.7497,-0.13332,-2.7582,15.537,2.0441,-0.68137,-1.9358,2.7255,-7.7154e-10,-0.9679,0,0,0.14286,-0,-0,0.66667
0.36466,0.0047454,2.5526,-0.74288,-42.073,152.43,5.0568,-1.6856,-0.037129,6.7425,8.5176e-13,-0.018564,0,0,0.14286,-0,-0,0.66667
0.67275,0.24439,4.7092,-0.38341,-13.547,47.187,4.8149,-1.605,-1.4793,6.4199,5.1297e-12,-0.73963,0,0,0.14286,-1.0151e-15,0,0.66667
0.55308,0.35718,3.8715,-0.21423,-9.6003,82.25,2.2117,-0.73725,-1.8351,2.949,-1.4211e-13,-0.91756,0,0,0.14286,-0,-0,0.66667
0.40642,0.13019,2.8449,-0.55471,-30.108,135.53,4.2083,-1.4028,-0.90863,5.611,1.958e-12,-0.45431,0,0,0.14286,-0,-0,0.66667
0.39796,0.34808,2.7857,-0.22788,-12.409,138.53,1.6928,-0.56427,-1.8144,2.2571,7.5273e-13,-0.90719,0,0,0.14286,-0,-0,0.66667
0.61288,0.81187,4.2902,0.4678,18.916,63.949,-5.3518,1.7839,-1.2228,-7.1358,-9.6545e-13,-0.6114,0,0,0.14286,1.9878e-15,0,0.66667
0.061349,0.072785,0.42945,-0.64082,-41.609,286.25,0.73386,-0.24462,-0.54109,0.97849,1.1115e-07,-0.27055,0,0,0.14286,-0,1.4941e-16,0.66667
0.7645,0.67763,5.3515,0.26644,7.0977,25.877,-3.8023,1.2674,-1.7488,-5.0697,5.2989e-11,-0.87442,0,0,0.14286,6.7671e-16,0,0.66667
0.23365,0.93904,1.6355,0.65856,40.589,207.89,-2.8723,0.95742,-0.4607,-3.8297,-3.439e-12,-0.23035,0,0,0.14286,-6.7671e-16,0,0.66667
0.16594,0.55642,1.1616,0.084633,5.3284,237.97,-0.26215,0.087384,-1.9735,-0.34954,-1.2201e-09,-0.98675,0,0,0.14286,9.8255e-17,0,0.66667
0.42348,0.15657,2.9644,-0.51515,-27.462,128.86,4.0722,-1.3574,-1.0587,5.4297,2.1156e-12,-0.52935,0,0,0.14286,-0,-0,0.66667
0.46845,0.72071,3.2791,0.33106,16.727,111.75,-2.8949,0.96497,-1.6134,-3.8599,-2.2204e-16,-0.8067,0,0,0.14286,1.3534e-15,0,0.66667
0.27444,0.64514,1.9211,0.21771,13.036,189.77,-1.1153,0.37177,-1.8298,-1.4871,7.4137e-12,-0.91489,0,0,0.14286,3.3835e-16,0,0.66667
0.31013,0.37143,2.1709,-0.19285,-11.283,174.48,1.1164,-0.37215,-1.8688,1.4886,-3.356e-12,-0.93441,0,0,0.14286,2.6099e-16,0,0.66667
0.67315,0.48338,4.712,-0.024926,-0.87605,46.777,0.3132,-0.1044,-1.9987,0.41761,1.5371e-12,-0.99935,0,0,0.14286,-1.3534e-15,0,0.66667
0.030054,0.92243,0.21038,0.63365,41.255,300.8,-0.35548,0.1185,-0.57337,-0.47398,3.1576e-06,-0.28668,0,0,0.14286,-4.2294e-17,-1.6896e-16,0.66667
0.65518,0.84641,4.5863,0.51961,19.218,52.096,-6.3549,2.1183,-1.0423,-8.4733,-1.7319e-12,-0.52113,0,0,0.14286,-0,1.943e-16,0.66667
0.52145,0.99389,3.6502,0.74083,35.23,93.662,-7.2111,2.4037,-0.047598,-9.6148,8.7885e-13,-0.023799,0,0,0.14286,-2.3685e-15,0,0.66667
0.47871,0.60007,3.351,0.15011,7.4757,107.89,-1.3414,0.44712,-1.9189,-1.7885,3.6648e-13,-0.95944,0,0,0.14286,-0,-0,0.66667
0.72049,0.077973,5.0434,-0.63304,-19.783,36.071,8.5138,-2.8379,-0.57566,11.352,5.218e-12,-0.28783,0,0,0.14286,-1.3534e-15,0,0.66667
0.68825,0.062768,4.8178,-0.65585,-22.462,43.841,8.4259,-2.8086,-0.47364,11.235,2.3981e-14,-0.23682,0,0,0.14286,2.7068e-15,0,0.66667
0.064811,0.85186,0.45368,0.52779,34.182,284.62,-0.63852,0.21284,-1.01,-0.85136,-7.0554e-08,-0.50502,0,0,0.14286,-0,-0,0.66667
0.80024,0.17718,5.6017,-0.48423,-11.212,19.6,7.2333,-2.4111,-1.1659,9.6444,-1.8752e-10,-0.58294,0,0,0.14286,6.7671e-16,0,0.66667
0.039175,0.31591,0.27423,-0.27613,-17.874,296.52,0.20193,-0.067309,-1.728,0.26923,-6.5656e-08,-0.86402,0,0,0.14286,-0,-0,0.66667
0.027013,0.73317,0.18909,0.34976,22.674,302.2,-0.17636,0.058787,-1.564,-0.23515,1.6342e-07,-0.782,0,0,0.14286,-0,-0,0.66667
0.52587,0.23344,3.6811,-0.39983,-18.732,91.525,3.9248,-1.3083,-1.4301,5.2331,2.1427e-13,-0.71504,0,0,0.14286,-6.7671e-16,0,0.66667
0.7348,0.49708,5.1436,-0.0043849,-0.12924,31.951,0.060144,-0.020048,-2.0027,0.080192,-4.2413e-12,-1.0014,0,0,0.14286,1.6918e-15,0,0.66667
0.50557,0.70884,3.539,0.31326,15.084,98.43,-2.9564,0.98547,-1.6497,-3.9419,1.6587e-13,-0.82487,0,0,0.14286,-0,-0,0.66667
0.29367,0.9591,2.0557,0.68866,41.049,181.88,-3.7751,1.2584,-0.31352,-5.0334,-2.9599e-13,-0.15676,0,0,0.14286,-0,-1.444e-16,0.66667
0.18618,0.37326,1.3033,-0.19011,-11.886,228.82,0.6607,-0.22023,-1.8737,0.88093,4.7004e-10,-0.93685,0,0,0.14286,-1.6918e-16,0,0.66667
0.66274,0.91465,4.6392,0.62198,22.674,50.312,-7.6946,2.5649,-0.62309,-10.259,-5.6932e-13,-0.31154,0,0,0.14286,-0,-0,0.66667
0.94213,0.57844,6.5949,0.11766,0.79708,2.1167,-2.0693,0.68975,-1.9495,-2.759,-6.3768e-08,-0.97477,0,0,0.14286,1.3534e-15,0,0.66667
0.15878,0.65999,1.1114,0.23998,15.158,241.25,-0.71126,0.23709,-1.7962,-0.94835,-2.11e-09,-0.89808,0,0,0.14286,-0,-0,0.66667
0.27586,0.95722,1.9311,0.68583,41.332,189.51,-3.5317,1.1772,-0.32618,-4.7089,4.8876e-12,-0.16309,0,0,0.14286,-0,-0,0.66667
0.99109,0.69236,6.9377,0.28855,0.19091,0.38121,-5.3382,1.7794,-1.703,-7.1176,1.0603e-07,-0.85148,0,0,0.14286,-2.7068e-15,0,0.66667
0.83374,0.1849,5.8362,-0.47265,-9.2483,14.169,7.3559,-2.452,-1.2053,9.8078,-4.8799e-10,-0.60265,0,0,0.14286,1.8609e-15,0,0.66667
0.75016,0.47517,5.2511,-0.037248,-1.0424,28.651,0.52159,-0.17386,-1.9976,0.69545,-7.3085e-12,-0.9988,0,0,0.14286,-0,-0,0.66667
0.042073,0.27303,0.29451,-0.34046,-22.046,295.17,0.26739,-0.089129,-1.5869,0.35652,-7.9696e-08,-0.79347,0,0,0.14286,-4.2294e-17,0,0.66667
0.027017,0.59236,0.18912,0.13854,8.9663,302.19,-0.069866,0.023289,-1.9321,-0.093155,-1.4456e-07,-0.96606,0,0,0.14286,4.7581e-17,0,0.66667
0.48721,0.38564,3.4105,-0.17154,-8.4523,104.83,1.5601,-0.52004,-1.8953,2.0801,-6.0785e-13,-0.94763,0,0,0.14286,-0,-0,0.66667
0.032196,0.75526,0.22537,0.38289,24.824,299.78,-0.23011,0.076705,-1.4807,-0.30682,1.6873e-07,-0.74034,0,0,0.14286,8.4588e-17,0,0.66667
0.10153,0.068736,0.71068,-0.6469,-41.732,267.66,1.226,-0.40865,-0.51081,1.6346,-1.4878e-07,-0.2554,0,0,0.14286,3.3835e-16,0,0.66667
0.56329,0.20885,3.9431,-0.43673,-19.311,79.187,4.5922,-1.5307,-1.3234,6.1229,-1.6964e-13,-0.66169,0,0,0.14286,-0,-0,0.66667
0.4278,0.23171,2.9946,-0.40244,-21.314,127.07,3.2138,-1.0713,-1.4225,4.285,6.3127e-13,-0.71126,0,0,0.14286,-0,-0,0.66667
0.79087,0.71861,5.5361,0.32791,7.8689,20.946,-4.8409,1.6136,-1.6177,-6.4545,2.3469e-10,-0.80884,0,0,0.14286,-1.935e-15,0,0.66667
0.27399,0.50562,1.9179,0.0084336,0.50471,189.92,-0.043133,0.014378,-1.9986,-0.057511,3.5995e-12,-0.99928,0,0,0.14286,-0,-0,0.66667
0.27245,0.50798,1.9071,0.011964,0.71663,190.59,-0.060844,0.020281,-1.9981,-0.081125,3.1161e-12,-0.99903,0,0,0.14286,-0,-0,0.66667
0.40582,0.33431,2.8408,-0.24854,-13.434,135.45,1.8827,-0.62758,-1.7823,2.5103,9.6056e-13,-0.89115,0,0,0.14286,-0,-0,0.66667
0.67323,0.63754,4.7126,0.20631,7.2586,46.844,-2.5927,0.86424,-1.8496,-3.457,-3.8698e-12,-0.92478,0,0,0.14286,-0,-0,0.66667
0.9815,0.87609,6.8705,0.56413,1.2083,1.3109,-10.336,3.4452,-0.86965,-13.781,-1.0218e-06,-0.43482,0,0,0.14286,-0,-2.0426e-19,0.66667
0.39748,0.70174,2.7824,0.30262,16.5,138.77,-2.2453,0.74844,-1.6726,-2.9938,1.1031e-12,-0.83628,0,0,0.14286,-6.7671e-16,0,0.66667
0.74457,0.49309,5.212,-0.010359,-0.29553,29.83,0.14397,-0.047992,-1.9986,0.19197,-2.93e-12,-0.99931,0,0,0.14286,2.0301e-15,0,0.66667
0.85672,0.19742,5.9971,-0.45388,-7.7206,10.91,7.2585,-2.4195,-1.2676,9.678,-3.372e-09,-0.63381,0,0,0.14286,-0,-0,0.66667
0.67501,0.62333,4.725,0.185,6.4783,46.366,-2.331,0.77702,-1.8792,-3.1081,-2.8373e-12,-0.9396,0,0,0.14286,-1.5226e-15,0,0.66667
0.77949,0.11469,5.4564,-0.57797,-14.68,23.601,8.4097,-2.8032,-0.81296,11.213,-8.1424e-11,-0.40648,0,0,0.14286,-0,-0,0.66667
0.81192,0.48144,5.6835,-0.027839,-0.60361,17.03,0.42193,-0.14064,-1.9988,0.56257,-1.2334e-10,-0.99941,0,0,0.14286,-1.3534e-15,0,0.66667
0.59693,0.29305,4.1785,-0.31043,-12.905,68.495,3.459,-1.153,-1.657,4.612,5.4268e-13,-0.82849,0,0,0.14286,-0,-0,0.66667
0.439,0.91189,3.073,0.61784,32.471,123.1,-5.0629,1.6876,-0.64416,-6.7506,-3.2108e-13,-0.32208,0,0,0.14286,-0,-0,0.66667
0.16875,0.6492,1.1813,0.22381,14.087,236.72,-0.70499,0.235,-1.822,-0.93999,-1.2722e-09,-0.91098,0,0,0.14286,-6.9257e-17,0,0.66667
0.78139,0.85571,5.4697,0.53357,13.421,23.123,-7.7826,2.5942,-0.9898,-10.377,1.812e-11,-0.4949,0,0,0.14286,-0,-0,0.66667
0.19409,0.21275,1.3586,-0.43088,-26.922,225.34,1.5611,-0.52036,-1.3387,2.0814,4.129e-10,-0.66937,0,0,0.14286,-1.6918e-16,0,0.66667
0.99872,0.067145,6.991,-0.64928,-0.013558,1.3233,12.104,-4.0348,-0.50283,16.139,1.0833e-05,-0.25142,0,0,0.14286,2.7068e-15,0,0.66667
0.5426,0.83692,3.7982,0.50537,23.136,86.058,-5.1187,1.7062,-1.0914,-6.825,1.4388e-13,-0.54568,0,0,0.14286,-0,-0,0.66667
0.0093665,0.55067,0.065565,0.076006,4.9214,310.43,-0.013289,0.00443,-1.9778,-0.017719,4.8444e-07,-0.98891,0,0,0.14286,1.0574e-17,0,0.66667
0.4188,0.72064,2.9316,0.33096,17.675,130.46,-2.5873,0.86244,-1.6114,-3.4498,-6.5414e-13,-0.80571,0,0,0.14286,1.3534e-15,0,0.66667
0.24105,0.44452,1.6874,-0.083227,-5.0736,204.31,0.37449,-0.12483,-1.9741,0.49932,1.5394e-11,-0.98704,0,0,0.14286,-0,-0,0.66667
0.053138,0.55421,0.37196,0.081314,5.2506,290,-0.080656,0.026885,-1.9751,-0.10754,7.1815e-09,-0.98756,0,0,0.14286,8.4588e-17,0,0.66667
0.71613,0.503,5.0129,0.0045025,0.14067,36.18,-0.060188,0.020063,-2.0009,-0.080251,2.356e-12,-1.0005,0,0,0.14286,-5.4137e-15,0,0.66667
0.31649,0.553,2.2154,0.079499,4.6278,171.76,-0.46967,0.15656,-1.9768,-0.62622,4.5588e-12,-0.98842,0,0,0.14286,3.3835e-16,0,0.66667
0.82107,0.47779,5.7475,-0.033312,-0.68978,15.546,0.51057,-0.17019,-1.9945,0.68076,-2.2823e-10,-0.99725,0,0,0.14286,-0,-0,0.66667
0.76442,0.10543,5.3509,-0.59186,-15.942,26.557,8.4453,-2.8151,-0.75557,11.26,-1.2683e-12,-0.37779,0,0,0.14286,-0,-1.8202e-16,0.66667
0.065672,0.63317,0.4597,0.19975,12.886,284.17,-0.24487,0.081622,-1.858,-0.32649,6.9649e-09,-0.92902,0,0,0.14286,-0,-0,0.66667
0.71272,0.63446,4.9891,0.20169,6.3744,37.068,-2.6834,0.89445,-1.8539,-3.5778,-6.4633e-12,-0.92697,0,0,0.14286,-0,-0,0.66667
0.19497,0.38152,1.3648,-0.17772,-11.072,224.86,0.64681,-0.2156,-1.8864,0.86241,4.3661e-10,-0.94319,0,0,0.14286,-0,-0,0.66667
0.77656,0.66816,5.4359,0.25223,6.4111,23.502,-3.6563,1.2188,-1.7726,-4.8751,1.0716e-10,-0.88631,0,0,0.14286,-0,-0,0.66667
0.25043,0.5076,1.753,0.011397,0.69124,200.19,-0.053277,0.017759,-2.0017,-0.071036,4.7787e-12,-1.0008,0,0,0.14286,-0,-0,0.66667
0.40375,0.97453,2.8262,0.7118,38.882,136.82,-5.3645,1.7882,-0.19919,-7.1527,8.8329e-13,-0.099595,0,0,0.14286,-0,-0,0.66667
0.8833,0.82686,6.1831,0.49029,6.8765,7.8044,-8.0839,2.6946,-1.1434,-10.779,4.7227e-09,-0.57172,0,0,0.14286,-0,-0,0.66667
0.65698,0.97919,4.5988,0.71879,26.657,52.116,-8.8149,2.9383,-0.16457,-11.753,4.3698e-13,-0.082283,0,0,0.14286,-0,-0,0.66667
0.081501,0.95598,0.57051,0.68396,44.322,276.93,-1.0406,0.34685,-0.33613,-1.3874,-1.8747e-08,-0.16806,0,0,0.14286,-0,-0,0.66667
0.13451,0.37497,0.94154,-0.18754,-11.929,252.34,0.47088,-0.15696,-1.8749,0.62784,5.6822e-09,-0.93747,0,0,0.14286,-2.3394e-16,0,0.66667
0.007682,0.092827,0.053774,-0.61076,-39.781,311.22,0.087578,-0.02919,-0.6733,0.11677,4.3749e-06,-0.33665,0,0,0.14286,1.3217e-17,0,0.66667
0.98219,0.018289,6.8753,-0.72257,-1.6362,1.9162,13.248,-4.4159,-0.14384,17.664,9.6374e-07,-0.071922,0,0,0.14286,2.7068e-15,-1.6426e-16,0.66667
0.047674,0.90892,0.33372,0.61338,39.865,292.6,-0.54586,0.18195,-0.66475,-0.72781,-8.4309e-07,-0.33237,0,0,0.14286,-0,-0,0.66667
0.10538,0.80014,0.73765,0.45022,28.92,265.81,-0.8856,0.2952,-1.2784,-1.1808,-1.283e-08,-0.63922,0,0,0.14286,-0,-0,0.66667
0.45747,0.79156,3.2023,0.43734,22.425,115.92,-3.7346,1.2449,-1.319,-4.9794,-3.0465e-13,-0.65952,0,0,0.14286,-0,-0,0.66667
0.054401,0.030179,0.3808,-0.70473,-45.858,289.5,0.71564,-0.23855,-0.23373,0.95418,-5.1172e-06,-0.11687,0,0,0.14286,4.2294e-17,0,0.66667
0.28909,0.93075,2.0236,0.64612,38.588,183.79,-3.4866,1.1622,-0.51431,-4.6488,1.9318e-14,-0.25716,0,0,0.14286,1.7117e-16,0,0.66667
0.67797,0.15526,4.7458,-0.5171,-18.097,46.092,6.5442,-2.1814,-1.0491,8.7256,3.9573e-12,-0.52453,0,0,0.14286,-1.438e-15,0,0.66667
0.048629,0.10223,0.3404,-0.59665,-38.761,292.15,0.5416,-0.18053,-0.73511,0.72214,3.6631e-07,-0.36756,0,0,0.14286,-8.4588e-17,0,0.66667
0.45797,0.27436,3.2058,-0.33847,-17.318,115.62,2.8935,-0.96449,-1.5919,3.858,-3.5083e-14,-0.79594,0,0,0.14286,3.3835e-16,0,0.66667
0.57276,0.1317,4.0093,-0.55245,-24.105,76.372,5.9065,-1.9688,-0.9139,7.8753,4.4542e-13,-0.45695,0,0,0.14286,-0,-0,0.66667
0.19927,0.979,1.3949,0.7185,45.044,223.22,-2.6726,0.89086,-0.16377,-3.5634,3.6319e-10,-0.081887,0,0,0.14286,-0,-0,0.66667
0.18617,0.27618,1.3032,-0.33574,-21.018,228.87,1.1667,-0.38891,-1.6008,1.5556,7.1306e-10,-0.80042,0,0,0.14286,-5.8943e-17,0,0.66667
0.10269,0.15264,0.71881,-0.52104,-33.525,267.08,0.99875,-0.33292,-1.0339,1.3317,2.9936e-08,-0.51696,0,0,0.14286,2.1147e-16,0,0.66667
0.0688,0.62323,0.4816,0.18485,11.918,282.72,-0.23739,0.079131,-1.8781,-0.31652,-3.5941e-09,-0.93905,0,0,0.14286,2.1147e-17,0,0.66667
0.16898,0.44195,1.1829,-0.087082,-5.4768,236.59,0.27469,-0.091564,-1.9736,0.36625,1.2962e-09,-0.9868,0,0,0.14286,-0,-0,0.66667
0.060817,0.56416,0.42572,0.09624,6.2092,286.42,-0.10926,0.036419,-1.969,-0.14567,1.5614e-07,-0.98449,0,0,0.14286,-0,-0,0.66667
0.55168,0.48582,3.8618,-0.02127,-0.95429,82.63,0.21903,-0.073012,-1.9971,0.29205,-1.4917e-13,-0.99855,0,0,0.14286,1.3534e-15,0,0.66667
0.80791,0.36717,5.6553,-0.19925,-4.4129,17.8,3.0049,-1.0016,-1.858,4.0065,-5.1863e-10,-0.92902,0,0,0.14286,6.7671e-16,0,0.66667
0.80434,0.79191,5.6304,0.43787,9.931,18.786,-6.5743,2.1914,-1.3166,-8.7657,3.339e-10,-0.65829,0,0,0.14286,-0,-0,0.66667
0.63118,0.95628,4.4183,0.68443,26.835,59.139,-8.0639,2.688,-0.33279,-10.752,3.6415e-14,-0.16639,0,0,0.14286,-0,-0,0.66667
0.54175,0.27632,3.7922,-0.33551,-15.33,86.103,3.3929,-1.131,-1.5991,4.5239,4.3965e-14,-0.79956,0,0,0.14286,-6.7671e-16,0,0.66667
0.46714,0.39516,3.2699,-0.15726,-7.9446,112.11,1.3713,-0.4571,-1.9128,1.8284,6.1506e-13,-0.95641,0,0,0.14286,-6.7671e-16,0,0.66667
0.96014,0.44631,6.721,-0.080539,-0.36471,1.1317,1.4435,-0.48115,-1.9754,1.9246,3.3842e-08,-0.9877,0,0,0.14286,2.7068e-15,0,0.66667
0.2899,0.52914,2.0293,0.043714,2.5905,183.07,-0.23655,0.078851,-1.9926,-0.3154,2.7716e-12,-0.99632,0,0,0.14286,1.6918e-16,0,0.66667
0.36643,0.44034,2.565,-0.089489,-5.0101,151.1,0.61211,-0.20404,-1.9708,0.81615,1.239e-12,-0.9854,0,0,0.14286,-1.3534e-15,0,0.66667
0.57534,0.97488,4.0274,0.71232,31.092,75.918,-7.6501,2.55,-0.1963,-10.2,9.4325e-13,-0.098152,0,0,0.14286,-0,-0,0.66667
0.51258,0.54727,3.5881,0.07091,3.3746,95.841,-0.67848,0.22616,-1.9817,-0.90464,8.8551e-13,-0.99085,0,0,0.14286,-6.7671e-16,0,0.66667
0.67424,0.021483,4.7197,-0.71778,-25.541,47.574,9.0337,-3.0112,-0.16846,12.045,4.6363e-13,-0.084228,0,0,0.14286,-0,-0,0.66667
0.77467,0.9113,5.4227,0.61695,16.002,24.628,-8.9214,2.9738,-0.64566,-11.895,6.0997e-11,-0.32283,0,0,0.14286,-0,-0,0.66667
0.18244,0.86178,1.2771,0.54267,34.124,230.65,-1.8481,0.61603,-0.95154,-2.4641,-9.5249e-10,-0.47577,0,0,0.14286,-3.3835e-16,0,0.66667
0.6289,0.1619,4.4023,-0.50715,-19.868,59.375,5.9536,-1.9845,-1.0853,7.9382,8.149e-13,-0.54266,0,0,0.14286,-0,-0,0.66667
0.69402,0.58745,4.8582,0.13118,4.3681,41.52,-1.6994,0.56648,-1.9376,-2.2659,-3.8691e-12,-0.96882,0,0,0.14286,3.3835e-16,0,0.66667
0.27231,0.79202,1.9062,0.43804,26.328,190.81,-2.2266,0.74219,-1.3161,-2.9688,9.9294e-12,-0.65806,0,0,0.14286,-0,-0,0.66667
0.92808,0.17284,6.4965,-0.49073,-4.2823,3.7175,8.5015,-2.8338,-1.142,11.335,-8.1303e-08,-0.57101,0,0,0.14286,-0,-0,0.66667
0.34525,0.51288,2.4168,0.019322,1.1006,159.76,-0.12452,0.041508,-1.9994,-0.16603,2.3614e-12,-0.99971,0,0,0.14286,-0,-0,0.66667
0.63808,0.87711,4.4666,0.56566,21.767,56.902,-6.7375,2.2458,-0.86351,-8.9833,-1.279e-13,-0.43176,0,0,0.14286,-0,-0,0.66667
0.9258,0.6681,6.4806,0.25216,2.2237,3.3748,-4.3576,1.4525,-1.7731,-5.8102,-5.5194e-10,-0.88656,0,0,0.14286,-0,-0,0.66667
0.98063,0.70771,6.8644,0.31157,0.63054,0.65874,-5.7033,1.9011,-1.6542,-7.6045,-4.8219e-08,-0.82708,0,0,0.14286,1.3534e-15,0,0.66667
0.24873,0.16139,1.7411,-0.50792,-30.971,201.13,2.3582,-0.78608,-1.0844,3.1443,-2.347e-11,-0.5422,0,0,0.14286,6.7671e-16,0,0.66667
0.94195,0.0028303,6.5937,-0.74575,-5.4874,3.7166,13.113,-4.3709,-0.022558,17.484,-1.2572e-06,-0.011279,0,0,0.14286,-0,-0,0.66667
0.90908,0.0056606,6.3635,-0.74151,-8.3992,6.1227,12.583,-4.1943,-0.045448,16.777,-2.5975e-08,-0.022724,0,0,0.14286,-0,-0,0.66667
0.25098,0.69021,1.7568,0.28532,17.324,200.01,-1.3367,0.44556,-1.7129,-1.7823,-9.9482e-12,-0.85644,0,0,0.14286,6.7671e-16,0,0.66667
0.10105,0.12034,0.70737,-0.5695,-36.686,267.85,1.0742,-0.35808,-0.8458,1.4323,3.2939e-09,-0.4229,0,0,0.14286,8.4588e-17,0,0.66667
0.36236,0.45733,2.5365,-0.064002,-3.5954,152.75,0.43291,-0.1443,-1.9852,0.57721,1.9873e-12,-0.99259,0,0,0.14286,3.3835e-16,0,0.66667
0.92363,0.63064,6.4654,0.19596,1.7743,3.4673,-3.3785,1.1262,-1.8647,-4.5047,1.0724e-08,-0.93233,0,0,0.14286,-2.7068e-15,0,0.66667
0.84527,0.95444,5.9169,0.68165,12.646,13.141,-10.755,3.5851,-0.3486,-14.341,6.7719e-09,-0.1743,0,0,0.14286,-0,-0,0.66667
0.25812,0.29777,1.8068,-0.30335,-18.35,196.89,1.4616,-0.48721,-1.6709,1.9488,6.0871e-12,-0.83546,0,0,0.14286,3.2678e-17,0,0.66667
0.27562,0.96631,1.9293,0.69947,42.174,189.63,-3.5987,1.1996,-0.26007,-4.7982,3.2381e-12,-0.13003,0,0,0.14286,4.2294e-16,0,0.66667
0.29828,0.38595,2.0879,-0.17108,-10.088,179.51,0.95254,-0.31751,-1.8969,1.2701,-3.5911e-12,-0.94844,0,0,0.14286,-0,-0,0.66667
0.081417,0.65253,0.56992,0.22879,14.727,276.86,-0.34771,0.1159,-1.8143,-0.46361,-4.2192e-09,-0.90716,0,0,0.14286,-2.1147e-16,0,0.66667
0.16833,0.73778,1.1783,0.35666,22.481,236.95,-1.1207,0.37357,-1.5471,-1.4943,-1.4102e-09,-0.77354,0,0,0.14286,-1.6918e-16,0,0.66667
0.61444,0.93696,4.3011,0.65544,26.565,63.894,-7.5176,2.5059,-0.4727,-10.023,7.6827e-14,-0.23635,0,0,0.14286,-6.7671e-16,0,0.66667
0.4924,0.90732,3.4468,0.61098,30.12,103.5,-5.6158,1.8719,-0.67229,-7.4877,-1.2221e-12,-0.33614,0,0,0.14286,1.3534e-15,0,0.66667
0.41191,0.2003,2.8833,-0.44955,-24.219,133.26,3.4565,-1.1522,-1.2799,4.6087,2.6208e-12,-0.63996,0,0,0.14286,-6.7671e-16,0,0.66667
0.5157,0.56419,3.6099,0.096291,4.5627,94.766,-0.92694,0.30898,-1.9704,-1.2359,2.9643e-13,-0.9852,0,0,0.14286,-0,-0,0.66667
0.88736,0.49583,6.2115,-0.0062554,-0.083228,6.7014,0.10362,-0.034539,-2.0002,0.13815,-5.3547e-09,-1.0001,0,0,0.14286,2.7068e-15,0,0.66667
0.9551,0.1493,6.6857,-0.52605,-2.8612,2.1758,9.3788,-3.1263,-1.0169,12.505,-2.5674e-07,-0.50846,0,0,0.14286,-0,-0,0.66667
0.25568,0.73144,1.7897,0.34715,21.039,197.98,-1.6568,0.55228,-1.57,-2.2091,1.0735e-12,-0.78498,0,0,0.14286,-0,-0,0.66667
0.23367,0.23431,1.6357,-0.39854,-24.449,207.69,1.7383,-0.57944,-1.4367,2.3178,4.7661e-11,-0.71833,0,0,0.14286,-3.3835e-16,0,0.66667
0.070154,0.19109,0.49108,-0.46336,-29.957,282.13,0.60679,-0.20226,-1.2357,0.80905,4.7121e-08,-0.61787,0,0,0.14286,1.6918e-16,0,0.66667
0.2597,0.13872,1.8179,-0.54193,-32.867,196.37,2.6271,-0.8757,-0.95415,3.5028,-7.3606e-12,-0.47708,0,0,0.14286,-0,-0,0.66667
0.17421,0.29027,1.2195,-0.31459,-19.778,234.26,1.023,-0.34101,-1.6485,1.364,1.203e-09,-0.82424,0,0,0.14286,-0,-0,0.66667
0.027562,0.31251,0.19294,-0.28124,-18.219,301.94,0.1447,-0.048233,-1.7197,0.19293,-7.8881e-08,-0.85984,0,0,0.14286,-0,-0,0.66667
0.17447,0.00024811,1.2213,-0.74963,-47.484,234.4,2.4414,-0.81379,-0.0035198,3.2551,6.0266e-10,-0.0017599,0,0,0.14286,-0,-0,0.66667
0.78046,0.34589,5.4632,-0.23116,-5.7813,22.737,3.3676,-1.1225,-1.8126,4.4902,-1.4978e-10,-0.9063,0,0,0.14286,-2.7068e-15,0,0.66667
0.92026,0.96037,6.4418,0.69055,6.8465,4.9863,-11.862,3.9541,-0.30548,-15.817,4.2211e-07,-0.15274,0,0,0.14286,-6.7671e-16,0,0.66667
0.72159,0.58927,5.0511,0.1339,4.1175,34.961,-1.8036,0.60121,-1.9368,-2.4048,-2.7937e-12,-0.96842,0,0,0.14286,-0,-0,0.66667
0.29842,0.88849,2.0889,0.58273,34.547,179.74,-3.2461,1.082,-0.79333,-4.3281,4.8455e-12,-0.39666,0,0,0.14286,-0,-0,0.66667
0.63146,0.25681,4.4202,-0.36478,-14.167,58.402,4.2998,-1.4333,-1.5256,5.7331,1.4846e-12,-0.76282,0,0,0.14286,-0,-0,0.66667
0.77018,0.0001895,5.3913,-0.74972,-19.926,25.929,10.779,-3.5928,-0.0019759,14.371,6.9556e-11,-0.00098793,0,0,0.14286,-0,-0,0.66667
0.4425,0.25967,3.0975,-0.3605,-18.779,121.43,2.9777,-0.99257,-1.5368,3.9703,6.8834e-15,-0.7684,0,0,0.14286,-0,-0,0.66667
0.61945,0.28477,4.3361,-0.32285,-12.846,61.805,3.7331,-1.2444,-1.6289,4.9774,1.65e-12,-0.81443,0,0,0.14286,-1.3534e-15,0,0.66667
0.57375,0.57005,4.0162,0.10507,4.5448,75.534,-1.1253,0.3751,-1.9601,-1.5004,3.3995e-13,-0.98004,0,0,0.14286,-1.3534e-15,0,0.66667
0.90274,0.61167,6.3192,0.16751,1.9324,5.229,-2.8227,0.94089,-1.8996,-3.7636,3.4079e-09,-0.94979,0,0,0.14286,-0,-0,0.66667
0.75239,0.17289,5.2667,-0.49067,-13.746,28.744,6.8912,-2.2971,-1.144,9.1883,2.5242e-12,-0.57201,0,0,0.14286,-0,-0,0.66667
0.26495,0.048723,1.8547,-0.67692,-41.047,194.22,3.3479,-1.116,-0.37225,4.4639,4.6796e-12,-0.18612,0,0,0.14286,-0,-0,0.66667
0.22937,0.136,1.6056,-0.546,-33.646,209.69,2.3377,-0.77923,-0.9388,3.1169,-4.023e-11,-0.4694,0,0,0.14286,-0,-0,0.66667
0.6936,0.33972,4.8552,-0.24042,-8.0249,41.712,3.1127,-1.0376,-1.7937,4.1503,7.0171e-12,-0.89686,0,0,0.14286,-6.7671e-16,0,0.66667
0.23301,0.65629,1.6311,0.23443,14.361,207.9,-1.0197,0.33989,-1.8071,-1.3596,-4.7325e-11,-0.90356,0,0,0.14286,-0,-0,0.66667
0.62193,0.28459,4.3535,-0.32311,-12.791,61.084,3.7511,-1.2504,-1.6294,5.0014,1.2115e-12,-0.81471,0,0,0.14286,-0,-0,0.66667
0.25494,0.67987,1.7846,0.26981,16.345,198.27,-1.284,0.42799,-1.7403,-1.712,-4.3788e-12,-0.87013,0,0,0.14286,-3.3835e-16,0,0.66667
0.92042,0.50062,6.4429,0.00092674,0.0087117,3.6087,-0.015922,0.0053076,-2.0023,-0.02123,1.6138e-07,-1.0012,0,0,0.14286,-0,-0,0.66667
0.30256,0.49417,2.1179,-0.0087448,-0.51392,177.66,0.049388,-0.016463,-1.9988,0.065851,1.9202e-12,-0.9994,0,0,0.14286,-1.6918e-16,0,0.66667
0.84854,0.45807,5.9398,-0.062901,-1.1141,11.474,0.99633,-0.33211,-1.9848,1.3284,-1.8283e-09,-0.9924,0,0,0.14286,-0,-0,0.66667
0.22971,0.052843,1.608,-0.67074,-41.431,209.64,2.876,-0.95868,-0.3994,3.8347,-8.4632e-12,-0.1997,0,0,0.14286,-0,-1.6155e-17,0.66667
0.5721,0.47714,4.0047,-0.034287,-1.4869,76.04,0.36615,-0.12205,-1.9945,0.4882,-2.3334e-13,-0.99725,0,0,0.14286,-0,-0,0.66667
0.1889,0.92066,1.3223,0.631,39.647,227.8,-2.225,0.74167,-0.58512,-2.9667,2.4491e-10,-0.29256,0,0,0.14286,-0,-0,0.66667
0.42001,0.78668,2.9401,0.43001,22.97,130.09,-3.3714,1.1238,-1.3437,-4.4952,-4.7207e-13,-0.67184,0,0,0.14286,-0,-0,0.66667
0.37624,0.11005,2.6337,-0.58493,-32.672,147.53,4.108,-1.3693,-0.78442,5.4774,2.3972e-12,-0.39221,0,0,0.14286,-6.7671e-16,0,0.66667
0.039037,0.31379,0.27326,-0.27932,-18.081,296.58,0.20353,-0.067845,-1.7221,0.27138,-6.5494e-08,-0.86107,0,0,0.14286,-0,-0,0.66667
0.12795,0.87577,0.89565,0.56366,36.08,255.47,-1.3462,0.44875,-0.87155,-1.795,-4.4852e-09,-0.43577,0,0,0.14286,3.3835e-16,0,0.66667
0.75376,0.24184,5.2763,-0.38724,-10.76,28.247,5.4485,-1.8162,-1.4664,7.2647,-1.4269e-11,-0.7332,0,0,0.14286,6.7671e-16,0,0.66667
0.41261,0.29163,2.8883,-0.31256,-16.793,132.85,2.4074,-0.80245,-1.6511,3.2098,-2.4425e-15,-0.82554,0,0,0.14286,-0,-0,0.66667
0.80409,0.41005,5.6286,-0.13493,-3.0395,18.395,2.0252,-0.67507,-1.9344,2.7003,-2.2522e-10,-0.96719,0,0,0.14286,-0,-0,0.66667
0.6699,0.66664,4.6893,0.24996,8.8723,47.754,-3.1256,1.0419,-1.7784,-4.1675,-3.9995e-12,-0.88919,0,0,0.14286,-0,-0,0.66667
0.38282,0.14763,2.6797,-0.52855,-29.316,144.82,3.777,-1.259,-1.0051,5.0361,1.7932e-12,-0.50257,0,0,0.14286,-0,-0,0.66667
0.49483,0.50932,3.4638,0.013973,0.68121,102.07,-0.12906,0.043021,-1.9981,-0.17209,-2.7493e-13,-0.99907,0,0,0.14286,-0,-0,0.66667
0.95056,0.12666,6.6539,-0.56,-3.384,2.5174,9.9365,-3.3122,-0.88623,13.249,-1.707e-07,-0.44311,0,0,0.14286,-0,-0,0.66667
0.94795,0.81977,6.6356,0.47965,3.0122,2.4124,-8.4874,2.8291,-1.181,-11.317,2.2666e-08,-0.59052,0,0,0.14286,-0,-0,0.66667
0.48498,0.57913,3.3949,0.1187,5.8633,105.61,-1.0746,0.35819,-1.9514,-1.4328,2.3304e-13,-0.9757,0,0,0.14286,6.7671e-16,0,0.66667
0.71243,0.94193,4.987,0.66289,21.242,38.019,-8.8156,2.9385,-0.43673,-11.754,-1.0454e-12,-0.21836,0,0,0.14286,-0,-0,0.66667
0.74983,0.30181,5.2488,-0.29728,-8.356,28.922,4.161,-1.387,-1.6879,5.5479,-1.2138e-11,-0.84393,0,0,0.14286,-0,-0,0.66667
0.5106,0.31647,3.5742,-0.2753,-13.158,96.642,2.6239,-0.87464,-1.7301,3.4986,4.0656e-13,-0.86504,0,0,0.14286,-1.3534e-15,0,0.66667
0.44701,0.71743,3.1291,0.32615,16.896,119.7,-2.7215,0.90716,-1.6215,-3.6286,-8.209e-13,-0.81075,0,0,0.14286,7.613e-16,0,0.66667
0.76902,0.19985,5.3831,-0.45023,-11.851,25.296,6.4631,-2.1544,-1.2787,8.6174,-1.6922e-11,-0.63936,0,0,0.14286,1.3534e-15,0,0.66667
0.41563,0.8541,2.9094,0.53114,28.552,131.91,-4.1208,1.3736,-0.99538,-5.4944,3.6549e-13,-0.49769,0,0,0.14286,-0,-0,0.66667
0.50009,0.39768,3.5006,-0.15349,-7.4341,100.24,1.4328,-0.4776,-1.9186,1.9104,-3.6049e-13,-0.95929,0,0,0.14286,-0,-0,0.66667
0.08748,0.21866,0.61236,-0.42201,-27.192,274.08,0.68912,-0.22971,-1.3667,0.91882,1.7992e-08,-0.68337,0,0,0.14286,-7.5997e-17,0,0.66667
0.90434,0.31461,6.3304,-0.27809,-3.17,5.2181,4.6944,-1.5648,-1.7267,6.2592,-1.123e-08,-0.86334,0,0,0.14286,-0,-0,0.66667
0.45473,0.95554,3.1831,0.68331,35.344,117.33,-5.8001,1.9334,-0.34053,-7.7335,5.9464e-13,-0.17026,0,0,0.14286,-6.7671e-16,0,0.66667
0.59906,0.65771,4.1934,0.23657,9.785,67.774,-2.6454,0.8818,-1.8009,-3.5272,-1.0416e-12,-0.90046,0,0,0.14286,1.3534e-15,0,0.66667
0.070556,0.64267,0.49389,0.21401,13.798,281.9,-0.28186,0.093952,-1.8353,-0.37581,-7.5128e-10,-0.91765,0,0,0.14286,8.4588e-17,0,0.66667
0.52944,0.98419,3.7061,0.72629,34.124,90.917,-7.1778,2.3926,-0.12493,-9.5704,1.6165e-13,-0.062463,0,0,0.14286,-6.7671e-16,0,0.66667
0.22131,0.21307,1.5492,-0.43039,-26.573,213.18,1.778,-0.59267,-1.342,2.3707,7.9992e-11,-0.67099,0,0,0.14286,1.6918e-16,0,0.66667
0.38519,0.50439,2.6963,0.0065848,0.36253,143.54,-0.047346,0.015782,-1.9992,-0.063128,6.4495e-13,-0.9996,0,0,0.14286,-0,-0,0.66667
0.56,0.28796,3.92,-0.31806,-14.111,80.094,3.3248,-1.1083,-1.6408,4.4331,-8.0114e-13,-0.8204,0,0,0.14286,1.3534e-15,0,0.66667
0.81503,0.43318,5.7052,-0.10022,-2.1408,16.542,1.5248,-0.50826,-1.9651,2.033,-1.2123e-10,-0.98255,0,0,0.14286,6.7671e-16,0,0.66667
0.26284,0.84909,1.8399,0.52364,31.691,194.98,-2.5692,0.85639,-1.0256,-3.4255,-4.7116e-12,-0.51279,0,0,0.14286,6.7671e-16,0,0.66667
0.72782,0.47373,5.0947,-0.039407,-1.1879,33.51,0.53538,-0.17846,-1.9935,0.71383,-3.0531e-14,-0.99674,0,0,0.14286,-0,-0,0.66667
0.49204,0.3654,3.4443,-0.2019,-9.8881,103.12,1.8544,-0.61814,-1.8534,2.4726,-1.3212e-13,-0.92671,0,0,0.14286,-0,-0,0.66667
0.30424,0.35736,2.1297,-0.21396,-12.57,176.98,1.2151,-0.40505,-1.8354,1.6202,-5.2964e-12,-0.91769,0,0,0.14286,-0,-0,0.66667
0.29041,0.19412,2.0329,-0.45881,-27.28,183.04,2.4872,-0.82907,-1.2503,3.3163,-5.4889e-12,-0.62515,0,0,0.14286,-0,-0,0.66667
0.2411,0.039655,1.6877,-0.69052,-42.43,204.64,3.1077,-1.0359,-0.30321,4.1436,1.2591e-11,-0.1516,0,0,0.14286,-6.7671e-16,0,0.66667
0.073163,0.15515,0.51214,-0.51727,-33.456,280.74,0.70645,-0.23548,-1.0488,0.94193,1.1614e-07,-0.52438,0,0,0.14286,-1.0574e-17,0,0.66667
0.58112,0.341,4.0678,-0.2385,-10.195,73.297,2.5872,-0.86238,-1.7985,3.4495,1.8963e-13,-0.89926,0,0,0.14286,-6.7671e-16,0,0.66667
0.62494,0.43467,4.3746,-0.097991,-3.8456,60.028,1.1431,-0.38104,-1.969,1.5242,6.9933e-13,-0.98452,0,0,0.14286,-3.3835e-16,0,0.66667
0.23524,0.52149,1.6467,0.03224,1.971,206.87,-0.14157,0.047191,-1.9978,-0.18876,-4.0396e-12,-0.9989,0,0,0.14286,-0,-0,0.66667
0.56429,0.40065,3.9501,-0.14902,-6.5522,78.57,1.5697,-0.52323,-1.9222,2.0929,4.9483e-13,-0.96111,0,0,0.14286,-6.7671e-16,0,0.66667
0.8726,0.7893,6.1082,0.43395,6.5955,8.8825,-7.0684,2.3561,-1.3309,-9.4245,6.1328e-09,-0.66543,0,0,0.14286,-0,-0,0.66667
0.80766,0.36148,5.6536,-0.20778,-4.6079,17.85,3.1325,-1.0442,-1.8452,4.1767,-5.1992e-10,-0.92261,0,0,0.14286,-0,-0,0.66667
0.40735,0.52843,2.8514,0.042652,2.2994,134.78,-0.32432,0.10811,-1.9957,-0.43243,3.5869e-13,-0.99786,0,0,0.14286,-3.3835e-16,0,0.66667
0.49622,0.41891,3.4736,-0.12163,-5.9207,101.59,1.1266,-0.37555,-1.9466,1.5022,8.4743e-13,-0.97331,0,0,0.14286,-1.3534e-15,0,0.66667
0.70639,0.042664,4.9447,-0.686,-22.39,39.513,9.0456,-3.0152,-0.32633,12.061,-2.6912e-13,-0.16316,0,0,0.14286,-0,-0,0.66667
0.57792,0.82615,4.0455,0.48922,21.123,74.627,-5.2777,1.7592,-1.1509,-7.0369,2.3181e-13,-0.57546,0,0,0.14286,-0,-3.227e-17,0.66667
0.75469,0.004817,5.2828,-0.74277,-20.88,28.999,10.464,-3.488,-0.037906,13.952,-3.1579e-11,-0.018953,0,0,0.14286,-0,-0,0.66667
0.95016,0.2406,6.6511,-0.3891,-2.305,2.0591,6.9013,-2.3004,-1.4616,9.2017,3.8977e-08,-0.73079,0,0,0.14286,-0,-0,0.66667
0.17702,0.42636,1.2392,-0.11047,-6.928,232.94,0.36503,-0.12168,-1.9553,0.48671,4.9597e-10,-0.97766,0,0,0.14286,1.6918e-16,0,0.66667
0.78926,0.94083,5.5248,0.66124,16.204,22.048,-9.7419,3.2473,-0.44454,-12.989,7.9551e-11,-0.22227,0,0,0.14286,2.7068e-15,0,0.66667
0.33497,0.19395,2.3448,-0.45907,-26.46,164.24,2.8704,-0.95681,-1.2494,3.8273,-2.9288e-13,-0.62471,0,0,0.14286,-0,-0,0.66667
0.56378,0.40497,3.9465,-0.14254,-6.2724,78.731,1.5001,-0.50003,-1.9301,2.0001,-2.1616e-13,-0.96504,0,0,0.14286,6.7671e-16,0,0.66667
0.20689,0.20808,1.4482,-0.43789,-27.216,219.61,1.6911,-0.5637,-1.3176,2.2548,2.1187e-10,-0.65879,0,0,0.14286,-1.6918e-16,0,0.66667
0.74097,0.045532,5.1868,-0.6817,-20.016,31.676,9.4289,-3.143,-0.34588,12.572,1.0063e-12,-0.17294,0,0,0.14286,-0,-0,0.66667
0.98,0.51363,6.86,0.020449,0.040977,0.38126,-0.37409,0.1247,-1.9974,-0.49878,2.5761e-08,-0.99871,0,0,0.14286,2.7068e-15,0,0.66667
0.83333,0.19865,5.8333,-0.45203,-8.8561,14.181,7.0316,-2.3439,-1.2722,9.3754,-8.1227e-10,-0.63608,0,0,0.14286,-0,-0,0.66667
0.62051,0.48939,4.3436,-0.015914,-0.63011,61.294,0.18433,-0.061443,-1.9981,0.24577,3.8691e-14,-0.99905,0,0,0.14286,-6.7671e-16,0,0.66667
0.49211,0.53688,3.4448,0.055317,2.7068,103.04,-0.50815,0.16938,-1.9879,-0.67753,-4.8622e-13,-0.99396,0,0,0.14286,1.3534e-15,0,0.66667
0.52358,0.46563,3.665,-0.051553,-2.4149,92.049,0.50385,-0.16795,-1.9897,0.6718,1.4233e-13,-0.99487,0,0,0.14286,-1.6918e-16,0,0.66667
0.93153,0.69868,6.5207,0.29802,2.4285,3.0312,-5.1821,1.7274,-1.6827,-6.9095,4.2515e-09,-0.84134,0,0,0.14286,-2.7068e-15,0,0.66667
0.15835,0.40239,1.1084,-0.14642,-9.2442,241.43,0.4328,-0.14427,-1.925,0.57706,1.7291e-09,-0.96249,0,0,0.14286,-1.6918e-16,0,0.66667
0.59051,0.34256,4.1336,-0.23616,-9.9251,70.383,2.6032,-0.86774,-1.8026,3.4709,-4.6319e-13,-0.90131,0,0,0.14286,-1.6918e-16,0,0.66667
0.63801,0.24598,4.466,-0.38104,-14.596,56.575,4.5379,-1.5126,-1.4846,6.0506,1.3007e-12,-0.74229,0,0,0.14286,6.7671e-16,0,0.66667
0.90792,0.27379,6.3555,-0.33932,-3.737,4.9965,5.7507,-1.9169,-1.5917,7.6676,-1.6485e-08,-0.79583,0,0,0.14286,1.3534e-15,0,0.66667
0.2694,0.3406,1.8858,-0.2391,-14.362,191.96,1.2024,-0.40079,-1.797,1.6032,-3.3751e-14,-0.89849,0,0,0.14286,-8.4588e-17,0,0.66667
0.71075,0.50843,4.9753,0.012651,0.40162,37.443,-0.16785,0.05595,-1.9979,-0.2238,9.5604e-13,-0.99895,0,0,0.14286,-0,-0,0.66667
0.35033,0.7624,2.4523,0.3936,22.393,157.84,-2.5739,0.85796,-1.4475,-3.4319,2.8721e-12,-0.72373,0,0,0.14286,-0,-0,0.66667
0.36439,0.96919,2.5507,0.70378,39.826,152.48,-4.787,1.5957,-0.23913,-6.3827,2.5366e-12,-0.11956,0,0,0.14286,-0,-0,0.66667
0.081405,0.23915,0.56984,-0.39128,-25.228,276.89,0.59458,-0.19819,-1.4552,0.79277,2.4028e-08,-0.72762,0,0,0.14286,-0,-0,0.66667
0.3283,0.55945,2.2981,0.08917,5.1465,166.81,-0.54646,0.18215,-1.9747,-0.72862,4.3328e-12,-0.98737,0,0,0.14286,-3.3835e-16,0,0.66667
0.32443,0.42529,2.271,-0.11206,-6.4868,168.43,0.67864,-0.22621,-1.9546,0.90486,-1.2623e-12,-0.97732,0,0,0.14286,-0,-0,0.66667
0.029581,0.22891,0.20706,-0.40663,-26.376,301,0.22453,-0.074844,-1.4129,0.29937,-2.6574e-07,-0.70643,0,0,0.14286,-8.4588e-17,0,0.66667
0.54957,0.33671,3.847,-0.24494,-11.042,83.426,2.5127,-0.83758,-1.787,3.3503,-1.7297e-13,-0.8935,0,0,0.14286,-0,-0,0.66667
0.70674,0.3877,4.9472,-0.16844,-5.4148,38.456,2.2222,-0.74073,-1.8984,2.9629,5.7123e-12,-0.94921,0,0,0.14286,-0,-0,0.66667
0.4985,0.88039,3.4895,0.57059,27.874,101.27,-5.3095,1.7698,-0.84386,-7.0794,-6.7057e-14,-0.42193,0,0,0.14286,-0,-2.1245e-16,0.66667
0.5273,0.29545,3.6911,-0.30682,-14.323,90.928,3.02,-1.0067,-1.6644,4.0267,-2.891e-13,-0.83219,0,0,0.14286,-0,-0,0.66667
0.10581,0.53832,0.7407,0.057485,3.6803,265.55,-0.11354,0.037848,-1.988,-0.15139,1.9134e-08,-0.99402,0,0,0.14286,3.3835e-16,0,0.66667
0.68474,0.87934,4.7932,0.56901,19.604,44.492,-7.273,2.4243,-0.84946,-9.6974,-1.8172e-12,-0.42473,0,0,0.14286,-2.7068e-15,3.2649e-18,0.66667
0.47114,0.11289,3.298,-0.58066,-29.38,111.1,5.1067,-1.7022,-0.80129,6.809,1.5956e-12,-0.40064,0,0,0.14286,-6.7671e-16,0,0.66667
0.22927,0.8793,1.6049,0.56895,35.077,209.75,-2.435,0.81165,-0.84851,-3.2466,1.0132e-10,-0.42426,0,0,0.14286,-0,-0,0.66667
0.85572,0.85186,5.9901,0.52778,9.0768,11.234,-8.4305,2.8102,-1.0092,-11.241,2.8059e-09,-0.5046,0,0,0.14286,-0,-0,0.66667
0.56519,0.76802,3.9563,0.40204,17.709,78.527,-4.2416,1.4139,-1.4252,-5.6555,-2.5624e-13,-0.71258,0,0,0.14286,-6.7671e-16,0,0.66667
0.99916,0.89649,6.9941,0.59473,-0.063733,1.1081,-11.092,3.6974,-0.74392,-14.79,-1.7536e-06,-0.37196,0,0,0.14286,-0,-0,0.66667
0.077097,0.31797,0.53968,-0.27304,-17.595,278.87,0.39295,-0.13098,-1.7368,0.52393,8.0683e-09,-0.86838,0,0,0.14286,-0,-0,0.66667
0.515,0.17398,3.605,-0.48903,-23.312,95.377,4.7013,-1.5671,-1.1512,6.2683,6.3061e-14,-0.57559,0,0,0.14286,-0,3.1678e-17,0.66667
0.30396,0.20562,2.1277,-0.44158,-26.016,177.25,2.5054,-0.83514,-1.3049,3.3406,-3.634e-12,-0.65244,0,0,0.14286,-0,-0,0.66667
0.86161,0.78636,6.0313,0.42953,7.0614,10.222,-6.9084,2.3028,-1.3449,-9.2112,4.8298e-09,-0.67245,0,0,0.14286,2.7068e-15,0,0.66667
0.16178,0.44413,1.1324,-0.083803,-5.2836,239.87,0.25307,-0.084356,-1.974,0.33742,9.4583e-10,-0.98702,0,0,0.14286,-0,-0,0.66667
0.0013843,0.43984,0.00969,-0.090236,-5.8436,314.16,0.0023313,-0.0007791,-1.9731,0.0031074,-2.9874e-06,-0.98654,0,0,0.14286,-0,-0,0.66667
0.44299,0.16485,3.1009,-0.50272,-26.238,121.42,4.157,-1.3857,-1.1002,5.5427,7.6161e-13,-0.5501,0,0,0.14286,-0,-0,0.66667
0.67716,0.99973,4.7401,0.7496,26.517,46.922,-9.4751,3.1584,-0.002304,-12.634,-1.7408e-13,-0.001152,0,0,0.14286,1.2688e-16,0,0.66667
0.96791,0.35873,6.7754,-0.2119,-0.76058,0.91943,3.8286,-1.2762,-1.8416,5.1047,3.4365e-08,-0.92081,0,0,0.14286,1.3534e-15,0,0.66667
0.62011,0.12849,4.3408,-0.55726,-22.262,62.009,6.4505,-2.1502,-0.89556,8.6007,-3.1974e-13,-0.44778,0,0,0.14286,1.3534e-15,0,0.66667
0.19035,0.92635,1.3325,0.63953,40.167,227.16,-2.2724,0.75748,-0.54562,-3.0299,-3.3784e-11,-0.27281,0,0,0.14286,-1.6918e-16,0,0.66667
0.36217,0.29186,2.5352,-0.31221,-17.572,152.93,2.1107,-0.70357,-1.6533,2.8143,-5.7088e-13,-0.82667,0,0,0.14286,6.7671e-16,0,0.66667
0.78006,0.16497,5.4604,-0.50254,-12.693,23.296,7.3175,-2.4392,-1.1033,9.7567,-2.9017e-11,-0.55167,0,0,0.14286,-0,-0,0.66667
0.32974,0.15921,2.3082,-0.51119,-29.607,166.47,3.1465,-1.0488,-1.0726,4.1953,-1.307e-12,-0.53631,0,0,0.14286,-0,-0,0.66667
0.16424,0.31847,1.1497,-0.27229,-17.172,238.78,0.83481,-0.27827,-1.7351,1.1131,1.786e-09,-0.86757,0,0,0.14286,-0,-0,0.66667
0.28507,0.99317,1.9955,0.73975,44.391,185.62,-3.9364,1.3121,-0.053982,-5.2486,6.0107e-13,-0.026991,0,0,0.14286,1.1842e-15,0,0.66667
0.04034,0.82931,0.28238,0.49397,32.057,296,-0.37197,0.12399,-1.1306,-0.49596,-1.1583e-07,-0.56532,0,0,0.14286,8.4588e-17,0,0.66667
0.75512,0.97231,5.2858,0.70847,19.849,28.794,-9.9863,3.3288,-0.21496,-13.315,1.603e-11,-0.10748,0,0,0.14286,-2.7068e-15,0,0.66667
0.28529,0.94636,1.997,0.66953,40.103,185.44,-3.5655,1.1885,-0.40549,-4.754,1.9131e-12,-0.20274,0,0,0.14286,-0,-0,0.66667
0.7645,0.31156,5.3515,-0.28265,-7.5323,25.899,4.0336,-1.3445,-1.7185,5.3782,-5.2643e-11,-0.85923,0,0,0.14286,-1.6072e-15,0,0.66667
0.84257,0.63037,5.898,0.19556,3.5999,12.401,-3.0758,1.0253,-1.8657,-4.101,1.7379e-09,-0.93287,0,0,0.14286,2.7068e-15,0,0.66667
0.45502,0.68833,3.1851,0.28249,14.493,116.67,-2.3994,0.79979,-1.7182,-3.1992,1.4093e-12,-0.85909,0,0,0.14286,-0,-0,0.66667
0.85839,0.65863,6.0087,0.23794,3.9663,10.294,-3.8126,1.2709,-1.8011,-5.0835,3.4613e-09,-0.90054,0,0,0.14286,2.7068e-15,0,0.66667
0.99143,0.94876,6.94,0.67314,0.67412,1.5161,-12.458,4.1525,-0.38721,-16.61,1.8803e-05,-0.1936,0,0,0.14286,-0,-0,0.66667
0.94175,0.82043,6.5923,0.48064,3.3864,2.776,-8.4493,2.8164,-1.178,-11.266,4.1525e-08,-0.58898,0,0,0.14286,-0,-0,0.66667
0.97927,0.49542,6.8549,-0.0068697,-0.0144,0.4008,0.12558,-0.041859,-1.9993,0.16744,8.3755e-07,-0.99963,0,0,0.14286,-1.3534e-15,0,0.66667
0.95065,0.89175,6.6546,0.58762,3.563,2.6059,-10.428,3.4759,-0.77224,-13.904,1.9601e-07,-0.38612,0,0,0.14286,-1.3534e-15,0,0.66667
0.96389,0.84945,6.7472,0.52417,2.2724,1.7713,-9.4312,3.1437,-1.0224,-12.575,-2.7906e-09,-0.51122,0,0,0.14286,2.7068e-15,0,0.66667
0.69794,0.65299,4.8855,0.22948,7.5682,40.637,-2.9897,0.99657,-1.8124,-3.9863,-6.348e-12,-0.90619,0,0,0.14286,-1.0151e-15,0,0.66667
0.15618,0.43843,1.0933,-0.092353,-5.8335,242.41,0.26925,-0.08975,-1.9732,0.359,-1.8098e-10,-0.9866,0,0,0.14286,-0,-0,0.66667
0.64676,0.28654,4.5273,-0.32019,-12.016,54.056,3.8656,-1.2885,-1.6345,5.1541,2.8479e-12,-0.81726,0,0,0.14286,-0,-0,0.66667
0.99073,0.98547,6.9351,0.7282,0.854,1.7656,-13.467,4.489,-0.11292,-17.956,2.1668e-05,-0.056459,0,0,0.14286,2.7068e-15,0,0.66667
0.24429,0.35672,1.71,-0.21492,-13.088,202.92,0.98003,-0.32668,-1.8342,1.3067,2.6559e-11,-0.91711,0,0,0.14286,6.7671e-16,0,0.66667
0.68176,0.52694,4.7723,0.040405,1.3893,44.562,-0.5142,0.1714,-1.9935,-0.68561,-9.4463e-13,-0.99674,0,0,0.14286,-6.7671e-16,0,0.66667
0.12926,0.94433,0.90483,0.66649,42.735,254.92,-1.6082,0.53606,-0.42005,-2.1442,-5.7816e-10,-0.21003,0,0,0.14286,-0,-0,0.66667
0.99818,0.4018,6.9873,-0.1473,0.047689,0.086921,2.7446,-0.91486,-1.9242,3.6594,-8.34e-07,-0.96209,0,0,0.14286,-3.3835e-16,0,0.66667
0.41986,0.3835,2.939,-0.17476,-9.3084,129.95,1.3696,-0.45654,-1.8921,1.8262,8.5554e-13,-0.94603,0,0,0.14286,-0,-0,0.66667
0.35068,0.69955,2.4548,0.29933,17.004,157.62,-1.9594,0.65313,-1.6797,-2.6125,4.1736e-12,-0.83984,0,0,0.14286,-0,-0,0.66667
0.20659,0.19178,1.4461,-0.46233,-28.749,219.76,1.7829,-0.5943,-1.2402,2.3772,1.8655e-10,-0.62012,0,0,0.14286,-0,-0,0.66667
0.85016,0.0082616,5.9511,-0.73761,-13.346,12.68,11.706,-3.9018,-0.064156,15.607,-3.6743e-10,-0.032078,0,0,0.14286,-0,-0,0.66667
0.6124,0.82578,4.2868,0.48866,19.788,64.127,-5.5862,1.8621,-1.1506,-7.4482,-1.7142e-13,-0.5753,0,0,0.14286,-0,-0,0.66667
0.57534,0.67458,4.0274,0.26187,11.311,75.134,-2.8124,0.93746,-1.756,-3.7498,5.258e-13,-0.87799,0,0,0.14286,-6.7671e-16,0,0.66667
0.24805,0.19061,1.7363,-0.46409,-28.288,201.4,2.1488,-0.71628,-1.2356,2.8651,2.6677e-11,-0.61782,0,0,0.14286,-6.7671e-16,0,0.66667
0.13351,0.054195,0.93455,-0.66871,-42.83,252.97,1.6665,-0.5555,-0.40857,2.222,-2.5121e-08,-0.20428,0,0,0.14286,8.4588e-17,0,0.66667
0.064967,0.69842,0.45477,0.29763,19.217,284.51,-0.36093,0.12031,-1.6852,-0.48125,3.9132e-09,-0.84258,0,0,0.14286,-0,-0,0.66667
0.60725,0.31245,4.2508,-0.28132,-11.461,65.353,3.1889,-1.063,-1.7205,4.2519,6.8145e-13,-0.86026,0,0,0.14286,1.7131e-15,0,0.66667
0.72959,0.57936,5.1072,0.11904,3.5697,33.14,-1.6212,0.54041,-1.9483,-2.1617,-1.6258e-12,-0.97416,0,0,0.14286,-1.3534e-15,0,0.66667
0.4249,0.43766,2.9743,-0.093517,-4.953,127.98,0.74172,-0.24724,-1.9702,0.98896,7.9714e-13,-0.98509,0,0,0.14286,-0,-0,0.66667
0.099,0.91922,0.693,0.62883,40.572,268.82,-1.1621,0.38736,-0.5926,-1.5494,2.7927e-08,-0.2963,0,0,0.14286,-0,-0,0.66667
0.089276,0.6007,0.62493,0.15104,9.705,273.21,-0.25171,0.083904,-1.9182,-0.33561,-2.0899e-08,-0.95912,0,0,0.14286,-1.6918e-16,0,0.66667
0.52952,0.48026,3.7066,-0.029606,-1.3747,90.023,0.29264,-0.097546,-1.9975,0.39018,5.0496e-13,-0.99876,0,0,0.14286,-0,-0,0.66667
0.33597,0.25846,2.3518,-0.36231,-20.837,163.74,2.2722,-0.7574,-1.5317,3.0296,-6.4726e-13,-0.76587,0,0,0.14286,-0,-0,0.66667
0.6614,0.58679,4.6298,0.13019,4.7114,49.909,-1.6074,0.53579,-1.9388,-2.1432,-2.1307e-12,-0.96941,0,0,0.14286,-0,-0,0.66667
0.9539,0.7147,6.6773,0.32206,1.7422,1.7221,-5.7345,1.9115,-1.6335,-7.6461,-6.4519e-08,-0.81675,0,0,0.14286,2.0301e-15,0,0.66667
0.048989,0.1339,0.34293,-0.54915,-35.643,291.98,0.50217,-0.16739,-0.92832,0.66957,1.7269e-07,-0.46416,0,0,0.14286,8.4588e-17,0,0.66667
0.12125,0.59496,0.84875,0.14244,9.0895,258.43,-0.3224,0.10747,-1.9285,-0.42986,-1.0446e-08,-0.96424,0,0,0.14286,-3.3835e-16,0,0.66667
0.60823,0.069076,4.2576,-0.64639,-26.511,65.702,7.3388,-2.4463,-0.51602,9.7851,2.2027e-13,-0.25801,0,0,0.14286,-0,-1.1243e-16,0.66667
0.29619,0.84512,2.0734,0.51768,30.696,180.62,-2.8622,0.95407,-1.05,-3.8163,4.8286e-12,-0.525,0,0,0.14286,-0,1.8301e-16,0.66667
0.71874,0.77776,5.0312,0.41664,12.991,35.963,-5.5899,1.8633,-1.3859,-7.4532,-1.0493e-11,-0.69295,0,0,0.14286,-1.3534e-15,0,0.66667
0.48481,0.8088,3.3937,0.4632,22.982,105.97,-4.1919,1.3973,-1.2398,-5.5891,-3.5927e-13,-0.6199,0,0,0.14286,-3.3835e-16,0,0.66667
0.95416,0.90269,6.6791,0.60404,3.4112,2.4839,-10.759,3.5862,-0.70484,-14.345,1.2514e-06,-0.35242,0,0,0.14286,1.6918e-15,0,0.66667
0.35878,0.25036,2.5114,-0.37446,-21.152,154.36,2.5078,-0.83594,-1.5046,3.3438,7.7582e-13,-0.75228,0,0,0.14286,-0,-0,0.66667
0.72512,0.76654,5.0759,0.39981,12.219,34.475,-5.4116,1.8039,-1.4299,-7.2155,-9.8788e-12,-0.71495,0,0,0.14286,-0,-0,0.66667
0.59297,0.27261,4.1508,-0.34108,-14.291,69.74,3.7753,-1.2584,-1.588,5.0337,-2.1916e-13,-0.79402,0,0,0.14286,6.7671e-16,0,0.66667
0.70173,0.86943,4.9121,0.55415,18.23,40.27,-7.2587,2.4196,-0.90965,-9.6783,-4.6283e-12,-0.45483,0,0,0.14286,-1.3534e-15,0,0.66667
0.28609,0.64282,2.0026,0.21423,12.736,184.74,-1.1441,0.38136,-1.8355,-1.5254,9.1749e-12,-0.91776,0,0,0.14286,3.3835e-16,0,0.66667
0.55036,0.0073181,3.8526,-0.73902,-33.645,83.996,7.5923,-2.5308,-0.057921,10.123,4.3565e-13,-0.028961,0,0,0.14286,-0,-0,0.66667
0.0072068,0.9965,0.050447,0.74475,48.648,311.45,-0.10034,0.033419,-0.027184,-0.1338,-4.0143e-05,-0.013592,0,0,0.14286,3.1721e-17,0,0.66667
0.95089,0.73424,6.6562,0.35136,2.0394,1.9372,-6.2367,2.0789,-1.5612,-8.3156,-4.8379e-08,-0.78059,0,0,0.14286,-1.3534e-15,0,0.66667
0.43824,0.37122,3.0676,-0.19317,-10.091,122.92,1.5802,-0.52672,-1.8697,2.1069,1.7764e-15,-0.93484,0,0,0.14286,-1.6918e-16,0,0.66667
0.35615,0.7316,2.493,0.34739,19.658,155.42,-2.3095,0.76983,-1.5704,-3.0793,3.4852e-12,-0.78522,0,0,0.14286,-0,-0,0.66667
0.10194,0.58169,0.71357,0.12254,7.8533,267.34,-0.23318,0.077727,-1.9448,-0.31091,-5.662e-09,-0.9724,0,0,0.14286,-0,-0,0.66667
0.23738,0.33081,1.6617,-0.25378,-15.515,205.98,1.1245,-0.37484,-1.7707,1.4994,4.8284e-11,-0.88533,0,0,0.14286,-0,-0,0.66667
0.29709,0.17858,2.0796,-0.48213,-28.554,180.2,2.6737,-0.89124,-1.1757,3.5649,-3.4692e-12,-0.58785,0,0,0.14286,3.3835e-16,0,0.66667
0.47856,0.18239,3.3499,-0.47641,-23.831,108.24,4.2559,-1.4186,-1.1921,5.6745,5.2891e-13,-0.59607,0,0,0.14286,-0,-0,0.66667
0.41502,0.63324,2.9051,0.19986,10.7,131.84,-1.5483,0.5161,-1.8565,-2.0644,2.6656e-13,-0.92826,0,0,0.14286,-0,-0,0.66667
0.056184,0.26058,0.39329,-0.35913,-23.228,288.6,0.37665,-0.12555,-1.5398,0.5022,-1.4515e-08,-0.76992,0,0,0.14286,1.6918e-16,0,0.66667
0.58894,0.62004,4.1226,0.18006,7.5846,70.824,-1.9795,0.65983,-1.8842,-2.6393,-3.4772e-13,-0.9421,0,0,0.14286,-0,-0,0.66667
0.067005,0.13597,0.46903,-0.54605,-35.365,283.61,0.68298,-0.22766,-0.9388,0.91064,5.1584e-08,-0.4694,0,0,0.14286,-0,-0,0.66667
0.27883,0.90532,1.9518,0.60798,36.511,188.15,-3.1644,1.0548,-0.68726,-4.2192,5.4885e-12,-0.34363,0,0,0.14286,-4.446e-16,0,0.66667
0.93135,0.66958,6.5194,0.25437,2.0722,2.9743,-4.4223,1.4741,-1.7683,-5.8965,-6.1443e-09,-0.88413,0,0,0.14286,1.3534e-15,0,0.66667
0.70165,0.30499,4.9116,-0.29252,-9.5576,39.805,3.8312,-1.2771,-1.697,5.1083,8.1852e-12,-0.84848,0,0,0.14286,-0,-0,0.66667
0.68369,0.22207,4.7859,-0.41689,-14.337,44.438,5.3205,-1.7735,-1.3823,7.094,5.4112e-12,-0.69113,0,0,0.14286,-0,-0,0.66667
0.35623,0.23193,2.4936,-0.4021,-22.77,155.43,2.6738,-0.89127,-1.4247,3.5651,7.3785e-13,-0.71234,0,0,0.14286,-0,-0,0.66667
0.59594,0.52362,4.1716,0.035423,1.4718,68.62,-0.39405,0.13135,-1.9962,-0.5254,-1.0246e-12,-0.99808,0,0,0.14286,1.3534e-15,0,0.66667
0.82071,0.68626,5.745,0.27939,5.8182,15.8,-4.2803,1.4268,-1.722,-5.707,9.388e-10,-0.86101,0,0,0.14286,1.8609e-15,0,0.66667
0.77901,0.60893,5.4531,0.16339,4.106,22.945,-2.376,0.792,-1.9052,-3.168,1.0324e-10,-0.9526,0,0,0.14286,-0,-0,0.66667
0.75092,0.77838,5.2564,0.41756,11.73,28.896,-5.853,1.951,-1.3824,-7.804,-4.9836e-12,-0.6912,0,0,0.14286,5.0753e-16,0,0.66667
0.53154,0.056081,3.7208,-0.66588,-31.13,90.071,6.6069,-2.2023,-0.42588,8.8092,1.7497e-13,-0.21294,0,0,0.14286,-0,-0,0.66667
0.74519,0.8227,5.2163,0.48404,13.898,30.242,-6.7332,2.2444,-1.1658,-8.9775,-2.3848e-12,-0.58292,0,0,0.14286,-0,-0,0.66667
0.21772,0.41978,1.524,-0.12033,-7.4203,214.66,0.48902,-0.16301,-1.9497,0.65202,1.1167e-10,-0.97483,0,0,0.14286,-3.3835e-16,0,0.66667
0.51855,0.57939,3.6299,0.11908,5.6202,93.791,-1.1526,0.38422,-1.9493,-1.5369,-3.1564e-13,-0.97463,0,0,0.14286,6.7671e-16,0,0.66667
0.81265,0.86599,5.6885,0.54898,12.032,17.67,-8.3277,2.7759,-0.93067,-11.104,7.1239e-10,-0.46534,0,0,0.14286,-6.7671e-16,0,0.66667
0.27694,0.25652,1.9386,-0.36522,-21.868,188.76,1.888,-0.62933,-1.5252,2.5173,-4.2765e-12,-0.76262,0,0,0.14286,6.7671e-16,0,0.66667
0.50368,0.54304,3.5257,0.064559,3.1104,98.948,-0.60698,0.20233,-1.9845,-0.8093,9.2937e-13,-0.99225,0,0,0.14286,-0,-0,0.66667
0.65239,0.09754,4.5667,-0.60369,-22.531,53.045,7.3517,-2.4506,-0.70431,9.8022,1.0938e-12,-0.35215,0,0,0.14286,-0,-0,0.66667
0.08124,0.28293,0.56868,-0.32561,-20.978,276.95,0.49377,-0.16459,-1.6239,0.65837,1.523e-08,-0.81197,0,0,0.14286,3.3835e-16,0,0.66667
0.14553,0.27324,1.0187,-0.34014,-21.594,247.33,0.92397,-0.30799,-1.5877,1.232,3.682e-09,-0.79385,0,0,0.14286,-0,-0,0.66667
0.59348,0.93421,4.1544,0.65132,27.471,70.151,-7.2155,2.4052,-0.49457,-9.6206,4.0057e-13,-0.24728,0,0,0.14286,1.6918e-16,-6.3726e-17,0.66667
0.41393,0.024229,2.8975,-0.71366,-38.598,132.87,5.5142,-1.8381,-0.18776,7.3522,-1.6755e-12,-0.093878,0,0,0.14286,-0,-0,0.66667
0.13115,0.39261,0.91802,-0.16109,-10.254,253.88,0.39435,-0.13145,-1.906,0.5258,2.7065e-09,-0.95302,0,0,0.14286,1.6918e-16,0,0.66667
0.80877,0.86814,5.6614,0.55221,12.331,18.321,-8.3367,2.7789,-0.91552,-11.116,1.2354e-10,-0.45776,0,0,0.14286,6.7671e-16,0,0.66667
0.71564,0.28785,5.0095,-0.31823,-9.991,36.521,4.2511,-1.417,-1.64,5.6681,9.083e-12,-0.82002,0,0,0.14286,-0,-0,0.66667
0.97583,0.28545,6.8308,-0.32183,-0.85093,0.81912,5.8622,-1.9541,-1.6308,7.8163,1.0761e-07,-0.8154,0,0,0.14286,-0,-0,0.66667
0.040034,0.77323,0.28024,0.40984,26.565,296.13,-0.30627,0.10209,-1.4014,-0.40836,7.4418e-08,-0.70068,0,0,0.14286,4.2294e-17,0,0.66667
0.80309,0.78713,5.6216,0.43069,9.8221,18.984,-6.4566,2.1522,-1.3394,-8.6088,3.8417e-10,-0.66969,0,0,0.14286,-0,-0,0.66667
0.49155,0.76403,3.4409,0.39604,19.456,103.47,-3.6339,1.2113,-1.4405,-4.8452,-3.3418e-13,-0.72023,0,0,0.14286,-6.7671e-16,0,0.66667
0.19478,0.51431,1.3634,0.02147,1.337,224.92,-0.07806,0.02602,-1.9965,-0.10408,-1.0735e-10,-0.99825,0,0,0.14286,6.7671e-16,0,0.66667
0.14213,0.99615,0.99493,0.74423,47.634,249.08,-1.9745,0.65818,-0.032346,-2.6327,-4.1674e-09,-0.016173,0,0,0.14286,2.5377e-16,0,0.66667
0.19893,0.33177,1.3925,-0.25234,-15.703,223.09,0.93705,-0.31235,-1.7726,1.2494,3.7219e-10,-0.88632,0,0,0.14286,-0,-0,0.66667
0.0073553,0.33649,0.051487,-0.24526,-15.895,311.37,0.033674,-0.011225,-1.7847,0.044899,9.4365e-08,-0.89236,0,0,0.14286,-0,-0,0.66667
0.12102,0.53567,0.84716,0.053511,3.4138,258.53,-0.12089,0.040295,-1.9898,-0.16118,-1.2693e-08,-0.99488,0,0,0.14286,-3.3835e-16,0,0.66667
0.69054,0.31819,4.8338,-0.27271,-9.1832,42.508,3.5153,-1.1718,-1.7358,4.687,7.6215e-12,-0.86792,0,0,0.14286,-1.3534e-15,0,0.66667
0.2922,0.89439,2.0454,0.59159,35.22,182.4,-3.2267,1.0756,-0.75448,-4.3023,4.7262e-12,-0.37724,0,0,0.14286,3.3835e-16,0,0.66667
0.49257,0.89587,3.448,0.5938,29.253,103.41,-5.4597,1.8199,-0.74463,-7.2797,5.1292e-13,-0.37231,0,0,0.14286,-0,-0,0.66667
0.88095,0.81143,6.1666,0.46714,6.6677,8.0037,-7.6818,2.5606,-1.2239,-10.242,1.2032e-08,-0.61196,0,0,0.14286,-4.2294e-16,0,0.66667
0.5238,0.641,3.6666,0.2115,9.9132,92.042,-2.0679,0.68931,-1.8391,-2.7573,-5.2625e-14,-0.91953,0,0,0.14286,6.7671e-16,0,0.66667
0.70601,0.66852,4.9421,0.25279,8.1524,38.709,-3.3314,1.1105,-1.7726,-4.4419,-7.9712e-12,-0.88628,0,0,0.14286,-0,-0,0.66667
0.15105,0.79881,1.0574,0.44821,28.447,244.85,-1.2638,0.42127,-1.2843,-1.6851,-2.9751e-09,-0.64214,0,0,0.14286,-1.6918e-16,0,0.66667
0.43644,0.12165,3.0551,-0.56753,-29.874,123.99,4.6236,-1.5412,-0.85694,6.1648,2.2289e-12,-0.42847,0,0,0.14286,1.6918e-16,6.4794e-17,0.66667
0.89086,0.94844,6.236,0.67266,8.9922,7.5854,-11.186,3.7286,-0.39323,-14.915,-7.0563e-08,-0.19662,0,0,0.14286,-0,-0,0.66667
0.15977,0.19566,1.1184,-0.45651,-28.896,240.88,1.3615,-0.45383,-1.2587,1.8153,1.5074e-09,-0.62936,0,0,0.14286,-0,-0,0.66667
0.11866,0.40741,0.83059,-0.13889,-8.8679,259.63,0.30762,-0.10254,-1.9311,0.41016,1.0074e-08,-0.96556,0,0,0.14286,-3.3835e-16,0,0.66667
0.82221,0.86054,5.7554,0.54081,11.295,16.111,-8.3002,2.7667,-0.95845,-11.067,8.6448e-10,-0.47922,0,0,0.14286,-0,-0,0.66667
0.058073,0.36444,0.40651,-0.20334,-13.13,287.71,0.22042,-0.073475,-1.852,0.2939,-3.7516e-08,-0.92601,0,0,0.14286,-0,-0,0.66667
0.23225,0.68184,1.6257,0.27276,16.721,208.25,-1.1825,0.39416,-1.7364,-1.5766,-6.4344e-11,-0.86819,0,0,0.14286,3.3835e-16,0,0.66667
0.59496,0.98912,4.1647,0.73367,30.948,69.913,-8.1481,2.716,-0.087241,-10.864,1.1626e-12,-0.043621,0,0,0.14286,-0,-0,0.66667
0.71146,0.41434,4.9802,-0.12848,-4.0726,37.312,1.7064,-0.56878,-1.9398,2.2751,4.7041e-12,-0.96991,0,0,0.14286,-0,-0,0.66667
0.43296,0.072959,3.0307,-0.64056,-33.904,125.43,5.1769,-1.7256,-0.54008,6.9025,4.2766e-13,-0.27004,0,0,0.14286,1.3534e-15,0,0.66667
0.47992,0.005084,3.3594,-0.74237,-37.322,108.24,6.6506,-2.2169,-0.040081,8.8674,-1.303e-12,-0.02004,0,0,0.14286,2.7068e-15,-9.6659e-17,0.66667
0.086929,0.78992,0.6085,0.43489,28.029,274.34,-0.70568,0.23523,-1.3261,-0.94091,-2.2415e-08,-0.66303,0,0,0.14286,-0,-0,0.66667
0.61004,0.94796,4.2703,0.67194,27.486,65.231,-7.6516,2.5505,-0.39628,-10.202,1.4388e-13,-0.19814,0,0,0.14286,-0,-0,0.66667
0.28032,0.88183,1.9622,0.57274,34.34,187.47,-2.997,0.99899,-0.8354,-3.9959,2.6075e-12,-0.4177,0,0,0.14286,-0,1.1555e-16,0.66667
0.91892,0.34558,6.4324,-0.23163,-2.2324,3.883,3.9732,-1.3244,-1.8102,5.2976,-4.3197e-09,-0.9051,0,0,0.14286,-0,-0,0.66667
0.23822,0.098807,1.6675,-0.60179,-36.961,205.83,2.676,-0.892,-0.71226,3.568,8.2445e-12,-0.35613,0,0,0.14286,-0,-0,0.66667
0.75065,0.098175,5.2546,-0.60274,-17.065,29.392,8.4457,-2.8152,-0.71062,11.261,1.6386e-11,-0.35531,0,0,0.14286,-0,-0,0.66667
0.70514,0.74125,4.936,0.36188,11.725,39.064,-4.7633,1.5878,-1.535,-6.351,-9.4182e-12,-0.76751,0,0,0.14286,6.7671e-16,0,0.66667
0.12278,0.10137,0.85947,-0.59794,-38.349,257.85,1.3704,-0.45681,-0.72937,1.8273,-2.5662e-08,-0.36468,0,0,0.14286,-0,-0,0.66667
0.20873,0.73491,1.4611,0.35236,21.858,218.74,-1.3729,0.45763,-1.557,-1.8305,-2.4174e-10,-0.77848,0,0,0.14286,3.3835e-16,0,0.66667
0.19717,0.33817,1.3802,-0.24274,-15.116,223.88,0.89342,-0.29781,-1.7895,1.1912,3.8248e-10,-0.89476,0,0,0.14286,-0,-0,0.66667
0.78433,0.68777,5.4903,0.28165,6.9401,22.075,-4.1236,1.3745,-1.7192,-5.4981,1.6264e-10,-0.85958,0,0,0.14286,-0,-0,0.66667
0.55115,0.047646,3.8581,-0.67853,-30.793,83.592,6.9808,-2.3269,-0.36193,9.3078,1.2954e-12,-0.18096,0,0,0.14286,-6.7671e-16,0,0.66667
0.50799,0.84727,3.5559,0.5209,25.093,97.861,-4.9394,1.6465,-1.0344,-6.5858,6.1195e-13,-0.51719,0,0,0.14286,-0,-0,0.66667
0.74258,0.32315,5.198,-0.26527,-7.6389,30.421,3.677,-1.2257,-1.7481,4.9027,-3.1621e-12,-0.87404,0,0,0.14286,-0,-0,0.66667
0.87749,0.77433,6.1424,0.41149,6.016,8.261,-6.7401,2.2467,-1.3984,-8.9868,6.7912e-09,-0.69922,0,0,0.14286,-0,-0,0.66667
0.070046,0.20967,0.49032,-0.4355,-28.144,282.17,0.56942,-0.18981,-1.3241,0.75923,4.6939e-08,-0.66203,0,0,0.14286,-0,-0,0.66667
0.37632,0.79928,2.6343,0.44891,25.007,147.33,-3.1535,1.0512,-1.2844,-4.2046,1.6267e-12,-0.64218,0,0,0.14286,-6.7671e-16,0,0.66667
0.34177,0.35177,2.3924,-0.22235,-12.711,161.25,1.4185,-0.47284,-1.825,1.8914,-7.9614e-13,-0.91248,0,0,0.14286,-0,-0,0.66667
0.84428,0.24471,5.91,-0.38294,-7.02,12.443,6.0351,-2.0117,-1.4809,8.0467,-2.5018e-09,-0.74046,0,0,0.14286,6.7671e-16,0,0.66667
0.76885,0.67753,5.382,0.2663,6.9778,25.014,-3.8219,1.274,-1.7476,-5.0959,6.7925e-11,-0.87378,0,0,0.14286,6.7671e-16,0,0.66667
0.5325,0.78639,3.7275,0.42958,19.939,89.32,-4.27,1.4233,-1.3455,-5.6934,2.4425e-13,-0.67277,0,0,0.14286,1.3534e-15,0,0.66667
0.089548,0.037124,0.62684,-0.69431,-44.94,273.21,1.1606,-0.38686,-0.28559,1.5475,-6.5585e-07,-0.14279,0,0,0.14286,-0,-0,0.66667
0.92511,0.70405,6.4758,0.30607,2.7342,3.5133,-5.2854,1.7618,-1.6664,-7.0472,1.2244e-08,-0.8332,0,0,0.14286,-0,-0,0.66667
0.55794,0.054578,3.9056,-0.66813,-29.982,81.359,6.9586,-2.3195,-0.412,9.2781,2.74e-13,-0.206,0,0,0.14286,3.3835e-16,-1.0872e-17,0.66667
0.023909,0.61852,0.16737,0.17778,11.51,303.64,-0.079344,0.026448,-1.8863,-0.10579,1.7031e-08,-0.94316,0,0,0.14286,5.6451e-17,0,0.66667
0.64606,0.72693,4.5224,0.34039,12.799,54.274,-4.1051,1.3684,-1.5869,-5.4734,-1.7693e-12,-0.79344,0,0,0.14286,-0,-0,0.66667
0.27371,0.95235,1.916,0.67852,40.937,190.43,-3.4667,1.1556,-0.36117,-4.6223,5.3879e-12,-0.18058,0,0,0.14286,-0,-0,0.66667
0.45368,0.64093,3.1757,0.21139,10.855,117.12,-1.7902,0.59673,-1.8427,-2.3869,7.9936e-15,-0.92133,0,0,0.14286,-0,-0,0.66667
0.89562,0.55546,6.2693,0.083191,1.0275,5.864,-1.3908,0.4636,-1.9745,-1.8544,1.2958e-08,-0.98726,0,0,0.14286,-6.7671e-16,0,0.66667
0.20404,0.24962,1.4283,-0.37557,-23.352,220.85,1.4305,-0.47683,-1.5013,1.9073,2.7223e-10,-0.75065,0,0,0.14286,3.1721e-17,0,0.66667
0.11364,0.12572,0.79547,-0.56142,-36.062,262.04,1.1909,-0.39697,-0.8798,1.5879,1.1944e-08,-0.4399,0,0,0.14286,-0,-0,0.66667
0.61817,0.82868,4.3272,0.49303,19.739,62.444,-5.6891,1.8964,-1.1339,-7.5855,1.954e-14,-0.56695,0,0,0.14286,-0,-0,0.66667
0.67549,0.37953,4.7284,-0.1807,-6.3198,46.238,2.2785,-0.7595,-1.884,3.038,5.0862e-12,-0.94201,0,0,0.14286,-2.7068e-15,0,0.66667
0.98885,0.48398,6.922,-0.024031,-0.020809,0.16894,0.44357,-0.14786,-1.9968,0.59143,-5.1801e-06,-0.99839,0,0,0.14286,-0,-0,0.66667
0.32157,0.57126,2.251,0.10689,6.2001,169.63,-0.64161,0.21387,-1.9579,-0.85547,5.4707e-12,-0.97896,0,0,0.14286,-0,-0,0.66667
0.90723,0.6197,6.3506,0.17955,1.9769,4.8256,-3.0407,1.0136,-1.8873,-4.0543,-5.9872e-11,-0.94364,0,0,0.14286,6.7671e-16,0,0.66667
0.59047,0.84133,4.1333,0.512,21.628,70.773,-5.6433,1.8811,-1.0686,-7.5245,6.2528e-13,-0.5343,0,0,0.14286,-3.3835e-16,0,0.66667
0.076837,0.81593,0.53786,0.47389,30.612,279.03,-0.6797,0.22657,-1.2034,-0.90627,-3.9973e-08,-0.60172,0,0,0.14286,-0,-0,0.66667
0.93059,0.025954,6.5141,-0.71107,-6.1835,4.3046,12.352,-4.1173,-0.20115,16.469,-1.3047e-06,-0.10057,0,0,0.14286,-1.3534e-15,0,0.66667
0.54246,0.74558,3.7972,0.36837,16.822,85.903,-3.7301,1.2434,-1.5173,-4.9735,4.2455e-13,-0.75863,0,0,0.14286,-1.0151e-15,0,0.66667
0.47386,0.94375,3.317,0.66563,33.64,110.27,-5.8878,1.9626,-0.42386,-7.8504,1.1058e-13,-0.21193,0,0,0.14286,-0,-0,0.66667
0.54448,0.051543,3.8113,-0.67268,-30.843,85.772,6.8369,-2.279,-0.39126,9.1158,7.3452e-13,-0.19563,0,0,0.14286,-0,-0,0.66667
0.52734,0.99163,3.6914,0.73745,34.768,91.654,-7.2592,2.4197,-0.065829,-9.679,-1.0529e-12,-0.032914,0,0,0.14286,-1.0151e-15,-1.3266e-16,0.66667
0.66148,0.11325,4.6303,-0.58013,-21.182,50.545,7.1632,-2.3877,-0.80202,9.5509,1.4131e-12,-0.40101,0,0,0.14286,-0,-0,0.66667
0.64445,0.93366,4.5111,0.65049,24.754,55.337,-7.8252,2.6084,-0.49562,-10.434,5.5955e-13,-0.24781,0,0,0.14286,-6.7671e-16,0,0.66667
0.17293,0.29964,1.2105,-0.30054,-18.901,234.84,0.97016,-0.32339,-1.68,1.2936,1.2864e-09,-0.83999,0,0,0.14286,-1.6918e-16,0,0.66667
0.50754,0.067573,3.5528,-0.64864,-31.366,98.253,6.1452,-2.0484,-0.50294,8.1936,1.5357e-12,-0.25147,0,0,0.14286,-1.3534e-15,0,0.66667
0.17819,0.88408,1.2473,0.57612,36.307,232.59,-1.9163,0.63876,-0.81839,-2.555,-4.2426e-10,-0.40919,0,0,0.14286,-0,-0,0.66667
0.46566,0.75635,3.2596,0.38453,19.51,112.83,-3.3425,1.1142,-1.4744,-4.4567,6.5725e-13,-0.73721,0,0,0.14286,-1.3534e-15,0,0.66667
0.095605,0.1393,0.66924,-0.54106,-34.875,270.35,0.96558,-0.32186,-0.95957,1.2874,1.5442e-08,-0.47978,0,0,0.14286,-0,-0,0.66667
0.90893,0.29188,6.3625,-0.31218,-3.3951,4.8562,5.2967,-1.7656,-1.6535,7.0623,-1.4097e-08,-0.82674,0,0,0.14286,-0,-0,0.66667
0.84302,0.68888,5.9011,0.28332,5.2138,12.448,-4.4584,1.4861,-1.7174,-5.9445,2.3145e-09,-0.85869,0,0,0.14286,2.7068e-15,0,0.66667
0.20466,0.17407,1.4326,-0.48889,-30.439,220.64,1.8677,-0.62258,-1.1509,2.4903,1.4194e-10,-0.57544,0,0,0.14286,-0,-0,0.66667
0.22201,0.42071,1.5541,-0.11894,-7.3199,212.75,0.49289,-0.1643,-1.9492,0.65719,8.5668e-11,-0.97458,0,0,0.14286,-0,-0,0.66667
0.56481,0.059662,3.9537,-0.66051,-29.3,79.133,6.9638,-2.3213,-0.45004,9.2851,2.7178e-13,-0.22502,0,0,0.14286,1.6918e-16,0,0.66667
0.041276,0.55519,0.28893,0.082792,5.3521,295.53,-0.06379,0.021263,-1.9745,-0.085053,-4.3072e-08,-0.98727,0,0,0.14286,4.2294e-17,0,0.66667
0.97916,0.80337,6.8541,0.45505,1.0585,1.0347,-8.3172,2.7724,-1.2626,-11.09,-4.1456e-07,-0.63129,0,0,0.14286,-0,-0,0.66667
0.34441,0.22292,2.4109,-0.41563,-23.765,160.29,2.6721,-0.89069,-1.3882,3.5628,7.1676e-13,-0.69408,0,0,0.14286,-0,-0,0.66667
0.29624,0.012106,2.0737,-0.73184,-43.597,180.84,4.047,-1.349,-0.097231,5.396,1.1826e-12,-0.048616,0,0,0.14286,-0,-0,0.66667
0.92794,0.47992,6.4956,-0.030121,-0.25584,3.0346,0.52175,-0.17392,-1.9952,0.69567,-4.7806e-08,-0.99761,0,0,0.14286,-0,-0,0.66667
0.24446,0.30123,1.7112,-0.29816,-18.169,202.88,1.3605,-0.45352,-1.6825,1.8141,2.3558e-11,-0.84125,0,0,0.14286,-3.3835e-16,0,0.66667
0.40519,0.92071,2.8363,0.63107,34.353,136.13,-4.7731,1.591,-0.58509,-6.3641,-1.3767e-13,-0.29255,0,0,0.14286,-0,-0,0.66667
0.1838,0.8968,1.2866,0.59519,37.444,230.07,-2.0421,0.68069,-0.7399,-2.7228,1.0187e-09,-0.36995,0,0,0.14286,-0,-0,0.66667
0.086017,0.79136,0.60212,0.43704,28.174,274.76,-0.70174,0.23391,-1.3192,-0.93565,-2.4143e-08,-0.65959,0,0,0.14286,-0,-0,0.66667
0.91325,0.62485,6.3928,0.18727,1.9282,4.3017,-3.1925,1.0642,-1.8751,-4.2567,-6.7367e-09,-0.93756,0,0,0.14286,1.6495e-15,0,0.66667
0.27731,0.32441,1.9412,-0.26338,-15.749,188.54,1.3634,-0.45446,-1.7525,1.8178,-3.3882e-12,-0.87627,0,0,0.14286,-0,-0,0.66667
0.7783,0.62723,5.4481,0.19084,4.8114,23.103,-2.7726,0.9242,-1.8714,-3.6968,1.1023e-10,-0.93571,0,0,0.14286,-2.7068e-15,0,0.66667
0.16216,0.50909,1.1351,0.013641,0.85984,239.69,-0.041291,0.013764,-1.998,-0.055054,-5.8927e-10,-0.99899,0,0,0.14286,-0,-0,0.66667
0.66577,0.30113,4.6604,-0.2983,-10.704,48.897,3.7072,-1.2357,-1.682,4.9429,3.9904e-12,-0.84102,0,0,0.14286,-0,-0,0.66667
0.27436,0.80006,1.9205,0.45009,27.024,189.93,-2.3051,0.76836,-1.278,-3.0734,7.6477e-12,-0.63898,0,0,0.14286,-0,-0,0.66667
0.72525,0.54699,5.0768,0.070492,2.1423,34.096,-0.95433,0.31811,-1.9805,-1.2724,-1.2403e-12,-0.99027,0,0,0.14286,-1.3534e-15,0,0.66667
0.057234,0.30616,0.40064,-0.29077,-18.79,288.11,0.31065,-0.10355,-1.6985,0.41419,-2.705e-08,-0.84926,0,0,0.14286,-8.4588e-17,0,0.66667
0.66212,0.32105,4.6348,-0.26843,-9.7124,49.83,3.3177,-1.1059,-1.7425,4.4236,3.3253e-12,-0.87125,0,0,0.14286,1.3534e-15,0,0.66667
0.056097,0.61804,0.39268,0.17707,11.434,288.63,-0.18541,0.061804,-1.8873,-0.24722,2.7397e-08,-0.94364,0,0,0.14286,-0,-0,0.66667
0.65752,0.77573,4.6026,0.41359,15.171,51.264,-5.0763,1.6921,-1.3934,-6.7684,-2.6943e-12,-0.69671,0,0,0.14286,-3.3835e-16,0,0.66667
0.34971,0.85953,2.448,0.53929,30.773,158.24,-3.5205,1.1735,-0.96424,-4.694,2.5804e-12,-0.48212,0,0,0.14286,-0,-0,0.66667
0.73581,0.79016,5.1507,0.43524,12.871,32.162,-5.9781,1.9927,-1.3275,-7.9707,-4.4809e-12,-0.66377,0,0,0.14286,-0,-0,0.66667
0.41791,0.029688,2.9254,-0.70547,-37.994,131.31,5.5033,-1.8344,-0.23091,7.3378,-1.5707e-12,-0.11545,0,0,0.14286,3.3835e-16,-3.2127e-17,0.66667
0.55544,0.54425,3.8881,0.066382,2.9606,81.408,-0.68826,0.22942,-1.9825,-0.91768,-1.4261e-13,-0.99126,0,0,0.14286,-0,-0,0.66667
0.18966,0.79106,1.3276,0.43659,27.329,227.34,-1.5456,0.51521,-1.3227,-2.0609,-4.3138e-10,-0.66136,0,0,0.14286,-3.3835e-16,0,0.66667
0.27767,0.57146,1.9437,0.1072,6.4023,188.34,-0.55563,0.18521,-1.9587,-0.74084,6.8993e-12,-0.97936,0,0,0.14286,6.7671e-16,0,0.66667
0.48609,0.32394,3.4026,-0.26408,-13.042,105.29,2.3962,-0.79874,-1.7527,3.195,9.1882e-13,-0.87634,0,0,0.14286,-0,-0,0.66667
0.04653,0.67694,0.32571,0.26541,17.167,293.09,-0.23053,0.076843,-1.7515,-0.30737,5.0698e-08,-0.87573,0,0,0.14286,-0,-0,0.66667
0.84893,0.83095,5.9425,0.49643,8.8964,12.06,-7.8668,2.6223,-1.1224,-10.489,6.558e-10,-0.56118,0,0,0.14286,-0,-0,0.66667
0.43861,0.11627,3.0703,-0.57559,-30.233,123.18,4.7126,-1.5709,-0.82339,6.2835,1.6089e-12,-0.41169,0,0,0.14286,-3.3835e-16,0,0.66667
0.1903,0.8332,1.3321,0.4998,31.309,227.09,-1.7754,0.59181,-1.1117,-2.3672,-3.5314e-10,-0.55587,0,0,0.14286,1.6918e-16,0,0.66667
0.1496,0.48883,1.0472,-0.016748,-1.0599,245.42,0.046768,-0.015589,-1.9973,0.062357,-1.4939e-09,-0.99867,0,0,0.14286,-1.6918e-16,0,0.66667
0.12624,0.20331,0.88366,-0.44503,-28.444,256.21,1.0487,-0.34956,-1.2967,1.3983,6.4502e-09,-0.64837,0,0,0.14286,-1.6918e-16,0,0.66667
0.48221,0.23428,3.3755,-0.39858,-19.819,106.82,3.5877,-1.1959,-1.4353,4.7836,-4.2477e-13,-0.71766,0,0,0.14286,6.7671e-16,0,0.66667
0.99442,0.70979,6.9609,0.31468,0.077576,0.37593,-5.8413,1.9471,-1.6466,-7.7884,1.7025e-07,-0.82332,0,0,0.14286,1.3534e-15,0,0.66667
0.83565,0.99353,5.8495,0.7403,14.58,14.731,-11.548,3.8492,-0.050115,-15.397,-5.3232e-10,-0.025058,0,0,0.14286,2.0301e-15,0,0.66667
0.87993,0.21715,6.1595,-0.42427,-6.0884,8.0125,6.9688,-2.3229,-1.36,9.2917,-6.7842e-09,-0.68,0,0,0.14286,1.6918e-15,0,0.66667
0.51326,0.48015,3.5928,-0.029782,-1.4158,95.597,0.28534,-0.095112,-1.997,0.38045,3.4783e-13,-0.99851,0,0,0.14286,-0,-0,0.66667
0.013105,0.87556,0.091736,0.56333,36.655,308.7,-0.13781,0.045935,-0.87318,-0.18374,-2.4941e-07,-0.43659,0,0,0.14286,4.2294e-17,0,0.66667
0.78924,0.063982,5.5247,-0.65403,-16.022,22.027,9.6355,-3.2118,-0.47861,12.847,-5.3899e-11,-0.23931,0,0,0.14286,-0,-0,0.66667
0.91445,0.39321,6.4011,-0.16019,-1.625,4.1734,2.7344,-0.91147,-1.9069,3.6459,-1.2656e-08,-0.95346,0,0,0.14286,-1.0829e-15,0,0.66667
0.063162,0.50324,0.44214,0.0048624,0.31357,285.33,-0.0057329,0.0019113,-2.0024,-0.0076437,4.6541e-07,-1.0012,0,0,0.14286,-0,-0,0.66667
0.17499,0.31232,1.2249,-0.28153,-17.689,233.9,0.91961,-0.30654,-1.7194,1.2261,1.1814e-09,-0.8597,0,0,0.14286,-4.203e-16,0,0.66667
0.50956,0.72985,3.5669,0.34477,16.518,97.073,-3.2794,1.0931,-1.5758,-4.3725,3.1974e-13,-0.7879,0,0,0.14286,-0,-0,0.66667
0.43088,0.94451,3.0161,0.66676,35.393,126.27,-5.3628,1.7876,-0.41802,-7.1504,-8.8152e-13,-0.20901,0,0,0.14286,-0,-0,0.66667
0.95888,0.52057,6.7121,0.030855,0.14443,1.1734,-0.55228,0.18409,-1.9952,-0.73638,3.6131e-07,-0.99758,0,0,0.14286,-0,-0,0.66667
0.98461,0.16511,6.8923,-0.50233,-0.84078,1.0333,9.2326,-3.0775,-1.105,12.31,2.1295e-07,-0.55248,0,0,0.14286,-0,-0,0.66667
0.15433,0.54281,1.0803,0.064213,4.0581,243.26,-0.18499,0.061662,-1.9858,-0.24665,-1.3775e-09,-0.99291,0,0,0.14286,-3.3835e-16,0,0.66667
0.3531,0.004495,2.4717,-0.74326,-42.497,157.14,4.899,-1.633,-0.034922,6.532,2.8262e-12,-0.017461,0,0,0.14286,-0,-0,0.66667
0.57686,0.067872,4.038,-0.64819,-28.161,75.286,6.9797,-2.3266,-0.50776,9.3063,-5.6888e-13,-0.25388,0,0,0.14286,1.3534e-15,-9.6327e-17,0.66667
0.42223,0.36136,2.9556,-0.20796,-11.052,129.05,1.639,-0.54634,-1.848,2.1854,-5.9142e-13,-0.924,0,0,0.14286,-6.7671e-16,0,0.66667
0.5079,0.84339,3.5553,0.51509,24.813,97.882,-4.8834,1.6278,-1.0564,-6.5113,5.9508e-13,-0.52819,0,0,0.14286,1.4803e-16,0,0.66667
0.87702,0.051475,6.1391,-0.67279,-10.07,9.0877,11.014,-3.6714,-0.39105,14.686,-4.7689e-08,-0.19552,0,0,0.14286,-1.3534e-15,0,0.66667
0.060464,0.9197,0.42325,0.62954,40.871,286.66,-0.71054,0.23685,-0.59116,-0.94739,1.5582e-07,-0.29558,0,0,0.14286,-0,-0,0.66667
0.91535,0.011289,6.4075,-0.73307,-7.7457,5.554,12.526,-4.1752,-0.087633,16.701,5.6608e-08,-0.043816,0,0,0.14286,-0,-0,0.66667
0.31256,0.86811,2.1879,0.55217,32.403,173.71,-3.2216,1.0739,-0.9185,-4.2955,4.0119e-12,-0.45925,0,0,0.14286,-0,-0,0.66667
0.72914,0.59123,5.104,0.13685,4.1103,33.252,-1.8626,0.62087,-1.9331,-2.4835,-2.0337e-12,-0.96657,0,0,0.14286,-1.6918e-16,0,0.66667
0.27511,0.53398,1.9258,0.050977,3.0488,189.44,-0.26179,0.087262,-1.9902,-0.34905,1.8383e-12,-0.9951,0,0,0.14286,-6.7671e-16,0,0.66667
0.72986,0.26527,5.109,-0.35209,-10.589,33.329,4.7969,-1.599,-1.558,6.3959,7.4087e-12,-0.77902,0,0,0.14286,-1.3534e-15,0,0.66667
0.78436,0.72778,5.4905,0.34168,8.4316,22.162,-5.0026,1.6675,-1.5848,-6.6701,1.637e-10,-0.79238,0,0,0.14286,-0,-0,0.66667
0.56721,0.29885,3.9704,-0.30172,-13.223,77.758,3.1946,-1.0649,-1.6751,4.2594,2.3781e-13,-0.83754,0,0,0.14286,-6.7671e-16,0,0.66667
0.11097,0.68494,0.77678,0.27741,17.761,263.19,-0.57463,0.19154,-1.7282,-0.76617,-9.6937e-09,-0.8641,0,0,0.14286,-0,-0,0.66667
0.1247,0.32071,0.8729,-0.26894,-17.161,256.86,0.62602,-0.20867,-1.745,0.83469,6.4279e-09,-0.8725,0,0,0.14286,-0,-0,0.66667
0.85571,0.090777,5.99,-0.61383,-10.62,11.498,9.8049,-3.2683,-0.66064,13.073,-1.6084e-09,-0.33032,0,0,0.14286,1.6068e-15,-1.5311e-18,0.66667
0.93388,0.010177,6.5372,-0.73474,-6.1204,4.1792,12.808,-4.2694,-0.080045,17.078,-3.0125e-08,-0.040023,0,0,0.14286,-0,-0,0.66667
0.64865,0.4219,4.5406,-0.11715,-4.3668,53.355,1.4185,-0.47283,-1.9493,1.8913,2.5643e-12,-0.97465,0,0,0.14286,-2.1216e-15,0,0.66667
0.18497,0.72501,1.2948,0.33751,21.139,229.41,-1.1654,0.38846,-1.5955,-1.5538,-7.4392e-10,-0.79775,0,0,0.14286,-0,-0,0.66667
0.72233,0.58377,5.0563,0.12566,3.8549,34.787,-1.6943,0.56476,-1.9434,-2.259,-3.1971e-12,-0.97168,0,0,0.14286,6.7671e-16,0,0.66667
0.22405,0.94462,1.5683,0.66693,41.304,212.14,-2.7892,0.92974,-0.41753,-3.719,6.9273e-12,-0.20877,0,0,0.14286,-0,-0,0.66667
0.75275,0.83358,5.2692,0.50037,14.005,28.693,-7.0309,2.3436,-1.1098,-9.3745,-1.8646e-11,-0.55489,0,0,0.14286,-0,-0,0.66667
0.99863,0.73645,6.9904,0.35467,-0.097039,0.40531,-6.6114,2.2038,-1.5536,-8.8152,2.9772e-07,-0.77679,0,0,0.14286,-0,-0,0.66667
0.92131,0.72646,6.4492,0.33969,3.1979,3.8688,-5.8419,1.9473,-1.5917,-7.7892,1.7728e-08,-0.79585,0,0,0.14286,-0,-0,0.66667
0.52727,0.85522,3.6909,0.53282,24.979,91.252,-5.2442,1.7481,-0.98975,-6.9923,1.5143e-13,-0.49488,0,0,0.14286,-0,-0,0.66667
0.62264,0.69028,4.3585,0.28543,11.276,60.831,-3.3174,1.1058,-1.7115,-4.4232,-8.9573e-13,-0.85577,0,0,0.14286,-0,-0,0.66667
0.31542,0.25648,2.2079,-0.36528,-21.328,172.34,2.1507,-0.71689,-1.5258,2.8676,-3.872e-12,-0.76292,0,0,0.14286,-6.7671e-16,0,0.66667
0.88054,0.50339,6.1638,0.0050788,0.071578,7.4517,-0.083478,0.027826,-1.9994,-0.1113,-2.2875e-08,-0.9997,0,0,0.14286,-5.4137e-15,0,0.66667
0.86029,0.74133,6.022,0.36199,5.9847,10.247,-5.8131,1.9377,-1.5356,-7.7508,4.3657e-09,-0.76782,0,0,0.14286,6.7671e-16,0,0.66667
0.060565,0.46919,0.42395,-0.04621,-2.9811,286.54,0.052243,-0.017414,-1.9944,0.069657,3.4425e-07,-0.99719,0,0,0.14286,-0,-0,0.66667
0.54964,0.49547,3.8475,-0.006794,-0.30581,83.299,0.069707,-0.023236,-2.0005,0.092942,3.4295e-13,-1.0002,0,0,0.14286,-1.0151e-15,0,0.66667
0.38057,0.38521,2.664,-0.17219,-9.5251,145.42,1.2232,-0.40773,-1.8932,1.6309,4.7018e-13,-0.94661,0,0,0.14286,-0,-0,0.66667
0.55684,0.59003,3.8979,0.13504,6.0106,80.974,-1.4036,0.46788,-1.9346,-1.8715,-5.2192e-13,-0.96728,0,0,0.14286,8.4157e-16,0,0.66667
0.18217,0.57512,1.2752,0.11268,7.053,230.61,-0.38317,0.12772,-1.9534,-0.51089,-3.6528e-10,-0.97671,0,0,0.14286,3.3835e-16,0,0.66667
0.79219,0.59841,5.5453,0.14761,3.509,20.496,-2.1828,0.72761,-1.9221,-2.9104,2.1003e-10,-0.96105,0,0,0.14286,-0,-0,0.66667
0.11789,0.92298,0.82526,0.63447,40.77,260.12,-1.3963,0.46542,-0.56687,-1.8617,-3.9535e-08,-0.28343,0,0,0.14286,-1.3961e-16,0,0.66667
0.20303,0.13783,1.4212,-0.54325,-33.879,221.4,2.0589,-0.68629,-0.95272,2.7452,1.4248e-11,-0.47636,0,0,0.14286,3.3835e-16,-1.9229e-16,0.66667
0.02395,0.25079,0.16765,-0.37382,-24.245,303.63,0.16712,-0.055707,-1.5028,0.22283,-1.9446e-07,-0.7514,0,0,0.14286,8.4588e-17,0,0.66667
0.058498,0.37725,0.40949,-0.18413,-11.888,287.51,0.20106,-0.06702,-1.8798,0.26808,-4.4108e-08,-0.93988,0,0,0.14286,-0,-0,0.66667
0.11918,0.33199,0.83425,-0.25201,-16.101,259.4,0.56064,-0.18688,-1.7727,0.74752,7.928e-09,-0.88633,0,0,0.14286,-0,-0,0.66667
0.45136,0.15015,3.1596,-0.52478,-27.144,118.31,4.4215,-1.4738,-1.022,5.8953,1.0938e-12,-0.51098,0,0,0.14286,-3.3835e-16,0,0.66667
0.89569,0.94915,6.2698,0.67372,8.6282,7.1026,-11.264,3.7547,-0.38485,-15.019,-4.2918e-08,-0.19243,0,0,0.14286,1.3534e-15,0,0.66667
0.10377,0.30876,0.72638,-0.28686,-18.397,266.52,0.55565,-0.18522,-1.7068,0.74086,1.2216e-08,-0.85342,0,0,0.14286,-0,-0,0.66667
0.99739,0.48015,6.9817,-0.029776,0.0071849,0.031812,0.55436,-0.18478,-1.9968,0.73915,9.9391e-06,-0.99842,0,0,0.14286,-0,-0,0.66667
0.92242,0.27988,6.4569,-0.33017,-3.062,3.7636,5.6851,-1.895,-1.6154,7.5801,-1.5792e-08,-0.80768,0,0,0.14286,-3.3835e-16,0,0.66667
0.12597,0.54934,0.88179,0.074016,4.7162,256.25,-0.17404,0.058015,-1.9817,-0.23206,-5.5834e-10,-0.99086,0,0,0.14286,-0,-0,0.66667
0.56161,0.92168,3.9313,0.63252,28.184,80.096,-6.6309,2.2103,-0.57873,-8.8412,-1.9984e-13,-0.28936,0,0,0.14286,-0,1.6915e-16,0.66667
0.57872,0.79049,4.0511,0.43574,18.765,74.287,-4.7072,1.5691,-1.3267,-6.2763,2.6823e-13,-0.66335,0,0,0.14286,-0,-0,0.66667
0.78149,0.63883,5.4704,0.20824,5.1841,22.519,-3.0378,1.0126,-1.8477,-4.0504,1.3684e-10,-0.92384,0,0,0.14286,-0,-0,0.66667
0.099377,0.19821,0.69564,-0.45268,-29.115,268.58,0.83975,-0.27992,-1.27,1.1197,1.5817e-08,-0.63498,0,0,0.14286,-0,-0,0.66667
0.089059,0.7685,0.62341,0.40274,25.937,273.35,-0.66954,0.22318,-1.4221,-0.89271,-1.8558e-08,-0.71104,0,0,0.14286,-0,-0,0.66667
0.94471,0.51726,6.613,0.025891,0.1668,1.9225,-0.45658,0.15219,-1.9958,-0.60878,-2.7257e-07,-0.99788,0,0,0.14286,-0,-0,0.66667
0.42548,0.32683,2.9784,-0.25975,-13.765,127.83,2.063,-0.68768,-1.7594,2.7507,4.5186e-13,-0.87969,0,0,0.14286,-0,-0,0.66667
0.81916,0.75611,5.7341,0.38416,8.0915,16.224,-5.8742,1.9581,-1.4741,-7.8322,8.4202e-10,-0.73705,0,0,0.14286,-0,-0,0.66667
0.78299,0.12535,5.4809,-0.56198,-14.063,22.901,8.2138,-2.7379,-0.87923,10.952,-3.3192e-10,-0.43961,0,0,0.14286,-0,-0,0.66667
0.8379,0.22923,5.8653,-0.40616,-7.7381,13.405,6.3526,-2.1175,-1.412,8.4701,-1.9196e-09,-0.706,0,0,0.14286,-0,-0,0.66667
0.13975,0.37112,0.97826,-0.19332,-12.278,249.94,0.50432,-0.16811,-1.8693,0.67242,4.4441e-09,-0.93467,0,0,0.14286,-2.1147e-16,0,0.66667
0.091732,0.80778,0.64212,0.46167,29.742,272.12,-0.79054,0.26351,-1.2433,-1.0541,-2.6381e-08,-0.62164,0,0,0.14286,8.4588e-17,0,0.66667
0.44285,0.43537,3.1,-0.096951,-5.0363,121.14,0.80145,-0.26715,-1.9664,1.0686,6.2339e-14,-0.98318,0,0,0.14286,-0,-0,0.66667
0.8081,0.926,5.6567,0.63901,14.383,18.693,-9.6391,3.213,-0.54715,-12.852,3.8376e-11,-0.27358,0,0,0.14286,-0,-0,0.66667
0.14031,0.93136,0.98219,0.64705,41.345,249.85,-1.6947,0.56491,-0.51381,-2.2596,1.8527e-08,-0.2569,0,0,0.14286,1.6918e-16,0,0.66667
0.17975,0.85749,1.2582,0.53624,33.749,231.87,-1.7992,0.59974,-0.97572,-2.3989,-7.1317e-10,-0.48786,0,0,0.14286,3.3835e-16,0,0.66667
0.1606,0.044473,1.1242,-0.68329,-43.423,240.63,2.0484,-0.6828,-0.33888,2.7312,-2.4364e-10,-0.16944,0,0,0.14286,-0,-0,0.66667
0.23062,0.062793,1.6143,-0.65581,-40.477,209.23,2.8232,-0.94107,-0.47162,3.7643,1.0395e-11,-0.23581,0,0,0.14286,-6.7671e-16,0,0.66667
0.32804,0.40405,2.2963,-0.14392,-8.3103,166.93,0.88132,-0.29377,-1.9296,1.1751,-1.1746e-12,-0.96481,0,0,0.14286,-6.7671e-16,0,0.66667
0.06778,0.081351,0.47446,-0.62797,-40.73,283.27,0.79453,-0.26484,-0.59646,1.0594,-6.7366e-08,-0.29823,0,0,0.14286,4.3211e-18,0,0.66667
0.38652,0.61918,2.7057,0.17877,9.8363,143.04,-1.2898,0.42995,-1.886,-1.7198,1.2299e-12,-0.94302,0,0,0.14286,3.3835e-16,0,0.66667
0.28048,0.76723,1.9634,0.40084,23.961,187.25,-2.0987,0.69957,-1.4301,-2.7983,1.189e-11,-0.71503,0,0,0.14286,-3.3835e-16,0,0.66667
0.15318,0.87575,1.0723,0.56363,35.816,243.93,-1.6117,0.53722,-0.87161,-2.1489,-6.7767e-09,-0.4358,0,0,0.14286,-0,9.7817e-20,0.66667
0.31327,0.55583,2.1929,0.083742,4.886,173.12,-0.48971,0.16324,-1.977,-0.65294,6.6869e-12,-0.98848,0,0,0.14286,-3.3835e-16,0,0.66667
0.49926,0.70099,3.4948,0.30148,14.64,100.64,-2.8097,0.93656,-1.6782,-3.7462,3.7437e-13,-0.83911,0,0,0.14286,-6.7671e-16,0,0.66667
0.67091,0.26949,4.6964,-0.34577,-12.263,47.609,4.3303,-1.4434,-1.5762,5.7738,4.8193e-12,-0.78809,0,0,0.14286,-6.7671e-16,0,0.66667
0.29158,0.70152,2.041,0.30228,17.922,182.43,-1.6452,0.54841,-1.6737,-2.1936,1.0707e-11,-0.83683,0,0,0.14286,-0,-0,0.66667
0.48683,0.93705,3.4078,0.65557,32.589,105.57,-5.9575,1.9858,-0.4735,-7.9433,2.5802e-13,-0.23675,0,0,0.14286,-8.4588e-17,0,0.66667
0.69406,0.034591,4.8584,-0.69811,-23.584,42.527,9.0446,-3.0149,-0.26641,12.059,4.7695e-13,-0.13321,0,0,0.14286,-0,-0,0.66667
0.94232,0.17582,6.5962,-0.48626,-3.3949,2.7576,8.5534,-2.8511,-1.1581,11.404,-2.938e-08,-0.57904,0,0,0.14286,-0,-0,0.66667
0.11331,0.60785,0.79319,0.16178,10.344,262.09,-0.34219,0.11406,-1.906,-0.45626,-6.3022e-09,-0.95302,0,0,0.14286,-0,-0,0.66667
0.37705,0.53276,2.6394,0.049137,2.7253,146.8,-0.34584,0.11528,-1.9931,-0.46112,3.2392e-12,-0.99654,0,0,0.14286,-1.3534e-15,0,0.66667
0.86667,0.21037,6.0667,-0.43445,-6.8957,9.5994,7.0284,-2.3428,-1.3274,9.3712,-5.1633e-09,-0.6637,0,0,0.14286,1.3534e-15,0,0.66667
0.76793,0.81183,5.3755,0.46774,12.371,25.549,-6.7049,2.235,-1.2238,-8.9399,-2.3115e-11,-0.61188,0,0,0.14286,1.438e-15,0,0.66667
0.82594,0.12599,5.7816,-0.56102,-11.505,15.586,8.6496,-2.8832,-0.88258,11.533,1.8575e-10,-0.44129,0,0,0.14286,-2.7068e-15,0,0.66667
0.036904,0.38288,0.25833,-0.17568,-11.365,297.57,0.12102,-0.04034,-1.8891,0.16136,-4.0884e-08,-0.94455,0,0,0.14286,-0,-0,0.66667
0.80406,0.38067,5.6284,-0.17899,-4.0352,18.435,2.6864,-0.89548,-1.8849,3.5819,-4.3306e-10,-0.94246,0,0,0.14286,-2.7068e-15,0,0.66667
0.095263,0.42336,0.66684,-0.11496,-7.377,270.43,0.20443,-0.068142,-1.9537,0.27257,2.9046e-09,-0.97686,0,0,0.14286,-0,-0,0.66667
0.35271,0.098327,2.469,-0.60251,-34.342,157.09,3.9669,-1.3223,-0.70831,5.2891,3.2869e-12,-0.35416,0,0,0.14286,-0,-0,0.66667
0.23302,0.85235,1.6312,0.52852,32.5,208.06,-2.299,0.76632,-1.008,-3.0653,-4.591e-11,-0.50399,0,0,0.14286,-0,1.2803e-17,0.66667
0.98438,0.12663,6.8907,-0.56006,-0.98964,1.2265,10.291,-3.4304,-0.88821,13.721,4.0227e-07,-0.4441,0,0,0.14286,2.7068e-15,0,0.66667
0.48234,0.089524,3.3764,-0.61571,-30.751,107.11,5.5437,-1.8479,-0.65327,7.3916,1.1768e-12,-0.32663,0,0,0.14286,-8.4588e-16,0,0.66667
0.28033,0.85604,1.9623,0.53407,31.997,187.43,-2.7947,0.93155,-0.98714,-3.7262,9.756e-12,-0.49357,0,0,0.14286,6.7671e-16,2.2374e-16,0.66667
0.42077,0.1314,2.9454,-0.5529,-29.58,129.96,4.3427,-1.4476,-0.91472,5.7903,2.2413e-12,-0.45736,0,0,0.14286,-0,-0,0.66667
0.13901,0.42191,0.97304,-0.11714,-7.4385,250.27,0.30395,-0.10132,-1.9518,0.40526,2.5766e-09,-0.97591,0,0,0.14286,4.5608e-18,0,0.66667
0.78121,0.59495,5.4685,0.14243,3.5462,22.514,-2.077,0.69233,-1.9314,-2.7693,1.429e-10,-0.96569,0,0,0.14286,-0,-0,0.66667
0.82105,0.86609,5.7474,0.54913,11.542,16.316,-8.4161,2.8054,-0.9263,-11.222,1.1825e-09,-0.46315,0,0,0.14286,-0,-0,0.66667
0.0059699,0.80743,0.041789,0.46114,29.959,312.02,-0.051388,0.017129,-1.243,-0.068518,-4.5554e-07,-0.62151,0,0,0.14286,-5.2868e-18,0,0.66667
0.35861,0.90751,2.5103,0.61127,34.681,154.69,-4.0919,1.364,-0.67425,-5.4558,4.1078e-13,-0.33712,0,0,0.14286,-0,-0,0.66667
0.92793,0.57732,6.4955,0.11597,0.98672,3.0717,-2.0088,0.66961,-1.9505,-2.6784,2.6798e-08,-0.97524,0,0,0.14286,-0,-0,0.66667
0.55859,0.34121,3.9101,-0.23818,-10.581,80.474,2.4835,-0.82783,-1.7986,3.3113,-8.9106e-13,-0.89929,0,0,0.14286,1.0113e-15,0,0.66667
0.17029,0.65394,1.1921,0.23091,14.527,236.02,-0.73404,0.24468,-1.8123,-0.97872,-1.1547e-09,-0.90615,0,0,0.14286,-0,-0,0.66667
0.39769,0.27575,2.7838,-0.33638,-18.344,138.71,2.4971,-0.83236,-1.5966,3.3294,3.9324e-13,-0.79828,0,0,0.14286,-0,-0,0.66667
0.63071,0.012783,4.415,-0.73083,-28.732,59.401,8.6042,-2.8681,-0.099404,11.472,1.5294e-12,-0.049702,0,0,0.14286,-0,-0,0.66667
0.7635,0.13408,5.3445,-0.54888,-14.807,26.624,7.8226,-2.6075,-0.92935,10.43,3.6255e-12,-0.46468,0,0,0.14286,-0,-8.5128e-17,0.66667
0.98548,0.12831,6.8984,-0.55753,-0.9046,1.1929,10.256,-3.4187,-0.89688,13.675,8.8786e-08,-0.44844,0,0,0.14286,-2.7068e-15,0,0.66667
0.97769,0.7979,6.8438,0.44685,1.1202,1.0547,-8.1551,2.7184,-1.2882,-10.873,-4.2098e-07,-0.64412,0,0,0.14286,-0,-0,0.66667
0.44414,0.81817,3.109,0.47725,24.864,120.95,-3.9567,1.3189,-1.1891,-5.2755,1.3172e-12,-0.59453,0,0,0.14286,-0,-0,0.66667
0.91798,0.25069,6.4259,-0.37396,-3.6795,4.2053,6.408,-2.136,-1.5034,8.544,-2.2687e-08,-0.75172,0,0,0.14286,-0,-0,0.66667
0.72376,0.76704,5.0663,0.40056,12.294,34.786,-5.4117,1.8039,-1.4281,-7.2156,-9.5484e-12,-0.71407,0,0,0.14286,-1.3534e-15,0,0.66667
0.15494,0.29825,1.0846,-0.30262,-19.149,243.02,0.87523,-0.29174,-1.6753,1.167,2.5222e-09,-0.83763,0,0,0.14286,-1.8348e-16,0,0.66667
0.56932,0.47383,3.9852,-0.039254,-1.7105,76.925,0.41717,-0.13906,-1.9935,0.55622,8.1238e-13,-0.99673,0,0,0.14286,-0,-0,0.66667
0.52955,0.08678,3.7069,-0.61983,-29.025,90.642,6.127,-2.0423,-0.63506,8.1694,-8.5132e-13,-0.31753,0,0,0.14286,3.3835e-16,-1.1727e-16,0.66667
0.93954,0.47528,6.5768,-0.037087,-0.26255,2.2415,0.65043,-0.21681,-1.996,0.86724,-9.8343e-08,-0.99798,0,0,0.14286,-0,-0,0.66667
0.69262,0.80615,4.8484,0.45922,15.442,42.284,-5.9373,1.9791,-1.2494,-7.9163,-5.5613e-12,-0.62468,0,0,0.14286,6.7671e-16,0,0.66667
0.53942,0.84989,3.776,0.52484,24.156,87.15,-5.2847,1.7616,-1.0193,-7.0463,1.1195e-12,-0.50967,0,0,0.14286,-1.3534e-15,0,0.66667
0.91872,0.2421,6.4311,-0.38684,-3.7757,4.173,6.6342,-2.2114,-1.4679,8.8456,-2.3779e-08,-0.73393,0,0,0.14286,-6.7671e-16,0,0.66667
0.080916,0.2071,0.56641,-0.43935,-28.348,277.13,0.66361,-0.2212,-1.3135,0.88482,3.2987e-08,-0.65677,0,0,0.14286,-0,-0,0.66667
0.30942,0.1449,2.166,-0.53265,-31.314,175.02,3.0765,-1.0255,-0.99094,4.102,-1.9822e-12,-0.49547,0,0,0.14286,-0,-0,0.66667
0.36636,0.72165,2.5645,0.33247,18.65,151.25,-2.2736,0.75788,-1.6063,-3.0315,2.6668e-12,-0.80313,0,0,0.14286,1.3534e-15,0,0.66667
0.011747,0.3301,0.082229,-0.25485,-16.516,309.32,0.055882,-0.018627,-1.7682,0.07451,6.6561e-08,-0.88411,0,0,0.14286,2.1147e-17,0,0.66667
0.54516,0.50094,3.8161,0.0014064,0.063755,84.779,-0.014312,0.0047707,-2.002,-0.019083,-7.4247e-13,-1.001,0,0,0.14286,2.7068e-15,0,0.66667
0.38558,0.59638,2.699,0.14457,7.9599,143.41,-1.0405,0.34684,-1.9255,-1.3874,2.1876e-12,-0.96273,0,0,0.14286,-1.3534e-15,0,0.66667
0.46514,0.19373,3.256,-0.4594,-23.353,113.11,3.9888,-1.3296,-1.2495,5.3184,1.2144e-12,-0.62474,0,0,0.14286,-1.3534e-15,0,0.66667
0.052614,0.35369,0.3683,-0.21947,-14.182,290.25,0.21555,-0.07185,-1.8273,0.2874,-3.4861e-08,-0.91367,0,0,0.14286,-1.6918e-16,0,0.66667
0.98055,0.26454,6.8638,-0.35319,-0.72858,0.74535,6.4646,-2.1549,-1.5556,8.6194,9.3078e-08,-0.77781,0,0,0.14286,1.3534e-15,0,0.66667
0.87537,0.80673,6.1276,0.4601,6.8583,8.6206,-7.5182,2.5061,-1.2497,-10.024,8.4347e-09,-0.62486,0,0,0.14286,6.7671e-16,0,0.66667
0.31262,0.25213,2.1883,-0.37181,-21.754,173.53,2.1697,-0.72324,-1.5117,2.893,-4.7373e-12,-0.75586,0,0,0.14286,-0,-0,0.66667
0.081769,0.19176,0.57239,-0.46237,-29.839,276.74,0.70574,-0.23525,-1.24,0.94098,3.4473e-08,-0.62001,0,0,0.14286,-0,-0,0.66667
0.1066,0.10151,0.74621,-0.59774,-38.481,265.3,1.1894,-0.39648,-0.72981,1.5859,6.0605e-08,-0.3649,0,0,0.14286,-0,-9.5628e-17,0.66667
0.11128,0.15852,0.77895,-0.51222,-32.891,263.11,1.064,-0.35466,-1.0688,1.4186,1.3103e-08,-0.53438,0,0,0.14286,-0,-0,0.66667
0.31416,0.97084,2.1991,0.70625,41.541,173.23,-4.1417,1.3806,-0.22837,-5.5223,5.3917e-12,-0.11418,0,0,0.14286,-0,-0,0.66667
0.74672,0.34448,5.227,-0.23328,-6.6199,29.499,3.2517,-1.0839,-1.8075,4.3356,-1.0898e-11,-0.90375,0,0,0.14286,2.7068e-15,0,0.66667
0.86782,0.0019669,6.0748,-0.74705,-12.046,10.455,12.102,-4.0339,-0.015137,16.136,5.7759e-09,-0.0075687,0,0,0.14286,-0,-0,0.66667
0.45038,0.92507,3.1527,0.6376,33.104,118.86,-5.3604,1.7868,-0.55438,-7.1472,-9.9609e-13,-0.27719,0,0,0.14286,6.7671e-16,-1.8888e-16,0.66667
0.7354,0.7774,5.1478,0.41609,12.315,32.215,-5.7119,1.904,-1.3865,-7.6159,-1.7062e-12,-0.69325,0,0,0.14286,-1.3534e-15,0,0.66667
0.19541,0.90556,1.3679,0.60834,38.106,224.86,-2.219,0.73968,-0.68383,-2.9587,-8.3211e-10,-0.34191,0,0,0.14286,1.586e-16,0,0.66667
0.1939,0.052008,1.3573,-0.67199,-42.175,225.59,2.4323,-0.81077,-0.39284,3.2431,-2.4125e-10,-0.19642,0,0,0.14286,-1.6918e-16,0,0.66667
0.36744,0.091851,2.5721,-0.61222,-34.479,151.11,4.1992,-1.3997,-0.66674,5.5989,1.4624e-12,-0.33337,0,0,0.14286,8.4588e-17,0,0.66667
0.34924,0.47648,2.4447,-0.035287,-2.0037,158.12,0.23004,-0.07668,-1.9945,0.30672,1.725e-12,-0.99723,0,0,0.14286,-0,-0,0.66667
0.30208,0.6383,2.1146,0.20745,12.205,177.9,-1.1697,0.38992,-1.8456,-1.5597,8.6614e-12,-0.92279,0,0,0.14286,-0,-0,0.66667
0.54976,0.12317,3.8483,-0.56524,-25.625,83.806,5.8006,-1.9335,-0.86504,7.7341,-2.7978e-14,-0.43252,0,0,0.14286,3.3835e-16,0,0.66667
0.012695,0.45907,0.088866,-0.061393,-3.9748,308.87,0.014549,-0.0048515,-1.9865,0.019398,-2.7091e-06,-0.99325,0,0,0.14286,1.0574e-17,0,0.66667
0.35923,0.86273,2.5146,0.54409,30.81,154.35,-3.6485,1.2162,-0.94946,-4.8646,1.67e-12,-0.47473,0,0,0.14286,3.3835e-16,-1.875e-16,0.66667
0.68499,0.67585,4.7949,0.26377,9.0122,43.888,-3.3727,1.1242,-1.7527,-4.497,-6.1484e-12,-0.87633,0,0,0.14286,6.7671e-16,0,0.66667
0.20754,0.64976,1.4528,0.22464,13.925,219.23,-0.87027,0.29009,-1.82,-1.1604,-2.498e-10,-0.91001,0,0,0.14286,-0,-0,0.66667
0.18084,0.94673,1.2659,0.6701,42.269,231.46,-2.262,0.754,-0.40191,-3.016,-1.501e-09,-0.20096,0,0,0.14286,-0,-0,0.66667
0.29412,0.78172,2.0588,0.42259,25.052,181.42,-2.3201,0.77335,-1.3664,-3.0934,8.7927e-12,-0.68322,0,0,0.14286,-0,-0,0.66667
0.0056085,0.85954,0.03926,0.53931,35.082,312.19,-0.056461,0.01882,-0.96425,-0.075282,-7.921e-07,-0.48213,0,0,0.14286,-1.0574e-17,-8.6407e-17,0.66667
0.34478,0.093471,2.4135,-0.60979,-34.983,160.35,3.9246,-1.3082,-0.68062,5.2328,3.942e-12,-0.34031,0,0,0.14286,-2.5377e-16,0,0.66667
0.8284,0.54598,5.7988,0.068969,1.3738,14.41,-1.0665,0.3555,-1.9849,-1.422,4.8937e-10,-0.99245,0,0,0.14286,1.3534e-15,0,0.66667
0.022289,0.46279,0.15602,-0.055819,-3.6126,304.39,0.023224,-0.0077409,-1.9878,0.030966,9.2412e-07,-0.99388,0,0,0.14286,-2.1147e-17,0,0.66667
0.030319,0.51366,0.21223,0.020497,1.326,300.64,-0.011601,0.0038684,-1.9997,-0.015467,2.1064e-06,-0.99986,0,0,0.14286,8.4588e-17,0,0.66667
0.37436,0.48691,2.6205,-0.019641,-1.0919,147.89,0.13725,-0.045751,-2.0001,0.183,8.0981e-13,-1.0001,0,0,0.14286,6.7671e-16,0,0.66667
0.06536,0.46196,0.45752,-0.057059,-3.6788,284.31,0.069615,-0.023205,-1.9887,0.09282,1.3268e-08,-0.99434,0,0,0.14286,-1.2688e-16,0,0.66667
0.85305,0.87188,5.9713,0.55782,9.7788,11.675,-8.8825,2.9608,-0.89297,-11.843,5.2685e-09,-0.44649,0,0,0.14286,2.0301e-15,0,0.66667
0.36355,0.95926,2.5449,0.68889,38.996,152.8,-4.675,1.5583,-0.31189,-6.2333,2.7702e-12,-0.15595,0,0,0.14286,3.3835e-16,0,0.66667
0.70869,0.054388,4.9608,-0.66842,-21.657,38.916,8.8424,-2.9475,-0.41027,11.79,4.1389e-13,-0.20513,0,0,0.14286,-0,-0,0.66667
0.34251,0.84271,2.3976,0.51407,29.487,161.18,-3.2867,1.0956,-1.0628,-4.3823,4.6059e-12,-0.5314,0,0,0.14286,-2.9606e-16,0,0.66667
0.28541,0.31991,1.9979,-0.27014,-16.074,185.06,1.4392,-0.47973,-1.74,1.9189,-6.1112e-12,-0.86999,0,0,0.14286,6.7671e-16,0,0.66667
0.0054914,0.54289,0.03844,0.064328,4.1654,312.24,-0.0065939,0.0021963,-1.9838,-0.0087927,-2.5533e-06,-0.99192,0,0,0.14286,-0,-0,0.66667
0.27003,0.96627,1.8902,0.69941,42.31,192.04,-3.5255,1.1752,-0.26077,-4.7006,2.5426e-12,-0.13039,0,0,0.14286,-8.4588e-17,0,0.66667
0.55821,0.31488,3.9074,-0.27767,-12.349,80.633,2.8933,-0.96444,-1.726,3.8577,-5.8864e-13,-0.863,0,0,0.14286,1.3534e-15,0,0.66667
0.39521,0.10285,2.7665,-0.59572,-32.713,139.99,4.3948,-1.4649,-0.73727,5.8597,3.805e-12,-0.36864,0,0,0.14286,-0,-0,0.66667
0.84515,0.74048,5.9161,0.36073,6.5719,12.278,-5.6909,1.897,-1.5384,-7.5878,2.6243e-09,-0.76919,0,0,0.14286,-0,-0,0.66667
0.25356,0.77002,1.7749,0.40503,24.593,198.94,-1.9171,0.63902,-1.4161,-2.5561,1.2682e-12,-0.70807,0,0,0.14286,-0,-0,0.66667
0.92019,0.55431,6.4413,0.081458,0.76864,3.6461,-1.3992,0.4664,-1.9773,-1.8656,1.8204e-08,-0.98867,0,0,0.14286,-0,-0,0.66667
0.14496,0.19467,1.0147,-0.458,-29.126,247.63,1.2393,-0.4131,-1.2536,1.6524,3.4543e-09,-0.62679,0,0,0.14286,-3.3835e-16,0,0.66667
0.48392,0.9817,3.3874,0.72256,36.122,106.76,-6.5269,2.1756,-0.14538,-8.7025,1.4655e-13,-0.072689,0,0,0.14286,-0,-0,0.66667
0.20199,0.34741,1.4139,-0.22888,-14.223,221.72,0.86299,-0.28766,-1.8157,1.1507,3.0318e-10,-0.90787,0,0,0.14286,-0,-0,0.66667
0.11218,0.70238,0.78527,0.30357,19.436,262.64,-0.6357,0.2119,-1.6721,-0.8476,-9.692e-09,-0.83604,0,0,0.14286,-1.6918e-16,0,0.66667
0.078936,0.89002,0.55255,0.58504,37.851,278.08,-0.86203,0.28734,-0.78435,-1.1494,-1.7991e-08,-0.39218,0,0,0.14286,-0,-0,0.66667
0.097961,0.085307,0.68573,-0.62204,-40.137,269.29,1.1375,-0.37916,-0.62355,1.5166,-2.5913e-09,-0.31177,0,0,0.14286,8.4588e-17,0,0.66667
0.44342,0.31687,3.104,-0.27469,-14.279,121.01,2.2737,-0.75791,-1.7309,3.0316,-7.2187e-13,-0.86546,0,0,0.14286,-0,-0,0.66667
0.49394,0.86576,3.4576,0.54864,26.95,102.85,-5.0585,1.6862,-0.92836,-6.7447,-5.671e-13,-0.46418,0,0,0.14286,6.7671e-16,0,0.66667
0.29445,0.90543,2.0612,0.60815,36.166,181.45,-3.3426,1.1142,-0.68653,-4.4569,3.4905e-12,-0.34326,0,0,0.14286,6.9785e-16,0,0.66667
0.71033,0.70738,4.9723,0.31106,9.9183,37.755,-4.1246,1.3749,-1.6542,-5.4994,-8.7188e-12,-0.82711,0,0,0.14286,-0,-0,0.66667
0.0215,0.4948,0.1505,-0.007805,-0.50513,304.76,0.0031322,-0.0010453,-1.9989,0.0041756,-1.9127e-06,-0.99945,0,0,0.14286,1.2731e-17,0,0.66667
0.30959,0.66677,2.1671,0.25015,14.647,174.73,-1.4457,0.48188,-1.7774,-1.9275,7.4302e-12,-0.88868,0,0,0.14286,-0,-0,0.66667
0.84278,0.99771,5.8995,0.74657,14.127,13.732,-11.745,3.915,-0.020673,-15.66,-1.7747e-09,-0.010336,0,0,0.14286,1.5226e-15,4.5924e-17,0.66667
0.54746,0.3655,3.8322,-0.20176,-9.1216,84.088,2.0618,-0.68726,-1.857,2.749,-2.6112e-13,-0.92852,0,0,0.14286,-0,-0,0.66667
0.05517,0.16096,0.38619,-0.50857,-32.965,289.1,0.52374,-0.17458,-1.0793,0.69832,-1.3632e-08,-0.53967,0,0,0.14286,1.6918e-16,0,0.66667
0.51017,0.8193,3.5712,0.47895,22.982,97.036,-4.5611,1.5204,-1.1834,-6.0815,-1.5694e-12,-0.59169,0,0,0.14286,1.3534e-15,0,0.66667
0.29425,0.90758,2.0598,0.61137,36.365,181.54,-3.3581,1.1194,-0.6723,-4.4775,3.3726e-12,-0.33615,0,0,0.14286,-0,1.8269e-16,0.66667
0.16633,0.020615,1.1643,-0.71908,-45.646,238.06,2.2326,-0.74419,-0.16013,2.9768,-8.7354e-10,-0.080064,0,0,0.14286,-0,-0,0.66667
0.67928,0.38913,4.755,-0.1663,-5.7595,45.251,2.1087,-0.70291,-1.8998,2.8117,4.7595e-12,-0.9499,0,0,0.14286,-1.3534e-15,0,0.66667
0.19682,0.54707,1.3777,0.070602,4.3932,224.01,-0.25939,0.086462,-1.9805,-0.34585,-1.5912e-10,-0.99026,0,0,0.14286,3.3835e-16,0,0.66667
0.39589,0.89271,2.7712,0.58907,32.322,139.71,-4.3532,1.4511,-0.76478,-5.8043,-1.1546e-13,-0.38239,0,0,0.14286,-0,-0,0.66667
0.72776,0.28688,5.0944,-0.31969,-9.6714,33.749,4.3429,-1.4476,-1.6355,5.7906,7.9812e-12,-0.81776,0,0,0.14286,-0,-0,0.66667
0.80994,0.72485,5.6695,0.33727,7.4231,17.646,-5.0991,1.6997,-1.5961,-6.7988,5.9261e-10,-0.79805,0,0,0.14286,-0,-0,0.66667
0.60148,0.7141,4.2104,0.32115,13.238,67.128,-3.6058,1.2019,-1.6322,-4.8078,-1.1724e-13,-0.81611,0,0,0.14286,6.7671e-16,0,0.66667
0.13081,0.80871,0.91566,0.46306,29.568,254.11,-1.1307,0.37689,-1.237,-1.5076,-3.7718e-09,-0.61848,0,0,0.14286,-0,-0,0.66667
0.01089,0.87638,0.076233,0.56457,36.738,309.73,-0.11477,0.038256,-0.86683,-0.15303,-7.6976e-07,-0.43342,0,0,0.14286,4.2294e-17,0,0.66667
0.29257,0.67485,2.048,0.26227,15.534,181.98,-1.4324,0.47745,-1.7544,-1.9098,9.4376e-12,-0.8772,0,0,0.14286,3.3835e-16,0,0.66667
0.48388,0.98115,3.3872,0.72172,36.081,106.77,-6.519,2.173,-0.14964,-8.692,1.8119e-13,-0.074821,0,0,0.14286,-0,1.6196e-16,0.66667
0.075671,0.54659,0.5297,0.069881,4.499,279.52,-0.098708,0.032903,-1.9826,-0.13161,3.4304e-08,-0.99131,0,0,0.14286,-1.6918e-16,0,0.66667
0.083491,0.55471,0.58444,0.082062,5.2767,275.88,-0.12789,0.042631,-1.975,-0.17053,7.4764e-10,-0.98749,0,0,0.14286,-0,-0,0.66667
0.97949,0.95961,6.8565,0.68942,1.7659,1.8427,-12.605,4.2018,-0.30898,-16.807,-1.4034e-05,-0.15449,0,0,0.14286,1.3534e-15,0,0.66667
0.62427,0.98317,4.3699,0.72475,28.869,61.223,-8.4456,2.8152,-0.13378,-11.261,-1.3873e-12,-0.066888,0,0,0.14286,2.7068e-15,-1.6817e-16,0.66667
0.82291,0.23267,5.7604,-0.401,-8.2904,15.664,6.1597,-2.0532,-1.4268,8.213,-8.6449e-10,-0.71341,0,0,0.14286,-1.3534e-15,0,0.66667
0.78101,0.77624,5.4671,0.41436,10.39,22.92,-6.0408,2.0136,-1.3922,-8.0544,8.5187e-11,-0.69609,0,0,0.14286,4.6245e-16,0,0.66667
0.51024,0.88808,3.5717,0.58212,27.996,97.185,-5.5444,1.8481,-0.79367,-7.3925,-8.5665e-13,-0.39683,0,0,0.14286,-0,-0,0.66667
0.60696,0.87777,4.2487,0.56665,23.241,65.896,-6.4201,2.14,-0.85949,-8.5602,1.2315e-12,-0.42975,0,0,0.14286,-1.3534e-15,0,0.66667
0.28245,0.58043,1.9772,0.12065,7.1851,186.28,-0.63612,0.21204,-1.9492,-0.84816,6.2312e-12,-0.97462,0,0,0.14286,3.3835e-16,0,0.66667
0.936,0.6952,6.552,0.2928,2.2256,2.7179,-5.1157,1.7052,-1.6963,-6.8209,-7.7185e-09,-0.84816,0,0,0.14286,-0,-0,0.66667
0.61687,0.87202,4.3181,0.55803,22.44,62.955,-6.4257,2.1419,-0.89202,-8.5676,-3.2774e-13,-0.44601,0,0,0.14286,8.4588e-16,0,0.66667
0.40685,0.23849,2.8479,-0.39227,-21.22,135.17,2.9791,-0.99303,-1.4545,3.9721,2.0326e-12,-0.72726,0,0,0.14286,6.7671e-16,0,0.66667
0.050178,0.86192,0.35125,0.54289,35.228,291.42,-0.5085,0.1695,-0.95156,-0.678,-1.5772e-07,-0.47578,0,0,0.14286,-8.4588e-17,0,0.66667
0.10484,0.33565,0.73391,-0.24652,-15.801,266.01,0.48247,-0.16082,-1.7831,0.64329,7.3836e-09,-0.89156,0,0,0.14286,-1.6918e-16,0,0.66667
0.44394,0.88971,3.1076,0.58457,30.531,121.18,-4.8443,1.6148,-0.78321,-6.459,-9.2504e-13,-0.39161,0,0,0.14286,-0,-0,0.66667
0.023763,0.31514,0.16634,-0.2773,-17.967,303.71,0.123,-0.041,-1.7259,0.164,-6.0619e-08,-0.86295,0,0,0.14286,-0,-0,0.66667
0.28857,0.67346,2.02,0.26019,15.45,183.69,-1.4015,0.46718,-1.7574,-1.8687,1.0982e-11,-0.87872,0,0,0.14286,-3.3835e-16,0,0.66667
0.2149,0.54192,1.5043,0.062874,3.8817,215.91,-0.25221,0.084071,-1.9852,-0.33628,-8.394e-11,-0.99262,0,0,0.14286,-0,-0,0.66667
0.22151,0.077142,1.5506,-0.63429,-39.301,213.24,2.6227,-0.87423,-0.5693,3.4969,-9.7857e-12,-0.28465,0,0,0.14286,-3.3835e-16,0,0.66667
0.19268,0.10631,1.3488,-0.59054,-37.018,226.07,2.124,-0.70801,-0.75868,2.832,2.9742e-10,-0.37934,0,0,0.14286,-0,-0,0.66667
0.83915,0.32154,5.8741,-0.26769,-5.0374,12.98,4.1932,-1.3977,-1.7443,5.5909,-1.9727e-09,-0.87215,0,0,0.14286,-0,-0,0.66667
0.46604,0.14617,3.2623,-0.53074,-26.989,112.89,4.6172,-1.5391,-0.99846,6.1563,8.6597e-13,-0.49923,0,0,0.14286,6.7671e-16,0,0.66667
0.54314,0.98238,3.802,0.72357,33.298,86.334,-7.3359,2.4453,-0.13771,-9.7813,4.392e-13,-0.068856,0,0,0.14286,-0,1.6641e-16,0.66667
0.58082,0.14268,4.0657,-0.53598,-23.051,73.807,5.811,-1.937,-0.97844,7.748,-1.8652e-14,-0.48922,0,0,0.14286,-0,-0,0.66667
0.094346,0.70767,0.66042,0.31151,20.02,270.88,-0.54861,0.18287,-1.6566,-0.73148,-1.4149e-08,-0.82831,0,0,0.14286,8.4588e-17,0,0.66667
0.064011,0.39216,0.44808,-0.16175,-10.435,284.94,0.19327,-0.064425,-1.9077,0.2577,-1.2733e-08,-0.95384,0,0,0.14286,-0,-0,0.66667
0.98681,0.23433,6.9077,-0.39851,-0.51545,0.69754,7.3407,-2.4469,-1.4353,9.7877,-5.7574e-08,-0.71767,0,0,0.14286,-1.3534e-15,0,0.66667
0.28383,0.89667,1.9868,0.595,35.613,185.98,-3.1524,1.0508,-0.74137,-4.2033,4.5826e-12,-0.37069,0,0,0.14286,-3.3835e-16,0,0.66667
0.1419,0.27554,0.99331,-0.33669,-21.397,248.99,0.89183,-0.29728,-1.5985,1.1891,4.2149e-09,-0.79926,0,0,0.14286,-8.4588e-17,0,0.66667
0.018779,0.25641,0.13145,-0.36538,-23.701,306.04,0.12808,-0.042694,-1.5254,0.17078,-9.4806e-08,-0.76272,0,0,0.14286,-0,-0,0.66667
0.87071,0.11263,6.095,-0.58105,-9.0463,9.5123,9.444,-3.148,-0.79856,12.592,-6.7797e-09,-0.39928,0,0,0.14286,1.3534e-15,0,0.66667
0.17375,0.67566,1.2162,0.26349,16.561,234.46,-0.85458,0.28486,-1.7536,-1.1394,-1.2295e-09,-0.87682,0,0,0.14286,-0,-0,0.66667
0.17154,0.66201,1.2007,0.24301,15.283,235.46,-0.77812,0.25937,-1.7925,-1.0375,-1.1968e-09,-0.89623,0,0,0.14286,-0,-0,0.66667
0.3727,0.75567,2.6089,0.38351,21.41,148.73,-2.6681,0.88936,-1.4778,-3.5574,1.6427e-12,-0.73891,0,0,0.14286,-0,-0,0.66667
0.18251,0.071959,1.2776,-0.64206,-40.451,230.69,2.1874,-0.72913,-0.53313,2.9165,6.7533e-10,-0.26657,0,0,0.14286,-0,-0,0.66667
0.44101,0.26331,3.0871,-0.35503,-18.523,121.99,2.9227,-0.97422,-1.5512,3.8969,-2.0561e-13,-0.77559,0,0,0.14286,-0,-0,0.66667
0.57868,0.74507,4.0507,0.36761,15.812,74.203,-3.9709,1.3236,-1.5219,-5.2945,-1.2323e-13,-0.76093,0,0,0.14286,3.3835e-16,0,0.66667
0.83616,0.99925,5.8531,0.74887,14.718,14.69,-11.689,3.8962,-0.0056622,-15.585,-8.2094e-10,-0.0028311,0,0,0.14286,1.3534e-15,0,0.66667
0.58829,0.88145,4.1181,0.57217,24.305,71.562,-6.2833,2.0944,-0.83504,-8.3777,-3.3928e-13,-0.41752,0,0,0.14286,1.3534e-15,0,0.66667
0.92403,0.29377,6.4682,-0.30934,-2.8043,3.6009,5.3357,-1.7786,-1.66,7.1142,-1.283e-08,-0.83001,0,0,0.14286,-1.3534e-15,0,0.66667
0.48128,0.086455,3.369,-0.62032,-31.026,107.5,5.5729,-1.8576,-0.63188,7.4306,1.0201e-12,-0.31594,0,0,0.14286,-0,-0,0.66667
0.62184,0.13831,4.3529,-0.54254,-21.589,61.476,6.2977,-2.0992,-0.95298,8.3969,1.9629e-13,-0.47649,0,0,0.14286,-0,-0,0.66667
0.44171,0.99171,3.0919,0.73757,38.772,122.3,-6.0814,2.0271,-0.065073,-8.1085,5.0893e-13,-0.032537,0,0,0.14286,-1.0151e-15,0,0.66667
0.91251,0.81749,6.3876,0.47623,5.0403,4.91,-8.1119,2.704,-1.1927,-10.816,2.4573e-08,-0.59633,0,0,0.14286,-0,-0,0.66667
0.71041,0.32137,4.9729,-0.26794,-8.5346,37.682,3.5532,-1.1844,-1.7432,4.7376,8.6782e-12,-0.87159,0,0,0.14286,-1.3534e-15,0,0.66667
0.6028,0.34505,4.2196,-0.23242,-9.5446,66.641,2.6152,-0.87175,-1.8076,3.487,1.4497e-12,-0.90378,0,0,0.14286,-2.7068e-15,0,0.66667
0.84339,0.48622,5.9037,-0.020668,-0.37777,12.186,0.32538,-0.10846,-2.0002,0.43384,2.0456e-10,-1.0001,0,0,0.14286,-1.3534e-15,0,0.66667
0.9065,0.013038,6.3455,-0.73044,-8.4853,6.3058,12.36,-4.12,-0.10483,16.48,1.7395e-07,-0.052415,0,0,0.14286,-2.7068e-15,0,0.66667
0.57799,0.65976,4.0459,0.23964,10.301,74.28,-2.5855,0.86183,-1.7988,-3.4473,-3.4506e-13,-0.8994,0,0,0.14286,-0,-0,0.66667
0.2076,0.6129,1.4532,0.16935,10.494,219.19,-0.65625,0.21875,-1.8969,-0.87501,-2.2148e-10,-0.94847,0,0,0.14286,-3.3835e-16,0,0.66667
0.33309,0.014867,2.3316,-0.7277,-42.243,165.35,4.5246,-1.5082,-0.1158,6.0328,1.1262e-12,-0.0579,0,0,0.14286,-0,-0,0.66667
0.92001,0.49872,6.4401,-0.0019155,-0.018101,3.6413,0.032896,-0.010965,-2.0018,0.043861,-1.2766e-07,-1.0009,0,0,0.14286,-1.6918e-16,0,0.66667
0.49116,0.22704,3.4381,-0.40944,-20.13,103.63,3.7539,-1.2513,-1.4025,5.0052,1.8519e-13,-0.70124,0,0,0.14286,-0,-0,0.66667
0.84515,0.33226,5.9161,-0.25161,-4.5665,12.102,3.9694,-1.3231,-1.7758,5.2925,-2.5783e-09,-0.88791,0,0,0.14286,1.3534e-15,0,0.66667
0.49158,0.99983,3.441,0.74975,37.147,104.08,-6.8798,2.2933,-0.0011245,-9.173,1.1915e-12,-0.00056223,0,0,0.14286,1.2688e-16,0,0.66667
0.048249,0.91957,0.33774,0.62936,40.914,292.34,-0.56682,0.18894,-0.59253,-0.75577,-8.0102e-07,-0.29626,0,0,0.14286,8.4588e-17,0,0.66667
0.58842,0.035467,4.119,-0.6968,-29.706,71.812,7.6536,-2.5512,-0.27309,10.205,4.1034e-13,-0.13654,0,0,0.14286,-0,-0,0.66667
0.97989,0.095195,6.8592,-0.60721,-1.4576,1.5072,11.107,-3.7022,-0.68929,14.809,3.042e-06,-0.34464,0,0,0.14286,2.7068e-15,0,0.66667
0.15147,0.91791,1.0603,0.62686,39.905,244.75,-1.7724,0.59079,-0.60163,-2.3632,9.1832e-10,-0.30081,0,0,0.14286,-0,-0,0.66667
0.62692,0.7816,4.3885,0.4224,16.582,59.786,-4.9431,1.6477,-1.3676,-6.5909,3.1841e-13,-0.68381,0,0,0.14286,-2.7068e-15,0,0.66667
0.64441,0.94021,4.5109,0.66032,25.139,55.372,-7.943,2.6477,-0.45004,-10.591,1.5987e-13,-0.22502,0,0,0.14286,-0,-0,0.66667
0.10623,0.51827,0.74358,0.027401,1.754,265.35,-0.054333,0.018111,-1.9969,-0.072444,-8.6228e-09,-0.99845,0,0,0.14286,3.3835e-16,0,0.66667
0.29898,0.936,2.0928,0.654,38.817,179.58,-3.6499,1.2166,-0.48086,-4.8665,2.0519e-12,-0.24043,0,0,0.14286,-8.4588e-17,0,0.66667
0.38954,0.42618,2.7268,-0.11073,-6.0735,141.82,0.80517,-0.26839,-1.9576,1.0736,-9.4869e-14,-0.97879,0,0,0.14286,-3.3835e-16,0,0.66667
0.95436,0.18962,6.6805,-0.46557,-2.546,2.0341,8.294,-2.7647,-1.2315,11.059,5.5118e-09,-0.61576,0,0,0.14286,-2.7068e-15,0,0.66667
0.57675,0.84837,4.0373,0.52255,22.627,75.054,-5.6258,1.8753,-1.0308,-7.5011,7.2964e-13,-0.51539,0,0,0.14286,-1.3534e-15,0,0.66667
0.087358,0.64723,0.61151,0.22084,14.2,274.1,-0.36012,0.12004,-1.8251,-0.48016,-6.614e-09,-0.91257,0,0,0.14286,-0,-0,0.66667
0.10716,0.037267,0.75012,-0.6941,-44.769,265.08,1.3884,-0.46281,-0.28782,1.8512,1.5503e-07,-0.14391,0,0,0.14286,-0,1.0521e-16,0.66667
0.95368,0.43728,6.6758,-0.094083,-0.5022,1.4515,1.6749,-0.55829,-1.9717,2.2332,-2.3379e-07,-0.98586,0,0,0.14286,-1.4803e-16,0,0.66667
0.80534,0.53954,5.6374,0.059309,1.3273,18.144,-0.8916,0.2972,-1.986,-1.1888,8.9826e-11,-0.993,0,0,0.14286,-0,-0,0.66667
0.4283,0.67811,2.9981,0.26717,14.117,126.75,-2.136,0.71201,-1.7447,-2.848,6.0973e-13,-0.87235,0,0,0.14286,-0,-0,0.66667
0.67249,0.83457,4.7074,0.50186,17.798,47.474,-6.2999,2.1,-1.1063,-8.3999,-3.1295e-12,-0.55313,0,0,0.14286,-0,-0,0.66667
0.21193,0.078488,1.4835,-0.63227,-39.346,217.5,2.5013,-0.83375,-0.57679,3.335,-9.0788e-11,-0.28839,0,0,0.14286,-2.5097e-16,0,0.66667
0.52016,0.56299,3.6412,0.09449,4.4488,93.228,-0.91747,0.30582,-1.9687,-1.2233,-1.9829e-13,-0.98433,0,0,0.14286,-0,-0,0.66667
0.97554,0.0057962,6.8288,-0.74131,-2.3302,2.1817,13.499,-4.4998,-0.044889,17.999,5.6862e-06,-0.022444,0,0,0.14286,-0,-0,0.66667
0.83042,0.74754,5.813,0.37132,7.3665,14.445,-5.7559,1.9186,-1.5111,-7.6745,1.2805e-09,-0.75554,0,0,0.14286,-0,-0,0.66667
0.21598,0.68595,1.5119,0.27893,17.233,215.48,-1.1245,0.37484,-1.7245,-1.4994,-1.6013e-10,-0.86226,0,0,0.14286,-8.4588e-17,0,0.66667
0.44842,0.3499,3.139,-0.22516,-11.633,119.1,1.8847,-0.62823,-1.8191,2.5129,2.1094e-14,-0.90956,0,0,0.14286,-0,-0,0.66667
0.57268,0.07627,4.0088,-0.63559,-27.802,76.572,6.7945,-2.2648,-0.56212,9.0594,2.6734e-13,-0.28106,0,0,0.14286,-1.3534e-15,0,0.66667
0.5708,0.13038,3.9956,-0.55443,-24.274,76.995,5.9075,-1.9692,-0.90589,7.8766,1.0654e-12,-0.45294,0,0,0.14286,-1.3534e-15,0,0.66667
0.93053,0.94964,6.5137,0.67447,5.8348,4.1622,-11.715,3.9051,-0.3808,-15.62,5.5513e-07,-0.1904,0,0,0.14286,-0,-0,0.66667
0.2551,0.60925,1.7857,0.16388,9.919,198.16,-0.78036,0.26012,-1.9031,-1.0405,-4.0277e-12,-0.95155,0,0,0.14286,3.3835e-16,0,0.66667
0.65634,0.52892,4.5944,0.04338,1.588,51.237,-0.53148,0.17716,-1.9965,-0.70864,-5.087e-13,-0.99827,0,0,0.14286,3.3835e-16,0,0.66667
0.78125,0.10612,5.4687,-0.59082,-14.91,23.307,8.616,-2.872,-0.76104,11.488,-1.2768e-11,-0.38052,0,0,0.14286,1.3534e-15,0,0.66667
0.11597,0.14207,0.8118,-0.53689,-34.453,260.96,1.1623,-0.38742,-0.97331,1.5497,1.0094e-08,-0.48665,0,0,0.14286,-1.6918e-16,0,0.66667
0.52639,0.76906,3.6847,0.40359,18.895,91.352,-3.9657,1.3219,-1.4196,-5.2876,7.0988e-13,-0.7098,0,0,0.14286,-0,-0,0.66667
0.41234,0.50357,2.8864,0.0053589,0.28745,132.83,-0.041248,0.013749,-1.9992,-0.054997,-7.0742e-13,-0.9996,0,0,0.14286,-0,-0,0.66667
0.50229,0.04608,3.516,-0.68088,-33.191,100.15,6.384,-2.128,-0.35175,8.512,1.4766e-12,-0.17587,0,0,0.14286,-0,-0,0.66667
0.065315,0.70099,0.45721,0.30149,19.466,284.35,-0.36758,0.12253,-1.6766,-0.4901,2.2366e-09,-0.83829,0,0,0.14286,-0,-0,0.66667
0.26954,0.92971,1.8868,0.64456,38.954,192.2,-3.243,1.081,-0.52232,-4.324,5.526e-12,-0.26116,0,0,0.14286,1.6918e-16,0,0.66667
0.25,0.74757,1.75,0.37135,22.582,200.48,-1.733,0.57766,-1.513,-2.3106,-8.7617e-12,-0.75649,0,0,0.14286,-4.2294e-16,0,0.66667
0.66868,0.45537,4.6807,-0.066951,-2.3796,47.954,0.83568,-0.27856,-1.9836,1.1142,1.7458e-12,-0.9918,0,0,0.14286,-0,-0,0.66667
0.050074,0.06621,0.35052,-0.65069,-42.311,291.49,0.60821,-0.20274,-0.49509,0.81094,5.1861e-07,-0.24755,0,0,0.14286,-0,-0,0.66667
0.97313,0.305,6.8119,-0.2925,-0.86833,0.85254,5.3134,-1.7711,-1.6951,7.0845,8.9036e-08,-0.84756,0,0,0.14286,6.7671e-16,0,0.66667
0.37569,0.52209,2.6298,0.033132,1.8398,147.35,-0.23235,0.077449,-1.9978,-0.3098,2.178e-12,-0.9989,0,0,0.14286,-0,-0,0.66667
0.87187,0.85284,6.1031,0.52926,8.1384,9.218,-8.6137,2.8712,-1.0038,-11.485,2.7635e-09,-0.50192,0,0,0.14286,-0,-0,0.66667
0.69429,0.93895,4.86,0.65843,22.193,42.354,-8.5333,2.8444,-0.45814,-11.378,-2.1965e-12,-0.22907,0,0,0.14286,2.7068e-15,0,0.66667
0.029579,0.41966,0.20705,-0.1205,-7.7975,300.99,0.066535,-0.022178,-1.949,0.088713,-1.0284e-07,-0.97448,0,0,0.14286,-0,-0,0.66667
0.087271,0.76168,0.61089,0.39252,25.283,274.17,-0.63943,0.21314,-1.4505,-0.85257,-1.9936e-08,-0.72526,0,0,0.14286,1.6918e-16,0,0.66667
0.094963,0.37423,0.66474,-0.18865,-12.111,270.57,0.33441,-0.11147,-1.876,0.44588,2.3609e-09,-0.93798,0,0,0.14286,2.1147e-17,0,0.66667
0.56423,0.50795,3.9496,0.011919,0.52385,78.553,-0.12553,0.041845,-2.0004,-0.16738,-3.8561e-13,-1.0002,0,0,0.14286,-0,-0,0.66667
0.56604,0.2336,3.9623,-0.39961,-17.576,78.251,4.2223,-1.4074,-1.4315,5.6297,-3.344e-13,-0.71577,0,0,0.14286,-0,-0,0.66667
0.31061,0.384,2.1743,-0.174,-10.175,174.27,1.0088,-0.33628,-1.8931,1.3451,-2.6276e-12,-0.94653,0,0,0.14286,-0,-0,0.66667
0.11319,0.87245,0.79236,0.55867,35.887,262.25,-1.1804,0.39348,-0.8906,-1.5739,-1.0528e-08,-0.4453,0,0,0.14286,2.1147e-16,0,0.66667
0.76861,0.52494,5.3802,0.037417,0.97867,24.896,-0.53683,0.17894,-1.9953,-0.71578,1.7342e-12,-0.99763,0,0,0.14286,1.3534e-15,0,0.66667
0.1382,0.84383,0.96739,0.51574,32.893,250.75,-1.3305,0.44349,-1.056,-1.774,-8.6971e-09,-0.52798,0,0,0.14286,-3.3835e-16,0,0.66667
0.58503,0.095523,4.0952,-0.60672,-25.95,72.644,6.6257,-2.2086,-0.69069,8.8343,9.5923e-14,-0.34534,0,0,0.14286,-0,-0,0.66667
0.50868,0.97428,3.5607,0.71142,34.411,97.992,-6.7552,2.2517,-0.19932,-9.0069,1.2124e-13,-0.099661,0,0,0.14286,-0,-0,0.66667
0.51012,0.013825,3.5709,-0.72926,-35.223,97.531,6.9442,-2.3147,-0.10755,9.259,-5.9064e-14,-0.053773,0,0,0.14286,1.3534e-15,0,0.66667
0.35934,0.72806,2.5154,0.34209,19.306,154.11,-2.2946,0.76487,-1.5862,-3.0595,2.8908e-12,-0.79312,0,0,0.14286,-6.7671e-16,0,0.66667
0.055479,0.14494,0.38835,-0.53259,-34.535,288.96,0.55156,-0.18385,-0.98971,0.73541,6.7619e-08,-0.49486,0,0,0.14286,8.4588e-17,0,0.66667
0.33619,0.049735,2.3534,-0.6754,-39.064,163.99,4.2385,-1.4128,-0.37626,5.6514,4.6185e-12,-0.18813,0,0,0.14286,-0,-0,0.66667
0.94985,0.013907,6.649,-0.72914,-4.6347,3.1993,12.928,-4.3094,-0.10917,17.237,7.1108e-08,-0.054585,0,0,0.14286,-2.7068e-15,0,0.66667
0.94833,0.78205,6.6383,0.42308,2.6142,2.2403,-7.4895,2.4965,-1.3638,-9.986,-1.9828e-08,-0.6819,0,0,0.14286,-2.7068e-15,0,0.66667
0.42932,0.44979,3.0052,-0.075315,-3.9702,126.28,0.60357,-0.20119,-1.978,0.80477,4.1273e-13,-0.98901,0,0,0.14286,-0,-0,0.66667
0.74205,0.14857,5.1943,-0.52714,-15.32,31.013,7.3018,-2.4339,-1.0105,9.7357,-1.3283e-12,-0.50526,0,0,0.14286,-6.7671e-16,0,0.66667
0.55762,0.17284,3.9033,-0.49073,-21.929,81.109,5.108,-1.7027,-1.1424,6.8106,3.3618e-13,-0.57121,0,0,0.14286,-0,-0,0.66667
0.914,0.87556,6.398,0.56334,5.9148,5.0404,-9.6114,3.2038,-0.87133,-12.815,6.9514e-08,-0.43566,0,0,0.14286,-0,-0,0.66667
0.73641,0.39326,5.1549,-0.16011,-4.6987,31.656,2.201,-0.73366,-1.9092,2.9346,8.7708e-14,-0.95459,0,0,0.14286,-0,-0,0.66667
0.39393,0.63678,2.7575,0.20517,11.214,140.11,-1.5087,0.5029,-1.8499,-2.0116,6.7024e-13,-0.92493,0,0,0.14286,6.7671e-16,0,0.66667
0.060535,0.75189,0.42375,0.37783,24.43,286.58,-0.42695,0.14232,-1.4941,-0.56927,-5.0601e-09,-0.74704,0,0,0.14286,-1.6918e-16,0,0.66667
0.81061,0.58738,5.6743,0.13107,2.8623,17.289,-1.9833,0.6611,-1.9399,-2.6444,4.8186e-10,-0.96996,0,0,0.14286,6.7671e-16,0,0.66667
0.31642,0.97422,2.2149,0.71133,41.779,172.29,-4.2015,1.4005,-0.20076,-5.6019,4.6212e-12,-0.10038,0,0,0.14286,-0,-0,0.66667
0.49421,0.68121,3.4594,0.27181,13.283,102.4,-2.5075,0.83584,-1.7363,-3.3433,3.062e-13,-0.86814,0,0,0.14286,-0,-0,0.66667
0.54153,0.6435,3.7907,0.21525,9.8237,86.063,-2.1759,0.72529,-1.8338,-2.9011,-4.4853e-13,-0.91691,0,0,0.14286,6.7671e-16,0,0.66667
0.51753,0.78627,3.6227,0.42941,20.372,94.418,-4.1483,1.3828,-1.3455,-5.5311,-5.7998e-13,-0.67277,0,0,0.14286,1.3534e-15,0,0.66667
0.14619,0.13214,1.0233,-0.5518,-35.132,247.11,1.5058,-0.50194,-0.91635,2.0077,4.3176e-09,-0.45817,0,0,0.14286,-3.3835e-16,0,0.66667
0.35934,0.096238,2.5154,-0.60564,-34.336,154.39,4.0625,-1.3542,-0.69907,5.4167,3.2743e-12,-0.34954,0,0,0.14286,-1.3534e-15,4.9584e-17,0.66667
0.36131,0.63708,2.5292,0.20562,11.569,153.22,-1.3868,0.46226,-1.8501,-1.849,2.39e-12,-0.92506,0,0,0.14286,-0,-0,0.66667
0.2158,0.83074,1.5106,0.49611,30.741,215.67,-1.9984,0.66614,-1.1246,-2.6646,-1.4818e-11,-0.56228,0,0,0.14286,-0,-0,0.66667
0.036849,0.61652,0.25794,0.17478,11.307,297.6,-0.12022,0.040074,-1.8902,-0.1603,4.3405e-08,-0.94508,0,0,0.14286,4.2294e-17,0,0.66667
0.92418,0.69037,6.4692,0.28556,2.5795,3.5491,-4.9263,1.6421,-1.7113,-6.5684,1.0153e-08,-0.85564,0,0,0.14286,-0,-0,0.66667
0.35432,0.80691,2.4802,0.46037,26.134,156.27,-3.0449,1.015,-1.2457,-4.0598,1.7151e-12,-0.62287,0,0,0.14286,-6.7671e-16,0,0.66667
0.1958,0.54138,1.3706,0.062064,3.8634,224.47,-0.22684,0.075613,-1.9846,-0.30245,-9.1311e-11,-0.99232,0,0,0.14286,-0,-0,0.66667
0.86409,0.83363,6.0486,0.50044,8.1212,10.086,-8.0719,2.6906,-1.1085,-10.763,7.0199e-09,-0.55425,0,0,0.14286,6.7671e-16,0,0.66667
0.49805,0.99137,3.4864,0.73706,36.195,101.77,-6.8524,2.2841,-0.069132,-9.1365,1.2035e-12,-0.034566,0,0,0.14286,-0,-1.3527e-16,0.66667
0.81993,0.12919,5.7395,-0.55622,-11.763,16.515,8.5131,-2.8377,-0.89901,11.351,-1.5462e-09,-0.44951,0,0,0.14286,-0,-0,0.66667
0.76332,0.76385,5.3432,0.39578,10.625,26.317,-5.6394,1.8798,-1.4431,-7.5191,3.0668e-11,-0.72157,0,0,0.14286,-0,-0,0.66667
0.11672,0.11806,0.81707,-0.57291,-36.781,260.63,1.2483,-0.4161,-0.83161,1.6644,5.9003e-09,-0.41581,0,0,0.14286,-0,-0,0.66667
0.51608,0.038475,3.6126,-0.69229,-33.123,95.391,6.6691,-2.223,-0.29809,8.8922,-4.7029e-13,-0.14904,0,0,0.14286,-0,-0,0.66667
0.33424,0.051297,2.3397,-0.67305,-38.984,164.79,4.1993,-1.3998,-0.38775,5.5991,4.1687e-12,-0.19387,0,0,0.14286,-3.3835e-16,0,0.66667
0.68594,0.59465,4.8016,0.14198,4.8317,43.543,-1.818,0.60599,-1.9305,-2.4239,-5.22e-12,-0.96525,0,0,0.14286,2.7068e-15,0,0.66667
0.78722,0.7192,5.5105,0.3288,8.0144,21.613,-4.8317,1.6106,-1.6155,-6.4422,1.8929e-10,-0.80777,0,0,0.14286,-0,-0,0.66667
0.28471,0.056333,1.993,-0.6655,-39.872,185.69,3.5369,-1.179,-0.42524,4.7158,7.1654e-13,-0.21262,0,0,0.14286,1.6918e-16,0,0.66667
0.42001,0.21253,2.94,-0.4312,-23.034,130.1,3.3807,-1.1269,-1.3399,4.5076,1.3614e-12,-0.66996,0,0,0.14286,-4.2801e-16,0,0.66667
0.88235,0.1231,6.1765,-0.56535,-8.0372,8.1256,9.3116,-3.1039,-0.86301,12.416,-1.8807e-08,-0.43151,0,0,0.14286,-1.8609e-15,0,0.66667
0.764,0.17385,5.348,-0.48922,-13.142,26.376,6.977,-2.3257,-1.1496,9.3027,-1.1875e-11,-0.57482,0,0,0.14286,4.4865e-16,0,0.66667
0.2849,0.58467,1.9943,0.127,7.5518,185.22,-0.6754,0.22513,-1.9422,-0.90054,6.5735e-12,-0.97109,0,0,0.14286,-0,-0,0.66667
0.72388,0.24783,5.0672,-0.37826,-11.599,34.719,5.1112,-1.7037,-1.4911,6.8149,6.966e-12,-0.74556,0,0,0.14286,1.5226e-15,0,0.66667
0.02714,0.88026,0.18998,0.57039,37.098,302.15,-0.28897,0.096324,-0.84298,-0.38529,1.6515e-06,-0.42149,0,0,0.14286,-0,-0,0.66667
0.5633,0.13067,3.9431,-0.554,-24.563,79.391,5.8252,-1.9417,-0.91075,7.767,-3.0642e-14,-0.45538,0,0,0.14286,-0,-0,0.66667
0.041077,0.30632,0.28754,-0.29052,-18.805,295.63,0.22277,-0.074255,-1.6989,0.29702,-6.613e-08,-0.84944,0,0,0.14286,2.1147e-17,0,0.66667
0.12608,0.92068,0.88257,0.63102,40.463,256.36,-1.4851,0.49504,-0.58532,-1.9801,-4.1741e-09,-0.29266,0,0,0.14286,-0,-0,0.66667
0.8206,0.68309,5.7442,0.27464,5.7217,15.811,-4.2068,1.4023,-1.7308,-5.6091,9.4467e-10,-0.8654,0,0,0.14286,1.6918e-15,0,0.66667
0.68161,0.36204,4.7713,-0.20694,-7.1273,44.689,2.633,-0.87766,-1.8461,3.5106,4.9647e-12,-0.92306,0,0,0.14286,-0,-0,0.66667
0.43883,0.27458,3.0718,-0.33813,-17.68,122.8,2.7698,-0.92326,-1.5949,3.693,9.4968e-13,-0.79745,0,0,0.14286,6.7671e-16,0,0.66667
0.39571,0.61688,2.77,0.17532,9.5641,139.39,-1.295,0.43168,-1.8897,-1.7267,1.0351e-12,-0.94485,0,0,0.14286,-3.3835e-16,0,0.66667
0.8758,0.4865,6.1306,-0.02025,-0.29642,7.9958,0.33104,-0.11035,-1.9999,0.44139,5.099e-09,-0.99995,0,0,0.14286,-1.3534e-15,0,0.66667
0.23877,0.5567,1.6714,0.085047,5.1907,205.32,-0.37905,0.12635,-1.9738,-0.5054,-1.7093e-11,-0.98691,0,0,0.14286,-3.3835e-16,0,0.66667
0.39398,0.001837,2.7579,-0.74724,-41.239,140.72,5.4955,-1.8318,-0.015397,7.3273,1.41e-12,-0.0076986,0,0,0.14286,-0,-0,0.66667
0.14348,0.50665,1.0043,0.0099806,0.63281,248.22,-0.026731,0.0089102,-1.9999,-0.035641,-1.0781e-09,-0.99996,0,0,0.14286,-0,-0,0.66667
0.67243,0.68583,4.707,0.27874,9.8366,47.126,-3.4987,1.1662,-1.7267,-4.665,-5.3089e-12,-0.86333,0,0,0.14286,1.6918e-15,0,0.66667
0.17561,0.1644,1.2293,-0.5034,-31.713,233.72,1.6502,-0.55006,-1.0986,2.2002,4.8435e-10,-0.54928,0,0,0.14286,-0,-0,0.66667
0.99975,0.58791,6.9983,0.13187,-0.070302,0.056562,-2.461,0.82033,-1.9407,-3.2813,1.3231e-07,-0.97034,0,0,0.14286,2.0301e-15,0,0.66667
0.96443,0.061345,6.751,-0.65798,-2.9152,2.2235,11.845,-3.9485,-0.46102,15.794,-8.3779e-07,-0.23051,0,0,0.14286,1.4276e-16,2.3122e-19,0.66667
0.067754,0.62595,0.47428,0.18893,12.183,283.2,-0.23894,0.079647,-1.8731,-0.31859,-2.4067e-09,-0.93656,0,0,0.14286,-0,-0,0.66667
0.070849,0.68179,0.49594,0.27268,17.588,281.77,-0.36063,0.12021,-1.7344,-0.48084,-2.6347e-09,-0.86721,0,0,0.14286,8.4245e-17,0,0.66667
0.24709,0.98977,1.7296,0.73466,45.05,202.07,-3.3885,1.1295,-0.080864,-4.518,-2.6812e-11,-0.040432,0,0,0.14286,-0,-0,0.66667
0.31125,0.94493,2.1788,0.66739,39.298,174.4,-3.8776,1.2925,-0.4177,-5.1701,4.5066e-12,-0.20885,0,0,0.14286,-0,-1.2261e-16,0.66667
0.79794,0.47305,5.5856,-0.040429,-0.93608,19.423,0.60218,-0.20073,-1.9962,0.8029,1.081e-11,-0.99808,0,0,0.14286,-0,-0,0.66667
0.75286,0.039929,5.27,-0.69011,-19.47,29.197,9.6984,-3.2328,-0.30672,12.931,-4.6798e-12,-0.15336,0,0,0.14286,-0,-0,0.66667
0.1789,0.62924,1.2523,0.19387,12.155,232.11,-0.64743,0.21581,-1.8654,-0.86324,-7.0602e-10,-0.93271,0,0,0.14286,-0,-0,0.66667
0.74052,0.97561,5.1837,0.71342,21.011,31.874,-9.8617,3.2872,-0.18915,-13.149,-5.5573e-12,-0.094577,0,0,0.14286,-0,-0,0.66667
0.37683,0.39631,2.6378,-0.15553,-8.6317,146.92,1.094,-0.36468,-1.9147,1.4587,1.3495e-12,-0.95733,0,0,0.14286,-3.3835e-16,0,0.66667
0.31534,0.70013,2.2074,0.30019,17.515,172.33,-1.767,0.58901,-1.6794,-2.356,7.3392e-12,-0.83969,0,0,0.14286,-0,-0,0.66667
0.20011,0.44566,1.4008,-0.081505,-5.0648,222.53,0.30445,-0.10148,-1.9764,0.40593,2.4806e-10,-0.98819,0,0,0.14286,-0,-0,0.66667
0.55685,0.91835,3.8979,0.62753,28.176,81.622,-6.5228,2.1743,-0.59835,-8.6971,2.1094e-13,-0.29917,0,0,0.14286,-0,-0,0.66667
0.50796,0.50437,3.5557,0.0065619,0.31426,97.442,-0.06222,0.02074,-1.9988,-0.082959,-1.675e-13,-0.99942,0,0,0.14286,-0,-0,0.66667
0.90452,0.70466,6.3316,0.30699,3.4982,5.2488,-5.1833,1.7278,-1.6654,-6.9111,1.375e-08,-0.83272,0,0,0.14286,1.3534e-15,0,0.66667
0.16445,0.34793,1.1511,-0.22811,-14.379,238.67,0.70023,-0.23341,-1.814,0.93364,1.5058e-09,-0.90701,0,0,0.14286,3.3835e-16,0,0.66667
0.026083,0.59446,0.18258,0.14169,9.1711,302.62,-0.068986,0.022995,-1.9287,-0.091981,-1.76e-07,-0.96437,0,0,0.14286,-8.4588e-17,0,0.66667
0.13921,0.95529,0.97444,0.68293,43.685,250.37,-1.7746,0.59153,-0.34252,-2.3661,1.0988e-08,-0.17126,0,0,0.14286,1.6918e-16,0,0.66667
0.036355,0.54886,0.25448,0.073286,4.7393,297.83,-0.049734,0.016578,-1.9795,-0.066311,1.4523e-07,-0.98976,0,0,0.14286,-0,-0,0.66667
0.56867,0.14428,3.9807,-0.53358,-23.433,77.632,5.6641,-1.888,-0.98608,7.5521,-2.8155e-13,-0.49304,0,0,0.14286,6.7671e-16,0,0.66667
0.77158,0.8076,5.401,0.4614,12.031,24.821,-6.6455,2.2152,-1.2422,-8.8606,-3.582e-12,-0.62109,0,0,0.14286,1.1851e-16,0,0.66667
0.98718,0.43122,6.9102,-0.10317,-0.11271,0.23471,1.9011,-0.63371,-1.9625,2.5348,-8.3541e-07,-0.98125,0,0,0.14286,1.3534e-15,0,0.66667
0.84725,0.28018,5.9307,-0.32974,-5.9236,11.929,5.2149,-1.7383,-1.6142,6.9531,-2.7878e-09,-0.80711,0,0,0.14286,1.6072e-15,0,0.66667
0.16958,0.98056,1.187,0.72084,45.708,236.59,-2.2818,0.76059,-0.15269,-3.0423,9.9888e-10,-0.076345,0,0,0.14286,-0,-0,0.66667
0.97796,0.71129,6.8457,0.31693,0.75083,0.74472,-5.7856,1.9285,-1.6416,-7.7141,-8.5229e-08,-0.82078,0,0,0.14286,6.7671e-16,0,0.66667
0.57851,0.90904,4.0496,0.61356,26.552,74.69,-6.6258,2.2086,-0.66433,-8.8343,8.5709e-14,-0.33217,0,0,0.14286,-0,-0,0.66667
0.81024,0.79035,5.6717,0.43552,9.6059,17.786,-6.587,2.1957,-1.326,-8.7826,4.3224e-10,-0.663,0,0,0.14286,-0,-0,0.66667
0.011419,0.15292,0.079935,-0.52062,-33.852,309.48,0.11097,-0.036991,-1.0363,0.14797,3.8857e-07,-0.51815,0,0,0.14286,2.6434e-17,0,0.66667
0.19796,0.603,1.3857,0.15449,9.6118,223.51,-0.57088,0.19029,-1.914,-0.76118,-2.4444e-10,-0.95699,0,0,0.14286,-0,-0,0.66667
0.92504,0.52199,6.4753,0.032981,0.29174,3.2521,-0.56949,0.18983,-1.9959,-0.75933,-2.0038e-09,-0.99796,0,0,0.14286,-1.3534e-15,0,0.66667
0.24256,0.74135,1.6979,0.36202,22.099,203.74,-1.6392,0.54639,-1.5325,-2.1856,-2.5496e-11,-0.76623,0,0,0.14286,-1.6918e-16,0,0.66667
0.53957,0.25709,3.777,-0.36437,-16.712,86.862,3.6699,-1.2233,-1.5266,4.8932,-2.1338e-13,-0.76329,0,0,0.14286,-0,-0,0.66667
0.72603,0.70667,5.0822,0.31001,9.4276,34.125,-4.2014,1.4005,-1.6565,-5.6019,-8.495e-12,-0.82825,0,0,0.14286,6.7671e-16,0,0.66667
0.10091,0.60359,0.70638,0.15539,9.9618,267.82,-0.2927,0.097566,-1.9125,-0.39026,1.2891e-09,-0.95626,0,0,0.14286,-0,-0,0.66667
0.57273,0.81592,4.0091,0.47388,20.639,76.236,-5.0663,1.6888,-1.2011,-6.755,9.1482e-14,-0.60054,0,0,0.14286,-0,-0,0.66667
0.21267,0.59838,1.4887,0.14757,9.1227,216.92,-0.58585,0.19528,-1.9217,-0.78113,-1.9424e-10,-0.96085,0,0,0.14286,-0,-0,0.66667
0.35815,0.26562,2.507,-0.35157,-19.863,154.6,2.3504,-0.78347,-1.5615,3.1339,6.2839e-14,-0.78073,0,0,0.14286,-0,-0,0.66667
0.44382,0.0011254,3.1067,-0.74831,-39.258,121.53,6.1995,-2.0665,-0.0087108,8.266,-2.3004e-13,-0.0043554,0,0,0.14286,-0,-0,0.66667
0.74936,0.8214,5.2455,0.48211,13.646,29.358,-6.7437,2.2479,-1.1754,-8.9916,6.0223e-12,-0.58769,0,0,0.14286,-0,-0,0.66667
0.91396,0.3715,6.3977,-0.19275,-1.9687,4.247,3.2885,-1.0962,-1.867,4.3847,4.6762e-09,-0.93351,0,0,0.14286,3.3835e-16,0,0.66667
0.96955,0.19833,6.7868,-0.4525,-1.6054,1.3395,8.1895,-2.7298,-1.2734,10.919,3.4542e-07,-0.63672,0,0,0.14286,-0,-0,0.66667
0.38163,0.5754,2.6714,0.1131,6.2486,144.98,-0.8057,0.26857,-1.9528,-1.0743,1.998e-12,-0.97638,0,0,0.14286,-0,-0,0.66667
0.2518,0.72976,1.7626,0.34464,20.93,199.68,-1.6199,0.53995,-1.5783,-2.1598,-4.0646e-12,-0.78915,0,0,0.14286,-0,-0,0.66667
0.27102,0.27498,1.8971,-0.33753,-20.275,191.3,1.7076,-0.56919,-1.594,2.2768,-4.7056e-12,-0.79701,0,0,0.14286,-0,-0,0.66667
0.76456,0.37618,5.352,-0.18573,-4.9394,25.777,2.6507,-0.88357,-1.8799,3.5343,-5.6151e-11,-0.93994,0,0,0.14286,-0,-0,0.66667
0.84258,0.21958,5.898,-0.42063,-7.8031,12.764,6.6157,-2.2052,-1.3734,8.821,-1.8768e-09,-0.68671,0,0,0.14286,-0,-0,0.66667
0.16474,0.29683,1.1532,-0.30476,-19.222,238.56,0.93721,-0.3124,-1.6679,1.2496,1.8191e-09,-0.83395,0,0,0.14286,3.3835e-16,0,0.66667
0.029941,0.43297,0.20959,-0.10055,-6.5056,300.82,0.056195,-0.018732,-1.9658,0.074927,-4.1291e-07,-0.98289,0,0,0.14286,-5.2868e-17,0,0.66667
0.84738,0.81486,5.9317,0.4723,8.5336,12.212,-7.4707,2.4902,-1.2074,-9.9609,3.2931e-09,-0.60368,0,0,0.14286,-0,-0,0.66667
0.15971,0.19924,1.1179,-0.45114,-28.555,240.9,1.3449,-0.44831,-1.2758,1.7932,1.5423e-09,-0.6379,0,0,0.14286,-0,-0,0.66667
0.94524,0.14806,6.6167,-0.5279,-3.5184,2.7088,9.3146,-3.1049,-1.0076,12.419,-4.7554e-08,-0.50381,0,0,0.14286,-0,-0,0.66667
0.96751,0.35581,6.7726,-0.21629,-0.78757,0.94047,3.9062,-1.3021,-1.8347,5.2082,3.4467e-08,-0.91734,0,0,0.14286,-0,-0,0.66667
0.57819,0.83392,4.0473,0.50088,21.623,74.565,-5.4059,1.802,-1.1102,-7.2079,6.5015e-13,-0.55512,0,0,0.14286,-6.7671e-16,0,0.66667
0.48604,0.63591,3.4022,0.20386,10.063,105.27,-1.8496,0.61653,-1.853,-2.4661,-3.4928e-13,-0.92648,0,0,0.14286,1.3534e-15,0,0.66667
0.35393,0.35613,2.4775,-0.21581,-12.218,156.24,1.4258,-0.47526,-1.8329,1.901,7.7482e-13,-0.91647,0,0,0.14286,-0,-0,0.66667
0.6594,0.29794,4.6158,-0.30309,-11.044,50.597,3.7306,-1.2435,-1.6729,4.9742,3.9835e-12,-0.83645,0,0,0.14286,-1.3534e-15,0,0.66667
0.38436,0.38127,2.6905,-0.1781,-9.8188,143.91,1.2778,-0.42594,-1.8861,1.7038,8.2567e-13,-0.94305,0,0,0.14286,-0,-0,0.66667
0.4349,0.90146,3.0443,0.60219,31.777,124.63,-4.8887,1.6296,-0.71131,-6.5182,6.5237e-13,-0.35566,0,0,0.14286,-5.8837e-16,0,0.66667
0.6133,0.52098,4.2931,0.031468,1.2643,63.41,-0.36026,0.12009,-1.9958,-0.48034,6.3588e-14,-0.99788,0,0,0.14286,-0,-0,0.66667
0.034635,0.203,0.24244,-0.4455,-28.903,298.65,0.28802,-0.096008,-1.2937,0.38403,-1.7899e-07,-0.64685,0,0,0.14286,-0,-0,0.66667
0.2188,0.11224,1.5316,-0.58163,-36.046,214.4,2.3756,-0.79186,-0.79926,3.1675,1.019e-10,-0.39963,0,0,0.14286,3.3835e-16,0,0.66667
0.020192,0.93538,0.14134,0.65307,42.558,305.4,-0.24615,0.082052,-0.4836,-0.3282,3.331e-06,-0.2418,0,0,0.14286,1.0574e-17,0,0.66667
0.76313,0.32398,5.3419,-0.26403,-7.069,26.148,3.7611,-1.2537,-1.7522,5.0148,-4.789e-11,-0.87611,0,0,0.14286,-0,-0,0.66667
0.38987,0.84046,2.7291,0.51069,28.134,141.99,-3.7166,1.2389,-1.0751,-4.9554,-9.5124e-13,-0.53756,0,0,0.14286,1.0151e-15,0,0.66667
0.42267,0.73317,2.9587,0.34975,18.609,128.98,-2.7595,0.91983,-1.5664,-3.6793,8.1113e-13,-0.7832,0,0,0.14286,-0,-0,0.66667
0.54968,0.94503,3.8478,0.66754,30.354,84.047,-6.8495,2.2832,-0.41579,-9.1327,-5.9952e-13,-0.20789,0,0,0.14286,-0,-0,0.66667
0.38846,0.4312,2.7192,-0.1032,-5.6662,142.25,0.74836,-0.24945,-1.9629,0.99782,4.9105e-13,-0.98146,0,0,0.14286,5.6837e-16,0,0.66667
0.81063,0.04767,5.6744,-0.67849,-15.127,18.404,10.267,-3.4223,-0.3636,13.689,-3.4377e-10,-0.1818,0,0,0.14286,-1.3534e-15,1.6874e-16,0.66667
0.4359,0.39591,3.0513,-0.15614,-8.1755,123.79,1.2705,-0.42349,-1.9141,1.694,-8.249e-14,-0.95707,0,0,0.14286,-0,-0,0.66667
0.58016,0.32005,4.0611,-0.26993,-11.563,73.627,2.9232,-0.9744,-1.7417,3.8976,-1.6498e-13,-0.87084,0,0,0.14286,-0,-0,0.66667
0.97117,0.91384,6.7982,0.62076,2.1906,1.8266,-11.253,3.7512,-0.63034,-15.005,-3.8151e-06,-0.31517,0,0,0.14286,-0,-0,0.66667
0.9921,0.033589,6.9447,-0.69962,-0.66638,1.6176,12.956,-4.3188,-0.25902,17.275,-3.2429e-05,-0.12951,0,0,0.14286,-0,-0,0.66667
0.20287,0.55308,1.4201,0.079624,4.9421,221.29,-0.30153,0.10051,-1.9796,-0.40205,-1.9659e-10,-0.98978,0,0,0.14286,1.6918e-16,0,0.66667
0.44452,0.55972,3.1116,0.089585,4.6448,120.5,-0.74335,0.24778,-1.9708,-0.99113,9.997e-13,-0.98538,0,0,0.14286,-8.4588e-16,0,0.66667
0.47475,0.43021,3.3232,-0.10468,-5.2377,109.31,0.92766,-0.30922,-1.9598,1.2369,-5.228e-13,-0.97992,0,0,0.14286,-3.3835e-16,0,0.66667
0.29764,0.31278,2.0835,-0.28082,-16.581,179.83,1.5602,-0.52008,-1.7226,2.0803,-5.2846e-12,-0.8613,0,0,0.14286,-0,-0,0.66667
0.2835,0.33054,1.9845,-0.25418,-15.141,185.87,1.3452,-0.44839,-1.7704,1.7936,-5.2445e-12,-0.88522,0,0,0.14286,3.3835e-16,0,0.66667
0.83962,0.2301,5.8773,-0.40485,-7.6363,13.153,6.3451,-2.115,-1.4164,8.4602,-1.9986e-09,-0.70818,0,0,0.14286,-0,-0,0.66667
0.96209,0.37044,6.7347,-0.19434,-0.83856,1.1378,3.4901,-1.1634,-1.8648,4.6535,6.8047e-09,-0.93238,0,0,0.14286,1.3534e-15,0,0.66667
0.21069,0.41499,1.4748,-0.12752,-7.889,217.8,0.5015,-0.16717,-1.9406,0.66867,1.6789e-10,-0.97031,0,0,0.14286,-0,-0,0.66667
0.89173,0.15768,6.2421,-0.51348,-6.7117,6.9723,8.5472,-2.8491,-1.065,11.396,-2.663e-08,-0.5325,0,0,0.14286,-0,-0,0.66667
0.39198,0.69947,2.7438,0.2992,16.398,140.94,-2.1892,0.72974,-1.6826,-2.9189,1.1025e-12,-0.84131,0,0,0.14286,-0,-0,0.66667
0.65143,0.76837,4.56,0.40255,14.972,52.896,-4.895,1.6317,-1.4226,-6.5267,-2.8026e-12,-0.71129,0,0,0.14286,6.7671e-16,0,0.66667
0.28386,0.45812,1.987,-0.062823,-3.7373,185.66,0.33288,-0.11096,-1.986,0.44385,3.0129e-13,-0.99301,0,0,0.14286,-3.3835e-16,0,0.66667
0.94108,0.78644,6.5876,0.42966,3.042,2.6811,-7.5478,2.5159,-1.3437,-10.064,1.6453e-08,-0.67183,0,0,0.14286,2.7068e-15,0,0.66667
0.78682,0.96331,5.5077,0.69497,17.238,22.604,-10.207,3.4024,-0.2819,-13.61,1.6484e-10,-0.14095,0,0,0.14286,6.7671e-16,0,0.66667
0.19277,0.17672,1.3494,-0.48492,-30.339,225.97,1.7449,-0.58165,-1.1626,2.3266,3.5759e-10,-0.58131,0,0,0.14286,-0,-0,0.66667
0.61504,0.38579,4.3053,-0.17132,-6.8642,62.951,1.9669,-0.65563,-1.8942,2.6225,9.4447e-13,-0.9471,0,0,0.14286,-0,-0,0.66667
0.9688,0.42481,6.7816,-0.11279,-0.3884,0.78844,2.0397,-0.67991,-1.9569,2.7196,1.2643e-07,-0.97843,0,0,0.14286,-0,-0,0.66667
0.28459,0.53069,1.9921,0.046028,2.7369,185.35,-0.24451,0.081504,-1.9935,-0.32602,3.4857e-12,-0.99673,0,0,0.14286,-1.6918e-16,0,0.66667
0.36153,0.84654,2.5307,0.51981,29.364,153.39,-3.508,1.1693,-1.0406,-4.6773,8.5909e-13,-0.52031,0,0,0.14286,1.3534e-15,0,0.66667
0.20361,0.49983,1.4253,-0.00025463,-0.015797,220.95,0.00096777,-0.00032259,-2.0033,0.0012904,1.3233e-10,-1.0016,0,0,0.14286,4.3352e-16,0,0.66667
0.63877,0.44604,4.4714,-0.080933,-3.0835,56.086,0.96502,-0.32167,-1.9775,1.2867,1.0603e-12,-0.98874,0,0,0.14286,-0,-0,0.66667
0.89282,0.80222,6.2497,0.45332,5.8407,6.6996,-7.5551,2.5184,-1.2697,-10.073,1.1798e-08,-0.63484,0,0,0.14286,-1.3534e-15,0,0.66667
0.3417,0.99116,2.3919,0.73675,42.499,161.81,-4.6992,1.5664,-0.070658,-6.2656,-1.8918e-13,-0.035329,0,0,0.14286,6.6296e-17,1.3724e-16,0.66667
0.1244,0.22631,0.87079,-0.41054,-26.239,257.04,0.95331,-0.31777,-1.4027,1.2711,6.8485e-09,-0.70135,0,0,0.14286,-0,-0,0.66667
0.34768,0.83832,2.4337,0.50749,28.987,159.04,-3.2936,1.0979,-1.0841,-4.3914,2.8839e-12,-0.54205,0,0,0.14286,-3.3835e-16,0,0.66667
0.62672,0.4387,4.3871,-0.091952,-3.5951,59.512,1.0757,-0.35858,-1.9719,1.4343,1.5629e-12,-0.98596,0,0,0.14286,-2.7068e-15,0,0.66667
0.73484,0.11031,5.1439,-0.58453,-17.434,32.724,8.018,-2.6727,-0.78678,10.691,1.0801e-11,-0.39339,0,0,0.14286,1.3534e-15,0,0.66667
0.60653,0.35974,4.2457,-0.21039,-8.5756,65.503,2.382,-0.79399,-1.8423,3.176,1.3123e-13,-0.92117,0,0,0.14286,1.3534e-15,0,0.66667
0.076207,0.20659,0.53345,-0.44012,-28.419,279.31,0.62608,-0.20869,-1.3117,0.83477,4.2551e-08,-0.65586,0,0,0.14286,-8.4588e-17,0,0.66667
0.93982,0.37668,6.5787,-0.18498,-1.3095,2.3198,3.2452,-1.0817,-1.8798,4.327,4.1671e-08,-0.93988,0,0,0.14286,-0,-0,0.66667
0.18939,0.16917,1.3257,-0.49625,-31.096,227.49,1.7544,-0.5848,-1.1248,2.3392,3.5772e-10,-0.56242,0,0,0.14286,-0,-0,0.66667
0.57409,0.40738,4.0186,-0.13893,-6.0069,75.442,1.4888,-0.49626,-1.9319,1.985,-8.5265e-14,-0.96594,0,0,0.14286,-0,-0,0.66667
0.90683,0.96701,6.3478,0.70051,8.0783,6.1546,-11.858,3.9526,-0.25811,-15.811,-5.4478e-07,-0.12906,0,0,0.14286,-0,-0,0.66667
0.97339,0.91148,6.8137,0.61722,2.0016,1.7386,-11.215,3.7382,-0.64501,-14.953,-4.572e-06,-0.3225,0,0,0.14286,-2.7068e-15,0,0.66667
0.85777,0.33699,6.0044,-0.24451,-4.0935,10.383,3.9151,-1.305,-1.7886,5.2201,-3.6059e-09,-0.8943,0,0,0.14286,-6.7671e-16,0,0.66667
0.12909,0.67561,0.90364,0.26341,16.788,254.84,-0.63474,0.21158,-1.7524,-0.84631,-5.5734e-09,-0.8762,0,0,0.14286,1.6918e-16,0,0.66667
0.90702,0.55242,6.3491,0.078634,0.8656,4.7709,-1.3314,0.44379,-1.9796,-1.7751,-9.935e-09,-0.98979,0,0,0.14286,1.3534e-15,0,0.66667
0.32751,0.93172,2.2926,0.64759,37.675,167.56,-3.9591,1.3197,-0.51108,-5.2788,3.2345e-12,-0.25554,0,0,0.14286,-5.0753e-16,1.0195e-16,0.66667
0.58239,0.57344,4.0767,0.11016,4.6931,72.82,-1.1976,0.39919,-1.9559,-1.5967,-5.6732e-13,-0.97797,0,0,0.14286,-0,-0,0.66667
0.14046,0.33923,0.98321,-0.24115,-15.318,249.62,0.63228,-0.21076,-1.796,0.84304,3.5361e-09,-0.89801,0,0,0.14286,-8.4588e-17,0,0.66667
0.51272,0.75428,3.5891,0.38142,18.204,96.015,-3.6506,1.2169,-1.4833,-4.8674,-6.0174e-13,-0.74165,0,0,0.14286,-0,-0,0.66667
0.46733,0.73781,3.2713,0.35671,18.054,112.19,-3.1118,1.0373,-1.5484,-4.149,-6.5858e-13,-0.77422,0,0,0.14286,6.7671e-16,0,0.66667
0.005313,0.8455,0.037191,0.51825,33.7,312.33,-0.051397,0.017132,-1.0449,-0.06853,-9.1981e-07,-0.52245,0,0,0.14286,-2.1147e-17,-3.7303e-16,0.66667
0.28621,0.26495,2.0035,-0.35258,-20.988,184.76,1.8837,-0.62789,-1.5566,2.5116,-5.6287e-12,-0.77832,0,0,0.14286,-0,-0,0.66667
0.14345,0.76977,1.0041,0.40465,25.726,248.3,-1.0835,0.36118,-1.4177,-1.4447,-3.5726e-09,-0.70883,0,0,0.14286,-0,-0,0.66667
0.35352,0.5611,2.4747,0.091657,5.1872,156.37,-0.60485,0.20162,-1.9699,-0.80647,4.5643e-12,-0.98495,0,0,0.14286,4.2294e-17,0,0.66667
0.27167,0.78087,1.9017,0.42131,25.326,191.07,-2.1365,0.71218,-1.3688,-2.8487,1.3267e-11,-0.68441,0,0,0.14286,-4.1237e-16,0,0.66667
0.47113,0.40292,3.2979,-0.14562,-7.3205,110.64,1.2806,-0.42688,-1.9257,1.7075,-3.8269e-13,-0.96285,0,0,0.14286,6.7671e-16,0,0.66667
0.77155,0.78178,5.4009,0.42266,11.007,24.744,-6.0873,2.0291,-1.3647,-8.1164,8.4921e-11,-0.68237,0,0,0.14286,-0,-0,0.66667
0.020636,0.78947,0.14446,0.43421,28.188,305.18,-0.16726,0.055755,-1.3286,-0.22302,3.3001e-07,-0.66432,0,0,0.14286,-0,-0,0.66667
0.22758,0.69633,1.5931,0.29449,18.098,210.33,-1.251,0.41701,-1.6901,-1.668,-8.7621e-11,-0.84507,0,0,0.14286,-0,-0,0.66667
0.98353,0.72375,6.8847,0.33562,0.55972,0.63136,-6.1617,2.0539,-1.6016,-8.2156,-5.6846e-09,-0.80078,0,0,0.14286,-0,-0,0.66667
0.059609,0.94837,0.41726,0.67256,43.708,287.07,-0.74836,0.24946,-0.39152,-0.99782,1.6517e-06,-0.19576,0,0,0.14286,-0,-0,0.66667
0.59551,0.4806,4.1685,-0.029103,-1.2102,68.75,0.32351,-0.10784,-1.9976,0.43135,4.4686e-14,-0.99879,0,0,0.14286,-0,-0,0.66667
0.99828,0.55498,6.988,0.082467,-0.029021,0.039532,-1.5367,0.51225,-1.9768,-2.049,6.8428e-07,-0.9884,0,0,0.14286,-6.7671e-16,0,0.66667
0.60079,0.1093,4.2055,-0.58606,-24.336,67.787,6.5724,-2.1908,-0.77694,8.7633,2.2204e-15,-0.38847,0,0,0.14286,1.3534e-15,0,0.66667
0.052634,0.76507,0.36843,0.3976,25.738,290.26,-0.39064,0.13021,-1.4363,-0.52085,2.2404e-08,-0.71815,0,0,0.14286,8.4588e-17,0,0.66667
0.12467,0.73391,0.87272,0.35087,22.407,256.89,-0.81655,0.27218,-1.5641,-1.0887,-7.56e-09,-0.78203,0,0,0.14286,-0,-0,0.66667
0.89515,0.24952,6.266,-0.37573,-4.7137,6.2852,6.2782,-2.0927,-1.4985,8.3709,-1.3687e-08,-0.74924,0,0,0.14286,-1.9032e-15,0,0.66667
0.86842,0.58992,6.0789,0.13488,2.0904,8.925,-2.1865,0.72884,-1.9345,-2.9153,1.7103e-09,-0.96724,0,0,0.14286,-3.3835e-16,0,0.66667
0.54878,0.017173,3.8415,-0.72424,-33.039,84.478,7.419,-2.473,-0.13542,9.892,3.8458e-13,-0.067712,0,0,0.14286,-0,-0,0.66667
0.26258,0.71088,1.8381,0.31632,19.09,194.96,-1.5505,0.51682,-1.6442,-2.0673,4.0126e-12,-0.82212,0,0,0.14286,-0,-0,0.66667
0.51035,0.25884,3.5724,-0.36175,-17.317,96.817,3.4462,-1.1487,-1.5336,4.5949,9.8099e-13,-0.76678,0,0,0.14286,-1.3534e-15,0,0.66667
0.25377,0.88673,1.7764,0.58009,35.322,198.99,-2.7479,0.91598,-0.80282,-3.6639,2.508e-12,-0.40141,0,0,0.14286,-0,-0,0.66667
0.69013,0.83257,4.8309,0.49885,16.906,42.983,-6.4264,2.1421,-1.1152,-8.5686,-5.4228e-12,-0.5576,0,0,0.14286,-0,-0,0.66667
0.60412,0.32563,4.2289,-0.26155,-10.717,66.269,2.9495,-0.98316,-1.7553,3.9326,9.2548e-13,-0.87767,0,0,0.14286,-0,-0,0.66667
0.78798,0.0058695,5.5159,-0.7412,-18.347,22.554,10.902,-3.6341,-0.045524,14.536,-1.1712e-10,-0.022762,0,0,0.14286,-0,-0,0.66667
0.48764,0.90576,3.4135,0.60864,30.188,105.2,-5.5402,1.8467,-0.68391,-7.387,-1.0623e-12,-0.34196,0,0,0.14286,9.9391e-16,0,0.66667
0.038361,0.48819,0.26852,-0.01771,-1.145,296.89,0.012682,-0.0042265,-1.9971,0.016909,1.0415e-06,-0.99856,0,0,0.14286,-4.5428e-17,0,0.66667
0.79002,0.70615,5.5301,0.30923,7.4438,21.07,-4.5602,1.5201,-1.6582,-6.0802,2.2194e-10,-0.82912,0,0,0.14286,-1.3534e-15,0,0.66667
0.20938,0.27453,1.4656,-0.33821,-20.97,218.45,1.3218,-0.44061,-1.5921,1.7624,2.3537e-10,-0.79606,0,0,0.14286,3.3835e-16,0,0.66667
0.22664,0.40856,1.5865,-0.13716,-8.4236,210.7,0.58027,-0.19342,-1.9325,0.7737,5.2613e-11,-0.96623,0,0,0.14286,-0,-0,0.66667
0.54164,0.76662,3.7915,0.39992,18.296,86.218,-4.0435,1.3478,-1.4299,-5.3913,3.0731e-13,-0.71494,0,0,0.14286,-6.7671e-16,0,0.66667
0.82259,0.0084223,5.7582,-0.73737,-15.562,16.693,11.322,-3.7741,-0.065615,15.096,-2.2388e-10,-0.032808,0,0,0.14286,-0,-0,0.66667
0.94909,0.71515,6.6437,0.32272,1.9386,1.9774,-5.7174,1.9058,-1.6297,-7.6233,-4.3872e-08,-0.81487,0,0,0.14286,1.6918e-15,0,0.66667
0.24077,0.50711,1.6854,0.010662,0.64998,204.43,-0.04792,0.015973,-1.9983,-0.063893,5.2784e-12,-0.99917,0,0,0.14286,1.3534e-15,0,0.66667
0.8962,0.13221,6.2734,-0.55168,-6.9467,6.6352,9.2291,-3.0764,-0.91678,12.305,9.9346e-09,-0.45839,0,0,0.14286,-0,-0,0.66667
0.91103,0.70208,6.3772,0.30312,3.2191,4.6553,-5.1548,1.7183,-1.672,-6.873,1.2761e-08,-0.83601,0,0,0.14286,-0,-0,0.66667
0.74442,0.56573,5.2109,0.0986,2.8155,29.885,-1.3701,0.45671,-1.9649,-1.8268,7.5655e-12,-0.98247,0,0,0.14286,-2.7068e-15,0,0.66667
0.37426,0.45901,2.6198,-0.061478,-3.4184,147.93,0.4295,-0.14317,-1.9882,0.57267,1.3846e-12,-0.99409,0,0,0.14286,-0,-0,0.66667
0.54785,0.78507,3.835,0.42761,19.384,84.2,-4.373,1.4577,-1.352,-5.8306,6.648e-13,-0.676,0,0,0.14286,-0,-0,0.66667
0.13763,0.7112,0.96343,0.31681,20.154,250.94,-0.81392,0.27131,-1.6432,-1.0852,-4.8477e-09,-0.82161,0,0,0.14286,-8.4588e-17,0,0.66667
0.57527,0.60766,4.0269,0.16149,6.969,75.078,-1.7341,0.57804,-1.907,-2.3121,-5.8398e-14,-0.9535,0,0,0.14286,-0,-0,0.66667
0.57561,0.7919,4.0293,0.43786,18.96,75.267,-4.7047,1.5682,-1.3184,-6.2729,4.9205e-13,-0.65922,0,0,0.14286,-0,-0,0.66667
0.58347,0.96086,4.0843,0.69129,29.728,73.326,-7.5292,2.5097,-0.29979,-10.039,2.0606e-13,-0.14989,0,0,0.14286,-6.7671e-16,0,0.66667
0.92023,0.62228,6.4416,0.18341,1.7349,3.7201,-3.1506,1.0502,-1.8821,-4.2008,5.528e-09,-0.94107,0,0,0.14286,6.7671e-16,0,0.66667
0.5331,0.60474,3.7317,0.15711,7.2597,88.851,-1.5634,0.52114,-1.9128,-2.0846,8.4821e-14,-0.95641,0,0,0.14286,-0,-0,0.66667
0.24089,0.49877,1.6863,-0.0018469,-0.11258,204.38,0.0083051,-0.0027684,-1.9996,0.011073,-7.1107e-12,-0.99982,0,0,0.14286,6.2778e-16,0,0.66667
0.54523,0.50459,3.8166,0.0068881,0.31222,84.754,-0.070105,0.023368,-2.0013,-0.093473,3.5203e-13,-1.0006,0,0,0.14286,-0,-0,0.66667
0.12737,0.98434,0.89162,0.72651,46.669,255.81,-1.7274,0.5758,-0.12335,-2.3032,8.6959e-09,-0.061676,0,0,0.14286,-0,-0,0.66667
0.074781,0.44489,0.52347,-0.082665,-5.3229,279.93,0.11539,-0.038464,-1.9756,0.15386,3.3108e-08,-0.98779,0,0,0.14286,-0,-0,0.66667
0.83061,0.94063,5.8143,0.66094,13.304,15.19,-10.248,3.4159,-0.44784,-13.664,-4.9975e-09,-0.22392,0,0,0.14286,-0,-0,0.66667
0.72316,0.23692,5.0621,-0.39463,-12.133,34.912,5.327,-1.7757,-1.4452,7.1027,9.3601e-12,-0.7226,0,0,0.14286,1.3534e-15,0,0.66667
0.083912,0.90251,0.58738,0.60377,39.044,275.78,-0.94571,0.31524,-0.70323,-1.261,8.2626e-08,-0.35161,0,0,0.14286,-8.4588e-17,0,0.66667
0.55758,0.55523,3.9031,0.082841,3.6819,80.714,-0.86222,0.28741,-1.9747,-1.1496,-3.0598e-13,-0.98737,0,0,0.14286,-8.1987e-18,0,0.66667
0.52511,0.32076,3.6757,-0.26886,-12.586,91.641,2.6354,-0.87846,-1.7416,3.5139,-1.3345e-13,-0.87082,0,0,0.14286,-0,-0,0.66667
0.50731,0.95254,3.5512,0.67881,32.863,98.395,-6.4282,2.1427,-0.3598,-8.5709,5.8709e-13,-0.1799,0,0,0.14286,-6.7671e-16,0,0.66667
0.032405,0.61453,0.22683,0.1718,11.117,299.67,-0.10392,0.03464,-1.8962,-0.13856,4.4411e-08,-0.94812,0,0,0.14286,-4.2294e-17,0,0.66667
0.96037,0.12888,6.7226,-0.55668,-2.6797,2.0276,9.9795,-3.3265,-0.89726,13.306,-1.9867e-07,-0.44863,0,0,0.14286,-0,-0,0.66667
0.92765,0.54602,6.4935,0.069027,0.58903,3.0674,-1.1953,0.39843,-1.9814,-1.5937,-5.5754e-08,-0.99072,0,0,0.14286,-1.3534e-15,0,0.66667
0.96441,0.47711,6.7509,-0.03433,-0.13681,0.92871,0.61802,-0.20601,-1.9951,0.82403,-9.0173e-08,-0.99754,0,0,0.14286,-0,-0,0.66667
0.53338,0.30599,3.7337,-0.29102,-13.46,88.856,2.8975,-0.96583,-1.6997,3.8633,4.9694e-13,-0.84984,0,0,0.14286,-0,-0,0.66667
0.12664,0.59951,0.88648,0.14926,9.5116,255.95,-0.35284,0.11761,-1.9221,-0.47046,-4.8259e-09,-0.96103,0,0,0.14286,3.3835e-16,0,0.66667
0.73229,0.44414,5.126,-0.083789,-2.4904,32.523,1.1453,-0.38178,-1.9758,1.5271,-4.5308e-13,-0.98792,0,0,0.14286,-0,-0,0.66667
0.94973,0.71303,6.6481,0.31954,1.8935,1.9364,-5.665,1.8883,-1.637,-7.5533,-4.6526e-08,-0.81851,0,0,0.14286,-2.0301e-15,0,0.66667
0.25927,0.054636,1.8149,-0.66805,-40.631,196.68,3.2331,-1.0777,-0.41187,4.3108,5.1912e-12,-0.20593,0,0,0.14286,-3.3835e-16,0,0.66667
0.28377,0.82477,1.9864,0.48716,29.101,185.91,-2.5805,0.86017,-1.1562,-3.4407,7.0084e-12,-0.57809,0,0,0.14286,-0,-0,0.66667
0.44706,0.55404,3.1294,0.081064,4.1909,119.55,-0.67648,0.22549,-1.9753,-0.90197,7.5467e-13,-0.98765,0,0,0.14286,-0,-0,0.66667
0.15862,0.62229,1.1103,0.18343,11.582,241.32,-0.54312,0.18104,-1.8816,-0.72416,-1.6135e-09,-0.94079,0,0,0.14286,-1.6918e-16,0,0.66667
0.56858,0.50253,3.9801,0.0037911,0.1654,77.157,-0.040237,0.013412,-1.9994,-0.053649,9.2473e-13,-0.99972,0,0,0.14286,-0,-0,0.66667
0.44953,0.50934,3.1467,0.014017,0.72255,118.61,-0.11762,0.039208,-1.9988,-0.15683,-5.8659e-13,-0.99942,0,0,0.14286,-0,-0,0.66667
0.88742,0.349,6.212,-0.2265,-3.0242,6.8366,3.752,-1.2507,-1.8178,5.0026,-7.1267e-09,-0.90892,0,0,0.14286,-0,-0,0.66667
0.21483,0.29622,1.5038,-0.30566,-18.9,216,1.2258,-0.40859,-1.6669,1.6344,1.7331e-10,-0.83345,0,0,0.14286,-0,-0,0.66667
0.16795,0.5515,1.1756,0.077251,4.8601,237.06,-0.24219,0.080729,-1.978,-0.32291,-8.4238e-10,-0.98901,0,0,0.14286,1.6918e-16,0,0.66667
0.49563,0.8242,3.4694,0.4863,23.802,102.15,-4.4992,1.4997,-1.1581,-5.9989,1.3323e-15,-0.57907,0,0,0.14286,-0,-0,0.66667
0.51663,0.25116,3.6164,-0.37326,-17.714,94.656,3.5996,-1.1999,-1.5072,4.7994,-8.0336e-13,-0.75362,0,0,0.14286,-0,-0,0.66667
0.4062,0.61194,2.8434,0.16791,9.067,135.26,-1.2731,0.42438,-1.9018,-1.6975,4.019e-14,-0.95092,0,0,0.14286,-0,-0,0.66667
0.2368,0.32077,1.6576,-0.26885,-16.443,206.24,1.1883,-0.39612,-1.7434,1.5845,5.211e-11,-0.8717,0,0,0.14286,-0,-0,0.66667
0.53636,0.87708,3.7545,0.56562,26.18,88.246,-5.663,1.8877,-0.86235,-7.5507,-2.2515e-13,-0.43118,0,0,0.14286,-0,-0,0.66667
0.96214,0.73626,6.735,0.35439,1.5594,1.3986,-6.3648,2.1216,-1.5517,-8.4864,-1.0258e-07,-0.77584,0,0,0.14286,1.3534e-15,0,0.66667
0.25644,0.95506,1.795,0.68259,41.595,197.93,-3.2674,1.0891,-0.3416,-4.3566,2.1942e-12,-0.1708,0,0,0.14286,-3.3835e-16,0,0.66667
0.28319,0.24158,1.9823,-0.38763,-23.129,186.08,2.0491,-0.68304,-1.4665,2.7321,-5.7074e-12,-0.73323,0,0,0.14286,-3.3835e-16,0,0.66667
0.031465,0.052704,0.22025,-0.67094,-43.713,300.15,0.39408,-0.13136,-0.40153,0.52544,-3.6842e-06,-0.20076,0,0,0.14286,-0,-0,0.66667
0.87611,0.46468,6.1327,-0.052978,-0.77378,7.9663,0.86641,-0.2888,-1.992,1.1552,-9.8543e-09,-0.996,0,0,0.14286,-3.3835e-16,0,0.66667
0.27438,0.46598,1.9207,-0.051032,-3.0535,189.75,0.26138,-0.087127,-1.9901,0.34851,2.2707e-12,-0.99503,0,0,0.14286,4.2294e-16,0,0.66667
0.059762,0.85756,0.41834,0.53633,34.763,286.97,-0.59832,0.19944,-0.97703,-0.79776,-7.4441e-08,-0.48852,0,0,0.14286,-0,-0,0.66667
0.75205,0.16012,5.2644,-0.50983,-14.31,28.859,7.1571,-2.3857,-1.0771,9.5428,3.2624e-11,-0.53853,0,0,0.14286,-0,-0,0.66667
0.92919,0.20933,6.5043,-0.436,-3.7229,3.4908,7.5624,-2.5208,-1.3225,10.083,-4.7161e-08,-0.66124,0,0,0.14286,6.7671e-16,0,0.66667
0.42393,0.7859,2.9675,0.42884,22.814,128.58,-3.3936,1.1312,-1.3472,-4.5248,2.6001e-13,-0.67361,0,0,0.14286,-1.3534e-15,0,0.66667
0.32511,0.2952,2.2757,-0.30719,-17.8,168.23,1.8642,-0.62142,-1.6641,2.4857,-2.6965e-12,-0.83205,0,0,0.14286,-0,-0,0.66667
0.68882,0.61071,4.8218,0.16606,5.6095,42.835,-2.1352,0.71175,-1.9028,-2.847,-4.2015e-12,-0.95141,0,0,0.14286,-1.3534e-15,0,0.66667
0.20706,0.41949,1.4494,-0.12076,-7.4831,219.42,0.46677,-0.15559,-1.9473,0.62236,1.6489e-10,-0.97363,0,0,0.14286,-0,-0,0.66667
0.55152,0.052301,3.8606,-0.67155,-30.451,83.456,6.9136,-2.3045,-0.39549,9.2181,1.2879e-12,-0.19774,0,0,0.14286,-6.7671e-16,0,0.66667
0.49453,0.83767,3.4617,0.50651,24.838,102.57,-4.6758,1.5586,-1.0869,-6.2344,-6.0973e-13,-0.54345,0,0,0.14286,3.3835e-16,0,0.66667
0.58736,0.97762,4.1115,0.71643,30.622,72.19,-7.855,2.6183,-0.17358,-10.473,4.0545e-13,-0.086791,0,0,0.14286,-0,-0,0.66667
0.83524,0.090806,5.8467,-0.61379,-12.007,14.346,9.5697,-3.1899,-0.65974,12.76,-4.5413e-09,-0.32987,0,0,0.14286,3.3835e-16,0,0.66667
0.68413,0.90375,4.7889,0.60562,20.926,44.739,-7.734,2.578,-0.6965,-10.312,-1.6032e-12,-0.34825,0,0,0.14286,-1.8609e-15,0,0.66667
0.88239,0.43633,6.1767,-0.095512,-1.3267,7.2695,1.5732,-0.5244,-1.9671,2.0976,6.2348e-09,-0.98357,0,0,0.14286,1.9455e-15,0,0.66667
0.27936,0.75831,1.9555,0.38746,23.173,187.73,-2.0205,0.67349,-1.467,-2.694,1.1551e-11,-0.73349,0,0,0.14286,-0,-0,0.66667
0.24996,0.66143,1.7497,0.24215,14.705,200.44,-1.1298,0.3766,-1.7943,-1.5064,-1.4143e-11,-0.89716,0,0,0.14286,-0,-0,0.66667
0.18811,0.33757,1.3168,-0.24365,-15.228,227.96,0.85555,-0.28518,-1.791,1.1407,6.8677e-10,-0.89552,0,0,0.14286,-0,-0,0.66667
0.008355,0.78295,0.058485,0.42443,27.559,310.91,-0.066194,0.022065,-1.359,-0.088259,-2.7938e-07,-0.67949,0,0,0.14286,-0,-0,0.66667
0.65746,0.6255,4.6022,0.18826,6.8801,51.004,-2.3104,0.77012,-1.8765,-3.0805,-3.596e-12,-0.93827,0,0,0.14286,2.7068e-15,0,0.66667
0.37182,0.28747,2.6027,-0.3188,-17.797,149.03,2.2127,-0.73756,-1.6388,2.9502,5.6355e-13,-0.81938,0,0,0.14286,-0,-0,0.66667
0.16613,0.63802,1.1629,0.20704,13.042,237.9,-0.64202,0.21401,-1.846,-0.85603,-1.6101e-09,-0.92301,0,0,0.14286,-0,-0,0.66667
0.25918,0.63243,1.8143,0.19865,11.999,196.39,-0.96105,0.32035,-1.8584,-1.2814,-1.2563e-12,-0.9292,0,0,0.14286,-6.7671e-16,0,0.66667
0.1825,0.91907,1.2775,0.62861,39.592,230.68,-2.1415,0.71383,-0.59369,-2.8553,5.4336e-10,-0.29685,0,0,0.14286,-0,-0,0.66667
0.17807,0.60414,1.2465,0.15621,9.7948,232.48,-0.51924,0.17308,-1.9117,-0.69232,-8.5756e-10,-0.95585,0,0,0.14286,3.3835e-16,0,0.66667
0.22777,0.66862,1.5944,0.25292,15.536,210.23,-1.0754,0.35845,-1.7708,-1.4338,-7.5065e-11,-0.88541,0,0,0.14286,-0,-0,0.66667
0.096411,0.63322,0.67487,0.19983,12.826,269.91,-0.35963,0.11988,-1.8582,-0.47951,-7.0968e-09,-0.92912,0,0,0.14286,1.6918e-16,0,0.66667
0.54411,0.1649,3.8087,-0.50265,-22.956,85.556,5.1053,-1.7018,-1.1018,6.807,5.862e-13,-0.55088,0,0,0.14286,-0,-0,0.66667
0.8362,0.28579,5.8534,-0.32132,-6.1611,13.494,5.0154,-1.6718,-1.6319,6.6872,-1.8631e-09,-0.81594,0,0,0.14286,2.7068e-15,0,0.66667
0.34664,0.87965,2.4265,0.56948,32.595,159.54,-3.6849,1.2283,-0.84743,-4.9132,1.2279e-12,-0.42372,0,0,0.14286,-0,-0,0.66667
0.9126,0.72889,6.3882,0.34334,3.5914,4.5931,-5.8488,1.9496,-1.5793,-7.7985,1.766e-08,-0.78966,0,0,0.14286,-0,-0,0.66667
0.68392,0.50132,4.7874,0.0019736,0.067476,44.011,-0.025196,0.0083986,-2.0007,-0.033594,1.2457e-12,-1.0003,0,0,0.14286,-0,-0,0.66667
0.82604,0.59318,5.7823,0.13978,2.8222,14.813,-2.1553,0.71842,-1.9324,-2.8737,6.5649e-10,-0.96618,0,0,0.14286,2.1147e-16,0,0.66667
0.92485,0.033422,6.474,-0.69987,-6.5611,4.6723,12.082,-4.0275,-0.25933,16.11,-2.2606e-06,-0.12967,0,0,0.14286,2.7068e-15,0,0.66667
0.71895,0.17543,5.0326,-0.48685,-15.203,36.058,6.5337,-2.1779,-1.1592,8.7116,6.8887e-12,-0.57961,0,0,0.14286,6.7671e-16,0,0.66667
0.77043,0.47319,5.393,-0.040215,-1.0445,24.539,0.57835,-0.19278,-1.9938,0.77113,-1.3239e-13,-0.99691,0,0,0.14286,-1.8247e-15,0,0.66667
0.074018,0.61092,0.51812,0.16638,10.719,280.29,-0.22989,0.076628,-1.9006,-0.30651,1.1772e-08,-0.95029,0,0,0.14286,-0,-0,0.66667
0.18869,0.72992,1.3208,0.34488,21.571,227.74,-1.2147,0.40491,-1.5782,-1.6196,-6.2174e-10,-0.7891,0,0,0.14286,-0,-0,0.66667
0.31405,0.81501,2.1984,0.47252,27.66,173,-2.77,0.92335,-1.208,-3.6934,4.6345e-12,-0.604,0,0,0.14286,-0,-0,0.66667
0.33439,0.44806,2.3407,-0.077912,-4.4761,164.27,0.48632,-0.16211,-1.9769,0.64843,-6.4818e-13,-0.98843,0,0,0.14286,-0,-0,0.66667
0.4653,0.025686,3.2571,-0.71147,-36.377,113.48,6.1796,-2.0599,-0.20026,8.2395,1.6369e-12,-0.10013,0,0,0.14286,-0,9.904e-17,0.66667
0.095259,0.88944,0.66681,0.58416,37.685,270.53,-1.0387,0.34624,-0.78741,-1.385,-2.4863e-08,-0.3937,0,0,0.14286,-1.6918e-16,0,0.66667
0.34423,0.71265,2.4096,0.31898,18.218,160.29,-2.0496,0.68321,-1.6405,-2.7328,3.6504e-12,-0.82024,0,0,0.14286,-0,-0,0.66667
0.073158,0.40136,0.51211,-0.14797,-9.5324,280.69,0.20206,-0.067355,-1.9216,0.26942,-4.0849e-08,-0.9608,0,0,0.14286,8.4588e-17,0,0.66667
0.32341,0.54665,2.2639,0.06998,4.0533,168.85,-0.42247,0.14082,-1.9813,-0.5633,4.7893e-12,-0.99066,0,0,0.14286,-0,-0,0.66667
0.6615,0.7247,4.6305,0.33706,12.228,50.08,-4.162,1.3873,-1.5952,-5.5493,-3.1672e-12,-0.79762,0,0,0.14286,-0,-0,0.66667
0.0029211,0.10146,0.020448,-0.59781,-38.93,313.44,0.032596,-0.010865,-0.72942,0.043461,5.1258e-07,-0.36471,0,0,0.14286,-5.2868e-18,0,0.66667
0.28436,0.25204,1.9905,-0.37194,-22.172,185.56,1.9743,-0.65811,-1.509,2.6324,-6.549e-12,-0.75448,0,0,0.14286,-0,-0,0.66667
0.072846,0.45065,0.50993,-0.074032,-4.7683,280.83,0.10067,-0.033556,-1.9791,0.13423,-2.4437e-08,-0.98954,0,0,0.14286,-0,-0,0.66667
0.71076,0.6475,4.9753,0.22125,7.0347,37.548,-2.9354,0.97848,-1.8244,-3.9139,-7.2247e-12,-0.91219,0,0,0.14286,-0,-0,0.66667
0.84127,0.39577,5.8889,-0.15634,-2.898,12.551,2.4551,-0.81836,-1.9132,3.2734,-1.5637e-09,-0.95662,0,0,0.14286,6.7671e-16,0,0.66667
0.97833,0.89073,6.8483,0.5861,1.5084,1.4736,-10.703,3.5678,-0.77693,-14.271,-2.7187e-06,-0.38846,0,0,0.14286,1.3534e-15,0,0.66667
0.61717,0.25578,4.3202,-0.36634,-14.655,62.528,4.2204,-1.4068,-1.5216,5.6271,1.4233e-12,-0.76081,0,0,0.14286,-1.3534e-15,0,0.66667
0.2249,0.6899,1.5743,0.28486,17.527,211.51,-1.1959,0.39862,-1.711,-1.5945,-1.0533e-10,-0.8555,0,0,0.14286,6.7671e-16,0,0.66667
0.22831,0.26414,1.5982,-0.35379,-21.749,210.03,1.5078,-0.50259,-1.5533,2.0104,6.7864e-11,-0.77664,0,0,0.14286,3.3835e-16,0,0.66667
0.49353,0.036673,3.4547,-0.69499,-34.289,103.27,6.4026,-2.1342,-0.28157,8.5368,1.6835e-12,-0.14078,0,0,0.14286,-0,-0,0.66667
0.93135,0.709,6.5194,0.31351,2.5649,3.0718,-5.4503,1.8168,-1.6491,-7.2671,6.82e-09,-0.82453,0,0,0.14286,-1.3534e-15,0,0.66667
0.62806,0.62162,4.3964,0.18244,7.1175,59.178,-2.1388,0.71294,-1.8823,-2.8518,-5.5533e-13,-0.94114,0,0,0.14286,-0,-0,0.66667
0.1814,0.49029,1.2698,-0.01456,-0.91145,230.96,0.049302,-0.016434,-1.9978,0.065736,-2.3933e-10,-0.99889,0,0,0.14286,3.3835e-16,0,0.66667
0.51601,0.12173,3.6121,-0.5674,-27.058,95.162,5.4653,-1.8218,-0.85808,7.2871,3.717e-13,-0.42904,0,0,0.14286,-8.4588e-16,0,0.66667
0.40912,0.8039,2.8639,0.45585,24.63,134.35,-3.4813,1.1604,-1.2612,-4.6418,7.7183e-13,-0.6306,0,0,0.14286,6.7671e-16,0,0.66667
0.86907,0.3015,6.0835,-0.29776,-4.6143,9.036,4.8304,-1.6101,-1.6832,6.4405,-6.0022e-09,-0.84162,0,0,0.14286,1.3534e-15,0,0.66667
0.10442,0.9808,0.73091,0.7212,46.573,266.36,-1.4057,0.46856,-0.14938,-1.8742,-1.425e-07,-0.074691,0,0,0.14286,-3.3835e-16,0,0.66667
0.21763,0.476,1.5234,-0.035993,-2.2192,214.69,0.14622,-0.048739,-1.9969,0.19496,6.0837e-11,-0.99845,0,0,0.14286,-0,-0,0.66667
0.75933,0.064672,5.3153,-0.65299,-17.972,27.759,9.2556,-3.0852,-0.48344,12.341,8.8507e-12,-0.24172,0,0,0.14286,2.7068e-15,0,0.66667
0.97325,0.54082,6.8127,0.061235,0.17572,0.60106,-1.1125,0.37082,-1.9857,-1.4833,1.2234e-06,-0.99287,0,0,0.14286,-0,-0,0.66667
0.80883,0.11109,5.6618,-0.58336,-13.045,18.401,8.8077,-2.9359,-0.78925,11.744,-2.5094e-10,-0.39462,0,0,0.14286,-9.5785e-16,0,0.66667
0.57043,0.53734,3.993,0.056008,2.436,76.572,-0.59637,0.19879,-1.9876,-0.79517,-4.0346e-13,-0.99379,0,0,0.14286,-0,-0,0.66667
0.80961,0.67375,5.6672,0.26062,5.7328,17.585,-3.9386,1.3129,-1.7582,-5.2515,5.8595e-10,-0.8791,0,0,0.14286,-1.3534e-15,0,0.66667
0.37864,0.82315,2.6505,0.48473,26.964,146.44,-3.426,1.142,-1.164,-4.568,1.1733e-12,-0.58199,0,0,0.14286,-0,-0,0.66667
0.23981,0.65583,1.6787,0.23375,14.27,204.9,-1.0464,0.34879,-1.8058,-1.3951,-3.8659e-11,-0.90291,0,0,0.14286,9.5162e-17,0,0.66667
0.44234,0.028268,3.0964,-0.7076,-37.139,122.01,5.8426,-1.9475,-0.21955,7.7901,-1.3736e-12,-0.10978,0,0,0.14286,1.0151e-15,0,0.66667
0.29305,0.53837,2.0513,0.05755,3.4037,181.72,-0.31481,0.10494,-1.9879,-0.41975,4.0477e-12,-0.99393,0,0,0.14286,-0,-0,0.66667
0.64436,0.15151,4.5105,-0.52273,-19.815,55.061,6.2874,-2.0958,-1.0285,8.3832,2.053e-12,-0.51424,0,0,0.14286,-1.0151e-15,0,0.66667
0.91612,0.28807,6.4129,-0.3179,-3.1859,4.2473,5.4364,-1.8121,-1.6396,7.2486,-1.4329e-08,-0.8198,0,0,0.14286,-0,-0,0.66667
0.6714,0.85817,4.6998,0.53725,19.125,47.835,-6.7332,2.2444,-0.97536,-8.9776,-3.169e-12,-0.48768,0,0,0.14286,1.3534e-15,0,0.66667
0.78373,0.73189,5.4861,0.34784,8.6075,22.288,-5.0888,1.6963,-1.5698,-6.785,1.5905e-10,-0.7849,0,0,0.14286,-0,-0,0.66667
0.9199,0.35328,6.4393,-0.22009,-2.0939,3.7887,3.7792,-1.2597,-1.8284,5.039,-1.6347e-09,-0.91418,0,0,0.14286,-0,-0,0.66667
0.73198,0.51299,5.1238,0.019487,0.57964,32.576,-0.26626,0.088753,-1.9987,-0.35501,-4.6085e-13,-0.99936,0,0,0.14286,2.7068e-15,0,0.66667
0.45633,0.46793,3.1943,-0.048108,-2.4606,116.07,0.40979,-0.1366,-1.9928,0.54639,1.3212e-13,-0.9964,0,0,0.14286,7.19e-16,0,0.66667
0.7422,0.56875,5.1954,0.10312,2.9671,30.365,-1.4287,0.47624,-1.9609,-1.905,5.9373e-12,-0.98045,0,0,0.14286,-0,-0,0.66667
0.99059,0.28398,6.9341,-0.32403,-0.24286,0.45728,5.9917,-1.9972,-1.6261,7.989,-1.3033e-07,-0.81305,0,0,0.14286,-0,-0,0.66667
0.67386,0.21786,4.717,-0.42322,-14.927,46.968,5.3235,-1.7745,-1.365,7.098,5.0613e-12,-0.6825,0,0,0.14286,-1.8609e-15,0,0.66667
0.72714,0.38533,5.0899,-0.17201,-5.2011,33.726,2.3347,-0.77824,-1.8931,3.113,4.0175e-12,-0.94656,0,0,0.14286,-0,-0,0.66667
0.13533,0.76684,0.94732,0.40027,25.505,252.02,-1.0112,0.33705,-1.4289,-1.3482,-5.463e-09,-0.71444,0,0,0.14286,-0,-0,0.66667
0.81734,0.63433,5.7214,0.20149,4.2608,16.244,-3.0742,1.0247,-1.8546,-4.0989,6.1838e-10,-0.9273,0,0,0.14286,-0,-0,0.66667
0.92918,0.5976,6.5042,0.14641,1.2247,3.004,-2.5394,0.84646,-1.9229,-3.3858,-4.1963e-08,-0.96144,0,0,0.14286,2.7068e-15,0,0.66667
0.082941,0.033855,0.58058,-0.69922,-45.315,276.26,1.0825,-0.36085,-0.26154,1.4434,-1.6226e-07,-0.13077,0,0,0.14286,-0,-0,0.66667
0.92221,0.87325,6.4555,0.55988,5.3247,4.3662,-9.6381,3.2127,-0.88857,-12.851,-2.6551e-08,-0.44428,0,0,0.14286,1.5226e-15,0,0.66667
0.76001,0.14426,5.3201,-0.53361,-14.572,27.286,7.5703,-2.5234,-0.98611,10.094,-6.863e-12,-0.49305,0,0,0.14286,-2.2535e-15,0,0.66667
0.25267,0.75756,1.7687,0.38634,23.464,199.32,-1.8222,0.6074,-1.4696,-2.4296,-2.65e-12,-0.73479,0,0,0.14286,-0,-0,0.66667
0.03478,0.67228,0.24346,0.25841,16.73,298.57,-0.16777,0.055923,-1.7619,-0.22369,6.6987e-08,-0.88093,0,0,0.14286,-0,-0,0.66667
0.59333,0.70625,4.1533,0.30937,12.947,69.591,-3.4265,1.1422,-1.6614,-4.5686,-4.8184e-14,-0.83072,0,0,0.14286,-2.5937e-17,0,0.66667
0.14,0.62224,0.97997,0.18336,11.644,249.83,-0.47917,0.15972,-1.8831,-0.63889,-4.3281e-09,-0.94155,0,0,0.14286,2.5377e-16,0,0.66667
0.88064,0.77223,6.1645,0.40835,5.8211,7.8969,-6.7127,2.2376,-1.4058,-8.9502,7.5191e-09,-0.70292,0,0,0.14286,-1.3534e-15,0,0.66667
0.64348,0.1922,4.5044,-0.4617,-17.507,55.184,5.5457,-1.8486,-1.2426,7.3943,1.9047e-12,-0.62131,0,0,0.14286,-0,-0,0.66667
0.041189,0.84822,0.28833,0.52233,33.91,295.61,-0.4016,0.13387,-1.0292,-0.53547,-2.6505e-07,-0.51461,0,0,0.14286,-0,-0,0.66667
0.19441,0.39428,1.3609,-0.15858,-9.8806,225.1,0.57549,-0.19183,-1.9088,0.76732,3.344e-10,-0.95442,0,0,0.14286,-0,-0,0.66667
0.62451,0.53799,4.3716,0.056992,2.2382,60.139,-0.66439,0.22146,-1.9906,-0.88585,-2.7151e-13,-0.99531,0,0,0.14286,1.3534e-15,0,0.66667
0.52665,0.45775,3.6866,-0.063379,-2.9556,91.002,0.62307,-0.20769,-1.9846,0.83076,-5.2736e-15,-0.99232,0,0,0.14286,-0,-0,0.66667
0.29026,0.019888,2.0318,-0.72017,-43.054,183.38,3.902,-1.3007,-0.15426,5.2026,6.9655e-13,-0.077132,0,0,0.14286,-0,-0,0.66667
0.39512,0.075653,2.7658,-0.63652,-34.99,140.09,4.6947,-1.5649,-0.5583,6.2596,2.6983e-12,-0.27915,0,0,0.14286,-0,-0,0.66667
0.24657,0.21184,1.726,-0.43224,-26.354,202.03,1.9894,-0.66314,-1.3356,2.6525,4.1568e-12,-0.6678,0,0,0.14286,-1.6918e-16,0,0.66667
0.99839,0.95592,6.9887,0.68388,0.076583,1.4699,-12.745,4.2484,-0.33778,-16.994,-2.6489e-05,-0.16889,0,0,0.14286,1.3534e-15,0,0.66667
0.88329,0.29313,6.1831,-0.3103,-4.3057,7.4085,5.1162,-1.7054,-1.6559,6.8217,-8.6046e-09,-0.82793,0,0,0.14286,-0,-0,0.66667
0.74097,0.82559,5.1868,0.48839,14.225,31.154,-6.7551,2.2517,-1.1502,-9.0068,-4.3476e-12,-0.57508,0,0,0.14286,-0,-0,0.66667
0.24654,0.84546,1.7258,0.51818,31.639,202.1,-2.3847,0.7949,-1.046,-3.1796,4.4896e-11,-0.52299,0,0,0.14286,-0,-0,0.66667
0.088881,0.35991,0.62217,-0.21013,-13.507,273.39,0.34863,-0.11621,-1.8417,0.46484,2.8192e-09,-0.92084,0,0,0.14286,1.6918e-16,0,0.66667
0.096131,0.070874,0.67292,-0.64369,-41.567,270.15,1.1551,-0.38502,-0.52721,1.5401,4.2297e-08,-0.2636,0,0,0.14286,-0,-0,0.66667
0.88147,0.090076,6.1703,-0.61489,-8.841,8.3832,10.117,-3.3725,-0.65491,13.49,2.806e-08,-0.32746,0,0,0.14286,-1.6918e-15,0,0.66667
0.22391,0.4644,1.5674,-0.053407,-3.2833,211.9,0.22323,-0.074408,-1.9893,0.29763,3.0506e-11,-0.99465,0,0,0.14286,-4.2294e-16,0,0.66667
0.055036,0.94558,0.38525,0.66836,43.454,289.19,-0.68663,0.22888,-0.41021,-0.91551,1.2766e-06,-0.2051,0,0,0.14286,-0,-0,0.66667
0.60875,0.47549,4.2612,-0.036769,-1.4906,64.76,0.41782,-0.13927,-1.9972,0.55709,8.6292e-14,-0.99861,0,0,0.14286,-0,-0,0.66667
0.75404,0.80218,5.2783,0.45328,12.608,28.32,-6.3801,2.1267,-1.2687,-8.5067,1.9166e-11,-0.63435,0,0,0.14286,6.7671e-16,0,0.66667
0.90554,0.18437,6.3388,-0.47345,-5.4017,5.5207,8.0028,-2.6676,-1.2055,10.67,-2.4144e-08,-0.60275,0,0,0.14286,-2.0301e-15,-1.6978e-18,0.66667
0.48403,0.70618,3.3882,0.30927,15.322,106.07,-2.7943,0.93142,-1.6617,-3.7257,-1.2945e-13,-0.83087,0,0,0.14286,6.7671e-16,0,0.66667
0.71854,0.10451,5.0298,-0.59323,-18.617,36.408,7.9569,-2.6523,-0.75078,10.609,3.233e-12,-0.37539,0,0,0.14286,1.3534e-15,0,0.66667
0.046842,0.66656,0.3279,0.24983,16.157,292.94,-0.21845,0.072817,-1.7803,-0.29127,4.9729e-08,-0.89016,0,0,0.14286,-0,-0,0.66667
0.30454,0.83813,2.1318,0.50719,29.903,177.06,-2.8833,0.96109,-1.0841,-3.8444,7.3863e-12,-0.54207,0,0,0.14286,5.0753e-16,0,0.66667
0.087153,0.047862,0.61007,-0.67821,-43.901,274.31,1.1033,-0.36778,-0.36278,1.4711,-1.9453e-07,-0.18139,0,0,0.14286,-1.0321e-16,0,0.66667
0.40034,0.78815,2.8024,0.43223,23.545,137.76,-3.23,1.0767,-1.3346,-4.3067,2.5648e-12,-0.66731,0,0,0.14286,-0,-0,0.66667
0.19936,0.032605,1.3955,-0.70109,-43.933,223.17,2.609,-0.86966,-0.25293,3.4786,-4.4641e-10,-0.12647,0,0,0.14286,-6.7671e-16,0,0.66667
0.49854,0.11921,3.4898,-0.57118,-27.902,101.26,5.3154,-1.7718,-0.84143,7.0872,1.4309e-12,-0.42071,0,0,0.14286,-3.3835e-16,-2.1443e-16,0.66667
0.24179,0.37391,1.6925,-0.18913,-11.531,204.01,0.85363,-0.28454,-1.8724,1.1382,2.5279e-11,-0.9362,0,0,0.14286,-4.0179e-16,0,0.66667
0.19127,0.6201,1.3389,0.18014,11.24,226.52,-0.64319,0.2144,-1.8846,-0.85759,-4.7071e-10,-0.94229,0,0,0.14286,8.4588e-17,0,0.66667
0.60179,0.17706,4.2125,-0.48441,-20.022,67.283,5.4416,-1.8139,-1.164,7.2554,3.1575e-13,-0.58198,0,0,0.14286,-0,-0,0.66667
0.48061,0.05945,3.3642,-0.66083,-33.115,107.82,5.9285,-1.9762,-0.4476,7.9046,-5.2625e-13,-0.2238,0,0,0.14286,8.4588e-16,0,0.66667
0.38153,0.7681,2.6707,0.40215,22.282,145.19,-2.864,0.95468,-1.4232,-3.8187,5.7576e-13,-0.71162,0,0,0.14286,-0,-0,0.66667
0.41901,0.46244,2.9331,-0.056342,-3.002,130.24,0.44068,-0.14689,-1.989,0.58757,1.1897e-12,-0.99451,0,0,0.14286,-6.7671e-16,0,0.66667
0.94696,0.10093,6.6287,-0.5986,-3.9121,2.8456,10.581,-3.5271,-0.72473,14.108,2.51e-07,-0.36237,0,0,0.14286,-0,-0,0.66667
0.61125,0.60044,4.2788,0.15066,6.0812,64.057,-1.7191,0.57302,-1.9203,-2.2921,4.0401e-13,-0.96013,0,0,0.14286,-1.3534e-15,0,0.66667
0.2018,0.14639,1.4126,-0.53041,-33.088,221.94,1.998,-0.666,-1.0008,2.664,2.2933e-10,-0.50039,0,0,0.14286,-0,-0,0.66667
0.26679,0.73983,1.8675,0.35975,21.669,193.15,-1.7915,0.59718,-1.541,-2.3887,9.5025e-12,-0.77052,0,0,0.14286,3.3835e-16,0,0.66667
0.29971,0.4323,2.0979,-0.10155,-5.9803,178.88,0.56811,-0.18937,-1.9638,0.75747,-1.7526e-12,-0.98191,0,0,0.14286,-0,-0,0.66667
0.71146,0.17728,4.9802,-0.48407,-15.453,37.793,6.4288,-2.1429,-1.1652,8.5717,7.9514e-12,-0.58258,0,0,0.14286,6.7671e-16,0,0.66667
0.50952,0.084347,3.5666,-0.62348,-30.047,97.514,5.9299,-1.9766,-0.61642,7.9065,3.9746e-13,-0.30821,0,0,0.14286,-6.7671e-16,0,0.66667
0.21262,0.44045,1.4883,-0.089324,-5.5207,216.93,0.35452,-0.11817,-1.971,0.47269,5.135e-11,-0.98552,0,0,0.14286,-0,-0,0.66667
0.58056,0.6026,4.0639,0.15389,6.5796,73.411,-1.6678,0.55593,-1.9161,-2.2237,7.5051e-14,-0.95805,0,0,0.14286,-0,-0,0.66667
0.87572,0.12346,6.13,-0.5648,-8.4594,8.8727,9.2327,-3.0776,-0.86854,12.31,-1.6568e-08,-0.43427,0,0,0.14286,-0,-0,0.66667
0.12633,0.85927,0.8843,0.5389,34.494,256.2,-1.2708,0.4236,-0.96825,-1.6944,-3.3688e-09,-0.48413,0,0,0.14286,-0,-0,0.66667
0.99245,0.1879,6.9472,-0.46814,-0.29318,0.77749,8.6727,-2.8909,-1.2205,11.564,-3.6685e-07,-0.61025,0,0,0.14286,-0,-0,0.66667
0.57331,0.26331,4.0132,-0.35504,-15.411,75.877,3.7995,-1.2665,-1.5505,5.066,2.5424e-13,-0.77527,0,0,0.14286,-0,-0,0.66667
0.075515,0.74022,0.52861,0.36033,23.245,279.62,-0.50792,0.16931,-1.5385,-0.67723,-2.2372e-08,-0.76924,0,0,0.14286,-8.4588e-17,0,0.66667
0.9247,0.52843,6.4729,0.04264,0.37896,3.28,-0.73601,0.24534,-1.9944,-0.98134,-1.2551e-07,-0.9972,0,0,0.14286,-6.7671e-16,0,0.66667
0.6613,0.52629,4.6291,0.039431,1.4266,49.903,-0.48674,0.16225,-1.9939,-0.64899,3.1875e-13,-0.99693,0,0,0.14286,-6.7671e-16,0,0.66667
0.25836,0.64804,1.8085,0.22205,13.421,196.75,-1.0709,0.35697,-1.8232,-1.4279,-2.6035e-13,-0.91159,0,0,0.14286,1.6918e-16,0,0.66667
0.011312,0.80925,0.079182,0.46387,30.135,309.53,-0.097948,0.032649,-1.2349,-0.1306,-1.172e-07,-0.61745,0,0,0.14286,-2.3085e-17,0,0.66667
0.82783,0.24416,5.7948,-0.38376,-7.7248,14.865,5.9301,-1.9767,-1.4788,7.9068,-1.1721e-09,-0.73942,0,0,0.14286,-6.7671e-16,0,0.66667
0.19681,0.63224,1.3777,0.19836,12.35,224.03,-0.72874,0.24291,-1.8588,-0.97166,-4.5734e-10,-0.92942,0,0,0.14286,-0,-0,0.66667
0.91039,0.78621,6.3727,0.42932,4.6333,4.9732,-7.2959,2.432,-1.3444,-9.7278,1.8695e-08,-0.67222,0,0,0.14286,-0,-0,0.66667
0.26207,0.64751,1.8345,0.22127,13.346,195.14,-1.0824,0.36081,-1.8255,-1.4432,3.7564e-12,-0.91277,0,0,0.14286,3.3835e-16,0,0.66667
0.30754,0.49221,2.1528,-0.011683,-0.68426,175.54,0.067067,-0.022356,-1.9986,0.089422,-4.4327e-13,-0.99929,0,0,0.14286,1.0151e-15,0,0.66667
0.429,0.64334,3.003,0.21501,11.347,126.45,-1.7218,0.57394,-1.8338,-2.2958,6.2439e-13,-0.91691,0,0,0.14286,-6.7671e-16,0,0.66667
0.84952,0.52675,5.9466,0.04013,0.70636,11.333,-0.63637,0.21212,-1.9935,-0.8485,2.1039e-09,-0.99676,0,0,0.14286,-6.7671e-16,0,0.66667
0.37631,0.37417,2.6342,-0.18875,-10.482,147.14,1.3258,-0.44195,-1.8757,1.7678,1.9645e-12,-0.93786,0,0,0.14286,-7.613e-16,0,0.66667
0.66908,0.8686,4.6836,0.5529,19.804,48.475,-6.9055,2.3018,-0.91341,-9.2073,-2.625e-12,-0.45671,0,0,0.14286,1.4112e-15,0,0.66667
0.73119,0.59031,5.1183,0.13547,4.0423,32.794,-1.849,0.61632,-1.9353,-2.4653,-1.5357e-12,-0.96764,0,0,0.14286,-1.3534e-15,0,0.66667
0.89467,0.62265,6.2627,0.18397,2.2978,6.0345,-3.0724,1.0241,-1.8799,-4.0966,1.1653e-08,-0.93996,0,0,0.14286,-2.0301e-15,0,0.66667
0.93853,0.92277,6.5697,0.63416,4.8319,3.4767,-11.11,3.7033,-0.57122,-14.813,-3.5344e-08,-0.28561,0,0,0.14286,-0,-0,0.66667
0.87235,0.034354,6.1065,-0.69847,-10.852,9.7247,11.374,-3.7913,-0.26633,15.165,1.1231e-08,-0.13317,0,0,0.14286,2.7068e-15,0,0.66667
0.45255,0.87015,3.1678,0.55523,28.699,117.91,-4.6903,1.5634,-0.90624,-6.2538,-5.9597e-13,-0.45312,0,0,0.14286,1.0151e-15,0,0.66667
0.55083,0.5097,3.8558,0.014555,0.65393,82.907,-0.14966,0.049887,-1.9986,-0.19955,2.1751e-13,-0.99928,0,0,0.14286,-2.7068e-15,0,0.66667
0.57742,0.59246,4.042,0.13869,5.9617,74.389,-1.4948,0.49828,-1.9345,-1.9931,9.9387e-13,-0.96723,0,0,0.14286,-1.6829e-16,0,0.66667
0.48558,0.16027,3.3991,-0.5096,-25.284,105.76,4.6191,-1.5397,-1.0785,6.1588,6.6391e-13,-0.53927,0,0,0.14286,-0,-0,0.66667
0.91406,0.59597,6.3984,0.14395,1.4662,4.1924,-2.4562,0.81874,-1.9257,-3.2749,2.2599e-08,-0.96284,0,0,0.14286,-0,-0,0.66667
0.78635,0.18571,5.5044,-0.47144,-11.589,22.052,6.92,-2.3067,-1.2097,9.2266,-2.0972e-10,-0.60484,0,0,0.14286,-1.3534e-15,0,0.66667
0.093327,0.43908,0.65329,-0.091375,-5.8653,271.32,0.15919,-0.053062,-1.9734,0.21225,-2.8098e-08,-0.98668,0,0,0.14286,-0,-0,0.66667
0.99093,0.33241,6.9365,-0.25138,-0.16632,0.32221,4.6499,-1.55,-1.7736,6.1999,-8.5032e-08,-0.88682,0,0,0.14286,-0,-0,0.66667
0.19126,0.7397,1.3388,0.35955,22.47,226.58,-1.2837,0.42789,-1.5397,-1.7116,-5.2666e-10,-0.76986,0,0,0.14286,-1.6918e-16,0,0.66667
0.26939,0.24188,1.8857,-0.38717,-23.294,192.04,1.947,-0.64898,-1.4666,2.5959,-5.9556e-12,-0.73329,0,0,0.14286,3.3835e-16,0,0.66667
0.15118,0.96321,1.0583,0.69481,44.299,244.92,-1.9608,0.65362,-0.2828,-2.6145,-2.6867e-09,-0.1414,0,0,0.14286,-2.5377e-16,0,0.66667
0.26352,0.17172,1.8446,-0.49243,-29.774,194.67,2.4222,-0.80742,-1.1381,3.2297,-1.4979e-12,-0.56903,0,0,0.14286,-0,-0,0.66667
0.37276,0.77219,2.6093,0.40828,22.801,148.72,-2.841,0.94698,-1.4077,-3.7879,1.4524e-12,-0.70387,0,0,0.14286,-0,-0,0.66667
0.97389,0.51343,6.8172,0.02015,0.056108,0.56929,-0.36631,0.1221,-1.9972,-0.48842,-3.0343e-06,-0.99858,0,0,0.14286,2.7068e-15,0,0.66667
0.16693,0.92485,1.1685,0.63728,40.372,237.73,-1.9858,0.66192,-0.55471,-2.6477,1.0995e-09,-0.27736,0,0,0.14286,1.6918e-16,0,0.66667
0.61018,0.0055709,4.2713,-0.74164,-30.404,65.375,8.4474,-2.8158,-0.046333,11.263,9.8499e-13,-0.023167,0,0,0.14286,-0,-0,0.66667
0.44789,0.90494,3.1352,0.6074,31.601,119.74,-5.0782,1.6927,-0.68818,-6.771,-9.2548e-13,-0.34409,0,0,0.14286,-8.4588e-17,0,0.66667
0.58703,0.91303,4.1092,0.61954,26.414,72.056,-6.7888,2.2629,-0.634,-9.0518,8.4599e-13,-0.317,0,0,0.14286,-0,-0,0.66667
0.053649,0.45305,0.37555,-0.070432,-4.5476,289.76,0.070535,-0.023511,-1.9805,0.094046,9.1583e-08,-0.99027,0,0,0.14286,8.4588e-17,0,0.66667
0.30933,0.17926,2.1653,-0.48111,-28.26,175.01,2.778,-0.92601,-1.1769,3.704,-1.7626e-12,-0.58844,0,0,0.14286,-0,-0,0.66667
0.090911,0.37388,0.63638,-0.18918,-12.154,272.45,0.32104,-0.10701,-1.8739,0.42805,-4.8827e-09,-0.93697,0,0,0.14286,-6.3441e-17,0,0.66667
0.46345,0.02857,3.2441,-0.70715,-36.231,114.15,6.1175,-2.0392,-0.22171,8.1567,1.4451e-12,-0.11086,0,0,0.14286,-0,-0,0.66667
0.89199,0.63494,6.2439,0.20241,2.593,6.3284,-3.3702,1.1234,-1.8554,-4.4937,9.3328e-09,-0.92769,0,0,0.14286,-0,-0,0.66667
0.82138,0.32526,5.7497,-0.2621,-5.4367,15.669,4.0187,-1.3396,-1.754,5.3583,-1.005e-09,-0.87699,0,0,0.14286,-1.3534e-15,0,0.66667
0.87215,0.678,6.1051,0.267,4.0391,8.6176,-4.3468,1.4489,-1.7465,-5.7957,5.8774e-09,-0.87325,0,0,0.14286,1.3534e-15,0,0.66667
0.3996,0.87241,2.7972,0.55862,30.524,138.21,-4.1668,1.3889,-0.88986,-5.5557,-8.8818e-13,-0.44493,0,0,0.14286,6.7671e-16,0,0.66667
0.50934,0.78161,3.5654,0.42241,20.27,97.243,-4.0161,1.3387,-1.3655,-5.3548,-7.8959e-13,-0.68273,0,0,0.14286,-0,-0,0.66667
0.25721,0.7528,1.8004,0.3792,22.971,197.33,-1.8206,0.60687,-1.488,-2.4275,4.6516e-12,-0.744,0,0,0.14286,-0,-0,0.66667
0.60699,0.23631,4.2489,-0.39554,-16.154,65.578,4.4816,-1.4939,-1.4438,5.9755,3.6104e-13,-0.72189,0,0,0.14286,-0,-0,0.66667
0.44631,0.86443,3.1242,0.54665,28.451,120.23,-4.5542,1.5181,-0.93585,-6.0723,7.5051e-14,-0.46792,0,0,0.14286,-6.7671e-16,0,0.66667
0.49641,0.1338,3.4748,-0.5493,-26.896,101.97,5.09,-1.6967,-0.92676,6.7866,1.5898e-12,-0.46338,0,0,0.14286,-0,-0,0.66667
0.54096,0.077607,3.7867,-0.63359,-29.175,86.849,6.398,-2.1327,-0.57101,8.5306,4.0501e-13,-0.28551,0,0,0.14286,-0,-0,0.66667
0.58046,0.78111,4.0632,0.42167,18.099,73.721,-4.5689,1.523,-1.3695,-6.0919,1.3411e-13,-0.68477,0,0,0.14286,-2.9606e-16,0,0.66667
0.46466,0.17761,3.2526,-0.48359,-24.608,113.32,4.1945,-1.3982,-1.1678,5.5926,5.4312e-13,-0.58388,0,0,0.14286,-0,-0,0.66667
0.79849,0.22844,5.5894,-0.40735,-9.4776,19.734,6.0715,-2.0238,-1.4109,8.0954,-3.3682e-10,-0.70544,0,0,0.14286,-0,-0,0.66667
0.40923,0.14912,2.8646,-0.52633,-28.472,134.39,4.0206,-1.3402,-1.0152,5.3608,1.3163e-12,-0.50758,0,0,0.14286,-3.3835e-16,0,0.66667
0.043632,0.37543,0.30542,-0.18685,-12.082,294.44,0.15218,-0.050727,-1.8769,0.20291,5.5369e-09,-0.93847,0,0,0.14286,-0,-0,0.66667
0.83341,0.74806,5.8339,0.3721,7.2613,13.998,-5.7887,1.9296,-1.5075,-7.7183,1.4289e-09,-0.75377,0,0,0.14286,1.8609e-15,0,0.66667
0.48479,0.98389,3.3935,0.72583,36.249,106.45,-6.5684,2.1895,-0.1285,-8.7578,-6.5548e-13,-0.064248,0,0,0.14286,-0,-0,0.66667
0.47847,0.9387,3.3493,0.65805,33.061,108.58,-5.8774,1.9591,-0.46015,-7.8365,8.0913e-13,-0.23008,0,0,0.14286,-0,-0,0.66667
0.17683,0.54051,1.2378,0.060764,3.8106,233.02,-0.20058,0.066859,-1.9858,-0.26744,-4.2241e-10,-0.99289,0,0,0.14286,3.3835e-16,0,0.66667
0.443,0.81566,3.101,0.47349,24.697,121.37,-3.9154,1.3051,-1.2024,-5.2206,1.7004e-12,-0.60121,0,0,0.14286,-0,-0,0.66667
0.14347,0.67351,1.0043,0.26027,16.521,248.25,-0.69704,0.23235,-1.7589,-0.92939,-3.7258e-09,-0.87944,0,0,0.14286,-0,-0,0.66667
0.041238,0.90283,0.28866,0.60425,39.287,295.59,-0.46513,0.15504,-0.70126,-0.62018,-1.9452e-06,-0.35063,0,0,0.14286,4.2294e-17,0,0.66667
0.96316,0.75195,6.7421,0.37792,1.6211,1.4063,-6.7947,2.2649,-1.4919,-9.0596,-1.1789e-07,-0.74595,0,0,0.14286,-0,-0,0.66667
0.26195,0.74864,1.8337,0.37295,22.531,195.26,-1.8236,0.60788,-1.5061,-2.4315,1.0059e-11,-0.75304,0,0,0.14286,-4.2294e-16,0,0.66667
0.1361,0.86276,0.95269,0.54413,34.741,251.72,-1.3824,0.46079,-0.94615,-1.8432,1.5287e-09,-0.47308,0,0,0.14286,-0,-0,0.66667
0.68806,0.48984,4.8164,-0.015242,-0.51548,42.969,0.19576,-0.065255,-2.0009,0.26102,1.0327e-12,-1.0005,0,0,0.14286,-0,-0,0.66667
0.37393,0.092253,2.6175,-0.61162,-34.252,148.49,4.2691,-1.423,-0.67241,5.6922,3.6064e-12,-0.3362,0,0,0.14286,-9.3047e-16,0,0.66667
0.62308,0.2787,4.3616,-0.33195,-13.112,60.761,3.8609,-1.287,-1.6098,5.1479,1.4961e-12,-0.80488,0,0,0.14286,-6.7671e-16,0,0.66667
0.70645,0.33904,4.9451,-0.24144,-7.7754,38.593,3.1838,-1.0613,-1.793,4.2451,8.0698e-12,-0.8965,0,0,0.14286,-0,-0,0.66667
0.66211,0.47136,4.6348,-0.042962,-1.5514,49.687,0.53099,-0.177,-1.993,0.70798,9.6928e-13,-0.99649,0,0,0.14286,-0,-0,0.66667
0.22691,0.73541,1.5884,0.35312,21.722,210.65,-1.4957,0.49857,-1.5548,-1.9943,-7.2876e-11,-0.77738,0,0,0.14286,3.3835e-16,0,0.66667
0.78337,0.81728,5.4836,0.47591,11.846,22.612,-6.9593,2.3198,-1.1957,-9.279,1.5539e-10,-0.59787,0,0,0.14286,-0,-0,0.66667
0.07097,0.90321,0.49679,0.60482,39.193,281.78,-0.80125,0.26708,-0.69858,-1.0683,-3.2153e-07,-0.34929,0,0,0.14286,-1.2688e-16,0,0.66667
0.78814,0.58143,5.517,0.12214,2.9537,21.215,-1.797,0.59899,-1.9452,-2.396,1.4211e-10,-0.97259,0,0,0.14286,-1.3534e-15,0,0.66667
0.16235,0.17138,1.1364,-0.49294,-31.193,239.72,1.4938,-0.49794,-1.1343,1.9918,1.6664e-09,-0.56717,0,0,0.14286,-3.3835e-16,0,0.66667
0.40501,0.55042,2.8351,0.075625,4.0867,135.7,-0.57174,0.19058,-1.9807,-0.76232,-5.338e-13,-0.99034,0,0,0.14286,6.7671e-16,0,0.66667
0.0061978,0.37221,0.043385,-0.19169,-12.419,311.91,0.022177,-0.0073922,-1.8688,0.029569,1.2766e-08,-0.93439,0,0,0.14286,1.5052e-17,0,0.66667
0.16285,0.26133,1.14,-0.358,-22.608,239.44,1.0883,-0.36277,-1.5426,1.4511,1.7684e-09,-0.77131,0,0,0.14286,-0,-0,0.66667
0.67786,0.57348,4.745,0.11022,3.8293,45.584,-1.3947,0.46489,-1.9553,-1.8595,-2.9831e-12,-0.97764,0,0,0.14286,1.3534e-15,0,0.66667
0.75014,0.64889,5.251,0.22334,6.2618,28.767,-3.1273,1.0424,-1.8251,-4.1698,1.6778e-11,-0.91254,0,0,0.14286,6.7671e-16,0,0.66667
0.91019,0.70456,6.3713,0.30684,3.29,4.7354,-5.2133,1.7378,-1.6643,-6.9511,1.3339e-08,-0.83217,0,0,0.14286,-0,-0,0.66667
0.42023,0.48293,2.9416,-0.025606,-1.3626,129.77,0.20086,-0.066953,-1.9983,0.26781,7.5748e-13,-0.99913,0,0,0.14286,-0,-0,0.66667
0.61033,0.52186,4.2723,0.032795,1.3254,64.289,-0.37363,0.12454,-1.9976,-0.49818,5.5567e-14,-0.99881,0,0,0.14286,-1.3534e-15,0,0.66667
0.49204,0.39577,3.4443,-0.15634,-7.6543,103.1,1.436,-0.47867,-1.9114,1.9147,3.4484e-13,-0.95569,0,0,0.14286,-0,-0,0.66667
0.025408,0.65798,0.17786,0.23697,15.348,302.94,-0.11239,0.037465,-1.8,-0.14986,2.1064e-08,-0.90002,0,0,0.14286,-0,-0,0.66667
0.44827,0.95793,3.1379,0.6869,35.795,119.74,-5.7478,1.9159,-0.32121,-7.6638,2.2249e-13,-0.16061,0,0,0.14286,-0,-7.2331e-17,0.66667
0.68945,0.66929,4.8261,0.25393,8.5731,42.758,-3.2681,1.0894,-1.7711,-4.3574,-6.4642e-12,-0.88556,0,0,0.14286,-0,-0,0.66667
0.67687,0.89353,4.7381,0.59029,20.765,46.546,-7.4583,2.4861,-0.75977,-9.9444,-2.4665e-12,-0.37989,0,0,0.14286,-0,-0,0.66667
0.29344,0.72719,2.054,0.34079,20.19,181.66,-1.8667,0.62222,-1.5868,-2.4889,1.1682e-11,-0.79339,0,0,0.14286,-0,-0,0.66667
0.87748,0.2359,6.1423,-0.39615,-5.7872,8.2286,6.4888,-2.1629,-1.442,8.6517,-7.6341e-09,-0.72099,0,0,0.14286,-0,-0,0.66667
0.77122,0.94106,5.3986,0.66159,17.429,25.43,-9.5243,3.1748,-0.44318,-12.699,-3.217e-12,-0.22159,0,0,0.14286,-2.7068e-15,0,0.66667
0.85372,0.43231,5.9761,-0.10153,-1.7406,10.787,1.618,-0.53934,-1.9625,2.1574,-7.2439e-10,-0.98126,0,0,0.14286,1.0151e-15,0,0.66667
0.93715,0.13402,6.5601,-0.54897,-4.2179,3.2705,9.6035,-3.2012,-0.9305,12.805,-1.2048e-07,-0.46525,0,0,0.14286,-0,-1.5302e-16,0.66667
0.235,0.6695,1.645,0.25426,15.563,207.03,-1.1154,0.37179,-1.7717,-1.4871,-5.097e-11,-0.88583,0,0,0.14286,3.3835e-16,0,0.66667
0.71728,0.81253,5.021,0.4688,14.703,36.403,-6.2769,2.0923,-1.221,-8.3692,-6.4975e-12,-0.61052,0,0,0.14286,-0,-0,0.66667
0.043952,0.86911,0.30767,0.55367,35.956,294.32,-0.45426,0.15142,-0.91037,-0.60568,-2.5356e-07,-0.45518,0,0,0.14286,-6.3441e-17,0,0.66667
0.30362,0.79505,2.1254,0.44257,26.081,177.39,-2.5083,0.83611,-1.3018,-3.3444,6.9251e-12,-0.65089,0,0,0.14286,-0,-0,0.66667
0.48305,0.92466,3.3813,0.63698,31.802,106.89,-5.7436,1.9145,-0.55824,-7.6582,7.8515e-13,-0.27912,0,0,0.14286,-5.7204e-16,0,0.66667
0.36442,0.80167,2.5509,0.4525,25.47,152.14,-3.0782,1.0261,-1.2707,-4.1042,1.9078e-12,-0.63536,0,0,0.14286,-0,-0,0.66667
0.19847,0.22597,1.3893,-0.41105,-25.629,223.37,1.5229,-0.50762,-1.3985,2.0305,4.1733e-10,-0.69925,0,0,0.14286,-0,-0,0.66667
0.69868,0.42282,4.8908,-0.11577,-3.8055,40.369,1.5099,-0.50331,-1.9512,2.0132,4.1459e-12,-0.9756,0,0,0.14286,-0,-0,0.66667
0.9253,0.78752,6.4771,0.43128,3.8839,3.7644,-7.4493,2.4831,-1.3386,-9.9323,4.5773e-08,-0.66931,0,0,0.14286,-0,-0,0.66667
0.099858,0.00096794,0.69901,-0.74855,-48.416,268.47,1.3953,-0.4651,-0.0075307,1.8604,-4.7569e-08,-0.0037654,0,0,0.14286,-0,-0,0.66667
0.23014,0.6117,1.611,0.16755,10.274,209.15,-0.71977,0.23992,-1.8992,-0.95969,-5.9744e-11,-0.94958,0,0,0.14286,-0,-0,0.66667
0.28485,0.40123,1.9939,-0.14815,-8.8106,185.25,0.78772,-0.26257,-1.922,1.0503,-3.0825e-12,-0.96101,0,0,0.14286,5.0753e-16,0,0.66667
0.66797,0.87084,4.6758,0.55626,19.981,48.773,-6.9359,2.312,-0.89983,-9.2479,-2.403e-12,-0.44992,0,0,0.14286,1.3534e-15,0,0.66667
0.38662,0.087595,2.7063,-0.61861,-34.259,143.43,4.4644,-1.4881,-0.63905,5.9525,3.153e-12,-0.31953,0,0,0.14286,-3.3835e-16,-6.562e-18,0.66667
0.7656,0.041936,5.3592,-0.6871,-18.514,26.614,9.8194,-3.2731,-0.32365,13.093,5.9268e-12,-0.16183,0,0,0.14286,-0,-0,0.66667
0.095646,0.59141,0.66952,0.13712,8.799,270.25,-0.24481,0.081602,-1.9348,-0.32641,-9.7268e-09,-0.96739,0,0,0.14286,-0,-0,0.66667
0.46018,0.46724,3.2213,-0.049146,-2.5024,114.65,0.42217,-0.14072,-1.9909,0.56289,9.9468e-13,-0.99547,0,0,0.14286,-1.6918e-16,0,0.66667
0.29262,0.89562,2.0483,0.59343,35.322,182.22,-3.2414,1.0805,-0.74697,-4.3219,5.1235e-12,-0.37348,0,0,0.14286,-0,-0,0.66667
0.51342,0.20598,3.5939,-0.44103,-21.051,95.854,4.2268,-1.4089,-1.3086,5.6357,6.3238e-13,-0.65431,0,0,0.14286,-6.0801e-16,0,0.66667
0.13575,0.89206,0.95022,0.58809,37.582,251.91,-1.4902,0.49672,-0.769,-1.9869,-1.1788e-08,-0.3845,0,0,0.14286,-0,-0,0.66667
0.446,0.69126,3.122,0.28688,14.872,120.05,-2.3884,0.79613,-1.7065,-3.1845,9.9454e-13,-0.85324,0,0,0.14286,-0,-0,0.66667
0.51639,0.36523,3.6147,-0.20216,-9.5766,94.58,1.9487,-0.64956,-1.8563,2.5982,1.0769e-13,-0.92814,0,0,0.14286,-0,-0,0.66667
0.34421,0.82876,2.4094,0.49314,28.238,160.45,-3.1685,1.0562,-1.137,-4.2247,2.5762e-12,-0.56849,0,0,0.14286,-0,-0,0.66667
0.55465,0.76869,3.8826,0.40304,18.064,81.937,-4.1729,1.391,-1.4206,-5.5639,5.0138e-13,-0.7103,0,0,0.14286,-6.7671e-16,0,0.66667
0.71429,0.66933,5,0.25399,7.9963,36.753,-3.3865,1.1288,-1.7695,-4.5154,-8.1966e-12,-0.88476,0,0,0.14286,-0,-0,0.66667
0.66388,0.75389,4.6472,0.38083,13.75,49.512,-4.7195,1.5732,-1.4834,-6.2926,-3.1886e-12,-0.74169,0,0,0.14286,-0,-0,0.66667
0.35567,0.59937,2.4897,0.14906,8.4232,155.5,-0.98965,0.32988,-1.9209,-1.3195,2.3448e-12,-0.96045,0,0,0.14286,-0,-0,0.66667
0.076579,0.96099,0.53605,0.69149,44.852,279.21,-0.98847,0.32949,-0.30098,-1.318,-1.3583e-06,-0.15049,0,0,0.14286,-0,-0,0.66667
0.83367,0.51761,5.8357,0.026408,0.51082,13.602,-0.41095,0.13698,-1.996,-0.54794,3.6583e-10,-0.99799,0,0,0.14286,-0,-0,0.66667
0.92624,0.11474,6.4837,-0.57789,-5.227,4.1204,9.9917,-3.3306,-0.81167,13.322,-7.3498e-08,-0.40584,0,0,0.14286,-0,-0,0.66667
0.23416,0.23332,1.6391,-0.40003,-24.535,207.47,1.7485,-0.58284,-1.4329,2.3314,4.5906e-11,-0.71646,0,0,0.14286,-0,-0,0.66667
0.0015237,0.90798,0.010666,0.61196,39.862,314.1,-0.017402,0.0058028,-0.67049,-0.023202,3.1138e-06,-0.33525,0,0,0.14286,-5.2868e-18,0,0.66667
0.47964,0.20775,3.3575,-0.43837,-21.883,107.8,3.9248,-1.3083,-1.3156,5.2331,1.6431e-14,-0.6578,0,0,0.14286,6.7671e-16,0,0.66667
0.61534,0.84279,4.3074,0.51418,20.714,63.312,-5.9061,1.9687,-1.0598,-7.8748,-9.9121e-13,-0.5299,0,0,0.14286,1.438e-15,0,0.66667
0.65285,0.19172,4.5699,-0.46241,-17.168,52.615,5.6352,-1.8784,-1.24,7.5136,2.8058e-12,-0.62,0,0,0.14286,-0,-0,0.66667
0.60356,0.52104,4.2249,0.031566,1.2927,66.312,-0.35564,0.11855,-1.995,-0.47418,-7.396e-13,-0.99751,0,0,0.14286,-0,-0,0.66667
0.67867,0.19472,4.7507,-0.45792,-15.97,45.794,5.8011,-1.9337,-1.2531,7.7348,4.8557e-12,-0.62655,0,0,0.14286,-0,-0,0.66667
0.73325,0.6589,5.1327,0.23835,7.0749,32.424,-3.2624,1.0875,-1.8002,-4.3498,-3.7306e-12,-0.9001,0,0,0.14286,-0,-0,0.66667
0.84341,0.81726,5.9039,0.47589,8.809,12.776,-7.4923,2.4974,-1.1973,-9.9897,2.383e-09,-0.59867,0,0,0.14286,-0,-0,0.66667
0.57512,0.82441,4.0258,0.48662,21.112,75.503,-5.2242,1.7414,-1.1578,-6.9655,2.1716e-13,-0.57888,0,0,0.14286,-0,-0,0.66667
0.033325,0.7909,0.23328,0.43635,28.308,299.26,-0.27144,0.09048,-1.3235,-0.36192,2.1172e-07,-0.66177,0,0,0.14286,8.4588e-17,0,0.66667
0.93264,0.028532,6.5285,-0.7072,-5.9695,4.1479,12.312,-4.1039,-0.22158,16.416,-5.4016e-07,-0.11079,0,0,0.14286,6.7671e-16,1.9476e-16,0.66667
0.41723,0.58885,2.9206,0.13327,7.1159,130.95,-1.0379,0.34598,-1.9364,-1.3839,1.2274e-12,-0.96821,0,0,0.14286,-8.4588e-16,0,0.66667
0.46721,0.33871,3.2705,-0.24194,-12.23,112.13,2.11,-0.70334,-1.7933,2.8134,6.95e-13,-0.89666,0,0,0.14286,-3.3835e-16,0,0.66667
0.61906,0.97474,4.3334,0.7121,28.653,62.692,-8.229,2.743,-0.19599,-10.972,-1.2346e-13,-0.097993,0,0,0.14286,-0,-0,0.66667
0.27646,0.49105,1.9352,-0.013427,-0.80236,188.85,0.069292,-0.023097,-1.9984,0.092389,-7.4759e-13,-0.99918,0,0,0.14286,-6.7671e-16,0,0.66667
0.90942,0.73548,6.366,0.35323,3.8309,4.89,-5.9963,1.9988,-1.5559,-7.9951,1.8e-08,-0.77795,0,0,0.14286,-0,-0,0.66667
0.6579,0.68892,4.6053,0.28338,10.359,50.975,-3.4802,1.1601,-1.7165,-4.6402,-2.7223e-12,-0.85823,0,0,0.14286,-0,-0,0.66667
0.13349,0.75606,0.93443,0.38408,24.481,252.86,-0.95706,0.31902,-1.4743,-1.2761,-5.4457e-09,-0.73713,0,0,0.14286,-3.3835e-16,0,0.66667
0.37351,0.26203,2.6146,-0.35696,-19.907,148.37,2.4888,-0.8296,-1.5478,3.3184,3.4417e-13,-0.77388,0,0,0.14286,-0,-0,0.66667
0.21324,0.5171,1.4927,0.025649,1.5846,216.65,-0.1021,0.034033,-1.9961,-0.13613,-1.7458e-11,-0.99806,0,0,0.14286,-5.0506e-16,0,0.66667
0.44333,0.22543,3.1033,-0.41186,-21.452,121.18,3.4083,-1.1361,-1.3958,4.5444,3.6704e-13,-0.6979,0,0,0.14286,-0,-0,0.66667
0.20627,0.73535,1.4439,0.35302,21.922,219.84,-1.3593,0.4531,-1.5564,-1.8124,-2.7028e-10,-0.77821,0,0,0.14286,3.3835e-16,0,0.66667
0.097915,0.20319,0.6854,-0.44521,-28.64,269.26,0.81374,-0.27125,-1.2942,1.085,1.7534e-08,-0.6471,0,0,0.14286,1.6918e-16,0,0.66667
0.32046,0.4094,2.2432,-0.13589,-7.89,170.11,0.81291,-0.27097,-1.9335,1.0839,-3.7469e-12,-0.96676,0,0,0.14286,-0,-0,0.66667
0.13448,0.34687,0.94138,-0.22969,-14.614,252.36,0.57661,-0.1922,-1.8118,0.76882,3.8838e-09,-0.90589,0,0,0.14286,-0,-0,0.66667
0.035025,0.019489,0.24518,-0.72077,-47,298.5,0.47124,-0.15708,-0.15215,0.62832,1.6777e-06,-0.076077,0,0,0.14286,-0,-0,0.66667
0.49839,0.64258,3.4888,0.21388,10.388,100.87,-1.9898,0.66325,-1.838,-2.653,2.2238e-13,-0.919,0,0,0.14286,6.7671e-16,0,0.66667
0.60463,0.69489,4.2324,0.29233,11.972,66.148,-3.2994,1.0998,-1.6953,-4.3992,5.4734e-13,-0.84767,0,0,0.14286,-1.3534e-15,0,0.66667
0.19647,0.84492,1.3753,0.51738,32.339,224.32,-1.8975,0.63249,-1.0479,-2.53,-5.7119e-10,-0.52394,0,0,0.14286,6.7671e-16,0,0.66667
0.35053,0.25142,2.4537,-0.37287,-21.204,157.74,2.4398,-0.81325,-1.5052,3.253,9.5035e-14,-0.75262,0,0,0.14286,-0,-0,0.66667
0.45356,0.39422,3.175,-0.15867,-8.1452,117.14,1.3434,-0.44778,-1.9122,1.7911,1.9396e-13,-0.95612,0,0,0.14286,-6.7671e-16,0,0.66667
0.25284,0.94633,1.7699,0.66949,40.865,199.48,-3.1598,1.0533,-0.40637,-4.213,6.3687e-12,-0.20318,0,0,0.14286,-0,-0,0.66667
0.33803,0.19921,2.3662,-0.45119,-25.942,162.96,2.8469,-0.94898,-1.2747,3.7959,8.0891e-13,-0.63734,0,0,0.14286,-6.7671e-16,0,0.66667
0.26085,0.77415,1.8259,0.41122,24.871,195.77,-2.0023,0.66743,-1.398,-2.6697,2.1612e-12,-0.69898,0,0,0.14286,1.6918e-16,0,0.66667
0.66262,0.034337,4.6383,-0.69849,-25.544,50.554,8.6396,-2.8799,-0.2646,11.519,-5.5511e-13,-0.1323,0,0,0.14286,2.7068e-15,0,0.66667
0.38944,0.52973,2.726,0.04459,2.4455,141.85,-0.32415,0.10805,-1.9953,-0.43219,1.6846e-12,-0.99764,0,0,0.14286,6.7671e-16,0,0.66667
0.46579,0.52334,3.2605,0.035004,1.7704,112.57,-0.30435,0.10145,-1.9957,-0.4058,-7.7446e-13,-0.99785,0,0,0.14286,6.7671e-16,0,0.66667
0.25898,0.74408,1.8128,0.36611,22.152,196.56,-1.7699,0.58996,-1.5223,-2.3598,7.333e-12,-0.76113,0,0,0.14286,1.5334e-16,0,0.66667
0.57889,0.11708,4.0523,-0.57438,-24.812,74.485,6.2068,-2.0689,-0.82873,8.2757,2.3537e-14,-0.41436,0,0,0.14286,-0,-0,0.66667
0.41565,0.79434,2.9096,0.44151,23.694,131.79,-3.4256,1.1419,-1.3052,-4.5675,4.13e-13,-0.65261,0,0,0.14286,6.7671e-16,0,0.66667
0.45718,0.89451,3.2003,0.59177,30.451,116.25,-5.0502,1.6834,-0.75401,-6.7336,-1.1946e-13,-0.37701,0,0,0.14286,-0,-0,0.66667
0.20956,0.98251,1.4669,0.72377,45.181,218.63,-2.8313,0.94376,-0.1357,-3.775,-6.8435e-11,-0.067848,0,0,0.14286,8.347e-16,0,0.66667
0.51169,0.50405,3.5818,0.006078,0.28958,96.142,-0.058055,0.019352,-1.9999,-0.077406,-2.7884e-14,-0.99994,0,0,0.14286,-0,-0,0.66667
0.42103,0.47639,2.9472,-0.035419,-1.8832,129.46,0.27837,-0.09279,-1.9973,0.37116,5.7149e-13,-0.99863,0,0,0.14286,-0,-0,0.66667
0.53816,0.18836,3.7671,-0.46746,-21.529,87.475,4.696,-1.5653,-1.2227,6.2613,-8.8818e-13,-0.61136,0,0,0.14286,1.3534e-15,0,0.66667
0.51553,0.88346,3.6087,0.5752,27.454,95.342,-5.5352,1.8451,-0.826,-7.3803,1.199e-14,-0.413,0,0,0.14286,-0,-0,0.66667
0.71232,0.1739,4.9862,-0.48915,-15.579,37.603,6.5041,-2.168,-1.1475,8.6721,7.9536e-12,-0.57376,0,0,0.14286,-8.4355e-16,0,0.66667
0.34543,0.73174,2.418,0.34762,19.842,159.82,-2.2414,0.74715,-1.571,-2.9886,2.9559e-12,-0.78548,0,0,0.14286,-0,-0,0.66667
0.22924,0.70296,1.6047,0.30444,18.697,209.6,-1.3028,0.43426,-1.669,-1.737,-7.8329e-11,-0.83451,0,0,0.14286,-0,-0,0.66667
0.91895,0.74021,6.4326,0.36031,3.4998,4.0983,-6.1807,2.0602,-1.5383,-8.2409,2.1037e-08,-0.76915,0,0,0.14286,-0,-0,0.66667
0.39408,0.018967,2.7586,-0.72155,-39.789,140.64,5.3079,-1.7693,-0.14828,7.0772,4.5559e-12,-0.074138,0,0,0.14286,-1.3534e-15,0,0.66667
0.81515,0.54034,5.706,0.060503,1.2913,16.507,-0.92062,0.30687,-1.9871,-1.2275,4.0788e-10,-0.99356,0,0,0.14286,-2.7068e-15,0,0.66667
0.88049,0.10059,6.1634,-0.59911,-8.6702,8.44,9.8469,-3.2823,-0.72278,13.129,3.4028e-08,-0.36139,0,0,0.14286,-0,-0,0.66667
0.65189,0.73021,4.5632,0.34532,12.814,52.682,-4.202,1.4007,-1.575,-5.6027,-3.0478e-12,-0.78751,0,0,0.14286,1.3534e-15,0,0.66667
0.76748,0.18938,5.3723,-0.46592,-12.344,25.635,6.6749,-2.225,-1.2299,8.8999,1.7508e-11,-0.61494,0,0,0.14286,-2.7068e-15,0,0.66667
0.89753,0.70632,6.2827,0.30949,3.7816,5.9213,-5.1851,1.7284,-1.6577,-6.9135,1.2964e-08,-0.82883,0,0,0.14286,-0,-0,0.66667
0.49849,0.80594,3.4894,0.45891,22.364,101.1,-4.2702,1.4234,-1.2525,-5.6936,-2.0428e-13,-0.62624,0,0,0.14286,-6.7671e-16,0,0.66667
0.42176,0.59375,2.9523,0.14062,7.474,129.2,-1.1071,0.36903,-1.9334,-1.4761,1.4477e-13,-0.96668,0,0,0.14286,-2.0218e-16,0,0.66667
0.72854,0.76544,5.0998,0.39816,12.039,33.702,-5.4148,1.8049,-1.4347,-7.2197,-9.0075e-12,-0.71735,0,0,0.14286,-0,-0,0.66667
0.57844,0.42862,4.0491,-0.10707,-4.5934,74.053,1.1561,-0.38536,-1.9613,1.5414,-3.364e-13,-0.98066,0,0,0.14286,6.7671e-16,0,0.66667
0.070112,0.92544,0.49079,0.63816,41.385,282.19,-0.8352,0.2784,-0.5502,-1.1136,2.433e-07,-0.2751,0,0,0.14286,-0,-0,0.66667
0.80706,0.25358,5.6494,-0.36963,-8.2565,18.186,5.5686,-1.8562,-1.5137,7.4248,-4.6706e-10,-0.75685,0,0,0.14286,-0,-0,0.66667
0.20204,0.24198,1.4143,-0.38703,-24.088,221.75,1.4597,-0.48656,-1.4689,1.9462,2.931e-10,-0.73444,0,0,0.14286,-0,-0,0.66667
0.21501,0.11833,1.5051,-0.57251,-35.535,216.08,2.2978,-0.76592,-0.83436,3.0637,2.4891e-10,-0.41718,0,0,0.14286,-1.6918e-16,0,0.66667
0.87429,0.12618,6.12,-0.56072,-8.4873,9.0262,9.151,-3.0503,-0.88495,12.201,-1.1823e-08,-0.44248,0,0,0.14286,2.7068e-15,-2.4921e-17,0.66667
0.81023,0.13172,5.6716,-0.55242,-12.251,18.079,8.355,-2.785,-0.91563,11.14,-3.5929e-10,-0.45781,0,0,0.14286,-0,-0,0.66667
0.78716,0.30499,5.5101,-0.29251,-7.1248,21.569,4.2981,-1.4327,-1.6946,5.7308,-1.8908e-10,-0.84729,0,0,0.14286,-6.7671e-16,0,0.66667
0.97848,0.71176,6.8493,0.31764,0.73164,0.73092,-5.8016,1.9339,-1.6401,-7.7355,-8.0186e-08,-0.82007,0,0,0.14286,-1.3534e-15,0,0.66667
0.93575,0.91383,6.5502,0.62074,4.9301,3.6066,-10.843,3.6142,-0.63094,-14.457,-8.3475e-08,-0.31547,0,0,0.14286,2.7068e-15,0,0.66667
0.12932,0.10887,0.90521,-0.5867,-37.557,254.85,1.4162,-0.47207,-0.77504,1.8883,7.935e-09,-0.38752,0,0,0.14286,-0,-0,0.66667
0.46825,0.41579,3.2778,-0.12631,-6.3714,111.69,1.1041,-0.36802,-1.9451,1.4721,-4.966e-13,-0.97256,0,0,0.14286,-0,-0,0.66667
0.30416,0.10865,2.1292,-0.58702,-34.671,177.3,3.333,-1.111,-0.77289,4.444,1.8474e-13,-0.38644,0,0,0.14286,-6.7671e-16,0,0.66667
0.89049,0.0028373,6.2334,-0.74574,-10.082,7.9113,12.396,-4.132,-0.025728,16.528,-1.4842e-08,-0.012864,0,0,0.14286,-5.4137e-15,0,0.66667
0.13731,0.18525,0.96119,-0.47213,-30.098,251.14,1.2101,-0.40338,-1.2081,1.6135,1.8538e-09,-0.60406,0,0,0.14286,2.5377e-16,0,0.66667
0.047972,0.52968,0.33581,0.04452,2.8761,292.41,-0.039867,0.013289,-1.9954,-0.053156,3.317e-07,-0.99769,0,0,0.14286,-6.3441e-17,0,0.66667
0.97746,0.31795,6.8422,-0.27307,-0.65701,0.68088,4.9825,-1.6608,-1.7337,6.6433,4.7382e-08,-0.86687,0,0,0.14286,-2.7068e-15,0,0.66667
0.56486,0.76435,3.954,0.39653,17.474,78.625,-4.181,1.3937,-1.441,-5.5747,-3.3351e-13,-0.7205,0,0,0.14286,-0,-0,0.66667
0.28488,0.94533,1.9942,0.668,40.02,185.61,-3.5523,1.1841,-0.4131,-4.7364,1.9933e-12,-0.20655,0,0,0.14286,-0,-0,0.66667
0.33181,0.20233,2.3226,-0.44651,-25.792,165.54,2.7655,-0.92184,-1.2904,3.6874,-6.3172e-13,-0.64518,0,0,0.14286,6.7671e-16,0,0.66667
0.13838,0.077767,0.96868,-0.63335,-40.48,250.72,1.636,-0.54535,-0.57389,2.1814,-7.063e-09,-0.28694,0,0,0.14286,-0,-1.6909e-16,0.66667
0.99127,0.13503,6.9389,-0.54745,-0.4728,1.0456,10.13,-3.3766,-0.93276,13.506,-7.3374e-07,-0.46638,0,0,0.14286,-0,-0,0.66667
0.87071,0.91708,6.095,0.62562,9.7746,9.6571,-10.168,3.3895,-0.60743,-13.558,-1.3283e-09,-0.30371,0,0,0.14286,1.3534e-15,0,0.66667
0.24165,0.65454,1.6915,0.23181,14.138,204.09,-1.0457,0.34855,-1.8084,-1.3942,-3.4354e-11,-0.9042,0,0,0.14286,8.4588e-17,0,0.66667
0.33244,0.2656,2.3271,-0.3516,-20.273,165.2,2.1819,-0.72729,-1.5594,2.9092,-1.5608e-12,-0.77968,0,0,0.14286,-0,-0,0.66667
0.16541,0.25694,1.1579,-0.36459,-23.006,238.27,1.1258,-0.37525,-1.5261,1.501,1.544e-09,-0.76306,0,0,0.14286,-0,-0,0.66667
0.51303,0.97731,3.5912,0.71596,34.428,96.494,-6.8565,2.2855,-0.17764,-9.142,5.5955e-14,-0.088819,0,0,0.14286,-0,-0,0.66667
0.97972,0.097678,6.858,-0.60348,-1.459,1.4981,11.037,-3.6788,-0.7048,14.715,3.0158e-06,-0.3524,0,0,0.14286,-0,-0,0.66667
0.59628,0.15725,4.1739,-0.51412,-21.488,69.004,5.7225,-1.9075,-1.0616,7.6299,8.5443e-13,-0.5308,0,0,0.14286,-0,-0,0.66667
0.66446,0.059258,4.6512,-0.66111,-24.037,49.961,8.2,-2.7333,-0.44515,10.933,-4.5386e-13,-0.22258,0,0,0.14286,1.3534e-15,0,0.66667
0.67117,0.20017,4.6982,-0.44975,-15.979,47.713,5.6347,-1.8782,-1.2823,7.5129,4.1771e-12,-0.64114,0,0,0.14286,-0,-0,0.66667
0.19112,0.94306,1.3378,0.66458,41.75,226.83,-2.3709,0.79031,-0.42957,-3.1612,-1.4436e-10,-0.21479,0,0,0.14286,-0,-0,0.66667
0.24088,0.36424,1.6862,-0.20364,-12.422,204.41,0.91566,-0.30522,-1.8509,1.2209,3.1615e-11,-0.92547,0,0,0.14286,-0,-0,0.66667
0.50091,0.16016,3.5064,-0.50976,-24.788,100.32,4.7665,-1.5888,-1.0782,6.3553,3.5882e-13,-0.53912,0,0,0.14286,-0,-0,0.66667
0.46695,0.04271,3.2686,-0.68593,-34.978,112.83,5.9788,-1.9929,-0.32767,7.9718,5.3957e-13,-0.16383,0,0,0.14286,-0,-1.5716e-16,0.66667
0.32409,0.63384,2.2687,0.20076,11.63,168.6,-1.2146,0.40486,-1.856,-1.6194,4.6596e-12,-0.92802,0,0,0.14286,6.7671e-16,0,0.66667
0.72003,0.15895,5.0402,-0.51157,-15.935,35.864,6.8759,-2.292,-1.0715,9.1678,1.2319e-11,-0.53577,0,0,0.14286,2.7068e-15,0,0.66667
0.27597,0.20702,1.9318,-0.43946,-26.357,189.23,2.2639,-0.75462,-1.3119,3.0185,-5.1312e-12,-0.65597,0,0,0.14286,-0,-0,0.66667
0.89558,0.50801,6.2691,0.012018,0.1484,5.8484,-0.20091,0.066971,-1.9985,-0.26789,4.4969e-08,-0.99926,0,0,0.14286,-0,-0,0.66667
0.12274,0.80724,0.8592,0.46085,29.488,257.82,-1.0559,0.35197,-1.2457,-1.4079,-9.7148e-09,-0.62286,0,0,0.14286,-0,-0,0.66667
0.92163,0.81815,6.4514,0.47722,4.5295,4.1654,-8.21,2.7367,-1.1928,-10.947,3.6856e-08,-0.5964,0,0,0.14286,-0,-0,0.66667
0.10352,0.98292,0.72462,0.72438,46.791,266.78,-1.3997,0.46658,-0.13267,-1.8663,-1.1154e-07,-0.066336,0,0,0.14286,2.4518e-16,0,0.66667
0.19298,0.15219,1.3509,-0.52172,-32.659,225.89,1.8794,-0.62647,-1.0316,2.5059,3.4494e-10,-0.51581,0,0,0.14286,8.4588e-17,0,0.66667
0.45235,0.78545,3.1664,0.42817,22.082,117.82,-3.6154,1.2051,-1.3504,-4.8205,-6.3771e-13,-0.6752,0,0,0.14286,-0,-0,0.66667
0.88235,0.31956,6.1764,-0.27066,-3.7789,7.4498,4.458,-1.486,-1.7382,5.944,-7.7761e-09,-0.86908,0,0,0.14286,-0,-0,0.66667
0.30753,0.56002,2.1527,0.090036,5.2742,175.55,-0.51686,0.17229,-1.971,-0.68914,8.9774e-12,-0.98551,0,0,0.14286,-1.6918e-16,0,0.66667
0.65742,0.57882,4.602,0.11823,4.3185,50.969,-1.4509,0.48362,-1.9513,-1.9345,-1.7338e-12,-0.97564,0,0,0.14286,-0,-0,0.66667
0.33893,0.81709,2.3725,0.47563,27.339,162.61,-3.0092,1.0031,-1.1952,-4.0123,3.0616e-12,-0.59759,0,0,0.14286,-0,-0,0.66667
0.016138,0.50406,0.11297,0.0060839,0.39382,307.27,-0.0018322,0.00060465,-2.0024,-0.002446,-9.1482e-06,-1.0012,0,0,0.14286,8.4588e-17,0,0.66667
0.62443,0.33254,4.371,-0.25119,-9.8819,60.28,2.9278,-0.97594,-1.7773,3.9038,1.015e-12,-0.88866,0,0,0.14286,6.7671e-16,0,0.66667
0.23807,0.99076,1.6665,0.73614,45.353,206.03,-3.2714,1.0905,-0.07275,-4.3618,6.2401e-12,-0.036375,0,0,0.14286,-1.6918e-16,0,0.66667
0.19454,0.27031,1.3618,-0.34453,-21.499,225.1,1.2511,-0.41704,-1.5762,1.6682,4.6413e-10,-0.78812,0,0,0.14286,-0,-0,0.66667
0.80885,0.463,5.662,-0.0555,-1.2215,17.548,0.83797,-0.27932,-1.989,1.1173,-1.7141e-10,-0.99448,0,0,0.14286,1.3534e-15,0,0.66667
0.61735,0.18407,4.3215,-0.47389,-18.995,62.648,5.4611,-1.8204,-1.2007,7.2815,6.2883e-13,-0.60033,0,0,0.14286,-6.7671e-16,0,0.66667
0.79544,0.85,5.5681,0.525,12.441,20.543,-7.7953,2.5984,-1.0214,-10.394,2.2698e-10,-0.51069,0,0,0.14286,-0,-0,0.66667
0.26534,0.7397,1.8574,0.35954,21.675,193.78,-1.7809,0.59362,-1.5424,-2.3745,9.1552e-12,-0.77119,0,0,0.14286,-0,-0,0.66667
0.047177,0.7115,0.33024,0.31725,20.529,292.79,-0.27938,0.093127,-1.6444,-0.37251,5.9749e-08,-0.82221,0,0,0.14286,-4.2294e-17,0,0.66667
0.85345,0.52958,5.9742,0.044363,0.76147,10.8,-0.70675,0.23558,-1.9927,-0.94234,1.7111e-09,-0.99635,0,0,0.14286,-0,-0,0.66667
0.76433,0.44983,5.3503,-0.07525,-2.0008,25.756,1.0736,-0.35787,-1.9808,1.4315,-2.7106e-11,-0.99041,0,0,0.14286,-0,-0,0.66667
0.0045005,0.36677,0.031504,-0.19984,-12.948,312.7,0.016788,-0.0055961,-1.8572,0.022385,3.1494e-09,-0.9286,0,0,0.14286,-0,-0,0.66667
0.69985,0.38001,4.8989,-0.17998,-5.9005,40.126,2.3512,-0.78374,-1.8851,3.135,4.6065e-12,-0.94253,0,0,0.14286,2.7068e-15,0,0.66667
0.24166,0.68772,1.6916,0.28158,17.181,204.1,-1.2702,0.42341,-1.7179,-1.6936,-2.5049e-11,-0.85893,0,0,0.14286,-6.7671e-16,0,0.66667
0.35967,0.78951,2.5177,0.43426,24.533,154.05,-2.9156,0.97187,-1.3316,-3.8875,1.9851e-12,-0.66582,0,0,0.14286,6.7671e-16,0,0.66667
0.78074,0.57833,5.4652,0.1175,2.9303,22.587,-1.7124,0.57079,-1.9525,-2.2832,9.6093e-11,-0.97625,0,0,0.14286,-0,-0,0.66667
0.98652,0.59454,6.9056,0.14181,0.16839,0.27818,-2.6114,0.87048,-1.9302,-3.4819,-1.9205e-07,-0.96512,0,0,0.14286,-0,-0,0.66667
0.24556,0.09409,1.7189,-0.60886,-37.259,202.61,2.7909,-0.93031,-0.68238,3.7213,-3.1684e-11,-0.34119,0,0,0.14286,-0,-0,0.66667
0.4675,0.46054,3.2725,-0.059187,-2.9875,111.95,0.51651,-0.17217,-1.9888,0.68868,4.0157e-13,-0.99442,0,0,0.14286,-6.7671e-16,0,0.66667
0.40034,0.24305,2.8023,-0.38542,-20.98,137.71,2.8802,-0.96007,-1.4707,3.8403,2.0519e-12,-0.73534,0,0,0.14286,-3.3835e-16,0,0.66667
0.55826,0.97012,3.9078,0.70518,31.666,81.345,-7.3486,2.4495,-0.23225,-9.7981,-4.9294e-14,-0.11613,0,0,0.14286,-0,1.8304e-16,0.66667
0.52926,0.33967,3.7049,-0.2405,-11.185,90.203,2.376,-0.79201,-1.7956,3.168,5.6644e-13,-0.8978,0,0,0.14286,-3.3835e-16,0,0.66667
0.65803,0.67544,4.6062,0.26316,9.614,50.919,-3.2325,1.0775,-1.7543,-4.31,-2.7809e-12,-0.87717,0,0,0.14286,-0,-0,0.66667
0.49673,0.93022,3.4771,0.64534,31.661,102.04,-5.9837,1.9946,-0.5192,-7.9783,1.8741e-13,-0.2596,0,0,0.14286,-3.3835e-16,0,0.66667
0.68538,0.31345,4.7977,-0.27982,-9.5533,43.808,3.58,-1.1933,-1.7233,4.7733,6.6267e-12,-0.86167,0,0,0.14286,-0,-0,0.66667
0.31286,0.26721,2.19,-0.34919,-20.421,173.41,2.0393,-0.67976,-1.5682,2.719,-4.2313e-12,-0.7841,0,0,0.14286,-0,-0,0.66667
0.21438,0.67299,1.5006,0.25948,16.041,216.18,-1.0384,0.34612,-1.7595,-1.3845,-1.8881e-10,-0.87974,0,0,0.14286,3.3835e-16,0,0.66667
0.90718,0.53264,6.3502,0.048955,0.53777,4.7457,-0.829,0.27633,-1.9941,-1.1053,5.6489e-08,-0.99705,0,0,0.14286,-2.7068e-15,0,0.66667
0.5576,0.59978,3.9032,0.14967,6.6543,80.734,-1.5578,0.51928,-1.9197,-2.0771,-6.1229e-13,-0.95983,0,0,0.14286,-0,-0,0.66667
0.029017,0.013314,0.20312,-0.73003,-47.633,301.3,0.39543,-0.13181,-0.10524,0.52723,-5.1778e-06,-0.052622,0,0,0.14286,8.4588e-17,0,0.66667
0.12197,0.56446,0.85376,0.096696,6.1681,258.1,-0.22015,0.073383,-1.9677,-0.29353,6.6484e-09,-0.98383,0,0,0.14286,-0,-0,0.66667
0.6814,0.32724,4.7698,-0.25913,-8.9363,44.794,3.296,-1.0987,-1.7595,4.3947,5.4217e-12,-0.87977,0,0,0.14286,-0,-0,0.66667
0.80871,0.53475,5.661,0.052121,1.1479,17.571,-0.78681,0.26227,-1.9905,-1.0491,1.6254e-10,-0.99526,0,0,0.14286,-2.7068e-15,0,0.66667
0.82348,0.99343,5.7644,0.74015,15.554,16.566,-11.377,3.7924,-0.051539,-15.17,2.2531e-10,-0.025769,0,0,0.14286,1.3534e-15,0,0.66667
0.4331,0.96494,3.0317,0.69741,36.962,125.48,-5.6382,1.8794,-0.2705,-7.5175,-5.2491e-13,-0.13525,0,0,0.14286,4.6658e-16,0,0.66667
0.58043,0.8931,4.063,0.58965,25.414,74.037,-6.3887,2.1296,-0.76389,-8.5183,7.2964e-13,-0.38194,0,0,0.14286,-6.7671e-16,0,0.66667
0.80756,0.54538,5.653,0.068067,1.5075,17.769,-1.0261,0.34203,-1.9822,-1.3681,1.7506e-10,-0.99109,0,0,0.14286,-1.3534e-15,0,0.66667
0.95758,0.17055,6.7031,-0.49418,-2.5177,1.9593,8.8334,-2.9445,-1.1305,11.778,-1.4048e-07,-0.56527,0,0,0.14286,1.3534e-15,0,0.66667
0.87975,0.007039,6.1583,-0.73944,-10.908,9.0369,12.143,-4.0477,-0.055146,16.191,4.4765e-09,-0.027573,0,0,0.14286,-0,-0,0.66667
0.38851,0.84028,2.7196,0.51042,28.154,142.53,-3.7017,1.2339,-1.0749,-4.9355,-7.7893e-13,-0.53747,0,0,0.14286,3.3835e-16,0,0.66667
0.96148,0.032333,6.7304,-0.7015,-3.4113,2.5237,12.59,-4.1968,-0.2499,16.787,-1.2601e-05,-0.12495,0,0,0.14286,-0,-0,0.66667
0.13705,0.30939,0.95934,-0.28591,-18.186,251.2,0.73142,-0.24381,-1.7097,0.97523,5.0444e-09,-0.85486,0,0,0.14286,-2.1147e-16,0,0.66667
0.90874,0.8535,6.3612,0.53024,5.8798,5.393,-8.9946,2.9982,-1.0005,-11.993,9.6179e-09,-0.50026,0,0,0.14286,-0,-0,0.66667
0.52131,0.26241,3.6492,-0.35639,-16.795,93.026,3.4681,-1.156,-1.5469,4.6241,-1.1324e-13,-0.77343,0,0,0.14286,-0,-0,0.66667
0.71489,0.51258,5.0042,0.018864,0.59159,36.471,-0.25173,0.083911,-1.9979,-0.33565,-2.1688e-13,-0.99896,0,0,0.14286,-0,-0,0.66667
0.78467,0.85618,5.4927,0.53426,13.26,22.515,-7.8255,2.6085,-0.98454,-10.434,6.1687e-11,-0.49227,0,0,0.14286,-0,-0,0.66667
0.33468,0.95295,2.3428,0.67943,39.346,164.62,-4.2447,1.4149,-0.35686,-5.6595,1.2506e-12,-0.17843,0,0,0.14286,-6.7671e-16,0,0.66667
0.87769,0.17375,6.1438,-0.48937,-7.1791,8.43,8.0176,-2.6725,-1.1483,10.69,-4.483e-09,-0.57417,0,0,0.14286,-0,-0,0.66667
0.25801,0.39871,1.8061,-0.15194,-9.1811,196.89,0.73179,-0.24393,-1.9165,0.97571,4.3152e-12,-0.95824,0,0,0.14286,1.5277e-16,0,0.66667
0.083575,0.99267,0.58502,0.73901,47.932,275.99,-1.1529,0.3843,-0.057152,-1.5372,-1.6054e-08,-0.028576,0,0,0.14286,-0,-0,0.66667
0.75937,0.67058,5.3156,0.25587,6.9452,26.898,-3.6269,1.209,-1.7655,-4.8359,3.5854e-11,-0.88275,0,0,0.14286,1.3534e-15,0,0.66667
0.89508,0.6414,6.2656,0.2121,2.6413,6.0238,-3.5438,1.1813,-1.8389,-4.725,9.1652e-09,-0.91945,0,0,0.14286,1.3534e-15,0,0.66667
0.92645,0.20862,6.4851,-0.43707,-3.8777,3.6934,7.5585,-2.5195,-1.3198,10.078,-4.6154e-08,-0.65989,0,0,0.14286,-0,-0,0.66667
0.37407,0.017349,2.6185,-0.72398,-40.652,148.61,5.0553,-1.6851,-0.13761,6.7404,6.5814e-13,-0.068803,0,0,0.14286,-0,-1.6712e-16,0.66667
0.34146,0.90198,2.3902,0.60297,34.676,161.71,-3.8433,1.2811,-0.70831,-5.1244,4.3388e-13,-0.35416,0,0,0.14286,-1.6918e-16,8.3039e-17,0.66667
0.25569,0.40847,1.7898,-0.13729,-8.3057,197.9,0.65525,-0.21842,-1.9326,0.87367,7.51e-12,-0.96632,0,0,0.14286,-0,-0,0.66667
0.47079,0.10481,3.2955,-0.59278,-30.015,111.25,5.2094,-1.7365,-0.75105,6.9459,3.7748e-13,-0.37552,0,0,0.14286,-0,-0,0.66667
0.96717,0.76345,6.7702,0.39517,1.5007,1.2828,-7.1344,2.3781,-1.4454,-9.5126,-1.7376e-07,-0.72272,0,0,0.14286,-0,-0,0.66667
0.49887,0.13493,3.4921,-0.5476,-26.724,101.1,5.0994,-1.6998,-0.93505,6.7991,2.5313e-13,-0.46752,0,0,0.14286,1.3534e-15,0,0.66667
0.23907,0.0486,1.6735,-0.6771,-41.636,205.52,3.0217,-1.0072,-0.36866,4.0289,1.033e-11,-0.18433,0,0,0.14286,-0,-0,0.66667
0.20791,0.67548,1.4554,0.26322,16.319,219.07,-1.0216,0.34052,-1.7524,-1.3621,-2.6409e-10,-0.87622,0,0,0.14286,3.3835e-16,0,0.66667
0.92671,0.2321,6.487,-0.40186,-3.5403,3.5889,6.9515,-2.3172,-1.4245,9.2687,-3.8111e-08,-0.71227,0,0,0.14286,-1.3534e-15,0,0.66667
0.68793,0.44692,4.8155,-0.079618,-2.6941,43.013,1.0224,-0.3408,-1.9794,1.3632,2.9211e-12,-0.98969,0,0,0.14286,-0,-0,0.66667
0.70478,0.51191,4.9335,0.017863,0.57694,38.864,-0.23501,0.078336,-1.9995,-0.31334,-2.174e-13,-0.99977,0,0,0.14286,-0,-0,0.66667
0.5889,0.30196,4.1223,-0.29706,-12.531,70.939,3.2655,-1.0885,-1.6851,4.3539,3.9901e-13,-0.84255,0,0,0.14286,-0,-0,0.66667
0.61873,0.89418,4.3311,0.59128,23.711,62.487,-6.829,2.2763,-0.75529,-9.1053,-2.0961e-13,-0.37765,0,0,0.14286,-0,-0,0.66667
0.045998,0.26669,0.32198,-0.34996,-22.656,293.35,0.30048,-0.10016,-1.5658,0.40064,-6.44e-08,-0.7829,0,0,0.14286,-8.4588e-17,0,0.66667
0.35616,0.15751,2.4931,-0.51374,-29.147,155.57,3.4155,-1.1385,-1.0625,4.554,1.5266e-12,-0.53126,0,0,0.14286,1.3534e-15,0,0.66667
0.079759,0.31915,0.55831,-0.27128,-17.473,277.63,0.40389,-0.13463,-1.7395,0.53851,8.5211e-09,-0.86975,0,0,0.14286,-0,-0,0.66667
0.32577,0.26516,2.2804,-0.35227,-20.412,167.99,2.1422,-0.71405,-1.5588,2.8562,-2.1123e-12,-0.77942,0,0,0.14286,-6.7671e-16,0,0.66667
0.71057,0.86564,4.974,0.54846,17.592,38.15,-7.2747,2.4249,-0.92884,-9.6997,-6.3216e-12,-0.46442,0,0,0.14286,-6.7671e-16,0,0.66667
0.072478,0.94864,0.50734,0.67296,43.659,281.1,-0.91046,0.30349,-0.38831,-1.2139,-5.4501e-07,-0.19416,0,0,0.14286,-0,-0,0.66667
0.89901,0.46539,6.2931,-0.051917,-0.62037,5.5165,0.87124,-0.29041,-1.9896,1.1617,2.0257e-08,-0.9948,0,0,0.14286,-6.7671e-16,0,0.66667
0.35431,0.52119,2.4802,0.031781,1.7972,156.04,-0.21019,0.070064,-1.9952,-0.28025,2.7354e-12,-0.99761,0,0,0.14286,-0,-0,0.66667
0.089774,0.16373,0.62842,-0.5044,-32.528,273.04,0.84527,-0.28176,-1.0949,1.127,-4.7221e-09,-0.54746,0,0,0.14286,-0,-0,0.66667
0.10048,0.3792,0.70334,-0.1812,-11.619,268.02,0.33986,-0.11329,-1.8823,0.45314,8.6377e-09,-0.94117,0,0,0.14286,-0,-0,0.66667
0.14697,0.39758,1.0288,-0.15364,-9.7349,246.63,0.4215,-0.1405,-1.9147,0.562,2.9015e-09,-0.95733,0,0,0.14286,1.6918e-16,0,0.66667
0.70481,0.67651,4.9336,0.26476,8.5699,39.012,-3.4833,1.1611,-1.7515,-4.6444,-7.9554e-12,-0.87573,0,0,0.14286,-6.7671e-16,0,0.66667
0.94314,0.62989,6.602,0.19483,1.3004,2.1258,-3.4301,1.1434,-1.8642,-4.5735,-4.7739e-08,-0.93212,0,0,0.14286,-0,-0,0.66667
0.76054,0.50738,5.3238,0.011072,0.29849,26.506,-0.15719,0.052395,-1.9986,-0.20958,1.9036e-13,-0.99931,0,0,0.14286,-0,-0,0.66667
0.39221,0.48698,2.7455,-0.019537,-1.0687,140.74,0.14303,-0.047678,-1.9993,0.19071,7.454e-13,-0.99966,0,0,0.14286,6.7671e-16,0,0.66667
0.76781,0.75678,5.3747,0.38517,10.163,25.404,-5.5204,1.8401,-1.4732,-7.3605,4.3164e-11,-0.73662,0,0,0.14286,-0,-0,0.66667
0.83593,0.072058,5.8515,-0.64191,-12.533,14.336,10.016,-3.3388,-0.53328,13.355,1.9673e-09,-0.26664,0,0,0.14286,2.7068e-15,0,0.66667
0.061478,0.8206,0.43034,0.4809,31.135,286.16,-0.55187,0.18396,-1.1792,-0.73583,-6.0346e-08,-0.58962,0,0,0.14286,-0,-0,0.66667
0.31055,0.99724,2.1738,0.74587,44.026,174.81,-4.3237,1.4412,-0.023487,-5.7649,-3.6366e-12,-0.011743,0,0,0.14286,-1.0151e-15,0,0.66667
0.74228,0.9939,5.196,0.74086,21.723,31.59,-10.265,3.4217,-0.047213,-13.687,-1.0887e-11,-0.023606,0,0,0.14286,-0,-0,0.66667
0.26043,0.072377,1.823,-0.64143,-38.964,196.15,3.1182,-1.0394,-0.53589,4.1576,7.033e-12,-0.26794,0,0,0.14286,-0,-0,0.66667
0.91053,0.052706,6.3737,-0.67094,-7.4148,5.7142,11.404,-3.8012,-0.39858,15.205,-4.0952e-08,-0.19929,0,0,0.14286,-1.3534e-15,0,0.66667
0.24225,0.72889,1.6957,0.34334,20.957,203.87,-1.5526,0.51752,-1.5792,-2.0701,-2.351e-11,-0.78959,0,0,0.14286,-0,-0,0.66667
0.78725,0.76106,5.5107,0.39159,9.562,21.718,-5.7546,1.9182,-1.4532,-7.6728,1.6048e-10,-0.72662,0,0,0.14286,-1.3534e-15,0,0.66667
0.39894,0.64504,2.7926,0.21756,11.835,138.14,-1.6201,0.54005,-1.83,-2.1602,6.3727e-13,-0.91498,0,0,0.14286,6.7671e-16,0,0.66667
0.88796,0.10982,6.2157,-0.58527,-7.9548,7.5839,9.701,-3.2337,-0.7819,12.935,8.9935e-10,-0.39095,0,0,0.14286,-0,-0,0.66667
0.28813,0.41267,2.0169,-0.131,-7.7739,183.84,0.70455,-0.23485,-1.9377,0.9394,-2.3009e-12,-0.96887,0,0,0.14286,-0,-0,0.66667
0.57639,0.28541,4.0348,-0.32189,-13.89,74.864,3.4633,-1.1544,-1.633,4.6178,-3.9058e-13,-0.81652,0,0,0.14286,1.3534e-15,0,0.66667
0.015374,0.97498,0.10762,0.71246,46.496,307.65,-0.20446,0.068141,-0.19762,-0.27262,-1.9507e-05,-0.098809,0,0,0.14286,-0,-0,0.66667
0.80519,0.4797,5.6363,-0.030446,-0.68179,18.164,0.4576,-0.15253,-1.995,0.61014,-7.4416e-11,-0.99749,0,0,0.14286,-0,-0,0.66667
0.033564,0.84901,0.23495,0.52351,34.008,299.16,-0.328,0.10933,-1.0264,-0.43733,2.571e-07,-0.51318,0,0,0.14286,-0,-0,0.66667
0.64091,0.62328,4.4864,0.18493,7.0177,55.542,-2.2124,0.73746,-1.8816,-2.9499,-5.6222e-13,-0.94078,0,0,0.14286,-1.6072e-15,0,0.66667
0.56365,0.89242,3.9455,0.58864,26.108,79.347,-6.1933,2.0644,-0.76905,-8.2577,-7.3719e-13,-0.38453,0,0,0.14286,6.7671e-16,0,0.66667
0.92841,0.097254,6.4989,-0.60412,-5.325,4.0519,10.47,-3.4899,-0.7016,13.959,-3.2056e-07,-0.3508,0,0,0.14286,-0,-0,0.66667
0.91911,0.48623,6.4338,-0.020661,-0.1975,3.7148,0.35448,-0.11816,-1.9983,0.47264,-1.2713e-08,-0.99914,0,0,0.14286,-1.0884e-15,0,0.66667
0.24888,0.1898,1.7422,-0.4653,-28.349,201.03,2.1617,-0.72055,-1.2325,2.8822,2.3118e-11,-0.61624,0,0,0.14286,-0,-0,0.66667
0.26552,0.39479,1.8586,-0.15782,-9.4961,193.62,0.78221,-0.26074,-1.9135,1.0429,1.4164e-12,-0.95677,0,0,0.14286,-0,-0,0.66667
0.65743,0.069376,4.602,-0.64594,-23.864,51.793,7.9269,-2.6423,-0.51802,10.569,2.0695e-13,-0.25901,0,0,0.14286,-0,-0,0.66667
0.28227,0.29315,1.9759,-0.31028,-18.507,186.43,1.6349,-0.54496,-1.6589,2.1798,-5.4814e-12,-0.82945,0,0,0.14286,-0,-0,0.66667
0.17582,0.39995,1.2308,-0.15008,-9.4181,233.49,0.49257,-0.16419,-1.9196,0.65676,8.4499e-10,-0.9598,0,0,0.14286,1.6918e-16,0,0.66667
0.17263,0.92572,1.2084,0.63858,40.375,235.15,-2.0578,0.68592,-0.55157,-2.7437,1.5581e-11,-0.27578,0,0,0.14286,-0,-0,0.66667
0.027872,0.40841,0.1951,-0.13738,-8.891,301.79,0.071475,-0.023825,-1.9336,0.0953,1.227e-07,-0.96678,0,0,0.14286,-8.4588e-17,0,0.66667
0.46709,0.0049423,3.2696,-0.74259,-37.922,112.9,6.4746,-2.1582,-0.040714,8.6328,3.1912e-12,-0.020357,0,0,0.14286,-2.7068e-15,0,0.66667
0.48856,0.11444,3.4199,-0.57834,-28.629,104.81,5.2743,-1.7581,-0.8099,7.0324,1.636e-12,-0.40495,0,0,0.14286,-0,-0,0.66667
0.42371,0.52207,2.966,0.033105,1.7553,128.42,-0.26184,0.087279,-1.9968,-0.34912,2.5033e-13,-0.99841,0,0,0.14286,-6.7671e-16,0,0.66667
0.98837,0.83094,6.9186,0.49641,0.58751,0.93474,-9.1586,3.0529,-1.1229,-12.211,2.4098e-07,-0.56146,0,0,0.14286,-0,-0,0.66667
0.64354,0.43627,4.5047,-0.095602,-3.6044,54.76,1.1484,-0.38281,-1.9686,1.5313,1.1768e-12,-0.98431,0,0,0.14286,-8.4588e-17,0,0.66667
0.56225,0.96832,3.9358,0.70247,31.336,80.052,-7.3727,2.4576,-0.2489,-9.8303,7.3852e-13,-0.12445,0,0,0.14286,-8.6703e-16,-9.2666e-18,0.66667
0.086457,0.071829,0.6052,-0.64226,-41.547,274.62,1.0365,-0.3455,-0.53175,1.382,2.6781e-07,-0.26588,0,0,0.14286,-0,-0,0.66667
0.45235,0.17326,3.1665,-0.49011,-25.304,117.89,4.1384,-1.3795,-1.1473,5.5179,6.1195e-13,-0.57365,0,0,0.14286,-0,-3.5113e-17,0.66667
0.069724,0.16381,0.48807,-0.50429,-32.625,282.33,0.65633,-0.21878,-1.0944,0.87511,1.0687e-07,-0.54719,0,0,0.14286,-0,-0,0.66667
0.48716,0.80888,3.4101,0.46332,22.919,105.13,-4.2132,1.4044,-1.2375,-5.6176,5.7021e-13,-0.61876,0,0,0.14286,-1.0151e-15,0,0.66667
0.01559,0.68949,0.10913,0.28424,18.424,307.53,-0.08272,0.027573,-1.7161,-0.11029,-2.3944e-08,-0.85804,0,0,0.14286,4.2294e-17,0,0.66667
0.14153,0.99532,0.99069,0.74299,47.561,249.35,-1.9628,0.65428,-0.039287,-2.6171,-4.157e-09,-0.019644,0,0,0.14286,8.4588e-17,0,0.66667
0.61893,0.79952,4.3325,0.44927,17.94,62.143,-5.1906,1.7302,-1.2807,-6.9208,-2.6734e-13,-0.64034,0,0,0.14286,-0,-0,0.66667
0.67615,0.453,4.7331,-0.070506,-2.4597,46.008,0.88989,-0.29663,-1.9812,1.1865,2.5515e-12,-0.99062,0,0,0.14286,-1.3534e-15,0,0.66667
0.60372,0.039058,4.2261,-0.69141,-28.647,67.158,7.7919,-2.5973,-0.29909,10.389,9.1749e-13,-0.14955,0,0,0.14286,-0,-0,0.66667
0.25097,0.0015909,1.7568,-0.74761,-45.765,200.38,3.5025,-1.1675,-0.015242,4.67,1.6973e-11,-0.0076209,0,0,0.14286,-0,-0,0.66667
0.066186,0.65806,0.4633,0.23709,15.298,283.94,-0.29292,0.09764,-1.8007,-0.39056,1.1149e-08,-0.90034,0,0,0.14286,-0,-0,0.66667
0.67727,0.69347,4.7409,0.29021,10.119,45.886,-3.669,1.223,-1.6997,-4.892,-5.0586e-12,-0.84984,0,0,0.14286,-0,-0,0.66667
0.76834,0.83041,5.3784,0.49562,13.102,25.533,-7.1083,2.3694,-1.1265,-9.4778,4.9817e-11,-0.56323,0,0,0.14286,1.3534e-15,0,0.66667
0.11928,0.61932,0.83493,0.17898,11.428,259.34,-0.39848,0.13283,-1.8852,-0.53131,-3.5654e-09,-0.94259,0,0,0.14286,8.4588e-17,0,0.66667
0.73956,0.43683,5.1769,-0.094753,-2.7502,30.93,1.3081,-0.43602,-1.9682,1.7441,-5.7446e-12,-0.9841,0,0,0.14286,-1.5101e-15,0,0.66667
0.77319,0.22674,5.4123,-0.40989,-10.603,24.401,5.9159,-1.972,-1.4011,7.8879,-8.3947e-11,-0.70057,0,0,0.14286,-0,-0,0.66667
0.10997,0.99691,0.76981,0.74537,48.103,263.81,-1.5301,0.51004,-0.027216,-2.0401,-1.6181e-08,-0.013608,0,0,0.14286,-2.9606e-16,0,0.66667
0.48647,0.34491,3.4053,-0.23263,-11.479,105.13,2.1125,-0.70416,-1.8093,2.8167,5.1381e-13,-0.90464,0,0,0.14286,-0,-0,0.66667
0.005725,0.5176,0.040075,0.026396,1.7091,312.13,-0.0028211,0.00094345,-1.9959,-0.0037599,4.6384e-06,-0.99797,0,0,0.14286,-2.1147e-17,0,0.66667
0.62591,0.6763,4.3814,0.26446,10.374,59.865,-3.0898,1.0299,-1.7527,-4.1198,-6.295e-13,-0.87634,0,0,0.14286,-6.7671e-16,0,0.66667
0.85898,0.92844,6.0129,0.64266,10.907,11.169,-10.305,3.4349,-0.53353,-13.739,-9.8291e-09,-0.26677,0,0,0.14286,-0,1.3934e-16,0.66667
0.86017,0.92623,6.0212,0.63934,10.763,11.005,-10.266,3.4219,-0.54808,-13.688,-1.1195e-08,-0.27404,0,0,0.14286,-0,-0,0.66667
0.93728,0.49991,6.5609,-0.00014202,-0.0010444,2.3836,0.0024847,-0.0008278,-2.0036,0.0033132,6.5025e-07,-1.0018,0,0,0.14286,-7.19e-16,0,0.66667
0.78384,0.16209,5.4869,-0.50686,-12.608,22.6,7.4163,-2.4721,-1.0871,9.8884,6.3375e-11,-0.54355,0,0,0.14286,-0,-0,0.66667
0.43204,0.63106,3.0243,0.19659,10.34,125.28,-1.5854,0.52847,-1.8617,-2.1139,1.0003e-13,-0.93085,0,0,0.14286,-0,-0,0.66667
0.77402,0.82197,5.4181,0.48296,12.485,24.398,-6.978,2.326,-1.169,-9.304,4.1143e-11,-0.58452,0,0,0.14286,-0,-0,0.66667
0.98356,0.79208,6.8849,0.43813,0.76532,0.87346,-8.0439,2.6813,-1.3189,-10.725,-1.4526e-07,-0.65947,0,0,0.14286,-0,-0,0.66667
0.36725,0.30389,2.5708,-0.29416,-16.481,150.86,2.0166,-0.6722,-1.6908,2.6888,5.3069e-14,-0.84539,0,0,0.14286,3.3835e-16,0,0.66667
0.035895,0.38261,0.25126,-0.17608,-11.392,298.04,0.11798,-0.039327,-1.889,0.15731,-4.1703e-08,-0.94448,0,0,0.14286,8.4588e-17,0,0.66667
0.50774,0.93897,3.5542,0.65846,31.841,98.203,-6.2407,2.0802,-0.45794,-8.321,5.9242e-13,-0.22897,0,0,0.14286,-1.3534e-15,0,0.66667
0.3525,0.28517,2.4675,-0.32224,-18.284,156.89,2.1203,-0.70677,-1.6299,2.8271,-5.9419e-13,-0.81496,0,0,0.14286,-0,-0,0.66667
0.17606,0.8255,1.2324,0.48825,30.746,233.5,-1.6046,0.53488,-1.1514,-2.1395,-5.4884e-10,-0.5757,0,0,0.14286,3.3835e-16,0,0.66667
0.9343,0.093621,6.5401,-0.60957,-4.9403,3.6623,10.631,-3.5437,-0.68002,14.175,-1.0457e-07,-0.34001,0,0,0.14286,6.6227e-16,-1.7057e-16,0.66667
0.11962,0.29154,0.83733,-0.31269,-19.986,259.21,0.69821,-0.23274,-1.651,0.93094,8.0333e-09,-0.82552,0,0,0.14286,-0,-0,0.66667
0.65426,0.067241,4.5798,-0.64914,-24.161,52.654,7.9278,-2.6426,-0.5029,10.57,3.9879e-13,-0.25145,0,0,0.14286,-0,-0,0.66667
0.16873,0.39863,1.1811,-0.15206,-9.5667,236.71,0.47893,-0.15964,-1.9178,0.63858,6.5574e-10,-0.95888,0,0,0.14286,-0,-0,0.66667
0.79644,0.5388,5.5751,0.058205,1.3568,19.692,-0.86532,0.28844,-1.9901,-1.1538,6.9094e-11,-0.99503,0,0,0.14286,-0,-0,0.66667
0.25811,0.11011,1.8067,-0.58483,-35.53,197.1,2.8177,-0.93923,-0.78203,3.7569,-8.1304e-12,-0.39101,0,0,0.14286,3.3835e-16,0,0.66667
0.69801,0.40249,4.886,-0.14627,-4.8181,40.551,1.9058,-0.63526,-1.9235,2.541,4.9564e-12,-0.96175,0,0,0.14286,-6.7671e-16,0,0.66667
0.62789,0.78602,4.3953,0.42902,16.81,59.519,-5.0284,1.6761,-1.3461,-6.7046,-5.1736e-13,-0.67303,0,0,0.14286,-0,-0,0.66667
0.7158,0.76846,5.0106,0.40269,12.662,36.619,-5.3806,1.7935,-1.4231,-7.1742,-9.3157e-12,-0.71156,0,0,0.14286,1.3534e-15,0,0.66667
0.25083,0.34714,1.7558,-0.22928,-13.916,200.05,1.0735,-0.35785,-1.8154,1.4314,1.7418e-11,-0.90771,0,0,0.14286,-0,-0,0.66667
0.50402,0.10931,3.5282,-0.58603,-28.428,99.358,5.5137,-1.8379,-0.77793,7.3516,1.1942e-12,-0.38897,0,0,0.14286,-6.7671e-16,0,0.66667
0.34213,0.071777,2.3949,-0.64233,-36.954,161.49,4.1023,-1.3674,-0.53389,5.4697,4.5923e-12,-0.26695,0,0,0.14286,-0,1.4125e-16,0.66667
0.1803,0.45204,1.2621,-0.071934,-4.5053,231.46,0.2421,-0.0807,-1.9797,0.3228,3.5395e-10,-0.98987,0,0,0.14286,-0,-0,0.66667
0.47551,0.66229,3.3285,0.24344,12.182,109.1,-2.1608,0.72027,-1.7881,-2.8811,1.8985e-13,-0.89405,0,0,0.14286,-0,-0,0.66667
0.91212,0.0070378,6.3849,-0.73944,-8.1056,5.8512,12.59,-4.1967,-0.054769,16.787,-4.1229e-09,-0.027385,0,0,0.14286,-0,-0,0.66667
0.56794,0.72272,3.9756,0.33408,14.63,77.559,-3.5418,1.1806,-1.6026,-4.7224,-2.7067e-13,-0.80129,0,0,0.14286,-0,-0,0.66667
0.63089,0.86916,4.4162,0.55374,21.631,58.904,-6.5211,2.1737,-0.90879,-8.6948,-6.6169e-14,-0.4544,0,0,0.14286,-6.7671e-16,0,0.66667
0.54925,0.27158,3.8447,-0.34263,-15.474,83.628,3.5129,-1.171,-1.5829,4.6839,-5.9508e-14,-0.79144,0,0,0.14286,-0,-0,0.66667
0.04503,0.67377,0.31521,0.26065,16.861,293.79,-0.21909,0.073031,-1.7589,-0.29213,5.5465e-08,-0.87944,0,0,0.14286,8.4588e-17,0,0.66667
0.86867,0.98423,6.0807,0.72634,11.62,10.271,-11.778,3.9259,-0.12243,-15.704,1.5527e-09,-0.061215,0,0,0.14286,2.0574e-15,0,0.66667
0.12479,0.15424,0.87355,-0.51864,-33.199,256.9,1.2082,-0.40272,-1.0468,1.6109,-1.2078e-09,-0.52339,0,0,0.14286,1.9032e-16,1.8882e-16,0.66667
0.73641,0.81132,5.1549,0.46697,13.797,32.097,-6.4192,2.1397,-1.2264,-8.5589,-1.8538e-11,-0.6132,0,0,0.14286,-0,-0,0.66667
0.45176,0.65296,3.1623,0.22943,11.809,117.85,-1.9348,0.64493,-1.8147,-2.5797,2.0994e-13,-0.90736,0,0,0.14286,-1.6918e-16,0,0.66667
0.71027,0.3137,4.9719,-0.27946,-8.9066,37.727,3.7052,-1.2351,-1.7219,4.9402,9.1767e-12,-0.86096,0,0,0.14286,-2.7068e-15,0,0.66667
0.86113,0.44997,6.0279,-0.075042,-1.2238,9.8037,1.2062,-0.40208,-1.9805,1.6083,-2.252e-09,-0.99027,0,0,0.14286,1.3534e-15,0,0.66667
0.69657,0.46552,4.876,-0.051721,-1.7095,40.862,0.67251,-0.22417,-1.9898,0.89668,1.822e-12,-0.99488,0,0,0.14286,6.7671e-16,0,0.66667
0.8539,0.69472,5.9773,0.29208,5.024,10.962,-4.6556,1.5519,-1.6956,-6.2075,3.3817e-09,-0.84781,0,0,0.14286,-0,-0,0.66667
0.48707,0.91018,3.4095,0.61527,30.544,105.41,-5.594,1.8647,-0.65479,-7.4587,-1.168e-13,-0.32739,0,0,0.14286,-0,-0,0.66667
0.091798,0.17658,0.64258,-0.48514,-31.264,272.1,0.83131,-0.2771,-1.1637,1.1084,1.7236e-08,-0.58184,0,0,0.14286,-0,-0,0.66667
0.37859,0.86533,2.6501,0.54799,30.521,146.54,-3.8726,1.2909,-0.93181,-5.1635,6.7613e-13,-0.46591,0,0,0.14286,-3.3835e-16,0,0.66667
0.19142,0.84459,1.3399,0.51689,32.374,226.59,-1.8469,0.61564,-1.0507,-2.4625,-3.1254e-10,-0.52534,0,0,0.14286,-0,-0,0.66667
0.76352,0.74686,5.3446,0.3703,9.926,26.231,-5.2776,1.7592,-1.5138,-7.0367,3.5349e-11,-0.75689,0,0,0.14286,1.6918e-15,0,0.66667
0.69537,0.86598,4.8676,0.54896,18.374,41.803,-7.1257,2.3752,-0.9269,-9.5009,-3.9635e-12,-0.46345,0,0,0.14286,-6.7671e-16,0,0.66667
0.57953,0.73197,4.0567,0.34795,14.939,73.91,-3.7641,1.2547,-1.5703,-5.0189,-1.6276e-13,-0.78517,0,0,0.14286,-0,-0,0.66667
0.76884,0.2495,5.3819,-0.37575,-9.8736,25.184,5.3927,-1.7976,-1.4991,7.1903,-4.1364e-11,-0.74954,0,0,0.14286,1.9032e-15,0,0.66667
0.36936,0.33561,2.5855,-0.24659,-13.784,149.97,1.7002,-0.56672,-1.7826,2.2669,9.7511e-13,-0.8913,0,0,0.14286,-3.3835e-16,0,0.66667
0.36918,0.26958,2.5842,-0.34564,-19.345,150.12,2.3819,-0.79396,-1.5737,3.1758,2.5424e-13,-0.78685,0,0,0.14286,-0,-0,0.66667
0.70021,0.80624,4.9015,0.45936,15.13,40.428,-6.0041,2.0014,-1.25,-8.0054,-6.986e-12,-0.62502,0,0,0.14286,-1.0151e-15,0,0.66667
0.4523,0.48638,3.1661,-0.020432,-1.0499,117.57,0.17251,-0.057504,-1.9998,0.23001,-1.9251e-12,-0.99992,0,0,0.14286,6.7671e-16,0,0.66667
0.81192,0.41743,5.6834,-0.12386,-2.6875,17.068,1.8772,-0.62574,-1.9471,2.5029,-4.8444e-10,-0.97355,0,0,0.14286,1.3534e-15,0,0.66667
0.15461,0.13783,1.0823,-0.54326,-34.494,243.27,1.5679,-0.52263,-0.95131,2.0905,2.7564e-09,-0.47565,0,0,0.14286,-0,-5.878e-17,0.66667
0.58986,0.062843,4.129,-0.65574,-27.845,71.27,7.2201,-2.4067,-0.47189,9.6268,-2.3581e-13,-0.23595,0,0,0.14286,-0,-0,0.66667
0.37357,0.91616,2.615,0.62424,34.98,148.66,-4.353,1.451,-0.61548,-5.804,9.5923e-13,-0.30774,0,0,0.14286,-0,-1.4654e-16,0.66667
0.24708,0.90333,1.7296,0.605,36.99,201.94,-2.7903,0.93011,-0.69938,-3.7204,2.9443e-11,-0.34969,0,0,0.14286,-3.3835e-16,0,0.66667
0.25433,0.54885,1.7803,0.073281,4.4357,198.48,-0.3479,0.11597,-1.9798,-0.46387,-7.3483e-13,-0.98991,0,0,0.14286,-3.3835e-16,0,0.66667
0.74375,0.974,5.2062,0.711,20.715,31.177,-9.871,3.2903,-0.20162,-13.161,-2.7827e-12,-0.10081,0,0,0.14286,-0,-0,0.66667
0.32886,0.76158,2.3021,0.39237,22.696,166.72,-2.4087,0.80289,-1.4541,-3.2115,4.8941e-12,-0.72705,0,0,0.14286,-6.7671e-16,0,0.66667
0.22792,0.93173,1.5954,0.6476,40.016,210.41,-2.7552,0.91839,-0.50776,-3.6735,-2.1168e-11,-0.25388,0,0,0.14286,4.7331e-16,0,0.66667
0.90536,0.10871,6.3375,-0.58694,-6.7823,5.8762,9.9193,-3.3064,-0.77635,13.226,-1.6722e-08,-0.38817,0,0,0.14286,-0,-0,0.66667
0.41629,0.82019,2.9141,0.48029,25.775,131.59,-3.7322,1.2441,-1.1787,-4.9763,1.3718e-12,-0.58934,0,0,0.14286,-0,-0,0.66667
0.5344,0.68411,3.7408,0.27616,12.751,88.501,-2.7548,0.91828,-1.7294,-3.6731,5.0182e-14,-0.8647,0,0,0.14286,-1.6918e-16,0,0.66667
0.37206,0.68099,2.6044,0.27149,15.144,148.9,-1.8855,0.62851,-1.7382,-2.514,2.7254e-12,-0.86908,0,0,0.14286,-6.7671e-16,0,0.66667
0.23386,0.78922,1.637,0.43383,26.625,207.62,-1.8938,0.63126,-1.3328,-2.5251,-4.1966e-11,-0.66641,0,0,0.14286,-0,-0,0.66667
0.10234,0.046824,0.7164,-0.67976,-43.875,267.3,1.2986,-0.43288,-0.35519,1.7315,3.2981e-08,-0.1776,0,0,0.14286,-0,-0,0.66667
0.055182,0.11138,0.38627,-0.58293,-37.834,289.11,0.60045,-0.20015,-0.78996,0.8006,-1.371e-07,-0.39498,0,0,0.14286,8.4588e-17,0,0.66667
0.87287,0.84851,6.1101,0.52276,7.975,9.0808,-8.5177,2.8392,-1.0294,-11.357,2.4755e-09,-0.51469,0,0,0.14286,-2.7068e-15,0,0.66667
0.17297,0.49719,1.2108,-0.0042215,-0.26508,234.77,0.01363,-0.0045434,-2.0021,0.018174,6.0306e-10,-1.0011,0,0,0.14286,-1.6918e-16,0,0.66667
0.53895,0.14865,3.7727,-0.52702,-24.275,87.311,5.3021,-1.7674,-1.011,7.0694,5.671e-13,-0.50549,0,0,0.14286,-0,-0,0.66667
0.97872,0.76989,6.8511,0.40483,0.94612,0.91558,-7.3961,2.4654,-1.4158,-9.8614,-2.5509e-07,-0.70791,0,0,0.14286,1.3534e-15,0,0.66667
0.16733,0.61453,1.1713,0.1718,10.815,237.35,-0.53661,0.17887,-1.894,-0.71548,-1.283e-09,-0.94702,0,0,0.14286,-0,-0,0.66667
0.59576,0.51283,4.1703,0.019248,0.79997,68.671,-0.21405,0.071352,-1.999,-0.28541,3.3058e-13,-0.99952,0,0,0.14286,-0,-0,0.66667
0.75137,0.4879,5.2596,-0.018156,-0.50593,28.395,0.25464,-0.084881,-1.9997,0.33952,2.4757e-12,-0.99987,0,0,0.14286,-0,-0,0.66667
0.079887,0.045654,0.55921,-0.68152,-44.172,277.67,1.0163,-0.33877,-0.34906,1.3551,1.6791e-07,-0.17453,0,0,0.14286,-1.6918e-16,0,0.66667
0.45273,0.53329,3.1691,0.049934,2.5647,117.42,-0.42199,0.14066,-1.9941,-0.56265,8.1724e-13,-0.99706,0,0,0.14286,-0,-0,0.66667
0.79183,0.43959,5.5428,-0.090617,-2.1562,20.528,1.3394,-0.44646,-1.9707,1.7859,-1.1179e-10,-0.98534,0,0,0.14286,-0,-0,0.66667
0.72178,0.43784,5.0525,-0.093233,-2.8644,34.896,1.2561,-0.41872,-1.9703,1.6749,4.4008e-12,-0.98516,0,0,0.14286,-0,-0,0.66667
0.67856,0.73304,4.75,0.34957,12.163,45.635,-4.4278,1.4759,-1.5637,-5.9037,-5.6226e-12,-0.78186,0,0,0.14286,-0,-0,0.66667
0.76669,0.72132,5.3668,0.33197,8.7842,25.535,-4.7511,1.5837,-1.6104,-6.3348,5.65e-11,-0.80521,0,0,0.14286,-0,-0,0.66667
0.5821,0.8082,4.0747,0.4623,19.802,73.273,-5.0234,1.6745,-1.24,-6.6978,4.2544e-13,-0.62002,0,0,0.14286,3.3835e-16,0,0.66667
0.3749,0.9999,2.6243,0.74985,42.105,148.32,-5.2475,1.7492,-0.0044706,-6.9967,-9.1038e-14,-0.0022353,0,0,0.14286,2.2023e-16,2.1565e-18,0.66667
0.44709,0.66049,3.1297,0.24073,12.458,119.61,-2.0091,0.6697,-1.7932,-2.6788,-2.4825e-13,-0.89658,0,0,0.14286,-0,-0,0.66667
0.28043,0.33445,1.963,-0.24833,-14.819,187.19,1.2999,-0.4333,-1.7823,1.7332,-3.8608e-12,-0.89116,0,0,0.14286,-3.3835e-16,0,0.66667
0.33926,0.57442,2.3748,0.11163,6.3903,162.25,-0.70696,0.23565,-1.9546,-0.94261,3.9018e-12,-0.9773,0,0,0.14286,-0,-0,0.66667
0.88017,0.72153,6.1612,0.3323,4.7357,7.7958,-5.4596,1.8199,-1.6071,-7.2794,8.5352e-09,-0.80355,0,0,0.14286,2.7068e-15,0,0.66667
0.53635,0.94941,3.7544,0.67411,31.297,88.475,-6.7491,2.2497,-0.38293,-8.9988,2.9177e-13,-0.19147,0,0,0.14286,-0,-0,0.66667
0.073744,0.57596,0.51621,0.11395,7.3391,280.41,-0.15685,0.052285,-1.9527,-0.20914,-3.1198e-08,-0.97637,0,0,0.14286,-0,-0,0.66667
0.67227,0.53905,4.7059,0.058574,2.0633,47.012,-0.73504,0.24501,-1.9899,-0.98006,-1.1151e-12,-0.99496,0,0,0.14286,-0,-0,0.66667
0.72976,0.45935,5.1083,-0.060976,-1.8269,33.079,0.83063,-0.27688,-1.9858,1.1075,3.6188e-13,-0.99291,0,0,0.14286,6.7671e-16,0,0.66667
0.39561,0.54769,2.7693,0.071529,3.9005,139.4,-0.52822,0.17607,-1.9804,-0.70429,-6.1634e-13,-0.99022,0,0,0.14286,-0,-0,0.66667
0.34753,0.54108,2.4327,0.061626,3.5042,158.82,-0.39978,0.13326,-1.9859,-0.53305,3.7818e-12,-0.99295,0,0,0.14286,6.7671e-16,0,0.66667
0.10753,0.50883,0.75273,0.013243,0.8475,264.75,-0.026583,0.008861,-2.0001,-0.035444,-3.4547e-08,-1.0001,0,0,0.14286,-0,-0,0.66667
0.54663,0.89977,3.8264,0.59965,27.345,84.904,-6.1187,2.0396,-0.7239,-8.1583,6.2172e-13,-0.36195,0,0,0.14286,-0,-1.1123e-16,0.66667
0.26282,0.012239,1.8398,-0.73164,-44.478,195.21,3.5894,-1.1965,-0.096537,4.7859,-8.1726e-12,-0.048268,0,0,0.14286,-0,-1.6123e-16,0.66667
0.91802,0.83585,6.4261,0.50377,5.0141,4.5277,-8.6327,2.8776,-1.0972,-11.51,2.0145e-08,-0.5486,0,0,0.14286,1.3534e-15,0,0.66667
0.85065,0.4232,5.9545,-0.1152,-2.0147,11.21,1.8293,-0.60975,-1.951,2.439,-1.0831e-09,-0.97549,0,0,0.14286,-1.3534e-15,0,0.66667
0.65361,0.49038,4.5753,-0.014427,-0.53146,51.974,0.17601,-0.058671,-1.9994,0.23469,4.7984e-13,-0.99968,0,0,0.14286,-6.7671e-16,0,0.66667
0.87584,0.21553,6.1309,-0.42671,-6.3248,8.486,6.9763,-2.3254,-1.355,9.3017,-6.371e-09,-0.67748,0,0,0.14286,-6.7671e-16,0,0.66667
0.96891,0.19836,6.7824,-0.45247,-1.6416,1.3629,8.1834,-2.7278,-1.2742,10.911,3.1558e-07,-0.63709,0,0,0.14286,-2.7068e-15,0,0.66667
0.59079,0.73037,4.1355,0.34556,14.538,70.414,-3.8109,1.2703,-1.5752,-5.0812,8.0935e-13,-0.78758,0,0,0.14286,-0,-0,0.66667
0.98013,0.033586,6.8609,-0.69962,-1.7453,1.8689,12.8,-4.2667,-0.25981,17.067,1.2929e-05,-0.12991,0,0,0.14286,2.7068e-15,0,0.66667
0.54926,0.30971,3.8448,-0.28544,-12.88,83.563,2.9266,-0.97553,-1.7115,3.9021,-8.0824e-14,-0.85574,0,0,0.14286,-8.4588e-16,0,0.66667
0.2936,0.073799,2.0552,-0.6393,-38.065,181.85,3.5037,-1.1679,-0.5464,4.6715,1.6087e-12,-0.2732,0,0,0.14286,-6.7671e-16,6.8955e-17,0.66667
0.49124,0.8718,3.4387,0.55769,27.498,103.82,-5.1139,1.7046,-0.89338,-6.8186,9.277e-13,-0.44669,0,0,0.14286,-8.4588e-16,0,0.66667
0.40509,0.61358,2.8356,0.17038,9.2104,135.7,-1.2883,0.42944,-1.8979,-1.7178,1.0023e-12,-0.94895,0,0,0.14286,-6.7671e-16,0,0.66667
0.59978,0.57004,4.1984,0.10506,4.3348,67.472,-1.1763,0.39209,-1.9595,-1.5684,6.5969e-13,-0.97976,0,0,0.14286,-0,-0,0.66667
0.4807,0.31034,3.3649,-0.28449,-14.15,107.25,2.5528,-0.85092,-1.7127,3.4037,8.6775e-13,-0.85636,0,0,0.14286,8.4588e-17,0,0.66667
0.2867,0.94749,2.0069,0.67124,40.171,184.84,-3.5923,1.1974,-0.39671,-4.7897,1.1056e-12,-0.19835,0,0,0.14286,-6.7671e-16,0,0.66667
0.62519,0.16494,4.3763,-0.50259,-19.84,60.429,5.8653,-1.9551,-1.1041,7.8203,6.0796e-13,-0.55206,0,0,0.14286,-0,-0,0.66667
0.8054,0.1257,5.6378,-0.56145,-12.743,18.915,8.4409,-2.8136,-0.87889,11.255,4.0552e-10,-0.43945,0,0,0.14286,2.7068e-15,0,0.66667
0.078748,0.48361,0.55123,-0.024585,-1.5819,278.09,0.036139,-0.012046,-1.9993,0.048185,3.6305e-08,-0.99967,0,0,0.14286,-0,-0,0.66667
0.42362,0.43576,2.9654,-0.096361,-5.1105,128.47,0.76199,-0.254,-1.9688,1.016,1.7137e-12,-0.98442,0,0,0.14286,-6.7671e-16,0,0.66667
0.645,0.31715,4.515,-0.27427,-10.326,54.486,3.3023,-1.1008,-1.7322,4.403,2.4467e-12,-0.86612,0,0,0.14286,-1.3534e-15,0,0.66667
0.0072838,0.8853,0.050987,0.57796,37.621,311.41,-0.078581,0.026192,-0.81065,-0.10478,-2.216e-06,-0.40532,0,0,0.14286,-0,-0,0.66667
0.87569,0.96509,6.1298,0.69764,10.573,9.3331,-11.404,3.8013,-0.27192,-15.205,-3.1946e-08,-0.13596,0,0,0.14286,-1.6918e-15,0,0.66667
0.69402,0.26173,4.8581,-0.3574,-11.942,41.76,4.6302,-1.5434,-1.5441,6.1736,7.0397e-12,-0.77207,0,0,0.14286,-0,-0,0.66667
0.74977,0.22196,5.2484,-0.41706,-11.762,29.135,5.8371,-1.9457,-1.3845,7.7828,2.1743e-12,-0.69224,0,0,0.14286,2.7068e-15,0,0.66667
0.5233,0.5541,3.6631,0.081157,3.8035,92.151,-0.79276,0.26425,-1.975,-1.057,-5.5567e-13,-0.98752,0,0,0.14286,-0,-0,0.66667
0.97547,0.29674,6.8283,-0.30489,-0.81692,0.79839,5.5517,-1.8506,-1.6677,7.4022,9.3524e-08,-0.83383,0,0,0.14286,-0,-0,0.66667
0.15309,0.88948,1.0716,0.58421,37.14,243.99,-1.6695,0.55648,-0.78599,-2.2259,1.3275e-09,-0.39299,0,0,0.14286,-0,3.6303e-17,0.66667
0.95582,0.484,6.6907,-0.023994,-0.12148,1.3195,0.42811,-0.1427,-1.9978,0.57081,-8.0336e-07,-0.99888,0,0,0.14286,1.3534e-15,0,0.66667
0.9956,0.87184,6.9692,0.55776,0.17466,1.0161,-10.366,3.4552,-0.89384,-13.821,7.4684e-07,-0.44692,0,0,0.14286,-0,-0,0.66667
0.078553,0.7022,0.54987,0.30331,19.546,278.2,-0.44475,0.14825,-1.6746,-0.593,-1.1661e-08,-0.83729,0,0,0.14286,-0,-0,0.66667
0.33688,0.25567,2.3582,-0.36649,-21.064,163.37,2.3047,-0.76823,-1.5213,3.0729,-5.389e-13,-0.76064,0,0,0.14286,-6.7671e-16,0,0.66667
0.99274,0.98649,6.9492,0.72974,0.6667,1.7407,-13.523,4.5076,-0.10482,-18.031,1.7493e-05,-0.052412,0,0,0.14286,-0,-0,0.66667
0.42676,0.4349,2.9873,-0.097643,-5.1615,127.26,0.77784,-0.25928,-1.966,1.0371,4.7456e-13,-0.98298,0,0,0.14286,-0,-0,0.66667
0.82335,0.29932,5.7634,-0.30102,-6.1872,15.415,4.6264,-1.5421,-1.6766,6.1686,-1.0629e-09,-0.83828,0,0,0.14286,-0,-0,0.66667
0.28812,0.71248,2.0168,0.31872,18.942,183.92,-1.7141,0.57138,-1.6376,-2.2855,1.1743e-11,-0.81879,0,0,0.14286,-0,-0,0.66667
0.51209,0.28474,3.5847,-0.32289,-15.41,96.168,3.0865,-1.0288,-1.6296,4.1153,2.7889e-13,-0.81482,0,0,0.14286,-1.3534e-15,0,0.66667
0.4661,0.86649,3.2627,0.54973,27.964,112.89,-4.783,1.5943,-0.9257,-6.3773,-4.2766e-13,-0.46285,0,0,0.14286,6.7671e-16,0,0.66667
0.33294,0.43147,2.3306,-0.1028,-5.913,164.88,0.6389,-0.21297,-1.9618,0.85187,-7.4157e-13,-0.98088,0,0,0.14286,-5.0753e-16,0,0.66667
0.52708,0.20816,3.6896,-0.43776,-20.486,91.163,4.3071,-1.4357,-1.3178,5.7428,7.1543e-13,-0.65889,0,0,0.14286,-6.7671e-16,0,0.66667
0.080511,0.20781,0.56358,-0.43828,-28.28,277.31,0.65868,-0.21956,-1.3172,0.87824,3.3651e-08,-0.6586,0,0,0.14286,-0,-0,0.66667
0.2212,0.53078,1.5484,0.046176,2.8424,213.1,-0.19066,0.063553,-1.994,-0.25421,-4.7413e-11,-0.99701,0,0,0.14286,-2.1147e-17,0,0.66667
0.33596,0.6173,2.3517,0.17594,10.101,163.64,-1.1034,0.3678,-1.8885,-1.4712,6.5107e-12,-0.94424,0,0,0.14286,-3.3835e-16,0,0.66667
0.96887,0.9425,6.7821,0.66376,2.5736,2.0751,-12.004,4.0015,-0.43628,-16.006,-2.9214e-06,-0.21814,0,0,0.14286,-2.7068e-15,0,0.66667
0.44075,0.56262,3.0853,0.09393,4.8907,121.93,-0.7728,0.2576,-1.9698,-1.0304,1.7288e-12,-0.98489,0,0,0.14286,-0,-0,0.66667
0.96131,0.79919,6.7292,0.44878,2.0567,1.6616,-8.0531,2.6844,-1.282,-10.738,-7.8381e-08,-0.64102,0,0,0.14286,-0,-0,0.66667
0.57362,0.43295,4.0153,-0.10057,-4.3511,75.573,1.0769,-0.35896,-1.9637,1.4358,4.9261e-13,-0.98186,0,0,0.14286,-1.0151e-15,0,0.66667
0.046616,0.072969,0.32631,-0.64055,-41.657,293.1,0.55737,-0.18579,-0.54317,0.74317,9.7165e-07,-0.27159,0,0,0.14286,-0,-0,0.66667
0.65871,0.64037,4.611,0.21056,7.6744,50.684,-2.589,0.86301,-1.8423,-3.4521,-2.1421e-12,-0.92117,0,0,0.14286,-1.3534e-15,0,0.66667
0.014774,0.088352,0.10342,-0.61747,-40.217,307.92,0.17028,-0.056759,-0.64636,0.22705,2.8725e-06,-0.32318,0,0,0.14286,-0,-0,0.66667
0.74247,0.058514,5.1973,-0.66223,-19.33,31.294,9.1781,-3.0594,-0.43978,12.238,-1.4149e-12,-0.21989,0,0,0.14286,4.3963e-16,0,0.66667
0.4207,0.057161,2.9449,-0.66426,-35.634,130.16,5.2165,-1.7388,-0.43287,6.9554,-3.6726e-13,-0.21644,0,0,0.14286,-6.7671e-16,9.5865e-17,0.66667
0.53388,0.85369,3.7372,0.53053,24.627,89.014,-5.2872,1.7624,-0.99931,-7.0496,-2.8555e-13,-0.49965,0,0,0.14286,1.3534e-15,0,0.66667
0.78883,0.89574,5.5218,0.59361,14.521,21.917,-8.7409,2.9136,-0.74539,-11.654,-7.3462e-11,-0.3727,0,0,0.14286,-6.7671e-16,0,0.66667
0.9056,0.80456,6.3392,0.45685,5.2018,5.4718,-7.7227,2.5742,-1.2598,-10.297,2.1983e-08,-0.62989,0,0,0.14286,6.7671e-16,0,0.66667
0.98688,0.4475,6.9081,-0.078753,-0.088711,0.22753,1.4508,-0.48359,-1.9781,1.9343,4.9591e-07,-0.98906,0,0,0.14286,-0,-0,0.66667
0.80208,0.46438,5.6145,-0.053425,-1.2139,18.703,0.79989,-0.26663,-1.9893,1.0665,2.6233e-12,-0.99464,0,0,0.14286,3.3835e-16,0,0.66667
0.0025426,0.083103,0.017798,-0.62534,-40.744,313.62,0.029676,-0.0098946,-0.60968,0.039566,-4.0385e-06,-0.30484,0,0,0.14286,-2.6434e-18,-7.5509e-16,0.66667
0.60009,0.70987,4.2006,0.31481,13.01,67.543,-3.5264,1.1755,-1.6462,-4.7018,3.8769e-13,-0.8231,0,0,0.14286,-6.7671e-16,0,0.66667
0.28885,0.91693,2.0219,0.62539,37.339,183.87,-3.372,1.124,-0.60766,-4.496,2.2646e-12,-0.30383,0,0,0.14286,-0,-0,0.66667
0.70972,0.14026,4.968,-0.53962,-17.345,38.33,7.1488,-2.3829,-0.96288,9.5318,5.9486e-12,-0.48144,0,0,0.14286,-1.3534e-15,0,0.66667
0.30554,0.87356,2.1388,0.56034,33.047,176.69,-3.1959,1.0653,-0.88319,-4.2612,4.15e-12,-0.4416,0,0,0.14286,4.6524e-16,0,0.66667
0.55587,0.94912,3.8911,0.67368,30.338,82.045,-6.9903,2.3301,-0.38462,-9.3203,-5.2269e-13,-0.19231,0,0,0.14286,-0,-0,0.66667
0.91807,0.86761,6.4265,0.55142,5.5137,4.6671,-9.4499,3.15,-0.9185,-12.6,3.8814e-08,-0.45925,0,0,0.14286,6.7671e-16,0,0.66667
0.24787,0.50561,1.7351,0.0084075,0.51063,201.31,-0.038901,0.012967,-2.0007,-0.051868,9.8563e-12,-1.0003,0,0,0.14286,-0,-0,0.66667
0.11184,0.14628,0.78289,-0.53058,-34.076,262.86,1.1077,-0.36923,-0.99925,1.4769,1.2165e-08,-0.49963,0,0,0.14286,8.4588e-17,0,0.66667
0.51354,0.80635,3.5948,0.45953,21.938,95.837,-4.4051,1.4684,-1.2501,-5.8735,-1.5445e-12,-0.62503,0,0,0.14286,1.3191e-15,0,0.66667
0.91372,0.69013,6.396,0.2852,2.9345,4.3938,-4.8644,1.6215,-1.7101,-6.4859,1.0007e-08,-0.85504,0,0,0.14286,-2.7068e-15,0,0.66667
0.17924,0.021707,1.2547,-0.71744,-45.331,232.22,2.4004,-0.80013,-0.16826,3.2005,4.7677e-10,-0.084131,0,0,0.14286,-0,-0,0.66667
0.25588,0.41531,1.7911,-0.12704,-7.6845,197.81,0.60679,-0.20226,-1.9413,0.80906,8.1793e-12,-0.97063,0,0,0.14286,-0,-0,0.66667
0.033996,0.77354,0.23797,0.4103,26.608,298.94,-0.26037,0.086792,-1.4016,-0.34717,1.6668e-07,-0.70082,0,0,0.14286,2.1147e-17,0,0.66667
0.015372,0.36256,0.1076,-0.20617,-13.355,307.63,0.059157,-0.019719,-1.8508,0.078876,2.3289e-08,-0.92539,0,0,0.14286,-0,-0,0.66667
0.54222,0.41705,3.7955,-0.12443,-5.6686,85.782,1.2594,-0.41979,-1.9439,1.6792,1.1117e-12,-0.97193,0,0,0.14286,-1.3534e-15,0,0.66667
0.85536,0.16426,5.9875,-0.50362,-8.6685,11.216,8.0411,-2.6804,-1.0977,10.721,-1.7307e-09,-0.54883,0,0,0.14286,2.7068e-15,0,0.66667
0.44652,0.60834,3.1257,0.16251,8.4103,119.78,-1.3546,0.45153,-1.9043,-1.8061,6.4626e-13,-0.95215,0,0,0.14286,6.7671e-16,0,0.66667
0.23564,0.36975,1.6495,-0.19538,-11.95,206.73,0.85938,-0.28646,-1.8659,1.1458,5.6372e-11,-0.93297,0,0,0.14286,-0,-0,0.66667
0.93653,0.16722,6.5557,-0.49918,-3.846,3.1585,8.7266,-2.9089,-1.1154,11.635,-6.9518e-08,-0.55768,0,0,0.14286,-2.7068e-15,0,0.66667
0.61921,0.32406,4.3345,-0.26391,-10.496,61.807,3.0504,-1.0168,-1.7509,4.0672,8.4488e-13,-0.87543,0,0,0.14286,-0,-0,0.66667
0.86458,0.36069,6.052,-0.20897,-3.3349,9.4691,3.3725,-1.1242,-1.8433,4.4966,-4.6609e-09,-0.92165,0,0,0.14286,1.3534e-15,0,0.66667
0.12811,0.42107,0.89679,-0.11839,-7.5404,255.27,0.28312,-0.094373,-1.9497,0.37749,3.588e-09,-0.97486,0,0,0.14286,-0,-0,0.66667
0.44124,0.88525,3.0887,0.57787,30.267,122.19,-4.7596,1.5865,-0.81205,-6.3462,-1.2594e-12,-0.40603,0,0,0.14286,1.3534e-15,0,0.66667
0.85755,0.79179,6.0029,0.43768,7.3979,10.763,-7.0063,2.3354,-1.3195,-9.3417,3.7601e-09,-0.65975,0,0,0.14286,-0,-0,0.66667
0.89819,0.44224,6.2874,-0.086644,-1.0441,5.6097,1.4527,-0.48423,-1.9722,1.9369,-1.4115e-08,-0.98612,0,0,0.14286,2.7068e-15,0,0.66667
0.87726,0.8731,6.1408,0.55965,8.2799,8.6794,-9.1646,3.0549,-0.88779,-12.22,2.0127e-08,-0.4439,0,0,0.14286,-1.6918e-16,0,0.66667
0.62547,0.15694,4.3783,-0.51459,-20.308,60.371,6.0081,-2.0027,-1.0617,8.0108,5.2669e-13,-0.53083,0,0,0.14286,-0,-0,0.66667
0.75811,0.024344,5.3068,-0.71348,-19.784,28.2,10.097,-3.3656,-0.18865,13.462,-1.2656e-11,-0.094326,0,0,0.14286,1.3534e-15,0,0.66667
0.6755,0.68234,4.7285,0.27351,9.5774,46.324,-3.4488,1.1496,-1.734,-4.5984,-4.8161e-12,-0.86701,0,0,0.14286,-0,-0,0.66667
0.84516,0.259,5.9161,-0.3615,-6.5858,12.277,5.7032,-1.9011,-1.5364,7.6043,-2.6285e-09,-0.76822,0,0,0.14286,-0,-0,0.66667
0.63245,0.49056,4.4271,-0.014166,-0.54706,57.859,0.16724,-0.055747,-1.9977,0.22299,-5.7243e-13,-0.99883,0,0,0.14286,6.7671e-16,0,0.66667
0.17189,0.57356,1.2032,0.11033,6.9325,235.27,-0.35402,0.11801,-1.9589,-0.47202,-8.4105e-10,-0.97947,0,0,0.14286,-0,-0,0.66667
0.65052,0.90597,4.5536,0.60895,22.828,53.566,-7.3945,2.4648,-0.68156,-9.8594,-1.1577e-12,-0.34078,0,0,0.14286,1.8187e-15,0,0.66667
0.45534,0.8052,3.1874,0.4578,23.541,116.74,-3.8911,1.297,-1.2555,-5.1882,-2.7267e-13,-0.62773,0,0,0.14286,-0,-0,0.66667
0.058851,0.69431,0.41195,0.29147,18.832,287.35,-0.32019,0.10673,-1.6977,-0.42692,2.258e-08,-0.84886,0,0,0.14286,-0,-0,0.66667
0.53586,0.73053,3.751,0.3458,15.946,88.08,-3.459,1.153,-1.5737,-4.612,1.4877e-13,-0.78685,0,0,0.14286,-0,-0,0.66667
0.43929,0.37989,3.075,-0.18017,-9.4003,122.51,1.4774,-0.49246,-1.8859,1.9698,-3.3018e-13,-0.94293,0,0,0.14286,-0,-0,0.66667
0.87473,0.45892,6.1231,-0.061626,-0.90986,8.1301,1.0062,-0.33541,-1.9885,1.3417,-4.0485e-09,-0.99427,0,0,0.14286,6.7671e-16,0,0.66667
0.66072,0.46659,4.6251,-0.050122,-1.816,50.059,0.61818,-0.20606,-1.9912,0.82423,4.5047e-13,-0.99558,0,0,0.14286,1.6918e-15,0,0.66667
0.26079,0.53682,1.8255,0.055233,3.3311,195.66,-0.26888,0.089626,-1.9885,-0.3585,4.6703e-12,-0.99427,0,0,0.14286,6.7671e-16,0,0.66667
0.21677,0.18658,1.5174,-0.47012,-29.105,215.22,1.9023,-0.63409,-1.216,2.5363,1.9312e-10,-0.608,0,0,0.14286,-3.595e-16,0,0.66667
0.097323,0.65904,0.68126,0.23855,15.313,269.49,-0.43338,0.14446,-1.7981,-0.57784,-8.4934e-09,-0.89904,0,0,0.14286,-0,-0,0.66667
0.46914,0.55838,3.284,0.087563,4.4113,111.35,-0.76682,0.25561,-1.9754,-1.0224,-1.4523e-12,-0.98768,0,0,0.14286,1.0151e-15,0,0.66667
0.3498,0.79795,2.4486,0.44692,25.458,158.1,-2.9182,0.97274,-1.2881,-3.891,3.066e-12,-0.64407,0,0,0.14286,-4.1425e-16,0,0.66667
0.57735,0.45172,4.0414,-0.07242,-3.1124,74.386,0.78048,-0.26016,-1.9827,1.0406,1.7275e-13,-0.99135,0,0,0.14286,-0,-0,0.66667
0.056942,0.55061,0.39859,0.075913,4.8997,288.23,-0.080689,0.026896,-1.978,-0.10759,-3.3335e-08,-0.98902,0,0,0.14286,-8.4588e-17,0,0.66667
0.24992,0.80474,1.7494,0.45711,27.832,200.57,-2.1325,0.71083,-1.2595,-2.8433,-5.7345e-12,-0.62975,0,0,0.14286,-3.3835e-16,0,0.66667
0.51229,0.63404,3.5861,0.20106,9.5794,95.996,-1.9227,0.64089,-1.856,-2.5636,-1.4722e-13,-0.92799,0,0,0.14286,-0,-0,0.66667
0.37596,0.96171,2.6317,0.69256,38.793,147.8,-4.8603,1.6201,-0.29628,-6.4805,5.1559e-13,-0.14814,0,0,0.14286,-3.3835e-16,0,0.66667
0.6269,0.60129,4.3883,0.15194,5.9404,59.489,-1.778,0.59267,-1.9188,-2.3707,-4.6374e-13,-0.95938,0,0,0.14286,-0,-0,0.66667
0.37322,0.20451,2.6125,-0.44324,-24.756,148.57,3.0879,-1.0293,-1.302,4.1172,5.973e-14,-0.65099,0,0,0.14286,6.7671e-16,0,0.66667
0.46031,0.28821,3.2222,-0.31768,-16.205,114.74,2.7297,-0.90989,-1.6398,3.6395,-6.8989e-13,-0.81991,0,0,0.14286,1.3534e-15,0,0.66667
0.23422,0.70824,1.6395,0.31236,19.138,207.4,-1.3657,0.45522,-1.6552,-1.8209,-5.262e-11,-0.8276,0,0,0.14286,-0,-0,0.66667
0.29959,0.60307,2.0971,0.15461,9.1081,178.94,-0.86462,0.28821,-1.9151,-1.1528,6.9069e-12,-0.95754,0,0,0.14286,-0,-0,0.66667
0.11528,0.094586,0.80699,-0.60812,-39.081,261.31,1.3087,-0.43622,-0.68498,1.7449,-2.77e-08,-0.34249,0,0,0.14286,-0,-0,0.66667
0.77244,0.28268,5.4071,-0.32598,-8.4358,24.398,4.7003,-1.5668,-1.6218,6.267,-8.427e-11,-0.81088,0,0,0.14286,-2.7068e-15,0,0.66667
0.79388,0.78427,5.5572,0.4264,10.132,20.588,-6.3189,2.1063,-1.3543,-8.4252,2.2398e-10,-0.67713,0,0,0.14286,-2.7068e-15,0,0.66667
0.043936,0.23636,0.30755,-0.39546,-25.62,294.31,0.32433,-0.10811,-1.4436,0.43244,-5.8998e-08,-0.72182,0,0,0.14286,8.4588e-17,0,0.66667
0.16096,0.63162,1.1267,0.19743,12.457,240.25,-0.59319,0.19773,-1.8607,-0.79091,-1.8344e-09,-0.93036,0,0,0.14286,-3.3835e-16,0,0.66667
0.80286,0.88437,5.62,0.57656,13.251,19.392,-8.6407,2.8802,-0.81664,-11.521,-1.1322e-10,-0.40832,0,0,0.14286,-0,-0,0.66667
0.91048,0.99515,6.3733,0.74272,8.2908,6.0062,-12.623,4.2076,-0.038392,-16.831,6.8785e-08,-0.019196,0,0,0.14286,4.0602e-15,0,0.66667
0.36919,0.63703,2.5843,0.20554,11.487,150.02,-1.4165,0.47216,-1.8482,-1.8886,1.8191e-12,-0.92412,0,0,0.14286,-0,-0,0.66667
0.67531,0.033632,4.7272,-0.69955,-24.808,47.243,8.8184,-2.9395,-0.26059,11.758,1.1662e-12,-0.13029,0,0,0.14286,-2.7068e-15,0,0.66667
0.18999,0.32843,1.33,-0.25735,-16.074,227.12,0.91271,-0.30424,-1.7645,1.2169,5.9977e-10,-0.88223,0,0,0.14286,3.3835e-16,0,0.66667
0.87123,0.85711,6.0986,0.53567,8.2796,9.3123,-8.7116,2.9039,-0.97898,-11.615,2.1861e-09,-0.48949,0,0,0.14286,-0,-0,0.66667
0.82471,0.78802,5.7729,0.43203,8.86,15.449,-6.6509,2.217,-1.3363,-8.8679,9.587e-10,-0.66813,0,0,0.14286,-0,-0,0.66667
0.25001,0.37891,1.7501,-0.18163,-11.025,200.39,0.84766,-0.28255,-1.8857,1.1302,1.188e-11,-0.94287,0,0,0.14286,-0,-0,0.66667
0.59285,0.94613,4.1499,0.66919,28.274,70.387,-7.4056,2.4685,-0.40932,-9.8742,1.994e-13,-0.20466,0,0,0.14286,-0,-0,0.66667
0.73576,0.090402,5.1503,-0.6144,-18.293,32.603,8.4383,-2.8128,-0.65969,11.251,-2.041e-12,-0.32984,0,0,0.14286,-0,-0,0.66667
0.88384,0.16515,6.1869,-0.50228,-7.0191,7.7771,8.2868,-2.7623,-1.1015,11.049,-1.6027e-09,-0.55074,0,0,0.14286,2.7068e-15,0,0.66667
0.46773,0.82289,3.2741,0.48433,24.556,112.2,-4.2287,1.4096,-1.1673,-5.6382,5.8487e-13,-0.58363,0,0,0.14286,-1.3534e-15,0,0.66667
0.13462,0.68661,0.94235,0.27991,17.816,252.31,-0.70339,0.23446,-1.7213,-0.93786,-5.3784e-09,-0.86063,0,0,0.14286,2.2204e-16,0,0.66667
0.1094,0.23772,0.76577,-0.39342,-25.23,263.94,0.80338,-0.26779,-1.4518,1.0712,1.2655e-08,-0.72591,0,0,0.14286,1.6918e-16,0,0.66667
0.52968,0.01156,3.7077,-0.73266,-34.418,90.852,7.244,-2.4147,-0.092175,9.6587,1.4313e-12,-0.046088,0,0,0.14286,-0,1.5773e-16,0.66667
0.049289,0.51906,0.34502,0.028594,1.847,291.79,-0.026308,0.0087693,-1.9972,-0.035077,-2.6736e-08,-0.99859,0,0,0.14286,1.6918e-16,0,0.66667
0.6209,0.66251,4.3463,0.24377,9.6593,61.296,-2.8253,0.94177,-1.7883,-3.7671,-7.7582e-13,-0.89416,0,0,0.14286,-0,-0,0.66667
0.033328,0.056907,0.2333,-0.66464,-43.292,299.28,0.41349,-0.13783,-0.43031,0.55133,-2.0526e-07,-0.21515,0,0,0.14286,6.3441e-17,0,0.66667
0.021184,0.32907,0.14829,-0.2564,-16.612,304.91,0.10139,-0.033796,-1.7647,0.13519,-1.8997e-08,-0.88234,0,0,0.14286,-4.2294e-17,0,0.66667
0.075209,0.42609,0.52646,-0.11087,-7.1391,279.73,0.15565,-0.051882,-1.9561,0.20753,3.5868e-08,-0.97804,0,0,0.14286,-8.4588e-17,0,0.66667
0.36803,0.49041,2.5762,-0.01438,-0.80386,150.44,0.09879,-0.03293,-1.9977,0.13172,8.5902e-13,-0.99883,0,0,0.14286,-1.0151e-15,0,0.66667
0.38175,0.093219,2.6723,-0.61017,-33.935,145.36,4.3481,-1.4494,-0.676,5.7975,1.7959e-12,-0.338,0,0,0.14286,8.0359e-16,0,0.66667
0.76697,0.43912,5.3688,-0.091327,-2.4043,25.236,1.3075,-0.43583,-1.9726,1.7433,-5.3269e-11,-0.98628,0,0,0.14286,-0,-0,0.66667
0.84595,0.37439,5.9216,-0.18842,-3.3976,11.917,2.9753,-0.99176,-1.8755,3.967,-1.3099e-09,-0.93776,0,0,0.14286,-1.6072e-15,0,0.66667
0.7272,0.097796,5.0904,-0.60331,-18.448,34.468,8.1895,-2.7298,-0.70492,10.919,4.8832e-12,-0.35246,0,0,0.14286,-0,-0,0.66667
0.88443,0.38569,6.191,-0.17147,-2.3449,7.0996,2.8309,-0.94363,-1.8939,3.7745,-5.8079e-09,-0.94695,0,0,0.14286,-0,-0,0.66667
0.5749,0.039434,4.0243,-0.69085,-30.157,76.002,7.4138,-2.4713,-0.3029,9.8851,2.3359e-13,-0.15145,0,0,0.14286,-1.3534e-15,-1.3081e-16,0.66667
0.93988,0.11588,6.5792,-0.57618,-4.2522,3.1865,10.109,-3.3696,-0.81994,13.478,-2.7765e-08,-0.40997,0,0,0.14286,6.7671e-16,0,0.66667
0.90679,0.31882,6.3475,-0.27176,-3.018,4.9826,4.6001,-1.5334,-1.7396,6.1334,-1.0502e-08,-0.86978,0,0,0.14286,-0,-0,0.66667
0.44844,0.65083,3.1391,0.22625,11.689,119.09,-1.8939,0.63129,-1.8175,-2.5251,7.0466e-13,-0.90874,0,0,0.14286,-6.7671e-16,0,0.66667
0.47973,0.64494,3.3581,0.21741,10.819,107.55,-1.9469,0.64897,-1.8308,-2.5959,-9.6811e-14,-0.91541,0,0,0.14286,-0,-0,0.66667
0.85666,0.2846,5.9966,-0.3231,-5.4644,10.647,5.1667,-1.7222,-1.6297,6.8889,-3.9356e-09,-0.81484,0,0,0.14286,-0,-0,0.66667
0.39841,0.34605,2.7888,-0.23092,-12.57,138.36,1.7173,-0.57244,-1.8097,2.2898,9.77e-14,-0.90487,0,0,0.14286,1.3534e-15,0,0.66667
0.942,0.66282,6.594,0.24423,1.6699,2.2587,-4.2945,1.4315,-1.7873,-5.726,-1.4996e-08,-0.89366,0,0,0.14286,-0,-0,0.66667
0.29331,0.63861,2.0532,0.20792,12.303,181.64,-1.1384,0.37946,-1.8456,-1.5178,9.5347e-12,-0.9228,0,0,0.14286,-0,-0,0.66667
0.25901,0.26035,1.8131,-0.35948,-21.749,196.54,1.738,-0.57934,-1.5389,2.3173,-9.2182e-13,-0.76946,0,0,0.14286,-0,-0,0.66667
0.10893,0.16492,0.7625,-0.50262,-32.287,264.19,1.022,-0.34067,-1.1037,1.3627,1.8706e-08,-0.55187,0,0,0.14286,-0,-0,0.66667
0.24704,0.2299,1.7293,-0.40515,-24.687,201.8,1.8683,-0.62278,-1.4162,2.4911,6.0323e-12,-0.70808,0,0,0.14286,-0,-0,0.66667
0.53775,0.05872,3.7643,-0.66192,-30.654,87.979,6.6444,-2.2148,-0.44137,8.8592,-2.0517e-13,-0.22068,0,0,0.14286,6.7671e-16,0,0.66667
0.98024,0.80962,6.8617,0.46443,1.0204,1.0312,-8.498,2.8327,-1.2332,-11.331,-4.1347e-07,-0.61661,0,0,0.14286,-0,-0,0.66667
0.20773,0.99949,1.4541,0.74924,46.837,219.47,-2.9053,0.96842,-0.0044487,-3.8737,-7.1163e-11,-0.0022244,0,0,0.14286,6.4499e-16,0,0.66667
0.54702,0.60911,3.8291,0.16367,7.4023,84.209,-1.6712,0.55707,-1.9067,-2.2283,-9.1005e-13,-0.95335,0,0,0.14286,6.7671e-16,0,0.66667
0.87839,0.96393,6.1487,0.6959,10.329,9.0186,-11.41,3.8035,-0.27833,-15.214,-4.4439e-08,-0.13916,0,0,0.14286,6.7671e-16,0,0.66667
0.58966,0.79035,4.1276,0.43552,18.392,70.889,-4.7938,1.5979,-1.3249,-6.3917,6.7857e-13,-0.66245,0,0,0.14286,-0,-0,0.66667
0.83528,0.30487,5.8469,-0.29269,-5.6363,13.584,4.5636,-1.5212,-1.694,6.0848,-1.8349e-09,-0.84699,0,0,0.14286,-0,-0,0.66667
0.23929,0.53627,1.675,0.054402,3.3192,205.09,-0.24299,0.080998,-1.9889,-0.32399,-9.9775e-12,-0.99446,0,0,0.14286,-0,-0,0.66667
0.07308,0.85908,0.51156,0.53862,34.85,280.78,-0.73477,0.24492,-0.96708,-0.97969,-3.935e-08,-0.48354,0,0,0.14286,-1.6918e-16,0,0.66667
0.95297,0.91679,6.6708,0.62519,3.6406,2.6211,-11.121,3.7071,-0.61239,-14.828,1.0605e-06,-0.3062,0,0,0.14286,-2.7068e-15,1.5126e-16,0.66667
0.11233,0.57609,0.78629,0.11413,7.2977,262.54,-0.23931,0.079772,-1.9534,-0.31909,-2.5089e-09,-0.97668,0,0,0.14286,-1.6918e-16,0,0.66667
0.8024,0.95493,5.6168,0.68239,15.81,19.803,-10.221,3.407,-0.34279,-13.628,-4.4127e-10,-0.1714,0,0,0.14286,-0,-0,0.66667
0.65102,0.20137,4.5571,-0.44795,-16.694,53.087,5.4436,-1.8145,-1.2851,7.2582,1.9069e-12,-0.64255,0,0,0.14286,1.3534e-15,0,0.66667
0.86511,0.54174,6.0558,0.062611,0.99283,9.2948,-1.0111,0.33703,-1.9846,-1.3481,-1.2294e-09,-0.99231,0,0,0.14286,-0,-0,0.66667
0.62975,0.28445,4.4082,-0.32333,-12.593,58.833,3.8009,-1.267,-1.6281,5.0678,1.2499e-12,-0.81404,0,0,0.14286,-0,-0,0.66667
0.29818,0.96827,2.0872,0.7024,41.76,179.98,-3.9096,1.3032,-0.24829,-5.2127,2.5091e-13,-0.12414,0,0,0.14286,2.7491e-16,0,0.66667
0.93148,0.26834,6.5204,-0.3475,-2.8454,3.1274,6.0422,-2.0141,-1.569,8.0562,-1.3483e-08,-0.78451,0,0,0.14286,-0,-0,0.66667
0.6923,0.4791,4.8461,-0.031351,-1.0483,41.912,0.40514,-0.13505,-1.9954,0.54019,1.8199e-12,-0.9977,0,0,0.14286,-1.3534e-15,0,0.66667
0.87664,0.56446,6.1365,0.096688,1.407,7.9225,-1.5822,0.5274,-1.9687,-2.1096,-5.3951e-09,-0.98433,0,0,0.14286,2.7068e-15,0,0.66667
0.81549,0.062906,5.7084,-0.65564,-14.258,17.532,9.9805,-3.3268,-0.47283,13.307,-1.7536e-09,-0.23642,0,0,0.14286,-2.7068e-15,0,0.66667
0.136,0.45519,0.95202,-0.067214,-4.2712,251.64,0.17064,-0.056879,-1.9827,0.22752,7.9454e-12,-0.99137,0,0,0.14286,-1.6918e-16,0,0.66667
0.69941,0.6629,4.8959,0.24435,8.0276,40.292,-3.1902,1.0634,-1.7875,-4.2536,-7.7465e-12,-0.89373,0,0,0.14286,1.3534e-15,0,0.66667
0.68101,0.63531,4.767,0.20296,7.0007,44.839,-2.5801,0.86002,-1.8519,-3.4401,-4.4225e-12,-0.92597,0,0,0.14286,-0,-0,0.66667
0.7558,0.78704,5.2906,0.43056,11.893,27.911,-6.0744,2.0248,-1.3399,-8.0992,3.0065e-12,-0.66995,0,0,0.14286,-0,-0,0.66667
0.79965,0.40427,5.5976,-0.14359,-3.3018,19.169,2.1433,-0.71444,-1.9278,2.8578,-1.536e-10,-0.96388,0,0,0.14286,1.8609e-15,0,0.66667
0.94145,0.19147,6.5901,-0.4628,-3.27,2.7453,8.133,-2.711,-1.2385,10.844,-5.3159e-08,-0.61925,0,0,0.14286,-2.7068e-15,0,0.66667
0.065147,0.88475,0.45603,0.57712,37.408,284.47,-0.70183,0.23394,-0.81583,-0.93577,-1.1861e-07,-0.40791,0,0,0.14286,-0,-0,0.66667
0.50862,0.23227,3.5603,-0.40159,-19.283,97.468,3.8128,-1.2709,-1.4247,5.0837,1.7142e-13,-0.71237,0,0,0.14286,-0,-0,0.66667
0.49966,0.59384,3.4976,0.14076,6.8214,100.39,-1.3129,0.43763,-1.933,-1.7505,9.9465e-13,-0.96649,0,0,0.14286,-0,-0,0.66667
0.70076,0.70143,4.9053,0.30215,9.8988,40.032,-3.9524,1.3175,-1.6755,-5.2698,-7.6961e-12,-0.83773,0,0,0.14286,-1.3534e-15,0,0.66667
0.9956,0.22599,6.9692,-0.41102,-0.067853,0.57573,7.6387,-2.5462,-1.3987,10.185,-4.1839e-07,-0.69934,0,0,0.14286,-0,-9.9907e-17,0.66667
0.90798,0.076073,6.3559,-0.63589,-7.1897,5.8084,10.778,-3.5926,-0.56283,14.37,-1.4984e-07,-0.28142,0,0,0.14286,1.3534e-15,0,0.66667
0.29689,0.17247,2.0782,-0.49129,-29.105,180.3,2.7227,-0.90756,-1.1439,3.6302,-3.4137e-12,-0.57195,0,0,0.14286,-3.3835e-16,0,0.66667
0.33575,0.44506,2.3503,-0.082416,-4.73,163.7,0.51653,-0.17218,-1.9744,0.68871,-7.7183e-13,-0.9872,0,0,0.14286,-0,-0,0.66667
0.82017,0.48657,5.7412,-0.020145,-0.41905,15.687,0.30841,-0.1028,-1.9967,0.41122,6.9186e-11,-0.99835,0,0,0.14286,-0,-0,0.66667
0.36161,0.93164,2.5313,0.64746,36.673,153.52,-4.3705,1.4568,-0.51028,-5.8273,1.3878e-12,-0.25514,0,0,0.14286,-1.6918e-16,0,0.66667
0.32537,0.59323,2.2776,0.13985,8.0906,168.05,-0.84938,0.28313,-1.9318,-1.1325,8.09e-12,-0.96592,0,0,0.14286,-9.5162e-16,0,0.66667
0.4447,0.12857,3.1129,-0.55714,-29.056,120.85,4.6249,-1.5416,-0.89549,6.1665,6.2972e-13,-0.44774,0,0,0.14286,-0,-0,0.66667
0.27712,0.74117,1.9398,0.36175,21.657,188.68,-1.8713,0.62377,-1.534,-2.4951,1.052e-11,-0.76701,0,0,0.14286,-0,-0,0.66667
0.74901,0.10613,5.243,-0.59081,-16.814,29.703,8.2604,-2.7535,-0.76011,11.014,5.56e-13,-0.38006,0,0,0.14286,-1.3534e-15,1.6186e-16,0.66667
0.45268,0.27907,3.1687,-0.33139,-17.059,117.59,2.8002,-0.9334,-1.6124,3.7336,-2.2027e-13,-0.80622,0,0,0.14286,-0,-0,0.66667
0.16392,0.69707,1.1475,0.29561,18.648,238.93,-0.90453,0.30151,-1.6877,-1.206,-1.8809e-09,-0.84383,0,0,0.14286,-0,-0,0.66667
0.99046,0.051395,6.9332,-0.67291,-0.75818,1.5313,12.441,-4.1471,-0.38847,16.588,-1.9935e-05,-0.19423,0,0,0.14286,1.3534e-15,0,0.66667
0.338,0.93037,2.366,0.64555,37.26,163.2,-4.073,1.3577,-0.51714,-5.4306,1.8519e-12,-0.25857,0,0,0.14286,-3.3835e-16,0,0.66667
0.30176,0.57693,2.1123,0.1154,6.7873,178.01,-0.65004,0.21668,-1.9513,-0.86672,6.6911e-12,-0.97566,0,0,0.14286,-0,-0,0.66667
0.22533,0.64868,1.5773,0.22302,13.712,211.3,-0.93805,0.31268,-1.8218,-1.2507,-9.1229e-11,-0.9109,0,0,0.14286,-1.6918e-16,0,0.66667
0.42574,0.23449,2.9802,-0.39826,-21.136,127.85,3.165,-1.055,-1.4352,4.2201,-5.2847e-14,-0.71759,0,0,0.14286,-0,-0,0.66667
0.69512,0.84104,4.8658,0.51156,17.113,41.779,-6.6378,2.2126,-1.0688,-8.8505,-6.6542e-12,-0.5344,0,0,0.14286,5.4415e-16,0,0.66667
0.60241,0.003976,4.2168,-0.74404,-30.963,67.694,8.3666,-2.7889,-0.030779,11.156,1.0161e-12,-0.015389,0,0,0.14286,-0,-0,0.66667
0.18146,0.58104,1.2702,0.12157,7.6118,230.94,-0.41178,0.13726,-1.9458,-0.54904,-5.4523e-10,-0.97291,0,0,0.14286,1.2346e-16,0,0.66667
0.26456,0.74613,1.8519,0.36919,22.269,194.12,-1.8232,0.60775,-1.5174,-2.431,1.104e-11,-0.75871,0,0,0.14286,1.6291e-16,0,0.66667
0.59825,0.35817,4.1878,-0.21275,-8.8107,67.998,2.3758,-0.79194,-1.8379,3.1678,7.6383e-13,-0.91895,0,0,0.14286,-0,-0,0.66667
0.85805,0.25402,6.0063,-0.36897,-6.1949,10.551,5.9097,-1.9699,-1.5177,7.8796,-4.0783e-09,-0.75887,0,0,0.14286,2.7068e-15,0,0.66667
0.41292,0.66773,2.8904,0.2516,13.505,132.68,-1.9392,0.64642,-1.7732,-2.5857,5.2625e-13,-0.88662,0,0,0.14286,-6.7671e-16,0,0.66667
0.21585,0.56912,1.5109,0.10368,6.399,215.49,-0.41776,0.13925,-1.962,-0.55701,-5.6156e-11,-0.98101,0,0,0.14286,-6.7671e-16,0,0.66667
0.32339,0.9004,2.2637,0.6006,35.01,169.22,-3.6256,1.2085,-0.71682,-4.8341,4.1847e-12,-0.35841,0,0,0.14286,3.6066e-16,0,0.66667
0.69169,0.52444,4.8418,0.036663,1.228,42.064,-0.47338,0.15779,-1.9947,-0.63117,-9.3714e-13,-0.99736,0,0,0.14286,-0,-0,0.66667
0.70095,0.91847,4.9066,0.62771,20.751,40.648,-8.2132,2.7377,-0.59931,-10.951,-2.5597e-12,-0.29965,0,0,0.14286,-0,-0,0.66667
0.22335,0.13333,1.5635,-0.55001,-33.993,212.35,2.2931,-0.76437,-0.92356,3.0575,4.3983e-12,-0.46178,0,0,0.14286,-0,-0,0.66667
0.3965,0.12683,2.7755,-0.55976,-30.677,139.43,4.1429,-1.381,-0.88563,5.5239,2.3817e-12,-0.44281,0,0,0.14286,-0,-0,0.66667
0.69933,0.048643,4.8953,-0.67703,-22.527,41.179,8.8381,-2.946,-0.3694,11.784,0,-0.1847,0,0,0.14286,1.3534e-15,2.1942e-16,0.66667
0.72057,0.2263,5.044,-0.41056,-12.728,35.531,5.5223,-1.8408,-1.4016,7.363,1.1445e-11,-0.7008,0,0,0.14286,-0,-0,0.66667
0.13052,0.82631,0.91361,0.48946,31.269,254.26,-1.1925,0.39749,-1.1467,-1.59,-6.0833e-09,-0.57333,0,0,0.14286,-0,-0,0.66667
0.60937,0.96806,4.2656,0.70209,28.786,65.506,-7.9863,2.6621,-0.251,-10.648,6.8034e-13,-0.1255,0,0,0.14286,8.4588e-17,0,0.66667
0.88607,0.62622,6.2025,0.18934,2.5547,6.9398,-3.1316,1.0439,-1.8728,-4.1755,4.8392e-09,-0.93639,0,0,0.14286,2.7068e-15,0,0.66667
0.58236,0.70985,4.0765,0.31477,13.439,72.985,-3.4218,1.1406,-1.647,-4.5624,1.3123e-13,-0.82348,0,0,0.14286,-0,-0,0.66667
0.30721,0.081108,2.1505,-0.62834,-37.068,176.06,3.6032,-1.2011,-0.59482,4.8043,4.7051e-13,-0.29741,0,0,0.14286,-0,-0,0.66667
0.74514,0.96178,5.216,0.69267,20.068,30.821,-9.6346,3.2115,-0.29325,-12.846,-2.7764e-12,-0.14663,0,0,0.14286,6.7671e-16,1.0215e-16,0.66667
0.9777,0.55144,6.8439,0.077155,0.17781,0.46509,-1.4081,0.46937,-1.9772,-1.8775,2.4953e-07,-0.98858,0,0,0.14286,-0,-0,0.66667
0.90462,0.7658,6.3324,0.3987,4.565,5.4211,-6.7325,2.2442,-1.4354,-8.9767,1.9272e-08,-0.71771,0,0,0.14286,1.3534e-15,0,0.66667
0.8716,0.55652,6.1012,0.084787,1.2823,8.5096,-1.3795,0.45983,-1.9745,-1.8393,1.2386e-09,-0.98723,0,0,0.14286,6.7671e-16,0,0.66667
0.00029225,0.37539,0.0020457,-0.18692,-12.11,314.67,0.0010196,-0.00034002,-1.8792,0.0013594,-2.1667e-07,-0.9396,0,0,0.14286,-0,-0,0.66667
0.58262,0.84825,4.0783,0.52237,22.387,73.221,-5.681,1.8937,-1.0295,-7.5747,1.5059e-12,-0.51474,0,0,0.14286,-1.3534e-15,0,0.66667
0.26272,0.06977,1.839,-0.64535,-39.155,195.15,3.1648,-1.0549,-0.51938,4.2198,7.2149e-12,-0.25969,0,0,0.14286,-0,1.2996e-16,0.66667
0.81301,0.72228,5.691,0.33342,7.2289,17.13,-5.06,1.6867,-1.6074,-6.7466,6.879e-10,-0.80368,0,0,0.14286,2.7068e-15,0,0.66667
0.52348,0.22613,3.6644,-0.4108,-19.317,92.353,4.0142,-1.3381,-1.3985,5.3523,1.0361e-12,-0.69927,0,0,0.14286,-1.3534e-15,0,0.66667
0.8939,0.33131,6.2573,-0.25303,-3.191,6.1964,4.2221,-1.4074,-1.7719,5.6294,-8.258e-09,-0.88594,0,0,0.14286,-1.3534e-15,0,0.66667
0.52374,0.36309,3.6662,-0.20536,-9.6259,92.056,2.0078,-0.66925,-1.8483,2.677,-2.0184e-13,-0.92413,0,0,0.14286,-0,-0,0.66667
0.89114,0.12556,6.2379,-0.56165,-7.4107,7.1775,9.3428,-3.1143,-0.88156,12.457,1.4372e-08,-0.44078,0,0,0.14286,2.7068e-15,0,0.66667
0.44972,0.2729,3.148,-0.34065,-17.597,118.7,2.8597,-0.95324,-1.5871,3.813,-2.6756e-13,-0.79357,0,0,0.14286,3.3835e-16,0,0.66667
0.5615,0.42539,3.9305,-0.11191,-4.9426,79.454,1.173,-0.391,-1.9567,1.564,5.5589e-13,-0.97834,0,0,0.14286,-6.7671e-16,0,0.66667
0.81248,0.84382,5.6874,0.51573,11.293,17.607,-7.8218,2.6073,-1.0581,-10.429,-1.6447e-10,-0.52903,0,0,0.14286,-0,-0,0.66667
0.40317,0.14155,2.8222,-0.53767,-29.265,136.78,4.0464,-1.3488,-0.9717,5.3952,2.2169e-12,-0.48585,0,0,0.14286,-6.7671e-16,0,0.66667
0.56867,0.74954,3.9807,0.37432,16.383,77.377,-3.9734,1.3245,-1.5017,-5.2979,-1.5399e-12,-0.75085,0,0,0.14286,7.4015e-16,0,0.66667
0.89846,0.012079,6.2892,-0.73188,-9.197,7.0597,12.275,-4.0915,-0.093653,16.366,-3.6624e-08,-0.046827,0,0,0.14286,-0,-0,0.66667
0.48462,0.68094,3.3924,0.27141,13.43,105.83,-2.4552,0.81841,-1.7405,-3.2737,4.4187e-14,-0.87025,0,0,0.14286,-3.3835e-16,0,0.66667
0.59059,0.70032,4.1341,0.30048,12.637,70.421,-3.3126,1.1042,-1.6785,-4.4168,2.1982e-14,-0.83927,0,0,0.14286,-0,-0,0.66667
0.93638,0.18917,6.5547,-0.46624,-3.5857,3.076,8.1494,-2.7165,-1.2295,10.866,-6.1542e-08,-0.61474,0,0,0.14286,2.7068e-15,0,0.66667
0.88325,0.71393,6.1828,0.3209,4.4567,7.4317,-5.2908,1.7636,-1.6328,-7.0543,8.9636e-09,-0.8164,0,0,0.14286,3.3835e-16,0,0.66667
0.75772,0.44919,5.304,-0.076217,-2.0766,27.094,1.078,-0.35934,-1.9776,1.4374,-1.2675e-11,-0.98878,0,0,0.14286,-0,-0,0.66667
0.71123,0.3525,4.9786,-0.22125,-7.0251,37.437,2.9374,-0.97912,-1.8244,3.9165,7.3384e-12,-0.9122,0,0,0.14286,-0,-0,0.66667
0.8192,0.10243,5.7344,-0.59635,-12.687,16.749,9.1192,-3.0397,-0.73403,12.159,1.1028e-09,-0.36702,0,0,0.14286,-0,-0,0.66667
0.10608,0.27711,0.74257,-0.33433,-21.441,265.46,0.66205,-0.22068,-1.6029,0.88273,1.2551e-08,-0.80146,0,0,0.14286,-2.1147e-16,0,0.66667
0.38103,0.26441,2.6672,-0.35338,-19.575,145.35,2.5135,-0.83783,-1.5543,3.3513,1.052e-12,-0.77715,0,0,0.14286,-6.7671e-16,0,0.66667
0.54579,0.42325,3.8205,-0.11512,-5.2152,84.592,1.1729,-0.39095,-1.954,1.5638,-2.6701e-13,-0.97698,0,0,0.14286,-0,-0,0.66667
0.85851,0.27145,6.0096,-0.34283,-5.7316,10.441,5.494,-1.8313,-1.5836,7.3253,-4.2714e-09,-0.7918,0,0,0.14286,1.3534e-15,0,0.66667
0.1464,0.84828,1.0248,0.52243,33.243,247,-1.4277,0.4759,-1.0288,-1.9036,-1.277e-09,-0.51441,0,0,0.14286,-3.3835e-16,0,0.66667
0.71404,0.54564,4.9983,0.06846,2.1527,36.679,-0.91248,0.30416,-1.9821,-1.2166,-2.1157e-12,-0.99104,0,0,0.14286,-1.3534e-15,0,0.66667
0.59097,0.2553,4.1368,-0.36705,-15.443,70.387,4.0491,-1.3497,-1.5215,5.3988,4.9249e-13,-0.76074,0,0,0.14286,-0,-0,0.66667
0.60872,0.12504,4.261,-0.56243,-22.986,65.365,6.3908,-2.1303,-0.87841,8.5211,2.0224e-12,-0.43921,0,0,0.14286,-2.7068e-15,9.6352e-19,0.66667
0.37262,0.0050429,2.6083,-0.74244,-41.762,149.23,5.164,-1.7213,-0.040952,6.8854,7.5939e-14,-0.020476,0,0,0.14286,-0,9.1579e-17,0.66667
0.91582,0.18974,6.4108,-0.46539,-4.7366,4.6016,7.956,-2.652,-1.2295,10.608,-3.3584e-08,-0.61473,0,0,0.14286,-2.7068e-15,0,0.66667
0.71391,0.00034991,4.9973,-0.74948,-24.009,37.948,9.9877,-3.3292,-0.0031081,13.317,2.2418e-12,-0.001554,0,0,0.14286,-0,-0,0.66667
0.6683,0.3937,4.6781,-0.15944,-5.6757,48.097,1.989,-0.66301,-1.909,2.6521,3.7452e-12,-0.95448,0,0,0.14286,-6.7671e-16,0,0.66667
0.22147,0.53332,1.5503,0.049978,3.0761,212.98,-0.20661,0.068871,-1.9922,-0.27548,-4.4519e-11,-0.9961,0,0,0.14286,6.7671e-16,0,0.66667
0.81288,0.28447,5.6901,-0.32329,-7.0116,17.135,4.9055,-1.6352,-1.6312,6.5407,-6.9393e-10,-0.81559,0,0,0.14286,-0,-0,0.66667
0.49585,0.80812,3.471,0.46219,22.605,102.03,-4.278,1.426,-1.2403,-5.704,1.1591e-13,-0.62017,0,0,0.14286,-8.4588e-16,0,0.66667
0.50837,0.49238,3.5586,-0.011432,-0.5472,97.298,0.10849,-0.036162,-1.9981,0.14465,-1.9285e-13,-0.99905,0,0,0.14286,3.3835e-16,0,0.66667
0.084733,0.15079,0.59313,-0.52381,-33.82,275.38,0.82851,-0.27617,-1.0233,1.1047,1.1384e-08,-0.51167,0,0,0.14286,4.2294e-17,0,0.66667
0.43727,0.60212,3.0609,0.15318,8.0087,123.27,-1.2503,0.41677,-1.9188,-1.6671,8.4088e-13,-0.9594,0,0,0.14286,-0,-0,0.66667
0.8632,0.82505,6.0424,0.48757,7.955,10.163,-7.8563,2.6188,-1.154,-10.475,4.4339e-09,-0.57698,0,0,0.14286,1.3534e-15,0,0.66667
0.68024,0.2775,4.7617,-0.33375,-11.559,45.184,4.2379,-1.4126,-1.6031,5.6505,6.1546e-12,-0.80153,0,0,0.14286,-3.3835e-16,0,0.66667
0.18942,0.26118,1.326,-0.35823,-22.403,227.41,1.2667,-0.42223,-1.5442,1.6889,5.9613e-10,-0.77211,0,0,0.14286,-0,-0,0.66667
0.58407,0.23967,4.0885,-0.3905,-16.643,72.549,4.2575,-1.4192,-1.4563,5.6767,7.2253e-13,-0.72817,0,0,0.14286,-6.7671e-16,0,0.66667
0.94401,0.98578,6.608,0.72866,5.1582,3.5217,-12.84,4.28,-0.11039,-17.12,-1.7225e-06,-0.055197,0,0,0.14286,1.3534e-15,0,0.66667
0.50746,0.85823,3.5522,0.53735,25.914,98.072,-5.0901,1.6967,-0.97147,-6.7868,4.3743e-13,-0.48574,0,0,0.14286,-6.7671e-16,0,0.66667
0.9674,0.60625,6.7718,0.15938,0.57901,0.8804,-2.878,0.95935,-1.9106,-3.8374,-2.6538e-08,-0.95529,0,0,0.14286,-0,-0,0.66667
0.36627,0.70819,2.5639,0.31228,17.515,151.27,-2.135,0.71168,-1.6516,-2.8467,2.6432e-12,-0.8258,0,0,0.14286,-0,-0,0.66667
0.29075,0.73922,2.0352,0.35882,21.3,182.82,-1.9474,0.64915,-1.5407,-2.5966,1.1096e-11,-0.77033,0,0,0.14286,3.3835e-16,0,0.66667
0.83985,0.49044,5.879,-0.014336,-0.26761,12.692,0.22474,-0.074915,-1.9986,0.29966,-1.9518e-10,-0.99931,0,0,0.14286,2.0301e-15,0,0.66667
0.86973,0.26113,6.0881,-0.3583,-5.5406,9.0639,5.817,-1.939,-1.5422,7.756,-6.033e-09,-0.7711,0,0,0.14286,-1.3534e-15,0,0.66667
0.20167,0.75065,1.4117,0.37597,23.4,221.92,-1.4153,0.47177,-1.4997,-1.8871,-2.8249e-10,-0.74986,0,0,0.14286,-0,-0,0.66667
0.71945,0.51063,5.0362,0.015949,0.49334,35.412,-0.21419,0.071396,-2.0007,-0.28558,-7.9688e-13,-1.0003,0,0,0.14286,-0,-0,0.66667
0.59211,0.84253,4.1447,0.51379,21.64,70.275,-5.6788,1.8929,-1.0634,-7.5717,-2.3581e-13,-0.53172,0,0,0.14286,9.3047e-16,0,0.66667
0.89451,0.93034,6.2616,0.64551,8.3307,7.1158,-10.778,3.5928,-0.51807,-14.371,-1.6439e-07,-0.25904,0,0,0.14286,-0,-0,0.66667
0.14945,0.91249,1.0461,0.61873,39.406,245.66,-1.7261,0.57535,-0.6376,-2.3014,5.3256e-09,-0.3188,0,0,0.14286,-0,-0,0.66667
0.76303,0.2317,5.3412,-0.40244,-10.818,26.388,5.7321,-1.9107,-1.4241,7.6427,-2.8868e-11,-0.71203,0,0,0.14286,-1.3534e-15,0,0.66667
0.68996,0.26555,4.8297,-0.35167,-11.879,42.759,4.5293,-1.5098,-1.5602,6.039,6.9953e-12,-0.78012,0,0,0.14286,-0,-0,0.66667
0.79502,0.1713,5.5651,-0.49305,-11.689,20.537,7.3171,-2.439,-1.1361,9.7561,-1.4439e-10,-0.56803,0,0,0.14286,1.3534e-15,0,0.66667
0.45329,0.7585,3.173,0.38774,19.962,117.42,-3.2808,1.0936,-1.4677,-4.3745,-1.3389e-13,-0.73386,0,0,0.14286,-0,-0,0.66667
0.22843,0.5811,1.599,0.12165,7.4638,209.9,-0.51871,0.1729,-1.9458,-0.69161,-4.9266e-11,-0.97289,0,0,0.14286,-0,-0,0.66667
0.28605,0.91735,2.0024,0.62602,37.443,185.06,-3.3428,1.1143,-0.60541,-4.457,3.1379e-12,-0.3027,0,0,0.14286,6.7671e-16,0,0.66667
0.3043,0.45483,2.1301,-0.06775,-3.9773,176.92,0.38484,-0.12828,-1.9818,0.51312,-1.7059e-13,-0.99091,0,0,0.14286,-0,-0,0.66667
0.84027,0.44294,5.8819,-0.085587,-1.5944,12.651,1.3424,-0.44748,-1.974,1.7899,-7.3143e-10,-0.987,0,0,0.14286,-0,-0,0.66667
0.53716,0.36892,3.7601,-0.19662,-9.0323,87.511,1.9714,-0.65715,-1.8615,2.6286,-8.6531e-13,-0.93076,0,0,0.14286,1.0151e-15,0,0.66667
0.56358,0.94969,3.9451,0.67454,29.997,79.558,-7.0963,2.3654,-0.38334,-9.4618,5.2314e-13,-0.19167,0,0,0.14286,-0,-0,0.66667
0.28417,0.072337,1.9892,-0.64149,-38.426,185.89,3.4028,-1.1343,-0.53674,4.537,1.2883e-12,-0.26837,0,0,0.14286,-0,-0,0.66667
0.83416,0.37351,5.8391,-0.18973,-3.6669,13.621,2.9543,-0.98476,-1.8717,3.939,-1.8112e-09,-0.93586,0,0,0.14286,-6.7671e-16,0,0.66667
0.70493,0.97027,4.9345,0.7054,23.137,39.919,-9.2822,3.0941,-0.23264,-12.376,-2.6468e-13,-0.11632,0,0,0.14286,-0,-0,0.66667
0.87814,0.99427,6.147,0.7414,11.076,9.2256,-12.153,4.051,-0.045796,-16.204,-4.8428e-09,-0.022898,0,0,0.14286,2.0301e-15,0,0.66667
0.13153,0.58815,0.92069,0.13222,8.4142,253.7,-0.32462,0.10821,-1.9368,-0.43283,-2.0541e-09,-0.96838,0,0,0.14286,-8.4588e-17,0,0.66667
0.8496,0.42671,5.9472,-0.10994,-1.9353,11.35,1.7435,-0.58117,-1.9555,2.3247,-5.6832e-10,-0.97777,0,0,0.14286,-0,-0,0.66667
0.052112,0.35642,0.36479,-0.21536,-13.917,290.48,0.2095,-0.069833,-1.8337,0.27933,-3.7851e-08,-0.91684,0,0,0.14286,8.4588e-17,0,0.66667
0.87713,0.71102,6.1399,0.31654,4.6181,8.1136,-5.1827,1.7276,-1.6444,-6.9102,7.5663e-09,-0.8222,0,0,0.14286,-6.7671e-16,0,0.66667
0.23974,0.65169,1.6782,0.22753,13.891,204.93,-1.0182,0.33942,-1.8153,-1.3577,-3.7158e-11,-0.90764,0,0,0.14286,-3.3835e-16,0,0.66667
0.88566,0.19819,6.1997,-0.45272,-6.2091,7.4493,7.4846,-2.4949,-1.2701,9.9794,-1.1551e-08,-0.63503,0,0,0.14286,-0,-0,0.66667
0.37931,0.60389,2.6552,0.15584,8.6296,145.92,-1.1034,0.3678,-1.9128,-1.4712,1.5499e-12,-0.95638,0,0,0.14286,-0,-0,0.66667
0.84292,0.60335,5.9004,0.15503,2.8456,12.315,-2.4393,0.81311,-1.9161,-3.2524,1.8614e-09,-0.95804,0,0,0.14286,-0,-0,0.66667
0.53961,0.25804,3.7773,-0.36294,-16.645,86.845,3.6558,-1.2186,-1.5302,4.8744,2.5313e-13,-0.76509,0,0,0.14286,-1.3534e-15,0,0.66667
0.56418,0.19308,3.9492,-0.46038,-20.337,78.942,4.8484,-1.6161,-1.2477,6.4645,1.3678e-12,-0.62383,0,0,0.14286,-1.3534e-15,0,0.66667
0.98402,0.10745,6.8881,-0.58883,-1.0878,1.3361,10.816,-3.6053,-0.76897,14.421,1.3723e-08,-0.38448,0,0,0.14286,-1.3534e-15,1.666e-16,0.66667
0.96375,0.83041,6.7462,0.49562,2.1423,1.6898,-8.9162,2.9721,-1.1253,-11.888,-3.0556e-08,-0.56263,0,0,0.14286,-0,-0,0.66667
0.11432,0.097176,0.80027,-0.60424,-38.837,261.75,1.2895,-0.42982,-0.70154,1.7193,-1.739e-08,-0.35077,0,0,0.14286,-0,-0,0.66667
0.36415,0.51586,2.549,0.023785,1.3341,152.02,-0.16168,0.053893,-1.9967,-0.21557,1.1294e-12,-0.99835,0,0,0.14286,-0,-0,0.66667
0.25055,0.26194,1.7538,-0.35709,-21.705,200.23,1.6701,-0.55669,-1.5483,2.2268,1.1989e-11,-0.77413,0,0,0.14286,-0,-0,0.66667
0.4483,0.24406,3.1381,-0.3839,-19.876,119.28,3.2126,-1.0709,-1.4753,4.2834,1.1102e-13,-0.73766,0,0,0.14286,-0,-0,0.66667
0.12635,0.2501,0.88447,-0.37485,-23.935,256.13,0.88412,-0.29471,-1.5029,1.1788,7.3923e-09,-0.75146,0,0,0.14286,-3.3835e-16,0,0.66667
0.51157,0.74802,3.581,0.37203,17.781,96.405,-3.5526,1.1842,-1.5082,-4.7368,1.5743e-13,-0.75411,0,0,0.14286,-3.3835e-16,0,0.66667
0.86558,0.36385,6.0591,-0.20423,-3.2357,9.3382,3.2999,-1.1,-1.8501,4.3998,-4.9949e-09,-0.92505,0,0,0.14286,1.3534e-15,0,0.66667
0.35235,0.12157,2.4665,-0.56765,-32.341,157.19,3.7336,-1.2445,-0.85348,4.9781,1.4242e-12,-0.42674,0,0,0.14286,-1.6918e-16,0,0.66667
0.15564,0.32128,1.0895,-0.26808,-16.954,242.69,0.77884,-0.25961,-1.7463,1.0385,2.3959e-09,-0.87315,0,0,0.14286,-0,-0,0.66667
0.30726,0.72654,2.1508,0.33981,19.947,175.77,-1.949,0.64967,-1.5884,-2.5987,7.9167e-12,-0.7942,0,0,0.14286,6.7671e-16,0,0.66667
0.74287,0.56136,5.2001,0.092041,2.6419,30.214,-1.2763,0.42544,-1.9695,-1.7018,6.1168e-12,-0.98474,0,0,0.14286,1.6072e-15,0,0.66667
0.091276,0.13024,0.63893,-0.55464,-35.788,272.36,0.94501,-0.315,-0.90693,1.26,5.7168e-08,-0.45347,0,0,0.14286,3.3835e-16,0,0.66667
0.73558,0.53741,5.1491,0.056109,1.6498,31.786,-0.77043,0.25681,-1.9904,-1.0272,-1.4805e-12,-0.99519,0,0,0.14286,-0,-0,0.66667
0.61392,0.7415,4.2975,0.36226,14.585,63.475,-4.1514,1.3838,-1.5326,-5.5352,-8.9173e-13,-0.76628,0,0,0.14286,6.7671e-16,0,0.66667
0.74026,0.93412,5.1818,0.65118,19.137,31.735,-8.9982,2.9994,-0.4917,-11.998,4.7278e-12,-0.24585,0,0,0.14286,-2.0301e-15,0,0.66667
0.0090497,0.26556,0.063348,-0.35167,-22.814,310.58,0.059406,-0.019802,-1.5585,0.079208,1.5736e-07,-0.77924,0,0,0.14286,-2.1147e-17,0,0.66667
0.72047,0.90883,5.0433,0.61324,19.149,36.019,-8.2473,2.7491,-0.66461,-10.996,-4.4436e-12,-0.3323,0,0,0.14286,-0,-0,0.66667
0.32058,0.86544,2.2441,0.54817,31.984,170.33,-3.2804,1.0935,-0.92997,-4.3738,2.9647e-12,-0.46499,0,0,0.14286,3.3835e-16,0,0.66667
0.63297,0.80922,4.4308,0.46383,17.995,58.133,-5.4804,1.8268,-1.2342,-7.3072,-1.3625e-12,-0.61711,0,0,0.14286,1.0333e-15,0,0.66667
0.053837,0.48802,0.37686,-0.017965,-1.1599,289.67,0.018054,-0.0060184,-1.9971,0.024072,-4.0268e-07,-0.99855,0,0,0.14286,-0,-0,0.66667
0.55643,0.78756,3.895,0.43133,19.287,81.397,-4.4802,1.4934,-1.3374,-5.9736,9.9121e-13,-0.6687,0,0,0.14286,-1.3534e-15,0,0.66667
0.9416,0.29454,6.5912,-0.30819,-2.1337,2.3868,5.4168,-1.8056,-1.6613,7.2225,1.9915e-08,-0.83067,0,0,0.14286,-0,-0,0.66667
0.32009,0.57024,2.2406,0.10537,6.1183,170.26,-0.62955,0.20985,-1.9591,-0.8394,4.3913e-12,-0.97953,0,0,0.14286,-0,-0,0.66667
0.52274,0.47237,3.6592,-0.041452,-1.9441,92.335,0.40448,-0.13483,-1.993,0.53931,3.4309e-13,-0.99652,0,0,0.14286,-0,-0,0.66667
0.40771,0.63552,2.854,0.20328,10.963,134.69,-1.5471,0.5157,-1.854,-2.0628,-1.4644e-13,-0.927,0,0,0.14286,-0,-0,0.66667
0.56965,0.35774,3.9876,-0.21339,-9.3028,76.896,2.269,-0.75635,-1.8363,3.0254,-1.5543e-14,-0.91813,0,0,0.14286,-0,-0,0.66667
0.068319,0.51919,0.47823,0.028778,1.8546,282.93,-0.0367,0.012233,-1.9955,-0.048934,-4.6984e-08,-0.99775,0,0,0.14286,-0,-0,0.66667
0.36188,0.86321,2.5332,0.54482,30.783,153.28,-3.6803,1.2268,-0.94466,-4.9071,1.1586e-12,-0.47233,0,0,0.14286,3.3835e-16,0,0.66667
0.52066,0.050126,3.6446,-0.67481,-32.061,93.782,6.5585,-2.1862,-0.37959,8.7446,-1.3456e-13,-0.18979,0,0,0.14286,-6.1658e-16,0,0.66667
0.084824,0.046696,0.59377,-0.67996,-44.033,275.39,1.0766,-0.35888,-0.35431,1.4355,-1.9172e-07,-0.17715,0,0,0.14286,-0,-0,0.66667
0.46765,0.22172,3.2735,-0.41742,-21.139,112.14,3.6439,-1.2146,-1.3826,4.8585,3.9102e-13,-0.69132,0,0,0.14286,1.3534e-15,0,0.66667
0.77223,0.17722,5.4056,-0.48416,-12.604,24.747,6.9792,-2.3264,-1.1649,9.3056,-3.3859e-11,-0.58246,0,0,0.14286,-6.7671e-16,0,0.66667
0.443,0.71653,3.101,0.32479,16.902,121.21,-2.6859,0.89528,-1.6246,-3.5811,-5.1981e-13,-0.81231,0,0,0.14286,-0,-0,0.66667
0.39093,0.36022,2.7365,-0.20967,-11.492,141.31,1.53,-0.51,-1.8455,2.04,1.6601e-12,-0.92274,0,0,0.14286,-6.7671e-16,0,0.66667
0.27288,0.33928,1.9101,-0.24107,-14.451,190.45,1.228,-0.40932,-1.7924,1.6373,-2.2722e-12,-0.89618,0,0,0.14286,5.0753e-16,0,0.66667
0.051852,0.1545,0.36296,-0.51826,-33.61,290.64,0.50162,-0.16721,-1.045,0.66882,2.9217e-08,-0.5225,0,0,0.14286,-0,-0,0.66667
0.76182,0.7215,5.3328,0.33225,8.9531,26.508,-4.7248,1.5749,-1.6078,-6.2998,3.7537e-11,-0.80391,0,0,0.14286,-0,-0,0.66667
0.48578,0.75677,3.4005,0.38515,19.06,105.52,-3.4925,1.1642,-1.4739,-4.6567,-6.1418e-13,-0.73695,0,0,0.14286,-0,-0,0.66667
0.16135,0.88404,1.1294,0.57606,36.519,240.22,-1.735,0.57833,-0.81897,-2.3133,-8.8637e-10,-0.40949,0,0,0.14286,-3.3835e-16,0,0.66667
0.066079,0.95797,0.46255,0.68696,44.621,284.07,-0.84734,0.28245,-0.32152,-1.1298,-7.1822e-08,-0.16076,0,0,0.14286,-0,-0,0.66667
0.7579,0.037452,5.3053,-0.69382,-19.233,28.178,9.8158,-3.2719,-0.28712,13.088,-8.9395e-12,-0.14356,0,0,0.14286,-0,-0,0.66667
0.58841,0.78504,4.1189,0.42755,18.094,71.261,-4.6961,1.5654,-1.3495,-6.2615,3.9213e-13,-0.67476,0,0,0.14286,1.3534e-15,0,0.66667
0.55876,0.074462,3.9114,-0.63831,-28.58,81.026,6.6577,-2.2192,-0.55062,8.877,2.74e-13,-0.27531,0,0,0.14286,-0,6.4447e-17,0.66667
0.20632,0.73958,1.4443,0.35938,22.318,219.82,-1.3841,0.46137,-1.5405,-1.8455,-2.6601e-10,-0.77024,0,0,0.14286,-0,-0,0.66667
0.59434,0.29369,4.1604,-0.30947,-12.927,69.282,3.4334,-1.1445,-1.6611,4.5778,7.9736e-13,-0.83053,0,0,0.14286,-1.3534e-15,0,0.66667
0.93421,0.46812,6.5395,-0.047826,-0.36981,2.595,0.83401,-0.278,-1.9929,1.112,-2.4437e-08,-0.99644,0,0,0.14286,1.9455e-15,0,0.66667
0.72548,0.45783,5.0784,-0.063254,-1.9209,34.043,0.8566,-0.28553,-1.9841,1.1421,8.8163e-13,-0.99205,0,0,0.14286,-0,-0,0.66667
0.5866,0.51537,4.1062,0.023059,0.97467,71.489,-0.25249,0.084162,-1.9962,-0.33665,1.6603e-12,-0.99812,0,0,0.14286,-2.7068e-15,0,0.66667
0.8653,0.82494,6.0571,0.48742,7.8371,9.9012,-7.8728,2.6243,-1.1537,-10.497,5.0327e-09,-0.57685,0,0,0.14286,-1.3534e-15,0,0.66667
0.99657,0.72698,6.976,0.34047,-0.0053114,0.39883,-6.3336,2.1112,-1.5876,-8.4448,2.3564e-07,-0.79379,0,0,0.14286,-0,-1.1733e-17,0.66667
0.86511,0.50145,6.0558,0.0021719,0.034431,9.285,-0.035074,0.011691,-1.9998,-0.046765,9.8733e-09,-0.99989,0,0,0.14286,-0,-0,0.66667
0.17918,0.052346,1.2543,-0.67148,-42.384,232.21,2.2459,-0.74864,-0.39518,2.9946,1.1707e-09,-0.19759,0,0,0.14286,-0,-0,0.66667
0.69466,0.17494,4.8626,-0.48758,-16.319,41.839,6.3225,-2.1075,-1.1529,8.43,5.8535e-12,-0.57645,0,0,0.14286,-0,-0,0.66667
0.29623,0.45335,2.0736,-0.069972,-4.1299,180.36,0.38692,-0.12897,-1.9841,0.51589,4.8031e-13,-0.99203,0,0,0.14286,-6.7671e-16,0,0.66667
0.059534,0.045189,0.41674,-0.68222,-44.345,287.11,0.75815,-0.25272,-0.34483,1.0109,-3.0732e-06,-0.17242,0,0,0.14286,-0,-0,0.66667
0.10804,0.69653,0.75631,0.29479,18.89,264.54,-0.59454,0.19818,-1.6922,-0.79272,-1.1115e-08,-0.84608,0,0,0.14286,-0,-0,0.66667
0.76279,0.29964,5.3396,-0.30054,-8.0631,26.265,4.2793,-1.4264,-1.6786,5.7057,-4.2518e-11,-0.83932,0,0,0.14286,-0,-0,0.66667
