xi,eta,X,Y,uX,uY,epsilon_X,epsilon_Y,gamma_XY,sigma_XX,sigma_YY,sigma_XY,fx,fy,dxidx,dxidy,detadx,detady,
0.41702,0.7655,2.0851,0.39825,10.799,49.913,-2.2144,0.73812,-1.4351,-2.9525,1.4813e-12,-0.71757,0,0,0.2,-9.4739e-16,0,0.66667
0.72032,0.30817,3.6016,-0.28774,-4.4716,13.935,2.7636,-0.92119,-1.7066,3.6847,-2.4816e-11,-0.85328,0,0,0.2,-1.4211e-15,0,0.66667
0.00011437,0.73538,0.00057187,0.35307,11.609,118.17,-0.00053841,0.00017945,-1.5575,-0.00071788,-2.3072e-08,-0.77876,0,0,0.2,-0,-0,0.66667
0.30233,0.8122,1.5117,0.4683,14.016,67.347,-1.8878,0.62925,-1.2208,-2.517,-1.4573e-12,-0.61042,0,0,0.2,5.9212e-17,0,0.66667
0.14676,0.23669,0.73378,-0.39496,-12.715,92.922,0.77283,-0.25761,-1.4442,1.0304,1.586e-09,-0.72212,0,0,0.2,2.3685e-16,0,0.66667
0.092339,0.062824,0.46169,-0.65576,-21.582,102.28,0.80736,-0.26912,-0.47277,1.0765,1.9797e-07,-0.23639,0,0,0.2,-0,-0,0.66667
0.18626,0.62204,0.9313,0.18307,5.7901,86.205,-0.45464,0.15155,-1.8822,-0.60619,-2.3517e-10,-0.94108,0,0,0.2,-0,-0,0.66667
0.34556,0.94394,1.7278,0.66591,19.464,60.786,-3.0681,1.0227,-0.4239,-4.0909,1.4728e-12,-0.21195,0,0,0.2,-9.4739e-16,0,0.66667
0.39677,0.34766,1.9838,-0.22851,-6.2969,52.772,1.2089,-0.40295,-1.8141,1.6118,-2.2564e-12,-0.90707,0,0,0.2,-0,-0,0.66667
0.53882,0.43363,2.6941,-0.099561,-2.2981,33.278,0.71527,-0.23842,-1.9645,0.95369,9.5479e-14,-0.98224,0,0,0.2,-2.3685e-16,0,0.66667
0.41919,0.27723,2.096,-0.33416,-9.0251,49.556,1.8677,-0.62257,-1.6035,2.4903,-1.6367e-12,-0.80177,0,0,0.2,2.3685e-16,0,0.66667
0.68522,0.69207,3.4261,0.28811,4.9512,17.138,-2.6323,0.87742,-1.7055,-3.5097,2.3801e-12,-0.85274,0,0,0.2,-0,-0,0.66667
0.20445,0.18359,1.0223,-0.47461,-14.993,83.248,1.2938,-0.43126,-1.2002,1.7251,2.1349e-10,-0.60011,0,0,0.2,1.1842e-16,0,0.66667
0.87812,0.73211,4.3906,0.34817,2.4973,3.4752,-4.0764,1.3588,-1.5685,-5.4353,2.8061e-09,-0.78426,0,0,0.2,-0,-0,0.66667
0.027388,0.7503,0.13694,0.37544,12.341,113.45,-0.1371,0.0457,-1.4997,-0.1828,1.3609e-08,-0.74987,0,0,0.2,1.1842e-16,0,0.66667
0.67047,0.45507,3.3523,-0.067393,-1.1976,18.452,0.60246,-0.20082,-1.984,0.80328,-2.2565e-13,-0.992,0,0,0.2,-7.9399e-16,0,0.66667
0.4173,0.75403,2.0865,0.38104,10.325,49.86,-2.1201,0.70671,-1.4838,-2.8269,1.2312e-12,-0.7419,0,0,0.2,-0,-0,0.66667
0.55869,0.15501,2.7934,-0.51748,-11.707,31.143,3.8548,-1.2849,-1.0486,5.1398,5.6155e-13,-0.5243,0,0,0.2,1.1842e-16,0,0.66667
0.14039,0.66052,0.70193,0.24078,7.7418,93.974,-0.4507,0.15023,-1.7954,-0.60093,-4.0805e-10,-0.89772,0,0,0.2,-4.737e-16,0,0.66667
0.1981,0.29391,0.99051,-0.30913,-9.7504,84.248,0.81653,-0.27218,-1.6593,1.0887,4.4155e-10,-0.82965,0,0,0.2,-0,-0,0.66667
0.80074,0.44476,4.0037,-0.082854,-0.94322,7.6012,0.8846,-0.29487,-1.9754,1.1795,-2.3778e-10,-0.98768,0,0,0.2,1.8948e-15,0,0.66667
0.96826,0.8319,4.8413,0.49785,0.87423,0.92423,-6.4273,2.1424,-1.1194,-8.5697,-9.1353e-08,-0.5597,0,0,0.2,-0,-0,0.66667
0.31342,0.90051,1.5671,0.60077,17.933,65.699,-2.5106,0.83687,-0.71774,-3.3475,1.5552e-12,-0.35887,0,0,0.2,-0,-0,0.66667
0.69232,0.31828,3.4616,-0.27258,-4.593,16.453,2.5162,-0.83874,-1.7355,3.3549,-4.6005e-12,-0.86777,0,0,0.2,-1.8948e-15,0,0.66667
0.87639,0.17908,4.3819,-0.48138,-3.5566,3.7685,5.625,-1.875,-1.1766,7.5,-5.0823e-09,-0.58829,0,0,0.2,9.4739e-16,0,0.66667
0.89461,0.45874,4.473,-0.061888,-0.37606,2.5404,0.73821,-0.24607,-1.9858,0.98427,1.8065e-08,-0.99292,0,0,0.2,-0,-0,0.66667
0.085044,0.67898,0.42522,0.26847,8.7478,103.47,-0.30443,0.10148,-1.7429,-0.4059,1.1905e-09,-0.87143,0,0,0.2,5.9212e-17,0,0.66667
0.039055,0.41442,0.19527,-0.12837,-4.1997,111.41,0.066845,-0.022282,-1.9406,0.089127,1.2728e-09,-0.97028,0,0,0.2,-0,-0,0.66667
0.16983,0.056519,0.84915,-0.66522,-21.452,89.126,1.5063,-0.50211,-0.42711,2.0084,-8.1227e-10,-0.21356,0,0,0.2,4.5583e-16,-1.4661e-16,0.66667
0.87814,0.85403,4.3907,0.53104,3.8968,3.7878,-6.2177,2.0726,-0.997,-8.2903,2.2026e-09,-0.4985,0,0,0.2,-0,-0,0.66667
0.098347,0.88562,0.49173,0.57843,18.958,101.23,-0.75849,0.25283,-0.80964,-1.0113,-1.6373e-08,-0.40482,0,0,0.2,-0,-0,0.66667
0.42111,0.88824,2.1055,0.58236,15.835,49.493,-3.2698,1.0899,-0.79462,-4.3597,3.4217e-13,-0.39731,0,0,0.2,-0,2.3132e-16,0.66667
0.95789,0.4772,4.7894,-0.034205,-0.074097,0.59216,0.43686,-0.14562,-1.9953,0.58248,-4.0828e-08,-0.99763,0,0,0.2,-0,-0,0.66667
0.53317,0.77997,2.6658,0.41995,9.8509,34.186,-2.9854,0.99512,-1.3743,-3.9805,-1.4211e-14,-0.68715,0,0,0.2,-1.0658e-15,0,0.66667
0.69188,0.39922,3.4594,-0.15117,-2.5423,16.416,1.3946,-0.46485,-1.9184,1.8594,-4.5342e-12,-0.9592,0,0,0.2,-9.4739e-16,0,0.66667
0.31552,0.26626,1.5776,-0.35062,-10.364,65.205,1.475,-0.49167,-1.5624,1.9667,9.9987e-13,-0.78121,0,0,0.2,4.737e-16,0,0.66667
0.6865,0.27109,3.4325,-0.34337,-5.8932,17.069,3.143,-1.0477,-1.5813,4.1907,-1.7089e-12,-0.79065,0,0,0.2,-9.4739e-16,0,0.66667
0.83463,0.64719,4.1731,0.22078,2.1152,5.5686,-2.457,0.81899,-1.8258,-3.2759,6.7362e-10,-0.9129,0,0,0.2,-0,-0,0.66667
0.018288,0.040255,0.091441,-0.68962,-22.917,115.04,0.16816,-0.056053,-0.30901,0.22421,-1.3191e-06,-0.15451,0,0,0.2,-0,-0,0.66667
0.75014,0.38441,3.7507,-0.17338,-2.4315,11.358,1.7341,-0.57804,-1.8941,2.3122,-6.5367e-11,-0.94705,0,0,0.2,-0,-0,0.66667
0.98886,0.68293,4.9443,0.27439,0.063992,0.26494,-3.6178,1.2059,-1.7323,-4.8237,7.9983e-09,-0.86614,0,0,0.2,9.4739e-16,0,0.66667
0.74817,0.69364,3.7408,0.29045,4.1184,11.607,-2.8974,0.96581,-1.7006,-3.8633,7.7751e-11,-0.85031,0,0,0.2,-0,-0,0.66667
0.28044,0.87009,1.4022,0.55513,16.903,70.885,-2.0758,0.69192,-0.90548,-2.7677,-4.9585e-12,-0.45274,0,0,0.2,4.029e-16,-1.3139e-16,0.66667
0.78928,0.78155,3.9464,0.42232,5.1394,8.6861,-4.4444,1.4815,-1.3663,-5.9258,2.2513e-10,-0.68313,0,0,0.2,-0,-0,0.66667
0.10323,0.17645,0.51613,-0.48532,-15.84,100.37,0.66797,-0.22266,-1.1615,0.89063,8.1293e-09,-0.58076,0,0,0.2,-1.1842e-16,0,0.66667
0.44789,0.24052,2.2395,-0.38921,-10.205,45.515,2.3244,-0.77478,-1.4606,3.0991,-6.5459e-13,-0.73031,0,0,0.2,-4.737e-16,0,0.66667
0.9086,0.94322,4.543,0.66483,3.783,2.8899,-8.0542,2.6847,-0.42886,-10.739,1.3744e-07,-0.21443,0,0,0.2,1.8948e-15,0,0.66667
0.29361,0.66536,1.4681,0.24804,7.4265,68.625,-0.97106,0.32369,-1.781,-1.2947,-1.2478e-11,-0.89049,0,0,0.2,-0,-0,0.66667
0.28778,0.26459,1.4389,-0.35312,-10.636,69.597,1.3549,-0.45164,-1.5555,1.8066,1.4991e-11,-0.77773,0,0,0.2,-4.737e-16,0,0.66667
0.13003,0.17012,0.65014,-0.49481,-16.052,95.795,0.85786,-0.28595,-1.1285,1.1438,4.2341e-09,-0.56424,0,0,0.2,-0,-0,0.66667
0.019367,0.14803,0.096835,-0.52795,-17.436,114.84,0.13633,-0.045443,-1.0087,0.18177,-9.3369e-08,-0.50433,0,0,0.2,-2.9606e-17,0,0.66667
0.67884,0.90997,3.3942,0.61495,10.935,18.196,-5.566,1.8553,-0.65517,-7.4214,-1.1888e-12,-0.32759,0,0,0.2,-0,-0,0.66667
0.21163,0.77616,1.0581,0.41424,13.022,82.031,-1.1689,0.38962,-1.3894,-1.5585,-2.2345e-10,-0.69472,0,0,0.2,3.6216e-16,0,0.66667
0.26555,0.28807,1.3277,-0.3179,-9.6973,73.156,1.1256,-0.37519,-1.642,1.5007,4.523e-11,-0.82098,0,0,0.2,-0,-0,0.66667
0.49157,0.74725,2.4579,0.37088,9.2118,39.533,-2.4309,0.81028,-1.5109,-3.2411,3.3218e-13,-0.75543,0,0,0.2,-3.5527e-16,0,0.66667
0.053363,0.86256,0.26681,0.54385,17.926,108.97,-0.38695,0.12898,-0.94726,-0.51593,-8.6247e-08,-0.47363,0,0,0.2,-6.3194e-17,0,0.66667
0.57412,0.61368,2.8706,0.17051,3.716,28.992,-1.3053,0.43509,-1.896,-1.7404,-7.0155e-13,-0.94799,0,0,0.2,-9.4739e-16,0,0.66667
0.14673,0.9395,0.73364,0.65924,21.414,93.018,-1.2897,0.42991,-0.45489,-1.7196,-2.0919e-09,-0.22745,0,0,0.2,-4.737e-16,0,0.66667
0.58931,0.60561,2.9465,0.15841,3.3584,27.205,-1.2447,0.41491,-1.91,-1.6596,-1.2381e-12,-0.955,0,0,0.2,-0,-0,0.66667
0.69976,0.10229,3.4988,-0.59657,-10.021,16.201,5.5661,-1.8554,-0.73436,7.4214,5.3113e-13,-0.36718,0,0,0.2,-0,-0,0.66667
0.10233,0.98938,0.51167,0.73408,24.195,100.6,-1.0016,0.33387,-0.082973,-1.3355,2.5283e-08,-0.041487,0,0,0.2,-0,-0,0.66667
0.41406,0.98682,2.0703,0.73022,20.146,50.687,-4.0314,1.3438,-0.10288,-5.3752,6.2172e-15,-0.051439,0,0,0.2,-0,-0,0.66667
0.6944,0.90075,3.472,0.60113,10.25,16.702,-5.5656,1.8552,-0.71469,-7.4208,-8.34e-13,-0.35734,0,0,0.2,-1.4211e-15,0,0.66667
0.41418,0.73179,2.0709,0.34769,9.4423,50.289,-1.9201,0.64002,-1.569,-2.5601,1.1471e-12,-0.78449,0,0,0.2,-0,-0,0.66667
0.049953,0.96362,0.24977,0.69543,23.066,109.58,-0.46319,0.1544,-0.28072,-0.61758,-3.3521e-07,-0.14036,0,0,0.2,-0,-0,0.66667
0.5359,0.99431,2.6795,0.74146,17.608,34.287,-5.298,1.766,-0.045041,-7.064,2.1183e-13,-0.022521,0,0,0.2,2.3685e-16,0,0.66667
0.66379,0.020758,3.319,-0.71886,-13.37,19.871,6.3624,-2.1208,-0.16156,8.4832,4.1345e-13,-0.080779,0,0,0.2,-0,-0,0.66667
0.51489,0.16433,2.5744,-0.50351,-12.173,36.606,3.4567,-1.1522,-1.0994,4.6089,1.6276e-13,-0.54971,0,0,0.2,-0,-0,0.66667
0.94459,0.88471,4.723,0.57707,1.9351,1.5936,-7.268,2.4227,-0.81498,-9.6906,4.0027e-09,-0.40749,0,0,0.2,-0,-0,0.66667
0.58656,0.11667,2.9328,-0.575,-12.434,27.923,4.4969,-1.499,-0.82357,5.9959,8.7308e-13,-0.41179,0,0,0.2,-9.4739e-16,0,0.66667
0.9034,0.45466,4.517,-0.068006,-0.37745,2.1986,0.81916,-0.27305,-1.9831,1.0922,5.2583e-09,-0.99157,0,0,0.2,-1.8948e-15,0,0.66667
0.13747,0.83135,0.68737,0.49702,16.092,94.528,-0.91104,0.30368,-1.1212,-1.2147,-3.8812e-09,-0.56061,0,0,0.2,2.3685e-16,0,0.66667
0.13928,0.69424,0.69638,0.29136,9.3793,94.172,-0.54106,0.18035,-1.6989,-0.72142,-1.8823e-09,-0.84943,0,0,0.2,-0,-0,0.66667
0.80739,0.69526,4.037,0.29288,3.2538,7.3043,-3.153,1.051,-1.6944,-4.204,5.1294e-10,-0.84721,0,0,0.2,-1.8948e-15,0,0.66667
0.39768,0.57866,1.9884,0.11799,3.2439,52.604,-0.62562,0.20854,-1.9493,-0.83416,4.9594e-13,-0.97464,0,0,0.2,-4.737e-16,0,0.66667
0.16535,0.083831,0.82677,-0.62425,-20.128,89.858,1.3763,-0.45877,-0.61346,1.8351,1.0618e-09,-0.30673,0,0,0.2,-0,-0,0.66667
0.92751,0.26774,4.6375,-0.34839,-1.4633,1.6183,4.3085,-1.4362,-1.5674,5.7447,4.9932e-09,-0.78369,0,0,0.2,-1.8948e-15,0,0.66667
0.34777,0.76325,1.7388,0.39487,11.404,60.227,-1.831,0.61033,-1.4449,-2.4413,2.7276e-12,-0.72243,0,0,0.2,-0,-0,0.66667
0.75081,0.874,3.7541,0.56101,8.0144,11.78,-5.6161,1.872,-0.88285,-7.4882,3.2732e-11,-0.44143,0,0,0.2,-1.0066e-15,0,0.66667
0.726,0.49922,3.63,-0.0011652,-0.017688,13.311,0.011279,-0.0037598,-2.0003,0.015039,2.2423e-12,-1.0002,0,0,0.2,2.8422e-15,0,0.66667
0.88331,0.57864,4.4165,0.11796,0.79703,3.0352,-1.3893,0.46309,-1.9493,-1.8524,-2.2616e-09,-0.97464,0,0,0.2,-0,-0,0.66667
0.62367,0.62708,3.1184,0.19062,3.7786,23.359,-1.5852,0.52839,-1.8722,-2.1135,-1.9014e-12,-0.93612,0,0,0.2,-0,-0,0.66667
0.75094,0.38512,3.7547,-0.17233,-2.4098,11.294,1.7254,-0.57514,-1.895,2.3006,-6.6765e-11,-0.94748,0,0,0.2,-0,-0,0.66667
0.3489,0.51957,1.7445,0.029352,0.84222,59.934,-0.13655,0.045516,-1.996,-0.18206,2.1615e-13,-0.99802,0,0,0.2,-0,-0,0.66667
0.26993,0.39182,1.3496,-0.16228,-4.9248,72.403,0.58404,-0.19468,-1.9055,0.77871,3.1272e-11,-0.95277,0,0,0.2,-0,-0,0.66667
0.89589,0.25282,4.4794,-0.37077,-2.2761,2.7551,4.4289,-1.4763,-1.5113,5.9052,-2.371e-09,-0.75566,0,0,0.2,-0,-0,0.66667
0.42809,0.5703,2.1405,0.10546,2.8107,48.183,-0.60194,0.20065,-1.9597,-0.80258,5.3091e-13,-0.97986,0,0,0.2,-0,-0,0.66667
0.96484,0.92833,4.8242,0.64249,1.3798,1.3377,-8.2653,2.7551,-0.53184,-11.02,-3.4303e-07,-0.26592,0,0,0.2,-0,-0,0.66667
0.66344,0.16741,3.3172,-0.49889,-9.1478,19.512,4.4131,-1.471,-1.114,5.8841,2.5411e-12,-0.55698,0,0,0.2,-0,-0,0.66667
0.6217,0.76088,3.1085,0.39132,7.8364,23.736,-3.2438,1.0813,-1.4551,-4.3251,-2.6976e-12,-0.72755,0,0,0.2,-0,-0,0.66667
0.11475,0.42252,0.57373,-0.11621,-3.7566,98.345,0.1778,-0.059267,-1.9509,0.23707,-2.7479e-09,-0.97547,0,0,0.2,-0,-0,0.66667
0.94949,0.59068,4.7474,0.13602,0.36973,0.81489,-1.722,0.574,-1.9347,-2.296,-5.2104e-09,-0.96733,0,0,0.2,-1.8948e-15,0,0.66667
0.44991,0.59821,2.2496,0.14731,3.8339,45.103,-0.88371,0.29457,-1.9232,-1.1783,5.2575e-13,-0.96158,0,0,0.2,-0,-0,0.66667
0.57839,0.016081,2.8919,-0.72588,-16.075,29.126,5.5979,-1.866,-0.12723,7.4638,-2.3981e-14,-0.063615,0,0,0.2,-0,-0,0.66667
0.40814,0.79667,2.0407,0.44501,12.194,51.237,-2.4216,0.80722,-1.2958,-3.2289,1.4879e-12,-0.64791,0,0,0.2,-9.4739e-16,0,0.66667
0.23703,0.047652,1.1851,-0.67852,-21.275,77.993,2.1444,-0.71479,-0.36269,2.8592,7.1818e-12,-0.18135,0,0,0.2,-0,-0,0.66667
0.90338,0.069426,4.5169,-0.64586,-3.8619,3.0276,7.7794,-2.5931,-0.51694,10.373,-1.7648e-08,-0.25847,0,0,0.2,-0,1.7507e-16,0.66667
0.57368,0.45803,2.8684,-0.062959,-1.3715,29.012,0.48157,-0.16052,-1.9852,0.6421,3.9604e-13,-0.9926,0,0,0.2,4.737e-16,0,0.66667
0.0028703,0.76336,0.014352,0.39504,13.001,117.7,-0.015119,0.0050395,-1.4447,-0.020158,-6.7779e-08,-0.72237,0,0,0.2,-0,-0,0.66667
0.61714,0.86404,3.0857,0.54606,11.12,24.433,-4.4933,1.4978,-0.9387,-5.9911,-1.7284e-12,-0.46935,0,0,0.2,9.4739e-16,0,0.66667
0.32664,0.70793,1.6332,0.31189,9.1366,63.447,-1.3584,0.45279,-1.6544,-1.8112,-1.0469e-13,-0.82719,0,0,0.2,4.737e-16,0,0.66667
0.52706,0.94802,2.6353,0.67203,16.101,35.281,-4.7226,1.5742,-0.39362,-6.2968,2.2604e-13,-0.19681,0,0,0.2,-0,-0,0.66667
0.88594,0.046994,4.4297,-0.67951,-4.8012,3.8027,8.0267,-2.6756,-0.35736,10.702,-5.7947e-10,-0.17868,0,0,0.2,-0,-0,0.66667
0.35727,0.87399,1.7863,0.56098,16.168,58.902,-2.6723,0.89077,-0.88239,-3.5631,1.6707e-12,-0.4412,0,0,0.2,7.1054e-16,-2.2177e-16,0.66667
0.90854,0.80798,4.5427,0.46198,2.5209,2.4305,-5.5963,1.8654,-1.2418,-7.4617,1.5869e-08,-0.6209,0,0,0.2,-9.4739e-16,0,0.66667
0.62336,0.040489,3.1168,-0.68927,-13.985,24.001,5.7288,-1.9096,-0.3111,7.6384,5.9508e-14,-0.15555,0,0,0.2,-0,-0,0.66667
0.015821,0.82076,0.079106,0.48114,15.869,115.45,-0.1015,0.033832,-1.178,-0.13533,3.2895e-08,-0.58898,0,0,0.2,-0,-0,0.66667
0.92944,0.52135,4.6472,0.032029,0.12671,1.3123,-0.39692,0.13231,-1.9953,-0.52922,2.4337e-08,-0.99767,0,0,0.2,-0,-0,0.66667
0.6909,0.64605,3.4545,0.21908,3.6999,16.547,-2.0181,0.67272,-1.829,-2.6909,4.9036e-12,-0.91448,0,0,0.2,-9.4739e-16,0,0.66667
0.99732,0.52553,4.9866,0.038299,-0.015452,0.023416,-0.50929,0.16976,-1.9951,-0.67905,2.6738e-06,-0.99756,0,0,0.2,-0,-0,0.66667
0.17234,0.77014,0.8617,0.40521,12.939,88.598,-0.93113,0.31038,-1.4169,-1.2415,-9.1538e-10,-0.70844,0,0,0.2,-0,-0,0.66667
0.13714,0.44245,0.68568,-0.086328,-2.7738,94.513,0.15785,-0.052616,-1.9737,0.21046,4.2473e-09,-0.98684,0,0,0.2,-0,-0,0.66667
0.9326,0.1066,4.663,-0.5901,-2.4312,1.9393,7.3376,-2.4459,-0.76099,9.7835,-1.1114e-07,-0.38049,0,0,0.2,1.8948e-15,0,0.66667
0.69682,0.7649,3.4841,0.39735,6.647,16.164,-3.6917,1.2306,-1.4375,-4.9223,3.8052e-12,-0.71873,0,0,0.2,-0,-0,0.66667
0.066,0.68562,0.33,0.27842,9.1004,106.75,-0.24501,0.081672,-1.7251,-0.32669,5.7168e-09,-0.86253,0,0,0.2,-4.4409e-17,0,0.66667
0.75546,0.78652,3.7773,0.42977,5.9813,11.196,-4.3291,1.443,-1.343,-5.7721,7.0955e-11,-0.67148,0,0,0.2,-0,-0,0.66667
0.75388,0.82434,3.7694,0.48651,6.8361,11.408,-4.8903,1.6301,-1.1578,-6.5204,5.5658e-11,-0.57889,0,0,0.2,-0,-0,0.66667
0.92302,0.66459,4.6151,0.24688,1.0897,1.6325,-3.0384,1.0128,-1.7839,-4.0512,-9.2578e-09,-0.89195,0,0,0.2,-0,-0,0.66667
0.71152,0.45153,3.5576,-0.072711,-1.1546,14.588,0.68981,-0.22994,-1.98,0.91975,-7.2718e-12,-0.98999,0,0,0.2,-0,-0,0.66667
0.12427,0.41282,0.62135,-0.13077,-4.2176,96.714,0.21667,-0.072225,-1.9402,0.2889,4.8576e-09,-0.9701,0,0,0.2,-0,-0,0.66667
0.01988,0.41813,0.099401,-0.12281,-4.0223,114.74,0.032553,-0.010851,-1.9456,0.043404,-1.8374e-07,-0.97282,0,0,0.2,2.9606e-17,0,0.66667
0.026211,0.61218,0.13105,0.16828,5.5121,113.64,-0.058809,0.019603,-1.8984,-0.078412,-6.9239e-08,-0.94919,0,0,0.2,-0,-0,0.66667
0.028306,0.29358,0.14153,-0.30963,-10.163,113.28,0.11686,-0.038953,-1.6588,0.15581,-4.9464e-09,-0.82938,0,0,0.2,5.9212e-17,0,0.66667
0.24621,0.89366,1.2311,0.59049,18.359,76.435,-1.9385,0.64616,-0.75959,-2.5846,-2.0567e-11,-0.3798,0,0,0.2,-0,-0,0.66667
0.86003,0.69778,4.3001,0.29667,2.4286,4.2727,-3.4019,1.134,-1.6877,-4.5359,1.7256e-09,-0.84386,0,0,0.2,-0,-0,0.66667
0.53883,0.42705,2.6942,-0.10943,-2.5261,33.278,0.78618,-0.26206,-1.9564,1.0482,1.9545e-13,-0.97818,0,0,0.2,-4.737e-16,0,0.66667
0.55282,0.46517,2.7641,-0.052249,-1.179,31.531,0.38512,-0.12837,-1.9902,0.5135,3.8791e-13,-0.99509,0,0,0.2,-4.737e-16,0,0.66667
0.84203,0.49463,4.2102,-0.008057,-0.073445,5.0591,0.090457,-0.030152,-2.0005,0.12061,9.3209e-10,-1.0002,0,0,0.2,-0,-0,0.66667
0.12417,0.052057,0.62087,-0.67191,-21.974,96.85,1.1125,-0.37082,-0.39534,1.4833,1.6391e-08,-0.19767,0,0,0.2,-0,-0,0.66667
0.27918,0.28218,1.3959,-0.32673,-9.8878,70.961,1.2163,-0.40542,-1.6218,1.6217,2.5079e-11,-0.81089,0,0,0.2,-9.4739e-16,0,0.66667
0.58576,0.087677,2.9288,-0.61848,-13.427,28.082,4.8304,-1.6101,-0.63931,6.4406,4.3343e-13,-0.31965,0,0,0.2,-4.737e-16,0,0.66667
0.9696,0.42581,4.848,-0.11128,-0.15865,0.39455,1.4387,-0.47955,-1.9564,1.9182,2.6508e-07,-0.97822,0,0,0.2,9.4739e-16,0,0.66667
0.56103,0.82255,2.8052,0.48383,10.887,30.818,-3.6193,1.2064,-1.168,-4.8257,-6.5903e-13,-0.58399,0,0,0.2,-0,-0,0.66667
0.018647,0.95834,0.093236,0.68752,22.845,114.97,-0.17094,0.05698,-0.31907,-0.22791,2.1986e-06,-0.15953,0,0,0.2,-1.4803e-17,0,0.66667
0.80063,0.53649,4.0032,0.054737,0.62323,7.6018,-0.58432,0.19477,-1.9894,-0.7791,-1.1636e-11,-0.9947,0,0,0.2,-1.8948e-15,0,0.66667
0.23297,0.36165,1.1649,-0.20753,-6.4303,78.44,0.64465,-0.21488,-1.847,0.85953,1.3357e-10,-0.92351,0,0,0.2,-0,-0,0.66667
0.80711,0.7965,4.0355,0.44475,4.9995,7.5238,-4.7861,1.5954,-1.2957,-6.3815,3.9381e-10,-0.64783,0,0,0.2,-0,-0,0.66667
0.38786,0.95404,1.9393,0.68106,19.217,54.445,-3.5221,1.174,-0.3504,-4.6961,3.6393e-13,-0.1752,0,0,0.2,-0,-2.3604e-16,0.66667
0.86354,0.49395,4.3177,-0.0090723,-0.071605,3.929,0.10446,-0.034819,-1.9995,0.13928,-8.1326e-09,-0.99977,0,0,0.2,1.8948e-15,0,0.66667
0.74712,0.21536,3.7356,-0.42696,-6.1195,11.853,4.2532,-1.4177,-1.3525,5.6709,-5.4686e-11,-0.67623,0,0,0.2,1.4054e-15,0,0.66667
0.55624,0.57963,2.7812,0.11945,2.6818,31.127,-0.88589,0.2953,-1.9481,-1.1812,-7.2903e-13,-0.97406,0,0,0.2,-0,-0,0.66667
0.13646,0.13934,0.68228,-0.54099,-17.546,94.715,0.98428,-0.32809,-0.95859,1.3124,-1.7069e-10,-0.47929,0,0,0.2,-2.3685e-16,0,0.66667
0.059918,0.79638,0.29959,0.44457,14.597,107.82,-0.35517,0.11839,-1.2969,-0.47355,2.768e-09,-0.64847,0,0,0.2,-1.1842e-16,0,0.66667
0.12134,0.67439,0.60672,0.26159,8.4573,97.229,-0.42323,0.14108,-1.7561,-0.56431,-1.6711e-09,-0.87803,0,0,0.2,-0,-0,0.66667
0.044552,0.78309,0.22276,0.42464,13.958,110.48,-0.25224,0.084081,-1.36,-0.33633,2.355e-08,-0.67998,0,0,0.2,-0,-0,0.66667
0.10749,0.66305,0.53747,0.24457,7.9307,99.601,-0.35053,0.11684,-1.7878,-0.46738,2.4089e-09,-0.8939,0,0,0.2,-0,-0,0.66667
0.22571,0.069303,1.1285,-0.64604,-20.341,79.826,1.9442,-0.64808,-0.51533,2.5923,1.9016e-11,-0.25766,0,0,0.2,-0,-0,0.66667
0.71299,0.38368,3.5649,-0.17448,-2.7631,14.497,1.6587,-0.55289,-1.891,2.2116,-1.5769e-11,-0.94549,0,0,0.2,-0,-0,0.66667
0.55972,0.083583,2.7986,-0.62462,-14.186,31.171,4.6615,-1.5538,-0.61258,6.2153,3.1619e-13,-0.30629,0,0,0.2,-0,-3.1575e-16,0.66667
0.012556,0.90984,0.06278,0.61475,20.371,116.02,-0.10292,0.034305,-0.65679,-0.13722,-8.6694e-07,-0.3284,0,0,0.2,2.9606e-17,-2.8185e-16,0.66667
0.071974,0.96087,0.35987,0.69131,22.864,105.79,-0.66342,0.22114,-0.30002,-0.88456,-6.0277e-07,-0.15001,0,0,0.2,1.1842e-16,0,0.66667
0.96728,0.87002,4.8364,0.55503,1.0446,1.0705,-7.1582,2.3861,-0.90558,-9.5442,-1.258e-07,-0.45279,0,0,0.2,-1.8948e-15,0,0.66667
0.5681,0.29118,2.8405,-0.31323,-6.9204,29.797,2.3726,-0.79087,-1.6503,3.1635,8.9462e-13,-0.82515,0,0,0.2,9.4739e-16,0,0.66667
0.20329,0.30427,1.0165,-0.29359,-9.237,83.378,0.79581,-0.26527,-1.6946,1.0611,3.7676e-10,-0.8473,0,0,0.2,-2.3685e-16,0,0.66667
0.25233,0.6315,1.2616,0.19724,6.049,75.267,-0.66359,0.2212,-1.862,-0.88479,-6.671e-11,-0.93101,0,0,0.2,-0,-0,0.66667
0.74383,0.86372,3.7191,0.54558,7.9743,12.31,-5.4109,1.8036,-0.94064,-7.2145,2.0648e-11,-0.47032,0,0,0.2,-0,-0,0.66667
0.19543,0.70603,0.97715,0.30905,9.7585,84.695,-0.80529,0.26843,-1.6592,-1.0737,-4.7851e-10,-0.82961,0,0,0.2,2.3685e-16,0,0.66667
0.58136,0.27133,2.9068,-0.34301,-7.4111,28.251,2.6588,-0.88628,-1.5813,3.5451,1.17e-12,-0.79067,0,0,0.2,4.737e-16,0,0.66667
0.97002,0.50071,4.8501,0.0010632,0.0014718,0.36066,-0.013751,0.004579,-2.0017,-0.018337,-7.0362e-06,-1.0009,0,0,0.2,-0,-0,0.66667
0.84683,0.79527,4.2341,0.4429,4.008,5.1647,-5.0008,1.6669,-1.3021,-6.6677,1.6333e-09,-0.65103,0,0,0.2,-0,-0,0.66667
0.23985,0.60418,1.1992,0.15627,4.8222,77.3,-0.49976,0.16659,-1.9123,-0.66634,-8.9118e-11,-0.95615,0,0,0.2,-4.737e-16,0,0.66667
0.49377,0.38588,2.4688,-0.17118,-4.2202,39.122,1.127,-0.37566,-1.8948,1.5026,-2.6601e-13,-0.9474,0,0,0.2,-0,-0,0.66667
0.61996,0.74546,3.0998,0.36819,7.3929,23.902,-3.0435,1.0145,-1.5179,-4.058,-2.353e-12,-0.75893,0,0,0.2,-1.4211e-15,0,0.66667
0.82898,0.13694,4.1449,-0.54459,-5.5279,6.3544,6.0194,-2.0065,-0.94594,8.0259,-2.5654e-10,-0.47297,0,0,0.2,-0,-0,0.66667
0.15679,0.99325,0.78396,0.73987,24.044,91.357,-1.5467,0.51558,-0.054733,-2.0623,-1.1881e-09,-0.027367,0,0,0.2,3.5527e-16,0,0.66667
0.018576,0.083942,0.092881,-0.62409,-20.684,114.98,0.15458,-0.051525,-0.61494,0.2061,-1.1045e-07,-0.30747,0,0,0.2,-1.4803e-17,0,0.66667
0.070022,0.79263,0.35011,0.43894,14.391,106.08,-0.40981,0.1366,-1.3138,-0.54641,-3.7678e-11,-0.65692,0,0,0.2,-0,-0,0.66667
0.48635,0.22987,2.4317,-0.4052,-10.145,40.26,2.6276,-0.87586,-1.4163,3.5034,-3.8547e-13,-0.70813,0,0,0.2,-0,-0,0.66667
0.60633,0.37903,3.0316,-0.18145,-3.7251,25.273,1.4669,-0.48897,-1.8834,1.9559,1.5729e-12,-0.94169,0,0,0.2,-0,-0,0.66667
0.56885,0.14636,2.8443,-0.53046,-11.806,29.939,4.0233,-1.3411,-0.99858,5.3645,5.56e-13,-0.49929,0,0,0.2,-0,-0,0.66667
0.31736,0.37352,1.5868,-0.18972,-5.5834,64.854,0.80279,-0.2676,-1.8725,1.0704,2.2275e-12,-0.93623,0,0,0.2,-1.7764e-16,0,0.66667
0.98862,0.025421,4.9431,-0.71187,-0.49602,1.2154,9.3835,-3.1279,-0.19805,12.511,-1.2918e-05,-0.099024,0,0,0.2,-9.4739e-16,0,0.66667
0.57975,0.7844,2.8987,0.4266,9.2721,28.523,-3.2976,1.0992,-1.3541,-4.3967,-6.1817e-13,-0.67703,0,0,0.2,-1.8948e-15,0,0.66667
0.38014,0.34034,1.9007,-0.2395,-6.7041,55.245,1.2139,-0.40463,-1.7961,1.6185,-2.0897e-12,-0.89805,0,0,0.2,-4.737e-16,0,0.66667
0.55095,0.34642,2.7547,-0.23037,-5.2264,31.823,1.6923,-0.5641,-1.8117,2.2564,6.2816e-13,-0.90585,0,0,0.2,-0,-0,0.66667
0.74533,0.65726,3.7267,0.23588,3.3708,11.788,-2.3442,0.78139,-1.8027,-3.1256,6.7201e-11,-0.90137,0,0,0.2,-0,-0,0.66667
0.66923,0.98039,3.3462,0.72058,13.229,19.339,-6.4298,2.1433,-0.15359,-8.5731,-1.612e-13,-0.076797,0,0,0.2,-0,-0,0.66667
0.26492,0.49757,1.3246,-0.0036445,-0.11083,73.198,0.012873,-0.0042912,-2.0016,0.017165,5.1023e-12,-1.0008,0,0,0.2,7.6975e-16,0,0.66667
0.066335,0.40013,0.33167,-0.1498,-4.8875,106.69,0.1325,-0.044165,-1.9201,0.17666,-2.0447e-08,-0.96006,0,0,0.2,1.1842e-16,0,0.66667
0.37008,0.11586,1.8504,-0.57621,-16.439,56.981,2.8433,-0.94776,-0.81883,3.791,-9.6967e-13,-0.40942,0,0,0.2,-4.737e-16,0,0.66667
0.62972,0.21454,3.1486,-0.4282,-8.4449,22.91,3.5952,-1.1984,-1.3481,4.7937,2.5184e-12,-0.67403,0,0,0.2,9.4739e-16,0,0.66667
0.21017,0.31647,1.0509,-0.2753,-8.6323,82.228,0.77147,-0.25716,-1.7303,1.0286,2.8834e-10,-0.86513,0,0,0.2,4.737e-16,0,0.66667
0.75276,0.78244,3.7638,0.42366,5.9516,11.4,-4.2522,1.4174,-1.3629,-5.6696,6.2719e-11,-0.68144,0,0,0.2,-0,-0,0.66667
0.066536,0.79272,0.33268,0.43907,14.403,106.68,-0.38953,0.12984,-1.3139,-0.51937,3.4618e-09,-0.65694,0,0,0.2,-0,-0,0.66667
0.26032,0.77512,1.3016,0.41268,12.656,74.043,-1.4324,0.47746,-1.3941,-1.9098,-4.6288e-11,-0.69703,0,0,0.2,4.737e-16,0,0.66667
0.80475,0.67466,4.0238,0.262,2.9431,7.4457,-2.8112,0.93708,-1.7547,-3.7483,4.1992e-10,-0.87737,0,0,0.2,9.4739e-16,0,0.66667
0.19343,0.05046,0.96717,-0.67431,-21.561,85.183,1.7391,-0.57971,-0.38227,2.3188,-2.2656e-12,-0.19113,0,0,0.2,2.3685e-16,0,0.66667
0.63946,0.055376,3.1973,-0.66694,-13.059,22.247,5.6864,-1.8955,-0.41921,7.5819,5.8131e-13,-0.2096,0,0,0.2,-0,-1.6674e-16,0.66667
0.52467,0.41447,2.6234,-0.1283,-3.0267,35.076,0.89751,-0.29917,-1.9407,1.1967,-6.9944e-14,-0.97033,0,0,0.2,9.4739e-16,0,0.66667
0.92481,0.049945,4.624,-0.67508,-3.1821,2.3879,8.3243,-2.7748,-0.37921,11.099,-7.3737e-08,-0.18961,0,0,0.2,9.4739e-16,0,0.66667
0.2633,0.1957,1.3165,-0.45646,-13.993,73.583,1.6024,-0.53415,-1.2593,2.1366,2.8484e-11,-0.62967,0,0,0.2,-0,-0,0.66667
0.065961,0.014927,0.32981,-0.72761,-24.123,106.83,0.63992,-0.21331,-0.11702,0.85322,-9.1846e-08,-0.058512,0,0,0.2,2.3685e-16,0,0.66667
0.73507,0.81244,3.6753,0.46866,7.0144,12.901,-4.5932,1.5311,-1.2212,-6.1243,2.2542e-11,-0.6106,0,0,0.2,-0,-0,0.66667
0.77218,0.33477,3.8609,-0.24785,-3.2067,9.7127,2.5518,-0.85059,-1.7807,3.4024,-1.5817e-10,-0.89035,0,0,0.2,-9.4739e-16,0,0.66667
0.90782,0.26441,4.5391,-0.35339,-1.9113,2.2777,4.2775,-1.4258,-1.556,5.7033,-2.2451e-09,-0.77802,0,0,0.2,-1.8948e-15,0,0.66667
0.93197,0.019914,4.6599,-0.72013,-3.122,2.3097,8.9485,-2.9828,-0.15519,11.931,-8.1797e-08,-0.077597,0,0,0.2,1.8948e-15,0,0.66667
0.013952,0.031277,0.069758,-0.70308,-23.382,115.79,0.13079,-0.043585,-0.24408,0.17439,1.6736e-05,-0.12204,0,0,0.2,-0,-0,0.66667
0.23436,0.086751,1.1718,-0.61987,-19.413,78.389,1.937,-0.64567,-0.6351,2.5827,2.8196e-11,-0.31755,0,0,0.2,-2.3685e-16,1.6467e-16,0.66667
0.61678,0.47309,3.0839,-0.040361,-0.81009,24.067,0.33191,-0.11064,-1.9939,0.44255,3.3537e-13,-0.99693,0,0,0.2,-0,-0,0.66667
0.94902,0.076726,4.7451,-0.63491,-1.998,1.6371,8.0339,-2.678,-0.56594,10.712,-2.9735e-07,-0.28297,0,0,0.2,-0,7.0289e-17,0.66667
0.95018,0.57818,4.7509,0.11728,0.3131,0.78883,-1.4858,0.49526,-1.9506,-1.981,-4.7919e-08,-0.97532,0,0,0.2,-0,-0,0.66667
0.55665,0.69103,2.7833,0.28655,6.4491,31.16,-2.1268,0.70892,-1.708,-2.8357,-6.3749e-13,-0.85398,0,0,0.2,-0,-0,0.66667
0.91561,0.67466,4.578,0.26199,1.2776,1.8911,-3.1984,1.0661,-1.7548,-4.2645,3.9381e-10,-0.87742,0,0,0.2,9.4739e-16,0,0.66667
0.64157,0.022684,3.2078,-0.71597,-14.005,22.124,6.1246,-2.0415,-0.17803,8.1661,3.153e-13,-0.089014,0,0,0.2,-9.4739e-16,0,0.66667
0.39001,0.92783,1.95,0.64175,18.038,54.083,-3.3372,1.1124,-0.53639,-4.4496,6.1817e-13,-0.2682,0,0,0.2,-0,-2.024e-16,0.66667
0.48599,0.037084,2.43,-0.69437,-17.621,40.651,4.4995,-1.4998,-0.28638,5.9993,-7.554e-13,-0.14319,0,0,0.2,9.4739e-16,0,0.66667
0.60431,0.18248,3.0216,-0.47628,-9.9124,25.761,3.8376,-1.2792,-1.1932,5.1168,1.5419e-12,-0.59662,0,0,0.2,1.5421e-15,0,0.66667
0.54955,0.60082,2.7477,0.15123,3.434,31.959,-1.1081,0.36937,-1.9188,-1.4775,-5.9452e-13,-0.95941,0,0,0.2,-0,-0,0.66667
0.92618,0.76435,4.6309,0.39653,1.7127,1.7323,-4.8967,1.6322,-1.4401,-6.529,1.8315e-09,-0.72006,0,0,0.2,-1.8948e-15,0,0.66667
0.91873,0.23191,4.5937,-0.40214,-1.923,1.9767,4.9261,-1.642,-1.4245,6.5682,-1.2215e-09,-0.71226,0,0,0.2,-0,-0,0.66667
0.39488,0.80231,1.9744,0.45346,12.591,53.186,-2.3875,0.79582,-1.2683,-3.1833,1.853e-12,-0.63414,0,0,0.2,-4.737e-16,0,0.66667
0.96326,0.9542,4.8163,0.6813,1.5685,1.476,-8.7503,2.9168,-0.34854,-11.667,2.0968e-06,-0.17427,0,0,0.2,-0,-0,0.66667
0.17396,0.49282,0.86978,-0.010764,-0.34165,88.262,0.024966,-0.0083219,-1.9999,0.033287,2.8591e-10,-0.99997,0,0,0.2,7.1054e-16,0,0.66667
0.12633,0.56279,0.63165,0.094185,3.0353,96.359,-0.15864,0.052881,-1.9703,-0.21153,4.7225e-09,-0.98513,0,0,0.2,-0,-0,0.66667
0.13508,0.38654,0.6754,-0.17019,-5.4753,94.87,0.30652,-0.10217,-1.8961,0.40869,8.1067e-10,-0.94803,0,0,0.2,-0,-0,0.66667
0.50566,0.27933,2.5283,-0.331,-8.0567,37.642,2.2317,-0.74389,-1.6107,2.9756,7.9114e-13,-0.80533,0,0,0.2,-1.1842e-15,0,0.66667
0.021525,0.19526,0.10762,-0.45711,-15.062,114.47,0.13119,-0.04373,-1.2564,0.17492,-2.4812e-08,-0.62819,0,0,0.2,5.9212e-17,0,0.66667
0.94797,0.55603,4.7399,0.084049,0.23555,0.82679,-1.0624,0.35412,-1.9745,-1.4165,-1.5988e-09,-0.98723,0,0,0.2,-9.4739e-16,0,0.66667
0.82712,0.79877,4.1356,0.44815,4.5507,6.2882,-4.9423,1.6474,-1.2862,-6.5898,8.0705e-10,-0.64311,0,0,0.2,-0,-0,0.66667
0.015019,0.87567,0.075095,0.56351,18.636,115.6,-0.11284,0.037615,-0.87301,-0.15046,2.3825e-07,-0.43651,0,0,0.2,5.9212e-17,0,0.66667
0.1762,0.039335,0.88098,-0.691,-22.257,88.071,1.6233,-0.54112,-0.30186,2.1645,9.471e-11,-0.15093,0,0,0.2,-0,-0,0.66667
0.33206,0.4427,1.6603,-0.085955,-2.4998,62.538,0.38057,-0.12686,-1.9737,0.50742,-2.1314e-13,-0.98687,0,0,0.2,-0,-0,0.66667
0.131,0.50089,0.65498,0.0013316,0.042848,95.559,-0.0023259,0.00077529,-2.0004,-0.0031012,-4.9046e-09,-1.0002,0,0,0.2,-0,-0,0.66667
0.80949,0.9747,4.0475,0.71206,8.1412,7.9264,-7.6854,2.5618,-0.19742,-10.247,5.6251e-11,-0.09871,0,0,0.2,-0,-0,0.66667
0.34474,0.29184,1.7237,-0.31224,-9.0205,60.647,1.4352,-0.4784,-1.6538,1.9136,-2.2738e-12,-0.82692,0,0,0.2,-0,-0,0.66667
0.94011,0.84743,4.7005,0.52114,1.8613,1.5775,-6.5324,2.1775,-1.035,-8.7098,-3.1731e-08,-0.51751,0,0,0.2,-0,-0,0.66667
0.58201,0.85033,2.9101,0.52549,11.427,28.379,-4.0779,1.3593,-1.018,-5.4372,-8.8285e-13,-0.50901,0,0,0.2,-0,-0,0.66667
0.87883,0.39457,4.3942,-0.15814,-1.1119,3.2552,1.8531,-0.61769,-1.9105,2.4708,-4.1792e-09,-0.95523,0,0,0.2,-0,-0,0.66667
0.84473,0.6288,4.2237,0.1932,1.7394,4.9798,-2.176,0.72535,-1.8686,-2.9014,-2.8699e-11,-0.93428,0,0,0.2,-0,-0,0.66667
0.90539,0.41505,4.527,-0.12742,-0.69348,2.1475,1.5382,-0.51275,-1.943,2.051,-1.0937e-08,-0.97148,0,0,0.2,-0,-0,0.66667
0.45988,0.91288,2.2994,0.61932,16.163,44.086,-3.7975,1.2658,-0.63557,-5.0634,-1.39e-13,-0.31779,0,0,0.2,-0,-0,0.66667
0.54635,0.89228,2.7317,0.58842,13.627,32.747,-4.2864,1.4288,-0.76948,-5.7152,-7.1498e-14,-0.38474,0,0,0.2,-0,-0,0.66667
0.7986,0.060767,3.993,-0.65885,-7.8675,8.5032,7.0155,-2.3385,-0.45793,9.3539,2.5395e-11,-0.22897,0,0,0.2,-2.3685e-16,0,0.66667
0.28572,0.024953,1.4286,-0.71257,-21.773,70.169,2.7146,-0.90487,-0.19438,3.6195,-3.6504e-13,-0.09719,0,0,0.2,-0,-0,0.66667
0.49025,0.70925,2.4513,0.31387,7.7968,39.666,-2.0517,0.6839,-1.6489,-2.7356,9.3259e-14,-0.82443,0,0,0.2,-4.737e-16,0,0.66667
0.59911,0.031142,2.9956,-0.70329,-14.979,26.704,5.618,-1.8727,-0.24201,7.4906,2.9265e-13,-0.12101,0,0,0.2,-1.0214e-15,0,0.66667
0.015533,0.94002,0.077666,0.66003,21.909,115.51,-0.1367,0.045566,-0.45299,-0.18226,1.5218e-06,-0.2265,0,0,0.2,5.9212e-17,0,0.66667
0.59348,0.86699,2.9674,0.55048,11.738,27.09,-4.356,1.452,-0.92362,-5.808,-1.1138e-12,-0.46181,0,0,0.2,4.737e-16,1.962e-16,0.66667
0.43368,0.57866,2.1684,0.118,3.1263,47.388,-0.68229,0.22743,-1.9498,-0.90972,6.2961e-13,-0.97489,0,0,0.2,-0,-0,0.66667
0.80736,0.82224,4.0368,0.48336,5.4448,7.5715,-5.2033,1.7344,-1.1685,-6.9377,3.8939e-10,-0.58426,0,0,0.2,-0,-0,0.66667
0.31524,0.61723,1.5762,0.17584,5.182,65.183,-0.73911,0.24637,-1.8901,-0.98548,-2.0371e-12,-0.94505,0,0,0.2,-4.737e-16,0,0.66667
0.89289,0.51368,4.4644,0.020517,0.1267,2.6034,-0.24425,0.081418,-1.9983,-0.32567,2.1553e-08,-0.99915,0,0,0.2,-0,-0,0.66667
0.57786,0.70046,2.8893,0.30069,6.5288,28.628,-2.3167,0.77224,-1.6792,-3.089,-1.3352e-12,-0.83962,0,0,0.2,-0,-0,0.66667
0.18401,0.33289,0.92005,-0.25067,-7.9429,86.594,0.61501,-0.205,-1.7761,0.82002,6.404e-10,-0.88806,0,0,0.2,-0,-0,0.66667
0.78793,0.74957,3.9396,0.37435,4.5674,8.7133,-3.9328,1.3109,-1.5021,-5.2438,2.9332e-10,-0.75107,0,0,0.2,-4.1448e-16,0,0.66667
0.61203,0.16101,3.0602,-0.50849,-10.44,24.942,4.1495,-1.3832,-1.0811,5.5326,1.8576e-12,-0.54057,0,0,0.2,-0,-0,0.66667
0.053909,0.075316,0.26955,-0.63703,-21.069,108.88,0.45789,-0.15263,-0.55598,0.61052,3.8523e-07,-0.27799,0,0,0.2,-0,-0,0.66667
0.42019,0.076161,2.101,-0.63576,-17.346,49.685,3.5619,-1.1873,-0.56292,4.7492,-4.0923e-13,-0.28146,0,0,0.2,-0,-2.3311e-16,0.66667
0.67907,0.014685,3.3953,-0.72797,-13.051,18.403,6.5912,-2.1971,-0.11453,8.7883,2.7667e-13,-0.057263,0,0,0.2,-0,-0,0.66667
0.9186,0.96902,4.593,0.70354,3.6131,2.6613,-8.6169,2.8723,-0.24122,-11.489,1.2134e-07,-0.12061,0,0,0.2,-0,8.2491e-18,0.66667
0.00040202,0.73607,0.0020101,0.3541,11.643,118.12,-0.0018981,0.00063268,-1.5548,-0.0025308,-2.4e-08,-0.77739,0,0,0.2,-4.6259e-19,0,0.66667
0.97676,0.16819,4.8838,-0.49772,-0.59972,0.79164,6.482,-2.1607,-1.1181,8.6426,1.8319e-07,-0.55903,0,0,0.2,-0,-0,0.66667
0.37658,0.33489,1.8829,-0.24766,-6.9559,55.782,1.2435,-0.41451,-1.7823,1.658,-2.3331e-12,-0.89114,0,0,0.2,-0,-0,0.66667
0.97378,0.62236,4.8689,0.18354,0.21593,0.37214,-2.3831,0.79435,-1.8804,-3.1774,-6.8928e-08,-0.94021,0,0,0.2,-7.1054e-16,0,0.66667
0.60472,0.84913,3.0236,0.5237,10.916,25.779,-4.2225,1.4075,-1.0247,-5.63,-1.4095e-12,-0.51234,0,0,0.2,-0,-0,0.66667
0.82885,0.61039,4.1442,0.16559,1.6358,5.8666,-1.83,0.60999,-1.9029,-2.4399,5.5433e-10,-0.95147,0,0,0.2,-0,-0,0.66667
0.57471,0.63837,2.8736,0.20755,4.5214,28.939,-1.5904,0.53013,-1.8463,-2.1205,-1.0518e-12,-0.92314,0,0,0.2,-0,-0,0.66667
0.62808,0.19138,3.1404,-0.46293,-9.1767,23.13,3.8768,-1.2923,-1.2385,5.169,2.3901e-12,-0.61924,0,0,0.2,-0,-0,0.66667
0.28558,0.93256,1.4279,0.64883,19.769,70.137,-2.4706,0.82352,-0.50311,-3.2941,4.2699e-13,-0.25156,0,0,0.2,1.1842e-16,0,0.66667
0.58683,0.65822,2.9342,0.23733,5.062,27.533,-1.857,0.61899,-1.7998,-2.476,-1.6384e-12,-0.89991,0,0,0.2,-0,-0,0.66667
0.75002,0.052986,3.7501,-0.67052,-9.6992,12.067,6.7054,-2.2351,-0.40247,8.9405,-2.2848e-12,-0.20123,0,0,0.2,-0,-0,0.66667
0.85831,0.94407,4.2916,0.66611,5.7641,5.0377,-7.6231,2.541,-0.42324,-10.164,-4.0033e-09,-0.21162,0,0,0.2,-1.8948e-15,0,0.66667
0.75508,0.10195,3.7754,-0.59707,-8.4274,11.514,6.0111,-2.0037,-0.73187,8.0148,-1.786e-11,-0.36593,0,0,0.2,-0,-0,0.66667
0.69806,0.58231,3.4903,0.12346,2.04,15.828,-1.1491,0.38305,-1.9449,-1.5322,5.6959e-12,-0.97246,0,0,0.2,-0,-0,0.66667
0.86448,0.19316,4.3224,-0.46025,-3.7091,4.2896,5.3051,-1.7684,-1.2465,7.0734,-6.4903e-10,-0.62325,0,0,0.2,-0,-0,0.66667
0.32268,0.015682,1.6134,-0.72648,-21.668,64.374,3.1256,-1.0419,-0.12243,4.1675,-3.415e-13,-0.061215,0,0,0.2,-0,-0,0.66667
0.67079,0.14898,3.3539,-0.52653,-9.4981,18.826,4.7092,-1.5697,-1.015,6.279,2.2284e-12,-0.5075,0,0,0.2,-4.737e-16,3.0861e-16,0.66667
0.45087,0.66329,2.2544,0.24493,6.377,45.007,-1.4724,0.49081,-1.787,-1.9633,9.1394e-13,-0.8935,0,0,0.2,-9.4739e-16,0,0.66667
0.3821,0.65826,1.9105,0.23738,6.6329,54.951,-1.2094,0.40313,-1.7997,-1.6125,1.898e-12,-0.89985,0,0,0.2,9.4739e-16,0,0.66667
0.41081,0.60289,2.0541,0.15434,4.1902,50.689,-0.8454,0.2818,-1.9147,-1.1272,3.6743e-13,-0.95735,0,0,0.2,9.4739e-16,0,0.66667
0.40148,0.65624,2.0074,0.23436,6.4295,52.082,-1.2545,0.41818,-1.8055,-1.6727,1.2018e-12,-0.90274,0,0,0.2,2.6599e-16,0,0.66667
0.31738,0.90403,1.5869,0.60605,18.044,65.084,-2.5647,0.85489,-0.69436,-3.4196,1.3389e-12,-0.34718,0,0,0.2,-4.737e-16,0,0.66667
0.62192,0.25607,3.1096,-0.3659,-7.3165,23.685,3.0341,-1.0114,-1.5241,4.0455,2.482e-12,-0.76206,0,0,0.2,-0,-0,0.66667
0.43025,0.91629,2.1512,0.62444,16.85,48.236,-3.5822,1.1941,-0.61258,-4.7762,-8.8818e-14,-0.30629,0,0,0.2,-0,-0,0.66667
0.9738,0.26277,4.869,-0.35584,-0.4525,0.57296,4.6202,-1.5401,-1.5489,6.1603,8.908e-09,-0.77443,0,0,0.2,-0,-0,0.66667
0.6778,0.52651,3.389,0.039763,0.69339,17.728,-0.35935,0.11978,-1.9941,-0.47914,6.0343e-13,-0.99704,0,0,0.2,-9.4739e-16,0,0.66667
0.19857,0.55568,0.99285,0.083525,2.6263,84.131,-0.22114,0.073713,-1.9748,-0.29485,-2.4507e-10,-0.98742,0,0,0.2,2.3685e-16,0,0.66667
0.4267,0.66776,2.1335,0.25163,6.7303,48.431,-1.4316,0.47721,-1.774,-1.9088,7.2009e-13,-0.88702,0,0,0.2,-0,-0,0.66667
0.34335,0.20883,1.7167,-0.43675,-12.674,60.932,1.9994,-0.66648,-1.3226,2.6659,-2.6995e-12,-0.66129,0,0,0.2,-0,-0,0.66667
0.79764,0.69944,3.9882,0.29916,3.4808,7.9566,-3.1816,1.0605,-1.6823,-4.2421,3.8763e-10,-0.84115,0,0,0.2,-0,-0,0.66667
0.88,0.89083,4.4,0.58625,4.2756,3.8262,-6.8787,2.2929,-0.777,-9.1716,-3.9865e-09,-0.3885,0,0,0.2,1.8948e-15,0,0.66667
0.90384,0.68531,4.5192,0.27797,1.5564,2.328,-3.3499,1.1166,-1.7263,-4.4665,-5.1784e-10,-0.86313,0,0,0.2,-9.4739e-16,0,0.66667
0.66272,0.6735,3.3136,0.26025,4.7315,19.317,-2.2997,0.76655,-1.758,-3.0662,-1.5419e-12,-0.879,0,0,0.2,-0,-0,0.66667
0.27021,0.57254,1.351,0.1088,3.2999,72.349,-0.392,0.13067,-1.9572,-0.52266,-2.2061e-11,-0.97861,0,0,0.2,-4.737e-16,0,0.66667
0.25237,0.90755,1.2618,0.61133,18.96,75.448,-2.0571,0.68569,-0.67238,-2.7427,-8.9557e-12,-0.33619,0,0,0.2,-0,-0,0.66667
0.8549,0.60397,4.2745,0.15596,1.3122,4.4134,-1.7777,0.59257,-1.9128,-2.3703,1.0772e-09,-0.95642,0,0,0.2,-0,-0,0.66667
0.52771,0.4464,2.6386,-0.080401,-1.8873,34.676,0.56571,-0.18857,-1.9767,0.75429,-3.1564e-13,-0.98835,0,0,0.2,-0,-0,0.66667
0.80216,0.39913,4.0108,-0.1513,-1.7134,7.5353,1.6182,-0.5394,-1.9181,2.1576,-1.832e-10,-0.95904,0,0,0.2,1.4211e-15,0,0.66667
0.57249,0.070747,2.8624,-0.64388,-14.33,29.676,4.9149,-1.6383,-0.52522,6.5531,1.8208e-13,-0.26261,0,0,0.2,-0,-0,0.66667
0.73314,0.94816,3.6657,0.67224,10.287,13.44,-6.5713,2.1904,-0.39361,-8.7617,1.307e-12,-0.1968,0,0,0.2,-0,2.1291e-16,0.66667
0.51901,0.096499,2.5951,-0.60525,-14.617,36.206,4.1884,-1.3961,-0.69806,5.5846,-2.1894e-13,-0.34903,0,0,0.2,1.8948e-15,0,0.66667
0.77088,0.68874,3.8544,0.28311,3.6873,9.841,-2.9099,0.96996,-1.7154,-3.8798,1.762e-10,-0.85772,0,0,0.2,1.8948e-15,0,0.66667
0.56886,0.32867,2.8443,-0.257,-5.6621,29.666,1.9493,-0.64975,-1.764,2.599,9.7389e-13,-0.882,0,0,0.2,9.4739e-16,0,0.66667
0.46571,0.26073,2.3285,-0.3589,-9.2073,43.022,2.2286,-0.74286,-1.5417,2.9714,-7.0788e-13,-0.77084,0,0,0.2,-0,-0,0.66667
0.34269,0.83409,1.7134,0.50114,14.581,61.079,-2.2898,0.76326,-1.1076,-3.053,2.4019e-12,-0.55379,0,0,0.2,4.737e-16,0,0.66667
0.068209,0.32015,0.34105,-0.26978,-8.8137,106.37,0.24535,-0.081783,-1.7406,0.32713,-6.3512e-09,-0.87029,0,0,0.2,-0,-0,0.66667
0.37792,0.6022,1.8896,0.1533,4.2943,55.549,-0.77245,0.25748,-1.9164,-1.0299,1.0911e-12,-0.95818,0,0,0.2,-0,-0,0.66667
0.079626,0.7934,0.39813,0.44011,14.409,104.42,-0.46725,0.15575,-1.3115,-0.623,-7.9983e-09,-0.65574,0,0,0.2,-1.1842e-16,0,0.66667
0.98282,0.91129,4.9141,0.61694,0.58426,1.0019,-8.0845,2.6948,-0.64756,-10.779,2.331e-08,-0.32378,0,0,0.2,3.7896e-15,1.2816e-16,0.66667
0.18161,0.26992,0.90806,-0.34513,-10.966,87.02,0.83573,-0.27858,-1.5755,1.1143,7.2284e-10,-0.78775,0,0,0.2,-0,-0,0.66667
0.81186,0.75257,4.0593,0.37885,4.1402,7.1212,-4.101,1.367,-1.4913,-5.468,6.0622e-10,-0.74567,0,0,0.2,-0,-0,0.66667
0.87496,0.75787,4.3748,0.3868,2.8571,3.6737,-4.5125,1.5042,-1.4692,-6.0166,3.1659e-09,-0.73461,0,0,0.2,-0,-0,0.66667
0.68841,0.50119,3.4421,0.0017857,0.03027,16.708,-0.01639,0.0054634,-2.0018,-0.021854,2.5349e-13,-1.0009,0,0,0.2,-0,-0,0.66667
0.56949,0.1455,2.8475,-0.53175,-11.822,29.864,4.0377,-1.3459,-0.9936,5.3836,6.3416e-13,-0.4968,0,0,0.2,-4.737e-16,0,0.66667
0.16097,0.39547,0.80486,-0.15679,-5.0036,90.466,0.33652,-0.11217,-1.9118,0.4487,3.6435e-10,-0.95591,0,0,0.2,2.3685e-16,0,0.66667
0.46688,0.13774,2.3344,-0.54339,-14.014,43.034,3.3826,-1.1275,-0.95013,4.5102,-2.9909e-13,-0.47507,0,0,0.2,-0,-0,0.66667
0.34517,0.58735,1.7259,0.13102,3.773,60.519,-0.60301,0.201,-1.9397,-0.80401,1.2008e-12,-0.96984,0,0,0.2,7.1054e-16,0,0.66667
0.22504,0.22191,1.1252,-0.41714,-13.032,79.814,1.2516,-0.41721,-1.3812,1.6688,1.7362e-10,-0.69062,0,0,0.2,-0,-0,0.66667
0.59251,0.67916,2.9626,0.26873,5.6764,26.897,-2.123,0.70768,-1.7438,-2.8307,-1.7619e-12,-0.87189,0,0,0.2,4.737e-16,0,0.66667
0.31227,0.47161,1.5613,-0.042588,-1.2564,65.63,0.17732,-0.059107,-1.9954,0.23643,1.2029e-12,-0.99768,0,0,0.2,-0,-0,0.66667
0.91631,0.91367,4.5815,0.6205,3.2031,2.5117,-7.5809,2.527,-0.63041,-10.108,6.5557e-09,-0.31521,0,0,0.2,1.8948e-15,0,0.66667
0.90964,0.17183,4.5482,-0.49225,-2.668,2.4498,5.9703,-1.9901,-1.1378,7.9604,-2.8402e-09,-0.56892,0,0,0.2,1.8948e-15,0,0.66667
0.25712,0.53442,1.2856,0.051628,1.5772,74.466,-0.17699,0.058997,-1.9904,-0.23599,-1.5068e-11,-0.99519,0,0,0.2,-0,-0,0.66667
0.11089,0.86258,0.55446,0.54387,17.756,99.076,-0.80415,0.26805,-0.94842,-1.0722,-5.1472e-09,-0.47421,0,0,0.2,-1.1842e-16,0,0.66667
0.19296,0.99456,0.96481,0.74184,23.798,85.302,-1.9086,0.63621,-0.042939,-2.5448,1.2999e-10,-0.02147,0,0,0.2,-0,-0,0.66667
0.49958,0.71834,2.4979,0.32751,8.0375,38.438,-2.1816,0.72718,-1.6208,-2.9087,1.4677e-13,-0.81041,0,0,0.2,-2.9606e-17,0,0.66667
0.72859,0.25635,3.6429,-0.36547,-5.553,13.306,3.5504,-1.1835,-1.5246,4.7338,-3.2253e-11,-0.76229,0,0,0.2,-0,-0,0.66667
0.20819,0.34881,1.041,-0.22678,-7.1115,82.546,0.62952,-0.20984,-1.8169,0.83937,2.8789e-10,-0.90846,0,0,0.2,-0,-0,0.66667
0.24803,0.42095,1.2402,-0.11857,-3.6418,75.954,0.39213,-0.13071,-1.9499,0.52284,5.373e-11,-0.97495,0,0,0.2,-0,-0,0.66667
0.85167,0.62289,4.2584,0.18434,1.5866,4.6005,-2.0932,0.69775,-1.8792,-2.791,-1.4495e-10,-0.93961,0,0,0.2,-1.1842e-15,0,0.66667
0.41585,0.92533,2.0792,0.63799,17.486,50.312,-3.5374,1.1791,-0.55173,-4.7166,5.1958e-14,-0.27587,0,0,0.2,-0,-0,0.66667
0.61669,0.80406,3.0834,0.45609,9.2536,24.36,-3.7502,1.2501,-1.2595,-5.0002,-2.19e-12,-0.62976,0,0,0.2,-0,-0,0.66667
0.23367,0.01841,1.1683,-0.72239,-22.734,78.575,2.2506,-0.75021,-0.14506,3.0008,-1.0287e-11,-0.072528,0,0,0.2,-0,-0,0.66667
0.10197,0.34928,0.50984,-0.22608,-7.3379,100.55,0.30738,-0.10246,-1.8177,0.40983,-2.0835e-09,-0.90887,0,0,0.2,2.3685e-16,0,0.66667
0.51586,0.46645,2.5793,-0.05032,-1.2018,36.194,0.3461,-0.11537,-1.9929,0.46147,-1.7264e-13,-0.99645,0,0,0.2,3.5527e-16,0,0.66667
0.47714,0.213,2.3857,-0.43049,-10.914,41.523,2.7388,-0.91292,-1.3405,3.6517,-2.5913e-13,-0.67026,0,0,0.2,7.1054e-16,0,0.66667
0.15267,0.02292,0.76336,-0.71562,-23.261,92.039,1.4567,-0.48558,-0.17888,1.9423,1.362e-09,-0.089441,0,0,0.2,-0,-0,0.66667
0.62181,0.75101,3.109,0.37651,7.5336,23.708,-3.1216,1.0405,-1.4969,-4.1621,-2.6104e-12,-0.74846,0,0,0.2,-0,-0,0.66667
0.54401,0.69071,2.7201,0.28607,6.571,32.716,-2.075,0.69166,-1.7097,-2.7667,-1.003e-12,-0.85484,0,0,0.2,1.8948e-15,0,0.66667
0.65414,0.1128,3.2707,-0.58081,-10.94,20.579,5.0657,-1.6886,-0.80051,6.7542,1.5419e-12,-0.40025,0,0,0.2,9.4739e-16,0,0.66667
0.14455,0.12956,0.72273,-0.55567,-17.989,93.347,1.0709,-0.35697,-0.90229,1.4279,1.8468e-09,-0.45114,0,0,0.2,4.737e-16,0,0.66667
0.75153,0.27947,3.7576,-0.3308,-4.6435,11.38,3.3148,-1.1049,-1.6123,4.4197,-8.5603e-11,-0.80616,0,0,0.2,-1.3027e-15,0,0.66667
0.22205,0.25541,1.1102,-0.36688,-11.464,80.288,1.0862,-0.36207,-1.5216,1.4483,1.998e-10,-0.76079,0,0,0.2,4.737e-16,0,0.66667
0.51935,0.46352,2.5968,-0.05472,-1.3003,35.743,0.37892,-0.12631,-1.9894,0.50523,-3.2974e-14,-0.99471,0,0,0.2,-4.737e-16,0,0.66667
0.7853,0.42123,3.9265,-0.11816,-1.4425,8.6783,1.2372,-0.4124,-1.9496,1.6496,-1.4476e-10,-0.97479,0,0,0.2,-0,-0,0.66667
0.02233,0.58435,0.11165,0.12653,4.1438,114.32,-0.037672,0.012557,-1.9421,-0.050229,1.2935e-07,-0.97107,0,0,0.2,2.9606e-17,0,0.66667
0.32436,0.65355,1.6218,0.23033,6.7482,63.771,-0.99614,0.33205,-1.8118,-1.3282,-6.7812e-13,-0.90592,0,0,0.2,-0,-0,0.66667
0.87292,0.19874,4.3646,-0.45189,-3.4172,3.8737,5.2596,-1.7532,-1.2739,7.0128,-3.1058e-09,-0.63695,0,0,0.2,-0,-0,0.66667
0.84471,0.51017,4.2235,0.015252,0.13675,4.9115,-0.17178,0.057262,-1.9997,-0.22905,-1.4364e-09,-0.99985,0,0,0.2,3.7896e-15,0,0.66667
0.53844,0.56601,2.6922,0.099019,2.287,33.325,-0.71088,0.23696,-1.9649,-0.94784,-2.9171e-13,-0.98247,0,0,0.2,-0,-0,0.66667
0.86661,0.38999,4.333,-0.16502,-1.278,3.831,1.9067,-0.63558,-1.9019,2.5423,1.7995e-10,-0.95097,0,0,0.2,1.8948e-15,0,0.66667
0.94981,0.8486,4.749,0.52291,1.5491,1.3456,-6.6221,2.2074,-1.028,-8.8295,-1.775e-10,-0.51402,0,0,0.2,-0,-0,0.66667
0.82641,0.60697,4.132,0.16046,1.6064,6.0087,-1.768,0.58934,-1.9085,-2.3574,4.909e-10,-0.95424,0,0,0.2,1.8948e-15,0,0.66667
0.85412,0.52038,4.2706,0.030564,0.25778,4.4097,-0.34807,0.11602,-1.9958,-0.4641,-1.0806e-10,-0.9979,0,0,0.2,1.8948e-15,0,0.66667
0.098743,0.73637,0.49372,0.35456,11.543,101.12,-0.46681,0.1556,-1.5521,-0.62241,-1.7623e-09,-0.77603,0,0,0.2,-0,-0,0.66667
0.6513,0.435,3.2565,-0.097499,-1.8154,20.393,0.84669,-0.28223,-1.9664,1.1289,8.9589e-13,-0.98322,0,0,0.2,-1.1842e-15,0,0.66667
0.70352,0.62066,3.5176,0.18099,2.9477,15.354,-1.6978,0.56592,-1.885,-2.2637,1.0346e-11,-0.9425,0,0,0.2,-0,-0,0.66667
0.61024,0.35589,3.0512,-0.21617,-4.4066,24.853,1.7589,-0.58628,-1.8343,2.3451,1.7339e-12,-0.91715,0,0,0.2,-0,-0,0.66667
0.79962,0.88475,3.9981,0.57712,6.8,8.2565,-6.153,2.051,-0.81559,-8.204,2.7687e-11,-0.4078,0,0,0.2,-0,-0,0.66667
0.034571,0.93998,0.17286,0.65997,21.886,112.22,-0.30422,0.1014,-0.45197,-0.40562,-1.8342e-07,-0.22598,0,0,0.2,1.1842e-16,0,0.66667
0.77024,0.15509,3.8512,-0.51737,-6.8561,10.21,5.3133,-1.7711,-1.0489,7.0844,-1.176e-10,-0.52443,0,0,0.2,-9.4739e-16,0,0.66667
0.73173,0.61159,3.6586,0.16738,2.4992,12.868,-1.633,0.54434,-1.9001,-2.1774,3.4205e-11,-0.95003,0,0,0.2,-0,-0,0.66667
0.2597,0.55495,1.2985,0.08243,2.5148,74.049,-0.28542,0.095142,-1.9752,-0.38057,-2.6979e-11,-0.98758,0,0,0.2,-0,-0,0.66667
0.25707,0.081222,1.2853,-0.62817,-19.446,74.698,2.1531,-0.7177,-0.59584,2.8708,6.9531e-12,-0.29792,0,0,0.2,-0,-0,0.66667
0.6323,0.95857,3.1615,0.68785,13.698,23.041,-5.7991,1.933,-0.31668,-7.7321,-1.5099e-13,-0.15834,0,0,0.2,9.4739e-16,0,0.66667
0.3453,0.50138,1.7265,0.0020751,0.05971,60.486,-0.0095537,0.0031846,-2.0015,-0.012738,-4.212e-13,-1.0007,0,0,0.2,-1.8948e-15,0,0.66667
0.79659,0.49989,3.9829,-0.00016278,-0.0018878,7.8693,0.0017289,-0.00057631,-2.0023,0.0023052,-1.5235e-10,-1.0012,0,0,0.2,7.4015e-18,0,0.66667
0.44615,0.54442,2.2307,0.066626,1.7402,45.614,-0.39633,0.13211,-1.983,-0.52844,4.2438e-13,-0.99152,0,0,0.2,-0,-0,0.66667
0.78275,0.6879,3.9137,0.28185,3.4976,8.9737,-2.9416,0.98054,-1.7192,-3.9221,2.2744e-10,-0.85962,0,0,0.2,1.8948e-15,0,0.66667
0.99047,0.67713,4.9524,0.2657,0.032435,0.23795,-3.5089,1.1696,-1.748,-4.6785,1.3928e-08,-0.87402,0,0,0.2,9.4739e-16,0,0.66667
0.30025,0.3487,1.5012,-0.22695,-6.7627,67.564,0.90855,-0.30285,-1.8171,1.2114,8.0727e-12,-0.90854,0,0,0.2,9.4739e-16,0,0.66667
0.14301,0.21311,0.71503,-0.43034,-13.883,93.568,0.82054,-0.27351,-1.342,1.0941,2.2721e-09,-0.67099,0,0,0.2,-0,-0,0.66667
0.90131,0.60768,4.5065,0.16153,0.92046,2.3213,-1.9411,0.64705,-1.9063,-2.5882,-5.6657e-09,-0.95314,0,0,0.2,-0,-0,0.66667
0.54156,0.77411,2.7078,0.41117,9.5183,33.126,-2.969,0.98966,-1.3984,-3.9587,-5.7954e-13,-0.69918,0,0,0.2,4.737e-16,0,0.66667
0.97474,0.61732,4.8737,0.17598,0.19561,0.35144,-2.2871,0.76238,-1.8892,-3.0495,6.7207e-09,-0.9446,0,0,0.2,-0,-0,0.66667
0.6366,0.46662,3.183,-0.050077,-0.96367,21.921,0.42506,-0.14169,-1.9916,0.56674,6.902e-13,-0.99579,0,0,0.2,-1.3027e-15,0,0.66667
0.99391,0.27526,4.9696,-0.3371,0.020544,0.30028,4.4674,-1.4891,-1.5954,5.9565,-2.6425e-08,-0.79772,0,0,0.2,-9.4739e-16,0,0.66667
0.54607,0.10574,2.7304,-0.59139,-13.704,32.785,4.3059,-1.4353,-0.75694,5.7412,4.2277e-13,-0.37847,0,0,0.2,-0,-0,0.66667
0.52643,0.39061,2.6321,-0.16408,-3.8625,34.864,1.1517,-0.38389,-1.9033,1.5356,4.1656e-13,-0.95166,0,0,0.2,-9.4739e-16,0,0.66667
0.13543,0.69224,0.67714,0.28837,9.2925,94.827,-0.5207,0.17357,-1.7041,-0.69427,-2.2042e-09,-0.85207,0,0,0.2,-4.737e-16,0,0.66667
0.35571,0.048348,1.7785,-0.67748,-19.653,59.254,3.2131,-1.071,-0.36743,4.2841,1.6365e-13,-0.18371,0,0,0.2,-4.737e-16,-3.0565e-16,0.66667
0.026219,0.56508,0.13109,0.09762,3.1958,113.64,-0.034126,0.011376,-1.9663,-0.045501,9.373e-07,-0.98316,0,0,0.2,-0,-0,0.66667
0.1604,0.055937,0.80198,-0.6661,-21.55,90.713,1.4245,-0.47484,-0.42224,1.8993,2.518e-10,-0.21112,0,0,0.2,-2.3685e-16,0,0.66667
0.74564,0.14103,3.7282,-0.53846,-7.8175,12.151,5.3533,-1.7844,-0.96825,7.1377,-2.442e-11,-0.48412,0,0,0.2,-0,-0,0.66667
0.0304,0.50571,0.152,0.0085664,0.28028,112.91,-0.0034727,0.0011608,-2.0008,-0.0046286,4.9154e-06,-1.0004,0,0,0.2,-0,-0,0.66667
0.36654,0.95013,1.8327,0.67519,19.408,57.615,-3.2998,1.0999,-0.37793,-4.3997,8.38e-13,-0.18896,0,0,0.2,-9.4739e-16,0,0.66667
0.86235,0.0080939,4.3117,-0.73786,-6.2914,5.0315,8.4839,-2.828,-0.064158,11.312,6.2394e-09,-0.032079,0,0,0.2,-0,-0,0.66667
0.69268,0.3833,3.4634,-0.17505,-2.9387,16.353,1.6167,-0.53889,-1.8904,2.1556,-5.2135e-12,-0.94521,0,0,0.2,-0,-0,0.66667
0.69094,0.14015,3.4547,-0.53977,-9.251,16.916,4.9727,-1.6576,-0.96347,6.6302,1.0196e-12,-0.48173,0,0,0.2,-0,-0,0.66667
0.18864,0.91449,0.94318,0.62174,19.874,85.954,-1.5638,0.52126,-0.62619,-2.085,4.5002e-11,-0.31309,0,0,0.2,-0,-0,0.66667
0.4419,0.37747,2.2095,-0.18379,-4.8292,46.241,1.0829,-0.36096,-1.8803,1.4439,-6.789e-13,-0.94013,0,0,0.2,-0,-0,0.66667
0.58158,0.72005,2.9079,0.33007,7.1258,28.214,-2.5595,0.85317,-1.6134,-3.4127,-1.5263e-12,-0.80672,0,0,0.2,-0,-0,0.66667
0.98975,0.53793,4.9488,0.056899,0.0056698,0.097149,-0.75088,0.25029,-1.988,-1.0012,-3.2195e-06,-0.994,0,0,0.2,-0,-0,0.66667
0.20391,0.43516,1.0195,-0.097265,-3.0516,83.241,0.26444,-0.088147,-1.968,0.35259,2.1843e-10,-0.984,0,0,0.2,1.1842e-16,0,0.66667
0.24773,0.10903,1.2387,-0.58645,-18.216,76.185,1.9371,-0.6457,-0.77694,2.5828,2.1999e-11,-0.38847,0,0,0.2,-0,-0,0.66667
0.26217,0.87064,1.3109,0.55596,17.112,73.823,-1.9434,0.64781,-0.90127,-2.5913,-1.0691e-11,-0.45064,0,0,0.2,2.3685e-16,0,0.66667
0.75017,0.16266,3.7509,-0.50601,-7.2142,11.732,5.0613,-1.6871,-1.0909,6.7484,-3.4977e-11,-0.54545,0,0,0.2,-0,-0,0.66667
0.45698,0.75884,2.2849,0.38826,10.074,44.25,-2.3657,0.78856,-1.4636,-3.1543,3.5016e-13,-0.7318,0,0,0.2,-0,-0,0.66667
0.056929,0.63569,0.28465,0.20353,6.6523,108.32,-0.15449,0.051497,-1.8518,-0.20599,3.7749e-08,-0.9259,0,0,0.2,1.1842e-16,0,0.66667
0.50852,0.45822,2.5426,-0.062668,-1.5125,37.15,0.4249,-0.14163,-1.985,0.56654,-3.8247e-13,-0.99249,0,0,0.2,-0,-0,0.66667
0.21196,0.051528,1.0598,-0.67271,-21.339,82.109,1.9012,-0.63372,-0.38992,2.5349,3.3987e-11,-0.19496,0,0,0.2,-0,-0,0.66667
0.7986,0.30729,3.993,-0.28906,-3.3467,7.8811,3.0779,-1.026,-1.7037,4.1039,-4.1333e-10,-0.85183,0,0,0.2,-9.4739e-16,0,0.66667
0.29733,0.52923,1.4867,0.043851,1.307,67.995,-0.17384,0.057947,-1.995,-0.23179,-3.0615e-12,-0.99751,0,0,0.2,3.5527e-16,0,0.66667
0.027606,0.46876,0.13803,-0.046866,-1.5338,113.4,0.01725,-0.0057482,-1.9932,0.023002,2.8561e-06,-0.99662,0,0,0.2,-0,-0,0.66667
0.59343,0.62718,2.9672,0.19077,4.0155,26.744,-1.5094,0.50315,-1.8725,-2.0126,-1.6467e-12,-0.93625,0,0,0.2,-0,-0,0.66667
0.84384,0.30896,4.2192,-0.28656,-2.6076,5.1129,3.2241,-1.0747,-1.7098,4.2988,-9.6021e-10,-0.8549,0,0,0.2,-4.737e-16,0,0.66667
0.38102,0.89776,1.9051,0.59664,16.873,55.367,-3.0311,1.0104,-0.73351,-4.0414,6.6502e-13,-0.36676,0,0,0.2,4.737e-16,0,0.66667
0.74986,0.95443,3.7493,0.68164,9.8762,12.105,-6.8151,2.2717,-0.3487,-9.0868,-2.5047e-13,-0.17435,0,0,0.2,-0,-0,0.66667
0.51114,0.4202,2.5557,-0.11969,-2.8793,36.819,0.81573,-0.27191,-1.9482,1.0876,-2.2587e-13,-0.9741,0,0,0.2,-0,-0,0.66667
0.54095,0.70737,2.7048,0.31106,7.1842,33.115,-2.2436,0.74786,-1.655,-2.9914,-4.1434e-13,-0.82749,0,0,0.2,-0,-0,0.66667
0.95943,0.57324,4.7972,0.10986,0.22835,0.58362,-1.4053,0.46844,-1.9561,-1.8738,2.9033e-07,-0.97804,0,0,0.2,-0,-0,0.66667
0.80396,0.57202,4.0198,0.10803,1.2117,7.3961,-1.158,0.386,-1.9575,-1.544,2.7664e-10,-0.97877,0,0,0.2,1.8948e-15,0,0.66667
0.032323,0.24778,0.16162,-0.37832,-12.433,112.59,0.16305,-0.054349,-1.4926,0.2174,-1.9746e-08,-0.74631,0,0,0.2,5.9212e-17,0,0.66667
0.70939,0.71073,3.5469,0.3161,5.0827,14.928,-2.9898,0.99661,-1.644,-3.9864,1.3957e-11,-0.82198,0,0,0.2,4.737e-16,0,0.66667
0.465,0.32335,2.325,-0.26497,-6.7873,43.059,1.6428,-0.54761,-1.7498,2.1904,-5.4268e-13,-0.87491,0,0,0.2,-0,-0,0.66667
0.94755,0.90312,4.7377,0.60468,1.9355,1.5919,-7.6395,2.5465,-0.69997,-10.186,-1.8943e-07,-0.34999,0,0,0.2,1.4648e-15,0,0.66667
0.22143,0.92424,1.1072,0.63635,20.068,80.523,-1.8788,0.62627,-0.55986,-2.5051,-2.6407e-11,-0.27993,0,0,0.2,-2.3685e-16,0,0.66667
0.26707,0.027346,1.3354,-0.70898,-21.903,73.147,2.5247,-0.84155,-0.21385,3.3662,2.039e-12,-0.10692,0,0,0.2,-0,-0,0.66667
0.081474,0.59929,0.40737,0.14893,4.8479,104.07,-0.16178,0.053928,-1.9213,-0.21571,-2.4377e-09,-0.96063,0,0,0.2,2.3685e-16,0,0.66667
0.42862,0.26328,2.1431,-0.35508,-9.5009,48.217,2.0293,-0.67642,-1.5505,2.7057,-1.6847e-12,-0.77527,0,0,0.2,-0,-0,0.66667
0.10902,0.46135,0.54509,-0.057968,-1.8757,99.325,0.084261,-0.028087,-1.9891,0.11235,-1.3168e-08,-0.99457,0,0,0.2,-0,-0,0.66667
0.63379,0.33156,3.1689,-0.25267,-4.9085,22.307,2.1352,-0.71172,-1.7719,2.8469,2.452e-12,-0.88594,0,0,0.2,-9.4739e-16,0,0.66667
0.80296,0.89313,4.0148,0.58969,6.8516,8.0617,-6.3133,2.1044,-0.76251,-8.4178,1.6847e-10,-0.38125,0,0,0.2,-0,-0,0.66667
0.6968,0.209,3.484,-0.4365,-7.3172,16.216,4.0554,-1.3518,-1.3216,5.4072,-2.411e-12,-0.66081,0,0,0.2,-9.4739e-16,0,0.66667
0.76621,0.18089,3.8311,-0.47867,-6.4229,10.446,4.8901,-1.63,-1.1864,6.5202,-7.6573e-11,-0.5932,0,0,0.2,9.4739e-16,0,0.66667
0.34245,0.071596,1.7123,-0.64261,-18.808,61.238,2.9342,-0.97806,-0.53222,3.9122,-4.15e-13,-0.26611,0,0,0.2,-9.4739e-16,0,0.66667
0.84585,0.9988,4.2293,0.74821,7.0943,5.9009,-8.4383,2.8128,-0.010848,-11.251,3.0078e-09,-0.0054242,0,0,0.2,-2.4869e-15,0,0.66667
0.42877,0.20554,2.1438,-0.44169,-11.848,48.261,2.5251,-0.8417,-1.3052,3.3668,-1.1664e-12,-0.65258,0,0,0.2,-0,-0,0.66667
0.82401,0.509,4.12,0.013498,0.13656,6.1062,-0.1483,0.049433,-1.9989,-0.19773,3.5947e-12,-0.99943,0,0,0.2,-0,-0,0.66667
0.6265,0.23424,3.1325,-0.39864,-7.9057,23.223,3.33,-1.11,-1.435,4.44,2.8202e-12,-0.71752,0,0,0.2,-9.4739e-16,0,0.66667
0.14342,0.33686,0.71712,-0.2447,-7.8615,93.458,0.46795,-0.15598,-1.7872,0.62393,1.1521e-09,-0.89361,0,0,0.2,-0,-0,0.66667
0.078387,0.42365,0.39193,-0.11453,-3.729,104.6,0.1197,-0.039901,-1.954,0.1596,3.9246e-09,-0.97702,0,0,0.2,-0,-0,0.66667
0.018333,0.35307,0.091663,-0.2204,-7.2268,115.01,0.053874,-0.017958,-1.8272,0.071831,-2.0452e-08,-0.91359,0,0,0.2,-0,-0,0.66667
0.066725,0.97154,0.33362,0.70731,23.426,106.69,-0.62927,0.20976,-0.22155,-0.83902,1.0295e-08,-0.11077,0,0,0.2,-0,-0,0.66667
0.45858,0.0013703,2.2929,-0.74794,-19.686,44.443,4.5733,-1.5244,-0.011307,6.0977,-1.259e-12,-0.0056534,0,0,0.2,-0,-0,0.66667
0.11334,0.96778,0.56671,0.70167,23.038,98.706,-1.0604,0.35346,-0.25018,-1.4139,-8.1118e-09,-0.12509,0,0,0.2,-2.9606e-17,0,0.66667
0.027783,0.34728,0.13892,-0.22908,-7.5089,113.37,0.084861,-0.028287,-1.8138,0.11315,2.0086e-08,-0.90691,0,0,0.2,-0,-0,0.66667
0.75486,0.18688,3.7743,-0.46968,-6.5684,11.304,4.7272,-1.5757,-1.2163,6.303,-7.3506e-11,-0.60814,0,0,0.2,-1.125e-15,0,0.66667
0.39485,0.25428,1.9743,-0.36858,-10.207,53.128,1.9404,-0.64681,-1.5171,2.5873,-2.7102e-12,-0.75853,0,0,0.2,-0,-0,0.66667
0.74694,0.36221,3.7347,-0.20668,-2.9342,11.636,2.0584,-0.68612,-1.8477,2.7445,-6.7877e-11,-0.92384,0,0,0.2,-0,-0,0.66667
0.4524,0.14295,2.262,-0.53558,-14.046,45.022,3.2307,-1.0769,-0.98057,4.3075,-3.3773e-13,-0.49028,0,0,0.2,-0,-0,0.66667
0.45009,0.72696,2.2504,0.34044,8.8916,45.173,-2.0431,0.68102,-1.5878,-2.7241,4.3587e-13,-0.7939,0,0,0.2,-0,-0,0.66667
0.47807,0.38599,2.3904,-0.17101,-4.3029,41.231,1.0901,-0.36335,-1.895,1.4534,-4.0334e-13,-0.9475,0,0,0.2,-0,-0,0.66667
0.474,0.36327,2.37,-0.2051,-5.1899,41.797,1.2962,-0.43208,-1.8495,1.7283,-6.1329e-13,-0.92475,0,0,0.2,-4.737e-16,0,0.66667
0.80316,0.22394,4.0158,-0.4141,-4.7312,7.7341,4.4345,-1.4782,-1.3899,5.9127,-4.809e-10,-0.69495,0,0,0.2,-0,-0,0.66667
0.40239,0.26003,2.012,-0.35996,-9.8941,52.014,1.9312,-0.64375,-1.5388,2.575,-2.2118e-12,-0.7694,0,0,0.2,-0,-0,0.66667
0.90469,0.54607,4.5234,0.069107,0.37823,2.1508,-0.83361,0.27787,-1.9831,-1.1115,-3.8555e-09,-0.99154,0,0,0.2,-0,-0,0.66667
0.037061,0.36103,0.18531,-0.20845,-6.8266,111.76,0.103,-0.034335,-1.8444,0.13734,3.1399e-08,-0.92221,0,0,0.2,5.9212e-17,0,0.66667
0.77387,0.022193,3.8694,-0.71671,-9.5466,10.365,7.3953,-2.4651,-0.17266,9.8603,4.635e-12,-0.086332,0,0,0.2,-0,-0,0.66667
0.12564,0.30208,0.62821,-0.29688,-9.5936,96.499,0.49733,-0.16578,-1.6873,0.66311,1.6343e-09,-0.84364,0,0,0.2,-0,-0,0.66667
0.61851,0.73591,3.0926,0.35386,7.1225,24.045,-2.9182,0.97275,-1.5536,-3.891,-2.2384e-12,-0.7768,0,0,0.2,-7.3247e-16,0,0.66667
0.010364,0.67108,0.051821,0.25662,8.4208,116.4,-0.035462,0.011821,-1.7648,-0.047283,-2.1104e-08,-0.88242,0,0,0.2,-0,-0,0.66667
0.53863,0.61673,2.6931,0.1751,4.0467,33.326,-1.2575,0.41917,-1.8901,-1.6767,-2.2804e-13,-0.94506,0,0,0.2,-4.737e-16,0,0.66667
0.003018,0.17081,0.01509,-0.49378,-16.296,117.67,0.01987,-0.006623,-1.1326,0.026493,2.6977e-07,-0.5663,0,0,0.2,-0,4.715e-16,0.66667
0.95119,0.70633,4.756,0.30949,0.83264,0.93873,-3.9251,1.3084,-1.6594,-5.2335,-1.4235e-08,-0.82971,0,0,0.2,-0,-0,0.66667
0.9054,0.10992,4.527,-0.58512,-3.382,2.8033,7.0636,-2.3545,-0.78307,9.4181,-1.1799e-08,-0.39153,0,0,0.2,-1.8948e-15,2.3656e-16,0.66667
0.79597,0.86274,3.9798,0.54411,6.4957,8.4353,-5.7746,1.9249,-0.94778,-7.6994,1.6277e-10,-0.47389,0,0,0.2,-9.4739e-16,-2.6232e-16,0.66667
0.91527,0.80119,4.5764,0.45178,2.2758,2.1779,-5.5133,1.8378,-1.2732,-7.3511,1.3095e-08,-0.63662,0,0,0.2,-9.4739e-16,0,0.66667
0.14556,0.38076,0.72779,-0.17885,-5.7371,93.085,0.34712,-0.11571,-1.886,0.46282,6.7225e-10,-0.94299,0,0,0.2,-0,-0,0.66667
0.15773,0.45044,0.78865,-0.074336,-2.3733,91.009,0.15633,-0.052111,-1.9805,0.20844,-5.3075e-11,-0.99025,0,0,0.2,-0,-0,0.66667
0.18763,0.90376,0.93816,0.60564,19.354,86.113,-1.5152,0.50505,-0.69775,-2.0202,1.3626e-10,-0.34888,0,0,0.2,1.1842e-16,0,0.66667
0.6225,0.46076,3.1125,-0.058862,-1.1676,23.442,0.48855,-0.16285,-1.9878,0.6514,4.6144e-13,-0.99389,0,0,0.2,-0,-0,0.66667
0.90581,0.9188,4.529,0.62819,3.6495,2.8938,-7.587,2.529,-0.59751,-10.116,-6.9433e-09,-0.29875,0,0,0.2,-0,-0,0.66667
0.98996,0.98044,4.9498,0.72066,0.44792,1.2304,-9.5123,3.1708,-0.15244,-12.683,6.7781e-06,-0.076221,0,0,0.2,-0,-0,0.66667
0.71112,0.40281,3.5556,-0.14579,-2.3203,14.649,1.3823,-0.46076,-1.9242,1.843,-1.2656e-11,-0.96211,0,0,0.2,-0,-0,0.66667
0.7318,0.74508,3.659,0.36762,5.5287,13.036,-3.587,1.1957,-1.52,-4.7827,3.6259e-11,-0.75998,0,0,0.2,9.4739e-16,0,0.66667
0.90929,0.85251,4.5465,0.52876,2.8973,2.5373,-6.4107,2.1369,-1.0057,-8.5476,3.2731e-09,-0.50287,0,0,0.2,-0,-0,0.66667
0.40087,0.68436,2.0044,0.27654,7.5974,52.19,-1.4781,0.49271,-1.7281,-1.9708,1.1157e-12,-0.86406,0,0,0.2,2.3685e-16,0,0.66667
0.24985,0.15918,1.2493,-0.51123,-15.818,75.794,1.7031,-0.56769,-1.0726,2.2708,3.1027e-11,-0.53628,0,0,0.2,-0,-1.9452e-16,0.66667
0.17343,0.79035,0.86715,0.43553,13.913,88.424,-1.0071,0.33571,-1.3259,-1.3428,-9.0368e-10,-0.66295,0,0,0.2,-0,-0,0.66667
0.11946,0.97041,0.59729,0.70561,23.138,97.666,-1.1239,0.37462,-0.23001,-1.4985,1.5575e-08,-0.115,0,0,0.2,-0,-0,0.66667
0.81261,0.84334,4.0631,0.51501,5.6722,7.2932,-5.58,1.86,-1.0593,-7.44,6.3477e-11,-0.52965,0,0,0.2,-2.3389e-15,0,0.66667
0.14679,0.13326,0.73396,-0.55011,-17.793,92.964,1.0767,-0.3589,-0.92325,1.4356,2.9022e-09,-0.46163,0,0,0.2,-4.737e-16,0,0.66667
0.2643,0.72521,1.3215,0.33782,10.317,73.365,-1.1905,0.39682,-1.595,-1.5873,-4.5932e-11,-0.79749,0,0,0.2,-0,-0,0.66667
0.81909,0.31561,4.0954,-0.27658,-2.8947,6.5465,3.0206,-1.0069,-1.7279,4.0275,-5.8226e-10,-0.86395,0,0,0.2,-0,-0,0.66667
0.31059,0.5345,1.5529,0.051749,1.5285,65.896,-0.2143,0.071433,-1.9915,-0.28573,-1.2095e-12,-0.99573,0,0,0.2,-0,-0,0.66667
0.98242,0.3513,4.9121,-0.22306,-0.14056,0.28439,2.9218,-0.97393,-1.8234,3.8957,1.2876e-08,-0.91172,0,0,0.2,-0,-0,0.66667
0.26664,0.95957,1.3332,0.68936,21.283,73.201,-2.4508,0.81693,-0.31092,-3.2677,-2.2811e-12,-0.15546,0,0,0.2,2.3685e-16,0,0.66667
0.53365,0.017028,2.6683,-0.72446,-17.243,34.538,5.1548,-1.7183,-0.13365,6.873,3.4106e-13,-0.066825,0,0,0.2,-0,-0,0.66667
0.31447,0.73063,1.5723,0.34595,10.232,65.367,-1.4505,0.48351,-1.5745,-1.934,-1.7925e-12,-0.78723,0,0,0.2,-4.737e-16,0,0.66667
0.91077,0.55158,4.5539,0.07737,0.39505,1.9316,-0.93955,0.31318,-1.978,-1.2527,-1.0872e-08,-0.98899,0,0,0.2,9.4739e-16,0,0.66667
0.36656,0.39116,1.8328,-0.16327,-4.6203,57.263,0.79795,-0.26598,-1.904,1.0639,-1.9929e-12,-0.952,0,0,0.2,3.9605e-17,0,0.66667
0.43359,0.8565,2.168,0.53476,14.321,47.662,-3.0915,1.0305,-0.98256,-4.1221,4.8561e-13,-0.49128,0,0,0.2,-0,-0,0.66667
0.51229,0.034253,2.5615,-0.69862,-17.122,37.209,4.772,-1.5907,-0.26518,6.3626,1.8874e-13,-0.13259,0,0,0.2,-0,8.4485e-17,0.66667
0.93889,0.72753,4.6944,0.34129,1.1901,1.2857,-4.2724,1.4241,-1.5863,-5.6966,-9.2915e-09,-0.79316,0,0,0.2,-0,-0,0.66667
0.030949,0.36445,0.15475,-0.20332,-6.661,112.82,0.083901,-0.027967,-1.8538,0.11187,-9.2482e-09,-0.92691,0,0,0.2,-2.9606e-17,0,0.66667
0.71688,0.31476,3.5844,-0.27786,-4.3622,14.227,2.6558,-0.88528,-1.7267,3.5411,-2.1883e-11,-0.86334,0,0,0.2,1.8948e-15,0,0.66667
0.89102,0.85273,4.4551,0.52909,3.4795,3.2338,-6.2857,2.0952,-1.0056,-8.3809,1.1332e-08,-0.50279,0,0,0.2,-0,-0,0.66667
0.027287,0.27446,0.13644,-0.33831,-11.111,113.46,0.12309,-0.041029,-1.5929,0.16411,-6.9677e-09,-0.79643,0,0,0.2,2.9606e-17,0,0.66667
0.52205,0.92251,2.6103,0.63376,15.262,35.858,-4.4114,1.4705,-0.57071,-5.8819,1.7808e-13,-0.28535,0,0,0.2,-9.4739e-16,0,0.66667
0.32599,0.33953,1.6299,-0.2407,-7.0448,63.52,1.0462,-0.34874,-1.7947,1.3949,1.6276e-13,-0.89737,0,0,0.2,1.1842e-16,0,0.66667
0.85949,0.25559,4.2974,-0.36662,-3.0302,4.3884,4.2014,-1.4005,-1.5235,5.6018,-1.8711e-09,-0.76177,0,0,0.2,-0,-0,0.66667
0.55852,0.69003,2.7926,0.28504,6.3953,30.932,-2.1227,0.70756,-1.7116,-2.8303,-6.4504e-13,-0.85578,0,0,0.2,-0,-0,0.66667
0.69023,0.86982,3.4511,0.55472,9.5349,17.008,-5.1051,1.7017,-0.90627,-6.8068,-1.0165e-12,-0.45314,0,0,0.2,-1.4211e-15,0,0.66667
0.45285,0.65775,2.2643,0.23663,6.1458,44.727,-1.4288,0.47626,-1.803,-1.905,4.2222e-13,-0.90148,0,0,0.2,-0,-0,0.66667
0.62831,0.027557,3.1415,-0.70866,-14.252,23.507,5.9368,-1.9789,-0.2148,7.9157,3.2285e-13,-0.1074,0,0,0.2,-4.737e-16,0,0.66667
0.2901,0.20927,1.4505,-0.4361,-13.145,69.269,1.6868,-0.56227,-1.3229,2.2491,8.5679e-12,-0.66143,0,0,0.2,2.3685e-16,0,0.66667
0.0093486,0.28707,0.046743,-0.31939,-10.493,116.57,0.039811,-0.01327,-1.6368,0.053081,2.21e-08,-0.8184,0,0,0.2,-0,-0,0.66667
0.57676,0.2741,2.8838,-0.33885,-7.3804,28.789,2.6058,-0.86859,-1.5924,3.4744,1.2592e-12,-0.7962,0,0,0.2,-4.737e-16,0,0.66667
0.31144,0.92233,1.5572,0.6335,18.963,66.037,-2.6307,0.87689,-0.57334,-3.5076,1.0125e-12,-0.28667,0,0,0.2,-0,2.3664e-16,0.66667
0.51727,0.83517,2.5863,0.50275,12.113,36.299,-3.4674,1.1558,-1.1017,-4.6232,-2.1294e-13,-0.55084,0,0,0.2,-0,-0,0.66667
0.91641,0.69139,4.582,0.28708,1.3901,1.8922,-3.5078,1.1693,-1.7069,-4.6771,-4.0976e-09,-0.85343,0,0,0.2,-0,-0,0.66667
0.42647,0.36825,2.1324,-0.19762,-5.282,48.441,1.1237,-0.37458,-1.8608,1.4983,-1.353e-12,-0.93039,0,0,0.2,-4.737e-16,0,0.66667
0.2474,0.070582,1.237,-0.64413,-20.058,76.279,2.1247,-0.70824,-0.52485,2.833,8.2314e-12,-0.26243,0,0,0.2,-4.737e-16,-1.9748e-16,0.66667
0.37129,0.12777,1.8565,-0.55835,-15.901,56.783,2.7642,-0.92138,-0.89201,3.6855,-1.5696e-12,-0.44601,0,0,0.2,-0,-0,0.66667
0.93186,0.72999,4.6593,0.34499,1.3551,1.4854,-4.2864,1.4288,-1.5759,-5.7152,-7.2674e-09,-0.78793,0,0,0.2,1.8948e-15,0,0.66667
0.93687,0.75732,4.6843,0.38599,1.4077,1.4076,-4.8216,1.6072,-1.4712,-6.4288,-6.8826e-09,-0.73561,0,0,0.2,-0,-0,0.66667
0.84433,0.12589,4.2216,-0.56116,-5.2264,5.5228,6.3174,-2.1058,-0.88236,8.4232,-3.4562e-09,-0.44118,0,0,0.2,3.7896e-15,0,0.66667
0.92021,0.14392,4.601,-0.53411,-2.5743,2.1815,6.5533,-2.1844,-0.98577,8.7377,-2.6225e-08,-0.49288,0,0,0.2,-9.4739e-16,-3.6847e-17,0.66667
0.2279,0.25044,1.1395,-0.37434,-11.666,79.325,1.1375,-0.37917,-1.5022,1.5167,1.5483e-10,-0.75109,0,0,0.2,9.4739e-16,0,0.66667
0.087482,0.79664,0.43741,0.44496,14.55,103.07,-0.51901,0.173,-1.2949,-0.69202,-1.0496e-08,-0.64744,0,0,0.2,-0,-0,0.66667
0.22731,0.21676,1.1365,-0.42486,-13.262,79.443,1.2877,-0.42922,-1.3583,1.7169,1.6097e-10,-0.67914,0,0,0.2,-0,-0,0.66667
0.31438,0.036855,1.5719,-0.69472,-20.811,65.635,2.912,-0.97068,-0.2846,3.8827,-8.0469e-13,-0.1423,0,0,0.2,-0,-0,0.66667
0.17477,0.82128,0.87383,0.48193,15.409,88.216,-1.123,0.37433,-1.1741,-1.4973,-5.8661e-10,-0.58705,0,0,0.2,-0,-0,0.66667
0.60709,0.98884,3.0355,0.73326,15.415,25.868,-5.9355,1.9785,-0.088179,-7.914,2.8733e-13,-0.04409,0,0,0.2,-9.4739e-16,2.1749e-16,0.66667
0.41359,0.46434,2.0679,-0.053489,-1.4469,50.267,0.29496,-0.098322,-1.9895,0.39329,-3.6673e-13,-0.99473,0,0,0.2,-4.737e-16,0,0.66667
0.81635,0.66144,4.0818,0.24216,2.5661,6.6842,-2.6359,0.87863,-1.7915,-3.5145,6.9223e-10,-0.89576,0,0,0.2,-0,-0,0.66667
0.18513,0.28239,0.92565,-0.32641,-10.353,86.424,0.80572,-0.26857,-1.6224,1.0743,6.3866e-10,-0.81119,0,0,0.2,-4.737e-16,0,0.66667
0.70188,0.46054,3.5094,-0.059197,-0.96684,15.458,0.55399,-0.18466,-1.9881,0.73865,-3.695e-12,-0.99406,0,0,0.2,-0,-0,0.66667
0.24036,0.46871,1.2018,-0.046935,-1.4468,77.205,0.15041,-0.050138,-1.9927,0.20055,3.2845e-11,-0.99637,0,0,0.2,1.7023e-16,0,0.66667
0.57422,0.32472,2.8711,-0.26292,-5.7397,29.031,2.013,-0.67099,-1.7536,2.684,1.0376e-12,-0.87678,0,0,0.2,9.4739e-16,0,0.66667
0.34899,0.81063,1.7449,0.46594,13.473,60.088,-2.1681,0.7227,-1.2284,-2.8908,2.5893e-12,-0.61419,0,0,0.2,-1.1842e-16,0,0.66667
0.056964,0.93735,0.28482,0.65602,21.706,108.36,-0.49826,0.16609,-0.47043,-0.66435,-9.0863e-07,-0.23522,0,0,0.2,-1.5543e-16,0,0.66667
0.22881,0.50881,1.1441,0.013219,0.40986,79.104,-0.04033,0.013443,-1.9986,-0.053773,-3.7286e-11,-0.99931,0,0,0.2,-9.4739e-16,0,0.66667
0.6641,0.47164,3.3205,-0.042542,-0.76792,19.081,0.37669,-0.12556,-1.9935,0.50226,-1.3461e-13,-0.99673,0,0,0.2,-0,-0,0.66667
0.49725,0.51585,2.4863,0.023772,0.58261,38.628,-0.15761,0.052535,-1.9976,-0.21014,1.838e-13,-0.9988,0,0,0.2,-0,-0,0.66667
0.51902,0.75746,2.5951,0.3862,9.2399,35.955,-2.6726,0.89085,-1.4696,-3.5634,-3.3795e-13,-0.73478,0,0,0.2,-0,-0,0.66667
0.17472,0.54071,0.8736,0.06106,1.9378,88.135,-0.14224,0.047415,-1.9866,-0.18966,-1.6832e-10,-0.99329,0,0,0.2,4.737e-16,0,0.66667
0.57072,0.46964,2.8536,-0.045534,-0.99696,29.362,0.34649,-0.1155,-1.9929,0.46199,8.33e-13,-0.99645,0,0,0.2,-1.8948e-15,0,0.66667
0.99675,0.161,4.9838,-0.50851,0.050387,0.59751,6.7581,-2.2527,-1.0809,9.0107,-3.0987e-07,-0.54044,0,0,0.2,-0,-0,0.66667
0.81684,0.28888,4.0842,-0.31667,-3.361,6.7296,3.4489,-1.1496,-1.643,4.5986,-6.3887e-10,-0.82152,0,0,0.2,-1.8948e-15,0,0.66667
0.59437,0.87103,2.9719,0.55654,11.852,26.997,-4.4106,1.4702,-0.90014,-5.8808,-1.0814e-12,-0.45007,0,0,0.2,4.737e-16,0,0.66667
0.97599,0.78684,4.8799,0.43026,0.51207,0.6669,-5.599,1.8663,-1.3413,-7.4654,-4.077e-08,-0.67063,0,0,0.2,-0,-0,0.66667
0.90156,0.92953,4.5078,0.64429,3.9216,3.0909,-7.7449,2.5816,-0.52354,-10.327,-1.4434e-08,-0.26177,0,0,0.2,-0,-0,0.66667
0.59561,0.018087,2.978,-0.72287,-15.518,27.138,5.7406,-1.9135,-0.14206,7.6542,5.3291e-14,-0.071028,0,0,0.2,-0,-0,0.66667
0.032426,0.49057,0.16213,-0.014143,-0.4627,112.56,0.0061157,-0.0020398,-1.9998,0.0081536,-1.8963e-06,-0.99989,0,0,0.2,5.9212e-17,0,0.66667
0.093577,0.53087,0.46789,0.046298,1.5028,101.98,-0.057766,0.019255,-1.9947,-0.077021,-6.2658e-08,-0.99735,0,0,0.2,1.2583e-16,0,0.66667
0.065372,0.033657,0.32686,-0.69951,-23.164,106.92,0.60971,-0.20324,-0.26098,0.81295,-3.0541e-07,-0.13049,0,0,0.2,2.3685e-16,0,0.66667
0.45173,0.72381,2.2587,0.33571,8.7501,44.94,-2.022,0.674,-1.6002,-2.696,7.1032e-13,-0.8001,0,0,0.2,-0,-0,0.66667
0.37543,0.69553,1.8772,0.29329,8.2534,55.974,-1.4681,0.48938,-1.6951,-1.9575,2.1961e-12,-0.84756,0,0,0.2,-0,-0,0.66667
0.97535,0.64852,4.8768,0.22279,0.24311,0.38261,-2.8972,0.96575,-1.8228,-3.863,-6.717e-10,-0.91138,0,0,0.2,-0,-0,0.66667
0.16798,0.89582,0.83992,0.59373,19.103,89.402,-1.3298,0.44327,-0.74608,-1.7731,-1.1159e-09,-0.37304,0,0,0.2,-0,-0,0.66667
0.97279,0.56419,4.8639,0.09629,0.11706,0.33509,-1.2489,0.41631,-1.9676,-1.6652,-9.6758e-07,-0.98381,0,0,0.2,-0,-0,0.66667
0.76747,0.86915,3.8374,0.55372,7.4387,10.483,-5.6662,1.8887,-0.91045,-7.555,3.4788e-11,-0.45523,0,0,0.2,4.737e-16,0,0.66667
0.82424,0.22624,4.1212,-0.41063,-4.221,6.4009,4.5128,-1.5043,-1.4002,6.0171,-7.46e-10,-0.7001,0,0,0.2,-1.8948e-15,0,0.66667
0.63262,0.8604,3.1631,0.54059,10.657,22.754,-4.5598,1.5199,-0.95968,-6.0798,-1.867e-12,-0.47984,0,0,0.2,1.9822e-16,0,0.66667
0.66873,0.36484,3.3437,-0.20274,-3.6262,18.678,1.8077,-0.60258,-1.8535,2.4103,4.13e-13,-0.92677,0,0,0.2,-9.4739e-16,0,0.66667
0.47688,0.74241,2.3844,0.36361,9.2018,41.501,-2.312,0.77067,-1.5291,-3.0827,4.9494e-13,-0.76456,0,0,0.2,-0,-0,0.66667
0.013136,0.46859,0.065682,-0.047109,-1.5427,115.91,0.0082506,-0.0027544,-1.9935,0.010999,-6.375e-06,-0.99674,0,0,0.2,-1.8504e-18,0,0.66667
0.35301,0.94008,1.765,0.66012,19.175,59.645,-3.107,1.0357,-0.45063,-4.1427,7.4873e-13,-0.22532,0,0,0.2,-0,-0,0.66667
0.49207,0.4744,2.4604,-0.038396,-0.94763,39.318,0.25191,-0.083972,-1.9942,0.33589,-2.745e-13,-0.9971,0,0,0.2,-0,-0,0.66667
0.73009,0.85606,3.6505,0.53409,8.1598,13.424,-5.1991,1.733,-0.98502,-6.9322,1.2134e-11,-0.49251,0,0,0.2,-0,-0,0.66667
0.46863,0.0050218,2.3431,-0.74247,-19.305,43.062,4.6392,-1.5464,-0.041483,6.1856,-2.7223e-13,-0.020742,0,0,0.2,-0,-1.2778e-16,0.66667
0.4574,0.88319,2.287,0.57479,15.013,44.373,-3.5055,1.1685,-0.82487,-4.674,-6.2172e-14,-0.41243,0,0,0.2,-0,-0,0.66667
0.13766,0.26484,0.68831,-0.35274,-11.375,94.459,0.64746,-0.21582,-1.5571,0.86328,1.8059e-09,-0.77856,0,0,0.2,-0,-0,0.66667
0.010889,0.68672,0.054444,0.28008,9.1944,116.3,-0.040663,0.013554,-1.7217,-0.054218,-2.4106e-09,-0.86084,0,0,0.2,-3.7007e-18,0,0.66667
0.75828,0.83746,3.7914,0.50619,7.0104,11.098,-5.1177,1.7059,-1.0884,-6.8236,4.7604e-11,-0.54418,0,0,0.2,4.737e-16,0,0.66667
0.31995,0.86043,1.5998,0.54065,16.025,64.63,-2.3064,0.76881,-0.95946,-3.0752,1.8259e-12,-0.47973,0,0,0.2,4.737e-16,0,0.66667
0.98438,0.31945,4.9219,-0.27082,-0.14238,0.31149,3.5546,-1.1849,-1.7405,4.7394,-1.5696e-08,-0.87026,0,0,0.2,-0,-0,0.66667
0.22023,0.4353,1.1012,-0.097057,-3.0226,80.527,0.285,-0.095001,-1.9679,0.38,8.6647e-11,-0.98393,0,0,0.2,-2.3685e-16,0,0.66667
0.33871,0.50907,1.6935,0.013607,0.39361,61.503,-0.061453,0.020484,-1.9987,-0.081937,6.5653e-13,-0.99933,0,0,0.2,-0,-0,0.66667
0.5239,0.61367,2.6195,0.17051,4.0294,35.19,-1.1911,0.39702,-1.8955,-1.5881,-4.2344e-13,-0.94776,0,0,0.2,-0,-0,0.66667
0.75489,0.0091619,3.7745,-0.73626,-10.541,11.84,7.4106,-2.4702,-0.071952,9.8808,-1.6766e-11,-0.035976,0,0,0.2,3.7896e-15,0,0.66667
0.46386,0.37444,2.3193,-0.18835,-4.8244,43.18,1.1649,-0.38829,-1.8745,1.5532,-1.0411e-12,-0.93725,0,0,0.2,4.1448e-16,0,0.66667
0.12482,0.28014,0.62411,-0.32978,-10.666,96.645,0.54886,-0.18295,-1.6155,0.73181,2.354e-09,-0.80774,0,0,0.2,1.0362e-16,0,0.66667
0.3125,0.29996,1.5625,-0.30006,-8.8782,65.655,1.2503,-0.41675,-1.6807,1.667,2.8468e-12,-0.84036,0,0,0.2,4.737e-16,0,0.66667
0.50452,0.52287,2.5226,0.034305,0.83246,37.67,-0.23077,0.076922,-1.9953,-0.30769,2.3254e-13,-0.99765,0,0,0.2,-0,-0,0.66667
0.67385,0.31868,3.3692,-0.27198,-4.8116,18.223,2.4437,-0.81455,-1.7375,3.2582,7.7272e-14,-0.86875,0,0,0.2,-0,-0,0.66667
0.77015,0.54256,3.8507,0.063843,0.82888,9.7656,-0.65558,0.21853,-1.9848,-0.87411,4.4997e-11,-0.99238,0,0,0.2,-0,-0,0.66667
0.13034,0.17934,0.65168,-0.48099,-15.595,95.739,0.83586,-0.27862,-1.1768,1.1145,3.132e-09,-0.58839,0,0,0.2,1.1842e-16,0,0.66667
0.022915,0.35841,0.11458,-0.21238,-6.9617,114.22,0.06489,-0.02163,-1.8384,0.08652,-3.8996e-08,-0.9192,0,0,0.2,-0,-0,0.66667
0.51908,0.0024929,2.5954,-0.74626,-18.168,36.417,5.1649,-1.7216,-0.020485,6.8866,4.5208e-13,-0.010242,0,0,0.2,-0,-0,0.66667
0.80999,0.020865,4.0499,-0.7187,-8.2049,7.9119,7.7619,-2.5873,-0.16332,10.349,-8.8208e-11,-0.081659,0,0,0.2,-0,-2.1021e-16,0.66667
0.012604,0.45379,0.063019,-0.069322,-2.2703,116,0.011651,-0.0038849,-1.9824,0.015533,-2.0793e-06,-0.99122,0,0,0.2,1.4803e-17,0,0.66667
0.67247,0.055898,3.3623,-0.66615,-12.082,18.91,5.9729,-1.991,-0.42325,7.9639,1.0889e-12,-0.21162,0,0,0.2,-9.4739e-16,0,0.66667
0.68681,0.435,3.434,-0.097497,-1.661,16.874,0.89282,-0.29761,-1.9679,1.1904,-2.6726e-12,-0.98393,0,0,0.2,4.737e-16,0,0.66667
0.44925,0.28739,2.2462,-0.31891,-8.3325,45.276,1.9103,-0.63675,-1.6383,2.547,-1.2338e-12,-0.81914,0,0,0.2,-0,-0,0.66667
0.91479,0.19753,4.5739,-0.4537,-2.2998,2.1978,5.5339,-1.8446,-1.2671,7.3785,-1.4005e-08,-0.63355,0,0,0.2,-0,-0,0.66667
0.64436,0.4203,3.2218,-0.11955,-2.2624,21.12,1.0271,-0.34237,-1.9485,1.3695,9.7788e-13,-0.97425,0,0,0.2,9.4739e-16,0,0.66667
0.0052398,0.20711,0.026199,-0.43934,-14.476,117.29,0.030694,-0.010231,-1.3128,0.040925,6.5331e-08,-0.6564,0,0,0.2,7.4015e-18,0,0.66667
0.48443,0.57285,2.4221,0.10927,2.7252,40.353,-0.70578,0.23526,-1.9585,-0.94104,-8.6042e-14,-0.97925,0,0,0.2,-0,-0,0.66667
0.85932,0.14044,4.2966,-0.53934,-4.5506,4.6959,6.1795,-2.0598,-0.9665,8.2393,-1.7173e-09,-0.48325,0,0,0.2,-1.8948e-15,2.9464e-16,0.66667
0.8304,0.016633,4.152,-0.72505,-7.4751,6.6944,8.0278,-2.6759,-0.13063,10.704,9.1448e-10,-0.065314,0,0,0.2,-1.8948e-15,0,0.66667
0.64915,0.8039,3.2458,0.45585,8.6241,20.901,-3.9455,1.3152,-1.2603,-5.2607,-2.6148e-12,-0.63014,0,0,0.2,-4.737e-16,0,0.66667
0.6737,0.39339,3.3685,-0.15991,-2.8221,18.165,1.4364,-0.47881,-1.9091,1.9153,-6.8034e-13,-0.95454,0,0,0.2,-0,-0,0.66667
0.5785,0.24869,2.8925,-0.37697,-8.196,28.618,2.9077,-0.96923,-1.4968,3.8769,1.2954e-12,-0.74838,0,0,0.2,1.3619e-15,0,0.66667
0.27412,0.80773,1.3706,0.46159,14.063,71.84,-1.6871,0.56236,-1.242,-2.2494,-1.9457e-11,-0.62101,0,0,0.2,5.1758e-16,0,0.66667
0.56053,0.71072,2.8026,0.31608,7.074,30.711,-2.3623,0.78743,-1.6451,-3.1497,-8.1624e-13,-0.82254,0,0,0.2,-4.737e-16,0,0.66667
0.67173,0.62115,3.3586,0.18173,3.2245,18.369,-1.6276,0.54255,-1.8843,-2.1702,1.9229e-13,-0.94213,0,0,0.2,2.3685e-16,0,0.66667
0.35243,0.34464,1.7621,-0.23303,-6.6801,59.434,1.095,-0.36501,-1.8072,1.46,-2.2965e-12,-0.90361,0,0,0.2,-0,-0,0.66667
0.85583,0.65273,4.2791,0.2291,1.9221,4.4188,-2.6143,0.87143,-1.8138,-3.4857,9.4238e-10,-0.90688,0,0,0.2,-2.2032e-16,0,0.66667
0.19504,0.51527,0.97519,0.0229,0.72096,84.719,-0.059553,0.019851,-1.9969,-0.079403,-1.0003e-10,-0.99845,0,0,0.2,4.737e-16,0,0.66667
0.74732,0.86961,3.7366,0.55441,8.0126,12.045,-5.5243,1.8414,-0.90749,-7.3657,2.3535e-11,-0.45375,0,0,0.2,1.4211e-15,0,0.66667
0.2896,0.35335,1.448,-0.21998,-6.6003,69.256,0.84941,-0.28314,-1.827,1.1326,1.525e-11,-0.91348,0,0,0.2,-0,-0,0.66667
0.7738,0.19872,3.869,-0.45191,-5.8762,9.8382,4.6626,-1.5542,-1.2728,6.2167,-1.2314e-10,-0.63638,0,0,0.2,-0,-0,0.66667
0.42774,0.59783,2.1387,0.14674,3.9142,48.243,-0.8369,0.27897,-1.9232,-1.1159,3.2485e-13,-0.96162,0,0,0.2,9.4739e-16,0,0.66667
0.8077,0.9076,4.0385,0.6114,6.9649,7.8013,-6.5844,2.1948,-0.67137,-8.7792,1.4898e-10,-0.33568,0,0,0.2,-0,-0,0.66667
0.35353,0.62332,1.7677,0.18498,5.2939,59.249,-0.87194,0.29065,-1.8786,-1.1626,1.7145e-12,-0.93929,0,0,0.2,6.4445e-16,0,0.66667
0.21369,0.80105,1.0685,0.45158,14.197,81.704,-1.2867,0.42889,-1.2741,-1.7155,-2.3975e-10,-0.63703,0,0,0.2,-0,-0,0.66667
0.76728,0.81803,3.8364,0.47705,6.3742,10.362,-4.8804,1.6268,-1.1916,-6.5072,7.7389e-11,-0.59579,0,0,0.2,-0,-0,0.66667
0.30864,0.73296,1.5432,0.34943,10.379,66.285,-1.438,0.47933,-1.5651,-1.9173,-3.5577e-12,-0.78257,0,0,0.2,4.737e-16,0,0.66667
0.73325,0.037188,3.6662,-0.69422,-10.641,13.48,6.7871,-2.2624,-0.28734,9.0495,-2.2071e-12,-0.14367,0,0,0.2,1.8948e-15,0,0.66667
0.74447,0.1909,3.7224,-0.46365,-6.7222,12.121,4.6024,-1.5341,-1.2356,6.1365,-3.9099e-11,-0.61781,0,0,0.2,-1.8948e-15,0,0.66667
0.2214,0.1725,1.107,-0.49125,-15.409,80.448,1.4501,-0.48338,-1.1416,1.9335,1.391e-10,-0.5708,0,0,0.2,-0,-0,0.66667
0.21411,0.83309,1.0706,0.49963,15.729,81.657,-1.4264,0.47545,-1.1117,-1.9018,-1.2228e-10,-0.55584,0,0,0.2,2.3685e-16,0,0.66667
0.19895,0.49478,0.99474,-0.0078289,-0.24606,84.065,0.020767,-0.0069224,-1.9997,0.02769,2.1935e-10,-0.99987,0,0,0.2,3.5527e-16,0,0.66667
0.14252,0.78951,0.71259,0.43426,14.013,93.652,-0.8252,0.27507,-1.3298,-1.1003,-2.3456e-09,-0.66489,0,0,0.2,-0,-0,0.66667
0.37708,0.70695,1.8854,0.31042,8.7261,55.736,-1.5607,0.52024,-1.6573,-2.081,2.3322e-12,-0.82866,0,0,0.2,-0,-0,0.66667
0.026628,0.82468,0.13314,0.48703,16.058,113.58,-0.17291,0.057638,-1.1558,-0.23055,1.2514e-07,-0.57791,0,0,0.2,-0,-0,0.66667
0.11092,0.24085,0.5546,-0.38873,-12.632,99.035,0.57491,-0.19164,-1.4631,0.76654,3.2058e-09,-0.73154,0,0,0.2,-0,-0,0.66667
0.67456,0.57903,3.3728,0.11854,2.0859,18.063,-1.0662,0.35539,-1.9497,-1.4216,8.2079e-13,-0.97484,0,0,0.2,-9.4739e-16,0,0.66667
0.79978,0.57762,3.9989,0.11643,1.3322,7.678,-1.2415,0.41385,-1.9514,-1.6554,2.102e-10,-0.97568,0,0,0.2,-0,-0,0.66667
0.08053,0.70157,0.40265,0.30235,9.8652,104.25,-0.32464,0.10821,-1.6747,-0.43285,3.118e-09,-0.83736,0,0,0.2,-1.1842e-16,0,0.66667
0.2317,0.60343,1.1585,0.15515,4.8073,78.64,-0.47931,0.15977,-1.9143,-0.63908,-1.0232e-10,-0.95715,0,0,0.2,-0,-0,0.66667
0.20763,0.26797,1.0381,-0.34804,-10.942,82.673,0.96351,-0.32117,-1.5685,1.2847,3.3309e-10,-0.78423,0,0,0.2,-0,-0,0.66667
0.91733,0.93397,4.5867,0.65096,3.3455,2.557,-7.962,2.654,-0.49347,-10.616,5.6149e-08,-0.24674,0,0,0.2,-0,-0,0.66667
0.71131,0.24993,3.5566,-0.3751,-6.0129,14.821,3.5575,-1.1858,-1.5002,4.7433,-1.268e-11,-0.7501,0,0,0.2,1.0806e-15,0,0.66667
0.55388,0.3859,2.7694,-0.17115,-3.8602,31.433,1.264,-0.42133,-1.8948,1.6853,7.4785e-13,-0.94739,0,0,0.2,-9.4739e-16,0,0.66667
0.30452,0.53411,1.5226,0.051171,1.5178,66.855,-0.20777,0.069256,-1.9906,-0.27702,-2.6896e-12,-0.99529,0,0,0.2,9.4739e-16,0,0.66667
0.83485,0.80735,4.1743,0.46103,4.4893,5.8594,-5.1319,1.7106,-1.2438,-6.8425,4.9569e-10,-0.62192,0,0,0.2,-9.4739e-16,0,0.66667
0.43531,0.59396,2.1765,0.14094,3.7285,47.162,-0.81805,0.27268,-1.9308,-1.0907,8.4238e-13,-0.96542,0,0,0.2,-1.8948e-15,0,0.66667
0.92346,0.7841,4.6173,0.42615,1.9231,1.8664,-5.2471,1.749,-1.3555,-6.9961,8.2537e-09,-0.67774,0,0,0.2,3.7896e-15,0,0.66667
0.70605,0.022107,3.5303,-0.71684,-11.947,15.878,6.7483,-2.2494,-0.17279,8.9978,5.1514e-14,-0.086395,0,0,0.2,-0,-0,0.66667
0.47803,0.36938,2.3902,-0.19593,-4.932,41.246,1.2488,-0.41626,-1.863,1.665,-2.9821e-13,-0.93152,0,0,0.2,-7.1054e-16,0,0.66667
0.12621,0.48856,0.63105,-0.017157,-0.55279,96.377,0.028872,-0.0096241,-1.9993,0.038496,-3.7564e-09,-0.99964,0,0,0.2,1.1842e-16,0,0.66667
0.97604,0.25886,4.8802,-0.36171,-0.40885,0.54836,4.7073,-1.5691,-1.5339,6.2764,5.7736e-09,-0.76694,0,0,0.2,-1.8948e-15,0,0.66667
0.15983,0.51478,0.79917,0.022177,0.70742,90.65,-0.047262,0.015754,-1.9976,-0.063016,-1.4977e-10,-0.9988,0,0,0.2,-0,-0,0.66667
0.2026,0.38323,1.013,-0.17515,-5.5021,83.468,0.47315,-0.15772,-1.8918,0.63086,3.2233e-10,-0.94591,0,0,0.2,-4.737e-16,0,0.66667
0.43118,0.93483,2.1559,0.65225,17.607,48.138,-3.7498,1.2499,-0.48737,-4.9998,2.6201e-14,-0.24368,0,0,0.2,-5.9212e-16,0,0.66667
0.4042,0.52781,2.021,0.041718,1.1391,51.635,-0.22483,0.074944,-1.9947,-0.29977,1.0793e-13,-0.99736,0,0,0.2,-2.3685e-16,0,0.66667
0.14675,0.44714,0.73376,-0.079294,-2.5405,92.874,0.15515,-0.051718,-1.9767,0.20687,1.0353e-10,-0.98837,0,0,0.2,-0,-0,0.66667
0.72932,0.58857,3.6466,0.13285,1.9979,13.056,-1.2919,0.43063,-1.937,-1.7225,2.6276e-11,-0.96851,0,0,0.2,-9.8924e-16,0,0.66667
0.18875,0.61402,0.94373,0.17103,5.4032,85.786,-0.4304,0.14347,-1.8963,-0.57387,-3.2019e-10,-0.94817,0,0,0.2,-2.3685e-16,0,0.66667
0.6439,0.80578,3.2195,0.45867,8.7826,21.45,-3.9378,1.3126,-1.252,-5.2504,-2.6148e-12,-0.626,0,0,0.2,-9.4739e-16,0,0.66667
0.75431,0.53135,3.7715,0.047021,0.64825,10.981,-0.47291,0.15764,-1.993,-0.63054,3.4594e-11,-0.99649,0,0,0.2,-0,-0,0.66667
0.21073,0.55585,1.0537,0.083768,2.62,82.103,-0.23537,0.078456,-1.9744,-0.31382,-9.09e-11,-0.98718,0,0,0.2,2.3685e-16,0,0.66667
0.60095,0.4743,3.0048,-0.038552,-0.79855,25.838,0.30891,-0.10297,-1.9942,0.41188,2.266e-13,-0.9971,0,0,0.2,-0,-0,0.66667
0.74893,0.92472,3.7446,0.63708,9.2213,12.081,-6.3617,2.1206,-0.55724,-8.4822,7.8431e-12,-0.27862,0,0,0.2,-1.8343e-15,0,0.66667
0.63822,0.64505,3.1911,0.21758,4.1822,21.813,-1.8515,0.61716,-1.8315,-2.4686,-2.333e-12,-0.91577,0,0,0.2,9.4739e-16,0,0.66667
0.59713,0.87531,2.9856,0.56297,11.931,26.693,-4.4822,1.4941,-0.87418,-5.9762,-1.5428e-12,-0.43709,0,0,0.2,1.8948e-15,0,0.66667
0.29548,0.69398,1.4774,0.29098,8.7082,68.343,-1.1464,0.38213,-1.6997,-1.5285,-1.1272e-11,-0.84984,0,0,0.2,-0,-0,0.66667
0.73161,0.43917,3.658,-0.091241,-1.361,12.846,0.89003,-0.29668,-1.9714,1.1867,-2.1487e-11,-0.98568,0,0,0.2,-0,-0,0.66667
0.94531,0.6355,4.7265,0.20324,0.61093,0.96361,-2.5617,0.8539,-1.8521,-3.4156,-3.8361e-08,-0.92603,0,0,0.2,-0,-0,0.66667
0.42556,0.15536,2.1278,-0.51696,-13.953,48.788,2.9333,-0.97778,-1.0506,3.9111,-1.1315e-12,-0.5253,0,0,0.2,-2.6645e-16,0,0.66667
0.78218,0.19467,3.9109,-0.458,-5.7588,9.2408,4.7765,-1.5922,-1.255,6.3686,-2.0651e-10,-0.62751,0,0,0.2,-1.8948e-15,0,0.66667
0.056141,0.68805,0.28071,0.28208,9.2316,108.46,-0.21115,0.070382,-1.7175,-0.28153,1.775e-08,-0.85876,0,0,0.2,2.3685e-16,0,0.66667
0.83527,0.028677,4.1764,-0.70698,-7.0786,6.3688,7.8736,-2.6245,-0.2228,10.498,3.9787e-10,-0.1114,0,0,0.2,-4.737e-16,0,0.66667
0.19225,0.70737,0.96125,0.31106,9.8351,85.227,-0.79734,0.26578,-1.6552,-1.0631,-5.2106e-10,-0.82759,0,0,0.2,-2.3685e-16,0,0.66667
0.3951,0.6846,1.9755,0.2769,7.6496,53.04,-1.4587,0.48623,-1.7276,-1.9449,1.3149e-12,-0.86382,0,0,0.2,5.9212e-16,0,0.66667
0.30008,0.27699,1.5004,-0.33451,-9.9899,67.631,1.3384,-0.44613,-1.6025,1.7845,8.011e-12,-0.80126,0,0,0.2,-5.9212e-16,0,0.66667
0.080104,0.11302,0.40052,-0.58048,-19.089,104.36,0.61998,-0.20666,-0.80192,0.82664,-2.6787e-09,-0.40096,0,0,0.2,-0,-0,0.66667
0.90463,0.21641,4.5232,-0.42539,-2.4073,2.507,5.1309,-1.7103,-1.3579,6.8412,-4.2642e-09,-0.67893,0,0,0.2,-0,-0,0.66667
0.37015,0.67058,1.8508,0.25588,7.2287,56.752,-1.2628,0.42095,-1.7663,-1.6838,2.3194e-12,-0.88313,0,0,0.2,-0,-0,0.66667
0.5307,0.84534,2.6535,0.51801,12.246,34.606,-3.6654,1.2218,-1.0478,-4.8872,-3.4195e-13,-0.52391,0,0,0.2,-0,2.5907e-16,0.66667
0.49412,0.10752,2.4706,-0.58872,-14.701,39.424,3.8786,-1.2929,-0.76658,5.1715,1.4566e-13,-0.38329,0,0,0.2,-9.4739e-16,0,0.66667
0.13216,0.061087,0.66081,-0.65837,-21.474,95.487,1.1601,-0.38671,-0.45903,1.5469,-7.5356e-09,-0.22951,0,0,0.2,-5.9212e-17,0,0.66667
0.20645,0.38428,1.0323,-0.17358,-5.4436,82.826,0.47782,-0.15927,-1.8926,0.63709,2.5998e-10,-0.94629,0,0,0.2,-0,-0,0.66667
0.076189,0.5681,0.38094,0.10216,3.327,104.98,-0.10378,0.034592,-1.9635,-0.13837,-8.3634e-08,-0.98175,0,0,0.2,-2.3685e-16,0,0.66667
0.50792,0.63661,2.5396,0.20492,4.9578,37.27,-1.3878,0.46259,-1.8496,-1.8503,-1.7852e-13,-0.92478,0,0,0.2,-0,-0,0.66667
0.26155,0.1988,1.3077,-0.4518,-13.862,73.863,1.5756,-0.52519,-1.2736,2.1008,3.2471e-11,-0.63678,0,0,0.2,-0,-0,0.66667
0.35706,0.84156,1.7853,0.51235,14.741,58.892,-2.4392,0.81306,-1.0677,-3.2522,1.8727e-12,-0.53385,0,0,0.2,7.5704e-16,0,0.66667
0.10807,0.13021,0.54033,-0.55468,-18.127,99.562,0.79923,-0.26641,-0.90697,1.0656,-1.1932e-08,-0.45349,0,0,0.2,-0,-0,0.66667
0.78755,0.93291,3.9378,0.64937,8.1254,9.2325,-6.8188,2.2729,-0.50036,-9.0918,4.0101e-11,-0.25018,0,0,0.2,-1.4211e-15,0,0.66667
0.10658,0.87107,0.53292,0.5566,18.197,99.816,-0.791,0.26367,-0.89902,-1.0547,1.8227e-08,-0.44951,0,0,0.2,-1.1842e-16,0,0.66667
0.98571,0.9298,4.9285,0.6447,0.51165,1.0455,-8.4731,2.8244,-0.52278,-11.297,-8.2673e-07,-0.26139,0,0,0.2,-9.4739e-16,-2.6896e-16,0.66667
0.17716,0.15703,0.88581,-0.51445,-16.451,87.826,1.2152,-0.40507,-1.0595,1.6203,3.422e-10,-0.52975,0,0,0.2,-0,-0,0.66667
0.57241,0.75599,2.862,0.38399,8.4406,29.346,-2.9306,0.97688,-1.4753,-3.9075,-5.822e-13,-0.73764,0,0,0.2,-1.8948e-15,0,0.66667
0.044845,0.56263,0.22423,0.093952,3.0715,110.41,-0.056177,0.018725,-1.9702,-0.074903,-4.9465e-07,-0.98508,0,0,0.2,-1.1842e-16,0,0.66667
0.78712,0.43913,3.9356,-0.0913,-1.1054,8.5398,0.95819,-0.3194,-1.9706,1.2776,-6.4122e-11,-0.98531,0,0,0.2,-1.8948e-15,0,0.66667
0.18961,0.30387,0.94803,-0.29419,-9.3086,85.666,0.74374,-0.24791,-1.6925,0.99165,5.3456e-10,-0.84623,0,0,0.2,2.3685e-16,0,0.66667
0.5279,0.5253,2.6395,0.037957,0.89057,34.646,-0.26717,0.089057,-1.995,-0.35623,1.4277e-13,-0.99748,0,0,0.2,-9.4739e-16,0,0.66667
0.74008,0.36621,3.7004,-0.20069,-2.9169,12.192,1.9803,-0.66011,-1.856,2.6404,-5.3267e-11,-0.92801,0,0,0.2,-0,-0,0.66667
0.14993,0.60239,0.74966,0.15358,4.9184,92.339,-0.30702,0.10234,-1.9153,-0.40936,-1.7033e-09,-0.95765,0,0,0.2,-0,-0,0.66667
0.55109,0.45316,2.7554,-0.070264,-1.5902,31.747,0.51629,-0.1721,-1.9816,0.68838,2.5868e-13,-0.99082,0,0,0.2,9.4739e-16,0,0.66667
0.21662,0.72246,1.0831,0.33368,10.445,81.175,-0.96375,0.32125,-1.6049,-1.285,-2.5163e-10,-0.80247,0,0,0.2,-0,-0,0.66667
0.7592,0.24977,3.796,-0.37534,-5.136,10.832,3.7995,-1.2665,-1.4996,5.0659,-1.0712e-10,-0.74978,0,0,0.2,-1.3323e-15,0,0.66667
0.72292,0.084038,3.6146,-0.62394,-9.8168,14.202,6.0141,-2.0047,-0.61525,8.0188,-1.5095e-12,-0.30762,0,0,0.2,-0,-0,0.66667
0.17655,0.20822,0.88275,-0.43766,-13.966,87.9,1.0303,-0.34342,-1.3182,1.3737,7.8029e-10,-0.6591,0,0,0.2,2.3685e-16,0,0.66667
0.86197,0.89903,4.3098,0.59854,5.001,4.6934,-6.879,2.293,-0.72637,-9.172,8.261e-09,-0.36319,0,0,0.2,-1.4211e-15,0,0.66667
0.019775,0.62664,0.098875,0.18996,6.2257,114.76,-0.050085,0.016695,-1.8723,-0.06678,7.4312e-08,-0.93614,0,0,0.2,5.9212e-17,0,0.66667
0.86024,0.54363,4.3012,0.065447,0.5293,4.1021,-0.75067,0.25022,-1.9852,-1.0009,-5.8256e-10,-0.9926,0,0,0.2,-0,-0,0.66667
0.5589,0.92791,2.7945,0.64186,14.612,31.296,-4.7832,1.5944,-0.53475,-6.3776,1.0925e-13,-0.26737,0,0,0.2,4.737e-16,0,0.66667
0.40322,0.88194,2.0161,0.57292,15.853,52.071,-3.0801,1.0267,-0.833,-4.1069,7.5895e-13,-0.4165,0,0,0.2,9.4739e-16,0,0.66667
0.75875,0.73783,3.7937,0.35675,4.8846,10.844,-3.6091,1.203,-1.5463,-4.8121,1.0893e-10,-0.77317,0,0,0.2,-8.9854e-16,0,0.66667
0.71693,0.2611,3.5846,-0.35836,-5.6442,14.304,3.4256,-1.1419,-1.5435,4.5674,-1.8597e-11,-0.77174,0,0,0.2,-0,-0,0.66667
0.98733,0.60358,4.9366,0.15537,0.043694,0.16938,-2.0453,0.68176,-1.9139,-2.7271,-7.1935e-08,-0.95697,0,0,0.2,-0,-0,0.66667
0.27809,0.4976,1.3904,-0.0035968,-0.10852,71.072,0.013336,-0.0044454,-2.0007,0.017782,-2.8449e-12,-1.0003,0,0,0.2,7.1054e-16,0,0.66667
0.0037937,0.97111,0.018968,0.70667,23.509,117.54,-0.035732,0.011919,-0.22498,-0.047639,1.1826e-05,-0.11249,0,0,0.2,-0,-0,0.66667
0.9339,0.071572,4.6695,-0.64264,-2.6386,2.0374,8.0022,-2.6674,-0.53124,10.67,3.8438e-08,-0.26562,0,0,0.2,-0,-0,0.66667
0.8579,0.74205,4.2895,0.36307,3.033,4.464,-4.153,1.3843,-1.5318,-5.5374,1.9036e-09,-0.7659,0,0,0.2,-9.4739e-16,0,0.66667
0.72885,0.92647,3.6443,0.63971,9.8943,13.73,-6.2167,2.0722,-0.54406,-8.2889,2.1161e-12,-0.27203,0,0,0.2,-0,-0,0.66667
0.51669,0.65174,2.5834,0.2276,5.4408,36.143,-1.568,0.52267,-1.8169,-2.0907,-3.5028e-13,-0.90847,0,0,0.2,-2.3685e-16,0,0.66667
0.70696,0.93042,3.5348,0.64563,10.668,15.645,-6.0858,2.0286,-0.5177,-8.1144,-6.0041e-13,-0.25885,0,0,0.2,-4.737e-16,0,0.66667
0.78053,0.45537,3.9026,-0.06695,-0.83333,9.0029,0.69675,-0.23225,-1.9845,0.92901,-7.5825e-11,-0.99226,0,0,0.2,-9.4739e-16,0,0.66667
0.37488,0.11087,1.8744,-0.58369,-16.588,56.27,2.9175,-0.9725,-0.78937,3.89,-1.1111e-12,-0.39468,0,0,0.2,-0,-0,0.66667
0.77032,0.95794,3.8516,0.68691,9.2454,10.553,-7.0552,2.3517,-0.32158,-9.4069,1.207e-11,-0.16079,0,0,0.2,-9.4739e-16,0,0.66667
0.75062,0.10449,3.7531,-0.59326,-8.5036,11.857,5.9375,-1.9792,-0.74924,7.9167,-1.6624e-11,-0.37462,0,0,0.2,-0,-0,0.66667
0.61321,0.0099463,3.0661,-0.73508,-15.272,25.196,6.0101,-2.0034,-0.078284,8.0135,1.8296e-13,-0.039142,0,0,0.2,-0,-0,0.66667
0.40187,0.45435,2.0093,-0.068473,-1.8742,51.98,0.36689,-0.1223,-1.9825,0.48919,-8.4235e-13,-0.99124,0,0,0.2,-4.737e-16,0,0.66667
0.69731,0.15606,3.4865,-0.51591,-8.6765,16.286,4.7966,-1.5989,-1.0542,6.3955,-1.4166e-13,-0.5271,0,0,0.2,-1.2138e-15,0,0.66667
0.0031129,0.95616,0.015564,0.68424,22.741,117.66,-0.0284,0.0094707,-0.3349,-0.037865,5.9461e-06,-0.16745,0,0,0.2,-0,-9.1164e-16,0.66667
0.7749,0.028189,3.8745,-0.70772,-9.38,10.269,7.3121,-2.4374,-0.21908,9.7495,-6.2208e-12,-0.10954,0,0,0.2,-4.8856e-16,0,0.66667
0.89642,0.93699,4.4821,0.65549,4.2018,3.3161,-7.8346,2.6115,-0.47278,-10.446,-9.1138e-08,-0.23639,0,0,0.2,2.6053e-15,0,0.66667
0.23932,0.059047,1.1966,-0.66143,-20.699,77.607,2.1105,-0.70351,-0.44454,2.8141,8.5443e-12,-0.22227,0,0,0.2,1.1842e-16,0,0.66667
0.12077,0.26721,0.60384,-0.34919,-11.31,97.342,0.56228,-0.18743,-1.5657,0.7497,2.9302e-09,-0.78283,0,0,0.2,-0,-0,0.66667
0.22028,0.67864,1.1014,0.26796,8.3623,80.549,-0.78704,0.26235,-1.7451,-1.0494,-2.1191e-10,-0.87254,0,0,0.2,-2.3685e-16,0,0.66667
0.3021,0.87235,1.5105,0.55852,16.773,67.446,-2.2497,0.7499,-0.891,-2.9996,8.7597e-13,-0.4455,0,0,0.2,1.1842e-16,0,0.66667
0.88303,0.092388,4.4151,-0.61142,-4.3694,3.7536,7.1987,-2.3996,-0.67099,9.5982,1.801e-08,-0.3355,0,0,0.2,3.6756e-16,0,0.66667
0.54317,0.68644,2.7158,0.27965,6.4312,32.816,-2.0253,0.67511,-1.7227,-2.7004,-9.801e-13,-0.86136,0,0,0.2,1.0658e-15,0,0.66667
0.28671,0.99719,1.4336,0.74578,22.811,70.042,-2.851,0.95033,-0.022506,-3.8013,-5.1226e-13,-0.011253,0,0,0.2,1.5395e-15,0,0.66667
0.13835,0.8377,0.69177,0.50655,16.401,94.381,-0.93445,0.31148,-1.0881,-1.2459,-5.0276e-09,-0.54404,0,0,0.2,-0,-0,0.66667
0.29014,0.36219,1.4507,-0.20672,-6.1992,69.166,0.79972,-0.26657,-1.8469,1.0663,1.4517e-11,-0.92345,0,0,0.2,4.737e-16,0,0.66667
0.61387,0.33942,3.0694,-0.24087,-4.8774,24.465,1.9715,-0.65718,-1.7937,2.6287,2.2985e-12,-0.89686,0,0,0.2,-1.1842e-15,0,0.66667
0.32414,0.4495,1.6207,-0.075744,-2.2158,63.771,0.32736,-0.10912,-1.9789,0.43647,6.3793e-13,-0.98947,0,0,0.2,-0,-0,0.66667
0.45736,0.033987,2.2868,-0.69902,-18.373,44.54,4.2627,-1.4209,-0.26299,5.6836,8.3489e-14,-0.1315,0,0,0.2,-0,-0,0.66667
0.44412,0.15561,2.2206,-0.51659,-13.665,46.159,3.059,-1.0197,-1.0515,4.0787,-5.5644e-13,-0.52576,0,0,0.2,-1.3915e-15,0,0.66667
0.82814,0.28565,4.1407,-0.32153,-3.2143,6.0485,3.5503,-1.1834,-1.6341,4.7337,-8.4879e-10,-0.81704,0,0,0.2,-0,-0,0.66667
0.42635,0.15942,2.1317,-0.51088,-13.774,48.669,2.9042,-0.96805,-1.0722,3.8722,-8.1735e-13,-0.53611,0,0,0.2,-9.4739e-16,0,0.66667
0.3457,0.86473,1.7285,0.54709,15.908,60.654,-2.5217,0.84057,-0.93589,-3.3623,1.9458e-12,-0.46795,0,0,0.2,-0,-0,0.66667
0.67497,0.57287,3.3749,0.1093,1.9211,18.02,-0.98368,0.32789,-1.9572,-1.3116,1.1636e-12,-0.9786,0,0,0.2,-1.8948e-15,0,0.66667
0.22148,0.31745,1.1074,-0.27382,-8.5413,80.352,0.80863,-0.26954,-1.7338,1.0782,2.0775e-10,-0.86691,0,0,0.2,-4.737e-16,0,0.66667
0.46725,0.58764,2.3362,0.13146,3.3511,42.696,-0.81901,0.273,-1.9393,-1.092,-1.6487e-14,-0.96963,0,0,0.2,-0,-0,0.66667
0.31477,0.54619,1.5738,0.06929,2.0408,65.24,-0.2908,0.096934,-1.9827,-0.38774,-1.0088e-12,-0.99136,0,0,0.2,-4.737e-16,0,0.66667
0.62686,0.25406,3.1343,-0.36891,-7.3017,23.152,3.0833,-1.0278,-1.517,4.1111,2.5471e-12,-0.7585,0,0,0.2,-0,-0,0.66667
0.87736,0.98126,4.3868,0.72189,5.5092,4.289,-8.4447,2.8149,-0.14695,-11.26,2.9933e-10,-0.073473,0,0,0.2,-1.8948e-15,0,0.66667
0.44769,0.45122,2.2384,-0.073165,-1.9078,45.399,0.43673,-0.14558,-1.9799,0.58231,-7.5123e-13,-0.98997,0,0,0.2,-0,-0,0.66667
0.78446,0.28997,3.9223,-0.31505,-3.8879,8.8866,3.2953,-1.0984,-1.6469,4.3937,-2.5519e-10,-0.82344,0,0,0.2,-0,-0,0.66667
0.45697,0.6921,2.2848,0.28815,7.456,44.182,-1.7556,0.58522,-1.7049,-2.3409,5.3402e-14,-0.85246,0,0,0.2,9.4739e-16,0,0.66667
0.65623,0.76542,3.2811,0.39813,7.3892,20.106,-3.4835,1.1612,-1.4372,-4.6447,-2.7696e-12,-0.7186,0,0,0.2,-0,-0,0.66667
0.13184,0.51895,0.6592,0.028423,0.9144,95.415,-0.049964,0.016655,-1.996,-0.066618,-9.5868e-10,-0.99799,0,0,0.2,-0,-0,0.66667
0.43298,0.21785,2.1649,-0.42323,-11.294,47.646,2.4433,-0.81444,-1.3638,3.2578,-1.2055e-12,-0.68188,0,0,0.2,3.5527e-16,0,0.66667
0.90931,0.84675,4.5466,0.52012,2.8445,2.5183,-6.306,2.102,-1.0388,-8.408,-1.0876e-08,-0.51938,0,0,0.2,-0,-0,0.66667
0.60548,0.86881,3.0274,0.55322,11.533,25.736,-4.4662,1.4887,-0.91171,-5.9549,-1.4602e-12,-0.45585,0,0,0.2,8.3221e-16,0,0.66667
0.76677,0.66496,3.8339,0.24743,3.2699,10.117,-2.5297,0.84323,-1.7829,-3.3729,1.3658e-10,-0.89144,0,0,0.2,1.8948e-15,0,0.66667
0.5047,0.22736,2.5235,-0.40896,-9.9919,37.832,2.752,-0.91733,-1.4048,3.6693,1.2168e-13,-0.70239,0,0,0.2,-0,-0,0.66667
0.49806,0.10606,2.4903,-0.59092,-14.68,38.907,3.9241,-1.308,-0.75845,5.2322,8.793e-14,-0.37922,0,0,0.2,-9.4739e-16,0,0.66667
0.8429,0.17196,4.2145,-0.49206,-4.5853,5.4643,5.5301,-1.8434,-1.1395,7.3735,-1.2592e-09,-0.56974,0,0,0.2,1.8948e-15,5.8588e-17,0.66667
0.067807,0.71147,0.33903,0.31721,10.373,106.45,-0.28678,0.095595,-1.6417,-0.38238,5.3358e-09,-0.82084,0,0,0.2,-0,-0,0.66667
0.57327,0.028099,2.8664,-0.70785,-15.796,29.693,5.4106,-1.8035,-0.21861,7.2141,-3.9302e-13,-0.1093,0,0,0.2,9.4739e-16,2.7739e-16,0.66667
0.94276,0.023751,4.7138,-0.71437,-2.6093,2.0102,8.9798,-2.9933,-0.18493,11.973,1.5588e-06,-0.092464,0,0,0.2,-1.8948e-15,0,0.66667
0.51786,0.7344,2.5893,0.3516,8.4168,36.074,-2.4277,0.80923,-1.5603,-3.2369,-2.5557e-13,-0.78013,0,0,0.2,9.4739e-16,0,0.66667
0.19447,0.63393,0.97233,0.2009,6.3347,84.832,-0.52091,0.17364,-1.8556,-0.69455,-4.26e-10,-0.92779,0,0,0.2,-0,-0,0.66667
0.84794,0.077065,4.2397,-0.6344,-5.8369,5.4939,7.1725,-2.3908,-0.5682,9.5633,-4.8564e-10,-0.2841,0,0,0.2,-0,-0,0.66667
0.25164,0.59101,1.2582,0.13651,4.1852,75.368,-0.45802,0.15267,-1.9349,-0.61069,-5.587e-11,-0.96746,0,0,0.2,7.1054e-16,0,0.66667
0.70073,0.79246,3.5036,0.4387,7.2746,15.858,-4.0987,1.3662,-1.3156,-5.465,3.9155e-12,-0.65779,0,0,0.2,-0,-0,0.66667
0.54026,0.24544,2.7013,-0.38183,-8.8478,33.26,2.7505,-0.91685,-1.4813,3.6674,6.4948e-13,-0.74063,0,0,0.2,-4.737e-16,0,0.66667
0.94884,0.28583,4.7442,-0.32125,-0.91471,1.0089,4.0642,-1.3547,-1.6331,5.4189,1.3254e-08,-0.81654,0,0,0.2,-0,-0,0.66667
0.62434,0.13077,3.1217,-0.55385,-11.119,23.662,4.6105,-1.5368,-0.91047,6.1474,1.3602e-12,-0.45523,0,0,0.2,1.8948e-15,1.5061e-16,0.66667
0.83798,0.34362,4.1899,-0.23457,-2.205,5.389,2.6209,-0.87363,-1.8049,3.4945,-6.351e-10,-0.90246,0,0,0.2,2.7682e-15,0,0.66667
0.0079329,0.37144,0.039664,-0.19284,-6.3226,116.82,0.020397,-0.0067991,-1.8675,0.027196,-3.2609e-08,-0.93377,0,0,0.2,-1.1102e-17,0,0.66667
0.98934,0.94382,4.9467,0.66573,0.38822,1.0688,-8.7818,2.9273,-0.4238,-11.709,2.5849e-06,-0.2119,0,0,0.2,-1.8948e-15,0,0.66667
0.077715,0.74187,0.38857,0.3628,11.858,104.74,-0.37593,0.12531,-1.533,-0.50124,1.4204e-09,-0.76649,0,0,0.2,5.9212e-17,0,0.66667
0.32213,0.38509,1.6106,-0.17236,-5.054,64.103,0.74031,-0.24677,-1.8934,0.98709,1.2623e-12,-0.94672,0,0,0.2,-0,-0,0.66667
0.94615,0.91218,4.7308,0.61827,2.0442,1.6597,-7.7997,2.5999,-0.64029,-10.4,-5.3754e-08,-0.32014,0,0,0.2,-0,-0,0.66667
0.0089391,0.8855,0.044696,0.57825,19.137,116.65,-0.068921,0.022973,-0.81009,-0.091894,-4.5623e-07,-0.40505,0,0,0.2,-0,-0,0.66667
0.82273,0.98629,4.1137,0.72943,7.8333,7.1564,-8.0017,2.6672,-0.10716,-10.669,1.8989e-10,-0.053581,0,0,0.2,-0,-0,0.66667
0.86121,0.52822,4.3061,0.042337,0.33993,4.0483,-0.48615,0.16205,-1.9947,-0.6482,-4.4321e-09,-0.99734,0,0,0.2,-0,-0,0.66667
0.43983,0.29252,2.1992,-0.31121,-8.2167,46.595,1.8251,-0.60836,-1.6555,2.4334,-1.5038e-12,-0.82776,0,0,0.2,-0,-0,0.66667
0.25575,0.1184,1.2787,-0.57241,-17.693,74.874,1.9519,-0.65062,-0.83449,2.6025,1.4617e-11,-0.41725,0,0,0.2,-0,-0,0.66667
0.80269,0.11417,4.0134,-0.57874,-6.7251,8.0569,6.194,-2.0647,-0.80816,8.2586,-6.9484e-11,-0.40408,0,0,0.2,-9.4739e-16,0,0.66667
0.47786,0.73687,2.3893,0.3553,8.9783,41.362,-2.2638,0.75461,-1.55,-3.0184,2.327e-13,-0.775,0,0,0.2,9.4739e-16,0,0.66667
0.13434,0.28461,0.67169,-0.32308,-10.421,95.019,0.57869,-0.1929,-1.6288,0.77159,1.8161e-09,-0.81438,0,0,0.2,-4.737e-16,0,0.66667
0.92785,0.61403,4.6392,0.17105,0.69848,1.4181,-2.1161,0.70535,-1.895,-2.8214,-7.4758e-09,-0.9475,0,0,0.2,-0,-0,0.66667
0.89597,0.088964,4.4798,-0.61655,-3.937,3.2349,7.3655,-2.4552,-0.64818,9.8207,-4.4455e-08,-0.32409,0,0,0.2,-1.4211e-15,0,0.66667
0.49155,0.9408,2.4577,0.66119,16.629,39.864,-4.3334,1.4445,-0.44542,-5.7779,-2.8377e-13,-0.22271,0,0,0.2,1.8948e-15,0,0.66667
0.8567,0.39533,4.2835,-0.15701,-1.3049,4.3208,1.7934,-0.59782,-1.9121,2.3913,-7.2448e-10,-0.95607,0,0,0.2,9.4739e-16,0,0.66667
0.41858,0.024395,2.0929,-0.71341,-19.574,50.014,3.9816,-1.3272,-0.19037,5.3087,1.6032e-13,-0.095185,0,0,0.2,-0,-1.6223e-16,0.66667
0.68346,0.50365,3.4173,0.0054717,0.093996,17.179,-0.049863,0.016621,-2.0001,-0.066484,1.7037e-13,-1.0001,0,0,0.2,-0,-0,0.66667
0.39799,0.069734,1.99,-0.6454,-18.008,52.914,3.4248,-1.1416,-0.51822,4.5665,-9.4125e-13,-0.25911,0,0,0.2,9.4739e-16,0,0.66667
0.50574,0.81307,2.5287,0.46961,11.483,37.756,-3.1667,1.0556,-1.2164,-4.2222,3.455e-13,-0.60819,0,0,0.2,-1.8948e-15,0,0.66667
0.18955,0.90487,0.94776,0.6073,19.394,85.794,-1.5349,0.51162,-0.68993,-2.0465,1.3863e-11,-0.34496,0,0,0.2,-1.1842e-16,0,0.66667
0.96499,0.28151,4.8249,-0.32774,-0.5969,0.68026,4.2169,-1.4056,-1.619,5.6225,1.3221e-08,-0.80952,0,0,0.2,-0,-0,0.66667
0.29422,0.28752,1.4711,-0.31873,-9.5522,68.556,1.2503,-0.41677,-1.6391,1.6671,1.1318e-11,-0.81953,0,0,0.2,-0,-0,0.66667
0.10346,0.97723,0.5173,0.71585,23.569,100.4,-0.98749,0.32916,-0.17721,-1.3167,-3.7235e-08,-0.088605,0,0,0.2,-0,-0,0.66667
0.14432,0.60866,0.72158,0.16299,5.2292,93.295,-0.31362,0.10454,-1.9049,-0.41816,-1.0051e-09,-0.95243,0,0,0.2,2.3685e-16,0,0.66667
0.014092,0.54121,0.070461,0.061819,2.0244,115.75,-0.011616,0.0038742,-1.9867,-0.015487,3.1568e-06,-0.99335,0,0,0.2,-0,-0,0.66667
0.71595,0.49463,3.5797,-0.0080557,-0.12618,14.187,0.076899,-0.025633,-2.0001,0.10253,-9.5836e-13,-1,0,0,0.2,1.8948e-15,0,0.66667
0.5645,0.11561,2.8225,-0.57659,-12.957,30.523,4.3398,-1.4466,-0.8181,5.7863,4.6763e-13,-0.40905,0,0,0.2,4.737e-16,0,0.66667
0.79458,0.78363,3.9729,0.42544,5.0596,8.3261,-4.5073,1.5024,-1.3574,-6.0097,3.2536e-10,-0.67872,0,0,0.2,-1.8948e-15,0,0.66667
0.50708,0.74487,2.5354,0.36731,8.9326,37.485,-2.4834,0.8278,-1.5198,-3.3112,6.5725e-14,-0.75992,0,0,0.2,7.1054e-16,0,0.66667
0.79182,0.4285,3.9591,-0.10726,-1.2723,8.2167,1.1324,-0.37746,-1.9584,1.5098,-1.4172e-10,-0.9792,0,0,0.2,9.4739e-16,0,0.66667
0.69576,0.66349,3.4788,0.24523,4.0895,16.11,-2.275,0.75832,-1.7854,-3.0333,6.8709e-12,-0.89271,0,0,0.2,-0,-0,0.66667
0.77785,0.79587,3.8892,0.44381,5.6745,9.5302,-4.6029,1.5343,-1.2991,-6.1372,1.5681e-10,-0.64954,0,0,0.2,-0,-0,0.66667
0.40648,0.29458,2.0324,-0.30813,-8.4246,51.385,1.67,-0.55667,-1.6631,2.2267,-2.077e-12,-0.83156,0,0,0.2,9.4739e-16,0,0.66667
0.64777,0.74779,3.2389,0.37168,7.0271,20.944,-3.2102,1.0701,-1.5088,-4.2803,-2.7713e-12,-0.75442,0,0,0.2,-1.4211e-15,0,0.66667
0.17979,0.85284,0.89897,0.52925,16.917,87.39,-1.2688,0.42292,-1.0031,-1.6917,-3.541e-10,-0.50155,0,0,0.2,-0,-0,0.66667
0.32182,0.45699,1.6091,-0.064517,-1.8905,64.133,0.27684,-0.092279,-1.9841,0.36912,9.6503e-13,-0.99207,0,0,0.2,-3.8111e-16,0,0.66667
0.1726,0.44045,0.86302,-0.08932,-2.8373,88.493,0.20556,-0.06852,-1.9732,0.27408,6.8287e-10,-0.98659,0,0,0.2,-0,-0,0.66667
0.40864,0.25108,2.0432,-0.37338,-10.204,51.111,2.0344,-0.67813,-1.5055,2.7125,-9.7256e-13,-0.75276,0,0,0.2,-9.4739e-16,0,0.66667
0.24142,0.51032,1.2071,0.015473,0.4767,77.03,-0.049808,0.016603,-1.9981,-0.066411,-2.384e-12,-0.99906,0,0,0.2,9.4739e-16,0,0.66667
0.40692,0.045262,2.0346,-0.68211,-18.903,51.656,3.7009,-1.2336,-0.34617,4.9345,-3.2796e-13,-0.17309,0,0,0.2,-0,-0,0.66667
0.97522,0.49627,4.8761,-0.0055942,-0.0058589,0.27705,0.072742,-0.024243,-1.9997,0.096991,6.6096e-06,-0.99985,0,0,0.2,1.8948e-15,0,0.66667
0.32032,0.7315,1.6016,0.34725,10.228,64.451,-1.4831,0.49435,-1.5701,-1.9774,-5.862e-13,-0.78504,0,0,0.2,4.737e-16,0,0.66667
0.98249,0.52178,4.9125,0.032676,0.018787,0.17716,-0.42805,0.14268,-1.9964,-0.57073,4.0128e-07,-0.9982,0,0,0.2,-0,-0,0.66667
0.63631,0.70967,3.1815,0.3145,6.0877,22.089,-2.6683,0.88942,-1.6478,-3.5577,-2.7682e-12,-0.82388,0,0,0.2,-0,-0,0.66667
0.37509,0.51326,1.8755,0.019893,0.55822,55.955,-0.099491,0.033164,-1.9994,-0.13265,2.6604e-13,-0.99969,0,0,0.2,-0,-0,0.66667
0.85748,0.30267,4.2874,-0.29599,-2.4661,4.4007,3.3841,-1.128,-1.6886,4.5122,-1.4608e-09,-0.84432,0,0,0.2,9.4739e-16,0,0.66667
0.61959,0.36798,3.0979,-0.19803,-3.9595,23.809,1.636,-0.54532,-1.86,2.1813,1.9964e-12,-0.93001,0,0,0.2,-4.737e-16,0,0.66667
0.25203,0.2038,1.2602,-0.4443,-13.701,75.404,1.493,-0.49768,-1.298,1.9907,5.2337e-11,-0.649,0,0,0.2,4.737e-16,0,0.66667
0.79286,0.30441,3.9643,-0.29338,-3.4869,8.2766,3.1015,-1.0338,-1.6936,4.1353,-3.2133e-10,-0.84679,0,0,0.2,-0,-0,0.66667
0.43294,0.94668,2.1647,0.67002,18.069,47.911,-3.8677,1.2892,-0.40323,-5.1569,-2.2315e-13,-0.20162,0,0,0.2,-0,-0,0.66667
0.35751,0.30176,1.7876,-0.29737,-8.4991,58.686,1.4175,-0.4725,-1.6857,1.89,-2.9537e-12,-0.84285,0,0,0.2,-0,-0,0.66667
0.33028,0.38914,1.6514,-0.16629,-4.8461,62.831,0.73229,-0.2441,-1.9015,0.97638,1.9135e-13,-0.95076,0,0,0.2,-0,-0,0.66667
0.69737,0.1887,3.4868,-0.46695,-7.8285,16.206,4.3418,-1.4473,-1.2251,5.789,-1.8381e-12,-0.61255,0,0,0.2,-0,-0,0.66667
0.26865,0.31974,1.3433,-0.27039,-8.2253,72.637,0.96854,-0.32285,-1.7401,1.2914,4.1834e-11,-0.87003,0,0,0.2,-0,-0,0.66667
0.80828,0.67173,4.0414,0.2576,2.8443,7.2119,-2.7762,0.92538,-1.7632,-3.7015,4.519e-10,-0.88162,0,0,0.2,-1.8948e-15,0,0.66667
0.29529,0.40241,1.4764,-0.14639,-4.3721,68.332,0.57637,-0.19212,-1.9248,0.7685,9.4801e-12,-0.96241,0,0,0.2,1.1842e-16,0,0.66667
0.54412,0.35964,2.7206,-0.21055,-4.8272,32.657,1.5275,-0.50917,-1.842,2.0367,6.3116e-13,-0.92099,0,0,0.2,-0,-0,0.66667
0.48792,0.019674,2.4396,-0.72049,-18.266,40.434,4.6872,-1.5624,-0.15377,6.2496,-1.1502e-13,-0.076883,0,0,0.2,-0,-0,0.66667
0.85536,0.75373,4.2768,0.38059,3.2397,4.6187,-4.3405,1.4468,-1.4852,-5.7874,1.8205e-09,-0.7426,0,0,0.2,-0,-0,0.66667
0.88839,0.49995,4.4419,-7.2455e-05,-0.0004667,2.7896,0.00085824,-0.00028609,-2.0015,0.0011443,-2.0615e-08,-1.0007,0,0,0.2,-2.4869e-15,0,0.66667
0.18438,0.37194,0.92192,-0.19209,-6.0805,86.521,0.47224,-0.15741,-1.8694,0.62965,2.3111e-10,-0.9347,0,0,0.2,-2.9606e-16,0,0.66667
0.58535,0.020792,2.9267,-0.71881,-15.717,28.304,5.6101,-1.87,-0.16183,7.4801,-6.9278e-14,-0.080916,0,0,0.2,-0,-0,0.66667
0.89821,0.97006,4.491,0.70509,4.4936,3.3818,-8.4442,2.8147,-0.23256,-11.259,5.9546e-08,-0.11628,0,0,0.2,-0,-0,0.66667
0.44612,0.35913,2.2306,-0.21131,-5.5283,45.658,1.2569,-0.41897,-1.84,1.6759,-1.0001e-12,-0.92001,0,0,0.2,9.4739e-16,0,0.66667
0.92187,0.49659,4.6093,-0.0051189,-0.022632,1.5444,0.06292,-0.020973,-2.0017,0.083893,-2.6545e-07,-1.0009,0,0,0.2,2.3685e-15,0,0.66667
0.27899,0.61758,1.395,0.17637,5.3243,70.945,-0.65609,0.2187,-1.8896,-0.87478,-2.2123e-11,-0.94482,0,0,0.2,2.3685e-16,0,0.66667
0.60883,0.34111,3.0442,-0.23833,-4.8745,25.025,1.9347,-0.64489,-1.7997,2.5796,2.0135e-12,-0.89987,0,0,0.2,-1.4211e-15,0,0.66667
0.68245,0.94513,3.4123,0.6677,11.81,17.952,-6.0756,2.0252,-0.41432,-8.1008,-5.3246e-13,-0.20716,0,0,0.2,-0,-0,0.66667
0.22821,0.027929,1.141,-0.70811,-22.329,79.458,2.1546,-0.7182,-0.21709,2.8728,7.0257e-12,-0.10855,0,0,0.2,-2.3685e-16,0,0.66667
0.013768,0.77805,0.068838,0.41707,13.732,115.81,-0.076561,0.02552,-1.3825,-0.10208,-2.8535e-08,-0.69126,0,0,0.2,1.4803e-17,0,0.66667
0.41672,0.85534,2.0836,0.53301,14.528,50.072,-2.9616,0.98719,-0.98897,-3.9488,4.1567e-13,-0.49449,0,0,0.2,-0,-0,0.66667
0.93848,0.86094,4.6924,0.5414,2.0009,1.6649,-6.7746,2.2582,-0.95813,-9.0328,4.6052e-08,-0.47906,0,0,0.2,-0,-0,0.66667
0.34303,0.36286,1.7151,-0.20571,-5.9393,60.868,0.94088,-0.31363,-1.85,1.2545,-1.2659e-12,-0.92502,0,0,0.2,-0,-0,0.66667
0.77974,0.63537,3.8987,0.20306,2.5435,9.1234,-2.1111,0.7037,-1.8537,-2.8148,1.8792e-10,-0.92683,0,0,0.2,-0,-0,0.66667
0.17474,0.41445,0.87368,-0.12832,-4.0741,88.137,0.29897,-0.099656,-1.9414,0.39862,2.6737e-10,-0.9707,0,0,0.2,-0,-0,0.66667
0.34195,0.60786,1.7098,0.16178,4.6722,61.021,-0.73763,0.24588,-1.9069,-0.9835,1.3999e-12,-0.95346,0,0,0.2,-0,-0,0.66667
0.1446,0.66219,0.72299,0.24329,7.8132,93.258,-0.46906,0.15635,-1.7894,-0.62541,-1.289e-09,-0.89472,0,0,0.2,-4.737e-16,0,0.66667
0.71677,0.78186,3.5839,0.42279,6.6844,14.398,-4.0406,1.3469,-1.3659,-5.3875,1.3399e-11,-0.68295,0,0,0.2,-0,-0,0.66667
0.69931,0.22224,3.4965,-0.41665,-6.9284,15.959,3.8848,-1.2949,-1.3831,5.1798,-4.3789e-12,-0.69155,0,0,0.2,1.8948e-15,0,0.66667
0.6885,0.74969,3.4425,0.37453,6.4024,16.914,-3.4382,1.1461,-1.5032,-4.5843,1.6698e-12,-0.75159,0,0,0.2,1.3915e-15,0,0.66667
0.2534,0.1817,1.267,-0.47745,-14.727,75.199,1.6131,-0.53771,-1.1896,2.1508,4.2826e-11,-0.59478,0,0,0.2,5.9212e-16,0,0.66667
0.69236,0.64782,3.4618,0.22173,3.7299,16.411,-2.0469,0.68229,-1.8246,-2.7291,5.4301e-12,-0.9123,0,0,0.2,-0,-0,0.66667
0.2273,0.64085,1.1365,0.21128,6.5653,79.376,-0.6403,0.21343,-1.8401,-0.85374,-1.5984e-10,-0.92003,0,0,0.2,-2.6917e-16,0,0.66667
0.42465,0.073921,2.1232,-0.63912,-17.36,49.051,3.6187,-1.2062,-0.54738,4.8249,-4.2344e-13,-0.27369,0,0,0.2,-0,-0,0.66667
0.37192,0.44403,1.8596,-0.083958,-2.3631,56.437,0.41634,-0.13878,-1.975,0.55512,-1.0757e-12,-0.98751,0,0,0.2,-0,-0,0.66667
0.35531,0.85665,1.7765,0.53498,15.428,59.178,-2.5344,0.84481,-0.98165,-3.3793,2.1179e-12,-0.49083,0,0,0.2,-0,-0,0.66667
0.057655,0.8131,0.28827,0.46965,15.436,108.22,-0.36104,0.12035,-1.2164,-0.48138,-1.8385e-08,-0.60818,0,0,0.2,-2.3685e-16,0,0.66667
0.63165,0.2477,3.1582,-0.37845,-7.4173,22.648,3.1873,-1.0624,-1.4908,4.2497,2.4329e-12,-0.7454,0,0,0.2,1.1842e-15,0,0.66667
0.70732,0.67901,3.5366,0.26851,4.336,15.071,-2.5323,0.8441,-1.7432,-3.3764,1.3312e-11,-0.8716,0,0,0.2,-4.737e-16,0,0.66667
0.61359,0.30847,3.0679,-0.2873,-5.828,24.53,2.3504,-0.78347,-1.7067,3.1339,2.4893e-12,-0.85333,0,0,0.2,-0,-0,0.66667
0.64831,0.033284,3.2416,-0.70007,-13.475,21.395,6.0516,-2.0172,-0.25746,8.0687,-1.2346e-13,-0.12873,0,0,0.2,1.8948e-15,0,0.66667
0.16994,0.43088,0.8497,-0.10368,-3.297,88.944,0.23494,-0.078312,-1.9622,0.31325,8.2973e-10,-0.98112,0,0,0.2,3.3747e-16,0,0.66667
0.14945,0.55898,0.74723,0.088468,2.8322,92.416,-0.17628,0.058761,-1.972,-0.23504,1.3349e-09,-0.98599,0,0,0.2,-2.5181e-16,0,0.66667
0.51418,0.30033,2.5709,-0.2995,-7.1972,36.511,2.0533,-0.68443,-1.6812,2.7377,3.1664e-13,-0.84062,0,0,0.2,-0,-0,0.66667
0.87533,0.54355,4.3767,0.065318,0.47121,3.374,-0.76233,0.25411,-1.9855,-1.0164,1.7328e-09,-0.99276,0,0,0.2,-0,-0,0.66667
0.18395,0.46484,0.91977,-0.052738,-1.6678,86.579,0.12935,-0.043117,-1.9904,0.17247,4.5458e-10,-0.99522,0,0,0.2,3.5527e-16,0,0.66667
0.46284,0.77951,2.3142,0.41926,10.814,43.465,-2.5874,0.86245,-1.3752,-3.4498,6.6924e-13,-0.68761,0,0,0.2,-1.1842e-16,0,0.66667
0.42893,0.70663,2.1447,0.30994,8.2807,48.143,-1.7726,0.59087,-1.6573,-2.3635,8.8496e-13,-0.82865,0,0,0.2,-0,-0,0.66667
0.49729,0.85799,2.4864,0.53699,13.32,38.941,-3.5605,1.1868,-0.97437,-4.7473,2.7245e-13,-0.48719,0,0,0.2,-0,-0,0.66667
0.16151,0.44092,0.80755,-0.088626,-2.8262,90.369,0.19085,-0.063618,-1.9721,0.25447,5.2091e-10,-0.98604,0,0,0.2,-4.737e-16,0,0.66667
0.34244,0.70226,1.7122,0.30339,8.7791,60.996,-1.3852,0.46175,-1.6729,-1.847,1.9743e-12,-0.83645,0,0,0.2,-0,-0,0.66667
0.26188,0.69858,1.3094,0.29787,9.1017,73.742,-1.0401,0.34669,-1.684,-1.3868,-5.3068e-11,-0.84199,0,0,0.2,4.737e-16,0,0.66667
0.84453,0.44797,4.2226,-0.078039,-0.70096,4.9325,0.87875,-0.29292,-1.9789,1.1717,4.2814e-10,-0.98947,0,0,0.2,-1.8948e-15,0,0.66667
0.80033,0.99014,4.0017,0.7352,8.7927,8.5779,-7.8454,2.6151,-0.077753,-10.461,-2.3204e-10,-0.038877,0,0,0.2,9.4739e-16,0,0.66667
0.42664,0.4639,2.1332,-0.054156,-1.4452,48.383,0.30807,-0.10269,-1.9894,0.41076,-3.6271e-13,-0.99472,0,0,0.2,-4.737e-16,0,0.66667
0.60702,0.010805,3.0351,-0.73379,-15.429,25.878,5.939,-1.9797,-0.085411,7.9186,3.3085e-13,-0.042706,0,0,0.2,-0,2.1431e-16,0.66667
0.14547,0.5616,0.72733,0.092399,2.9617,93.094,-0.17921,0.059737,-1.9702,-0.23895,1.7454e-10,-0.9851,0,0,0.2,-2.9606e-16,0,0.66667
0.50961,0.58758,2.5481,0.13137,3.1675,37.021,-0.89263,0.29754,-1.9381,-1.1902,-2.9388e-13,-0.96906,0,0,0.2,4.737e-16,0,0.66667
0.29695,0.43294,1.4847,-0.10059,-2.9997,68.061,0.39826,-0.13275,-1.9656,0.53102,6.6859e-12,-0.98282,0,0,0.2,-1.1842e-16,0,0.66667
0.85965,0.31459,4.2983,-0.27812,-2.2797,4.2713,3.1878,-1.0626,-1.7269,4.2503,-1.8639e-09,-0.86346,0,0,0.2,-3.7896e-15,0,0.66667
0.6716,0.41055,3.358,-0.13418,-2.3795,18.36,1.2015,-0.4005,-1.9375,1.602,-6.4682e-13,-0.96877,0,0,0.2,1.8948e-15,0,0.66667
0.63347,0.15335,3.1674,-0.51997,-10.22,22.632,4.3919,-1.464,-1.0386,5.8558,1.8492e-12,-0.51929,0,0,0.2,1.1349e-15,0,0.66667
0.12475,0.44549,0.62376,-0.081772,-2.6362,96.629,0.13602,-0.045338,-1.9773,0.18135,-5.0314e-09,-0.98865,0,0,0.2,-2.3685e-16,0,0.66667
0.47059,0.32321,2.3529,-0.26519,-6.7467,42.293,1.6639,-0.55464,-1.7501,2.2186,-6.4315e-13,-0.87503,0,0,0.2,-0,-0,0.66667
0.98657,0.73172,4.9329,0.34759,0.14984,0.38989,-4.5723,1.5241,-1.5703,-6.0964,2.1453e-08,-0.78514,0,0,0.2,-0,-0,0.66667
0.9483,0.38557,4.7415,-0.17165,-0.48144,0.86613,2.1703,-0.72343,-1.8945,2.8937,-1.7167e-08,-0.94724,0,0,0.2,1.8948e-15,0,0.66667
0.64509,0.87411,3.2254,0.56117,10.778,21.476,-4.8267,1.6089,-0.88095,-6.4356,-1.6227e-12,-0.44048,0,0,0.2,-1.1842e-15,0,0.66667
0.15172,0.86373,0.75862,0.54559,17.618,92.127,-1.1037,0.36791,-0.94086,-1.4716,-2.7261e-09,-0.47043,0,0,0.2,2.3685e-16,0,0.66667
0.63913,0.73845,3.1956,0.35768,6.8912,21.832,-3.048,1.016,-1.5453,-4.064,-2.8837e-12,-0.77266,0,0,0.2,-9.4739e-16,0,0.66667
0.56566,0.97989,2.8283,0.71983,16.284,30.617,-5.4291,1.8097,-0.15728,-7.2388,1.0703e-13,-0.07864,0,0,0.2,-0,-0,0.66667
0.46867,0.55926,2.3433,0.088886,2.261,42.491,-0.55544,0.18515,-1.9737,-0.74059,-1.6459e-13,-0.98686,0,0,0.2,4.737e-16,0,0.66667
0.42804,0.5768,2.1402,0.1152,3.0707,48.192,-0.65745,0.21915,-1.9517,-0.8766,6.336e-13,-0.97584,0,0,0.2,-0,-0,0.66667
0.59927,0.50969,2.9963,0.014532,0.30197,26.028,-0.11612,0.038705,-1.9984,-0.15482,-3.5895e-13,-0.99921,0,0,0.2,-0,-0,0.66667
0.84997,0.52678,4.2498,0.040168,0.34826,4.6296,-0.45522,0.15174,-1.994,-0.60696,1.7252e-09,-0.99699,0,0,0.2,-0,-0,0.66667
0.75112,0.24786,3.7556,-0.37821,-5.3298,11.469,3.7878,-1.2626,-1.4929,5.0503,-8.027e-11,-0.74646,0,0,0.2,-1.1842e-15,0,0.66667
0.57936,0.55503,2.8968,0.082548,1.7804,28.343,-0.63767,0.21256,-1.9764,-0.85023,-7.4007e-13,-0.98822,0,0,0.2,4.737e-16,0,0.66667
0.9247,0.55605,4.6235,0.08407,0.3577,1.469,-1.0365,0.34551,-1.975,-1.382,7.0739e-08,-0.98752,0,0,0.2,-4.737e-16,0,0.66667
0.06474,0.071573,0.3237,-0.64264,-21.232,107.02,0.55473,-0.18491,-0.53169,0.73964,5.872e-08,-0.26585,0,0,0.2,-0,-0,0.66667
0.99135,0.18605,4.9567,-0.47093,-0.1041,0.5623,6.2247,-2.0749,-1.2116,8.2996,-6.4662e-08,-0.60582,0,0,0.2,-2.2501e-15,0,0.66667
0.052995,0.087282,0.26497,-0.61908,-20.463,109.04,0.43744,-0.14581,-0.63675,0.58325,5.6758e-09,-0.31837,0,0,0.2,5.9212e-17,0,0.66667
0.1995,0.6076,0.99748,0.1614,5.076,83.985,-0.42931,0.1431,-1.9067,-0.57241,-2.5024e-10,-0.95337,0,0,0.2,-0,-0,0.66667
0.42275,0.48425,2.1138,-0.023632,-0.63318,48.939,0.13321,-0.044402,-1.9984,0.17761,-5.6047e-13,-0.99918,0,0,0.2,-0,-0,0.66667
0.10751,0.1584,0.53754,-0.5124,-16.723,99.647,0.73451,-0.24484,-1.0677,0.97934,1.9182e-08,-0.53383,0,0,0.2,-0,-0,0.66667
0.62367,0.27271,3.1184,-0.34093,-6.7863,23.47,2.8351,-0.94502,-1.5872,3.7801,2.3996e-12,-0.79361,0,0,0.2,4.737e-16,0,0.66667
0.047993,0.073561,0.23996,-0.63966,-21.171,109.91,0.40932,-0.13644,-0.54559,0.54576,9.7316e-08,-0.27279,0,0,0.2,-0,-0,0.66667
0.28462,0.58312,1.4231,0.12468,3.7486,70.032,-0.47316,0.15772,-1.9443,-0.63088,-1.4155e-11,-0.97216,0,0,0.2,-0,-0,0.66667
0.061037,0.52665,0.30518,0.039981,1.3045,107.6,-0.032537,0.010846,-1.9953,-0.043383,-2.5238e-07,-0.99763,0,0,0.2,-0,-0,0.66667
0.70352,0.70154,3.5176,0.30231,4.9418,15.445,-2.8357,0.94524,-1.6757,-3.781,1.0172e-11,-0.83783,0,0,0.2,9.4739e-16,0,0.66667
0.66846,0.56295,3.3423,0.094426,1.6869,18.657,-0.84159,0.28053,-1.9693,-1.1221,1.4688e-13,-0.98465,0,0,0.2,-0,-0,0.66667
0.37858,0.6871,1.8929,0.28065,7.8735,55.497,-1.4167,0.47222,-1.7209,-1.8889,2.5224e-12,-0.86046,0,0,0.2,1.4803e-16,0,0.66667
0.18819,0.02023,0.94097,-0.71965,-23.106,86.083,1.8058,-0.60193,-0.15916,2.4077,1.9039e-10,-0.079579,0,0,0.2,-0,-0,0.66667
0.747,0.50918,3.735,0.013767,0.1948,11.56,-0.13712,0.045708,-1.9991,-0.18283,4.2923e-12,-0.99957,0,0,0.2,3.7896e-15,0,0.66667
0.34038,0.80899,1.7019,0.46348,13.492,61.407,-2.1034,0.70115,-1.2367,-2.8046,2.7915e-12,-0.61833,0,0,0.2,5.9212e-16,0,0.66667
0.7953,0.52375,3.9765,0.035631,0.41574,7.9593,-0.37783,0.12594,-1.996,-0.50378,3.2997e-11,-0.998,0,0,0.2,-0,-0,0.66667
0.4879,0.56509,2.4395,0.097637,2.4238,39.884,-0.63516,0.21172,-1.9667,-0.84688,6.6791e-13,-0.98333,0,0,0.2,-1.8948e-15,0,0.66667
0.52567,0.96997,2.6283,0.70495,16.957,35.51,-4.9409,1.647,-0.23342,-6.5879,3.6238e-13,-0.11671,0,0,0.2,-0,-0,0.66667
0.028491,0.57824,0.14245,0.11736,3.842,113.25,-0.044582,0.014861,-1.9506,-0.059442,2.5329e-07,-0.97532,0,0,0.2,5.9212e-17,0,0.66667
0.64423,0.66446,3.2212,0.2467,4.682,21.201,-2.1191,0.70635,-1.7833,-2.8254,-2.355e-12,-0.89167,0,0,0.2,-0,-0,0.66667
0.35066,0.41714,1.7533,-0.12428,-3.5629,59.675,0.58108,-0.19369,-1.944,0.77477,-1.0228e-12,-0.97201,0,0,0.2,-0,-0,0.66667
0.22921,0.98754,1.146,0.73131,23.075,79.311,-2.2349,0.74498,-0.097476,-2.9799,3.1179e-11,-0.048738,0,0,0.2,2.3685e-16,0,0.66667
0.43388,0.23147,2.1694,-0.40279,-10.732,47.501,2.3302,-0.77673,-1.4225,3.1069,-1.4344e-12,-0.71127,0,0,0.2,-0,-0,0.66667
0.38247,0.74851,1.9123,0.37277,10.444,54.967,-1.901,0.63366,-1.5061,-2.5346,2.0813e-12,-0.75304,0,0,0.2,-0,-0,0.66667
0.46979,0.99139,2.3489,0.73708,19.132,42.896,-4.617,1.539,-0.068943,-6.1559,-1.7808e-13,-0.034471,0,0,0.2,-0,-0,0.66667
0.97948,0.35597,4.8974,-0.21605,-0.17691,0.31661,2.8216,-0.94053,-1.8332,3.7621,3.1757e-08,-0.91658,0,0,0.2,-0,-0,0.66667
0.36438,0.42522,1.8219,-0.11217,-3.1786,57.582,0.54497,-0.18166,-1.9544,0.72663,-1.3286e-12,-0.97718,0,0,0.2,-4.737e-16,0,0.66667
0.77441,0.93138,3.8721,0.64707,8.5373,10.162,-6.6813,2.2271,-0.51072,-8.9084,1.8317e-11,-0.25536,0,0,0.2,-0,-0,0.66667
0.55277,0.45897,2.7638,-0.061552,-1.3891,31.539,0.45365,-0.15122,-1.9856,0.60487,3.5211e-13,-0.99282,0,0,0.2,-0,-0,0.66667
0.88913,0.82647,4.4457,0.48971,3.255,3.2321,-5.8055,1.9352,-1.1474,-7.7407,4.3112e-09,-0.57371,0,0,0.2,-0,-0,0.66667
0.35495,0.74497,1.7748,0.36746,10.543,59.112,-1.7391,0.57969,-1.5198,-2.3188,2.8142e-12,-0.75991,0,0,0.2,4.737e-16,0,0.66667
0.24552,0.12662,1.2276,-0.56008,-17.399,76.529,1.8335,-0.61115,-0.88517,2.4446,4.0272e-11,-0.44259,0,0,0.2,-0,-0,0.66667
0.91102,0.49408,4.5551,-0.0088781,-0.045139,1.9109,0.10784,-0.035947,-1.9994,0.14379,1.4967e-07,-0.99972,0,0,0.2,4.737e-16,0,0.66667
0.043534,0.66162,0.21767,0.24243,7.9389,110.64,-0.14072,0.046906,-1.7912,-0.18762,2.7358e-08,-0.8956,0,0,0.2,-0,-0,0.66667
0.95075,0.70915,4.7538,0.31372,0.85364,0.95435,-3.977,1.3257,-1.65,-5.3026,-1.4352e-08,-0.82502,0,0,0.2,9.4739e-16,0,0.66667
0.55641,0.5027,2.782,0.0040521,0.090887,31.089,-0.030062,0.010021,-2,-0.040082,-6.7876e-14,-0.99998,0,0,0.2,-0,-0,0.66667
0.37636,0.60035,1.8818,0.15052,4.2223,55.782,-0.75533,0.25178,-1.9202,-1.0071,1.3332e-12,-0.96008,0,0,0.2,-9.4739e-16,0,0.66667
0.99505,0.896,4.9753,0.594,0.066288,0.81932,-7.8808,2.6269,-0.74471,-10.508,8.9122e-07,-0.37236,0,0,0.2,-0,2.0884e-16,0.66667
0.058363,0.50854,0.29181,0.012815,0.41822,108.06,-0.0099719,0.0033245,-1.999,-0.013296,8.5617e-07,-0.99948,0,0,0.2,-0,-0,0.66667
0.51671,0.80625,2.5835,0.45937,11.057,36.323,-3.1648,1.0549,-1.2506,-4.2197,2.5113e-13,-0.62529,0,0,0.2,-9.4739e-16,0,0.66667
0.031097,0.74523,0.15549,0.36785,12.087,112.8,-0.15252,0.05084,-1.5204,-0.20336,1.6968e-08,-0.76021,0,0,0.2,-7.4015e-17,0,0.66667
0.57118,0.0011151,2.8559,-0.74833,-16.804,30.016,5.699,-1.8997,-0.0091617,7.5987,3.757e-13,-0.0045808,0,0,0.2,-0,-0,0.66667
0.18047,0.69963,0.90234,0.29944,9.5095,87.201,-0.72053,0.24018,-1.68,-0.96071,-6.1792e-10,-0.84002,0,0,0.2,-0,-0,0.66667
0.63096,0.3873,3.1548,-0.16904,-3.2979,22.56,1.4221,-0.47405,-1.8973,1.8962,1.6941e-12,-0.94867,0,0,0.2,9.4739e-16,0,0.66667
0.98092,0.77526,4.9046,0.41289,0.35223,0.56701,-5.4002,1.8001,-1.3939,-7.2002,-1.3788e-08,-0.69695,0,0,0.2,-4.737e-16,0,0.66667
0.8749,0.21868,4.3745,-0.42198,-3.1309,3.7318,4.9225,-1.6408,-1.3693,6.5634,-2.1853e-09,-0.68465,0,0,0.2,2.5683e-15,0,0.66667
0.45184,0.39203,2.2592,-0.16195,-4.2062,44.839,0.97566,-0.32522,-1.9069,1.3009,-4.3021e-13,-0.95347,0,0,0.2,-9.4739e-16,0,0.66667
0.70846,0.7781,3.5423,0.41715,6.7578,15.128,-3.9405,1.3135,-1.3813,-5.254,9.0492e-12,-0.69066,0,0,0.2,2.3685e-16,0,0.66667
0.77747,0.31181,3.8873,-0.28228,-3.5805,9.3551,2.9262,-0.9754,-1.7175,3.9016,-2.0743e-10,-0.85877,0,0,0.2,3.5527e-16,0,0.66667
0.49484,0.46284,2.4742,-0.055739,-1.3707,38.951,0.36776,-0.12259,-1.9886,0.49035,-3.3409e-13,-0.9943,0,0,0.2,4.737e-16,0,0.66667
0.52853,0.82472,2.6427,0.48708,11.536,34.843,-3.4325,1.1442,-1.1562,-4.5767,-1.521e-13,-0.57808,0,0,0.2,-9.4739e-16,0,0.66667
0.15078,0.95618,0.75392,0.68427,22.223,92.343,-1.3757,0.45856,-0.33421,-1.8343,-2.0134e-09,-0.1671,0,0,0.2,-2.3685e-16,0,0.66667
0.3694,0.86627,1.847,0.5494,15.666,57.059,-2.706,0.902,-0.92603,-3.608,1.6087e-12,-0.46301,0,0,0.2,-4.737e-16,0,0.66667
0.14222,0.52989,0.71111,0.044832,1.4381,93.644,-0.085014,0.028338,-1.9943,-0.11335,1.9863e-09,-0.99716,0,0,0.2,-8.8818e-17,0,0.66667
0.72689,0.79734,3.6345,0.44601,6.8434,13.555,-4.3227,1.4409,-1.2915,-5.7635,2.0856e-11,-0.64574,0,0,0.2,9.4739e-16,0,0.66667
0.47701,0.11649,2.3851,-0.57526,-14.674,41.694,3.6587,-1.2196,-0.8225,4.8783,-3.415e-13,-0.41125,0,0,0.2,-4.737e-16,0,0.66667
0.44888,0.48481,2.2444,-0.02278,-0.59305,45.227,0.13634,-0.045446,-1.9973,0.18178,-2.8819e-13,-0.99867,0,0,0.2,9.4739e-16,0,0.66667
0.886,0.36503,4.43,-0.20246,-1.3415,2.972,2.3917,-0.79725,-1.8536,3.189,1.2047e-09,-0.92678,0,0,0.2,-9.4739e-16,0,0.66667
0.52762,0.20483,2.6381,-0.44276,-10.482,34.91,3.1148,-1.0383,-1.3023,4.1531,3.1708e-13,-0.65116,0,0,0.2,-0,-0,0.66667
0.40909,0.21943,2.0455,-0.42085,-11.512,51.079,2.2955,-0.76518,-1.3714,3.0607,-1.9675e-12,-0.6857,0,0,0.2,-0,-0,0.66667
0.26889,0.11081,1.3445,-0.58378,-17.918,72.758,2.093,-0.69767,-0.78771,2.7907,6.3172e-12,-0.39385,0,0,0.2,4.737e-16,0,0.66667
0.072012,0.5675,0.36006,0.10124,3.2993,105.7,-0.097211,0.032404,-1.9632,-0.12961,-1.082e-07,-0.9816,0,0,0.2,-0,-0,0.66667
0.41814,0.52188,2.0907,0.032816,0.88351,49.606,-0.18295,0.060985,-1.9958,-0.24394,1.72e-13,-0.99788,0,0,0.2,-0,-0,0.66667
0.025753,0.45813,0.12877,-0.062798,-2.0555,113.72,0.021564,-0.0071869,-1.9851,0.028752,1.5262e-06,-0.99254,0,0,0.2,-0,-0,0.66667
0.29115,0.94646,1.4558,0.66969,20.351,69.268,-2.5998,0.86659,-0.40462,-3.4663,6.5103e-13,-0.20231,0,0,0.2,-0,-0,0.66667
0.50351,0.52561,2.5175,0.03842,0.93365,37.803,-0.25793,0.085978,-1.9948,-0.34391,1.7744e-13,-0.99741,0,0,0.2,-0,-0,0.66667
0.96593,0.65248,4.8297,0.22872,0.3896,0.54484,-2.9458,0.98192,-1.8146,-3.9277,7.6489e-11,-0.90728,0,0,0.2,1.2334e-15,0,0.66667
0.10938,0.024019,0.54691,-0.71397,-23.475,99.386,1.0413,-0.34709,-0.18881,1.3884,2.4068e-08,-0.094407,0,0,0.2,-0,-0,0.66667
0.67304,0.12264,3.3652,-0.56604,-10.179,18.67,5.0795,-1.6932,-0.86227,6.7727,1.7595e-12,-0.43113,0,0,0.2,1.4211e-15,0,0.66667
0.49993,0.27832,2.4997,-0.33252,-8.1579,38.396,2.2165,-0.73883,-1.6087,2.9553,1.7764e-15,-0.80437,0,0,0.2,2.6643e-16,0,0.66667
0.7771,0.67419,3.8855,0.26129,3.3161,9.3624,-2.7073,0.90242,-1.7565,-3.6097,1.949e-10,-0.87825,0,0,0.2,-9.4739e-16,0,0.66667
0.14361,0.50882,0.71803,0.013232,0.42425,93.407,-0.025336,0.0084454,-1.9992,-0.033782,-6.4223e-10,-0.99962,0,0,0.2,-0,-0,0.66667
0.083203,0.96121,0.41601,0.69181,22.84,103.86,-0.76747,0.25582,-0.29778,-1.0233,5.2044e-08,-0.14889,0,0,0.2,-6.9158e-17,0,0.66667
0.39922,0.32228,1.9961,-0.26658,-7.334,52.428,1.419,-0.473,-1.7463,1.892,-1.6548e-12,-0.87317,0,0,0.2,-0,-0,0.66667
0.79696,0.33682,3.9848,-0.24477,-2.8492,7.95,2.6009,-0.86698,-1.7883,3.4679,-3.1972e-10,-0.89413,0,0,0.2,-4.737e-16,0,0.66667
0.19168,0.28407,0.95838,-0.32389,-10.246,85.327,0.82777,-0.27592,-1.6273,1.1037,5.2629e-10,-0.81367,0,0,0.2,-0,-0,0.66667
0.76778,0.65575,3.8389,0.23363,3.0739,10.03,-2.3917,0.79723,-1.8073,-3.1889,1.3024e-10,-0.90367,0,0,0.2,2.9606e-16,0,0.66667
0.2903,0.98991,1.4515,0.73486,22.414,69.463,-2.8444,0.94813,-0.078944,-3.7925,1.2221e-12,-0.039472,0,0,0.2,-7.1054e-16,0,0.66667
0.21689,0.72754,1.0845,0.34131,10.684,81.133,-0.98703,0.32901,-1.5861,-1.316,-2.4752e-10,-0.79303,0,0,0.2,-0,-0,0.66667
0.016716,0.41989,0.083578,-0.12016,-3.936,115.29,0.026781,-0.008927,-1.9489,0.035708,-3.2776e-08,-0.97447,0,0,0.2,-0,-0,0.66667
0.39866,0.24323,1.9933,-0.38515,-10.633,52.579,2.0473,-0.68242,-1.4719,2.7297,-2.0186e-12,-0.73593,0,0,0.2,-0,-0,0.66667
0.38108,0.80404,1.9054,0.45606,12.827,55.232,-2.3173,0.77243,-1.2597,-3.0897,2.2284e-12,-0.62984,0,0,0.2,-0,-0,0.66667
0.65934,0.70888,3.2967,0.31331,5.7526,19.702,-2.7544,0.91814,-1.6507,-3.6726,-2.2384e-12,-0.82535,0,0,0.2,-0,-0,0.66667
0.070918,0.10029,0.35459,-0.59956,-19.759,105.95,0.56693,-0.18898,-0.72121,0.75591,2.0028e-07,-0.36061,0,0,0.2,-0,-0,0.66667
0.1526,0.82149,0.76302,0.48223,15.535,91.956,-0.9812,0.32707,-1.1728,-1.3083,-1.7417e-09,-0.5864,0,0,0.2,-0,-0,0.66667
0.016576,0.39518,0.082879,-0.15723,-5.152,115.32,0.03475,-0.011583,-1.9126,0.046334,6.5898e-08,-0.95628,0,0,0.2,1.4803e-17,0,0.66667
0.1138,0.9323,0.56898,0.64844,21.239,98.61,-0.98387,0.32796,-0.50486,-1.3118,-6.1404e-09,-0.25243,0,0,0.2,-0,-0,0.66667
0.65179,0.87058,3.2589,0.55587,10.511,20.777,-4.8308,1.6103,-0.90138,-6.441,-2.2022e-12,-0.45069,0,0,0.2,1.4211e-15,0,0.66667
0.40266,0.8907,2.0133,0.58605,16.235,52.167,-3.1463,1.0488,-0.77819,-4.1951,6.8323e-13,-0.38909,0,0,0.2,9.4739e-16,0,0.66667
0.32103,0.24001,1.6051,-0.38998,-11.494,64.363,1.6692,-0.55641,-1.4583,2.2257,-6.0019e-13,-0.72913,0,0,0.2,-0,-0,0.66667
0.55791,0.011784,2.7896,-0.73232,-16.793,31.57,5.4476,-1.8159,-0.092363,7.2635,3.4195e-14,-0.046182,0,0,0.2,-0,-0,0.66667
0.99346,0.25567,4.9673,-0.36649,0.0034792,0.34996,4.8546,-1.6182,-1.5219,6.4728,-3.128e-08,-0.76097,0,0,0.2,-0,-0,0.66667
0.83449,0.64213,4.1724,0.2132,2.0435,5.5706,-2.3721,0.79071,-1.8372,-3.1628,8.1021e-10,-0.91861,0,0,0.2,9.4739e-16,0,0.66667
0.69962,0.47152,3.4981,-0.042723,-0.70221,15.663,0.39853,-0.13284,-1.994,0.53138,-2.4115e-12,-0.99702,0,0,0.2,-0,-0,0.66667
0.91826,0.45531,4.5913,-0.067028,-0.31155,1.6714,0.82066,-0.27355,-1.9834,1.0942,-1.4089e-08,-0.9917,0,0,0.2,9.4739e-16,0,0.66667
0.039729,0.58536,0.19864,0.12804,4.1887,111.3,-0.067825,0.022608,-1.9408,-0.090433,1.6955e-09,-0.97042,0,0,0.2,-2.9606e-17,0,0.66667
0.070333,0.43132,0.35167,-0.10302,-3.358,105.99,0.096608,-0.032203,-1.9616,0.12881,8.9956e-08,-0.98082,0,0,0.2,4.1646e-17,0,0.66667
0.47401,0.72245,2.37,0.33368,8.4674,41.87,-2.1089,0.70296,-1.6041,-2.8118,4.8161e-13,-0.80204,0,0,0.2,-0,-0,0.66667
0.34917,0.38147,1.7458,-0.1778,-5.1061,59.916,0.82775,-0.27592,-1.8871,1.1037,-1.1869e-12,-0.94357,0,0,0.2,-9.4739e-16,0,0.66667
0.93725,0.73267,4.6863,0.34901,1.2547,1.3407,-4.3614,1.4538,-1.5676,-5.8153,-9.44e-09,-0.78379,0,0,0.2,-0,-0,0.66667
0.48956,0.74759,2.4478,0.37139,9.249,39.801,-2.4242,0.80808,-1.5098,-3.2323,1.5143e-13,-0.7549,0,0,0.2,1.1842e-16,0,0.66667
0.53965,0.95875,2.6982,0.68813,16.194,33.729,-4.9513,1.6504,-0.31535,-6.6017,2.8821e-13,-0.15768,0,0,0.2,-0,-0,0.66667
0.89526,0.38722,4.4763,-0.16917,-1.0258,2.5634,2.0194,-0.67313,-1.8974,2.6925,9.2961e-10,-0.94871,0,0,0.2,-0,-0,0.66667
0.44664,0.48058,2.2332,-0.029131,-0.76038,45.542,0.17348,-0.057827,-1.9959,0.23131,-5.6645e-13,-0.99795,0,0,0.2,-0,-0,0.66667
0.87703,0.93144,4.3852,0.64717,4.8827,4.1041,-7.5678,2.5226,-0.51136,-10.09,2.2653e-08,-0.25568,0,0,0.2,4.737e-16,0,0.66667
0.25358,0.91663,1.2679,0.62495,19.381,75.261,-2.113,0.70434,-0.61088,-2.8173,-8.0087e-12,-0.30544,0,0,0.2,-0,-0,0.66667
0.27381,0.97812,1.369,0.71719,22.078,72.073,-2.6183,0.87277,-0.17021,-3.4911,9.1926e-14,-0.085104,0,0,0.2,4.737e-16,0,0.66667
0.32836,0.54779,1.6418,0.071681,2.0903,63.112,-0.31383,0.10461,-1.9824,-0.41844,2.2754e-13,-0.9912,0,0,0.2,-4.737e-16,0,0.66667
0.54756,0.32738,2.7378,-0.25893,-5.9101,32.258,1.8904,-0.63013,-1.7621,2.5205,7.2253e-13,-0.88104,0,0,0.2,-9.4739e-16,0,0.66667
0.22013,0.20872,1.1006,-0.43692,-13.69,80.633,1.2824,-0.42746,-1.3216,1.7098,1.7036e-10,-0.66081,0,0,0.2,-0,-0,0.66667
0.67143,0.24719,3.3571,-0.37921,-6.7773,18.564,3.3949,-1.1316,-1.4904,4.5265,1.7064e-12,-0.7452,0,0,0.2,4.737e-16,0,0.66667
0.14279,0.63638,0.71397,0.20457,6.5694,93.559,-0.38947,0.12982,-1.8512,-0.5193,-8.804e-10,-0.92558,0,0,0.2,-0,-0,0.66667
0.0941,0.72147,0.4705,0.33221,10.82,101.91,-0.41681,0.13894,-1.6094,-0.55575,-1.4309e-09,-0.80469,0,0,0.2,-0,-0,0.66667
0.87019,0.14565,4.351,-0.53152,-4.1468,4.1526,6.167,-2.0557,-0.99473,8.2227,-1.7935e-09,-0.49737,0,0,0.2,9.4739e-16,0,0.66667
0.23687,0.47229,1.1843,-0.04157,-1.2838,77.778,0.13129,-0.043763,-1.9946,0.17505,2.4159e-11,-0.99729,0,0,0.2,9.4739e-16,0,0.66667
0.386,0.6026,1.93,0.15389,4.2795,54.342,-0.79205,0.26402,-1.9152,-1.0561,9.9931e-13,-0.9576,0,0,0.2,-0,-0,0.66667
0.57154,0.018526,2.8577,-0.72221,-16.179,29.924,5.5037,-1.8346,-0.14432,7.3382,-5.7288e-14,-0.07216,0,0,0.2,-0,-0,0.66667
0.5258,0.25784,2.629,-0.36324,-8.5983,35.066,2.5466,-0.84885,-1.5302,3.3954,5.0537e-13,-0.76512,0,0,0.2,9.4739e-16,0,0.66667
0.076024,0.90391,0.38012,0.60587,19.956,105.07,-0.61414,0.20471,-0.6959,-0.81886,-2.1053e-07,-0.34795,0,0,0.2,2.9606e-17,0,0.66667
0.87413,0.35793,4.3706,-0.2131,-1.5615,3.5097,2.4837,-0.82791,-1.8389,3.3116,-1.2264e-09,-0.91945,0,0,0.2,-0,-0,0.66667
0.95114,0.77545,4.7557,0.41317,1.1452,1.0984,-5.2397,1.7466,-1.3936,-6.9863,-2.5278e-08,-0.69679,0,0,0.2,-0,-0,0.66667
0.81251,0.63958,4.0625,0.20937,2.2591,6.9,-2.2682,0.75608,-1.8449,-3.0243,4.5586e-10,-0.92246,0,0,0.2,-0,-0,0.66667
0.2838,0.19715,1.419,-0.45428,-13.755,70.284,1.719,-0.573,-1.2662,2.292,1.1138e-11,-0.63309,0,0,0.2,-0,-0,0.66667
0.52785,0.54238,2.6392,0.063566,1.4917,34.656,-0.44738,0.14913,-1.9852,-0.5965,-2.7872e-13,-0.99259,0,0,0.2,-0,-0,0.66667
0.33942,0.6917,1.6971,0.28755,8.3378,61.455,-1.3013,0.43378,-1.7061,-1.7351,1.3636e-12,-0.85304,0,0,0.2,-9.4739e-16,0,0.66667
0.55467,0.71557,2.7733,0.32335,7.3088,31.43,-2.3914,0.79712,-1.6281,-3.1885,-8.5776e-13,-0.81404,0,0,0.2,1.1842e-15,0,0.66667
0.9744,0.85768,4.872,0.53653,0.75102,0.91288,-6.9706,2.3235,-0.97542,-9.2941,-1.4481e-07,-0.48771,0,0,0.2,1.8948e-15,0,0.66667
0.3117,0.86391,1.5585,0.54586,16.278,65.925,-2.2686,0.75621,-0.9411,-3.0248,1.5792e-12,-0.47055,0,0,0.2,-0,-0,0.66667
0.6688,0.99836,3.344,0.74754,13.77,19.441,-6.666,2.222,-0.013984,-8.888,3.1219e-13,-0.0069921,0,0,0.2,-1.7764e-15,4.7171e-17,0.66667
0.32597,0.8812,1.6298,0.5718,16.895,63.719,-2.4852,0.8284,-0.83791,-3.3136,1.5199e-12,-0.41896,0,0,0.2,-0,-0,0.66667
0.77448,0.34938,3.8724,-0.22594,-2.894,9.5248,2.3331,-0.7777,-1.818,3.1108,-1.6813e-10,-0.90899,0,0,0.2,-1.8948e-15,0,0.66667
0.32581,0.25011,1.629,-0.37483,-11.004,63.608,1.6283,-0.54277,-1.5019,2.1711,-1.2794e-12,-0.75095,0,0,0.2,9.4739e-16,0,0.66667
0.88983,0.0015812,4.4491,-0.74763,-5.186,3.8344,8.8701,-2.9567,-0.014402,11.827,8.7757e-09,-0.0072012,0,0,0.2,-0,-0,0.66667
0.75171,0.21483,3.7585,-0.42776,-6.0332,11.489,4.2873,-1.4291,-1.3504,5.7164,-6.0701e-11,-0.67519,0,0,0.2,-1.1842e-15,0,0.66667
0.76263,0.35341,3.8132,-0.21989,-2.9494,10.411,2.2359,-0.74531,-1.8279,2.9812,-1.157e-10,-0.91393,0,0,0.2,-0,-0,0.66667
0.46948,0.0077026,2.3474,-0.73845,-19.176,42.94,4.6225,-1.5408,-0.06201,6.1633,4.0501e-13,-0.031005,0,0,0.2,-0,-0,0.66667
0.21076,0.13624,1.0538,-0.54563,-17.23,82.234,1.5333,-0.51111,-0.94034,2.0444,1.6484e-10,-0.47017,0,0,0.2,-0,-0,0.66667
0.041475,0.36969,0.20738,-0.19546,-6.3979,111,0.10809,-0.03603,-1.8639,0.14412,6.2876e-08,-0.93193,0,0,0.2,-0,-0,0.66667
0.32183,0.35233,1.6091,-0.22151,-6.5009,64.164,0.9505,-0.31683,-1.8247,1.2673,1.0969e-12,-0.91236,0,0,0.2,-0,-0,0.66667
0.037113,0.12597,0.18556,-0.56104,-18.531,111.77,0.27762,-0.092541,-0.88121,0.37016,-2.2583e-07,-0.44061,0,0,0.2,-1.1842e-16,0,0.66667
0.69386,0.87005,3.4693,0.55508,9.4484,16.67,-5.1353,1.7118,-0.9041,-6.8471,-6.6924e-13,-0.45205,0,0,0.2,-9.4739e-16,0,0.66667
0.67035,0.64044,3.3518,0.21066,3.7533,18.522,-1.8828,0.62761,-1.8423,-2.5105,-1.4722e-13,-0.92114,0,0,0.2,-0,-0,0.66667
0.43047,0.45787,2.1524,-0.063189,-1.6794,47.835,0.36268,-0.12089,-1.9847,0.48357,-4.1309e-13,-0.99237,0,0,0.2,4.737e-16,0,0.66667
0.76779,0.47758,3.8389,-0.033629,-0.44058,9.9381,0.34427,-0.11476,-1.9961,0.45902,-2.0976e-11,-0.99806,0,0,0.2,-0,-0,0.66667
0.53601,0.77891,2.68,0.41837,9.7709,33.827,-2.99,0.99667,-1.378,-3.9867,-2.7223e-13,-0.68898,0,0,0.2,3.5527e-16,0,0.66667
0.03986,0.82285,0.1993,0.48428,15.952,111.29,-0.25738,0.085792,-1.1651,-0.34317,3.5029e-08,-0.58255,0,0,0.2,-0,-0,0.66667
0.13479,0.60328,0.67397,0.15491,4.9834,94.917,-0.27842,0.092806,-1.9138,-0.37122,1.7234e-09,-0.95691,0,0,0.2,-0,-0,0.66667
0.19342,0.20712,0.96708,-0.43933,-13.928,85.073,1.133,-0.37766,-1.3127,1.5106,4.0916e-10,-0.65637,0,0,0.2,2.3685e-16,0,0.66667
0.33566,0.62815,1.6783,0.19223,5.5809,62.001,-0.86032,0.28677,-1.8685,-1.1471,7.6184e-13,-0.93423,0,0,0.2,-9.4739e-16,0,0.66667
0.052313,0.9368,0.26156,0.6552,21.69,109.16,-0.45701,0.15234,-0.47414,-0.60934,-5.1513e-07,-0.23707,0,0,0.2,3.7007e-18,0,0.66667
0.60512,0.9105,3.0256,0.61575,12.892,25.875,-4.968,1.656,-0.65201,-6.624,-9.4058e-13,-0.326,0,0,0.2,1.8948e-15,0,0.66667
0.51206,0.50377,2.5603,0.0056572,0.13582,36.683,-0.038624,0.012875,-2.0002,-0.051499,1.3068e-12,-1.0001,0,0,0.2,-0,-0,0.66667
0.61746,0.51516,3.0873,0.022739,0.45573,23.99,-0.1872,0.062402,-1.9969,-0.24961,-4.5795e-13,-0.99846,0,0,0.2,1.8948e-15,0,0.66667
0.43236,0.26311,2.1618,-0.35534,-9.4698,47.684,2.0485,-0.68282,-1.5501,2.7313,-1.6309e-12,-0.77504,0,0,0.2,-0,-0,0.66667
0.8477,0.69687,4.2385,0.29531,2.6244,4.9127,-3.3377,1.1126,-1.6895,-4.4503,1.0126e-09,-0.84473,0,0,0.2,-1.8948e-15,0,0.66667
0.45406,0.85927,2.2703,0.53891,14.108,44.795,-3.2626,1.0875,-0.96771,-4.3502,2.5158e-13,-0.48386,0,0,0.2,-0,-0,0.66667
0.015404,0.99473,0.077018,0.7421,24.722,115.54,-0.15239,0.050809,-0.043361,-0.20317,2.0136e-05,-0.021681,0,0,0.2,-7.4015e-18,0,0.66667
0.87307,0.17672,4.3653,-0.48492,-3.6784,3.927,5.6449,-1.8816,-1.164,7.5266,-4.2023e-09,-0.58199,0,0,0.2,-9.4739e-16,0,0.66667
0.6562,0.87387,3.281,0.56081,10.5,20.336,-4.9067,1.6356,-0.88398,-6.5423,-1.9904e-12,-0.44199,0,0,0.2,-1.1842e-16,3.3233e-17,0.66667
0.823,0.49634,4.115,-0.0054941,-0.055883,6.1671,0.060289,-0.020096,-1.9999,0.080386,1.4722e-10,-0.99994,0,0,0.2,-3.079e-15,0,0.66667
0.95178,0.1885,4.7589,-0.46724,-1.2992,1.1847,5.9295,-1.9765,-1.2254,7.906,3.3328e-08,-0.6127,0,0,0.2,3.7896e-15,0,0.66667
0.050912,0.22251,0.25456,-0.41624,-13.671,109.38,0.28256,-0.094185,-1.3842,0.37674,-2.557e-08,-0.6921,0,0,0.2,-0,-0,0.66667
0.23507,0.51309,1.1754,0.019633,0.60682,78.073,-0.061535,0.020512,-1.9991,-0.082047,-2.1357e-11,-0.99956,0,0,0.2,-0,-0,0.66667
0.063343,0.78115,0.31672,0.42172,13.833,107.23,-0.35618,0.11873,-1.3697,-0.47491,9.2353e-09,-0.68485,0,0,0.2,-2.7756e-17,0,0.66667
0.42166,0.10358,2.1083,-0.59463,-16.168,49.428,3.3431,-1.1144,-0.74371,4.4574,-7.9625e-13,-0.37186,0,0,0.2,9.4739e-16,0,0.66667
0.86383,0.76362,4.3191,0.39542,3.1787,4.2148,-4.5544,1.5181,-1.4432,-6.0725,2.5666e-09,-0.7216,0,0,0.2,-0,-0,0.66667
0.081624,0.43592,0.40812,-0.096121,-3.1275,104.04,0.10461,-0.03487,-1.9679,0.13948,2.9138e-11,-0.98395,0,0,0.2,-2.9606e-17,0,0.66667
0.47311,0.50473,2.3656,0.0070975,0.17948,41.875,-0.044772,0.014924,-1.9998,-0.059696,-1.3147e-12,-0.9999,0,0,0.2,-0,-0,0.66667
0.12554,0.2188,0.62772,-0.4218,-13.67,96.541,0.70605,-0.23535,-1.3696,0.9414,2.3374e-09,-0.68482,0,0,0.2,-4.737e-16,0,0.66667
0.77289,0.97313,3.8644,0.7097,9.482,10.42,-7.3136,2.4379,-0.2088,-9.7514,4.4533e-12,-0.1044,0,0,0.2,-0,-0,0.66667
0.84142,0.33555,4.2071,-0.24667,-2.2727,5.2066,2.7674,-0.92246,-1.7838,3.6898,-9.5104e-10,-0.8919,0,0,0.2,9.4739e-16,0,0.66667
0.043291,0.60541,0.21645,0.15811,5.1724,110.68,-0.091265,0.030422,-1.9106,-0.12169,1.0003e-07,-0.95529,0,0,0.2,-0,-0,0.66667
0.48644,0.0021087,2.4322,-0.74684,-19,40.673,4.8439,-1.6146,-0.017966,6.4585,1.0525e-13,-0.0089829,0,0,0.2,-0,-0,0.66667
0.23941,0.54655,1.1971,0.069826,2.1537,77.362,-0.22289,0.074298,-1.9817,-0.29719,-4.3293e-11,-0.99084,0,0,0.2,4.737e-16,0,0.66667
0.95247,0.93191,4.7624,0.64786,1.908,1.5955,-8.2276,2.7425,-0.50881,-10.97,-1.8886e-07,-0.2544,0,0,0.2,9.4739e-16,-1.3919e-16,0.66667
0.94389,0.47782,4.7195,-0.033265,-0.10158,0.9146,0.41865,-0.13955,-1.9952,0.5582,3.3846e-08,-0.99759,0,0,0.2,-1.8948e-15,0,0.66667
0.61393,0.085434,3.0697,-0.62185,-12.802,24.907,5.0903,-1.6968,-0.62456,6.7871,8.7574e-13,-0.31228,0,0,0.2,-0,-0,0.66667
0.97349,0.61607,4.8674,0.1741,0.20757,0.36948,-2.2598,0.75328,-1.8916,-3.0131,1.2603e-08,-0.9458,0,0,0.2,9.4739e-16,0,0.66667
0.34486,0.62972,1.7243,0.19458,5.6087,60.582,-0.8947,0.29823,-1.8665,-1.1929,1.3191e-12,-0.93323,0,0,0.2,-0,-0,0.66667
0.89785,0.7549,4.4893,0.38236,2.3058,2.6951,-4.5773,1.5258,-1.4798,-6.1031,3.4338e-09,-0.73988,0,0,0.2,-0,-0,0.66667
0.43459,0.35308,2.173,-0.22038,-5.8411,47.291,1.277,-0.42567,-1.8271,1.7027,-1.4039e-12,-0.91357,0,0,0.2,9.4739e-16,0,0.66667
0.23581,0.77529,1.1791,0.41293,12.831,78.039,-1.2983,0.43278,-1.3945,-1.7311,-1.1581e-10,-0.69724,0,0,0.2,-0,-0,0.66667
0.94083,0.010293,4.7041,-0.73456,-2.7945,2.1193,9.2146,-3.0715,-0.081117,12.286,-1.9643e-07,-0.040558,0,0,0.2,3.7896e-15,0,0.66667
0.68422,0.89072,3.4211,0.58607,10.257,17.629,-5.3467,1.7822,-0.77817,-7.1289,-1.2834e-12,-0.38908,0,0,0.2,-9.4739e-16,0,0.66667
0.064912,0.063489,0.32456,-0.65477,-21.643,106.99,0.56669,-0.1889,-0.47689,0.75559,1.7835e-07,-0.23844,0,0,0.2,-0,-0,0.66667
0.87042,0.46582,4.3521,-0.051275,-0.38446,3.6003,0.59508,-0.19836,-1.9909,0.79344,1.0146e-09,-0.99544,0,0,0.2,-1.4211e-15,0,0.66667
0.70138,0.054154,3.5069,-0.66877,-11.246,16.195,6.2542,-2.0847,-0.41012,8.3389,5.6e-13,-0.20506,0,0,0.2,9.4739e-16,0,0.66667
0.60493,0.14859,3.0246,-0.52712,-10.985,25.76,4.2516,-1.4172,-1.0116,5.6688,1.1005e-12,-0.50582,0,0,0.2,4.737e-16,0,0.66667
0.73237,0.14282,3.6619,-0.53576,-8.1268,13.235,5.2317,-1.7439,-0.97931,6.9757,-1.4087e-11,-0.48966,0,0,0.2,9.4739e-16,-4.372e-17,0.66667
0.25344,0.051839,1.2672,-0.67224,-20.892,75.318,2.2716,-0.75721,-0.39278,3.0288,2.0337e-12,-0.19639,0,0,0.2,-0,-0,0.66667
0.60049,0.24438,3.0024,-0.38344,-8.0072,26.085,3.07,-1.0233,-1.4767,4.0933,1.8288e-12,-0.73837,0,0,0.2,4.737e-16,0,0.66667
0.81462,0.36459,4.0731,-0.20311,-2.1677,6.7615,2.2061,-0.73537,-1.8533,2.9415,-3.7242e-10,-0.92667,0,0,0.2,9.4739e-16,0,0.66667
0.054114,0.45881,0.27057,-0.061791,-2.0179,108.8,0.044584,-0.014861,-1.9854,0.059445,2.429e-07,-0.99271,0,0,0.2,-5.9212e-17,0,0.66667
0.13051,0.63453,0.65255,0.2018,6.5028,95.653,-0.35115,0.11705,-1.8544,-0.46821,-1.9255e-09,-0.9272,0,0,0.2,-0,-0,0.66667
0.84245,4.7129e-05,4.2122,-0.74993,-7.2564,6.0888,8.4237,-2.8079,-0.0022398,11.232,-4.3e-10,-0.0011199,0,0,0.2,-0,-0,0.66667
0.61835,0.66994,3.0917,0.25492,5.1168,23.981,-2.1017,0.70056,-1.7678,-2.8023,-2.1134e-12,-0.88389,0,0,0.2,-9.4739e-16,0,0.66667
0.53129,0.086083,2.6564,-0.62087,-14.74,34.67,4.3982,-1.4661,-0.6306,5.8642,-1.9984e-14,-0.3153,0,0,0.2,4.737e-16,0,0.66667
0.24829,0.026404,1.2415,-0.71039,-22.177,76.183,2.3518,-0.78393,-0.20646,3.1357,-3.5583e-12,-0.10323,0,0,0.2,-0,-0,0.66667
0.29508,0.72698,1.4754,0.34047,10.203,68.428,-1.3395,0.44651,-1.5882,-1.786,-1.0179e-11,-0.79409,0,0,0.2,-0,-0,0.66667
0.87269,0.29859,4.3634,-0.30212,-2.2534,3.6656,3.5154,-1.1718,-1.6752,4.6872,-1.9523e-09,-0.83762,0,0,0.2,-0,-0,0.66667
0.42167,0.72729,2.1083,0.34093,9.186,49.204,-1.9168,0.63893,-1.5878,-2.5557,1.0695e-12,-0.79388,0,0,0.2,-0,-0,0.66667
0.06443,0.31593,0.32215,-0.2761,-9.026,107.03,0.23719,-0.079064,-1.7299,0.31625,-8.6131e-09,-0.86495,0,0,0.2,-0,-0,0.66667
0.89699,0.62131,4.4849,0.18196,1.0854,2.5036,-2.1762,0.7254,-1.8821,-2.9016,7.3046e-09,-0.94105,0,0,0.2,1.4211e-15,0,0.66667
0.20338,0.3474,1.0169,-0.2289,-7.1932,83.348,0.62071,-0.2069,-1.8154,0.82761,2.8972e-10,-0.90769,0,0,0.2,-0,-0,0.66667
0.82623,0.25483,4.1311,-0.36776,-3.7273,6.2205,4.0514,-1.3505,-1.5199,5.4018,-8.5936e-10,-0.75993,0,0,0.2,-0,-0,0.66667
0.88177,0.8011,4.4089,0.45164,3.1815,3.475,-5.31,1.77,-1.2736,-7.0799,6.2968e-09,-0.63682,0,0,0.2,9.4739e-16,0,0.66667
0.48675,0.55523,2.4338,0.082852,2.0597,40.036,-0.53771,0.17924,-1.9758,-0.71694,2.6013e-13,-0.98791,0,0,0.2,-0,-0,0.66667
0.59846,0.63226,2.9923,0.19839,4.1368,26.172,-1.5831,0.52769,-1.8596,-2.1107,-1.5323e-12,-0.92981,0,0,0.2,-0,-0,0.66667
0.52727,0.58199,2.6363,0.12298,2.8899,34.743,-0.8646,0.2882,-1.9456,-1.1528,-4.5408e-14,-0.97278,0,0,0.2,-4.737e-16,0,0.66667
0.62482,0.66038,3.1241,0.24058,4.7626,23.264,-2.0042,0.66808,-1.7958,-2.6723,-2.0419e-12,-0.89792,0,0,0.2,-1.8948e-15,0,0.66667
0.85504,0.62513,4.2752,0.18769,1.5797,4.4267,-2.1397,0.71325,-1.8756,-2.853,5.3874e-10,-0.93779,0,0,0.2,-3.7896e-15,0,0.66667
0.28214,0.20789,1.4107,-0.43816,-13.274,70.541,1.6483,-0.54944,-1.3179,2.1977,1.298e-11,-0.65894,0,0,0.2,-0,-0,0.66667
0.88376,0.97,4.4188,0.705,5.098,3.9644,-8.3073,2.7691,-0.23305,-11.076,-7.6875e-09,-0.11652,0,0,0.2,-0,-0,0.66667
0.56769,0.21751,2.8385,-0.42374,-9.4044,29.949,3.2074,-1.0691,-1.362,4.2765,8.3245e-13,-0.68101,0,0,0.2,1.125e-15,0,0.66667
0.1151,0.30608,0.57552,-0.29087,-9.4232,98.302,0.44641,-0.1488,-1.6987,0.59521,8.1555e-10,-0.84933,0,0,0.2,5.9212e-17,0,0.66667
0.227,0.74964,1.135,0.37446,11.675,79.474,-1.1334,0.37779,-1.5018,-1.5112,-1.6072e-10,-0.75091,0,0,0.2,-6.8834e-16,0,0.66667
0.59598,0.053452,2.9799,-0.66982,-14.318,26.997,5.3227,-1.7742,-0.40485,7.0969,-7.5495e-15,-0.20242,0,0,0.2,-0,-0,0.66667
0.23945,0.71111,1.1972,0.31667,9.7987,77.407,-1.011,0.337,-1.6429,-1.348,-1.1723e-10,-0.82145,0,0,0.2,-0,-0,0.66667
0.13142,0.67167,0.65708,0.25751,8.3028,95.506,-0.4512,0.1504,-1.7631,-0.60161,-8.3596e-10,-0.88153,0,0,0.2,-0,-0,0.66667
0.16185,0.013474,0.80924,-0.72979,-23.666,90.5,1.5749,-0.52495,-0.10529,2.0998,-4.9206e-10,-0.052644,0,0,0.2,4.737e-16,0,0.66667
0.84487,0.75115,4.2244,0.37672,3.4295,5.1686,-4.2438,1.4146,-1.4971,-5.6583,1.5881e-09,-0.74856,0,0,0.2,-3.7896e-15,0,0.66667
0.60218,0.8277,3.0109,0.49155,10.28,26.02,-3.9467,1.3156,-1.1397,-5.2623,-1.63e-12,-0.56984,0,0,0.2,-0,-0,0.66667
0.96357,0.47857,4.8178,-0.032143,-0.057938,0.47882,0.41296,-0.13765,-1.9955,0.55062,-2.4194e-07,-0.99777,0,0,0.2,-0,-0,0.66667
0.34568,0.0014392,1.7284,-0.74784,-21.947,60.857,3.4468,-1.1489,-0.012812,4.5958,1.0776e-12,-0.006406,0,0,0.2,-0,-0,0.66667
0.59563,0.10487,2.9781,-0.59269,-12.618,26.909,4.7069,-1.569,-0.75107,6.2759,3.757e-13,-0.37553,0,0,0.2,9.4739e-16,0,0.66667
0.59899,0.77424,2.9949,0.41136,8.6246,26.285,-3.2853,1.0951,-1.3978,-4.3804,-2.107e-12,-0.69891,0,0,0.2,9.4739e-16,0,0.66667
0.6157,0.73944,3.0785,0.35916,7.2721,24.359,-2.9485,0.98284,-1.5403,-3.9313,-2.2431e-12,-0.77017,0,0,0.2,-9.4739e-16,0,0.66667
0.059177,0.51101,0.29589,0.016521,0.53914,107.92,-0.013036,0.0043457,-1.9986,-0.017381,6.7084e-07,-0.9993,0,0,0.2,-0,-0,0.66667
0.75032,0.86068,3.7516,0.54102,7.73,11.782,-5.4125,1.8042,-0.9599,-7.2167,2.8712e-11,-0.47995,0,0,0.2,9.4739e-16,0,0.66667
0.94821,0.24959,4.741,-0.37562,-1.0992,1.1035,4.7488,-1.5829,-1.499,6.3318,1.6147e-08,-0.7495,0,0,0.2,-5.9212e-16,0,0.66667
0.53468,0.14703,2.6734,-0.52945,-12.448,34.119,3.7745,-1.2582,-1.003,5.0326,2.5158e-13,-0.5015,0,0,0.2,4.737e-16,0,0.66667
0.19256,0.040148,0.96278,-0.68978,-22.078,85.338,1.7709,-0.59031,-0.30761,2.3613,2.2474e-12,-0.15381,0,0,0.2,4.737e-16,0,0.66667
0.75293,0.76307,3.7646,0.39461,5.5304,11.347,-3.9615,1.3205,-1.4459,-5.282,7.7712e-11,-0.72297,0,0,0.2,-0,-0,0.66667
0.007319,0.80168,0.036595,0.45253,14.915,116.93,-0.04416,0.01472,-1.2708,-0.05888,-5.778e-08,-0.63541,0,0,0.2,-0,-0,0.66667
0.32826,0.30168,1.6413,-0.29748,-8.7013,63.189,1.302,-0.434,-1.6862,1.736,-8.31e-13,-0.84312,0,0,0.2,-4.737e-16,0,0.66667
0.91761,0.15324,4.588,-0.52014,-2.5819,2.2357,6.3638,-2.1213,-1.0383,8.4851,-9.9737e-09,-0.51917,0,0,0.2,2.1316e-15,0,0.66667
0.58837,0.44391,2.9418,-0.084142,-1.7854,27.29,0.66009,-0.22003,-1.9744,0.88012,4.2288e-13,-0.98719,0,0,0.2,-0,-0,0.66667
0.85519,0.79561,4.276,0.44341,3.8025,4.7257,-5.056,1.6853,-1.3001,-6.7413,2.1939e-09,-0.65007,0,0,0.2,-0,-0,0.66667
0.60467,0.0044579,3.0234,-0.74331,-15.71,26.158,5.9928,-1.9976,-0.035452,7.9904,5.6133e-13,-0.017726,0,0,0.2,-0,-0,0.66667
0.82258,0.77852,4.1129,0.41779,4.3352,6.5119,-4.5822,1.5274,-1.3795,-6.1095,6.5768e-10,-0.68974,0,0,0.2,-0,-0,0.66667
0.87948,0.58716,4.3974,0.13073,0.91314,3.2105,-1.5331,0.51102,-1.9389,-2.0441,5.3372e-09,-0.96946,0,0,0.2,-4.737e-16,0,0.66667
0.32099,0.4595,1.6049,-0.060748,-1.7811,64.263,0.25999,-0.086663,-1.9859,0.34665,6.532e-13,-0.99297,0,0,0.2,4.737e-16,0,0.66667
0.12295,0.54798,0.61477,0.071976,2.3213,96.936,-0.118,0.039332,-1.9814,-0.15733,3.8909e-10,-0.99072,0,0,0.2,2.3685e-16,0,0.66667
0.7213,0.26492,3.6065,-0.35262,-5.4785,13.916,3.3913,-1.1304,-1.5576,4.5217,-2.3569e-11,-0.77879,0,0,0.2,-9.4739e-16,0,0.66667
0.44035,0.10761,2.2017,-0.58859,-15.683,46.767,3.4558,-1.1519,-0.76782,4.6077,-7.1498e-13,-0.38391,0,0,0.2,-0,-0,0.66667
0.12674,0.14001,0.63368,-0.53999,-17.559,96.369,0.91247,-0.30416,-0.96324,1.2166,2.332e-09,-0.48162,0,0,0.2,-2.3685e-16,0,0.66667
0.58982,0.35391,2.9491,-0.21914,-4.6464,27.175,1.7233,-0.57445,-1.8287,2.2978,1.5782e-12,-0.91436,0,0,0.2,-9.4739e-16,0,0.66667
0.036068,0.35701,0.18034,-0.21448,-7.0253,111.93,0.10315,-0.034382,-1.8355,0.13753,2.0032e-08,-0.91776,0,0,0.2,-0,-0,0.66667
0.20018,0.077774,1.0009,-0.63334,-20.159,84.037,1.6904,-0.56348,-0.57334,2.2539,1.2977e-10,-0.28667,0,0,0.2,-0,-0,0.66667
0.7883,0.20315,3.9415,-0.44528,-5.451,8.7892,4.6802,-1.5601,-1.2938,6.2403,-2.472e-10,-0.6469,0,0,0.2,-0,-0,0.66667
0.012097,0.52124,0.060484,0.031855,1.0431,116.09,-0.0051363,0.0017105,-1.996,-0.0068491,-2.4096e-06,-0.99799,0,0,0.2,-0,-0,0.66667
0.30335,0.88383,1.5167,0.57574,17.287,67.262,-2.3286,0.77621,-0.82055,-3.1049,1.0991e-12,-0.41028,0,0,0.2,-0,-0,0.66667
0.021376,0.11118,0.10688,-0.58323,-19.298,114.5,0.16623,-0.05541,-0.78947,0.22164,-7.3856e-07,-0.39474,0,0,0.2,-0,-0,0.66667
0.99748,0.9641,4.9874,0.69615,0.060352,1.0931,-9.2586,3.0862,-0.27745,-12.345,-1.6896e-05,-0.13873,0,0,0.2,-1.4211e-15,-3.6006e-16,0.66667
0.58203,0.92291,2.9101,0.63436,13.877,28.541,-4.9229,1.641,-0.56846,-6.5639,-2.6112e-13,-0.28423,0,0,0.2,-0,-0,0.66667
0.29338,0.39278,1.4669,-0.16083,-4.81,68.64,0.6291,-0.2097,-1.9074,0.8388,1.1221e-11,-0.95372,0,0,0.2,-4.737e-16,0,0.66667
0.92895,0.99435,4.6447,0.74152,3.3779,2.4598,-9.1845,3.0615,-0.044422,-12.246,-2.6256e-07,-0.022211,0,0,0.2,-4.737e-16,0,0.66667
0.50712,0.12298,2.5356,-0.56553,-13.861,37.688,3.8239,-1.2746,-0.86292,5.0985,-3.4084e-13,-0.43146,0,0,0.2,1.0658e-15,0,0.66667
0.45469,0.27625,2.2735,-0.33562,-8.7178,44.528,2.0347,-0.67824,-1.6003,2.713,-1.3736e-12,-0.80017,0,0,0.2,2.3685e-16,0,0.66667
0.58787,0.89535,2.9394,0.59303,12.806,27.798,-4.6483,1.5494,-0.7486,-6.1978,-6.6347e-13,-0.3743,0,0,0.2,-0,-0,0.66667
0.26414,0.19676,1.3207,-0.45486,-13.936,73.446,1.6019,-0.53398,-1.2647,2.1359,2.8642e-11,-0.63237,0,0,0.2,-0,-0,0.66667
0.30529,0.47737,1.5264,-0.033952,-1.0065,66.732,0.1382,-0.046068,-1.995,0.18427,1.4985e-12,-0.9975,0,0,0.2,-0,-0,0.66667
0.37165,0.14856,1.8583,-0.52715,-14.989,56.701,2.6123,-0.87075,-1.0118,3.483,-1.6456e-12,-0.5059,0,0,0.2,4.5691e-16,0,0.66667
0.24445,0.53233,1.2222,0.04849,1.4916,76.534,-0.15804,0.052681,-1.992,-0.21073,-3.438e-11,-0.99602,0,0,0.2,-9.4739e-16,0,0.66667
0.58455,0.081756,2.9227,-0.62737,-13.657,28.237,4.8897,-1.6299,-0.59949,6.5196,1.7275e-13,-0.29974,0,0,0.2,-0,-0,0.66667
0.69585,0.40395,3.4792,-0.14408,-2.3962,16.042,1.3368,-0.44559,-1.9262,1.7823,-6.0333e-12,-0.9631,0,0,0.2,9.4739e-16,0,0.66667
0.071947,0.83129,0.35974,0.49693,16.316,105.75,-0.4767,0.1589,-1.1209,-0.63561,-3.672e-08,-0.56045,0,0,0.2,1.1842e-16,0,0.66667
0.97108,0.77531,4.8554,0.41296,0.61674,0.71085,-5.347,1.7823,-1.394,-7.1293,-3.9647e-08,-0.69702,0,0,0.2,-9.4739e-16,0,0.66667
0.75307,0.23297,3.7654,-0.40054,-5.6126,11.343,4.0218,-1.3406,-1.4291,5.3624,-7.5048e-11,-0.71454,0,0,0.2,-0,-0,0.66667
0.80616,0.609,4.0308,0.1635,1.8172,7.2784,-1.7574,0.5858,-1.9038,-2.3432,2.9332e-10,-0.95189,0,0,0.2,-0,-0,0.66667
0.75164,0.13543,3.7582,-0.54686,-7.7807,11.688,5.4805,-1.8268,-0.93692,7.3074,-3.1894e-11,-0.46846,0,0,0.2,-1.8948e-15,0,0.66667
0.080061,0.91817,0.4003,0.62725,20.664,104.38,-0.66958,0.22319,-0.60108,-0.89277,-4.563e-08,-0.30054,0,0,0.2,-0,-0,0.66667
0.4817,0.97358,2.4085,0.71038,18.142,41.249,-4.5625,1.5208,-0.20619,-6.0833,2.2471e-13,-0.10309,0,0,0.2,-0,-0,0.66667
0.44567,0.80946,2.2284,0.46419,12.233,45.89,-2.7583,0.91945,-1.2337,-3.6778,6.7413e-13,-0.61687,0,0,0.2,-3.5527e-16,0,0.66667
0.67247,0.38704,3.3624,-0.16944,-3,18.29,1.5192,-0.50641,-1.8985,2.0256,-5.0271e-13,-0.94925,0,0,0.2,-0,-0,0.66667
0.44874,0.41832,2.2437,-0.12252,-3.192,45.261,0.73305,-0.24435,-1.9459,0.97739,-1.0605e-12,-0.97293,0,0,0.2,-9.4739e-16,0,0.66667
0.70431,0.46385,3.5216,-0.054218,-0.87929,15.235,0.50915,-0.16972,-1.9906,0.67887,-3.4966e-12,-0.99528,0,0,0.2,-4.737e-16,0,0.66667
0.68165,0.037122,3.4082,-0.69432,-12.332,18.084,6.3104,-2.1035,-0.28549,8.4138,4.8628e-13,-0.14275,0,0,0.2,-0,-0,0.66667
0.69715,0.34295,3.4857,-0.23557,-3.9121,15.974,2.1897,-0.7299,-1.8031,2.9196,-7.3261e-12,-0.90155,0,0,0.2,-1.0658e-15,0,0.66667
0.6186,0.92771,3.093,0.64156,13.102,24.429,-5.2916,1.7639,-0.53557,-7.0555,-5.8442e-13,-0.26779,0,0,0.2,4.737e-16,0,0.66667
0.15098,0.015788,0.7549,-0.72632,-23.632,92.33,1.4621,-0.48738,-0.12328,1.9495,2.2089e-09,-0.061639,0,0,0.2,-0,-0,0.66667
0.7608,0.8971,3.804,0.59565,8.2343,11.07,-6.0423,2.0141,-0.73782,-8.0564,2.5247e-11,-0.36891,0,0,0.2,-0,-0,0.66667
0.78105,0.38766,3.9052,-0.16851,-2.0971,9.0072,1.7548,-0.58494,-1.8998,2.3398,-1.6383e-10,-0.94989,0,0,0.2,1.8948e-15,0,0.66667
0.9041,0.31027,4.5205,-0.2846,-1.5901,2.3257,3.4307,-1.1436,-1.7131,4.5743,1.3839e-10,-0.85655,0,0,0.2,1.2151e-15,0,0.66667
0.23377,0.61386,1.1688,0.17079,5.2874,78.302,-0.53233,0.17744,-1.8969,-0.70978,-1.1821e-10,-0.94846,0,0,0.2,-0,-0,0.66667
0.17668,0.77235,0.88339,0.40853,13.025,87.868,-0.96237,0.32079,-1.406,-1.2832,-7.0297e-10,-0.70299,0,0,0.2,2.3685e-16,0,0.66667
0.3911,0.11183,1.9555,-0.58226,-16.305,53.859,3.0363,-1.0121,-0.79516,4.0484,-1.2383e-12,-0.39758,0,0,0.2,-0,-0,0.66667
0.32056,0.8923,1.6028,0.58845,17.468,64.573,-2.5152,0.83839,-0.76756,-3.3536,1.6751e-12,-0.38378,0,0,0.2,-4.737e-16,0,0.66667
0.81548,0.81432,4.0774,0.47148,5.0985,7.0356,-5.1264,1.7088,-1.2105,-6.8353,7.9652e-10,-0.60524,0,0,0.2,1.8948e-15,0,0.66667
0.61353,0.76502,3.0676,0.39753,8.0964,24.64,-3.2519,1.084,-1.4373,-4.3359,-2.3033e-12,-0.71866,0,0,0.2,-0,-0,0.66667
0.76,0.24454,3.8,-0.38319,-5.2301,10.78,3.883,-1.2943,-1.4775,5.1774,-1.0538e-10,-0.73877,0,0,0.2,-0,-0,0.66667
0.42767,0.26015,2.1383,-0.35978,-9.6375,48.356,2.0515,-0.68384,-1.5389,2.7354,-1.4995e-12,-0.76944,0,0,0.2,-0,-0,0.66667
0.099441,0.071717,0.4972,-0.64242,-21.103,101.06,0.85177,-0.28392,-0.53178,1.1357,-2.5139e-08,-0.26589,0,0,0.2,-0,-0,0.66667
0.11504,0.106,0.57518,-0.59099,-19.308,98.381,0.90647,-0.30216,-0.75712,1.2086,-5.2322e-09,-0.37856,0,0,0.2,-0,-0,0.66667
0.37341,0.33423,1.867,-0.24865,-7.0036,56.259,1.238,-0.41266,-1.7805,1.6506,-2.0534e-12,-0.89024,0,0,0.2,-0,-0,0.66667
0.19385,0.43896,0.96924,-0.091567,-2.8849,84.922,0.23667,-0.078889,-1.9704,0.31556,2.675e-10,-0.98521,0,0,0.2,-4.737e-16,0,0.66667
0.82075,0.95153,4.1037,0.67729,7.2955,7.1417,-7.4118,2.4706,-0.36777,-9.8824,2.7889e-10,-0.18388,0,0,0.2,-0,-0,0.66667
0.59964,0.34772,2.9982,-0.22842,-4.7554,26.055,1.8263,-0.60875,-1.8143,2.435,1.4748e-12,-0.90716,0,0,0.2,-0,-0,0.66667
0.68885,0.57627,3.4442,0.1144,1.9387,16.687,-1.0507,0.35024,-1.9536,-1.401,3.0188e-12,-0.97682,0,0,0.2,-0,-0,0.66667
0.49111,0.068886,2.4555,-0.64667,-16.26,39.901,4.2345,-1.4115,-0.51251,5.646,-1.4699e-13,-0.25626,0,0,0.2,-0,-0,0.66667
0.088174,0.35836,0.44087,-0.21246,-6.9128,102.92,0.24977,-0.083258,-1.8384,0.33303,-6.463e-09,-0.91922,0,0,0.2,-1.1842e-16,0,0.66667
0.23508,0.11986,1.1754,-0.57021,-17.816,78.241,1.7872,-0.59575,-0.84515,2.383,2.7021e-11,-0.42258,0,0,0.2,-1.1842e-16,0,0.66667
0.4616,0.87241,2.308,0.55861,14.508,43.775,-3.4381,1.146,-0.89046,-4.5841,1.2212e-14,-0.44523,0,0,0.2,-4.737e-16,0,0.66667
0.19859,0.47505,0.99296,-0.037432,-1.1767,84.125,0.099115,-0.033038,-1.9947,0.13215,-8.8953e-12,-0.99737,0,0,0.2,-0,-0,0.66667
0.025476,0.73998,0.12738,0.35997,11.829,113.78,-0.12227,0.040758,-1.5384,-0.16303,8.3398e-09,-0.7692,0,0,0.2,-2.9606e-17,0,0.66667
0.7294,0.12544,3.647,-0.56185,-8.6206,13.532,5.4641,-1.8214,-0.87825,7.2855,-8.55e-12,-0.43912,0,0,0.2,1.8948e-15,0,0.66667
0.72492,0.70086,3.6246,0.30128,4.6179,13.55,-2.9121,0.97069,-1.6761,-3.8828,3.019e-11,-0.83807,0,0,0.2,-1.8948e-15,0,0.66667
0.33039,0.98305,1.652,0.72458,21.488,63.178,-3.1919,1.064,-0.13307,-4.2559,-3.3573e-13,-0.066537,0,0,0.2,-0,-0,0.66667
0.84349,0.23808,4.2175,-0.39288,-3.6121,5.2673,4.4186,-1.4729,-1.4519,5.8914,-1.4408e-09,-0.72597,0,0,0.2,-0,-0,0.66667
0.42844,0.54071,2.1422,0.061058,1.6263,48.125,-0.3488,0.11627,-1.9858,-0.46506,-2.8996e-13,-0.99291,0,0,0.2,-9.4739e-16,0,0.66667
0.86469,0.079441,4.3234,-0.63084,-5.1981,4.6371,7.273,-2.4243,-0.58401,9.6974,-1.2881e-09,-0.29201,0,0,0.2,-1.024e-15,0,0.66667
0.65707,0.87765,3.2853,0.56648,10.588,20.258,-4.9628,1.6543,-0.86059,-6.6171,-1.8856e-12,-0.4303,0,0,0.2,-0,-0,0.66667
0.58104,0.022094,2.9052,-0.71686,-15.792,28.801,5.5536,-1.8512,-0.17269,7.4048,-1.239e-13,-0.086346,0,0,0.2,-0,-0,0.66667
0.20073,0.024963,1.0036,-0.71255,-22.754,83.994,1.9071,-0.63569,-0.19506,2.5427,-7.4461e-11,-0.097531,0,0,0.2,-0,1.5225e-16,0.66667
0.52955,0.26288,2.6477,-0.35567,-8.3704,34.584,2.5113,-0.83709,-1.5503,3.3484,2.7112e-13,-0.77513,0,0,0.2,9.4739e-16,0,0.66667
0.89443,0.022617,4.4722,-0.71607,-4.7367,3.559,8.5397,-2.8466,-0.17647,11.386,-3.8842e-08,-0.088235,0,0,0.2,-0,-0,0.66667
0.30499,0.11459,1.525,-0.57811,-17.341,67.004,2.351,-0.78365,-0.81062,3.1346,-4.5897e-13,-0.40531,0,0,0.2,-0,-0,0.66667
0.87095,0.42729,4.3547,-0.10906,-0.81548,3.5936,1.2665,-0.42216,-1.9571,1.6886,-1.3387e-09,-0.97857,0,0,0.2,-0,-0,0.66667
0.90875,0.95096,4.5437,0.67643,3.8538,2.9161,-8.1961,2.732,-0.37283,-10.928,1.6401e-08,-0.18642,0,0,0.2,-0,-0,0.66667
0.32984,0.76248,1.6492,0.39373,11.53,62.991,-1.7316,0.57719,-1.4489,-2.3088,1.4416e-12,-0.72444,0,0,0.2,4.737e-16,0,0.66667
0.68307,0.48428,3.4154,-0.023585,-0.40561,17.218,0.21481,-0.071603,-1.9972,0.28641,-6.1659e-13,-0.99858,0,0,0.2,-0,-0,0.66667
0.89922,0.37635,4.4961,-0.18548,-1.0818,2.4185,2.2238,-0.74126,-1.8779,2.9651,-7.2995e-09,-0.93894,0,0,0.2,-0,-0,0.66667
0.075697,0.28745,0.37848,-0.31883,-10.414,105.08,0.32179,-0.10726,-1.6389,0.42905,-3.8899e-09,-0.81946,0,0,0.2,-2.3685e-16,0,0.66667
0.87859,0.41294,4.3929,-0.13059,-0.91897,3.2507,1.5298,-0.50992,-1.9393,2.0397,-5.3874e-09,-0.96964,0,0,0.2,-0,-0,0.66667
0.19084,0.084586,0.9542,-0.62312,-19.902,85.587,1.5855,-0.52852,-0.61916,2.1141,6.842e-11,-0.30958,0,0,0.2,-2.3685e-16,0,0.66667
0.84977,0.55921,4.2488,0.088809,0.77157,4.6522,-1.0062,0.33541,-1.9719,-1.3416,-1.5006e-09,-0.98594,0,0,0.2,1.4735e-17,0,0.66667
0.66712,0.96114,3.3356,0.69171,12.735,19.486,-6.1527,2.0509,-0.29829,-8.2037,-4.1478e-13,-0.14915,0,0,0.2,-4.737e-16,-1.3557e-16,0.66667
0.34434,0.78821,1.7217,0.43231,12.533,60.777,-1.9848,0.6616,-1.3365,-2.6464,2.785e-12,-0.66826,0,0,0.2,-0,-0,0.66667
0.15138,0.33955,0.75688,-0.24068,-7.7128,92.105,0.48577,-0.16192,-1.794,0.64769,1.6953e-09,-0.897,0,0,0.2,3.042e-17,0,0.66667
0.63537,0.43423,3.1769,-0.098659,-1.9045,22.062,0.8358,-0.2786,-1.9654,1.1144,1.0142e-12,-0.98272,0,0,0.2,2.3685e-16,0,0.66667
0.84779,0.51011,4.2389,0.01517,0.13337,4.7441,-0.17148,0.057161,-1.9986,-0.22864,-2.1084e-09,-0.99931,0,0,0.2,-0,-0,0.66667
0.82185,0.74238,4.1092,0.36357,3.7712,6.4788,-3.984,1.328,-1.5293,-5.312,8.1013e-10,-0.76465,0,0,0.2,-9.4739e-16,0,0.66667
0.62824,0.097251,3.1412,-0.60412,-12.066,23.323,5.0605,-1.6868,-0.70283,6.7473,1.4566e-12,-0.35141,0,0,0.2,-1.8948e-15,0,0.66667
0.9563,0.45302,4.7815,-0.070471,-0.16007,0.6337,0.89855,-0.29952,-1.9818,1.1981,2.6971e-07,-0.99091,0,0,0.2,-0,-0,0.66667
0.58992,0.12933,2.9496,-0.55601,-11.938,27.506,4.3734,-1.4578,-0.90099,5.8312,8.9662e-13,-0.45049,0,0,0.2,-0,-0,0.66667
0.19783,0.60633,0.98916,0.15949,5.0195,84.262,-0.4207,0.14023,-1.9086,-0.56094,-2.415e-10,-0.95429,0,0,0.2,-0,-0,0.66667
0.42933,0.40048,2.1467,-0.14928,-3.9753,48.016,0.85457,-0.28486,-1.9202,1.1394,-9.0289e-13,-0.9601,0,0,0.2,4.737e-16,0,0.66667
0.33675,0.38567,1.6837,-0.17149,-4.9734,61.828,0.77,-0.25667,-1.8944,1.0267,-5.3779e-13,-0.94719,0,0,0.2,-0,-0,0.66667
0.99195,0.13328,4.9597,-0.55008,-0.14594,0.73485,7.2753,-2.4251,-0.92326,9.7005,2.7435e-08,-0.46163,0,0,0.2,-0,-0,0.66667
0.38024,0.51084,1.9012,0.016259,0.45412,55.183,-0.082428,0.027476,-1.9982,-0.1099,-3.666e-13,-0.9991,0,0,0.2,-0,-0,0.66667
0.9927,0.34129,4.9635,-0.23806,0.0094625,0.18558,3.151,-1.0503,-1.7985,4.2013,-2.8937e-08,-0.89923,0,0,0.2,-2.0746e-15,0,0.66667
0.5188,0.32209,2.594,-0.26686,-6.3652,35.892,1.846,-0.61533,-1.7465,2.4613,5.1126e-13,-0.87326,0,0,0.2,-0,-0,0.66667
0.17228,0.28716,0.8614,-0.31926,-10.174,88.584,0.73336,-0.24445,-1.6388,0.97782,8.3464e-10,-0.81942,0,0,0.2,-0,-0,0.66667
0.074574,0.84822,0.37287,0.52233,17.157,105.31,-0.51936,0.17312,-1.0302,-0.69248,-4.7682e-08,-0.51509,0,0,0.2,-0,-0,0.66667
0.37031,0.054253,1.8515,-0.66862,-19.151,57.043,3.3013,-1.1004,-0.40994,4.4017,3.8636e-14,-0.20497,0,0,0.2,-2.3685e-16,1.6494e-17,0.66667
0.12342,0.93093,0.61709,0.6464,21.122,96.969,-1.0637,0.35457,-0.51499,-1.4183,-2.012e-08,-0.25749,0,0,0.2,-0,-0,0.66667
0.63452,0.92656,3.1726,0.63985,12.64,22.717,-5.4133,1.8044,-0.54334,-7.2177,-8.3578e-13,-0.27167,0,0,0.2,9.4739e-16,0,0.66667
0.41392,0.58092,2.0696,0.12138,3.2837,50.229,-0.66986,0.22329,-1.9464,-0.89315,4.2705e-13,-0.97321,0,0,0.2,4.737e-16,0,0.66667
0.99092,0.82789,4.9546,0.49184,0.13299,0.61073,-6.4982,2.1661,-1.1387,-8.6643,1.357e-07,-0.56935,0,0,0.2,-0,-0,0.66667
0.92996,0.67625,4.6498,0.26437,1.0562,1.4392,-3.2781,1.0927,-1.7504,-4.3708,-7.5228e-09,-0.87519,0,0,0.2,9.4739e-16,0,0.66667
0.14924,0.067946,0.74618,-0.64808,-21.026,92.589,1.2896,-0.42985,-0.50613,1.7194,2.9259e-09,-0.25307,0,0,0.2,-0,-0,0.66667
0.39488,0.58693,1.9744,0.13039,3.5949,53.019,-0.68652,0.22884,-1.9393,-0.91536,9.8266e-13,-0.96963,0,0,0.2,-4.737e-16,0,0.66667
0.46158,0.1635,2.3079,-0.50475,-13.079,43.72,3.1064,-1.0355,-1.0934,4.1419,-3.6882e-13,-0.5467,0,0,0.2,-0,-0,0.66667
0.56095,0.38273,2.8047,-0.17591,-3.9216,30.574,1.3157,-0.43857,-1.8905,1.7543,8.9262e-13,-0.94523,0,0,0.2,-0,-0,0.66667
0.78036,0.11102,3.9018,-0.58348,-7.4709,9.5975,6.071,-2.0237,-0.7899,8.0947,-8.1193e-11,-0.39495,0,0,0.2,-0,-0,0.66667
0.48719,0.051525,2.436,-0.67271,-17.025,40.459,4.3699,-1.4566,-0.3907,5.8265,-3.7792e-13,-0.19535,0,0,0.2,-0,-0,0.66667
0.41999,0.21967,2.1,-0.42049,-11.376,49.501,2.3547,-0.7849,-1.3728,3.1396,-2.0108e-12,-0.68639,0,0,0.2,-0,-0,0.66667
0.262,0.083535,1.31,-0.6247,-19.282,73.898,2.1823,-0.72742,-0.612,2.9097,5.8564e-12,-0.306,0,0,0.2,2.3685e-16,0,0.66667
0.91081,0.91739,4.554,0.62609,3.4462,2.7117,-7.6033,2.5344,-0.6055,-10.138,5.9769e-09,-0.30275,0,0,0.2,-0,-0,0.66667
0.022272,0.87417,0.11136,0.56126,18.555,114.34,-0.16667,0.055556,-0.8803,-0.22222,9.0378e-09,-0.44015,0,0,0.2,-3.9027e-18,0,0.66667
0.82112,0.83692,4.1056,0.50538,5.3268,6.748,-5.5331,1.8444,-1.0912,-7.3774,2.5862e-10,-0.5456,0,0,0.2,4.737e-16,0,0.66667
0.18847,0.50194,0.94234,0.0029144,0.091992,85.82,-0.0073235,0.0024412,-2.0016,-0.0097647,2.61e-10,-1.0008,0,0,0.2,-0,-0,0.66667
0.68576,0.925,3.4288,0.63749,11.154,17.579,-5.8289,1.943,-0.55507,-7.7718,-7.8515e-13,-0.27754,0,0,0.2,-0,2.274e-16,0.66667
0.35521,0.42421,1.776,-0.11368,-3.2464,58.977,0.5384,-0.17947,-1.9533,0.71786,-1.1491e-12,-0.97664,0,0,0.2,4.737e-16,0,0.66667
0.97421,0.21512,4.8711,-0.42733,-0.55681,0.68786,5.5508,-1.8503,-1.3507,7.401,4.6666e-08,-0.67534,0,0,0.2,-2.3685e-15,0,0.66667
0.12277,0.34332,0.61386,-0.23502,-7.5923,96.981,0.38472,-0.12824,-1.805,0.51296,3.8279e-09,-0.90251,0,0,0.2,2.5905e-16,0,0.66667
0.18757,0.44768,0.93785,-0.078484,-2.4788,85.973,0.19628,-0.065428,-1.9791,0.26171,7.7853e-11,-0.98953,0,0,0.2,-0,-0,0.66667
0.88944,0.40668,4.4472,-0.13999,-0.89592,2.7839,1.6601,-0.55338,-1.9322,2.2135,7.8939e-09,-0.96608,0,0,0.2,-0,-0,0.66667
0.58341,0.68299,2.917,0.27449,5.8967,27.957,-2.1352,0.71172,-1.7319,-2.8469,-1.6482e-12,-0.86597,0,0,0.2,1.1842e-15,0,0.66667
0.30925,0.49185,1.5462,-0.012222,-0.36132,66.106,0.050396,-0.016799,-1.9993,0.067195,2.524e-14,-0.99965,0,0,0.2,7.1054e-16,0,0.66667
0.00076439,0.73394,0.0038219,0.3509,11.537,118.06,-0.0035763,0.0011921,-1.5626,-0.0047684,-2.3248e-08,-0.7813,0,0,0.2,-0,-0,0.66667
0.2276,0.98982,1.138,0.73473,23.205,79.577,-2.2296,0.74321,-0.079612,-2.9728,3.3229e-11,-0.039806,0,0,0.2,2.6953e-16,0,0.66667
0.1454,0.13307,0.72702,-0.5504,-17.811,93.199,1.0671,-0.35569,-0.92233,1.4228,2.4181e-09,-0.46117,0,0,0.2,-0,-0,0.66667
0.20343,0.76535,1.0172,0.39803,12.552,83.387,-1.0796,0.35988,-1.4373,-1.4395,-3.4536e-10,-0.71866,0,0,0.2,-0,-0,0.66667
0.89632,0.42788,4.4816,-0.10818,-0.64717,2.4873,1.2929,-0.43096,-1.9575,1.7238,-1.5703e-08,-0.97877,0,0,0.2,9.4739e-16,0,0.66667
0.87309,0.6111,4.3655,0.16664,1.228,3.5234,-1.94,0.64665,-1.9012,-2.5866,-1.3348e-10,-0.9506,0,0,0.2,9.4739e-16,0,0.66667
0.70029,0.25598,3.5014,-0.36603,-6.0549,15.807,3.4177,-1.1392,-1.5239,4.5569,-6.9171e-12,-0.76193,0,0,0.2,1.8948e-15,0,0.66667
0.4705,0.89405,2.3525,0.59107,15.21,42.597,-3.708,1.236,-0.75788,-4.9439,-2.4536e-13,-0.37894,0,0,0.2,4.737e-16,0,0.66667
0.82714,0.52335,4.1357,0.035019,0.3483,5.9201,-0.3862,0.12873,-1.9964,-0.51493,-1.0276e-10,-0.99818,0,0,0.2,-0,-0,0.66667
0.49583,0.3491,2.4791,-0.22635,-5.5702,38.873,1.4964,-0.49881,-1.8178,1.9952,-9.8033e-14,-0.90888,0,0,0.2,-0,-0,0.66667
0.36349,0.45188,1.8174,-0.072185,-2.0465,57.711,0.34985,-0.11662,-1.9807,0.46646,-1.3007e-12,-0.99035,0,0,0.2,4.737e-16,0,0.66667
0.2756,0.65639,1.378,0.23459,7.1022,71.505,-0.86205,0.28735,-1.8049,-1.1494,-3.1183e-11,-0.90246,0,0,0.2,-0,-0,0.66667
0.92474,0.62771,4.6237,0.19157,0.82053,1.5288,-2.362,0.78735,-1.8702,-3.1494,2.7898e-08,-0.93512,0,0,0.2,-0,-0,0.66667
0.38699,0.99597,1.9349,0.74395,21.077,54.651,-3.8387,1.2796,-0.032421,-5.1182,6.6502e-13,-0.016211,0,0,0.2,-1.4211e-15,0,0.66667
0.49288,0.73206,2.4644,0.34809,8.6249,39.341,-2.2875,0.76251,-1.568,-3.05,-1.108e-13,-0.784,0,0,0.2,-0,-0,0.66667
0.25444,0.01507,1.2722,-0.72739,-22.652,75.2,2.4677,-0.82256,-0.11788,3.2903,-2.6024e-13,-0.05894,0,0,0.2,-0,-0,0.66667
0.88497,0.41636,4.4248,-0.12545,-0.83563,2.9667,1.4803,-0.49343,-1.9432,1.9737,3.5242e-10,-0.97158,0,0,0.2,-0,-0,0.66667
0.38326,0.68616,1.9163,0.27924,7.8004,54.796,-1.427,0.47565,-1.7229,-1.9026,2.0582e-12,-0.86147,0,0,0.2,7.1054e-16,0,0.66667
0.29757,0.93383,1.4879,0.65074,19.677,68.235,-2.5819,0.86064,-0.49579,-3.4426,1.3385e-12,-0.2479,0,0,0.2,-7.1054e-16,0,0.66667
0.71759,0.13389,3.588,-0.54916,-8.7305,14.522,5.2543,-1.7514,-0.92828,7.0058,-4.5057e-12,-0.46414,0,0,0.2,-0,-0,0.66667
0.19087,0.84168,0.95435,0.51252,16.302,85.528,-1.3043,0.43478,-1.0667,-1.7391,-3.249e-10,-0.53336,0,0,0.2,5.9212e-17,0,0.66667
0.11819,0.2356,0.59096,-0.3966,-12.869,97.791,0.62501,-0.20834,-1.4395,0.83334,2.7359e-09,-0.71977,0,0,0.2,-0,-0,0.66667
0.837,0.78453,4.185,0.4268,4.0916,5.6811,-4.763,1.5877,-1.3522,-6.3507,1.2878e-09,-0.6761,0,0,0.2,-0,-0,0.66667
0.74414,0.8335,3.7207,0.50025,7.2794,12.207,-4.9634,1.6545,-1.1093,-6.6179,3.3558e-11,-0.55465,0,0,0.2,-0,-0,0.66667
0.59052,0.41611,2.9526,-0.12584,-2.6606,27.052,0.9908,-0.33027,-1.9434,1.3211,7.7521e-13,-0.97169,0,0,0.2,-0,-0,0.66667
0.24289,0.32033,1.2145,-0.2695,-8.3165,76.827,0.8728,-0.29093,-1.7409,1.1637,1.0423e-10,-0.87047,0,0,0.2,-0,-0,0.66667
0.62325,0.69466,3.1162,0.292,5.808,23.473,-2.4265,0.80883,-1.6973,-3.2353,-2.6292e-12,-0.84866,0,0,0.2,-0,-0,0.66667
0.63836,0.35986,3.1918,-0.21021,-4.0387,21.794,1.7892,-0.5964,-1.8427,2.3856,2.0192e-12,-0.92133,0,0,0.2,-0,-0,0.66667
0.32757,0.96694,1.6378,0.70041,20.79,63.589,-3.0591,1.0197,-0.25757,-4.0788,2.0806e-13,-0.12878,0,0,0.2,5.9212e-16,0,0.66667
0.067489,0.1757,0.33745,-0.48644,-15.977,106.52,0.43773,-0.14591,-1.1578,0.58364,1.9475e-08,-0.57889,0,0,0.2,-1.9835e-16,0,0.66667
0.88054,0.92236,4.4027,0.63354,4.6383,3.9153,-7.438,2.4793,-0.57184,-9.9174,8.2496e-09,-0.28592,0,0,0.2,-1.8948e-15,0,0.66667
0.45996,0.381,2.2998,-0.17851,-4.5932,43.716,1.0947,-0.36491,-1.8861,1.4596,-9.438e-13,-0.94307,0,0,0.2,-0,-0,0.66667
0.76387,0.53964,3.8194,0.059463,0.79107,10.24,-0.60563,0.20188,-1.9878,-0.80751,3.8345e-11,-0.99389,0,0,0.2,-0,-0,0.66667
0.25389,0.063164,1.2694,-0.65525,-20.343,75.233,2.2182,-0.73938,-0.47423,2.9575,2.951e-12,-0.23711,0,0,0.2,-9.4739e-16,0,0.66667
0.59139,0.72641,2.9569,0.33962,7.2039,27.083,-2.678,0.89266,-1.5901,-3.5706,-1.803e-12,-0.79504,0,0,0.2,-0,-0,0.66667
0.4288,0.99946,2.144,0.74918,20.38,48.606,-4.2833,1.4278,-0.004727,-5.711,-9.1038e-14,-0.0023635,0,0,0.2,1.8652e-15,0,0.66667
0.3821,0.59825,1.9105,0.14738,4.1127,54.922,-0.75083,0.25028,-1.9224,-1.0011,4.3587e-13,-0.9612,0,0,0.2,9.4739e-16,0,0.66667
0.12671,0.80338,0.63357,0.45507,14.758,96.349,-0.76885,0.25628,-1.264,-1.0251,-3.44e-09,-0.63199,0,0,0.2,-1.1842e-16,0,0.66667
0.24427,0.52402,1.2213,0.036033,1.1085,76.563,-0.11736,0.039119,-1.9948,-0.15647,-2.2825e-11,-0.99739,0,0,0.2,4.737e-16,0,0.66667
0.079342,0.41414,0.39671,-0.1288,-4.1933,104.44,0.13625,-0.045417,-1.9416,0.18167,-2.3597e-08,-0.97082,0,0,0.2,-0,-0,0.66667
0.30286,0.37385,1.5143,-0.18922,-5.6254,67.14,0.76408,-0.25469,-1.873,1.0188,6.5762e-12,-0.93652,0,0,0.2,-1.4803e-16,0,0.66667
0.7417,0.10543,3.7085,-0.59185,-8.7451,12.569,5.8531,-1.951,-0.75339,7.8041,-1.0743e-11,-0.37669,0,0,0.2,-0,-0,0.66667
0.61502,0.43358,3.0751,-0.09963,-2.0077,24.273,0.81698,-0.27233,-1.9646,1.0893,7.9098e-13,-0.98229,0,0,0.2,-1.1842e-15,0,0.66667
0.67241,0.95375,3.3621,0.68062,12.36,18.945,-6.1021,2.034,-0.35342,-8.1361,-3.6104e-13,-0.17671,0,0,0.2,-9.4739e-16,0,0.66667
0.0083831,0.50704,0.041915,0.010559,0.34578,116.74,-0.0011798,0.00039123,-1.9989,-0.0015741,-3.0698e-06,-0.99944,0,0,0.2,-0,-0,0.66667
0.67838,0.84177,3.3919,0.51266,9.0652,18.066,-4.637,1.5457,-1.0656,-6.1827,-1.8709e-12,-0.53282,0,0,0.2,1.1842e-16,0,0.66667
0.50318,0.15561,2.5159,-0.51659,-12.701,38.143,3.4658,-1.1553,-1.0522,4.6211,1.0014e-13,-0.52609,0,0,0.2,1.2731e-15,0,0.66667
0.23091,0.63245,1.1545,0.19867,6.1615,78.778,-0.61166,0.20389,-1.8595,-0.81555,-1.4754e-10,-0.92976,0,0,0.2,4.737e-16,0,0.66667
0.1749,0.64107,0.87448,0.21161,6.7243,88.121,-0.49347,0.16449,-1.8403,-0.65796,-5.5235e-10,-0.92015,0,0,0.2,2.3685e-16,0,0.66667
0.18498,0.40717,0.92491,-0.13925,-4.4044,86.413,0.34345,-0.11448,-1.9323,0.45794,6.573e-10,-0.96613,0,0,0.2,-0,-0,0.66667
0.84426,0.26408,4.2213,-0.35388,-3.2277,5.1707,3.9836,-1.3279,-1.5553,5.3115,-1.3777e-09,-0.77764,0,0,0.2,-0,-0,0.66667
0.98259,0.46884,4.9129,-0.046741,-0.026619,0.17833,0.61237,-0.20412,-1.9939,0.81649,2.5378e-06,-0.99694,0,0,0.2,-0,-0,0.66667
0.91374,0.66289,4.5687,0.24434,1.2171,1.9367,-2.9768,0.99226,-1.7871,-3.9691,5.2402e-09,-0.89353,0,0,0.2,-0,-0,0.66667
0.34737,0.86339,1.7368,0.54509,15.827,60.397,-2.5246,0.84155,-0.94301,-3.3662,2.2853e-12,-0.4715,0,0,0.2,-0,-0,0.66667
0.78022,0.19649,3.9011,-0.45526,-5.7696,9.3766,4.7361,-1.5787,-1.2637,6.3147,-1.7766e-10,-0.63184,0,0,0.2,-0,-0,0.66667
0.54645,0.37227,2.7323,-0.1916,-4.375,32.358,1.396,-0.46533,-1.8712,1.8613,5.1092e-13,-0.93561,0,0,0.2,-1.1842e-16,0,0.66667
0.81644,0.069679,4.0822,-0.64548,-7.0763,7.3281,7.0266,-2.3422,-0.51834,9.3689,-2.2786e-10,-0.25917,0,0,0.2,1.8948e-15,0,0.66667
0.48373,0.58321,2.4186,0.12482,3.1163,40.452,-0.80504,0.26835,-1.9452,-1.0734,2.7645e-13,-0.97262,0,0,0.2,-0,-0,0.66667
0.58995,0.62996,2.9498,0.19494,4.1304,27.147,-1.5334,0.51114,-1.865,-2.0445,-1.2688e-12,-0.93248,0,0,0.2,-1.8948e-15,0,0.66667
0.78726,0.50972,3.9363,0.014579,0.17627,8.5152,-0.15303,0.051011,-1.9983,-0.20404,-3.5869e-11,-0.99917,0,0,0.2,-0,-0,0.66667
0.10023,0.81408,0.50117,0.47111,15.38,100.88,-0.62963,0.20988,-1.211,-0.8395,-2.6196e-09,-0.60552,0,0,0.2,2.3685e-16,0,0.66667
0.53701,0.45522,2.685,-0.067177,-1.5546,33.498,0.48099,-0.16033,-1.9829,0.64132,4.8922e-13,-0.99144,0,0,0.2,-1.5833e-15,0,0.66667
0.36598,0.14457,1.8299,-0.53315,-15.237,57.559,2.6016,-0.86722,-0.98825,3.4689,-1.8527e-12,-0.49413,0,0,0.2,4.737e-16,0,0.66667
0.60431,0.53407,3.0215,0.051103,1.0517,25.46,-0.41176,0.13725,-1.9909,-0.54901,-6.8973e-14,-0.99543,0,0,0.2,-1.8948e-15,0,0.66667
0.9588,0.20666,4.794,-0.44,-1.0152,0.9833,5.625,-1.875,-1.3106,7.5,4.2864e-08,-0.65531,0,0,0.2,9.4739e-16,0,0.66667
0.39282,0.35104,1.9641,-0.22344,-6.1799,53.353,1.1703,-0.3901,-1.8228,1.5604,-2.32e-12,-0.91139,0,0,0.2,9.4739e-16,0,0.66667
0.39297,0.49951,1.9649,-0.00074152,-0.020467,53.287,0.0038853,-0.0012951,-2.0013,0.0051804,-2.7211e-13,-1.0007,0,0,0.2,-5.7732e-16,0,0.66667
0.79064,0.72275,3.9532,0.33412,4.0191,8.4748,-3.5222,1.1741,-1.6029,-4.6963,3.1522e-10,-0.80143,0,0,0.2,-0,-0,0.66667
0.64508,0.77431,3.2254,0.41147,7.8404,21.268,-3.5391,1.1797,-1.3977,-4.7188,-2.9905e-12,-0.69884,0,0,0.2,4.737e-16,0,0.66667
0.39388,0.72085,1.9694,0.33127,9.1737,53.248,-1.7398,0.57992,-1.6105,-2.3197,1.6884e-12,-0.80527,0,0,0.2,-0,-0,0.66667
0.68896,0.11224,3.4448,-0.58164,-10.05,17.174,5.343,-1.781,-0.79727,7.124,1.1657e-12,-0.39864,0,0,0.2,9.4739e-16,0,0.66667
0.404,0.86863,2.02,0.55295,15.276,51.937,-2.9785,0.99285,-0.91328,-3.9714,1.2794e-12,-0.45664,0,0,0.2,-2.3685e-16,0,0.66667
0.13611,0.82788,0.68057,0.49181,15.927,94.758,-0.89256,0.29752,-1.1391,-1.1901,-3.4272e-09,-0.56955,0,0,0.2,-2.3685e-16,0,0.66667
0.45064,0.73024,2.2532,0.34536,9.0153,45.099,-2.0751,0.6917,-1.5757,-2.7668,2.4558e-13,-0.78787,0,0,0.2,9.4739e-16,0,0.66667
0.33442,0.15612,1.6721,-0.51582,-15.113,62.365,2.3,-0.76667,-1.0545,3.0667,-2.0774e-12,-0.52723,0,0,0.2,-9.2519e-17,0,0.66667
0.21797,0.098926,1.0898,-0.60161,-18.976,81.073,1.7484,-0.58281,-0.71428,2.3312,2.7784e-11,-0.35714,0,0,0.2,-0,-1.3092e-16,0.66667
0.92577,0.86853,4.6289,0.55279,2.4866,2.0499,-6.8235,2.2745,-0.91335,-9.0979,-4.7469e-08,-0.45668,0,0,0.2,-4.737e-16,0,0.66667
0.68964,0.32787,3.4482,-0.25819,-4.3804,16.694,2.3741,-0.79137,-1.7628,3.1655,-4.1631e-12,-0.8814,0,0,0.2,-0,-0,0.66667
0.59882,0.26376,2.9941,-0.35436,-7.4159,26.246,2.8293,-0.94311,-1.5525,3.7725,2.222e-12,-0.77627,0,0,0.2,-9.4739e-16,0,0.66667
0.74666,0.4945,3.7333,-0.0082528,-0.11691,11.588,0.08216,-0.027387,-1.9999,0.10955,-2.8097e-12,-0.99995,0,0,0.2,2.8422e-15,0,0.66667
0.54197,0.058228,2.7099,-0.66266,-15.516,33.4,4.7886,-1.5962,-0.43863,6.3847,3.2419e-13,-0.21932,0,0,0.2,8.4064e-17,0,0.66667
0.70053,0.023018,3.5027,-0.71547,-12.108,16.373,6.6828,-2.2276,-0.17995,8.9104,2.4558e-13,-0.089975,0,0,0.2,-0,-1.8382e-16,0.66667
0.93056,0.8719,4.6528,0.55786,2.3475,1.9205,-6.9216,2.3072,-0.89337,-9.2288,-4.6105e-08,-0.44669,0,0,0.2,1.2229e-15,0,0.66667
0.86262,0.84342,4.3131,0.51514,4.2353,4.4834,-5.9249,1.975,-1.0576,-7.8998,6.8782e-09,-0.52878,0,0,0.2,2.102e-15,0,0.66667
0.16744,0.97023,0.83721,0.70534,22.805,89.547,-1.5747,0.52491,-0.23161,-2.0996,4.1941e-10,-0.1158,0,0,0.2,-0,-0,0.66667
0.26314,0.15943,1.3157,-0.51085,-15.69,73.639,1.7923,-0.59744,-1.0729,2.3898,2.4745e-11,-0.53645,0,0,0.2,9.4739e-16,0,0.66667
0.07161,0.39395,0.35805,-0.15908,-5.1868,105.78,0.15189,-0.050629,-1.9089,0.20252,-3.8068e-08,-0.95445,0,0,0.2,-0,-0,0.66667
0.97867,0.66819,4.8934,0.25229,0.22437,0.36477,-3.2922,1.0974,-1.7727,-4.3895,2.7163e-08,-0.88634,0,0,0.2,-0,-0,0.66667
0.23638,0.23406,1.1819,-0.39891,-12.387,77.94,1.2573,-0.41909,-1.4341,1.6764,1.1359e-10,-0.71704,0,0,0.2,-0,-0,0.66667
0.6606,0.52562,3.303,0.038434,0.69971,19.433,-0.33853,0.11284,-1.9946,-0.45137,1.6243e-13,-0.9973,0,0,0.2,-9.4739e-16,0,0.66667
0.089631,0.50405,0.44815,0.00607,0.19716,102.66,-0.0072541,0.0024182,-2,-0.0096721,1.6746e-07,-1,0,0,0.2,-0,-0,0.66667
0.21077,0.30052,1.0539,-0.29922,-9.3842,82.135,0.8409,-0.2803,-1.6805,1.1212,2.8185e-10,-0.84025,0,0,0.2,-0,-0,0.66667
0.50282,0.76648,2.5141,0.39971,9.7882,38.07,-2.6798,0.89327,-1.4315,-3.5731,-1.7319e-14,-0.71576,0,0,0.2,-0,-0,0.66667
0.10495,0.58318,0.52477,0.12477,4.0423,100.03,-0.1746,0.058199,-1.944,-0.2328,3.7266e-09,-0.97198,0,0,0.2,1.1842e-16,0,0.66667
0.38887,0.039187,1.9444,-0.69122,-19.496,54.308,3.584,-1.1947,-0.3016,4.7786,-6.7812e-13,-0.1508,0,0,0.2,-0,-1.7951e-16,0.66667
0.53799,0.91496,2.6899,0.62244,14.63,33.833,-4.4649,1.4883,-0.62158,-5.9532,-9.9476e-14,-0.31079,0,0,0.2,-0,-0,0.66667
0.3392,0.51534,1.696,0.023016,0.66552,61.426,-0.1041,0.034699,-1.9972,-0.1388,-3.5929e-13,-0.99861,0,0,0.2,-0,-0,0.66667
0.5559,0.82919,2.7795,0.49379,11.21,31.452,-3.66,1.22,-1.1319,-4.8799,-2.5557e-13,-0.56593,0,0,0.2,-9.4739e-16,0,0.66667
0.53677,0.033895,2.6838,-0.69916,-16.537,34.106,5.0038,-1.6679,-0.26208,6.6717,4.694e-13,-0.13104,0,0,0.2,-0,-0,0.66667
0.39061,0.83169,1.9531,0.49753,13.891,53.852,-2.5912,0.86373,-1.1207,-3.4549,1.4044e-12,-0.56037,0,0,0.2,4.737e-16,8.9277e-17,0.66667
0.69627,0.89243,3.4814,0.58864,9.9772,16.506,-5.4647,1.8216,-0.76682,-7.2863,-8.6864e-13,-0.38341,0,0,0.2,9.4739e-16,0,0.66667
0.67848,0.79131,3.3924,0.43697,7.6922,17.948,-3.953,1.3177,-1.3201,-5.2707,-1.3041e-12,-0.66005,0,0,0.2,-0,-0,0.66667
0.6873,0.86386,3.4365,0.54579,9.4491,17.268,-5.0016,1.6672,-0.94168,-6.6688,-1.1937e-12,-0.47084,0,0,0.2,-9.4739e-16,2.4745e-16,0.66667
0.56149,0.65652,2.8075,0.23478,5.2351,30.539,-1.7577,0.58589,-1.806,-2.3436,-8.6475e-13,-0.90298,0,0,0.2,-0,-0,0.66667
0.35808,0.30396,1.7904,-0.29406,-8.4001,58.598,1.404,-0.46799,-1.6931,1.872,-2.903e-12,-0.84653,0,0,0.2,4.737e-16,0,0.66667
0.61311,0.44538,3.0656,-0.081924,-1.6571,24.479,0.66971,-0.22324,-1.9759,0.89295,2.7078e-13,-0.98793,0,0,0.2,1.8948e-15,0,0.66667
0.93574,0.63888,4.6787,0.20832,0.75165,1.219,-2.599,0.86635,-1.8457,-3.4654,-9.1486e-10,-0.92285,0,0,0.2,-0,-0,0.66667
0.59689,0.69919,2.9844,0.29879,6.2646,26.418,-2.3779,0.79263,-1.6822,-3.1705,-2.0235e-12,-0.84109,0,0,0.2,-0,-0,0.66667
0.97959,0.40312,4.898,-0.14533,-0.11413,0.25951,1.8981,-0.63271,-1.9251,2.5308,-1.9895e-07,-0.96253,0,0,0.2,1.8948e-15,0,0.66667
0.44101,0.15857,2.205,-0.51215,-13.592,46.592,3.0115,-1.0038,-1.068,4.0153,-1.1702e-12,-0.534,0,0,0.2,-0,-0,0.66667
0.73961,0.24531,3.6981,-0.38203,-5.6033,12.404,3.7674,-1.2558,-1.4809,5.0232,-4.7207e-11,-0.74044,0,0,0.2,-4.737e-16,0,0.66667
0.037604,0.66383,0.18802,0.24574,8.0519,111.67,-0.12321,0.041071,-1.7846,-0.16428,2.5389e-08,-0.89228,0,0,0.2,-0,-0,0.66667
0.76473,0.82381,3.8236,0.48571,6.5576,10.57,-4.9525,1.6508,-1.1617,-6.6033,7.5892e-11,-0.58083,0,0,0.2,-0,-0,0.66667
0.51828,0.58915,2.5914,0.13373,3.1846,35.898,-0.9241,0.30803,-1.9369,-1.2321,8.4377e-14,-0.96845,0,0,0.2,2.3685e-16,0,0.66667
0.0053165,0.49178,0.026583,-0.012323,-0.40357,117.27,0.00087376,-0.00030388,-1.9988,0.0011587,-1.894e-05,-0.9994,0,0,0.2,3.7007e-18,0,0.66667
0.2772,0.27363,1.386,-0.33955,-10.291,71.285,1.255,-0.41833,-1.5897,1.6733,2.5968e-11,-0.79487,0,0,0.2,-0,-0,0.66667
0.53483,0.061645,2.6742,-0.65753,-15.56,34.28,4.6889,-1.563,-0.46364,6.2519,4.321e-13,-0.23182,0,0,0.2,5.9212e-17,0,0.66667
0.76796,0.28539,3.8398,-0.32192,-4.2489,10.1,3.2963,-1.0988,-1.6322,4.395,-1.5267e-10,-0.8161,0,0,0.2,-0,-0,0.66667
0.053093,0.26418,0.26546,-0.35374,-11.598,108.99,0.25041,-0.08347,-1.5539,0.33388,-1.2376e-08,-0.77697,0,0,0.2,-0,-0,0.66667
0.54905,0.97093,2.7453,0.7064,16.402,32.601,-5.1713,1.7238,-0.22687,-6.8951,-5.7732e-15,-0.11344,0,0,0.2,-0,-0,0.66667
0.80099,0.05329,4.005,-0.67007,-7.9263,8.3715,7.1562,-2.3854,-0.40309,9.5417,3.4019e-11,-0.20155,0,0,0.2,-0,-0,0.66667
0.64958,0.23505,3.2479,-0.39742,-7.4908,20.785,3.4421,-1.1474,-1.4372,4.5895,2.8306e-12,-0.71861,0,0,0.2,-0,-0,0.66667
0.93145,0.64322,4.6572,0.21483,0.83314,1.3465,-2.6681,0.88936,-1.8348,-3.5574,3.9474e-09,-0.9174,0,0,0.2,9.4739e-16,0,0.66667
0.074731,0.15584,0.37366,-0.51624,-16.953,105.28,0.51439,-0.17146,-1.0535,0.68586,6.3381e-08,-0.52673,0,0,0.2,1.8504e-17,0,0.66667
0.27681,0.99839,1.384,0.74758,23.007,71.621,-2.7591,0.91972,-0.013371,-3.6789,-5.0902e-12,-0.0066854,0,0,0.2,4.737e-16,0,0.66667
0.91924,0.32394,4.5962,-0.26409,-1.2295,1.7724,3.2368,-1.0789,-1.7518,4.3158,7.8075e-10,-0.8759,0,0,0.2,-1.8948e-15,0,0.66667
0.76501,0.06597,3.825,-0.65104,-8.9075,10.868,6.6407,-2.2136,-0.49446,8.8543,-9.1656e-12,-0.24723,0,0,0.2,-0,9.3527e-17,0.66667
0.59974,0.042532,2.9987,-0.6862,-14.581,26.602,5.4872,-1.8291,-0.32478,7.3163,-2.0295e-13,-0.16239,0,0,0.2,9.4739e-16,0,0.66667
0.83297,0.96011,4.1648,0.69017,6.9818,6.4559,-7.6652,2.5551,-0.30576,-10.22,-5.5153e-10,-0.15288,0,0,0.2,-9.4739e-16,0,0.66667
0.89604,0.64772,4.4802,0.22158,1.3379,2.5729,-2.6473,0.88243,-1.8247,-3.5297,-8.6461e-10,-0.91236,0,0,0.2,-0,-0,0.66667
0.97272,0.57326,4.8636,0.10989,0.13439,0.34222,-1.4252,0.47507,-1.9565,-1.9003,-5.3513e-07,-0.97824,0,0,0.2,1.8948e-15,0,0.66667
0.99852,0.68117,4.9926,0.27176,-0.11092,0.17472,-3.6181,1.206,-1.7381,-4.8241,1.1991e-08,-0.86906,0,0,0.2,9.4739e-16,-1.5062e-16,0.66667
0.13965,0.89621,0.69825,0.59431,19.295,94.191,-1.1066,0.36887,-0.7447,-1.4755,-4.8153e-09,-0.37235,0,0,0.2,-0,-2.0664e-16,0.66667
0.070542,0.73936,0.35271,0.35904,11.747,105.98,-0.3377,0.11257,-1.5406,-0.45027,5.7743e-09,-0.77029,0,0,0.2,-0,-0,0.66667
0.073467,0.59449,0.36733,0.14173,4.6191,105.45,-0.13883,0.046278,-1.9292,-0.18511,8.1763e-08,-0.96461,0,0,0.2,2.3685e-16,0,0.66667
0.014744,0.80366,0.073719,0.45549,15.012,115.64,-0.089542,0.029847,-1.263,-0.11939,-2.0401e-08,-0.6315,0,0,0.2,-0,-0,0.66667
0.97182,0.12439,4.8591,-0.56341,-0.90035,1.0162,7.3004,-2.4335,-0.87244,9.7339,-6.2476e-09,-0.43622,0,0,0.2,2.4277e-15,0,0.66667
0.094767,0.71652,0.47383,0.32478,10.575,101.8,-0.41038,0.13679,-1.6265,-0.54717,-1.4507e-09,-0.81325,0,0,0.2,-2.9606e-17,0,0.66667
0.84174,0.65233,4.2087,0.22849,2.0991,5.173,-2.5644,0.8548,-1.8152,-3.4192,1.0672e-09,-0.9076,0,0,0.2,4.9841e-16,0,0.66667
0.68517,0.82537,3.4259,0.48805,8.4668,17.378,-4.4586,1.4862,-1.1529,-5.9448,-1.0822e-12,-0.57645,0,0,0.2,-0,-0,0.66667
0.48756,0.3318,2.4378,-0.2523,-6.2804,39.989,1.6402,-0.54672,-1.7732,2.1869,-2.5269e-13,-0.88661,0,0,0.2,-4.737e-16,0,0.66667
0.34669,0.97758,1.7335,0.71637,20.972,60.667,-3.3115,1.1038,-0.17522,-4.4153,9.388e-13,-0.087612,0,0,0.2,-0,-0,0.66667
0.35365,0.2922,1.7682,-0.3117,-8.9401,59.282,1.4697,-0.48992,-1.6536,1.9597,-2.6911e-12,-0.8268,0,0,0.2,-0,-0,0.66667
0.25384,0.15639,1.2692,-0.51542,-15.915,75.148,1.7444,-0.58148,-1.0564,2.3259,3.0202e-11,-0.5282,0,0,0.2,-0,-0,0.66667
0.91102,0.86635,4.5551,0.54953,2.9664,2.5221,-6.6751,2.225,-0.92569,-8.9001,4.7329e-08,-0.46284,0,0,0.2,9.4739e-16,0,0.66667
0.72564,0.35065,3.6282,-0.22403,-3.4164,13.422,2.1675,-0.7225,-1.8209,2.89,-3.1208e-11,-0.91043,0,0,0.2,-0,-0,0.66667
0.025926,0.00039345,0.12963,-0.74941,-24.963,113.72,0.25905,-0.086345,-0.0037037,0.3454,5.3472e-06,-0.0018519,0,0,0.2,-0,-0,0.66667
0.46152,0.83977,2.3076,0.50966,13.21,43.733,-3.1362,1.0454,-1.0762,-4.1816,4.4453e-13,-0.53808,0,0,0.2,-4.737e-16,0,0.66667
0.2813,0.90316,1.4065,0.60475,18.44,70.784,-2.2682,0.75607,-0.70153,-3.0243,-7.5828e-13,-0.35076,0,0,0.2,-1.1842e-16,0,0.66667
0.028966,0.825,0.14483,0.4875,16.072,113.18,-0.18828,0.06276,-1.1549,-0.25104,1.0707e-07,-0.57743,0,0,0.2,-0,-0,0.66667
0.88468,0.16394,4.4234,-0.50409,-3.4908,3.4476,5.9462,-1.9821,-1.0958,7.9282,-3.5304e-10,-0.5479,0,0,0.2,-0,-0,0.66667
0.77101,0.79759,3.855,0.44638,5.8662,10.036,-4.5888,1.5296,-1.2905,-6.1184,1.1837e-10,-0.64525,0,0,0.2,-9.4739e-16,0,0.66667
0.32974,0.76462,1.6487,0.39694,11.626,63.01,-1.7451,0.58171,-1.4398,-2.3268,1.6097e-12,-0.71992,0,0,0.2,-0,-0,0.66667
0.79656,0.31838,3.9828,-0.27242,-3.181,8.0027,2.8933,-0.96445,-1.7374,3.8578,-3.7855e-10,-0.86871,0,0,0.2,-1.8948e-15,0,0.66667
0.32464,0.45433,1.6232,-0.0685,-2.0031,63.693,0.2965,-0.098834,-1.9827,0.39534,5.268e-13,-0.99135,0,0,0.2,4.737e-16,0,0.66667
0.30788,0.95063,1.5394,0.67594,20.322,66.634,-2.7748,0.92493,-0.37462,-3.6997,1.0627e-12,-0.18731,0,0,0.2,-4.737e-16,-4.1793e-17,0.66667
0.92811,0.17568,4.6405,-0.48648,-2.0834,1.8381,6.0201,-2.0067,-1.1575,8.0269,-1.9442e-08,-0.57873,0,0,0.2,-0,-0,0.66667
0.97692,0.72747,4.8846,0.34121,0.36119,0.50439,-4.4444,1.4815,-1.5851,-5.9259,-5.169e-10,-0.79257,0,0,0.2,-0,-0,0.66667
0.52356,0.16551,2.6178,-0.50174,-11.979,35.492,3.5025,-1.1675,-1.1039,4.67,3.4084e-13,-0.55197,0,0,0.2,-0,-0,0.66667
0.95194,0.62382,4.7597,0.18573,0.47914,0.79231,-2.3574,0.7858,-1.879,-3.1432,2.146e-08,-0.93951,0,0,0.2,-2.3685e-15,0,0.66667
0.888,0.75097,4.44,0.37645,2.4892,3.0858,-4.4572,1.4857,-1.4973,-5.9429,3.2174e-09,-0.74863,0,0,0.2,-0,-0,0.66667
0.51803,0.80664,2.5902,0.45996,11.05,36.153,-3.177,1.059,-1.2482,-4.236,-1.8296e-13,-0.62409,0,0,0.2,9.4739e-16,0,0.66667
0.37275,0.30877,1.8637,-0.28685,-8.0902,56.375,1.4256,-0.47521,-1.7082,1.9008,-2.5404e-12,-0.85411,0,0,0.2,2.3685e-16,0,0.66667
0.71035,0.43003,3.5518,-0.10495,-1.673,14.701,0.99402,-0.33134,-1.9601,1.3254,-9.8784e-12,-0.98003,0,0,0.2,-0,-0,0.66667
0.45564,0.57075,2.2782,0.10612,2.7424,44.293,-0.64473,0.21491,-1.96,-0.85964,3.566e-13,-0.98001,0,0,0.2,-9.4739e-16,0,0.66667
0.60521,0.28434,3.0261,-0.32348,-6.6797,25.495,2.6104,-0.87012,-1.6282,3.4805,2.0921e-12,-0.81412,0,0,0.2,1.8948e-15,0,0.66667
0.99041,0.13647,4.952,-0.54529,-0.19715,0.73767,7.2008,-2.4003,-0.94175,9.6011,3.1003e-08,-0.47088,0,0,0.2,-0,-0,0.66667
0.77392,0.72618,3.8696,0.33927,4.3782,9.6764,-3.5009,1.167,-1.59,-4.6679,1.7922e-10,-0.79498,0,0,0.2,-1.8948e-15,0,0.66667
0.33428,0.54121,1.6714,0.061818,1.7945,62.192,-0.27553,0.091842,-1.9855,-0.36737,3.1306e-13,-0.99274,0,0,0.2,-0,-0,0.66667
0.088998,0.1752,0.44499,-0.4872,-15.947,102.82,0.57813,-0.19271,-1.1552,0.77084,5.8712e-09,-0.57759,0,0,0.2,-1.1842e-16,0,0.66667
0.18491,0.37657,0.92453,-0.18514,-5.8589,86.432,0.45644,-0.15215,-1.8792,0.60859,2.0012e-10,-0.93959,0,0,0.2,4.737e-16,0,0.66667
0.52685,0.65911,2.6343,0.23866,5.6221,34.845,-1.6765,0.55885,-1.7978,-2.2354,-6.2494e-13,-0.89888,0,0,0.2,-0,-0,0.66667
0.4171,0.082519,2.0855,-0.62622,-17.132,50.118,3.4826,-1.1609,-0.60488,4.6435,-2.9177e-13,-0.30244,0,0,0.2,-4.737e-16,0,0.66667
0.80066,0.55304,4.0033,0.079561,0.90605,7.6059,-0.84935,0.28312,-1.9771,-1.1325,2.0803e-10,-0.98853,0,0,0.2,9.4739e-16,0,0.66667
0.9332,0.76516,4.666,0.39774,1.5453,1.5283,-4.9489,1.6496,-1.4367,-6.5986,-1.7534e-09,-0.71835,0,0,0.2,1.8948e-15,0,0.66667
0.17786,0.86688,0.88932,0.55031,17.615,87.723,-1.3051,0.43503,-0.92248,-1.7401,-6.7027e-10,-0.46124,0,0,0.2,-1.1842e-16,0,0.66667
0.86007,0.54226,4.3003,0.06339,0.51327,4.1102,-0.72693,0.24231,-1.9863,-0.96924,-9.4779e-10,-0.99315,0,0,0.2,-0,-0,0.66667
0.95739,0.25631,4.787,-0.36553,-0.85354,0.88428,4.6661,-1.5554,-1.5247,6.2215,2.3546e-08,-0.76235,0,0,0.2,1.8948e-15,0,0.66667
0.95947,0.92697,4.7974,0.64046,1.5943,1.4317,-8.1933,2.7311,-0.54057,-10.924,-4.1593e-07,-0.27028,0,0,0.2,-9.4739e-16,0,0.66667
0.037863,0.65843,0.18931,0.23765,7.7855,111.62,-0.11997,0.039991,-1.7993,-0.15996,3.025e-08,-0.89963,0,0,0.2,-0,-0,0.66667
0.057584,0.57954,0.28792,0.11931,3.8959,108.2,-0.091603,0.030534,-1.9484,-0.12214,5.5014e-08,-0.97422,0,0,0.2,-1.1842e-16,0,0.66667
0.0057974,0.91742,0.028987,0.62614,20.76,117.19,-0.048398,0.016133,-0.60508,-0.064531,-8.1152e-08,-0.30254,0,0,0.2,-0,4.3527e-16,0.66667
0.31268,0.087831,1.5634,-0.61825,-18.478,65.83,2.5776,-0.85918,-0.64228,3.4367,-1.7926e-12,-0.32114,0,0,0.2,-0,-0,0.66667
0.055698,0.099408,0.27849,-0.60089,-19.842,108.57,0.44625,-0.14875,-0.71569,0.595,-2.838e-07,-0.35785,0,0,0.2,-0,-0,0.66667
0.29386,0.77346,1.4693,0.41018,12.324,68.656,-1.6072,0.53572,-1.4017,-2.1429,-7.9036e-12,-0.70086,0,0,0.2,-0,-0,0.66667
0.35602,0.66579,1.7801,0.24868,7.1097,58.892,-1.1805,0.39349,-1.7798,-1.574,2.2938e-12,-0.88989,0,0,0.2,-9.4739e-16,0,0.66667
0.95368,0.36139,4.7684,-0.20791,-0.51524,0.77184,2.6437,-0.88124,-1.8468,3.525,-1.5423e-09,-0.92342,0,0,0.2,-0,-0,0.66667
0.47695,0.64475,2.3848,0.21712,5.475,41.402,-1.3808,0.46025,-1.8313,-1.841,6.8945e-14,-0.91563,0,0,0.2,-4.737e-16,0,0.66667
0.27824,0.46086,1.3912,-0.058716,-1.7716,71.049,0.21783,-0.072609,-1.9877,0.29044,1.0955e-11,-0.99384,0,0,0.2,2.3685e-16,0,0.66667
0.50301,0.026034,2.515,-0.71095,-17.66,38.433,4.7681,-1.5894,-0.20313,6.3575,1.4966e-13,-0.10157,0,0,0.2,-4.737e-16,0,0.66667
0.64336,0.010162,3.2168,-0.73476,-14.337,21.977,6.3028,-2.1009,-0.080288,8.4038,3.7303e-13,-0.040144,0,0,0.2,-0,-0,0.66667
0.11125,0.8304,0.55623,0.4956,16.153,99.003,-0.73511,0.24504,-1.1267,-0.98014,-4.851e-09,-0.56333,0,0,0.2,1.1842e-16,0,0.66667
0.75806,0.53119,3.7903,0.046778,0.63604,10.686,-0.47281,0.1576,-1.9927,-0.63041,3.4908e-11,-0.99633,0,0,0.2,1.0946e-15,0,0.66667
0.85195,0.94539,4.2597,0.66809,6.0256,5.3668,-7.589,2.5297,-0.41218,-10.119,2.5853e-09,-0.20609,0,0,0.2,1.8948e-15,0,0.66667
0.84425,0.93885,4.2212,0.65828,6.2147,5.7493,-7.4101,2.47,-0.46122,-9.8801,2.9955e-09,-0.23061,0,0,0.2,-0,-0,0.66667
0.89051,0.89533,4.4525,0.593,3.962,3.3966,-7.0409,2.347,-0.75059,-9.3879,1.5087e-08,-0.3753,0,0,0.2,-0,-0,0.66667
0.38184,0.47507,1.9092,-0.0374,-1.0431,54.943,0.19041,-0.06347,-1.9944,0.25388,-4.6564e-13,-0.99721,0,0,0.2,-0,-0,0.66667
0.44381,0.55685,2.219,0.08528,2.2337,45.947,-0.50463,0.16821,-1.9737,-0.67284,-1.5099e-14,-0.98683,0,0,0.2,-0,-0,0.66667
0.10158,0.86618,0.50791,0.54926,17.971,100.67,-0.74393,0.24798,-0.9264,-0.99191,1.0433e-08,-0.4632,0,0,0.2,-0,-0,0.66667
0.22581,0.08274,1.129,-0.62589,-19.688,79.797,1.8844,-0.62814,-0.60607,2.5125,3.6991e-11,-0.30304,0,0,0.2,-0,-0,0.66667
0.97132,0.04688,4.8566,-0.67968,-1.21,1.3361,8.8025,-2.9342,-0.35713,11.737,4.65e-06,-0.17857,0,0,0.2,1.8948e-15,0,0.66667
0.28462,0.30902,1.4231,-0.28648,-8.6329,70.074,1.0872,-0.36239,-1.7086,1.4496,1.9669e-11,-0.85432,0,0,0.2,-0,-0,0.66667
0.9074,0.24996,4.537,-0.37507,-2.0442,2.3247,4.5378,-1.5126,-1.5018,6.0504,-3.7419e-09,-0.75088,0,0,0.2,-1.8948e-15,0,0.66667
0.89055,0.6129,4.4528,0.16935,1.0743,2.7556,-2.0109,0.67029,-1.8989,-2.6812,2.2132e-09,-0.94943,0,0,0.2,-9.4739e-16,0,0.66667
0.9225,0.56707,4.6125,0.10061,0.442,1.5447,-1.2375,0.41249,-1.9653,-1.65,7.0098e-08,-0.98267,0,0,0.2,1.8948e-15,0,0.66667
0.15615,0.86908,0.78075,0.55363,17.857,91.381,-1.1526,0.38422,-0.91161,-1.5369,-2.317e-09,-0.4558,0,0,0.2,-0,1.5387e-16,0.66667
0.87972,0.90605,4.3986,0.60908,4.4692,3.8916,-7.1442,2.3814,-0.68172,-9.5256,-2.7709e-08,-0.34086,0,0,0.2,2.3981e-15,0,0.66667
0.63199,0.72483,3.16,0.33724,6.5944,22.569,-2.8418,0.94726,-1.595,-3.789,-2.8297e-12,-0.79752,0,0,0.2,-0,-0,0.66667
0.21063,0.48226,1.0531,-0.026605,-0.83199,82.117,0.074717,-0.024906,-1.9963,0.099622,2.726e-11,-0.99813,0,0,0.2,-0,-0,0.66667
0.34512,0.46624,1.7256,-0.050647,-1.4577,60.516,0.23305,-0.077684,-1.9922,0.31074,-3.0212e-14,-0.99611,0,0,0.2,2.3685e-16,0,0.66667
0.15992,0.33473,0.79959,-0.2479,-7.9233,90.658,0.52859,-0.1762,-1.7811,0.70479,8.4329e-10,-0.89056,0,0,0.2,-1.1842e-16,0,0.66667
0.44435,0.066272,2.2217,-0.65059,-17.311,46.281,3.8545,-1.2848,-0.4948,5.1394,-1.0774e-12,-0.2474,0,0,0.2,9.4739e-16,0,0.66667
0.083775,0.15423,0.41887,-0.51865,-17.009,103.72,0.57933,-0.19311,-1.0438,0.77244,2.923e-10,-0.52188,0,0,0.2,1.1842e-16,0,0.66667
0.16532,0.40922,0.82659,-0.13616,-4.3379,89.728,0.30014,-0.10005,-1.934,0.40018,-1.6343e-10,-0.967,0,0,0.2,-0,-0,0.66667
0.1972,0.04087,0.98598,-0.68869,-22.001,84.565,1.8108,-0.60359,-0.31272,2.4144,-2.8905e-11,-0.15636,0,0,0.2,-0,-0,0.66667
0.69103,0.95754,3.4551,0.68632,11.888,17.184,-6.3235,2.1078,-0.32473,-8.4313,-1.0969e-13,-0.16237,0,0,0.2,-9.4739e-16,0,0.66667
0.5738,0.73962,2.869,0.35943,7.8748,29.157,-2.7499,0.91664,-1.54,-3.6666,-1.0507e-12,-0.77,0,0,0.2,-4.737e-16,0,0.66667
0.87332,0.79489,4.3666,0.44233,3.3306,3.8386,-5.1506,1.7169,-1.3044,-6.8675,2.8539e-09,-0.65219,0,0,0.2,-0,-0,0.66667
0.24463,0.058835,1.2232,-0.66175,-20.653,76.741,2.1585,-0.71949,-0.44294,2.878,7.3843e-12,-0.22147,0,0,0.2,-1.1842e-16,0,0.66667
0.62961,0.32692,3.148,-0.25962,-5.0903,22.76,2.1795,-0.72649,-1.7594,2.906,2.3628e-12,-0.87972,0,0,0.2,-0,-0,0.66667
0.034431,0.034899,0.17216,-0.69765,-23.173,112.25,0.32028,-0.10676,-0.26993,0.42704,2.975e-07,-0.13496,0,0,0.2,-1.1842e-16,0,0.66667
0.5162,0.20014,2.581,-0.4498,-10.83,36.379,3.0958,-1.0319,-1.2812,4.1277,1.9429e-13,-0.64061,0,0,0.2,-0,-0,0.66667
0.86323,0.043143,4.3161,-0.68528,-5.7553,4.8453,7.8874,-2.6291,-0.32963,10.517,2.9278e-09,-0.16481,0,0,0.2,-1.8948e-15,0,0.66667
0.98413,0.86776,4.9206,0.55164,0.43143,0.81972,-7.2385,2.4128,-0.91917,-9.6513,-8.8333e-08,-0.45958,0,0,0.2,-0,-1.8133e-16,0.66667
0.009873,0.063451,0.049365,-0.65482,-21.735,116.49,0.0862,-0.028734,-0.47581,0.11493,-1.292e-06,-0.2379,0,0,0.2,-0,-0,0.66667
0.25284,0.92044,1.2642,0.63067,19.571,75.385,-2.1261,0.7087,-0.5854,-2.8348,-7.6583e-12,-0.2927,0,0,0.2,4.737e-16,0,0.66667
0.22385,0.49,1.1192,-0.015003,-0.4663,79.924,0.04478,-0.014927,-1.9984,0.059706,2.1441e-11,-0.99921,0,0,0.2,-4.737e-16,0,0.66667
0.047538,0.057416,0.23769,-0.66388,-21.995,109.99,0.42079,-0.14026,-0.43419,0.56105,-2.0266e-07,-0.21709,0,0,0.2,-8.8818e-17,0,0.66667
0.010172,0.97438,0.050862,0.71158,23.675,116.44,-0.096511,0.032162,-0.19932,-0.12868,-1.2037e-05,-0.099659,0,0,0.2,-0,-0,0.66667
0.4902,0.23232,2.451,-0.40152,-10.001,39.742,2.6243,-0.87477,-1.4257,3.4991,-5.1004e-13,-0.71284,0,0,0.2,9.4739e-16,0,0.66667
0.045482,0.75299,0.22741,0.37948,12.459,110.31,-0.23013,0.07671,-1.4892,-0.30684,2.442e-08,-0.74461,0,0,0.2,-0,-0,0.66667
0.27833,0.47333,1.3916,-0.040001,-1.2068,71.034,0.14845,-0.049482,-1.9947,0.19793,8.3465e-12,-0.99736,0,0,0.2,9.4739e-16,0,0.66667
0.63997,0.40484,3.1999,-0.14274,-2.729,21.59,1.218,-0.406,-1.9294,1.624,1.3428e-12,-0.96472,0,0,0.2,9.4739e-16,0,0.66667
0.29469,0.98686,1.4735,0.73029,22.207,68.763,-2.8695,0.95649,-0.10358,-3.826,1.1866e-12,-0.05179,0,0,0.2,-0,-0,0.66667
0.26965,0.55357,1.3483,0.080356,2.4374,72.435,-0.28891,0.096304,-1.9766,-0.38521,-1.6941e-11,-0.98829,0,0,0.2,2.3685e-16,0,0.66667
0.59055,0.94633,2.9527,0.66949,14.454,27.617,-5.2716,1.7572,-0.40611,-7.0287,-2.0073e-13,-0.20305,0,0,0.2,-0,-0,0.66667
0.38053,0.73494,1.9027,0.35241,9.8858,55.243,-1.7881,0.59602,-1.5574,-2.3841,2.3309e-12,-0.77868,0,0,0.2,-4.737e-16,0,0.66667
0.70252,0.079398,3.5126,-0.6309,-10.543,16.015,5.9096,-1.9699,-0.58525,7.8795,8.1535e-13,-0.29262,0,0,0.2,-9.4739e-16,2.3527e-16,0.66667
0.49612,0.76159,2.4806,0.39239,9.6939,38.947,-2.5956,0.86521,-1.4519,-3.4608,1.4877e-13,-0.72597,0,0,0.2,-0,-0,0.66667
0.63321,0.63443,3.166,0.20165,3.9175,22.336,-1.7025,0.5675,-1.8544,-2.27,-2.0197e-12,-0.92722,0,0,0.2,-0,-0,0.66667
0.35339,0.3823,1.767,-0.17655,-5.0526,59.269,0.83187,-0.27729,-1.8885,1.1092,-1.803e-12,-0.94426,0,0,0.2,-0,-0,0.66667
0.28704,0.1526,1.4352,-0.5211,-15.782,69.808,1.9944,-0.6648,-1.0344,2.6592,4.7918e-12,-0.51719,0,0,0.2,-0,-0,0.66667
0.13321,0.33248,0.66604,-0.25128,-8.0974,95.2,0.4463,-0.14877,-1.7744,0.59507,4.7411e-10,-0.88719,0,0,0.2,-0,-0,0.66667
0.93708,0.22866,4.6854,-0.40701,-1.486,1.4366,5.0853,-1.6951,-1.4118,6.7804,7.7944e-09,-0.7059,0,0,0.2,-0,-0,0.66667
0.80484,0.9553,4.0242,0.68296,7.9508,8.1518,-7.3289,2.443,-0.34037,-9.7719,-2.376e-11,-0.17018,0,0,0.2,-0,-0,0.66667
0.93803,0.6871,4.6901,0.28065,0.98278,1.23,-3.5101,1.17,-1.7221,-4.6802,-1.2973e-08,-0.86104,0,0,0.2,3.2567e-16,0,0.66667
0.18538,0.96154,0.9269,0.69231,22.224,86.536,-1.7112,0.5704,-0.29617,-2.2816,-1.8355e-10,-0.14809,0,0,0.2,-1.1842e-16,1.6815e-16,0.66667
0.93316,0.26448,4.6658,-0.35328,-1.3613,1.4604,4.3955,-1.4652,-1.5554,5.8606,7.7664e-09,-0.77771,0,0,0.2,-0,-0,0.66667
0.93575,0.86991,4.6788,0.55487,2.1537,1.7685,-6.9229,2.3076,-0.90607,-9.2306,4.6369e-08,-0.45304,0,0,0.2,1.4211e-15,0,0.66667
0.28354,0.31681,1.4177,-0.27478,-8.2842,70.243,1.0388,-0.34628,-1.7322,1.3851,2.1283e-11,-0.8661,0,0,0.2,-0,-0,0.66667
0.27463,0.91549,1.3732,0.62324,19.095,71.865,-2.2822,0.76072,-0.61801,-3.0429,-2.3235e-12,-0.30901,0,0,0.2,4.737e-16,0,0.66667
0.55143,0.79023,2.7572,0.43535,9.9306,31.931,-3.2009,1.067,-1.3255,-4.2678,-6.2617e-13,-0.66277,0,0,0.2,9.4739e-16,0,0.66667
0.18529,0.0098651,0.92645,-0.7352,-23.649,86.576,1.8163,-0.60544,-0.078173,2.4218,5.0868e-10,-0.039086,0,0,0.2,-0,-0,0.66667
0.4421,0.6481,2.2105,0.22215,5.8395,46.228,-1.3095,0.4365,-1.824,-1.746,5.5822e-13,-0.91201,0,0,0.2,-4.737e-16,0,0.66667
0.18532,0.44149,0.92659,-0.087767,-2.7746,86.352,0.21686,-0.072288,-1.9734,0.28915,-6.2245e-11,-0.98668,0,0,0.2,-4.737e-16,0,0.66667
0.94738,0.48968,4.7369,-0.015483,-0.043858,0.82672,0.19558,-0.065192,-1.9982,0.26077,3.7422e-07,-0.99912,0,0,0.2,3.0167e-15,0,0.66667
0.49382,0.18125,2.4691,-0.47812,-11.885,39.334,3.1481,-1.0494,-1.1867,4.1975,-1.088e-13,-0.59333,0,0,0.2,-0,-0,0.66667
0.96392,0.863,4.8196,0.5445,1.1359,1.105,-6.998,2.3327,-0.94499,-9.3307,-1.6595e-07,-0.47249,0,0,0.2,9.4739e-16,0,0.66667
0.64494,0.24706,3.2247,-0.37941,-7.2218,21.246,3.2626,-1.0875,-1.4885,4.3502,3.1799e-12,-0.74423,0,0,0.2,-9.4739e-16,0,0.66667
0.48432,0.030589,2.4216,-0.70412,-17.917,40.889,4.5469,-1.5156,-0.23955,6.0625,-4.6008e-13,-0.11977,0,0,0.2,-5.9212e-16,1.9626e-17,0.66667
0.9677,0.57131,4.8385,0.10697,0.16551,0.42549,-1.3801,0.46005,-1.9599,-1.8402,-1.5018e-07,-0.97996,0,0,0.2,-0,-0,0.66667
0.14319,0.12282,0.71595,-0.56577,-18.33,93.58,1.0802,-0.36006,-0.86281,1.4402,-5.5382e-11,-0.4314,0,0,0.2,-8.8818e-17,0,0.66667
0.63233,0.16212,3.1616,-0.50683,-9.9786,22.734,4.2731,-1.4244,-1.0861,5.6974,2.1649e-12,-0.54305,0,0,0.2,-0,-0,0.66667
0.66189,0.45049,3.3094,-0.074261,-1.348,19.309,0.65537,-0.21846,-1.9794,0.87382,1.2507e-13,-0.98968,0,0,0.2,-0,-0,0.66667
0.43384,0.045179,2.1692,-0.68223,-18.392,47.8,3.9464,-1.3155,-0.34445,5.2619,-7.3408e-13,-0.17222,0,0,0.2,-0,-0,0.66667
0.059357,0.21843,0.29679,-0.42235,-13.861,107.92,0.33426,-0.11142,-1.3669,0.44569,-1.8999e-08,-0.68343,0,0,0.2,1.8504e-17,0,0.66667
0.49272,0.24179,2.4636,-0.38731,-9.6103,39.394,2.5445,-0.84816,-1.4658,3.3926,-1.7919e-13,-0.73289,0,0,0.2,-4.737e-16,0,0.66667
0.46513,0.3874,2.3257,-0.16891,-4.3186,42.998,1.0475,-0.34917,-1.898,1.3967,-6.5681e-13,-0.94899,0,0,0.2,-0,-0,0.66667
0.80675,0.077218,4.0337,-0.63417,-7.2755,7.9134,6.8216,-2.2739,-0.56894,9.0954,-1.0866e-10,-0.28447,0,0,0.2,-0,-0,0.66667
0.25666,0.18852,1.2833,-0.46722,-14.381,74.663,1.5989,-0.53297,-1.2241,2.1319,3.5284e-11,-0.61206,0,0,0.2,-0,-0,0.66667
0.39143,0.80879,1.9572,0.46318,12.907,53.702,-2.4174,0.80579,-1.2386,-3.2232,1.9678e-12,-0.61929,0,0,0.2,-4.737e-16,0,0.66667
0.24017,0.85135,1.2009,0.52702,16.399,77.382,-1.6877,0.56256,-1.0118,-2.2503,-4.8111e-11,-0.50588,0,0,0.2,-4.737e-16,0,0.66667
0.68644,0.19003,3.4322,-0.46495,-8.0285,17.224,4.2555,-1.4185,-1.2328,5.674,4.734e-13,-0.61642,0,0,0.2,-0,-0,0.66667
0.98988,0.85641,4.9494,0.53462,0.20534,0.71737,-7.0561,2.352,-0.98276,-9.4082,3.606e-08,-0.49138,0,0,0.2,-1.8948e-15,0,0.66667
0.17743,0.94361,0.88715,0.66541,21.4,87.851,-1.5742,0.52473,-0.42524,-2.0989,-2.0579e-10,-0.21262,0,0,0.2,-0,-0,0.66667
0.82145,0.48853,4.1072,-0.017201,-0.17644,6.2626,0.18839,-0.062798,-1.9979,0.25119,1.4934e-10,-0.99893,0,0,0.2,-0,-0,0.66667
0.23099,0.85755,1.1549,0.53632,16.771,78.893,-1.6518,0.55059,-0.97672,-2.2024,-7.2127e-11,-0.48836,0,0,0.2,-0,-0,0.66667
0.057976,0.97748,0.28988,0.71622,23.757,108.2,-0.55364,0.18455,-0.17557,-0.73819,1.4167e-06,-0.087786,0,0,0.2,1.1842e-16,0,0.66667
0.13882,0.34127,0.69408,-0.23809,-7.6585,94.241,0.44068,-0.14689,-1.7996,0.58757,-7.5758e-11,-0.89981,0,0,0.2,8.8818e-17,0,0.66667
0.93515,0.11339,4.6758,-0.57991,-2.2897,1.8439,7.2307,-2.4102,-0.80414,9.641,-7.576e-08,-0.40207,0,0,0.2,9.4739e-16,0,0.66667
0.88854,0.56128,4.4427,0.09192,0.59213,2.7997,-1.089,0.363,-1.9713,-1.452,7.5798e-09,-0.98563,0,0,0.2,-4.737e-16,0,0.66667
0.28926,0.57546,1.4463,0.11319,3.3928,69.288,-0.43656,0.14552,-1.9532,-0.58208,-1.0495e-11,-0.97662,0,0,0.2,-0,-0,0.66667
0.94776,0.4443,4.7388,-0.083545,-0.23521,0.83156,1.0557,-0.35192,-1.9747,1.4077,2.7546e-09,-0.98734,0,0,0.2,-0,-0,0.66667
0.84993,0.76718,4.2497,0.40077,3.5416,4.9321,-4.5417,1.5139,-1.4278,-6.0555,1.359e-09,-0.71389,0,0,0.2,-1.0065e-15,0,0.66667
0.43465,0.48949,2.1733,-0.015766,-0.41706,47.235,0.091372,-0.030457,-1.9989,0.12183,-4.5575e-13,-0.99944,0,0,0.2,-4.737e-16,0,0.66667
0.46805,0.087219,2.3402,-0.61917,-16.003,42.966,3.864,-1.288,-0.63791,5.1521,-3.6038e-13,-0.31895,0,0,0.2,2.3685e-16,1.5662e-16,0.66667
0.62985,0.41685,3.1493,-0.12472,-2.4373,22.661,1.0474,-0.34913,-1.9439,1.3965,1.6696e-12,-0.97196,0,0,0.2,-1.8948e-15,0,0.66667
0.15803,0.44023,0.79016,-0.089652,-2.8622,90.958,0.1889,-0.062968,-1.9726,0.25187,-3.4559e-10,-0.98628,0,0,0.2,-0,-0,0.66667
0.014782,0.88683,0.07391,0.58024,19.201,115.64,-0.11436,0.038121,-0.80338,-0.15248,1.5854e-07,-0.40169,0,0,0.2,2.9606e-17,0,0.66667
0.26551,0.85934,1.3276,0.53901,16.548,73.273,-1.9082,0.63606,-0.96772,-2.5443,-1.497e-11,-0.48386,0,0,0.2,-4.737e-16,-2.9631e-16,0.66667
0.015444,0.038171,0.077218,-0.69274,-23.027,115.53,0.14265,-0.047543,-0.29492,0.1902,7.5014e-06,-0.14746,0,0,0.2,2.9606e-17,0,0.66667
0.6745,0.69593,3.3725,0.2939,5.1946,18.178,-2.6431,0.88105,-1.6929,-3.5242,-2.9243e-13,-0.84645,0,0,0.2,-0,-0,0.66667
0.55147,0.95866,2.7573,0.68798,15.895,32.274,-5.0587,1.6862,-0.31639,-6.7449,9.1926e-14,-0.15819,0,0,0.2,-0,-0,0.66667
0.32165,0.38164,1.6082,-0.17753,-5.2078,64.179,0.76138,-0.25379,-1.8873,1.0152,1.0917e-12,-0.94366,0,0,0.2,-0,-0,0.66667
0.7802,0.66475,3.901,0.24713,3.0948,9.1247,-2.5708,0.85694,-1.7835,-3.4278,2.1939e-10,-0.89174,0,0,0.2,-0,-0,0.66667
0.14579,0.21052,0.72893,-0.43423,-13.998,93.097,0.84405,-0.28135,-1.329,1.1254,1.9485e-09,-0.66448,0,0,0.2,-0,-0,0.66667
0.24488,0.48967,1.2244,-0.015494,-0.47646,76.462,0.05059,-0.016863,-1.9983,0.067453,-1.7019e-12,-0.99917,0,0,0.2,-7.1054e-16,0,0.66667
0.29231,0.29424,1.4616,-0.30865,-9.2596,68.854,1.203,-0.40099,-1.6604,1.6039,1.256e-11,-0.83022,0,0,0.2,4.737e-16,0,0.66667
0.19593,0.96608,0.97966,0.69912,22.356,84.782,-1.8264,0.6088,-0.26211,-2.4352,2.1733e-11,-0.13105,0,0,0.2,1.1842e-16,0,0.66667
0.087939,0.69379,0.43969,0.29068,9.4704,102.97,-0.34083,0.11361,-1.6991,-0.45444,3.8769e-09,-0.84953,0,0,0.2,-0,-0,0.66667
0.86998,0.84083,4.3499,0.51125,3.9839,4.1219,-5.9303,1.9768,-1.0708,-7.9071,4.8012e-09,-0.5354,0,0,0.2,2.3685e-16,0,0.66667
0.088189,0.71431,0.44094,0.32146,10.479,102.93,-0.37799,0.126,-1.6324,-0.50399,-3.3619e-10,-0.81619,0,0,0.2,-0,-0,0.66667
0.68371,0.98802,3.4186,0.73203,12.974,17.97,-6.6733,2.2244,-0.094096,-8.8977,4.7518e-14,-0.047048,0,0,0.2,-0,-0,0.66667
0.1204,0.8729,0.602,0.55935,18.23,97.455,-0.89794,0.29931,-0.88796,-1.1973,-1.9139e-08,-0.44398,0,0,0.2,8.8818e-17,0,0.66667
0.010699,0.77678,0.053495,0.41517,13.669,116.34,-0.059225,0.019742,-1.387,-0.078967,-4.8304e-08,-0.69352,0,0,0.2,-8.4679e-18,0,0.66667
0.55727,0.74736,2.7863,0.37104,8.3637,31.154,-2.7569,0.91898,-1.5107,-3.6759,-6.4704e-13,-0.75533,0,0,0.2,2.3685e-16,0,0.66667
0.90711,0.68399,4.5355,0.27598,1.4905,2.2051,-3.3379,1.1126,-1.7306,-4.4506,-2.7243e-09,-0.86529,0,0,0.2,-2.3685e-15,0,0.66667
0.86046,0.46222,4.3023,-0.056668,-0.45752,4.089,0.65014,-0.21671,-1.9894,0.86686,2.7334e-09,-0.99471,0,0,0.2,9.4739e-16,0,0.66667
0.33845,0.13298,1.6923,-0.55053,-16.101,61.77,2.4844,-0.82812,-0.92176,3.3125,-1.7546e-12,-0.46088,0,0,0.2,-0,-0,0.66667
0.027159,0.41957,0.13579,-0.12065,-3.9501,113.48,0.04369,-0.014563,-1.9475,0.058253,-2.2009e-07,-0.97375,0,0,0.2,-0,-0,0.66667
0.80086,0.91678,4.0043,0.62517,7.362,8.2769,-6.6756,2.2252,-0.6098,-8.9008,1.9922e-10,-0.3049,0,0,0.2,-0,-0,0.66667
0.80598,0.82866,4.0299,0.49299,5.5946,7.6775,-5.2979,1.766,-1.1347,-7.0639,3.9262e-10,-0.56733,0,0,0.2,-0,-0,0.66667
0.86849,0.85845,4.3424,0.53768,4.2516,4.2457,-6.2262,2.0754,-0.97091,-8.3016,7.2738e-10,-0.48546,0,0,0.2,-1.8948e-15,0,0.66667
0.66965,0.98154,3.3482,0.72232,13.25,19.302,-6.4493,2.1498,-0.14477,-8.5991,-1.994e-13,-0.072384,0,0,0.2,9.4739e-16,2.2907e-16,0.66667
0.80778,0.31826,4.0389,-0.27262,-3.0197,7.2586,2.9362,-0.97873,-1.7355,3.9149,-4.7783e-10,-0.86775,0,0,0.2,-0,-0,0.66667
0.8975,0.81972,4.4875,0.47957,2.9438,2.876,-5.7389,1.913,-1.1815,-7.6519,5.3507e-09,-0.59076,0,0,0.2,-0,-0,0.66667
0.45383,0.59213,2.2691,0.1382,3.5799,44.554,-0.83624,0.27875,-1.9339,-1.115,3.2174e-13,-0.96695,0,0,0.2,-1.125e-15,0,0.66667
0.55783,0.037263,2.7891,-0.6941,-15.879,31.513,5.1625,-1.7208,-0.28673,6.8834,-1.2879e-13,-0.14336,0,0,0.2,-0,-1.5446e-16,0.66667
0.50613,0.7783,2.5307,0.41745,10.182,37.653,-2.8171,0.93905,-1.3804,-3.7562,-4.0257e-13,-0.69018,0,0,0.2,2.3685e-16,0,0.66667
0.69198,0.25839,3.4599,-0.36242,-6.1338,16.573,3.3438,-1.1146,-1.5325,4.4584,-3.2205e-12,-0.76624,0,0,0.2,-0,-0,0.66667
0.68291,0.80952,3.4145,0.46427,8.0914,17.56,-4.2274,1.4091,-1.2338,-5.6366,-1.3194e-12,-0.61691,0,0,0.2,1.1842e-15,0,0.66667
0.52031,0.51394,2.6016,0.020906,0.49603,35.616,-0.14504,0.048346,-1.9975,-0.19338,3.5871e-13,-0.99877,0,0,0.2,-0,-0,0.66667
0.82847,0.8045,4.1423,0.45675,4.6076,6.2226,-5.0454,1.6818,-1.2592,-6.7272,6.2698e-10,-0.62962,0,0,0.2,-0,-0,0.66667
0.50578,0.61833,2.5289,0.1775,4.3053,37.539,-1.197,0.39899,-1.8874,-1.596,-2.699e-13,-0.94372,0,0,0.2,-0,-0,0.66667
0.82486,0.461,4.1243,-0.058505,-0.58937,6.0608,0.64345,-0.21448,-1.9877,0.85793,-1.6457e-10,-0.99385,0,0,0.2,-9.4739e-16,0,0.66667
0.28185,0.84183,1.4092,0.51274,15.574,70.632,-1.9269,0.64229,-1.067,-2.5691,-6.4752e-12,-0.53351,0,0,0.2,-5.9212e-17,0,0.66667
0.17849,0.86814,0.89247,0.55221,17.673,87.618,-1.3142,0.43807,-0.91513,-1.7523,-7.181e-10,-0.45756,0,0,0.2,-1.3116e-16,0,0.66667
0.96987,0.034845,4.8494,-0.69773,-1.3256,1.4124,9.0228,-3.0076,-0.27031,12.03,7.7286e-06,-0.13516,0,0,0.2,-0,-0,0.66667
0.74194,0.28037,3.7097,-0.32945,-4.7814,12.151,3.2591,-1.0864,-1.6144,4.3455,-5.9655e-11,-0.80718,0,0,0.2,-1.2477e-15,0,0.66667
0.25979,0.94876,1.299,0.67314,20.847,74.291,-2.3317,0.77723,-0.38793,-3.1089,-2.4571e-12,-0.19396,0,0,0.2,-0,-0,0.66667
0.58124,0.77911,2.9062,0.41866,9.0727,28.34,-3.2446,1.0815,-1.3776,-4.3261,-8.3089e-13,-0.68878,0,0,0.2,-1.1842e-15,0,0.66667
0.95526,0.45898,4.7763,-0.06153,-0.14375,0.65352,0.7837,-0.26123,-1.9866,1.0449,5.3694e-07,-0.9933,0,0,0.2,9.4739e-16,0,0.66667
0.080754,0.12323,0.40377,-0.56515,-18.573,104.25,0.60851,-0.20284,-0.86537,0.81134,5.0218e-09,-0.43269,0,0,0.2,1.4803e-16,0,0.66667
0.083534,0.64099,0.41767,0.21149,6.887,103.72,-0.23556,0.078519,-1.8399,-0.31408,7.6352e-09,-0.91995,0,0,0.2,-0,-0,0.66667
0.61913,0.73643,3.0957,0.35464,7.1293,23.978,-2.9276,0.97587,-1.5517,-3.9035,-2.4809e-12,-0.77586,0,0,0.2,-0,-0,0.66667
0.22449,0.55256,1.1225,0.078845,2.4502,79.82,-0.236,0.078668,-1.977,-0.31467,-7.6937e-11,-0.98851,0,0,0.2,-0,-0,0.66667
0.76518,0.56241,3.8259,0.093611,1.2396,10.149,-0.95506,0.31835,-1.9711,-1.2734,7.9441e-11,-0.98555,0,0,0.2,-1.1324e-15,0,0.66667
0.56815,0.94366,2.8408,0.66549,14.94,30.226,-5.0413,1.6804,-0.42487,-6.7218,8.1712e-14,-0.21244,0,0,0.2,-0,-0,0.66667
0.66619,0.25035,3.3309,-0.37448,-6.7788,19.077,3.3263,-1.1088,-1.5019,4.4351,2.407e-12,-0.75096,0,0,0.2,-1.8948e-15,0,0.66667
0.10781,0.23544,0.53907,-0.39683,-12.907,99.569,0.57045,-0.19015,-1.4401,0.76061,4.2841e-09,-0.72007,0,0,0.2,2.3685e-16,0,0.66667
0.084283,0.89781,0.42142,0.59672,19.622,103.65,-0.67058,0.22353,-0.73316,-0.8941,4.8013e-08,-0.36658,0,0,0.2,-0,-0,0.66667
0.62512,0.98917,3.1256,0.73376,14.882,23.899,-6.1158,2.0386,-0.086582,-8.1544,-1.2168e-13,-0.043291,0,0,0.2,9.4739e-16,0,0.66667
0.40973,0.45098,2.0487,-0.073524,-1.9969,50.83,0.40167,-0.13389,-1.9802,0.53556,-1.1321e-12,-0.99009,0,0,0.2,-0,-0,0.66667
0.087253,0.96616,0.43626,0.69923,23.077,103.17,-0.81347,0.27116,-0.26158,-1.0846,2.4133e-07,-0.13079,0,0,0.2,-3.338e-17,0,0.66667
0.37106,0.93628,1.8553,0.65442,18.719,56.914,-3.2377,1.0792,-0.47799,-4.317,5.2047e-13,-0.239,0,0,0.2,-5.9212e-17,2.1869e-16,0.66667
0.67214,0.63611,3.3607,0.20417,3.6207,18.342,-1.8297,0.60991,-1.8526,-2.4396,1.3622e-13,-0.92629,0,0,0.2,-0,-0,0.66667
0.18959,0.13587,0.94794,-0.54619,-17.402,85.758,1.3807,-0.46023,-0.9393,1.8409,3.0307e-10,-0.46965,0,0,0.2,-0,-0,0.66667
0.89573,0.64069,4.4786,0.21103,1.2771,2.5763,-2.5203,0.84011,-1.8407,-3.3605,3.0487e-09,-0.92033,0,0,0.2,1.8948e-15,0,0.66667
0.94985,0.518,4.7492,0.026995,0.072272,0.76902,-0.34188,0.11396,-1.9969,-0.45585,-3.9438e-08,-0.99844,0,0,0.2,3.7896e-15,0,0.66667
0.96157,0.58244,4.8079,0.12366,0.24055,0.54783,-1.5855,0.5285,-1.9445,-2.114,7.961e-08,-0.97226,0,0,0.2,-9.4739e-16,0,0.66667
0.73008,0.1254,3.6504,-0.5619,-8.6028,13.474,5.4698,-1.8233,-0.87817,7.2931,-8.2956e-12,-0.43908,0,0,0.2,-0,-0,0.66667
0.40629,0.42644,2.0314,-0.11034,-3.0079,51.339,0.59774,-0.19925,-1.9576,0.79698,-9.6084e-13,-0.97881,0,0,0.2,-0,-0,0.66667
0.74375,0.13895,3.7187,-0.54158,-7.9154,12.309,5.3707,-1.7902,-0.95597,7.1609,-2.1817e-11,-0.47799,0,0,0.2,-0,-0,0.66667
0.28799,0.83096,1.4399,0.49643,15.013,69.641,-1.9062,0.63541,-1.1226,-2.5416,-5.8543e-12,-0.5613,0,0,0.2,-0,-0,0.66667
0.31442,0.091493,1.5721,-0.61276,-18.287,65.554,2.5688,-0.85628,-0.66613,3.4251,-1.4655e-12,-0.33307,0,0,0.2,5.9212e-17,0,0.66667
0.6059,0.17256,3.0295,-0.49116,-10.198,25.602,3.9679,-1.3226,-1.1417,5.2905,1.8738e-12,-0.57083,0,0,0.2,-9.4739e-16,0,0.66667
0.59485,0.28744,2.9742,-0.31884,-6.715,26.668,2.5288,-0.84294,-1.6394,3.3718,2.2595e-12,-0.81971,0,0,0.2,-1.8948e-15,0,0.66667
0.87866,0.75332,4.3933,0.37999,2.7226,3.496,-4.4517,1.4839,-1.487,-5.9356,3.3761e-09,-0.7435,0,0,0.2,1.8948e-15,0,0.66667
0.2546,0.31942,1.273,-0.27088,-8.3065,74.916,0.91953,-0.30651,-1.7387,1.226,6.924e-11,-0.86937,0,0,0.2,-0,-0,0.66667
0.76619,0.078077,3.8309,-0.63289,-8.6055,10.739,6.4655,-2.1552,-0.57635,8.6206,-2.1052e-11,-0.28817,0,0,0.2,-0,-0,0.66667
0.94101,0.51154,4.7051,0.017305,0.055951,0.98694,-0.21712,0.072373,-1.9984,-0.2895,-6.4683e-07,-0.99921,0,0,0.2,-0,-0,0.66667
0.0010329,0.5002,0.0051647,0.00029469,0.0096506,118.01,-4.0931e-06,6.8961e-05,-2.0019,2.8341e-05,0.00010139,-1.001,0,0,0.2,-0,-0,0.66667
0.47609,0.0022496,2.3804,-0.74663,-19.243,42.059,4.7395,-1.5798,-0.017969,6.3193,-3.5527e-14,-0.0089843,0,0,0.2,-0,-0,0.66667
0.65704,0.39292,3.2852,-0.16062,-2.9533,19.829,1.4071,-0.46905,-1.9087,1.8762,8.3644e-13,-0.95435,0,0,0.2,-0,-0,0.66667
0.84332,0.68375,4.2166,0.27563,2.5144,5.1298,-3.0993,1.0331,-1.7314,-4.1324,8.9922e-10,-0.86572,0,0,0.2,9.4739e-16,0,0.66667
0.18374,0.3694,0.9187,-0.19589,-6.2028,86.63,0.47991,-0.15997,-1.8636,0.63988,2.7522e-10,-0.93178,0,0,0.2,1.1842e-16,0,0.66667
0.85616,0.21676,4.2808,-0.42486,-3.6128,4.6453,4.85,-1.6167,-1.359,6.4667,-2.0486e-09,-0.67948,0,0,0.2,-1.8948e-15,0,0.66667
0.36437,0.2435,1.8218,-0.38475,-10.957,57.693,1.8692,-0.62307,-1.4732,2.4923,-2.6658e-12,-0.73662,0,0,0.2,-0,-0,0.66667
0.89227,0.051908,4.4614,-0.67214,-4.4899,3.5235,7.9964,-2.6655,-0.39391,10.662,3.4286e-08,-0.19695,0,0,0.2,-0,-0,0.66667
0.027712,0.30475,0.13856,-0.29288,-9.6103,113.39,0.10822,-0.036072,-1.6948,0.14429,-6.7762e-09,-0.8474,0,0,0.2,-2.9606e-17,0,0.66667
0.08539,0.79016,0.42695,0.43524,14.234,103.43,-0.49554,0.16518,-1.3255,-0.66072,-6.6137e-09,-0.66277,0,0,0.2,-0,-0,0.66667
0.98141,0.81811,4.9071,0.47717,0.42018,0.6855,-6.244,2.0813,-1.1907,-8.3253,-5.3005e-08,-0.59533,0,0,0.2,-0,-0,0.66667
0.6095,0.99872,3.0475,0.74808,15.67,25.631,-6.0794,2.0265,-0.012398,-8.1059,-4.8983e-13,-0.0061988,0,0,0.2,2.8422e-15,0,0.66667
0.41763,0.48497,2.0882,-0.022552,-0.60748,49.678,0.12558,-0.04186,-1.9974,0.16744,-2.764e-13,-0.99869,0,0,0.2,-9.4739e-16,0,0.66667
0.16921,0.92122,0.84607,0.63183,20.351,89.213,-1.4255,0.47518,-0.58023,-1.9007,-6.0763e-10,-0.29011,0,0,0.2,-2.3685e-16,0,0.66667
0.6499,0.91786,3.2495,0.62678,11.958,21.091,-5.4313,1.8104,-0.60211,-7.2417,-9.2415e-13,-0.30105,0,0,0.2,-0,-0,0.66667
0.036975,0.71269,0.18488,0.31903,10.467,111.78,-0.15728,0.052427,-1.6377,-0.20971,1.1324e-08,-0.81883,0,0,0.2,-2.9606e-17,0,0.66667
0.31161,0.23791,1.5581,-0.39314,-11.666,65.84,1.6334,-0.54448,-1.4509,2.1779,1.3779e-12,-0.72545,0,0,0.2,-4.737e-16,0,0.66667
0.32348,0.62892,1.6174,0.19338,5.6663,63.897,-0.83408,0.27803,-1.8671,-1.1121,-4.3099e-13,-0.93354,0,0,0.2,-0,-0,0.66667
0.60744,0.66326,3.0372,0.2449,5.0235,25.184,-1.9835,0.66116,-1.7872,-2.6446,-1.7613e-12,-0.89359,0,0,0.2,-0,-0,0.66667
0.65083,0.04386,3.2542,-0.68421,-13.079,21.105,5.9374,-1.9791,-0.3345,7.9165,4.9605e-13,-0.16725,0,0,0.2,-0,-0,0.66667
0.84605,0.47027,4.2303,-0.044588,-0.39647,4.8413,0.50299,-0.16766,-1.9941,0.67065,-2.379e-09,-0.99704,0,0,0.2,-0,-0,0.66667
0.92758,0.47058,4.6379,-0.044137,-0.17972,1.37,0.54588,-0.18196,-1.9933,0.72783,1.864e-07,-0.99665,0,0,0.2,-0,-0,0.66667
0.66046,0.88105,3.3023,0.57157,10.602,19.925,-5.0333,1.6778,-0.83824,-6.7111,-1.5623e-12,-0.41912,0,0,0.2,-1.8948e-15,0,0.66667
0.57817,0.20679,2.8909,-0.43982,-9.5915,28.723,3.3906,-1.1302,-1.3131,4.5207,1.1575e-12,-0.65653,0,0,0.2,-0,-0,0.66667
0.39872,0.31854,1.9936,-0.27219,-7.4927,52.505,1.447,-0.48234,-1.736,1.9294,-1.7211e-12,-0.86799,0,0,0.2,-0,-0,0.66667
0.96661,0.9752,4.8331,0.7128,1.5199,1.5116,-9.1867,3.0622,-0.19389,-12.249,-1.7751e-06,-0.096946,0,0,0.2,-0,-0,0.66667
0.15408,0.1192,0.7704,-0.5712,-18.448,91.738,1.1735,-0.39115,-0.84043,1.5646,3.027e-09,-0.42021,0,0,0.2,-0,-3.0028e-16,0.66667
0.89509,0.2356,4.4754,-0.39661,-2.4618,2.8263,4.7333,-1.5778,-1.4399,6.3111,-4.9275e-09,-0.71993,0,0,0.2,-0,-0,0.66667
0.31101,0.59706,1.5551,0.1456,4.302,65.842,-0.60377,0.20126,-1.9258,-0.80502,-3.7737e-12,-0.96289,0,0,0.2,9.4739e-16,0,0.66667
0.54849,0.67908,2.7424,0.26862,6.1238,32.149,-1.9645,0.65483,-1.7438,-2.6193,-6.6069e-13,-0.87192,0,0,0.2,4.737e-16,0,0.66667
0.68207,0.7577,3.4103,0.38655,6.7251,17.54,-3.5154,1.1718,-1.4681,-4.6871,2.3426e-13,-0.73405,0,0,0.2,-1.8948e-15,0,0.66667
0.23647,0.16106,1.1823,-0.5084,-15.839,77.978,1.603,-0.53432,-1.0816,2.1373,7.2312e-11,-0.54082,0,0,0.2,-0,-0,0.66667
0.16774,0.67084,0.83868,0.25626,8.1697,89.337,-0.57313,0.19104,-1.7657,-0.76417,-7.082e-10,-0.88286,0,0,0.2,2.3685e-16,0,0.66667
0.50848,0.47845,2.5424,-0.032325,-0.78009,37.151,0.21916,-0.073052,-1.9953,0.29221,-1.9248e-13,-0.99765,0,0,0.2,-0,-0,0.66667
0.79186,0.48576,3.9593,-0.021359,-0.25308,8.1943,0.22551,-0.075171,-1.9974,0.30069,-1.9385e-11,-0.9987,0,0,0.2,-9.4739e-16,0,0.66667
0.69241,0.62988,3.4621,0.19482,3.2746,16.389,-1.7986,0.59954,-1.8649,-2.3982,5.2042e-12,-0.93244,0,0,0.2,-0,-0,0.66667
0.11897,0.57724,0.59487,0.11586,3.7415,97.62,-0.1838,0.061266,-1.9511,-0.24506,2.8504e-09,-0.97557,0,0,0.2,-0,-0,0.66667
0.90074,0.34296,4.5037,-0.23556,-1.3575,2.4018,2.829,-0.94301,-1.8032,3.772,3.3061e-09,-0.90159,0,0,0.2,-4.737e-16,0,0.66667
0.47974,0.87081,2.3987,0.55622,14.127,41.304,-3.5578,1.1859,-0.89999,-4.7438,-1.9318e-14,-0.45,0,0,0.2,1.2315e-15,0,0.66667
0.94668,0.024201,4.7334,-0.7137,-2.4301,1.9147,9.0086,-3.0029,-0.18825,12.011,8.6578e-07,-0.094124,0,0,0.2,-1.8948e-15,0,0.66667
0.55343,0.97461,2.7672,0.71192,16.421,32.076,-5.2533,1.7511,-0.1974,-7.0045,1.0658e-14,-0.098701,0,0,0.2,-0,-0,0.66667
0.084802,0.096035,0.42401,-0.60595,-19.93,103.56,0.68514,-0.22838,-0.69454,0.91352,-7.4549e-08,-0.34727,0,0,0.2,-2.3685e-16,0,0.66667
0.20246,0.23104,1.0123,-0.40343,-12.729,83.551,1.0891,-0.36302,-1.4218,1.4521,3.6871e-10,-0.71092,0,0,0.2,-0,-0,0.66667
0.85424,0.84177,4.2712,0.51266,4.4593,4.9004,-5.8391,1.9464,-1.0658,-7.7855,6.7918e-10,-0.53292,0,0,0.2,-7.1054e-16,0,0.66667
0.70593,0.004859,3.5296,-0.74271,-12.411,15.949,6.9907,-2.3302,-0.039083,9.3209,1.5263e-12,-0.019541,0,0,0.2,-0,-0,0.66667
0.89494,0.46809,4.4747,-0.047868,-0.28984,2.5239,0.57118,-0.19039,-1.9926,0.76158,4.0731e-08,-0.99629,0,0,0.2,2.3685e-15,0,0.66667
0.32915,0.75698,1.6457,0.38547,11.292,63.095,-1.6917,0.5639,-1.4725,-2.2556,1.1546e-12,-0.73624,0,0,0.2,-0,-0,0.66667
0.528,0.79567,2.64,0.44351,10.494,34.863,-3.1223,1.0408,-1.3001,-4.1631,-2.5313e-14,-0.65003,0,0,0.2,-9.4739e-16,0,0.66667
0.6504,0.75362,3.252,0.38043,7.1519,20.682,-3.2991,1.0997,-1.4853,-4.3988,-3.2843e-12,-0.74265,0,0,0.2,1.8948e-15,0,0.66667
0.59429,0.13512,2.9715,-0.54731,-11.651,26.993,4.3369,-1.4456,-0.93565,5.7825,8.8951e-13,-0.46782,0,0,0.2,-0,-0,0.66667
0.23146,0.73631,1.1573,0.35447,11.022,78.731,-1.094,0.36465,-1.5528,-1.4586,-1.4573e-10,-0.77641,0,0,0.2,4.737e-16,0,0.66667
0.42682,0.53126,2.1341,0.046883,1.2508,48.356,-0.26681,0.088937,-1.9929,-0.35575,-5.8084e-13,-0.99646,0,0,0.2,-0,-0,0.66667
0.24811,0.18445,1.2406,-0.47333,-14.64,76.057,1.5659,-0.52195,-1.2044,2.0878,6.1459e-11,-0.60222,0,0,0.2,1.9188e-16,0,0.66667
0.84561,0.17353,4.2281,-0.4897,-4.4872,5.3122,5.5213,-1.8404,-1.1473,7.3618,-1.2131e-09,-0.57365,0,0,0.2,-0,-0,0.66667
0.98668,0.11002,4.9334,-0.58498,-0.38245,0.87411,7.6958,-2.5653,-0.78307,10.261,-1.6002e-07,-0.39153,0,0,0.2,-0,-0,0.66667
0.066571,0.30555,0.33285,-0.29168,-9.5351,106.66,0.2589,-0.086299,-1.6973,0.3452,-3.793e-09,-0.84863,0,0,0.2,5.9212e-17,0,0.66667
0.71393,0.62743,3.5696,0.19115,3.0198,14.423,-1.8196,0.60653,-1.8704,-2.4261,1.7355e-11,-0.93518,0,0,0.2,-0,-0,0.66667
0.33012,0.37162,1.6506,-0.19257,-5.6147,62.863,0.84762,-0.28254,-1.8691,1.1302,-6.356e-14,-0.93454,0,0,0.2,-2.3685e-16,0,0.66667
0.62544,0.072902,3.1272,-0.64065,-12.9,23.687,5.3424,-1.7808,-0.54146,7.1233,6.7812e-13,-0.27073,0,0,0.2,-0,-0,0.66667
0.25813,0.57542,1.2906,0.11313,3.4553,74.307,-0.38937,0.12979,-1.9533,-0.51916,-3.6427e-11,-0.97665,0,0,0.2,-0,-0,0.66667
0.65101,0.80118,3.255,0.45176,8.5088,20.705,-3.9214,1.3071,-1.2734,-5.2285,-2.8553e-12,-0.63672,0,0,0.2,9.4739e-16,0,0.66667
0.37115,0.73905,1.8557,0.35858,10.145,56.654,-1.7745,0.59149,-1.5423,-2.366,2.364e-12,-0.77113,0,0,0.2,-0,-0,0.66667
0.29482,0.13208,1.4741,-0.55189,-16.65,68.592,2.1694,-0.72314,-0.91743,2.8926,6.7368e-13,-0.45871,0,0,0.2,-0,-1.4172e-16,0.66667
0.91176,0.66366,4.5588,0.24549,1.2525,2.0066,-2.9844,0.9948,-1.7851,-3.9792,5.5047e-09,-0.89256,0,0,0.2,-0,-0,0.66667
0.9425,0.05954,4.7125,-0.66069,-2.3735,1.862,8.3027,-2.7676,-0.4481,11.07,-5.7613e-07,-0.22405,0,0,0.2,4.2188e-17,0,0.66667
0.61355,0.56185,3.0678,0.092771,1.875,24.433,-0.75893,0.25298,-1.9702,-1.0119,-9.9154e-13,-0.98508,0,0,0.2,1.1842e-15,0,0.66667
0.21447,0.81936,1.0723,0.47905,15.068,81.588,-1.3699,0.45662,-1.1838,-1.8265,-2.1577e-10,-0.59188,0,0,0.2,-4.737e-16,0,0.66667
0.93942,0.099735,4.6971,-0.6004,-2.2256,1.781,7.5203,-2.5068,-0.71887,10.027,2.016e-07,-0.35943,0,0,0.2,-0,-0,0.66667
0.75045,0.25306,3.7523,-0.3704,-5.2299,11.512,3.7063,-1.2354,-1.5138,4.9417,-7.9139e-11,-0.75692,0,0,0.2,-0,-0,0.66667
0.75109,0.39933,3.7554,-0.151,-2.1094,11.27,1.5122,-0.50408,-1.9197,2.0163,-6.71e-11,-0.95986,0,0,0.2,-9.4739e-16,0,0.66667
0.21172,0.16181,1.0586,-0.50729,-15.991,82.056,1.4321,-0.47735,-1.0845,1.9094,1.0591e-10,-0.54224,0,0,0.2,-0,-0,0.66667
0.83016,0.75935,4.1508,0.38903,3.865,6.0178,-4.306,1.4353,-1.462,-5.7414,9.3401e-10,-0.73102,0,0,0.2,-0,-0,0.66667
0.2401,0.054716,1.2005,-0.66793,-20.9,77.485,2.1382,-0.71274,-0.41311,2.8509,6.6855e-12,-0.20655,0,0,0.2,3.7901e-16,0,0.66667
0.63162,0.51658,3.1581,0.024872,0.48381,22.45,-0.20946,0.069819,-1.9966,-0.27928,-1.4179e-13,-0.9983,0,0,0.2,-0,-0,0.66667
0.71074,0.039451,3.5537,-0.69082,-11.334,15.403,6.5466,-2.1822,-0.3023,8.7288,-2.5757e-13,-0.15115,0,0,0.2,-0,-0,0.66667
0.74238,0.0051089,3.7119,-0.74234,-11.098,12.845,7.348,-2.4493,-0.04019,9.7973,6.9873e-12,-0.020095,0,0,0.2,-3.7896e-15,0,0.66667
0.39026,0.51603,1.9513,0.024048,0.66551,53.689,-0.12514,0.041712,-1.9985,-0.16685,2.7398e-13,-0.99927,0,0,0.2,-9.4739e-16,0,0.66667
0.75983,0.1383,3.7991,-0.54255,-7.4931,11.043,5.4966,-1.8322,-0.9523,7.3288,-4.5705e-11,-0.47615,0,0,0.2,-0,-0,0.66667
0.90294,0.30782,4.5147,-0.28827,-1.6315,2.3737,3.4705,-1.1568,-1.7048,4.6274,-9.3824e-10,-0.8524,0,0,0.2,-0,-0,0.66667
0.58742,0.1235,2.9371,-0.56475,-12.186,27.807,4.4232,-1.4744,-0.86622,5.8977,1.1147e-12,-0.43311,0,0,0.2,-1.4211e-15,0,0.66667
0.09041,0.72567,0.45205,0.3385,11.034,102.55,-0.40805,0.13602,-1.5925,-0.54407,-1.8033e-09,-0.79627,0,0,0.2,2.3685e-16,0,0.66667
0.12898,0.73047,0.64488,0.3457,11.173,95.938,-0.59449,0.19816,-1.5744,-0.79266,-2.0237e-09,-0.78722,0,0,0.2,-0,-0,0.66667
0.10526,0.92111,0.52631,0.63166,20.715,100.06,-0.88654,0.29551,-0.58056,-1.182,8.5315e-09,-0.29028,0,0,0.2,-0,-0,0.66667
0.17273,0.0034784,0.86364,-0.74478,-24.079,88.682,1.7153,-0.57175,-0.02913,2.287,-5.2648e-10,-0.014565,0,0,0.2,-0,-0,0.66667
0.12643,0.37235,0.63215,-0.19148,-6.1763,96.35,0.32279,-0.1076,-1.8709,0.43039,-7.8224e-10,-0.93546,0,0,0.2,1.1842e-16,0,0.66667
0.7783,0.32348,3.8915,-0.26478,-3.3444,9.278,2.7477,-0.91589,-1.7504,3.6636,-2.0362e-10,-0.87521,0,0,0.2,1.8948e-15,0,0.66667
0.039412,0.10507,0.19706,-0.59239,-19.586,111.38,0.3113,-0.10376,-0.75113,0.41506,4.4237e-07,-0.37556,0,0,0.2,-0,-0,0.66667
0.24156,0.083162,1.2078,-0.62526,-19.515,77.217,2.0138,-0.67127,-0.60891,2.6851,1.2451e-11,-0.30446,0,0,0.2,2.3685e-16,0,0.66667
0.87907,0.67981,4.3953,0.26972,1.9061,3.3379,-3.1614,1.0538,-1.741,-4.2151,1.0254e-09,-0.8705,0,0,0.2,9.4739e-16,0,0.66667
0.97352,0.082767,4.8676,-0.62585,-0.97938,1.1508,8.1237,-2.7079,-0.60654,10.832,7.1971e-07,-0.30327,0,0,0.2,9.4739e-16,0,0.66667
0.60542,0.22161,3.0271,-0.41759,-8.6495,25.565,3.3709,-1.1236,-1.3804,4.4945,1.8101e-12,-0.69019,0,0,0.2,-0,-0,0.66667
0.97624,0.70405,4.8812,0.30608,0.3303,0.46491,-3.9841,1.328,-1.6657,-5.3121,-4.6711e-09,-0.83283,0,0,0.2,-1.1561e-15,0,0.66667
0.043452,0.4648,0.21726,-0.052801,-1.7261,110.65,0.03059,-0.010197,-1.9904,0.040787,-9.8434e-07,-0.99522,0,0,0.2,-1.4803e-17,0,0.66667
0.94857,0.022026,4.7429,-0.71696,-2.3588,1.8811,9.0679,-3.0226,-0.17172,12.09,7.1495e-08,-0.085858,0,0,0.2,-0,3.1476e-16,0.66667
0.3113,0.94095,1.5565,0.66142,19.825,66.085,-2.7453,0.9151,-0.44576,-3.6604,1.1759e-12,-0.22288,0,0,0.2,9.4739e-16,9.3014e-17,0.66667
0.79897,0.10573,3.9949,-0.5914,-6.9987,8.3289,6.3002,-2.1001,-0.75635,8.4003,-1.427e-10,-0.37818,0,0,0.2,-0,-0,0.66667
0.81063,0.70618,4.0531,0.30926,3.3849,7.1133,-3.3426,1.1142,-1.6599,-4.4568,5.5946e-10,-0.82996,0,0,0.2,-0,-0,0.66667
0.86,0.018908,4.3,-0.72164,-6.2326,5.1012,8.2748,-2.7583,-0.14895,11.033,2.1686e-09,-0.074477,0,0,0.2,-0,-0,0.66667
0.45855,0.92955,2.2928,0.64433,16.863,44.301,-3.9394,1.3131,-0.52324,-5.2526,3.4128e-13,-0.26162,0,0,0.2,-4.737e-16,0,0.66667
0.93064,0.47833,4.6532,-0.032503,-0.12615,1.2766,0.40332,-0.13444,-1.9953,0.53776,-2.403e-08,-0.99764,0,0,0.2,-0,-0,0.66667
0.25789,0.0080365,1.2895,-0.73795,-22.948,74.65,2.5375,-0.84583,-0.062931,3.3833,-5.6535e-12,-0.031465,0,0,0.2,-0,-0,0.66667
0.93445,0.98795,4.6722,0.73192,3.0735,2.2774,-9.1192,3.0397,-0.09485,-12.159,-4.3385e-08,-0.047425,0,0,0.2,-0,-0,0.66667
0.61912,0.65454,3.0956,0.2318,4.6427,23.88,-1.9135,0.63784,-1.8092,-2.5514,-2.2582e-12,-0.90459,0,0,0.2,4.737e-16,0,0.66667
0.98544,0.82198,4.9272,0.48298,0.30033,0.64905,-6.3459,2.1153,-1.1711,-8.4613,-7.6623e-09,-0.58557,0,0,0.2,-0,-0,0.66667
0.032644,0.10689,0.16322,-0.58967,-19.503,112.55,0.25666,-0.085552,-0.76386,0.34221,-1.1447e-07,-0.38193,0,0,0.2,-5.9212e-17,0,0.66667
0.72517,0.34428,3.6258,-0.23358,-3.5686,13.47,2.2585,-0.75283,-1.8064,3.0113,-3.2008e-11,-0.90321,0,0,0.2,1.8948e-15,0,0.66667
0.56555,0.20203,2.8278,-0.44696,-9.9652,30.23,3.3704,-1.1235,-1.2892,4.4939,8.3134e-13,-0.6446,0,0,0.2,9.4739e-16,0,0.66667
0.49242,0.65104,2.4621,0.22656,5.6008,39.325,-1.4875,0.49585,-1.817,-1.9834,-1.5243e-13,-0.9085,0,0,0.2,4.737e-16,0,0.66667
0.25922,0.49867,1.2961,-0.0020014,-0.061061,74.123,0.0069173,-0.0023058,-2.0002,0.0092231,6.6241e-12,-1.0001,0,0,0.2,-1.1842e-16,0,0.66667
0.32683,0.52068,1.6342,0.031027,0.90569,63.348,-0.13521,0.045069,-1.9969,-0.18028,1.0167e-13,-0.99846,0,0,0.2,-0,-0,0.66667
0.24946,0.52909,1.2473,0.04363,1.3385,75.714,-0.14512,0.048373,-1.995,-0.19349,-2.5801e-11,-0.99751,0,0,0.2,4.737e-16,0,0.66667
0.21927,0.23406,1.0963,-0.39891,-12.491,80.76,1.1662,-0.38874,-1.4347,1.555,2.0891e-10,-0.71737,0,0,0.2,-0,-0,0.66667
0.79966,0.25893,3.9983,-0.3616,-4.1838,7.894,3.8554,-1.2851,-1.535,5.1406,-3.7892e-10,-0.7675,0,0,0.2,-0,-0,0.66667
0.5024,0.67891,2.512,0.26836,6.551,38.028,-1.7976,0.59921,-1.744,-2.3968,-2.6379e-13,-0.87201,0,0,0.2,-4.737e-16,0,0.66667
0.08319,0.23104,0.41595,-0.40344,-13.188,103.8,0.4475,-0.14917,-1.4204,0.59666,1.0902e-09,-0.71018,0,0,0.2,-0,-0,0.66667
0.77698,0.10713,3.8849,-0.5893,-7.653,9.8524,6.105,-2.035,-0.76446,8.14,-5.5367e-11,-0.38223,0,0,0.2,-0,-0,0.66667
0.53365,0.54138,2.6682,0.062073,1.4439,33.92,-0.44167,0.14722,-1.9862,-0.58889,-4.5108e-13,-0.99312,0,0,0.2,-0,-0,0.66667
0.73939,0.45409,3.6969,-0.068865,-1.0007,12.19,0.67891,-0.2263,-1.9822,0.90521,-2.0595e-11,-0.99108,0,0,0.2,-0,-0,0.66667
0.51539,0.29858,2.577,-0.30214,-7.2483,36.355,2.0762,-0.69208,-1.6761,2.7683,1.2679e-13,-0.83806,0,0,0.2,9.4739e-16,0,0.66667
0.39995,0.87552,1.9997,0.56327,15.629,52.54,-3.0037,1.0012,-0.87233,-4.005,1.4293e-12,-0.43617,0,0,0.2,-9.4739e-16,0,0.66667
0.98625,0.67703,4.9312,0.26555,0.10632,0.28334,-3.4919,1.164,-1.7494,-4.6559,1.9172e-08,-0.8747,0,0,0.2,-0,-0,0.66667
0.028243,0.26881,0.14121,-0.34679,-11.391,113.3,0.13059,-0.04353,-1.572,0.17412,-1.0362e-08,-0.786,0,0,0.2,-0,-0,0.66667
0.93276,0.78051,4.6638,0.42076,1.6544,1.5798,-5.233,1.7443,-1.3711,-6.9773,1.5985e-09,-0.68557,0,0,0.2,2.6645e-15,0,0.66667
0.93085,0.95752,4.6543,0.68628,2.989,2.2425,-8.5176,2.8392,-0.32436,-11.357,3.4489e-07,-0.16218,0,0,0.2,-0,-0,0.66667
0.39092,0.035116,1.9546,-0.69733,-19.637,54.014,3.6346,-1.2115,-0.27266,4.8462,-1.0734e-12,-0.13633,0,0,0.2,9.4739e-16,0,0.66667
0.21446,0.23879,1.0723,-0.39182,-12.294,81.552,1.1204,-0.37347,-1.4534,1.4939,2.4256e-10,-0.72672,0,0,0.2,-2.3685e-16,0,0.66667
0.61921,0.54579,3.0961,0.068688,1.372,23.803,-0.5671,0.18903,-1.9821,-0.75613,-9.8505e-13,-0.99106,0,0,0.2,9.4739e-16,0,0.66667
0.17797,0.027285,0.88986,-0.70907,-22.843,87.784,1.6826,-0.56087,-0.21213,2.2435,1.1997e-10,-0.10606,0,0,0.2,-0,-0,0.66667
0.80321,0.82878,4.016,0.49317,5.6701,7.8591,-5.2815,1.7605,-1.1341,-7.042,3.6168e-10,-0.56704,0,0,0.2,9.4739e-16,0,0.66667
0.25393,0.60618,1.2697,0.15928,4.8782,74.997,-0.53928,0.17976,-1.9091,-0.71904,-5.3913e-11,-0.95456,0,0,0.2,-0,-0,0.66667
0.29081,0.30107,1.454,-0.2984,-8.9589,69.091,1.157,-0.38567,-1.6824,1.5427,1.4056e-11,-0.84119,0,0,0.2,-4.737e-16,0,0.66667
0.91592,0.45719,4.5796,-0.064211,-0.30762,1.7493,0.78415,-0.26138,-1.9843,1.0455,-2.9395e-08,-0.99216,0,0,0.2,-0,-0,0.66667
0.90292,0.17205,4.5146,-0.49192,-2.8657,2.6932,5.9221,-1.974,-1.139,7.8962,-1.1557e-08,-0.56952,0,0,0.2,-1.0693e-15,0,0.66667
0.53538,0.76354,2.6769,0.39531,9.2335,33.883,-2.8219,0.94063,-1.4436,-3.7625,-5.2003e-13,-0.7218,0,0,0.2,9.4739e-16,0,0.66667
0.86284,0.96779,4.3142,0.70169,5.9252,4.9078,-8.0726,2.6909,-0.25026,-10.763,2.306e-09,-0.12513,0,0,0.2,2.6053e-15,0,0.66667
0.35253,0.057412,1.7627,-0.66388,-19.295,59.721,3.1205,-1.0402,-0.43248,4.1607,-3.153e-14,-0.21624,0,0,0.2,-2.3685e-16,0,0.66667
0.99788,0.27712,4.9894,-0.33433,0.10917,0.2636,4.4483,-1.4828,-1.6033,5.931,-2.2288e-08,-0.80167,0,0,0.2,-0,-2.8708e-16,0.66667
0.43369,0.56475,2.1684,0.097129,2.573,47.382,-0.56165,0.18722,-1.967,-0.74887,5.0482e-13,-0.9835,0,0,0.2,-0,-0,0.66667
0.29481,0.87567,1.4741,0.5635,17.008,68.602,-2.215,0.73834,-0.87242,-2.9534,-3.0043e-13,-0.43621,0,0,0.2,-0,-0,0.66667
0.041574,0.025527,0.20787,-0.71171,-23.641,111.02,0.39452,-0.1315,-0.19865,0.52602,4.5615e-06,-0.099326,0,0,0.2,-0,-0,0.66667
0.98971,0.39489,4.9485,-0.15766,-0.019721,0.14517,2.0805,-0.6935,-1.9107,2.774,4.2536e-08,-0.95535,0,0,0.2,-9.4739e-16,0,0.66667
0.46489,0.39844,2.3244,-0.15234,-3.8955,43.026,0.94431,-0.31477,-1.9172,1.2591,-5.8964e-13,-0.95859,0,0,0.2,4.737e-16,0,0.66667
0.73459,0.069634,3.6729,-0.64555,-9.8091,13.262,6.3228,-2.1076,-0.51947,8.4304,-1.541e-12,-0.25973,0,0,0.2,-0,-0,0.66667
0.64081,0.48597,3.204,-0.021039,-0.40106,21.473,0.17976,-0.05992,-1.9991,0.23968,1.1297e-14,-0.99957,0,0,0.2,-9.4739e-16,0,0.66667
0.72309,0.824,3.6155,0.486,7.5652,13.941,-4.6857,1.5619,-1.1594,-6.2476,1.3262e-11,-0.57972,0,0,0.2,-0,-0,0.66667
0.051111,0.13883,0.25555,-0.54175,-17.86,109.35,0.36919,-0.12306,-0.95567,0.49226,5.7784e-08,-0.47783,0,0,0.2,-0,-0,0.66667
0.92005,0.70973,4.6002,0.3146,1.4587,1.8058,-3.8593,1.2864,-1.6483,-5.1457,-2.9983e-09,-0.82417,0,0,0.2,-0,-0,0.66667
0.92684,0.90289,4.6342,0.60434,2.7161,2.1407,-7.4683,2.4894,-0.7015,-9.9578,2.408e-07,-0.35075,0,0,0.2,9.4739e-16,0,0.66667
0.552,0.351,2.76,-0.2235,-5.0613,31.691,1.645,-0.54832,-1.8219,2.1933,7.0133e-13,-0.91094,0,0,0.2,-0,-0,0.66667
0.96392,0.17268,4.8196,-0.49098,-0.99612,0.98636,6.3102,-2.1034,-1.1419,8.4136,3.3297e-08,-0.57097,0,0,0.2,-0,-0,0.66667
0.28096,0.26945,1.4048,-0.34583,-10.459,70.685,1.2955,-0.43183,-1.5755,1.7273,2.1445e-11,-0.78775,0,0,0.2,-0,-0,0.66667
0.60215,0.10684,3.0107,-0.58975,-12.399,26.166,4.7349,-1.5783,-0.76218,6.3131,7.5895e-13,-0.38109,0,0,0.2,-0,-0,0.66667
0.39646,0.74668,1.9823,0.37002,10.232,52.892,-1.956,0.652,-1.5131,-2.608,1.9414e-12,-0.75657,0,0,0.2,-0,-0,0.66667
0.62802,0.93906,3.1401,0.6586,13.207,23.442,-5.5149,1.8383,-0.45868,-7.3531,-7.6383e-14,-0.22934,0,0,0.2,-1.8948e-15,0,0.66667
0.30063,0.61927,1.5032,0.1789,5.3259,67.49,-0.71711,0.23904,-1.8862,-0.95614,-8.5034e-12,-0.94309,0,0,0.2,2.3685e-16,0,0.66667
0.81936,0.65098,4.0968,0.22647,2.361,6.484,-2.4742,0.82472,-1.8172,-3.2989,6.5661e-10,-0.90859,0,0,0.2,-9.4739e-16,0,0.66667
0.069786,0.25627,0.34893,-0.36559,-11.964,106.11,0.34017,-0.11339,-1.5242,0.45356,-5.9839e-09,-0.76208,0,0,0.2,-0,-0,0.66667
0.041878,0.59076,0.20939,0.13614,4.4534,110.92,-0.076018,0.025339,-1.9342,-0.10136,1.648e-07,-0.96712,0,0,0.2,-8.8818e-17,0,0.66667
0.049396,0.098127,0.24698,-0.60281,-19.92,109.66,0.39702,-0.13234,-0.70856,0.52936,6.0254e-08,-0.35428,0,0,0.2,-1.1842e-16,0,0.66667
0.15046,0.30816,0.75228,-0.28776,-9.2317,92.27,0.57726,-0.19242,-1.7054,0.76969,9.1519e-10,-0.85268,0,0,0.2,3.5527e-16,0,0.66667
0.39535,0.42659,1.9768,-0.11012,-3.0341,52.946,0.58048,-0.19349,-1.9561,0.77398,-1.0496e-12,-0.97805,0,0,0.2,4.737e-16,0,0.66667
0.95539,0.83906,4.7769,0.50859,1.3186,1.1919,-6.4787,2.1596,-1.0809,-8.6383,2.948e-08,-0.54046,0,0,0.2,-9.4739e-16,0,0.66667
0.1108,0.81344,0.55398,0.47016,15.313,99.074,-0.69455,0.23152,-1.2157,-0.92607,-3.1427e-09,-0.60783,0,0,0.2,4.737e-16,0,0.66667
0.64755,0.082432,3.2378,-0.62635,-12.013,21.332,5.4079,-1.8026,-0.60401,7.2106,1.0547e-12,-0.302,0,0,0.2,9.4739e-16,0,0.66667
0.52762,0.49316,2.6381,-0.010262,-0.24084,34.68,0.072191,-0.024064,-1.9995,0.096254,1.5134e-14,-0.99975,0,0,0.2,1.4211e-15,0,0.66667
0.35324,0.91869,1.7662,0.62803,18.213,59.577,-2.958,0.98599,-0.59652,-3.944,1.5157e-12,-0.29826,0,0,0.2,-0,-0,0.66667
0.1982,0.10858,0.991,-0.58714,-18.67,84.342,1.5516,-0.5172,-0.77333,2.0688,1.3539e-10,-0.38667,0,0,0.2,-0,-0,0.66667
0.22059,0.94728,1.103,0.67092,21.197,80.683,-1.9733,0.65778,-0.39972,-2.6311,-1.0988e-11,-0.19986,0,0,0.2,-0,-0,0.66667
0.043822,0.39758,0.21911,-0.15362,-5.0251,110.59,0.08976,-0.02992,-1.9159,0.11968,-1.2452e-07,-0.95797,0,0,0.2,-2.9606e-17,0,0.66667
0.71316,0.25558,3.5658,-0.36662,-5.8425,14.646,3.4862,-1.1621,-1.5217,4.6482,-1.4605e-11,-0.76086,0,0,0.2,-0,-0,0.66667
0.65384,0.50928,3.2692,0.013915,0.25742,20.119,-0.12131,0.040435,-1.9993,-0.16174,-2.4633e-13,-0.99966,0,0,0.2,-0,-0,0.66667
0.44377,0.84921,2.2188,0.52382,13.866,46.215,-3.0994,1.0331,-1.0239,-4.1326,4.281e-13,-0.51197,0,0,0.2,-0,-0,0.66667
0.71894,0.19793,3.5947,-0.4531,-7.129,14.251,4.3434,-1.4478,-1.2709,5.7912,-1.3282e-11,-0.63546,0,0,0.2,-0,-0,0.66667
0.10998,0.9803,0.54988,0.72044,23.692,99.287,-1.0564,0.35214,-0.15513,-1.4086,-1.1412e-08,-0.077564,0,0,0.2,-0,-0,0.66667
0.93872,0.75618,4.6936,0.38426,1.3564,1.3552,-4.8095,1.6032,-1.4758,-6.4127,-8.7417e-09,-0.73791,0,0,0.2,-0,-0,0.66667
0.84763,0.72608,4.2381,0.33912,3.025,4.969,-3.8326,1.2775,-1.5909,-5.1101,1.5151e-09,-0.79543,0,0,0.2,1.8948e-15,0,0.66667
0.65904,0.61266,3.2952,0.169,3.093,19.631,-1.485,0.495,-1.8981,-1.98,-1.0362e-12,-0.94906,0,0,0.2,-0,-0,0.66667
0.37883,0.84554,1.8942,0.51832,14.64,55.619,-2.6181,0.87268,-1.0454,-3.4907,1.8385e-12,-0.52271,0,0,0.2,-9.4739e-16,0,0.66667
0.41657,0.50484,2.0828,0.0072589,0.19574,49.832,-0.040318,0.013439,-1.9996,-0.053757,4.842e-13,-0.99979,0,0,0.2,-0,-0,0.66667
0.48215,0.83986,2.4108,0.50979,12.882,40.926,-3.2773,1.0924,-1.0767,-4.3697,2.6623e-13,-0.53837,0,0,0.2,7.1054e-16,0,0.66667
0.93528,0.52966,4.6764,0.044485,0.15986,1.1455,-0.55474,0.18491,-1.9941,-0.73966,1.2206e-07,-0.99707,0,0,0.2,-1.1842e-15,0,0.66667
0.86359,0.77173,4.318,0.4076,3.2863,4.2452,-4.6933,1.5644,-1.4087,-6.2578,3.0211e-09,-0.70437,0,0,0.2,-9.4739e-16,0,0.66667
0.47792,0.60191,2.3896,0.15286,3.8461,41.245,-0.97409,0.3247,-1.9161,-1.2988,3.2913e-13,-0.95806,0,0,0.2,-0,-0,0.66667
0.55452,0.99925,2.7726,0.74888,17.286,32.011,-5.5369,1.8456,-0.0062853,-7.3825,5.2447e-13,-0.0031427,0,0,0.2,-1.5987e-15,0,0.66667
0.8754,0.50913,4.377,0.0137,0.098714,3.3628,-0.15991,0.053302,-2.0002,-0.21321,-9.8322e-09,-1.0001,0,0,0.2,-0,-0,0.66667
0.94926,0.84801,4.7463,0.52202,1.5639,1.356,-6.6072,2.2024,-1.0313,-8.8095,-7.474e-09,-0.51563,0,0,0.2,-0,-0,0.66667
0.63918,0.92265,3.1959,0.63397,12.393,22.215,-5.403,1.801,-0.57105,-7.204,-6.8612e-13,-0.28553,0,0,0.2,-9.4739e-16,0,0.66667
0.74852,0.89278,3.7426,0.58917,8.5041,12.015,-5.8801,1.96,-0.76589,-7.8402,1.6635e-11,-0.38295,0,0,0.2,-0,-0,0.66667
0.35162,0.34528,1.7581,-0.23209,-6.6573,59.557,1.0881,-0.3627,-1.8086,1.4508,-1.9422e-12,-0.90431,0,0,0.2,-0,-0,0.66667
0.91803,0.11432,4.5901,-0.57852,-2.8952,2.3527,7.0813,-2.3604,-0.80946,9.4417,3.5478e-09,-0.40473,0,0,0.2,-0,-0,0.66667
0.83675,0.5015,4.1838,0.0022474,0.02115,5.3563,-0.025074,0.008358,-2.0002,-0.033432,1.0654e-09,-1.0001,0,0,0.2,-0,-0,0.66667
0.55206,0.80849,2.7603,0.46273,10.556,31.884,-3.406,1.1353,-1.2386,-4.5414,-1.5588e-13,-0.61931,0,0,0.2,-1.1842e-15,0,0.66667
0.86763,0.79823,4.3381,0.44734,3.5183,4.115,-5.175,1.725,-1.2873,-6.9,1.8663e-09,-0.64363,0,0,0.2,-0,-0,0.66667
0.84987,0.34178,4.2494,-0.23733,-2.0725,4.7382,2.6894,-0.89645,-1.7999,3.5858,-1.7704e-09,-0.89994,0,0,0.2,1.199e-15,0,0.66667
0.80841,0.63881,4.0421,0.20822,2.2926,7.162,-2.2443,0.74812,-1.8451,-2.9925,4.349e-10,-0.92254,0,0,0.2,-0,-0,0.66667
0.13069,0.59766,0.65346,0.14649,4.7173,95.617,-0.25526,0.085088,-1.9236,-0.34035,1.4496e-09,-0.96178,0,0,0.2,-0,-0,0.66667
0.536,0.071404,2.68,-0.64289,-15.174,34.111,4.5946,-1.5315,-0.52982,6.1261,2.1716e-13,-0.26491,0,0,0.2,-0,-0,0.66667
0.90078,0.69106,4.5039,0.28659,1.6588,2.4536,-3.442,1.1473,-1.7079,-4.5894,2.0098e-09,-0.85396,0,0,0.2,1.8948e-15,0,0.66667
0.77083,0.62552,3.8542,0.18828,2.444,9.7684,-1.9351,0.64504,-1.8745,-2.5802,1.5994e-10,-0.93727,0,0,0.2,1.8948e-15,0,0.66667
0.42071,0.054666,2.1036,-0.668,-18.245,49.65,3.7472,-1.2491,-0.41407,4.9962,-4.0168e-13,-0.20704,0,0,0.2,-0,-0,0.66667
0.97788,0.3858,4.8894,-0.17131,-0.15511,0.3014,2.2336,-0.74452,-1.8946,2.9781,-7.5581e-08,-0.94732,0,0,0.2,-0,-0,0.66667
0.25077,0.43402,1.2539,-0.098967,-3.0347,75.504,0.33091,-0.1103,-1.9666,0.44121,3.8157e-11,-0.98331,0,0,0.2,5.9212e-16,0,0.66667
0.33361,0.76528,1.6681,0.39792,11.621,62.41,-1.77,0.59,-1.4359,-2.36,1.6201e-12,-0.71797,0,0,0.2,-0,-0,0.66667
0.9542,0.5192,4.771,0.028797,0.069141,0.67042,-0.36637,0.12212,-1.9974,-0.48849,3.1159e-07,-0.9987,0,0,0.2,-1.8948e-15,0,0.66667
0.80872,0.7709,4.0436,0.40635,4.5189,7.3612,-4.3816,1.4605,-1.4124,-5.8422,5.2027e-10,-0.70619,0,0,0.2,-9.4739e-16,0,0.66667
0.90034,0.82369,4.5017,0.48554,2.9007,2.778,-5.8287,1.9429,-1.1608,-7.7716,9.9362e-09,-0.58039,0,0,0.2,-0,-0,0.66667
0.01159,0.9442,0.057948,0.66631,22.125,116.19,-0.10296,0.034319,-0.42125,-0.13728,-2.4867e-06,-0.21062,0,0,0.2,-0,-0,0.66667
0.37976,0.85097,1.8988,0.52646,14.862,55.487,-2.6657,0.88858,-1.0141,-3.5543,1.1624e-12,-0.50705,0,0,0.2,9.4739e-16,0,0.66667
0.23552,0.65821,1.1776,0.23732,7.3471,78.028,-0.74524,0.24841,-1.8013,-0.99365,-1.2535e-10,-0.90065,0,0,0.2,9.4739e-16,0,0.66667
0.29594,0.39715,1.4797,-0.15428,-4.6061,68.231,0.60876,-0.20292,-1.916,0.81167,9.4227e-12,-0.958,0,0,0.2,-0,-0,0.66667
0.738,0.88047,3.69,0.57071,8.5225,12.832,-5.6157,1.8719,-0.84199,-7.4876,8.769e-12,-0.42099,0,0,0.2,-0,-0,0.66667
0.72408,0.13761,3.6204,-0.54358,-8.4689,13.951,5.248,-1.7493,-0.94842,6.9973,-7.6623e-12,-0.47421,0,0,0.2,-0,-0,0.66667
0.4618,0.40829,2.309,-0.13757,-3.5302,43.447,0.84706,-0.28235,-1.9328,1.1294,-1.0509e-12,-0.96639,0,0,0.2,1.8948e-15,0,0.66667
0.36527,0.60157,1.8264,0.15235,4.3156,57.454,-0.74201,0.24734,-1.9168,-0.98934,1.3692e-12,-0.95839,0,0,0.2,-0,-0,0.66667
0.58469,0.65981,2.9235,0.23972,5.1333,27.784,-1.8688,0.62294,-1.7955,-2.4918,-1.7716e-12,-0.89775,0,0,0.2,-0,-0,0.66667
0.53371,0.97983,2.6685,0.71974,17.124,34.523,-5.1218,1.7073,-0.15797,-6.829,3.4728e-13,-0.078986,0,0,0.2,-0,-0,0.66667
0.55058,0.79119,2.7529,0.43678,9.9775,32.037,-3.2064,1.0688,-1.3212,-4.2752,-4.6274e-13,-0.66061,0,0,0.2,-0,-0,0.66667
0.61548,0.080558,3.0774,-0.62916,-12.919,24.749,5.1631,-1.721,-0.59144,6.8842,7.8426e-13,-0.29572,0,0,0.2,-0,-0,0.66667
0.39565,0.51625,1.9782,0.024378,0.6712,52.892,-0.1286,0.042868,-1.9969,-0.17147,-4.652e-13,-0.99845,0,0,0.2,-0,-0,0.66667
0.77172,0.86542,3.8586,0.54813,7.2407,10.157,-5.64,1.88,-0.93087,-7.52,5.243e-11,-0.46544,0,0,0.2,-0,-0,0.66667
0.2512,0.54343,1.256,0.065152,1.997,75.431,-0.21822,0.072739,-1.9852,-0.29096,-2.7858e-11,-0.9926,0,0,0.2,-4.737e-16,0,0.66667
0.65576,0.19345,3.2788,-0.45983,-8.569,20.23,4.0205,-1.3402,-1.2494,5.3607,2.7187e-12,-0.6247,0,0,0.2,-0,-0,0.66667
0.9604,0.34749,4.802,-0.22877,-0.47101,0.65016,2.9295,-0.9765,-1.8137,3.906,2.0864e-08,-0.90683,0,0,0.2,-0,-0,0.66667
0.0035548,0.57727,0.017774,0.1159,3.7974,117.58,-0.0054937,0.0018322,-1.9516,-0.0073245,1.3946e-06,-0.9758,0,0,0.2,-7.4015e-18,0,0.66667
0.72336,0.56502,3.6168,0.09753,1.494,13.553,-0.94066,0.31355,-1.9665,-1.2542,1.4314e-11,-0.98324,0,0,0.2,1.8948e-15,0,0.66667
0.109,0.47879,0.54498,-0.031812,-1.0293,99.329,0.046231,-0.01541,-1.9972,0.061642,-6.2203e-09,-0.99861,0,0,0.2,-0,-0,0.66667
0.54379,0.48529,2.7189,-0.022063,-0.5051,32.645,0.15997,-0.053322,-1.9978,0.21329,-5.6719e-13,-0.99889,0,0,0.2,9.4739e-16,0,0.66667
0.62692,0.93346,3.1346,0.65019,13.061,23.545,-5.4348,1.8116,-0.49777,-7.2464,-5.4845e-13,-0.24889,0,0,0.2,-0,-0,0.66667
0.24295,0.0050485,1.2147,-0.74243,-23.278,77.077,2.4049,-0.80165,-0.039738,3.2066,1.8596e-11,-0.019869,0,0,0.2,-0,-0,0.66667
0.91384,0.8233,4.5692,0.48495,2.5008,2.2895,-5.9089,1.9696,-1.1627,-7.8786,6.4471e-09,-0.58136,0,0,0.2,-0,-0,0.66667
0.62231,0.65042,3.1116,0.22563,4.4885,23.527,-1.8721,0.62405,-1.8193,-2.4962,-2.4281e-12,-0.90965,0,0,0.2,9.4739e-16,0,0.66667
0.23169,0.051629,1.1585,-0.67256,-21.138,78.861,2.0777,-0.69257,-0.3915,2.7703,8.6933e-12,-0.19575,0,0,0.2,2.3685e-16,0,0.66667
0.77013,0.68277,3.8507,0.27415,3.5798,9.8886,-2.8151,0.93837,-1.7327,-3.7535,1.6765e-10,-0.86636,0,0,0.2,-0,-0,0.66667
0.10551,0.28883,0.52754,-0.31676,-10.289,99.951,0.4456,-0.14853,-1.643,0.59414,1.8235e-09,-0.82149,0,0,0.2,-0,-0,0.66667
0.55523,0.22381,2.7761,-0.41429,-9.3845,31.445,3.067,-1.0223,-1.3893,4.0893,8.0913e-13,-0.69465,0,0,0.2,-0,-0,0.66667
0.094956,0.23585,0.47478,-0.39623,-12.922,101.78,0.50165,-0.16722,-1.442,0.66887,4.5348e-09,-0.72101,0,0,0.2,-0,-0,0.66667
0.58098,0.9953,2.9049,0.74295,16.398,28.856,-5.7552,1.9184,-0.037845,-7.6736,5.6399e-14,-0.018923,0,0,0.2,2.3685e-16,0,0.66667
0.25298,0.54846,1.2649,0.072683,2.2257,75.142,-0.24517,0.081722,-1.9808,-0.32689,-2.7984e-11,-0.99038,0,0,0.2,4.737e-16,0,0.66667
0.64947,0.9985,3.2473,0.74775,14.409,21.376,-6.4752,2.1584,-0.012185,-8.6335,5.2447e-13,-0.0060924,0,0,0.2,-9.6967e-16,0,0.66667
0.71583,0.086208,3.5791,-0.62069,-9.974,14.81,5.9241,-1.9747,-0.63022,7.8988,-6.3638e-13,-0.31511,0,0,0.2,-0,-0,0.66667
0.52419,0.62285,2.6209,0.18428,4.3539,35.158,-1.288,0.42933,-1.8793,-1.7173,-7.1176e-13,-0.93965,0,0,0.2,1.3027e-15,0,0.66667
0.65752,0.25229,3.2876,-0.37156,-6.8673,19.945,3.2575,-1.0858,-1.5105,4.3433,2.7043e-12,-0.75527,0,0,0.2,-0,-0,0.66667
0.81329,0.72625,4.0665,0.33938,3.6725,6.9789,-3.6802,1.2267,-1.5913,-4.9069,6.0558e-10,-0.79567,0,0,0.2,1.8948e-15,0,0.66667
0.80751,0.60856,4.0376,0.16283,1.7979,7.1901,-1.7532,0.5844,-1.9047,-2.3376,3.018e-10,-0.95237,0,0,0.2,-0,-0,0.66667
0.61968,0.4162,3.0984,-0.1257,-2.5097,23.767,1.0386,-0.34619,-1.943,1.3848,1.1287e-12,-0.9715,0,0,0.2,-0,-0,0.66667
0.4511,0.030396,2.2555,-0.70441,-18.654,45.413,4.2368,-1.4123,-0.23717,5.6491,7.5495e-15,-0.11859,0,0,0.2,-1.7764e-16,0,0.66667
0.40795,7.8936e-05,2.0397,-0.74988,-20.836,51.595,4.0789,-1.3596,-0.0023208,5.4385,3.344e-13,-0.0011604,0,0,0.2,-0,-0,0.66667
0.87475,0.32057,4.3737,-0.26914,-1.9698,3.5335,3.1391,-1.0464,-1.7435,4.1854,-9.2121e-10,-0.87175,0,0,0.2,-0,-0,0.66667
0.70293,0.94575,3.5147,0.66862,11.195,16.054,-6.2666,2.0889,-0.41153,-8.3555,-4.9605e-13,-0.20577,0,0,0.2,-0,-0,0.66667
0.18494,0.10528,0.92468,-0.59208,-18.931,86.557,1.46,-0.48665,-0.75336,1.9466,8.2081e-11,-0.37668,0,0,0.2,-0,-0,0.66667
0.56573,0.46482,2.8287,-0.052771,-1.1654,29.961,0.39806,-0.13269,-1.9905,0.53075,3.085e-13,-0.99525,0,0,0.2,9.4739e-16,0,0.66667
0.90881,0.71955,4.544,0.32933,1.7558,2.2088,-3.9907,1.3302,-1.6156,-5.3209,1.5712e-09,-0.80779,0,0,0.2,-0,-0,0.66667
0.15069,0.92776,0.75345,0.64164,20.802,92.34,-1.2892,0.42973,-0.53535,-1.7189,-1.9929e-09,-0.26768,0,0,0.2,-2.3685e-16,0,0.66667
0.84552,0.59636,4.2276,0.14453,1.2924,4.9061,-1.6294,0.54314,-1.9269,-2.1725,1.9855e-09,-0.96344,0,0,0.2,-1.8948e-15,0,0.66667
0.8202,0.73389,4.101,0.35084,3.6674,6.5629,-3.8368,1.2789,-1.5611,-5.1157,7.6893e-10,-0.78056,0,0,0.2,-0,-0,0.66667
0.49934,0.42485,2.4967,-0.11272,-2.7563,38.365,0.7505,-0.25017,-1.9553,1.0007,-1.4871e-13,-0.97767,0,0,0.2,-9.4739e-16,0,0.66667
0.037584,0.2307,0.18792,-0.40395,-13.279,111.68,0.20243,-0.067476,-1.4187,0.2699,-2.5702e-08,-0.70937,0,0,0.2,-0,-0,0.66667
0.1475,0.010517,0.73751,-0.73422,-23.924,92.921,1.444,-0.48133,-0.082218,1.9253,2.2441e-09,-0.041109,0,0,0.2,-4.737e-16,0,0.66667
0.92264,0.22123,4.6132,-0.41816,-1.9051,1.8782,5.1441,-1.7147,-1.3799,6.8588,-6.7217e-09,-0.68995,0,0,0.2,-0,-0,0.66667
0.044155,0.73004,0.22077,0.34506,11.321,110.54,-0.20314,0.067715,-1.5764,-0.27086,1.8564e-08,-0.78821,0,0,0.2,-0,-0,0.66667
0.3725,0.76511,1.8625,0.39767,11.25,56.475,-1.9751,0.65837,-1.4374,-2.6335,2.4992e-12,-0.7187,0,0,0.2,-0,-0,0.66667
0.61904,0.72466,3.0952,0.33699,6.7715,23.972,-2.7815,0.92716,-1.5958,-3.7086,-2.5095e-12,-0.79788,0,0,0.2,-0,-0,0.66667
0.19695,0.47846,0.98474,-0.032305,-1.0163,84.4,0.084831,-0.028277,-1.9954,0.11311,3.8373e-11,-0.99769,0,0,0.2,-0,-0,0.66667
0.98108,0.74575,4.9054,0.36862,0.29748,0.48956,-4.822,1.6073,-1.5172,-6.4293,4.598e-09,-0.7586,0,0,0.2,2.4757e-15,0,0.66667
0.15598,0.58103,0.77988,0.12155,3.884,91.31,-0.25278,0.08426,-1.9482,-0.33704,-8.1933e-10,-0.97409,0,0,0.2,-0,-0,0.66667
0.53968,0.01942,2.6984,-0.72087,-16.998,33.781,5.1872,-1.7291,-0.15121,6.9162,2.2782e-13,-0.075605,0,0,0.2,-0,-0,0.66667
0.61801,0.79139,3.0901,0.43708,8.8364,24.191,-3.6016,1.2005,-1.3197,-4.8022,-2.3794e-12,-0.65986,0,0,0.2,-0,-0,0.66667
0.23099,0.092722,1.1549,-0.61092,-19.157,78.936,1.8815,-0.62718,-0.67389,2.5087,4.7534e-11,-0.33695,0,0,0.2,-5.3291e-16,2.5654e-19,0.66667
0.46631,0.95131,2.3315,0.67696,17.585,43.281,-4.209,1.403,-0.37031,-5.612,-3.153e-13,-0.18516,0,0,0.2,9.4739e-16,-2.3364e-16,0.66667
0.49101,0.89664,2.455,0.59496,14.922,39.844,-3.895,1.2983,-0.74048,-5.1934,9.1482e-14,-0.37024,0,0,0.2,-4.737e-16,0,0.66667
0.76686,0.34878,3.8343,-0.22683,-2.9943,10.094,2.3193,-0.77309,-1.818,3.0923,-1.2884e-10,-0.90902,0,0,0.2,-0,-0,0.66667
0.63428,0.42487,3.1714,-0.1127,-2.181,22.183,0.95309,-0.3177,-1.9537,1.2708,1.3813e-12,-0.97686,0,0,0.2,-9.4739e-16,0,0.66667
0.46755,0.81144,2.3378,0.46716,12.001,42.863,-2.9123,0.97076,-1.2257,-3.883,1.2323e-13,-0.61287,0,0,0.2,-1.3027e-15,0,0.66667
0.66694,0.55931,3.3347,0.08897,1.5953,18.806,-0.79117,0.26372,-1.972,-1.0549,-3.6449e-13,-0.98598,0,0,0.2,1.1448e-15,0,0.66667
0.45338,0.79708,2.2669,0.44562,11.633,44.798,-2.6938,0.89793,-1.2946,-3.5917,6.4571e-13,-0.6473,0,0,0.2,-9.4739e-16,0,0.66667
0.52571,0.23067,2.6286,-0.404,-9.5775,35.115,2.8318,-0.94394,-1.4187,3.7758,4.6785e-13,-0.70935,0,0,0.2,-0,-0,0.66667
0.65857,0.084514,3.2928,-0.62323,-11.652,20.205,5.4725,-1.8242,-0.61901,7.2967,1.5414e-12,-0.30951,0,0,0.2,-9.4739e-16,0,0.66667
0.1812,0.9867,0.90598,0.73005,23.514,87.257,-1.7638,0.58792,-0.10386,-2.3517,-4.8182e-10,-0.051928,0,0,0.2,4.737e-16,0,0.66667
0.78805,0.58696,3.9402,0.13045,1.5741,8.4893,-1.3706,0.45688,-1.9388,-1.8275,1.9708e-10,-0.96942,0,0,0.2,4.737e-16,0,0.66667
0.60287,0.88024,3.0143,0.57037,11.962,26.055,-4.5847,1.5282,-0.84288,-6.113,-1.2577e-12,-0.42144,0,0,0.2,-0,-0,0.66667
0.98033,0.026902,4.9017,-0.70965,-0.87794,1.3005,9.2759,-3.092,-0.20953,12.368,2.3442e-06,-0.10477,0,0,0.2,9.4739e-16,-1.1348e-16,0.66667
0.22238,0.37855,1.1119,-0.18218,-5.6722,80.183,0.54017,-0.18006,-1.8824,0.72023,1.6327e-10,-0.94118,0,0,0.2,-0,-0,0.66667
0.46627,0.28498,2.3313,-0.32254,-8.2605,42.92,2.0052,-0.66839,-1.6308,2.6736,-6.5636e-13,-0.8154,0,0,0.2,-0,-0,0.66667
0.89564,0.66299,4.4782,0.24449,1.4847,2.6101,-2.9196,0.97321,-1.787,-3.8928,-3.639e-09,-0.89352,0,0,0.2,-0,-0,0.66667
0.60143,0.13909,3.0072,-0.54136,-11.367,26.173,4.3412,-1.4471,-0.95673,5.7883,1.3118e-12,-0.47836,0,0,0.2,-9.4739e-16,0,0.66667
0.72596,0.54431,3.6298,0.066464,1.0094,13.321,-0.64333,0.21444,-1.9831,-0.85778,1.2473e-11,-0.99155,0,0,0.2,-0,-0,0.66667
0.41367,0.0111,2.0684,-0.73335,-20.243,50.746,4.0449,-1.3483,-0.086717,5.3932,3.8769e-13,-0.043359,0,0,0.2,-1.8948e-15,0,0.66667
0.68431,0.48235,3.4215,-0.026469,-0.45372,17.099,0.24151,-0.080503,-1.997,0.32201,-6.2364e-13,-0.9985,0,0,0.2,-9.4739e-16,0,0.66667
0.94606,0.62019,4.7303,0.18029,0.5318,0.92673,-2.2742,0.75806,-1.884,-3.0322,-2.339e-08,-0.94201,0,0,0.2,4.737e-16,0,0.66667
0.20019,0.039015,1.0009,-0.69148,-22.065,84.07,1.8457,-0.61522,-0.29992,2.4609,-1.8808e-11,-0.14996,0,0,0.2,-0,1.7691e-16,0.66667
0.80737,0.37334,4.0368,-0.18998,-2.1011,7.2168,2.0451,-0.68172,-1.872,2.7269,-4.1582e-10,-0.93601,0,0,0.2,-1.1842e-15,0,0.66667
0.96954,0.73929,4.8477,0.35894,0.55641,0.64643,-4.6401,1.5467,-1.5425,-6.1867,-1.5496e-08,-0.77124,0,0,0.2,-0,-0,0.66667
0.014569,0.13907,0.072844,-0.5414,-17.892,115.67,0.10517,-0.035056,-0.95811,0.14022,-1.7212e-08,-0.47905,0,0,0.2,2.9606e-17,2.8248e-16,0.66667
0.21521,0.82021,1.076,0.48031,15.104,81.466,-1.3782,0.45941,-1.1795,-1.8377,-2.0609e-10,-0.58977,0,0,0.2,-0,-0,0.66667
0.11738,0.64385,0.58688,0.21577,6.9779,97.902,-0.33769,0.11256,-1.8333,-0.45026,1.1362e-11,-0.91664,0,0,0.2,-2.0578e-17,0,0.66667
0.76742,0.097061,3.8371,-0.60441,-8.158,10.587,6.1845,-2.0615,-0.70214,8.246,-4.1221e-11,-0.35107,0,0,0.2,-0,-0,0.66667
0.081217,0.84402,0.40608,0.51603,16.929,104.16,-0.55881,0.18627,-1.0543,-0.74508,-1.3075e-08,-0.52716,0,0,0.2,2.3685e-16,0,0.66667
0.99841,0.88199,4.9921,0.57298,-0.078615,0.74007,-7.6276,2.5425,-0.83326,-10.17,6.7424e-07,-0.41663,0,0,0.2,-0,-0,0.66667
0.38961,0.052719,1.9481,-0.67092,-18.891,54.175,3.4853,-1.1618,-0.40005,4.6471,-4.392e-13,-0.20003,0,0,0.2,-4.737e-16,2.0371e-16,0.66667
0.9052,0.029718,4.526,-0.70542,-4.1994,3.1229,8.514,-2.838,-0.23235,11.352,1.1476e-07,-0.11617,0,0,0.2,-0,-0,0.66667
0.18858,0.53137,0.94289,0.047056,1.4854,85.803,-0.11832,0.039438,-1.9941,-0.15775,-2.8393e-10,-0.99704,0,0,0.2,-0,-0,0.66667
0.44087,0.55179,2.2044,0.077681,2.0412,46.359,-0.45663,0.15221,-1.9781,-0.60884,1.3678e-13,-0.98906,0,0,0.2,-0,-0,0.66667
0.84481,0.54198,4.2241,0.062974,0.56449,4.9129,-0.70935,0.23645,-1.9863,-0.9458,7.9671e-10,-0.99317,0,0,0.2,-1.8948e-15,0,0.66667
0.59527,0.9668,2.9763,0.70019,15.017,27.133,-5.5574,1.8525,-0.25819,-7.4099,-5.5422e-13,-0.12909,0,0,0.2,1.1842e-15,0,0.66667
0.46216,0.1416,2.3108,-0.53761,-13.94,43.675,3.3128,-1.1043,-0.97118,4.4171,-9.4147e-14,-0.48559,0,0,0.2,-0,-0,0.66667
0.51265,0.72997,2.5632,0.34495,8.3178,36.742,-2.3578,0.78595,-1.5766,-3.1438,1.6653e-14,-0.7883,0,0,0.2,-0,-0,0.66667
0.57389,0.35246,2.8694,-0.2213,-4.8294,29.045,1.6934,-0.56446,-1.8254,2.2578,7.4041e-13,-0.91269,0,0,0.2,1.8948e-15,0,0.66667
0.44032,0.031125,2.2016,-0.70331,-18.849,46.916,4.1291,-1.3764,-0.24252,5.5055,-3.7303e-13,-0.12126,0,0,0.2,6.3653e-16,0,0.66667
0.19356,0.15228,0.96779,-0.52159,-16.578,85.083,1.3461,-0.4487,-1.0325,1.7948,3.6804e-10,-0.51625,0,0,0.2,-1.8145e-16,0,0.66667
0.11397,0.72152,0.56983,0.33227,10.776,98.503,-0.5049,0.1683,-1.6077,-0.67321,-2.5186e-09,-0.80385,0,0,0.2,-0,-0,0.66667
0.15123,0.92531,0.75614,0.63796,20.676,92.247,-1.2864,0.42879,-0.55199,-1.7152,-1.2685e-09,-0.276,0,0,0.2,-2.3685e-16,0,0.66667
0.052491,0.52225,0.26245,0.033374,1.09,109.08,-0.023358,0.0077859,-1.9953,-0.031143,6.7377e-08,-0.99763,0,0,0.2,-0,-0,0.66667
0.55868,0.15299,2.7934,-0.52052,-11.778,31.148,3.8774,-1.2925,-1.037,5.1698,6.4349e-13,-0.5185,0,0,0.2,4.737e-16,0,0.66667
0.84772,0.018594,4.2386,-0.72211,-6.7419,5.7296,8.162,-2.7207,-0.14529,10.883,-1.8818e-09,-0.072645,0,0,0.2,-1.8948e-15,0,0.66667
0.35912,0.44182,1.7956,-0.08727,-2.4836,58.377,0.41787,-0.13929,-1.9745,0.55716,-9.0522e-13,-0.98724,0,0,0.2,-9.4739e-16,0,0.66667
0.075311,0.74036,0.37655,0.36053,11.788,105.15,-0.36203,0.12068,-1.5377,-0.4827,2.9694e-09,-0.76883,0,0,0.2,-0,-0,0.66667
0.42572,0.52558,2.1286,0.038375,1.025,48.513,-0.21783,0.072609,-1.9947,-0.29044,-4.1225e-13,-0.99737,0,0,0.2,-0,-0,0.66667
0.60201,0.12138,3.01,-0.56792,-11.929,26.148,4.5586,-1.5195,-0.85296,6.0781,9.619e-13,-0.42648,0,0,0.2,2.3685e-16,0,0.66667
0.4254,0.76747,2.127,0.40121,10.786,48.71,-2.2757,0.75856,-1.4271,-3.0342,1.0774e-12,-0.71353,0,0,0.2,-0,-0,0.66667
0.81072,0.40872,4.0536,-0.13693,-1.4871,6.9688,1.4801,-0.49338,-1.9345,1.9735,-4.0412e-10,-0.96726,0,0,0.2,-0,-0,0.66667
0.94189,0.77915,4.7094,0.41873,1.407,1.3306,-5.2586,1.7529,-1.377,-7.0115,-2.0399e-08,-0.68851,0,0,0.2,-2.8422e-15,0,0.66667
0.86991,0.85735,4.3496,0.53603,4.1934,4.1751,-6.2173,2.0724,-0.97743,-8.2897,1.1821e-09,-0.48871,0,0,0.2,-0,-0,0.66667
0.704,0.99253,3.52,0.73879,12.408,16.112,-6.9348,2.3116,-0.06015,-9.2464,-2.3004e-13,-0.030075,0,0,0.2,-1.4211e-15,0,0.66667
0.4703,0.56065,2.3515,0.090975,2.3095,42.268,-0.57047,0.19016,-1.972,-0.76063,2.3931e-13,-0.98598,0,0,0.2,1.0658e-15,0,0.66667
0.6827,0.3637,3.4135,-0.20445,-3.5284,17.316,1.8611,-0.62036,-1.8506,2.4814,-2.5162e-12,-0.92528,0,0,0.2,-0,-0,0.66667
0.013418,0.92086,0.067092,0.63129,20.932,115.88,-0.11294,0.037648,-0.58282,-0.15059,-9.331e-08,-0.29141,0,0,0.2,-2.9606e-17,0,0.66667
0.98248,0.33626,4.9124,-0.24561,-0.15648,0.3067,3.2175,-1.0725,-1.7859,4.2899,-3.3182e-08,-0.89294,0,0,0.2,-9.4739e-16,0,0.66667
0.17208,0.80707,0.86039,0.46061,14.732,88.66,-1.0568,0.35227,-1.2471,-1.4091,-5.8536e-10,-0.62353,0,0,0.2,-0,-0,0.66667
0.90626,0.67173,4.5313,0.25759,1.4018,2.2164,-3.1126,1.0375,-1.7649,-4.1501,-4.056e-10,-0.88243,0,0,0.2,1.8948e-15,0,0.66667
0.80711,0.65161,4.0355,0.22742,2.522,7.2615,-2.4474,0.8158,-1.8159,-3.2632,4.1279e-10,-0.90795,0,0,0.2,9.4739e-16,0,0.66667
0.80014,0.16455,4.0007,-0.50318,-5.873,8.0797,5.3682,-1.7894,-1.0996,7.1576,-3.8299e-10,-0.54979,0,0,0.2,1.8948e-15,0,0.66667
0.26894,0.28425,1.3447,-0.32362,-9.8534,72.61,1.1604,-0.38681,-1.6282,1.5472,3.9156e-11,-0.81409,0,0,0.2,-9.4739e-16,0,0.66667
0.21915,0.7287,1.0958,0.34305,10.728,80.759,-1.0024,0.33414,-1.5824,-1.3365,-2.2726e-10,-0.79119,0,0,0.2,-0,-0,0.66667
0.4288,0.18844,2.144,-0.46735,-12.547,48.279,2.672,-0.89066,-1.2237,3.5626,-1.0187e-12,-0.61186,0,0,0.2,-0,-0,0.66667
0.84937,0.6116,4.2469,0.16739,1.4616,4.7115,-1.8957,0.63191,-1.8993,-2.5276,7.8488e-10,-0.94966,0,0,0.2,9.4739e-16,0,0.66667
0.45038,0.84148,2.2519,0.51222,13.451,45.279,-3.0759,1.0253,-1.068,-4.1012,-1.1879e-13,-0.53399,0,0,0.2,9.4739e-16,0,0.66667
0.93542,0.86102,4.6771,0.54152,2.1049,1.7472,-6.754,2.2513,-0.95721,-9.0054,1.2595e-08,-0.4786,0,0,0.2,-0,-7.23e-17,0.66667
0.35268,0.9976,1.7634,0.7464,21.781,59.79,-3.5099,1.17,-0.019153,-4.6798,1.3161e-12,-0.0095763,0,0,0.2,-0,-0,0.66667
0.61939,0.70947,3.097,0.31421,6.3043,23.912,-2.5949,0.86496,-1.6482,-3.4599,-2.508e-12,-0.82409,0,0,0.2,4.737e-16,0,0.66667
0.9807,0.23522,4.9035,-0.39716,-0.3394,0.54218,5.1933,-1.7311,-1.4385,6.9244,9.8992e-09,-0.71924,0,0,0.2,-0,-0,0.66667
0.64346,0.24047,3.2173,-0.38929,-7.4377,21.411,3.3399,-1.1133,-1.461,4.4532,2.9463e-12,-0.7305,0,0,0.2,-0,-0,0.66667
0.045498,0.82771,0.22749,0.49156,16.188,110.32,-0.2982,0.099401,-1.141,-0.39761,2.3065e-08,-0.57049,0,0,0.2,-0,-0,0.66667
0.46356,0.81284,2.3178,0.46927,12.114,43.412,-2.9004,0.96681,-1.2176,-3.8672,-3.8325e-13,-0.60882,0,0,0.2,1.8948e-15,0,0.66667
0.33475,0.47733,1.6738,-0.034,-0.98655,62.116,0.15175,-0.050585,-1.995,0.20234,-1.914e-13,-0.99752,0,0,0.2,-0,-0,0.66667
0.53218,0.91172,2.6609,0.61758,14.64,34.552,-4.3822,1.4607,-0.64497,-5.8429,9.3259e-15,-0.32248,0,0,0.2,-0,-0,0.66667
0.28475,0.85375,1.4237,0.53062,16.099,70.181,-2.0146,0.67152,-0.99851,-2.6861,-4.4851e-12,-0.49926,0,0,0.2,-0,-0,0.66667
0.12226,0.55383,0.61131,0.080749,2.6048,97.055,-0.13163,0.043878,-1.9768,-0.17551,5.4196e-09,-0.98838,0,0,0.2,-1.1842e-16,0,0.66667
0.66829,0.66226,3.3414,0.24339,4.3627,18.749,-2.1688,0.72292,-1.7894,-2.8917,-7.5517e-13,-0.89468,0,0,0.2,-0,-0,0.66667
0.68136,0.011367,3.4068,-0.73295,-13.07,18.195,6.6587,-2.2196,-0.088872,8.8783,1.3234e-13,-0.044436,0,0,0.2,-0,-0,0.66667
0.86714,0.58087,4.3357,0.12131,0.93419,3.7812,-1.4026,0.46752,-1.9465,-1.8701,6.9339e-10,-0.97324,0,0,0.2,-0,-0,0.66667
0.13238,0.30419,0.66191,-0.29372,-9.4739,95.347,0.51843,-0.17281,-1.6924,0.69124,2.1466e-09,-0.8462,0,0,0.2,-1.1842e-16,0,0.66667
0.79862,0.13824,3.9931,-0.54264,-6.4008,8.2543,5.7782,-1.9261,-0.95304,7.7043,-1.5495e-10,-0.47652,0,0,0.2,-0,-0,0.66667
0.82677,0.76499,4.1338,0.39749,4.0261,6.23,-4.3817,1.4606,-1.4384,-5.8423,8.4104e-10,-0.71919,0,0,0.2,-0,-0,0.66667
0.64655,0.9649,3.2327,0.69735,13.473,21.57,-6.0116,2.0039,-0.27079,-8.0155,-4.4897e-13,-0.13539,0,0,0.2,1.4211e-15,0,0.66667
0.20492,0.44138,1.0246,-0.087934,-2.7575,83.071,0.24026,-0.080087,-1.9734,0.32035,1.8027e-10,-0.98672,0,0,0.2,-4.737e-16,0,0.66667
0.26142,0.82186,1.3071,0.48279,14.828,73.901,-1.6828,0.56094,-1.1707,-2.2438,-2.6061e-11,-0.58536,0,0,0.2,-4.737e-16,0,0.66667
0.4185,0.92308,2.0925,0.63463,17.344,49.927,-3.5412,1.1804,-0.56742,-4.7216,5.218e-14,-0.28371,0,0,0.2,-0,-0,0.66667
0.5418,0.27956,2.709,-0.33066,-7.631,33.024,2.3887,-0.79622,-1.6116,3.1849,4.4142e-13,-0.80581,0,0,0.2,1.1842e-15,0,0.66667
0.47744,0.035454,2.3872,-0.69682,-17.877,41.801,4.4358,-1.4786,-0.27326,5.9145,-3.0331e-13,-0.13663,0,0,0.2,-0,-0,0.66667
0.46746,0.45925,2.3373,-0.06112,-1.5567,42.652,0.38095,-0.12698,-1.9872,0.50793,-2.6051e-13,-0.99358,0,0,0.2,-4.737e-16,0,0.66667
0.83984,0.81635,4.1992,0.47452,4.4948,5.6016,-5.3136,1.7712,-1.1996,-7.0848,1.1702e-09,-0.59982,0,0,0.2,-0,-0,0.66667
0.8701,0.53944,4.3505,0.059161,0.44475,3.6173,-0.68635,0.22878,-1.987,-0.91514,-1.4033e-09,-0.99349,0,0,0.2,-0,-0,0.66667
0.81675,0.19377,4.0838,-0.45935,-4.93,6.9356,5.0024,-1.6675,-1.2496,6.6698,-7.8945e-10,-0.62478,0,0,0.2,-0,-0,0.66667
0.8778,0.82405,4.389,0.48608,3.5535,3.7138,-5.6891,1.8964,-1.1596,-7.5854,3.8192e-09,-0.57982,0,0,0.2,-0,-0,0.66667
0.57101,0.2837,2.855,-0.32445,-7.1348,29.458,2.4702,-0.82338,-1.6257,3.2935,6.9078e-13,-0.81285,0,0,0.2,1.8948e-15,0,0.66667
0.96404,0.96126,4.8202,0.69189,1.5689,1.4933,-8.8935,2.9645,-0.29743,-11.858,2.1842e-06,-0.14872,0,0,0.2,-9.4739e-16,1.3695e-16,0.66667
0.60654,0.54728,3.0327,0.07092,1.4533,25.211,-0.57355,0.19118,-1.9817,-0.76473,-9.2271e-13,-0.99085,0,0,0.2,9.4739e-16,0,0.66667
0.60395,0.028511,3.0197,-0.70723,-14.93,26.168,5.6951,-1.8984,-0.22169,7.5935,-1.581e-13,-0.11084,0,0,0.2,9.4739e-16,0,0.66667
0.3193,0.62087,1.5965,0.18131,5.3279,64.548,-0.77189,0.2573,-1.8828,-1.0292,-1.2259e-12,-0.94141,0,0,0.2,-5.9212e-16,0,0.66667
0.6812,0.86354,3.406,0.5453,9.5921,17.847,-4.9528,1.6509,-0.94168,-6.6038,-1.7417e-12,-0.47084,0,0,0.2,-0,-0,0.66667
0.051966,0.71068,0.25983,0.31601,10.354,109.18,-0.21896,0.072986,-1.6443,-0.29194,1.3584e-08,-0.82216,0,0,0.2,5.9212e-17,0,0.66667
0.13455,0.95185,0.67273,0.67777,22.111,95.09,-1.2159,0.4053,-0.36552,-1.6212,4.9534e-09,-0.18276,0,0,0.2,2.3685e-16,0,0.66667
0.13024,0.96413,0.65121,0.6962,22.757,95.828,-1.209,0.403,-0.27645,-1.612,6.6547e-10,-0.13823,0,0,0.2,-5.9212e-17,0,0.66667
0.6552,0.63891,3.276,0.20836,3.8516,20.043,-1.8202,0.60674,-1.8459,-2.427,-1.6969e-12,-0.92297,0,0,0.2,-0,-0,0.66667
0.17533,0.66059,0.87666,0.24089,7.6566,88.052,-0.56313,0.18771,-1.794,-0.75084,-6.7637e-10,-0.89698,0,0,0.2,-0,-0,0.66667
0.34115,0.24595,1.7057,-0.38108,-11.059,61.236,1.7334,-0.57779,-1.4843,2.3112,-2.9872e-12,-0.74213,0,0,0.2,-2.3685e-16,0,0.66667
0.044312,0.12878,0.22156,-0.55684,-18.379,110.53,0.32899,-0.10966,-0.8982,0.43865,-1.6711e-07,-0.4491,0,0,0.2,-0,-0,0.66667
0.23373,0.73166,1.1687,0.34749,10.791,78.355,-1.0829,0.36098,-1.5712,-1.4439,-1.4059e-10,-0.78559,0,0,0.2,-0,-0,0.66667
0.96422,0.46068,4.8211,-0.058979,-0.10395,0.47164,0.75826,-0.25275,-1.9871,1.011,2.3374e-07,-0.99357,0,0,0.2,-9.4739e-16,0,0.66667
0.50914,0.06572,2.5457,-0.65142,-15.992,37.544,4.4222,-1.4741,-0.4911,5.8962,-6.9988e-13,-0.24555,0,0,0.2,1.8948e-15,0,0.66667
0.15107,0.61272,0.75537,0.16909,5.4139,92.146,-0.34059,0.11353,-1.8974,-0.45412,-6.4394e-10,-0.9487,0,0,0.2,-2.3685e-16,0,0.66667
0.52301,0.87148,2.615,0.55723,13.348,35.63,-3.8858,1.2953,-0.89578,-5.181,-1.1058e-13,-0.44789,0,0,0.2,-2.3685e-16,0,0.66667
0.94351,0.70272,4.7175,0.30408,0.96461,1.1159,-3.8254,1.2751,-1.6701,-5.1005,-1.3621e-08,-0.83505,0,0,0.2,-0,-0,0.66667
0.86569,0.88042,4.3284,0.57063,4.6262,4.4499,-6.5865,2.1955,-0.84181,-8.7819,-2.4108e-09,-0.42091,0,0,0.2,-1.8948e-15,0,0.66667
0.39207,0.75642,1.9603,0.38463,10.685,53.55,-2.0107,0.67022,-1.4747,-2.6809,1.6984e-12,-0.73735,0,0,0.2,-0,-0,0.66667
0.28387,0.50436,1.4193,0.0065333,0.19641,70.143,-0.024728,0.0082427,-2.0004,-0.032971,-3.6416e-13,-1.0002,0,0,0.2,-1.8948e-15,0,0.66667
0.76173,0.81043,3.8086,0.46565,6.3485,10.765,-4.7293,1.5764,-1.2296,-6.3057,8.236e-11,-0.6148,0,0,0.2,-4.737e-16,0,0.66667
0.24048,0.032041,1.2024,-0.70194,-21.994,77.446,2.2507,-0.75025,-0.2485,3.001,-4.6274e-12,-0.12425,0,0,0.2,-9.4739e-16,0,0.66667
0.25423,0.79581,1.2712,0.44372,13.666,75.046,-1.5041,0.50137,-1.2992,-2.0055,-4.7912e-11,-0.64958,0,0,0.2,4.737e-16,0,0.66667
0.084086,0.81966,0.42043,0.4795,15.705,103.66,-0.53759,0.1792,-1.1819,-0.71678,-9.4229e-09,-0.59094,0,0,0.2,-0,-0,0.66667
0.86414,0.49605,4.3207,-0.0059298,-0.046595,3.8992,0.068323,-0.022774,-1.9999,0.091098,-9.3864e-09,-0.99994,0,0,0.2,-2.8422e-15,0,0.66667
0.4479,0.29596,2.2395,-0.30606,-8.0064,45.457,1.8278,-0.60925,-1.6659,2.437,-9.1105e-13,-0.83297,0,0,0.2,-9.4739e-16,0,0.66667
0.56179,0.29995,2.8089,-0.30008,-6.6988,30.547,2.2478,-0.74925,-1.6803,2.997,1.1526e-12,-0.84016,0,0,0.2,-9.4739e-16,0,0.66667
0.73671,0.42966,3.6836,-0.10552,-1.5479,12.423,1.0365,-0.34549,-1.9606,1.382,-3.011e-11,-0.98029,0,0,0.2,-0,-0,0.66667
0.79649,0.48507,3.9824,-0.022395,-0.25987,7.877,0.23783,-0.079276,-1.9988,0.3171,-6.4569e-11,-0.99941,0,0,0.2,-0,-0,0.66667
0.44751,0.69123,2.2375,0.28684,7.5038,45.501,-1.7115,0.57051,-1.7074,-2.282,9.7933e-13,-0.85368,0,0,0.2,-9.4739e-16,0,0.66667
0.18413,0.0044013,0.92064,-0.7434,-23.932,86.775,1.8251,-0.60836,-0.035347,2.4334,6.6259e-10,-0.017673,0,0,0.2,-0,1.1464e-16,0.66667
0.82873,0.32398,4.1437,-0.26403,-2.6216,5.9512,2.9175,-0.97249,-1.7527,3.89,-8.207e-10,-0.87637,0,0,0.2,-0,-0,0.66667
0.030998,0.3266,0.15499,-0.2601,-8.5283,112.81,0.1075,-0.035834,-1.7601,0.14334,-6.9105e-09,-0.88006,0,0,0.2,-0,-0,0.66667
0.94673,0.68627,4.7336,0.2794,0.82548,1.0062,-3.5269,1.1756,-1.7227,-4.7025,-1.5028e-08,-0.86135,0,0,0.2,7.1054e-16,0,0.66667
0.57698,0.042983,2.8849,-0.68553,-15.178,29.218,5.2738,-1.7579,-0.32942,7.0317,-1.4078e-13,-0.16471,0,0,0.2,-0,-2.2215e-16,0.66667
0.87539,0.58041,4.3769,0.12061,0.87099,3.3914,-1.4077,0.46924,-1.9489,-1.877,1.6829e-09,-0.97445,0,0,0.2,-9.4739e-16,0,0.66667
0.60857,0.13023,3.0428,-0.55466,-11.495,25.394,4.5006,-1.5002,-0.9073,6.0008,1.156e-12,-0.45365,0,0,0.2,-0,-0,0.66667
0.25166,0.26359,1.2583,-0.35462,-10.911,75.424,1.1899,-0.39663,-1.5529,1.5865,7.2628e-11,-0.77646,0,0,0.2,-0,-0,0.66667
0.29613,0.71143,1.4806,0.31715,9.4926,68.251,-1.2522,0.41741,-1.6433,-1.6696,-1.0134e-11,-0.82164,0,0,0.2,4.737e-16,0,0.66667
0.53292,0.073298,2.6646,-0.64005,-15.174,34.493,4.548,-1.516,-0.54357,6.064,-3.6415e-14,-0.27179,0,0,0.2,9.4739e-16,0,0.66667
0.96208,0.35193,4.8104,-0.22211,-0.43267,0.61073,2.8491,-0.94971,-1.8238,3.7989,-1.0424e-09,-0.91189,0,0,0.2,-0,-0,0.66667
0.1845,0.1729,0.92248,-0.49066,-15.635,86.586,1.207,-0.40233,-1.1436,1.6093,4.322e-10,-0.57178,0,0,0.2,2.3685e-16,0,0.66667
0.5099,0.76365,2.5495,0.39548,9.5887,37.142,-2.6887,0.89625,-1.4428,-3.585,8.0824e-14,-0.72141,0,0,0.2,-9.4739e-16,0,0.66667
0.34379,0.25253,1.7189,-0.3712,-10.748,60.824,1.7015,-0.56718,-1.512,2.2687,-3.1427e-12,-0.75602,0,0,0.2,-0,-0,0.66667
0.76973,0.073439,3.8486,-0.63984,-8.5901,10.491,6.5667,-2.1889,-0.54373,8.7556,-2.1138e-11,-0.27186,0,0,0.2,-0,-0,0.66667
0.80287,0.86783,4.0143,0.55175,6.3888,7.9908,-5.9064,1.9688,-0.91695,-7.8752,4.3427e-11,-0.45848,0,0,0.2,4.7539e-16,0,0.66667
0.42456,0.58573,2.1228,0.12859,3.441,48.694,-0.72794,0.24265,-1.9412,-0.97059,6.1273e-13,-0.97062,0,0,0.2,-4.737e-16,0,0.66667
0.20412,0.39374,1.0206,-0.1594,-5.003,83.212,0.43382,-0.14461,-1.91,0.57842,2.4302e-10,-0.95502,0,0,0.2,-2.3685e-16,0,0.66667
0.067089,0.71998,0.33545,0.32998,10.794,106.57,-0.29517,0.098391,-1.6134,-0.39356,7.4721e-09,-0.8067,0,0,0.2,2.3685e-16,0,0.66667
0.19865,0.22176,0.99324,-0.41736,-13.195,84.192,1.1054,-0.36848,-1.3809,1.4739,4.6525e-10,-0.69045,0,0,0.2,-4.737e-16,0,0.66667
0.2724,0.77203,1.362,0.40805,12.425,72.088,-1.482,0.49401,-1.4071,-1.976,-2.4947e-11,-0.70353,0,0,0.2,2.3685e-16,0,0.66667
0.59879,0.40738,2.9939,-0.13893,-2.8923,26.108,1.1092,-0.36973,-1.9319,1.4789,1.3399e-12,-0.96593,0,0,0.2,-1.8948e-15,0,0.66667
0.87308,0.074503,4.3654,-0.63825,-4.9549,4.2604,7.4299,-2.4766,-0.55162,9.9065,-2.2809e-09,-0.27581,0,0,0.2,-0,2.2412e-16,0.66667
0.12823,0.93562,0.64115,0.65343,21.331,96.153,-1.1172,0.3724,-0.48266,-1.4896,-4.9666e-09,-0.24133,0,0,0.2,2.9606e-16,0,0.66667
0.95819,0.43692,4.7909,-0.09462,-0.20391,0.60252,1.2088,-0.40295,-1.9688,1.6118,-5.5126e-07,-0.98438,0,0,0.2,2.4277e-15,0,0.66667
0.68317,0.010479,3.4159,-0.73428,-13.035,18.026,6.6885,-2.2295,-0.082294,8.918,1.8074e-13,-0.041147,0,0,0.2,-0,2.3779e-16,0.66667
0.74196,0.93562,3.7098,0.65344,9.6986,12.674,-6.4643,2.1548,-0.48193,-8.6191,1.918e-12,-0.24097,0,0,0.2,-1.3027e-15,0,0.66667
0.98288,0.31946,4.9144,-0.27081,-0.16905,0.33001,3.549,-1.183,-1.7399,4.7319,-1.3442e-08,-0.86993,0,0,0.2,-0,-0,0.66667
0.4161,0.19303,2.0805,-0.46046,-12.524,50.095,2.5546,-0.85154,-1.2457,3.4062,-1.4622e-12,-0.62287,0,0,0.2,-0,-0,0.66667
0.53158,0.66128,2.6579,0.24192,5.6588,34.246,-1.7147,0.57156,-1.7933,-2.2862,-3.2163e-13,-0.89666,0,0,0.2,-0,-0,0.66667
0.67921,0.25117,3.3961,-0.37325,-6.5382,17.799,3.3802,-1.1267,-1.5049,4.507,3.2996e-13,-0.75244,0,0,0.2,-0,-0,0.66667
0.51288,0.12661,2.5644,-0.56008,-13.614,36.935,3.83,-1.2767,-0.88563,5.1067,-4.7318e-13,-0.44282,0,0,0.2,1.8948e-15,0,0.66667
0.29911,0.79074,1.4956,0.43611,13.068,67.837,-1.7393,0.57976,-1.3238,-2.319,-4.1268e-12,-0.66191,0,0,0.2,-0,-0,0.66667
0.10538,0.15424,0.52692,-0.51865,-16.938,100.01,0.72876,-0.24292,-1.0441,0.97168,2.1246e-08,-0.52206,0,0,0.2,1.4803e-16,0,0.66667
0.28493,0.5065,1.4247,0.0097506,0.29294,69.973,-0.037043,0.012348,-1.9996,-0.049391,-1.0646e-12,-0.99978,0,0,0.2,-0,-0,0.66667
0.76885,0.78659,3.8443,0.42988,5.6904,10.172,-4.4069,1.469,-1.3431,-5.8759,1.366e-10,-0.67156,0,0,0.2,-0,-0,0.66667
0.64078,0.23237,3.2039,-0.40144,-7.7199,21.705,3.4298,-1.1433,-1.4277,4.5731,3.0234e-12,-0.71387,0,0,0.2,-0,-0,0.66667
0.80133,0.75652,4.0067,0.38477,4.4246,7.8135,-4.1111,1.3704,-1.4733,-5.4814,3.9851e-10,-0.73665,0,0,0.2,-1.8948e-15,0,0.66667
0.51712,0.86078,2.5856,0.54117,13.064,36.364,-3.7313,1.2438,-0.95879,-4.9751,7.6605e-14,-0.4794,0,0,0.2,-9.4739e-16,0,0.66667
0.2321,0.45242,1.1605,-0.071375,-2.2097,78.564,0.22088,-0.073627,-1.9817,0.29451,5.5993e-11,-0.99083,0,0,0.2,-0,-0,0.66667
0.62796,0.61361,3.1398,0.17041,3.3462,22.884,-1.4269,0.47562,-1.8964,-1.9025,-1.7776e-12,-0.9482,0,0,0.2,-0,-0,0.66667
0.30401,0.75399,1.52,0.38098,11.361,67.032,-1.5443,0.51475,-1.4836,-2.059,-4.1648e-12,-0.74182,0,0,0.2,-9.4739e-16,0,0.66667
0.029529,0.3851,0.14764,-0.17236,-5.6449,113.07,0.067859,-0.02262,-1.8946,0.090479,-1.3125e-08,-0.94729,0,0,0.2,-0,-0,0.66667
0.90333,0.76211,4.5167,0.39316,2.245,2.5023,-4.7354,1.5785,-1.45,-6.3139,4.6879e-09,-0.72501,0,0,0.2,1.8948e-15,0,0.66667
0.42037,0.25116,2.1018,-0.37326,-10.079,49.412,2.0921,-0.69736,-1.5062,2.7894,-9.0949e-13,-0.75309,0,0,0.2,-1.8948e-15,0,0.66667
0.42613,0.98626,2.1307,0.72939,19.875,48.957,-4.1442,1.3814,-0.10761,-5.5256,-4.2855e-13,-0.053805,0,0,0.2,4.737e-16,0,0.66667
0.74125,0.92708,3.7063,0.64063,9.52,12.705,-6.3315,2.1105,-0.53976,-8.4421,4.0821e-12,-0.26988,0,0,0.2,-0,-0,0.66667
0.94846,0.77605,4.7423,0.41408,1.2182,1.1616,-5.2365,1.7455,-1.3902,-6.982,-2.5168e-08,-0.6951,0,0,0.2,-9.4739e-16,0,0.66667
0.072516,0.58975,0.36258,0.13462,4.3879,105.62,-0.13016,0.043388,-1.9354,-0.17355,5.3425e-08,-0.96771,0,0,0.2,1.3332e-17,0,0.66667
0.1727,0.31226,0.86351,-0.2816,-8.9657,88.504,0.64844,-0.21615,-1.7201,0.86459,8.8526e-10,-0.86004,0,0,0.2,8.8818e-17,0,0.66667
0.32236,0.69023,1.6118,0.28534,8.3806,64.104,-1.2264,0.40881,-1.7106,-1.6352,-4.3587e-13,-0.85528,0,0,0.2,-0,-0,0.66667
0.24842,0.2848,1.2421,-0.3228,-9.9425,75.94,1.0692,-0.3564,-1.6306,1.4256,8.6549e-11,-0.81529,0,0,0.2,-9.4739e-16,0,0.66667
0.49549,0.43646,2.4775,-0.095311,-2.3423,38.871,0.62968,-0.20989,-1.9683,0.83957,-8.0225e-13,-0.98415,0,0,0.2,2.9606e-16,0,0.66667
0.82446,0.8192,4.1223,0.4788,4.9459,6.4987,-5.2633,1.7544,-1.1848,-7.0177,6.1922e-10,-0.59239,0,0,0.2,-0,-0,0.66667
0.85397,0.03393,4.2699,-0.6991,-6.2555,5.3429,7.9602,-2.6534,-0.26235,10.614,-7.37e-10,-0.13118,0,0,0.2,1.8948e-15,0,0.66667
0.59583,0.3374,2.9791,-0.2439,-5.1164,26.499,1.9376,-0.64587,-1.7889,2.5835,1.5961e-12,-0.89447,0,0,0.2,-0,-0,0.66667
0.24017,0.436,1.2009,-0.096,-2.9603,77.239,0.30742,-0.10247,-1.9675,0.4099,5.2938e-11,-0.98376,0,0,0.2,1.7764e-16,0,0.66667
0.18649,0.28082,0.93246,-0.32877,-10.423,86.196,0.81752,-0.27251,-1.6176,1.09,6.1788e-10,-0.80879,0,0,0.2,-2.2204e-17,0,0.66667
0.74339,0.94737,3.717,0.67106,9.929,12.598,-6.6514,2.2171,-0.3979,-8.8686,2.3133e-12,-0.19895,0,0,0.2,-0,-0,0.66667
0.23721,0.38557,1.1861,-0.17164,-5.3046,77.736,0.54288,-0.18096,-1.895,0.72384,1.0448e-10,-0.9475,0,0,0.2,-4.737e-16,0,0.66667
0.53949,0.81336,2.6975,0.47003,10.941,33.446,-3.381,1.127,-1.2148,-4.5081,-9.8344e-13,-0.60738,0,0,0.2,1.8948e-15,0,0.66667
0.74928,0.94237,3.7464,0.66355,9.6166,12.11,-6.6292,2.2097,-0.43572,-8.8389,3.5993e-12,-0.21786,0,0,0.2,1.8948e-15,0,0.66667
0.22825,0.064902,1.1412,-0.65265,-20.529,79.413,1.9862,-0.66207,-0.48559,2.6483,1.0307e-11,-0.2428,0,0,0.2,-9.4739e-16,0,0.66667
0.1745,0.1187,0.87251,-0.57195,-18.345,88.297,1.3308,-0.44358,-0.83713,1.7743,1.365e-10,-0.41857,0,0,0.2,1.1842e-16,0,0.66667
0.039736,0.94292,0.19868,0.66438,22.028,111.33,-0.35199,0.11733,-0.43008,-0.46933,-3.8329e-07,-0.21504,0,0,0.2,-0,-0,0.66667
0.14757,0.19773,0.73784,-0.45341,-14.617,92.8,0.89212,-0.29737,-1.268,1.1895,2.3684e-09,-0.63402,0,0,0.2,-0,-0,0.66667
0.85144,0.42452,4.2572,-0.11322,-0.97346,4.5728,1.2853,-0.42843,-1.9532,1.7137,2.5263e-10,-0.97661,0,0,0.2,9.4739e-16,0,0.66667
0.10464,0.32075,0.52318,-0.26888,-8.7278,100.09,0.37512,-0.12504,-1.7424,0.50017,1.2199e-09,-0.8712,0,0,0.2,-0,-0,0.66667
0.22365,0.90258,1.1182,0.60387,18.998,80.139,-1.8007,0.60023,-0.70349,-2.4009,-4.446e-11,-0.35175,0,0,0.2,-3.5527e-16,0,0.66667
0.032757,0.79283,0.16379,0.43924,14.457,112.52,-0.19185,0.063948,-1.3142,-0.25579,5.42e-08,-0.6571,0,0,0.2,-0,-0,0.66667
0.67636,0.40079,3.3818,-0.14882,-2.6079,17.9,1.342,-0.44734,-1.9211,1.7894,-1.0704e-12,-0.96055,0,0,0.2,4.737e-16,0,0.66667
0.2317,0.71796,1.1585,0.32695,10.159,78.682,-1.0101,0.33669,-1.6211,-1.3467,-1.5398e-10,-0.81055,0,0,0.2,-6.2172e-16,0,0.66667
0.41359,0.80115,2.068,0.45172,12.314,50.451,-2.491,0.83035,-1.2734,-3.3214,1.092e-12,-0.63668,0,0,0.2,-0,-0,0.66667
0.1393,0.71115,0.69651,0.31672,10.201,94.172,-0.58827,0.19609,-1.6439,-0.78436,-1.6413e-09,-0.82197,0,0,0.2,-0,-0,0.66667
0.37722,0.66142,1.8861,0.24214,6.7962,55.684,-1.2178,0.40595,-1.7921,-1.6238,2.0447e-12,-0.89605,0,0,0.2,-0,-0,0.66667
0.42444,0.45268,2.1222,-0.070977,-1.8987,48.701,0.40167,-0.13389,-1.9818,0.53556,-5.4151e-13,-0.99088,0,0,0.2,-0,-0,0.66667
0.47296,0.58658,2.3648,0.12986,3.287,41.912,-0.81895,0.27298,-1.9397,-1.0919,3.0975e-13,-0.96986,0,0,0.2,-4.737e-16,0,0.66667
0.42284,0.63929,2.1142,0.20893,5.6067,48.967,-1.1779,0.39264,-1.8451,-1.5706,8.5054e-13,-0.92256,0,0,0.2,-0,-0,0.66667
0.10276,0.34249,0.51378,-0.23627,-7.6683,100.41,0.32371,-0.1079,-1.8018,0.43161,-5.2072e-09,-0.90088,0,0,0.2,-4.4409e-17,0,0.66667
0.77258,0.81601,3.8629,0.47402,6.2035,9.9632,-4.8829,1.6276,-1.2009,-6.5105,9.7053e-11,-0.60044,0,0,0.2,-1.8948e-15,0,0.66667
0.13721,0.82864,0.68603,0.49296,15.959,94.572,-0.90183,0.30061,-1.1354,-1.2024,-3.3391e-09,-0.56768,0,0,0.2,-2.3685e-16,0,0.66667
0.42429,0.023122,2.1215,-0.71532,-19.514,49.2,4.0467,-1.3489,-0.18082,5.3956,-4.3254e-13,-0.090409,0,0,0.2,-0,-0,0.66667
0.27196,0.75338,1.3598,0.38008,11.567,72.147,-1.3782,0.4594,-1.4862,-1.8376,-2.9498e-11,-0.74312,0,0,0.2,-0,-0,0.66667
0.30101,0.57008,1.505,0.10512,3.1263,67.417,-0.42188,0.14063,-1.9604,-0.56251,-4.8495e-12,-0.98018,0,0,0.2,-0,-0,0.66667
0.67242,0.41213,3.3621,-0.1318,-2.3324,18.278,1.1817,-0.39389,-1.9394,1.5756,-6.9278e-13,-0.96971,0,0,0.2,-0,-0,0.66667
0.51779,0.71978,2.5889,0.32968,7.8878,36.066,-2.276,0.75867,-1.6149,-3.0347,-5.2847e-14,-0.80743,0,0,0.2,-0,-0,0.66667
0.19009,0.16025,0.95044,-0.50962,-16.214,85.658,1.2916,-0.43054,-1.0772,1.7222,3.0901e-10,-0.53859,0,0,0.2,-0,-0,0.66667
0.46913,0.18239,2.3457,-0.47641,-12.22,42.655,2.98,-0.99334,-1.1944,3.9734,-1.6742e-13,-0.59718,0,0,0.2,-2.3685e-16,0,0.66667
0.33954,0.93038,1.6977,0.64557,18.94,61.688,-2.9226,0.9742,-0.51789,-3.8968,6.8301e-13,-0.25895,0,0,0.2,2.3685e-16,0,0.66667
0.7045,0.6643,3.5225,0.24644,4.0094,15.308,-2.3149,0.77164,-1.7846,-3.0865,1.1407e-11,-0.8923,0,0,0.2,-0,-0,0.66667
0.2261,0.091557,1.1305,-0.61266,-19.259,79.741,1.8469,-0.61565,-0.66541,2.4626,4.7406e-11,-0.33271,0,0,0.2,5.9212e-17,0,0.66667
0.84499,0.34797,4.2249,-0.22804,-2.0532,4.9935,2.5692,-0.85641,-1.8162,3.4257,-1.4024e-09,-0.9081,0,0,0.2,-0,-0,0.66667
0.52623,0.059024,2.6311,-0.66146,-15.857,35.369,4.6411,-1.547,-0.44436,6.1881,2.2471e-13,-0.22218,0,0,0.2,-1.1842e-15,0,0.66667
0.50062,0.94457,2.5031,0.66685,16.576,38.677,-4.4512,1.4837,-0.41988,-5.9349,3.2285e-13,-0.20994,0,0,0.2,-0,-0,0.66667
0.25369,0.24199,1.2684,-0.38701,-11.904,75.108,1.3091,-0.43635,-1.4672,1.7454,6.3353e-11,-0.73359,0,0,0.2,2.3685e-16,0,0.66667
0.18616,0.96162,0.93078,0.69243,22.222,86.407,-1.7187,0.57289,-0.2959,-2.2916,-1.5536e-10,-0.14795,0,0,0.2,-0,-0,0.66667
0.47182,0.81109,2.3591,0.46664,11.925,42.279,-2.9356,0.97852,-1.2267,-3.9141,2.2871e-14,-0.61335,0,0,0.2,1.1842e-15,0,0.66667
0.98182,0.50909,4.9091,0.01364,0.0084186,0.18388,-0.17856,0.059523,-1.9993,-0.23808,3.8045e-06,-0.99966,0,0,0.2,-0,-0,0.66667
0.13291,0.039477,0.66453,-0.69078,-22.558,95.373,1.2241,-0.40804,-0.30248,1.6322,-8.8088e-10,-0.15124,0,0,0.2,2.3685e-16,0,0.66667
0.28346,0.057857,1.4173,-0.66321,-20.246,70.485,2.5066,-0.83554,-0.43672,3.3422,2.4758e-13,-0.21836,0,0,0.2,-1.1842e-16,0,0.66667
0.80064,0.10194,4.0032,-0.59708,-7.017,8.2302,6.374,-2.1247,-0.7321,8.4987,-2.1384e-10,-0.36605,0,0,0.2,-0,-0,0.66667
0.66478,0.52854,3.3239,0.042809,0.77147,19.013,-0.37945,0.12648,-1.9934,-0.50593,2.0797e-13,-0.99671,0,0,0.2,-9.4739e-16,0,0.66667
0.27876,0.71308,1.3938,0.31962,9.6737,71.027,-1.188,0.39599,-1.6372,-1.584,-2.4929e-11,-0.81858,0,0,0.2,-0,-0,0.66667
0.31465,0.99113,1.5732,0.73669,22.11,65.634,-3.0906,1.0302,-0.070491,-4.1209,2.5757e-13,-0.035245,0,0,0.2,-7.1054e-16,0,0.66667
0.41995,0.23498,2.0997,-0.39753,-10.747,49.49,2.2259,-0.74197,-1.438,2.9679,-1.779e-12,-0.71901,0,0,0.2,9.4739e-16,0,0.66667
0.60279,0.77115,3.0139,0.40672,8.4638,25.85,-3.2689,1.0896,-1.4108,-4.3585,-2.1845e-12,-0.70542,0,0,0.2,-0,-0,0.66667
0.71934,0.47355,3.5967,-0.039673,-0.61506,13.891,0.38051,-0.12684,-1.9957,0.50734,-6.1931e-12,-0.99786,0,0,0.2,-1.8948e-15,0,0.66667
0.8573,0.41572,4.2865,-0.12642,-1.0452,4.2737,1.445,-0.48167,-1.9433,1.9267,2.9455e-10,-0.97165,0,0,0.2,1.8948e-15,0,0.66667
0.68111,0.25069,3.4056,-0.37396,-6.5186,17.617,3.3961,-1.132,-1.5032,4.5281,-2.931e-14,-0.75158,0,0,0.2,-0,-0,0.66667
0.23698,0.83918,1.1849,0.50878,15.847,77.894,-1.6076,0.53587,-1.0801,-2.1435,-6.9765e-11,-0.54007,0,0,0.2,-2.3685e-16,0,0.66667
0.92572,0.51923,4.6286,0.028851,0.12076,1.4246,-0.35611,0.1187,-1.9964,-0.47482,5.5314e-08,-0.9982,0,0,0.2,-0,-0,0.66667
0.7812,0.11394,3.906,-0.57909,-7.3866,9.5293,6.0318,-2.0106,-0.80856,8.0424,-9.9761e-11,-0.40428,0,0,0.2,-0,-2.1663e-16,0.66667
0.30738,0.49613,1.5369,-0.0057996,-0.17167,66.4,0.023769,-0.007923,-1.9998,0.031692,-7.6145e-13,-0.99992,0,0,0.2,2.0943e-16,0,0.66667
0.30497,0.48863,1.5248,-0.01706,-0.50583,66.783,0.069369,-0.023123,-1.9978,0.092493,5.3711e-13,-0.99892,0,0,0.2,-0,-0,0.66667
0.88117,0.86905,4.4058,0.55357,3.9779,3.702,-6.5039,2.168,-0.90993,-8.6718,1.5965e-08,-0.45496,0,0,0.2,4.737e-16,0,0.66667
0.12608,0.013482,0.63039,-0.72978,-23.917,96.549,1.2268,-0.40893,-0.1067,1.6357,2.0028e-09,-0.053349,0,0,0.2,-0,-0,0.66667
0.63346,0.53289,3.1673,0.049335,0.95594,22.256,-0.41669,0.1389,-1.9915,-0.55558,-7.7835e-13,-0.99574,0,0,0.2,1.8948e-15,0,0.66667
0.27771,0.88961,1.3886,0.58441,17.844,71.343,-2.164,0.72133,-0.785,-2.8853,-3.5789e-12,-0.3925,0,0,0.2,-0,-0,0.66667
0.8272,0.52638,4.136,0.039564,0.39338,5.9168,-0.43636,0.14545,-1.9956,-0.58181,-1.9927e-10,-0.99779,0,0,0.2,-0,-0,0.66667
0.36452,0.116,1.8226,-0.576,-16.511,57.818,2.7995,-0.93318,-0.81965,3.7327,-1.0427e-12,-0.40983,0,0,0.2,-0,-0,0.66667
0.73337,0.36189,3.6668,-0.20717,-3.08,12.754,2.0257,-0.67524,-1.8477,2.701,-4.0858e-11,-0.92387,0,0,0.2,-9.4739e-16,0,0.66667
0.19242,0.32021,0.96209,-0.26968,-8.5195,85.189,0.69188,-0.23063,-1.7409,0.9225,4.6756e-10,-0.87044,0,0,0.2,-0,-0,0.66667
0.48145,0.39505,2.4072,-0.15742,-3.9432,40.769,1.0105,-0.33684,-1.9116,1.3474,-9.4813e-14,-0.95579,0,0,0.2,-4.737e-16,0,0.66667
0.80359,0.072667,4.018,-0.641,-7.468,8.1332,6.8681,-2.2894,-0.53809,9.1574,-7.9574e-11,-0.26905,0,0,0.2,-0,-0,0.66667
0.39699,0.93731,1.9849,0.65596,18.329,53.073,-3.4721,1.1574,-0.47058,-4.6295,6.517e-13,-0.23529,0,0,0.2,-5.3296e-16,0,0.66667
0.16157,0.78485,0.80787,0.42728,13.703,90.421,-0.9205,0.30683,-1.3508,-1.2273,-1.2583e-09,-0.67542,0,0,0.2,-0,-0,0.66667
0.64898,0.91393,3.2449,0.6209,11.866,21.175,-5.3727,1.7909,-0.62848,-7.1636,-9.9121e-13,-0.31424,0,0,0.2,-0,-0,0.66667
0.75333,0.81254,3.7666,0.46881,6.592,11.423,-4.7088,1.5696,-1.2197,-6.2785,7.0318e-11,-0.60984,0,0,0.2,1.8948e-15,0,0.66667
0.28019,0.73733,1.401,0.35599,10.774,70.812,-1.33,0.44332,-1.5497,-1.7733,-2.1492e-11,-0.77487,0,0,0.2,-8.0551e-16,0,0.66667
0.45136,0.10988,2.2568,-0.58519,-15.399,45.222,3.5217,-1.1739,-0.7824,4.6957,-2.7955e-13,-0.3912,0,0,0.2,-0,-2.9967e-16,0.66667
0.90045,0.57259,4.5022,0.10888,0.62446,2.3258,-1.3072,0.43574,-1.957,-1.7429,1.0376e-08,-0.97848,0,0,0.2,1.8948e-15,0,0.66667
0.87199,0.004456,4.3599,-0.74332,-5.9299,4.5921,8.6421,-2.8807,-0.035882,11.523,2.6183e-09,-0.017941,0,0,0.2,-0,-0,0.66667
0.70719,0.87298,3.5359,0.55947,9.1776,15.461,-5.2753,1.7584,-0.88762,-7.0337,8.3578e-13,-0.44381,0,0,0.2,-1.0658e-15,0,0.66667
0.5909,0.40418,2.9545,-0.14373,-3.0375,27.015,1.1324,-0.37748,-1.9274,1.5099,7.4374e-13,-0.9637,0,0,0.2,3.5527e-16,0,0.66667
0.81738,0.75078,4.0869,0.37617,3.9973,6.7704,-4.0997,1.3666,-1.4975,-5.4662,7.3584e-10,-0.74873,0,0,0.2,1.8948e-15,0,0.66667
0.90764,0.010909,4.5382,-0.73364,-4.29,3.1176,8.8784,-2.9595,-0.086604,11.838,-1.6332e-08,-0.043302,0,0,0.2,-3.7896e-15,0,0.66667
0.0025076,0.92261,0.012538,0.63392,21.025,117.76,-0.021192,0.007064,-0.57089,-0.028257,-2.2647e-07,-0.28545,0,0,0.2,-0,-0,0.66667
0.39723,0.48711,1.9861,-0.019334,-0.5315,52.659,0.1024,-0.034133,-1.9975,0.13653,-1.8576e-13,-0.99876,0,0,0.2,-0,-0,0.66667
0.56141,0.24989,2.807,-0.37516,-8.3998,30.655,2.8082,-0.93608,-1.5015,3.7443,1.0936e-12,-0.75076,0,0,0.2,-1.4063e-16,0,0.66667
0.73392,0.44019,3.6696,-0.089712,-1.3281,12.651,0.87789,-0.29263,-1.9731,1.1705,-2.4172e-11,-0.98656,0,0,0.2,-0,-0,0.66667
0.087473,0.34063,0.43736,-0.23905,-7.7822,103.04,0.27881,-0.092937,-1.7967,0.37175,7.2243e-09,-0.89837,0,0,0.2,-1.4803e-16,0,0.66667
0.39975,0.93919,1.9988,0.65879,18.363,52.672,-3.5114,1.1705,-0.45706,-4.6818,6.1506e-13,-0.22853,0,0,0.2,-0,-0,0.66667
0.27962,0.30149,1.3981,-0.29777,-9.0032,70.88,1.1102,-0.37005,-1.6849,1.4802,2.5057e-11,-0.84246,0,0,0.2,-0,-0,0.66667
0.42351,0.045443,2.1176,-0.68183,-18.582,49.267,3.8502,-1.2834,-0.34707,5.1336,-6.1173e-13,-0.17353,0,0,0.2,-0,-0,0.66667
0.49798,0.49162,2.4899,-0.012567,-0.30768,38.531,0.083438,-0.027813,-1.9997,0.11125,-5.6581e-13,-0.99984,0,0,0.2,-0,-0,0.66667
0.66002,0.99133,3.3001,0.73699,13.85,20.287,-6.4857,2.1619,-0.068402,-8.6476,3.0376e-13,-0.034201,0,0,0.2,-9.4739e-16,0,0.66667
0.49624,0.47526,2.4812,-0.037117,-0.91097,38.764,0.24558,-0.081861,-1.995,0.32745,-9.423e-15,-0.99749,0,0,0.2,-9.4739e-16,0,0.66667
0.62047,0.63776,3.1023,0.20664,4.1249,23.717,-1.7095,0.56984,-1.8473,-2.2794,-2.095e-12,-0.92367,0,0,0.2,-0,-0,0.66667
0.58244,0.67442,2.9122,0.26162,5.6283,28.061,-2.0317,0.67724,-1.7558,-2.709,-1.277e-12,-0.87792,0,0,0.2,-0,-0,0.66667
0.42833,0.77768,2.1417,0.41652,11.169,48.303,-2.3788,0.79293,-1.383,-3.1717,1.3503e-12,-0.69149,0,0,0.2,-1.1842e-16,0,0.66667
0.0049764,0.32716,0.024882,-0.25926,-8.5086,117.33,0.017202,-0.0057341,-1.76,0.022936,1.1461e-08,-0.88002,0,0,0.2,7.4015e-18,0,0.66667
0.19452,0.8919,0.97258,0.58785,18.721,84.955,-1.5246,0.50821,-0.77008,-2.0328,-1.7877e-10,-0.38504,0,0,0.2,2.3685e-16,0,0.66667
0.32021,0.038666,1.601,-0.692,-20.642,64.723,2.9544,-0.98482,-0.29659,3.9393,-2.4669e-13,-0.14829,0,0,0.2,-0,-0,0.66667
0.14698,0.086344,0.73489,-0.62048,-20.122,92.959,1.216,-0.40532,-0.6304,1.6213,-5.1464e-10,-0.3152,0,0,0.2,-0,-0,0.66667
0.59866,0.59796,2.9933,0.14693,3.06,26.125,-1.1729,0.39095,-1.9232,-1.5638,-1.0059e-12,-0.96159,0,0,0.2,-1.8948e-15,0,0.66667
0.6115,0.027467,3.0575,-0.7088,-14.748,25.332,5.7791,-1.9264,-0.21452,7.7054,1.0436e-13,-0.10726,0,0,0.2,-9.4739e-16,0,0.66667
0.50009,0.58909,2.5005,0.13363,3.265,38.271,-0.89106,0.29702,-1.9381,-1.1881,8.8651e-14,-0.96904,0,0,0.2,-0,-0,0.66667
0.32085,0.72846,1.6042,0.3427,10.089,64.366,-1.466,0.48868,-1.5814,-1.9547,-9.5712e-13,-0.79072,0,0,0.2,-0,-0,0.66667
0.65326,0.81442,3.2663,0.47163,8.8457,20.501,-4.1079,1.3693,-1.21,-5.4772,-2.7232e-12,-0.60499,0,0,0.2,-0,-0,0.66667
0.19028,0.88368,0.95142,0.57551,18.351,85.655,-1.4601,0.48671,-0.82228,-1.9469,-3.0236e-10,-0.41114,0,0,0.2,-0,-0,0.66667
0.005881,0.86649,0.029405,0.54974,18.176,117.18,-0.043107,0.014369,-0.9247,-0.057475,-4.0844e-08,-0.46235,0,0,0.2,-0,-2.5087e-16,0.66667
0.73494,0.94806,3.6747,0.67209,10.225,13.29,-6.586,2.1953,-0.3946,-8.7813,1.7106e-12,-0.1973,0,0,0.2,-1.8948e-15,0,0.66667
0.4435,0.12524,2.2175,-0.56214,-14.909,46.293,3.3242,-1.1081,-0.87696,4.4322,-4.2855e-13,-0.43848,0,0,0.2,-0,-0,0.66667
0.69784,0.71755,3.4892,0.32633,5.4261,15.989,-3.0363,1.0121,-1.6218,-4.0485,6.3591e-12,-0.81089,0,0,0.2,-0,-0,0.66667
0.18504,0.80562,0.92522,0.45842,14.59,86.482,-1.131,0.37701,-1.253,-1.5081,-7.1761e-10,-0.62652,0,0,0.2,1.1842e-16,0,0.66667
0.06262,0.48742,0.3131,-0.018872,-0.61561,107.33,0.015757,-0.0052526,-1.9995,0.02101,-2.7384e-07,-0.99976,0,0,0.2,-1.1842e-16,0,0.66667
0.37811,0.25503,1.8905,-0.36746,-10.335,55.615,1.8525,-0.61751,-1.5202,2.47,-2.307e-12,-0.76009,0,0,0.2,-9.4739e-16,0,0.66667
0.696,0.35236,3.48,-0.22147,-3.6883,16.071,2.0552,-0.68506,-1.8247,2.7403,-7.1718e-12,-0.91236,0,0,0.2,1.8948e-15,0,0.66667
0.10282,0.38054,0.51409,-0.17919,-5.8114,100.4,0.24566,-0.081885,-1.8853,0.32754,5.1399e-09,-0.94267,0,0,0.2,-2.3685e-16,0,0.66667
0.19583,0.081027,0.97917,-0.62846,-20.036,84.757,1.641,-0.54699,-0.59451,2.188,1.6648e-10,-0.29726,0,0,0.2,-2.3685e-16,0,0.66667
0.45395,0.55058,2.2698,0.07587,1.964,44.523,-0.45922,0.15307,-1.98,-0.61229,4.5797e-14,-0.99,0,0,0.2,-0,-0,0.66667
0.62115,0.86793,3.1057,0.5519,11.151,24.004,-4.5708,1.5236,-0.91678,-6.0945,-1.3052e-12,-0.45839,0,0,0.2,-9.4739e-16,0,0.66667
0.75012,0.59935,3.7506,0.14902,2.0888,11.347,-1.4905,0.49683,-1.9225,-1.9873,6.4316e-11,-0.96123,0,0,0.2,-0,-0,0.66667
0.10974,0.20433,0.54868,-0.44351,-14.437,99.249,0.64891,-0.2163,-1.3012,0.86521,5.3273e-09,-0.65062,0,0,0.2,-0,-0,0.66667
0.62462,0.058156,3.1231,-0.66277,-13.388,23.815,5.5197,-1.8399,-0.43968,7.3596,3.0731e-13,-0.21984,0,0,0.2,1.4211e-15,1.1339e-16,0.66667
0.38736,0.64797,1.9368,0.22195,6.1701,54.162,-1.1463,0.38211,-1.8247,-1.5284,1.4488e-12,-0.91233,0,0,0.2,-0,-0,0.66667
0.67009,0.59954,3.3505,0.1493,2.6584,18.515,-1.334,0.44465,-1.9214,-1.7786,1.6276e-13,-0.96069,0,0,0.2,-0,-0,0.66667
0.20356,0.092263,1.0178,-0.61161,-19.423,83.464,1.66,-0.55333,-0.67197,2.2133,1.8808e-10,-0.33598,0,0,0.2,5.9212e-17,0,0.66667
0.52792,0.88719,2.6396,0.58078,13.828,35.038,-4.0881,1.3627,-0.8002,-5.4508,-2.9354e-13,-0.4001,0,0,0.2,9.4739e-16,0,0.66667
0.17216,0.54261,0.86081,0.063922,2.0306,88.566,-0.14673,0.048911,-1.9862,-0.19564,-1.021e-10,-0.99312,0,0,0.2,-0,-0,0.66667
0.018681,0.21477,0.093405,-0.42784,-14.088,114.96,0.10657,-0.035523,-1.3496,0.14209,-9.0755e-09,-0.6748,0,0,0.2,3.7007e-17,0,0.66667
0.48695,0.3608,2.4348,-0.2088,-5.1973,40.049,1.3557,-0.4519,-1.8447,1.8076,-4.9105e-13,-0.92233,0,0,0.2,9.4739e-16,0,0.66667
0.18418,0.015697,0.92089,-0.72646,-23.368,86.757,1.784,-0.59465,-0.12303,2.3786,4.4995e-10,-0.061513,0,0,0.2,4.737e-16,-2.3684e-16,0.66667
0.63834,0.33396,3.1917,-0.24906,-4.7898,21.821,2.1198,-0.7066,-1.7795,2.8264,2.1396e-12,-0.88973,0,0,0.2,9.4739e-16,0,0.66667
0.53657,0.61863,2.6829,0.17794,4.1257,33.585,-1.273,0.42435,-1.887,-1.6974,-6.0829e-13,-0.94349,0,0,0.2,4.737e-16,0,0.66667
0.77495,0.14834,3.8747,-0.52749,-6.8682,9.8816,5.4504,-1.8168,-1.0099,7.2672,-9.8176e-11,-0.50496,0,0,0.2,4.737e-16,0,0.66667
0.39296,0.65092,1.9648,0.22637,6.2606,53.333,-1.1861,0.39536,-1.8183,-1.5814,1.0384e-12,-0.90914,0,0,0.2,7.1054e-16,0,0.66667
0.98945,0.018834,4.9473,-0.72175,-0.47372,1.2386,9.5218,-3.1739,-0.14692,12.696,-6.344e-06,-0.073462,0,0,0.2,-0,-0,0.66667
0.51521,0.15826,2.5761,-0.5126,-12.392,36.575,3.5213,-1.1738,-1.0676,4.6951,7.0988e-13,-0.53381,0,0,0.2,-1.8948e-15,-2.073e-16,0.66667
0.47882,0.23182,2.3941,-0.40227,-10.168,41.27,2.5682,-0.85607,-1.4236,3.4243,-3.1419e-13,-0.7118,0,0,0.2,9.4739e-16,0,0.66667
0.74944,0.96057,3.7472,0.69086,10.033,12.159,-6.9035,2.3012,-0.30387,-9.2046,-1.9522e-12,-0.15193,0,0,0.2,-4.737e-16,0,0.66667
0.57269,0.078966,2.8634,-0.63155,-14.04,29.632,4.8224,-1.6075,-0.58079,6.4299,-1.7764e-15,-0.2904,0,0,0.2,9.4739e-16,0,0.66667
0.36247,0.14557,1.8123,-0.53165,-15.239,58.089,2.5694,-0.85646,-0.99469,3.4259,-1.6329e-12,-0.49734,0,0,0.2,-0,-0,0.66667
0.48924,0.76299,2.4462,0.39448,9.8355,39.863,-2.5733,0.85777,-1.4458,-3.4311,7.3275e-14,-0.7229,0,0,0.2,-0,-0,0.66667
0.18914,0.049393,0.94569,-0.67591,-21.65,85.9,1.7045,-0.56818,-0.37569,2.2727,8.6502e-11,-0.18785,0,0,0.2,2.3685e-16,0,0.66667
0.39358,0.03785,1.9679,-0.69323,-19.469,53.617,3.6379,-1.2126,-0.29144,4.8505,-7.6472e-13,-0.14572,0,0,0.2,-9.4739e-16,0,0.66667
0.029962,0.78925,0.14981,0.43387,14.281,113,-0.17333,0.057776,-1.3313,-0.2311,5.2593e-08,-0.66563,0,0,0.2,-0,-0,0.66667
0.46253,0.54319,2.3126,0.064779,1.6599,43.332,-0.3995,0.13317,-1.984,-0.53266,-4.2358e-13,-0.99201,0,0,0.2,-0,-0,0.66667
0.27447,0.1732,1.3724,-0.49019,-14.945,71.8,1.7939,-0.59798,-1.1444,2.3919,1.4198e-11,-0.57222,0,0,0.2,-0,-0,0.66667
0.52672,0.24332,2.6336,-0.38502,-9.1081,34.969,2.704,-0.90132,-1.4726,3.6053,6.6325e-13,-0.73629,0,0,0.2,-0,-0,0.66667
0.029272,0.34476,0.14636,-0.23287,-7.6328,113.11,0.090886,-0.030295,-1.8086,0.12118,2.2357e-08,-0.90429,0,0,0.2,-0,-0,0.66667
0.55509,0.75952,2.7754,0.38928,8.812,31.437,-2.8811,0.96038,-1.4602,-3.8415,-6.2572e-13,-0.7301,0,0,0.2,-9.4739e-16,0,0.66667
0.293,0.15396,1.465,-0.51905,-15.659,68.859,2.0278,-0.67592,-1.0426,2.7037,3.1168e-12,-0.52129,0,0,0.2,-5.9212e-16,0,0.66667
0.57749,0.82766,2.8875,0.49149,10.756,28.865,-3.7844,1.2615,-1.1416,-5.0459,-1.0953e-12,-0.57079,0,0,0.2,9.4739e-16,0,0.66667
0.73277,0.38579,3.6638,-0.17131,-2.5495,12.782,1.6738,-0.55792,-1.8959,2.2317,-3.6727e-11,-0.94793,0,0,0.2,1.8948e-15,0,0.66667
0.44034,0.74866,2.2017,0.37299,9.8585,46.565,-2.1899,0.72996,-1.5064,-2.9199,7.7338e-13,-0.75318,0,0,0.2,-3.5527e-16,0,0.66667
0.66316,0.62919,3.3158,0.19379,3.5134,19.229,-1.7135,0.57118,-1.8662,-2.2847,-9.065e-13,-0.93308,0,0,0.2,-0,-0,0.66667
0.23891,0.21644,1.1945,-0.42534,-13.201,77.537,1.3549,-0.45164,-1.3571,1.8066,9.5284e-11,-0.67854,0,0,0.2,5.9212e-16,0,0.66667
0.9986,0.98727,4.993,0.7309,0.046772,1.1957,-9.7316,3.2439,-0.10071,-12.975,2.0764e-05,-0.050353,0,0,0.2,-1.8948e-15,0,0.66667
0.24288,0.21943,1.2144,-0.42085,-13.033,76.886,1.3629,-0.45429,-1.3706,1.8172,7.6389e-11,-0.68529,0,0,0.2,-0,-0,0.66667
0.94083,0.90488,4.7041,0.60732,2.2029,1.7623,-7.6184,2.5395,-0.68943,-10.158,-3.5021e-07,-0.34472,0,0,0.2,7.1054e-16,0,0.66667
0.21722,0.6298,1.0861,0.1947,6.0778,81.04,-0.56389,0.18796,-1.8661,-0.75186,-1.7279e-10,-0.93305,0,0,0.2,-4.737e-16,0,0.66667
0.49756,0.75145,2.4878,0.37717,9.2955,38.743,-2.5022,0.83408,-1.4953,-3.3363,1.1124e-13,-0.74765,0,0,0.2,-0,-0,0.66667
0.82118,0.56522,4.1059,0.097829,1.0059,6.2961,-1.0711,0.35704,-1.9659,-1.4282,2.9329e-11,-0.98296,0,0,0.2,-0,-0,0.66667
0.71659,0.62571,3.5829,0.18856,2.9548,14.186,-1.8016,0.60053,-1.875,-2.4021,1.9055e-11,-0.93748,0,0,0.2,1.8948e-15,0,0.66667
0.70558,0.075836,3.5279,-0.63625,-10.546,15.749,5.9856,-1.9952,-0.56042,7.9809,4.8939e-13,-0.28021,0,0,0.2,-0,-0,0.66667
0.44044,0.58317,2.2022,0.12475,3.2809,46.43,-0.7326,0.2442,-1.9444,-0.97679,3.9257e-13,-0.97219,0,0,0.2,4.737e-16,0,0.66667
0.75418,0.18171,3.7709,-0.47743,-6.6969,11.37,4.8009,-1.6003,-1.1894,6.4012,-6.4878e-11,-0.59471,0,0,0.2,1.4211e-15,0,0.66667
0.91995,0.63514,4.5998,0.20271,0.92882,1.6904,-2.4864,0.8288,-1.854,-3.3152,-2.5007e-09,-0.92701,0,0,0.2,1.8948e-15,0,0.66667
0.44135,0.94394,2.2068,0.66591,17.791,46.721,-3.9187,1.3062,-0.42319,-5.2249,1.4966e-13,-0.2116,0,0,0.2,-0,-0,0.66667
0.52797,0.39689,2.6398,-0.15466,-3.6319,34.665,1.0887,-0.36292,-1.9147,1.4517,4.9127e-13,-0.95733,0,0,0.2,-0,-0,0.66667
0.066036,0.1883,0.33018,-0.46756,-15.351,106.77,0.41167,-0.13722,-1.2236,0.5489,-1.024e-09,-0.61181,0,0,0.2,-0,-0,0.66667
0.39077,0.48207,1.9539,-0.026899,-0.74404,53.613,0.14015,-0.046717,-1.9982,0.18687,-5.4308e-13,-0.99909,0,0,0.2,-0,-0,0.66667
0.46724,0.66215,2.3362,0.24322,6.2104,42.74,-1.5152,0.50507,-1.7904,-2.0203,3.4817e-13,-0.8952,0,0,0.2,9.4739e-16,0,0.66667
0.89514,0.65452,4.4757,0.23177,1.413,2.6182,-2.7663,0.92209,-1.8095,-3.6883,-4.7266e-09,-0.90473,0,0,0.2,-2.2501e-15,0,0.66667
0.11056,0.3013,0.55279,-0.29806,-9.6674,99.082,0.43936,-0.14645,-1.6845,0.58582,1.5921e-09,-0.84224,0,0,0.2,1.1842e-16,0,0.66667
0.73114,0.51735,3.6557,0.026019,0.38851,12.874,-0.25364,0.084547,-1.9971,-0.33819,6.0473e-12,-0.99853,0,0,0.2,-0,-0,0.66667
0.54547,0.94781,2.7274,0.67172,15.651,32.982,-4.8854,1.6285,-0.39604,-6.5138,-4.4409e-16,-0.19802,0,0,0.2,-0,-0,0.66667
0.60654,0.59221,3.0327,0.13832,2.8365,25.231,-1.1186,0.37287,-1.9329,-1.4915,-1.3942e-12,-0.96647,0,0,0.2,-0,-0,0.66667
0.029783,0.4091,0.14891,-0.13635,-4.464,113.02,0.054145,-0.018048,-1.9351,0.072193,2.0107e-07,-0.96757,0,0,0.2,-0,-0,0.66667
0.14675,0.22104,0.73374,-0.41844,-13.48,92.93,0.81874,-0.27291,-1.3775,1.0917,1.4171e-09,-0.68876,0,0,0.2,-0,-0,0.66667
0.28398,0.21564,1.4199,-0.42655,-12.903,70.239,1.6151,-0.53836,-1.3538,2.1535,1.2739e-11,-0.6769,0,0,0.2,1.1842e-16,0,0.66667
0.004872,0.14516,0.02436,-0.53225,-17.587,117.35,0.034575,-0.011525,-0.99192,0.0461,1.2252e-07,-0.49596,0,0,0.2,-0,4.3372e-16,0.66667
0.66916,0.64221,3.3458,0.21332,3.8123,18.642,-1.9032,0.63441,-1.8378,-2.5377,-3.8425e-13,-0.91892,0,0,0.2,1.5495e-16,0,0.66667
0.87026,0.40426,4.3513,-0.14361,-1.0809,3.6431,1.6664,-0.55545,-1.927,2.2218,7.442e-10,-0.96352,0,0,0.2,2.3685e-16,0,0.66667
0.54697,0.56226,2.7348,0.093392,2.1281,32.26,-0.6811,0.22703,-1.9714,-0.90813,-6.9672e-13,-0.98569,0,0,0.2,5.9212e-17,0,0.66667
0.54316,0.57776,2.7158,0.11664,2.6746,32.739,-0.84475,0.28158,-1.9509,-1.1263,-2.1994e-13,-0.97547,0,0,0.2,-9.4739e-16,0,0.66667
0.61573,0.47887,3.0786,-0.031693,-0.63748,24.182,0.26019,-0.086731,-1.9955,0.34692,1.7572e-13,-0.99773,0,0,0.2,-0,-0,0.66667
0.30218,0.58409,1.5109,0.12614,3.7492,67.234,-0.50823,0.16941,-1.9426,-0.67764,-5.5546e-12,-0.97132,0,0,0.2,-2.3685e-16,0,0.66667
0.36673,0.30941,1.8337,-0.28588,-8.1053,57.281,1.3979,-0.46597,-1.7093,1.8639,-2.3085e-12,-0.85463,0,0,0.2,-1.2827e-16,0,0.66667
0.57494,0.057366,2.8747,-0.66395,-14.732,29.42,5.0898,-1.6966,-0.43284,6.7863,1.9895e-13,-0.21642,0,0,0.2,-9.4739e-16,0,0.66667
0.80922,0.8387,4.0461,0.50805,5.6851,7.4961,-5.4817,1.8272,-1.0825,-7.3089,3.4817e-10,-0.54124,0,0,0.2,1.4211e-15,0,0.66667
0.2016,0.013761,1.008,-0.72936,-23.301,83.861,1.9605,-0.65349,-0.10867,2.614,-1.6014e-10,-0.054333,0,0,0.2,-0,2.3348e-16,0.66667
0.32752,0.86471,1.6376,0.54707,16.13,63.457,-2.389,0.79634,-0.93657,-3.1854,1.8707e-12,-0.46829,0,0,0.2,-0,2.3491e-16,0.66667
0.74292,0.040584,3.7146,-0.68912,-10.23,12.676,6.8262,-2.2754,-0.31054,9.1016,-3.0727e-12,-0.15527,0,0,0.2,-0,-0,0.66667
0.34092,0.65421,1.7046,0.23131,6.6922,61.201,-1.0515,0.35049,-1.8106,-1.402,1.4481e-12,-0.90531,0,0,0.2,-5.9212e-17,0,0.66667
0.047611,0.94025,0.23805,0.66037,21.876,109.97,-0.41921,0.13974,-0.45103,-0.55895,3.3915e-07,-0.22551,0,0,0.2,1.1842e-16,0,0.66667
0.15636,0.26646,0.78178,-0.35032,-11.232,91.282,0.73033,-0.24344,-1.5644,0.97377,1.318e-09,-0.7822,0,0,0.2,-0,-0,0.66667
0.19386,0.58058,0.96932,0.12086,3.8087,84.921,-0.31242,0.10414,-1.9469,-0.41656,-2.4944e-10,-0.97346,0,0,0.2,-0,-0,0.66667
0.49511,0.78932,2.4756,0.43398,10.752,39.119,-2.8649,0.95498,-1.3298,-3.8199,-2.6645e-14,-0.66489,0,0,0.2,9.4739e-16,0,0.66667
0.63512,0.63286,3.1756,0.19929,3.8552,22.131,-1.6876,0.56254,-1.8581,-2.2502,-2.1168e-12,-0.92907,0,0,0.2,-0,-0,0.66667
0.88022,0.0020914,4.4011,-0.74686,-5.6031,4.2353,8.7654,-2.9218,-0.016955,11.687,-2.5558e-08,-0.0084773,0,0,0.2,-0,-0,0.66667
0.90254,0.40366,4.5127,-0.14451,-0.81203,2.264,1.739,-0.57966,-1.9263,2.3187,2.5621e-09,-0.96313,0,0,0.2,-9.4739e-16,0,0.66667
0.30716,0.062185,1.5358,-0.65672,-19.736,66.73,2.6896,-0.89653,-0.46714,3.5861,-3.0087e-13,-0.23357,0,0,0.2,5.4031e-16,0,0.66667
0.75338,0.33584,3.7669,-0.24625,-3.4212,11.152,2.4735,-0.82452,-1.7842,3.2981,-9.4199e-11,-0.89211,0,0,0.2,-0,-0,0.66667
0.28243,0.7144,1.4121,0.3216,9.7117,70.439,-1.211,0.40368,-1.6334,-1.6147,-2.1459e-11,-0.81669,0,0,0.2,4.737e-16,0,0.66667
0.36858,0.63641,1.8429,0.20461,5.7833,56.97,-1.0055,0.33518,-1.8501,-1.3407,1.7223e-12,-0.92504,0,0,0.2,-0,-0,0.66667
0.29273,0.73827,1.4636,0.3574,10.731,68.81,-1.395,0.46498,-1.5451,-1.8599,-1.0665e-11,-0.77256,0,0,0.2,-0,-0,0.66667
0.41369,0.29463,2.0685,-0.30806,-8.3618,50.336,1.6992,-0.5664,-1.6614,2.2656,-1.6597e-12,-0.83069,0,0,0.2,-0,-0,0.66667
0.21472,0.87385,1.0736,0.56078,17.687,81.588,-1.6054,0.53515,-0.88257,-2.1406,-1.9617e-10,-0.44129,0,0,0.2,5.3291e-16,0,0.66667
0.31899,0.42615,1.5949,-0.11077,-3.2534,64.582,0.47111,-0.15704,-1.9553,0.62815,1.4684e-12,-0.97766,0,0,0.2,-4.737e-16,0,0.66667
0.12192,0.71705,0.6096,0.32558,10.537,97.14,-0.52926,0.17642,-1.624,-0.70568,-2.4388e-09,-0.81198,0,0,0.2,-2.9606e-16,0,0.66667
0.96302,0.1153,4.8151,-0.57705,-1.259,1.1997,7.4095,-2.4698,-0.81518,9.8793,-7.2542e-08,-0.40759,0,0,0.2,-0,-0,0.66667
0.50398,0.67603,2.5199,0.26404,6.4309,37.817,-1.7743,0.59143,-1.7515,-2.3657,-2.9454e-13,-0.87574,0,0,0.2,4.737e-16,0,0.66667
0.9231,0.88493,4.6155,0.5774,2.7091,2.1889,-7.1067,2.3689,-0.81503,-9.4756,2.056e-09,-0.40751,0,0,0.2,-0,-0,0.66667
0.74616,0.9877,3.7308,0.73155,10.788,12.516,-7.278,2.426,-0.096554,-9.704,1.3456e-13,-0.048277,0,0,0.2,-1.8948e-15,0,0.66667
0.45771,0.88457,2.2885,0.57686,15.063,44.334,-3.5204,1.1735,-0.81617,-4.6939,8.149e-14,-0.40809,0,0,0.2,-0,-0,0.66667
0.75462,0.99464,3.7731,0.74197,10.639,11.876,-7.4654,2.4885,-0.042444,-9.9539,2.0349e-11,-0.021222,0,0,0.2,2.3416e-15,0,0.66667
0.62802,0.44552,3.1401,-0.081714,-1.6024,22.846,0.68424,-0.22808,-1.9762,0.91232,8.2218e-13,-0.98809,0,0,0.2,-0,-0,0.66667
0.30376,0.47262,1.5188,-0.041073,-1.2189,66.975,0.16635,-0.05545,-1.9938,0.2218,2.36e-12,-0.99688,0,0,0.2,-0,-0,0.66667
0.52166,0.73312,2.6083,0.34968,8.3244,35.584,-2.4322,0.81072,-1.5641,-3.2429,-4.4587e-13,-0.78206,0,0,0.2,9.4739e-16,0,0.66667
0.71231,0.97797,3.5616,0.71696,11.737,15.323,-6.8093,2.2698,-0.17142,-9.0791,1.5232e-13,-0.085712,0,0,0.2,-1.8948e-15,0,0.66667
0.30531,0.19038,1.5266,-0.46442,-13.871,66.874,1.8906,-0.6302,-1.233,2.5208,1.5257e-12,-0.6165,0,0,0.2,9.4739e-16,0,0.66667
0.012523,0.6668,0.062614,0.2502,8.2091,116.02,-0.041777,0.013926,-1.7771,-0.055703,-2.7735e-08,-0.88854,0,0,0.2,-0,-0,0.66667
0.26826,0.88778,1.3413,0.58167,17.858,72.858,-2.0805,0.69351,-0.79673,-2.774,-6.9698e-12,-0.39837,0,0,0.2,4.737e-16,0,0.66667
0.79675,0.20249,3.9837,-0.44626,-5.2643,8.2112,4.7407,-1.5802,-1.2926,6.321,-3.0685e-10,-0.64632,0,0,0.2,-0,-0,0.66667
0.92999,0.8512,4.65,0.52679,2.2169,1.8672,-6.5322,2.1774,-1.0125,-8.7096,2.6225e-08,-0.50626,0,0,0.2,-0,-0,0.66667
0.62533,0.44,3.1267,-0.089998,-1.7751,23.139,0.75038,-0.25013,-1.973,1.0005,8.7447e-13,-0.98651,0,0,0.2,-0,-0,0.66667
0.13281,0.95638,0.66404,0.68456,22.35,95.388,-1.2122,0.40407,-0.3326,-1.6163,2.2015e-09,-0.1663,0,0,0.2,2.3685e-16,0,0.66667
0.75757,0.0092579,3.7879,-0.73611,-10.439,11.633,7.4354,-2.4785,-0.072415,9.9139,-1.4198e-11,-0.036208,0,0,0.2,3.7896e-15,0,0.66667
0.52691,0.42966,2.6345,-0.10552,-2.4804,34.785,0.74129,-0.2471,-1.96,0.98839,-2.8394e-13,-0.98,0,0,0.2,-0,-0,0.66667
0.75387,0.1487,3.7693,-0.52696,-7.4269,11.477,5.2967,-1.7656,-1.0124,7.0623,-3.1044e-11,-0.50621,0,0,0.2,9.4739e-16,0,0.66667
0.85861,0.76819,4.2931,0.40229,3.3567,4.485,-4.6054,1.5351,-1.425,-6.1406,2.0861e-09,-0.71252,0,0,0.2,9.4739e-16,0,0.66667
0.94754,0.89185,4.7377,0.58778,1.8694,1.5497,-7.4259,2.4753,-0.77054,-9.9013,-1.0003e-07,-0.38527,0,0,0.2,1.8948e-15,0,0.66667
0.65454,0.021498,3.2727,-0.71775,-13.64,20.797,6.2639,-2.088,-0.16852,8.3519,3.0509e-13,-0.084262,0,0,0.2,-0,-0,0.66667
0.85426,0.1742,4.2713,-0.4887,-4.2382,4.8538,5.5663,-1.8554,-1.1499,7.4218,-1.3123e-09,-0.57494,0,0,0.2,-0,-0,0.66667
0.74259,0.27224,3.7129,-0.34164,-4.9502,12.112,3.3826,-1.1275,-1.5841,4.5101,-5.8909e-11,-0.79204,0,0,0.2,-9.4739e-16,0,0.66667
0.7271,0.47237,3.6355,-0.041443,-0.627,13.219,0.40177,-0.13392,-1.9937,0.5357,-8.9456e-12,-0.99683,0,0,0.2,-0,-0,0.66667
0.85879,0.72938,4.294,0.34407,2.8519,4.3931,-3.9397,1.3132,-1.5798,-5.253,1.8408e-09,-0.78988,0,0,0.2,-0,-0,0.66667
0.923,0.33756,4.615,-0.24366,-1.0754,1.6299,2.9986,-0.99953,-1.7898,3.9981,1.0712e-08,-0.89489,0,0,0.2,-0,-0,0.66667
0.90208,0.11229,4.5104,-0.58156,-3.4754,2.9176,6.9948,-2.3316,-0.79671,9.3265,-1.8893e-08,-0.39836,0,0,0.2,-0,-0,0.66667
0.39575,0.53705,1.9788,0.055571,1.53,52.879,-0.29323,0.097743,-1.9887,-0.39097,-1.969e-13,-0.99434,0,0,0.2,-0,-0,0.66667
0.084021,0.70793,0.42011,0.3119,10.173,103.65,-0.34942,0.11647,-1.6531,-0.46589,2.0914e-09,-0.82657,0,0,0.2,1.1842e-16,0,0.66667
0.82957,0.33773,4.1479,-0.24341,-2.4029,5.8822,2.6924,-0.89745,-1.7901,3.5898,-5.3958e-10,-0.89504,0,0,0.2,1.4211e-15,0,0.66667
0.53893,0.70795,2.6947,0.31193,7.2272,33.368,-2.2415,0.74715,-1.653,-2.9886,-2.6801e-13,-0.82648,0,0,0.2,-4.737e-16,0,0.66667
0.54208,0.18818,2.7104,-0.46772,-10.843,33.122,3.3806,-1.1269,-1.2228,4.5074,7.9226e-13,-0.61139,0,0,0.2,-0,-0,0.66667
0.82518,0.04348,4.1259,-0.68478,-7.217,6.8953,7.5342,-2.5114,-0.33234,10.046,-1.572e-11,-0.16617,0,0,0.2,-0,-0,0.66667
0.031984,0.64623,0.15992,0.21934,7.1868,112.64,-0.093538,0.031179,-1.8296,-0.12472,-1.6172e-08,-0.91479,0,0,0.2,2.9606e-17,0,0.66667
0.87796,0.85818,4.3898,0.53727,3.9519,3.8089,-6.2894,2.0965,-0.9732,-8.3858,5.3222e-09,-0.4866,0,0,0.2,1.8948e-15,0,0.66667
0.034634,0.10827,0.17317,-0.5876,-19.431,112.21,0.27135,-0.090449,-0.77177,0.3618,9.5288e-08,-0.38588,0,0,0.2,-0,-0,0.66667
0.69319,0.75452,3.466,0.38179,6.446,16.482,-3.5287,1.1762,-1.4815,-4.7049,3.4612e-12,-0.74075,0,0,0.2,-1.8948e-15,0,0.66667
0.58748,0.6131,2.9374,0.16966,3.6095,27.421,-1.3289,0.44298,-1.8966,-1.7719,-1.114e-12,-0.94829,0,0,0.2,-9.4739e-16,0,0.66667
0.64175,0.98961,3.2087,0.73441,14.381,22.143,-6.2841,2.0947,-0.082712,-8.3788,3.6549e-13,-0.041356,0,0,0.2,-1.8948e-15,0,0.66667
0.37408,0.89815,1.8704,0.59722,16.994,56.403,-2.9788,0.99293,-0.73255,-3.9717,1.0745e-12,-0.36627,0,0,0.2,-0,1.8192e-16,0.66667
0.27546,0.88701,1.3773,0.58051,17.746,71.7,-2.1321,0.7107,-0.80079,-2.8428,-4.8677e-12,-0.40039,0,0,0.2,-4.737e-16,0,0.66667
0.50941,0.79628,2.547,0.44442,10.802,37.252,-3.0186,1.0062,-1.2966,-4.0247,-1.4655e-13,-0.64829,0,0,0.2,-0,-0,0.66667
0.88582,0.53092,4.4291,0.046373,0.30588,2.903,-0.54771,0.18257,-1.993,-0.73028,3.2091e-09,-0.99652,0,0,0.2,6.5133e-16,0,0.66667
0.56529,0.80762,2.8264,0.46144,10.299,30.278,-3.4779,1.1593,-1.2433,-4.6373,-7.2964e-13,-0.62167,0,0,0.2,-9.4739e-16,0,0.66667
0.66315,0.6661,3.3157,0.24915,4.5234,19.265,-2.2029,0.73432,-1.7783,-2.9373,-1.5117e-12,-0.88915,0,0,0.2,-0,-0,0.66667
0.44138,0.72586,2.2069,0.33878,8.9355,46.394,-1.9938,0.66459,-1.5917,-2.6583,5.0449e-13,-0.79585,0,0,0.2,-0,-0,0.66667
0.97214,0.95255,4.8607,0.67883,1.1717,1.321,-8.7988,2.9329,-0.36099,-11.732,-5.0007e-06,-0.1805,0,0,0.2,-0,-0,0.66667
0.74252,0.69855,3.7126,0.29783,4.3078,12.071,-2.9486,0.98286,-1.6835,-3.9314,6.3126e-11,-0.84176,0,0,0.2,1.8948e-15,0,0.66667
0.3549,0.034236,1.7745,-0.69865,-20.301,59.399,3.306,-1.102,-0.26476,4.408,3.2996e-13,-0.13238,0,0,0.2,-0,-1.9374e-16,0.66667
0.65353,0.85951,3.2677,0.53926,10.146,20.573,-4.699,1.5663,-0.96566,-6.2653,-2.0433e-12,-0.48283,0,0,0.2,-7.7394e-16,0,0.66667
0.54262,0.68063,2.7131,0.27094,6.2349,32.879,-1.9602,0.65342,-1.7387,-2.6137,-4.3188e-13,-0.86935,0,0,0.2,-9.4739e-16,0,0.66667
0.88406,0.56841,4.4203,0.10262,0.68846,2.9959,-1.2096,0.4032,-1.962,-1.6128,-6.7136e-09,-0.98101,0,0,0.2,-0,-0,0.66667
0.27505,0.7112,1.3753,0.3168,9.6094,71.621,-1.1618,0.38728,-1.6424,-1.5491,-2.9432e-11,-0.82122,0,0,0.2,-2.3685e-16,0,0.66667
0.10807,0.49788,0.54034,-0.0031736,-0.1027,99.488,0.0045729,-0.0015242,-2.0014,0.0060972,5.7104e-08,-1.0007,0,0,0.2,3.8488e-16,0,0.66667
0.19127,0.27824,0.95636,-0.33264,-10.526,85.397,0.84833,-0.28278,-1.607,1.1311,5.2265e-10,-0.8035,0,0,0.2,2.9606e-16,0,0.66667
0.38705,0.027195,1.9352,-0.70921,-20.055,54.599,3.6599,-1.22,-0.21193,4.8799,-6.8567e-13,-0.10596,0,0,0.2,-0,-0,0.66667
0.85406,0.008419,4.2703,-0.73737,-6.6363,5.4427,8.3968,-2.7989,-0.066109,11.196,-1.8228e-09,-0.033054,0,0,0.2,3.7896e-15,0,0.66667
0.27084,0.34259,1.3542,-0.23611,-7.1689,72.272,0.85265,-0.28422,-1.8022,1.1369,3.6678e-11,-0.90111,0,0,0.2,-6.5133e-16,0,0.66667
0.62636,0.29184,3.1318,-0.31224,-6.1741,23.152,2.6076,-0.86921,-1.6537,3.4768,2.5633e-12,-0.82684,0,0,0.2,-0,-0,0.66667
0.62355,0.55158,3.1178,0.077368,1.5316,23.33,-0.64324,0.21441,-1.979,-0.85766,-1.0787e-12,-0.98949,0,0,0.2,9.4739e-16,0,0.66667
0.40805,0.34272,2.0402,-0.23591,-6.4304,51.121,1.2835,-0.42784,-1.8036,1.7114,-1.9378e-12,-0.90178,0,0,0.2,-2.3685e-16,0,0.66667
0.050335,0.80148,0.25168,0.45223,14.868,109.48,-0.3035,0.10117,-1.2724,-0.40467,1.3705e-08,-0.6362,0,0,0.2,-0,-0,0.66667
0.74483,0.34505,3.7242,-0.23243,-3.3268,11.825,2.3083,-0.76942,-1.8083,3.0777,-6.5635e-11,-0.90417,0,0,0.2,-0,-0,0.66667
0.29573,0.0011921,1.4786,-0.74821,-22.757,68.617,2.9502,-0.9834,-0.011216,3.9336,-7.1787e-13,-0.0056079,0,0,0.2,-0,-0,0.66667
0.39846,0.50377,1.9923,0.0056558,0.15529,52.477,-0.030048,0.010016,-1.9996,-0.040064,-2.4551e-13,-0.99981,0,0,0.2,-0,-0,0.66667
0.37724,0.090199,1.8862,-0.6147,-17.456,55.948,3.0919,-1.0306,-0.65732,4.1225,-5.7754e-13,-0.32866,0,0,0.2,-1.1842e-16,0,0.66667
0.6636,0.65591,3.318,0.23387,4.2396,19.209,-2.0693,0.68977,-1.8059,-2.7591,-1.2774e-12,-0.90296,0,0,0.2,-5.9212e-17,0,0.66667
0.086333,0.94906,0.43167,0.67359,22.21,103.32,-0.77538,0.25846,-0.38562,-1.0338,-1.5339e-08,-0.19281,0,0,0.2,-0,-0,0.66667
0.54989,0.84911,2.7494,0.52366,12.021,32.224,-3.8394,1.2798,-1.0252,-5.1192,-3.5683e-13,-0.51262,0,0,0.2,-0,-0,0.66667
0.015422,0.066782,0.077109,-0.64983,-21.561,115.53,0.13362,-0.04454,-0.50016,0.17816,-1.2162e-06,-0.25008,0,0,0.2,5.9212e-17,0,0.66667
0.98304,0.22499,4.9152,-0.41252,-0.29466,0.53956,5.4069,-1.8023,-1.3957,7.2092,-1.3449e-09,-0.69786,0,0,0.2,-0,-0,0.66667
0.59843,0.68225,2.9921,0.27337,5.7108,26.223,-2.1812,0.72707,-1.7341,-2.9083,-2.184e-12,-0.86706,0,0,0.2,4.737e-16,0,0.66667
0.38411,0.18432,1.9206,-0.47351,-13.289,54.795,2.4251,-0.80837,-1.2027,3.2335,-1.8179e-12,-0.60134,0,0,0.2,5.9212e-16,0,0.66667
0.14675,0.18052,0.73374,-0.47922,-15.465,92.947,0.93766,-0.31255,-1.1828,1.2502,1.8475e-09,-0.59142,0,0,0.2,1.1842e-16,0,0.66667
0.69688,0.70564,3.4844,0.30847,5.1393,16.061,-2.8662,0.9554,-1.6606,-3.8216,6.1695e-12,-0.83028,0,0,0.2,9.4739e-16,0,0.66667
0.90581,0.105,4.529,-0.5925,-3.4154,2.8061,7.1559,-2.3853,-0.75249,9.5412,6.6941e-09,-0.37625,0,0,0.2,-0,-0,0.66667
0.31811,0.035867,1.5905,-0.6962,-20.802,65.054,2.9529,-0.9843,-0.27641,3.9372,-5.953e-13,-0.1382,0,0,0.2,9.4739e-16,0,0.66667
0.76649,0.77633,3.8325,0.41449,5.5312,10.327,-4.2361,1.412,-1.3903,-5.6481,1.3151e-10,-0.69515,0,0,0.2,-0,-0,0.66667
0.2875,0.49678,1.4375,-0.0048277,-0.1448,69.562,0.018506,-0.0061687,-1.9998,0.024675,-3.2943e-13,-0.99991,0,0,0.2,8.2897e-16,0,0.66667
0.95723,0.087171,4.7861,-0.61924,-1.6131,1.4193,7.9034,-2.6345,-0.63636,10.538,-5.1381e-07,-0.31818,0,0,0.2,9.4739e-16,0,0.66667
0.70232,0.87702,3.5116,0.56552,9.4104,15.912,-5.2957,1.7652,-0.86455,-7.0609,-4.2455e-13,-0.43228,0,0,0.2,1.8948e-15,5.7191e-17,0.66667
0.62502,0.99442,3.1251,0.74162,15.054,23.926,-6.1803,2.0601,-0.045915,-8.2405,4.0368e-13,-0.022957,0,0,0.2,-0,-0,0.66667
0.93073,0.56922,4.6537,0.10383,0.40342,1.2941,-1.2885,0.42948,-1.961,-1.7179,7.5773e-08,-0.98051,0,0,0.2,-0,-0,0.66667
0.26904,0.060942,1.3452,-0.65859,-20.276,72.79,2.3625,-0.7875,-0.4586,3.15,1.6298e-12,-0.2293,0,0,0.2,-5.3291e-16,0,0.66667
0.92362,0.47562,4.6181,-0.036571,-0.15784,1.4915,0.45037,-0.15012,-1.9958,0.60049,7.3473e-08,-0.99788,0,0,0.2,-0,-0,0.66667
0.67808,0.036546,3.3904,-0.69518,-12.461,18.427,6.2852,-2.0951,-0.28127,8.3803,3.5261e-13,-0.14063,0,0,0.2,-0,-0,0.66667
0.77136,0.4331,3.8568,-0.10035,-1.2972,9.6853,1.0321,-0.34403,-1.964,1.3761,-1.021e-10,-0.98199,0,0,0.2,-4.737e-16,0,0.66667
0.57164,0.27649,2.8582,-0.33526,-7.3671,29.393,2.5553,-0.85176,-1.6,3.407,1.287e-12,-0.8,0,0,0.2,-1.1842e-15,0,0.66667
0.8339,0.78749,4.1695,0.43123,4.2101,5.8645,-4.7947,1.5982,-1.3383,-6.393,1.1653e-09,-0.66916,0,0,0.2,-0,-0,0.66667
0.69828,0.39135,3.4914,-0.16297,-2.693,15.825,1.5173,-0.50577,-1.9046,2.0231,-7.2893e-12,-0.95231,0,0,0.2,9.4739e-16,0,0.66667
0.14661,0.36408,0.73304,-0.20388,-6.5396,92.91,0.39853,-0.13284,-1.8512,0.53138,3.8284e-10,-0.92562,0,0,0.2,-0,-0,0.66667
0.61246,0.20542,3.0623,-0.44187,-9.0358,24.808,3.6084,-1.2028,-1.3053,4.8112,1.9234e-12,-0.65265,0,0,0.2,9.4739e-16,0,0.66667
0.27932,0.22966,1.3966,-0.40551,-12.295,70.975,1.5102,-0.50341,-1.4154,2.0136,1.8252e-11,-0.70769,0,0,0.2,-0,-0,0.66667
0.91588,0.58691,4.5794,0.13036,0.6266,1.7768,-1.592,0.53065,-1.939,-2.1226,3.477e-09,-0.96949,0,0,0.2,5.4231e-16,0,0.66667
0.19823,0.49436,0.99116,-0.008458,-0.26592,84.184,0.022355,-0.0074518,-1.9995,0.029807,2.1526e-10,-0.99974,0,0,0.2,-0,-0,0.66667
0.28572,0.16717,1.4286,-0.49924,-15.121,70.005,1.9019,-0.63396,-1.1131,2.5358,6.6347e-12,-0.55655,0,0,0.2,4.737e-16,0,0.66667
0.047655,0.83148,0.23827,0.49722,16.374,109.95,-0.31593,0.10531,-1.1214,-0.42124,2.599e-08,-0.56072,0,0,0.2,-5.9212e-17,0,0.66667
0.44758,0.19944,2.2379,-0.45084,-11.85,45.611,2.6905,-0.89683,-1.2763,3.5873,-1.1373e-12,-0.63816,0,0,0.2,9.4739e-16,0,0.66667
0.55759,0.7771,2.7879,0.41565,9.3794,31.159,-3.0901,1.03,-1.3857,-4.1202,-9.6234e-13,-0.69284,0,0,0.2,1.5144e-15,0,0.66667
0.57356,0.51667,2.8678,0.024998,0.54459,29.022,-0.19117,0.063725,-1.9969,-0.2549,-7.9806e-13,-0.99844,0,0,0.2,1.8948e-15,0,0.66667
0.90538,0.20224,4.5269,-0.44664,-2.5161,2.5168,5.3917,-1.7972,-1.2911,7.189,-6.2223e-09,-0.64553,0,0,0.2,-1.8948e-15,0,0.66667
0.34741,0.90464,1.7371,0.60696,17.668,60.445,-2.8115,0.93718,-0.69084,-3.7487,1.5086e-12,-0.34542,0,0,0.2,-6.5133e-16,0,0.66667
0.44753,0.45731,2.2376,-0.06404,-1.67,45.42,0.38213,-0.12738,-1.9845,0.5095,-5.8897e-13,-0.99223,0,0,0.2,-0,-0,0.66667
0.85124,0.61128,4.2562,0.16691,1.4397,4.6119,-1.8944,0.63148,-1.8997,-2.5259,9.0126e-10,-0.94986,0,0,0.2,-9.4739e-16,0,0.66667
0.57683,0.091069,2.8841,-0.6134,-13.525,29.115,4.7177,-1.5726,-0.66355,6.2902,4.5741e-14,-0.33177,0,0,0.2,1.1842e-16,0,0.66667
0.65399,0.08345,3.27,-0.62483,-11.808,20.67,5.4484,-1.8161,-0.61186,7.2646,1.1289e-12,-0.30593,0,0,0.2,9.4739e-16,-2.0934e-16,0.66667
0.27836,0.55505,1.3918,0.082573,2.4916,71.032,-0.30647,0.10216,-1.9758,-0.40862,-1.1613e-11,-0.98789,0,0,0.2,-0,-0,0.66667
0.48747,0.0074161,2.4374,-0.73888,-18.764,40.523,4.8024,-1.6008,-0.058854,6.4032,4.8406e-13,-0.029427,0,0,0.2,-1.8948e-15,0,0.66667
0.62095,0.24362,3.1048,-0.38457,-7.7108,23.81,3.184,-1.0613,-1.474,4.2453,2.6374e-12,-0.73699,0,0,0.2,-9.4739e-16,0,0.66667
0.13339,0.17423,0.66697,-0.48866,-15.835,95.22,0.86913,-0.28971,-1.1498,1.1588,3.4335e-09,-0.57489,0,0,0.2,-0,-0,0.66667
0.032909,0.9427,0.16454,0.66404,22.027,112.51,-0.29137,0.097124,-0.43294,-0.3885,-3.5665e-07,-0.21647,0,0,0.2,-0,-0,0.66667
0.11341,0.72853,0.56706,0.3428,11.121,98.6,-0.51836,0.17279,-1.5817,-0.69115,-2.8744e-09,-0.79083,0,0,0.2,-0,-0,0.66667
0.47746,0.4321,2.3873,-0.10185,-2.5627,41.294,0.64839,-0.21613,-1.9626,0.86452,-5.9186e-13,-0.98131,0,0,0.2,-0,-0,0.66667
0.024027,0.41009,0.12013,-0.13487,-4.4168,114.02,0.043205,-0.014402,-1.9351,0.057606,1.3875e-07,-0.96753,0,0,0.2,-0,-0,0.66667
0.62621,0.93658,3.131,0.65487,13.178,23.63,-5.4678,1.8226,-0.47692,-7.2904,-5.3602e-13,-0.23846,0,0,0.2,1.125e-15,0,0.66667
0.097583,0.47113,0.48791,-0.043299,-1.4044,101.29,0.056337,-0.018779,-1.9938,0.075116,4.076e-09,-0.99692,0,0,0.2,-0,-0,0.66667
0.25096,0.46193,1.2548,-0.057099,-1.7503,75.47,0.19106,-0.063687,-1.9893,0.25475,2.5685e-11,-0.99463,0,0,0.2,2.3685e-16,0,0.66667
0.42649,0.58072,2.1325,0.12108,3.2332,48.415,-0.68855,0.22952,-1.947,-0.91807,4.6768e-13,-0.97351,0,0,0.2,-0,-0,0.66667
0.11583,0.15506,0.57913,-0.51741,-16.857,98.225,0.79906,-0.26635,-1.0484,1.0654,-8.0621e-10,-0.52421,0,0,0.2,-2.9606e-16,0,0.66667
0.27055,0.64958,1.3528,0.22436,6.8122,72.316,-0.80936,0.26979,-1.8206,-1.0791,-3.5768e-11,-0.9103,0,0,0.2,1.602e-16,0,0.66667
0.02108,0.41103,0.1054,-0.13346,-4.3714,114.53,0.037511,-0.012504,-1.9364,0.050014,3.1361e-08,-0.96821,0,0,0.2,-0,-0,0.66667
0.98505,0.91164,4.9252,0.61746,0.49491,0.97756,-8.1096,2.7032,-0.64562,-10.813,5.7912e-07,-0.32281,0,0,0.2,-0,-0,0.66667
0.61157,0.91266,3.0579,0.61899,12.801,25.162,-5.0474,1.6825,-0.63811,-6.7299,-6.6125e-13,-0.31905,0,0,0.2,-0,-0,0.66667
0.37835,0.31733,1.8918,-0.27401,-7.6877,55.528,1.3823,-0.46077,-1.7333,1.8431,-2.3181e-12,-0.86664,0,0,0.2,-0,-0,0.66667
0.026528,0.47707,0.13264,-0.034398,-1.1258,113.59,0.012167,-0.0040558,-1.9952,0.016222,-2.5361e-07,-0.99762,0,0,0.2,-0,-0,0.66667
0.38984,0.1005,1.9492,-0.59925,-16.813,54.062,3.1148,-1.0383,-0.72414,4.1531,-9.5279e-13,-0.36207,0,0,0.2,-0,-1.6041e-16,0.66667
0.45256,0.60277,2.2628,0.15416,4.0001,44.736,-0.93021,0.31007,-1.9163,-1.2403,5.2791e-14,-0.95816,0,0,0.2,-0,-0,0.66667
0.931,0.20014,4.655,-0.44978,-1.8295,1.6825,5.5833,-1.8611,-1.2796,7.4445,3.9708e-09,-0.63978,0,0,0.2,-0,-0,0.66667
0.2785,0.23484,1.3925,-0.39774,-12.063,71.102,1.477,-0.49232,-1.4371,1.9693,1.9991e-11,-0.71857,0,0,0.2,-0,-0,0.66667
0.61478,0.45624,3.0739,-0.065639,-1.323,24.291,0.53805,-0.17935,-1.9837,0.7174,5.2575e-13,-0.99185,0,0,0.2,-0,-0,0.66667
0.66517,0.4662,3.3258,-0.050705,-0.9129,18.975,0.4497,-0.1499,-1.9908,0.59959,-1.6959e-13,-0.99542,0,0,0.2,4.737e-16,0,0.66667
0.18596,0.22814,0.9298,-0.40778,-12.955,86.31,1.0111,-0.33703,-1.4091,1.3481,5.1698e-10,-0.70455,0,0,0.2,-0,-0,0.66667
0.50576,0.12311,2.5288,-0.56534,-13.882,37.865,3.8124,-1.2708,-0.86383,5.0831,-6.4837e-14,-0.43192,0,0,0.2,-3.5527e-16,0,0.66667
0.7865,0.58694,3.9325,0.13041,1.5843,8.5983,-1.3676,0.45587,-1.939,-1.8235,1.9477e-10,-0.96952,0,0,0.2,4.737e-16,0,0.66667
0.096579,0.3125,0.4829,-0.28125,-9.1465,101.48,0.36217,-0.12072,-1.72,0.48289,1.0032e-10,-0.86002,0,0,0.2,-0,-0,0.66667
0.60604,0.021674,3.0302,-0.71749,-15.097,25.955,5.7976,-1.9325,-0.16931,7.7302,9.4591e-14,-0.084656,0,0,0.2,-0,2.0135e-16,0.66667
0.02606,0.10322,0.1303,-0.59518,-19.697,113.69,0.2068,-0.068935,-0.73974,0.27574,-1.1254e-06,-0.36987,0,0,0.2,-5.9212e-17,0,0.66667
0.0070467,0.81731,0.035234,0.47597,15.699,116.97,-0.04472,0.014907,-1.1941,-0.059627,-1.0734e-07,-0.59705,0,0,0.2,-0,-0,0.66667
0.059529,0.029081,0.29764,-0.70638,-23.416,107.93,0.56066,-0.18689,-0.22669,0.74755,-2.2289e-06,-0.11334,0,0,0.2,2.9606e-17,0,0.66667
0.4814,0.75066,2.407,0.376,9.4645,40.9,-2.4134,0.80447,-1.4984,-3.2179,-2.1783e-13,-0.74922,0,0,0.2,1.8948e-15,0,0.66667
0.9257,0.30437,4.6285,-0.29345,-1.2545,1.6006,3.622,-1.2073,-1.6935,4.8293,2.7058e-10,-0.84675,0,0,0.2,-0,-0,0.66667
0.40556,0.40507,2.0278,-0.1424,-3.8858,51.453,0.77001,-0.25667,-1.9298,1.0267,-1.3661e-12,-0.9649,0,0,0.2,4.737e-16,0,0.66667
0.075033,0.5209,0.37516,0.031349,1.0208,105.18,-0.031363,0.010454,-1.9962,-0.041817,-8.51e-09,-0.9981,0,0,0.2,-1.1842e-16,0,0.66667
0.86135,0.6872,4.3068,0.2808,2.2747,4.1888,-3.2249,1.075,-1.7212,-4.2999,2.1233e-09,-0.86059,0,0,0.2,-7.1054e-16,0,0.66667
0.5193,0.30955,2.5965,-0.28568,-6.8123,35.841,1.9781,-0.65935,-1.7103,2.6374,6.0507e-14,-0.85513,0,0,0.2,1.1842e-16,0,0.66667
0.31894,0.62751,1.5947,0.19127,5.6228,64.608,-0.81336,0.27112,-1.8699,-1.0845,-2.0456e-12,-0.93497,0,0,0.2,9.4739e-16,0,0.66667
0.96303,0.80991,4.8152,0.46486,0.95748,0.94927,-5.969,1.9897,-1.2318,-7.9586,-7.5772e-08,-0.61588,0,0,0.2,2.1316e-15,0,0.66667
0.93826,0.4091,4.6913,-0.13635,-0.46697,1.0983,1.7058,-0.56859,-1.9354,2.2744,-8.5381e-08,-0.96772,0,0,0.2,-0,-0,0.66667
0.26002,0.97233,1.3001,0.7085,21.975,74.283,-2.4563,0.81877,-0.21515,-3.2751,-3.493e-12,-0.10757,0,0,0.2,-0,-0,0.66667
0.20139,0.64727,1.007,0.22091,6.9472,83.678,-0.59318,0.19773,-1.8268,-0.79091,-3.0667e-10,-0.91339,0,0,0.2,-0,-0,0.66667
0.58891,0.78847,2.9445,0.4327,9.2528,27.463,-3.3976,1.1325,-1.3338,-4.5302,-1.2379e-12,-0.66691,0,0,0.2,-0,-0,0.66667
0.84252,0.0061131,4.2126,-0.74083,-7.1549,6.0595,8.3222,-2.7741,-0.049435,11.096,-8.0283e-10,-0.024717,0,0,0.2,-0,-0,0.66667
0.33672,0.21691,1.6836,-0.42464,-12.381,61.945,1.9065,-0.63549,-1.359,2.5419,-2.8403e-12,-0.67949,0,0,0.2,6.5133e-16,0,0.66667
0.58643,0.57577,2.9321,0.11366,2.421,27.523,-0.88872,0.29624,-1.9529,-1.185,-6.7801e-13,-0.97643,0,0,0.2,-9.4739e-16,0,0.66667
0.16224,0.9534,0.81122,0.6801,22.003,90.408,-1.4712,0.49041,-0.35429,-1.9617,3.0234e-10,-0.17714,0,0,0.2,-0,-0,0.66667
0.19459,0.060445,0.97297,-0.65933,-21.058,84.981,1.7107,-0.57023,-0.45439,2.2809,-6.5934e-12,-0.22719,0,0,0.2,3.5527e-16,0,0.66667
0.76134,0.9671,3.8067,0.70065,9.7656,11.259,-7.1124,2.3708,-0.25509,-9.4831,2.5979e-13,-0.12755,0,0,0.2,1.1842e-16,0,0.66667
0.1501,0.4822,0.75049,-0.026707,-0.85461,92.303,0.053448,-0.017816,-1.9963,0.071264,-3.556e-10,-0.99817,0,0,0.2,2.3685e-16,0,0.66667
0.26591,0.28937,1.3295,-0.31595,-9.6354,73.097,1.1202,-0.37339,-1.6461,1.4936,4.4829e-11,-0.82305,0,0,0.2,-0,-0,0.66667
0.68949,0.45338,3.4475,-0.06993,-1.1824,16.613,0.64289,-0.2143,-1.9825,0.85718,-2.1345e-12,-0.99125,0,0,0.2,-0,-0,0.66667
0.015089,0.70277,0.075447,0.30415,9.9879,115.58,-0.061193,0.020398,-1.6716,-0.081591,-3.0762e-09,-0.8358,0,0,0.2,-2.9606e-17,0,0.66667
0.032194,0.21036,0.16097,-0.43446,-14.299,112.62,0.1865,-0.062166,-1.3296,0.24866,-5.115e-08,-0.66478,0,0,0.2,-0,-0,0.66667
0.28753,0.13666,1.4376,-0.54502,-16.515,69.747,2.0894,-0.69647,-0.94278,2.7859,2.6827e-12,-0.47139,0,0,0.2,4.737e-16,0,0.66667
0.33662,0.26819,1.6831,-0.34771,-10.118,61.916,1.5606,-0.52021,-1.5689,2.0808,-2.283e-12,-0.78447,0,0,0.2,-0,-0,0.66667
0.36222,0.8167,1.8111,0.47505,13.591,58.081,-2.2943,0.76476,-1.1981,-3.059,2.3117e-12,-0.59905,0,0,0.2,-0,-0,0.66667
0.80719,0.88738,4.036,0.58106,6.6134,7.7691,-6.2537,2.0846,-0.79855,-8.3383,1.8703e-10,-0.39928,0,0,0.2,-0,-0,0.66667
0.035981,0.10633,0.1799,-0.59051,-19.527,111.97,0.2833,-0.094432,-0.75929,0.37773,2.2684e-07,-0.37965,0,0,0.2,-0,-0,0.66667
0.3584,0.41538,1.792,-0.12693,-3.6157,58.494,0.60656,-0.20219,-1.9433,0.80875,-1.4554e-12,-0.97166,0,0,0.2,9.4739e-16,0,0.66667
0.63828,0.69615,3.1914,0.29422,5.6667,21.863,-2.504,0.83465,-1.6923,-3.3386,-2.6976e-12,-0.84615,0,0,0.2,-0,-0,0.66667
0.143,0.43995,0.71502,-0.09007,-2.8892,93.512,0.17174,-0.057246,-1.9721,0.22898,1.5052e-09,-0.98605,0,0,0.2,4.737e-16,0,0.66667
0.85774,0.92906,4.2887,0.64359,5.5708,5.0103,-7.3605,2.4535,-0.52763,-9.814,-8.1449e-10,-0.26381,0,0,0.2,-0,-1.8673e-16,0.66667
0.64556,0.89482,3.2278,0.59223,11.384,21.478,-5.0976,1.6992,-0.75209,-6.7968,-1.362e-12,-0.37604,0,0,0.2,-0,-0,0.66667
0.11529,0.65348,0.57647,0.23022,7.4503,98.261,-0.3539,0.11797,-1.8116,-0.47187,-1.993e-09,-0.90579,0,0,0.2,1.4803e-16,0,0.66667
0.2081,0.95595,1.0405,0.68393,21.743,82.754,-1.8977,0.63255,-0.33593,-2.5302,-2.49e-11,-0.16796,0,0,0.2,-0,-0,0.66667
0.7455,0.23223,3.7275,-0.40166,-5.7806,11.949,3.9925,-1.3308,-1.4255,5.3233,-5.8669e-11,-0.71277,0,0,0.2,-0,-0,0.66667
0.40341,0.77653,2.017,0.41479,11.408,51.904,-2.2311,0.74369,-1.3887,-2.9748,1.6149e-12,-0.69433,0,0,0.2,2.3886e-16,0,0.66667
0.48447,0.70486,2.4224,0.30728,7.6895,40.437,-1.9849,0.66164,-1.665,-2.6466,3.1997e-13,-0.83252,0,0,0.2,-0,-0,0.66667
0.88746,0.48642,4.4373,-0.020371,-0.13237,2.8299,0.24105,-0.080349,-1.998,0.3214,-5.9539e-11,-0.99901,0,0,0.2,9.4739e-16,0,0.66667
0.13744,0.35178,0.68722,-0.22233,-7.1528,94.473,0.40744,-0.13581,-1.8241,0.54326,4.57e-10,-0.91206,0,0,0.2,-0,-0,0.66667
0.96437,0.15595,4.8219,-0.51608,-1.0454,1.0322,6.6359,-2.212,-1.0538,8.8479,2.8001e-08,-0.5269,0,0,0.2,1.954e-15,0,0.66667
0.04263,0.63231,0.21315,0.19847,6.4959,110.8,-0.11281,0.037603,-1.8596,-0.15041,-5.0693e-08,-0.9298,0,0,0.2,-0,-0,0.66667
0.09944,0.69079,0.4972,0.28618,9.3023,100.99,-0.37944,0.12648,-1.7088,-0.50592,-2.1016e-09,-0.85439,0,0,0.2,-0,-0,0.66667
0.22324,0.15437,1.1162,-0.51845,-16.262,80.158,1.5432,-0.51439,-1.0448,2.0576,1.0619e-10,-0.52238,0,0,0.2,-1.1842e-16,0,0.66667
0.80659,0.14196,4.0329,-0.53706,-6.1026,7.7199,5.7758,-1.9253,-0.97336,7.701,-2.3421e-10,-0.48668,0,0,0.2,-9.4739e-16,0,0.66667
0.45587,0.70461,2.2794,0.30691,7.9553,44.345,-1.8655,0.62184,-1.6647,-2.4874,3.8214e-13,-0.83235,0,0,0.2,-0,-0,0.66667
0.65325,0.76015,3.2663,0.39022,7.2907,20.4,-3.3989,1.133,-1.4583,-4.5318,-2.8162e-12,-0.72916,0,0,0.2,-0,-0,0.66667
0.17432,0.64782,0.87161,0.22173,7.0482,88.219,-0.51535,0.17178,-1.8253,-0.68714,-5.6279e-10,-0.91264,0,0,0.2,1.1842e-16,0,0.66667
0.16672,0.18163,0.83361,-0.47756,-15.311,89.568,1.0616,-0.35387,-1.1888,1.4155,5.6521e-10,-0.59438,0,0,0.2,9.8719e-17,0,0.66667
0.52085,0.11611,2.6042,-0.57583,-13.849,35.931,3.9989,-1.333,-0.82035,5.3319,-1.1036e-13,-0.41017,0,0,0.2,-0,-0,0.66667
0.74029,0.50936,3.7015,0.014033,0.20322,12.108,-0.13851,0.04617,-1.9984,-0.18468,8.6514e-12,-0.99922,0,0,0.2,-0,-0,0.66667
0.46247,0.45731,2.3124,-0.064035,-1.6409,43.339,0.39486,-0.13162,-1.9844,0.52648,-3.8974e-13,-0.99219,0,0,0.2,4.737e-16,0,0.66667
0.86961,0.95095,4.3481,0.67642,5.4228,4.518,-7.843,2.6143,-0.37214,-10.457,-1.0175e-09,-0.18607,0,0,0.2,-0,-0,0.66667
0.66041,0.42284,3.3021,-0.11573,-2.1093,19.469,1.0191,-0.3397,-1.9516,1.3588,4.2377e-13,-0.97579,0,0,0.2,-0,-0,0.66667
0.24909,0.48536,1.2455,-0.021962,-0.67385,75.774,0.072941,-0.024314,-1.9986,0.097255,5.9976e-12,-0.99932,0,0,0.2,-4.737e-16,0,0.66667
0.2349,0.11236,1.1745,-0.58147,-18.177,78.277,1.8212,-0.60706,-0.79844,2.4282,2.8857e-11,-0.39922,0,0,0.2,-2.3685e-16,0,0.66667
0.37405,0.95986,1.8702,0.6898,19.714,56.507,-3.4402,1.1467,-0.30884,-4.5869,1.7808e-13,-0.15442,0,0,0.2,4.737e-16,0,0.66667
0.75662,0.29089,3.7831,-0.31367,-4.3191,10.961,3.1644,-1.0548,-1.6492,4.2191,-1.0161e-10,-0.82461,0,0,0.2,-1.8948e-15,0,0.66667
0.93794,0.59003,4.6897,0.13505,0.46519,1.1063,-1.6889,0.56295,-1.9367,-2.2518,7.6736e-08,-0.96836,0,0,0.2,2.3685e-15,0,0.66667
0.86191,0.86889,4.3095,0.55334,4.5953,4.5966,-6.359,2.1197,-0.91167,-8.4787,-3.3172e-09,-0.45584,0,0,0.2,-0,-0,0.66667
0.26161,0.10899,1.3081,-0.58651,-18.079,73.934,2.0458,-0.68194,-0.77614,2.7278,8.7161e-12,-0.38807,0,0,0.2,-4.737e-16,0,0.66667
0.41228,0.82737,2.0614,0.49105,13.422,50.675,-2.6993,0.89977,-1.1415,-3.5991,7.5917e-13,-0.57076,0,0,0.2,-0,-0,0.66667
0.61154,0.33883,3.0577,-0.24176,-4.9185,24.724,1.9713,-0.6571,-1.7928,2.6284,2.0516e-12,-0.8964,0,0,0.2,2.3685e-16,0,0.66667
0.54683,0.62379,2.7342,0.18569,4.2372,32.308,-1.3539,0.4513,-1.8796,-1.8052,-8.2645e-13,-0.93981,0,0,0.2,-2.3685e-16,0,0.66667
0.38927,0.98299,1.9464,0.72448,20.462,54.289,-3.7603,1.2534,-0.13393,-5.0137,3.6637e-13,-0.066966,0,0,0.2,-9.4739e-16,0,0.66667
0.10142,0.62979,0.5071,0.19469,6.3171,100.64,-0.26328,0.087759,-1.8648,-0.35104,-7.8983e-09,-0.9324,0,0,0.2,-0,-0,0.66667
0.71224,0.91716,3.5612,0.62575,10.166,15.135,-5.9425,1.9808,-0.60676,-7.9233,3.042e-13,-0.30338,0,0,0.2,-0,-0,0.66667
0.088135,0.25882,0.44068,-0.36176,-11.803,102.94,0.42512,-0.14171,-1.5339,0.56683,2.8872e-09,-0.76695,0,0,0.2,-0,-0,0.66667
0.86608,0.13337,4.3304,-0.54994,-4.4329,4.3865,6.3506,-2.1169,-0.92383,8.4674,2.7331e-09,-0.46192,0,0,0.2,-0,-0,0.66667
0.86345,0.45144,4.3172,-0.072843,-0.57576,3.9437,0.83861,-0.27954,-1.9804,1.1182,-5.0003e-10,-0.99019,0,0,0.2,-0,-0,0.66667
0.70845,0.56295,3.5423,0.094423,1.5135,14.869,-0.89192,0.29731,-1.9689,-1.1892,8.5594e-12,-0.98444,0,0,0.2,-0,-0,0.66667
0.48642,0.019851,2.4321,-0.72022,-18.294,40.633,4.6711,-1.557,-0.15564,6.2282,-2.4203e-13,-0.077818,0,0,0.2,-0,-0,0.66667
0.69915,0.99142,3.4957,0.73713,12.546,16.548,-6.8715,2.2905,-0.067637,-9.162,-1.3456e-13,-0.033818,0,0,0.2,1.8948e-15,0,0.66667
0.39499,0.35642,1.9749,-0.21538,-5.9439,53.03,1.1343,-0.37809,-1.8343,1.5124,-1.9542e-12,-0.91714,0,0,0.2,-0,-0,0.66667
0.7975,0.047867,3.9875,-0.6782,-8.1567,8.6228,7.2115,-2.4038,-0.36509,9.6153,-5.1612e-12,-0.18254,0,0,0.2,-0,-0,0.66667
0.78642,0.17392,3.9321,-0.48912,-6.0567,8.9926,5.1286,-1.7095,-1.1484,6.8382,-1.7313e-10,-0.5742,0,0,0.2,-0,-0,0.66667
0.15553,0.89369,0.77764,0.59053,19.077,91.501,-1.2246,0.4082,-0.76059,-1.6328,-3.9564e-11,-0.38029,0,0,0.2,-1.8418e-16,2.2776e-16,0.66667
0.31782,0.39291,1.5891,-0.16064,-4.7243,64.775,0.6807,-0.2269,-1.9072,0.9076,2.2203e-12,-0.95362,0,0,0.2,-4.737e-16,0,0.66667
0.34398,0.73087,1.7199,0.3463,10.019,60.78,-1.5883,0.52943,-1.5744,-2.1177,2.179e-12,-0.78718,0,0,0.2,-0,-0,0.66667
0.36417,0.16084,1.8209,-0.50873,-14.549,57.812,2.4702,-0.8234,-1.0797,3.2936,-2.1738e-12,-0.53985,0,0,0.2,-9.4739e-16,0,0.66667
0.56665,0.61345,2.8332,0.17017,3.7568,29.884,-1.2857,0.42856,-1.8964,-1.7142,-5.5078e-13,-0.94818,0,0,0.2,-9.4739e-16,0,0.66667
0.041687,0.76339,0.20844,0.39508,12.98,110.97,-0.2196,0.0732,-1.444,-0.2928,2.5462e-08,-0.72201,0,0,0.2,-0,-0,0.66667
0.65997,0.70672,3.2998,0.31009,5.6842,19.636,-2.7286,0.90955,-1.6575,-3.6382,-2.3053e-12,-0.82876,0,0,0.2,9.4739e-16,0,0.66667
0.20163,0.8168,1.0082,0.4752,15.03,83.718,-1.2775,0.42585,-1.1981,-1.7034,-1.9293e-10,-0.59904,0,0,0.2,4.737e-16,0,0.66667
0.41646,0.2235,2.0823,-0.41476,-11.259,50.006,2.3031,-0.76769,-1.3881,3.0708,-2.1261e-12,-0.69407,0,0,0.2,9.4739e-16,0,0.66667
0.45089,0.16681,2.2545,-0.49979,-13.111,45.195,3.0047,-1.0016,-1.1118,4.0062,-2.0739e-13,-0.55591,0,0,0.2,-9.4739e-16,0,0.66667
0.34873,0.88002,1.7436,0.57003,16.55,60.211,-2.6505,0.88349,-0.84449,-3.5339,1.7031e-12,-0.42224,0,0,0.2,-0,-0,0.66667
0.38328,0.36035,1.9164,-0.20947,-5.844,54.765,1.0705,-0.35683,-1.8428,1.4273,-1.8568e-12,-0.92138,0,0,0.2,-4.737e-16,0,0.66667
0.18031,0.54288,0.90153,0.064326,2.0372,87.194,-0.15464,0.051548,-1.9842,-0.20619,-2.9746e-10,-0.99208,0,0,0.2,-0,-0,0.66667
0.06813,0.81761,0.34065,0.47642,15.641,106.41,-0.43278,0.14426,-1.1927,-0.57704,-5.9255e-09,-0.59633,0,0,0.2,-0,-0,0.66667
0.55126,0.16418,2.7563,-0.50373,-11.527,32.031,3.7025,-1.2342,-1.0974,4.9366,1.5454e-13,-0.54868,0,0,0.2,1.8948e-15,0,0.66667
0.59587,0.4447,2.9793,-0.082947,-1.7354,26.425,0.659,-0.21967,-1.9759,0.87867,7.2348e-13,-0.98793,0,0,0.2,-1.8948e-15,0,0.66667
0.1455,0.37933,0.7275,-0.181,-5.8063,93.096,0.35115,-0.11705,-1.8834,0.4682,6.1007e-10,-0.94172,0,0,0.2,-0,-0,0.66667
0.23094,0.15872,1.1547,-0.51192,-15.994,78.887,1.5763,-0.52544,-1.0688,2.1018,1.1311e-10,-0.53441,0,0,0.2,-0,-0,0.66667
0.28638,0.74191,1.4319,0.36287,10.941,69.825,-1.3856,0.46185,-1.5312,-1.8474,-1.5479e-11,-0.76561,0,0,0.2,4.737e-16,0,0.66667
0.83075,0.99515,4.1538,0.74273,7.6628,6.7221,-8.227,2.7423,-0.039053,-10.969,-1.3824e-09,-0.019526,0,0,0.2,-0,-0,0.66667
0.15342,0.031936,0.7671,-0.7021,-22.802,91.906,1.4362,-0.47874,-0.24847,1.915,4.0878e-10,-0.12423,0,0,0.2,-0,-0,0.66667
0.55214,0.032638,2.7607,-0.70104,-16.193,32.215,5.161,-1.7203,-0.25297,6.8813,-7.0122e-13,-0.12648,0,0,0.2,1.8948e-15,0,0.66667
0.56814,0.19799,2.8407,-0.45302,-10.059,29.927,3.4317,-1.1439,-1.2694,4.5756,1.1098e-12,-0.6347,0,0,0.2,-0,-0,0.66667
0.34342,0.76378,1.7171,0.39568,11.467,60.895,-1.8118,0.60392,-1.444,-2.4157,2.3513e-12,-0.72199,0,0,0.2,-0,-0,0.66667
0.35062,0.99772,1.7531,0.74658,21.823,60.104,-3.4902,1.1634,-0.018236,-4.6536,9.7433e-13,-0.009118,0,0,0.2,-1.1842e-16,0,0.66667
0.95911,0.57855,4.7956,0.11782,0.24756,0.59404,-1.5067,0.50223,-1.9495,-2.0089,1.5832e-07,-0.97475,0,0,0.2,1.8948e-15,0,0.66667
0.55334,0.21879,2.7667,-0.42181,-9.5869,31.682,3.1121,-1.0374,-1.3679,4.1494,4.5697e-13,-0.68395,0,0,0.2,1.8948e-15,0,0.66667
0.65273,0.84955,3.2637,0.52433,9.8747,20.631,-4.5633,1.5211,-1.0226,-6.0844,-2.3168e-12,-0.51128,0,0,0.2,-0,-0,0.66667
0.49074,0.44587,2.4537,-0.081192,-2.0078,39.501,0.53126,-0.17709,-1.9758,0.70834,-3.7148e-13,-0.98788,0,0,0.2,-0,-0,0.66667
0.64665,0.085672,3.2332,-0.62149,-11.94,21.416,5.3585,-1.7862,-0.62592,7.1447,1.4451e-12,-0.31296,0,0,0.2,-9.4739e-16,0,0.66667
0.60525,0.7387,3.0263,0.35805,7.4016,25.522,-2.8895,0.96315,-1.5435,-3.8526,-2.2298e-12,-0.77176,0,0,0.2,9.4739e-16,0,0.66667
0.14517,0.082599,0.72587,-0.6261,-20.319,93.267,1.2119,-0.40397,-0.60546,1.6159,1.0013e-09,-0.30273,0,0,0.2,2.3685e-16,0,0.66667
0.33468,0.095343,1.6734,-0.60699,-17.844,62.4,2.7086,-0.90287,-0.6902,3.6115,-2.1498e-12,-0.3451,0,0,0.2,-0,-0,0.66667
0.46043,0.92953,2.3022,0.64429,16.825,44.042,-3.9554,1.3185,-0.52323,-5.2738,1.1036e-13,-0.26162,0,0,0.2,4.737e-16,0,0.66667
0.12782,0.81493,0.63911,0.47239,15.323,96.165,-0.80509,0.26836,-1.2074,-1.0735,-3.7219e-09,-0.60369,0,0,0.2,-0,-0,0.66667
0.36307,0.98364,1.8154,0.72547,20.967,58.194,-3.512,1.1707,-0.12802,-4.6826,4.5874e-13,-0.064012,0,0,0.2,-4.737e-16,0,0.66667
0.22814,0.20279,1.1407,-0.44581,-13.919,79.315,1.3561,-0.45204,-1.2922,1.8081,1.2297e-10,-0.64609,0,0,0.2,-0,-0,0.66667
0.8475,0.71505,4.2375,0.32258,2.8761,4.955,-3.6452,1.2151,-1.6303,-4.8602,1.403e-09,-0.81516,0,0,0.2,-4.737e-16,0,0.66667
0.34147,0.44094,1.7074,-0.08859,-2.5577,61.081,0.40335,-0.13445,-1.9729,0.5378,-5.8734e-13,-0.98645,0,0,0.2,-0,-0,0.66667
0.22679,0.76364,1.1339,0.39547,12.338,79.517,-1.1958,0.39861,-1.4427,-1.5944,-1.6549e-10,-0.72136,0,0,0.2,-0,-0,0.66667
0.40818,0.28952,2.0409,-0.31572,-8.6191,51.142,1.7183,-0.57276,-1.6459,2.2911,-2.0658e-12,-0.82293,0,0,0.2,-0,-0,0.66667
0.68306,0.37592,3.4153,-0.18612,-3.2074,17.27,1.6951,-0.56502,-1.8775,2.2601,-2.608e-12,-0.93874,0,0,0.2,-0,-0,0.66667
0.065622,0.75153,0.32811,0.3773,12.358,106.83,-0.33012,0.11004,-1.4947,-0.44016,6.7642e-09,-0.74736,0,0,0.2,2.3685e-16,0,0.66667
0.18073,0.67955,0.90365,0.26933,8.5475,87.15,-0.649,0.21633,-1.7413,-0.86534,-6.1967e-10,-0.87065,0,0,0.2,1.1842e-16,0,0.66667
0.69431,0.14693,3.4715,-0.5296,-8.9885,16.586,4.9028,-1.6343,-1.0018,6.537,3.7526e-13,-0.5009,0,0,0.2,9.4739e-16,0,0.66667
0.75226,0.021328,3.7613,-0.71801,-10.355,12.001,7.2017,-2.4006,-0.167,9.6022,-1.9491e-12,-0.083498,0,0,0.2,-0,-0,0.66667
0.61775,0.20667,3.0888,-0.43999,-8.9011,24.222,3.6241,-1.208,-1.3105,4.8321,2.0677e-12,-0.65526,0,0,0.2,9.4739e-16,0,0.66667
0.8792,0.47542,4.396,-0.036873,-0.25757,3.1925,0.43225,-0.14408,-1.9949,0.57634,-7.129e-09,-0.99746,0,0,0.2,-0,-0,0.66667
0.1688,0.90146,0.844,0.6022,19.376,89.269,-1.3553,0.45178,-0.71093,-1.8071,-1.6606e-09,-0.35547,0,0,0.2,-1.369e-16,-1.6987e-16,0.66667
0.70355,0.018279,3.5177,-0.72258,-12.134,16.116,6.7783,-2.2594,-0.14418,9.0377,3.1486e-13,-0.072089,0,0,0.2,-0,-0,0.66667
0.91726,0.070885,4.5863,-0.64367,-3.3047,2.5401,7.8722,-2.6241,-0.52634,10.496,-6.2005e-08,-0.26317,0,0,0.2,-0,-0,0.66667
0.15074,0.52781,0.7537,0.041709,1.3345,92.194,-0.08383,0.027943,-1.9938,-0.11177,-2.0612e-09,-0.99689,0,0,0.2,-2.3685e-16,0,0.66667
0.24376,0.012721,1.2188,-0.73092,-22.895,76.935,2.3756,-0.79187,-0.099369,3.1675,1.2066e-11,-0.049684,0,0,0.2,-9.4739e-16,0,0.66667
0.54668,0.99856,2.7334,0.74785,17.476,32.964,-5.4511,1.817,-0.013572,-7.2682,1.4833e-13,-0.0067862,0,0,0.2,3.5527e-16,0,0.66667
0.34412,0.48962,1.7206,-0.01557,-0.44845,60.668,0.071438,-0.023813,-1.9999,0.095251,-3.3912e-13,-0.99996,0,0,0.2,4.737e-16,0,0.66667
0.69064,0.82371,3.4532,0.48556,8.3008,16.859,-4.4713,1.4904,-1.1613,-5.9618,9.1482e-14,-0.58066,0,0,0.2,-1.8948e-15,0,0.66667
0.057568,0.96696,0.28784,0.70045,23.219,108.27,-0.53764,0.17922,-0.25592,-0.71685,2.4607e-06,-0.12796,0,0,0.2,-1.4803e-17,0,0.66667
0.16076,0.2414,0.80382,-0.3879,-12.43,90.546,0.83146,-0.27715,-1.4645,1.1086,1.2793e-09,-0.73224,0,0,0.2,-0,-0,0.66667
0.71624,0.22011,3.5812,-0.41983,-6.6472,14.441,4.0094,-1.3365,-1.3744,5.3458,-1.3479e-11,-0.6872,0,0,0.2,-0,-0,0.66667
0.97062,0.96997,4.8531,0.70495,1.3126,1.4225,-9.1232,3.0411,-0.23442,-12.164,-9.9518e-06,-0.11721,0,0,0.2,-0,-0,0.66667
0.92955,0.34051,4.6478,-0.23924,-0.95869,1.425,2.9652,-0.98839,-1.7963,3.9535,1.7743e-08,-0.89816,0,0,0.2,2.3685e-16,0,0.66667
0.90107,0.20697,4.5053,-0.43954,-2.5872,2.6651,5.2807,-1.7602,-1.3122,7.0409,-4.528e-09,-0.65609,0,0,0.2,-0,-0,0.66667
0.12774,0.17241,0.63872,-0.49138,-15.949,96.183,0.83695,-0.27898,-1.1411,1.1159,3.9416e-09,-0.57055,0,0,0.2,-0,-0,0.66667
0.14593,0.30722,0.72964,-0.28918,-9.2903,93.039,0.56266,-0.18755,-1.7024,0.75021,1.1614e-09,-0.85119,0,0,0.2,-0,-0,0.66667
0.072265,0.42631,0.36132,-0.11053,-3.602,105.66,0.1065,-0.035499,-1.9556,0.142,6.57e-08,-0.97779,0,0,0.2,-0,-0,0.66667
0.54254,0.11519,2.7127,-0.57721,-13.44,33.202,4.1754,-1.3918,-0.81479,5.5673,4.543e-13,-0.4074,0,0,0.2,4.737e-16,0,0.66667
0.88249,0.37526,4.4124,-0.18711,-1.2774,3.1125,2.2017,-0.73389,-1.8759,2.9356,4.6905e-09,-0.93796,0,0,0.2,-0,-0,0.66667
0.53179,0.78252,2.659,0.42378,9.9628,34.363,-3.0048,1.0016,-1.3634,-4.0064,-2.5935e-13,-0.68171,0,0,0.2,-0,-0,0.66667
0.78172,0.38596,3.9086,-0.17106,-2.1231,8.9605,1.783,-0.59433,-1.8967,2.3773,-1.6477e-10,-0.94833,0,0,0.2,-1.8948e-15,0,0.66667
0.18845,0.301,0.94227,-0.2985,-9.45,85.86,0.75004,-0.25001,-1.6836,1.0001,5.5139e-10,-0.84182,0,0,0.2,-0,-0,0.66667
0.86311,0.71527,4.3156,0.32291,2.5917,4.1502,-3.7161,1.2387,-1.6296,-4.9548,1.7197e-09,-0.8148,0,0,0.2,-9.4739e-16,0,0.66667
0.18742,0.90243,0.93712,0.60365,19.291,86.147,-1.5085,0.50284,-0.70609,-2.0114,1.0681e-10,-0.35305,0,0,0.2,2.3685e-16,1.0154e-16,0.66667
0.054764,0.79497,0.27382,0.44246,14.536,108.71,-0.32308,0.10769,-1.3027,-0.43077,7.0904e-09,-0.65135,0,0,0.2,-0,-0,0.66667
0.42149,0.62865,2.1075,0.19298,5.1847,49.155,-1.0845,0.3615,-1.8692,-1.446,2.1172e-13,-0.93459,0,0,0.2,-0,-0,0.66667
0.5551,0.16386,2.7755,-0.50421,-11.467,31.561,3.7318,-1.2439,-1.0953,4.9758,6.7213e-13,-0.54765,0,0,0.2,-0,-0,0.66667
0.97074,0.74895,4.8537,0.37342,0.55389,0.64932,-4.8333,1.6111,-1.5056,-6.4444,-1.5428e-08,-0.75278,0,0,0.2,1.1842e-16,0,0.66667
0.091754,0.59239,0.45877,0.13858,4.5023,102.3,-0.16953,0.056512,-1.933,-0.22605,-3.3026e-08,-0.96651,0,0,0.2,-1.3323e-16,0,0.66667
0.27392,0.28359,1.3696,-0.32461,-9.8547,71.807,1.1856,-0.39519,-1.6253,1.5808,3.1538e-11,-0.81266,0,0,0.2,-9.4739e-16,0,0.66667
0.10511,0.48108,0.52554,-0.028376,-0.9189,99.997,0.039767,-0.013256,-1.9964,0.053023,5.8161e-09,-0.99819,0,0,0.2,-0,-0,0.66667
0.39044,0.77681,1.9522,0.41522,11.563,53.812,-2.1616,0.72052,-1.3886,-2.8821,1.9147e-12,-0.69429,0,0,0.2,2.3685e-16,0,0.66667
0.28901,0.22681,1.4451,-0.40979,-12.351,69.428,1.5791,-0.52637,-1.4021,2.1055,1.0778e-11,-0.70104,0,0,0.2,-0,-0,0.66667
0.5133,0.075364,2.5665,-0.63695,-15.534,36.985,4.3593,-1.4531,-0.55728,5.8124,-3.042e-13,-0.27864,0,0,0.2,9.4739e-16,2.6959e-16,0.66667
0.34826,0.67315,1.7413,0.25972,7.4739,60.084,-1.206,0.40199,-1.7593,-1.608,1.8291e-12,-0.87965,0,0,0.2,-0,-0,0.66667
0.92823,0.41132,4.6411,-0.13302,-0.5385,1.3829,1.6463,-0.54878,-1.9367,2.1951,4.2428e-08,-0.96834,0,0,0.2,-0,-0,0.66667
0.78995,0.43275,3.9497,-0.10088,-1.2065,8.3445,1.0625,-0.35417,-1.9634,1.4167,-1.081e-10,-0.98171,0,0,0.2,4.737e-16,0,0.66667
0.86101,0.8875,4.3051,0.58124,4.8761,4.7014,-6.6728,2.2243,-0.79887,-8.897,5.9742e-10,-0.39943,0,0,0.2,-0,-0,0.66667
0.1295,0.053844,0.6475,-0.66923,-21.854,95.943,1.1556,-0.38518,-0.40702,1.5407,6.5308e-10,-0.20351,0,0,0.2,-1.1842e-16,0,0.66667
0.57507,0.27064,2.8754,-0.34403,-7.5169,28.993,2.6379,-0.8793,-1.5789,3.5172,1.1227e-12,-0.78943,0,0,0.2,4.737e-16,0,0.66667
0.21478,0.17028,1.0739,-0.49458,-15.562,81.543,1.4164,-0.47212,-1.1295,1.8885,1.4386e-10,-0.56477,0,0,0.2,-0,-0,0.66667
0.86824,0.10273,4.3412,-0.59591,-4.7615,4.3849,6.8985,-2.2995,-0.7365,9.198,-7.0651e-09,-0.36825,0,0,0.2,-0,-0,0.66667
0.015019,0.60019,0.075097,0.15028,4.9242,115.59,-0.030096,0.010032,-1.9208,-0.040127,5.9935e-08,-0.96039,0,0,0.2,2.9606e-17,0,0.66667
0.10574,0.29871,0.52872,-0.30193,-9.8043,99.908,0.4257,-0.1419,-1.6752,0.5676,2.4086e-09,-0.83761,0,0,0.2,-1.2523e-16,0,0.66667
0.37606,0.61931,1.8803,0.17896,5.0233,55.836,-0.89733,0.29911,-1.8871,-1.1964,1.2225e-12,-0.94355,0,0,0.2,7.1054e-16,0,0.66667
0.40209,0.93865,2.0105,0.65798,18.298,52.329,-3.5276,1.1759,-0.46134,-4.7034,1.6209e-14,-0.23067,0,0,0.2,9.4739e-16,-3.216e-19,0.66667
0.27722,0.74272,1.3861,0.36408,11.041,71.293,-1.3457,0.44858,-1.5284,-1.7943,-2.4762e-11,-0.76421,0,0,0.2,-0,-0,0.66667
0.096063,0.90372,0.48031,0.60558,19.877,101.63,-0.77566,0.25855,-0.69702,-1.0342,8.6387e-09,-0.34851,0,0,0.2,2.9606e-17,0,0.66667
0.11873,0.047085,0.59365,-0.67937,-22.255,97.78,1.0755,-0.3585,-0.35778,1.434,8.7415e-09,-0.17889,0,0,0.2,-0,-0,0.66667
0.31794,0.85232,1.5897,0.52849,15.68,64.934,-2.2404,0.7468,-1.0062,-2.9872,1.7832e-12,-0.50311,0,0,0.2,-0,-0,0.66667
0.95079,0.10084,4.754,-0.59873,-1.7891,1.5029,7.5903,-2.5301,-0.72566,10.12,-4.8234e-08,-0.36283,0,0,0.2,-0,-0,0.66667
0.20741,0.15554,1.037,-0.51669,-16.324,82.776,1.4289,-0.47629,-1.0515,1.9051,1.7979e-10,-0.52576,0,0,0.2,4.737e-16,0,0.66667
0.74728,0.73713,3.7364,0.3557,5.0748,11.748,-3.5441,1.1814,-1.5498,-4.7255,6.9224e-11,-0.77491,0,0,0.2,9.4739e-16,0,0.66667
0.25819,0.083307,1.2909,-0.62504,-19.334,74.514,2.1517,-0.71724,-0.60988,2.8689,7.4576e-12,-0.30494,0,0,0.2,-2.3685e-16,0,0.66667
0.03724,0.51511,0.1862,0.022668,0.74134,111.73,-0.011256,0.0037515,-1.997,-0.015008,-7.3737e-07,-0.99852,0,0,0.2,-1.1842e-16,0,0.66667
0.016052,0.10748,0.080261,-0.58878,-19.489,115.42,0.12602,-0.042005,-0.76802,0.16802,-2.7944e-07,-0.38401,0,0,0.2,-0,-0,0.66667
0.15271,0.48613,0.76353,-0.020811,-0.66539,91.86,0.042373,-0.014124,-1.9978,0.056497,-1.1678e-09,-0.99892,0,0,0.2,-4.737e-16,0,0.66667
0.46208,0.31167,2.3104,-0.2825,-7.2646,43.471,1.7405,-0.58018,-1.7166,2.3207,-3.8747e-13,-0.85828,0,0,0.2,-9.77e-16,0,0.66667
0.7559,0.25769,3.7795,-0.36347,-5.0307,11.074,3.6633,-1.2211,-1.5296,4.8844,-9.7818e-11,-0.76479,0,0,0.2,-0,-0,0.66667
0.72881,0.74553,3.6441,0.36829,5.5925,13.289,-3.5789,1.193,-1.5175,-4.7719,3.2313e-11,-0.75876,0,0,0.2,-9.4739e-16,0,0.66667
0.35239,0.71762,1.7619,0.32643,9.3755,59.481,-1.5338,0.51125,-1.6214,-2.045,2.2401e-12,-0.81069,0,0,0.2,5.8507e-16,0,0.66667
0.47914,0.78415,2.3957,0.42622,10.777,41.248,-2.7229,0.90765,-1.3542,-3.6306,3.797e-14,-0.67709,0,0,0.2,-0,-0,0.66667
0.81407,0.49966,4.0704,-0.00050605,-0.0053937,6.7213,0.0054928,-0.0018309,-2.0017,0.0073238,5.7242e-10,-1.0008,0,0,0.2,-2.5461e-15,0,0.66667
0.8384,0.92464,4.192,0.63697,6.2041,6.0184,-7.1205,2.3735,-0.55643,-9.4939,1.8468e-10,-0.27821,0,0,0.2,9.4739e-16,0,0.66667
0.31992,0.86752,1.5996,0.55128,16.348,64.644,-2.3515,0.78385,-0.91864,-3.1354,2.0166e-12,-0.45932,0,0,0.2,-4.737e-16,0,0.66667
0.004265,0.70859,0.021325,0.31288,10.278,117.45,-0.017793,0.0059309,-1.6513,-0.023723,-2.6066e-08,-0.82566,0,0,0.2,-0,-0,0.66667
0.046931,0.6721,0.23465,0.25816,8.4535,110.05,-0.16154,0.053847,-1.7638,-0.21539,6.1179e-09,-0.8819,0,0,0.2,5.9212e-17,0,0.66667
0.73781,0.43735,3.689,-0.093982,-1.3734,12.328,0.92454,-0.30818,-1.9697,1.2327,-3.0881e-11,-0.98483,0,0,0.2,1.3767e-15,0,0.66667
0.27263,0.27182,1.3632,-0.34226,-10.403,72.021,1.2442,-0.41472,-1.5825,1.6589,3.2019e-11,-0.79126,0,0,0.2,-0,-0,0.66667
0.48149,0.45736,2.4074,-0.063954,-1.6005,40.742,0.41057,-0.13686,-1.9851,0.54743,-7.454e-13,-0.99257,0,0,0.2,-0,-0,0.66667
0.19203,0.87317,0.96016,0.55976,17.826,85.356,-1.4332,0.47774,-0.88638,-1.911,-1.9323e-10,-0.44319,0,0,0.2,2.9606e-17,0,0.66667
0.84711,0.65464,4.2356,0.23197,2.0612,4.8814,-2.62,0.87334,-1.8095,-3.4933,1.6817e-09,-0.90474,0,0,0.2,-2.1316e-15,0,0.66667
0.50338,0.3426,2.5169,-0.2361,-5.7518,37.881,1.5847,-0.52822,-1.8027,2.1129,1.7497e-13,-0.90134,0,0,0.2,-1.2434e-15,0,0.66667
0.52716,0.59032,2.6358,0.13548,3.1847,34.761,-0.95229,0.31743,-1.935,-1.2697,-1.9357e-13,-0.96749,0,0,0.2,-0,-0,0.66667
0.28808,0.59184,1.4404,0.13776,4.1334,69.481,-0.52916,0.17639,-1.9326,-0.70554,-1.2391e-11,-0.96631,0,0,0.2,-4.3105e-16,0,0.66667
0.512,0.0050055,2.56,-0.74249,-18.253,37.318,5.0687,-1.6896,-0.03997,6.7583,-6.4615e-13,-0.019985,0,0,0.2,-0,-0,0.66667
0.0019636,0.26462,0.0098182,-0.35307,-11.609,117.85,0.0092441,-0.0030814,-1.5567,0.012326,2.5698e-08,-0.77833,0,0,0.2,3.7007e-18,0,0.66667
0.2773,0.82272,1.3865,0.48407,14.73,71.343,-1.7897,0.59658,-1.1663,-2.3863,-1.3791e-11,-0.58314,0,0,0.2,-0,-0,0.66667
0.34876,0.43918,1.7438,-0.091233,-2.6188,59.96,0.42425,-0.14142,-1.9708,0.56567,-1.0764e-12,-0.98539,0,0,0.2,9.4739e-16,0,0.66667
0.28395,0.056621,1.4198,-0.66507,-20.299,70.409,2.518,-0.83932,-0.42761,3.3573,-2.2182e-13,-0.21381,0,0,0.2,-4.737e-16,0,0.66667
0.085952,0.497,0.42976,-0.0044972,-0.14617,103.3,0.005154,-0.0017181,-1.9998,0.0068719,-1.3847e-07,-0.9999,0,0,0.2,1.4803e-16,0,0.66667
0.52178,0.62559,2.6089,0.18839,4.467,35.468,-1.3106,0.43688,-1.8742,-1.7475,-2.176e-13,-0.93712,0,0,0.2,-1.8948e-15,0,0.66667
0.78848,0.46064,3.9424,-0.059035,-0.7102,8.4355,0.62064,-0.20688,-1.9868,0.82752,-1.1133e-10,-0.99338,0,0,0.2,-0,-0,0.66667
0.9426,0.42139,4.713,-0.11791,-0.37118,0.97435,1.4819,-0.49396,-1.9496,1.9758,6.9587e-08,-0.97478,0,0,0.2,-1.8948e-15,0,0.66667
0.49729,0.57243,2.4864,0.10864,2.6638,38.636,-0.72036,0.24012,-1.9579,-0.96047,6.8001e-14,-0.97894,0,0,0.2,-0,-0,0.66667
0.59375,0.57209,2.9688,0.10814,2.272,26.674,-0.85608,0.28536,-1.9595,-1.1414,-1.0279e-12,-0.97973,0,0,0.2,-0,-0,0.66667
0.29086,0.61677,1.4543,0.17516,5.2481,69.044,-0.6793,0.22643,-1.8902,-0.90573,-1.3069e-11,-0.94508,0,0,0.2,-0,-0,0.66667
0.14916,0.66568,0.7458,0.24852,7.9707,92.483,-0.49426,0.16475,-1.7794,-0.65902,-1.5475e-09,-0.88972,0,0,0.2,-0,-0,0.66667
0.13187,0.73447,0.65936,0.35171,11.36,95.445,-0.6184,0.20613,-1.559,-0.82453,-1.8957e-09,-0.77949,0,0,0.2,-2.3685e-16,0,0.66667
0.73236,0.34327,3.6618,-0.2351,-3.5098,12.859,2.2957,-0.76523,-1.805,3.0609,-4.1225e-11,-0.90248,0,0,0.2,-2.9606e-16,0,0.66667
0.73447,0.44013,3.6723,-0.089805,-1.327,12.605,0.87945,-0.29315,-1.9732,1.1726,-2.4761e-11,-0.98662,0,0,0.2,-1.8948e-15,0,0.66667
0.17935,0.52526,0.89675,0.03789,1.2003,87.353,-0.090608,0.030203,-1.9943,-0.12081,-2.4651e-10,-0.99715,0,0,0.2,-0,-0,0.66667
0.41356,0.24938,2.0678,-0.37593,-10.224,50.398,2.073,-0.69099,-1.4978,2.7639,-8.813e-13,-0.74892,0,0,0.2,-1.7764e-16,0,0.66667
0.59414,0.30618,2.9707,-0.29072,-6.1258,26.726,2.3031,-0.7677,-1.7007,3.0708,1.8536e-12,-0.85034,0,0,0.2,-4.737e-16,0,0.66667
0.12528,0.028402,0.62641,-0.7074,-23.164,96.675,1.1817,-0.39388,-0.22255,1.5755,-6.2406e-09,-0.11127,0,0,0.2,-1.7764e-16,0,0.66667
0.78537,0.53462,3.9268,0.051929,0.63315,8.6534,-0.54378,0.18126,-1.9907,-0.72504,1.1898e-10,-0.99534,0,0,0.2,-1.8948e-15,0,0.66667
0.61999,0.97729,3.1,0.71594,14.654,24.417,-5.9184,1.9728,-0.17688,-7.8912,1.0614e-13,-0.088442,0,0,0.2,-0,-0,0.66667
0.61522,0.1438,3.0761,-0.53431,-10.916,24.627,4.3829,-1.461,-0.9839,5.8439,1.5339e-12,-0.49195,0,0,0.2,9.4739e-16,0,0.66667
0.70121,0.72359,3.506,0.33538,5.526,15.689,-3.1356,1.0452,-1.6008,-4.1808,8.0971e-12,-0.8004,0,0,0.2,-0,-0,0.66667
0.98718,0.23065,4.9359,-0.40402,-0.17572,0.47613,5.3179,-1.7726,-1.4193,7.0906,-2.9496e-08,-0.70965,0,0,0.2,-0,-0,0.66667
0.56239,0.94628,2.812,0.66942,15.177,30.921,-5.0197,1.6732,-0.40771,-6.693,-2.7534e-14,-0.20386,0,0,0.2,-0,-1.9144e-16,0.66667
0.86442,0.18481,4.3221,-0.47279,-3.8176,4.3151,5.4491,-1.8164,-1.2054,7.2655,-5.82e-10,-0.60271,0,0,0.2,-1.1842e-15,0,0.66667
0.41871,0.46732,2.0935,-0.049024,-1.3192,49.524,0.27369,-0.091229,-1.9923,0.36492,-1.1977e-13,-0.99617,0,0,0.2,-5.3291e-16,0,0.66667
0.65447,0.36218,3.2723,-0.20673,-3.8279,20.116,1.804,-0.60133,-1.8481,2.4053,1.5958e-12,-0.92403,0,0,0.2,-0,-0,0.66667
0.92526,0.89516,4.6263,0.59274,2.7132,2.1596,-7.3126,2.4375,-0.75033,-9.7501,1.3123e-07,-0.37516,0,0,0.2,9.4739e-16,0,0.66667
0.66415,0.023376,3.3208,-0.71494,-13.281,19.828,6.331,-2.1103,-0.18181,8.4413,4.019e-13,-0.090905,0,0,0.2,-0,-0,0.66667
0.30308,0.34674,1.5154,-0.2299,-6.8378,67.116,0.92903,-0.30968,-1.812,1.2387,6.949e-12,-0.90602,0,0,0.2,-0,-0,0.66667
0.61995,0.97933,3.0997,0.71899,14.721,24.428,-5.9431,1.981,-0.16116,-7.9242,6.3505e-14,-0.08058,0,0,0.2,-0,-0,0.66667
0.35132,0.026396,1.7566,-0.71041,-20.715,59.956,3.3277,-1.1092,-0.20516,4.437,4.5741e-14,-0.10258,0,0,0.2,-0,-0,0.66667
0.32237,0.86407,1.6118,0.5461,16.162,64.258,-2.3473,0.78242,-0.93868,-3.1297,2.0379e-12,-0.46934,0,0,0.2,4.737e-16,0,0.66667
0.61021,0.77502,3.051,0.41253,8.463,25.025,-3.3564,1.1188,-1.3959,-4.4752,-2.2451e-12,-0.69795,0,0,0.2,-4.737e-16,0,0.66667
0.16032,0.98614,0.80162,0.72922,23.659,90.757,-1.5588,0.5196,-0.10855,-2.0784,7.0278e-11,-0.054276,0,0,0.2,-2.3685e-16,0,0.66667
0.48674,0.56437,2.4337,0.096555,2.4006,40.04,-0.62663,0.20888,-1.9679,-0.8355,1.7775e-13,-0.98396,0,0,0.2,-0,-0,0.66667
0.94563,0.87144,4.7282,0.55716,1.8188,1.5211,-7.0249,2.3416,-0.89605,-9.3665,1.5445e-07,-0.44803,0,0,0.2,-4.737e-16,0,0.66667
0.38391,0.026221,1.9196,-0.71067,-20.155,55.064,3.6378,-1.2126,-0.20385,4.8504,-6.9345e-13,-0.10192,0,0,0.2,4.737e-16,0,0.66667
0.18896,0.3976,0.94481,-0.1536,-4.8514,85.747,0.387,-0.129,-1.9165,0.516,3.7404e-10,-0.95827,0,0,0.2,-2.3685e-16,0,0.66667
0.46884,0.25317,2.3442,-0.37025,-9.4654,42.602,2.3145,-0.77149,-1.5144,3.086,-8.7907e-13,-0.75721,0,0,0.2,-0,-0,0.66667
0.84091,0.14734,4.2045,-0.52898,-5.0091,5.6445,5.931,-1.977,-1.005,7.908,-6.197e-10,-0.50248,0,0,0.2,-9.4739e-16,0,0.66667
0.84267,0.0057302,4.2133,-0.7414,-7.1549,6.053,8.3301,-2.7767,-0.046526,11.107,-8.6507e-10,-0.023263,0,0,0.2,-0,1.4187e-16,0.66667
0.8278,0.069263,4.139,-0.64611,-6.6814,6.6459,7.1313,-2.3771,-0.5169,9.5084,6.4928e-11,-0.25845,0,0,0.2,1.8948e-15,-1.6065e-16,0.66667
0.011476,0.066649,0.057378,-0.65003,-21.57,116.21,0.099458,-0.033153,-0.49778,0.13261,-1.2798e-06,-0.24889,0,0,0.2,2.9606e-17,0,0.66667
0.26704,0.75264,1.3352,0.37896,11.567,72.939,-1.3493,0.44977,-1.4907,-1.7991,-3.6835e-11,-0.74534,0,0,0.2,9.4739e-16,0,0.66667
0.99988,0.8338,4.9994,0.50071,-0.15775,0.55794,-6.6752,2.2251,-1.1095,-8.9003,3.4493e-07,-0.55477,0,0,0.2,-0,-1.4586e-17,0.66667
0.11968,0.26451,0.59842,-0.35324,-11.446,97.528,0.56369,-0.1879,-1.5553,0.75158,3.1021e-09,-0.77766,0,0,0.2,-0,-0,0.66667
0.49009,0.72365,2.4504,0.33547,8.3399,39.704,-2.1921,0.73071,-1.5996,-2.9229,-4.9005e-13,-0.79978,0,0,0.2,1.8948e-15,0,0.66667
0.79003,0.21443,3.9501,-0.42836,-5.1984,8.6433,4.5122,-1.5041,-1.3473,6.0163,-2.4444e-10,-0.67363,0,0,0.2,-0,-0,0.66667
0.12221,0.62741,0.61107,0.19111,6.1709,97.071,-0.31141,0.1038,-1.871,-0.41522,4.2841e-09,-0.93548,0,0,0.2,-4.737e-16,0,0.66667
0.66241,0.7714,3.312,0.4071,7.4482,19.492,-3.5956,1.1985,-1.4098,-4.7941,-2.5255e-12,-0.70491,0,0,0.2,-0,-0,0.66667
0.48808,0.77185,2.4404,0.40777,10.187,40.03,-2.6537,0.88456,-1.4084,-3.5382,2.3959e-13,-0.70419,0,0,0.2,4.737e-16,0,0.66667
0.19429,0.75179,0.97145,0.37768,11.95,84.906,-0.97839,0.32613,-1.493,-1.3045,-4.554e-10,-0.74648,0,0,0.2,-4.737e-16,0,0.66667
0.87863,0.66892,4.3932,0.25339,1.7949,3.3408,-2.9684,0.98948,-1.7711,-3.9579,2.3828e-09,-0.88556,0,0,0.2,-0,-0,0.66667
0.18149,0.54719,0.90744,0.070791,2.241,86.995,-0.1713,0.057101,-1.981,-0.2284,-2.0338e-10,-0.99052,0,0,0.2,-2.3685e-16,0,0.66667
0.63905,0.6496,3.1953,0.22439,4.306,21.73,-1.912,0.63733,-1.8216,-2.5493,-2.4322e-12,-0.91079,0,0,0.2,4.737e-16,0,0.66667
0.74083,0.71345,3.7041,0.32018,4.6625,12.233,-3.1627,1.0542,-1.6351,-4.2169,5.7994e-11,-0.81753,0,0,0.2,-0,-0,0.66667
0.56267,0.3174,2.8134,-0.2739,-6.101,30.421,2.0549,-0.68496,-1.7348,2.7398,9.8654e-13,-0.86738,0,0,0.2,-0,-0,0.66667
0.62884,0.67071,3.1442,0.25606,5.0281,22.84,-2.1469,0.71564,-1.7662,-2.8626,-2.4094e-12,-0.88308,0,0,0.2,-0,-0,0.66667
0.11897,0.69832,0.59483,0.29748,9.6293,97.641,-0.47186,0.15729,-1.6844,-0.62914,-9.3412e-10,-0.84219,0,0,0.2,-0,-0,0.66667
0.30804,0.30569,1.5402,-0.29147,-8.6494,66.355,1.1971,-0.39904,-1.6976,1.5961,4.6426e-12,-0.84881,0,0,0.2,2.3685e-16,0,0.66667
0.58696,0.82402,2.9348,0.48602,10.455,27.752,-3.8037,1.2679,-1.159,-5.0716,-1.3194e-12,-0.57951,0,0,0.2,9.4739e-16,0,0.66667
0.39546,0.068938,1.9773,-0.64659,-18.086,53.286,3.4094,-1.1365,-0.51312,4.5458,-6.2239e-13,-0.25656,0,0,0.2,-0,-0,0.66667
0.66395,0.084435,3.3197,-0.62335,-11.506,19.667,5.5183,-1.8394,-0.61748,7.3577,1.1822e-12,-0.30874,0,0,0.2,9.4739e-16,0,0.66667
0.85195,0.33421,4.2598,-0.24869,-2.1437,4.6384,2.825,-0.94166,-1.7791,3.7666,-1.5298e-09,-0.88956,0,0,0.2,-9.4739e-16,0,0.66667
0.19022,0.95525,0.95111,0.68287,21.871,85.723,-1.732,0.57732,-0.34164,-2.3093,-4.5221e-11,-0.17082,0,0,0.2,-2.3685e-16,0,0.66667
0.90327,0.37994,4.5164,-0.18009,-1.0062,2.2593,2.169,-0.72299,-1.885,2.892,3.3542e-09,-0.94251,0,0,0.2,-0,-0,0.66667
0.38318,0.17095,1.9159,-0.49357,-13.874,54.951,2.5217,-0.84056,-1.1326,3.3622,-1.7626e-12,-0.56629,0,0,0.2,-0,-0,0.66667
0.94312,0.51738,4.7156,0.026069,0.080847,0.9332,-0.32782,0.10927,-1.9965,-0.43709,-3.1867e-07,-0.99826,0,0,0.2,-0,-0,0.66667
0.61738,0.82548,3.0869,0.48822,9.9069,24.325,-4.0189,1.3396,-1.1513,-5.3586,-1.9935e-12,-0.57565,0,0,0.2,-0,-0,0.66667
0.7901,0.40025,3.9505,-0.14963,-1.7902,8.3556,1.5763,-0.52542,-1.9198,2.1017,-2.2943e-10,-0.95992,0,0,0.2,9.4739e-16,0,0.66667
0.51478,0.39592,2.5739,-0.15612,-3.7379,36.359,1.0716,-0.35719,-1.9139,1.4288,3.0209e-13,-0.95695,0,0,0.2,-0,-0,0.66667
0.53114,0.32311,2.6557,-0.26534,-6.214,34.316,1.8791,-0.62637,-1.7506,2.5055,7.5462e-13,-0.87529,0,0,0.2,-0,-0,0.66667
0.32759,0.9063,1.638,0.60945,18.014,63.499,-2.662,0.88734,-0.68159,-3.5494,1.3245e-12,-0.3408,0,0,0.2,-0,-0,0.66667
0.12936,0.2785,0.64682,-0.33225,-10.734,95.869,0.57308,-0.19103,-1.6078,0.76411,1.9873e-09,-0.80391,0,0,0.2,-2.3685e-16,0,0.66667
0.38382,0.86047,1.9191,0.54071,15.217,54.896,-2.7671,0.92238,-0.95927,-3.6895,1.0925e-12,-0.47963,0,0,0.2,4.737e-16,0,0.66667
0.21498,0.73514,1.0749,0.35271,11.053,81.454,-1.011,0.33699,-1.557,-1.348,-2.6514e-10,-0.77849,0,0,0.2,-0,-0,0.66667
0.032865,0.56739,0.16433,0.10109,3.308,112.49,-0.044297,0.014766,-1.9645,-0.059062,1.8452e-07,-0.98225,0,0,0.2,1.1842e-16,0,0.66667
0.27489,0.69785,1.3744,0.29677,8.9989,71.641,-1.0877,0.36257,-1.6859,-1.4503,-3.001e-11,-0.84293,0,0,0.2,-0,-0,0.66667
0.18058,0.11326,0.90288,-0.5801,-18.57,87.281,1.3967,-0.46557,-0.80236,1.8623,4.1843e-10,-0.40118,0,0,0.2,-2.3685e-16,0,0.66667
0.87553,0.49453,4.3777,-0.008206,-0.059064,3.3568,0.095795,-0.031932,-2.001,0.12773,1.458e-08,-1.0005,0,0,0.2,-0,-0,0.66667
0.081237,0.69773,0.40618,0.2966,9.6755,104.13,-0.32127,0.10709,-1.6869,-0.42835,3.2249e-09,-0.84345,0,0,0.2,-2.3685e-16,0,0.66667
0.1839,0.31932,0.91948,-0.27102,-8.5909,86.618,0.66452,-0.22151,-1.7387,0.88602,5.5029e-10,-0.86936,0,0,0.2,-4.737e-16,0,0.66667
0.70403,0.1336,3.5202,-0.5496,-9.091,15.728,5.1591,-1.7197,-0.92671,6.8788,-7.1587e-13,-0.46335,0,0,0.2,-0,-0,0.66667
0.91923,0.11438,4.5961,-0.57844,-2.8523,2.3138,7.0895,-2.3632,-0.81017,9.4527,4.134e-09,-0.40509,0,0,0.2,-0,2.7372e-17,0.66667
0.25146,0.13385,1.2573,-0.54922,-17.001,75.555,1.8414,-0.61381,-0.92791,2.4552,2.586e-11,-0.46395,0,0,0.2,-0,-0,0.66667
0.021301,0.55831,0.10651,0.087459,2.8637,114.49,-0.02484,0.0082802,-1.9726,-0.03312,1.7333e-07,-0.98631,0,0,0.2,-0,-0,0.66667
0.9605,0.04349,4.8025,-0.68476,-1.7009,1.5372,8.7696,-2.9232,-0.33163,11.693,-3.4646e-06,-0.16581,0,0,0.2,-0,-0,0.66667
0.68222,0.17197,3.4111,-0.49205,-8.6045,17.666,4.4758,-1.4919,-1.1381,5.9678,1.5734e-12,-0.56906,0,0,0.2,-9.4739e-16,0,0.66667
0.31066,0.6582,1.5533,0.23731,7.0222,65.921,-0.98297,0.32766,-1.801,-1.3106,-4.2665e-12,-0.90051,0,0,0.2,-9.4739e-16,0,0.66667
0.47237,0.20238,2.3619,-0.44643,-11.392,42.185,2.8117,-0.93724,-1.2907,3.749,9.5479e-14,-0.64537,0,0,0.2,-9.4739e-16,0,0.66667
0.59926,0.48702,2.9963,-0.019466,-0.4045,26.03,0.15553,-0.051844,-1.9976,0.20738,2.7839e-13,-0.99882,0,0,0.2,-0,-0,0.66667
0.37387,0.86508,1.8693,0.54762,15.553,56.387,-2.7298,0.90995,-0.93419,-3.6398,1.3127e-12,-0.4671,0,0,0.2,-0,2.2912e-16,0.66667
0.87449,0.032853,4.3724,-0.70072,-5.4434,4.3589,8.1703,-2.7234,-0.2561,10.894,6.8389e-09,-0.12805,0,0,0.2,-3.7896e-15,0,0.66667
0.72617,0.93322,3.6309,0.64983,10.144,13.977,-6.2919,2.0973,-0.4982,-8.3892,1.6582e-12,-0.2491,0,0,0.2,9.4739e-16,0,0.66667
0.95434,0.26746,4.7717,-0.34881,-0.87805,0.92361,4.4384,-1.4795,-1.5676,5.9179,1.7756e-08,-0.78382,0,0,0.2,-1.8948e-15,0,0.66667
0.35107,0.12445,1.7553,-0.56333,-16.32,59.848,2.6369,-0.87896,-0.87204,3.5158,-1.14e-12,-0.43602,0,0,0.2,-5.4771e-16,0,0.66667
0.93717,0.3407,4.6859,-0.23895,-0.84414,1.208,2.9859,-0.99529,-1.7987,3.9812,-2.3917e-09,-0.89936,0,0,0.2,7.1054e-16,0,0.66667
0.4791,0.76559,2.3955,0.39838,10.064,41.229,-2.5448,0.84828,-1.4347,-3.3931,2.5069e-13,-0.71734,0,0,0.2,-9.4739e-16,0,0.66667
0.64232,0.090553,3.2116,-0.61417,-11.908,21.852,5.2599,-1.7533,-0.6599,7.0133,1.4677e-12,-0.32995,0,0,0.2,-9.4739e-16,0,0.66667
0.73665,0.31012,3.6832,-0.28482,-4.1999,12.543,2.7975,-0.9325,-1.7126,3.73,-5.1538e-11,-0.85628,0,0,0.2,-0,-0,0.66667
0.80934,0.89091,4.0467,0.58637,6.6097,7.6425,-6.3276,2.1092,-0.77697,-8.4368,2.2648e-10,-0.38848,0,0,0.2,-0,-0,0.66667
0.39626,0.89415,1.9813,0.59122,16.482,53.109,-3.1237,1.0412,-0.75619,-4.1649,1.0039e-12,-0.3781,0,0,0.2,-0,-0,0.66667
0.44795,0.27074,2.2397,-0.34389,-9.0046,45.475,2.0539,-0.68465,-1.5787,2.7386,-1.3263e-12,-0.78934,0,0,0.2,4.737e-16,0,0.66667
0.81728,0.33538,4.0864,-0.24692,-2.6047,6.6307,2.6907,-0.89691,-1.7826,3.5876,-6.8535e-10,-0.89132,0,0,0.2,-0,-0,0.66667
0.71756,0.077759,3.5878,-0.63336,-10.136,14.684,6.0596,-2.0199,-0.57392,8.0795,-7.2919e-13,-0.28696,0,0,0.2,-0,-0,0.66667
0.94085,0.1697,4.7042,-0.49544,-1.7331,1.5038,6.2152,-2.0717,-1.1267,8.2869,1.8225e-08,-0.56334,0,0,0.2,-0,-0,0.66667
0.9796,0.28008,4.898,-0.32988,-0.2889,0.45031,4.3087,-1.4362,-1.6136,5.7449,-6.0029e-09,-0.8068,0,0,0.2,-7.1054e-16,0,0.66667
0.17891,0.3144,0.89457,-0.27841,-8.8431,87.457,0.66414,-0.22138,-1.7245,0.88552,6.2393e-10,-0.86225,0,0,0.2,4.737e-16,0,0.66667
0.22792,0.78968,1.1396,0.43452,13.563,79.347,-1.3205,0.44016,-1.3279,-1.7606,-1.4154e-10,-0.66393,0,0,0.2,4.737e-16,0,0.66667
0.71599,0.98282,3.5799,0.72423,11.737,15.018,-6.9139,2.3046,-0.13468,-9.2185,-1.8741e-13,-0.067338,0,0,0.2,-0,2.3451e-16,0.66667
0.74738,0.39468,3.7369,-0.15798,-2.2364,11.571,1.5743,-0.52476,-1.911,2.099,-5.7496e-11,-0.95552,0,0,0.2,-0,-0,0.66667
0.60318,0.78779,3.0159,0.43169,8.9859,25.834,-3.4718,1.1573,-1.3368,-4.6291,-2.0863e-12,-0.66841,0,0,0.2,-0,-0,0.66667
0.8773,0.2043,4.3865,-0.44355,-3.2374,3.6593,5.1884,-1.7295,-1.3003,6.9179,-4.0691e-09,-0.65013,0,0,0.2,1.8948e-15,0,0.66667
0.25199,0.84827,1.26,0.5224,16.151,75.453,-1.7552,0.58507,-1.0304,-2.3403,-2.7582e-11,-0.51521,0,0,0.2,-9.4739e-16,0,0.66667
0.33949,0.70518,1.6974,0.30777,8.9274,61.454,-1.3931,0.46438,-1.6624,-1.8575,1.6501e-12,-0.8312,0,0,0.2,4.737e-16,0,0.66667
0.49465,0.91912,2.4732,0.62868,15.72,39.408,-4.1463,1.3821,-0.5937,-5.5285,9.5035e-14,-0.29685,0,0,0.2,-0,-0,0.66667
0.31503,0.16911,1.5751,-0.49633,-14.74,65.368,2.0848,-0.69493,-1.1238,2.7797,-7.7205e-13,-0.56192,0,0,0.2,-4.737e-16,0,0.66667
0.54544,0.92985,2.7272,0.64477,15,32.943,-4.6891,1.563,-0.5224,-6.2522,1.5365e-13,-0.2612,0,0,0.2,-4.737e-16,0,0.66667
0.68248,0.15082,3.4124,-0.52377,-9.1704,17.69,4.7661,-1.5887,-1.0243,6.3548,1.8252e-12,-0.51217,0,0,0.2,-1.4211e-15,0,0.66667
0.22037,0.13559,1.1018,-0.54661,-17.186,80.646,1.6061,-0.53536,-0.93787,2.1414,9.7317e-11,-0.46893,0,0,0.2,-4.737e-16,0,0.66667
0.48534,0.99547,2.4267,0.74321,18.93,40.814,-4.8094,1.6031,-0.03725,-6.4125,2.1272e-13,-0.018625,0,0,0.2,-1.1842e-15,0,0.66667
0.99298,0.84286,4.9649,0.51429,0.080854,0.64154,-6.809,2.2697,-1.0599,-9.0787,2.4335e-07,-0.52994,0,0,0.2,-7.1054e-16,0,0.66667
0.32416,0.68034,1.6208,0.27052,7.9324,63.817,-1.1692,0.38974,-1.7396,-1.5589,-1.9229e-13,-0.86978,0,0,0.2,-2.3685e-16,0,0.66667
0.035362,0.8435,0.17681,0.51524,16.995,112.07,-0.24293,0.080978,-1.0569,-0.32391,3.1634e-08,-0.52847,0,0,0.2,8.0491e-17,0,0.66667
0.81735,0.041681,4.0868,-0.68748,-7.5426,7.3737,7.4922,-2.4974,-0.31878,9.9895,-2.6507e-10,-0.15939,0,0,0.2,-1.8948e-15,0,0.66667
0.50331,0.40403,2.5165,-0.14396,-3.5022,37.851,0.96608,-0.32203,-1.927,1.2881,-3.1897e-13,-0.9635,0,0,0.2,4.737e-16,0,0.66667
0.052784,0.58146,0.26392,0.12218,3.9921,109.03,-0.085992,0.028664,-1.9459,-0.11466,5.032e-08,-0.97293,0,0,0.2,5.9212e-17,0,0.66667
0.89031,0.67001,4.4515,0.25501,1.6311,2.8378,-3.0272,1.0091,-1.7694,-4.0363,6.3261e-10,-0.88471,0,0,0.2,-0,-0,0.66667
0.40451,0.62195,2.0226,0.18293,4.9996,51.617,-0.98664,0.32888,-1.8821,-1.3155,8.285e-13,-0.94105,0,0,0.2,-7.1054e-16,0,0.66667
0.92927,0.8715,4.6464,0.55725,2.389,1.9563,-6.9045,2.3015,-0.8957,-9.206,-5.6745e-08,-0.44785,0,0,0.2,1.4211e-15,0,0.66667
0.40208,0.55247,2.0104,0.078702,2.1539,51.95,-0.42192,0.14064,-1.9774,-0.56257,-7.2692e-14,-0.98869,0,0,0.2,4.737e-16,0,0.66667
0.076832,0.83446,0.38416,0.50168,16.462,104.91,-0.51394,0.17131,-1.1056,-0.68525,-3.1053e-08,-0.55278,0,0,0.2,-1.1842e-16,0,0.66667
0.2453,0.38432,1.2265,-0.17351,-5.3399,76.41,0.5675,-0.18917,-1.8923,0.75667,7.5321e-11,-0.94615,0,0,0.2,-0,-0,0.66667
0.35026,0.89047,1.7513,0.58571,16.995,59.991,-2.7353,0.91178,-0.77907,-3.6471,1.5334e-12,-0.38953,0,0,0.2,4.737e-16,0,0.66667
0.75073,0.17119,3.7536,-0.49321,-7.0114,11.667,4.9369,-1.6456,-1.1355,6.5825,-4.5036e-11,-0.56776,0,0,0.2,9.4739e-16,0,0.66667
0.18475,0.30903,0.92374,-0.28645,-9.0796,86.478,0.70561,-0.2352,-1.7089,0.94081,5.2232e-10,-0.85445,0,0,0.2,1.7312e-16,0,0.66667
0.43097,0.14895,2.1549,-0.52657,-14.136,48.025,3.0258,-1.0086,-1.0134,4.0344,-8.6353e-13,-0.50671,0,0,0.2,4.737e-16,0,0.66667
0.87325,0.71206,4.3662,0.31809,2.3654,3.6588,-3.7036,1.2345,-1.6408,-4.9381,2.1684e-09,-0.82039,0,0,0.2,9.4739e-16,0,0.66667
0.53376,0.92753,2.6688,0.64129,15.186,34.39,-4.564,1.5213,-0.53767,-6.0853,2.2782e-13,-0.26884,0,0,0.2,-4.737e-16,0,0.66667
0.10315,0.2647,0.51577,-0.35295,-11.479,100.36,0.48544,-0.16181,-1.5559,0.64725,1.9204e-09,-0.77796,0,0,0.2,-0,-0,0.66667
0.024522,0.50121,0.12261,0.0018121,0.059309,113.93,-0.00059243,0.00020225,-2.0002,-0.00078752,7.1562e-06,-1.0001,0,0,0.2,-0,-0,0.66667
0.70581,0.36035,3.529,-0.20947,-3.3913,15.163,1.9713,-0.6571,-1.8436,2.6284,-1.1898e-11,-0.92181,0,0,0.2,-9.4739e-16,0,0.66667
0.97913,0.22948,4.8956,-0.40577,-0.39133,0.57822,5.2974,-1.7658,-1.4137,7.0632,2.0661e-08,-0.70685,0,0,0.2,1.8948e-15,0,0.66667
0.78517,0.72889,3.9258,0.34334,4.2309,8.8689,-3.5944,1.1981,-1.5803,-4.7925,2.6606e-10,-0.79017,0,0,0.2,-0,-0,0.66667
0.76473,0.23788,3.8236,-0.39318,-5.2752,10.431,4.009,-1.3363,-1.4508,5.3454,-1.1969e-10,-0.72539,0,0,0.2,-0,-0,0.66667
0.67545,0.56173,3.3772,0.092591,1.6251,17.968,-0.83387,0.27796,-1.9704,-1.1118,7.5706e-13,-0.98521,0,0,0.2,1.125e-15,0,0.66667
0.7955,0.18289,3.9775,-0.47567,-5.6559,8.3433,5.0453,-1.6818,-1.1965,6.727,-2.1424e-10,-0.59825,0,0,0.2,-0,-0,0.66667
0.040018,0.3316,0.20009,-0.2526,-8.276,111.25,0.13478,-0.044927,-1.772,0.17971,-2.2326e-08,-0.886,0,0,0.2,-0,-0,0.66667
0.26468,0.2003,1.3234,-0.44954,-13.767,73.355,1.5865,-0.52883,-1.2818,2.1153,3.0017e-11,-0.64092,0,0,0.2,-4.737e-16,0,0.66667
0.6954,0.34,3.477,-0.24,-4.0057,16.14,2.2253,-0.74175,-1.7949,2.967,-6.6573e-12,-0.89747,0,0,0.2,-3.0969e-17,0,0.66667
0.86699,0.29003,4.3349,-0.31495,-2.4557,3.9512,3.6408,-1.2136,-1.6464,4.8544,-1.9753e-09,-0.8232,0,0,0.2,1.8948e-15,0,0.66667
0.67461,0.86005,3.373,0.54008,9.658,18.475,-4.8579,1.6193,-0.96251,-6.4772,-2.0499e-12,-0.48126,0,0,0.2,-0,-0,0.66667
0.17628,0.12409,0.88138,-0.56386,-18.068,87.995,1.3253,-0.44176,-0.8702,1.767,4.5878e-10,-0.4351,0,0,0.2,-4.4409e-17,0,0.66667
0.93631,0.74351,4.6815,0.36527,1.339,1.3905,-4.5601,1.52,-1.5264,-6.0801,-8.7609e-09,-0.7632,0,0,0.2,-1.4211e-15,0,0.66667
0.90338,0.39915,4.5169,-0.15127,-0.84265,2.2362,1.822,-0.60735,-1.9187,2.4294,8.9659e-10,-0.95936,0,0,0.2,-9.4739e-16,0,0.66667
0.086679,0.98346,0.43339,0.7252,23.964,103.27,-0.83812,0.27937,-0.12888,-1.1175,3.4723e-08,-0.06444,0,0,0.2,3.2372e-16,0,0.66667
0.193,0.95178,0.965,0.67766,21.675,85.257,-1.7439,0.58128,-0.36613,-2.3251,-5.4734e-14,-0.18307,0,0,0.2,4.737e-16,0,0.66667
0.27519,0.24525,1.376,-0.38212,-11.608,71.627,1.4021,-0.46737,-1.4805,1.8695,2.5229e-11,-0.74025,0,0,0.2,-0,-0,0.66667
0.73841,0.54548,3.6921,0.068225,0.9947,12.271,-0.67171,0.2239,-1.9827,-0.89561,1.9569e-11,-0.99135,0,0,0.2,-0,-0,0.66667
0.85937,0.43075,4.2969,-0.10387,-0.84589,4.1582,1.1902,-0.39673,-1.963,1.5869,-2.1177e-09,-0.98149,0,0,0.2,-0,-0,0.66667
0.57832,0.13276,2.8916,-0.55085,-12.073,28.847,4.2476,-1.4159,-0.92222,5.6635,6.8168e-13,-0.46111,0,0,0.2,-0,-0,0.66667
0.19965,0.90285,0.99823,0.60427,19.216,84.11,-1.6085,0.53618,-0.70213,-2.1447,-2.7493e-10,-0.35107,0,0,0.2,-1.1842e-16,0,0.66667
0.41509,0.24887,2.0754,-0.37669,-10.229,50.177,2.0848,-0.69494,-1.4957,2.7798,-9.619e-13,-0.74787,0,0,0.2,-9.4739e-16,0,0.66667
0.13786,0.83499,0.6893,0.50248,16.27,94.464,-0.92363,0.30788,-1.1022,-1.2315,-4.5959e-09,-0.5511,0,0,0.2,1.1842e-16,0,0.66667
0.9174,0.070891,4.587,-0.64366,-3.2993,2.5357,7.8733,-2.6244,-0.52641,10.498,-5.799e-08,-0.26321,0,0,0.2,-1.8948e-15,0,0.66667
0.76453,0.35302,3.8227,-0.22047,-2.936,10.266,2.2474,-0.74914,-1.8277,2.9966,-1.219e-10,-0.91386,0,0,0.2,-0,-0,0.66667
0.51021,0.8731,2.5511,0.55965,13.654,37.279,-3.8072,1.2691,-0.88662,-5.0763,-2.4958e-13,-0.44331,0,0,0.2,1.1842e-15,0,0.66667
0.45358,0.35125,2.2679,-0.22313,-5.7889,44.62,1.3494,-0.44981,-1.824,1.7992,-9.3203e-13,-0.912,0,0,0.2,-0,-0,0.66667
0.097842,0.98906,0.48921,0.7336,24.201,101.36,-0.95702,0.31901,-0.085896,-1.276,1.6985e-08,-0.042948,0,0,0.2,1.1842e-16,0,0.66667
0.31868,0.31583,1.5934,-0.27626,-8.1341,64.677,1.1738,-0.39127,-1.7286,1.5651,1.5007e-12,-0.86428,0,0,0.2,-0,-0,0.66667
0.12063,0.30679,0.60316,-0.28982,-9.3762,97.355,0.46616,-0.15539,-1.7012,0.62154,5.8721e-10,-0.85059,0,0,0.2,-0,-0,0.66667
0.78234,0.87581,3.9117,0.56372,7.1467,9.4175,-5.8802,1.9601,-0.87192,-7.8403,1.6245e-10,-0.43596,0,0,0.2,1.8948e-15,0,0.66667
0.54488,0.57959,2.7244,0.11939,2.7303,32.526,-0.86739,0.28913,-1.9492,-1.1565,-3.0309e-13,-0.97461,0,0,0.2,-9.4739e-16,0,0.66667
0.22728,0.29595,1.1364,-0.30608,-9.5267,79.405,0.92752,-0.30917,-1.6657,1.2367,1.8221e-10,-0.83284,0,0,0.2,-0,-0,0.66667
0.2242,0.18597,1.121,-0.47104,-14.746,79.976,1.4081,-0.46937,-1.2114,1.8775,1.2417e-10,-0.60572,0,0,0.2,5.033e-16,0,0.66667
0.2604,0.82258,1.302,0.48387,14.871,74.067,-1.68,0.56,-1.1667,-2.24,-2.7831e-11,-0.58336,0,0,0.2,-0,-0,0.66667
0.30887,0.85683,1.5444,0.53525,15.986,66.362,-2.2043,0.73477,-0.98074,-2.9391,1.1742e-12,-0.49037,0,0,0.2,-4.737e-16,0,0.66667
0.38771,0.72858,1.9385,0.34287,9.5529,54.17,-1.7725,0.59082,-1.5818,-2.3633,2.2817e-12,-0.79089,0,0,0.2,-0,-0,0.66667
0.29755,0.321,1.4877,-0.2685,-8.021,68.006,1.0652,-0.35507,-1.7445,1.4203,1.0417e-11,-0.87224,0,0,0.2,-0,-0,0.66667
0.67956,0.63185,3.3978,0.19777,3.4407,17.615,-1.792,0.59732,-1.8602,-2.3893,1.6025e-12,-0.93011,0,0,0.2,-0,-0,0.66667
0.035074,0.57293,0.17537,0.1094,3.5797,112.1,-0.05116,0.017053,-1.9569,-0.068214,-1.1177e-07,-0.97846,0,0,0.2,-0,-0,0.66667
0.32811,0.48092,1.6406,-0.028619,-0.8346,63.148,0.1252,-0.041734,-1.998,0.16694,3.2521e-13,-0.99898,0,0,0.2,-9.4739e-16,0,0.66667
0.74529,0.026481,3.7265,-0.71028,-10.482,12.534,7.0582,-2.3527,-0.20613,9.4109,-6.0307e-13,-0.10307,0,0,0.2,-0,2.9259e-16,0.66667
0.94281,0.52096,4.714,0.031446,0.098162,0.94193,-0.3953,0.13177,-1.9956,-0.52707,-9.536e-08,-0.99782,0,0,0.2,-0,-0,0.66667
0.80273,0.23002,4.0137,-0.40498,-4.6332,7.7491,4.3345,-1.4448,-1.4159,5.7793,-4.5871e-10,-0.70794,0,0,0.2,-0,-0,0.66667
0.24083,0.46578,1.2041,-0.051333,-1.582,77.128,0.16483,-0.054944,-1.9906,0.21977,3.5415e-11,-0.99528,0,0,0.2,-2.3685e-16,0,0.66667
0.23292,0.0442,1.1646,-0.6837,-21.486,78.669,2.1233,-0.70775,-0.33812,2.831,1.1068e-11,-0.16906,0,0,0.2,-0,-0,0.66667
0.19034,0.43366,0.95168,-0.099508,-3.1398,85.511,0.25253,-0.084178,-1.9653,0.33671,1.8653e-10,-0.98267,0,0,0.2,-2.9606e-16,0,0.66667
0.8825,0.96486,4.4125,0.69729,5.0861,3.9968,-8.2047,2.7349,-0.27098,-10.94,-8.859e-09,-0.13549,0,0,0.2,1.4211e-15,0,0.66667
0.23786,0.66532,1.1893,0.24799,7.6697,77.647,-0.78647,0.26216,-1.781,-1.0486,-1.2287e-10,-0.89051,0,0,0.2,-0,-0,0.66667
0.75818,0.80429,3.7909,0.45643,6.301,11.024,-4.6141,1.538,-1.2584,-6.1522,8.1016e-11,-0.6292,0,0,0.2,9.4739e-16,0,0.66667
0.26105,0.29049,1.3052,-0.31427,-9.6106,73.883,1.0939,-0.36462,-1.6482,1.4585,5.4509e-11,-0.82411,0,0,0.2,-0,-0,0.66667
0.033082,0.166,0.16541,-0.50099,-16.52,112.47,0.22098,-0.073661,-1.1078,0.29465,-7.1216e-08,-0.55388,0,0,0.2,-0,-0,0.66667
0.73345,0.31348,3.6672,-0.27978,-4.1686,12.805,2.736,-0.91201,-1.7235,3.6481,-4.5519e-11,-0.86176,0,0,0.2,-0,-0,0.66667
0.7262,0.072275,3.631,-0.64159,-10.007,13.958,6.2123,-2.0708,-0.53541,8.2831,-2.0299e-12,-0.2677,0,0,0.2,-0,-0,0.66667
0.088959,0.9787,0.4448,0.71805,23.711,102.88,-0.85169,0.2839,-0.16607,-1.1356,1.3117e-07,-0.083034,0,0,0.2,-0,-0,0.66667
0.3267,0.20181,1.6335,-0.44728,-13.15,63.513,1.9484,-0.64945,-1.2888,2.5978,-1.581e-12,-0.6444,0,0,0.2,-0,-0,0.66667
0.94837,0.52731,4.7418,0.040972,0.11357,0.806,-0.51808,0.17269,-1.9941,-0.69077,2.5199e-08,-0.99703,0,0,0.2,-1.8948e-15,0,0.66667
0.16295,0.60649,0.81474,0.15974,5.0942,90.132,-0.34705,0.11568,-1.9081,-0.46274,-3.0996e-10,-0.95406,0,0,0.2,-2.3685e-16,0,0.66667
0.086672,0.311,0.43336,-0.2835,-9.2371,103.19,0.32762,-0.10921,-1.7144,0.43682,-4.9449e-09,-0.8572,0,0,0.2,-1.4803e-16,0,0.66667
0.5946,0.10846,2.973,-0.58732,-12.523,27.017,4.6563,-1.5521,-0.77392,6.2084,6.759e-13,-0.38696,0,0,0.2,-0,-0,0.66667
0.93099,0.41975,4.6549,-0.12038,-0.4663,1.2943,1.4943,-0.49809,-1.9473,1.9924,-2.46e-08,-0.97366,0,0,0.2,-0,-0,0.66667
0.13378,0.9244,0.66889,0.63659,20.736,95.204,-1.1355,0.3785,-0.55793,-1.514,2.0538e-09,-0.27897,0,0,0.2,-0,-0,0.66667
0.51301,0.60154,2.5651,0.15231,3.6557,36.586,-1.0418,0.34728,-1.9176,-1.3891,-4.1611e-13,-0.9588,0,0,0.2,9.4739e-16,0,0.66667
0.684,0.41984,3.42,-0.12025,-2.0646,17.15,1.0966,-0.36555,-1.948,1.4622,-2.2269e-12,-0.974,0,0,0.2,-0,-0,0.66667
0.17183,0.15753,0.85915,-0.5137,-16.459,88.722,1.1769,-0.3923,-1.0639,1.5692,1.3016e-09,-0.53197,0,0,0.2,-0,-2.1777e-16,0.66667
0.01126,0.78351,0.056299,0.42526,14.005,116.24,-0.063845,0.021282,-1.3574,-0.085127,-4.768e-08,-0.67869,0,0,0.2,-0,-0,0.66667
0.88768,0.07628,4.4384,-0.63558,-4.3873,3.6162,7.5226,-2.5075,-0.56326,10.03,-4.7678e-09,-0.28163,0,0,0.2,-0,-0,0.66667
0.035231,0.98496,0.17616,0.72744,24.193,112.12,-0.34171,0.1139,-0.11778,-0.45562,-6.1029e-07,-0.058889,0,0,0.2,-0,-0,0.66667
0.25746,0.23209,1.2873,-0.40187,-12.34,74.502,1.3795,-0.45984,-1.4246,1.8394,5.2519e-11,-0.71229,0,0,0.2,-0,-0,0.66667
0.65168,0.14148,3.2584,-0.53778,-10.16,20.759,4.6728,-1.5576,-0.97083,6.2304,2.1263e-12,-0.48542,0,0,0.2,-0,-0,0.66667
0.28578,0.30973,1.4289,-0.2854,-8.594,69.888,1.0875,-0.3625,-1.7107,1.45,1.8414e-11,-0.85533,0,0,0.2,5.9212e-16,0,0.66667
0.0097076,0.94142,0.048538,0.66212,21.983,116.52,-0.085701,0.028566,-0.44105,-0.11427,-1.2577e-06,-0.22053,0,0,0.2,-0,-0,0.66667
0.57545,0.82088,2.8773,0.48132,10.566,29.092,-3.693,1.231,-1.1763,-4.9241,-9.2215e-13,-0.58814,0,0,0.2,-0,-0,0.66667
0.30779,0.67716,1.539,0.26574,7.8833,66.384,-1.0906,0.36353,-1.7482,-1.4541,-4.6628e-12,-0.87409,0,0,0.2,-0,-0,0.66667
0.15151,0.8789,0.75757,0.56835,18.369,92.171,-1.1482,0.38272,-0.85151,-1.5309,-3.7549e-09,-0.42576,0,0,0.2,-0,-0,0.66667
0.97128,0.84119,4.8564,0.51178,0.80617,0.90485,-6.6278,2.2093,-1.0696,-8.837,-2.2307e-07,-0.53481,0,0,0.2,2.8422e-15,0,0.66667
0.16497,0.62094,0.82486,0.18141,5.7827,89.792,-0.39903,0.13301,-1.8827,-0.53204,-1.0043e-09,-0.94135,0,0,0.2,5.9212e-17,0,0.66667
0.72724,0.38019,3.6362,-0.17972,-2.7235,13.257,1.7426,-0.58088,-1.8847,2.3235,-2.8872e-11,-0.94235,0,0,0.2,-1.8948e-15,0,0.66667
0.89072,0.65823,4.4536,0.23735,1.51,2.8032,-2.8188,0.93961,-1.8017,-3.7584,-2.4186e-09,-0.90087,0,0,0.2,3.7896e-15,0,0.66667
0.85872,0.75999,4.2936,0.38998,3.2477,4.4612,-4.4651,1.4884,-1.4599,-5.9534,1.9026e-09,-0.72997,0,0,0.2,-0,-0,0.66667
0.18426,0.61874,0.92129,0.17811,5.6373,86.54,-0.43756,0.14585,-1.8873,-0.58342,-2.7068e-10,-0.94364,0,0,0.2,1.1842e-16,0,0.66667
0.23681,0.011331,1.184,-0.733,-23.044,78.069,2.3144,-0.77147,-0.089469,3.0859,-5.804e-12,-0.044735,0,0,0.2,-0,-0,0.66667
0.018363,0.034815,0.091813,-0.69778,-23.197,115.02,0.17084,-0.056947,-0.26944,0.22779,-6.1523e-07,-0.13472,0,0,0.2,-5.9212e-17,0,0.66667
0.93141,0.11443,4.657,-0.57836,-2.4173,1.9445,7.1825,-2.3942,-0.80971,9.5766,-6.2821e-08,-0.40485,0,0,0.2,9.4739e-16,0,0.66667
0.88712,0.7494,4.4356,0.3741,2.4924,3.1192,-4.4249,1.475,-1.5034,-5.8999,3.3533e-09,-0.75168,0,0,0.2,4.737e-16,0,0.66667
0.59547,0.73087,2.9773,0.34631,7.2916,26.621,-2.7495,0.91652,-1.5737,-3.6661,-1.8205e-12,-0.78683,0,0,0.2,-0,-0,0.66667
0.10937,0.85699,0.54684,0.53548,17.483,99.334,-0.78086,0.26029,-0.98129,-1.0411,-7.9397e-09,-0.49065,0,0,0.2,-0,-0,0.66667
0.17354,0.94325,0.86771,0.66487,21.412,88.502,-1.5385,0.51282,-0.42894,-2.0513,2.0019e-10,-0.21447,0,0,0.2,-0,-0,0.66667
0.57696,0.38179,2.8848,-0.17731,-3.8452,28.658,1.364,-0.45467,-1.889,1.8187,9.2837e-13,-0.9445,0,0,0.2,-0,-0,0.66667
0.25166,0.617,1.2583,0.1755,5.3827,75.372,-0.58888,0.19629,-1.8909,-0.78517,-6.2055e-11,-0.94546,0,0,0.2,2.3685e-16,0,0.66667
0.30017,0.32765,1.5009,-0.25853,-7.7083,67.587,1.0347,-0.3449,-1.7618,1.3796,8.6295e-12,-0.8809,0,0,0.2,-4.737e-16,0,0.66667
0.17099,0.40007,0.85494,-0.14989,-4.7664,88.772,0.34173,-0.11391,-1.9211,0.45564,9.8941e-11,-0.96055,0,0,0.2,-2.3685e-16,0,0.66667
0.18959,0.45801,0.94796,-0.062984,-1.9875,85.633,0.15922,-0.053072,-1.9859,0.21229,1.5522e-10,-0.99295,0,0,0.2,-0,-0,0.66667
0.46342,0.76701,2.3171,0.40052,10.316,43.369,-2.4748,0.82492,-1.4286,-3.2997,2.9843e-13,-0.71431,0,0,0.2,9.4739e-16,0,0.66667
0.50987,0.59604,2.5494,0.14405,3.4726,36.991,-0.97933,0.32644,-1.9264,-1.3058,8.8374e-14,-0.96318,0,0,0.2,-1.8948e-15,0,0.66667
0.51158,0.87649,2.5579,0.56473,13.755,37.108,-3.8521,1.284,-0.86669,-5.1361,2.6512e-13,-0.43334,0,0,0.2,-1.8948e-15,0,0.66667
0.99714,0.3853,4.9857,-0.17205,0.062306,0.08723,2.2874,-0.76247,-1.8945,3.0499,-1.2843e-07,-0.94726,0,0,0.2,-0,-0,0.66667
0.1296,0.097212,0.64798,-0.60418,-19.677,95.903,1.044,-0.348,-0.70222,1.392,4.3437e-09,-0.35111,0,0,0.2,-0,-0,0.66667
0.75617,0.18122,3.7808,-0.47817,-6.6596,11.215,4.821,-1.607,-1.1865,6.428,-6.8092e-11,-0.59325,0,0,0.2,1.4211e-15,0,0.66667
0.79376,0.88384,3.9688,0.57575,6.9621,8.6476,-6.0934,2.0311,-0.82117,-8.1246,9.2697e-11,-0.41059,0,0,0.2,-1.8948e-15,0,0.66667
0.58488,0.072043,2.9244,-0.64194,-13.978,28.222,5.0061,-1.6687,-0.53387,6.6748,1.9407e-13,-0.26693,0,0,0.2,-0,-0,0.66667
0.46274,0.84465,2.3137,0.51697,13.384,43.573,-3.1896,1.0632,-1.0501,-4.2529,-2.3448e-13,-0.52506,0,0,0.2,1.8948e-15,0,0.66667
0.89343,0.92174,4.4671,0.63261,4.1486,3.3752,-7.5358,2.5119,-0.57669,-10.048,-8.4727e-09,-0.28834,0,0,0.2,1.8948e-15,0,0.66667
0.82818,0.56253,4.1409,0.093788,0.92816,5.8718,-1.0356,0.34521,-1.9712,-1.3809,9.0211e-10,-0.98559,0,0,0.2,-0,-0,0.66667
0.050291,0.91,0.25145,0.615,20.331,109.51,-0.41239,0.13746,-0.65558,-0.54985,-1.0392e-07,-0.32779,0,0,0.2,1.1842e-16,0,0.66667
0.96298,0.69259,4.8149,0.28889,0.55618,0.66634,-3.7092,1.2364,-1.7029,-4.9456,-8.9413e-10,-0.85147,0,0,0.2,-0,-0,0.66667
0.0073399,0.77878,0.036699,0.41818,13.77,116.92,-0.040925,0.013642,-1.3782,-0.054567,-6.8898e-08,-0.6891,0,0,0.2,-1.1102e-17,0,0.66667
0.57313,0.69458,2.8657,0.29187,6.3887,29.18,-2.2304,0.74346,-1.6966,-2.9738,-1.253e-12,-0.84832,0,0,0.2,-0,-0,0.66667
0.57243,0.39127,2.8622,-0.16309,-3.5644,29.189,1.2448,-0.41493,-1.9043,1.6597,9.7822e-13,-0.95216,0,0,0.2,-0,-0,0.66667
0.83438,0.63342,4.1719,0.20012,1.9182,5.5667,-2.2264,0.74213,-1.8568,-2.9685,1.0413e-09,-0.9284,0,0,0.2,-0,-0,0.66667
0.38472,0.93039,1.9236,0.64559,18.237,54.87,-3.3116,1.1039,-0.51748,-4.4154,6.2839e-13,-0.25874,0,0,0.2,-7.1054e-16,0,0.66667
0.091041,0.51944,0.4552,0.02916,0.94695,102.42,-0.035396,0.011799,-1.9967,-0.047195,9.9689e-09,-0.99835,0,0,0.2,-0,-0,0.66667
0.58169,0.17715,2.9084,-0.48428,-10.516,28.364,3.756,-1.252,-1.1657,5.008,1.1642e-12,-0.58283,0,0,0.2,-4.737e-16,0,0.66667
0.024846,0.30672,0.12423,-0.28992,-9.5142,113.88,0.096044,-0.032015,-1.7006,0.12806,-7.8385e-09,-0.85032,0,0,0.2,-2.9606e-17,0,0.66667
0.3618,0.81508,1.809,0.47262,13.526,58.143,-2.2799,0.75996,-1.2067,-3.0398,2.3366e-12,-0.60336,0,0,0.2,-0,-0,0.66667
0.98532,0.54813,4.9266,0.072202,0.028431,0.15117,-0.94856,0.31619,-1.9818,-1.2647,-1.2115e-06,-0.9909,0,0,0.2,-0,-0,0.66667
0.86878,0.45417,4.3439,-0.068743,-0.52215,3.6829,0.7963,-0.26543,-1.982,1.0617,1.0522e-09,-0.99102,0,0,0.2,-0,-0,0.66667
0.1525,0.53753,0.76248,0.056292,1.8001,91.896,-0.11446,0.038153,-1.9886,-0.15261,-1.8972e-09,-0.99432,0,0,0.2,-0,-0,0.66667
0.79883,0.36958,3.9941,-0.19563,-2.2534,7.7857,2.0836,-0.69455,-1.8646,2.7782,-3.8194e-10,-0.93228,0,0,0.2,-4.737e-16,0,0.66667
0.811,0.21045,4.055,-0.43432,-4.787,7.2573,4.6964,-1.5655,-1.3298,6.2619,-4.5978e-10,-0.66488,0,0,0.2,-9.4739e-16,0,0.66667
0.92821,0.0032513,4.641,-0.74512,-3.4326,2.4922,9.2217,-3.0739,-0.025823,12.296,3.7816e-07,-0.012911,0,0,0.2,-0,-0,0.66667
0.22438,0.044699,1.1219,-0.68295,-21.551,80.068,2.0432,-0.68108,-0.34055,2.7243,8.7494e-12,-0.17028,0,0,0.2,-0,-0,0.66667
0.49897,0.2008,2.4948,-0.4488,-11.067,38.624,2.9858,-0.99527,-1.2842,3.9811,-9.1926e-14,-0.64208,0,0,0.2,-0,-0,0.66667
0.82744,0.030681,4.1372,-0.70398,-7.3508,6.8107,7.7667,-2.5889,-0.23996,10.356,1.8014e-10,-0.11998,0,0,0.2,2.4869e-15,0,0.66667
0.66733,0.471,3.3367,-0.043495,-0.77888,18.758,0.38701,-0.129,-1.9936,0.51601,-9.5923e-14,-0.99682,0,0,0.2,-0,-0,0.66667
0.59394,0.9495,2.9697,0.67425,14.471,27.238,-5.3395,1.7798,-0.38437,-7.1193,-3.0553e-13,-0.19219,0,0,0.2,-0,-0,0.66667
0.65198,0.6444,3.2599,0.21661,4.0353,20.378,-1.883,0.62765,-1.8324,-2.5106,-1.8127e-12,-0.91622,0,0,0.2,-0,-0,0.66667
0.23852,0.028947,1.1926,-0.70658,-22.166,77.771,2.2471,-0.74903,-0.22531,2.9961,-4.9671e-13,-0.11266,0,0,0.2,-1.1842e-16,0,0.66667
0.02554,0.77605,0.1277,0.41407,13.625,113.77,-0.14101,0.047002,-1.39,-0.18801,3.9945e-08,-0.69502,0,0,0.2,-0,-0,0.66667
0.73626,0.50273,3.6813,0.004102,0.060217,12.442,-0.040268,0.013423,-2.001,-0.053691,7.0931e-12,-1.0005,0,0,0.2,-0,-0,0.66667
0.32679,0.79698,1.634,0.44547,13.095,63.497,-1.941,0.647,-1.2946,-2.588,2.167e-12,-0.64729,0,0,0.2,-8.6069e-16,0,0.66667
0.37676,0.50623,1.8838,0.0093459,0.26185,55.704,-0.046949,0.01565,-2.0003,-0.062598,-6.1463e-13,-1.0001,0,0,0.2,-0,-0,0.66667
0.61262,0.62438,3.0631,0.18657,3.7829,24.573,-1.5239,0.50798,-1.8773,-2.0319,-1.9706e-12,-0.93863,0,0,0.2,1.0066e-15,0,0.66667
0.65717,0.2622,3.2858,-0.35671,-6.5942,19.965,3.1255,-1.0418,-1.548,4.1674,2.5893e-12,-0.77401,0,0,0.2,-0,-0,0.66667
0.2029,0.44737,1.0145,-0.078939,-2.4774,83.408,0.21355,-0.071185,-1.9787,0.28474,1.7913e-10,-0.98937,0,0,0.2,-0,-0,0.66667
0.82603,0.012646,4.1302,-0.73103,-7.7196,6.9649,8.0514,-2.6838,-0.099792,10.735,2.8314e-10,-0.049896,0,0,0.2,-0,-0,0.66667
0.38021,0.38165,1.901,-0.17752,-4.9642,55.214,0.89992,-0.29997,-1.8875,1.1999,-1.5825e-12,-0.94375,0,0,0.2,9.4739e-16,0,0.66667
0.63174,0.62914,3.1587,0.19371,3.7746,22.489,-1.6317,0.54389,-1.8663,-2.1756,-2.0891e-12,-0.93315,0,0,0.2,-0,-0,0.66667
0.96641,0.9337,4.8321,0.65055,1.3383,1.3327,-8.3826,2.7942,-0.49598,-11.177,8.5731e-09,-0.24799,0,0,0.2,-4.737e-16,0,0.66667
0.56479,0.17086,2.8239,-0.49371,-11.044,30.377,3.7179,-1.2393,-1.1331,4.9572,5.7421e-13,-0.56655,0,0,0.2,9.4739e-16,0,0.66667
0.35891,0.26251,1.7946,-0.35624,-10.184,58.503,1.7048,-0.56825,-1.5494,2.273,-3.0456e-12,-0.7747,0,0,0.2,-0,-0,0.66667
0.61897,0.67482,3.0949,0.26223,5.2578,23.918,-2.1642,0.72139,-1.7544,-2.8855,-2.3102e-12,-0.87721,0,0,0.2,-0,-0,0.66667
0.50179,0.47176,2.509,-0.042359,-1.0318,38.029,0.28341,-0.094469,-1.9947,0.37788,-1.4871e-13,-0.99735,0,0,0.2,-0,-0,0.66667
0.45238,0.67688,2.2619,0.26532,6.8986,44.808,-1.6003,0.53343,-1.7503,-2.1337,5.4801e-13,-0.87515,0,0,0.2,4.737e-16,0,0.66667
0.73227,0.793,3.6614,0.4395,6.626,13.091,-4.2911,1.4304,-1.3132,-5.7214,2.8348e-11,-0.65658,0,0,0.2,-0,-0,0.66667
0.92451,0.63185,4.6226,0.19778,0.85043,1.541,-2.438,0.81266,-1.8611,-3.2506,1.9224e-08,-0.93055,0,0,0.2,-0,-0,0.66667
0.47927,0.71357,2.3964,0.32035,8.0727,41.146,-2.0471,0.68238,-1.6349,-2.7295,9.5035e-14,-0.81744,0,0,0.2,7.1054e-16,0,0.66667
0.08823,0.94708,0.44115,0.67062,22.102,102.99,-0.78892,0.26297,-0.40013,-1.0519,-6.3602e-08,-0.20006,0,0,0.2,2.3685e-16,0,0.66667
0.56965,0.58594,2.8483,0.12891,2.8297,29.508,-0.97914,0.32638,-1.9401,-1.3055,-6.5642e-13,-0.97005,0,0,0.2,-4.737e-16,0,0.66667
0.24495,0.44031,1.2248,-0.089532,-2.7539,76.455,0.29241,-0.097471,-1.9717,0.38988,3.7911e-11,-0.98583,0,0,0.2,-0,-0,0.66667
0.039578,0.20941,0.19789,-0.43588,-14.338,111.34,0.23002,-0.076672,-1.3235,0.30669,-4.1542e-08,-0.66175,0,0,0.2,-2.9606e-17,0,0.66667
0.78814,0.89843,3.9407,0.59764,7.4197,9.0787,-6.2804,2.0935,-0.72924,-8.3738,4.8118e-11,-0.36462,0,0,0.2,-0,-0,0.66667
0.27277,0.71393,1.3638,0.3209,9.7478,71.991,-1.1671,0.38902,-1.6335,-1.5561,-3.2817e-11,-0.81673,0,0,0.2,-3.5527e-16,0,0.66667
0.77707,0.58001,3.8854,0.12002,1.5166,9.2714,-1.2435,0.41449,-1.948,-1.658,1.1932e-10,-0.974,0,0,0.2,9.4739e-16,0,0.66667
0.48821,0.89328,2.441,0.58992,14.846,40.21,-3.84,1.28,-0.762,-5.12,-1.6054e-13,-0.381,0,0,0.2,9.4739e-16,0,0.66667
0.31794,0.42023,1.5897,-0.11966,-3.5175,64.749,0.50726,-0.16909,-1.948,0.67635,1.7352e-12,-0.97402,0,0,0.2,-0,-0,0.66667
0.31403,0.9157,1.5701,0.62356,18.623,65.624,-2.6108,0.87028,-0.61786,-3.4811,1.2672e-12,-0.30893,0,0,0.2,-0,-0,0.66667
0.042025,0.50116,0.21012,0.0017365,0.056768,110.9,-0.00097304,0.00032208,-2.0005,-0.0012985,-3.3915e-06,-1.0002,0,0,0.2,2.3685e-16,0,0.66667
0.5344,0.014319,2.672,-0.72852,-17.325,34.451,5.191,-1.7303,-0.1124,6.9213,1.3012e-13,-0.056199,0,0,0.2,-0,-0,0.66667
0.82355,0.94548,4.1178,0.66823,7.0866,6.9509,-7.3376,2.4459,-0.41186,-9.7835,1.3049e-10,-0.20593,0,0,0.2,-0,-0,0.66667
0.083895,0.67282,0.41948,0.25923,8.447,103.66,-0.28998,0.096659,-1.76,-0.38663,-8.4062e-10,-0.87998,0,0,0.2,-0,-0,0.66667
0.10856,0.37041,0.54279,-0.19438,-6.2972,99.413,0.28135,-0.093785,-1.8669,0.37514,6.186e-09,-0.93345,0,0,0.2,-1.1842e-16,0,0.66667
0.52926,0.083308,2.6463,-0.62504,-14.887,34.932,4.4107,-1.4702,-0.61101,5.881,2.2471e-13,-0.30551,0,0,0.2,-4.737e-16,-2.1078e-16,0.66667
0.66014,0.12242,3.3007,-0.56637,-10.51,19.948,4.9852,-1.6617,-0.85991,6.6469,1.9238e-12,-0.42995,0,0,0.2,-2.3685e-16,0,0.66667
0.69475,0.84787,3.4737,0.5218,8.841,16.532,-4.8336,1.6112,-1.0316,-6.4448,-1.2657e-13,-0.5158,0,0,0.2,-0,-0,0.66667
0.31322,0.72766,1.5661,0.34148,10.108,65.561,-1.4261,0.47538,-1.5861,-1.9015,-2.4404e-12,-0.79306,0,0,0.2,-0,-0,0.66667
0.037778,0.51168,0.18889,0.017517,0.57284,111.63,-0.0088236,0.0029405,-1.9978,-0.011765,-1.138e-06,-0.99891,0,0,0.2,1.1842e-16,0,0.66667
0.41456,0.82318,2.0728,0.48476,13.217,50.339,-2.6795,0.89318,-1.1634,-3.5727,6.5103e-13,-0.5817,0,0,0.2,-0,-0,0.66667
0.22604,0.66723,1.1302,0.25085,7.8044,79.593,-0.75604,0.25201,-1.7752,-1.008,-1.6926e-10,-0.88759,0,0,0.2,-4.737e-16,0,0.66667
0.0011148,0.8879,0.0055742,0.58185,19.26,118,-0.0086495,0.0028827,-0.79656,-0.011533,-6.9346e-07,-0.39828,0,0,0.2,-1.8504e-18,0,0.66667
0.68572,0.62398,3.4286,0.18597,3.1824,17.017,-1.7003,0.56678,-1.8785,-2.2671,2.9982e-12,-0.93924,0,0,0.2,-5.9212e-17,0,0.66667
0.95206,0.33799,4.7603,-0.24301,-0.63112,0.84138,3.0848,-1.0283,-1.791,4.1131,9.3165e-09,-0.89549,0,0,0.2,-9.4739e-16,0,0.66667
0.39115,0.18595,1.9558,-0.47108,-13.134,53.749,2.4568,-0.81895,-1.2129,3.2758,-1.9718e-12,-0.60644,0,0,0.2,-0,-0,0.66667
0.3003,0.96131,1.5015,0.69196,20.925,67.842,-2.7706,0.92353,-0.29744,-3.6941,5.0826e-13,-0.14872,0,0,0.2,4.737e-16,0,0.66667
0.55375,0.33471,2.7688,-0.24793,-5.6014,31.489,1.8306,-0.61019,-1.7805,2.4408,5.2913e-13,-0.89026,0,0,0.2,4.737e-16,0,0.66667
0.85198,0.46698,4.2599,-0.049526,-0.42379,4.5248,0.5626,-0.18753,-1.9914,0.75013,-2.0263e-09,-0.99569,0,0,0.2,-1.0658e-15,0,0.66667
0.79497,0.82856,3.9748,0.49283,5.8825,8.4089,-5.2238,1.7413,-1.1363,-6.9651,2.2427e-10,-0.56816,0,0,0.2,-9.4739e-16,0,0.66667
0.68476,0.92505,3.4238,0.63758,11.184,17.674,-5.8212,1.9404,-0.55431,-7.7616,-6.5459e-13,-0.27716,0,0,0.2,-9.4739e-16,0,0.66667
0.43211,0.81786,2.1605,0.47679,12.76,47.816,-2.747,0.91566,-1.1914,-3.6626,3.8924e-13,-0.59571,0,0,0.2,-0,-0,0.66667
0.69043,0.48274,3.4522,-0.025893,-0.43657,16.518,0.23836,-0.079454,-1.9972,0.31782,-6.5439e-13,-0.99859,0,0,0.2,-9.4739e-16,0,0.66667
0.21603,0.31413,1.0801,-0.2788,-8.7196,81.257,0.80305,-0.26768,-1.7246,1.0707,2.3408e-10,-0.8623,0,0,0.2,-0,-0,0.66667
0.28394,0.64158,1.4197,0.21237,6.3945,70.16,-0.80403,0.26801,-1.8393,-1.072,-2.0214e-11,-0.91963,0,0,0.2,4.737e-16,0,0.66667
0.77782,0.85455,3.8891,0.53182,6.8479,9.6806,-5.5155,1.8385,-0.99393,-7.354,9.029e-11,-0.49697,0,0,0.2,-1.8948e-15,0,0.66667
0.92998,0.58147,4.6499,0.1222,0.48109,1.3249,-1.5153,0.5051,-1.9457,-2.0204,1.5918e-08,-0.97287,0,0,0.2,-0,-0,0.66667
0.19005,0.68764,0.95025,0.28146,8.9021,85.588,-0.71322,0.23774,-1.7197,-0.95096,-5.0613e-10,-0.85984,0,0,0.2,-4.737e-16,0,0.66667
0.29606,0.87598,1.4803,0.56398,17.008,68.404,-2.2263,0.7421,-0.87097,-2.9684,7.816e-14,-0.43549,0,0,0.2,-0,2.8893e-17,0.66667
0.0062103,0.86618,0.031051,0.54928,18.16,117.12,-0.045482,0.015161,-0.92643,-0.060643,-2.9769e-08,-0.46322,0,0,0.2,-0,-0,0.66667
0.43156,0.11637,2.1578,-0.57544,-15.471,47.993,3.3112,-1.1037,-0.82185,4.4149,-8.3622e-13,-0.41092,0,0,0.2,4.737e-16,0,0.66667
0.2103,0.57264,1.0515,0.10896,3.4093,82.178,-0.30553,0.10184,-1.9568,-0.40737,-1.2873e-10,-0.97838,0,0,0.2,-0,-0,0.66667
0.64142,0.3382,3.2071,-0.2427,-4.6347,21.492,2.0756,-0.69187,-1.7917,2.7675,2.4849e-12,-0.89584,0,0,0.2,-9.4739e-16,0,0.66667
0.70959,0.78758,3.5479,0.43136,6.9704,15.046,-4.0812,1.3604,-1.3378,-5.4416,8.6051e-12,-0.66891,0,0,0.2,-0,-0,0.66667
0.11878,0.49182,0.59389,-0.012266,-0.39593,97.65,0.019425,-0.0064751,-1.9987,0.0259,-1.7368e-08,-0.99934,0,0,0.2,1.1842e-16,0,0.66667
0.082144,0.80883,0.41072,0.46325,15.17,103.99,-0.50737,0.16912,-1.2372,-0.6765,-1.2664e-08,-0.61861,0,0,0.2,-1.7764e-16,0,0.66667
0.90634,0.57723,4.5317,0.11584,0.62351,2.107,-1.3999,0.46662,-1.953,-1.8665,-1.8146e-09,-0.97652,0,0,0.2,-0,-0,0.66667
0.38924,0.23035,1.9462,-0.40447,-11.272,53.982,2.0992,-0.69972,-1.4186,2.7989,-1.8741e-12,-0.70928,0,0,0.2,-9.4739e-16,0,0.66667
0.5334,0.67716,2.667,0.26574,6.2021,34.031,-1.8899,0.62998,-1.7489,-2.5199,-4.2444e-13,-0.87447,0,0,0.2,-4.737e-16,0,0.66667
0.96324,0.52363,4.8162,0.035451,0.06465,0.48551,-0.45531,0.15177,-1.9949,-0.60707,1.0665e-07,-0.99745,0,0,0.2,-0,-0,0.66667
0.75905,0.78484,3.7953,0.42725,5.8679,10.913,-4.3241,1.4414,-1.3508,-5.7655,8.461e-11,-0.67538,0,0,0.2,1.8948e-15,0,0.66667
0.32554,0.55126,1.6277,0.076891,2.247,63.553,-0.33375,0.11125,-1.9788,-0.445,-1.9168e-13,-0.98939,0,0,0.2,-0,-0,0.66667
0.085849,0.29063,0.42925,-0.31406,-10.24,103.33,0.35949,-0.11983,-1.6483,0.47932,-1.3188e-09,-0.82416,0,0,0.2,2.3685e-16,0,0.66667
0.53602,0.83952,2.6801,0.50929,11.939,33.925,-3.6399,1.2133,-1.0778,-4.8532,-1.1102e-14,-0.53888,0,0,0.2,3.1739e-16,0,0.66667
0.33613,0.32556,1.6806,-0.26167,-7.6027,61.954,1.1727,-0.3909,-1.7554,1.5636,-1.6902e-12,-0.87768,0,0,0.2,-0,-0,0.66667
0.021685,0.34446,0.10843,-0.23331,-7.6504,114.43,0.067459,-0.022486,-1.8069,0.089945,3.5024e-08,-0.90344,0,0,0.2,-5.9212e-17,0,0.66667
0.77115,0.89637,3.8558,0.59456,7.9041,10.289,-6.1133,2.0378,-0.74227,-8.151,4.3043e-11,-0.37114,0,0,0.2,9.4739e-16,0,0.66667
0.38491,0.65606,1.9245,0.23409,6.5238,54.531,-1.2014,0.40046,-1.8057,-1.6019,1.9065e-12,-0.90286,0,0,0.2,4.737e-16,0,0.66667
0.57132,0.93655,2.8566,0.65483,14.612,29.832,-4.9883,1.6628,-0.47566,-6.651,-1.1369e-13,-0.23783,0,0,0.2,1.3027e-15,0,0.66667
0.75574,0.61748,3.7787,0.17622,2.4219,10.916,-1.7757,0.59188,-1.8889,-2.3675,7.8147e-11,-0.94447,0,0,0.2,4.737e-16,0,0.66667
0.94085,0.75185,4.7042,0.37778,1.2812,1.289,-4.7391,1.5797,-1.4933,-6.3187,-1.0142e-08,-0.74666,0,0,0.2,-0,-0,0.66667
0.61232,0.25147,3.0616,-0.37279,-7.6035,24.747,3.0436,-1.0145,-1.5068,4.0581,2.4096e-12,-0.75341,0,0,0.2,-0,-0,0.66667
0.3154,0.22927,1.577,-0.4061,-12.023,65.253,1.7077,-0.56925,-1.4134,2.277,3.4761e-13,-0.70669,0,0,0.2,-0,-0,0.66667
0.11008,0.74138,0.55038,0.36206,11.761,99.175,-0.5314,0.17713,-1.5347,-0.70853,-2.9978e-09,-0.76734,0,0,0.2,-0,-0,0.66667
0.073919,0.94857,0.36959,0.67286,22.23,105.45,-0.66316,0.22105,-0.38958,-0.88422,-3.7495e-08,-0.19479,0,0,0.2,-0,-0,0.66667
0.31969,0.41931,1.5985,-0.12103,-3.5533,64.474,0.5159,-0.17197,-1.9467,0.68787,1.5772e-12,-0.97336,0,0,0.2,-4.737e-16,0,0.66667
0.66084,0.3612,3.3042,-0.2082,-3.7971,19.47,1.8345,-0.61149,-1.845,2.446,9.4458e-13,-0.9225,0,0,0.2,9.4739e-16,0,0.66667
0.69515,0.36788,3.4758,-0.19818,-3.3062,16.135,1.8369,-0.61229,-1.8596,2.4492,-6.3218e-12,-0.92981,0,0,0.2,-0,-0,0.66667
0.20772,0.73831,1.0386,0.35747,11.24,82.66,-0.99003,0.33001,-1.5449,-1.32,-3.3083e-10,-0.77243,0,0,0.2,-2.3685e-16,0,0.66667
0.082796,0.67823,0.41398,0.26735,8.7143,103.85,-0.29514,0.098379,-1.7452,-0.39351,8.7312e-10,-0.87262,0,0,0.2,-0,-0,0.66667
0.30551,0.52817,1.5276,0.042256,1.2525,66.697,-0.17213,0.057376,-1.9935,-0.22951,-1.5802e-12,-0.99676,0,0,0.2,-4.737e-16,0,0.66667
0.54757,0.35916,2.7379,-0.21126,-4.8171,32.229,1.5424,-0.51414,-1.8417,2.0566,6.7946e-13,-0.92087,0,0,0.2,-9.4739e-16,0,0.66667
0.75467,0.17376,3.7733,-0.48936,-6.858,11.35,4.9241,-1.6414,-1.1476,6.5655,-5.4245e-11,-0.57382,0,0,0.2,-9.4739e-16,0,0.66667
0.52966,0.44107,2.6483,-0.088389,-2.0689,34.431,0.62421,-0.20807,-1.9733,0.83228,-1.2024e-13,-0.98664,0,0,0.2,-0,-0,0.66667
0.28698,0.80929,1.4349,0.46394,14.024,69.781,-1.7752,0.59175,-1.2347,-2.367,-8.0262e-12,-0.61734,0,0,0.2,-3.8873e-16,0,0.66667
0.62418,0.90794,3.1209,0.61191,12.331,23.773,-5.0925,1.6975,-0.67044,-6.79,-1.1671e-12,-0.33522,0,0,0.2,1.8948e-15,4.8382e-17,0.66667
0.26484,0.15852,1.3242,-0.51222,-15.717,73.365,1.8087,-0.60291,-1.0688,2.4116,2.2672e-11,-0.53439,0,0,0.2,-9.4739e-16,0,0.66667
0.65269,0.3553,3.2635,-0.21704,-4.0367,20.305,1.8888,-0.62961,-1.832,2.5185,1.7119e-12,-0.91599,0,0,0.2,-0,-0,0.66667
0.8419,0.89203,4.2095,0.58805,5.576,5.7133,-6.6011,2.2004,-0.77042,-8.8014,7.5153e-10,-0.38521,0,0,0.2,9.4739e-16,2.8393e-16,0.66667
0.63895,0.18698,3.1947,-0.46953,-9.0948,21.982,4,-1.3333,-1.2178,5.3334,2.7116e-12,-0.60888,0,0,0.2,-1.3027e-15,0,0.66667
0.56563,0.34366,2.8282,-0.23452,-5.1928,30.039,1.7687,-0.58956,-1.8056,2.3582,9.8865e-13,-0.90281,0,0,0.2,3.7007e-17,0,0.66667
0.30714,0.19339,1.5357,-0.45992,-13.717,66.583,1.8835,-0.62783,-1.2475,2.5113,1.1421e-12,-0.62376,0,0,0.2,-0,-0,0.66667
0.87678,0.66786,4.3839,0.25179,1.8106,3.423,-2.9435,0.98117,-1.7747,-3.9247,2.1683e-09,-0.88733,0,0,0.2,-0,-0,0.66667
0.98882,0.96964,4.9441,0.70446,0.47363,1.1904,-9.2877,3.0959,-0.23617,-12.384,1.8296e-05,-0.11808,0,0,0.2,-0,-0,0.66667
0.77748,0.33041,3.8874,-0.25439,-3.2226,9.3284,2.6371,-0.87903,-1.7692,3.5161,-1.9539e-10,-0.88462,0,0,0.2,-9.4739e-16,0,0.66667
0.57364,0.040194,2.8682,-0.68971,-15.363,29.617,5.2753,-1.7584,-0.30806,7.0337,-1.2035e-13,-0.15403,0,0,0.2,-0,1.2067e-16,0.66667
0.14128,0.53468,0.7064,0.052027,1.6694,93.805,-0.098004,0.032668,-1.9919,-0.13067,2.2445e-09,-0.99594,0,0,0.2,4.737e-16,0,0.66667
0.31493,0.96343,1.5746,0.69515,20.816,65.549,-2.919,0.97299,-0.28232,-3.8919,5.8176e-13,-0.14116,0,0,0.2,-2.3685e-16,0,0.66667
0.36686,0.80289,1.8343,0.45433,12.938,57.364,-2.2224,0.74079,-1.2651,-2.9631,2.5087e-12,-0.63254,0,0,0.2,-4.737e-16,0,0.66667
0.2919,0.9046,1.4595,0.60691,18.384,69.098,-2.362,0.78735,-0.69075,-3.1494,-1.2879e-14,-0.34538,0,0,0.2,-5.9212e-17,0,0.66667
0.44595,0.45973,2.2298,-0.06041,-1.5782,45.641,0.3592,-0.11973,-1.9861,0.47894,-6.3272e-13,-0.99305,0,0,0.2,-0,-0,0.66667
0.61063,0.26,3.0532,-0.36,-7.3639,24.922,2.931,-0.97701,-1.5396,3.908,2.3939e-12,-0.7698,0,0,0.2,-0,-0,0.66667
0.21291,0.26616,1.0646,-0.35077,-11.002,81.795,0.99578,-0.33193,-1.5614,1.3277,2.8419e-10,-0.78071,0,0,0.2,4.737e-16,0,0.66667
0.24976,0.47458,1.2488,-0.038133,-1.1696,75.665,0.12699,-0.04233,-1.9962,0.16932,1.965e-11,-0.99808,0,0,0.2,-0,-0,0.66667
0.11215,0.21552,0.56075,-0.42672,-13.877,98.832,0.63809,-0.2127,-1.3532,0.85079,4.7684e-09,-0.67662,0,0,0.2,-2.9606e-16,0,0.66667
0.30759,0.83241,1.5379,0.49862,14.886,66.538,-2.0449,0.68164,-1.1152,-2.7266,-8.7264e-14,-0.55759,0,0,0.2,-0,-0,0.66667
0.49745,0.16486,2.4872,-0.50271,-12.449,38.881,3.3343,-1.1114,-1.1015,4.4457,-4.5075e-14,-0.55074,0,0,0.2,-0,-0,0.66667
0.48981,0.36145,2.449,-0.20782,-5.1536,39.666,1.3573,-0.45242,-1.8454,1.8097,-2.8599e-13,-0.9227,0,0,0.2,-0,-0,0.66667
0.99558,0.89597,4.9779,0.59395,0.045563,0.81508,-7.8843,2.6281,-0.74501,-10.512,8.5246e-07,-0.37251,0,0,0.2,-0,-0,0.66667
0.98111,0.77957,4.9055,0.41935,0.35501,0.57633,-5.4857,1.8286,-1.3755,-7.3142,-1.361e-08,-0.68777,0,0,0.2,-2.3685e-16,0,0.66667
0.43656,0.84552,2.1828,0.51828,13.826,47.225,-3.0168,1.0056,-1.0466,-4.0225,2.8e-13,-0.52329,0,0,0.2,-0,-2.6143e-16,0.66667
0.97202,0.93598,4.8601,0.65397,1.1113,1.2512,-8.4756,2.8252,-0.48021,-11.301,1.0352e-06,-0.2401,0,0,0.2,4.737e-16,0,0.66667
0.2144,0.87543,1.072,0.56315,17.766,81.641,-1.6098,0.53662,-0.87316,-2.1465,-1.9977e-10,-0.43658,0,0,0.2,-0,-0,0.66667
0.54112,0.71619,2.7056,0.32429,7.4906,33.104,-2.3397,0.7799,-1.6262,-3.1196,-5.6e-13,-0.81309,0,0,0.2,1.1842e-15,0,0.66667
0.45344,0.45992,2.2672,-0.060118,-1.5571,44.593,0.36346,-0.12115,-1.9881,0.48461,-3.8688e-13,-0.99405,0,0,0.2,4.737e-16,0,0.66667
0.96761,0.011828,4.838,-0.73226,-1.5357,1.5554,9.4472,-3.1491,-0.093845,12.596,-1.524e-06,-0.046923,0,0,0.2,-0,2.2286e-16,0.66667
0.83618,0.93103,4.1809,0.64654,6.386,6.1659,-7.2083,2.4028,-0.51305,-9.6111,-2.9138e-10,-0.25652,0,0,0.2,-4.737e-16,0,0.66667
0.21415,0.084764,1.0707,-0.62285,-19.697,81.717,1.7784,-0.59281,-0.62004,2.3712,5.3999e-12,-0.31002,0,0,0.2,-0,-0,0.66667
0.43954,0.93456,2.1977,0.65184,17.437,46.957,-3.8201,1.2734,-0.49027,-5.0935,1.7719e-13,-0.24513,0,0,0.2,1.1842e-16,0,0.66667
0.16848,0.84561,0.84238,0.51841,16.632,89.288,-1.1645,0.38818,-1.0452,-1.5527,-1.709e-09,-0.52259,0,0,0.2,-0,-0,0.66667
0.52909,0.96164,2.6454,0.69245,16.561,35.058,-4.8849,1.6283,-0.29547,-6.5132,4.0767e-13,-0.14773,0,0,0.2,-0,-0,0.66667
0.79348,0.27304,3.9674,-0.34044,-4.0454,8.286,3.6017,-1.2006,-1.5877,4.8023,-3.44e-10,-0.79386,0,0,0.2,-0,-0,0.66667
0.035879,0.48529,0.1794,-0.022063,-0.72163,111.96,0.010555,-0.0035182,-1.9974,0.014074,3.9175e-07,-0.99868,0,0,0.2,-5.9212e-17,0,0.66667
0.19136,0.026703,0.95679,-0.70995,-22.755,85.549,1.8114,-0.6038,-0.20805,2.4152,2.9546e-11,-0.10403,0,0,0.2,-0,-0,0.66667
0.97746,0.28172,4.8873,-0.32742,-0.33196,0.47662,4.2672,-1.4224,-1.6192,5.6896,-2.2213e-09,-0.80961,0,0,0.2,-0,-0,0.66667
0.9608,0.01254,4.804,-0.73119,-1.8524,1.672,9.367,-3.1223,-0.097889,12.489,-5.6839e-07,-0.048944,0,0,0.2,-0,-0,0.66667
0.55659,0.81711,2.783,0.47566,10.778,31.346,-3.53,1.1767,-1.1953,-4.7066,-5.4046e-13,-0.59764,0,0,0.2,-0,-0,0.66667
0.64609,0.68533,3.2305,0.278,5.2585,21.03,-2.3948,0.79827,-1.7254,-3.1931,-2.6241e-12,-0.86271,0,0,0.2,3.5527e-16,0,0.66667
0.27209,0.8454,1.3605,0.5181,15.833,72.2,-1.8796,0.62654,-1.0458,-2.5062,-1.1733e-11,-0.52289,0,0,0.2,-0,-0,0.66667
0.95209,0.037442,4.7605,-0.69384,-2.1046,1.7343,8.8079,-2.936,-0.28923,11.744,-1.6742e-06,-0.14461,0,0,0.2,-0,1.5053e-16,0.66667
0.66977,0.21161,3.3489,-0.43258,-7.7825,18.792,3.8631,-1.2877,-1.335,5.1508,2.0839e-12,-0.6675,0,0,0.2,-9.4739e-16,0,0.66667
0.66681,0.019403,3.334,-0.7209,-13.313,19.578,6.4093,-2.1364,-0.15131,8.5458,4.3476e-13,-0.075657,0,0,0.2,-0,-0,0.66667
0.011103,0.17334,0.055517,-0.49,-16.167,116.27,0.072541,-0.02418,-1.1455,0.096722,8.2207e-08,-0.57273,0,0,0.2,-0,-0,0.66667
0.85297,0.59001,4.2648,0.13502,1.1499,4.5024,-1.5355,0.51184,-1.935,-2.0474,1.3004e-09,-0.9675,0,0,0.2,-0,-0,0.66667
0.77833,0.0073443,3.8916,-0.73898,-9.6979,10.099,7.6689,-2.5563,-0.058352,10.225,-1.2754e-11,-0.029176,0,0,0.2,-0,-1.7033e-16,0.66667
0.68492,0.67393,3.4246,0.26089,4.4829,17.143,-2.3825,0.79418,-1.7577,-3.1767,2.4887e-12,-0.87885,0,0,0.2,9.4739e-16,0,0.66667
0.74078,0.83099,3.7039,0.49649,7.3051,12.473,-4.9038,1.6346,-1.1224,-6.5384,2.9781e-11,-0.56122,0,0,0.2,-9.4739e-16,0,0.66667
0.15657,0.33546,0.78286,-0.24681,-7.897,91.224,0.51525,-0.17175,-1.7844,0.687,1.1393e-09,-0.8922,0,0,0.2,-0,-0,0.66667
0.71878,0.57047,3.5939,0.1057,1.6427,13.955,-1.013,0.33767,-1.9615,-1.3507,1.349e-11,-0.98073,0,0,0.2,1.8948e-15,0,0.66667
0.096818,0.70117,0.48409,0.30175,9.8166,101.44,-0.38954,0.12985,-1.6758,-0.51938,-1.4035e-09,-0.83789,0,0,0.2,-2.3685e-16,0,0.66667
0.70695,0.89364,3.5347,0.59046,9.7144,15.538,-5.5656,1.8552,-0.75974,-7.4208,2.4203e-13,-0.37987,0,0,0.2,9.4739e-16,0,0.66667
0.0026318,0.10243,0.013159,-0.59636,-19.751,117.74,0.020926,-0.006975,-0.73548,0.027902,6.1012e-07,-0.36774,0,0,0.2,-0,-1.3293e-16,0.66667
0.77621,0.89618,3.881,0.59427,7.7452,9.919,-6.1504,2.0501,-0.74355,-8.2005,5.0534e-11,-0.37177,0,0,0.2,-0,-0,0.66667
0.49156,0.16976,2.4578,-0.49536,-12.359,39.653,3.2466,-1.0822,-1.1263,4.3289,-2.7534e-13,-0.56316,0,0,0.2,9.4739e-16,0,0.66667
0.20439,0.90836,1.0219,0.61254,19.446,83.327,-1.6693,0.55642,-0.66739,-2.2257,-1.5649e-10,-0.3337,0,0,0.2,-0,-0,0.66667
0.72925,0.41868,3.6462,-0.12197,-1.8343,13.057,1.186,-0.39533,-1.9462,1.5813,-2.4148e-11,-0.97308,0,0,0.2,-0,-0,0.66667
0.31565,0.54415,1.5783,0.066219,1.949,65.1,-0.2787,0.092899,-1.9839,-0.3716,-9.0575e-13,-0.99197,0,0,0.2,4.737e-16,0,0.66667
0.88382,0.91013,4.4191,0.61519,4.3708,3.7289,-7.2496,2.4165,-0.65411,-9.6661,-1.0077e-08,-0.32705,0,0,0.2,-0,-0,0.66667
0.18023,0.3165,0.90117,-0.27525,-8.7381,87.234,0.66147,-0.22049,-1.7303,0.88195,6.0371e-10,-0.86516,0,0,0.2,-0,-0,0.66667
0.93855,0.72397,4.6928,0.33595,1.1773,1.2871,-4.2041,1.4014,-1.5997,-5.6055,-8.9196e-09,-0.79987,0,0,0.2,1.8948e-15,0,0.66667
0.97075,0.41629,4.8538,-0.12557,-0.17008,0.38239,1.6253,-0.54176,-1.944,2.167,9.4515e-09,-0.97202,0,0,0.2,-0,-0,0.66667
0.30449,0.12282,1.5224,-0.56577,-16.968,67.075,2.2969,-0.76564,-0.86191,3.0625,-1.9762e-13,-0.43095,0,0,0.2,-2.3685e-16,0,0.66667
0.86249,0.39431,4.3124,-0.15854,-1.2651,4.0294,1.8231,-0.60771,-1.9102,2.4308,7.9776e-10,-0.95511,0,0,0.2,-9.4739e-16,0,0.66667
0.84218,0.12743,4.2109,-0.55885,-5.2709,5.6353,6.2754,-2.0918,-0.89082,8.3671,-1.8417e-09,-0.44541,0,0,0.2,-0,2.014e-16,0.66667
0.42461,0.24593,2.1231,-0.3811,-10.248,48.808,2.1576,-0.7192,-1.4841,2.8768,-1.436e-12,-0.74207,0,0,0.2,-0,-0,0.66667
0.36368,0.45678,1.8184,-0.064837,-1.8378,57.68,0.3144,-0.1048,-1.9843,0.4192,-1.0998e-12,-0.99215,0,0,0.2,-0,-0,0.66667
0.28244,0.41166,1.4122,-0.13251,-3.9898,70.384,0.49901,-0.16634,-1.9385,0.66535,1.6259e-11,-0.96926,0,0,0.2,-0,-0,0.66667
0.99324,0.54349,4.9662,0.065233,-0.008455,0.064907,-0.8639,0.28797,-1.9837,-1.1519,1.3954e-06,-0.99187,0,0,0.2,-0,-0,0.66667
0.25575,0.16402,1.2788,-0.50397,-15.539,74.831,1.7185,-0.57285,-1.0963,2.2914,3.3396e-11,-0.54813,0,0,0.2,-0,-0,0.66667
0.92068,0.42194,4.6034,-0.1171,-0.52804,1.6109,1.4374,-0.47915,-1.9515,1.9166,6.7482e-09,-0.97573,0,0,0.2,-0,-0,0.66667
0.42834,0.66732,2.1417,0.25098,6.7012,48.197,-1.4334,0.4778,-1.775,-1.9112,7.2964e-13,-0.88749,0,0,0.2,-0,-0,0.66667
0.93543,0.38454,4.6771,-0.17318,-0.62583,1.1997,2.16,-0.72,-1.8935,2.88,1.7638e-08,-0.94673,0,0,0.2,-0,-0,0.66667
0.83884,0.035132,4.1942,-0.6973,-6.8328,6.1439,7.799,-2.5997,-0.27118,10.399,1.6176e-10,-0.13559,0,0,0.2,-0,-0,0.66667
0.15578,0.83278,0.77889,0.49918,16.073,91.424,-1.0368,0.3456,-1.1147,-1.3824,-7.356e-10,-0.55737,0,0,0.2,-0,-0,0.66667
0.57428,0.88002,2.8714,0.57003,12.594,29.35,-4.3648,1.4549,-0.84473,-5.8198,-5.5511e-14,-0.42236,0,0,0.2,-1.8948e-15,0,0.66667
0.6735,0.33368,3.3675,-0.24948,-4.4144,18.239,2.2403,-0.74678,-1.7789,2.9871,-2.2737e-13,-0.88947,0,0,0.2,9.4739e-16,0,0.66667
0.40582,0.83678,2.0291,0.50516,13.905,51.626,-2.7334,0.91114,-1.0938,-3.6445,8.9329e-13,-0.54688,0,0,0.2,2.3685e-16,0,0.66667
0.004877,0.40127,0.024385,-0.14809,-4.8532,117.35,0.0096298,-0.0032097,-1.9219,0.01284,4.1143e-07,-0.96093,0,0,0.2,-1.1102e-17,0,0.66667
0.32533,0.62406,1.6267,0.1861,5.4448,63.606,-0.80724,0.26908,-1.878,-1.0763,9.0095e-14,-0.93898,0,0,0.2,1.1842e-16,0,0.66667
0.83894,0.15074,4.1947,-0.52389,-5.0156,5.7435,5.8602,-1.9534,-1.0239,7.8136,-9.6565e-10,-0.51195,0,0,0.2,-4.737e-16,0,0.66667
0.062824,0.53924,0.31412,0.058864,1.9203,107.29,-0.049307,0.016436,-1.9887,-0.065743,-1.3301e-07,-0.99435,0,0,0.2,-0,-0,0.66667
0.10542,0.076539,0.5271,-0.63519,-20.833,100.04,0.89282,-0.29761,-0.56471,1.1904,-2.0881e-08,-0.28236,0,0,0.2,-0,-0,0.66667
0.70179,0.9331,3.5089,0.64965,10.895,16.119,-6.0789,2.0263,-0.50043,-8.1052,-7.3097e-13,-0.25022,0,0,0.2,1.1842e-15,-1.1462e-16,0.66667
0.51416,0.58594,2.5708,0.12891,3.0881,36.43,-0.88373,0.29458,-1.9414,-1.1783,-5.2514e-14,-0.97072,0,0,0.2,-0,-0,0.66667
0.49817,0.097724,2.4908,-0.60341,-14.998,38.909,4.008,-1.336,-0.70629,5.344,1.3323e-15,-0.35314,0,0,0.2,-0,1.0899e-16,0.66667
0.37361,0.13991,1.868,-0.54014,-15.34,56.419,2.6907,-0.89689,-0.9628,3.5876,-1.7228e-12,-0.4814,0,0,0.2,4.737e-16,0,0.66667
0.60351,0.94096,3.0176,0.66144,13.932,26.133,-5.3225,1.7742,-0.44436,-7.0967,-8.8951e-13,-0.22218,0,0,0.2,1.8948e-15,0,0.66667
0.85147,0.35039,4.2573,-0.22442,-1.938,4.6423,2.5478,-0.84927,-1.8202,3.3971,-1.2137e-09,-0.91012,0,0,0.2,-0,-0,0.66667
0.27692,0.80696,1.3846,0.46044,14.004,71.389,-1.7001,0.5667,-1.2461,-2.2668,-1.6515e-11,-0.62303,0,0,0.2,-5.9212e-16,0,0.66667
0.84476,0.9507,4.2238,0.67605,6.3796,5.7663,-7.6147,2.5382,-0.37527,-10.153,2.0523e-09,-0.18763,0,0,0.2,1.8948e-15,0,0.66667
0.41662,0.63669,2.0831,0.20504,5.5377,49.863,-1.139,0.37966,-1.8496,-1.5186,7.4074e-13,-0.9248,0,0,0.2,-0,-0,0.66667
0.50098,0.51115,2.5049,0.016729,0.40793,38.134,-0.11175,0.037249,-1.9995,-0.149,-4.1103e-13,-0.99973,0,0,0.2,1.8948e-15,0,0.66667
0.72962,0.98144,3.6481,0.72216,11.227,13.847,-7.0254,2.3418,-0.14484,-9.3672,3.566e-13,-0.072419,0,0,0.2,-0,-0,0.66667
0.25872,0.98466,1.2936,0.72699,22.585,74.508,-2.5079,0.83595,-0.1196,-3.3438,3.1157e-12,-0.059798,0,0,0.2,-4.737e-16,0,0.66667
0.92164,0.60261,4.6082,0.15392,0.68658,1.6003,-1.8914,0.63047,-1.9168,-2.5219,-1.8393e-08,-0.95838,0,0,0.2,-0,-0,0.66667
0.70207,0.13128,3.5103,-0.55309,-9.2018,15.912,5.1774,-1.7258,-0.91323,6.9032,-2.9798e-13,-0.45661,0,0,0.2,-0,-0,0.66667
0.61893,0.33593,3.0947,-0.2461,-4.9327,23.911,2.0309,-0.67697,-1.7839,2.7079,2.0459e-12,-0.89197,0,0,0.2,9.4739e-16,0,0.66667
0.27301,0.9016,1.365,0.60241,18.459,72.11,-2.1928,0.73094,-0.70932,-2.9238,-3.1004e-12,-0.35466,0,0,0.2,-5.9212e-16,0,0.66667
0.69585,0.70998,3.4792,0.31498,5.2641,16.163,-2.9223,0.97411,-1.6463,-3.8964,5.6393e-12,-0.82317,0,0,0.2,-0,-0,0.66667
0.25721,0.075316,1.2861,-0.63703,-19.726,74.681,2.1847,-0.72823,-0.55597,2.9129,5.2287e-12,-0.27798,0,0,0.2,-0,-0,0.66667
0.81645,0.36453,4.0823,-0.2032,-2.1485,6.6464,2.2121,-0.73736,-1.8526,2.9494,-3.6497e-10,-0.92631,0,0,0.2,-0,-0,0.66667
0.011472,0.17335,0.057362,-0.48998,-16.167,116.21,0.07495,-0.024983,-1.1456,0.099934,7.3052e-08,-0.5728,0,0,0.2,-0,-0,0.66667
0.16654,0.077767,0.83269,-0.63335,-20.42,89.664,1.4064,-0.46878,-0.57271,1.8751,4.7245e-10,-0.28636,0,0,0.2,-0,-0,0.66667
0.55783,0.50684,2.7891,0.010264,0.22968,30.915,-0.076339,0.025446,-1.9992,-0.10179,7.9554e-14,-0.99962,0,0,0.2,-0,-0,0.66667
0.71228,0.77762,3.5614,0.41642,6.6704,14.786,-3.9548,1.3183,-1.3833,-5.2731,1.1557e-11,-0.69163,0,0,0.2,-1.1842e-15,0,0.66667
0.49248,0.13862,2.4624,-0.54208,-13.536,39.583,3.5595,-1.1865,-0.95399,4.746,7.0832e-14,-0.477,0,0,0.2,-9.4739e-16,0,0.66667
0.87781,0.14713,4.389,-0.52931,-3.8933,3.7991,6.1951,-2.065,-1.0037,8.2601,-1.1976e-09,-0.50187,0,0,0.2,-0,-0,0.66667
0.97587,0.9162,4.8793,0.6243,0.88033,1.1124,-8.1232,2.7077,-0.61321,-10.831,-7.1664e-07,-0.3066,0,0,0.2,-0,-0,0.66667
0.46428,0.87242,2.3214,0.55863,14.462,43.408,-3.4581,1.1527,-0.89076,-4.6108,1.9607e-13,-0.44538,0,0,0.2,1.1842e-16,0,0.66667
0.76799,0.93882,3.8399,0.65824,8.912,10.661,-6.7402,2.2467,-0.46065,-8.987,5.3983e-12,-0.23032,0,0,0.2,-0,-0,0.66667
0.49477,0.59227,2.4739,0.13841,3.4061,38.978,-0.91305,0.30435,-1.9323,-1.2174,-2.387e-15,-0.96613,0,0,0.2,4.737e-16,0,0.66667
0.6651,0.07643,3.3255,-0.63535,-11.705,19.575,5.6343,-1.8781,-0.56352,7.5124,1.2088e-12,-0.28176,0,0,0.2,-0,-0,0.66667
0.22487,0.96408,1.1244,0.69613,21.975,79.996,-2.0872,0.69574,-0.2767,-2.783,-8.8884e-12,-0.13835,0,0,0.2,-2.3685e-16,0,0.66667
0.10954,0.38954,0.54771,-0.16569,-5.3647,99.241,0.242,-0.080665,-1.9031,0.32266,8.6332e-10,-0.95155,0,0,0.2,2.3685e-16,0,0.66667
0.97901,0.4721,4.895,-0.041852,-0.033619,0.22543,0.54631,-0.1821,-1.9938,0.72842,-2.9253e-07,-0.99689,0,0,0.2,-0,-0,0.66667
0.81499,0.78087,4.075,0.4213,4.5473,6.9846,-4.5781,1.526,-1.3702,-6.1041,4.2774e-10,-0.68512,0,0,0.2,1.0954e-15,0,0.66667
0.28538,0.52687,1.4269,0.040305,1.2107,69.901,-0.15337,0.051122,-1.9943,-0.20449,-5.3991e-12,-0.99716,0,0,0.2,2.3685e-16,0,0.66667
0.58583,0.1774,2.9291,-0.48391,-10.43,27.881,3.7798,-1.2599,-1.1664,5.0398,1.001e-12,-0.58319,0,0,0.2,-0,-0,0.66667
0.38007,0.46947,1.9004,-0.045794,-1.2794,55.209,0.23207,-0.077356,-1.9931,0.30942,-4.04e-13,-0.99655,0,0,0.2,-0,-0,0.66667
0.17634,0.25812,0.88169,-0.36282,-11.556,87.912,0.85306,-0.28435,-1.5315,1.1374,8.3551e-10,-0.76573,0,0,0.2,4.737e-16,0,0.66667
0.41884,0.34825,2.0942,-0.22763,-6.136,49.552,1.2712,-0.42373,-1.8161,1.6949,-1.5257e-12,-0.90807,0,0,0.2,-9.4739e-16,0,0.66667
0.29719,0.94853,1.4859,0.6728,20.369,68.315,-2.666,0.88866,-0.39131,-3.5546,9.3991e-13,-0.19566,0,0,0.2,-0,-0,0.66667
0.016624,0.2961,0.083121,-0.30586,-10.044,115.31,0.067795,-0.022598,-1.6677,0.090393,1.2159e-09,-0.83384,0,0,0.2,2.9606e-17,0,0.66667
0.38737,0.78577,1.9368,0.42866,11.976,54.277,-2.214,0.73799,-1.347,-2.952,2.0091e-12,-0.67349,0,0,0.2,-9.4739e-16,0,0.66667
0.92091,0.56351,4.6046,0.09527,0.42776,1.5938,-1.1698,0.38993,-1.9695,-1.5597,5.6005e-08,-0.98477,0,0,0.2,-0,-0,0.66667
0.8282,0.44734,4.141,-0.078991,-0.78143,5.8659,0.87227,-0.29076,-1.9788,1.163,-5.3681e-10,-0.9894,0,0,0.2,-0,-0,0.66667
0.57407,0.62939,2.8704,0.19409,4.2319,29.008,-1.4856,0.49521,-1.8662,-1.9808,-1.329e-12,-0.93308,0,0,0.2,1.8948e-15,0,0.66667
0.31865,0.24546,1.5932,-0.38181,-11.27,64.73,1.6222,-0.54072,-1.4814,2.1629,2.3204e-14,-0.74069,0,0,0.2,5.9212e-16,0,0.66667
0.23126,0.69081,1.1563,0.28621,8.8875,78.742,-0.88254,0.29418,-1.7093,-1.1767,-1.6411e-10,-0.85464,0,0,0.2,-0,-0,0.66667
0.95602,0.77061,4.7801,0.40591,0.99655,0.97921,-5.1741,1.7247,-1.4139,-6.8988,-2.4664e-08,-0.70695,0,0,0.2,9.4739e-16,0,0.66667
0.56461,0.36265,2.8231,-0.20602,-4.5671,30.146,1.551,-0.51699,-1.849,2.068,1.0173e-12,-0.9245,0,0,0.2,-9.4739e-16,0,0.66667
0.21761,0.47162,1.088,-0.042574,-1.3272,80.959,0.12353,-0.041175,-1.9949,0.1647,8.9868e-11,-0.99746,0,0,0.2,-0,-0,0.66667
0.24948,0.63019,1.2474,0.19528,5.998,75.731,-0.64958,0.21653,-1.8657,-0.86611,-7.0583e-11,-0.93285,0,0,0.2,-0,-0,0.66667
0.9596,0.90128,4.798,0.60192,1.4636,1.3272,-7.7013,2.5671,-0.71142,-10.268,6.8287e-07,-0.35571,0,0,0.2,-2.3685e-15,0,0.66667
0.23881,0.26484,1.1941,-0.35274,-10.927,77.523,1.1232,-0.3744,-1.5567,1.4976,1.1839e-10,-0.77836,0,0,0.2,-0,-0,0.66667
0.10671,0.92568,0.53357,0.63852,20.939,99.817,-0.90853,0.30284,-0.55009,-1.2114,2.8262e-08,-0.27505,0,0,0.2,-2.448e-16,2.5666e-16,0.66667
0.18396,0.70113,0.91981,0.3017,9.5687,86.614,-0.74001,0.24667,-1.6758,-0.98668,-5.8204e-10,-0.83788,0,0,0.2,-0,-0,0.66667
0.76622,0.043036,3.8311,-0.68545,-9.3682,10.855,7.0027,-2.3342,-0.33006,9.337,-1.1322e-11,-0.16503,0,0,0.2,-0,-0,0.66667
0.70876,0.83208,3.5438,0.49812,8.1006,15.218,-4.7073,1.5691,-1.1168,-6.2764,4.2495e-12,-0.5584,0,0,0.2,-0,-0,0.66667
0.43794,0.41619,2.1897,-0.12571,-3.3154,46.784,0.73405,-0.24468,-1.9446,0.97873,-1.0456e-12,-0.9723,0,0,0.2,-0,-0,0.66667
0.7938,0.15426,3.969,-0.5186,-6.2361,8.534,5.4889,-1.8296,-1.0445,7.3186,-2.1956e-10,-0.52227,0,0,0.2,-9.4739e-16,0,0.66667
0.51751,0.33621,2.5876,-0.24569,-5.8684,36.046,1.6953,-0.56511,-1.7857,2.2604,2.9166e-13,-0.89287,0,0,0.2,-4.737e-16,0,0.66667
0.4136,0.82155,2.068,0.48233,13.162,50.476,-2.6599,0.88662,-1.1719,-3.5465,1.2543e-12,-0.58595,0,0,0.2,-9.4739e-16,0,0.66667
0.11744,0.69551,0.58721,0.29327,9.4959,97.901,-0.45923,0.15308,-1.6934,-0.61231,-7.2522e-10,-0.84668,0,0,0.2,-0,-0,0.66667
0.88391,0.27061,4.4196,-0.34409,-2.3499,3.214,4.0552,-1.3517,-1.578,5.407,-2.9984e-09,-0.789,0,0,0.2,-0,-0,0.66667
0.27559,0.84032,1.378,0.51048,15.564,71.633,-1.8758,0.62527,-1.0734,-2.5011,-9.9452e-12,-0.5367,0,0,0.2,-1.1842e-16,0,0.66667
0.61626,0.071645,3.0813,-0.64253,-13.184,24.687,5.2796,-1.7599,-0.53117,7.0394,5.4845e-13,-0.26559,0,0,0.2,-0,-0,0.66667
0.98458,0.4275,4.9229,-0.10875,-0.048828,0.17453,1.4277,-0.4759,-1.9588,1.9036,-4.6006e-07,-0.97942,0,0,0.2,-0,-0,0.66667
0.18942,0.54934,0.94709,0.074005,2.3356,85.663,-0.1869,0.062301,-1.9805,-0.24921,-1.2613e-10,-0.99024,0,0,0.2,-0,-0,0.66667
0.96519,0.74377,4.8259,0.36566,0.67125,0.73301,-4.7057,1.5686,-1.5246,-6.2743,-2.1764e-08,-0.76229,0,0,0.2,-0,-0,0.66667
0.65272,0.27386,3.2636,-0.33921,-6.3324,20.401,2.9521,-0.98403,-1.5907,3.9361,2.8686e-12,-0.79536,0,0,0.2,-9.4739e-16,0,0.66667
0.12873,0.62091,0.64366,0.18136,5.8457,95.955,-0.3113,0.10377,-1.8833,-0.41506,-4.3656e-10,-0.94164,0,0,0.2,-0,-0,0.66667
0.77193,0.10576,3.8596,-0.59136,-7.8357,10.226,6.0865,-2.0288,-0.75552,8.1153,-4.2637e-11,-0.37776,0,0,0.2,-0,-0,0.66667
0.95178,0.8465,4.7589,0.51975,1.4731,1.2943,-6.5958,2.1986,-1.0408,-8.7944,9.3761e-09,-0.5204,0,0,0.2,-0,-0,0.66667
0.56278,0.8287,2.8139,0.49305,11.066,30.618,-3.6997,1.2332,-1.1363,-4.9329,-3.2219e-13,-0.56816,0,0,0.2,-9.4739e-16,0,0.66667
0.68856,0.084959,3.4428,-0.62256,-10.8,17.287,5.7156,-1.9052,-0.62253,7.6208,1.3038e-12,-0.31126,0,0,0.2,-0,-0,0.66667
0.026348,0.2432,0.13174,-0.3852,-12.666,113.63,0.13532,-0.045108,-1.472,0.18043,-1.9068e-08,-0.736,0,0,0.2,-4.4409e-17,0,0.66667
0.98908,0.41068,4.9454,-0.13399,-0.021387,0.13665,1.767,-0.58899,-1.9361,2.356,3.7872e-08,-0.96806,0,0,0.2,-0,-0,0.66667
0.31846,0.66236,1.5923,0.24353,7.1674,64.699,-1.0341,0.34469,-1.7886,-1.3788,-2.0477e-12,-0.89431,0,0,0.2,-0,-0,0.66667
0.023904,0.55138,0.11952,0.077066,2.5229,114.04,-0.024563,0.0081873,-1.9778,-0.03275,-3.8886e-07,-0.98889,0,0,0.2,-0,-0,0.66667
0.80856,0.51856,4.0428,0.027847,0.30516,7.0756,-0.30022,0.10007,-1.9966,-0.40029,7.6618e-11,-0.99828,0,0,0.2,1.8948e-15,0,0.66667
0.97325,0.66548,4.8663,0.24822,0.30775,0.44088,-3.221,1.0737,-1.7803,-4.2947,1.8068e-08,-0.89017,0,0,0.2,1.8948e-15,0,0.66667
0.73759,0.58605,3.6879,0.12907,1.8887,12.359,-1.2694,0.42312,-1.9407,-1.6925,3.2846e-11,-0.97033,0,0,0.2,-0,-0,0.66667
0.0027358,0.94114,0.013679,0.66171,21.971,117.72,-0.024142,0.0080462,-0.44377,-0.032189,-1.5357e-06,-0.22188,0,0,0.2,-7.4015e-18,1.1296e-15,0.66667
0.063361,0.84953,0.3168,0.5243,17.25,107.24,-0.44293,0.14764,-1.0237,-0.59057,6.5056e-09,-0.51183,0,0,0.2,-0,-0,0.66667
0.58427,0.26975,2.9213,-0.34538,-7.4238,27.913,2.6906,-0.89686,-1.5748,3.5874,1.5603e-12,-0.78742,0,0,0.2,-9.4739e-16,0,0.66667
0.33572,0.56652,1.6786,0.099784,2.8941,61.973,-0.44665,0.14888,-1.9643,-0.59554,7.2883e-13,-0.98215,0,0,0.2,-0,-0,0.66667
0.88183,0.85003,4.4092,0.52504,3.7356,3.6128,-6.1733,2.0578,-1.0192,-8.2311,8.1201e-10,-0.50962,0,0,0.2,-0,-0,0.66667
0.87367,0.84528,4.3683,0.51792,3.9284,3.9635,-6.0332,2.0111,-1.0478,-8.0443,2.2603e-10,-0.5239,0,0,0.2,-0,-0,0.66667
0.98752,0.56755,4.9376,0.10132,0.02575,0.13678,-1.3341,0.4447,-1.9638,-1.7788,1.1467e-06,-0.98188,0,0,0.2,-0,-0,0.66667
0.71583,0.72078,3.5792,0.33118,5.227,14.371,-3.1609,1.0536,-1.6109,-4.2145,1.9356e-11,-0.80544,0,0,0.2,-1.8948e-15,0,0.66667
0.87688,0.53042,4.3844,0.045626,0.32492,3.2987,-0.53345,0.17782,-1.9941,-0.71126,1.407e-08,-0.99703,0,0,0.2,-4.737e-16,0,0.66667
0.31965,0.95201,1.5983,0.67802,20.219,64.796,-2.8897,0.96323,-0.36427,-3.8529,1.1002e-12,-0.18213,0,0,0.2,-4.737e-16,0,0.66667
0.11118,0.94499,0.55588,0.66749,21.894,99.064,-0.98946,0.32982,-0.41626,-1.3193,2.1006e-08,-0.20813,0,0,0.2,-0,-0,0.66667
0.86536,0.52211,4.3268,0.033162,0.25832,3.8413,-0.38263,0.12754,-1.9952,-0.51018,-1.0983e-09,-0.99762,0,0,0.2,-0,-0,0.66667
0.30347,0.93564,1.5174,0.65346,19.684,67.307,-2.6441,0.88136,-0.48188,-3.5255,7.5162e-13,-0.24094,0,0,0.2,1.7764e-16,0,0.66667
0.41933,0.99204,2.0967,0.73806,20.262,49.939,-4.1266,1.3755,-0.063263,-5.5021,7.1632e-13,-0.031631,0,0,0.2,-9.4739e-16,1.7985e-16,0.66667
0.64603,0.073512,3.2302,-0.63973,-12.323,21.513,5.5105,-1.8368,-0.54396,7.3473,1.0165e-12,-0.27198,0,0,0.2,-0,-0,0.66667
0.6051,0.14723,3.0255,-0.52916,-11.025,25.744,4.2692,-1.4231,-1.0039,5.6923,1.2617e-12,-0.50194,0,0,0.2,-0,-0,0.66667
0.42092,0.13332,2.1046,-0.55001,-14.937,49.485,3.0868,-1.0289,-0.92509,4.1158,-8.209e-13,-0.46254,0,0,0.2,-0,-0,0.66667
0.38615,0.62572,1.9308,0.18858,5.2458,54.33,-0.97096,0.32365,-1.8742,-1.2946,1.4246e-12,-0.93711,0,0,0.2,-9.4739e-16,0,0.66667
0.12268,0.35356,0.61341,-0.21966,-7.0947,96.994,0.35931,-0.11977,-1.8284,0.47908,1.5744e-09,-0.91422,0,0,0.2,-0,-0,0.66667
0.53386,0.87758,2.6693,0.56637,13.356,34.27,-4.0315,1.3438,-0.86033,-5.3753,2.327e-13,-0.43016,0,0,0.2,-0,-0,0.66667
0.23285,0.67426,1.1643,0.26138,8.1065,78.473,-0.81153,0.27051,-1.7572,-1.082,-1.4616e-10,-0.87859,0,0,0.2,2.3685e-16,0,0.66667
0.75481,0.99197,3.774,0.73796,10.57,11.851,-7.4269,2.4756,-0.063148,-9.9026,1.7907e-11,-0.031574,0,0,0.2,-9.4739e-16,0,0.66667
0.67487,0.33042,3.3744,-0.25437,-4.4859,18.109,2.2889,-0.76296,-1.7695,3.0518,-4.0234e-13,-0.88475,0,0,0.2,9.4739e-16,0,0.66667
0.071927,0.85321,0.35963,0.52982,17.414,105.76,-0.50811,0.16937,-1.001,-0.67748,-2.1518e-08,-0.50051,0,0,0.2,-0,-0,0.66667
0.98926,0.6389,4.9463,0.20835,0.036152,0.1906,-2.7482,0.91606,-1.8447,-3.6642,-4.5764e-09,-0.92236,0,0,0.2,-1.8948e-15,0,0.66667
0.78046,0.28548,3.9023,-0.32179,-4.0396,9.18,3.3485,-1.1162,-1.6331,4.4647,-2.3197e-10,-0.81657,0,0,0.2,-0,-0,0.66667
0.22783,0.58834,1.1391,0.13252,4.1131,79.276,-0.40254,0.13418,-1.9371,-0.53673,-9.5818e-11,-0.96855,0,0,0.2,3.5527e-16,0,0.66667
0.030743,0.30867,0.15371,-0.287,-9.4146,112.86,0.11764,-0.039214,-1.7086,0.15686,-5.7539e-09,-0.85432,0,0,0.2,-1.4803e-17,0,0.66667
0.47837,0.3079,2.3919,-0.28816,-7.2639,41.247,1.8379,-0.61265,-1.7045,2.4506,-4.4809e-13,-0.85224,0,0,0.2,2.3685e-16,0,0.66667
0.35274,0.37965,1.7637,-0.18053,-5.1696,59.369,0.84906,-0.28302,-1.8838,1.1321,-1.6686e-12,-0.94188,0,0,0.2,-0,-0,0.66667
0.54651,0.75877,2.7326,0.38815,8.9082,32.489,-2.8284,0.94279,-1.4652,-3.7712,-5.8131e-13,-0.73262,0,0,0.2,-0,-0,0.66667
0.65966,0.95569,3.2983,0.68353,12.802,20.21,-6.012,2.004,-0.33824,-8.016,-6.0796e-13,-0.16912,0,0,0.2,9.4739e-16,0,0.66667
0.79722,0.53956,3.9861,0.059346,0.68653,7.8327,-0.63082,0.21027,-1.9885,-0.8411,5.6538e-11,-0.99423,0,0,0.2,-0,-0,0.66667
0.013544,0.95853,0.067722,0.68779,22.858,115.86,-0.12421,0.041395,-0.31807,-0.16561,-1.0031e-05,-0.15904,0,0,0.2,-1.4803e-17,0,0.66667
0.7143,0.74003,3.5715,0.36004,5.7164,14.538,-3.429,1.143,-1.5385,-4.572,1.612e-11,-0.76923,0,0,0.2,-9.4739e-16,0,0.66667
0.29531,0.23865,1.4766,-0.39202,-11.762,68.415,1.5436,-0.51453,-1.4538,2.0581,8.1538e-12,-0.72688,0,0,0.2,-0,-0,0.66667
0.9864,0.49396,4.932,-0.009055,-0.002866,0.12716,0.11909,-0.039709,-2.0002,0.15878,-1.6857e-05,-1.0001,0,0,0.2,2.8422e-15,0,0.66667
0.84624,0.47034,4.2312,-0.044487,-0.3951,4.8311,0.50196,-0.16732,-1.994,0.66928,-2.4013e-09,-0.99702,0,0,0.2,-0,-0,0.66667
0.5604,0.53674,2.802,0.055103,1.228,30.606,-0.41173,0.13724,-1.9898,-0.54897,-5.2053e-13,-0.99488,0,0,0.2,-0,-0,0.66667
0.59777,0.074711,2.9888,-0.63793,-13.563,26.74,5.0845,-1.6948,-0.55235,6.7793,1.4655e-13,-0.27618,0,0,0.2,-0,-0,0.66667
0.19208,0.76766,0.96038,0.4015,12.722,85.284,-1.0282,0.34275,-1.426,-1.371,-5.1624e-10,-0.71299,0,0,0.2,-0,-0,0.66667
0.22625,0.24048,1.1313,-0.38927,-12.146,79.603,1.1743,-0.39144,-1.4602,1.5658,1.6862e-10,-0.73011,0,0,0.2,2.3685e-16,0,0.66667
0.15401,0.19809,0.77007,-0.45286,-14.569,91.708,0.92995,-0.30998,-1.2708,1.2399,1.9266e-09,-0.63539,0,0,0.2,-4.737e-16,0,0.66667
0.37781,0.86326,1.8891,0.54489,15.42,55.795,-2.7449,0.91497,-0.94402,-3.6599,1.1842e-12,-0.47201,0,0,0.2,-0,-0,0.66667
0.11196,0.70221,0.55978,0.30331,9.8356,98.843,-0.45276,0.15092,-1.6726,-0.60368,-1.404e-09,-0.83629,0,0,0.2,-2.3685e-16,0,0.66667
0.51127,0.8317,2.5564,0.49755,12.087,37.067,-3.3918,1.1306,-1.119,-4.5224,-4.0856e-14,-0.55952,0,0,0.2,4.737e-16,0,0.66667
0.63848,0.68781,3.1924,0.28172,5.4213,21.831,-2.3983,0.79942,-1.7193,-3.1977,-2.2837e-12,-0.85964,0,0,0.2,-1.8948e-15,0,0.66667
0.12221,0.059733,0.61106,-0.6604,-21.598,97.18,1.0761,-0.35871,-0.45007,1.4348,3.2953e-08,-0.22503,0,0,0.2,-8.8818e-17,0,0.66667
0.3442,0.67316,1.721,0.25974,7.499,60.707,-1.192,0.39735,-1.7607,-1.5894,1.4745e-12,-0.88035,0,0,0.2,4.737e-16,0,0.66667
0.070348,0.47901,0.35174,-0.031482,-1.0259,105.99,0.02953,-0.0098432,-1.9954,0.039373,3.2771e-08,-0.99771,0,0,0.2,-0,-0,0.66667
0.52576,0.68992,2.6288,0.28488,6.7289,35.012,-1.9971,0.66569,-1.7116,-2.6627,-8.0802e-13,-0.8558,0,0,0.2,1.8948e-15,0,0.66667
0.65029,0.34471,3.2514,-0.23294,-4.3584,20.562,2.0197,-0.67324,-1.8074,2.693,2.4787e-12,-0.90372,0,0,0.2,-1.8948e-15,0,0.66667
0.61547,0.05929,3.0774,-0.66107,-13.602,24.806,5.4249,-1.8083,-0.44613,7.2332,3.2463e-13,-0.22306,0,0,0.2,-4.737e-16,0,0.66667
0.81387,0.55144,4.0693,0.077167,0.82389,6.745,-0.83738,0.27913,-1.9791,-1.1165,7.7352e-11,-0.98955,0,0,0.2,9.4739e-16,0,0.66667
0.23557,0.0050586,1.1778,-0.74241,-23.365,78.28,2.3318,-0.77728,-0.041259,3.1091,-1.8635e-11,-0.02063,0,0,0.2,-0,-0,0.66667
0.61818,0.93901,3.0909,0.65851,13.474,24.505,-5.4277,1.8092,-0.45838,-7.2369,-6.6125e-13,-0.22919,0,0,0.2,1.8948e-15,0,0.66667
0.30283,0.13792,1.5141,-0.54312,-16.293,67.319,2.193,-0.73099,-0.95011,2.9239,3.8547e-13,-0.47505,0,0,0.2,-4.737e-16,0,0.66667
0.088768,0.53462,0.44384,0.051934,1.6873,102.81,-0.061467,0.020489,-1.9905,-0.081957,-8.255e-08,-0.99524,0,0,0.2,-0,-0,0.66667
0.30526,0.22629,1.5263,-0.41057,-12.243,66.85,1.6711,-0.55703,-1.3999,2.2281,2.6253e-12,-0.69994,0,0,0.2,-0,-0,0.66667
0.071356,0.71687,0.35678,0.3253,10.634,105.83,-0.3095,0.10317,-1.6239,-0.41266,5.791e-09,-0.81193,0,0,0.2,-1.3747e-16,0,0.66667
0.95857,0.85906,4.7929,0.53859,1.3045,1.1934,-6.8837,2.2946,-0.96756,-9.1782,-8.6851e-08,-0.48378,0,0,0.2,1.8948e-15,0,0.66667
0.72717,0.20937,3.6358,-0.43594,-6.6792,13.518,4.2267,-1.4089,-1.3233,5.6356,-2.1849e-11,-0.66166,0,0,0.2,-9.4739e-16,0,0.66667
0.10146,0.13603,0.5073,-0.54595,-17.861,100.69,0.73857,-0.24619,-0.93913,0.98475,-7.4373e-09,-0.46957,0,0,0.2,-0,-0,0.66667
0.78627,0.78415,3.9313,0.42623,5.2559,8.9024,-4.4684,1.4895,-1.3542,-5.9579,1.9809e-10,-0.6771,0,0,0.2,-1.8948e-15,0,0.66667
0.35216,0.82593,1.7608,0.4889,14.112,59.621,-2.2956,0.76519,-1.1489,-3.0608,2.1365e-12,-0.57447,0,0,0.2,-0,-0,0.66667
0.91144,0.56666,4.5572,0.09999,0.50694,1.9163,-1.2151,0.40504,-1.9644,-1.6202,-5.5914e-08,-0.98218,0,0,0.2,-0,-0,0.66667
0.4955,0.889,2.4775,0.58349,14.54,39.235,-3.8549,1.285,-0.78859,-5.1399,2.5846e-13,-0.3943,0,0,0.2,-0,-0,0.66667
0.87269,0.78984,4.3635,0.43476,3.2866,3.8549,-5.0588,1.6863,-1.3281,-6.7451,2.6832e-09,-0.66403,0,0,0.2,-0,-0,0.66667
0.22053,0.91023,1.1026,0.61535,19.397,80.659,-1.8094,0.60312,-0.65459,-2.4125,-2.3731e-11,-0.3273,0,0,0.2,-0,-0,0.66667
0.36719,0.030129,1.836,-0.70481,-20.278,57.551,3.4507,-1.1502,-0.23399,4.6009,2.8377e-13,-0.117,0,0,0.2,-5.9212e-16,0,0.66667
0.36684,0.64267,1.8342,0.214,6.0588,57.236,-1.0467,0.34891,-1.836,-1.3956,2.0725e-12,-0.91798,0,0,0.2,-0,-0,0.66667
0.097133,0.2981,0.48566,-0.30285,-9.8518,101.39,0.39222,-0.13074,-1.6733,0.52296,1.53e-09,-0.83666,0,0,0.2,-1.1842e-16,0,0.66667
0.33101,0.16031,1.6551,-0.50953,-14.963,62.887,2.2488,-0.74961,-1.0774,2.9985,-2.5036e-12,-0.53869,0,0,0.2,-0,-0,0.66667
0.65971,0.87449,3.2985,0.56174,10.432,19.983,-4.9412,1.6471,-0.87902,-6.5882,-1.9647e-12,-0.43951,0,0,0.2,1.7764e-16,0,0.66667
0.46654,0.36704,2.3327,-0.19944,-5.0929,42.815,1.2407,-0.41355,-1.8588,1.6542,-7.7882e-13,-0.92939,0,0,0.2,-0,-0,0.66667
0.87923,0.12808,4.3962,-0.55787,-4.075,3.7965,6.54,-2.18,-0.89371,8.72,-1.8107e-08,-0.44685,0,0,0.2,-1.8948e-15,0,0.66667
0.26967,0.82695,1.3484,0.49043,14.995,72.573,-1.7634,0.5878,-1.1441,-2.3512,-1.8305e-11,-0.57203,0,0,0.2,-0,-0,0.66667
0.35482,0.63572,1.7741,0.20358,5.8217,59.059,-0.96313,0.32104,-1.8519,-1.2842,1.8274e-12,-0.92596,0,0,0.2,9.4739e-16,0,0.66667
0.32035,0.41546,1.6018,-0.12681,-3.7213,64.371,0.54165,-0.18055,-1.9419,0.7222,1.5482e-12,-0.97093,0,0,0.2,-0,-0,0.66667
0.55174,0.82339,2.7587,0.48509,11.083,31.949,-3.5685,1.1895,-1.1625,-4.758,-5.5578e-13,-0.58127,0,0,0.2,-0,-0,0.66667
0.18822,0.16183,0.9411,-0.50726,-16.149,85.969,1.273,-0.42434,-1.0863,1.6974,2.4662e-10,-0.54313,0,0,0.2,-0,-0,0.66667
0.17324,0.74696,0.86622,0.37045,11.814,88.435,-0.8557,0.28523,-1.5133,-1.1409,-8.5508e-10,-0.75666,0,0,0.2,2.3685e-16,0,0.66667
0.93948,0.53816,4.6974,0.057246,0.19077,1.0336,-0.71709,0.23903,-1.9888,-0.95613,2.9329e-07,-0.99438,0,0,0.2,-0,-0,0.66667
0.37665,0.70871,1.8832,0.31306,8.8042,55.802,-1.5722,0.52406,-1.6518,-2.0963,2.5389e-12,-0.82588,0,0,0.2,-4.737e-16,0,0.66667
0.5871,0.90861,2.9355,0.61292,13.27,27.919,-4.7979,1.5993,-0.66433,-6.3972,-6.7946e-13,-0.33216,0,0,0.2,-0,-0,0.66667
0.055152,0.95702,0.27576,0.68553,22.716,108.68,-0.50412,0.16804,-0.3279,-0.67215,1.2379e-06,-0.16395,0,0,0.2,-5.9212e-17,0,0.66667
0.14086,0.28325,0.70429,-0.32512,-10.468,93.909,0.61061,-0.20354,-1.6261,0.81415,1.6088e-09,-0.81306,0,0,0.2,-0,-0,0.66667
0.096359,0.44133,0.48179,-0.088012,-2.8559,101.5,0.11308,-0.037692,-1.9731,0.15077,-1.2111e-08,-0.98654,0,0,0.2,-0,-0,0.66667
0.81212,0.68719,4.0606,0.28078,3.0458,6.9881,-3.0404,1.0135,-1.7219,-4.0539,5.011e-10,-0.86096,0,0,0.2,2.3389e-15,0,0.66667
0.10315,0.74702,0.51573,0.37053,12.056,100.37,-0.50958,0.16986,-1.5118,-0.67944,-2.3355e-09,-0.75591,0,0,0.2,-5.9212e-17,0,0.66667
0.51632,0.57336,2.5816,0.11004,2.6273,36.145,-0.75752,0.25251,-1.9576,-1.01,-2.3376e-13,-0.97878,0,0,0.2,-0,-0,0.66667
0.15558,0.22373,0.77789,-0.41441,-13.311,91.431,0.85964,-0.28655,-1.3906,1.1462,1.1284e-09,-0.69532,0,0,0.2,-0,-0,0.66667
0.27882,0.89741,1.3941,0.59612,18.198,71.174,-2.2161,0.7387,-0.73655,-2.9548,-2.4505e-12,-0.36827,0,0,0.2,-0,-0,0.66667
0.8826,0.3607,4.413,-0.20895,-1.427,3.1244,2.459,-0.81966,-1.8435,3.2786,1.2573e-09,-0.92176,0,0,0.2,1.8948e-15,0,0.66667
0.63159,0.41182,3.158,-0.13227,-2.5754,22.477,1.1138,-0.37128,-1.9373,1.4851,1.6893e-12,-0.96865,0,0,0.2,-1.8948e-15,0,0.66667
0.96366,0.48145,4.8183,-0.02782,-0.049966,0.47645,0.35746,-0.11915,-1.9963,0.47661,-3.7361e-07,-0.99815,0,0,0.2,-0,-0,0.66667
0.59971,0.20392,2.9986,-0.44412,-9.3115,26.24,3.5513,-1.1838,-1.2976,4.7351,1.5743e-12,-0.64878,0,0,0.2,9.4739e-16,0,0.66667
0.0095197,0.90442,0.047599,0.60663,20.097,116.55,-0.076999,0.025665,-0.69174,-0.10267,-1.2106e-06,-0.34587,0,0,0.2,3.2596e-18,0,0.66667
0.41564,0.27589,2.0782,-0.33617,-9.1132,50.07,1.863,-0.62101,-1.5978,2.484,-1.3147e-12,-0.79888,0,0,0.2,4.737e-16,0,0.66667
0.022442,0.69757,0.11221,0.29636,9.7277,114.3,-0.088677,0.029559,-1.6867,-0.11824,6.1934e-09,-0.84336,0,0,0.2,-0,-0,0.66667
0.31398,0.27115,1.5699,-0.34327,-10.156,65.442,1.4371,-0.47903,-1.5813,1.9161,1.3838e-12,-0.79067,0,0,0.2,4.737e-16,0,0.66667
0.48162,0.09111,2.4081,-0.61333,-15.584,41.121,3.9386,-1.3129,-0.66326,5.2515,6.2395e-14,-0.33163,0,0,0.2,3.5527e-16,2.7179e-16,0.66667
0.57546,0.42752,2.8773,-0.10873,-2.362,28.81,0.83424,-0.27808,-1.9578,1.1123,6.8134e-13,-0.97891,0,0,0.2,-4.737e-16,0,0.66667
0.23865,0.34422,1.1933,-0.23366,-7.2221,77.513,0.74352,-0.24784,-1.8066,0.99136,1.171e-10,-0.90332,0,0,0.2,-0,-0,0.66667
0.55829,0.65889,2.7914,0.23833,5.3433,30.93,-1.7741,0.59137,-1.7984,-2.3655,-1.4837e-12,-0.8992,0,0,0.2,1.8948e-15,0,0.66667
0.39492,0.11675,1.9746,-0.57488,-16.036,53.289,3.0271,-1.009,-0.82447,4.0361,-1.1564e-12,-0.41224,0,0,0.2,-4.737e-16,0,0.66667
0.50658,0.6597,2.5329,0.23955,5.8103,37.463,-1.618,0.53934,-1.7958,-2.1574,-2.3259e-13,-0.8979,0,0,0.2,-0,-0,0.66667
0.19597,0.40206,0.97984,-0.14691,-4.6264,84.573,0.38385,-0.12795,-1.9229,0.5118,1.7368e-10,-0.96147,0,0,0.2,-2.3924e-16,0,0.66667
0.15675,0.35344,0.78376,-0.21984,-7.0307,91.19,0.45947,-0.15316,-1.8289,0.61262,1.078e-09,-0.91447,0,0,0.2,-0,-0,0.66667
0.75452,0.037676,3.7726,-0.69349,-9.8976,11.767,6.9766,-2.3255,-0.28976,9.3022,4.2526e-12,-0.14488,0,0,0.2,-0,-0,0.66667
0.32997,0.30211,1.6499,-0.29684,-8.6713,62.922,1.306,-0.43533,-1.6868,1.7413,-8.7486e-13,-0.84342,0,0,0.2,-0,-0,0.66667
0.6442,0.52222,3.221,0.03333,0.63055,21.119,-0.28628,0.095428,-1.9957,-0.38171,-2.6221e-13,-0.99785,0,0,0.2,-0,-0,0.66667
0.56546,0.57795,2.8273,0.11692,2.5847,30.008,-0.88153,0.29384,-1.9509,-1.1754,-5.8753e-13,-0.97547,0,0,0.2,-9.4739e-16,0,0.66667
0.89953,0.93405,4.4977,0.65108,4.0482,3.185,-7.8089,2.603,-0.49261,-10.412,-4.8982e-08,-0.24631,0,0,0.2,2.6631e-16,0,0.66667
0.88068,0.73,4.4034,0.34499,2.4218,3.3564,-4.0511,1.3504,-1.5759,-5.4014,2.9454e-09,-0.78793,0,0,0.2,-1.8948e-15,0,0.66667
0.44311,0.61645,2.2156,0.17468,4.5829,46.067,-1.032,0.344,-1.8908,-1.376,4.704e-13,-0.94539,0,0,0.2,-4.737e-16,0,0.66667
0.20474,0.85457,1.0237,0.53186,16.831,83.227,-1.4519,0.48396,-0.99442,-1.9358,-2.244e-10,-0.49721,0,0,0.2,-0,-0,0.66667
0.63219,0.11451,3.161,-0.57823,-11.434,22.858,4.874,-1.6247,-0.81015,6.4987,1.4011e-12,-0.40508,0,0,0.2,9.4739e-16,0,0.66667
0.63684,0.6087,3.1842,0.16304,3.14,21.93,-1.3844,0.46148,-1.9048,-1.8459,-1.7036e-12,-0.95239,0,0,0.2,9.4739e-16,0,0.66667
0.69242,0.17986,3.4621,-0.4802,-8.1672,16.685,4.4333,-1.4778,-1.1796,5.9111,-2.4158e-13,-0.58979,0,0,0.2,-9.4739e-16,0,0.66667
0.90747,0.84591,4.5374,0.51887,2.8947,2.5812,-6.2781,2.0927,-1.0442,-8.3708,-9.551e-09,-0.52212,0,0,0.2,-0,-0,0.66667
0.78258,0.79663,3.9129,0.44494,5.5799,9.1918,-4.6427,1.5476,-1.2963,-6.1903,1.9421e-10,-0.64813,0,0,0.2,-9.4739e-16,0,0.66667
0.62529,0.025064,3.1265,-0.7124,-14.421,23.838,5.9395,-1.9798,-0.19675,7.9193,1.5854e-13,-0.098375,0,0,0.2,-0,-0,0.66667
0.60097,0.25755,3.0048,-0.36368,-7.5822,26.011,2.9141,-0.97137,-1.529,3.8855,1.968e-12,-0.76448,0,0,0.2,-0,-0,0.66667
0.21276,0.05614,1.0638,-0.66579,-21.106,81.972,1.8887,-0.62957,-0.42337,2.5183,3.9076e-11,-0.21168,0,0,0.2,1.2598e-16,0,0.66667
0.65137,0.27906,3.2568,-0.33141,-6.2045,20.532,2.8783,-0.95943,-1.6098,3.8377,2.7236e-12,-0.80489,0,0,0.2,1.1842e-16,0,0.66667
0.8145,0.42002,4.0725,-0.11997,-1.2778,6.7204,1.3028,-0.43428,-1.9487,1.7371,-3.3225e-10,-0.97437,0,0,0.2,-0,-0,0.66667
0.92232,0.14444,4.6116,-0.53334,-2.5008,2.1128,6.5588,-2.1863,-0.98929,8.745,-2.5936e-08,-0.49465,0,0,0.2,9.4739e-16,0,0.66667
0.91665,0.8757,4.5833,0.56355,2.8578,2.363,-6.8877,2.2959,-0.87134,-9.1836,4.1387e-08,-0.43567,0,0,0.2,-3.7896e-15,0,0.66667
0.5611,0.10312,2.8055,-0.59532,-13.468,30.959,4.4538,-1.4846,-0.74029,5.9384,4.361e-13,-0.37014,0,0,0.2,-0,2.2019e-16,0.66667
0.25983,0.23635,1.2992,-0.39548,-12.126,74.113,1.3701,-0.4567,-1.4428,1.8268,4.7867e-11,-0.72141,0,0,0.2,-0,-0,0.66667
0.3338,0.068058,1.669,-0.64791,-19.095,62.575,2.8836,-0.96121,-0.50702,3.8448,-4.7651e-13,-0.25351,0,0,0.2,-0,-0,0.66667
0.99776,0.75501,4.9888,0.38251,-0.1081,0.34111,-5.0887,1.6962,-1.4803,-6.785,5.1101e-08,-0.74017,0,0,0.2,-0,-0,0.66667
0.5256,0.8604,2.628,0.5406,12.89,35.28,-3.7885,1.2628,-0.95981,-5.0513,-1.9318e-14,-0.47991,0,0,0.2,-9.4739e-16,0,0.66667
0.81591,0.42173,4.0795,-0.11741,-1.2415,6.6308,1.2772,-0.42574,-1.9504,1.703,-2.8204e-10,-0.97519,0,0,0.2,-0,-0,0.66667
0.59702,0.8014,2.9851,0.4521,9.5306,26.556,-3.5988,1.1996,-1.2729,-4.7984,-1.6949e-12,-0.63643,0,0,0.2,-0,-0,0.66667
0.50693,0.080306,2.5347,-0.62954,-15.484,37.799,4.2551,-1.4184,-0.58967,5.6735,-6.5281e-14,-0.29483,0,0,0.2,-0,-0,0.66667
0.34854,0.985,1.7427,0.7275,21.279,60.398,-3.3809,1.127,-0.11724,-4.5078,7.8471e-13,-0.058618,0,0,0.2,4.737e-16,0,0.66667
0.53777,0.72092,2.6889,0.33139,7.6961,33.528,-2.3761,0.79205,-1.6096,-3.1682,-3.3751e-14,-0.80481,0,0,0.2,-1.8948e-15,0,0.66667
0.0067347,0.70592,0.033674,0.30887,10.146,117.03,-0.027736,0.0092452,-1.6596,-0.036981,-2.1737e-08,-0.82982,0,0,0.2,-7.4015e-18,0,0.66667
0.87669,0.31612,4.3834,-0.27582,-1.9885,3.4519,3.2241,-1.0747,-1.7305,4.2987,-6.0844e-10,-0.86526,0,0,0.2,-0,-0,0.66667
0.56149,0.035161,2.8074,-0.69726,-15.859,31.077,5.22,-1.74,-0.27265,6.96,-1.0392e-13,-0.13632,0,0,0.2,-0,-1.0372e-16,0.66667
0.024281,0.35853,0.12141,-0.2122,-6.9552,113.98,0.0687,-0.0229,-1.8387,0.0916,-3.5472e-08,-0.91934,0,0,0.2,-0,-0,0.66667
0.81817,0.11886,4.0909,-0.57171,-6.1603,7.0583,6.2368,-2.0789,-0.83739,8.3157,-7.1254e-10,-0.4187,0,0,0.2,4.737e-16,0,0.66667
0.13535,0.077722,0.67677,-0.63342,-20.621,94.935,1.1431,-0.38105,-0.57242,1.5242,-1.8866e-10,-0.28621,0,0,0.2,-0,-0,0.66667
0.030639,0.14839,0.15319,-0.52741,-17.408,112.89,0.21546,-0.071819,-1.0119,0.28727,-1.962e-07,-0.50594,0,0,0.2,2.9606e-17,0,0.66667
0.46234,0.58827,2.3117,0.13241,3.3954,43.372,-0.81625,0.27208,-1.9372,-1.0883,1.7497e-13,-0.9686,0,0,0.2,2.3685e-16,0,0.66667
0.96066,0.28815,4.8033,-0.31778,-0.66501,0.74885,4.0703,-1.3568,-1.6402,5.4271,1.2376e-08,-0.82012,0,0,0.2,-0,-0,0.66667
0.093614,0.20254,0.46807,-0.44619,-14.574,102.02,0.55693,-0.18564,-1.2929,0.74257,6.9191e-09,-0.64643,0,0,0.2,-0,-0,0.66667
0.065599,0.53313,0.32799,0.049695,1.6205,106.81,-0.043466,0.014489,-1.992,-0.057954,-4.5908e-08,-0.99602,0,0,0.2,2.3685e-16,0,0.66667
0.87994,0.49529,4.3997,-0.0070684,-0.049053,3.157,0.08293,-0.027643,-1.9997,0.11057,2.3278e-08,-0.99984,0,0,0.2,1.8948e-15,0,0.66667
0.82137,0.55112,4.1069,0.076686,0.78739,6.2774,-0.83983,0.27994,-1.978,-1.1198,1.816e-10,-0.989,0,0,0.2,-0,-0,0.66667
0.81997,0.68595,4.0998,0.27893,2.9062,6.4946,-3.0495,1.0165,-1.7235,-4.066,5.9261e-10,-0.86176,0,0,0.2,2.398e-16,0,0.66667
0.46782,0.12852,2.3391,-0.55723,-14.364,42.922,3.4757,-1.1586,-0.89735,4.6343,4.583e-13,-0.44867,0,0,0.2,-1.8948e-15,0,0.66667
0.42749,0.71754,2.1375,0.32631,8.7349,48.359,-1.8599,0.61998,-1.6218,-2.4799,9.8499e-13,-0.81089,0,0,0.2,4.1448e-16,0,0.66667
0.40107,0.85402,2.0053,0.53103,14.699,52.344,-2.8397,0.94657,-0.99656,-3.7863,1.0769e-12,-0.49828,0,0,0.2,9.4739e-16,0,0.66667
0.58222,0.013568,2.9111,-0.72965,-16.054,28.688,5.6642,-1.8881,-0.10631,7.5522,4.4542e-13,-0.053156,0,0,0.2,-1.8948e-15,0,0.66667
0.72897,0.23493,3.6449,-0.39761,-6.0439,13.313,3.8646,-1.2882,-1.4368,5.1528,-2.8293e-11,-0.71842,0,0,0.2,-8.6327e-16,0,0.66667
0.78429,0.54908,3.9215,0.073622,0.90201,8.7347,-0.76989,0.25663,-1.9803,-1.0265,8.1352e-11,-0.99014,0,0,0.2,9.4739e-16,0,0.66667
0.6548,0.36977,3.274,-0.19535,-3.6134,20.076,1.7055,-0.5685,-1.8652,2.274,1.5716e-12,-0.93259,0,0,0.2,-9.4739e-16,0,0.66667
0.56247,0.5296,2.8123,0.044395,0.98586,30.354,-0.33294,0.11098,-1.9951,-0.44392,-4.9996e-13,-0.99756,0,0,0.2,-2.3685e-16,0,0.66667
0.41239,0.46755,2.062,-0.048671,-1.3182,50.44,0.26762,-0.089208,-1.9919,0.35683,-5.0959e-13,-0.99594,0,0,0.2,-5.9212e-17,0,0.66667
0.31992,0.81286,1.5996,0.4693,13.876,64.585,-2.0018,0.66727,-1.2173,-2.6691,8.4888e-13,-0.60866,0,0,0.2,9.4739e-16,0,0.66667
0.28625,0.61132,1.4312,0.16698,5.0174,69.78,-0.63731,0.21244,-1.8999,-0.84974,-1.5753e-11,-0.94995,0,0,0.2,-0,-0,0.66667
0.29618,0.59724,1.4809,0.14587,4.3539,68.191,-0.57603,0.19201,-1.9258,-0.76804,-9.3661e-12,-0.96291,0,0,0.2,-0,-0,0.66667
0.68275,0.51705,3.4138,0.025582,0.44033,17.249,-0.23288,0.077628,-1.9968,-0.31051,4.9948e-13,-0.99838,0,0,0.2,-0,-0,0.66667
0.76244,0.018706,3.8122,-0.72194,-10.045,11.227,7.3392,-2.4464,-0.14638,9.7856,6.839e-14,-0.07319,0,0,0.2,-0,-0,0.66667
0.59762,0.58582,2.9881,0.12873,2.6856,26.238,-1.0258,0.34192,-1.9408,-1.3677,-1.0597e-12,-0.97038,0,0,0.2,-4.737e-16,0,0.66667
0.22286,0.38373,1.1143,-0.1744,-5.4284,80.102,0.51824,-0.17275,-1.8914,0.69098,1.5515e-10,-0.9457,0,0,0.2,-0,-0,0.66667
0.1944,0.80605,0.97198,0.45908,14.557,84.917,-1.1899,0.39663,-1.25,-1.5865,-3.0402e-10,-0.62501,0,0,0.2,-2.3685e-16,0,0.66667
0.76569,0.602,3.8284,0.153,2.0245,10.135,-1.562,0.52067,-1.9179,-2.0827,9.7301e-11,-0.95895,0,0,0.2,-0,-0,0.66667
0.97869,0.68049,4.8935,0.27073,0.24311,0.38545,-3.5329,1.1776,-1.7388,-4.7105,7.0197e-09,-0.86941,0,0,0.2,-0,-0,0.66667
0.01591,0.40263,0.07955,-0.14605,-4.7851,115.43,0.030982,-0.010327,-1.9258,0.041309,-5.6869e-08,-0.9629,0,0,0.2,2.2204e-17,0,0.66667
0.2489,0.9486,1.2445,0.6729,20.964,76.055,-2.2331,0.74437,-0.39046,-2.9775,-1.8954e-12,-0.19523,0,0,0.2,-0,-0,0.66667
0.79231,0.16239,3.9616,-0.50642,-6.123,8.614,5.3499,-1.7833,-1.0879,7.1332,-1.7687e-10,-0.54393,0,0,0.2,1.8948e-15,0,0.66667
0.71917,0.3993,3.5958,-0.15105,-2.3463,13.94,1.4484,-0.4828,-1.92,1.9312,-1.971e-11,-0.95999,0,0,0.2,9.4739e-16,0,0.66667
0.24598,0.85955,1.2299,0.53933,16.738,76.441,-1.7688,0.58961,-0.96502,-2.3585,-3.4653e-11,-0.48251,0,0,0.2,-4.737e-16,0,0.66667
0.55489,0.017995,2.7745,-0.72301,-16.65,31.918,5.3492,-1.7831,-0.14017,7.1323,1.0658e-14,-0.070083,0,0,0.2,-0,-0,0.66667
0.58559,0.028822,2.9279,-0.70677,-15.434,28.255,5.5183,-1.8394,-0.22391,7.3577,-5.147e-13,-0.11195,0,0,0.2,4.737e-16,0,0.66667
0.72138,0.0046581,3.6069,-0.74301,-11.87,14.595,7.1466,-2.3822,-0.037579,9.5288,-2.6925e-12,-0.01879,0,0,0.2,-0,-0,0.66667
0.46367,0.96224,2.3184,0.69336,18.084,43.665,-4.2866,1.4289,-0.29025,-5.7154,-3.3795e-13,-0.14513,0,0,0.2,-2.3685e-16,0,0.66667
0.40485,0.39068,2.0242,-0.16398,-4.4791,51.563,0.88517,-0.29506,-1.9045,1.1802,-1.2651e-12,-0.95226,0,0,0.2,-9.4739e-16,0,0.66667
0.30801,0.84948,1.54,0.52422,15.66,66.489,-2.1529,0.71762,-1.0227,-2.8705,2.3892e-13,-0.51136,0,0,0.2,-0,-0,0.66667
0.23831,0.48299,1.1915,-0.025513,-0.78727,77.54,0.081066,-0.027022,-1.997,0.10809,1.4987e-11,-0.99848,0,0,0.2,-0,-0,0.66667
0.092503,0.70356,0.46252,0.30534,9.9423,102.19,-0.3766,0.12553,-1.6687,-0.50213,1.2052e-10,-0.83435,0,0,0.2,-0,-0,0.66667
0.64588,0.27362,3.2294,-0.33957,-6.4395,21.107,2.9243,-0.97476,-1.5894,3.899,3.0067e-12,-0.79472,0,0,0.2,-4.737e-16,0,0.66667
0.66957,0.9191,3.3479,0.62865,11.451,19.122,-5.6123,1.8708,-0.59467,-7.4831,-1.1946e-12,-0.29733,0,0,0.2,-0,-3.1149e-16,0.66667
0.68734,0.37769,3.4367,-0.18346,-3.1256,16.86,1.6813,-0.56045,-1.8822,2.2418,-3.7856e-12,-0.9411,0,0,0.2,-0,-0,0.66667
0.0031457,0.66448,0.015729,0.24672,8.0955,117.65,-0.010348,0.0034494,-1.7834,-0.013797,-1.4444e-08,-0.89172,0,0,0.2,-0,-0,0.66667
0.43825,0.44637,2.1913,-0.080445,-2.1201,46.731,0.47007,-0.15669,-1.9777,0.62676,-2.4564e-13,-0.98886,0,0,0.2,-9.4739e-16,0,0.66667
0.12255,0.69273,0.61277,0.28909,9.3481,97.026,-0.47239,0.15746,-1.7033,-0.62985,-7.3055e-10,-0.85166,0,0,0.2,-0,-0,0.66667
0.52661,0.36666,2.633,-0.20001,-4.7098,34.856,1.4044,-0.46813,-1.8572,1.8725,1.9262e-13,-0.92861,0,0,0.2,-0,-0,0.66667
0.97974,0.81182,4.8987,0.46773,0.45864,0.68779,-6.1101,2.0367,-1.2228,-8.1468,-2.0884e-08,-0.61139,0,0,0.2,-5.9212e-17,0,0.66667
0.49928,0.56382,2.4964,0.095735,2.3407,38.37,-0.63731,0.21244,-1.9693,-0.84975,-1.2013e-13,-0.98464,0,0,0.2,-0,-0,0.66667
0.37465,0.44306,1.8732,-0.085413,-2.3983,56.027,0.42667,-0.14222,-1.9754,0.56889,-1.2938e-12,-0.98769,0,0,0.2,-0,-0,0.66667
0.81384,0.48757,4.0692,-0.018645,-0.19899,6.7368,0.20232,-0.067442,-1.999,0.26977,1.4009e-10,-0.99949,0,0,0.2,-0,-0,0.66667
0.9682,0.31474,4.841,-0.27789,-0.43988,0.55812,3.5873,-1.1958,-1.7272,4.7831,7.0805e-09,-0.8636,0,0,0.2,3.7896e-15,0,0.66667
0.28712,0.88204,1.4356,0.57307,17.388,69.831,-2.1939,0.73129,-0.83173,-2.9252,-1.6775e-12,-0.41587,0,0,0.2,9.4739e-16,0,0.66667
0.803,0.64524,4.015,0.21786,2.463,7.5235,-2.3325,0.77752,-1.8302,-3.1101,3.6423e-10,-0.91512,0,0,0.2,-0,-0,0.66667
0.99614,0.49506,4.9807,-0.0074053,0.002423,0.02994,0.098355,-0.032759,-1.9999,0.13115,3.9833e-05,-0.99993,0,0,0.2,-0,-0,0.66667
0.11182,0.90163,0.55912,0.60245,19.706,98.933,-0.89825,0.29942,-0.71008,-1.1977,-9.9799e-09,-0.35504,0,0,0.2,-0,-0,0.66667
0.53105,0.46964,2.6552,-0.045537,-1.0634,34.247,0.32243,-0.10748,-1.9948,0.42991,1.3317e-13,-0.99741,0,0,0.2,-0,-0,0.66667
0.81353,0.69091,4.0676,0.28636,3.0853,6.9042,-3.1062,1.0354,-1.7098,-4.1415,5.1811e-10,-0.85488,0,0,0.2,-0,-0,0.66667
0.37629,0.50666,1.8815,0.0099884,0.27997,55.774,-0.050114,0.016705,-2.0004,-0.066819,-3.3262e-14,-1.0002,0,0,0.2,-0,-0,0.66667
0.44577,0.54931,2.2289,0.07397,1.933,45.668,-0.43965,0.14655,-1.9793,-0.5862,2.634e-13,-0.98967,0,0,0.2,-4.737e-16,0,0.66667
0.7509,0.28924,3.7545,-0.31614,-4.4445,11.414,3.1652,-1.0551,-1.6454,4.2203,-8.4984e-11,-0.82269,0,0,0.2,-0,-0,0.66667
0.098346,0.82575,0.49173,0.48862,15.966,101.21,-0.64072,0.21357,-1.1503,-0.85429,-1.1274e-08,-0.57513,0,0,0.2,-0,-0,0.66667
0.36053,0.12265,1.8026,-0.56603,-16.273,58.413,2.7209,-0.90697,-0.86231,3.6279,-1.1393e-12,-0.43116,0,0,0.2,-7.1054e-16,0,0.66667
0.56371,0.36723,2.8185,-0.19915,-4.421,30.252,1.4968,-0.49895,-1.8596,1.9958,7.5762e-13,-0.92981,0,0,0.2,4.737e-16,0,0.66667
0.23859,0.27512,1.1929,-0.33732,-10.447,77.555,1.073,-0.35768,-1.5953,1.4307,1.2092e-10,-0.79763,0,0,0.2,2.3685e-16,0,0.66667
0.83995,0.80416,4.1998,0.45624,4.3108,5.5636,-5.1096,1.7032,-1.2596,-6.8128,1.0509e-09,-0.62978,0,0,0.2,9.4739e-16,0,0.66667
0.76585,0.22319,3.8293,-0.41521,-5.5546,10.376,4.2398,-1.4133,-1.3886,5.6531,-1.2721e-10,-0.69429,0,0,0.2,-1.8948e-15,0,0.66667
0.96554,0.61717,4.8277,0.17575,0.29989,0.50597,-2.2626,0.75422,-1.8901,-3.0169,-3.1985e-08,-0.94503,0,0,0.2,-0,-0,0.66667
0.52299,0.88229,2.6149,0.57344,13.747,35.654,-3.9987,1.3329,-0.83007,-5.3316,8.9262e-14,-0.41504,0,0,0.2,-0,-0,0.66667
0.10652,0.22447,0.53262,-0.41329,-13.452,99.793,0.58701,-0.19567,-1.3929,0.78267,6.6409e-09,-0.69647,0,0,0.2,-0,-0,0.66667
0.93662,0.71312,4.6831,0.31967,1.1554,1.3171,-3.9921,1.3307,-1.6377,-5.3229,-7.1389e-09,-0.81885,0,0,0.2,1.4211e-15,0,0.66667
0.83424,0.32772,4.1712,-0.25842,-2.4862,5.6245,2.8744,-0.95815,-1.7614,3.8326,-7.541e-10,-0.8807,0,0,0.2,1.8948e-15,0,0.66667
0.54442,0.65691,2.7221,0.23536,5.3962,32.633,-1.7084,0.56948,-1.8043,-2.2779,-8.6897e-13,-0.90216,0,0,0.2,-0,-0,0.66667
0.8363,0.67029,4.1815,0.25544,2.4277,5.5032,-2.8483,0.94943,-1.7668,-3.7977,7.411e-10,-0.88339,0,0,0.2,-0,-0,0.66667
0.88169,0.6626,4.4085,0.24389,1.6826,3.1954,-2.8672,0.95573,-1.7879,-3.8229,3.304e-09,-0.89395,0,0,0.2,1.8948e-15,0,0.66667
0.77608,0.26882,3.8804,-0.34678,-4.438,9.5264,3.5883,-1.1961,-1.5715,4.7845,-1.8956e-10,-0.78574,0,0,0.2,-0,-0,0.66667
0.57125,0.88668,2.8563,0.58002,12.889,29.723,-4.4179,1.4726,-0.80271,-5.8905,-3.2507e-13,-0.40135,0,0,0.2,-0,-0,0.66667
0.6153,0.65155,3.0765,0.22733,4.5883,24.298,-1.865,0.62166,-1.816,-2.4866,-2.2297e-12,-0.90798,0,0,0.2,-1.0937e-16,0,0.66667
0.84439,0.16263,4.222,-0.50605,-4.6805,5.4091,5.6974,-1.8991,-1.0905,7.5965,-2.101e-10,-0.54527,0,0,0.2,1.8948e-15,0,0.66667
0.62222,0.23257,3.1111,-0.40114,-8.0276,23.69,3.328,-1.1093,-1.4275,4.4373,2.345e-12,-0.71374,0,0,0.2,9.4739e-16,0,0.66667
0.20648,0.93416,1.0324,0.65125,20.689,83.002,-1.7929,0.59764,-0.49248,-2.3906,-3.3444e-11,-0.24624,0,0,0.2,-2.3685e-16,0,0.66667
0.69149,0.20646,3.4574,-0.44031,-7.4907,16.715,4.0596,-1.3532,-1.31,5.4128,-8.4333e-13,-0.655,0,0,0.2,-0,-0,0.66667
0.53201,0.87383,2.6601,0.56075,13.257,34.494,-3.9777,1.3259,-0.88388,-5.3035,-2.9576e-13,-0.44194,0,0,0.2,1.3027e-15,0,0.66667
0.26325,0.39347,1.3162,-0.1598,-4.8684,73.484,0.56088,-0.18696,-1.909,0.74784,3.8567e-11,-0.9545,0,0,0.2,-0,-0,0.66667
0.00078654,0.50475,0.0039327,0.0071234,0.23329,118.06,-7.5462e-05,8.2762e-05,-2.001,-7.1813e-05,8.6412e-05,-1.0005,0,0,0.2,-0,-0,0.66667
0.2355,0.038739,1.1775,-0.69189,-21.724,78.253,2.1725,-0.72417,-0.29861,2.8967,8.5847e-12,-0.14931,0,0,0.2,-4.737e-16,0,0.66667
0.67357,0.21411,3.3678,-0.42884,-7.6409,18.415,3.8514,-1.2838,-1.347,5.1352,1.5319e-12,-0.67348,0,0,0.2,9.4739e-16,0,0.66667
0.87832,0.45599,4.3916,-0.06602,-0.46476,3.238,0.77316,-0.25772,-1.984,1.0309,-4.0631e-09,-0.99199,0,0,0.2,-0,-0,0.66667
0.8307,0.70722,4.1535,0.31083,3.0611,5.8849,-3.4428,1.1476,-1.6563,-4.5904,9.312e-10,-0.82813,0,0,0.2,-9.4739e-16,0,0.66667
0.10811,0.54864,0.54054,0.072964,2.3616,99.482,-0.10517,0.035058,-1.9813,-0.14023,-2.5905e-09,-0.99064,0,0,0.2,-0,-0,0.66667
0.071125,0.11008,0.35562,-0.58488,-19.264,105.91,0.55466,-0.18489,-0.78248,0.73955,9.7979e-08,-0.39124,0,0,0.2,-8.4229e-17,0,0.66667
0.76159,0.35928,3.808,-0.21108,-2.8415,10.484,2.1434,-0.71446,-1.8408,2.8578,-1.0967e-10,-0.92041,0,0,0.2,9.4739e-16,0,0.66667
0.28483,0.901,1.4242,0.60151,18.298,70.217,-2.2844,0.76146,-0.71366,-3.0459,-1.4366e-12,-0.35683,0,0,0.2,4.737e-16,0,0.66667
0.2718,0.18837,1.359,-0.46745,-14.264,72.216,1.6941,-0.56469,-1.2234,2.2588,2.0614e-11,-0.61172,0,0,0.2,9.4739e-16,0,0.66667
0.0020003,0.0071759,0.010002,-0.73924,-24.629,117.85,0.019799,-0.0065671,-0.057305,0.026415,4.8887e-05,-0.028652,0,0,0.2,-0,-0,0.66667
0.098539,0.62422,0.4927,0.18633,6.0488,101.13,-0.24482,0.081605,-1.8772,-0.32642,-3.1987e-09,-0.93858,0,0,0.2,1.6283e-16,0,0.66667
0.1356,0.41263,0.67799,-0.13105,-4.2138,94.778,0.23693,-0.078977,-1.9385,0.31591,-1.8945e-09,-0.96927,0,0,0.2,-0,-0,0.66667
0.15936,0.67684,0.7968,0.26526,8.482,90.755,-0.56362,0.18787,-1.7495,-0.75149,-9.1019e-10,-0.87474,0,0,0.2,-0,-0,0.66667
0.44531,0.34086,2.2266,-0.23871,-6.254,45.784,1.4173,-0.47245,-1.7973,1.8898,-9.3336e-13,-0.89864,0,0,0.2,-1.1842e-15,0,0.66667
0.81414,0.92379,4.0707,0.63569,7.0403,7.4485,-6.9005,2.3002,-0.56325,-9.2007,2.6595e-11,-0.28163,0,0,0.2,-9.4739e-16,0,0.66667
0.8123,0.092795,4.0615,-0.61081,-6.806,7.5076,6.6154,-2.2051,-0.67566,8.8206,2.0631e-10,-0.33783,0,0,0.2,4.1448e-16,-2.8064e-17,0.66667
0.90999,0.89039,4.5499,0.58558,3.2224,2.6408,-7.105,2.3683,-0.78007,-9.4733,-1.8172e-08,-0.39004,0,0,0.2,-0,-0,0.66667
0.44359,0.03121,2.218,-0.70318,-18.778,46.457,4.159,-1.3863,-0.24244,5.5454,-3.2818e-13,-0.12122,0,0,0.2,-1.8833e-16,0,0.66667
0.70871,0.38419,3.5436,-0.17371,-2.7862,14.879,1.6415,-0.54717,-1.8919,2.1887,-1.2623e-11,-0.94596,0,0,0.2,-1.8948e-15,0,0.66667
0.48833,0.87911,2.4417,0.56867,14.294,40.167,-3.7027,1.2342,-0.85035,-4.9369,5.5e-13,-0.42518,0,0,0.2,-0,-0,0.66667
0.049843,0.39337,0.24921,-0.15994,-5.229,109.54,0.10629,-0.03543,-1.9086,0.14172,2.3432e-08,-0.95432,0,0,0.2,-5.9212e-17,0,0.66667
0.080431,0.2615,0.40216,-0.35774,-11.686,104.27,0.38365,-0.12788,-1.5448,0.51154,2.6727e-10,-0.77242,0,0,0.2,-0,-0,0.66667
0.24594,0.87117,1.2297,0.55676,17.29,76.458,-1.8257,0.60858,-0.89804,-2.4343,-3.8742e-11,-0.44902,0,0,0.2,4.737e-16,0,0.66667
0.98162,0.37245,4.9081,-0.19133,-0.12792,0.26599,2.5042,-0.83472,-1.8706,3.3389,5.7698e-08,-0.93532,0,0,0.2,-0,-0,0.66667
0.69192,0.28051,3.4596,-0.32923,-5.5654,16.544,3.0374,-1.0125,-1.6153,4.0498,-3.6482e-12,-0.80764,0,0,0.2,-1.0658e-15,0,0.66667
0.26801,0.50003,1.34,4.1974e-05,0.0012741,72.698,-0.00014999,4.9997e-05,-2.0014,-0.00019999,-2.9061e-12,-1.0007,0,0,0.2,-0,-0,0.66667
0.70626,0.83926,3.5313,0.50889,8.3415,15.459,-4.7921,1.5974,-1.0796,-6.3895,2.9292e-12,-0.53978,0,0,0.2,1.4211e-15,0,0.66667
0.66135,0.53672,3.3067,0.055081,1.001,19.36,-0.4857,0.1619,-1.9889,-0.6476,-1.4919e-13,-0.99447,0,0,0.2,-0,-0,0.66667
0.04329,0.19648,0.21645,-0.45528,-14.98,110.7,0.26279,-0.087595,-1.2627,0.35038,-5.3791e-08,-0.63134,0,0,0.2,-0,-0,0.66667
0.36149,0.42846,1.8074,-0.10731,-3.0483,58.019,0.51723,-0.17241,-1.9592,0.68964,-1.4818e-12,-0.9796,0,0,0.2,4.737e-16,0,0.66667
0.77373,0.27243,3.8686,-0.34136,-4.4089,9.6927,3.5216,-1.1739,-1.5848,4.6954,-1.7685e-10,-0.79238,0,0,0.2,-9.4739e-16,0,0.66667
0.078523,0.1796,0.39261,-0.48061,-15.756,104.62,0.50318,-0.16773,-1.1797,0.67091,4.2489e-09,-0.58986,0,0,0.2,-0,-0,0.66667
0.88438,0.88156,4.4219,0.57234,4.017,3.6047,-6.7489,2.2496,-0.83471,-8.9985,6.3858e-09,-0.41736,0,0,0.2,-0,-0,0.66667
0.93087,0.21978,4.6543,-0.42033,-1.7021,1.6333,5.217,-1.739,-1.3721,6.956,-5.0188e-09,-0.68605,0,0,0.2,-0,-0,0.66667
0.85309,0.51708,4.2654,0.025622,0.21759,4.463,-0.29144,0.097146,-1.9965,-0.38859,-4.4739e-10,-0.99826,0,0,0.2,-1.8948e-15,0,0.66667
0.11738,0.68085,0.58689,0.27127,8.7802,97.909,-0.42455,0.14152,-1.7377,-0.56606,-1.1021e-09,-0.86884,0,0,0.2,-0,-0,0.66667
0.56517,0.32986,2.8259,-0.25521,-5.6581,30.107,1.9232,-0.64106,-1.7681,2.5643,9.8366e-13,-0.88403,0,0,0.2,-0,-0,0.66667
0.70756,0.59401,3.5378,0.14102,2.268,14.967,-1.3304,0.44347,-1.9301,-1.7739,1.0064e-11,-0.96504,0,0,0.2,-0,-0,0.66667
0.88798,0.39999,4.4399,-0.15002,-0.97357,2.8512,1.7762,-0.59206,-1.9202,2.3682,5.9625e-10,-0.96012,0,0,0.2,-9.4739e-16,0,0.66667
0.095776,0.57822,0.47888,0.11733,3.8085,101.61,-0.14984,0.049946,-1.9509,-0.19978,-3.4548e-09,-0.97546,0,0,0.2,-1.1842e-16,0,0.66667
0.81577,0.54341,4.0789,0.06511,0.68832,6.622,-0.7082,0.23607,-1.9845,-0.94426,2.5969e-10,-0.99223,0,0,0.2,-0,-0,0.66667
0.27802,0.97921,1.3901,0.71882,22.074,71.402,-2.6646,0.88819,-0.16248,-3.5528,-1.1591e-13,-0.081242,0,0,0.2,-0,-0,0.66667
0.59229,0.4139,2.9614,-0.12915,-2.7218,26.85,1.0199,-0.33998,-1.9412,1.3599,7.6861e-13,-0.97062,0,0,0.2,-0,-0,0.66667
0.7198,0.32524,3.599,-0.26214,-4.0766,13.958,2.5158,-0.83861,-1.756,3.3544,-2.4682e-11,-0.878,0,0,0.2,-0,-0,0.66667
0.77702,0.94369,3.8851,0.66553,8.7078,10.015,-6.8951,2.2984,-0.42493,-9.1934,1.1325e-11,-0.21246,0,0,0.2,-0,9.2875e-18,0.66667
0.29466,0.88692,1.4733,0.58039,17.531,68.638,-2.2803,0.76009,-0.80221,-3.0403,1.2523e-13,-0.4011,0,0,0.2,-4.737e-16,0,0.66667
0.60738,0.23086,3.0369,-0.40372,-8.3255,25.331,3.2694,-1.0898,-1.4205,4.3593,1.8847e-12,-0.71023,0,0,0.2,9.4739e-16,0,0.66667
0.28747,0.85008,1.4374,0.52512,15.901,69.742,-2.0128,0.67093,-1.019,-2.6837,-4.4227e-12,-0.50949,0,0,0.2,-0,-0,0.66667
0.99832,0.9494,4.9916,0.67409,7.6505e-06,1.0205,-8.9728,2.9909,-0.38445,-11.964,-5.4396e-06,-0.19222,0,0,0.2,-1.8948e-15,0,0.66667
0.81451,0.47683,4.0725,-0.034749,-0.36964,6.6962,0.37738,-0.12579,-1.996,0.50317,-2.1778e-10,-0.99799,0,0,0.2,-0,-0,0.66667
0.41398,0.67123,2.0699,0.25685,6.9621,50.268,-1.4177,0.47258,-1.7642,-1.8903,1.5739e-12,-0.8821,0,0,0.2,-0,-0,0.66667
0.87914,0.064453,4.3957,-0.65332,-4.8539,4.0263,7.6582,-2.5527,-0.4829,10.211,-3.5718e-08,-0.24145,0,0,0.2,-3.7896e-15,0,0.66667
0.7325,0.067974,3.6625,-0.64804,-9.9152,13.441,6.3292,-2.1097,-0.50748,8.4389,-1.6258e-12,-0.25374,0,0,0.2,-0,-0,0.66667
0.92875,0.4071,4.6437,-0.13935,-0.55989,1.3709,1.7257,-0.57522,-1.9313,2.3009,7.2234e-08,-0.96563,0,0,0.2,3.7896e-15,0,0.66667
0.17161,0.74723,0.85805,0.37085,11.834,88.71,-0.84855,0.28285,-1.5128,-1.1314,-8.5918e-10,-0.75641,0,0,0.2,2.9606e-16,0,0.66667
0.29484,0.49468,1.4742,-0.0079807,-0.23824,68.391,0.031373,-0.010458,-2.0004,0.041831,1.547e-12,-1.0002,0,0,0.2,-7.1054e-16,0,0.66667
0.093737,0.61069,0.46868,0.16603,5.3936,101.96,-0.20751,0.06917,-1.9028,-0.27668,2.2123e-09,-0.95139,0,0,0.2,1.1842e-16,0,0.66667
0.31798,0.069938,1.5899,-0.64509,-19.231,65.025,2.735,-0.91168,-0.51978,3.6467,-1.0065e-12,-0.25989,0,0,0.2,-0,-0,0.66667
0.38119,0.056603,1.9059,-0.6651,-18.866,55.415,3.3804,-1.1268,-0.42669,4.5071,-1.4189e-13,-0.21335,0,0,0.2,-0,-0,0.66667
0.63271,0.45312,3.1636,-0.070319,-1.365,22.339,0.59323,-0.19774,-1.9812,0.79097,6.0552e-13,-0.99059,0,0,0.2,9.4739e-16,0,0.66667
0.47152,0.25066,2.3576,-0.37401,-9.5312,42.238,2.3514,-0.78379,-1.5038,3.1352,-1.0867e-12,-0.7519,0,0,0.2,1.8948e-15,0,0.66667
0.71767,0.51415,3.5883,0.021222,0.33068,14.035,-0.20307,0.06769,-1.9987,-0.27076,2.2253e-12,-0.99934,0,0,0.2,1.8948e-15,0,0.66667
0.26922,0.0027919,1.3461,-0.74581,-23.054,72.834,2.6772,-0.8924,-0.02277,3.5696,-6.6702e-13,-0.011385,0,0,0.2,-0,-0,0.66667
0.17306,0.095606,0.86528,-0.60659,-19.492,88.555,1.3997,-0.46655,-0.69327,1.8662,9.4062e-10,-0.34664,0,0,0.2,4.737e-16,0,0.66667
0.37912,0.55089,1.8956,0.07633,2.1346,55.354,-0.38585,0.12862,-1.9786,-0.51446,6.5634e-13,-0.9893,0,0,0.2,4.737e-16,0,0.66667
0.43808,0.74618,2.1904,0.36927,9.7835,46.881,-2.1569,0.71897,-1.5166,-2.8759,5.4801e-13,-0.75832,0,0,0.2,-7.1054e-16,0,0.66667
0.42213,0.089047,2.1106,-0.61643,-16.77,49.385,3.4695,-1.1565,-0.65043,4.626,-9.8677e-13,-0.32522,0,0,0.2,7.1054e-16,0,0.66667
0.91357,0.6794,4.5678,0.2691,1.3468,1.9684,-3.2779,1.0926,-1.7417,-4.3705,-1.4536e-09,-0.87084,0,0,0.2,-0,-0,0.66667
0.26957,0.055595,1.3478,-0.66661,-20.524,72.712,2.3959,-0.79865,-0.41982,3.1946,1.8234e-12,-0.20991,0,0,0.2,-2.3685e-16,0,0.66667
0.35204,0.29457,1.7602,-0.30814,-8.8491,59.525,1.4464,-0.48213,-1.6612,1.9285,-2.2303e-12,-0.83059,0,0,0.2,-9.4739e-16,0,0.66667
0.21521,0.32759,1.076,-0.25861,-8.0881,81.387,0.74207,-0.24736,-1.7616,0.98943,2.5468e-10,-0.88079,0,0,0.2,-4.737e-16,0,0.66667
0.37192,0.22084,1.8596,-0.41875,-11.859,56.576,2.0766,-0.69218,-1.3773,2.7687,-2.6645e-12,-0.68866,0,0,0.2,-0,-0,0.66667
0.38986,0.3029,1.9493,-0.29565,-8.2114,53.825,1.5368,-0.51226,-1.6899,2.0491,-2.3554e-12,-0.84494,0,0,0.2,-0,-0,0.66667
0.57543,0.20341,2.8771,-0.44489,-9.751,29.052,3.4133,-1.1378,-1.2959,4.5511,1.2044e-12,-0.64795,0,0,0.2,-0,-0,0.66667
0.27836,0.34648,1.3918,-0.23028,-6.9596,71.06,0.8547,-0.2849,-1.8122,1.1396,2.7234e-11,-0.90609,0,0,0.2,-0,-0,0.66667
0.25949,0.0021308,1.2975,-0.7468,-23.214,74.4,2.5839,-0.86129,-0.017131,3.4452,-1.0376e-11,-0.0085656,0,0,0.2,-0,-0,0.66667
0.71906,0.90357,3.5953,0.60536,9.6222,14.498,-5.8039,1.9346,-0.69884,-7.7385,1.3238e-12,-0.34942,0,0,0.2,-1.1842e-15,0,0.66667
0.91018,0.030298,4.5509,-0.70455,-3.9811,2.9446,8.5502,-2.8501,-0.23581,11.4,2.8782e-07,-0.1179,0,0,0.2,-1.1842e-15,0,0.66667
0.1221,0.40545,0.61048,-0.14182,-4.5772,97.087,0.23088,-0.076962,-1.9296,0.30785,9.455e-09,-0.96479,0,0,0.2,3.1086e-16,0,0.66667
0.18229,0.24035,0.91144,-0.38947,-12.385,86.92,0.94662,-0.31554,-1.4599,1.2622,6.5548e-10,-0.72994,0,0,0.2,2.3685e-16,0,0.66667
0.13311,0.3601,0.66555,-0.20985,-6.7583,95.211,0.37244,-0.12415,-1.8422,0.49659,1.7909e-09,-0.92109,0,0,0.2,-0,-0,0.66667
0.68361,0.78134,3.418,0.42201,7.3251,17.436,-3.8466,1.2822,-1.3677,-5.1288,-2.6623e-13,-0.68386,0,0,0.2,-0,-0,0.66667
0.21401,0.72615,1.07,0.33923,10.632,81.609,-0.96798,0.32266,-1.5904,-1.2906,-2.7297e-10,-0.79519,0,0,0.2,-0,-0,0.66667
0.60457,0.082913,3.0229,-0.62563,-13.121,25.952,5.0432,-1.6811,-0.60752,6.7242,3.3529e-13,-0.30376,0,0,0.2,9.4739e-16,0,0.66667
0.20168,0.51455,1.0084,0.021827,0.68526,83.609,-0.058695,0.019565,-1.9984,-0.07826,-9.1021e-11,-0.99921,0,0,0.2,-0,-0,0.66667
0.81776,0.27441,4.0888,-0.33839,-3.5794,6.6981,3.6896,-1.2299,-1.5924,4.9194,-7.0212e-10,-0.79619,0,0,0.2,-0,-0,0.66667
0.31611,0.17578,1.5805,-0.48634,-14.427,65.192,2.0498,-0.68326,-1.1585,2.7331,-5.4756e-13,-0.57924,0,0,0.2,-0,-0,0.66667
0.66962,0.74389,3.3481,0.36583,6.564,18.728,-3.2662,1.0887,-1.5246,-4.355,-1.6389e-12,-0.76228,0,0,0.2,-4.737e-16,0,0.66667
0.14873,0.14992,0.74367,-0.52512,-16.961,92.626,1.0414,-0.34713,-1.0189,1.3885,5.4708e-10,-0.50945,0,0,0.2,-0,-0,0.66667
0.30595,0.71867,1.5297,0.328,9.7553,66.701,-1.338,0.44601,-1.618,-1.784,-4.9885e-12,-0.80898,0,0,0.2,-1.1929e-16,0,0.66667
0.29724,0.091263,1.4862,-0.61311,-18.513,68.256,2.4299,-0.80996,-0.66528,3.2398,-5.8065e-13,-0.33264,0,0,0.2,-1.1842e-16,0,0.66667
0.63508,0.65302,3.1754,0.22952,4.4437,22.154,-1.9436,0.64785,-1.8127,-2.5914,-2.6257e-12,-0.90634,0,0,0.2,1.1842e-15,0,0.66667
0.68088,0.68528,3.4044,0.27792,4.8293,17.545,-2.523,0.84101,-1.7254,-3.364,1.1593e-12,-0.86272,0,0,0.2,1.4211e-15,0,0.66667
0.84525,0.36392,4.2262,-0.20412,-1.8326,4.9598,2.3004,-0.7668,-1.8521,3.0672,-4.3207e-10,-0.92604,0,0,0.2,9.4739e-16,0,0.66667
0.18335,0.93796,0.91673,0.65693,21.072,86.856,-1.606,0.53532,-0.46637,-2.1413,-4.2642e-10,-0.23319,0,0,0.2,-0,-0,0.66667
0.76043,0.21763,3.8021,-0.42355,-5.7861,10.802,4.2944,-1.4315,-1.3626,5.7259,-9.1705e-11,-0.6813,0,0,0.2,-1.1901e-15,0,0.66667
0.71194,0.29792,3.5597,-0.30312,-4.8347,14.688,2.8774,-0.95912,-1.6721,3.8365,-1.6524e-11,-0.83605,0,0,0.2,1.0428e-16,0,0.66667
0.55754,0.24686,2.7877,-0.37971,-8.5577,31.128,2.8227,-0.9409,-1.4875,3.7636,8.6486e-13,-0.74374,0,0,0.2,2.3685e-16,0,0.66667
0.65016,0.73326,3.2508,0.34989,6.5732,20.674,-3.0331,1.011,-1.5636,-4.0442,-2.7853e-12,-0.78179,0,0,0.2,-9.4739e-16,0,0.66667
0.089995,0.13806,0.44998,-0.5429,-17.8,102.66,0.65145,-0.21715,-0.95136,0.8686,3.1284e-08,-0.47568,0,0,0.2,-0,-0,0.66667
0.14688,0.48388,0.73438,-0.024173,-0.77428,92.851,0.047338,-0.015779,-1.9968,0.063118,-5.6824e-10,-0.99838,0,0,0.2,-0,-0,0.66667
0.41557,0.29715,2.0779,-0.30427,-8.2425,50.062,1.6859,-0.56198,-1.6697,2.2479,-1.7738e-12,-0.83483,0,0,0.2,9.4739e-16,0,0.66667
0.71137,0.52401,3.5569,0.036014,0.57201,14.595,-0.34159,0.11386,-1.9946,-0.45545,3.5451e-12,-0.99732,0,0,0.2,-0,-0,0.66667
0.16782,0.14053,0.83911,-0.53921,-17.316,89.407,1.2065,-0.40218,-0.96545,1.6087,3.8782e-10,-0.48272,0,0,0.2,-0,-0,0.66667
0.38898,0.83404,1.9449,0.50106,14.013,54.096,-2.5987,0.86624,-1.1076,-3.4649,1.2836e-12,-0.5538,0,0,0.2,-0,-0,0.66667
0.49795,0.92253,2.4897,0.63379,15.782,38.98,-4.2079,1.4026,-0.57163,-5.6105,1.0614e-13,-0.28582,0,0,0.2,9.4739e-16,2.3644e-16,0.66667
0.93505,0.55284,4.6752,0.079267,0.28638,1.1611,-0.98825,0.32942,-1.9776,-1.3177,-4.8719e-08,-0.98881,0,0,0.2,-9.4739e-16,0,0.66667
0.055196,0.98,0.27598,0.72,23.894,108.68,-0.52988,0.17663,-0.15569,-0.70651,8.5479e-07,-0.077847,0,0,0.2,-0,-0,0.66667
0.82901,0.96905,4.145,0.70357,7.2854,6.7184,-7.7769,2.5923,-0.24195,-10.369,-2.7073e-10,-0.12097,0,0,0.2,-0,-0,0.66667
0.98416,0.73062,4.9208,0.34593,0.20354,0.41551,-4.5393,1.5131,-1.5753,-6.0524,1.6185e-08,-0.78765,0,0,0.2,-0,-0,0.66667
0.26727,0.079996,1.3364,-0.63001,-19.392,73.052,2.2451,-0.74837,-0.58881,2.9935,3.4064e-12,-0.29441,0,0,0.2,-0,-0,0.66667
0.89006,0.15945,4.4503,-0.51082,-3.3785,3.2356,6.0621,-2.0207,-1.0738,8.0828,-1.1819e-08,-0.5369,0,0,0.2,1.8948e-15,0,0.66667
0.2903,0.47104,1.4515,-0.043437,-1.3006,69.115,0.16813,-0.056043,-1.9933,0.22417,4.5155e-12,-0.99667,0,0,0.2,-0,-0,0.66667
0.79901,0.91405,3.995,0.62108,7.3719,8.3905,-6.6166,2.2055,-0.62874,-8.8222,2.0942e-10,-0.31437,0,0,0.2,1.8948e-15,0,0.66667
0.45986,0.085968,2.2993,-0.62105,-16.21,44.091,3.8079,-1.2693,-0.62784,5.0772,-2.6712e-13,-0.31392,0,0,0.2,-4.737e-16,0,0.66667
0.59761,0.95646,2.988,0.68469,14.606,26.84,-5.4557,1.8186,-0.3325,-7.2743,-5.0404e-13,-0.16625,0,0,0.2,9.4739e-16,0,0.66667
0.23667,0.95245,1.1833,0.67867,21.283,78.052,-2.1416,0.71386,-0.36211,-2.8554,-7.3652e-12,-0.18105,0,0,0.2,4.737e-16,0,0.66667
0.68761,0.71755,3.4381,0.32633,5.5801,16.946,-2.9918,0.99727,-1.6236,-3.9891,2.359e-12,-0.81178,0,0,0.2,-1.1842e-16,0,0.66667
0.14868,0.1198,0.74342,-0.5703,-18.449,92.65,1.1306,-0.37686,-0.84312,1.5075,2.8763e-09,-0.42156,0,0,0.2,-8.9597e-17,0,0.66667
0.55969,0.78058,2.7984,0.42086,9.4661,30.909,-3.1407,1.0469,-1.3714,-4.1876,-1.1231e-12,-0.68568,0,0,0.2,1.2553e-15,0,0.66667
0.49433,0.88877,2.4716,0.58315,14.554,39.389,-3.8436,1.2812,-0.78982,-5.1247,1.3967e-13,-0.39491,0,0,0.2,-0,-0,0.66667
0.83721,0.89265,4.186,0.58897,5.74,5.9758,-6.5745,2.1915,-0.76547,-8.766,9.1618e-10,-0.38274,0,0,0.2,-9.4739e-16,0,0.66667
0.48147,0.80111,2.4073,0.45167,11.398,40.958,-2.8995,0.96651,-1.2743,-3.866,2.4647e-13,-0.63717,0,0,0.2,-4.737e-16,0,0.66667
0.78473,0.85756,3.9237,0.53634,6.7159,9.1957,-5.6118,1.8706,-0.97659,-7.4824,1.1192e-10,-0.4883,0,0,0.2,-0,-0,0.66667
0.40029,0.63914,2.0015,0.20871,5.73,52.245,-1.114,0.37132,-1.844,-1.4853,1.7013e-12,-0.922,0,0,0.2,-0,-0,0.66667
0.30791,0.64452,1.5395,0.21677,6.4248,66.35,-0.88994,0.29665,-1.8321,-1.1866,-4.7476e-12,-0.91606,0,0,0.2,-8.3833e-16,0,0.66667
0.78723,0.13407,3.9361,-0.5489,-6.809,9.0444,5.7614,-1.9205,-0.92792,7.6819,-1.6726e-10,-0.46396,0,0,0.2,-0,-0,0.66667
0.41846,0.55708,2.0923,0.085616,2.3048,49.564,-0.4777,0.15923,-1.9741,-0.63693,-1.4805e-13,-0.98703,0,0,0.2,-0,-0,0.66667
0.49677,0.43418,2.4838,-0.098732,-2.4223,38.703,0.65396,-0.21799,-1.9659,0.87194,-6.5509e-13,-0.98293,0,0,0.2,2.3685e-16,0,0.66667
0.57732,0.25909,2.8866,-0.36137,-7.869,28.742,2.7817,-0.92723,-1.5364,3.7089,1.4779e-12,-0.76819,0,0,0.2,-0,-0,0.66667
0.81967,0.76601,4.0983,0.39901,4.1976,6.6616,-4.3608,1.4536,-1.4327,-5.8143,6.2971e-10,-0.71634,0,0,0.2,-9.4739e-16,0,0.66667
0.58132,0.42556,2.9066,-0.11166,-2.4004,28.12,0.86543,-0.28848,-1.9552,1.1539,5.535e-13,-0.97762,0,0,0.2,-0,-0,0.66667
0.40614,0.76356,2.0307,0.39534,10.838,51.49,-2.1408,0.71361,-1.4451,-2.8545,1.3456e-12,-0.72253,0,0,0.2,-0,-0,0.66667
0.16059,0.9862,0.80293,0.7293,23.66,90.712,-1.5616,0.52052,-0.10804,-2.0821,1.4962e-10,-0.054019,0,0,0.2,-2.3685e-16,0,0.66667
0.70211,0.45597,3.5106,-0.066047,-1.0781,15.438,0.6183,-0.2061,-1.9848,0.8244,-4.3828e-12,-0.99242,0,0,0.2,9.4739e-16,0,0.66667
0.88323,0.45637,4.4162,-0.065439,-0.44178,3.0195,0.77063,-0.25688,-1.9836,1.0275,-5.0926e-09,-0.9918,0,0,0.2,-9.4739e-16,0,0.66667
0.10838,0.86201,0.54189,0.54302,17.737,99.505,-0.78469,0.26156,-0.95192,-1.0463,-4.1895e-10,-0.47596,0,0,0.2,-0,2.7101e-16,0.66667
0.46621,0.14011,2.3311,-0.53984,-13.932,43.121,3.3558,-1.1186,-0.96349,4.4743,-2.4913e-13,-0.48175,0,0,0.2,9.4739e-16,0,0.66667
0.93454,0.80444,4.6727,0.45665,1.7601,1.5955,-5.6901,1.8967,-1.2585,-7.5868,-2.5137e-09,-0.62924,0,0,0.2,-0,-0,0.66667
0.56351,0.462,2.8175,-0.056998,-1.2636,30.23,0.42825,-0.14275,-1.9893,0.571,7.5354e-13,-0.99465,0,0,0.2,-9.4739e-16,0,0.66667
0.54525,0.84944,2.7263,0.52416,12.121,32.795,-3.8107,1.2702,-1.0239,-5.0809,-1.1391e-13,-0.51193,0,0,0.2,-0,-0,0.66667
0.063476,0.28965,0.31738,-0.31553,-10.324,107.19,0.26704,-0.089014,-1.6467,0.35606,-6.8846e-09,-0.82335,0,0,0.2,-0,-0,0.66667
0.5353,0.3209,2.6765,-0.26865,-6.2523,33.793,1.9174,-0.63914,-1.743,2.5566,5.2403e-13,-0.87149,0,0,0.2,9.4739e-16,0,0.66667
0.65454,0.3904,3.2727,-0.16441,-3.0411,20.086,1.4348,-0.47827,-1.9039,1.9131,1.2287e-12,-0.95194,0,0,0.2,-9.4739e-16,0,0.66667
0.14659,0.15396,0.73296,-0.51906,-16.772,92.987,1.0145,-0.33818,-1.0422,1.3527,5.6039e-10,-0.52109,0,0,0.2,-3.2567e-16,0,0.66667
0.95636,0.50805,4.7818,0.012075,0.027313,0.6221,-0.15397,0.051326,-1.9993,-0.2053,2.2159e-06,-0.99967,0,0,0.2,-0,-0,0.66667
0.19615,0.49968,0.98075,-0.00048224,-0.015174,84.532,0.0012612,-0.00042041,-2.0004,0.0016816,2.4162e-10,-1.0002,0,0,0.2,2.6645e-16,0,0.66667
0.67393,0.52099,3.3696,0.031492,0.55463,18.106,-0.28297,0.094325,-1.9965,-0.3773,3.4575e-13,-0.99827,0,0,0.2,-0,-0,0.66667
0.27434,0.58863,1.3717,0.13294,4.0227,71.686,-0.48627,0.16209,-1.9367,-0.64836,-2.3591e-11,-0.96836,0,0,0.2,4.737e-16,0,0.66667
0.10843,0.35218,0.54215,-0.22172,-7.1859,99.437,0.32056,-0.10685,-1.8259,0.42741,-1.4828e-09,-0.91294,0,0,0.2,-0,-0,0.66667
0.2609,0.33691,1.3045,-0.24463,-7.4718,73.884,0.85099,-0.28366,-1.7868,1.1347,5.1515e-11,-0.89342,0,0,0.2,2.3685e-16,0,0.66667
0.33415,0.77339,1.6708,0.41008,11.975,62.333,-1.8271,0.60902,-1.4014,-2.4361,1.7674e-12,-0.70068,0,0,0.2,2.3685e-16,0,0.66667
0.46473,0.93001,2.3237,0.64502,16.759,43.453,-3.9968,1.3323,-0.52041,-5.3291,7.6161e-14,-0.2602,0,0,0.2,-4.737e-16,0,0.66667
0.23436,0.72636,1.1718,0.33954,10.539,78.25,-1.061,0.35366,-1.5913,-1.4146,-1.4014e-10,-0.79566,0,0,0.2,-0,-0,0.66667
0.7275,0.094182,3.6375,-0.60873,-9.4305,13.781,5.9047,-1.9682,-0.68289,7.8729,-2.6787e-12,-0.34144,0,0,0.2,-0,-0,0.66667
0.80719,0.53525,4.036,0.052868,0.58336,7.1684,-0.569,0.18967,-1.99,-0.75866,6.3895e-11,-0.99498,0,0,0.2,-0,-0,0.66667
0.79098,0.92435,3.9549,0.63652,7.8391,8.9673,-6.713,2.2377,-0.55834,-8.9507,4.0808e-11,-0.27917,0,0,0.2,-0,-0,0.66667
0.71575,0.49834,3.5787,-0.0024972,-0.039138,14.204,0.023832,-0.0079439,-2.0009,0.031776,2.2428e-13,-1.0004,0,0,0.2,-3.079e-15,0,0.66667
0.26964,0.72303,1.3482,0.33455,10.184,72.5,-1.2028,0.40092,-1.6022,-1.6037,-3.7102e-11,-0.8011,0,0,0.2,-0,-0,0.66667
0.21046,0.52258,1.0523,0.033873,1.0594,82.146,-0.095051,0.031684,-1.995,-0.12673,-5.7634e-11,-0.99751,0,0,0.2,4.737e-16,0,0.66667
0.10913,0.33713,0.54564,-0.24431,-7.9191,99.32,0.35548,-0.11849,-1.789,0.47397,-1.2883e-09,-0.89451,0,0,0.2,-1.1842e-16,0,0.66667
0.39668,0.4187,1.9834,-0.12195,-3.3561,52.752,0.645,-0.215,-1.946,0.86,-1.0862e-12,-0.97302,0,0,0.2,-0,-0,0.66667
0.087267,0.25741,0.43633,-0.36388,-11.875,103.09,0.4234,-0.14113,-1.5285,0.56453,2.8904e-09,-0.76425,0,0,0.2,-0,-0,0.66667
0.65539,0.69228,3.2769,0.28842,5.3411,20.081,-2.5204,0.84012,-1.7054,-3.3605,-2.0144e-12,-0.85271,0,0,0.2,-1.8948e-15,0,0.66667
0.94983,0.2142,4.7491,-0.4287,-1.2295,1.1558,5.4292,-1.8097,-1.3468,7.2389,2.165e-08,-0.67342,0,0,0.2,-1.3324e-15,0,0.66667
0.75563,0.7108,3.7782,0.31621,4.3703,11.041,-3.1858,1.0619,-1.6438,-4.2478,9.8558e-11,-0.82191,0,0,0.2,4.737e-16,0,0.66667
0.11689,0.275,0.58446,-0.33749,-10.939,98.003,0.526,-0.17533,-1.5944,0.70134,2.8115e-09,-0.79719,0,0,0.2,-1.1842e-16,0,0.66667
0.020481,0.45033,0.10241,-0.074498,-2.4392,114.64,0.020345,-0.0067814,-1.9794,0.027127,3.332e-07,-0.98968,0,0,0.2,-2.9606e-17,0,0.66667
0.33489,0.45488,1.6744,-0.067687,-1.964,62.097,0.30223,-0.10074,-1.9825,0.40298,2.7517e-13,-0.99126,0,0,0.2,-3.9659e-16,0,0.66667
0.99288,0.53825,4.9644,0.057381,-0.0061273,0.066164,-0.75963,0.25321,-1.9876,-1.0128,1.235e-06,-0.99379,0,0,0.2,-0,-0,0.66667
0.31283,0.21314,1.5642,-0.43029,-12.771,65.669,1.7948,-0.59826,-1.343,2.3931,2.5124e-13,-0.6715,0,0,0.2,-4.737e-16,0,0.66667
0.73751,0.49241,3.6875,-0.011388,-0.16648,12.338,0.11198,-0.037328,-1.9995,0.14931,-7.9392e-12,-0.99974,0,0,0.2,-4.737e-16,0,0.66667
0.71653,0.9375,3.5826,0.65624,10.554,14.821,-6.2696,2.0899,-0.47028,-8.3594,5.8176e-14,-0.23514,0,0,0.2,3.839e-16,0,0.66667
0.57256,0.67636,2.8628,0.26453,5.792,29.229,-2.0195,0.67316,-1.7503,-2.6926,-1.1799e-12,-0.87513,0,0,0.2,-0,-0,0.66667
0.36765,0.69952,1.8382,0.29928,8.4807,57.15,-1.467,0.48901,-1.6804,-1.956,2.4475e-12,-0.8402,0,0,0.2,-0,-0,0.66667
0.20827,0.14151,1.0413,-0.53773,-16.994,82.644,1.4932,-0.49774,-0.97089,1.9909,1.6834e-10,-0.48545,0,0,0.2,-0,-0,0.66667
0.98,0.36891,4.9,-0.19664,-0.15275,0.29212,2.5695,-0.85648,-1.8623,3.4259,7.1598e-08,-0.93115,0,0,0.2,1.054e-15,0,0.66667
0.065894,0.74339,0.32947,0.36508,11.954,106.78,-0.32076,0.10692,-1.5261,-0.42768,7.8444e-09,-0.76303,0,0,0.2,-0,-0,0.66667
0.23623,0.81295,1.1811,0.46942,14.608,77.998,-1.4785,0.49284,-1.2181,-1.9714,-7.8222e-11,-0.60904,0,0,0.2,-0,-0,0.66667
0.3089,0.77446,1.5445,0.41169,12.246,66.277,-1.6956,0.56521,-1.3973,-2.2608,-1.3887e-12,-0.69863,0,0,0.2,-2.3685e-16,0,0.66667
0.9095,0.47248,4.5475,-0.041282,-0.21379,1.9682,0.50062,-0.16687,-1.9944,0.66749,-6.3836e-08,-0.99719,0,0,0.2,-0,-0,0.66667
0.71337,0.74036,3.5668,0.36054,5.7404,14.621,-3.4293,1.1431,-1.537,-4.5724,1.493e-11,-0.76851,0,0,0.2,9.4739e-16,0,0.66667
0.26537,0.87586,1.3269,0.56379,17.327,73.312,-1.9949,0.66495,-0.87201,-2.6598,-7.8439e-12,-0.436,0,0,0.2,9.4739e-16,0,0.66667
0.1645,0.15509,0.82251,-0.51737,-16.621,89.957,1.1348,-0.37826,-1.0485,1.513,1.742e-09,-0.52425,0,0,0.2,3.1086e-16,0,0.66667
0.8805,0.82132,4.4025,0.48199,3.4454,3.5864,-5.6585,1.8862,-1.1733,-7.5447,4.7018e-09,-0.58663,0,0,0.2,-0,-0,0.66667
0.79378,0.65352,3.9689,0.23028,2.7178,8.1546,-2.4373,0.81242,-1.8121,-3.2497,2.9557e-10,-0.90605,0,0,0.2,-9.4923e-16,0,0.66667
0.038387,0.32472,0.19194,-0.26292,-8.6164,111.53,0.13457,-0.044856,-1.7531,0.17942,-1.4218e-08,-0.87654,0,0,0.2,-0,-0,0.66667
0.8793,0.76816,4.3965,0.40224,2.8742,3.5015,-4.7159,1.572,-1.4239,-6.2878,2.5021e-09,-0.71196,0,0,0.2,-0,-0,0.66667
0.58794,0.79362,2.9397,0.44043,9.4377,27.584,-3.4526,1.1509,-1.3093,-4.6034,-1.2434e-12,-0.65464,0,0,0.2,9.4739e-16,0,0.66667
0.45754,0.80761,2.2877,0.46142,11.994,44.235,-2.8149,0.9383,-1.2429,-3.7532,-2.065e-14,-0.62147,0,0,0.2,7.1054e-16,0,0.66667
0.67385,0.025757,3.3693,-0.71136,-12.903,18.869,6.3914,-2.1305,-0.20135,8.5219,3.5083e-13,-0.10068,0,0,0.2,-9.4739e-16,0,0.66667
0.039443,0.69116,0.19721,0.28674,9.4002,111.35,-0.1508,0.050265,-1.7074,-0.20106,1.3163e-10,-0.85371,0,0,0.2,-0,-0,0.66667
0.33032,0.82292,1.6516,0.48437,14.219,62.976,-2.1333,0.71111,-1.1658,-2.8444,2.2751e-12,-0.5829,0,0,0.2,-0,-0,0.66667
0.088048,0.50142,0.44024,0.0021283,0.069151,102.93,-0.0024986,0.00083299,-2.0003,-0.0033314,1.8734e-07,-1.0001,0,0,0.2,-0,-0,0.66667
0.68364,0.18775,3.4182,-0.46838,-8.1492,17.496,4.2693,-1.4231,-1.2209,5.6924,9.5257e-13,-0.61046,0,0,0.2,1.8948e-15,0,0.66667
0.39801,0.78264,1.9901,0.42395,11.725,52.702,-2.2499,0.74995,-1.3611,-2.9998,1.4384e-12,-0.68056,0,0,0.2,-0,-0,0.66667
0.47895,0.36755,2.3948,-0.19868,-4.9956,41.122,1.2688,-0.42292,-1.8591,1.6917,-4.784e-13,-0.92953,0,0,0.2,-4.737e-16,0,0.66667
0.2898,0.83643,1.449,0.50465,15.248,69.357,-1.95,0.64999,-1.0938,-2.6,-4.897e-12,-0.54688,0,0,0.2,1.716e-16,0,0.66667
0.78829,0.78435,3.9415,0.42652,5.2143,8.761,-4.483,1.4943,-1.353,-5.9774,2.1921e-10,-0.67652,0,0,0.2,-0,-0,0.66667
0.046513,0.38134,0.23256,-0.17799,-5.8222,110.12,0.11038,-0.036795,-1.8886,0.14718,3.4602e-08,-0.94428,0,0,0.2,1.1842e-16,0,0.66667
0.28113,0.51985,1.4056,0.029777,0.89679,70.584,-0.11162,0.037205,-1.9977,-0.14882,-4.7087e-12,-0.99885,0,0,0.2,-0,-0,0.66667
0.5906,0.81796,2.953,0.47693,10.187,27.321,-3.7557,1.2519,-1.1914,-5.0076,-1.2577e-12,-0.59572,0,0,0.2,-0,-0,0.66667
0.79013,0.95734,3.9507,0.686,8.5254,9.14,-7.2271,2.409,-0.32566,-9.6362,2.2489e-11,-0.16283,0,0,0.2,-0,-0,0.66667
0.6016,0.47447,3.008,-0.038298,-0.7923,25.765,0.3072,-0.1024,-1.9942,0.4096,2.7797e-13,-0.99711,0,0,0.2,-0,-0,0.66667
0.73049,0.70496,3.6524,0.30744,4.6304,13.081,-2.9945,0.99815,-1.6632,-3.9926,3.8267e-11,-0.83161,0,0,0.2,-9.4739e-16,0,0.66667
0.023528,0.064396,0.11764,-0.65341,-21.676,114.13,0.20498,-0.068325,-0.48206,0.2733,6.7896e-07,-0.24103,0,0,0.2,-0,-0,0.66667
0.25492,0.46422,1.2746,-0.053665,-1.6414,74.823,0.18241,-0.060803,-1.9897,0.24321,1.795e-11,-0.99483,0,0,0.2,-1.1842e-16,0,0.66667
0.042092,0.78866,0.21046,0.43298,14.239,110.9,-0.243,0.081,-1.333,-0.324,3.3305e-08,-0.66648,0,0,0.2,-0,-0,0.66667
0.50001,0.50244,2.5001,0.0036639,0.089455,38.262,-0.024427,0.0081422,-2.0019,-0.032569,1.8668e-13,-1.001,0,0,0.2,-0,-0,0.66667
0.98914,0.90718,4.9457,0.61078,0.31979,0.91649,-8.0553,2.6851,-0.67418,-10.74,1.1552e-06,-0.33709,0,0,0.2,3.7896e-15,0,0.66667
0.013531,0.76749,0.067653,0.40124,13.205,115.85,-0.072386,0.024129,-1.4275,-0.096515,-2.3958e-08,-0.71373,0,0,0.2,-3.0826e-17,0,0.66667
0.44088,0.33311,2.2044,-0.25033,-6.5926,46.414,1.4715,-0.49051,-1.7768,1.962,-1.0144e-12,-0.88839,0,0,0.2,-4.737e-16,0,0.66667
0.0047864,0.10515,0.023932,-0.59228,-19.612,117.37,0.037798,-0.012599,-0.75192,0.050398,8.7436e-07,-0.37596,0,0,0.2,7.4015e-18,0,0.66667
0.61289,0.027611,3.0644,-0.70858,-14.703,25.179,5.7904,-1.9301,-0.21516,7.7206,4.5741e-14,-0.10758,0,0,0.2,-0,-0,0.66667
0.18336,0.69746,0.91679,0.29619,9.3953,86.714,-0.72413,0.24138,-1.6875,-0.9655,-5.6862e-10,-0.84375,0,0,0.2,-4.737e-16,0,0.66667
0.71274,0.82461,3.5637,0.48692,7.8211,14.846,-4.6273,1.5424,-1.156,-6.1697,6.4859e-12,-0.57799,0,0,0.2,-0,-0,0.66667
0.15965,0.53158,0.79824,0.047376,1.5114,90.682,-0.10085,0.033616,-1.9931,-0.13446,-3.8235e-10,-0.99653,0,0,0.2,4.737e-16,0,0.66667
0.82858,0.085825,4.1429,-0.62126,-6.3777,6.5428,6.8635,-2.2878,-0.62865,9.1513,-1.0609e-09,-0.31432,0,0,0.2,9.4739e-16,0,0.66667
0.20618,0.40713,1.0309,-0.1393,-4.3676,82.867,0.38295,-0.12765,-1.932,0.5106,1.9134e-10,-0.96602,0,0,0.2,-0,-0,0.66667
0.35222,0.51707,1.7611,0.025604,0.73267,59.425,-0.12024,0.040081,-1.9965,-0.16032,3.1776e-13,-0.99823,0,0,0.2,-9.4739e-16,0,0.66667
0.23058,0.27093,1.1529,-0.34361,-10.686,78.873,1.0564,-0.35213,-1.5797,1.4085,1.5347e-10,-0.78985,0,0,0.2,-2.3685e-16,0,0.66667
0.80768,0.74374,4.0384,0.3656,4.0741,7.3712,-3.9372,1.3124,-1.5244,-5.2497,4.8752e-10,-0.7622,0,0,0.2,-0,-0,0.66667
0.49027,0.032144,2.4513,-0.70178,-17.719,40.093,4.5875,-1.5292,-0.24928,6.1167,-3.7437e-13,-0.12464,0,0,0.2,-0,-0,0.66667
0.87383,0.81098,4.3692,0.46648,3.5092,3.8577,-5.435,1.8117,-1.2279,-7.2466,4.7835e-09,-0.61397,0,0,0.2,-1.8948e-15,0,0.66667
0.13009,0.090971,0.65043,-0.61354,-19.987,95.823,1.0642,-0.35473,-0.66172,1.4189,4.0716e-09,-0.33086,0,0,0.2,5.9212e-17,0,0.66667
0.49896,0.47162,2.4948,-0.042576,-1.0411,38.404,0.28325,-0.094416,-1.995,0.37767,5.8314e-14,-0.99749,0,0,0.2,-0,-0,0.66667
0.77661,0.80209,3.8831,0.45314,5.8267,9.6343,-4.6921,1.564,-1.2692,-6.2562,1.4165e-10,-0.63461,0,0,0.2,9.4739e-16,0,0.66667
0.98121,0.96932,4.9061,0.70397,0.82469,1.2722,-9.21,3.07,-0.23898,-12.28,-1.0682e-06,-0.11949,0,0,0.2,-0,-0,0.66667
0.67338,0.02095,3.3669,-0.71858,-13.057,18.931,6.4516,-2.1505,-0.16437,8.6022,5.5067e-13,-0.082183,0,0,0.2,-1.8948e-15,0,0.66667
0.183,0.38086,0.91501,-0.1787,-5.659,86.751,0.43604,-0.14535,-1.8862,0.58139,2.7603e-10,-0.94312,0,0,0.2,-0,-0,0.66667
0.75977,0.56098,3.7989,0.091473,1.2364,10.564,-0.92665,0.30888,-1.9705,-1.2355,5.0942e-11,-0.98526,0,0,0.2,1.1842e-16,0,0.66667
0.074635,0.33789,0.37318,-0.24317,-7.9335,105.26,0.24199,-0.080662,-1.7898,0.32265,-1.4877e-08,-0.8949,0,0,0.2,5.9212e-17,0,0.66667
0.76277,0.55075,3.8139,0.076118,1.0171,10.328,-0.77414,0.25805,-1.9791,-1.0322,5.217e-11,-0.98954,0,0,0.2,-0,-0,0.66667
0.82782,0.7945,4.1391,0.44176,4.466,6.2363,-4.8759,1.6253,-1.3068,-6.5012,8.9015e-10,-0.6534,0,0,0.2,-0,-0,0.66667
0.55921,0.024074,2.796,-0.71389,-16.316,31.38,5.3229,-1.7743,-0.18789,7.0971,-2.1982e-13,-0.093943,0,0,0.2,-0,-0,0.66667
0.49272,0.55737,2.4636,0.086054,2.1226,39.238,-0.56534,0.18845,-1.9732,-0.75379,2.5219e-13,-0.9866,0,0,0.2,-2.3685e-16,0,0.66667
0.93653,0.075036,4.6826,-0.63745,-2.5085,1.9525,7.9598,-2.6533,-0.55563,10.613,-8.6334e-08,-0.27781,0,0,0.2,-0,-0,0.66667
9.6951e-05,0.66354,0.00048475,0.2453,8.049,118.18,-0.0003171,0.0001057,-1.7873,-0.00042281,-8.0456e-09,-0.89363,0,0,0.2,2.313e-19,-6.1734e-16,0.66667
0.0095669,0.8698,0.047834,0.55471,18.342,116.54,-0.070758,0.023586,-0.90557,-0.094343,8.8138e-08,-0.45279,0,0,0.2,7.4015e-18,0,0.66667
0.25195,0.53254,1.2598,0.048806,1.4953,75.308,-0.16396,0.054652,-1.9929,-0.21861,-2.2481e-11,-0.99643,0,0,0.2,-0,-0,0.66667
0.50568,0.16472,2.5284,-0.50291,-12.316,37.801,3.3908,-1.1303,-1.1,4.5211,-9.7033e-14,-0.54999,0,0,0.2,9.4739e-16,0,0.66667
0.54042,0.17315,2.7021,-0.49027,-11.406,33.354,3.5327,-1.1776,-1.1442,4.7103,4.4853e-13,-0.57209,0,0,0.2,9.4739e-16,0,0.66667
0.37129,0.02789,1.8565,-0.70817,-20.306,56.94,3.5058,-1.1686,-0.21726,4.6744,-1.7919e-13,-0.10863,0,0,0.2,-4.737e-16,-9.0918e-17,0.66667
0.29271,0.66384,1.4636,0.24577,7.3623,68.768,-0.95918,0.31973,-1.7849,-1.2789,-1.3242e-11,-0.89244,0,0,0.2,-0,-0,0.66667
0.20237,0.94452,1.0118,0.66678,21.234,83.693,-1.7991,0.59971,-0.42015,-2.3988,3.4197e-12,-0.21007,0,0,0.2,-0,-0,0.66667
0.80028,0.0095423,4.0014,-0.73569,-8.801,8.5825,7.8501,-2.6167,-0.075268,10.467,2.349e-10,-0.037634,0,0,0.2,-0,-0,0.66667
0.31592,0.62313,1.5796,0.18469,5.4407,65.078,-0.77797,0.25932,-1.8794,-1.0373,-2.0317e-12,-0.93972,0,0,0.2,6.5133e-16,0,0.66667
0.49247,0.70933,2.4623,0.31399,7.777,39.371,-2.0617,0.68725,-1.6485,-2.749,-1.5121e-13,-0.82424,0,0,0.2,-0,-0,0.66667
0.81129,0.57736,4.0565,0.11603,1.256,6.9228,-1.2552,0.41838,-1.9523,-1.6735,2.8299e-10,-0.97617,0,0,0.2,-0,-0,0.66667
0.61236,0.76847,3.0618,0.40271,8.2228,24.775,-3.288,1.096,-1.423,-4.384,-2.0659e-12,-0.71149,0,0,0.2,-9.4739e-16,0,0.66667
0.40861,0.58763,2.043,0.13144,3.5756,51.004,-0.71611,0.2387,-1.9389,-0.95482,6.0624e-13,-0.96947,0,0,0.2,4.737e-16,0,0.66667
0.1769,0.2461,0.88452,-0.38085,-12.133,87.822,0.89831,-0.29944,-1.4843,1.1977,7.8721e-10,-0.74213,0,0,0.2,-2.9606e-16,0,0.66667
0.39765,0.54835,1.9883,0.072522,1.9932,52.6,-0.38452,0.12817,-1.9801,-0.51269,1.0328e-13,-0.99004,0,0,0.2,-4.737e-16,0,0.66667
0.48521,0.072983,2.4261,-0.64053,-16.223,40.677,4.1439,-1.3813,-0.54181,5.5252,-1.4122e-13,-0.27091,0,0,0.2,-0,-0,0.66667
0.99058,0.50395,4.9529,0.005929,0.00024122,0.081492,-0.078309,0.02611,-1.9997,-0.10441,9.9171e-06,-0.99983,0,0,0.2,-0,-0,0.66667
0.2842,0.34423,1.421,-0.23366,-7.0365,70.125,0.8854,-0.29513,-1.807,1.1805,2.0939e-11,-0.90351,0,0,0.2,-9.4739e-16,0,0.66667
0.16564,0.37379,0.8282,-0.18931,-6.0339,89.68,0.4181,-0.13937,-1.8729,0.55747,1.2221e-09,-0.93643,0,0,0.2,5.9212e-17,0,0.66667
0.22058,0.77582,1.1029,0.41373,12.952,80.55,-1.2168,0.4056,-1.3921,-1.6224,-1.8546e-10,-0.69603,0,0,0.2,-3.5527e-16,0,0.66667
0.21147,0.9348,1.0573,0.65219,20.675,82.177,-1.8389,0.61297,-0.48755,-2.4519,-4.2843e-11,-0.24377,0,0,0.2,-5.9212e-17,0,0.66667
0.076048,0.51227,0.38024,0.018412,0.59946,105.01,-0.01867,0.0062231,-1.9987,-0.024893,-1.91e-07,-0.99936,0,0,0.2,-2.3685e-16,0,0.66667
0.36491,0.34747,1.8245,-0.22879,-6.4898,57.534,1.1132,-0.37105,-1.8138,1.4842,-1.975e-12,-0.9069,0,0,0.2,-0,-0,0.66667
0.28473,0.46319,1.4237,-0.055211,-1.6591,70.006,0.20961,-0.069868,-1.9892,0.27947,7.3463e-12,-0.99462,0,0,0.2,-0,-0,0.66667
0.88759,0.059514,4.4379,-0.66073,-4.5869,3.6845,7.8194,-2.6065,-0.44841,10.426,1.233e-08,-0.22421,0,0,0.2,2.3685e-15,0,0.66667
0.78026,0.49029,3.9013,-0.014563,-0.18141,9.015,0.15151,-0.050503,-1.9998,0.20201,5.3856e-12,-0.9999,0,0,0.2,1.8948e-15,0,0.66667
0.10906,0.92227,0.54532,0.63341,20.757,99.414,-0.92111,0.30704,-0.57411,-1.2281,2.7356e-10,-0.28705,0,0,0.2,-0,-2.3669e-16,0.66667
0.8505,0.95279,4.2525,0.67918,6.1917,5.47,-7.7019,2.5673,-0.35866,-10.269,2.2909e-09,-0.17933,0,0,0.2,-1.8948e-15,0,0.66667
0.1096,0.88191,0.54799,0.57287,18.727,99.305,-0.83714,0.27905,-0.83434,-1.1162,6.7971e-09,-0.41717,0,0,0.2,2.3685e-16,0,0.66667
0.72021,0.23833,3.601,-0.39251,-6.1309,14.059,3.7692,-1.2564,-1.4524,5.0256,-1.9596e-11,-0.72621,0,0,0.2,9.4739e-16,0,0.66667
0.57282,0.33338,2.8641,-0.24993,-5.4678,29.188,1.9089,-0.6363,-1.7771,2.5452,1.0306e-12,-0.88853,0,0,0.2,4.737e-16,0,0.66667
0.086808,0.87481,0.43404,0.56221,18.455,103.21,-0.65073,0.21691,-0.8766,-0.86764,-7.0549e-08,-0.4383,0,0,0.2,4.6259e-17,0,0.66667
0.90533,0.45149,4.5266,-0.072758,-0.39543,2.1279,0.87826,-0.29275,-1.9815,1.171,8.4435e-09,-0.99077,0,0,0.2,-0,-0,0.66667
0.87457,0.84426,4.3728,0.51639,3.8889,3.9193,-6.0215,2.0072,-1.0541,-8.0287,-1.2257e-09,-0.52703,0,0,0.2,-0,-0,0.66667
0.84385,0.23736,4.2193,-0.39396,-3.6145,5.2493,4.4326,-1.4775,-1.4489,5.9102,-1.438e-09,-0.72447,0,0,0.2,-9.4739e-16,0,0.66667
0.36957,0.5191,1.8478,0.028647,0.8078,56.787,-0.14116,0.047053,-1.9961,-0.18821,2.4925e-13,-0.99805,0,0,0.2,-0,-0,0.66667
0.22295,0.43047,1.1148,-0.10429,-3.2438,80.078,0.31002,-0.10334,-1.961,0.41335,1.0472e-10,-0.98052,0,0,0.2,-0,-0,0.66667
0.99711,0.50527,4.9856,0.0079011,-0.0030943,0.021996,-0.10504,0.03498,-2.0001,-0.14007,-5.1956e-05,-1,0,0,0.2,-0,-0,0.66667
0.81734,0.080668,4.0867,-0.629,-6.8512,7.2347,6.8547,-2.2849,-0.59238,9.1396,8.2164e-11,-0.29619,0,0,0.2,-9.4739e-16,0,0.66667
0.042128,0.96095,0.21064,0.69142,22.946,110.92,-0.38838,0.12946,-0.2997,-0.51784,-4.6784e-06,-0.14985,0,0,0.2,-0,-0,0.66667
0.37328,0.13563,1.8664,-0.54655,-15.53,56.475,2.7202,-0.90673,-0.93806,3.6269,-1.587e-12,-0.46903,0,0,0.2,-0,-0,0.66667
0.81219,0.50778,4.0609,0.011666,0.12554,6.8415,-0.12633,0.042109,-2.0006,-0.16844,-1.8266e-10,-1.0003,0,0,0.2,-0,-0,0.66667
0.52838,0.49377,2.6419,-0.0093479,-0.21914,34.583,0.065857,-0.021952,-1.9999,0.087809,-9.0407e-14,-0.99994,0,0,0.2,-1.4211e-15,0,0.66667
0.24713,0.68265,1.2357,0.27397,8.4361,76.135,-0.90275,0.30092,-1.7335,-1.2037,-8.849e-11,-0.86675,0,0,0.2,-0,-0,0.66667
0.79289,0.23283,3.9644,-0.40076,-4.7934,8.4057,4.2368,-1.4123,-1.4282,5.649,-2.9448e-10,-0.7141,0,0,0.2,-0,-0,0.66667
0.26175,0.72137,1.3088,0.33205,10.154,73.776,-1.1589,0.38629,-1.6084,-1.5452,-5.0769e-11,-0.80421,0,0,0.2,-0,-0,0.66667
0.00039838,0.38209,0.0019919,-0.17686,-5.7979,118.13,0.00093922,-0.00031303,-1.8899,0.0012523,6.7879e-08,-0.94494,0,0,0.2,-0,-0,0.66667
0.23132,0.81532,1.1566,0.47298,14.756,78.805,-1.4588,0.48626,-1.2053,-1.945,-7.7201e-11,-0.60263,0,0,0.2,-0,-0,0.66667
0.99337,0.47712,4.9669,-0.034323,0.0048555,0.056873,0.45461,-0.15154,-1.995,0.60614,1.0551e-06,-0.99749,0,0,0.2,-0,-0,0.66667
0.6562,0.28182,3.281,-0.32727,-6.0571,20.033,2.8634,-0.95447,-1.6215,3.8179,2.6494e-12,-0.81076,0,0,0.2,-0,-0,0.66667
0.22067,0.98312,1.1033,0.72468,22.952,80.708,-2.1322,0.71072,-0.13271,-2.8429,-1.6461e-11,-0.066353,0,0,0.2,-0,-0,0.66667
0.68614,0.8728,3.4307,0.55921,9.7198,17.4,-5.1159,1.7053,-0.88954,-6.8212,-1.521e-12,-0.44477,0,0,0.2,2.3685e-16,-2.0473e-16,0.66667
0.68694,0.31488,3.4347,-0.27768,-4.7485,16.965,2.5433,-0.84777,-1.7276,3.3911,-3.3999e-12,-0.86379,0,0,0.2,1.8948e-15,0,0.66667
0.64074,0.58544,3.2037,0.12817,2.4457,21.503,-1.095,0.36498,-1.9427,-1.4599,-1.338e-12,-0.97135,0,0,0.2,4.737e-16,0,0.66667
0.070549,0.94505,0.35274,0.66758,22.061,106.03,-0.62796,0.20932,-0.41462,-0.83728,5.7293e-08,-0.20731,0,0,0.2,-0,-0,0.66667
0.24296,0.21133,1.2148,-0.43301,-13.413,76.877,1.4027,-0.46758,-1.3326,1.8703,7.6912e-11,-0.66629,0,0,0.2,-0,-0,0.66667
0.87084,0.17019,4.3542,-0.49472,-3.8218,4.0493,5.7443,-1.9148,-1.129,7.659,-4.1152e-09,-0.5645,0,0,0.2,-0,-0,0.66667
0.73474,0.14917,3.6737,-0.52624,-7.9159,13.021,5.1553,-1.7184,-1.0165,6.8738,-1.8813e-11,-0.50824,0,0,0.2,-0,-0,0.66667
0.16782,0.72634,0.83908,0.33951,10.841,89.342,-0.75966,0.25322,-1.5898,-1.0129,-9.2938e-10,-0.79492,0,0,0.2,-0,-0,0.66667
0.29859,0.30533,1.4929,-0.29201,-8.7213,67.85,1.1625,-0.38752,-1.6973,1.5501,9.1113e-12,-0.84866,0,0,0.2,-2.3685e-16,0,0.66667
0.56272,0.36168,2.8136,-0.20748,-4.6142,30.375,1.5567,-0.5189,-1.8477,2.0756,8.6386e-13,-0.92383,0,0,0.2,-0,-0,0.66667
0.82645,0.99167,4.1322,0.73751,7.7785,6.958,-8.1268,2.7089,-0.066429,-10.836,-3.5488e-10,-0.033215,0,0,0.2,-1.8635e-15,0,0.66667
0.20052,0.16403,1.0026,-0.50395,-15.962,83.916,1.3473,-0.44911,-1.0971,1.7965,3.7374e-10,-0.54855,0,0,0.2,-0,-0,0.66667
0.10167,0.99874,0.50833,0.74812,24.677,100.71,-1.0141,0.33803,-0.010235,-1.3521,6.798e-08,-0.0051174,0,0,0.2,2.3685e-16,0,0.66667
0.38187,0.53458,1.9093,0.051867,1.4467,54.941,-0.26409,0.088029,-1.9903,-0.35212,9.0589e-13,-0.99514,0,0,0.2,-0,-0,0.66667
0.91235,0.24369,4.5618,-0.38447,-1.9827,2.1634,4.6769,-1.559,-1.4739,6.2359,-2.8505e-09,-0.73694,0,0,0.2,4.737e-16,0,0.66667
0.26051,0.52966,1.3026,0.044484,1.3563,73.914,-0.15452,0.051505,-1.9933,-0.20602,-9.7272e-12,-0.99667,0,0,0.2,-2.3685e-16,0,0.66667
0.1083,0.56559,0.54152,0.098388,3.1847,99.449,-0.14208,0.047359,-1.9669,-0.18944,-1.9148e-08,-0.98347,0,0,0.2,-0,-0,0.66667
0.055943,0.15873,0.27971,-0.51191,-16.851,108.52,0.38184,-0.12728,-1.0683,0.50912,-6.1667e-08,-0.53414,0,0,0.2,-0,-0,0.66667
0.35167,0.32482,1.7584,-0.26277,-7.5413,59.562,1.2321,-0.41071,-1.7533,1.6428,-2.5361e-12,-0.87666,0,0,0.2,-0,-0,0.66667
0.037627,0.37532,0.18813,-0.18702,-6.1228,111.66,0.093826,-0.031275,-1.8761,0.1251,6.2548e-08,-0.93805,0,0,0.2,1.1842e-16,0,0.66667
0.58303,0.57185,2.9152,0.10778,2.3099,27.918,-0.83787,0.27929,-1.958,-1.1172,-9.3509e-13,-0.979,0,0,0.2,-0,-0,0.66667
0.67256,0.39057,3.3628,-0.16415,-2.9055,18.279,1.472,-0.49066,-1.9046,1.9627,-4.9982e-13,-0.95232,0,0,0.2,-0,-0,0.66667
0.46048,0.89103,2.3024,0.58654,15.273,43.962,-3.6012,1.2004,-0.77554,-4.8016,-1.4122e-13,-0.38777,0,0,0.2,-9.4739e-16,0,0.66667
0.74112,0.92567,3.7056,0.6385,9.4909,12.711,-6.3094,2.1031,-0.54934,-8.4125,4.3658e-12,-0.27467,0,0,0.2,9.4739e-16,0,0.66667
0.50102,0.1426,2.5051,-0.53611,-13.231,38.449,3.5814,-1.1938,-0.97842,4.7751,-2.1583e-13,-0.48921,0,0,0.2,-0,-0,0.66667
0.70235,0.51993,3.5118,0.029896,0.48754,15.41,-0.27997,0.093323,-1.9974,-0.37329,2.0308e-12,-0.99868,0,0,0.2,-0,-0,0.66667
0.23064,0.34984,1.1532,-0.22524,-6.9891,78.828,0.69267,-0.23089,-1.8196,0.92355,1.3802e-10,-0.90978,0,0,0.2,4.737e-16,0,0.66667
0.74461,0.047222,3.7231,-0.67917,-10.016,12.517,6.7429,-2.2476,-0.35888,8.9905,-2.3985e-12,-0.17944,0,0,0.2,9.4739e-16,0,0.66667
0.50164,0.77911,2.5082,0.41867,10.276,38.243,-2.8002,0.93342,-1.3781,-3.7337,3.8236e-13,-0.68904,0,0,0.2,-1.3027e-15,0,0.66667
0.70537,0.68015,3.5268,0.27022,4.3887,15.248,-2.5414,0.84715,-1.7406,-3.3886,1.2027e-11,-0.87032,0,0,0.2,-4.737e-16,0,0.66667
0.4467,0.08029,2.2335,-0.62956,-16.69,45.926,3.7497,-1.2499,-0.5896,4.9996,-7.6916e-13,-0.2948,0,0,0.2,4.737e-16,0,0.66667
0.50594,0.34805,2.5297,-0.22793,-5.5322,37.541,1.5376,-0.51253,-1.815,2.0501,-2.4425e-13,-0.90752,0,0,0.2,-0,-0,0.66667
0.041535,0.68024,0.20768,0.27035,8.859,110.99,-0.14972,0.049907,-1.7396,-0.19963,6.7749e-09,-0.86978,0,0,0.2,2.9606e-17,0,0.66667
0.48931,0.53802,2.4465,0.057029,1.4128,39.689,-0.37207,0.12402,-1.988,-0.49609,7.2609e-14,-0.99401,0,0,0.2,-0,-0,0.66667
0.14229,0.87903,0.71144,0.56854,18.427,93.734,-1.0786,0.35954,-0.85165,-1.4382,9.0037e-10,-0.42583,0,0,0.2,-0,-0,0.66667
0.1425,0.33311,0.71248,-0.25034,-8.0454,93.616,0.47563,-0.15854,-1.7773,0.63417,1.1662e-09,-0.88864,0,0,0.2,-0,-0,0.66667
0.43335,0.40162,2.1668,-0.14758,-3.9126,47.442,0.85269,-0.28423,-1.9226,1.1369,-8.1635e-13,-0.96131,0,0,0.2,-7.1054e-16,0,0.66667
0.57621,0.92844,2.8811,0.64267,14.21,29.235,-4.9375,1.6458,-0.53171,-6.5833,1.8474e-13,-0.26585,0,0,0.2,-9.4739e-16,0,0.66667
0.34305,0.49925,1.7152,-0.0011251,-0.032433,60.833,0.0051463,-0.0017154,-2.002,0.0068617,-4.7958e-13,-1.001,0,0,0.2,-2.3685e-16,0,0.66667
0.16049,0.33873,0.80246,-0.2419,-7.7292,90.56,0.51764,-0.17255,-1.7919,0.69019,7.929e-10,-0.89595,0,0,0.2,3.5527e-16,0,0.66667
0.74141,0.77551,3.7071,0.41326,6.0353,12.297,-4.0853,1.3618,-1.3922,-5.447,4.9363e-11,-0.69611,0,0,0.2,-9.4739e-16,0,0.66667
0.96309,0.98507,4.8155,0.72761,1.7323,1.6187,-9.3434,3.1145,-0.11655,-12.458,8.6045e-07,-0.058277,0,0,0.2,-1.8948e-15,0,0.66667
0.73364,0.45643,3.6682,-0.065352,-0.96809,12.668,0.63927,-0.21309,-1.9853,0.85236,-1.6033e-11,-0.99266,0,0,0.2,-9.4739e-16,0,0.66667
0.077064,0.52718,0.38532,0.040764,1.327,104.83,-0.041886,0.013962,-1.9953,-0.055848,1.1953e-07,-0.99765,0,0,0.2,-1.1842e-16,0,0.66667
0.84091,0.1331,4.2045,-0.55035,-5.2245,5.6876,6.1705,-2.0568,-0.92307,8.2274,-8.8769e-10,-0.46153,0,0,0.2,1.8948e-15,0,0.66667
0.067514,0.3904,0.33757,-0.1644,-5.3639,106.48,0.14799,-0.049332,-1.9029,0.19733,-2.2846e-08,-0.95146,0,0,0.2,-1.1842e-16,0,0.66667
0.43631,0.89494,2.1816,0.5924,15.858,47.34,-3.4463,1.1488,-0.75255,-4.5951,-4.7962e-14,-0.37628,0,0,0.2,-0,-0,0.66667
0.92886,0.65588,4.6443,0.23382,0.9463,1.4401,-2.8958,0.96527,-1.806,-3.8611,-1.9538e-08,-0.90301,0,0,0.2,7.9936e-16,0,0.66667
0.26318,0.68553,1.3159,0.2783,8.494,73.525,-0.97656,0.32552,-1.7256,-1.3021,-5.168e-11,-0.86282,0,0,0.2,-5.9212e-16,0,0.66667
0.12795,0.10336,0.63977,-0.59497,-19.379,96.18,1.015,-0.33835,-0.74118,1.3534,2.1236e-09,-0.37059,0,0,0.2,-0,-0,0.66667
0.76224,0.22871,3.8112,-0.40693,-5.5158,10.64,4.1357,-1.3786,-1.4109,5.5142,-1.0508e-10,-0.70543,0,0,0.2,-0,-0,0.66667
0.92861,0.36518,4.643,-0.20223,-0.81875,1.4193,2.5039,-0.83463,-1.8536,3.3385,-1.8077e-08,-0.92681,0,0,0.2,9.4739e-16,0,0.66667
0.32577,0.24551,1.6288,-0.38174,-11.209,63.618,1.6581,-0.5527,-1.4825,2.2108,-8.4233e-13,-0.74124,0,0,0.2,5.9212e-16,0,0.66667
0.23246,0.2141,1.1623,-0.42885,-13.354,78.598,1.3292,-0.44306,-1.3469,1.7722,1.3238e-10,-0.67343,0,0,0.2,2.3685e-16,0,0.66667
0.18249,0.7706,0.91243,0.40591,12.912,86.892,-0.98763,0.32921,-1.4134,-1.3168,-5.5092e-10,-0.70669,0,0,0.2,-2.3685e-16,0,0.66667
0.96324,0.61619,4.8162,0.17428,0.32314,0.54795,-2.2383,0.74611,-1.8913,-2.9844,-2.7448e-08,-0.94563,0,0,0.2,-9.4739e-16,0,0.66667
0.57663,0.98105,2.8832,0.72157,16.023,29.323,-5.5478,1.8493,-0.14891,-7.397,-1.1724e-13,-0.074456,0,0,0.2,1.8948e-15,0,0.66667
0.86009,0.31223,4.3004,-0.28165,-2.3022,4.2531,3.2299,-1.0766,-1.72,4.3066,-1.9834e-09,-0.86002,0,0,0.2,2.2797e-15,0,0.66667
0.30834,0.77585,1.5417,0.41378,12.313,66.365,-1.7012,0.56705,-1.3912,-2.2682,-2.0072e-12,-0.69558,0,0,0.2,7.1054e-16,0,0.66667
0.056436,0.24122,0.28218,-0.38818,-12.732,108.42,0.2921,-0.097366,-1.4634,0.38946,-1.4596e-08,-0.73171,0,0,0.2,-5.9212e-17,0,0.66667
0.4538,0.85581,2.269,0.53372,13.973,44.825,-3.2294,1.0765,-0.98771,-4.3059,2.4181e-13,-0.49386,0,0,0.2,-0,-0,0.66667
0.20711,0.3319,1.0356,-0.25215,-7.914,82.732,0.6963,-0.2321,-1.7733,0.9284,3.1915e-10,-0.88664,0,0,0.2,-0,-0,0.66667
0.51898,0.38886,2.5949,-0.16671,-3.9678,35.819,1.1536,-0.38453,-1.9006,1.5381,1.1857e-13,-0.95031,0,0,0.2,9.4739e-16,0,0.66667
0.53799,0.30862,2.6899,-0.28707,-6.6564,33.468,2.0592,-0.68639,-1.7068,2.7456,8.0824e-13,-0.85338,0,0,0.2,-1.025e-15,0,0.66667
0.29429,0.54457,1.4714,0.066859,1.9969,68.481,-0.26235,0.087448,-1.9838,-0.34979,-5.1889e-12,-0.9919,0,0,0.2,-0,-0,0.66667
0.30745,0.34045,1.5373,-0.23933,-7.0982,66.428,0.98111,-0.32704,-1.7964,1.3081,4.4909e-12,-0.89821,0,0,0.2,5.6472e-16,0,0.66667
0.024174,0.36262,0.12087,-0.20608,-6.7541,114,0.066422,-0.022141,-1.8478,0.088562,-5.4433e-08,-0.92392,0,0,0.2,-0,-0,0.66667
0.4204,0.86712,2.102,0.55069,14.964,49.561,-3.0868,1.0289,-0.92227,-4.1157,4.8361e-13,-0.46113,0,0,0.2,-4.737e-16,0,0.66667
0.32369,0.11956,1.6184,-0.57066,-16.889,64.072,2.4629,-0.82096,-0.84199,3.2838,-1.6185e-12,-0.42099,0,0,0.2,-4.737e-16,0,0.66667
0.61949,0.2447,3.0975,-0.38296,-7.7012,23.968,3.1632,-1.0544,-1.4782,4.2176,2.7123e-12,-0.73912,0,0,0.2,-4.737e-16,0,0.66667
0.85976,0.64633,4.2988,0.2195,1.7911,4.2099,-2.5162,0.83874,-1.8295,-3.3549,5.4867e-10,-0.91476,0,0,0.2,9.4739e-16,0,0.66667
0.49264,0.092421,2.4632,-0.61137,-15.313,39.65,4.0158,-1.3386,-0.67122,5.3544,5.9019e-13,-0.33561,0,0,0.2,-1.125e-15,0,0.66667
0.082708,0.71921,0.41354,0.32881,10.731,103.88,-0.36261,0.12087,-1.6163,-0.48348,6.2795e-10,-0.80814,0,0,0.2,-2.3685e-16,0,0.66667
0.93348,0.034588,4.6674,-0.69812,-2.9385,2.2033,8.6891,-2.8964,-0.26742,11.585,-1.7824e-08,-0.13371,0,0,0.2,-0,-9.3092e-17,0.66667
0.80833,0.59907,4.0416,0.1486,1.6336,7.1292,-1.6016,0.53386,-1.9214,-2.1355,2.8985e-10,-0.96071,0,0,0.2,-0,-0,0.66667
0.36552,0.88209,1.8276,0.57314,16.413,57.665,-2.7932,0.93108,-0.8314,-3.7243,1.6398e-12,-0.4157,0,0,0.2,-0,-0,0.66667
0.33073,0.072396,1.6536,-0.64141,-18.941,63.042,2.8284,-0.94281,-0.53712,3.7712,-8.6664e-13,-0.26856,0,0,0.2,-0,-0,0.66667
0.93793,0.86542,4.6897,0.54812,2.0486,1.6946,-6.8547,2.2849,-0.9326,-9.1396,6.8345e-08,-0.4663,0,0,0.2,-9.4739e-16,0,0.66667
0.37489,0.79099,1.8745,0.43648,12.336,56.142,-2.1818,0.72726,-1.3236,-2.9091,2.301e-12,-0.66179,0,0,0.2,-0,-0,0.66667
0.6358,0.63864,3.179,0.20796,4.0179,22.064,-1.763,0.58766,-1.8453,-2.3506,-2.122e-12,-0.92265,0,0,0.2,-0,-0,0.66667
0.98534,0.328,4.9267,-0.258,-0.11754,0.28518,3.3896,-1.1299,-1.7636,4.5195,-2.6577e-08,-0.88182,0,0,0.2,-0,-0,0.66667
0.03674,0.65771,0.1837,0.23656,7.7504,111.82,-0.11588,0.038627,-1.8014,-0.15451,2.6722e-08,-0.90068,0,0,0.2,-0,-0,0.66667
0.31463,0.0093527,1.5732,-0.73597,-22.088,65.636,3.0875,-1.0292,-0.074226,4.1166,-1.8274e-13,-0.037113,0,0,0.2,-0,-0,0.66667
0.23124,0.72638,1.1562,0.33958,10.557,78.763,-1.047,0.34899,-1.5899,-1.396,-1.5154e-10,-0.79496,0,0,0.2,-4.737e-16,0,0.66667
0.92237,0.61519,4.6118,0.17279,0.76414,1.5896,-2.125,0.70833,-1.8946,-2.8333,7.5604e-09,-0.94731,0,0,0.2,-0,-0,0.66667
0.55114,0.35017,2.7557,-0.22475,-5.0966,31.797,1.6515,-0.55051,-1.8202,2.2021,6.5159e-13,-0.91009,0,0,0.2,-0,-0,0.66667
0.053714,0.80622,0.26857,0.45934,15.1,108.9,-0.32897,0.10966,-1.2492,-0.43862,-2.6231e-09,-0.62461,0,0,0.2,-5.9212e-17,0,0.66667
0.75525,0.52341,3.7762,0.035118,0.48246,10.905,-0.35364,0.11788,-1.995,-0.47152,2.1717e-11,-0.99751,0,0,0.2,-0,-0,0.66667
0.68408,0.71792,3.4204,0.32688,5.6425,17.282,-2.9815,0.99383,-1.621,-3.9753,1.3027e-12,-0.81051,0,0,0.2,1.1842e-15,0,0.66667
0.66217,0.34227,3.3109,-0.23659,-4.3041,19.354,2.0888,-0.69628,-1.8013,2.7851,1.1229e-12,-0.90063,0,0,0.2,1.1842e-15,0,0.66667
0.95573,0.022927,4.7786,-0.71561,-2.0279,1.723,9.119,-3.0397,-0.17924,12.159,-3.4639e-06,-0.08962,0,0,0.2,-0,-0,0.66667
0.8746,0.64374,4.373,0.21561,1.5741,3.4898,-2.5143,0.8381,-1.8354,-3.3524,1.4224e-09,-0.91768,0,0,0.2,-9.4739e-16,0,0.66667
0.75325,0.43548,3.7663,-0.096785,-1.3402,11.076,0.97205,-0.32402,-1.9674,1.2961,-3.864e-11,-0.98372,0,0,0.2,3.5527e-16,0,0.66667
0.22267,0.40135,1.1133,-0.14798,-4.6051,80.13,0.43933,-0.14644,-1.9222,0.58578,1.3884e-10,-0.9611,0,0,0.2,3.5527e-16,0,0.66667
0.13801,0.47717,0.69007,-0.034245,-1.0998,94.361,0.063018,-0.021006,-1.9958,0.084024,-1.8716e-09,-0.99792,0,0,0.2,-0,-0,0.66667
0.22089,0.46397,1.1044,-0.054052,-1.6824,80.415,0.15919,-0.053064,-1.9903,0.21226,6.7809e-11,-0.99513,0,0,0.2,-1.1842e-16,0,0.66667
0.20551,0.68147,1.0275,0.27221,8.5525,83.003,-0.74589,0.24863,-1.7369,-0.99451,-3.4724e-10,-0.86846,0,0,0.2,-1.1842e-16,0,0.66667
0.56796,0.424,2.8398,-0.11399,-2.5091,29.706,0.86325,-0.28775,-1.9528,1.151,6.9983e-13,-0.97638,0,0,0.2,-0,-0,0.66667
0.66304,0.12591,3.3152,-0.56114,-10.338,19.649,4.9608,-1.6536,-0.88073,6.6144,2.2751e-12,-0.44037,0,0,0.2,-1.8948e-15,0,0.66667
0.52742,0.039493,2.6371,-0.69076,-16.559,35.266,4.8576,-1.6192,-0.30313,6.4768,-1.9051e-13,-0.15156,0,0,0.2,-0,-0,0.66667
0.056349,0.29911,0.28175,-0.30134,-9.8653,108.43,0.2264,-0.075468,-1.676,0.30187,-1.4183e-08,-0.83801,0,0,0.2,-5.9212e-17,0,0.66667
0.36316,0.039103,1.8158,-0.69135,-19.945,58.142,3.3476,-1.1159,-0.3003,4.4635,3.6926e-13,-0.15015,0,0,0.2,-0,-0,0.66667
0.96773,0.87059,4.8386,0.55588,1.0306,1.0648,-7.1726,2.3909,-0.90248,-9.5634,-1.0812e-07,-0.45124,0,0,0.2,1.4211e-15,1.1959e-16,0.66667
0.69551,0.87182,3.4776,0.55772,9.4523,16.521,-5.172,1.724,-0.89386,-6.8961,-4.6363e-13,-0.44693,0,0,0.2,-1.1842e-15,0,0.66667
0.36974,0.69169,1.8487,0.28754,8.1312,56.828,-1.4175,0.47251,-1.7059,-1.89,2.4563e-12,-0.85296,0,0,0.2,-0,-0,0.66667
0.67163,0.61842,3.3581,0.17763,3.1523,18.377,-1.5907,0.53022,-1.889,-2.1209,3.3873e-13,-0.94452,0,0,0.2,-4.737e-16,0,0.66667
0.26511,0.76073,1.3255,0.3911,11.954,73.257,-1.3825,0.46082,-1.4568,-1.8433,-3.8263e-11,-0.72842,0,0,0.2,-0,-0,0.66667
0.077478,0.81861,0.38739,0.47791,15.669,104.8,-0.4937,0.16457,-1.189,-0.65826,-2.5494e-09,-0.59451,0,0,0.2,-0,-0,0.66667
0.52807,0.090709,2.6403,-0.61394,-14.64,35.066,4.3227,-1.4409,-0.66043,5.7635,-2.2382e-13,-0.33021,0,0,0.2,1.1842e-15,0,0.66667
0.28977,0.06578,1.4488,-0.65133,-19.795,69.472,2.5165,-0.83882,-0.49146,3.3553,-9.8388e-13,-0.24573,0,0,0.2,-0,-0,0.66667
0.48165,0.58499,2.4083,0.12748,3.1914,40.732,-0.81869,0.2729,-1.9422,-1.0916,7.7605e-14,-0.97108,0,0,0.2,-0,-0,0.66667
0.90199,0.6359,4.51,0.20385,1.1565,2.326,-2.4516,0.8172,-1.8516,-3.2688,2.621e-09,-0.92579,0,0,0.2,-0,-0,0.66667
0.65174,0.1193,3.2587,-0.57105,-10.81,20.807,4.9623,-1.6541,-0.84035,6.6165,1.7524e-12,-0.42017,0,0,0.2,-0,-0,0.66667
0.72332,0.28612,3.6166,-0.32082,-4.9461,13.707,3.0941,-1.0314,-1.634,4.1254,-2.7743e-11,-0.81698,0,0,0.2,1.8948e-15,0,0.66667
0.10259,0.07752,0.51293,-0.63372,-20.796,100.52,0.86682,-0.28894,-0.57087,1.1558,-1.8623e-08,-0.28544,0,0,0.2,-0,-0,0.66667
0.47966,0.16321,2.3983,-0.50519,-12.804,41.257,3.2309,-1.077,-1.0922,4.3079,-2.8644e-13,-0.54608,0,0,0.2,9.4739e-16,0,0.66667
0.40434,0.72655,2.0217,0.33982,9.3179,51.716,-1.832,0.61068,-1.5898,-2.4427,1.3867e-12,-0.79488,0,0,0.2,9.4739e-16,0,0.66667
0.64686,0.2863,3.2343,-0.32055,-6.0612,20.987,2.7646,-0.92155,-1.6343,3.6862,2.8015e-12,-0.81714,0,0,0.2,-0,-0,0.66667
0.28774,0.79918,1.4387,0.44878,13.553,69.653,-1.7217,0.5739,-1.2828,-2.2956,-8.8156e-12,-0.64138,0,0,0.2,-4.737e-16,0,0.66667
0.38306,0.18867,1.9153,-0.46699,-13.115,54.945,2.3852,-0.79505,-1.2248,3.1802,-1.6043e-12,-0.61241,0,0,0.2,-0,-0,0.66667
0.98102,0.27259,4.9051,-0.34111,-0.26977,0.44781,4.4618,-1.4873,-1.586,5.9491,-8.272e-09,-0.79302,0,0,0.2,-9.4739e-16,0,0.66667
0.11481,0.20952,0.57405,-0.43572,-14.164,98.379,0.667,-0.22233,-1.3242,0.88933,4.6831e-09,-0.66211,0,0,0.2,1.1842e-16,0,0.66667
0.19991,0.41875,0.99954,-0.12187,-3.8308,83.911,0.32484,-0.10828,-1.9467,0.43312,1.8631e-10,-0.97336,0,0,0.2,-0,-0,0.66667
0.23905,0.42839,1.1952,-0.10741,-3.3143,77.425,0.34234,-0.11411,-1.9584,0.45646,6.358e-11,-0.97918,0,0,0.2,-2.3685e-16,0,0.66667
0.69665,0.5648,3.4833,0.097198,1.6118,15.949,-0.90284,0.30095,-1.9665,-1.2038,4.3365e-12,-0.98323,0,0,0.2,-1.8948e-15,0,0.66667
0.71369,0.93119,3.5684,0.64679,10.482,15.05,-6.1548,2.0516,-0.51219,-8.2064,-2.5935e-13,-0.25609,0,0,0.2,1.4211e-15,0,0.66667
0.78475,0.092771,3.9238,-0.61084,-7.7021,9.3431,6.3915,-2.1305,-0.67419,8.522,1.3037e-11,-0.33709,0,0,0.2,2.3685e-16,0,0.66667
0.38104,0.80416,1.9052,0.45624,12.832,55.238,-2.3179,0.77265,-1.2591,-3.0906,2.1774e-12,-0.62957,0,0,0.2,-0,-0,0.66667
0.8524,0.41338,4.262,-0.12993,-1.1106,4.5296,1.4767,-0.49224,-1.9393,1.9689,-1.0239e-09,-0.96963,0,0,0.2,-0,-0,0.66667
0.69735,0.60291,3.4867,0.15437,2.5572,15.907,-1.4353,0.47845,-1.9145,-1.9138,6.4815e-12,-0.95723,0,0,0.2,-0,-0,0.66667
0.71326,0.81707,3.5663,0.47561,7.6223,14.783,-4.5231,1.5077,-1.1955,-6.0308,7.5513e-12,-0.59776,0,0,0.2,-1.8948e-15,0,0.66667
0.82199,0.10694,4.1099,-0.58959,-6.2428,6.8638,6.4618,-2.1539,-0.76292,8.6158,-1.7858e-10,-0.38146,0,0,0.2,-0,-0,0.66667
0.62892,0.28476,3.1446,-0.32287,-6.3518,22.885,2.7074,-0.90248,-1.6296,3.6099,2.3219e-12,-0.81482,0,0,0.2,1.8948e-15,0,0.66667
0.42223,0.39104,2.1111,-0.16344,-4.3859,49.039,0.9201,-0.3067,-1.9056,1.2268,-1.0718e-12,-0.95282,0,0,0.2,-9.4739e-16,0,0.66667
0.030799,0.44358,0.15399,-0.084627,-2.7695,112.85,0.034752,-0.011584,-1.9757,0.046335,-3.8967e-07,-0.98787,0,0,0.2,5.9212e-17,0,0.66667
0.59546,0.31477,2.9773,-0.27785,-5.838,26.566,2.206,-0.73532,-1.7268,2.9413,2.0031e-12,-0.86338,0,0,0.2,-1.8948e-15,0,0.66667
0.56376,0.1086,2.8188,-0.5871,-13.217,30.627,4.4131,-1.471,-0.77465,5.8842,2.8333e-13,-0.38732,0,0,0.2,9.4739e-16,0,0.66667
0.60081,0.042332,3.004,-0.6865,-14.558,26.482,5.4994,-1.8331,-0.32323,7.3326,2.2382e-13,-0.16162,0,0,0.2,-9.4739e-16,0,0.66667
0.32285,0.21016,1.6143,-0.43476,-12.813,64.104,1.8715,-0.62385,-1.3272,2.4954,-1.4233e-12,-0.66362,0,0,0.2,-2.3685e-16,0,0.66667
0.55488,0.28243,2.7744,-0.32636,-7.3749,31.406,2.4145,-0.80485,-1.6215,3.2194,1.1768e-12,-0.81076,0,0,0.2,-0,-0,0.66667
0.17166,0.64815,0.85828,0.22223,7.071,88.669,-0.50862,0.16954,-1.8255,-0.67816,-5.2432e-10,-0.91274,0,0,0.2,2.3685e-16,0,0.66667
0.64986,0.42536,3.2493,-0.11196,-2.0921,20.547,0.97011,-0.32337,-1.9543,1.2935,1.0183e-12,-0.97717,0,0,0.2,-9.4739e-16,0,0.66667
0.071673,0.80958,0.35837,0.46437,15.232,105.8,-0.44377,0.14792,-1.2332,-0.5917,8.4069e-09,-0.61661,0,0,0.2,5.0826e-17,0,0.66667
0.87508,0.94955,4.3754,0.67433,5.1898,4.2618,-7.8679,2.6226,-0.38404,-10.491,1.2829e-08,-0.19202,0,0,0.2,-0,-0,0.66667
0.21614,0.28575,1.0807,-0.32137,-10.059,81.251,0.92613,-0.30871,-1.6333,1.2348,2.5374e-10,-0.81665,0,0,0.2,-0,-0,0.66667
0.29384,0.91009,1.4692,0.61514,18.617,68.796,-2.4101,0.80336,-0.65508,-3.2134,1.5699e-13,-0.32754,0,0,0.2,-9.4739e-16,0,0.66667
0.88474,0.87537,4.4237,0.56306,3.934,3.569,-6.6422,2.2141,-0.87325,-8.8562,1.3379e-08,-0.43663,0,0,0.2,-0,-0,0.66667
0.88359,0.66685,4.418,0.25028,1.6995,3.1184,-2.9486,0.98286,-1.7762,-3.9314,2.5978e-09,-0.88812,0,0,0.2,-0,-0,0.66667
0.83627,0.8254,4.1813,0.4881,4.7275,5.8267,-5.4424,1.8141,-1.1517,-7.2566,1.1118e-09,-0.57586,0,0,0.2,-0,-0,0.66667
0.32694,0.67756,1.6347,0.26634,7.7932,63.382,-1.161,0.387,-1.7482,-1.548,-2.0428e-14,-0.87411,0,0,0.2,-4.737e-16,0,0.66667
0.90234,0.30937,4.5117,-0.28594,-1.6281,2.3934,3.4402,-1.1467,-1.7096,4.587,-1.1689e-09,-0.85482,0,0,0.2,-1.8645e-15,0,0.66667
0.7718,0.9036,3.859,0.6054,8.0361,10.264,-6.23,2.0767,-0.69688,-8.3066,4.9593e-11,-0.34844,0,0,0.2,1.4211e-15,0,0.66667
0.65808,0.3206,3.2904,-0.2691,-4.9486,19.792,2.3612,-0.78708,-1.7429,3.1483,1.9611e-12,-0.87143,0,0,0.2,-0,-0,0.66667
0.8998,0.67711,4.499,0.26566,1.5502,2.4682,-3.1873,1.0624,-1.7481,-4.2497,-3.1063e-10,-0.87403,0,0,0.2,-0,-0,0.66667
0.78313,0.19468,3.9157,-0.45798,-5.7359,9.1732,4.7821,-1.594,-1.2547,6.3761,-2.1889e-10,-0.62733,0,0,0.2,-0,-0,0.66667
0.42475,0.25533,2.1237,-0.367,-9.8634,48.779,2.0784,-0.69281,-1.5214,2.7712,-1.154e-12,-0.76071,0,0,0.2,-0,-0,0.66667
0.32426,0.30159,1.6213,-0.29762,-8.7313,63.813,1.2867,-0.42891,-1.6845,1.7156,-3.848e-13,-0.84224,0,0,0.2,4.737e-16,0,0.66667
0.39388,0.39443,1.9694,-0.15835,-4.3712,53.175,0.83161,-0.2772,-1.9104,1.1088,-1.4743e-12,-0.9552,0,0,0.2,-4.737e-16,0,0.66667
0.061412,0.24962,0.30706,-0.37557,-12.308,107.56,0.30753,-0.10251,-1.5004,0.41004,-8.7927e-09,-0.75018,0,0,0.2,-3.7007e-17,0,0.66667
0.36343,0.10731,1.8172,-0.58904,-16.91,57.995,2.8543,-0.95144,-0.7656,3.8058,-9.1904e-13,-0.3828,0,0,0.2,-0,-0,0.66667
0.35304,0.7713,1.7652,0.40695,11.707,59.428,-1.9156,0.63853,-1.4102,-2.5541,2.6796e-12,-0.70511,0,0,0.2,-0,-0,0.66667
0.86562,0.6549,4.3281,0.23236,1.8191,3.9303,-2.6818,0.89393,-1.8083,-3.5757,-3.149e-10,-0.90415,0,0,0.2,8.2897e-16,0,0.66667
0.8887,0.57654,4.4435,0.11482,0.73912,2.8024,-1.3605,0.4535,-1.9531,-1.814,-1.0413e-09,-0.97653,0,0,0.2,-0,-0,0.66667
0.96305,0.81396,4.8153,0.47094,0.97219,0.96109,-6.0472,2.0157,-1.2117,-8.063,-7.3036e-08,-0.60586,0,0,0.2,3.7896e-15,0,0.66667
0.3282,0.027373,1.641,-0.70894,-21.042,63.5,3.1023,-1.0341,-0.21471,4.1364,-4.2477e-13,-0.10735,0,0,0.2,-0,-0,0.66667
0.69332,0.95508,3.4666,0.68263,11.748,16.963,-6.3104,2.1035,-0.34209,-8.4139,-1.5454e-13,-0.17105,0,0,0.2,-9.4739e-16,0,0.66667
0.63307,0.5994,3.1653,0.1491,2.8946,22.326,-1.2585,0.41951,-1.9204,-1.678,-1.4261e-12,-0.9602,0,0,0.2,-0,-0,0.66667
0.24244,0.79486,1.2122,0.4423,13.708,76.967,-1.4298,0.47659,-1.3032,-1.9063,-7.9548e-11,-0.65161,0,0,0.2,4.737e-16,0,0.66667
0.86999,0.89016,4.3499,0.58524,4.6093,4.2782,-6.7886,2.2629,-0.78124,-9.0515,4.2213e-09,-0.39062,0,0,0.2,-0,-0,0.66667
0.2141,0.29111,1.0705,-0.31333,-9.8147,81.586,0.89446,-0.29815,-1.6502,1.1926,2.6312e-10,-0.82512,0,0,0.2,-0,-0,0.66667
0.74771,0.97281,3.7386,0.70922,10.38,12.339,-7.0706,2.3569,-0.2123,-9.4274,-1.0263e-12,-0.10615,0,0,0.2,-0,-1.0713e-16,0.66667
0.14466,0.96519,0.72332,0.69778,22.718,93.384,-1.3459,0.44864,-0.26906,-1.7945,-6.5655e-10,-0.13453,0,0,0.2,5.9212e-17,0,0.66667
0.10682,0.12218,0.5341,-0.56673,-18.534,99.778,0.80717,-0.26906,-0.85885,1.0762,-1.7952e-08,-0.42942,0,0,0.2,1.4803e-16,1.9265e-18,0.66667
0.72032,0.95738,3.6016,0.68608,10.938,14.556,-6.5893,2.1964,-0.32657,-8.7857,-9.6989e-13,-0.16329,0,0,0.2,9.4739e-16,0,0.66667
0.52632,0.94254,2.6316,0.66382,15.914,35.362,-4.6584,1.5528,-0.43305,-6.2112,5.9108e-13,-0.21653,0,0,0.2,-1.8948e-15,0,0.66667
0.44292,0.27849,2.2146,-0.33226,-8.7469,46.174,1.9622,-0.65406,-1.6076,2.6163,-1.4356e-12,-0.80379,0,0,0.2,-3.5527e-16,0,0.66667
0.77818,0.95955,3.8909,0.68933,9.0008,9.9872,-7.1523,2.3841,-0.31028,-9.5364,5.0289e-12,-0.15514,0,0,0.2,-9.4739e-16,0,0.66667
0.35874,0.71202,1.7937,0.31804,9.0847,58.508,-1.5213,0.50708,-1.6414,-2.0283,2.6759e-12,-0.82069,0,0,0.2,-2.6128e-16,0,0.66667
0.85335,0.49528,4.2667,-0.007086,-0.06006,4.448,0.080624,-0.026875,-1.9995,0.1075,1.6519e-09,-0.99976,0,0,0.2,-2.8422e-15,0,0.66667
0.96217,0.57067,4.8109,0.10601,0.20168,0.52746,-1.36,0.45334,-1.9592,-1.8133,2.7833e-07,-0.97962,0,0,0.2,-0,-0,0.66667
0.97913,0.85427,4.8956,0.53141,0.57744,0.83443,-6.9376,2.3125,-0.99508,-9.2501,-1.1101e-07,-0.49754,0,0,0.2,-0,-0,0.66667
0.27763,0.48881,1.3881,-0.016783,-0.50652,71.146,0.062125,-0.020708,-1.9985,0.082833,1.7435e-12,-0.99924,0,0,0.2,-4.737e-16,0,0.66667
0.41501,0.88573,2.075,0.5786,15.828,50.367,-3.2016,1.0672,-0.80862,-4.2689,2.0339e-13,-0.40431,0,0,0.2,-0,-0,0.66667
0.72501,0.30149,3.625,-0.29776,-4.5619,13.539,2.8784,-0.95948,-1.6837,3.8379,-3.0094e-11,-0.84187,0,0,0.2,-0,-0,0.66667
0.89487,0.35344,4.4743,-0.21984,-1.3426,2.6184,2.6231,-0.87435,-1.8276,3.4974,4.3992e-10,-0.91379,0,0,0.2,-0,-0,0.66667
0.71131,0.15703,3.5566,-0.51445,-8.3131,15.017,4.8792,-1.6264,-1.0593,6.5055,-4.7304e-12,-0.52964,0,0,0.2,1.8948e-15,0,0.66667
0.75813,0.89858,3.7907,0.59787,8.3474,11.279,-6.0435,2.0145,-0.72827,-8.058,2.0692e-11,-0.36413,0,0,0.2,4.737e-16,0,0.66667
0.8834,0.36374,4.417,-0.20439,-1.3857,3.0856,2.4074,-0.80248,-1.8504,3.2099,1.9385e-09,-0.92518,0,0,0.2,-9.4739e-16,0,0.66667
0.36695,0.32603,1.8347,-0.26096,-7.3935,57.238,1.2768,-0.42559,-1.7567,1.7024,-2.5003e-12,-0.87833,0,0,0.2,-0,-0,0.66667
0.54254,0.69403,2.7127,0.29104,6.7015,32.902,-2.1054,0.70179,-1.6986,-2.8071,-4.3832e-13,-0.84928,0,0,0.2,-0,-0,0.66667
0.53477,0.56825,2.6738,0.10238,2.3781,33.787,-0.73,0.24333,-1.9628,-0.97333,-4.8339e-13,-0.98139,0,0,0.2,-0,-0,0.66667
0.64758,0.45064,3.2379,-0.074034,-1.3901,20.772,0.63925,-0.21308,-1.9793,0.85233,8.3328e-13,-0.98967,0,0,0.2,-9.4739e-16,0,0.66667
0.89518,0.59869,4.4759,0.14804,0.89725,2.5531,-1.767,0.58899,-1.922,-2.356,-1.6156e-08,-0.96099,0,0,0.2,1.8948e-15,0,0.66667
0.60083,0.0087298,3.0041,-0.73691,-15.681,26.575,5.9034,-1.9678,-0.068332,7.8712,4.0368e-13,-0.034166,0,0,0.2,-0,-0,0.66667
0.96994,0.18092,4.8497,-0.47863,-0.7793,0.85581,6.1899,-2.0633,-1.1863,8.2531,6.8939e-08,-0.59313,0,0,0.2,9.4739e-16,0,0.66667
0.73214,0.71999,3.6607,0.32998,4.9483,12.965,-3.2212,1.0737,-1.6141,-4.295,4.041e-11,-0.80704,0,0,0.2,-0,-0,0.66667
0.41529,0.77649,2.0765,0.41473,11.272,50.175,-2.2965,0.76549,-1.3881,-3.062,1.5286e-12,-0.69403,0,0,0.2,2.459e-16,0,0.66667
0.58114,0.78705,2.9057,0.43058,9.337,28.365,-3.3363,1.1121,-1.341,-4.4485,-9.5013e-13,-0.6705,0,0,0.2,-0,-0,0.66667
0.92232,0.76645,4.6116,0.39967,1.8224,1.8573,-4.915,1.6383,-1.4326,-6.5533,1.6781e-09,-0.71631,0,0,0.2,-0,-0,0.66667
0.6185,0.055975,3.0925,-0.66604,-13.626,24.484,5.4926,-1.8309,-0.42212,7.3235,4.2721e-13,-0.21106,0,0,0.2,-9.4739e-16,0,0.66667
0.70993,0.86622,3.5496,0.54933,8.9338,15.198,-5.1998,1.7333,-0.92618,-6.9331,2.1814e-12,-0.46309,0,0,0.2,-9.4739e-16,0,0.66667
0.66129,0.83645,3.3065,0.50468,9.3049,19.735,-4.4499,1.4833,-1.0939,-5.9332,-2.5597e-12,-0.54694,0,0,0.2,9.4739e-16,0,0.66667
0.33615,0.16339,1.6807,-0.50492,-14.768,62.09,2.263,-0.75434,-1.0928,3.0173,-2.4503e-12,-0.5464,0,0,0.2,-0,-0,0.66667
0.20333,0.68331,1.0167,0.27496,8.6477,83.366,-0.74546,0.24849,-1.7328,-0.99395,-3.8341e-10,-0.86639,0,0,0.2,-3.5527e-16,0,0.66667
0.40781,0.60288,2.0391,0.15432,4.2022,51.126,-0.83911,0.2797,-1.9157,-1.1188,5.3529e-13,-0.95784,0,0,0.2,9.4739e-16,0,0.66667
0.15077,0.59032,0.75385,0.13548,4.3368,92.195,-0.27234,0.090781,-1.9347,-0.36312,-2.0217e-09,-0.96736,0,0,0.2,-2.5142e-16,0,0.66667
0.82633,0.26684,4.1317,-0.34973,-3.5379,6.1904,3.8533,-1.2844,-1.5651,5.1377,-8.7615e-10,-0.78254,0,0,0.2,9.4739e-16,0,0.66667
0.71046,0.78904,3.5523,0.43356,6.989,14.971,-4.1071,1.369,-1.3308,-5.4761,8.8591e-12,-0.66541,0,0,0.2,-0,-0,0.66667
0.40106,0.61814,2.0053,0.17722,4.8594,52.123,-0.94765,0.31588,-1.8879,-1.2635,1.1795e-12,-0.94393,0,0,0.2,2.3747e-16,0,0.66667
0.17138,0.049424,0.85691,-0.67586,-21.793,88.87,1.5444,-0.51481,-0.37644,2.0592,-4.135e-10,-0.18822,0,0,0.2,-0,2.3054e-16,0.66667
0.8758,0.63445,4.379,0.20168,1.457,3.4234,-2.355,0.78501,-1.856,-3.14,-9.8289e-10,-0.92802,0,0,0.2,1.8948e-15,0,0.66667
0.63906,0.89305,3.1953,0.58958,11.495,22.15,-5.0237,1.6746,-0.76417,-6.6983,-1.4113e-12,-0.38208,0,0,0.2,9.4739e-16,2.7336e-16,0.66667
0.9966,0.21687,4.983,-0.4247,0.072285,0.42545,5.6434,-1.8811,-1.3594,7.5245,-8.3384e-08,-0.67971,0,0,0.2,-5.6302e-16,0,0.66667
0.1011,0.98751,0.50549,0.73126,24.105,100.81,-0.98572,0.32857,-0.097533,-1.3143,1.6934e-08,-0.048766,0,0,0.2,1.1842e-16,0,0.66667
0.24485,0.66684,1.2242,0.25026,7.7121,76.502,-0.817,0.27233,-1.7765,-1.0893,-9.9312e-11,-0.88824,0,0,0.2,-0,-0,0.66667
0.083655,0.23528,0.41827,-0.39709,-12.977,103.72,0.44291,-0.14764,-1.4383,0.59055,1.1445e-09,-0.71915,0,0,0.2,-1.1842e-16,0,0.66667
0.74474,0.00090398,3.7237,-0.74864,-11.112,12.671,7.434,-2.478,-0.0077119,9.9119,4.6017e-12,-0.003856,0,0,0.2,-3.7896e-15,0,0.66667
0.15958,0.2859,0.79788,-0.32115,-10.28,90.731,0.68331,-0.22777,-1.6335,0.91108,1.1984e-09,-0.81677,0,0,0.2,4.737e-16,0,0.66667
0.88166,0.70227,4.4083,0.30341,2.104,3.2606,-3.5667,1.1889,-1.6715,-4.7556,1.2305e-09,-0.83574,0,0,0.2,-0,-0,0.66667
0.49148,0.99858,2.4574,0.74787,18.905,40.006,-4.9009,1.6336,-0.011505,-6.5345,7.2475e-13,-0.0057525,0,0,0.2,-1.5987e-15,0,0.66667
0.52617,0.41923,2.6308,-0.12116,-2.8516,34.883,0.84998,-0.28333,-1.9469,1.1333,1.3434e-14,-0.97343,0,0,0.2,-0,-0,0.66667
0.04252,0.78422,0.2126,0.42633,14.017,110.83,-0.2417,0.080567,-1.354,-0.32227,2.6381e-08,-0.67701,0,0,0.2,-0,-0,0.66667
0.61405,0.85366,3.0703,0.53049,10.861,24.75,-4.3433,1.4478,-0.99871,-5.7911,-1.9704e-12,-0.49935,0,0,0.2,1.8948e-15,0,0.66667
0.22761,0.71451,1.1381,0.32177,10.017,79.354,-0.97652,0.32551,-1.6316,-1.302,-1.773e-10,-0.81579,0,0,0.2,2.3685e-16,0,0.66667
0.2135,0.71716,1.0675,0.32574,10.209,81.689,-0.9273,0.3091,-1.6231,-1.2364,-2.7524e-10,-0.81154,0,0,0.2,1.1842e-16,0,0.66667
0.89532,0.2267,4.4766,-0.40995,-2.5435,2.8385,4.8938,-1.6313,-1.4019,6.5251,-6.6592e-09,-0.70097,0,0,0.2,-0,-0,0.66667
0.88801,0.79504,4.4401,0.44257,2.9508,3.1919,-5.2401,1.7467,-1.3033,-6.9867,5.4935e-09,-0.65164,0,0,0.2,-0,-0,0.66667
0.0052652,0.64798,0.026326,0.22198,7.2808,117.28,-0.015583,0.0051944,-1.8242,-0.020778,-1.0304e-08,-0.91208,0,0,0.2,-7.4015e-18,0,0.66667
0.8323,0.28814,4.1615,-0.31778,-3.1028,5.7996,3.5266,-1.1755,-1.6407,4.7021,-9.6298e-10,-0.82033,0,0,0.2,-0,-0,0.66667
0.9023,0.90172,4.5115,0.60259,3.6086,2.9592,-7.2495,2.4165,-0.70905,-9.666,1.8711e-08,-0.35453,0,0,0.2,-9.4739e-16,0,0.66667
0.51195,0.85414,2.5597,0.53122,12.912,37.019,-3.6261,1.2087,-0.99617,-4.8348,1.9984e-15,-0.49808,0,0,0.2,9.4739e-16,0,0.66667
0.65617,0.66839,3.2809,0.25258,4.6637,19.973,-2.2098,0.73661,-1.774,-2.9465,-1.9558e-12,-0.887,0,0,0.2,-0,-0,0.66667
0.76779,0.41411,3.8389,-0.12883,-1.6899,9.9647,1.3189,-0.43963,-1.9412,1.7585,-8.3364e-11,-0.97061,0,0,0.2,-0,-0,0.66667
0.68544,0.83276,3.4272,0.49915,8.6589,17.37,-4.5618,1.5206,-1.1141,-6.0824,-1.1497e-12,-0.55707,0,0,0.2,-0,-0,0.66667
0.45912,0.97478,2.2956,0.71217,18.694,44.317,-4.3596,1.4532,-0.19617,-5.8128,-5.862e-14,-0.098086,0,0,0.2,-0,-0,0.66667
0.57345,0.11401,2.8673,-0.57899,-12.816,29.461,4.427,-1.4757,-0.80731,5.9026,7.6295e-13,-0.40366,0,0,0.2,-9.4739e-16,0,0.66667
0.57406,0.77051,2.8703,0.40576,8.9008,29.172,-3.1058,1.0353,-1.414,-4.141,-9.9054e-13,-0.70699,0,0,0.2,-4.737e-16,0,0.66667
0.84213,0.47502,4.2107,-0.037463,-0.34136,5.0561,0.42065,-0.14022,-1.9957,0.56086,-6.8484e-10,-0.99783,0,0,0.2,1.8948e-15,0,0.66667
0.24044,0.97903,1.2022,0.71854,22.532,77.466,-2.3036,0.76786,-0.1633,-3.0714,-2.4591e-12,-0.081649,0,0,0.2,-0,-0,0.66667
0.75723,0.56479,3.7861,0.097187,1.3263,10.764,-0.98124,0.32708,-1.9664,-1.3083,4.606e-11,-0.98321,0,0,0.2,-1.8948e-15,0,0.66667
0.81234,0.75023,4.0617,0.37534,4.0911,7.086,-4.0654,1.3551,-1.5015,-5.4205,6.244e-10,-0.75073,0,0,0.2,3.7896e-15,0,0.66667
0.79703,0.80607,3.9852,0.45911,5.4144,8.2125,-4.879,1.6263,-1.2518,-6.5054,2.4284e-10,-0.62592,0,0,0.2,9.4739e-16,0,0.66667
0.80771,0.26664,4.0385,-0.35005,-3.8962,7.3497,3.7698,-1.2566,-1.5634,5.0264,-4.8835e-10,-0.7817,0,0,0.2,-9.5652e-16,0,0.66667
0.82928,0.93794,4.1464,0.65691,6.7491,6.5856,-7.2635,2.4212,-0.46751,-9.6847,-8.2294e-10,-0.23376,0,0,0.2,-0,-0,0.66667
0.41752,0.65419,2.0876,0.23129,6.2436,49.744,-1.2876,0.42918,-1.8102,-1.7167,1.5071e-12,-0.90512,0,0,0.2,-0,-0,0.66667
0.61789,0.76972,3.0894,0.40459,8.1701,24.167,-3.3332,1.1111,-1.4169,-4.4443,-2.5706e-12,-0.70844,0,0,0.2,9.4739e-16,0,0.66667
0.75525,0.51887,3.7762,0.028308,0.38889,10.905,-0.28506,0.09502,-1.9962,-0.38008,1.3863e-11,-0.9981,0,0,0.2,-0,-0,0.66667
0.76977,0.0099375,3.8488,-0.73509,-9.9672,10.712,7.5447,-2.5149,-0.078138,10.06,3.7736e-11,-0.039069,0,0,0.2,3.7896e-15,0,0.66667
0.9586,0.017567,4.793,-0.72365,-1.9266,1.6904,9.2493,-3.0831,-0.13703,12.332,-1.9097e-06,-0.068514,0,0,0.2,-2.2704e-15,0,0.66667
0.97508,0.037552,4.8754,-0.69367,-1.0798,1.3219,9.0184,-3.0061,-0.28857,12.025,1.0278e-05,-0.14429,0,0,0.2,-0,-0,0.66667
0.56473,0.92279,2.8237,0.63418,14.292,30.583,-4.7753,1.5918,-0.56978,-6.367,1.1724e-13,-0.28489,0,0,0.2,-0,-0,0.66667
0.46574,0.80396,2.3287,0.45595,11.734,43.1,-2.8314,0.94379,-1.2607,-3.7751,1.6165e-13,-0.63036,0,0,0.2,-0,-0,0.66667
0.83553,0.050552,4.1776,-0.67417,-6.7089,6.2704,7.5105,-2.5035,-0.38282,10.014,6.6315e-10,-0.19141,0,0,0.2,-0,-0,0.66667
0.21996,0.088681,1.0998,-0.61698,-19.455,80.754,1.8095,-0.60316,-0.64752,2.4126,2.1021e-11,-0.32376,0,0,0.2,-3.5527e-16,0,0.66667
0.7664,0.7811,3.832,0.42165,5.6314,10.344,-4.3087,1.4362,-1.3699,-5.745,1.3313e-10,-0.68497,0,0,0.2,2.3685e-16,0,0.66667
0.19201,0.95311,0.96006,0.67967,21.749,85.423,-1.7401,0.58002,-0.35664,-2.3201,-1.4169e-11,-0.17832,0,0,0.2,2.3685e-16,0,0.66667
0.59163,0.43464,2.9581,-0.098046,-2.068,26.916,0.77342,-0.25781,-1.9668,1.0312,6.2844e-13,-0.9834,0,0,0.2,-4.737e-16,0,0.66667
0.60683,0.4064,3.0342,-0.1404,-2.8776,25.199,1.136,-0.37867,-1.9313,1.5147,1.395e-12,-0.96563,0,0,0.2,-1.8948e-15,0,0.66667
0.44184,0.77908,2.2092,0.41861,11.062,46.388,-2.4662,0.82206,-1.3773,-3.2882,3.5993e-13,-0.68867,0,0,0.2,4.737e-16,0,0.66667
0.86455,0.66916,4.3228,0.25373,2.005,4.0028,-2.9249,0.97496,-1.7701,-3.8998,6.2214e-10,-0.88506,0,0,0.2,-0,-0,0.66667
0.54348,0.82878,2.7174,0.49316,11.42,32.976,-3.5737,1.1912,-1.1347,-4.7649,-3.0842e-13,-0.56733,0,0,0.2,-0,-0,0.66667
0.49273,0.55387,2.4636,0.080802,1.9929,39.236,-0.53085,0.17695,-1.9759,-0.70779,6.7391e-14,-0.98795,0,0,0.2,4.737e-16,0,0.66667
0.41813,0.22147,2.0906,-0.41779,-11.324,49.768,2.3292,-0.7764,-1.3798,3.1056,-2.4987e-12,-0.68992,0,0,0.2,9.4739e-16,0,0.66667
0.062225,0.86446,0.31113,0.54669,18.003,107.44,-0.45357,0.15119,-0.93819,-0.60476,-5.8657e-08,-0.46909,0,0,0.2,5.9212e-17,2.3873e-16,0.66667
0.36215,0.97278,1.8107,0.70917,20.495,58.314,-3.4243,1.1414,-0.21238,-4.5658,6.3416e-13,-0.10619,0,0,0.2,-0,-0,0.66667
0.092815,0.84327,0.46408,0.51491,16.857,102.17,-0.63722,0.21241,-1.0593,-0.84962,1.0678e-08,-0.52963,0,0,0.2,-2.9606e-17,0,0.66667
0.56564,0.81434,2.8282,0.47151,10.522,30.248,-3.5561,1.1854,-1.2103,-4.7414,-7.5118e-13,-0.60516,0,0,0.2,-0,-0,0.66667
0.6405,0.12523,3.2025,-0.56215,-10.907,21.955,4.8008,-1.6003,-0.87876,6.4011,2.1361e-12,-0.43938,0,0,0.2,-1.8948e-15,0,0.66667
0.76778,0.55578,3.8389,0.083668,1.0967,9.9486,-0.85651,0.2855,-1.9755,-1.142,7.7081e-11,-0.98774,0,0,0.2,-0,-0,0.66667
0.63254,0.38361,3.1627,-0.17458,-3.3948,22.394,1.4724,-0.4908,-1.8907,1.9632,1.8194e-12,-0.94536,0,0,0.2,-0,-0,0.66667
0.18706,0.16559,0.9353,-0.50162,-15.974,86.161,1.2511,-0.41703,-1.1062,1.6681,2.8205e-10,-0.5531,0,0,0.2,-0,-0,0.66667
0.75024,0.28735,3.7512,-0.31897,-4.4954,11.47,3.1908,-1.0636,-1.6395,4.2544,-8.3102e-11,-0.81977,0,0,0.2,-1.8948e-15,0,0.66667
0.54886,0.83253,2.7443,0.49879,11.456,32.319,-3.6502,1.2167,-1.1154,-4.867,-1.8274e-13,-0.55771,0,0,0.2,-0,-0,0.66667
0.10217,0.51943,0.51085,0.029144,0.94436,100.5,-0.039703,0.013234,-1.9958,-0.052937,-6.1725e-09,-0.99792,0,0,0.2,-0,-0,0.66667
0.024827,0.7116,0.12414,0.3174,10.421,113.89,-0.10507,0.035022,-1.6411,-0.14009,2.9573e-09,-0.82056,0,0,0.2,-0,-0,0.66667
0.29875,0.048527,1.4937,-0.67721,-20.486,68.073,2.6975,-0.89917,-0.36932,3.5967,-9.075e-13,-0.18466,0,0,0.2,-4.737e-16,0,0.66667
0.69002,0.60901,3.4501,0.16351,2.7645,16.597,-1.5043,0.50144,-1.9046,-2.0058,4.1389e-12,-0.95231,0,0,0.2,-0,-0,0.66667
0.93279,0.52742,4.6639,0.041127,0.15417,1.2156,-0.51151,0.1705,-1.994,-0.68201,-9.1248e-09,-0.99702,0,0,0.2,1.8948e-15,0,0.66667
0.9665,0.089648,4.8325,-0.61553,-1.2345,1.236,7.9321,-2.644,-0.6536,10.576,3.028e-07,-0.3268,0,0,0.2,9.4739e-16,0,0.66667
0.76455,0.44707,3.8227,-0.079398,-1.0538,10.193,0.80939,-0.2698,-1.9781,1.0792,-6.0444e-11,-0.98905,0,0,0.2,-0,-0,0.66667
0.29325,0.24457,1.4662,-0.38314,-11.508,68.739,1.4981,-0.49936,-1.4781,1.9974,9.0756e-12,-0.73906,0,0,0.2,4.1049e-16,0,0.66667
0.62207,0.93099,3.1103,0.64648,13.113,24.061,-5.3621,1.7874,-0.51413,-7.1494,-7.1809e-13,-0.25707,0,0,0.2,4.737e-16,0,0.66667
0.2311,0.31647,1.1555,-0.2753,-8.5476,78.766,0.84827,-0.28276,-1.7309,1.131,1.62e-10,-0.86546,0,0,0.2,9.4739e-16,0,0.66667
0.75069,0.24721,3.7535,-0.37919,-5.3521,11.504,3.7954,-1.2651,-1.4904,5.0605,-7.8809e-11,-0.74518,0,0,0.2,9.4739e-16,0,0.66667
0.16587,0.0021379,0.82934,-0.74679,-24.205,89.834,1.6516,-0.55053,-0.0172,2.2021,-1.7727e-09,-0.0086002,0,0,0.2,-9.4739e-16,0,0.66667
0.75647,0.56323,3.7824,0.094842,1.2978,10.822,-0.9566,0.31887,-1.9684,-1.2755,4.2473e-11,-0.98419,0,0,0.2,-1.8948e-15,0,0.66667
0.86859,0.77441,4.3429,0.41161,3.2013,4.0099,-4.767,1.589,-1.397,-6.356,3.3869e-09,-0.69848,0,0,0.2,5.1431e-16,0,0.66667
0.51951,0.49522,2.5975,-0.0071758,-0.17045,35.72,0.049705,-0.016568,-1.9999,0.066273,-4.9416e-13,-0.99995,0,0,0.2,3.079e-15,0,0.66667
0.065635,0.96551,0.32817,0.69826,23.121,106.88,-0.61107,0.20369,-0.26697,-0.81476,2.0616e-07,-0.13349,0,0,0.2,-0,-0,0.66667
0.44889,0.18768,2.2445,-0.46848,-12.303,45.444,2.804,-0.93466,-1.2205,3.7386,-1.0327e-12,-0.61025,0,0,0.2,-0,-0,0.66667
0.83783,0.79776,4.1891,0.44664,4.2691,5.6664,-4.9894,1.6631,-1.2896,-6.6526,9.295e-10,-0.64479,0,0,0.2,-9.4739e-16,0,0.66667
0.17975,0.31887,0.89876,-0.27169,-8.6261,87.315,0.65116,-0.21705,-1.7369,0.86822,6.3044e-10,-0.86845,0,0,0.2,-0,-0,0.66667
0.038559,0.64731,0.1928,0.22097,7.2371,111.5,-0.11361,0.037869,-1.8255,-0.15148,-2.4328e-09,-0.91273,0,0,0.2,-2.9606e-17,0,0.66667
0.73269,0.46514,3.6635,-0.052295,-0.777,12.746,0.51088,-0.17029,-1.9913,0.68118,-1.2102e-11,-0.99565,0,0,0.2,9.4739e-16,0,0.66667
0.56304,0.50767,2.8152,0.011504,0.25518,30.283,-0.08636,0.028787,-2.0005,-0.11515,-1.5243e-13,-1.0002,0,0,0.2,-0,-0,0.66667
0.042061,0.4233,0.2103,-0.11506,-3.7629,110.89,0.064524,-0.021508,-1.952,0.086033,1.9217e-07,-0.976,0,0,0.2,-0,-0,0.66667
0.98489,0.79755,4.9244,0.44633,0.27819,0.58093,-5.8611,1.9537,-1.2922,-7.8148,2.3066e-08,-0.64612,0,0,0.2,1.8948e-15,0,0.66667
0.56933,0.96942,2.8467,0.70413,15.814,30.153,-5.3451,1.7817,-0.23752,-7.1268,-7.3275e-14,-0.11876,0,0,0.2,-0,-0,0.66667
0.58516,0.34209,2.9258,-0.23686,-5.0675,27.728,1.848,-0.616,-1.8007,2.464,1.6758e-12,-0.90033,0,0,0.2,-0,-0,0.66667
0.78991,0.25661,3.9495,-0.36508,-4.4137,8.5635,3.845,-1.2817,-1.5255,5.1267,-3.0989e-10,-0.76273,0,0,0.2,1.8948e-15,0,0.66667
0.90263,0.44197,4.5132,-0.087045,-0.48742,2.2336,1.0476,-0.3492,-1.9733,1.3968,5.0965e-09,-0.98664,0,0,0.2,1.8948e-15,0,0.66667
0.060751,0.48691,0.30375,-0.019642,-0.64086,107.65,0.01591,-0.0053037,-1.9987,0.021213,-4.4368e-07,-0.99933,0,0,0.2,1.1842e-16,0,0.66667
0.34851,0.42516,1.7426,-0.11226,-3.2235,60.002,0.52166,-0.17389,-1.9543,0.69555,-8.6148e-13,-0.97716,0,0,0.2,-4.737e-16,0,0.66667
0.20009,0.85509,1.0005,0.53263,16.89,84,-1.421,0.47367,-0.99094,-1.8947,-2.6913e-10,-0.49547,0,0,0.2,-0,-0,0.66667
0.46515,0.11181,2.3258,-0.58229,-15.075,43.316,3.6114,-1.2038,-0.79383,4.8152,-3.3173e-13,-0.39691,0,0,0.2,-0,-0,0.66667
0.091468,0.023298,0.45734,-0.71505,-23.598,102.45,0.87206,-0.29069,-0.18223,1.1627,-1.5179e-07,-0.091113,0,0,0.2,-0,1.7973e-16,0.66667
0.068086,0.34419,0.34043,-0.23372,-7.6314,106.39,0.21217,-0.070724,-1.8063,0.2829,-1.4435e-08,-0.90316,0,0,0.2,-2.3685e-16,0,0.66667
0.30089,0.64732,1.5044,0.22098,6.5813,67.461,-0.88653,0.29551,-1.8259,-1.182,-8.2737e-12,-0.91296,0,0,0.2,2.3685e-16,0,0.66667
0.90435,0.165,4.5217,-0.50251,-2.8897,2.6614,6.0592,-2.0197,-1.1024,8.0789,-8.5002e-09,-0.55121,0,0,0.2,-0,-0,0.66667
0.97554,0.09895,4.8777,-0.60157,-0.84374,1.0567,7.8248,-2.6083,-0.71282,10.433,1.4011e-06,-0.35641,0,0,0.2,-0,-0,0.66667
0.76372,0.42414,3.8186,-0.11379,-1.5158,10.267,1.1587,-0.38623,-1.9539,1.5449,-7.4615e-11,-0.97696,0,0,0.2,9.4739e-16,0,0.66667
0.00074091,0.7009,0.0037046,0.30134,9.8974,118.07,-0.0029769,0.00099229,-1.6776,-0.0039693,-3.1145e-08,-0.83879,0,0,0.2,-0,-0,0.66667
0.73522,0.5078,3.6761,0.011694,0.17227,12.53,-0.11464,0.038212,-2.0003,-0.15285,6.6441e-12,-1.0002,0,0,0.2,-0,-0,0.66667
0.021993,0.48901,0.10996,-0.016483,-0.53957,114.37,0.0048325,-0.0016123,-1.998,0.0064425,-2.2827e-06,-0.999,0,0,0.2,-2.6044e-17,0,0.66667
0.16857,0.88915,0.84283,0.58373,18.771,89.3,-1.312,0.43732,-0.78792,-1.7493,-3.4886e-10,-0.39396,0,0,0.2,-0,-0,0.66667
0.010514,0.5907,0.05257,0.13605,4.4577,116.37,-0.019072,0.0063574,-1.9343,-0.02543,6.5644e-08,-0.96715,0,0,0.2,1.7916e-17,0,0.66667
0.14913,0.66125,0.74563,0.24188,7.7569,92.487,-0.48094,0.16031,-1.7915,-0.64126,-1.6605e-09,-0.89577,0,0,0.2,4.737e-16,0,0.66667
0.68751,0.849,3.4375,0.52349,9.0453,17.212,-4.7987,1.5996,-1.0272,-6.3983,-1.5214e-12,-0.51358,0,0,0.2,1.8948e-15,0,0.66667
0.70202,0.66322,3.5101,0.24483,4.0114,15.533,-2.2916,0.76388,-1.7877,-3.0555,1.0106e-11,-0.89383,0,0,0.2,-0,-0,0.66667
0.37108,0.62406,1.8554,0.18608,5.2468,56.587,-0.92069,0.3069,-1.8776,-1.2276,1.2835e-12,-0.93882,0,0,0.2,6.2172e-16,0,0.66667
0.73119,0.38961,3.656,-0.16559,-2.4768,12.913,1.6144,-0.53813,-1.902,2.1525,-3.3212e-11,-0.95099,0,0,0.2,-0,-0,0.66667
0.8473,0.93495,4.2365,0.65242,6.0418,5.5713,-7.3707,2.4569,-0.48711,-9.8276,3.8909e-09,-0.24356,0,0,0.2,1.1842e-15,0,0.66667
0.13036,0.34722,0.65179,-0.22917,-7.388,95.683,0.39832,-0.13277,-1.8133,0.53109,6.8575e-10,-0.90663,0,0,0.2,4.737e-16,0,0.66667
0.087407,0.31784,0.43704,-0.27324,-8.9002,103.06,0.31844,-0.10615,-1.7341,0.42459,-2.7752e-09,-0.86705,0,0,0.2,-0,-0,0.66667
0.37192,0.38719,1.8596,-0.16922,-4.7668,56.455,0.83916,-0.27972,-1.8978,1.1189,-1.7107e-12,-0.94888,0,0,0.2,-0,-0,0.66667
0.40388,0.36851,2.0194,-0.19723,-5.3949,51.715,1.0621,-0.35404,-1.862,1.4162,-1.8153e-12,-0.931,0,0,0.2,-7.1054e-16,0,0.66667
0.2764,0.26887,1.382,-0.3467,-10.515,71.416,1.2777,-0.42591,-1.5717,1.7036,2.6428e-11,-0.78587,0,0,0.2,4.737e-16,0,0.66667
0.75417,0.94955,3.7708,0.67432,9.6176,11.75,-6.7807,2.2602,-0.38253,-9.0409,2.7636e-12,-0.19127,0,0,0.2,1.8948e-15,0,0.66667
0.32179,0.38059,1.6089,-0.17911,-5.2536,64.158,0.76847,-0.25616,-1.8855,1.0246,1.1516e-12,-0.94273,0,0,0.2,-0,-0,0.66667
0.80014,0.32556,4.0007,-0.26167,-3.0039,7.7509,2.7916,-0.93054,-1.756,3.7222,-3.8095e-10,-0.87802,0,0,0.2,-0,-0,0.66667
0.91131,0.010434,4.5565,-0.73435,-4.1318,2.9926,8.9229,-2.9743,-0.081792,11.897,-4.7725e-08,-0.040896,0,0,0.2,-0,-0,0.66667
0.51315,0.34174,2.5657,-0.23739,-5.7048,36.606,1.6242,-0.54142,-1.8006,2.1657,-6.2172e-15,-0.90031,0,0,0.2,-1.1842e-16,0,0.66667
0.42942,0.85161,2.1471,0.52741,14.183,48.247,-3.0198,1.0066,-1.0102,-4.0263,3.3817e-13,-0.50508,0,0,0.2,-0,-0,0.66667
0.091595,0.89346,0.45797,0.59018,19.377,102.39,-0.72077,0.24026,-0.76141,-0.96103,2.6932e-08,-0.38071,0,0,0.2,-0,2.6877e-16,0.66667
0.27368,0.57463,1.3684,0.11194,3.3881,71.789,-0.40848,0.13616,-1.9543,-0.54464,-1.9808e-11,-0.97714,0,0,0.2,-0,-0,0.66667
0.88665,0.22596,4.4332,-0.41106,-2.7625,3.1964,4.8595,-1.6198,-1.399,6.4794,-3.3031e-09,-0.69948,0,0,0.2,-0,-0,0.66667
0.24594,0.84764,1.2297,0.52147,16.174,76.437,-1.71,0.57001,-1.0333,-2.28,-3.0224e-11,-0.51667,0,0,0.2,9.4739e-16,0,0.66667
0.62119,0.40113,3.1059,-0.14831,-2.9528,23.61,1.2283,-0.40945,-1.9219,1.6378,1.7182e-12,-0.96093,0,0,0.2,-9.4739e-16,0,0.66667
0.49501,0.13347,2.475,-0.5498,-13.688,39.258,3.6287,-1.2096,-0.92461,4.8383,-1.7297e-13,-0.46231,0,0,0.2,-0,-0,0.66667
0.094373,0.39387,0.47186,-0.15919,-5.1705,101.85,0.20031,-0.066771,-1.9104,0.26708,1.9861e-09,-0.95522,0,0,0.2,-0,-0,0.66667
0.89937,0.2333,4.4968,-0.40005,-2.3818,2.6638,4.7972,-1.5991,-1.4298,6.3963,-5.6536e-09,-0.71488,0,0,0.2,-0,-0,0.66667
0.067771,0.42028,0.33885,-0.11958,-3.8997,106.44,0.10805,-0.036018,-1.9481,0.14407,2.69e-08,-0.97407,0,0,0.2,1.1842e-16,0,0.66667
0.6807,0.99542,3.4035,0.74312,13.285,18.28,-6.7446,2.2482,-0.036149,-8.9928,-4.956e-13,-0.018075,0,0,0.2,1.6579e-15,0,0.66667
0.972,0.03792,4.86,-0.69312,-1.2168,1.3655,8.9828,-2.9943,-0.29187,11.977,9.1245e-06,-0.14593,0,0,0.2,-0,-0,0.66667
0.70937,0.60707,3.5469,0.16061,2.5702,14.813,-1.5191,0.50635,-1.9072,-2.0254,1.2029e-11,-0.95358,0,0,0.2,1.8948e-15,0,0.66667
0.32591,0.44267,1.6295,-0.085998,-2.5126,63.496,0.3737,-0.12457,-1.9743,0.49827,4.4831e-13,-0.98713,0,0,0.2,-0,-0,0.66667
0.07344,0.089115,0.3672,-0.61633,-20.317,105.52,0.60351,-0.20117,-0.64931,0.80468,1.7028e-07,-0.32466,0,0,0.2,2.9606e-17,0,0.66667
0.57974,0.45462,2.8987,-0.068069,-1.467,28.296,0.52616,-0.17539,-1.9836,0.70155,3.1658e-13,-0.99179,0,0,0.2,-0,-0,0.66667
0.73352,0.54604,3.6676,0.069061,1.0235,12.68,-0.67543,0.22514,-1.9834,-0.90058,1.6951e-11,-0.99171,0,0,0.2,9.4739e-16,0,0.66667
0.35885,0.30163,1.7942,-0.29756,-8.4952,58.483,1.4237,-0.47457,-1.6859,1.8983,-3.0663e-12,-0.84293,0,0,0.2,4.737e-16,0,0.66667
0.65375,0.45072,3.2688,-0.073922,-1.3682,20.136,0.64435,-0.21478,-1.9803,0.85914,4.9977e-13,-0.99015,0,0,0.2,-0,-0,0.66667
0.56659,0.28236,2.833,-0.32645,-7.2341,29.988,2.4662,-0.82207,-1.6218,3.2883,1.2264e-12,-0.81088,0,0,0.2,-0,-0,0.66667
0.034106,0.81002,0.17053,0.46503,15.316,112.29,-0.21147,0.070491,-1.2319,-0.28196,6.86e-08,-0.61594,0,0,0.2,-2.9606e-17,0,0.66667
0.92069,0.71045,4.6035,0.31568,1.4513,1.7862,-3.8753,1.2918,-1.6463,-5.167,-3.1756e-09,-0.82313,0,0,0.2,-9.4739e-16,0,0.66667
0.38001,0.39284,1.9,-0.16074,-4.4949,55.239,0.81444,-0.27148,-1.9072,1.0859,-1.4163e-12,-0.95359,0,0,0.2,-0,-0,0.66667
0.3794,0.47358,1.897,-0.039633,-1.1079,55.309,0.20049,-0.06683,-1.9944,0.26732,-8.0801e-13,-0.99719,0,0,0.2,9.4739e-16,0,0.66667
0.84636,0.95139,4.2318,0.67708,6.3295,5.6835,-7.6407,2.5469,-0.36965,-10.188,2.4651e-09,-0.18483,0,0,0.2,-0,-0,0.66667
0.48428,0.74198,2.4214,0.36298,9.0995,40.503,-2.3437,0.78125,-1.5327,-3.125,3.4661e-13,-0.76635,0,0,0.2,-0,-0,0.66667
0.45107,0.58382,2.2553,0.12573,3.2671,44.936,-0.7562,0.25207,-1.9439,-1.0083,3.1264e-13,-0.97194,0,0,0.2,-4.737e-16,0,0.66667
0.63986,0.077903,3.1993,-0.63315,-12.358,22.143,5.4016,-1.8005,-0.57508,7.2022,1.2155e-12,-0.28754,0,0,0.2,-9.4739e-16,0,0.66667
0.21177,0.37721,1.0589,-0.18419,-5.7633,81.943,0.52008,-0.17336,-1.8794,0.69344,1.8746e-10,-0.93971,0,0,0.2,-0,-0,0.66667
0.5283,0.65954,2.6415,0.2393,5.625,34.661,-1.6856,0.56188,-1.797,-2.2475,-4.0956e-13,-0.8985,0,0,0.2,-0,-0,0.66667
0.66857,0.73875,3.3428,0.35812,6.4403,18.823,-3.1924,1.0641,-1.5436,-4.2565,-1.8325e-12,-0.77178,0,0,0.2,-0,-0,0.66667
0.53878,0.53461,2.6939,0.051909,1.1979,33.274,-0.3729,0.1243,-1.9902,-0.4972,-3.4966e-13,-0.99511,0,0,0.2,-0,-0,0.66667
0.70876,0.51033,3.5438,0.015493,0.24796,14.828,-0.14641,0.048803,-1.9983,-0.19521,1.9163e-12,-0.99913,0,0,0.2,-0,-0,0.66667
0.59854,0.27236,2.9927,-0.34145,-7.1464,26.266,2.725,-0.90832,-1.5848,3.6333,2.0524e-12,-0.79242,0,0,0.2,-0,-0,0.66667
0.84141,0.97782,4.207,0.71673,6.9408,6.0543,-8.0408,2.6803,-0.17355,-10.721,4.5904e-10,-0.086774,0,0,0.2,-0,-0,0.66667
0.87917,0.69178,4.3959,0.28767,2.0341,3.3528,-3.3721,1.124,-1.7059,-4.4962,4.779e-10,-0.85293,0,0,0.2,-0,-0,0.66667
0.097839,0.91423,0.4892,0.62134,20.399,101.33,-0.81055,0.27018,-0.62695,-1.0807,-5.0989e-11,-0.31347,0,0,0.2,-0,-0,0.66667
0.25859,0.81313,1.293,0.46969,14.443,74.351,-1.6195,0.53982,-1.216,-2.1593,-3.0538e-11,-0.60798,0,0,0.2,-9.4739e-16,0,0.66667
0.054656,0.72675,0.27328,0.34013,11.146,108.72,-0.24787,0.082622,-1.5878,-0.33049,1.0837e-08,-0.79392,0,0,0.2,-0,-0,0.66667
0.22889,0.72613,1.1445,0.3392,10.557,79.149,-1.0352,0.34507,-1.5903,-1.3803,-1.6331e-10,-0.79516,0,0,0.2,-0,-0,0.66667
0.72092,0.92251,3.6046,0.63376,10.04,14.394,-6.0919,2.0306,-0.57172,-8.1225,1.2372e-12,-0.28586,0,0,0.2,-0,-0,0.66667
0.078545,0.26805,0.39273,-0.34793,-11.367,104.6,0.36438,-0.12146,-1.5702,0.48584,-1.2303e-09,-0.7851,0,0,0.2,-1.1842e-16,0,0.66667
0.15512,0.29818,0.7756,-0.30273,-9.7005,91.481,0.62613,-0.20871,-1.6744,0.83484,1.1523e-09,-0.8372,0,0,0.2,-0,-0,0.66667
0.77077,0.53238,3.8538,0.04857,0.62897,9.7164,-0.49915,0.16638,-1.9921,-0.66554,1.7248e-11,-0.99604,0,0,0.2,-0,-0,0.66667
0.44433,0.61235,2.2216,0.16852,4.4151,45.894,-0.99839,0.3328,-1.8979,-1.3312,5.1259e-13,-0.94893,0,0,0.2,-0,-0,0.66667
0.29012,0.25853,1.4506,-0.36221,-10.895,69.227,1.4011,-0.46704,-1.5327,1.8682,1.221e-11,-0.76634,0,0,0.2,-0,-0,0.66667
0.64398,0.052056,3.2199,-0.67192,-13.031,21.785,5.7694,-1.9231,-0.39437,7.6925,6.8878e-13,-0.19719,0,0,0.2,-9.4739e-16,0,0.66667
0.88694,0.78263,4.4347,0.42394,2.8465,3.2053,-5.0135,1.6712,-1.3617,-6.6846,4.0535e-09,-0.68086,0,0,0.2,-0,-0,0.66667
0.037605,0.21276,0.18803,-0.43086,-14.173,111.68,0.21604,-0.072012,-1.3394,0.28805,-3.8926e-08,-0.66971,0,0,0.2,-5.9212e-17,0,0.66667
0.69309,0.34974,3.4655,-0.22539,-3.7843,16.345,2.0829,-0.6943,-1.8189,2.7772,-5.6399e-12,-0.90947,0,0,0.2,-0,-0,0.66667
0.66855,0.79927,3.3428,0.4489,8.1073,18.934,-4.0015,1.3338,-1.283,-5.3353,-2.3732e-12,-0.64149,0,0,0.2,-0,-0,0.66667
0.86801,0.95452,4.3401,0.68178,5.5341,4.6072,-7.8906,2.6302,-0.34609,-10.521,-2.2423e-09,-0.17304,0,0,0.2,-1.0279e-15,0,0.66667
0.19637,0.81264,0.98186,0.46895,14.862,84.591,-1.2279,0.40929,-1.2185,-1.6371,-2.0711e-10,-0.60927,0,0,0.2,-0,-0,0.66667
0.71279,0.15627,3.564,-0.5156,-8.296,14.887,4.9002,-1.6334,-1.0553,6.5336,-4.948e-12,-0.52767,0,0,0.2,1.8948e-15,0,0.66667
0.1039,0.056099,0.51951,-0.66585,-21.873,100.31,0.92244,-0.30748,-0.42314,1.2299,-5.5725e-08,-0.21157,0,0,0.2,5.9212e-17,0,0.66667
0.056626,0.54676,0.28313,0.070139,2.2899,108.37,-0.052956,0.017652,-1.9814,-0.070608,-1.4073e-07,-0.99069,0,0,0.2,-1.1842e-16,0,0.66667
0.6808,0.40741,3.404,-0.13889,-2.4056,17.465,1.2607,-0.42025,-1.9317,1.681,-1.9983e-12,-0.96584,0,0,0.2,1.8948e-15,0,0.66667
0.022635,0.96403,0.11317,0.69604,23.133,114.29,-0.21006,0.070027,-0.27704,-0.28008,9.2802e-06,-0.13852,0,0,0.2,1.4803e-17,0,0.66667
0.044299,0.56065,0.2215,0.090972,2.9742,110.5,-0.053733,0.017911,-1.9716,-0.071645,-4.4205e-07,-0.98578,0,0,0.2,1.4803e-17,0,0.66667
0.036953,0.65012,0.18477,0.22519,7.3764,111.78,-0.11095,0.036984,-1.8192,-0.14793,3.9509e-09,-0.90962,0,0,0.2,-0,-0,0.66667
0.46541,0.98725,2.3271,0.73087,19.064,43.482,-4.5354,1.5118,-0.10019,-6.0472,-3.0642e-13,-0.050096,0,0,0.2,4.737e-16,0,0.66667
0.75787,0.97817,3.7893,0.71726,10.141,11.564,-7.2479,2.416,-0.16981,-9.6638,2.7183e-12,-0.084906,0,0,0.2,-0,-0,0.66667
0.9922,0.35965,4.961,-0.21052,0.0040751,0.16309,2.785,-0.92834,-1.8412,3.7134,4.2045e-09,-0.92059,0,0,0.2,-1.8948e-15,0,0.66667
0.22661,0.051699,1.133,-0.67245,-21.187,79.696,2.0318,-0.67726,-0.39113,2.709,8.7168e-12,-0.19556,0,0,0.2,-2.3685e-16,0,0.66667
0.79238,0.9928,3.9619,0.73919,9.157,9.1199,-7.8096,2.6032,-0.056831,-10.413,2.1387e-11,-0.028416,0,0,0.2,-0,1.8064e-16,0.66667
0.79525,0.63474,3.9762,0.20211,2.3671,8.033,-2.143,0.71434,-1.855,-2.8574,2.9733e-10,-0.92752,0,0,0.2,-0,-0,0.66667
0.87224,0.73008,4.3612,0.34512,2.593,3.7403,-4.0137,1.3379,-1.5762,-5.3516,2.1102e-09,-0.78812,0,0,0.2,1.8948e-15,0,0.66667
0.31426,0.1988,1.5713,-0.4518,-13.405,65.459,1.8931,-0.63103,-1.2743,2.5241,-5.5622e-14,-0.63716,0,0,0.2,-0,-0,0.66667
0.13293,0.97676,0.66463,0.71514,23.379,95.38,-1.2675,0.42249,-0.18077,-1.69,5.7297e-10,-0.090384,0,0,0.2,-0,-0,0.66667
0.7967,0.4663,3.9835,-0.050555,-0.58618,7.8661,0.53703,-0.17901,-1.9928,0.71604,-8.9075e-12,-0.99641,0,0,0.2,9.4739e-16,0,0.66667
0.56746,0.72882,2.8373,0.34323,7.5985,29.898,-2.5969,0.86564,-1.5804,-3.4626,-1.1491e-12,-0.79019,0,0,0.2,-0,-0,0.66667
0.41465,0.95374,2.0733,0.68061,18.716,50.536,-3.7629,1.2543,-0.35171,-5.0172,9.3037e-14,-0.17585,0,0,0.2,-0,-0,0.66667
0.058642,0.28368,0.29321,-0.32448,-10.625,108.03,0.2537,-0.084568,-1.6261,0.33827,-9.2468e-09,-0.81307,0,0,0.2,-0,-0,0.66667
0.0065569,0.5739,0.032784,0.11085,3.6315,117.06,-0.0096908,0.0032306,-1.9552,-0.012921,4.2167e-07,-0.97762,0,0,0.2,-0,-0,0.66667
0.31602,0.75669,1.5801,0.38504,11.387,65.143,-1.6224,0.5408,-1.4728,-2.1632,-4.7595e-13,-0.7364,0,0,0.2,-0,-0,0.66667
0.27146,0.081049,1.3573,-0.62843,-19.295,72.378,2.2746,-0.75819,-0.59478,3.0327,2.3308e-12,-0.29739,0,0,0.2,-0,-0,0.66667
0.47572,0.10702,2.3786,-0.58947,-15.071,41.886,3.739,-1.2463,-0.76334,4.9853,-4.3521e-14,-0.38167,0,0,0.2,-9.4739e-16,0,0.66667
0.92361,0.70004,4.6181,0.30007,1.3227,1.6736,-3.6953,1.2318,-1.6799,-4.927,-1.8445e-09,-0.83995,0,0,0.2,-0,-0,0.66667
0.41668,0.22976,2.0834,-0.40536,-10.999,49.967,2.2521,-0.7507,-1.4149,3.0028,-1.6442e-12,-0.70744,0,0,0.2,-9.4739e-16,0,0.66667
0.28788,0.10823,1.4394,-0.58766,-17.833,69.721,2.2557,-0.7519,-0.77092,3.0076,1.1886e-12,-0.38546,0,0,0.2,-0,-0,0.66667
0.84525,0.91623,4.2262,0.62435,5.8311,5.6139,-7.0364,2.3455,-0.61431,-9.3818,-1.444e-09,-0.30716,0,0,0.2,-0,-0,0.66667
0.30695,0.78329,1.5347,0.42494,12.662,66.592,-1.7391,0.57972,-1.3582,-2.3189,-1.3396e-12,-0.67908,0,0,0.2,-9.4739e-16,0,0.66667
0.91558,0.72742,4.5779,0.34113,1.6809,1.989,-4.1644,1.3881,-1.5854,-5.5526,1.0627e-09,-0.79271,0,0,0.2,-0,-0,0.66667
0.86341,0.41234,4.3171,-0.13149,-1.0412,3.9685,1.5138,-0.50459,-1.9384,2.0183,2.0703e-09,-0.96919,0,0,0.2,-0,-0,0.66667
0.63882,0.45407,3.1941,-0.068897,-1.3195,21.689,0.58684,-0.19561,-1.9831,0.78245,4.7784e-13,-0.99154,0,0,0.2,9.4739e-16,0,0.66667
0.74768,0.11919,3.7384,-0.57122,-8.2566,12.048,5.6945,-1.8982,-0.84029,7.5926,-2.1169e-11,-0.42014,0,0,0.2,-0,-0,0.66667
0.15732,0.51803,0.78661,0.02704,0.86327,91.076,-0.05672,0.018907,-1.9977,-0.075627,-1.5404e-10,-0.99885,0,0,0.2,-4.737e-16,0,0.66667
0.60287,0.40279,3.0144,-0.14582,-3.0121,25.647,1.1721,-0.39071,-1.9242,1.5628,9.176e-13,-0.96212,0,0,0.2,1.5996e-15,0,0.66667
0.32704,0.77317,1.6352,0.40975,12.03,63.437,-1.7867,0.59557,-1.4037,-2.3823,1.665e-12,-0.70185,0,0,0.2,-0,-0,0.66667
0.48868,0.32935,2.4434,-0.25597,-6.3628,39.841,1.6678,-0.55594,-1.7662,2.2238,2.3315e-15,-0.88311,0,0,0.2,-9.4739e-16,0,0.66667
0.22539,0.050825,1.1269,-0.67376,-21.242,79.897,2.0248,-0.67492,-0.38484,2.6997,8.4792e-12,-0.19242,0,0,0.2,2.3685e-16,0,0.66667
0.90196,0.60304,4.5098,0.15455,0.87433,2.292,-1.8587,0.61956,-1.9145,-2.4782,-5.5667e-09,-0.95726,0,0,0.2,-0,-0,0.66667
0.41153,0.42271,2.0577,-0.11593,-3.1438,50.575,0.63612,-0.21204,-1.9512,0.84815,-1.2269e-12,-0.97559,0,0,0.2,-0,-0,0.66667
0.47673,0.70617,2.3837,0.30926,7.816,41.483,-1.9658,0.65526,-1.6588,-2.6211,3.505e-13,-0.82938,0,0,0.2,4.737e-16,0,0.66667
0.7214,0.15836,3.607,-0.51246,-8.0328,14.129,4.9292,-1.6431,-1.0672,6.5723,-7.2307e-12,-0.53358,0,0,0.2,-0,-0,0.66667
0.1222,0.17644,0.61098,-0.48533,-15.772,97.128,0.79075,-0.26358,-1.1622,1.0543,4.0151e-09,-0.58111,0,0,0.2,1.1842e-16,0,0.66667
0.50307,0.68793,2.5153,0.28189,6.8771,37.949,-1.8908,0.63026,-1.7186,-2.521,7.5495e-14,-0.85929,0,0,0.2,-1.8948e-15,0,0.66667
0.81315,0.36156,4.0657,-0.20766,-2.2332,6.858,2.2514,-0.75047,-1.8472,3.0019,-4.347e-10,-0.92359,0,0,0.2,-0,-0,0.66667
0.67734,0.69818,3.3867,0.29728,5.2168,17.904,-2.6848,0.89492,-1.6849,-3.5797,-1.4877e-14,-0.84245,0,0,0.2,1.8948e-15,0,0.66667
0.32165,0.80098,1.6083,0.45147,13.324,64.302,-1.9362,0.6454,-1.2742,-2.5816,9.8788e-13,-0.63711,0,0,0.2,4.737e-16,0,0.66667
0.71067,0.039029,3.5533,-0.69146,-11.347,15.411,6.5519,-2.184,-0.29923,8.7359,-5.8487e-13,-0.14961,0,0,0.2,1.8948e-15,0,0.66667
0.93444,0.58484,4.6722,0.12727,0.46591,1.1987,-1.5856,0.52855,-1.9422,-2.1142,2.1342e-08,-0.97112,0,0,0.2,9.4739e-16,0,0.66667
0.89478,0.50953,4.4739,0.014295,0.086661,2.5263,-0.17054,0.056847,-1.9987,-0.22739,4.2293e-08,-0.99937,0,0,0.2,-0,-0,0.66667
0.74223,0.14996,3.7112,-0.52505,-7.7037,12.403,5.1962,-1.7321,-1.0192,6.9282,-2.6415e-11,-0.50958,0,0,0.2,-4.737e-16,0,0.66667
0.2661,0.93073,1.3305,0.64609,19.914,73.253,-2.2923,0.76411,-0.51688,-3.0565,-1.7468e-12,-0.25844,0,0,0.2,-0,-0,0.66667
0.37249,0.86234,1.8624,0.54351,15.453,56.59,-2.6994,0.89979,-0.94941,-3.5992,1.2168e-12,-0.47471,0,0,0.2,3.2581e-17,0,0.66667
0.55842,0.31668,2.7921,-0.27499,-6.169,30.937,2.0474,-0.68247,-1.7313,2.7299,4.8828e-13,-0.86564,0,0,0.2,1.8948e-15,0,0.66667
0.38105,0.070133,1.9052,-0.6448,-18.274,55.413,3.276,-1.092,-0.52102,4.368,-2.5402e-13,-0.26051,0,0,0.2,-0,-0,0.66667
0.45575,0.84494,2.2787,0.51742,13.507,44.538,-3.1441,1.048,-1.0492,-4.1922,5.0937e-13,-0.52461,0,0,0.2,-0,-0,0.66667
0.79353,0.18086,3.9676,-0.47872,-5.7437,8.4829,5.065,-1.6883,-1.1852,6.7533,-2.2402e-10,-0.59258,0,0,0.2,-4.737e-16,0,0.66667
0.10394,0.71371,0.5197,0.32057,10.417,100.22,-0.44426,0.14809,-1.6343,-0.59235,-1.6926e-09,-0.81717,0,0,0.2,1.7764e-16,0,0.66667
0.973,0.92263,4.865,0.63395,1.0202,1.1807,-8.2244,2.7415,-0.57025,-10.966,-2.5976e-07,-0.28513,0,0,0.2,-1.8948e-15,0,0.66667
0.70462,0.8528,3.5231,0.52921,8.727,15.641,-4.9718,1.6573,-1.0046,-6.6291,1.8048e-12,-0.50231,0,0,0.2,-0,-0,0.66667
0.86473,0.52076,4.3236,0.031139,0.2437,3.8723,-0.35903,0.11968,-1.9957,-0.4787,-4.2033e-10,-0.99785,0,0,0.2,-0,-0,0.66667
0.78168,0.68811,3.9084,0.28216,3.5172,9.0505,-2.9408,0.98027,-1.7191,-3.9211,2.2407e-10,-0.85954,0,0,0.2,-1.8948e-15,0,0.66667
0.43218,0.39892,2.1609,-0.15162,-4.025,47.609,0.87368,-0.29123,-1.9177,1.1649,-1.2202e-12,-0.95885,0,0,0.2,-0,-0,0.66667
0.94251,0.66326,4.7126,0.24489,0.78396,1.0731,-3.0775,1.0258,-1.7863,-4.1034,9.607e-09,-0.89315,0,0,0.2,-0,-0,0.66667
0.25309,0.76368,1.2654,0.39553,12.173,75.209,-1.3347,0.4449,-1.4433,-1.7796,-6.2987e-11,-0.72164,0,0,0.2,-0,-0,0.66667
0.046248,0.68612,0.23124,0.27918,9.1458,110.17,-0.17216,0.057385,-1.7248,-0.22954,3.3069e-09,-0.86238,0,0,0.2,2.9051e-17,0,0.66667
0.096878,0.058385,0.48439,-0.66242,-21.789,101.51,0.85566,-0.28522,-0.44022,1.1409,3.2331e-08,-0.22011,0,0,0.2,5.9212e-17,0,0.66667
0.20074,0.92202,1.0037,0.63304,20.145,83.945,-1.6943,0.56477,-0.5749,-2.2591,-1.2774e-10,-0.28745,0,0,0.2,-0,-0,0.66667
0.53908,0.92003,2.6954,0.63004,14.79,33.708,-4.5286,1.5095,-0.5874,-6.0381,-2.4869e-13,-0.2937,0,0,0.2,9.4739e-16,0,0.66667
0.2236,0.96428,1.118,0.69642,21.998,80.206,-2.0763,0.6921,-0.27545,-2.7684,-7.1734e-12,-0.13772,0,0,0.2,-0,-0,0.66667
0.83532,0.38831,4.1766,-0.16754,-1.595,5.4903,1.866,-0.622,-1.899,2.488,-5.2109e-10,-0.9495,0,0,0.2,-0,-0,0.66667
0.0093387,0.58342,0.046693,0.12514,4.0999,116.57,-0.015581,0.0051937,-1.9433,-0.020775,-1.3397e-07,-0.97167,0,0,0.2,-7.4015e-18,0,0.66667
0.7459,0.015099,3.7295,-0.72735,-10.731,12.526,7.2338,-2.4113,-0.11818,9.645,6.5903e-13,-0.059092,0,0,0.2,-1.8948e-15,0,0.66667
0.96901,0.0082624,4.845,-0.73761,-1.4863,1.5495,9.5299,-3.1767,-0.066584,12.707,-4.339e-06,-0.033292,0,0,0.2,3.7896e-15,0,0.66667
0.26718,0.74307,1.3359,0.36461,11.124,72.91,-1.2989,0.43296,-1.5279,-1.7319,-3.8152e-11,-0.76396,0,0,0.2,-2.3685e-16,0,0.66667
0.62382,0.32965,3.1191,-0.25552,-5.0711,23.383,2.1253,-0.70843,-1.7681,2.8337,2.1438e-12,-0.88404,0,0,0.2,9.4739e-16,0,0.66667
0.71478,0.52636,3.5739,0.039541,0.62164,14.292,-0.37684,0.12561,-1.9945,-0.50246,4.7113e-12,-0.99725,0,0,0.2,-0,-0,0.66667
0.32696,0.7978,1.6348,0.4467,13.13,63.472,-1.9474,0.64912,-1.2908,-2.5965,2.0168e-12,-0.64538,0,0,0.2,-3.872e-16,0,0.66667
0.43313,0.90443,2.1656,0.60665,16.306,47.807,-3.5034,1.1678,-0.69196,-4.6712,-1.7764e-15,-0.34598,0,0,0.2,7.1054e-16,0,0.66667
0.73441,0.54863,3.672,0.072945,1.0779,12.606,-0.71428,0.23809,-1.9819,-0.95238,1.9017e-11,-0.99094,0,0,0.2,-0,-0,0.66667
0.13115,0.57227,0.65575,0.10841,3.4897,95.536,-0.18958,0.063192,-1.9573,-0.25277,-2.4116e-09,-0.97865,0,0,0.2,-0,-0,0.66667
0.14369,0.47577,0.71843,-0.036347,-1.1654,93.394,0.069635,-0.023212,-1.9953,0.092847,-5.3474e-10,-0.99766,0,0,0.2,-0,-0,0.66667
0.37541,0.69567,1.877,0.2935,8.2597,55.979,-1.4691,0.4897,-1.6947,-1.9588,2.3295e-12,-0.84734,0,0,0.2,-0,-0,0.66667
0.22841,0.19772,1.142,-0.45343,-14.158,79.275,1.3809,-0.4603,-1.2681,1.8412,1.097e-10,-0.63403,0,0,0.2,-0,-0,0.66667
0.30699,0.88371,1.5349,0.57556,17.239,66.689,-2.3559,0.78528,-0.82142,-3.1411,1.5252e-12,-0.41071,0,0,0.2,-0,-0,0.66667
0.15007,0.072026,0.75033,-0.64196,-20.817,92.446,1.2845,-0.42816,-0.53381,1.7126,2.0486e-09,-0.2669,0,0,0.2,-0,-0,0.66667
0.096636,0.18496,0.48318,-0.47256,-15.439,101.5,0.60889,-0.20296,-1.2067,0.81185,8.6406e-09,-0.60337,0,0,0.2,-5.9212e-17,0,0.66667
0.91598,0.64756,4.5799,0.22134,1.0698,1.8383,-2.7032,0.90107,-1.825,-3.6043,-3.136e-09,-0.91251,0,0,0.2,9.4739e-16,0,0.66667
0.34589,0.11261,1.7295,-0.58109,-16.917,60.654,2.6799,-0.89331,-0.79931,3.5733,-1.5505e-12,-0.39965,0,0,0.2,4.737e-16,0,0.66667
0.56597,0.13305,2.8298,-0.55042,-12.322,30.31,4.1536,-1.3845,-0.92258,5.5381,5.409e-13,-0.46129,0,0,0.2,-0,-0,0.66667
0.5472,0.55488,2.736,0.082323,1.875,32.229,-0.60062,0.20021,-1.977,-0.80083,-4.764e-13,-0.98849,0,0,0.2,4.737e-16,0,0.66667
0.45036,0.74018,2.2518,0.36028,9.4118,45.149,-2.1634,0.72113,-1.5383,-2.8845,2.8155e-13,-0.76916,0,0,0.2,-0,-0,0.66667
0.74782,0.86528,3.7391,0.54792,7.901,11.993,-5.4632,1.8211,-0.93263,-7.2843,2.5156e-11,-0.46632,0,0,0.2,9.4739e-16,0,0.66667
0.33158,0.45399,1.6579,-0.069014,-2.0076,62.612,0.30511,-0.1017,-1.9825,0.40682,3.3587e-13,-0.99123,0,0,0.2,-4.737e-16,0,0.66667
0.89248,0.95819,4.4624,0.68728,4.5975,3.5562,-8.1785,2.7262,-0.32062,-10.905,1.661e-08,-0.16031,0,0,0.2,-0,-0,0.66667
0.068033,0.51241,0.34017,0.018622,0.60701,106.39,-0.016893,0.0056308,-1.9978,-0.022524,-1.1597e-07,-0.99888,0,0,0.2,-0,-0,0.66667
0.57489,0.96135,2.8744,0.69202,15.384,29.475,-5.3045,1.7682,-0.29719,-7.0726,1.6565e-13,-0.1486,0,0,0.2,-4.737e-16,-1.7126e-16,0.66667
0.33905,0.43135,1.6953,-0.10297,-2.9789,61.457,0.46551,-0.15517,-1.962,0.62069,-6.5761e-13,-0.981,0,0,0.2,-2.3685e-16,0,0.66667
0.3639,0.66764,1.8195,0.25147,7.142,57.695,-1.2201,0.40671,-1.7744,-1.6268,2.4375e-12,-0.8872,0,0,0.2,-0,-0,0.66667
0.3051,0.37781,1.5255,-0.18329,-5.4403,66.784,0.74561,-0.24854,-1.8805,0.99414,6.3115e-12,-0.94023,0,0,0.2,-9.4739e-16,0,0.66667
0.60359,0.94863,3.0179,0.67295,14.183,26.145,-5.4158,1.8053,-0.38885,-7.2211,-5.7554e-13,-0.19442,0,0,0.2,9.4739e-16,0,0.66667
0.23441,0.46749,1.172,-0.048765,-1.5079,78.183,0.15241,-0.050804,-1.9938,0.20322,2.1761e-11,-0.99688,0,0,0.2,2.0724e-16,0,0.66667
0.29431,0.43836,1.4715,-0.092459,-2.7619,68.481,0.36282,-0.12094,-1.9708,0.48375,7.5845e-12,-0.9854,0,0,0.2,-0,-0,0.66667
0.28549,0.42049,1.4275,-0.11926,-3.5835,69.892,0.45397,-0.15132,-1.9486,0.6053,1.329e-11,-0.97431,0,0,0.2,-0,-0,0.66667
0.0067954,0.58364,0.033977,0.12547,4.1109,117.01,-0.011368,0.0037894,-1.943,-0.015157,5.628e-08,-0.97151,0,0,0.2,-7.4015e-18,0,0.66667
0.37162,0.0048918,1.8581,-0.74266,-21.328,56.932,3.6798,-1.2266,-0.039156,4.9064,-5.8642e-13,-0.019578,0,0,0.2,-0,-1.2509e-16,0.66667
0.048897,0.076676,0.24449,-0.63499,-21.011,109.75,0.41399,-0.138,-0.56626,0.55199,2.264e-07,-0.28313,0,0,0.2,1.1842e-16,0,0.66667
0.87438,0.14969,4.3719,-0.52546,-3.9682,3.9464,6.1261,-2.042,-1.0193,8.1681,-7.3665e-11,-0.50966,0,0,0.2,-4.737e-16,0,0.66667
0.72182,0.92676,3.6091,0.64014,10.119,14.329,-6.1609,2.0536,-0.54269,-8.2145,1.5361e-12,-0.27134,0,0,0.2,-9.4739e-16,0,0.66667
0.59531,0.62135,2.9765,0.18202,3.8173,26.524,-1.4448,0.4816,-1.8833,-1.9264,-1.368e-12,-0.94163,0,0,0.2,2.3685e-16,0,0.66667
0.74388,0.72732,3.7194,0.34099,4.9188,12.006,-3.382,1.1273,-1.5858,-4.5094,6.2228e-11,-0.79289,0,0,0.2,-0,-0,0.66667
0.90109,0.89498,4.5055,0.59247,3.5834,2.9801,-7.1183,2.3728,-0.75106,-9.491,2.7387e-08,-0.37553,0,0,0.2,9.4739e-16,0,0.66667
0.69409,0.53893,3.4705,0.058402,0.97501,16.178,-0.54049,0.18016,-1.9871,-0.72065,2.3572e-12,-0.99356,0,0,0.2,-0,-0,0.66667
0.59076,0.78029,2.9538,0.42044,8.9555,27.236,-3.3117,1.1039,-1.3725,-4.4156,-1.118e-12,-0.68626,0,0,0.2,-1.2434e-15,0,0.66667
0.12426,0.25482,0.6213,-0.36778,-11.907,96.748,0.60933,-0.20311,-1.5203,0.81244,2.96e-09,-0.76016,0,0,0.2,4.737e-16,0,0.66667
0.40458,0.13421,2.0229,-0.54868,-15.147,51.848,2.9598,-0.98661,-0.9299,3.9464,-1.5583e-12,-0.46495,0,0,0.2,-0,-0,0.66667
0.57895,0.47578,2.8948,-0.036332,-0.78399,28.384,0.28046,-0.093486,-1.9962,0.37394,-7.5967e-14,-0.9981,0,0,0.2,-0,-0,0.66667
0.60284,0.39327,3.0142,-0.16009,-3.3079,25.656,1.2868,-0.42893,-1.9077,1.7157,1.475e-12,-0.95386,0,0,0.2,-7.1391e-16,0,0.66667
0.96078,0.57742,4.8039,0.11613,0.23158,0.55966,-1.4877,0.49589,-1.9508,-1.9836,1.8858e-07,-0.9754,0,0,0.2,-0,-0,0.66667
0.2055,0.25097,1.0275,-0.37355,-11.762,83.035,1.0235,-0.34117,-1.5051,1.3647,3.374e-10,-0.75256,0,0,0.2,-0,-0,0.66667
0.66315,0.28458,3.3158,-0.32312,-5.8806,19.328,2.8571,-0.95236,-1.6286,3.8094,1.9453e-12,-0.8143,0,0,0.2,-0,-0,0.66667
0.25643,0.71292,1.2821,0.31938,9.7936,74.635,-1.092,0.364,-1.6368,-1.456,-6.4454e-11,-0.8184,0,0,0.2,1.1842e-16,0,0.66667
0.41776,0.90282,2.0888,0.60424,16.502,49.998,-3.3657,1.1219,-0.70212,-4.4876,6.5636e-13,-0.35106,0,0,0.2,-5.8686e-16,0,0.66667
0.97195,0.79455,4.8598,0.44182,0.64631,0.7502,-5.7257,1.9086,-1.3054,-7.6343,-5.2337e-08,-0.65272,0,0,0.2,-0,-0,0.66667
0.33108,0.21938,1.6554,-0.42092,-12.325,62.816,1.8581,-0.61937,-1.3711,2.4775,-2.0451e-12,-0.68557,0,0,0.2,-9.4739e-16,0,0.66667
0.36202,0.80588,1.8101,0.45882,13.122,58.098,-2.2147,0.73824,-1.2517,-2.953,2.6374e-12,-0.62585,0,0,0.2,-0,-0,0.66667
0.43957,0.88818,2.1978,0.58227,15.524,46.869,-3.4126,1.1375,-0.79442,-4.5502,2.0939e-13,-0.39721,0,0,0.2,-0,-0,0.66667
0.040668,0.2298,0.20334,-0.4053,-13.32,111.15,0.21977,-0.073257,-1.4149,0.29303,-2.4884e-08,-0.70746,0,0,0.2,-0,-0,0.66667
0.39857,0.98348,1.9929,0.72522,20.306,52.926,-3.854,1.2847,-0.12873,-5.1387,-4.6474e-13,-0.064365,0,0,0.2,9.44e-16,0,0.66667
0.61899,0.75301,3.0949,0.37952,7.639,24.019,-3.1322,1.0441,-1.4878,-4.1763,-2.1658e-12,-0.74392,0,0,0.2,-1.8948e-15,0,0.66667
0.57808,0.34732,2.8904,-0.22902,-4.9618,28.553,1.7652,-0.58841,-1.8153,2.3536,9.3447e-13,-0.90764,0,0,0.2,1.8948e-15,0,0.66667
0.87341,0.69227,4.3671,0.2884,2.1364,3.6161,-3.3585,1.1195,-1.7051,-4.4781,1.4641e-09,-0.85257,0,0,0.2,-0,-0,0.66667
0.64119,0.48266,3.2059,-0.02601,-0.4954,21.434,0.22236,-0.07412,-1.9981,0.29648,1.8026e-13,-0.99906,0,0,0.2,-0,-0,0.66667
0.55696,0.28943,2.7848,-0.31585,-7.1109,31.145,2.3455,-0.78184,-1.6446,3.1274,1.0003e-12,-0.8223,0,0,0.2,-0,-0,0.66667
0.64065,0.67751,3.2032,0.26626,5.097,21.591,-2.2744,0.75814,-1.7489,-3.0325,-2.4107e-12,-0.87446,0,0,0.2,-9.4739e-16,0,0.66667
0.047617,0.81433,0.23808,0.47149,15.514,109.95,-0.29935,0.099782,-1.2113,-0.39913,4.1736e-08,-0.60567,0,0,0.2,-1.1842e-16,0,0.66667
0.99612,0.68887,4.9806,0.28331,-0.06857,0.20765,-3.7627,1.2542,-1.7153,-5.017,1.6484e-08,-0.85766,0,0,0.2,-0,-0,0.66667
0.15171,0.22945,0.75853,-0.40583,-13.049,92.085,0.82089,-0.27363,-1.4137,1.0945,1.2259e-09,-0.70684,0,0,0.2,-0,-0,0.66667
0.41845,0.81781,2.0922,0.47671,12.942,49.771,-2.6597,0.88658,-1.1921,-3.5463,6.084e-13,-0.59606,0,0,0.2,-0,-0,0.66667
0.29525,0.80281,1.4763,0.45422,13.653,68.46,-1.7881,0.59604,-1.2667,-2.3842,-4.8849e-12,-0.63335,0,0,0.2,-2.3685e-16,0,0.66667
0.57722,0.81039,2.8861,0.46559,10.182,28.865,-3.5833,1.1944,-1.2309,-4.7777,-9.7167e-13,-0.61543,0,0,0.2,-3.5527e-16,0,0.66667
0.55956,0.38471,2.7978,-0.17294,-3.8641,30.741,1.2902,-0.43008,-1.8935,1.7203,7.2387e-13,-0.94673,0,0,0.2,-0,-0,0.66667
0.35211,0.38676,1.7606,-0.16986,-4.8661,59.463,0.79749,-0.26583,-1.8963,1.0633,-1.41e-12,-0.94814,0,0,0.2,-0,-0,0.66667
0.97363,0.5925,4.8681,0.13875,0.16254,0.34331,-1.8012,0.6004,-1.932,-2.4016,2.8233e-07,-0.96602,0,0,0.2,2.4869e-15,0,0.66667
0.75127,0.074357,3.7564,-0.63846,-9.1678,11.898,6.3955,-2.1318,-0.5509,8.5273,-8.2387e-12,-0.27545,0,0,0.2,-0,-0,0.66667
0.88984,0.47627,4.4492,-0.035598,-0.22631,2.731,0.42235,-0.14078,-1.9964,0.56313,9.5604e-09,-0.99818,0,0,0.2,-0,-0,0.66667
0.45541,0.35388,2.2771,-0.21918,-5.6739,44.363,1.3309,-0.44363,-1.8292,1.7745,-9.0328e-13,-0.91459,0,0,0.2,9.4739e-16,0,0.66667
0.59941,0.38751,2.997,-0.16873,-3.5102,26.05,1.3485,-0.4495,-1.8977,1.798,1.4866e-12,-0.94887,0,0,0.2,-9.4739e-16,0,0.66667
0.41345,0.26606,2.0673,-0.3509,-9.5374,50.397,1.9344,-0.64481,-1.561,2.5792,-9.9221e-13,-0.78048,0,0,0.2,-9.4739e-16,0,0.66667
0.30426,0.81819,1.5213,0.47729,14.271,67.049,-1.9362,0.64541,-1.1895,-2.5816,-9.3647e-13,-0.59474,0,0,0.2,-9.4739e-16,0,0.66667
0.52547,0.88331,2.6274,0.57497,13.735,35.341,-4.0284,1.3428,-0.82385,-5.3712,2.1849e-13,-0.41192,0,0,0.2,-9.4739e-16,0,0.66667
0.19097,0.46084,0.95484,-0.058738,-1.8525,85.402,0.14956,-0.049854,-1.9875,0.19941,1.2833e-10,-0.99377,0,0,0.2,1.1842e-16,0,0.66667
0.2141,0.36253,1.0705,-0.2062,-6.4471,81.56,0.58864,-0.19621,-1.848,0.78485,2.109e-10,-0.92399,0,0,0.2,-2.3685e-16,0,0.66667
0.51079,0.3033,2.5539,-0.29505,-7.1234,36.948,2.0094,-0.6698,-1.6898,2.6792,3.9857e-13,-0.84491,0,0,0.2,-4.737e-16,0,0.66667
0.013852,0.4555,0.06926,-0.066746,-2.1858,115.79,0.012329,-0.0041111,-1.9842,0.016437,-2.3586e-06,-0.99208,0,0,0.2,-0,-0,0.66667
0.44549,0.60343,2.2274,0.15514,4.0585,45.727,-0.92152,0.30717,-1.9134,-1.2287,4.5181e-13,-0.95671,0,0,0.2,-0,-0,0.66667
0.9967,0.13602,4.9835,-0.54597,0.029819,0.68542,7.2556,-2.4185,-0.93972,9.6741,-1.3664e-07,-0.46986,0,0,0.2,-0,-2.1627e-16,0.66667
0.82268,0.39534,4.1134,-0.157,-1.6038,6.2316,1.7221,-0.57403,-1.9115,2.2961,-5.3553e-10,-0.95573,0,0,0.2,-0,-0,0.66667
0.083461,0.43763,0.4173,-0.093562,-3.0433,103.73,0.10412,-0.034706,-1.9695,0.13882,-2.8331e-08,-0.98476,0,0,0.2,-2.3685e-16,0,0.66667
0.65589,0.91258,3.2795,0.61887,11.639,20.467,-5.4121,1.804,-0.63944,-7.2162,-1.1124e-12,-0.31972,0,0,0.2,-0,1.5302e-16,0.66667
0.22539,0.92737,1.127,0.64106,20.182,79.874,-1.9265,0.64218,-0.53784,-2.5687,-2.3743e-11,-0.26892,0,0,0.2,-0,-0,0.66667
0.11796,0.88753,0.58978,0.5813,18.972,97.879,-0.91424,0.30475,-0.79738,-1.219,-2.9419e-10,-0.39869,0,0,0.2,-0,-0,0.66667
0.34868,0.49436,1.7434,-0.0084663,-0.24296,59.967,0.03936,-0.01312,-1.9995,0.05248,4.3674e-13,-0.99974,0,0,0.2,-1.6579e-15,0,0.66667
0.67717,0.62839,3.3858,0.19259,3.3709,17.844,-1.7388,0.57961,-1.8681,-2.3184,1.0327e-12,-0.93407,0,0,0.2,-0,-0,0.66667
0.55076,0.47968,2.7538,-0.030475,-0.68995,31.782,0.2238,-0.074599,-1.9961,0.29839,1.0025e-13,-0.99806,0,0,0.2,-0,-0,0.66667
0.043963,0.78433,0.21981,0.42649,14.021,110.58,-0.25,0.083332,-1.3539,-0.33333,2.5022e-08,-0.67696,0,0,0.2,-0,-0,0.66667
0.85675,0.0087876,4.2838,-0.73682,-6.5175,5.3049,8.417,-2.8057,-0.069661,11.223,1.7589e-10,-0.03483,0,0,0.2,-3.7896e-15,-1.9149e-16,0.66667
0.4776,0.76365,2.388,0.39548,10.009,41.43,-2.5184,0.83946,-1.4427,-3.3578,4.9516e-13,-0.72136,0,0,0.2,-9.4739e-16,0,0.66667
0.85678,0.40213,4.2839,-0.1468,-1.219,4.3112,1.677,-0.55902,-1.924,2.2361,-2.0248e-10,-0.96198,0,0,0.2,-9.4739e-16,0,0.66667
0.18765,0.18459,0.93827,-0.47311,-15.049,86.05,1.1837,-0.39458,-1.206,1.5783,6.3475e-10,-0.60299,0,0,0.2,-0,-0,0.66667
0.083733,0.59121,0.41867,0.13681,4.4513,103.68,-0.15275,0.050915,-1.9336,-0.20366,-1.2983e-08,-0.96678,0,0,0.2,5.9212e-17,0,0.66667
0.51597,0.75327,2.5798,0.37991,9.1274,36.342,-2.6136,0.8712,-1.4885,-3.4848,-5.6e-13,-0.74426,0,0,0.2,1.8948e-15,0,0.66667
0.45454,0.079215,2.2727,-0.63118,-16.585,44.837,3.8253,-1.2751,-0.58364,5.1004,-1.2745e-13,-0.29182,0,0,0.2,-9.4739e-16,0,0.66667
0.013894,0.80385,0.069472,0.45578,15.022,115.79,-0.084437,0.028146,-1.2617,-0.11258,-2.5495e-08,-0.63086,0,0,0.2,1.4803e-17,0,0.66667
0.039355,0.13732,0.19677,-0.54401,-17.955,111.39,0.28546,-0.095153,-0.94656,0.38061,-1.4685e-07,-0.47328,0,0,0.2,-5.9212e-17,0,0.66667
0.093633,0.42198,0.46816,-0.11702,-3.8,101.97,0.1461,-0.048699,-1.952,0.1948,-1.836e-10,-0.97602,0,0,0.2,-1.1842e-16,0,0.66667
0.040677,0.40013,0.20339,-0.14981,-4.9016,111.13,0.081253,-0.027084,-1.9197,0.10834,-1.7487e-07,-0.95984,0,0,0.2,-2.9606e-17,0,0.66667
0.17574,0.76862,0.8787,0.40294,12.849,88.025,-0.94415,0.31472,-1.4221,-1.2589,-7.4679e-10,-0.71103,0,0,0.2,-2.3685e-16,0,0.66667
0.57554,0.29493,2.8777,-0.3076,-6.7077,28.907,2.3605,-0.78682,-1.6633,3.1473,9.3192e-13,-0.83164,0,0,0.2,9.4739e-16,0,0.66667
0.47675,0.54357,2.3838,0.065361,1.6456,41.383,-0.41548,0.13849,-1.9836,-0.55397,1.9637e-13,-0.99182,0,0,0.2,-0,-0,0.66667
0.97977,0.095186,4.8988,-0.60722,-0.68864,1.0139,7.9325,-2.6442,-0.68951,10.577,1.1164e-06,-0.34475,0,0,0.2,-3.7896e-15,0,0.66667
0.070737,0.36442,0.35369,-0.20337,-6.635,105.93,0.19181,-0.063936,-1.8519,0.25574,1.6413e-08,-0.92594,0,0,0.2,-0,-0,0.66667
0.86742,0.45709,4.3371,-0.06437,-0.49397,3.7474,0.74448,-0.24816,-1.9841,0.99264,1.9486e-09,-0.99207,0,0,0.2,-9.4739e-16,0,0.66667
0.57852,0.75118,2.8926,0.37678,8.1915,28.616,-2.9063,0.96876,-1.4973,-3.8751,-1.2745e-12,-0.74865,0,0,0.2,-0,-0,0.66667
0.87648,0.76618,4.3824,0.39927,2.918,3.6238,-4.666,1.5553,-1.4333,-6.2214,2.8243e-09,-0.71664,0,0,0.2,-1.8948e-15,0,0.66667
0.055714,0.13538,0.27857,-0.54694,-18.025,108.56,0.40629,-0.13543,-0.93537,0.54172,1.1355e-07,-0.46768,0,0,0.2,-0,-0,0.66667
0.099154,0.065607,0.49577,-0.65159,-21.413,101.11,0.86143,-0.28714,-0.49047,1.1486,-2.7846e-08,-0.24523,0,0,0.2,-0,-0,0.66667
0.86309,0.33672,4.3155,-0.24493,-1.9548,4.0661,2.8186,-0.93953,-1.7865,3.7581,-1.4271e-10,-0.89327,0,0,0.2,1.4211e-15,0,0.66667
0.57038,0.17495,2.8519,-0.48757,-10.801,29.701,3.708,-1.236,-1.1536,4.9441,7.5184e-13,-0.57679,0,0,0.2,9.4739e-16,0,0.66667
0.55849,0.65161,2.7925,0.22742,5.0957,30.898,-1.6935,0.56451,-1.8162,-2.258,-7.5784e-13,-0.90809,0,0,0.2,-2.3685e-16,0,0.66667
0.013013,0.89615,0.065063,0.59422,19.675,115.94,-0.1031,0.034366,-0.7444,-0.13747,-4.604e-07,-0.3722,0,0,0.2,-0,-0,0.66667
0.64225,0.11172,3.2113,-0.58241,-11.271,21.805,4.9874,-1.6625,-0.794,6.6499,1.4304e-12,-0.397,0,0,0.2,9.4739e-16,0,0.66667
0.84766,0.59015,4.2383,0.13523,1.1924,4.7848,-1.5284,0.50947,-1.9353,-2.0379,2.0383e-09,-0.96763,0,0,0.2,1.1842e-15,0,0.66667
0.99613,0.38683,4.9806,-0.16975,0.050192,0.09373,2.2545,-0.75151,-1.8969,3.0061,-1.3264e-07,-0.94846,0,0,0.2,-0,-0,0.66667
0.43295,0.31054,2.1648,-0.28419,-7.5553,47.555,1.6405,-0.54685,-1.7133,2.1874,-1.1822e-12,-0.85663,0,0,0.2,1.1842e-16,0,0.66667
0.31141,0.19017,1.557,-0.46475,-13.822,65.914,1.9297,-0.64323,-1.2335,2.5729,5.6988e-13,-0.61673,0,0,0.2,-9.4739e-16,0,0.66667
0.40477,0.16796,2.0239,-0.49806,-13.72,51.773,2.688,-0.896,-1.1182,3.584,-1.5017e-12,-0.5591,0,0,0.2,-9.4739e-16,0,0.66667
0.22803,0.4193,1.1401,-0.12104,-3.7562,79.241,0.36801,-0.12267,-1.9468,0.49068,9.8201e-11,-0.97339,0,0,0.2,-0,-0,0.66667
0.2261,0.81613,1.1305,0.4742,14.832,79.665,-1.4295,0.47651,-1.2003,-1.906,-1.0646e-10,-0.60013,0,0,0.2,-4.737e-16,0,0.66667
0.43364,0.22349,2.1682,-0.41477,-11.058,47.545,2.3982,-0.79939,-1.3884,3.1976,-1.3891e-12,-0.69421,0,0,0.2,-0,-0,0.66667
0.68454,0.32333,3.4227,-0.265,-4.5588,17.183,2.4187,-0.80624,-1.75,3.225,-2.5357e-12,-0.875,0,0,0.2,-0,-0,0.66667
0.66074,0.85717,3.3037,0.53576,9.909,19.838,-4.72,1.5733,-0.97857,-6.2933,-2.188e-12,-0.48928,0,0,0.2,-0,-0,0.66667
0.77249,0.27764,3.8625,-0.33354,-4.3274,9.7751,3.4355,-1.1452,-1.6042,4.5806,-1.7351e-10,-0.80212,0,0,0.2,-1.1842e-15,0,0.66667
0.21681,0.25066,1.0841,-0.37401,-11.717,81.157,1.0812,-0.3604,-1.5041,1.4416,2.5314e-10,-0.75205,0,0,0.2,-0,-0,0.66667
0.72871,0.40707,3.6435,-0.1394,-2.1007,13.111,1.3544,-0.45146,-1.9314,1.8058,-2.7415e-11,-0.96568,0,0,0.2,1.8948e-15,0,0.66667
0.79525,0.59001,3.9763,0.13502,1.5781,7.9925,-1.4317,0.47722,-1.9362,-1.9089,1.692e-10,-0.9681,0,0,0.2,-4.737e-16,0,0.66667
0.56181,0.50053,2.8091,0.00080059,0.017795,30.431,-0.0059971,0.001999,-2.002,-0.0079961,-1.4081e-12,-1.001,0,0,0.2,3.7896e-15,0,0.66667
0.46567,0.96338,2.3284,0.69507,18.088,43.394,-4.3157,1.4386,-0.28245,-5.7542,-1.5277e-13,-0.14122,0,0,0.2,-0,1.3478e-16,0.66667
0.1582,0.082714,0.791,-0.62593,-20.231,91.065,1.3203,-0.4401,-0.60703,1.7604,-3.6524e-10,-0.30351,0,0,0.2,2.3685e-16,0,0.66667
0.046453,0.33579,0.23226,-0.24631,-8.0644,110.14,0.15256,-0.050852,-1.7853,0.20341,-1.429e-08,-0.89264,0,0,0.2,-0,-0,0.66667
0.46383,0.13498,2.3192,-0.54753,-14.175,43.456,3.3862,-1.1287,-0.93334,4.5149,-2.7112e-13,-0.46667,0,0,0.2,-0,-0,0.66667
0.6543,0.80689,3.2715,0.46033,8.6078,20.379,-4.0159,1.3386,-1.2472,-5.3546,-2.5793e-12,-0.62359,0,0,0.2,-5.5997e-16,0,0.66667
0.21255,0.23422,1.0627,-0.39868,-12.522,81.873,1.1298,-0.37661,-1.4337,1.5064,2.4282e-10,-0.71686,0,0,0.2,-4.737e-16,0,0.66667
0.39995,0.31306,1.9997,-0.28042,-7.7113,52.327,1.4954,-0.49846,-1.7208,1.9938,-1.7836e-12,-0.86042,0,0,0.2,9.4739e-16,0,0.66667
0.49764,0.13385,2.4882,-0.54923,-13.625,38.91,3.6442,-1.2147,-0.92753,4.8589,-1.0614e-13,-0.46377,0,0,0.2,-0,-0,0.66667
0.9549,0.56247,4.7745,0.093712,0.22157,0.6719,-1.1932,0.39772,-1.9704,-1.5909,4.8374e-07,-0.98522,0,0,0.2,-2.213e-15,0,0.66667
0.87745,0.93564,4.3872,0.65347,4.9201,4.1017,-7.6451,2.5484,-0.48276,-10.193,3.2849e-08,-0.24138,0,0,0.2,1.1842e-15,0,0.66667
0.87405,0.9128,4.3702,0.61921,4.7569,4.1698,-7.2162,2.4054,-0.63764,-9.6216,-7.3665e-09,-0.31882,0,0,0.2,-0,-0,0.66667
0.9966,0.1661,4.983,-0.50086,0.048552,0.58158,6.6554,-2.2185,-1.1077,8.8738,-2.8965e-07,-0.55385,0,0,0.2,1.8948e-15,-2.0445e-16,0.66667
0.77345,0.46386,3.8673,-0.054206,-0.69449,9.5177,0.55901,-0.18634,-1.9891,0.74535,-3.4611e-11,-0.99456,0,0,0.2,-9.4739e-16,0,0.66667
0.20306,0.40338,1.0153,-0.14493,-4.5505,83.387,0.3924,-0.1308,-1.9272,0.5232,1.64e-10,-0.9636,0,0,0.2,5.9212e-17,0,0.66667
0.83989,0.6164,4.1994,0.1746,1.6182,5.2357,-1.9553,0.65177,-1.8912,-2.6071,5.3027e-10,-0.94561,0,0,0.2,-9.4739e-16,0,0.66667
0.16625,0.80773,0.83124,0.4616,14.794,89.643,-1.0232,0.34106,-1.2422,-1.3643,-4.2965e-10,-0.62108,0,0,0.2,-0,-0,0.66667
0.88909,0.90186,4.4454,0.6028,4.0855,3.478,-7.1458,2.3819,-0.70899,-9.5278,1.7502e-08,-0.35449,0,0,0.2,-9.4739e-16,0,0.66667
0.33858,0.2391,1.6929,-0.39135,-11.383,61.638,1.7667,-0.5889,-1.4546,2.3556,-2.9965e-12,-0.72729,0,0,0.2,4.737e-16,0,0.66667
0.28794,0.9023,1.4397,0.60344,18.323,69.723,-2.3168,0.77226,-0.70501,-3.089,-3.8369e-13,-0.3525,0,0,0.2,-1.1842e-16,0,0.66667
0.60622,0.68511,3.0311,0.27767,5.7144,25.344,-2.2444,0.74814,-1.7266,-2.9925,-1.9862e-12,-0.86328,0,0,0.2,-1.0658e-15,0,0.66667
0.060612,0.36258,0.30306,-0.20613,-6.7345,107.68,0.16658,-0.055528,-1.8489,0.22211,-2.1231e-08,-0.92446,0,0,0.2,-5.9212e-17,0,0.66667
0.90709,0.46791,4.5354,-0.048132,-0.25632,2.057,0.58213,-0.19404,-1.9937,0.77617,-7.0406e-08,-0.99683,0,0,0.2,-0,-0,0.66667
0.38107,0.19756,1.9054,-0.45366,-12.758,55.232,2.305,-0.76834,-1.2673,3.0734,-2.3062e-12,-0.63365,0,0,0.2,9.4739e-16,0,0.66667
0.78998,0.8593,3.9499,0.53894,6.6014,8.8341,-5.6767,1.8922,-0.96603,-7.569,1.5622e-10,-0.48302,0,0,0.2,-0,-0,0.66667
0.71055,0.77097,3.5527,0.40645,6.5406,14.928,-3.8507,1.2836,-1.4116,-5.1343,1.079e-11,-0.70579,0,0,0.2,-0,-0,0.66667
0.70415,0.27606,3.5207,-0.3359,-5.4885,15.422,3.1537,-1.0512,-1.5999,4.2049,-9.9505e-12,-0.79994,0,0,0.2,1.4211e-15,0,0.66667
0.53263,0.1956,2.6631,-0.45659,-10.734,34.292,3.2426,-1.0809,-1.2593,4.3235,6.9544e-13,-0.62964,0,0,0.2,-0,-0,0.66667
0.46668,0.88395,2.3334,0.57593,14.879,43.1,-3.5836,1.1945,-0.82081,-4.7782,-9.1926e-14,-0.41041,0,0,0.2,-0,-0,0.66667
0.6454,0.052621,3.227,-0.67107,-12.973,21.638,5.7748,-1.9249,-0.3981,7.6997,6.7812e-13,-0.19905,0,0,0.2,-9.4739e-16,0,0.66667
0.69158,0.00065314,3.4579,-0.74902,-13.025,17.271,6.9067,-2.3022,-0.0060081,9.209,-6.0796e-13,-0.003004,0,0,0.2,-0,-0,0.66667
0.23582,0.80525,1.1791,0.45787,14.246,78.059,-1.4397,0.47989,-1.2552,-1.9195,-8.9142e-11,-0.62759,0,0,0.2,2.3685e-16,0,0.66667
0.75381,0.46888,3.769,-0.046674,-0.64464,11.02,0.46911,-0.15637,-1.9932,0.62548,-3.4105e-11,-0.99661,0,0,0.2,-0,-0,0.66667
0.93662,0.86543,4.6831,0.54814,2.0938,1.7298,-6.8453,2.2818,-0.9323,-9.1271,4.3304e-08,-0.46615,0,0,0.2,-9.4739e-16,-2.2351e-16,0.66667
0.8151,0.45436,4.0755,-0.068458,-0.72625,6.6651,0.744,-0.248,-1.983,0.992,-1.9981e-10,-0.9915,0,0,0.2,-0,-0,0.66667
0.73061,0.045553,3.653,-0.68167,-10.524,13.672,6.6405,-2.2135,-0.34714,8.854,-9.7344e-13,-0.17357,0,0,0.2,9.4739e-16,0,0.66667
0.82171,0.12038,4.1086,-0.56942,-6.0241,6.8379,6.2387,-2.0796,-0.8468,8.3182,-5.9967e-10,-0.4234,0,0,0.2,4.737e-16,0,0.66667
0.0069549,0.31145,0.034775,-0.28282,-9.2855,116.99,0.026227,-0.0087423,-1.7159,0.034969,8.479e-09,-0.85793,0,0,0.2,1.5728e-17,0,0.66667
0.17482,0.55718,0.87412,0.085764,2.7221,88.118,-0.19991,0.066638,-1.9741,-0.26655,-3.7693e-10,-0.98707,0,0,0.2,-0,-0,0.66667
0.34198,0.2631,1.7099,-0.35535,-10.299,61.093,1.6203,-0.5401,-1.551,2.1604,-2.3859e-12,-0.77552,0,0,0.2,-0,-0,0.66667
0.73352,0.46297,3.6676,-0.055542,-0.82302,12.677,0.54321,-0.18107,-1.9901,0.72428,-1.3158e-11,-0.99504,0,0,0.2,1.4211e-15,0,0.66667
0.97837,0.14085,4.8919,-0.53873,-0.61621,0.86159,7.0277,-2.3426,-0.96694,9.3703,8.6432e-08,-0.48347,0,0,0.2,-0,-0,0.66667
0.73288,0.21193,3.6644,-0.43211,-6.4989,13.03,4.2225,-1.4075,-1.3367,5.6299,-3.0868e-11,-0.66837,0,0,0.2,-0,-0,0.66667
0.47899,0.50457,2.395,0.006852,0.17199,41.075,-0.04376,0.014587,-1.9996,-0.058347,-6.3779e-13,-0.99982,0,0,0.2,-0,-0,0.66667
0.92105,0.61173,4.6053,0.1676,0.75442,1.6282,-2.0583,0.68609,-1.9005,-2.7443,3.1348e-09,-0.95027,0,0,0.2,-0,-0,0.66667
0.3777,0.35179,1.8885,-0.22231,-6.2349,55.604,1.1195,-0.37318,-1.8243,1.4927,-2.3679e-12,-0.91215,0,0,0.2,-0,-0,0.66667
0.64169,0.93411,3.2085,0.65117,12.674,21.985,-5.5713,1.8571,-0.49369,-7.4284,-4.1966e-13,-0.24684,0,0,0.2,-1.1842e-15,0,0.66667
0.0015045,0.80301,0.0075224,0.45452,14.983,117.93,-0.0091175,0.0030391,-1.2658,-0.012157,-7.3863e-08,-0.6329,0,0,0.2,-0,4.0057e-16,0.66667
0.17936,0.05775,0.8968,-0.66338,-21.317,87.527,1.5864,-0.52881,-0.4349,2.1152,3.2388e-10,-0.21745,0,0,0.2,-3.5527e-16,0,0.66667
0.29484,0.44,1.4742,-0.089995,-2.6873,68.395,0.35379,-0.11793,-1.9723,0.47172,7.3297e-12,-0.98614,0,0,0.2,-0,-0,0.66667
0.38699,0.65195,1.9349,0.22793,6.3392,54.219,-1.1761,0.39203,-1.8155,-1.5681,1.7416e-12,-0.90776,0,0,0.2,4.737e-16,0,0.66667
0.45982,0.095491,2.2991,-0.60676,-15.827,44.078,3.72,-1.24,-0.69112,4.96,-1.6787e-13,-0.34556,0,0,0.2,-0,-0,0.66667
0.79672,0.59366,3.9836,0.14049,1.6313,7.8954,-1.4924,0.49746,-1.9322,-1.9898,1.4302e-10,-0.96611,0,0,0.2,8.8818e-17,0,0.66667
0.27985,0.23424,1.3992,-0.39865,-12.081,70.888,1.4875,-0.49582,-1.4351,1.9833,1.8301e-11,-0.71754,0,0,0.2,-0,-0,0.66667
0.082662,0.06807,0.41331,-0.6479,-21.353,103.94,0.71408,-0.23803,-0.50731,0.95211,5.8458e-08,-0.25365,0,0,0.2,-2.3685e-16,0,0.66667
0.52137,0.56691,2.6069,0.10036,2.3786,35.491,-0.69769,0.23256,-1.964,-0.93026,-3.8747e-13,-0.98198,0,0,0.2,-0,-0,0.66667
0.98115,0.53115,4.9058,0.046732,0.031012,0.19711,-0.61135,0.20378,-1.9934,-0.81513,-1.0485e-06,-0.99669,0,0,0.2,1.0066e-15,0,0.66667
0.40076,0.89873,2.0038,0.59809,16.607,52.457,-3.1959,1.0653,-0.72752,-4.2612,8.1735e-13,-0.36376,0,0,0.2,-7.1054e-16,0,0.66667
0.25719,0.32695,1.286,-0.25957,-7.9468,74.491,0.89013,-0.29671,-1.7592,1.1868,6.1882e-11,-0.8796,0,0,0.2,-0,-0,0.66667
0.77634,0.79751,3.8817,0.44627,5.7418,9.6435,-4.6194,1.5398,-1.2909,-6.1592,1.4543e-10,-0.64546,0,0,0.2,-0,-0,0.66667
0.61558,0.36792,3.0779,-0.19812,-3.9939,24.25,1.6261,-0.54204,-1.8598,2.1682,1.6362e-12,-0.92989,0,0,0.2,9.4739e-16,0,0.66667
0.0075483,0.74472,0.037742,0.36707,12.072,116.89,-0.036944,0.012315,-1.5204,-0.049259,-3.0569e-08,-0.76021,0,0,0.2,-1.4803e-17,0,0.66667
0.98621,0.73741,4.931,0.35612,0.16435,0.40721,-4.6827,1.5609,-1.5491,-6.2436,2.0456e-08,-0.77455,0,0,0.2,-0,-0,0.66667
0.48892,0.69282,2.4446,0.28922,7.1926,39.829,-1.8854,0.62848,-1.7024,-2.5139,4.2399e-13,-0.85121,0,0,0.2,-0,-0,0.66667
0.30402,0.41774,1.5201,-0.12339,-3.6627,66.942,0.50016,-0.16672,-1.9448,0.66688,4.8471e-12,-0.97238,0,0,0.2,4.737e-16,0,0.66667
0.66508,0.70055,3.3254,0.30082,5.4447,19.114,-2.6676,0.88919,-1.6771,-3.5568,-1.5261e-12,-0.83854,0,0,0.2,-9.4739e-16,0,0.66667
0.28556,0.65862,1.4278,0.23793,7.1595,69.908,-0.90593,0.30198,-1.7991,-1.2079,-1.8973e-11,-0.89955,0,0,0.2,-9.4739e-16,0,0.66667
0.46354,0.45538,2.3177,-0.066924,-1.7127,43.192,0.41363,-0.13788,-1.9831,0.55151,-2.5854e-13,-0.99154,0,0,0.2,-0,-0,0.66667
0.65182,0.80568,3.2591,0.45852,8.6227,20.631,-3.9849,1.3283,-1.2522,-5.3133,-2.7665e-12,-0.62608,0,0,0.2,-0,-0,0.66667
0.12188,0.20821,0.60941,-0.43769,-14.205,97.17,0.71129,-0.2371,-1.3185,0.94839,3.5153e-09,-0.65926,0,0,0.2,-0,-0,0.66667
0.46722,0.709,2.3361,0.3135,8.0178,42.783,-1.953,0.65099,-1.6509,-2.604,4.7662e-13,-0.82543,0,0,0.2,-4.737e-16,0,0.66667
0.73521,0.73287,3.676,0.3493,5.1902,12.729,-3.4241,1.1414,-1.5666,-4.5655,4.3875e-11,-0.78329,0,0,0.2,-0,-0,0.66667
0.96052,0.8993,4.8026,0.59895,1.4188,1.3018,-7.6707,2.5569,-0.72376,-10.228,5.8557e-07,-0.36188,0,0,0.2,-0,-0,0.66667
0.021389,0.63735,0.10695,0.20602,6.7531,114.48,-0.058755,0.019585,-1.8481,-0.078341,5.8743e-08,-0.92403,0,0,0.2,-0,-0,0.66667
0.83248,0.66735,4.1624,0.25102,2.4386,5.7192,-2.7863,0.92875,-1.7753,-3.715,6.2554e-10,-0.88763,0,0,0.2,-0,-0,0.66667
0.93915,0.50438,4.6957,0.00657,0.022006,1.0358,-0.082269,0.027422,-2.0008,-0.10969,-9.2757e-07,-1.0004,0,0,0.2,-0,-0,0.66667
0.98582,0.81944,4.9291,0.47916,0.28439,0.63679,-6.2982,2.0994,-1.1843,-8.3976,2.0608e-09,-0.59215,0,0,0.2,-0,-0,0.66667
0.93783,0.14503,4.6892,-0.53245,-1.9841,1.662,6.658,-2.2193,-0.99274,8.8773,-5.8998e-09,-0.49637,0,0,0.2,9.4739e-16,0,0.66667
0.12925,0.31695,0.64626,-0.27458,-8.8611,95.879,0.4732,-0.15773,-1.732,0.63093,1.4563e-09,-0.86599,0,0,0.2,4.737e-16,0,0.66667
0.88602,0.45458,4.4301,-0.068132,-0.44879,2.8995,0.80489,-0.2683,-1.9826,1.0732,-3.0965e-09,-0.9913,0,0,0.2,-1.8948e-15,0,0.66667
0.15286,0.39646,0.76431,-0.15531,-4.9693,91.841,0.31655,-0.10552,-1.9139,0.42207,1.4795e-09,-0.95694,0,0,0.2,-1.1842e-16,0,0.66667
0.36052,0.3097,1.8026,-0.28545,-8.136,58.223,1.3721,-0.45738,-1.7117,1.8295,-2.5169e-12,-0.85583,0,0,0.2,-2.3685e-16,0,0.66667
0.36116,0.066237,1.8058,-0.65064,-18.765,58.399,3.1332,-1.0444,-0.49575,4.1776,-2.2404e-13,-0.24788,0,0,0.2,-0,-0,0.66667
0.27979,0.66117,1.3989,0.24175,7.3011,70.835,-0.90184,0.30061,-1.7931,-1.2025,-2.5513e-11,-0.89655,0,0,0.2,-0,-0,0.66667
0.3548,0.85379,1.774,0.53068,15.308,59.251,-2.5105,0.83684,-0.99799,-3.3474,2.1101e-12,-0.499,0,0,0.2,-0,-0,0.66667
0.543,0.856,2.715,0.53399,12.398,33.087,-3.8661,1.2887,-0.98548,-5.1548,-3.2929e-13,-0.49274,0,0,0.2,9.4739e-16,0,0.66667
0.078517,0.23343,0.39259,-0.39986,-13.079,104.61,0.41861,-0.13954,-1.4321,0.55815,1.3671e-09,-0.71605,0,0,0.2,-0,-0,0.66667
0.37287,0.14908,1.8643,-0.52638,-14.951,56.518,2.6169,-0.87231,-1.0152,3.4893,-2.0541e-12,-0.50759,0,0,0.2,4.737e-16,0,0.66667
0.58322,0.82772,2.9161,0.49158,10.649,28.194,-3.8227,1.2742,-1.1398,-5.0969,-1.0587e-12,-0.56989,0,0,0.2,-0,-0,0.66667
0.13425,0.012047,0.67125,-0.73193,-23.938,95.163,1.3101,-0.43672,-0.094129,1.7469,-5.3583e-09,-0.047064,0,0,0.2,-0,-0,0.66667
0.24299,0.89676,1.2149,0.59514,18.538,76.964,-1.9281,0.64272,-0.7397,-2.5709,-2.0487e-11,-0.36985,0,0,0.2,2.3685e-16,0,0.66667
0.31278,0.075172,1.5639,-0.63724,-19.06,65.831,2.6575,-0.88585,-0.55688,3.5434,-1.0367e-12,-0.27844,0,0,0.2,-4.737e-16,0,0.66667
0.074534,0.26455,0.37267,-0.35318,-11.547,105.29,0.35098,-0.11699,-1.5559,0.46797,-3.6236e-09,-0.77793,0,0,0.2,1.1842e-16,0,0.66667
0.80769,0.34351,4.0385,-0.23473,-2.5965,7.2298,2.5279,-0.84263,-1.8048,3.3705,-4.1974e-10,-0.9024,0,0,0.2,8.8818e-16,0,0.66667
0.2634,0.12764,1.317,-0.55854,-17.181,73.627,1.9616,-0.65385,-0.89177,2.6154,9.0565e-12,-0.44588,0,0,0.2,-0,-1.9849e-16,0.66667
0.4106,0.45806,2.053,-0.062905,-1.7069,50.702,0.34439,-0.1148,-1.9853,0.45918,-9.0356e-13,-0.99263,0,0,0.2,-0,-0,0.66667
0.40541,0.83519,2.0271,0.50278,13.843,51.684,-2.7178,0.90594,-1.1019,-3.6237,9.3325e-13,-0.55095,0,0,0.2,-4.737e-16,0,0.66667
0.30474,0.99385,1.5237,0.74077,22.389,67.19,-3.0098,1.0033,-0.048311,-4.0131,3.4217e-13,-0.024155,0,0,0.2,1.6579e-15,0,0.66667
0.12774,0.27162,0.63869,-0.34257,-11.075,96.149,0.58346,-0.19449,-1.5826,0.77795,2.0965e-09,-0.7913,0,0,0.2,-0,-0,0.66667
0.89356,0.27205,4.4678,-0.34193,-2.1392,2.8074,4.0738,-1.3579,-1.5841,5.4318,-2.024e-09,-0.79206,0,0,0.2,9.4739e-16,0,0.66667
0.68139,0.3169,3.407,-0.27465,-4.7655,17.492,2.4952,-0.83174,-1.7315,3.327,-1.289e-12,-0.86577,0,0,0.2,-1.8948e-15,0,0.66667
0.26689,0.1912,1.3345,-0.46321,-14.173,73.005,1.6483,-0.54945,-1.2383,2.1978,2.3538e-11,-0.61915,0,0,0.2,9.4739e-16,0,0.66667
0.092431,0.84151,0.46215,0.51226,16.77,102.23,-0.63132,0.21044,-1.0684,-0.84176,9.7216e-09,-0.53419,0,0,0.2,2.7365e-17,0,0.66667
0.1235,0.73021,0.61748,0.34532,11.176,96.875,-0.5686,0.18953,-1.5762,-0.75813,-2.5689e-09,-0.78811,0,0,0.2,-0,-0,0.66667
0.27644,0.3347,1.3822,-0.24795,-7.5045,71.375,0.91389,-0.30463,-1.7808,1.2185,2.9125e-11,-0.89038,0,0,0.2,2.3685e-16,0,0.66667
0.049043,0.94023,0.24522,0.66035,21.872,109.73,-0.43181,0.14394,-0.45053,-0.57575,1.0912e-07,-0.22526,0,0,0.2,1.1842e-16,0,0.66667
0.14515,0.37122,0.72573,-0.19317,-6.198,93.157,0.37383,-0.12461,-1.8674,0.49844,4.6934e-10,-0.93371,0,0,0.2,-3.5527e-16,0,0.66667
0.47503,0.7379,2.3751,0.35685,9.0498,41.748,-2.2602,0.75339,-1.5462,-3.0136,3.4128e-13,-0.77308,0,0,0.2,-0,-0,0.66667
0.93598,0.14027,4.6799,-0.5396,-2.0775,1.7276,6.7341,-2.2447,-0.96481,8.9787,-1.3954e-08,-0.4824,0,0,0.2,-0,6.1959e-17,0.66667
0.43407,0.47495,2.1703,-0.037572,-0.99457,47.32,0.21745,-0.072484,-1.995,0.28994,-6.0346e-13,-0.9975,0,0,0.2,-0,-0,0.66667
0.70914,0.71212,3.5457,0.31818,5.1202,14.953,-3.0084,1.0028,-1.6395,-4.0112,1.3732e-11,-0.81974,0,0,0.2,4.737e-16,0,0.66667
0.57031,0.50896,2.8515,0.01344,0.29446,29.409,-0.1022,0.034067,-1.9984,-0.13627,-3.6198e-13,-0.99921,0,0,0.2,-0,-0,0.66667
0.97624,0.55261,4.8812,0.078916,0.077975,0.27509,-1.0272,0.34241,-1.9768,-1.3696,2.5398e-07,-0.98842,0,0,0.2,-0,-0,0.66667
0.17821,0.58353,0.89106,0.1253,3.9729,87.551,-0.29772,0.099241,-1.9432,-0.39697,-3.7105e-10,-0.9716,0,0,0.2,-2.3685e-16,0,0.66667
0.73911,0.70115,3.6955,0.30173,4.4158,12.355,-2.9734,0.99114,-1.6754,-3.9646,5.5298e-11,-0.8377,0,0,0.2,-0,-0,0.66667
0.35041,0.64576,1.752,0.21864,6.2764,59.739,-1.0215,0.3405,-1.829,-1.362,1.6895e-12,-0.91451,0,0,0.2,-4.737e-16,0,0.66667
0.99121,0.38334,4.9561,-0.17499,-0.0055527,0.14253,2.3127,-0.77092,-1.8903,3.0837,5.6647e-09,-0.94514,0,0,0.2,-0,-0,0.66667
0.35281,0.13027,1.7641,-0.55459,-16.039,59.574,2.6089,-0.86962,-0.90598,3.4785,-1.3956e-12,-0.45299,0,0,0.2,9.4739e-16,0,0.66667
0.97878,0.15083,4.8939,-0.52375,-0.57643,0.82145,6.8352,-2.2784,-1.0243,9.1136,1.6635e-07,-0.51215,0,0,0.2,-1.8948e-15,0,0.66667
0.86037,0.64047,4.3019,0.2107,1.7112,4.172,-2.4171,0.80569,-1.8425,-3.2227,1.1351e-09,-0.92123,0,0,0.2,-0,-0,0.66667
0.59774,0.91003,2.9887,0.61505,13.059,26.705,-4.9018,1.6339,-0.6552,-6.5358,-7.8204e-13,-0.3276,0,0,0.2,1.8948e-15,0,0.66667
0.027448,0.32369,0.13724,-0.26446,-8.6736,113.43,0.096785,-0.032262,-1.7508,0.12905,1.5107e-09,-0.87538,0,0,0.2,-0,-0,0.66667
0.18553,0.038911,0.92766,-0.69163,-22.201,86.51,1.7109,-0.57031,-0.29951,2.2812,1.8118e-10,-0.14975,0,0,0.2,-0,-1.7532e-16,0.66667
0.056512,0.027569,0.28256,-0.70865,-23.502,108.45,0.53396,-0.17799,-0.21433,0.71194,-2.0312e-06,-0.10716,0,0,0.2,-0,-0,0.66667
0.79246,0.66157,3.9623,0.24235,2.8786,8.2556,-2.5607,0.85358,-1.791,-3.4143,3.1096e-10,-0.89552,0,0,0.2,-1.8948e-15,0,0.66667
0.073951,0.96627,0.36976,0.69941,23.133,105.45,-0.68962,0.22987,-0.26114,-0.9195,-8.5414e-07,-0.13057,0,0,0.2,-4.4409e-17,2.0075e-16,0.66667
0.78646,0.98878,3.9323,0.73317,9.304,9.511,-7.6881,2.5627,-0.087885,-10.251,9.3025e-11,-0.043943,0,0,0.2,-9.4739e-16,0,0.66667
0.027952,0.91755,0.13976,0.62633,20.751,113.36,-0.23343,0.077809,-0.60477,-0.31123,7.1065e-07,-0.30238,0,0,0.2,-0,-0,0.66667
0.25521,0.65201,1.276,0.22802,6.9849,74.805,-0.77589,0.25863,-1.815,-1.0345,-6.4628e-11,-0.90751,0,0,0.2,-0,-0,0.66667
0.29758,0.77834,1.4879,0.41751,12.517,68.069,-1.6566,0.5522,-1.3818,-2.2088,-6.3082e-12,-0.69088,0,0,0.2,5.9212e-16,0,0.66667
0.56461,0.38915,2.823,-0.16628,-3.6835,30.128,1.2518,-0.41726,-1.9015,1.669,8.9517e-13,-0.95077,0,0,0.2,-0,-0,0.66667
0.56206,0.93534,2.8103,0.653,14.798,30.933,-4.8937,1.6312,-0.4857,-6.5249,9.1038e-14,-0.24285,0,0,0.2,1.1842e-16,6.1084e-17,0.66667
0.8874,0.7612,4.437,0.3918,2.6093,3.1341,-4.6358,1.5453,-1.4538,-6.1811,3.1557e-09,-0.72689,0,0,0.2,-0,-0,0.66667
0.63738,0.98187,3.1869,0.7228,14.275,22.575,-6.1426,2.0475,-0.14193,-8.1901,6.7502e-14,-0.070967,0,0,0.2,-0,-0,0.66667
0.16146,0.39915,0.80731,-0.15127,-4.8263,90.382,0.32566,-0.10855,-1.9181,0.43422,2.716e-10,-0.95906,0,0,0.2,-2.2819e-17,0,0.66667
0.026995,0.37125,0.13497,-0.19313,-6.3278,113.51,0.069513,-0.023171,-1.8675,0.092684,-8.0851e-08,-0.93377,0,0,0.2,2.9606e-17,0,0.66667
0.76198,0.9189,3.8099,0.62835,8.6747,11.047,-6.3839,2.128,-0.59557,-8.5119,1.6569e-11,-0.29778,0,0,0.2,-0,3.8819e-17,0.66667
0.53557,0.25423,2.6778,-0.36866,-8.6007,33.835,2.6326,-0.87752,-1.5168,3.5101,7.8204e-13,-0.75842,0,0,0.2,-0,-0,0.66667
0.57863,0.89551,2.8931,0.59327,13.025,28.873,-4.5771,1.5257,-0.74926,-6.1028,-4.4187e-13,-0.37463,0,0,0.2,-4.737e-16,0,0.66667
0.41411,0.023823,2.0705,-0.71427,-19.687,50.658,3.9437,-1.3146,-0.18526,5.2583,2.1472e-13,-0.092632,0,0,0.2,-0,-0,0.66667
0.58982,0.11237,2.9491,-0.58144,-12.504,27.556,4.5726,-1.5242,-0.79727,6.0968,8.0735e-13,-0.39864,0,0,0.2,-9.4739e-16,0,0.66667
0.40563,0.5458,2.0282,0.068703,1.8736,51.428,-0.37158,0.12386,-1.9837,-0.49544,1.4463e-13,-0.99185,0,0,0.2,-0,-0,0.66667
0.44569,0.43046,2.2285,-0.10431,-2.7267,45.685,0.61987,-0.20662,-1.9606,0.8265,-1.1374e-12,-0.98029,0,0,0.2,4.737e-16,0,0.66667
0.59274,0.62907,2.9637,0.19361,4.0808,26.825,-1.5301,0.51005,-1.8679,-2.0402,-1.4305e-12,-0.93397,0,0,0.2,-0,-0,0.66667
0.49234,0.31065,2.4617,-0.28402,-7.0305,39.368,1.8645,-0.62149,-1.7133,2.486,-2.679e-13,-0.85663,0,0,0.2,1.3027e-15,0,0.66667
0.059103,0.71322,0.29552,0.31983,10.471,107.95,-0.25204,0.084014,-1.6364,-0.33606,9.5176e-09,-0.8182,0,0,0.2,2.9606e-17,0,0.66667
0.97679,0.42932,4.8839,-0.10602,-0.10153,0.2779,1.3808,-0.46026,-1.9592,1.8411,6.199e-07,-0.97959,0,0,0.2,-0,-0,0.66667
0.85514,0.54424,4.2757,0.066367,0.5561,4.3631,-0.75671,0.25224,-1.9836,-1.0089,6.721e-10,-0.99178,0,0,0.2,-0,-0,0.66667
0.37909,0.50191,1.8954,0.0028618,0.080013,55.355,-0.014465,0.0048216,-2.0005,-0.019287,-6.4477e-13,-1.0003,0,0,0.2,-1.8948e-15,0,0.66667
0.54652,0.047108,2.7326,-0.67934,-15.81,32.865,4.9503,-1.6501,-0.35972,6.6004,4.3743e-13,-0.17986,0,0,0.2,-9.4739e-16,0,0.66667
0.93287,0.63826,4.6644,0.20739,0.78521,1.2988,-2.5796,0.85987,-1.8462,-3.4395,7.3637e-09,-0.9231,0,0,0.2,-0,-0,0.66667
0.39797,0.71966,1.9898,0.32949,9.0884,52.646,-1.7483,0.58277,-1.6143,-2.3311,1.776e-12,-0.80714,0,0,0.2,-0,-0,0.66667
0.94477,0.71087,4.7239,0.3163,0.98072,1.1002,-3.9844,1.3281,-1.6435,-5.3126,-1.2181e-08,-0.82173,0,0,0.2,-9.4739e-16,0,0.66667
0.030486,0.42722,0.15243,-0.10918,-3.5735,112.9,0.044379,-0.014793,-1.9582,0.059171,-3.1066e-07,-0.97911,0,0,0.2,-2.9606e-17,0,0.66667
0.7458,0.91331,3.729,0.61997,9.0565,12.295,-6.165,2.055,-0.63307,-8.22,8.7659e-12,-0.31654,0,0,0.2,-0,-0,0.66667
0.79701,0.45601,3.985,-0.06599,-0.7642,7.8486,0.70126,-0.23375,-1.9853,0.93501,-1.0143e-10,-0.99265,0,0,0.2,-0,-0,0.66667
0.19384,0.65975,0.96918,0.23962,7.5618,84.945,-0.61929,0.20643,-1.7957,-0.82573,-3.8237e-10,-0.89785,0,0,0.2,4.737e-16,0,0.66667
0.16287,0.049645,0.81433,-0.67553,-21.846,90.301,1.467,-0.48899,-0.3763,1.9559,-4.2105e-10,-0.18815,0,0,0.2,-2.3685e-16,0,0.66667
0.59108,0.052066,2.9554,-0.6719,-14.494,27.56,5.2953,-1.7651,-0.39467,7.0604,-2.176e-14,-0.19733,0,0,0.2,-0,-2.107e-16,0.66667
0.47969,0.053234,2.3985,-0.67015,-17.119,41.459,4.2862,-1.4287,-0.40257,5.7149,-3.8902e-13,-0.20128,0,0,0.2,-0,2.0822e-17,0.66667
0.58654,0.50702,2.9327,0.010534,0.22418,27.493,-0.082382,0.027461,-1.9989,-0.10984,2.6826e-13,-0.99944,0,0,0.2,-0,-0,0.66667
0.13227,0.082697,0.66136,-0.62595,-20.389,95.456,1.1039,-0.36798,-0.60578,1.4719,2.6212e-09,-0.30289,0,0,0.2,-1.1842e-16,0,0.66667
0.27774,0.69664,1.3887,0.29496,8.928,71.182,-1.0923,0.36409,-1.6903,-1.4564,-2.7252e-11,-0.84517,0,0,0.2,4.737e-16,0,0.66667
0.069672,0.33608,0.34836,-0.24588,-8.0281,106.12,0.22841,-0.076137,-1.7843,0.30455,-1.4781e-08,-0.89213,0,0,0.2,1.1842e-16,0,0.66667
0.108,0.11412,0.53998,-0.57882,-18.932,99.58,0.83348,-0.27783,-0.80906,1.1113,7.6142e-10,-0.40453,0,0,0.2,-0,-0,0.66667
0.71638,0.17926,3.5819,-0.48111,-7.6418,14.517,4.5955,-1.5318,-1.1771,6.1273,-9.0634e-12,-0.58856,0,0,0.2,-4.737e-16,0,0.66667
0.026402,0.13146,0.13201,-0.5528,-18.267,113.63,0.1946,-0.064867,-0.91308,0.25947,-3.9464e-08,-0.45654,0,0,0.2,-0,-0,0.66667
0.53965,0.9154,2.6983,0.6231,14.609,33.627,-4.4834,1.4945,-0.61858,-5.9779,-7.9048e-14,-0.30929,0,0,0.2,-0,-0,0.66667
0.29866,0.76246,1.4933,0.39369,11.786,67.885,-1.5677,0.52257,-1.449,-2.0903,-6.0636e-12,-0.72448,0,0,0.2,4.737e-16,0,0.66667
0.8685,0.39235,4.3425,-0.16147,-1.2327,3.7376,1.8698,-0.62326,-1.9061,2.4931,6.1654e-10,-0.95307,0,0,0.2,-9.4739e-16,0,0.66667
0.54504,0.88012,2.7252,0.57018,13.22,32.883,-4.1436,1.3812,-0.84477,-5.5248,3.2552e-13,-0.42239,0,0,0.2,-1.8948e-15,2.954e-16,0.66667
0.99755,0.020554,4.9877,-0.71917,-0.083638,1.1649,9.5654,-3.1885,-0.16093,12.754,8.3745e-06,-0.080467,0,0,0.2,-0,-6.3982e-16,0.66667
0.56108,0.72499,2.8054,0.33748,7.551,30.662,-2.5247,0.84157,-1.5958,-3.3663,-8.9417e-13,-0.79788,0,0,0.2,-0,-0,0.66667
0.5621,0.31103,2.8105,-0.28346,-6.3215,30.497,2.1244,-0.70813,-1.7163,2.8325,9.8543e-13,-0.85815,0,0,0.2,-2.3685e-16,0,0.66667
0.33511,0.77139,1.6755,0.40708,11.878,62.184,-1.8189,0.6063,-1.4098,-2.4252,1.4223e-12,-0.70489,0,0,0.2,4.737e-16,0,0.66667
0.25232,0.21904,1.2616,-0.42145,-12.986,75.345,1.4179,-0.47263,-1.3699,1.8905,5.6572e-11,-0.68494,0,0,0.2,-0,-0,0.66667
0.42737,0.8209,2.1368,0.48135,12.949,48.495,-2.7429,0.91429,-1.1755,-3.6572,5.1648e-13,-0.58773,0,0,0.2,-0,-0,0.66667
0.22718,0.12757,1.1359,-0.55865,-17.516,79.532,1.6922,-0.56405,-0.8903,2.2562,3.531e-11,-0.44515,0,0,0.2,-0,-0,0.66667
0.070876,0.2131,0.35438,-0.43035,-14.105,105.93,0.40669,-0.13556,-1.341,0.54225,4.1976e-09,-0.67048,0,0,0.2,-5.9212e-17,0,0.66667
0.42505,0.76592,2.1253,0.39888,10.727,48.758,-2.2606,0.75353,-1.4338,-3.0141,8.9084e-13,-0.71688,0,0,0.2,9.4739e-16,0,0.66667
0.10642,0.55692,0.53209,0.085385,2.7648,99.773,-0.12115,0.040384,-1.9743,-0.16154,-1.8598e-08,-0.98716,0,0,0.2,5.9212e-17,0,0.66667
0.72312,0.39708,3.6156,-0.15438,-2.3689,13.597,1.4885,-0.49616,-1.9147,1.9846,-2.3186e-11,-0.95735,0,0,0.2,-9.4739e-16,0,0.66667
0.29839,0.56864,1.492,0.10296,3.0674,67.832,-0.40962,0.13654,-1.963,-0.54616,-6.1079e-12,-0.98151,0,0,0.2,-0,-0,0.66667
0.49036,0.24559,2.4518,-0.38162,-9.4969,39.703,2.4951,-0.8317,-1.4819,3.3268,-3.0376e-13,-0.74097,0,0,0.2,1.0009e-15,0,0.66667
0.19558,0.42938,0.97792,-0.10593,-3.3353,84.632,0.27623,-0.092078,-1.9593,0.36831,2.8386e-10,-0.97963,0,0,0.2,-0,-0,0.66667
0.68083,0.02707,3.4041,-0.7094,-12.642,18.194,6.4397,-2.1466,-0.21041,8.5862,3.5927e-13,-0.1052,0,0,0.2,-0,-0,0.66667
0.83083,0.60977,4.1541,0.16466,1.6085,5.7493,-1.824,0.60801,-1.9032,-2.432,4.8169e-10,-0.95161,0,0,0.2,-0,-0,0.66667
0.22041,0.50139,1.102,0.0020806,0.064768,80.494,-0.0061143,0.0020381,-2.0014,-0.0081524,2.9501e-11,-1.0007,0,0,0.2,-0,-0,0.66667
0.0078087,0.61138,0.039043,0.16707,5.476,116.84,-0.017394,0.0057981,-1.8995,-0.023192,-2.199e-08,-0.94977,0,0,0.2,-1.4803e-17,0,0.66667
0.2509,0.1504,1.2545,-0.5244,-16.223,75.631,1.7543,-0.58478,-1.0232,2.3391,2.7621e-11,-0.51162,0,0,0.2,-1.1842e-16,0,0.66667
0.62764,0.88734,3.1382,0.58102,11.602,23.349,-4.8622,1.6207,-0.79944,-6.483,-1.3398e-12,-0.39972,0,0,0.2,-0,-0,0.66667
0.31082,0.28871,1.5541,-0.31694,-9.3921,65.928,1.3135,-0.43782,-1.6433,1.7513,2.8763e-12,-0.82166,0,0,0.2,9.4739e-16,0,0.66667
0.83621,0.88998,4.181,0.58498,5.7309,6.0234,-6.5221,2.174,-0.78206,-8.6962,7.1212e-10,-0.39103,0,0,0.2,1.8948e-15,0,0.66667
0.85274,0.33432,4.2637,-0.24851,-2.1311,4.597,2.8256,-0.94186,-1.7795,3.7674,-1.507e-09,-0.88974,0,0,0.2,-0,-0,0.66667
0.37174,0.67645,1.8587,0.26467,7.468,56.516,-1.3118,0.43728,-1.7505,-1.7491,2.1571e-12,-0.87526,0,0,0.2,-0,-0,0.66667
0.36533,0.17567,1.8267,-0.48649,-13.888,57.619,2.3697,-0.78991,-1.1575,3.1597,-2.2362e-12,-0.57874,0,0,0.2,4.737e-16,0,0.66667
0.016563,0.1602,0.082813,-0.5097,-16.825,115.33,0.11256,-0.03752,-1.0776,0.15008,-6.0686e-08,-0.53879,0,0,0.2,-0,-0,0.66667
0.54968,0.67011,2.7484,0.25516,5.8039,31.994,-1.8701,0.62337,-1.7681,-2.4935,-8.4599e-13,-0.88406,0,0,0.2,9.4739e-16,0,0.66667
0.15427,0.22486,0.77135,-0.4127,-13.262,91.652,0.84891,-0.28297,-1.3949,1.1319,1.1059e-09,-0.69746,0,0,0.2,-0,-0,0.66667
0.11268,0.77965,0.5634,0.41948,13.637,98.74,-0.63023,0.21008,-1.3752,-0.8403,-3.9215e-09,-0.68758,0,0,0.2,-2.9606e-16,0,0.66667
0.053338,0.17701,0.26669,-0.48449,-15.939,108.96,0.34456,-0.11485,-1.1644,0.45941,-2.0844e-08,-0.5822,0,0,0.2,-0,-0,0.66667
0.17928,0.97401,0.89642,0.71102,22.897,87.565,-1.6997,0.56655,-0.202,-2.2662,-1.905e-10,-0.101,0,0,0.2,-0,-0,0.66667
0.15593,0.26048,0.77965,-0.35928,-11.523,91.357,0.74697,-0.24899,-1.5419,0.99596,1.3936e-09,-0.77093,0,0,0.2,-0,-0,0.66667
0.03549,0.11481,0.17745,-0.57778,-19.098,112.06,0.27341,-0.091136,-0.81243,0.36455,5.2447e-08,-0.40622,0,0,0.2,-2.9606e-17,0,0.66667
0.98243,0.08499,4.9122,-0.62252,-0.6097,1.0216,8.1544,-2.7181,-0.62236,10.873,-4.3028e-08,-0.31118,0,0,0.2,-0,-1.9113e-16,0.66667
0.6583,0.74969,3.2915,0.37453,6.9101,19.868,-3.2874,1.0958,-1.5027,-4.3832,-2.7844e-12,-0.75137,0,0,0.2,1.125e-15,0,0.66667
0.38699,0.55282,1.935,0.07923,2.1998,54.179,-0.40882,0.13627,-1.9773,-0.5451,6.3557e-13,-0.98863,0,0,0.2,-4.737e-16,0,0.66667
0.062485,0.063575,0.31243,-0.65464,-21.645,107.41,0.54541,-0.1818,-0.47852,0.72721,5.7185e-07,-0.23926,0,0,0.2,-0,3.1462e-17,0.66667
0.047245,0.75793,0.23623,0.38689,12.702,110.01,-0.24372,0.08124,-1.4688,-0.32496,2.4112e-08,-0.7344,0,0,0.2,-0,-0,0.66667
0.80495,0.90286,4.0248,0.60428,6.9676,7.9631,-6.4856,2.1619,-0.70146,-8.6475,2.5694e-10,-0.35073,0,0,0.2,-1.4211e-15,0,0.66667
0.42278,0.45365,2.1139,-0.069521,-1.863,48.939,0.3919,-0.13063,-1.9832,0.52253,-9.0092e-13,-0.99158,0,0,0.2,9.4739e-16,0,0.66667
0.10826,0.93002,0.5413,0.64504,21.151,99.555,-0.93109,0.31036,-0.52135,-1.2415,3.9446e-08,-0.26068,0,0,0.2,-0,-1.7244e-16,0.66667
0.16703,0.48184,0.83517,-0.027247,-0.86701,89.431,0.060681,-0.020227,-1.9965,0.080908,2.0794e-10,-0.99823,0,0,0.2,-0,-0,0.66667
0.68019,0.93436,3.401,0.65155,11.577,18.136,-5.909,1.9697,-0.49048,-7.8787,-7.4385e-13,-0.24524,0,0,0.2,-1.4211e-15,0,0.66667
0.42723,0.51986,2.1362,0.029795,0.79453,48.296,-0.16972,0.056575,-1.9959,-0.2263,-4.628e-13,-0.99796,0,0,0.2,9.4739e-16,0,0.66667
0.096808,0.74691,0.48404,0.37036,12.066,101.45,-0.47805,0.15935,-1.5129,-0.6374,-2.6392e-09,-0.75645,0,0,0.2,2.9606e-17,0,0.66667
0.39201,0.345,1.96,-0.2325,-6.4364,53.477,1.2152,-0.40507,-1.8094,1.6203,-2.2089e-12,-0.90469,0,0,0.2,-9.4739e-16,0,0.66667
0.044756,0.050428,0.22378,-0.67436,-22.358,110.47,0.40242,-0.13414,-0.383,0.53656,1.3186e-06,-0.1915,0,0,0.2,5.9212e-17,0,0.66667
0.27103,0.50175,1.3551,0.00262,0.079388,72.21,-0.0094679,0.003156,-2.0003,-0.012624,-9.8302e-13,-1.0001,0,0,0.2,-0,-0,0.66667
0.50308,0.93003,2.5154,0.64504,15.962,38.323,-4.3267,1.4422,-0.52058,-5.769,-1.5099e-14,-0.26029,0,0,0.2,4.737e-16,0,0.66667
0.45748,0.73319,2.2874,0.34979,9.0598,44.151,-2.1336,0.71121,-1.5641,-2.8448,3.1908e-13,-0.78206,0,0,0.2,9.4739e-16,0,0.66667
0.76863,0.51012,3.8432,0.015173,0.19811,9.8728,-0.1555,0.051834,-1.9989,-0.20734,3.36e-11,-0.99946,0,0,0.2,-0,-0,0.66667
0.16023,0.065735,0.80115,-0.6514,-21.062,90.734,1.3916,-0.46388,-0.49163,1.8555,3.7062e-10,-0.24581,0,0,0.2,4.737e-16,0,0.66667
0.51004,0.47306,2.5502,-0.040405,-0.97295,36.948,0.27477,-0.091591,-1.994,0.36637,-2.616e-13,-0.997,0,0,0.2,-0,-0,0.66667
0.14153,0.57578,0.70764,0.11367,3.6482,93.766,-0.21449,0.071497,-1.9544,-0.28599,-4.715e-10,-0.97722,0,0,0.2,2.3685e-16,0,0.66667
0.18937,0.87093,0.94685,0.55639,17.735,85.799,-1.4048,0.46828,-0.90017,-1.8731,-3.9628e-10,-0.45009,0,0,0.2,5.9212e-17,0,0.66667
0.4099,0.99863,2.0495,0.74795,20.74,51.31,-4.0878,1.3626,-0.011689,-5.4504,-5.6222e-13,-0.0058447,0,0,0.2,1.5395e-15,0,0.66667
0.14586,0.053295,0.72931,-0.67006,-21.781,93.169,1.3031,-0.43438,-0.4029,1.7375,1.0474e-09,-0.20145,0,0,0.2,-1.1842e-16,0,0.66667
0.56233,0.039981,2.8116,-0.69003,-15.666,30.964,5.1736,-1.7245,-0.30809,6.8982,-1.43e-13,-0.15405,0,0,0.2,-0,-0,0.66667
0.45523,0.75448,2.2762,0.38172,9.922,44.486,-2.3169,0.77231,-1.4826,-3.0892,3.9635e-13,-0.74132,0,0,0.2,-9.4739e-16,0,0.66667
0.9421,0.96945,4.7105,0.70417,2.5909,1.9962,-8.8453,2.9484,-0.23763,-11.794,-2.5625e-06,-0.11881,0,0,0.2,-3.7896e-15,0,0.66667
0.66999,0.20952,3.35,-0.43573,-7.836,18.774,3.8925,-1.2975,-1.3252,5.1899,2.1101e-12,-0.66258,0,0,0.2,-4.737e-16,0,0.66667
0.10314,0.39609,0.51571,-0.15587,-5.0533,100.34,0.21435,-0.071451,-1.9127,0.2858,-1.0897e-08,-0.95633,0,0,0.2,-0,-0,0.66667
0.60711,0.34802,3.0355,-0.22797,-4.6774,25.211,1.8453,-0.61511,-1.8159,2.4605,1.6662e-12,-0.90795,0,0,0.2,-0,-0,0.66667
0.42033,0.68516,2.1016,0.27774,7.4826,49.36,-1.5566,0.51886,-1.727,-2.0754,1.0634e-12,-0.86351,0,0,0.2,1.1842e-16,0,0.66667
0.50063,0.38817,2.5032,-0.16774,-4.097,38.212,1.1197,-0.37322,-1.9005,1.4929,3.0642e-14,-0.95024,0,0,0.2,-9.4739e-16,0,0.66667
0.65581,0.97596,3.279,0.71395,13.524,20.66,-6.2428,2.0809,-0.18872,-8.3237,-1.4966e-13,-0.094358,0,0,0.2,-0,-0,0.66667
0.18572,0.4786,0.92859,-0.032101,-1.0145,86.282,0.079491,-0.026497,-1.9965,0.10599,1.5462e-10,-0.99827,0,0,0.2,-0,-0,0.66667
0.35953,0.58538,1.7977,0.12807,3.6446,58.32,-0.61394,0.20465,-1.9428,-0.81858,1.1681e-12,-0.97138,0,0,0.2,-0,-0,0.66667
0.48038,0.92355,2.4019,0.63532,16.186,41.318,-4.0693,1.3564,-0.56412,-5.4257,-1.3411e-13,-0.28206,0,0,0.2,-5.6888e-16,0,0.66667
0.61478,0.10255,3.0739,-0.59617,-12.233,24.77,4.8868,-1.6289,-0.73557,6.5158,9.8899e-13,-0.36778,0,0,0.2,-0,-0,0.66667
0.28556,0.84647,1.4278,0.51971,15.753,70.044,-1.9788,0.65958,-1.04,-2.6383,-4.8921e-12,-0.51999,0,0,0.2,-0,-0,0.66667
0.50277,0.28156,2.5139,-0.32766,-8.0064,38.018,2.1965,-0.73216,-1.6195,2.9287,1.6231e-13,-0.80976,0,0,0.2,-0,-0,0.66667
0.27855,0.93816,1.3927,0.65723,20.119,71.265,-2.4409,0.81364,-0.46535,-3.2546,-1.2204e-12,-0.23267,0,0,0.2,-9.4739e-16,0,0.66667
0.57239,0.9367,2.8619,0.65505,14.59,29.706,-4.9992,1.6664,-0.4748,-6.6656,2.7045e-13,-0.2374,0,0,0.2,1.1842e-16,0,0.66667
0.34229,0.29746,1.7114,-0.30381,-8.7923,61.02,1.3865,-0.46218,-1.6719,1.8487,-2.181e-12,-0.83596,0,0,0.2,-0,-0,0.66667
0.83916,0.90905,4.1958,0.61358,5.9317,5.9217,-6.8652,2.2884,-0.66166,-9.1536,5.303e-10,-0.33083,0,0,0.2,-0,-0,0.66667
0.68591,0.55116,3.4296,0.076742,1.3103,16.954,-0.70184,0.23395,-1.9792,-0.93579,1.7171e-12,-0.98962,0,0,0.2,-0,-0,0.66667
0.81613,0.50449,4.0806,0.0067357,0.071043,6.592,-0.073296,0.024432,-2,-0.097728,-5.123e-10,-1,0,0,0.2,-0,-0,0.66667
0.15425,0.59451,0.77123,0.14176,4.5332,91.605,-0.29155,0.097182,-1.93,-0.38873,-2.2284e-09,-0.96499,0,0,0.2,-4.737e-16,0,0.66667
0.18519,0.774,0.92597,0.41099,13.062,86.439,-1.0148,0.33828,-1.3997,-1.3531,-4.9699e-10,-0.69983,0,0,0.2,1.1842e-16,0,0.66667
0.54259,0.58437,2.713,0.12656,2.905,32.813,-0.91562,0.30521,-1.9425,-1.2208,-6.5659e-13,-0.97124,0,0,0.2,4.737e-16,0,0.66667
0.061398,0.40484,0.30699,-0.14274,-4.6598,107.54,0.11685,-0.038951,-1.9292,0.15581,9.7646e-08,-0.96461,0,0,0.2,-1.5374e-16,0,0.66667
0.53806,0.35769,2.6903,-0.21347,-4.9411,33.415,1.5314,-0.51048,-1.8368,2.0419,5.1636e-13,-0.91839,0,0,0.2,-0,-0,0.66667
0.336,0.87976,1.68,0.56965,16.704,62.165,-2.552,0.85066,-0.84581,-3.4027,1.3165e-12,-0.42291,0,0,0.2,-0,-0,0.66667
0.32445,0.50967,1.6223,0.014503,0.42408,63.718,-0.062741,0.020914,-1.9988,-0.083655,1.3741e-13,-0.99941,0,0,0.2,-0,-0,0.66667
0.22985,0.82909,1.1493,0.49364,15.422,79.057,-1.5129,0.50429,-1.1327,-2.0171,-1.0125e-10,-0.56635,0,0,0.2,-4.737e-16,0,0.66667
0.0046867,0.61641,0.023434,0.17461,5.7238,117.38,-0.010911,0.003637,-1.891,-0.014548,-3.5184e-08,-0.94551,0,0,0.2,-0,-0,0.66667
0.68707,0.89772,3.4354,0.59658,10.371,17.378,-5.4652,1.8217,-0.73549,-7.287,-1.4224e-12,-0.36774,0,0,0.2,9.4739e-16,1.8804e-16,0.66667
0.75278,0.68346,3.7639,0.2752,3.836,11.225,-2.7622,0.92072,-1.7313,-3.6829,8.8775e-11,-0.86563,0,0,0.2,1.1842e-15,0,0.66667
0.33828,0.13222,1.6914,-0.55167,-16.137,61.797,2.4883,-0.82943,-0.91732,3.3177,-1.5778e-12,-0.45866,0,0,0.2,-0,-0,0.66667
0.4698,0.51337,2.349,0.02006,0.50938,42.327,-0.12565,0.041885,-1.9989,-0.16754,-5.7558e-13,-0.99944,0,0,0.2,-0,-0,0.66667
0.79738,0.22182,3.9869,-0.41728,-4.8974,8.1239,4.4364,-1.4788,-1.3825,5.9152,-3.9109e-10,-0.69127,0,0,0.2,-1.8948e-15,0,0.66667
0.64747,0.62309,3.2373,0.18463,3.4732,20.825,-1.5939,0.5313,-1.8789,-2.1252,-1.9439e-12,-0.93945,0,0,0.2,9.4739e-16,0,0.66667
0.022978,0.49389,0.11489,-0.0091693,-0.30013,114.2,0.0028087,-0.00093906,-1.9991,0.0037436,-4.2297e-06,-0.99955,0,0,0.2,-1.4803e-17,0,0.66667
0.28397,0.53922,1.4199,0.05883,1.7688,70.129,-0.22275,0.074249,-1.9877,-0.297,-7.6456e-12,-0.99386,0,0,0.2,-0,-0,0.66667
0.95439,0.38983,4.772,-0.16526,-0.39926,0.72232,2.1029,-0.70098,-1.9031,2.8039,2.1253e-08,-0.95154,0,0,0.2,-1.8948e-15,0,0.66667
0.88315,0.60933,4.4158,0.16399,1.1117,3.0673,-1.9311,0.64369,-1.9031,-2.5747,2.7328e-09,-0.95157,0,0,0.2,-0,-0,0.66667
0.32522,0.93694,1.6261,0.65541,19.446,63.909,-2.842,0.94733,-0.47382,-3.7893,1.332e-12,-0.23691,0,0,0.2,-5.6251e-16,0,0.66667
0.91063,0.54656,4.5532,0.069836,0.35709,1.9343,-0.84793,0.28264,-1.9818,-1.1306,1.641e-08,-0.9909,0,0,0.2,-1.8948e-15,0,0.66667
0.47918,0.33199,2.3959,-0.25202,-6.3413,41.118,1.6101,-0.53671,-1.7733,2.1468,-5.651e-13,-0.88663,0,0,0.2,-0,-0,0.66667
0.20207,0.0064462,1.0103,-0.74033,-23.659,83.789,1.9946,-0.66488,-0.052101,2.6595,-2.0604e-10,-0.02605,0,0,0.2,-0,-1.5511e-16,0.66667
0.27145,0.14925,1.3572,-0.52613,-16.089,72.308,1.9042,-0.63474,-1.0152,2.539,1.1551e-11,-0.50759,0,0,0.2,2.3685e-16,0,0.66667
0.24098,0.060174,1.2049,-0.65974,-20.627,77.334,2.1198,-0.7066,-0.45246,2.8264,8.4897e-12,-0.22623,0,0,0.2,-4.737e-16,0,0.66667
0.055575,0.050093,0.27788,-0.67486,-22.351,108.6,0.50008,-0.16669,-0.37952,0.66677,-5.3963e-07,-0.18976,0,0,0.2,-5.9212e-17,0,0.66667
0.43714,0.88836,2.1857,0.58254,15.573,47.212,-3.3953,1.1318,-0.79406,-4.5271,1.9984e-13,-0.39703,0,0,0.2,-0,-2.3187e-16,0.66667
0.90458,0.38064,4.5229,-0.17904,-0.98606,2.2095,2.1594,-0.71979,-1.8867,2.8792,6.3883e-09,-0.94337,0,0,0.2,-0,-0,0.66667
0.52576,0.082671,2.6288,-0.62599,-14.988,35.376,4.3883,-1.4628,-0.60577,5.851,3.2419e-14,-0.30289,0,0,0.2,-0,-0,0.66667
0.54546,0.030784,2.7273,-0.70382,-16.432,33.038,5.1187,-1.7062,-0.24041,6.825,1.9496e-13,-0.12021,0,0,0.2,8.2897e-16,-1.393e-17,0.66667
0.227,0.55039,1.135,0.07558,2.3459,79.406,-0.22876,0.076252,-1.9785,-0.30501,-7.0485e-11,-0.98927,0,0,0.2,2.3685e-16,0,0.66667
0.046401,0.57717,0.232,0.11575,3.7842,110.14,-0.071614,0.023871,-1.9529,-0.095486,-4.6268e-08,-0.97646,0,0,0.2,-0,-0,0.66667
0.12581,0.61854,0.62904,0.17781,5.7351,96.455,-0.29826,0.099419,-1.8886,-0.39768,1.3496e-09,-0.94428,0,0,0.2,-0,-0,0.66667
0.21513,0.41516,1.0756,-0.12727,-3.9738,81.377,0.36504,-0.12168,-1.9421,0.48673,1.7767e-10,-0.97103,0,0,0.2,-0,-0,0.66667
0.87339,0.74188,4.367,0.36282,2.7064,3.7111,-4.2251,1.4084,-1.5324,-5.6334,2.4741e-09,-0.7662,0,0,0.2,-0,-0,0.66667
0.98833,0.9501,4.9416,0.67514,0.44756,1.1064,-8.8968,2.9656,-0.37862,-11.862,6.3273e-06,-0.18931,0,0,0.2,-0,-0,0.66667
0.017766,0.46314,0.088831,-0.055283,-1.8101,115.11,0.013096,-0.0043662,-1.9897,0.017461,-1.3542e-06,-0.99483,0,0,0.2,1.4803e-17,0,0.66667
0.44331,0.1646,2.2165,-0.5031,-13.313,46.259,2.9737,-0.99124,-1.0993,3.965,-6.1351e-13,-0.54966,0,0,0.2,-9.4739e-16,0,0.66667
0.3692,0.049496,1.846,-0.67576,-19.381,57.217,3.3265,-1.1088,-0.37531,4.4353,1.2212e-14,-0.18765,0,0,0.2,-4.737e-16,0,0.66667
0.53646,0.41015,2.6823,-0.13478,-3.1235,33.583,0.96403,-0.32134,-1.9354,1.2854,5.9264e-13,-0.96768,0,0,0.2,-1.8948e-15,0,0.66667
0.61652,0.96458,3.0826,0.69687,14.344,24.758,-5.7285,1.9095,-0.27303,-7.6379,2.3004e-13,-0.13651,0,0,0.2,-1.4211e-15,0,0.66667
0.396,0.60956,1.98,0.16433,4.5275,52.863,-0.86768,0.28923,-1.9029,-1.1569,1.2434e-12,-0.95147,0,0,0.2,4.737e-16,0,0.66667
0.18386,0.15177,0.91932,-0.52235,-16.666,86.705,1.2805,-0.42685,-1.0301,1.7074,5.2283e-11,-0.51504,0,0,0.2,1.1842e-16,0,0.66667
0.58527,0.1641,2.9264,-0.50386,-10.881,27.971,3.9319,-1.3106,-1.0965,5.2426,9.2548e-13,-0.54827,0,0,0.2,-0,-0,0.66667
0.033297,0.65908,0.16648,0.23861,7.8199,112.42,-0.10593,0.035312,-1.7986,-0.14125,7.9152e-09,-0.89928,0,0,0.2,1.1842e-16,0,0.66667
0.89398,0.57297,4.4699,0.10945,0.67012,2.582,-1.3046,0.43488,-1.957,-1.7395,1.2538e-08,-0.9785,0,0,0.2,-0,-0,0.66667
0.64441,0.81161,3.2221,0.46741,8.9437,21.408,-4.0161,1.3387,-1.224,-5.3548,-2.55e-12,-0.612,0,0,0.2,-1.0658e-15,0,0.66667
0.094544,0.090236,0.47272,-0.61465,-20.187,101.89,0.77482,-0.25827,-0.65817,1.0331,-4.112e-08,-0.32908,0,0,0.2,-0,-0,0.66667
0.55137,0.38788,2.7569,-0.16818,-3.8084,31.74,1.2364,-0.41213,-1.8986,1.6485,5.5378e-13,-0.9493,0,0,0.2,-0,-0,0.66667
0.12897,0.86454,0.64487,0.54682,17.775,95.99,-0.94034,0.31345,-0.93629,-1.2538,-9.8853e-10,-0.46814,0,0,0.2,-1.1842e-16,0,0.66667
0.11882,0.62957,0.5941,0.19435,6.2811,97.652,-0.3079,0.10263,-1.8654,-0.41054,4.0839e-09,-0.9327,0,0,0.2,-0,-0,0.66667
0.26555,0.068562,1.3277,-0.64716,-19.954,73.343,2.2914,-0.76379,-0.51228,3.0551,2.037e-12,-0.25614,0,0,0.2,-0,-1.4813e-16,0.66667
0.76291,0.97716,3.8145,0.71575,9.9348,11.176,-7.2806,2.4269,-0.1785,-9.7075,8.2778e-13,-0.089249,0,0,0.2,-0,-0,0.66667
0.69822,0.50659,3.4911,0.0098848,0.16309,15.789,-0.092024,0.030675,-1.9993,-0.1227,7.3963e-13,-0.99963,0,0,0.2,-0,-0,0.66667
0.55885,0.20512,2.7943,-0.44233,-9.9711,31.033,3.2959,-1.0986,-1.3037,4.3946,8.431e-13,-0.65185,0,0,0.2,-0,-0,0.66667
0.25523,0.70714,1.2761,0.31071,9.5323,74.827,-1.0574,0.35246,-1.6558,-1.4098,-6.8249e-11,-0.82791,0,0,0.2,-2.3685e-16,0,0.66667
0.51787,0.62492,2.5893,0.18738,4.4685,35.971,-1.2939,0.43129,-1.8766,-1.7252,-6.688e-13,-0.93832,0,0,0.2,1.0769e-15,0,0.66667
0.92975,0.75604,4.6488,0.38405,1.5702,1.6056,-4.761,1.587,-1.475,-6.348,-2.7392e-09,-0.73748,0,0,0.2,-0,-0,0.66667
0.18532,0.29997,0.9266,-0.30005,-9.511,86.386,0.74139,-0.24713,-1.6798,0.98852,5.672e-10,-0.83989,0,0,0.2,-2.3685e-16,0,0.66667
0.73421,0.71474,3.671,0.32211,4.7958,12.783,-3.1532,1.0511,-1.6327,-4.2043,4.4363e-11,-0.81637,0,0,0.2,9.4739e-16,0,0.66667
0.87218,0.66614,4.3609,0.24921,1.8585,3.6326,-2.8981,0.96603,-1.779,-3.8641,1.0685e-09,-0.8895,0,0,0.2,-0,-0,0.66667
0.66946,0.85609,3.3473,0.53414,9.6716,18.969,-4.7678,1.5893,-0.98537,-6.3571,-2.1574e-12,-0.49269,0,0,0.2,-0,-0,0.66667
0.2037,0.15554,1.0185,-0.51669,-16.35,83.393,1.4033,-0.46777,-1.0528,1.8711,3.261e-10,-0.52642,0,0,0.2,3.4047e-16,0,0.66667
0.12917,0.18059,0.64583,-0.47912,-15.539,95.937,0.82515,-0.27505,-1.1835,1.1002,3.3843e-09,-0.59176,0,0,0.2,-1.1842e-16,0,0.66667
0.51503,0.26628,2.5752,-0.35058,-8.4263,36.438,2.4075,-0.80249,-1.5635,3.21,2.7978e-13,-0.78175,0,0,0.2,-0,-0,0.66667
0.13031,0.5904,0.65154,0.13561,4.367,95.682,-0.23561,0.078537,-1.9346,-0.31415,5.6666e-10,-0.96732,0,0,0.2,1.1842e-16,0,0.66667
0.8257,0.050328,4.1285,-0.67451,-7.0795,6.8387,7.4259,-2.4753,-0.38217,9.9012,5.2002e-11,-0.19108,0,0,0.2,9.4739e-16,0,0.66667
0.52364,0.82894,2.6182,0.49341,11.774,35.471,-3.445,1.1483,-1.1331,-4.5933,1.3967e-13,-0.56657,0,0,0.2,-1.5675e-15,0,0.66667
0.29142,0.8793,1.4571,0.56895,17.213,69.144,-2.2107,0.73691,-0.84889,-2.9476,6.9722e-14,-0.42445,0,0,0.2,-9.4739e-16,0,0.66667
0.56813,0.71415,2.8406,0.32122,7.0984,29.8,-2.4333,0.81109,-1.6329,-3.2444,-1.3969e-12,-0.81644,0,0,0.2,1.4211e-15,0,0.66667
0.26064,0.35571,1.3032,-0.21643,-6.6085,73.919,0.75213,-0.25071,-1.8326,1.0028,5.156e-11,-0.91628,0,0,0.2,-0,-0,0.66667
0.58447,0.10427,2.9224,-0.5936,-12.898,28.192,4.6259,-1.542,-0.74619,6.1678,3.3484e-13,-0.37309,0,0,0.2,9.4739e-16,0,0.66667
0.23212,0.012567,1.1606,-0.73115,-23.037,78.834,2.2629,-0.75429,-0.099117,3.0172,-2.8338e-11,-0.049559,0,0,0.2,-0,2.2777e-16,0.66667
0.21905,0.75306,1.0953,0.37959,11.881,80.788,-1.1087,0.36955,-1.4894,-1.4782,-2.2881e-10,-0.74471,0,0,0.2,-0,-0,0.66667
0.51851,0.65488,2.5925,0.23231,5.5394,35.911,-1.6061,0.53536,-1.8091,-2.1414,-6.5314e-13,-0.90455,0,0,0.2,1.1842e-15,0,0.66667
0.83542,0.9508,4.1771,0.67621,6.7352,6.2817,-7.5322,2.5107,-0.373,-10.043,-6.5107e-10,-0.1865,0,0,0.2,-1.8948e-15,0,0.66667
0.64477,0.94235,3.2239,0.66352,12.838,21.688,-5.7042,1.9014,-0.43465,-7.6056,-5.7199e-13,-0.21733,0,0,0.2,-0,-0,0.66667
0.094191,0.083239,0.47095,-0.62514,-20.542,101.96,0.7851,-0.2617,-0.61123,1.0468,-1.7711e-08,-0.30562,0,0,0.2,1.1842e-16,0,0.66667
0.13407,0.96471,0.67034,0.69706,22.762,95.179,-1.246,0.41535,-0.27214,-1.6614,-6.806e-10,-0.13607,0,0,0.2,-5.9212e-17,0,0.66667
0.3903,0.50048,1.9515,0.00071809,0.01987,53.683,-0.003737,0.0012457,-2.0022,-0.0049826,-5.2553e-13,-1.0011,0,0,0.2,-0,-0,0.66667
0.31956,0.072127,1.5978,-0.64181,-19.109,64.776,2.7347,-0.91155,-0.53442,3.6462,-1.1733e-12,-0.26721,0,0,0.2,-0,-0,0.66667
0.89122,0.96181,4.4561,0.69271,4.6909,3.6215,-8.2314,2.7438,-0.2949,-10.975,2.4658e-08,-0.14745,0,0,0.2,9.4739e-16,0,0.66667
0.89129,0.34245,4.4565,-0.23633,-1.4955,2.7789,2.8085,-0.93617,-1.8033,3.7447,3.1601e-09,-0.90165,0,0,0.2,-2.3685e-16,0,0.66667
0.029824,0.14414,0.14912,-0.53379,-17.624,113.03,0.21227,-0.070755,-0.98709,0.28302,-1.833e-07,-0.49354,0,0,0.2,-0,-0,0.66667
0.21052,0.79144,1.0526,0.43716,13.758,82.224,-1.2271,0.40903,-1.3195,-1.6361,-2.4795e-10,-0.65974,0,0,0.2,-0,-0,0.66667
0.38835,0.20918,1.9418,-0.43623,-12.179,54.136,2.2588,-0.75293,-1.3234,3.0117,-1.6491e-12,-0.66172,0,0,0.2,-4.737e-16,0,0.66667
0.17637,0.45022,0.88187,-0.074676,-2.3686,87.856,0.17561,-0.058537,-1.9793,0.23415,2.5716e-10,-0.98967,0,0,0.2,-0,-0,0.66667
0.91869,0.54374,4.5934,0.06561,0.30322,1.6569,-0.80367,0.26789,-1.9842,-1.0716,9.9235e-09,-0.99211,0,0,0.2,-0,-0,0.66667
0.1896,0.32043,0.94799,-0.26936,-8.519,85.661,0.68093,-0.22698,-1.7423,0.90791,4.8821e-10,-0.87114,0,0,0.2,-0,-0,0.66667
0.73399,0.41842,3.6699,-0.12237,-1.812,12.657,1.1975,-0.39918,-1.9474,1.5967,-2.8679e-11,-0.97372,0,0,0.2,-0,-0,0.66667
0.95692,0.78192,4.7846,0.42288,1.0202,0.99038,-5.3955,1.7985,-1.365,-7.194,-2.3167e-08,-0.68251,0,0,0.2,3.7896e-15,0,0.66667
0.47772,0.45006,2.3886,-0.074904,-1.8837,41.254,0.4771,-0.15903,-1.9789,0.63614,-4.3432e-13,-0.98946,0,0,0.2,-0,-0,0.66667
0.81422,0.39825,4.0711,-0.15262,-1.6293,6.7543,1.6569,-0.5523,-1.9176,2.2092,-5.1059e-10,-0.95879,0,0,0.2,9.4739e-16,0,0.66667
0.42822,0.80021,2.1411,0.45031,12.09,48.347,-2.5711,0.85703,-1.2779,-3.4281,6.5437e-13,-0.63895,0,0,0.2,4.737e-16,0,0.66667
0.81345,0.93087,4.0672,0.6463,7.191,7.516,-7.0097,2.3366,-0.51573,-9.3463,1.7177e-10,-0.25787,0,0,0.2,4.737e-16,0,0.66667
0.7617,0.55632,3.8085,0.084486,1.1336,10.413,-0.85804,0.28601,-1.9745,-1.144,5.4628e-11,-0.98725,0,0,0.2,-0,-0,0.66667
0.9596,0.20572,4.798,-0.44142,-0.99646,0.96996,5.6478,-1.8826,-1.3061,7.5304,4.6386e-08,-0.65303,0,0,0.2,-0,-0,0.66667
0.3366,0.22655,1.683,-0.41017,-11.956,61.955,1.8408,-0.61362,-1.401,2.4545,-2.4883e-12,-0.7005,0,0,0.2,-0,-0,0.66667
0.76659,0.68871,3.833,0.28306,3.7489,10.163,-2.8932,0.96441,-1.7169,-3.8576,1.5338e-10,-0.85844,0,0,0.2,-0,-0,0.66667
0.92162,0.40088,4.6081,-0.14868,-0.66313,1.5977,1.827,-0.60899,-1.9228,2.436,2.8329e-08,-0.9614,0,0,0.2,-0,-0,0.66667
0.81077,0.81939,4.0539,0.47909,5.3066,7.3454,-5.1791,1.7264,-1.1844,-6.9055,5.0956e-10,-0.59221,0,0,0.2,-0,-0,0.66667
0.81434,0.89498,4.0717,0.59247,6.5226,7.3399,-6.433,2.1443,-0.75199,-8.5773,8.7963e-11,-0.376,0,0,0.2,-9.4739e-16,0,0.66667
0.9483,0.37711,4.7415,-0.18434,-0.51791,0.87567,2.3307,-0.77691,-1.8795,3.1077,2.353e-08,-0.93976,0,0,0.2,-3.7896e-15,0,0.66667
0.29068,0.29189,1.4534,-0.31216,-9.3756,69.116,1.2099,-0.40329,-1.6525,1.6132,1.3815e-11,-0.82627,0,0,0.2,-0,-0,0.66667
0.44015,0.95285,2.2007,0.67928,18.185,46.907,-3.9864,1.3288,-0.35903,-5.3153,-5.3735e-14,-0.17952,0,0,0.2,-0,-0,0.66667
0.10606,0.80128,0.53029,0.45191,14.726,99.881,-0.63905,0.21302,-1.2734,-0.85207,-2.4757e-09,-0.63671,0,0,0.2,1.1842e-16,0,0.66667
0.87728,0.15756,4.3864,-0.51366,-3.7854,3.7909,6.0083,-2.0028,-1.0631,8.0111,4.0803e-09,-0.53154,0,0,0.2,-3.7896e-15,0,0.66667
0.3437,0.89534,1.7185,0.59302,17.302,61.001,-2.7176,0.90586,-0.75054,-3.6235,1.3858e-12,-0.37527,0,0,0.2,-0,-0,0.66667
0.90524,0.92055,4.5262,0.63083,3.6885,2.9209,-7.6141,2.538,-0.5854,-10.152,1.1526e-09,-0.2927,0,0,0.2,-0,-0,0.66667
0.20386,0.19547,1.0193,-0.45679,-14.426,83.339,1.2416,-0.41387,-1.2589,1.6555,2.6135e-10,-0.62946,0,0,0.2,-0,-0,0.66667
0.34961,0.80318,1.748,0.45478,13.139,59.985,-2.1199,0.70663,-1.2638,-2.8265,2.3821e-12,-0.6319,0,0,0.2,-0,-0,0.66667
0.69048,0.77674,3.4524,0.41511,7.0721,16.777,-3.8217,1.2739,-1.3877,-5.0956,9.2437e-13,-0.69386,0,0,0.2,4.737e-16,0,0.66667
0.92271,0.56264,4.6135,0.093958,0.4115,1.5356,-1.1559,0.38531,-1.9707,-1.5413,1.0635e-07,-0.98533,0,0,0.2,3.7896e-15,0,0.66667
0.68795,0.53771,3.4397,0.056569,0.96041,16.757,-0.51889,0.17296,-1.9898,-0.69185,1.5635e-12,-0.99489,0,0,0.2,-0,-0,0.66667
0.34009,0.3772,1.7005,-0.1842,-5.329,61.314,0.83529,-0.27843,-1.8799,1.1137,-3.6338e-13,-0.93997,0,0,0.2,-0,-0,0.66667
0.040043,0.92407,0.20022,0.63611,21.065,111.28,-0.33962,0.11321,-0.56013,-0.45283,2.6209e-07,-0.28007,0,0,0.2,5.9212e-17,0,0.66667
0.33175,0.17309,1.6588,-0.49037,-14.383,62.758,2.1691,-0.72302,-1.1444,2.8921,-1.799e-12,-0.57219,0,0,0.2,-0,-0,0.66667
0.47616,0.25174,2.3808,-0.37238,-9.4348,41.606,2.3642,-0.78806,-1.5071,3.1523,-1.5343e-13,-0.75353,0,0,0.2,-0,-0,0.66667
0.7304,0.22495,3.652,-0.41258,-6.248,13.211,4.018,-1.3393,-1.3946,5.3573,-2.9081e-11,-0.69731,0,0,0.2,1.8948e-15,0,0.66667
0.89363,0.85203,4.4681,0.52805,3.3901,3.1261,-6.2917,2.0972,-1.0085,-8.389,1.1821e-08,-0.50424,0,0,0.2,-0,-0,0.66667
0.006309,0.32109,0.031545,-0.26836,-8.8086,117.1,0.022575,-0.0075249,-1.7431,0.0301,1.025e-08,-0.87155,0,0,0.2,-1.4803e-17,0,0.66667
0.076734,0.73156,0.38367,0.34734,11.351,104.91,-0.35537,0.11846,-1.5712,-0.47383,2.464e-09,-0.78561,0,0,0.2,-0,-0,0.66667
0.28179,0.26187,1.409,-0.3572,-10.8,70.556,1.3421,-0.44736,-1.547,1.7894,1.9817e-11,-0.77348,0,0,0.2,-0,-0,0.66667
0.53562,0.1882,2.6781,-0.46771,-10.951,33.928,3.3402,-1.1134,-1.2229,4.4536,8.1468e-13,-0.61146,0,0,0.2,-0,-0,0.66667
0.53579,0.95077,2.6789,0.67616,15.995,34.191,-4.8304,1.6101,-0.37357,-6.4405,3.4106e-13,-0.18679,0,0,0.2,-0,-0,0.66667
0.42526,0.96481,2.1263,0.69721,18.982,49.037,-3.9533,1.3178,-0.272,-5.2711,-4.6807e-13,-0.136,0,0,0.2,7.1054e-16,0,0.66667
0.88364,0.033297,4.4182,-0.70005,-5.0621,3.9557,8.2479,-2.7493,-0.25757,10.997,7.5408e-09,-0.12879,0,0,0.2,3.7896e-15,0,0.66667
0.72735,0.61572,3.6368,0.17358,2.6292,13.243,-1.6834,0.56114,-1.8919,-2.2446,2.8958e-11,-0.94596,0,0,0.2,-9.4739e-16,0,0.66667
0.13596,0.8092,0.67981,0.4638,15.007,94.776,-0.84079,0.28026,-1.2353,-1.1211,-3.421e-10,-0.61765,0,0,0.2,2.3685e-16,0,0.66667
0.23514,0.12705,1.1757,-0.55942,-17.472,78.225,1.7539,-0.58462,-0.88899,2.3385,3.1591e-11,-0.44449,0,0,0.2,-9.4739e-16,0,0.66667
0.50531,0.11181,2.5265,-0.58228,-14.319,37.946,3.9231,-1.3077,-0.79349,5.2307,9.015e-14,-0.39675,0,0,0.2,-9.4739e-16,0,0.66667
0.36252,0.11994,1.8126,-0.5701,-16.365,58.115,2.7556,-0.91854,-0.84467,3.6741,-1.3538e-12,-0.42234,0,0,0.2,7.1054e-16,0,0.66667
0.80862,0.54022,4.0431,0.060326,0.66106,7.0771,-0.65041,0.2168,-1.9866,-0.86721,1.188e-10,-0.99332,0,0,0.2,-0,-0,0.66667
0.41934,0.064992,2.0967,-0.65251,-17.833,49.828,3.6483,-1.2161,-0.48703,4.8644,-7.5184e-13,-0.24351,0,0,0.2,9.4739e-16,0,0.66667
0.94116,0.03024,4.7058,-0.70464,-2.6344,2.0209,8.8424,-2.9475,-0.23543,11.79,2.4709e-06,-0.11771,0,0,0.2,-0,-0,0.66667
0.18246,0.41005,0.91228,-0.13493,-4.2718,86.837,0.32825,-0.10942,-1.9353,0.43767,6.1439e-10,-0.96763,0,0,0.2,-0,-0,0.66667
0.48279,0.038145,2.4139,-0.69278,-17.651,41.077,4.4596,-1.4865,-0.2941,5.9461,-5.7954e-13,-0.14705,0,0,0.2,-0,1.6292e-16,0.66667
0.89425,0.90652,4.4712,0.60977,3.9511,3.2862,-7.2705,2.4235,-0.67895,-9.694,6.8651e-08,-0.33947,0,0,0.2,-3.7896e-15,0,0.66667
0.065736,0.63568,0.32868,0.20352,6.6447,106.79,-0.17838,0.05946,-1.8523,-0.23784,-3.7185e-09,-0.92617,0,0,0.2,1.1842e-16,0,0.66667
0.27923,0.6332,1.3962,0.1998,6.0325,70.912,-0.74389,0.24796,-1.8583,-0.99185,-2.2893e-11,-0.92916,0,0,0.2,-0,-0,0.66667
0.20277,0.21508,1.0139,-0.42737,-13.492,83.508,1.1555,-0.38515,-1.3522,1.5406,3.8133e-10,-0.6761,0,0,0.2,2.3685e-16,0,0.66667
0.98481,0.92867,4.9241,0.64301,0.54671,1.0507,-8.4432,2.8144,-0.53082,-11.258,-5.8872e-07,-0.26541,0,0,0.2,-0,3.8408e-16,0.66667
0.46845,0.39867,2.3423,-0.15199,-3.8695,42.536,0.94934,-0.31645,-1.919,1.2658,-8.1923e-13,-0.95948,0,0,0.2,4.737e-16,0,0.66667
0.88817,0.87912,4.4409,0.56868,3.8616,3.437,-6.7344,2.2448,-0.8508,-8.9792,-9.8681e-10,-0.4254,0,0,0.2,-1.8948e-15,-4.1119e-18,0.66667
0.85393,0.94951,4.2696,0.67427,6.0112,5.2806,-7.677,2.559,-0.38255,-10.236,1.1294e-09,-0.19128,0,0,0.2,-0,-0,0.66667
0.10397,0.078431,0.51984,-0.63235,-20.744,100.28,0.8766,-0.2922,-0.57718,1.1688,-1.3188e-08,-0.28859,0,0,0.2,-0,-0,0.66667
0.34994,0.82452,1.7497,0.48679,14.075,59.957,-2.2713,0.7571,-1.1564,-3.0284,2.3979e-12,-0.5782,0,0,0.2,-0,-0,0.66667
0.4967,0.0012393,2.4835,-0.74814,-18.783,39.319,4.9546,-1.6515,-0.01078,6.6062,6.6835e-13,-0.0053901,0,0,0.2,-0,-0,0.66667
0.8789,0.34239,4.3945,-0.23642,-1.669,3.3127,2.7705,-0.9235,-1.802,3.694,-4.0157e-09,-0.90098,0,0,0.2,-2.4869e-15,0,0.66667
0.98185,0.26024,4.9093,-0.35964,-0.26957,0.4653,4.7082,-1.5694,-1.54,6.2776,-8.3699e-09,-0.77001,0,0,0.2,-0,-0,0.66667
0.33695,0.53122,1.6847,0.046824,1.3564,61.776,-0.21036,0.070121,-1.9927,-0.28048,1.229e-13,-0.99635,0,0,0.2,3.1641e-16,0,0.66667
0.78195,0.077452,3.9097,-0.63382,-8.1035,9.591,6.6082,-2.2027,-0.57207,8.811,-2.084e-11,-0.28603,0,0,0.2,-0,-0,0.66667
0.85872,0.044453,4.2936,-0.68332,-5.9137,5.0619,7.8237,-2.6079,-0.34031,10.432,1.9822e-09,-0.17016,0,0,0.2,-0,-0,0.66667
0.28125,0.89533,1.4062,0.593,18.073,70.783,-2.2237,0.74124,-0.75065,-2.965,-2.1587e-12,-0.37533,0,0,0.2,-0,2.1537e-16,0.66667
0.19893,0.76491,0.99464,0.39737,12.555,84.138,-1.054,0.35132,-1.4378,-1.4053,-4.1787e-10,-0.71888,0,0,0.2,-0,-0,0.66667
0.64661,0.71678,3.2331,0.32517,6.153,21.017,-2.8034,0.93447,-1.6242,-3.7379,-3.1111e-12,-0.81211,0,0,0.2,1.0658e-15,0,0.66667
0.56414,0.77004,2.8207,0.40507,9.0377,30.355,-3.0468,1.0156,-1.4168,-4.0625,-6.7657e-13,-0.70839,0,0,0.2,-9.4739e-16,0,0.66667
0.15458,0.13706,0.77288,-0.54441,-17.563,91.644,1.122,-0.37401,-0.94631,1.496,1.9624e-09,-0.47315,0,0,0.2,-0,-8.9294e-17,0.66667
0.74217,0.62283,3.7109,0.18425,2.6577,12.009,-1.8232,0.60774,-1.8793,-2.431,5.5603e-11,-0.93966,0,0,0.2,-0,-0,0.66667
0.36009,0.84422,1.8005,0.51633,14.821,58.436,-2.479,0.82634,-1.0541,-3.3054,2.0077e-12,-0.52707,0,0,0.2,-0,-0,0.66667
0.60467,0.055232,3.0234,-0.66715,-14.026,26.013,5.3788,-1.7929,-0.41701,7.1717,4.9738e-14,-0.20851,0,0,0.2,4.737e-16,-1.2812e-17,0.66667
0.006493,0.7986,0.032465,0.44789,14.761,117.07,-0.038776,0.012925,-1.2856,-0.051701,-6.029e-08,-0.64278,0,0,0.2,7.4015e-18,0,0.66667
0.59052,0.79943,2.9526,0.44914,9.5827,27.297,-3.5363,1.1788,-1.2822,-4.7151,-1.4251e-12,-0.64112,0,0,0.2,9.4739e-16,0,0.66667
0.73343,0.88798,3.6671,0.58197,8.8289,13.231,-5.6911,1.897,-0.79615,-7.5881,7.3292e-12,-0.39807,0,0,0.2,-0,2.3006e-16,0.66667
0.34567,0.39184,1.7284,-0.16224,-4.6715,60.448,0.74774,-0.24925,-1.9063,0.99699,-1.0207e-12,-0.95317,0,0,0.2,-0,-0,0.66667
0.75933,0.75572,3.7966,0.38358,5.2486,10.832,-3.8835,1.2945,-1.4764,-5.178,1.028e-10,-0.73819,0,0,0.2,-0,-0,0.66667
0.42697,0.74292,2.1349,0.36438,9.7694,48.459,-2.0744,0.69146,-1.5274,-2.7659,8.5465e-13,-0.76371,0,0,0.2,4.8966e-16,0,0.66667
0.4232,0.39173,2.116,-0.16241,-4.3537,48.899,0.9164,-0.30547,-1.9064,1.2219,-1.3771e-12,-0.95319,0,0,0.2,-0,-0,0.66667
0.29935,0.95199,1.4968,0.67798,20.502,67.978,-2.7061,0.90202,-0.36537,-3.6081,1.1235e-12,-0.18268,0,0,0.2,-0,-0,0.66667
0.74106,0.040197,3.7053,-0.6897,-10.303,12.828,6.8148,-2.2716,-0.30776,9.0864,-3.7335e-12,-0.15388,0,0,0.2,-0,-0,0.66667
0.91708,0.19076,4.5854,-0.46386,-2.2907,2.14,5.672,-1.8907,-1.2351,7.5627,-1.4256e-08,-0.61754,0,0,0.2,-0,-0,0.66667
0.4431,0.36569,2.2155,-0.20147,-5.2881,46.079,1.1903,-0.39676,-1.8549,1.5871,-7.7605e-13,-0.92744,0,0,0.2,-4.737e-16,0,0.66667
0.98698,0.79473,4.9349,0.4421,0.21282,0.54897,-5.8179,1.9393,-1.3048,-7.7572,3.5669e-08,-0.65238,0,0,0.2,-0,-0,0.66667
0.79949,0.64503,3.9974,0.21755,2.5003,7.7574,-2.319,0.77301,-1.8315,-3.092,3.2397e-10,-0.91576,0,0,0.2,9.4739e-16,0,0.66667
0.31124,0.50736,1.5562,0.011042,0.32598,65.792,-0.045824,0.015275,-2.0002,-0.061099,-1.821e-13,-1.0001,0,0,0.2,-0,-0,0.66667
0.23311,0.98419,1.1655,0.72628,22.867,78.669,-2.2573,0.75244,-0.12469,-3.0098,1.6777e-11,-0.062347,0,0,0.2,-0,2.3681e-16,0.66667
0.35894,0.13272,1.7947,-0.55092,-15.85,58.64,2.6366,-0.87887,-0.92183,3.5155,-1.7297e-12,-0.46092,0,0,0.2,9.4739e-16,1.9064e-16,0.66667
0.40467,0.41456,2.0233,-0.12817,-3.5001,51.579,0.69154,-0.23051,-1.942,0.92205,-1.4095e-12,-0.97101,0,0,0.2,9.4739e-16,0,0.66667
0.4959,0.6795,2.4795,0.26925,6.6311,38.887,-1.7803,0.59343,-1.7419,-2.3737,-5.3735e-14,-0.87093,0,0,0.2,-0,-0,0.66667
0.70153,0.37924,3.5077,-0.18114,-2.967,15.535,1.6944,-0.56479,-1.8843,2.2592,-9.5305e-12,-0.94214,0,0,0.2,1.8948e-15,0,0.66667
0.841,0.2069,4.205,-0.43965,-4.1215,5.4778,4.93,-1.6433,-1.3124,6.5733,-1.1347e-09,-0.65622,0,0,0.2,-9.4739e-16,0,0.66667
0.059074,0.43867,0.29537,-0.091996,-3.003,107.94,0.072461,-0.024154,-1.9708,0.096615,-2.6208e-07,-0.98538,0,0,0.2,-2.3685e-16,0,0.66667
0.45307,0.78614,2.2654,0.42921,11.202,44.826,-2.5929,0.86429,-1.3465,-3.4571,6.8168e-13,-0.67327,0,0,0.2,-0,-0,0.66667
0.42756,0.30497,2.1378,-0.29255,-7.8242,48.33,1.6677,-0.55591,-1.6951,2.2236,-8.5942e-13,-0.84753,0,0,0.2,-4.737e-16,0,0.66667
0.42403,0.4577,2.1202,-0.063455,-1.6981,48.758,0.35876,-0.11959,-1.9856,0.47835,-5.3849e-13,-0.99282,0,0,0.2,-0,-0,0.66667
0.56368,0.41811,2.8184,-0.12283,-2.7238,30.224,0.92317,-0.30772,-1.9467,1.2309,7.5767e-13,-0.97334,0,0,0.2,-0,-0,0.66667
0.9398,0.21483,4.699,-0.42776,-1.4966,1.4004,5.3601,-1.7867,-1.3501,7.1468,1.44e-08,-0.67507,0,0,0.2,-1.4211e-15,0,0.66667
0.33032,0.68057,1.6516,0.27085,7.9058,62.857,-1.1929,0.39763,-1.7395,-1.5905,5.7476e-13,-0.86975,0,0,0.2,-4.737e-16,0,0.66667
0.94897,0.44349,4.7448,-0.084761,-0.2322,0.80329,1.0725,-0.35749,-1.9743,1.43,-2.8422e-08,-0.98715,0,0,0.2,1.8948e-15,0,0.66667
0.24588,0.58462,1.2294,0.12693,3.9032,76.307,-0.41613,0.13871,-1.9422,-0.55484,-6.3907e-11,-0.97111,0,0,0.2,-0,-0,0.66667
0.54841,0.11128,2.742,-0.58308,-13.456,32.486,4.2635,-1.4212,-0.79126,5.6847,2.669e-13,-0.39563,0,0,0.2,9.4739e-16,0,0.66667
0.7134,0.87394,3.567,0.5609,9.0371,14.911,-5.3353,1.7784,-0.88181,-7.1138,2.3253e-12,-0.44091,0,0,0.2,-1.7764e-16,0,0.66667
0.88062,0.85869,4.4031,0.53803,3.874,3.6928,-6.3174,2.1058,-0.96966,-8.4232,7.3951e-09,-0.48483,0,0,0.2,-1.8948e-15,0,0.66667
0.7817,0.32071,3.9085,-0.26893,-3.3499,9.0365,2.8029,-0.93431,-1.7438,3.7373,-2.2456e-10,-0.8719,0,0,0.2,1.8948e-15,0,0.66667
0.96576,0.29485,4.8288,-0.30772,-0.54109,0.63891,3.9625,-1.3208,-1.6629,5.2833,5.5526e-09,-0.83143,0,0,0.2,-1.8948e-15,0,0.66667
0.55114,0.15396,2.7557,-0.51907,-11.889,32.064,3.8144,-1.2715,-1.0424,5.0859,2.8999e-13,-0.52122,0,0,0.2,1.3027e-15,0,0.66667
0.90543,0.76401,4.5271,0.39601,2.2121,2.4291,-4.7807,1.5936,-1.4428,-6.3743,4.4436e-09,-0.7214,0,0,0.2,-0,-0,0.66667
0.65468,0.78061,3.2734,0.42091,7.8486,20.29,-3.6742,1.2247,-1.3717,-4.8989,-3.0771e-12,-0.68585,0,0,0.2,1.1842e-15,0,0.66667
0.16901,0.38375,0.84505,-0.17437,-5.5502,89.109,0.39294,-0.13098,-1.8918,0.52393,7.9834e-10,-0.94589,0,0,0.2,-0,-0,0.66667
0.030661,0.79387,0.1533,0.4408,14.511,112.88,-0.1802,0.060068,-1.3097,-0.24027,5.5291e-08,-0.65484,0,0,0.2,-0,-0,0.66667
0.76078,0.52148,3.8039,0.03222,0.43363,10.473,-0.32683,0.10894,-1.9956,-0.43578,2.0254e-11,-0.9978,0,0,0.2,-0,-0,0.66667
0.67762,0.93804,3.3881,0.65706,11.756,18.394,-5.9365,1.9788,-0.46546,-7.9153,-5.9464e-13,-0.23273,0,0,0.2,-1.8948e-15,0,0.66667
0.28831,0.61978,1.4416,0.17967,5.3924,69.452,-0.69068,0.23023,-1.8848,-0.92091,-1.5176e-11,-0.94238,0,0,0.2,-0,-0,0.66667
0.10602,0.11989,0.53008,-0.57016,-18.651,99.917,0.80596,-0.26865,-0.84433,1.0746,-1.223e-08,-0.42216,0,0,0.2,-0,-0,0.66667
0.68946,0.0081631,3.4473,-0.73776,-12.888,17.442,6.782,-2.2607,-0.065055,9.0427,-2.6068e-13,-0.032527,0,0,0.2,-0,-0,0.66667
0.74945,0.37868,3.7473,-0.18197,-2.5589,11.418,1.8184,-0.60613,-1.8838,2.4245,-6.5386e-11,-0.94189,0,0,0.2,-0,-0,0.66667
0.55828,0.81749,2.7914,0.47623,10.761,31.141,-3.5449,1.1816,-1.1936,-4.7266,-9.3636e-13,-0.5968,0,0,0.2,1.8948e-15,0,0.66667
0.66524,0.27045,3.3262,-0.34432,-6.2396,19.14,3.0541,-1.018,-1.5774,4.0721,1.9629e-12,-0.78871,0,0,0.2,-0,-0,0.66667
0.40406,0.16452,2.0203,-0.50321,-13.874,51.881,2.711,-0.90368,-1.0998,3.6147,-1.761e-12,-0.54992,0,0,0.2,9.4739e-16,0,0.66667
0.86609,0.64831,4.3304,0.22247,1.7348,3.8991,-2.5691,0.85635,-1.8232,-3.4254,6.6748e-10,-0.91161,0,0,0.2,-0,-0,0.66667
0.5324,0.2351,2.662,-0.39735,-9.3239,34.26,2.8207,-0.94022,-1.4389,3.7609,7.6072e-13,-0.71943,0,0,0.2,-9.4739e-16,0,0.66667
0.89484,0.3014,4.4742,-0.29791,-1.8324,2.6999,3.5544,-1.1848,-1.6838,4.7392,-2.654e-09,-0.84189,0,0,0.2,9.4739e-16,0,0.66667
0.73971,0.030675,3.6985,-0.70399,-10.577,12.971,6.9433,-2.3144,-0.23842,9.2577,-4.7855e-12,-0.11921,0,0,0.2,4.737e-16,0,0.66667
0.5229,0.73523,2.6145,0.35284,8.3852,35.428,-2.46,0.82,-1.5561,-3.28,-4.7051e-13,-0.77806,0,0,0.2,9.4739e-16,0,0.66667
0.71966,0.35729,3.5983,-0.21406,-3.3253,13.934,2.054,-0.68468,-1.8374,2.7387,-2.3792e-11,-0.91872,0,0,0.2,-0,-0,0.66667
0.88675,0.58768,4.4337,0.13152,0.86246,2.8934,-1.5551,0.51835,-1.9384,-2.0734,-1.0677e-09,-0.9692,0,0,0.2,1.4211e-15,0,0.66667
0.19451,0.80572,0.97256,0.45858,14.54,84.898,-1.1893,0.39644,-1.2516,-1.5858,-3.0312e-10,-0.6258,0,0,0.2,2.3685e-16,0,0.66667
0.42981,0.76106,2.149,0.39159,10.476,48.073,-2.2441,0.74804,-1.4537,-2.9921,8.5842e-13,-0.72684,0,0,0.2,-0,-0,0.66667
0.85935,0.051229,4.2968,-0.67316,-5.7917,5.0041,7.713,-2.571,-0.38974,10.284,4.3947e-09,-0.19487,0,0,0.2,9.4739e-16,2.1846e-16,0.66667
0.030496,0.3059,0.15248,-0.29115,-9.5516,112.9,0.11839,-0.039462,-1.6996,0.15785,-5.2953e-09,-0.8498,0,0,0.2,-2.9606e-17,0,0.66667
0.13308,0.81319,0.66541,0.46978,15.215,95.268,-0.83359,0.27786,-1.2156,-1.1115,-6.5265e-10,-0.60782,0,0,0.2,-4.737e-16,0,0.66667
0.40535,0.062281,2.0267,-0.65658,-18.2,51.854,3.5486,-1.1829,-0.46923,4.7314,-7.6428e-13,-0.23461,0,0,0.2,-9.992e-16,6.5782e-18,0.66667
0.11236,0.96136,0.56179,0.69205,22.717,98.87,-1.0368,0.34559,-0.29715,-1.3824,-5.7768e-09,-0.14857,0,0,0.2,-1.1842e-16,0,0.66667
0.72615,0.042525,3.6308,-0.68621,-10.747,14.057,6.6439,-2.2146,-0.32462,8.8586,3.7703e-13,-0.16231,0,0,0.2,-0,-0,0.66667
0.97481,0.36479,4.874,-0.20282,-0.22664,0.3724,2.6361,-0.8787,-1.8528,3.5148,6.0316e-08,-0.9264,0,0,0.2,-0,-0,0.66667
0.48907,0.64006,2.4453,0.21009,5.2151,39.766,-1.37,0.45666,-1.8421,-1.8267,-2.387e-14,-0.92107,0,0,0.2,-0,-0,0.66667
0.96027,0.59781,4.8013,0.14672,0.29859,0.587,-1.8785,0.62616,-1.9232,-2.5046,-1.8862e-07,-0.96158,0,0,0.2,-0,-0,0.66667
0.13577,0.63742,0.67885,0.20613,6.6333,94.756,-0.37315,0.12438,-1.848,-0.49754,-2.0535e-09,-0.92402,0,0,0.2,2.3685e-16,0,0.66667
0.70044,0.16041,3.5022,-0.50939,-8.489,15.988,4.7573,-1.5858,-1.078,6.3431,-1.1915e-12,-0.53898,0,0,0.2,-0,-0,0.66667
0.58286,0.50707,2.9143,0.010607,0.22726,27.924,-0.08243,0.027477,-1.9992,-0.10991,4.2757e-13,-0.99959,0,0,0.2,-0,-0,0.66667
0.79173,0.15422,3.9587,-0.51867,-6.2937,8.6758,5.4753,-1.8251,-1.0438,7.3004,-1.5607e-10,-0.52189,0,0,0.2,-2.3929e-16,0,0.66667
0.5377,0.032374,2.6885,-0.70144,-16.57,33.994,5.0289,-1.6763,-0.25089,6.7051,5.5334e-13,-0.12545,0,0,0.2,-0,-0,0.66667
0.97989,0.7481,4.8995,0.37215,0.3302,0.51094,-4.8622,1.6207,-1.508,-6.4829,8.1126e-10,-0.75401,0,0,0.2,-2.3685e-16,0,0.66667
0.43965,0.39214,2.1983,-0.16179,-4.2605,46.552,0.9484,-0.31613,-1.9068,1.2645,-1.0554e-12,-0.95339,0,0,0.2,-0,-0,0.66667
0.95027,0.5597,4.7514,0.089546,0.23799,0.77449,-1.1346,0.37819,-1.9722,-1.5128,7.3263e-08,-0.98611,0,0,0.2,-9.4739e-16,0,0.66667
0.91828,0.069413,4.5914,-0.64588,-3.2777,2.5129,7.908,-2.636,-0.51664,10.544,-2.4507e-08,-0.25832,0,0,0.2,1.8948e-15,0,0.66667
0.42387,0.83958,2.1193,0.50936,13.768,49.022,-2.8787,0.95957,-1.0783,-3.8383,4.7296e-13,-0.53915,0,0,0.2,2.3685e-16,0,0.66667
0.41052,0.40633,2.0526,-0.1405,-3.8149,50.728,0.76903,-0.25634,-1.9307,1.0254,-1.2672e-12,-0.96534,0,0,0.2,-0,-0,0.66667
0.019947,0.15337,0.099735,-0.51994,-17.167,114.74,0.13828,-0.046095,-1.0391,0.18438,-1.598e-07,-0.51954,0,0,0.2,3.7007e-17,0,0.66667
0.44849,0.183,2.2425,-0.47549,-12.496,45.506,2.8434,-0.94781,-1.1961,3.7912,-4.3143e-13,-0.59803,0,0,0.2,2.3685e-16,0,0.66667
0.19941,0.66022,0.99705,0.24034,7.5669,84.013,-0.63901,0.213,-1.7949,-0.85201,-3.0649e-10,-0.89744,0,0,0.2,-0,-0,0.66667
0.33593,0.65222,1.6796,0.22833,6.6313,61.972,-1.0227,0.3409,-1.8143,-1.3636,1.3536e-12,-0.90716,0,0,0.2,7.9103e-16,0,0.66667
0.28252,0.058519,1.4126,-0.66222,-20.227,70.635,2.4945,-0.8315,-0.44188,3.326,3.5194e-13,-0.22094,0,0,0.2,7.1054e-16,0,0.66667
0.6702,0.42633,3.351,-0.11051,-1.966,18.49,0.98748,-0.32916,-1.9567,1.3166,-5.7371e-13,-0.97836,0,0,0.2,9.4739e-16,0,0.66667
0.44017,0.44975,2.2009,-0.075378,-1.9823,46.458,0.44239,-0.14746,-1.9795,0.58986,-5.1556e-13,-0.98975,0,0,0.2,-0,-0,0.66667
0.60025,0.34235,3.0012,-0.23648,-4.9183,25.991,1.8926,-0.63088,-1.8014,2.5235,1.382e-12,-0.90069,0,0,0.2,1.0658e-15,0,0.66667
0.84352,0.70547,4.2176,0.3082,2.8142,5.1547,-3.4663,1.1554,-1.663,-4.6218,1.23e-09,-0.83149,0,0,0.2,9.4739e-16,0,0.66667
0.83277,0.6182,4.1639,0.1773,1.7137,5.6437,-1.9686,0.65622,-1.8879,-2.6249,9.0238e-10,-0.94393,0,0,0.2,4.737e-16,0,0.66667
0.58556,0.98599,2.9278,0.72899,15.944,28.299,-5.6916,1.8972,-0.10925,-7.5887,-2.9932e-13,-0.054626,0,0,0.2,9.4739e-16,0,0.66667
0.44054,0.038786,2.2027,-0.69182,-18.525,46.87,4.0636,-1.3545,-0.29822,5.4182,-7.7804e-13,-0.14911,0,0,0.2,-0,-0,0.66667
0.40041,0.82476,2.0021,0.48715,13.47,52.401,-2.6008,0.86692,-1.1552,-3.4677,1.0421e-12,-0.57759,0,0,0.2,-0,-0,0.66667
0.071127,0.73671,0.35564,0.35507,11.615,105.88,-0.33674,0.11225,-1.5505,-0.44898,5.5603e-09,-0.77527,0,0,0.2,3.4192e-17,0,0.66667
0.46738,0.98111,2.3369,0.72167,18.77,43.2,-4.4973,1.4991,-0.14845,-5.9964,-5.036e-13,-0.074227,0,0,0.2,9.4739e-16,0,0.66667
0.40304,0.4091,2.0152,-0.13636,-3.7299,51.82,0.73276,-0.24425,-1.9345,0.97702,-1.39e-12,-0.96725,0,0,0.2,9.4739e-16,0,0.66667
0.20153,0.61706,1.0077,0.17558,5.5183,83.647,-0.47181,0.15727,-1.8908,-0.62908,-3.3615e-10,-0.94542,0,0,0.2,2.3685e-16,0,0.66667
0.80272,0.92677,4.0136,0.64015,7.4872,8.1881,-6.8515,2.2838,-0.54201,-9.1354,8.4875e-11,-0.27101,0,0,0.2,-9.4739e-16,0,0.66667
0.69815,0.77512,3.4907,0.41268,6.8833,16.06,-3.8415,1.2805,-1.3941,-5.122,3.8536e-12,-0.69706,0,0,0.2,-9.4739e-16,0,0.66667
0.97541,0.64526,4.877,0.21789,0.23645,0.37706,-2.8337,0.94456,-1.8302,-3.7783,-1.6526e-08,-0.91508,0,0,0.2,-9.4739e-16,0,0.66667
0.38552,0.12996,1.9276,-0.55506,-15.606,54.658,2.8531,-0.95104,-0.90436,3.8042,-1.4455e-12,-0.45218,0,0,0.2,9.4739e-16,0,0.66667
0.41693,0.73451,2.0846,0.35176,9.5272,49.894,-1.9555,0.65182,-1.5591,-2.6073,1.2378e-12,-0.77953,0,0,0.2,-0,-0,0.66667
0.51973,0.99757,2.5987,0.74636,18.154,36.333,-5.1721,1.724,-0.019795,-6.8962,1.5632e-13,-0.0098975,0,0,0.2,9.4739e-16,0,0.66667
0.35329,0.024974,1.7664,-0.71254,-20.746,59.659,3.3564,-1.1188,-0.19426,4.4752,-9.6589e-14,-0.097132,0,0,0.2,4.737e-16,0,0.66667
0.54525,0.83111,2.7262,0.49666,11.471,32.762,-3.6107,1.2036,-1.123,-4.8143,-1.9851e-13,-0.56151,0,0,0.2,-0,-0,0.66667
0.88975,0.49816,4.4488,-0.0027625,-0.017571,2.7322,0.032773,-0.010924,-2.0017,0.043697,-3.2824e-08,-1.0008,0,0,0.2,7.1054e-16,0,0.66667
0.73052,0.93548,3.6526,0.65321,10.062,13.618,-6.3625,2.1208,-0.48346,-8.4833,1.5801e-12,-0.24173,0,0,0.2,-1.1842e-15,-2.0715e-16,0.66667
0.20651,0.14358,1.0326,-0.53462,-16.907,82.933,1.4721,-0.49069,-0.98321,1.9628,1.8882e-10,-0.4916,0,0,0.2,-2.3685e-16,0,0.66667
0.80015,0.65123,4.0008,0.22685,2.6001,7.7201,-2.4201,0.80671,-1.8173,-3.2269,3.0386e-10,-0.90863,0,0,0.2,-1.4211e-15,0,0.66667
0.79531,0.20932,3.9765,-0.43601,-5.1726,8.2926,4.6235,-1.5412,-1.3244,6.1647,-3.2365e-10,-0.66219,0,0,0.2,9.4739e-16,0,0.66667
0.79909,0.59601,3.9955,0.14402,1.6543,7.7368,-1.5345,0.5115,-1.9273,-2.046,1.2992e-10,-0.96365,0,0,0.2,-1.8948e-15,0,0.66667
0.3168,0.49343,1.584,-0.0098512,-0.28967,64.916,0.041612,-0.013871,-1.9994,0.055482,4.9412e-13,-0.9997,0,0,0.2,-2.3685e-16,0,0.66667
0.61295,0.86959,3.0648,0.55439,11.39,24.907,-4.5308,1.5103,-0.9073,-6.0411,-1.0876e-12,-0.45365,0,0,0.2,-1.4211e-15,0,0.66667
0.65229,0.99038,3.2615,0.73556,14.07,21.062,-6.3973,2.1324,-0.075757,-8.5298,3.1086e-14,-0.037878,0,0,0.2,-0,-0,0.66667
0.12023,0.84892,0.60113,0.52339,17.037,97.475,-0.83899,0.27966,-1.0258,-1.1187,1.2709e-09,-0.51292,0,0,0.2,-0,-0,0.66667
0.91868,0.46765,4.5934,-0.04853,-0.22422,1.6533,0.59444,-0.19815,-1.9926,0.79259,2.0676e-08,-0.99628,0,0,0.2,2.4869e-15,0,0.66667
0.36814,0.84175,1.8407,0.51262,14.612,57.218,-2.5162,0.83873,-1.0657,-3.3549,1.8527e-12,-0.53287,0,0,0.2,-5.9212e-16,0,0.66667
0.68838,0.16083,3.4419,-0.50876,-8.7624,17.107,4.6696,-1.5565,-1.0809,6.2261,1.3038e-12,-0.54045,0,0,0.2,-1.8948e-15,0,0.66667
0.92834,0.017931,4.6417,-0.7231,-3.3011,2.4217,8.9505,-2.9835,-0.13973,11.934,-2.402e-07,-0.069864,0,0,0.2,1.8948e-15,0,0.66667
0.67487,0.62506,3.3744,0.18759,3.3025,18.064,-1.688,0.56266,-1.8761,-2.2506,1.0565e-12,-0.93805,0,0,0.2,-1.8948e-15,0,0.66667
0.93848,0.4245,4.6924,-0.11325,-0.38564,1.0804,1.4171,-0.47236,-1.9548,1.8894,5.1253e-08,-0.97738,0,0,0.2,-0,-0,0.66667
0.69911,0.84806,3.4955,0.52209,8.7404,16.131,-4.8667,1.6222,-1.0309,-6.4889,6.5148e-13,-0.51547,0,0,0.2,-0,-0,0.66667
0.17086,0.74637,0.85429,0.36955,11.796,88.837,-0.84188,0.28063,-1.5157,-1.1225,-8.647e-10,-0.75786,0,0,0.2,-5.9212e-17,0,0.66667
0.72891,0.18436,3.6445,-0.47346,-7.2308,13.425,4.6014,-1.5338,-1.203,6.1352,-1.9635e-11,-0.60151,0,0,0.2,2.158e-16,0,0.66667
0.40572,0.53414,2.0286,0.05121,1.3963,51.413,-0.27703,0.092343,-1.9923,-0.36937,-4.326e-13,-0.99617,0,0,0.2,9.4739e-16,0,0.66667
0.31857,0.61105,1.5929,0.16657,4.8965,64.658,-0.70753,0.23584,-1.9002,-0.94338,-1.7542e-12,-0.95011,0,0,0.2,4.737e-16,0,0.66667
0.78065,0.35957,3.9032,-0.21064,-2.6293,9.0637,2.1925,-0.73084,-1.8427,2.9233,-2.0271e-10,-0.92136,0,0,0.2,9.4739e-16,0,0.66667
0.79049,0.36944,3.9524,-0.19584,-2.3424,8.3563,2.0641,-0.68804,-1.8632,2.7522,-2.2539e-10,-0.93158,0,0,0.2,1.4211e-15,0,0.66667
0.94901,0.35226,4.7451,-0.22161,-0.6161,0.89068,2.8041,-0.9347,-1.825,3.7388,1.3159e-08,-0.91248,0,0,0.2,1.8948e-15,0,0.66667
0.20319,0.74756,1.0159,0.37134,11.703,83.419,-1.006,0.33534,-1.5117,-1.3413,-3.5158e-10,-0.75584,0,0,0.2,5.9212e-17,0,0.66667
0.53266,0.3068,2.6633,-0.2898,-6.7753,34.14,2.0582,-0.68606,-1.7022,2.7443,6.6724e-13,-0.8511,0,0,0.2,-2.3685e-16,0,0.66667
0.77212,0.48237,3.8606,-0.026439,-0.3405,9.6126,0.27219,-0.090731,-1.9964,0.36292,-2.9195e-11,-0.99818,0,0,0.2,1.8948e-15,0,0.66667
0.51635,0.57954,2.5817,0.11931,2.8487,36.143,-0.82138,0.27379,-1.9498,-1.0952,9.2981e-14,-0.97492,0,0,0.2,-9.4739e-16,0,0.66667
0.22879,0.53442,1.1439,0.051636,1.6011,79.109,-0.15751,0.052505,-1.9905,-0.21002,-2.3107e-11,-0.99526,0,0,0.2,-0,-0,0.66667
0.99529,0.92434,4.9765,0.63651,0.095514,0.93315,-8.4469,2.8156,-0.55859,-11.262,6.9227e-08,-0.2793,0,0,0.2,-0,-0,0.66667
0.88932,0.73493,4.4466,0.35239,2.2961,2.9958,-4.1785,1.3928,-1.5586,-5.5713,2.9364e-09,-0.77932,0,0,0.2,1.8948e-15,0,0.66667
0.57714,0.2361,2.8857,-0.39585,-8.6333,28.797,3.0462,-1.0154,-1.4432,4.0616,1.3298e-12,-0.72159,0,0,0.2,-0,-0,0.66667
0.53805,0.24345,2.6902,-0.38483,-8.9487,33.539,2.7607,-0.92025,-1.4728,3.681,8.5798e-13,-0.73641,0,0,0.2,-9.4739e-16,0,0.66667
0.83998,0.28499,4.1999,-0.32251,-3.012,5.3679,3.612,-1.204,-1.6305,4.816,-1.184e-09,-0.81523,0,0,0.2,-1.8948e-15,0,0.66667
0.91463,0.66044,4.5732,0.24067,1.1852,1.9024,-2.9349,0.97831,-1.7937,-3.9133,5.3715e-09,-0.89687,0,0,0.2,-1.8948e-15,0,0.66667
0.81959,0.85147,4.0979,0.5272,5.6134,6.8828,-5.7611,1.9204,-1.011,-7.6815,2.7953e-10,-0.50549,0,0,0.2,-1.8948e-15,0,0.66667
0.43281,0.67654,2.164,0.2648,7.0381,47.565,-1.5281,0.50938,-1.7499,-2.0375,6.0185e-13,-0.87495,0,0,0.2,4.737e-16,0,0.66667
0.85562,0.96994,4.2781,0.70491,6.2471,5.2744,-8.0418,2.6806,-0.23402,-10.722,6.8749e-10,-0.11701,0,0,0.2,-0,3.4659e-17,0.66667
0.22561,0.09507,1.128,-0.60739,-19.094,79.818,1.8271,-0.60903,-0.68847,2.4361,4.7972e-11,-0.34423,0,0,0.2,-0,-0,0.66667
0.54052,0.4383,2.7026,-0.092554,-2.1306,33.063,0.66703,-0.22234,-1.9699,0.88937,5.001e-13,-0.98495,0,0,0.2,-1.8948e-15,0,0.66667
0.31515,0.66325,1.5758,0.24488,7.2243,65.218,-1.029,0.34299,-1.787,-1.372,-3.0532e-12,-0.89348,0,0,0.2,-0,-0,0.66667
0.11963,0.32401,0.59817,-0.26399,-8.5388,97.522,0.4211,-0.14037,-1.7513,0.56146,1.5983e-09,-0.87564,0,0,0.2,-0,-0,0.66667
0.14551,0.41987,0.72756,-0.12019,-3.8532,93.088,0.23319,-0.07773,-1.9477,0.31092,1.3229e-10,-0.97385,0,0,0.2,-2.3685e-16,0,0.66667
0.9366,0.14387,4.683,-0.5342,-2.0326,1.6987,6.6711,-2.2237,-0.98578,8.8948,-6.9654e-09,-0.49289,0,0,0.2,9.4739e-16,0,0.66667
0.19499,0.99856,0.97496,0.74783,23.977,84.969,-1.9443,0.6481,-0.011699,-2.5924,2.7089e-10,-0.0058494,0,0,0.2,-0,-0,0.66667
0.64991,0.17651,3.2496,-0.48524,-9.1781,20.863,4.2048,-1.4016,-1.1618,5.6064,2.7081e-12,-0.5809,0,0,0.2,-0,-0,0.66667
0.23912,0.45247,1.1956,-0.071301,-2.1996,77.409,0.22733,-0.075776,-1.981,0.3031,4.4701e-11,-0.9905,0,0,0.2,-0,-0,0.66667
0.52547,0.34398,2.6273,-0.23402,-5.5236,35.019,1.6396,-0.54654,-1.8058,2.1862,6.628e-14,-0.90291,0,0,0.2,1.8948e-15,0,0.66667
0.13063,0.85588,0.65317,0.53382,17.337,95.703,-0.9298,0.30993,-0.98579,-1.2397,-1.5002e-09,-0.49289,0,0,0.2,2.3685e-16,0,0.66667
0.28954,0.51812,1.4477,0.027185,0.81435,69.236,-0.10495,0.034982,-1.9962,-0.13993,-2.6866e-12,-0.99809,0,0,0.2,-0,-0,0.66667
0.40052,0.98596,2.0026,0.72894,20.377,52.646,-3.8928,1.2976,-0.10967,-5.1904,-4.6496e-13,-0.054833,0,0,0.2,9.4739e-16,0,0.66667
0.70668,0.93804,3.5334,0.65705,10.875,15.693,-6.191,2.0637,-0.46594,-8.2547,-6.0973e-13,-0.23297,0,0,0.2,-1.8948e-15,0,0.66667
0.90107,0.40516,4.5053,-0.14226,-0.81184,2.3187,1.7091,-0.56971,-1.9285,2.2789,8.89e-09,-0.96425,0,0,0.2,-5.9212e-16,0,0.66667
0.42858,0.59949,2.1429,0.14924,3.9773,48.124,-0.85281,0.28427,-1.9203,-1.1371,5.429e-13,-0.96014,0,0,0.2,-0,-0,0.66667
0.71382,0.00089213,3.5691,-0.74866,-12.238,15.264,7.1255,-2.3752,-0.0076796,9.5006,2.7711e-13,-0.0038398,0,0,0.2,3.7896e-15,0,0.66667
0.13909,0.17137,0.69543,-0.49295,-15.95,94.253,0.91416,-0.30472,-1.1361,1.2189,2.7514e-09,-0.56804,0,0,0.2,-0,-0,0.66667
0.10058,0.26769,0.50288,-0.34847,-11.339,100.8,0.46729,-0.15576,-1.5671,0.62306,1.6368e-09,-0.78353,0,0,0.2,-1.1842e-16,0,0.66667
0.44811,0.26291,2.2405,-0.35564,-9.3133,45.46,2.1249,-0.70828,-1.5494,2.8331,-1.0332e-12,-0.77468,0,0,0.2,-0,-0,0.66667
0.76051,0.36574,3.8025,-0.20139,-2.7214,10.561,2.0421,-0.68071,-1.8551,2.7228,-1.0228e-10,-0.92753,0,0,0.2,-0,-0,0.66667
0.23162,0.18404,1.1581,-0.47394,-14.784,78.757,1.4636,-0.48788,-1.202,1.9515,7.7515e-11,-0.60099,0,0,0.2,-4.9852e-17,0,0.66667
0.80913,0.60592,4.0457,0.15888,1.7402,7.0828,-1.7141,0.57135,-1.9097,-2.2854,3.1625e-10,-0.95487,0,0,0.2,-0,-0,0.66667
0.25241,0.45778,1.262,-0.06333,-1.9398,75.234,0.21313,-0.071045,-1.9856,0.28418,2.4911e-11,-0.99281,0,0,0.2,-2.3685e-16,0,0.66667
0.083801,0.94775,0.41901,0.67162,22.152,103.75,-0.75043,0.25014,-0.3953,-1.0006,-5.6284e-09,-0.19765,0,0,0.2,-0,-0,0.66667
0.513,0.18077,2.565,-0.47885,-11.596,36.822,3.2754,-1.0918,-1.1849,4.3671,-1.9296e-13,-0.59246,0,0,0.2,3.0376e-16,0,0.66667
0.00097781,0.69041,0.004889,0.28562,9.3782,118.02,-0.0037238,0.0012412,-1.7114,-0.004965,-2.6946e-08,-0.85569,0,0,0.2,-3.7007e-18,-5.4968e-16,0.66667
0.70811,0.81301,3.5406,0.46951,7.6364,15.233,-4.4329,1.4776,-1.2168,-5.9106,4.6732e-12,-0.60841,0,0,0.2,-1.8948e-15,0,0.66667
0.73906,0.29006,3.6953,-0.31491,-4.6121,12.372,3.1032,-1.0344,-1.6468,4.1375,-5.422e-11,-0.8234,0,0,0.2,-1.8948e-15,0,0.66667
0.97332,0.83098,4.8666,0.49647,0.70858,0.83968,-6.443,2.1477,-1.1228,-8.5906,-1.7122e-07,-0.56139,0,0,0.2,9.4739e-16,0,0.66667
0.66316,0.7083,3.3158,0.31245,5.684,19.316,-2.7628,0.92092,-1.6519,-3.6837,-1.9176e-12,-0.82593,0,0,0.2,-0,-0,0.66667
0.49422,0.29566,2.4711,-0.30651,-7.5725,39.134,2.0198,-0.67325,-1.6649,2.693,-1.37e-13,-0.83243,0,0,0.2,9.4739e-16,0,0.66667
0.073623,0.5094,0.36812,0.014096,0.4591,105.42,-0.013837,0.0046123,-1.9987,-0.01845,-3.064e-07,-0.99934,0,0,0.2,-0,-0,0.66667
0.5343,0.45209,2.6715,-0.071862,-1.6701,33.84,0.51194,-0.17065,-1.9812,0.68259,5.3957e-14,-0.99058,0,0,0.2,-0,-0,0.66667
0.14183,0.40311,0.70915,-0.14533,-4.6654,93.717,0.27484,-0.091612,-1.9262,0.36645,-6.9214e-10,-0.9631,0,0,0.2,-2.9606e-16,0,0.66667
0.80239,0.59772,4.0119,0.14658,1.658,7.5177,-1.5682,0.52272,-1.9235,-2.0909,1.5143e-10,-0.96174,0,0,0.2,-1.8948e-15,0,0.66667
0.57615,0.058198,2.8807,-0.6627,-14.673,29.276,5.0909,-1.697,-0.43928,6.7878,1.7053e-13,-0.21964,0,0,0.2,-0,1.1246e-16,0.66667
0.21291,0.32221,1.0646,-0.26668,-8.3505,81.77,0.75707,-0.25236,-1.7463,1.0094,2.6738e-10,-0.87313,0,0,0.2,-0,-0,0.66667
0.70706,0.23416,3.5353,-0.39877,-6.4802,15.231,3.7593,-1.2531,-1.4339,5.0124,-8.6855e-12,-0.71694,0,0,0.2,-9.4739e-16,0,0.66667
0.33301,0.48022,1.665,-0.029665,-0.86191,62.386,0.13172,-0.043906,-1.996,0.17562,7.5731e-14,-0.99801,0,0,0.2,-0,-0,0.66667
0.6691,0.6906,3.3455,0.2859,5.121,18.702,-2.5506,0.85021,-1.7101,-3.4008,-1.0765e-12,-0.85503,0,0,0.2,-0,-0,0.66667
0.77955,0.074944,3.8978,-0.63758,-8.2343,9.7702,6.6271,-2.209,-0.55469,8.8361,-2.5558e-11,-0.27734,0,0,0.2,-0,-2.2703e-16,0.66667
0.086576,0.25356,0.43288,-0.36966,-12.066,103.21,0.42672,-0.14224,-1.5139,0.56895,3.0208e-09,-0.75696,0,0,0.2,2.3685e-16,0,0.66667
0.51066,0.065925,2.5533,-0.65111,-15.951,37.347,4.4333,-1.4778,-0.49269,5.911,-3.5572e-13,-0.24635,0,0,0.2,-0,-0,0.66667
0.10367,0.17119,0.51837,-0.49321,-16.1,100.3,0.68177,-0.22726,-1.134,0.90903,1.228e-08,-0.567,0,0,0.2,-0,-0,0.66667
0.64946,0.12302,3.2473,-0.56547,-10.756,21.031,4.8966,-1.6322,-0.8632,6.5289,2.0122e-12,-0.4316,0,0,0.2,-1.0658e-15,0,0.66667
0.3155,0.033824,1.5775,-0.69926,-20.935,65.464,2.9416,-0.98052,-0.26215,3.9221,-4.1589e-13,-0.13108,0,0,0.2,-9.4739e-16,0,0.66667
0.6435,0.067169,3.2175,-0.64925,-12.585,21.793,5.5705,-1.8568,-0.50166,7.4274,9.8588e-13,-0.25083,0,0,0.2,-0,-0,0.66667
0.048554,0.67673,0.24277,0.2651,8.6806,109.77,-0.17162,0.057207,-1.7503,-0.22883,4.0402e-09,-0.87515,0,0,0.2,-0,-0,0.66667
0.867,0.23599,4.335,-0.39602,-3.1113,4.0619,4.5779,-1.526,-1.4412,6.1039,-2.8526e-09,-0.72058,0,0,0.2,-9.4739e-16,0,0.66667
0.47816,0.47888,2.3908,-0.031673,-0.79595,41.189,0.20193,-0.067311,-1.9955,0.26924,-3.4461e-13,-0.99774,0,0,0.2,-0,-0,0.66667
0.79355,0.50768,3.9678,0.011514,0.13539,8.0771,-0.12182,0.040608,-1.9994,-0.16243,2.8794e-11,-0.9997,0,0,0.2,-0,-0,0.66667
0.22664,0.019746,1.1332,-0.72038,-22.747,79.724,2.1769,-0.72562,-0.15372,2.9025,-1.0667e-11,-0.07686,0,0,0.2,-0,-0,0.66667
0.33497,0.25484,1.6749,-0.36774,-10.72,62.182,1.6425,-0.54749,-1.5188,2.1899,-2.2491e-12,-0.75938,0,0,0.2,-0,-0,0.66667
0.76377,0.9978,3.8189,0.7467,10.367,11.188,-7.6042,2.5347,-0.018741,-10.139,-1.6193e-11,-0.0093706,0,0,0.2,-1.8948e-15,0,0.66667
0.85342,0.91213,4.2671,0.61819,5.4825,5.1689,-7.0343,2.3448,-0.64076,-9.3791,-5.0009e-10,-0.32038,0,0,0.2,-0,-0,0.66667
0.43712,0.35022,2.1856,-0.22467,-5.9387,46.933,1.3094,-0.43648,-1.8217,1.7459,-1.1667e-12,-0.91086,0,0,0.2,9.4739e-16,0,0.66667
0.93033,0.55636,4.6517,0.084533,0.33026,1.2984,-1.0486,0.34953,-1.974,-1.3981,3.7834e-08,-0.98699,0,0,0.2,-4.737e-16,0,0.66667
0.57961,0.018522,2.8981,-0.72222,-15.956,28.976,5.5814,-1.8605,-0.14558,7.4419,-5.9508e-14,-0.072789,0,0,0.2,-0,-0,0.66667
0.049097,0.99358,0.24549,0.74037,24.609,109.73,-0.48467,0.16156,-0.051392,-0.64623,9.5552e-07,-0.025696,0,0,0.2,-1.7764e-16,0,0.66667
0.45286,0.070823,2.2643,-0.64377,-16.959,45.087,3.8872,-1.2957,-0.52748,5.1829,-3.1219e-13,-0.26374,0,0,0.2,-9.4739e-16,0,0.66667
0.1604,0.3685,0.802,-0.19726,-6.2989,90.568,0.42187,-0.14062,-1.8614,0.56249,8.4289e-10,-0.93072,0,0,0.2,1.1842e-16,0,0.66667
0.73282,0.089993,3.6641,-0.61501,-9.3735,13.346,6.0093,-2.0031,-0.6562,8.0124,-4.3259e-12,-0.3281,0,0,0.2,-1.2041e-15,1.0021e-16,0.66667
0.34735,0.95256,1.7368,0.67885,19.826,60.526,-3.144,1.048,-0.36083,-4.192,1.0281e-12,-0.18042,0,0,0.2,-0,-0,0.66667
0.20118,0.56136,1.0059,0.092041,2.891,83.696,-0.24689,0.082296,-1.9712,-0.32918,-2.9336e-10,-0.98562,0,0,0.2,2.6645e-16,0,0.66667
0.84279,0.57898,4.2139,0.11847,1.0767,5.0433,-1.3313,0.44377,-1.9504,-1.7751,6.3465e-10,-0.97521,0,0,0.2,-9.4739e-16,0,0.66667
0.8178,0.15611,4.089,-0.51584,-5.5365,6.9712,5.6247,-1.8749,-1.0545,7.4996,7.5448e-11,-0.52727,0,0,0.2,-2.2204e-16,0,0.66667
0.34365,0.11076,1.7182,-0.58386,-17.03,61.001,2.6752,-0.89174,-0.78868,3.567,-1.5623e-12,-0.39434,0,0,0.2,4.737e-16,2.3499e-16,0.66667
0.40362,0.40093,2.0181,-0.14861,-4.0633,51.738,0.79975,-0.26658,-1.9219,1.0663,-9.075e-13,-0.96094,0,0,0.2,-7.1054e-16,0,0.66667
0.0606,0.29818,0.303,-0.30274,-9.9064,107.69,0.24461,-0.081537,-1.6741,0.32615,-1.0443e-08,-0.83703,0,0,0.2,1.1842e-16,0,0.66667
0.17888,0.86191,0.89442,0.54286,17.366,87.548,-1.2948,0.4316,-0.951,-1.7264,-6.1833e-10,-0.4755,0,0,0.2,-0,-0,0.66667
0.73592,0.10824,3.6796,-0.58764,-8.8472,13.035,5.7661,-1.922,-0.77227,7.6881,-7.8577e-12,-0.38613,0,0,0.2,-0,-0,0.66667
0.56613,0.01939,2.8307,-0.72092,-16.297,30.563,5.4418,-1.8139,-0.15155,7.2557,-1.0481e-13,-0.075773,0,0,0.2,-0,-0,0.66667
0.82324,0.18884,4.1162,-0.46673,-4.8472,6.5513,5.1231,-1.7077,-1.2259,6.8308,-7.9392e-10,-0.61296,0,0,0.2,-0,-0,0.66667
0.50115,0.43709,2.5058,-0.094362,-2.3013,38.122,0.63053,-0.21018,-1.9702,0.84071,9.9643e-14,-0.9851,0,0,0.2,-1.2434e-15,0,0.66667
0.76786,0.59669,3.8393,0.14503,1.9025,9.9665,-1.4849,0.49496,-1.9261,-1.9798,8.7436e-11,-0.96306,0,0,0.2,-0,-0,0.66667
0.50992,0.59353,2.5496,0.1403,3.3816,36.984,-0.95387,0.31796,-1.9306,-1.2718,3.9618e-13,-0.96529,0,0,0.2,-1.0066e-15,0,0.66667
0.56807,0.60153,2.8403,0.1523,3.3532,29.706,-1.1536,0.38452,-1.9169,-1.5381,-6.9744e-13,-0.95844,0,0,0.2,-0,-0,0.66667
0.18462,0.82906,0.92309,0.49358,15.729,86.567,-1.215,0.405,-1.1333,-1.62,-3.7422e-10,-0.56667,0,0,0.2,2.3685e-16,0,0.66667
0.5444,0.11315,2.722,-0.58028,-13.474,32.976,4.2121,-1.404,-0.80255,5.6161,7.5495e-13,-0.40128,0,0,0.2,-9.4739e-16,3.4082e-17,0.66667
0.20103,0.12017,1.0052,-0.56975,-18.084,83.861,1.5272,-0.50906,-0.84647,2.0362,-3.0144e-11,-0.42323,0,0,0.2,3.5527e-16,-2.9312e-16,0.66667
0.55622,0.11992,2.7811,-0.57011,-12.984,31.513,4.2281,-1.4094,-0.84395,5.6375,2.4603e-13,-0.42198,0,0,0.2,2.3685e-16,0,0.66667
0.14144,0.22933,0.70721,-0.406,-13.095,93.828,0.76567,-0.25522,-1.4145,1.0209,2.1574e-09,-0.70724,0,0,0.2,-0,-0,0.66667
0.18601,0.67068,0.93005,0.25602,8.1068,86.26,-0.63496,0.21165,-1.767,-0.84662,-5.682e-10,-0.88352,0,0,0.2,-0,-0,0.66667
0.76478,0.26109,3.8239,-0.35837,-4.7973,10.382,3.6543,-1.2181,-1.5439,4.8724,-1.3193e-10,-0.77195,0,0,0.2,1.8948e-15,0,0.66667
0.070886,0.28377,0.35443,-0.32434,-10.603,105.91,0.30655,-0.10218,-1.6259,0.40873,-5.753e-09,-0.81297,0,0,0.2,-2.3685e-16,0,0.66667
0.36931,0.27069,1.8466,-0.34396,-9.7431,56.922,1.6937,-0.56458,-1.5784,2.2583,-2.8084e-12,-0.78921,0,0,0.2,-4.737e-16,0,0.66667
0.87788,0.1537,4.3894,-0.51945,-3.8132,3.7759,6.0802,-2.0267,-1.0414,8.1069,3.4265e-09,-0.52068,0,0,0.2,9.4739e-16,0,0.66667
0.10434,0.81473,0.52169,0.4721,15.399,100.18,-0.65677,0.21892,-1.2078,-0.87569,-2.7546e-10,-0.6039,0,0,0.2,-0,-0,0.66667
0.35915,0.43564,1.7958,-0.096545,-2.7477,58.373,0.46233,-0.15411,-1.9689,0.61644,-1.1464e-12,-0.98443,0,0,0.2,5.9212e-17,0,0.66667
0.11396,0.97971,0.5698,0.71957,23.641,98.607,-1.0934,0.36445,-0.15827,-1.4578,-3.7532e-09,-0.079136,0,0,0.2,-0,-0,0.66667
0.87654,0.071392,4.3827,-0.64291,-4.8655,4.1154,7.5138,-2.5046,-0.53074,10.018,-1.5424e-08,-0.26537,0,0,0.2,-0,-0,0.66667
0.12624,0.20061,0.63119,-0.44909,-14.563,96.429,0.75589,-0.25196,-1.2832,1.0079,3.2829e-09,-0.64158,0,0,0.2,2.3685e-16,0,0.66667
0.25456,0.13766,1.2728,-0.54352,-16.793,75.049,1.8447,-0.61491,-0.94883,2.4596,2.2783e-11,-0.47441,0,0,0.2,-4.737e-16,0,0.66667
0.42191,0.18885,2.1095,-0.46673,-12.621,49.265,2.6255,-0.87518,-1.2277,3.5007,-1.1926e-12,-0.61383,0,0,0.2,-0,-0,0.66667
0.66526,0.27306,3.3263,-0.34041,-6.1675,19.134,3.0194,-1.0065,-1.5872,4.0259,1.9593e-12,-0.79359,0,0,0.2,-0,-0,0.66667
0.34471,0.26224,1.7235,-0.35664,-10.315,60.675,1.6392,-0.54639,-1.5482,2.1855,-2.4621e-12,-0.77408,0,0,0.2,-9.4739e-16,0,0.66667
0.2135,0.84467,1.0675,0.517,16.29,81.766,-1.4717,0.49058,-1.0501,-1.9623,-5.6919e-11,-0.52506,0,0,0.2,-0,-0,0.66667
0.37339,0.58753,1.8669,0.1313,3.6922,56.225,-0.65367,0.21789,-1.9394,-0.87156,8.7558e-13,-0.96968,0,0,0.2,7.1054e-16,0,0.66667
0.57102,0.974,2.8551,0.71101,15.93,29.964,-5.4134,1.8045,-0.20208,-7.2178,8.9262e-14,-0.10104,0,0,0.2,-0,-0,0.66667
0.99075,0.12581,4.9538,-0.56129,-0.20043,0.77334,7.4146,-2.4715,-0.88021,9.8861,1.1329e-07,-0.4401,0,0,0.2,3.7896e-15,0,0.66667
0.32717,0.63899,1.6358,0.20849,6.0936,63.327,-0.90948,0.30316,-1.8458,-1.2126,-5.218e-15,-0.92289,0,0,0.2,4.737e-16,0,0.66667
0.3622,0.55245,1.811,0.078675,2.2331,57.906,-0.37995,0.12665,-1.9778,-0.5066,8.2367e-13,-0.98889,0,0,0.2,-0,-0,0.66667
0.70624,0.099204,3.5312,-0.60119,-9.9192,15.623,5.6611,-1.887,-0.71511,7.5482,-2.1183e-13,-0.35756,0,0,0.2,-0,-0,0.66667
0.29894,0.44449,1.4947,-0.083263,-2.4795,67.743,0.33187,-0.11062,-1.9757,0.4425,4.7251e-12,-0.98786,0,0,0.2,-0,-0,0.66667
0.3497,0.51382,1.7485,0.020736,0.59459,59.81,-0.096686,0.032229,-1.9974,-0.12891,-2.7203e-13,-0.99868,0,0,0.2,-0,-0,0.66667
0.99471,0.016505,4.9735,-0.72524,-0.22773,1.2048,9.6187,-3.2062,-0.12884,12.825,-5.2935e-06,-0.064421,0,0,0.2,-0,-0,0.66667
0.60427,0.94035,3.0213,0.66053,13.892,26.047,-5.3218,1.7739,-0.44887,-7.0957,-4.2144e-13,-0.22443,0,0,0.2,-0,-0,0.66667
0.82881,0.22529,4.1441,-0.41207,-4.1324,6.1309,4.5537,-1.5179,-1.3973,6.0716,-1.0489e-09,-0.69864,0,0,0.2,-0,-0,0.66667
0.031666,0.037053,0.15833,-0.69442,-23.066,112.73,0.29319,-0.097733,-0.2867,0.39092,-3.9702e-06,-0.14335,0,0,0.2,-1.1842e-16,0,0.66667
0.14549,0.46343,0.72745,-0.054849,-1.7578,93.088,0.1064,-0.035466,-1.9891,0.14187,8.1609e-10,-0.99454,0,0,0.2,2.9606e-16,0,0.66667
0.72773,0.63177,3.6386,0.19765,2.9919,13.226,-1.9178,0.63926,-1.8604,-2.5571,3.1452e-11,-0.93022,0,0,0.2,-1.8948e-15,0,0.66667
0.53974,0.8246,2.6987,0.4869,11.337,33.434,-3.504,1.168,-1.1559,-4.672,-6.164e-13,-0.57797,0,0,0.2,9.4739e-16,0,0.66667
0.99526,0.69767,4.9763,0.29651,-0.05255,0.23173,-3.9348,1.3116,-1.6867,-5.2464,2.1035e-08,-0.84334,0,0,0.2,1.8948e-15,0,0.66667
0.49563,0.63463,2.4781,0.20194,4.9686,38.888,-1.3345,0.44484,-1.8544,-1.7794,-7.5384e-14,-0.9272,0,0,0.2,-0,-0,0.66667
0.3841,0.69951,1.9205,0.29927,8.3572,54.681,-1.5327,0.5109,-1.6805,-2.0436,2.0437e-12,-0.84023,0,0,0.2,-0,-0,0.66667
0.19437,0.49297,0.97187,-0.010542,-0.33196,84.83,0.02732,-0.0091067,-1.9989,0.036427,1.4161e-10,-0.99945,0,0,0.2,-7.1054e-16,0,0.66667
0.59017,0.13924,2.9508,-0.54114,-11.604,27.457,4.2581,-1.4194,-0.95819,5.6775,7.9803e-13,-0.4791,0,0,0.2,-0,-0,0.66667
0.76663,0.18293,3.8331,-0.47561,-6.3703,10.41,4.8615,-1.6205,-1.1969,6.482,-7.5869e-11,-0.59844,0,0,0.2,9.4739e-16,0,0.66667
0.92444,0.35378,4.6222,-0.21933,-0.94612,1.5616,2.7034,-0.90115,-1.8288,3.6046,5.0385e-09,-0.91442,0,0,0.2,-0,-0,0.66667
0.13763,0.68109,0.68813,0.27163,8.7452,94.449,-0.49845,0.16615,-1.7378,-0.6646,-1.7421e-09,-0.86889,0,0,0.2,-0,-0,0.66667
0.0080899,0.92709,0.04045,0.64064,21.252,116.8,-0.069102,0.023034,-0.53968,-0.092136,3.8631e-07,-0.26984,0,0,0.2,7.4015e-18,0,0.66667
0.47796,0.63293,2.3898,0.1994,5.0201,41.257,-1.2707,0.42358,-1.8579,-1.6943,1.1546e-13,-0.92893,0,0,0.2,9.4739e-16,0,0.66667
0.18295,0.61762,0.91474,0.17643,5.587,86.76,-0.43037,0.14346,-1.8889,-0.57383,-3.0406e-10,-0.94445,0,0,0.2,-0,-0,0.66667
0.61034,0.9303,3.0517,0.64544,13.403,25.344,-5.2525,1.7508,-0.51958,-7.0034,-5.7776e-13,-0.25979,0,0,0.2,-0,-0,0.66667
0.62027,0.93104,3.1013,0.64656,13.163,24.257,-5.3472,1.7824,-0.51329,-7.1296,-5.7332e-13,-0.25664,0,0,0.2,4.737e-16,0,0.66667
0.40963,0.15897,2.0482,-0.51155,-14.031,51.078,2.794,-0.93132,-1.0701,3.7253,-1.8068e-12,-0.53507,0,0,0.2,9.4739e-16,0,0.66667
0.67721,0.13441,3.386,-0.54838,-9.7474,18.237,4.9515,-1.6505,-0.93,6.602,1.9242e-12,-0.465,0,0,0.2,-0,-0,0.66667
0.19967,0.42881,0.99835,-0.10679,-3.3567,83.949,0.28431,-0.094769,-1.9592,0.37907,2.6293e-10,-0.97959,0,0,0.2,-0,-0,0.66667
0.80858,0.53504,4.0429,0.052556,0.57597,7.078,-0.56661,0.18887,-1.9904,-0.75548,1.1239e-10,-0.99521,0,0,0.2,-1.8948e-15,0,0.66667
0.05034,0.87518,0.2517,0.56276,18.568,109.49,-0.37773,0.12591,-0.87499,-0.50363,-5.0412e-08,-0.4375,0,0,0.2,-0,-0,0.66667
0.17186,0.51451,0.85931,0.021767,0.69144,88.616,-0.049878,0.016626,-1.9991,-0.066504,-2.604e-10,-0.99955,0,0,0.2,-4.737e-16,0,0.66667
0.9806,0.35881,4.903,-0.21179,-0.15753,0.29746,2.769,-0.92301,-1.8398,3.6921,4.3743e-08,-0.91991,0,0,0.2,1.8948e-15,0,0.66667
0.90038,0.13807,4.5019,-0.5429,-3.2753,2.8946,6.5175,-2.1725,-0.95096,8.69,2.5169e-09,-0.47548,0,0,0.2,-0,-0,0.66667
0.93973,0.94373,4.6986,0.66559,2.5113,1.9453,-8.3397,2.7799,-0.42524,-11.12,2.7112e-07,-0.21262,0,0,0.2,1.8948e-15,0,0.66667
0.90844,0.39415,4.5422,-0.15877,-0.83625,2.0538,1.9231,-0.64104,-1.9103,2.5642,-1.1493e-08,-0.95513,0,0,0.2,9.4739e-16,0,0.66667
0.44142,0.70962,2.2071,0.31443,8.2876,46.373,-1.8506,0.61687,-1.648,-2.4675,7.5517e-13,-0.82401,0,0,0.2,-0,-0,0.66667
0.9388,0.3666,4.694,-0.2001,-0.68295,1.1284,2.5047,-0.83491,-1.8582,3.3396,2.7906e-08,-0.92908,0,0,0.2,-0,-0,0.66667
0.23741,0.2357,1.1871,-0.39645,-12.304,77.77,1.255,-0.41833,-1.4407,1.6733,1.0928e-10,-0.72034,0,0,0.2,-0,-0,0.66667
0.049514,0.71385,0.24757,0.32078,10.514,109.61,-0.21178,0.070592,-1.6346,-0.28237,1.402e-08,-0.81729,0,0,0.2,-8.8818e-17,0,0.66667
0.55726,0.69712,2.7863,0.29569,6.6497,31.092,-2.197,0.73233,-1.6884,-2.9293,-7.3785e-13,-0.84418,0,0,0.2,-0,-0,0.66667
0.31332,0.828,1.5666,0.49199,14.626,65.632,-2.0554,0.68512,-1.1397,-2.7405,9.9831e-13,-0.56987,0,0,0.2,4.737e-16,0,0.66667
0.53208,0.21201,2.6604,-0.43198,-10.154,34.335,3.0646,-1.0215,-1.3374,4.0862,5.8353e-13,-0.66872,0,0,0.2,-4.737e-16,0,0.66667
0.47161,0.23088,2.358,-0.40368,-10.296,42.251,2.5384,-0.84613,-1.4202,3.3845,-1.5943e-13,-0.71012,0,0,0.2,-0,-0,0.66667
0.48313,0.64043,2.4157,0.21064,5.2692,40.563,-1.3569,0.4523,-1.8424,-1.8092,-2.9576e-13,-0.92122,0,0,0.2,9.4739e-16,0,0.66667
0.57008,0.15658,2.8504,-0.51513,-11.432,29.772,3.9156,-1.3052,-1.0569,5.2207,6.2172e-13,-0.52844,0,0,0.2,-0,-0,0.66667
0.92344,0.43216,4.6172,-0.10176,-0.44123,1.5154,1.253,-0.41766,-1.964,1.6706,-8.0429e-08,-0.98199,0,0,0.2,-0,-0,0.66667
0.23619,0.67009,1.181,0.25513,7.8984,77.922,-0.80348,0.26783,-1.7685,-1.0713,-1.3067e-10,-0.88426,0,0,0.2,-0,-0,0.66667
0.87608,0.80874,4.3804,0.46311,3.4217,3.7489,-5.4096,1.8032,-1.2387,-7.2129,6.2099e-09,-0.61934,0,0,0.2,-9.4739e-16,0,0.66667
0.73384,0.74863,3.6692,0.37294,5.5731,12.872,-3.649,1.2163,-1.5074,-4.8653,3.8351e-11,-0.75371,0,0,0.2,1.1842e-15,0,0.66667
0.079211,0.028411,0.39605,-0.70738,-23.386,104.55,0.7471,-0.24903,-0.22223,0.99613,3.4118e-07,-0.11112,0,0,0.2,5.9212e-17,0,0.66667
0.83539,0.86492,4.1769,0.54738,5.3634,5.9906,-6.097,2.0323,-0.93365,-8.1293,-8.3577e-11,-0.46682,0,0,0.2,-9.4739e-16,0,0.66667
0.39764,0.23577,1.9882,-0.39635,-10.956,52.736,2.1014,-0.70047,-1.4402,2.8019,-1.8681e-12,-0.72012,0,0,0.2,-4.737e-16,0,0.66667
0.33574,0.080976,1.6787,-0.62854,-18.48,62.257,2.8136,-0.93788,-0.59416,3.7515,-1.0352e-12,-0.29708,0,0,0.2,4.737e-16,0,0.66667
0.000393,0.25022,0.001965,-0.37467,-12.325,118.13,0.0019633,-0.00065441,-1.5031,0.0026177,3.7705e-08,-0.75156,0,0,0.2,-9.2519e-19,-1.3097e-17,0.66667
0.24581,0.10531,1.229,-0.59204,-18.412,76.502,1.9403,-0.64678,-0.75305,2.5871,2.0297e-11,-0.37652,0,0,0.2,-0,-0,0.66667
0.68795,0.24636,3.4397,-0.38046,-6.5152,16.973,3.4898,-1.1633,-1.4869,4.6531,-1.5736e-12,-0.74345,0,0,0.2,-0,-0,0.66667
0.85117,0.098149,4.2559,-0.60278,-5.4111,5.2499,6.8409,-2.2803,-0.70777,9.1212,2.627e-09,-0.35388,0,0,0.2,-0,-0,0.66667
0.24105,0.64252,1.2052,0.21378,6.5974,77.115,-0.68709,0.22903,-1.8363,-0.91612,-1.0108e-10,-0.91816,0,0,0.2,4.737e-16,0,0.66667
0.37094,0.38261,1.8547,-0.17608,-4.9646,56.605,0.87086,-0.29029,-1.8894,1.1611,-2.1195e-12,-0.94472,0,0,0.2,-0,-0,0.66667
0.15042,0.20899,0.75212,-0.43651,-14.053,92.311,0.87549,-0.29183,-1.3216,1.1673,1.6013e-09,-0.66082,0,0,0.2,-2.3685e-16,0,0.66667
0.8035,0.51627,4.0175,0.024406,0.27409,7.4068,-0.26147,0.087158,-1.9967,-0.34863,9.511e-11,-0.99834,0,0,0.2,-0,-0,0.66667
0.71702,0.198,3.5851,-0.453,-7.169,14.418,4.3309,-1.4436,-1.2705,5.7745,-1.1692e-11,-0.63526,0,0,0.2,-0,-0,0.66667
0.70048,0.76957,3.5024,0.40436,6.6977,15.836,-3.7766,1.2589,-1.4184,-5.0354,5.2378e-12,-0.7092,0,0,0.2,-9.4739e-16,0,0.66667
0.67885,0.33448,3.3943,-0.24828,-4.3331,17.717,2.2473,-0.74909,-1.7799,2.9964,-9.9254e-13,-0.88994,0,0,0.2,-9.4739e-16,0,0.66667
0.89205,0.13771,4.4602,-0.54343,-3.5494,3.2226,6.4635,-2.1545,-0.95016,8.618,9.2308e-10,-0.47508,0,0,0.2,-0,-0,0.66667
0.88303,0.78875,4.4152,0.43313,3.0116,3.388,-5.0996,1.6999,-1.3322,-6.7994,3.854e-09,-0.66609,0,0,0.2,-0,-0,0.66667
0.62537,0.21736,3.1268,-0.42396,-8.4368,23.374,3.5351,-1.1784,-1.3629,4.7134,2.4256e-12,-0.68147,0,0,0.2,1.1842e-15,0,0.66667
0.28878,0.70249,1.4439,0.30374,9.1322,69.416,-1.1695,0.38984,-1.6707,-1.5593,-1.6294e-11,-0.83537,0,0,0.2,4.737e-16,0,0.66667
0.4031,0.8038,2.0155,0.45569,12.554,51.98,-2.4492,0.81641,-1.2615,-3.2656,1.565e-12,-0.63074,0,0,0.2,-4.737e-16,0,0.66667
0.028957,0.47567,0.14479,-0.036499,-1.1944,113.16,0.014093,-0.0046973,-1.9956,0.01879,4.0434e-07,-0.99778,0,0,0.2,-0,-0,0.66667
0.91648,0.81417,4.5824,0.47126,2.3479,2.174,-5.7587,1.9196,-1.2107,-7.6782,1.4402e-08,-0.60534,0,0,0.2,-0,-0,0.66667
0.68745,0.47236,3.4372,-0.041454,-0.70468,16.802,0.37997,-0.12666,-1.9957,0.50662,-1.2141e-12,-0.99783,0,0,0.2,-0,-0,0.66667
0.90817,0.43877,4.5409,-0.091846,-0.48369,2.0299,1.1122,-0.37072,-1.9714,1.4829,5.6305e-08,-0.98568,0,0,0.2,-3.7896e-15,0,0.66667
0.30209,0.58412,1.5104,0.12619,3.7508,67.249,-0.50825,0.16942,-1.9426,-0.67767,-5.5021e-12,-0.97131,0,0,0.2,-2.3685e-16,0,0.66667
0.94483,0.029775,4.7241,-0.70534,-2.4753,1.9334,8.8856,-2.9619,-0.23127,11.848,2.0821e-06,-0.11563,0,0,0.2,-7.1054e-16,0,0.66667
0.86403,0.035656,4.3202,-0.69652,-5.8285,4.8362,8.0242,-2.6747,-0.27504,10.699,-7.1899e-10,-0.13752,0,0,0.2,-1.8948e-15,0,0.66667
0.88601,0.39178,4.4301,-0.16234,-1.073,2.9425,1.9178,-0.63925,-1.9054,2.557,-2.3917e-09,-0.9527,0,0,0.2,1.8948e-15,0,0.66667
0.00014133,0.88439,0.00070665,0.57659,19.082,118.17,-0.0010873,0.00036196,-0.81894,-0.00145,-7.118e-07,-0.40947,0,0,0.2,-0,7.9656e-16,0.66667
0.37724,0.44442,1.8862,-0.083376,-2.3357,55.637,0.41937,-0.13979,-1.9756,0.55916,-1.1005e-12,-0.9878,0,0,0.2,-0,-0,0.66667
0.12233,0.68876,0.61163,0.28315,9.1553,97.064,-0.46181,0.15394,-1.716,-0.61575,-3.3934e-10,-0.85801,0,0,0.2,-0,-0,0.66667
0.93281,0.82875,4.664,0.49312,1.9714,1.7156,-6.1331,2.0444,-1.1345,-8.1775,2.5995e-08,-0.56725,0,0,0.2,-0,-0,0.66667
0.51371,0.7453,2.5685,0.36795,8.8653,36.624,-2.5202,0.84008,-1.5194,-3.3603,1.7075e-13,-0.75969,0,0,0.2,-4.737e-16,0,0.66667
0.48934,0.2351,2.4467,-0.39735,-9.9066,39.853,2.5925,-0.86416,-1.4377,3.4566,-1.2168e-13,-0.71883,0,0,0.2,-9.4739e-16,0,0.66667
0.48692,0.82297,2.4346,0.48445,12.155,40.259,-3.1452,1.0484,-1.1654,-4.1936,1.8585e-13,-0.5827,0,0,0.2,-0,-0,0.66667
0.57029,0.091207,2.8515,-0.61319,-13.673,29.887,4.6626,-1.5542,-0.66306,6.2168,1.3722e-13,-0.33153,0,0,0.2,4.737e-16,0,0.66667
0.54451,0.97621,2.7225,0.71431,16.712,33.173,-5.186,1.7287,-0.18603,-6.9146,1.2434e-13,-0.093015,0,0,0.2,-0,-1.7211e-16,0.66667
0.91711,0.83033,4.5856,0.4955,2.4617,2.201,-6.059,2.0197,-1.1261,-8.0787,2.2253e-09,-0.56307,0,0,0.2,-0,-0,0.66667
0.88438,0.7742,4.4219,0.4113,2.8191,3.2934,-4.8499,1.6166,-1.3979,-6.4666,2.6439e-09,-0.69894,0,0,0.2,4.737e-16,0,0.66667
0.78372,0.65947,3.9186,0.23921,2.9507,8.8658,-2.4996,0.83321,-1.7973,-3.3328,2.6271e-10,-0.89866,0,0,0.2,-0,-0,0.66667
0.32273,0.018392,1.6136,-0.72241,-21.542,64.362,3.1086,-1.0362,-0.14343,4.1447,-8.6708e-13,-0.071717,0,0,0.2,-0,-0,0.66667
0.78444,0.93563,3.9222,0.65345,8.2866,9.4593,-6.8345,2.2782,-0.4826,-9.1127,3.9552e-11,-0.2413,0,0,0.2,-1.1842e-15,0,0.66667
0.14519,0.66161,0.72593,0.24242,7.7837,93.157,-0.46928,0.15643,-1.7909,-0.6257,-1.3555e-09,-0.89545,0,0,0.2,-0,-0,0.66667
0.86023,0.71005,4.3011,0.31507,2.5794,4.2842,-3.6138,1.2046,-1.6477,-4.8184,1.6175e-09,-0.82387,0,0,0.2,-0,-0,0.66667
0.773,0.017775,3.865,-0.72334,-9.6746,10.445,7.4552,-2.4851,-0.13846,9.9403,1.5348e-11,-0.069231,0,0,0.2,-0,-0,0.66667
0.77597,0.17559,3.8798,-0.48661,-6.2893,9.7356,5.0346,-1.6782,-1.1572,6.7127,-1.2705e-10,-0.57858,0,0,0.2,-9.4739e-16,0,0.66667
0.5287,0.12477,2.6435,-0.56285,-13.374,34.915,3.9677,-1.3226,-0.87492,5.2903,7.1698e-13,-0.43746,0,0,0.2,-1.3323e-15,1.3386e-20,0.66667
0.45019,0.82772,2.2509,0.49158,12.902,45.285,-2.9507,0.98357,-1.1403,-3.9343,4.674e-13,-0.57017,0,0,0.2,-0,-0,0.66667
0.22663,0.51597,1.1332,0.023962,0.74376,79.464,-0.072408,0.024136,-1.9967,-0.096544,-3.0359e-11,-0.99836,0,0,0.2,9.4739e-16,0,0.66667
0.80868,0.1989,4.0434,-0.45165,-5.0417,7.4334,4.8698,-1.6233,-1.2741,6.4931,-4.1261e-10,-0.63706,0,0,0.2,-0,-0,0.66667
0.96593,0.60865,4.8296,0.16297,0.27329,0.48963,-2.0989,0.69965,-1.9052,-2.7986,-5.3444e-08,-0.95258,0,0,0.2,-1.8948e-15,0,0.66667
0.54353,0.27461,2.7177,-0.33809,-7.7831,32.815,2.4502,-0.81672,-1.5936,3.2669,7.9625e-13,-0.79678,0,0,0.2,-4.737e-16,0,0.66667
0.90221,0.12983,4.511,-0.55525,-3.2966,2.8528,6.6794,-2.2265,-0.90384,8.9058,-1.2523e-09,-0.45192,0,0,0.2,-1.8948e-15,0,0.66667
0.28235,0.71523,1.4118,0.32284,9.7501,70.452,-1.2154,0.40513,-1.6307,-1.6205,-2.1726e-11,-0.81535,0,0,0.2,7.1054e-16,0,0.66667
0.51776,0.9005,2.5888,0.60075,14.531,36.361,-4.1472,1.3824,-0.71732,-5.5296,1.3634e-13,-0.35866,0,0,0.2,-2.3685e-16,0,0.66667
0.32816,0.69209,1.6408,0.28813,8.4267,63.2,-1.2607,0.42023,-1.7064,-1.6809,2.6756e-13,-0.85322,0,0,0.2,-0,-0,0.66667
0.9918,0.18077,4.959,-0.47885,-0.09519,0.57462,6.3323,-2.1108,-1.184,8.4431,-1.0534e-07,-0.59202,0,0,0.2,-9.4739e-16,0,0.66667
0.25032,0.96076,1.2516,0.69114,21.534,75.839,-2.3067,0.7689,-0.30265,-3.0756,2.7915e-12,-0.15133,0,0,0.2,-0,-0,0.66667
0.67876,0.94686,3.3938,0.67029,11.971,18.311,-6.0661,2.022,-0.40161,-8.0882,-5.7776e-13,-0.2008,0,0,0.2,-0,-0,0.66667
0.7642,0.57436,3.821,0.11153,1.483,10.23,-1.1365,0.37882,-1.956,-1.5153,7.5167e-11,-0.97799,0,0,0.2,1.8948e-15,0,0.66667
0.032227,0.52775,0.16113,0.041622,1.3618,112.6,-0.017885,0.0059611,-1.9952,-0.023847,-8.7723e-07,-0.99759,0,0,0.2,5.9212e-17,0,0.66667
0.98227,0.045415,4.9114,-0.68188,-0.7298,1.1926,8.9305,-2.9768,-0.34666,11.907,9.159e-07,-0.17333,0,0,0.2,-1.8948e-15,-2.3478e-16,0.66667
0.091323,0.52092,0.45661,0.031385,1.0192,102.37,-0.038215,0.012738,-1.9964,-0.050954,-4.3834e-09,-0.99821,0,0,0.2,-0,-0,0.66667
0.61407,0.67922,3.0704,0.26883,5.4452,24.462,-2.2011,0.73369,-1.7425,-2.9348,-2.2959e-12,-0.87125,0,0,0.2,9.4739e-16,0,0.66667
0.14935,0.55675,0.74675,0.085122,2.7251,92.432,-0.16951,0.056503,-1.9737,-0.22601,9.5762e-10,-0.98685,0,0,0.2,-2.3685e-16,0,0.66667
0.5208,0.53773,2.604,0.056594,1.342,35.557,-0.39298,0.13099,-1.9882,-0.52398,1.503e-13,-0.99409,0,0,0.2,-1.8948e-15,0,0.66667
0.093345,0.67424,0.46673,0.26135,8.5019,102.04,-0.32528,0.10843,-1.7578,-0.43371,7.8062e-10,-0.87888,0,0,0.2,-0,-0,0.66667
0.7812,0.40491,3.906,-0.14264,-1.7728,8.9821,1.4857,-0.49523,-1.9299,1.9809,-1.8495e-10,-0.96493,0,0,0.2,-1.3027e-15,0,0.66667
0.77293,0.22062,3.8647,-0.41907,-5.4554,9.853,4.3188,-1.4396,-1.3757,5.7584,-1.6637e-10,-0.68783,0,0,0.2,-0,-0,0.66667
0.59815,0.038863,2.9907,-0.69171,-14.747,26.791,5.5166,-1.8389,-0.29841,7.3554,1.0303e-13,-0.14921,0,0,0.2,-0,-0,0.66667
0.014543,0.58802,0.072717,0.13202,4.3253,115.67,-0.0256,0.0085335,-1.939,-0.034134,9.5339e-08,-0.96949,0,0,0.2,-2.2204e-17,0,0.66667
0.042024,0.38922,0.21012,-0.16617,-5.437,110.9,0.093109,-0.031036,-1.9009,0.12415,-5.6656e-08,-0.95044,0,0,0.2,-5.9212e-17,0,0.66667
0.18097,0.21923,0.90485,-0.42116,-13.411,87.151,1.0162,-0.33875,-1.3697,1.355,4.9529e-10,-0.68487,0,0,0.2,-4.737e-16,0,0.66667
0.97203,0.24904,4.8602,-0.37644,-0.52782,0.63336,4.8788,-1.6263,-1.4971,6.505,1.4908e-08,-0.74855,0,0,0.2,-2.1316e-15,0,0.66667
0.2546,0.50729,1.273,0.010938,0.33458,74.875,-0.037131,0.012377,-1.9992,-0.049508,-3.9795e-12,-0.99958,0,0,0.2,-9.4739e-16,0,0.66667
0.75101,0.64354,3.755,0.21531,3.0139,11.316,-2.156,0.71868,-1.8355,-2.8747,8.0415e-11,-0.91776,0,0,0.2,-0,-0,0.66667
0.28124,0.96917,1.4062,0.70376,21.554,70.875,-2.639,0.87965,-0.24141,-3.5186,1.6795e-12,-0.1207,0,0,0.2,-0,-1.2661e-17,0.66667
0.25552,0.67688,1.2776,0.26532,8.131,74.765,-0.90391,0.3013,-1.7488,-1.2052,-6.614e-11,-0.87441,0,0,0.2,2.3685e-16,0,0.66667
0.25786,0.27749,1.2893,-0.33377,-10.23,74.407,1.1476,-0.38252,-1.6036,1.5301,5.9263e-11,-0.80182,0,0,0.2,-2.3685e-16,0,0.66667
0.29705,0.4832,1.4853,-0.025193,-0.75099,68.038,0.099782,-0.033261,-1.9984,0.13304,1.9062e-12,-0.99922,0,0,0.2,-4.737e-16,0,0.66667
0.0089446,0.51066,0.044723,0.015989,0.5236,116.64,-0.0019062,0.00063229,-1.9981,-0.0025432,-4.6868e-06,-0.99903,0,0,0.2,-0,-0,0.66667
0.98718,0.13731,4.9359,-0.54404,-0.31176,0.76741,7.1608,-2.3869,-0.9473,9.5478,4.2278e-08,-0.47365,0,0,0.2,-0,-0,0.66667
0.56646,0.68432,2.8323,0.27648,6.1194,29.966,-2.0882,0.69606,-1.7285,-2.7842,-1.3449e-12,-0.86427,0,0,0.2,9.4739e-16,0,0.66667
0.60184,0.57562,3.0092,0.11344,2.3469,25.752,-0.91028,0.30343,-1.953,-1.2137,-1.2433e-12,-0.97652,0,0,0.2,9.4739e-16,0,0.66667
0.53826,0.63507,2.6913,0.2026,4.6871,33.385,-1.454,0.48467,-1.853,-1.9387,-4.3165e-13,-0.92652,0,0,0.2,-0,-0,0.66667
0.043838,0.35541,0.21919,-0.21688,-7.0996,110.59,0.12677,-0.042256,-1.8324,0.16902,-1.8099e-09,-0.91619,0,0,0.2,-0,-0,0.66667
0.47152,0.65166,2.3576,0.22749,5.7765,42.146,-1.4302,0.47673,-1.8165,-1.9069,3.9968e-13,-0.90823,0,0,0.2,-0,-0,0.66667
0.53968,0.22309,2.6984,-0.41537,-9.6451,33.365,2.9889,-0.99628,-1.3862,3.9851,6.2972e-13,-0.69311,0,0,0.2,-0,-0,0.66667
0.67296,0.38852,3.3648,-0.16722,-2.957,18.241,1.5004,-0.50015,-1.9009,2.0006,-5.792e-13,-0.95043,0,0,0.2,-0,-0,0.66667
0.53417,0.35692,2.6708,-0.21463,-4.9979,33.905,1.5286,-0.50954,-1.8358,2.0382,6.8123e-13,-0.9179,0,0,0.2,-9.4739e-16,0,0.66667
0.055072,0.75775,0.27536,0.38662,12.683,108.65,-0.2839,0.094632,-1.4677,-0.37853,1.5728e-08,-0.73386,0,0,0.2,-0,-0,0.66667
0.6201,0.41456,3.1005,-0.12816,-2.5567,23.722,1.0596,-0.35321,-1.941,1.4128,1.0482e-12,-0.9705,0,0,0.2,-0,-0,0.66667
0.58118,0.29494,2.9059,-0.30758,-6.6405,28.243,2.3835,-0.79449,-1.6632,3.1779,1.289e-12,-0.83158,0,0,0.2,-0,-0,0.66667
0.5456,0.18404,2.728,-0.47394,-10.929,32.692,3.4477,-1.1492,-1.2026,4.597,4.8006e-13,-0.60129,0,0,0.2,1.1089e-15,0,0.66667
0.84328,0.86172,4.2164,0.54257,5.0737,5.5414,-6.1006,2.0335,-0.95388,-8.1341,1.1475e-09,-0.47694,0,0,0.2,-0,-0,0.66667
0.44739,0.99378,2.2369,0.74067,19.737,45.981,-4.4182,1.4727,-0.048947,-5.891,1.6152e-12,-0.024474,0,0,0.2,9.4739e-16,0,0.66667
0.60357,0.14087,3.0178,-0.5387,-11.263,25.929,4.3352,-1.4451,-0.96708,5.7803,1.1799e-12,-0.48354,0,0,0.2,2.3263e-16,0,0.66667
0.12361,0.31378,0.61806,-0.27933,-9.0284,96.843,0.46038,-0.15346,-1.7241,0.61384,4.8282e-10,-0.86207,0,0,0.2,-0,-0,0.66667
0.25238,0.80233,1.2619,0.45349,13.986,75.352,-1.526,0.50868,-1.2687,-2.0347,-5.0447e-11,-0.63436,0,0,0.2,2.3685e-16,0,0.66667
0.85035,0.95624,4.2518,0.68436,6.2497,5.4911,-7.7593,2.5864,-0.33365,-10.346,1.9021e-09,-0.16682,0,0,0.2,9.4739e-16,0,0.66667
0.016224,0.75945,0.081122,0.38918,12.803,115.38,-0.084189,0.028063,-1.4622,-0.11225,-6.6651e-09,-0.73112,0,0,0.2,-0,-0,0.66667
0.15625,0.92654,0.78125,0.63981,20.705,91.4,-1.3329,0.44431,-0.54547,-1.7772,-5.7336e-10,-0.27273,0,0,0.2,2.3685e-16,0,0.66667
0.82338,0.089286,4.1169,-0.61607,-6.4964,6.8382,6.7635,-2.2545,-0.65045,9.018,-1.8367e-10,-0.32522,0,0,0.2,4.737e-16,0,0.66667
0.22934,0.86686,1.1467,0.55029,17.23,79.171,-1.6827,0.56089,-0.92273,-2.2436,-4.4451e-11,-0.46137,0,0,0.2,-0,-0,0.66667
0.25919,0.98398,1.296,0.72597,22.546,74.43,-2.5089,0.8363,-0.12495,-3.3452,2.3972e-12,-0.062474,0,0,0.2,4.737e-16,0,0.66667
0.70079,0.54162,3.504,0.062433,1.0229,15.558,-0.58337,0.19446,-1.9861,-0.77783,3.5633e-12,-0.99304,0,0,0.2,-0,-0,0.66667
0.96653,0.84862,4.8326,0.52293,0.99071,1.0091,-6.739,2.2463,-1.0283,-8.9853,-1.2338e-07,-0.51416,0,0,0.2,-0,-0,0.66667
0.19828,0.3819,0.9914,-0.17715,-5.5753,84.19,0.46834,-0.15611,-1.888,0.62445,3.7112e-10,-0.944,0,0,0.2,-0,-0,0.66667
0.7475,0.68045,3.7375,0.27068,3.8439,11.642,-2.6977,0.89925,-1.7397,-3.597,7.4653e-11,-0.86985,0,0,0.2,-3.1088e-17,0,0.66667
0.14051,0.45118,0.70253,-0.073233,-2.3506,93.937,0.1372,-0.045732,-1.9817,0.18293,1.1347e-09,-0.99084,0,0,0.2,2.3685e-16,0,0.66667
0.3825,0.61937,1.9125,0.17905,4.9966,54.872,-0.91315,0.30438,-1.8855,-1.2175,1.3409e-12,-0.94273,0,0,0.2,-0,-0,0.66667
0.32329,0.091756,1.6164,-0.61237,-18.16,64.169,2.6396,-0.87987,-0.66704,3.5195,-1.1011e-12,-0.33352,0,0,0.2,-5.9212e-16,0,0.66667
0.88379,0.90346,4.4189,0.60519,4.2931,3.7063,-7.1314,2.3771,-0.69771,-9.5085,-1.5417e-08,-0.34886,0,0,0.2,4.737e-16,0,0.66667
0.65538,0.015257,3.2769,-0.72711,-13.801,20.731,6.3538,-2.1179,-0.12056,8.4718,3.2063e-13,-0.060278,0,0,0.2,-0,2.3672e-16,0.66667
0.33358,0.55525,1.6679,0.082877,2.4074,62.303,-0.36861,0.12287,-1.975,-0.49148,8.4976e-13,-0.9875,0,0,0.2,-0,-0,0.66667
0.021608,0.10227,0.10804,-0.5966,-19.749,114.46,0.17188,-0.057295,-0.7337,0.22918,-1.1161e-06,-0.36685,0,0,0.2,-0,-0,0.66667
0.36901,0.96566,1.845,0.69848,20.058,57.271,-3.4366,1.1455,-0.26527,-4.5822,2.5491e-13,-0.13264,0,0,0.2,7.0137e-16,0,0.66667
0.97218,0.49908,4.8609,-0.001382,-0.0017199,0.32484,0.017914,-0.0059659,-2.0009,0.023889,8.4296e-06,-1.0004,0,0,0.2,6.0396e-15,0,0.66667
0.5291,0.98487,2.6455,0.7273,17.431,35.114,-5.1309,1.7103,-0.11903,-6.8412,-7.4607e-14,-0.059517,0,0,0.2,9.4739e-16,0,0.66667
0.74214,0.58376,3.7107,0.12564,1.8101,11.982,-1.2432,0.41442,-1.9428,-1.6577,3.9113e-11,-0.97142,0,0,0.2,-9.4739e-16,0,0.66667
0.34539,0.49914,1.7269,-0.0012893,-0.037098,60.472,0.0059377,-0.0019792,-2.0015,0.0079169,-2.3409e-13,-1.0008,0,0,0.2,1.5691e-15,0,0.66667
0.46059,0.39488,2.3029,-0.15769,-4.0532,43.621,0.96839,-0.3228,-1.9105,1.2912,-5.7571e-13,-0.95524,0,0,0.2,-0,-0,0.66667
0.21164,0.86318,1.0582,0.54477,17.196,82.089,-1.5373,0.51242,-0.94365,-2.0497,-1.599e-10,-0.47183,0,0,0.2,-2.3685e-16,0,0.66667
0.83696,0.33704,4.1848,-0.24444,-2.3129,5.4556,2.7278,-0.90928,-1.7869,3.6371,-6.3726e-10,-0.89345,0,0,0.2,-0,-0,0.66667
0.35981,0.72877,1.799,0.34316,9.7994,58.36,-1.6463,0.54876,-1.5821,-2.195,2.9198e-12,-0.79105,0,0,0.2,-0,-0,0.66667
0.037088,0.10915,0.18544,-0.58628,-19.383,111.78,0.28992,-0.096639,-0.77677,0.38656,2.3672e-07,-0.38839,0,0,0.2,-5.9212e-17,0,0.66667
0.68899,0.76592,3.4449,0.39888,6.8174,16.897,-3.6643,1.2214,-1.4344,-4.8858,1.3201e-12,-0.71719,0,0,0.2,-0,-0,0.66667
0.15579,0.72701,0.77894,0.34052,10.918,91.376,-0.70733,0.23578,-1.5886,-0.9431,-1.3363e-09,-0.79432,0,0,0.2,-0,-0,0.66667
0.79875,0.76671,3.9938,0.40006,4.6604,8.0069,-4.2607,1.4202,-1.4309,-5.6809,3.8555e-10,-0.71543,0,0,0.2,-0,-0,0.66667
0.015262,0.94685,0.076312,0.67028,22.259,115.56,-0.1364,0.045465,-0.40344,-0.18186,-6.6485e-07,-0.20172,0,0,0.2,2.9606e-17,0,0.66667
0.58562,0.11333,2.9281,-0.58001,-12.567,28.038,4.5289,-1.5096,-0.80274,6.0385,4.3965e-13,-0.40137,0,0,0.2,9.4739e-16,0,0.66667
0.49552,0.19856,2.4776,-0.45216,-11.203,39.083,2.9874,-0.99578,-1.2723,3.9831,-2.2449e-13,-0.63617,0,0,0.2,-0,-0,0.66667
0.99746,0.078256,4.9873,-0.63262,-0.00043504,0.90614,8.4135,-2.8045,-0.57674,11.218,-1.4357e-07,-0.28837,0,0,0.2,1.8948e-15,8.3092e-16,0.66667
0.13437,0.36215,0.67185,-0.20677,-6.6564,94.995,0.37045,-0.12348,-1.8469,0.49393,2.0488e-09,-0.92344,0,0,0.2,2.3685e-16,0,0.66667
0.67255,0.46955,3.3628,-0.045674,-0.80727,18.242,0.40958,-0.13653,-1.9946,0.54611,-3.1222e-13,-0.99728,0,0,0.2,-0,-0,0.66667
0.094945,0.52203,0.47473,0.033039,1.0721,101.75,-0.041825,0.013942,-1.9966,-0.055767,-1.3948e-08,-0.99831,0,0,0.2,-0,-0,0.66667
0.16177,0.3222,0.80884,-0.2667,-8.5214,90.348,0.57524,-0.19175,-1.7463,0.76699,9.0639e-10,-0.87314,0,0,0.2,-0,-0,0.66667
0.98833,0.90904,4.9417,0.61356,0.35613,0.93206,-8.0854,2.6951,-0.66188,-10.78,9.7447e-07,-0.33094,0,0,0.2,-3.7896e-15,0,0.66667
0.80667,0.64011,4.0333,0.21017,2.334,7.2769,-2.2604,0.75348,-1.8418,-3.0139,4.2355e-10,-0.92092,0,0,0.2,-0,-0,0.66667
0.24464,0.76145,1.2232,0.39217,12.124,76.585,-1.2792,0.4264,-1.4522,-1.7056,-8.5388e-11,-0.72612,0,0,0.2,-0,-0,0.66667
0.8463,0.39634,4.2315,-0.1555,-1.3841,4.8697,1.7546,-0.58488,-1.9139,2.3395,-1.3759e-09,-0.95697,0,0,0.2,-9.4739e-16,0,0.66667
0.0356,0.97938,0.178,0.71907,23.905,112.05,-0.34132,0.11377,-0.16087,-0.4551,-6.0593e-07,-0.080435,0,0,0.2,-0,-0,0.66667
0.53561,0.24299,2.678,-0.38551,-8.9985,33.846,2.7531,-0.91771,-1.4712,3.6708,7.8582e-13,-0.73562,0,0,0.2,-4.737e-16,0,0.66667
0.091475,0.94102,0.45737,0.66153,21.781,102.43,-0.80685,0.26895,-0.4448,-1.0758,-1.6991e-07,-0.2224,0,0,0.2,2.3685e-16,9.4719e-17,0.66667
0.97091,0.67899,4.8545,0.26848,0.37664,0.50131,-3.4756,1.1585,-1.7439,-4.6342,-4.7393e-09,-0.87194,0,0,0.2,-0,-0,0.66667
0.5831,0.53256,2.9155,0.048841,1.0461,27.898,-0.37972,0.12657,-1.992,-0.5063,-4.8139e-13,-0.99599,0,0,0.2,1.8948e-15,0,0.66667
0.55574,0.45343,2.7787,-0.069854,-1.5689,31.176,0.51761,-0.17254,-1.9814,0.69015,4.1545e-13,-0.99072,0,0,0.2,-0,-0,0.66667
0.31797,0.3328,1.5899,-0.2508,-7.3848,64.777,1.0633,-0.35444,-1.7754,1.4177,1.5589e-12,-0.88772,0,0,0.2,4.737e-16,0,0.66667
0.8499,0.65138,4.2495,0.22708,1.9814,4.7275,-2.5732,0.85774,-1.8163,-3.431,1.4259e-09,-0.90816,0,0,0.2,-4.737e-16,0,0.66667
0.53015,0.10532,2.6508,-0.59202,-14.057,34.771,4.1848,-1.3949,-0.75421,5.5797,1.7364e-13,-0.3771,0,0,0.2,-0,-0,0.66667
0.017098,0.25339,0.085491,-0.36991,-12.164,115.23,0.084332,-0.028111,-1.5146,0.11244,9.4009e-09,-0.7573,0,0,0.2,-0,-0,0.66667
0.18489,0.92979,0.92447,0.64469,20.657,86.591,-1.5893,0.52977,-0.52233,-2.1191,-1.9135e-10,-0.26117,0,0,0.2,2.3685e-16,0,0.66667
0.43347,0.2063,2.1673,-0.44055,-11.757,47.591,2.5462,-0.84873,-1.3092,3.3949,-8.6975e-13,-0.65461,0,0,0.2,-0,-0,0.66667
0.079976,0.81745,0.39988,0.47618,15.605,104.37,-0.50777,0.16926,-1.1945,-0.67703,-5.4159e-09,-0.59726,0,0,0.2,-0,-0,0.66667
0.28066,0.34975,1.4033,-0.22538,-6.8013,70.69,0.84339,-0.28113,-1.8205,1.1245,2.4799e-11,-0.91027,0,0,0.2,-0,-0,0.66667
0.2504,0.73175,1.252,0.34762,10.702,75.628,-1.1606,0.38686,-1.571,-1.5474,-7.7316e-11,-0.78549,0,0,0.2,-0,-0,0.66667
0.00060864,0.017586,0.0030432,-0.72362,-24.092,118.09,0.0058823,-0.0019628,-0.13869,0.0078421,-3.0207e-06,-0.069343,0,0,0.2,-0,9.3248e-16,0.66667
0.69289,0.69241,3.4644,0.28862,4.8584,16.414,-2.6664,0.88879,-1.7036,-3.5552,4.6498e-12,-0.85179,0,0,0.2,1.8948e-15,0,0.66667
0.77389,0.37919,3.8694,-0.18121,-2.3233,9.5368,1.8699,-0.62329,-1.8829,2.4931,-1.5834e-10,-0.94146,0,0,0.2,-0,-0,0.66667
0.82035,0.78334,4.1017,0.425,4.4646,6.6587,-4.6487,1.5496,-1.3578,-6.1982,5.7106e-10,-0.6789,0,0,0.2,-0,-0,0.66667
0.85163,0.53326,4.2581,0.049896,0.42795,4.5432,-0.56657,0.18886,-1.9912,-0.75543,2.1214e-09,-0.9956,0,0,0.2,-0,-0,0.66667
0.15152,0.91505,0.75762,0.62257,20.163,92.191,-1.2578,0.41927,-0.62127,-1.6771,1.8165e-09,-0.31063,0,0,0.2,-0,-0,0.66667
0.89004,0.09805,4.4502,-0.60292,-4.0525,3.4393,7.155,-2.385,-0.70888,9.54,-2.6072e-08,-0.35444,0,0,0.2,-0,-0,0.66667
0.65821,0.5231,3.2911,0.034645,0.63435,19.674,-0.30405,0.10135,-1.996,-0.4054,9.7422e-15,-0.99801,0,0,0.2,-9.4739e-16,0,0.66667
0.69613,0.44381,3.4807,-0.084278,-1.3993,15.994,0.78225,-0.26075,-1.9741,1.043,-3.8816e-12,-0.98706,0,0,0.2,-0,-0,0.66667
0.56407,0.79889,2.8204,0.44834,10.022,30.41,-3.3719,1.124,-1.2854,-4.4959,-6.8456e-13,-0.64269,0,0,0.2,-9.4739e-16,0,0.66667
0.93968,0.71298,4.6984,0.31947,1.0934,1.2345,-4.0026,1.3342,-1.6376,-5.3369,-8.8322e-09,-0.8188,0,0,0.2,1.4211e-15,0,0.66667
0.25185,0.58609,1.2592,0.12913,3.9583,75.333,-0.43362,0.14454,-1.9411,-0.57816,-5.1833e-11,-0.97055,0,0,0.2,-0,-0,0.66667
0.78688,0.73576,3.9344,0.35364,4.3286,8.7602,-3.7104,1.2368,-1.5543,-4.9471,2.828e-10,-0.77713,0,0,0.2,9.4739e-16,0,0.66667
0.49526,0.56889,2.4763,0.10334,2.5406,38.904,-0.68241,0.22747,-1.9617,-0.90988,3.6726e-13,-0.98085,0,0,0.2,-9.4739e-16,0,0.66667
0.8909,0.55864,4.4545,0.087958,0.55425,2.6998,-1.0448,0.34827,-1.9741,-1.3931,1.6596e-08,-0.98705,0,0,0.2,-1.4211e-15,0,0.66667
0.2762,0.55276,1.381,0.079134,2.3909,71.379,-0.29142,0.097141,-1.977,-0.38856,-1.2367e-11,-0.98849,0,0,0.2,-0,-0,0.66667
0.015247,0.94548,0.076235,0.66822,22.189,115.56,-0.13584,0.04528,-0.41337,-0.18112,-1.9896e-07,-0.20669,0,0,0.2,2.9606e-17,0,0.66667
0.064891,0.3386,0.32446,-0.24211,-7.9097,106.94,0.20947,-0.069825,-1.7921,0.2793,-6.6961e-09,-0.89604,0,0,0.2,5.9212e-17,0,0.66667
0.89964,0.49255,4.4982,-0.01117,-0.064469,2.3339,0.13399,-0.044662,-1.9988,0.17865,-3.1948e-08,-0.99941,0,0,0.2,-1.8948e-15,0,0.66667
0.64115,0.15504,3.2058,-0.51744,-9.9996,21.818,4.4234,-1.4745,-1.05,5.8979,2.1343e-12,-0.52501,0,0,0.2,1.3027e-15,0,0.66667
0.73027,0.016781,3.6513,-0.72483,-11.248,13.799,7.0576,-2.3525,-0.13122,9.4101,-2.6557e-13,-0.065609,0,0,0.2,-0,2.3555e-16,0.66667
0.50436,0.53648,2.5218,0.054718,1.3282,37.693,-0.36797,0.12266,-1.9893,-0.49063,4.2583e-13,-0.99463,0,0,0.2,-1.8948e-15,0,0.66667
0.55757,0.76151,2.7879,0.39226,8.8441,31.137,-2.9162,0.97206,-1.4521,-3.8882,-8.2534e-13,-0.72603,0,0,0.2,-0,-0,0.66667
0.36389,0.93027,1.8195,0.6454,18.567,57.982,-3.1314,1.0438,-0.51858,-4.1752,9.7744e-13,-0.25929,0,0,0.2,-2.3685e-16,0,0.66667
0.78264,0.24378,3.9132,-0.38433,-4.7987,9.1005,4.0105,-1.3368,-1.4756,5.3473,-2.3743e-10,-0.73778,0,0,0.2,9.4739e-16,0,0.66667
0.75687,0.73244,3.7843,0.34866,4.8049,10.981,-3.5185,1.1728,-1.5666,-4.6913,1.0249e-10,-0.78329,0,0,0.2,-0,-0,0.66667
0.70001,0.70832,3.5,0.31249,5.1615,15.776,-2.9166,0.97218,-1.6525,-3.8887,7.782e-12,-0.82624,0,0,0.2,9.4739e-16,0,0.66667
0.96189,0.49649,4.8095,-0.0052605,-0.010037,0.50895,0.067467,-0.02249,-1.9997,0.089956,-1.9319e-06,-0.99986,0,0,0.2,2.3685e-15,0,0.66667
0.76884,0.29903,3.8442,-0.30145,-3.9612,10.012,3.0902,-1.0301,-1.6764,4.1203,-1.6074e-10,-0.83819,0,0,0.2,9.4739e-16,0,0.66667
0.97792,0.91334,4.8896,0.62001,0.78795,1.0724,-8.0842,2.6947,-0.63254,-10.779,-7.896e-07,-0.31627,0,0,0.2,-0,-0,0.66667
0.59028,0.93306,2.9514,0.64958,14.014,27.613,-5.1125,1.7042,-0.49995,-6.8166,-1.6698e-13,-0.24998,0,0,0.2,-1.1842e-15,1.7428e-16,0.66667
0.61926,0.066769,3.0963,-0.64985,-13.26,24.372,5.3656,-1.7885,-0.49828,7.1542,4.8317e-13,-0.24914,0,0,0.2,-0,-0,0.66667
0.63905,0.57359,3.1953,0.11038,2.1138,21.675,-0.94054,0.31351,-1.9569,-1.2541,-8.7991e-13,-0.97844,0,0,0.2,-1.8948e-15,0,0.66667
0.32637,0.88039,1.6319,0.57059,16.853,63.655,-2.483,0.82766,-0.84312,-3.3106,2.0457e-12,-0.42156,0,0,0.2,-9.4739e-16,0,0.66667
0.033029,0.97528,0.16515,0.71291,23.698,112.49,-0.31396,0.10465,-0.19346,-0.41861,2.2685e-06,-0.096728,0,0,0.2,-0,-0,0.66667
0.78818,0.97779,3.9409,0.71668,9.0124,9.3502,-7.5316,2.5105,-0.17285,-10.042,3.6255e-11,-0.086424,0,0,0.2,-1.8948e-15,0,0.66667
0.71019,0.37933,3.5509,-0.18101,-2.891,14.751,1.714,-0.57134,-1.8832,2.2853,-1.4337e-11,-0.94158,0,0,0.2,-0,-0,0.66667
0.079032,0.91686,0.39516,0.62529,20.602,104.56,-0.65891,0.21964,-0.61032,-0.87854,-5.8523e-08,-0.30516,0,0,0.2,-0,-0,0.66667
0.14858,0.17761,0.74291,-0.48359,-15.599,92.638,0.95803,-0.31934,-1.1675,1.2774,1.5928e-09,-0.58375,0,0,0.2,1.1842e-16,0,0.66667
0.68634,0.1682,3.4317,-0.4977,-8.6126,17.282,4.5546,-1.5182,-1.1196,6.0728,1.0147e-12,-0.55979,0,0,0.2,-0,-0,0.66667
0.53504,0.36214,2.6752,-0.2068,-4.8084,33.792,1.4752,-0.49175,-1.8473,1.967,6.3138e-13,-0.92365,0,0,0.2,-9.4739e-16,0,0.66667
0.19121,0.097002,0.95607,-0.6045,-19.29,85.515,1.5412,-0.51373,-0.70112,2.0549,1.1962e-10,-0.35056,0,0,0.2,-0,-0,0.66667
0.055953,0.99093,0.27977,0.7364,24.454,108.55,-0.54939,0.18313,-0.07099,-0.73251,-2.7608e-07,-0.035495,0,0,0.2,1.2547e-16,0,0.66667
0.61141,0.67982,3.0571,0.26973,5.493,24.758,-2.1989,0.73296,-1.7416,-2.9319,-2.3606e-12,-0.87081,0,0,0.2,4.737e-16,0,0.66667
0.053612,0.54387,0.26806,0.065798,2.1489,108.89,-0.047034,0.015678,-1.9835,-0.062712,-1.8457e-07,-0.99173,0,0,0.2,-0,-0,0.66667
0.21358,0.92977,1.0679,0.64465,20.41,81.824,-1.8358,0.61192,-0.52182,-2.4477,-3.4023e-11,-0.26091,0,0,0.2,1.2646e-16,0,0.66667
0.50266,0.99747,2.5133,0.74621,18.584,38.535,-5.0012,1.6671,-0.020992,-6.6683,-2.3981e-14,-0.010496,0,0,0.2,-2.8422e-15,0,0.66667
0.094031,0.81147,0.47016,0.46721,15.269,101.95,-0.58576,0.19525,-1.226,-0.78101,-1.3616e-08,-0.61301,0,0,0.2,-2.2204e-17,0,0.66667
0.40891,0.10233,2.0445,-0.5965,-16.431,51.269,3.2522,-1.0841,-0.73487,4.3362,-6.7901e-13,-0.36743,0,0,0.2,-0,-0,0.66667
0.020116,0.081173,0.10058,-0.62824,-20.824,114.72,0.1685,-0.056167,-0.59586,0.22467,-1.9529e-07,-0.29793,0,0,0.2,2.9606e-17,0,0.66667
0.11946,0.41425,0.59732,-0.12863,-4.1535,97.537,0.20488,-0.068294,-1.9405,0.27318,3.8881e-09,-0.97025,0,0,0.2,-0,-0,0.66667
0.94006,0.55475,4.7003,0.082129,0.27101,1.0254,-1.0294,0.34314,-1.9761,-1.3726,-1.0438e-07,-0.98806,0,0,0.2,-0,-0,0.66667
0.55886,0.66696,2.7943,0.25044,5.6109,30.867,-1.8662,0.62205,-1.7765,-2.4882,-9.7611e-13,-0.88825,0,0,0.2,-0,-0,0.66667
0.68646,0.79412,3.4323,0.44118,7.6078,17.19,-4.038,1.346,-1.3083,-5.384,-1.9984e-13,-0.65415,0,0,0.2,-0,-0,0.66667
0.37777,0.65512,1.8889,0.23268,6.5266,55.597,-1.172,0.39067,-1.8086,-1.5627,2.4478e-12,-0.90428,0,0,0.2,2.3685e-16,0,0.66667
0.76312,0.33171,3.8156,-0.25244,-3.3837,10.399,2.5685,-0.85618,-1.7732,3.4247,-1.2779e-10,-0.8866,0,0,0.2,-0,-0,0.66667
0.89639,0.78723,4.4819,0.43084,2.6534,2.8311,-5.1493,1.7164,-1.3396,-6.8658,6.453e-09,-0.66978,0,0,0.2,-0,-0,0.66667
0.91019,0.22406,4.551,-0.41391,-2.199,2.2867,5.0232,-1.6744,-1.3908,6.6976,-1.1843e-09,-0.69542,0,0,0.2,-0,-0,0.66667
0.49649,0.25482,2.4824,-0.36778,-9.0744,38.878,2.4346,-0.81154,-1.5193,3.2461,-9.5923e-14,-0.75963,0,0,0.2,-0,-0,0.66667
0.76261,0.35026,3.8131,-0.22461,-3.0135,10.416,2.2839,-0.76129,-1.8207,3.0451,-1.1689e-10,-0.91036,0,0,0.2,-1.8948e-15,0,0.66667
0.70896,0.44553,3.5448,-0.081707,-1.3075,14.82,0.77236,-0.25745,-1.9755,1.0298,-7.4904e-12,-0.98777,0,0,0.2,-0,-0,0.66667
0.9513,0.46996,4.7565,-0.045058,-0.11655,0.73819,0.57151,-0.1905,-1.9942,0.76201,3.4168e-07,-0.99709,0,0,0.2,-0,-0,0.66667
0.24155,0.90823,1.2078,0.61234,19.101,77.209,-1.9722,0.6574,-0.66686,-2.6296,-1.2921e-11,-0.33343,0,0,0.2,-0,-0,0.66667
0.56134,0.021485,2.8067,-0.71777,-16.351,31.131,5.3722,-1.7907,-0.16865,7.1629,-6.6613e-15,-0.084327,0,0,0.2,-0,-0,0.66667
0.043773,0.8784,0.21887,0.56761,18.742,110.62,-0.33128,0.11043,-0.85502,-0.44171,1.3091e-07,-0.42751,0,0,0.2,-0,-0,0.66667
0.92318,0.64989,4.6159,0.22484,0.98791,1.6063,-2.7676,0.92252,-1.821,-3.6901,-1.0215e-08,-0.91051,0,0,0.2,-1.4211e-15,0,0.66667
0.94526,0.42456,4.7263,-0.11316,-0.33717,0.90502,1.4262,-0.47541,-1.9533,1.9016,1.1644e-07,-0.97664,0,0,0.2,-1.7202e-16,0,0.66667
0.50091,0.2533,2.5045,-0.37005,-9.0769,38.297,2.4715,-0.82383,-1.5145,3.2953,-1.5632e-13,-0.75725,0,0,0.2,-0,-0,0.66667
0.58612,0.86306,2.9306,0.5446,11.767,27.929,-4.256,1.4187,-0.94432,-5.6746,-1.0152e-12,-0.47216,0,0,0.2,9.4739e-16,0,0.66667
0.77194,0.98008,3.8597,0.72013,9.6674,10.514,-7.4119,2.4706,-0.15511,-9.8826,-1.1862e-11,-0.077557,0,0,0.2,-0,-0,0.66667
0.24933,0.27881,1.2467,-0.33178,-10.216,75.795,1.103,-0.36766,-1.6103,1.4707,8.3002e-11,-0.80514,0,0,0.2,1.7764e-16,0,0.66667
0.37899,0.96089,1.895,0.69133,19.674,55.772,-3.4935,1.1645,-0.30031,-4.6579,6.9722e-14,-0.15015,0,0,0.2,-4.737e-16,0,0.66667
0.28861,0.30959,1.443,-0.28561,-8.585,69.437,1.0991,-0.36635,-1.7098,1.4654,1.5981e-11,-0.85492,0,0,0.2,1.1842e-16,0,0.66667
0.5388,0.6625,2.694,0.24375,5.639,33.338,-1.7511,0.5837,-1.7881,-2.3348,-2.8255e-13,-0.89406,0,0,0.2,-0,-0,0.66667
0.94896,0.80237,4.7448,0.45355,1.3362,1.2222,-5.7387,1.9129,-1.268,-7.6516,-1.0376e-08,-0.634,0,0,0.2,-9.4739e-16,0,0.66667
0.3854,0.40379,1.927,-0.14431,-4.0148,54.429,0.74158,-0.24719,-1.9261,0.98877,-1.102e-12,-0.96307,0,0,0.2,2.3253e-16,0,0.66667
0.04501,0.98117,0.22505,0.72176,23.979,110.43,-0.43315,0.14438,-0.14779,-0.57753,-2.0508e-06,-0.073894,0,0,0.2,1.1842e-16,2.269e-16,0.66667
0.68252,0.34293,3.4126,-0.2356,-4.0711,17.354,2.144,-0.71467,-1.8032,2.8587,-2.0557e-12,-0.9016,0,0,0.2,-1.125e-15,0,0.66667
0.49503,0.10967,2.4752,-0.5855,-14.601,39.299,3.8645,-1.2882,-0.78015,5.1527,2.2427e-14,-0.39008,0,0,0.2,-0,-0,0.66667
0.29651,0.15754,1.4826,-0.51369,-15.459,68.298,2.0309,-0.67696,-1.0638,2.7078,2.6517e-12,-0.5319,0,0,0.2,-0,-0,0.66667
0.41589,0.082411,2.0794,-0.62638,-17.158,50.293,3.4734,-1.1578,-0.60395,4.6312,-3.5638e-13,-0.30197,0,0,0.2,-0,-0,0.66667
0.86251,0.61661,4.3126,0.17492,1.3966,4.0387,-2.0116,0.67054,-1.8911,-2.6822,1.8063e-09,-0.94553,0,0,0.2,-0,-0,0.66667
0.82102,0.6035,4.1051,0.15525,1.6,6.3323,-1.6995,0.56649,-1.9133,-2.266,5.6368e-10,-0.95666,0,0,0.2,-0,-0,0.66667
0.17085,0.34657,0.85423,-0.23014,-7.3258,88.807,0.52425,-0.17475,-1.8131,0.699,4.4774e-10,-0.90656,0,0,0.2,-4.737e-16,0,0.66667
0.68513,0.38797,3.4257,-0.16805,-2.8791,17.063,1.5351,-0.51171,-1.8994,2.0469,-2.9902e-12,-0.94969,0,0,0.2,-0,-0,0.66667
0.99766,0.59578,4.9883,0.14367,-0.05838,0.063228,-1.9111,0.63703,-1.9277,-2.5481,9.7515e-07,-0.96383,0,0,0.2,-3.7896e-15,0,0.66667
0.78436,0.50897,3.9218,0.013454,0.16472,8.7208,-0.14071,0.046903,-1.9992,-0.18761,-4.1552e-11,-0.99958,0,0,0.2,-0,-0,0.66667
0.72505,0.71931,3.6252,0.32896,5.046,13.567,-3.1801,1.06,-1.6157,-4.2402,2.9271e-11,-0.80783,0,0,0.2,-0,-0,0.66667
0.31002,0.56698,1.5501,0.10047,2.9695,65.991,-0.4153,0.13843,-1.9647,-0.55373,-3.1096e-12,-0.98234,0,0,0.2,9.4739e-16,0,0.66667
0.15947,0.76608,0.79735,0.39912,12.799,90.768,-0.84863,0.28288,-1.4331,-1.1315,-1.352e-09,-0.71654,0,0,0.2,-2.3685e-16,0,0.66667
0.86432,0.86753,4.3216,0.55129,4.5004,4.4741,-6.3532,2.1177,-0.91889,-8.471,-3.3547e-09,-0.45944,0,0,0.2,9.4739e-16,0,0.66667
0.61035,0.2493,3.0517,-0.37605,-7.7012,24.97,3.0603,-1.0201,-1.4991,4.0804,2.2942e-12,-0.74953,0,0,0.2,1.1842e-16,0,0.66667
0.39009,0.15794,1.9505,-0.51309,-14.341,53.942,2.6687,-0.88957,-1.0658,3.5583,-1.6116e-12,-0.53291,0,0,0.2,-9.4739e-16,2.1195e-16,0.66667
0.75559,0.31295,3.778,-0.28057,-3.8722,11.008,2.8266,-0.94221,-1.7206,3.7689,-9.7662e-11,-0.86032,0,0,0.2,-0,-0,0.66667
0.71863,0.3892,3.5931,-0.16619,-2.5867,13.995,1.5924,-0.53081,-1.9025,2.1232,-1.9698e-11,-0.95127,0,0,0.2,-0,-0,0.66667
0.64733,0.20474,3.2367,-0.44288,-8.4083,21.072,3.8226,-1.2742,-1.3014,5.0968,2.7871e-12,-0.6507,0,0,0.2,-0,-0,0.66667
0.20726,0.57026,1.0363,0.10539,3.3018,82.682,-0.29125,0.097082,-1.9601,-0.38833,-1.4912e-10,-0.98007,0,0,0.2,-0,-0,0.66667
0.88553,0.62153,4.4276,0.18229,1.2115,2.9769,-2.1524,0.71745,-1.8819,-2.8698,-8.0118e-10,-0.94094,0,0,0.2,-1.4211e-15,0,0.66667
0.71901,0.40706,3.595,-0.1394,-2.166,13.948,1.3364,-0.44548,-1.9331,1.7819,-1.9109e-11,-0.96655,0,0,0.2,-0,-0,0.66667
0.30263,0.44428,1.5132,-0.08358,-2.4827,67.157,0.33725,-0.11242,-1.9746,0.44967,3.6247e-12,-0.9873,0,0,0.2,-0,-0,0.66667
0.063598,0.012423,0.31799,-0.73136,-24.259,107.23,0.62018,-0.20673,-0.09848,0.82691,-6.9806e-08,-0.04924,0,0,0.2,-2.3685e-16,0,0.66667
0.9128,0.36657,4.564,-0.20015,-1.0044,1.9295,2.4359,-0.81197,-1.8567,3.2479,1.5054e-08,-0.92837,0,0,0.2,-0,-0,0.66667
0.79385,0.23741,3.9693,-0.39389,-4.6889,8.3302,4.1692,-1.3897,-1.4479,5.5589,-3.1068e-10,-0.72397,0,0,0.2,-0,-0,0.66667
0.49858,0.0023419,2.4929,-0.74649,-18.693,39.069,4.9625,-1.6542,-0.020042,6.6166,7.6783e-13,-0.010021,0,0,0.2,-0,6.5678e-17,0.66667
0.41393,0.8369,2.0696,0.50535,13.798,50.45,-2.789,0.92968,-1.0913,-3.7187,8.844e-13,-0.54563,0,0,0.2,8.2454e-18,0,0.66667
0.61556,0.5883,3.0778,0.13245,2.6672,24.223,-1.0871,0.36235,-1.9372,-1.4494,-1.5751e-12,-0.9686,0,0,0.2,4.737e-16,0,0.66667
0.39852,0.85424,1.9926,0.53135,14.745,52.719,-2.8234,0.94112,-0.99508,-3.7645,1.4508e-12,-0.49754,0,0,0.2,-0,-0,0.66667
0.038918,0.58008,0.19459,0.12013,3.9299,111.44,-0.062335,0.020778,-1.9475,-0.083113,-1.2966e-07,-0.97374,0,0,0.2,-4.6088e-17,0,0.66667
0.30197,0.0025177,1.5098,-0.74622,-22.602,67.631,3.0045,-1.0015,-0.020292,4.006,1.6118e-12,-0.010146,0,0,0.2,-0,-0,0.66667
0.24628,0.56327,1.2314,0.0949,2.917,76.238,-0.31163,0.10388,-1.9688,-0.4155,-3.6648e-11,-0.98442,0,0,0.2,-0,-0,0.66667
0.9723,0.88177,4.8615,0.57265,0.90344,1.0314,-7.4238,2.4746,-0.83394,-9.8985,-2.5522e-07,-0.41697,0,0,0.2,-0,-0,0.66667
0.7675,0.027742,3.8375,-0.70839,-9.6591,10.814,7.2491,-2.4164,-0.21673,9.6655,-6.581e-12,-0.10837,0,0,0.2,1.4211e-15,0,0.66667
0.4037,0.24004,2.0185,-0.38994,-10.714,51.844,2.0989,-0.69963,-1.4593,2.7985,-1.9325e-12,-0.72963,0,0,0.2,4.737e-16,0,0.66667
0.73663,0.078431,3.6831,-0.63235,-9.5342,13.066,6.2108,-2.0703,-0.57802,8.281,-4.0106e-12,-0.28901,0,0,0.2,-0,-0,0.66667
0.30266,0.2965,1.5133,-0.30525,-9.0944,67.211,1.2318,-0.4106,-1.6676,1.6424,6.8747e-12,-0.8338,0,0,0.2,-0,-0,0.66667
0.5273,0.84864,2.6365,0.52296,12.428,35.042,-3.6767,1.2256,-1.0277,-4.9023,-4.9116e-13,-0.51383,0,0,0.2,-0,-0,0.66667
0.20714,0.25413,1.0357,-0.36881,-11.603,82.76,1.0186,-0.33954,-1.5165,1.3581,3.2977e-10,-0.75827,0,0,0.2,4.737e-16,0,0.66667
0.25426,0.56078,1.2713,0.091172,2.7902,74.935,-0.30909,0.10303,-1.971,-0.41212,-3.4847e-11,-0.98549,0,0,0.2,5.9212e-16,0,0.66667
0.43402,0.37209,2.1701,-0.19187,-5.0863,47.361,1.1104,-0.37012,-1.8696,1.4805,-1.473e-12,-0.93481,0,0,0.2,-1.1842e-16,0,0.66667
0.082426,0.85079,0.41213,0.52618,17.264,103.95,-0.57828,0.19276,-1.0153,-0.77104,-1.7197e-08,-0.50763,0,0,0.2,-0,-0,0.66667
0.85329,0.51655,4.2664,0.024825,0.21053,4.4523,-0.28244,0.094147,-1.9967,-0.37659,-4.9821e-10,-0.99833,0,0,0.2,-0,-0,0.66667
0.91633,0.15595,4.5816,-0.51608,-2.5998,2.2693,6.3053,-2.1018,-1.0536,8.4071,3.6712e-09,-0.52679,0,0,0.2,2.9606e-17,0,0.66667
0.21311,0.096913,1.0655,-0.60463,-19.116,81.878,1.718,-0.57267,-0.70017,2.2907,1.2094e-11,-0.35008,0,0,0.2,-0,-0,0.66667
0.47372,0.06042,2.3686,-0.65937,-16.959,42.249,4.1648,-1.3883,-0.45446,5.553,-4.8672e-13,-0.22723,0,0,0.2,3.5527e-16,0,0.66667
0.84146,0.25392,4.2073,-0.36912,-3.429,5.3456,4.1414,-1.3805,-1.5163,5.5218,-1.29e-09,-0.75814,0,0,0.2,-1.8948e-15,0,0.66667
0.28828,0.099731,1.4414,-0.6004,-18.224,69.668,2.3078,-0.76926,-0.7177,3.077,1.0241e-12,-0.35885,0,0,0.2,-0,-0,0.66667
0.61071,0.38536,3.0535,-0.17196,-3.4991,24.778,1.4002,-0.46674,-1.8952,1.867,1.5781e-12,-0.9476,0,0,0.2,-0,-0,0.66667
0.44205,0.65647,2.2102,0.2347,6.1712,46.242,-1.3833,0.46111,-1.8049,-1.8445,8.3278e-13,-0.90245,0,0,0.2,-1.8948e-15,0,0.66667
0.39749,0.19711,1.9875,-0.45433,-12.584,52.802,2.4079,-0.80264,-1.2651,3.2106,-1.6882e-12,-0.63255,0,0,0.2,-0,-0,0.66667
0.78937,0.74594,3.9469,0.36891,4.4715,8.6054,-3.8828,1.2943,-1.5158,-5.1771,3.0472e-10,-0.7579,0,0,0.2,9.4739e-16,0,0.66667
0.46451,0.95143,2.3226,0.67715,17.628,43.527,-4.1939,1.398,-0.36885,-5.5919,-3.384e-13,-0.18443,0,0,0.2,9.4739e-16,0,0.66667
0.4648,0.77752,2.324,0.41628,10.71,43.193,-2.5798,0.85994,-1.3841,-3.4398,4.8228e-13,-0.69205,0,0,0.2,2.3685e-16,0,0.66667
0.99203,0.85349,4.9601,0.53023,0.12595,0.68682,-7.0134,2.3378,-0.99936,-9.3512,9.0986e-08,-0.49968,0,0,0.2,-1.8948e-15,0,0.66667
0.96223,0.57661,4.8111,0.11491,0.21843,0.53055,-1.4743,0.49144,-1.9519,-1.9658,1.8797e-07,-0.97594,0,0,0.2,-0,-0,0.66667
0.23508,0.043853,1.1754,-0.68422,-21.48,78.315,2.1446,-0.71488,-0.33594,2.8595,9.4627e-12,-0.16797,0,0,0.2,-0,-0,0.66667
0.22695,0.52679,1.1348,0.040185,1.2471,79.411,-0.1216,0.040534,-1.9939,-0.16214,-2.3093e-11,-0.99694,0,0,0.2,-0,-0,0.66667
0.66274,0.60061,3.3137,0.15091,2.7365,19.249,-1.3336,0.44452,-1.9184,-1.7781,-6.4737e-13,-0.95918,0,0,0.2,-0,-0,0.66667
0.41195,0.8053,2.0597,0.45795,12.507,50.694,-2.5154,0.83846,-1.2537,-3.3538,1.0911e-12,-0.62686,0,0,0.2,-0,-0,0.66667
0.71875,0.53795,3.5938,0.056932,0.88433,13.945,-0.5456,0.18187,-1.9898,-0.72747,8.6453e-12,-0.99491,0,0,0.2,-1.8948e-15,0,0.66667
0.73345,0.72526,3.6673,0.33788,5.0468,12.863,-3.3043,1.1014,-1.595,-4.4057,4.229e-11,-0.7975,0,0,0.2,-0,-0,0.66667
0.78329,0.81524,3.9165,0.47286,5.9251,9.1857,-4.9385,1.6462,-1.206,-6.5847,2.2534e-10,-0.603,0,0,0.2,-0,-0,0.66667
0.26331,0.57555,1.3166,0.11333,3.451,73.465,-0.39787,0.13262,-1.9541,-0.53049,-3.0093e-11,-0.97707,0,0,0.2,-0,-0,0.66667
0.99836,0.56466,4.9918,0.096997,-0.045031,0.032958,-1.2912,0.43039,-1.9678,-1.7216,-5.4049e-06,-0.98392,0,0,0.2,-3.7896e-15,0,0.66667
0.4937,0.89602,2.4685,0.59403,14.846,39.486,-3.9103,1.3034,-0.74436,-5.2138,1.0969e-13,-0.37218,0,0,0.2,-0,-0,0.66667
0.083927,0.55091,0.41963,0.076359,2.4833,103.65,-0.085447,0.028482,-1.9783,-0.11393,-7.9221e-09,-0.98913,0,0,0.2,-0,-0,0.66667
0.11202,0.027984,0.56008,-0.70802,-23.26,98.935,1.0575,-0.35249,-0.21832,1.41,1.5351e-08,-0.10916,0,0,0.2,5.9212e-17,0,0.66667
0.5615,0.33473,2.8075,-0.2479,-5.5292,30.546,1.8559,-0.61864,-1.7821,2.4746,8.3333e-13,-0.89105,0,0,0.2,-0,-0,0.66667
0.51011,0.7499,2.5505,0.37486,9.0798,37.097,-2.5496,0.84986,-1.501,-3.3994,3.1508e-13,-0.7505,0,0,0.2,-1.1028e-15,0,0.66667
0.93484,0.86543,4.6742,0.54814,2.1547,1.7781,-6.8323,2.2774,-0.93159,-9.1097,1.4732e-08,-0.4658,0,0,0.2,-9.4739e-16,0,0.66667
0.90083,0.76864,4.5041,0.40295,2.3649,2.6126,-4.8399,1.6133,-1.4217,-6.4532,5.8034e-09,-0.71084,0,0,0.2,-0,-0,0.66667
0.4654,0.73271,2.327,0.34907,8.9559,43.057,-2.1661,0.72204,-1.5662,-2.8882,4.1389e-13,-0.7831,0,0,0.2,-0,-0,0.66667
0.20648,0.32326,1.0324,-0.26511,-8.325,82.84,0.72986,-0.24329,-1.7497,0.97315,3.3189e-10,-0.87484,0,0,0.2,-0,-0,0.66667
0.56442,0.76085,2.8221,0.39128,8.7216,30.308,-2.9446,0.98153,-1.4557,-3.9261,-8.3467e-13,-0.72786,0,0,0.2,-0,-0,0.66667
0.30873,0.30805,1.5437,-0.28792,-8.5394,66.244,1.1852,-0.39507,-1.7054,1.5803,4.5454e-12,-0.85271,0,0,0.2,-2.3685e-16,0,0.66667
0.65059,0.52348,3.2529,0.035213,0.65646,20.455,-0.30545,0.10182,-1.9949,-0.40727,-1.0209e-13,-0.99746,0,0,0.2,-9.4739e-16,0,0.66667
0.5151,0.81459,2.5755,0.47188,11.39,36.543,-3.2409,1.0803,-1.2101,-4.3212,-1.5721e-13,-0.60504,0,0,0.2,1.8948e-15,-1.0579e-18,0.66667
0.84318,0.79205,4.2159,0.43807,4.0524,5.3549,-4.925,1.6417,-1.3183,-6.5666,1.1979e-09,-0.65916,0,0,0.2,-0,-0,0.66667
0.13174,0.20217,0.6587,-0.44674,-14.465,95.49,0.78472,-0.26157,-1.2892,1.0463,1.9745e-09,-0.6446,0,0,0.2,-0,-0,0.66667
0.25101,0.6546,1.255,0.2319,7.1207,75.491,-0.77612,0.25871,-1.8104,-1.0348,-7.9465e-11,-0.90522,0,0,0.2,-1.1842e-16,0,0.66667
0.59753,0.81349,2.9877,0.47023,9.9115,26.519,-3.7464,1.2488,-1.2146,-4.9952,-1.7069e-12,-0.6073,0,0,0.2,-0,-0,0.66667
0.62521,0.40775,3.1261,-0.13838,-2.7316,23.167,1.1536,-0.38452,-1.934,1.5381,1.4018e-12,-0.96699,0,0,0.2,-0,-0,0.66667
0.41259,0.43677,2.063,-0.09485,-2.569,50.417,0.5218,-0.17393,-1.9684,0.69573,-1.5545e-12,-0.98419,0,0,0.2,6.5133e-16,0,0.66667
0.90059,0.93606,4.503,0.65409,4.028,3.1528,-7.8543,2.6181,-0.47913,-10.472,-3.3873e-08,-0.23956,0,0,0.2,2.0132e-15,0,0.66667
0.81028,0.22525,4.0514,-0.41213,-4.5504,7.2696,4.4525,-1.4842,-1.3965,5.9367,-5.1192e-10,-0.69823,0,0,0.2,-0,-0,0.66667
0.54085,0.42281,2.7042,-0.11579,-2.6646,33.027,0.83497,-0.27832,-1.9512,1.1133,3.7881e-13,-0.9756,0,0,0.2,-0,-0,0.66667
0.40503,0.63919,2.0251,0.20879,5.7056,51.551,-1.1276,0.37585,-1.8452,-1.5034,1.0064e-12,-0.92261,0,0,0.2,-0,-0,0.66667
0.39718,0.33766,1.9859,-0.24351,-6.7095,52.718,1.2896,-0.42985,-1.7886,1.7194,-2.1584e-12,-0.8943,0,0,0.2,-0,-0,0.66667
0.11399,0.36409,0.56994,-0.20387,-6.5972,98.482,0.30985,-0.10328,-1.8515,0.41314,-1.14e-09,-0.92573,0,0,0.2,-0,-0,0.66667
0.93724,0.14245,4.6862,-0.53632,-2.0205,1.6862,6.7022,-2.2341,-0.97795,8.9363,-1.38e-08,-0.48897,0,0,0.2,-1.1099e-15,3.0747e-16,0.66667
0.23454,0.40188,1.1727,-0.14717,-4.5534,78.172,0.46023,-0.15341,-1.9246,0.61364,8.9989e-11,-0.96229,0,0,0.2,-1.1842e-16,0,0.66667
0.15282,0.067395,0.76408,-0.64891,-21.03,91.984,1.3222,-0.44073,-0.50302,1.7629,3.1928e-09,-0.25151,0,0,0.2,-0,-0,0.66667
0.51002,0.8732,2.5501,0.55979,13.661,37.305,-3.8067,1.2689,-0.88605,-5.0756,-1.8141e-13,-0.44302,0,0,0.2,1.1842e-16,0,0.66667
0.45504,0.037538,2.2752,-0.69369,-18.277,44.852,4.2088,-1.4029,-0.28955,5.6118,3.8236e-13,-0.14478,0,0,0.2,-9.4739e-16,0,0.66667
0.074027,0.29194,0.37013,-0.31208,-10.195,105.37,0.30804,-0.10268,-1.6531,0.41071,-3.2093e-09,-0.82654,0,0,0.2,1.1842e-16,0,0.66667
0.57557,0.92189,2.8779,0.63284,14,29.294,-4.8566,1.6189,-0.57573,-6.4755,-4.2188e-14,-0.28786,0,0,0.2,-9.4739e-16,0,0.66667
0.69854,0.76841,3.4927,0.40261,6.7048,16.012,-3.7499,1.25,-1.4228,-4.9998,4.3083e-12,-0.7114,0,0,0.2,-0,-0,0.66667
0.49055,0.93834,2.4527,0.65751,16.554,39.991,-4.3005,1.4335,-0.46325,-5.734,3.3218e-13,-0.23162,0,0,0.2,-0,-0,0.66667
0.072894,0.054061,0.36447,-0.66891,-22.099,105.62,0.65012,-0.21671,-0.40844,0.86683,-6.695e-08,-0.20422,0,0,0.2,-5.9212e-17,0,0.66667
0.17966,0.54278,0.89832,0.064163,2.0326,87.302,-0.1537,0.051234,-1.9842,-0.20494,-2.9683e-10,-0.99212,0,0,0.2,-0,-0,0.66667
0.11594,0.24126,0.57968,-0.38811,-12.597,98.176,0.59995,-0.19998,-1.4636,0.79993,3.0904e-09,-0.73178,0,0,0.2,-0,-0,0.66667
0.58346,0.72576,2.9173,0.33864,7.2879,28.001,-2.6344,0.87814,-1.5917,-3.5126,-1.5803e-12,-0.79587,0,0,0.2,-0,-0,0.66667
0.085088,0.97073,0.42544,0.70609,23.319,103.54,-0.80106,0.26702,-0.22742,-1.0681,1.6044e-07,-0.11371,0,0,0.2,-0,-0,0.66667
0.38405,0.75733,1.9203,0.386,10.803,54.739,-1.9766,0.65887,-1.4695,-2.6355,1.8846e-12,-0.73476,0,0,0.2,-0,-0,0.66667
0.14716,0.11936,0.73578,-0.57095,-18.48,92.91,1.1203,-0.37342,-0.84044,1.4937,2.2213e-09,-0.42022,0,0,0.2,1.1842e-16,0,0.66667
0.41149,0.61001,2.0574,0.16502,4.4777,50.594,-0.90537,0.30179,-1.9022,-1.2072,6.5048e-13,-0.95108,0,0,0.2,-0,-0,0.66667
0.62527,0.24428,3.1264,-0.38358,-7.6219,23.339,3.1979,-1.066,-1.4782,4.2639,2.73e-12,-0.73909,0,0,0.2,-0,-0,0.66667
0.35954,0.71342,1.7977,0.32013,9.1389,58.388,-1.5347,0.51156,-1.6371,-2.0462,2.7705e-12,-0.81853,0,0,0.2,-0,-0,0.66667
0.89598,0.84621,4.4799,0.51932,3.2562,3.0144,-6.204,2.068,-1.0413,-8.2721,2.0729e-08,-0.52063,0,0,0.2,-0,-0,0.66667
0.41748,0.10465,2.0874,-0.59303,-16.193,50.026,3.301,-1.1003,-0.74887,4.4014,-4.0101e-13,-0.37444,0,0,0.2,-9.4739e-16,0,0.66667
0.93366,0.26282,4.6683,-0.35578,-1.3606,1.4499,4.429,-1.4763,-1.5493,5.9053,7.9491e-09,-0.77464,0,0,0.2,-0,-0,0.66667
0.82046,0.32313,4.1023,-0.2653,-2.7551,6.4512,2.9023,-0.96742,-1.7487,3.8697,-6.6149e-10,-0.87433,0,0,0.2,-0,-0,0.66667
0.11664,0.87196,0.58321,0.55794,18.2,98.097,-0.86772,0.28924,-0.89305,-1.157,-1.5942e-08,-0.44652,0,0,0.2,-2.3685e-16,0,0.66667
0.10397,0.85778,0.51983,0.53667,17.543,100.26,-0.74393,0.24798,-0.97493,-0.99191,-1.481e-09,-0.48746,0,0,0.2,-0,-0,0.66667
0.13281,0.066259,0.66405,-0.65061,-21.211,95.374,1.1521,-0.38403,-0.49469,1.5361,-7.5398e-09,-0.24735,0,0,0.2,-0,-0,0.66667
0.63847,0.46753,3.1923,-0.048698,-0.93327,21.723,0.41457,-0.13819,-1.9928,0.55275,3.9008e-13,-0.99642,0,0,0.2,4.737e-16,0,0.66667
0.68459,0.35949,3.423,-0.21077,-3.6198,17.139,1.9239,-0.6413,-1.8416,2.5652,-2.7445e-12,-0.9208,0,0,0.2,-8.1072e-16,0,0.66667
0.79001,0.30871,3.9501,-0.28694,-3.4523,8.4668,3.0225,-1.0075,-1.707,4.03,-2.8712e-10,-0.85351,0,0,0.2,-2.3685e-16,0,0.66667
0.54233,0.58307,2.7116,0.1246,2.8611,32.846,-0.901,0.30033,-1.9441,-1.2013,-4.9521e-13,-0.97204,0,0,0.2,-0,-0,0.66667
0.67536,0.50057,3.3768,0.00085322,0.01497,17.964,-0.007683,0.002561,-2.001,-0.010244,7.956e-14,-1.0005,0,0,0.2,-0,-0,0.66667
0.68675,0.048312,3.4338,-0.67753,-11.86,17.566,6.2039,-2.068,-0.36826,8.2719,5.6932e-13,-0.18413,0,0,0.2,-0,-2.3484e-16,0.66667
0.33823,0.9943,1.6911,0.74145,21.878,61.99,-3.3437,1.1146,-0.044958,-4.4583,-3.2707e-13,-0.022479,0,0,0.2,-7.1054e-16,0,0.66667
0.65052,0.79776,3.2526,0.44664,8.4197,20.749,-3.874,1.2913,-1.2896,-5.1653,-2.5571e-12,-0.6448,0,0,0.2,-9.4739e-16,0,0.66667
0.4041,0.4784,2.0205,-0.032399,-0.88476,51.65,0.17457,-0.058189,-1.9963,0.23275,-5.082e-13,-0.99817,0,0,0.2,-0,-0,0.66667
0.64016,0.85952,3.2008,0.53929,10.457,21.954,-4.6031,1.5344,-0.96649,-6.1375,-2.0366e-12,-0.48325,0,0,0.2,9.4739e-16,-2.9492e-16,0.66667
0.93462,0.99731,4.6731,0.74597,3.1405,2.3158,-9.296,3.0987,-0.022163,-12.395,2.7664e-07,-0.011082,0,0,0.2,-3.3159e-15,-7.4422e-17,0.66667
0.42997,0.85972,2.1499,0.53958,14.509,48.181,-3.0934,1.0311,-0.96356,-4.1245,8.4466e-13,-0.48178,0,0,0.2,-9.4739e-16,0,0.66667
0.50617,0.36276,2.5308,-0.20586,-4.9929,37.5,1.3893,-0.46312,-1.8482,1.8525,-7.2164e-14,-0.92412,0,0,0.2,4.737e-16,0,0.66667
0.33206,0.37787,1.6603,-0.18319,-5.3325,62.557,0.81108,-0.27036,-1.8811,1.0814,1.0936e-14,-0.94054,0,0,0.2,-0,-0,0.66667
0.57872,0.95167,2.8936,0.67751,14.947,29,-5.2278,1.7426,-0.36844,-6.9705,3.1086e-14,-0.18422,0,0,0.2,-0,-0,0.66667
0.86342,0.55627,4.3171,0.084402,0.66742,3.9486,-0.97166,0.32389,-1.9745,-1.2955,3.7315e-09,-0.98726,0,0,0.2,-0,-0,0.66667
0.28365,0.12436,1.4182,-0.56347,-17.128,70.378,2.131,-0.71034,-0.87243,2.8414,3.1803e-12,-0.43622,0,0,0.2,7.4015e-17,0,0.66667
0.83439,0.1727,4.172,-0.49095,-4.8078,5.9387,5.4619,-1.8206,-1.1419,7.2825,-1.1139e-09,-0.57093,0,0,0.2,-9.4739e-16,0,0.66667
0.51948,0.46244,2.5974,-0.056345,-1.3386,35.727,0.39026,-0.13009,-1.9886,0.52035,-1.4899e-13,-0.9943,0,0,0.2,4.737e-16,0,0.66667
0.22608,0.7184,1.1304,0.3276,10.207,79.61,-0.9875,0.32917,-1.6188,-1.3167,-1.8494e-10,-0.8094,0,0,0.2,-1.9244e-16,0,0.66667
0.41945,0.52088,2.0972,0.031315,0.84196,49.416,-0.17513,0.058378,-1.9964,-0.23351,4.5093e-13,-0.99821,0,0,0.2,-9.4739e-16,0,0.66667
0.16699,0.77954,0.83497,0.4193,13.419,89.503,-0.93362,0.31121,-1.3753,-1.2448,-1.3495e-09,-0.68763,0,0,0.2,-2.6645e-16,0,0.66667
0.91239,0.74393,4.562,0.3659,1.8807,2.1337,-4.4512,1.4837,-1.5235,-5.935,3.0446e-09,-0.76173,0,0,0.2,9.4739e-16,0,0.66667
0.057947,0.30546,0.28974,-0.29181,-9.5499,108.15,0.22546,-0.075154,-1.6969,0.30062,-1.5101e-08,-0.84843,0,0,0.2,-0,-0,0.66667
0.604,0.14348,3.02,-0.53478,-11.169,25.875,4.3068,-1.4356,-0.98214,5.7424,1.1524e-12,-0.49107,0,0,0.2,-0,-0,0.66667
0.10395,0.11858,0.51976,-0.57213,-18.725,100.27,0.79298,-0.26433,-0.8357,1.0573,-6.182e-09,-0.41785,0,0,0.2,-1.7764e-16,0,0.66667
0.31348,0.43915,1.5674,-0.09127,-2.6909,65.445,0.38148,-0.12716,-1.9721,0.50864,2.0314e-12,-0.98603,0,0,0.2,-0,-0,0.66667
0.14294,0.17127,0.71471,-0.49309,-15.937,93.598,0.93978,-0.31326,-1.1353,1.253,1.6176e-09,-0.56763,0,0,0.2,-0,-0,0.66667
0.49951,0.23049,2.4976,-0.40427,-9.946,38.51,2.6925,-0.89749,-1.4196,3.59,-2.1338e-13,-0.70978,0,0,0.2,9.4739e-16,0,0.66667
0.6361,0.97022,3.1805,0.70532,13.95,22.674,-5.9821,1.994,-0.23169,-7.9761,4.4409e-16,-0.11585,0,0,0.2,-0,-2.575e-16,0.66667
0.82926,0.41907,4.1463,-0.1214,-1.1949,5.819,1.3422,-0.44741,-1.9479,1.7897,-2.3326e-10,-0.97395,0,0,0.2,-0,-0,0.66667
0.45001,0.058475,2.2501,-0.66229,-17.52,45.506,3.9738,-1.3246,-0.44088,5.2985,-6.3061e-13,-0.22044,0,0,0.2,7.1054e-16,-1.0631e-16,0.66667
0.76945,0.51411,3.8472,0.021163,0.27544,9.812,-0.21712,0.072373,-1.9977,-0.28949,3.0687e-11,-0.99885,0,0,0.2,-0,-0,0.66667
0.59534,0.24004,2.9767,-0.38995,-8.2253,26.678,3.0953,-1.0318,-1.4596,4.1271,1.89e-12,-0.72981,0,0,0.2,-9.4739e-16,0,0.66667
0.97226,0.218,4.8613,-0.42299,-0.60303,0.71006,5.4835,-1.8278,-1.3647,7.3113,4.8242e-08,-0.68237,0,0,0.2,-1.1842e-16,0,0.66667
0.11972,0.99152,0.59858,0.73728,24.209,97.634,-1.1769,0.39229,-0.066572,-1.5691,-1.5895e-08,-0.033286,0,0,0.2,2.602e-16,0,0.66667
0.81632,0.66953,4.0816,0.25429,2.6967,6.6973,-2.7678,0.92259,-1.7694,-3.6904,6.3061e-10,-0.8847,0,0,0.2,-0,-0,0.66667
0.83516,0.099316,4.1758,-0.60103,-5.9352,6.1181,6.6927,-2.2309,-0.7151,8.9236,-1.61e-09,-0.35755,0,0,0.2,-1.8948e-15,0,0.66667
0.79157,0.72079,3.9579,0.33118,3.9667,8.4066,-3.4953,1.1651,-1.6103,-4.6605,3.2323e-10,-0.80514,0,0,0.2,-0,-0,0.66667
0.45482,0.51049,2.2741,0.015738,0.4069,44.396,-0.095442,0.031814,-1.9993,-0.12726,-2.8925e-13,-0.99965,0,0,0.2,-1.8948e-15,0,0.66667
0.52721,0.28593,2.636,-0.3211,-7.5754,34.854,2.2572,-0.75239,-1.6335,3.0096,1.6631e-13,-0.81673,0,0,0.2,-0,-0,0.66667
0.98538,0.67792,4.9269,0.26688,0.12217,0.29491,-3.5063,1.1688,-1.7473,-4.6751,1.9025e-08,-0.87366,0,0,0.2,-0,-0,0.66667
0.94464,0.25478,4.7232,-0.36782,-1.1571,1.1776,4.6328,-1.5443,-1.5185,6.1771,1.2048e-08,-0.75927,0,0,0.2,-3.7896e-15,0,0.66667
0.763,0.89419,3.815,0.59128,8.1046,10.893,-6.0153,2.0051,-0.75667,-8.0204,2.893e-11,-0.37834,0,0,0.2,-0,8.9287e-17,0.66667
0.46026,0.91705,2.3013,0.62558,16.324,44.041,-3.8391,1.2797,-0.60747,-5.1188,-2.5446e-13,-0.30373,0,0,0.2,-0,-0,0.66667
0.54024,0.41633,2.7012,-0.12551,-2.8915,33.107,0.90407,-0.30136,-1.943,1.2054,3.6277e-13,-0.9715,0,0,0.2,-0,-0,0.66667
0.80456,0.51223,4.0228,0.018348,0.205,7.3363,-0.19683,0.065609,-1.9976,-0.26244,1.2689e-10,-0.99882,0,0,0.2,-0,-0,0.66667
0.27687,0.64853,1.3843,0.22279,6.7387,71.298,-0.82246,0.27415,-1.8231,-1.0966,-2.8212e-11,-0.91155,0,0,0.2,2.3685e-16,0,0.66667
0.25653,0.92592,1.2827,0.63888,19.792,74.792,-2.1853,0.72842,-0.54765,-2.9137,-5.1961e-12,-0.27382,0,0,0.2,-0,-0,0.66667
0.21386,0.90675,1.0693,0.61013,19.287,81.756,-1.7398,0.57993,-0.67704,-2.3197,1.2855e-11,-0.33852,0,0,0.2,-0,-0,0.66667
0.55121,0.32995,2.756,-0.25507,-5.7875,31.806,1.8746,-0.62487,-1.7679,2.4995,6.1717e-13,-0.88393,0,0,0.2,-0,-0,0.66667
0.9514,0.80414,4.757,0.45621,1.2747,1.1717,-5.7871,1.929,-1.2604,-7.7162,-2.3643e-08,-0.63018,0,0,0.2,-0,-0,0.66667
0.23774,0.12669,1.1887,-0.55996,-17.466,77.8,1.775,-0.59166,-0.88591,2.3666,3.743e-11,-0.44295,0,0,0.2,-0,-0,0.66667
0.8016,0.91246,4.008,0.61869,7.2561,8.2138,-6.6125,2.2042,-0.63872,-8.8167,2.5383e-10,-0.31936,0,0,0.2,-0,-0,0.66667
0.03041,0.58781,0.15205,0.13171,4.3118,112.91,-0.053404,0.017801,-1.9394,-0.071205,-1.3436e-07,-0.96968,0,0,0.2,-0,-0,0.66667
0.50622,0.39804,2.5311,-0.15295,-3.7062,37.472,1.0323,-0.34411,-1.916,1.3764,-3.9746e-14,-0.95802,0,0,0.2,-0,-0,0.66667
0.28403,0.33822,1.4201,-0.24266,-7.3095,70.155,0.91897,-0.30632,-1.7909,1.2253,2.0782e-11,-0.89547,0,0,0.2,-0,-0,0.66667
0.28272,0.82166,1.4136,0.48249,14.633,70.473,-1.8188,0.60627,-1.1726,-2.4251,-1.0043e-11,-0.58632,0,0,0.2,-0,-0,0.66667
0.39197,0.10458,1.9599,-0.59314,-16.604,53.741,3.0999,-1.0333,-0.74943,4.1332,-1.2961e-12,-0.37471,0,0,0.2,-0,-0,0.66667
0.53546,0.88598,2.6773,0.57897,13.629,34.087,-4.1335,1.3778,-0.80749,-5.5114,1.0703e-13,-0.40374,0,0,0.2,-0,-0,0.66667
0.77289,0.018424,3.8644,-0.72236,-9.6648,10.451,7.4441,-2.4814,-0.1435,9.9254,1.4146e-11,-0.071748,0,0,0.2,-0,-0,0.66667
0.96166,0.024513,4.8083,-0.71323,-1.7483,1.6006,9.1451,-3.0484,-0.19062,12.193,-3.0712e-06,-0.095312,0,0,0.2,1.8948e-15,0,0.66667
0.15039,0.88174,0.75193,0.57261,18.516,92.363,-1.1482,0.38272,-0.83363,-1.5309,-2.7679e-09,-0.41681,0,0,0.2,-0,-0,0.66667
0.39479,0.2005,1.974,-0.44925,-12.473,53.195,2.3648,-0.78826,-1.2817,3.153,-1.8781e-12,-0.64083,0,0,0.2,9.4739e-16,0,0.66667
0.16274,0.45097,0.8137,-0.073544,-2.344,90.16,0.15958,-0.053194,-1.9796,0.21277,2.1405e-10,-0.98981,0,0,0.2,-2.3685e-16,0,0.66667
0.83664,0.37561,4.1832,-0.18659,-1.764,5.4273,2.0815,-0.69382,-1.8766,2.7753,-1.0914e-09,-0.93828,0,0,0.2,-0,-0,0.66667
0.084802,0.22377,0.42401,-0.41435,-13.544,103.53,0.4685,-0.15617,-1.3892,0.62467,8.3668e-10,-0.69458,0,0,0.2,-0,-0,0.66667
0.85629,0.9379,4.2814,0.65685,5.7518,5.1164,-7.4994,2.4998,-0.46704,-9.9992,-1.6531e-09,-0.23352,0,0,0.2,-0,1.2064e-17,0.66667
0.74085,0.74376,3.7042,0.36563,5.3359,12.282,-3.6117,1.2039,-1.5241,-4.8156,5.143e-11,-0.76205,0,0,0.2,-9.8242e-16,0,0.66667
0.85834,0.24122,4.2917,-0.38816,-3.2405,4.4777,4.4423,-1.4808,-1.4649,5.9231,-1.8674e-09,-0.73244,0,0,0.2,-0,-0,0.66667
0.88992,0.0033146,4.4496,-0.74503,-5.1608,3.8229,8.8402,-2.9467,-0.027926,11.787,8.8052e-09,-0.013963,0,0,0.2,3.7896e-15,0,0.66667
0.15078,0.44213,0.75388,-0.086804,-2.7777,92.19,0.17451,-0.058169,-1.973,0.23267,-1.3376e-09,-0.98649,0,0,0.2,-0,-0,0.66667
0.55669,0.51067,2.7834,0.016011,0.35897,31.055,-0.11884,0.039614,-1.9981,-0.15845,-2.3009e-13,-0.99907,0,0,0.2,-0,-0,0.66667
0.30252,0.76637,1.5126,0.39955,11.932,67.277,-1.6116,0.5372,-1.4313,-2.1488,-4.2721e-12,-0.71565,0,0,0.2,-0,-0,0.66667
0.27122,0.35213,1.3561,-0.22181,-6.7316,72.207,0.80213,-0.26738,-1.8244,1.0695,3.4413e-11,-0.91218,0,0,0.2,-0,-0,0.66667
0.016434,0.18353,0.082172,-0.47471,-15.653,115.35,0.10402,-0.034673,-1.2001,0.13869,-2.4629e-08,-0.60005,0,0,0.2,1.4803e-17,0,0.66667
0.51518,0.65322,2.5759,0.22982,5.5061,36.339,-1.5787,0.52623,-1.8139,-2.1049,-4.7373e-13,-0.90694,0,0,0.2,1.1842e-15,0,0.66667
0.019049,0.48891,0.095247,-0.016638,-0.5447,114.88,0.0042244,-0.001407,-1.9986,0.005633,1.6461e-06,-0.99928,0,0,0.2,-2.9606e-17,0,0.66667
0.89823,0.79698,4.4911,0.44547,2.7004,2.7847,-5.3351,1.7784,-1.2932,-7.1135,3.4358e-09,-0.64659,0,0,0.2,-1.8948e-15,0,0.66667
0.26698,0.79501,1.3349,0.44252,13.531,72.98,-1.5753,0.52509,-1.3039,-2.1004,-2.8972e-11,-0.65195,0,0,0.2,4.737e-16,0,0.66667
0.49337,0.90514,2.4669,0.60771,15.204,39.548,-3.9977,1.3326,-0.68716,-5.3303,1.7986e-13,-0.34358,0,0,0.2,-1.0066e-15,0,0.66667
0.63642,0.033281,3.1821,-0.70008,-13.832,22.63,5.9406,-1.9802,-0.25786,7.9208,3.3973e-13,-0.12893,0,0,0.2,-0,-0,0.66667
0.0014998,0.75922,0.0074988,0.38883,12.795,117.93,-0.0077754,0.0025918,-1.4628,-0.010367,-6.2442e-08,-0.7314,0,0,0.2,-0,3.9414e-16,0.66667
0.11324,0.90119,0.56619,0.60179,19.677,98.691,-0.90861,0.30287,-0.71242,-1.2115,-2.0767e-10,-0.35621,0,0,0.2,-5.9212e-17,0,0.66667
0.46654,0.28062,2.3327,-0.32907,-8.4264,42.887,2.047,-0.68233,-1.6164,2.7293,-9.2593e-13,-0.80818,0,0,0.2,1.0362e-15,0,0.66667
0.62328,0.50271,3.1164,0.0040617,0.080421,23.351,-0.033754,0.011251,-2.0011,-0.045005,1.793e-13,-1.0005,0,0,0.2,-0,-0,0.66667
0.81967,0.030365,4.0984,-0.70445,-7.6569,7.2752,7.6989,-2.5663,-0.23583,10.265,-1.7164e-10,-0.11791,0,0,0.2,3.5818e-16,0,0.66667
0.41481,0.35281,2.074,-0.22079,-5.9756,50.132,1.2211,-0.40704,-1.8257,1.6282,-1.3952e-12,-0.91287,0,0,0.2,-9.4739e-16,0,0.66667
0.92685,0.49431,4.6343,-0.0085361,-0.035119,1.3882,0.10549,-0.035164,-1.9995,0.14065,-3.9843e-07,-0.99973,0,0,0.2,-1.4211e-15,0,0.66667
0.59738,0.84056,2.9869,0.51085,10.792,26.589,-4.0689,1.3563,-1.0725,-5.4253,-1.2594e-12,-0.53627,0,0,0.2,2.3685e-16,0,0.66667
0.0018308,0.99116,0.009154,0.73673,24.543,117.88,-0.018053,0.0059909,-0.070335,-0.024084,-4.0268e-05,-0.035168,0,0,0.2,-0,7.69e-16,0.66667
0.68004,0.8623,3.4002,0.54345,9.5871,17.956,-4.9275,1.6425,-0.94873,-6.5701,-1.8083e-12,-0.47437,0,0,0.2,-0,-0,0.66667
0.21277,0.50727,1.0639,0.010899,0.34048,81.76,-0.030919,0.010306,-1.9989,-0.041226,5.397e-11,-0.99947,0,0,0.2,9.4739e-16,0,0.66667
0.015256,0.051402,0.076279,-0.6729,-22.348,115.56,0.13687,-0.045622,-0.39082,0.18249,1.3389e-06,-0.19541,0,0,0.2,-0,-0,0.66667
0.73575,0.59022,3.6787,0.13533,1.9928,12.515,-1.3276,0.44254,-1.936,-1.7702,3.1582e-11,-0.96802,0,0,0.2,-2.3685e-16,0,0.66667
0.55191,0.4465,2.7596,-0.080252,-1.814,31.648,0.59056,-0.19685,-1.9764,0.78741,3.1508e-13,-0.98821,0,0,0.2,9.4739e-16,0,0.66667
0.78362,0.30711,3.9181,-0.28934,-3.5785,8.9189,3.0231,-1.0077,-1.7028,4.0308,-2.3697e-10,-0.85141,0,0,0.2,1.4211e-15,0,0.66667
0.088169,0.094568,0.44085,-0.60815,-19.993,102.99,0.71493,-0.23831,-0.68545,0.95324,-1.1756e-07,-0.34273,0,0,0.2,-0,-0,0.66667
0.3557,0.075972,1.7785,-0.63604,-18.415,59.212,3.0165,-1.0055,-0.56096,4.022,-6.9611e-13,-0.28048,0,0,0.2,-0,7.665e-17,0.66667
0.2997,0.58124,1.4985,0.12186,3.628,67.627,-0.48696,0.16232,-1.9468,-0.64928,-6.6706e-12,-0.97342,0,0,0.2,4.737e-16,0,0.66667
0.569,0.62994,2.845,0.19491,4.2874,29.613,-1.4787,0.4929,-1.8645,-1.9716,-6.1529e-13,-0.93227,0,0,0.2,-0,-0,0.66667
0.51015,0.34994,2.5508,-0.22509,-5.4307,36.989,1.531,-0.51035,-1.8194,2.0414,-1.088e-14,-0.90971,0,0,0.2,-0,-0,0.66667
0.78213,0.84185,3.9106,0.51278,6.4774,9.3372,-5.3474,1.7825,-1.0668,-7.1299,6.8442e-11,-0.53338,0,0,0.2,9.4739e-16,0,0.66667
0.18706,0.10068,0.93529,-0.59898,-19.141,86.206,1.4939,-0.49797,-0.72544,1.9919,-2.3033e-11,-0.36272,0,0,0.2,4.737e-16,0,0.66667
0.5765,0.95686,2.8825,0.68529,15.185,29.274,-5.2676,1.7559,-0.33035,-7.0234,2.1716e-13,-0.16517,0,0,0.2,-6.8271e-16,0,0.66667
0.64438,0.26259,3.2219,-0.35611,-6.7806,21.28,3.0596,-1.0199,-1.5485,4.0794,3.034e-12,-0.77424,0,0,0.2,-0,-0,0.66667
0.45987,0.40907,2.2993,-0.13639,-3.508,43.714,0.8363,-0.27877,-1.9338,1.1151,-4.1506e-13,-0.9669,0,0,0.2,-0,-0,0.66667
0.55798,0.56017,2.7899,0.09025,2.0198,30.907,-0.67143,0.22381,-1.9714,-0.89525,-8.9767e-13,-0.98569,0,0,0.2,1.0658e-15,0,0.66667
0.97433,0.008785,4.8716,-0.73682,-1.23,1.4663,9.5721,-3.1907,-0.068892,12.763,-1.0489e-06,-0.034446,0,0,0.2,-0,-0,0.66667
0.75167,0.15333,3.7584,-0.52,-7.3823,11.638,5.2116,-1.7372,-1.0397,6.9488,-2.7025e-11,-0.51986,0,0,0.2,-2.3685e-16,0,0.66667
0.38099,0.49936,1.9049,-0.00095643,-0.026694,55.07,0.0048585,-0.0016195,-2.0004,0.006478,-1.2983e-12,-1.0002,0,0,0.2,-2.9606e-17,0,0.66667
0.43402,0.37278,2.1701,-0.19082,-5.0585,47.361,1.1043,-0.36809,-1.8712,1.4724,-1.72e-12,-0.93558,0,0,0.2,9.4739e-16,0,0.66667
0.71283,0.58404,3.5642,0.12605,1.9953,14.488,-1.1981,0.39936,-1.9426,-1.5974,1.2312e-11,-0.97131,0,0,0.2,-0,-0,0.66667
0.093712,0.91135,0.46856,0.61703,20.271,102.04,-0.77097,0.25699,-0.64787,-1.028,4.8996e-08,-0.32393,0,0,0.2,-2.3685e-16,1.294e-16,0.66667
0.63781,0.83104,3.189,0.49657,9.6561,22.139,-4.2229,1.4076,-1.1229,-5.6305,-2.0353e-12,-0.56146,0,0,0.2,-1.7027e-15,0,0.66667
0.11436,0.68526,0.57179,0.27789,9.0021,98.427,-0.42372,0.14124,-1.7257,-0.56496,-9.9928e-10,-0.86285,0,0,0.2,-5.4961e-17,0,0.66667
0.10185,0.1612,0.50924,-0.5082,-16.604,100.62,0.69013,-0.23004,-1.0813,0.92017,2.0121e-08,-0.54063,0,0,0.2,-0,-0,0.66667
0.66667,0.38966,3.3333,-0.16551,-2.9732,18.862,1.4712,-0.49041,-1.9016,1.9616,7.7383e-14,-0.95079,0,0,0.2,9.4739e-16,0,0.66667
0.1671,0.48798,0.8355,-0.018033,-0.57381,89.42,0.040178,-0.013393,-1.998,0.053571,7.4026e-10,-0.999,0,0,0.2,-4.3473e-16,0,0.66667
0.76472,0.57545,3.8236,0.11317,1.5018,10.191,-1.1539,0.38463,-1.9549,-1.5385,7.7264e-11,-0.97743,0,0,0.2,-0,-0,0.66667
0.75059,0.76309,3.753,0.39463,5.577,11.532,-3.9494,1.3165,-1.4468,-5.2659,7.2628e-11,-0.7234,0,0,0.2,-0,-0,0.66667
0.31202,0.34367,1.5601,-0.2345,-6.9323,65.707,0.97559,-0.3252,-1.8067,1.3008,3.2798e-12,-0.90336,0,0,0.2,9.2519e-17,0,0.66667
0.57086,0.56405,2.8543,0.096081,2.1039,29.354,-0.73133,0.24378,-1.9673,-0.9751,-5.6871e-13,-0.98366,0,0,0.2,-1.8948e-15,0,0.66667
0.64514,0.68013,3.2257,0.2702,5.1209,21.123,-2.3242,0.77475,-1.74,-3.099,-2.3903e-12,-0.87,0,0,0.2,-4.737e-16,0,0.66667
0.81146,0.63461,4.0573,0.20191,2.1894,6.9609,-2.1846,0.72821,-1.8556,-2.9128,4.0447e-10,-0.92779,0,0,0.2,-0,-0,0.66667
0.20147,0.54579,1.0073,0.068685,2.1568,83.646,-0.1845,0.061501,-1.9832,-0.246,-1.1423e-10,-0.99162,0,0,0.2,-0,-0,0.66667
0.67624,0.97175,3.3812,0.70763,12.756,18.63,-6.3804,2.1268,-0.21984,-8.5072,-1.2834e-13,-0.10992,0,0,0.2,-0,-0,0.66667
0.82289,0.74368,4.1145,0.36552,3.771,6.4182,-4.0104,1.3368,-1.5245,-5.3472,8.2555e-10,-0.76227,0,0,0.2,1.4211e-15,0,0.66667
0.41439,0.62937,2.0719,0.19406,5.2522,50.183,-1.0722,0.3574,-1.8657,-1.4296,4.8284e-13,-0.93287,0,0,0.2,-0,-0,0.66667
0.4937,0.79912,2.4685,0.44868,11.143,39.321,-2.9535,0.98449,-1.2831,-3.938,2.176e-13,-0.64154,0,0,0.2,-0,-0,0.66667
0.51425,0.092599,2.5712,-0.6111,-14.863,36.826,4.1901,-1.3967,-0.67379,5.5868,5.4357e-13,-0.3369,0,0,0.2,-8.7127e-16,0,0.66667
0.93933,0.20945,4.6966,-0.43583,-1.541,1.4273,5.4585,-1.8195,-1.3249,7.278,9.1513e-09,-0.66243,0,0,0.2,-0,-0,0.66667
0.051651,0.18478,0.25825,-0.47283,-15.553,109.25,0.32563,-0.10854,-1.2053,0.43417,-1.1023e-08,-0.60265,0,0,0.2,-2.9606e-17,0,0.66667
0.57155,0.32931,2.8578,-0.25603,-5.6145,29.343,1.9512,-0.65038,-1.7657,2.6015,1.0784e-12,-0.88287,0,0,0.2,-0,-0,0.66667
0.48976,0.46441,2.4488,-0.05338,-1.3215,39.628,0.34858,-0.11619,-1.9897,0.46477,-2.3645e-13,-0.99485,0,0,0.2,7.6369e-16,0,0.66667
0.34383,0.10821,1.7191,-0.58769,-17.142,60.976,2.6942,-0.89807,-0.77273,3.5923,-1.9864e-12,-0.38637,0,0,0.2,4.737e-16,0,0.66667
0.66992,0.35388,3.3496,-0.21918,-3.9102,18.571,1.9577,-0.65258,-1.8293,2.6103,1.3245e-13,-0.91465,0,0,0.2,-0,-0,0.66667
0.76944,0.22449,3.8472,-0.41327,-5.452,10.104,4.2398,-1.4133,-1.3927,5.653,-1.4878e-10,-0.69636,0,0,0.2,-1.8948e-15,0,0.66667
0.54006,0.79796,2.7003,0.44694,10.385,33.35,-3.2183,1.0728,-1.2885,-4.2911,-3.253e-13,-0.64427,0,0,0.2,-0,-0,0.66667
0.041638,0.089342,0.20819,-0.61599,-20.38,111,0.34198,-0.11399,-0.65073,0.45597,6.1796e-07,-0.32537,0,0,0.2,-2.9606e-17,0,0.66667
0.23508,0.4534,1.1754,-0.069903,-2.1609,78.073,0.2191,-0.073035,-1.9831,0.29214,4.9937e-11,-0.99153,0,0,0.2,-0,-0,0.66667
0.02044,0.65854,0.1022,0.2378,7.7987,114.65,-0.064809,0.021603,-1.7992,-0.086412,-3.7548e-08,-0.89961,0,0,0.2,5.9212e-17,0,0.66667
0.32778,0.89207,1.6389,0.58811,17.365,63.451,-2.5703,0.85676,-0.77084,-3.427,1.6003e-12,-0.38542,0,0,0.2,-4.737e-16,2.3481e-16,0.66667
0.46806,0.51805,2.3403,0.02708,0.68914,42.567,-0.169,0.056333,-1.9979,-0.22533,-5.9237e-13,-0.99894,0,0,0.2,9.4739e-16,0,0.66667
0.78457,0.58986,3.9228,0.13479,1.6512,8.7372,-1.41,0.47,-1.9358,-1.88,2.0379e-10,-0.9679,0,0,0.2,2.3685e-16,0,0.66667
0.53227,0.86651,2.6614,0.54976,12.985,34.447,-3.9017,1.3006,-0.92601,-5.2022,7.2387e-14,-0.46301,0,0,0.2,-0,-0,0.66667
0.47743,0.57581,2.3871,0.11372,2.8618,41.301,-0.7239,0.2413,-1.9528,-0.9652,2.4741e-13,-0.97642,0,0,0.2,-0,-0,0.66667
0.69795,0.16356,3.4897,-0.50466,-8.4663,16.209,4.6963,-1.5654,-1.0939,6.2618,-7.5451e-13,-0.54697,0,0,0.2,-0,-0,0.66667
0.017417,0.65799,0.087086,0.23698,7.7726,115.17,-0.055034,0.018345,-1.8016,-0.073379,-3.3357e-08,-0.90081,0,0,0.2,-0,-0,0.66667
0.69499,0.7636,3.475,0.3954,6.6473,16.331,-3.664,1.2213,-1.4429,-4.8853,3.0422e-12,-0.72145,0,0,0.2,9.4739e-16,0,0.66667
0.31196,0.66653,1.5598,0.24979,7.3864,65.721,-1.039,0.34633,-1.7789,-1.3853,-3.7003e-12,-0.88943,0,0,0.2,9.4739e-16,0,0.66667
0.55979,0.62212,2.799,0.18318,4.092,30.718,-1.3672,0.45574,-1.8815,-1.8229,-4.7018e-13,-0.94073,0,0,0.2,2.3685e-16,0,0.66667
0.60681,0.15223,3.034,-0.52166,-10.829,25.542,4.2206,-1.4069,-1.033,5.6275,1.4846e-12,-0.51652,0,0,0.2,-8.2494e-16,0,0.66667
0.18214,0.49022,0.91071,-0.014664,-0.46402,86.883,0.035612,-0.011871,-1.9984,0.047483,-3.1071e-10,-0.99921,0,0,0.2,-0,-0,0.66667
0.25027,0.47403,1.2514,-0.038954,-1.1945,75.581,0.12999,-0.043329,-1.996,0.17332,1.9179e-11,-0.998,0,0,0.2,-0,-0,0.66667
0.57882,0.25958,2.8941,-0.36063,-7.8319,28.565,2.7832,-0.92774,-1.5383,3.7109,1.5541e-12,-0.76914,0,0,0.2,-0,-0,0.66667
0.26262,0.56729,1.3131,0.10093,3.0745,73.576,-0.35343,0.11781,-1.9641,-0.47123,-3.0304e-11,-0.98206,0,0,0.2,-0,-0,0.66667
0.23942,0.14642,1.1971,-0.53036,-16.511,77.508,1.693,-0.56435,-0.99911,2.2574,5.0301e-11,-0.49956,0,0,0.2,-0,-0,0.66667
0.35903,0.53876,1.7952,0.058144,1.6546,58.387,-0.27834,0.09278,-1.9891,-0.37112,4.1078e-13,-0.99453,0,0,0.2,-0,-0,0.66667
0.90441,0.57822,4.5221,0.11734,0.64522,2.1791,-1.4149,0.47164,-1.951,-1.8866,3.2457e-09,-0.9755,0,0,0.2,-0,-0,0.66667
0.86921,0.8369,4.3461,0.50535,3.9572,4.1464,-5.8567,1.9522,-1.0914,-7.809,5.0273e-09,-0.54571,0,0,0.2,-9.4739e-16,0,0.66667
0.51404,0.81544,2.5702,0.47316,11.438,36.682,-3.2429,1.081,-1.2052,-4.3239,-4.0834e-13,-0.60258,0,0,0.2,1.8948e-15,0,0.66667
0.051748,0.067147,0.25874,-0.64928,-21.49,109.26,0.44798,-0.14933,-0.50099,0.59731,4.2014e-07,-0.25049,0,0,0.2,-0,-0,0.66667
0.80034,0.68407,4.0017,0.2761,3.169,7.7518,-2.9464,0.98212,-1.7294,-3.9285,4.3132e-10,-0.86469,0,0,0.2,-4.737e-16,0,0.66667
0.18119,0.35672,0.90595,-0.21492,-6.8138,87.062,0.51922,-0.17307,-1.8346,0.6923,5.1486e-10,-0.91732,0,0,0.2,-0,-0,0.66667
0.66874,0.1063,3.3437,-0.59055,-10.751,19.134,5.2656,-1.7552,-0.75957,7.0208,1.7315e-12,-0.37979,0,0,0.2,-0,-8.4782e-17,0.66667
0.83537,0.12587,4.1769,-0.56119,-5.5082,6.02,6.2507,-2.0836,-0.88051,8.3343,8.0144e-10,-0.44025,0,0,0.2,-0,-0,0.66667
0.9648,0.024871,4.824,-0.71269,-1.6028,1.5425,9.1681,-3.056,-0.19387,12.224,-4.765e-07,-0.096934,0,0,0.2,-0,-1.5392e-16,0.66667
0.12685,0.044622,0.63423,-0.68307,-22.335,96.4,1.1553,-0.38509,-0.34102,1.5403,3.4456e-09,-0.17051,0,0,0.2,-0,-0,0.66667
0.52331,0.95731,2.6166,0.68596,16.538,35.778,-4.7863,1.5954,-0.32585,-6.3817,-3.6859e-14,-0.16293,0,0,0.2,4.737e-16,0,0.66667
0.85061,0.63851,4.2531,0.20777,1.8028,4.6741,-2.3564,0.78548,-1.8453,-3.1419,4.1104e-10,-0.92266,0,0,0.2,-0,-0,0.66667
0.53761,0.51156,2.688,0.017343,0.40091,33.417,-0.12432,0.04144,-1.9979,-0.16576,4.8855e-13,-0.99893,0,0,0.2,-0,-0,0.66667
0.73005,0.98469,3.6502,0.72704,11.293,13.823,-7.077,2.359,-0.11974,-9.4359,6.0663e-13,-0.059872,0,0,0.2,-8.6455e-16,0,0.66667
0.78546,0.66195,3.9273,0.24292,2.9749,8.7453,-2.5441,0.84802,-1.7901,-3.3921,2.7412e-10,-0.89503,0,0,0.2,-0,-0,0.66667
0.8366,0.44765,4.183,-0.078532,-0.7403,5.3767,0.87599,-0.292,-1.977,1.168,-4.2209e-10,-0.98852,0,0,0.2,-0,-0,0.66667
0.66653,0.9183,3.3327,0.62745,11.513,19.419,-5.5762,1.8587,-0.59923,-7.435,-1.1577e-12,-0.29962,0,0,0.2,-0,-0,0.66667
0.89774,0.63682,4.4887,0.20523,1.2168,2.4918,-2.4566,0.81885,-1.8491,-3.2754,5.2135e-09,-0.92456,0,0,0.2,-0,-0,0.66667
0.64779,0.7446,3.239,0.36689,6.935,20.936,-3.1689,1.0563,-1.5209,-4.2253,-2.7969e-12,-0.76044,0,0,0.2,-4.737e-16,0,0.66667
0.94464,0.42481,4.7232,-0.11278,-0.34042,0.92026,1.4205,-0.47349,-1.9536,1.894,1.2177e-07,-0.9768,0,0,0.2,9.4739e-16,0,0.66667
0.6293,0.61683,3.1465,0.17524,3.4315,22.742,-1.4704,0.49014,-1.8904,-1.9606,-1.7598e-12,-0.94518,0,0,0.2,-4.737e-16,0,0.66667
0.87243,0.7129,4.3621,0.31936,2.3903,3.6984,-3.7149,1.2383,-1.6377,-4.9532,2.1467e-09,-0.81886,0,0,0.2,-1.4211e-15,0,0.66667
0.59566,0.60651,2.9783,0.15977,3.347,26.474,-1.2689,0.42296,-1.9092,-1.6918,-1.2871e-12,-0.95461,0,0,0.2,-0,-0,0.66667
0.34435,0.44667,1.7217,-0.080001,-2.3044,60.637,0.36731,-0.12244,-1.978,0.48975,-8.99e-13,-0.98901,0,0,0.2,-0,-0,0.66667
0.81346,0.022646,4.0673,-0.71603,-8.0371,7.6872,7.7661,-2.5887,-0.17773,10.355,-2.5457e-10,-0.088865,0,0,0.2,-0,-0,0.66667
0.43238,0.44689,2.1619,-0.079663,-2.1131,47.565,0.45926,-0.15309,-1.9767,0.61235,-5.5106e-13,-0.98835,0,0,0.2,-0,-0,0.66667
0.12655,0.58318,0.63273,0.12477,4.0216,96.324,-0.21052,0.070173,-1.9449,-0.28069,-2.2379e-09,-0.97245,0,0,0.2,-1.1842e-16,0,0.66667
0.96857,0.34168,4.8428,-0.23748,-0.36516,0.50696,3.0669,-1.0223,-1.8015,4.0892,-7.5851e-09,-0.90073,0,0,0.2,-9.4739e-16,0,0.66667
0.85256,0.45814,4.2628,-0.062792,-0.53531,4.4967,0.71379,-0.23793,-1.9849,0.95172,-1.0966e-09,-0.99247,0,0,0.2,-0,-0,0.66667
0.56126,0.38188,2.8063,-0.17719,-3.9481,30.537,1.326,-0.44199,-1.8891,1.7679,7.9214e-13,-0.94455,0,0,0.2,-0,-0,0.66667
0.67061,0.97878,3.3531,0.71817,13.138,19.199,-6.4215,2.1405,-0.16657,-8.562,-5.5511e-14,-0.083283,0,0,0.2,-0,2.0647e-16,0.66667
0.99772,0.18062,4.9886,-0.47907,0.092843,0.52584,6.373,-2.1243,-1.1843,8.4973,-1.878e-07,-0.59215,0,0,0.2,-9.4739e-16,-1.626e-16,0.66667
0.16131,0.51522,0.80654,0.02283,0.7279,90.4,-0.049103,0.016368,-1.9972,-0.065471,-2.8714e-10,-0.99858,0,0,0.2,4.737e-16,0,0.66667
0.53454,0.58657,2.6727,0.12986,3.0184,33.823,-0.92554,0.30851,-1.94,-1.2341,-4.6602e-13,-0.96999,0,0,0.2,-4.737e-16,0,0.66667
0.39098,0.9898,1.9549,0.73471,20.729,54.051,-3.8301,1.2767,-0.081551,-5.1067,-2.0095e-13,-0.040776,0,0,0.2,-0,-0,0.66667
0.54115,0.97415,2.7057,0.71122,16.723,33.582,-5.1317,1.7106,-0.20111,-6.8422,7.403e-13,-0.10055,0,0,0.2,-1.8948e-15,0,0.66667
0.10338,0.37075,0.51689,-0.19387,-6.2878,100.3,0.26723,-0.089075,-1.8661,0.3563,9.4022e-09,-0.93306,0,0,0.2,1.7764e-16,0,0.66667
0.44074,0.055551,2.2037,-0.66667,-17.824,46.807,3.9177,-1.3059,-0.4197,5.2237,-5.8109e-13,-0.20985,0,0,0.2,-4.737e-16,0,0.66667
0.46146,0.5814,2.3073,0.1221,3.1339,43.49,-0.75125,0.25042,-1.9458,-1.0017,4.3626e-13,-0.97292,0,0,0.2,-5.4648e-16,0,0.66667
0.59589,0.23974,2.9795,-0.39039,-8.2262,26.615,3.1017,-1.0339,-1.4581,4.1356,1.5621e-12,-0.72907,0,0,0.2,4.737e-16,0,0.66667
0.66238,0.4353,3.3119,-0.097048,-1.76,19.266,0.8571,-0.2857,-1.9666,1.1428,2.0156e-13,-0.98331,0,0,0.2,-1.1842e-16,0,0.66667
0.59015,0.89184,2.9507,0.58776,12.636,27.528,-4.6249,1.5416,-0.77104,-6.1665,-7.2253e-13,-0.38552,0,0,0.2,-0,-0,0.66667
0.72938,0.65646,3.6469,0.23469,3.5376,13.111,-2.2824,0.76078,-1.8048,-3.0431,3.7351e-11,-0.90242,0,0,0.2,-1.8948e-15,0,0.66667
0.5809,0.85343,2.9045,0.53015,11.554,28.516,-4.1062,1.3687,-1.0005,-5.475,-8.4244e-13,-0.50026,0,0,0.2,-0,-0,0.66667
0.4431,0.15497,2.2155,-0.51754,-13.706,46.302,3.0577,-1.0192,-1.048,4.0769,-6.839e-13,-0.524,0,0,0.2,6.5592e-17,0,0.66667
0.49679,0.92105,2.4839,0.63158,15.75,39.129,-4.1835,1.3945,-0.58118,-5.578,1.5499e-13,-0.29059,0,0,0.2,-9.4739e-16,3.018e-16,0.66667
0.43009,0.22275,2.1504,-0.41587,-11.13,48.052,2.3848,-0.79494,-1.3848,3.1797,-9.0616e-13,-0.69239,0,0,0.2,-9.4739e-16,0,0.66667
0.21007,0.5939,1.0504,0.14084,4.4083,82.218,-0.3945,0.1315,-1.9299,-0.526,-2.2981e-10,-0.96496,0,0,0.2,-0,-0,0.66667
0.2268,0.012168,1.134,-0.73175,-23.116,79.706,2.2128,-0.73761,-0.094994,2.9504,-2.6529e-11,-0.047497,0,0,0.2,-0,-0,0.66667
0.45739,0.63807,2.2869,0.2071,5.3475,44.083,-1.263,0.421,-1.8467,-1.684,4.3099e-13,-0.92336,0,0,0.2,-0,-0,0.66667
0.43355,0.32222,2.1678,-0.26667,-7.0822,47.461,1.5415,-0.51384,-1.7467,2.0554,-1.1952e-12,-0.87333,0,0,0.2,9.4739e-16,0,0.66667
0.77928,0.45019,3.8964,-0.07471,-0.93485,9.095,0.77627,-0.25876,-1.9801,1.035,-7.389e-11,-0.99005,0,0,0.2,-0,-0,0.66667
0.42086,0.38199,2.1043,-0.17701,-4.7577,49.241,0.99327,-0.33109,-1.8894,1.3244,-1.1873e-12,-0.94471,0,0,0.2,-9.4739e-16,0,0.66667
0.67337,0.689,3.3668,0.28349,5.0233,18.279,-2.5453,0.84843,-1.7157,-3.3937,5.9508e-14,-0.85786,0,0,0.2,-1.8948e-15,0,0.66667
0.16604,0.71684,0.83019,0.32526,10.389,89.639,-0.72007,0.24002,-1.624,-0.9601,-9.8566e-10,-0.81202,0,0,0.2,-6.4239e-17,0,0.66667
0.82406,0.98348,4.1203,0.72522,7.7306,7.066,-7.9683,2.6561,-0.12921,-10.624,4.7446e-12,-0.064605,0,0,0.2,-0,-0,0.66667
0.68541,0.30098,3.427,-0.29852,-5.1295,17.129,2.7281,-0.90938,-1.6831,3.6375,-2.2942e-12,-0.84155,0,0,0.2,-0,-0,0.66667
0.78905,0.74114,3.9453,0.36171,4.3883,8.6186,-3.8054,1.2685,-1.5339,-5.0739,3.0281e-10,-0.76694,0,0,0.2,-0,-0,0.66667
0.35948,0.98533,1.7974,0.72799,21.106,58.738,-3.4893,1.1631,-0.11641,-4.6525,3.0909e-13,-0.058204,0,0,0.2,-0,-0,0.66667
0.66255,0.62731,3.3127,0.19097,3.4671,19.288,-1.687,0.56233,-1.8704,-2.2493,-6.7579e-13,-0.9352,0,0,0.2,-1.8948e-15,0,0.66667
0.21709,0.49256,1.0855,-0.011164,-0.34809,81.043,0.032315,-0.010772,-2,0.043087,-4.3908e-11,-1,0,0,0.2,-0,-0,0.66667
0.22101,0.67497,1.105,0.26245,8.1868,80.428,-0.77338,0.25779,-1.7549,-1.0312,-2.0702e-10,-0.87747,0,0,0.2,-0,-0,0.66667
0.24246,0.15272,1.2123,-0.52092,-16.186,77.006,1.684,-0.56133,-1.035,2.2453,3.8226e-11,-0.51748,0,0,0.2,-4.737e-16,0,0.66667
0.26459,0.13852,1.3229,-0.54222,-16.658,73.424,1.9129,-0.63762,-0.95498,2.5505,1.474e-11,-0.47749,0,0,0.2,-0,-0,0.66667
0.40841,0.23231,2.0421,-0.40153,-10.985,51.164,2.1865,-0.72884,-1.4266,2.9154,-1.8359e-12,-0.7133,0,0,0.2,-0,-0,0.66667
0.8287,0.83192,4.1435,0.49789,5.0365,6.2815,-5.5013,1.8338,-1.1192,-7.335,9.1829e-10,-0.55961,0,0,0.2,9.4739e-16,0,0.66667
0.94742,0.63041,4.7371,0.19561,0.56131,0.90571,-2.471,0.82366,-1.8636,-3.2947,-3.9916e-08,-0.93179,0,0,0.2,-0,-0,0.66667
0.63246,0.10229,3.1623,-0.59657,-11.804,22.86,5.0308,-1.6769,-0.73369,6.7077,1.2936e-12,-0.36685,0,0,0.2,-0,-0,0.66667
0.13474,0.43952,0.6737,-0.090721,-2.917,94.922,0.16298,-0.054327,-1.9709,0.21731,5.2624e-09,-0.98545,0,0,0.2,4.737e-16,0,0.66667
0.41999,0.4292,2.1,-0.1062,-2.8547,49.347,0.59468,-0.19823,-1.9602,0.79291,-1.1725e-12,-0.9801,0,0,0.2,-0,-0,0.66667
0.93619,0.74681,4.6809,0.37021,1.3614,1.4014,-4.6211,1.5404,-1.5139,-6.1615,-8.3951e-09,-0.75697,0,0,0.2,7.1054e-16,0,0.66667
0.32054,0.37835,1.6027,-0.18248,-5.3575,64.353,0.7799,-0.25997,-1.8814,1.0399,1.1995e-12,-0.94071,0,0,0.2,-0,-0,0.66667
0.61928,0.15504,3.0964,-0.51744,-10.475,24.157,4.2725,-1.4242,-1.0484,5.6967,2.3115e-12,-0.52419,0,0,0.2,-1.3619e-15,0,0.66667
0.93513,0.66733,4.6757,0.25099,0.92017,1.2765,-3.1295,1.0432,-1.7759,-4.1726,-8.3951e-09,-0.88795,0,0,0.2,-0,-0,0.66667
0.46068,0.94583,2.3034,0.66875,17.481,44.04,-4.1077,1.3692,-0.409,-5.477,1.7408e-13,-0.2045,0,0,0.2,-0,-0,0.66667
0.5004,0.9102,2.502,0.61531,15.257,38.632,-4.1053,1.3684,-0.65539,-5.4738,1.1591e-13,-0.3277,0,0,0.2,-0,-0,0.66667
0.91869,0.20322,4.5935,-0.44518,-2.1467,2.0524,5.4531,-1.8177,-1.2948,7.2707,-9.3816e-09,-0.64741,0,0,0.2,-0,-0,0.66667
0.92982,0.53804,4.6491,0.057065,0.22451,1.3054,-0.70748,0.23583,-1.9877,-0.9433,-1.3287e-07,-0.99386,0,0,0.2,1.8948e-15,0,0.66667
0.90449,0.61406,4.5224,0.1711,0.94283,2.2074,-2.0634,0.6878,-1.896,-2.7512,-4.8475e-09,-0.94802,0,0,0.2,9.4739e-16,0,0.66667
0.51363,0.47578,2.5682,-0.036323,-0.87021,36.48,0.24876,-0.082919,-1.9957,0.33167,4.8433e-15,-0.99785,0,0,0.2,-0,-0,0.66667
0.63981,0.044453,3.1991,-0.68332,-13.386,22.242,5.8293,-1.9431,-0.34024,7.7724,3.0465e-13,-0.17012,0,0,0.2,9.4739e-16,0,0.66667
0.58901,0.51044,2.945,0.015665,0.33187,27.207,-0.12302,0.041008,-1.9984,-0.16403,1.7206e-13,-0.99919,0,0,0.2,-0,-0,0.66667
0.15849,0.46472,0.79247,-0.052914,-1.6888,90.878,0.11182,-0.037274,-1.9908,0.1491,5.9054e-10,-0.99539,0,0,0.2,-0,-0,0.66667
0.62345,0.88361,3.1172,0.57541,11.587,23.792,-4.7832,1.5944,-0.82316,-6.3776,-1.4269e-12,-0.41158,0,0,0.2,-0,-0,0.66667
0.31914,0.89431,1.5957,0.59146,17.577,64.797,-2.5168,0.83894,-0.75507,-3.3558,1.3887e-12,-0.37753,0,0,0.2,4.737e-16,0,0.66667
0.13074,0.89931,0.65368,0.59896,19.498,95.707,-1.0441,0.34803,-0.72384,-1.3921,-6.4318e-09,-0.36192,0,0,0.2,1.1842e-16,0,0.66667
0.215,0.12075,1.075,-0.56888,-17.945,81.544,1.6308,-0.54361,-0.84953,2.1744,1.7088e-10,-0.42477,0,0,0.2,-3.5527e-16,0,0.66667
0.31366,0.18441,1.5683,-0.47338,-14.061,65.567,1.9797,-0.65991,-1.2046,2.6397,4.4997e-13,-0.60228,0,0,0.2,-5.9212e-16,0,0.66667
0.95145,0.24594,4.7573,-0.38108,-1.0385,1.0374,4.8344,-1.6115,-1.4846,6.4459,2.1493e-08,-0.74229,0,0,0.2,-9.4739e-16,0,0.66667
0.99077,0.53119,4.9538,0.046786,0.001479,0.084376,-0.61805,0.20602,-1.9927,-0.82407,-3.0945e-06,-0.99636,0,0,0.2,1.5987e-15,0,0.66667
0.86689,0.43779,4.3344,-0.093308,-0.71934,3.7818,1.0785,-0.3595,-1.9694,1.438,-5.2065e-09,-0.98472,0,0,0.2,-3.7896e-15,0,0.66667
0.46186,0.90018,2.3093,0.60027,15.615,43.789,-3.6965,1.2322,-0.71828,-4.9287,-7.9936e-15,-0.35914,0,0,0.2,-7.1054e-16,0,0.66667
0.46562,0.73428,2.3281,0.35141,9.0143,43.029,-2.1817,0.72722,-1.5604,-2.9089,2.2182e-13,-0.7802,0,0,0.2,-0,-0,0.66667
0.76473,0.7609,3.8236,0.39135,5.25,10.429,-3.9903,1.3301,-1.456,-5.3204,1.1973e-10,-0.72798,0,0,0.2,1.8948e-15,0,0.66667
0.098408,0.80443,0.49204,0.45664,14.906,101.19,-0.59917,0.19972,-1.2581,-0.79889,-3.8006e-09,-0.62903,0,0,0.2,-1.1842e-16,0,0.66667
0.99404,0.64014,4.9702,0.21021,-0.02968,0.14576,-2.786,0.92868,-1.8418,-3.7147,-1.3551e-08,-0.92088,0,0,0.2,-1.8948e-15,0,0.66667
0.69221,0.81168,3.4611,0.46752,7.9499,16.685,-4.315,1.4383,-1.2235,-5.7533,5.6621e-13,-0.61173,0,0,0.2,-2.9606e-16,0,0.66667
0.29929,0.62281,1.4964,0.18422,5.4896,67.705,-0.73511,0.24504,-1.8803,-0.98015,-9.256e-12,-0.94016,0,0,0.2,5.9212e-16,0,0.66667
0.90885,0.68066,4.5442,0.27099,1.4343,2.1367,-3.2839,1.0946,-1.7391,-4.3785,-2.1746e-09,-0.86955,0,0,0.2,4.737e-16,0,0.66667
0.55258,0.61331,2.7629,0.16997,3.8416,31.593,-1.2523,0.41743,-1.8963,-1.6697,-8.0702e-13,-0.94814,0,0,0.2,9.4739e-16,0,0.66667
0.08519,0.40236,0.42595,-0.14646,-4.7643,103.43,0.16635,-0.055452,-1.9235,0.22181,2.6322e-08,-0.96174,0,0,0.2,-1.7764e-16,0,0.66667
0.10825,0.20183,0.54123,-0.44725,-14.566,99.505,0.64551,-0.21517,-1.289,0.86068,4.2657e-09,-0.64451,0,0,0.2,-0,-0,0.66667
0.031665,0.03733,0.15832,-0.694,-23.052,112.73,0.29301,-0.097672,-0.28872,0.39068,-3.8903e-06,-0.14436,0,0,0.2,-0,-0,0.66667
0.21619,0.15132,1.081,-0.52302,-16.463,81.323,1.5077,-0.50256,-1.0278,2.0102,6.7271e-11,-0.51392,0,0,0.2,2.4644e-16,0,0.66667
0.051414,0.59795,0.25707,0.14693,4.8023,109.27,-0.10072,0.033575,-1.9233,-0.1343,-5.0183e-08,-0.96163,0,0,0.2,-0,-0,0.66667
0.51027,0.037254,2.5514,-0.69412,-17.055,37.462,4.7225,-1.5742,-0.28653,6.2967,3.1797e-13,-0.14326,0,0,0.2,-0,-0,0.66667
0.08294,0.12949,0.4147,-0.55576,-18.252,103.87,0.6146,-0.20487,-0.90171,0.81947,3.8922e-08,-0.45086,0,0,0.2,-2.3685e-16,0,0.66667
0.44312,0.93707,2.2156,0.6556,17.472,46.459,-3.8735,1.2912,-0.4723,-5.1646,2.4536e-13,-0.23615,0,0,0.2,1.0658e-15,0,0.66667
0.2362,0.86588,1.181,0.54883,17.125,78.045,-1.7284,0.57615,-0.92928,-2.3046,-4.5821e-11,-0.46464,0,0,0.2,-0,-0,0.66667
0.55972,0.38976,2.7986,-0.16536,-3.6934,30.719,1.2341,-0.41136,-1.9024,1.6454,4.3665e-13,-0.95119,0,0,0.2,9.4739e-16,0,0.66667
0.43897,0.0036207,2.1948,-0.74457,-20.03,47.164,4.3579,-1.4526,-0.029963,5.8105,-1.6032e-13,-0.014982,0,0,0.2,-0,-0,0.66667
0.83754,0.77516,4.1877,0.41273,3.9392,5.6284,-4.6091,1.5364,-1.3938,-6.1455,1.3624e-09,-0.69689,0,0,0.2,-1.4211e-15,0,0.66667
0.33654,0.45015,1.6827,-0.074772,-2.1669,61.842,0.33552,-0.11184,-1.9789,0.44736,-1.823e-13,-0.98947,0,0,0.2,-0,-0,0.66667
0.23023,0.54214,1.1512,0.063215,1.9588,78.872,-0.19405,0.064685,-1.9851,-0.25874,-4.2785e-11,-0.99257,0,0,0.2,-4.737e-16,0,0.66667
0.94012,0.40432,4.7006,-0.14353,-0.47518,1.053,1.7991,-0.5997,-1.9277,2.3988,-1.1651e-07,-0.96386,0,0,0.2,2.8422e-15,0,0.66667
0.46636,0.43249,2.3318,-0.10127,-2.5834,42.809,0.62971,-0.2099,-1.9641,0.83961,-6.6175e-13,-0.98203,0,0,0.2,-2.3685e-16,0,0.66667
0.028158,0.27018,0.14079,-0.34473,-11.323,113.31,0.12943,-0.043142,-1.5771,0.17257,-9.7765e-09,-0.78855,0,0,0.2,2.9606e-17,0,0.66667
0.079436,0.52244,0.39718,0.03366,1.0953,104.42,-0.035651,0.011884,-1.9965,-0.047535,3.2624e-08,-0.99823,0,0,0.2,-0,-0,0.66667
0.55557,0.05728,2.7779,-0.66408,-15.22,31.735,4.9193,-1.6398,-0.43153,6.559,8.8818e-16,-0.21576,0,0,0.2,1.1842e-15,0,0.66667
0.21077,0.24305,1.0539,-0.38543,-12.112,82.163,1.0832,-0.36106,-1.4711,1.4442,2.811e-10,-0.73554,0,0,0.2,-3.5527e-16,0,0.66667
0.14824,0.15645,0.74118,-0.51533,-16.642,92.707,1.0185,-0.33951,-1.0562,1.358,-4.9038e-10,-0.52809,0,0,0.2,-0,-0,0.66667
0.19553,0.38159,0.97766,-0.17762,-5.5965,84.65,0.46307,-0.15436,-1.8872,0.61743,3.7699e-10,-0.94358,0,0,0.2,-0,-0,0.66667
0.74475,0.91589,3.7237,0.62384,9.1487,12.387,-6.1947,2.0649,-0.61549,-8.2596,8.0025e-12,-0.30775,0,0,0.2,-0,-0,0.66667
0.94901,0.069248,4.7451,-0.64613,-2.0431,1.6675,8.1758,-2.7253,-0.51538,10.901,-3.3284e-07,-0.25769,0,0,0.2,-0,-1.456e-16,0.66667
0.12938,0.50742,0.64689,0.01113,0.35828,95.835,-0.019199,0.0063997,-1.9992,-0.025599,-1.0335e-09,-0.99959,0,0,0.2,4.737e-16,0,0.66667
0.87978,0.84159,4.3989,0.51239,3.7004,3.6771,-6.0105,2.0035,-1.0669,-8.014,-4.549e-09,-0.53343,0,0,0.2,2.3685e-16,0,0.66667
0.71192,0.8544,3.5596,0.5316,8.5847,14.991,-5.0461,1.682,-0.99415,-6.7281,3.6358e-12,-0.49708,0,0,0.2,-0,-0,0.66667
0.55684,0.51423,2.7842,0.021348,0.4785,31.036,-0.1585,0.052832,-1.9973,-0.21133,-3.7297e-13,-0.99865,0,0,0.2,-0,-0,0.66667
0.067019,0.071265,0.33509,-0.6431,-21.241,106.63,0.57467,-0.19156,-0.52893,0.76622,-9.4786e-08,-0.26447,0,0,0.2,1.1842e-16,0,0.66667
0.78774,0.15648,3.9387,-0.51528,-6.359,8.946,5.4121,-1.804,-1.0564,7.2162,-6.7296e-11,-0.5282,0,0,0.2,-1.8948e-15,0,0.66667
0.81228,0.093668,4.0614,-0.6095,-6.791,7.5059,6.6011,-2.2004,-0.68152,8.8015,2.1709e-10,-0.34076,0,0,0.2,-9.2507e-16,0,0.66667
0.75458,0.67652,3.7729,0.26479,3.6654,11.073,-2.664,0.88801,-1.75,-3.552,9.5853e-11,-0.87498,0,0,0.2,-0,-0,0.66667
0.55049,0.64035,2.7524,0.21052,4.7777,31.869,-1.5452,0.51506,-1.8418,-2.0603,-8.7153e-13,-0.92088,0,0,0.2,9.4739e-16,0,0.66667
0.6316,0.10491,3.158,-0.59263,-11.744,22.944,4.9908,-1.6636,-0.75018,6.6544,1.2514e-12,-0.37509,0,0,0.2,-0,-0,0.66667
0.43666,0.89167,2.1833,0.58751,15.717,47.285,-3.4206,1.1402,-0.77311,-4.5608,7.1276e-14,-0.38655,0,0,0.2,-0,2.3578e-16,0.66667
0.30785,0.48799,1.5392,-0.018015,-0.5331,66.327,0.073946,-0.024649,-1.998,0.098595,3.637e-13,-0.99901,0,0,0.2,4.737e-16,0,0.66667
0.20771,0.44408,1.0386,-0.083885,-2.6272,82.606,0.23232,-0.077439,-1.9747,0.30976,1.2353e-10,-0.98733,0,0,0.2,-0,-0,0.66667
0.77076,0.66046,3.8538,0.24068,3.1307,9.8122,-2.4735,0.82449,-1.7939,-3.298,1.463e-10,-0.89697,0,0,0.2,-1.8948e-15,0,0.66667
0.93478,0.97998,4.6739,0.71997,2.9956,2.2324,-8.9735,2.9912,-0.15669,-11.965,-2.6001e-07,-0.078343,0,0,0.2,-0,-2.1813e-16,0.66667
0.62152,0.31795,3.1076,-0.27308,-5.4483,23.647,2.263,-0.75433,-1.735,3.0173,2.299e-12,-0.86748,0,0,0.2,1.8948e-15,0,0.66667
0.53425,0.80619,2.6712,0.45928,10.772,34.091,-3.2716,1.0905,-1.2501,-4.3622,-4.6718e-13,-0.62506,0,0,0.2,-4.737e-16,0,0.66667
0.88327,0.24692,4.4164,-0.37962,-2.617,3.2923,4.4707,-1.4902,-1.4875,5.961,-3.4262e-09,-0.74373,0,0,0.2,1.4457e-15,0,0.66667
0.044803,0.12335,0.22401,-0.56497,-18.652,110.45,0.3375,-0.1125,-0.86632,0.45,-1.6495e-07,-0.43316,0,0,0.2,2.2204e-17,-2.5984e-16,0.66667
0.30268,0.98015,1.5134,0.72022,21.775,67.494,-2.9066,0.96886,-0.15467,-3.8754,3.1708e-13,-0.077335,0,0,0.2,4.737e-16,0,0.66667
0.38247,0.83569,1.9124,0.50353,14.168,55.064,-2.5678,0.85594,-1.0977,-3.4237,1.9318e-12,-0.54884,0,0,0.2,-2.3685e-16,0,0.66667
0.031099,0.038127,0.1555,-0.69281,-23.012,112.83,0.28728,-0.095764,-0.29464,0.38304,-4.6957e-06,-0.14732,0,0,0.2,-5.9212e-17,1.6261e-16,0.66667
0.51993,0.45172,2.5997,-0.072419,-1.7195,35.671,0.50204,-0.16735,-1.9805,0.66939,-3.4195e-13,-0.99026,0,0,0.2,9.4739e-16,0,0.66667
0.94058,0.87963,4.7029,0.56945,2.0482,1.6756,-7.1414,2.3805,-0.84739,-9.5219,1.2776e-07,-0.4237,0,0,0.2,3.7896e-15,0,0.66667
0.79725,0.31631,3.9862,-0.27554,-3.2079,7.9592,2.929,-0.97632,-1.7316,3.9053,-3.9333e-10,-0.86582,0,0,0.2,-0,-0,0.66667
0.53509,0.91167,2.6755,0.6175,14.574,34.187,-4.4056,1.4685,-0.64425,-5.8741,1.7364e-13,-0.32213,0,0,0.2,-0,-0,0.66667
0.67654,0.87204,3.3827,0.55806,9.9424,18.317,-5.034,1.678,-0.8929,-6.712,-1.8687e-12,-0.44645,0,0,0.2,-1.1842e-15,0,0.66667
0.78523,0.42885,3.9262,-0.10673,-1.303,8.6781,1.1174,-0.37248,-1.9591,1.4899,-1.0168e-10,-0.97954,0,0,0.2,-0,-0,0.66667
0.26109,0.27632,1.3055,-0.33552,-10.265,73.884,1.168,-0.38934,-1.5997,1.5574,5.27e-11,-0.79983,0,0,0.2,-1.1842e-16,0,0.66667
0.27566,0.85734,1.3783,0.53601,16.356,71.638,-1.9701,0.6567,-0.97743,-2.6268,-8.1115e-12,-0.48871,0,0,0.2,-0,-0,0.66667
0.60522,0.35685,3.0261,-0.21473,-4.4208,25.415,1.7328,-0.57759,-1.8353,2.3104,1.6634e-12,-0.91765,0,0,0.2,-0,-0,0.66667
0.67418,0.58495,3.3709,0.12743,2.2449,18.104,-1.1455,0.38183,-1.9424,-1.5273,7.8282e-13,-0.97118,0,0,0.2,-9.4739e-16,0,0.66667
0.0036135,0.87296,0.018067,0.55944,18.503,117.57,-0.026954,0.0089844,-0.88785,-0.035938,-2.0177e-07,-0.44392,0,0,0.2,1.8504e-18,-1.1571e-16,0.66667
0.8557,0.026302,4.2785,-0.71055,-6.2998,5.2856,8.1069,-2.7023,-0.205,10.809,-3.1454e-10,-0.1025,0,0,0.2,-9.4739e-16,0,0.66667
0.14491,0.82087,0.72456,0.48131,15.542,93.26,-0.92997,0.30999,-1.1759,-1.24,-1.6096e-09,-0.58793,0,0,0.2,-0,-0,0.66667
0.51235,0.27029,2.5618,-0.34457,-8.312,36.78,2.3539,-0.78462,-1.5774,3.1385,3.2108e-13,-0.78872,0,0,0.2,-4.737e-16,0,0.66667
0.56218,0.13851,2.8109,-0.54223,-12.211,30.754,4.0644,-1.3548,-0.95526,5.4193,7.5939e-13,-0.47763,0,0,0.2,-9.4739e-16,2.7678e-16,0.66667
0.0071911,0.63552,0.035956,0.20328,6.6659,116.95,-0.019491,0.0064971,-1.852,-0.025988,2.0575e-08,-0.92601,0,0,0.2,-0,-0,0.66667
0.42885,0.29313,2.1443,-0.31031,-8.2913,48.155,1.7744,-0.59145,-1.6565,2.3658,-1.2934e-12,-0.82825,0,0,0.2,-0,-0,0.66667
0.53374,0.97323,2.6687,0.70985,16.878,34.502,-5.0517,1.6839,-0.20897,-6.7356,4.4942e-13,-0.10449,0,0,0.2,-0,-0,0.66667
0.69071,0.66443,3.4535,0.24665,4.171,16.584,-2.2715,0.75716,-1.7835,-3.0287,4.9536e-12,-0.89177,0,0,0.2,-1.8948e-15,0,0.66667
0.90317,0.71305,4.5159,0.31957,1.8104,2.4029,-3.8484,1.2828,-1.6371,-5.1312,1.5459e-09,-0.81854,0,0,0.2,-1.4211e-15,0,0.66667
0.068561,0.3189,0.34281,-0.27165,-8.8747,106.31,0.24833,-0.082775,-1.7371,0.3311,-5.3526e-09,-0.86854,0,0,0.2,-0,-0,0.66667
0.2831,0.42108,1.4155,-0.11838,-3.5625,70.275,0.44685,-0.14895,-1.9501,0.5958,1.462e-11,-0.97506,0,0,0.2,-4.737e-16,0,0.66667
0.52793,0.72903,2.6397,0.34355,8.1016,34.779,-2.4183,0.80609,-1.58,-3.2244,-1.7097e-13,-0.78999,0,0,0.2,-9.4739e-16,0,0.66667
0.29023,0.95158,1.4512,0.67737,20.604,69.42,-2.6213,0.87376,-0.36743,-3.495,8.8995e-13,-0.18371,0,0,0.2,-0,-0,0.66667
0.42013,0.45016,2.1007,-0.074766,-2.0091,49.322,0.41882,-0.13961,-1.9802,0.55843,-7.9353e-13,-0.99008,0,0,0.2,-0,-0,0.66667
0.98205,0.077172,4.9103,-0.63424,-0.64665,1.0584,8.3048,-2.7683,-0.56949,11.073,-1.272e-08,-0.28475,0,0,0.2,-1.8948e-15,0,0.66667
0.056933,0.4301,0.28467,-0.10486,-3.4239,108.31,0.079598,-0.026533,-1.9603,0.10613,-1.9341e-07,-0.98015,0,0,0.2,-0,-0,0.66667
0.92891,0.067207,4.6446,-0.64919,-2.8723,2.1958,8.0406,-2.6802,-0.50113,10.721,3.2704e-07,-0.25056,0,0,0.2,-1.8948e-15,0,0.66667
0.66798,0.90439,3.3399,0.60659,11.075,19.238,-5.4025,1.8008,-0.69232,-7.2033,-1.4508e-12,-0.34616,0,0,0.2,-3.5527e-16,0,0.66667
0.49858,0.99958,2.4929,0.74937,18.769,39.074,-4.9816,1.6605,-0.0051118,-6.6421,1.6476e-13,-0.0025559,0,0,0.2,-8.8818e-17,-1.2639e-17,0.66667
0.4647,0.30432,2.3235,-0.29352,-7.5262,43.117,1.8186,-0.60621,-1.6933,2.4248,-7.1976e-13,-0.84664,0,0,0.2,4.737e-16,0,0.66667
0.55893,0.45056,2.7947,-0.074165,-1.657,30.787,0.55271,-0.18424,-1.9798,0.73695,4.5414e-13,-0.98992,0,0,0.2,-0,-0,0.66667
0.29159,0.22546,1.4579,-0.41181,-12.392,69.018,1.6011,-0.53368,-1.3965,2.1347,9.7151e-12,-0.69827,0,0,0.2,-0,-0,0.66667
0.1718,0.26951,0.859,-0.34574,-11.026,88.671,0.79198,-0.26399,-1.5758,1.056,8.9963e-10,-0.78792,0,0,0.2,-0,-0,0.66667
0.61974,0.038283,3.0987,-0.69258,-14.16,24.399,5.7229,-1.9076,-0.29403,7.6305,-3.7392e-13,-0.14701,0,0,0.2,1.8948e-15,0,0.66667
0.98848,0.44304,4.9424,-0.085442,-0.016067,0.11969,1.1261,-0.37537,-1.974,1.5015,-3.8837e-07,-0.98698,0,0,0.2,-0,-0,0.66667
0.51622,0.018567,2.5811,-0.72215,-17.626,36.742,4.9705,-1.6568,-0.14633,6.6273,-1.2612e-13,-0.073165,0,0,0.2,-0,-0,0.66667
0.67101,0.84887,3.355,0.5233,9.4328,18.8,-4.6819,1.5606,-1.0275,-6.2425,-1.8558e-12,-0.51373,0,0,0.2,-1.8948e-15,-2.9537e-16,0.66667
0.51953,0.52528,2.5977,0.03792,0.90076,35.718,-0.26267,0.087558,-1.9948,-0.35023,1.2906e-13,-0.9974,0,0,0.2,-9.4739e-16,0,0.66667
0.20003,0.51937,1.0002,0.029061,0.913,83.884,-0.077507,0.025836,-1.9966,-0.10334,-5.2421e-11,-0.99829,0,0,0.2,-0,-0,0.66667
0.5787,0.99398,2.8935,0.74097,16.417,29.119,-5.7173,1.9058,-0.048995,-7.6231,1.088e-13,-0.024497,0,0,0.2,-1.4211e-15,0,0.66667
0.95788,0.89281,4.7894,0.58922,1.4881,1.3289,-7.5253,2.5084,-0.7647,-10.034,3.7496e-07,-0.38235,0,0,0.2,-0,-0,0.66667
0.69242,0.21137,3.4621,-0.43295,-7.3439,16.618,3.9971,-1.3324,-1.333,5.3295,-1.2428e-12,-0.66652,0,0,0.2,4.737e-16,0,0.66667
0.027337,0.20901,0.13668,-0.43649,-14.37,113.46,0.1591,-0.053032,-1.3221,0.21213,-5.0564e-08,-0.66105,0,0,0.2,-0,-0,0.66667
0.36312,0.53918,1.8156,0.058775,1.6668,57.765,-0.28457,0.094855,-1.9874,-0.37942,3.1994e-13,-0.99372,0,0,0.2,9.4739e-16,0,0.66667
0.63389,0.62693,3.1694,0.19039,3.6925,22.258,-1.6092,0.53639,-1.8712,-2.1456,-2.0686e-12,-0.93561,0,0,0.2,-0,-0,0.66667
0.56707,0.87729,2.8354,0.56594,12.656,30.2,-4.2791,1.4264,-0.86154,-5.7054,-1.4966e-13,-0.43077,0,0,0.2,-1.8948e-15,0,0.66667
0.12133,0.2166,0.60667,-0.4251,-13.793,97.261,0.68772,-0.22924,-1.3581,0.91696,1.9729e-09,-0.67903,0,0,0.2,2.6645e-16,0,0.66667
0.93647,0.038718,4.6824,-0.69192,-2.7772,2.1047,8.6396,-2.8799,-0.29851,11.519,5.7399e-07,-0.14925,0,0,0.2,-0,-1.723e-16,0.66667
0.39384,0.036604,1.9692,-0.69509,-19.519,53.582,3.6501,-1.2167,-0.28231,4.8668,-7.6694e-13,-0.14115,0,0,0.2,-0,-0,0.66667
0.72926,0.50845,3.6463,0.01267,0.19033,13.032,-0.12319,0.041064,-1.9988,-0.16426,2.0451e-12,-0.99939,0,0,0.2,-0,-0,0.66667
0.78569,0.071463,3.9284,-0.64281,-8.1004,9.3476,6.7339,-2.2446,-0.53029,8.9786,-3.0386e-11,-0.26515,0,0,0.2,-0,-0,0.66667
0.21299,0.19504,1.065,-0.45744,-14.389,81.823,1.2991,-0.43303,-1.2553,1.7321,2.5472e-10,-0.62767,0,0,0.2,-0,-0,0.66667
0.66262,0.018374,3.3131,-0.72244,-13.477,19.995,6.3827,-2.1276,-0.14316,8.5103,5.298e-13,-0.071581,0,0,0.2,-0,-0,0.66667
0.52337,0.35384,2.6168,-0.21923,-5.1891,35.28,1.5299,-0.50995,-1.8281,2.0398,1.1091e-13,-0.91404,0,0,0.2,9.4739e-16,0,0.66667
0.1783,0.75623,0.89149,0.38435,12.239,87.589,-0.91372,0.30457,-1.4742,-1.2183,-7.4879e-10,-0.73709,0,0,0.2,-0,-0,0.66667
0.71844,0.8444,3.5922,0.5166,8.1735,14.393,-4.9487,1.6496,-1.0533,-6.5982,5.6106e-12,-0.52665,0,0,0.2,1.8948e-15,2.4643e-16,0.66667
0.54058,0.53153,2.7029,0.047298,1.0884,33.048,-0.34091,0.11364,-1.9925,-0.45455,-1.6423e-13,-0.99626,0,0,0.2,-1.8948e-15,0,0.66667
0.21409,0.65289,1.0705,0.22933,7.1728,81.566,-0.65465,0.21822,-1.8131,-0.87286,-2.718e-10,-0.90657,0,0,0.2,5.9212e-17,0,0.66667
0.41806,0.52392,2.0903,0.035881,0.96612,49.617,-0.20001,0.066669,-1.9952,-0.26668,1.454e-13,-0.99759,0,0,0.2,4.737e-16,0,0.66667
0.68076,0.60811,3.4038,0.16216,2.8102,17.479,-1.4719,0.49064,-1.9053,-1.9626,1.6221e-12,-0.95265,0,0,0.2,9.4739e-16,0,0.66667
0.99376,0.70561,4.9688,0.30842,-0.021616,0.26073,-4.0866,1.3622,-1.6607,-5.4487,2.238e-08,-0.83034,0,0,0.2,-0,-0,0.66667
0.54844,0.24087,2.7422,-0.38869,-8.8934,32.252,2.8423,-0.94743,-1.4632,3.7897,6.144e-13,-0.73159,0,0,0.2,4.737e-16,0,0.66667
0.79392,0.92846,3.9696,0.64269,7.8202,8.7804,-6.8032,2.2677,-0.53123,-9.071,4.7925e-11,-0.26562,0,0,0.2,-9.4739e-16,-2.1463e-16,0.66667
0.33058,0.39259,1.6529,-0.16111,-4.6939,62.783,0.71014,-0.23671,-1.9074,0.94685,8.6542e-14,-0.95372,0,0,0.2,4.737e-16,0,0.66667
0.51156,0.74819,2.5578,0.37228,8.9983,36.906,-2.5393,0.84643,-1.5078,-3.3857,2.2982e-13,-0.75389,0,0,0.2,-3.5527e-16,0,0.66667
0.83503,0.060414,4.1751,-0.65938,-6.5665,6.262,7.3413,-2.4471,-0.45418,9.7884,9.103e-10,-0.22709,0,0,0.2,-7.0017e-16,0,0.66667
0.97046,0.96762,4.8523,0.70143,1.3098,1.4143,-9.0761,3.0254,-0.25212,-12.102,-9.773e-06,-0.12606,0,0,0.2,8.2897e-16,0,0.66667
0.17847,0.99939,0.89236,0.74909,24.173,87.723,-1.7825,0.59418,-0.0052423,-2.3767,-5.9242e-10,-0.0026211,0,0,0.2,-2.8126e-16,0,0.66667
0.85131,0.80829,4.2565,0.46244,4.0761,4.9601,-5.2491,1.7497,-1.2393,-6.9988,2.6622e-09,-0.61965,0,0,0.2,9.7777e-16,0,0.66667
0.9884,0.29136,4.942,-0.31297,-0.089914,0.31966,4.1245,-1.3748,-1.6512,5.4993,-1.4883e-08,-0.82559,0,0,0.2,-0,-0,0.66667
0.45046,0.0052165,2.2523,-0.74218,-19.71,45.556,4.4576,-1.4859,-0.041909,5.9435,1.5721e-13,-0.020955,0,0,0.2,-0,-0,0.66667
0.30796,0.75736,1.5398,0.38604,11.482,66.411,-1.5851,0.52838,-1.4697,-2.1135,-2.8403e-12,-0.73486,0,0,0.2,-0,-0,0.66667
0.91246,0.27683,4.5623,-0.33475,-1.7117,2.0872,4.0726,-1.3575,-1.6013,5.4302,-1.405e-09,-0.80064,0,0,0.2,-0,-0,0.66667
0.21986,0.012547,1.0993,-0.73118,-23.173,80.846,2.1434,-0.71447,-0.099432,2.8579,3.0708e-11,-0.049716,0,0,0.2,-0,-0,0.66667
0.98826,0.78533,4.9413,0.42799,0.16454,0.50827,-5.6396,1.8799,-1.3489,-7.5194,4.4488e-08,-0.67445,0,0,0.2,-0,-0,0.66667
0.40154,0.51792,2.0077,0.026887,0.73608,52.024,-0.14395,0.047984,-1.9965,-0.19194,1.2457e-13,-0.99827,0,0,0.2,-0,-0,0.66667
0.092234,0.92904,0.46117,0.64356,21.17,102.3,-0.79144,0.26381,-0.52783,-1.0553,-1.0707e-07,-0.26392,0,0,0.2,5.9212e-17,-1.8705e-16,0.66667
0.13677,0.28011,0.68387,-0.32983,-10.633,94.605,0.6015,-0.2005,-1.6139,0.802,1.6914e-09,-0.80697,0,0,0.2,-3.4047e-16,0,0.66667
0.47707,0.18478,2.3854,-0.47283,-12.008,41.572,3.0077,-1.0026,-1.205,4.0102,-6.8368e-13,-0.6025,0,0,0.2,9.4739e-16,0,0.66667
0.060948,0.26878,0.30474,-0.34683,-11.359,107.63,0.28184,-0.093948,-1.5724,0.37579,-9.5441e-09,-0.78622,0,0,0.2,-0,-0,0.66667
0.25189,0.04275,1.2594,-0.68588,-21.346,75.58,2.3035,-0.76783,-0.32742,3.0713,-3.9302e-14,-0.16371,0,0,0.2,-4.737e-16,0,0.66667
0.795,0.45099,3.975,-0.073516,-0.85925,7.987,0.77927,-0.25976,-1.9807,1.039,-1.3281e-10,-0.99037,0,0,0.2,-0,-0,0.66667
0.78533,0.226,3.9267,-0.411,-5.0828,8.9462,4.3036,-1.4345,-1.3991,5.7381,-2.051e-10,-0.69955,0,0,0.2,-0,-0,0.66667
0.81082,0.44991,4.0541,-0.075141,-0.81465,6.9389,0.81234,-0.27078,-1.98,1.0831,-1.2156e-10,-0.99,0,0,0.2,-0,-0,0.66667
0.046263,0.14681,0.23131,-0.52978,-17.467,110.19,0.32679,-0.10893,-1.0028,0.43572,1.7146e-08,-0.50142,0,0,0.2,-5.9212e-17,3.151e-16,0.66667
0.76645,0.18365,3.8322,-0.47452,-6.3595,10.421,4.8493,-1.6164,-1.2007,6.4657,-7.5443e-11,-0.60037,0,0,0.2,1.1842e-15,0,0.66667
0.80685,0.25212,4.0342,-0.37181,-4.1618,7.4337,3.9999,-1.3333,-1.5086,5.3333,-4.7306e-10,-0.75432,0,0,0.2,1.8948e-15,0,0.66667
0.01605,0.0094212,0.080248,-0.73587,-24.507,115.43,0.15746,-0.052493,-0.075511,0.20994,-1.1259e-05,-0.037755,0,0,0.2,-5.9212e-17,0,0.66667
0.39133,0.044415,1.9566,-0.68338,-19.223,53.937,3.5657,-1.1886,-0.34001,4.7542,-6.0796e-13,-0.17001,0,0,0.2,-0,-0,0.66667
0.86558,0.98975,4.3279,0.73463,6.1236,4.8669,-8.4784,2.8261,-0.080169,-11.305,-6.2537e-09,-0.040084,0,0,0.2,-0,-0,0.66667
0.95847,0.019304,4.7924,-0.72104,-1.9228,1.6849,9.2147,-3.0716,-0.1505,12.286,-2.4693e-06,-0.075251,0,0,0.2,-0,-0,0.66667
0.91959,0.75894,4.598,0.38841,1.8326,1.9265,-4.7624,1.5875,-1.4637,-6.3498,3.7128e-10,-0.73184,0,0,0.2,1.8948e-15,0,0.66667
0.54699,0.71422,2.7349,0.32134,7.3534,32.373,-2.3436,0.78119,-1.6345,-3.1247,-5.7554e-13,-0.81723,0,0,0.2,-2.3685e-16,0,0.66667
0.30992,0.40668,1.5496,-0.13998,-4.139,66.013,0.57844,-0.19281,-1.9316,0.77125,4.3476e-12,-0.96581,0,0,0.2,-0,-0,0.66667
0.58926,0.18277,2.9463,-0.47585,-10.188,27.474,3.7387,-1.2462,-1.1948,4.9849,9.9587e-13,-0.59742,0,0,0.2,4.737e-16,0,0.66667
0.59599,0.35697,2.98,-0.21455,-4.4964,26.463,1.7049,-0.56831,-1.8362,2.2732,1.5956e-12,-0.91808,0,0,0.2,-9.4739e-16,0,0.66667
0.66455,0.17444,3.3228,-0.48834,-8.925,19.385,4.327,-1.4423,-1.1509,5.7693,2.4927e-12,-0.57545,0,0,0.2,1.604e-16,0,0.66667
0.59082,0.61068,2.9541,0.16602,3.5102,27.034,-1.3078,0.43594,-1.9016,-1.7438,-1.0663e-12,-0.95078,0,0,0.2,-9.4739e-16,0,0.66667
0.86806,0.053434,4.3403,-0.66985,-5.4244,4.5741,7.7529,-2.5843,-0.40371,10.337,4.4634e-09,-0.20186,0,0,0.2,9.4739e-16,0,0.66667
0.37398,0.44872,1.8699,-0.076926,-2.1612,56.126,0.38358,-0.12786,-1.9794,0.51144,-1.1994e-12,-0.98969,0,0,0.2,-0,-0,0.66667
0.24402,0.73298,1.2201,0.34947,10.796,76.67,-1.137,0.37901,-1.5646,-1.516,-9.9098e-11,-0.78232,0,0,0.2,-0,-0,0.66667
0.020487,0.25432,0.10243,-0.36852,-12.116,114.64,0.10066,-0.033555,-1.5171,0.13422,6.4917e-10,-0.75853,0,0,0.2,-0,-0,0.66667
0.23269,0.16672,1.1634,-0.49991,-15.599,78.594,1.551,-0.517,-1.1116,2.068,9.2847e-11,-0.5558,0,0,0.2,-0,-0,0.66667
0.1616,0.25634,0.80801,-0.36549,-11.702,90.399,0.78753,-0.26251,-1.5246,1.05,1.0986e-09,-0.76229,0,0,0.2,-0,-0,0.66667
0.23816,0.78434,1.1908,0.42651,13.242,77.661,-1.3544,0.45145,-1.3536,-1.8058,-9.9779e-11,-0.6768,0,0,0.2,-0,-0,0.66667
0.88096,0.085815,4.4048,-0.62128,-4.5231,3.8667,7.2976,-2.4325,-0.62689,9.7302,8.9329e-09,-0.31344,0,0,0.2,9.4739e-16,0,0.66667
0.7316,0.53757,3.658,0.05635,0.84028,12.839,-0.54967,0.18322,-1.9889,-0.7329,1.273e-11,-0.99446,0,0,0.2,-0,-0,0.66667
0.24339,0.12656,1.2169,-0.56017,-17.422,76.876,1.8178,-0.60595,-0.8845,2.4238,4.2163e-11,-0.44225,0,0,0.2,-0,-0,0.66667
0.79305,0.58087,3.9653,0.12131,1.4315,8.1372,-1.2827,0.42757,-1.947,-1.7103,1.7021e-10,-0.97351,0,0,0.2,-0,-0,0.66667
0.54412,0.8354,2.7206,0.5031,11.643,32.909,-3.6499,1.2166,-1.1,-4.8666,-6.6613e-14,-0.55002,0,0,0.2,-0,-0,0.66667
0.40649,0.91017,2.0324,0.61526,17.002,51.641,-3.3346,1.1115,-0.65571,-4.4461,7.3963e-13,-0.32785,0,0,0.2,-0,-0,0.66667
0.2058,0.52327,1.029,0.034898,1.0937,82.921,-0.095761,0.03192,-1.9957,-0.12768,-4.1378e-11,-0.99785,0,0,0.2,-0,-0,0.66667
0.31073,0.31513,1.5537,-0.27731,-8.2115,65.925,1.1489,-0.38297,-1.7277,1.5319,3.6262e-12,-0.86386,0,0,0.2,-9.4739e-16,0,0.66667
0.079247,0.64631,0.39623,0.21946,7.1524,104.46,-0.23189,0.077296,-1.8292,-0.30919,6.8793e-09,-0.91461,0,0,0.2,1.1842e-16,0,0.66667
0.23362,0.88911,1.1681,0.58366,18.259,78.488,-1.8181,0.60603,-0.78919,-2.4241,-2.8805e-11,-0.3946,0,0,0.2,-0,-0,0.66667
0.66575,0.39219,3.3288,-0.16172,-2.9114,18.952,1.4355,-0.4785,-1.9059,1.914,6.1584e-13,-0.95294,0,0,0.2,-1.7358e-15,0,0.66667
0.35102,0.56818,1.7551,0.10227,2.9303,59.616,-0.47863,0.15954,-1.9623,-0.63817,1.246e-12,-0.98113,0,0,0.2,-0,-0,0.66667
0.81972,0.0065887,4.0986,-0.74012,-8.0821,7.3661,8.0892,-2.6964,-0.051698,10.786,-5.8953e-10,-0.025849,0,0,0.2,-0,-0,0.66667
0.66115,0.79381,3.3058,0.44072,8.1006,19.66,-3.8851,1.295,-1.3085,-5.1801,-2.7338e-12,-0.65425,0,0,0.2,9.4739e-16,0,0.66667
0.62435,0.5208,3.1218,0.031199,0.6164,23.236,-0.25972,0.086573,-1.9972,-0.34629,-3.9016e-13,-0.99859,0,0,0.2,-0,-0,0.66667
0.42028,0.53119,2.1014,0.046788,1.2569,49.297,-0.26219,0.087395,-1.994,-0.34958,-4.749e-14,-0.99698,0,0,0.2,1.7764e-16,0,0.66667
0.645,0.33561,3.225,-0.24658,-4.6717,21.12,2.1206,-0.70688,-1.7833,2.8275,2.2564e-12,-0.89167,0,0,0.2,4.737e-16,0,0.66667
0.87483,0.76858,4.3742,0.40287,2.9842,3.7044,-4.6993,1.5664,-1.4237,-6.2657,2.9364e-09,-0.71184,0,0,0.2,9.4739e-16,0,0.66667
0.31127,0.97505,1.5564,0.71258,21.411,66.138,-2.9574,0.9858,-0.19542,-3.9432,3.9146e-13,-0.097708,0,0,0.2,-0,-0,0.66667
0.34275,0.71128,1.7138,0.31692,9.1712,60.955,-1.4483,0.48278,-1.6436,-1.9311,2.0033e-12,-0.82182,0,0,0.2,-2.3685e-16,0,0.66667
0.84868,0.79629,4.2434,0.44443,3.976,5.0682,-5.0291,1.6764,-1.2967,-6.7054,1.8606e-09,-0.64837,0,0,0.2,-0,-0,0.66667
0.52989,0.1128,2.6495,-0.5808,-13.788,34.789,4.1035,-1.3678,-0.80082,5.4714,-6.7057e-14,-0.40041,0,0,0.2,9.4739e-16,0,0.66667
0.92369,0.83095,4.6184,0.49643,2.2665,1.9923,-6.114,2.038,-1.1238,-8.1519,2.5878e-08,-0.56188,0,0,0.2,-9.4739e-16,0,0.66667
0.18755,0.012216,0.93776,-0.73168,-23.511,86.197,1.8297,-0.6099,-0.097377,2.4396,3.0531e-10,-0.048688,0,0,0.2,-0,-0,0.66667
0.21487,0.29796,1.0744,-0.30305,-9.4875,81.455,0.86824,-0.28941,-1.6727,1.1577,2.5294e-10,-0.83636,0,0,0.2,-0,-0,0.66667
0.86246,0.77279,4.3123,0.40918,3.3263,4.3035,-4.7053,1.5684,-1.4046,-6.2738,2.9449e-09,-0.70228,0,0,0.2,-9.4739e-16,0,0.66667
0.09949,0.38882,0.49745,-0.16676,-5.4113,100.97,0.22122,-0.07374,-1.9,0.29496,-4.316e-09,-0.95002,0,0,0.2,-0,-0,0.66667
0.47166,0.6585,2.3583,0.23775,6.0371,42.132,-1.4951,0.49838,-1.7998,-1.9935,-3.7981e-13,-0.89992,0,0,0.2,1.8948e-15,0,0.66667
0.8394,0.98559,4.197,0.72838,7.148,6.1956,-8.1521,2.7174,-0.11281,-10.869,-1.3195e-10,-0.056405,0,0,0.2,9.4739e-16,0,0.66667
0.69374,0.010883,3.4687,-0.73368,-12.668,17.036,6.7864,-2.2621,-0.085105,9.0485,-1.4166e-13,-0.042553,0,0,0.2,-0,-0,0.66667
0.46224,0.52394,2.3112,0.035911,0.92038,43.368,-0.22133,0.073777,-1.9947,-0.29511,-7.1834e-13,-0.99735,0,0,0.2,-0,-0,0.66667
0.1652,0.88897,0.82599,0.58345,18.783,89.867,-1.2851,0.42838,-0.78846,-1.7135,-5.3651e-10,-0.39423,0,0,0.2,-0,-0,0.66667
0.55082,0.30946,2.7541,-0.28581,-6.4941,31.874,2.0991,-0.69969,-1.7099,2.7988,8.8329e-13,-0.85495,0,0,0.2,-1.1842e-15,0,0.66667
0.98798,0.64704,4.9399,0.22056,0.058168,0.21593,-2.9054,0.96847,-1.8267,-3.8739,2.5542e-09,-0.91333,0,0,0.2,9.4739e-16,0,0.66667
0.80516,0.56896,4.0258,0.10344,1.1535,7.3156,-1.1104,0.37015,-1.9613,-1.4806,2.869e-10,-0.98065,0,0,0.2,-0,-0,0.66667
0.054929,0.72349,0.27464,0.33524,10.984,108.67,-0.24552,0.081841,-1.6,-0.32736,1.0524e-08,-0.8,0,0,0.2,-0,-0,0.66667
0.71093,0.90805,3.5546,0.61207,9.9714,15.225,-5.8019,1.934,-0.66806,-7.7358,4.2544e-13,-0.33403,0,0,0.2,-0,-0,0.66667
0.97662,0.88206,4.8831,0.57309,0.74383,0.96883,-7.4625,2.4875,-0.83152,-9.95,-3.969e-07,-0.41576,0,0,0.2,-0,-0,0.66667
0.19337,0.9309,0.96687,0.64634,20.642,85.177,-1.6665,0.55549,-0.51407,-2.222,-6.1081e-11,-0.25704,0,0,0.2,-0,-0,0.66667
0.95641,0.80361,4.782,0.45541,1.1269,1.0617,-5.8074,1.9358,-1.2623,-7.7432,-5.2676e-08,-0.63117,0,0,0.2,-0,-0,0.66667
0.23335,0.53065,1.1667,0.045981,1.4225,78.358,-0.14306,0.047687,-1.9943,-0.19075,-1.5967e-11,-0.99717,0,0,0.2,5.3784e-16,0,0.66667
0.8194,0.5339,4.097,0.050845,0.52738,6.3929,-0.5555,0.18517,-1.9908,-0.74067,4.6504e-10,-0.99538,0,0,0.2,1.8948e-15,0,0.66667
0.14942,0.38342,0.74709,-0.17487,-5.6024,92.428,0.34838,-0.11613,-1.8904,0.46451,3.5383e-10,-0.94521,0,0,0.2,-0,-0,0.66667
0.5141,0.23897,2.5705,-0.39154,-9.4357,36.593,2.6839,-0.89464,-1.4551,3.5786,2.2626e-13,-0.72757,0,0,0.2,-0,-0,0.66667
0.36401,0.67803,1.8201,0.26705,7.5861,57.684,-1.2961,0.43205,-1.7458,-1.7282,2.4876e-12,-0.87289,0,0,0.2,-0,-0,0.66667
0.67069,0.36763,3.3534,-0.19855,-3.5336,18.482,1.7756,-0.59186,-1.8605,2.3674,-2.6457e-13,-0.93026,0,0,0.2,9.4739e-16,0,0.66667
0.17912,0.55688,0.89559,0.085316,2.7035,87.395,-0.20375,0.067918,-1.9736,-0.27167,-7.0032e-11,-0.98679,0,0,0.2,3.5527e-16,0,0.66667
0.57975,0.60444,2.8987,0.15665,3.3793,28.32,-1.2109,0.40364,-1.9129,-1.6146,-1.0405e-12,-0.95647,0,0,0.2,-0,-0,0.66667
0.0024237,0.43417,0.012118,-0.098743,-3.2348,117.77,0.0031908,-0.0010664,-1.9661,0.004253,-4.2431e-06,-0.98306,0,0,0.2,-0,-0,0.66667
0.42565,0.52367,2.1283,0.03551,0.94853,48.523,-0.20153,0.067177,-1.9953,-0.26871,-3.0939e-13,-0.99763,0,0,0.2,-0,-0,0.66667
0.51579,0.38209,2.579,-0.17687,-4.2298,36.235,1.2164,-0.40546,-1.89,1.6218,4.1422e-13,-0.94499,0,0,0.2,-9.4739e-16,0,0.66667
0.8378,0.85272,4.189,0.52908,5.1022,5.818,-5.9102,1.9701,-1.0039,-7.8802,8.6916e-10,-0.50194,0,0,0.2,-0,-0,0.66667
0.75764,0.89539,3.7882,0.59309,8.2919,11.308,-5.9913,1.9971,-0.74824,-7.9883,2.3181e-11,-0.37412,0,0,0.2,-0,-0,0.66667
0.091892,0.55444,0.45946,0.081655,2.6518,102.27,-0.10005,0.033349,-1.9766,-0.13339,2.8296e-08,-0.98831,0,0,0.2,5.9212e-17,0,0.66667
0.62503,0.90707,3.1252,0.61061,12.282,23.678,-5.0887,1.6962,-0.67665,-6.7849,-7.7005e-13,-0.33832,0,0,0.2,-1.8948e-15,0,0.66667
0.66,0.063188,3.3,-0.65522,-12.236,20.121,5.7659,-1.922,-0.47443,7.6879,1.2963e-12,-0.23721,0,0,0.2,-1.8948e-15,0,0.66667
0.73403,0.095351,3.6701,-0.60697,-9.2091,13.23,5.9405,-1.9802,-0.69206,7.9206,-5.7807e-12,-0.34603,0,0,0.2,-0,4.6046e-17,0.66667
0.55486,0.55218,2.7743,0.078266,1.7605,31.285,-0.57902,0.19301,-1.9772,-0.77203,-5.0215e-13,-0.98859,0,0,0.2,-0,-0,0.66667
0.10736,0.98554,0.53678,0.72831,23.973,99.737,-1.0425,0.3475,-0.11388,-1.39,4.4985e-10,-0.056939,0,0,0.2,2.3685e-16,0,0.66667
0.64035,0.87877,3.2017,0.56816,11.032,21.981,-4.8509,1.617,-0.85387,-6.4679,-1.3203e-12,-0.42694,0,0,0.2,-1.8948e-15,0,0.66667
0.67053,0.61891,3.3527,0.17837,3.1742,18.486,-1.5947,0.53155,-1.8877,-2.1262,-1.1668e-13,-0.94383,0,0,0.2,1.4211e-15,0,0.66667
0.25011,0.43582,1.2505,-0.096267,-2.9529,75.613,0.32103,-0.10701,-1.9691,0.42804,3.7383e-11,-0.98457,0,0,0.2,5.9212e-17,0,0.66667
0.94828,0.49218,4.7414,-0.011734,-0.032567,0.8049,0.14836,-0.049453,-1.999,0.19781,2.3794e-07,-0.99949,0,0,0.2,-9.4739e-16,0,0.66667
0.45265,0.40322,2.2632,-0.14518,-3.7662,44.72,0.87618,-0.29206,-1.9267,1.1682,-1.1892e-12,-0.96336,0,0,0.2,5.9212e-16,0,0.66667
0.86672,0.87647,4.3336,0.5647,4.5406,4.3875,-6.5258,2.1753,-0.86635,-8.701,-4.3705e-09,-0.43318,0,0,0.2,-0,-0,0.66667
0.65308,0.72567,3.2654,0.3385,6.3136,20.363,-2.9476,0.98252,-1.5926,-3.9301,-2.7951e-12,-0.7963,0,0,0.2,-0,-0,0.66667
0.61654,0.038218,3.0827,-0.69267,-14.253,24.749,5.6941,-1.898,-0.29335,7.5921,8.8818e-16,-0.14668,0,0,0.2,-0,-0,0.66667
0.5494,0.91583,2.747,0.62375,14.404,32.424,-4.5692,1.5231,-0.61661,-6.0922,1.652e-13,-0.3083,0,0,0.2,-0,-0,0.66667
0.64757,0.21319,3.2378,-0.43022,-8.1586,21.032,3.7146,-1.2382,-1.3414,4.9528,2.6741e-12,-0.6707,0,0,0.2,9.4739e-16,0,0.66667
0.84434,0.22515,4.2217,-0.41228,-3.7776,5.2506,4.6413,-1.5471,-1.3967,6.1884,-1.173e-09,-0.69837,0,0,0.2,-0,-0,0.66667
0.77688,0.73211,3.8844,0.34816,4.4417,9.4698,-3.6064,1.2021,-1.5682,-4.8085,1.9461e-10,-0.7841,0,0,0.2,-0,-0,0.66667
0.67263,0.83184,3.3631,0.49777,8.923,18.602,-4.4642,1.4881,-1.1195,-5.9522,-2.0077e-12,-0.55977,0,0,0.2,-9.4739e-16,0,0.66667
0.031845,0.21756,0.15923,-0.42366,-13.939,112.68,0.17989,-0.059962,-1.3638,0.23985,-4.1896e-08,-0.68189,0,0,0.2,7.0314e-17,0,0.66667
0.0086948,0.86808,0.043474,0.55212,18.255,116.69,-0.064008,0.021336,-0.91543,-0.085344,5.2807e-08,-0.45771,0,0,0.2,-0,-0,0.66667
0.35854,0.070706,1.7927,-0.64394,-18.607,58.789,3.0784,-1.0261,-0.52641,4.1045,-3.7725e-13,-0.26321,0,0,0.2,-0,-0,0.66667
0.030634,0.46881,0.15317,-0.046782,-1.5307,112.87,0.019108,-0.0063681,-1.9944,0.025479,2.0962e-06,-0.9972,0,0,0.2,1.1842e-16,0,0.66667
0.51785,0.3809,2.5892,-0.17865,-4.2598,35.97,1.2335,-0.41117,-1.887,1.6447,-2.2371e-13,-0.94349,0,0,0.2,1.8948e-15,0,0.66667
0.0035539,0.40624,0.01777,-0.14064,-4.6088,117.58,0.0066644,-0.0022209,-1.9307,0.0088862,8.0187e-07,-0.96537,0,0,0.2,-1.568e-18,0,0.66667
0.48073,0.65258,2.4037,0.22887,5.745,40.896,-1.467,0.48901,-1.8141,-1.956,-1.5254e-13,-0.90704,0,0,0.2,7.1054e-16,0,0.66667
0.37761,0.94904,1.888,0.67356,19.174,55.957,-3.3912,1.1304,-0.38669,-4.5216,3.3351e-13,-0.19335,0,0,0.2,-0,-0,0.66667
0.95746,0.5817,4.7873,0.12255,0.27056,0.63052,-1.5645,0.52151,-1.9458,-2.086,5.606e-08,-0.97292,0,0,0.2,-9.4739e-16,0,0.66667
0.055854,0.24063,0.27927,-0.38906,-12.762,108.52,0.28974,-0.096579,-1.4609,0.38631,-1.5471e-08,-0.73044,0,0,0.2,5.9212e-17,0,0.66667
0.065191,0.52445,0.32595,0.03667,1.1958,106.88,-0.031874,0.010625,-1.9954,-0.042499,-6.3236e-08,-0.9977,0,0,0.2,-1.1842e-16,0,0.66667
0.84927,0.61228,4.2463,0.16841,1.4715,4.7177,-1.907,0.63568,-1.8981,-2.5427,7.0952e-10,-0.94907,0,0,0.2,-0,-0,0.66667
0.79526,0.36054,3.9763,-0.2092,-2.4506,8.0373,2.2182,-0.7394,-1.8444,2.9576,-2.924e-10,-0.92222,0,0,0.2,-9.4739e-16,0,0.66667
0.93585,0.3409,4.6792,-0.23865,-0.86282,1.2442,2.9779,-0.99262,-1.7987,3.9705,3.0052e-09,-0.89933,0,0,0.2,-4.737e-16,0,0.66667
0.078237,0.9913,0.39118,0.73695,24.4,104.72,-0.76876,0.25625,-0.070033,-1.025,5.8118e-08,-0.035017,0,0,0.2,1.7764e-16,0,0.66667
0.6201,0.32638,3.1005,-0.26043,-5.2093,23.792,2.1532,-0.71774,-1.7579,2.8709,2.2611e-12,-0.87896,0,0,0.2,9.4739e-16,0,0.66667
0.5144,0.72858,2.572,0.34286,8.2464,36.513,-2.3516,0.78387,-1.5825,-3.1355,1.1147e-13,-0.79123,0,0,0.2,-0,-0,0.66667
0.32157,0.92545,1.6079,0.63817,18.97,64.459,-2.7363,0.91209,-0.55084,-3.6484,1.4357e-12,-0.27542,0,0,0.2,4.737e-16,0,0.66667
0.61081,0.55516,3.0541,0.082735,1.6812,24.736,-0.67381,0.2246,-1.9762,-0.89841,-1.0178e-12,-0.98812,0,0,0.2,9.4739e-16,0,0.66667
0.91808,0.6612,4.5904,0.2418,1.1401,1.7876,-2.9599,0.98663,-1.7922,-3.9465,3.2539e-10,-0.8961,0,0,0.2,1.8948e-15,0,0.66667
0.062566,0.96324,0.31283,0.69486,23.014,107.4,-0.57966,0.19322,-0.28472,-0.77288,9.9264e-07,-0.14236,0,0,0.2,-0,-0,0.66667
0.65973,0.050748,3.2986,-0.67388,-12.61,20.185,5.9277,-1.9759,-0.38487,7.9036,9.4325e-13,-0.19243,0,0,0.2,-9.4739e-16,0,0.66667
0.28517,0.9244,1.4259,0.63661,19.391,70.191,-2.4206,0.80685,-0.55835,-3.2274,-2.5735e-13,-0.27917,0,0,0.2,-0,-0,0.66667
0.40545,0.76995,2.0272,0.40493,11.111,51.598,-2.189,0.72967,-1.4175,-2.9187,1.4606e-12,-0.70877,0,0,0.2,-0,-0,0.66667
0.84969,0.68059,4.2485,0.27088,2.373,4.7798,-3.0689,1.023,-1.7385,-4.0919,1.0623e-09,-0.86925,0,0,0.2,-0,-0,0.66667
0.12173,0.018045,0.60865,-0.72293,-23.711,97.286,1.1734,-0.39112,-0.14123,1.5645,1.1539e-09,-0.070617,0,0,0.2,4.737e-16,2.3117e-16,0.66667
0.84297,0.3251,4.2149,-0.26235,-2.3965,5.1358,2.9488,-0.98292,-1.7557,3.9317,-9.4859e-10,-0.87787,0,0,0.2,-0,-0,0.66667
0.40424,0.59201,2.0212,0.13801,3.7709,51.644,-0.74387,0.24796,-1.9335,-0.99183,5.0437e-13,-0.96675,0,0,0.2,6.5133e-16,0,0.66667
0.98389,0.60256,4.9194,0.15384,0.077948,0.20891,-2.0181,0.67271,-1.9167,-2.6908,2.7378e-08,-0.95836,0,0,0.2,-0,-0,0.66667
0.91802,0.68206,4.5901,0.27309,1.2932,1.8225,-3.3427,1.1142,-1.7348,-4.4569,-1.7826e-09,-0.86742,0,0,0.2,-9.4739e-16,0,0.66667
0.40767,0.91421,2.0384,0.62132,17.155,51.475,-3.3773,1.1258,-0.62795,-4.503,6.5015e-13,-0.31397,0,0,0.2,-0,-0,0.66667
0.29792,0.17841,1.4896,-0.48238,-14.487,68.054,1.9162,-0.63872,-1.1732,2.5549,2.9574e-12,-0.58661,0,0,0.2,-4.737e-16,0,0.66667
0.22095,0.13257,1.1047,-0.55114,-17.327,80.553,1.6236,-0.54121,-0.92024,2.1648,9.4694e-11,-0.46012,0,0,0.2,-0,-0,0.66667
0.21774,0.65951,1.0887,0.23926,7.472,80.964,-0.69462,0.23154,-1.7978,-0.92616,-2.4725e-10,-0.89891,0,0,0.2,-4.737e-16,0,0.66667
0.76874,0.63348,3.8437,0.20022,2.6215,9.9331,-2.0522,0.68408,-1.8573,-2.7363,1.4519e-10,-0.92865,0,0,0.2,1.8948e-15,0,0.66667
0.75544,0.15447,3.7772,-0.51829,-7.2589,11.339,5.2205,-1.7402,-1.0452,6.9607,-3.1499e-11,-0.52259,0,0,0.2,-0,-0,0.66667
0.97825,0.53983,4.8913,0.059749,0.051044,0.24005,-0.77933,0.25978,-1.9865,-1.0391,9.8909e-07,-0.99325,0,0,0.2,-1.8948e-15,0,0.66667
0.08331,0.51249,0.41655,0.01873,0.60906,103.75,-0.020805,0.0069349,-1.9978,-0.02774,3.754e-08,-0.9989,0,0,0.2,-0,-0,0.66667
0.22018,0.77882,1.1009,0.41823,13.097,80.616,-1.2278,0.40928,-1.3794,-1.6371,-1.8072e-10,-0.6897,0,0,0.2,5.3291e-16,0,0.66667
0.98371,0.51229,4.9186,0.018433,0.0091052,0.16011,-0.24177,0.080596,-1.9993,-0.32236,6.2559e-06,-0.99966,0,0,0.2,-0,-0,0.66667
0.54637,0.6823,2.7319,0.27346,6.2558,32.414,-1.9921,0.66405,-1.7354,-2.6562,-6.8068e-13,-0.86771,0,0,0.2,5.6037e-16,0,0.66667
0.55367,0.87998,2.7684,0.56998,13.035,31.823,-4.2077,1.4026,-0.84448,-5.6103,-1.7275e-13,-0.42224,0,0,0.2,-0,-0,0.66667
0.34877,0.58031,1.7439,0.12047,3.4587,59.964,-0.56022,0.18674,-1.9474,-0.74696,1.3083e-12,-0.97372,0,0,0.2,-0,-0,0.66667
0.70379,0.51064,3.5189,0.015955,0.2591,15.278,-0.14972,0.049906,-1.9997,-0.19962,1.6638e-12,-0.99986,0,0,0.2,-0,-0,0.66667
0.49976,0.33378,2.4988,-0.24933,-6.1059,38.364,1.6614,-0.55381,-1.7799,2.2152,-2.4092e-14,-0.88993,0,0,0.2,-0,-0,0.66667
0.46949,0.67239,2.3475,0.25858,6.5866,42.439,-1.6187,0.53957,-1.7627,-2.1583,3.354e-13,-0.88134,0,0,0.2,-0,-0,0.66667
0.54977,0.23752,2.7489,-0.39371,-8.9907,32.092,2.886,-0.96201,-1.4485,3.8481,8.5443e-13,-0.72424,0,0,0.2,-0,-0,0.66667
0.02518,0.33842,0.1259,-0.24237,-7.9474,113.82,0.081374,-0.027125,-1.7907,0.1085,2.8716e-08,-0.89536,0,0,0.2,-2.9606e-17,0,0.66667
0.53126,0.33415,2.6563,-0.24877,-5.8229,34.291,1.7622,-0.5874,-1.781,2.3496,2.8777e-13,-0.89049,0,0,0.2,4.737e-16,0,0.66667
0.13296,0.9488,0.66482,0.67321,21.967,95.356,-1.1935,0.39783,-0.38748,-1.5913,5.0662e-09,-0.19374,0,0,0.2,-0,-0,0.66667
0.45893,0.75295,2.2946,0.37943,9.8191,43.972,-2.3217,0.77391,-1.4881,-3.0956,2.3426e-13,-0.74407,0,0,0.2,-0,-0,0.66667
0.082271,0.356,0.41136,-0.21601,-7.0359,103.94,0.23695,-0.078983,-1.8334,0.31593,-6.0556e-09,-0.91669,0,0,0.2,-0,-0,0.66667
0.88896,0.7388,4.4448,0.35819,2.343,3.0188,-4.2456,1.4152,-1.544,-5.6608,3.0743e-09,-0.77198,0,0,0.2,-0,-0,0.66667
0.37843,0.63,1.8921,0.19501,5.4633,55.486,-0.98394,0.32798,-1.865,-1.3119,1.6883e-12,-0.93249,0,0,0.2,-9.4739e-16,0,0.66667
0.43035,0.13911,2.1518,-0.54134,-14.551,48.129,3.1062,-1.0354,-0.95684,4.1416,-7.3719e-13,-0.47842,0,0,0.2,-0,-0,0.66667
0.74206,0.6167,3.7103,0.17505,2.5254,12.013,-1.732,0.57732,-1.8902,-2.3093,5.1956e-11,-0.94509,0,0,0.2,9.4739e-16,0,0.66667
0.15577,0.78972,0.77887,0.43458,13.966,91.404,-0.90261,0.30087,-1.3294,-1.2035,-1.1778e-09,-0.66471,0,0,0.2,-0,-0,0.66667
0.57502,0.93349,2.8751,0.65024,14.414,29.387,-4.9854,1.6618,-0.49712,-6.6471,-2.5757e-14,-0.24856,0,0,0.2,-9.4739e-16,0,0.66667
0.51105,0.038345,2.5552,-0.69248,-16.995,37.359,4.7186,-1.5729,-0.29461,6.2914,1.8385e-13,-0.1473,0,0,0.2,-0,-0,0.66667
0.3683,0.76622,1.8415,0.39933,11.338,57.108,-1.961,0.65366,-1.4318,-2.6147,2.4662e-12,-0.71591,0,0,0.2,-9.0985e-16,0,0.66667
0.68334,0.18924,3.4167,-0.46614,-8.1157,17.522,4.2471,-1.4157,-1.228,5.6628,6.8878e-13,-0.61398,0,0,0.2,1.8948e-15,0,0.66667
0.79449,0.57925,3.9724,0.11887,1.3937,8.0378,-1.2593,0.41975,-1.9495,-1.679,1.7066e-10,-0.97475,0,0,0.2,-0,-0,0.66667
0.46768,0.60175,2.3384,0.15263,3.8895,42.642,-0.95177,0.31726,-1.9178,-1.269,2.3898e-13,-0.95892,0,0,0.2,-0,-0,0.66667
0.62735,0.076552,3.1368,-0.63517,-12.735,23.472,5.313,-1.771,-0.56529,7.084,8.6997e-13,-0.28265,0,0,0.2,-0,-0,0.66667
0.91254,0.74859,4.5627,0.37289,1.9154,2.1392,-4.537,1.5123,-1.5059,-6.0494,3.3647e-09,-0.75293,0,0,0.2,-2.2501e-15,0,0.66667
0.45697,0.46272,2.2849,-0.05592,-1.4423,44.1,0.34072,-0.11357,-1.9888,0.45429,-6.5309e-14,-0.9944,0,0,0.2,4.737e-16,0,0.66667
0.13502,0.97472,0.6751,0.71208,23.262,95.024,-1.2819,0.42731,-0.19667,-1.7093,-2.7525e-10,-0.098336,0,0,0.2,4.737e-16,0,0.66667
0.54323,0.79162,2.7162,0.43743,10.11,32.945,-3.1683,1.0561,-1.3192,-4.2244,-2.7911e-13,-0.6596,0,0,0.2,-0,-0,0.66667
0.43003,0.1151,2.1501,-0.57736,-15.549,48.214,3.3104,-1.1035,-0.81378,4.4138,-9.1371e-13,-0.40689,0,0,0.2,-0,-0,0.66667
0.76831,0.21489,3.8416,-0.42767,-5.6721,10.209,4.3811,-1.4604,-1.3503,5.8415,-1.3744e-10,-0.67514,0,0,0.2,1.1842e-15,0,0.66667
0.79767,0.15509,3.9884,-0.51737,-6.1143,8.2701,5.5025,-1.8342,-1.0501,7.3367,-3.8217e-10,-0.52507,0,0,0.2,-1.1842e-15,0,0.66667
0.17185,0.48559,0.85923,-0.021612,-0.68654,88.618,0.04952,-0.016507,-1.9991,0.066027,2.6731e-10,-0.99956,0,0,0.2,-0,-0,0.66667
0.43794,0.82676,2.1897,0.49014,13.041,47.003,-2.862,0.95401,-1.1464,-3.8161,3.2863e-13,-0.57319,0,0,0.2,-0,-0,0.66667
0.26682,0.55991,1.3341,0.089865,2.7306,72.894,-0.3197,0.10657,-1.9727,-0.42627,-2.286e-11,-0.98634,0,0,0.2,-1.1842e-16,0,0.66667
0.95469,0.45745,4.7734,-0.063826,-0.15147,0.66659,0.81245,-0.27082,-1.9857,1.0833,3.9916e-07,-0.99285,0,0,0.2,9.4739e-16,0,0.66667
0.93687,0.26601,4.6844,-0.35098,-1.2706,1.3538,4.3843,-1.4614,-1.5625,5.8458,9.3293e-09,-0.78124,0,0,0.2,-1.8948e-15,0,0.66667
0.43435,0.096443,2.1717,-0.60534,-16.248,47.632,3.5057,-1.1686,-0.69778,4.6743,-1.0345e-12,-0.34889,0,0,0.2,9.4739e-16,1.9778e-16,0.66667
0.43101,0.131,2.1551,-0.5535,-14.875,48.048,3.1808,-1.0603,-0.91018,4.2411,-4.15e-13,-0.45509,0,0,0.2,-0,-0,0.66667
0.74648,0.33578,3.7324,-0.24633,-3.5074,11.703,2.4517,-0.81724,-1.784,3.269,-7.0961e-11,-0.89201,0,0,0.2,4.737e-16,0,0.66667
0.59598,0.24476,2.9799,-0.38286,-8.0639,26.598,3.0423,-1.0141,-1.4794,4.0564,1.8363e-12,-0.73969,0,0,0.2,-4.737e-16,0,0.66667
0.25907,0.45586,1.2954,-0.06621,-2.0205,74.149,0.22871,-0.076236,-1.9833,0.30494,1.947e-11,-0.99164,0,0,0.2,-3.068e-16,0,0.66667
0.48317,0.59661,2.4159,0.14491,3.6214,40.533,-0.93358,0.31119,-1.9267,-1.2448,1.1807e-13,-0.96334,0,0,0.2,-0,-0,0.66667
0.89011,0.55187,4.4505,0.077807,0.49381,2.7293,-0.92342,0.30781,-1.9792,-1.2312,7.4951e-09,-0.98959,0,0,0.2,-0,-0,0.66667
0.68155,0.04317,3.4078,-0.68525,-12.165,18.074,6.2271,-2.0757,-0.32941,8.3028,5.2891e-13,-0.16471,0,0,0.2,-0,-0,0.66667
0.56313,0.22848,2.8156,-0.40727,-9.1032,30.48,3.058,-1.0193,-1.4109,4.0773,8.3622e-13,-0.70547,0,0,0.2,9.4739e-16,0,0.66667
0.87675,0.15357,4.3838,-0.51965,-3.8489,3.8267,6.0747,-2.0249,-1.041,8.0996,2.8817e-09,-0.52052,0,0,0.2,7.1054e-16,0,0.66667
0.27628,0.88114,1.3814,0.57171,17.463,71.564,-2.106,0.702,-0.83752,-2.808,-5.7123e-12,-0.41876,0,0,0.2,-0,-0,0.66667
0.99685,0.59528,4.9842,0.14292,-0.050357,0.069244,-1.8996,0.63321,-1.9282,-2.5328,8.2437e-07,-0.96412,0,0,0.2,3.7896e-15,0,0.66667
0.19984,0.7393,0.9992,0.35895,11.326,83.973,-0.95642,0.31881,-1.5415,-1.2752,-3.8504e-10,-0.77075,0,0,0.2,-2.3685e-16,0,0.66667
0.83979,0.75664,4.199,0.38496,3.6168,5.4606,-4.3105,1.4368,-1.4729,-5.7473,1.2892e-09,-0.73645,0,0,0.2,-0,-0,0.66667
0.74234,0.41112,3.7117,-0.13332,-1.9197,11.969,1.3196,-0.43985,-1.9364,1.7594,-4.0514e-11,-0.96818,0,0,0.2,-0,-0,0.66667
0.86405,0.17985,4.3203,-0.48022,-3.8912,4.3464,5.5325,-1.8442,-1.1796,7.3767,-1.6695e-09,-0.58978,0,0,0.2,-0,-0,0.66667
0.58492,0.37206,2.9246,-0.19191,-4.1039,27.73,1.4967,-0.49891,-1.869,1.9956,8.4777e-13,-0.93448,0,0,0.2,1.1842e-15,0,0.66667
0.23238,0.27996,1.1619,-0.33006,-10.253,78.572,1.0227,-0.34089,-1.614,1.3636,1.493e-10,-0.80699,0,0,0.2,1.1842e-16,0,0.66667
0.48352,0.030188,2.4176,-0.70472,-17.951,40.997,4.5433,-1.5144,-0.23606,6.0577,-9.6589e-13,-0.11803,0,0,0.2,1.0905e-15,3.11e-17,0.66667
0.86238,0.081894,4.3119,-0.62716,-5.2482,4.7405,7.2113,-2.4038,-0.60112,9.6151,-3.8886e-09,-0.30056,0,0,0.2,-0,-0,0.66667
0.7978,0.10732,3.989,-0.58902,-7.0054,8.4019,6.2656,-2.0885,-0.76679,8.3542,-1.1029e-10,-0.38339,0,0,0.2,-0,-0,0.66667
0.17351,0.08388,0.86755,-0.62418,-20.068,88.487,1.444,-0.48134,-0.61501,1.9254,5.9476e-10,-0.30751,0,0,0.2,-2.3685e-16,0,0.66667
0.99221,0.37599,4.961,-0.18602,0.0056052,0.14156,2.4609,-0.82029,-1.8772,3.2812,3.9122e-08,-0.93861,0,0,0.2,-0,-0,0.66667
0.030412,0.98132,0.15206,0.72197,24.013,112.95,-0.29276,0.097588,-0.14712,-0.39034,2.9798e-06,-0.073559,0,0,0.2,-0,-0,0.66667
0.39265,0.79194,1.9632,0.43791,12.178,53.502,-2.2926,0.76421,-1.3182,-3.0568,1.9023e-12,-0.6591,0,0,0.2,-0,-0,0.66667
0.7544,0.023561,3.772,-0.71466,-10.226,11.826,7.1885,-2.3962,-0.18363,9.5847,-4.5386e-13,-0.091814,0,0,0.2,9.4739e-16,0,0.66667
0.97374,0.77146,4.8687,0.40719,0.53599,0.6587,-5.2866,1.7622,-1.4097,-7.0488,-3.5422e-08,-0.70487,0,0,0.2,-9.4739e-16,0,0.66667
0.14213,0.77632,0.71063,0.41448,13.369,93.714,-0.78545,0.26182,-1.3901,-1.0473,-2.2281e-09,-0.69503,0,0,0.2,2.3685e-16,0,0.66667
0.92404,0.439,4.6202,-0.091506,-0.3932,1.4925,1.1274,-0.3758,-1.9714,1.5032,-1.1684e-07,-0.98572,0,0,0.2,3.7896e-15,0,0.66667
0.21902,0.22511,1.0951,-0.41234,-12.917,80.805,1.2042,-0.40139,-1.3967,1.6056,1.9108e-10,-0.69836,0,0,0.2,-0,-0,0.66667
0.55264,0.50474,2.7632,0.0071117,0.16051,31.55,-0.052403,0.017468,-1.9995,-0.069871,-3.7962e-13,-0.99977,0,0,0.2,3.7896e-15,0,0.66667
0.43281,0.30191,2.164,-0.29714,-7.9031,47.583,1.7147,-0.57157,-1.6853,2.2863,-1.0668e-12,-0.84267,0,0,0.2,4.737e-16,0,0.66667
0.80806,0.51426,4.0403,0.021389,0.23497,7.108,-0.23045,0.076816,-1.9975,-0.30726,6.9162e-11,-0.99876,0,0,0.2,-0,-0,0.66667
0.13857,0.33453,0.69285,-0.24821,-7.9859,94.285,0.45859,-0.15286,-1.7811,0.61146,5.1318e-10,-0.89055,0,0,0.2,-0,-0,0.66667
0.19087,0.099821,0.95435,-0.60027,-19.154,85.57,1.5276,-0.50921,-0.7189,2.0369,1.3537e-10,-0.35945,0,0,0.2,-0,-0,0.66667
0.56751,0.683,2.8376,0.2745,6.0644,29.839,-2.0771,0.69237,-1.732,-2.7695,-9.5168e-13,-0.86598,0,0,0.2,-1.1842e-15,0,0.66667
0.20995,0.5164,1.0498,0.024601,0.76955,82.23,-0.068867,0.022956,-1.9966,-0.091822,-2.0283e-11,-0.99832,0,0,0.2,-0,-0,0.66667
0.87999,0.035636,4.4,-0.69655,-5.1825,4.1031,8.1727,-2.7242,-0.27483,10.897,1.0947e-08,-0.13742,0,0,0.2,1.8948e-15,0,0.66667
0.57835,0.11715,2.8918,-0.57427,-12.601,28.877,4.4284,-1.4761,-0.82853,5.9045,5.258e-13,-0.41426,0,0,0.2,4.737e-16,0,0.66667
0.91176,0.10797,4.5588,-0.58805,-3.1747,2.5854,7.1488,-2.3829,-0.76942,9.5317,3.4212e-08,-0.38471,0,0,0.2,-1.8948e-15,0,0.66667
0.76434,0.49026,3.8217,-0.014611,-0.19397,10.198,0.1489,-0.049633,-1.9997,0.19853,-1.8025e-11,-0.99983,0,0,0.2,-2.8422e-15,0,0.66667
0.47494,0.59457,2.3747,0.14186,3.5823,41.646,-0.89835,0.29945,-1.9288,-1.1978,2.4647e-13,-0.96441,0,0,0.2,-0,-0,0.66667
0.69241,0.60405,3.462,0.15608,2.6212,16.368,-1.4409,0.48031,-1.9126,-1.9212,4.7368e-12,-0.95631,0,0,0.2,-0,-0,0.66667
0.059802,0.57533,0.29901,0.11299,3.6886,107.82,-0.090097,0.030032,-1.9543,-0.12013,8.8254e-08,-0.97714,0,0,0.2,-0,-0,0.66667
0.63126,0.33956,3.1563,-0.24066,-4.6993,22.569,2.0256,-0.67518,-1.7938,2.7007,2.3348e-12,-0.89691,0,0,0.2,-9.4739e-16,0,0.66667
0.98405,0.019628,4.9202,-0.72056,-0.72785,1.2906,9.4542,-3.1514,-0.15467,12.606,-3.1214e-06,-0.077334,0,0,0.2,-0,2.213e-16,0.66667
0.11938,0.074443,0.59692,-0.63834,-20.872,97.654,1.0161,-0.3387,-0.55022,1.3548,1.4988e-08,-0.27511,0,0,0.2,2.3685e-16,0,0.66667
0.45157,0.058123,2.2578,-0.66282,-17.504,45.291,3.9907,-1.3302,-0.4389,5.321,-7.9248e-13,-0.21945,0,0,0.2,2.3685e-16,-1.1411e-16,0.66667
0.018534,0.92438,0.09267,0.63657,21.108,114.99,-0.15731,0.052436,-0.5588,-0.20975,1.5987e-08,-0.2794,0,0,0.2,-2.9606e-17,0,0.66667
0.68813,0.68056,3.4406,0.27084,4.6157,16.847,-2.485,0.82832,-1.7402,-3.3133,3.4504e-12,-0.87009,0,0,0.2,-4.737e-16,0,0.66667
0.019423,0.87546,0.097113,0.56319,18.623,114.83,-0.14585,0.048617,-0.87312,-0.19447,1.0176e-07,-0.43656,0,0,0.2,5.9212e-17,0,0.66667
0.45527,0.64893,2.2764,0.2234,5.7844,44.384,-1.3561,0.45203,-1.8229,-1.8081,4.5752e-13,-0.91143,0,0,0.2,4.737e-16,0,0.66667
0.21915,0.61545,1.0958,0.17318,5.3998,80.716,-0.50603,0.16868,-1.8942,-0.67471,-1.6126e-10,-0.9471,0,0,0.2,2.3685e-16,0,0.66667
0.80722,0.053099,4.0361,-0.67035,-7.7064,7.9679,7.2149,-2.405,-0.40147,9.6199,-1.1682e-11,-0.20073,0,0,0.2,9.4739e-16,0,0.66667
0.64564,0.84299,3.2282,0.51448,9.8419,21.346,-4.4289,1.4763,-1.0594,-5.9052,-2.3772e-12,-0.52971,0,0,0.2,1.1842e-16,0,0.66667
0.66627,0.77702,3.3313,0.41553,7.5343,19.117,-3.6914,1.2305,-1.3859,-4.9218,-2.2693e-12,-0.69296,0,0,0.2,-7.8973e-16,0,0.66667
0.54989,0.81526,2.7495,0.47289,10.83,32.162,-3.4672,1.1557,-1.2056,-4.6229,-4.4409e-13,-0.60278,0,0,0.2,-1.8948e-15,0,0.66667
0.25045,0.29479,1.2522,-0.30782,-9.4677,75.605,1.0279,-0.34263,-1.6637,1.3705,8.1903e-11,-0.83185,0,0,0.2,-4.737e-16,0,0.66667
0.81569,0.9147,4.0785,0.62205,6.8257,7.3207,-6.7653,2.2551,-0.62401,-9.0205,-2.2935e-10,-0.31201,0,0,0.2,-0,-0,0.66667
0.88012,0.77327,4.4006,0.40991,2.912,3.4773,-4.8103,1.6034,-1.402,-6.4137,2.1534e-09,-0.70099,0,0,0.2,-0,-0,0.66667
0.43832,0.8791,2.1916,0.56865,15.172,47.03,-3.3233,1.1078,-0.85158,-4.4311,8.2867e-13,-0.42579,0,0,0.2,-9.4739e-16,0,0.66667
0.58633,0.74113,2.9316,0.3617,7.7499,27.688,-2.8277,0.94256,-1.5339,-3.7702,-1.5667e-12,-0.76696,0,0,0.2,4.737e-16,0,0.66667
0.6243,0.18345,3.1215,-0.47483,-9.4929,23.553,3.9525,-1.3175,-1.1997,5.27,2.5262e-12,-0.59986,0,0,0.2,-1.1842e-15,-3.9865e-18,0.66667
0.72761,0.10077,3.638,-0.59884,-9.267,13.753,5.8096,-1.9365,-0.72424,7.7461,-3.9817e-12,-0.36212,0,0,0.2,-0,-0,0.66667
0.5909,0.60245,2.9545,0.15368,3.248,27.018,-1.2108,0.40359,-1.9159,-1.6143,-1.1096e-12,-0.95797,0,0,0.2,-0,-0,0.66667
0.8066,0.035633,4.033,-0.69655,-8.0567,8.0718,7.4912,-2.4971,-0.27466,9.9882,5.3983e-12,-0.13733,0,0,0.2,-0,-0,0.66667
0.82409,0.10417,4.1204,-0.59375,-6.2214,6.7467,6.524,-2.1747,-0.74596,8.6987,-2.3653e-10,-0.37298,0,0,0.2,-0,-0,0.66667
0.55655,0.97893,2.7828,0.71839,16.495,31.709,-5.331,1.777,-0.16409,-7.108,-1.1413e-13,-0.082044,0,0,0.2,-0,-0,0.66667
0.88295,0.62833,4.4148,0.1925,1.3093,3.096,-2.2662,0.75541,-1.8681,-3.0216,-3.8348e-09,-0.93403,0,0,0.2,-1.8948e-15,0,0.66667
0.20294,0.6236,1.0147,0.18541,5.8241,83.414,-0.50168,0.16723,-1.8799,-0.66891,-3.5982e-10,-0.93994,0,0,0.2,5.9212e-17,0,0.66667
0.41362,0.76532,2.0681,0.39798,10.83,50.405,-2.1948,0.73159,-1.4356,-2.9264,1.1871e-12,-0.71781,0,0,0.2,9.4739e-16,0,0.66667
0.63011,0.75902,3.1505,0.38853,7.6431,22.823,-3.2642,1.0881,-1.4626,-4.3523,-2.8615e-12,-0.73129,0,0,0.2,-0,-0,0.66667
0.10257,0.91683,0.51286,0.62525,20.511,100.52,-0.85511,0.28504,-0.60898,-1.1401,-9.6198e-09,-0.30449,0,0,0.2,-0,-0,0.66667
0.71864,0.8183,3.5932,0.47745,7.5301,14.313,-4.5749,1.525,-1.1909,-6.0998,1.1277e-11,-0.59544,0,0,0.2,-0,8.1588e-18,0.66667
0.47968,0.89464,2.3984,0.59196,15.062,41.355,-3.786,1.262,-0.75326,-5.0481,1.1413e-13,-0.37663,0,0,0.2,-0,-0,0.66667
0.37899,0.21618,1.895,-0.42573,-11.984,55.521,2.1513,-0.71711,-1.356,2.8685,-2.5588e-12,-0.678,0,0,0.2,-5.9212e-16,0,0.66667
0.45185,0.012101,2.2592,-0.73185,-19.394,45.349,4.4091,-1.4697,-0.095899,5.8788,-2.2649e-13,-0.04795,0,0,0.2,-0,2.248e-16,0.66667
0.36759,0.15763,1.8379,-0.51356,-14.646,57.301,2.517,-0.83901,-1.0624,3.356,-2.0455e-12,-0.53122,0,0,0.2,-0,-0,0.66667
0.23954,0.15483,1.1977,-0.51776,-16.11,77.481,1.6536,-0.55121,-1.0472,2.2049,5.0954e-11,-0.52362,0,0,0.2,5.3876e-16,0,0.66667
0.91587,0.59212,4.5794,0.13818,0.66454,1.7813,-1.6875,0.56249,-1.9323,-2.2499,1.8426e-08,-0.96617,0,0,0.2,-2.6053e-15,0,0.66667
0.79936,0.081268,3.9968,-0.6281,-7.4491,8.3825,6.6944,-2.2315,-0.59707,8.9258,-1.6417e-10,-0.29854,0,0,0.2,-0,-0,0.66667
0.33394,0.58875,1.6697,0.13313,3.8676,62.254,-0.59276,0.19759,-1.9367,-0.79035,3.6832e-13,-0.96833,0,0,0.2,7.1054e-16,0,0.66667
0.16905,0.84906,0.84526,0.52359,16.798,89.193,-1.1802,0.39339,-1.0256,-1.5736,-1.3692e-09,-0.5128,0,0,0.2,4.737e-16,0,0.66667
0.11663,0.21968,0.58313,-0.42048,-13.657,98.065,0.65386,-0.21795,-1.3716,0.87181,2.2749e-09,-0.68582,0,0,0.2,-4.737e-16,0,0.66667
0.79533,0.52872,3.9767,0.043074,0.50254,7.9582,-0.45678,0.15226,-1.9947,-0.60904,2.3979e-11,-0.99733,0,0,0.2,9.4739e-16,0,0.66667
0.70203,0.63458,3.5101,0.20186,3.3033,15.502,-1.8895,0.62984,-1.8556,-2.5194,9.8147e-12,-0.92781,0,0,0.2,-0,-0,0.66667
0.075233,0.23456,0.37616,-0.39815,-13.03,105.17,0.39939,-0.13313,-1.4359,0.53252,2.2012e-09,-0.71796,0,0,0.2,1.1842e-16,0,0.66667
0.11659,0.94458,0.58297,0.66687,21.845,98.139,-1.0367,0.34557,-0.41806,-1.3823,-1.6705e-08,-0.20903,0,0,0.2,-0,-0,0.66667
0.9138,0.083089,4.569,-0.62537,-3.3276,2.6074,7.6195,-2.5398,-0.60841,10.159,-1.519e-08,-0.3042,0,0,0.2,9.4739e-16,0,0.66667
0.86977,0.14118,4.3489,-0.53824,-4.2164,4.1863,6.2419,-2.0806,-0.96894,8.3225,-8.6335e-10,-0.48447,0,0,0.2,1.8948e-15,0,0.66667
0.29195,0.079273,1.4598,-0.63109,-19.136,69.109,2.4566,-0.81888,-0.58295,3.2755,3.062e-13,-0.29148,0,0,0.2,-4.737e-16,0,0.66667
0.102,0.12575,0.51,-0.56138,-18.374,100.6,0.76347,-0.25449,-0.8798,1.018,-2.147e-08,-0.4399,0,0,0.2,-0,-0,0.66667
0.80889,0.6429,4.0445,0.21435,2.3551,7.1356,-2.3118,0.77059,-1.836,-3.0823,4.4781e-10,-0.91801,0,0,0.2,-0,-0,0.66667
0.026174,0.61649,0.13087,0.17474,5.7243,113.65,-0.060982,0.020327,-1.8908,-0.081309,-1.0246e-08,-0.94539,0,0,0.2,2.9606e-17,0,0.66667
0.63635,0.81808,3.1817,0.47713,9.2983,22.267,-4.0482,1.3494,-1.1905,-5.3976,-2.5935e-12,-0.59523,0,0,0.2,-0,-0,0.66667
0.16009,0.3699,0.80044,-0.19515,-6.2321,90.621,0.41654,-0.13885,-1.8646,0.55539,7.9403e-10,-0.93232,0,0,0.2,2.3685e-16,0,0.66667
0.69162,0.84504,3.4581,0.51757,8.8416,16.816,-4.7728,1.5909,-1.0482,-6.3638,-7.8026e-13,-0.5241,0,0,0.2,-0,-0,0.66667
0.16802,0.53761,0.8401,0.056421,1.7949,89.266,-0.1264,0.042132,-1.9886,-0.16853,4.7769e-10,-0.99428,0,0,0.2,-4.737e-16,0,0.66667
0.34905,0.76668,1.7452,0.40002,11.542,60.034,-1.8617,0.62056,-1.43,-2.4822,2.7705e-12,-0.71502,0,0,0.2,-0,-0,0.66667
0.12209,0.43894,0.61043,-0.091597,-2.9551,97.085,0.1491,-0.049701,-1.9711,0.19881,-1.1901e-08,-0.98557,0,0,0.2,4.737e-16,0,0.66667
0.28709,0.0035861,1.4354,-0.74462,-22.769,69.981,2.8503,-0.95009,-0.028482,3.8004,-1.0321e-12,-0.014241,0,0,0.2,-0,-0,0.66667
0.1291,0.82795,0.64549,0.49192,15.961,95.953,-0.84674,0.28225,-1.1388,-1.129,-4.0325e-09,-0.56941,0,0,0.2,-0,-0,0.66667
0.46339,0.60416,2.3169,0.15624,4.0026,43.234,-0.96536,0.32179,-1.9123,-1.2871,3.1641e-15,-0.95617,0,0,0.2,-0,-0,0.66667
0.64941,0.9215,3.247,0.63225,12.08,21.152,-5.4745,1.8248,-0.57747,-7.2994,-7.8826e-13,-0.28874,0,0,0.2,-9.4739e-16,0,0.66667
0.39451,0.77,1.9726,0.40499,11.231,53.203,-2.1303,0.71011,-1.4162,-2.8404,1.7175e-12,-0.70811,0,0,0.2,-0,-0,0.66667
0.95296,0.16314,4.7648,-0.50529,-1.3864,1.2369,6.4202,-2.1401,-1.0934,8.5603,6.2479e-09,-0.54672,0,0,0.2,-0,-0,0.66667
0.75487,0.80105,3.7743,0.45157,6.3072,11.275,-4.545,1.515,-1.2741,-6.06,7.227e-11,-0.63707,0,0,0.2,-0,-0,0.66667
0.54438,0.34144,2.7219,-0.23784,-5.4538,32.64,1.7263,-0.57544,-1.7998,2.3018,8.431e-13,-0.8999,0,0,0.2,-1.4211e-15,0,0.66667
0.56352,0.57896,2.8176,0.11844,2.6269,30.242,-0.88992,0.29664,-1.9504,-1.1866,-5.0798e-13,-0.97521,0,0,0.2,-9.4739e-16,0,0.66667
0.3206,0.8383,1.603,0.50745,15.016,64.504,-2.1692,0.72307,-1.0839,-2.8923,1.8912e-12,-0.54195,0,0,0.2,-4.7012e-17,0,0.66667
0.51252,0.96563,2.5626,0.69845,17.112,37.179,-4.7729,1.591,-0.26606,-6.3639,-2.5313e-14,-0.13303,0,0,0.2,9.4739e-16,-8.5024e-17,0.66667
0.75781,0.73982,3.7891,0.35973,4.9432,10.92,-3.6348,1.2116,-1.5389,-4.8463,1.0503e-10,-0.76943,0,0,0.2,-9.4739e-16,0,0.66667
0.0018096,0.16617,0.0090481,-0.50075,-16.53,117.88,0.012082,-0.0040272,-1.1086,0.01611,3.1803e-07,-0.55432,0,0,0.2,-0,4.1051e-16,0.66667
0.48059,0.64674,2.403,0.22011,5.525,40.91,-1.4104,0.47014,-1.8273,-1.8806,-1.3334e-13,-0.91365,0,0,0.2,-0,-0,0.66667
0.90416,0.62556,4.5208,0.18833,1.0428,2.2322,-2.2705,0.75682,-1.8753,-3.0273,-4.7056e-09,-0.93766,0,0,0.2,-3.7896e-15,0,0.66667
0.8495,0.90819,4.2475,0.61228,5.5618,5.3594,-6.9351,2.3117,-0.66726,-9.2468,-3.7389e-09,-0.33363,0,0,0.2,-0,-0,0.66667
0.221,0.75037,1.105,0.37556,11.743,80.465,-1.1066,0.36887,-1.4999,-1.4755,-2.112e-10,-0.74996,0,0,0.2,-9.4739e-16,0,0.66667
0.73624,0.14126,3.6812,-0.53811,-8.062,12.918,5.2823,-1.7608,-0.97039,7.0431,-1.6775e-11,-0.48519,0,0,0.2,-0,-0,0.66667
0.58487,0.63432,2.9244,0.20148,4.3096,27.741,-1.5712,0.52374,-1.8547,-2.095,-1.3862e-12,-0.92736,0,0,0.2,-0,-0,0.66667
0.52554,0.11453,2.6277,-0.57821,-13.814,35.337,4.0516,-1.3505,-0.81037,5.4021,2.7001e-13,-0.40519,0,0,0.2,-4.737e-16,0,0.66667
0.66144,0.4526,3.3072,-0.071098,-1.292,19.353,0.62703,-0.20901,-1.981,0.83604,6.5947e-14,-0.9905,0,0,0.2,-0,-0,0.66667
0.63207,0.60237,3.1603,0.15356,2.9879,22.435,-1.2941,0.43138,-1.9153,-1.7255,-1.5729e-12,-0.95763,0,0,0.2,-0,-0,0.66667
0.071417,0.045138,0.35709,-0.68229,-22.558,105.88,0.6497,-0.21657,-0.34362,0.86627,3.4347e-07,-0.17181,0,0,0.2,-1.1842e-16,0,0.66667
0.41684,0.78662,2.0842,0.42994,11.673,49.963,-2.3895,0.79651,-1.3425,-3.1861,1.1779e-12,-0.67126,0,0,0.2,9.4739e-16,0,0.66667
0.1993,0.095559,0.99649,-0.60666,-19.296,84.169,1.6121,-0.53736,-0.69204,2.1494,3.009e-10,-0.34602,0,0,0.2,-0,-0,0.66667
0.70058,0.52862,3.5029,0.042923,0.70358,15.574,-0.40095,0.13365,-1.9943,-0.5346,2.3959e-12,-0.99715,0,0,0.2,9.4739e-16,0,0.66667
0.27331,0.28183,1.3666,-0.32726,-9.9392,71.906,1.1926,-0.39752,-1.6195,1.5901,3.2108e-11,-0.80977,0,0,0.2,-0,-0,0.66667
0.43642,0.72147,2.1821,0.33221,8.8088,47.091,-1.9331,0.64437,-1.609,-2.5775,1.0195e-12,-0.80451,0,0,0.2,-9.4739e-16,0,0.66667
0.82163,0.66364,4.1081,0.24545,2.5307,6.3611,-2.689,0.89632,-1.7851,-3.5853,7.2418e-10,-0.89254,0,0,0.2,-0,-0,0.66667
0.78306,0.18049,3.9153,-0.47927,-6.0142,9.2128,5.004,-1.668,-1.1838,6.672,-1.9983e-10,-0.59188,0,0,0.2,9.4739e-16,0,0.66667
0.85416,0.57525,4.2708,0.11288,0.95311,4.4298,-1.2856,0.42853,-1.9537,-1.7141,-1.1171e-10,-0.97686,0,0,0.2,-0,-0,0.66667
0.47905,0.26242,2.3953,-0.35636,-8.9918,41.202,2.2762,-0.75875,-1.5475,3.035,-5.2447e-13,-0.77375,0,0,0.2,-0,-0,0.66667
0.92649,0.15387,4.6325,-0.5192,-2.293,1.9541,6.4138,-2.1379,-1.0419,8.5517,-5.7108e-08,-0.52093,0,0,0.2,-0,-0,0.66667
0.031555,0.93274,0.15777,0.64911,21.52,112.74,-0.2731,0.091033,-0.50336,-0.36413,-3.8998e-07,-0.25168,0,0,0.2,2.9606e-17,0,0.66667
0.93828,0.7027,4.6914,0.30404,1.0642,1.2517,-3.8037,1.2679,-1.6717,-5.0716,-8.9291e-09,-0.83586,0,0,0.2,-0,-0,0.66667
0.34863,0.066985,1.7431,-0.64952,-18.925,60.301,3.0192,-1.0064,-0.49989,4.0256,-1.6431e-13,-0.24995,0,0,0.2,-0,-0,0.66667
0.81282,0.82677,4.0641,0.49016,5.3802,7.2347,-5.3121,1.7707,-1.1464,-7.0828,4.6014e-10,-0.5732,0,0,0.2,-0,-0,0.66667
0.94832,0.039593,4.7416,-0.69061,-2.2566,1.8086,8.7323,-2.9108,-0.30362,11.643,5.984e-07,-0.15181,0,0,0.2,-0,-1.2727e-16,0.66667
0.89181,0.40842,4.4591,-0.13737,-0.85974,2.6841,1.6335,-0.54449,-1.9344,2.178,1.4501e-08,-0.96719,0,0,0.2,-0,-0,0.66667
0.69802,0.9162,3.4901,0.62431,10.559,16.412,-5.8104,1.9368,-0.61342,-7.7472,-6.4349e-13,-0.30671,0,0,0.2,-0,-0,0.66667
0.67018,0.22221,3.3509,-0.41668,-7.4829,18.731,3.7233,-1.2411,-1.3837,4.9645,2.0413e-12,-0.69186,0,0,0.2,-0,-0,0.66667
0.97358,0.6843,4.8679,0.27645,0.34118,0.46783,-3.5887,1.1962,-1.7284,-4.7849,-5.726e-09,-0.86419,0,0,0.2,-1.8546e-16,0,0.66667
0.46511,0.43215,2.3255,-0.10177,-2.6002,42.982,0.63112,-0.21037,-1.9632,0.8415,-8.7946e-13,-0.98162,0,0,0.2,-0,-0,0.66667
0.10402,0.46534,0.52009,-0.051992,-1.6841,100.18,0.072108,-0.024036,-1.9904,0.096144,-3.4117e-08,-0.99519,0,0,0.2,-1.7764e-16,0,0.66667
0.024147,0.41298,0.12074,-0.13053,-4.2747,114,0.042027,-0.014009,-1.9387,0.056036,7.3251e-09,-0.96937,0,0,0.2,5.9212e-17,0,0.66667
0.8813,0.92694,4.4065,0.64042,4.6659,3.8994,-7.5253,2.5084,-0.54075,-10.034,1.7711e-08,-0.27038,0,0,0.2,9.4739e-16,0,0.66667
0.026191,0.433,0.13096,-0.1005,-3.29,113.65,0.035094,-0.011699,-1.964,0.046792,-8.5066e-07,-0.98198,0,0,0.2,-1.4803e-17,0,0.66667
0.95083,0.058909,4.7541,-0.66164,-2.03,1.6697,8.388,-2.796,-0.44429,11.184,8.767e-08,-0.22215,0,0,0.2,-1.8948e-15,0,0.66667
0.56992,0.88755,2.8496,0.58133,12.948,29.883,-4.4175,1.4725,-0.79724,-5.89,-4.0057e-13,-0.39862,0,0,0.2,9.4739e-16,0,0.66667
0.65757,0.77338,3.2878,0.41007,7.5909,19.984,-3.5953,1.1984,-1.4027,-4.7937,-2.6912e-12,-0.70134,0,0,0.2,-4.737e-16,0,0.66667
0.90917,0.27292,4.5459,-0.34062,-1.8112,2.2111,4.1291,-1.3764,-1.5874,5.5054,-1.8689e-09,-0.7937,0,0,0.2,9.4739e-16,0,0.66667
0.90195,0.84431,4.5098,0.51647,3.052,2.779,-6.2111,2.0704,-1.0523,-8.2814,1.3441e-08,-0.52617,0,0,0.2,-0,-0,0.66667
0.39086,0.59887,1.9543,0.1483,4.1051,53.62,-0.77287,0.25762,-1.9232,-1.0305,6.4193e-13,-0.96162,0,0,0.2,9.4739e-16,0,0.66667
0.61254,0.039673,3.0627,-0.69049,-14.319,25.183,5.6394,-1.8798,-0.30463,7.5192,-1.0703e-13,-0.15232,0,0,0.2,-0,-0,0.66667
0.52184,0.63292,2.6092,0.19938,4.7282,35.466,-1.3873,0.46242,-1.8579,-1.8497,-6.4504e-13,-0.92895,0,0,0.2,-0,-0,0.66667
0.81704,0.11365,4.0852,-0.57953,-6.2858,7.1445,6.3134,-2.1045,-0.80508,8.4178,-4.6532e-10,-0.40254,0,0,0.2,-0,-0,0.66667
0.056183,0.87675,0.28091,0.56513,18.636,108.48,-0.42334,0.14111,-0.86463,-0.56446,-1.6706e-07,-0.43231,0,0,0.2,-0,-0,0.66667
0.62698,0.98826,3.1349,0.73239,14.797,23.697,-6.1226,2.0409,-0.092788,-8.1634,7.9936e-14,-0.046394,0,0,0.2,-0,-0,0.66667
0.42974,0.92015,2.1487,0.63022,17.02,48.316,-3.6111,1.2037,-0.58657,-4.8148,5.0848e-14,-0.29328,0,0,0.2,-0,-0,0.66667
0.86093,0.77428,4.3047,0.41142,3.3814,4.3828,-4.7227,1.5742,-1.3988,-6.2969,2.7906e-09,-0.69938,0,0,0.2,9.4739e-16,0,0.66667
0.68787,0.75936,3.4393,0.38905,6.6663,16.991,-3.5682,1.1894,-1.4627,-4.7576,1.4018e-12,-0.73136,0,0,0.2,-0,-0,0.66667
0.26102,0.80646,1.3051,0.45969,14.111,73.952,-1.5999,0.53329,-1.2484,-2.1332,-3.0107e-11,-0.6242,0,0,0.2,2.3685e-16,0,0.66667
0.13424,0.024918,0.67119,-0.71262,-23.286,95.156,1.2755,-0.42516,-0.1938,1.7006,9.4718e-11,-0.096902,0,0,0.2,-0,-0,0.66667
0.54134,0.32024,2.7067,-0.26964,-6.2172,33.037,1.9463,-0.64875,-1.7408,2.595,7e-13,-0.87042,0,0,0.2,-0,-0,0.66667
0.9819,0.96711,4.9095,0.70066,0.78583,1.2537,-9.173,3.0577,-0.25555,-12.231,6.5456e-07,-0.12777,0,0,0.2,-3.2834e-16,0,0.66667
0.34991,0.32517,1.7495,-0.26224,-7.5368,59.832,1.2235,-0.40782,-1.7544,1.6313,-2.4727e-12,-0.8772,0,0,0.2,-0,-0,0.66667
0.99541,0.68646,4.9771,0.27969,-0.055107,0.20906,-3.7121,1.2374,-1.7224,-4.9495,1.2424e-08,-0.86122,0,0,0.2,5.9212e-16,0,0.66667
0.51808,0.83483,2.5904,0.50225,12.086,36.194,-3.4693,1.1564,-1.1031,-4.6258,-1.9451e-13,-0.55157,0,0,0.2,-0,-0,0.66667
0.19034,0.60302,0.95169,0.15453,4.878,85.516,-0.39216,0.13072,-1.915,-0.52288,-3.2943e-10,-0.95748,0,0,0.2,-0,-0,0.66667
0.030616,0.62382,0.15308,0.18574,6.0837,112.88,-0.075819,0.025273,-1.8793,-0.10109,6.2545e-08,-0.93964,0,0,0.2,-8.1416e-17,0,0.66667
0.30302,0.21196,1.5151,-0.43206,-12.911,67.216,1.7457,-0.58189,-1.3357,2.3275,3.5363e-12,-0.66783,0,0,0.2,2.3685e-16,0,0.66667
0.035078,0.79402,0.17539,0.44102,14.514,112.12,-0.20627,0.068757,-1.3078,-0.27503,5.4176e-08,-0.65389,0,0,0.2,-0,-0,0.66667
0.59005,0.69449,2.9503,0.29174,6.1944,27.198,-2.2952,0.76506,-1.6972,-3.0602,-1.5705e-12,-0.84861,0,0,0.2,-0,-0,0.66667
0.70162,0.70425,3.5081,0.30638,5.0364,15.622,-2.8662,0.95539,-1.6663,-3.8216,9.1025e-12,-0.83317,0,0,0.2,-9.4739e-16,0,0.66667
0.66999,0.56748,3.3499,0.10121,1.8014,18.507,-0.90417,0.30139,-1.9643,-1.2056,2.0967e-13,-0.98215,0,0,0.2,-0,-0,0.66667
0.35621,0.52222,1.781,0.033323,0.95043,58.815,-0.15827,0.052755,-1.9958,-0.21102,2.157e-13,-0.99791,0,0,0.2,-0,-0,0.66667
0.11164,0.33141,0.55822,-0.25288,-8.1935,98.889,0.37643,-0.12548,-1.7725,0.50191,1.2258e-09,-0.88624,0,0,0.2,-0,-0,0.66667
0.64132,0.80213,3.2066,0.4532,8.7256,21.712,-3.8753,1.2918,-1.2704,-5.1671,-2.8635e-12,-0.63518,0,0,0.2,-0,-0,0.66667
0.063197,0.15304,0.31599,-0.52045,-17.121,107.27,0.43854,-0.14618,-1.0384,0.58472,-1.0966e-08,-0.51922,0,0,0.2,1.4803e-16,0,0.66667
0.64436,0.39764,3.2218,-0.15354,-2.9072,21.134,1.3191,-0.43972,-1.9158,1.7589,1.4333e-12,-0.95791,0,0,0.2,-0,-0,0.66667
0.83529,0.12214,4.1764,-0.56679,-5.5694,6.0364,6.3124,-2.1041,-0.85769,8.4166,5.6481e-10,-0.42884,0,0,0.2,-2.3685e-16,0,0.66667
0.057159,0.43351,0.2858,-0.099729,-3.2563,108.27,0.076006,-0.025335,-1.9645,0.10134,-2.4082e-07,-0.98227,0,0,0.2,1.2266e-16,0,0.66667
0.35587,0.93599,1.7793,0.65399,18.947,59.204,-3.1031,1.0344,-0.48005,-4.1375,9.4058e-13,-0.24003,0,0,0.2,-1.1842e-16,2.1454e-16,0.66667
0.61872,0.37724,3.0936,-0.18414,-3.6874,23.897,1.5191,-0.50637,-1.8795,2.0255,1.6077e-12,-0.93976,0,0,0.2,1.8948e-15,0,0.66667
0.6386,0.96193,3.193,0.6929,13.618,22.387,-5.8998,1.9666,-0.29336,-7.8664,3.5971e-14,-0.14668,0,0,0.2,-9.4739e-16,0,0.66667
0.19794,0.37041,0.98969,-0.19438,-6.1196,84.25,0.513,-0.171,-1.8655,0.684,4.2832e-10,-0.93275,0,0,0.2,-2.3807e-16,0,0.66667
0.62336,0.9519,3.1168,0.67785,13.743,23.979,-5.634,1.878,-0.36632,-7.5119,-9.1038e-14,-0.18316,0,0,0.2,-0,-0,0.66667
0.55754,0.80246,2.7877,0.45369,10.254,31.205,-3.3727,1.1242,-1.2674,-4.4969,-7.0255e-13,-0.63369,0,0,0.2,4.737e-16,0,0.66667
0.88572,0.99214,4.4286,0.73821,5.2894,3.9759,-8.7179,2.906,-0.061864,-11.624,1.119e-08,-0.030932,0,0,0.2,-9.4739e-16,0,0.66667
0.69703,0.2449,3.4851,-0.38265,-6.393,16.127,3.5562,-1.1854,-1.479,4.7417,-4.5075e-12,-0.73951,0,0,0.2,-0,-0,0.66667
0.36426,0.31484,1.8213,-0.27775,-7.8899,57.651,1.349,-0.44966,-1.726,1.7986,-2.5587e-12,-0.86299,0,0,0.2,-0,-0,0.66667
0.22535,0.15108,1.1267,-0.52338,-16.403,79.813,1.5726,-0.52418,-1.0256,2.0967,1.0582e-10,-0.51281,0,0,0.2,-1.0342e-16,0,0.66667
0.61091,0.73881,3.0545,0.35821,7.3227,24.89,-2.9178,0.97259,-1.544,-3.8904,-2.3175e-12,-0.77199,0,0,0.2,-0,-0,0.66667
0.25557,0.89698,1.2778,0.59547,18.424,74.919,-2.0291,0.67636,-0.73846,-2.7054,-1.228e-11,-0.36923,0,0,0.2,2.3685e-16,0,0.66667
0.075813,0.71899,0.37907,0.32849,10.732,105.06,-0.33205,0.11068,-1.6178,-0.44273,4.528e-09,-0.80888,0,0,0.2,-0,-0,0.66667
0.8227,0.6044,4.1135,0.1566,1.5995,6.2302,-1.7178,0.57261,-1.9119,-2.2904,5.3588e-10,-0.95596,0,0,0.2,-0,-0,0.66667
0.22795,0.71192,1.1398,0.31788,9.8934,79.297,-0.96617,0.32206,-1.6401,-1.2882,-1.7563e-10,-0.82003,0,0,0.2,-2.3685e-16,0,0.66667
0.37955,0.3177,1.8978,-0.27345,-7.6634,55.348,1.3838,-0.46127,-1.734,1.8451,-2.4417e-12,-0.867,0,0,0.2,-0,-0,0.66667
0.84649,0.95893,4.2324,0.68839,6.4411,5.7055,-7.7695,2.5898,-0.31494,-10.359,1.521e-09,-0.15747,0,0,0.2,-9.4739e-16,0,0.66667
0.10315,0.53457,0.51575,0.051858,1.6801,100.33,-0.071323,0.023774,-1.9903,-0.095097,3.3133e-08,-0.99517,0,0,0.2,-0,-0,0.66667
0.96939,0.034086,4.8469,-0.69887,-1.3507,1.4235,9.033,-3.011,-0.26501,12.044,7.1408e-06,-0.13251,0,0,0.2,-0,-0,0.66667
0.52282,0.72581,2.6141,0.33872,8.0471,35.427,-2.3612,0.78707,-1.5913,-3.1483,-7.1498e-14,-0.79567,0,0,0.2,-0,-0,0.66667
0.67334,0.94224,3.3667,0.66336,12.003,18.821,-5.9555,1.9852,-0.43631,-7.9407,-7.4341e-13,-0.21816,0,0,0.2,-0,-0,0.66667
0.73153,0.051846,3.6577,-0.67223,-10.339,13.574,6.5568,-2.1856,-0.39301,8.7423,-1.0494e-12,-0.19651,0,0,0.2,-9.4739e-16,0,0.66667
0.98098,0.20338,4.9049,-0.44493,-0.39064,0.62621,5.8196,-1.9399,-1.2955,7.7594,8.2529e-09,-0.64776,0,0,0.2,-3.0565e-15,0,0.66667
0.55276,0.046745,2.7638,-0.67988,-15.668,32.103,5.0108,-1.6703,-0.35535,6.6811,1.2879e-13,-0.17768,0,0,0.2,-0,-0,0.66667
0.69972,0.90663,3.4986,0.60995,10.257,16.229,-5.6906,1.8969,-0.67822,-7.5875,-3.7614e-13,-0.33911,0,0,0.2,-1.8948e-15,0,0.66667
0.68269,0.78343,3.4134,0.42514,7.3983,17.528,-3.8698,1.2899,-1.3577,-5.1598,-5.9841e-13,-0.67884,0,0,0.2,-0,-0,0.66667
0.63023,0.75449,3.1512,0.38173,7.5053,22.802,-3.2077,1.0692,-1.4817,-4.2769,-2.9619e-12,-0.74087,0,0,0.2,-0,-0,0.66667
0.79934,0.48237,3.9967,-0.026446,-0.30286,7.6841,0.28185,-0.093951,-1.9972,0.37581,-6.8767e-11,-0.99862,0,0,0.2,-0,-0,0.66667
0.34565,0.64796,1.7283,0.22194,6.3959,60.469,-1.0229,0.34095,-1.8252,-1.3638,1.4625e-12,-0.91258,0,0,0.2,-0,-0,0.66667
0.48189,0.93812,2.4095,0.65718,16.73,41.145,-4.2225,1.4075,-0.46569,-5.63,-6.4659e-13,-0.23284,0,0,0.2,-0,1.8404e-17,0.66667
0.078123,0.46139,0.39061,-0.057908,-1.8849,104.65,0.060319,-0.020106,-1.9893,0.080425,-6.8868e-08,-0.99467,0,0,0.2,1.1842e-16,0,0.66667
0.91011,0.19459,4.5505,-0.45811,-2.4545,2.3677,5.5591,-1.853,-1.2536,7.4121,-1.5533e-08,-0.62679,0,0,0.2,1.8948e-15,0,0.66667
0.55923,0.050662,2.7961,-0.67401,-15.365,31.31,5.0256,-1.6752,-0.3843,6.7008,-1.1591e-13,-0.19215,0,0,0.2,2.8513e-16,-2.2293e-16,0.66667
0.52499,0.16856,2.6249,-0.49716,-11.842,35.305,3.48,-1.16,-1.1201,4.64,5.1292e-13,-0.56005,0,0,0.2,-0,-0,0.66667
0.26695,0.35196,1.3348,-0.22206,-6.7565,72.898,0.79041,-0.26347,-1.8252,1.0539,4.058e-11,-0.9126,0,0,0.2,-0,-0,0.66667
0.89999,0.16742,4.5,-0.49887,-2.9975,2.8175,5.9864,-1.9955,-1.1141,7.9819,-1.5017e-08,-0.55704,0,0,0.2,-0,-0,0.66667
0.013914,0.98328,0.069568,0.72492,24.132,115.79,-0.13448,0.044826,-0.13153,-0.17931,-2.1329e-06,-0.065764,0,0,0.2,-2.9606e-17,2.3569e-16,0.66667
0.097001,0.59699,0.48501,0.14549,4.7223,101.4,-0.18817,0.062722,-1.9253,-0.25089,6.3102e-10,-0.96263,0,0,0.2,-0,-0,0.66667
0.060075,0.82778,0.30037,0.49167,16.166,107.8,-0.39382,0.13127,-1.1402,-0.5251,6.8878e-09,-0.57011,0,0,0.2,-0,-0,0.66667
0.24092,0.83077,1.2046,0.49615,15.416,77.243,-1.5938,0.53126,-1.1236,-2.125,-5.7917e-11,-0.5618,0,0,0.2,-0,-0,0.66667
0.49685,0.89628,2.4842,0.59442,14.794,39.071,-3.9379,1.3126,-0.74338,-5.2505,-1.9051e-13,-0.37169,0,0,0.2,4.737e-16,0,0.66667
0.46352,0.045407,2.3176,-0.68189,-17.777,43.669,4.2143,-1.4048,-0.34575,5.6191,3.3928e-13,-0.17288,0,0,0.2,-9.4739e-16,0,0.66667
0.27055,0.65899,1.3527,0.23849,7.2426,72.321,-0.86029,0.28676,-1.798,-1.147,-3.7181e-11,-0.89898,0,0,0.2,-0,-0,0.66667
0.55511,0.72119,2.7755,0.33179,7.496,31.383,-2.4557,0.81858,-1.6086,-3.2743,-3.4439e-13,-0.80428,0,0,0.2,-1.8948e-15,0,0.66667
0.22734,0.9578,1.1367,0.6867,21.642,79.586,-2.0815,0.69383,-0.32228,-2.7753,-1.0258e-11,-0.16114,0,0,0.2,2.3685e-16,0,0.66667
0.3657,0.53423,1.8285,0.051345,1.4528,57.374,-0.25035,0.083451,-1.9906,-0.3338,4.6907e-13,-0.99529,0,0,0.2,9.4739e-16,0,0.66667
0.16996,0.63352,0.84982,0.20028,6.3746,88.951,-0.45387,0.15129,-1.8576,-0.60516,-8.9683e-10,-0.92882,0,0,0.2,-0,-0,0.66667
0.66427,0.8092,3.3214,0.46379,8.4709,19.379,-4.1078,1.3693,-1.235,-5.4771,-2.4141e-12,-0.6175,0,0,0.2,-1.1842e-15,0,0.66667
0.081667,0.11209,0.40834,-0.58187,-19.131,104.1,0.6336,-0.2112,-0.79559,0.8448,-6.5827e-09,-0.39779,0,0,0.2,-0,-0,0.66667
0.34329,0.38553,1.7164,-0.1717,-4.9541,60.818,0.78592,-0.26197,-1.8959,1.0479,-8.4865e-13,-0.94795,0,0,0.2,-0,-0,0.66667
0.53103,0.68641,2.6551,0.27962,6.5519,34.34,-1.9798,0.65993,-1.7242,-2.6397,-7.4019e-13,-0.86208,0,0,0.2,2.3685e-16,0,0.66667
0.54953,0.13679,2.7477,-0.54482,-12.526,32.295,3.9919,-1.3306,-0.94435,5.3226,5.4245e-13,-0.47217,0,0,0.2,-0,-0,0.66667
0.36765,0.89809,1.8383,0.59714,17.087,57.367,-2.9272,0.97574,-0.73133,-3.9029,1.3349e-12,-0.36566,0,0,0.2,-4.737e-16,0,0.66667
0.64375,0.6384,3.2188,0.2076,3.9404,21.225,-1.7819,0.59397,-1.8463,-2.3759,-2.0248e-12,-0.92314,0,0,0.2,-0,-0,0.66667
0.16445,0.23775,0.82224,-0.39338,-12.592,89.925,0.86255,-0.28752,-1.4486,1.1501,1.1796e-09,-0.72431,0,0,0.2,-1.9475e-16,0,0.66667
0.7243,0.38051,3.6215,-0.17923,-2.7417,13.509,1.7309,-0.57697,-1.8854,2.3079,-2.543e-11,-0.94271,0,0,0.2,-0,-0,0.66667
0.92525,0.66774,4.6262,0.25161,1.0767,1.5677,-3.104,1.0347,-1.7744,-4.1387,-1.0434e-08,-0.88722,0,0,0.2,-0,-0,0.66667
0.98983,0.045843,4.9491,-0.68124,-0.39018,1.1101,8.9907,-2.9969,-0.34887,11.988,-9.3552e-06,-0.17444,0,0,0.2,1.8948e-15,0,0.66667
0.87848,0.077268,4.3924,-0.6341,-4.7193,4.0071,7.4273,-2.4758,-0.56976,9.903,-7.2377e-09,-0.28488,0,0,0.2,-0,-0,0.66667
0.26092,0.73009,1.3046,0.34514,10.563,73.916,-1.2007,0.40024,-1.5757,-1.6009,-5.1297e-11,-0.78783,0,0,0.2,-0,-0,0.66667
0.038093,0.33015,0.19047,-0.25478,-8.3488,111.58,0.12941,-0.043135,-1.768,0.17254,-2.0273e-08,-0.88401,0,0,0.2,-0,-0,0.66667
0.97403,0.18866,4.8701,-0.46701,-0.63138,0.76752,6.065,-2.0217,-1.225,8.0867,4.1461e-08,-0.61249,0,0,0.2,-0,-0,0.66667
0.55712,0.2772,2.7856,-0.3342,-7.526,31.14,2.4825,-0.8275,-1.6028,3.31,1.2519e-12,-0.80139,0,0,0.2,-9.4739e-16,0,0.66667
0.53971,0.13165,2.6985,-0.55252,-12.905,33.52,3.976,-1.3253,-0.91389,5.3014,6.1529e-13,-0.45694,0,0,0.2,-0,-0,0.66667
0.14646,0.18103,0.73231,-0.47846,-15.441,92.996,0.93434,-0.31145,-1.1855,1.2458,1.8762e-09,-0.59276,0,0,0.2,-2.3685e-16,0,0.66667
0.91249,0.54032,4.5625,0.060483,0.30235,1.8663,-0.73587,0.24529,-1.9861,-0.98117,5.1638e-08,-0.99306,0,0,0.2,-0,-0,0.66667
0.95761,0.19209,4.788,-0.46187,-1.1103,1.0495,5.8972,-1.9657,-1.2415,7.8629,6.5596e-08,-0.62075,0,0,0.2,-0,-0,0.66667
0.85963,0.29768,4.2981,-0.30348,-2.4926,4.3005,3.4784,-1.1595,-1.6732,4.6379,-1.6136e-09,-0.8366,0,0,0.2,1.8948e-15,0,0.66667
0.69276,0.072768,3.4638,-0.64085,-11.009,16.93,5.9194,-1.9731,-0.53895,7.8925,8.5087e-13,-0.26948,0,0,0.2,-0,-0,0.66667
0.3859,0.10849,1.9295,-0.58727,-16.528,54.633,3.0217,-1.0072,-0.77282,4.0289,-9.6123e-13,-0.38641,0,0,0.2,-0,-0,0.66667
0.92673,0.36692,4.6336,-0.19962,-0.83116,1.474,2.4665,-0.82217,-1.8578,3.2887,-2.0903e-08,-0.92888,0,0,0.2,-0,-0,0.66667
0.85447,0.47745,4.2723,-0.033828,-0.28464,4.3918,0.3854,-0.12847,-1.9953,0.51387,-9.9111e-12,-0.99765,0,0,0.2,-0,-0,0.66667
0.83789,0.0019632,4.1894,-0.74706,-7.416,6.3309,8.346,-2.782,-0.01586,11.128,1.2688e-09,-0.0079302,0,0,0.2,-0,-0,0.66667
0.58406,0.01764,2.9203,-0.72354,-15.862,28.463,5.6345,-1.8782,-0.13753,7.5127,-4.2277e-13,-0.068766,0,0,0.2,1.8948e-15,0,0.66667
0.069977,0.02375,0.34989,-0.71437,-23.657,106.13,0.66654,-0.22218,-0.18471,0.88871,3.9075e-07,-0.092353,0,0,0.2,-1.1842e-16,0,0.66667
0.025655,0.76683,0.12827,0.40025,13.166,113.75,-0.13691,0.045637,-1.4293,-0.18255,2.9517e-08,-0.71467,0,0,0.2,-0,-0,0.66667
0.2256,0.52562,1.128,0.038427,1.1934,79.635,-0.11559,0.03853,-1.9942,-0.15412,-2.8523e-11,-0.99712,0,0,0.2,-0,-0,0.66667
0.092302,0.687,0.46151,0.28049,9.1294,102.22,-0.3452,0.11507,-1.722,-0.46027,3.5401e-09,-0.86098,0,0,0.2,1.7393e-16,0,0.66667
0.74511,0.67919,3.7255,0.26878,3.8487,11.834,-2.6703,0.89009,-1.7425,-3.5604,6.841e-11,-0.87127,0,0,0.2,-0,-0,0.66667
0.85106,0.74144,4.2553,0.36216,3.1663,4.8169,-4.1095,1.3698,-1.5328,-5.4794,1.7982e-09,-0.76639,0,0,0.2,-9.4739e-16,0,0.66667
0.54047,0.17388,2.7023,-0.48918,-11.379,33.346,3.5251,-1.175,-1.148,4.7002,7.2009e-13,-0.57401,0,0,0.2,-0,-0,0.66667
0.61127,0.96831,3.0564,0.70246,14.616,25.345,-5.7253,1.9084,-0.24704,-7.6337,-3.0198e-13,-0.12352,0,0,0.2,8.8818e-17,0,0.66667
0.47314,0.62937,2.3657,0.19405,4.9147,41.911,-1.2242,0.40805,-1.8661,-1.6322,2.7356e-13,-0.93307,0,0,0.2,-0,-0,0.66667
0.93519,0.83149,4.6759,0.49723,1.9162,1.6579,-6.2,2.0667,-1.1208,-8.2667,1.8464e-08,-0.56039,0,0,0.2,-1.1075e-15,0,0.66667
0.61281,0.19283,3.0641,-0.46075,-9.4233,24.793,3.7647,-1.2549,-1.2453,5.0196,2.0246e-12,-0.62266,0,0,0.2,-0,-0,0.66667
0.62036,0.7915,3.1018,0.43725,8.7975,23.934,-3.6167,1.2056,-1.3195,-4.8223,-2.595e-12,-0.65975,0,0,0.2,1.8948e-15,0,0.66667
0.85801,0.91771,4.29,0.62657,5.3998,4.9556,-7.168,2.3893,-0.60437,-9.5574,2.9433e-09,-0.30219,0,0,0.2,-0,2.2006e-16,0.66667
0.38374,0.13184,1.9187,-0.55224,-15.55,54.919,2.8256,-0.94185,-0.91497,3.7674,-1.2264e-12,-0.45749,0,0,0.2,-9.4739e-16,0,0.66667
0.06411,0.67409,0.32055,0.26114,8.5351,107.08,-0.22322,0.074408,-1.7576,-0.29763,8.9733e-09,-0.8788,0,0,0.2,-0,-0,0.66667
0.74015,0.34466,3.7007,-0.23301,-3.3892,12.209,2.2995,-0.76648,-1.8074,3.0659,-5.3334e-11,-0.90368,0,0,0.2,-0,-0,0.66667
0.84419,0.26199,4.2209,-0.35702,-3.2585,5.1788,4.0186,-1.3395,-1.5475,5.3581,-1.39e-09,-0.77373,0,0,0.2,-0,-0,0.66667
0.52023,0.13977,2.6012,-0.54035,-12.985,35.963,3.7481,-1.2494,-0.96097,4.9974,7.9048e-14,-0.48048,0,0,0.2,-0,-0,0.66667
0.46764,0.72691,2.3382,0.34036,8.7066,42.743,-2.1222,0.70742,-1.5887,-2.8297,6.0107e-13,-0.79437,0,0,0.2,-0,-0,0.66667
0.098624,0.57044,0.49312,0.10566,3.4274,101.11,-0.13894,0.046315,-1.9598,-0.18526,-8.5053e-09,-0.97988,0,0,0.2,-0,-0,0.66667
0.31326,0.64746,1.5663,0.22118,6.5315,65.508,-0.92384,0.30795,-1.8268,-1.2318,-3.6082e-12,-0.9134,0,0,0.2,2.3685e-16,0,0.66667
0.18739,0.077767,0.93693,-0.63335,-20.264,86.169,1.5824,-0.52747,-0.57449,2.1099,2.6947e-12,-0.28724,0,0,0.2,-2.3685e-16,0,0.66667
0.74742,0.024789,3.7371,-0.71282,-10.447,12.37,7.1037,-2.3679,-0.19365,9.4716,5.9863e-13,-0.096824,0,0,0.2,-0,-1.5538e-16,0.66667
0.16037,0.77034,0.80183,0.40551,13.002,90.618,-0.86707,0.28902,-1.4147,-1.1561,-1.3447e-09,-0.70735,0,0,0.2,2.3685e-16,0,0.66667
0.68463,0.69572,3.4232,0.29358,5.0542,17.199,-2.68,0.89332,-1.6935,-3.5733,2.109e-12,-0.84675,0,0,0.2,-0,-0,0.66667
0.44067,0.24092,2.2034,-0.38862,-10.273,46.53,2.2834,-0.76112,-1.4628,3.0445,-7.4851e-13,-0.7314,0,0,0.2,-4.737e-16,0,0.66667
0.0042513,0.93655,0.021256,0.65482,21.736,117.46,-0.037119,0.012372,-0.4761,-0.049493,-1.3912e-06,-0.23805,0,0,0.2,9.2519e-19,5.6081e-17,0.66667
0.70234,0.12995,3.5117,-0.55508,-9.2293,15.891,5.1981,-1.7327,-0.90567,6.9308,-1.7497e-13,-0.45284,0,0,0.2,-0,-1.3214e-16,0.66667
0.79289,0.32764,3.9645,-0.25855,-3.0672,8.2402,2.7333,-0.91111,-1.7616,3.6444,-3.2312e-10,-0.88078,0,0,0.2,-0,-0,0.66667
0.33849,0.31614,1.6924,-0.27579,-8.0006,61.594,1.2447,-0.4149,-1.7295,1.6596,-1.607e-12,-0.86477,0,0,0.2,9.4739e-16,0,0.66667
0.47734,0.20532,2.3867,-0.44202,-11.209,41.507,2.8132,-0.93774,-1.3041,3.751,-1.0658e-14,-0.65206,0,0,0.2,3.8211e-16,0,0.66667
0.048717,0.11058,0.24358,-0.58413,-19.291,109.77,0.37943,-0.12648,-0.78676,0.5059,-8.5005e-09,-0.39338,0,0,0.2,-5.9212e-17,0,0.66667
0.22657,0.15863,1.1329,-0.51205,-16.033,79.606,1.5469,-0.51563,-1.0677,2.0625,1.2266e-10,-0.53386,0,0,0.2,-0,-0,0.66667
0.69626,0.28613,3.4813,-0.3208,-5.3566,16.131,2.9781,-0.9927,-1.6337,3.9708,-5.5604e-12,-0.81684,0,0,0.2,-1.8948e-15,0,0.66667
0.14114,0.030166,0.70569,-0.70475,-22.976,93.984,1.3262,-0.44207,-0.23606,1.7683,8.2137e-10,-0.11803,0,0,0.2,-0,-0,0.66667
0.23059,0.78913,1.153,0.43369,13.519,78.907,-1.3334,0.44447,-1.331,-1.7779,-1.3264e-10,-0.66548,0,0,0.2,-0,-0,0.66667
0.69479,0.574,3.4739,0.11099,1.8505,16.127,-1.0282,0.34274,-1.9551,-1.371,4.1206e-12,-0.97754,0,0,0.2,-0,-0,0.66667
0.068365,0.09101,0.34183,-0.61349,-20.235,106.39,0.55922,-0.18641,-0.66186,0.74562,1.32e-07,-0.33093,0,0,0.2,-0,-0,0.66667
0.72933,0.67694,3.6467,0.2654,4.0055,13.14,-2.5809,0.8603,-1.7487,-3.4412,3.7498e-11,-0.87437,0,0,0.2,9.4739e-16,0,0.66667
0.62746,0.66786,3.1373,0.25179,4.9584,22.986,-2.1065,0.70217,-1.7744,-2.8087,-2.4578e-12,-0.8872,0,0,0.2,-0,-0,0.66667
0.65207,0.26076,3.2603,-0.35886,-6.7144,20.487,3.12,-1.04,-1.5415,4.16,2.8886e-12,-0.77074,0,0,0.2,-0,-0,0.66667
0.32147,0.049843,1.6073,-0.67524,-20.107,64.511,2.8942,-0.96474,-0.37773,3.859,-9.6922e-13,-0.18886,0,0,0.2,-0,-0,0.66667
0.53844,0.55079,2.6922,0.076179,1.7591,33.319,-0.54691,0.1823,-1.9782,-0.72921,-2.548e-13,-0.98912,0,0,0.2,9.4739e-16,0,0.66667
0.078783,0.4845,0.39391,-0.023243,-0.7564,104.53,0.024415,-0.0081383,-1.9985,0.032553,4.2611e-08,-0.99927,0,0,0.2,-0,-0,0.66667
0.28452,0.3005,1.4226,-0.29925,-9.0206,70.096,1.1352,-0.3784,-1.6811,1.5136,1.9722e-11,-0.84057,0,0,0.2,-4.737e-16,0,0.66667
0.20287,0.72393,1.0143,0.33589,10.579,83.461,-0.90854,0.30285,-1.6003,-1.2114,-3.7931e-10,-0.80014,0,0,0.2,4.737e-16,0,0.66667
0.51135,0.74782,2.5567,0.37173,8.9875,36.933,-2.5344,0.84481,-1.5091,-3.3793,4.2033e-13,-0.75456,0,0,0.2,-1.4211e-15,0,0.66667
0.65221,0.47814,3.261,-0.032787,-0.60891,20.288,0.28512,-0.095039,-1.9957,0.38015,1.541e-13,-0.99784,0,0,0.2,-0,-0,0.66667
0.61509,0.40338,3.0754,-0.14493,-2.9219,24.28,1.1886,-0.3962,-1.9254,1.5848,9.9498e-13,-0.96268,0,0,0.2,1.1842e-15,0,0.66667
0.13364,0.5529,0.66819,0.079344,2.5518,95.109,-0.14138,0.047126,-1.9766,-0.1885,-1.6907e-09,-0.98832,0,0,0.2,-1.1842e-16,0,0.66667
0.18016,0.45509,0.90078,-0.067359,-2.1334,87.219,0.1618,-0.053934,-1.9827,0.21573,2.6053e-10,-0.99133,0,0,0.2,-0,-0,0.66667
0.49726,0.89243,2.4863,0.58865,14.638,39.01,-3.9028,1.3009,-0.76762,-5.2037,4.1833e-13,-0.38381,0,0,0.2,-9.4739e-16,0,0.66667
0.020049,0.61707,0.10024,0.1756,5.7543,114.71,-0.046943,0.015648,-1.8899,-0.06259,-4.7057e-08,-0.94495,0,0,0.2,-2.9606e-17,0,0.66667
0.73614,0.27412,3.6807,-0.33883,-5.0166,12.64,3.3256,-1.1085,-1.5923,4.4342,-4.6879e-11,-0.79614,0,0,0.2,4.737e-16,0,0.66667
0.59242,0.081343,2.9621,-0.62799,-13.477,27.331,4.9605,-1.6535,-0.59804,6.6139,2.0473e-13,-0.29902,0,0,0.2,-0,-0,0.66667
0.15883,0.34742,0.79417,-0.22888,-7.3157,90.838,0.48471,-0.16157,-1.8144,0.64628,1.0042e-09,-0.9072,0,0,0.2,-0,-0,0.66667
0.91731,0.97515,4.5866,0.71273,3.7262,2.7294,-8.7172,2.9057,-0.19355,-11.623,1.155e-08,-0.096773,0,0,0.2,1.8948e-15,-3.0407e-16,0.66667
0.54373,0.84745,2.7186,0.52117,12.079,32.981,-3.7783,1.2594,-1.0347,-5.0378,-2.0295e-13,-0.51736,0,0,0.2,-0,-0,0.66667
0.99776,0.065581,4.9888,-0.65163,-0.00391,0.95818,8.6689,-2.8896,-0.49113,11.559,-2.3387e-06,-0.24557,0,0,0.2,-0,2.5261e-16,0.66667
0.042324,0.2771,0.21162,-0.33435,-10.969,110.86,0.18868,-0.062893,-1.6026,0.25157,-1.7937e-08,-0.80128,0,0,0.2,-7.4015e-17,0,0.66667
0.81295,0.48425,4.0647,-0.023619,-0.25322,6.7939,0.25601,-0.085337,-1.9986,0.34135,9.4887e-12,-0.99929,0,0,0.2,-0,-0,0.66667
0.077381,0.34908,0.3869,-0.22638,-7.3809,104.78,0.23357,-0.077856,-1.8189,0.31143,-1.0949e-08,-0.90947,0,0,0.2,-0,-0,0.66667
0.94025,0.052189,4.7012,-0.67172,-2.5183,1.9492,8.4211,-2.807,-0.39553,11.228,1.5838e-07,-0.19776,0,0,0.2,-0,-0,0.66667
0.36144,0.74681,1.8072,0.37022,10.565,58.128,-1.7842,0.59472,-1.5136,-2.3789,2.8851e-12,-0.7568,0,0,0.2,2.3685e-16,0,0.66667
0.66661,0.32439,3.3331,-0.26341,-4.7439,18.93,2.3412,-0.78042,-1.7524,3.1217,1.4349e-12,-0.87618,0,0,0.2,-1.8948e-15,0,0.66667
0.71461,0.3643,3.573,-0.20355,-3.2102,14.371,1.9395,-0.64649,-1.8521,2.586,-1.8313e-11,-0.92603,0,0,0.2,-9.4739e-16,0,0.66667
0.7131,0.18449,3.5655,-0.47327,-7.5874,14.794,4.4998,-1.4999,-1.2036,5.9998,-7.3181e-12,-0.60182,0,0,0.2,-2.3685e-16,0,0.66667
0.69395,0.019381,3.4698,-0.72093,-12.426,16.988,6.6705,-2.2235,-0.15096,8.894,2.4558e-13,-0.07548,0,0,0.2,-0,-0,0.66667
0.01165,0.79441,0.058248,0.44162,14.55,116.18,-0.068597,0.022866,-1.3058,-0.091462,-4.2369e-08,-0.65292,0,0,0.2,-0,-0,0.66667
0.22048,0.35625,1.1024,-0.21562,-6.7227,80.505,0.63387,-0.21129,-1.8347,0.84516,2.0166e-10,-0.91737,0,0,0.2,4.737e-16,0,0.66667
0.79727,0.76274,3.9864,0.39411,4.6202,8.0981,-4.1895,1.3965,-1.4484,-5.5861,3.5332e-10,-0.72419,0,0,0.2,-0,-0,0.66667
0.78697,0.43065,3.9349,-0.10403,-1.2605,8.5544,1.0916,-0.36385,-1.961,1.4554,-9.6522e-11,-0.98048,0,0,0.2,-4.737e-16,0,0.66667
0.80166,0.25381,4.0083,-0.36928,-4.2355,7.7707,3.9472,-1.3157,-1.5152,5.263,-3.897e-10,-0.75758,0,0,0.2,-0,-0,0.66667
0.0078286,0.73778,0.039143,0.35666,11.727,116.84,-0.037229,0.01241,-1.5465,-0.049639,-2.8399e-08,-0.77327,0,0,0.2,7.4015e-18,0,0.66667
0.041346,0.66354,0.20673,0.2453,8.035,111.02,-0.13523,0.045077,-1.7855,-0.18031,2.7951e-08,-0.89273,0,0,0.2,-0,-0,0.66667
0.073826,0.71318,0.36913,0.31977,10.448,105.41,-0.31476,0.10492,-1.6363,-0.41968,4.3106e-09,-0.81816,0,0,0.2,-0,-0,0.66667
0.87375,0.85433,4.3687,0.53149,4.0368,3.9876,-6.1919,2.064,-0.99597,-8.2559,1.2208e-09,-0.49798,0,0,0.2,-0,-2.7147e-17,0.66667
0.47744,0.18345,2.3872,-0.47483,-12.054,41.525,3.0227,-1.0076,-1.1981,4.0302,-3.2285e-13,-0.59904,0,0,0.2,4.737e-16,0,0.66667
0.73172,0.38486,3.6586,-0.17272,-2.5793,12.872,1.6851,-0.56169,-1.8938,2.2468,-3.5139e-11,-0.9469,0,0,0.2,-0,-0,0.66667
0.21832,0.011827,1.0916,-0.73226,-23.225,81.1,2.1315,-0.71051,-0.094164,2.842,5.6006e-11,-0.047082,0,0,0.2,-0,-0,0.66667
0.66983,0.74717,3.3492,0.37076,6.6502,18.712,-3.3112,1.1037,-1.5123,-4.415,-1.7322e-12,-0.75613,0,0,0.2,-0,-0,0.66667
0.44403,0.31563,2.2201,-0.27655,-7.2616,45.984,1.6373,-0.54577,-1.728,2.1831,-6.6036e-13,-0.86398,0,0,0.2,-0,-0,0.66667
0.98864,0.26339,4.9432,-0.35492,-0.10659,0.37863,4.6785,-1.5595,-1.5513,6.238,-2.4774e-08,-0.77566,0,0,0.2,-1.8948e-15,0,0.66667
0.28625,0.46239,1.4312,-0.05642,-1.6938,69.764,0.21533,-0.071778,-1.9883,0.28711,6.9661e-12,-0.99415,0,0,0.2,-0,-0,0.66667
0.10849,0.67679,0.54247,0.26519,8.6002,99.432,-0.38362,0.12787,-1.7505,-0.51149,-1.4025e-09,-0.87524,0,0,0.2,-0,-0,0.66667
0.5469,0.11601,2.7345,-0.57598,-13.319,32.661,4.2001,-1.4,-0.82151,5.6001,5.5111e-13,-0.41075,0,0,0.2,-0,-0,0.66667
0.68117,0.99277,3.4059,0.73916,13.194,18.227,-6.7133,2.2378,-0.056721,-8.951,1.7231e-13,-0.02836,0,0,0.2,-1.4211e-15,0,0.66667
0.13472,0.42222,0.6736,-0.11667,-3.752,94.927,0.20957,-0.069856,-1.9505,0.27943,1.4237e-09,-0.97524,0,0,0.2,7.7307e-17,0,0.66667
0.53924,0.84777,2.6962,0.52165,12.175,33.538,-3.7506,1.2502,-1.0321,-5.0009,3.1886e-13,-0.51607,0,0,0.2,-1.8948e-15,0,0.66667
0.74439,0.19068,3.722,-0.46399,-6.729,12.128,4.6052,-1.5351,-1.2345,6.1402,-3.8821e-11,-0.61727,0,0,0.2,-1.8948e-15,0,0.66667
0.11184,0.55352,0.55922,0.080277,2.5961,98.841,-0.11971,0.039904,-1.9771,-0.15962,-4.9278e-09,-0.98855,0,0,0.2,-0,-0,0.66667
0.78567,0.93562,3.9284,0.65343,8.2442,9.3728,-6.8451,2.2817,-0.48234,-9.1268,4.2122e-11,-0.24117,0,0,0.2,1.4211e-15,0,0.66667
0.54416,0.41552,2.7208,-0.12671,-2.9013,32.618,0.91937,-0.30646,-1.9428,1.2258,6.8495e-13,-0.97141,0,0,0.2,-9.4739e-16,0,0.66667
0.010525,0.60215,0.052623,0.15322,5.0211,116.37,-0.021501,0.0071671,-1.9159,-0.028668,6.7538e-08,-0.95794,0,0,0.2,2.9606e-17,0,0.66667
0.5891,0.8754,2.9455,0.5631,12.113,27.611,-4.4229,1.4743,-0.87333,-5.8972,-9.5657e-13,-0.43666,0,0,0.2,-0,-0,0.66667
0.80467,0.79198,4.0234,0.43798,4.9779,7.6715,-4.699,1.5663,-1.3169,-6.2654,3.9835e-10,-0.65844,0,0,0.2,-0,-0,0.66667
0.99094,0.46195,4.9547,-0.05707,-0.001199,0.08495,0.75404,-0.25135,-1.9878,1.0054,1.898e-06,-0.99388,0,0,0.2,5.8676e-16,0,0.66667
0.99131,0.64842,4.9565,0.22264,0.010002,0.18329,-2.9427,0.98089,-1.823,-3.9236,1.4511e-08,-0.91148,0,0,0.2,-0,-0,0.66667
0.41395,0.13027,2.0698,-0.55459,-15.172,50.494,3.061,-1.0203,-0.9059,4.0813,-9.6345e-13,-0.45295,0,0,0.2,-0,-0,0.66667
0.037335,0.10977,0.18668,-0.58534,-19.351,111.74,0.29138,-0.097127,-0.78064,0.38851,2.3122e-07,-0.39032,0,0,0.2,1.4998e-17,0,0.66667
0.97041,0.53089,4.8521,0.04634,0.063126,0.35867,-0.59958,0.19986,-1.994,-0.79944,2.3873e-06,-0.99701,0,0,0.2,1.0066e-15,0,0.66667
0.22054,0.39546,1.1027,-0.15682,-4.8855,80.484,0.46112,-0.15371,-1.9127,0.61483,1.582e-10,-0.95634,0,0,0.2,-2.3685e-16,0,0.66667
0.95501,0.65072,4.7751,0.22608,0.54292,0.7594,-2.8788,0.9596,-1.8189,-3.8384,-2.1141e-08,-0.90945,0,0,0.2,-0,-0,0.66667
0.96537,0.38426,4.8269,-0.17361,-0.29798,0.50747,2.2346,-0.74486,-1.8925,2.9794,3.8207e-08,-0.94627,0,0,0.2,-1.8948e-15,0,0.66667
0.32834,0.055942,1.6417,-0.66609,-19.727,63.436,2.916,-0.972,-0.42375,3.888,-8.4466e-13,-0.21188,0,0,0.2,4.737e-16,0,0.66667
0.76276,0.99924,3.8138,0.74887,10.438,11.27,-7.616,2.5387,-0.0071597,-10.155,-8.8414e-12,-0.0035798,0,0,0.2,5.9212e-17,-2.2371e-17,0.66667
0.63192,0.10669,3.1596,-0.58996,-11.681,22.906,4.9708,-1.6569,-0.76129,6.6277,1.5006e-12,-0.38065,0,0,0.2,-9.4739e-16,0,0.66667
0.84643,0.89218,4.2322,0.58827,5.4282,5.4681,-6.6391,2.213,-0.76921,-8.8521,-5.6883e-11,-0.3846,0,0,0.2,-0,-0,0.66667
0.9544,0.37234,4.772,-0.19148,-0.46443,0.74207,2.4367,-0.81223,-1.871,3.2489,-4.8322e-08,-0.93549,0,0,0.2,2.1316e-15,0,0.66667
0.2058,0.9087,1.029,0.61306,19.451,83.092,-1.6823,0.56075,-0.66453,-2.243,-1.1417e-10,-0.33226,0,0,0.2,4.737e-16,0,0.66667
0.40934,0.34792,2.0467,-0.22812,-6.2092,50.929,1.2451,-0.41503,-1.8154,1.6601,-2.2291e-12,-0.90769,0,0,0.2,-0,-0,0.66667
0.72856,0.051773,3.6428,-0.67234,-10.438,13.824,6.5312,-2.1771,-0.39179,8.7082,-8.9839e-13,-0.1959,0,0,0.2,-0,-0,0.66667
0.58992,0.70393,2.9496,0.30589,6.4992,27.224,-2.406,0.802,-1.6666,-3.208,-1.6307e-12,-0.8333,0,0,0.2,-0,-0,0.66667
0.9412,0.40722,4.706,-0.13917,-0.45114,1.022,1.7464,-0.58215,-1.932,2.3286,-1.2889e-07,-0.96598,0,0,0.2,-3.7896e-15,0,0.66667
0.44689,0.077457,2.2344,-0.63381,-16.802,45.905,3.7766,-1.2589,-0.5705,5.0354,-4.9138e-13,-0.28525,0,0,0.2,-9.4739e-16,0,0.66667
0.61758,0.92022,3.0879,0.63033,12.889,24.521,-5.1904,1.7301,-0.5861,-6.9206,-4.9738e-13,-0.29305,0,0,0.2,-9.4739e-16,0,0.66667
0.082488,0.1309,0.41244,-0.55365,-18.183,103.95,0.60893,-0.20298,-0.90992,0.81191,3.4667e-08,-0.45496,0,0,0.2,-0,-0,0.66667
0.23041,0.76424,1.1521,0.39636,12.344,78.92,-1.2177,0.40589,-1.4407,-1.6236,-1.4519e-10,-0.72034,0,0,0.2,-0,-0,0.66667
0.12199,0.112,0.60993,-0.582,-18.976,97.192,0.94661,-0.31554,-0.79522,1.2622,1.7515e-09,-0.39761,0,0,0.2,-0,-4.0982e-17,0.66667
0.76669,0.71463,3.8334,0.32194,4.2701,10.196,-3.291,1.097,-1.6327,-4.3881,1.4646e-10,-0.81634,0,0,0.2,-9.4739e-16,0,0.66667
0.019268,0.29361,0.096342,-0.30959,-10.166,114.85,0.079538,-0.026513,-1.6586,0.10605,-4.588e-10,-0.82931,0,0,0.2,-0,-0,0.66667
0.941,0.45598,4.705,-0.066025,-0.21382,0.99582,0.82839,-0.27613,-1.9839,1.1045,-1.8388e-07,-0.99197,0,0,0.2,-0,-0,0.66667
0.83589,0.039249,4.1794,-0.69113,-6.8801,6.2929,7.7027,-2.5676,-0.30083,10.27,4.4638e-10,-0.15041,0,0,0.2,-0,-0,0.66667
0.67901,0.97084,3.395,0.70627,12.641,18.361,-6.3942,2.1314,-0.2265,-8.5255,-1.1102e-13,-0.11325,0,0,0.2,-0,-0,0.66667
0.02865,0.93276,0.14325,0.64913,21.525,113.24,-0.24797,0.082656,-0.50227,-0.33063,-6.6572e-07,-0.25113,0,0,0.2,1.4803e-17,0,0.66667
0.2579,0.43741,1.2895,-0.093888,-2.8675,74.343,0.32285,-0.10762,-1.9691,0.43046,3.3837e-11,-0.98455,0,0,0.2,1.7949e-16,0,0.66667
0.13628,0.84959,0.68141,0.52439,16.999,94.739,-0.95287,0.31762,-1.0221,-1.2705,-4.7037e-09,-0.51105,0,0,0.2,-0,-0,0.66667
0.7107,0.32717,3.5535,-0.25925,-4.1436,14.759,2.4566,-0.81887,-1.7598,3.2755,-1.5905e-11,-0.8799,0,0,0.2,9.4739e-16,0,0.66667
0.069466,0.086263,0.34733,-0.62061,-20.473,106.2,0.57481,-0.1916,-0.62981,0.76642,5.9909e-08,-0.3149,0,0,0.2,-5.9212e-17,0,0.66667
0.88989,0.4529,4.4494,-0.070649,-0.44922,2.7364,0.83826,-0.27942,-1.9827,1.1177,-2.2983e-09,-0.99134,0,0,0.2,-0,-0,0.66667
0.55437,0.26041,2.7718,-0.35939,-8.1365,31.497,2.6565,-0.88549,-1.5397,3.5419,9.0727e-13,-0.76985,0,0,0.2,-0,-0,0.66667
0.10339,0.14302,0.51695,-0.53547,-17.505,100.36,0.73816,-0.24605,-0.97941,0.98422,2.5347e-09,-0.48971,0,0,0.2,-0,-0,0.66667
0.46053,0.62673,2.3026,0.1901,4.8889,43.641,-1.1673,0.38909,-1.8716,-1.5564,4.0945e-13,-0.93581,0,0,0.2,-1.8948e-15,0,0.66667
0.14199,0.44494,0.70993,-0.082593,-2.65,93.686,0.15636,-0.05212,-1.9764,0.20848,1.792e-09,-0.98818,0,0,0.2,-0,-0,0.66667
0.42314,0.39424,2.1157,-0.15863,-4.2526,48.906,0.895,-0.29833,-1.9108,1.1933,-1.2709e-12,-0.9554,0,0,0.2,-0,-0,0.66667
0.71387,0.435,3.5694,-0.097497,-1.5378,14.385,0.92801,-0.30934,-1.9664,1.2373,-1.0877e-11,-0.98322,0,0,0.2,4.737e-16,0,0.66667
0.69629,0.95678,3.4815,0.68517,11.7,16.694,-6.3611,2.1204,-0.32969,-8.4814,-1.4211e-13,-0.16484,0,0,0.2,-9.4739e-16,0,0.66667
0.34815,0.67045,1.7407,0.25567,7.3575,60.098,-1.1868,0.3956,-1.7667,-1.5824,1.7645e-12,-0.88337,0,0,0.2,4.737e-16,0,0.66667
0.34876,0.60419,1.7438,0.15629,4.4887,59.973,-0.72676,0.24225,-1.9124,-0.96901,1.3695e-12,-0.95618,0,0,0.2,-0,-0,0.66667
0.076125,0.95097,0.38062,0.67645,22.344,105.07,-0.68659,0.22886,-0.37295,-0.91545,-8.0078e-08,-0.18648,0,0,0.2,-1.1842e-16,0,0.66667
0.087513,0.65898,0.43756,0.23848,7.7632,103.04,-0.27826,0.092754,-1.7978,-0.37101,-7.4039e-09,-0.8989,0,0,0.2,-2.3685e-16,0,0.66667
0.049881,0.17337,0.24941,-0.48995,-16.127,109.56,0.32586,-0.10862,-1.146,0.43448,-3.3952e-08,-0.57301,0,0,0.2,5.9212e-17,0,0.66667
0.074476,0.088519,0.37238,-0.61722,-20.344,105.34,0.61291,-0.2043,-0.64555,0.81721,1.5702e-07,-0.32278,0,0,0.2,-0,6.6376e-18,0.66667
0.38509,0.84141,1.9254,0.51212,14.38,54.682,-2.6295,0.8765,-1.0676,-3.506,1.6582e-12,-0.53382,0,0,0.2,1.1842e-16,0,0.66667
0.81637,0.95834,4.0819,0.68751,7.5796,7.4341,-7.4835,2.4945,-0.31887,-9.978,2.5201e-10,-0.15944,0,0,0.2,-9.4739e-16,0,0.66667
0.34118,0.49237,1.7059,-0.01145,-0.33057,61.121,0.052088,-0.017363,-1.9996,0.069451,-3.6161e-13,-0.99982,0,0,0.2,-7.1054e-16,0,0.66667
0.50612,0.15198,2.5306,-0.52203,-12.787,37.765,3.5228,-1.1743,-1.0308,4.697,1.863e-13,-0.51541,0,0,0.2,-1.7401e-16,0,0.66667
0.62349,0.73148,3.1174,0.34721,6.9155,23.496,-2.8865,0.96215,-1.5715,-3.8486,-2.6004e-12,-0.78574,0,0,0.2,-0,-0,0.66667
0.58529,0.71946,2.9264,0.3292,7.0592,27.78,-2.569,0.85633,-1.615,-3.4253,-1.6129e-12,-0.8075,0,0,0.2,-0,-0,0.66667
0.13388,0.96206,0.66938,0.69309,22.63,95.21,-1.2372,0.41239,-0.29134,-1.6496,3.6419e-10,-0.14567,0,0,0.2,2.3685e-16,0,0.66667
0.61941,0.69096,3.0971,0.28644,5.7419,23.887,-2.3656,0.78855,-1.7082,-3.1542,-2.1174e-12,-0.85412,0,0,0.2,-1.8948e-15,0,0.66667
0.52236,0.29755,2.6118,-0.30367,-7.2123,35.46,2.115,-0.705,-1.6709,2.82,4.4942e-13,-0.83546,0,0,0.2,-6.1859e-16,0,0.66667
0.75148,0.084566,3.7574,-0.62315,-8.9289,11.85,6.2438,-2.0813,-0.6197,8.325,-8.4093e-12,-0.30985,0,0,0.2,-0,-0,0.66667
0.67568,0.23686,3.3784,-0.39471,-6.9839,18.167,3.556,-1.1853,-1.4454,4.7413,1.1688e-12,-0.72269,0,0,0.2,-0,-0,0.66667
0.47896,0.36711,2.3948,-0.19933,-5.0121,41.122,1.273,-0.42432,-1.8581,1.6973,-6.8301e-13,-0.92904,0,0,0.2,-0,-0,0.66667
0.95613,0.64978,4.7807,0.22466,0.5233,0.73396,-2.8641,0.9547,-1.8206,-3.8188,-1.7728e-08,-0.91032,0,0,0.2,4.737e-16,0,0.66667
0.26092,0.3591,1.3046,-0.21135,-6.452,73.873,0.73528,-0.24509,-1.8402,0.98037,5.064e-11,-0.92012,0,0,0.2,-0,-0,0.66667
0.71065,0.80208,3.5532,0.45312,7.3084,14.982,-4.2935,1.4312,-1.2689,-5.7246,7.105e-12,-0.63446,0,0,0.2,9.4739e-16,0,0.66667
0.20164,0.60542,1.0082,0.15812,4.9683,83.626,-0.42512,0.14171,-1.9113,-0.56683,-2.2935e-10,-0.95565,0,0,0.2,-0,-0,0.66667
0.66362,0.81815,3.3181,0.47722,8.7363,19.463,-4.2226,1.4075,-1.1897,-5.6301,-2.6983e-12,-0.59485,0,0,0.2,-0,-0,0.66667
0.24952,0.23314,1.2476,-0.4003,-12.346,75.793,1.3317,-0.44391,-1.4308,1.7756,7.0013e-11,-0.71541,0,0,0.2,-0,-0,0.66667
0.20625,0.31008,1.0312,-0.28489,-8.9501,82.884,0.78343,-0.26114,-1.7121,1.0446,3.3656e-10,-0.85607,0,0,0.2,-0,-0,0.66667
0.37017,0.025093,1.8509,-0.71236,-20.451,57.113,3.5159,-1.172,-0.19538,4.6879,1.199e-13,-0.09769,0,0,0.2,4.737e-16,0,0.66667
0.50886,0.39287,2.5443,-0.16069,-3.88,37.13,1.0902,-0.36342,-1.907,1.4537,-2.438e-13,-0.95351,0,0,0.2,9.4739e-16,0,0.66667
0.68093,0.94056,3.4046,0.66084,11.728,18.084,-5.9998,1.9999,-0.44715,-7.9997,-6.1284e-13,-0.22357,0,0,0.2,-0,-0,0.66667
0.3096,0.69843,1.548,0.29764,8.8241,66.112,-1.2286,0.40955,-1.6847,-1.6382,-3.8896e-12,-0.84236,0,0,0.2,-0,-0,0.66667
0.38234,0.014758,1.9117,-0.72786,-20.691,55.319,3.7105,-1.2368,-0.11508,4.9474,-4.4276e-13,-0.057542,0,0,0.2,-0,-0,0.66667
0.76093,0.98273,3.8046,0.7241,10.133,11.347,-7.3465,2.4488,-0.13486,-9.7953,2.9483e-12,-0.067432,0,0,0.2,-0,-0,0.66667
0.33003,0.69773,1.6502,0.29659,8.6636,62.913,-1.3051,0.43504,-1.6873,-1.7402,6.9145e-13,-0.84367,0,0,0.2,-0,-0,0.66667
0.063799,0.90406,0.319,0.60609,19.998,107.18,-0.51557,0.17186,-0.69533,-0.68743,5.8444e-08,-0.34766,0,0,0.2,1.4803e-16,0,0.66667
0.046104,0.46968,0.23052,-0.045476,-1.4862,110.19,0.027955,-0.009319,-1.9946,0.037273,-8.4198e-07,-0.99728,0,0,0.2,-0,-0,0.66667
0.13493,0.090602,0.67463,-0.6141,-19.979,95.001,1.1048,-0.36825,-0.65913,1.473,1.1047e-08,-0.32957,0,0,0.2,-2.9606e-16,0,0.66667
0.46952,0.8339,2.3476,0.50085,12.853,42.628,-3.1354,1.0451,-1.1087,-4.1805,2.7978e-13,-0.55437,0,0,0.2,-0,-0,0.66667
0.3841,0.41569,1.9205,-0.12647,-3.522,54.618,0.64769,-0.2159,-1.9422,0.86359,-1.0102e-12,-0.9711,0,0,0.2,-0,-0,0.66667
0.6752,0.17222,3.376,-0.49167,-8.7539,18.342,4.4264,-1.4755,-1.1399,5.9018,1.8532e-12,-0.56995,0,0,0.2,9.4739e-16,0,0.66667
0.095395,0.35155,0.47697,-0.22268,-7.2366,101.68,0.28323,-0.09441,-1.8241,0.37764,1.8648e-09,-0.91207,0,0,0.2,-0,-0,0.66667
0.1618,0.388,0.80902,-0.168,-5.3602,90.326,0.36243,-0.12081,-1.8986,0.48324,4.9597e-10,-0.94931,0,0,0.2,-0,-0,0.66667
0.96914,0.34178,4.8457,-0.23733,-0.35608,0.49691,3.0667,-1.0222,-1.8016,4.089,-1.1626e-08,-0.90081,0,0,0.2,-9.4739e-16,0,0.66667
0.42449,0.22941,2.1224,-0.40589,-10.924,48.845,2.2973,-0.76576,-1.4141,3.063,-1.6502e-12,-0.70703,0,0,0.2,-0,-0,0.66667
0.91605,0.32726,4.5803,-0.25911,-1.2562,1.873,3.1648,-1.0549,-1.7602,4.2198,-8.8278e-10,-0.88008,0,0,0.2,-1.8948e-15,0,0.66667
0.23435,0.3619,1.1717,-0.20714,-6.414,78.214,0.64725,-0.21575,-1.8483,0.863,1.2614e-10,-0.92413,0,0,0.2,-0,-0,0.66667
0.98255,0.069165,4.9127,-0.64625,-0.64828,1.086,8.4663,-2.8221,-0.51556,11.288,4.1817e-07,-0.25778,0,0,0.2,-0,-0,0.66667
0.12649,0.55562,0.63244,0.083424,2.6883,96.331,-0.1407,0.046899,-1.9759,-0.18759,3.3072e-09,-0.98794,0,0,0.2,-0,-0,0.66667
0.77992,0.33681,3.8996,-0.24479,-3.0687,9.1429,2.5456,-0.84852,-1.7876,3.3941,-2.1758e-10,-0.89381,0,0,0.2,-9.4739e-16,0,0.66667
0.98063,0.98689,4.9032,0.73033,0.91182,1.3616,-9.5491,3.183,-0.10288,-12.732,-3.7771e-06,-0.051442,0,0,0.2,1.8948e-15,0,0.66667
0.48703,0.91383,2.4351,0.62075,15.67,40.408,-4.0309,1.3436,-0.63004,-5.3746,-2.4425e-13,-0.31502,0,0,0.2,-0,-0,0.66667
0.48989,0.0087591,2.4494,-0.73686,-18.653,40.199,4.813,-1.6043,-0.068718,6.4174,2.0872e-14,-0.034359,0,0,0.2,-0,-0,0.66667
0.17515,0.1629,0.87573,-0.50564,-16.177,88.161,1.1808,-0.39361,-1.0909,1.5744,5.9033e-10,-0.54547,0,0,0.2,-4.737e-16,0,0.66667
0.60894,0.28507,3.0447,-0.32239,-6.6083,25.076,2.6176,-0.87253,-1.632,3.4901,2.1949e-12,-0.81599,0,0,0.2,1.8948e-15,0,0.66667
0.24288,0.012775,1.2144,-0.73084,-22.903,77.078,2.3668,-0.78892,-0.099723,3.1557,1.1795e-11,-0.049862,0,0,0.2,-0,-0,0.66667
0.7168,0.099254,3.584,-0.60112,-9.6168,14.687,5.7451,-1.915,-0.71584,7.6601,-1.0694e-12,-0.35792,0,0,0.2,-1.8948e-15,1.4483e-16,0.66667
0.47407,0.30264,2.3703,-0.29604,-7.5044,41.837,1.8712,-0.62374,-1.6876,2.4949,-8.9473e-13,-0.8438,0,0,0.2,4.737e-16,0,0.66667
0.23239,0.26393,1.1619,-0.35411,-11.006,78.579,1.0972,-0.36574,-1.5541,1.4629,1.4239e-10,-0.77703,0,0,0.2,-0,-0,0.66667
0.46068,0.37624,2.3034,-0.18563,-4.7729,43.618,1.1402,-0.38008,-1.8777,1.5203,-7.2076e-13,-0.93884,0,0,0.2,-0,-0,0.66667
0.024607,0.50149,0.12304,0.002233,0.073084,113.92,-0.00073256,0.00024896,-2.0002,-0.00097436,7.1532e-06,-1.0001,0,0,0.2,-0,-0,0.66667
0.097131,0.43378,0.48566,-0.099325,-3.2227,101.37,0.12863,-0.042878,-1.9653,0.17151,-7.1404e-10,-0.98266,0,0,0.2,-0,-0,0.66667
0.10145,0.42528,0.50727,-0.11208,-3.6335,100.63,0.15161,-0.050537,-1.9542,0.20215,1.0995e-08,-0.97709,0,0,0.2,-0,-0,0.66667
0.38922,0.12442,1.9461,-0.56338,-15.791,54.118,2.9237,-0.97457,-0.8732,3.8983,-1.3662e-12,-0.4366,0,0,0.2,-6.5133e-16,0,0.66667
0.71597,0.010907,3.5798,-0.73364,-11.901,15.041,7.0035,-2.3345,-0.086056,9.338,5.9686e-13,-0.043028,0,0,0.2,-3.7896e-15,2.1525e-16,0.66667
0.052882,0.3437,0.26441,-0.23445,-7.6697,109.02,0.16531,-0.055103,-1.8051,0.22041,1.1266e-08,-0.90256,0,0,0.2,5.5742e-17,0,0.66667
0.012488,0.55875,0.06244,0.088124,2.8863,116.02,-0.014674,0.0048908,-1.9729,-0.019566,-8.1889e-07,-0.98643,0,0,0.2,-1.8504e-17,0,0.66667
0.14747,0.85479,0.73735,0.53219,17.2,92.842,-1.0464,0.34881,-0.9919,-1.3952,-1.5913e-09,-0.49595,0,0,0.2,-2.3685e-16,0,0.66667
0.93668,0.72859,4.6834,0.34288,1.2435,1.3475,-4.2823,1.4274,-1.5826,-5.7097,-9.0579e-09,-0.7913,0,0,0.2,-0,-0,0.66667
0.86574,0.22478,4.3287,-0.41283,-3.2793,4.149,4.7653,-1.5884,-1.3935,6.3537,-3.4033e-09,-0.69676,0,0,0.2,-0,-0,0.66667
0.40252,0.88777,2.0126,0.58166,16.112,52.182,-3.1217,1.0406,-0.79643,-4.1623,8.189e-13,-0.39821,0,0,0.2,-0,-0,0.66667
0.16129,0.76328,0.80647,0.39492,12.655,90.459,-0.84932,0.28311,-1.4445,-1.1324,-1.2972e-09,-0.72225,0,0,0.2,-2.3685e-16,0,0.66667
0.35482,0.79219,1.7741,0.43828,12.602,59.177,-2.0735,0.69117,-1.3163,-2.7647,2.3488e-12,-0.65814,0,0,0.2,9.4739e-16,0,0.66667
0.93483,0.33782,4.6742,-0.24327,-0.89545,1.277,3.0322,-1.0107,-1.7899,4.0429,7.735e-09,-0.89494,0,0,0.2,1.4211e-15,0,0.66667
0.64355,0.88129,3.2177,0.57194,11.029,21.653,-4.9076,1.6359,-0.83708,-6.5435,-1.6187e-12,-0.41854,0,0,0.2,-0,-0,0.66667
0.47107,0.8897,2.3553,0.58454,15.027,42.511,-3.6715,1.2238,-0.78486,-4.8953,1.9273e-13,-0.39243,0,0,0.2,-9.4739e-16,0,0.66667
0.40237,0.24072,2.0118,-0.38892,-10.699,52.037,2.0865,-0.6955,-1.4618,2.782,-2.0346e-12,-0.73088,0,0,0.2,-0,-0,0.66667
0.89655,0.85186,4.4828,0.52779,3.2961,3.0097,-6.3092,2.1031,-1.0088,-8.4122,1.1038e-08,-0.50442,0,0,0.2,-0,-0,0.66667
0.97347,0.04841,4.8674,-0.67739,-1.1092,1.2968,8.7922,-2.9307,-0.36762,11.723,5.2253e-06,-0.18381,0,0,0.2,-0,-0,0.66667
0.77868,0.38502,3.8934,-0.17247,-2.1679,9.181,1.7907,-0.59689,-1.8941,2.3875,-1.5735e-10,-0.94706,0,0,0.2,-0,-0,0.66667
0.83334,0.52676,4.1667,0.040142,0.38549,5.5554,-0.44603,0.14868,-1.9941,-0.5947,-5.3889e-10,-0.99706,0,0,0.2,-9.4739e-16,0,0.66667
0.30709,0.11486,1.5354,-0.57771,-17.304,66.674,2.3655,-0.78849,-0.81247,3.154,-7.5917e-13,-0.40624,0,0,0.2,2.3685e-16,0,0.66667
0.93952,0.32229,4.6976,-0.26656,-0.90647,1.1742,3.3392,-1.1131,-1.7475,4.4523,8.7619e-09,-0.87373,0,0,0.2,-0,-0,0.66667
0.4527,0.30996,2.2635,-0.28506,-7.4124,44.774,1.7206,-0.57354,-1.7129,2.2941,-7.4374e-13,-0.85643,0,0,0.2,2.5245e-16,0,0.66667
0.17931,0.46583,0.89653,-0.05126,-1.624,87.361,0.12255,-0.04085,-1.9905,0.1634,4.0983e-10,-0.99527,0,0,0.2,2.9606e-16,0,0.66667
0.5963,0.74654,2.9815,0.36981,7.7806,26.548,-2.9403,0.98009,-1.5144,-3.9204,-1.5814e-12,-0.75722,0,0,0.2,-1.4211e-15,0,0.66667
0.6841,0.58017,3.4205,0.12026,2.0642,17.14,-1.0969,0.36563,-1.948,-1.4625,2.2131e-12,-0.97401,0,0,0.2,-0,-0,0.66667
0.43734,0.13403,2.1867,-0.54895,-14.65,47.146,3.201,-1.067,-0.92957,4.2681,-6.7346e-13,-0.46478,0,0,0.2,-0,2.1451e-16,0.66667
0.37334,0.74478,1.8667,0.36716,10.37,56.329,-1.8277,0.60924,-1.5214,-2.437,2.6091e-12,-0.76072,0,0,0.2,-4.737e-16,0,0.66667
0.70431,0.47125,3.5216,-0.04312,-0.69927,15.233,0.40494,-0.13498,-1.9948,0.53991,-2.773e-12,-0.9974,0,0,0.2,-0,-0,0.66667
0.25974,0.13312,1.2987,-0.55031,-16.958,74.213,1.9059,-0.63529,-0.92249,2.5411,1.4921e-11,-0.46124,0,0,0.2,-0,-0,0.66667
0.68635,0.86072,3.4317,0.54109,9.3885,17.35,-4.9517,1.6506,-0.95926,-6.6022,-1.271e-12,-0.47963,0,0,0.2,-9.4739e-16,-6.9884e-17,0.66667
0.57492,0.71539,2.8746,0.32308,7.0562,28.993,-2.4766,0.82554,-1.6294,-3.3022,-1.3791e-12,-0.81469,0,0,0.2,-0,-0,0.66667
0.33501,0.38039,1.675,-0.17942,-5.2107,62.1,0.80141,-0.26714,-1.8851,1.0685,6.1673e-14,-0.94253,0,0,0.2,-9.4739e-16,0,0.66667
0.67669,0.88759,3.3835,0.58139,10.37,18.342,-5.2456,1.7485,-0.7973,-6.9941,-1.9016e-12,-0.39865,0,0,0.2,1.8948e-15,0,0.66667
0.042896,0.13669,0.21448,-0.54496,-17.982,110.77,0.31169,-0.1039,-0.9434,0.41558,-1.0871e-07,-0.4717,0,0,0.2,-0,-0,0.66667
0.54883,0.72644,2.7441,0.33966,7.7543,32.161,-2.4855,0.82852,-1.5901,-3.3141,-3.9679e-13,-0.79506,0,0,0.2,-0,-0,0.66667
0.5956,0.042348,2.978,-0.68648,-14.7,27.071,5.4515,-1.8172,-0.32452,7.2687,1.5099e-14,-0.16226,0,0,0.2,-0,-0,0.66667
0.28722,0.63992,1.4361,0.20988,6.3059,69.634,-0.80374,0.26791,-1.8423,-1.0717,-1.6887e-11,-0.92113,0,0,0.2,-0,-0,0.66667
0.35628,0.8629,1.7814,0.54435,15.692,59.038,-2.5859,0.86197,-0.94599,-3.4479,2.0712e-12,-0.473,0,0,0.2,-0,-0,0.66667
0.86302,0.97445,4.3151,0.71167,6.0126,4.9261,-8.1892,2.7297,-0.19921,-10.919,3.1709e-10,-0.099606,0,0,0.2,1.8948e-15,0,0.66667
0.61937,0.28437,3.0969,-0.32345,-6.492,23.923,2.6711,-0.89038,-1.628,3.5615,2.5442e-12,-0.81401,0,0,0.2,-0,-0,0.66667
0.63994,0.61974,3.1997,0.17961,3.4365,21.61,-1.5326,0.51086,-1.8865,-2.0434,-1.8723e-12,-0.94325,0,0,0.2,-0,-0,0.66667
0.10461,0.96779,0.52305,0.70168,23.082,100.2,-0.97871,0.32624,-0.24998,-1.3049,-8.0256e-08,-0.12499,0,0,0.2,2.8126e-16,0,0.66667
0.23792,0.6579,1.1896,0.23685,7.3238,77.634,-0.75135,0.25045,-1.8013,-1.0018,-1.2001e-10,-0.90063,0,0,0.2,-0,-0,0.66667
0.71928,0.009716,3.5964,-0.73543,-11.815,14.758,7.053,-2.351,-0.077737,9.404,-1.0472e-12,-0.038869,0,0,0.2,-0,-0,0.66667
0.69947,0.16882,3.4973,-0.49677,-8.2947,16.057,4.633,-1.5443,-1.122,6.1773,-1.6396e-12,-0.56098,0,0,0.2,1.8948e-15,0,0.66667
0.44662,0.39028,2.2331,-0.16458,-4.3002,45.57,0.98005,-0.32668,-1.9025,1.3067,-9.0372e-13,-0.95125,0,0,0.2,-0,-0,0.66667
0.039252,0.45917,0.19626,-0.06124,-2.0027,111.38,0.032051,-0.010684,-1.9857,0.042734,-6.2282e-07,-0.99284,0,0,0.2,-0,-0,0.66667
0.050396,0.52244,0.25198,0.033667,1.0998,109.45,-0.022622,0.0075408,-1.9957,-0.030163,8.3514e-08,-0.99783,0,0,0.2,-0,-0,0.66667
0.088504,0.63435,0.44252,0.20153,6.5558,102.86,-0.23781,0.07927,-1.8548,-0.31708,1.3943e-08,-0.92742,0,0,0.2,-0,-0,0.66667
0.86433,0.31429,4.3216,-0.27857,-2.2086,4.0392,3.2103,-1.0701,-1.7245,4.2804,-2.142e-09,-0.86223,0,0,0.2,3.7896e-15,0,0.66667
0.13609,0.1409,0.68047,-0.53865,-17.47,94.776,0.97744,-0.32581,-0.96747,1.3033,4.6933e-10,-0.48374,0,0,0.2,2.3685e-16,0,0.66667
0.65826,0.20135,3.2913,-0.44797,-8.294,19.961,3.9318,-1.3106,-1.2864,5.2424,2.8402e-12,-0.64318,0,0,0.2,-9.4739e-16,0,0.66667
0.57697,0.18307,2.8848,-0.47539,-10.405,28.907,3.6571,-1.219,-1.1976,4.8762,1.1551e-12,-0.59878,0,0,0.2,2.3685e-16,0,0.66667
0.7266,0.93175,3.633,0.64763,10.095,13.937,-6.2742,2.0914,-0.50815,-8.3656,1.7724e-12,-0.25408,0,0,0.2,4.737e-16,0,0.66667
0.58257,0.65481,2.9128,0.23222,4.9911,28.027,-1.8038,0.60126,-1.8088,-2.4051,-1.2901e-12,-0.9044,0,0,0.2,-1.1842e-15,0,0.66667
0.17942,0.46234,0.89709,-0.056495,-1.7898,87.343,0.13515,-0.04505,-1.988,0.1802,3.6868e-10,-0.994,0,0,0.2,1.1842e-16,0,0.66667
0.73408,0.64469,3.6704,0.21704,3.2201,12.701,-2.1244,0.70812,-1.8333,-2.8325,4.244e-11,-0.91663,0,0,0.2,-0,-0,0.66667
0.59544,0.12312,2.9772,-0.56531,-12.02,26.888,4.4882,-1.4961,-0.86504,5.9842,8.6064e-13,-0.43252,0,0,0.2,-2.3685e-16,0,0.66667
0.54618,0.031394,2.7309,-0.70291,-16.391,32.947,5.1189,-1.7063,-0.24539,6.8252,-1.994e-13,-0.1227,0,0,0.2,-0,-4.3541e-18,0.66667
0.72712,0.81886,3.6356,0.47829,7.3482,13.584,-4.637,1.5457,-1.186,-6.1826,1.7717e-11,-0.593,0,0,0.2,-1.8948e-15,0,0.66667
0.31395,0.7762,1.5697,0.4143,12.281,65.485,-1.7342,0.57808,-1.3906,-2.3123,-3.0898e-13,-0.6953,0,0,0.2,4.737e-16,0,0.66667
0.070608,0.36837,0.35304,-0.19745,-6.4417,105.95,0.18589,-0.061963,-1.8607,0.24785,2.2345e-08,-0.93035,0,0,0.2,-1.1842e-16,0,0.66667
0.088214,0.24035,0.44107,-0.38947,-12.715,102.94,0.45809,-0.1527,-1.4598,0.61079,2.6539e-09,-0.72992,0,0,0.2,-0,-0,0.66667
0.32773,0.16596,1.6386,-0.50106,-14.746,63.39,2.1895,-0.72983,-1.1082,2.9193,-1.2643e-12,-0.55408,0,0,0.2,-0,-1.1253e-16,0.66667
0.23168,0.27243,1.1584,-0.34135,-10.61,78.69,1.0545,-0.35149,-1.5856,1.406,1.4951e-10,-0.79282,0,0,0.2,-2.3685e-16,0,0.66667
0.74822,0.79584,3.7411,0.44375,6.3427,11.79,-4.427,1.4757,-1.2998,-5.9027,5.2856e-11,-0.64991,0,0,0.2,9.4739e-16,0,0.66667
0.60764,0.93684,3.0382,0.65527,13.687,25.661,-5.3089,1.7696,-0.47489,-7.0785,-4.1878e-13,-0.23745,0,0,0.2,-4.1448e-16,-1.9487e-17,0.66667
0.095431,0.94941,0.47716,0.67411,22.19,101.76,-0.85775,0.28592,-0.38436,-1.1437,-3.5515e-08,-0.19218,0,0,0.2,-0,-0,0.66667
0.71985,0.45678,3.5993,-0.064827,-1.0036,13.85,0.62222,-0.20741,-1.9854,0.82962,-9.5605e-12,-0.9927,0,0,0.2,-9.4739e-16,0,0.66667
0.9161,0.98994,4.5805,0.73492,3.9212,2.8343,-8.9767,2.9922,-0.078741,-11.969,4.7548e-08,-0.039371,0,0,0.2,1.8948e-15,0,0.66667
0.82438,0.18212,4.1219,-0.47682,-4.9267,6.5,5.2411,-1.747,-1.1917,6.9881,-6.3792e-10,-0.59583,0,0,0.2,-9.4739e-16,0,0.66667
0.67331,0.43523,3.3665,-0.097159,-1.7147,18.179,0.87224,-0.29075,-1.9678,1.163,-8.9301e-13,-0.9839,0,0,0.2,2.3685e-16,0,0.66667
0.77664,0.41129,3.8832,-0.13306,-1.6849,9.3085,1.3779,-0.4593,-1.9369,1.8372,-1.2528e-10,-0.96846,0,0,0.2,-0,-0,0.66667
0.15012,0.97693,0.75062,0.71539,23.271,92.469,-1.432,0.47732,-0.17957,-1.9093,-1.2425e-09,-0.089785,0,0,0.2,-0,-0,0.66667
0.065513,0.43656,0.32756,-0.095165,-3.1039,106.83,0.083126,-0.027709,-1.9688,0.11084,-2.0953e-08,-0.98441,0,0,0.2,-5.181e-17,0,0.66667
0.74798,0.59705,3.7399,0.14558,2.056,11.517,-1.4519,0.48396,-1.9256,-1.9358,5.7368e-11,-0.96279,0,0,0.2,-0,-0,0.66667
0.98478,0.3791,4.9239,-0.18135,-0.082984,0.21816,2.3811,-0.79371,-1.8846,3.1749,-3.9406e-08,-0.94229,0,0,0.2,3.7896e-15,0,0.66667
0.24024,0.34967,1.2012,-0.22549,-6.963,77.25,0.72231,-0.24077,-1.8187,0.96308,1.0878e-10,-0.90937,0,0,0.2,-0,-0,0.66667
0.56194,0.65792,2.8097,0.23687,5.2781,30.486,-1.7748,0.59159,-1.8024,-2.3664,-1.2599e-12,-0.90118,0,0,0.2,1.8948e-15,0,0.66667
0.080826,0.021624,0.40413,-0.71756,-23.727,104.27,0.7733,-0.25777,-0.16912,1.0311,1.1484e-07,-0.084562,0,0,0.2,1.1842e-16,0,0.66667
0.56119,0.93798,2.8059,0.65697,14.913,31.045,-4.9158,1.6386,-0.46715,-6.5544,-2.2915e-13,-0.23358,0,0,0.2,1.8948e-15,-1.4344e-17,0.66667
0.45044,0.053266,2.2522,-0.6701,-17.726,45.458,4.0245,-1.3415,-0.40334,5.366,-5.1203e-13,-0.20167,0,0,0.2,-4.737e-16,-1.9722e-16,0.66667
0.24055,0.17723,1.2028,-0.48416,-15.04,77.297,1.5529,-0.51763,-1.1656,2.0705,6.7482e-11,-0.58279,0,0,0.2,-2.3685e-16,0,0.66667
0.56538,0.38539,2.8269,-0.17191,-3.8037,30.037,1.2959,-0.43198,-1.8947,1.7279,8.0247e-13,-0.94734,0,0,0.2,-0,-0,0.66667
0.65399,0.91808,3.27,0.62713,11.853,20.675,-5.4685,1.8228,-0.60152,-7.2913,-9.7788e-13,-0.30076,0,0,0.2,-0,-0,0.66667
0.91167,0.98864,4.5584,0.73297,4.1063,2.9761,-8.9097,2.9699,-0.088884,-11.88,3.4549e-08,-0.044442,0,0,0.2,-0,-0,0.66667
0.78264,0.47761,3.9132,-0.03358,-0.41416,8.845,0.35042,-0.11681,-1.9964,0.46722,-5.4269e-11,-0.99822,0,0,0.2,-0,-0,0.66667
0.97683,0.18807,4.8841,-0.46789,-0.5477,0.72814,6.0939,-2.0313,-1.222,8.1253,3.2288e-08,-0.61098,0,0,0.2,3.7896e-15,0,0.66667
0.44272,0.24631,2.2136,-0.38053,-10.033,46.235,2.2462,-0.74874,-1.4851,2.995,-8.3999e-13,-0.74256,0,0,0.2,7.1054e-16,0,0.66667
0.14102,0.98614,0.70511,0.72921,23.8,94.014,-1.3711,0.45704,-0.10995,-1.8282,2.3032e-09,-0.054974,0,0,0.2,-2.3685e-16,0,0.66667
0.40997,0.3371,2.0498,-0.24435,-6.6487,50.845,1.3357,-0.44523,-1.7876,1.7809,-1.8374e-12,-0.89379,0,0,0.2,-4.737e-16,0,0.66667
0.7923,0.71937,3.9615,0.32906,3.9283,8.3541,-3.4762,1.1587,-1.6157,-4.6349,3.2943e-10,-0.80784,0,0,0.2,-0,-0,0.66667
0.21104,0.72377,1.0552,0.33566,10.534,82.102,-0.94448,0.31483,-1.5989,-1.2593,-2.995e-10,-0.79947,0,0,0.2,-0,-0,0.66667
0.17738,0.11632,0.88691,-0.57552,-18.442,87.815,1.3612,-0.45372,-0.82158,1.8149,4.0027e-10,-0.41079,0,0,0.2,1.1842e-16,0,0.66667
0.6451,0.96021,3.2255,0.69032,13.373,21.706,-5.9377,1.9792,-0.3051,-7.9169,-4.3121e-13,-0.15255,0,0,0.2,9.4739e-16,0,0.66667
0.94704,0.0022828,4.7352,-0.74658,-2.5623,2.0074,9.4271,-3.1424,-0.018317,12.57,-9.5515e-08,-0.0091585,0,0,0.2,7.5791e-15,0,0.66667
0.40926,0.65573,2.0463,0.2336,6.3594,50.943,-1.2747,0.42491,-1.8071,-1.6996,1.5636e-12,-0.90355,0,0,0.2,-0,-0,0.66667
0.69687,0.18304,3.4844,-0.47544,-7.9858,16.264,4.4176,-1.4725,-1.196,5.8902,-1.164e-12,-0.598,0,0,0.2,-1.1842e-15,0,0.66667
0.40397,0.80808,2.0199,0.46212,12.723,51.858,-2.4891,0.82971,-1.2413,-3.3188,1.1666e-12,-0.62067,0,0,0.2,2.3685e-16,0,0.66667
0.34982,0.86577,1.7491,0.54866,15.902,60.026,-2.5591,0.85302,-0.92883,-3.4121,2.1232e-12,-0.46442,0,0,0.2,-4.737e-16,0,0.66667
0.13297,0.8846,0.66484,0.57689,18.752,95.32,-1.0228,0.34093,-0.8157,-1.3637,-1.0349e-09,-0.40785,0,0,0.2,-0,-0,0.66667
0.019913,0.9709,0.099563,0.70634,23.489,114.76,-0.18754,0.062515,-0.22648,-0.25005,3.6822e-06,-0.11324,0,0,0.2,-5.9212e-17,0,0.66667
0.11967,0.35455,0.59835,-0.21818,-7.0519,97.51,0.34813,-0.11604,-1.8299,0.46417,8.2717e-10,-0.91494,0,0,0.2,2.3685e-16,0,0.66667
0.44424,0.55486,2.2212,0.082295,2.1544,45.885,-0.48745,0.16248,-1.9752,-0.64993,6.356e-15,-0.98758,0,0,0.2,4.737e-16,0,0.66667
0.72978,0.088672,3.6489,-0.61699,-9.4967,13.605,6.0036,-2.0012,-0.64635,8.0048,-3.1934e-12,-0.32317,0,0,0.2,-0,-0,0.66667
0.05369,0.22257,0.26845,-0.41615,-13.664,108.89,0.29791,-0.099303,-1.384,0.39721,-2.4543e-08,-0.692,0,0,0.2,-0,-0,0.66667
0.22167,0.46032,1.1083,-0.059516,-1.8519,80.286,0.1759,-0.058635,-1.9873,0.23454,6.4165e-11,-0.99366,0,0,0.2,-0,-0,0.66667
0.031064,0.82726,0.15532,0.49088,16.183,112.82,-0.20332,0.067774,-1.1439,-0.27109,8.5304e-08,-0.57196,0,0,0.2,-0,5.2811e-17,0.66667
0.83332,0.0098636,4.1666,-0.7352,-7.4718,6.5545,8.1689,-2.723,-0.077342,10.892,1.3218e-09,-0.038671,0,0,0.2,-0,-0,0.66667
0.38188,0.25125,1.9094,-0.37313,-10.46,55.055,1.8999,-0.63329,-1.5052,2.5331,-2.1876e-12,-0.7526,0,0,0.2,-0,-0,0.66667
0.28458,0.86424,1.4229,0.54636,16.588,70.218,-2.0731,0.69104,-0.93821,-2.7642,-3.5765e-12,-0.4691,0,0,0.2,-0,-0,0.66667
0.78367,0.70085,3.9184,0.30128,3.7277,8.9276,-3.1481,1.0494,-1.677,-4.1974,2.4398e-10,-0.83851,0,0,0.2,-0,-0,0.66667
0.2789,0.33684,1.3945,-0.24474,-7.396,70.977,0.91014,-0.30338,-1.7873,1.2135,2.6892e-11,-0.89365,0,0,0.2,-0,-0,0.66667
0.28082,0.65141,1.4041,0.22712,6.8533,70.665,-0.85039,0.28346,-1.818,-1.1339,-2.3917e-11,-0.90899,0,0,0.2,-2.3685e-16,0,0.66667
0.935,0.29637,4.675,-0.30545,-1.1319,1.3432,3.8079,-1.2693,-1.668,5.0773,5.5729e-09,-0.83398,0,0,0.2,1.8948e-15,0,0.66667
0.16421,0.064978,0.82107,-0.65253,-21.072,90.063,1.4287,-0.47625,-0.48601,1.905,-6.3421e-10,-0.24301,0,0,0.2,-0,-0,0.66667
0.03791,0.5235,0.18955,0.035257,1.153,111.61,-0.017821,0.0059404,-1.9948,-0.023762,-7.3297e-08,-0.99741,0,0,0.2,5.9212e-17,0,0.66667
0.95604,0.13779,4.7802,-0.54331,-1.4066,1.2558,6.9257,-2.3086,-0.95005,9.2343,7.9081e-08,-0.47502,0,0,0.2,-1.8948e-15,0,0.66667
0.30613,0.047756,1.5307,-0.67837,-20.421,66.91,2.769,-0.92298,-0.36263,3.6919,-8.2756e-13,-0.18131,0,0,0.2,-0,-0,0.66667
0.41408,0.38982,2.0704,-0.16527,-4.4728,50.218,0.91248,-0.30416,-1.9016,1.2166,-1.4253e-12,-0.95082,0,0,0.2,-0,-0,0.66667
0.79679,0.41034,3.984,-0.13448,-1.5608,7.8875,1.4287,-0.47625,-1.9374,1.905,-1.4877e-10,-0.96868,0,0,0.2,-0,-0,0.66667
0.35618,0.37755,1.7809,-0.18367,-5.2449,58.845,0.87227,-0.29076,-1.8807,1.163,-1.6044e-12,-0.94036,0,0,0.2,-0,-0,0.66667
0.10486,0.91812,0.52429,0.62719,20.566,100.13,-0.87687,0.29229,-0.60059,-1.1692,-6.857e-09,-0.30029,0,0,0.2,2.3685e-16,0,0.66667
0.7889,0.46697,3.9445,-0.049539,-0.59481,8.4041,0.52108,-0.17369,-1.9914,0.69478,-1.1773e-10,-0.99569,0,0,0.2,1.1842e-16,0,0.66667
0.12962,0.49695,0.64808,-0.0045743,-0.14724,95.795,0.0079054,-0.0026351,-2.0001,0.01054,1.309e-09,-1.0001,0,0,0.2,1.1842e-16,0,0.66667
0.19804,0.53091,0.9902,0.046363,1.4579,84.217,-0.12242,0.040808,-1.993,-0.16323,7.6135e-11,-0.9965,0,0,0.2,3.1072e-16,0,0.66667
0.13971,0.60177,0.69854,0.15265,4.9037,94.079,-0.28435,0.094785,-1.9179,-0.37914,9.9506e-10,-0.95894,0,0,0.2,-0,-0,0.66667
0.22166,0.88614,1.1083,0.57921,18.222,80.451,-1.7118,0.57061,-0.80687,-2.2824,-7.2571e-11,-0.40344,0,0,0.2,-4.737e-16,0,0.66667
0.23535,0.57571,1.1767,0.11356,3.5111,78.034,-0.35636,0.11879,-1.9545,-0.47514,-7.6433e-11,-0.97725,0,0,0.2,-0,-0,0.66667
0.7264,0.42413,3.632,-0.11381,-1.727,13.297,1.1023,-0.36743,-1.9527,1.4697,-2.0094e-11,-0.97637,0,0,0.2,-0,-0,0.66667
0.095244,0.43219,0.47622,-0.10171,-3.3014,101.7,0.12917,-0.043055,-1.964,0.17222,-1.2958e-08,-0.98202,0,0,0.2,-1.1842e-16,0,0.66667
0.66824,0.85493,3.3412,0.53239,9.6677,19.086,-4.7436,1.5812,-0.99168,-6.3248,-2.4944e-12,-0.49584,0,0,0.2,1.8948e-15,0,0.66667
0.91093,0.42093,4.5547,-0.11861,-0.60547,1.9423,1.4406,-0.4802,-1.9491,1.9208,1.0686e-08,-0.97453,0,0,0.2,-0,-0,0.66667
0.63,0.97624,3.15,0.71437,14.323,23.338,-6.0007,2.0002,-0.18501,-8.0009,2.0739e-13,-0.092507,0,0,0.2,-0,-0,0.66667
0.33688,0.39549,1.6844,-0.15677,-4.5452,61.803,0.70419,-0.23473,-1.9116,0.93892,-5.1953e-13,-0.95578,0,0,0.2,-0,-0,0.66667
0.83945,0.86837,4.1973,0.55256,5.2921,5.7729,-6.1846,2.0615,-0.91414,-8.2462,4.7165e-10,-0.45707,0,0,0.2,-9.4739e-16,0,0.66667
0.89856,0.29002,4.4928,-0.31498,-1.8706,2.5735,3.7737,-1.2579,-1.6463,5.0316,-1.9216e-09,-0.82317,0,0,0.2,-0,-0,0.66667
0.49346,0.18092,2.4673,-0.47861,-11.904,39.383,3.149,-1.0497,-1.1849,4.1987,-3.9746e-14,-0.59245,0,0,0.2,-0,-0,0.66667
0.56348,0.58696,2.8174,0.13044,2.8936,30.25,-0.97999,0.32666,-1.9404,-1.3067,-7.1837e-13,-0.97018,0,0,0.2,-0,-0,0.66667
0.58066,0.28307,2.9033,-0.32539,-7.0352,28.318,2.5192,-0.83975,-1.6246,3.359,1.0081e-12,-0.81228,0,0,0.2,1.8948e-15,0,0.66667
0.13276,0.87756,0.66379,0.56633,18.403,95.352,-1.0025,0.33415,-0.85956,-1.3366,3.1581e-09,-0.42978,0,0,0.2,4.737e-16,0,0.66667
0.37306,0.47912,1.8653,-0.031325,-0.88061,56.26,0.15581,-0.051938,-1.9966,0.20775,-6.8681e-13,-0.9983,0,0,0.2,9.4739e-16,0,0.66667
0.81161,0.54168,4.0581,0.06252,0.67501,6.8849,-0.67656,0.22552,-1.9866,-0.90208,1.8536e-10,-0.99332,0,0,0.2,-0,-0,0.66667
0.5196,0.27096,2.598,-0.34356,-8.2017,35.843,2.3802,-0.7934,-1.5798,3.1736,2.871e-13,-0.78988,0,0,0.2,-0,-0,0.66667
0.93958,0.2099,4.6979,-0.43515,-1.5313,1.4194,5.4515,-1.8172,-1.3269,7.2687,9.6583e-09,-0.66344,0,0,0.2,9.4739e-16,0,0.66667
0.61582,0.15283,3.0791,-0.52076,-10.618,24.541,4.2759,-1.4253,-1.0356,5.7012,1.6152e-12,-0.51782,0,0,0.2,1.3666e-15,0,0.66667
0.77945,0.17475,3.8973,-0.48788,-6.2181,9.4852,5.0704,-1.6901,-1.1537,6.7605,-1.4921e-10,-0.57685,0,0,0.2,-0,-0,0.66667
0.24803,0.048347,1.2401,-0.67748,-21.121,76.2,2.2405,-0.74682,-0.36798,2.9873,6.406e-13,-0.18399,0,0,0.2,-0,2.3475e-16,0.66667
0.55931,0.99284,2.7965,0.73926,16.921,31.414,-5.513,1.8377,-0.056813,-7.3507,8.793e-14,-0.028406,0,0,0.2,-1.4211e-15,1.6728e-16,0.66667
0.81064,0.55802,4.0532,0.087028,0.94455,6.954,-0.94064,0.31355,-1.9739,-1.2542,1.0205e-10,-0.98694,0,0,0.2,6.2998e-18,0,0.66667
0.15271,0.51122,0.76356,0.016834,0.53824,91.859,-0.034277,0.011426,-1.9985,-0.045703,1.7949e-09,-0.99924,0,0,0.2,-0,-0,0.66667
0.54016,0.65967,2.7008,0.23951,5.5287,33.166,-1.725,0.57499,-1.7959,-2.3,-6.6847e-13,-0.89794,0,0,0.2,-0,-0,0.66667
0.6103,0.37096,3.0515,-0.19356,-3.9434,24.834,1.5751,-0.52502,-1.8681,2.1001,1.4979e-12,-0.93403,0,0,0.2,9.4739e-16,0,0.66667
0.18706,0.859,0.93528,0.5385,17.17,86.177,-1.3431,0.44769,-0.96952,-1.7908,-3.1007e-10,-0.48476,0,0,0.2,-2.3685e-16,0,0.66667
0.63689,0.4807,3.1845,-0.028956,-0.55682,21.888,0.24589,-0.081963,-1.9964,0.32785,8.8582e-14,-0.99821,0,0,0.2,-0,-0,0.66667
0.067575,0.33906,0.33787,-0.24141,-7.8839,106.48,0.21751,-0.072502,-1.7926,0.29001,-1.3227e-08,-0.89632,0,0,0.2,-5.9212e-17,0,0.66667
0.77954,0.66646,3.8977,0.24969,3.1358,9.1748,-2.5953,0.86509,-1.7785,-3.4604,2.1226e-10,-0.88926,0,0,0.2,-0,-0,0.66667
0.32597,0.81993,1.6299,0.47989,14.131,63.648,-2.0858,0.69525,-1.1815,-2.781,1.9318e-12,-0.59073,0,0,0.2,-0,-0,0.66667
0.48278,0.54781,2.4139,0.07171,1.7917,40.568,-0.4616,0.15387,-1.9818,-0.61547,5.0571e-14,-0.99088,0,0,0.2,9.4739e-16,0,0.66667
0.38231,0.48385,1.9116,-0.024218,-0.67517,54.873,0.12345,-0.041151,-1.9967,0.1646,-8.7272e-13,-0.99834,0,0,0.2,-0,-0,0.66667
0.32698,0.33176,1.6349,-0.25236,-7.382,63.37,1.1002,-0.36673,-1.7739,1.4669,-1.4233e-13,-0.88695,0,0,0.2,-4.737e-16,0,0.66667
0.98768,0.060623,4.9384,-0.65907,-0.45041,1.0658,8.6793,-2.8931,-0.45634,11.572,8.1162e-07,-0.22817,0,0,0.2,-2.1316e-15,0,0.66667
0.879,0.40083,4.395,-0.14876,-1.044,3.2421,1.7434,-0.58114,-1.9213,2.3246,-7.4969e-09,-0.96064,0,0,0.2,-0,-0,0.66667
0.30229,0.1537,1.5115,-0.51946,-15.575,67.387,2.0937,-0.69791,-1.0407,2.7916,1.2879e-13,-0.52036,0,0,0.2,-0,-0,0.66667
0.16065,0.60063,0.80324,0.15094,4.817,90.52,-0.32331,0.10777,-1.9187,-0.43108,-3.7026e-10,-0.95933,0,0,0.2,-0,-0,0.66667
0.52931,0.88366,2.6466,0.57549,13.67,34.855,-4.0615,1.3538,-0.82269,-5.4154,-2.1716e-13,-0.41134,0,0,0.2,9.4739e-16,0,0.66667
0.13806,0.40359,0.6903,-0.14461,-4.6472,94.359,0.26619,-0.088731,-1.9265,0.35493,-2.9965e-09,-0.96325,0,0,0.2,8.8818e-17,0,0.66667
0.64979,0.46835,3.249,-0.047474,-0.88672,20.539,0.41131,-0.1371,-1.9924,0.54841,4.0831e-13,-0.99621,0,0,0.2,3.7932e-16,0,0.66667
0.23295,0.057651,1.1648,-0.66352,-20.833,78.649,2.0609,-0.68698,-0.43555,2.7479,7.0313e-12,-0.21777,0,0,0.2,-3.5527e-16,0,0.66667
0.096557,0.62341,0.48278,0.18512,6.0118,101.48,-0.23833,0.079443,-1.8791,-0.31777,2.9069e-09,-0.93956,0,0,0.2,1.4803e-17,0,0.66667
0.021993,0.20103,0.10996,-0.44846,-14.773,114.38,0.1315,-0.043834,-1.2838,0.17534,-2.7585e-08,-0.64189,0,0,0.2,-0,-0,0.66667
0.85906,0.79039,4.2953,0.43559,3.6359,4.5155,-4.9893,1.6631,-1.3263,-6.6524,2.5286e-09,-0.66315,0,0,0.2,-0,-0,0.66667
0.14271,0.339,0.71355,-0.2415,-7.7598,93.579,0.45953,-0.15318,-1.7933,0.61271,9.5337e-10,-0.89665,0,0,0.2,1.1842e-16,0,0.66667
0.40293,0.079167,2.0146,-0.63125,-17.518,52.177,3.3913,-1.1304,-0.58263,4.5218,-5.2314e-13,-0.29131,0,0,0.2,-4.7716e-16,0,0.66667
0.093564,0.2088,0.46782,-0.43681,-14.264,102.02,0.54493,-0.18164,-1.3225,0.72657,4.6564e-09,-0.66126,0,0,0.2,-0,-0,0.66667
0.11789,0.31406,0.58947,-0.27891,-9.0274,97.822,0.43842,-0.14614,-1.7236,0.58455,3.7335e-10,-0.86179,0,0,0.2,-0,-0,0.66667
0.37482,0.21334,1.8741,-0.42999,-12.151,56.149,2.1489,-0.71629,-1.344,2.8652,-2.2349e-12,-0.67202,0,0,0.2,-4.737e-16,0,0.66667
0.16539,0.71545,0.82693,0.32318,10.324,89.748,-0.71266,0.23755,-1.6285,-0.95021,-1.0109e-09,-0.81426,0,0,0.2,-3.5527e-16,0,0.66667
0.71895,0.96239,3.5948,0.69359,11.111,14.691,-6.6487,2.2162,-0.29084,-8.865,-1.2816e-12,-0.14542,0,0,0.2,9.4739e-16,0,0.66667
0.12585,0.32394,0.62926,-0.26409,-8.5288,96.458,0.44316,-0.14772,-1.7525,0.59087,1.0565e-09,-0.87625,0,0,0.2,-0,-0,0.66667
0.73883,0.90311,3.6942,0.60467,9.0297,12.829,-5.9567,1.9856,-0.70022,-7.9422,8.5763e-12,-0.35011,0,0,0.2,2.3685e-16,0,0.66667
0.84138,0.72815,4.2069,0.34223,3.1738,5.314,-3.8393,1.2798,-1.5836,-5.119,1.1966e-09,-0.79179,0,0,0.2,-0,-0,0.66667
0.082681,0.18035,0.4134,-0.47948,-15.708,103.9,0.52858,-0.17619,-1.1822,0.70478,8.2312e-09,-0.59109,0,0,0.2,5.9212e-17,0,0.66667
0.040078,0.45357,0.20039,-0.069646,-2.2775,111.23,0.037217,-0.012406,-1.9815,0.049623,-3.788e-07,-0.99077,0,0,0.2,-4.7462e-17,0,0.66667
0.49353,0.80391,2.4677,0.45587,11.327,39.349,-2.9998,0.99994,-1.2602,-3.9998,1.8474e-13,-0.63012,0,0,0.2,-0,-0,0.66667
0.60076,0.72083,3.0038,0.33125,6.901,26.005,-2.6533,0.88444,-1.6099,-3.5378,-2.4025e-12,-0.80496,0,0,0.2,1.8948e-15,0,0.66667
0.684,0.14666,3.42,-0.53002,-9.2467,17.555,4.8337,-1.6112,-1.0008,6.445,1.5397e-12,-0.5004,0,0,0.2,-0,-0,0.66667
0.47827,0.095442,2.3914,-0.60684,-15.479,41.564,3.8698,-1.2899,-0.69087,5.1597,-6.7701e-13,-0.34543,0,0,0.2,1.8948e-15,0,0.66667
0.54316,0.93769,2.7158,0.65654,15.339,33.243,-4.7547,1.5849,-0.4684,-6.3396,-5.4712e-13,-0.2342,0,0,0.2,1.8948e-15,0,0.66667
0.54961,0.036507,2.7481,-0.69524,-16.117,32.513,5.0948,-1.6983,-0.28176,6.7931,-7.3719e-14,-0.14088,0,0,0.2,-0,-0,0.66667
0.71378,0.61642,3.5689,0.17463,2.759,14.427,-1.662,0.554,-1.8909,-2.216,1.6229e-11,-0.94547,0,0,0.2,-0,-0,0.66667
0.15616,0.46235,0.7808,-0.056475,-1.8038,91.274,0.11759,-0.039197,-1.99,0.15679,1.0778e-09,-0.995,0,0,0.2,-1.1842e-16,0,0.66667
0.021742,0.16427,0.10871,-0.50359,-16.617,114.43,0.14599,-0.048664,-1.0975,0.19465,-1.9619e-07,-0.54877,0,0,0.2,-0,-0,0.66667
0.50805,0.38281,2.5403,-0.17579,-4.2503,37.241,1.1908,-0.39694,-1.8893,1.5877,-1.3667e-13,-0.94465,0,0,0.2,9.4739e-16,0,0.66667
0.95369,0.26879,4.7684,-0.34681,-0.88693,0.9349,4.41,-1.47,-1.5729,5.88,1.6769e-08,-0.78646,0,0,0.2,-0,-0,0.66667
0.025153,0.49148,0.12577,-0.012773,-0.41805,113.82,0.0042836,-0.0014314,-1.9986,0.0057097,-5.2781e-06,-0.99931,0,0,0.2,5.9212e-17,0,0.66667
0.6128,0.036919,3.064,-0.69462,-14.401,25.162,5.6755,-1.8918,-0.28453,7.5674,-1.3056e-13,-0.14227,0,0,0.2,-0,-0,0.66667
0.49388,0.50072,2.4694,0.0010843,0.026694,39.075,-0.0071403,0.0023801,-2.0004,-0.0095204,1.3657e-13,-1.0002,0,0,0.2,-0,-0,0.66667
0.9002,0.24539,4.501,-0.38191,-2.2493,2.6036,4.5839,-1.528,-1.4811,6.1119,-3.5274e-09,-0.74055,0,0,0.2,-4.737e-16,0,0.66667
0.023607,0.37281,0.11804,-0.19078,-6.2517,114.1,0.06005,-0.020017,-1.8706,0.080067,-9.6747e-08,-0.9353,0,0,0.2,-4.4409e-17,0,0.66667
0.65951,0.43161,3.2975,-0.10258,-1.8735,19.557,0.90207,-0.30069,-1.9627,1.2028,4.1239e-13,-0.98135,0,0,0.2,-0,-0,0.66667
0.65622,0.57281,3.2811,0.10921,2.0104,19.893,-0.95557,0.31852,-1.9586,-1.2741,-6.915e-13,-0.97928,0,0,0.2,-0,-0,0.66667
0.88375,0.049455,4.4188,-0.67582,-4.8589,3.8853,7.9634,-2.6545,-0.3749,10.618,-7.8754e-09,-0.18745,0,0,0.2,-9.4739e-16,0,0.66667
0.53642,0.59916,2.6821,0.14874,3.448,33.593,-1.0638,0.35462,-1.9211,-1.4185,-5.2669e-13,-0.96053,0,0,0.2,-0,-0,0.66667
0.69065,0.99089,3.4532,0.73634,12.822,17.329,-6.7807,2.2602,-0.071953,-9.0409,4.4453e-13,-0.035977,0,0,0.2,-0,-0,0.66667
0.41267,0.89755,2.0633,0.59633,16.365,50.724,-3.2811,1.0937,-0.73478,-4.3748,8.0647e-13,-0.36739,0,0,0.2,-4.737e-16,0,0.66667
0.82659,0.28181,4.133,-0.32729,-3.301,6.1472,3.6071,-1.2024,-1.6208,4.8095,-8.3621e-10,-0.8104,0,0,0.2,-0,-0,0.66667
0.68501,0.61965,3.4251,0.17948,3.0766,17.08,-1.6393,0.54642,-1.8859,-2.1857,2.634e-12,-0.94295,0,0,0.2,1.4211e-15,0,0.66667
0.10801,0.71761,0.54007,0.32642,10.599,99.523,-0.4701,0.1567,-1.6228,-0.6268,-1.6412e-09,-0.81138,0,0,0.2,-2.3685e-16,0,0.66667
0.13989,0.30359,0.69947,-0.29461,-9.4829,94.067,0.54953,-0.18318,-1.6921,0.73271,1.7592e-09,-0.84606,0,0,0.2,1.1842e-16,0,0.66667
0.15807,0.40868,0.79036,-0.13698,-4.3748,90.955,0.28871,-0.096236,-1.9345,0.38494,1.0401e-09,-0.96723,0,0,0.2,4.737e-16,0,0.66667
0.12054,0.52979,0.6027,0.044682,1.4418,97.349,-0.071812,0.023937,-1.9934,-0.095749,-1.5105e-08,-0.99672,0,0,0.2,-1.7155e-16,0,0.66667
0.23028,0.076924,1.1514,-0.63461,-19.927,79.068,1.9485,-0.6495,-0.56728,2.598,2.6385e-11,-0.28364,0,0,0.2,4.737e-16,6.8662e-17,0.66667
0.42336,0.25686,2.1168,-0.36471,-9.8157,48.976,2.0587,-0.68625,-1.5277,2.745,-1.336e-12,-0.76384,0,0,0.2,-0,-0,0.66667
0.67076,0.025758,3.3538,-0.71136,-13.002,19.17,6.3621,-2.1207,-0.20173,8.4827,3.8147e-13,-0.10086,0,0,0.2,-0,-0,0.66667
0.33662,0.78189,1.6831,0.42284,12.329,61.959,-1.8978,0.63261,-1.3646,-2.5304,2.4403e-12,-0.68232,0,0,0.2,-0,-0,0.66667
0.51975,0.023978,2.5988,-0.71403,-17.332,36.276,4.9483,-1.6494,-0.18692,6.5977,-1.7364e-13,-0.09346,0,0,0.2,-0,-0,0.66667
0.82112,0.77866,4.1056,0.41799,4.3707,6.6009,-4.5762,1.5254,-1.3788,-6.1016,5.8737e-10,-0.68938,0,0,0.2,-0,-0,0.66667
0.88459,0.13826,4.423,-0.54262,-3.7831,3.5307,6.3999,-2.1333,-0.95203,8.5332,-9.8278e-09,-0.47601,0,0,0.2,-0,-0,0.66667
0.70449,0.98877,3.5225,0.73316,12.29,16.055,-6.8868,2.2956,-0.089079,-9.1823,-4.3165e-13,-0.044539,0,0,0.2,-0,-0,0.66667
0.83449,0.34166,4.1725,-0.2375,-2.2791,5.5906,2.6426,-0.88087,-1.7995,3.5235,-4.467e-10,-0.89977,0,0,0.2,2.4706e-16,0,0.66667
0.30908,0.21261,1.5454,-0.43108,-12.828,66.261,1.7765,-0.59216,-1.3393,2.3687,1.6587e-12,-0.66964,0,0,0.2,-0,-0,0.66667
0.79062,0.10312,3.9531,-0.59532,-7.3115,8.9027,6.2756,-2.0919,-0.73901,8.3674,-7.105e-11,-0.3695,0,0,0.2,-0,-0,0.66667
0.91666,0.41763,4.5833,-0.12355,-0.5877,1.7468,1.51,-0.50335,-1.9448,2.0134,9.2812e-09,-0.97242,0,0,0.2,-0,-0,0.66667
0.038406,0.24269,0.19203,-0.38596,-12.681,111.54,0.19764,-0.06588,-1.4696,0.26352,-2.5402e-08,-0.7348,0,0,0.2,-0,-0,0.66667
0.44563,0.91675,2.2281,0.62513,16.588,46.07,-3.7143,1.2381,-0.60948,-4.9524,2.9154e-13,-0.30474,0,0,0.2,-9.4739e-16,0,0.66667
0.23993,0.027215,1.1996,-0.70918,-22.235,77.542,2.2687,-0.75623,-0.21166,3.0249,-1.6953e-12,-0.10583,0,0,0.2,2.3685e-16,0,0.66667
0.49402,0.38969,2.4701,-0.16547,-4.0778,39.087,1.0899,-0.36331,-1.9015,1.4532,-1.9806e-13,-0.95076,0,0,0.2,-0,-0,0.66667
0.61748,0.3126,3.0874,-0.28111,-5.6566,24.096,2.3143,-0.77145,-1.7195,3.0858,2.6594e-12,-0.85974,0,0,0.2,-0,-0,0.66667
0.20905,0.67929,1.0452,0.26893,8.436,82.413,-0.7496,0.24987,-1.7421,-0.99947,-3.04e-10,-0.87105,0,0,0.2,-2.3685e-16,0,0.66667
0.87443,0.52237,4.3721,0.033554,0.24373,3.4097,-0.3912,0.1304,-1.9968,-0.52161,3.356e-09,-0.99841,0,0,0.2,-0,-0,0.66667
0.25589,0.18965,1.2795,-0.46552,-14.334,74.787,1.5883,-0.52943,-1.2296,2.1177,3.7542e-11,-0.61482,0,0,0.2,9.4739e-16,0,0.66667
0.71361,0.64632,3.568,0.21949,3.4735,14.47,-2.0884,0.69612,-1.8279,-2.7845,1.7981e-11,-0.91397,0,0,0.2,-0,-0,0.66667
0.85223,0.21904,4.2611,-0.42144,-3.6768,4.8431,4.7888,-1.5963,-1.3689,6.3851,-1.2605e-09,-0.68445,0,0,0.2,-3.7896e-15,0,0.66667
0.93241,0.53865,4.6621,0.057971,0.21876,1.2299,-0.7207,0.24023,-1.9875,-0.96094,-6.7938e-08,-0.99376,0,0,0.2,-0,-0,0.66667
0.95573,0.86508,4.7786,0.54762,1.4313,1.2723,-6.9783,2.3261,-0.93362,-9.3044,-1.0115e-07,-0.46681,0,0,0.2,-0,-0,0.66667
0.6802,0.24168,3.401,-0.38748,-6.7744,17.72,3.5142,-1.1714,-1.4653,4.6856,3.7725e-13,-0.73265,0,0,0.2,-0,-0,0.66667
0.62852,0.37471,3.1426,-0.18793,-3.6869,22.832,1.5749,-0.52497,-1.8754,2.0999,2.0242e-12,-0.93772,0,0,0.2,-1.199e-15,0,0.66667
0.59597,0.96345,2.9798,0.69518,14.885,27.045,-5.524,1.8413,-0.28224,-7.3654,-2.3537e-13,-0.14112,0,0,0.2,-9.4739e-16,0,0.66667
0.48512,0.090965,2.4256,-0.61355,-15.52,40.653,3.9686,-1.3229,-0.6631,5.2915,-5.2047e-13,-0.33155,0,0,0.2,9.4739e-16,0,0.66667
0.36043,0.40206,1.8022,-0.14692,-4.1786,58.188,0.70605,-0.23535,-1.9244,0.94139,-1.4123e-12,-0.96222,0,0,0.2,-1.1842e-16,0,0.66667
0.020765,0.37739,0.10383,-0.18391,-6.027,114.59,0.05092,-0.016973,-1.88,0.067894,-4.3409e-08,-0.93998,0,0,0.2,-5.9212e-17,0,0.66667
0.74867,0.45036,3.7434,-0.074457,-1.0478,11.435,0.74325,-0.24775,-1.9805,0.99101,-3.0593e-11,-0.99025,0,0,0.2,-0,-0,0.66667
0.39368,0.29979,1.9684,-0.30031,-8.312,53.262,1.5764,-0.52545,-1.6789,2.1018,-2.3045e-12,-0.83945,0,0,0.2,-0,-0,0.66667
0.27934,0.72659,1.3967,0.33988,10.288,70.942,-1.2659,0.42196,-1.5896,-1.6879,-2.3104e-11,-0.7948,0,0,0.2,-0,-0,0.66667
0.77753,0.64453,3.8877,0.2168,2.7418,9.2941,-2.2476,0.74919,-1.8323,-2.9968,1.8915e-10,-0.91615,0,0,0.2,-9.4739e-16,0,0.66667
0.66027,0.65236,3.3013,0.22854,4.176,19.541,-2.012,0.67066,-1.8145,-2.6826,-1.3893e-12,-0.90724,0,0,0.2,-1.1842e-15,0,0.66667
0.9098,0.65141,4.549,0.22712,1.1839,2.0585,-2.7551,0.91837,-1.8168,-3.6735,4.4615e-09,-0.90838,0,0,0.2,-1.4211e-15,0,0.66667
0.12761,0.97485,0.63807,0.71228,23.315,96.281,-1.212,0.40399,-0.1964,-1.616,1.9036e-09,-0.098202,0,0,0.2,-0,-0,0.66667
0.38236,0.40878,1.9118,-0.13683,-3.817,54.881,0.69757,-0.23252,-1.9334,0.93009,-1.1582e-12,-0.9667,0,0,0.2,-0,-0,0.66667
0.57738,0.72787,2.8869,0.34181,7.4373,28.717,-2.6314,0.87714,-1.5853,-3.5085,-1.3105e-12,-0.79265,0,0,0.2,-0,-0,0.66667
0.3545,0.83951,1.7725,0.50927,14.682,59.28,-2.4071,0.80237,-1.0778,-3.2095,2.1219e-12,-0.5389,0,0,0.2,7.1054e-16,0,0.66667
0.34805,0.89432,1.7402,0.59148,17.197,60.334,-2.7449,0.91495,-0.75534,-3.6598,1.7e-12,-0.37767,0,0,0.2,4.737e-16,0,0.66667
0.48409,0.52926,2.4204,0.04389,1.0947,40.388,-0.28329,0.094431,-1.9951,-0.37772,3.2577e-13,-0.99755,0,0,0.2,-4.737e-16,0,0.66667
0.071438,0.10391,0.35719,-0.59414,-19.574,105.86,0.56592,-0.18864,-0.74389,0.75457,1.6475e-07,-0.37194,0,0,0.2,-0,-0,0.66667
0.038686,0.98067,0.19343,0.72101,23.966,111.52,-0.3719,0.12397,-0.1505,-0.49587,-1.9392e-06,-0.07525,0,0,0.2,-5.9212e-17,0,0.66667
0.84061,0.71233,4.203,0.31849,2.9623,5.3278,-3.5697,1.1899,-1.6394,-4.7596,1.2065e-09,-0.81971,0,0,0.2,1.4211e-15,0,0.66667
0.0073689,0.070195,0.036844,-0.64471,-21.391,116.92,0.063343,-0.021115,-0.52135,0.084457,-3.5225e-07,-0.26067,0,0,0.2,-0,-0,0.66667
0.70376,0.67832,3.5188,0.26748,4.364,15.392,-2.5099,0.83664,-1.7464,-3.3465,1.1067e-11,-0.87319,0,0,0.2,-0,-0,0.66667
0.44556,0.72811,2.2278,0.34217,8.9832,45.808,-2.0328,0.67758,-1.5828,-2.7103,3.9879e-13,-0.79138,0,0,0.2,-0,-0,0.66667
0.96951,0.49011,4.8475,-0.014832,-0.021037,0.36981,0.19173,-0.063909,-1.9999,0.25565,3.5381e-06,-0.99993,0,0,0.2,-2.8422e-15,0,0.66667
0.80992,0.38482,4.0496,-0.17278,-1.8859,7.0402,1.8658,-0.62193,-1.8938,2.4877,-3.268e-10,-0.94688,0,0,0.2,-0,-0,0.66667
0.39961,0.44953,1.9981,-0.075708,-2.0769,52.312,0.40339,-0.13446,-1.9785,0.53785,-8.3036e-13,-0.98925,0,0,0.2,-0,-0,0.66667
0.39383,0.58422,1.9691,0.12632,3.4861,53.174,-0.66333,0.22111,-1.943,-0.88444,8.2501e-13,-0.97149,0,0,0.2,-0,-0,0.66667
0.12859,0.28239,0.64297,-0.32642,-10.546,96,0.55967,-0.18656,-1.622,0.74623,2.0721e-09,-0.81099,0,0,0.2,4.737e-16,0,0.66667
0.36459,0.98041,1.823,0.72061,20.795,57.96,-3.5031,1.1677,-0.15275,-4.6707,1.7941e-13,-0.076373,0,0,0.2,-0,-0,0.66667
0.20418,0.83573,1.0209,0.5036,15.925,83.306,-1.371,0.457,-1.099,-1.828,-2.6276e-10,-0.54948,0,0,0.2,-0,-0,0.66667
0.31607,0.38714,1.5804,-0.16929,-4.9856,65.051,0.71345,-0.23782,-1.8975,0.95126,2.1665e-12,-0.94877,0,0,0.2,4.737e-16,0,0.66667
0.56232,0.38288,2.8116,-0.17569,-3.9076,30.409,1.3172,-0.43907,-1.8914,1.7563,9.1316e-13,-0.94568,0,0,0.2,-0,-0,0.66667
0.86191,0.49465,4.3096,-0.008032,-0.064146,4.01,0.092305,-0.030768,-2.0002,0.12307,-7.8259e-09,-1.0001,0,0,0.2,4.737e-16,0,0.66667
0.098202,0.83654,0.49101,0.50481,16.504,101.24,-0.66098,0.22033,-1.0935,-0.8813,-1.4112e-08,-0.54677,0,0,0.2,-0,-0,0.66667
0.83006,0.91389,4.1503,0.62084,6.3222,6.4555,-6.8711,2.2904,-0.62988,-9.1615,1.2892e-09,-0.31494,0,0,0.2,-0,-0,0.66667
0.92067,0.33557,4.6033,-0.24664,-1.1244,1.7076,3.0277,-1.0092,-1.7843,4.0369,4.1677e-09,-0.89215,0,0,0.2,-9.4739e-16,0,0.66667
0.22363,0.2116,1.1181,-0.4326,-13.53,80.053,1.2899,-0.42996,-1.3342,1.7198,1.6064e-10,-0.66708,0,0,0.2,-0,-0,0.66667
0.20085,0.73423,1.0042,0.35135,11.079,83.802,-0.94091,0.31364,-1.5608,-1.2545,-3.8479e-10,-0.78042,0,0,0.2,-0,-0,0.66667
0.76844,0.32781,3.8422,-0.25828,-3.3928,10.001,2.6463,-0.88209,-1.7624,3.5284,-1.4915e-10,-0.8812,0,0,0.2,-0,-0,0.66667
0.020528,0.78497,0.10264,0.42745,14.074,114.64,-0.117,0.038999,-1.3504,-0.156,2.2991e-08,-0.67519,0,0,0.2,-0,-0,0.66667
0.48994,0.48942,2.4497,-0.015867,-0.39268,39.601,0.10365,-0.03455,-1.9982,0.1382,-5.9101e-13,-0.9991,0,0,0.2,-0,-0,0.66667
0.022375,0.65851,0.11188,0.23776,7.7966,114.31,-0.070933,0.023644,-1.799,-0.094577,-3.741e-08,-0.89952,0,0,0.2,-0,-0,0.66667
0.8073,0.44005,4.0365,-0.089925,-0.99223,7.1709,0.96794,-0.32265,-1.9714,1.2906,-2.2675e-10,-0.98571,0,0,0.2,1.8948e-15,0,0.66667
0.024361,0.43118,0.12181,-0.10322,-3.3797,113.96,0.033529,-0.011177,-1.9615,0.044705,-7.4042e-07,-0.98075,0,0,0.2,-4.4409e-17,0,0.66667
0.16055,0.69774,0.80277,0.29661,9.4861,90.559,-0.63495,0.21165,-1.6866,-0.8466,-1.1431e-09,-0.84328,0,0,0.2,-0,-0,0.66667
0.24613,0.6043,1.2307,0.15645,4.8117,76.271,-0.51342,0.17114,-1.9124,-0.68456,-7.3779e-11,-0.95621,0,0,0.2,-0,-0,0.66667
0.99712,0.39689,4.9856,-0.15467,0.056715,0.074815,2.0563,-0.68543,-1.9148,2.7417,-5.4792e-07,-0.95739,0,0,0.2,9.4739e-16,0,0.66667
0.42075,0.3075,2.1037,-0.28875,-7.7777,49.305,1.6199,-0.53997,-1.7046,2.1599,-1.441e-12,-0.85229,0,0,0.2,-2.3685e-16,0,0.66667
0.072263,0.15535,0.36131,-0.51697,-16.984,105.7,0.4981,-0.16603,-1.0501,0.66414,6.3562e-08,-0.52507,0,0,0.2,-2.2204e-17,0,0.66667
0.25027,0.67356,1.2514,0.26034,8.0009,75.618,-0.86874,0.28958,-1.7597,-1.1583,-8.0181e-11,-0.87984,0,0,0.2,-0,-0,0.66667
0.41157,0.55579,2.0578,0.083679,2.2686,50.564,-0.4592,0.15307,-1.9746,-0.61226,-2.1586e-13,-0.98731,0,0,0.2,7.1054e-16,0,0.66667
0.42026,0.083525,2.1013,-0.62471,-17.034,49.662,3.5006,-1.1669,-0.61262,4.6674,-6.9855e-13,-0.30631,0,0,0.2,-0,2.0856e-16,0.66667
0.12217,0.044824,0.61086,-0.68276,-22.351,97.195,1.1122,-0.37073,-0.34213,1.4829,6.3876e-09,-0.17106,0,0,0.2,-2.3685e-16,0,0.66667
0.0095038,0.0064081,0.047519,-0.74039,-24.666,116.55,0.093846,-0.031279,-0.05043,0.12513,4.3615e-06,-0.025215,0,0,0.2,-0,-0,0.66667
0.81546,0.18651,4.0773,-0.47024,-5.085,7.0348,5.1128,-1.7043,-1.2148,6.8171,-8.1852e-10,-0.60741,0,0,0.2,1.1842e-15,0,0.66667
0.24196,0.10642,1.2098,-0.59036,-18.396,77.129,1.9046,-0.63485,-0.7596,2.5394,2.5423e-11,-0.3798,0,0,0.2,-0,-0,0.66667
0.083424,0.34088,0.41712,-0.23868,-7.7756,103.74,0.26549,-0.088498,-1.7975,0.35399,3.061e-09,-0.89877,0,0,0.2,-0,-0,0.66667
0.39022,0.95234,1.9511,0.67852,19.101,54.094,-3.5303,1.1768,-0.36366,-4.7071,2.4825e-13,-0.18183,0,0,0.2,-0,-0,0.66667
0.43254,0.22345,2.1627,-0.41482,-11.072,47.702,2.3923,-0.79745,-1.388,3.1898,-1.0008e-12,-0.69402,0,0,0.2,-0,-0,0.66667
0.5241,0.48992,2.6205,-0.01512,-0.35673,35.131,0.10565,-0.035218,-1.9982,0.14087,6.7189e-14,-0.99908,0,0,0.2,4.737e-16,0,0.66667
0.76031,0.65454,3.8016,0.23181,3.1379,10.598,-2.35,0.78332,-1.8093,-3.1333,1.1418e-10,-0.90463,0,0,0.2,-2.3685e-16,0,0.66667
0.78814,0.72111,3.9407,0.33166,4.0325,8.6459,-3.4852,1.1617,-1.6089,-4.647,2.9181e-10,-0.80446,0,0,0.2,-0,-0,0.66667
0.46938,0.10204,2.3469,-0.59694,-15.386,42.756,3.7359,-1.2453,-0.73388,4.9812,-1.5166e-13,-0.36694,0,0,0.2,-0,-0,0.66667
0.88477,0.076088,4.4238,-0.63587,-4.4991,3.7393,7.5013,-2.5004,-0.56129,10.002,-9.8735e-09,-0.28065,0,0,0.2,-0,-0,0.66667
0.079143,0.48168,0.39572,-0.027476,-0.89411,104.47,0.028993,-0.0096644,-1.9977,0.038658,5.0549e-09,-0.99883,0,0,0.2,-1.1842e-16,0,0.66667
0.35568,0.0088445,1.7784,-0.73673,-21.436,59.324,3.4939,-1.1646,-0.06977,4.6585,-2.7733e-13,-0.034885,0,0,0.2,-0,-0,0.66667
0.35988,0.66214,1.7994,0.24321,6.9302,58.302,-1.167,0.38901,-1.7909,-1.556,2.342e-12,-0.89544,0,0,0.2,-9.4739e-16,0,0.66667
0.71091,0.88156,3.5545,0.57234,9.2967,15.152,-5.4251,1.8084,-0.83463,-7.2334,1.0343e-12,-0.41731,0,0,0.2,1.8948e-15,0,0.66667
0.84544,0.59199,4.2272,0.13799,1.2341,4.9067,-1.5555,0.51849,-1.9336,-2.074,2.0515e-09,-0.96682,0,0,0.2,2.3685e-16,0,0.66667
0.72322,0.15864,3.6161,-0.51204,-7.9811,13.972,4.9376,-1.6459,-1.0681,6.5835,-8.423e-12,-0.53407,0,0,0.2,1.8948e-15,0,0.66667
0.11084,0.96872,0.55421,0.70308,23.098,99.133,-1.0391,0.34635,-0.24422,-1.3854,-3.0884e-08,-0.12211,0,0,0.2,-3.4463e-16,0,0.66667
0.59935,0.75124,2.9968,0.37687,7.8852,26.207,-3.0117,1.0039,-1.4954,-4.0156,-1.94e-12,-0.74769,0,0,0.2,-0,-0,0.66667
0.50962,0.23845,2.5481,-0.39233,-9.5149,37.175,2.6659,-0.88862,-1.4517,3.5545,4.4853e-14,-0.72585,0,0,0.2,-0,-0,0.66667
0.60538,0.94861,3.0269,0.67292,14.134,25.944,-5.4317,1.8106,-0.38934,-7.2422,-6.3993e-13,-0.19467,0,0,0.2,9.4739e-16,0,0.66667
0.012168,0.64615,0.060842,0.21922,7.1894,116.08,-0.035568,0.011856,-1.8287,-0.047424,-1.4283e-12,-0.91436,0,0,0.2,-1.4803e-17,0,0.66667
0.2884,0.44757,1.442,-0.078639,-2.3579,69.421,0.30239,-0.1008,-1.977,0.40319,8.1832e-12,-0.9885,0,0,0.2,-0,-0,0.66667
0.051856,0.0098828,0.25928,-0.73518,-24.423,109.25,0.50831,-0.16944,-0.07753,0.67775,-8.6627e-08,-0.038765,0,0,0.2,-2.3685e-16,0,0.66667
0.38587,0.56979,1.9294,0.10468,2.9099,54.351,-0.53858,0.17953,-1.9606,-0.71811,4.6962e-13,-0.98029,0,0,0.2,-0,-0,0.66667
0.75909,0.45802,3.7954,-0.062976,-0.85313,10.61,0.63739,-0.21246,-1.9849,0.84985,-3.9924e-11,-0.99244,0,0,0.2,-0,-0,0.66667
0.276,0.27136,1.38,-0.34296,-10.403,71.479,1.2621,-0.4207,-1.581,1.6828,2.7449e-11,-0.79049,0,0,0.2,2.3685e-16,0,0.66667
0.61411,0.69529,3.0706,0.29294,5.9372,24.476,-2.3986,0.79954,-1.6944,-3.1982,-2.3017e-12,-0.84719,0,0,0.2,-0,-0,0.66667
0.62743,0.92974,3.1372,0.64461,12.93,23.48,-5.3927,1.7976,-0.52273,-7.1902,-5.298e-13,-0.26136,0,0,0.2,-4.737e-16,0,0.66667
0.25163,0.18691,1.2582,-0.46963,-14.497,75.482,1.5757,-0.52522,-1.2174,2.1009,5.0701e-11,-0.60871,0,0,0.2,-4.4409e-17,0,0.66667
0.47504,0.35557,2.3752,-0.21665,-5.4762,41.661,1.3722,-0.45742,-1.832,1.8297,-5.5655e-13,-0.91602,0,0,0.2,-0,-0,0.66667
0.1435,0.19964,0.71748,-0.45054,-14.541,93.491,0.862,-0.28733,-1.2779,1.1493,2.1793e-09,-0.63896,0,0,0.2,-2.3685e-16,0,0.66667
0.070018,0.21387,0.35009,-0.4292,-14.068,106.08,0.40069,-0.13356,-1.3446,0.53426,3.6477e-09,-0.67229,0,0,0.2,8.8818e-17,0,0.66667
0.79297,0.32549,3.9648,-0.26177,-3.1049,8.2381,2.7676,-0.92254,-1.7557,3.6902,-3.252e-10,-0.87784,0,0,0.2,-0,-0,0.66667
0.17947,0.57966,0.89737,0.11949,3.7869,87.338,-0.28595,0.095316,-1.948,-0.38126,-3.0269e-10,-0.974,0,0,0.2,-2.3685e-16,0,0.66667
0.12621,0.82112,0.63104,0.48168,15.635,96.443,-0.81055,0.27018,-1.1756,-1.0807,-4.5718e-09,-0.58781,0,0,0.2,-0,-0,0.66667
0.96712,0.017,4.8356,-0.7245,-1.534,1.5393,9.3423,-3.1141,-0.13373,12.456,5.8436e-07,-0.066867,0,0,0.2,3.7896e-15,2.3501e-16,0.66667
0.055643,0.21923,0.27821,-0.42116,-13.827,108.56,0.31246,-0.10415,-1.3697,0.41661,-2.427e-08,-0.68486,0,0,0.2,-2.3685e-16,0,0.66667
0.68195,0.49211,3.4097,-0.011829,-0.20403,17.325,0.10756,-0.035853,-1.9988,0.14341,-8.5321e-13,-0.99942,0,0,0.2,4.737e-16,0,0.66667
0.37495,0.33703,1.8747,-0.24446,-6.8755,56.025,1.2221,-0.40737,-1.7888,1.6295,-2.4695e-12,-0.89442,0,0,0.2,-4.737e-16,0,0.66667
0.17349,0.642,0.86744,0.213,6.772,88.359,-0.4927,0.16423,-1.8387,-0.65693,-5.7409e-10,-0.91937,0,0,0.2,-2.3685e-16,0,0.66667
0.27286,0.16373,1.3643,-0.50441,-15.401,72.068,1.8351,-0.61171,-1.0946,2.4468,1.2583e-11,-0.5473,0,0,0.2,-0,-0,0.66667
0.7317,0.81412,3.6585,0.47118,7.131,13.186,-4.5968,1.5323,-1.2116,-6.1291,2.1423e-11,-0.60581,0,0,0.2,-1.8948e-15,0,0.66667
0.85547,0.51122,4.2774,0.016829,0.14061,4.3378,-0.19196,0.063985,-1.9984,-0.25594,-1.2718e-10,-0.9992,0,0,0.2,-0,-0,0.66667
0.26883,0.76578,1.3442,0.39867,12.162,72.659,-1.429,0.47633,-1.4344,-1.9053,-3.1271e-11,-0.71718,0,0,0.2,-0,-0,0.66667
0.34714,0.13476,1.7357,-0.54785,-15.912,60.434,2.5358,-0.84526,-0.93247,3.3811,-1.485e-12,-0.46623,0,0,0.2,-0,-0,0.66667
0.40955,0.22527,2.0478,-0.4121,-11.265,51.006,2.2504,-0.75012,-1.3962,3.0005,-1.9253e-12,-0.69809,0,0,0.2,-0,-0,0.66667
0.82745,0.94514,4.1372,0.66772,6.9377,6.7191,-7.3667,2.4556,-0.41566,-9.8222,-3.0962e-10,-0.20783,0,0,0.2,-1.8948e-15,0,0.66667
0.74992,0.86114,3.7496,0.54171,7.7509,11.815,-5.4165,1.8055,-0.95739,-7.222,2.8337e-11,-0.4787,0,0,0.2,-0,-0,0.66667
0.20942,0.13551,1.0471,-0.54674,-17.276,82.457,1.5266,-0.50888,-0.93618,2.0355,1.6752e-10,-0.46809,0,0,0.2,4.737e-16,0,0.66667
0.54285,0.51185,2.7143,0.01777,0.40741,32.761,-0.12862,0.042873,-1.9982,-0.17149,1.1899e-13,-0.9991,0,0,0.2,-0,-0,0.66667
0.76674,0.02665,3.8337,-0.71003,-9.7107,10.875,7.2587,-2.4196,-0.20861,9.6783,-4.3592e-12,-0.10431,0,0,0.2,-0,-0,0.66667
0.47874,0.99297,2.3937,0.73945,18.987,41.691,-4.7201,1.5734,-0.055309,-6.2934,1.9806e-13,-0.027654,0,0,0.2,-9.4739e-16,0,0.66667
0.5555,0.99862,2.7775,0.74793,17.235,31.89,-5.5397,1.8466,-0.011202,-7.3863,3.2152e-13,-0.0056011,0,0,0.2,-2.3685e-16,0,0.66667
0.21251,0.41918,1.0626,-0.12123,-3.7898,81.81,0.34352,-0.11451,-1.9466,0.45803,1.6113e-10,-0.97331,0,0,0.2,-0,-0,0.66667
0.65934,0.47552,3.2967,-0.036724,-0.67061,19.561,0.32285,-0.10762,-1.9953,0.43047,1.0239e-13,-0.99763,0,0,0.2,-0,-0,0.66667
0.072077,0.75977,0.36038,0.38966,12.755,105.72,-0.37447,0.12482,-1.4593,-0.49929,4.4015e-10,-0.72963,0,0,0.2,-0,-0,0.66667
0.36173,0.15698,1.8087,-0.51453,-14.748,58.186,2.4817,-0.82722,-1.06,3.3089,-2.3501e-12,-0.52999,0,0,0.2,-0,-0,0.66667
0.4004,0.13142,2.002,-0.55287,-15.327,52.463,2.9516,-0.98386,-0.91268,3.9355,-1.2896e-12,-0.45634,0,0,0.2,-9.4739e-16,0,0.66667
0.60878,0.37436,3.0439,-0.18846,-3.8507,25.002,1.5297,-0.5099,-1.8758,2.0396,1.4292e-12,-0.93789,0,0,0.2,1.3619e-15,0,0.66667
0.94867,0.29757,4.7433,-0.30364,-0.86431,0.98958,3.8407,-1.2802,-1.6713,5.121,1.4654e-08,-0.83566,0,0,0.2,1.8948e-15,0,0.66667
0.21912,0.78268,1.0956,0.42401,13.287,80.794,-1.2388,0.41294,-1.3628,-1.6518,-1.7364e-10,-0.68138,0,0,0.2,-9.4739e-16,0,0.66667
0.54416,0.02294,2.7208,-0.71559,-16.753,33.218,5.1919,-1.7306,-0.1793,6.9226,3.797e-13,-0.08965,0,0,0.2,-0,1.8494e-16,0.66667
0.80224,0.70969,4.0112,0.31453,3.5856,7.6656,-3.3644,1.1215,-1.6475,-4.4859,4.4298e-10,-0.82375,0,0,0.2,-9.4739e-16,0,0.66667
0.60296,0.95558,3.0148,0.68337,14.43,26.235,-5.4939,1.8313,-0.33841,-7.3252,-3.8325e-13,-0.16921,0,0,0.2,-0,-0,0.66667
0.73883,0.79025,3.6941,0.43538,6.4223,12.54,-4.2889,1.4296,-1.3255,-5.7186,3.9075e-11,-0.66273,0,0,0.2,-0,-0,0.66667
0.11645,0.041796,0.58227,-0.68731,-22.535,98.171,1.0672,-0.35573,-0.31934,1.4229,-1.2631e-10,-0.15967,0,0,0.2,-0,-0,0.66667
0.83579,0.53313,4.1789,0.04969,0.47045,5.416,-0.55373,0.18458,-1.9913,-0.73831,-6.2832e-10,-0.99565,0,0,0.2,-1.8948e-15,0,0.66667
0.3113,0.32044,1.5565,-0.26934,-7.9711,65.832,1.1179,-0.37264,-1.7427,1.4906,3.8376e-12,-0.87135,0,0,0.2,-0,-0,0.66667
0.43711,0.48176,2.1856,-0.027365,-0.72194,46.887,0.15949,-0.053162,-1.998,0.21265,-6.3607e-13,-0.99899,0,0,0.2,-0,-0,0.66667
0.08488,0.3365,0.4244,-0.24524,-7.9882,103.49,0.27755,-0.092517,-1.7854,0.37007,4.0524e-09,-0.89272,0,0,0.2,-5.9212e-17,0,0.66667
0.68718,0.45155,3.4359,-0.072676,-1.2366,16.833,0.66588,-0.22196,-1.9819,0.88784,-1.7831e-12,-0.99093,0,0,0.2,-9.4739e-16,0,0.66667
0.84731,0.29003,4.2365,-0.31496,-2.8101,4.9564,3.5583,-1.1861,-1.647,4.7443,-1.2994e-09,-0.82348,0,0,0.2,-0,-0,0.66667
0.48369,0.21661,2.4184,-0.42508,-10.686,40.634,2.7414,-0.91381,-1.3592,3.6552,-1.2368e-13,-0.67962,0,0,0.2,1.1842e-16,0,0.66667
0.10135,0.10131,0.50676,-0.59804,-19.603,100.72,0.80816,-0.26939,-0.72756,1.0776,4.3797e-08,-0.36378,0,0,0.2,-0,-0,0.66667
0.10296,0.97275,0.51479,0.70912,23.343,100.48,-0.97346,0.32449,-0.21184,-1.298,-5.7589e-08,-0.10592,0,0,0.2,-0,-0,0.66667
0.11563,0.75551,0.57814,0.38327,12.44,98.228,-0.59089,0.19696,-1.4773,-0.78785,-3.2549e-09,-0.73863,0,0,0.2,-2.3685e-16,0,0.66667
0.49491,0.68882,2.4746,0.28323,6.9869,39.026,-1.869,0.623,-1.7152,-2.492,4.2466e-13,-0.8576,0,0,0.2,-0,-0,0.66667
0.62202,0.1323,3.1101,-0.55155,-11.124,23.909,4.5744,-1.5248,-0.91837,6.0992,1.4855e-12,-0.45919,0,0,0.2,-0,-0,0.66667
0.033262,0.19542,0.16631,-0.45687,-15.045,112.43,0.20262,-0.06754,-1.2581,0.27016,-6.3499e-08,-0.62907,0,0,0.2,-0,-0,0.66667
0.062583,0.89206,0.31292,0.58809,19.394,107.38,-0.49073,0.16358,-0.77109,-0.6543,-1.922e-08,-0.38554,0,0,0.2,-1.1842e-16,0,0.66667
0.98655,0.59929,4.9327,0.14894,0.049196,0.17391,-1.9591,0.65303,-1.9217,-2.6121,-1.2104e-07,-0.96083,0,0,0.2,-0,-0,0.66667
0.2911,0.77304,1.4555,0.40955,12.327,69.094,-1.5896,0.52988,-1.4029,-2.1195,-9.8717e-12,-0.70144,0,0,0.2,2.3685e-16,0,0.66667
0.47673,0.10996,2.3837,-0.58506,-14.936,41.744,3.7189,-1.2396,-0.7817,4.9585,1.0036e-13,-0.39085,0,0,0.2,-1.512e-15,0,0.66667
0.63063,0.97467,3.1532,0.712,14.254,23.266,-5.9868,1.9956,-0.19711,-7.9824,7.6383e-14,-0.098554,0,0,0.2,-0,-0,0.66667
0.7149,0.012412,3.5745,-0.73138,-11.899,15.129,6.9715,-2.3238,-0.097409,9.2954,3.5083e-13,-0.048705,0,0,0.2,-0,-2.2683e-16,0.66667
0.10945,0.82384,0.54723,0.48575,15.833,99.308,-0.70885,0.23628,-1.1619,-0.94514,-4.0804e-09,-0.58096,0,0,0.2,-0,-0,0.66667
0.10965,0.56197,0.54827,0.092961,3.0081,99.217,-0.13591,0.045305,-1.9715,-0.18122,-1.6964e-08,-0.98576,0,0,0.2,3.0346e-16,0,0.66667
0.91206,0.57352,4.5603,0.11028,0.55517,1.8986,-1.3412,0.44705,-1.9558,-1.7882,-3.1993e-08,-0.97789,0,0,0.2,-1.8948e-15,0,0.66667
0.32409,0.27996,1.6205,-0.33006,-9.6913,63.853,1.4263,-0.47543,-1.6133,1.9017,-1.3739e-12,-0.80666,0,0,0.2,7.1054e-16,0,0.66667
0.72386,0.56461,3.6193,0.09692,1.4823,13.51,-0.93542,0.31181,-1.9669,-1.2472,1.4401e-11,-0.98344,0,0,0.2,1.8948e-15,0,0.66667
0.70962,0.68164,3.5481,0.27246,4.3707,14.867,-2.5779,0.8593,-1.7355,-3.4372,1.5163e-11,-0.86777,0,0,0.2,-1.4211e-15,0,0.66667
0.46881,0.42504,2.344,-0.11244,-2.8601,42.476,0.70283,-0.23428,-1.9559,0.9371,-8.0008e-13,-0.97794,0,0,0.2,-0,-0,0.66667
0.091311,0.92629,0.45655,0.63944,21.035,102.45,-0.7785,0.2595,-0.54606,-1.038,-9.1481e-08,-0.27303,0,0,0.2,-0,-0,0.66667
0.88983,0.77926,4.4492,0.41888,2.7389,3.0759,-4.9698,1.6566,-1.3778,-6.6264,5.4414e-09,-0.68891,0,0,0.2,-2.1316e-15,0,0.66667
0.83452,0.93591,4.1726,0.65387,6.5251,6.2773,-7.2755,2.4252,-0.48006,-9.7007,-8.7779e-10,-0.24003,0,0,0.2,-1.0607e-15,0,0.66667
0.43167,0.451,2.1584,-0.073498,-1.9509,47.665,0.42303,-0.14101,-1.9797,0.56404,-4.724e-13,-0.98985,0,0,0.2,-0,-0,0.66667
0.4559,0.93917,2.2795,0.65875,17.307,44.686,-4.0043,1.3348,-0.45803,-5.3391,2.367e-13,-0.22902,0,0,0.2,-0,-0,0.66667
0.5459,0.23233,2.7295,-0.40151,-9.2281,32.578,2.9225,-0.97416,-1.4271,3.8966,9.7367e-13,-0.71357,0,0,0.2,-9.4739e-16,0,0.66667
0.3785,0.91044,1.8925,0.61566,17.465,55.762,-3.107,1.0357,-0.65261,-4.1426,9.5346e-13,-0.3263,0,0,0.2,-0,-0,0.66667
0.50468,0.78521,2.5234,0.42782,10.46,37.853,-2.8788,0.95961,-1.3493,-3.8384,-5.4179e-14,-0.67463,0,0,0.2,-0,-0,0.66667
0.47267,0.58678,2.3634,0.13018,3.2961,41.952,-0.82041,0.27347,-1.9395,-1.0939,2.6407e-13,-0.96977,0,0,0.2,-4.737e-16,0,0.66667
0.28587,0.35413,1.4293,-0.2188,-6.5807,69.853,0.83399,-0.278,-1.8291,1.112,1.8767e-11,-0.91453,0,0,0.2,-0,-0,0.66667
0.87249,0.90205,4.3624,0.60307,4.6755,4.2032,-7.0157,2.3386,-0.70745,-9.3542,-1.3509e-09,-0.35372,0,0,0.2,-9.4739e-16,0,0.66667
0.04716,0.14232,0.2358,-0.53652,-17.692,110.04,0.33737,-0.11246,-0.97717,0.44982,9.9905e-09,-0.48858,0,0,0.2,-0,-0,0.66667
0.36431,0.56984,1.8216,0.10476,2.9686,57.591,-0.50886,0.16962,-1.9605,-0.67848,8.9351e-13,-0.98024,0,0,0.2,-0,-0,0.66667
0.77404,0.05246,3.8702,-0.67131,-8.8924,10.245,6.9282,-2.3094,-0.39664,9.2377,-8.6153e-12,-0.19832,0,0,0.2,-9.4739e-16,0,0.66667
0.48551,0.055455,2.4276,-0.66682,-16.906,40.674,4.3167,-1.4389,-0.41979,5.7555,-1.2035e-13,-0.20989,0,0,0.2,-4.737e-16,0,0.66667
0.78628,0.75986,3.9314,0.38979,4.7943,8.8497,-4.0865,1.3622,-1.459,-5.4486,2.5169e-10,-0.72951,0,0,0.2,-0,-0,0.66667
0.48261,0.7558,2.413,0.3837,9.6458,40.744,-2.469,0.823,-1.4772,-3.292,4.9671e-13,-0.73859,0,0,0.2,-0,-0,0.66667
0.98946,0.88287,4.9473,0.5743,0.26267,0.81826,-7.5766,2.5255,-0.82673,-10.102,1.9897e-07,-0.41337,0,0,0.2,-0,-0,0.66667
0.88404,0.16372,4.4202,-0.50441,-3.5121,3.4756,5.9456,-1.9819,-1.0946,7.9275,3.1076e-10,-0.54731,0,0,0.2,-0,-0,0.66667
0.007732,0.43667,0.03866,-0.094999,-3.1119,116.85,0.0097939,-0.0032647,-1.9682,0.013059,-2.8984e-08,-0.9841,0,0,0.2,9.2519e-19,0,0.66667
0.47505,0.46144,2.3753,-0.057837,-1.4593,41.614,0.36634,-0.12211,-1.9874,0.48845,-6.2694e-13,-0.99371,0,0,0.2,-0,-0,0.66667
0.85741,0.51545,4.2871,0.02318,0.19112,4.2384,-0.265,0.088332,-1.998,-0.35333,2.8088e-10,-0.99899,0,0,0.2,-3.7896e-15,0,0.66667
0.34353,0.96147,1.7176,0.69221,20.291,61.125,-3.1706,1.0569,-0.29751,-4.2274,6.6791e-13,-0.14875,0,0,0.2,4.737e-16,-1.6925e-16,0.66667
0.72899,0.10651,3.645,-0.59024,-9.0879,13.619,5.7371,-1.9124,-0.76031,7.6494,-5.4956e-12,-0.38016,0,0,0.2,-0,-0,0.66667
0.41832,0.21242,2.0916,-0.43138,-11.695,49.752,2.406,-0.80201,-1.3383,3.208,-1.823e-12,-0.66916,0,0,0.2,-0,-0,0.66667
0.095764,0.39623,0.47882,-0.15565,-5.0539,101.61,0.19874,-0.066248,-1.914,0.26499,2.5312e-10,-0.95698,0,0,0.2,-0,-0,0.66667
0.31526,0.041313,1.5763,-0.68803,-20.591,65.491,2.8921,-0.96403,-0.31667,3.8561,-3.4195e-13,-0.15834,0,0,0.2,-9.4739e-16,0,0.66667
0.31302,0.27078,1.5651,-0.34382,-10.179,65.594,1.435,-0.47832,-1.5804,1.9133,1.7752e-12,-0.7902,0,0,0.2,-0,-0,0.66667
0.65455,0.73351,3.2728,0.35026,6.5135,20.224,-3.0569,1.019,-1.5638,-4.0758,-2.6708e-12,-0.7819,0,0,0.2,-0,-0,0.66667
0.92687,0.083069,4.6344,-0.6254,-2.8263,2.1932,7.7288,-2.5763,-0.60854,10.305,-2.2965e-08,-0.30427,0,0,0.2,-9.4739e-16,0,0.66667
0.70369,0.96115,3.5185,0.69172,11.58,16.035,-6.4901,2.1634,-0.2997,-8.6534,2.82e-13,-0.14985,0,0,0.2,-0,-0,0.66667
0.32303,0.79047,1.6152,0.43571,12.84,64.076,-1.8766,0.62555,-1.3243,-2.5022,1.4463e-12,-0.66215,0,0,0.2,-0,-0,0.66667
0.68312,0.04274,3.4156,-0.68589,-12.128,17.927,6.2473,-2.0824,-0.32657,8.3297,6.2039e-13,-0.16328,0,0,0.2,-0,-0,0.66667
0.084102,0.61924,0.42051,0.17887,5.8216,103.62,-0.20057,0.066858,-1.8858,-0.26743,5.2159e-09,-0.9429,0,0,0.2,-0,-0,0.66667
0.3755,0.39127,1.8775,-0.16309,-4.5792,55.915,0.81655,-0.27218,-1.906,1.0887,-1.7821e-12,-0.95298,0,0,0.2,-0,-0,0.66667
0.19006,0.68785,0.95029,0.28177,8.9119,85.587,-0.71404,0.23801,-1.719,-0.95205,-5.0697e-10,-0.85951,0,0,0.2,-4.737e-16,0,0.66667
0.69305,0.01768,3.4652,-0.72348,-12.503,17.077,6.6854,-2.2285,-0.13789,8.9139,2.1938e-13,-0.068947,0,0,0.2,-0,-0,0.66667
0.66211,0.71928,3.3105,0.32893,6.0027,19.438,-2.9038,0.96793,-1.6158,-3.8717,-2.2147e-12,-0.80789,0,0,0.2,-0,-0,0.66667
0.35307,0.8519,1.7654,0.52785,15.246,59.512,-2.4849,0.82831,-1.0085,-3.3132,2.1581e-12,-0.50427,0,0,0.2,-0,-0,0.66667
0.1806,0.83313,0.90301,0.49969,15.951,87.242,-1.2033,0.40109,-1.1112,-1.6044,-2.7541e-10,-0.55558,0,0,0.2,-0,-0,0.66667
0.15666,0.13687,0.7833,-0.5447,-17.561,91.292,1.1378,-0.37926,-0.94575,1.517,1.3146e-09,-0.47288,0,0,0.2,-0,-0,0.66667
0.23699,0.95886,1.1849,0.68829,21.591,78.006,-2.1749,0.72497,-0.31547,-2.8999,-5.5265e-12,-0.15774,0,0,0.2,-2.3685e-16,0,0.66667
0.32846,0.11359,1.6423,-0.57961,-17.1,63.338,2.5384,-0.84613,-0.80624,3.3845,-1.5272e-12,-0.40312,0,0,0.2,-4.737e-16,0,0.66667
0.8696,0.45428,4.348,-0.068585,-0.5177,3.6438,0.79522,-0.26507,-1.9822,1.0603,1.0319e-09,-0.99111,0,0,0.2,8.6497e-16,0,0.66667
0.12191,0.96751,0.60957,0.70126,22.976,97.246,-1.1399,0.37997,-0.25245,-1.5199,1.5931e-08,-0.12623,0,0,0.2,-3.5527e-16,0,0.66667
0.16814,0.20521,0.84071,-0.44219,-14.155,89.317,0.99135,-0.33045,-1.3041,1.3218,8.7356e-10,-0.65206,0,0,0.2,-0,-0,0.66667
0.37046,0.67156,1.8523,0.25733,7.2682,56.707,-1.2711,0.42369,-1.7637,-1.6948,2.2968e-12,-0.88183,0,0,0.2,-4.737e-16,0,0.66667
0.60435,0.0019786,3.0217,-0.74703,-15.803,26.201,6.0195,-2.0065,-0.016112,8.0261,5.2225e-13,-0.0080559,0,0,0.2,-0,-0,0.66667
0.055815,0.26573,0.27907,-0.35141,-11.517,108.52,0.26152,-0.087173,-1.5597,0.34869,-1.0921e-08,-0.77986,0,0,0.2,1.1842e-16,0,0.66667
0.24523,0.82851,1.2261,0.49276,15.274,76.538,-1.6112,0.53706,-1.1357,-2.1482,-5.0941e-11,-0.56786,0,0,0.2,-0,-0,0.66667
0.83397,0.85241,4.1699,0.52862,5.2102,6.0339,-5.8781,1.9594,-1.0057,-7.8374,1.0619e-09,-0.50283,0,0,0.2,-0,-0,0.66667
0.66288,0.18898,3.3144,-0.46653,-8.5509,19.521,4.1234,-1.3745,-1.2263,5.4979,2.6383e-12,-0.61316,0,0,0.2,-0,-0,0.66667
0.35143,0.16828,1.7572,-0.49759,-14.375,59.738,2.3316,-0.77719,-1.1185,3.1087,-2.1971e-12,-0.55926,0,0,0.2,-0,-0,0.66667
0.11421,0.84243,0.57106,0.51364,16.739,98.5,-0.78219,0.26073,-1.0624,-1.0429,-1.3672e-09,-0.53121,0,0,0.2,-3.2356e-16,0,0.66667
0.3249,0.45829,1.6245,-0.062558,-1.8289,63.651,0.271,-0.090334,-1.9857,0.36134,4.1339e-13,-0.99286,0,0,0.2,-4.737e-16,0,0.66667
0.24452,0.87613,1.2226,0.5642,17.539,76.695,-1.8394,0.61314,-0.86859,-2.4525,-4.1059e-11,-0.4343,0,0,0.2,9.4739e-16,0,0.66667
0.71057,0.57143,3.5528,0.10715,1.7071,14.683,-1.0151,0.33838,-1.9582,-1.3535,9.9494e-12,-0.97912,0,0,0.2,-0,-0,0.66667
0.30055,0.45703,1.5027,-0.064461,-1.9173,67.485,0.25831,-0.086105,-1.9847,0.34442,3.608e-12,-0.99233,0,0,0.2,-4.737e-16,0,0.66667
0.67724,0.78096,3.3862,0.42143,7.4366,18.048,-3.8055,1.2685,-1.3691,-5.074,-1.1164e-12,-0.68455,0,0,0.2,-1.3027e-15,0,0.66667
0.41266,0.20486,2.0633,-0.44271,-12.076,50.579,2.4358,-0.81195,-1.302,3.2478,-1.7255e-12,-0.65099,0,0,0.2,-4.737e-16,0,0.66667
0.34994,0.56267,1.7497,0.094,2.6957,59.78,-0.43859,0.1462,-1.9691,-0.58478,1.0835e-12,-0.98455,0,0,0.2,-9.4739e-16,0,0.66667
0.78582,0.50929,3.9291,0.013937,0.16955,8.6169,-0.14602,0.048674,-1.9987,-0.1947,-4.171e-11,-0.99935,0,0,0.2,-0,-0,0.66667
0.1854,0.90732,0.92702,0.61098,19.546,86.488,-1.5104,0.50346,-0.67405,-2.0138,4.0473e-10,-0.33702,0,0,0.2,4.737e-16,3.1326e-17,0.66667
0.45682,0.96662,2.2841,0.69992,18.409,44.615,-4.2632,1.4211,-0.25875,-5.6843,-1.4033e-13,-0.12937,0,0,0.2,5.9212e-16,0,0.66667
0.58351,0.71058,2.9176,0.31587,6.7925,27.976,-2.4575,0.81917,-1.6446,-3.2767,-1.3689e-12,-0.82229,0,0,0.2,-4.737e-16,0,0.66667
0.3212,0.21449,1.606,-0.42826,-12.634,64.358,1.8341,-0.61137,-1.3476,2.4455,-1.5127e-12,-0.67379,0,0,0.2,3.0861e-16,0,0.66667
0.70625,0.4274,3.5312,-0.1089,-1.7572,15.073,1.0255,-0.34182,-1.9575,1.3673,-8.5124e-12,-0.97877,0,0,0.2,9.4739e-16,0,0.66667
0.91783,0.77585,4.5891,0.41377,2.0057,2.0259,-5.0636,1.6879,-1.3912,-6.7515,1.7706e-09,-0.69561,0,0,0.2,5.4346e-16,0,0.66667
0.073071,0.43242,0.36535,-0.10138,-3.3031,105.52,0.098768,-0.032923,-1.9632,0.13169,1.0927e-07,-0.98162,0,0,0.2,1.4803e-16,0,0.66667
0.18143,0.4371,0.90714,-0.094346,-2.9872,87.007,0.22823,-0.076075,-1.9688,0.3043,-1.3774e-10,-0.98441,0,0,0.2,-2.8866e-16,0,0.66667
0.50911,0.76859,2.5456,0.40288,9.7814,37.251,-2.7348,0.91161,-1.4218,-3.6464,-1.5965e-13,-0.71088,0,0,0.2,-0,-0,0.66667
0.79988,0.60458,3.9994,0.15687,1.796,7.6906,-1.6731,0.55768,-1.9122,-2.2307,2.1833e-10,-0.95609,0,0,0.2,-0,-0,0.66667
0.63096,0.5947,3.1548,0.14205,2.77,22.549,-1.195,0.39833,-1.9286,-1.5933,-1.2224e-12,-0.96432,0,0,0.2,-1.8948e-15,0,0.66667
0.019691,0.4018,0.098453,-0.14731,-4.8257,114.77,0.038674,-0.012891,-1.9229,0.051565,1.6879e-07,-0.96147,0,0,0.2,1.4803e-17,0,0.66667
0.32998,0.85195,1.6499,0.52792,15.526,63.061,-2.3227,0.77424,-1.0094,-3.0969,2.369e-12,-0.5047,0,0,0.2,-0,-0,0.66667
0.65383,0.39671,3.2691,-0.15493,-2.8702,20.155,1.3507,-0.45022,-1.9146,1.8009,1.1298e-12,-0.95732,0,0,0.2,-0,-0,0.66667
0.68714,0.81893,3.4357,0.47839,8.2517,17.178,-4.383,1.461,-1.1875,-5.8439,-7.7582e-13,-0.59374,0,0,0.2,-0,-0,0.66667
0.48225,0.39361,2.4112,-0.15958,-3.9934,40.662,1.0261,-0.34203,-1.9093,1.3681,-4.6452e-13,-0.95467,0,0,0.2,4.737e-16,0,0.66667
0.053735,0.41856,0.26867,-0.12216,-3.991,108.87,0.087526,-0.029175,-1.9458,0.1167,-4.8236e-08,-0.9729,0,0,0.2,-0,-0,0.66667
0.62779,0.3525,3.1389,-0.22126,-4.3507,22.93,1.852,-0.61734,-1.8259,2.4694,2.094e-12,-0.91293,0,0,0.2,-0,-0,0.66667
0.50403,0.181,2.5202,-0.47851,-11.733,37.989,3.2158,-1.0719,-1.1857,4.2877,2.4425e-15,-0.59285,0,0,0.2,-4.737e-16,0,0.66667
0.72541,0.45976,3.6271,-0.060359,-0.91823,13.367,0.5838,-0.1946,-1.9862,0.7784,-1.1651e-11,-0.99308,0,0,0.2,-0,-0,0.66667
0.39049,0.88182,1.9525,0.57273,16.041,53.939,-2.982,0.994,-0.83495,-3.976,1.1025e-12,-0.41747,0,0,0.2,-9.4739e-16,1.6169e-16,0.66667
0.83573,0.64832,4.1786,0.22248,2.118,5.5069,-2.4791,0.82637,-1.8232,-3.3055,6.8323e-10,-0.91159,0,0,0.2,-0,-0,0.66667
0.3075,0.47001,1.5375,-0.044984,-1.3315,66.383,0.18444,-0.061479,-1.9933,0.24591,2.1421e-12,-0.99663,0,0,0.2,-0,-0,0.66667
0.86379,0.74578,4.3189,0.36867,2.9567,4.1777,-4.246,1.4153,-1.5168,-5.6613,1.8325e-09,-0.75839,0,0,0.2,-9.4739e-16,0,0.66667
0.014481,0.16046,0.072403,-0.50931,-16.813,115.69,0.098335,-0.032778,-1.0789,0.13111,2.1935e-08,-0.53943,0,0,0.2,-0,-0,0.66667
0.76274,0.80242,3.8137,0.45363,6.1561,10.669,-4.6134,1.5378,-1.2681,-6.1512,9.088e-11,-0.63406,0,0,0.2,9.4739e-16,0,0.66667
0.82737,0.53621,4.1368,0.054319,0.53967,5.9094,-0.59923,0.19974,-1.9907,-0.79897,-1.4088e-10,-0.99536,0,0,0.2,-0,-0,0.66667
0.6809,0.065784,3.4045,-0.65132,-11.552,18.068,5.9131,-1.971,-0.49152,7.8842,1.2363e-12,-0.24576,0,0,0.2,-1.8948e-15,0,0.66667
0.90273,0.99868,4.5137,0.74802,4.6123,3.3371,-9.0036,3.0012,-0.011324,-12.005,-1.7236e-08,-0.0056621,0,0,0.2,3.4343e-15,-3.825e-17,0.66667
0.20173,0.82308,1.0087,0.48462,15.332,83.705,-1.3035,0.43451,-1.1653,-1.738,-2.3512e-10,-0.58263,0,0,0.2,-4.737e-16,0,0.66667
0.35195,0.74005,1.7597,0.36007,10.354,59.567,-1.6897,0.56323,-1.538,-2.2529,2.8469e-12,-0.769,0,0,0.2,-4.737e-16,0,0.66667
0.22914,0.20064,1.1457,-0.44904,-14.014,79.152,1.3719,-0.45731,-1.2821,1.8292,1.1386e-10,-0.64104,0,0,0.2,-0,-0,0.66667
0.84492,0.2232,4.2246,-0.4152,-3.7918,5.2233,4.6774,-1.5591,-1.3882,6.2366,-1.0884e-09,-0.69408,0,0,0.2,-1.8948e-15,0,0.66667
0.74641,0.26853,3.7321,-0.3472,-4.9664,11.808,3.4554,-1.1518,-1.5708,4.6072,-6.7943e-11,-0.7854,0,0,0.2,-0,-0,0.66667
0.86905,0.19166,4.3453,-0.46252,-3.6061,4.0738,5.3593,-1.7864,-1.2392,7.1458,-1.5403e-09,-0.61959,0,0,0.2,-1.8948e-15,0,0.66667
0.34762,0.9859,1.7381,0.72885,21.336,60.539,-3.3782,1.1261,-0.11048,-4.5043,6.0707e-13,-0.05524,0,0,0.2,4.737e-16,0,0.66667
0.15395,0.34567,0.76975,-0.23149,-7.4113,91.667,0.47518,-0.15839,-1.8105,0.63357,1.5995e-09,-0.90527,0,0,0.2,-0,-0,0.66667
0.96828,0.26998,4.8414,-0.34503,-0.55931,0.64671,4.4544,-1.4848,-1.5774,5.9393,1.4434e-08,-0.78871,0,0,0.2,9.4739e-16,0,0.66667
0.44892,0.38104,2.2446,-0.17843,-4.6509,45.252,1.068,-0.35601,-1.8866,1.4241,-5.9142e-13,-0.94331,0,0,0.2,9.4739e-16,0,0.66667
0.7299,0.33153,3.6495,-0.2527,-3.8051,13.081,2.4593,-0.81976,-1.7722,3.2791,-3.848e-11,-0.88608,0,0,0.2,9.4739e-16,0,0.66667
0.65417,0.049432,3.2708,-0.67585,-12.814,20.749,5.8949,-1.965,-0.3758,7.8599,6.5281e-13,-0.1879,0,0,0.2,-0,-0,0.66667
0.14285,0.52089,0.71423,0.031338,1.0051,93.537,-0.059688,0.019896,-1.9965,-0.079584,5.179e-10,-0.99825,0,0,0.2,-0,-0,0.66667
0.84418,0.86043,4.2209,0.54065,5.0273,5.4887,-6.0854,2.0285,-0.96128,-8.1139,1.2154e-09,-0.48064,0,0,0.2,-9.4739e-16,0,0.66667
0.97846,0.028444,4.8923,-0.70733,-0.95902,1.3172,9.228,-3.076,-0.2211,12.304,6.8615e-06,-0.11055,0,0,0.2,-1.8948e-15,0,0.66667
0.96625,0.22659,4.8312,-0.41012,-0.73953,0.78796,5.2837,-1.7612,-1.4021,7.0449,2.9714e-08,-0.70104,0,0,0.2,-0,-0,0.66667
0.3364,0.46031,1.682,-0.059537,-1.7255,61.862,0.26705,-0.089015,-1.9865,0.35606,-6.7391e-14,-0.99326,0,0,0.2,2.3685e-16,0,0.66667
0.92595,0.6871,4.6297,0.28065,1.1934,1.578,-3.4649,1.155,-1.7208,-4.6199,1.7574e-09,-0.86039,0,0,0.2,2.2501e-15,0,0.66667
0.13324,0.94588,0.66622,0.66881,21.818,95.307,-1.1882,0.39607,-0.40868,-1.5843,6.5902e-09,-0.20434,0,0,0.2,2.3685e-16,0,0.66667
0.93972,0.9198,4.6986,0.6297,2.3458,1.8484,-7.8899,2.63,-0.58996,-10.52,8.4708e-08,-0.29498,0,0,0.2,1.8948e-15,0,0.66667
0.0441,0.52136,0.2205,0.03204,1.0473,110.54,-0.018839,0.0062796,-1.9962,-0.025119,-1.7685e-07,-0.99809,0,0,0.2,-0,-0,0.66667
0.40908,0.77445,2.0454,0.41167,11.258,51.074,-2.2454,0.74847,-1.3976,-2.9939,1.4031e-12,-0.69878,0,0,0.2,-2.3685e-16,0,0.66667
0.84301,0.25814,4.215,-0.36279,-3.3369,5.2514,4.0778,-1.3593,-1.5328,5.437,-1.3471e-09,-0.76642,0,0,0.2,-0,-0,0.66667
0.72623,0.86015,3.6312,0.54022,8.3584,13.762,-5.231,1.7437,-0.96112,-6.9746,9.1083e-12,-0.48056,0,0,0.2,-1.8074e-15,0,0.66667
0.72093,0.58245,3.6046,0.12367,1.9097,13.774,-1.1888,0.39626,-1.9456,-1.585,1.7881e-11,-0.97278,0,0,0.2,-9.4739e-16,0,0.66667
0.27735,0.50647,1.3867,0.0097109,0.29313,71.191,-0.03591,0.01197,-1.9995,-0.04788,-3.9769e-13,-0.99976,0,0,0.2,-0,-0,0.66667
0.42121,0.15878,2.1061,-0.51183,-13.875,49.406,2.8745,-0.95818,-1.0702,3.8327,-1.1366e-12,-0.5351,0,0,0.2,9.4739e-16,0,0.66667
0.58955,0.098303,2.9477,-0.60255,-12.979,27.62,4.7364,-1.5788,-0.70916,6.3152,6.0441e-13,-0.35458,0,0,0.2,-0,-0,0.66667
0.38914,0.70633,1.9457,0.30949,8.6044,53.938,-1.6058,0.53527,-1.6596,-2.1411,1.8452e-12,-0.82979,0,0,0.2,-0,-0,0.66667
0.50598,0.72314,2.5299,0.33472,8.1445,37.604,-2.2581,0.7527,-1.6014,-3.0108,6.9722e-14,-0.8007,0,0,0.2,-0,-0,0.66667
0.54035,0.21788,2.7017,-0.42318,-9.8191,33.289,3.0489,-1.0163,-1.3636,4.0652,7.7338e-13,-0.6818,0,0,0.2,-1.0658e-15,0,0.66667
0.82427,0.37278,4.1214,-0.19082,-1.935,6.1568,2.0972,-0.69907,-1.8711,2.7963,-5.2313e-10,-0.93553,0,0,0.2,-1.1842e-15,0,0.66667
0.72498,0.44651,3.6249,-0.080231,-1.2225,13.409,0.77554,-0.25851,-1.9763,1.0341,-1.3608e-11,-0.98813,0,0,0.2,-0,-0,0.66667
0.66049,0.41929,3.3024,-0.12107,-2.2063,19.464,1.0662,-0.35539,-1.9471,1.4216,2.4514e-13,-0.97356,0,0,0.2,9.4739e-16,0,0.66667
0.035884,0.8363,0.17942,0.50445,16.632,111.98,-0.24135,0.080451,-1.0948,-0.32181,2.1906e-08,-0.54739,0,0,0.2,2.9606e-17,0,0.66667
0.15539,0.93296,0.77693,0.64944,21.031,91.55,-1.3455,0.4485,-0.50159,-1.794,-2.3231e-09,-0.25079,0,0,0.2,-2.3685e-16,-1.1765e-16,0.66667
0.88653,0.021107,4.4326,-0.71834,-5.0912,3.8852,8.491,-2.8303,-0.16472,11.321,-4.6445e-09,-0.082358,0,0,0.2,-0,-0,0.66667
0.76576,0.83426,3.8288,0.50138,6.751,10.518,-5.1192,1.7064,-1.1072,-6.8256,8.4546e-11,-0.55358,0,0,0.2,-0,-0,0.66667
0.18038,0.79132,0.90192,0.43699,13.924,87.255,-1.051,0.35034,-1.32,-1.4013,-6.5408e-10,-0.66001,0,0,0.2,-0,-0,0.66667
0.065156,0.19595,0.32578,-0.45607,-14.97,106.92,0.39621,-0.13207,-1.2604,0.52828,-2.2358e-09,-0.63022,0,0,0.2,-0,-0,0.66667
0.16273,0.59753,0.81366,0.1463,4.6654,90.167,-0.31743,0.10581,-1.9237,-0.42324,-5.739e-11,-0.96185,0,0,0.2,-4.737e-16,0,0.66667
0.83741,0.24947,4.187,-0.3758,-3.5782,5.5819,4.1959,-1.3986,-1.4983,5.5946,-1.0899e-09,-0.74914,0,0,0.2,-3.5527e-16,0,0.66667
0.97311,0.56584,4.8655,0.098756,0.11807,0.33104,-1.2813,0.42711,-1.9655,-1.7085,-8.9588e-07,-0.98276,0,0,0.2,-0,-0,0.66667
0.7551,0.55649,3.7755,0.084735,1.1652,10.926,-0.85312,0.28437,-1.9741,-1.1375,3.7836e-11,-0.98706,0,0,0.2,9.4739e-16,0,0.66667
0.7846,0.48547,3.923,-0.021795,-0.26656,8.7039,0.22801,-0.076003,-1.9977,0.30401,6.9775e-13,-0.99887,0,0,0.2,9.4739e-16,0,0.66667
0.029384,0.80094,0.14692,0.45141,14.866,113.1,-0.17686,0.058953,-1.2755,-0.23581,5.4701e-08,-0.63777,0,0,0.2,-0,-0,0.66667
0.87464,0.12655,4.3732,-0.56018,-4.2437,4.0077,6.5327,-2.1776,-0.88627,8.7102,-1.1028e-08,-0.44313,0,0,0.2,-0,4.5222e-17,0.66667
0.68115,0.84575,3.4057,0.51863,9.1089,17.809,-4.7102,1.5701,-1.0438,-6.2802,-1.7324e-12,-0.52188,0,0,0.2,-0,-0,0.66667
0.34905,0.69207,1.7452,0.2881,8.2902,59.974,-1.3408,0.44694,-1.7047,-1.7878,2.4033e-12,-0.85235,0,0,0.2,-0,-0,0.66667
0.49958,0.18161,2.4979,-0.47759,-11.781,38.572,3.1813,-1.0604,-1.1902,4.2417,-1.3367e-13,-0.59512,0,0,0.2,7.1054e-16,-8.4229e-18,0.66667
0.95006,0.90026,4.7503,0.60039,1.8233,1.5236,-7.6054,2.5351,-0.7185,-10.14,-3.3141e-09,-0.35925,0,0,0.2,-4.737e-16,1.5472e-16,0.66667
0.054088,0.81076,0.27044,0.46613,15.325,108.83,-0.33616,0.11205,-1.2276,-0.44821,-8.0454e-09,-0.61378,0,0,0.2,8.1416e-17,0,0.66667
0.1917,0.65963,0.9585,0.23944,7.5626,85.302,-0.61201,0.204,-1.7964,-0.81602,-4.3814e-10,-0.89819,0,0,0.2,-0,-0,0.66667
0.15015,0.93317,0.75075,0.64975,21.075,92.435,-1.3008,0.4336,-0.49869,-1.7344,-3.3877e-09,-0.24934,0,0,0.2,3.5527e-16,0,0.66667
0.53825,0.75052,2.6912,0.37578,8.7328,33.506,-2.6968,0.89893,-1.4983,-3.5957,-3.757e-13,-0.74915,0,0,0.2,-0,-0,0.66667
0.23563,0.25034,1.1781,-0.37449,-11.626,78.055,1.1765,-0.39218,-1.5032,1.5687,1.2334e-10,-0.75159,0,0,0.2,-0,-0,0.66667
0.076734,0.46742,0.38367,-0.048864,-1.5908,104.89,0.049994,-0.016665,-1.9931,0.066659,-1.7866e-07,-0.99653,0,0,0.2,-1.4803e-16,0,0.66667
0.515,0.90438,2.575,0.60657,14.734,36.723,-4.1651,1.3884,-0.69363,-5.5534,-3.153e-14,-0.34681,0,0,0.2,3.5527e-16,0,0.66667
0.83625,0.84836,4.1813,0.52254,5.0803,5.8921,-5.8263,1.9421,-1.0288,-7.7684,1.3438e-09,-0.51439,0,0,0.2,-0,-0,0.66667
0.68195,0.55467,3.4097,0.082006,1.415,17.335,-0.74565,0.24855,-1.9754,-0.9942,1.4093e-12,-0.98772,0,0,0.2,4.737e-16,0,0.66667
0.036724,0.025988,0.18362,-0.71102,-23.627,111.86,0.34815,-0.11605,-0.20219,0.4642,2.1875e-06,-0.10109,0,0,0.2,-2.9606e-17,0,0.66667
0.04527,0.03859,0.22635,-0.69211,-22.963,110.38,0.41776,-0.13925,-0.29732,0.55701,3.5801e-06,-0.14866,0,0,0.2,-0,-1.7026e-16,0.66667
0.53809,0.072325,2.6904,-0.64151,-15.092,33.849,4.6025,-1.5342,-0.53577,6.1367,3.7126e-13,-0.26788,0,0,0.2,-9.4739e-16,0,0.66667
0.14142,0.23022,0.70708,-0.40467,-13.052,93.832,0.76303,-0.25434,-1.4183,1.0174,2.1309e-09,-0.70914,0,0,0.2,-2.3685e-16,0,0.66667
0.70723,0.11713,3.5362,-0.5743,-9.4297,15.483,5.4155,-1.8052,-0.82693,7.2207,-5.8931e-13,-0.41346,0,0,0.2,9.4739e-16,0,0.66667
0.24745,0.18911,1.2372,-0.46633,-14.426,76.162,1.5385,-0.51285,-1.2278,2.0514,6.7695e-11,-0.61392,0,0,0.2,-9.4739e-16,0,0.66667
0.43996,0.88505,2.1998,0.57758,15.389,46.809,-3.3881,1.1294,-0.81382,-4.5175,3.8392e-13,-0.40691,0,0,0.2,-0,-0,0.66667
0.62029,0.35326,3.1015,-0.22011,-4.3967,23.745,1.8204,-0.60681,-1.8271,2.4272,1.9669e-12,-0.91354,0,0,0.2,-0,-0,0.66667
0.97274,0.2423,4.8637,-0.38655,-0.52738,0.63884,5.0135,-1.6712,-1.4684,6.6846,2.0789e-08,-0.7342,0,0,0.2,-9.4739e-16,0,0.66667
0.19701,0.49506,0.98503,-0.0074058,-0.23295,84.389,0.019453,-0.0064844,-1.9995,0.025938,2.1541e-10,-0.99973,0,0,0.2,-0,-0,0.66667
0.91184,0.9253,4.5592,0.63795,3.4813,2.7065,-7.7561,2.5854,-0.55196,-10.341,1.0194e-07,-0.27598,0,0,0.2,-9.4739e-16,0,0.66667
0.35078,0.97482,1.7539,0.71223,20.779,60.04,-3.3311,1.1104,-0.19578,-4.4415,1.221e-12,-0.097889,0,0,0.2,-0,-0,0.66667
0.16192,0.63754,0.80962,0.2063,6.5852,90.311,-0.44541,0.14847,-1.8476,-0.59388,-9.2384e-10,-0.92382,0,0,0.2,2.3685e-16,0,0.66667
0.42086,0.34494,2.1043,-0.23258,-6.257,49.261,1.3052,-0.43505,-1.8094,1.7402,-1.4758e-12,-0.90471,0,0,0.2,-0,-0,0.66667
0.84148,0.0782,4.2074,-0.6327,-6.05,5.8383,7.0987,-2.3662,-0.57645,9.465,-5.6661e-12,-0.28823,0,0,0.2,1.8948e-15,0,0.66667
0.043786,0.93575,0.21893,0.65362,21.654,110.63,-0.38159,0.1272,-0.48184,-0.50879,8.8623e-07,-0.24092,0,0,0.2,-7.4015e-17,-5.0923e-17,0.66667
0.13697,0.14018,0.68486,-0.53974,-17.502,94.627,0.98571,-0.32857,-0.96354,1.3143,3.0505e-10,-0.48177,0,0,0.2,2.3685e-16,0,0.66667
0.58994,0.33376,2.9497,-0.24936,-5.2897,27.18,1.9614,-0.6538,-1.7784,2.6152,1.7086e-12,-0.88921,0,0,0.2,-4.737e-16,0,0.66667
0.40858,0.96915,2.0429,0.70372,19.492,51.443,-3.8337,1.2779,-0.24059,-5.1116,3.5749e-14,-0.1203,0,0,0.2,-0,-0,0.66667
0.47828,0.54932,2.3914,0.073976,1.8591,41.178,-0.47175,0.15725,-1.9794,-0.629,7.5245e-14,-0.98972,0,0,0.2,-0,-0,0.66667
0.82205,0.36567,4.1103,-0.20149,-2.0686,6.2991,2.2085,-0.73618,-1.8548,2.9447,-4.3447e-10,-0.92739,0,0,0.2,-9.4739e-16,0,0.66667
0.16727,0.79239,0.83636,0.43858,14.042,89.463,-0.97817,0.32606,-1.3153,-1.3042,-9.6809e-10,-0.65765,0,0,0.2,-0,-0,0.66667
0.32202,0.70099,1.6101,0.30148,8.8598,64.163,-1.2944,0.43148,-1.6757,-1.7259,-4.5774e-13,-0.83786,0,0,0.2,-4.737e-16,0,0.66667
0.20551,0.45933,1.0275,-0.061004,-1.9122,82.971,0.16716,-0.055719,-1.9868,0.22288,8.9412e-11,-0.99339,0,0,0.2,-2.3685e-16,0,0.66667
0.099323,0.71998,0.49661,0.32997,10.735,101.02,-0.43698,0.14566,-1.6132,-0.58264,-1.2897e-09,-0.80662,0,0,0.2,-2.3685e-16,0,0.66667
0.52436,0.27671,2.6218,-0.33493,-7.9384,35.228,2.3417,-0.78055,-1.6008,3.1222,2.045e-13,-0.80039,0,0,0.2,7.1054e-16,0,0.66667
0.21257,0.6649,1.0629,0.24735,7.7439,81.823,-0.70107,0.23369,-1.7816,-0.93476,-2.8501e-10,-0.89082,0,0,0.2,-4.737e-16,0,0.66667
0.90438,0.51361,4.5219,0.020417,0.11203,2.1536,-0.24619,0.082065,-1.9985,-0.32826,-1.1667e-08,-0.99924,0,0,0.2,-0,-0,0.66667
0.046031,0.22699,0.23015,-0.40952,-13.454,110.22,0.25134,-0.08378,-1.4045,0.33512,-2.4672e-08,-0.70223,0,0,0.2,-1.1842e-16,0,0.66667
0.89727,0.77021,4.4864,0.40531,2.4658,2.7537,-4.849,1.6163,-1.4148,-6.4653,6.2734e-09,-0.70742,0,0,0.2,-0,-0,0.66667
0.58773,0.0021656,2.9387,-0.74675,-16.29,28.083,5.8519,-1.9506,-0.017415,7.8025,3.7303e-14,-0.0087077,0,0,0.2,3.7896e-15,0,0.66667
0.8616,0.33154,4.308,-0.25268,-2.0395,4.1479,2.9028,-0.96761,-1.7729,3.8704,-7.5629e-10,-0.88643,0,0,0.2,-0,-0,0.66667
0.02917,0.4359,0.14585,-0.096156,-3.1473,113.13,0.037399,-0.012467,-1.9683,0.049865,-8.5431e-07,-0.98417,0,0,0.2,4.3181e-18,0,0.66667
0.33301,0.64438,1.6651,0.21657,6.3027,62.42,-0.96161,0.32054,-1.8324,-1.2821,8.8862e-13,-0.91618,0,0,0.2,-0,-0,0.66667
0.50111,0.48759,2.5056,-0.018616,-0.45385,38.118,0.12438,-0.04146,-1.9991,0.16584,1.0535e-13,-0.99954,0,0,0.2,-1.4211e-15,0,0.66667
0.21711,0.23808,1.0856,-0.39288,-12.312,81.114,1.1373,-0.37911,-1.4513,1.5164,2.2634e-10,-0.72565,0,0,0.2,-0,-0,0.66667
0.4226,0.50424,2.113,0.0063536,0.17025,48.961,-0.0358,0.011933,-2.0012,-0.047733,-2.9906e-13,-1.0006,0,0,0.2,-0,-0,0.66667
0.029533,0.25831,0.14766,-0.36254,-11.912,113.07,0.14276,-0.047585,-1.533,0.19034,-1.4839e-08,-0.76652,0,0,0.2,-0,-0,0.66667
0.58718,0.57368,2.9359,0.11053,2.3509,27.434,-0.86532,0.28844,-1.9555,-1.1538,-7.534e-13,-0.97775,0,0,0.2,-9.4739e-16,0,0.66667
0.92973,0.69916,4.6487,0.29873,1.2036,1.4857,-3.7032,1.2344,-1.6816,-4.9376,-1.7337e-09,-0.84078,0,0,0.2,-0,-0,0.66667
0.075808,0.19848,0.37904,-0.45228,-14.821,105.08,0.45715,-0.15238,-1.2726,0.60954,9.4655e-10,-0.6363,0,0,0.2,-0,-0,0.66667
0.84182,0.40509,4.2091,-0.14237,-1.3025,5.1085,1.598,-0.53266,-1.9293,2.1306,-1.0009e-09,-0.96465,0,0,0.2,1.3027e-15,0,0.66667
0.74778,0.026843,3.7389,-0.70973,-10.386,12.335,7.0763,-2.3588,-0.20966,9.4351,1.1409e-12,-0.10483,0,0,0.2,-0,-0,0.66667
0.22999,0.47214,1.1499,-0.041792,-1.2951,78.911,0.12815,-0.042718,-1.994,0.17087,1.5654e-11,-0.99699,0,0,0.2,-0,-0,0.66667
0.51812,0.92372,2.5906,0.63557,15.394,36.364,-4.3907,1.4636,-0.56344,-5.8543,-9.1038e-14,-0.28172,0,0,0.2,9.4739e-16,0,0.66667
0.31376,0.18887,1.5688,-0.4667,-13.858,65.547,1.9524,-0.6508,-1.2272,2.6032,2.3703e-13,-0.61359,0,0,0.2,-9.4739e-16,0,0.66667
0.61579,0.20308,3.0789,-0.44539,-9.0485,24.445,3.6568,-1.2189,-1.2935,4.8758,2.0224e-12,-0.64675,0,0,0.2,-0,-0,0.66667
0.21317,0.967,1.0659,0.7005,22.237,81.926,-1.991,0.66368,-0.25556,-2.6547,-1.836e-12,-0.12778,0,0,0.2,1.7764e-16,0,0.66667
0.43589,0.61309,2.1794,0.16964,4.4863,47.088,-0.9859,0.32863,-1.8978,-1.3145,4.3493e-13,-0.94891,0,0,0.2,-0,-0,0.66667
0.78908,0.60201,3.9454,0.15301,1.8391,8.4286,-1.6098,0.53661,-1.9159,-2.1464,2.2681e-10,-0.95794,0,0,0.2,-0,-0,0.66667
0.46647,0.89657,2.3323,0.59486,15.385,43.151,-3.6998,1.2333,-0.74187,-4.933,-2.1139e-13,-0.37093,0,0,0.2,4.737e-16,0,0.66667
0.67355,0.026473,3.3678,-0.71029,-12.892,18.896,6.3789,-2.1263,-0.20701,8.5052,2.8155e-13,-0.1035,0,0,0.2,-0,-0,0.66667
0.88484,0.41989,4.4242,-0.12016,-0.80111,2.9697,1.4176,-0.47253,-1.9476,1.8901,1.7973e-09,-0.97379,0,0,0.2,-0,-0,0.66667
0.93814,0.55829,4.6907,0.08743,0.29911,1.0788,-1.0936,0.36454,-1.9742,-1.4582,-1.5875e-07,-0.9871,0,0,0.2,-0,-0,0.66667
0.98474,0.47971,4.9237,-0.03044,-0.013012,0.14876,0.39967,-0.13323,-1.9975,0.5329,-2.307e-06,-0.99873,0,0,0.2,-0,-0,0.66667
0.88356,0.40096,4.4178,-0.14857,-1.0029,3.0403,1.7502,-0.58341,-1.921,2.3336,-6.0868e-09,-0.96052,0,0,0.2,-0,-0,0.66667
0.24358,0.51227,1.2179,0.018398,0.56614,76.675,-0.05975,0.019917,-1.9977,-0.079667,-2.7443e-12,-0.99885,0,0,0.2,9.4739e-16,0,0.66667
0.4083,0.74213,2.0415,0.36319,9.9259,51.153,-1.9772,0.65908,-1.5313,-2.6363,1.3622e-12,-0.76564,0,0,0.2,-0,-0,0.66667
0.37481,0.2551,1.874,-0.36736,-10.362,56.109,1.8358,-0.61194,-1.5216,2.4478,-2.1632e-12,-0.76082,0,0,0.2,-9.4739e-16,0,0.66667
0.15223,0.80743,0.76114,0.46115,14.848,92.013,-0.936,0.312,-1.2439,-1.248,-2.4992e-09,-0.62195,0,0,0.2,2.9606e-16,0,0.66667
0.070456,0.32084,0.35228,-0.26874,-8.777,105.98,0.25246,-0.084154,-1.7423,0.33662,-5.3289e-09,-0.87116,0,0,0.2,-2.3685e-16,0,0.66667
0.29574,0.65293,1.4787,0.2294,6.8565,68.281,-0.90457,0.30152,-1.8142,-1.2061,-1.1373e-11,-0.9071,0,0,0.2,5.9212e-16,0,0.66667
0.85996,0.73063,4.2998,0.34595,2.8447,4.3365,-3.9667,1.3222,-1.5751,-5.2889,1.8363e-09,-0.78753,0,0,0.2,-1.8948e-15,0,0.66667
0.038983,0.89515,0.19492,0.59272,19.597,111.45,-0.30808,0.10269,-0.74977,-0.41078,-4.3575e-07,-0.37489,0,0,0.2,5.9212e-17,0,0.66667
0.21547,0.85315,1.0773,0.52972,16.683,81.447,-1.5218,0.50728,-1.002,-2.0291,-8.9303e-11,-0.501,0,0,0.2,-0,-0,0.66667
0.34655,0.42606,1.7327,-0.11091,-3.1899,60.303,0.5125,-0.17083,-1.956,0.68333,-9.07e-13,-0.97799,0,0,0.2,-4.737e-16,0,0.66667
0.64816,0.53466,3.2408,0.051989,0.97475,20.708,-0.4493,0.14977,-1.9902,-0.59906,-5.6138e-13,-0.99509,0,0,0.2,-0,-0,0.66667
0.56317,0.93398,2.8158,0.65097,14.723,30.797,-4.8881,1.6294,-0.49475,-6.5175,4.3388e-13,-0.24738,0,0,0.2,-1.1842e-15,0,0.66667
0.79618,0.04826,3.9809,-0.67761,-8.1963,8.7093,7.1934,-2.3978,-0.3679,9.5911,-1.8293e-11,-0.18395,0,0,0.2,-9.4287e-16,0,0.66667
0.68696,0.38658,3.4348,-0.17013,-2.9007,16.889,1.5584,-0.51945,-1.8977,2.0778,-3.427e-12,-0.94886,0,0,0.2,-0,-0,0.66667
0.8895,0.80695,4.4475,0.46043,3.037,3.1617,-5.4607,1.8202,-1.2472,-7.2809,3.9449e-09,-0.6236,0,0,0.2,1.4211e-15,0,0.66667
0.4869,0.91927,2.4345,0.6289,15.885,40.436,-4.0829,1.361,-0.59344,-5.4438,-2.1183e-13,-0.29672,0,0,0.2,9.4739e-16,0,0.66667
0.53592,0.51386,2.6796,0.020796,0.48198,33.63,-0.1486,0.049533,-1.9976,-0.19813,2.6852e-13,-0.99878,0,0,0.2,-0,-0,0.66667
0.83765,0.31094,4.1882,-0.28359,-2.6785,5.4551,3.1673,-1.0558,-1.7143,4.223,-1.1178e-09,-0.85715,0,0,0.2,1.0658e-15,0,0.66667
0.0056932,0.87851,0.028466,0.56777,18.784,117.21,-0.043099,0.014366,-0.85377,-0.057465,-2.9765e-07,-0.42688,0,0,0.2,-1.4803e-17,0,0.66667
0.24257,0.67887,1.2129,0.2683,8.2806,76.879,-0.86776,0.28925,-1.7432,-1.157,-1.0564e-10,-0.87158,0,0,0.2,2.3685e-16,0,0.66667
0.22151,0.22852,1.1075,-0.40722,-12.741,80.393,1.2027,-0.4009,-1.4102,1.6036,1.9049e-10,-0.70511,0,0,0.2,-0,-0,0.66667
0.56155,0.60838,2.8077,0.16258,3.62,30.496,-1.2173,0.40575,-1.9063,-1.623,-7.4185e-13,-0.95317,0,0,0.2,-0,-0,0.66667
0.71761,0.1372,3.5881,-0.54421,-8.6483,14.512,5.2071,-1.7357,-0.9473,6.9427,-4.7793e-12,-0.47365,0,0,0.2,-0,-0,0.66667
0.2525,0.85647,1.2625,0.5347,16.534,75.378,-1.8001,0.60004,-0.98321,-2.4002,-2.6463e-11,-0.4916,0,0,0.2,4.737e-16,0,0.66667
0.50602,0.12309,2.5301,-0.56537,-13.878,37.831,3.8145,-1.2715,-0.86368,5.086,-5.0759e-13,-0.43184,0,0,0.2,1.1842e-15,0,0.66667
0.73927,0.39609,3.6964,-0.15586,-2.269,12.232,1.5363,-0.5121,-1.9129,2.0484,-4.1065e-11,-0.95644,0,0,0.2,-0,-0,0.66667
0.7223,0.39672,3.6115,-0.15492,-2.3833,13.668,1.492,-0.49733,-1.9143,1.9893,-2.2526e-11,-0.95714,0,0,0.2,-0,-0,0.66667
0.46831,0.78613,2.3416,0.4292,11.001,42.723,-2.68,0.89333,-1.3464,-3.5733,1.1235e-13,-0.6732,0,0,0.2,-0,-0,0.66667
0.70619,0.12307,3.531,-0.56539,-9.3051,15.561,5.3237,-1.7746,-0.86422,7.0982,-4.8717e-13,-0.43211,0,0,0.2,1.4211e-15,0,0.66667
0.55907,0.17539,2.7953,-0.48691,-10.993,31.059,3.6296,-1.2099,-1.1565,4.8394,6.5215e-13,-0.57826,0,0,0.2,-0,-0,0.66667
0.078411,0.80388,0.39205,0.45581,14.933,104.63,-0.47654,0.15885,-1.2623,-0.63539,-4.8312e-09,-0.63113,0,0,0.2,5.9212e-17,0,0.66667
0.9528,0.75248,4.764,0.37871,0.99888,1.0034,-4.8112,1.6037,-1.4919,-6.4149,-2.2642e-08,-0.74594,0,0,0.2,-0,-0,0.66667
0.97565,0.51169,4.8783,0.017535,0.017888,0.2711,-0.22811,0.076036,-1.9978,-0.30415,-3.8834e-06,-0.9989,0,0,0.2,3.7896e-15,0,0.66667
0.16201,0.17765,0.81007,-0.48352,-15.529,90.365,1.0445,-0.34817,-1.1679,1.3927,1.1023e-09,-0.58393,0,0,0.2,-0,-0,0.66667
0.41783,0.48323,2.0891,-0.025161,-0.67762,49.65,0.14017,-0.046724,-1.997,0.1869,-7.6532e-13,-0.99849,0,0,0.2,9.4739e-16,0,0.66667
0.61959,0.84469,3.098,0.51704,10.46,24.123,-4.2714,1.4238,-1.0499,-5.6952,-2.1183e-12,-0.52497,0,0,0.2,-0,-0,0.66667
0.56812,0.55051,2.8406,0.075765,1.6666,29.678,-0.57392,0.19131,-1.9786,-0.76522,-6.5459e-13,-0.9893,0,0,0.2,-9.4739e-16,0,0.66667
0.37473,0.2973,1.8737,-0.30405,-8.5636,56.085,1.5192,-0.50639,-1.672,2.0256,-2.3997e-12,-0.83598,0,0,0.2,-9.1747e-16,0,0.66667
0.90355,0.70891,4.5178,0.31336,1.7668,2.3808,-3.7752,1.2584,-1.6507,-5.0335,1.531e-09,-0.82536,0,0,0.2,-9.4739e-16,0,0.66667
0.67718,0.81142,3.3859,0.46713,8.2637,18.115,-4.2177,1.4059,-1.2246,-5.6237,-1.8967e-12,-0.61229,0,0,0.2,5.9212e-17,0,0.66667
0.11263,0.37792,0.56315,-0.18312,-5.926,98.713,0.27499,-0.091663,-1.8814,0.36665,1.1584e-09,-0.94068,0,0,0.2,-0,-0,0.66667
0.66956,0.74831,3.3478,0.37246,6.6857,18.741,-3.3251,1.1084,-1.5079,-4.4335,-2.0306e-12,-0.75394,0,0,0.2,1.0658e-15,0,0.66667
0.21799,0.38985,1.09,-0.16522,-5.154,80.907,0.48023,-0.16008,-1.9034,0.64031,1.7092e-10,-0.95168,0,0,0.2,4.737e-16,0,0.66667
0.086095,0.94362,0.43047,0.66542,21.934,103.36,-0.76386,0.25462,-0.42502,-1.0185,-9.6549e-08,-0.21251,0,0,0.2,-0,-0,0.66667
0.35993,0.23136,1.7997,-0.40295,-11.524,58.377,1.9338,-0.6446,-1.4233,2.5784,-2.6008e-12,-0.71163,0,0,0.2,-0,-0,0.66667
0.049607,0.068751,0.24804,-0.64687,-21.413,109.63,0.42786,-0.14262,-0.51242,0.57048,1.643e-07,-0.25621,0,0,0.2,1.1842e-16,0,0.66667
0.14662,0.22325,0.73308,-0.41512,-13.372,92.951,0.81151,-0.2705,-1.387,1.082,1.4447e-09,-0.69351,0,0,0.2,-0,-0,0.66667
0.45307,0.36716,2.2653,-0.19926,-5.1705,44.681,1.2037,-0.40123,-1.86,1.6049,-5.318e-13,-0.93001,0,0,0.2,-0,-0,0.66667
0.9832,0.067792,4.916,-0.64831,-0.62431,1.0841,8.499,-2.833,-0.50654,11.332,7.027e-07,-0.25327,0,0,0.2,-0,-1.3327e-16,0.66667
0.84187,0.3386,4.2093,-0.2421,-2.2239,5.1777,2.7175,-0.90583,-1.7923,3.6233,-1.0283e-09,-0.89615,0,0,0.2,-1.4211e-15,0,0.66667
0.013205,0.20892,0.066025,-0.43663,-14.383,115.91,0.076875,-0.025625,-1.3221,0.1025,3.5661e-08,-0.66106,0,0,0.2,-0,-0,0.66667
0.86889,0.16389,4.3445,-0.50417,-3.9566,4.159,5.8409,-1.947,-1.0955,7.7879,-5.0707e-09,-0.54776,0,0,0.2,1.8948e-15,0,0.66667
0.28341,0.57191,1.4171,0.10787,3.2451,70.223,-0.40761,0.13587,-1.9587,-0.54348,-1.3086e-11,-0.97936,0,0,0.2,-0,-0,0.66667
0.19764,0.32075,0.98819,-0.26888,-8.4759,84.315,0.70854,-0.23618,-1.7423,0.94472,4.234e-10,-0.87113,0,0,0.2,-0,-0,0.66667
0.30963,0.38352,1.5482,-0.17472,-5.1692,66.066,0.72132,-0.24044,-1.8914,0.96176,4.0464e-12,-0.94569,0,0,0.2,-0,-0,0.66667
0.52923,0.1359,2.6462,-0.54615,-12.956,34.826,3.8539,-1.2846,-0.93947,5.1385,3.4239e-13,-0.46973,0,0,0.2,-0,-0,0.66667
0.48269,0.68024,2.4134,0.27037,6.7753,40.654,-1.74,0.58001,-1.7406,-2.32,2.8477e-13,-0.87029,0,0,0.2,-0,-0,0.66667
0.62987,0.90466,3.1494,0.60699,12.084,23.153,-5.0977,1.6992,-0.69042,-6.7969,-9.2992e-13,-0.34521,0,0,0.2,-3.5527e-16,0,0.66667
0.16677,0.89205,0.83386,0.58808,18.925,89.604,-1.3077,0.43589,-0.76936,-1.7436,-7.7521e-10,-0.38468,0,0,0.2,2.3685e-16,0,0.66667
0.3743,0.98364,1.8715,0.72546,20.767,56.511,-3.6205,1.2068,-0.12918,-4.8273,2.3825e-13,-0.06459,0,0,0.2,-0,-2.3632e-16,0.66667
0.58249,0.14137,2.9124,-0.53794,-11.695,28.341,4.1779,-1.3926,-0.97024,5.5706,7.3541e-13,-0.48512,0,0,0.2,-0,-0,0.66667
0.81078,0.18814,4.0539,-0.4678,-5.176,7.3255,5.0571,-1.6857,-1.2235,6.7428,-5.4358e-10,-0.61174,0,0,0.2,-1.8948e-15,0,0.66667
0.36845,0.57641,1.8422,0.11461,3.2366,56.967,-0.56306,0.18769,-1.9521,-0.75074,9.0211e-13,-0.97606,0,0,0.2,-0,-0,0.66667
0.83938,0.49715,4.1969,-0.0042777,-0.039627,5.2072,0.047875,-0.015958,-2.0002,0.063833,-1.2924e-10,-1.0001,0,0,0.2,3.079e-15,0,0.66667
0.41681,0.062978,2.084,-0.65553,-17.965,50.195,3.6431,-1.2144,-0.4727,4.8575,-2.6845e-13,-0.23635,0,0,0.2,-0,-0,0.66667
0.94249,0.79262,4.7124,0.43893,1.4662,1.3516,-5.5159,1.8386,-1.3141,-7.3545,-7.7984e-09,-0.65706,0,0,0.2,-0,-0,0.66667
0.29636,0.61458,1.4818,0.17187,5.1308,68.167,-0.67914,0.22638,-1.8957,-0.90553,-1.0369e-11,-0.94784,0,0,0.2,2.3685e-16,0,0.66667
0.3686,0.15679,1.843,-0.51481,-14.67,57.149,2.5302,-0.84338,-1.0581,3.3735,-1.7775e-12,-0.52904,0,0,0.2,-0,-0,0.66667
0.65273,0.37856,3.2637,-0.18216,-3.385,20.281,1.5854,-0.52846,-1.8824,2.1138,1.3555e-12,-0.9412,0,0,0.2,-0,-0,0.66667
0.58342,0.50998,2.9171,0.014963,0.32027,27.858,-0.1164,0.038799,-1.9984,-0.15519,1.9151e-14,-0.9992,0,0,0.2,-0,-0,0.66667
0.35417,0.54389,1.7708,0.065832,1.881,59.129,-0.31088,0.10363,-1.9836,-0.4145,7.1695e-13,-0.99182,0,0,0.2,-0,-0,0.66667
0.48431,0.090671,2.4215,-0.61399,-15.548,40.763,3.9648,-1.3216,-0.66145,5.2864,-2.951e-13,-0.33073,0,0,0.2,-1.1842e-16,0,0.66667
0.66432,0.93303,3.3216,0.64955,12.002,19.679,-5.7534,1.9178,-0.49949,-7.6713,-6.6258e-13,-0.24975,0,0,0.2,-1.1842e-15,0,0.66667
0.05634,0.4518,0.2817,-0.072304,-2.3607,108.42,0.054315,-0.018105,-1.9803,0.07242,1.0472e-07,-0.99013,0,0,0.2,-0,-0,0.66667
0.6064,0.11304,3.032,-0.58043,-12.097,25.674,4.693,-1.5643,-0.80175,6.2574,1.0836e-12,-0.40087,0,0,0.2,-9.4739e-16,0,0.66667
0.74678,0.32404,3.7339,-0.26394,-3.7566,11.694,2.6281,-0.87603,-1.7519,3.5041,-7.2397e-11,-0.87594,0,0,0.2,-0,-0,0.66667
0.79397,0.52707,3.9699,0.040601,0.4766,8.0511,-0.42981,0.14327,-1.9946,-0.57308,4.594e-11,-0.99731,0,0,0.2,9.4025e-16,0,0.66667
0.21378,0.15008,1.0689,-0.52488,-16.54,81.723,1.4961,-0.49871,-1.0201,1.9948,8.3712e-11,-0.51006,0,0,0.2,-0,-0,0.66667
0.64111,0.51463,3.2055,0.02194,0.41795,21.442,-0.18754,0.062514,-1.9988,-0.25006,-3.8797e-13,-0.99942,0,0,0.2,-0,-0,0.66667
0.73113,0.92557,3.6557,0.63836,9.8013,13.535,-6.223,2.0743,-0.55066,-8.2973,2.2582e-12,-0.27533,0,0,0.2,-0,-0,0.66667
0.095062,0.31706,0.47531,-0.27441,-8.9258,101.74,0.34782,-0.11594,-1.7333,0.46376,-1.4236e-09,-0.86664,0,0,0.2,-0,-0,0.66667
0.070073,0.1833,0.35036,-0.47505,-15.591,106.07,0.44384,-0.14795,-1.1973,0.59179,1.6985e-09,-0.59864,0,0,0.2,1.1842e-16,0,0.66667
0.88595,0.6207,4.4298,0.18105,1.1986,2.9577,-2.1387,0.71291,-1.8834,-2.8516,-1.3225e-10,-0.94171,0,0,0.2,4.737e-16,0,0.66667
0.36132,0.91635,1.8066,0.62453,17.988,58.348,-3.0088,1.0029,-0.61331,-4.0117,1.0811e-12,-0.30666,0,0,0.2,-0,-0,0.66667
0.70343,0.4219,3.5172,-0.11715,-1.9061,15.332,1.0988,-0.36626,-1.9518,1.465,-7.7395e-12,-0.97592,0,0,0.2,9.4739e-16,0,0.66667
0.56015,0.76839,2.8007,0.40258,9.0417,30.835,-3.0067,1.0022,-1.4235,-4.009,-7.3364e-13,-0.71177,0,0,0.2,-0,-0,0.66667
0.33775,0.58366,1.6887,0.12549,3.6348,61.663,-0.56513,0.18838,-1.9431,-0.75351,1.2303e-12,-0.97154,0,0,0.2,-0,-0,0.66667
0.34565,0.51714,1.7283,0.025704,0.73946,60.432,-0.11846,0.039487,-1.9976,-0.15795,1.2483e-13,-0.99879,0,0,0.2,9.4739e-16,0,0.66667
0.90546,0.4408,4.5273,-0.088801,-0.48214,2.1281,1.0721,-0.35736,-1.9734,1.4294,2.8446e-08,-0.98671,0,0,0.2,3.7896e-15,0,0.66667
0.45348,0.48383,2.2674,-0.024261,-0.62824,44.583,0.14669,-0.048897,-1.9985,0.19559,-5.5136e-14,-0.99926,0,0,0.2,9.4739e-16,0,0.66667
0.48253,0.11957,2.4126,-0.57064,-14.452,40.946,3.6714,-1.2238,-0.84286,4.8951,-1.6431e-13,-0.42143,0,0,0.2,7.1054e-16,-2.9769e-16,0.66667
0.97915,0.53962,4.8957,0.059437,0.04731,0.22738,-0.77596,0.25866,-1.9868,-1.0346,6.523e-07,-0.99339,0,0,0.2,-0,-0,0.66667
0.41169,0.62297,2.0584,0.18445,5.0051,50.571,-1.0125,0.33749,-1.8793,-1.35,2.9543e-13,-0.93963,0,0,0.2,7.1054e-16,0,0.66667
0.36945,0.28011,1.8472,-0.32984,-9.3388,56.894,1.6248,-0.54159,-1.6136,2.1664,-3.4435e-12,-0.80678,0,0,0.2,5.9212e-17,0,0.66667
0.079963,0.4915,0.39982,-0.012749,-0.4148,104.33,0.013592,-0.0045308,-1.9997,0.018123,7.9977e-08,-0.99986,0,0,0.2,-0,-0,0.66667
0.38778,0.74477,1.9389,0.36715,10.235,54.173,-1.8983,0.63278,-1.521,-2.5311,1.7483e-12,-0.76052,0,0,0.2,7.1054e-16,0,0.66667
0.17793,0.79104,0.88966,0.43657,13.923,87.667,-1.0357,0.34524,-1.3214,-1.381,-7.2902e-10,-0.66072,0,0,0.2,-0,-0,0.66667
0.13134,0.73756,0.65671,0.35634,11.512,95.537,-0.62403,0.20801,-1.5474,-0.83204,-1.954e-09,-0.77371,0,0,0.2,-0,-0,0.66667
0.36767,0.8591,1.8384,0.53865,15.376,57.31,-2.6406,0.8802,-0.96715,-3.5208,1.4724e-12,-0.48358,0,0,0.2,-0,-0,0.66667
0.15881,0.21267,0.79405,-0.431,-13.836,90.889,0.91263,-0.30421,-1.3398,1.2168,1.161e-09,-0.66991,0,0,0.2,-0,-0,0.66667
0.30756,0.79601,1.5378,0.44401,13.232,66.506,-1.8208,0.60694,-1.2981,-2.4278,-1.3815e-12,-0.64903,0,0,0.2,-4.737e-16,0,0.66667
0.68798,0.24931,3.4399,-0.37603,-6.4375,16.965,3.4494,-1.1498,-1.4993,4.5992,-1.7122e-12,-0.74967,0,0,0.2,-4.737e-16,0,0.66667
0.83844,0.54326,4.1922,0.064885,0.60484,5.2682,-0.72537,0.24179,-1.9841,-0.96716,1.115e-11,-0.99204,0,0,0.2,-0,-0,0.66667
0.30482,0.83603,1.5241,0.50405,15.079,66.977,-2.0486,0.68286,-1.0959,-2.7315,-6.4171e-13,-0.54793,0,0,0.2,-2.3685e-16,0,0.66667
0.3531,0.206,1.7655,-0.441,-12.699,59.442,2.0762,-0.69207,-1.3074,2.7683,-2.1447e-12,-0.6537,0,0,0.2,-8.9185e-16,0,0.66667
0.73064,0.65868,3.6532,0.23802,3.5737,13.007,-2.3188,0.77293,-1.7991,-3.0917,3.9146e-11,-0.89954,0,0,0.2,-1.8948e-15,0,0.66667
0.77783,0.81568,3.8892,0.47352,6.0682,9.5784,-4.9109,1.637,-1.2032,-6.5479,1.481e-10,-0.60162,0,0,0.2,-0,-0,0.66667
0.17703,0.72441,0.88516,0.33662,10.712,87.788,-0.79455,0.26485,-1.5968,-1.0594,-7.9921e-10,-0.7984,0,0,0.2,-4.737e-16,0,0.66667
0.40176,0.086231,2.0088,-0.62065,-17.235,52.336,3.3247,-1.1082,-0.62994,4.4329,-9.3658e-13,-0.31497,0,0,0.2,4.737e-16,0,0.66667
0.0029414,0.092431,0.014707,-0.61135,-20.259,117.69,0.023975,-0.0079915,-0.67208,0.031967,1.4942e-07,-0.33604,0,0,0.2,4.6259e-19,0,0.66667
0.4006,0.34493,2.003,-0.2326,-6.3865,52.21,1.2424,-0.41413,-1.808,1.6565,-1.7801e-12,-0.904,0,0,0.2,-0,-0,0.66667
0.8932,0.77894,4.466,0.4184,2.6518,2.9372,-4.9829,1.661,-1.3785,-6.6439,7.2507e-09,-0.68923,0,0,0.2,-1.1842e-15,0,0.66667
0.057463,0.40294,0.28732,-0.14558,-4.755,108.22,0.11154,-0.037181,-1.9247,0.14872,1.2144e-07,-0.96236,0,0,0.2,2.9606e-17,0,0.66667
0.38963,0.068362,1.9481,-0.64746,-18.209,54.145,3.3636,-1.1212,-0.51048,4.4848,-6.3505e-13,-0.25524,0,0,0.2,9.4739e-16,0,0.66667
0.26534,0.7912,1.3267,0.4368,13.367,73.241,-1.5454,0.51513,-1.3225,-2.0605,-3.2503e-11,-0.66124,0,0,0.2,-0,-0,0.66667
0.036777,0.4591,0.18388,-0.061354,-2.0068,111.81,0.030085,-0.010029,-1.9858,0.040113,-3.8013e-07,-0.9929,0,0,0.2,2.9606e-17,0,0.66667
0.4005,0.90449,2.0025,0.60674,16.858,52.504,-3.24,1.08,-0.69133,-4.32,3.8169e-13,-0.34566,0,0,0.2,6.5133e-16,0,0.66667
0.23781,0.74657,1.189,0.36985,11.468,77.695,-1.1727,0.39091,-1.5141,-1.5636,-1.1806e-10,-0.75703,0,0,0.2,2.3685e-16,0,0.66667
0.83097,0.80227,4.1548,0.45341,4.5097,6.0705,-5.0236,1.6745,-1.2688,-6.6981,6.1024e-10,-0.63442,0,0,0.2,-0,-0,0.66667
0.64363,0.54294,3.2181,0.064415,1.2204,21.183,-0.55279,0.18426,-1.9849,-0.73705,-4.8306e-13,-0.99244,0,0,0.2,-0,-0,0.66667
0.47657,0.7714,2.3828,0.40711,10.321,41.579,-2.5869,0.86229,-1.4097,-3.4491,3.2285e-13,-0.70485,0,0,0.2,-4.737e-16,0,0.66667
0.70881,0.93015,3.544,0.64523,10.604,15.479,-6.0979,2.0326,-0.51914,-8.1305,-5.4534e-13,-0.25957,0,0,0.2,-0,-0,0.66667
0.099384,0.78849,0.49692,0.43273,14.113,101.02,-0.57342,0.19114,-1.3336,-0.76456,-5.4327e-09,-0.6668,0,0,0.2,-0,-0,0.66667
0.75698,0.54939,3.7849,0.074088,1.0117,10.777,-0.74777,0.24926,-1.9793,-0.99703,3.987e-11,-0.98965,0,0,0.2,-0,-0,0.66667
0.29859,0.16286,1.493,-0.50571,-15.193,67.963,2.0134,-0.67112,-1.0912,2.6845,1.996e-12,-0.54562,0,0,0.2,-0,-0,0.66667
0.50277,0.54955,2.5139,0.074328,1.8084,37.904,-0.49827,0.16609,-1.98,-0.66436,1.5557e-13,-0.99,0,0,0.2,-9.4739e-16,0,0.66667
0.094178,0.89047,0.47089,0.58571,19.217,101.95,-0.73548,0.24516,-0.78081,-0.98064,-9.025e-09,-0.3904,0,0,0.2,1.1842e-16,0,0.66667
0.81456,0.35541,4.0728,-0.21688,-2.3168,6.776,2.3555,-0.78517,-1.8327,3.1407,-5.215e-10,-0.91636,0,0,0.2,-0,-0,0.66667
0.51047,0.15369,2.5523,-0.51947,-12.646,37.197,3.5356,-1.1785,-1.0407,4.7142,-8.2823e-14,-0.52036,0,0,0.2,1.3027e-15,0,0.66667
0.44197,0.071251,2.2099,-0.64312,-17.151,46.605,3.7899,-1.2633,-0.52885,5.0532,-7.0877e-13,-0.26443,0,0,0.2,-0,-0,0.66667
0.13489,0.0659,0.67446,-0.65115,-21.217,95.02,1.1711,-0.39038,-0.4924,1.5615,-9.889e-09,-0.2462,0,0,0.2,-4.737e-16,0,0.66667
0.63488,0.46804,3.1744,-0.047942,-0.92608,22.105,0.40583,-0.13528,-1.9923,0.5411,2.7919e-13,-0.99614,0,0,0.2,2.3685e-16,0,0.66667
0.35231,0.22836,1.7615,-0.40745,-11.728,59.54,1.914,-0.638,-1.4087,2.552,-2.8476e-12,-0.70437,0,0,0.2,-0,-0,0.66667
0.68271,0.11074,3.4135,-0.5839,-10.257,17.769,5.3151,-1.7717,-0.78685,7.0868,1.6516e-12,-0.39343,0,0,0.2,1.389e-16,0,0.66667
0.76246,0.28724,3.8123,-0.31915,-4.3013,10.515,3.2445,-1.0815,-1.638,4.326,-1.2579e-10,-0.81899,0,0,0.2,-0,-0,0.66667
0.0067478,0.4084,0.033739,-0.1374,-4.5024,117.02,0.012362,-0.0041206,-1.9329,0.016483,1.7091e-07,-0.96647,0,0,0.2,-0,-0,0.66667
0.25906,0.70363,1.2953,0.30544,9.3495,74.202,-1.055,0.35168,-1.6671,-1.4067,-5.9053e-11,-0.83355,0,0,0.2,4.737e-16,0,0.66667
0.67791,0.25964,3.3896,-0.36053,-6.3331,17.911,3.2588,-1.0863,-1.5369,4.3451,4.2477e-13,-0.76847,0,0,0.2,-0,-0,0.66667
0.3361,0.91638,1.6805,0.62456,18.355,62.198,-2.7989,0.93296,-0.61202,-3.7318,1.1322e-12,-0.30601,0,0,0.2,-0,-0,0.66667
0.75013,0.95869,3.7506,0.68803,9.9659,12.099,-6.8815,2.2938,-0.31778,-9.1753,-2.0881e-12,-0.15889,0,0,0.2,9.4739e-16,0,0.66667
0.55698,0.90543,2.7849,0.60815,13.861,31.477,-4.5163,1.5054,-0.68546,-6.0218,-6.5281e-14,-0.34273,0,0,0.2,1.1842e-15,0,0.66667
0.85824,0.25463,4.2912,-0.36806,-3.0688,4.4535,4.2118,-1.4039,-1.5194,5.6157,-1.8873e-09,-0.75971,0,0,0.2,-0,-0,0.66667
0.57058,0.99432,2.8529,0.74148,16.66,30.073,-5.641,1.8803,-0.044624,-7.5213,4.321e-13,-0.022312,0,0,0.2,-1.4211e-15,0,0.66667
0.8894,0.98808,4.447,0.73211,5.0795,3.8064,-8.6819,2.894,-0.094546,-11.576,2.6964e-10,-0.047273,0,0,0.2,9.4739e-16,0,0.66667
0.22748,0.53957,1.1374,0.05935,1.8415,79.326,-0.18001,0.060003,-1.9866,-0.24001,-4.0125e-11,-0.99332,0,0,0.2,-4.737e-16,0,0.66667
0.79398,0.89735,3.9699,0.59602,7.2148,8.6743,-6.3097,2.1032,-0.73679,-8.413,1.0002e-10,-0.3684,0,0,0.2,-0,-1.2113e-16,0.66667
0.033947,0.88993,0.16973,0.58489,19.34,112.32,-0.26474,0.088245,-0.78327,-0.35298,-3.1098e-08,-0.39164,0,0,0.2,-0,-0,0.66667
0.077267,0.75948,0.38634,0.38922,12.731,104.82,-0.40099,0.13366,-1.462,-0.53465,1.3508e-10,-0.73099,0,0,0.2,-0,-0,0.66667
0.3959,0.79709,1.9795,0.44563,12.358,53.028,-2.3523,0.78412,-1.2929,-3.1365,1.5206e-12,-0.64644,0,0,0.2,-0,-0,0.66667
0.18577,0.71553,0.92883,0.3233,10.251,86.317,-0.80078,0.26693,-1.6294,-1.0677,-6.2217e-10,-0.81471,0,0,0.2,2.9185e-16,0,0.66667
0.94419,0.54458,4.721,0.066873,0.20315,0.91408,-0.84188,0.28063,-1.9829,-1.1225,1.9805e-07,-0.99147,0,0,0.2,-0,-0,0.66667
0.77968,0.66242,3.8984,0.24363,3.057,9.1592,-2.5327,0.84423,-1.7896,-3.3769,2.1559e-10,-0.89482,0,0,0.2,-0,-0,0.66667
0.74367,0.74282,3.7183,0.36423,5.2642,12.05,-3.6115,1.2038,-1.5276,-4.8154,5.8164e-11,-0.76382,0,0,0.2,9.4739e-16,0,0.66667
0.492,0.27352,2.46,-0.33972,-8.4253,39.452,2.2285,-0.74284,-1.5889,2.9714,-1.9007e-13,-0.79443,0,0,0.2,4.737e-16,0,0.66667
0.49005,0.14433,2.4502,-0.53351,-13.359,39.896,3.4859,-1.162,-0.98698,4.6479,-7.5717e-14,-0.49349,0,0,0.2,4.737e-16,0,0.66667
0.58111,0.91334,2.9056,0.62002,13.574,28.625,-4.804,1.6013,-0.63321,-6.4053,-3.566e-13,-0.31661,0,0,0.2,-0,-0,0.66667
0.59663,0.99058,2.9831,0.73588,15.782,27.047,-5.8539,1.9513,-0.074454,-7.8052,2.1094e-13,-0.037227,0,0,0.2,-1.4211e-15,0,0.66667
0.89803,0.58576,4.4901,0.12864,0.75708,2.4295,-1.5402,0.51341,-1.9403,-2.0537,-5.3719e-09,-0.97017,0,0,0.2,-0,-0,0.66667
0.12083,0.91703,0.60417,0.62555,20.436,97.402,-1.0078,0.33595,-0.60804,-1.3438,4.4314e-09,-0.30402,0,0,0.2,-2.3685e-16,0,0.66667
0.50961,0.017617,2.5481,-0.72357,-17.826,37.595,4.9166,-1.6389,-0.13734,6.5554,-1.1502e-13,-0.068672,0,0,0.2,-0,-0,0.66667
0.99552,0.23744,4.9776,-0.39384,0.049084,0.37821,5.2277,-1.7426,-1.4477,6.9702,-6.1636e-08,-0.72384,0,0,0.2,-1.8948e-15,3.8257e-17,0.66667
0.48143,0.36443,2.4071,-0.20336,-5.0975,40.789,1.3054,-0.43512,-1.8527,1.7405,-4.9749e-13,-0.92634,0,0,0.2,-4.737e-16,0,0.66667
0.83781,0.050104,4.1891,-0.67484,-6.6301,6.1438,7.5386,-2.5129,-0.37969,10.051,2.9549e-10,-0.18985,0,0,0.2,-9.4739e-16,0,0.66667
0.60366,0.62256,3.0183,0.18384,3.7941,25.575,-1.4797,0.49322,-1.8799,-1.9729,-1.756e-12,-0.93997,0,0,0.2,1.3027e-15,0,0.66667
0.66437,0.83198,3.3219,0.49796,9.1097,19.417,-4.4111,1.4704,-1.1172,-5.8815,-2.4696e-12,-0.5586,0,0,0.2,-0,-0,0.66667
0.27246,0.90328,1.3623,0.60492,18.544,72.199,-2.1976,0.73252,-0.69884,-2.9301,-3.2827e-12,-0.34942,0,0,0.2,5.9212e-16,0,0.66667
0.83093,0.65853,4.1547,0.23779,2.3288,5.7974,-2.6345,0.87816,-1.7998,-3.5127,4.1762e-10,-0.89989,0,0,0.2,-0,-0,0.66667
0.24447,0.96022,1.2223,0.69033,21.574,76.789,-2.2502,0.75006,-0.30485,-3.0002,3.1199e-12,-0.15243,0,0,0.2,-2.3685e-16,0,0.66667
0.67336,0.97752,3.3668,0.71628,13.013,18.927,-6.4309,2.1436,-0.17622,-8.5745,-1.6342e-13,-0.088108,0,0,0.2,-0,-0,0.66667
0.08813,0.96777,0.44065,0.70165,23.156,103.02,-0.82448,0.27483,-0.24997,-1.0993,2.8172e-07,-0.12499,0,0,0.2,4.4409e-17,0,0.66667
0.018852,0.0022623,0.09426,-0.74661,-24.874,114.94,0.18764,-0.062556,-0.018762,0.25018,-1.4554e-05,-0.0093812,0,0,0.2,-0,-0,0.66667
0.47235,0.33858,2.3617,-0.24213,-6.1438,42.041,1.5249,-0.50831,-1.7917,2.0333,-8.3078e-13,-0.89583,0,0,0.2,-0,-0,0.66667
0.939,0.26801,4.695,-0.34798,-1.2128,1.2924,4.3567,-1.4522,-1.5696,5.8089,9.5714e-09,-0.78479,0,0,0.2,9.4739e-16,0,0.66667
0.32557,0.055699,1.6279,-0.66645,-19.778,63.864,2.8931,-0.96435,-0.421,3.8574,-8.1624e-13,-0.2105,0,0,0.2,-0,-0,0.66667
0.32215,0.1398,1.6108,-0.5403,-15.989,64.287,2.3208,-0.77359,-0.96093,3.0944,-1.4413e-12,-0.48046,0,0,0.2,-0,-0,0.66667
0.052031,0.84613,0.26015,0.5192,17.102,109.19,-0.36019,0.12006,-1.0418,-0.48025,3.0534e-08,-0.52088,0,0,0.2,-0,-0,0.66667
0.67529,0.72947,3.3764,0.34421,6.083,18.149,-3.0992,1.0331,-1.5783,-4.1322,-1.1033e-12,-0.78916,0,0,0.2,1.8948e-15,0,0.66667
0.72174,0.55175,3.6087,0.077621,1.1948,13.688,-0.74697,0.24899,-1.9783,-0.99596,1.1401e-11,-0.98914,0,0,0.2,9.4739e-16,0,0.66667
0.90372,0.87191,4.5186,0.55787,3.2631,2.8025,-6.7221,2.2407,-0.89422,-8.9628,1.3431e-08,-0.44711,0,0,0.2,-0,-0,0.66667
0.43715,0.36262,2.1857,-0.20608,-5.4454,46.922,1.2011,-0.40038,-1.8497,1.6015,-1.1255e-12,-0.92484,0,0,0.2,4.737e-16,0,0.66667
0.10952,0.29585,0.54758,-0.30623,-9.9363,99.262,0.44716,-0.14905,-1.6673,0.59622,1.6177e-09,-0.83365,0,0,0.2,2.3685e-16,0,0.66667
0.037607,0.80895,0.18804,0.46343,15.259,111.68,-0.23238,0.077459,-1.2362,-0.30984,7.5026e-08,-0.61811,0,0,0.2,7.4015e-17,0,0.66667
0.88077,0.71417,4.4038,0.32125,2.2483,3.3217,-3.7727,1.2576,-1.6328,-5.0302,2.2154e-09,-0.8164,0,0,0.2,-4.2587e-16,0,0.66667
0.65226,0.3708,3.2613,-0.1938,-3.6063,20.336,1.6855,-0.56182,-1.8666,2.2473,1.2337e-12,-0.9333,0,0,0.2,1.1842e-15,0,0.66667
0.9155,0.93726,4.5775,0.65589,3.4489,2.6304,-8.0062,2.6687,-0.4709,-10.675,1.4021e-07,-0.23545,0,0,0.2,2.0724e-15,0,0.66667
0.8806,0.63529,4.403,0.20293,1.4092,3.208,-2.3827,0.79422,-1.8527,-3.1769,-2.3776e-09,-0.92635,0,0,0.2,-0,-0,0.66667
0.47024,0.13954,2.3512,-0.54068,-13.886,42.572,3.39,-1.13,-0.96066,4.52,-1.0547e-13,-0.48033,0,0,0.2,-9.4739e-16,0,0.66667
0.67034,0.30475,3.3517,-0.29287,-5.2307,18.585,2.6176,-0.87254,-1.6955,3.4902,7.6317e-13,-0.84777,0,0,0.2,4.737e-16,0,0.66667
0.74507,0.65826,3.7253,0.23739,3.3957,11.811,-2.3583,0.78609,-1.8,-3.1444,6.612e-11,-0.89998,0,0,0.2,1.8948e-15,0,0.66667
0.42221,0.73487,2.1111,0.35231,9.49,49.133,-1.9833,0.66111,-1.5593,-2.6444,1.2803e-12,-0.77965,0,0,0.2,-9.4739e-16,0,0.66667
0.15392,0.28192,0.76959,-0.32712,-10.491,91.69,0.67134,-0.22378,-1.6208,0.89511,1.4163e-09,-0.81042,0,0,0.2,-4.737e-16,0,0.66667
0.28408,0.90538,1.4204,0.60806,18.512,70.342,-2.3032,0.76774,-0.68646,-3.0709,-4.261e-13,-0.34323,0,0,0.2,-6.8094e-16,0,0.66667
0.54848,0.071755,2.7424,-0.64237,-14.871,32.566,4.6977,-1.5659,-0.53317,6.2635,1.2257e-13,-0.26658,0,0,0.2,9.4739e-16,0,0.66667
0.25574,0.98992,1.2787,0.73488,22.877,74.996,-2.5058,0.83526,-0.078963,-3.341,3.3473e-12,-0.039481,0,0,0.2,-4.737e-16,0,0.66667
0.89173,0.19672,4.4587,-0.45493,-2.938,3.06,5.409,-1.803,-1.2647,7.212,-2.9476e-09,-0.63234,0,0,0.2,-0,-0,0.66667
0.58075,0.82853,2.9038,0.4928,10.723,28.484,-3.8159,1.272,-1.1362,-5.0879,-1.0822e-12,-0.56809,0,0,0.2,-0,-0,0.66667
0.71867,0.91353,3.5934,0.62029,9.8829,14.561,-5.9438,1.9813,-0.6332,-7.9251,9.2149e-13,-0.3166,0,0,0.2,-0,-0,0.66667
0.86203,0.93594,4.3102,0.6539,5.5082,4.823,-7.5158,2.5053,-0.48071,-10.021,-1.0907e-08,-0.24035,0,0,0.2,-5.9212e-16,0,0.66667
0.89656,0.84404,4.4828,0.51605,3.2161,2.985,-6.169,2.0563,-1.0536,-8.2253,2.4256e-08,-0.52681,0,0,0.2,-0,-0,0.66667
0.95761,0.90462,4.788,0.60693,1.5567,1.3794,-7.7493,2.5831,-0.69077,-10.332,8.1559e-07,-0.34539,0,0,0.2,2.1316e-15,0,0.66667
0.62751,0.83674,3.1375,0.50511,10.046,23.248,-4.2261,1.4087,-1.0931,-5.6348,-1.9535e-12,-0.54654,0,0,0.2,-4.737e-16,0,0.66667
0.99898,0.18864,4.9949,-0.46704,0.13507,0.49163,6.2208,-2.0736,-1.2262,8.2945,-9.2482e-08,-0.6131,0,0,0.2,-0,-0,0.66667
0.79051,0.61114,3.9525,0.16672,1.992,8.3365,-1.7572,0.58573,-1.9,-2.3429,2.2628e-10,-0.95001,0,0,0.2,-0,-0,0.66667
0.27082,0.39733,1.3541,-0.15401,-4.671,72.257,0.55612,-0.18537,-1.915,0.7415,2.892e-11,-0.95748,0,0,0.2,-0,-0,0.66667
0.99055,0.66225,4.9528,0.24337,0.025566,0.21214,-3.2143,1.0714,-1.7889,-4.2857,2.754e-08,-0.89445,0,0,0.2,-0,-0,0.66667
0.80151,0.29131,4.0075,-0.31303,-3.5804,7.7127,3.3452,-1.1151,-1.6509,4.4603,-4.3378e-10,-0.82546,0,0,0.2,-0,-0,0.66667
0.25311,0.42333,1.2656,-0.115,-3.5222,75.124,0.38811,-0.12937,-1.9525,0.51748,4.3735e-11,-0.97624,0,0,0.2,4.737e-16,0,0.66667
0.031897,0.73674,0.15949,0.35511,11.664,112.66,-0.15103,0.050342,-1.5521,-0.20137,1.676e-08,-0.77607,0,0,0.2,5.9212e-17,0,0.66667
0.95281,0.73377,4.764,0.35066,0.91731,0.95993,-4.4548,1.4849,-1.5634,-5.9397,-1.6314e-08,-0.78172,0,0,0.2,-0,-0,0.66667
0.55683,0.15503,2.7842,-0.51746,-11.742,31.368,3.8418,-1.2806,-1.0483,5.1224,6.6458e-13,-0.52416,0,0,0.2,3.1928e-16,0,0.66667
0.55271,0.82495,2.7635,0.48743,11.12,31.833,-3.5921,1.1974,-1.1542,-4.7894,-2.9265e-13,-0.57711,0,0,0.2,-9.4739e-16,0,0.66667
0.047378,0.51354,0.23689,0.02031,0.66364,109.97,-0.012829,0.0042761,-1.9991,-0.017106,-5.7371e-07,-0.99955,0,0,0.2,-0,-0,0.66667
0.63904,0.34107,3.1952,-0.2384,-4.5765,21.74,2.0313,-0.6771,-1.7991,2.7084,2.337e-12,-0.89957,0,0,0.2,2.3685e-16,0,0.66667
0.5001,0.19252,2.5005,-0.46123,-11.362,38.487,3.0755,-1.0252,-1.2451,4.1006,-1.6276e-13,-0.62257,0,0,0.2,-0,-0,0.66667
0.80429,0.95777,4.0215,0.68665,8.0173,8.1959,-7.3636,2.4545,-0.32251,-9.8181,-2.5959e-11,-0.16125,0,0,0.2,-9.4739e-16,0,0.66667
0.06955,0.88797,0.34775,0.58195,19.169,106.18,-0.53966,0.17989,-0.79466,-0.71955,-8.1675e-08,-0.39733,0,0,0.2,-0,-0,0.66667
0.56293,0.6373,2.8147,0.20595,4.5785,30.349,-1.5458,0.51527,-1.8498,-2.0611,-6.4104e-13,-0.92492,0,0,0.2,-0,-0,0.66667
0.40868,0.27336,2.0434,-0.33996,-9.2816,51.083,1.8524,-0.61748,-1.5892,2.4699,-1.6676e-12,-0.79461,0,0,0.2,-0,-0,0.66667
0.55177,0.25238,2.7588,-0.37143,-8.448,31.826,2.7326,-0.91085,-1.5097,3.6434,8.1157e-13,-0.75487,0,0,0.2,-0,-0,0.66667
0.35846,0.49466,1.7923,-0.0080068,-0.22792,58.47,0.038269,-0.012756,-2.0009,0.051025,2.5806e-13,-1.0004,0,0,0.2,-0,-0,0.66667
0.99938,0.97886,4.9969,0.7183,-0.0047811,1.1503,-9.5713,3.1904,-0.16618,-12.762,-1.7782e-05,-0.083092,0,0,0.2,-0,-6.2218e-16,0.66667
0.45032,0.75416,2.2516,0.38124,9.9661,45.17,-2.2891,0.76303,-1.4837,-3.0521,3.8347e-13,-0.74186,0,0,0.2,-0,-0,0.66667
0.34582,0.069376,1.7291,-0.64594,-18.859,60.726,2.9784,-0.9928,-0.51689,3.9712,7.5939e-14,-0.25844,0,0,0.2,-0,-0,0.66667
0.18973,0.48952,0.94863,-0.015713,-0.49573,85.609,0.039748,-0.013249,-1.9991,0.052997,-2.4752e-11,-0.99955,0,0,0.2,-0,-0,0.66667
0.92353,0.31245,4.6176,-0.28132,-1.2383,1.6539,3.4641,-1.1547,-1.7203,4.6188,-1.3051e-09,-0.86016,0,0,0.2,-2.3537e-15,0,0.66667
0.10429,0.64551,0.52147,0.21826,7.0798,100.15,-0.30351,0.10117,-1.8298,-0.40469,-3.1669e-10,-0.91489,0,0,0.2,-1.1842e-16,0,0.66667
0.44034,0.14551,2.2017,-0.53174,-14.134,46.705,3.122,-1.0407,-0.99442,4.1626,-5.0293e-13,-0.49721,0,0,0.2,-0,-0,0.66667
0.6862,0.70325,3.431,0.30488,5.2289,17.06,-2.7894,0.92981,-1.6697,-3.7192,2.4127e-12,-0.83484,0,0,0.2,-0,-0,0.66667
0.14241,0.89648,0.71203,0.59472,19.293,93.724,-1.1292,0.37641,-0.74261,-1.5056,-2.0135e-09,-0.37131,0,0,0.2,1.1842e-16,0,0.66667
0.9315,0.088475,4.6575,-0.61729,-2.6064,2.0383,7.6667,-2.5556,-0.64479,10.222,-8.5446e-08,-0.32239,0,0,0.2,-0,-0,0.66667
0.058875,0.82102,0.29437,0.48153,15.83,108.01,-0.378,0.126,-1.1752,-0.50401,-3.1146e-09,-0.58762,0,0,0.2,-0,-0,0.66667
0.2181,0.50082,1.0905,0.0012249,0.038171,80.876,-0.0035619,0.0011873,-2.002,-0.0047492,7.3338e-11,-1.001,0,0,0.2,-0,-0,0.66667
0.077195,0.8302,0.38598,0.49529,16.248,104.85,-0.50979,0.16993,-1.1281,-0.67972,-2.0494e-08,-0.56406,0,0,0.2,2.7006e-17,0,0.66667
0.41151,0.27601,2.0576,-0.33598,-9.1462,50.669,1.8435,-0.61449,-1.5984,2.458,-1.5291e-12,-0.79918,0,0,0.2,-4.737e-16,0,0.66667
0.59726,0.83998,2.9863,0.50996,10.775,26.602,-4.0611,1.3537,-1.0757,-5.4148,-8.2467e-13,-0.53784,0,0,0.2,-1.1842e-15,0,0.66667
0.73114,0.79938,3.6557,0.44908,6.7991,13.2,-4.3778,1.4593,-1.2824,-5.8371,2.5302e-11,-0.64122,0,0,0.2,-8.6585e-16,0,0.66667
0.87843,0.5875,4.3922,0.13125,0.92482,3.258,-1.5372,0.51241,-1.9388,-2.0496,5.7143e-09,-0.96938,0,0,0.2,-1.4211e-15,0,0.66667
0.35325,0.77228,1.7662,0.40841,11.747,59.397,-1.9236,0.64121,-1.4061,-2.5648,2.6329e-12,-0.70304,0,0,0.2,-0,-0,0.66667
0.70246,0.63224,3.5123,0.19836,3.2417,15.46,-1.8579,0.6193,-1.861,-2.4772,1e-11,-0.93052,0,0,0.2,-0,-0,0.66667
0.048616,0.39034,0.24308,-0.16448,-5.3785,109.76,0.10662,-0.03554,-1.9038,0.14216,1.4451e-08,-0.95189,0,0,0.2,-0,-0,0.66667
0.81926,0.70255,4.0963,0.30382,3.1818,6.5646,-3.3188,1.1063,-1.6706,-4.425,6.2779e-10,-0.8353,0,0,0.2,-0,-0,0.66667
0.31828,0.8403,1.5914,0.51045,15.132,64.869,-2.1662,0.72207,-1.0735,-2.8883,1.6267e-12,-0.53674,0,0,0.2,2.3685e-16,0,0.66667
0.22164,0.81954,1.1082,0.47931,15.027,80.402,-1.4165,0.47216,-1.1832,-1.8886,-1.5065e-10,-0.59161,0,0,0.2,4.737e-16,0,0.66667
0.36104,0.19907,1.8052,-0.45139,-12.917,58.242,2.1729,-0.7243,-1.2757,2.8972,-2.3617e-12,-0.63784,0,0,0.2,-0,-0,0.66667
0.11407,0.92768,0.57035,0.64152,21.005,98.562,-0.97571,0.32524,-0.53604,-1.3009,-8.5967e-09,-0.26802,0,0,0.2,1.1842e-16,0,0.66667
0.29371,0.39314,1.4685,-0.16029,-4.7928,68.587,0.62769,-0.20923,-1.9082,0.83693,1.1177e-11,-0.95408,0,0,0.2,-0,-0,0.66667
0.008789,0.091676,0.043945,-0.61249,-20.296,116.67,0.071775,-0.023924,-0.66624,0.0957,1.0538e-06,-0.33312,0,0,0.2,-1.8504e-17,0,0.66667
0.25326,0.0082937,1.2663,-0.73756,-22.994,75.399,2.4906,-0.83021,-0.065618,3.3208,8.7397e-13,-0.032809,0,0,0.2,-0,-0,0.66667
0.83771,0.76864,4.1886,0.40297,3.8388,5.6039,-4.5009,1.5003,-1.4216,-6.0012,1.317e-09,-0.71078,0,0,0.2,9.4739e-16,0,0.66667
0.80776,0.26752,4.0388,-0.34872,-3.8803,7.3449,3.7558,-1.2519,-1.5667,5.0077,-4.9008e-10,-0.78335,0,0,0.2,9.4739e-16,0,0.66667
0.38257,0.11092,1.9128,-0.58361,-16.472,55.124,2.977,-0.99232,-0.78774,3.9693,-8.8418e-13,-0.39387,0,0,0.2,-0,-0,0.66667
0.43068,0.60817,2.1534,0.16226,4.3153,47.827,-0.93177,0.31059,-1.9052,-1.2424,6.5281e-13,-0.95259,0,0,0.2,-0,-0,0.66667
0.18259,0.62822,0.91294,0.19233,6.0925,86.823,-0.46823,0.15608,-1.8686,-0.6243,-2.3577e-10,-0.93429,0,0,0.2,-0,-0,0.66667
0.31687,0.04861,1.5844,-0.67708,-20.23,65.228,2.8607,-0.95356,-0.36914,3.8142,-1.1458e-12,-0.18457,0,0,0.2,4.737e-16,0,0.66667
0.41737,0.18496,2.0868,-0.47255,-12.842,49.923,2.6297,-0.87657,-1.2063,3.5063,-1.2517e-12,-0.60317,0,0,0.2,-7.1054e-16,0,0.66667
0.066468,0.93124,0.33234,0.64686,21.37,106.72,-0.57328,0.19109,-0.51211,-0.76437,5.5079e-08,-0.25605,0,0,0.2,1.1842e-16,0,0.66667
0.33789,0.11261,1.6894,-0.58109,-17.023,61.883,2.6179,-0.87263,-0.79837,3.4905,-1.7131e-12,-0.39919,0,0,0.2,-4.737e-16,0,0.66667
0.49567,0.024039,2.4784,-0.71394,-17.912,39.399,4.7184,-1.5728,-0.18734,6.2912,-8.2601e-14,-0.093671,0,0,0.2,-0,-3.0832e-16,0.66667
0.0067213,0.86003,0.033607,0.54005,17.849,117.03,-0.048398,0.016133,-0.9618,-0.064531,-4.5868e-08,-0.4809,0,0,0.2,-0,-0,0.66667
0.43808,0.21982,2.1904,-0.42026,-11.152,46.921,2.4548,-0.81825,-1.374,3.273,-8.4088e-13,-0.687,0,0,0.2,-0,-0,0.66667
0.21869,0.84929,1.0934,0.52393,16.473,80.912,-1.5277,0.50924,-1.0254,-2.037,-7.4736e-11,-0.51272,0,0,0.2,-0,-0,0.66667
0.2134,0.64424,1.067,0.21636,6.7678,81.678,-0.61561,0.2052,-1.8326,-0.82081,-2.4077e-10,-0.9163,0,0,0.2,-0,-0,0.66667
0.24924,0.77146,1.2462,0.40719,12.562,75.841,-1.3532,0.45106,-1.4111,-1.8042,-6.755e-11,-0.70556,0,0,0.2,-0,-0,0.66667
0.12833,0.62819,0.64163,0.19229,6.1994,96.026,-0.32901,0.10967,-1.869,-0.43868,-8.1101e-10,-0.93452,0,0,0.2,4.737e-16,0,0.66667
0.94481,0.17354,4.7241,-0.48969,-1.588,1.3926,6.1688,-2.0563,-1.1462,8.2251,2.3754e-08,-0.57309,0,0,0.2,1.8948e-15,0,0.66667
0.16907,0.18691,0.84537,-0.46964,-15.041,89.169,1.0587,-0.35291,-1.217,1.4116,2.4527e-10,-0.60848,0,0,0.2,-2.9606e-16,0,0.66667
0.56761,0.46806,2.8381,-0.047908,-1.0546,29.734,0.36257,-0.12086,-1.9924,0.48343,5.5031e-13,-0.9962,0,0,0.2,1.7764e-16,0,0.66667
0.17151,0.68881,0.85754,0.28322,9.0213,88.706,-0.64766,0.21589,-1.7168,-0.86355,-9.4402e-10,-0.85841,0,0,0.2,-0,-0,0.66667
0.26092,0.90297,1.3046,0.60446,18.653,74.059,-2.1029,0.70095,-0.70104,-2.8038,-8.7761e-12,-0.35052,0,0,0.2,7.1054e-16,0,0.66667
0.67678,0.24808,3.3839,-0.37788,-6.6622,18.041,3.4099,-1.1366,-1.4926,4.5465,8.5154e-13,-0.74632,0,0,0.2,1.4211e-15,0,0.66667
0.50327,0.022845,2.5163,-0.71573,-17.778,38.406,4.8027,-1.6009,-0.17839,6.4036,1.5543e-14,-0.089197,0,0,0.2,-0,-0,0.66667
0.15729,0.96524,0.78644,0.69785,22.632,91.252,-1.4635,0.48784,-0.26976,-1.9514,-3.4434e-10,-0.13488,0,0,0.2,-0,-0,0.66667
0.082507,0.62724,0.41253,0.19085,6.2143,103.9,-0.20996,0.069985,-1.8709,-0.27994,9.0338e-09,-0.93544,0,0,0.2,-0,-0,0.66667
0.88189,0.79276,4.4095,0.43914,3.0851,3.4478,-5.1637,1.7212,-1.3132,-6.8849,4.5003e-09,-0.65661,0,0,0.2,-0,-0,0.66667
0.24189,0.88857,1.2095,0.58285,18.157,77.135,-1.8798,0.6266,-0.79092,-2.5064,-2.9519e-11,-0.39546,0,0,0.2,-0,-0,0.66667
0.95897,0.63286,4.7949,0.19929,0.42584,0.65192,-2.5482,0.84939,-1.8581,-3.3976,5.3384e-08,-0.92904,0,0,0.2,-0,-0,0.66667
0.89236,0.43385,4.4618,-0.099221,-0.61679,2.6436,1.1805,-0.39352,-1.966,1.5741,-2.0582e-08,-0.98299,0,0,0.2,-0,-0,0.66667
0.15998,0.77837,0.79989,0.41755,13.394,90.688,-0.89065,0.29688,-1.3805,-1.1875,-1.3185e-09,-0.69027,0,0,0.2,3.5527e-16,0,0.66667
0.50371,0.66382,2.5185,0.24572,5.9847,37.843,-1.6503,0.5501,-1.7851,-2.2004,-8.8263e-14,-0.89254,0,0,0.2,-0,-0,0.66667
0.11892,0.74561,0.5946,0.36841,11.944,97.661,-0.58415,0.19472,-1.5172,-0.77887,-3.4935e-09,-0.75858,0,0,0.2,5.9212e-17,0,0.66667
0.11084,0.31804,0.55419,-0.27295,-8.8483,99.03,0.40337,-0.13446,-1.7359,0.53783,1.9075e-09,-0.86796,0,0,0.2,-0,-0,0.66667
0.6963,0.15929,3.4815,-0.51106,-8.6165,16.372,4.7447,-1.5816,-1.0712,6.3262,-1.128e-13,-0.53562,0,0,0.2,-0,-0,0.66667
0.27155,0.6912,1.3578,0.28679,8.712,72.175,-1.0384,0.34613,-1.7074,-1.3845,-3.5283e-11,-0.85371,0,0,0.2,-0,-0,0.66667
0.96639,0.47602,4.8319,-0.035968,-0.058313,0.42705,0.46345,-0.15448,-1.9956,0.61793,-2.6957e-07,-0.99782,0,0,0.2,-0,-0,0.66667
0.83925,0.38764,4.1962,-0.16853,-1.5676,5.2678,1.8859,-0.62862,-1.8982,2.5145,-4.891e-10,-0.9491,0,0,0.2,-0,-0,0.66667
0.09252,0.63288,0.4626,0.19931,6.4789,102.17,-0.24587,0.081958,-1.8594,-0.32783,9.9575e-09,-0.92968,0,0,0.2,-0,-0,0.66667
0.39056,0.17051,1.9528,-0.49424,-13.799,53.857,2.5737,-0.85791,-1.1322,3.4316,-1.8043e-12,-0.56612,0,0,0.2,-0,7.0046e-17,0.66667
0.12422,0.48099,0.62109,-0.028517,-0.9193,96.718,0.047231,-0.015744,-1.9976,0.062975,4.2839e-10,-0.99879,0,0,0.2,-0,-0,0.66667
0.55539,0.68838,2.777,0.28257,6.3721,31.311,-2.0925,0.69749,-1.7164,-2.79,-4.865e-13,-0.8582,0,0,0.2,-0,-0,0.66667
0.16211,0.60796,0.81053,0.16194,5.1662,90.275,-0.35002,0.11667,-1.9056,-0.4667,-3.7974e-10,-0.95282,0,0,0.2,-2.3685e-16,0,0.66667
0.83177,0.049378,4.1588,-0.67593,-6.8692,6.4887,7.4962,-2.4987,-0.3749,9.995,7.5673e-10,-0.18745,0,0,0.2,-0,-0,0.66667
0.25769,0.24392,1.2885,-0.38412,-11.789,74.455,1.3198,-0.43994,-1.4748,1.7598,5.3097e-11,-0.73738,0,0,0.2,-4.737e-16,0,0.66667
0.51057,0.17655,2.5528,-0.48517,-11.792,37.145,3.3028,-1.1009,-1.1622,4.4038,-5.2625e-14,-0.58111,0,0,0.2,-0,-0,0.66667
0.78245,0.19913,3.9123,-0.4513,-5.6654,9.2108,4.7083,-1.5694,-1.2761,6.2778,-2.0079e-10,-0.63807,0,0,0.2,-0,-0,0.66667
0.53834,0.56889,2.6917,0.10334,2.3873,33.338,-0.74178,0.24726,-1.9614,-0.98904,-4.4131e-13,-0.9807,0,0,0.2,-0,-0,0.66667
0.52882,0.91703,2.6441,0.62555,14.909,34.987,-4.4108,1.4703,-0.60854,-5.881,1.3589e-13,-0.30427,0,0,0.2,-0,3.157e-16,0.66667
0.85484,0.20663,4.2742,-0.44005,-3.7811,4.738,5.0156,-1.6719,-1.3107,6.6875,-2.1302e-09,-0.65535,0,0,0.2,-9.4739e-16,0,0.66667
0.2451,0.082677,1.2255,-0.62598,-19.502,76.64,2.0457,-0.68191,-0.60591,2.7276,9.4993e-12,-0.30296,0,0,0.2,-2.3685e-16,0,0.66667
0.1271,0.87104,0.6355,0.55656,18.107,96.312,-0.94319,0.3144,-0.89941,-1.2576,-5.0437e-09,-0.44971,0,0,0.2,-1.1842e-16,0,0.66667
0.56024,0.70531,2.8012,0.30797,6.8941,30.739,-2.3005,0.76683,-1.6626,-3.0673,-6.7857e-13,-0.8313,0,0,0.2,-9.4739e-16,0,0.66667
0.12838,0.63065,0.6419,0.19598,6.3185,96.017,-0.33547,0.11182,-1.8635,-0.44729,-1.0207e-09,-0.93177,0,0,0.2,-4.737e-16,0,0.66667
0.33116,0.0071143,1.6558,-0.73933,-21.929,63.076,3.2645,-1.0882,-0.05653,4.3526,5.4934e-13,-0.028265,0,0,0.2,-0,-0,0.66667
0.32644,0.60926,1.6322,0.16389,4.7899,63.428,-0.71335,0.23778,-1.9045,-0.95113,-4.3066e-13,-0.95225,0,0,0.2,-0,-0,0.66667
0.94804,0.79681,4.7402,0.44522,1.3339,1.2277,-5.6279,1.876,-1.2942,-7.5038,-1.038e-08,-0.64711,0,0,0.2,-0,-0,0.66667
0.37591,0.52619,1.8796,0.039288,1.1017,55.832,-0.19692,0.06564,-1.9956,-0.26256,5.9684e-13,-0.99782,0,0,0.2,-0,-0,0.66667
0.46911,0.15871,2.3456,-0.51194,-13.15,42.695,3.2021,-1.0674,-1.07,4.2695,-1.7608e-13,-0.53498,0,0,0.2,-0,-0,0.66667
0.94734,0.6721,4.7367,0.25815,0.74963,0.96732,-3.2607,1.0869,-1.7619,-4.3477,-1.4441e-10,-0.88097,0,0,0.2,-1.8948e-15,0,0.66667
0.82838,0.15169,4.1419,-0.52246,-5.3078,6.3462,5.7706,-1.9235,-1.031,7.6942,-1.2085e-09,-0.51548,0,0,0.2,-1.4211e-15,0,0.66667
0.672,0.43977,3.36,-0.090339,-1.5995,18.306,0.80944,-0.26981,-1.973,1.0793,-7.0954e-13,-0.98648,0,0,0.2,-0,-0,0.66667
0.26731,0.52533,1.3366,0.038,1.1541,72.811,-0.13544,0.045146,-1.9955,-0.18059,-8.8761e-12,-0.99776,0,0,0.2,-0,-0,0.66667
0.13326,0.44762,0.66632,-0.078572,-2.5272,95.173,0.13961,-0.046538,-1.977,0.18615,1.3674e-09,-0.98851,0,0,0.2,-2.3685e-16,0,0.66667
0.33396,0.64467,1.6698,0.217,6.3106,62.273,-0.96626,0.32209,-1.8316,-1.2884,9.2643e-13,-0.91578,0,0,0.2,-0,-0,0.66667
0.15982,0.52645,0.7991,0.039673,1.2656,90.653,-0.084541,0.02818,-1.9946,-0.11272,-3.1894e-10,-0.99729,0,0,0.2,1.1842e-16,0,0.66667
0.9604,0.16475,4.802,-0.50287,-1.1398,1.0781,6.4394,-2.1465,-1.1,8.5859,-1.5036e-08,-0.55,0,0,0.2,-0,-0,0.66667
0.20094,0.87979,1.0047,0.56969,18.082,83.877,-1.5263,0.50877,-0.84668,-2.0351,3.1094e-11,-0.42334,0,0,0.2,-0,-0,0.66667
0.31067,0.37074,1.5533,-0.19389,-5.7337,65.908,0.80314,-0.26771,-1.8672,1.0709,4.1541e-12,-0.93359,0,0,0.2,-5.9212e-16,0,0.66667
0.66142,0.93218,3.3071,0.64828,12.06,19.966,-5.7171,1.9057,-0.50546,-7.6228,-7.7494e-13,-0.25273,0,0,0.2,-9.4739e-16,0,0.66667
0.43762,0.007813,2.1881,-0.73828,-19.883,47.344,4.3078,-1.4359,-0.063166,5.7438,-8.4821e-14,-0.031583,0,0,0.2,-0,-0,0.66667
0.58983,0.1248,2.9492,-0.5628,-12.09,27.527,4.4261,-1.4754,-0.87471,5.9015,8.4555e-13,-0.43735,0,0,0.2,2.9606e-17,0,0.66667
0.84885,0.71031,4.2442,0.31547,2.7872,4.8744,-3.5704,1.1901,-1.6455,-4.7606,1.3226e-09,-0.82276,0,0,0.2,-0,-0,0.66667
0.58815,0.055265,2.9407,-0.6671,-14.463,27.888,5.2314,-1.7438,-0.4171,6.9752,9.1482e-14,-0.20855,0,0,0.2,-9.4739e-16,0,0.66667
0.49698,0.79371,2.4849,0.44056,10.89,38.878,-2.9193,0.97311,-1.3095,-3.8924,1.5277e-13,-0.65474,0,0,0.2,-0,-0,0.66667
0.83558,0.56519,4.1779,0.097782,0.92765,5.4412,-1.0894,0.36313,-1.9659,-1.4525,1.0788e-09,-0.98297,0,0,0.2,-0,-0,0.66667
0.79797,0.49385,3.9898,-0.009229,-0.10636,7.776,0.098193,-0.032731,-2.0006,0.13092,-1.5969e-10,-1.0003,0,0,0.2,-0,-0,0.66667
0.98116,0.36389,4.9058,-0.20417,-0.14374,0.28313,2.671,-0.89033,-1.8514,3.5613,5.6506e-08,-0.92569,0,0,0.2,-0,-0,0.66667
0.94861,0.49415,4.743,-0.0087718,-0.024161,0.79689,0.11095,-0.036982,-1.9995,0.14793,1.5708e-07,-0.99975,0,0,0.2,1.4211e-15,0,0.66667
0.91719,0.27032,4.5859,-0.34452,-1.6647,1.9399,4.2132,-1.4044,-1.5772,5.6176,-7.3228e-10,-0.78861,0,0,0.2,-0,-0,0.66667
0.49483,0.19346,2.4741,-0.45981,-11.407,39.182,3.0337,-1.0112,-1.2479,4.0449,4.1744e-14,-0.62395,0,0,0.2,-0,-0,0.66667
0.73715,0.52341,3.6858,0.035108,0.51392,12.37,-0.34506,0.11502,-1.9956,-0.46009,8.8954e-12,-0.99782,0,0,0.2,9.4739e-16,0,0.66667
0.60052,0.10126,3.0026,-0.59812,-12.62,26.363,4.7891,-1.5964,-0.72727,6.3855,6.1329e-13,-0.36363,0,0,0.2,-0,-0,0.66667
0.738,0.39337,3.69,-0.15994,-2.3386,12.339,1.5738,-0.52461,-1.9084,2.0984,-4.0642e-11,-0.95422,0,0,0.2,-0,-0,0.66667
0.37576,0.6771,1.8788,0.26566,7.4693,55.912,-1.331,0.44366,-1.7497,-1.7746,2.4827e-12,-0.87484,0,0,0.2,-4.737e-16,0,0.66667
0.91111,0.45029,4.5555,-0.074558,-0.37915,1.9189,0.90574,-0.30191,-1.9793,1.2077,-2.6027e-10,-0.98967,0,0,0.2,-0,-0,0.66667
0.87231,0.5237,4.3615,0.035555,0.26266,3.5088,-0.41354,0.13785,-1.9956,-0.55138,2.0702e-09,-0.99779,0,0,0.2,-0,-0,0.66667
0.70467,0.62868,3.5233,0.19303,3.1341,15.256,-1.8136,0.60453,-1.8686,-2.4181,1.1638e-11,-0.93429,0,0,0.2,-1.8948e-15,0,0.66667
0.26123,0.57984,1.3061,0.11975,3.6513,73.805,-0.41711,0.13904,-1.9482,-0.55614,-3.3051e-11,-0.97409,0,0,0.2,-4.737e-16,0,0.66667
0.50107,0.11302,2.5053,-0.58047,-14.355,38.498,3.8781,-1.2927,-0.80233,5.1708,-1.2945e-13,-0.40116,0,0,0.2,-0,-0,0.66667
0.21771,0.55662,1.0885,0.084935,2.6481,80.945,-0.24654,0.082182,-1.9753,-0.32873,-6.6959e-11,-0.98765,0,0,0.2,2.3685e-16,0,0.66667
0.10252,0.64209,0.5126,0.21314,6.9158,100.45,-0.29135,0.097117,-1.8373,-0.38847,-2.5055e-09,-0.91864,0,0,0.2,-0,-0,0.66667
0.57796,0.31422,2.8898,-0.27866,-6.0459,28.599,2.1474,-0.71581,-1.726,2.8632,1.1073e-12,-0.86298,0,0,0.2,1.8948e-15,0,0.66667
0.4796,0.69801,2.398,0.29701,7.4771,41.087,-1.8993,0.63309,-1.6856,-2.5324,6.4904e-13,-0.84279,0,0,0.2,-0,-0,0.66667
0.24749,0.81062,1.2375,0.46593,14.413,76.154,-1.5375,0.5125,-1.2291,-2.05,-6.6853e-11,-0.61457,0,0,0.2,1.7764e-16,0,0.66667
0.44668,0.003778,2.2334,-0.74433,-19.854,46.086,4.433,-1.4777,-0.029907,5.9107,-7.9536e-13,-0.014953,0,0,0.2,-0,-0,0.66667
0.13839,0.5755,0.69197,0.11325,3.638,94.3,-0.20897,0.069655,-1.9542,-0.27862,-1.5203e-09,-0.97712,0,0,0.2,-0,-0,0.66667
0.5228,0.10844,2.614,-0.58733,-14.094,35.697,4.0941,-1.3647,-0.77225,5.4588,1.6875e-13,-0.38612,0,0,0.2,-0,-0,0.66667
0.97037,0.025917,4.8519,-0.71112,-1.3419,1.4452,9.2007,-3.0669,-0.20274,12.268,7.5846e-06,-0.10137,0,0,0.2,-1.8948e-15,0,0.66667
0.82378,0.73619,4.1189,0.35428,3.6348,6.3494,-3.8914,1.2971,-1.5529,-5.1885,8.3806e-10,-0.77645,0,0,0.2,-9.7555e-16,0,0.66667
0.0044396,0.58786,0.022198,0.13179,4.3185,117.42,-0.0078017,0.0026005,-1.938,-0.010402,-5.9671e-08,-0.96902,0,0,0.2,-7.4015e-18,0,0.66667
0.09162,0.85325,0.4581,0.52987,17.359,102.38,-0.64729,0.21576,-1.0018,-0.86305,-3.8637e-09,-0.50091,0,0,0.2,-0,2.1873e-17,0.66667
0.025576,0.10481,0.12788,-0.59279,-19.617,113.77,0.20215,-0.067383,-0.74964,0.26953,-1.062e-06,-0.37482,0,0,0.2,-0,-0,0.66667
0.30843,0.74443,1.5421,0.36665,10.896,66.327,-1.5078,0.50259,-1.522,-2.0104,-3.3495e-12,-0.76098,0,0,0.2,4.737e-16,0,0.66667
0.98064,0.89841,4.9032,0.59762,0.63648,0.97746,-7.814,2.6047,-0.72988,-10.419,-8.5662e-07,-0.36494,0,0,0.2,-0,-0,0.66667
0.4604,0.41938,2.302,-0.12092,-3.1077,43.636,0.74232,-0.24744,-1.9468,0.98976,-6.728e-13,-0.97341,0,0,0.2,-0,-0,0.66667
0.40975,0.4452,2.0487,-0.082201,-2.2326,50.829,0.44909,-0.1497,-1.9758,0.59878,-7.7743e-13,-0.98789,0,0,0.2,-0,-0,0.66667
0.40822,0.057261,2.0411,-0.66411,-18.364,51.446,3.6147,-1.2049,-0.4325,4.8196,-3.515e-13,-0.21625,0,0,0.2,2.3685e-16,0,0.66667
0.82481,0.81368,4.1241,0.47052,4.8474,6.463,-5.1746,1.7249,-1.2137,-6.8994,6.7438e-10,-0.60686,0,0,0.2,-0,-0,0.66667
0.58171,0.29952,2.9085,-0.30072,-6.485,28.176,2.3324,-0.77748,-1.6778,3.1099,1.4049e-12,-0.83892,0,0,0.2,-0,-0,0.66667
0.11935,0.27295,0.59676,-0.34058,-11.033,97.582,0.54198,-0.18066,-1.5869,0.72264,2.8444e-09,-0.79343,0,0,0.2,1.1842e-16,0,0.66667
0.44473,0.41263,2.2237,-0.13106,-3.4305,45.826,0.77716,-0.25905,-1.9383,1.0362,-1.093e-12,-0.96914,0,0,0.2,-0,-0,0.66667
0.1464,0.00071456,0.73202,-0.74893,-24.428,93.113,1.462,-0.48732,-0.0061586,1.9493,3.5341e-09,-0.0030793,0,0,0.2,-0,-0,0.66667
0.66607,0.41235,3.3304,-0.13148,-2.3639,18.907,1.1676,-0.38921,-1.9381,1.5569,-3.1863e-13,-0.96903,0,0,0.2,1.8948e-15,0,0.66667
0.12237,0.035943,0.61185,-0.69609,-22.799,97.166,1.1357,-0.37858,-0.27769,1.5143,-9.2322e-09,-0.13885,0,0,0.2,-0,-0,0.66667
0.086689,0.37305,0.43345,-0.19043,-6.1959,103.18,0.2201,-0.073368,-1.8711,0.29347,-2.0643e-08,-0.93557,0,0,0.2,1.4803e-16,0,0.66667
0.70336,0.16039,3.5168,-0.50941,-8.4199,15.722,4.7774,-1.5925,-1.0789,6.3698,-2.3572e-12,-0.53946,0,0,0.2,1.8948e-15,0,0.66667
0.41126,0.58077,2.0563,0.12116,3.2867,50.616,-0.66435,0.22145,-1.9469,-0.8858,6.0313e-13,-0.97344,0,0,0.2,-4.737e-16,0,0.66667
0.99611,0.19017,4.9806,-0.46474,0.04674,0.50817,6.1724,-2.0575,-1.2325,8.2299,-7.7486e-08,-0.61625,0,0,0.2,-3.7896e-15,0,0.66667
0.53405,0.89124,2.6702,0.58686,13.85,34.274,-4.1789,1.393,-0.77502,-5.5718,-1.6565e-13,-0.38751,0,0,0.2,9.4739e-16,0,0.66667
0.77901,0.87135,3.8951,0.55703,7.1539,9.642,-5.7858,1.9286,-0.89757,-7.7144,9.83e-11,-0.44879,0,0,0.2,-1.1842e-15,-1.8478e-16,0.66667
0.86863,0.22467,4.3431,-0.413,-3.2116,4.0102,4.7832,-1.5944,-1.393,6.3776,-3.4187e-09,-0.69651,0,0,0.2,1.8948e-15,0,0.66667
0.79875,0.9449,3.9937,0.66735,7.9716,8.5136,-7.1072,2.3691,-0.41693,-9.4763,-1.8386e-11,-0.20847,0,0,0.2,-0,-0,0.66667
0.21409,0.55583,1.0704,0.083748,2.6154,81.545,-0.23906,0.079686,-1.9747,-0.31874,-7.0469e-11,-0.98735,0,0,0.2,3.5527e-16,0,0.66667
0.68037,0.69326,3.4018,0.28989,5.0461,17.604,-2.6297,0.87658,-1.7007,-3.5063,7.2631e-13,-0.85033,0,0,0.2,1.8948e-15,0,0.66667
0.0046244,0.54912,0.023122,0.073681,2.4134,117.39,-0.0045428,0.0015124,-1.9798,-0.006058,-2.7223e-06,-0.98991,0,0,0.2,-0,-0,0.66667
0.7958,0.13228,3.979,-0.55158,-6.5945,8.4611,5.8526,-1.9509,-0.919,7.8035,-1.1208e-10,-0.4595,0,0,0.2,-1.8948e-15,0,0.66667
0.21583,0.018666,1.0792,-0.722,-22.915,81.502,2.0778,-0.69258,-0.14615,2.7703,5.2333e-11,-0.073076,0,0,0.2,-0,2.2788e-16,0.66667
0.98672,0.63188,4.9336,0.19783,0.066566,0.2091,-2.6027,0.86756,-1.8611,-3.4702,-1.0477e-08,-0.93057,0,0,0.2,-0,-0,0.66667
0.94415,0.26021,4.7207,-0.35968,-1.1404,1.1773,4.5279,-1.5093,-1.539,6.0372,1.1311e-08,-0.76951,0,0,0.2,-0,-0,0.66667
0.58512,0.95673,2.9256,0.6851,14.952,28.27,-5.3448,1.7816,-0.33002,-7.1265,2.5047e-13,-0.16501,0,0,0.2,-6.9292e-16,0,0.66667
0.16047,0.66185,0.80234,0.24278,7.7575,90.564,-0.51945,0.17315,-1.7903,-0.6926,-7.9629e-10,-0.89516,0,0,0.2,-4.737e-16,0,0.66667
0.7034,0.3659,3.517,-0.20115,-3.2787,15.376,1.8865,-0.62884,-1.8571,2.5154,-1.0629e-11,-0.92854,0,0,0.2,-0,-0,0.66667
0.41745,0.89585,2.0873,0.59377,16.214,50.031,-3.305,1.1017,-0.74575,-4.4066,5.4112e-13,-0.37288,0,0,0.2,-4.737e-16,0,0.66667
0.46677,0.78309,2.3338,0.42463,10.902,42.93,-2.6427,0.88091,-1.3601,-3.5236,1.9873e-13,-0.68005,0,0,0.2,-0,-0,0.66667
0.30497,0.45951,1.5248,-0.060728,-1.8008,66.784,0.24693,-0.082312,-1.9859,0.32925,2.6436e-12,-0.99296,0,0,0.2,-0,-0,0.66667
0.86917,0.59235,4.3458,0.13853,1.0512,3.6923,-1.6054,0.53514,-1.9321,-2.1406,-1.4437e-09,-0.96603,0,0,0.2,3.5527e-16,0,0.66667
0.46942,0.84225,2.3471,0.51337,13.182,42.654,-3.2132,1.0711,-1.0648,-4.2842,1.5676e-13,-0.53239,0,0,0.2,4.1448e-16,0,0.66667
0.80616,0.94861,4.0308,0.67291,7.7765,8.0421,-7.2329,2.411,-0.38899,-9.6439,-7.6987e-12,-0.19449,0,0,0.2,-1.8948e-15,0,0.66667
0.8068,0.5848,4.034,0.1272,1.408,7.218,-1.3683,0.45611,-1.9417,-1.8244,2.4931e-10,-0.97084,0,0,0.2,-0,-0,0.66667
0.55703,0.23813,2.7851,-0.39281,-8.8646,31.204,2.9174,-0.97246,-1.4504,3.8899,9.5124e-13,-0.72521,0,0,0.2,-0,-0,0.66667
0.38613,0.75043,1.9306,0.37564,10.49,54.424,-1.9339,0.64465,-1.499,-2.5786,1.9511e-12,-0.74951,0,0,0.2,-9.4739e-16,0,0.66667
0.68707,0.25157,3.4353,-0.37265,-6.3942,17.047,3.4138,-1.1379,-1.5082,4.5517,-1.4551e-12,-0.7541,0,0,0.2,-0,-0,0.66667
0.6809,0.43568,3.4045,-0.096483,-1.6697,17.44,0.87594,-0.29198,-1.967,1.1679,-1.7128e-12,-0.98352,0,0,0.2,5.7449e-16,0,0.66667
0.18194,0.85222,0.90971,0.52834,16.873,87.029,-1.2817,0.42723,-1.0068,-1.7089,-2.4165e-10,-0.50339,0,0,0.2,-0,-0,0.66667
0.76415,0.2725,3.8208,-0.34125,-4.575,10.41,3.4769,-1.159,-1.5864,4.6359,-1.3346e-10,-0.79319,0,0,0.2,9.4739e-16,0,0.66667
0.16518,0.19291,0.82588,-0.46064,-14.768,89.823,1.0145,-0.33816,-1.2451,1.3526,5.0046e-10,-0.62254,0,0,0.2,-0,-0,0.66667
0.32411,0.22206,1.6205,-0.41691,-12.269,63.897,1.8016,-0.60055,-1.3823,2.4022,-1.5472e-12,-0.69115,0,0,0.2,9.4739e-16,0,0.66667
0.87021,0.71548,4.3511,0.32322,2.4617,3.8074,-3.7502,1.2501,-1.6287,-5.0003,2.0301e-09,-0.81434,0,0,0.2,1.1842e-15,0,0.66667
0.57167,0.5681,2.8583,0.10215,2.2337,29.259,-0.77859,0.25953,-1.9624,-1.0381,-7.9708e-13,-0.98121,0,0,0.2,-0,-0,0.66667
0.2566,0.0028742,1.283,-0.74569,-23.215,74.866,2.5512,-0.85041,-0.022867,3.4017,-6.1791e-12,-0.011434,0,0,0.2,1.8948e-15,0,0.66667
0.92392,0.57012,4.6196,0.10518,0.453,1.5017,-1.2957,0.4319,-1.961,-1.7276,7.0209e-08,-0.98049,0,0,0.2,-0,-0,0.66667
0.66058,0.12216,3.3029,-0.56676,-10.506,19.905,4.9918,-1.6639,-0.85821,6.6558,1.7808e-12,-0.4291,0,0,0.2,9.4739e-16,0,0.66667
0.55451,0.9045,2.7726,0.60674,13.884,31.774,-4.4859,1.4953,-0.69116,-5.9813,2.065e-13,-0.34558,0,0,0.2,2.3685e-16,0,0.66667
0.99332,0.17595,4.9666,-0.48607,-0.051273,0.57626,6.4376,-2.1459,-1.1589,8.5835,-1.6448e-07,-0.57943,0,0,0.2,-0,-0,0.66667
0.84555,0.95639,4.2278,0.68458,6.4378,5.7455,-7.718,2.5727,-0.33372,-10.291,1.6686e-09,-0.16686,0,0,0.2,-0,-0,0.66667
0.67719,0.3039,3.386,-0.29415,-5.1634,17.915,2.656,-0.88533,-1.6917,3.5413,-2.2049e-13,-0.84583,0,0,0.2,-4.737e-16,0,0.66667
0.081731,0.85741,0.40865,0.53612,17.598,104.08,-0.58423,0.19474,-0.97743,-0.77897,-2.6369e-08,-0.48871,0,0,0.2,-0,-0,0.66667
0.36445,0.54278,1.8222,0.064174,1.8178,57.565,-0.31184,0.10395,-1.9845,-0.41578,4.5558e-13,-0.99224,0,0,0.2,9.4739e-16,0,0.66667
0.50217,0.48077,2.5108,-0.028847,-0.70229,37.979,0.19315,-0.064383,-1.9969,0.25753,-3.8911e-13,-0.99847,0,0,0.2,-0,-0,0.66667
0.61766,0.53276,3.0883,0.049133,0.98441,23.971,-0.40463,0.13488,-1.9916,-0.5395,-8.3275e-13,-0.99579,0,0,0.2,1.8948e-15,0,0.66667
0.63988,0.045828,3.1994,-0.68126,-13.341,22.231,5.8123,-1.9374,-0.35025,7.7497,5.3113e-13,-0.17512,0,0,0.2,-0,-2.3578e-16,0.66667
0.72511,0.27032,3.6256,-0.34452,-5.2872,13.578,3.3309,-1.1103,-1.577,4.4411,-2.8807e-11,-0.78848,0,0,0.2,-0,-0,0.66667
0.91024,0.80438,4.5512,0.45656,2.4419,2.3601,-5.5411,1.847,-1.2585,-7.3881,1.4891e-08,-0.62924,0,0,0.2,9.4739e-16,0,0.66667
0.56828,0.63492,2.8414,0.20238,4.458,29.703,-1.5334,0.51115,-1.8535,-2.0446,-7.6505e-13,-0.92675,0,0,0.2,-0,-0,0.66667
0.98027,0.7613,4.9013,0.39194,0.34428,0.53887,-5.1228,1.7076,-1.4531,-6.8304,-9.1491e-09,-0.72657,0,0,0.2,-0,-0,0.66667
0.1132,0.87359,0.56599,0.56038,18.296,98.686,-0.84579,0.28193,-0.88415,-1.1277,-6.7963e-09,-0.44208,0,0,0.2,-7.4015e-17,0,0.66667
0.46568,0.67703,2.3284,0.26555,6.7967,42.966,-1.6488,0.54961,-1.749,-2.1984,2.4225e-13,-0.87448,0,0,0.2,-0,-0,0.66667
0.10167,0.90383,0.50836,0.60575,19.86,100.67,-0.82117,0.27372,-0.69534,-1.0949,-5.6497e-08,-0.34767,0,0,0.2,-1.1842e-16,0,0.66667
0.74245,0.35396,3.7122,-0.21906,-3.16,12.01,2.1686,-0.72285,-1.8283,2.8914,-5.8546e-11,-0.91417,0,0,0.2,-0,-0,0.66667
0.80683,0.7336,4.0341,0.35039,3.9168,7.4074,-3.7694,1.2565,-1.5624,-5.0259,4.7342e-10,-0.78119,0,0,0.2,-0,-0,0.66667
0.52316,0.14529,2.6158,-0.53207,-12.727,35.58,3.7114,-1.2371,-0.99233,4.9486,1.5854e-13,-0.49617,0,0,0.2,4.737e-16,0,0.66667
0.43253,0.37518,2.1627,-0.18723,-4.9709,47.571,1.0797,-0.35992,-1.8761,1.4397,-1.6261e-12,-0.93803,0,0,0.2,-0,-0,0.66667
0.066995,0.60593,0.33497,0.1589,5.1844,106.57,-0.14194,0.047313,-1.9094,-0.18925,2.5501e-08,-0.95471,0,0,0.2,-1.1842e-16,0,0.66667
0.56461,0.93203,2.8231,0.64805,14.62,30.619,-4.8786,1.6262,-0.50734,-6.5048,2.5002e-13,-0.25367,0,0,0.2,-0,-0,0.66667
0.25483,0.3156,1.2741,-0.2766,-8.482,74.881,0.93982,-0.31327,-1.7281,1.2531,6.9327e-11,-0.86406,0,0,0.2,-0,-0,0.66667
0.082332,0.29831,0.41166,-0.30254,-9.8685,103.94,0.33211,-0.1107,-1.6738,0.44282,-3.1386e-09,-0.83688,0,0,0.2,1.1842e-16,0,0.66667
0.73371,0.39424,3.6685,-0.15864,-2.353,12.697,1.552,-0.51733,-1.9111,2.0693,-3.527e-11,-0.95553,0,0,0.2,-0,-0,0.66667
0.74344,0.52461,3.7172,0.036919,0.52897,11.852,-0.36596,0.12199,-1.9945,-0.48795,1.2534e-11,-0.99726,0,0,0.2,-9.4739e-16,0,0.66667
0.37108,0.52504,1.8554,0.037562,1.0578,56.559,-0.18585,0.061948,-1.9949,-0.24779,3.2976e-13,-0.99743,0,0,0.2,4.737e-16,0,0.66667
0.18447,0.35779,0.92237,-0.21331,-6.7539,86.509,0.52466,-0.17489,-1.8378,0.69955,4.8458e-10,-0.91888,0,0,0.2,-0,-0,0.66667
0.51289,0.28806,2.5644,-0.3179,-7.6571,36.691,2.174,-0.72467,-1.6408,2.8987,3.3329e-13,-0.82041,0,0,0.2,-0,-0,0.66667
0.093456,0.74398,0.46728,0.36597,11.93,102.03,-0.45603,0.15201,-1.5251,-0.60804,-2.7862e-09,-0.76254,0,0,0.2,-6.3087e-17,0,0.66667
0.77844,0.91715,3.8922,0.62572,8.1074,9.8238,-6.4945,2.1648,-0.60765,-8.6593,2.8814e-11,-0.30383,0,0,0.2,-0,-0,0.66667
0.47595,0.27968,2.3798,-0.33048,-8.3652,41.603,2.0973,-0.69908,-1.6118,2.7963,-7.5429e-13,-0.80591,0,0,0.2,1.4211e-15,0,0.66667
0.96096,0.35202,4.8048,-0.22197,-0.44826,0.6324,2.8441,-0.94803,-1.8239,3.7921,1.2749e-09,-0.91197,0,0,0.2,-0,-0,0.66667
0.10902,0.097227,0.5451,-0.60416,-19.776,99.413,0.87821,-0.29274,-0.70383,1.1709,3.7464e-08,-0.35192,0,0,0.2,2.3685e-16,-9.3682e-17,0.66667
0.69796,0.66861,3.4898,0.25292,4.1929,15.913,-2.3537,0.78456,-1.7716,-3.1382,7.9086e-12,-0.88581,0,0,0.2,-0,-0,0.66667
0.80356,0.17973,4.0178,-0.4804,-5.5081,7.8138,5.1471,-1.7157,-1.1786,6.8628,-2.8518e-10,-0.58932,0,0,0.2,-1.4211e-15,0,0.66667
0.72687,0.99026,3.6344,0.73538,11.545,14.109,-7.1271,2.3757,-0.076195,-9.5028,1.8012e-12,-0.038097,0,0,0.2,8.6079e-16,0,0.66667
0.46145,0.58701,2.3073,0.13051,3.3503,43.493,-0.80302,0.26767,-1.9387,-1.0707,1.8835e-13,-0.96937,0,0,0.2,-2.0046e-16,0,0.66667
0.54611,0.65954,2.7306,0.23931,5.4725,32.426,-1.7425,0.58084,-1.7979,-2.3234,-6.2272e-13,-0.89893,0,0,0.2,-0,-0,0.66667
0.61519,0.61921,3.0759,0.17882,3.6065,24.284,-1.4668,0.48893,-1.8859,-1.9557,-1.8308e-12,-0.94293,0,0,0.2,-0,-0,0.66667
0.059105,0.57011,0.29553,0.10517,3.4333,107.94,-0.082882,0.027628,-1.9605,-0.11051,1.7392e-07,-0.98026,0,0,0.2,-0,-0,0.66667
0.99567,0.70411,4.9784,0.30616,-0.060709,0.24117,-4.0645,1.3548,-1.6659,-5.4194,2.4934e-08,-0.83294,0,0,0.2,-0,-0,0.66667
0.25491,0.65454,1.2745,0.23182,7.1028,74.855,-0.78789,0.26263,-1.8093,-1.0505,-6.6609e-11,-0.90466,0,0,0.2,5.9212e-16,0,0.66667
0.64341,0.60733,3.217,0.16099,3.0553,21.237,-1.3811,0.46037,-1.9075,-1.8415,-1.6328e-12,-0.95374,0,0,0.2,-0,-0,0.66667
0.12643,0.1123,0.63217,-0.58154,-18.94,96.434,0.98035,-0.32678,-0.79771,1.3071,4.572e-09,-0.39885,0,0,0.2,2.3685e-16,0,0.66667
0.16786,0.05337,0.83932,-0.66994,-21.623,89.458,1.4995,-0.49982,-0.40371,1.9993,-8.7757e-10,-0.20185,0,0,0.2,2.3685e-16,0,0.66667
0.4911,0.17172,2.4555,-0.49242,-12.292,39.71,3.2244,-1.0748,-1.1367,4.2992,1.8985e-13,-0.56833,0,0,0.2,-9.4739e-16,0,0.66667
0.2885,0.73032,1.4425,0.34548,10.399,69.478,-1.3289,0.44298,-1.5745,-1.7719,-1.4275e-11,-0.78725,0,0,0.2,-0,-0,0.66667
0.50424,0.043184,2.5212,-0.68522,-16.967,38.231,4.6069,-1.5356,-0.32983,6.1425,-2.0739e-13,-0.16491,0,0,0.2,9.4739e-16,0,0.66667
0.10218,0.47686,0.51091,-0.034713,-1.1248,100.5,0.047293,-0.015764,-1.9949,0.063057,-6.6599e-09,-0.99744,0,0,0.2,-2.3685e-16,0,0.66667
0.41929,0.31207,2.0965,-0.28189,-7.6032,49.511,1.5759,-0.52531,-1.7188,2.1012,-1.68e-12,-0.85938,0,0,0.2,-4.4409e-17,0,0.66667
0.2686,0.46217,1.343,-0.056748,-1.7222,72.603,0.20323,-0.067745,-1.9887,0.27098,1.3148e-11,-0.99433,0,0,0.2,-2.3685e-16,0,0.66667
0.5819,0.95133,2.9095,0.677,14.852,28.628,-5.2526,1.7509,-0.36972,-7.0035,-1.5854e-13,-0.18486,0,0,0.2,9.4739e-16,0,0.66667
0.17171,0.71153,0.85853,0.31729,10.113,88.68,-0.7264,0.24213,-1.6432,-0.96854,-8.4671e-10,-0.82162,0,0,0.2,-2.3685e-16,0,0.66667
0.96232,0.3213,4.8116,-0.26806,-0.52425,0.65419,3.4394,-1.1465,-1.7437,4.5859,1.0184e-08,-0.87183,0,0,0.2,-0,-0,0.66667
0.54421,0.36037,2.7211,-0.20944,-4.801,32.645,1.5197,-0.50658,-1.8437,2.0263,7.3386e-13,-0.92184,0,0,0.2,-9.4739e-16,0,0.66667
0.70195,0.51346,3.5098,0.020196,0.32971,15.446,-0.18902,0.063006,-1.9988,-0.25203,1.7892e-12,-0.9994,0,0,0.2,-1.8948e-15,0,0.66667
0.93237,0.113,4.6618,-0.5805,-2.3931,1.9225,7.2165,-2.4055,-0.80093,9.622,-7.6643e-08,-0.40047,0,0,0.2,-0,-0,0.66667
0.34537,0.84351,1.7268,0.51526,14.968,60.679,-2.3727,0.79091,-1.0577,-3.1636,2.6714e-12,-0.52886,0,0,0.2,-5.7732e-16,0,0.66667
0.51572,0.419,2.5786,-0.12149,-2.9037,36.226,0.83543,-0.27848,-1.9483,1.1139,-2.7001e-13,-0.97416,0,0,0.2,9.4739e-16,0,0.66667
0.78659,0.039177,3.933,-0.69124,-8.7243,9.3974,7.2496,-2.4165,-0.30051,9.6661,-1.2347e-11,-0.15025,0,0,0.2,-0,-0,0.66667
0.06941,0.32548,0.34705,-0.26179,-8.5501,106.16,0.24228,-0.080758,-1.7552,0.32303,-8.86e-09,-0.87758,0,0,0.2,-0,-0,0.66667
0.75322,0.42424,3.7661,-0.11364,-1.5741,11.085,1.1413,-0.38043,-1.9536,1.5217,-5.2149e-11,-0.97679,0,0,0.2,-0,-0,0.66667
0.11748,0.95419,0.5874,0.68128,22.326,97.994,-1.0672,0.35572,-0.34847,-1.4229,-5.37e-09,-0.17423,0,0,0.2,-0,-0,0.66667
0.38913,0.64055,1.9457,0.21082,5.85,53.895,-1.0938,0.3646,-1.8421,-1.4584,1.6365e-12,-0.92103,0,0,0.2,-4.737e-16,0,0.66667
0.69699,0.57905,3.485,0.11858,1.965,15.925,-1.102,0.36733,-1.9489,-1.4693,5.191e-12,-0.97443,0,0,0.2,-9.4739e-16,0,0.66667
0.059872,0.71595,0.29936,0.32393,10.605,107.82,-0.25859,0.086196,-1.6277,-0.34478,8.7714e-09,-0.81386,0,0,0.2,1.3323e-16,0,0.66667
0.66498,0.064142,3.3249,-0.65379,-12.064,19.622,5.7968,-1.9323,-0.48037,7.729,1.4304e-12,-0.24019,0,0,0.2,-1.8948e-15,0,0.66667
0.97191,0.60156,4.8596,0.15234,0.19603,0.37929,-1.9741,0.65805,-1.9174,-2.6322,1.8522e-07,-0.95869,0,0,0.2,-1.8948e-15,0,0.66667
0.24942,0.25854,1.2471,-0.36219,-11.16,75.792,1.2045,-0.4015,-1.5344,1.606,7.9876e-11,-0.76721,0,0,0.2,-4.737e-16,0,0.66667
0.25914,0.33311,1.2957,-0.25034,-7.6545,74.172,0.86496,-0.28832,-1.7762,1.1533,5.6222e-11,-0.88808,0,0,0.2,-2.3685e-16,0,0.66667
0.087231,0.61674,0.43615,0.1751,5.6958,103.08,-0.20366,0.067886,-1.8902,-0.27155,5.1746e-09,-0.94508,0,0,0.2,-5.9212e-17,0,0.66667
0.093025,0.68387,0.46512,0.27581,8.975,102.09,-0.3421,0.11403,-1.731,-0.45613,2.6599e-09,-0.86548,0,0,0.2,-2.9606e-17,0,0.66667
0.31441,0.11066,1.572,-0.584,-17.408,65.531,2.4482,-0.81606,-0.78727,3.2642,-1.3072e-12,-0.39363,0,0,0.2,4.737e-16,0,0.66667
0.83253,0.30777,4.1627,-0.28835,-2.8064,5.7534,3.2008,-1.0669,-1.7043,4.2677,-1.0705e-09,-0.85217,0,0,0.2,1.4211e-15,0,0.66667
0.51242,0.21617,2.5621,-0.42575,-10.297,36.843,2.9088,-0.96962,-1.3562,3.8785,2.1871e-13,-0.67808,0,0,0.2,6.254e-16,0,0.66667
0.38564,0.8473,1.9282,0.52094,14.625,54.608,-2.6786,0.89287,-1.0351,-3.5715,1.4628e-12,-0.51756,0,0,0.2,-0,-0,0.66667
0.1825,0.9761,0.91252,0.71415,22.973,87.029,-1.7378,0.57927,-0.18612,-2.3171,-3.0402e-10,-0.093059,0,0,0.2,4.737e-16,0,0.66667
0.97602,0.47668,4.8801,-0.03498,-0.034901,0.26762,0.45522,-0.15174,-1.9948,0.60696,2.1221e-07,-0.99741,0,0,0.2,-0,-0,0.66667
0.74144,0.91258,3.7072,0.61886,9.1733,12.645,-6.118,2.0393,-0.63763,-8.1573,7.7942e-12,-0.31881,0,0,0.2,1.8948e-15,0,0.66667
0.34016,0.79368,1.7008,0.44052,12.816,61.424,-1.998,0.66599,-1.3094,-2.664,2.597e-12,-0.65472,0,0,0.2,-0,-0,0.66667
0.92233,0.0018629,4.6117,-0.74721,-3.7153,2.6738,9.189,-3.063,-0.016755,12.252,2.9728e-07,-0.0083777,0,0,0.2,-0,-0,0.66667
0.58633,0.84497,2.9317,0.51746,11.161,27.867,-4.0454,1.3485,-1.0482,-5.3938,-8.2423e-13,-0.52408,0,0,0.2,-0,-0,0.66667
0.2652,0.4424,1.326,-0.086401,-2.6278,73.157,0.30551,-0.10184,-1.9748,0.40735,2.425e-11,-0.98742,0,0,0.2,-0,-0,0.66667
0.48157,0.46284,2.4078,-0.055736,-1.3947,40.73,0.35788,-0.11929,-1.9892,0.47717,-5.3432e-13,-0.9946,0,0,0.2,4.737e-16,0,0.66667
0.43439,0.6225,2.1719,0.18375,4.8686,47.306,-1.0643,0.35476,-1.8806,-1.419,1.0304e-12,-0.94032,0,0,0.2,-5.9212e-16,0,0.66667
0.3025,0.62677,1.5125,0.19016,5.6549,67.197,-0.76699,0.25566,-1.8717,-1.0227,-7.4986e-12,-0.93584,0,0,0.2,-0,-0,0.66667
0.65676,0.83246,3.2838,0.49869,9.2906,20.183,-4.367,1.4557,-1.1164,-5.8226,-2.577e-12,-0.55821,0,0,0.2,-0,-0,0.66667
0.79219,0.17371,3.961,-0.48944,-5.9122,8.5924,5.1698,-1.7233,-1.1474,6.893,-2.0154e-10,-0.57368,0,0,0.2,-0,-0,0.66667
0.35326,0.69306,1.7663,0.2896,8.3048,59.33,-1.3641,0.45468,-1.7014,-1.8187,2.5809e-12,-0.85068,0,0,0.2,-0,-0,0.66667
0.43787,0.45644,2.1894,-0.065336,-1.7225,46.782,0.38145,-0.12715,-1.9855,0.5086,-6.4582e-13,-0.99275,0,0,0.2,4.737e-16,0,0.66667
0.96304,0.018192,4.8152,-0.72271,-1.7179,1.6045,9.28,-3.0933,-0.14184,12.373,-1.1466e-06,-0.070919,0,0,0.2,-6.0705e-15,0,0.66667
0.25951,0.47543,1.2976,-0.036859,-1.1244,74.076,0.12754,-0.042513,-1.9946,0.17005,9.003e-12,-0.99729,0,0,0.2,-0,-0,0.66667
0.71926,0.8446,3.5963,0.5169,8.1579,14.322,-4.9571,1.6524,-1.0521,-6.6095,6.2279e-12,-0.52604,0,0,0.2,-1.8948e-15,0,0.66667
0.85114,0.21637,4.2557,-0.42545,-3.7396,4.9068,4.8282,-1.6094,-1.3564,6.4376,-1.2779e-09,-0.6782,0,0,0.2,-9.3225e-16,0,0.66667
0.74183,0.96338,3.7092,0.69508,10.362,12.778,-6.8751,2.2917,-0.28169,-9.1668,4.0852e-12,-0.14085,0,0,0.2,-9.4739e-16,0,0.66667
0.21655,0.87343,1.0828,0.56015,17.652,81.284,-1.6174,0.53912,-0.88556,-2.1565,-1.7628e-10,-0.44278,0,0,0.2,5.033e-16,0,0.66667
0.43531,0.60887,2.1765,0.1633,4.3211,47.168,-0.94781,0.31594,-1.905,-1.2637,9.297e-13,-0.9525,0,0,0.2,-9.4739e-16,0,0.66667
0.60876,0.65497,3.0438,0.23245,4.7543,25.029,-1.8868,0.62892,-1.8098,-2.5157,-2.0495e-12,-0.9049,0,0,0.2,1.1842e-15,0,0.66667
0.59156,0.56195,2.9578,0.09293,1.9603,26.923,-0.73298,0.24433,-1.9707,-0.97731,-4.1028e-13,-0.98535,0,0,0.2,-1.3619e-15,0,0.66667
0.95189,0.15731,4.7594,-0.51403,-1.4502,1.2794,6.524,-2.1747,-1.0622,8.6987,2.0891e-09,-0.5311,0,0,0.2,-0,-0,0.66667
0.3584,0.072437,1.792,-0.64134,-18.532,58.807,3.0648,-1.0216,-0.53806,4.0864,-2.0317e-13,-0.26903,0,0,0.2,-0,-2.0546e-16,0.66667
0.53179,0.92257,2.659,0.63385,15.048,34.625,-4.4944,1.4981,-0.57201,-5.9925,1.279e-13,-0.286,0,0,0.2,-0,-0,0.66667
0.39838,0.20662,1.9919,-0.44007,-12.173,52.66,2.3375,-0.77918,-1.3103,3.1167,-1.4229e-12,-0.65513,0,0,0.2,-4.7177e-16,0,0.66667
0.61473,0.051728,3.0736,-0.67241,-13.867,24.908,5.5113,-1.8371,-0.39154,7.3484,4.2943e-13,-0.19577,0,0,0.2,-9.4739e-16,0,0.66667
0.46485,0.25474,2.3242,-0.36788,-9.45,43.147,2.2801,-0.76004,-1.5189,3.0402,-5.9974e-13,-0.75944,0,0,0.2,-9.4739e-16,0,0.66667
0.95549,0.54183,4.7774,0.062752,0.14572,0.649,-0.79946,0.26648,-1.9859,-1.0659,-5.0967e-07,-0.99296,0,0,0.2,-0,-0,0.66667
0.70849,0.44988,3.5424,-0.07518,-1.2047,14.861,0.71018,-0.23673,-1.9789,0.94691,-6.6696e-12,-0.98947,0,0,0.2,-0,-0,0.66667
0.49885,0.94631,2.4942,0.66946,16.683,38.913,-4.4528,1.4843,-0.40705,-5.937,-1.0569e-13,-0.20352,0,0,0.2,-0,-0,0.66667
0.49291,0.27747,2.4645,-0.33379,-8.267,39.327,2.1937,-0.73124,-1.6036,2.925,-6.8301e-13,-0.8018,0,0,0.2,2.3685e-16,0,0.66667
0.2485,0.39876,1.2425,-0.15187,-4.6646,75.883,0.50317,-0.16772,-1.9185,0.6709,6.8392e-11,-0.95927,0,0,0.2,-0,-0,0.66667
0.21539,0.16364,1.0769,-0.50455,-15.877,81.448,1.449,-0.48299,-1.0948,1.932,9.6627e-11,-0.54738,0,0,0.2,-0,-0,0.66667
0.38386,0.34359,1.9193,-0.23461,-6.5447,54.688,1.2008,-0.40026,-1.8048,1.601,-2.2902e-12,-0.90238,0,0,0.2,2.9606e-17,0,0.66667
0.26942,0.35289,1.3471,-0.22066,-6.7038,72.499,0.79266,-0.26422,-1.8265,1.0569,3.684e-11,-0.91323,0,0,0.2,-0,-0,0.66667
0.29831,0.33635,1.4915,-0.24547,-7.3263,67.879,0.97632,-0.32544,-1.7863,1.3018,9.5096e-12,-0.89317,0,0,0.2,-0,-0,0.66667
0.21497,0.020409,1.0749,-0.71939,-22.838,81.642,2.062,-0.68733,-0.1594,2.7493,4.7149e-11,-0.079699,0,0,0.2,-0,-0,0.66667
0.43072,0.15501,2.1536,-0.51749,-13.891,48.053,2.9719,-0.99062,-1.0481,3.9625,-8.471e-13,-0.52404,0,0,0.2,4.1448e-16,0,0.66667
0.23735,0.75909,1.1867,0.38863,12.059,77.778,-1.2299,0.40996,-1.4628,-1.6399,-1.1205e-10,-0.73141,0,0,0.2,-0,-0,0.66667
0.42905,0.17085,2.1452,-0.49372,-13.265,48.267,2.8244,-0.94146,-1.1321,3.7659,-8.6042e-13,-0.56604,0,0,0.2,-9.4739e-16,0,0.66667
0.73823,0.60584,3.6911,0.15875,2.3194,12.32,-1.5626,0.52088,-1.9098,-2.0835,4.0581e-11,-0.95488,0,0,0.2,-0,-0,0.66667
0.19031,0.11985,0.95156,-0.57023,-18.179,85.648,1.447,-0.48232,-0.84423,1.9293,3.2602e-10,-0.42212,0,0,0.2,1.1842e-16,0,0.66667
0.98048,0.16187,4.9024,-0.50719,-0.49305,0.76187,6.6306,-2.2102,-1.0853,8.8407,1.6362e-07,-0.54266,0,0,0.2,-0,-0,0.66667
0.25094,0.1722,1.2547,-0.4917,-15.194,75.606,1.6452,-0.54839,-1.1407,2.1935,4.3479e-11,-0.57035,0,0,0.2,4.737e-16,0,0.66667
0.091928,0.4598,0.45964,-0.060295,-1.9579,102.27,0.073904,-0.024634,-1.9873,0.098538,3.8627e-08,-0.99367,0,0,0.2,-0,-0,0.66667
0.6622,0.95684,3.311,0.68526,12.759,19.96,-6.0505,2.0168,-0.32933,-8.0673,-4.3165e-13,-0.16466,0,0,0.2,-9.4739e-16,0,0.66667
0.12414,0.13506,0.62068,-0.54741,-17.817,96.815,0.90604,-0.30201,-0.93513,1.2081,7.9159e-09,-0.46757,0,0,0.2,2.3685e-16,2.3136e-16,0.66667
0.45854,0.48308,2.2927,-0.025377,-0.65326,43.879,0.15515,-0.051718,-1.9967,0.20687,9.7727e-14,-0.99833,0,0,0.2,-0,-0,0.66667
0.55491,0.83972,2.7746,0.50959,11.596,31.592,-3.7703,1.2568,-1.0764,-5.0271,-2.871e-13,-0.5382,0,0,0.2,-2.3685e-16,0,0.66667
0.91222,0.64111,4.5611,0.21167,1.0707,1.9593,-2.5745,0.85816,-1.8396,-3.4326,-7.2204e-09,-0.91979,0,0,0.2,-0,-0,0.66667
0.84078,0.79813,4.2039,0.44719,4.2007,5.5023,-5.0132,1.6711,-1.2885,-6.6842,1.1252e-09,-0.64426,0,0,0.2,9.4739e-16,0,0.66667
0.47647,0.52464,2.3824,0.036956,0.93069,41.418,-0.23478,0.078259,-1.9945,-0.31304,1.7146e-13,-0.99723,0,0,0.2,-0,-0,0.66667
0.8806,0.82029,4.403,0.48043,3.4307,3.5789,-5.6409,1.8803,-1.1787,-7.5213,5.1663e-09,-0.58933,0,0,0.2,-0,-0,0.66667
0.81353,0.16821,4.0677,-0.49769,-5.4476,7.2035,5.3985,-1.7995,-1.1197,7.198,-3.279e-10,-0.55984,0,0,0.2,-0,-0,0.66667
0.19464,0.39622,0.97319,-0.15566,-4.9053,84.796,0.40398,-0.13466,-1.9128,0.53864,2.4356e-10,-0.95642,0,0,0.2,-0,-0,0.66667
0.67245,0.58822,3.3622,0.13233,2.3417,18.276,-1.1865,0.3955,-1.9389,-1.582,4.2988e-13,-0.96947,0,0,0.2,-0,-0,0.66667
0.71923,0.41989,3.5961,-0.12017,-1.8653,13.921,1.1524,-0.38413,-1.9492,1.5365,-1.6261e-11,-0.97461,0,0,0.2,-0,-0,0.66667
0.65257,0.12506,3.2629,-0.56241,-10.62,20.707,4.8935,-1.6312,-0.87637,6.5247,1.7946e-12,-0.43818,0,0,0.2,-0,-0,0.66667
0.40566,0.80602,2.0283,0.45903,12.616,51.61,-2.4828,0.82759,-1.2519,-3.3104,1.3451e-12,-0.62595,0,0,0.2,-0,-0,0.66667
0.04361,0.98809,0.21805,0.73213,24.338,110.67,-0.42571,0.1419,-0.093717,-0.56762,-1.8007e-08,-0.046858,0,0,0.2,7.5668e-18,0,0.66667
0.37899,0.23112,1.895,-0.40332,-11.346,55.506,2.0381,-0.67936,-1.4209,2.7174,-2.371e-12,-0.71047,0,0,0.2,-0,-0,0.66667
0.033161,0.86161,0.16581,0.54241,17.91,112.46,-0.23983,0.079942,-0.95388,-0.31977,1.6165e-07,-0.47694,0,0,0.2,-0,-0,0.66667
0.2442,0.48693,1.221,-0.019599,-0.60292,76.573,0.063816,-0.021272,-1.9976,0.085088,3.6037e-12,-0.99878,0,0,0.2,-0,-0,0.66667
0.84278,0.47684,4.2139,-0.034735,-0.31523,5.0195,0.39033,-0.13011,-1.9964,0.52043,-6.6021e-10,-0.99821,0,0,0.2,-0,-0,0.66667
0.47471,0.64723,2.3736,0.22085,5.585,41.707,-1.3979,0.46595,-1.8258,-1.8638,2.135e-13,-0.91288,0,0,0.2,-4.737e-16,0,0.66667
0.19554,0.60545,0.97771,0.15817,4.9825,84.645,-0.41238,0.13746,-1.9099,-0.54984,-2.4797e-10,-0.95496,0,0,0.2,-0,-0,0.66667
0.93344,0.088897,4.6672,-0.61665,-2.5287,1.9823,7.6748,-2.5583,-0.64799,10.233,-3.402e-08,-0.32399,0,0,0.2,9.4739e-16,0,0.66667
0.17584,0.69495,0.87922,0.29243,9.3017,87.977,-0.68563,0.22854,-1.6957,-0.91418,-7.2052e-10,-0.84783,0,0,0.2,-0,-0,0.66667
0.71019,0.86153,3.5509,0.54229,8.8083,15.163,-5.1351,1.7117,-0.95319,-6.8468,2.5993e-12,-0.47659,0,0,0.2,-0,-0,0.66667
0.25216,0.30615,1.2608,-0.29077,-8.9319,75.32,0.9776,-0.32587,-1.6998,1.3035,7.6635e-11,-0.8499,0,0,0.2,2.3685e-16,0,0.66667
0.12576,0.67788,0.62878,0.26683,8.6176,96.475,-0.4474,0.14913,-1.7475,-0.59653,-1.0027e-09,-0.87376,0,0,0.2,1.1842e-16,0,0.66667
0.42352,0.61043,2.1176,0.16565,4.4394,48.854,-0.93542,0.31181,-1.9025,-1.2472,4.3049e-13,-0.95123,0,0,0.2,4.737e-16,0,0.66667
0.30687,0.21702,1.5344,-0.42447,-12.648,66.603,1.7368,-0.57892,-1.3597,2.3157,2.3468e-12,-0.67983,0,0,0.2,6.5133e-16,0,0.66667
0.55624,0.17689,2.7812,-0.48466,-10.992,31.4,3.5945,-1.1982,-1.1638,4.7926,6.3594e-13,-0.58191,0,0,0.2,-4.737e-16,0,0.66667
0.0056956,0.16886,0.028478,-0.49671,-16.394,117.21,0.037721,-0.012573,-1.1217,0.050295,2.2907e-07,-0.56086,0,0,0.2,-0,-0,0.66667
0.40187,0.72846,2.0094,0.34268,9.4198,52.079,-1.8362,0.61207,-1.5819,-2.4483,1.7314e-12,-0.79093,0,0,0.2,-0,-0,0.66667
0.32437,0.085679,1.6219,-0.62148,-18.423,64.009,2.6879,-0.89597,-0.62641,3.5839,-1.3489e-12,-0.3132,0,0,0.2,-0,-0,0.66667
0.20888,0.59186,1.0444,0.13778,4.3148,82.417,-0.38373,0.12791,-1.9327,-0.51164,-2.1477e-10,-0.96636,0,0,0.2,-2.9606e-16,0,0.66667
0.7647,0.14669,3.8235,-0.52996,-7.1806,10.648,5.4035,-1.8012,-1.002,7.2046,-6.9188e-11,-0.50099,0,0,0.2,-9.4739e-16,-3.1526e-16,0.66667
0.21573,0.59044,1.0786,0.13565,4.2349,81.278,-0.39019,0.13006,-1.9351,-0.52026,-2.045e-10,-0.96757,0,0,0.2,-3.5527e-16,0,0.66667
0.36723,0.19459,1.8361,-0.45811,-13.044,57.311,2.2431,-0.7477,-1.2531,2.9908,-2.3199e-12,-0.62653,0,0,0.2,-0,-0,0.66667
0.061462,0.39229,0.30731,-0.16157,-5.2755,107.53,0.13241,-0.044135,-1.9075,0.17654,1.7635e-08,-0.95374,0,0,0.2,-1.1842e-16,0,0.66667
0.79907,0.030563,3.9954,-0.70416,-8.436,8.5816,7.5023,-2.5008,-0.23839,10.003,2.424e-11,-0.1192,0,0,0.2,2.3685e-16,0,0.66667
0.85776,0.92974,4.2888,0.64461,5.5795,5.0116,-7.3723,2.4574,-0.52304,-9.8298,-1.0843e-09,-0.26152,0,0,0.2,-9.4739e-16,0,0.66667
0.979,0.76823,4.895,0.40235,0.39013,0.57388,-5.252,1.7507,-1.4234,-7.0026,-1.9401e-08,-0.71171,0,0,0.2,-1.8948e-15,0,0.66667
0.95064,0.52667,4.7532,0.040011,0.10514,0.75233,-0.50715,0.16905,-1.9949,-0.6762,-1.8024e-07,-0.99743,0,0,0.2,9.4739e-16,0,0.66667
0.48709,0.67411,2.4354,0.26117,6.5063,40.057,-1.6962,0.56539,-1.7571,-2.2615,8.7041e-14,-0.87857,0,0,0.2,-0,-0,0.66667
0.29631,0.18938,1.4816,-0.46594,-14.001,68.298,1.8408,-0.61362,-1.2299,2.4545,2.6099e-12,-0.61497,0,0,0.2,9.4739e-16,0,0.66667
0.69417,0.60314,3.4708,0.15471,2.5856,16.203,-1.4319,0.47731,-1.914,-1.9092,5.3405e-12,-0.95698,0,0,0.2,-0,-0,0.66667
0.72461,0.63265,3.623,0.19898,3.0423,13.494,-1.9224,0.64081,-1.8585,-2.5633,2.7213e-11,-0.92927,0,0,0.2,-0,-0,0.66667
0.86836,0.68137,4.3418,0.27205,2.0926,3.837,-3.1498,1.0499,-1.7363,-4.1997,1.565e-09,-0.86814,0,0,0.2,-0,-0,0.66667
0.20632,0.21398,1.0316,-0.42903,-13.524,82.918,1.1802,-0.39342,-1.3458,1.5737,3.0392e-10,-0.67291,0,0,0.2,-2.3685e-16,0,0.66667
0.39895,0.35357,1.9948,-0.21965,-6.0392,52.447,1.1684,-0.38947,-1.8275,1.5579,-1.8575e-12,-0.91373,0,0,0.2,-0,-0,0.66667
0.78884,0.11693,3.9442,-0.5746,-7.0963,8.9826,6.0436,-2.0145,-0.82523,8.0581,-1.4326e-10,-0.41262,0,0,0.2,-0,-0,0.66667
0.22269,0.9841,1.1134,0.72615,22.978,80.377,-2.156,0.71868,-0.12445,-2.8747,-8.7863e-13,-0.062224,0,0,0.2,-4.737e-16,0,0.66667
0.48218,0.71631,2.4109,0.32446,8.147,40.756,-2.086,0.69533,-1.6267,-2.7813,2.7978e-13,-0.81335,0,0,0.2,2.433e-17,0,0.66667
0.78097,0.98027,3.9048,0.7204,9.3349,9.8644,-7.5015,2.5005,-0.1555,-10.002,2.386e-11,-0.077749,0,0,0.2,-1.8948e-15,0,0.66667
0.60466,0.8741,3.0233,0.56114,11.722,25.84,-4.524,1.508,-0.88101,-6.032,-1.41e-12,-0.44051,0,0,0.2,1.6318e-16,0,0.66667
0.19904,0.019905,0.99521,-0.72014,-23.021,84.278,1.9112,-0.63706,-0.15541,2.5482,-1.3123e-10,-0.077707,0,0,0.2,-0,-0,0.66667
0.49234,0.79671,2.4617,0.44506,11.071,39.497,-2.9216,0.97387,-1.2945,-3.8955,5.1648e-13,-0.64724,0,0,0.2,-9.4739e-16,0,0.66667
0.98027,0.33228,4.9014,-0.25158,-0.19732,0.34202,3.2882,-1.0961,-1.7743,4.3842,-2.9722e-08,-0.88715,0,0,0.2,-9.4739e-16,0,0.66667
0.19192,0.006661,0.95958,-0.74001,-23.747,85.475,1.8936,-0.6312,-0.052632,2.5248,-5.4673e-11,-0.026316,0,0,0.2,-9.4739e-16,0,0.66667
0.24271,0.98931,1.2135,0.73397,23.006,77.109,-2.3752,0.79173,-0.083522,-3.1669,-1.3245e-11,-0.041761,0,0,0.2,-0,-0,0.66667
0.41545,0.075015,2.0773,-0.63748,-17.478,50.368,3.5312,-1.1771,-0.55399,4.7083,-4.4387e-13,-0.27699,0,0,0.2,-0,-0,0.66667
0.79504,0.88159,3.9752,0.57238,6.88,8.5535,-6.0676,2.0225,-0.83564,-8.0901,6.74e-11,-0.41782,0,0,0.2,-1.8948e-15,0,0.66667
0.85992,0.20208,4.2996,-0.44688,-3.7127,4.4914,5.1237,-1.7079,-1.2905,6.8316,-2.025e-09,-0.64524,0,0,0.2,1.8948e-15,0,0.66667
0.76878,0.93642,3.8439,0.65463,8.8332,10.593,-6.7103,2.2368,-0.47724,-8.9471,6.2599e-12,-0.23862,0,0,0.2,1.1842e-16,0,0.66667
0.42266,0.42529,2.1133,-0.11206,-3.0043,48.964,0.63153,-0.21051,-1.9558,0.84204,-1.1782e-12,-0.97791,0,0,0.2,4.737e-16,0,0.66667
0.26259,0.41026,1.313,-0.1346,-4.1014,73.585,0.47128,-0.15709,-1.936,0.62838,3.2803e-11,-0.96802,0,0,0.2,-0,-0,0.66667
0.59111,0.54918,2.9555,0.073766,1.5571,26.971,-0.58138,0.19379,-1.9803,-0.77518,-5.983e-13,-0.99017,0,0,0.2,-0,-0,0.66667
0.55633,0.69535,2.7816,0.29302,6.5995,31.205,-2.1735,0.72451,-1.694,-2.898,-6.6169e-13,-0.84699,0,0,0.2,-0,-0,0.66667
0.32302,0.30077,1.6151,-0.29885,-8.7757,64.006,1.2871,-0.42904,-1.6815,1.7162,6.2395e-14,-0.84077,0,0,0.2,9.1164e-17,0,0.66667
0.2448,0.59919,1.224,0.14879,4.5789,76.487,-0.48565,0.16188,-1.921,-0.64753,-7.7257e-11,-0.9605,0,0,0.2,-0,-0,0.66667
0.62917,0.66007,3.1459,0.2401,4.7095,22.793,-2.0142,0.6714,-1.7952,-2.6856,-2.1556e-12,-0.8976,0,0,0.2,-1.8948e-15,0,0.66667
0.36144,0.13262,1.8072,-0.55107,-15.821,58.261,2.6557,-0.88524,-0.92056,3.541,-1.3489e-12,-0.46028,0,0,0.2,-0,-0,0.66667
0.44656,0.0040602,2.2328,-0.74391,-19.845,46.101,4.4293,-1.4764,-0.03209,5.9058,-3.6282e-13,-0.016045,0,0,0.2,-0,-0,0.66667
0.42369,0.47054,2.1184,-0.044197,-1.1831,48.806,0.24968,-0.083226,-1.9943,0.3329,-3.7917e-13,-0.99717,0,0,0.2,-0,-0,0.66667
0.60498,0.78444,3.0249,0.42666,8.8484,25.625,-3.4417,1.1472,-1.353,-4.5889,-2.216e-12,-0.67648,0,0,0.2,-0,-0,0.66667
0.067117,0.11203,0.33558,-0.58195,-19.176,106.6,0.52078,-0.17359,-0.79498,0.69438,8.2381e-08,-0.39749,0,0,0.2,1.1842e-16,0,0.66667
0.46478,0.8614,2.3239,0.5421,14.015,43.32,-3.3595,1.1198,-0.95439,-4.4793,-1.7231e-13,-0.4772,0,0,0.2,9.4739e-16,0,0.66667
0.93632,0.049022,4.6816,-0.67647,-2.7069,2.0648,8.4452,-2.8151,-0.3732,11.26,2.1587e-08,-0.1866,0,0,0.2,-0,-0,0.66667
0.14808,0.36654,0.74042,-0.20019,-6.4182,92.658,0.39527,-0.13176,-1.8566,0.52702,1.3201e-10,-0.92831,0,0,0.2,1.1842e-16,0,0.66667
0.88159,0.62735,4.4079,0.19102,1.3144,3.1548,-2.2453,0.74845,-1.8703,-2.9938,-4.6211e-09,-0.93515,0,0,0.2,-0,-0,0.66667
0.19859,0.79705,0.99296,0.44558,14.099,84.212,-1.1798,0.39328,-1.2932,-1.5731,-3.2114e-10,-0.64659,0,0,0.2,-0,-0,0.66667
0.48283,0.46615,2.4141,-0.050771,-1.2683,40.559,0.32685,-0.10895,-1.9921,0.4358,-8.2073e-13,-0.99604,0,0,0.2,9.4739e-16,0,0.66667
0.49097,0.46971,2.4548,-0.045434,-1.123,39.466,0.29742,-0.09914,-1.993,0.39656,-4.2572e-13,-0.99648,0,0,0.2,-0,-0,0.66667
0.2348,0.76103,1.174,0.39155,12.166,78.197,-1.2258,0.40861,-1.4556,-1.6344,-1.217e-10,-0.7278,0,0,0.2,-0,-0,0.66667
0.59658,0.98386,2.9829,0.72579,15.556,27.033,-5.7733,1.9244,-0.1266,-7.6977,-1.8252e-13,-0.063302,0,0,0.2,-0,-0,0.66667
0.83706,0.94017,4.1853,0.66025,6.5011,6.1497,-7.3689,2.4563,-0.45,-9.8252,-4.9794e-10,-0.225,0,0,0.2,-0,-0,0.66667
0.24277,0.73399,1.2139,0.35099,10.85,76.874,-1.1361,0.37871,-1.5607,-1.5148,-1.035e-10,-0.78037,0,0,0.2,-0,-0,0.66667
0.50573,0.24703,2.5286,-0.37945,-9.2488,37.672,2.5586,-0.85288,-1.4881,3.4115,1.3278e-13,-0.74404,0,0,0.2,-2.3685e-16,0,0.66667
0.46839,0.64587,2.342,0.21881,5.5766,42.57,-1.3665,0.4555,-1.8306,-1.822,2.8766e-13,-0.91529,0,0,0.2,-4.737e-16,0,0.66667
0.8049,0.69937,4.0245,0.29906,3.3635,7.4732,-3.2095,1.0698,-1.6809,-4.2793,4.8817e-10,-0.84043,0,0,0.2,-0,-0,0.66667
0.48547,0.79099,2.4273,0.43648,10.952,40.407,-2.8253,0.94177,-1.3231,-3.7671,4.2921e-13,-0.66155,0,0,0.2,-0,-0,0.66667
0.047994,0.56902,0.23997,0.10353,3.3838,109.86,-0.066251,0.022084,-1.9627,-0.088335,-1.0247e-07,-0.98136,0,0,0.2,-0,-0,0.66667
0.29891,0.054888,1.4945,-0.66767,-20.186,68.039,2.661,-0.88698,-0.41532,3.5479,-1.1404e-12,-0.20766,0,0,0.2,-4.737e-16,0,0.66667
0.72163,0.78061,3.6082,0.42092,6.5559,13.972,-4.05,1.35,-1.3712,-5.4,1.6775e-11,-0.68559,0,0,0.2,-1.1842e-15,0,0.66667
0.54076,0.55602,2.7038,0.084023,1.9334,33.031,-0.60582,0.20194,-1.9743,-0.80776,-3.7792e-13,-0.98717,0,0,0.2,-4.737e-16,0,0.66667
0.71301,0.79379,3.5651,0.44069,7.0533,14.754,-4.1896,1.3965,-1.3084,-5.5861,9.7065e-12,-0.65422,0,0,0.2,-0,-0,0.66667
0.89043,0.44086,4.4521,-0.088714,-0.56153,2.7197,1.0532,-0.35108,-1.9738,1.4043,-1.5206e-08,-0.98688,0,0,0.2,-1.8948e-15,0,0.66667
0.036948,0.26201,0.18474,-0.35698,-11.722,111.79,0.17586,-0.058621,-1.5459,0.23448,-2.1904e-08,-0.77294,0,0,0.2,-5.9212e-17,0,0.66667
0.16157,0.6831,0.80787,0.27465,8.7774,90.382,-0.59169,0.19723,-1.7316,-0.78893,-1.0042e-09,-0.86581,0,0,0.2,-2.9606e-16,0,0.66667
0.20618,0.93382,1.0309,0.65073,20.675,83.051,-1.7889,0.5963,-0.49492,-2.3852,-3.3457e-11,-0.24746,0,0,0.2,2.9606e-16,0,0.66667
0.54819,0.36489,2.741,-0.20266,-4.6157,32.148,1.4813,-0.49377,-1.8543,1.9751,5.5222e-13,-0.92717,0,0,0.2,-0,-0,0.66667
0.6875,0.13204,3.4375,-0.55194,-9.5546,17.26,5.0595,-1.6865,-0.91813,6.746,1.3722e-12,-0.45907,0,0,0.2,-0,-0,0.66667
0.34233,0.21535,1.7117,-0.42697,-12.396,61.082,1.9489,-0.64963,-1.353,2.5985,-2.6652e-12,-0.67648,0,0,0.2,5.9212e-16,0,0.66667
0.8698,0.73147,4.349,0.3472,2.6583,3.8579,-4.0266,1.3422,-1.5704,-5.3688,1.9586e-09,-0.78521,0,0,0.2,-0,-0,0.66667
0.8792,0.14304,4.396,-0.53544,-3.8985,3.7501,6.2767,-2.0922,-0.97988,8.369,-5.148e-09,-0.48994,0,0,0.2,-0,-0,0.66667
0.19012,0.73826,0.95061,0.35738,11.321,85.596,-0.90595,0.30198,-1.5456,-1.2079,-5.2968e-10,-0.77282,0,0,0.2,-0,-0,0.66667
0.53183,0.077815,2.6591,-0.63328,-15.033,34.62,4.4906,-1.4969,-0.57458,5.9874,3.8192e-13,-0.28729,0,0,0.2,-9.4739e-16,0,0.66667
0.98953,0.23623,4.9477,-0.39565,-0.10809,0.43656,5.2201,-1.74,-1.4424,6.9602,-3.8947e-08,-0.72121,0,0,0.2,-1.1718e-15,0,0.66667
0.057573,0.18054,0.28786,-0.4792,-15.755,108.23,0.36785,-0.12262,-1.1831,0.49046,2.8701e-09,-0.59155,0,0,0.2,-5.9212e-17,0,0.66667
0.083431,0.12343,0.41715,-0.56485,-18.555,103.79,0.62835,-0.20945,-0.86592,0.8378,3.779e-08,-0.43296,0,0,0.2,1.6283e-16,0,0.66667
0.41763,0.37178,2.0881,-0.19233,-5.188,49.712,1.071,-0.35699,-1.8687,1.428,-1.0201e-12,-0.93437,0,0,0.2,-5.9212e-16,0,0.66667
0.85461,0.86451,4.2731,0.54677,4.7649,4.9498,-6.2303,2.0768,-0.9363,-8.3071,2.3796e-09,-0.46815,0,0,0.2,-0,-0,0.66667
0.39859,0.87339,1.9929,0.56008,15.559,52.736,-2.9766,0.99219,-0.88477,-3.9688,1.5012e-12,-0.44239,0,0,0.2,-5.9212e-17,0,0.66667
0.0099489,0.23513,0.049744,-0.3973,-13.075,116.47,0.052703,-0.017568,-1.4377,0.070271,4.2519e-08,-0.71883,0,0,0.2,-1.1782e-17,0,0.66667
0.64554,0.83317,3.2277,0.49976,9.5545,21.335,-4.3016,1.4339,-1.1112,-5.7354,-2.3896e-12,-0.55559,0,0,0.2,-0,-0,0.66667
0.2938,0.61627,1.469,0.1744,5.2154,68.575,-0.6832,0.22773,-1.8917,-0.91093,-1.1693e-11,-0.94584,0,0,0.2,2.3685e-16,0,0.66667
0.14993,0.39599,0.74965,-0.15601,-4.9963,92.339,0.31187,-0.10396,-1.9125,0.41583,1.5514e-09,-0.95625,0,0,0.2,1.1842e-16,0,0.66667
0.10779,0.76584,0.53893,0.39876,12.971,99.574,-0.57307,0.19102,-1.4347,-0.76409,-4.483e-09,-0.71734,0,0,0.2,-2.3685e-16,0,0.66667
0.8689,0.90366,4.3445,0.60549,4.8222,4.376,-7.0148,2.3383,-0.6965,-9.3531,7.8028e-09,-0.34825,0,0,0.2,2.0398e-17,0,0.66667
0.0032652,0.16902,0.016326,-0.49647,-16.386,117.63,0.021615,-0.0072047,-1.1231,0.02882,2.7676e-07,-0.56156,0,0,0.2,-0,-0,0.66667
0.51859,0.51887,2.5929,0.028305,0.67328,35.839,-0.19571,0.065238,-1.9968,-0.26095,1.6269e-13,-0.99838,0,0,0.2,-0,-0,0.66667
0.55082,0.56016,2.7541,0.090235,2.0434,31.784,-0.66271,0.2209,-1.9715,-0.88361,-6.5298e-13,-0.98577,0,0,0.2,-0,-0,0.66667
0.11595,0.8304,0.57975,0.4956,16.135,98.198,-0.7662,0.2554,-1.1255,-1.0216,-1.2914e-09,-0.56276,0,0,0.2,-1.1842e-16,0,0.66667
0.20004,0.71909,1.0002,0.32864,10.361,83.93,-0.87654,0.29218,-1.6171,-1.1687,-4.0625e-10,-0.80856,0,0,0.2,4.737e-16,0,0.66667
0.86222,0.77056,4.3111,0.40584,3.3035,4.31,-4.6656,1.5552,-1.4141,-6.2208,2.7781e-09,-0.70707,0,0,0.2,-9.4739e-16,0,0.66667
0.11697,0.99245,0.58486,0.73867,24.273,98.101,-1.1521,0.38402,-0.059176,-1.5361,-1.6699e-08,-0.029588,0,0,0.2,-3.5527e-16,0,0.66667
0.8247,0.20683,4.1235,-0.43975,-4.5203,6.4183,4.8355,-1.6118,-1.3119,6.4474,-8.2308e-10,-0.65596,0,0,0.2,-0,-0,0.66667
0.19309,0.65675,0.96545,0.23513,7.4217,85.069,-0.60534,0.20178,-1.804,-0.80712,-3.9565e-10,-0.90198,0,0,0.2,-0,-0,0.66667
0.99555,0.84449,4.9777,0.51673,-0.0052497,0.62557,-6.8591,2.2864,-1.0513,-9.1454,2.8014e-07,-0.52565,0,0,0.2,-0,2.1821e-17,0.66667
0.47141,0.5506,2.3571,0.075894,1.9238,42.113,-0.47703,0.15901,-1.9793,-0.63604,-6.0091e-14,-0.98963,0,0,0.2,-0,-0,0.66667
0.54727,0.051508,2.7364,-0.67274,-15.632,32.763,4.9089,-1.6363,-0.39158,6.5452,2.0961e-13,-0.19579,0,0,0.2,-4.737e-16,0,0.66667
0.082274,0.82521,0.41137,0.48782,15.986,103.97,-0.53513,0.17838,-1.1531,-0.71351,-4.9953e-09,-0.57657,0,0,0.2,-0,-0,0.66667
0.051293,0.18006,0.25647,-0.47992,-15.79,109.32,0.32822,-0.10941,-1.1807,0.43763,-2.2456e-08,-0.59035,0,0,0.2,2.9606e-17,0,0.66667
0.20742,0.92561,1.0371,0.63842,20.262,82.838,-1.7656,0.58855,-0.55009,-2.3542,-4.8229e-11,-0.27505,0,0,0.2,-2.3685e-16,0,0.66667
0.16079,0.48158,0.80394,-0.027637,-0.88133,90.489,0.059251,-0.01975,-1.9964,0.079001,2.267e-10,-0.99822,0,0,0.2,-0,-0,0.66667
0.45106,0.29321,2.2553,-0.31018,-8.0857,45.017,1.8655,-0.62182,-1.6579,2.4873,-1.0409e-12,-0.82893,0,0,0.2,-0,-0,0.66667
0.62995,0.83047,3.1497,0.49571,9.8036,22.973,-4.1636,1.3879,-1.1254,-5.5515,-2.2928e-12,-0.56269,0,0,0.2,-0,-0,0.66667
0.72633,0.68441,3.6316,0.27661,4.2168,13.406,-2.6788,0.89294,-1.7278,-3.5718,3.2532e-11,-0.8639,0,0,0.2,1.1842e-15,0,0.66667
0.45605,0.7094,2.2802,0.3141,8.1414,44.325,-1.9099,0.63665,-1.649,-2.5466,2.4625e-13,-0.82452,0,0,0.2,4.737e-16,0,0.66667
0.37693,0.88298,1.8847,0.57448,16.29,55.954,-2.8872,0.96239,-0.8269,-3.8495,1.0378e-12,-0.41345,0,0,0.2,-0,-0,0.66667
0.064415,0.017369,0.32207,-0.72395,-24.003,107.09,0.62177,-0.20726,-0.13647,0.82903,-2.7955e-07,-0.068236,0,0,0.2,-0,-0,0.66667
0.53834,0.38627,2.6917,-0.17059,-3.9441,33.361,1.2245,-0.40816,-1.8954,1.6326,4.4797e-13,-0.94772,0,0,0.2,-0,-0,0.66667
0.45104,0.69432,2.2552,0.29148,7.5951,45.01,-1.7529,0.5843,-1.6983,-2.3372,7.5795e-13,-0.84915,0,0,0.2,-9.4739e-16,0,0.66667
0.40236,0.24368,2.0118,-0.38448,-10.576,52.036,2.0627,-0.68755,-1.4743,2.7502,-2.2158e-12,-0.73713,0,0,0.2,7.1194e-16,0,0.66667
0.073837,0.21207,0.36919,-0.43189,-14.15,105.42,0.4252,-0.14173,-1.3365,0.56693,6.1831e-09,-0.66825,0,0,0.2,-5.9212e-17,0,0.66667
0.19382,0.35916,0.96908,-0.21126,-6.6642,84.943,0.54595,-0.18198,-1.8401,0.72793,4.1765e-10,-0.92007,0,0,0.2,-2.3685e-16,0,0.66667
0.60843,0.69692,3.0422,0.29538,6.0556,25.11,-2.3963,0.79876,-1.6904,-3.195,-2.0937e-12,-0.84518,0,0,0.2,-0,-0,0.66667
0.91508,0.77214,4.5754,0.40821,2.0452,2.1081,-4.9806,1.6602,-1.4066,-6.6408,9.5248e-10,-0.7033,0,0,0.2,9.4739e-16,0,0.66667
0.63152,0.47343,3.1576,-0.039862,-0.77563,22.462,0.33565,-0.11188,-1.994,0.44753,3.5061e-13,-0.997,0,0,0.2,-0,-0,0.66667
0.57768,0.17616,2.8884,-0.48577,-10.624,28.836,3.7415,-1.2472,-1.1617,4.9887,7.5451e-13,-0.58085,0,0,0.2,9.4739e-16,-3.1208e-17,0.66667
0.34238,0.69081,1.7119,0.28622,8.2796,60.998,-1.3066,0.43554,-1.7099,-1.7422,1.9058e-12,-0.85496,0,0,0.2,-0,-0,0.66667
0.13547,0.12426,0.67736,-0.56361,-18.299,94.89,1.018,-0.33935,-0.8711,1.3574,-6.139e-09,-0.43555,0,0,0.2,-3.2567e-16,0,0.66667
0.50839,0.27324,2.5419,-0.34014,-8.25,37.293,2.3056,-0.76854,-1.5878,3.0742,6.3327e-13,-0.7939,0,0,0.2,-4.737e-16,0,0.66667
0.64626,0.39138,3.2313,-0.16293,-3.0721,20.94,1.4039,-0.46798,-1.9045,1.8719,1.4734e-12,-0.95226,0,0,0.2,-0,-0,0.66667
0.96752,0.81559,4.8376,0.47339,0.84238,0.88588,-6.1068,2.0356,-1.2045,-8.1424,-5.8194e-08,-0.60225,0,0,0.2,-0,-0,0.66667
0.76195,0.85486,3.8098,0.53229,7.2878,10.861,-5.4077,1.8026,-0.99206,-7.2103,5.5116e-11,-0.49603,0,0,0.2,-0,-0,0.66667
0.183,0.64412,0.91499,0.21618,6.8491,86.758,-0.52748,0.17583,-1.833,-0.7033,-5.2252e-10,-0.91652,0,0,0.2,2.3685e-16,0,0.66667
0.23966,0.22336,1.1983,-0.41496,-12.869,77.41,1.326,-0.442,-1.3876,1.768,9.3142e-11,-0.69379,0,0,0.2,-0,-0,0.66667
0.95701,0.3396,4.785,-0.2406,-0.54889,0.73132,3.07,-1.0233,-1.7944,4.0934,3.0234e-08,-0.89718,0,0,0.2,4.737e-16,0,0.66667
0.758,0.23111,3.79,-0.40333,-5.5525,10.962,4.0764,-1.3588,-1.4204,5.4352,-8.7945e-11,-0.71021,0,0,0.2,-0,-0,0.66667
0.19292,0.84703,0.9646,0.52055,16.548,85.19,-1.339,0.44633,-1.0366,-1.7853,-3.5998e-10,-0.51828,0,0,0.2,-0,-0,0.66667
0.70195,0.38441,3.5098,-0.17338,-2.836,15.493,1.6227,-0.54092,-1.8936,2.1637,-9.5136e-12,-0.9468,0,0,0.2,1.8948e-15,0,0.66667
0.83347,0.60193,4.1674,0.15289,1.4705,5.5881,-1.699,0.56635,-1.9162,-2.2654,2.5794e-11,-0.95812,0,0,0.2,-0,-0,0.66667
0.43625,0.13515,2.1813,-0.54728,-14.621,47.299,3.1833,-1.0611,-0.93547,4.2444,-6.4282e-13,-0.46773,0,0,0.2,-0,-0,0.66667
0.0094767,0.45364,0.047384,-0.069545,-2.2777,116.55,0.0087879,-0.0029301,-1.9816,0.011717,-1.1614e-06,-0.99082,0,0,0.2,-0,-0,0.66667
0.66811,0.47907,3.3406,-0.031388,-0.56097,18.68,0.27961,-0.093204,-1.996,0.37281,-4.0556e-13,-0.998,0,0,0.2,1.8948e-15,0,0.66667
0.069735,0.47072,0.34868,-0.043927,-1.4316,106.1,0.040844,-0.013615,-1.9932,0.054458,-1.2711e-07,-0.9966,0,0,0.2,-0,-0,0.66667
0.2378,0.35642,1.189,-0.21538,-6.6579,77.648,0.68289,-0.22763,-1.8345,0.91052,1.1263e-10,-0.91726,0,0,0.2,-0,-0,0.66667
0.097031,0.025205,0.48515,-0.71219,-23.475,101.5,0.9214,-0.30713,-0.19664,1.2285,-3.08e-08,-0.098319,0,0,0.2,-1.1842e-16,0,0.66667
0.87047,0.11661,4.3523,-0.57508,-4.5062,4.2329,6.6746,-2.2249,-0.82358,8.8994,-2.9856e-09,-0.41179,0,0,0.2,9.4739e-16,0,0.66667
0.83404,0.4647,4.1702,-0.05295,-0.50649,5.5174,0.58883,-0.19628,-1.9898,0.78511,6.3628e-10,-0.99492,0,0,0.2,4.9385e-16,0,0.66667
0.23516,0.93252,1.1758,0.64878,20.335,78.278,-2.0342,0.67808,-0.50459,-2.7123,-9.8863e-12,-0.2523,0,0,0.2,-1.1842e-16,0,0.66667
0.75438,0.78506,3.7719,0.4276,5.9734,11.278,-4.301,1.4337,-1.35,-5.7346,6.733e-11,-0.67501,0,0,0.2,-0,-0,0.66667
0.50836,0.37029,2.5418,-0.19457,-4.7037,37.208,1.3188,-0.43961,-1.865,1.7584,8.8596e-14,-0.9325,0,0,0.2,-0,-0,0.66667
0.42116,0.14188,2.1058,-0.53718,-14.577,49.439,3.0165,-1.0055,-0.97446,4.0219,-1.1291e-12,-0.48723,0,0,0.2,-0,-3.0444e-16,0.66667
0.21872,0.14525,1.0936,-0.53212,-16.735,80.911,1.5518,-0.51727,-0.99415,2.0691,8.5691e-11,-0.49708,0,0,0.2,2.3685e-16,3.1555e-16,0.66667
0.22166,0.93891,1.1083,0.65837,20.779,80.5,-1.9458,0.64859,-0.4598,-2.5944,-1.5723e-11,-0.2299,0,0,0.2,9.4739e-16,0,0.66667
0.090802,0.76097,0.45401,0.39146,12.775,102.49,-0.47393,0.15798,-1.4548,-0.63191,-3.2854e-09,-0.72742,0,0,0.2,-0,-0,0.66667
0.24882,0.026728,1.2441,-0.70991,-22.156,76.097,2.3552,-0.78506,-0.20919,3.1402,-3.8411e-12,-0.10459,0,0,0.2,2.3685e-16,1.1726e-16,0.66667
0.58965,0.62878,2.9483,0.19316,4.0949,27.181,-1.5187,0.50622,-1.8675,-2.0249,-1.4998e-12,-0.93376,0,0,0.2,-0,-0,0.66667
0.88221,0.63154,4.4111,0.19731,1.351,3.1321,-2.321,0.77365,-1.8609,-3.0946,-3.3417e-09,-0.93046,0,0,0.2,-0,-0,0.66667
0.15505,0.93265,0.77524,0.64898,21.017,91.607,-1.3416,0.44721,-0.50353,-1.7888,-2.4274e-09,-0.25176,0,0,0.2,3.8787e-16,0,0.66667
0.26188,0.66923,1.3094,0.25385,7.7503,73.728,-0.88638,0.29546,-1.7702,-1.1818,-5.0904e-11,-0.88512,0,0,0.2,-0,-0,0.66667
0.63358,0.49126,3.1679,-0.01311,-0.25393,22.24,0.11075,-0.036917,-1.9985,0.14767,5.9265e-14,-0.99925,0,0,0.2,-1.4211e-15,0,0.66667
0.1012,0.7394,0.50598,0.35909,11.686,100.7,-0.48452,0.16151,-1.5404,-0.64603,-1.9604e-09,-0.77022,0,0,0.2,1.1842e-16,0,0.66667
0.51534,0.57134,2.5767,0.10701,2.5584,36.27,-0.73526,0.24509,-1.9603,-0.98034,5.59e-14,-0.98013,0,0,0.2,-9.4739e-16,0,0.66667
0.44685,0.77241,2.2343,0.40861,10.733,45.676,-2.4345,0.8115,-1.4055,-3.246,2.9643e-13,-0.70276,0,0,0.2,-0,-0,0.66667
0.050434,0.58372,0.25217,0.12559,4.1044,109.44,-0.084452,0.028151,-1.9435,-0.1126,4.4462e-08,-0.97175,0,0,0.2,-0,-0,0.66667
0.76578,0.93336,3.8289,0.65005,8.8674,10.808,-6.6372,2.2124,-0.4992,-8.8496,9.5097e-12,-0.2496,0,0,0.2,-0,-0,0.66667
0.095195,0.17618,0.47598,-0.48573,-15.88,101.75,0.61652,-0.20551,-1.1614,0.82203,1.1231e-08,-0.58068,0,0,0.2,-0,-0,0.66667
0.33837,0.15823,1.6919,-0.51265,-14.973,61.752,2.3129,-0.77096,-1.0658,3.0838,-2.4416e-12,-0.53291,0,0,0.2,-0,-0,0.66667
0.57897,0.89137,2.8948,0.58705,12.876,28.824,-4.5318,1.5106,-0.77501,-6.0424,-3.153e-13,-0.38751,0,0,0.2,-9.4739e-16,0,0.66667
0.85085,0.17392,4.2543,-0.48912,-4.3368,5.0319,5.549,-1.8497,-1.1482,7.3986,-1.1503e-09,-0.57408,0,0,0.2,-0,-0,0.66667
0.26085,0.13156,1.3043,-0.55266,-17.021,74.034,1.9222,-0.64073,-0.91364,2.5629,1.2894e-11,-0.45682,0,0,0.2,-0,-0,0.66667
0.81028,0.34521,4.0514,-0.23218,-2.5356,7.0604,2.5084,-0.83615,-1.8095,3.3446,-5.1068e-10,-0.90476,0,0,0.2,1.8948e-15,0,0.66667
0.43666,0.88637,2.1833,0.57956,15.499,47.276,-3.3743,1.1248,-0.80622,-4.4991,5.187e-13,-0.40311,0,0,0.2,-9.4739e-16,0,0.66667
0.82762,0.9403,4.1381,0.66046,6.8494,6.6913,-7.2881,2.4294,-0.45074,-9.7174,-4.1952e-10,-0.22537,0,0,0.2,-1.8948e-15,-7.7384e-17,0.66667
0.92159,0.2574,4.608,-0.36391,-1.6653,1.8245,4.4717,-1.4906,-1.5303,5.9622,9.532e-10,-0.76513,0,0,0.2,-0,-0,0.66667
0.4382,0.095884,2.191,-0.60617,-16.203,47.089,3.5417,-1.1806,-0.69523,4.7223,-6.6791e-13,-0.34762,0,0,0.2,-0,-0,0.66667
0.26206,0.77643,1.3103,0.41464,12.704,73.762,-1.4488,0.48293,-1.3889,-1.9317,-4.2965e-11,-0.69444,0,0,0.2,-0,-0,0.66667
0.46144,0.92486,2.3072,0.63729,16.617,43.894,-3.921,1.307,-0.55475,-5.228,-1.239e-13,-0.27738,0,0,0.2,4.737e-16,0,0.66667
0.094812,0.0021036,0.47406,-0.74684,-24.667,101.89,0.94413,-0.31471,-0.018345,1.2588,3.3225e-08,-0.0091724,0,0,0.2,-0,-0,0.66667
0.65878,0.3059,3.2939,-0.29115,-5.3489,19.739,2.5574,-0.85246,-1.6989,3.4098,2.2036e-12,-0.84943,0,0,0.2,-4.737e-16,0,0.66667
0.63235,0.068554,3.1617,-0.64717,-12.85,22.96,5.4565,-1.8188,-0.51023,7.2753,8.5176e-13,-0.25512,0,0,0.2,-0,-0,0.66667
0.4968,0.75362,2.484,0.38042,9.3862,38.847,-2.5199,0.83998,-1.4859,-3.3599,1.712e-13,-0.74295,0,0,0.2,-0,-0,0.66667
0.47016,0.6291,2.3508,0.19365,4.9228,42.318,-1.214,0.40466,-1.8677,-1.6186,6.7724e-14,-0.93385,0,0,0.2,-0,-0,0.66667
0.12851,0.39432,0.64253,-0.15852,-5.1084,95.991,0.27161,-0.090537,-1.9101,0.36215,-9.6079e-11,-0.95506,0,0,0.2,-1.1842e-16,0,0.66667
0.33439,0.65505,1.6719,0.23257,6.7629,62.212,-1.0369,0.34564,-1.808,-1.3826,1.4123e-12,-0.90398,0,0,0.2,6.5133e-16,0,0.66667
0.2686,0.044112,1.343,-0.68383,-21.083,72.881,2.449,-0.81633,-0.33691,3.2653,1.7444e-12,-0.16846,0,0,0.2,-0,-0,0.66667
0.53581,0.33024,2.679,-0.25463,-5.9196,33.721,1.8191,-0.60638,-1.7686,2.4255,5.4345e-13,-0.8843,0,0,0.2,-0,-0,0.66667
0.41981,0.20545,2.099,-0.44183,-11.964,49.545,2.4731,-0.82437,-1.3058,3.2975,-1.5574e-12,-0.6529,0,0,0.2,-4.737e-16,0,0.66667
0.83603,0.20952,4.1802,-0.43572,-4.2041,5.7501,4.857,-1.619,-1.324,6.4761,-1.0818e-09,-0.662,0,0,0.2,-0,-0,0.66667
0.70121,0.67707,3.506,0.26561,4.3649,15.624,-2.4833,0.82777,-1.7493,-3.3111,9.684e-12,-0.87463,0,0,0.2,-9.4739e-16,0,0.66667
0.4959,0.20641,2.4795,-0.44038,-10.901,39.021,2.9118,-0.9706,-1.3097,3.8824,-1.6298e-13,-0.65487,0,0,0.2,-0,-0,0.66667
0.59952,0.74057,2.9976,0.36086,7.5435,26.172,-2.8846,0.96153,-1.5362,-3.8461,-2.0368e-12,-0.76808,0,0,0.2,9.4739e-16,0,0.66667
0.39672,0.19321,1.9836,-0.46018,-12.758,52.92,2.4341,-0.81138,-1.2466,3.2455,-1.5716e-12,-0.6233,0,0,0.2,-9.4739e-16,0,0.66667
0.21745,0.25738,1.0873,-0.36393,-11.395,81.048,1.0551,-0.35172,-1.5297,1.4069,2.4358e-10,-0.76487,0,0,0.2,-0,-0,0.66667
0.74224,0.067516,3.7112,-0.64873,-9.6158,12.642,6.4201,-2.14,-0.5032,8.5602,-2.6712e-12,-0.2516,0,0,0.2,-0,-0,0.66667
0.92264,0.03978,4.6132,-0.69033,-3.3611,2.4968,8.4923,-2.8308,-0.30634,11.323,-3.4568e-07,-0.15317,0,0,0.2,-0,-0,0.66667
0.26129,0.86916,1.3064,0.55373,17.051,73.965,-1.9291,0.64304,-0.90961,-2.5721,-1.2485e-11,-0.45481,0,0,0.2,5.9212e-16,0,0.66667
0.63229,0.85857,3.1615,0.53785,10.608,22.784,-4.5344,1.5115,-0.97021,-6.0458,-1.6875e-12,-0.48511,0,0,0.2,-9.4739e-16,0,0.66667
0.70958,0.56351,3.5479,0.095258,1.5218,14.768,-0.90124,0.30041,-1.968,-1.2017,8.9681e-12,-0.98402,0,0,0.2,-0,-0,0.66667
0.73708,0.73766,3.6854,0.35649,5.2661,12.582,-3.5035,1.1678,-1.5478,-4.6713,4.5564e-11,-0.77392,0,0,0.2,9.4739e-16,0,0.66667
0.27022,0.14358,1.3511,-0.53463,-16.366,72.512,1.9262,-0.64207,-0.98289,2.5683,1.1672e-11,-0.49144,0,0,0.2,-0,-0,0.66667
0.10234,0.55983,0.51172,0.089748,2.9087,100.47,-0.12247,0.040823,-1.9713,-0.16329,-2.1699e-08,-0.98565,0,0,0.2,5.9212e-17,0,0.66667
0.71856,0.61273,3.5928,0.16909,2.6326,14.003,-1.62,0.54001,-1.8991,-2.16,1.9701e-11,-0.94955,0,0,0.2,9.6449e-17,0,0.66667
0.44319,0.60296,2.216,0.15443,4.0504,46.049,-0.91259,0.3042,-1.9144,-1.2168,5.6638e-13,-0.9572,0,0,0.2,9.4739e-16,0,0.66667
0.6827,0.5378,3.4135,0.056698,0.97618,17.257,-0.51611,0.17204,-1.9882,-0.68814,1.0205e-12,-0.9941,0,0,0.2,-0,-0,0.66667
0.058429,0.079962,0.29215,-0.63006,-20.822,108.1,0.49085,-0.16362,-0.58779,0.65447,1.4668e-07,-0.29389,0,0,0.2,-0,4.6106e-17,0.66667
0.65428,0.65854,3.2714,0.23781,4.4089,20.156,-2.0746,0.69155,-1.8,-2.7662,-2.2029e-12,-0.90002,0,0,0.2,1.8948e-15,0,0.66667
0.28838,0.50181,1.4419,0.0027126,0.081314,69.421,-0.01043,0.0034766,-2.0001,-0.013906,-8.0303e-13,-1,0,0,0.2,-0,-0,0.66667
0.87785,0.94264,4.3892,0.66396,4.993,4.1109,-7.7714,2.5905,-0.43291,-10.362,2.8821e-08,-0.21645,0,0,0.2,-0,-0,0.66667
0.1653,0.16239,0.8265,-0.50642,-16.259,89.819,1.1161,-0.37205,-1.0876,1.4882,1.6355e-09,-0.54379,0,0,0.2,-0,-0,0.66667
0.44557,0.6772,2.2278,0.2658,6.9655,45.761,-1.5791,0.52637,-1.7478,-2.1055,6.3405e-13,-0.87388,0,0,0.2,-0,-0,0.66667
0.96915,0.79812,4.8458,0.44718,0.73729,0.80612,-5.7785,1.9262,-1.2896,-7.7047,-5.6769e-08,-0.64479,0,0,0.2,1.8948e-15,0,0.66667
0.086128,0.09899,0.43064,-0.60151,-19.777,103.33,0.69076,-0.23025,-0.71304,0.92102,-7.9965e-08,-0.35652,0,0,0.2,-0,-0,0.66667
0.40046,0.55068,2.0023,0.076022,2.0838,52.187,-0.40592,0.13531,-1.9784,-0.54123,-2.5793e-13,-0.98922,0,0,0.2,4.737e-16,0,0.66667
0.28546,0.22438,1.4273,-0.41343,-12.49,69.997,1.5736,-0.52453,-1.3921,2.0981,1.2624e-11,-0.69607,0,0,0.2,-0,-0,0.66667
0.082679,0.83941,0.41339,0.50912,16.695,103.91,-0.56125,0.18708,-1.0784,-0.74833,-1.2261e-09,-0.53919,0,0,0.2,-5.9212e-17,0,0.66667
0.70977,0.10768,3.5489,-0.58848,-9.602,15.282,5.5692,-1.8564,-0.7675,7.4256,-8.3578e-13,-0.38375,0,0,0.2,-0,-0,0.66667
0.56244,0.5588,2.8122,0.088205,1.9593,30.365,-0.66147,0.22049,-1.9741,-0.88196,-9.7089e-13,-0.98704,0,0,0.2,-0,-0,0.66667
0.98804,0.26266,4.9402,-0.35601,-0.12122,0.38671,4.6901,-1.5634,-1.5487,6.2534,-2.3874e-08,-0.77437,0,0,0.2,-1.8948e-15,0,0.66667
0.22761,0.11116,1.138,-0.58326,-18.3,79.474,1.7701,-0.59002,-0.78925,2.3601,3.9599e-11,-0.39463,0,0,0.2,-2.6954e-16,0,0.66667
0.10466,0.077583,0.52331,-0.63363,-20.784,100.17,0.88422,-0.29474,-0.57158,1.179,-1.677e-08,-0.28579,0,0,0.2,2.3685e-16,0,0.66667
0.46991,0.1978,2.3495,-0.4533,-11.606,42.527,2.8401,-0.94671,-1.2698,3.7868,-1.3589e-13,-0.63491,0,0,0.2,-0,-0,0.66667
0.72526,0.37891,3.6263,-0.18163,-2.77,13.427,1.7564,-0.58546,-1.8825,2.3418,-2.6406e-11,-0.94124,0,0,0.2,-1.8948e-15,0,0.66667
0.20312,0.70621,1.0156,0.30932,9.7354,83.411,-0.8377,0.27923,-1.6607,-1.1169,-3.7016e-10,-0.83033,0,0,0.2,-0,-0,0.66667
0.19345,0.1337,0.96725,-0.54945,-17.481,85.114,1.4172,-0.4724,-0.9258,1.8896,1.5134e-10,-0.4629,0,0,0.2,-4.737e-16,0,0.66667
0.01645,0.13756,0.082248,-0.54366,-17.967,115.35,0.11924,-0.039747,-0.94953,0.15899,-2.8532e-08,-0.47477,0,0,0.2,-2.9606e-17,0,0.66667
0.61338,0.56042,3.0669,0.090624,1.8322,24.452,-0.74116,0.24705,-1.9713,-0.98821,-8.491e-13,-0.98566,0,0,0.2,-1.3027e-15,0,0.66667
0.58667,0.097704,2.9334,-0.60344,-13.067,27.953,4.7203,-1.5734,-0.70499,6.2937,3.9346e-13,-0.3525,0,0,0.2,-0,-0,0.66667
0.46014,0.28463,2.3007,-0.32305,-8.3349,43.764,1.982,-0.66067,-1.6288,2.6427,-4.1012e-13,-0.81438,0,0,0.2,-0,-0,0.66667
0.7062,0.97831,3.531,0.71747,11.953,15.866,-6.7557,2.2519,-0.16948,-9.0076,9.2371e-14,-0.084739,0,0,0.2,-0,-0,0.66667
0.059315,0.41156,0.29657,-0.13265,-4.3313,107.9,0.10491,-0.03497,-1.9376,0.13988,7.4823e-08,-0.96882,0,0,0.2,-0,-0,0.66667
0.66498,0.37536,3.3249,-0.18695,-3.3738,19.042,1.6576,-0.55254,-1.8761,2.2101,4.7973e-13,-0.93807,0,0,0.2,-0,-0,0.66667
0.18851,0.4474,0.94256,-0.078903,-2.4911,85.815,0.19832,-0.066107,-1.9784,0.26443,9.6861e-11,-0.98919,0,0,0.2,-0,-0,0.66667
0.13418,0.26542,0.67092,-0.35187,-11.358,95.051,0.62954,-0.20985,-1.5586,0.83938,1.8194e-09,-0.7793,0,0,0.2,-0,-0,0.66667
0.89487,0.59422,4.4744,0.14133,0.85893,2.5618,-1.6863,0.5621,-1.9298,-2.2484,-2.0996e-08,-0.96488,0,0,0.2,-0,-0,0.66667
0.68858,0.36354,3.4429,-0.20469,-3.4775,16.756,1.8793,-0.62643,-1.8514,2.5057,-3.9122e-12,-0.92571,0,0,0.2,-9.4739e-16,0,0.66667
0.63478,0.56155,3.1739,0.092321,1.7843,22.123,-0.78138,0.26046,-1.9701,-1.0418,-1.2899e-12,-0.98504,0,0,0.2,1.4211e-15,0,0.66667
0.062431,0.3765,0.31216,-0.18525,-6.0496,107.37,0.15421,-0.051403,-1.8801,0.20561,-3.8595e-08,-0.94006,0,0,0.2,-2.3685e-16,0,0.66667
0.10037,0.94613,0.50185,0.66919,22.002,100.91,-0.89556,0.29852,-0.4069,-1.1941,1.8369e-08,-0.20345,0,0,0.2,2.3685e-16,0,0.66667
0.41814,0.0010114,2.0907,-0.74848,-20.585,50.124,4.173,-1.391,-0.0088851,5.564,-3.9213e-13,-0.0044426,0,0,0.2,-0,-0,0.66667
0.77618,0.4522,3.8809,-0.071707,-0.9088,9.3209,0.7421,-0.24737,-1.9807,0.98946,-6.827e-11,-0.99036,0,0,0.2,-0,-0,0.66667
0.0092608,0.82901,0.046304,0.49352,16.286,116.59,-0.060938,0.020313,-1.1328,-0.081251,-1.3664e-07,-0.56642,0,0,0.2,-1.4803e-17,0,0.66667
0.46474,0.586,2.3237,0.12901,3.2984,43.04,-0.79939,0.26646,-1.9405,-1.0659,9.6534e-14,-0.97025,0,0,0.2,2.7518e-16,0,0.66667
0.20022,0.36077,1.0011,-0.20884,-6.57,83.871,0.55754,-0.18585,-1.8445,0.74339,3.5327e-10,-0.92225,0,0,0.2,-0,-0,0.66667
0.89358,0.11128,4.4679,-0.58308,-3.782,3.2494,6.9471,-2.3157,-0.79072,9.2628,-1.1887e-08,-0.39536,0,0,0.2,9.4739e-16,0,0.66667
0.59828,0.60656,2.9914,0.15984,3.3319,26.174,-1.2751,0.42503,-1.9083,-1.7001,-1.3792e-12,-0.95416,0,0,0.2,-0,-0,0.66667
0.68755,0.3002,3.4378,-0.2997,-5.1206,16.926,2.7475,-0.91583,-1.6815,3.6633,-2.9186e-12,-0.84073,0,0,0.2,-9.4739e-16,0,0.66667
0.80757,0.22143,4.0379,-0.41786,-4.6766,7.4518,4.4993,-1.4998,-1.3794,5.9991,-5.0514e-10,-0.68969,0,0,0.2,-1.8948e-15,0,0.66667
0.5879,0.87413,2.9395,0.56119,12.097,27.747,-4.399,1.4663,-0.88064,-5.8653,-1.0543e-12,-0.44032,0,0,0.2,1.4211e-15,0,0.66667
0.84743,0.9362,4.2371,0.6543,6.0564,5.5694,-7.393,2.4643,-0.47858,-9.8573,4.2731e-09,-0.23929,0,0,0.2,-1.3027e-15,0,0.66667
0.47046,0.23204,2.3523,-0.40194,-10.265,42.406,2.5213,-0.84042,-1.4256,3.3617,-4.5075e-14,-0.71281,0,0,0.2,-9.4739e-16,0,0.66667
0.17437,0.54799,0.87187,0.07199,2.2851,88.193,-0.16738,0.055792,-1.9813,-0.22317,-2.906e-10,-0.99064,0,0,0.2,-0,-0,0.66667
0.64155,0.75616,3.2077,0.38425,7.3712,21.605,-3.2868,1.0956,-1.476,-4.3824,-3.0638e-12,-0.738,0,0,0.2,-0,-0,0.66667
0.97645,0.26735,4.8822,-0.34897,-0.38204,0.52284,4.5434,-1.5145,-1.5658,6.0579,2.7635e-09,-0.78288,0,0,0.2,-1.8948e-15,0,0.66667
0.35024,0.7531,1.7512,0.37965,10.938,59.839,-1.7729,0.59097,-1.4874,-2.3639,2.7701e-12,-0.74372,0,0,0.2,-0,-0,0.66667
0.80271,0.2252,4.0135,-0.41221,-4.719,7.7613,4.4118,-1.4706,-1.3953,5.8823,-4.722e-10,-0.69767,0,0,0.2,-0,-0,0.66667
0.67727,0.43628,3.3864,-0.095581,-1.6698,17.791,0.86313,-0.28771,-1.9679,1.1508,-1.1843e-12,-0.98396,0,0,0.2,-2.3685e-16,0,0.66667
0.52046,0.0078146,2.6023,-0.73828,-17.93,36.227,5.1233,-1.7078,-0.061502,6.8311,5.8931e-13,-0.030751,0,0,0.2,-1.8948e-15,0,0.66667
0.14443,0.17836,0.72217,-0.48246,-15.581,93.341,0.92911,-0.3097,-1.172,1.2388,1.5473e-09,-0.58599,0,0,0.2,-1.1842e-16,0,0.66667
0.83883,0.18186,4.1942,-0.47721,-4.5485,5.6626,5.3374,-1.7791,-1.19,7.1165,-1.0634e-09,-0.59501,0,0,0.2,-4.737e-16,0,0.66667
0.42617,0.24512,2.1309,-0.38231,-10.264,48.585,2.1724,-0.72415,-1.4803,2.8966,-1.4571e-12,-0.74014,0,0,0.2,-0,-0,0.66667
0.78295,0.31725,3.9147,-0.27413,-3.3976,8.952,2.8617,-0.9539,-1.7336,3.8156,-2.3045e-10,-0.86682,0,0,0.2,-0,-0,0.66667
0.59163,0.19987,2.9582,-0.45019,-9.5857,27.17,3.5513,-1.1838,-1.2793,4.7351,1.7224e-12,-0.63965,0,0,0.2,-9.4739e-16,0,0.66667
0.25054,0.27554,1.2527,-0.33669,-10.362,75.6,1.1247,-0.3749,-1.5982,1.4996,7.8575e-11,-0.79908,0,0,0.2,-1.1842e-16,0,0.66667
0.17356,0.66649,0.8678,0.24973,7.9442,88.353,-0.57792,0.19264,-1.7785,-0.77056,-6.9712e-10,-0.88923,0,0,0.2,-4.737e-16,0,0.66667
0.73804,0.070876,3.6902,-0.64369,-9.6699,12.973,6.3342,-2.1114,-0.52651,8.4457,-2.5242e-12,-0.26326,0,0,0.2,-0,-0,0.66667
0.11212,0.81803,0.56058,0.47704,15.536,98.849,-0.71312,0.23771,-1.1912,-0.95083,-3.9713e-09,-0.5956,0,0,0.2,-0,-0,0.66667
0.21762,0.74417,1.0881,0.36626,11.468,81.02,-1.0628,0.35425,-1.524,-1.417,-2.4239e-10,-0.76198,0,0,0.2,-0,-0,0.66667
0.86531,0.047775,4.3265,-0.67834,-5.609,4.7269,7.8263,-2.6088,-0.36281,10.435,4.8415e-09,-0.18141,0,0,0.2,-0,-0,0.66667
0.9046,0.7924,4.523,0.4386,2.488,2.531,-5.2901,1.7634,-1.3162,-7.0534,4.7759e-09,-0.6581,0,0,0.2,-0,-0,0.66667
0.093513,0.8345,0.46756,0.50175,16.417,102.04,-0.62561,0.20854,-1.1058,-0.83414,-2.5932e-09,-0.55291,0,0,0.2,-1.1842e-16,-1.1742e-16,0.66667
0.014555,0.89052,0.072777,0.58578,19.388,115.68,-0.11368,0.037894,-0.78024,-0.15158,3.3743e-08,-0.39012,0,0,0.2,-0,-0,0.66667
0.30404,0.056843,1.5202,-0.66474,-20.026,67.228,2.6947,-0.89824,-0.42836,3.593,-6.3993e-13,-0.21418,0,0,0.2,-2.3685e-16,0,0.66667
0.12829,0.83822,0.64144,0.50733,16.472,96.095,-0.86779,0.28926,-1.085,-1.157,-3.5256e-09,-0.54251,0,0,0.2,-2.9606e-16,0,0.66667
0.25704,0.59827,1.2852,0.1474,4.5061,74.489,-0.50518,0.16839,-1.9224,-0.67358,-4.4037e-11,-0.96119,0,0,0.2,-0,-0,0.66667
0.50233,0.45725,2.5117,-0.064124,-1.561,37.961,0.42949,-0.14316,-1.9853,0.57265,-1.0952e-13,-0.99263,0,0,0.2,-0,-0,0.66667
0.56141,0.43258,2.8071,-0.10113,-2.2505,30.492,0.75699,-0.25233,-1.9647,1.0093,4.8156e-13,-0.98235,0,0,0.2,4.737e-16,0,0.66667
0.98057,0.62685,4.9028,0.19027,0.14027,0.27909,-2.4876,0.82921,-1.8719,-3.3169,-7.0447e-08,-0.93595,0,0,0.2,3.7896e-15,0,0.66667
0.42958,0.18921,2.1479,-0.46619,-12.505,48.167,2.6702,-0.89007,-1.2274,3.5603,-9.3636e-13,-0.61368,0,0,0.2,-0,-0,0.66667
0.67931,0.31843,3.3965,-0.27236,-4.7513,17.692,2.4669,-0.82229,-1.7357,3.2892,-1.0167e-12,-0.86783,0,0,0.2,-0,-0,0.66667
0.88941,0.93667,4.4471,0.655,4.4713,3.5944,-7.7676,2.5892,-0.47629,-10.357,-3.6982e-08,-0.23815,0,0,0.2,-2.6645e-15,0,0.66667
0.15189,0.8952,0.75945,0.5928,19.174,92.117,-1.2005,0.40018,-0.74983,-1.6007,1.2037e-09,-0.37492,0,0,0.2,-2.3685e-16,0,0.66667
0.09317,0.76162,0.46585,0.39243,12.801,102.08,-0.48749,0.1625,-1.4531,-0.64999,-4.0298e-09,-0.72653,0,0,0.2,-0,-0,0.66667
0.29675,0.39727,1.4837,-0.15409,-4.598,68.102,0.60969,-0.20323,-1.9166,0.81292,8.8556e-12,-0.9583,0,0,0.2,-0,-0,0.66667
0.12968,0.40991,0.64839,-0.13513,-4.3524,95.789,0.23365,-0.077882,-1.9352,0.31153,1.1705e-11,-0.96758,0,0,0.2,-0,-0,0.66667
0.16102,0.81612,0.80512,0.47418,15.23,90.529,-1.0181,0.33936,-1.2006,-1.3574,-1.0233e-09,-0.6003,0,0,0.2,-0,-0,0.66667
0.34358,0.97471,1.7179,0.71206,20.892,61.138,-3.262,1.0873,-0.19859,-4.3493,4.492e-13,-0.099293,0,0,0.2,-9.4739e-16,0,0.66667
0.31134,0.46702,1.5567,-0.049475,-1.4606,65.778,0.20538,-0.06846,-1.9929,0.27384,1.3791e-12,-0.99644,0,0,0.2,5.9212e-16,0,0.66667
0.76235,0.29486,3.8118,-0.30771,-4.1465,10.511,3.1278,-1.0426,-1.6628,4.1704,-1.2511e-10,-0.8314,0,0,0.2,-0,-0,0.66667
0.94892,0.56358,4.7446,0.095363,0.26174,0.80853,-1.2066,0.40218,-1.9683,-1.6087,-5.7534e-08,-0.98417,0,0,0.2,-0,-0,0.66667
0.58072,0.58003,2.9036,0.12005,2.5839,28.193,-0.92953,0.30984,-1.9484,-1.2394,-8.4677e-13,-0.97422,0,0,0.2,-0,-0,0.66667
0.98347,0.50288,4.9174,0.0043156,0.0021949,0.1624,-0.056591,0.018871,-2.0014,-0.075451,1.1548e-05,-1.0007,0,0,0.2,-0,-0,0.66667
0.95183,0.40946,4.7591,-0.1358,-0.34899,0.76074,1.7235,-0.5745,-1.9357,2.298,7.8572e-08,-0.96784,0,0,0.2,3.7896e-15,0,0.66667
0.25764,0.23644,1.2882,-0.39533,-12.137,74.468,1.3581,-0.45269,-1.4431,1.8108,5.2529e-11,-0.72154,0,0,0.2,-0,-0,0.66667
0.30135,0.78665,1.5068,0.42998,12.863,67.478,-1.7277,0.5759,-1.3425,-2.3036,-3.8496e-12,-0.67124,0,0,0.2,9.4739e-16,0,0.66667
0.84189,0.8618,4.2095,0.5427,5.1173,5.6176,-6.092,2.0307,-0.95277,-8.1226,8.8847e-10,-0.47639,0,0,0.2,-0,-0,0.66667
0.58489,0.39145,2.9244,-0.16282,-3.4802,27.72,1.2698,-0.42325,-1.9045,1.693,8.4188e-13,-0.95227,0,0,0.2,-0,-0,0.66667
0.17505,0.14134,0.87525,-0.53799,-17.231,88.19,1.2557,-0.41856,-0.97037,1.6742,6.1193e-10,-0.48519,0,0,0.2,-0,-0,0.66667
0.052125,0.49578,0.26063,-0.0063334,-0.20684,109.15,0.0044016,-0.0014674,-1.9997,0.0058687,-3.5805e-07,-0.99987,0,0,0.2,-2.0724e-16,0,0.66667
0.54514,0.32836,2.7257,-0.25746,-5.899,32.557,1.8713,-0.62377,-1.7643,2.4951,6.285e-13,-0.88215,0,0,0.2,-0,-0,0.66667
0.14795,0.34725,0.73974,-0.22912,-7.3489,92.686,0.45197,-0.15066,-1.8131,0.60263,1.409e-09,-0.90657,0,0,0.2,-0,-0,0.66667
0.77243,0.82979,3.8622,0.49468,6.4879,10.008,-5.0947,1.6982,-1.1287,-6.793,1.1233e-10,-0.56437,0,0,0.2,-0,-0,0.66667
0.60364,0.78353,3.0182,0.42529,8.8425,25.774,-3.423,1.141,-1.357,-4.564,-2.1831e-12,-0.67852,0,0,0.2,-0,-0,0.66667
0.2545,0.086973,1.2725,-0.61954,-19.199,75.109,2.1023,-0.70076,-0.63494,2.803,8.7088e-12,-0.31747,0,0,0.2,2.3685e-16,0,0.66667
0.0097104,0.56805,0.048552,0.10207,3.3436,116.51,-0.013216,0.0044047,-1.9625,-0.017621,-7.0137e-07,-0.98127,0,0,0.2,-0,-0,0.66667
0.29272,0.16565,1.4636,-0.50153,-15.123,68.892,1.9574,-0.65247,-1.1051,2.6099,3.9462e-12,-0.55257,0,0,0.2,-9.4739e-16,0,0.66667
0.61384,0.18713,3.0692,-0.46931,-9.5826,24.69,3.841,-1.2803,-1.2177,5.1214,2.1549e-12,-0.60883,0,0,0.2,-2.6645e-16,0,0.66667
0.19308,0.60797,0.96542,0.16195,5.1071,85.057,-0.41694,0.13898,-1.9057,-0.55593,-2.9203e-10,-0.95284,0,0,0.2,-0,-0,0.66667
0.29108,0.9694,1.4554,0.7041,21.433,69.31,-2.7327,0.91089,-0.23779,-3.6436,-2.6423e-14,-0.1189,0,0,0.2,-0,-0,0.66667
0.98264,0.34097,4.9132,-0.23854,-0.14855,0.29713,3.1253,-1.0418,-1.7988,4.1671,-3.3429e-08,-0.89941,0,0,0.2,-0,-0,0.66667
0.77969,0.5394,3.8985,0.059102,0.73816,9.0618,-0.61442,0.20481,-1.988,-0.81922,7.274e-11,-0.99401,0,0,0.2,-0,-0,0.66667
0.23048,0.27843,1.1524,-0.33235,-10.334,78.886,1.0213,-0.34044,-1.6077,1.3618,1.5816e-10,-0.80384,0,0,0.2,2.3685e-16,0,0.66667
0.27348,0.64063,1.3674,0.21095,6.3925,71.841,-0.76921,0.2564,-1.8405,-1.0256,-3.0877e-11,-0.92026,0,0,0.2,-0,-0,0.66667
0.68583,0.59511,3.4292,0.14266,2.4384,16.984,-1.3045,0.43485,-1.9291,-1.7394,2.7093e-12,-0.96454,0,0,0.2,-0,-0,0.66667
0.97299,0.56159,4.865,0.092385,0.11103,0.33025,-1.1985,0.39951,-1.9703,-1.598,-9.4459e-07,-0.98517,0,0,0.2,-3.5527e-16,0,0.66667
0.36782,0.57037,1.8391,0.10556,2.9822,57.059,-0.51769,0.17256,-1.9596,-0.69026,1.0403e-12,-0.97978,0,0,0.2,-9.4739e-16,0,0.66667
0.02374,0.36914,0.1187,-0.19628,-6.4325,114.07,0.06213,-0.02071,-1.8624,0.08284,-8.2909e-08,-0.93122,0,0,0.2,2.9606e-17,0,0.66667
0.81142,0.74186,4.0571,0.36279,3.9689,7.1276,-3.925,1.3083,-1.5327,-5.2333,5.7204e-10,-0.76634,0,0,0.2,-0,-0,0.66667
0.45963,0.17044,2.2981,-0.49434,-12.834,43.979,3.0295,-1.0098,-1.1299,4.0393,-2.387e-13,-0.56497,0,0,0.2,-9.4739e-16,0,0.66667
0.58271,0.16764,2.9135,-0.49854,-10.813,28.263,3.8734,-1.2911,-1.1155,5.1645,8.9306e-13,-0.55776,0,0,0.2,-0,-0,0.66667
0.55146,0.5329,2.7573,0.049349,1.1161,31.698,-0.36285,0.12095,-1.9918,-0.4838,-4.0781e-13,-0.9959,0,0,0.2,-0,-0,0.66667
0.63102,0.039716,3.1551,-0.69043,-13.789,23.182,5.809,-1.9363,-0.30433,7.7453,2.3803e-13,-0.15216,0,0,0.2,-0,-0,0.66667
0.72115,0.65868,3.6057,0.23803,3.6832,13.821,-2.2887,0.7629,-1.7995,-3.0516,2.7061e-11,-0.89975,0,0,0.2,-1.8948e-15,0,0.66667
0.37326,0.32717,1.8663,-0.25924,-7.3042,56.285,1.2902,-0.43007,-1.761,1.7203,-2.3195e-12,-0.88052,0,0,0.2,-0,-0,0.66667
0.86276,0.27615,4.3138,-0.33578,-2.7048,4.1839,3.8626,-1.2875,-1.5993,5.1502,-1.7275e-09,-0.79965,0,0,0.2,-4.737e-16,0,0.66667
0.044935,0.49823,0.22468,-0.0026499,-0.086602,110.39,0.0015876,-0.00052727,-2.0012,0.0021177,2.8788e-06,-1.0006,0,0,0.2,-2.9606e-17,0,0.66667
0.63268,0.76952,3.1634,0.40429,7.9145,22.565,-3.4105,1.1368,-1.4177,-4.5473,-2.9583e-12,-0.70886,0,0,0.2,9.4739e-16,0,0.66667
0.32943,0.69593,1.6471,0.29389,8.5882,63.006,-1.2909,0.4303,-1.6934,-1.7212,4.7651e-13,-0.84671,0,0,0.2,-0,-0,0.66667
0.5372,0.78836,2.686,0.43254,10.089,33.691,-3.0982,1.0327,-1.3342,-4.1309,-4.9072e-13,-0.66708,0,0,0.2,-0,-0,0.66667
0.25122,0.80612,1.2561,0.45918,14.173,75.543,-1.5381,0.5127,-1.2511,-2.0508,-5.333e-11,-0.62555,0,0,0.2,-2.3685e-16,0,0.66667
0.30016,0.31266,1.5008,-0.28101,-8.3823,67.597,1.1246,-0.37488,-1.7203,1.4995,8.5885e-12,-0.86017,0,0,0.2,-9.4739e-16,0,0.66667
0.68492,0.93824,3.4246,0.65737,11.544,17.698,-6.0032,2.0011,-0.46475,-8.0043,-5.3735e-13,-0.23238,0,0,0.2,-0,-0,0.66667
0.30867,0.061581,1.5433,-0.65763,-19.744,66.494,2.7065,-0.90217,-0.4631,3.6087,-6.8456e-13,-0.23155,0,0,0.2,-6.8094e-16,-2.5017e-16,0.66667
0.48557,0.87777,2.4279,0.56666,14.293,40.533,-3.6687,1.2229,-0.85967,-4.8916,9.7922e-14,-0.42984,0,0,0.2,-0,-0,0.66667
0.72351,0.48597,3.6176,-0.021049,-0.32208,13.526,0.20306,-0.067685,-1.9975,0.27074,-2.3612e-12,-0.99875,0,0,0.2,-1.8948e-15,0,0.66667
0.93934,0.28048,4.6967,-0.32929,-1.1361,1.2568,4.1242,-1.3747,-1.616,5.4989,8.4723e-09,-0.80798,0,0,0.2,2.2501e-15,0,0.66667
0.18872,0.52448,0.94361,0.036714,1.1589,85.778,-0.092383,0.030794,-1.996,-0.12318,-1.721e-10,-0.99798,0,0,0.2,-0,-0,0.66667
0.52997,0.4294,2.6498,-0.1059,-2.4779,34.395,0.74829,-0.24943,-1.9607,0.99771,-1.6098e-15,-0.98035,0,0,0.2,-4.737e-16,0,0.66667
0.74163,0.24219,3.7082,-0.38671,-5.6348,12.244,3.824,-1.2747,-1.4675,5.0986,-5.1362e-11,-0.73374,0,0,0.2,-9.4739e-16,0,0.66667
0.53447,0.5874,2.6724,0.1311,3.0476,33.832,-0.93427,0.31142,-1.9389,-1.2457,-5.333e-13,-0.96947,0,0,0.2,4.737e-16,0,0.66667
0.78526,0.015055,3.9263,-0.72742,-9.2705,9.58,7.6161,-2.5387,-0.11786,10.155,-7.3414e-11,-0.058932,0,0,0.2,-0,-0,0.66667
0.74517,0.86547,3.7259,0.5482,7.9775,12.206,-5.4467,1.8156,-0.93078,-7.2623,2.1461e-11,-0.46539,0,0,0.2,-0,-0,0.66667
0.76862,0.49539,3.8431,-0.0069182,-0.09033,9.8738,0.070899,-0.023633,-2.0002,0.094532,-3.9396e-11,-1.0001,0,0,0.2,1.4211e-15,0,0.66667
0.77155,0.9836,3.8578,0.72541,9.7586,10.556,-7.4625,2.4875,-0.12789,-9.95,-2.0874e-11,-0.063946,0,0,0.2,-6.738e-17,0,0.66667
0.88414,0.19785,4.4207,-0.45323,-3.1301,3.3751,5.3429,-1.781,-1.2686,7.1239,-6.4735e-09,-0.63432,0,0,0.2,-0,-0,0.66667
0.45436,0.36201,2.2718,-0.20699,-5.3638,44.503,1.254,-0.418,-1.8479,1.672,-9.2204e-13,-0.92395,0,0,0.2,-0,-0,0.66667
0.45973,0.72499,2.2987,0.33749,8.715,43.83,-2.0687,0.68958,-1.5944,-2.7583,7.4141e-13,-0.79722,0,0,0.2,-0,-0,0.66667
0.14676,0.58809,0.73382,0.13214,4.2351,92.875,-0.25858,0.086193,-1.9375,-0.34477,-1.005e-09,-0.96873,0,0,0.2,1.1842e-16,0,0.66667
0.23564,0.030415,1.1782,-0.70438,-22.127,78.239,2.2131,-0.73769,-0.23763,2.9507,5.3852e-12,-0.11882,0,0,0.2,2.9606e-16,0,0.66667
0.26969,0.0085646,1.3485,-0.73715,-22.77,72.751,2.6507,-0.88357,-0.067499,3.5343,6.2728e-13,-0.03375,0,0,0.2,9.4739e-16,0,0.66667
0.73747,0.54593,3.6873,0.068902,1.0078,12.349,-0.6775,0.22583,-1.9826,-0.90334,1.9132e-11,-0.99131,0,0,0.2,9.4739e-16,0,0.66667
0.15702,0.43756,0.7851,-0.093663,-2.9913,91.13,0.19609,-0.065364,-1.9709,0.26146,-7.9844e-10,-0.98545,0,0,0.2,-0,-0,0.66667
0.72315,0.84583,3.6158,0.51875,8.0911,13.989,-5.0018,1.6673,-1.0436,-6.669,7.5415e-12,-0.52182,0,0,0.2,-0,-0,0.66667
0.59594,0.15424,2.9797,-0.51863,-10.99,26.764,4.121,-1.3737,-1.0447,5.4947,1.3887e-12,-0.52237,0,0,0.2,-1.4211e-15,0,0.66667
0.9303,0.58654,4.6515,0.12982,0.50877,1.3195,-1.6102,0.53675,-1.9393,-2.147,-1.5356e-08,-0.96967,0,0,0.2,-0,-0,0.66667
0.72528,0.87418,3.6264,0.56127,8.7236,13.881,-5.4277,1.8092,-0.88024,-7.2369,7.0708e-12,-0.44012,0,0,0.2,1.3619e-15,0,0.66667
0.69888,0.4145,3.4944,-0.12825,-2.1144,15.754,1.1951,-0.39837,-1.9411,1.5935,-6.3353e-12,-0.97054,0,0,0.2,-0,-0,0.66667
0.075963,0.58761,0.37981,0.13141,4.2808,105.02,-0.1331,0.044366,-1.939,-0.17746,4.1645e-08,-0.96952,0,0,0.2,-0,-0,0.66667
0.50651,0.51371,2.5326,0.020562,0.49757,37.408,-0.13886,0.046288,-1.9973,-0.18515,2.0299e-13,-0.99867,0,0,0.2,1.8948e-15,0,0.66667
0.76296,0.79402,3.8148,0.44103,5.9751,10.633,-4.4865,1.4955,-1.3081,-5.982,9.9373e-11,-0.65405,0,0,0.2,-0,-0,0.66667
0.29181,0.026241,1.459,-0.71064,-21.628,69.201,2.7649,-0.92164,-0.20421,3.6866,3.2463e-13,-0.10211,0,0,0.2,-2.3685e-16,0,0.66667
0.49858,0.83079,2.4929,0.49618,12.265,38.725,-3.2985,1.0995,-1.1248,-4.398,1.8163e-13,-0.56239,0,0,0.2,-0,-0,0.66667
0.30177,0.7986,1.5088,0.44789,13.402,67.424,-1.8021,0.60071,-1.2858,-2.4028,-2.5301e-12,-0.64289,0,0,0.2,-8.3106e-16,0,0.66667
0.4502,0.77404,2.251,0.41105,10.757,45.211,-2.4674,0.82247,-1.3993,-3.2899,3.928e-13,-0.69964,0,0,0.2,-0,-0,0.66667
0.24377,0.95846,1.2188,0.68769,21.497,76.901,-2.2351,0.74505,-0.31757,-2.9802,1.3645e-12,-0.15878,0,0,0.2,-0,-0,0.66667
0.5657,0.12472,2.8285,-0.56292,-12.616,30.36,4.2459,-1.4153,-0.87443,5.6612,6.4304e-13,-0.43721,0,0,0.2,-1.4063e-15,0,0.66667
0.94963,0.34226,4.7482,-0.23662,-0.65022,0.89064,2.996,-0.99866,-1.8017,3.9946,-7.6221e-10,-0.90085,0,0,0.2,2.4869e-15,0,0.66667
0.2179,0.39203,1.0895,-0.16195,-5.052,80.922,0.47051,-0.15684,-1.9071,0.62735,1.7451e-10,-0.95356,0,0,0.2,2.3685e-16,0,0.66667
0.4385,0.10384,2.1925,-0.59423,-15.87,47.033,3.4743,-1.1581,-0.745,4.6324,-5.9641e-13,-0.3725,0,0,0.2,-0,-0,0.66667
0.76894,0.080707,3.8447,-0.62894,-8.46,10.525,6.4482,-2.1494,-0.59302,8.5976,-3.0518e-11,-0.29651,0,0,0.2,9.4739e-16,0,0.66667
0.14093,0.63588,0.70466,0.20383,6.5492,93.876,-0.38301,0.12767,-1.8531,-0.51068,-1.2711e-09,-0.92653,0,0,0.2,-0,-0,0.66667
0.9131,0.24378,4.5655,-0.38434,-1.9644,2.1373,4.6792,-1.5597,-1.4742,6.2389,-2.6473e-09,-0.7371,0,0,0.2,-1.4211e-15,0,0.66667
0.39416,0.29986,1.9708,-0.30021,-8.3051,53.19,1.5777,-0.52591,-1.679,2.1036,-2.0538e-12,-0.83949,0,0,0.2,-4.737e-16,0,0.66667
0.32525,0.83584,1.6262,0.50377,14.855,63.777,-2.1847,0.72822,-1.0977,-2.9129,2.4409e-12,-0.54883,0,0,0.2,-2.3685e-16,0,0.66667
0.57673,0.40088,2.8836,-0.14868,-3.2241,28.673,1.1433,-0.38109,-1.9223,1.5244,5.8031e-13,-0.96113,0,0,0.2,4.737e-16,0,0.66667
0.24807,0.98425,1.2404,0.72637,22.696,76.231,-2.4025,0.80085,-0.12395,-3.2034,-6.9191e-12,-0.061977,0,0,0.2,-4.737e-16,2.3683e-16,0.66667
0.81192,0.36376,4.0596,-0.20436,-2.2111,6.9335,2.2124,-0.73746,-1.8521,2.9498,-4.1836e-10,-0.92607,0,0,0.2,9.4739e-16,0,0.66667
0.88291,0.59285,4.4145,0.13928,0.94513,3.0635,-1.6396,0.54652,-1.9313,-2.1861,7.7004e-09,-0.96565,0,0,0.2,-2.4869e-15,0,0.66667
0.83441,0.64376,4.1721,0.21564,2.068,5.5768,-2.3991,0.7997,-1.8336,-3.1988,7.6344e-10,-0.91678,0,0,0.2,-9.4739e-16,0,0.66667
0.35124,0.25397,1.7562,-0.36904,-10.621,59.681,1.7283,-0.5761,-1.5155,2.3044,-2.6315e-12,-0.75773,0,0,0.2,-9.4739e-16,0,0.66667
0.14604,0.26902,0.73022,-0.34647,-11.144,93.031,0.67466,-0.22489,-1.5722,0.89955,1.7896e-09,-0.7861,0,0,0.2,-0,-0,0.66667
0.60481,0.18451,3.024,-0.47324,-9.8382,25.701,3.8162,-1.2721,-1.2039,5.0883,2.1645e-12,-0.60197,0,0,0.2,-1.4211e-15,0,0.66667
0.9963,0.96892,4.9815,0.70338,0.12359,1.1238,-9.3437,3.1146,-0.24193,-12.458,-1.2489e-05,-0.12097,0,0,0.2,-0,-0,0.66667
0.80367,0.81149,4.0184,0.46724,5.3484,7.7843,-5.0067,1.6689,-1.2241,-6.6756,2.1552e-10,-0.61204,0,0,0.2,1.3027e-15,0,0.66667
0.74154,0.58003,3.7077,0.12004,1.7328,12.029,-1.1868,0.39562,-1.9476,-1.5825,3.7339e-11,-0.97378,0,0,0.2,-0,-0,0.66667
0.38666,0.13967,1.9333,-0.54049,-15.171,54.475,2.7865,-0.92884,-0.96056,3.7153,-1.6021e-12,-0.48028,0,0,0.2,-0,-0,0.66667
0.40617,0.50856,2.0309,0.01284,0.3499,51.345,-0.069538,0.023179,-2.0005,-0.092717,-5.9006e-13,-1.0003,0,0,0.2,1.8948e-15,0,0.66667
0.29465,0.0027351,1.4732,-0.7459,-22.7,68.785,2.9303,-0.97678,-0.022775,3.9071,-6.779e-13,-0.011388,0,0,0.2,-0,-0,0.66667
0.29924,0.72252,1.4962,0.33377,9.9734,67.765,-1.3317,0.4439,-1.6046,-1.7756,-8.039e-12,-0.80231,0,0,0.2,9.4739e-16,0,0.66667
0.65307,0.7729,3.2653,0.40934,7.6577,20.441,-3.5644,1.1881,-1.4041,-4.7525,-2.7525e-12,-0.70203,0,0,0.2,-4.737e-16,0,0.66667
0.042617,0.90375,0.21309,0.60563,20.028,110.83,-0.34414,0.11471,-0.69624,-0.45885,-7.766e-07,-0.34812,0,0,0.2,-1.4803e-17,0,0.66667
0.60103,0.23314,3.0052,-0.40028,-8.3558,26.041,3.2078,-1.0693,-1.4291,4.277,1.9218e-12,-0.71454,0,0,0.2,-0,-0,0.66667
0.45501,0.80477,2.275,0.45715,11.916,44.581,-2.7734,0.92448,-1.2573,-3.6979,5.4201e-13,-0.62865,0,0,0.2,-0,-0,0.66667
0.38402,0.73484,1.9201,0.35227,9.8504,54.723,-1.8037,0.60124,-1.5576,-2.405,2.1501e-12,-0.77879,0,0,0.2,-4.737e-16,0,0.66667
0.72104,0.75542,3.6052,0.38312,5.9661,13.975,-3.6833,1.2278,-1.4786,-4.9111,2.1417e-11,-0.7393,0,0,0.2,-0,-0,0.66667
0.090843,0.66278,0.45421,0.24417,7.9443,102.46,-0.29574,0.098581,-1.7882,-0.39432,-5.1902e-09,-0.89408,0,0,0.2,-0,-0,0.66667
0.24894,0.2326,1.2447,-0.4011,-12.374,75.887,1.3313,-0.44377,-1.4283,1.7751,7.078e-11,-0.71414,0,0,0.2,-0,-0,0.66667
0.16059,0.26301,0.80295,-0.35548,-11.383,90.567,0.76115,-0.25372,-1.5499,1.0149,1.1197e-09,-0.77495,0,0,0.2,-2.3685e-16,0,0.66667
0.67252,0.43446,3.3626,-0.098317,-1.7386,18.257,0.88161,-0.29387,-1.9672,1.1755,-6.366e-13,-0.9836,0,0,0.2,-2.3685e-16,0,0.66667
0.19789,0.31044,0.98947,-0.28435,-8.965,84.276,0.75027,-0.25009,-1.7128,1.0004,4.6496e-10,-0.85639,0,0,0.2,-5.9212e-17,0,0.66667
0.47419,0.44472,2.371,-0.082925,-2.0948,41.735,0.5243,-0.17477,-1.975,0.69906,-4.3737e-13,-0.98749,0,0,0.2,-0,-0,0.66667
0.95248,0.16332,4.7624,-0.50502,-1.4009,1.2469,6.4136,-2.1379,-1.0942,8.5515,1.2072e-08,-0.54708,0,0,0.2,-0,-0,0.66667
0.79059,0.82106,3.953,0.4816,5.8543,8.6892,-5.0766,1.6922,-1.1745,-6.7688,2.1871e-10,-0.58726,0,0,0.2,1.8948e-15,0,0.66667
0.6679,0.30867,3.3395,-0.287,-5.1562,18.822,2.5558,-0.85194,-1.7073,3.4078,1.2621e-12,-0.85367,0,0,0.2,-2.3685e-16,0,0.66667
0.85654,0.90607,4.2827,0.60911,5.2868,4.9886,-6.9563,2.3188,-0.6821,-9.2751,2.8932e-09,-0.34105,0,0,0.2,2.7692e-15,-2.3413e-16,0.66667
0.28897,0.98897,1.4449,0.73346,22.388,69.671,-2.826,0.942,-0.08614,-3.768,1.1149e-12,-0.04307,0,0,0.2,4.737e-16,0,0.66667
0.77802,0.63128,3.8901,0.19692,2.4837,9.2444,-2.0427,0.68092,-1.8622,-2.7237,1.7734e-10,-0.9311,0,0,0.2,-0,-0,0.66667
0.019068,0.51385,0.095342,0.02077,0.67998,114.88,-0.0052789,0.0017589,-1.9979,-0.0070389,-1.1291e-06,-0.99894,0,0,0.2,-5.9212e-17,0,0.66667
0.87353,0.51688,4.3677,0.025323,0.18525,3.4504,-0.29494,0.098314,-1.9978,-0.39326,-1.0085e-10,-0.99891,0,0,0.2,-0,-0,0.66667
0.24772,0.057296,1.2386,-0.66406,-20.693,76.241,2.1933,-0.73111,-0.43264,2.9244,4.6207e-12,-0.21632,0,0,0.2,2.3685e-16,0,0.66667
0.12308,0.25167,0.61539,-0.37249,-12.065,96.951,0.61127,-0.20376,-1.5079,0.81503,3.2804e-09,-0.75397,0,0,0.2,-0,-0,0.66667
0.12635,0.28386,0.63175,-0.3242,-10.481,96.383,0.54618,-0.18206,-1.6276,0.72824,2.2233e-09,-0.8138,0,0,0.2,-0,-0,0.66667
0.58781,0.20525,2.939,-0.44212,-9.4771,27.602,3.4651,-1.155,-1.3039,4.6201,1.295e-12,-0.65195,0,0,0.2,-0,-0,0.66667
0.89189,0.26146,4.4595,-0.35781,-2.2782,2.8972,4.255,-1.4183,-1.5451,5.6734,-2.6444e-09,-0.77255,0,0,0.2,-0,-0,0.66667
0.092472,0.81384,0.46236,0.47077,15.392,102.22,-0.58044,0.19348,-1.2136,-0.77392,-1.6965e-08,-0.60681,0,0,0.2,-0,-0,0.66667
0.48349,0.19925,2.4174,-0.45113,-11.354,40.686,2.9082,-0.96939,-1.2768,3.8776,-1.1746e-13,-0.63842,0,0,0.2,-0,-0,0.66667
0.88532,0.85798,4.4266,0.53698,3.7174,3.4879,-6.3386,2.1129,-0.97375,-8.4515,8.0802e-09,-0.48688,0,0,0.2,-0,-0,0.66667
0.95716,0.88716,4.7858,0.58073,1.4875,1.3223,-7.4114,2.4705,-0.8002,-9.8818,1.5723e-07,-0.4001,0,0,0.2,-0,-0,0.66667
0.99077,0.98505,4.9539,0.72757,0.42046,1.245,-9.6114,3.2038,-0.1167,-12.815,4.8536e-06,-0.058348,0,0,0.2,1.8948e-15,0,0.66667
0.36192,0.079453,1.8096,-0.63082,-18.165,58.265,3.0441,-1.0147,-0.58481,4.0588,-5.0959e-13,-0.29241,0,0,0.2,4.737e-16,0,0.66667
0.58532,0.88982,2.9266,0.58474,12.68,28.081,-4.5634,1.5211,-0.78306,-6.0846,-5.7732e-13,-0.39153,0,0,0.2,-0,-0,0.66667
0.38493,0.55988,1.9246,0.089824,2.4988,54.489,-0.46101,0.15367,-1.9714,-0.61468,6.5181e-13,-0.9857,0,0,0.2,4.737e-16,0,0.66667
0.13587,0.62579,0.67934,0.18868,6.0703,94.738,-0.34181,0.11394,-1.874,-0.45575,-3.6997e-09,-0.93701,0,0,0.2,-4.737e-16,0,0.66667
0.76152,0.28575,3.8076,-0.32138,-4.3471,10.589,3.2632,-1.0877,-1.6328,4.3509,-1.2154e-10,-0.81642,0,0,0.2,-1.8948e-15,0,0.66667
0.22086,0.91893,1.1043,0.6284,19.816,80.612,-1.8505,0.61683,-0.59587,-2.4673,-2.6821e-11,-0.29794,0,0,0.2,-0,-0,0.66667
0.6968,0.81949,3.484,0.47924,8.0531,16.277,-4.4524,1.4841,-1.1827,-5.9366,1.104e-12,-0.59137,0,0,0.2,-0,-0,0.66667
0.80946,0.14408,4.0473,-0.53388,-5.9819,7.5289,5.762,-1.9207,-0.98617,7.6827,-2.4968e-10,-0.49308,0,0,0.2,-0,-0,0.66667
0.27256,0.92771,1.3628,0.64157,19.696,72.211,-2.3316,0.77718,-0.53551,-3.1087,-2.2646e-12,-0.26776,0,0,0.2,-0,-0,0.66667
0.5085,0.79705,2.5425,0.44557,10.844,37.372,-3.021,1.007,-1.2929,-4.028,1.3967e-13,-0.64643,0,0,0.2,-9.4739e-16,0,0.66667
0.42229,0.85988,2.1115,0.53982,14.633,49.278,-3.0395,1.0132,-0.96446,-4.0527,6.7257e-13,-0.48223,0,0,0.2,-9.4739e-16,0,0.66667
0.054664,0.58636,0.27332,0.12953,4.2316,108.71,-0.094411,0.03147,-1.9396,-0.12588,-1.8542e-08,-0.96978,0,0,0.2,-0,-0,0.66667
0.74161,0.59326,3.708,0.13989,2.0197,12.032,-1.3833,0.4611,-1.9308,-1.8444,3.9708e-11,-0.96539,0,0,0.2,1.4485e-15,0,0.66667
0.80872,0.17886,4.0436,-0.48171,-5.3903,7.4813,5.1943,-1.7314,-1.1746,6.9257,-4.2635e-10,-0.58729,0,0,0.2,-9.4739e-16,0,0.66667
0.53813,0.90951,2.6907,0.61427,14.428,33.803,-4.4074,1.4691,-0.65825,-5.8766,3.042e-13,-0.32912,0,0,0.2,-1.8948e-15,0,0.66667
0.75933,0.96086,3.7967,0.69129,9.6961,11.39,-6.9989,2.333,-0.3001,-9.3319,3.7659e-13,-0.15005,0,0,0.2,-0,-0,0.66667
0.041085,0.10174,0.20543,-0.59739,-19.752,111.09,0.32725,-0.10908,-0.7304,0.43634,5.8523e-07,-0.3652,0,0,0.2,-0,-0,0.66667
0.18226,0.92309,0.9113,0.63464,20.347,87.026,-1.5423,0.51409,-0.56693,-2.0563,-3.5889e-11,-0.28346,0,0,0.2,-0,-0,0.66667
0.5671,0.98912,2.8355,0.73368,16.573,30.472,-5.5476,1.8492,-0.085348,-7.3968,5.862e-14,-0.042674,0,0,0.2,-4.737e-16,0,0.66667
0.62121,0.67436,3.106,0.26155,5.2198,23.672,-2.1663,0.7221,-1.7561,-2.8884,-2.3561e-12,-0.87806,0,0,0.2,-0,-0,0.66667
0.78202,0.95959,3.9101,0.68938,8.8638,9.7138,-7.1881,2.396,-0.31094,-9.5841,1.9602e-12,-0.15547,0,0,0.2,-9.4739e-16,0,0.66667
0.60149,0.78602,3.0074,0.42903,8.9587,26.021,-3.4408,1.1469,-1.3451,-4.5877,-2.0841e-12,-0.67255,0,0,0.2,-0,-0,0.66667
0.56027,0.64982,2.8013,0.22473,5.0202,30.681,-1.6788,0.55959,-1.8208,-2.2383,-9.5002e-13,-0.91041,0,0,0.2,3.3175e-16,0,0.66667
0.66962,0.97796,3.3481,0.71694,13.146,19.293,-6.4011,2.1337,-0.1725,-8.5347,1.541e-13,-0.086251,0,0,0.2,-1.8948e-15,1.9693e-16,0.66667
0.18539,0.29702,0.92696,-0.30447,-9.6519,86.375,0.75262,-0.25087,-1.6702,1.0035,5.8036e-10,-0.83511,0,0,0.2,-2.3685e-16,0,0.66667
0.14813,0.40063,0.74066,-0.14906,-4.776,92.644,0.2944,-0.098133,-1.9205,0.39253,1.7813e-09,-0.96023,0,0,0.2,-3.0712e-17,0,0.66667
0.2334,0.74877,1.167,0.37315,11.597,78.42,-1.1612,0.38708,-1.5067,-1.5483,-1.2989e-10,-0.75334,0,0,0.2,2.3685e-16,0,0.66667
0.88661,0.57757,4.433,0.11635,0.76348,2.8919,-1.3755,0.45849,-1.9511,-1.834,-2.3866e-09,-0.97555,0,0,0.2,-0,-0,0.66667
0.62684,0.65672,3.1342,0.23508,4.6334,23.041,-1.9648,0.65493,-1.8051,-2.6197,-2.4839e-12,-0.90253,0,0,0.2,-0,-0,0.66667
0.65717,0.14509,3.2859,-0.53236,-9.9275,20.192,4.6647,-1.5549,-0.9928,6.2196,2.3075e-12,-0.4964,0,0,0.2,-0,-0,0.66667
0.3064,0.70785,1.532,0.31177,9.2664,66.622,-1.2737,0.42457,-1.6534,-1.6983,-4.6869e-12,-0.8267,0,0,0.2,-0,-0,0.66667
0.25905,0.83032,1.2952,0.49548,15.245,74.292,-1.7114,0.57046,-1.126,-2.2818,-2.9562e-11,-0.56298,0,0,0.2,-4.737e-16,0,0.66667
0.59709,0.85008,2.9854,0.52512,11.107,26.643,-4.1806,1.3935,-1.0196,-5.5741,-1.1751e-12,-0.50979,0,0,0.2,-0,-0,0.66667
0.21493,0.16032,1.0746,-0.50952,-16.039,81.527,1.4601,-0.4867,-1.0772,1.9468,7.4804e-11,-0.53858,0,0,0.2,-4.737e-16,0,0.66667
0.93549,0.81204,4.6775,0.46806,1.7813,1.5911,-5.8382,1.9461,-1.2225,-7.7843,4.277e-09,-0.61126,0,0,0.2,-5.3291e-16,0,0.66667
0.80368,0.67108,4.0184,0.25662,2.8968,7.5117,-2.7498,0.91661,-1.7646,-3.6665,3.9114e-10,-0.88232,0,0,0.2,-0,-0,0.66667
0.077647,0.31879,0.38824,-0.27182,-8.8683,104.74,0.28141,-0.093805,-1.7385,0.37522,-5.8541e-10,-0.86923,0,0,0.2,-0,-0,0.66667
0.17487,0.50876,0.87435,0.013146,0.41713,88.108,-0.030651,0.010217,-1.9992,-0.040869,-1.3e-10,-0.99962,0,0,0.2,-0,-0,0.66667
0.48717,0.46685,2.4358,-0.049732,-1.2354,39.975,0.32304,-0.10768,-1.9921,0.43072,-4.7951e-13,-0.99606,0,0,0.2,1.0658e-15,0,0.66667
0.26934,0.37478,1.3467,-0.18783,-5.7041,72.504,0.67453,-0.22484,-1.8755,0.89937,3.5237e-11,-0.93777,0,0,0.2,-5.4771e-16,0,0.66667
0.2902,0.61015,1.451,0.16523,4.9521,69.148,-0.63933,0.21311,-1.9017,-0.85244,-1.3026e-11,-0.95086,0,0,0.2,-0,-0,0.66667
0.96137,0.73957,4.8068,0.35936,0.74612,0.79505,-4.6064,1.5355,-1.5398,-6.1418,-2.2935e-08,-0.76989,0,0,0.2,-9.4739e-16,0,0.66667
0.34206,0.85788,1.7103,0.53682,15.648,61.204,-2.4483,0.8161,-0.9754,-3.2644,2.3448e-12,-0.4877,0,0,0.2,-4.737e-16,4.8408e-17,0.66667
0.8359,0.38975,4.1795,-0.16538,-1.569,5.456,1.8432,-0.61439,-1.9015,2.4576,-4.4847e-10,-0.95076,0,0,0.2,-0,-0,0.66667
0.34459,0.88581,1.723,0.57872,16.863,60.851,-2.659,0.88632,-0.80974,-3.5453,1.6553e-12,-0.40487,0,0,0.2,-0,-0,0.66667
0.72145,0.95561,3.6072,0.68341,10.856,14.453,-6.5739,2.1913,-0.33905,-8.7652,-5.3912e-13,-0.16953,0,0,0.2,-9.4739e-16,0,0.66667
0.18399,0.30215,0.91996,-0.29678,-9.4118,86.608,0.72807,-0.24269,-1.6864,0.97076,5.6448e-10,-0.8432,0,0,0.2,2.3685e-16,0,0.66667
0.68595,0.46095,3.4298,-0.058575,-0.99982,16.947,0.53573,-0.17858,-1.9883,0.71431,-1.5057e-12,-0.99414,0,0,0.2,9.4739e-16,0,0.66667
0.57425,0.40398,2.8713,-0.14402,-3.1367,28.965,1.1028,-0.36758,-1.9268,1.4703,8.4899e-13,-0.96338,0,0,0.2,-7.7738e-16,0,0.66667
0.72788,0.25412,3.6394,-0.36881,-5.6174,13.37,3.5794,-1.1931,-1.5161,4.7725,-3.1238e-11,-0.75805,0,0,0.2,1.8948e-15,0,0.66667
0.43689,0.28551,2.1845,-0.32173,-8.5242,47.017,1.8742,-0.62472,-1.6334,2.4989,-1.3196e-12,-0.81668,0,0,0.2,-9.4739e-16,0,0.66667
0.94886,0.7014,4.7443,0.3021,0.85595,0.98309,-3.822,1.274,-1.6747,-5.096,-1.4656e-08,-0.83735,0,0,0.2,1.8948e-15,0,0.66667
0.98993,0.48451,4.9497,-0.02324,-0.0019735,0.089314,0.30675,-0.10226,-1.997,0.409,-5.3087e-06,-0.9985,0,0,0.2,7.2246e-16,0,0.66667
0.37841,0.39853,1.892,-0.1522,-4.2617,55.476,0.7679,-0.25597,-1.9175,1.0239,-1.642e-12,-0.95874,0,0,0.2,2.3685e-16,0,0.66667
0.75586,0.011683,3.7793,-0.73248,-10.447,11.756,7.382,-2.4607,-0.091357,9.8427,-1.3252e-11,-0.045679,0,0,0.2,-0,-0,0.66667
0.93393,0.78293,4.6696,0.42439,1.6393,1.5534,-5.2846,1.7615,-1.3603,-7.0462,-1.7224e-09,-0.68017,0,0,0.2,3.7896e-15,0,0.66667
0.81266,0.43779,4.0633,-0.09331,-1.0026,6.8265,1.0111,-0.33702,-1.9714,1.3481,2.8668e-11,-0.9857,0,0,0.2,-0,-0,0.66667
0.44965,0.018959,2.2483,-0.72156,-19.158,45.639,4.326,-1.442,-0.14825,5.768,-1.4877e-13,-0.074127,0,0,0.2,-0,2.2606e-16,0.66667
0.0019673,0.20045,0.0098366,-0.44933,-14.809,117.85,0.011786,-0.0039287,-1.2821,0.015715,7.0262e-08,-0.64105,0,0,0.2,-0,-0,0.66667
0.94677,0.115,4.7338,-0.5775,-1.8577,1.5426,7.2901,-2.43,-0.81324,9.7202,1.63e-08,-0.40662,0,0,0.2,-9.4739e-16,0,0.66667
0.34939,0.57471,1.747,0.11206,3.2156,59.867,-0.52206,0.17402,-1.9543,-0.69608,9.6551e-13,-0.97717,0,0,0.2,-0,-0,0.66667
0.037035,0.09806,0.18518,-0.60291,-19.945,111.79,0.29772,-0.099239,-0.70734,0.39696,4.6485e-07,-0.35367,0,0,0.2,1.1842e-16,0,0.66667
0.24443,0.3046,1.2222,-0.2931,-9.0413,76.582,0.95524,-0.31841,-1.6939,1.2737,9.7579e-11,-0.84695,0,0,0.2,-0,-0,0.66667
0.96294,0.67631,4.8147,0.26446,0.50618,0.63823,-3.3955,1.1318,-1.7503,-4.5273,-1.3006e-08,-0.87517,0,0,0.2,9.4739e-16,0,0.66667
0.46377,0.11732,2.3189,-0.57402,-14.88,43.496,3.5495,-1.1832,-0.82793,4.7327,-5.7954e-14,-0.41396,0,0,0.2,-4.737e-16,0,0.66667
0.12421,0.10987,0.62106,-0.5852,-19.072,96.814,0.96919,-0.32306,-0.78276,1.2922,1.4004e-09,-0.39138,0,0,0.2,-2.3685e-16,2.3661e-16,0.66667
0.66748,0.057237,3.3374,-0.66414,-12.191,19.395,5.9107,-1.9702,-0.43158,7.881,9.8721e-13,-0.21579,0,0,0.2,-4.737e-16,0,0.66667
0.013877,0.98545,0.069385,0.72818,24.244,115.8,-0.13473,0.044911,-0.11468,-0.17964,7.5167e-07,-0.057342,0,0,0.2,2.9606e-17,-2.3572e-16,0.66667
0.79892,0.42357,3.9946,-0.11465,-1.3171,7.7349,1.2213,-0.4071,-1.9531,1.6284,-2.1005e-10,-0.97657,0,0,0.2,-9.4739e-16,0,0.66667
0.53493,0.28333,2.6747,-0.32501,-7.5796,33.879,2.3181,-0.77271,-1.625,3.0908,5.6821e-13,-0.81251,0,0,0.2,-0,-0,0.66667
0.85021,0.49177,4.251,-0.012342,-0.10682,4.6142,0.13991,-0.046637,-1.9987,0.18655,2.4381e-09,-0.99933,0,0,0.2,1.8948e-15,0,0.66667
0.2292,0.39748,1.146,-0.15379,-4.771,79.052,0.46997,-0.15666,-1.9152,0.62663,1.073e-10,-0.95761,0,0,0.2,-2.3685e-16,0,0.66667
0.090134,0.75312,0.45067,0.37968,12.388,102.6,-0.45629,0.1521,-1.4879,-0.60838,-3.6623e-09,-0.74394,0,0,0.2,2.3685e-16,0,0.66667
0.6928,0.87025,3.464,0.55538,9.4808,16.769,-5.1302,1.7101,-0.90311,-6.8402,-8.4821e-13,-0.45155,0,0,0.2,-4.737e-16,0,0.66667
0.81499,0.88573,4.075,0.57859,6.3395,7.2696,-6.2873,2.0958,-0.80958,-8.383,4.8664e-10,-0.40479,0,0,0.2,-0,-0,0.66667
0.63154,0.75341,3.1577,0.38012,7.4522,22.66,-3.2008,1.0669,-1.4861,-4.2678,-3.3287e-12,-0.74305,0,0,0.2,1.8948e-15,0,0.66667
0.77283,0.25272,3.8641,-0.37091,-4.816,9.7954,3.822,-1.274,-1.5108,5.096,-1.6059e-10,-0.75538,0,0,0.2,-1.8948e-15,0,0.66667
0.63111,0.69567,3.1555,0.2935,5.7417,22.625,-2.4697,0.82325,-1.693,-3.293,-2.6799e-12,-0.84648,0,0,0.2,-0,-0,0.66667
0.89066,0.21171,4.4533,-0.43243,-2.8114,3.0645,5.1353,-1.7118,-1.3364,6.8471,-6.1446e-09,-0.66821,0,0,0.2,9.4739e-16,0,0.66667
0.99276,0.68328,4.9638,0.27491,-0.0065973,0.22674,-3.639,1.213,-1.731,-4.852,8.4478e-09,-0.86548,0,0,0.2,-0,-0,0.66667
0.17377,0.15252,0.86885,-0.52122,-16.692,88.398,1.2076,-0.40254,-1.035,1.6102,8.767e-10,-0.51748,0,0,0.2,2.9606e-16,0,0.66667
0.54939,0.89922,2.7469,0.59883,13.81,32.388,-4.3865,1.4622,-0.72519,-5.8487,1.6653e-13,-0.3626,0,0,0.2,-4.737e-16,0,0.66667
0.11999,0.51846,0.59997,0.027697,0.89382,97.442,-0.044314,0.014771,-1.9963,-0.059085,2.5499e-09,-0.99817,0,0,0.2,-0,-0,0.66667
0.76715,0.62586,3.8357,0.18879,2.4863,10.046,-1.9311,0.64369,-1.8749,-2.5748,1.419e-10,-0.93744,0,0,0.2,-0,-0,0.66667
0.22811,0.13594,1.1405,-0.54608,-17.106,79.371,1.6609,-0.55363,-0.93869,2.2145,5.7014e-11,-0.46935,0,0,0.2,-0,-0,0.66667
0.11092,0.93622,0.5546,0.65434,21.452,99.103,-0.96772,0.32257,-0.47917,-1.2903,3.0651e-08,-0.23959,0,0,0.2,2.8126e-16,0,0.66667
0.96882,0.67706,4.8441,0.2656,0.40796,0.53305,-3.4309,1.1436,-1.7501,-4.5745,-8.9159e-09,-0.87506,0,0,0.2,-0,-0,0.66667
0.44753,0.59294,2.2376,0.13941,3.6377,45.435,-0.83184,0.27728,-1.9314,-1.1091,2.7889e-13,-0.96568,0,0,0.2,-3.2215e-16,0,0.66667
0.82994,0.93803,4.1497,0.65705,6.7265,6.5475,-7.2708,2.4236,-0.46657,-9.6944,-9.3551e-10,-0.23328,0,0,0.2,-0,-0,0.66667
0.025977,0.7558,0.12989,0.38369,12.616,113.69,-0.1329,0.044299,-1.4762,-0.1772,1.7574e-08,-0.7381,0,0,0.2,-0,-0,0.66667
0.090511,0.88705,0.45255,0.58058,19.058,102.58,-0.70065,0.23355,-0.80107,-0.9342,-4.1088e-09,-0.40053,0,0,0.2,-0,-0,0.66667
0.81523,0.42493,4.0761,-0.1126,-1.1947,6.6716,1.2239,-0.40798,-1.9546,1.6319,-1.9868e-10,-0.9773,0,0,0.2,-9.4739e-16,0,0.66667
0.90936,0.78987,4.5468,0.4348,2.3398,2.3518,-5.2719,1.7573,-1.3276,-7.0292,5.116e-09,-0.66382,0,0,0.2,-1.8948e-15,0,0.66667
0.068241,0.54807,0.3412,0.072099,2.3504,106.36,-0.065601,0.021867,-1.9804,-0.087467,4.3349e-08,-0.99021,0,0,0.2,-0,-0,0.66667
0.65027,0.57187,3.2514,0.1078,2.0123,20.502,-0.93469,0.31156,-1.9578,-1.2462,-9.0244e-13,-0.97891,0,0,0.2,-0,-0,0.66667
0.55332,0.81868,2.7666,0.47802,10.89,31.748,-3.5266,1.1755,-1.187,-4.7021,-8.1046e-14,-0.5935,0,0,0.2,-1.8948e-15,0,0.66667
0.20654,0.83462,1.0327,0.50193,15.856,82.913,-1.3822,0.46075,-1.1039,-1.843,-2.0375e-10,-0.55196,0,0,0.2,-0,-0,0.66667
0.4248,0.36788,2.124,-0.19818,-5.3065,48.682,1.1225,-0.37417,-1.8604,1.4967,-1.6711e-12,-0.9302,0,0,0.2,-0,-0,0.66667
0.4726,0.24122,2.363,-0.38816,-9.8831,42.102,2.446,-0.81532,-1.4639,3.2613,-2.5979e-13,-0.73194,0,0,0.2,-4.737e-16,0,0.66667
0.011484,0.19768,0.05742,-0.45348,-14.946,116.2,0.069437,-0.023146,-1.2682,0.092583,3.99e-08,-0.63412,0,0,0.2,-0,-0,0.66667
0.54494,0.030193,2.7247,-0.70471,-16.466,33.102,5.1204,-1.7068,-0.23564,6.8272,2.7134e-13,-0.11782,0,0,0.2,7.1054e-16,-3.0974e-17,0.66667
0.7824,0.56254,3.912,0.093817,1.159,8.8757,-0.9787,0.32623,-1.9706,-1.3049,5.9579e-11,-0.98532,0,0,0.2,1.8948e-15,0,0.66667
0.91446,0.69653,4.5723,0.2948,1.4638,1.9671,-3.5945,1.1982,-1.6901,-4.7926,-3.6657e-09,-0.84503,0,0,0.2,-1.8948e-15,0,0.66667
0.046043,0.5624,0.23022,0.093599,3.0596,110.2,-0.057461,0.019153,-1.9709,-0.076615,-4.1742e-07,-0.98546,0,0,0.2,-2.1279e-17,0,0.66667
0.79178,0.84718,3.9589,0.52077,6.3191,8.6767,-5.4978,1.8326,-1.0358,-7.3303,1.5951e-10,-0.51789,0,0,0.2,-0,-0,0.66667
0.43939,0.49438,2.1969,-0.0084251,-0.2217,46.563,0.049359,-0.016453,-2.0004,0.065811,-3.3566e-13,-1.0002,0,0,0.2,-4.737e-16,0,0.66667
0.70462,0.8257,3.5231,0.48855,8.0356,15.576,-4.5899,1.53,-1.1515,-6.1199,2.9505e-12,-0.57574,0,0,0.2,-0,-0,0.66667
0.60938,0.72096,3.0469,0.33144,6.7897,25.035,-2.693,0.89765,-1.6115,-3.5906,-2.2196e-12,-0.80573,0,0,0.2,-0,-0,0.66667
0.91416,0.091372,4.5708,-0.61294,-3.2384,2.5642,7.471,-2.4903,-0.66417,9.9614,7.2178e-08,-0.33208,0,0,0.2,1.1842e-15,0,0.66667
0.67954,0.21584,3.3977,-0.42624,-7.4788,17.832,3.862,-1.2873,-1.3539,5.1493,1.0492e-12,-0.67695,0,0,0.2,-9.4739e-16,0,0.66667
0.20458,0.61786,1.0229,0.17679,5.5491,83.139,-0.48224,0.16075,-1.8895,-0.64299,-2.9527e-10,-0.94474,0,0,0.2,2.3685e-16,0,0.66667
0.98969,0.11041,4.9485,-0.58438,-0.26551,0.84171,7.7115,-2.5705,-0.78473,10.282,-5.2937e-07,-0.39236,0,0,0.2,-0,-0,0.66667
0.80836,0.96883,4.0418,0.70325,8.0742,7.9758,-7.5797,2.5266,-0.24246,-10.106,1.9387e-11,-0.12123,0,0,0.2,-0,-0,0.66667
0.05115,0.84838,0.25575,0.52257,17.217,109.35,-0.3564,0.1188,-1.0291,-0.47519,7.8463e-09,-0.51453,0,0,0.2,1.1842e-16,0,0.66667
0.99025,0.55421,4.9512,0.081317,0.0057457,0.099437,-1.0736,0.35788,-1.9757,-1.4315,-1.2928e-07,-0.98787,0,0,0.2,9.4739e-16,0,0.66667
0.084374,0.42204,0.42187,-0.11695,-3.8039,103.57,0.13156,-0.043855,-1.9502,0.17542,-1.7361e-08,-0.9751,0,0,0.2,-0,-0,0.66667
0.41597,0.6851,2.0799,0.27765,7.5138,49.989,-1.5399,0.51332,-1.726,-2.0533,1.3167e-12,-0.863,0,0,0.2,5.9212e-16,0,0.66667
0.88805,0.48665,4.4402,-0.020019,-0.12937,2.8047,0.23704,-0.079013,-1.9983,0.31605,-2.0362e-09,-0.99914,0,0,0.2,-0,-0,0.66667
0.76211,0.85011,3.8106,0.52516,7.1819,10.836,-5.3365,1.7788,-1.0194,-7.1153,5.9359e-11,-0.50968,0,0,0.2,-1.8948e-15,0,0.66667
0.67305,0.223,3.3652,-0.4155,-7.4081,18.449,3.7287,-1.2429,-1.3873,4.9716,1.8092e-12,-0.69365,0,0,0.2,-1.8948e-15,0,0.66667
0.53369,0.95804,2.6685,0.68706,16.314,34.47,-4.889,1.6297,-0.32148,-6.5187,3.3262e-13,-0.16074,0,0,0.2,-0,-0,0.66667
0.34698,0.67441,1.7349,0.26161,7.5366,60.281,-1.2103,0.40344,-1.7561,-1.6138,2.0249e-12,-0.87807,0,0,0.2,-4.737e-16,0,0.66667
0.89994,0.24899,4.4997,-0.37652,-2.2216,2.6051,4.5179,-1.506,-1.4963,6.0239,-2.7972e-09,-0.74814,0,0,0.2,4.737e-16,0,0.66667
0.81896,0.76853,4.0948,0.40279,4.2542,6.7107,-4.3983,1.4661,-1.422,-5.8643,5.9409e-10,-0.71101,0,0,0.2,9.4739e-16,0,0.66667
0.94589,0.56327,4.7295,0.094906,0.2786,0.88134,-1.1969,0.39898,-1.9683,-1.5959,-2.1827e-07,-0.98414,0,0,0.2,3.7896e-15,0,0.66667
0.39956,0.6123,1.9978,0.16845,4.6254,52.34,-0.89743,0.29914,-1.898,-1.1966,1.2833e-12,-0.94898,0,0,0.2,-0,-0,0.66667
0.23362,0.88896,1.1681,0.58343,18.252,78.488,-1.8174,0.60579,-0.79014,-2.4232,-2.8275e-11,-0.39507,0,0,0.2,-4.737e-16,0,0.66667
0.72322,0.45298,3.6161,-0.070529,-1.0805,13.558,0.6801,-0.2267,-1.9814,0.90681,-1.1832e-11,-0.99072,0,0,0.2,9.4739e-16,0,0.66667
0.6891,0.71709,3.4455,0.32564,5.546,16.805,-2.9919,0.99731,-1.6244,-3.9892,2.593e-12,-0.81219,0,0,0.2,1.1842e-15,0,0.66667
0.54337,0.36183,2.7168,-0.20725,-4.7571,32.749,1.5015,-0.50051,-1.8467,2.002,3.7381e-13,-0.92334,0,0,0.2,9.4739e-16,0,0.66667
0.53711,0.91797,2.6855,0.62695,14.759,33.949,-4.4899,1.4966,-0.60142,-5.9865,-6.9278e-14,-0.30071,0,0,0.2,9.4739e-16,0,0.66667
0.80969,0.85471,4.0485,0.53207,5.954,7.5108,-5.7441,1.9147,-0.99318,-7.6588,2.4758e-10,-0.49659,0,0,0.2,1.8948e-15,0,0.66667
0.79958,0.93922,3.9979,0.65883,7.8328,8.438,-7.0238,2.3413,-0.45767,-9.3651,-3.4682e-11,-0.22884,0,0,0.2,-0,-0,0.66667
0.84777,0.23007,4.2389,-0.40489,-3.6289,5.0532,4.5767,-1.5256,-1.4165,6.1023,-1.2387e-09,-0.70824,0,0,0.2,-0,-0,0.66667
0.19036,0.017808,0.95181,-0.72329,-23.206,85.724,1.8358,-0.61194,-0.13953,2.4478,7.5472e-11,-0.069766,0,0,0.2,4.737e-16,0,0.66667
0.20027,0.21397,1.0014,-0.42905,-13.56,83.925,1.1457,-0.3819,-1.3459,1.5276,4.1068e-10,-0.67293,0,0,0.2,-2.3685e-16,0,0.66667
0.77366,0.37533,3.8683,-0.18701,-2.4002,9.5572,1.9291,-0.64303,-1.876,2.5721,-1.6677e-10,-0.93802,0,0,0.2,-1.8948e-15,0,0.66667
0.56553,0.59476,2.8277,0.14214,3.1427,30.007,-1.0718,0.35727,-1.9292,-1.4291,-3.6726e-13,-0.96459,0,0,0.2,-1.8948e-15,0,0.66667
0.2689,0.094748,1.3445,-0.60788,-18.676,72.774,2.1795,-0.72649,-0.6871,2.906,3.9868e-12,-0.34355,0,0,0.2,-0,-0,0.66667
0.47936,0.47423,2.3968,-0.038656,-0.96996,41.027,0.24706,-0.082354,-1.9944,0.32942,-3.5735e-13,-0.99721,0,0,0.2,-0,-0,0.66667
0.67466,0.39539,3.3733,-0.15692,-2.7622,18.069,1.4115,-0.47051,-1.9122,1.882,-8.1046e-13,-0.9561,0,0,0.2,-0,-0,0.66667
0.68423,0.27147,3.4212,-0.34279,-5.9187,17.285,3.1273,-1.0424,-1.5819,4.1698,-9.8788e-13,-0.79094,0,0,0.2,-9.4739e-16,0,0.66667
0.82139,0.41112,4.107,-0.13332,-1.3704,6.2979,1.4601,-0.48669,-1.9364,1.9468,-5.0097e-10,-0.9682,0,0,0.2,-1.8948e-15,0,0.66667
0.36466,0.0047454,1.8233,-0.74288,-21.462,57.975,3.612,-1.204,-0.037576,4.816,-4.6629e-14,-0.018788,0,0,0.2,-0,-0,0.66667
0.67275,0.24439,3.3637,-0.38341,-6.8309,18.44,3.4392,-1.1464,-1.4784,4.5856,1.3083e-12,-0.73918,0,0,0.2,1.4211e-15,0,0.66667
0.55308,0.35718,2.7654,-0.21423,-4.8419,31.553,1.5798,-0.52661,-1.8357,2.1064,7.9448e-13,-0.91784,0,0,0.2,-9.4739e-16,0,0.66667
0.40642,0.13019,2.0321,-0.55471,-15.29,51.587,3.0059,-1.002,-0.90741,4.0079,-1.2497e-12,-0.4537,0,0,0.2,-0,-0,0.66667
0.39796,0.34808,1.9898,-0.22788,-6.2723,52.596,1.2091,-0.40305,-1.815,1.6122,-2.2322e-12,-0.90751,0,0,0.2,9.4739e-16,0,0.66667
0.61288,0.81187,3.0644,0.4678,9.5694,24.794,-3.8227,1.2742,-1.2229,-5.097,-2.1909e-12,-0.61143,0,0,0.2,1.3915e-15,0,0.66667
0.061349,0.072785,0.30675,-0.64082,-21.179,107.6,0.52419,-0.17473,-0.54033,0.69892,3.0599e-07,-0.27016,0,0,0.2,1.1842e-16,2.0918e-16,0.66667
0.7645,0.67763,3.8225,0.26644,3.5548,10.307,-2.7159,0.90531,-1.7481,-3.6212,1.3786e-10,-0.87403,0,0,0.2,-0,-0,0.66667
0.23365,0.93904,1.1682,0.65856,20.666,78.532,-2.0516,0.68387,-0.45975,-2.7355,-5.4301e-12,-0.22987,0,0,0.2,-0,-0,0.66667
0.16594,0.55642,0.82969,0.084633,2.6947,89.619,-0.18725,0.062417,-1.974,-0.24967,-8.4916e-10,-0.98702,0,0,0.2,2.1668e-16,0,0.66667
0.42348,0.15657,2.1174,-0.51515,-13.933,49.083,2.9087,-0.96958,-1.0581,3.8783,-9.428e-13,-0.52906,0,0,0.2,-0,-0,0.66667
0.46845,0.72071,2.3422,0.33106,8.4582,42.627,-2.0678,0.68926,-1.6122,-2.7571,6.4837e-13,-0.80612,0,0,0.2,-0,-0,0.66667
0.27444,0.64514,1.3722,0.21771,6.5943,71.688,-0.79665,0.26555,-1.8304,-1.0622,-3.0086e-11,-0.9152,0,0,0.2,2.3685e-16,0,0.66667
0.31013,0.37143,1.5507,-0.19285,-5.705,65.992,0.79745,-0.26582,-1.8685,1.0633,3.9031e-12,-0.93426,0,0,0.2,-5.003e-16,0,0.66667
0.67315,0.48338,3.3657,-0.024926,-0.43985,18.182,0.22372,-0.074572,-1.998,0.29829,-2.5026e-13,-0.99899,0,0,0.2,-0,-0,0.66667
0.030054,0.92243,0.15027,0.63365,20.997,113,-0.25392,0.084639,-0.57262,-0.33855,3.6135e-07,-0.28631,0,0,0.2,-5.9212e-17,-2.3655e-16,0.66667
0.65518,0.84641,3.2759,0.51961,9.7278,20.374,-4.5392,1.5131,-1.0414,-6.0523,-2.5566e-12,-0.52072,0,0,0.2,-0,2.7202e-16,0.66667
0.52145,0.99389,2.6073,0.74083,17.969,36.105,-5.1508,1.7169,-0.048123,-6.8677,4.4187e-13,-0.024062,0,0,0.2,-1.4211e-15,0,0.66667
0.47871,0.60007,2.3935,0.15011,3.773,41.137,-0.95812,0.31937,-1.9194,-1.2775,3.9851e-13,-0.9597,0,0,0.2,-0,-0,0.66667
0.72049,0.077973,3.6024,-0.63304,-10.041,14.429,6.0813,-2.0271,-0.57513,8.1084,-1.2164e-12,-0.28756,0,0,0.2,-0,-0,0.66667
0.68825,0.062768,3.4413,-0.65585,-11.416,17.381,6.0185,-2.0062,-0.47269,8.0247,1.0751e-12,-0.23635,0,0,0.2,-1.8948e-15,0,0.66667
0.064811,0.85186,0.32405,0.52779,17.364,106.99,-0.45609,0.15203,-1.0097,-0.60812,-4.0869e-09,-0.50486,0,0,0.2,-0,-0,0.66667
0.80024,0.17718,4.0012,-0.48423,-5.6399,8.04,5.1667,-1.7222,-1.1659,6.8889,-2.574e-10,-0.58295,0,0,0.2,9.4739e-16,0,0.66667
0.039175,0.31591,0.19588,-0.27613,-9.051,111.4,0.14423,-0.048078,-1.7287,0.19231,-2.6775e-09,-0.86435,0,0,0.2,-0,-0,0.66667
0.027013,0.73317,0.13506,0.34976,11.49,113.51,-0.12597,0.041991,-1.5642,-0.16796,9.1165e-09,-0.78212,0,0,0.2,-0,-0,0.66667
0.52587,0.23344,2.6293,-0.39983,-9.4753,35.091,2.8035,-0.93449,-1.4305,3.7379,4.2255e-13,-0.71527,0,0,0.2,-0,-0,0.66667
0.7348,0.49708,3.674,-0.0043849,-0.064684,12.564,0.04296,-0.01432,-2.0016,0.05728,-5.6922e-12,-1.0008,0,0,0.2,1.1842e-15,0,0.66667
0.50557,0.70884,2.5279,0.31326,7.6222,37.64,-2.1117,0.70391,-1.6502,-2.8156,-3.2219e-13,-0.82511,0,0,0.2,4.737e-16,0,0.66667
0.29367,0.9591,1.4683,0.68866,20.913,68.886,-2.6965,0.89883,-0.31349,-3.5953,4.5675e-13,-0.15675,0,0,0.2,2.3685e-16,-2.0216e-16,0.66667
0.18618,0.37326,0.93091,-0.19011,-6.0135,86.219,0.47193,-0.15731,-1.873,0.62924,2.3556e-10,-0.9365,0,0,0.2,-2.9606e-16,0,0.66667
0.66274,0.91465,3.3137,0.62198,11.513,19.785,-5.4962,1.8321,-0.62368,-7.3282,-1.4753e-12,-0.31184,0,0,0.2,1.8948e-15,0,0.66667
0.94213,0.57844,4.7106,0.11766,0.37388,0.98636,-1.478,0.49268,-1.9499,-1.9707,-6.8201e-08,-0.97493,0,0,0.2,-0,-0,0.66667
0.15878,0.65999,0.79389,0.23998,7.672,90.849,-0.50805,0.16935,-1.7959,-0.67739,-9.7099e-10,-0.89795,0,0,0.2,4.737e-16,0,0.66667
0.27586,0.95722,1.3793,0.68583,21.056,71.718,-2.5226,0.84088,-0.32665,-3.3635,7.5806e-13,-0.16332,0,0,0.2,-0,-0,0.66667
0.99109,0.69236,4.9555,0.28855,0.027163,0.25964,-3.813,1.271,-1.7036,-5.084,7.814e-09,-0.85179,0,0,0.2,-0,-0,0.66667
0.83374,0.1849,4.1687,-0.47265,-4.6371,5.9434,5.2542,-1.7514,-1.2058,7.0056,-4.0914e-10,-0.6029,0,0,0.2,1.1842e-15,0,0.66667
0.75016,0.47517,3.7508,-0.037248,-0.52125,11.309,0.37256,-0.12419,-1.9964,0.49675,-1.978e-11,-0.99818,0,0,0.2,-1.8948e-15,0,0.66667
0.042073,0.27303,0.21037,-0.34046,-11.171,110.9,0.19099,-0.063664,-1.5873,0.25465,-1.8953e-08,-0.79365,0,0,0.2,5.9212e-17,0,0.66667
0.027017,0.59236,0.13509,0.13854,4.5364,113.5,-0.049904,0.016635,-1.9324,-0.066539,-2.7469e-07,-0.96618,0,0,0.2,1.1102e-17,0,0.66667
0.48721,0.38564,2.4361,-0.17154,-4.2659,39.999,1.1144,-0.37145,-1.8951,1.4858,-6.174e-13,-0.94756,0,0,0.2,9.4739e-16,0,0.66667
0.032196,0.75526,0.16098,0.38289,12.585,112.61,-0.16437,0.054789,-1.4798,-0.21916,2.0615e-08,-0.73991,0,0,0.2,-0,-0,0.66667
0.10153,0.068736,0.50763,-0.6469,-21.244,100.71,0.87569,-0.2919,-0.51146,1.1676,-5.2282e-08,-0.25573,0,0,0.2,-2.3685e-16,0,0.66667
0.56329,0.20885,2.8165,-0.43673,-9.7702,30.49,3.2801,-1.0934,-1.3225,4.3735,8.1979e-13,-0.66123,0,0,0.2,-0,-0,0.66667
0.4278,0.23171,2.139,-0.40244,-10.792,48.367,2.2955,-0.76518,-1.4231,3.0607,-1.4362e-12,-0.71153,0,0,0.2,-0,-0,0.66667
0.79087,0.71861,3.9543,0.32791,3.939,8.4515,-3.4578,1.1526,-1.6182,-4.6103,3.152e-10,-0.80912,0,0,0.2,1.3027e-15,0,0.66667
0.27399,0.50562,1.3699,0.0084336,0.25509,71.731,-0.03081,0.01027,-1.9992,-0.041079,-1.3957e-12,-0.9996,0,0,0.2,-1.8948e-15,0,0.66667
0.27245,0.50798,1.3622,0.011964,0.36221,71.98,-0.04346,0.014487,-1.9987,-0.057947,-2.6019e-12,-0.99934,0,0,0.2,-0,-0,0.66667
0.40582,0.33431,2.0291,-0.24854,-6.7911,51.452,1.3448,-0.44827,-1.7812,1.7931,-2.023e-12,-0.8906,0,0,0.2,-0,-0,0.66667
0.67323,0.63754,3.3662,0.20631,3.6489,18.236,-1.8519,0.61731,-1.8489,-2.4693,2.8977e-13,-0.92443,0,0,0.2,-0,-0,0.66667
0.9815,0.87609,4.9075,0.56413,0.54649,0.88188,-7.3826,2.4609,-0.86952,-9.8434,-1.5789e-07,-0.43476,0,0,0.2,-3.7896e-15,-2.8596e-19,0.66667
0.39748,0.70174,1.9874,0.30262,8.3457,52.701,-1.6038,0.5346,-1.6732,-2.1384,1.3696e-12,-0.83659,0,0,0.2,-0,-0,0.66667
0.74457,0.49309,3.7229,-0.010359,-0.14782,11.757,0.10284,-0.03428,-1.9991,0.13712,-6.0625e-12,-0.99955,0,0,0.2,-4.737e-16,0,0.66667
0.85672,0.19742,4.2836,-0.45388,-3.8569,4.665,5.1846,-1.7282,-1.2674,6.9129,-2.1135e-09,-0.6337,0,0,0.2,-0,-0,0.66667
0.67501,0.62333,3.375,0.185,3.2556,18.05,-1.665,0.55501,-1.8792,-2.22,5.9741e-13,-0.93958,0,0,0.2,3.5527e-16,0,0.66667
0.77949,0.11469,3.8974,-0.57797,-7.4229,9.6493,6.0069,-2.0023,-0.81244,8.0092,-8.5017e-11,-0.40622,0,0,0.2,-0,-0,0.66667
0.81192,0.48144,4.0596,-0.027839,-0.30002,6.8595,0.30138,-0.10046,-1.9978,0.40184,-7.3732e-11,-0.9989,0,0,0.2,-0,-0,0.66667
0.59693,0.29305,2.9846,-0.31043,-6.5105,26.423,2.4707,-0.82357,-1.6569,3.2943,1.9922e-12,-0.82847,0,0,0.2,-0,-0,0.66667
0.439,0.91189,2.195,0.61784,16.51,46.992,-3.6164,1.2055,-0.64354,-4.8218,4.0123e-13,-0.32177,0,0,0.2,-0,-0,0.66667
0.16875,0.6492,0.84375,0.22381,7.1289,89.16,-0.50357,0.16786,-1.8219,-0.67142,-5.2824e-10,-0.91095,0,0,0.2,-1.8504e-17,0,0.66667
0.78139,0.85571,3.907,0.53357,6.7724,9.4273,-5.559,1.853,-0.98857,-7.412,8.7889e-11,-0.49428,0,0,0.2,1.8948e-15,0,0.66667
0.19409,0.21275,0.97046,-0.43088,-13.653,84.957,1.1151,-0.37169,-1.3393,1.4867,4.4906e-10,-0.66967,0,0,0.2,2.3685e-16,0,0.66667
0.99872,0.067145,4.9936,-0.64928,0.039556,0.94496,8.646,-2.882,-0.50211,11.528,-2.5703e-06,-0.25105,0,0,0.2,-0,-0,0.66667
0.5426,0.83692,2.713,0.50537,11.725,33.1,-3.6562,1.2187,-1.0916,-4.875,-1.4677e-13,-0.5458,0,0,0.2,-0,-0,0.66667
0.0093665,0.55067,0.046832,0.076006,2.4894,116.57,-0.0094926,0.0031646,-1.9784,-0.012657,5.3596e-07,-0.9892,0,0,0.2,-0,-0,0.66667
0.4188,0.72064,2.094,0.33096,8.9417,49.611,-1.8481,0.61603,-1.6114,-2.4641,1.3369e-12,-0.80568,0,0,0.2,-0,-0,0.66667
0.24105,0.44452,1.2053,-0.083227,-2.5651,77.093,0.26749,-0.089164,-1.9747,0.35666,4.5412e-11,-0.98734,0,0,0.2,-4.737e-16,0,0.66667
0.053138,0.55421,0.26569,0.081314,2.6559,108.97,-0.057611,0.019204,-1.9757,-0.076815,-8.5984e-10,-0.98785,0,0,0.2,-5.9212e-17,0,0.66667
0.71613,0.503,3.5807,0.0045025,0.070483,14.17,-0.042992,0.014331,-2.0007,-0.057322,1.9828e-14,-1.0003,0,0,0.2,-0,-0,0.66667
0.31649,0.553,1.5825,0.079499,2.3387,64.97,-0.33548,0.11183,-1.977,-0.4473,-1.1984e-12,-0.98852,0,0,0.2,2.3685e-16,0,0.66667
0.82107,0.47779,4.1053,-0.033312,-0.34243,6.2872,0.36469,-0.12156,-1.9951,0.48625,-1.3923e-10,-0.99756,0,0,0.2,-0,-0,0.66667
0.76442,0.10543,3.8221,-0.59186,-8.0701,10.787,6.0324,-2.0108,-0.75483,8.0431,-2.9973e-11,-0.37741,0,0,0.2,-0,-2.5483e-16,0.66667
0.065672,0.63317,0.32836,0.19975,6.5213,106.81,-0.1749,0.058301,-1.858,-0.23321,-2.9912e-09,-0.929,0,0,0.2,-0,-0,0.66667
0.71272,0.63446,3.5636,0.20169,3.1988,14.537,-1.9167,0.63889,-1.8545,-2.5556,1.6827e-11,-0.92724,0,0,0.2,-0,-0,0.66667
0.19497,0.38152,0.97484,-0.17772,-5.6011,84.744,0.46201,-0.154,-1.887,0.61601,3.7635e-10,-0.94352,0,0,0.2,-0,-0,0.66667
0.77656,0.66816,3.8828,0.25223,3.207,9.3939,-2.6116,0.87055,-1.773,-3.4822,1.8819e-10,-0.88648,0,0,0.2,-0,-0,0.66667
0.25043,0.5076,1.2521,0.011397,0.34942,75.555,-0.038055,0.012685,-2.0006,-0.05074,8.4264e-13,-1.0003,0,0,0.2,-0,-0,0.66667
0.40375,0.97453,2.0187,0.7118,19.818,52.155,-3.8318,1.2773,-0.19894,-5.1091,-4.7962e-14,-0.09947,0,0,0.2,-0,-0,0.66667
0.8833,0.82686,4.4165,0.49029,3.4282,3.4802,-5.7742,1.9247,-1.1441,-7.699,2.2667e-09,-0.57204,0,0,0.2,-1.8948e-15,0,0.66667
0.65698,0.97919,3.2849,0.71879,13.584,20.552,-6.2964,2.0988,-0.16361,-8.3952,-7.7272e-14,-0.081806,0,0,0.2,-0,-0,0.66667
0.081501,0.95598,0.4075,0.68396,22.58,104.15,-0.74325,0.24775,-0.33615,-0.991,-1.9411e-09,-0.16807,0,0,0.2,-0,-0,0.66667
0.13451,0.37497,0.67253,-0.18754,-6.0358,94.97,0.33635,-0.11212,-1.8755,0.44846,3.6915e-09,-0.93775,0,0,0.2,3.6545e-17,0,0.66667
0.007682,0.092827,0.03841,-0.61076,-20.237,116.87,0.062557,-0.020852,-0.67394,0.08341,1.0999e-06,-0.33697,0,0,0.2,-4.6259e-18,0,0.66667
0.98219,0.018289,4.911,-0.72257,-0.81998,1.3183,9.4626,-3.1542,-0.14349,12.617,3.8407e-07,-0.071743,0,0,0.2,-0,-2.2996e-16,0.66667
0.047674,0.90892,0.23837,0.61338,20.281,109.96,-0.3899,0.12997,-0.66383,-0.51987,-3.7314e-07,-0.33191,0,0,0.2,-0,-0,0.66667
0.10538,0.80014,0.52689,0.45022,14.673,99.997,-0.63257,0.21086,-1.2786,-0.84343,-2.6545e-09,-0.63931,0,0,0.2,1.1842e-16,0,0.66667
0.45747,0.79156,2.2873,0.43734,11.359,44.223,-2.6676,0.88918,-1.3193,-3.5567,4.2788e-13,-0.65965,0,0,0.2,-0,-0,0.66667
0.054401,0.030179,0.272,-0.70473,-23.373,108.81,0.51117,-0.17039,-0.23438,0.68156,-1.8986e-06,-0.11719,0,0,0.2,1.1842e-16,0,0.66667
0.28909,0.93075,1.4454,0.64612,19.64,69.576,-2.4905,0.83015,-0.51497,-3.3206,8.9884e-13,-0.25748,0,0,0.2,-6.5674e-17,0,0.66667
0.67797,0.15526,3.3899,-0.5171,-9.1557,18.112,4.6744,-1.5581,-1.0496,6.2326,1.7462e-12,-0.5248,0,0,0.2,-5.9212e-17,0,0.66667
0.048629,0.10223,0.24315,-0.59665,-19.713,109.79,0.38686,-0.12895,-0.73459,0.51581,7.9019e-08,-0.3673,0,0,0.2,-0,-0,0.66667
0.45797,0.27436,2.2899,-0.33847,-8.7587,44.075,2.0668,-0.68892,-1.5923,2.7557,-9.448e-13,-0.79613,0,0,0.2,-0,-0,0.66667
0.57276,0.1317,2.8638,-0.55245,-12.226,29.505,4.2189,-1.4063,-0.91436,5.6252,6.7235e-13,-0.45718,0,0,0.2,-0,-0,0.66667
0.19927,0.979,0.99633,0.7185,22.965,84.24,-1.909,0.63633,-0.16393,-2.5453,1.211e-10,-0.081963,0,0,0.2,-4.737e-16,0,0.66667
0.18617,0.27618,0.93084,-0.33574,-10.647,86.253,0.83338,-0.27779,-1.6002,1.1112,6.1865e-10,-0.80008,0,0,0.2,-1.2661e-16,0,0.66667
0.10269,0.15264,0.51344,-0.52104,-17.028,100.47,0.71339,-0.2378,-1.0345,0.95119,1.8107e-08,-0.51727,0,0,0.2,1.4803e-16,0,0.66667
0.0688,0.62323,0.344,0.18485,6.0311,106.26,-0.16957,0.056522,-1.8787,-0.22609,-1.7059e-08,-0.93934,0,0,0.2,4.4409e-17,0,0.66667
0.16898,0.44195,0.84492,-0.087082,-2.7697,89.104,0.19621,-0.065403,-1.9735,0.26161,9.794e-10,-0.98674,0,0,0.2,-0,-0,0.66667
0.060817,0.56416,0.30408,0.09624,3.1409,107.64,-0.07804,0.026013,-1.9684,-0.10405,2.2469e-07,-0.98422,0,0,0.2,-0,-0,0.66667
0.55168,0.48582,2.7584,-0.02127,-0.48081,31.669,0.15645,-0.052151,-1.9975,0.2086,2.0949e-13,-0.99873,0,0,0.2,-9.4739e-16,0,0.66667
0.80791,0.36717,4.0395,-0.19925,-2.1986,7.1882,2.1464,-0.71545,-1.8584,2.8618,-4.2283e-10,-0.92918,0,0,0.2,9.4739e-16,0,0.66667
0.80434,0.79191,4.0217,0.43787,4.9843,7.6928,-4.6959,1.5653,-1.3172,-6.2612,3.9596e-10,-0.65862,0,0,0.2,1.8948e-15,0,0.66667
0.63118,0.95628,3.1559,0.68443,13.658,23.153,-5.76,1.92,-0.33335,-7.6799,1.6209e-13,-0.16668,0,0,0.2,-9.4739e-16,0,0.66667
0.54175,0.27632,2.7087,-0.33551,-7.7449,33.035,2.4235,-0.80784,-1.5995,3.2314,2.6468e-13,-0.79977,0,0,0.2,1.1842e-15,0,0.66667
0.46714,0.39516,2.3357,-0.15726,-4.0104,42.718,0.9795,-0.3265,-1.9122,1.306,-6.5392e-13,-0.95612,0,0,0.2,4.737e-16,0,0.66667
0.96014,0.44631,4.8007,-0.080539,-0.16333,0.55752,1.031,-0.34368,-1.976,1.3747,-8.0341e-09,-0.98802,0,0,0.2,-0,-0,0.66667
0.2899,0.52914,1.4495,0.043714,1.3093,69.18,-0.16897,0.056322,-1.9933,-0.22529,-4.2464e-12,-0.99663,0,0,0.2,-1.1842e-16,0,0.66667
0.36643,0.44034,1.8322,-0.089489,-2.531,57.266,0.43722,-0.14574,-1.9714,0.58296,-1.0152e-12,-0.98572,0,0,0.2,-0,-0,0.66667
0.57534,0.97488,2.8767,0.71232,15.844,29.458,-5.4644,1.8215,-0.19615,-7.2858,1.0569e-13,-0.098073,0,0,0.2,-0,-0,0.66667
0.51258,0.54727,2.5629,0.07091,1.7016,36.621,-0.48463,0.16154,-1.9816,-0.64617,-5.59e-14,-0.99082,0,0,0.2,-0,-0,0.66667
0.67424,0.021483,3.3712,-0.71778,-13.014,18.846,6.4527,-2.1509,-0.16816,8.6036,3.2063e-13,-0.084078,0,0,0.2,-0,-0,0.66667
0.77467,0.9113,3.8734,0.61695,8.1072,10.078,-6.3724,2.1241,-0.64626,-8.4965,4.2236e-11,-0.32313,0,0,0.2,-0,-0,0.66667
0.18244,0.86178,0.9122,0.54267,17.336,86.952,-1.3201,0.44002,-0.95195,-1.7601,-5.6958e-10,-0.47598,0,0,0.2,-0,-0,0.66667
0.6289,0.1619,3.1445,-0.50715,-10.058,23.102,4.2526,-1.4175,-1.0855,5.6701,2.1383e-12,-0.54274,0,0,0.2,-0,-0,0.66667
0.69402,0.58745,3.4701,0.13118,2.1923,16.206,-1.2139,0.40463,-1.9382,-1.6185,4.7252e-12,-0.96912,0,0,0.2,-0,-0,0.66667
0.27231,0.79202,1.3615,0.43804,13.35,72.119,-1.5904,0.53014,-1.3167,-2.1205,-2.2572e-11,-0.65837,0,0,0.2,-0,-0,0.66667
0.92808,0.17284,4.6404,-0.49073,-2.1046,1.8476,6.0725,-2.0242,-1.1426,8.0967,-2.6474e-08,-0.5713,0,0,0.2,1.8948e-15,0,0.66667
0.34525,0.51288,1.7263,0.019322,0.55603,60.494,-0.088945,0.029648,-1.9988,-0.11859,3.0664e-13,-0.9994,0,0,0.2,-0,-0,0.66667
0.63808,0.87711,3.1904,0.56566,11.036,22.215,-4.8125,1.6042,-0.86328,-6.4167,-1.8154e-12,-0.43164,0,0,0.2,-0,-0,0.66667
0.9258,0.6681,4.629,0.25216,1.0706,1.5514,-3.1126,1.0375,-1.7733,-4.1501,-1.0748e-08,-0.88664,0,0,0.2,-0,-0,0.66667
0.98063,0.70771,4.9032,0.31157,0.24805,0.41088,-4.0738,1.3579,-1.6543,-5.4318,1.5767e-10,-0.82715,0,0,0.2,-0,-0,0.66667
0.24873,0.16139,1.2436,-0.50792,-15.723,75.975,1.6844,-0.56148,-1.0837,2.2459,3.3352e-11,-0.54184,0,0,0.2,-0,-0,0.66667
0.94195,0.0028303,4.7098,-0.74575,-2.7973,2.126,9.3662,-3.1221,-0.022851,12.488,-1.1026e-06,-0.011426,0,0,0.2,-0,-0,0.66667
0.90908,0.0056606,4.5454,-0.74151,-4.2805,3.0908,8.9879,-2.996,-0.045304,11.984,-1.0154e-07,-0.022652,0,0,0.2,3.7896e-15,0,0.66667
0.25098,0.69021,1.2549,0.28532,8.7692,75.511,-0.95478,0.31826,-1.712,-1.273,-7.9397e-11,-0.85602,0,0,0.2,9.4739e-16,0,0.66667
0.10105,0.12034,0.50526,-0.5695,-18.649,100.77,0.76732,-0.25577,-0.84644,1.0231,-4.5294e-09,-0.42322,0,0,0.2,5.9212e-17,0,0.66667
0.36236,0.45733,1.8118,-0.064002,-1.8162,57.881,0.30922,-0.10307,-1.9851,0.4123,-1.1551e-12,-0.99254,0,0,0.2,-0,-0,0.66667
0.92363,0.63064,4.6181,0.19596,0.85311,1.5672,-2.4132,0.80441,-1.8641,-3.2176,1.8586e-08,-0.93207,0,0,0.2,1.8948e-15,0,0.66667
0.84527,0.95444,4.2263,0.68165,6.4184,5.7532,-7.6824,2.5608,-0.34799,-10.243,1.8193e-09,-0.17399,0,0,0.2,9.4739e-16,0,0.66667
0.25812,0.29777,1.2906,-0.30335,-9.29,74.354,1.044,-0.348,-1.6716,1.392,6.1995e-11,-0.83579,0,0,0.2,1.6802e-16,0,0.66667
0.27562,0.96631,1.3781,0.69947,21.491,71.769,-2.5705,0.85683,-0.26057,-3.4273,2.085e-12,-0.13028,0,0,0.2,-7.1054e-16,0,0.66667
0.29828,0.38595,1.4914,-0.17108,-5.1007,67.862,0.68039,-0.2268,-1.8962,0.90718,9.0683e-12,-0.94811,0,0,0.2,-0,-0,0.66667
0.081417,0.65253,0.40709,0.22879,7.4547,104.09,-0.24836,0.082788,-1.8143,-0.33115,3.4335e-09,-0.90716,0,0,0.2,-1.4803e-16,0,0.66667
0.16833,0.73778,0.84167,0.35666,11.391,89.259,-0.80051,0.26684,-1.5471,-1.0674,-9.0776e-10,-0.77357,0,0,0.2,2.3685e-16,0,0.66667
0.61444,0.93696,3.0722,0.65544,13.509,24.91,-5.3697,1.7899,-0.47311,-7.1596,-3.0687e-13,-0.23656,0,0,0.2,-1.2138e-15,0,0.66667
0.4924,0.90732,2.462,0.61098,15.308,39.681,-4.0113,1.3371,-0.67294,-5.3484,-5.7732e-15,-0.33647,0,0,0.2,-0,-0,0.66667
0.41191,0.2003,2.0595,-0.44955,-12.274,50.693,2.4689,-0.82298,-1.2804,3.2919,-1.8177e-12,-0.64021,0,0,0.2,-0,-0,0.66667
0.5157,0.56419,2.5785,0.096291,2.3008,36.221,-0.6621,0.2207,-1.9691,-0.8828,-6.3349e-13,-0.98457,0,0,0.2,1.8948e-15,0,0.66667
0.88736,0.49583,4.4368,-0.0062554,-0.040674,2.833,0.074011,-0.02467,-2.0002,0.098682,-6.0774e-09,-1.0001,0,0,0.2,-4.737e-16,0,0.66667
0.9551,0.1493,4.7755,-0.52605,-1.3834,1.2364,6.6991,-2.233,-1.0165,8.9321,-2.0464e-08,-0.50824,0,0,0.2,9.4739e-16,0,0.66667
0.25568,0.73144,1.2784,0.34715,10.656,74.768,-1.1835,0.39448,-1.5705,-1.5779,-6.2565e-11,-0.78523,0,0,0.2,-0,-0,0.66667
0.23367,0.23431,1.1683,-0.39854,-12.392,78.386,1.2417,-0.41388,-1.4357,1.6555,1.2768e-10,-0.71785,0,0,0.2,-0,-0,0.66667
0.070154,0.19109,0.35077,-0.46336,-15.202,106.06,0.43342,-0.14447,-1.2364,0.57789,-7.7039e-09,-0.61819,0,0,0.2,-0,-0,0.66667
0.2597,0.13872,1.2985,-0.54193,-16.695,74.214,1.8765,-0.6255,-0.95469,2.502,1.8273e-11,-0.47734,0,0,0.2,-4.737e-16,0,0.66667
0.17421,0.29027,0.87106,-0.31459,-10.017,88.257,0.73074,-0.24358,-1.6482,0.97432,7.8451e-10,-0.82409,0,0,0.2,-0,-0,0.66667
0.027562,0.31251,0.13781,-0.28124,-9.2266,113.41,0.10336,-0.034452,-1.7198,0.13781,-8.9843e-09,-0.8599,0,0,0.2,-1.1842e-16,0,0.66667
0.17447,0.00024811,0.87235,-0.74963,-24.227,88.393,1.7438,-0.58128,-0.0032994,2.3251,-6.3288e-11,-0.0016497,0,0,0.2,-0,-0,0.66667
0.78046,0.34589,3.9023,-0.23116,-2.8899,9.0932,2.4055,-0.80182,-1.8117,3.2073,-2.2731e-10,-0.90584,0,0,0.2,1.8948e-15,0,0.66667
0.92026,0.96037,4.6013,0.69055,3.4631,2.5715,-8.4732,2.8244,-0.3049,-11.298,1.3979e-07,-0.15245,0,0,0.2,-0,-0,0.66667
0.72159,0.58927,3.6079,0.1339,2.0638,13.721,-1.2883,0.42943,-1.9367,-1.7177,2.0237e-11,-0.96835,0,0,0.2,-9.4739e-16,0,0.66667
0.29842,0.88849,1.4921,0.58273,17.56,68.046,-2.3186,0.77288,-0.79272,-3.0915,6.275e-13,-0.39636,0,0,0.2,-0,-0,0.66667
0.63146,0.25681,3.1573,-0.36478,-7.1486,22.654,3.0713,-1.0238,-1.5262,4.095,2.7285e-12,-0.76311,0,0,0.2,-0,-0,0.66667
0.77018,0.0001895,3.8509,-0.74972,-10.166,10.718,7.6989,-2.5663,-0.0022883,10.265,6.377e-11,-0.0011442,0,0,0.2,3.7896e-15,0,0.66667
0.4425,0.25967,2.2125,-0.3605,-9.5019,46.251,2.1269,-0.70898,-1.5372,2.8359,-8.3977e-13,-0.7686,0,0,0.2,-0,-0,0.66667
0.61945,0.28477,3.0972,-0.32285,-6.4788,23.914,2.6665,-0.88882,-1.6294,3.5553,2.8089e-12,-0.81468,0,0,0.2,-1.8948e-15,0,0.66667
0.57375,0.57005,2.8687,0.10507,2.2893,29.013,-0.80379,0.26793,-1.9604,-1.0717,-1.0659e-12,-0.98018,0,0,0.2,1.8948e-15,0,0.66667
0.90274,0.61167,4.5137,0.16751,0.94043,2.2706,-2.0162,0.67206,-1.8996,-2.6883,-4.1026e-09,-0.94982,0,0,0.2,-0,-0,0.66667
0.75239,0.17289,3.762,-0.49067,-6.9331,11.531,4.9223,-1.6408,-1.1437,6.5631,-4.9289e-11,-0.57186,0,0,0.2,-0,-0,0.66667
0.26495,0.048723,1.3248,-0.67692,-20.907,73.462,2.3914,-0.79712,-0.37127,3.1885,2.3299e-12,-0.18563,0,0,0.2,-0,-0,0.66667
0.22937,0.136,1.1468,-0.546,-17.093,79.164,1.6698,-0.55659,-0.9392,2.2264,5.391e-11,-0.4696,0,0,0.2,4.737e-16,0,0.66667
0.6936,0.33972,3.468,-0.24042,-4.0327,16.308,2.2234,-0.74113,-1.7943,2.9645,-5.7401e-12,-0.89714,0,0,0.2,-9.4739e-16,0,0.66667
0.23301,0.65629,1.1651,0.23443,7.2667,78.44,-0.72833,0.24278,-1.8064,-0.97111,-1.2694e-10,-0.90322,0,0,0.2,-0,-0,0.66667
0.62193,0.28459,3.1096,-0.32311,-6.4509,23.643,2.6793,-0.89311,-1.6294,3.5724,2.3188e-12,-0.81468,0,0,0.2,-0,-0,0.66667
0.25494,0.67987,1.2747,0.26981,8.2721,74.861,-0.91713,0.30571,-1.7406,-1.2228,-6.7915e-11,-0.87032,0,0,0.2,-0,-0,0.66667
0.92042,0.50062,4.6021,0.00092674,0.0041795,1.5912,-0.011373,0.0037912,-2.0017,-0.015164,1.9435e-07,-1.0008,0,0,0.2,-0,-0,0.66667
0.30256,0.49417,1.5128,-0.0087448,-0.2597,67.164,0.035277,-0.011759,-1.9993,0.047036,5.8388e-13,-0.99965,0,0,0.2,-0,-0,0.66667
0.84854,0.45807,4.2427,-0.062901,-0.55059,4.7105,0.71166,-0.23722,-1.9852,0.94888,-1.2432e-09,-0.99258,0,0,0.2,-0,-0,0.66667
0.22971,0.052843,1.1485,-0.67074,-21.1,79.186,2.0543,-0.68477,-0.39974,2.7391,8.4608e-12,-0.19987,0,0,0.2,2.3685e-16,-2.2617e-17,0.66667
0.5721,0.47714,2.8605,-0.034287,-0.74887,29.196,0.26154,-0.087179,-1.995,0.34872,6.8279e-15,-0.99752,0,0,0.2,1.8948e-15,0,0.66667
0.1889,0.92066,0.94451,0.631,20.175,85.914,-1.5893,0.52976,-0.58446,-2.1191,-2.4079e-11,-0.29223,0,0,0.2,-0,-0,0.66667
0.42001,0.78668,2.1,0.43001,11.637,49.507,-2.4081,0.80271,-1.3432,-3.2108,1.3771e-12,-0.6716,0,0,0.2,-9.4739e-16,0,0.66667
0.37624,0.11005,1.8812,-0.58493,-16.604,56.068,2.9343,-0.97811,-0.78368,3.9124,-8.3955e-13,-0.39184,0,0,0.2,-4.737e-16,0,0.66667
0.039037,0.31379,0.19518,-0.27932,-9.156,111.42,0.14538,-0.048461,-1.7228,0.19384,1.8055e-10,-0.8614,0,0,0.2,-0,-0,0.66667
0.12795,0.87577,0.63975,0.56366,18.338,96.17,-0.9616,0.32053,-0.87144,-1.2821,-4.305e-09,-0.43572,0,0,0.2,4.737e-16,0,0.66667
0.75376,0.24184,3.7688,-0.38724,-5.4085,11.271,3.8918,-1.2973,-1.4665,5.189,-8.3813e-11,-0.73326,0,0,0.2,4.737e-16,0,0.66667
0.41261,0.29163,2.0631,-0.31256,-8.4943,50.495,1.7195,-0.57318,-1.6517,2.2927,-1.9487e-12,-0.82583,0,0,0.2,-0,-0,0.66667
0.80409,0.41005,4.0204,-0.13493,-1.5135,7.3995,1.4466,-0.48219,-1.935,1.9288,-1.6536e-10,-0.96751,0,0,0.2,-1.8948e-15,0,0.66667
0.6699,0.66664,3.3495,0.24996,4.4632,18.594,-2.2326,0.7442,-1.7779,-2.9768,-7.3341e-13,-0.88897,0,0,0.2,-0,-0,0.66667
0.38282,0.14763,1.9141,-0.52855,-14.881,55.034,2.6979,-0.8993,-1.0058,3.5972,-1.6778e-12,-0.50289,0,0,0.2,-0,-0,0.66667
0.49483,0.50932,2.4742,0.013973,0.34356,38.949,-0.092189,0.03073,-1.9986,-0.12292,-1.8631e-13,-0.99928,0,0,0.2,1.8948e-15,0,0.66667
0.95056,0.12666,4.7528,-0.56,-1.6558,1.4134,7.0975,-2.3658,-0.886,9.4634,-1.7674e-08,-0.443,0,0,0.2,-0,-0,0.66667
0.94795,0.81977,4.7397,0.47965,1.4558,1.2971,-6.0625,2.0208,-1.1815,-8.0833,-1.8668e-08,-0.59073,0,0,0.2,-0,-0,0.66667
0.48498,0.57913,2.4249,0.1187,2.9584,40.281,-0.76755,0.25585,-1.9504,-1.0234,2.6701e-14,-0.9752,0,0,0.2,-0,-0,0.66667
0.71243,0.94193,3.5622,0.66289,10.796,15.194,-6.2969,2.099,-0.43731,-8.3958,-3.9524e-13,-0.21865,0,0,0.2,-0,-0,0.66667
0.74983,0.30181,3.7492,-0.29728,-4.1917,11.48,2.9721,-0.9907,-1.6866,3.9628,-8.2506e-11,-0.84332,0,0,0.2,-0,-0,0.66667
0.5106,0.31647,2.553,-0.2753,-6.6452,36.959,1.8742,-0.62474,-1.7305,2.499,6.5659e-13,-0.86524,0,0,0.2,-1.8948e-15,0,0.66667
0.44701,0.71743,2.2351,0.32615,8.545,45.594,-1.9439,0.64797,-1.6221,-2.5919,1.155e-12,-0.81103,0,0,0.2,-1.1842e-15,0,0.66667
0.76902,0.19985,3.8451,-0.45023,-5.9642,10.19,4.6165,-1.5388,-1.2787,6.1553,-1.0545e-10,-0.63937,0,0,0.2,-0,-0,0.66667
0.41563,0.8541,2.0781,0.53114,14.492,50.229,-2.9434,0.98115,-0.99595,-3.9246,5.6799e-13,-0.49798,0,0,0.2,-0,-0,0.66667
0.50009,0.39768,2.5004,-0.15349,-3.7509,38.278,1.0234,-0.34114,-1.9173,1.3646,-2.387e-14,-0.95866,0,0,0.2,-4.737e-16,0,0.66667
0.08748,0.21866,0.4374,-0.42201,-13.791,103.07,0.49223,-0.16408,-1.3673,0.6563,1.4999e-10,-0.68366,0,0,0.2,2.4055e-17,0,0.66667
0.90434,0.31461,4.5217,-0.27809,-1.5488,2.3097,3.3531,-1.1177,-1.7262,4.4709,8.7724e-10,-0.86311,0,0,0.2,3.7896e-15,0,0.66667
0.45473,0.95554,2.2736,0.68331,17.999,44.881,-4.1429,1.381,-0.33994,-5.5239,-1.3234e-13,-0.16997,0,0,0.2,4.737e-16,0,0.66667
0.59906,0.65771,2.9953,0.23657,4.9315,26.126,-1.8896,0.62986,-1.8014,-2.5194,-1.8847e-12,-0.90069,0,0,0.2,1.8948e-15,0,0.66667
0.070556,0.64267,0.35278,0.21401,6.9834,105.96,-0.20133,0.067109,-1.8359,-0.26844,-4.7712e-09,-0.91797,0,0,0.2,1.1842e-16,0,0.66667
0.52944,0.98419,2.6472,0.72629,17.397,35.07,-5.127,1.709,-0.12442,-6.836,-1.1546e-14,-0.062212,0,0,0.2,9.4739e-16,0,0.66667
0.22131,0.21307,1.1066,-0.43039,-13.475,80.435,1.27,-0.42334,-1.3417,1.6934,1.6902e-10,-0.67087,0,0,0.2,-2.3685e-16,0,0.66667
0.38519,0.50439,1.9259,0.0065848,0.18308,54.443,-0.033819,0.011273,-1.9997,-0.045091,-4.9356e-13,-0.99983,0,0,0.2,-0,-0,0.66667
0.56,0.28796,2.8,-0.31806,-7.1251,30.777,2.3749,-0.79162,-1.6406,3.1665,1.1009e-12,-0.82028,0,0,0.2,-0,-0,0.66667
0.81503,0.43318,4.0752,-0.10022,-1.0641,6.6789,1.0891,-0.36304,-1.9649,1.4522,2.5383e-11,-0.98243,0,0,0.2,-0,-0,0.66667
0.26284,0.84909,1.3142,0.52364,16.092,73.695,-1.8351,0.6117,-1.0254,-2.4468,-2.2305e-11,-0.51271,0,0,0.2,-0,-0,0.66667
0.72782,0.47373,3.6391,-0.039407,-0.59483,13.158,0.38241,-0.12747,-1.9941,0.50988,-8.4156e-12,-0.99704,0,0,0.2,-0,-0,0.66667
0.49204,0.3654,2.4602,-0.2019,-4.9914,39.365,1.3246,-0.44153,-1.8541,1.7661,-2.7101e-13,-0.92703,0,0,0.2,-0,-0,0.66667
0.30424,0.35736,1.5212,-0.21396,-6.3572,66.927,0.86796,-0.28932,-1.836,1.1573,6.302e-12,-0.91801,0,0,0.2,-0,-0,0.66667
0.29041,0.19412,1.452,-0.45881,-13.836,69.233,1.7766,-0.59219,-1.2509,2.3688,6.2699e-12,-0.62545,0,0,0.2,-9.4739e-16,0,0.66667
0.2411,0.039655,1.2055,-0.69052,-21.618,77.337,2.2198,-0.73993,-0.30382,2.9597,-1.8452e-13,-0.15191,0,0,0.2,-0,-0,0.66667
0.073163,0.15515,0.36582,-0.51727,-16.992,105.55,0.5046,-0.1682,-1.0491,0.67281,6.303e-08,-0.52457,0,0,0.2,2.2204e-17,0,0.66667
0.58112,0.341,2.9056,-0.2385,-5.1402,28.201,1.848,-0.61599,-1.7984,2.464,1.6319e-12,-0.89922,0,0,0.2,-9.4739e-16,0,0.66667
0.62494,0.43467,3.1247,-0.097991,-1.9345,23.184,0.81652,-0.27217,-1.9678,1.0887,1.1927e-12,-0.98388,0,0,0.2,-1.1842e-15,0,0.66667
0.23524,0.52149,1.1762,0.03224,0.99643,78.045,-0.10112,0.033708,-1.9969,-0.13483,-2.0576e-11,-0.99845,0,0,0.2,-0,-0,0.66667
0.56429,0.40065,2.8215,-0.14902,-3.3021,30.159,1.1212,-0.37374,-1.9217,1.4949,8.2701e-13,-0.96085,0,0,0.2,4.737e-16,0,0.66667
0.8726,0.7893,4.363,0.43395,3.2825,3.8579,-5.0488,1.6829,-1.3306,-6.7318,2.686e-09,-0.66529,0,0,0.2,1.8948e-15,0,0.66667
0.80766,0.36148,4.0383,-0.20778,-2.2962,7.2105,2.2375,-0.74584,-1.8456,2.9833,-4.3061e-10,-0.92279,0,0,0.2,-9.4739e-16,0,0.66667
0.40735,0.52843,2.0367,0.042652,1.161,51.174,-0.23166,0.077219,-1.9949,-0.30888,1.6098e-14,-0.99747,0,0,0.2,-2.3685e-16,0,0.66667
0.49622,0.41891,2.4811,-0.12163,-2.9869,38.78,0.80474,-0.26825,-1.9468,1.073,-3.5139e-13,-0.97338,0,0,0.2,9.4739e-16,0,0.66667
0.70639,0.042664,3.5319,-0.686,-11.391,15.78,6.4611,-2.1537,-0.32632,8.6149,-1.0836e-13,-0.16316,0,0,0.2,-0,-0,0.66667
0.57792,0.82615,2.8896,0.48922,10.697,28.811,-3.7698,1.2566,-1.1497,-5.0264,-6.295e-13,-0.57486,0,0,0.2,-9.4739e-16,-4.5179e-17,0.66667
0.75469,0.004817,3.7734,-0.74277,-10.649,11.872,7.4742,-2.4914,-0.038245,9.9656,-2.1035e-11,-0.019123,0,0,0.2,-0,-0,0.66667
0.95016,0.2406,4.7508,-0.3891,-1.0948,1.0799,4.9295,-1.6432,-1.4615,6.5726,2.1906e-08,-0.73074,0,0,0.2,-0,-0,0.66667
0.17702,0.42636,0.88512,-0.11047,-3.5038,87.75,0.26074,-0.086912,-1.9557,0.34765,2.2186e-10,-0.97787,0,0,0.2,-0,-0,0.66667
0.78926,0.94083,3.9463,0.66124,8.2252,9.1416,-6.9585,2.3195,-0.44519,-9.278,4.2666e-11,-0.22259,0,0,0.2,-1.8948e-15,0,0.66667
0.33497,0.19395,1.6748,-0.45907,-13.418,62.239,2.0503,-0.68344,-1.25,2.7338,-1.8321e-12,-0.62502,0,0,0.2,-0,-0,0.66667
0.56378,0.40497,2.8189,-0.14254,-3.161,30.218,1.0715,-0.35716,-1.9294,1.4286,8.7508e-13,-0.96469,0,0,0.2,-1.1842e-16,0,0.66667
0.20689,0.20808,1.0344,-0.43789,-13.803,82.827,1.2079,-0.40264,-1.3177,1.6106,2.9086e-10,-0.65886,0,0,0.2,-2.3685e-16,0,0.66667
0.74097,0.045532,3.7049,-0.6817,-10.178,12.817,6.735,-2.245,-0.34649,8.9799,-3.0567e-12,-0.17324,0,0,0.2,-0,-0,0.66667
0.98,0.51363,4.9,0.020449,0.015068,0.20877,-0.2672,0.089068,-1.9977,-0.35627,3.4302e-08,-0.99884,0,0,0.2,-0,-0,0.66667
0.83333,0.19865,4.1667,-0.45203,-4.4362,5.9315,5.0226,-1.6742,-1.2726,6.6967,-6.4766e-10,-0.6363,0,0,0.2,1.8948e-15,0,0.66667
0.62051,0.48939,3.1026,-0.015914,-0.31694,23.654,0.13166,-0.043888,-1.9984,0.17555,1.4753e-13,-0.9992,0,0,0.2,-0,-0,0.66667
0.49211,0.53688,2.4605,0.055317,1.3653,39.315,-0.36296,0.12099,-1.9886,-0.48395,3.3704e-13,-0.99429,0,0,0.2,-0,-0,0.66667
0.52358,0.46563,2.6179,-0.051553,-1.2174,35.2,0.35989,-0.11996,-1.9904,0.47986,-6.7835e-14,-0.9952,0,0,0.2,9.4739e-16,0,0.66667
0.93153,0.69868,4.6577,0.29802,1.1673,1.4323,-3.7015,1.2338,-1.6832,-4.9353,-2.5634e-09,-0.84161,0,0,0.2,1.8948e-15,0,0.66667
0.15835,0.40239,0.79174,-0.14642,-4.6762,90.91,0.30914,-0.10305,-1.9246,0.41219,8.3956e-10,-0.96229,0,0,0.2,3.5527e-16,0,0.66667
0.59051,0.34256,2.9525,-0.23616,-5.003,27.106,1.8594,-0.61981,-1.8026,2.4792,1.4401e-12,-0.9013,0,0,0.2,1.1842e-15,0,0.66667
0.63801,0.24598,3.19,-0.38104,-7.3663,21.975,3.2414,-1.0805,-1.4844,4.3218,3.024e-12,-0.74218,0,0,0.2,-9.4739e-16,0,0.66667
0.90792,0.27379,4.5396,-0.33932,-1.8295,2.2541,4.1077,-1.3692,-1.5911,5.4769,-1.733e-09,-0.79555,0,0,0.2,-0,-0,0.66667
0.2694,0.3406,1.347,-0.2391,-7.2663,72.507,0.85884,-0.28628,-1.7971,1.1451,3.9115e-11,-0.89856,0,0,0.2,-7.1054e-16,0,0.66667
0.71075,0.50843,3.5538,0.012651,0.20129,14.649,-0.11989,0.039964,-1.9985,-0.15986,1.9047e-12,-0.99927,0,0,0.2,-0,-0,0.66667
0.35033,0.7624,1.7516,0.3936,11.343,59.835,-1.8385,0.61283,-1.4481,-2.4513,2.746e-12,-0.72403,0,0,0.2,-0,-0,0.66667
0.36439,0.96919,1.8219,0.70378,20.296,57.971,-3.4193,1.1398,-0.23953,-4.5591,8.28e-13,-0.11976,0,0,0.2,-0,-0,0.66667
0.081405,0.23915,0.40703,-0.39128,-12.79,104.11,0.4247,-0.14157,-1.4552,0.56626,7.3788e-10,-0.72762,0,0,0.2,1.1842e-16,0,0.66667
0.3283,0.55945,1.6415,0.08917,2.6007,63.123,-0.39033,0.13011,-1.9735,-0.52044,2.4336e-13,-0.98676,0,0,0.2,-4.737e-16,0,0.66667
0.32443,0.42529,1.6221,-0.11206,-3.2783,63.731,0.48475,-0.16158,-1.9547,0.64633,8.8193e-13,-0.97737,0,0,0.2,-0,-0,0.66667
0.029581,0.22891,0.1479,-0.40663,-13.375,113.07,0.16038,-0.05346,-1.4123,0.21384,-3.4e-08,-0.70616,0,0,0.2,-5.9212e-17,0,0.66667
0.54957,0.33671,2.7478,-0.24494,-5.5711,32.002,1.7948,-0.59827,-1.7868,2.3931,7.0255e-13,-0.89341,0,0,0.2,-0,-0,0.66667
0.70674,0.3877,3.5337,-0.16844,-2.717,15.054,1.5873,-0.52909,-1.8985,2.1164,-1.1744e-11,-0.94926,0,0,0.2,1.8948e-15,0,0.66667
0.4985,0.88039,2.4925,0.57059,14.153,38.823,-3.7925,1.2642,-0.84323,-5.0567,1.4122e-13,-0.42162,0,0,0.2,-0,-2.9742e-16,0.66667
0.5273,0.29545,2.6365,-0.30682,-7.2346,34.831,2.1572,-0.71906,-1.6645,2.8762,2.9465e-13,-0.83227,0,0,0.2,9.4739e-16,0,0.66667
0.10581,0.53832,0.52907,0.057485,1.8614,99.876,-0.081103,0.027034,-1.9881,-0.10814,2.4451e-08,-0.99406,0,0,0.2,2.3685e-16,0,0.66667
0.68474,0.87934,3.4237,0.56901,9.933,17.549,-5.195,1.7317,-0.8493,-6.9267,-1.6556e-12,-0.42465,0,0,0.2,-0,4.5708e-18,0.66667
0.47114,0.11289,2.3557,-0.58066,-14.923,42.496,3.6477,-1.2159,-0.801,4.8635,-3.253e-13,-0.4005,0,0,0.2,-0,-0,0.66667
0.22927,0.8793,1.1463,0.56895,17.827,79.193,-1.7393,0.57975,-0.84893,-2.319,-2.3458e-11,-0.42447,0,0,0.2,4.737e-16,0,0.66667
0.85572,0.85186,4.2786,0.52778,4.5549,4.8542,-6.0218,2.0073,-1.0093,-8.0291,2.0858e-09,-0.50465,0,0,0.2,-0,-0,0.66667
0.56519,0.76802,2.826,0.40204,8.9532,30.226,-3.0297,1.0099,-1.425,-4.0396,-9.468e-13,-0.71249,0,0,0.2,-0,-0,0.66667
0.99916,0.89649,4.9958,0.59473,-0.095587,0.7914,-7.9231,2.641,-0.74301,-10.564,3.381e-07,-0.37151,0,0,0.2,-0,-0,0.66667
0.077097,0.31797,0.38549,-0.27304,-8.9091,104.84,0.28068,-0.093559,-1.7359,0.37423,-4.6704e-10,-0.86797,0,0,0.2,-0,-0,0.66667
0.515,0.17398,2.575,-0.48903,-11.814,36.575,3.358,-1.1193,-1.1502,4.4774,3.8414e-14,-0.57509,0,0,0.2,9.4739e-16,4.4349e-17,0.66667
0.30396,0.20562,1.5198,-0.44158,-13.191,67.074,1.7896,-0.59653,-1.3055,2.3861,3.0532e-12,-0.65276,0,0,0.2,-0,-0,0.66667
0.86161,0.78636,4.308,0.42953,3.5203,4.3782,-4.9345,1.6448,-1.3446,-6.5794,2.951e-09,-0.67228,0,0,0.2,-0,-0,0.66667
0.16178,0.44413,0.80888,-0.083803,-2.6721,90.324,0.18076,-0.060254,-1.9745,0.24102,4.3086e-10,-0.98726,0,0,0.2,4.737e-16,0,0.66667
0.0013843,0.43984,0.0069214,-0.090236,-2.956,117.95,0.0016649,-0.00055767,-1.9724,0.0022185,-4.0529e-06,-0.98621,0,0,0.2,3.7007e-18,0,0.66667
0.44299,0.16485,2.2149,-0.50272,-13.307,46.304,2.9693,-0.98977,-1.1007,3.9591,-8.6331e-13,-0.55034,0,0,0.2,-0,-0,0.66667
0.67716,0.99973,3.3858,0.7496,13.529,18.634,-6.768,2.256,-0.0027502,-9.0239,-3.8769e-13,-0.0013751,0,0,0.2,1.2286e-15,0,0.66667
0.96791,0.35873,4.8395,-0.2119,-0.33234,0.49372,2.7347,-0.91156,-1.8407,3.6462,-1.3644e-08,-0.92036,0,0,0.2,-1.8948e-15,0,0.66667
0.62011,0.12849,3.1006,-0.55726,-11.287,24.126,4.6075,-1.5358,-0.89593,6.1433,1.3847e-12,-0.44797,0,0,0.2,-0,-0,0.66667
0.19035,0.92635,0.95177,0.63953,20.443,85.677,-1.6232,0.54106,-0.54549,-2.1642,-8.0384e-11,-0.27274,0,0,0.2,2.3685e-16,0,0.66667
0.36217,0.29186,1.8109,-0.31221,-8.8914,57.985,1.5077,-0.50255,-1.6532,2.0102,-3.0619e-12,-0.82659,0,0,0.2,-0,-0,0.66667
0.78006,0.16497,3.9003,-0.50254,-6.3968,9.4671,5.2268,-1.7423,-1.1026,6.9691,-1.1896e-10,-0.5513,0,0,0.2,1.8948e-15,0,0.66667
0.32974,0.15921,1.6487,-0.51119,-15.027,63.085,2.2475,-0.74916,-1.072,2.9966,-2.0628e-12,-0.53602,0,0,0.2,-0,-0,0.66667
0.16424,0.31847,0.82121,-0.27229,-8.6937,89.931,0.59629,-0.19876,-1.7358,0.79506,9.801e-10,-0.86789,0,0,0.2,4.737e-16,0,0.66667
0.28507,0.99317,1.4254,0.73975,22.643,70.297,-2.8117,0.93725,-0.054123,-3.749,-7.3608e-13,-0.027061,0,0,0.2,2.3685e-16,0,0.66667
0.04034,0.82931,0.2017,0.49397,16.276,111.21,-0.26569,0.088565,-1.1312,-0.35426,6.6992e-09,-0.56562,0,0,0.2,5.9212e-17,0,0.66667
0.75512,0.97231,3.7756,0.70847,10.105,11.755,-7.133,2.3777,-0.21538,-9.5107,-3.9559e-12,-0.10769,0,0,0.2,-0,-0,0.66667
0.28529,0.94636,1.4264,0.66953,20.422,70.2,-2.5468,0.84893,-0.40568,-3.3957,3.5638e-13,-0.20284,0,0,0.2,-0,-0,0.66667
0.7645,0.31156,3.8225,-0.28265,-3.7737,10.322,2.8812,-0.96039,-1.7177,3.8416,-1.4103e-10,-0.85884,0,0,0.2,1.2434e-15,0,0.66667
0.84257,0.63037,4.2129,0.19556,1.7846,5.1007,-2.197,0.73233,-1.865,-2.9293,4.5317e-10,-0.93249,0,0,0.2,-1.8948e-15,0,0.66667
0.45502,0.68833,2.2751,0.28249,7.3254,44.449,-1.7138,0.57128,-1.7177,-2.2851,-1.0769e-13,-0.85886,0,0,0.2,1.8948e-15,0,0.66667
0.85839,0.65863,4.2919,0.23794,1.9625,4.2956,-2.7233,0.90776,-1.8002,-3.6311,5.7676e-10,-0.90012,0,0,0.2,-0,-0,0.66667
0.99143,0.94876,4.9572,0.67314,0.30654,1.0712,-8.8982,2.9661,-0.38784,-11.864,5.6361e-06,-0.19392,0,0,0.2,1.8948e-15,0,0.66667
0.94175,0.82043,4.7088,0.48064,1.6468,1.4505,-6.0352,2.0117,-1.1782,-8.047,2.5644e-09,-0.5891,0,0,0.2,1.8948e-15,0,0.66667
0.97927,0.49542,4.8964,-0.0068697,-0.0053821,0.21802,0.089699,-0.029899,-1.9997,0.1196,8.2472e-07,-0.99984,0,0,0.2,4.737e-16,0,0.66667
0.95065,0.89175,4.7533,0.58762,1.753,1.4782,-7.4483,2.4828,-0.77198,-9.9311,-1.5125e-08,-0.38599,0,0,0.2,-1.8948e-15,0,0.66667
0.96389,0.84945,4.8194,0.52417,1.0828,1.0591,-6.7366,2.2455,-1.0228,-8.9821,-6.9163e-08,-0.51141,0,0,0.2,1.8948e-15,0,0.66667
0.69794,0.65299,3.4897,0.22948,3.8019,15.897,-2.1355,0.71183,-1.8128,-2.8473,7.8719e-12,-0.90641,0,0,0.2,2.3685e-16,0,0.66667
0.15618,0.43843,0.78092,-0.092353,-2.9503,91.272,0.19232,-0.064107,-1.9719,0.25643,-1.1061e-09,-0.98597,0,0,0.2,-0,-0,0.66667
0.64676,0.28654,3.2338,-0.32019,-6.0558,20.997,2.7611,-0.92038,-1.6351,3.6815,3.0509e-12,-0.81754,0,0,0.2,-1.8948e-15,0,0.66667
0.99073,0.98547,4.9536,0.7282,0.4238,1.2474,-9.6193,3.2064,-0.11344,-12.826,4.7337e-06,-0.05672,0,0,0.2,-1.8948e-15,0,0.66667
0.24429,0.35672,1.2214,-0.21492,-6.6212,76.584,0.70002,-0.23334,-1.8347,0.93336,9.1673e-11,-0.91736,0,0,0.2,4.737e-16,0,0.66667
0.68176,0.52694,3.4088,0.040405,0.69733,17.345,-0.36729,0.12243,-1.994,-0.48972,5.6535e-13,-0.99699,0,0,0.2,9.4739e-16,0,0.66667
0.12926,0.94433,0.64631,0.66649,21.763,95.983,-1.1487,0.3829,-0.4203,-1.5316,-1.3736e-09,-0.21015,0,0,0.2,-0,-0,0.66667
0.99818,0.4018,4.9909,-0.1473,0.064795,0.061551,1.9604,-0.65347,-1.9237,2.6139,-9.5795e-07,-0.96184,0,0,0.2,4.737e-16,0,0.66667
0.41986,0.3835,2.0993,-0.17476,-4.702,49.384,0.97831,-0.3261,-1.8916,1.3044,-1.634e-12,-0.94582,0,0,0.2,-0,-0,0.66667
0.35068,0.69955,1.7534,0.29933,8.6037,59.729,-1.3996,0.46652,-1.6803,-1.8661,2.2988e-12,-0.84015,0,0,0.2,-0,-0,0.66667
0.20659,0.19178,1.033,-0.46233,-14.586,82.887,1.2735,-0.4245,-1.2403,1.698,2.6005e-10,-0.62015,0,0,0.2,-0,-0,0.66667
0.85016,0.0082616,4.2508,-0.73761,-6.8022,5.6445,8.3611,-2.787,-0.064744,11.148,-3.1897e-09,-0.032372,0,0,0.2,3.7896e-15,0,0.66667
0.6124,0.82578,3.062,0.48866,10.016,24.874,-3.9901,1.33,-1.1505,-5.3202,-1.8598e-12,-0.57526,0,0,0.2,-0,-0,0.66667
0.57534,0.67458,2.8767,0.26187,5.7055,28.898,-2.0088,0.66961,-1.7558,-2.6785,-1.1988e-12,-0.87791,0,0,0.2,-0,-0,0.66667
0.24805,0.19061,1.2402,-0.46409,-14.351,76.063,1.5349,-0.51163,-1.2352,2.0465,6.5071e-11,-0.6176,0,0,0.2,-0,-0,0.66667
0.13351,0.054195,0.66754,-0.66871,-21.813,95.262,1.1904,-0.39679,-0.40921,1.5872,-6.93e-09,-0.2046,0,0,0.2,-1.1842e-16,0,0.66667
0.064967,0.69842,0.32483,0.29763,9.7327,106.93,-0.25781,0.085937,-1.6849,-0.34375,5.5676e-09,-0.84245,0,0,0.2,-0,-0,0.66667
0.60725,0.31245,3.0363,-0.28132,-5.7784,25.232,2.2778,-0.75926,-1.7201,3.037,1.8823e-12,-0.86007,0,0,0.2,1.1722e-15,0,0.66667
0.72959,0.57936,3.648,0.11904,1.7881,13.027,-1.158,0.38601,-1.9487,-1.544,2.3667e-11,-0.97434,0,0,0.2,9.4739e-16,0,0.66667
0.4249,0.43766,2.1245,-0.093517,-2.5007,48.638,0.5298,-0.1766,-1.9701,0.7064,-1.5057e-12,-0.98505,0,0,0.2,1.8948e-15,0,0.66667
0.099,0.91922,0.495,0.62883,20.647,101.13,-0.83006,0.27669,-0.59304,-1.1067,5.4345e-09,-0.29652,0,0,0.2,-0,-0,0.66667
0.089276,0.6007,0.44638,0.15104,4.9101,102.73,-0.17979,0.059931,-1.9185,-0.23972,-2.6981e-08,-0.95927,0,0,0.2,-0,-0,0.66667
0.52952,0.48026,2.6476,-0.029606,-0.69292,34.44,0.20903,-0.069675,-1.997,0.2787,1.6e-13,-0.99849,0,0,0.2,-0,-0,0.66667
0.33597,0.25846,1.6799,-0.36231,-10.552,62.024,1.623,-0.541,-1.5324,2.164,-2.6041e-12,-0.76619,0,0,0.2,-0,-0,0.66667
0.6614,0.58679,3.307,0.13019,2.3677,19.375,-1.1481,0.38271,-1.9392,-1.5308,-4.8361e-13,-0.96962,0,0,0.2,-4.737e-16,0,0.66667
0.9539,0.7147,4.7695,0.32206,0.81382,0.89523,-4.0961,1.3654,-1.6326,-5.4615,-1.5309e-08,-0.81628,0,0,0.2,9.4739e-16,0,0.66667
0.048989,0.1339,0.24495,-0.54915,-18.112,109.72,0.3587,-0.11957,-0.92794,0.47826,2.1924e-08,-0.46397,0,0,0.2,-0,-0,0.66667
0.12125,0.59496,0.60625,0.14244,4.5982,97.232,-0.23028,0.076762,-1.9286,-0.30705,-9.6555e-09,-0.96431,0,0,0.2,-0,-0,0.66667
0.60823,0.069076,3.0412,-0.64639,-13.478,25.58,5.242,-1.7473,-0.51524,6.9894,4.8361e-13,-0.25762,0,0,0.2,-0,-1.5741e-16,0.66667
0.29619,0.84512,1.481,0.51768,15.584,68.351,-2.0444,0.68148,-1.049,-2.7259,-2.613e-12,-0.52451,0,0,0.2,9.4739e-16,2.5621e-16,0.66667
0.71874,0.77776,3.5937,0.41664,6.5456,14.218,-3.9928,1.3309,-1.3846,-5.3237,1.5221e-11,-0.6923,0,0,0.2,2.3685e-16,0,0.66667
0.48481,0.8088,2.4241,0.4632,11.644,40.52,-2.9942,0.99806,-1.2387,-3.9922,2.2204e-14,-0.61936,0,0,0.2,-0,-0,0.66667
0.95416,0.90269,4.7708,0.60404,1.6798,1.4432,-7.6846,2.5616,-0.70402,-10.246,5.0852e-07,-0.35201,0,0,0.2,-9.4739e-16,0,0.66667
0.35878,0.25036,1.7939,-0.37446,-10.711,58.534,1.7913,-0.5971,-1.5036,2.3884,-2.963e-12,-0.75178,0,0,0.2,9.4739e-16,0,0.66667
0.72512,0.76654,3.6256,0.39981,6.1526,13.644,-3.8655,1.2885,-1.4305,-5.154,2.3336e-11,-0.71524,0,0,0.2,-9.4739e-16,0,0.66667
0.59297,0.27261,2.9648,-0.34108,-7.2139,26.903,2.6966,-0.89888,-1.5871,3.5955,2.0608e-12,-0.79355,0,0,0.2,-9.4739e-16,0,0.66667
0.70173,0.86943,3.5086,0.55415,9.229,15.945,-5.1848,1.7283,-0.90899,-6.9131,-9.3259e-15,-0.45449,0,0,0.2,1.4211e-15,0,0.66667
0.28609,0.64282,1.4304,0.21423,6.4419,69.817,-0.81719,0.2724,-1.8359,-1.0896,-1.7835e-11,-0.91795,0,0,0.2,-4.737e-16,0,0.66667
0.55036,0.0073181,2.7518,-0.73902,-17.16,32.498,5.4231,-1.8077,-0.057974,7.2308,7.9936e-14,-0.028987,0,0,0.2,-0,-0,0.66667
0.0072068,0.9965,0.036034,0.74475,24.818,116.95,-0.071624,0.02386,-0.027751,-0.095506,-2.2269e-05,-0.013876,0,0,0.2,1.8504e-17,0,0.66667
0.95089,0.73424,4.7544,0.35136,0.96216,1.0042,-4.4548,1.4849,-1.5608,-5.9397,-1.4823e-08,-0.78042,0,0,0.2,-0,-0,0.66667
0.43824,0.37122,2.1912,-0.19317,-5.097,46.763,1.1287,-0.37623,-1.8687,1.5049,-1.2422e-12,-0.93437,0,0,0.2,7.1054e-16,0,0.66667
0.35615,0.7316,1.7807,0.34739,9.9518,58.919,-1.6496,0.54988,-1.5704,-2.1995,2.8154e-12,-0.78521,0,0,0.2,-9.4739e-16,0,0.66667
0.10194,0.58169,0.5097,0.12254,3.9727,100.54,-0.16656,0.055519,-1.9455,-0.22208,-1.0605e-09,-0.97273,0,0,0.2,-0,-0,0.66667
0.23738,0.33081,1.1869,-0.25378,-7.8515,77.727,0.80323,-0.26774,-1.7706,1.071,1.262e-10,-0.88529,0,0,0.2,-2.3685e-16,0,0.66667
0.29709,0.17858,1.4854,-0.48213,-14.488,68.186,1.9098,-0.6366,-1.1745,2.5464,2.7826e-12,-0.58725,0,0,0.2,2.3685e-16,0,0.66667
0.47856,0.18239,2.3928,-0.47641,-12.078,41.374,3.0399,-1.0133,-1.1927,4.0532,-1.7808e-13,-0.59633,0,0,0.2,2.3685e-16,0,0.66667
0.41502,0.63324,2.0751,0.19986,5.4062,50.093,-1.1059,0.36864,-1.8571,-1.4746,6.3649e-13,-0.92857,0,0,0.2,-0,-0,0.66667
0.056184,0.26058,0.28092,-0.35913,-11.772,108.46,0.26903,-0.089678,-1.5404,0.35871,-1.1132e-08,-0.77021,0,0,0.2,1.1842e-16,0,0.66667
0.58894,0.62004,2.9447,0.18006,3.8212,27.257,-1.4139,0.47131,-1.8846,-1.8852,-1.2453e-12,-0.94229,0,0,0.2,-0,-0,0.66667
0.067005,0.13597,0.33502,-0.54605,-17.97,106.61,0.48784,-0.16261,-0.9391,0.65045,-7.1035e-09,-0.46955,0,0,0.2,-0,-0,0.66667
0.27883,0.90532,1.3942,0.60798,18.569,71.181,-2.2603,0.75343,-0.68698,-3.0137,-8.8463e-13,-0.34349,0,0,0.2,-5.4188e-16,0,0.66667
0.93135,0.66958,4.6567,0.25437,0.99292,1.3877,-3.1588,1.0529,-1.7688,-4.2118,-1.1523e-08,-0.88441,0,0,0.2,-0,-0,0.66667
0.70165,0.30499,3.5083,-0.29252,-4.8055,15.606,2.7366,-0.9122,-1.6963,3.6488,-9.4937e-12,-0.84816,0,0,0.2,4.737e-16,0,0.66667
0.68369,0.22207,3.4185,-0.41689,-7.2327,17.421,3.8004,-1.2668,-1.3824,5.0672,1.2657e-13,-0.69119,0,0,0.2,-0,-0,0.66667
0.35623,0.23193,1.7811,-0.4021,-11.535,58.939,1.9099,-0.63662,-1.4246,2.5465,-2.9087e-12,-0.71232,0,0,0.2,-0,-0,0.66667
0.59594,0.52362,2.9797,0.035423,0.74081,26.41,-0.28146,0.093821,-1.9958,-0.37529,-3.6313e-13,-0.9979,0,0,0.2,9.4739e-16,0,0.66667
0.82071,0.68626,4.1036,0.27939,2.8997,6.4496,-3.0573,1.0191,-1.7227,-4.0764,6.1088e-10,-0.86133,0,0,0.2,-4.737e-16,0,0.66667
0.77901,0.60893,3.8951,0.16339,2.0504,9.1512,-1.6971,0.56571,-1.9049,-2.2629,1.5546e-10,-0.95243,0,0,0.2,-0,-0,0.66667
0.75092,0.77838,3.7546,0.41756,5.9023,11.537,-4.1807,1.3936,-1.3815,-5.5743,6.2079e-11,-0.69077,0,0,0.2,2.3685e-16,0,0.66667
0.53154,0.056081,2.6577,-0.66588,-15.843,34.706,4.7192,-1.5731,-0.42472,6.2923,3.9169e-13,-0.21236,0,0,0.2,-0,-0,0.66667
0.74519,0.8227,3.726,0.48404,7.0102,12.095,-4.8094,1.6031,-1.1662,-6.4125,3.8036e-11,-0.5831,0,0,0.2,-0,-0,0.66667
0.21772,0.41978,1.0886,-0.12033,-3.7524,80.946,0.3493,-0.11643,-1.9488,0.46573,1.4417e-10,-0.97442,0,0,0.2,-0,-0,0.66667
0.51855,0.57939,2.5928,0.11908,2.8343,35.859,-0.82332,0.27444,-1.9491,-1.0978,8.3211e-14,-0.97457,0,0,0.2,-9.4739e-16,0,0.66667
0.81265,0.86599,4.0632,0.54898,6.0659,7.3562,-5.9484,1.9828,-0.92944,-7.9312,4.6012e-10,-0.46472,0,0,0.2,-0,-0,0.66667
0.27694,0.25652,1.3847,-0.36522,-11.078,71.338,1.3486,-0.44952,-1.5255,1.7981,2.4906e-11,-0.76275,0,0,0.2,-0,-0,0.66667
0.50368,0.54304,2.5184,0.064559,1.5686,37.784,-0.43356,0.14452,-1.9846,-0.57807,1.0192e-13,-0.9923,0,0,0.2,-0,-0,0.66667
0.65239,0.09754,3.2619,-0.60369,-11.434,20.796,5.2512,-1.7504,-0.70446,7.0016,1.5996e-12,-0.35223,0,0,0.2,-0,-0,0.66667
0.08124,0.28293,0.4062,-0.32561,-10.628,104.13,0.3527,-0.11757,-1.6239,0.47026,-1.7254e-09,-0.81194,0,0,0.2,2.3685e-16,0,0.66667
0.14553,0.27324,0.72763,-0.34014,-10.94,93.118,0.65998,-0.21999,-1.5881,0.87997,1.749e-09,-0.79404,0,0,0.2,-1.1842e-16,0,0.66667
0.59348,0.93421,2.9674,0.65132,13.97,27.25,-5.1539,1.718,-0.4934,-6.8719,-6.3416e-13,-0.2467,0,0,0.2,9.4739e-16,-8.9216e-17,0.66667
0.41393,0.024229,2.0696,-0.71366,-19.673,50.683,3.9387,-1.3129,-0.18841,5.2516,1.128e-13,-0.094203,0,0,0.2,-0,-0,0.66667
0.13115,0.39261,0.65573,-0.16109,-5.1876,95.541,0.28168,-0.093892,-1.9066,0.37557,-6.1805e-10,-0.9533,0,0,0.2,-0,-0,0.66667
0.80877,0.86814,4.0439,0.55221,6.2192,7.6088,-5.9548,1.9849,-0.91563,-7.9397,2.4272e-10,-0.45782,0,0,0.2,9.4739e-16,0,0.66667
0.71564,0.28785,3.5782,-0.31823,-5.0229,14.375,3.0365,-1.0122,-1.64,4.0487,-1.9447e-11,-0.81999,0,0,0.2,-0,-0,0.66667
0.97583,0.28545,4.8792,-0.32183,-0.35913,0.49237,4.1873,-1.3958,-1.6314,5.5831,1.4849e-09,-0.81571,0,0,0.2,-0,-0,0.66667
0.040034,0.77323,0.20017,0.40984,13.472,111.26,-0.21876,0.072922,-1.402,-0.29169,2.4821e-08,-0.70099,0,0,0.2,-2.9606e-17,0,0.66667
0.80309,0.78713,4.0155,0.43069,4.9288,7.7638,-4.6118,1.5373,-1.34,-6.1491,4.3329e-10,-0.66998,0,0,0.2,-0,-0,0.66667
0.49155,0.76403,2.4578,0.39604,9.845,39.557,-2.5957,0.86522,-1.4411,-3.4609,1.7431e-13,-0.72055,0,0,0.2,9.4739e-16,0,0.66667
0.19478,0.51431,0.97388,0.02147,0.67599,84.763,-0.055757,0.018586,-1.9971,-0.074343,-1.0549e-10,-0.99857,0,0,0.2,-0,-0,0.66667
0.14213,0.99615,0.71067,0.74423,24.3,93.833,-1.4104,0.47013,-0.031725,-1.8805,7.4446e-10,-0.015862,0,0,0.2,-1.7764e-16,0,0.66667
0.19893,0.33177,0.99466,-0.25234,-7.948,84.095,0.66932,-0.22311,-1.7729,0.89243,3.5358e-10,-0.88644,0,0,0.2,-0,-0,0.66667
0.0073553,0.33649,0.036777,-0.24526,-8.0471,116.92,0.024053,-0.0080176,-1.7854,0.032071,2.3563e-08,-0.89269,0,0,0.2,-0,-0,0.66667
0.12102,0.53567,0.60511,0.053511,1.7265,97.266,-0.086347,0.028782,-1.9899,-0.11513,-1.2806e-08,-0.99497,0,0,0.2,-0,-0,0.66667
0.69054,0.31819,3.4527,-0.27271,-4.6177,16.621,2.5109,-0.83697,-1.7358,3.3479,-4.2233e-12,-0.86788,0,0,0.2,-0,-0,0.66667
0.2922,0.89439,1.461,0.59159,17.906,69.038,-2.3048,0.76827,-0.75481,-3.0731,-5.4179e-13,-0.37741,0,0,0.2,-4.737e-16,0,0.66667
0.49257,0.89587,2.4628,0.5938,14.862,39.636,-3.8998,1.2999,-0.74528,-5.1998,2.4425e-15,-0.37264,0,0,0.2,-0,-0,0.66667
0.88095,0.81143,4.4047,0.46714,3.3202,3.5391,-5.487,1.829,-1.2245,-7.316,8.5157e-09,-0.61223,0,0,0.2,-0,-0,0.66667
0.5238,0.641,2.619,0.2115,5.0022,35.221,-1.4771,0.49237,-1.8397,-1.9695,-4.9916e-13,-0.91986,0,0,0.2,-0,-0,0.66667
0.70601,0.66852,3.5301,0.25279,4.0954,15.176,-2.3796,0.7932,-1.7724,-3.1728,1.2279e-11,-0.88622,0,0,0.2,-0,-0,0.66667
0.15105,0.79881,0.75527,0.44821,14.431,92.208,-0.90272,0.30091,-1.2847,-1.2036,-2.039e-09,-0.64235,0,0,0.2,2.3685e-16,0,0.66667
0.43644,0.12165,2.1822,-0.56753,-15.173,47.294,3.3026,-1.1009,-0.85613,4.4034,-4.4298e-13,-0.42806,0,0,0.2,5.9212e-16,9.0712e-17,0.66667
0.89086,0.94844,4.4543,0.67266,4.5503,3.5817,-7.9899,2.6633,-0.39205,-10.653,-2.9808e-08,-0.19602,0,0,0.2,-0,-0,0.66667
0.15977,0.19566,0.79885,-0.45651,-14.661,90.735,0.97249,-0.32416,-1.2588,1.2966,1.0874e-09,-0.62939,0,0,0.2,-0,-0,0.66667
0.11866,0.40741,0.59328,-0.13889,-4.4861,97.676,0.21973,-0.073243,-1.9317,0.29297,8.9424e-09,-0.96585,0,0,0.2,-0,-0,0.66667
0.82221,0.86054,4.111,0.54081,5.6888,6.7499,-5.9287,1.9762,-0.95898,-7.905,5.9619e-10,-0.47949,0,0,0.2,-0,-0,0.66667
0.058073,0.36444,0.29037,-0.20334,-6.6451,108.12,0.15745,-0.052482,-1.8523,0.20993,-3.5908e-08,-0.92615,0,0,0.2,-0,-0,0.66667
0.23225,0.68184,1.1612,0.27276,8.4635,78.576,-0.84462,0.28154,-1.736,-1.1262,-1.55e-10,-0.868,0,0,0.2,2.3685e-16,0,0.66667
0.59496,0.98912,2.9748,0.73367,15.781,27.232,-5.82,1.94,-0.086495,-7.7601,-2.4958e-13,-0.043248,0,0,0.2,9.4739e-16,0,0.66667
0.71146,0.41434,3.5573,-0.12848,-2.0422,14.611,1.2188,-0.40627,-1.9405,1.6251,-1.179e-11,-0.97023,0,0,0.2,-0,-0,0.66667
0.43296,0.072959,2.1648,-0.64056,-17.248,47.872,3.6978,-1.2326,-0.54039,4.9304,-7.5739e-13,-0.27019,0,0,0.2,9.4739e-16,0,0.66667
0.47992,0.005084,2.3996,-0.74237,-19.037,41.537,4.7504,-1.5835,-0.040371,6.3339,-4.4587e-13,-0.020185,0,0,0.2,-0,-1.3532e-16,0.66667
0.086929,0.78992,0.43465,0.43489,14.218,103.16,-0.50406,0.16802,-1.3267,-0.67208,-6.1065e-09,-0.66334,0,0,0.2,-2.3685e-16,0,0.66667
0.61004,0.94796,3.0502,0.67194,13.985,25.425,-5.4654,1.8218,-0.3953,-7.2873,-3.5572e-13,-0.19765,0,0,0.2,-0,-0,0.66667
0.28032,0.88183,1.4016,0.57274,17.452,70.917,-2.1407,0.71356,-0.83453,-2.8542,-3.9908e-12,-0.41727,0,0,0.2,-0,1.6178e-16,0.66667
0.91892,0.34558,4.5946,-0.23163,-1.0791,1.7501,2.838,-0.946,-1.8101,3.784,3.3097e-09,-0.90505,0,0,0.2,-0,-0,0.66667
0.23822,0.098807,1.1911,-0.60179,-18.796,77.747,1.9114,-0.63714,-0.71241,2.5486,2.471e-11,-0.35621,0,0,0.2,-0,-0,0.66667
0.75065,0.098175,3.7533,-0.60274,-8.6457,11.873,6.0326,-2.0109,-0.70963,8.0435,-1.1596e-11,-0.35481,0,0,0.2,-0,-0,0.66667
0.70514,0.74125,3.5257,0.36188,5.9027,15.36,-3.4023,1.1341,-1.5346,-4.5364,9.0528e-12,-0.76729,0,0,0.2,9.4739e-16,0,0.66667
0.12278,0.10137,0.61391,-0.59794,-19.504,97.061,0.97888,-0.32629,-0.72902,1.3052,-1.2922e-08,-0.36451,0,0,0.2,-0,-0,0.66667
0.20873,0.73491,1.0436,0.35236,11.074,82.491,-0.98064,0.32688,-1.5575,-1.3075,-3.2306e-10,-0.77873,0,0,0.2,4.737e-16,0,0.66667
0.19717,0.33817,0.98585,-0.24274,-7.6501,84.388,0.63816,-0.21272,-1.7901,0.85088,3.3491e-10,-0.89503,0,0,0.2,3.5527e-16,0,0.66667
0.78433,0.68777,3.9217,0.28165,3.4717,8.8608,-2.9454,0.9818,-1.7191,-3.9272,2.3558e-10,-0.85955,0,0,0.2,-0,-0,0.66667
0.55115,0.047646,2.7558,-0.67853,-15.675,32.297,4.9863,-1.6621,-0.36218,6.6484,6.7946e-14,-0.18109,0,0,0.2,-0,-0,0.66667
0.50799,0.84727,2.5399,0.5209,12.725,37.521,-3.5281,1.176,-1.035,-4.7042,2.8488e-13,-0.51752,0,0,0.2,-0,-0,0.66667
0.74258,0.32315,3.7129,-0.26527,-3.8311,12.036,2.6264,-0.87548,-1.7487,3.5019,-6.2067e-11,-0.87437,0,0,0.2,-0,-0,0.66667
0.87749,0.77433,4.3874,0.41149,2.9872,3.5973,-4.8144,1.6048,-1.3982,-6.4192,2.2008e-09,-0.69909,0,0,0.2,-9.4739e-16,0,0.66667
0.070046,0.20967,0.35023,-0.4355,-14.277,106.07,0.40673,-0.13558,-1.3247,0.5423,1.3053e-09,-0.66236,0,0,0.2,-5.9212e-17,0,0.66667
0.37632,0.79928,1.8816,0.44891,12.677,55.938,-2.2525,0.75083,-1.2837,-3.0033,2.2695e-12,-0.64183,0,0,0.2,4.737e-16,0,0.66667
0.34177,0.35177,1.7089,-0.22235,-6.4275,61.067,1.0132,-0.33774,-1.8245,1.351,-1.8203e-12,-0.91226,0,0,0.2,-0,-0,0.66667
0.84428,0.24471,4.2214,-0.38294,-3.5007,5.2098,4.3108,-1.4369,-1.4799,5.7477,-1.5239e-09,-0.73994,0,0,0.2,1.4211e-15,0,0.66667
0.76885,0.67753,3.8443,0.2663,3.4936,9.9772,-2.7299,0.90998,-1.7475,-3.6399,1.5611e-10,-0.87377,0,0,0.2,9.4739e-16,0,0.66667
0.5325,0.78639,2.6625,0.42958,10.091,34.28,-3.05,1.0167,-1.3448,-4.0667,-2.9532e-14,-0.67241,0,0,0.2,-0,-0,0.66667
0.089548,0.037124,0.44774,-0.69431,-22.9,102.77,0.82899,-0.27633,-0.28582,1.1053,-2.0456e-07,-0.14291,0,0,0.2,-0,-0,0.66667
0.92511,0.70405,4.6255,0.30607,1.3221,1.6345,-3.7753,1.2584,-1.6664,-5.0337,-2.3614e-09,-0.83319,0,0,0.2,-0,-0,0.66667
0.55794,0.054578,2.7897,-0.66813,-15.258,31.455,4.9704,-1.6568,-0.41232,6.6272,1.4477e-13,-0.20616,0,0,0.2,-9.4739e-16,-1.522e-17,0.66667
0.023909,0.61852,0.11955,0.17778,5.8247,114.04,-0.056675,0.018892,-1.887,-0.075566,9.0187e-10,-0.94348,0,0,0.2,-1.5449e-17,0,0.66667
0.64606,0.72693,3.2303,0.34039,6.4528,21.089,-2.9322,0.9774,-1.5874,-3.9096,-2.955e-12,-0.79368,0,0,0.2,-0,-0,0.66667
0.27371,0.95235,1.3685,0.67852,20.851,72.057,-2.4762,0.82541,-0.36182,-3.3016,-5.7221e-13,-0.18091,0,0,0.2,-4.737e-16,0,0.66667
0.45368,0.64093,2.2684,0.21139,5.4825,44.601,-1.2787,0.42623,-1.8416,-1.7049,6.1351e-13,-0.92081,0,0,0.2,-9.4739e-16,0,0.66667
0.89562,0.55546,4.4781,0.083191,0.50077,2.5059,-0.99343,0.33114,-1.9749,-1.3246,1.4649e-08,-0.98746,0,0,0.2,-0,-0,0.66667
0.20404,0.24962,1.0202,-0.37557,-11.834,83.278,1.0218,-0.34059,-1.5004,1.3624,3.417e-10,-0.75022,0,0,0.2,5.6991e-16,0,0.66667
0.11364,0.12572,0.56819,-0.56142,-18.328,98.611,0.85065,-0.28355,-0.88004,1.1342,8.3323e-09,-0.44002,0,0,0.2,-4.737e-16,0,0.66667
0.61817,0.82868,3.0908,0.49303,9.9909,24.245,-4.0637,1.3546,-1.1345,-5.4182,-2.1823e-12,-0.56726,0,0,0.2,-0,-0,0.66667
0.67549,0.37953,3.3774,-0.1807,-3.1758,18,1.6275,-0.5425,-1.8841,2.17,-8.5532e-13,-0.94205,0,0,0.2,-0,-0,0.66667
0.98885,0.48398,4.9443,-0.024031,-0.0037582,0.10087,0.31684,-0.10562,-1.9971,0.42245,-6.4409e-06,-0.99854,0,0,0.2,-0,-0,0.66667
0.32157,0.57126,1.6078,0.10689,3.1334,64.177,-0.45829,0.15276,-1.9585,-0.61105,-9.226e-13,-0.97926,0,0,0.2,-0,-0,0.66667
0.90723,0.6197,4.5361,0.17955,0.96028,2.1123,-2.1719,0.72397,-1.8864,-2.8959,-1.1976e-08,-0.94321,0,0,0.2,-9.4739e-16,0,0.66667
0.59047,0.84133,2.9524,0.512,10.957,27.381,-4.031,1.3437,-1.0686,-5.3746,-1.3043e-12,-0.53429,0,0,0.2,1.0658e-15,0,0.66667
0.076837,0.81593,0.38418,0.47389,15.537,104.91,-0.4855,0.16183,-1.2027,-0.64733,6.9958e-10,-0.60136,0,0,0.2,-2.3685e-16,0,0.66667
0.93059,0.025954,4.6529,-0.71107,-3.1343,2.3217,8.8228,-2.9409,-0.20177,11.764,-4.1346e-07,-0.10089,0,0,0.2,-0,-0,0.66667
0.54246,0.74558,2.7123,0.36837,8.5027,32.973,-2.6644,0.88812,-1.5175,-3.5525,-1.4344e-13,-0.75877,0,0,0.2,-9.4739e-16,0,0.66667
0.47386,0.94375,2.3693,0.66563,17.123,42.239,-4.2055,1.4018,-0.42428,-5.6074,-5.2669e-13,-0.21214,0,0,0.2,-0,-0,0.66667
0.54448,0.051543,2.7224,-0.67268,-15.699,33.107,4.8835,-1.6278,-0.39098,6.5113,3.8725e-13,-0.19549,0,0,0.2,-0,-0,0.66667
0.52734,0.99163,2.6367,0.73745,17.732,35.354,-5.1852,1.7284,-0.065993,-6.9135,5.5467e-13,-0.032996,0,0,0.2,-1.4211e-15,-1.8572e-16,0.66667
0.66148,0.11325,3.3074,-0.58013,-10.74,19.837,5.1166,-1.7055,-0.80245,6.8221,1.8012e-12,-0.40123,0,0,0.2,-0,-0,0.66667
0.64445,0.93366,3.2222,0.65049,12.584,21.697,-5.5894,1.8631,-0.49576,-7.4526,-6.0973e-13,-0.24788,0,0,0.2,-2.3685e-16,0,0.66667
0.17293,0.29964,0.86467,-0.30054,-9.5712,88.469,0.69297,-0.23099,-1.6792,0.92397,8.1518e-10,-0.83959,0,0,0.2,-2.3685e-16,0,0.66667
0.50754,0.067573,2.5377,-0.64864,-15.956,37.748,4.3895,-1.4632,-0.50359,5.8526,-4.0634e-13,-0.2518,0,0,0.2,-0,-0,0.66667
0.17819,0.88408,0.89094,0.57612,18.457,87.68,-1.3688,0.45626,-0.81897,-1.825,-4.3778e-10,-0.40948,0,0,0.2,-4.737e-16,0,0.66667
0.46566,0.75635,2.3283,0.38453,9.8729,43.048,-2.3875,0.79583,-1.4744,-3.1833,6.2572e-13,-0.73718,0,0,0.2,-9.4739e-16,0,0.66667
0.095605,0.1393,0.47803,-0.54106,-17.719,101.69,0.6897,-0.2299,-0.95909,0.9196,6.7971e-09,-0.47954,0,0,0.2,-0,-0,0.66667
0.90893,0.29188,4.5447,-0.31218,-1.6584,2.1821,3.7834,-1.2611,-1.6533,5.0445,-5.3928e-11,-0.82665,0,0,0.2,-0,-0,0.66667
0.84302,0.68888,4.2151,0.28332,2.5907,5.1548,-3.1846,1.0615,-1.7164,-4.2461,9.4927e-10,-0.85822,0,0,0.2,-0,-0,0.66667
0.20466,0.17407,1.0233,-0.48889,-15.45,83.22,1.3341,-0.4447,-1.1503,1.7788,2.2369e-10,-0.57513,0,0,0.2,-0,-0,0.66667
0.22201,0.42071,1.11,-0.11894,-3.7015,80.235,0.35207,-0.11736,-1.9492,0.46942,1.2263e-10,-0.97458,0,0,0.2,4.737e-16,0,0.66667
0.56481,0.059662,2.824,-0.66051,-14.907,30.616,4.9741,-1.658,-0.44972,6.6322,2.2204e-13,-0.22486,0,0,0.2,-2.3685e-16,0,0.66667
0.041276,0.55519,0.20638,0.082792,2.7073,111.03,-0.045564,0.015188,-1.975,-0.060752,-1.2988e-07,-0.98751,0,0,0.2,-2.9606e-17,0,0.66667
0.97916,0.80337,4.8958,0.45505,0.45792,0.67008,-5.9409,1.9803,-1.263,-7.9212,-2.0916e-08,-0.63151,0,0,0.2,-9.4739e-16,0,0.66667
0.34441,0.22292,1.7221,-0.41563,-12.043,60.755,1.9086,-0.63621,-1.3872,2.5448,-3.0946e-12,-0.69358,0,0,0.2,9.4739e-16,0,0.66667
0.29624,0.012106,1.4812,-0.73184,-22.233,68.519,2.8907,-0.96357,-0.096232,3.8543,-4.8272e-13,-0.048116,0,0,0.2,9.4739e-16,0,0.66667
0.92794,0.47992,4.6397,-0.030121,-0.12194,1.3568,0.37268,-0.12423,-1.9958,0.49691,-4.7501e-08,-0.99788,0,0,0.2,-0,-0,0.66667
0.24446,0.30123,1.2223,-0.29816,-9.1981,76.58,0.97182,-0.32394,-1.683,1.2958,9.7495e-11,-0.84149,0,0,0.2,2.3685e-16,0,0.66667
0.40519,0.92071,2.0259,0.63107,17.475,51.848,-3.4093,1.1364,-0.58428,-4.5458,5.7665e-13,-0.29214,0,0,0.2,-0,-0,0.66667
0.1838,0.8968,0.91901,0.59519,19.041,86.749,-1.4586,0.48621,-0.74001,-1.9448,3.6204e-11,-0.37,0,0,0.2,-0,-0,0.66667
0.086017,0.79136,0.43008,0.43704,14.292,103.32,-0.50124,0.16708,-1.3198,-0.66832,-7.2738e-09,-0.65991,0,0,0.2,-0,-0,0.66667
0.91325,0.62485,4.5663,0.18727,0.9336,1.9035,-2.2804,0.76013,-1.8758,-3.0405,-2.2061e-08,-0.93788,0,0,0.2,-2.1168e-15,0,0.66667
0.27731,0.32441,1.3866,-0.26338,-7.9695,71.239,0.97384,-0.32461,-1.7527,1.2984,2.8136e-11,-0.87635,0,0,0.2,4.737e-16,0,0.66667
0.7783,0.62723,3.8915,0.19084,2.4038,9.2196,-1.9804,0.66014,-1.8713,-2.6406,1.7141e-10,-0.93565,0,0,0.2,-0,-0,0.66667
0.16216,0.50909,0.81078,0.013641,0.43479,90.257,-0.029493,0.0098311,-1.9985,-0.039325,-5.3615e-10,-0.99926,0,0,0.2,-0,-0,0.66667
0.66577,0.30113,3.3288,-0.2983,-5.3895,19.044,2.648,-0.88266,-1.6826,3.5306,1.7168e-12,-0.8413,0,0,0.2,-9.4739e-16,0,0.66667
0.27436,0.80006,1.3718,0.45009,13.706,71.795,-1.6465,0.54883,-1.2786,-2.1953,-1.9818e-11,-0.63929,0,0,0.2,-0,-0,0.66667
0.72525,0.54699,3.6263,0.070492,1.073,13.383,-0.68167,0.22722,-1.9811,-0.90889,1.2513e-11,-0.99057,0,0,0.2,9.4739e-16,0,0.66667
0.057234,0.30616,0.28617,-0.29077,-9.5163,108.27,0.22189,-0.073963,-1.699,0.29585,-1.5747e-08,-0.84948,0,0,0.2,-5.9212e-17,0,0.66667
0.66212,0.32105,3.3106,-0.26843,-4.8885,19.384,2.3698,-0.78992,-1.743,3.1597,1.6256e-12,-0.87152,0,0,0.2,-0,-0,0.66667
0.056097,0.61804,0.28048,0.17707,5.7861,108.46,-0.13244,0.044146,-1.8879,-0.17658,1.7695e-08,-0.94393,0,0,0.2,2.9606e-17,0,0.66667
0.65752,0.77573,3.2876,0.41359,7.6581,19.993,-3.6259,1.2086,-1.3927,-4.8345,-2.7902e-12,-0.69635,0,0,0.2,-0,-0,0.66667
0.34971,0.85953,1.7486,0.53929,15.626,60.034,-2.5146,0.83821,-0.96478,-3.3528,2.055e-12,-0.48239,0,0,0.2,4.737e-16,0,0.66667
0.73581,0.79016,3.6791,0.43524,6.4846,12.789,-4.27,1.4233,-1.3269,-5.6934,3.4996e-11,-0.66345,0,0,0.2,-1.8948e-15,0,0.66667
0.41791,0.029688,2.0895,-0.70547,-19.361,50.1,3.9309,-1.3103,-0.23109,5.2413,5.7288e-14,-0.11554,0,0,0.2,4.737e-16,-4.4978e-17,0.66667
0.55544,0.54425,2.7772,0.066382,1.4917,31.213,-0.49162,0.16387,-1.9832,-0.65549,-5.0254e-13,-0.99158,0,0,0.2,-0,-0,0.66667
0.18966,0.79106,0.94829,0.43659,13.861,85.701,-1.104,0.36801,-1.3223,-1.472,-4.5502e-10,-0.66117,0,0,0.2,-0,-0,0.66667
0.27767,0.57146,1.3884,0.1072,3.2365,71.145,-0.39688,0.13229,-1.9588,-0.52917,-1.5828e-11,-0.9794,0,0,0.2,-0,-0,0.66667
0.48609,0.32394,2.4305,-0.26408,-6.5879,40.192,1.7116,-0.57053,-1.7521,2.2821,-4.4431e-13,-0.87607,0,0,0.2,-0,-0,0.66667
0.04653,0.67694,0.23265,0.26541,8.6925,110.12,-0.16466,0.054888,-1.7503,-0.21955,4.7588e-09,-0.87516,0,0,0.2,-0,-0,0.66667
0.84893,0.83095,4.2447,0.49643,4.4593,5.147,-5.6192,1.8731,-1.1228,-7.4922,5.126e-10,-0.56139,0,0,0.2,-0,-0,0.66667
0.43861,0.11627,2.1931,-0.57559,-15.357,46.996,3.3662,-1.1221,-0.8226,4.4882,-7.8648e-13,-0.4113,0,0,0.2,-0,-0,0.66667
0.1903,0.8332,0.9515,0.4998,15.895,85.618,-1.2682,0.42272,-1.1116,-1.6909,-3.8381e-10,-0.55579,0,0,0.2,-2.3685e-16,0,0.66667
0.1496,0.48883,0.74798,-0.016748,-0.536,92.388,0.033405,-0.011135,-1.9979,0.044541,-1.7909e-09,-0.99897,0,0,0.2,4.737e-16,0,0.66667
0.12624,0.20331,0.63119,-0.44503,-14.43,96.428,0.74907,-0.24969,-1.296,0.99875,3.0572e-09,-0.648,0,0,0.2,-2.3685e-16,0,0.66667
0.48221,0.23428,2.4111,-0.39858,-10.03,40.81,2.5627,-0.85422,-1.435,3.4169,-2.5935e-13,-0.71748,0,0,0.2,-0,-0,0.66667
0.99442,0.70979,4.9721,0.31468,-0.034498,0.26354,-4.1724,1.3908,-1.6471,-5.5631,2.4932e-08,-0.82357,0,0,0.2,-0,-0,0.66667
0.83565,0.99353,4.1782,0.7403,7.4336,6.4371,-8.2484,2.7495,-0.050763,-10.998,-1.3646e-09,-0.025382,0,0,0.2,-4.737e-16,0,0.66667
0.87993,0.21715,4.3997,-0.42427,-3.0239,3.509,4.9777,-1.6592,-1.3604,6.637,-1.9449e-09,-0.68019,0,0,0.2,-2.0132e-15,0,0.66667
0.51326,0.48015,2.5663,-0.029782,-0.71386,36.528,0.20381,-0.067937,-1.9967,0.27175,-1.76e-13,-0.99836,0,0,0.2,-0,-0,0.66667
0.013105,0.87556,0.065526,0.56333,18.631,115.93,-0.098434,0.032811,-0.87294,-0.13125,2.1177e-07,-0.43647,0,0,0.2,-0,-0,0.66667
0.78924,0.063982,3.9462,-0.65403,-8.1296,9.1261,6.8825,-2.2942,-0.47926,9.1766,-4.3234e-11,-0.23963,0,0,0.2,-0,-0,0.66667
0.91445,0.39321,4.5722,-0.16019,-0.78539,1.8433,1.9531,-0.65105,-1.9076,2.6042,-1.4297e-08,-0.95378,0,0,0.2,-1.3553e-16,0,0.66667
0.063162,0.50324,0.31581,0.0048624,0.15859,107.23,-0.004095,0.0013654,-2.0014,-0.0054598,5.6452e-07,-1.0007,0,0,0.2,-0,-0,0.66667
0.17499,0.31232,0.87496,-0.28153,-8.9558,88.118,0.65686,-0.21895,-1.7194,0.87582,7.6591e-10,-0.85968,0,0,0.2,2.5535e-16,0,0.66667
0.50956,0.72985,2.5478,0.34477,8.3498,37.144,-2.3424,0.7808,-1.5764,-3.1232,-1.6165e-13,-0.78818,0,0,0.2,-0,-0,0.66667
0.43088,0.94451,2.1544,0.66676,18.018,48.199,-3.8306,1.2769,-0.41862,-5.1074,-1.8807e-13,-0.20931,0,0,0.2,-0,-0,0.66667
0.95888,0.52057,4.7944,0.030855,0.064888,0.57131,-0.39449,0.1315,-1.9957,-0.52598,4.0731e-07,-0.99784,0,0,0.2,-0,-0,0.66667
0.98461,0.16511,4.9231,-0.50233,-0.34984,0.7004,6.5947,-2.1982,-1.1038,8.793,2.3171e-08,-0.55189,0,0,0.2,1.8948e-15,0,0.66667
0.15433,0.54281,0.77166,0.064213,2.0523,91.585,-0.13213,0.044044,-1.9854,-0.17618,-8.2509e-10,-0.99268,0,0,0.2,2.3685e-16,0,0.66667
0.3531,0.004495,1.7655,-0.74326,-21.678,59.722,3.4993,-1.1664,-0.035497,4.6657,3.4706e-13,-0.017749,0,0,0.2,-1.8948e-15,0,0.66667
0.57686,0.067872,2.8843,-0.64819,-14.321,29.168,4.9855,-1.6618,-0.50704,6.6474,1.2523e-13,-0.25352,0,0,0.2,-0,-1.3486e-16,0.66667
0.42223,0.36136,2.1111,-0.20796,-5.5841,49.055,1.1707,-0.39024,-1.8469,1.561,-1.3252e-12,-0.92344,0,0,0.2,-0,-0,0.66667
0.5079,0.84339,2.5395,0.51509,12.582,37.525,-3.4882,1.1627,-1.057,-4.6509,6.6902e-13,-0.52852,0,0,0.2,-1.1842e-15,0,0.66667
0.87702,0.051475,4.3851,-0.67279,-5.1001,4.1706,7.8673,-2.6224,-0.39062,10.49,-1.7527e-08,-0.19531,0,0,0.2,-0,-0,0.66667
0.060464,0.9197,0.30232,0.62954,20.8,107.75,-0.50753,0.16918,-0.59075,-0.6767,-7.5199e-08,-0.29537,0,0,0.2,1.1842e-16,0,0.66667
0.91535,0.011289,4.5768,-0.73307,-3.9425,2.8531,8.9469,-2.9823,-0.088231,11.929,-4.0657e-08,-0.044115,0,0,0.2,3.7896e-15,0,0.66667
0.31256,0.86811,1.5628,0.55217,16.46,65.796,-2.3011,0.76705,-0.91723,-3.0682,1.7395e-12,-0.45861,0,0,0.2,-0,-0,0.66667
0.72914,0.59123,3.6457,0.13685,2.0593,13.073,-1.3304,0.44348,-1.9336,-1.7739,2.6945e-11,-0.96679,0,0,0.2,-9.4739e-16,0,0.66667
0.27511,0.53398,1.3756,0.050977,1.541,71.552,-0.18699,0.06233,-1.9908,-0.24932,-1.0847e-11,-0.99538,0,0,0.2,-0,-0,0.66667
0.72986,0.26527,3.6493,-0.35209,-5.3243,13.182,3.4264,-1.1421,-1.5583,4.5685,-3.5046e-11,-0.77917,0,0,0.2,-9.4739e-16,0,0.66667
0.78436,0.72778,3.9218,0.34168,4.2245,8.9243,-3.5733,1.1911,-1.5847,-4.7644,2.5872e-10,-0.79235,0,0,0.2,-0,-0,0.66667
0.56721,0.29885,2.836,-0.30172,-6.6742,29.895,2.2818,-0.76061,-1.6754,3.0425,1.2406e-12,-0.83771,0,0,0.2,-0,-0,0.66667
0.11097,0.68494,0.55484,0.27741,8.9935,99.009,-0.41045,0.13682,-1.7276,-0.54727,-1.9235e-09,-0.86381,0,0,0.2,-2.9606e-17,0,0.66667
0.1247,0.32071,0.6235,-0.26894,-8.6886,96.656,0.44716,-0.14905,-1.7438,0.59621,9.1127e-10,-0.87192,0,0,0.2,-0,-0,0.66667
0.85571,0.090777,4.2785,-0.61383,-5.3605,5.0417,7.0035,-2.3345,-0.66074,9.338,-1.6108e-09,-0.33037,0,0,0.2,7.2704e-16,-2.1436e-18,0.66667
0.93388,0.010177,4.6694,-0.73474,-3.1142,2.3011,9.1488,-3.0496,-0.080132,12.198,1.01e-08,-0.040066,0,0,0.2,-0,-0,0.66667
0.64865,0.4219,3.2433,-0.11715,-2.1953,20.673,1.0132,-0.33773,-1.95,1.3509,1.0436e-12,-0.97498,0,0,0.2,1.7923e-16,0,0.66667
0.18497,0.72501,0.92487,0.33751,10.708,86.454,-0.83242,0.27747,-1.5953,-1.1099,-6.4345e-10,-0.79763,0,0,0.2,-0,-0,0.66667
0.72233,0.58377,3.6116,0.12566,1.9319,13.653,-1.2102,0.4034,-1.9434,-1.6136,1.9273e-11,-0.97172,0,0,0.2,-9.4739e-16,0,0.66667
0.22405,0.94462,1.1202,0.66693,21.034,80.113,-1.9923,0.6641,-0.41798,-2.6564,-9.3627e-12,-0.20899,0,0,0.2,-4.737e-16,0,0.66667
0.75275,0.83358,3.7637,0.50037,7.0663,11.52,-5.022,1.674,-1.1096,-6.6961,4.114e-11,-0.5548,0,0,0.2,-9.4739e-16,0,0.66667
0.99863,0.73645,4.9931,0.35467,-0.12818,0.2892,-4.7224,1.5741,-1.5529,-6.2966,2.5579e-08,-0.77645,0,0,0.2,1.8948e-15,0,0.66667
0.92131,0.72646,4.6065,0.33969,1.5544,1.7986,-4.1728,1.3909,-1.5907,-5.5637,-1.7372e-09,-0.79533,0,0,0.2,-0,-0,0.66667
0.52727,0.85522,2.6363,0.53282,12.669,35.058,-3.7459,1.2486,-0.98993,-4.9945,-8.793e-14,-0.49497,0,0,0.2,-0,-0,0.66667
0.62264,0.69028,3.1132,0.28543,5.6833,23.533,-2.3696,0.78986,-1.7112,-3.1595,-2.5588e-12,-0.85562,0,0,0.2,-0,-0,0.66667
0.31542,0.25648,1.5771,-0.36528,-10.802,65.227,1.5362,-0.51207,-1.5257,2.0483,7.6505e-13,-0.76286,0,0,0.2,-0,-0,0.66667
0.88054,0.50339,4.4027,0.0050788,0.035066,3.1301,-0.059627,0.019876,-1.9999,-0.079503,-2.4792e-08,-0.99994,0,0,0.2,-0,-0,0.66667
0.86029,0.74133,4.3014,0.36199,2.9741,4.3418,-4.1522,1.3841,-1.5348,-5.5363,1.8596e-09,-0.76738,0,0,0.2,-0,-0,0.66667
0.060565,0.46919,0.30282,-0.04621,-1.5078,107.68,0.037316,-0.012438,-1.9939,0.049755,4.6504e-07,-0.99696,0,0,0.2,-0,-0,0.66667
0.54964,0.49547,2.7482,-0.006794,-0.15408,31.919,0.04979,-0.016597,-2.0003,0.066387,4.1627e-13,-1.0001,0,0,0.2,-1.8948e-15,0,0.66667
0.38057,0.38521,1.9028,-0.17219,-4.8132,55.158,0.87371,-0.29124,-1.8937,1.165,-1.6683e-12,-0.94685,0,0,0.2,-0,-0,0.66667
0.55684,0.59003,2.7842,0.13504,3.0293,31.058,-1.0026,0.3342,-1.9351,-1.3368,-9.8666e-13,-0.96753,0,0,0.2,1.1122e-15,0,0.66667
0.18217,0.57512,0.91086,0.11268,3.567,86.883,-0.27369,0.09123,-1.9539,-0.36492,-1.8494e-10,-0.97694,0,0,0.2,-4.737e-16,0,0.66667
0.79219,0.59841,3.9609,0.14761,1.7498,8.2093,-1.5592,0.51972,-1.9224,-2.0789,2.2257e-10,-0.96122,0,0,0.2,-0,-0,0.66667
0.11789,0.92298,0.58947,0.63447,20.75,97.907,-0.99733,0.33244,-0.5675,-1.3298,-1.0034e-08,-0.28375,0,0,0.2,9.7233e-17,0,0.66667
0.20303,0.13783,1.0152,-0.54325,-17.211,83.516,1.4706,-0.49021,-0.95147,1.9608,1.6604e-10,-0.47573,0,0,0.2,-0,-2.6921e-16,0.66667
0.02395,0.25079,0.11975,-0.37382,-12.29,114.04,0.11937,-0.039791,-1.5034,0.15916,-7.769e-09,-0.75172,0,0,0.2,-5.9212e-17,0,0.66667
0.058498,0.37725,0.29249,-0.18413,-6.0157,108.05,0.14362,-0.047872,-1.8799,0.19149,-5.2897e-08,-0.93997,0,0,0.2,-0,-0,0.66667
0.11918,0.33199,0.59589,-0.25201,-8.1507,97.598,0.40046,-0.13349,-1.7732,0.53394,2.6724e-09,-0.88659,0,0,0.2,-1.1842e-16,0,0.66667
0.45136,0.15015,2.2568,-0.52478,-13.772,45.155,3.1582,-1.0527,-1.0214,4.2109,-5.6199e-13,-0.51072,0,0,0.2,-4.737e-16,0,0.66667
0.89569,0.94915,4.4784,0.67372,4.365,3.3928,-8.0459,2.682,-0.38526,-10.728,-2.5692e-08,-0.19263,0,0,0.2,1.8948e-15,0,0.66667
0.10377,0.30876,0.51885,-0.28686,-9.316,100.25,0.39689,-0.1323,-1.7073,0.52919,3.1961e-09,-0.85367,0,0,0.2,-1.7764e-16,0,0.66667
0.99739,0.48015,4.9869,-0.029776,0.012158,0.021622,0.39597,-0.13198,-1.9966,0.52797,1.3543e-05,-0.99832,0,0,0.2,-0,-0,0.66667
0.92242,0.27988,4.6121,-0.33017,-1.4862,1.7502,4.0608,-1.3536,-1.6143,5.4144,3.4602e-09,-0.80716,0,0,0.2,1.1842e-16,0,0.66667
0.12597,0.54934,0.62985,0.074016,2.3853,96.42,-0.12432,0.041439,-1.9809,-0.16576,1.834e-09,-0.99044,0,0,0.2,-0,-0,0.66667
0.56161,0.92168,2.808,0.63252,14.327,30.955,-4.7364,1.5788,-0.57785,-6.3151,7.9936e-14,-0.28892,0,0,0.2,-0,2.3681e-16,0.66667
0.57872,0.79049,2.8936,0.43574,9.4917,28.654,-3.3623,1.1208,-1.3257,-4.4831,-9.6168e-13,-0.66284,0,0,0.2,-0,-0,0.66667
0.78149,0.63883,3.9074,0.20824,2.59,9.0015,-2.1698,0.72328,-1.8465,-2.8931,2.0198e-10,-0.92325,0,0,0.2,-0,-0,0.66667
0.099377,0.19821,0.49689,-0.45268,-14.773,101.03,0.59982,-0.19994,-1.2705,0.79976,3.2163e-09,-0.63523,0,0,0.2,-0,-0,0.66667
0.089059,0.7685,0.4453,0.40274,13.151,102.79,-0.47824,0.15941,-1.4224,-0.63765,-1.9199e-09,-0.71121,0,0,0.2,-1.1842e-16,0,0.66667
0.94471,0.51726,4.7236,0.025891,0.077712,0.89313,-0.32613,0.10871,-1.9964,-0.43484,-3.111e-07,-0.9982,0,0,0.2,-3.7896e-15,0,0.66667
0.42548,0.32683,2.1274,-0.25975,-6.9576,48.61,1.4736,-0.4912,-1.7595,1.9648,-9.6734e-13,-0.87973,0,0,0.2,-0,-0,0.66667
0.81916,0.75611,4.0958,0.38416,4.0474,6.6716,-4.1958,1.3986,-1.4747,-5.5944,7.1246e-10,-0.73735,0,0,0.2,-1.8948e-15,0,0.66667
0.78299,0.12535,3.915,-0.56198,-7.1044,9.3678,5.867,-1.9557,-0.8787,7.8227,-1.7592e-10,-0.43935,0,0,0.2,-0,-0,0.66667
0.8379,0.22923,4.1895,-0.40616,-3.866,5.5981,4.5376,-1.5125,-1.4125,6.0501,-1.3359e-09,-0.70627,0,0,0.2,1.8948e-15,0,0.66667
0.13975,0.37112,0.69876,-0.19332,-6.2129,94.076,0.36023,-0.12008,-1.8684,0.4803,2.4566e-09,-0.93422,0,0,0.2,5.9212e-17,0,0.66667
0.091732,0.80778,0.45866,0.46167,15.092,102.34,-0.56467,0.18822,-1.2429,-0.75289,-1.538e-08,-0.62143,0,0,0.2,-5.9212e-17,0,0.66667
0.44285,0.43537,2.2143,-0.096951,-2.5423,46.083,0.57246,-0.19082,-1.9668,0.76328,-7.9836e-13,-0.9834,0,0,0.2,-2.3685e-16,0,0.66667
0.8081,0.926,4.0405,0.63901,7.2883,7.8374,-6.8851,2.295,-0.54743,-9.1801,8.5989e-11,-0.27371,0,0,0.2,-0,-0,0.66667
0.14031,0.93136,0.70157,0.64705,21.047,94.099,-1.2105,0.40351,-0.51266,-1.614,4.0935e-09,-0.25633,0,0,0.2,-1.1842e-16,0,0.66667
0.17975,0.85749,0.89873,0.53624,17.144,87.401,-1.2851,0.42838,-0.97638,-1.7135,-4.9462e-10,-0.48819,0,0,0.2,-0,-0,0.66667
0.1606,0.044473,0.80299,-0.68329,-22.121,90.687,1.4631,-0.48771,-0.33915,1.9508,2.5145e-12,-0.16958,0,0,0.2,-2.3685e-16,0,0.66667
0.23062,0.062793,1.1531,-0.65581,-20.608,79.026,2.0166,-0.67219,-0.47175,2.6888,5.0848e-12,-0.23587,0,0,0.2,9.4739e-16,0,0.66667
0.32804,0.40405,1.6402,-0.14392,-4.2003,63.173,0.62952,-0.20984,-1.9284,0.83935,2.0922e-13,-0.96418,0,0,0.2,-1.1842e-16,0,0.66667
0.06778,0.081351,0.3389,-0.62797,-20.727,106.49,0.56752,-0.18917,-0.5969,0.75669,-3.9737e-08,-0.29845,0,0,0.2,-8.0267e-17,0,0.66667
0.38652,0.61918,1.9326,0.17877,4.9704,54.271,-0.92132,0.30711,-1.8863,-1.2284,1.2894e-12,-0.94313,0,0,0.2,-0,-0,0.66667
0.28048,0.76723,1.4024,0.40084,12.143,70.786,-1.4991,0.49969,-1.4291,-1.9988,-1.8058e-11,-0.71457,0,0,0.2,-0,-0,0.66667
0.15318,0.87575,0.76592,0.56363,18.204,91.886,-1.1512,0.38373,-0.87154,-1.5349,-4.5276e-09,-0.43577,0,0,0.2,-0,1.3694e-19,0.66667
0.31327,0.55583,1.5664,0.083742,2.4692,65.476,-0.34979,0.1166,-1.976,-0.46639,-1.5374e-12,-0.98802,0,0,0.2,-2.3685e-16,0,0.66667
0.49926,0.70099,2.4963,0.30148,7.3971,38.463,-2.0069,0.66897,-1.6773,-2.6759,-2.7067e-13,-0.83864,0,0,0.2,-0,-0,0.66667
0.67091,0.26949,3.3546,-0.34577,-6.1789,18.579,3.0931,-1.031,-1.5753,4.1241,1.2839e-12,-0.78766,0,0,0.2,-0,-0,0.66667
0.29158,0.70152,1.4579,0.30228,9.0716,68.969,-1.1752,0.39172,-1.6741,-1.5669,-1.3706e-11,-0.83705,0,0,0.2,-0,-0,0.66667
0.48683,0.93705,2.4342,0.65557,16.583,40.483,-4.2554,1.4185,-0.47324,-5.6738,2.3048e-13,-0.23662,0,0,0.2,1.7764e-16,0,0.66667
0.69406,0.034591,3.4703,-0.69811,-12.006,16.928,6.4604,-2.1535,-0.26702,8.6139,7.6028e-13,-0.13351,0,0,0.2,-0,-0,0.66667
0.94232,0.17582,4.7116,-0.48626,-1.6516,1.4476,6.1095,-2.0365,-1.1584,8.1461,8.8384e-09,-0.57922,0,0,0.2,-9.4739e-16,0,0.66667
0.11331,0.60785,0.56656,0.16178,5.2334,98.594,-0.24442,0.081474,-1.9062,-0.3259,-2.094e-09,-0.95311,0,0,0.2,-0,-0,0.66667
0.37705,0.53276,1.8853,0.049137,1.3765,55.662,-0.24703,0.082343,-1.9927,-0.32937,8.5963e-13,-0.99633,0,0,0.2,-9.4739e-16,0,0.66667
0.86667,0.21037,4.3334,-0.43445,-3.4357,4.1389,5.0203,-1.6734,-1.328,6.6937,-2.7217e-09,-0.66402,0,0,0.2,-9.4739e-16,0,0.66667
0.76793,0.81183,3.8396,0.46774,6.2302,10.299,-4.7892,1.5964,-1.2234,-6.3857,7.4748e-11,-0.61172,0,0,0.2,5.9212e-17,0,0.66667
0.82594,0.12599,4.1297,-0.56102,-5.7993,6.567,6.1783,-2.0594,-0.88222,8.2377,-6.9313e-11,-0.44111,0,0,0.2,-0,-0,0.66667
0.036904,0.38288,0.18452,-0.17568,-5.7511,111.79,0.086443,-0.028814,-1.8896,0.11526,-1.8895e-08,-0.9448,0,0,0.2,-0,-0,0.66667
0.80406,0.38067,4.0203,-0.17899,-2.0106,7.4262,1.9189,-0.63963,-1.8856,2.5585,-3.8816e-10,-0.94278,0,0,0.2,-0,-0,0.66667
0.095263,0.42336,0.47632,-0.11496,-3.7317,101.69,0.14602,-0.048673,-1.9531,0.19469,9.4608e-10,-0.97655,0,0,0.2,-1.1842e-16,0,0.66667
0.35271,0.098327,1.7635,-0.60251,-17.461,59.634,2.8335,-0.94449,-0.70892,3.778,-1.1042e-12,-0.35446,0,0,0.2,-9.4739e-16,0,0.66667
0.23302,0.85235,1.1651,0.52852,16.505,78.554,-1.6421,0.54737,-1.0073,-2.1895,-8.237e-11,-0.50365,0,0,0.2,-0,1.7924e-17,0.66667
0.98438,0.12663,4.9219,-0.56006,-0.43414,0.83724,7.3508,-2.4503,-0.88691,9.801,1.9413e-07,-0.44345,0,0,0.2,-0,-0,0.66667
0.48234,0.089524,2.4117,-0.61571,-15.632,41.028,3.9598,-1.3199,-0.65285,5.2797,-2.9865e-13,-0.32642,0,0,0.2,-4.737e-16,0,0.66667
0.28033,0.85604,1.4016,0.53407,16.25,70.889,-1.9962,0.6654,-0.98627,-2.6616,-5.5532e-12,-0.49314,0,0,0.2,-4.737e-16,3.1323e-16,0.66667
0.42077,0.1314,2.1039,-0.5529,-15.02,49.51,3.1019,-1.034,-0.91393,4.1359,-1.1338e-12,-0.45696,0,0,0.2,9.4739e-16,0,0.66667
0.13901,0.42191,0.69503,-0.11714,-3.7625,94.196,0.21711,-0.072368,-1.9512,0.28947,6.0142e-10,-0.97562,0,0,0.2,-1.6462e-16,0,0.66667
0.78121,0.59495,3.9061,0.14243,1.7701,8.9811,-1.4836,0.49452,-1.9301,-1.9781,1.8541e-10,-0.96505,0,0,0.2,-0,-0,0.66667
0.82105,0.86609,4.1053,0.54913,5.8162,6.8363,-6.0115,2.0038,-0.92693,-8.0154,7.0321e-10,-0.46347,0,0,0.2,9.4739e-16,0,0.66667
0.0059699,0.80743,0.029849,0.46114,15.203,117.16,-0.036706,0.012235,-1.2436,-0.048941,-6.5643e-08,-0.62178,0,0,0.2,3.7007e-18,0,0.66667
0.35861,0.90751,1.793,0.61127,17.636,58.746,-2.9228,0.97426,-0.67331,-3.897,1.376e-12,-0.33665,0,0,0.2,-0,-0,0.66667
0.92793,0.57732,4.6397,0.11597,0.47109,1.383,-1.4349,0.47829,-1.951,-1.9132,4.0115e-08,-0.97552,0,0,0.2,-1.8948e-15,0,0.66667
0.55859,0.34121,2.7929,-0.23818,-5.3372,30.893,1.7739,-0.59131,-1.7988,2.3652,7.957e-13,-0.89938,0,0,0.2,-7.1472e-17,0,0.66667
0.17029,0.65394,0.85147,0.23091,7.352,88.9,-0.52431,0.17477,-1.8117,-0.69908,-4.2675e-10,-0.90585,0,0,0.2,-2.9606e-16,0,0.66667
0.39769,0.27575,1.9884,-0.33638,-9.2824,52.691,1.7836,-0.59454,-1.5972,2.3782,-2.4223e-12,-0.79859,0,0,0.2,-0,-0,0.66667
0.63071,0.012783,3.1536,-0.73083,-14.649,23.296,6.1459,-2.0486,-0.099913,8.1945,7.8293e-13,-0.049957,0,0,0.2,-1.8948e-15,0,0.66667
0.7635,0.13408,3.8175,-0.54888,-7.4819,10.773,5.5876,-1.8625,-0.92897,7.4501,-4.639e-11,-0.46448,0,0,0.2,1.8948e-15,-1.1918e-16,0.66667
0.98548,0.12831,4.9274,-0.55753,-0.39027,0.81854,7.3258,-2.4419,-0.89609,9.7678,1.6801e-07,-0.44805,0,0,0.2,-0,-0,0.66667
0.97769,0.7979,4.8884,0.44685,0.48918,0.67425,-5.825,1.9417,-1.2888,-7.7667,-2.9561e-08,-0.64442,0,0,0.2,-0,-0,0.66667
0.44414,0.81817,2.2207,0.47725,12.605,46.118,-2.8262,0.94206,-1.1897,-3.7682,6.0751e-13,-0.59483,0,0,0.2,-0,-0,0.66667
0.91798,0.25069,4.5899,-0.37396,-1.797,1.9568,4.5772,-1.5257,-1.5036,6.1029,-1.2529e-09,-0.7518,0,0,0.2,-0,-0,0.66667
0.72376,0.76704,3.6188,0.40056,6.1909,13.762,-3.8655,1.2885,-1.4285,-5.154,2.1585e-11,-0.71427,0,0,0.2,-0,-0,0.66667
0.15494,0.29825,0.7747,-0.30262,-9.6973,91.512,0.62517,-0.20839,-1.6746,0.83355,1.1476e-09,-0.83728,0,0,0.2,5.3363e-17,0,0.66667
0.56932,0.47383,2.8466,-0.039254,-0.86154,29.529,0.29798,-0.099325,-1.9941,0.3973,4.2402e-13,-0.99704,0,0,0.2,-0,-0,0.66667
0.52955,0.08678,2.6478,-0.61983,-14.752,34.887,4.3765,-1.4588,-0.63452,5.8353,1.4433e-13,-0.31726,0,0,0.2,-4.737e-16,-1.6418e-16,0.66667
0.93954,0.47528,4.6977,-0.037087,-0.12338,1.028,0.46459,-0.15486,-1.9956,0.61946,-1.6393e-07,-0.99778,0,0,0.2,-0,-0,0.66667
0.69262,0.80615,3.4631,0.45922,7.7966,16.635,-4.2409,1.4136,-1.2498,-5.6545,8.6109e-13,-0.62489,0,0,0.2,-4.737e-16,0,0.66667
0.53942,0.84989,2.6971,0.52484,12.248,33.52,-3.7748,1.2583,-1.02,-5.0331,-7.9936e-14,-0.50999,0,0,0.2,-0,-0,0.66667
0.91872,0.2421,4.5936,-0.38684,-1.8453,1.9524,4.7387,-1.5796,-1.4678,6.3183,-6.3163e-10,-0.73391,0,0,0.2,-0,-0,0.66667
0.080916,0.2071,0.40458,-0.43935,-14.381,104.2,0.47401,-0.158,-1.3134,0.63201,8.2356e-09,-0.65669,0,0,0.2,-1.1842e-16,0,0.66667
0.30942,0.1449,1.5471,-0.53265,-15.901,66.273,2.1975,-0.7325,-0.99088,2.93,-8.0402e-13,-0.49544,0,0,0.2,4.737e-16,0,0.66667
0.36636,0.72165,1.8318,0.33247,9.439,57.361,-1.624,0.54134,-1.6069,-2.1654,3.1108e-12,-0.80345,0,0,0.2,-0,-0,0.66667
0.011747,0.3301,0.058735,-0.25485,-8.3622,116.16,0.039916,-0.013305,-1.7684,0.053221,2.4281e-08,-0.88419,0,0,0.2,1.4803e-17,0,0.66667
0.54516,0.50094,2.7258,0.0014064,0.032126,32.474,-0.010223,0.0034076,-2.0015,-0.01363,6.8654e-13,-1.0007,0,0,0.2,-0,-0,0.66667
0.38558,0.59638,1.9279,0.14457,4.0214,54.403,-0.74324,0.24775,-1.9259,-0.99098,1.1488e-12,-0.96294,0,0,0.2,-0,-0,0.66667
0.46514,0.19373,2.3257,-0.4594,-11.833,43.185,2.8492,-0.94972,-1.2496,3.7989,-3.8924e-13,-0.62478,0,0,0.2,-0,-0,0.66667
0.052614,0.35369,0.26307,-0.21947,-7.1784,109.07,0.15396,-0.051321,-1.8279,0.20528,-1.3949e-08,-0.91393,0,0,0.2,-1.1842e-16,0,0.66667
0.98055,0.26454,4.9027,-0.35319,-0.29319,0.47224,4.6176,-1.5392,-1.5558,6.1567,-5.8635e-09,-0.77788,0,0,0.2,-1.8948e-15,0,0.66667
0.87537,0.80673,4.3769,0.4601,3.4172,3.7757,-5.3701,1.79,-1.2486,-7.1602,5.2904e-09,-0.6243,0,0,0.2,-4.737e-16,0,0.66667
0.31262,0.25213,1.5631,-0.37181,-11.019,65.671,1.5498,-0.5166,-1.5105,2.0664,1.9048e-12,-0.75523,0,0,0.2,9.4739e-16,0,0.66667
0.081769,0.19176,0.40885,-0.46237,-15.142,104.06,0.5041,-0.16803,-1.2401,0.67213,1.1817e-08,-0.62006,0,0,0.2,-0,-0,0.66667
0.1066,0.10151,0.533,-0.59774,-19.571,99.824,0.8496,-0.2832,-0.72965,1.1328,4.1065e-08,-0.36482,0,0,0.2,-0,-1.3388e-16,0.66667
0.11128,0.15852,0.55639,-0.51222,-16.703,99.001,0.75999,-0.25333,-1.0683,1.0133,8.3554e-09,-0.53415,0,0,0.2,4.737e-16,0,0.66667
0.31416,0.97084,1.5708,0.70625,21.172,65.679,-2.9584,0.98613,-0.22781,-3.9445,7.343e-13,-0.1139,0,0,0.2,-9.4739e-16,0,0.66667
0.74672,0.34448,3.7336,-0.23328,-3.3173,11.673,2.3226,-0.77421,-1.8075,3.0968,-7.198e-11,-0.90375,0,0,0.2,-0,-0,0.66667
0.86782,0.0019669,4.3391,-0.74705,-6.1444,4.796,8.6441,-2.8814,-0.015775,11.525,9.897e-09,-0.0078877,0,0,0.2,-0,-0,0.66667
0.45038,0.92507,2.2519,0.6376,16.839,45.423,-3.8289,1.2763,-0.55421,-5.1051,2.9954e-13,-0.27711,0,0,0.2,-0,-2.6443e-16,0.66667
0.7354,0.7774,3.677,0.41609,6.2008,12.797,-4.0799,1.36,-1.3857,-5.4399,3.7871e-11,-0.69284,0,0,0.2,2.3685e-16,0,0.66667
0.19541,0.90556,0.97706,0.60834,19.382,84.817,-1.585,0.52834,-0.68448,-2.1134,-2.8455e-10,-0.34224,0,0,0.2,8.8818e-17,0,0.66667
0.1939,0.052008,0.96952,-0.67199,-21.48,85.103,1.7374,-0.57912,-0.39343,2.3165,-7.272e-12,-0.19672,0,0,0.2,-0,-0,0.66667
0.36744,0.091851,1.8372,-0.61222,-17.533,57.413,2.9994,-0.99981,-0.66739,3.9992,-4.3254e-13,-0.33369,0,0,0.2,-5.9212e-16,0,0.66667
0.34924,0.47648,1.7462,-0.035287,-1.0122,59.881,0.16431,-0.054771,-1.9949,0.21909,-5.6821e-13,-0.99747,0,0,0.2,-0,-0,0.66667
0.30208,0.6383,1.5104,0.20745,6.1721,67.268,-0.83553,0.27851,-1.846,-1.114,-7.846e-12,-0.923,0,0,0.2,4.737e-16,0,0.66667
0.54976,0.12317,2.7488,-0.56524,-13.004,32.295,4.1433,-1.3811,-0.86491,5.5244,8.7574e-13,-0.43246,0,0,0.2,-1.0658e-15,0,0.66667
0.012695,0.45907,0.063476,-0.061393,-2.0105,115.99,0.010393,-0.0034665,-1.9864,0.013856,-3.5015e-06,-0.9932,0,0,0.2,-0,-0,0.66667
0.35923,0.86273,1.7962,0.54409,15.646,58.59,-2.606,0.86868,-0.94823,-3.4747,1.8257e-12,-0.47412,0,0,0.2,-0,-2.6249e-16,0.66667
0.68499,0.67585,3.425,0.26377,4.532,17.139,-2.4091,0.80303,-1.7524,-3.2121,2.695e-12,-0.87621,0,0,0.2,-9.4739e-16,0,0.66667
0.20754,0.64976,1.0377,0.22464,7.0461,82.654,-0.62162,0.20721,-1.8203,-0.82883,-2.8538e-10,-0.91015,0,0,0.2,-0,-0,0.66667
0.18084,0.94673,0.90419,0.6701,21.527,87.283,-1.6157,0.53857,-0.40252,-2.1543,-3.4995e-10,-0.20126,0,0,0.2,-0,-0,0.66667
0.29412,0.78172,1.4706,0.42259,12.699,68.622,-1.6572,0.5524,-1.3663,-2.2096,-7.2597e-12,-0.68313,0,0,0.2,-0,-0,0.66667
0.0056085,0.85954,0.028043,0.53931,17.825,117.22,-0.04033,0.013443,-0.96475,-0.053773,-7.2137e-08,-0.48238,0,0,0.2,-0,-1.2097e-16,0.66667
0.34478,0.093471,1.7239,-0.60979,-17.79,60.85,2.8033,-0.93443,-0.6798,3.7377,-1.68e-12,-0.3399,0,0,0.2,2.9606e-17,0,0.66667
0.8284,0.54598,4.142,0.068969,0.6814,5.851,-0.76179,0.25393,-1.9837,-1.0157,2.3602e-10,-0.99187,0,0,0.2,-0,-0,0.66667
0.022289,0.46279,0.11145,-0.055819,-1.8273,114.32,0.016589,-0.0055288,-1.9884,0.022119,1.3044e-06,-0.99419,0,0,0.2,-0,-0,0.66667
0.030319,0.51366,0.1516,0.020497,0.67066,112.93,-0.0082869,0.002764,-1.9989,-0.011048,2.5374e-06,-0.99943,0,0,0.2,-1.1842e-16,0,0.66667
0.37436,0.48691,1.8718,-0.019641,-0.5515,56.065,0.098038,-0.032679,-1.9991,0.13072,-4.418e-13,-0.99957,0,0,0.2,-0,-0,0.66667
0.06536,0.46196,0.3268,-0.057059,-1.8607,106.85,0.049725,-0.016575,-1.9885,0.0663,1.9554e-08,-0.99427,0,0,0.2,-1.1842e-16,0,0.66667
0.85305,0.87188,4.2652,0.55782,4.918,5.0537,-6.3447,2.1149,-0.89355,-8.4595,3.3283e-09,-0.44678,0,0,0.2,1.4211e-15,0,0.66667
0.36355,0.95926,1.8178,0.68889,19.865,58.08,-3.3393,1.1131,-0.31212,-4.4524,5.5511e-13,-0.15606,0,0,0.2,4.737e-16,0,0.66667
0.70869,0.054388,3.5434,-0.66842,-11.01,15.538,6.316,-2.1053,-0.41076,8.4213,5.1603e-13,-0.20538,0,0,0.2,-0,-0,0.66667
0.34251,0.84271,1.7125,0.51407,14.966,61.117,-2.3476,0.78255,-1.0621,-3.1302,2.6448e-12,-0.53103,0,0,0.2,5.3291e-16,0,0.66667
0.28541,0.31991,1.4271,-0.27014,-8.1339,69.942,1.028,-0.34267,-1.7402,1.3707,1.9323e-11,-0.8701,0,0,0.2,-0,-0,0.66667
0.0054914,0.54289,0.027457,0.064328,2.107,117.24,-0.0047099,0.0015676,-1.9843,-0.006281,-3.5672e-06,-0.99216,0,0,0.2,-0,-0,0.66667
0.27003,0.96627,1.3502,0.69941,21.561,72.664,-2.5182,0.8394,-0.26105,-3.3576,-1.6209e-13,-0.13053,0,0,0.2,4.737e-16,0,0.66667
0.55821,0.31488,2.791,-0.27767,-6.2319,30.965,2.0667,-0.68888,-1.7263,2.7555,4.2988e-13,-0.86313,0,0,0.2,1.8948e-15,0,0.66667
0.39521,0.10285,1.9761,-0.59572,-16.628,53.268,3.1391,-1.0464,-0.73759,4.1855,-9.7944e-13,-0.3688,0,0,0.2,-0,-0,0.66667
0.84515,0.74048,4.2258,0.36073,3.2738,5.1313,-4.0649,1.355,-1.5377,-5.4199,1.4831e-09,-0.76886,0,0,0.2,-0,-0,0.66667
0.25356,0.77002,1.2678,0.40503,12.465,75.136,-1.3693,0.45644,-1.4162,-1.8258,-5.9997e-11,-0.70811,0,0,0.2,-0,-0,0.66667
0.92019,0.55431,4.6009,0.081458,0.36917,1.6123,-0.99942,0.33314,-1.9768,-1.3326,3.2054e-08,-0.9884,0,0,0.2,-9.4739e-16,0,0.66667
0.14496,0.19467,0.72479,-0.458,-14.778,93.245,0.88521,-0.29507,-1.2538,1.1803,2.2775e-09,-0.62692,0,0,0.2,4.737e-16,0,0.66667
0.48392,0.9817,2.4196,0.72256,18.415,40.971,-4.6621,1.554,-0.1443,-6.2161,4.1744e-13,-0.07215,0,0,0.2,-0,-0,0.66667
0.20199,0.34741,1.0099,-0.22888,-7.1971,83.581,0.61642,-0.20547,-1.815,0.82189,2.8859e-10,-0.90748,0,0,0.2,-4.737e-16,0,0.66667
0.11218,0.70238,0.56091,0.30357,9.8437,98.804,-0.45407,0.15136,-1.6719,-0.60543,-1.3892e-09,-0.83596,0,0,0.2,-0,-0,0.66667
0.078936,0.89002,0.39468,0.58504,19.246,104.57,-0.61574,0.20525,-0.78344,-0.82098,-1.2906e-08,-0.39172,0,0,0.2,-0,-0,0.66667
0.097961,0.085307,0.48981,-0.62204,-20.422,101.31,0.81248,-0.27083,-0.62378,1.0833,9.9253e-11,-0.31189,0,0,0.2,-0,-0,0.66667
0.44342,0.31687,2.2171,-0.27469,-7.2174,46.068,1.6241,-0.54136,-1.7315,2.1654,-6.8079e-13,-0.86573,0,0,0.2,-0,-0,0.66667
0.49394,0.86576,2.4697,0.54864,13.677,39.398,-3.6132,1.2044,-0.92892,-4.8176,3.3396e-13,-0.46446,0,0,0.2,4.737e-16,0,0.66667
0.29445,0.90543,1.4723,0.60815,18.393,68.694,-2.3876,0.79587,-0.68625,-3.1835,-6.2284e-13,-0.34313,0,0,0.2,-2.0724e-16,0,0.66667
0.71033,0.70738,3.5517,0.31106,4.9868,14.839,-2.9461,0.98204,-1.6549,-3.9281,1.4945e-11,-0.82743,0,0,0.2,-0,-0,0.66667
0.0215,0.4948,0.1075,-0.007805,-0.25549,114.46,0.0022368,-0.0007471,-1.9994,0.0029817,-2.2419e-06,-0.99971,0,0,0.2,-3.1678e-17,0,0.66667
0.30959,0.66677,1.548,0.25015,7.4096,66.094,-1.0326,0.3442,-1.7772,-1.3768,-4.5792e-12,-0.88862,0,0,0.2,-0,-0,0.66667
0.84278,0.99771,4.2139,0.74657,7.2058,6.0611,-8.3893,2.7964,-0.019824,-11.186,7.6264e-10,-0.0099121,0,0,0.2,1.1842e-15,6.4294e-17,0.66667
0.54746,0.3655,2.7373,-0.20176,-4.6004,32.239,1.4727,-0.4909,-1.856,1.9636,6.7713e-13,-0.92801,0,0,0.2,-4.737e-16,0,0.66667
0.05517,0.16096,0.27585,-0.50857,-16.74,108.65,0.3741,-0.1247,-1.08,0.4988,-5.5925e-08,-0.53999,0,0,0.2,-0,-0,0.66667
0.51017,0.8193,2.5508,0.47895,11.644,37.19,-3.2579,1.086,-1.1839,-4.3439,6.2839e-14,-0.59193,0,0,0.2,-0,-0,0.66667
0.29425,0.90758,1.4713,0.61137,18.495,68.728,-2.3987,0.79955,-0.67209,-3.1982,3.9879e-13,-0.33605,0,0,0.2,-0,2.5576e-16,0.66667
0.16633,0.020615,0.83164,-0.71908,-23.272,89.742,1.5947,-0.53157,-0.16062,2.1263,-7.7441e-10,-0.080308,0,0,0.2,-0,-0,0.66667
0.67928,0.38913,3.3964,-0.1663,-2.8933,17.624,1.5062,-0.50208,-1.9004,2.0083,-1.7115e-12,-0.95022,0,0,0.2,9.4739e-16,0,0.66667
0.19682,0.54707,0.98408,0.070602,2.2214,84.423,-0.18528,0.061759,-1.9811,-0.24704,-1.2942e-10,-0.99055,0,0,0.2,-0,-0,0.66667
0.39589,0.89271,1.9795,0.58907,16.426,53.16,-3.1094,1.0365,-0.76522,-4.1459,9.2082e-13,-0.38261,0,0,0.2,-0,-0,0.66667
0.72776,0.28688,3.6388,-0.31969,-4.8597,13.325,3.1021,-1.034,-1.6361,4.1361,-3.3468e-11,-0.81806,0,0,0.2,-0,-0,0.66667
0.80994,0.72485,4.0497,0.33727,3.7104,7.1904,-3.6422,1.2141,-1.5959,-4.8563,5.3816e-10,-0.79793,0,0,0.2,1.8948e-15,0,0.66667
0.60148,0.7141,3.0074,0.32115,6.6792,25.914,-2.5756,0.85853,-1.6329,-3.4341,-2.1898e-12,-0.81644,0,0,0.2,-4.737e-16,0,0.66667
0.13081,0.80871,0.65404,0.46306,15.004,95.653,-0.80763,0.26921,-1.2375,-1.0768,-1.5848e-09,-0.61874,0,0,0.2,5.9212e-17,0,0.66667
0.01089,0.87638,0.054452,0.56457,18.674,116.31,-0.08198,0.027327,-0.86718,-0.10931,1.163e-07,-0.43359,0,0,0.2,2.9606e-17,0,0.66667
0.29257,0.67485,1.4629,0.26227,7.8598,68.796,-1.0231,0.34104,-1.7547,-1.3642,-1.3827e-11,-0.87733,0,0,0.2,4.737e-16,0,0.66667
0.48388,0.98115,2.4194,0.72172,18.393,40.974,-4.6564,1.5521,-0.14858,-6.2085,8.5265e-14,-0.074289,0,0,0.2,9.4739e-16,2.2675e-16,0.66667
0.075671,0.54659,0.37835,0.069881,2.2756,105.07,-0.070506,0.023502,-1.9823,-0.094008,3.183e-08,-0.99117,0,0,0.2,1.1842e-16,0,0.66667
0.083491,0.55471,0.41746,0.082062,2.669,103.72,-0.091353,0.030451,-1.9754,-0.1218,1.339e-09,-0.98772,0,0,0.2,1.1842e-16,0,0.66667
0.97949,0.95961,4.8975,0.68942,0.87046,1.2494,-9.0038,3.0013,-0.30937,-12.005,-5.4477e-06,-0.15468,0,0,0.2,-0,-0,0.66667
0.62427,0.98317,3.1214,0.72475,14.716,23.972,-6.0326,2.0109,-0.13282,-8.0434,7.2387e-14,-0.06641,0,0,0.2,9.4739e-16,-2.3544e-16,0.66667
0.82291,0.23267,4.1145,-0.401,-4.148,6.4668,4.3998,-1.4666,-1.4273,5.8664,-7.0323e-10,-0.71363,0,0,0.2,-0,-0,0.66667
0.78101,0.77624,3.905,0.41436,5.219,9.2585,-4.3149,1.4383,-1.391,-5.7532,1.8786e-10,-0.6955,0,0,0.2,-1.1244e-17,0,0.66667
0.51024,0.88808,2.5512,0.58212,14.217,37.305,-3.9603,1.3201,-0.79413,-5.2804,-2.609e-13,-0.39707,0,0,0.2,9.4739e-16,0,0.66667
0.60696,0.87777,3.0348,0.56665,11.788,25.59,-4.5858,1.5286,-0.85921,-6.1144,-8.1002e-13,-0.42961,0,0,0.2,-1.8948e-15,0,0.66667
0.28245,0.58043,1.4123,0.12065,3.6323,70.38,-0.45437,0.15146,-1.9485,-0.60583,-1.5151e-11,-0.97425,0,0,0.2,-0,-0,0.66667
0.936,0.6952,4.68,0.2928,1.0646,1.2999,-3.6541,1.218,-1.6957,-4.8721,-7.0689e-09,-0.84785,0,0,0.2,-0,-0,0.66667
0.61687,0.87202,3.0843,0.55803,11.378,24.481,-4.5898,1.5299,-0.89267,-6.1197,-1.2488e-12,-0.44633,0,0,0.2,-0,-0,0.66667
0.40685,0.23849,2.0342,-0.39227,-10.745,51.385,2.1279,-0.7093,-1.4535,2.8372,-1.7011e-12,-0.72675,0,0,0.2,4.737e-16,0,0.66667
0.050178,0.86192,0.25089,0.54289,17.9,109.52,-0.36321,0.12107,-0.95156,-0.48429,-4.7645e-08,-0.47578,0,0,0.2,5.9212e-17,0,0.66667
0.10484,0.33565,0.52422,-0.24652,-7.9988,100.06,0.34462,-0.11487,-1.7834,0.45949,-3.1242e-09,-0.89171,0,0,0.2,1.1842e-16,0,0.66667
0.44394,0.88971,2.2197,0.58457,15.512,46.258,-3.4602,1.1534,-0.7838,-4.6136,3.2441e-13,-0.3919,0,0,0.2,-0,-0,0.66667
0.023763,0.31514,0.11881,-0.2773,-9.0983,114.07,0.087857,-0.029286,-1.7265,0.11714,-4.4138e-09,-0.86327,0,0,0.2,-0,-0,0.66667
0.28857,0.67346,1.4429,0.26019,7.8171,69.434,-1.0011,0.3337,-1.7581,-1.3348,-1.6593e-11,-0.87904,0,0,0.2,4.737e-16,0,0.66667
0.2149,0.54192,1.0745,0.062874,1.9626,81.41,-0.18015,0.060051,-1.9854,-0.2402,-1.0029e-10,-0.9927,0,0,0.2,-0,-0,0.66667
0.22151,0.077142,1.1076,-0.63429,-20,80.509,1.8734,-0.62445,-0.56914,2.4978,2.7411e-11,-0.28457,0,0,0.2,-0,-0,0.66667
0.19268,0.10631,0.96342,-0.59054,-18.823,85.262,1.5172,-0.50572,-0.75911,2.0229,1.9708e-10,-0.37956,0,0,0.2,-0,-0,0.66667
0.83915,0.32154,4.1958,-0.26769,-2.5034,5.3537,2.9951,-0.99837,-1.7446,3.9935,-9.2142e-10,-0.87231,0,0,0.2,-0,-0,0.66667
0.46604,0.14617,2.3302,-0.53074,-13.694,43.135,3.298,-1.0993,-0.99827,4.3973,-6.6391e-14,-0.49914,0,0,0.2,-4.737e-16,0,0.66667
0.54314,0.98238,2.7157,0.72357,16.975,33.357,-5.24,1.7467,-0.13783,-6.9866,7.0122e-13,-0.068916,0,0,0.2,-1.8948e-15,2.3298e-16,0.66667
0.58082,0.14268,2.9041,-0.53598,-11.686,28.534,4.1507,-1.3836,-0.97825,5.5343,8.7264e-13,-0.48912,0,0,0.2,-9.4739e-16,0,0.66667
0.094346,0.70767,0.47173,0.31151,10.141,101.87,-0.39186,0.13062,-1.6556,-0.52248,-1.0821e-09,-0.8278,0,0,0.2,-0,-0,0.66667
0.064011,0.39216,0.32005,-0.16175,-5.2797,107.09,0.13805,-0.046018,-1.9071,0.18407,-7.2758e-09,-0.95353,0,0,0.2,1.1842e-16,0,0.66667
0.98681,0.23433,4.9341,-0.39851,-0.18127,0.47054,5.2434,-1.7478,-1.4351,6.9912,-2.5194e-08,-0.71753,0,0,0.2,-1.8948e-15,0,0.66667
0.28383,0.89667,1.4192,0.595,18.107,70.372,-2.2517,0.75058,-0.74115,-3.0023,-1.6847e-12,-0.37057,0,0,0.2,-2.3685e-16,0,0.66667
0.1419,0.27554,0.70951,-0.33669,-10.84,93.734,0.63702,-0.21234,-1.5978,0.84936,1.7606e-09,-0.7989,0,0,0.2,-2.3685e-16,0,0.66667
0.018779,0.25641,0.093895,-0.36538,-12.012,114.94,0.091487,-0.030496,-1.5254,0.12198,5.6403e-09,-0.7627,0,0,0.2,-0,-0,0.66667
0.87071,0.11263,4.3535,-0.58105,-4.5491,4.2351,6.7457,-2.2486,-0.79881,8.9942,-3.8485e-09,-0.39941,0,0,0.2,-0,-0,0.66667
0.17375,0.67566,0.86873,0.26349,8.3833,88.324,-0.61041,0.20347,-1.7532,-0.81388,-7.7921e-10,-0.87659,0,0,0.2,-0,-0,0.66667
0.17154,0.66201,0.85768,0.24301,7.7352,88.693,-0.5558,0.18527,-1.7913,-0.74107,-5.7202e-10,-0.89566,0,0,0.2,-0,-0,0.66667
0.3727,0.75567,1.8635,0.38351,10.843,56.436,-1.9058,0.63526,-1.4775,-2.541,2.1105e-12,-0.73875,0,0,0.2,-0,-0,0.66667
0.18251,0.071959,0.91254,-0.64206,-20.589,86.989,1.5624,-0.52081,-0.53353,2.0832,1.7393e-10,-0.26677,0,0,0.2,-0,-0,0.66667
0.44101,0.26331,2.205,-0.35503,-9.372,46.458,2.0876,-0.69587,-1.5512,2.7835,-1.1546e-12,-0.77562,0,0,0.2,-0,-0,0.66667
0.57868,0.74507,2.8934,0.36761,7.9873,28.589,-2.8363,0.94544,-1.5208,-3.7818,-1.2395e-12,-0.76042,0,0,0.2,-0,-0,0.66667
0.83616,0.99925,4.1808,0.74887,7.5083,6.4322,-8.349,2.783,-0.0063116,-11.132,-1.7105e-09,-0.0031558,0,0,0.2,-6.158e-15,0,0.66667
0.58829,0.88145,2.9415,0.57217,12.332,27.718,-4.4881,1.496,-0.83551,-5.9841,-7.8382e-13,-0.41776,0,0,0.2,-0,-0,0.66667
0.92403,0.29377,4.6202,-0.30934,-1.3574,1.6721,3.8112,-1.2704,-1.6597,5.0816,2.9079e-09,-0.82983,0,0,0.2,-0,-0,0.66667
0.48128,0.086455,2.4064,-0.62032,-15.773,41.176,3.9807,-1.3269,-0.63182,5.3075,-3.5705e-13,-0.31591,0,0,0.2,-4.737e-16,0,0.66667
0.62184,0.13831,3.1092,-0.54254,-10.941,23.915,4.4983,-1.4994,-0.95294,5.9978,1.7111e-12,-0.47647,0,0,0.2,-0,-0,0.66667
0.44171,0.99171,2.2085,0.73757,19.775,46.77,-4.3439,1.448,-0.065308,-5.7918,3.2641e-13,-0.032654,0,0,0.2,1.4211e-15,0,0.66667
0.91251,0.81749,4.5626,0.47623,2.4904,2.3181,-5.7942,1.9314,-1.1932,-7.7256,1.4506e-08,-0.59662,0,0,0.2,-0,-0,0.66667
0.71041,0.32137,3.552,-0.26794,-4.2876,14.793,2.538,-0.846,-1.7438,3.384,-1.564e-11,-0.87191,0,0,0.2,-0,-0,0.66667
0.6028,0.34505,3.014,-0.23242,-4.8097,25.699,1.868,-0.62268,-1.8082,2.4907,1.3186e-12,-0.90408,0,0,0.2,1.8948e-15,0,0.66667
0.84339,0.48622,4.2169,-0.020668,-0.18684,4.9846,0.23241,-0.077471,-1.9991,0.30988,4.2711e-10,-0.99955,0,0,0.2,1.8948e-15,0,0.66667
0.9065,0.013038,4.5325,-0.73044,-4.3185,3.1489,8.8286,-2.9429,-0.10365,11.771,1.2554e-08,-0.051824,0,0,0.2,-0,-0,0.66667
0.57799,0.65976,2.8899,0.23964,5.1939,28.57,-1.8468,0.61559,-1.7976,-2.4624,-1.1585e-12,-0.89878,0,0,0.2,-1.8948e-15,0,0.66667
0.2076,0.6129,1.038,0.16935,5.308,82.635,-0.46875,0.15625,-1.8972,-0.625,-2.4242e-10,-0.94862,0,0,0.2,-2.3685e-16,0,0.66667
0.33309,0.014867,1.6654,-0.7277,-21.541,62.765,3.2319,-1.0773,-0.11619,4.3091,2.6446e-13,-0.058096,0,0,0.2,-0,-0,0.66667
0.92001,0.49872,4.6001,-0.0019155,-0.0086867,1.6045,0.023497,-0.0078325,-2.0014,0.031329,-1.5447e-07,-1.0007,0,0,0.2,-3.4343e-15,0,0.66667
0.49116,0.22704,2.4558,-0.40944,-10.188,39.621,2.6814,-0.89378,-1.4031,3.5751,-1.45e-13,-0.70155,0,0,0.2,-0,-0,0.66667
0.84515,0.33226,4.2258,-0.25161,-2.266,5.0058,2.8353,-0.94509,-1.7752,3.7803,-1.2343e-09,-0.88758,0,0,0.2,9.4739e-16,0,0.66667
0.49158,0.99983,2.4579,0.74975,18.952,39.996,-4.9141,1.638,-0.0017635,-6.5522,1.0902e-12,-0.00088177,0,0,0.2,-4.0708e-16,0,0.66667
0.048249,0.91957,0.24124,0.62936,20.821,109.86,-0.40487,0.13496,-0.59185,-0.53983,-2.6432e-07,-0.29593,0,0,0.2,-0,-0,0.66667
0.58842,0.035467,2.9421,-0.6968,-15.129,27.91,5.4668,-1.8223,-0.27354,7.2891,-3.7659e-13,-0.13677,0,0,0.2,-0,-0,0.66667
0.97989,0.095195,4.8994,-0.60721,-0.68391,1.0123,7.9333,-2.6444,-0.68959,10.578,1.0918e-06,-0.34479,0,0,0.2,3.7896e-15,0,0.66667
0.15147,0.91791,0.75733,0.62686,20.306,92.203,-1.266,0.42199,-0.60199,-1.688,9.4346e-10,-0.30099,0,0,0.2,2.3685e-16,0,0.66667
0.62692,0.7816,3.1346,0.4224,8.3778,23.204,-3.5308,1.1769,-1.3672,-4.7078,-2.9849e-12,-0.68358,0,0,0.2,1.8948e-15,0,0.66667
0.64441,0.94021,3.2221,0.66032,12.784,21.719,-5.6736,1.8912,-0.45017,-7.5648,-4.885e-13,-0.22509,0,0,0.2,-0,-0,0.66667
0.10623,0.51827,0.53113,0.027401,0.88709,99.804,-0.038809,0.012936,-1.9969,-0.051745,-6.8337e-09,-0.99843,0,0,0.2,-0,-0,0.66667
0.29898,0.936,1.4949,0.654,19.76,68.016,-2.6071,0.86902,-0.48046,-3.4761,1.0998e-12,-0.24023,0,0,0.2,-4.737e-16,0,0.66667
0.38954,0.42618,1.9477,-0.11073,-3.0678,53.807,0.57512,-0.19171,-1.9568,0.76683,-1.2398e-12,-0.9784,0,0,0.2,4.737e-16,0,0.66667
0.95436,0.18962,4.7718,-0.46557,-1.2172,1.1248,5.9243,-1.9748,-1.2308,7.899,5.4272e-08,-0.6154,0,0,0.2,-0,-0,0.66667
0.57675,0.84837,2.8838,0.52255,11.467,28.992,-4.0184,1.3395,-1.0301,-5.3579,-5.9108e-13,-0.51506,0,0,0.2,-0,-0,0.66667
0.087358,0.64723,0.43679,0.22084,7.1875,103.06,-0.25723,0.085743,-1.8257,-0.34297,1.1212e-09,-0.91286,0,0,0.2,1.1842e-16,0,0.66667
0.10716,0.037267,0.5358,-0.6941,-22.813,99.759,0.99173,-0.33058,-0.28747,1.3223,4.3083e-08,-0.14374,0,0,0.2,-0,1.473e-16,0.66667
0.95368,0.43728,4.7684,-0.094083,-0.22976,0.69886,1.1963,-0.39878,-1.9707,1.5951,-3.9154e-07,-0.98535,0,0,0.2,-8.8818e-17,0,0.66667
0.80534,0.53954,4.0267,0.059309,0.66037,7.2905,-0.63686,0.21229,-1.9866,-0.84915,5.5307e-11,-0.99332,0,0,0.2,-0,-0,0.66667
0.4283,0.67811,2.1415,0.26717,7.1359,48.21,-1.5257,0.50858,-1.7453,-2.0343,7.5517e-13,-0.87265,0,0,0.2,-0,-0,0.66667
0.67249,0.83457,3.3625,0.50186,9.0015,18.622,-4.4999,1.5,-1.1053,-5.9999,-2.1272e-12,-0.55263,0,0,0.2,-4.737e-16,0,0.66667
0.21193,0.078488,1.0596,-0.63227,-20.022,82.089,1.7866,-0.59554,-0.57741,2.3821,2.4445e-11,-0.2887,0,0,0.2,-2.5097e-16,0,0.66667
0.52016,0.56299,2.6008,0.09449,2.2432,35.645,-0.65534,0.21845,-1.969,-0.87378,-2.3143e-13,-0.98448,0,0,0.2,-0,-0,0.66667
0.97554,0.0057962,4.8777,-0.74131,-1.184,1.4635,9.6423,-3.2141,-0.045545,12.856,-8.4927e-07,-0.022772,0,0,0.2,-0,-0,0.66667
0.83042,0.74754,4.1521,0.37132,3.6783,5.9773,-4.1113,1.3704,-1.5108,-5.4818,8.6836e-10,-0.75538,0,0,0.2,-0,-0,0.66667
0.21598,0.68595,1.0799,0.27893,8.7237,81.265,-0.80324,0.26775,-1.7244,-1.071,-2.342e-10,-0.86218,0,0,0.2,-2.9606e-16,0,0.66667
0.44842,0.3499,2.2421,-0.22516,-5.8766,45.341,1.3462,-0.44874,-1.8195,1.7949,-1.1e-12,-0.90973,0,0,0.2,-0,-0,0.66667
0.57268,0.07627,2.8634,-0.63559,-14.134,29.64,4.8532,-1.6177,-0.56259,6.471,3.3884e-13,-0.28129,0,0,0.2,-9.4739e-16,0,0.66667
0.5708,0.13038,2.854,-0.55443,-12.313,29.74,4.2196,-1.4065,-0.90653,5.6262,6.4437e-13,-0.45327,0,0,0.2,-0,-0,0.66667
0.93053,0.94964,4.6526,0.67447,2.9401,2.2186,-8.3681,2.7894,-0.38143,-11.157,1.2977e-07,-0.19071,0,0,0.2,1.8948e-15,0,0.66667
0.2551,0.60925,1.2755,0.16388,5.0162,74.809,-0.5574,0.1858,-1.9035,-0.7432,-5.2863e-11,-0.95175,0,0,0.2,-0,-0,0.66667
0.65634,0.52892,3.2817,0.04338,0.79788,19.866,-0.37963,0.12654,-1.9953,-0.50617,-2.4272e-13,-0.99764,0,0,0.2,9.4739e-16,0,0.66667
0.78125,0.10612,3.9062,-0.59082,-7.543,9.5494,6.1543,-2.0514,-0.75974,8.2058,-6.6078e-11,-0.37987,0,0,0.2,-0,-0,0.66667
0.11597,0.14207,0.57986,-0.53689,-17.503,98.205,0.83019,-0.27673,-0.97391,1.1069,7.8994e-09,-0.48696,0,0,0.2,2.3685e-16,0,0.66667
0.52639,0.76906,2.6319,0.40359,9.5582,35.028,-2.8326,0.94421,-1.42,-3.7768,-7.0388e-14,-0.70998,0,0,0.2,-9.4739e-16,0,0.66667
0.41234,0.50357,2.0617,0.0053589,0.14513,50.445,-0.029463,0.0098208,-1.9998,-0.039283,2.492e-13,-0.99988,0,0,0.2,-0,-0,0.66667
0.50229,0.04608,2.5115,-0.68088,-16.9,38.479,4.56,-1.52,-0.35142,6.08,-2.2471e-13,-0.17571,0,0,0.2,9.4739e-16,0,0.66667
0.065315,0.70099,0.32658,0.30149,9.8592,106.87,-0.26256,0.087518,-1.6764,-0.35007,5.22e-09,-0.83822,0,0,0.2,-0,-0,0.66667
0.26954,0.92971,1.3477,0.64456,19.826,72.699,-2.3164,0.77215,-0.52248,-3.0886,-2.1825e-12,-0.26124,0,0,0.2,2.3685e-16,0,0.66667
0.25,0.74757,1.25,0.37135,11.441,75.701,-1.2378,0.41262,-1.5117,-1.6505,-7.751e-11,-0.75584,0,0,0.2,5.9212e-16,0,0.66667
0.66868,0.45537,3.3434,-0.066951,-1.1951,18.629,0.59692,-0.19897,-1.9836,0.79589,-1.435e-13,-0.99178,0,0,0.2,-9.4739e-16,0,0.66667
0.050074,0.06621,0.25037,-0.65069,-21.541,109.55,0.43443,-0.14481,-0.49506,0.57925,1.8956e-07,-0.24753,0,0,0.2,-1.1842e-16,0,0.66667
0.97313,0.305,4.8657,-0.2925,-0.37216,0.49452,3.7953,-1.2651,-1.6954,5.0603,7.1352e-09,-0.8477,0,0,0.2,9.4739e-16,0,0.66667
0.37569,0.52209,1.8784,0.033132,0.92923,55.865,-0.16596,0.055321,-1.9968,-0.22128,3.9668e-13,-0.99842,0,0,0.2,-0,-0,0.66667
0.87187,0.85284,4.3593,0.52926,4.0763,4.0697,-6.1527,2.0509,-1.0038,-8.2035,1.6118e-09,-0.5019,0,0,0.2,-0,-0,0.66667
0.69429,0.93895,3.4715,0.65843,11.28,16.823,-6.0952,2.0317,-0.45876,-8.127,-1.0747e-13,-0.22938,0,0,0.2,-1.8948e-15,0,0.66667
0.029579,0.41966,0.1479,-0.1205,-3.9448,113.06,0.047525,-0.015842,-1.9484,0.063367,-1.087e-07,-0.97421,0,0,0.2,5.9212e-17,0,0.66667
0.087271,0.76168,0.43635,0.39252,12.818,103.1,-0.45673,0.15224,-1.4511,-0.60898,-2.1712e-09,-0.72556,0,0,0.2,-0,-0,0.66667
0.094963,0.37423,0.47482,-0.18865,-6.1285,101.75,0.23886,-0.079621,-1.8752,0.31848,-8.0036e-09,-0.93761,0,0,0.2,-1.7764e-16,0,0.66667
0.56423,0.50795,2.8211,0.011919,0.26387,30.139,-0.089668,0.029889,-1.9999,-0.11956,-7.6011e-13,-0.99995,0,0,0.2,-0,-0,0.66667
0.56604,0.2336,2.8302,-0.39961,-8.8854,30.121,3.0159,-1.0053,-1.4316,4.0212,1.348e-12,-0.7158,0,0,0.2,-9.4739e-16,0,0.66667
0.31061,0.384,1.553,-0.174,-5.1444,65.912,0.7206,-0.2402,-1.8926,0.96081,4.0873e-12,-0.94629,0,0,0.2,-0,-0,0.66667
0.11319,0.87245,0.56597,0.55867,18.239,98.686,-0.84317,0.28106,-0.89074,-1.1242,-7.0834e-09,-0.44537,0,0,0.2,2.9606e-17,0,0.66667
0.76861,0.52494,3.843,0.037417,0.48866,9.877,-0.38345,0.12782,-1.9952,-0.51127,1.8906e-11,-0.99758,0,0,0.2,-0,-0,0.66667
0.1382,0.84383,0.69099,0.51574,16.704,94.411,-0.95033,0.31678,-1.0557,-1.2671,-6.586e-09,-0.52784,0,0,0.2,-4.737e-16,0,0.66667
0.58503,0.095523,2.9252,-0.60672,-13.18,28.148,4.7326,-1.5775,-0.69131,6.3102,1.39e-13,-0.34566,0,0,0.2,1.8948e-15,0,0.66667
0.50868,0.97428,2.5434,0.71142,17.536,37.696,-4.8251,1.6084,-0.19995,-6.4335,-2.7844e-13,-0.099975,0,0,0.2,-0,-0,0.66667
0.51012,0.013825,2.5506,-0.72926,-17.96,37.538,4.9602,-1.6534,-0.10803,6.6136,2.971e-13,-0.054013,0,0,0.2,-1.8948e-15,0,0.66667
0.35934,0.72806,1.7967,0.34209,9.7725,58.431,-1.639,0.54633,-1.585,-2.1853,3.046e-12,-0.79248,0,0,0.2,-0,-0,0.66667
0.055479,0.14494,0.27739,-0.53259,-17.545,108.6,0.39397,-0.13132,-0.99034,0.52529,3.2763e-08,-0.49517,0,0,0.2,-5.9212e-17,0,0.66667
0.33619,0.049735,1.681,-0.6754,-19.894,62.233,3.0275,-1.0092,-0.37691,4.0367,-2.4336e-13,-0.18845,0,0,0.2,-4.737e-16,0,0.66667
0.94985,0.013907,4.7493,-0.72914,-2.3532,1.8895,9.2343,-3.0781,-0.10917,12.312,-5.3901e-08,-0.054583,0,0,0.2,3.7896e-15,0,0.66667
0.94833,0.78205,4.7417,0.42308,1.2514,1.1805,-5.3496,1.7832,-1.3642,-7.1328,-2.5225e-08,-0.68208,0,0,0.2,-0,-0,0.66667
0.42932,0.44979,2.1466,-0.075315,-2.0043,48.002,0.43112,-0.14371,-1.9787,0.57483,-5.8953e-13,-0.98933,0,0,0.2,-0,-0,0.66667
0.74205,0.14857,3.7102,-0.52714,-7.7404,12.422,5.2155,-1.7385,-1.0112,6.9541,-2.5542e-11,-0.50559,0,0,0.2,-4.737e-16,0,0.66667
0.55762,0.17284,2.7881,-0.49073,-11.108,31.24,3.6485,-1.2162,-1.1428,4.8647,7.7449e-13,-0.5714,0,0,0.2,-9.4739e-16,0,0.66667
0.914,0.87556,4.57,0.56334,2.9476,2.4509,-6.8653,2.2884,-0.87198,-9.1537,6.3528e-08,-0.43599,0,0,0.2,-0,-0,0.66667
0.73641,0.39326,3.6821,-0.16011,-2.3536,12.471,1.5721,-0.52404,-1.9088,2.0962,-3.871e-11,-0.95438,0,0,0.2,-0,-0,0.66667
0.39393,0.63678,1.9697,0.20517,5.667,53.182,-1.0776,0.35921,-1.8499,-1.4369,1.4202e-12,-0.92493,0,0,0.2,-0,-0,0.66667
0.060535,0.75189,0.30268,0.37783,12.384,107.71,-0.30496,0.10165,-1.4936,-0.40662,9.2226e-09,-0.74681,0,0,0.2,2.3685e-16,0,0.66667
0.81061,0.58738,4.0531,0.13107,1.4241,6.973,-1.4166,0.47221,-1.9394,-1.8889,3.7046e-10,-0.96972,0,0,0.2,-0,-0,0.66667
0.31642,0.97422,1.5821,0.71133,21.295,65.332,-3.001,1.0003,-0.20093,-4.0014,6.2084e-13,-0.10046,0,0,0.2,-0,-0,0.66667
0.49421,0.68121,2.471,0.27181,6.7098,39.113,-1.7911,0.59703,-1.7368,-2.3881,1.2323e-13,-0.8684,0,0,0.2,4.737e-16,0,0.66667
0.54153,0.6435,2.7076,0.21525,4.9557,32.982,-1.5542,0.51806,-1.8343,-2.0722,-6.2939e-13,-0.91714,0,0,0.2,-0,-0,0.66667
0.51753,0.78627,2.5876,0.42941,10.312,36.187,-2.9631,0.9877,-1.3451,-3.9508,-1.6653e-13,-0.67254,0,0,0.2,-0,-0,0.66667
0.14619,0.13214,0.73096,-0.5518,-17.852,93.066,1.0756,-0.35853,-0.91684,1.4341,2.7646e-09,-0.45842,0,0,0.2,-0,-0,0.66667
0.35934,0.096238,1.7967,-0.60564,-17.458,58.629,2.9018,-0.96727,-0.69779,3.8691,-8.5687e-13,-0.34889,0,0,0.2,-0,6.9417e-17,0.66667
0.36131,0.63708,1.8065,0.20562,5.8482,58.071,-0.99055,0.33018,-1.8497,-1.3207,1.896e-12,-0.92483,0,0,0.2,-0,-0,0.66667
0.2158,0.83074,1.079,0.49611,15.604,81.376,-1.4275,0.47582,-1.1245,-1.9033,-1.3414e-10,-0.56223,0,0,0.2,2.3685e-16,0,0.66667
0.036849,0.61652,0.18425,0.17478,5.7217,111.8,-0.085874,0.028625,-1.8907,-0.1145,2.4294e-08,-0.94533,0,0,0.2,-0,-0,0.66667
0.92418,0.69037,4.6209,0.28556,1.2463,1.6385,-3.5188,1.1729,-1.711,-4.6917,7.7337e-10,-0.85548,0,0,0.2,-0,-0,0.66667
0.35432,0.80691,1.7716,0.46037,13.252,59.27,-2.1749,0.72497,-1.2461,-2.8999,2.2902e-12,-0.62307,0,0,0.2,-7.1054e-16,0,0.66667
0.1958,0.54138,0.97899,0.062064,1.9535,84.593,-0.16203,0.054009,-1.9853,-0.21604,-6.2844e-11,-0.99264,0,0,0.2,-0,-0,0.66667
0.86409,0.83363,4.3205,0.50044,4.0642,4.3826,-5.7657,1.9219,-1.1088,-7.6875,4.838e-09,-0.55442,0,0,0.2,-0,-0,0.66667
0.49805,0.99137,2.4903,0.73706,18.459,39.123,-4.8946,1.6315,-0.068682,-6.5261,-4.5963e-13,-0.034341,0,0,0.2,4.737e-16,-1.8937e-16,0.66667
0.81993,0.12919,4.0996,-0.55622,-5.9302,6.9193,6.0808,-2.0269,-0.89966,8.1077,-8.4656e-10,-0.44983,0,0,0.2,-0,-0,0.66667
0.76332,0.76385,3.8166,0.39578,5.3393,10.542,-4.0281,1.3427,-1.4428,-5.3708,1.1279e-10,-0.72142,0,0,0.2,-0,-0,0.66667
0.11672,0.11806,0.58362,-0.57291,-18.698,98.087,0.89164,-0.29721,-0.83226,1.1889,7.3726e-09,-0.41613,0,0,0.2,-1.1842e-16,0,0.66667
0.51608,0.038475,2.5804,-0.69229,-16.87,36.712,4.7637,-1.5879,-0.29701,6.3516,-1.9185e-13,-0.1485,0,0,0.2,-0,-0,0.66667
0.33424,0.051297,1.6712,-0.67305,-19.852,62.531,2.9995,-0.99983,-0.38831,3.9993,-2.7489e-13,-0.19415,0,0,0.2,-0,-0,0.66667
0.68594,0.59465,3.4297,0.14198,2.426,16.973,-1.2985,0.43285,-1.9299,-1.7314,3.0148e-12,-0.96495,0,0,0.2,-1.8948e-15,0,0.66667
0.78722,0.7192,3.9361,0.3288,4.0131,8.7072,-3.4512,1.1504,-1.6161,-4.6016,2.8332e-10,-0.80804,0,0,0.2,-0,-0,0.66667
0.28471,0.056333,1.4235,-0.6655,-20.303,70.288,2.5263,-0.84211,-0.42529,3.3684,-3.0709e-13,-0.21264,0,0,0.2,2.3685e-16,0,0.66667
0.42001,0.21253,2.1,-0.4312,-11.669,49.508,2.4148,-0.80492,-1.3394,3.2197,-1.8896e-12,-0.66972,0,0,0.2,1.1846e-17,0,0.66667
0.88235,0.1231,4.4118,-0.56535,-4.0308,3.6763,6.6512,-2.2171,-0.86366,8.8682,-1.6172e-08,-0.43183,0,0,0.2,-1.1842e-15,0,0.66667
0.764,0.17385,3.82,-0.48922,-6.6248,10.63,4.9836,-1.6612,-1.1491,6.6448,-7.4231e-11,-0.57454,0,0,0.2,-9.0476e-16,0,0.66667
0.2849,0.58467,1.4245,0.127,3.8177,69.988,-0.48243,0.16081,-1.9423,-0.64324,-1.4207e-11,-0.97114,0,0,0.2,-2.3685e-16,0,0.66667
0.72388,0.24783,3.6194,-0.37826,-5.8371,13.723,3.6508,-1.2169,-1.4915,4.8678,-2.5165e-11,-0.74577,0,0,0.2,-2.3685e-16,0,0.66667
0.02714,0.88026,0.1357,0.57039,18.859,113.5,-0.20641,0.068802,-0.84319,-0.27521,2.0672e-07,-0.4216,0,0,0.2,-5.9212e-17,0,0.66667
0.5633,0.13067,2.8165,-0.554,-12.46,30.636,4.1609,-1.387,-0.90983,5.5478,7.0388e-13,-0.45491,0,0,0.2,-0,-0,0.66667
0.041077,0.30632,0.20539,-0.29052,-9.5237,111.07,0.15912,-0.05304,-1.6994,0.21216,-2.3278e-09,-0.84971,0,0,0.2,2.9606e-17,0,0.66667
0.12608,0.92068,0.63041,0.63102,20.592,96.511,-1.0608,0.3536,-0.58452,-1.4144,1.0568e-09,-0.29226,0,0,0.2,-0,-0,0.66667
0.8206,0.68309,4.103,0.27464,2.8513,6.4517,-3.0049,1.0016,-1.7315,-4.0065,6.2806e-10,-0.86573,0,0,0.2,4.737e-16,0,0.66667
0.68161,0.36204,3.408,-0.20694,-3.5817,17.423,1.8807,-0.6269,-1.8467,2.5076,-2.3279e-12,-0.92333,0,0,0.2,9.4739e-16,0,0.66667
0.43883,0.27458,2.1942,-0.33813,-8.9433,46.754,1.9784,-0.65947,-1.5942,2.6379,-1.5801e-12,-0.7971,0,0,0.2,-0,-0,0.66667
0.39571,0.61688,1.9785,0.17532,4.8323,52.909,-0.92502,0.30834,-1.8901,-1.2334,1.4215e-12,-0.94505,0,0,0.2,-0,-0,0.66667
0.8758,0.4865,4.379,-0.02025,-0.14545,3.3452,0.23646,-0.07882,-1.999,0.31528,5.7768e-09,-0.99948,0,0,0.2,-9.4739e-16,0,0.66667
0.23877,0.5567,1.1938,0.085047,2.6243,77.469,-0.27075,0.090251,-1.9741,-0.361,-5.3295e-11,-0.98705,0,0,0.2,-0,-0,0.66667
0.39398,0.001837,1.9699,-0.74724,-21.039,53.626,3.9254,-1.3085,-0.015413,5.2338,7.2098e-13,-0.0077067,0,0,0.2,-1.8948e-15,0,0.66667
0.14348,0.50665,0.71739,0.0099806,0.32001,93.429,-0.019093,0.0063644,-1.9998,-0.025458,-1.0206e-09,-0.99989,0,0,0.2,-0,-0,0.66667
0.67243,0.68583,3.3621,0.27874,4.9501,18.368,-2.4991,0.83303,-1.7256,-3.3321,-5.9153e-13,-0.86281,0,0,0.2,2.3685e-16,0,0.66667
0.17561,0.1644,0.87805,-0.5034,-16.101,88.082,1.1787,-0.3929,-1.0987,1.5716,5.346e-10,-0.54934,0,0,0.2,-0,-0,0.66667
0.99975,0.58791,4.9988,0.13187,-0.072378,0.040389,-1.7578,0.58595,-1.9395,-2.3438,1.3666e-08,-0.96975,0,0,0.2,-4.737e-16,0,0.66667
0.96443,0.061345,4.8222,-0.65798,-1.444,1.3882,8.4611,-2.8204,-0.46128,11.281,1.2654e-07,-0.23064,0,0,0.2,6.1646e-16,3.2371e-19,0.66667
0.067754,0.62595,0.33877,0.18893,6.1654,106.44,-0.17067,0.056891,-1.8736,-0.22756,-1.641e-08,-0.93678,0,0,0.2,-0,-0,0.66667
0.070849,0.68179,0.35425,0.27268,8.9058,105.92,-0.25759,0.085864,-1.7351,-0.34346,3.2217e-09,-0.86754,0,0,0.2,1.0116e-16,0,0.66667
0.24709,0.98977,1.2355,0.73466,22.976,76.397,-2.4204,0.80679,-0.080746,-3.2271,-1.299e-11,-0.040373,0,0,0.2,-0,-0,0.66667
0.31125,0.94493,1.5563,0.66739,20.01,66.098,-2.7697,0.92323,-0.41698,-3.6929,1.076e-12,-0.20849,0,0,0.2,-0,-1.7165e-16,0.66667
0.79794,0.47305,3.9897,-0.040429,-0.46607,7.7807,0.43013,-0.14338,-1.9954,0.5735,1.421e-11,-0.99768,0,0,0.2,-0,-0,0.66667
0.75286,0.039929,3.7643,-0.69011,-9.9033,11.888,6.9274,-2.3091,-0.30658,9.2366,3.1406e-12,-0.15329,0,0,0.2,-0,-0,0.66667
0.1789,0.62924,0.89452,0.19387,6.1499,87.443,-0.46245,0.15415,-1.866,-0.6166,-3.4601e-10,-0.93302,0,0,0.2,-0,-0,0.66667
0.74052,0.97561,3.7026,0.71342,10.7,12.926,-7.044,2.348,-0.18972,-9.3921,1.5627e-12,-0.094859,0,0,0.2,-0,-0,0.66667
0.37683,0.39631,1.8842,-0.15553,-4.3614,55.713,0.78146,-0.26049,-1.9142,1.0419,-1.3761e-12,-0.95708,0,0,0.2,-4.737e-16,0,0.66667
0.31534,0.70013,1.5767,0.30019,8.8642,65.209,-1.2622,0.42072,-1.6792,-1.6829,-2.1628e-12,-0.83962,0,0,0.2,-4.737e-16,0,0.66667
0.20011,0.44566,1.0005,-0.081505,-2.5611,83.873,0.21747,-0.072488,-1.9763,0.28995,2.2154e-10,-0.98814,0,0,0.2,4.737e-16,0,0.66667
0.55685,0.91835,2.7842,0.62753,14.322,31.522,-4.6592,1.5531,-0.59885,-6.2122,-1.1813e-13,-0.29943,0,0,0.2,9.4739e-16,0,0.66667
0.50796,0.50437,2.5398,0.0065619,0.15846,37.218,-0.044443,0.014814,-1.9995,-0.059257,-5.2208e-13,-0.99974,0,0,0.2,3.7896e-15,0,0.66667
0.90452,0.70466,4.5226,0.30699,1.7118,2.3369,-3.7024,1.2341,-1.6649,-4.9365,1.1755e-09,-0.83246,0,0,0.2,1.8948e-15,0,0.66667
0.16445,0.34793,0.82224,-0.22811,-7.2773,89.888,0.50016,-0.16672,-1.8147,0.66688,5.7277e-10,-0.90733,0,0,0.2,-0,-0,0.66667
0.026083,0.59446,0.13041,0.14169,4.6401,113.66,-0.049276,0.016425,-1.9292,-0.065701,-3.2684e-07,-0.96458,0,0,0.2,-1.1842e-16,0,0.66667
0.13921,0.95529,0.69603,0.68293,22.255,94.302,-1.2676,0.42252,-0.34186,-1.6901,3.2647e-09,-0.17093,0,0,0.2,-0,-0,0.66667
0.036355,0.54886,0.18177,0.073286,2.3973,111.88,-0.035524,0.011841,-1.9799,-0.047365,2.0182e-07,-0.98996,0,0,0.2,5.9212e-17,0,0.66667
0.56867,0.14428,2.8434,-0.53358,-11.88,29.964,4.0458,-1.3486,-0.98665,5.3943,4.8495e-13,-0.49332,0,0,0.2,-0,-0,0.66667
0.77158,0.8076,3.8579,0.4614,6.0565,10.017,-4.7468,1.5823,-1.2427,-6.329,9.6674e-11,-0.62136,0,0,0.2,4.5687e-16,0,0.66667
0.98718,0.43122,4.9359,-0.10317,-0.028585,0.14146,1.3579,-0.45265,-1.9624,1.8106,-1.0524e-06,-0.98118,0,0,0.2,-0,-0,0.66667
0.84725,0.28018,4.2362,-0.32974,-2.9462,4.9776,3.7249,-1.2416,-1.6143,4.9665,-1.469e-09,-0.80714,0,0,0.2,8.2897e-16,0,0.66667
0.16958,0.98056,0.84788,0.72084,23.305,89.197,-1.6298,0.54328,-0.15237,-2.1731,8.1026e-10,-0.076184,0,0,0.2,-0,-0,0.66667
0.97796,0.71129,4.8898,0.31693,0.3087,0.45479,-4.1326,1.3775,-1.6422,-5.5101,-6.8425e-10,-0.82108,0,0,0.2,-0,-0,0.66667
0.57851,0.90904,2.8925,0.61356,13.489,28.919,-4.7327,1.5776,-0.66322,-6.3102,-3.8858e-13,-0.33161,0,0,0.2,-0,-0,0.66667
0.81024,0.79035,4.0512,0.43552,4.8185,7.3076,-4.705,1.5683,-1.3257,-6.2733,4.5498e-10,-0.66284,0,0,0.2,-0,-0,0.66667
0.011419,0.15292,0.057096,-0.52062,-17.194,116.22,0.079267,-0.026422,-1.0365,0.10569,1.0981e-07,-0.51827,0,0,0.2,7.4015e-18,0,0.66667
0.19796,0.603,0.98978,0.15449,4.8617,84.241,-0.40777,0.13592,-1.9144,-0.5437,-2.0495e-10,-0.9572,0,0,0.2,-0,-0,0.66667
0.92504,0.52199,4.6252,0.032981,0.13944,1.4463,-0.40678,0.13559,-1.9959,-0.54238,-1.6713e-08,-0.99794,0,0,0.2,-0,-0,0.66667
0.24256,0.74135,1.2128,0.36202,11.195,76.913,-1.1708,0.39028,-1.5331,-1.5611,-1.0336e-10,-0.76655,0,0,0.2,-2.3685e-16,0,0.66667
0.53957,0.25709,2.6978,-0.36437,-8.4472,33.331,2.6214,-0.87379,-1.5272,3.4952,5.4268e-13,-0.76361,0,0,0.2,-0,-0,0.66667
0.72603,0.70667,3.6302,0.31001,4.7366,13.463,-3.001,1.0003,-1.6571,-4.0014,3.113e-11,-0.82857,0,0,0.2,-0,-0,0.66667
0.10091,0.60359,0.50456,0.15539,5.04,100.72,-0.20907,0.06969,-1.9132,-0.27876,1.002e-08,-0.95658,0,0,0.2,-0,-0,0.66667
0.57273,0.81592,2.8637,0.47388,10.449,29.405,-3.6188,1.2063,-1.2015,-4.825,-6.4215e-13,-0.60077,0,0,0.2,-1.8948e-15,0,0.66667
0.21267,0.59838,1.0634,0.14757,4.6139,81.788,-0.41846,0.13949,-1.9223,-0.55795,-2.2758e-10,-0.96113,0,0,0.2,4.737e-16,0,0.66667
0.35815,0.26562,1.7907,-0.35157,-10.056,58.617,1.6789,-0.55962,-1.5607,2.2385,-3.0466e-12,-0.78036,0,0,0.2,-0,-0,0.66667
0.44382,0.0011254,2.2191,-0.74831,-20.028,46.49,4.4282,-1.4761,-0.0092907,5.9043,2.6246e-13,-0.0046453,0,0,0.2,-0,-0,0.66667
0.74936,0.8214,3.7468,0.48211,6.8812,11.758,-4.8169,1.6056,-1.1744,-6.4225,4.9321e-11,-0.58719,0,0,0.2,-0,-0,0.66667
0.91396,0.3715,4.5698,-0.19275,-0.953,1.8832,2.3489,-0.78297,-1.8677,3.1319,1.8455e-08,-0.93384,0,0,0.2,-1.4211e-15,0,0.66667
0.96955,0.19833,4.8477,-0.4525,-0.73685,0.80988,5.8496,-1.9499,-1.2725,7.7995,5.6374e-08,-0.63626,0,0,0.2,-0,-0,0.66667
0.38163,0.5754,1.9082,0.1131,3.1565,54.985,-0.5755,0.19183,-1.9534,-0.76733,6.0868e-13,-0.97668,0,0,0.2,9.4739e-16,0,0.66667
0.2518,0.72976,1.259,0.34464,10.601,75.398,-1.157,0.38568,-1.5778,-1.5427,-7.3288e-11,-0.7889,0,0,0.2,-0,-0,0.66667
0.27102,0.27498,1.3551,-0.33753,-10.268,72.28,1.2197,-0.40656,-1.5945,1.6263,3.477e-11,-0.79724,0,0,0.2,-0,-0,0.66667
0.76456,0.37618,3.8228,-0.18573,-2.4703,10.24,1.8934,-0.63112,-1.8791,2.5245,-1.2326e-10,-0.93954,0,0,0.2,-0,-0,0.66667
0.84258,0.21958,4.2129,-0.42063,-3.8988,5.36,4.7255,-1.5752,-1.3727,6.3007,-1.1494e-09,-0.68633,0,0,0.2,-3.7896e-15,0,0.66667
0.16474,0.29683,0.82372,-0.30476,-9.7346,89.852,0.66944,-0.22315,-1.6685,0.89258,1.0838e-09,-0.83426,0,0,0.2,-0,-0,0.66667
0.029941,0.43297,0.1497,-0.10055,-3.291,112.99,0.04014,-0.01338,-1.9651,0.053519,-6.2626e-07,-0.98254,0,0,0.2,1.4803e-17,0,0.66667
0.84738,0.81486,4.2369,0.4723,4.2725,5.1857,-5.3362,1.7787,-1.2075,-7.1149,2.5358e-09,-0.60373,0,0,0.2,-0,-0,0.66667
0.15971,0.19924,0.79853,-0.45114,-14.486,90.744,0.96066,-0.32022,-1.2758,1.2809,1.0845e-09,-0.63792,0,0,0.2,-0,-0,0.66667
0.94524,0.14806,4.7262,-0.5279,-1.719,1.4639,6.6533,-2.2178,-1.0083,8.871,-6.9824e-09,-0.50414,0,0,0.2,9.4739e-16,0,0.66667
0.96751,0.35581,4.8376,-0.21629,-0.34517,0.50471,2.7901,-0.93004,-1.834,3.7202,-1.6137e-08,-0.91698,0,0,0.2,-0,-0,0.66667
0.57819,0.83392,2.8909,0.50088,10.953,28.795,-3.8614,1.2871,-1.109,-5.1485,-7.6561e-13,-0.55448,0,0,0.2,-0,-0,0.66667
0.48604,0.63591,2.4302,0.20386,5.08,40.169,-1.3211,0.44038,-1.8524,-1.7615,-2.7645e-14,-0.9262,0,0,0.2,-0,-0,0.66667
0.35393,0.35613,1.7696,-0.21581,-6.177,59.199,1.0184,-0.33947,-1.8334,1.3579,-1.8605e-12,-0.91671,0,0,0.2,-0,-0,0.66667
0.6594,0.29794,3.297,-0.30309,-5.5622,19.687,2.6647,-0.88825,-1.6729,3.553,2.1025e-12,-0.83643,0,0,0.2,-0,-0,0.66667
0.38436,0.38127,1.9218,-0.1781,-4.9616,54.594,0.91272,-0.30424,-1.8867,1.217,-1.2909e-12,-0.94333,0,0,0.2,9.4739e-16,0,0.66667
0.4349,0.90146,2.1745,0.60219,16.152,47.551,-3.4919,1.164,-0.7111,-4.6559,3.8369e-13,-0.35555,0,0,0.2,-4.5303e-16,0,0.66667
0.6133,0.52098,3.0665,0.031468,0.63607,24.451,-0.25733,0.085775,-1.9959,-0.3431,-4.8483e-13,-0.99797,0,0,0.2,-0,-0,0.66667
0.034635,0.203,0.17317,-0.4455,-14.664,112.19,0.20573,-0.068577,-1.2937,0.27431,-5.8447e-08,-0.64686,0,0,0.2,-5.9212e-17,0,0.66667
0.2188,0.11224,1.094,-0.58163,-18.324,80.924,1.6969,-0.56562,-0.79798,2.2625,9.2922e-11,-0.39899,0,0,0.2,-2.3685e-16,0,0.66667
0.020192,0.93538,0.10096,0.65307,21.668,114.71,-0.17582,0.058607,-0.48392,-0.23443,8.9751e-09,-0.24196,0,0,0.2,-1.4803e-17,0,0.66667
0.76313,0.32398,3.8157,-0.26403,-3.5405,10.409,2.6865,-0.8955,-1.752,3.582,-1.3042e-10,-0.87598,0,0,0.2,-1.8948e-15,0,0.66667
0.38987,0.84046,1.9493,0.51069,14.276,53.973,-2.6547,0.8849,-1.0742,-3.5396,1.5272e-12,-0.53708,0,0,0.2,5.9212e-16,0,0.66667
0.42267,0.73317,2.1133,0.34975,9.416,49.065,-1.9711,0.65702,-1.5655,-2.6281,9.8677e-13,-0.78273,0,0,0.2,-0,-0,0.66667
0.54968,0.94503,2.7484,0.66754,15.447,32.458,-4.8925,1.6308,-0.41564,-6.5233,1.1946e-13,-0.20782,0,0,0.2,-0,-0,0.66667
0.38846,0.4312,1.9423,-0.1032,-2.862,53.965,0.53455,-0.17818,-1.9626,0.71273,-1.2806e-12,-0.98128,0,0,0.2,4.6686e-16,0,0.66667
0.81063,0.04767,4.0532,-0.67849,-7.6827,7.77,7.3335,-2.4445,-0.36312,9.778,-7.333e-11,-0.18156,0,0,0.2,-9.4739e-16,2.3623e-16,0.66667
0.4359,0.39591,2.1795,-0.15614,-4.1285,47.081,0.90747,-0.30249,-1.9136,1.21,-1.0881e-12,-0.95678,0,0,0.2,-0,-0,0.66667
0.58016,0.32005,2.9008,-0.26993,-5.8321,28.334,2.088,-0.696,-1.7413,2.784,1.3496e-12,-0.87063,0,0,0.2,-0,-0,0.66667
0.97117,0.91384,4.8559,0.62076,1.0618,1.173,-8.0382,2.6794,-0.63007,-10.718,-9.5683e-07,-0.31503,0,0,0.2,-0,-0,0.66667
0.9921,0.033589,4.9605,-0.69962,-0.31404,1.1454,9.2545,-3.0848,-0.25967,12.339,-1.1763e-05,-0.12984,0,0,0.2,-0,-0,0.66667
0.20287,0.55308,1.0144,0.079624,2.499,83.412,-0.21538,0.071794,-1.9784,-0.28718,-1.8357e-10,-0.98919,0,0,0.2,2.3685e-16,0,0.66667
0.44452,0.55972,2.2226,0.089585,2.3446,45.847,-0.53096,0.17699,-1.9714,-0.70795,-6.7113e-14,-0.9857,0,0,0.2,2.3685e-16,0,0.66667
0.47475,0.43021,2.3737,-0.10468,-2.643,41.663,0.66261,-0.22087,-1.9604,0.88348,-3.9907e-13,-0.98019,0,0,0.2,-4.737e-16,0,0.66667
0.29764,0.31278,1.4882,-0.28082,-8.3907,67.997,1.1145,-0.37148,-1.7217,1.4859,9.4467e-12,-0.86083,0,0,0.2,-0,-0,0.66667
0.2835,0.33054,1.4175,-0.25418,-7.6606,70.242,0.96083,-0.32028,-1.7701,1.2811,2.1551e-11,-0.88505,0,0,0.2,-4.737e-16,0,0.66667
0.83962,0.2301,4.1981,-0.40485,-3.8141,5.4995,4.5322,-1.5107,-1.4166,6.043,-1.3456e-09,-0.70829,0,0,0.2,-0,-0,0.66667
0.96209,0.37044,4.8105,-0.19434,-0.37604,0.5857,2.493,-0.83099,-1.8654,3.3239,-5.8437e-08,-0.93268,0,0,0.2,-0,-0,0.66667
0.21069,0.41499,1.0534,-0.12752,-3.9896,82.114,0.35822,-0.11941,-1.9413,0.47762,1.8595e-10,-0.97064,0,0,0.2,-0,-0,0.66667
0.89173,0.15768,4.4587,-0.51348,-3.3464,3.1724,6.1051,-2.035,-1.0642,8.1402,-1.8101e-08,-0.5321,0,0,0.2,-3.7896e-15,0,0.66667
0.39198,0.69947,1.9599,0.2992,8.2942,53.512,-1.5637,0.52124,-1.6819,-2.085,1.7324e-12,-0.84097,0,0,0.2,-0,-0,0.66667
0.65143,0.76837,3.2571,0.40255,7.557,20.601,-3.4964,1.1655,-1.4229,-4.6619,-2.9627e-12,-0.71147,0,0,0.2,9.4739e-16,0,0.66667
0.28386,0.45812,1.4193,-0.062823,-1.889,70.147,0.23777,-0.079258,-1.9858,0.31703,8.1105e-12,-0.9929,0,0,0.2,2.3685e-16,0,0.66667
0.94108,0.78644,4.7054,0.42966,1.4696,1.3706,-5.3913,1.7971,-1.3437,-7.1884,-1.4502e-08,-0.67186,0,0,0.2,-0,-0,0.66667
0.78682,0.96331,3.9341,0.69497,8.7669,9.3907,-7.2908,2.4303,-0.28239,-9.7211,7.7542e-12,-0.14119,0,0,0.2,1.4211e-15,0,0.66667
0.19277,0.17672,0.96387,-0.48492,-15.399,85.199,1.2464,-0.41546,-1.1631,1.6618,3.8969e-10,-0.58153,0,0,0.2,-0,-0,0.66667
0.61504,0.38579,3.0752,-0.17132,-3.4558,24.297,1.4049,-0.4683,-1.8947,1.8732,1.5883e-12,-0.94736,0,0,0.2,-0,-0,0.66667
0.9688,0.42481,4.844,-0.11279,-0.16666,0.40901,1.457,-0.48565,-1.9556,1.9426,1.4342e-07,-0.97779,0,0,0.2,-0,-0,0.66667
0.28459,0.53069,1.4229,0.046028,1.3833,70.03,-0.17465,0.058217,-1.9935,-0.23287,-6.3865e-12,-0.99674,0,0,0.2,5.3291e-16,0,0.66667
0.36153,0.84654,1.8077,0.51981,14.905,58.22,-2.5057,0.83524,-1.0403,-3.3409,1.8119e-12,-0.52013,0,0,0.2,9.4739e-16,0,0.66667
0.20361,0.49983,1.0181,-0.00025463,-0.0079868,83.286,0.00069127,-0.00023042,-2.0022,0.00092169,1.4307e-10,-1.0011,0,0,0.2,-1.1102e-16,0,0.66667
0.63877,0.44604,3.1938,-0.080933,-1.5504,21.697,0.6893,-0.22977,-1.977,0.91907,9.0089e-13,-0.9885,0,0,0.2,-0,-0,0.66667
0.89282,0.80222,4.4641,0.45332,2.8977,3.0131,-5.3965,1.7988,-1.2693,-7.1953,2.6331e-09,-0.63466,0,0,0.2,-0,-0,0.66667
0.3417,0.99116,1.7085,0.73675,21.676,61.453,-3.3566,1.1189,-0.070248,-4.4754,-4.9605e-13,-0.035124,0,0,0.2,4.0465e-16,1.9214e-16,0.66667
0.1244,0.22631,0.62199,-0.41054,-13.305,96.734,0.68094,-0.22698,-1.4017,0.90792,2.5386e-09,-0.70084,0,0,0.2,-0,-0,0.66667
0.34768,0.83832,1.7384,0.50749,14.711,60.319,-2.3526,0.78418,-1.0843,-3.1367,2.494e-12,-0.54214,0,0,0.2,-7.1054e-16,0,0.66667
0.62672,0.4387,3.1336,-0.091952,-1.8083,22.989,0.76838,-0.25613,-1.9714,1.0245,8.6797e-13,-0.98569,0,0,0.2,-0,-0,0.66667
0.73484,0.11031,3.6742,-0.58453,-8.8292,13.119,5.7272,-1.9091,-0.7857,7.6362,-7.5784e-12,-0.39285,0,0,0.2,-0,-0,0.66667
0.60653,0.35974,3.0327,-0.21039,-4.3199,25.266,1.7014,-0.56713,-1.8422,2.2685,1.679e-12,-0.9211,0,0,0.2,-0,-0,0.66667
0.076207,0.20659,0.38103,-0.44012,-14.417,105.01,0.4472,-0.14907,-1.3113,0.59627,5.5188e-09,-0.65563,0,0,0.2,1.1842e-16,0,0.66667
0.93982,0.37668,4.6991,-0.18498,-0.61847,1.0892,2.318,-0.77267,-1.8795,3.0907,5.1815e-08,-0.93973,0,0,0.2,-3.7896e-15,0,0.66667
0.18939,0.16917,0.94696,-0.49625,-15.786,85.769,1.2531,-0.41771,-1.1244,1.6709,3.9858e-10,-0.56218,0,0,0.2,-0,-0,0.66667
0.57409,0.40738,2.8704,-0.13893,-3.0264,28.983,1.0634,-0.35447,-1.9321,1.4179,5.1359e-13,-0.96604,0,0,0.2,1.8948e-15,0,0.66667
0.90683,0.96701,4.5342,0.70051,4.0961,3.0505,-8.4699,2.8233,-0.25709,-11.293,-1.7873e-07,-0.12854,0,0,0.2,-2.3685e-16,0,0.66667
0.97339,0.91148,4.8669,0.61722,0.96433,1.1296,-8.0105,2.6702,-0.64533,-10.681,-1.2064e-06,-0.32267,0,0,0.2,-0,-0,0.66667
0.85777,0.33699,4.2889,-0.24451,-2.0261,4.3331,2.7965,-0.93216,-1.788,3.7286,-9.6327e-10,-0.89401,0,0,0.2,-0,-0,0.66667
0.12909,0.67561,0.64546,0.26341,8.4993,95.904,-0.45338,0.15113,-1.7526,-0.60451,-1.0759e-09,-0.87631,0,0,0.2,-0,-0,0.66667
0.90702,0.55242,4.5351,0.078634,0.41941,2.0674,-0.95097,0.31699,-1.9786,-1.268,-2.0179e-08,-0.98932,0,0,0.2,-0,-0,0.66667
0.32751,0.93172,1.6376,0.64759,19.175,63.546,-2.8279,0.94264,-0.51007,-3.7705,9.0039e-13,-0.25504,0,0,0.2,-2.3685e-16,1.4273e-16,0.66667
0.58239,0.57344,2.9119,0.11016,2.3637,27.994,-0.8554,0.28513,-1.9562,-1.1405,-8.7663e-13,-0.97809,0,0,0.2,-0,-0,0.66667
0.14046,0.33923,0.7023,-0.24115,-7.7537,93.962,0.45163,-0.15054,-1.7948,0.60217,4.4511e-10,-0.8974,0,0,0.2,-1.7764e-16,0,0.66667
0.51272,0.75428,2.5636,0.38142,9.2068,36.763,-2.6075,0.86918,-1.4832,-3.4767,-3.5305e-13,-0.74159,0,0,0.2,1.8948e-15,0,0.66667
0.46733,0.73781,2.3366,0.35671,9.1325,42.798,-2.2227,0.74089,-1.5478,-2.9636,4.4098e-13,-0.77389,0,0,0.2,-4.737e-16,0,0.66667
0.005313,0.8455,0.026565,0.51825,17.116,117.27,-0.036712,0.012237,-1.0454,-0.04895,-2.463e-07,-0.52268,0,0,0.2,1.4803e-17,-5.2225e-16,0.66667
0.28621,0.26495,1.431,-0.35258,-10.63,69.847,1.3455,-0.44849,-1.557,1.794,1.6003e-11,-0.77851,0,0,0.2,-4.737e-16,0,0.66667
0.14345,0.76977,0.71724,0.40465,13.043,93.486,-0.77395,0.25798,-1.4175,-1.0319,-1.8409e-09,-0.70876,0,0,0.2,2.3685e-16,0,0.66667
0.35352,0.5611,1.7676,0.091657,2.6207,59.231,-0.43204,0.14401,-1.9704,-0.57605,1.0949e-12,-0.98521,0,0,0.2,-4.737e-16,0,0.66667
0.27167,0.78087,1.3584,0.42131,12.839,72.213,-1.5261,0.5087,-1.3694,-2.0348,-2.453e-11,-0.68468,0,0,0.2,-1.4803e-16,0,0.66667
0.47113,0.40292,2.3556,-0.14562,-3.6949,42.168,0.91475,-0.30492,-1.9254,1.2197,-4.7223e-13,-0.9627,0,0,0.2,-4.737e-16,0,0.66667
0.77155,0.78178,3.8578,0.42266,5.5336,9.9602,-4.3481,1.4494,-1.3653,-5.7975,1.5996e-10,-0.68264,0,0,0.2,-0,-0,0.66667
0.020636,0.78947,0.10318,0.43421,14.299,114.62,-0.11947,0.039825,-1.329,-0.1593,2.147e-08,-0.66452,0,0,0.2,-0,-0,0.66667
0.22758,0.69633,1.1379,0.29449,9.1626,79.351,-0.8936,0.29787,-1.6908,-1.1915,-1.8239e-10,-0.84538,0,0,0.2,4.737e-16,0,0.66667
0.98353,0.72375,4.9177,0.33562,0.20888,0.40781,-4.4012,1.4671,-1.6007,-5.8683,1.4395e-08,-0.80033,0,0,0.2,-0,-0,0.66667
0.059609,0.94837,0.29805,0.67256,22.262,107.91,-0.53454,0.17818,-0.3914,-0.71273,2.2766e-07,-0.1957,0,0,0.2,-0,-0,0.66667
0.59551,0.4806,2.9775,-0.029103,-0.60913,26.459,0.23108,-0.077027,-1.9971,0.30811,-2.5022e-14,-0.99853,0,0,0.2,-0,-0,0.66667
0.99828,0.55498,4.9914,0.082467,-0.038081,0.027757,-1.0977,0.36589,-1.9763,-1.4636,9.283e-07,-0.98813,0,0,0.2,-0,-0,0.66667
0.60079,0.1093,3.0039,-0.58606,-12.351,26.313,4.6946,-1.5649,-0.77757,6.2595,6.6658e-13,-0.38879,0,0,0.2,-0,-0,0.66667
0.052634,0.76507,0.26317,0.3976,13.05,109.08,-0.27903,0.093009,-1.4368,-0.37204,2.1158e-08,-0.7184,0,0,0.2,-0,-0,0.66667
0.12467,0.73391,0.62337,0.35087,11.354,96.674,-0.58325,0.19442,-1.5629,-0.77767,-2.4779e-09,-0.78145,0,0,0.2,-0,-0,0.66667
0.89515,0.24952,4.4757,-0.37573,-2.3246,2.7919,4.4844,-1.4948,-1.4988,5.9792,-2.5348e-09,-0.74939,0,0,0.2,-2.9606e-16,0,0.66667
0.86842,0.58992,4.3421,0.13488,1.0292,3.7263,-1.5618,0.5206,-1.9351,-2.0824,-1.337e-09,-0.96754,0,0,0.2,-9.4739e-16,0,0.66667
0.54878,0.017173,2.7439,-0.72424,-16.842,32.665,5.2993,-1.7664,-0.13496,7.0657,1.1546e-13,-0.067479,0,0,0.2,-0,-0,0.66667
0.26258,0.71088,1.3129,0.31632,9.6654,73.635,-1.1075,0.36916,-1.6442,-1.4766,-5.0644e-11,-0.82208,0,0,0.2,2.3685e-16,0,0.66667
0.51035,0.25884,2.5517,-0.36175,-8.7557,37.055,2.4615,-0.82052,-1.534,3.2821,-2.5335e-13,-0.767,0,0,0.2,9.4739e-16,0,0.66667
0.25377,0.88673,1.2689,0.58009,17.955,75.199,-1.9628,0.65427,-0.80295,-2.6171,-1.6704e-11,-0.40147,0,0,0.2,4.737e-16,0,0.66667
0.69013,0.83257,3.4507,0.49885,8.5462,16.926,-4.5903,1.5301,-1.115,-6.1204,-5.0049e-13,-0.55749,0,0,0.2,-0,-0,0.66667
0.60412,0.32563,3.0206,-0.26155,-5.4024,25.569,2.1068,-0.70226,-1.7558,2.809,1.6118e-12,-0.87789,0,0,0.2,9.4739e-16,0,0.66667
0.78798,0.0058695,3.9399,-0.7412,-9.3558,9.4263,7.7873,-2.5958,-0.046138,10.383,-1.1023e-10,-0.023069,0,0,0.2,-0,-0,0.66667
0.48764,0.90576,2.4382,0.60864,15.343,40.311,-3.9573,1.3191,-0.6839,-5.2764,-3.2063e-13,-0.34195,0,0,0.2,-8.8818e-17,0,0.66667
0.038361,0.48819,0.1918,-0.01771,-0.57913,111.53,0.0090584,-0.0030186,-1.9978,0.012078,1.2881e-06,-0.99888,0,0,0.2,-4.5428e-17,0,0.66667
0.79002,0.70615,3.9501,0.30923,3.7245,8.4894,-3.2573,1.0858,-1.6589,-4.343,2.9413e-10,-0.82943,0,0,0.2,-0,-0,0.66667
0.20938,0.27453,1.0469,-0.33821,-10.622,82.379,0.94416,-0.31472,-1.5927,1.2589,3.1564e-10,-0.79634,0,0,0.2,3.5527e-16,0,0.66667
0.22664,0.40856,1.1332,-0.13716,-4.2599,79.472,0.41448,-0.13816,-1.9331,0.55264,1.0179e-10,-0.96655,0,0,0.2,9.4739e-16,0,0.66667
0.54164,0.76662,2.7082,0.39992,9.2529,33.105,-2.8882,0.96273,-1.4303,-3.8509,-2.1538e-13,-0.71516,0,0,0.2,-9.4739e-16,0,0.66667
0.82259,0.0084223,4.113,-0.73737,-7.9329,7.1858,8.0874,-2.6958,-0.0661,10.783,-2.907e-10,-0.03305,0,0,0.2,-0,-0,0.66667
0.94909,0.71515,4.7455,0.32272,0.91396,1.0048,-4.0839,1.3613,-1.6299,-5.4452,-1.3188e-08,-0.81497,0,0,0.2,-2.3685e-15,0,0.66667
0.24077,0.50711,1.2039,0.010662,0.32857,77.136,-0.034228,0.011409,-1.9989,-0.045638,6.9575e-13,-0.99946,0,0,0.2,-9.4739e-16,0,0.66667
0.8962,0.13221,4.481,-0.55168,-3.4719,3.0751,6.5922,-2.1974,-0.91727,8.7896,1.4961e-08,-0.45863,0,0,0.2,1.8948e-15,0,0.66667
0.91103,0.70208,4.5552,0.30312,1.5699,2.0963,-3.682,1.2273,-1.6724,-4.9093,-1.8337e-09,-0.83619,0,0,0.2,-1.8948e-15,0,0.66667
0.74442,0.56573,3.7221,0.0986,1.4088,11.786,-0.97866,0.32622,-1.9654,-1.3049,3.6704e-11,-0.98271,0,0,0.2,-0,-0,0.66667
0.37426,0.45901,1.8713,-0.061478,-1.7266,56.082,0.30679,-0.10226,-1.9872,0.40905,-1.1301e-12,-0.99361,0,0,0.2,-0,-0,0.66667
0.54785,0.78507,2.7393,0.42761,9.8071,32.363,-3.1236,1.0412,-1.3512,-4.1647,-6.3771e-13,-0.67558,0,0,0.2,-0,-0,0.66667
0.13763,0.7112,0.68817,0.31681,10.208,94.456,-0.58137,0.19379,-1.6431,-0.77516,-1.734e-09,-0.82156,0,0,0.2,-1.1842e-16,0,0.66667
0.57527,0.60766,2.8764,0.16149,3.5116,28.851,-1.2386,0.41288,-1.9069,-1.6515,-6.7513e-13,-0.95344,0,0,0.2,-9.4739e-16,0,0.66667
0.57561,0.7919,2.8781,0.43786,9.591,29.022,-3.3605,1.1202,-1.3182,-4.4806,-1.1764e-12,-0.6591,0,0,0.2,-0,-0,0.66667
0.58347,0.96086,2.9174,0.69129,15.138,28.471,-5.378,1.7927,-0.30024,-7.1706,1.0925e-13,-0.15012,0,0,0.2,-4.737e-16,0,0.66667
0.92023,0.62228,4.6012,0.18341,0.83589,1.6662,-2.2504,0.75014,-1.8816,-3.0006,7.938e-09,-0.94079,0,0,0.2,2.1316e-15,0,0.66667
0.5331,0.60474,2.6655,0.15711,3.661,34.014,-1.1167,0.37224,-1.9123,-1.489,-4.1955e-13,-0.95616,0,0,0.2,-0,-0,0.66667
0.24089,0.49877,1.2045,-0.0018469,-0.056912,77.116,0.0059322,-0.0019774,-2.0002,0.0079096,-1.069e-11,-1.0001,0,0,0.2,6.2778e-16,0,0.66667
0.54523,0.50459,2.7262,0.0068881,0.15732,32.465,-0.050075,0.016692,-2.0007,-0.066767,4.6561e-13,-1.0004,0,0,0.2,-0,-0,0.66667
0.12737,0.98434,0.63687,0.72651,23.798,96.327,-1.2338,0.41128,-0.12306,-1.6451,-1.8169e-10,-0.061528,0,0,0.2,-0,-0,0.66667
0.074781,0.44489,0.3739,-0.082665,-2.6924,105.23,0.082423,-0.027474,-1.9756,0.1099,5.9895e-08,-0.9878,0,0,0.2,-0,-0,0.66667
0.83061,0.94063,4.1531,0.66094,6.7455,6.5183,-7.3198,2.4399,-0.44759,-9.7597,-9.4658e-10,-0.22379,0,0,0.2,1.8948e-15,0,0.66667
0.72316,0.23692,3.6158,-0.39463,-6.1087,13.806,3.805,-1.2683,-1.4455,5.0734,-2.1881e-11,-0.72274,0,0,0.2,-9.4739e-16,0,0.66667
0.083912,0.90251,0.41956,0.60377,19.86,103.72,-0.67551,0.22517,-0.70375,-0.90068,5.4502e-08,-0.35187,0,0,0.2,1.7764e-16,0,0.66667
0.55758,0.55523,2.7879,0.082841,1.8551,30.954,-0.61587,0.20529,-1.9751,-0.82117,-7.7499e-13,-0.98756,0,0,0.2,8.0385e-16,0,0.66667
0.52511,0.32076,2.6255,-0.26886,-6.3543,35.086,1.8824,-0.62747,-1.7422,2.5099,4.0667e-13,-0.8711,0,0,0.2,-0,-0,0.66667
0.50731,0.95254,2.5366,0.67881,16.732,37.822,-4.5916,1.5305,-0.36044,-6.1221,-6.7057e-14,-0.18022,0,0,0.2,-9.4739e-16,0,0.66667
0.032405,0.61453,0.16202,0.1718,5.6257,112.57,-0.074228,0.024743,-1.8955,-0.09897,4.2699e-08,-0.94774,0,0,0.2,2.9606e-17,0,0.66667
0.96037,0.12888,4.8019,-0.55668,-1.2957,1.2003,7.1282,-2.3761,-0.8979,9.5043,2.2401e-07,-0.44895,0,0,0.2,-0,-0,0.66667
0.92765,0.54602,4.6382,0.069027,0.28097,1.3737,-0.85377,0.28459,-1.982,-1.1384,-6.1743e-08,-0.99098,0,0,0.2,-0,-0,0.66667
0.96441,0.47711,4.8221,-0.03433,-0.060015,0.46315,0.44144,-0.14715,-1.9953,0.58859,-1.7533e-07,-0.99767,0,0,0.2,-0,-0,0.66667
0.53338,0.30599,2.6669,-0.29102,-6.7965,34.05,2.0696,-0.68988,-1.6993,2.7595,5.2625e-13,-0.84965,0,0,0.2,-0,-0,0.66667
0.12664,0.59951,0.6332,0.14926,4.8119,96.31,-0.25203,0.08401,-1.9215,-0.33604,-1.9815e-09,-0.96075,0,0,0.2,-0,-0,0.66667
0.73229,0.44414,3.6614,-0.083789,-1.247,12.787,0.8181,-0.2727,-1.9754,1.0908,-2.0418e-11,-0.98772,0,0,0.2,-0,-0,0.66667
0.94973,0.71303,4.7487,0.31954,0.89136,0.98564,-4.0464,1.3488,-1.637,-5.3952,-1.3816e-08,-0.81852,0,0,0.2,9.4739e-16,0,0.66667
0.25927,0.054636,1.2963,-0.66805,-20.691,74.372,2.3094,-0.76978,-0.41245,3.0791,1.6889e-12,-0.20623,0,0,0.2,2.3685e-16,0,0.66667
0.28377,0.82477,1.4188,0.48716,14.767,70.309,-1.8432,0.6144,-1.1559,-2.4576,-8.6749e-12,-0.57797,0,0,0.2,-0,-0,0.66667
0.44706,0.55404,2.2353,0.081064,2.1153,45.489,-0.4832,0.16107,-1.9758,-0.64427,1.2515e-13,-0.98792,0,0,0.2,-0,-0,0.66667
0.15862,0.62229,0.79309,0.18343,5.86,90.868,-0.38794,0.12931,-1.8813,-0.51726,-4.1753e-10,-0.94064,0,0,0.2,-0,-0,0.66667
0.56858,0.50253,2.8429,0.0037911,0.083302,29.615,-0.028741,0.0095802,-2,-0.038321,-1.7222e-14,-1,0,0,0.2,-3.7896e-15,0,0.66667
0.44953,0.50934,2.2477,0.014017,0.36464,45.135,-0.084016,0.028005,-1.9989,-0.11202,-7.6973e-13,-0.99946,0,0,0.2,-0,-0,0.66667
0.88742,0.349,4.4371,-0.2265,-1.4841,2.9316,2.68,-0.89332,-1.8178,3.5733,-1.6764e-11,-0.90891,0,0,0.2,1.8948e-15,0,0.66667
0.21483,0.29622,1.0742,-0.30566,-9.5699,81.463,0.87555,-0.29185,-1.6671,1.1674,2.5404e-10,-0.83353,0,0,0.2,-0,-0,0.66667
0.16795,0.5515,0.83975,0.077251,2.4578,89.279,-0.17299,0.057663,-1.9782,-0.23065,-5.3157e-10,-0.98909,0,0,0.2,2.3685e-16,0,0.66667
0.49563,0.8242,2.4782,0.4863,12.064,39.103,-3.2137,1.0712,-1.1584,-4.2849,1.5321e-13,-0.5792,0,0,0.2,-0,-0,0.66667
0.51663,0.25116,2.5831,-0.37326,-8.9574,36.251,2.5711,-0.85704,-1.5064,3.4282,-5.9952e-14,-0.7532,0,0,0.2,1.8948e-15,0,0.66667
0.4062,0.61194,2.031,0.16791,4.5804,51.367,-0.90938,0.30313,-1.9006,-1.2125,6.215e-13,-0.95028,0,0,0.2,-0,-0,0.66667
0.2368,0.32077,1.184,-0.26885,-8.3223,77.827,0.84882,-0.28294,-1.7431,1.1318,1.3172e-10,-0.87156,0,0,0.2,-4.737e-16,0,0.66667
0.53636,0.87708,2.6818,0.56562,13.288,33.955,-4.045,1.3483,-0.86277,-5.3934,-1.7319e-14,-0.43138,0,0,0.2,-0,-0,0.66667
0.96214,0.73626,4.8107,0.35439,0.71695,0.77257,-4.5463,1.5154,-1.5523,-6.0617,-2.1767e-08,-0.77614,0,0,0.2,-1.8948e-15,0,0.66667
0.25644,0.95506,1.2822,0.68259,21.189,74.841,-2.3339,0.77796,-0.34219,-3.1118,-2.4585e-12,-0.17109,0,0,0.2,-4.737e-16,0,0.66667
0.28319,0.24158,1.4159,-0.38763,-11.719,70.346,1.4636,-0.48788,-1.466,1.9515,1.6926e-11,-0.73301,0,0,0.2,2.3685e-16,0,0.66667
0.031465,0.052704,0.15732,-0.67094,-22.265,112.76,0.28149,-0.093829,-0.40032,0.37531,-4.5394e-07,-0.20016,0,0,0.2,-0,-0,0.66667
0.87611,0.46468,4.3805,-0.052978,-0.37972,3.3357,0.61886,-0.20629,-1.9912,0.82515,-9.6868e-09,-0.9956,0,0,0.2,-9.4739e-16,0,0.66667
0.27438,0.46598,1.3719,-0.051032,-1.5434,71.669,0.1867,-0.062233,-1.9907,0.24893,1.1162e-11,-0.99534,0,0,0.2,1.7764e-16,0,0.66667
0.059762,0.85756,0.29881,0.53633,17.661,107.86,-0.42737,0.14246,-0.97686,-0.56983,-3.8498e-08,-0.48843,0,0,0.2,-0,-0,0.66667
0.75205,0.16012,3.7603,-0.50983,-7.2226,11.59,5.1122,-1.7041,-1.0767,6.8163,-3.1648e-11,-0.53833,0,0,0.2,-0,-0,0.66667
0.92919,0.20933,4.6459,-0.436,-1.817,1.7101,5.4017,-1.8006,-1.3231,7.2023,-1.93e-09,-0.66156,0,0,0.2,-9.4739e-16,0,0.66667
0.42393,0.7859,2.1197,0.42884,11.557,48.942,-2.424,0.808,-1.3468,-3.232,1.1371e-12,-0.6734,0,0,0.2,-0,-0,0.66667
0.32511,0.2952,1.6255,-0.30719,-9.0084,63.684,1.3316,-0.44387,-1.664,1.7755,-1.0922e-12,-0.832,0,0,0.2,4.737e-16,0,0.66667
0.68882,0.61071,3.4441,0.16606,2.8169,16.711,-1.5252,0.50839,-1.9021,-2.0336,3.7164e-12,-0.95106,0,0,0.2,-0,-0,0.66667
0.20706,0.41949,1.0353,-0.12076,-3.7843,82.718,0.33341,-0.11114,-1.9474,0.44454,1.6888e-10,-0.97372,0,0,0.2,-0,-0,0.66667
0.55152,0.052301,2.7576,-0.67155,-15.498,32.241,4.9383,-1.6461,-0.39582,6.5844,6.7502e-14,-0.19791,0,0,0.2,-0,-0,0.66667
0.49453,0.83767,2.4727,0.50651,12.594,39.27,-3.3398,1.1133,-1.0874,-4.4531,3.4972e-13,-0.54369,0,0,0.2,-4.737e-16,0,0.66667
0.58736,0.97762,2.9368,0.71643,15.606,28.068,-5.6107,1.8702,-0.17417,-7.4809,9.7256e-14,-0.087084,0,0,0.2,-0,-0,0.66667
0.83524,0.090806,4.1762,-0.61379,-6.0682,6.1421,6.8355,-2.2785,-0.66038,9.114,-1.7203e-09,-0.33019,0,0,0.2,-1.4211e-15,0,0.66667
0.68413,0.90375,3.4206,0.60562,10.616,17.673,-5.5243,1.8414,-0.69652,-7.3657,-1.0605e-12,-0.34826,0,0,0.2,-1.4211e-15,0,0.66667
0.88239,0.43633,4.4119,-0.095512,-0.65004,3.066,1.1237,-0.37457,-1.9678,1.4983,1.1232e-08,-0.98389,0,0,0.2,2.3685e-16,0,0.66667
0.27936,0.75831,1.3968,0.38746,11.742,70.961,-1.4432,0.48106,-1.4665,-1.9243,-2.057e-11,-0.73325,0,0,0.2,-0,-0,0.66667
0.24996,0.66143,1.2498,0.24215,7.4407,75.665,-0.80701,0.269,-1.793,-1.076,-8.2915e-11,-0.89652,0,0,0.2,-0,-0,0.66667
0.18811,0.33757,0.94056,-0.24365,-7.7071,85.905,0.61111,-0.2037,-1.79,0.81481,5.4798e-10,-0.89502,0,0,0.2,-0,-0,0.66667
0.008355,0.78295,0.041775,0.42443,13.978,116.75,-0.047282,0.015761,-1.3596,-0.063042,-6.3743e-08,-0.67981,0,0,0.2,2.9606e-17,0,0.66667
0.65746,0.6255,3.2873,0.18826,3.4599,19.801,-1.6503,0.55009,-1.8758,-2.2004,-1.5826e-12,-0.9379,0,0,0.2,1.8948e-15,0,0.66667
0.37182,0.28747,1.8591,-0.3188,-9.0052,56.531,1.5805,-0.52683,-1.6387,2.1073,-3.3639e-12,-0.81936,0,0,0.2,9.4739e-16,0,0.66667
0.16613,0.63802,0.83063,0.20704,6.5992,89.601,-0.45859,0.15286,-1.8465,-0.61145,-9.0952e-10,-0.92327,0,0,0.2,-2.3685e-16,0,0.66667
0.25918,0.63243,1.2959,0.19865,6.069,74.152,-0.68646,0.22882,-1.859,-0.91528,-5.4565e-11,-0.92949,0,0,0.2,-0,-0,0.66667
0.1825,0.91907,0.91251,0.62861,20.147,86.983,-1.5296,0.50988,-0.59409,-2.0395,8.6702e-11,-0.29704,0,0,0.2,4.737e-16,0,0.66667
0.17807,0.60414,0.89036,0.15621,4.9546,87.578,-0.37088,0.12363,-1.9123,-0.49451,-5.4738e-10,-0.95614,0,0,0.2,-0,-0,0.66667
0.22777,0.66862,1.1388,0.25292,7.8627,79.309,-0.76811,0.25604,-1.7714,-1.0241,-1.6151e-10,-0.88571,0,0,0.2,-0,-0,0.66667
0.096411,0.63322,0.48205,0.19983,6.4909,101.5,-0.25688,0.085627,-1.858,-0.34251,1.2094e-10,-0.92902,0,0,0.2,-0,-0,0.66667
0.54411,0.1649,2.7205,-0.50265,-11.633,32.911,3.6466,-1.2155,-1.1016,4.8621,4.6629e-13,-0.5508,0,0,0.2,-0,-0,0.66667
0.8362,0.28579,4.181,-0.32132,-3.0684,5.5799,3.5824,-1.1941,-1.6325,4.7766,-1.0653e-09,-0.81626,0,0,0.2,-0,-0,0.66667
0.34664,0.87965,1.7332,0.56948,16.561,60.53,-2.6321,0.87735,-0.84731,-3.5094,1.9948e-12,-0.42365,0,0,0.2,-0,-0,0.66667
0.9126,0.72889,4.563,0.34334,1.7548,2.0942,-4.1777,1.3926,-1.5799,-5.5703,1.8517e-09,-0.78995,0,0,0.2,-0,-0,0.66667
0.68392,0.50132,3.4196,0.0019736,0.033862,17.136,-0.017997,0.005999,-2.0008,-0.023996,3.3059e-13,-1.0004,0,0,0.2,-3.7896e-15,0,0.66667
0.82604,0.59318,4.1302,0.13978,1.4014,6.0195,-1.5395,0.51316,-1.932,-2.0526,2.0673e-10,-0.96598,0,0,0.2,-1.1842e-15,0,0.66667
0.92485,0.033422,4.6243,-0.69987,-3.3216,2.4565,8.6303,-2.8768,-0.25924,11.507,-8.1964e-07,-0.12962,0,0,0.2,-0,-0,0.66667
0.71895,0.17543,3.5947,-0.48685,-7.6759,14.301,4.667,-1.5557,-1.158,6.2226,-1.0416e-11,-0.57901,0,0,0.2,-0,-0,0.66667
0.77043,0.47319,3.8521,-0.040215,-0.52145,9.7406,0.4131,-0.1377,-1.9942,0.55081,-1.7956e-11,-0.99709,0,0,0.2,-1.8247e-15,0,0.66667
0.074018,0.61092,0.37009,0.16638,5.4234,105.36,-0.1642,0.054735,-1.9008,-0.21894,1.5415e-08,-0.9504,0,0,0.2,-1.1842e-16,0,0.66667
0.18869,0.72992,0.94343,0.34488,10.928,85.833,-0.86766,0.28922,-1.5774,-1.1569,-5.5893e-10,-0.78872,0,0,0.2,-4.737e-16,0,0.66667
0.31405,0.81501,1.5703,0.47252,14.031,65.505,-1.9786,0.65953,-1.2074,-2.6381,2.8155e-13,-0.6037,0,0,0.2,-0,-0,0.66667
0.33439,0.44806,1.672,-0.077912,-2.2617,62.176,0.34737,-0.11579,-1.9774,0.46316,-2.5702e-13,-0.98871,0,0,0.2,-0,-0,0.66667
0.4653,0.025686,2.3265,-0.71147,-18.54,43.468,4.414,-1.4713,-0.2003,5.8854,3.2374e-13,-0.10015,0,0,0.2,-0,1.3866e-16,0.66667
0.095259,0.88944,0.47629,0.58416,19.161,101.76,-0.74195,0.24732,-0.78679,-0.98927,-1.5193e-08,-0.39339,0,0,0.2,-0,-0,0.66667
0.34423,0.71265,1.7211,0.31898,9.2203,60.729,-1.464,0.48801,-1.6394,-1.952,2.1565e-12,-0.81971,0,0,0.2,-4.737e-16,0,0.66667
0.073158,0.40136,0.36579,-0.14797,-4.8228,105.51,0.14433,-0.048111,-1.922,0.19244,-6.5427e-08,-0.96099,0,0,0.2,-1.7764e-16,0,0.66667
0.32341,0.54665,1.6171,0.06998,2.0482,63.884,-0.30177,0.10059,-1.9817,-0.40235,-3.2971e-13,-0.99083,0,0,0.2,-0,-0,0.66667
0.6615,0.7247,3.3075,0.33706,6.162,19.507,-2.9728,0.99095,-1.5957,-3.9638,-1.9036e-12,-0.79784,0,0,0.2,-1.8948e-15,0,0.66667
0.0029211,0.10146,0.014606,-0.59781,-19.8,117.69,0.023283,-0.0077607,-0.7293,0.031045,6.254e-07,-0.36465,0,0,0.2,-0,-0,0.66667
0.28436,0.25204,1.4218,-0.37194,-11.232,70.151,1.4102,-0.47008,-1.5089,1.8803,1.7026e-11,-0.75445,0,0,0.2,-0,-0,0.66667
0.072846,0.45065,0.36423,-0.074032,-2.4119,105.56,0.071906,-0.023969,-1.9795,0.095875,-1.8933e-08,-0.98976,0,0,0.2,-0,-0,0.66667
0.71076,0.6475,3.5538,0.22125,3.5314,14.725,-2.0967,0.69891,-1.825,-2.7957,1.5453e-11,-0.91252,0,0,0.2,4.737e-16,0,0.66667
0.84127,0.39577,4.2063,-0.15634,-1.4359,5.1472,1.7536,-0.58454,-1.913,2.3382,-5.7452e-10,-0.95649,0,0,0.2,-0,-0,0.66667
0.97833,0.89073,4.8917,0.5861,0.70442,0.97801,-7.6453,2.5484,-0.77748,-10.194,-8.3355e-07,-0.38874,0,0,0.2,1.8948e-15,0,0.66667
0.61717,0.25578,3.0858,-0.36634,-7.3973,24.205,3.0145,-1.0048,-1.5223,4.0194,2.6745e-12,-0.76113,0,0,0.2,-0,-0,0.66667
0.2249,0.6899,1.1245,0.28486,8.8728,79.791,-0.85419,0.28473,-1.7116,-1.1389,-1.9677e-10,-0.85578,0,0,0.2,9.4739e-16,0,0.66667
0.22831,0.26414,1.1416,-0.35379,-11.018,79.25,1.077,-0.35899,-1.5538,1.436,1.6008e-10,-0.77692,0,0,0.2,4.737e-16,0,0.66667
0.49353,0.036673,2.4676,-0.69499,-17.466,39.652,4.5733,-1.5244,-0.28216,6.0977,6.4393e-14,-0.14108,0,0,0.2,-0,-0,0.66667
0.93135,0.709,4.6567,0.31351,1.2347,1.4573,-3.8931,1.2977,-1.6496,-5.1908,-4.4858e-09,-0.82481,0,0,0.2,-0,-0,0.66667
0.62806,0.62162,3.1403,0.18244,3.5823,22.879,-1.5277,0.50925,-1.8822,-2.037,-1.9934e-12,-0.94111,0,0,0.2,2.3685e-16,0,0.66667
0.1814,0.49029,0.907,-0.01456,-0.46087,87.008,0.035216,-0.011739,-1.9983,0.046954,-3.038e-10,-0.99917,0,0,0.2,-0,-0,0.66667
0.51601,0.12173,2.58,-0.5674,-13.736,36.54,3.9038,-1.3013,-0.85696,5.2051,1.8385e-13,-0.42848,0,0,0.2,-1.1842e-15,0,0.66667
0.40912,0.8039,2.0456,0.45585,12.484,51.103,-2.4867,0.82889,-1.2611,-3.3155,1.3538e-12,-0.63053,0,0,0.2,-4.737e-16,0,0.66667
0.86907,0.3015,4.3453,-0.29776,-2.2826,3.8311,3.4503,-1.1501,-1.6838,4.6004,-2.0983e-09,-0.84189,0,0,0.2,-0,-0,0.66667
0.10442,0.9808,0.52208,0.7212,23.746,100.24,-1.0041,0.33469,-0.14977,-1.3387,-2.0672e-08,-0.074886,0,0,0.2,-2.3685e-16,0,0.66667
0.21763,0.476,1.0881,-0.035993,-1.122,80.955,0.10444,-0.034814,-1.9961,0.13926,6.2951e-11,-0.99806,0,0,0.2,-0,-0,0.66667
0.75933,0.064672,3.7966,-0.65299,-9.1242,11.304,6.6111,-2.2037,-0.48402,8.8148,-9.8805e-12,-0.24201,0,0,0.2,-1.8948e-15,0,0.66667
0.97325,0.54082,4.8662,0.061235,0.07227,0.31584,-0.79462,0.26488,-1.986,-1.0595,1.6508e-06,-0.99302,0,0,0.2,-0,-0,0.66667
0.80883,0.11109,4.0442,-0.58336,-6.5897,7.6686,6.2912,-2.0971,-0.78935,8.3883,-2.3011e-10,-0.39467,0,0,0.2,-9.5785e-16,0,0.66667
0.57043,0.53734,2.8522,0.056008,1.2269,29.398,-0.42598,0.14199,-1.9882,-0.56798,-4.5239e-13,-0.99412,0,0,0.2,-1.8948e-15,0,0.66667
0.80961,0.67375,4.048,0.26062,2.8594,7.129,-2.8133,0.93777,-1.7581,-3.7511,4.7421e-10,-0.87904,0,0,0.2,-0,-0,0.66667
0.37864,0.82315,1.8932,0.48473,13.677,55.62,-2.4472,0.81572,-1.1641,-3.2629,1.8465e-12,-0.58204,0,0,0.2,9.4739e-16,0,0.66667
0.23981,0.65583,1.199,0.23375,7.2205,77.323,-0.7474,0.24913,-1.8063,-0.99653,-1.1462e-10,-0.90314,0,0,0.2,2.3685e-16,0,0.66667
0.44234,0.028268,2.2117,-0.7076,-18.926,46.639,4.1733,-1.3911,-0.21992,5.5644,-5.8531e-13,-0.10996,0,0,0.2,4.737e-16,0,0.66667
0.29305,0.53837,1.4652,0.05755,1.7202,68.678,-0.22487,0.074955,-1.988,-0.29982,-4.6356e-12,-0.99401,0,0,0.2,-0,-0,0.66667
0.64436,0.15151,3.2218,-0.52273,-10.033,21.491,4.491,-1.497,-1.0286,5.988,2.3674e-12,-0.5143,0,0,0.2,-0,-0,0.66667
0.91612,0.28807,4.5806,-0.3179,-1.5509,1.9396,3.8832,-1.2944,-1.6401,5.1776,1.4584e-09,-0.82005,0,0,0.2,-0,-0,0.66667
0.6714,0.85817,3.357,0.53725,9.6832,18.784,-4.8094,1.6031,-0.97429,-6.4126,-2.2884e-12,-0.48714,0,0,0.2,9.4739e-16,0,0.66667
0.78373,0.73189,3.9187,0.34784,4.3136,8.976,-3.6348,1.2116,-1.5695,-4.8464,2.5276e-10,-0.78477,0,0,0.2,1.8948e-15,0,0.66667
0.9199,0.35328,4.5995,-0.22009,-1.0108,1.7071,2.6994,-0.89981,-1.8279,3.5993,6.4281e-09,-0.91396,0,0,0.2,-0,-0,0.66667
0.73198,0.51299,3.6599,0.019487,0.29017,12.802,-0.19019,0.063395,-1.9984,-0.25358,5.115e-12,-0.99921,0,0,0.2,-0,-0,0.66667
0.45633,0.46793,2.2817,-0.048108,-1.2417,44.188,0.29271,-0.09757,-1.9928,0.39028,-4.3993e-14,-0.99638,0,0,0.2,2.0724e-16,0,0.66667
0.7422,0.56875,3.711,0.10312,1.4849,11.969,-1.0205,0.34017,-1.9616,-1.3607,3.5763e-11,-0.98078,0,0,0.2,-0,-0,0.66667
0.99059,0.28398,4.9529,-0.32403,-0.048611,0.31251,4.2798,-1.4266,-1.6267,5.7064,-2.4153e-08,-0.81334,0,0,0.2,-0,-0,0.66667
0.67386,0.21786,3.3693,-0.42322,-7.5332,18.379,3.8025,-1.2675,-1.3646,5.07,1.5992e-12,-0.68228,0,0,0.2,-4.1448e-16,0,0.66667
0.72714,0.38533,3.6357,-0.17201,-2.6071,13.261,1.6677,-0.55589,-1.8938,2.2236,-2.8501e-11,-0.94688,0,0,0.2,-0,-0,0.66667
0.13533,0.76684,0.67666,0.40027,12.931,94.866,-0.72225,0.24075,-1.4293,-0.963,-2.8326e-09,-0.71466,0,0,0.2,-2.3685e-16,0,0.66667
0.81734,0.63433,4.0867,0.20149,2.1204,6.5895,-2.1959,0.73195,-1.855,-2.9278,3.4644e-10,-0.92748,0,0,0.2,-0,-0,0.66667
0.92918,0.5976,4.6459,0.14641,0.58462,1.3621,-1.8138,0.60461,-1.9235,-2.4184,-6.4703e-08,-0.96176,0,0,0.2,-0,-0,0.66667
0.082941,0.033855,0.4147,-0.69922,-23.094,103.91,0.77325,-0.25775,-0.26191,1.031,-3.4891e-08,-0.13095,0,0,0.2,-0,-0,0.66667
0.92221,0.87325,4.6111,0.55988,2.6459,2.1757,-6.8843,2.2948,-0.88743,-9.1791,-3.8977e-08,-0.44372,0,0,0.2,-2.3685e-15,0,0.66667
0.76001,0.14426,3.8001,-0.53361,-7.3592,11.012,5.4073,-1.8024,-0.9866,7.2098,-4.7827e-11,-0.4933,0,0,0.2,4.7355e-17,0,0.66667
0.25267,0.75756,1.2634,0.38634,11.89,75.272,-1.3016,0.43386,-1.4694,-1.7354,-6.6159e-11,-0.7347,0,0,0.2,-4.737e-16,0,0.66667
0.03478,0.67228,0.1739,0.25841,8.4706,112.16,-0.11983,0.039945,-1.7619,-0.15978,1.473e-08,-0.88097,0,0,0.2,-5.9212e-17,0,0.66667
0.59333,0.70625,2.9667,0.30937,6.5323,26.834,-2.4475,0.81582,-1.6603,-3.2633,-1.5845e-12,-0.83017,0,0,0.2,-7.0264e-16,0,0.66667
0.14,0.62224,0.69998,0.18336,5.8916,94.033,-0.34226,0.11409,-1.8821,-0.45635,-2.5527e-09,-0.94105,0,0,0.2,-3.2567e-16,0,0.66667
0.88064,0.77223,4.4032,0.40835,2.8879,3.4518,-4.7948,1.5983,-1.4063,-6.393,2.2334e-09,-0.70317,0,0,0.2,-0,-0,0.66667
0.64348,0.1922,3.2174,-0.4617,-8.8502,21.497,3.9612,-1.3204,-1.2425,5.2816,3.0365e-12,-0.62125,0,0,0.2,-1.8948e-15,0,0.66667
0.041189,0.84822,0.20595,0.52233,17.224,111.07,-0.28686,0.095619,-1.0297,-0.38248,-1.7032e-08,-0.51487,0,0,0.2,-1.1842e-16,0,0.66667
0.19441,0.39428,0.97206,-0.15858,-4.9978,84.834,0.41106,-0.13702,-1.9095,0.54809,2.619e-10,-0.95473,0,0,0.2,2.3685e-16,0,0.66667
0.62451,0.53799,3.1226,0.056992,1.1258,23.221,-0.47456,0.15819,-1.9895,-0.63275,-4.8531e-13,-0.99477,0,0,0.2,-0,-0,0.66667
0.52665,0.45775,2.6333,-0.063379,-1.49,34.808,0.44505,-0.14835,-1.985,0.5934,7.5495e-14,-0.99248,0,0,0.2,4.737e-16,0,0.66667
0.29026,0.019888,1.4513,-0.72017,-21.95,69.455,2.7871,-0.92904,-0.15487,3.7162,1.8674e-13,-0.077435,0,0,0.2,-0,-0,0.66667
0.39512,0.075653,1.9756,-0.63652,-17.801,53.325,3.3533,-1.1178,-0.5586,4.4711,-9.4591e-13,-0.2793,0,0,0.2,-0,-0,0.66667
0.24657,0.21184,1.2328,-0.43224,-13.364,76.288,1.421,-0.47367,-1.3356,1.8947,6.5631e-11,-0.66782,0,0,0.2,-0,-0,0.66667
0.99839,0.95592,4.9919,0.68388,0.0061456,1.0495,-9.1038,3.0346,-0.33717,-12.138,-1.2869e-05,-0.16859,0,0,0.2,1.8948e-15,0,0.66667
0.88329,0.29313,4.4165,-0.3103,-2.1233,3.1974,3.6545,-1.2182,-1.6565,4.8726,-1.5416e-09,-0.82826,0,0,0.2,-1.8948e-15,0,0.66667
0.74097,0.82559,3.7049,0.48839,7.1774,12.445,-4.8251,1.6084,-1.1508,-6.4334,2.9922e-11,-0.57538,0,0,0.2,-0,-0,0.66667
0.24654,0.84546,1.2327,0.51818,16.065,76.338,-1.7034,0.56779,-1.046,-2.2711,-2.8012e-11,-0.52301,0,0,0.2,-0,-0,0.66667
0.088881,0.35991,0.44441,-0.21013,-6.8361,102.8,0.24902,-0.083007,-1.842,0.33203,-7.6381e-09,-0.92102,0,0,0.2,-0,-0,0.66667
0.096131,0.070874,0.48066,-0.64369,-21.159,101.63,0.82505,-0.27502,-0.52691,1.1001,2.2155e-08,-0.26346,0,0,0.2,-2.3685e-16,0,0.66667
0.88147,0.090076,4.4074,-0.61489,-4.4531,3.8291,7.2268,-2.4089,-0.65551,9.6357,1.749e-08,-0.32775,0,0,0.2,-0,-0,0.66667
0.22391,0.4644,1.1196,-0.053407,-1.66,79.915,0.15945,-0.053149,-1.9897,0.2126,4.6319e-11,-0.99487,0,0,0.2,-3.5527e-16,0,0.66667
0.055036,0.94558,0.27518,0.66836,22.131,108.7,-0.49045,0.16348,-0.41085,-0.65393,7.6125e-08,-0.20543,0,0,0.2,-1.1842e-16,0,0.66667
0.60875,0.47549,3.0437,-0.036769,-0.75005,24.959,0.29844,-0.09948,-1.9962,0.39792,6.7851e-13,-0.99811,0,0,0.2,-1.8948e-15,0,0.66667
0.75404,0.80218,3.7702,0.45328,6.3506,11.343,-4.5572,1.5191,-1.2689,-6.0762,7.0251e-11,-0.63445,0,0,0.2,-9.4739e-16,0,0.66667
0.90554,0.18437,4.5277,-0.47345,-2.6746,2.5606,5.7163,-1.9054,-1.2045,7.6217,-1.3029e-08,-0.60227,0,0,0.2,-0,-2.377e-18,0.66667
0.48403,0.70618,2.4201,0.30927,7.744,40.498,-1.9959,0.6653,-1.6606,-2.6612,-4.3854e-14,-0.8303,0,0,0.2,4.737e-16,0,0.66667
0.71854,0.10451,3.5927,-0.59323,-9.4352,14.52,5.6835,-1.8945,-0.74958,7.578,-2.1045e-12,-0.37479,0,0,0.2,-0,-0,0.66667
0.046842,0.66656,0.23421,0.24983,8.1799,110.07,-0.15604,0.052012,-1.779,-0.20805,1.0342e-08,-0.88952,0,0,0.2,-0,-0,0.66667
0.30454,0.83813,1.5227,0.50719,15.178,67.024,-2.0595,0.6865,-1.0848,-2.746,-1.0725e-13,-0.5424,0,0,0.2,-2.3685e-16,0,0.66667
0.087153,0.047862,0.43576,-0.67821,-22.363,103.18,0.7881,-0.2627,-0.36338,1.0508,-2.8709e-08,-0.18169,0,0,0.2,-1.0321e-16,0,0.66667
0.40034,0.78815,2.0017,0.43223,11.93,52.367,-2.3072,0.76905,-1.3352,-3.0762,1.4897e-12,-0.66758,0,0,0.2,-0,-0,0.66667
0.19936,0.032605,0.99678,-0.70109,-22.389,84.214,1.8636,-0.62119,-0.25306,2.4847,-2.2141e-11,-0.12653,0,0,0.2,-0,-0,0.66667
0.49854,0.11921,2.4927,-0.57118,-14.167,38.819,3.7967,-1.2656,-0.84079,5.0623,1.0436e-14,-0.42039,0,0,0.2,-1.1842e-15,-3.002e-16,0.66667
0.24179,0.37391,1.209,-0.18913,-5.8325,76.988,0.60974,-0.20325,-1.8731,0.81298,8.781e-11,-0.93653,0,0,0.2,1.1842e-16,0,0.66667
0.19127,0.6201,0.95636,0.18014,5.6861,85.363,-0.45942,0.15314,-1.8847,-0.61256,-3.539e-10,-0.94236,0,0,0.2,-0,-0,0.66667
0.60179,0.17706,3.0089,-0.48441,-10.135,26.055,3.8868,-1.2956,-1.1646,5.1824,1.493e-12,-0.58231,0,0,0.2,9.4739e-16,0,0.66667
0.48061,0.05945,2.403,-0.66083,-16.853,41.323,4.2346,-1.4115,-0.44773,5.6462,-1.0525e-13,-0.22386,0,0,0.2,-1.0658e-15,0,0.66667
0.38153,0.7681,1.9076,0.40215,11.286,55.126,-2.0457,0.68191,-1.4238,-2.7276,2.3059e-12,-0.71192,0,0,0.2,-0,-0,0.66667
0.41901,0.46244,2.0951,-0.056342,-1.5156,49.481,0.31477,-0.10492,-1.9889,0.41969,-5.9888e-13,-0.99444,0,0,0.2,-0,-0,0.66667
0.94696,0.10093,4.7348,-0.5986,-1.9339,1.5904,7.558,-2.5193,-0.7253,10.077,1.8896e-07,-0.36265,0,0,0.2,-0,-0,0.66667
0.61125,0.60044,3.0563,0.15066,3.0613,24.708,-1.2279,0.4093,-1.9198,-1.6372,-1.6437e-12,-0.95989,0,0,0.2,-0,-0,0.66667
0.2018,0.14639,1.009,-0.53041,-16.806,83.715,1.4271,-0.47571,-1.0001,1.9029,2.8168e-10,-0.50005,0,0,0.2,-0,-0,0.66667
0.26679,0.73983,1.3339,0.35975,10.977,72.972,-1.2797,0.42656,-1.5403,-1.7062,-3.9518e-11,-0.77014,0,0,0.2,-0,-0,0.66667
0.29971,0.4323,1.4985,-0.10155,-3.0227,67.623,0.40579,-0.13526,-1.9637,0.54105,5.5646e-12,-0.98184,0,0,0.2,-0,-0,0.66667
0.71146,0.17728,3.5573,-0.48407,-7.8034,14.955,4.592,-1.5307,-1.1658,6.1227,-5.7958e-12,-0.5829,0,0,0.2,-9.4739e-16,0,0.66667
0.50952,0.084347,2.5476,-0.62348,-15.275,37.455,4.2357,-1.4119,-0.61698,5.6475,5.9952e-14,-0.30849,0,0,0.2,-4.737e-16,0,0.66667
0.21262,0.44045,1.0631,-0.089324,-2.7915,81.79,0.25323,-0.084409,-1.9716,0.33763,6.7844e-11,-0.9858,0,0,0.2,4.737e-16,0,0.66667
0.58056,0.6026,2.9028,0.15389,3.3148,28.224,-1.1913,0.39709,-1.9158,-1.5884,-1.3357e-12,-0.95791,0,0,0.2,1.8948e-15,0,0.66667
0.87572,0.12346,4.3786,-0.5648,-4.2462,3.9687,6.5948,-2.1983,-0.86758,8.7931,-1.4326e-08,-0.43379,0,0,0.2,-1.4211e-15,0,0.66667
0.12633,0.85927,0.63165,0.5389,17.525,96.438,-0.90772,0.30257,-0.96756,-1.2103,-2.3895e-09,-0.48378,0,0,0.2,-2.3685e-16,0,0.66667
0.99245,0.1879,4.9623,-0.46814,-0.067939,0.54626,6.1948,-2.0649,-1.2211,8.2597,-6.1625e-08,-0.61057,0,0,0.2,-0,-0,0.66667
0.57331,0.26331,2.8666,-0.35504,-7.784,29.211,2.7139,-0.90465,-1.5509,3.6186,1.1515e-12,-0.77546,0,0,0.2,-0,-0,0.66667
0.075515,0.74022,0.37758,0.36033,11.781,105.12,-0.3628,0.12093,-1.5383,-0.48373,2.8438e-09,-0.76913,0,0,0.2,-1.1842e-16,0,0.66667
0.9247,0.52843,4.6235,0.04264,0.18121,1.4584,-0.52572,0.17524,-1.9943,-0.70096,-1.6469e-07,-0.99713,0,0,0.2,-1.4211e-15,0,0.66667
0.6613,0.52629,3.3065,0.039431,0.71663,19.362,-0.34767,0.11589,-1.9943,-0.46356,1.372e-13,-0.99714,0,0,0.2,-9.4739e-16,0,0.66667
0.25836,0.64804,1.2918,0.22205,6.7895,74.29,-0.76494,0.25498,-1.8238,-1.0199,-5.6377e-11,-0.91191,0,0,0.2,-2.3685e-16,0,0.66667
0.011312,0.80925,0.056559,0.46387,15.293,116.23,-0.069963,0.023321,-1.2352,-0.093284,-3.7585e-08,-0.61758,0,0,0.2,1.8152e-17,0,0.66667
0.82783,0.24416,4.1392,-0.38376,-3.8603,6.1473,4.2358,-1.4119,-1.4777,5.6477,-8.4367e-10,-0.73884,0,0,0.2,-1.4211e-15,0,0.66667
0.19681,0.63224,0.98405,0.19836,6.2484,84.439,-0.52053,0.17351,-1.8594,-0.69404,-4.2355e-10,-0.92971,0,0,0.2,-0,-0,0.66667
0.91039,0.78621,4.552,0.42932,2.2814,2.3059,-5.2113,1.7371,-1.3446,-6.9484,3.1814e-09,-0.67232,0,0,0.2,-0,-0,0.66667
0.26207,0.64751,1.3103,0.22127,6.7513,73.689,-0.77316,0.25772,-1.8256,-1.0309,-4.8919e-11,-0.9128,0,0,0.2,2.3685e-16,0,0.66667
0.30754,0.49221,1.5377,-0.011683,-0.34577,66.376,0.047905,-0.015968,-1.999,0.063873,2.9403e-13,-0.99948,0,0,0.2,-0,-0,0.66667
0.429,0.64334,2.145,0.21501,5.7329,48.086,-1.2299,0.40996,-1.8344,-1.6398,6.8856e-13,-0.91722,0,0,0.2,-0,-0,0.66667
0.84952,0.52675,4.2476,0.04013,0.34896,4.6537,-0.45455,0.15152,-1.994,-0.60607,1.7785e-09,-0.99702,0,0,0.2,-0,-0,0.66667
0.37631,0.37417,1.8815,-0.18875,-5.2975,55.801,0.94703,-0.31568,-1.875,1.2627,-2.2339e-12,-0.93751,0,0,0.2,-8.8818e-17,0,0.66667
0.66908,0.8686,3.3454,0.5529,10.032,19.036,-4.9325,1.6442,-0.91326,-6.5766,-2.1205e-12,-0.45663,0,0,0.2,3.9618e-16,0,0.66667
0.73119,0.59031,3.6559,0.13547,2.025,12.898,-1.3207,0.44023,-1.9353,-1.7609,2.8125e-11,-0.96763,0,0,0.2,4.737e-16,0,0.66667
0.89467,0.62265,4.4733,0.18397,1.123,2.5976,-2.1946,0.73153,-1.8801,-2.9261,9.5675e-09,-0.94006,0,0,0.2,1.8948e-15,0,0.66667
0.93853,0.92277,4.6926,0.63416,2.4136,1.8911,-7.9357,2.6452,-0.5704,-10.581,1.4023e-07,-0.2852,0,0,0.2,-1.8948e-15,0,0.66667
0.87235,0.034354,4.3618,-0.69847,-5.5105,4.4501,8.1241,-2.708,-0.26613,10.832,2.8666e-09,-0.13307,0,0,0.2,-0,-0,0.66667
0.45255,0.87015,2.2627,0.55523,14.571,45.023,-3.3502,1.1167,-0.90522,-4.467,8.8818e-16,-0.45261,0,0,0.2,2.3685e-16,0,0.66667
0.55083,0.5097,2.7542,0.014555,0.32948,31.772,-0.1069,0.035634,-1.9987,-0.14254,-1.5533e-13,-0.99937,0,0,0.2,-0,-0,0.66667
0.57742,0.59246,2.8871,0.13869,3.0034,28.588,-1.0677,0.35591,-1.9335,-1.4237,-9.4391e-13,-0.96674,0,0,0.2,8.5476e-17,0,0.66667
0.48558,0.16027,2.4279,-0.5096,-12.821,40.466,3.2994,-1.0998,-1.0778,4.3991,-2.3848e-13,-0.5389,0,0,0.2,-0,-0,0.66667
0.91406,0.59597,4.5703,0.14395,0.70847,1.8466,-1.7544,0.58481,-1.9263,-2.3392,3.1696e-08,-0.96316,0,0,0.2,-0,-0,0.66667
0.78635,0.18571,3.9317,-0.47144,-5.8313,8.968,4.9428,-1.6476,-1.2101,6.5905,-2.5558e-10,-0.60505,0,0,0.2,1.0658e-15,0,0.66667
0.093327,0.43908,0.46664,-0.091375,-2.9668,102.03,0.1137,-0.037901,-1.9723,0.15161,-4.3881e-08,-0.98613,0,0,0.2,-0,-0,0.66667
0.99093,0.33241,4.9547,-0.25138,-0.021101,0.21704,3.3214,-1.1071,-1.7742,4.4285,-2.2283e-08,-0.88712,0,0,0.2,-0,-0,0.66667
0.19126,0.7397,0.9563,0.35955,11.385,85.406,-0.91692,0.30564,-1.5398,-1.2226,-5.0652e-10,-0.76992,0,0,0.2,-0,-0,0.66667
0.26939,0.24188,1.347,-0.38717,-11.804,72.564,1.3907,-0.46356,-1.4667,1.8542,3.1724e-11,-0.73335,0,0,0.2,-0,-0,0.66667
0.15118,0.96321,0.75592,0.69481,22.574,92.28,-1.4006,0.46687,-0.28321,-1.8675,-1.0972e-09,-0.14161,0,0,0.2,-1.1842e-16,0,0.66667
0.26352,0.17172,1.3176,-0.49243,-15.111,73.567,1.7302,-0.57673,-1.1377,2.3069,2.3808e-11,-0.56884,0,0,0.2,-4.737e-16,0,0.66667
0.37276,0.77219,1.8638,0.40828,11.551,56.442,-2.0293,0.67642,-1.4074,-2.7057,2.0368e-12,-0.7037,0,0,0.2,4.737e-16,0,0.66667
0.97389,0.51343,4.8694,0.02015,0.022873,0.29849,-0.26165,0.087215,-1.9976,-0.34887,-3.7801e-06,-0.99879,0,0,0.2,-0,-0,0.66667
0.16693,0.92485,0.83464,0.63728,20.547,89.6,-1.4184,0.4728,-0.5551,-1.8912,-1.9531e-10,-0.27755,0,0,0.2,-2.3685e-16,0,0.66667
0.61018,0.0055709,3.0509,-0.74164,-15.507,25.542,6.0338,-2.0113,-0.045414,8.0451,4.7962e-13,-0.022707,0,0,0.2,-0,-0,0.66667
0.44789,0.90494,2.2394,0.6074,16.063,45.733,-3.6273,1.2091,-0.68862,-4.8364,3.0398e-13,-0.34431,0,0,0.2,-0,-0,0.66667
0.58703,0.91303,2.9351,0.61954,13.42,27.938,-4.8492,1.6164,-0.63461,-6.4655,-4.7118e-13,-0.31731,0,0,0.2,-0,-0,0.66667
0.053649,0.45305,0.26825,-0.070432,-2.3003,108.88,0.050382,-0.016794,-1.9812,0.067176,1.3269e-07,-0.99058,0,0,0.2,-1.1842e-16,0,0.66667
0.30933,0.17926,1.5467,-0.48111,-14.337,66.252,1.9843,-0.66143,-1.1769,2.6457,4.3809e-13,-0.58843,0,0,0.2,2.3685e-16,0,0.66667
0.090911,0.37388,0.45456,-0.18918,-6.1505,102.45,0.22931,-0.076437,-1.8738,0.30575,-2.0729e-08,-0.9369,0,0,0.2,-1.3323e-16,0,0.66667
0.46345,0.02857,2.3172,-0.70715,-18.463,43.715,4.3697,-1.4566,-0.22216,5.8262,2.971e-13,-0.11108,0,0,0.2,2.3685e-16,0,0.66667
0.89199,0.63494,4.4599,0.20241,1.2694,2.7208,-2.4073,0.80244,-1.8547,-3.2098,4.1161e-09,-0.92735,0,0,0.2,1.8948e-15,0,0.66667
0.82138,0.32526,4.1069,-0.2621,-2.7081,6.3912,2.8705,-0.95683,-1.7546,3.8273,-6.8992e-10,-0.87729,0,0,0.2,-0,-0,0.66667
0.87215,0.678,4.3608,0.267,1.9942,3.6517,-3.1049,1.035,-1.7464,-4.1398,1.116e-09,-0.87318,0,0,0.2,9.4739e-16,0,0.66667
0.3996,0.87241,1.998,0.55862,15.502,52.586,-2.9763,0.99209,-0.89047,-3.9684,1.5004e-12,-0.44523,0,0,0.2,-5.9212e-16,0,0.66667
0.50934,0.78161,2.5467,0.42241,10.259,37.24,-2.8687,0.95622,-1.366,-3.8249,3.3307e-14,-0.68302,0,0,0.2,-0,-0,0.66667
0.25721,0.7528,1.286,0.3792,11.639,74.532,-1.3004,0.43348,-1.4886,-1.7339,-5.4603e-11,-0.74432,0,0,0.2,9.4739e-16,0,0.66667
0.60699,0.23631,3.0349,-0.39554,-8.1603,25.365,3.2011,-1.067,-1.4435,4.2682,2.2087e-12,-0.72175,0,0,0.2,-9.4739e-16,0,0.66667
0.44631,0.86443,2.2316,0.54665,14.443,45.883,-3.253,1.0843,-0.93647,-4.3374,1.0503e-13,-0.46823,0,0,0.2,-0,-0,0.66667
0.49641,0.1338,2.482,-0.5493,-13.65,39.072,3.6357,-1.2119,-0.92684,4.8476,2.2404e-13,-0.46342,0,0,0.2,-9.4739e-16,0,0.66667
0.54096,0.077607,2.7048,-0.63359,-14.833,33.48,4.57,-1.5233,-0.57155,6.0933,1.6742e-13,-0.28577,0,0,0.2,-0,-0,0.66667
0.58046,0.78111,2.9023,0.42167,9.1516,28.434,-3.2635,1.0878,-1.3692,-4.3513,-9.4058e-13,-0.68462,0,0,0.2,-3.0346e-16,0,0.66667
0.46466,0.17761,2.3233,-0.48359,-12.474,43.275,2.996,-0.99868,-1.168,3.9947,-2.6468e-13,-0.58398,0,0,0.2,-4.737e-16,0,0.66667
0.79849,0.22844,3.9924,-0.40735,-4.7535,8.0351,4.3368,-1.4456,-1.4103,5.7824,-3.9395e-10,-0.70515,0,0,0.2,-0,-0,0.66667
0.40923,0.14912,2.0462,-0.52633,-14.45,51.149,2.8719,-0.95729,-1.0151,3.8292,-1.5141e-12,-0.50754,0,0,0.2,7.1054e-16,0,0.66667
0.043632,0.37543,0.21816,-0.18685,-6.1142,110.62,0.1087,-0.036234,-1.8769,0.14493,7.4689e-08,-0.93847,0,0,0.2,-0,-0,0.66667
0.83341,0.74806,4.1671,0.3721,3.6246,5.8048,-4.1348,1.3783,-1.508,-5.5131,9.2211e-10,-0.75399,0,0,0.2,1.1842e-15,0,0.66667
0.48479,0.98389,2.424,0.72583,18.481,40.859,-4.6917,1.5639,-0.1274,-6.2556,3.6415e-13,-0.063698,0,0,0.2,-9.4739e-16,0,0.66667
0.47847,0.9387,2.3924,0.65805,16.825,41.606,-4.1981,1.3994,-0.46069,-5.5975,-4.5475e-13,-0.23034,0,0,0.2,-0,-0,0.66667
0.17683,0.54051,0.88417,0.060764,1.9269,87.778,-0.14327,0.047756,-1.9862,-0.19103,-2.5869e-10,-0.99309,0,0,0.2,-0,-0,0.66667
0.443,0.81566,2.215,0.47349,12.519,46.273,-2.7967,0.93225,-1.2029,-3.729,1.1511e-12,-0.60145,0,0,0.2,-9.4739e-16,0,0.66667
0.14347,0.67351,0.71736,0.26027,8.3636,93.452,-0.49789,0.16596,-1.7587,-0.66385,-1.3879e-09,-0.87937,0,0,0.2,-0,-0,0.66667
0.041238,0.90283,0.20619,0.60425,19.984,111.07,-0.33224,0.11075,-0.70176,-0.44299,-7.5344e-07,-0.35088,0,0,0.2,-7.4015e-17,0,0.66667
0.96316,0.75195,4.8158,0.37792,0.74653,0.79002,-4.8534,1.6178,-1.4924,-6.4711,-2.4707e-08,-0.7462,0,0,0.2,-0,-0,0.66667
0.26195,0.74864,1.3098,0.37295,11.415,73.76,-1.3026,0.4342,-1.5062,-1.7368,-4.5343e-11,-0.7531,0,0,0.2,8.8818e-17,0,0.66667
0.1361,0.86276,0.68049,0.54413,17.651,94.777,-0.98741,0.32914,-0.94646,-1.3166,1.1722e-09,-0.47323,0,0,0.2,-0,-0,0.66667
0.68806,0.48984,3.4403,-0.015242,-0.25865,16.742,0.13983,-0.046611,-1.9999,0.18644,-5.4773e-13,-0.99995,0,0,0.2,1.8948e-15,0,0.66667
0.37393,0.092253,1.8697,-0.61162,-17.417,56.439,3.0494,-1.0165,-0.6716,4.0658,-3.1197e-13,-0.3358,0,0,0.2,-5.9212e-17,0,0.66667
0.62308,0.2787,3.1154,-0.33195,-6.6136,23.526,2.7578,-0.91926,-1.6093,3.6771,2.6845e-12,-0.80465,0,0,0.2,-0,-0,0.66667
0.70645,0.33904,3.5322,-0.24144,-3.9052,15.128,2.2741,-0.75805,-1.793,3.0322,-1.266e-11,-0.8965,0,0,0.2,4.737e-16,0,0.66667
0.66211,0.47136,3.3105,-0.042962,-0.7793,19.281,0.37928,-0.12643,-1.9935,0.5057,-7.0055e-14,-0.99675,0,0,0.2,-0,-0,0.66667
0.22691,0.73541,1.1346,0.35312,11.004,79.48,-1.0684,0.35612,-1.5554,-1.4245,-1.6819e-10,-0.77771,0,0,0.2,-0,-0,0.66667
0.78337,0.81728,3.9169,0.47591,5.9628,9.1852,-4.9709,1.657,-1.1953,-6.6279,2.1471e-10,-0.59767,0,0,0.2,-0,-0,0.66667
0.07097,0.90321,0.35485,0.60482,19.936,105.94,-0.57232,0.19077,-0.69922,-0.76309,-2.355e-07,-0.34961,0,0,0.2,-1.4803e-16,0,0.66667
0.78814,0.58143,3.9407,0.12214,1.473,8.4791,-1.2836,0.42785,-1.9458,-1.7114,1.6642e-10,-0.97291,0,0,0.2,-0,-0,0.66667
0.16235,0.17138,0.81173,-0.49294,-15.835,90.312,1.067,-0.35567,-1.1349,1.4227,1.2756e-09,-0.56745,0,0,0.2,-2.3685e-16,0,0.66667
0.40501,0.55042,2.025,0.075625,2.0637,51.52,-0.40839,0.13613,-1.9799,-0.54451,7.5495e-14,-0.98997,0,0,0.2,-4.737e-16,0,0.66667
0.0061978,0.37221,0.030989,-0.19169,-6.2848,117.12,0.015841,-0.0052802,-1.8693,0.021121,-6.3599e-08,-0.93467,0,0,0.2,1.1087e-17,0,0.66667
0.16285,0.26133,0.81426,-0.358,-11.456,90.185,0.77736,-0.25912,-1.5432,1.0365,1.0336e-09,-0.77161,0,0,0.2,-0,-0,0.66667
0.67786,0.57348,3.3893,0.11022,1.9229,17.739,-0.99618,0.33206,-1.9558,-1.3282,1.2316e-12,-0.97791,0,0,0.2,-0,-0,0.66667
0.75014,0.64889,3.7507,0.22334,3.1367,11.391,-2.2338,0.7446,-1.8238,-2.9784,8.1419e-11,-0.91192,0,0,0.2,-4.737e-16,0,0.66667
0.91019,0.70456,4.551,0.30684,1.6056,2.1306,-3.7238,1.2413,-1.6645,-4.9651,-1.0371e-09,-0.83225,0,0,0.2,-0,-0,0.66667
0.42023,0.48293,2.1011,-0.025606,-0.68789,49.303,0.14347,-0.047823,-1.9977,0.19129,-3.5821e-13,-0.99885,0,0,0.2,-9.4739e-16,0,0.66667
0.61033,0.52186,3.0516,0.032795,0.66688,24.782,-0.26688,0.08896,-1.9968,-0.35584,-1.7739e-13,-0.99838,0,0,0.2,-9.4739e-16,0,0.66667
0.49204,0.39577,2.4602,-0.15634,-3.8625,39.347,1.0257,-0.3419,-1.912,1.3676,-2.4025e-13,-0.95601,0,0,0.2,-0,-0,0.66667
0.025408,0.65798,0.12704,0.23697,7.7696,113.78,-0.080282,0.026761,-1.8006,-0.10704,-3.3595e-08,-0.90028,0,0,0.2,-0,-0,0.66667
0.44827,0.95793,2.2414,0.6869,18.231,45.781,-4.1056,1.3685,-0.32158,-5.4741,2.0739e-13,-0.16079,0,0,0.2,-4.737e-16,-1.0126e-16,0.66667
0.68945,0.66929,3.4472,0.25393,4.3098,16.708,-2.3343,0.77811,-1.7707,-3.1124,4.2168e-12,-0.88534,0,0,0.2,-0,-0,0.66667
0.67687,0.89353,3.3844,0.59029,10.53,18.34,-5.3273,1.7758,-0.76017,-7.1031,-1.68e-12,-0.38009,0,0,0.2,9.4739e-16,0,0.66667
0.29344,0.72719,1.4672,0.34079,10.224,68.689,-1.3333,0.44444,-1.5868,-1.7778,-1.0482e-11,-0.79341,0,0,0.2,-0,-0,0.66667
0.87748,0.2359,4.3874,-0.39615,-2.871,3.5737,4.6349,-1.545,-1.4417,6.1798,-2.8477e-09,-0.72086,0,0,0.2,9.4739e-16,0,0.66667
0.77122,0.94106,3.8561,0.66159,8.8505,10.429,-6.8031,2.2677,-0.44368,-9.0708,6.4726e-12,-0.22184,0,0,0.2,-0,-0,0.66667
0.85372,0.43231,4.2686,-0.10153,-0.85956,4.448,1.1557,-0.38524,-1.963,1.541,5.4168e-10,-0.98151,0,0,0.2,-9.4739e-16,0,0.66667
0.93715,0.13402,4.6858,-0.54897,-2.0792,1.7173,6.8596,-2.2865,-0.92937,9.1462,-5.6498e-08,-0.46469,0,0,0.2,-0,-2.1422e-16,0.66667
0.235,0.6695,1.175,0.25426,7.8759,78.117,-0.79668,0.26556,-1.7707,-1.0622,-1.3519e-10,-0.88533,0,0,0.2,-0,-0,0.66667
0.71728,0.81253,3.5864,0.4688,7.4201,14.419,-4.4835,1.4945,-1.2204,-5.978,1.1017e-11,-0.6102,0,0,0.2,-0,-0,0.66667
0.043952,0.86911,0.21976,0.55367,18.273,110.59,-0.32447,0.10816,-0.91025,-0.43263,1.5107e-07,-0.45513,0,0,0.2,-2.9606e-17,0,0.66667
0.30362,0.79505,1.5181,0.44257,13.224,67.127,-1.7917,0.59722,-1.3024,-2.3889,-2.6842e-12,-0.6512,0,0,0.2,-0,-0,0.66667
0.48305,0.92466,2.4152,0.63698,16.175,40.962,-4.1026,1.3675,-0.55755,-5.4701,-1.0481e-13,-0.27877,0,0,0.2,-5.7204e-16,0,0.66667
0.36442,0.80167,1.8221,0.4525,12.912,57.731,-2.1987,0.7329,-1.2711,-2.9316,2.2145e-12,-0.63557,0,0,0.2,4.737e-16,0,0.66667
0.19847,0.22597,0.99237,-0.41105,-12.994,84.219,1.0878,-0.36258,-1.3988,1.4503,4.5308e-10,-0.69942,0,0,0.2,-0,-0,0.66667
0.69868,0.42282,3.4934,-0.11577,-1.9093,15.767,1.0785,-0.3595,-1.9515,1.438,-5.8209e-12,-0.97574,0,0,0.2,-0,-0,0.66667
0.9253,0.78752,4.6265,0.43128,1.8991,1.8184,-5.3209,1.7736,-1.3387,-7.0945,6.8956e-09,-0.66933,0,0,0.2,-0,-0,0.66667
0.099858,0.00096794,0.49929,-0.74855,-24.701,101.02,0.99665,-0.33222,-0.0080888,1.3289,-5.5233e-08,-0.0040444,0,0,0.2,-0,-0,0.66667
0.23014,0.6117,1.1507,0.16755,5.1963,78.9,-0.51412,0.17137,-1.8994,-0.68549,-1.2516e-10,-0.9497,0,0,0.2,-0,-0,0.66667
0.28485,0.40123,1.4242,-0.14815,-4.4545,70,0.56266,-0.18755,-1.9221,0.75021,1.5684e-11,-0.96105,0,0,0.2,5.9212e-16,0,0.66667
0.66797,0.87084,3.3399,0.55626,10.123,19.151,-4.9542,1.6514,-0.89999,-6.6057,-2.2604e-12,-0.45,0,0,0.2,4.737e-16,0,0.66667
0.38662,0.087595,1.9331,-0.61861,-17.423,54.559,3.1889,-1.063,-0.63924,4.2518,-7.8537e-13,-0.31962,0,0,0.2,4.737e-16,-9.1868e-18,0.66667
0.7656,0.041936,3.828,-0.6871,-9.4143,10.905,7.0138,-2.3379,-0.32237,9.3518,-1.1092e-11,-0.16118,0,0,0.2,-0,-0,0.66667
0.095646,0.59141,0.47823,0.13712,4.4514,101.63,-0.17486,0.058287,-1.9343,-0.23315,-9.9475e-09,-0.96715,0,0,0.2,5.9212e-17,0,0.66667
0.46018,0.46724,2.3009,-0.049146,-1.2627,43.654,0.30155,-0.10052,-1.9916,0.40206,-4.0662e-14,-0.99579,0,0,0.2,1.0658e-15,0,0.66667
0.29262,0.89562,1.4631,0.59343,17.958,68.973,-2.3153,0.77177,-0.74722,-3.0871,-3.3262e-13,-0.37361,0,0,0.2,-0,-0,0.66667
0.51342,0.20598,2.5671,-0.44103,-10.658,36.729,3.0191,-1.0064,-1.3083,4.0255,5.7132e-13,-0.65413,0,0,0.2,-1.5554e-15,0,0.66667
0.13575,0.89206,0.67873,0.58809,19.11,94.852,-1.0644,0.3548,-0.76937,-1.4192,-4.8406e-09,-0.38469,0,0,0.2,-0,-0,0.66667
0.446,0.69126,2.23,0.28688,7.5178,45.713,-1.706,0.56867,-1.7071,-2.2747,8.1035e-13,-0.85356,0,0,0.2,-0,-0,0.66667
0.51639,0.36523,2.5819,-0.20216,-4.8324,36.169,1.3919,-0.46397,-1.8553,1.8559,4.2433e-13,-0.92767,0,0,0.2,-0,-0,0.66667
0.34421,0.82876,1.721,0.49314,14.327,60.84,-2.2632,0.75441,-1.1359,-3.0176,2.7385e-12,-0.56795,0,0,0.2,-4.737e-16,0,0.66667
0.55465,0.76869,2.7733,0.40304,9.1345,31.503,-2.9806,0.99355,-1.4212,-3.9742,-6.6058e-13,-0.71062,0,0,0.2,-0,-0,0.66667
0.71429,0.66933,3.5715,0.25399,4.0155,14.435,-2.419,0.80632,-1.7698,-3.2253,1.8941e-11,-0.8849,0,0,0.2,-0,-0,0.66667
0.66388,0.75389,3.3194,0.38083,6.9347,19.315,-3.371,1.1237,-1.484,-4.4947,-2.3843e-12,-0.74202,0,0,0.2,-0,-0,0.66667
0.35567,0.59937,1.7784,0.14906,4.2566,58.914,-0.70689,0.23563,-1.921,-0.94252,1.3635e-12,-0.96051,0,0,0.2,-0,-0,0.66667
0.076579,0.96099,0.38289,0.69149,22.854,105,-0.70605,0.23535,-0.30038,-0.9414,-4.5555e-07,-0.15019,0,0,0.2,-1.1842e-16,0,0.66667
0.83367,0.51761,4.1684,0.026408,0.25309,5.5346,-0.29354,0.097846,-1.9965,-0.39138,2.657e-10,-0.99824,0,0,0.2,-0,-0,0.66667
0.92624,0.11474,4.6312,-0.57789,-2.5997,2.0942,7.1369,-2.379,-0.81194,9.5159,-2.8951e-08,-0.40597,0,0,0.2,-0,-0,0.66667
0.23416,0.23332,1.1708,-0.40003,-12.436,78.305,1.249,-0.41632,-1.4317,1.6653,1.2492e-10,-0.71586,0,0,0.2,-0,-0,0.66667
0.0015237,0.90798,0.0076187,0.61196,20.279,117.93,-0.012431,0.0041438,-0.66987,-0.016574,3.2941e-07,-0.33494,0,0,0.2,-0,-0,0.66667
0.47964,0.20775,2.3982,-0.43837,-11.082,41.192,2.8034,-0.93448,-1.316,3.7379,-1.3123e-13,-0.65798,0,0,0.2,-0,-0,0.66667
0.61534,0.84279,3.0767,0.51418,10.491,24.585,-4.2187,1.4062,-1.0603,-5.6249,-2.0561e-12,-0.53017,0,0,0.2,-4.1448e-16,0,0.66667
0.65285,0.19172,3.2642,-0.46241,-8.6771,20.531,4.0251,-1.3417,-1.24,5.3669,2.6437e-12,-0.62002,0,0,0.2,-0,-0,0.66667
0.60356,0.52104,3.0178,0.031566,0.65053,25.542,-0.25403,0.084676,-1.9955,-0.3387,-4.0998e-13,-0.99777,0,0,0.2,9.4739e-16,0,0.66667
0.67867,0.19472,3.3933,-0.45792,-8.066,17.958,4.1436,-1.3812,-1.2537,5.5248,1.239e-12,-0.62686,0,0,0.2,1.8948e-15,0,0.66667
0.73325,0.6589,3.6662,0.23835,3.5484,12.787,-2.3303,0.77675,-1.7994,-3.107,4.2638e-11,-0.89971,0,0,0.2,-0,-0,0.66667
0.84341,0.81726,4.2171,0.47589,4.4131,5.407,-5.3516,1.7839,-1.1962,-7.1355,1.8528e-09,-0.5981,0,0,0.2,-0,-0,0.66667
0.57512,0.82441,2.8756,0.48662,10.691,29.138,-3.7315,1.2438,-1.1577,-4.9754,-9.2371e-13,-0.57883,0,0,0.2,-0,-0,0.66667
0.033325,0.7909,0.16663,0.43635,14.36,112.42,-0.19388,0.064628,-1.3231,-0.25851,5.1453e-08,-0.66157,0,0,0.2,-0,-0,0.66667
0.93264,0.028532,4.6632,-0.7072,-3.0233,2.253,8.7942,-2.9314,-0.22195,11.726,-1.3706e-07,-0.11098,0,0,0.2,-9.4739e-16,2.7267e-16,0.66667
0.41723,0.58885,2.0861,0.13327,3.5937,49.752,-0.74138,0.24713,-1.9367,-0.98851,3.8558e-13,-0.96837,0,0,0.2,4.737e-16,0,0.66667
0.46721,0.33871,2.336,-0.24194,-6.1778,42.744,1.5072,-0.50239,-1.7927,2.0095,-1.0995e-12,-0.89636,0,0,0.2,4.737e-16,0,0.66667
0.61906,0.97474,3.0953,0.7121,14.599,24.51,-5.8778,1.9593,-0.19652,-7.8371,-3.6415e-14,-0.098262,0,0,0.2,-0,-0,0.66667
0.27646,0.49105,1.3823,-0.013427,-0.40553,71.334,0.049494,-0.016498,-1.9987,0.065992,6.4372e-13,-0.99936,0,0,0.2,-0,-0,0.66667
0.90942,0.73548,4.5471,0.35323,1.876,2.2198,-4.2831,1.4277,-1.5559,-5.7108,2.4363e-09,-0.77793,0,0,0.2,-1.8948e-15,0,0.66667
0.6579,0.68892,3.2895,0.28338,5.2158,19.821,-2.4858,0.82861,-1.7159,-3.3145,-2.4347e-12,-0.85795,0,0,0.2,1.8948e-15,0,0.66667
0.13349,0.75606,0.66745,0.38408,12.409,95.176,-0.68362,0.22787,-1.4749,-0.91149,-2.3533e-09,-0.73745,0,0,0.2,-0,-0,0.66667
0.37351,0.26203,1.8676,-0.35696,-10.078,56.297,1.7777,-0.59257,-1.5471,2.3703,-3.0029e-12,-0.77356,0,0,0.2,-0,-0,0.66667
0.21324,0.5171,1.0662,0.025649,0.80115,81.683,-0.072927,0.024309,-1.9966,-0.097236,-1.9001e-11,-0.9983,0,0,0.2,-3.1365e-17,0,0.66667
0.44333,0.22543,2.2166,-0.41186,-10.863,46.174,2.4345,-0.8115,-1.3963,3.246,-9.257e-13,-0.69816,0,0,0.2,-0,-0,0.66667
0.20627,0.73535,1.0314,0.35302,11.106,82.899,-0.97092,0.32364,-1.5564,-1.2946,-3.4459e-10,-0.77819,0,0,0.2,2.3685e-16,0,0.66667
0.097915,0.20319,0.48957,-0.44521,-14.53,101.28,0.58124,-0.19375,-1.2944,0.77499,4.3252e-09,-0.64722,0,0,0.2,-1.1842e-16,0,0.66667
0.32046,0.4094,1.6023,-0.13589,-3.988,64.356,0.58065,-0.19355,-1.9342,0.7742,1.6974e-12,-0.96709,0,0,0.2,-9.4739e-16,0,0.66667
0.13448,0.34687,0.67242,-0.22969,-7.3966,94.979,0.41187,-0.13729,-1.8124,0.54916,-6.9075e-11,-0.90618,0,0,0.2,-4.737e-16,0,0.66667
0.035025,0.019489,0.17513,-0.72077,-23.964,112.15,0.3366,-0.1122,-0.15228,0.4488,2.255e-07,-0.076138,0,0,0.2,-0,-0,0.66667
0.49839,0.64258,2.492,0.21388,5.2437,38.527,-1.4213,0.47375,-1.8374,-1.895,-6.4948e-14,-0.91871,0,0,0.2,-0,-0,0.66667
0.60463,0.69489,3.0232,0.29233,6.0374,25.534,-2.3567,0.78557,-1.6957,-3.1423,-2.0888e-12,-0.84785,0,0,0.2,-0,-0,0.66667
0.19647,0.84492,0.98235,0.51738,16.422,84.596,-1.3553,0.45178,-1.0485,-1.8071,-4.6859e-10,-0.52425,0,0,0.2,4.737e-16,0,0.66667
0.35053,0.25142,1.7526,-0.37287,-10.738,59.792,1.7427,-0.5809,-1.5059,2.3236,-2.9898e-12,-0.75293,0,0,0.2,-0,-0,0.66667
0.45356,0.39422,2.2678,-0.15867,-4.1124,44.597,0.95954,-0.31985,-1.9111,1.2794,-9.5685e-13,-0.95557,0,0,0.2,4.737e-16,0,0.66667
0.25284,0.94633,1.2642,0.66949,20.81,75.414,-2.257,0.75233,-0.40623,-3.0093,-2.7374e-12,-0.20311,0,0,0.2,4.737e-16,0,0.66667
0.33803,0.19921,1.6901,-0.45119,-13.153,61.761,2.0335,-0.67785,-1.2752,2.7114,-2.2384e-12,-0.6376,0,0,0.2,-0,-0,0.66667
0.26085,0.77415,1.3042,0.41122,12.607,73.956,-1.4302,0.47674,-1.3983,-1.9069,-4.5327e-11,-0.69916,0,0,0.2,2.3685e-16,0,0.66667
0.66262,0.034337,3.3131,-0.69849,-13.006,19.946,6.1711,-2.057,-0.26518,8.2282,9.0861e-13,-0.13259,0,0,0.2,-1.8948e-15,0,0.66667
0.38944,0.52973,1.9472,0.04459,1.235,53.813,-0.23153,0.077178,-1.9945,-0.30871,5.1711e-13,-0.99727,0,0,0.2,-0,-0,0.66667
0.46579,0.52334,2.3289,0.035004,0.89328,42.879,-0.21739,0.072464,-1.9956,-0.28986,-5.1184e-13,-0.9978,0,0,0.2,-0,-0,0.66667
0.25898,0.74408,1.2949,0.36611,11.223,74.24,-1.2642,0.4214,-1.5229,-1.6856,-5.1912e-11,-0.76144,0,0,0.2,3.9019e-16,0,0.66667
0.57889,0.11708,2.8945,-0.57438,-12.591,28.814,4.4334,-1.4778,-0.82779,5.9112,6.0485e-13,-0.4139,0,0,0.2,-4.737e-16,0,0.66667
0.41565,0.79434,2.0783,0.44151,12.006,50.144,-2.4469,0.81563,-1.3058,-3.2625,1.1517e-12,-0.65289,0,0,0.2,-0,-0,0.66667
0.45718,0.89451,2.2859,0.59177,15.472,44.423,-3.6073,1.2024,-0.75421,-4.8097,-2.407e-13,-0.37711,0,0,0.2,4.737e-16,0,0.66667
0.20956,0.98251,1.0478,0.72377,23.037,82.538,-2.0223,0.67412,-0.13629,-2.6965,-3.738e-11,-0.068143,0,0,0.2,2.2652e-17,0,0.66667
0.51169,0.50405,2.5585,0.006078,0.146,36.731,-0.041468,0.013823,-2.0001,-0.05529,4.9225e-13,-1,0,0,0.2,-0,-0,0.66667
0.42103,0.47639,2.1052,-0.035419,-0.95074,49.188,0.19884,-0.066279,-1.9964,0.26511,-4.3611e-13,-0.99818,0,0,0.2,-9.4739e-16,0,0.66667
0.53816,0.18836,2.6908,-0.46746,-10.902,33.609,3.3543,-1.1181,-1.2233,4.4724,7.9381e-13,-0.61167,0,0,0.2,-0,-0,0.66667
0.51553,0.88346,2.5776,0.5752,13.939,36.612,-3.9537,1.3179,-0.82474,-5.2716,8.1046e-14,-0.41237,0,0,0.2,-0,-0,0.66667
0.71232,0.1739,3.5616,-0.48915,-7.868,14.887,4.6458,-1.5486,-1.1481,6.1943,-5.9535e-12,-0.57405,0,0,0.2,-1.7909e-15,0,0.66667
0.34543,0.73174,1.7272,0.34762,10.045,60.558,-1.601,0.53368,-1.5704,-2.1347,2.3617e-12,-0.78521,0,0,0.2,-0,-0,0.66667
0.22924,0.70296,1.1462,0.30444,9.4665,79.08,-0.93055,0.31018,-1.6694,-1.2407,-1.7105e-10,-0.83472,0,0,0.2,4.737e-16,0,0.66667
0.91895,0.74021,4.5947,0.36031,1.7064,1.9046,-4.4148,1.4716,-1.5382,-5.8864,6.6398e-10,-0.76909,0,0,0.2,-9.4739e-16,0,0.66667
0.39408,0.018967,1.9704,-0.72155,-20.285,53.578,3.7913,-1.2638,-0.14832,5.0551,-3.5949e-13,-0.07416,0,0,0.2,-0,-0,0.66667
0.81515,0.54034,4.0757,0.060503,0.64164,6.6603,-0.65759,0.2192,-1.9869,-0.87678,3.1659e-10,-0.99346,0,0,0.2,-0,-0,0.66667
0.88049,0.10059,4.4025,-0.59911,-4.3616,3.8344,7.0335,-2.3445,-0.72326,9.378,1.7295e-08,-0.36163,0,0,0.2,-0,-0,0.66667
0.65189,0.73021,3.2595,0.34532,6.4602,20.491,-3.0014,1.0005,-1.5753,-4.0019,-2.8746e-12,-0.78765,0,0,0.2,-0,-0,0.66667
0.76748,0.18938,3.8374,-0.46592,-6.216,10.33,4.7678,-1.5893,-1.2294,6.3571,-7.7563e-11,-0.6147,0,0,0.2,-0,-0,0.66667
0.89753,0.70632,4.4877,0.30949,1.856,2.607,-3.7037,1.2346,-1.6583,-4.9382,2.1831e-09,-0.82915,0,0,0.2,-9.4739e-16,0,0.66667
0.49849,0.80594,2.4924,0.45891,11.328,38.697,-3.0501,1.0167,-1.2519,-4.0668,1.8696e-13,-0.62593,0,0,0.2,-4.737e-16,0,0.66667
0.42176,0.59375,2.1088,0.14062,3.7745,49.1,-0.79079,0.2636,-1.9321,-1.0544,5.5234e-13,-0.96606,0,0,0.2,-2.021e-16,0,0.66667
0.72854,0.76544,3.6427,0.39816,6.0608,13.35,-3.8677,1.2892,-1.4352,-5.1569,2.7652e-11,-0.71761,0,0,0.2,-0,-0,0.66667
0.57844,0.42862,2.8922,-0.10707,-2.3136,28.457,0.82577,-0.27526,-1.9602,1.101,5.2225e-13,-0.98009,0,0,0.2,9.4739e-16,0,0.66667
0.070112,0.92544,0.35056,0.63816,21.065,106.09,-0.59657,0.19886,-0.55085,-0.79543,1.6786e-07,-0.27542,0,0,0.2,-0,-0,0.66667
0.80706,0.25358,4.0353,-0.36963,-4.1326,7.417,3.9775,-1.3258,-1.5142,5.3034,-4.7634e-10,-0.75708,0,0,0.2,-0,-0,0.66667
0.20204,0.24198,1.0102,-0.38703,-12.209,83.615,1.0426,-0.34754,-1.4681,1.3902,3.571e-10,-0.73404,0,0,0.2,-0,-0,0.66667
0.21501,0.11833,1.075,-0.57251,-18.062,81.545,1.6413,-0.54709,-0.83448,2.1883,1.5403e-10,-0.41724,0,0,0.2,1.1842e-16,0,0.66667
0.87429,0.12618,4.3714,-0.56072,-4.2596,4.0248,6.5365,-2.1788,-0.88399,8.7153,-1.0172e-08,-0.44199,0,0,0.2,-3.7896e-15,-3.4889e-17,0.66667
0.81023,0.13172,4.0512,-0.55242,-6.1782,7.5159,5.9678,-1.9893,-0.9153,7.9571,-3.3348e-10,-0.45765,0,0,0.2,-1.8948e-15,0,0.66667
0.78716,0.30499,3.9358,-0.29251,-3.5643,8.6721,3.0701,-1.0234,-1.6951,4.0934,-2.6146e-10,-0.84755,0,0,0.2,-0,-0,0.66667
0.97848,0.71176,4.8924,0.31764,0.29881,0.44849,-4.144,1.3813,-1.6407,-5.5253,9.364e-11,-0.82033,0,0,0.2,-9.4739e-16,0,0.66667
0.93575,0.91383,4.6787,0.62074,2.4595,1.9297,-7.7447,2.5816,-0.63042,-10.326,-5.557e-08,-0.31521,0,0,0.2,1.8948e-15,0,0.66667
0.12932,0.10887,0.64658,-0.5867,-19.097,95.945,1.0116,-0.3372,-0.7753,1.3488,4.1878e-09,-0.38765,0,0,0.2,-0,-0,0.66667
0.46825,0.41579,2.3413,-0.12631,-3.2157,42.556,0.78861,-0.26287,-1.9441,1.0515,-3.7476e-13,-0.97203,0,0,0.2,-9.4739e-16,0,0.66667
0.30416,0.10865,1.5208,-0.58702,-17.625,67.142,2.3807,-0.79357,-0.77353,3.1743,-8.8152e-13,-0.38676,0,0,0.2,4.737e-16,0,0.66667
0.89049,0.0028373,4.4524,-0.74574,-5.1415,3.8021,8.8543,-2.9514,-0.024494,11.806,1.3801e-08,-0.012247,0,0,0.2,-0,-0,0.66667
0.13731,0.18525,0.68656,-0.47213,-15.275,94.548,0.86439,-0.28813,-1.2081,1.1525,3.776e-10,-0.60406,0,0,0.2,5.9212e-17,0,0.66667
0.047972,0.52968,0.23986,0.04452,1.4547,109.87,-0.028476,0.0094924,-1.9946,-0.037968,4.5838e-07,-0.9973,0,0,0.2,2.9606e-17,0,0.66667
0.97746,0.31795,4.8873,-0.27307,-0.26753,0.40567,3.5589,-1.1863,-1.7344,4.7452,-2.1552e-09,-0.86718,0,0,0.2,3.7896e-15,0,0.66667
0.56486,0.76435,2.8243,0.39653,8.8336,30.26,-2.9864,0.99548,-1.4407,-3.9819,-1.1586e-12,-0.72035,0,0,0.2,9.4739e-16,0,0.66667
0.28488,0.94533,1.4244,0.668,20.379,70.263,-2.5374,0.84579,-0.41319,-3.3832,5.2136e-13,-0.20659,0,0,0.2,-9.4739e-16,0,0.66667
0.33181,0.20233,1.659,-0.44651,-13.077,62.72,1.9754,-0.65846,-1.2905,2.6338,-2.3058e-12,-0.64523,0,0,0.2,4.737e-16,0,0.66667
0.13838,0.077767,0.69192,-0.63335,-20.601,94.421,1.1686,-0.38953,-0.57354,1.5581,7.1818e-10,-0.28677,0,0,0.2,2.3685e-16,-2.3672e-16,0.66667
0.99127,0.13503,4.9563,-0.54745,-0.16815,0.73472,7.2356,-2.4119,-0.93339,9.6475,3.0002e-08,-0.46669,0,0,0.2,-0,-0,0.66667
0.87071,0.91708,4.3536,0.62562,4.9327,4.3388,-7.2631,2.421,-0.60768,-9.6842,1.1205e-10,-0.30384,0,0,0.2,-0,-0,0.66667
0.24165,0.65454,1.2082,0.23181,7.1536,77.021,-0.74689,0.24896,-1.8091,-0.99586,-1.0871e-10,-0.90453,0,0,0.2,-5.9212e-17,0,0.66667
0.33244,0.2656,1.6622,-0.3516,-10.265,62.565,1.5585,-0.5195,-1.5596,2.078,-2.0743e-12,-0.7798,0,0,0.2,4.737e-16,0,0.66667
0.16541,0.25694,0.82707,-0.36459,-11.658,89.754,0.80412,-0.26804,-1.5267,1.0722,9.5578e-10,-0.76336,0,0,0.2,-0,-0,0.66667
0.51303,0.97731,2.5652,0.71596,17.547,37.141,-4.8975,1.6325,-0.17742,-6.53,-3.1974e-14,-0.088708,0,0,0.2,-9.4739e-16,0,0.66667
0.97972,0.097678,4.8986,-0.60348,-0.68359,1.0047,7.8833,-2.6278,-0.70514,10.511,1.0813e-06,-0.35257,0,0,0.2,-0,-0,0.66667
0.59628,0.15725,2.9814,-0.51412,-10.885,26.72,4.0875,-1.3625,-1.0614,5.45,1.1555e-12,-0.53068,0,0,0.2,-0,-0,0.66667
0.66446,0.059258,3.3223,-0.66111,-12.222,19.688,5.8571,-1.9524,-0.4458,7.8095,1.076e-12,-0.2229,0,0,0.2,-4.737e-16,0,0.66667
0.67117,0.20017,3.3559,-0.44975,-8.0702,18.677,4.0248,-1.3416,-1.2813,5.3664,2.0517e-12,-0.64066,0,0,0.2,-0,-0,0.66667
0.19112,0.94306,0.95559,0.66458,21.26,85.563,-1.6935,0.56451,-0.42966,-2.258,-6.1604e-11,-0.21483,0,0,0.2,-0,-0,0.66667
0.24088,0.36424,1.2044,-0.20364,-6.284,77.139,0.65404,-0.21801,-1.8515,0.87205,9.7305e-11,-0.92577,0,0,0.2,-0,-0,0.66667
0.50091,0.16016,2.5046,-0.50976,-12.569,38.433,3.4046,-1.1349,-1.0774,4.5395,-3.908e-14,-0.53868,0,0,0.2,-0,-0,0.66667
0.46695,0.04271,2.3347,-0.68593,-17.814,43.207,4.2706,-1.4235,-0.32716,5.6941,1.6476e-13,-0.16358,0,0,0.2,-0,-2.2002e-16,0.66667
0.32409,0.63384,1.6205,0.20076,5.8805,63.803,-0.86755,0.28918,-1.8562,-1.1567,-8.8102e-13,-0.92812,0,0,0.2,-0,-0,0.66667
0.72003,0.15895,3.6002,-0.51157,-8.0521,14.246,4.9113,-1.6371,-1.0708,6.5485,-6.8114e-12,-0.53541,0,0,0.2,-0,-0,0.66667
0.27597,0.20702,1.3798,-0.43946,-13.365,71.531,1.617,-0.53901,-1.3124,2.156,1.8491e-11,-0.6562,0,0,0.2,-0,-0,0.66667
0.89558,0.50801,4.4779,0.012018,0.072277,2.4937,-0.14351,0.047837,-1.9989,-0.19135,4.8609e-08,-0.99946,0,0,0.2,3.7896e-15,0,0.66667
0.12274,0.80724,0.61371,0.46085,14.963,97.029,-0.75422,0.25141,-1.2454,-1.0056,-6.5338e-09,-0.62269,0,0,0.2,-2.9606e-16,0,0.66667
0.92163,0.81815,4.6082,0.47722,2.2298,2.0183,-5.8643,1.9548,-1.1916,-7.819,2.515e-09,-0.59581,0,0,0.2,-0,-0,0.66667
0.10352,0.98292,0.51758,0.72438,23.859,100.39,-0.99981,0.33327,-0.1332,-1.3331,-8.2178e-09,-0.066601,0,0,0.2,2.4518e-16,0,0.66667
0.19298,0.15219,0.96491,-0.52172,-16.586,85.18,1.3424,-0.44748,-1.0321,1.7899,3.5076e-10,-0.51604,0,0,0.2,-0,-0,0.66667
0.45235,0.78545,2.2617,0.42817,11.184,44.926,-2.5824,0.86081,-1.3495,-3.4432,3.6771e-13,-0.67474,0,0,0.2,-0,-0,0.66667
0.88235,0.31956,4.4117,-0.27066,-1.8607,3.1935,3.1843,-1.0614,-1.7388,4.2457,-1.1357e-09,-0.8694,0,0,0.2,-0,-0,0.66667
0.30753,0.56002,1.5377,0.090036,2.6656,66.382,-0.36918,0.12306,-1.9714,-0.49224,-2.5152e-12,-0.9857,0,0,0.2,5.9212e-16,0,0.66667
0.65742,0.57882,3.2871,0.11823,2.1704,19.773,-1.0363,0.34545,-1.9505,-1.3818,-8.149e-13,-0.97526,0,0,0.2,-0,-0,0.66667
0.33893,0.81709,1.6947,0.47563,13.867,61.638,-2.1494,0.71648,-1.1955,-2.8659,2.7256e-12,-0.59777,0,0,0.2,9.4739e-16,0,0.66667
0.016138,0.50406,0.080692,0.0060839,0.19919,115.39,-0.0013081,0.00042791,-2.0013,-0.0017481,-1.2157e-05,-1.0007,0,0,0.2,-0,-0,0.66667
0.62443,0.33254,3.1221,-0.25119,-4.9781,23.314,2.0913,-0.6971,-1.7763,2.7884,2.5164e-12,-0.88815,0,0,0.2,-9.4739e-16,0,0.66667
0.23807,0.99076,1.1903,0.73614,23.131,77.866,-2.3367,0.7789,-0.072858,-3.1156,7.2053e-13,-0.036429,0,0,0.2,-2.3685e-16,0,0.66667
0.19454,0.27031,0.97268,-0.34453,-10.891,84.854,0.89365,-0.29788,-1.5769,1.1915,4.5713e-10,-0.78844,0,0,0.2,-0,-0,0.66667
0.80885,0.463,4.0443,-0.0555,-0.60745,7.061,0.59855,-0.19952,-1.9891,0.79807,-1.2284e-10,-0.99453,0,0,0.2,-0,-0,0.66667
0.61735,0.18407,3.0868,-0.47389,-9.61,24.309,3.9008,-1.3003,-1.2013,5.201,2.035e-12,-0.60065,0,0,0.2,-4.737e-16,0,0.66667
0.79544,0.85,3.9772,0.525,6.2712,8.4349,-5.5681,1.856,-1.0207,-7.4241,2.5728e-10,-0.51036,0,0,0.2,-0,-0,0.66667
0.26534,0.7397,1.3267,0.35954,10.979,73.205,-1.272,0.42401,-1.5412,-1.696,-4.1985e-11,-0.77061,0,0,0.2,-2.3685e-16,0,0.66667
0.047177,0.7115,0.23589,0.31725,10.399,110.01,-0.19956,0.066519,-1.6433,-0.26608,1.4753e-08,-0.82164,0,0,0.2,-0,-0,0.66667
0.85345,0.52958,4.2673,0.044363,0.37588,4.4463,-0.50482,0.16827,-1.9932,-0.6731,1.1866e-09,-0.99662,0,0,0.2,-9.4739e-16,0,0.66667
0.76433,0.44983,3.8216,-0.07525,-0.99951,10.209,0.76687,-0.25562,-1.9801,1.0225,-5.5366e-11,-0.99006,0,0,0.2,-0,-0,0.66667
0.0045005,0.36677,0.022503,-0.19984,-6.5528,117.41,0.011992,-0.0039973,-1.8575,0.015989,-6.3717e-08,-0.92875,0,0,0.2,3.7007e-18,0,0.66667
0.69985,0.38001,3.4992,-0.17998,-2.962,15.689,1.6794,-0.55981,-1.8851,2.2393,-8.0282e-12,-0.94253,0,0,0.2,-1.8948e-15,0,0.66667
0.24166,0.68772,1.2083,0.28158,8.6969,77.033,-0.9073,0.30243,-1.7185,-1.2097,-1.0772e-10,-0.85925,0,0,0.2,-0,-0,0.66667
0.35967,0.78951,1.7984,0.43426,12.434,58.437,-2.0826,0.69419,-1.3305,-2.7768,2.5193e-12,-0.66524,0,0,0.2,-0,-0,0.66667
0.78074,0.57833,3.9037,0.1175,1.4623,9.0037,-1.2231,0.40771,-1.9514,-1.6308,1.3198e-10,-0.97572,0,0,0.2,-0,-0,0.66667
0.98652,0.59454,4.9326,0.14181,0.046847,0.16975,-1.8653,0.62177,-1.9299,-2.4871,-2.0525e-07,-0.96493,0,0,0.2,-3.7896e-15,0,0.66667
0.24556,0.09409,1.2278,-0.60886,-18.951,76.553,1.9935,-0.66451,-0.68266,2.658,8.6405e-12,-0.34133,0,0,0.2,9.4739e-16,0,0.66667
0.4675,0.46054,2.3375,-0.059187,-1.5074,42.646,0.36893,-0.12298,-1.9881,0.49191,-4.5991e-13,-0.99406,0,0,0.2,-0,-0,0.66667
0.40034,0.24305,2.0017,-0.38542,-10.623,52.333,2.0573,-0.68577,-1.4712,2.7431,-1.9844e-12,-0.73561,0,0,0.2,-7.1054e-16,0,0.66667
0.55826,0.97012,2.7913,0.70518,16.133,31.479,-5.249,1.7497,-0.2325,-6.9987,2.6912e-13,-0.11625,0,0,0.2,-1.8948e-15,2.5625e-16,0.66667
0.52926,0.33967,2.6463,-0.2405,-5.6451,34.539,1.6972,-0.56572,-1.7952,2.2629,5.9064e-13,-0.89758,0,0,0.2,4.737e-16,0,0.66667
0.65803,0.67544,3.2901,0.26316,4.8392,19.793,-2.3089,0.76963,-1.7538,-3.0785,-1.8785e-12,-0.87691,0,0,0.2,-9.4739e-16,0,0.66667
0.49673,0.93022,2.4836,0.64534,16.106,39.156,-4.2741,1.4247,-0.51919,-5.6988,4.0057e-13,-0.25959,0,0,0.2,-4.737e-16,0,0.66667
0.68538,0.31345,3.4269,-0.27982,-4.8053,17.115,2.5571,-0.85237,-1.7229,3.4095,-2.4885e-12,-0.86147,0,0,0.2,-0,-0,0.66667
0.31286,0.26721,1.5643,-0.34919,-10.341,65.621,1.4566,-0.48554,-1.5671,1.9422,1.6649e-12,-0.78354,0,0,0.2,-4.737e-16,0,0.66667
0.21438,0.67299,1.0719,0.25948,8.1187,81.526,-0.74169,0.24723,-1.7598,-0.98893,-2.6068e-10,-0.87988,0,0,0.2,-0,-0,0.66667
0.90718,0.53264,4.5359,0.048955,0.26044,2.0539,-0.59214,0.19738,-1.9932,-0.78952,6.8712e-08,-0.99662,0,0,0.2,-0,-0,0.66667
0.5576,0.59978,2.788,0.14967,3.354,30.97,-1.1127,0.37092,-1.92,-1.4837,-5.7054e-13,-0.96002,0,0,0.2,-0,-0,0.66667
0.029017,0.013314,0.14509,-0.73003,-24.291,113.19,0.28245,-0.094149,-0.10491,0.3766,-8.4904e-08,-0.052456,0,0,0.2,-0,-0,0.66667
0.12197,0.56446,0.60983,0.096696,3.1198,97.106,-0.15725,0.052416,-1.9676,-0.20967,1.1662e-08,-0.98379,0,0,0.2,-0,-0,0.66667
0.6814,0.32724,3.407,-0.25913,-4.4941,17.48,2.3543,-0.78477,-1.7601,3.1391,-1.648e-12,-0.88005,0,0,0.2,-0,-0,0.66667
0.80871,0.53475,4.0436,0.052121,0.57084,7.0696,-0.56201,0.18734,-1.9907,-0.74934,1.1705e-10,-0.99533,0,0,0.2,1.8948e-15,0,0.66667
0.82348,0.99343,4.1174,0.74015,7.93,7.1404,-8.1266,2.7089,-0.051869,-10.835,2.0472e-10,-0.025934,0,0,0.2,-4.737e-16,0,0.66667
0.4331,0.96494,2.1655,0.69741,18.831,47.925,-4.0273,1.3424,-0.27078,-5.3697,-6.9811e-13,-0.13539,0,0,0.2,1.2822e-16,0,0.66667
0.58043,0.8931,2.9022,0.58965,12.902,28.657,-4.5634,1.5211,-0.76357,-6.0845,-3.6238e-13,-0.38178,0,0,0.2,-9.4739e-16,0,0.66667
0.80756,0.54538,4.0378,0.068067,0.74984,7.1474,-0.73292,0.24431,-1.9826,-0.97722,1.227e-10,-0.99129,0,0,0.2,-0,-0,0.66667
0.95758,0.17055,4.7879,-0.49418,-1.2047,1.1157,6.3096,-2.1032,-1.1308,8.4128,5.448e-09,-0.56541,0,0,0.2,-0,-0,0.66667
0.87975,0.007039,4.3988,-0.73944,-5.5593,4.2341,8.6737,-2.8912,-0.055497,11.565,-1.762e-08,-0.027748,0,0,0.2,-0,-0,0.66667
0.38851,0.84028,1.9426,0.51042,14.286,54.174,-2.644,0.88135,-1.0746,-3.5254,1.8217e-12,-0.53728,0,0,0.2,-4.737e-16,0,0.66667
0.96148,0.032333,4.8074,-0.7015,-1.7154,1.5683,8.9931,-2.9977,-0.25054,11.991,-5.0994e-06,-0.12527,0,0,0.2,-0,-0,0.66667
0.13705,0.30939,0.68524,-0.28591,-9.2087,94.55,0.52244,-0.17415,-1.7098,0.69659,2.1752e-09,-0.8549,0,0,0.2,2.3685e-16,0,0.66667
0.90874,0.8535,4.5437,0.53024,2.9241,2.5601,-6.4247,2.1416,-1.0003,-8.5663,4.9718e-09,-0.50013,0,0,0.2,-0,-0,0.66667
0.52131,0.26241,2.6066,-0.35639,-8.4902,35.634,2.4772,-0.82573,-1.5474,3.3029,5.3224e-13,-0.77369,0,0,0.2,-9.4739e-16,0,0.66667
0.71489,0.51258,3.5744,0.018864,0.29645,14.281,-0.17981,0.059937,-1.9981,-0.23975,2.2605e-12,-0.99904,0,0,0.2,-0,-0,0.66667
0.78467,0.85618,3.9234,0.53426,6.6903,9.1961,-5.5896,1.8632,-0.98458,-7.4528,1.0474e-10,-0.49229,0,0,0.2,-0,-0,0.66667
0.33468,0.95295,1.6734,0.67943,20.04,62.47,-3.0319,1.0106,-0.35746,-4.0425,2.7156e-13,-0.17873,0,0,0.2,-0,-0,0.66667
0.87769,0.17375,4.3884,-0.48937,-3.5825,3.7253,5.7269,-1.909,-1.1481,7.6358,-2.956e-09,-0.57407,0,0,0.2,-9.4739e-16,0,0.66667
0.25801,0.39871,1.2901,-0.15194,-4.6426,74.332,0.5227,-0.17423,-1.9171,0.69694,4.3887e-11,-0.95856,0,0,0.2,3.8962e-16,0,0.66667
0.083575,0.99267,0.41787,0.73901,24.449,103.81,-0.8235,0.2745,-0.057624,-1.098,-5.8631e-08,-0.028812,0,0,0.2,1.7764e-16,0,0.66667
0.75937,0.67058,3.7969,0.25587,3.4789,10.691,-2.5906,0.86355,-1.7661,-3.4542,1.1417e-10,-0.88303,0,0,0.2,-0,-0,0.66667
0.89508,0.6414,4.4754,0.2121,1.2919,2.6031,-2.5313,0.84375,-1.8392,-3.375,2.4821e-09,-0.91959,0,0,0.2,-1.8948e-15,0,0.66667
0.92645,0.20862,4.6322,-0.43707,-1.896,1.7938,5.3989,-1.7996,-1.3201,7.1986,-4.112e-09,-0.66005,0,0,0.2,-9.4739e-16,0,0.66667
0.37407,0.017349,1.8704,-0.72398,-20.727,56.543,3.6109,-1.2036,-0.13674,4.8146,3.6482e-13,-0.06837,0,0,0.2,-0,-2.3396e-16,0.66667
0.34146,0.90198,1.7073,0.60297,17.631,61.353,-2.7452,0.91506,-0.70799,-3.6603,1.3372e-12,-0.35399,0,0,0.2,-4.737e-16,1.1625e-16,0.66667
0.25569,0.40847,1.2784,-0.13729,-4.1997,74.708,0.46804,-0.15601,-1.9331,0.62405,4.4631e-11,-0.96657,0,0,0.2,-0,-0,0.66667
0.47079,0.10481,2.354,-0.59278,-15.25,42.559,3.721,-1.2403,-0.75063,4.9614,-4.7784e-13,-0.37532,0,0,0.2,-0,-0,0.66667
0.96717,0.76345,4.8359,0.39517,0.68408,0.74578,-5.096,1.6987,-1.4448,-6.7947,-2.4709e-08,-0.72242,0,0,0.2,-0,-0,0.66667
0.49887,0.13493,2.4943,-0.5476,-13.562,38.746,3.6424,-1.2141,-0.93427,4.8565,-1.3745e-13,-0.46713,0,0,0.2,-0,-0,0.66667
0.23907,0.0486,1.1954,-0.6771,-21.207,77.658,2.1584,-0.71945,-0.369,2.8778,5.4108e-12,-0.1845,0,0,0.2,-4.737e-16,0,0.66667
0.20791,0.67548,1.0396,0.26322,8.2601,82.601,-0.7297,0.24323,-1.7528,-0.97293,-3.1658e-10,-0.8764,0,0,0.2,2.3685e-16,0,0.66667
0.92671,0.2321,4.6335,-0.40186,-1.7244,1.7251,4.9654,-1.6551,-1.4249,6.6205,-3.298e-09,-0.71245,0,0,0.2,-0,-0,0.66667
0.68793,0.44692,3.4397,-0.079618,-1.352,16.763,0.73029,-0.24343,-1.9783,0.97372,-2.251e-12,-0.98915,0,0,0.2,-0,-0,0.66667
0.70478,0.51191,3.5239,0.017863,0.28926,15.188,-0.16786,0.055954,-1.999,-0.22382,1.9563e-12,-0.99949,0,0,0.2,-0,-0,0.66667
0.5889,0.30196,2.9445,-0.29706,-6.3218,27.335,2.3325,-0.77749,-1.6855,3.11,1.6078e-12,-0.84274,0,0,0.2,-0,-0,0.66667
0.61873,0.89418,3.0936,0.59128,12.034,24.33,-4.8779,1.626,-0.75587,-6.5038,-1.1018e-12,-0.37793,0,0,0.2,-0,-0,0.66667
0.045998,0.26669,0.22999,-0.34996,-11.481,110.22,0.21463,-0.071543,-1.5649,0.28617,-1.7554e-08,-0.78246,0,0,0.2,-5.9212e-17,0,0.66667
0.35616,0.15751,1.7808,-0.51374,-14.793,59.03,2.4396,-0.81321,-1.0625,3.2529,-1.8034e-12,-0.53125,0,0,0.2,-0,-0,0.66667
0.079759,0.31915,0.3988,-0.27128,-8.8475,104.38,0.28849,-0.096163,-1.7389,0.38465,-9.8219e-10,-0.86947,0,0,0.2,-0,-0,0.66667
0.32577,0.26516,1.6289,-0.35227,-10.336,63.602,1.5301,-0.51004,-1.5585,2.0401,-1.1967e-12,-0.77927,0,0,0.2,4.737e-16,0,0.66667
0.71057,0.86564,3.5528,0.54846,8.9024,15.14,-5.1962,1.7321,-0.92949,-6.9283,2.2524e-12,-0.46475,0,0,0.2,-0,-0,0.66667
0.072478,0.94864,0.36239,0.67296,22.238,105.7,-0.65033,0.21678,-0.38881,-0.86711,-6.5921e-08,-0.19441,0,0,0.2,-1.1842e-16,0,0.66667
0.89901,0.46539,4.495,-0.051917,-0.30175,2.3634,0.62232,-0.20744,-1.9902,0.82976,2.5683e-08,-0.99512,0,0,0.2,-2.1316e-15,0,0.66667
0.35431,0.52119,1.7716,0.031781,0.90787,59.105,-0.15014,0.050045,-1.9956,-0.20018,6.4135e-13,-0.99781,0,0,0.2,-0,-0,0.66667
0.089774,0.16373,0.44887,-0.5044,-16.517,102.69,0.60376,-0.20125,-1.0951,0.80502,-8.4998e-09,-0.54755,0,0,0.2,-0,-0,0.66667
0.10048,0.3792,0.50238,-0.1812,-5.8795,100.8,0.24275,-0.080918,-1.883,0.32367,4.0329e-09,-0.94148,0,0,0.2,-0,-0,0.66667
0.14697,0.39758,0.73487,-0.15364,-4.9247,92.842,0.30107,-0.10036,-1.9152,0.40143,1.4318e-09,-0.95762,0,0,0.2,1.1842e-16,0,0.66667
0.70481,0.67651,3.524,0.26476,4.3062,15.295,-2.4881,0.82936,-1.7509,-3.3174,1.1556e-11,-0.87546,0,0,0.2,9.4739e-16,0,0.66667
0.94314,0.62989,4.7157,0.19483,0.61156,1.0109,-2.4501,0.81669,-1.8647,-3.2668,-5.3923e-08,-0.93237,0,0,0.2,-1.8948e-15,0,0.66667
0.76054,0.50738,3.8027,0.011072,0.14913,10.49,-0.11228,0.037425,-1.999,-0.1497,3.2457e-12,-0.99952,0,0,0.2,-0,-0,0.66667
0.39221,0.48698,1.961,-0.019537,-0.53966,53.4,0.10217,-0.034056,-1.9987,0.13622,4.8968e-14,-0.99937,0,0,0.2,-4.737e-16,0,0.66667
0.76781,0.75678,3.8391,0.38517,5.1044,10.187,-3.9431,1.3144,-1.4729,-5.2575,1.3423e-10,-0.73644,0,0,0.2,-0,-0,0.66667
0.83593,0.072058,4.1797,-0.64191,-6.3451,6.1687,7.1546,-2.3849,-0.53393,9.5395,7.6843e-11,-0.26697,0,0,0.2,-1.8948e-15,0,0.66667
0.061478,0.8206,0.30739,0.4809,15.804,107.56,-0.39419,0.1314,-1.1784,-0.52559,-1.1283e-08,-0.58921,0,0,0.2,-0,-0,0.66667
0.31055,0.99724,1.5527,0.74587,22.46,66.285,-3.0884,1.0295,-0.023039,-4.1178,6.2683e-13,-0.01152,0,0,0.2,-9.4739e-16,0,0.66667
0.74228,0.9939,3.7114,0.74086,11.078,12.85,-7.3323,2.4441,-0.047864,-9.7764,-6.2643e-12,-0.023932,0,0,0.2,-0,-0,0.66667
0.26043,0.072377,1.3021,-0.64143,-19.831,74.165,2.2273,-0.74243,-0.53632,2.9697,3.3775e-12,-0.26816,0,0,0.2,-0,-0,0.66667
0.91053,0.052706,4.5526,-0.67094,-3.7448,2.839,8.1455,-2.7152,-0.39883,10.861,-6.785e-08,-0.19942,0,0,0.2,9.4739e-16,0,0.66667
0.24225,0.72889,1.2112,0.34334,10.615,76.957,-1.109,0.36966,-1.5798,-1.4786,-1.0633e-10,-0.78992,0,0,0.2,4.737e-16,0,0.66667
0.78725,0.76106,3.9362,0.39159,4.7972,8.7843,-4.1104,1.3701,-1.4538,-5.4805,2.5481e-10,-0.72689,0,0,0.2,-0,-0,0.66667
0.39894,0.64504,1.9947,0.21756,5.9815,52.447,-1.1572,0.38575,-1.8306,-1.543,1.5455e-12,-0.9153,0,0,0.2,-0,-0,0.66667
0.88796,0.10982,4.4398,-0.58527,-3.9932,3.4836,6.9293,-2.3098,-0.7817,9.2391,-6.9224e-10,-0.39085,0,0,0.2,-0,-0,0.66667
0.28813,0.41267,1.4406,-0.131,-3.93,69.472,0.50325,-0.16775,-1.9384,0.671,1.2113e-11,-0.96918,0,0,0.2,9.4739e-16,0,0.66667
0.57639,0.28541,2.882,-0.32189,-7.0118,28.817,2.4738,-0.8246,-1.6325,3.2984,1.5199e-12,-0.81625,0,0,0.2,-1.8948e-15,0,0.66667
0.015374,0.97498,0.076869,0.71246,23.703,115.54,-0.14605,0.048677,-0.19645,-0.19473,-9.1627e-06,-0.098224,0,0,0.2,-0,-0,0.66667
0.80519,0.4797,4.0259,-0.030446,-0.33917,7.2961,0.32686,-0.10895,-1.9956,0.43581,-6.1806e-11,-0.99781,0,0,0.2,-0,-0,0.66667
0.033564,0.84901,0.16782,0.52351,17.274,112.39,-0.23428,0.078095,-1.0261,-0.31238,1.2338e-07,-0.51303,0,0,0.2,-0,-0,0.66667
0.64091,0.62328,3.2046,0.18493,3.5308,21.511,-1.5803,0.52676,-1.8804,-2.107,-1.7206e-12,-0.9402,0,0,0.2,-1.3027e-15,0,0.66667
0.56365,0.89242,2.8182,0.58864,13.256,30.643,-4.4238,1.4746,-0.76828,-5.8984,-2.5713e-13,-0.38414,0,0,0.2,9.4739e-16,0,0.66667
0.92841,0.097254,4.6421,-0.60412,-2.6562,2.0938,7.4783,-2.4928,-0.7022,9.971,-2.3679e-07,-0.3511,0,0,0.2,-0,-0,0.66667
0.91911,0.48623,4.5956,-0.020661,-0.094864,1.6349,0.2532,-0.0844,-1.9981,0.3376,-1.078e-08,-0.99905,0,0,0.2,-1.0884e-15,0,0.66667
0.24888,0.1898,1.2444,-0.4653,-14.382,75.928,1.544,-0.51468,-1.2317,2.0587,6.2031e-11,-0.61585,0,0,0.2,-9.4739e-16,0,0.66667
0.26552,0.39479,1.3276,-0.15782,-4.8018,73.116,0.55872,-0.18624,-1.9123,0.74496,3.5945e-11,-0.95615,0,0,0.2,2.3685e-16,0,0.66667
0.65743,0.069376,3.2871,-0.64594,-12.128,20.362,5.6621,-1.8874,-0.51726,7.5494,7.2253e-13,-0.25863,0,0,0.2,1.8948e-15,0,0.66667
0.28227,0.29315,1.4113,-0.31028,-9.3686,70.46,1.1678,-0.38926,-1.6581,1.557,2.1704e-11,-0.82904,0,0,0.2,4.737e-16,0,0.66667
0.17582,0.39995,0.87911,-0.15008,-4.764,87.956,0.35183,-0.11728,-1.9198,0.46911,4.7331e-10,-0.95989,0,0,0.2,3.5527e-16,0,0.66667
0.17263,0.92572,0.86315,0.63858,20.549,88.642,-1.4698,0.48995,-0.55063,-1.9598,-2.4153e-10,-0.27531,0,0,0.2,-2.3685e-16,0,0.66667
0.027872,0.40841,0.13936,-0.13738,-4.4983,113.35,0.051054,-0.017018,-1.9336,0.068072,2.4037e-07,-0.96679,0,0,0.2,-0,-0,0.66667
0.46709,0.0049423,2.3354,-0.74259,-19.344,43.272,4.6247,-1.5416,-0.040155,6.1663,-4.8583e-13,-0.020077,0,0,0.2,-0,-0,0.66667
0.48856,0.11444,2.4428,-0.57834,-14.54,40.148,3.7674,-1.2558,-0.81013,5.0232,-1.8674e-13,-0.40507,0,0,0.2,-0,-0,0.66667
0.42371,0.52207,2.1186,0.033105,0.88612,48.802,-0.18703,0.062342,-1.9963,-0.24937,-2.4913e-13,-0.99817,0,0,0.2,-0,-0,0.66667
0.98837,0.83094,4.9418,0.49641,0.22006,0.64611,-6.5419,2.1806,-1.1231,-8.7225,8.2283e-08,-0.56155,0,0,0.2,-1.8948e-15,0,0.66667
0.64354,0.43627,3.2177,-0.095602,-1.8121,21.199,0.82031,-0.27344,-1.9685,1.0938,1.0552e-12,-0.98425,0,0,0.2,-1.1842e-16,0,0.66667
0.56225,0.96832,2.8113,0.70247,15.963,30.994,-5.2662,1.7554,-0.24772,-7.0217,-2.8866e-14,-0.12386,0,0,0.2,-3.2567e-16,-1.2973e-17,0.66667
0.086457,0.071829,0.43228,-0.64226,-21.149,103.29,0.74036,-0.24679,-0.53239,0.98715,1.2637e-07,-0.2662,0,0,0.2,2.3685e-16,0,0.66667
0.45235,0.17326,2.2618,-0.49011,-12.83,44.982,2.956,-0.98534,-1.1464,3.9413,-4.5808e-13,-0.57318,0,0,0.2,-0,-4.9158e-17,0.66667
0.069724,0.16381,0.34862,-0.50429,-16.567,106.14,0.46881,-0.15627,-1.095,0.62508,4.5695e-08,-0.54751,0,0,0.2,-0,-0,0.66667
0.48716,0.80888,2.4358,0.46332,11.612,40.206,-3.0094,1.0031,-1.2374,-4.0126,4.2855e-13,-0.61868,0,0,0.2,-9.4739e-16,0,0.66667
0.01559,0.68949,0.077952,0.28424,9.3304,115.49,-0.059086,0.019695,-1.7148,-0.078781,1.252e-09,-0.8574,0,0,0.2,-0,-0,0.66667
0.14153,0.99532,0.70763,0.74299,24.262,93.935,-1.402,0.46734,-0.03841,-1.8694,1.5568e-09,-0.019205,0,0,0.2,-2.9606e-16,0,0.66667
0.61893,0.79952,3.0946,0.44927,9.0709,24.105,-3.7076,1.2359,-1.2812,-4.9434,-2.1831e-12,-0.64061,0,0,0.2,-0,-0,0.66667
0.67615,0.453,3.3808,-0.070506,-1.235,17.894,0.63564,-0.21188,-1.9815,0.84752,-5.6805e-13,-0.99075,0,0,0.2,-9.4739e-16,0,0.66667
0.60372,0.039058,3.0186,-0.69141,-14.586,26.163,5.5656,-1.8552,-0.29959,7.4209,2.5313e-14,-0.1498,0,0,0.2,-0,-0,0.66667
0.25097,0.0015909,1.2549,-0.74761,-23.348,75.778,2.5018,-0.83392,-0.014397,3.3357,8.8882e-12,-0.0071983,0,0,0.2,-0,-0,0.66667
0.066186,0.65806,0.33093,0.23709,7.744,106.72,-0.20923,0.069743,-1.8008,-0.27897,9.7683e-09,-0.90039,0,0,0.2,-2.3685e-16,0,0.66667
0.67727,0.69347,3.3864,0.29021,5.0924,17.904,-2.6207,0.87356,-1.7001,-3.4943,7.4829e-14,-0.85007,0,0,0.2,1.8948e-15,0,0.66667
0.76834,0.83041,3.8417,0.49562,6.6049,10.314,-5.0774,1.6925,-1.1263,-6.7698,9.5011e-11,-0.56314,0,0,0.2,-0,-0,0.66667
0.11928,0.61932,0.59638,0.17898,5.7825,97.573,-0.28463,0.094877,-1.8857,-0.37951,2.5069e-09,-0.94285,0,0,0.2,-5.9212e-17,0,0.66667
0.73956,0.43683,3.6978,-0.094753,-1.3765,12.183,0.93434,-0.31145,-1.9686,1.2458,-3.2622e-11,-0.98431,0,0,0.2,1.1798e-15,0,0.66667
0.77319,0.22674,3.8659,-0.40989,-5.3274,9.821,4.2257,-1.4086,-1.4018,5.6342,-1.6716e-10,-0.70089,0,0,0.2,-0,-0,0.66667
0.10997,0.99691,0.54986,0.74537,24.54,99.296,-1.0929,0.36431,-0.026201,-1.4572,9.7828e-09,-0.013101,0,0,0.2,-2.0724e-16,0,0.66667
0.48647,0.34491,2.4323,-0.23263,-5.7967,40.125,1.5089,-0.50297,-1.8089,2.0119,1.4899e-13,-0.90444,0,0,0.2,-1.8948e-15,0,0.66667
0.005725,0.5176,0.028625,0.026396,0.86447,117.2,-0.0020151,0.00067612,-1.9965,-0.0026845,6.649e-06,-0.99823,0,0,0.2,-0,-0,0.66667
0.62591,0.6763,3.1296,0.26446,5.2266,23.162,-2.207,0.73567,-1.7518,-2.9427,-2.5056e-12,-0.87591,0,0,0.2,-0,-0,0.66667
0.85898,0.92844,4.2949,0.64266,5.516,4.9457,-7.3604,2.4535,-0.53242,-9.8139,-1.4757e-09,-0.26621,0,0,0.2,9.4739e-16,1.9507e-16,0.66667
0.86017,0.92623,4.3009,0.63934,5.4412,4.8785,-7.3326,2.4442,-0.54716,-9.7768,-1.3117e-09,-0.27358,0,0,0.2,-0,-0,0.66667
0.93728,0.49991,4.6864,-0.00014202,-0.00049222,1.0863,0.0017748,-0.00059106,-2.0024,0.0023667,7.9822e-07,-1.0012,0,0,0.2,-6.1358e-15,0,0.66667
0.78384,0.16209,3.9192,-0.50686,-6.3542,9.2052,5.2973,-1.7658,-1.0869,7.0631,-8.6235e-11,-0.54343,0,0,0.2,-0,-0,0.66667
0.43204,0.63106,2.1602,0.19659,5.2229,47.645,-1.1324,0.37748,-1.8622,-1.5099,1.0819e-12,-0.93108,0,0,0.2,-9.4739e-16,0,0.66667
0.77402,0.82197,3.8701,0.48296,6.289,9.8721,-4.9843,1.6614,-1.1697,-6.6457,1.1338e-10,-0.58484,0,0,0.2,-0,-0,0.66667
0.98356,0.79208,4.9178,0.43813,0.30801,0.58086,-5.7456,1.9152,-1.318,-7.6608,1.3694e-08,-0.65902,0,0,0.2,-0,-0,0.66667
0.36725,0.30389,1.8363,-0.29416,-8.3377,57.207,1.4404,-0.48014,-1.6914,1.9206,-2.5302e-12,-0.84572,0,0,0.2,-0,-0,0.66667
0.035895,0.38261,0.17947,-0.17608,-5.7647,111.96,0.084272,-0.028091,-1.8893,0.11236,-2.2346e-08,-0.94465,0,0,0.2,-0,-0,0.66667
0.50774,0.93897,2.5387,0.65846,16.202,37.736,-4.4577,1.4859,-0.45859,-5.9436,-4.5297e-13,-0.2293,0,0,0.2,-0,-0,0.66667
0.3525,0.28517,1.7625,-0.32224,-9.2533,59.462,1.5145,-0.50484,-1.6305,2.0194,-2.468e-12,-0.81527,0,0,0.2,-0,-0,0.66667
0.17606,0.8255,0.88031,0.48825,15.606,88,-1.1462,0.38205,-1.1516,-1.5282,-5.5328e-10,-0.57582,0,0,0.2,-0,-0,0.66667
0.9343,0.093621,4.6715,-0.60957,-2.4614,1.9405,7.5936,-2.5312,-0.67999,10.125,-5.0148e-08,-0.34,0,0,0.2,6.6862e-16,-2.3879e-16,0.66667
0.11962,0.29154,0.59809,-0.31269,-10.123,97.532,0.49872,-0.16624,-1.6515,0.66496,1.7724e-09,-0.82575,0,0,0.2,-0,-0,0.66667
0.65426,0.067241,3.2713,-0.64914,-12.281,20.688,5.6627,-1.8876,-0.50247,7.5503,1.1475e-12,-0.25123,0,0,0.2,-0,-0,0.66667
0.16873,0.39863,0.84365,-0.15206,-4.8393,89.153,0.3421,-0.11403,-1.9177,0.45613,3.0457e-11,-0.95886,0,0,0.2,1.1842e-16,0,0.66667
0.79644,0.5388,3.9822,0.058205,0.67574,7.8855,-0.61809,0.20603,-1.989,-0.82411,5.9693e-11,-0.99449,0,0,0.2,-0,-0,0.66667
0.25811,0.11011,1.2905,-0.58483,-18.062,74.5,2.0126,-0.67088,-0.78267,2.6835,1.1012e-11,-0.39134,0,0,0.2,-0,-0,0.66667
0.69801,0.40249,3.49,-0.14627,-2.418,15.842,1.3613,-0.45375,-1.9239,1.815,-6.7849e-12,-0.96196,0,0,0.2,-0,-0,0.66667
0.62789,0.78602,3.1395,0.42902,8.4943,23.107,-3.5917,1.1972,-1.3459,-4.789,-2.4096e-12,-0.67297,0,0,0.2,-1.8948e-15,0,0.66667
0.7158,0.76846,3.579,0.40269,6.3784,14.458,-3.8433,1.2811,-1.423,-5.1244,1.485e-11,-0.71151,0,0,0.2,-9.4739e-16,0,0.66667
0.25083,0.34714,1.2541,-0.22928,-7.0407,75.519,0.76682,-0.25561,-1.8145,1.0224,7.9129e-11,-0.90725,0,0,0.2,-0,-0,0.66667
0.50402,0.10931,2.5201,-0.58603,-14.439,38.118,3.9383,-1.3128,-0.77813,5.2511,-7.927e-14,-0.38906,0,0,0.2,-0,-0,0.66667
0.34213,0.071777,1.7107,-0.64233,-18.805,61.287,2.9302,-0.97673,-0.53332,3.9069,-3.9724e-13,-0.26666,0,0,0.2,-0,1.9776e-16,0.66667
0.1803,0.45204,0.9015,-0.071934,-2.2783,87.195,0.17293,-0.057643,-1.9804,0.23057,2.0134e-10,-0.99019,0,0,0.2,-2.3685e-16,0,0.66667
0.47551,0.66229,2.3775,0.24344,6.1529,41.611,-1.5434,0.51448,-1.7887,-2.0579,-1.8252e-13,-0.89436,0,0,0.2,9.4739e-16,0,0.66667
0.91212,0.0070378,4.5606,-0.73944,-4.1296,2.9801,8.9928,-2.9976,-0.0553,11.99,-1.016e-07,-0.02765,0,0,0.2,-0,-0,0.66667
0.56794,0.72272,2.8397,0.33408,7.3878,29.833,-2.5298,0.84328,-1.6031,-3.3731,-1.1098e-12,-0.80153,0,0,0.2,-0,-0,0.66667
0.63089,0.86916,3.1544,0.55374,10.964,22.958,-4.658,1.5527,-0.90933,-6.2106,-1.9251e-12,-0.45466,0,0,0.2,9.4739e-16,0,0.66667
0.54925,0.27158,2.7462,-0.34263,-7.8174,32.111,2.5092,-0.8364,-1.5826,3.3456,9.5191e-13,-0.79129,0,0,0.2,-4.737e-16,0,0.66667
0.04503,0.67377,0.22515,0.26065,8.5371,110.38,-0.1565,0.052165,-1.7584,-0.20866,9.5349e-09,-0.8792,0,0,0.2,-0,-0,0.66667
0.86867,0.98423,4.3433,0.72634,5.9156,4.6976,-8.4127,2.8042,-0.12301,-11.217,-2.6652e-09,-0.061506,0,0,0.2,2.0574e-15,0,0.66667
0.12479,0.15424,0.62397,-0.51864,-16.861,96.694,0.86297,-0.28766,-1.0456,1.1506,-1.8859e-09,-0.52279,0,0,0.2,8.8818e-17,2.6435e-16,0.66667
0.73641,0.81132,3.682,0.46697,6.9577,12.787,-4.5851,1.5284,-1.226,-6.1135,2.381e-11,-0.61299,0,0,0.2,1.1842e-15,0,0.66667
0.45176,0.65296,2.2588,0.22943,5.9657,44.876,-1.382,0.46066,-1.814,-1.8426,8.3022e-13,-0.90702,0,0,0.2,-4.737e-16,0,0.66667
0.71027,0.3137,3.5514,-0.27946,-4.4754,14.815,2.6465,-0.88218,-1.7225,3.5287,-1.5428e-11,-0.86127,0,0,0.2,-1.8948e-15,0,0.66667
0.86113,0.44997,4.3056,-0.075042,-0.60317,4.0599,0.86161,-0.2872,-1.98,1.1488,-1.3605e-09,-0.99001,0,0,0.2,-0,-0,0.66667
0.69657,0.46552,3.4829,-0.051721,-0.85748,15.946,0.48036,-0.16012,-1.9904,0.64049,-2.7627e-12,-0.99518,0,0,0.2,1.1842e-15,0,0.66667
0.8539,0.69472,4.2695,0.29208,2.4925,4.5809,-3.3254,1.1085,-1.6961,-4.4339,1.1682e-09,-0.84805,0,0,0.2,-0,-0,0.66667
0.48707,0.91018,2.4353,0.61527,15.526,40.395,-3.9957,1.3319,-0.6546,-5.3276,-2.3515e-13,-0.3273,0,0,0.2,-0,-0,0.66667
0.091798,0.17658,0.45899,-0.48514,-15.87,102.34,0.59379,-0.19793,-1.1632,0.79172,9.716e-09,-0.58161,0,0,0.2,-0,-0,0.66667
0.37859,0.86533,1.893,0.54799,15.499,55.682,-2.7662,0.92206,-0.93189,-3.6882,1.0212e-12,-0.46595,0,0,0.2,-0,-0,0.66667
0.19142,0.84459,0.95709,0.51689,16.44,85.439,-1.3192,0.43974,-1.0508,-1.759,-3.2682e-10,-0.52542,0,0,0.2,-0,-0,0.66667
0.76352,0.74686,3.8176,0.3703,4.9843,10.494,-3.7697,1.2566,-1.5134,-5.0262,1.2266e-10,-0.7567,0,0,0.2,-4.737e-16,0,0.66667
0.69537,0.86598,3.4769,0.54896,9.3019,16.519,-5.0898,1.6966,-0.92755,-6.7864,-3.9124e-13,-0.46378,0,0,0.2,-9.4739e-16,0,0.66667
0.57953,0.73197,2.8976,0.34795,7.5438,28.47,-2.6887,0.89622,-1.5697,-3.5849,-1.4486e-12,-0.78484,0,0,0.2,-0,-0,0.66667
0.76884,0.2495,3.8442,-0.37575,-4.9571,10.098,3.8519,-1.284,-1.499,5.1359,-1.3793e-10,-0.74952,0,0,0.2,-1.3915e-15,0,0.66667
0.36936,0.33561,1.8468,-0.24659,-6.9699,56.867,1.2144,-0.4048,-1.7831,1.6192,-2.3601e-12,-0.89155,0,0,0.2,-4.737e-16,0,0.66667
0.36918,0.26958,1.8459,-0.34564,-9.7921,56.943,1.7013,-0.56711,-1.5742,2.2685,-2.8475e-12,-0.78712,0,0,0.2,-0,-0,0.66667
0.70021,0.80624,3.501,0.45936,7.6371,15.934,-4.2886,1.4295,-1.2499,-5.7181,2.7494e-12,-0.62496,0,0,0.2,-0,-0,0.66667
0.4523,0.48638,2.2615,-0.020432,-0.52984,44.748,0.12322,-0.041074,-1.9989,0.1643,-1.66e-13,-0.99946,0,0,0.2,4.737e-16,0,0.66667
0.81192,0.41743,4.0596,-0.12386,-1.3368,6.8862,1.3409,-0.44695,-1.9461,1.7878,-3.6236e-10,-0.97304,0,0,0.2,-0,-0,0.66667
0.15461,0.13783,0.77306,-0.54326,-17.525,91.637,1.1199,-0.3733,-0.95074,1.4932,1.8211e-09,-0.47537,0,0,0.2,2.3685e-16,-8.2292e-17,0.66667
0.58986,0.062843,2.9493,-0.65574,-14.163,27.672,5.1572,-1.7191,-0.47205,6.8763,-3.415e-13,-0.23602,0,0,0.2,1.8948e-15,0,0.66667
0.37357,0.91616,1.8678,0.62424,17.792,56.507,-3.1093,1.0364,-0.61483,-4.1457,6.7213e-13,-0.30741,0,0,0.2,-0,-2.0515e-16,0.66667
0.24708,0.90333,1.2354,0.605,18.812,76.303,-1.9931,0.66436,-0.69927,-2.6575,-1.0101e-11,-0.34963,0,0,0.2,1.7764e-16,0,0.66667
0.25433,0.54885,1.2716,0.073281,2.2424,74.922,-0.2485,0.082834,-1.9801,-0.33134,-2.6786e-11,-0.99005,0,0,0.2,-4.737e-16,0,0.66667
0.74375,0.974,3.7187,0.711,10.548,12.66,-7.0507,2.3502,-0.20219,-9.4009,1.3904e-12,-0.10109,0,0,0.2,-0,-0,0.66667
0.32886,0.76158,1.6443,0.39237,11.498,63.143,-1.7205,0.57349,-1.4532,-2.294,1.4433e-12,-0.72658,0,0,0.2,-0,-0,0.66667
0.22792,0.93173,1.1396,0.6476,20.369,79.464,-1.968,0.65599,-0.50835,-2.624,-1.4397e-11,-0.25418,0,0,0.2,-1.0189e-16,0,0.66667
0.90536,0.10871,4.5268,-0.58694,-3.3954,2.8093,7.0852,-2.3617,-0.77547,9.4469,-8.728e-09,-0.38773,0,0,0.2,1.8948e-15,0,0.66667
0.41629,0.82019,2.0815,0.48029,13.07,50.085,-2.6659,0.88862,-1.1792,-3.5545,6.1418e-13,-0.58959,0,0,0.2,-0,-0,0.66667
0.5344,0.68411,2.672,0.27616,6.4373,33.912,-1.9677,0.65591,-1.7294,-2.6237,-7.051e-13,-0.86468,0,0,0.2,1.1842e-15,0,0.66667
0.37206,0.68099,1.8603,0.27149,7.6593,56.471,-1.3468,0.44893,-1.7381,-1.7957,2.2323e-12,-0.86903,0,0,0.2,7.1054e-16,0,0.66667
0.23386,0.78922,1.1693,0.43383,13.502,78.37,-1.3527,0.4509,-1.3318,-1.8036,-1.1965e-10,-0.66588,0,0,0.2,-0,-0,0.66667
0.10234,0.046824,0.51172,-0.67976,-22.351,100.58,0.92759,-0.3092,-0.35582,1.2368,2.0066e-09,-0.17791,0,0,0.2,-0,-0,0.66667
0.055182,0.11138,0.27591,-0.58293,-19.237,108.66,0.42889,-0.14296,-0.7906,0.57186,-6.9551e-08,-0.3953,0,0,0.2,-5.9212e-17,0,0.66667
0.87287,0.84851,4.3644,0.52276,3.9921,4.01,-6.0841,2.028,-1.029,-8.1121,1.1654e-09,-0.5145,0,0,0.2,-0,-0,0.66667
0.17297,0.49719,0.86485,-0.0042215,-0.13404,88.428,0.0097358,-0.0032453,-2.0013,0.012981,6.2617e-10,-1.0007,0,0,0.2,-3.5527e-16,0,0.66667
0.53895,0.14865,2.6948,-0.52702,-12.309,33.581,3.7872,-1.2624,-1.0116,5.0496,4.3254e-13,-0.50582,0,0,0.2,-4.737e-16,0,0.66667
0.97872,0.76989,4.8936,0.40483,0.40075,0.58207,-5.2829,1.761,-1.4163,-7.0439,-2.1829e-08,-0.70816,0,0,0.2,-9.4739e-16,0,0.66667
0.16733,0.61453,0.83665,0.1718,5.4713,89.392,-0.38329,0.12776,-1.8944,-0.51106,-7.0454e-10,-0.94718,0,0,0.2,2.3685e-16,0,0.66667
0.59576,0.51283,2.9788,0.019248,0.40265,26.429,-0.1529,0.050965,-1.9986,-0.20386,-1.0589e-13,-0.99931,0,0,0.2,-0,-0,0.66667
0.75137,0.4879,3.7568,-0.018156,-0.25294,11.211,0.18189,-0.060629,-1.9991,0.24252,-2.7708e-12,-0.99953,0,0,0.2,-9.4739e-16,0,0.66667
0.079887,0.045654,0.39944,-0.68152,-22.503,104.42,0.72593,-0.24198,-0.34854,0.9679,2.9182e-08,-0.17427,0,0,0.2,-0,-0,0.66667
0.45273,0.53329,2.2636,0.049934,1.2943,44.691,-0.30142,0.10047,-1.993,-0.4019,1.9595e-13,-0.99651,0,0,0.2,-1.8948e-15,0,0.66667
0.79183,0.43959,3.9591,-0.090617,-1.0746,8.2105,0.95671,-0.3189,-1.9711,1.2756,-1.2071e-10,-0.98555,0,0,0.2,-0,-0,0.66667
0.72178,0.43784,3.6089,-0.093233,-1.4352,13.689,0.89725,-0.29908,-1.9702,1.1963,-1.317e-11,-0.98512,0,0,0.2,1.8948e-15,0,0.66667
0.67856,0.73304,3.3928,0.34957,6.1273,17.836,-3.1627,1.0542,-1.5643,-4.2169,-1.8718e-13,-0.78216,0,0,0.2,-0,-0,0.66667
0.76669,0.72132,3.8334,0.33197,4.4055,10.207,-3.3936,1.1312,-1.6096,-4.5248,1.4609e-10,-0.80481,0,0,0.2,-1.8948e-15,0,0.66667
0.5821,0.8082,2.9105,0.4623,10.021,28.288,-3.5881,1.196,-1.2402,-4.7842,-1.2943e-12,-0.62011,0,0,0.2,1.4211e-15,0,0.66667
0.3749,0.9999,1.8745,0.74985,21.482,56.452,-3.7482,1.2494,-0.0032197,-4.9976,5.3424e-13,-0.0016099,0,0,0.2,-5.8865e-16,3.0191e-18,0.66667
0.44709,0.66049,2.2355,0.24073,6.2945,45.535,-1.4351,0.47836,-1.7937,-1.9134,6.6158e-13,-0.89685,0,0,0.2,-9.4739e-16,0,0.66667
0.28043,0.33445,1.4021,-0.24833,-7.4976,70.734,0.92849,-0.3095,-1.7814,1.238,2.4724e-11,-0.8907,0,0,0.2,-0,-0,0.66667
0.33926,0.57442,1.6963,0.11163,3.2292,61.427,-0.50497,0.16832,-1.9549,-0.67329,1.0731e-12,-0.97745,0,0,0.2,-0,-0,0.66667
0.88017,0.72153,4.4008,0.3323,2.3399,3.3626,-3.8997,1.2999,-1.6075,-5.1996,2.6603e-09,-0.80377,0,0,0.2,-0,-0,0.66667
0.53635,0.94941,2.6817,0.67411,15.931,34.117,-4.8208,1.6069,-0.38335,-6.4277,1.0925e-13,-0.19167,0,0,0.2,9.4739e-16,0,0.66667
0.073744,0.57596,0.36872,0.11395,3.7126,105.41,-0.11204,0.037346,-1.953,-0.14938,-4.4834e-08,-0.97651,0,0,0.2,-0,-0,0.66667
0.67227,0.53905,3.3613,0.058574,1.0361,18.272,-0.52503,0.17501,-1.9888,-0.70004,3.7426e-13,-0.99441,0,0,0.2,-0,-0,0.66667
0.72976,0.45935,3.6488,-0.060976,-0.91478,12.996,0.5933,-0.19777,-1.9861,0.79107,-1.3268e-11,-0.99307,0,0,0.2,-9.4739e-16,0,0.66667
0.39561,0.54769,1.978,0.071529,1.9698,52.902,-0.3773,0.12577,-1.9808,-0.50307,2.0201e-13,-0.99042,0,0,0.2,-0,-0,0.66667
0.34753,0.54108,1.7377,0.061626,1.7704,60.145,-0.28556,0.095187,-1.986,-0.38075,7.849e-13,-0.99301,0,0,0.2,-0,-0,0.66667
0.10753,0.50883,0.53766,0.013243,0.42861,99.58,-0.018988,0.0063293,-1.9996,-0.025317,-3.7015e-08,-0.99982,0,0,0.2,4.737e-16,0,0.66667
0.54663,0.89977,2.7331,0.59965,13.89,32.729,-4.3705,1.4568,-0.72272,-5.8274,3.0198e-13,-0.36136,0,0,0.2,-9.4739e-16,-1.5572e-16,0.66667
0.26282,0.012239,1.3141,-0.73164,-22.683,73.85,2.5639,-0.85463,-0.096384,3.4185,-4.4187e-12,-0.048192,0,0,0.2,9.4739e-16,-2.2573e-16,0.66667
0.91802,0.83585,4.5901,0.50377,2.4792,2.188,-6.1662,2.0554,-1.0974,-8.2217,4.2089e-09,-0.54868,0,0,0.2,-9.4739e-16,0,0.66667
0.85065,0.4232,4.2532,-0.1152,-0.99579,4.6157,1.3066,-0.43554,-1.9516,1.7422,8.3684e-11,-0.9758,0,0,0.2,-9.4739e-16,0,0.66667
0.65361,0.49038,3.268,-0.014427,-0.26703,20.143,0.12572,-0.041908,-1.9992,0.16763,-9.3175e-14,-0.99958,0,0,0.2,-0,-0,0.66667
0.87584,0.21553,4.3792,-0.42671,-3.1445,3.6969,4.9831,-1.661,-1.354,6.6441,-2.2019e-09,-0.67702,0,0,0.2,4.737e-16,0,0.66667
0.96891,0.19836,4.8446,-0.45247,-0.75534,0.82044,5.8453,-1.9484,-1.273,7.7938,5.7192e-08,-0.63648,0,0,0.2,-0,-0,0.66667
0.59079,0.73037,2.9539,0.34556,7.3396,27.158,-2.7221,0.90735,-1.5751,-3.6294,-1.4384e-12,-0.78753,0,0,0.2,-9.4739e-16,0,0.66667
0.98013,0.033586,4.9007,-0.69962,-0.86449,1.2722,9.143,-3.0476,-0.26007,12.191,4.6131e-06,-0.13003,0,0,0.2,-3.7896e-15,0,0.66667
0.54926,0.30971,2.7463,-0.28544,-6.5018,32.065,2.0904,-0.69681,-1.7112,2.7872,6.6414e-13,-0.8556,0,0,0.2,1.1842e-16,0,0.66667
0.2936,0.073799,1.468,-0.6393,-19.371,68.855,2.5026,-0.8342,-0.54639,3.3368,-8.5665e-13,-0.2732,0,0,0.2,-4.737e-16,9.6536e-17,0.66667
0.49124,0.8718,2.4562,0.55769,13.958,39.767,-3.6528,1.2176,-0.894,-4.8704,6.3105e-13,-0.447,0,0,0.2,-1.1842e-15,0,0.66667
0.40509,0.61358,2.0254,0.17038,4.653,51.53,-0.92023,0.30674,-1.8971,-1.227,1.074e-12,-0.94857,0,0,0.2,-4.737e-16,0,0.66667
0.59978,0.57004,2.9989,0.10506,2.1822,25.985,-0.84019,0.28006,-1.9601,-1.1203,-1.0208e-12,-0.98003,0,0,0.2,-0,-0,0.66667
0.4807,0.31034,2.4035,-0.28449,-7.1498,40.931,1.8234,-0.6078,-1.7128,2.4312,-2.6712e-13,-0.85641,0,0,0.2,-1.4211e-15,0,0.66667
0.2867,0.94749,1.4335,0.67124,20.457,69.976,-2.5659,0.85531,-0.39718,-3.4212,7.4385e-13,-0.19859,0,0,0.2,-0,-0,0.66667
0.62519,0.16494,3.1259,-0.50259,-10.043,23.495,4.1895,-1.3965,-1.1029,5.586,2.2284e-12,-0.55146,0,0,0.2,-0,-0,0.66667
0.8054,0.1257,4.027,-0.56145,-6.4311,7.8447,6.0292,-2.0097,-0.87953,8.039,-2.5139e-11,-0.43976,0,0,0.2,-1.8948e-15,0,0.66667
0.078748,0.48361,0.39374,-0.024585,-0.80009,104.54,0.025813,-0.0086044,-1.9983,0.034418,3.2139e-08,-0.99917,0,0,0.2,-0,-0,0.66667
0.42362,0.43576,2.1181,-0.096361,-2.5803,48.822,0.54428,-0.18143,-1.9683,0.72571,-6.4709e-13,-0.98416,0,0,0.2,-1.0066e-15,0,0.66667
0.645,0.31715,3.225,-0.27427,-5.2004,21.141,2.3588,-0.78626,-1.7325,3.145,2.3452e-12,-0.86626,0,0,0.2,-0,-0,0.66667
0.0072838,0.8853,0.036419,0.57796,19.127,116.93,-0.05613,0.01871,-0.81129,-0.07484,-5.5827e-07,-0.40564,0,0,0.2,-0,-0,0.66667
0.87569,0.96509,4.3784,0.69764,5.3674,4.2964,-8.1455,2.7152,-0.27095,-10.861,-7.1491e-09,-0.13547,0,0,0.2,4.737e-16,0,0.66667
0.69402,0.26173,3.4701,-0.3574,-6.014,16.377,3.3073,-1.1024,-1.5447,4.4097,-4.3274e-12,-0.77237,0,0,0.2,1.8948e-15,0,0.66667
0.74977,0.22196,3.7488,-0.41706,-5.9189,11.628,4.1693,-1.3898,-1.3833,5.5591,-6.1203e-11,-0.69164,0,0,0.2,-0,-0,0.66667
0.5233,0.5541,2.6165,0.081157,1.9177,35.241,-0.56626,0.18875,-1.9757,-0.75501,-1.2534e-13,-0.98785,0,0,0.2,-4.737e-16,0,0.66667
0.97547,0.29674,4.8773,-0.30489,-0.34408,0.47477,3.9655,-1.3218,-1.6683,5.2873,5.154e-09,-0.83414,0,0,0.2,1.8948e-15,0,0.66667
0.15309,0.88948,0.76543,0.58421,18.883,91.911,-1.1925,0.39749,-0.78595,-1.59,-6.5634e-10,-0.39297,0,0,0.2,2.3685e-16,5.0824e-17,0.66667
0.95582,0.484,4.7791,-0.023994,-0.055134,0.63475,0.30579,-0.10193,-1.9976,0.40772,-9.4108e-07,-0.99879,0,0,0.2,1.8948e-15,0,0.66667
0.9956,0.87184,4.978,0.55776,0.01789,0.72269,-7.404,2.468,-0.89412,-9.872,1.3455e-07,-0.44706,0,0,0.2,1.8948e-15,0,0.66667
0.078553,0.7022,0.39277,0.30331,9.8999,104.59,-0.31768,0.10589,-1.6735,-0.42357,2.9728e-09,-0.83674,0,0,0.2,-0,-0,0.66667
0.33688,0.25567,1.6844,-0.36649,-10.667,61.885,1.6462,-0.54874,-1.5219,2.1949,-2.3648e-12,-0.76095,0,0,0.2,-9.4739e-16,0,0.66667
0.99274,0.98649,4.9637,0.72974,0.32904,1.2349,-9.6592,3.2197,-0.10542,-12.879,7.6601e-06,-0.05271,0,0,0.2,-1.8948e-15,0,0.66667
0.42676,0.4349,2.1338,-0.097643,-2.606,48.372,0.5556,-0.1852,-1.9663,0.7408,-7.7771e-13,-0.98316,0,0,0.2,5.9212e-16,0,0.66667
0.82335,0.29932,4.1167,-0.30102,-3.0846,6.3118,3.3046,-1.1015,-1.6769,4.4061,-7.0379e-10,-0.83846,0,0,0.2,-0,-0,0.66667
0.28812,0.71248,1.4406,0.31872,9.5898,69.528,-1.2244,0.40813,-1.6382,-1.6325,-1.6152e-11,-0.8191,0,0,0.2,2.3685e-16,0,0.66667
0.51209,0.28474,2.5605,-0.32289,-7.787,36.797,2.2046,-0.73488,-1.6297,2.9395,1.7097e-13,-0.81485,0,0,0.2,-0,-0,0.66667
0.4661,0.86649,2.3305,0.54973,14.195,43.148,-3.4164,1.1388,-0.9255,-4.5552,2.2493e-13,-0.46275,0,0,0.2,-0,-0,0.66667
0.33294,0.43147,1.6647,-0.1028,-2.988,62.404,0.45636,-0.15212,-1.9621,0.60848,-1.1818e-13,-0.98106,0,0,0.2,-0,-0,0.66667
0.52708,0.20816,2.6354,-0.43776,-10.37,34.974,3.0765,-1.0255,-1.318,4.102,3.2707e-13,-0.659,0,0,0.2,-0,-0,0.66667
0.080511,0.20781,0.40256,-0.43828,-14.346,104.27,0.47049,-0.15683,-1.3169,0.62732,7.9948e-09,-0.65845,0,0,0.2,-1.1842e-16,0,0.66667
0.2212,0.53078,1.106,0.046176,1.4371,80.364,-0.13618,0.045395,-1.9937,-0.18158,-6.218e-11,-0.99687,0,0,0.2,8.8818e-17,0,0.66667
0.33596,0.6173,1.6798,0.17594,5.1059,61.951,-0.78813,0.26271,-1.8891,-1.0508,8.3078e-13,-0.94456,0,0,0.2,2.3685e-16,0,0.66667
0.96887,0.9425,4.8444,0.66376,1.272,1.3288,-8.5746,2.8582,-0.43504,-11.433,2.6841e-07,-0.21752,0,0,0.2,-0,-0,0.66667
0.44075,0.56262,2.2038,0.09393,2.4688,46.379,-0.552,0.184,-1.9698,-0.736,-5.0243e-13,-0.98488,0,0,0.2,1.8948e-15,0,0.66667
0.96131,0.79919,4.8066,0.44878,0.96702,0.95051,-5.7522,1.9174,-1.2827,-7.6697,-5.8518e-08,-0.64135,0,0,0.2,-0,-0,0.66667
0.57362,0.43295,2.8681,-0.10057,-2.1917,29.027,0.7692,-0.2564,-1.964,1.0256,6.2389e-13,-0.98201,0,0,0.2,4.737e-16,0,0.66667
0.046616,0.072969,0.23308,-0.64055,-21.204,110.14,0.39813,-0.13271,-0.542,0.53083,-6.8039e-08,-0.271,0,0,0.2,-0,-0,0.66667
0.65871,0.64037,3.2936,0.21056,3.8601,19.687,-1.8493,0.61644,-1.8421,-2.4658,-1.4989e-12,-0.92103,0,0,0.2,-0,-0,0.66667
0.014774,0.088352,0.073869,-0.61747,-20.462,115.64,0.12163,-0.040544,-0.64546,0.16218,5.9817e-07,-0.32273,0,0,0.2,-7.4015e-18,0,0.66667
0.74247,0.058514,3.7124,-0.66223,-9.8204,12.652,6.5558,-2.1853,-0.44042,8.7411,-1.5969e-12,-0.22021,0,0,0.2,4.3963e-16,0,0.66667
0.4207,0.057161,2.1035,-0.66426,-18.139,49.646,3.7261,-1.242,-0.43211,4.9681,4.9738e-14,-0.21606,0,0,0.2,-7.1054e-16,1.3421e-16,0.66667
0.53388,0.85369,2.6694,0.53053,12.489,34.22,-3.7766,1.2589,-0.9991,-5.0355,-7.7494e-14,-0.49955,0,0,0.2,-0,-0,0.66667
0.78883,0.89574,3.9442,0.59361,7.3451,9.0224,-6.2435,2.0812,-0.74604,-8.3246,6.7268e-11,-0.37302,0,0,0.2,-0,-0,0.66667
0.9056,0.80456,4.528,0.45685,2.5719,2.5274,-5.5162,1.8387,-1.2588,-7.355,9.0514e-09,-0.6294,0,0,0.2,-0,-0,0.66667
0.98688,0.4475,4.9344,-0.078753,-0.02301,0.13511,1.0363,-0.34542,-1.9779,1.3817,5.0927e-07,-0.98893,0,0,0.2,-0,-0,0.66667
0.80208,0.46438,4.0104,-0.053425,-0.60417,7.5052,0.57135,-0.19045,-1.9897,0.7618,2.2666e-11,-0.99486,0,0,0.2,-1.4211e-15,0,0.66667
0.0025426,0.083103,0.012713,-0.62534,-20.734,117.75,0.021198,-0.007066,-0.60943,0.028263,-1.4639e-07,-0.30472,0,0,0.2,3.7007e-18,-1.0571e-15,0.66667
0.60009,0.70987,3.0004,0.31481,6.5636,26.067,-2.5188,0.83961,-1.6468,-3.3584,-1.9023e-12,-0.82339,0,0,0.2,-9.4739e-16,0,0.66667
0.28885,0.91693,1.4442,0.62539,18.996,69.597,-2.4085,0.80285,-0.60831,-3.2114,-1.5432e-13,-0.30415,0,0,0.2,4.737e-16,0,0.66667
0.70972,0.14026,3.5486,-0.53962,-8.7753,15.201,5.1063,-1.7021,-0.96348,6.8084,-2.6277e-12,-0.48174,0,0,0.2,-0,-0,0.66667
0.30554,0.87356,1.5277,0.56034,16.79,66.904,-2.2828,0.76092,-0.88382,-3.0437,1.634e-12,-0.44191,0,0,0.2,-5.3291e-16,0,0.66667
0.55587,0.94912,2.7793,0.67368,15.441,31.715,-4.993,1.6643,-0.38523,-6.6574,-1.2612e-13,-0.19261,0,0,0.2,-0,-0,0.66667
0.91807,0.86761,4.5903,0.55142,2.7407,2.2889,-6.7499,2.25,-0.91864,-8.9999,3.0126e-08,-0.45932,0,0,0.2,9.4739e-16,0,0.66667
0.24787,0.50561,1.2394,0.0084075,0.25812,75.973,-0.027786,0.0092621,-2.0003,-0.037048,8.4929e-12,-1.0001,0,0,0.2,-0,-0,0.66667
0.11184,0.14628,0.55921,-0.53058,-17.31,98.91,0.79121,-0.26374,-0.99899,1.0549,8.4276e-09,-0.49949,0,0,0.2,-0,-0,0.66667
0.51354,0.80635,2.5677,0.45953,11.111,36.732,-3.1465,1.0488,-1.2497,-4.1953,-2.1094e-13,-0.62483,0,0,0.2,1.2515e-15,0,0.66667
0.91372,0.69013,4.5686,0.2852,1.4275,1.9815,-3.4746,1.1582,-1.7107,-4.6328,-4.7247e-09,-0.85536,0,0,0.2,-0,-0,0.66667
0.17924,0.021707,0.89619,-0.71744,-23.111,87.577,1.7146,-0.57152,-0.16891,2.2861,2.406e-10,-0.084453,0,0,0.2,4.737e-16,0,0.66667
0.25588,0.41531,1.2794,-0.12704,-3.8854,74.675,0.43342,-0.14447,-1.9418,0.5779,4.2639e-11,-0.9709,0,0,0.2,-0,-0,0.66667
0.033996,0.77354,0.16998,0.4103,13.493,112.3,-0.18598,0.061994,-1.4015,-0.24798,2.9499e-08,-0.70073,0,0,0.2,-2.9606e-17,0,0.66667
0.015372,0.36256,0.076859,-0.20617,-6.7594,115.53,0.042255,-0.014085,-1.8496,0.05634,-3.3261e-08,-0.9248,0,0,0.2,-1.4803e-17,0,0.66667
0.54222,0.41705,2.7111,-0.12443,-2.8576,32.859,0.89955,-0.29985,-1.9442,1.1994,5.3946e-13,-0.9721,0,0,0.2,-9.4739e-16,0,0.66667
0.85536,0.16426,4.2768,-0.50362,-4.3437,4.8253,5.7436,-1.9145,-1.0978,7.6582,-1.2328e-09,-0.54892,0,0,0.2,1.8948e-15,0,0.66667
0.44652,0.60834,2.2326,0.16251,4.2467,45.583,-0.96755,0.32252,-1.9049,-1.2901,6.1096e-13,-0.95245,0,0,0.2,-9.4739e-16,0,0.66667
0.23564,0.36975,1.1782,-0.19538,-6.0447,77.999,0.61384,-0.20461,-1.8652,0.81845,1.2161e-10,-0.93261,0,0,0.2,-0,-0,0.66667
0.93653,0.16722,4.6827,-0.49918,-1.8828,1.6253,6.2333,-2.0778,-1.1145,8.311,-8.7866e-09,-0.55725,0,0,0.2,-0,-0,0.66667
0.61921,0.32406,3.096,-0.26391,-5.2891,23.893,2.1788,-0.72628,-1.7514,2.9051,2.3799e-12,-0.87569,0,0,0.2,-0,-0,0.66667
0.86458,0.36069,4.3229,-0.20897,-1.6464,3.9618,2.4089,-0.80297,-1.8437,3.2119,-1.8118e-09,-0.92187,0,0,0.2,-0,-0,0.66667
0.12811,0.42107,0.64057,-0.11839,-3.8141,96.056,0.20223,-0.067409,-1.9497,0.26964,1.3581e-09,-0.97483,0,0,0.2,-2.3685e-16,0,0.66667
0.44124,0.88525,2.2062,0.57787,15.375,46.629,-3.3997,1.1332,-0.81217,-4.533,2.2871e-13,-0.40609,0,0,0.2,-0,-0,0.66667
0.85755,0.79179,4.2878,0.43768,3.692,4.5953,-5.0045,1.6682,-1.319,-6.6726,2.3291e-09,-0.65951,0,0,0.2,-0,-0,0.66667
0.89819,0.44224,4.491,-0.086644,-0.50826,2.4049,1.0376,-0.34588,-1.9729,1.3835,-1.5344e-08,-0.98645,0,0,0.2,-0,-0,0.66667
0.87726,0.8731,4.3863,0.55965,4.1536,3.8879,-6.5462,2.1821,-0.88746,-8.7282,1.7057e-08,-0.44373,0,0,0.2,-2.3685e-16,0,0.66667
0.62547,0.15694,3.1274,-0.51459,-10.284,23.481,4.2915,-1.4305,-1.0606,5.722,2.0464e-12,-0.53029,0,0,0.2,-0,-0,0.66667
0.75811,0.024344,3.7906,-0.71348,-10.074,11.536,7.212,-2.404,-0.1893,9.616,-4.7207e-13,-0.09465,0,0,0.2,9.4739e-16,0,0.66667
0.6755,0.68234,3.3775,0.27351,4.8187,18.063,-2.4634,0.82115,-1.7341,-3.2846,2.82e-13,-0.86706,0,0,0.2,-9.4739e-16,0,0.66667
0.84516,0.259,4.2258,-0.3615,-3.2808,5.1317,4.0737,-1.3579,-1.5358,5.4316,-1.4896e-09,-0.76789,0,0,0.2,-0,-0,0.66667
0.63245,0.49056,3.1622,-0.014166,-0.27506,22.361,0.11946,-0.039819,-1.9983,0.15928,2.9346e-13,-0.99916,0,0,0.2,-1.4211e-15,0,0.66667
0.17189,0.57356,0.85945,0.11033,3.5062,88.615,-0.25287,0.08429,-1.9576,-0.33716,-4.4958e-10,-0.97882,0,0,0.2,-4.737e-16,0,0.66667
0.65052,0.90597,3.2526,0.60895,11.588,20.996,-5.2818,1.7606,-0.68207,-7.0424,-1.144e-12,-0.34103,0,0,0.2,-7.4015e-17,0,0.66667
0.45534,0.8052,2.2767,0.4578,11.928,44.536,-2.7794,0.92646,-1.2551,-3.7058,4.734e-13,-0.62756,0,0,0.2,4.737e-16,0,0.66667
0.058851,0.69431,0.29425,0.29147,9.5375,107.99,-0.22871,0.076235,-1.6978,-0.30494,1.4465e-08,-0.84891,0,0,0.2,-1.1842e-16,0,0.66667
0.53586,0.73053,2.6793,0.3458,8.058,33.779,-2.4707,0.82357,-1.574,-3.2943,-2.478e-13,-0.78701,0,0,0.2,-0,-0,0.66667
0.43929,0.37989,2.1965,-0.18017,-4.7476,46.609,1.0553,-0.35176,-1.8854,1.407,-8.1002e-13,-0.94268,0,0,0.2,-9.4739e-16,0,0.66667
0.87473,0.45892,4.3736,-0.061626,-0.44672,3.4011,0.71874,-0.23958,-1.9874,0.95832,-2.6411e-09,-0.99369,0,0,0.2,-0,-0,0.66667
0.66072,0.46659,3.3036,-0.050122,-0.91225,19.422,0.44155,-0.14718,-1.9915,0.58874,1.6898e-13,-0.99573,0,0,0.2,-1.0658e-15,0,0.66667
0.26079,0.53682,1.3039,0.055233,1.6838,73.87,-0.19206,0.064019,-1.9889,-0.25607,-1.3396e-11,-0.99445,0,0,0.2,-0,-0,0.66667
0.21677,0.18658,1.0838,-0.47012,-14.768,81.204,1.3588,-0.45292,-1.2156,1.8117,2.351e-10,-0.60778,0,0,0.2,5.9212e-16,0,0.66667
0.097323,0.65904,0.48662,0.23855,7.7514,101.35,-0.30956,0.10319,-1.7982,-0.41274,1.3005e-09,-0.89908,0,0,0.2,-0,-0,0.66667
0.46914,0.55838,2.3457,0.087563,2.226,42.425,-0.54773,0.18258,-1.9743,-0.7303,2.1261e-14,-0.98713,0,0,0.2,-2.3685e-16,0,0.66667
0.3498,0.79795,1.749,0.44692,12.906,59.95,-2.0844,0.69481,-1.2887,-2.7793,2.909e-12,-0.64434,0,0,0.2,-8.8794e-16,0,0.66667
0.57735,0.45172,2.8867,-0.07242,-1.5675,28.578,0.55749,-0.18583,-1.9818,0.74331,5.0054e-13,-0.99088,0,0,0.2,-0,-0,0.66667
0.056942,0.55061,0.28471,0.075913,2.4784,108.31,-0.057635,0.019212,-1.9785,-0.076847,-3.4575e-08,-0.98926,0,0,0.2,5.9212e-17,0,0.66667
0.24992,0.80474,1.2496,0.45711,14.118,75.755,-1.5232,0.50774,-1.2582,-2.0309,-5.7447e-11,-0.62912,0,0,0.2,-0,-0,0.66667
0.51229,0.63404,2.5615,0.20106,4.8341,36.699,-1.3733,0.45778,-1.856,-1.8311,-4.4886e-13,-0.928,0,0,0.2,-0,-0,0.66667
0.37596,0.96171,1.8798,0.69256,19.763,56.225,-3.4717,1.1572,-0.29543,-4.6289,1.8252e-13,-0.14771,0,0,0.2,7.1054e-16,0,0.66667
0.6269,0.60129,3.1345,0.15194,2.9892,22.99,-1.27,0.42333,-1.9183,-1.6933,-1.4948e-12,-0.95915,0,0,0.2,-0,-0,0.66667
0.37322,0.20451,1.8661,-0.44324,-12.548,56.399,2.2057,-0.73522,-1.3015,2.9409,-2.0381e-12,-0.65073,0,0,0.2,-4.737e-16,0,0.66667
0.46031,0.28821,2.3016,-0.31768,-8.1935,43.737,1.9498,-0.64992,-1.6405,2.5997,-8.0924e-13,-0.82023,0,0,0.2,-0,-0,0.66667
0.23422,0.70824,1.1711,0.31236,9.6903,78.264,-0.97547,0.32516,-1.654,-1.3006,-1.4166e-10,-0.82699,0,0,0.2,-2.3685e-16,0,0.66667
0.29959,0.60307,1.4979,0.15461,4.6047,67.651,-0.61759,0.20586,-1.9149,-0.82345,-8.0667e-12,-0.95745,0,0,0.2,-0,-0,0.66667
0.11528,0.094586,0.57642,-0.60812,-19.88,98.344,0.93476,-0.31159,-0.68552,1.2463,-1.1996e-08,-0.34276,0,0,0.2,-0,-0,0.66667
0.77244,0.28268,3.8622,-0.32598,-4.2284,9.7703,3.3573,-1.1191,-1.6224,4.4764,-1.7663e-10,-0.81119,0,0,0.2,-0,-0,0.66667
0.79388,0.78427,3.9694,0.4264,5.0871,8.375,-4.5135,1.5045,-1.3542,-6.018,3.0981e-10,-0.67709,0,0,0.2,-1.8948e-15,0,0.66667
0.043936,0.23636,0.21968,-0.39546,-12.99,110.58,0.23166,-0.077222,-1.4435,0.30889,-2.5418e-08,-0.72176,0,0,0.2,-0,-0,0.66667
0.16096,0.63162,0.80481,0.19743,6.3031,90.473,-0.4237,0.14123,-1.8611,-0.56494,-8.9066e-10,-0.93053,0,0,0.2,-4.737e-16,0,0.66667
0.80286,0.88437,4.0143,0.57656,6.6931,8.0413,-6.172,2.0573,-0.81719,-8.2293,5.2769e-11,-0.40859,0,0,0.2,-1.8948e-15,0,0.66667
0.91048,0.99515,4.5524,0.74272,4.2259,3.0461,-9.0164,3.0055,-0.038632,-12.022,1.2926e-07,-0.019316,0,0,0.2,4.737e-16,0,0.66667
0.36919,0.63703,1.846,0.20554,5.8066,56.878,-1.0118,0.33726,-1.8488,-1.349,1.7181e-12,-0.92438,0,0,0.2,-0,-0,0.66667
0.67531,0.033632,3.3766,-0.69955,-12.631,18.703,6.2989,-2.0996,-0.26063,8.3985,3.1353e-13,-0.13031,0,0,0.2,-0,-0,0.66667
0.18999,0.32843,0.94997,-0.25735,-8.1363,85.592,0.65194,-0.21731,-1.7642,0.86925,4.786e-10,-0.88211,0,0,0.2,2.3685e-16,0,0.66667
0.87123,0.85711,4.3562,0.53567,4.1493,4.1125,-6.2225,2.0742,-0.9791,-8.2967,1.3825e-09,-0.48955,0,0,0.2,-0,-0,0.66667
0.82471,0.78802,4.1235,0.43203,4.4379,6.4058,-4.7507,1.5836,-1.3363,-6.3342,8.2147e-10,-0.66815,0,0,0.2,1.8948e-15,0,0.66667
0.25001,0.37891,1.2501,-0.18163,-5.5762,75.641,0.60547,-0.20182,-1.8844,0.80729,6.6055e-11,-0.94222,0,0,0.2,-9.4739e-16,0,0.66667
0.59285,0.94613,2.9642,0.66919,14.387,27.353,-5.2897,1.7632,-0.40844,-7.053,-2.9798e-13,-0.20422,0,0,0.2,-0,-0,0.66667
0.73576,0.090402,3.6788,-0.6144,-9.2753,13.101,6.0273,-2.0091,-0.65902,8.0365,-6.12e-12,-0.32951,0,0,0.2,2.3685e-16,0,0.66667
0.88384,0.16515,4.4192,-0.50228,-3.502,3.4799,5.9192,-1.9731,-1.1021,7.8922,1.0059e-10,-0.55105,0,0,0.2,-0,-0,0.66667
0.46773,0.82289,2.3386,0.48433,12.448,42.855,-3.0205,1.0068,-1.1664,-4.0273,1.1258e-13,-0.58322,0,0,0.2,-0,-0,0.66667
0.13462,0.68661,0.6731,0.27991,9.0207,94.963,-0.50242,0.16747,-1.7218,-0.6699,-2.2096e-09,-0.8609,0,0,0.2,-2.5165e-16,0,0.66667
0.1094,0.23772,0.54698,-0.39342,-12.791,99.297,0.57385,-0.19128,-1.4505,0.76513,3.5423e-09,-0.72526,0,0,0.2,-0,-0,0.66667
0.52968,0.01156,2.6484,-0.73266,-17.551,35.051,5.1743,-1.7248,-0.09158,6.8991,2.7667e-13,-0.04579,0,0,0.2,-0,2.2082e-16,0.66667
0.049289,0.51906,0.24644,0.028594,0.93417,109.64,-0.018791,0.0062637,-1.9969,-0.025055,2.1577e-09,-0.99845,0,0,0.2,-0,-0,0.66667
0.6209,0.66251,3.1045,0.24377,4.8659,23.694,-2.0181,0.67269,-1.7885,-2.6908,-2.2191e-12,-0.89427,0,0,0.2,-0,-0,0.66667
0.033328,0.056907,0.16664,-0.66464,-22.047,112.44,0.29535,-0.09845,-0.4299,0.3938,3.6717e-07,-0.21495,0,0,0.2,-7.4015e-17,0,0.66667
0.021184,0.32907,0.10592,-0.2564,-8.4108,114.52,0.072421,-0.02414,-1.7652,0.096561,2.3572e-08,-0.88259,0,0,0.2,-0,-0,0.66667
0.075209,0.42609,0.37605,-0.11087,-3.6114,105.15,0.11118,-0.037059,-1.956,0.14823,5.1103e-08,-0.97799,0,0,0.2,1.1842e-16,0,0.66667
0.36803,0.49041,1.8401,-0.01438,-0.40602,57.019,0.070564,-0.023521,-1.9983,0.094085,1.2721e-13,-0.99915,0,0,0.2,-0,-0,0.66667
0.38175,0.093219,1.9088,-0.61017,-17.255,55.272,3.1058,-1.0353,-0.67662,4.1411,-9.9698e-13,-0.33831,0,0,0.2,1.4803e-16,0,0.66667
0.76697,0.43912,3.8349,-0.091327,-1.201,10.012,0.93393,-0.31131,-1.9719,1.2452,-8.6501e-11,-0.98593,0,0,0.2,-0,-0,0.66667
0.84595,0.37439,4.2297,-0.18842,-1.683,4.9102,2.1252,-0.7084,-1.8752,2.8336,4.6059e-10,-0.93758,0,0,0.2,-5.3291e-16,0,0.66667
0.7272,0.097796,3.636,-0.60331,-9.3513,13.796,5.8497,-1.9499,-0.70556,7.7995,-3.3324e-12,-0.35278,0,0,0.2,-0,-0,0.66667
0.88443,0.38569,4.4222,-0.17147,-1.15,3.0166,2.0221,-0.67402,-1.8945,2.6961,-9.9487e-10,-0.94723,0,0,0.2,-0,-0,0.66667
0.5749,0.039434,2.8745,-0.69085,-15.356,29.471,5.2956,-1.7652,-0.30288,7.0608,-5.5955e-14,-0.15144,0,0,0.2,-0,-1.8314e-16,0.66667
0.93988,0.11588,4.6994,-0.57618,-2.102,1.7094,7.2206,-2.4069,-0.81964,9.6274,-6.2774e-08,-0.40982,0,0,0.2,9.4739e-16,0,0.66667
0.90679,0.31882,4.5339,-0.27176,-1.4723,2.2121,3.2858,-1.0953,-1.7385,4.381,2.1812e-09,-0.86926,0,0,0.2,1.8948e-15,0,0.66667
0.44844,0.65083,2.2422,0.22625,5.905,45.339,-1.3528,0.45092,-1.8178,-1.8037,6.4926e-13,-0.9089,0,0,0.2,-0,-0,0.66667
0.47973,0.64494,2.3986,0.21741,5.4631,41.026,-1.3907,0.46355,-1.8311,-1.8542,-1.2701e-13,-0.91557,0,0,0.2,-0,-0,0.66667
0.85666,0.2846,4.2833,-0.3231,-2.7128,4.4749,3.6905,-1.2302,-1.6295,4.9206,-1.5644e-09,-0.81475,0,0,0.2,-0,-0,0.66667
0.39841,0.34605,1.992,-0.23092,-6.3536,52.532,1.2267,-0.40889,-1.8104,1.6355,-2.2794e-12,-0.9052,0,0,0.2,-0,-0,0.66667
0.942,0.66282,4.71,0.24423,0.78959,1.0855,-3.0675,1.0225,-1.7876,-4.09,9.7609e-09,-0.89381,0,0,0.2,1.8948e-15,0,0.66667
0.29331,0.63861,1.4666,0.20792,6.2223,68.662,-0.81313,0.27104,-1.8457,-1.0842,-1.2294e-11,-0.92284,0,0,0.2,-0,-0,0.66667
0.25901,0.26035,1.295,-0.35948,-11.017,74.232,1.2414,-0.41381,-1.5395,1.6552,5.2494e-11,-0.76976,0,0,0.2,-0,-0,0.66667
0.10893,0.16492,0.54464,-0.50262,-16.394,99.401,0.73,-0.24333,-1.1027,0.97333,1.085e-08,-0.55133,0,0,0.2,-0,-0,0.66667
0.24704,0.2299,1.2352,-0.40515,-12.513,76.198,1.3345,-0.44484,-1.416,1.7794,7.2103e-11,-0.70802,0,0,0.2,-0,-0,0.66667
0.53775,0.05872,2.6888,-0.66192,-15.598,33.923,4.746,-1.582,-0.44197,6.328,6.2572e-13,-0.22098,0,0,0.2,-1.1842e-15,0,0.66667
0.98024,0.80962,4.9012,0.46443,0.43881,0.6745,-6.07,2.0233,-1.2334,-8.0933,-1.726e-08,-0.61672,0,0,0.2,-2.1316e-15,0,0.66667
0.20773,0.99949,1.0386,0.74924,23.896,82.858,-2.0752,0.69173,-0.0047705,-2.7669,-3.1021e-11,-0.0023852,0,0,0.2,9.0298e-16,0,0.66667
0.54702,0.60911,2.7351,0.16367,3.7321,32.276,-1.1937,0.3979,-1.9055,-1.5916,-5.1026e-13,-0.95274,0,0,0.2,-9.4739e-16,0,0.66667
0.87839,0.96393,4.392,0.6959,5.2424,4.1716,-8.1503,2.7168,-0.27835,-10.867,-9.7622e-09,-0.13918,0,0,0.2,1.4211e-15,0,0.66667
0.58966,0.79035,2.9483,0.43552,9.3013,27.38,-3.4241,1.1414,-1.3251,-4.5655,-1.1668e-12,-0.66255,0,0,0.2,-0,-0,0.66667
0.83528,0.30487,4.1764,-0.29269,-2.8048,5.5998,3.2597,-1.0866,-1.6946,4.3463,-1.1122e-09,-0.84731,0,0,0.2,-0,-0,0.66667
0.23929,0.53627,1.1964,0.054402,1.678,77.381,-0.17357,0.057856,-1.9893,-0.23142,-3.5947e-11,-0.99465,0,0,0.2,-0,-0,0.66667
0.07308,0.85908,0.3654,0.53862,17.706,105.57,-0.52483,0.17494,-0.96749,-0.69978,4.2065e-09,-0.48374,0,0,0.2,-0,-0,0.66667
0.95297,0.91679,4.7648,0.62519,1.8029,1.5238,-7.9438,2.6479,-0.61117,-10.592,3.3989e-07,-0.30558,0,0,0.2,1.8948e-15,2.1177e-16,0.66667
0.11233,0.57609,0.56163,0.11413,3.6915,98.76,-0.17094,0.05698,-1.9533,-0.22792,1.6878e-09,-0.97663,0,0,0.2,-0,-0,0.66667
0.8024,0.95493,4.012,0.68239,8.0328,8.3092,-7.3007,2.4336,-0.34327,-9.7342,-3.1732e-11,-0.17164,0,0,0.2,-0,-0,0.66667
0.65102,0.20137,3.2551,-0.44795,-8.4353,20.699,3.8883,-1.2961,-1.2855,5.1844,2.927e-12,-0.64277,0,0,0.2,-9.4739e-16,0,0.66667
0.86511,0.54174,4.3256,0.062611,0.48878,3.859,-0.72221,0.24074,-1.9851,-0.96295,-2.5439e-09,-0.99257,0,0,0.2,-0,-0,0.66667
0.62975,0.28445,3.1487,-0.32333,-6.3499,22.797,2.7149,-0.90497,-1.6284,3.6199,2.7001e-12,-0.81422,0,0,0.2,-0,-0,0.66667
0.29818,0.96827,1.4909,0.7024,21.281,68.186,-2.7925,0.93085,-0.24758,-3.7234,4.5564e-13,-0.12379,0,0,0.2,1.4803e-17,0,0.66667
0.93148,0.26834,4.6574,-0.3475,-1.3737,1.4999,4.3158,-1.4386,-1.5696,5.7544,7.0675e-09,-0.78478,0,0,0.2,-0,-0,0.66667
0.6923,0.4791,3.4615,-0.031351,-0.52591,16.342,0.28939,-0.096463,-1.9958,0.38585,-1.1201e-12,-0.99788,0,0,0.2,-0,-0,0.66667
0.87664,0.56446,4.3832,0.096688,0.69067,3.3241,-1.1301,0.37671,-1.9681,-1.5068,-9.9925e-09,-0.98405,0,0,0.2,-0,-0,0.66667
0.81549,0.062906,4.0775,-0.65564,-7.2305,7.4108,7.1289,-2.3763,-0.47274,9.5052,-3.9456e-10,-0.23637,0,0,0.2,-0,-0,0.66667
0.136,0.45519,0.68001,-0.067214,-2.1601,94.705,0.12188,-0.040628,-1.9831,0.16251,-1.1725e-09,-0.99153,0,0,0.2,2.3685e-16,0,0.66667
0.69941,0.6629,3.4971,0.24435,4.0333,15.772,-2.2787,0.75957,-1.7876,-3.0383,8.3447e-12,-0.89379,0,0,0.2,1.8948e-15,0,0.66667
0.68101,0.63531,3.405,0.20296,3.5181,17.478,-1.8429,0.6143,-1.8525,-2.4572,1.9009e-12,-0.92627,0,0,0.2,-0,-0,0.66667
0.7558,0.78704,3.779,0.43056,5.9854,11.171,-4.3389,1.4463,-1.3404,-5.7852,7.2339e-11,-0.67021,0,0,0.2,-0,-0,0.66667
0.79965,0.40427,3.9983,-0.14359,-1.6451,7.699,1.531,-0.51032,-1.9276,2.0413,-1.2324e-10,-0.9638,0,0,0.2,1.1842e-15,0,0.66667
0.94145,0.19147,4.7072,-0.4628,-1.5865,1.4231,5.8093,-1.9364,-1.2387,7.7457,-1.4381e-08,-0.61934,0,0,0.2,-0,-0,0.66667
0.065147,0.88475,0.32574,0.57712,19.019,106.94,-0.50131,0.1671,-0.81563,-0.66841,-7.4071e-08,-0.40781,0,0,0.2,-0,-0,0.66667
0.50862,0.23227,2.5431,-0.40159,-9.7564,37.314,2.7234,-0.9078,-1.4254,3.6312,3.1819e-13,-0.71269,0,0,0.2,-0,-0,0.66667
0.49966,0.59384,2.4983,0.14076,3.4415,38.331,-0.93779,0.3126,-1.9318,-1.2504,3.5794e-13,-0.96592,0,0,0.2,-1.8948e-15,0,0.66667
0.70076,0.70143,3.5038,0.30215,4.9781,15.697,-2.8231,0.94104,-1.6752,-3.7642,8.6409e-12,-0.83758,0,0,0.2,-0,-0,0.66667
0.9956,0.22599,4.978,-0.41102,0.047542,0.40814,5.4562,-1.8187,-1.399,7.2749,-7.7722e-08,-0.69948,0,0,0.2,-0,-1.3987e-16,0.66667
0.90798,0.076073,4.5399,-0.63589,-3.6172,2.8356,7.6984,-2.5661,-0.5623,10.264,-5.6549e-08,-0.28115,0,0,0.2,1.8948e-15,0,0.66667
0.29689,0.17247,1.4844,-0.49129,-14.769,68.223,1.9448,-0.64826,-1.1426,2.593,2.8667e-12,-0.5713,0,0,0.2,-0,-0,0.66667
0.33575,0.44506,1.6788,-0.082416,-2.39,61.965,0.36895,-0.12298,-1.9751,0.49194,-3.2241e-13,-0.98753,0,0,0.2,-0,-0,0.66667
0.82017,0.48657,4.1009,-0.020145,-0.20805,6.3412,0.22029,-0.073431,-1.9973,0.29373,1.366e-10,-0.99867,0,0,0.2,-1.8948e-15,0,0.66667
0.36161,0.93164,1.8081,0.64746,18.664,58.328,-3.1218,1.0406,-0.50994,-4.1623,4.7184e-13,-0.25497,0,0,0.2,4.737e-16,0,0.66667
0.32537,0.59323,1.6269,0.13985,4.0893,63.588,-0.6067,0.20223,-1.9317,-0.80893,-6.5709e-13,-0.96583,0,0,0.2,-5.6251e-16,0,0.66667
0.4447,0.12857,2.2235,-0.55714,-14.753,46.12,3.3035,-1.1012,-0.89613,4.4046,-1.7231e-13,-0.44806,0,0,0.2,-0,-0,0.66667
0.27712,0.74117,1.3856,0.36175,10.97,71.308,-1.3366,0.44555,-1.5342,-1.7822,-2.4681e-11,-0.76712,0,0,0.2,2.3685e-16,0,0.66667
0.74901,0.10613,3.745,-0.59081,-8.5146,11.98,5.9003,-1.9668,-0.75928,7.867,-1.6372e-11,-0.37964,0,0,0.2,-0,2.266e-16,0.66667
0.45268,0.27907,2.2634,-0.33139,-8.6271,44.806,2.0002,-0.66672,-1.6114,2.6669,-8.3888e-13,-0.80568,0,0,0.2,-9.4739e-16,0,0.66667
0.16392,0.69707,0.81962,0.29561,9.4432,89.989,-0.64609,0.21536,-1.6883,-0.86146,-1.1182e-09,-0.84416,0,0,0.2,-0,-0,0.66667
0.99046,0.051395,4.9523,-0.67291,-0.34934,1.0793,8.8865,-2.9622,-0.38902,11.849,-5.8081e-06,-0.19451,0,0,0.2,-0,-0,0.66667
0.338,0.93037,1.69,0.64555,18.963,61.926,-2.9093,0.96976,-0.51766,-3.879,5.5622e-13,-0.25883,0,0,0.2,-0,-0,0.66667
0.30176,0.57693,1.5088,0.1154,3.4307,67.299,-0.46431,0.15477,-1.9517,-0.61908,-5.3898e-12,-0.97585,0,0,0.2,4.737e-16,0,0.66667
0.22533,0.64868,1.1266,0.22302,6.938,79.704,-0.67004,0.22335,-1.8224,-0.89338,-1.6958e-10,-0.9112,0,0,0.2,2.3685e-16,0,0.66667
0.42574,0.23449,2.1287,-0.39826,-10.702,48.659,2.2607,-0.75358,-1.4353,3.0143,-1.2994e-12,-0.71766,0,0,0.2,-9.4739e-16,0,0.66667
0.69512,0.84104,3.4756,0.51156,8.6531,16.481,-4.7413,1.5804,-1.0694,-6.3218,-1.5543e-14,-0.53472,0,0,0.2,4.4264e-16,0,0.66667
0.60241,0.003976,3.012,-0.74404,-15.794,26.412,5.9762,-1.9921,-0.031407,7.9682,5.4312e-13,-0.015704,0,0,0.2,-0,-0,0.66667
0.18146,0.58104,0.9073,0.12157,3.8497,87.004,-0.29413,0.098043,-1.9464,-0.39217,-3.4996e-10,-0.97319,0,0,0.2,-2.1489e-16,0,0.66667
0.26456,0.74613,1.3228,0.36919,11.282,73.336,-1.3023,0.43411,-1.5166,-1.7364,-4.1369e-11,-0.7583,0,0,0.2,-1.5852e-16,0,0.66667
0.59825,0.35817,2.9913,-0.21275,-4.4394,26.204,1.697,-0.56567,-1.8382,2.2627,1.2076e-12,-0.9191,0,0,0.2,9.4739e-16,0,0.66667
0.85805,0.25402,4.2902,-0.36897,-3.0808,4.4646,4.2212,-1.4071,-1.5171,5.6283,-1.8863e-09,-0.75853,0,0,0.2,1.8948e-15,0,0.66667
0.41292,0.66773,2.0646,0.2516,6.8264,50.42,-1.3852,0.46173,-1.7738,-1.8469,1.4954e-12,-0.88692,0,0,0.2,-0,-0,0.66667
0.21585,0.56912,1.0792,0.10368,3.2357,81.255,-0.2984,0.099466,-1.9619,-0.39786,-8.9307e-11,-0.98095,0,0,0.2,-0,-0,0.66667
0.32339,0.9004,1.6169,0.6006,17.801,64.144,-2.5897,0.86323,-0.71717,-3.4529,1.305e-12,-0.35858,0,0,0.2,1.9148e-16,0,0.66667
0.69169,0.52444,3.4585,0.036663,0.61608,16.4,-0.33813,0.11271,-1.995,-0.45084,1.6399e-12,-0.99748,0,0,0.2,-9.4739e-16,0,0.66667
0.70095,0.91847,3.5047,0.62771,10.534,16.151,-5.8666,1.9555,-0.59894,-7.8221,-5.8886e-13,-0.29947,0,0,0.2,-0,-0,0.66667
0.22335,0.13333,1.1168,-0.55001,-17.271,80.156,1.6379,-0.54598,-0.92388,2.1839,7.4461e-11,-0.46194,0,0,0.2,-0,-0,0.66667
0.3965,0.12683,1.9825,-0.55976,-15.581,53.042,2.9592,-0.9864,-0.88616,3.9456,-1.5379e-12,-0.44308,0,0,0.2,-9.4739e-16,0,0.66667
0.69933,0.048643,3.4966,-0.67703,-11.458,16.399,6.3129,-2.1043,-0.36953,8.4173,5.5334e-13,-0.18477,0,0,0.2,-0,3.0719e-16,0.66667
0.72057,0.2263,3.6029,-0.41056,-6.4117,14.05,3.9445,-1.3148,-1.4011,5.2593,-1.7424e-11,-0.70055,0,0,0.2,-0,-0,0.66667
0.13052,0.82631,0.65258,0.48946,15.873,95.71,-0.85176,0.28392,-1.1472,-1.1357,-3.8681e-09,-0.57358,0,0,0.2,-0,-0,0.66667
0.60937,0.96806,3.0469,0.70209,14.662,25.554,-5.7045,1.9015,-0.2497,-7.606,-5.5334e-13,-0.12485,0,0,0.2,1.0658e-15,0,0.66667
0.88607,0.62622,4.4303,0.18934,1.2528,2.9589,-2.2369,0.74562,-1.8731,-2.9825,-1.3568e-09,-0.93655,0,0,0.2,-0,-0,0.66667
0.58236,0.70985,2.9118,0.31477,6.7827,28.11,-2.4442,0.81472,-1.6472,-3.2589,-1.5639e-12,-0.8236,0,0,0.2,4.737e-16,0,0.66667
0.30721,0.081108,1.536,-0.62834,-18.859,66.697,2.5737,-0.85792,-0.59526,3.4317,-1.6185e-12,-0.29763,0,0,0.2,-0,-0,0.66667
0.74514,0.96178,3.7257,0.69267,10.21,12.506,-6.8819,2.294,-0.29362,-9.1758,2.2111e-12,-0.14681,0,0,0.2,-1.4211e-15,1.43e-16,0.66667
0.9777,0.55144,4.8885,0.077155,0.068913,0.25321,-1.0058,0.33526,-1.9778,-1.3411,3.5609e-07,-0.98889,0,0,0.2,9.4739e-16,0,0.66667
0.90462,0.7658,4.5231,0.3987,2.2473,2.463,-4.8089,1.603,-1.4348,-6.4119,4.7014e-09,-0.71742,0,0,0.2,-0,-0,0.66667
0.8716,0.55652,4.358,0.084787,0.63035,3.5534,-0.98535,0.32845,-1.9745,-1.3138,-1.0349e-09,-0.98725,0,0,0.2,-4.737e-16,0,0.66667
0.00029225,0.37539,0.0014612,-0.18692,-6.1285,118.14,0.00072824,-0.00024292,-1.878,0.0009709,-2.5532e-07,-0.93902,0,0,0.2,-9.2519e-19,0,0.66667
0.58262,0.84825,2.9131,0.52237,11.345,28.305,-4.0579,1.3526,-1.0298,-5.4105,-8.9262e-13,-0.51489,0,0,0.2,-0,-0,0.66667
0.26272,0.06977,1.3136,-0.64535,-19.929,73.797,2.2606,-0.75353,-0.51926,3.0141,1.9611e-12,-0.25963,0,0,0.2,-0,1.8194e-16,0.66667
0.81301,0.72228,4.065,0.33342,3.6118,6.9899,-3.6143,1.2048,-1.6063,-4.819,6.036e-10,-0.80315,0,0,0.2,-1.8948e-15,0,0.66667
0.52348,0.22613,2.6174,-0.4108,-9.7733,35.406,2.8673,-0.95576,-1.3992,3.8231,2.438e-13,-0.6996,0,0,0.2,-0,-0,0.66667
0.8939,0.33131,4.4695,-0.25303,-1.564,2.6885,3.0158,-1.0053,-1.7719,4.021,1.4117e-09,-0.88594,0,0,0.2,-0,-0,0.66667
0.52374,0.36309,2.6187,-0.20536,-4.8569,35.224,1.4341,-0.47804,-1.8489,1.9122,3.4339e-13,-0.92445,0,0,0.2,-0,-0,0.66667
0.89114,0.12556,4.4557,-0.56165,-3.7105,3.2994,6.6734,-2.2245,-0.8805,8.8979,1.6242e-08,-0.44025,0,0,0.2,-3.7896e-15,0,0.66667
0.44972,0.2729,2.2486,-0.34065,-8.9008,45.224,2.0427,-0.68089,-1.5872,2.7235,-1.0629e-12,-0.79358,0,0,0.2,-4.737e-16,0,0.66667
0.5615,0.42539,2.8075,-0.11191,-2.4905,30.485,0.83785,-0.27928,-1.9559,1.1171,7.3686e-13,-0.97793,0,0,0.2,-9.4739e-16,0,0.66667
0.81248,0.84382,4.0624,0.51573,5.6841,7.3025,-5.587,1.8623,-1.0568,-7.4493,6.2243e-11,-0.52839,0,0,0.2,3.7896e-15,0,0.66667
0.40317,0.14155,2.0159,-0.53767,-14.857,52.043,2.8903,-0.96344,-0.97163,3.8537,-1.3369e-12,-0.48582,0,0,0.2,-4.737e-16,0,0.66667
0.56867,0.74954,2.8433,0.37432,8.2783,29.782,-2.8382,0.94605,-1.5023,-3.7842,-9.7455e-13,-0.75114,0,0,0.2,-5.9212e-17,0,0.66667
0.89846,0.012079,4.4923,-0.73188,-4.6824,3.4489,8.7676,-2.9225,-0.094305,11.69,1.859e-08,-0.047152,0,0,0.2,-0,-0,0.66667
0.48462,0.68094,2.4231,0.27141,6.7846,40.394,-1.7537,0.58458,-1.7393,-2.3383,4.9583e-13,-0.86966,0,0,0.2,-4.737e-16,0,0.66667
0.59059,0.70032,2.9529,0.30048,6.3754,27.142,-2.3661,0.78872,-1.6785,-3.1549,-1.7391e-12,-0.83925,0,0,0.2,9.4739e-16,0,0.66667
0.93638,0.18917,4.6819,-0.46624,-1.7477,1.5633,5.821,-1.9403,-1.2287,7.7614,-6.5098e-09,-0.61435,0,0,0.2,-0,-0,0.66667
0.88325,0.71393,4.4163,0.3209,2.1989,3.2124,-3.7791,1.2597,-1.6334,-5.0388,2.1059e-09,-0.81672,0,0,0.2,-0,-0,0.66667
0.75772,0.44919,3.7886,-0.076217,-1.0379,10.719,0.77002,-0.25667,-1.9782,1.0267,-4.151e-11,-0.9891,0,0,0.2,-0,-0,0.66667
0.71123,0.3525,3.5562,-0.22125,-3.5265,14.683,2.0981,-0.69937,-1.825,2.7975,-1.6061e-11,-0.91252,0,0,0.2,-0,-0,0.66667
0.8192,0.10243,4.096,-0.59635,-6.4105,7.0481,6.5137,-2.1712,-0.73464,8.685,5.3024e-11,-0.36732,0,0,0.2,-0,-0,0.66667
0.10608,0.27711,0.53041,-0.33433,-10.863,99.855,0.47289,-0.15763,-1.6029,0.63052,1.7274e-09,-0.80146,0,0,0.2,-1.1842e-16,0,0.66667
0.38103,0.26441,1.9052,-0.35338,-9.9089,55.169,1.7953,-0.59845,-1.5548,2.3938,-2.2989e-12,-0.77742,0,0,0.2,-0,-0,0.66667
0.54579,0.42325,2.729,-0.11512,-2.6287,32.412,0.83776,-0.27925,-1.9532,1.117,6.3533e-13,-0.97658,0,0,0.2,-9.4739e-16,0,0.66667
0.85851,0.27145,4.2925,-0.34283,-2.8468,4.4057,3.9243,-1.3081,-1.5827,5.2324,-1.8289e-09,-0.79135,0,0,0.2,-0,-0,0.66667
0.1464,0.84828,0.73201,0.52243,16.884,93.02,-1.0198,0.33993,-1.0293,-1.3597,-9.6399e-10,-0.51467,0,0,0.2,-0,-0,0.66667
0.71404,0.54564,3.5702,0.06846,1.0789,14.363,-0.65177,0.21726,-1.9824,-0.86903,7.6965e-12,-0.99121,0,0,0.2,-9.4739e-16,0,0.66667
0.59097,0.2553,2.9548,-0.36705,-7.7992,27.157,2.8922,-0.96407,-1.5213,3.8563,1.6869e-12,-0.76066,0,0,0.2,-0,-0,0.66667
0.60872,0.12504,3.0436,-0.56243,-11.657,25.388,4.5649,-1.5216,-0.87743,6.0865,1.3904e-12,-0.43871,0,0,0.2,-1.8948e-15,1.3489e-18,0.66667
0.37262,0.0050429,1.8631,-0.74244,-21.303,56.783,3.6886,-1.2295,-0.040659,4.9181,-1.1569e-13,-0.020329,0,0,0.2,-0,1.2821e-16,0.66667
0.91582,0.18974,4.5791,-0.46539,-2.3348,2.1849,5.6829,-1.8943,-1.23,7.5772,-1.6698e-08,-0.61501,0,0,0.2,-0,-0,0.66667
0.71391,0.00034991,3.5695,-0.74948,-12.249,15.258,7.1341,-2.378,-0.0034773,9.5121,1.0405e-12,-0.0017386,0,0,0.2,-0,-0,0.66667
0.6683,0.3937,3.3415,-0.15944,-2.8523,18.697,1.4207,-0.47358,-1.909,1.8943,-8.6042e-14,-0.95451,0,0,0.2,-0,-0,0.66667
0.22147,0.53332,1.1073,0.049978,1.5552,80.319,-0.14758,0.049193,-1.992,-0.19677,-6.1583e-11,-0.99601,0,0,0.2,-0,-0,0.66667
0.81288,0.28447,4.0644,-0.32329,-3.5022,6.9862,3.5039,-1.168,-1.6301,4.6719,-6.0464e-10,-0.81503,0,0,0.2,-0,-0,0.66667
0.49585,0.80812,2.4793,0.46219,11.451,39.048,-3.0557,1.0186,-1.2406,-4.0743,-3.8414e-14,-0.62028,0,0,0.2,9.4739e-16,0,0.66667
0.50837,0.49238,2.5419,-0.011432,-0.27592,37.164,0.07749,-0.02583,-1.9987,0.10332,-2.0828e-13,-0.99937,0,0,0.2,4.737e-16,0,0.66667
0.084733,0.15079,0.42367,-0.52381,-17.179,103.56,0.59179,-0.19726,-1.024,0.78906,5.4639e-09,-0.51198,0,0,0.2,5.9212e-17,0,0.66667
0.43727,0.60212,2.1863,0.15318,4.0441,46.887,-0.89309,0.2977,-1.9176,-1.1908,5.0709e-13,-0.9588,0,0,0.2,-0,-0,0.66667
0.8632,0.82505,4.316,0.48757,3.9782,4.4017,-5.6116,1.8705,-1.1541,-7.4822,2.6246e-09,-0.57705,0,0,0.2,-0,-0,0.66667
0.68024,0.2775,3.4012,-0.33375,-5.8211,17.658,3.0271,-1.009,-1.6037,4.0361,-2.7578e-13,-0.80185,0,0,0.2,-4.737e-16,0,0.66667
0.18942,0.26118,0.94712,-0.35823,-11.351,85.713,0.90477,-0.30159,-1.5438,1.2064,5.4562e-10,-0.77188,0,0,0.2,-0,-0,0.66667
0.58407,0.23967,2.9204,-0.3905,-8.4101,27.979,3.0411,-1.0137,-1.4569,4.0548,1.6429e-12,-0.72844,0,0,0.2,-4.737e-16,0,0.66667
0.94401,0.98578,4.72,0.72866,2.62,2.0232,-9.1715,3.0572,-0.11099,-12.229,-2.6911e-07,-0.055496,0,0,0.2,-1.8948e-15,0,0.66667
0.50746,0.85823,2.5373,0.53735,13.147,37.609,-3.6358,1.2119,-0.97212,-4.8477,2.6423e-14,-0.48606,0,0,0.2,-0,-0,0.66667
0.9674,0.60625,4.837,0.15938,0.25193,0.46069,-2.0557,0.68525,-1.9099,-2.741,-1.8666e-08,-0.95495,0,0,0.2,-0,-0,0.66667
0.36627,0.70819,1.8313,0.31228,8.8623,57.365,-1.525,0.50834,-1.6522,-2.0334,2.6635e-12,-0.82611,0,0,0.2,-0,-0,0.66667
0.29075,0.73922,1.4537,0.35882,10.788,69.125,-1.391,0.46368,-1.5412,-1.8547,-1.1811e-11,-0.77061,0,0,0.2,-4.737e-16,0,0.66667
0.83985,0.49044,4.1993,-0.014336,-0.13244,5.1812,0.16053,-0.05351,-1.9988,0.21404,-9.4788e-11,-0.99939,0,0,0.2,9.4739e-16,0,0.66667
0.86973,0.26113,4.3486,-0.3583,-2.7478,3.8767,4.155,-1.385,-1.5426,5.54,-2.0428e-09,-0.77132,0,0,0.2,-0,-0,0.66667
0.20167,0.75065,1.0083,0.37597,11.858,83.674,-1.0109,0.33698,-1.4991,-1.3479,-3.5292e-10,-0.74954,0,0,0.2,-4.737e-16,0,0.66667
0.71945,0.51063,3.5973,0.015949,0.24715,13.879,-0.15299,0.050997,-1.9997,-0.20399,1.2148e-12,-0.99985,0,0,0.2,-0,-0,0.66667
0.59211,0.84253,2.9605,0.51379,10.963,27.196,-4.0563,1.3521,-1.0629,-5.4084,-7.4341e-13,-0.53143,0,0,0.2,-9.4739e-16,0,0.66667
0.89451,0.93034,4.4726,0.64551,4.2025,3.3649,-7.6989,2.5663,-0.51823,-10.265,-5.8028e-08,-0.25912,0,0,0.2,-0,-0,0.66667
0.14945,0.91249,0.74723,0.61873,20.049,92.541,-1.2329,0.41097,-0.63822,-1.6439,2.0771e-09,-0.31911,0,0,0.2,-0,-0,0.66667
0.76303,0.2317,3.8151,-0.40244,-5.4374,10.573,4.0943,-1.3648,-1.4239,5.4591,-1.1e-10,-0.71193,0,0,0.2,-0,-0,0.66667
0.68996,0.26555,3.4498,-0.35167,-5.9821,16.751,3.2352,-1.0784,-1.56,4.3136,-2.7591e-12,-0.77999,0,0,0.2,-0,-0,0.66667
0.79502,0.1713,3.9751,-0.49305,-5.884,8.406,5.2265,-1.7422,-1.1356,6.9686,-2.249e-10,-0.56779,0,0,0.2,-0,-0,0.66667
0.45329,0.7585,2.2664,0.38774,10.103,44.761,-2.3435,0.78115,-1.4665,-3.1246,2.0473e-13,-0.73325,0,0,0.2,-0,-0,0.66667
0.22843,0.5811,1.1422,0.12165,3.7742,79.174,-0.37051,0.1235,-1.9463,-0.49401,-9.5944e-11,-0.97316,0,0,0.2,2.3685e-16,0,0.66667
0.28605,0.91735,1.4303,0.62602,19.049,70.042,-2.3877,0.7959,-0.60577,-3.1836,-4.3587e-13,-0.30288,0,0,0.2,-0,-0,0.66667
0.3043,0.45483,1.5215,-0.06775,-2.01,66.89,0.27489,-0.091629,-1.9825,0.36652,2.9055e-12,-0.99123,0,0,0.2,-0,-0,0.66667
0.84027,0.44294,4.2013,-0.085587,-0.78935,5.1711,0.95888,-0.31963,-1.9741,1.2785,-1.113e-10,-0.98703,0,0,0.2,-0,-0,0.66667
0.53716,0.36892,2.6858,-0.19662,-4.556,33.52,1.4082,-0.46939,-1.8621,1.8776,4.7706e-13,-0.93103,0,0,0.2,-4.737e-16,0,0.66667
0.56358,0.94969,2.8179,0.67454,15.268,30.787,-5.0688,1.6896,-0.38254,-6.7584,1.4078e-13,-0.19127,0,0,0.2,-0,-0,0.66667
0.28417,0.072337,1.4208,-0.64149,-19.556,70.355,2.4306,-0.81019,-0.53662,3.2407,2.9265e-13,-0.26831,0,0,0.2,-4.737e-16,0,0.66667
0.83416,0.37351,4.1708,-0.18973,-1.8201,5.5719,2.1102,-0.7034,-1.8723,2.8136,-1.2214e-09,-0.93613,0,0,0.2,3.5527e-16,0,0.66667
0.70493,0.97027,3.5247,0.7054,11.781,15.953,-6.6301,2.21,-0.23214,-8.8402,6.8301e-13,-0.11607,0,0,0.2,-0,-0,0.66667
0.87814,0.99427,4.3907,0.7414,5.6463,4.3103,-8.6807,2.8936,-0.045748,-11.574,1.658e-08,-0.022874,0,0,0.2,2.8422e-15,0,0.66667
0.13153,0.58815,0.65763,0.13222,4.2564,95.473,-0.23187,0.077291,-1.9374,-0.30916,8.3421e-10,-0.96868,0,0,0.2,1.1842e-16,0,0.66667
0.8496,0.42671,4.248,-0.10994,-0.95667,4.6693,1.2454,-0.41512,-1.9561,1.6605,5.6742e-10,-0.97804,0,0,0.2,9.4739e-16,0,0.66667
0.052112,0.35642,0.26056,-0.21536,-7.044,109.15,0.14964,-0.04988,-1.8341,0.19952,-1.9532e-08,-0.91706,0,0,0.2,-0,-0,0.66667
0.87713,0.71102,4.3856,0.31654,2.2818,3.4788,-3.7019,1.234,-1.644,-4.9359,2.1057e-09,-0.82201,0,0,0.2,9.4739e-16,0,0.66667
0.23974,0.65169,1.1987,0.22753,7.028,77.332,-0.72732,0.24244,-1.8157,-0.96976,-1.1158e-10,-0.90787,0,0,0.2,-4.737e-16,0,0.66667
0.88566,0.19819,4.4283,-0.45272,-3.0857,3.309,5.3461,-1.782,-1.2705,7.1282,-6.1754e-09,-0.63523,0,0,0.2,-0,-0,0.66667
0.37931,0.60389,1.8965,0.15584,4.3602,55.342,-0.78815,0.26272,-1.913,-1.0509,1.1857e-12,-0.95651,0,0,0.2,-0,-0,0.66667
0.84292,0.60335,4.2146,0.15503,1.4094,5.0548,-1.7424,0.58079,-1.9152,-2.3232,8.2299e-10,-0.95759,0,0,0.2,-1.8948e-15,0,0.66667
0.53961,0.25804,2.6981,-0.36294,-8.4131,33.324,2.6113,-0.87043,-1.5308,3.4817,6.1573e-13,-0.76541,0,0,0.2,-0,-0,0.66667
0.56418,0.19308,2.8209,-0.46038,-10.294,30.411,3.4631,-1.1544,-1.2471,4.6175,9.77e-13,-0.62356,0,0,0.2,-0,-0,0.66667
0.98402,0.10745,4.9201,-0.58883,-0.49047,0.91369,7.7256,-2.5752,-0.76784,10.301,2.6566e-07,-0.38392,0,0,0.2,-0,2.3324e-16,0.66667
0.96375,0.83041,4.8187,0.49562,1.0133,0.99927,-6.3687,2.1229,-1.1257,-8.4916,-2.567e-08,-0.56283,0,0,0.2,-0,-0,0.66667
0.11432,0.097176,0.57162,-0.60424,-19.754,98.506,0.92105,-0.30702,-0.70193,1.2281,-5.9143e-09,-0.35096,0,0,0.2,-0,-0,0.66667
0.36415,0.51586,1.8207,0.023785,0.67385,57.607,-0.11549,0.038495,-1.997,-0.15398,4.0828e-14,-0.99852,0,0,0.2,-0,-0,0.66667
0.25055,0.26194,1.2527,-0.35709,-10.995,75.607,1.1929,-0.39764,-1.5472,1.5906,7.5715e-11,-0.77361,0,0,0.2,4.737e-16,0,0.66667
0.4483,0.24406,2.2415,-0.3839,-10.06,45.455,2.2947,-0.7649,-1.4757,3.0596,-7.4984e-13,-0.73784,0,0,0.2,2.3685e-16,0,0.66667
0.12635,0.2501,0.63176,-0.37485,-12.132,96.392,0.63151,-0.2105,-1.5022,0.84202,2.8606e-09,-0.75111,0,0,0.2,-4.737e-16,0,0.66667
0.51157,0.74802,2.5578,0.37203,8.992,36.904,-2.5376,0.84586,-1.5084,-3.3834,9.5479e-14,-0.75421,0,0,0.2,-2.3685e-16,0,0.66667
0.86558,0.36385,4.3279,-0.20423,-1.5968,3.9088,2.3571,-0.78568,-1.8507,3.1427,-2.2728e-09,-0.92534,0,0,0.2,-0,-0,0.66667
0.35235,0.12157,1.7618,-0.56765,-16.431,59.656,2.6669,-0.88895,-0.85411,3.5558,-1.2874e-12,-0.42706,0,0,0.2,5.9212e-16,0,0.66667
0.15564,0.32128,0.7782,-0.26808,-8.583,91.386,0.55631,-0.18544,-1.7453,0.74175,9.3707e-10,-0.87264,0,0,0.2,-4.737e-16,0,0.66667
0.30726,0.72654,1.5363,0.33981,10.1,66.498,-1.3921,0.46405,-1.5888,-1.8562,-4.0836e-12,-0.79442,0,0,0.2,-0,-0,0.66667
0.74287,0.56136,3.7144,0.092041,1.322,11.91,-0.91166,0.30389,-1.9701,-1.2156,3.3906e-11,-0.98506,0,0,0.2,-4.737e-16,0,0.66667
0.091276,0.13024,0.45638,-0.55464,-18.187,102.44,0.67501,-0.225,-0.90667,0.90001,5.0255e-08,-0.45334,0,0,0.2,-0,-0,0.66667
0.73558,0.53741,3.6779,0.056109,0.82577,12.504,-0.5503,0.18343,-1.9896,-0.73374,1.3169e-11,-0.99482,0,0,0.2,-0,-0,0.66667
0.61392,0.7415,3.0696,0.36226,7.362,24.559,-2.9653,0.98843,-1.5329,-3.9537,-2.2156e-12,-0.76644,0,0,0.2,-4.737e-16,0,0.66667
0.74026,0.93412,3.7013,0.65118,9.718,12.808,-6.4273,2.1424,-0.49223,-8.5697,1.5938e-12,-0.24612,0,0,0.2,-2.3685e-16,0,0.66667
0.0090497,0.26556,0.045249,-0.35167,-11.561,116.62,0.042433,-0.014144,-1.5591,0.056577,2.7083e-08,-0.77955,0,0,0.2,-0,-0,0.66667
0.72047,0.90883,3.6024,0.61324,9.712,14.391,-5.891,1.9637,-0.66407,-7.8546,9.4502e-13,-0.33204,0,0,0.2,-0,-0,0.66667
0.32058,0.86544,1.6029,0.54817,16.245,64.537,-2.3431,0.78104,-0.93062,-3.1241,2.023e-12,-0.46531,0,0,0.2,-2.3685e-16,0,0.66667
0.63297,0.80922,3.1649,0.46383,9.0994,22.607,-3.9146,1.3049,-1.2349,-5.2194,-2.5917e-12,-0.61744,0,0,0.2,-7.5999e-16,0,0.66667
0.053837,0.48802,0.26918,-0.017965,-0.58664,108.85,0.012896,-0.0042989,-1.9977,0.017194,-4.7563e-07,-0.99886,0,0,0.2,1.1842e-16,0,0.66667
0.55643,0.78756,2.7822,0.43133,9.7578,31.315,-3.2001,1.0667,-1.338,-4.2668,-5.7265e-13,-0.66898,0,0,0.2,-0,-0,0.66667
0.9416,0.29454,4.708,-0.30819,-1.0155,1.1698,3.8692,-1.2897,-1.6615,5.1589,1.1625e-08,-0.83077,0,0,0.2,-0,-0,0.66667
0.32009,0.57024,1.6004,0.10537,3.0921,64.409,-0.44968,0.14989,-1.9597,-0.59957,-1.219e-12,-0.97986,0,0,0.2,-0,-0,0.66667
0.52274,0.47237,2.6137,-0.041452,-0.98007,35.306,0.28891,-0.096305,-1.9937,0.38522,-2.0303e-13,-0.99683,0,0,0.2,-0,-0,0.66667
0.40771,0.63552,2.0386,0.20328,5.5398,51.157,-1.1051,0.36836,-1.8534,-1.4734,9.1449e-13,-0.92668,0,0,0.2,-0,-0,0.66667
0.56965,0.35774,2.8483,-0.21339,-4.6903,29.545,1.6207,-0.54025,-1.8369,2.161,9.0983e-13,-0.91844,0,0,0.2,-0,-0,0.66667
0.068319,0.51919,0.34159,0.028778,0.93804,106.34,-0.026215,0.0087382,-1.996,-0.034953,-5.9038e-08,-0.99801,0,0,0.2,-0,-0,0.66667
0.36188,0.86321,1.8094,0.54482,15.632,58.189,-2.6288,0.87626,-0.94441,-3.505,1.6391e-12,-0.4722,0,0,0.2,4.737e-16,0,0.66667
0.52066,0.050126,2.6033,-0.67481,-16.321,36.098,4.6846,-1.5615,-0.37999,6.2462,-6.5281e-14,-0.19,0,0,0.2,-6.1658e-16,0,0.66667
0.084824,0.046696,0.42412,-0.67996,-22.431,103.58,0.76902,-0.25634,-0.35492,1.0254,-4.2613e-08,-0.17746,0,0,0.2,-1.1842e-16,0,0.66667
0.46765,0.22172,2.3382,-0.41742,-10.703,42.804,2.6028,-0.86759,-1.3818,3.4703,-1.4144e-13,-0.69092,0,0,0.2,-0,-0,0.66667
0.77223,0.17722,3.8611,-0.48416,-6.3499,10.006,4.9851,-1.6617,-1.1655,6.6469,-1.0328e-10,-0.58276,0,0,0.2,-9.4739e-16,0,0.66667
0.443,0.71653,2.215,0.32479,8.5478,46.156,-1.9185,0.63949,-1.6251,-2.558,8.1335e-13,-0.81255,0,0,0.2,1.0658e-15,0,0.66667
0.39093,0.36022,1.9546,-0.20967,-5.8081,53.628,1.0929,-0.36429,-1.8443,1.4572,-2.0353e-12,-0.92217,0,0,0.2,4.737e-16,0,0.66667
0.27288,0.33928,1.3644,-0.24107,-7.3113,71.946,0.87711,-0.29237,-1.793,1.1695,3.407e-11,-0.8965,0,0,0.2,-2.3685e-16,0,0.66667
0.051852,0.1545,0.25926,-0.51826,-17.071,109.22,0.3583,-0.11943,-1.0454,0.47773,-3.4204e-08,-0.52269,0,0,0.2,-2.9606e-17,0,0.66667
0.76182,0.7215,3.8091,0.33225,4.4916,10.578,-3.3749,1.125,-1.608,-4.4998,1.2393e-10,-0.80398,0,0,0.2,-1.8948e-15,0,0.66667
0.48578,0.75677,2.4289,0.38515,9.6433,40.319,-2.4946,0.83155,-1.4732,-3.3262,5.5311e-13,-0.73662,0,0,0.2,-9.4739e-16,0,0.66667
0.16135,0.88404,0.80673,0.57606,18.564,90.513,-1.2393,0.41309,-0.81939,-1.6524,-6.3543e-10,-0.40969,0,0,0.2,-0,-0,0.66667
0.066079,0.95797,0.33039,0.68696,22.734,106.8,-0.60525,0.20175,-0.3216,-0.80699,-3.4229e-08,-0.1608,0,0,0.2,5.9212e-17,0,0.66667
0.7579,0.037452,3.7895,-0.69382,-9.7844,11.506,7.0113,-2.3371,-0.28777,9.3484,2.0024e-12,-0.14388,0,0,0.2,1.8948e-15,0,0.66667
0.58841,0.78504,2.9421,0.42755,9.1491,27.515,-3.3544,1.1181,-1.35,-4.4725,-1.112e-12,-0.67499,0,0,0.2,-0,-0,0.66667
0.55876,0.074462,2.7938,-0.63831,-14.531,31.307,4.7555,-1.5852,-0.55074,6.3407,1.5765e-13,-0.27537,0,0,0.2,9.4739e-16,9.0226e-17,0.66667
0.20632,0.73958,1.0316,0.35938,11.308,82.893,-0.98864,0.32955,-1.5404,-1.3182,-3.4157e-10,-0.77022,0,0,0.2,2.3685e-16,0,0.66667
0.59434,0.29369,2.9717,-0.30947,-6.522,26.718,2.4524,-0.81747,-1.66,3.2699,1.7903e-12,-0.83002,0,0,0.2,-0,-0,0.66667
0.93421,0.46812,4.6711,-0.047826,-0.17507,1.1763,0.59572,-0.19857,-1.9929,0.7943,-4.3534e-08,-0.99644,0,0,0.2,2.9606e-16,0,0.66667
0.72548,0.45783,3.6274,-0.063254,-0.96209,13.362,0.61186,-0.20395,-1.9847,0.81581,-1.2037e-11,-0.99236,0,0,0.2,-0,-0,0.66667
0.5866,0.51537,2.933,0.023059,0.4907,27.487,-0.18035,0.060116,-1.9969,-0.24046,9.77e-14,-0.99844,0,0,0.2,-0,-0,0.66667
0.8653,0.82494,4.3265,0.48742,3.9181,4.2994,-5.6235,1.8745,-1.1542,-7.4979,3.0212e-09,-0.57712,0,0,0.2,-0,-0,0.66667
0.99657,0.72698,4.9828,0.34047,-0.079941,0.28299,-4.524,1.508,-1.5876,-6.032,2.4561e-08,-0.79381,0,0,0.2,-0,-1.6426e-17,0.66667
0.86511,0.50145,4.3255,0.0021719,0.016945,3.8518,-0.025053,0.008351,-2.0003,-0.033404,1.0477e-08,-1.0001,0,0,0.2,-0,-0,0.66667
0.17918,0.052346,0.89591,-0.67148,-21.586,87.561,1.6042,-0.53475,-0.39582,2.139,2.9489e-10,-0.19791,0,0,0.2,2.3685e-16,0,0.66667
0.69466,0.17494,3.4733,-0.48758,-8.2456,16.487,4.5161,-1.5054,-1.1535,6.0214,-6.5814e-13,-0.57677,0,0,0.2,-0,-0,0.66667
0.29623,0.45335,1.4812,-0.069972,-2.0873,68.172,0.27637,-0.092124,-1.9831,0.36849,4.9125e-12,-0.99153,0,0,0.2,-0,-0,0.66667
0.059534,0.045189,0.29767,-0.68222,-22.591,107.92,0.54153,-0.18051,-0.34473,0.72204,-9.263e-07,-0.17237,0,0,0.2,-0,-0,0.66667
0.10804,0.69653,0.54022,0.29479,9.5663,99.513,-0.42467,0.14156,-1.6915,-0.56623,-2.3336e-09,-0.84574,0,0,0.2,-0,-0,0.66667
0.76279,0.29964,3.814,-0.30054,-4.0418,10.47,3.0566,-1.0189,-1.6785,4.0755,-1.2761e-10,-0.83924,0,0,0.2,-0,-0,0.66667
