xi,eta,X,Y,uX,uY,epsilon_X,epsilon_Y,gamma_XY,sigma_XX,sigma_YY,sigma_XY,fx,fy,dxidx,dxidy,detadx,detady,
0.41702,0.7655,4.1702,0.39825,43.698,373.64,-4.4287,1.4762,-1.434,-5.905,1.2341e-12,-0.71699,0,0,0.1,-9.4739e-16,0,0.66667
0.72032,0.30817,7.2032,-0.28774,-18.316,98.796,5.5271,-1.8424,-1.7084,7.3695,4.722e-12,-0.85421,0,0,0.1,-1.4211e-15,0,0.66667
0.00011437,0.73538,0.0011437,0.35307,46.915,902.9,-0.0010762,0.00035743,-1.5614,-0.0014356,-1.9516e-06,-0.7807,0,0,0.1,-0,-0,0.66667
0.30233,0.8122,3.0233,0.4683,56.566,508.24,-3.7755,1.2585,-1.2194,-5.034,2.3934e-12,-0.60968,0,0,0.1,5.9212e-17,0,0.66667
0.14676,0.23669,1.4676,-0.39496,-51.36,706.81,1.5457,-0.51522,-1.4425,2.0609,2.1634e-09,-0.72125,0,0,0.1,2.3685e-16,0,0.66667
0.092339,0.062824,0.92339,-0.65576,-86.6,779.16,1.6147,-0.53824,-0.47483,2.153,4.1584e-07,-0.23742,0,0,0.1,-0,-0,0.66667
0.18626,0.62204,1.8626,0.18307,23.462,654.97,-0.90928,0.30309,-1.8844,-1.2124,-6.7377e-12,-0.94222,0,0,0.1,-0,-0,0.66667
0.34556,0.94394,3.4556,0.66591,78.103,456.43,-6.1363,2.0454,-0.42547,-8.1817,4.1496e-12,-0.21273,0,0,0.1,-9.4739e-16,0,0.66667
0.39677,0.34766,3.9677,-0.22851,-25.55,396.26,2.4177,-0.80591,-1.8124,3.2236,2.4136e-13,-0.9062,0,0,0.1,-0,-0,0.66667
0.53882,0.43363,5.3882,-0.099561,-9.3637,246.55,1.4305,-0.47684,-1.9624,1.9074,-1.3439e-12,-0.98122,0,0,0.1,-2.3685e-16,0,0.66667
0.41919,0.27723,4.1919,-0.33416,-36.569,371.14,3.7354,-1.2451,-1.6041,4.9805,-1.4351e-12,-0.80207,0,0,0.1,2.3685e-16,0,0.66667
0.68522,0.69207,6.8522,0.28811,20.235,122.97,-5.2645,1.7548,-1.7065,-7.0193,-1.1084e-12,-0.85326,0,0,0.1,-0,-0,0.66667
0.20445,0.18359,2.0445,-0.47461,-60.47,631.56,2.5876,-0.86253,-1.2024,3.4501,-1.4879e-10,-0.60119,0,0,0.1,1.1842e-16,0,0.66667
0.87812,0.73211,8.7812,0.34817,10.467,21.202,-8.1529,2.7176,-1.5687,-10.871,1.0056e-08,-0.78434,0,0,0.1,-0,-0,0.66667
0.027388,0.7503,0.27388,0.37544,49.857,866.18,-0.2742,0.091401,-1.4993,-0.3656,1.3793e-06,-0.74963,0,0,0.1,1.1842e-16,0,0.66667
0.67047,0.45507,6.7047,-0.067393,-4.9074,133.57,1.2049,-0.40164,-1.9861,1.6066,-8.0447e-13,-0.99303,0,0,0.1,-7.9399e-16,0,0.66667
0.4173,0.75403,4.173,0.38104,41.793,373.3,-4.2403,1.4134,-1.4828,-5.6537,-1.6072e-12,-0.74141,0,0,0.1,-0,-0,0.66667
0.55869,0.15501,5.5869,-0.51748,-47.303,228.39,7.7097,-2.5699,-1.0482,10.28,-1.7724e-12,-0.52408,0,0,0.1,1.1842e-16,0,0.66667
0.14039,0.66052,1.4039,0.24078,31.345,715.15,-0.90139,0.30046,-1.7991,-1.2019,-3.8326e-09,-0.89957,0,0,0.1,-4.737e-16,0,0.66667
0.1981,0.29391,1.981,-0.30913,-39.45,639.65,1.6331,-0.54435,-1.658,2.1774,-1.1242e-11,-0.82902,0,0,0.1,-0,-0,0.66667
0.80074,0.44476,8.0074,-0.082854,-3.9161,52.268,1.7692,-0.58973,-1.9749,2.3589,-7.0701e-11,-0.98744,0,0,0.1,1.8948e-15,0,0.66667
0.96826,0.8319,9.6826,0.49785,3.9842,2.8451,-12.855,4.2848,-1.1227,-17.139,-1.4358e-06,-0.56136,0,0,0.1,-0,-0,0.66667
0.31342,0.90051,3.1342,0.60077,72.108,494.9,-5.0212,1.6737,-0.72045,-6.6949,1.9571e-12,-0.36023,0,0,0.1,-0,-0,0.66667
0.69232,0.31828,6.9232,-0.27258,-18.786,117.86,5.0324,-1.6775,-1.7344,6.7099,1.3047e-12,-0.8672,0,0,0.1,-1.8948e-15,0,0.66667
0.87639,0.17908,8.7639,-0.48138,-14.722,22.187,11.25,-3.75,-1.1787,15,-1.1852e-09,-0.58934,0,0,0.1,9.4739e-16,0,0.66667
0.89461,0.45874,8.9461,-0.061888,-1.6118,15.798,1.4764,-0.49214,-1.9853,1.9685,4.679e-09,-0.99264,0,0,0.1,-0,-0,0.66667
0.085044,0.67898,0.85044,0.26847,35.401,788.76,-0.60885,0.20295,-1.7409,-0.8118,-5.3192e-08,-0.87045,0,0,0.1,5.9212e-17,0,0.66667
0.039055,0.41442,0.39055,-0.12837,-17.017,850.46,0.13369,-0.044564,-1.9385,0.17825,-1.1241e-07,-0.96926,0,0,0.1,-0,-0,0.66667
0.16983,0.056519,1.6983,-0.66522,-86.055,676.72,3.0127,-1.0042,-0.4284,4.0169,-1.7177e-08,-0.2142,0,0,0.1,4.5583e-16,-7.3306e-17,0.66667
0.87814,0.85403,8.7814,0.53104,16.05,21.822,-12.435,4.1451,-0.99714,-16.581,-6.5073e-10,-0.49857,0,0,0.1,-0,-0,0.66667
0.098347,0.88562,0.98347,0.57843,76.242,771.1,-1.517,0.50566,-0.80864,-2.0227,-2.6584e-08,-0.40432,0,0,0.1,-0,-0,0.66667
0.42111,0.88824,4.2111,0.58236,63.743,369.44,-6.5396,2.1799,-0.79755,-8.7195,-2.0828e-13,-0.39877,0,0,0.1,-0,1.1566e-16,0.66667
0.95789,0.4772,9.5789,-0.034205,-0.35611,2.9326,0.87372,-0.29124,-1.9942,1.165,-7.0663e-08,-0.99708,0,0,0.1,-0,-0,0.66667
0.53317,0.77997,5.3317,0.41995,39.908,252.39,-5.9707,1.9902,-1.3757,-7.961,-1.0369e-12,-0.68787,0,0,0.1,-1.0658e-15,0,0.66667
0.69188,0.39922,6.9188,-0.15117,-10.423,118.02,2.7891,-0.9297,-1.9176,3.7188,9.8188e-13,-0.95878,0,0,0.1,-9.4739e-16,0,0.66667
0.31552,0.26626,3.1552,-0.35062,-41.935,492.03,2.95,-0.98333,-1.5627,3.9333,-4.0854e-12,-0.78135,0,0,0.1,4.737e-16,0,0.66667
0.6865,0.27109,6.865,-0.34337,-24.048,122.15,6.286,-2.0953,-1.5839,8.3813,3.4328e-13,-0.79195,0,0,0.1,-9.4739e-16,0,0.66667
0.83463,0.64719,8.3463,0.22078,8.8138,36.978,-4.9139,1.638,-1.8239,-6.5519,6.9424e-10,-0.91197,0,0,0.1,-0,-0,0.66667
0.018288,0.040255,0.18288,-0.68962,-91.856,878.45,0.33631,-0.11211,-0.30958,0.44841,-1.052e-05,-0.15479,0,0,0.1,-0,-0,0.66667
0.75014,0.38441,7.5014,-0.17338,-10.013,79.944,3.4682,-1.1561,-1.8979,4.6243,1.3404e-11,-0.94897,0,0,0.1,-0,-0,0.66667
0.98886,0.68293,9.8886,0.27439,0.67186,0.65344,-7.2356,2.4119,-1.7313,-9.6475,2.6117e-07,-0.86567,0,0,0.1,9.4739e-16,0,0.66667
0.74817,0.69364,7.4817,0.29045,16.906,81.31,-5.7949,1.9316,-1.7022,-7.7265,-1.658e-11,-0.85108,0,0,0.1,-0,-0,0.66667
0.28044,0.87009,2.8044,0.55513,68.049,535.34,-4.1515,1.3838,-0.90835,-5.5354,-2.2725e-11,-0.45418,0,0,0.1,4.029e-16,-6.5697e-17,0.66667
0.78928,0.78155,7.8928,0.42232,21.062,58.656,-8.8888,2.9629,-1.3642,-11.852,-8.1717e-11,-0.68211,0,0,0.1,-0,-0,0.66667
0.10323,0.17645,1.0323,-0.48532,-63.856,764.55,1.3359,-0.44532,-1.1598,1.7813,4.3119e-08,-0.57988,0,0,0.1,-1.1842e-16,0,0.66667
0.44789,0.24052,4.4789,-0.38921,-41.319,339.75,4.6487,-1.5496,-1.4592,6.1983,-2.3128e-12,-0.72962,0,0,0.1,-4.737e-16,0,0.66667
0.9086,0.94322,9.086,0.66483,15.381,13.88,-16.108,5.3695,-0.42981,-21.478,-2.3307e-08,-0.21491,0,0,0.1,1.8948e-15,0,0.66667
0.29361,0.66536,2.9361,0.24804,30.093,518.74,-1.9421,0.64737,-1.781,-2.5895,-1.9527e-12,-0.89051,0,0,0.1,-0,-0,0.66667
0.28778,0.26459,2.8778,-0.35312,-43.023,526.03,2.7098,-0.90328,-1.5536,3.6131,-4.8679e-12,-0.7768,0,0,0.1,-4.737e-16,0,0.66667
0.13003,0.17012,1.3003,-0.49481,-64.697,728.96,1.7157,-0.57191,-1.1272,2.2876,7.9813e-09,-0.56361,0,0,0.1,-0,-0,0.66667
0.019367,0.14803,0.19367,-0.52795,-70.211,876.99,0.27266,-0.090889,-1.0083,0.36354,-3.9243e-06,-0.50413,0,0,0.1,-2.9606e-17,0,0.66667
0.67884,0.90997,6.7884,0.61495,44.092,128.5,-11.132,3.7107,-0.65321,-14.843,1.4042e-12,-0.3266,0,0,0.1,-0,-0,0.66667
0.21163,0.77616,2.1163,0.41424,52.59,622.26,-2.3377,0.77924,-1.3874,-3.117,6.8833e-11,-0.69372,0,0,0.1,3.6216e-16,0,0.66667
0.26555,0.28807,2.6555,-0.3179,-39.245,553.67,2.2511,-0.75037,-1.6459,3.0015,-1.2087e-11,-0.82296,0,0,0.1,-0,-0,0.66667
0.49157,0.74725,4.9157,0.37088,37.338,293.75,-4.8617,1.6206,-1.5089,-6.4823,1.0196e-12,-0.75443,0,0,0.1,-3.5527e-16,0,0.66667
0.053363,0.86256,0.53363,0.54385,72.156,831.29,-0.77389,0.25796,-0.9454,-1.0319,2.1539e-08,-0.4727,0,0,0.1,-6.3194e-17,0,0.66667
0.57412,0.61368,5.7412,0.17051,15.147,213.61,-2.6105,0.87018,-1.8954,-3.4807,2.1321e-12,-0.9477,0,0,0.1,-9.4739e-16,0,0.66667
0.14673,0.9395,1.4673,0.65924,85.919,707.03,-2.5795,0.85982,-0.45315,-3.4393,-2.91e-08,-0.22657,0,0,0.1,-4.737e-16,0,0.66667
0.58931,0.60561,5.8931,0.15841,13.698,199.99,-2.4894,0.82981,-1.9091,-3.3193,1.4846e-12,-0.95455,0,0,0.1,-0,-0,0.66667
0.69976,0.10229,6.9976,-0.59657,-40.466,113.52,11.132,-3.7107,-0.7343,14.843,-1.4921e-13,-0.36715,0,0,0.1,-0,-0,0.66667
0.10233,0.98938,1.0233,0.73408,96.834,765.88,-2.0032,0.66774,-0.080998,-2.671,-1.3384e-07,-0.040499,0,0,0.1,-0,-0,0.66667
0.41406,0.98682,4.1406,0.73022,80.649,377.65,-8.0628,2.6876,-0.10084,-10.75,-1.6218e-12,-0.050422,0,0,0.1,-0,-0,0.66667
0.6944,0.90075,6.944,0.60113,41.377,117.28,-11.131,3.7104,-0.71273,-14.842,3.6948e-13,-0.35637,0,0,0.1,-1.4211e-15,0,0.66667
0.41418,0.73179,4.1418,0.34769,38.247,376.75,-3.8401,1.28,-1.5669,-5.1202,-6.446e-13,-0.78347,0,0,0.1,-0,-0,0.66667
0.049953,0.96362,0.49953,0.69543,92.436,835.91,-0.92638,0.30879,-0.28092,-1.2352,-4.9943e-07,-0.14046,0,0,0.1,-0,-0,0.66667
0.5359,0.99431,5.359,0.74146,70.46,250.64,-10.596,3.532,-0.044009,-14.128,-1.0516e-12,-0.022005,0,0,0.1,2.3685e-16,0,0.66667
0.66379,0.020758,6.6379,-0.71886,-53.581,140.11,12.725,-4.2416,-0.15953,16.966,-1.3234e-13,-0.079765,0,0,0.1,-0,-0,0.66667
0.51489,0.16433,5.1489,-0.50351,-49.175,270.49,6.9133,-2.3044,-1.1024,9.2178,1.4388e-12,-0.5512,0,0,0.1,-0,-0,0.66667
0.94459,0.88471,9.4459,0.57707,8.1525,6.2003,-14.536,4.8453,-0.81299,-19.381,-8.1772e-07,-0.4065,0,0,0.1,-0,-0,0.66667
0.58656,0.11667,5.8656,-0.575,-50.152,203.22,8.9939,-2.998,-0.82158,11.992,3.9391e-12,-0.41079,0,0,0.1,-9.4739e-16,0,0.66667
0.9034,0.45466,9.034,-0.068006,-1.6278,13.428,1.6383,-0.54611,-1.9836,2.1844,-1.1243e-08,-0.99179,0,0,0.1,-1.8948e-15,0,0.66667
0.13747,0.83135,1.3747,0.49702,64.854,719.11,-1.8221,0.60736,-1.1214,-2.4294,-8.8954e-09,-0.56068,0,0,0.1,2.3685e-16,0,0.66667
0.13928,0.69424,1.3928,0.29136,37.95,716.63,-1.0821,0.36071,-1.701,-1.4428,-4.4636e-09,-0.8505,0,0,0.1,-0,-0,0.66667
0.80739,0.69526,8.0739,0.29288,13.45,49.325,-6.3059,2.102,-1.6931,-8.4079,2.7659e-11,-0.84656,0,0,0.1,-1.8948e-15,0,0.66667
0.39768,0.57866,3.9768,0.11799,13.177,395.16,-1.2512,0.41708,-1.9473,-1.6683,-3.9578e-12,-0.97365,0,0,0.1,-4.737e-16,0,0.66667
0.16535,0.083831,1.6535,-0.62425,-80.846,682.54,2.7526,-0.91754,-0.61159,3.6702,-1.635e-09,-0.3058,0,0,0.1,-0,-0,0.66667
0.92751,0.26774,9.2751,-0.34839,-6.3313,8.3646,8.617,-2.8723,-1.5658,11.489,-1.3989e-07,-0.78291,0,0,0.1,-1.8948e-15,0,0.66667
0.34777,0.76325,3.4777,0.39487,46.116,453.37,-3.662,1.2207,-1.4443,-4.8826,-3.9537e-12,-0.72214,0,0,0.1,-0,-0,0.66667
0.75081,0.874,7.5081,0.56101,32.49,80.496,-11.232,3.7441,-0.88572,-14.976,9.7386e-11,-0.44286,0,0,0.1,-1.0066e-15,0,0.66667
0.726,0.49922,7.26,-0.0011652,-0.072795,94.842,0.022559,-0.0075196,-1.9983,0.030079,-2.54e-12,-0.99915,0,0,0.1,2.8422e-15,0,0.66667
0.88331,0.57864,8.8331,0.11796,3.3895,19.158,-2.7785,0.92618,-1.9473,-3.7047,6.8363e-09,-0.97364,0,0,0.1,-0,-0,0.66667
0.62367,0.62708,6.2367,0.19062,15.426,170.57,-3.1703,1.0568,-1.8744,-4.2271,-1.1613e-12,-0.9372,0,0,0.1,-0,-0,0.66667
0.75094,0.38512,7.5094,-0.17233,-9.9247,79.467,3.4509,-1.1503,-1.8976,4.6011,1.3238e-11,-0.94882,0,0,0.1,-0,-0,0.66667
0.3489,0.51957,3.489,0.029352,3.4202,451.79,-0.27309,0.091031,-1.9947,-0.36412,-5.5307e-12,-0.99735,0,0,0.1,-0,-0,0.66667
0.26993,0.39182,2.6993,-0.16228,-19.97,548.1,1.1681,-0.38936,-1.9047,1.5574,-7.9778e-12,-0.95237,0,0,0.1,-0,-0,0.66667
0.89589,0.25282,8.9589,-0.37077,-9.5947,15.974,8.8579,-2.9526,-1.5099,11.81,-3.5413e-08,-0.75497,0,0,0.1,-0,-0,0.66667
0.42809,0.5703,4.2809,0.10546,11.424,361.09,-1.2039,0.40129,-1.9579,-1.6052,-1.666e-12,-0.97897,0,0,0.1,-0,-0,0.66667
0.96484,0.92833,9.6484,0.64249,5.8183,3.8973,-16.531,5.5102,-0.53134,-22.041,3.2527e-06,-0.26567,0,0,0.1,-0,-0,0.66667
0.66344,0.16741,6.6344,-0.49889,-37.078,139.59,8.8262,-2.9421,-1.112,11.768,-4.2011e-13,-0.55598,0,0,0.1,-0,-0,0.66667
0.6217,0.76088,6.217,0.39132,31.844,172.54,-6.4876,2.1625,-1.4551,-8.6501,-1.239e-13,-0.72755,0,0,0.1,-0,-0,0.66667
0.11475,0.42252,1.1475,-0.11621,-15.225,749.11,0.3556,-0.11853,-1.9495,0.47414,7.7252e-09,-0.97475,0,0,0.1,-0,-0,0.66667
0.94949,0.59068,9.4949,0.13602,1.7091,4.1382,-3.444,1.148,-1.9344,-4.592,-4.6781e-08,-0.96718,0,0,0.1,-1.8948e-15,0,0.66667
0.44991,0.59821,4.4991,0.14731,15.583,337.32,-1.7674,0.58914,-1.9233,-2.3566,-1.3743e-12,-0.96163,0,0,0.1,-0,-0,0.66667
0.57839,0.016081,5.7839,-0.72588,-64.379,211.03,11.196,-3.7319,-0.13089,14.928,1.1573e-12,-0.065447,0,0,0.1,-0,-0,0.66667
0.40814,0.79667,4.0814,0.44501,49.282,383.67,-4.8433,1.6144,-1.2973,-6.4577,7.3275e-13,-0.64864,0,0,0.1,-9.4739e-16,0,0.66667
0.23703,0.047652,2.3703,-0.67852,-85.315,590.06,4.2888,-1.4296,-0.36332,5.7183,-3.5709e-11,-0.18166,0,0,0.1,-0,-0,0.66667
0.90338,0.069426,9.0338,-0.64586,-15.74,15.09,15.559,-5.1863,-0.51735,20.745,1.3464e-09,-0.25868,0,0,0.1,-0,8.7535e-17,0.66667
0.57368,0.45803,5.7368,-0.062959,-5.5953,213.94,0.96315,-0.32105,-1.9843,1.2842,-7.8382e-13,-0.99215,0,0,0.1,4.737e-16,0,0.66667
0.0028703,0.76336,0.028703,0.39504,52.505,899.19,-0.030236,0.010078,-1.4451,-0.040316,-1.9001e-06,-0.72257,0,0,0.1,-0,-0,0.66667
0.61714,0.86404,6.1714,0.54606,44.928,176.74,-8.9866,2.9955,-0.93667,-11.982,-2.4043e-12,-0.46833,0,0,0.1,9.4739e-16,0,0.66667
0.32664,0.70793,3.2664,0.31189,36.998,478.53,-2.7167,0.90558,-1.6564,-3.6223,-3.046e-12,-0.82818,0,0,0.1,4.737e-16,0,0.66667
0.52706,0.94802,5.2706,0.67203,64.635,258.97,-9.4452,3.1484,-0.39289,-12.594,2.7445e-13,-0.19645,0,0,0.1,-0,-0,0.66667
0.88594,0.046994,8.8594,-0.67951,-19.418,20.12,16.053,-5.3512,-0.35631,21.405,1.758e-08,-0.17815,0,0,0.1,-0,-0,0.66667
0.35727,0.87399,3.5727,0.56098,65.106,442.4,-5.3446,1.7815,-0.88361,-7.1261,-2.863e-12,-0.44181,0,0,0.1,7.1054e-16,-1.1088e-16,0.66667
0.90854,0.80798,9.0854,0.46198,10.585,12.972,-11.193,3.7309,-1.2428,-14.923,2.442e-08,-0.62141,0,0,0.1,-9.4739e-16,0,0.66667
0.62336,0.040489,6.2336,-0.68927,-56.129,172.05,11.458,-3.8192,-0.31288,15.277,7.6916e-13,-0.15644,0,0,0.1,-0,-0,0.66667
0.015821,0.82076,0.15821,0.48114,63.971,881.75,-0.20299,0.067664,-1.1817,-0.27066,5.2565e-07,-0.59086,0,0,0.1,-0,-0,0.66667
0.92944,0.52135,9.2944,0.032029,0.56277,7.4865,-0.79384,0.26461,-1.9933,-1.0584,3.5353e-08,-0.99665,0,0,0.1,-0,-0,0.66667
0.6909,0.64605,6.909,0.21908,15.15,118.79,-4.0363,1.3454,-1.8289,-5.3817,-6.3016e-13,-0.91444,0,0,0.1,-9.4739e-16,0,0.66667
0.99732,0.52553,9.9732,0.038299,0.0050251,0.054052,-1.0186,0.33953,-1.9957,-1.3581,1.4219e-06,-0.99785,0,0,0.1,-0,-0,0.66667
0.17234,0.77014,1.7234,0.40521,52.256,673.23,-1.8623,0.62075,-1.4202,-2.483,-2.3508e-10,-0.71012,0,0,0.1,-0,-0,0.66667
0.13714,0.44245,1.3714,-0.086328,-11.244,719.42,0.3157,-0.10523,-1.9735,0.42093,4.2305e-09,-0.98676,0,0,0.1,-0,-0,0.66667
0.9326,0.1066,9.326,-0.5901,-10.118,8.3199,14.675,-4.8918,-0.7598,19.567,-2.0089e-07,-0.3799,0,0,0.1,1.8948e-15,0,0.66667
0.69682,0.7649,6.9682,0.39735,27.088,114.96,-7.3834,2.4611,-1.4357,-9.8445,-1.2386e-12,-0.71783,0,0,0.1,-0,-0,0.66667
0.066,0.68562,0.66,0.27842,36.822,814.27,-0.49003,0.16334,-1.7249,-0.65337,-9.7056e-08,-0.86245,0,0,0.1,-4.4409e-17,0,0.66667
0.75546,0.78652,7.5546,0.42977,24.431,77.316,-8.6581,2.886,-1.3415,-11.544,-2.6476e-11,-0.67074,0,0,0.1,-0,-0,0.66667
0.75388,0.82434,7.5388,0.48651,27.837,78.422,-9.7806,3.2602,-1.1573,-13.041,-9.0399e-12,-0.57865,0,0,0.1,-0,-0,0.66667
0.92302,0.66459,9.2302,0.24688,4.7442,9.038,-6.0767,2.0256,-1.7863,-8.1023,7.562e-08,-0.89315,0,0,0.1,-0,-0,0.66667
0.71152,0.45153,7.1152,-0.072711,-4.7446,104.39,1.3796,-0.45987,-1.978,1.8395,-4.2788e-13,-0.98899,0,0,0.1,-0,-0,0.66667
0.12427,0.41282,1.2427,-0.13077,-17.092,736.46,0.43335,-0.14445,-1.9432,0.5778,7.8294e-09,-0.97159,0,0,0.1,-0,-0,0.66667
0.01988,0.41813,0.1988,-0.12281,-16.298,876.27,0.065106,-0.021702,-1.9449,0.086808,-1.554e-07,-0.97244,0,0,0.1,2.9606e-17,0,0.66667
0.026211,0.61218,0.26211,0.16828,22.328,867.75,-0.11762,0.039206,-1.8971,-0.15682,2.8577e-07,-0.94856,0,0,0.1,-0,-0,0.66667
0.028306,0.29358,0.28306,-0.30963,-41.101,864.93,0.23372,-0.077907,-1.6591,0.31162,-8.4337e-07,-0.82954,0,0,0.1,5.9212e-17,0,0.66667
0.24621,0.89366,2.4621,0.59049,73.829,578.3,-3.877,1.2923,-0.75918,-5.1693,8.7788e-11,-0.37959,0,0,0.1,-0,-0,0.66667
0.86003,0.69778,8.6003,0.29667,10.153,27.223,-6.8039,2.268,-1.6908,-9.0719,4.2355e-09,-0.84541,0,0,0.1,-0,-0,0.66667
0.53883,0.42705,5.3883,-0.10943,-10.292,246.54,1.5724,-0.52412,-1.9543,2.0965,-1.2784e-12,-0.97717,0,0,0.1,-4.737e-16,0,0.66667
0.55282,0.46517,5.5282,-0.052249,-4.8071,233.22,0.77025,-0.25675,-1.9885,1.027,-2.0772e-12,-0.99425,0,0,0.1,-4.737e-16,0,0.66667
0.84203,0.49463,8.4203,-0.008057,-0.30789,33.758,0.18091,-0.060305,-2.0022,0.24122,7.6983e-10,-1.0011,0,0,0.1,-0,-0,0.66667
0.12417,0.052057,1.2417,-0.67191,-88.13,736.83,2.2249,-0.74163,-0.39819,2.9665,7.6218e-08,-0.19909,0,0,0.1,-0,-0,0.66667
0.27918,0.28218,2.7918,-0.32673,-40.015,536.66,2.4325,-0.81084,-1.6231,3.2433,-8.1133e-12,-0.81153,0,0,0.1,-9.4739e-16,0,0.66667
0.58576,0.087677,5.8576,-0.61848,-54.054,204.07,9.6609,-3.2203,-0.63728,12.881,4.7296e-12,-0.31864,0,0,0.1,-4.737e-16,0,0.66667
0.9696,0.42581,9.696,-0.11128,-0.82505,1.7041,2.8773,-0.95911,-1.9593,3.8364,3.0192e-07,-0.97963,0,0,0.1,9.4739e-16,0,0.66667
0.56103,0.82255,5.6103,0.48383,44.041,226.13,-7.2385,2.4128,-1.17,-9.6514,-1.7804e-12,-0.58498,0,0,0.1,-0,-0,0.66667
0.018647,0.95834,0.18647,0.68752,91.573,877.97,-0.34187,0.11396,-0.31928,-0.45582,1.4533e-05,-0.15964,0,0,0.1,-1.4803e-17,0,0.66667
0.80063,0.53649,8.0063,0.054737,2.5882,52.309,-1.1686,0.38955,-1.989,-1.5582,-1.067e-10,-0.99451,0,0,0.1,-1.8948e-15,0,0.66667
0.23297,0.36165,2.3297,-0.20753,-26.057,594.79,1.2893,-0.42977,-1.8491,1.7191,-2.7846e-11,-0.92455,0,0,0.1,-0,-0,0.66667
0.80711,0.7965,8.0711,0.44475,20.503,49.863,-9.5722,3.1907,-1.2942,-12.763,-8.9111e-11,-0.6471,0,0,0.1,-0,-0,0.66667
0.38786,0.95404,3.8786,0.68106,77.077,407.15,-7.0441,2.348,-0.35092,-9.3922,2.1929e-12,-0.17546,0,0,0.1,-0,-1.1802e-16,0.66667
0.86354,0.49395,8.6354,-0.0090723,-0.30231,25.632,0.20891,-0.069638,-1.9988,0.27855,-7.216e-09,-0.99942,0,0,0.1,1.8948e-15,0,0.66667
0.74712,0.21536,7.4712,-0.42696,-24.983,82.264,8.5064,-2.8355,-1.3529,11.342,1.2482e-11,-0.67643,0,0,0.1,1.4054e-15,0,0.66667
0.55624,0.57963,5.5624,0.11945,10.931,230.05,-1.7718,0.59059,-1.9463,-2.3624,-1.6006e-12,-0.97316,0,0,0.1,-0,-0,0.66667
0.13646,0.13934,1.3646,-0.54099,-70.638,720.49,1.9686,-0.65619,-0.95788,2.6248,3.1717e-09,-0.47894,0,0,0.1,-2.3685e-16,0,0.66667
0.059918,0.79638,0.59918,0.44457,58.895,822.46,-0.71033,0.23678,-1.2976,-0.94711,-1.0413e-07,-0.64882,0,0,0.1,-1.1842e-16,0,0.66667
0.12134,0.67439,1.2134,0.26159,34.231,740.38,-0.84647,0.28216,-1.7558,-1.1286,-1.127e-08,-0.87788,0,0,0.1,-0,-0,0.66667
0.044552,0.78309,0.44552,0.42464,56.337,843.1,-0.50449,0.16816,-1.3609,-0.67265,-4.7809e-07,-0.68047,0,0,0.1,-0,-0,0.66667
0.10749,0.66305,1.0749,0.24457,32.105,758.79,-0.70107,0.23369,-1.7893,-0.93476,-2.3238e-08,-0.89464,0,0,0.1,-0,-0,0.66667
0.22571,0.069303,2.2571,-0.64604,-81.654,604.44,3.8885,-1.2962,-0.51336,5.1847,-1.3251e-10,-0.25668,0,0,0.1,-0,-0,0.66667
0.71299,0.38368,7.1299,-0.17448,-11.341,103.49,3.3174,-1.1058,-1.8894,4.4231,9.7056e-13,-0.94469,0,0,0.1,-0,-0,0.66667
0.55972,0.083583,5.5972,-0.62462,-57.08,227.74,9.323,-3.1077,-0.61308,12.431,-1.9282e-12,-0.30654,0,0,0.1,-0,-1.5788e-16,0.66667
0.012556,0.90984,0.12556,0.61475,81.837,886.16,-0.20583,0.068593,-0.65699,-0.27445,-2.4438e-05,-0.3285,0,0,0.1,2.9606e-17,-1.4092e-16,0.66667
0.071974,0.96087,0.71974,0.69131,91.637,806.39,-1.3268,0.44228,-0.29826,-1.7691,-5.017e-06,-0.14913,0,0,0.1,1.1842e-16,0,0.66667
0.96728,0.87002,9.6728,0.55503,4.6176,3.2002,-14.316,4.7721,-0.90757,-19.088,-1.3047e-06,-0.45379,0,0,0.1,-1.8948e-15,0,0.66667
0.5681,0.29118,5.681,-0.31323,-28.134,219.28,4.7452,-1.5817,-1.6488,6.3269,-1.8838e-12,-0.82438,0,0,0.1,9.4739e-16,0,0.66667
0.20329,0.30427,2.0329,-0.29359,-37.383,632.93,1.5916,-0.53054,-1.6984,2.1222,-3.618e-11,-0.84921,0,0,0.1,-2.3685e-16,0,0.66667
0.25233,0.6315,2.5233,0.19724,24.517,570.23,-1.3272,0.44239,-1.863,-1.7696,1.3751e-11,-0.93149,0,0,0.1,-0,-0,0.66667
0.74383,0.86372,7.4383,0.54558,32.347,84.642,-10.822,3.6073,-0.93887,-14.429,-3.3101e-11,-0.46943,0,0,0.1,-0,-0,0.66667
0.19543,0.70603,1.9543,0.30905,39.483,643.11,-1.6106,0.53686,-1.6572,-2.1474,-1.9295e-11,-0.82859,0,0,0.1,2.3685e-16,0,0.66667
0.58136,0.27133,5.8136,-0.34301,-30.119,207.31,5.3177,-1.7726,-1.5814,7.0903,-2.0139e-12,-0.7907,0,0,0.1,4.737e-16,0,0.66667
0.97002,0.50071,9.7002,0.0010632,0.0077512,1.6111,-0.027502,0.0091648,-2.004,-0.036671,-4.0277e-06,-1.002,0,0,0.1,-0,-0,0.66667
0.84683,0.79527,8.4683,0.4429,16.537,32.593,-10.002,3.3339,-1.3023,-13.335,1.1775e-09,-0.65113,0,0,0.1,-0,-0,0.66667
0.23985,0.60418,2.3985,0.15627,19.55,586.02,-0.99951,0.33317,-1.9108,-1.3327,1.0113e-11,-0.9554,0,0,0.1,-4.737e-16,0,0.66667
0.49377,0.38588,4.9377,-0.17118,-17.165,291.27,2.2539,-0.75132,-1.893,3.0053,-1.243e-12,-0.94651,0,0,0.1,-0,-0,0.66667
0.61996,0.74546,6.1996,0.36819,30.061,173.94,-6.087,2.029,-1.5166,-8.116,1.7635e-12,-0.7583,0,0,0.1,-1.4211e-15,0,0.66667
0.82898,0.13694,8.2898,-0.54459,-22.562,40.289,12.039,-4.013,-0.94875,16.052,-2.1737e-10,-0.47437,0,0,0.1,-0,-0,0.66667
0.15679,0.99325,1.5679,0.73987,96.212,693.87,-3.0935,1.0312,-0.057986,-4.1246,6.0262e-09,-0.028993,0,0,0.1,3.5527e-16,0,0.66667
0.018576,0.083942,0.18576,-0.62409,-83.071,878.06,0.30915,-0.10305,-0.61524,0.41219,-5.6524e-06,-0.30762,0,0,0.1,-1.4803e-17,0,0.66667
0.070022,0.79263,0.70022,0.43894,58.07,808.91,-0.81961,0.2732,-1.3118,-1.0928,-1.9294e-07,-0.65591,0,0,0.1,-0,-0,0.66667
0.48635,0.22987,4.8635,-0.4052,-41.08,299.19,5.2551,-1.7517,-1.4176,7.0069,-3.3413e-12,-0.70881,0,0,0.1,-0,-0,0.66667
0.60633,0.37903,6.0633,-0.18145,-15.199,185.19,2.9338,-0.97793,-1.8836,3.9117,-3.7881e-13,-0.94181,0,0,0.1,-0,-0,0.66667
0.56885,0.14636,5.6885,-0.53046,-47.686,219.05,8.0467,-2.6822,-0.99675,10.729,-2.9745e-12,-0.49838,0,0,0.1,-0,-0,0.66667
0.31736,0.37352,3.1736,-0.18972,-22.644,489.67,1.6056,-0.53519,-1.8713,2.1408,-8.8303e-12,-0.93565,0,0,0.1,-1.7764e-16,0,0.66667
0.98862,0.025421,9.8862,-0.71187,-2.1075,2.5599,18.767,-6.2557,-0.19737,25.023,-7.988e-05,-0.098686,0,0,0.1,-9.4739e-16,0,0.66667
0.57975,0.7844,5.7975,0.4266,37.594,208.92,-6.5951,2.1984,-1.3559,-8.7935,3.5332e-12,-0.67793,0,0,0.1,-1.8948e-15,0,0.66667
0.38014,0.34034,3.8014,-0.2395,-27.193,415.33,2.4278,-0.80927,-1.7948,3.2371,-3.0351e-12,-0.89738,0,0,0.1,-4.737e-16,0,0.66667
0.55095,0.34642,5.5095,-0.23037,-21.271,235.11,3.3846,-1.1282,-1.8111,4.5128,8.2956e-13,-0.90553,0,0,0.1,-0,-0,0.66667
0.74533,0.65726,7.4533,0.23588,13.855,82.924,-4.6883,1.5628,-1.8017,-6.2511,-1.5086e-11,-0.90085,0,0,0.1,-0,-0,0.66667
0.66923,0.98039,6.6923,0.72058,53.014,136.02,-12.86,4.2865,-0.15423,-17.146,-1.0782e-12,-0.077116,0,0,0.1,-0,-0,0.66667
0.26492,0.49757,2.6492,-0.0036445,-0.4497,554.34,0.025747,-0.0085823,-2.0046,0.034329,-9.5149e-12,-1.0023,0,0,0.1,7.6975e-16,0,0.66667
0.066335,0.40013,0.66335,-0.1498,-19.802,813.81,0.26499,-0.08833,-1.9197,0.35332,2.981e-08,-0.95984,0,0,0.1,1.1842e-16,0,0.66667
0.37008,0.11586,3.7008,-0.57621,-66.167,427.44,5.6865,-1.8955,-0.81763,7.582,-4.0012e-12,-0.40882,0,0,0.1,-4.737e-16,0,0.66667
0.62972,0.21454,6.2972,-0.4282,-34.285,166.01,7.1905,-2.3968,-1.347,9.5873,-1.2519e-12,-0.67349,0,0,0.1,9.4739e-16,0,0.66667
0.21017,0.31647,2.1017,-0.2753,-34.946,624.04,1.5429,-0.51432,-1.7283,2.0573,-5.2038e-11,-0.86414,0,0,0.1,4.737e-16,0,0.66667
0.75276,0.78244,7.5276,0.42366,24.311,78.892,-8.5043,2.8348,-1.3634,-11.339,-3.1152e-11,-0.6817,0,0,0.1,-0,-0,0.66667
0.066536,0.79272,0.66536,0.43907,58.116,813.58,-0.77905,0.25968,-1.3133,-1.0387,-1.9762e-07,-0.65664,0,0,0.1,-0,-0,0.66667
0.26032,0.77512,2.6032,0.41268,51.128,560.32,-2.8647,0.95492,-1.3926,-3.8197,-2.589e-12,-0.69632,0,0,0.1,4.737e-16,0,0.66667
0.80475,0.67466,8.0475,0.262,12.175,50.531,-5.6225,1.8742,-1.7527,-7.4966,4.0812e-13,-0.87636,0,0,0.1,9.4739e-16,0,0.66667
0.19343,0.05046,1.9343,-0.67431,-86.469,646.01,3.4783,-1.1594,-0.38059,4.6377,-9.7339e-10,-0.19029,0,0,0.1,2.3685e-16,0,0.66667
0.63946,0.055376,6.3946,-0.66694,-52.481,158.86,11.373,-3.7909,-0.42159,15.164,1.4122e-13,-0.2108,0,0,0.1,-0,-8.3369e-17,0.66667
0.52467,0.41447,5.2467,-0.1283,-12.325,260.29,1.795,-0.59834,-1.9388,2.3934,-4.4599e-12,-0.96939,0,0,0.1,9.4739e-16,0,0.66667
0.92481,0.049945,9.2481,-0.67508,-12.953,10.288,16.649,-5.5495,-0.37956,22.198,-2.5655e-06,-0.18978,0,0,0.1,9.4739e-16,0,0.66667
0.2633,0.1957,2.633,-0.45646,-56.474,556.62,3.2049,-1.0683,-1.2603,4.2732,-1.7443e-11,-0.63015,0,0,0.1,-0,-0,0.66667
0.065961,0.014927,0.65961,-0.72761,-96.567,814.46,1.2798,-0.42661,-0.11689,1.7064,-2.3992e-07,-0.058444,0,0,0.1,2.3685e-16,0,0.66667
0.73507,0.81244,7.3507,0.46866,28.557,89.793,-9.1865,3.0622,-1.2242,-12.249,-1.7478e-11,-0.61212,0,0,0.1,-0,-0,0.66667
0.77218,0.33477,7.7218,-0.24785,-13.213,67.387,5.1035,-1.7012,-1.7788,6.8047,3.5022e-11,-0.88941,0,0,0.1,-9.4739e-16,0,0.66667
0.90782,0.26441,9.0782,-0.35339,-8.1264,12.792,8.555,-2.8517,-1.5579,11.407,-3.9885e-08,-0.77895,0,0,0.1,-1.8948e-15,0,0.66667
0.93197,0.019914,9.3197,-0.72013,-12.587,9.1423,17.897,-5.9657,-0.15368,23.863,-1.3088e-06,-0.076842,0,0,0.1,1.8948e-15,0,0.66667
0.013952,0.031277,0.13952,-0.70308,-93.677,884.29,0.26157,-0.087145,-0.24577,0.34879,6.8992e-05,-0.12289,0,0,0.1,-0,-0,0.66667
0.23436,0.086751,2.3436,-0.61987,-77.996,593.37,3.874,-1.2913,-0.63915,5.1653,2.5087e-10,-0.31958,0,0,0.1,-2.3685e-16,8.2333e-17,0.66667
0.61678,0.47309,6.1678,-0.040361,-3.3108,176.23,0.66383,-0.22128,-1.9918,0.8851,1.773e-12,-0.99592,0,0,0.1,-0,-0,0.66667
0.94902,0.076726,9.4902,-0.63491,-8.307,5.8295,16.068,-5.3559,-0.56527,21.424,-2.2051e-08,-0.28263,0,0,0.1,-0,3.5145e-17,0.66667
0.95018,0.57818,9.5018,0.11728,1.4526,4.0189,-2.9715,0.99051,-1.951,-3.962,-5.3894e-08,-0.97549,0,0,0.1,-0,-0,0.66667
0.55665,0.69103,5.5665,0.28655,26.225,229.83,-4.2535,1.4178,-1.7063,-5.6713,-1.0214e-13,-0.85316,0,0,0.1,-0,-0,0.66667
0.91561,0.67466,9.1561,0.26199,5.5131,10.704,-6.3968,2.1323,-1.753,-8.529,5.4465e-08,-0.87652,0,0,0.1,9.4739e-16,0,0.66667
0.64157,0.022684,6.4157,-0.71597,-56.133,157.37,12.249,-4.0831,-0.18072,16.332,1.6351e-12,-0.090358,0,0,0.1,-9.4739e-16,0,0.66667
0.39001,0.92783,3.9001,0.64175,72.451,404.6,-6.6743,2.2248,-0.53953,-8.8991,-1.6027e-12,-0.26977,0,0,0.1,-0,-1.012e-16,0.66667
0.48599,0.037084,4.8599,-0.69437,-70.658,300.24,8.9989,-2.9996,-0.28818,11.999,-8.5416e-12,-0.14409,0,0,0.1,9.4739e-16,0,0.66667
0.60431,0.18248,6.0431,-0.47628,-40.147,187.44,7.6752,-2.5584,-1.192,10.234,-4.5715e-12,-0.59598,0,0,0.1,1.5421e-15,0,0.66667
0.54955,0.60082,5.4955,0.15123,13.99,236.36,-2.2162,0.73875,-1.9194,-2.955,-1.2694e-12,-0.95972,0,0,0.1,-0,-0,0.66667
0.92618,0.76435,9.2618,0.39653,7.3508,8.7797,-9.7935,3.2645,-1.4393,-13.058,1.5541e-07,-0.71966,0,0,0.1,-1.8948e-15,0,0.66667
0.91873,0.23191,9.1873,-0.40214,-8.1936,10.379,9.8523,-3.2841,-1.4247,13.136,-6.9449e-08,-0.71234,0,0,0.1,-0,-0,0.66667
0.39488,0.80231,3.9488,0.45346,50.866,398.69,-4.7749,1.5916,-1.2675,-6.3666,-4.992e-12,-0.63375,0,0,0.1,-4.737e-16,0,0.66667
0.96326,0.9542,9.6326,0.6813,6.4824,4.2852,-17.501,5.8336,-0.34706,-23.334,1.5555e-05,-0.17353,0,0,0.1,-0,-0,0.66667
0.17396,0.49282,1.7396,-0.010764,-1.3855,670.99,0.049931,-0.016644,-2.0012,0.066575,2.4425e-10,-1.0006,0,0,0.1,7.1054e-16,0,0.66667
0.12633,0.56279,1.2633,0.094185,12.303,733.73,-0.31729,0.10576,-1.9724,-0.42305,-2.0945e-09,-0.98621,0,0,0.1,-0,-0,0.66667
0.13508,0.38654,1.3508,-0.17019,-22.184,722.15,0.61304,-0.20435,-1.8945,0.81739,4.2594e-09,-0.94727,0,0,0.1,-0,-0,0.66667
0.50566,0.27933,5.0566,-0.331,-32.693,279.39,4.4633,-1.4878,-1.6091,5.9511,1.8976e-12,-0.80455,0,0,0.1,-1.1842e-15,0,0.66667
0.021525,0.19526,0.21525,-0.45711,-60.752,874.07,0.26238,-0.087461,-1.2547,0.34984,-2.7745e-06,-0.62735,0,0,0.1,5.9212e-17,0,0.66667
0.94797,0.55603,9.4797,0.084049,1.0874,4.3137,-2.1247,0.70823,-1.9731,-2.8329,-2.7657e-08,-0.98656,0,0,0.1,-9.4739e-16,0,0.66667
0.82712,0.79877,8.2712,0.44815,18.707,40.743,-9.8846,3.2949,-1.2888,-13.18,9.1856e-11,-0.64441,0,0,0.1,-0,-0,0.66667
0.015019,0.87567,0.15019,0.56351,74.974,882.84,-0.22568,0.075225,-0.87616,-0.30091,-4.1652e-06,-0.43808,0,0,0.1,5.9212e-17,0,0.66667
0.1762,0.039335,1.762,-0.691,-89.212,668.44,3.2467,-1.0822,-0.30104,4.3289,1.1142e-10,-0.15052,0,0,0.1,-0,-0,0.66667
0.33206,0.4427,3.3206,-0.085955,-10.147,471.88,0.76113,-0.25371,-1.9732,1.0148,-3.8651e-12,-0.98661,0,0,0.1,-0,-0,0.66667
0.131,0.50089,1.31,0.0013316,0.17373,727.54,-0.0046518,0.0015506,-1.9987,-0.0062023,-4.5186e-09,-0.99934,0,0,0.1,-0,-0,0.66667
0.80949,0.9747,8.0949,0.71206,32.687,49.842,-15.371,5.1236,-0.19769,-20.494,-7.4443e-11,-0.098846,0,0,0.1,-0,-0,0.66667
0.34474,0.29184,3.4474,-0.31224,-36.534,456.88,2.8704,-0.95681,-1.6565,3.8272,-5.0417e-12,-0.82823,0,0,0.1,-0,-0,0.66667
0.94011,0.84743,9.4011,0.52114,7.9168,6.6705,-13.065,4.3549,-1.0357,-17.42,-1.0137e-07,-0.51784,0,0,0.1,-0,-0,0.66667
0.58201,0.85033,5.8201,0.52549,46.175,207.13,-8.1558,2.7186,-1.0175,-10.874,1.5064e-12,-0.50876,0,0,0.1,-0,-0,0.66667
0.87883,0.39457,8.7883,-0.15814,-4.7121,20.599,3.7061,-1.2354,-1.91,4.9415,-1.0099e-08,-0.95501,0,0,0.1,-0,-0,0.66667
0.84473,0.6288,8.4473,0.1932,7.2731,32.819,-4.3521,1.4507,-1.8712,-5.8028,1.0724e-09,-0.9356,0,0,0.1,-0,-0,0.66667
0.90539,0.41505,9.0539,-0.12742,-2.9905,12.963,3.0765,-1.0255,-1.9458,4.102,-2.5663e-08,-0.97288,0,0,0.1,-0,-0,0.66667
0.45988,0.91288,4.5988,0.61932,64.998,327.38,-7.5951,2.5317,-0.63365,-10.127,1.1768e-13,-0.31683,0,0,0.1,-0,-0,0.66667
0.54635,0.89228,5.4635,0.58842,54.905,240.17,-8.5728,2.8576,-0.77275,-11.43,-1.3216e-12,-0.38638,0,0,0.1,-0,-0,0.66667
0.7986,0.060767,7.986,-0.65885,-31.733,54.844,14.031,-4.677,-0.4596,18.708,2.7847e-09,-0.2298,0,0,0.1,-2.3685e-16,0,0.66667
0.28572,0.024953,2.8572,-0.71257,-87.213,529.06,5.4292,-1.8097,-0.19346,7.2389,3.6056e-12,-0.096731,0,0,0.1,-0,-0,0.66667
0.49025,0.70925,4.9025,0.31387,31.64,295.02,-4.1034,1.3678,-1.6472,-5.4712,-3.8103e-13,-0.8236,0,0,0.1,-4.737e-16,0,0.66667
0.59911,0.031142,5.9911,-0.70329,-60.064,192.64,11.236,-3.7453,-0.24058,14.981,-2.5473e-12,-0.12029,0,0,0.1,-1.0214e-15,0,0.66667
0.015533,0.94002,0.15533,0.66003,87.896,882.16,-0.27339,0.091115,-0.45686,-0.36452,-2.0267e-05,-0.22843,0,0,0.1,5.9212e-17,0,0.66667
0.59348,0.86699,5.9348,0.55048,47.397,197.04,-8.712,2.904,-0.92727,-11.616,1.1982e-12,-0.46364,0,0,0.1,4.737e-16,9.8101e-17,0.66667
0.43368,0.57866,4.3368,0.118,12.707,354.95,-1.3646,0.45486,-1.9493,-1.8194,-2.3076e-12,-0.97467,0,0,0.1,-0,-0,0.66667
0.80736,0.82224,8.0736,0.48336,22.274,49.87,-10.407,3.4689,-1.1672,-13.875,-2.9968e-11,-0.5836,0,0,0.1,-0,-0,0.66667
0.31524,0.61723,3.1524,0.17584,21.019,492.23,-1.4782,0.49274,-1.8906,-1.971,8.7175e-13,-0.94532,0,0,0.1,-4.737e-16,0,0.66667
0.89289,0.51368,8.9289,0.020517,0.54267,16.27,-0.48851,0.16284,-1.9994,-0.65134,2.1786e-08,-0.99968,0,0,0.1,-0,-0,0.66667
0.57786,0.70046,5.7786,0.30069,26.557,210.38,-4.6334,1.5445,-1.6829,-6.1779,3.9524e-13,-0.84145,0,0,0.1,-0,-0,0.66667
0.18401,0.33289,1.8401,-0.25067,-32.161,657.92,1.23,-0.41001,-1.776,1.64,1.1125e-10,-0.88798,0,0,0.1,-0,-0,0.66667
0.78793,0.74957,7.8793,0.37435,18.762,59.221,-7.8657,2.6219,-1.5002,-10.488,-3.2515e-11,-0.75012,0,0,0.1,-4.1448e-16,0,0.66667
0.61203,0.16101,6.1203,-0.50849,-42.242,180.94,8.299,-2.7663,-1.0818,11.065,-1.1378e-12,-0.54088,0,0,0.1,-0,-0,0.66667
0.053909,0.075316,0.53909,-0.63703,-84.586,830.58,0.91577,-0.30526,-0.554,1.221,-2.1064e-06,-0.277,0,0,0.1,-0,-0,0.66667
0.42019,0.076161,4.2019,-0.63576,-69.697,370.57,7.1238,-2.3746,-0.56464,9.4984,2.272e-12,-0.28232,0,0,0.1,-0,-1.1655e-16,0.66667
0.67907,0.014685,6.7907,-0.72797,-52.279,128.78,13.182,-4.3942,-0.11253,17.577,2.8599e-12,-0.056265,0,0,0.1,-0,-0,0.66667
0.9186,0.96902,9.186,0.70354,14.6,11.768,-17.234,5.7446,-0.24124,-22.978,5.2679e-07,-0.12062,0,0,0.1,-0,4.1245e-18,0.66667
0.00040202,0.73607,0.0040202,0.3541,47.053,902.51,-0.0037956,0.0012639,-1.5582,-0.0050614,-1.9233e-06,-0.77911,0,0,0.1,-4.6259e-19,0,0.66667
0.97676,0.16819,9.7676,-0.49772,-2.8863,2.1192,12.964,-4.3213,-1.116,17.285,4.5269e-06,-0.55802,0,0,0.1,-0,-0,0.66667
0.37658,0.33489,3.7658,-0.24766,-28.21,419.45,2.487,-0.82901,-1.7841,3.3161,-4.3403e-12,-0.89207,0,0,0.1,-0,-0,0.66667
0.97378,0.62236,9.7378,0.18354,1.1657,1.4255,-4.7661,1.5887,-1.8792,-6.3548,-3.7648e-07,-0.93958,0,0,0.1,-7.1054e-16,0,0.66667
0.60472,0.84913,6.0472,0.5237,44.135,187.22,-8.445,2.815,-1.0236,-11.26,1.1902e-12,-0.51182,0,0,0.1,-0,-0,0.66667
0.82885,0.61039,8.2885,0.16559,6.819,39.356,-3.6599,1.22,-1.9059,-4.8799,3.5145e-10,-0.95297,0,0,0.1,-0,-0,0.66667
0.57471,0.63837,5.7471,0.20755,18.421,213.11,-3.1808,1.0603,-1.8462,-4.2411,9.2104e-13,-0.92309,0,0,0.1,-0,-0,0.66667
0.62808,0.19138,6.2808,-0.46293,-37.208,167.44,7.7535,-2.5845,-1.2387,10.338,1.6374e-12,-0.61935,0,0,0.1,-0,-0,0.66667
0.28558,0.93256,2.8558,0.64883,79.361,529.13,-4.9411,1.647,-0.50229,-6.5882,-2.4785e-12,-0.25115,0,0,0.1,1.1842e-16,0,0.66667
0.58683,0.65822,5.8683,0.23733,20.622,202.26,-3.7139,1.238,-1.7979,-4.9519,-3.2263e-13,-0.89893,0,0,0.1,-0,-0,0.66667
0.75002,0.052986,7.5002,-0.67052,-39.032,81.416,13.411,-4.4703,-0.4065,17.881,-3.6389e-11,-0.20325,0,0,0.1,-0,-0,0.66667
0.85831,0.94407,8.5831,0.66611,23.303,29.202,-15.246,5.0821,-0.42576,-20.328,-4.1506e-08,-0.21288,0,0,0.1,-1.8948e-15,0,0.66667
0.75508,0.10195,7.5508,-0.59707,-34.092,78.116,12.022,-4.0074,-0.73058,16.03,1.5008e-10,-0.36529,0,0,0.1,-0,-0,0.66667
0.69806,0.58231,6.9806,0.12346,8.3702,113.65,-2.2983,0.76609,-1.9436,-3.0644,-1.2887e-12,-0.97182,0,0,0.1,-0,-0,0.66667
0.86448,0.19316,8.6448,-0.46025,-15.339,26.115,10.61,-3.5367,-1.2452,14.147,-4.8305e-09,-0.6226,0,0,0.1,-0,-0,0.66667
0.32268,0.015682,3.2268,-0.72648,-86.752,483.93,6.2512,-2.0837,-0.12096,8.3349,3.7672e-12,-0.060478,0,0,0.1,-0,-0,0.66667
0.67079,0.14898,6.7079,-0.52653,-38.46,134.14,9.4185,-3.1395,-1.0175,12.558,-6.1107e-13,-0.50875,0,0,0.1,-4.737e-16,1.543e-16,0.66667
0.45087,0.66329,4.5087,0.24493,25.891,336.36,-2.9449,0.98163,-1.7881,-3.9265,-1.2432e-12,-0.89403,0,0,0.1,-9.4739e-16,0,0.66667
0.3821,0.65826,3.821,0.23738,26.905,413.06,-2.4188,0.80626,-1.7977,-3.2251,-6.4944e-12,-0.89886,0,0,0.1,9.4739e-16,0,0.66667
0.41081,0.60289,4.1081,0.15434,17.019,380.34,-1.6908,0.5636,-1.9137,-2.2544,-4.2001e-12,-0.95686,0,0,0.1,9.4739e-16,0,0.66667
0.40148,0.65624,4.0148,0.23436,26.088,390.92,-2.5091,0.83636,-1.8044,-3.3455,-4.0776e-12,-0.90219,0,0,0.1,2.6599e-16,0,0.66667
0.31738,0.90403,3.1738,0.60605,72.544,490.11,-5.1293,1.7098,-0.69318,-6.8391,3.6811e-12,-0.34659,0,0,0.1,-4.737e-16,0,0.66667
0.62192,0.25607,6.2192,-0.3659,-29.754,172.3,6.0683,-2.0228,-1.5243,8.091,-6.3904e-13,-0.76216,0,0,0.1,-0,-0,0.66667
0.43025,0.91629,4.3025,0.62444,67.735,359.44,-7.1644,2.3881,-0.61058,-9.5525,3.0642e-14,-0.30529,0,0,0.1,-0,-0,0.66667
0.9738,0.26277,9.738,-0.35584,-2.2925,1.8262,9.2405,-3.0802,-1.5476,12.321,1.2881e-06,-0.77379,0,0,0.1,-0,-0,0.66667
0.6778,0.52651,6.778,0.039763,2.8429,128.12,-0.71871,0.23957,-1.9924,-0.95828,-9.0866e-13,-0.9962,0,0,0.1,-9.4739e-16,0,0.66667
0.19857,0.55568,1.9857,0.083525,10.649,638.97,-0.44228,0.14743,-1.9739,-0.58971,-8.6769e-11,-0.98694,0,0,0.1,2.3685e-16,0,0.66667
0.4267,0.66776,4.267,0.25163,27.312,362.72,-2.8633,0.95442,-1.7729,-3.8177,-2.3537e-12,-0.88644,0,0,0.1,-0,-0,0.66667
0.34335,0.20883,3.4335,-0.43675,-51.2,458.68,3.9989,-1.333,-1.326,5.3318,-2.9605e-12,-0.66301,0,0,0.1,-0,-0,0.66667
0.79764,0.69944,7.9764,0.29916,14.363,54.101,-6.3632,2.1211,-1.6852,-8.4842,-2.3842e-11,-0.84262,0,0,0.1,-0,-0,0.66667
0.88,0.89083,8.8,0.58625,17.502,21.477,-13.757,4.5858,-0.77576,-18.343,1.0502e-08,-0.38788,0,0,0.1,1.8948e-15,0,0.66667
0.90384,0.68531,9.0384,0.27797,6.6451,13.606,-6.6997,2.2332,-1.7271,-8.933,4.0043e-08,-0.86357,0,0,0.1,-9.4739e-16,0,0.66667
0.66272,0.6735,6.6272,0.26025,19.326,139.6,-4.5993,1.5331,-1.7562,-6.1324,-4.3077e-14,-0.87808,0,0,0.1,-0,-0,0.66667
0.27021,0.57254,2.7021,0.1088,13.386,547.73,-0.78399,0.26133,-1.9562,-1.0453,9.8327e-13,-0.97812,0,0,0.1,-4.737e-16,0,0.66667
0.25237,0.90755,2.5237,0.61133,76.2,570.55,-4.1141,1.3714,-0.67331,-5.4855,5.0648e-11,-0.33665,0,0,0.1,-0,-0,0.66667
0.8549,0.60397,8.549,0.15596,5.5098,28.863,-3.5554,1.1851,-1.9119,-4.7406,2.4343e-09,-0.95596,0,0,0.1,-0,-0,0.66667
0.52771,0.4464,5.2771,-0.080401,-7.6884,257.29,1.1314,-0.37714,-1.9765,1.5086,-2.1915e-12,-0.98824,0,0,0.1,-0,-0,0.66667
0.80216,0.39913,8.0216,-0.1513,-7.1078,51.63,3.2364,-1.0788,-1.9167,4.3152,6.2703e-11,-0.95834,0,0,0.1,1.4211e-15,0,0.66667
0.57249,0.070747,5.7249,-0.64388,-57.615,216.07,9.8297,-3.2766,-0.52366,13.106,2.3528e-12,-0.26183,0,0,0.1,-0,-0,0.66667
0.73314,0.94816,7.3314,0.67224,41.378,91.757,-13.143,4.3808,-0.3959,-17.523,-4.4471e-12,-0.19795,0,0,0.1,-0,1.0645e-16,0.66667
0.51901,0.096499,5.1901,-0.60525,-58.839,266.67,8.3769,-2.7923,-0.69799,11.169,-1.4735e-12,-0.34899,0,0,0.1,1.8948e-15,0,0.66667
0.77088,0.68874,7.7088,0.28311,15.174,68.167,-5.8198,1.9399,-1.7141,-7.7597,-3.1478e-11,-0.85703,0,0,0.1,1.8948e-15,0,0.66667
0.56886,0.32867,5.6886,-0.257,-23.045,218.5,3.8985,-1.2995,-1.7622,5.198,-3.2525e-12,-0.88108,0,0,0.1,9.4739e-16,0,0.66667
0.46571,0.26073,4.6571,-0.3589,-37.313,320.67,4.4572,-1.4857,-1.5419,5.9429,-4.8579e-12,-0.77097,0,0,0.1,-0,-0,0.66667
0.34269,0.83409,3.4269,0.50114,58.81,459.55,-4.5796,1.5265,-1.1101,-6.1061,-3.832e-12,-0.55505,0,0,0.1,4.737e-16,0,0.66667
0.068209,0.32015,0.68209,-0.26978,-35.666,811.31,0.4907,-0.16357,-1.739,0.65426,9.7397e-08,-0.86949,0,0,0.1,-0,-0,0.66667
0.37792,0.6022,3.7792,0.1533,17.434,417.83,-1.5449,0.51497,-1.9167,-2.0599,-7.3461e-12,-0.95836,0,0,0.1,-0,-0,0.66667
0.079626,0.7934,0.79626,0.44011,58.14,796.05,-0.9345,0.3115,-1.3134,-1.246,-8.0758e-08,-0.65671,0,0,0.1,-1.1842e-16,0,0.66667
0.98282,0.91129,9.8282,0.61694,2.6862,2.2974,-16.169,5.3896,-0.64941,-21.559,1.3324e-06,-0.3247,0,0,0.1,3.7896e-15,6.4082e-17,0.66667
0.18161,0.26992,1.8161,-0.34513,-44.34,661.09,1.6715,-0.55715,-1.5738,2.2286,1.1707e-10,-0.78691,0,0,0.1,-0,-0,0.66667
0.81186,0.75257,8.1186,0.37885,17.055,47.419,-8.202,2.734,-1.4944,-10.936,6.8441e-11,-0.74722,0,0,0.1,-0,-0,0.66667
0.87496,0.75787,8.7496,0.3868,11.925,22.33,-9.0249,3.0083,-1.4732,-12.033,8.4959e-09,-0.73662,0,0,0.1,-0,-0,0.66667
0.68841,0.50119,6.8841,0.0017857,0.12421,120.42,-0.032781,0.010927,-2.0045,-0.043708,-8.7327e-13,-1.0023,0,0,0.1,-0,-0,0.66667
0.56949,0.1455,5.6949,-0.53175,-47.751,218.47,8.0754,-2.6918,-0.99163,10.767,-2.7933e-12,-0.49581,0,0,0.1,-4.737e-16,0,0.66667
0.16097,0.39547,1.6097,-0.15679,-20.277,688.02,0.67305,-0.22435,-1.9107,0.8974,6.8907e-10,-0.95537,0,0,0.1,2.3685e-16,0,0.66667
0.46688,0.13774,4.6688,-0.54339,-56.508,319.78,6.7653,-2.2551,-0.95163,9.0204,-6.6085e-12,-0.47582,0,0,0.1,-0,-0,0.66667
0.34517,0.58735,3.4517,0.13102,15.314,456.24,-1.206,0.402,-1.9417,-1.608,-8.3765e-12,-0.97086,0,0,0.1,7.1054e-16,0,0.66667
0.22504,0.22191,2.2504,-0.41714,-52.634,605.05,2.5033,-0.83442,-1.3794,3.3377,-2.8163e-11,-0.68972,0,0,0.1,-0,-0,0.66667
0.59251,0.67916,5.9251,0.26873,23.115,197.29,-4.2461,1.4154,-1.7461,-5.6615,5.9508e-14,-0.87304,0,0,0.1,4.737e-16,0,0.66667
0.31227,0.47161,3.1227,-0.042588,-5.0999,495.81,0.35464,-0.11821,-1.9991,0.47285,-1.0635e-11,-0.99954,0,0,0.1,-0,-0,0.66667
0.91631,0.91367,9.1631,0.6205,13.155,11.833,-15.162,5.054,-0.62888,-20.216,7.4746e-08,-0.31444,0,0,0.1,1.8948e-15,0,0.66667
0.90964,0.17183,9.0964,-0.49225,-11.162,12.819,11.941,-3.9802,-1.1378,15.921,-1.0875e-08,-0.56889,0,0,0.1,1.8948e-15,0,0.66667
0.25712,0.53442,2.5712,0.051628,6.3986,564.15,-0.35398,0.11799,-1.9884,-0.47198,9.8353e-12,-0.9942,0,0,0.1,-0,-0,0.66667
0.11089,0.86258,1.1089,0.54387,71.474,754.38,-1.6083,0.5361,-0.95035,-2.1444,-1.0853e-09,-0.47517,0,0,0.1,-1.1842e-16,0,0.66667
0.19296,0.99456,1.9296,0.74184,95.22,646.7,-3.8173,1.2724,-0.041457,-5.0897,-1.7467e-10,-0.020729,0,0,0.1,-0,-0,0.66667
0.49958,0.71834,4.9958,0.32751,32.614,285.52,-4.3631,1.4544,-1.6243,-5.8175,-2.4825e-12,-0.81213,0,0,0.1,-2.9606e-17,0,0.66667
0.72859,0.25635,7.2859,-0.36547,-22.7,93.612,7.1008,-2.3669,-1.5229,9.4677,4.2673e-12,-0.76147,0,0,0.1,-0,-0,0.66667
0.20819,0.34881,2.0819,-0.22678,-28.806,626.57,1.259,-0.41968,-1.8156,1.6787,-3.7476e-11,-0.90782,0,0,0.1,-0,-0,0.66667
0.24803,0.42095,2.4803,-0.11857,-14.77,575.63,0.78426,-0.26142,-1.9513,1.0457,-1.3899e-11,-0.97565,0,0,0.1,-0,-0,0.66667
0.85167,0.62289,8.5167,0.18434,6.6494,30.114,-4.1865,1.3955,-1.8772,-5.582,1.7046e-09,-0.93859,0,0,0.1,-1.1842e-15,0,0.66667
0.41585,0.92533,4.1585,0.63799,70.252,375.41,-7.0748,2.3583,-0.55001,-9.4331,4.3268e-12,-0.27501,0,0,0.1,-0,-0,0.66667
0.61669,0.80406,6.1669,0.45609,37.517,176.88,-7.5003,2.5001,-1.2575,-10,-4.4986e-13,-0.62875,0,0,0.1,-0,-0,0.66667
0.23367,0.01841,2.3367,-0.72239,-91.029,594.4,4.5013,-1.5004,-0.14807,6.0017,-6.4145e-11,-0.074034,0,0,0.1,-0,-0,0.66667
0.10197,0.34928,1.0197,-0.22608,-29.711,766.15,0.61475,-0.20492,-1.8157,0.81967,2.8437e-08,-0.90786,0,0,0.1,2.3685e-16,0,0.66667
0.51586,0.46645,5.1586,-0.05032,-4.8947,268.95,0.69221,-0.23074,-1.9966,0.92295,-4.6278e-12,-0.99831,0,0,0.1,3.5527e-16,0,0.66667
0.47714,0.213,4.7714,-0.43049,-44.163,308.78,5.4775,-1.8258,-1.3385,7.3033,-6.4495e-12,-0.66926,0,0,0.1,7.1054e-16,0,0.66667
0.15267,0.02292,1.5267,-0.71562,-93.154,699.26,2.9135,-0.97115,-0.17864,3.8846,-2.1107e-08,-0.08932,0,0,0.1,-0,-0,0.66667
0.62181,0.75101,6.2181,0.37651,30.627,172.42,-6.2431,2.081,-1.497,-8.3242,-1.1111e-12,-0.74851,0,0,0.1,-0,-0,0.66667
0.54401,0.69071,5.4401,0.28607,26.712,241.75,-4.15,1.3833,-1.7101,-5.5333,-4.8117e-12,-0.85504,0,0,0.1,1.8948e-15,0,0.66667
0.65414,0.1128,6.5414,-0.58081,-44.168,146.99,10.131,-3.3771,-0.80172,13.508,-1.8181e-12,-0.40086,0,0,0.1,9.4739e-16,0,0.66667
0.14455,0.12956,1.4455,-0.55567,-72.395,709.82,2.1418,-0.71395,-0.90177,2.8558,1.6801e-09,-0.45088,0,0,0.1,4.737e-16,0,0.66667
0.75153,0.27947,7.5153,-0.3308,-19.04,79.385,6.6295,-2.2098,-1.6142,8.8393,1.9712e-11,-0.80712,0,0,0.1,-1.3027e-15,0,0.66667
0.22205,0.25541,2.2205,-0.36688,-46.343,608.84,2.1724,-0.72414,-1.5216,2.8965,-4.8105e-11,-0.76079,0,0,0.1,4.737e-16,0,0.66667
0.51935,0.46352,5.1935,-0.05472,-5.2964,265.49,0.75784,-0.25261,-1.9891,1.0105,-2.5215e-12,-0.99453,0,0,0.1,-4.737e-16,0,0.66667
0.7853,0.42123,7.853,-0.11816,-5.9717,60.155,2.4744,-0.8248,-1.949,3.2992,2.4291e-11,-0.97449,0,0,0.1,-0,-0,0.66667
0.02233,0.58435,0.2233,0.12653,16.79,872.97,-0.075345,0.025115,-1.9402,-0.10046,2.1641e-07,-0.97012,0,0,0.1,2.9606e-17,0,0.66667
0.32436,0.65355,3.2436,0.23033,27.358,481.22,-1.9923,0.66409,-1.8114,-2.6564,-7.6091e-12,-0.90572,0,0,0.1,-0,-0,0.66667
0.87292,0.19874,8.7292,-0.45189,-14.173,23.212,10.519,-3.5064,-1.2752,14.026,-5.592e-09,-0.63758,0,0,0.1,-0,-0,0.66667
0.84471,0.51017,8.4471,0.015252,0.57367,32.69,-0.34357,0.11452,-2.0024,-0.45809,-1.2194e-09,-1.0012,0,0,0.1,3.7896e-15,0,0.66667
0.53844,0.56601,5.3844,0.099019,9.3182,246.91,-1.4218,0.47392,-1.9629,-1.8957,-2.2482e-12,-0.98147,0,0,0.1,-0,-0,0.66667
0.86661,0.38999,8.6661,-0.16502,-5.3867,24.664,3.8135,-1.2712,-1.8999,5.0846,-4.2928e-09,-0.94997,0,0,0.1,1.8948e-15,0,0.66667
0.94981,0.8486,9.4981,0.52291,6.6667,5.1684,-13.244,4.4147,-1.028,-17.659,4.0963e-07,-0.51401,0,0,0.1,-0,-0,0.66667
0.82641,0.60697,8.2641,0.16046,6.6937,40.408,-3.5361,1.1787,-1.9102,-4.7147,2.8438e-10,-0.95508,0,0,0.1,1.8948e-15,0,0.66667
0.85412,0.52038,8.5412,0.030564,1.0845,29.067,-0.69615,0.23205,-1.9944,-0.9282,3.0212e-10,-0.99721,0,0,0.1,1.8948e-15,0,0.66667
0.098743,0.73637,0.98743,0.35456,46.653,770.48,-0.93362,0.31121,-1.5508,-1.2448,-4.0529e-08,-0.77541,0,0,0.1,-0,-0,0.66667
0.6513,0.435,6.513,-0.097499,-7.4295,148.24,1.6934,-0.56446,-1.9652,2.2578,-3.3384e-13,-0.98261,0,0,0.1,-1.1842e-15,0,0.66667
0.70352,0.62066,7.0352,0.18099,12.089,109.92,-3.3955,1.1318,-1.8885,-4.5274,-1.8769e-12,-0.94424,0,0,0.1,-0,-0,0.66667
0.61024,0.35589,6.1024,-0.21617,-17.973,181.88,3.5177,-1.1726,-1.8371,4.6903,-1.4506e-12,-0.91855,0,0,0.1,-0,-0,0.66667
0.79962,0.88475,7.9962,0.57712,27.612,53.985,-12.306,4.102,-0.81613,-16.408,2.4438e-10,-0.40807,0,0,0.1,-0,-0,0.66667
0.034571,0.93998,0.34571,0.65997,87.804,856.56,-0.60843,0.20281,-0.45197,-0.81125,-2.4293e-06,-0.22598,0,0,0.1,1.1842e-16,0,0.66667
0.77024,0.15509,7.7024,-0.51737,-27.899,69.167,10.627,-3.5422,-1.0478,14.169,-5.0413e-11,-0.52392,0,0,0.1,-9.4739e-16,0,0.66667
0.73173,0.61159,7.3173,0.16738,10.275,91.27,-3.2661,1.0887,-1.9007,-4.3547,-6.062e-12,-0.95035,0,0,0.1,-0,-0,0.66667
0.2597,0.55495,2.597,0.08243,10.202,560.9,-0.57085,0.19028,-1.9735,-0.76113,6.2032e-12,-0.98674,0,0,0.1,-0,-0,0.66667
0.25707,0.081222,2.5707,-0.62817,-78.111,564.66,4.3062,-1.4354,-0.59386,5.7416,2.785e-11,-0.29693,0,0,0.1,-0,-0,0.66667
0.6323,0.95857,6.323,0.68785,54.982,164.71,-11.598,3.8661,-0.31467,-15.464,-2.2009e-12,-0.15734,0,0,0.1,9.4739e-16,0,0.66667
0.3453,0.50138,3.453,0.0020751,0.24248,456.06,-0.019107,0.0063691,-2.0034,-0.025476,1.2546e-12,-1.0017,0,0,0.1,-1.8948e-15,0,0.66667
0.79659,0.49989,7.9659,-0.00016278,-0.0078366,54.309,0.0034579,-0.0011526,-2.006,0.0046105,-1.3471e-10,-1.003,0,0,0.1,7.4015e-18,0,0.66667
0.44615,0.54442,4.4615,0.066626,7.0766,341.35,-0.79266,0.26422,-1.9811,-1.0569,-3.5341e-12,-0.99053,0,0,0.1,-0,-0,0.66667
0.78275,0.6879,7.8275,0.28185,14.414,61.727,-5.8832,1.9611,-1.7212,-7.8443,-4.9515e-11,-0.8606,0,0,0.1,1.8948e-15,0,0.66667
0.99047,0.67713,9.9047,0.2657,0.53634,0.56637,-7.0178,2.3393,-1.7463,-9.3571,3.9297e-07,-0.87315,0,0,0.1,9.4739e-16,0,0.66667
0.30025,0.3487,3.0025,-0.22695,-27.412,510.57,1.8171,-0.6057,-1.817,2.4228,-6.3093e-12,-0.90851,0,0,0.1,9.4739e-16,0,0.66667
0.14301,0.21311,1.4301,-0.43034,-56.036,711.77,1.6411,-0.54703,-1.3429,2.1881,2.8907e-09,-0.67145,0,0,0.1,-0,-0,0.66667
0.90131,0.60768,9.0131,0.16153,3.9514,14.062,-3.8823,1.2941,-1.9051,-5.1764,2.3269e-08,-0.95253,0,0,0.1,-0,-0,0.66667
0.54156,0.77411,5.4156,0.41117,38.576,244.3,-5.938,1.9793,-1.3969,-7.9173,-2.8102e-12,-0.69847,0,0,0.1,4.737e-16,0,0.66667
0.97474,0.61732,9.7474,0.17598,1.0734,1.3355,-4.5743,1.5248,-1.8875,-6.0991,-3.2713e-07,-0.94374,0,0,0.1,-0,-0,0.66667
0.6366,0.46662,6.366,-0.050077,-3.9419,159.9,0.85011,-0.28337,-1.991,1.1335,6.1806e-13,-0.9955,0,0,0.1,-1.3027e-15,0,0.66667
0.99391,0.27526,9.9391,-0.3371,-0.38858,0.63756,8.9347,-2.9782,-1.5937,11.913,-1.0297e-06,-0.79686,0,0,0.1,-9.4739e-16,0,0.66667
0.54607,0.10574,5.4607,-0.59139,-55.209,240.44,8.6118,-2.8706,-0.75982,11.482,-9.4857e-13,-0.37991,0,0,0.1,-0,-0,0.66667
0.52643,0.39061,5.2643,-0.16408,-15.723,258.6,2.3034,-0.76779,-1.9022,3.0711,-9.2126e-13,-0.95109,0,0,0.1,-9.4739e-16,0,0.66667
0.13543,0.69224,1.3543,0.28837,37.6,721.72,-1.0414,0.34713,-1.7028,-1.3885,-5.6617e-09,-0.8514,0,0,0.1,-4.737e-16,0,0.66667
0.35571,0.048348,3.5571,-0.67748,-78.828,444.47,6.4262,-2.1421,-0.36711,8.5683,-8.5221e-13,-0.18355,0,0,0.1,-4.737e-16,-1.5282e-16,0.66667
0.026219,0.56508,0.26219,0.09762,12.951,867.73,-0.068252,0.022751,-1.9651,-0.091002,5.3303e-07,-0.98253,0,0,0.1,-0,-0,0.66667
0.1604,0.055937,1.604,-0.6661,-86.446,689.07,2.849,-0.94967,-0.42155,3.7987,-1.4682e-10,-0.21077,0,0,0.1,-2.3685e-16,0,0.66667
0.74564,0.14103,7.4564,-0.53846,-31.727,83.517,10.707,-3.5689,-0.9674,14.275,1.6108e-11,-0.4837,0,0,0.1,-0,-0,0.66667
0.0304,0.50571,0.304,0.0085664,1.1361,862.1,-0.0069446,0.0023168,-2.0036,-0.0092585,2.8994e-06,-1.0018,0,0,0.1,-0,-0,0.66667
0.36654,0.95013,3.6654,0.67519,77.855,431.77,-6.5996,2.1999,-0.37594,-8.7995,-4.4853e-13,-0.18797,0,0,0.1,-9.4739e-16,0,0.66667
0.86235,0.0080939,8.6235,-0.73786,-25.207,28.142,16.968,-5.6559,-0.064467,22.624,-2.5448e-08,-0.032234,0,0,0.1,-0,-0,0.66667
0.69268,0.3833,6.9268,-0.17505,-12.045,117.48,3.2333,-1.0778,-1.8891,4.3111,2.5513e-13,-0.94454,0,0,0.1,-0,-0,0.66667
0.69094,0.14015,6.9094,-0.53977,-37.459,119.51,9.9453,-3.3151,-0.96335,13.26,-9.0772e-13,-0.48167,0,0,0.1,-0,-0,0.66667
0.18864,0.91449,1.8864,0.62174,79.835,652.17,-3.1275,1.0425,-0.62861,-4.1701,1.2056e-09,-0.31431,0,0,0.1,-0,-0,0.66667
0.4419,0.37747,4.419,-0.18379,-19.619,346.01,2.1658,-0.72193,-1.8794,2.8877,-1.6651e-12,-0.93969,0,0,0.1,-0,-0,0.66667
0.58158,0.72005,5.8158,0.33007,28.969,207.09,-5.119,1.7063,-1.6133,-6.8254,6.5947e-13,-0.80666,0,0,0.1,-0,-0,0.66667
0.98975,0.53793,9.8975,0.056899,0.12169,0.29892,-1.5018,0.50058,-1.9866,-2.0023,-1.7441e-06,-0.99328,0,0,0.1,-0,-0,0.66667
0.20391,0.43516,2.0391,-0.097265,-12.374,632.07,0.52888,-0.17629,-1.9709,0.70517,3.3413e-11,-0.98545,0,0,0.1,1.1842e-16,0,0.66667
0.24773,0.10903,2.4773,-0.58645,-73.261,576.37,3.8742,-1.2914,-0.77798,5.1656,-4.2962e-11,-0.38899,0,0,0.1,-0,-0,0.66667
0.26217,0.87064,2.6217,0.55596,68.887,558.15,-3.8869,1.2956,-0.90114,-5.1825,5.3675e-11,-0.45057,0,0,0.1,2.3685e-16,0,0.66667
0.75017,0.16266,7.5017,-0.50601,-29.339,80.681,10.123,-3.3742,-1.0947,13.497,2.4272e-11,-0.54735,0,0,0.1,-0,-0,0.66667
0.45698,0.75884,4.5698,0.38826,40.792,330,-4.7314,1.5771,-1.4631,-6.3085,-3.5953e-12,-0.73157,0,0,0.1,-0,-0,0.66667
0.056929,0.63569,0.56929,0.20353,26.939,826.44,-0.30898,0.10299,-1.8503,-0.41197,-1.5185e-10,-0.92514,0,0,0.1,1.1842e-16,0,0.66667
0.50852,0.45822,5.0852,-0.062668,-6.1587,276.28,0.8498,-0.28327,-1.983,1.1331,-1.1555e-12,-0.9915,0,0,0.1,-0,-0,0.66667
0.21196,0.051528,2.1196,-0.67271,-85.588,622.1,3.8023,-1.2674,-0.38799,5.0698,7.3658e-10,-0.194,0,0,0.1,-0,-0,0.66667
0.7986,0.30729,7.986,-0.28906,-13.817,53.599,6.1559,-2.052,-1.7053,8.2078,1.628e-11,-0.85266,0,0,0.1,-9.4739e-16,0,0.66667
0.29733,0.52923,2.9733,0.043851,5.3044,514.09,-0.34768,0.11589,-1.9984,-0.46358,-7.9372e-12,-0.9992,0,0,0.1,3.5527e-16,0,0.66667
0.027606,0.46876,0.27606,-0.046866,-6.2168,865.87,0.034501,-0.011499,-1.9929,0.046002,1.3876e-06,-0.99647,0,0,0.1,-0,-0,0.66667
0.59343,0.62718,5.9343,0.19077,16.374,196.38,-3.0189,1.0063,-1.8761,-4.0252,9.8699e-13,-0.93804,0,0,0.1,-0,-0,0.66667
0.84384,0.30896,8.4384,-0.28656,-10.859,33.342,6.4483,-2.1494,-1.7137,8.5977,-1.4415e-09,-0.85686,0,0,0.1,-4.737e-16,0,0.66667
0.38102,0.89776,3.8102,0.59664,67.875,414.82,-6.0621,2.0207,-0.7318,-8.0828,-4.361e-12,-0.3659,0,0,0.1,4.737e-16,0,0.66667
0.74986,0.95443,7.4986,0.68164,39.712,81.564,-13.63,4.5434,-0.35255,-18.174,3.0478e-11,-0.17627,0,0,0.1,-0,-0,0.66667
0.51114,0.4202,5.1114,-0.11969,-11.721,273.68,1.6315,-0.54382,-1.9473,2.1753,-5.5045e-12,-0.97364,0,0,0.1,-0,-0,0.66667
0.54095,0.70737,5.4095,0.31106,29.188,244.71,-4.4871,1.4957,-1.6533,-5.9829,-1.8918e-12,-0.82665,0,0,0.1,-0,-0,0.66667
0.95943,0.57324,9.5943,0.10986,1.1016,2.7905,-2.8107,0.93689,-1.9543,-3.7476,2.1196e-08,-0.97714,0,0,0.1,-0,-0,0.66667
0.80396,0.57202,8.0396,0.10803,5.0321,50.712,-2.316,0.772,-1.9556,-3.088,6.8659e-11,-0.97778,0,0,0.1,1.8948e-15,0,0.66667
0.032323,0.24778,0.32323,-0.37832,-50.226,859.54,0.3261,-0.1087,-1.4951,0.4348,-6.6351e-07,-0.74756,0,0,0.1,5.9212e-17,0,0.66667
0.70939,0.71073,7.0939,0.3161,20.786,106.13,-5.9797,1.9932,-1.6422,-7.9729,-4.2859e-12,-0.82109,0,0,0.1,4.737e-16,0,0.66667
0.465,0.32335,4.65,-0.26497,-27.555,321.3,3.2856,-1.0952,-1.7494,4.3809,-3.9519e-12,-0.87472,0,0,0.1,-0,-0,0.66667
0.94755,0.90312,9.4755,0.60468,8.1123,5.8869,-15.279,5.093,-0.69843,-20.372,-8.411e-07,-0.34922,0,0,0.1,1.4648e-15,0,0.66667
0.22143,0.92424,2.2143,0.63635,80.583,609.9,-3.7576,1.2525,-0.56045,-5.0101,5.8502e-11,-0.28023,0,0,0.1,-2.3685e-16,0,0.66667
0.26707,0.027346,2.6707,-0.70898,-87.744,552.24,5.0493,-1.6831,-0.21586,6.7324,-1.7691e-11,-0.10793,0,0,0.1,-0,-0,0.66667
0.081474,0.59929,0.81474,0.14893,19.642,793.52,-0.32357,0.10786,-1.9212,-0.43142,-3.8725e-08,-0.96061,0,0,0.1,2.3685e-16,0,0.66667
0.42862,0.26328,4.2862,-0.35508,-38.486,360.73,4.0585,-1.3528,-1.5486,5.4114,-8.0158e-13,-0.77431,0,0,0.1,-0,-0,0.66667
0.10902,0.46135,1.0902,-0.057968,-7.6036,756.73,0.16852,-0.056174,-1.9927,0.2247,-2.8473e-09,-0.99633,0,0,0.1,-0,-0,0.66667
0.63379,0.33156,6.3379,-0.25267,-20.026,162.36,4.2703,-1.4234,-1.7699,5.6938,8.9306e-13,-0.88497,0,0,0.1,-9.4739e-16,0,0.66667
0.80296,0.89313,8.0296,0.58969,27.8,52.397,-12.627,4.2089,-0.76077,-16.836,1.3205e-09,-0.38039,0,0,0.1,-0,-0,0.66667
0.6968,0.209,6.968,-0.4365,-29.774,115.07,8.1108,-2.7036,-1.3198,10.814,6.9544e-13,-0.6599,0,0,0.1,-9.4739e-16,0,0.66667
0.76621,0.18089,7.6621,-0.47867,-26.188,71.289,9.7802,-3.2601,-1.1896,13.04,5.4142e-11,-0.5948,0,0,0.1,9.4739e-16,0,0.66667
0.34245,0.071596,3.4245,-0.64261,-75.533,460.08,5.8684,-1.9561,-0.53444,7.8245,-1.1462e-12,-0.26722,0,0,0.1,-9.4739e-16,0,0.66667
0.84585,0.9988,8.4585,0.74821,28.383,34.343,-16.877,5.6255,-0.012076,-22.502,-6.4932e-09,-0.0060378,0,0,0.1,-2.4869e-15,0,0.66667
0.42877,0.20554,4.2877,-0.44169,-47.897,360.69,5.0502,-1.6834,-1.3032,6.7336,3.3751e-14,-0.65161,0,0,0.1,-0,-0,0.66667
0.82401,0.509,8.2401,0.013498,0.56985,41.368,-0.2966,0.098867,-1.9982,-0.39547,-1.1436e-11,-0.9991,0,0,0.1,-0,-0,0.66667
0.6265,0.23424,6.265,-0.39864,-32.123,168.58,6.6599,-2.22,-1.437,8.8799,8.1579e-13,-0.7185,0,0,0.1,-9.4739e-16,0,0.66667
0.14342,0.33686,1.4342,-0.2447,-31.828,711.14,0.9359,-0.31197,-1.7877,1.2479,3.2466e-09,-0.89385,0,0,0.1,-0,-0,0.66667
0.078387,0.42365,0.78387,-0.11453,-15.112,797.65,0.23941,-0.079802,-1.9577,0.31921,3.778e-08,-0.97885,0,0,0.1,-0,-0,0.66667
0.018333,0.35307,0.18333,-0.2204,-29.259,878.36,0.10775,-0.035916,-1.8278,0.14366,-2.5704e-07,-0.91388,0,0,0.1,-0,-0,0.66667
0.066725,0.97154,0.66725,0.70731,93.842,813.42,-1.2585,0.41951,-0.2208,-1.678,-7.3649e-07,-0.1104,0,0,0.1,-0,-0,0.66667
0.45858,0.0013703,4.5858,-0.74794,-78.751,329.12,9.1465,-3.0488,-0.0098262,12.195,-3.336e-12,-0.0049131,0,0,0.1,-0,-0,0.66667
0.11334,0.96778,1.1334,0.70167,92.304,751.22,-2.1208,0.70693,-0.24963,-2.8277,-2.6645e-08,-0.12481,0,0,0.1,-2.9606e-17,0,0.66667
0.027783,0.34728,0.27783,-0.22908,-30.399,865.63,0.16972,-0.056574,-1.8137,0.2263,-4.8687e-07,-0.90684,0,0,0.1,-0,-0,0.66667
0.75486,0.18688,7.5486,-0.46968,-26.773,77.789,9.4545,-3.1515,-1.2151,12.606,-1.6742e-11,-0.60755,0,0,0.1,-1.125e-15,0,0.66667
0.39485,0.25428,3.9485,-0.36858,-41.319,398.59,3.8809,-1.2936,-1.5163,5.1745,-2.0342e-12,-0.75816,0,0,0.1,-0,-0,0.66667
0.74694,0.36221,7.4694,-0.20668,-12.071,81.911,4.1167,-1.3722,-1.8479,5.489,1.1701e-11,-0.92395,0,0,0.1,-0,-0,0.66667
0.4524,0.14295,4.524,-0.53558,-56.642,335.17,6.4613,-2.1538,-0.98356,8.6151,-5.6319e-12,-0.49178,0,0,0.1,-0,-0,0.66667
0.45009,0.72696,4.5009,0.34044,36.039,337.32,-4.0861,1.362,-1.588,-5.4481,-4.3117e-12,-0.79402,0,0,0.1,-0,-0,0.66667
0.47807,0.38599,4.7807,-0.17101,-17.495,307.48,2.1801,-0.7267,-1.8932,2.9068,-4.1886e-12,-0.9466,0,0,0.1,-0,-0,0.66667
0.474,0.36327,4.74,-0.2051,-21.092,311.76,2.5925,-0.86416,-1.8481,3.4567,-4.1342e-12,-0.92406,0,0,0.1,-4.737e-16,0,0.66667
0.80316,0.22394,8.0316,-0.4141,-19.429,51.671,8.869,-2.9563,-1.3881,11.825,-1.1021e-11,-0.69405,0,0,0.1,-0,-0,0.66667
0.40239,0.26003,4.0239,-0.35996,-40.061,390.02,3.8625,-1.2875,-1.5383,5.15,-2.7245e-12,-0.76917,0,0,0.1,-0,-0,0.66667
0.90469,0.54607,9.0469,0.069107,1.6328,13.098,-1.6672,0.55574,-1.9849,-2.2229,1.425e-08,-0.99247,0,0,0.1,-0,-0,0.66667
0.037061,0.36103,0.37061,-0.20845,-27.643,853.14,0.20601,-0.06867,-1.8428,0.27468,-1.946e-07,-0.92139,0,0,0.1,5.9212e-17,0,0.66667
0.77387,0.022193,7.7387,-0.71671,-38.295,68.008,14.791,-4.9302,-0.17065,19.721,5.057e-11,-0.085325,0,0,0.1,-0,-0,0.66667
0.12564,0.30208,1.2564,-0.29688,-38.812,734.68,0.99466,-0.33155,-1.6904,1.3262,9.658e-09,-0.8452,0,0,0.1,-0,-0,0.66667
0.61851,0.73591,6.1851,0.35386,28.971,175.12,-5.8365,1.9455,-1.5518,-7.782,2.5429e-12,-0.77588,0,0,0.1,-7.3247e-16,0,0.66667
0.010364,0.67108,0.10364,0.25662,34.08,889.09,-0.070924,0.023641,-1.7634,-0.094565,-3.1002e-07,-0.88172,0,0,0.1,-0,-0,0.66667
0.53863,0.61673,5.3863,0.1751,16.477,246.78,-2.515,0.83833,-1.8881,-3.3533,-1.4921e-12,-0.94406,0,0,0.1,-4.737e-16,0,0.66667
0.003018,0.17081,0.03018,-0.49378,-65.674,898.99,0.039737,-0.013245,-1.1329,0.052983,1.5355e-06,-0.56644,0,0,0.1,-0,2.3575e-16,0.66667
0.95119,0.70633,9.5119,0.30949,3.7799,4.2208,-7.8503,2.6168,-1.6608,-10.467,-7.7865e-09,-0.83042,0,0,0.1,-0,-0,0.66667
0.9054,0.10992,9.054,-0.58512,-13.929,14.273,14.127,-4.7091,-0.78589,18.836,-8.2514e-08,-0.39294,0,0,0.1,-1.8948e-15,1.1828e-16,0.66667
0.79597,0.86274,7.9597,0.54411,26.434,55.669,-11.549,3.8497,-0.95051,-15.399,-9.9835e-11,-0.47526,0,0,0.1,-9.4739e-16,-1.3116e-16,0.66667
0.91527,0.80119,9.1527,0.45178,9.6069,11.331,-11.027,3.6756,-1.2713,-14.702,3.2809e-08,-0.63567,0,0,0.1,-9.4739e-16,0,0.66667
0.14556,0.38076,1.4556,-0.17885,-23.244,708.31,0.69423,-0.23141,-1.8848,0.92565,2.3511e-09,-0.94238,0,0,0.1,-0,-0,0.66667
0.15773,0.45044,1.5773,-0.074336,-9.6219,692.26,0.31267,-0.10422,-1.9825,0.41689,3.7424e-10,-0.99123,0,0,0.1,-0,-0,0.66667
0.18763,0.90376,1.8763,0.60564,77.786,653.46,-3.0303,1.0101,-0.70162,-4.0404,2.973e-09,-0.35081,0,0,0.1,1.1842e-16,0,0.66667
0.6225,0.46076,6.225,-0.058862,-4.7729,171.46,0.9771,-0.3257,-1.9886,1.3028,9.9981e-13,-0.99428,0,0,0.1,-0,-0,0.66667
0.90581,0.9188,9.0581,0.62819,14.926,14.381,-15.174,5.058,-0.60091,-20.232,1.1622e-07,-0.30045,0,0,0.1,-0,-0,0.66667
0.98996,0.98044,9.8996,0.72066,1.8884,2.5614,-19.025,6.3416,-0.15108,-25.366,6.6361e-05,-0.075539,0,0,0.1,-0,-0,0.66667
0.71112,0.40281,7.1112,-0.14579,-9.5265,104.71,2.7646,-0.92152,-1.9222,3.6861,9.8654e-13,-0.9611,0,0,0.1,-0,-0,0.66667
0.7318,0.74508,7.318,0.36762,22.604,91.573,-7.174,2.3913,-1.5207,-9.5654,-9.2406e-12,-0.76033,0,0,0.1,9.4739e-16,0,0.66667
0.90929,0.85251,9.0929,0.52876,12.055,13.053,-12.821,4.2738,-1.006,-17.095,3.3119e-08,-0.50299,0,0,0.1,-0,-0,0.66667
0.40087,0.68436,4.0087,0.27654,30.808,391.65,-2.9562,0.98541,-1.7267,-3.9417,-8.8178e-12,-0.86334,0,0,0.1,2.3685e-16,0,0.66667
0.24985,0.15918,2.4985,-0.51123,-63.749,573.6,3.4062,-1.1354,-1.0764,4.5416,-3.1374e-11,-0.5382,0,0,0.1,-0,-9.726e-17,0.66667
0.17343,0.79035,1.7343,0.43553,56.156,671.82,-2.0142,0.67142,-1.3278,-2.6857,-1.8975e-10,-0.6639,0,0,0.1,-0,-0,0.66667
0.11946,0.97041,1.1946,0.70561,92.692,743.11,-2.2477,0.74925,-0.22849,-2.997,2.99e-07,-0.11424,0,0,0.1,-0,-0,0.66667
0.81261,0.84334,8.1261,0.51501,23.165,47.508,-11.16,3.72,-1.0632,-14.88,-4.7412e-10,-0.5316,0,0,0.1,-2.3389e-15,0,0.66667
0.14679,0.13326,1.4679,-0.55011,-71.619,706.86,2.1534,-0.71779,-0.92149,2.8712,1.8406e-09,-0.46074,0,0,0.1,-4.737e-16,0,0.66667
0.2643,0.72521,2.643,0.33782,41.739,555.25,-2.3809,0.79363,-1.5972,-3.1745,5.5134e-13,-0.79858,0,0,0.1,-0,-0,0.66667
0.81909,0.31561,8.1909,-0.27658,-11.997,43.848,6.0413,-2.0138,-1.726,8.055,-1.2891e-10,-0.86301,0,0,0.1,-0,-0,0.66667
0.31059,0.5345,3.1059,0.051749,6.2042,497.86,-0.4286,0.14287,-1.9929,-0.57146,-3.0534e-12,-0.99645,0,0,0.1,-0,-0,0.66667
0.98242,0.3513,9.8242,-0.22306,-0.91803,0.87617,5.8436,-1.9479,-1.8248,7.7915,2.1483e-07,-0.91242,0,0,0.1,-0,-0,0.66667
0.26664,0.95957,2.6664,0.68936,85.317,552.75,-4.9016,1.6339,-0.31351,-6.5355,3.0504e-12,-0.15675,0,0,0.1,2.3685e-16,0,0.66667
0.53365,0.017028,5.3365,-0.72446,-69.057,252.75,10.31,-3.4365,-0.13454,13.746,8.0025e-13,-0.06727,0,0,0.1,-0,-0,0.66667
0.31447,0.73063,3.1447,0.34595,41.406,493.3,-2.9011,0.96702,-1.5758,-3.8681,-2.2486e-12,-0.78792,0,0,0.1,-4.737e-16,0,0.66667
0.91077,0.55158,9.1077,0.07737,1.7141,11.588,-1.8791,0.62637,-1.977,-2.5055,1.7391e-08,-0.98852,0,0,0.1,9.4739e-16,0,0.66667
0.36656,0.39116,3.6656,-0.16327,-18.753,431.05,1.5959,-0.53197,-1.902,2.1279,-2.0469e-12,-0.951,0,0,0.1,3.9605e-17,0,0.66667
0.43359,0.8565,4.3359,0.53476,57.743,355.57,-6.1831,2.061,-0.98205,-8.2441,1.3172e-12,-0.49102,0,0,0.1,-0,-0,0.66667
0.51229,0.034253,5.1229,-0.69862,-68.649,273.61,9.5439,-3.1813,-0.26515,12.725,4.8592e-12,-0.13257,0,0,0.1,-0,4.2242e-17,0.66667
0.93889,0.72753,9.3889,0.34129,5.2341,6.2301,-8.5448,2.8483,-1.5884,-11.393,1.0859e-07,-0.7942,0,0,0.1,-0,-0,0.66667
0.030949,0.36445,0.30949,-0.20332,-26.974,861.37,0.1678,-0.055934,-1.8574,0.22374,-3.4415e-07,-0.92872,0,0,0.1,-2.9606e-17,0,0.66667
0.71688,0.31476,7.1688,-0.27786,-17.868,101.05,5.3117,-1.7706,-1.7282,7.0823,-7.0344e-13,-0.86409,0,0,0.1,1.8948e-15,0,0.66667
0.89102,0.85273,8.9102,0.52909,14.383,17.913,-12.571,4.1905,-1.009,-16.762,1.5005e-08,-0.50452,0,0,0.1,-0,-0,0.66667
0.027287,0.27446,0.27287,-0.33831,-44.917,866.31,0.24617,-0.082058,-1.5923,0.32823,-1.0844e-06,-0.79615,0,0,0.1,2.9606e-17,0,0.66667
0.52205,0.92251,5.2205,0.63376,61.366,263.76,-8.8229,2.941,-0.56887,-11.764,-9.5035e-14,-0.28443,0,0,0.1,-9.4739e-16,0,0.66667
0.32599,0.33953,3.2599,-0.2407,-28.557,479.26,2.0924,-0.69747,-1.7959,2.7899,-3.6078e-12,-0.89796,0,0,0.1,1.1842e-16,0,0.66667
0.85949,0.25559,8.5949,-0.36662,-12.609,27.595,8.4028,-2.8009,-1.5274,11.204,-3.6636e-09,-0.76371,0,0,0.1,-0,-0,0.66667
0.55852,0.69003,5.5852,0.28504,26.008,228.09,-4.2454,1.4151,-1.711,-5.6605,-1.3816e-12,-0.85549,0,0,0.1,-0,-0,0.66667
0.69023,0.86982,6.9023,0.55472,38.579,120.07,-10.21,3.4034,-0.90682,-13.614,5.83e-12,-0.45341,0,0,0.1,-1.4211e-15,0,0.66667
0.45285,0.65775,4.5285,0.23663,24.956,334.22,-2.8576,0.95252,-1.8066,-3.8101,-2.3228e-12,-0.9033,0,0,0.1,-0,-0,0.66667
0.62831,0.027557,6.2831,-0.70866,-57.143,168.05,11.874,-3.9579,-0.2148,15.831,6.3416e-13,-0.1074,0,0,0.1,-4.737e-16,0,0.66667
0.2901,0.20927,2.901,-0.4361,-53.084,523.25,3.3736,-1.1245,-1.3209,4.4981,-2.9401e-12,-0.66046,0,0,0.1,2.3685e-16,0,0.66667
0.0093486,0.28707,0.093486,-0.31939,-42.429,890.46,0.079622,-0.02654,-1.635,0.10616,5.2232e-07,-0.8175,0,0,0.1,-0,-0,0.66667
0.57676,0.2741,5.7676,-0.33885,-29.994,211.44,5.2115,-1.7372,-1.5945,6.9487,-1.5357e-12,-0.79726,0,0,0.1,-4.737e-16,0,0.66667
0.31144,0.92233,3.1144,0.6335,76.168,497.37,-5.2613,1.7538,-0.57587,-7.0151,2.6255e-12,-0.28794,0,0,0.1,-0,1.1832e-16,0.66667
0.51727,0.83517,5.1727,0.50275,48.936,268.13,-6.9348,2.3116,-1.1034,-9.2464,-3.5656e-12,-0.55172,0,0,0.1,-0,-0,0.66667
0.91641,0.69139,9.1641,0.28708,5.9892,10.578,-7.0156,2.3385,-1.7054,-9.3541,5.8862e-08,-0.85269,0,0,0.1,-0,-0,0.66667
0.42647,0.36825,4.2647,-0.19762,-21.45,362.93,2.2475,-0.74916,-1.8598,2.9966,-2.9658e-12,-0.92989,0,0,0.1,-4.737e-16,0,0.66667
0.2474,0.070582,2.474,-0.64413,-80.529,576.87,4.2495,-1.4165,-0.52553,5.6659,3.8951e-12,-0.26277,0,0,0.1,-4.737e-16,-9.8742e-17,0.66667
0.37129,0.12777,3.7129,-0.55835,-64.038,426,5.5283,-1.8428,-0.89166,7.3711,-1.2736e-12,-0.44583,0,0,0.1,-0,-0,0.66667
0.93186,0.72999,9.3186,0.34499,5.8963,7.5082,-8.5729,2.8576,-1.5743,-11.43,1.4569e-07,-0.78715,0,0,0.1,1.8948e-15,0,0.66667
0.93687,0.75732,9.3687,0.38599,6.1274,6.717,-9.6431,3.2144,-1.4744,-12.858,1.5846e-07,-0.73718,0,0,0.1,-0,-0,0.66667
0.84433,0.12589,8.4433,-0.56116,-21.338,34.021,12.635,-4.2116,-0.88556,16.846,-1.82e-09,-0.44278,0,0,0.1,3.7896e-15,0,0.66667
0.92021,0.14392,9.2021,-0.53411,-10.758,10.561,13.107,-4.3688,-0.98751,17.475,-3.0903e-08,-0.49375,0,0,0.1,-9.4739e-16,-1.8423e-17,0.66667
0.2279,0.25044,2.279,-0.37434,-47.156,601.36,2.275,-0.75833,-1.5003,3.0333,-4.9323e-11,-0.75016,0,0,0.1,9.4739e-16,0,0.66667
0.087482,0.79664,0.87482,0.44496,58.706,785.55,-1.038,0.34601,-1.2931,-1.384,-2.3102e-08,-0.64654,0,0,0.1,-0,-0,0.66667
0.22731,0.21676,2.2731,-0.42486,-53.552,602.16,2.5753,-0.85844,-1.3563,3.4338,-1.788e-11,-0.67815,0,0,0.1,-0,-0,0.66667
0.31438,0.036855,3.1438,-0.69472,-83.417,493.92,5.8241,-1.9414,-0.28609,7.7654,5.7954e-13,-0.14305,0,0,0.1,-0,-0,0.66667
0.17477,0.82128,1.7477,0.48193,62.129,670.11,-2.246,0.74866,-1.1745,-2.9946,-6.838e-11,-0.58724,0,0,0.1,-0,-0,0.66667
0.60709,0.98884,6.0709,0.73326,61.716,185.89,-11.871,3.957,-0.089204,-15.828,4.3316e-12,-0.044602,0,0,0.1,-9.4739e-16,1.0874e-16,0.66667
0.41359,0.46434,4.1359,-0.053489,-5.8809,377.2,0.58993,-0.19664,-1.9875,0.78657,-2.3765e-12,-0.99373,0,0,0.1,-4.737e-16,0,0.66667
0.81635,0.66144,8.1635,0.24216,10.644,45.03,-5.2718,1.7573,-1.7911,-7.029,1.3993e-10,-0.89553,0,0,0.1,-0,-0,0.66667
0.18513,0.28239,1.8513,-0.32641,-41.876,656.5,1.6114,-0.53715,-1.6233,2.1486,4.0793e-11,-0.81165,0,0,0.1,-4.737e-16,0,0.66667
0.70188,0.46054,7.0188,-0.059197,-3.9703,110.96,1.108,-0.36932,-1.9904,1.4773,-2.0861e-13,-0.99519,0,0,0.1,-0,-0,0.66667
0.24036,0.46871,2.4036,-0.046935,-5.8692,585.35,0.30083,-0.10028,-1.991,0.40111,3.4877e-12,-0.99552,0,0,0.1,1.7023e-16,0,0.66667
0.57422,0.32472,5.7422,-0.26292,-23.362,213.62,4.0259,-1.342,-1.7531,5.3679,-2.6317e-12,-0.87653,0,0,0.1,9.4739e-16,0,0.66667
0.34899,0.81063,3.4899,0.46594,54.392,452.02,-4.3362,1.4454,-1.227,-5.7816,-1.8234e-12,-0.61351,0,0,0.1,-1.1842e-16,0,0.66667
0.056964,0.93735,0.56964,0.65602,87.095,826.49,-0.99652,0.33218,-0.46891,-1.3287,3.5413e-06,-0.23446,0,0,0.1,-1.5543e-16,0,0.66667
0.22881,0.50881,2.2881,0.013219,1.6626,600.05,-0.08066,0.026887,-1.9971,-0.10755,-1.6215e-11,-0.99855,0,0,0.1,-9.4739e-16,0,0.66667
0.6641,0.47164,6.641,-0.042542,-3.1459,138.36,0.75339,-0.25113,-1.9914,1.0045,-1.1959e-12,-0.99571,0,0,0.1,-0,-0,0.66667
0.49725,0.51585,4.9725,0.023772,2.372,287.66,-0.31521,0.10507,-1.9981,-0.42028,-6.1873e-12,-0.99906,0,0,0.1,-0,-0,0.66667
0.51902,0.75746,5.1902,0.3862,37.456,266.16,-5.3451,1.7817,-1.4695,-7.1268,-3.4608e-12,-0.73475,0,0,0.1,-0,-0,0.66667
0.17472,0.54071,1.7472,0.06106,7.8574,669.99,-0.28449,0.09483,-1.987,-0.37932,-1.077e-10,-0.99351,0,0,0.1,4.737e-16,0,0.66667
0.57072,0.46964,5.7072,-0.045534,-4.0672,216.64,0.69298,-0.23099,-1.9909,0.92398,3.7536e-12,-0.99544,0,0,0.1,-1.8948e-15,0,0.66667
0.99675,0.161,9.9675,-0.50851,-0.27923,1.2056,13.516,-4.5054,-1.0809,18.021,-1.473e-06,-0.54047,0,0,0.1,-0,-0,0.66667
0.81684,0.28888,8.1684,-0.31667,-13.899,44.96,6.8978,-2.2993,-1.6422,9.1971,-7.7764e-11,-0.82111,0,0,0.1,-1.8948e-15,0,0.66667
0.59437,0.87103,5.9437,0.55654,47.844,196.28,-8.8211,2.9404,-0.90327,-11.762,1.0845e-12,-0.45164,0,0,0.1,4.737e-16,0,0.66667
0.97599,0.78684,9.7599,0.43026,2.5534,1.9057,-11.198,3.7327,-1.3393,-14.931,-2.3877e-06,-0.66963,0,0,0.1,-0,-0,0.66667
0.90156,0.92953,9.0156,0.64429,15.982,15.554,-15.49,5.1633,-0.52249,-20.653,-1.2756e-07,-0.26124,0,0,0.1,-0,-0,0.66667
0.59561,0.018087,5.9561,-0.72287,-62.161,195.76,11.481,-3.8271,-0.14357,15.308,1.1315e-12,-0.071784,0,0,0.1,-0,-0,0.66667
0.032426,0.49057,0.32426,-0.014143,-1.8755,859.38,0.01223,-0.0040775,-2.0021,0.016306,-1.1873e-06,-1.0011,0,0,0.1,5.9212e-17,0,0.66667
0.093577,0.53087,0.93577,0.046298,6.0921,777.32,-0.11553,0.03851,-1.9985,-0.15404,-4.4474e-08,-0.99925,0,0,0.1,1.2583e-16,0,0.66667
0.065372,0.033657,0.65372,-0.69951,-92.817,815.23,1.2194,-0.40648,-0.2614,1.6259,-1.3611e-06,-0.1307,0,0,0.1,2.3685e-16,0,0.66667
0.45173,0.72381,4.5173,0.33571,35.47,335.54,-4.044,1.348,-1.6023,-5.392,-2.2942e-12,-0.80114,0,0,0.1,-0,-0,0.66667
0.37543,0.69553,3.7543,0.29329,33.448,420.82,-2.9363,0.97876,-1.6985,-3.915,-3.4555e-12,-0.84927,0,0,0.1,-0,-0,0.66667
0.97535,0.64852,9.7535,0.22279,1.3279,1.3678,-5.7945,1.9315,-1.8209,-7.726,-4.8243e-07,-0.91044,0,0,0.1,-0,-0,0.66667
0.16798,0.89582,1.6798,0.59373,76.8,679.07,-2.6596,0.88654,-0.74558,-3.5462,-5.8433e-09,-0.37279,0,0,0.1,-0,-0,0.66667
0.97279,0.56419,9.7279,0.09629,0.63398,1.4039,-2.4978,0.83261,-1.967,-3.3305,-5.4757e-07,-0.9835,0,0,0.1,-0,-0,0.66667
0.76747,0.86915,7.6747,0.55372,30.196,70.843,-11.332,3.7775,-0.91197,-15.11,-1.9044e-10,-0.45599,0,0,0.1,4.737e-16,0,0.66667
0.82424,0.22624,8.2424,-0.41063,-17.387,41.884,9.0256,-3.0085,-1.3997,12.034,-1.4471e-10,-0.69985,0,0,0.1,-1.8948e-15,0,0.66667
0.63262,0.8604,6.3262,0.54059,43.081,163.95,-9.1197,3.0399,-0.95765,-12.16,-2.558e-13,-0.47882,0,0,0.1,1.9822e-16,0,0.66667
0.66873,0.36484,6.6873,-0.20274,-14.834,134.98,3.6155,-1.2052,-1.8537,4.8207,7.1232e-13,-0.92684,0,0,0.1,-9.4739e-16,0,0.66667
0.47688,0.74241,4.7688,0.36361,37.294,308.94,-4.624,1.5413,-1.5271,-6.1653,3.6371e-13,-0.76354,0,0,0.1,-0,-0,0.66667
0.013136,0.46859,0.13136,-0.047109,-6.2528,885.35,0.016502,-0.005503,-1.9943,0.022002,-3.34e-06,-0.99714,0,0,0.1,-1.8504e-18,0,0.66667
0.35301,0.94008,3.5301,0.66012,76.962,447.61,-6.2141,2.0714,-0.44881,-8.2854,4.2086e-12,-0.2244,0,0,0.1,-0,-0,0.66667
0.49207,0.4744,4.9207,-0.038396,-3.8575,292.95,0.50383,-0.16794,-1.9922,0.67177,2.4027e-12,-0.99609,0,0,0.1,-0,-0,0.66667
0.73009,0.85606,7.3009,0.53409,33.1,93.144,-10.398,3.4661,-0.98423,-13.864,-9.4946e-13,-0.49211,0,0,0.1,-0,-0,0.66667
0.46863,0.0050218,4.6863,-0.74247,-77.246,318.47,9.2784,-3.0928,-0.045364,12.371,7.4873e-13,-0.022682,0,0,0.1,-0,-6.3889e-17,0.66667
0.4574,0.88319,4.574,0.57479,60.466,329.91,-7.011,2.337,-0.82408,-9.3479,-6.0085e-13,-0.41204,0,0,0.1,-0,-0,0.66667
0.13766,0.26484,1.3766,-0.35274,-45.981,718.79,1.2949,-0.43164,-1.5574,1.7266,4.6224e-09,-0.77872,0,0,0.1,-0,-0,0.66667
0.010889,0.68672,0.10889,0.28008,37.199,888.39,-0.081327,0.027109,-1.7206,-0.10844,-2.8859e-07,-0.8603,0,0,0.1,-3.7007e-18,0,0.66667
0.75828,0.83746,7.5828,0.50619,28.524,75.916,-10.235,3.4118,-1.0863,-13.647,-4.1461e-11,-0.54317,0,0,0.1,4.737e-16,0,0.66667
0.31995,0.86043,3.1995,0.54065,64.556,486.89,-4.6129,1.5376,-0.95744,-6.1505,1.5223e-12,-0.47872,0,0,0.1,4.737e-16,0,0.66667
0.98438,0.31945,9.8438,-0.27082,-0.98162,0.86559,7.1092,-2.3697,-1.7446,9.4789,1.4773e-07,-0.87229,0,0,0.1,-0,-0,0.66667
0.22023,0.4353,2.2023,-0.097057,-12.258,611.05,0.57001,-0.19,-1.9698,0.76001,-3.5696e-11,-0.98491,0,0,0.1,-2.3685e-16,0,0.66667
0.33871,0.50907,3.3871,0.013607,1.5982,463.92,-0.12291,0.040969,-1.9974,-0.16387,-5.3259e-12,-0.99869,0,0,0.1,-0,-0,0.66667
0.5239,0.61367,5.239,0.17051,16.401,261.08,-2.3821,0.79405,-1.8935,-3.1762,-2.5808e-12,-0.94675,0,0,0.1,-0,-0,0.66667
0.75489,0.0091619,7.5489,-0.73626,-42.21,78.85,14.821,-4.9404,-0.070771,19.762,-1.9691e-11,-0.035386,0,0,0.1,3.7896e-15,0,0.66667
0.46386,0.37444,4.6386,-0.18835,-19.607,322.44,2.3298,-0.77659,-1.8733,3.1064,-9.6489e-12,-0.93666,0,0,0.1,4.1448e-16,0,0.66667
0.12482,0.28014,1.2482,-0.32978,-43.131,735.78,1.0977,-0.36591,-1.6193,1.4636,9.9396e-09,-0.80964,0,0,0.1,1.0362e-16,0,0.66667
0.3125,0.29996,3.125,-0.30006,-35.954,495.65,2.5005,-0.8335,-1.6848,3.334,-4.2066e-12,-0.8424,0,0,0.1,4.737e-16,0,0.66667
0.50452,0.52287,5.0452,0.034305,3.3897,280.29,-0.46153,0.15384,-1.9943,-0.61537,-1.2279e-12,-0.99717,0,0,0.1,-0,-0,0.66667
0.67385,0.31868,6.7385,-0.27198,-19.66,131.25,4.8873,-1.6291,-1.7389,6.5164,-6.5015e-13,-0.86944,0,0,0.1,-0,-0,0.66667
0.77015,0.54256,7.7015,0.063843,3.4264,68.314,-1.3112,0.43705,-1.9838,-1.7482,-1.8269e-11,-0.9919,0,0,0.1,-0,-0,0.66667
0.13034,0.17934,1.3034,-0.48099,-62.877,728.55,1.6717,-0.55724,-1.1754,2.229,6.8425e-09,-0.58768,0,0,0.1,1.1842e-16,0,0.66667
0.022915,0.35841,0.22915,-0.21238,-28.189,872.19,0.12978,-0.04326,-1.8364,0.17304,-4.2736e-07,-0.91819,0,0,0.1,-0,-0,0.66667
0.51908,0.0024929,5.1908,-0.74626,-72.687,267.04,10.33,-3.4433,-0.020347,13.773,-3.8547e-13,-0.010174,0,0,0.1,-0,-0,0.66667
0.80999,0.020865,8.0999,-0.7187,-32.922,49.641,15.524,-5.1746,-0.16409,20.698,3.8131e-11,-0.082047,0,0,0.1,-0,-1.0511e-16,0.66667
0.012604,0.45379,0.12604,-0.069322,-9.2014,886.07,0.023299,-0.0077673,-1.9827,0.031065,-1.2105e-06,-0.99135,0,0,0.1,1.4803e-17,0,0.66667
0.67247,0.055898,6.7247,-0.66615,-48.572,133.38,11.946,-3.9819,-0.42642,15.928,1.0116e-12,-0.21321,0,0,0.1,-9.4739e-16,0,0.66667
0.68681,0.435,6.8681,-0.097497,-6.8117,121.6,1.7856,-0.59522,-1.9709,2.3809,-1.0365e-12,-0.98544,0,0,0.1,4.737e-16,0,0.66667
0.44925,0.28739,4.4925,-0.31891,-33.787,338.2,3.8205,-1.2735,-1.6378,5.094,-2.2862e-12,-0.8189,0,0,0.1,-0,-0,0.66667
0.91479,0.19753,9.1479,-0.4537,-9.7024,11.45,11.068,-3.6893,-1.2651,14.757,-3.0038e-08,-0.63256,0,0,0.1,-0,-0,0.66667
0.64436,0.4203,6.4436,-0.11955,-9.2536,153.73,2.0542,-0.68473,-1.9481,2.7389,-2.5069e-12,-0.97407,0,0,0.1,9.4739e-16,0,0.66667
0.0052398,0.20711,0.052398,-0.43934,-58.408,896,0.061387,-0.020461,-1.3114,0.08185,2.0283e-06,-0.65571,0,0,0.1,7.4015e-18,0,0.66667
0.48443,0.57285,4.8443,0.10927,11.088,300.84,-1.4116,0.47052,-1.9625,-1.8821,-2.3204e-13,-0.98124,0,0,0.1,-0,-0,0.66667
0.85932,0.14044,8.5932,-0.53934,-18.658,28.255,12.359,-4.1197,-0.97048,16.479,-3.5672e-09,-0.48524,0,0,0.1,-1.8948e-15,1.4732e-16,0.66667
0.8304,0.016633,8.304,-0.72505,-29.983,40.527,16.056,-5.3518,-0.13166,21.407,-4.0939e-09,-0.06583,0,0,0.1,-1.8948e-15,0,0.66667
0.64915,0.8039,6.4915,0.45585,34.999,150.5,-7.8911,2.6304,-1.2583,-10.521,-4.4587e-13,-0.62915,0,0,0.1,-4.737e-16,0,0.66667
0.6737,0.39339,6.737,-0.15991,-11.555,131.22,2.8729,-0.95763,-1.9106,3.8305,-8.8396e-13,-0.95532,0,0,0.1,-0,-0,0.66667
0.5785,0.24869,5.785,-0.37697,-33.277,209.94,5.8154,-1.9385,-1.5003,7.7538,-3.415e-12,-0.75013,0,0,0.1,1.3619e-15,0,0.66667
0.27412,0.80773,2.7412,0.46159,56.754,543.09,-3.3742,1.1247,-1.24,-4.4989,-9.1653e-12,-0.62002,0,0,0.1,5.1758e-16,0,0.66667
0.56053,0.71072,5.6053,0.31608,28.751,226.26,-4.7246,1.5749,-1.6465,-6.2994,-3.153e-14,-0.82323,0,0,0.1,-4.737e-16,0,0.66667
0.67173,0.62115,6.7173,0.18173,13.197,132.71,-3.2553,1.0851,-1.8881,-4.3404,0,-0.94405,0,0,0.1,2.3685e-16,0,0.66667
0.35243,0.34464,3.5243,-0.23303,-27.089,447.7,2.1901,-0.73002,-1.8053,2.9201,-5.165e-12,-0.90263,0,0,0.1,-0,-0,0.66667
0.85583,0.65273,8.5583,0.2291,8.0519,28.624,-5.2286,1.7429,-1.8135,-6.9715,3.0014e-09,-0.90677,0,0,0.1,-2.2032e-16,0,0.66667
0.19504,0.51527,1.9504,0.0229,2.9239,643.54,-0.11911,0.039702,-1.9949,-0.15881,-5.6249e-11,-0.99743,0,0,0.1,4.737e-16,0,0.66667
0.74732,0.86961,7.4732,0.55441,32.49,82.559,-11.049,3.6829,-0.90809,-14.731,1.8741e-12,-0.45405,0,0,0.1,1.4211e-15,0,0.66667
0.2896,0.35335,2.896,-0.21998,-26.753,523.67,1.6988,-0.56628,-1.825,2.2651,-5.7206e-12,-0.91248,0,0,0.1,-0,-0,0.66667
0.7738,0.19872,7.738,-0.45191,-24.009,66.985,9.3251,-3.1084,-1.2707,12.433,6.1684e-11,-0.63536,0,0,0.1,-0,-0,0.66667
0.42774,0.59783,4.2774,0.14674,15.904,361.5,-1.6738,0.55794,-1.9216,-2.2317,-1.0032e-11,-0.9608,0,0,0.1,9.4739e-16,0,0.66667
0.8077,0.9076,8.077,0.6114,28.219,50.212,-13.169,4.3896,-0.67024,-17.558,7.0373e-10,-0.33512,0,0,0.1,-0,-0,0.66667
0.35353,0.62332,3.5353,0.18498,21.479,446.36,-1.7439,0.58129,-1.8769,-2.3252,-5.4129e-12,-0.93847,0,0,0.1,6.4445e-16,0,0.66667
0.21369,0.80105,2.1369,0.45158,57.293,619.63,-2.5733,0.85777,-1.2728,-3.4311,-4.9127e-11,-0.6364,0,0,0.1,-0,-0,0.66667
0.76728,0.81803,7.6728,0.47705,25.994,70.68,-9.7608,3.2536,-1.1933,-13.014,-6.6575e-11,-0.59666,0,0,0.1,-0,-0,0.66667
0.30864,0.73296,3.0864,0.34943,41.993,500.39,-2.876,0.95867,-1.5647,-3.8347,-2.3581e-12,-0.78233,0,0,0.1,4.737e-16,0,0.66667
0.73325,0.037188,7.3325,-0.69422,-42.738,91.791,13.574,-4.5247,-0.28977,18.099,4.249e-12,-0.14488,0,0,0.1,1.8948e-15,0,0.66667
0.74447,0.1909,7.4447,-0.46365,-27.39,83.975,9.2048,-3.0683,-1.2341,12.273,1.8092e-11,-0.61705,0,0,0.1,-1.8948e-15,0,0.66667
0.2214,0.1725,2.214,-0.49125,-62.125,609.78,2.9003,-0.96676,-1.1422,3.867,-1.8949e-11,-0.57112,0,0,0.1,-0,-0,0.66667
0.21411,0.83309,2.1411,0.49963,63.401,619.14,-2.8527,0.9509,-1.1107,-3.8036,8.818e-11,-0.55533,0,0,0.1,2.3685e-16,0,0.66667
0.19895,0.49478,1.9895,-0.0078289,-0.99796,638.47,0.041534,-0.013845,-1.999,0.055379,1.7357e-10,-0.99951,0,0,0.1,3.5527e-16,0,0.66667
0.14252,0.78951,1.4252,0.43426,56.557,712.42,-1.6504,0.55014,-1.3313,-2.2005,-3.0402e-09,-0.66563,0,0,0.1,-0,-0,0.66667
0.37708,0.70695,3.7708,0.31042,35.354,418.93,-3.1215,1.0405,-1.6586,-4.162,-3.9775e-12,-0.82929,0,0,0.1,-0,-0,0.66667
0.026628,0.82468,0.26628,0.48703,64.726,867.21,-0.34583,0.11528,-1.1548,-0.4611,3.8171e-06,-0.5774,0,0,0.1,-0,-0,0.66667
0.11092,0.24085,1.1092,-0.38873,-51.027,754.27,1.1498,-0.38327,-1.465,1.5331,2.1225e-08,-0.73248,0,0,0.1,-0,-0,0.66667
0.67456,0.57903,6.7456,0.11854,8.5459,130.55,-2.1323,0.71078,-1.9503,-2.8431,1.7237e-12,-0.97513,0,0,0.1,-9.4739e-16,0,0.66667
0.79978,0.57762,7.9978,0.11643,5.5278,52.77,-2.4831,0.8277,-1.9517,-3.3108,1.149e-11,-0.97587,0,0,0.1,-0,-0,0.66667
0.08053,0.70157,0.8053,0.30235,39.904,794.81,-0.64928,0.21643,-1.6756,-0.86571,-7.4188e-08,-0.8378,0,0,0.1,-1.1842e-16,0,0.66667
0.2317,0.60343,2.317,0.15515,19.489,596.39,-0.95862,0.31954,-1.9149,-1.2782,3.3101e-11,-0.95745,0,0,0.1,-0,-0,0.66667
0.20763,0.26797,2.0763,-0.34804,-44.246,627.37,1.927,-0.64234,-1.5675,2.5694,-5.1301e-11,-0.78376,0,0,0.1,-0,-0,0.66667
0.91733,0.93397,9.1733,0.65096,13.663,11.759,-15.924,5.308,-0.49251,-21.232,2.4952e-07,-0.24625,0,0,0.1,-0,-0,0.66667
0.71131,0.24993,7.1131,-0.3751,-24.544,104.96,7.115,-2.3717,-1.4982,9.4867,8.3666e-13,-0.74909,0,0,0.1,1.0806e-15,0,0.66667
0.55388,0.3859,5.5388,-0.17115,-15.725,232.29,2.528,-0.84266,-1.8928,3.3706,1.9689e-12,-0.9464,0,0,0.1,-9.4739e-16,0,0.66667
0.30452,0.53411,3.0452,0.051171,6.1604,505.27,-0.41554,0.13851,-1.9886,-0.55405,-1.2526e-11,-0.99428,0,0,0.1,9.4739e-16,0,0.66667
0.83485,0.80735,8.3485,0.46103,18.459,37.491,-10.264,3.4212,-1.2419,-13.685,-1.6639e-10,-0.62096,0,0,0.1,-9.4739e-16,0,0.66667
0.43531,0.59396,4.3531,0.14094,15.152,353.18,-1.6361,0.54536,-1.932,-2.1815,-3.3645e-12,-0.96598,0,0,0.1,-1.8948e-15,0,0.66667
0.92346,0.7841,9.2346,0.42615,8.1972,9.4422,-10.494,3.4981,-1.3573,-13.992,1.3254e-07,-0.67866,0,0,0.1,3.7896e-15,0,0.66667
0.70605,0.022107,7.0605,-0.71684,-47.896,109.7,13.497,-4.4989,-0.17314,17.996,3.6282e-12,-0.086571,0,0,0.1,-0,-0,0.66667
0.47803,0.36938,4.7803,-0.19593,-20.047,307.54,2.4976,-0.83252,-1.8612,3.3301,-3.1086e-12,-0.93061,0,0,0.1,-7.1054e-16,0,0.66667
0.12621,0.48856,1.2621,-0.017157,-2.2412,733.88,0.057744,-0.019248,-2.0016,0.076992,-2.7269e-09,-1.0008,0,0,0.1,1.1842e-16,0,0.66667
0.97604,0.25886,9.7604,-0.36171,-2.1212,1.666,9.4147,-3.1382,-1.5319,12.553,1.3825e-06,-0.76594,0,0,0.1,-1.8948e-15,0,0.66667
0.15983,0.51478,1.5983,0.022177,2.8685,689.49,-0.094524,0.031508,-1.9974,-0.12603,-1.9227e-10,-0.99868,0,0,0.1,-0,-0,0.66667
0.2026,0.38323,2.026,-0.17515,-22.298,633.77,0.9463,-0.31543,-1.8951,1.2617,-6.7485e-12,-0.94755,0,0,0.1,-4.737e-16,0,0.66667
0.43118,0.93483,4.3118,0.65225,70.705,358.48,-7.4997,2.4999,-0.48556,-9.9996,-9.9121e-13,-0.24278,0,0,0.1,-5.9212e-16,0,0.66667
0.4042,0.52781,4.042,0.041718,4.6293,387.75,-0.44966,0.14989,-1.996,-0.59955,-6.6928e-12,-0.998,0,0,0.1,-2.3685e-16,0,0.66667
0.14675,0.44714,1.4675,-0.079294,-10.299,706.72,0.31031,-0.10344,-1.975,0.41374,1.0173e-09,-0.9875,0,0,0.1,-0,-0,0.66667
0.72932,0.58857,7.2932,0.13285,8.2166,92.768,-2.5838,0.86126,-1.9357,-3.4451,-3.7255e-12,-0.96787,0,0,0.1,-9.8924e-16,0,0.66667
0.18875,0.61402,1.8875,0.17103,21.896,651.73,-0.86081,0.28694,-1.8986,-1.1477,-4.6418e-11,-0.94931,0,0,0.1,-2.3685e-16,0,0.66667
0.6439,0.80578,6.439,0.45867,35.633,154.66,-7.8755,2.6252,-1.252,-10.501,8.4777e-13,-0.62601,0,0,0.1,-9.4739e-16,0,0.66667
0.75431,0.53135,7.5431,0.047021,2.675,77.384,-0.94582,0.31527,-1.9922,-1.2611,5.0961e-12,-0.99609,0,0,0.1,-0,-0,0.66667
0.21073,0.55585,2.1073,0.083768,10.625,623.26,-0.47073,0.15691,-1.9723,-0.62765,3.4832e-11,-0.98617,0,0,0.1,2.3685e-16,0,0.66667
0.60095,0.4743,6.0095,-0.038552,-3.2615,189.73,0.61781,-0.20594,-1.9922,0.82375,-2.3616e-12,-0.9961,0,0,0.1,-0,-0,0.66667
0.74893,0.92472,7.4893,0.63708,37.196,81.923,-12.723,4.2411,-0.55975,-16.964,-3.0641e-11,-0.27988,0,0,0.1,-1.8343e-15,0,0.66667
0.63822,0.64505,6.3822,0.21758,17.077,158.73,-3.703,1.2343,-1.8324,-4.9373,-2.0017e-12,-0.91622,0,0,0.1,9.4739e-16,0,0.66667
0.59713,0.87531,5.9713,0.56297,48.155,193.89,-8.9643,2.9881,-0.87412,-11.952,6.8212e-13,-0.43706,0,0,0.1,1.8948e-15,0,0.66667
0.29548,0.69398,2.9548,0.29098,35.265,516.47,-2.2928,0.76425,-1.7018,-3.057,-2.5802e-12,-0.85088,0,0,0.1,-0,-0,0.66667
0.73161,0.43917,7.3161,-0.091241,-5.6015,91.283,1.7801,-0.59335,-1.9719,2.3734,1.3516e-12,-0.98594,0,0,0.1,-0,-0,0.66667
0.94531,0.6355,9.4531,0.20324,2.7733,4.8638,-5.1234,1.7078,-1.85,-6.8312,-1.684e-08,-0.92501,0,0,0.1,-0,-0,0.66667
0.42556,0.15536,4.2556,-0.51696,-56.287,364.37,5.8667,-1.9556,-1.0503,7.8222,-2.3364e-12,-0.52514,0,0,0.1,-2.6645e-16,0,0.66667
0.78218,0.19467,7.8218,-0.458,-23.538,62.481,9.5529,-3.1843,-1.2577,12.737,-3.6159e-11,-0.62886,0,0,0.1,-1.8948e-15,0,0.66667
0.056141,0.68805,0.56141,0.28208,37.35,827.5,-0.42229,0.14076,-1.7157,-0.56306,-3.2569e-08,-0.85784,0,0,0.1,2.3685e-16,0,0.66667
0.83527,0.028677,8.3527,-0.70698,-28.452,38.383,15.747,-5.2491,-0.22081,20.996,-5.2129e-09,-0.1104,0,0,0.1,-4.737e-16,0,0.66667
0.19225,0.70737,1.9225,0.31106,39.791,647.24,-1.5947,0.53156,-1.6541,-2.1262,-3.1196e-11,-0.82704,0,0,0.1,-2.3685e-16,0,0.66667
0.3951,0.6846,3.951,0.2769,31.017,398.21,-2.9174,0.97245,-1.7267,-3.8898,-6.6112e-12,-0.86336,0,0,0.1,5.9212e-16,0,0.66667
0.30008,0.27699,3.0008,-0.33451,-40.428,510.85,2.6768,-0.89226,-1.6026,3.569,-5.459e-12,-0.8013,0,0,0.1,-5.9212e-16,0,0.66667
0.080104,0.11302,0.80104,-0.58048,-76.764,795.46,1.24,-0.41332,-0.80329,1.6533,-4.0369e-09,-0.40165,0,0,0.1,-0,-0,0.66667
0.90463,0.21641,9.0463,-0.42539,-10.134,13.82,10.262,-3.4206,-1.3597,13.682,-3.8236e-08,-0.67983,0,0,0.1,-0,-0,0.66667
0.37015,0.67058,3.7015,0.25588,29.31,426.92,-2.5257,0.8419,-1.7651,-3.3676,-4.6456e-12,-0.88256,0,0,0.1,-0,-0,0.66667
0.5307,0.84534,5.307,0.51801,49.457,255,-7.3308,2.4436,-1.0511,-9.7744,-3.5425e-12,-0.52553,0,0,0.1,-0,1.2953e-16,0.66667
0.49412,0.10752,4.9412,-0.58872,-59.199,291.61,7.7572,-2.5857,-0.76492,10.343,-2.8622e-12,-0.38246,0,0,0.1,-9.4739e-16,0,0.66667
0.13216,0.061087,1.3216,-0.65837,-86.161,726.25,2.3203,-0.77343,-0.45703,3.0937,-8.7954e-08,-0.22852,0,0,0.1,-5.9212e-17,0,0.66667
0.20645,0.38428,2.0645,-0.17358,-22.062,628.8,0.95564,-0.31855,-1.8925,1.2742,-2.1907e-11,-0.94627,0,0,0.1,-0,-0,0.66667
0.076189,0.5681,0.76189,0.10216,13.483,800.59,-0.20755,0.069184,-1.9649,-0.27674,-6.4905e-08,-0.98246,0,0,0.1,-2.3685e-16,0,0.66667
0.50792,0.63661,5.0792,0.20492,20.163,276.96,-2.7755,0.92517,-1.8475,-3.7007,-2.0273e-12,-0.92377,0,0,0.1,-0,-0,0.66667
0.26155,0.1988,2.6155,-0.4518,-55.951,558.81,3.1512,-1.0504,-1.2729,4.2016,-1.5321e-11,-0.63647,0,0,0.1,-0,-0,0.66667
0.35706,0.84156,3.5706,0.51235,59.444,442.56,-4.8784,1.6261,-1.0687,-6.5045,-3.3435e-12,-0.53434,0,0,0.1,7.5704e-16,0,0.66667
0.10807,0.13021,1.0807,-0.55468,-72.947,758.15,1.5985,-0.53282,-0.90916,2.1313,-2.3556e-08,-0.45458,0,0,0.1,-0,-0,0.66667
0.78755,0.93291,7.8755,0.64937,32.786,60.403,-13.638,4.5459,-0.49856,-18.184,7.8003e-10,-0.24928,0,0,0.1,-1.4211e-15,0,0.66667
0.10658,0.87107,1.0658,0.5566,73.225,760.12,-1.582,0.52733,-0.8995,-2.1093,3.0858e-08,-0.44975,0,0,0.1,-1.1842e-16,0,0.66667
0.98571,0.9298,9.8571,0.6447,2.3411,2.2943,-16.946,5.6488,-0.52491,-22.595,2.7418e-05,-0.26246,0,0,0.1,-9.4739e-16,-1.3448e-16,0.66667
0.17716,0.15703,1.7716,-0.51445,-66.281,667.01,2.4304,-0.81014,-1.0581,3.2405,-3.2233e-10,-0.52905,0,0,0.1,-0,-0,0.66667
0.57241,0.75599,5.7241,0.38399,34.258,215.47,-5.8613,1.9538,-1.4737,-7.815,2.8284e-12,-0.73685,0,0,0.1,-1.8948e-15,0,0.66667
0.044845,0.56263,0.44845,0.093952,12.448,842.67,-0.11235,0.037451,-1.9715,-0.14981,-1.2544e-07,-0.98574,0,0,0.1,-1.1842e-16,0,0.66667
0.78712,0.43913,7.8712,-0.0913,-4.5789,59.183,1.9164,-0.63879,-1.969,2.5552,6.8735e-11,-0.98448,0,0,0.1,-1.8948e-15,0,0.66667
0.18961,0.30387,1.8961,-0.29419,-37.67,650.66,1.4875,-0.49582,-1.6937,1.9833,3.1476e-11,-0.84684,0,0,0.1,2.3685e-16,0,0.66667
0.5279,0.5253,5.279,0.037957,3.6285,257.09,-0.53434,0.17811,-1.9949,-0.71246,-1.0704e-12,-0.99746,0,0,0.1,-9.4739e-16,0,0.66667
0.74008,0.36621,7.4008,-0.20069,-11.994,86.09,3.9606,-1.3202,-1.8544,5.2809,6.7872e-12,-0.92722,0,0,0.1,-0,-0,0.66667
0.14993,0.60239,1.4993,0.15358,19.931,702.54,-0.61404,0.20468,-1.9135,-0.81872,-2.1117e-09,-0.95675,0,0,0.1,-0,-0,0.66667
0.55109,0.45316,5.5109,-0.070264,-6.4827,234.86,1.0326,-0.34419,-1.9809,1.3768,-2.4594e-12,-0.99045,0,0,0.1,9.4739e-16,0,0.66667
0.21662,0.72246,2.1662,0.33368,42.247,615.79,-1.9275,0.6425,-1.6061,-2.57,4.2363e-11,-0.80306,0,0,0.1,-0,-0,0.66667
0.7592,0.24977,7.592,-0.37534,-21.036,74.996,7.5989,-2.533,-1.4977,10.132,1.9408e-11,-0.74886,0,0,0.1,-1.3323e-15,0,0.66667
0.72292,0.084038,7.2292,-0.62394,-39.603,98.089,12.028,-4.0094,-0.61454,16.038,2.2937e-11,-0.30727,0,0,0.1,-0,-0,0.66667
0.17655,0.20822,1.7655,-0.43766,-56.368,667.75,2.0605,-0.68684,-1.3171,2.7474,2.0608e-10,-0.65857,0,0,0.1,2.3685e-16,0,0.66667
0.86197,0.89903,8.6197,0.59854,20.384,27.563,-13.758,4.586,-0.72706,-18.344,9.6538e-09,-0.36353,0,0,0.1,-1.4211e-15,0,0.66667
0.019775,0.62664,0.19775,0.18996,25.214,876.41,-0.10017,0.03339,-1.8716,-0.13356,2.5546e-07,-0.93579,0,0,0.1,5.9212e-17,0,0.66667
0.86024,0.54363,8.6024,0.065447,2.2309,26.828,-1.5013,0.50044,-1.988,-2.0018,5.9411e-10,-0.994,0,0,0.1,-0,-0,0.66667
0.5589,0.92791,5.589,0.64186,58.748,228.55,-9.5664,3.1888,-0.53449,-12.755,-9.4857e-13,-0.26725,0,0,0.1,4.737e-16,0,0.66667
0.40322,0.88194,4.0322,0.57292,63.83,389.44,-6.1603,2.0534,-0.83325,-8.2137,-5.957e-12,-0.41662,0,0,0.1,9.4739e-16,0,0.66667
0.75875,0.73783,7.5875,0.35675,20.022,75.21,-7.2182,2.4061,-1.5444,-9.6243,-2.0442e-11,-0.7722,0,0,0.1,-8.9854e-16,0,0.66667
0.71693,0.2611,7.1693,-0.35836,-23.061,101.18,6.8511,-2.2837,-1.545,9.1348,1.8932e-12,-0.77252,0,0,0.1,-0,-0,0.66667
0.98733,0.60358,9.8733,0.15537,0.43501,0.49864,-4.0906,1.3635,-1.9143,-5.4541,-3.4926e-09,-0.95714,0,0,0.1,-0,-0,0.66667
0.27809,0.4976,2.7809,-0.0035968,-0.44038,537.89,0.026672,-0.0088908,-2.0008,0.035563,-1.0579e-11,-1.0004,0,0,0.1,7.1054e-16,0,0.66667
0.0037937,0.97111,0.037937,0.70667,94.174,897.95,-0.071546,0.023861,-0.22458,-0.095388,1.9094e-05,-0.11229,0,0,0.1,-0,-0,0.66667
0.9339,0.071572,9.339,-0.64264,-10.853,8.3474,16.004,-5.3348,-0.53098,21.339,3.036e-07,-0.26549,0,0,0.1,-0,-0,0.66667
0.8579,0.74205,8.579,0.36307,12.618,28.165,-8.306,2.7687,-1.5338,-11.075,3.3696e-09,-0.76689,0,0,0.1,-9.4739e-16,0,0.66667
0.72885,0.92647,7.2885,0.63971,39.882,94.336,-12.433,4.1444,-0.54255,-16.578,-4.8326e-12,-0.27127,0,0,0.1,-0,-0,0.66667
0.51669,0.65174,5.1669,0.2276,22.125,268.24,-3.136,1.0453,-1.8195,-4.1813,-2.3554e-12,-0.90973,0,0,0.1,-2.3685e-16,0,0.66667
0.70696,0.93042,7.0696,0.64563,42.963,108.78,-12.172,4.0572,-0.51725,-16.229,4.0901e-12,-0.25862,0,0,0.1,-4.737e-16,0,0.66667
0.78053,0.45537,7.8053,-0.06695,-3.4496,62.649,1.3935,-0.4645,-1.9875,1.858,1.131e-11,-0.99376,0,0,0.1,-9.4739e-16,0,0.66667
0.37488,0.11087,3.7488,-0.58369,-66.754,421.89,5.835,-1.945,-0.79325,7.78,-5.4201e-12,-0.39662,0,0,0.1,-0,-0,0.66667
0.77032,0.95794,7.7032,0.68691,37.175,69.82,-14.11,4.7035,-0.32052,-18.814,-2.1197e-10,-0.16026,0,0,0.1,-9.4739e-16,0,0.66667
0.75062,0.10449,7.5062,-0.59326,-34.403,80.732,11.875,-3.9583,-0.75238,15.833,6.5305e-11,-0.37619,0,0,0.1,-0,-0,0.66667
0.61321,0.0099463,6.1321,-0.73508,-61.139,180.71,12.02,-4.0068,-0.077831,16.027,1.215e-12,-0.038915,0,0,0.1,-0,-0,0.66667
0.40187,0.45435,4.0187,-0.068473,-7.6157,390.39,0.73378,-0.24459,-1.9816,0.97838,-1.697e-12,-0.99081,0,0,0.1,-4.737e-16,0,0.66667
0.69731,0.15606,6.9731,-0.51591,-35.182,114.95,9.5932,-3.1977,-1.0526,12.791,3.0083e-12,-0.52629,0,0,0.1,-1.2138e-15,0,0.66667
0.0031129,0.95616,0.031129,0.68424,91.164,898.87,-0.056825,0.018961,-0.33512,-0.075757,2.9231e-05,-0.16756,0,0,0.1,-0,-4.5582e-16,0.66667
0.7749,0.028189,7.749,-0.70772,-37.656,67.406,14.624,-4.8747,-0.21726,19.499,6.6962e-11,-0.10863,0,0,0.1,-4.8856e-16,0,0.66667
0.89642,0.93699,8.9642,0.65549,17.078,16.991,-15.669,5.223,-0.47116,-20.892,-4.0679e-07,-0.23558,0,0,0.1,2.6053e-15,0,0.66667
0.23932,0.059047,2.3932,-0.66143,-83.054,587.13,4.2211,-1.407,-0.44333,5.6281,1.2967e-11,-0.22167,0,0,0.1,1.1842e-16,0,0.66667
0.12077,0.26721,1.2077,-0.34919,-45.72,741.17,1.1246,-0.37485,-1.5649,1.4994,1.0516e-08,-0.78245,0,0,0.1,-0,-0,0.66667
0.22028,0.67864,2.2028,0.26796,33.858,611.04,-1.5741,0.52469,-1.747,-2.0988,3.4823e-11,-0.8735,0,0,0.1,-2.3685e-16,0,0.66667
0.3021,0.87235,3.021,0.55852,67.528,508.65,-4.4994,1.4998,-0.88964,-5.9992,-8.2876e-12,-0.44482,0,0,0.1,1.1842e-16,0,0.66667
0.88303,0.092388,8.8303,-0.61142,-17.837,20.656,14.397,-4.7991,-0.66896,19.196,1.4025e-10,-0.33448,0,0,0.1,3.6756e-16,0,0.66667
0.54317,0.68644,5.4317,0.27965,26.146,242.55,-4.0506,1.3502,-1.7224,-5.4009,-2.0863e-12,-0.86119,0,0,0.1,1.0658e-15,0,0.66667
0.28671,0.99719,2.8671,0.74578,91.259,527.89,-5.702,1.9007,-0.021024,-7.6027,-2.5731e-12,-0.010512,0,0,0.1,1.5395e-15,0,0.66667
0.13835,0.8377,1.3835,0.50655,66.087,717.96,-1.8689,0.62297,-1.0891,-2.4919,-9.868e-09,-0.54456,0,0,0.1,-0,-0,0.66667
0.29014,0.36219,2.9014,-0.20672,-25.131,523,1.5994,-0.53315,-1.845,2.1326,-7.2155e-12,-0.92249,0,0,0.1,4.737e-16,0,0.66667
0.61387,0.33942,6.1387,-0.24087,-19.888,178.84,3.9431,-1.3144,-1.7928,5.2574,-2.9288e-13,-0.89639,0,0,0.1,-1.1842e-15,0,0.66667
0.32414,0.4495,3.2414,-0.075744,-8.9944,481.42,0.65471,-0.21824,-1.9784,0.87295,-9.5249e-12,-0.98918,0,0,0.1,-0,-0,0.66667
0.45736,0.033987,4.5736,-0.69902,-73.653,330.28,8.5254,-2.8418,-0.26224,11.367,-5.409e-13,-0.13112,0,0,0.1,-0,-0,0.66667
0.44412,0.15561,4.4412,-0.51659,-55.135,344.07,6.118,-2.0393,-1.0496,8.1574,-3.6735e-12,-0.52481,0,0,0.1,-1.3915e-15,0,0.66667
0.82814,0.28565,8.2814,-0.32153,-13.316,39.942,7.1005,-2.3668,-1.6381,9.4674,-3.9527e-10,-0.81907,0,0,0.1,-0,-0,0.66667
0.42635,0.15942,4.2635,-0.51088,-55.575,363.49,5.8083,-1.9361,-1.0713,7.7444,1.3038e-12,-0.53565,0,0,0.1,-9.4739e-16,0,0.66667
0.3457,0.86473,3.457,0.54709,64.079,456.05,-5.0434,1.6811,-0.9373,-6.7246,-3.1286e-12,-0.46865,0,0,0.1,-0,-0,0.66667
0.67497,0.57287,6.7497,0.1093,7.8716,130.24,-1.9674,0.65578,-1.9574,-2.6231,1.9048e-12,-0.9787,0,0,0.1,-1.8948e-15,0,0.66667
0.22148,0.31745,2.2148,-0.27382,-34.58,609.51,1.6173,-0.53908,-1.7344,2.1563,-5.0689e-11,-0.86718,0,0,0.1,-4.737e-16,0,0.66667
0.46725,0.58764,4.6725,0.13146,13.627,318.81,-1.638,0.54601,-1.9412,-2.184,6.5392e-13,-0.9706,0,0,0.1,-0,-0,0.66667
0.31477,0.54619,3.1477,0.06929,8.2833,492.78,-0.58161,0.19387,-1.9838,-0.77547,-1.5868e-12,-0.99188,0,0,0.1,-4.737e-16,0,0.66667
0.62686,0.25406,6.2686,-0.36891,-29.696,168.22,6.1667,-2.0556,-1.5185,8.2222,-3.304e-13,-0.75925,0,0,0.1,-0,-0,0.66667
0.87736,0.98126,8.7736,0.72189,22.13,23.003,-16.889,5.6298,-0.14788,-22.519,-1.634e-07,-0.073942,0,0,0.1,-1.8948e-15,0,0.66667
0.44769,0.45122,4.4769,-0.073165,-7.7578,339.68,0.87347,-0.29116,-1.9785,1.1646,-1.6205e-12,-0.98923,0,0,0.1,-0,-0,0.66667
0.78446,0.28997,7.8446,-0.31505,-16.006,60.894,6.5905,-2.1968,-1.647,8.7874,5.1041e-11,-0.82348,0,0,0.1,-0,-0,0.66667
0.45697,0.6921,4.5697,0.28815,30.254,329.87,-3.5113,1.1704,-1.7045,-4.6817,-3.6966e-12,-0.85223,0,0,0.1,9.4739e-16,0,0.66667
0.65623,0.76542,6.5623,0.39813,30.057,144.85,-6.967,2.3223,-1.4412,-9.2893,3.3928e-13,-0.72062,0,0,0.1,-0,-0,0.66667
0.13184,0.51895,1.3184,0.028423,3.7073,726.42,-0.099928,0.033309,-1.994,-0.13324,-1.9195e-09,-0.99702,0,0,0.1,-0,-0,0.66667
0.43298,0.21785,4.3298,-0.42323,-45.683,356.03,4.8866,-1.6289,-1.3628,6.5155,-1.0321e-12,-0.68141,0,0,0.1,3.5527e-16,0,0.66667
0.90931,0.84675,9.0931,0.52012,11.85,13.012,-12.612,4.204,-1.039,-16.816,1.0303e-08,-0.51949,0,0,0.1,-0,-0,0.66667
0.60548,0.86881,6.0548,0.55322,46.574,186.65,-8.9323,2.9774,-0.91121,-11.91,1.4735e-12,-0.4556,0,0,0.1,8.3221e-16,0,0.66667
0.76677,0.66496,7.6677,0.24743,13.466,70.4,-5.0594,1.6865,-1.7853,-6.7458,-3.2661e-11,-0.89264,0,0,0.1,1.8948e-15,0,0.66667
0.5047,0.22736,5.047,-0.40896,-40.47,280.48,5.504,-1.8347,-1.4037,7.3387,-9.7433e-13,-0.70185,0,0,0.1,-0,-0,0.66667
0.49806,0.10606,4.9806,-0.59092,-59.114,287.61,7.8482,-2.6161,-0.75986,10.464,-2.9621e-13,-0.37993,0,0,0.1,-9.4739e-16,0,0.66667
0.8429,0.17196,8.429,-0.49206,-18.831,34.317,11.06,-3.6868,-1.1423,14.747,-1.5837e-10,-0.57114,0,0,0.1,1.8948e-15,2.9294e-17,0.66667
0.067807,0.71147,0.67807,0.31721,41.948,811.85,-0.57357,0.19119,-1.6403,-0.76476,-1.2767e-07,-0.82014,0,0,0.1,-0,-0,0.66667
0.57327,0.028099,5.7327,-0.70785,-63.318,215.58,10.821,-3.607,-0.21745,14.428,-5.4818e-12,-0.10872,0,0,0.1,9.4739e-16,1.3869e-16,0.66667
0.94276,0.023751,9.4276,-0.71437,-10.553,7.2339,17.96,-5.9865,-0.18354,23.946,1.0592e-05,-0.091772,0,0,0.1,-1.8948e-15,0,0.66667
0.51786,0.7344,5.1786,0.3516,34.147,267.25,-4.8554,1.6185,-1.5613,-6.4739,-3.4701e-12,-0.78066,0,0,0.1,9.4739e-16,0,0.66667
0.19447,0.63393,1.9447,0.2009,25.665,644.32,-1.0418,0.34727,-1.8536,-1.3891,-5.1774e-11,-0.92681,0,0,0.1,-0,-0,0.66667
0.84794,0.077065,8.4794,-0.6344,-23.664,32.938,14.345,-4.7816,-0.56748,19.127,-2.548e-08,-0.28374,0,0,0.1,-0,-0,0.66667
0.25164,0.59101,2.5164,0.13651,16.972,571.07,-0.91604,0.30535,-1.9367,-1.2214,4.6126e-12,-0.96835,0,0,0.1,7.1054e-16,0,0.66667
0.70073,0.79246,7.0073,0.4387,29.603,112.35,-8.1975,2.7325,-1.3165,-10.93,-1.2514e-12,-0.65824,0,0,0.1,-0,-0,0.66667
0.54026,0.24544,5.4026,-0.38183,-35.886,245.49,5.5011,-1.8337,-1.4794,7.3348,-1.1995e-12,-0.73969,0,0,0.1,-4.737e-16,0,0.66667
0.94884,0.28583,9.4884,-0.32125,-4.1178,4.5908,8.1283,-2.7094,-1.6323,10.838,-1.9216e-08,-0.81615,0,0,0.1,-0,-0,0.66667
0.62434,0.13077,6.2434,-0.55385,-44.915,170.77,9.2211,-3.0737,-0.91354,12.295,-2.6086e-12,-0.45677,0,0,0.1,1.8948e-15,7.5305e-17,0.66667
0.83798,0.34362,8.3798,-0.23457,-9.1904,35.611,5.2418,-1.7473,-1.8033,6.9891,-8.7795e-10,-0.90165,0,0,0.1,2.7682e-15,0,0.66667
0.0079329,0.37144,0.079329,-0.19284,-25.605,892.37,0.040794,-0.013598,-1.8655,0.054392,3.4931e-07,-0.93276,0,0,0.1,-1.1102e-17,0,0.66667
0.98934,0.94382,9.8934,0.66573,1.8,2.2507,-17.564,5.8546,-0.42257,-23.418,5.4474e-05,-0.21129,0,0,0.1,-1.8948e-15,0,0.66667
0.077715,0.74187,0.77715,0.3628,47.919,798.59,-0.75186,0.25062,-1.5364,-1.0025,-1.0669e-07,-0.76821,0,0,0.1,5.9212e-17,0,0.66667
0.32213,0.38509,3.2213,-0.17236,-20.502,483.88,1.4806,-0.49354,-1.8917,1.9742,-9.4013e-12,-0.94587,0,0,0.1,-0,-0,0.66667
0.94615,0.91218,9.4615,0.61827,8.5233,6.167,-15.599,5.1998,-0.63832,-20.799,-1.7149e-06,-0.31916,0,0,0.1,-0,-0,0.66667
0.0089391,0.8855,0.089391,0.57825,76.957,891.02,-0.13784,0.045936,-0.80819,-0.18379,-1.449e-05,-0.40409,0,0,0.1,-0,-0,0.66667
0.82273,0.98629,8.2273,0.72943,31.402,43.881,-16.003,5.3345,-0.10571,-21.338,-4.8088e-10,-0.052856,0,0,0.1,-0,-0,0.66667
0.86121,0.52822,8.6121,0.042337,1.4336,26.468,-0.9723,0.3241,-1.9962,-1.2964,-2.056e-09,-0.99811,0,0,0.1,-0,-0,0.66667
0.43983,0.29252,4.3983,-0.31121,-33.317,348.39,3.6502,-1.2167,-1.6565,4.8669,-1.8832e-12,-0.82824,0,0,0.1,-0,-0,0.66667
0.25575,0.1184,2.5575,-0.57241,-71.19,566.25,3.9037,-1.3012,-0.83288,5.205,-2.7709e-11,-0.41644,0,0,0.1,-0,-0,0.66667
0.80269,0.11417,8.0269,-0.57874,-27.31,52.484,12.388,-4.1293,-0.80652,16.517,-4.7809e-10,-0.40326,0,0,0.1,-9.4739e-16,0,0.66667
0.47786,0.73687,4.7786,0.3553,36.395,307.9,-4.5276,1.5092,-1.5481,-6.0369,-1.7844e-12,-0.77406,0,0,0.1,9.4739e-16,0,0.66667
0.13434,0.28461,1.3434,-0.32308,-42.146,723.17,1.1574,-0.3858,-1.627,1.5432,5.9652e-09,-0.81348,0,0,0.1,-4.737e-16,0,0.66667
0.92785,0.61403,9.2785,0.17105,3.0777,7.9168,-4.2321,1.4107,-1.8933,-5.6428,5.1244e-08,-0.94665,0,0,0.1,-0,-0,0.66667
0.89597,0.088964,8.9597,-0.61655,-16.098,16.917,14.731,-4.9103,-0.64675,19.641,5.6898e-08,-0.32337,0,0,0.1,-1.4211e-15,0,0.66667
0.49155,0.9408,4.9155,0.66119,66.773,294.44,-8.6669,2.889,-0.44342,-11.556,3.4834e-12,-0.22171,0,0,0.1,1.8948e-15,0,0.66667
0.8567,0.39533,8.567,-0.15701,-5.4822,28.195,3.5869,-1.1956,-1.9127,4.7825,-2.5592e-09,-0.95637,0,0,0.1,9.4739e-16,0,0.66667
0.41858,0.024395,4.1858,-0.71341,-78.415,372.56,7.9631,-2.6544,-0.19037,10.617,2.2262e-12,-0.095187,0,0,0.1,-0,-8.1116e-17,0.66667
0.68346,0.50365,6.8346,0.0054717,0.38557,123.98,-0.099726,0.033242,-1.9995,-0.13297,-5.3922e-14,-0.99976,0,0,0.1,-0,-0,0.66667
0.39799,0.069734,3.9799,-0.6454,-72.325,395.52,6.8497,-2.2832,-0.5162,9.1329,-2.6334e-12,-0.2581,0,0,0.1,9.4739e-16,0,0.66667
0.50574,0.81307,5.0574,0.46961,46.433,279.56,-6.3333,2.1111,-1.2148,-8.4444,1.168e-13,-0.60738,0,0,0.1,-1.8948e-15,0,0.66667
0.18955,0.90487,1.8955,0.6073,77.942,650.97,-3.0697,1.0232,-0.69121,-4.093,1.2637e-09,-0.3456,0,0,0.1,-1.1842e-16,0,0.66667
0.96499,0.28151,9.6499,-0.32774,-2.8516,2.572,8.4338,-2.8113,-1.6186,11.245,3.2646e-07,-0.80932,0,0,0.1,-0,-0,0.66667
0.29422,0.28752,2.9422,-0.31873,-38.666,518.05,2.5006,-0.83355,-1.6397,3.3342,-1.0336e-11,-0.81984,0,0,0.1,-0,-0,0.66667
0.10346,0.97723,1.0346,0.71585,94.388,764.37,-1.975,0.65833,-0.17553,-2.6333,-6.0333e-07,-0.087767,0,0,0.1,-0,-0,0.66667
0.14432,0.60866,1.4432,0.16299,21.189,709.94,-0.62725,0.20908,-1.9045,-0.83633,-2.562e-09,-0.95227,0,0,0.1,2.3685e-16,0,0.66667
0.014092,0.54121,0.14092,0.061819,8.2051,884.07,-0.023231,0.007745,-1.9886,-0.030975,1.8052e-06,-0.99431,0,0,0.1,-0,-0,0.66667
0.71595,0.49463,7.1595,-0.0080557,-0.51883,101.42,0.1538,-0.051266,-2.0006,0.20506,-7.777e-13,-1.0003,0,0,0.1,1.8948e-15,0,0.66667
0.5645,0.11561,5.645,-0.57659,-52.243,223.18,8.6795,-2.8932,-0.81945,11.573,-1.3953e-12,-0.40972,0,0,0.1,4.737e-16,0,0.66667
0.79458,0.78363,7.9458,0.42544,20.743,55.961,-9.0146,3.0049,-1.3584,-12.019,-4.3901e-11,-0.67922,0,0,0.1,-1.8948e-15,0,0.66667
0.50708,0.74487,5.0708,0.36731,36.219,278.02,-4.9668,1.6556,-1.5179,-6.6224,-2.9718e-12,-0.75893,0,0,0.1,7.1054e-16,0,0.66667
0.79182,0.4285,7.9182,-0.10726,-5.2732,56.764,2.2647,-0.75492,-1.9571,3.0197,2.8681e-11,-0.97857,0,0,0.1,9.4739e-16,0,0.66667
0.69576,0.66349,6.9576,0.24523,16.741,115.39,-4.5499,1.5166,-1.7834,-6.0666,-2.8439e-12,-0.89171,0,0,0.1,-0,-0,0.66667
0.77785,0.79587,7.7785,0.44381,23.203,64.757,-9.2058,3.0686,-1.299,-12.274,-4.0161e-11,-0.6495,0,0,0.1,-0,-0,0.66667
0.40648,0.29458,4.0648,-0.30813,-34.147,385.34,3.34,-1.1133,-1.6668,4.4533,-5.7965e-12,-0.83342,0,0,0.1,9.4739e-16,0,0.66667
0.64777,0.74779,6.4777,0.37168,28.599,151.39,-6.4204,2.1401,-1.5068,-8.5605,2.1876e-12,-0.75342,0,0,0.1,-1.4211e-15,0,0.66667
0.17979,0.85284,1.7979,0.52925,68.131,663.59,-2.5375,0.84584,-1.0011,-3.3834,1.7211e-10,-0.50053,0,0,0.1,-0,-0,0.66667
0.32182,0.45699,3.2182,-0.064517,-7.674,484.22,0.55368,-0.18456,-1.9823,0.73824,-9.2368e-12,-0.99116,0,0,0.1,-3.8111e-16,0,0.66667
0.1726,0.44045,1.726,-0.08932,-11.503,672.76,0.41112,-0.13704,-1.9762,0.54816,4.6769e-10,-0.98808,0,0,0.1,-0,-0,0.66667
0.40864,0.25108,4.0864,-0.37338,-41.307,383,4.0688,-1.3563,-1.5064,5.425,3.344e-13,-0.75321,0,0,0.1,-9.4739e-16,0,0.66667
0.24142,0.51032,2.4142,0.015473,1.9339,584,-0.099616,0.033205,-1.9961,-0.13282,-3.3309e-12,-0.99807,0,0,0.1,9.4739e-16,0,0.66667
0.40692,0.045262,4.0692,-0.68211,-75.819,385.52,7.4017,-2.4672,-0.34924,9.869,-6.1284e-14,-0.17462,0,0,0.1,-0,-0,0.66667
0.97522,0.49627,9.7522,-0.0055942,-0.033237,1.1629,0.14548,-0.048492,-1.9978,0.19398,3.9331e-06,-0.99892,0,0,0.1,1.8948e-15,0,0.66667
0.32032,0.7315,3.2032,0.34725,41.39,486.2,-2.9661,0.98871,-1.568,-3.9548,-3.6746e-12,-0.78402,0,0,0.1,4.737e-16,0,0.66667
0.98249,0.52178,9.8249,0.032676,0.13221,0.65913,-0.8561,0.28537,-1.9979,-1.1415,4.1476e-07,-0.99894,0,0,0.1,-0,-0,0.66667
0.63631,0.70967,6.3631,0.3145,24.804,160.42,-5.3365,1.7788,-1.647,-7.1154,7.8026e-13,-0.82348,0,0,0.1,-0,-0,0.66667
0.37509,0.51326,3.7509,0.019893,2.2677,421.08,-0.19898,0.066327,-2.0033,-0.26531,-2.4864e-12,-1.0016,0,0,0.1,-0,-0,0.66667
0.85748,0.30267,8.5748,-0.29599,-10.302,28.147,6.7682,-2.2561,-1.6901,9.0243,-3.5359e-09,-0.84506,0,0,0.1,9.4739e-16,0,0.66667
0.61959,0.36798,6.1959,-0.19803,-16.16,173.98,3.2719,-1.0906,-1.8586,4.3626,2.7089e-13,-0.92928,0,0,0.1,-4.737e-16,0,0.66667
0.25203,0.2038,2.5203,-0.4443,-55.309,570.78,2.9861,-0.99536,-1.2993,3.9814,-1.604e-11,-0.64965,0,0,0.1,4.737e-16,0,0.66667
0.79286,0.30441,7.9286,-0.29338,-14.383,56.499,6.203,-2.0677,-1.693,8.2706,4.0558e-11,-0.8465,0,0,0.1,-0,-0,0.66667
0.43294,0.94668,4.3294,0.67002,72.512,356.6,-7.7353,2.5784,-0.40226,-10.314,5.1514e-14,-0.20113,0,0,0.1,-0,-0,0.66667
0.35751,0.30176,3.5751,-0.29737,-34.435,441.76,2.835,-0.945,-1.6872,3.78,-4.4358e-12,-0.8436,0,0,0.1,-0,-0,0.66667
0.33028,0.38914,3.3028,-0.16629,-19.661,474.06,1.4646,-0.48819,-1.9027,1.9528,-2.7909e-12,-0.95134,0,0,0.1,-0,-0,0.66667
0.69737,0.1887,6.9737,-0.46695,-31.814,114.76,8.6836,-2.8945,-1.2235,11.578,-1.1706e-12,-0.61174,0,0,0.1,-0,-0,0.66667
0.26865,0.31974,2.6865,-0.27039,-33.313,549.75,1.9371,-0.6457,-1.7403,2.5828,-1.0294e-11,-0.87016,0,0,0.1,-0,-0,0.66667
0.80828,0.67173,8.0828,0.2576,11.775,48.832,-5.5523,1.8508,-1.7625,-7.4031,2.6179e-11,-0.88125,0,0,0.1,-1.8948e-15,0,0.66667
0.29529,0.40241,2.9529,-0.14639,-17.735,516.63,1.1527,-0.38425,-1.9267,1.537,-5.6047e-12,-0.96333,0,0,0.1,1.1842e-16,0,0.66667
0.54412,0.35964,5.4412,-0.21055,-19.648,241.56,3.055,-1.0183,-1.8425,4.0733,-2.3528e-12,-0.92126,0,0,0.1,-0,-0,0.66667
0.48792,0.019674,4.8792,-0.72049,-73.163,298.33,9.3745,-3.1248,-0.15355,12.499,-5.4188e-12,-0.076775,0,0,0.1,-0,-0,0.66667
0.85536,0.75373,8.5536,0.38059,13.453,29.15,-8.6811,2.8937,-1.4846,-11.575,2.7597e-09,-0.7423,0,0,0.1,-0,-0,0.66667
0.88839,0.49995,8.8839,-7.2455e-05,-0.0019938,17.573,0.0017165,-0.00057217,-2.0026,0.0022886,-1.4358e-08,-1.0013,0,0,0.1,-2.4869e-15,0,0.66667
0.18438,0.37194,1.8438,-0.19209,-24.636,657.41,0.94448,-0.31483,-1.8696,1.2593,-1.171e-11,-0.93479,0,0,0.1,-2.9606e-16,0,0.66667
0.58535,0.020792,5.8535,-0.71881,-62.969,204.78,11.22,-3.74,-0.15983,14.96,4.543e-12,-0.079916,0,0,0.1,-0,-0,0.66667
0.89821,0.97006,8.9821,0.70509,18.118,16.774,-16.888,5.6294,-0.23053,-22.518,7.3952e-07,-0.11526,0,0,0.1,-0,-0,0.66667
0.44612,0.35913,4.4612,-0.21131,-22.453,341.46,2.5138,-0.83793,-1.838,3.3517,-2.4656e-12,-0.91902,0,0,0.1,9.4739e-16,0,0.66667
0.92187,0.49659,9.2187,-0.0051189,-0.099497,9.0344,0.12584,-0.041947,-2.0058,0.16779,-1.8179e-07,-1.0029,0,0,0.1,2.3685e-15,0,0.66667
0.27899,0.61758,2.7899,0.17637,21.589,536.8,-1.3122,0.43739,-1.8907,-1.7496,-4.2776e-12,-0.94535,0,0,0.1,2.3685e-16,0,0.66667
0.60883,0.34111,6.0883,-0.23833,-19.873,183.11,3.8694,-1.2898,-1.803,5.1592,-8.9928e-14,-0.90149,0,0,0.1,-1.4211e-15,0,0.66667
0.68245,0.94513,6.8245,0.6677,47.482,126.07,-12.151,4.0504,-0.41305,-16.202,2.1192e-12,-0.20653,0,0,0.1,-0,-0,0.66667
0.22821,0.027929,2.2821,-0.70811,-89.452,601.34,4.3092,-1.4364,-0.21533,5.7456,-1.2095e-10,-0.10766,0,0,0.1,-2.3685e-16,0,0.66667
0.013768,0.77805,0.13768,0.41707,55.431,884.52,-0.15312,0.05104,-1.384,-0.20416,3.0168e-08,-0.69202,0,0,0.1,1.4803e-17,0,0.66667
0.41672,0.85534,4.1672,0.53301,58.572,374.21,-5.9231,1.9744,-0.98765,-7.8975,-1.3749e-12,-0.49382,0,0,0.1,-0,-0,0.66667
0.93848,0.86094,9.3848,0.5414,8.4572,7.0365,-13.549,4.5164,-0.96076,-18.066,-2.7696e-08,-0.48038,0,0,0.1,-0,-0,0.66667
0.34303,0.36286,3.4303,-0.20571,-24.09,458.83,1.8818,-0.62725,-1.853,2.509,-4.7985e-12,-0.92652,0,0,0.1,-0,-0,0.66667
0.77974,0.63537,7.7974,0.20306,10.503,63.198,-4.2222,1.4074,-1.8556,-5.6296,-3.5171e-11,-0.92781,0,0,0.1,-0,-0,0.66667
0.17474,0.41445,1.7474,-0.12832,-16.515,669.98,0.59793,-0.19931,-1.9418,0.79725,1.7069e-10,-0.97091,0,0,0.1,-0,-0,0.66667
0.34195,0.60786,3.4195,0.16178,18.959,460.08,-1.4753,0.49175,-1.9085,-1.967,-7.9331e-12,-0.95425,0,0,0.1,-0,-0,0.66667
0.1446,0.66219,1.446,0.24329,31.634,709.59,-0.93812,0.31271,-1.7889,-1.2508,-3.0148e-09,-0.89444,0,0,0.1,-4.737e-16,0,0.66667
0.71677,0.78186,7.1677,0.42279,27.242,101.44,-8.0812,2.6937,-1.3673,-10.775,-5.2296e-12,-0.68363,0,0,0.1,-0,-0,0.66667
0.69931,0.22224,6.9931,-0.41665,-28.218,113.27,7.7697,-2.5899,-1.3827,10.36,-2.4163e-12,-0.69133,0,0,0.1,1.8948e-15,0,0.66667
0.6885,0.74969,6.885,0.37453,26.102,120.79,-6.8764,2.2921,-1.5058,-9.1685,-2.0735e-12,-0.7529,0,0,0.1,1.3915e-15,0,0.66667
0.2534,0.1817,2.534,-0.47745,-59.407,569.09,3.2262,-1.0754,-1.1895,4.3016,-1.1581e-11,-0.59474,0,0,0.1,5.9212e-16,0,0.66667
0.69236,0.64782,6.9236,0.22173,15.274,117.76,-4.0937,1.3646,-1.8234,-5.4583,-1.5872e-12,-0.91172,0,0,0.1,-0,-0,0.66667
0.2273,0.64085,2.273,0.21128,26.601,602.04,-1.2806,0.42687,-1.8381,-1.7075,2.3825e-11,-0.91904,0,0,0.1,-2.6917e-16,0,0.66667
0.42465,0.073921,4.2465,-0.63912,-69.747,365.64,7.2374,-2.4125,-0.54788,9.6498,6.4659e-13,-0.27394,0,0,0.1,-0,-0,0.66667
0.37192,0.44403,3.7192,-0.083958,-9.5975,424.77,0.83269,-0.27756,-1.9752,1.1102,-5.2013e-12,-0.98761,0,0,0.1,-0,-0,0.66667
0.35531,0.85665,3.5531,0.53498,62.172,444.67,-5.0689,1.6896,-0.98102,-6.7585,-1.7404e-12,-0.49051,0,0,0.1,-0,-0,0.66667
0.057655,0.8131,0.57655,0.46965,62.246,825.51,-0.72207,0.24069,-1.2152,-0.96276,-6.3258e-08,-0.60761,0,0,0.1,-2.3685e-16,0,0.66667
0.63165,0.2477,6.3165,-0.37845,-30.163,164.32,6.3745,-2.1248,-1.4889,8.4994,-1.6702e-12,-0.74446,0,0,0.1,1.1842e-15,0,0.66667
0.70732,0.67901,7.0732,0.26851,17.754,107.45,-5.0646,1.6882,-1.7425,-6.7528,-2.7787e-12,-0.87123,0,0,0.1,-4.737e-16,0,0.66667
0.61359,0.30847,6.1359,-0.2873,-23.741,179.14,4.7008,-1.5669,-1.7059,6.2678,-8.793e-14,-0.85296,0,0,0.1,-0,-0,0.66667
0.64831,0.033284,6.4831,-0.70007,-54.058,151.97,12.103,-4.0344,-0.25542,16.137,-2.4274e-12,-0.12771,0,0,0.1,1.8948e-15,0,0.66667
0.16994,0.43088,1.6994,-0.10368,-13.366,676.25,0.46987,-0.15662,-1.9637,0.6265,6.4364e-10,-0.98183,0,0,0.1,3.3747e-16,0,0.66667
0.14945,0.55898,1.4945,0.088468,11.481,703.16,-0.35257,0.11752,-1.9701,-0.47009,-3.5092e-11,-0.98503,0,0,0.1,-2.5181e-16,0,0.66667
0.51418,0.30033,5.1418,-0.2995,-29.229,270.83,4.1066,-1.3689,-1.6833,5.4755,-1.1915e-12,-0.84163,0,0,0.1,-0,-0,0.66667
0.87533,0.54355,8.7533,0.065318,1.9983,21.644,-1.5247,0.50822,-1.9891,-2.0329,5.2123e-09,-0.99454,0,0,0.1,-0,-0,0.66667
0.18395,0.46484,1.8395,-0.052738,-6.7631,657.95,0.2587,-0.086234,-1.9902,0.34494,3.2154e-10,-0.99511,0,0,0.1,3.5527e-16,0,0.66667
0.46284,0.77951,4.6284,0.41926,43.758,323.81,-5.1747,1.7249,-1.3735,-6.8996,1.7604e-12,-0.68677,0,0,0.1,-1.1842e-16,0,0.66667
0.42893,0.70663,4.2893,0.30994,33.573,360.33,-3.5452,1.1817,-1.6553,-4.7269,-1.8059e-12,-0.82766,0,0,0.1,-0,-0,0.66667
0.49729,0.85799,4.9729,0.53699,53.739,288.25,-7.121,2.3737,-0.97494,-9.4947,-7.4518e-13,-0.48747,0,0,0.1,-0,-0,0.66667
0.16151,0.44092,1.6151,-0.088626,-11.458,687.3,0.38171,-0.12724,-1.9707,0.50894,6.4034e-10,-0.98535,0,0,0.1,-4.737e-16,0,0.66667
0.34244,0.70226,3.4244,0.30339,35.56,459.6,-2.7705,0.92349,-1.6751,-3.694,-5.197e-12,-0.83754,0,0,0.1,-0,-0,0.66667
0.26188,0.69858,2.6188,0.29787,36.846,558.26,-2.0802,0.69339,-1.6836,-2.7736,4.2046e-12,-0.8418,0,0,0.1,4.737e-16,0,0.66667
0.84453,0.44797,8.4453,-0.078039,-2.9389,32.784,1.7575,-0.58584,-1.9818,2.3433,-2.833e-10,-0.99092,0,0,0.1,-1.8948e-15,0,0.66667
0.80033,0.99014,8.0033,0.7352,35.221,54.369,-15.691,5.2303,-0.077616,-20.921,2.9513e-10,-0.038808,0,0,0.1,9.4739e-16,0,0.66667
0.42664,0.4639,4.2664,-0.054156,-5.8751,362.68,0.61614,-0.20538,-1.9883,0.82152,-1.5078e-12,-0.99417,0,0,0.1,-4.737e-16,0,0.66667
0.60702,0.010805,6.0702,-0.73379,-61.77,185.96,11.878,-3.9593,-0.08635,15.837,-9.8233e-13,-0.043175,0,0,0.1,-0,1.0715e-16,0.66667
0.14547,0.5616,1.4547,0.092399,12.006,708.41,-0.35842,0.11947,-1.9691,-0.4779,-1.0234e-09,-0.98453,0,0,0.1,-2.9606e-16,0,0.66667
0.50961,0.58758,5.0961,0.13137,12.893,275.21,-1.7853,0.59509,-1.9364,-2.3804,-3.0166e-12,-0.96821,0,0,0.1,4.737e-16,0,0.66667
0.29695,0.43294,2.9695,-0.10059,-12.172,514.57,0.79652,-0.26551,-1.9696,1.062,-4.6592e-12,-0.98479,0,0,0.1,-1.1842e-16,0,0.66667
0.85965,0.31459,8.5965,-0.27812,-9.5385,27.319,6.3755,-2.1252,-1.7306,8.5007,-4.1863e-09,-0.86528,0,0,0.1,-3.7896e-15,0,0.66667
0.6716,0.41055,6.716,-0.13418,-9.7452,132.76,2.403,-0.801,-1.9412,3.204,-3.5207e-12,-0.97059,0,0,0.1,1.8948e-15,0,0.66667
0.63347,0.15335,6.3347,-0.51997,-41.351,163.19,8.7837,-2.9279,-1.0366,11.712,-2.319e-12,-0.51829,0,0,0.1,1.1349e-15,0,0.66667
0.12475,0.44549,1.2475,-0.081772,-10.686,735.82,0.27203,-0.090677,-1.981,0.36271,2.0455e-09,-0.99049,0,0,0.1,-2.3685e-16,0,0.66667
0.47059,0.32321,4.7059,-0.26519,-27.393,315.4,3.3279,-1.1093,-1.7516,4.4371,-3.2616e-12,-0.8758,0,0,0.1,-0,-0,0.66667
0.98657,0.73172,9.8657,0.34759,1.077,0.9592,-9.1445,3.0482,-1.5714,-12.193,-1.5661e-08,-0.7857,0,0,0.1,-0,-0,0.66667
0.9483,0.38557,9.483,-0.17165,-2.2104,4.3592,4.3406,-1.4469,-1.8933,5.7875,3.4253e-08,-0.94667,0,0,0.1,1.8948e-15,0,0.66667
0.64509,0.87411,6.4509,0.56117,43.542,154.01,-9.6534,3.2178,-0.88004,-12.871,1.3758e-12,-0.44002,0,0,0.1,-1.1842e-15,0,0.66667
0.15172,0.86373,1.5172,0.54559,70.921,700.36,-2.2075,0.73582,-0.93991,-2.9433,-6.784e-10,-0.46995,0,0,0.1,2.3685e-16,0,0.66667
0.63913,0.73845,6.3913,0.35768,28.048,158.23,-6.096,2.032,-1.5473,-8.128,2.1458e-12,-0.77364,0,0,0.1,-9.4739e-16,0,0.66667
0.56566,0.97989,5.6566,0.71983,65.234,222.57,-10.858,3.6194,-0.15741,-14.478,-2.8777e-13,-0.078704,0,0,0.1,-0,-0,0.66667
0.46867,0.55926,4.6867,0.088886,9.1972,317.3,-1.1109,0.37029,-1.9777,-1.4812,6.8612e-14,-0.98883,0,0,0.1,4.737e-16,0,0.66667
0.42804,0.5768,4.2804,0.1152,12.48,361.15,-1.3149,0.4383,-1.9499,-1.7532,-3.1873e-12,-0.97495,0,0,0.1,-0,-0,0.66667
0.59927,0.50969,5.9927,0.014532,1.2333,191.19,-0.23223,0.077411,-1.9969,-0.30964,-9.5385e-13,-0.99846,0,0,0.1,-0,-0,0.66667
0.84997,0.52678,8.4997,0.040168,1.4631,30.643,-0.91044,0.30348,-1.9922,-1.2139,1.6238e-09,-0.99609,0,0,0.1,-0,-0,0.66667
0.75112,0.24786,7.5112,-0.37821,-21.813,79.739,7.5755,-2.5252,-1.4954,10.101,1.4829e-11,-0.74768,0,0,0.1,-1.1842e-15,0,0.66667
0.57936,0.55503,5.7936,0.082548,7.2645,208.81,-1.2753,0.42511,-1.9787,-1.7005,-2.4715e-12,-0.98936,0,0,0.1,4.737e-16,0,0.66667
0.9247,0.55605,9.247,0.08407,1.5761,8.4652,-2.0731,0.69102,-1.9755,-2.7641,4.4967e-08,-0.98774,0,0,0.1,-4.737e-16,0,0.66667
0.06474,0.071573,0.6474,-0.64264,-85.227,816.06,1.1095,-0.36982,-0.53276,1.4793,-6.2295e-07,-0.26638,0,0,0.1,-0,-0,0.66667
0.99135,0.18605,9.9135,-0.47093,-0.91558,1.1993,12.449,-4.1498,-1.2097,16.599,-2.3509e-06,-0.60484,0,0,0.1,-2.2501e-15,0,0.66667
0.052995,0.087282,0.52995,-0.61908,-82.197,831.8,0.87487,-0.29162,-0.63499,1.1665,-1.3223e-06,-0.3175,0,0,0.1,5.9212e-17,0,0.66667
0.1995,0.6076,1.995,0.1614,20.573,637.79,-0.85861,0.2862,-1.9065,-1.1448,2.4269e-11,-0.95323,0,0,0.1,-0,-0,0.66667
0.42275,0.48425,4.2275,-0.023632,-2.574,366.98,0.26641,-0.088804,-2.0011,0.35522,-2.5694e-12,-1.0006,0,0,0.1,-0,-0,0.66667
0.10751,0.1584,1.0751,-0.5124,-67.371,758.86,1.469,-0.48967,-1.0692,1.9587,3.7179e-08,-0.53458,0,0,0.1,-0,-0,0.66667
0.62367,0.27271,6.2367,-0.34093,-27.618,170.8,5.6701,-1.89,-1.5894,7.5601,-1.5166e-12,-0.7947,0,0,0.1,4.737e-16,0,0.66667
0.047993,0.073561,0.47993,-0.63966,-84.99,838.52,0.81863,-0.27287,-0.54803,1.0915,3.5677e-06,-0.27401,0,0,0.1,-0,-0,0.66667
0.28462,0.58312,2.8462,0.12468,15.207,529.79,-0.94632,0.31544,-1.9442,-1.2618,-1.3117e-12,-0.97212,0,0,0.1,-0,-0,0.66667
0.061037,0.52665,0.61037,0.039981,5.2877,820.91,-0.065075,0.021692,-1.9973,-0.086766,-1.0922e-07,-0.99863,0,0,0.1,-0,-0,0.66667
0.70352,0.70154,7.0352,0.30231,20.21,110.1,-5.6714,1.8905,-1.6791,-7.5619,-3.9497e-12,-0.83957,0,0,0.1,9.4739e-16,0,0.66667
0.66846,0.56295,6.6846,0.094426,6.9102,135.09,-1.6832,0.56106,-1.9692,-2.2442,-3.9657e-13,-0.9846,0,0,0.1,-0,-0,0.66667
0.37858,0.6871,3.7858,0.28065,31.916,417.17,-2.8333,0.94444,-1.7207,-3.7777,-5.6608e-12,-0.86034,0,0,0.1,1.4803e-16,0,0.66667
0.18819,0.02023,1.8819,-0.71965,-92.522,652.86,3.6116,-1.2039,-0.16219,4.8155,-1.5485e-10,-0.081095,0,0,0.1,-0,-0,0.66667
0.747,0.50918,7.47,0.013767,0.8033,81.73,-0.27425,0.091416,-1.9994,-0.36567,-4.5141e-12,-0.99971,0,0,0.1,3.7896e-15,0,0.66667
0.34038,0.80899,3.4038,0.46348,54.47,462.25,-4.2069,1.4023,-1.2366,-5.6092,-4.7646e-12,-0.6183,0,0,0.1,5.9212e-16,0,0.66667
0.7953,0.52375,7.953,0.035631,1.7252,54.961,-0.75567,0.25189,-1.9979,-1.0076,-3.0992e-11,-0.99893,0,0,0.1,-0,-0,0.66667
0.4879,0.56509,4.879,0.097637,9.8633,297.25,-1.2703,0.42344,-1.9665,-1.6938,-1.3217e-12,-0.98323,0,0,0.1,-1.8948e-15,0,0.66667
0.52567,0.96997,5.2567,0.70495,67.972,260.44,-9.8819,3.294,-0.23188,-13.176,6.6613e-13,-0.11594,0,0,0.1,-0,-0,0.66667
0.028491,0.57824,0.28491,0.11736,15.568,864.68,-0.089163,0.029721,-1.9512,-0.11888,3.1506e-07,-0.97558,0,0,0.1,5.9212e-17,0,0.66667
0.64423,0.66446,6.4423,0.2467,19.113,153.96,-4.2381,1.4127,-1.7831,-5.6508,3.7836e-13,-0.89154,0,0,0.1,-0,-0,0.66667
0.35066,0.41714,3.5066,-0.12428,-14.463,449.73,1.1622,-0.38738,-1.9421,1.5495,-1.0141e-12,-0.97103,0,0,0.1,-0,-0,0.66667
0.22921,0.98754,2.2921,0.73131,92.365,600.1,-4.4699,1.49,-0.09614,-5.9598,2.6904e-11,-0.04807,0,0,0.1,2.3685e-16,0,0.66667
0.43388,0.23147,4.3388,-0.40279,-43.428,355.01,4.6604,-1.5535,-1.4223,6.2139,-2.1805e-12,-0.71113,0,0,0.1,-0,-0,0.66667
0.38247,0.74851,3.8247,0.37277,42.269,412.78,-3.8019,1.2673,-1.5041,-5.0693,-3.0118e-12,-0.75203,0,0,0.1,-0,-0,0.66667
0.46979,0.99139,4.6979,0.73708,76.573,317.23,-9.2339,3.078,-0.071496,-12.312,4.9738e-13,-0.035748,0,0,0.1,-0,-0,0.66667
0.97948,0.35597,9.7948,-0.21605,-1.0543,1.0513,5.6432,-1.8811,-1.832,7.5242,3.5857e-07,-0.91598,0,0,0.1,-0,-0,0.66667
0.36438,0.42522,3.6438,-0.11217,-12.906,433.58,1.0899,-0.36331,-1.9531,1.4533,-6.5919e-12,-0.97656,0,0,0.1,-4.737e-16,0,0.66667
0.77441,0.93138,7.7441,0.64707,34.439,67.389,-13.363,4.4542,-0.50878,-17.817,-1.3457e-10,-0.25439,0,0,0.1,-0,-0,0.66667
0.55277,0.45897,5.5277,-0.061552,-5.6636,233.28,0.9073,-0.30243,-1.984,1.2097,-1.7744e-12,-0.99199,0,0,0.1,-0,-0,0.66667
0.88913,0.82647,8.8913,0.48971,13.512,18.302,-11.611,3.8704,-1.1494,-15.481,1.5478e-08,-0.57469,0,0,0.1,-0,-0,0.66667
0.35495,0.74497,3.5495,0.36746,42.659,444.85,-3.4782,1.1594,-1.5189,-4.6376,-2.6084e-12,-0.75947,0,0,0.1,4.737e-16,0,0.66667
0.24552,0.12662,2.4552,-0.56008,-70.031,579.14,3.6669,-1.2223,-0.88425,4.8892,1.3362e-10,-0.44212,0,0,0.1,-0,-0,0.66667
0.91102,0.49408,9.1102,-0.0088781,-0.1961,11.504,0.21568,-0.071894,-1.9983,0.28758,1.0908e-07,-0.99917,0,0,0.1,4.737e-16,0,0.66667
0.043534,0.66162,0.43534,0.24243,32.136,844.44,-0.28144,0.093812,-1.7912,-0.37525,1.0862e-07,-0.89558,0,0,0.1,-0,-0,0.66667
0.95075,0.70915,9.5075,0.31372,3.8675,4.2941,-7.954,2.6513,-1.651,-10.605,-3.957e-10,-0.82549,0,0,0.1,9.4739e-16,0,0.66667
0.55641,0.5027,5.5641,0.0040521,0.37065,229.86,-0.060123,0.020041,-1.9982,-0.080165,2.6606e-12,-0.99911,0,0,0.1,-0,-0,0.66667
0.37636,0.60035,3.7636,0.15052,17.142,419.64,-1.5107,0.50355,-1.9223,-2.0142,-4.8451e-12,-0.96114,0,0,0.1,-9.4739e-16,0,0.66667
0.99505,0.896,9.9505,0.594,0.65258,1.6631,-15.762,5.2539,-0.74351,-21.015,5.5533e-06,-0.37176,0,0,0.1,-0,1.0442e-16,0.66667
0.058363,0.50854,0.58363,0.012815,1.6953,824.5,-0.019944,0.0066483,-1.9983,-0.026591,5.6789e-07,-0.99914,0,0,0.1,-0,-0,0.66667
0.51671,0.80625,5.1671,0.45937,44.729,268.59,-6.3296,2.1099,-1.2531,-8.4394,-3.1326e-12,-0.62654,0,0,0.1,-9.4739e-16,0,0.66667
0.031097,0.74523,0.31097,0.36785,48.836,861.18,-0.30504,0.10168,-1.5243,-0.40672,8.2985e-07,-0.76213,0,0,0.1,-7.4015e-17,0,0.66667
0.57118,0.0011151,5.7118,-0.74833,-67.224,217.64,11.398,-3.7993,-0.0072017,15.197,8.8196e-13,-0.0036008,0,0,0.1,-0,-0,0.66667
0.18047,0.69963,1.8047,0.29944,38.479,662.56,-1.4411,0.48036,-1.6781,-1.9214,-1.2659e-10,-0.83904,0,0,0.1,-0,-0,0.66667
0.63096,0.3873,6.3096,-0.16904,-13.473,164.56,2.8443,-0.94809,-1.8956,3.7924,-7.9048e-13,-0.94782,0,0,0.1,9.4739e-16,0,0.66667
0.98092,0.77526,9.8092,0.41289,1.9125,1.4957,-10.8,3.6001,-1.3938,-14.4,-1.5561e-06,-0.69688,0,0,0.1,-4.737e-16,0,0.66667
0.8749,0.21868,8.749,-0.42198,-13.028,22.46,9.845,-3.2817,-1.3732,13.127,-6.1794e-09,-0.68661,0,0,0.1,2.5683e-15,0,0.66667
0.45184,0.39203,4.5184,-0.16195,-17.095,335.26,1.9513,-0.65044,-1.9092,2.6018,-6.7946e-13,-0.95458,0,0,0.1,-9.4739e-16,0,0.66667
0.70846,0.7781,7.0846,0.41715,27.535,106.99,-7.8809,2.627,-1.3799,-10.508,-1.1142e-12,-0.68995,0,0,0.1,2.3685e-16,0,0.66667
0.77747,0.31181,7.7747,-0.28228,-14.746,64.557,5.8524,-1.9508,-1.7171,7.8032,3.6724e-11,-0.85856,0,0,0.1,3.5527e-16,0,0.66667
0.49484,0.46284,4.9484,-0.055739,-5.5797,290.12,0.73552,-0.24517,-1.9873,0.9807,2.8273e-12,-0.99364,0,0,0.1,4.737e-16,0,0.66667
0.52853,0.82472,5.2853,0.48708,46.638,257.03,-6.865,2.2883,-1.1567,-9.1534,-2.0086e-12,-0.57836,0,0,0.1,-9.4739e-16,0,0.66667
0.15078,0.95618,1.5078,0.68427,89.095,701.71,-2.7514,0.91713,-0.33272,-3.6685,-6.6443e-09,-0.16636,0,0,0.1,-2.3685e-16,0,0.66667
0.3694,0.86627,3.694,0.5494,63.109,428.19,-5.412,1.804,-0.92448,-7.216,-1.1342e-12,-0.46224,0,0,0.1,-4.737e-16,0,0.66667
0.14222,0.52989,1.4222,0.044832,5.8306,712.69,-0.17003,0.056676,-1.9961,-0.2267,5.2386e-10,-0.99807,0,0,0.1,-8.8818e-17,0,0.66667
0.72689,0.79734,7.2689,0.44601,27.878,94.907,-8.6453,2.8818,-1.2895,-11.527,-5.4747e-12,-0.64473,0,0,0.1,9.4739e-16,0,0.66667
0.47701,0.11649,4.7701,-0.57526,-59.11,309.22,7.3175,-2.4392,-0.82049,9.7566,-4.4196e-12,-0.41024,0,0,0.1,-4.737e-16,0,0.66667
0.44888,0.48481,4.4888,-0.02278,-2.412,338.39,0.27267,-0.090891,-1.9966,0.36357,-6.4996e-12,-0.99828,0,0,0.1,9.4739e-16,0,0.66667
0.886,0.36503,8.86,-0.20246,-5.6946,18.447,4.7835,-1.5945,-1.8525,6.378,-1.4303e-08,-0.92627,0,0,0.1,-9.4739e-16,0,0.66667
0.52762,0.20483,5.2762,-0.44276,-42.432,257.83,6.2296,-2.0765,-1.302,8.3061,-4.7296e-13,-0.65102,0,0,0.1,-0,-0,0.66667
0.40909,0.21943,4.0909,-0.42085,-46.554,382.56,4.5911,-1.5304,-1.3718,6.1215,3.7663e-12,-0.68592,0,0,0.1,-0,-0,0.66667
0.26889,0.11081,2.6889,-0.58378,-72.076,549.77,4.186,-1.3953,-0.78774,5.5813,-9.952e-12,-0.39387,0,0,0.1,4.737e-16,0,0.66667
0.072012,0.5675,0.72012,0.10124,13.371,806.19,-0.19442,0.064807,-1.9614,-0.25923,-7.3188e-08,-0.98072,0,0,0.1,-0,-0,0.66667
0.41814,0.52188,4.1814,0.032816,3.5914,372.11,-0.36591,0.12197,-1.9954,-0.48788,-1.4545e-12,-0.99769,0,0,0.1,-0,-0,0.66667
0.025753,0.45813,0.25753,-0.062798,-8.3312,868.36,0.043127,-0.014375,-1.9836,0.057503,7.0679e-07,-0.99179,0,0,0.1,-0,-0,0.66667
0.29115,0.94646,2.9115,0.66969,81.643,522.28,-5.1995,1.7332,-0.40302,-6.9327,-4.917e-12,-0.20151,0,0,0.1,-0,-0,0.66667
0.50351,0.52561,5.0351,0.03842,3.8016,281.31,-0.51587,0.17196,-1.9946,-0.68782,2.195e-12,-0.99732,0,0,0.1,-0,-0,0.66667
0.96593,0.65248,9.6593,0.22872,1.9214,2.2371,-5.8915,1.9638,-1.815,-7.8554,-2.9314e-07,-0.90751,0,0,0.1,1.2334e-15,0,0.66667
0.10938,0.024019,1.0938,-0.71397,-94.018,756.49,2.0826,-0.69419,-0.19287,2.7768,4.1625e-07,-0.096435,0,0,0.1,-0,-0,0.66667
0.67304,0.12264,6.7304,-0.56604,-41.142,132.59,10.159,-3.3864,-0.86465,13.545,-6.3327e-13,-0.43233,0,0,0.1,1.4211e-15,0,0.66667
0.49993,0.27832,4.9993,-0.33252,-33.099,285.18,4.433,-1.4777,-1.6127,5.9107,-2.8058e-12,-0.80635,0,0,0.1,2.6643e-16,0,0.66667
0.7771,0.67419,7.771,0.26129,13.666,64.718,-5.4145,1.8048,-1.7558,-7.2194,-3.658e-11,-0.8779,0,0,0.1,-9.4739e-16,0,0.66667
0.14361,0.50882,1.4361,0.013232,1.7202,710.86,-0.050672,0.016891,-1.9995,-0.067563,-7.6677e-10,-0.99977,0,0,0.1,-0,-0,0.66667
0.083203,0.96121,0.83203,0.69181,91.542,791.37,-1.5349,0.51165,-0.29649,-2.0466,6.6366e-07,-0.14824,0,0,0.1,-6.9158e-17,0,0.66667
0.39922,0.32228,3.9922,-0.26658,-29.744,393.51,2.838,-0.946,-1.7444,3.784,-1.43e-13,-0.87218,0,0,0.1,-0,-0,0.66667
0.79696,0.33682,7.9696,-0.24477,-11.78,54.334,5.2019,-1.734,-1.7922,6.9359,3.3343e-11,-0.89609,0,0,0.1,-4.737e-16,0,0.66667
0.19168,0.28407,1.9168,-0.32389,-41.446,647.99,1.6555,-0.55185,-1.6266,2.2074,1.5228e-11,-0.81331,0,0,0.1,-0,-0,0.66667
0.76778,0.65575,7.6778,0.23363,12.665,69.813,-4.7834,1.5945,-1.8085,-6.3778,-3.4362e-11,-0.90426,0,0,0.1,2.9606e-16,0,0.66667
0.2903,0.98991,2.903,0.73486,89.707,523.45,-5.6888,1.8963,-0.077063,-7.585,5.3157e-12,-0.038531,0,0,0.1,-7.1054e-16,0,0.66667
0.21689,0.72754,2.1689,0.34131,43.209,615.44,-1.9741,0.65802,-1.5876,-2.6321,4.1154e-11,-0.79379,0,0,0.1,-0,-0,0.66667
0.016716,0.41989,0.16716,-0.12016,-15.949,880.53,0.053563,-0.017854,-1.9514,0.071417,4.3214e-08,-0.97571,0,0,0.1,-0,-0,0.66667
0.39866,0.24323,3.9866,-0.38515,-43.027,394.28,4.0945,-1.3648,-1.4698,5.4594,-3.3467e-12,-0.73491,0,0,0.1,-0,-0,0.66667
0.38108,0.80404,3.8108,0.45606,51.81,414.5,-4.6346,1.5449,-1.258,-6.1794,-6.5854e-12,-0.62898,0,0,0.1,-0,-0,0.66667
0.65934,0.70888,6.5934,0.31331,23.463,142.27,-5.5089,1.8363,-1.6509,-7.3451,-5.8975e-13,-0.82544,0,0,0.1,-0,-0,0.66667
0.070918,0.10029,0.70918,-0.59956,-79.413,807.76,1.1339,-0.37795,-0.71922,1.5118,4.3913e-07,-0.35961,0,0,0.1,-0,-0,0.66667
0.1526,0.82149,1.526,0.48223,62.635,699.16,-1.9624,0.65414,-1.1725,-2.6165,-7.0149e-11,-0.58625,0,0,0.1,-0,-0,0.66667
0.016576,0.39518,0.16576,-0.15723,-20.871,880.72,0.069501,-0.023167,-1.9152,0.092668,-9.3465e-08,-0.95762,0,0,0.1,1.4803e-17,0,0.66667
0.1138,0.9323,1.138,0.64844,85.244,750.58,-1.9677,0.65592,-0.50397,-2.6237,-6.2463e-08,-0.25199,0,0,0.1,-0,-0,0.66667
0.65179,0.87058,6.5179,0.55587,42.483,148.73,-9.6615,3.2205,-0.90047,-12.882,-2.4603e-12,-0.45024,0,0,0.1,1.4211e-15,0,0.66667
0.40266,0.8907,4.0266,0.58605,65.337,390.1,-6.2927,2.0976,-0.77793,-8.3902,-3.7246e-12,-0.38897,0,0,0.1,9.4739e-16,0,0.66667
0.32103,0.24001,3.2103,-0.38998,-46.472,485.39,3.3385,-1.1128,-1.4563,4.4513,-4.9212e-12,-0.72813,0,0,0.1,-0,-0,0.66667
0.55791,0.011784,5.5791,-0.73232,-67.23,229.78,10.895,-3.6318,-0.091369,14.527,3.3946e-12,-0.045684,0,0,0.1,-0,-0,0.66667
0.99346,0.25567,9.9346,-0.36649,-0.47427,0.74262,9.7091,-3.2364,-1.5201,12.946,-1.1425e-06,-0.76003,0,0,0.1,-0,-0,0.66667
0.83449,0.64213,8.3449,0.2132,8.5168,37.024,-4.7443,1.5814,-1.8354,-6.3257,7.269e-10,-0.9177,0,0,0.1,9.4739e-16,0,0.66667
0.69962,0.47152,6.9962,-0.042723,-2.8833,112.52,0.79707,-0.26569,-1.9939,1.0628,-6.4987e-13,-0.99693,0,0,0.1,-0,-0,0.66667
0.91826,0.45531,9.1826,-0.067028,-1.3626,9.8425,1.6413,-0.5471,-1.9831,2.1884,-2.1162e-08,-0.99156,0,0,0.1,9.4739e-16,0,0.66667
0.039729,0.58536,0.39729,0.12804,16.972,849.55,-0.13565,0.045216,-1.9389,-0.18087,1.0669e-07,-0.96943,0,0,0.1,-2.9606e-17,0,0.66667
0.070333,0.43132,0.70333,-0.10302,-13.609,808.44,0.19322,-0.064405,-1.9596,0.25762,6.46e-08,-0.9798,0,0,0.1,4.1646e-17,0,0.66667
0.47401,0.72245,4.7401,0.33368,34.338,311.9,-4.2177,1.4059,-1.6027,-5.6236,-1.7186e-13,-0.80135,0,0,0.1,-0,-0,0.66667
0.34917,0.38147,3.4917,-0.1778,-20.718,451.52,1.6555,-0.55183,-1.8857,2.2073,-5.6062e-12,-0.94284,0,0,0.1,-9.4739e-16,0,0.66667
0.93725,0.73267,9.3725,0.34901,5.4971,6.5362,-8.7229,2.9076,-1.5713,-11.631,1.3031e-07,-0.78564,0,0,0.1,-0,-0,0.66667
0.48956,0.74759,4.8956,0.37139,37.486,295.82,-4.8485,1.6162,-1.5084,-6.4646,-1.6311e-12,-0.75422,0,0,0.1,1.1842e-16,0,0.66667
0.53965,0.95875,5.3965,0.68813,64.967,246.86,-9.9026,3.3009,-0.31335,-13.203,2.1378e-12,-0.15668,0,0,0.1,-0,-0,0.66667
0.89526,0.38722,8.9526,-0.16917,-4.384,15.714,4.0388,-1.3463,-1.8964,5.385,-1.9684e-08,-0.94819,0,0,0.1,-0,-0,0.66667
0.44664,0.48058,4.4664,-0.029131,-3.0924,340.81,0.34696,-0.11565,-1.994,0.46262,-4.2003e-12,-0.99702,0,0,0.1,-0,-0,0.66667
0.87703,0.93144,8.7703,0.64717,19.82,22.709,-15.136,5.0452,-0.51266,-20.181,1.8212e-07,-0.25633,0,0,0.1,4.737e-16,0,0.66667
0.25358,0.91663,2.5358,0.62495,77.857,569.04,-4.226,1.4087,-0.61063,-5.6347,1.3524e-11,-0.30532,0,0,0.1,-0,-0,0.66667
0.27381,0.97812,2.7381,0.71719,88.42,543.85,-5.2366,1.7455,-0.16819,-6.9821,-6.3118e-12,-0.084093,0,0,0.1,4.737e-16,0,0.66667
0.32836,0.54779,3.2836,0.071681,8.4855,476.33,-0.62766,0.20922,-1.9861,-0.83688,-3.2769e-12,-0.99305,0,0,0.1,-4.737e-16,0,0.66667
0.54756,0.32738,5.4756,-0.25893,-24.039,238.34,3.7808,-1.2603,-1.7651,5.041,1.8163e-13,-0.88256,0,0,0.1,-9.4739e-16,0,0.66667
0.22013,0.20872,2.2013,-0.43692,-55.264,611.36,2.5647,-0.85491,-1.3237,3.4196,-4.5675e-11,-0.66186,0,0,0.1,-0,-0,0.66667
0.67143,0.24719,6.7143,-0.37921,-27.603,133.26,6.7898,-2.2633,-1.4938,9.053,-1.9953e-12,-0.7469,0,0,0.1,4.737e-16,0,0.66667
0.14279,0.63638,1.4279,0.20457,26.609,711.96,-0.77895,0.25965,-1.8523,-1.0386,-3.1566e-09,-0.92615,0,0,0.1,-0,-0,0.66667
0.0941,0.72147,0.941,0.33221,43.746,776.67,-0.83362,0.27787,-1.6129,-1.1115,-4.3396e-08,-0.80646,0,0,0.1,-0,-0,0.66667
0.87019,0.14565,8.7019,-0.53152,-17.05,24.426,12.334,-4.1113,-0.9936,16.445,-5.2325e-09,-0.4968,0,0,0.1,9.4739e-16,0,0.66667
0.23687,0.47229,2.3687,-0.04157,-5.2076,589.78,0.26258,-0.087527,-1.9954,0.35011,-9.0529e-12,-0.99768,0,0,0.1,9.4739e-16,0,0.66667
0.386,0.6026,3.86,0.15389,17.376,408.52,-1.5841,0.52804,-1.9142,-2.1121,-9.2781e-12,-0.95709,0,0,0.1,-0,-0,0.66667
0.57154,0.018526,5.7154,-0.72221,-64.808,217.21,11.007,-3.6691,-0.14244,14.676,-1.2683e-12,-0.071219,0,0,0.1,-0,-0,0.66667
0.5258,0.25784,5.258,-0.36324,-34.88,259.45,5.0931,-1.6977,-1.5288,6.7908,-2.494e-12,-0.76438,0,0,0.1,9.4739e-16,0,0.66667
0.076024,0.90391,0.76024,0.60587,80.193,800.93,-1.2283,0.40943,-0.69713,-1.6377,-3.3199e-07,-0.34856,0,0,0.1,2.9606e-17,0,0.66667
0.87413,0.35793,8.7413,-0.2131,-6.5886,22.199,4.9674,-1.6558,-1.8417,6.6233,-8.5822e-09,-0.92084,0,0,0.1,-0,-0,0.66667
0.95114,0.77545,9.5114,0.41317,5.0844,4.5457,-10.479,3.4932,-1.3949,-13.973,1.8527e-07,-0.69747,0,0,0.1,-0,-0,0.66667
0.81251,0.63958,8.1251,0.20937,9.3742,46.756,-4.5365,1.5122,-1.849,-6.0486,5.6199e-11,-0.92449,0,0,0.1,-0,-0,0.66667
0.2838,0.19715,2.838,-0.45428,-55.524,531.05,3.438,-1.146,-1.2669,4.584,-3.1519e-12,-0.63345,0,0,0.1,-0,-0,0.66667
0.52785,0.54238,5.2785,0.063566,6.0772,257.16,-0.89475,0.29825,-1.9851,-1.193,-3.2795e-12,-0.99254,0,0,0.1,-0,-0,0.66667
0.33942,0.6917,3.3942,0.28755,33.78,463.19,-2.6027,0.86756,-1.7052,-3.4702,-2.3666e-12,-0.85262,0,0,0.1,-9.4739e-16,0,0.66667
0.55467,0.71557,5.5467,0.32335,29.696,231.74,-4.7827,1.5942,-1.626,-6.377,-3.4692e-12,-0.81302,0,0,0.1,1.1842e-15,0,0.66667
0.9744,0.85768,9.744,0.53653,3.4625,2.4753,-13.941,4.647,-0.97385,-18.588,-6.925e-06,-0.48693,0,0,0.1,1.8948e-15,0,0.66667
0.3117,0.86391,3.117,0.54586,65.56,496.91,-4.5372,1.5124,-0.94399,-6.0497,-2.9705e-12,-0.472,0,0,0.1,-0,-0,0.66667
0.6688,0.99836,6.688,0.74754,55.087,136.47,-13.332,4.444,-0.014191,-17.776,4.8113e-12,-0.0070954,0,0,0.1,-1.7764e-15,2.3585e-17,0.66667
0.32597,0.8812,3.2597,0.5718,68,479.68,-4.9704,1.6568,-0.83908,-6.6272,6.275e-13,-0.41954,0,0,0.1,-0,-0,0.66667
0.77448,0.34938,7.7448,-0.22594,-11.936,66.087,4.6662,-1.5554,-1.8161,6.2216,3.3506e-11,-0.90803,0,0,0.1,-1.8948e-15,0,0.66667
0.32581,0.25011,3.2581,-0.37483,-44.508,479.6,3.2566,-1.0855,-1.5029,4.3421,-4.8632e-12,-0.75145,0,0,0.1,9.4739e-16,0,0.66667
0.88983,0.0015812,8.8983,-0.74763,-20.752,19.361,17.74,-5.9134,-0.017289,23.654,2.2237e-08,-0.0086443,0,0,0.1,-0,-0,0.66667
0.75171,0.21483,7.5171,-0.42776,-24.638,79.524,8.5746,-2.8582,-1.3521,11.433,2.531e-11,-0.67603,0,0,0.1,-1.1842e-15,0,0.66667
0.76263,0.35341,7.6263,-0.21989,-12.149,72.707,4.4719,-1.4906,-1.8281,5.9625,2.2894e-11,-0.91407,0,0,0.1,-0,-0,0.66667
0.46948,0.0077026,4.6948,-0.73845,-76.745,317.56,9.2449,-3.0816,-0.064993,12.327,1.6342e-12,-0.032497,0,0,0.1,-0,-0,0.66667
0.21076,0.13624,2.1076,-0.54563,-69.37,623.49,3.0667,-1.0222,-0.93831,4.0889,1.9101e-10,-0.46916,0,0,0.1,-0,-0,0.66667
0.041475,0.36969,0.41475,-0.19546,-25.91,847.21,0.21618,-0.07206,-1.8624,0.28824,-1.1598e-07,-0.9312,0,0,0.1,-0,-0,0.66667
0.32183,0.35233,3.2183,-0.22151,-26.357,484.28,1.901,-0.63367,-1.8229,2.5347,-6.3813e-12,-0.91146,0,0,0.1,-0,-0,0.66667
0.037113,0.12597,0.37113,-0.56104,-74.558,853.12,0.55525,-0.18508,-0.87956,0.74033,2.2856e-06,-0.43978,0,0,0.1,-1.1842e-16,0,0.66667
0.69386,0.87005,6.9386,0.55508,38.233,117.5,-10.271,3.4235,-0.90228,-13.694,5.1115e-12,-0.45114,0,0,0.1,-9.4739e-16,0,0.66667
0.67035,0.64044,6.7035,0.21066,15.353,133.77,-3.7657,1.2552,-1.8442,-5.0209,1.3278e-13,-0.9221,0,0,0.1,-0,-0,0.66667
0.43047,0.45787,4.3047,-0.063189,-6.8273,358.46,0.72536,-0.24179,-1.9828,0.96715,-2.9042e-12,-0.99138,0,0,0.1,4.737e-16,0,0.66667
0.76779,0.47758,7.6779,-0.033629,-1.8211,69.624,0.68853,-0.22951,-1.9973,0.91804,1.1334e-11,-0.99864,0,0,0.1,-0,-0,0.66667
0.53601,0.77891,5.3601,0.41837,39.588,249.64,-5.98,1.9933,-1.3769,-7.9733,-2.4487e-12,-0.68843,0,0,0.1,3.5527e-16,0,0.66667
0.03986,0.82285,0.3986,0.48428,64.303,849.41,-0.51475,0.17158,-1.1631,-0.68634,-1.2223e-06,-0.58157,0,0,0.1,-0,-0,0.66667
0.13479,0.60328,1.3479,0.15491,20.193,722.52,-0.55683,0.18561,-1.9122,-0.74244,-3.1532e-09,-0.95609,0,0,0.1,-0,-0,0.66667
0.19342,0.20712,1.9342,-0.43933,-56.217,645.81,2.2659,-0.75531,-1.3111,3.0213,-7.9432e-11,-0.65553,0,0,0.1,2.3685e-16,0,0.66667
0.33566,0.62815,3.3566,0.19223,22.638,467.61,-1.7206,0.57355,-1.8664,-2.2942,-6.6429e-12,-0.93322,0,0,0.1,-9.4739e-16,0,0.66667
0.052313,0.9368,0.52313,0.6552,87.031,832.73,-0.91401,0.30467,-0.47266,-1.2187,1.3014e-06,-0.23633,0,0,0.1,3.7007e-18,0,0.66667
0.60512,0.9105,6.0512,0.61575,51.92,187.16,-9.936,3.312,-0.65124,-13.248,-1.7728e-12,-0.32562,0,0,0.1,1.8948e-15,0,0.66667
0.51206,0.50377,5.1206,0.0056572,0.55321,272.73,-0.077249,0.02575,-2,-0.103,6.2507e-13,-1,0,0,0.1,-0,-0,0.66667
0.61746,0.51516,6.1746,0.022739,1.8627,175.66,-0.37441,0.1248,-1.9949,-0.49921,-2.014e-12,-0.99745,0,0,0.1,1.8948e-15,0,0.66667
0.43236,0.26311,4.3236,-0.35534,-38.362,356.62,4.0969,-1.3656,-1.5488,5.4626,-6.5592e-13,-0.77438,0,0,0.1,-0,-0,0.66667
0.8477,0.69687,8.477,0.29531,10.934,31.843,-6.6755,2.2252,-1.6889,-8.9006,1.733e-09,-0.84446,0,0,0.1,-1.8948e-15,0,0.66667
0.45406,0.85927,4.5406,0.53891,56.888,333.4,-6.5253,2.1751,-0.97041,-8.7003,-1.6698e-13,-0.4852,0,0,0.1,-0,-0,0.66667
0.015404,0.99473,0.15404,0.7421,98.914,882.34,-0.30466,0.10159,-0.047272,-0.4062,4.9036e-05,-0.023636,0,0,0.1,-7.4015e-18,0,0.66667
0.87307,0.17672,8.7307,-0.48492,-15.207,23.284,11.29,-3.7633,-1.1654,15.053,-4.7984e-09,-0.58271,0,0,0.1,-9.4739e-16,0,0.66667
0.6562,0.87387,6.562,0.56081,42.432,145.32,-9.8135,3.2712,-0.88798,-13.085,1.4948e-12,-0.44399,0,0,0.1,-1.1842e-16,1.6616e-17,0.66667
0.823,0.49634,8.23,-0.0054941,-0.23316,41.814,0.12058,-0.040193,-1.9986,0.16077,1.4046e-10,-0.99929,0,0,0.1,-3.079e-15,0,0.66667
0.95178,0.1885,9.5178,-0.46724,-5.697,4.6576,11.859,-3.953,-1.2275,15.812,-4.0205e-07,-0.61377,0,0,0.1,3.7896e-15,0,0.66667
0.050912,0.22251,0.50912,-0.41624,-55.187,834.55,0.56511,-0.18837,-1.3836,0.75348,1.3766e-07,-0.69179,0,0,0.1,-0,-0,0.66667
0.23507,0.51309,2.3507,0.019633,2.4616,592.07,-0.12307,0.041024,-2.0021,-0.16409,-1.2067e-11,-1.0011,0,0,0.1,-0,-0,0.66667
0.063343,0.78115,0.63343,0.42172,55.836,817.86,-0.71236,0.23745,-1.3725,-0.94981,-1.8333e-07,-0.68626,0,0,0.1,-2.7756e-17,0,0.66667
0.42166,0.10358,4.2166,-0.59463,-65.059,368.85,6.6862,-2.2287,-0.74745,8.9149,-8.2512e-13,-0.37372,0,0,0.1,9.4739e-16,0,0.66667
0.86383,0.76362,8.6383,0.39542,13.215,26.13,-9.1088,3.0363,-1.4423,-12.145,5.3581e-09,-0.72115,0,0,0.1,-0,-0,0.66667
0.081624,0.43592,0.81624,-0.096121,-12.676,793.31,0.20922,-0.069741,-1.9677,0.27896,2.3368e-08,-0.98386,0,0,0.1,-2.9606e-17,0,0.66667
0.47311,0.50473,4.7311,0.0070975,0.73036,312.6,-0.089544,0.029848,-1.999,-0.11939,2.3281e-12,-0.99948,0,0,0.1,-0,-0,0.66667
0.12554,0.2188,1.2554,-0.4218,-55.185,734.86,1.4121,-0.4707,-1.3729,1.8828,6.3204e-09,-0.68644,0,0,0.1,-4.737e-16,0,0.66667
0.77289,0.97313,7.7289,0.7097,38.058,68.515,-14.627,4.8757,-0.2068,-19.503,-9.3541e-11,-0.1034,0,0,0.1,-0,-0,0.66667
0.84142,0.33555,8.4142,-0.24667,-9.4756,34.231,5.5347,-1.8449,-1.7848,7.3797,-1.2179e-09,-0.89239,0,0,0.1,9.4739e-16,0,0.66667
0.043291,0.60541,0.43291,0.15811,20.954,844.76,-0.18253,0.060843,-1.9103,-0.24337,1.3913e-07,-0.95516,0,0,0.1,-0,-0,0.66667
0.48644,0.0021087,4.8644,-0.74684,-76.012,299.94,9.6878,-3.2293,-0.019234,12.917,2.4274e-12,-0.0096169,0,0,0.1,-0,-0,0.66667
0.23941,0.54655,2.3941,0.069826,8.7361,586.55,-0.44579,0.1486,-1.9804,-0.59438,-2.7962e-12,-0.99021,0,0,0.1,4.737e-16,0,0.66667
0.95247,0.93191,9.5247,0.64786,7.9197,5.414,-16.455,5.4851,-0.51189,-21.94,4.5428e-06,-0.25595,0,0,0.1,9.4739e-16,-6.9596e-17,0.66667
0.94389,0.47782,9.4389,-0.033265,-0.46438,4.9183,0.8373,-0.2791,-1.9934,1.1164,5.7819e-08,-0.99668,0,0,0.1,-1.8948e-15,0,0.66667
0.61393,0.085434,6.1393,-0.62185,-51.549,179.68,10.181,-3.3935,-0.62359,13.574,1.7941e-12,-0.31179,0,0,0.1,-0,-0,0.66667
0.97349,0.61607,9.7349,0.1741,1.1185,1.4356,-4.5197,1.5066,-1.8905,-6.0262,-3.2111e-07,-0.94526,0,0,0.1,9.4739e-16,0,0.66667
0.34486,0.62972,3.4486,0.19458,22.752,456.64,-1.7894,0.59647,-1.8689,-2.3859,-6.9998e-12,-0.93446,0,0,0.1,-0,-0,0.66667
0.89785,0.7549,8.9785,0.38236,9.7183,15.469,-9.1547,3.0516,-1.4778,-12.206,3.9185e-08,-0.73888,0,0,0.1,-0,-0,0.66667
0.43459,0.35308,4.3459,-0.22038,-23.717,354.01,2.554,-0.85134,-1.8275,3.4054,-4.2086e-12,-0.91376,0,0,0.1,9.4739e-16,0,0.66667
0.23581,0.77529,2.3581,0.41293,51.828,591.3,-2.5967,0.86556,-1.3965,-3.4622,1.7463e-11,-0.69826,0,0,0.1,-0,-0,0.66667
0.94083,0.010293,9.4083,-0.73456,-11.23,7.6707,18.429,-6.1431,-0.081087,24.572,1.1947e-06,-0.040543,0,0,0.1,3.7896e-15,0,0.66667
0.68422,0.89072,6.8422,0.58607,41.427,124.48,-10.693,3.5645,-0.77819,-14.258,2.2693e-12,-0.38909,0,0,0.1,-9.4739e-16,0,0.66667
0.064912,0.063489,0.64912,-0.65477,-86.844,815.83,1.1334,-0.3778,-0.47777,1.5112,-6.7032e-07,-0.23889,0,0,0.1,-0,-0,0.66667
0.87042,0.46582,8.7042,-0.051275,-1.6272,23.265,1.1902,-0.39672,-1.9899,1.5869,-1.0965e-09,-0.99495,0,0,0.1,-1.4211e-15,0,0.66667
0.70138,0.054154,7.0138,-0.66877,-45.224,112.69,12.508,-4.1694,-0.41177,16.678,-2.1219e-12,-0.20588,0,0,0.1,9.4739e-16,0,0.66667
0.60493,0.14859,6.0493,-0.52712,-44.408,187.05,8.5032,-2.8344,-1.0107,11.338,-2.4638e-12,-0.50537,0,0,0.1,4.737e-16,0,0.66667
0.73237,0.14282,7.3237,-0.53576,-32.966,91.704,10.463,-3.4878,-0.98066,13.951,3.0855e-12,-0.49033,0,0,0.1,9.4739e-16,-2.186e-17,0.66667
0.25344,0.051839,2.5344,-0.67224,-83.798,569.29,4.5433,-1.5144,-0.39266,6.0577,1.5397e-12,-0.19633,0,0,0.1,-0,-0,0.66667
0.60049,0.24438,6.0049,-0.38344,-32.525,190.52,6.14,-2.0467,-1.4748,8.1866,-9.0283e-13,-0.73741,0,0,0.1,4.737e-16,0,0.66667
0.81462,0.36459,8.1462,-0.20311,-9.0003,45.765,4.4122,-1.4707,-1.8545,5.883,-3.605e-11,-0.92727,0,0,0.1,9.4739e-16,0,0.66667
0.054114,0.45881,0.54114,-0.061791,-8.1789,830.21,0.089167,-0.029722,-1.9834,0.11889,1.1706e-07,-0.99171,0,0,0.1,-5.9212e-17,0,0.66667
0.13051,0.63453,1.3051,0.2018,26.339,728.2,-0.70231,0.2341,-1.8529,-0.93641,-6.7451e-09,-0.92645,0,0,0.1,-0,-0,0.66667
0.84245,4.7129e-05,8.4245,-0.74993,-29.026,35.697,16.847,-5.6158,-0.0044411,22.463,4.4269e-09,-0.0022206,0,0,0.1,-0,-0,0.66667
0.61835,0.66994,6.1835,0.25492,20.862,175.09,-4.2034,1.4011,-1.7659,-5.6045,6.8434e-13,-0.88294,0,0,0.1,-9.4739e-16,0,0.66667
0.53129,0.086083,5.3129,-0.62087,-59.302,254.71,8.7964,-2.9321,-0.63461,11.728,-1.0845e-12,-0.3173,0,0,0.1,4.737e-16,0,0.66667
0.24829,0.026404,2.4829,-0.71039,-88.837,575.84,4.7036,-1.5679,-0.20815,6.2714,4.8059e-11,-0.10408,0,0,0.1,-0,-0,0.66667
0.29508,0.72698,2.9508,0.34047,41.285,517.01,-2.6791,0.89302,-1.5898,-3.5721,-1.5765e-14,-0.79488,0,0,0.1,-0,-0,0.66667
0.87269,0.29859,8.7269,-0.30212,-9.4565,22.852,7.0309,-2.3436,-1.6762,9.3745,-8.866e-09,-0.83811,0,0,0.1,-0,-0,0.66667
0.42167,0.72729,4.2167,0.34093,37.217,368.4,-3.8336,1.2779,-1.5915,-5.1114,-8.229e-13,-0.79575,0,0,0.1,-0,-0,0.66667
0.06443,0.31593,0.6443,-0.2761,-36.522,816.38,0.47438,-0.15813,-1.7313,0.63251,8.8712e-08,-0.86566,0,0,0.1,-0,-0,0.66667
0.89699,0.62131,8.9699,0.18196,4.6412,15.255,-4.3524,1.4508,-1.8803,-5.8032,2.5183e-08,-0.94014,0,0,0.1,1.4211e-15,0,0.66667
0.20338,0.3474,2.0338,-0.2289,-29.136,632.79,1.2414,-0.41381,-1.819,1.6552,-4.1916e-11,-0.90952,0,0,0.1,-0,-0,0.66667
0.82623,0.25483,8.2623,-0.36776,-15.398,40.889,8.1027,-2.7009,-1.5213,10.804,-2.4818e-10,-0.76066,0,0,0.1,-0,-0,0.66667
0.88177,0.8011,8.8177,0.45164,13.23,20.377,-10.62,3.54,-1.2717,-14.16,5.3073e-09,-0.63586,0,0,0.1,9.4739e-16,0,0.66667
0.48675,0.55523,4.8675,0.082852,8.3819,298.43,-1.0754,0.35847,-1.9767,-1.4339,-3.8931e-12,-0.98837,0,0,0.1,-0,-0,0.66667
0.59846,0.63226,5.9846,0.19839,16.87,191.99,-3.1661,1.0554,-1.8585,-4.2215,4.5719e-13,-0.92927,0,0,0.1,-0,-0,0.66667
0.52727,0.58199,5.2727,0.12298,11.769,257.75,-1.7292,0.5764,-1.945,-2.3056,-2.0872e-13,-0.9725,0,0,0.1,-4.737e-16,0,0.66667
0.62482,0.66038,6.2482,0.24058,19.428,169.68,-4.0085,1.3362,-1.7996,-5.3446,3.0824e-12,-0.89981,0,0,0.1,-1.8948e-15,0,0.66667
0.85504,0.62513,8.5504,0.18769,6.6267,28.851,-4.2795,1.4265,-1.8748,-5.706,2.4689e-09,-0.93738,0,0,0.1,-3.7896e-15,0,0.66667
0.28214,0.20789,2.8214,-0.43816,-53.603,533.09,3.2966,-1.0989,-1.3206,4.3955,-4.9014e-12,-0.66032,0,0,0.1,-0,-0,0.66667
0.88376,0.97,8.8376,0.705,20.536,20.918,-16.615,5.5382,-0.2311,-22.153,-1.8982e-07,-0.11555,0,0,0.1,-0,-0,0.66667
0.56769,0.21751,5.6769,-0.42374,-38.122,219.86,6.4147,-2.1382,-1.3607,8.553,-5.8757e-12,-0.68033,0,0,0.1,1.125e-15,0,0.66667
0.1151,0.30608,1.151,-0.29087,-38.125,748.67,0.89281,-0.2976,-1.6971,1.1904,1.5938e-08,-0.84853,0,0,0.1,5.9212e-17,0,0.66667
0.227,0.74964,2.27,0.37446,47.191,602.51,-2.2668,0.75559,-1.4998,-3.0223,3.2825e-11,-0.7499,0,0,0.1,-6.8834e-16,0,0.66667
0.59598,0.053452,5.9598,-0.66982,-57.508,195.24,10.645,-3.5485,-0.40593,14.194,1.2506e-12,-0.20296,0,0,0.1,-0,-0,0.66667
0.23945,0.71111,2.3945,0.31667,39.65,586.61,-2.022,0.67401,-1.6416,-2.696,2.1577e-11,-0.82081,0,0,0.1,-0,-0,0.66667
0.13142,0.67167,1.3142,0.25751,33.609,727.02,-0.90241,0.3008,-1.7612,-1.2032,-6.7268e-09,-0.88061,0,0,0.1,-0,-0,0.66667
0.16185,0.013474,1.6185,-0.72979,-94.734,687.23,3.1497,-1.0499,-0.10374,4.1996,1.469e-09,-0.051872,0,0,0.1,4.737e-16,0,0.66667
0.84487,0.75115,8.4487,0.37672,14.211,33.157,-8.4875,2.8292,-1.4996,-11.317,1.565e-09,-0.74978,0,0,0.1,-3.7896e-15,0,0.66667
0.60218,0.8277,6.0218,0.49155,41.61,189.31,-7.8934,2.6311,-1.1377,-10.525,1.2097e-12,-0.56884,0,0,0.1,-0,-0,0.66667
0.96357,0.47857,9.6357,-0.032143,-0.28788,2.2689,0.82593,-0.27531,-1.9942,1.1012,-7.638e-08,-0.9971,0,0,0.1,-0,-0,0.66667
0.34568,0.0014392,3.4568,-0.74784,-87.795,456.47,6.8937,-2.2979,-0.014239,9.1916,-4.3476e-13,-0.0071194,0,0,0.1,-0,-0,0.66667
0.59563,0.10487,5.9563,-0.59269,-50.86,195.3,9.4139,-3.138,-0.75256,12.552,-3.5705e-13,-0.37628,0,0,0.1,9.4739e-16,0,0.66667
0.59899,0.77424,5.9899,0.41136,35.002,191.89,-6.5707,2.1902,-1.3965,-8.7609,3.5083e-14,-0.69823,0,0,0.1,9.4739e-16,0,0.66667
0.6157,0.73944,6.157,0.35916,29.573,177.48,-5.897,1.9657,-1.5385,-7.8627,1.0365e-12,-0.76927,0,0,0.1,-9.4739e-16,0,0.66667
0.059177,0.51101,0.59177,0.016521,2.1855,823.41,-0.026071,0.0086908,-1.9986,-0.034762,4.5541e-07,-0.99929,0,0,0.1,-0,-0,0.66667
0.75032,0.86068,7.5032,0.54102,31.374,80.717,-10.825,3.6084,-0.96348,-14.433,1.9556e-11,-0.48174,0,0,0.1,9.4739e-16,0,0.66667
0.94821,0.24959,9.4821,-0.37562,-4.8891,4.8429,9.4977,-3.1659,-1.4978,12.664,-7.7126e-08,-0.74891,0,0,0.1,-5.9212e-16,0,0.66667
0.53468,0.14703,5.3468,-0.52945,-50.257,251.18,7.5489,-2.5163,-1.0029,10.065,-1.6542e-12,-0.50144,0,0,0.1,4.737e-16,0,0.66667
0.19256,0.040148,1.9256,-0.68978,-88.498,647.17,3.5419,-1.1806,-0.30634,4.7225,-2.9912e-10,-0.15317,0,0,0.1,4.737e-16,0,0.66667
0.75293,0.76307,7.5293,0.39461,22.621,78.712,-7.923,2.641,-1.4463,-10.564,-2.226e-11,-0.72314,0,0,0.1,-0,-0,0.66667
0.007319,0.80168,0.07319,0.45253,60.166,893.2,-0.088319,0.029438,-1.2688,-0.11776,-2.0917e-06,-0.6344,0,0,0.1,-0,-0,0.66667
0.32826,0.30168,3.2826,-0.29748,-35.244,476.58,2.604,-0.868,-1.6901,3.472,4.8628e-13,-0.84505,0,0,0.1,-4.737e-16,0,0.66667
0.91761,0.15324,9.1761,-0.52014,-10.8,11.074,12.728,-4.2425,-1.0376,16.97,-1.8788e-08,-0.51878,0,0,0.1,2.1316e-15,0,0.66667
0.58837,0.44391,5.8837,-0.084142,-7.2868,200.77,1.3202,-0.44006,-1.9729,1.7602,-3.7801e-12,-0.98646,0,0,0.1,-0,-0,0.66667
0.85519,0.79561,8.5519,0.44341,15.715,29.409,-10.112,3.3707,-1.2994,-13.483,2.4116e-09,-0.64971,0,0,0.1,-0,-0,0.66667
0.60467,0.0044579,6.0467,-0.74331,-62.864,188,11.986,-3.9952,-0.034384,15.981,1.0472e-12,-0.017192,0,0,0.1,-0,-0,0.66667
0.82258,0.77852,8.2258,0.41779,17.845,42.641,-9.1643,3.0548,-1.378,-12.219,9.363e-11,-0.68898,0,0,0.1,-0,-0,0.66667
0.87948,0.58716,8.7948,0.13073,3.8744,20.362,-3.0661,1.022,-1.938,-4.0881,9.0266e-09,-0.969,0,0,0.1,-4.737e-16,0,0.66667
0.32099,0.4595,3.2099,-0.060748,-7.23,485.23,0.51998,-0.17333,-1.9839,0.6933,-1.1235e-11,-0.99197,0,0,0.1,4.737e-16,0,0.66667
0.12295,0.54798,1.2295,0.071976,9.4101,738.2,-0.23599,0.078664,-1.9827,-0.31466,-4.7485e-09,-0.99137,0,0,0.1,2.3685e-16,0,0.66667
0.7213,0.26492,7.213,-0.35262,-22.394,98.288,6.7826,-2.2609,-1.5583,9.0435,3.6016e-12,-0.77915,0,0,0.1,-9.4739e-16,0,0.66667
0.44035,0.10761,4.4035,-0.58859,-63.129,348.31,6.9116,-2.3039,-0.76825,9.2154,-3.5487e-12,-0.38412,0,0,0.1,-0,-0,0.66667
0.12674,0.14001,1.2674,-0.53999,-70.69,733.35,1.8249,-0.60832,-0.9649,2.4333,3.9229e-09,-0.48245,0,0,0.1,-2.3685e-16,0,0.66667
0.58982,0.35391,5.8982,-0.21914,-18.936,199.59,3.4467,-1.1489,-1.8282,4.5956,-2.7514e-12,-0.9141,0,0,0.1,-9.4739e-16,0,0.66667
0.036068,0.35701,0.36068,-0.21448,-28.446,854.48,0.2063,-0.068765,-1.8344,0.27506,-2.2249e-07,-0.91719,0,0,0.1,-0,-0,0.66667
0.20018,0.077774,2.0018,-0.63334,-80.955,637.23,3.3809,-1.127,-0.57368,4.5078,-2.9709e-10,-0.28684,0,0,0.1,-0,-0,0.66667
0.7883,0.20315,7.883,-0.44528,-22.308,59.232,9.3604,-3.1201,-1.2918,12.481,-1.4581e-11,-0.64591,0,0,0.1,-0,-0,0.66667
0.012097,0.52124,0.12097,0.031855,4.2281,886.76,-0.010275,0.003424,-1.9958,-0.013701,-1.6365e-06,-0.99789,0,0,0.1,-0,-0,0.66667
0.30335,0.88383,3.0335,0.57574,69.564,507.15,-4.6573,1.5524,-0.8187,-6.2097,-7.605e-12,-0.40935,0,0,0.1,-0,-0,0.66667
0.021376,0.11118,0.21376,-0.58323,-77.594,874.29,0.33245,-0.11082,-0.78785,0.44327,-1.0625e-05,-0.39393,0,0,0.1,-0,-0,0.66667
0.99748,0.9641,9.9748,0.69615,0.41004,2.1926,-18.517,6.1724,-0.27826,-24.69,-4.9327e-05,-0.13913,0,0,0.1,-1.4211e-15,-1.8003e-16,0.66667
0.58203,0.92291,5.8203,0.63436,55.823,207.44,-9.8458,3.2819,-0.56795,-13.128,1.6875e-14,-0.28398,0,0,0.1,-0,-0,0.66667
0.29338,0.39278,2.9338,-0.16083,-19.508,518.99,1.2582,-0.4194,-1.9073,1.6776,-4.0951e-12,-0.95363,0,0,0.1,-4.737e-16,0,0.66667
0.92895,0.99435,9.2895,0.74152,13.541,9.8482,-18.369,6.123,-0.042445,-24.492,-4.0022e-07,-0.021223,0,0,0.1,-4.737e-16,0,0.66667
0.50712,0.12298,5.0712,-0.56553,-55.87,278.4,7.6477,-2.5492,-0.86094,10.197,-1.7462e-12,-0.43047,0,0,0.1,1.0658e-15,0,0.66667
0.45469,0.27625,4.5469,-0.33562,-35.341,332.37,4.0694,-1.3565,-1.6022,5.4259,-3.8272e-12,-0.8011,0,0,0.1,2.3685e-16,0,0.66667
0.58787,0.89535,5.8787,0.59303,51.615,202.11,-9.2967,3.0989,-0.74694,-12.396,-7.7893e-13,-0.37347,0,0,0.1,-0,-0,0.66667
0.26414,0.19676,2.6414,-0.45486,-56.249,555.56,3.2039,-1.068,-1.2667,4.2718,-1.4918e-11,-0.63335,0,0,0.1,-0,-0,0.66667
0.30529,0.47737,3.0529,-0.033952,-4.0853,504.33,0.27641,-0.092136,-1.993,0.36854,-9.3593e-12,-0.99651,0,0,0.1,-0,-0,0.66667
0.37165,0.14856,3.7165,-0.52715,-60.423,425.53,5.2245,-1.7415,-1.0118,6.966,-4.4573e-12,-0.50588,0,0,0.1,4.5691e-16,0,0.66667
0.24445,0.53233,2.4445,0.04849,6.0508,580.16,-0.31609,0.10536,-1.9905,-0.42145,-1.7918e-11,-0.99526,0,0,0.1,-9.4739e-16,0,0.66667
0.58455,0.081756,5.8455,-0.62737,-54.956,205.17,9.7793,-3.2598,-0.59765,13.039,3.8529e-12,-0.29882,0,0,0.1,-0,-0,0.66667
0.69585,0.40395,6.9585,-0.14408,-9.8278,115.21,2.6735,-0.89117,-1.9242,3.5647,1.8296e-13,-0.96209,0,0,0.1,9.4739e-16,0,0.66667
0.071947,0.83129,0.71947,0.49693,65.752,806.35,-0.95341,0.3178,-1.1191,-1.2712,-1.9893e-07,-0.55957,0,0,0.1,1.1842e-16,0,0.66667
0.97108,0.77531,9.7108,0.41296,2.9705,2.2497,-10.694,3.5646,-1.395,-14.259,-1.5786e-06,-0.69751,0,0,0.1,-9.4739e-16,0,0.66667
0.75307,0.23297,7.5307,-0.40054,-22.951,78.642,8.0436,-2.6812,-1.4293,10.725,2.2587e-11,-0.71465,0,0,0.1,-0,-0,0.66667
0.80616,0.609,8.0616,0.1635,7.5412,49.702,-3.5148,1.1716,-1.902,-4.6864,-2.4865e-12,-0.95098,0,0,0.1,-0,-0,0.66667
0.75164,0.13543,7.5164,-0.54686,-31.571,79.952,10.961,-3.6537,-0.93869,14.615,-5.4697e-11,-0.46935,0,0,0.1,-1.8948e-15,0,0.66667
0.080061,0.91817,0.80061,0.62725,82.988,795.54,-1.3392,0.44639,-0.6025,-1.7855,-1.1721e-07,-0.30125,0,0,0.1,-0,-0,0.66667
0.4817,0.97358,4.817,0.71038,72.697,304.72,-9.125,3.0417,-0.20679,-12.167,-6.8745e-13,-0.10339,0,0,0.1,-0,-0,0.66667
0.44567,0.80946,4.4567,0.46419,49.431,342.28,-5.5167,1.8389,-1.2317,-7.3556,-2.875e-12,-0.61586,0,0,0.1,-3.5527e-16,0,0.66667
0.67247,0.38704,6.7247,-0.16944,-12.281,132.14,3.0384,-1.0128,-1.9017,4.0513,-1.4111e-12,-0.95084,0,0,0.1,-0,-0,0.66667
0.44874,0.41832,4.4874,-0.12252,-12.977,338.57,1.4661,-0.4887,-1.945,1.9548,-7.9381e-14,-0.9725,0,0,0.1,-9.4739e-16,0,0.66667
0.70431,0.46385,7.0431,-0.054218,-3.6116,109.28,1.0183,-0.33944,-1.9929,1.3577,4.3443e-13,-0.99646,0,0,0.1,-4.737e-16,0,0.66667
0.68165,0.037122,6.8165,-0.69432,-49.503,126.76,12.621,-4.2069,-0.28384,16.828,1.1857e-12,-0.14192,0,0,0.1,-0,-0,0.66667
0.69715,0.34295,6.9715,-0.23557,-16.02,114.41,4.3794,-1.4598,-1.8014,5.8392,2.3914e-12,-0.9007,0,0,0.1,-1.0658e-15,0,0.66667
0.6186,0.92771,6.186,0.64156,52.707,175.83,-10.583,3.5278,-0.53374,-14.111,-8.5087e-13,-0.26687,0,0,0.1,4.737e-16,0,0.66667
0.15098,0.015788,1.5098,-0.72632,-94.608,701.49,2.9243,-0.97476,-0.12189,3.899,-1.5829e-08,-0.060945,0,0,0.1,-0,-0,0.66667
0.7608,0.8971,7.608,0.59565,33.322,74.793,-12.085,4.0282,-0.73668,-16.113,-5.483e-11,-0.36834,0,0,0.1,-0,-0,0.66667
0.78105,0.38766,7.8105,-0.16851,-8.6683,62.456,3.5097,-1.1699,-1.9035,4.6795,2.8924e-11,-0.95177,0,0,0.1,1.8948e-15,0,0.66667
0.9041,0.31027,9.041,-0.2846,-6.7868,13.554,6.8615,-2.2872,-1.7143,9.1486,-4.0759e-08,-0.85714,0,0,0.1,1.2151e-15,0,0.66667
0.23377,0.61386,2.3377,0.17079,21.433,593.76,-1.0647,0.35489,-1.9001,-1.4196,1.8167e-11,-0.95004,0,0,0.1,-0,-0,0.66667
0.17668,0.77235,1.7668,0.40853,52.602,667.56,-1.9247,0.64158,-1.4048,-2.5663,-1.3998e-10,-0.70242,0,0,0.1,2.3685e-16,0,0.66667
0.3911,0.11183,3.911,-0.58226,-65.625,403.23,6.0726,-2.0242,-0.79851,8.0968,-3.6491e-12,-0.39926,0,0,0.1,-0,-0,0.66667
0.32056,0.8923,3.2056,0.58845,70.266,486.23,-5.0303,1.6768,-0.76553,-6.7071,3.7192e-12,-0.38277,0,0,0.1,-4.737e-16,0,0.66667
0.81548,0.81432,8.1548,0.47148,20.893,46.026,-10.253,3.4176,-1.2108,-13.671,4.5937e-10,-0.60539,0,0,0.1,1.8948e-15,0,0.66667
0.61353,0.76502,6.1353,0.39753,32.886,179.4,-6.5039,2.168,-1.4366,-8.6718,6.8523e-13,-0.71831,0,0,0.1,-0,-0,0.66667
0.76,0.24454,7.6,-0.38319,-21.416,74.551,7.7661,-2.5887,-1.476,10.355,2.1967e-11,-0.738,0,0,0.1,-0,-0,0.66667
0.42767,0.26015,4.2767,-0.35978,-39.035,361.79,4.103,-1.3677,-1.5372,5.4707,-7.8115e-13,-0.76862,0,0,0.1,-0,-0,0.66667
0.099441,0.071717,0.99441,-0.64242,-84.71,769.68,1.7035,-0.56785,-0.53019,2.2714,-1.7359e-07,-0.2651,0,0,0.1,-0,-0,0.66667
0.11504,0.106,1.1504,-0.59099,-77.626,748.9,1.8129,-0.60431,-0.75555,2.4172,-4.6183e-09,-0.37777,0,0,0.1,-0,-0,0.66667
0.37341,0.33423,3.7341,-0.24865,-28.402,423.13,2.4759,-0.82532,-1.7823,3.3013,-6.5026e-12,-0.89115,0,0,0.1,-0,-0,0.66667
0.19385,0.43896,1.9385,-0.091567,-11.697,645.09,0.47333,-0.15778,-1.9686,0.63111,8.1015e-11,-0.9843,0,0,0.1,-4.737e-16,0,0.66667
0.82075,0.95153,8.2075,0.67729,29.4,44.495,-14.824,4.9412,-0.36575,-19.765,3.3723e-09,-0.18287,0,0,0.1,-0,-0,0.66667
0.59964,0.34772,5.9964,-0.22842,-19.384,191.01,3.6525,-1.2175,-1.8126,4.87,-1.7526e-12,-0.90632,0,0,0.1,-0,-0,0.66667
0.68885,0.57627,6.8885,0.1144,7.9504,120.15,-2.1015,0.70049,-1.9558,-2.802,-5.4645e-13,-0.97789,0,0,0.1,-0,-0,0.66667
0.49111,0.068886,4.9111,-0.64667,-65.33,294.84,8.469,-2.823,-0.51059,11.292,-3.0633e-12,-0.2553,0,0,0.1,-0,-0,0.66667
0.088174,0.35836,0.88174,-0.21246,-27.993,784.56,0.49955,-0.16652,-1.8369,0.66606,3.9783e-08,-0.91845,0,0,0.1,-1.1842e-16,0,0.66667
0.23508,0.11986,2.3508,-0.57021,-71.686,592.4,3.5745,-1.1915,-0.84817,4.766,-9.8807e-11,-0.42409,0,0,0.1,-1.1842e-16,0,0.66667
0.4616,0.87241,4.616,0.55861,58.466,325.4,-6.8761,2.292,-0.88847,-9.1682,1.5925e-12,-0.44424,0,0,0.1,-4.737e-16,0,0.66667
0.19859,0.47505,1.9859,-0.037432,-4.7723,638.94,0.19823,-0.066076,-1.9938,0.26431,-8.3278e-11,-0.99689,0,0,0.1,-0,-0,0.66667
0.025476,0.73998,0.25476,0.35997,47.803,868.75,-0.24455,0.081517,-1.5368,-0.32606,1.3514e-06,-0.76839,0,0,0.1,-2.9606e-17,0,0.66667
0.7294,0.12544,7.294,-0.56185,-34.914,93.684,10.928,-3.6428,-0.87702,14.571,-1.1362e-11,-0.43851,0,0,0.1,1.8948e-15,0,0.66667
0.72492,0.70086,7.2492,0.30128,18.914,95.832,-5.8242,1.9414,-1.6744,-7.7655,-5.4068e-12,-0.83718,0,0,0.1,-1.8948e-15,0,0.66667
0.33039,0.98305,3.3039,0.72458,86.036,474.65,-6.3839,2.128,-0.13412,-8.5118,1.2785e-12,-0.067058,0,0,0.1,-0,-0,0.66667
0.84349,0.23808,8.4349,-0.39288,-14.947,33.751,8.8371,-2.9457,-1.4556,11.783,-1.3091e-09,-0.72781,0,0,0.1,-0,-0,0.66667
0.42844,0.54071,4.2844,0.061058,6.6113,360.69,-0.69759,0.23253,-1.9839,-0.93013,8.1718e-13,-0.99197,0,0,0.1,-9.4739e-16,0,0.66667
0.86469,0.079441,8.6469,-0.63084,-21.115,26.758,14.546,-4.8487,-0.58261,19.395,5.1496e-08,-0.2913,0,0,0.1,-1.024e-15,0,0.66667
0.65707,0.87765,6.5707,0.56648,42.779,144.68,-9.9257,3.3086,-0.86346,-13.234,4.7606e-13,-0.43173,0,0,0.1,-0,-0,0.66667
0.58104,0.022094,5.8104,-0.71686,-63.277,208.62,11.107,-3.7024,-0.17306,14.81,3.2312e-12,-0.08653,0,0,0.1,-0,-0,0.66667
0.20073,0.024963,2.0073,-0.71255,-91.139,636.62,3.8141,-1.2714,-0.19596,5.0855,-1.0264e-10,-0.09798,0,0,0.1,-0,7.6124e-17,0.66667
0.52955,0.26288,5.2955,-0.35567,-33.964,255.79,5.0226,-1.6742,-1.552,6.6967,-3.3609e-12,-0.77598,0,0,0.1,9.4739e-16,0,0.66667
0.89443,0.022617,8.9443,-0.71607,-19.057,17.87,17.079,-5.6932,-0.17604,22.773,-6.298e-07,-0.08802,0,0,0.1,-0,-0,0.66667
0.30499,0.11459,3.0499,-0.57811,-69.775,505.14,4.7019,-1.5673,-0.8086,6.2692,-1.7093e-12,-0.4043,0,0,0.1,-0,-0,0.66667
0.87095,0.42729,8.7095,-0.10906,-3.4488,23.126,2.5329,-0.84431,-1.9565,3.3772,-4.8229e-09,-0.97826,0,0,0.1,-0,-0,0.66667
0.90875,0.95096,9.0875,0.67643,15.636,13.906,-16.392,5.4641,-0.37363,-21.856,-7.0434e-07,-0.18681,0,0,0.1,-0,-0,0.66667
0.32984,0.76248,3.2984,0.39373,46.619,474.77,-3.4632,1.1544,-1.4506,-4.6175,-4.4995e-12,-0.72528,0,0,0.1,4.737e-16,0,0.66667
0.68307,0.48428,6.8307,-0.023585,-1.6637,124.27,0.42962,-0.14321,-1.9963,0.57282,-1.8745e-12,-0.99813,0,0,0.1,-0,-0,0.66667
0.89922,0.37635,8.9922,-0.18548,-4.6318,14.652,4.4476,-1.4825,-1.8759,5.9301,-2.7979e-08,-0.93795,0,0,0.1,-0,-0,0.66667
0.075697,0.28745,0.75697,-0.31883,-42.114,801.28,0.64358,-0.21453,-1.6398,0.85811,1.1068e-07,-0.81989,0,0,0.1,-2.3685e-16,0,0.66667
0.87859,0.41294,8.7859,-0.13059,-3.8974,20.646,3.0595,-1.0198,-1.939,4.0794,-8.7213e-09,-0.96951,0,0,0.1,-0,-0,0.66667
0.19084,0.084586,1.9084,-0.62312,-79.944,649.32,3.1711,-1.057,-0.61913,4.2281,-3.5258e-10,-0.30956,0,0,0.1,-2.3685e-16,0,0.66667
0.84977,0.55921,8.4977,0.088809,3.2395,30.743,-2.0125,0.67082,-1.9702,-2.6833,-1.1965e-10,-0.98508,0,0,0.1,1.4735e-17,0,0.66667
0.66712,0.96114,6.6712,0.69171,51.122,137.49,-12.305,4.1018,-0.29719,-16.407,-1.2026e-12,-0.1486,0,0,0.1,-4.737e-16,-6.7787e-17,0.66667
0.34434,0.78821,3.4434,0.43231,50.638,457.49,-3.9696,1.3232,-1.3397,-5.2928,-3.5816e-12,-0.66985,0,0,0.1,-0,-0,0.66667
0.15138,0.33955,1.5138,-0.24068,-31.229,700.66,0.97153,-0.32384,-1.7928,1.2954,1.9912e-09,-0.89641,0,0,0.1,3.042e-17,0,0.66667
0.63537,0.43423,6.3537,-0.098659,-7.7875,160.92,1.6716,-0.5572,-1.9641,2.2288,-3.1564e-13,-0.98203,0,0,0.1,2.3685e-16,0,0.66667
0.84779,0.51011,8.4779,0.01517,0.56004,31.481,-0.34296,0.11432,-1.998,-0.45729,-1.7991e-09,-0.99901,0,0,0.1,-0,-0,0.66667
0.82185,0.74238,8.2185,0.36357,15.571,42.81,-7.968,2.656,-1.5275,-10.624,2.0689e-10,-0.76375,0,0,0.1,-9.4739e-16,0,0.66667
0.62824,0.097251,6.2824,-0.60412,-48.634,167.72,10.121,-3.3736,-0.70288,13.495,2.4691e-13,-0.35144,0,0,0.1,-1.8948e-15,0,0.66667
0.9563,0.45302,9.563,-0.070471,-0.7625,3.149,1.7971,-0.59903,-1.9819,2.3961,2.4471e-07,-0.99096,0,0,0.1,-0,-0,0.66667
0.58992,0.12933,5.8992,-0.55601,-48.189,200.19,8.7467,-2.9156,-0.90054,11.662,2.6796e-12,-0.45027,0,0,0.1,-0,-0,0.66667
0.19783,0.60633,1.9783,0.15949,20.344,639.94,-0.84141,0.28047,-1.9072,-1.1219,2.9255e-11,-0.95359,0,0,0.1,-0,-0,0.66667
0.42933,0.40048,4.2933,-0.14928,-16.152,359.75,1.7091,-0.56971,-1.9182,2.2788,-1.6757e-12,-0.95909,0,0,0.1,4.737e-16,0,0.66667
0.33675,0.38567,3.3675,-0.17149,-20.178,466.31,1.54,-0.51333,-1.8924,2.0533,-2.7467e-13,-0.9462,0,0,0.1,-0,-0,0.66667
0.99195,0.13328,9.9195,-0.55008,-1.0285,1.5344,14.551,-4.8502,-0.92123,19.401,-7.9538e-06,-0.46061,0,0,0.1,-0,-0,0.66667
0.38024,0.51084,3.8024,0.016259,1.8449,415.12,-0.16486,0.054952,-1.9968,-0.21981,1.6352e-13,-0.99841,0,0,0.1,-0,-0,0.66667
0.9927,0.34129,9.927,-0.23806,-0.33679,0.42432,6.302,-2.1007,-1.7965,8.4027,-5.0028e-07,-0.89823,0,0,0.1,-2.0746e-15,0,0.66667
0.5188,0.32209,5.188,-0.26686,-25.869,266.19,3.692,-1.2307,-1.7466,4.9226,-2.8728e-12,-0.87331,0,0,0.1,-0,-0,0.66667
0.17228,0.28716,1.7228,-0.31926,-41.152,673.26,1.4667,-0.48891,-1.6423,1.9556,3.6615e-10,-0.82114,0,0,0.1,-0,-0,0.66667
0.074574,0.84822,0.74574,0.52233,69.1,802.84,-1.0387,0.34624,-1.03,-1.385,-1.5021e-07,-0.51498,0,0,0.1,-0,-0,0.66667
0.37031,0.054253,3.7031,-0.66862,-76.845,427.37,6.6025,-2.2008,-0.40887,8.8033,-7.855e-12,-0.20444,0,0,0.1,-2.3685e-16,8.2471e-18,0.66667
0.12342,0.93093,1.2342,0.6464,84.777,737.81,-2.1274,0.70914,-0.51683,-2.8366,-1.679e-07,-0.25842,0,0,0.1,-0,-0,0.66667
0.63452,0.92656,6.3452,0.63985,50.863,162.74,-10.827,3.6088,-0.5416,-14.435,-2.1831e-12,-0.2708,0,0,0.1,9.4739e-16,0,0.66667
0.41392,0.58092,4.1392,0.12138,13.342,376.84,-1.3397,0.44657,-1.9444,-1.7863,-3.2845e-12,-0.9722,0,0,0.1,4.737e-16,0,0.66667
0.99092,0.82789,9.9092,0.49184,1.0225,1.3037,-12.996,4.3322,-1.1368,-17.329,3.5026e-06,-0.56842,0,0,0.1,-0,-0,0.66667
0.92996,0.67625,9.2996,0.26437,4.6301,7.67,-6.5561,2.1854,-1.7484,-8.7415,9.6124e-08,-0.87418,0,0,0.1,9.4739e-16,0,0.66667
0.14924,0.067946,1.4924,-0.64808,-84.391,703.72,2.5791,-0.85971,-0.50416,3.4388,4.3842e-08,-0.25208,0,0,0.1,-0,-0,0.66667
0.39488,0.58693,3.9488,0.13039,14.601,398.35,-1.373,0.45768,-1.9385,-1.8307,-6.5302e-12,-0.96925,0,0,0.1,-4.737e-16,0,0.66667
0.46158,0.1635,4.6158,-0.50475,-52.8,325.31,6.2129,-2.071,-1.0914,8.2838,-3.6313e-12,-0.5457,0,0,0.1,-0,-0,0.66667
0.56095,0.38273,5.6095,-0.17591,-15.977,225.7,2.6314,-0.87713,-1.8924,3.5085,-6.5659e-13,-0.94618,0,0,0.1,-0,-0,0.66667
0.78036,0.11102,7.8036,-0.58348,-30.287,63.903,12.142,-4.0473,-0.79266,16.189,8.0773e-11,-0.39633,0,0,0.1,-0,-0,0.66667
0.48719,0.051525,4.8719,-0.67271,-68.328,298.94,8.7398,-2.9133,-0.39116,11.653,-4.6292e-12,-0.19558,0,0,0.1,-0,-0,0.66667
0.41999,0.21967,4.1999,-0.42049,-46.007,370.37,4.7094,-1.5698,-1.3743,6.2792,-1.1453e-12,-0.68713,0,0,0.1,-0,-0,0.66667
0.262,0.083535,2.62,-0.6247,-77.464,558.46,4.3645,-1.4548,-0.61172,5.8194,5.2094e-11,-0.30586,0,0,0.1,2.3685e-16,0,0.66667
0.91081,0.91739,9.1081,0.62609,14.117,13.142,-15.207,5.0689,-0.60453,-20.275,1.2939e-07,-0.30226,0,0,0.1,-0,-0,0.66667
0.022272,0.87417,0.22272,0.56126,74.653,873.08,-0.33333,0.11112,-0.8784,-0.44444,8.0792e-06,-0.4392,0,0,0.1,-3.9027e-18,0,0.66667
0.82112,0.83692,8.2112,0.50538,21.79,43.585,-11.066,3.6887,-1.0892,-14.755,-4.1468e-10,-0.54461,0,0,0.1,4.737e-16,0,0.66667
0.18847,0.50194,1.8847,0.0029144,0.37308,652.07,-0.014647,0.0048823,-2.0042,-0.019529,2.3761e-10,-1.0021,0,0,0.1,-0,-0,0.66667
0.68576,0.925,6.8576,0.63749,44.924,123.56,-11.658,3.8859,-0.55672,-15.544,6.2794e-13,-0.27836,0,0,0.1,-0,1.137e-16,0.66667
0.35521,0.42421,3.5521,-0.11368,-13.18,444.35,1.0768,-0.35893,-1.9526,1.4357,-2.2325e-12,-0.97629,0,0,0.1,4.737e-16,0,0.66667
0.97421,0.21512,9.7421,-0.42733,-2.7323,2.0349,11.102,-3.7005,-1.3492,14.802,2.2496e-06,-0.67459,0,0,0.1,-2.3685e-15,0,0.66667
0.12277,0.34332,1.2277,-0.23502,-30.74,738.47,0.76944,-0.25648,-1.8061,1.0259,1.0865e-08,-0.90305,0,0,0.1,2.5905e-16,0,0.66667
0.18757,0.44768,1.8757,-0.078484,-10.051,653.24,0.39257,-0.13086,-1.983,0.52342,-4.9826e-11,-0.99151,0,0,0.1,-0,-0,0.66667
0.88944,0.40668,8.8944,-0.13999,-3.8201,17.34,3.3203,-1.1068,-1.9345,4.427,-1.1201e-08,-0.96726,0,0,0.1,-0,-0,0.66667
0.58341,0.68299,5.8341,0.27449,24.003,205.36,-4.2703,1.4234,-1.7306,-5.6937,-2.3359e-13,-0.86528,0,0,0.1,1.1842e-15,0,0.66667
0.30925,0.49185,3.0925,-0.012222,-1.4667,499.49,0.10079,-0.033597,-1.9993,0.13439,-1.0931e-11,-0.99967,0,0,0.1,7.1054e-16,0,0.66667
0.00076439,0.73394,0.0076439,0.3509,46.627,902.03,-0.0071521,0.0023828,-1.5655,-0.0095367,-1.8492e-06,-0.78277,0,0,0.1,-0,-0,0.66667
0.2276,0.98982,2.276,0.73473,92.872,602.15,-4.4593,1.4864,-0.077684,-5.9457,-1.1102e-13,-0.038842,0,0,0.1,2.6953e-16,0,0.66667
0.1454,0.13307,1.454,-0.5504,-71.687,708.69,2.1341,-0.71138,-0.92122,2.8455,1.8075e-09,-0.46061,0,0,0.1,-0,-0,0.66667
0.20343,0.76535,2.0343,0.39803,50.708,632.81,-2.1593,0.71976,-1.4409,-2.879,4.1572e-11,-0.72046,0,0,0.1,-0,-0,0.66667
0.89632,0.42788,8.9632,-0.10818,-2.7741,15.352,2.5858,-0.86192,-1.956,3.4477,-2.2285e-08,-0.97798,0,0,0.1,9.4739e-16,0,0.66667
0.87309,0.6111,8.7309,0.16664,5.1892,22.471,-3.8799,1.2933,-1.9027,-5.1732,6.8228e-09,-0.95133,0,0,0.1,9.4739e-16,0,0.66667
0.70029,0.25598,7.0029,-0.36603,-24.708,112.47,6.8354,-2.2785,-1.5243,9.1139,-3.0584e-12,-0.76215,0,0,0.1,1.8948e-15,0,0.66667
0.4705,0.89405,4.705,0.59107,61.233,316.08,-7.4159,2.472,-0.75953,-9.8879,-1.3149e-12,-0.37976,0,0,0.1,4.737e-16,0,0.66667
0.82714,0.52335,8.2714,0.035019,1.4543,40,-0.7724,0.25747,-1.999,-1.0299,-8.4354e-11,-0.99949,0,0,0.1,-0,-0,0.66667
0.49583,0.3491,4.9583,-0.22635,-22.641,289.22,2.9929,-0.99762,-1.817,3.9905,-9.1438e-13,-0.90852,0,0,0.1,-0,-0,0.66667
0.36349,0.45188,3.6349,-0.072185,-8.3113,434.61,0.69969,-0.23323,-1.98,0.93293,-6.1873e-12,-0.99001,0,0,0.1,4.737e-16,0,0.66667
0.2756,0.65639,2.756,0.23459,28.779,541.05,-1.7241,0.5747,-1.8034,-2.2988,3.6599e-12,-0.90168,0,0,0.1,-0,-0,0.66667
0.92474,0.62771,9.2474,0.19157,3.5955,8.5794,-4.7241,1.5747,-1.8707,-6.2988,6.7851e-08,-0.93533,0,0,0.1,-0,-0,0.66667
0.38699,0.99597,3.8699,0.74395,84.331,408.3,-7.6773,2.5591,-0.032131,-10.236,4.106e-12,-0.016066,0,0,0.1,-1.4211e-15,0,0.66667
0.49288,0.73206,4.9288,0.34809,34.977,292.38,-4.5751,1.525,-1.566,-6.1001,-1.2848e-12,-0.78301,0,0,0.1,-0,-0,0.66667
0.25444,0.01507,2.5444,-0.72739,-90.682,568.12,4.9354,-1.6451,-0.11698,6.5805,-1.108e-12,-0.058492,0,0,0.1,-0,-0,0.66667
0.88497,0.41636,8.8497,-0.12545,-3.5559,18.659,2.9606,-0.98687,-1.9416,3.9475,-9.2872e-09,-0.97079,0,0,0.1,-0,-0,0.66667
0.38326,0.68616,3.8326,0.27924,31.623,411.76,-2.8539,0.95131,-1.7209,-3.8052,-4.8537e-12,-0.86047,0,0,0.1,7.1054e-16,0,0.66667
0.29757,0.93383,2.9757,0.65074,78.988,514.34,-5.1638,1.7213,-0.49882,-6.8851,1.1662e-12,-0.24941,0,0,0.1,-7.1054e-16,0,0.66667
0.71759,0.13389,7.1759,-0.54916,-35.368,101.29,10.509,-3.5029,-0.93068,14.012,-6.6374e-12,-0.46534,0,0,0.1,-0,-0,0.66667
0.19087,0.84168,1.9087,0.51252,65.687,649.17,-2.6087,0.86956,-1.0667,-3.4782,1.5416e-11,-0.53333,0,0,0.1,5.9212e-17,0,0.66667
0.11819,0.2356,1.1819,-0.3966,-51.975,744.61,1.25,-0.41667,-1.4376,1.6667,9.0142e-09,-0.7188,0,0,0.1,-0,-0,0.66667
0.837,0.78453,8.37,0.4268,16.871,36.488,-9.5261,3.1754,-1.3503,-12.701,6.4485e-10,-0.67514,0,0,0.1,-0,-0,0.66667
0.74414,0.8335,7.4414,0.50025,29.604,84.296,-9.9268,3.3089,-1.1076,-13.236,-9.5923e-14,-0.55382,0,0,0.1,-0,-0,0.66667
0.59052,0.41611,5.9052,-0.12584,-10.856,198.89,1.9816,-0.66054,-1.9434,2.6421,-4.537e-12,-0.97172,0,0,0.1,-0,-0,0.66667
0.24289,0.32033,2.4289,-0.2695,-33.677,582.21,1.7456,-0.58187,-1.739,2.3275,-2.3356e-11,-0.86948,0,0,0.1,-0,-0,0.66667
0.62325,0.69466,6.2325,0.292,23.665,171.06,-4.853,1.6177,-1.699,-6.4706,-4.4853e-14,-0.84948,0,0,0.1,-0,-0,0.66667
0.63836,0.35986,6.3836,-0.21021,-16.494,158.61,3.5784,-1.1928,-1.8437,4.7712,3.6415e-14,-0.92185,0,0,0.1,-0,-0,0.66667
0.32757,0.96694,3.2757,0.70041,83.315,477.99,-6.1182,2.0394,-0.2608,-8.1576,-2.84e-12,-0.1304,0,0,0.1,5.9212e-16,0,0.66667
0.067489,0.1757,0.67489,-0.48644,-64.399,812.32,0.87546,-0.29182,-1.1565,1.1673,2.1089e-07,-0.57827,0,0,0.1,-1.9835e-16,0,0.66667
0.88054,0.92236,8.8054,0.63354,18.871,21.533,-14.876,4.9587,-0.57032,-19.835,1.3115e-07,-0.28516,0,0,0.1,-1.8948e-15,0,0.66667
0.45996,0.381,4.5996,-0.17851,-18.667,326.58,2.1895,-0.72982,-1.8842,2.9193,-7.3739e-12,-0.9421,0,0,0.1,-0,-0,0.66667
0.76387,0.53964,7.6387,0.059463,3.2677,71.847,-1.2113,0.40375,-1.9894,-1.615,-1.1451e-11,-0.9947,0,0,0.1,-0,-0,0.66667
0.25389,0.063164,2.5389,-0.65525,-81.645,568.7,4.4363,-1.4788,-0.47373,5.9151,6.4406e-12,-0.23687,0,0,0.1,-9.4739e-16,0,0.66667
0.59139,0.72641,5.9139,0.33962,29.288,198.39,-5.3559,1.7853,-1.591,-7.1413,3.4639e-14,-0.79551,0,0,0.1,-0,-0,0.66667
0.4288,0.99946,4.288,0.74918,81.524,361.36,-8.5666,2.8555,-0.0027721,-11.422,-3.4701e-12,-0.0013861,0,0,0.1,1.8652e-15,0,0.66667
0.3821,0.59825,3.821,0.14738,16.699,413.01,-1.5017,0.50056,-1.9204,-2.0022,-9.3743e-12,-0.96021,0,0,0.1,9.4739e-16,0,0.66667
0.12671,0.80338,1.2671,0.45507,59.534,733.33,-1.5377,0.51256,-1.2657,-2.0503,-5.4558e-09,-0.63283,0,0,0.1,-1.1842e-16,0,0.66667
0.24427,0.52402,2.4427,0.036033,4.4968,580.38,-0.23471,0.078237,-1.9932,-0.31295,-1.2977e-11,-0.99659,0,0,0.1,4.737e-16,0,0.66667
0.079342,0.41414,0.79342,-0.1288,-16.992,796.37,0.2725,-0.090835,-1.944,0.36334,2.9951e-08,-0.97198,0,0,0.1,-0,-0,0.66667
0.30286,0.37385,3.0286,-0.18922,-22.812,507.35,1.5282,-0.50939,-1.8713,2.0376,-6.6606e-12,-0.93567,0,0,0.1,-1.4803e-16,0,0.66667
0.7417,0.10543,7.417,-0.59185,-35.371,86.11,11.706,-3.9021,-0.75138,15.608,-2.788e-11,-0.37569,0,0,0.1,-0,-0,0.66667
0.61502,0.43358,6.1502,-0.09963,-8.2023,177.74,1.634,-0.54466,-1.963,2.1786,-1.255e-12,-0.98151,0,0,0.1,-1.1842e-15,0,0.66667
0.67241,0.95375,6.7241,0.68062,49.648,133.49,-12.204,4.0681,-0.35668,-16.272,1.6351e-12,-0.17834,0,0,0.1,-9.4739e-16,0,0.66667
0.0083831,0.50704,0.083831,0.010559,1.4016,891.76,-0.0023604,0.0007853,-1.9969,-0.003148,-2.2471e-06,-0.99844,0,0,0.1,-0,-0,0.66667
0.67838,0.84177,6.7838,0.51266,36.739,128.48,-9.2741,3.0914,-1.0638,-12.365,1.485e-12,-0.53189,0,0,0.1,1.1842e-16,0,0.66667
0.50318,0.15561,5.0318,-0.51659,-51.281,282.24,6.9317,-2.3106,-1.0523,9.2422,-1.6178e-12,-0.52615,0,0,0.1,1.2731e-15,0,0.66667
0.23091,0.63245,2.3091,0.19867,24.969,597.42,-1.2233,0.40778,-1.8594,-1.6311,1.2579e-11,-0.92968,0,0,0.1,4.737e-16,0,0.66667
0.1749,0.64107,1.749,0.21161,27.238,669.79,-0.98694,0.32898,-1.8406,-1.3159,-2.9018e-10,-0.92028,0,0,0.1,2.3685e-16,0,0.66667
0.18498,0.40717,1.8498,-0.13925,-17.853,656.62,0.6869,-0.22897,-1.933,0.91587,2.485e-10,-0.96651,0,0,0.1,-0,-0,0.66667
0.84426,0.26408,8.4426,-0.35388,-13.392,33.337,7.9672,-2.6557,-1.5586,10.623,-1.4823e-09,-0.77929,0,0,0.1,-0,-0,0.66667
0.98259,0.46884,9.8259,-0.046741,-0.18795,0.65805,1.2247,-0.40824,-1.9955,1.633,1.3342e-06,-0.99774,0,0,0.1,-0,-0,0.66667
0.91374,0.66289,9.1374,0.24434,5.2506,11.1,-5.9536,1.9845,-1.785,-7.9381,4.9418e-08,-0.89252,0,0,0.1,-0,-0,0.66667
0.34737,0.86339,3.4737,0.54509,63.759,454.06,-5.0493,1.6831,-0.94273,-6.7324,-2.1019e-12,-0.47137,0,0,0.1,-0,-0,0.66667
0.78022,0.19649,7.8022,-0.45526,-23.582,63.516,9.4721,-3.1574,-1.2662,12.629,4.9161e-12,-0.63312,0,0,0.1,-0,-0,0.66667
0.54645,0.37227,5.4645,-0.1916,-17.813,239.32,2.792,-0.93066,-1.8746,3.7226,-1.5654e-13,-0.93732,0,0,0.1,-1.1842e-16,0,0.66667
0.81644,0.069679,8.1644,-0.64548,-28.598,46.288,14.053,-4.6844,-0.51781,18.738,-6.1849e-09,-0.2589,0,0,0.1,1.8948e-15,0,0.66667
0.48373,0.58321,4.8373,0.12482,12.678,301.57,-1.6101,0.5367,-1.9483,-2.1468,-1.0729e-12,-0.97417,0,0,0.1,-0,-0,0.66667
0.58995,0.62996,5.8995,0.19494,16.84,199.45,-3.0668,1.0223,-1.8645,-4.0891,3.1741e-12,-0.93227,0,0,0.1,-1.8948e-15,0,0.66667
0.78726,0.50972,7.8726,0.014579,0.73058,59.078,-0.30606,0.10202,-1.9966,-0.40809,-4.7942e-11,-0.99832,0,0,0.1,-0,-0,0.66667
0.10023,0.81408,1.0023,0.47111,62.018,768.54,-1.2593,0.41975,-1.2092,-1.679,-4.17e-08,-0.60459,0,0,0.1,2.3685e-16,0,0.66667
0.53701,0.45522,5.3701,-0.067177,-6.3351,248.28,0.96198,-0.32066,-1.9813,1.2826,-2.6851e-13,-0.99063,0,0,0.1,-1.5833e-15,0,0.66667
0.36598,0.14457,3.6598,-0.53315,-61.411,432.14,5.2033,-1.7344,-0.98636,6.9377,-3.1348e-12,-0.49318,0,0,0.1,4.737e-16,0,0.66667
0.60431,0.53407,6.0431,0.051103,4.2957,186.84,-0.82351,0.2745,-1.9896,-1.098,9.1427e-13,-0.99479,0,0,0.1,-1.8948e-15,0,0.66667
0.9588,0.20666,9.588,-0.44,-4.566,3.6405,11.25,-3.75,-1.309,15,-6.6564e-07,-0.65452,0,0,0.1,9.4739e-16,0,0.66667
0.39282,0.35104,3.9282,-0.22344,-25.076,400.75,2.3406,-0.78019,-1.8239,3.1208,-1.255e-12,-0.91195,0,0,0.1,9.4739e-16,0,0.66667
0.39297,0.49951,3.9297,-0.00074152,-0.083168,400.5,0.0077706,-0.0025902,-2.0023,0.010361,-2.6264e-12,-1.0011,0,0,0.1,-5.7732e-16,0,0.66667
0.79064,0.72275,7.9064,0.33412,16.545,57.723,-7.0444,2.3481,-1.6011,-9.3926,-4.8264e-11,-0.80054,0,0,0.1,-0,-0,0.66667
0.64508,0.77431,6.4508,0.41147,31.865,153.6,-7.0781,2.3594,-1.3968,-9.4375,-5.5511e-14,-0.69838,0,0,0.1,4.737e-16,0,0.66667
0.39388,0.72085,3.9388,0.33127,37.161,399.65,-3.4795,1.1598,-1.6106,-4.6394,-6.8525e-12,-0.80529,0,0,0.1,-0,-0,0.66667
0.68896,0.11224,6.8896,-0.58164,-40.606,121.07,10.686,-3.562,-0.79928,14.248,-3.209e-12,-0.39964,0,0,0.1,9.4739e-16,0,0.66667
0.404,0.86863,4.04,0.55295,61.545,388.52,-5.9571,1.9857,-0.91434,-7.9428,-3.4643e-12,-0.45717,0,0,0.1,-2.3685e-16,0,0.66667
0.13611,0.82788,1.3611,0.49181,64.197,720.91,-1.7851,0.59504,-1.1381,-2.3802,-8.7324e-09,-0.56907,0,0,0.1,-2.3685e-16,0,0.66667
0.45064,0.73024,4.5064,0.34536,36.538,336.73,-4.1502,1.3834,-1.5765,-5.5336,-4.3192e-12,-0.78827,0,0,0.1,9.4739e-16,0,0.66667
0.33442,0.15612,3.3442,-0.51582,-60.926,469.44,4.6,-1.5333,-1.0527,6.1334,8.2823e-13,-0.52633,0,0,0.1,-9.2519e-17,0,0.66667
0.21797,0.098926,2.1797,-0.60161,-76.279,614.3,3.4969,-1.1656,-0.71719,4.6625,-7.4695e-10,-0.35859,0,0,0.1,-0,-6.5462e-17,0.66667
0.92577,0.86853,9.2577,0.55279,10.388,9.4728,-13.647,4.549,-0.91285,-18.196,4.2055e-08,-0.45643,0,0,0.1,-4.737e-16,0,0.66667
0.68964,0.32787,6.8964,-0.25819,-17.92,119.75,4.7482,-1.5827,-1.764,6.331,-2.9265e-13,-0.88199,0,0,0.1,-0,-0,0.66667
0.59882,0.26376,5.9882,-0.35436,-30.145,191.91,5.6587,-1.8862,-1.5513,7.5449,5.5422e-13,-0.77563,0,0,0.1,-9.4739e-16,0,0.66667
0.74666,0.4945,7.4666,-0.0082528,-0.4821,81.939,0.16432,-0.054773,-1.9999,0.21909,-1.8368e-12,-0.99993,0,0,0.1,2.8422e-15,0,0.66667
0.54197,0.058228,5.4197,-0.66266,-62.317,244.56,9.5771,-3.1924,-0.43745,12.769,-3.3662e-13,-0.21872,0,0,0.1,8.4064e-17,0,0.66667
0.70053,0.023018,7.0053,-0.71547,-48.543,113.47,13.366,-4.4552,-0.18064,17.821,-3.1974e-14,-0.09032,0,0,0.1,-0,-9.1911e-17,0.66667
0.93056,0.8719,9.3056,0.55786,9.826,8.5512,-13.843,4.6144,-0.89141,-18.458,9.1528e-08,-0.44571,0,0,0.1,1.2229e-15,0,0.66667
0.86262,0.84342,8.6262,0.51514,17.417,26.977,-11.85,3.9499,-1.0576,-15.8,1.2601e-08,-0.52881,0,0,0.1,2.102e-15,0,0.66667
0.16744,0.97023,1.6744,0.70534,91.362,679.88,-3.1494,1.0498,-0.23072,-4.1993,-6.3385e-09,-0.11536,0,0,0.1,-0,-0,0.66667
0.26314,0.15943,2.6314,-0.51085,-63.237,556.88,3.5847,-1.1949,-1.0737,4.7796,1.035e-11,-0.53685,0,0,0.1,9.4739e-16,0,0.66667
0.07161,0.39395,0.7161,-0.15908,-21.013,806.73,0.30378,-0.10126,-1.907,0.40503,3.7916e-08,-0.95352,0,0,0.1,-0,-0,0.66667
0.97867,0.66819,9.7867,0.25229,1.289,1.1812,-6.5843,2.1948,-1.7711,-8.7791,-5.1913e-07,-0.88554,0,0,0.1,-0,-0,0.66667
0.23638,0.23406,2.3638,-0.39891,-50.049,590.57,2.5146,-0.83818,-1.4354,3.3527,-2.5967e-11,-0.71771,0,0,0.1,-0,-0,0.66667
0.6606,0.52562,6.606,0.038434,2.8659,141.03,-0.67706,0.22569,-1.9938,-0.90275,9.8405e-13,-0.99688,0,0,0.1,-9.4739e-16,0,0.66667
0.089631,0.50405,0.89631,0.00607,0.79929,782.6,-0.014508,0.0048362,-1.9993,-0.019344,1.2167e-07,-0.99967,0,0,0.1,-0,-0,0.66667
0.21077,0.30052,2.1077,-0.29922,-37.977,623.29,1.6818,-0.5606,-1.6785,2.2424,-5.8038e-11,-0.83924,0,0,0.1,-0,-0,0.66667
0.50282,0.76648,5.0282,0.39971,39.653,282.36,-5.3596,1.7865,-1.432,-7.1462,-4.408e-12,-0.71598,0,0,0.1,-0,-0,0.66667
0.10495,0.58318,1.0495,0.12477,16.382,762.15,-0.34919,0.1164,-1.9431,-0.46559,-1.5734e-08,-0.97154,0,0,0.1,1.1842e-16,0,0.66667
0.38887,0.039187,3.8887,-0.69122,-78.165,406.01,7.1679,-2.3893,-0.30324,9.5572,-1.6738e-12,-0.15162,0,0,0.1,-0,-8.9753e-17,0.66667
0.53799,0.91496,5.3799,0.62244,58.859,248.25,-8.9298,2.9766,-0.61966,-11.906,-2.1476e-12,-0.30983,0,0,0.1,-0,-0,0.66667
0.3392,0.51534,3.392,0.023016,2.7023,463.32,-0.20819,0.069398,-1.9963,-0.27759,-4.3513e-12,-0.99813,0,0,0.1,-0,-0,0.66667
0.5559,0.82919,5.559,0.49379,45.329,230.93,-7.3199,2.44,-1.13,-9.7599,-1.9051e-13,-0.56499,0,0,0.1,-9.4739e-16,0,0.66667
0.53677,0.033895,5.3677,-0.69916,-66.309,249.66,10.008,-3.3359,-0.26057,13.343,-2.5491e-12,-0.13029,0,0,0.1,-0,-0,0.66667
0.39061,0.83169,3.9061,0.49753,56.053,403.63,-5.1824,1.7275,-1.1248,-6.9099,-3.6744e-12,-0.56239,0,0,0.1,4.737e-16,4.4638e-17,0.66667
0.69627,0.89243,6.9627,0.58864,40.304,115.92,-10.929,3.6431,-0.76488,-14.573,-5.0449e-13,-0.38244,0,0,0.1,9.4739e-16,0,0.66667
0.67848,0.79131,6.7848,0.43697,31.274,128.19,-7.9061,2.6354,-1.3182,-10.541,-4.9605e-13,-0.65911,0,0,0.1,-0,-0,0.66667
0.6873,0.86386,6.873,0.54579,38.246,122.12,-10.003,3.3344,-0.94545,-13.338,2.0384e-12,-0.47272,0,0,0.1,-9.4739e-16,1.2373e-16,0.66667
0.56149,0.65652,5.6149,0.23478,21.311,225.26,-3.5153,1.1718,-1.8086,-4.6871,-6.215e-13,-0.90428,0,0,0.1,-0,-0,0.66667
0.35808,0.30396,3.5808,-0.29406,-34.036,441.09,2.8079,-0.93598,-1.6953,3.7439,-6.8137e-12,-0.84764,0,0,0.1,4.737e-16,0,0.66667
0.61311,0.44538,6.1311,-0.081924,-6.7698,179.34,1.3394,-0.44647,-1.9755,1.7859,-3.2099e-12,-0.98774,0,0,0.1,1.8948e-15,0,0.66667
0.93574,0.63888,9.3574,0.20832,3.343,6.4794,-5.1981,1.7327,-1.8473,-6.9308,5.0466e-08,-0.92366,0,0,0.1,-0,-0,0.66667
0.59689,0.69919,5.9689,0.29879,25.498,193.5,-4.7558,1.5853,-1.6823,-6.341,3.1264e-13,-0.84116,0,0,0.1,-0,-0,0.66667
0.97959,0.40312,9.7959,-0.14533,-0.70128,0.93278,3.7963,-1.2654,-1.9239,5.0617,1.3534e-07,-0.96197,0,0,0.1,1.8948e-15,0,0.66667
0.44101,0.15857,4.4101,-0.51215,-54.846,347.43,6.023,-2.0077,-1.0678,8.0306,-4.4578e-12,-0.53391,0,0,0.1,-0,-0,0.66667
0.73961,0.24531,7.3961,-0.38203,-22.908,86.724,7.5348,-2.5116,-1.4795,10.046,1.0841e-11,-0.73976,0,0,0.1,-4.737e-16,0,0.66667
0.037604,0.66383,0.37604,0.24574,32.591,852.42,-0.24642,0.082141,-1.7827,-0.32856,2.1126e-07,-0.89137,0,0,0.1,-0,-0,0.66667
0.76473,0.82381,7.6473,0.48571,26.724,72.151,-9.905,3.3017,-1.1644,-13.207,-3.7171e-11,-0.58221,0,0,0.1,-0,-0,0.66667
0.51828,0.58915,5.1828,0.13373,12.965,266.59,-1.8482,0.61607,-1.9375,-2.4643,2.7933e-13,-0.96877,0,0,0.1,2.3685e-16,0,0.66667
0.0053165,0.49178,0.053165,-0.012323,-1.6359,895.89,0.0017472,-0.00058868,-1.9974,0.0023265,-9.409e-06,-0.9987,0,0,0.1,3.7007e-18,0,0.66667
0.2772,0.27363,2.772,-0.33955,-41.637,539.14,2.51,-0.83665,-1.5891,3.3466,-8.7197e-12,-0.79456,0,0,0.1,-0,-0,0.66667
0.53483,0.061645,5.3483,-0.65753,-62.504,251.39,9.3778,-3.1259,-0.46339,12.504,3.2951e-13,-0.2317,0,0,0.1,5.9212e-17,0,0.66667
0.76796,0.28539,7.6796,-0.32192,-17.455,69.876,6.5926,-2.1975,-1.6332,8.7901,2.6585e-11,-0.81659,0,0,0.1,-0,-0,0.66667
0.053093,0.26418,0.53093,-0.35374,-46.872,831.61,0.50082,-0.16694,-1.5522,0.66776,5.96e-08,-0.77608,0,0,0.1,-0,-0,0.66667
0.54905,0.97093,5.4905,0.7064,65.746,237.99,-10.343,3.4475,-0.22801,-13.79,-1.2053e-12,-0.11401,0,0,0.1,-0,-0,0.66667
0.80099,0.05329,8.0099,-0.67007,-31.942,53.719,14.312,-4.7708,-0.40242,19.083,2.532e-09,-0.20121,0,0,0.1,-0,-0,0.66667
0.64958,0.23505,6.4958,-0.39742,-30.464,150.02,6.8843,-2.2948,-1.4353,9.179,-6.7857e-13,-0.71766,0,0,0.1,-0,-0,0.66667
0.93145,0.64322,9.3145,0.21483,3.6777,7.2851,-5.3362,1.7787,-1.8331,-7.1149,7.0137e-08,-0.91654,0,0,0.1,9.4739e-16,0,0.66667
0.074731,0.15584,0.74731,-0.51624,-68.289,802.63,1.0288,-0.34293,-1.0534,1.3717,1.6647e-07,-0.52669,0,0,0.1,1.8504e-17,0,0.66667
0.27681,0.99839,2.7681,0.74758,92.037,540.17,-5.5183,1.8394,-0.012471,-7.3577,-9.579e-13,-0.0062357,0,0,0.1,4.737e-16,0,0.66667
0.91924,0.32394,9.1924,-0.26409,-5.323,9.8917,6.4736,-2.1579,-1.7524,8.6315,-6.6539e-08,-0.87622,0,0,0.1,-1.8948e-15,0,0.66667
0.76501,0.06597,7.6501,-0.65104,-35.911,72.633,13.281,-4.4271,-0.4976,17.709,9.39e-11,-0.2488,0,0,0.1,-0,4.6764e-17,0.66667
0.59974,0.042532,5.9974,-0.6862,-58.519,192.04,10.974,-3.6582,-0.32308,14.633,-2.9239e-12,-0.16154,0,0,0.1,9.4739e-16,0,0.66667
0.83297,0.96011,8.3297,0.69017,28.112,39.258,-15.33,5.1101,-0.30461,-20.44,-2.0685e-09,-0.15231,0,0,0.1,-9.4739e-16,0,0.66667
0.89604,0.64772,8.9604,0.22158,5.7054,15.578,-5.2946,1.7649,-1.8233,-7.0595,2.6095e-08,-0.91163,0,0,0.1,-0,-0,0.66667
0.97272,0.57326,9.7272,0.10989,0.72575,1.4218,-2.8504,0.95013,-1.9559,-3.8005,-4.0749e-07,-0.97796,0,0,0.1,1.8948e-15,0,0.66667
0.99852,0.68117,9.9852,0.27176,-0.030587,0.35168,-7.2361,2.412,-1.7401,-9.6481,1.0956e-06,-0.87004,0,0,0.1,9.4739e-16,-7.5311e-17,0.66667
0.13965,0.89621,1.3965,0.59431,77.567,716.31,-2.2132,0.73773,-0.74734,-2.9509,-5.6187e-09,-0.37367,0,0,0.1,-0,-1.0332e-16,0.66667
0.070542,0.73936,0.70542,0.35904,47.472,808.2,-0.6754,0.22513,-1.5386,-0.90053,-1.5252e-07,-0.76928,0,0,0.1,-0,-0,0.66667
0.073467,0.59449,0.73467,0.14173,18.716,804.24,-0.27766,0.092555,-1.9282,-0.37022,-1.9792e-08,-0.96409,0,0,0.1,2.3685e-16,0,0.66667
0.014744,0.80366,0.14744,0.45549,60.551,883.2,-0.17908,0.059695,-1.2658,-0.23878,1.0053e-07,-0.63288,0,0,0.1,-0,-0,0.66667
0.97182,0.12439,9.7182,-0.56341,-4.0309,2.819,14.601,-4.867,-0.87265,19.468,7.4896e-06,-0.43633,0,0,0.1,2.4277e-15,0,0.66667
0.094767,0.71652,0.94767,0.32478,42.761,775.78,-0.82076,0.27359,-1.6291,-1.0943,-4.3129e-08,-0.81454,0,0,0.1,-2.9606e-17,0,0.66667
0.84174,0.65233,8.4174,0.22849,8.7591,34.072,-5.1288,1.7096,-1.8165,-6.8384,1.2474e-09,-0.90827,0,0,0.1,4.9841e-16,0,0.66667
0.68517,0.82537,6.8517,0.48805,34.36,123.47,-8.9173,2.9724,-1.1539,-11.89,-2.6024e-13,-0.57694,0,0,0.1,-0,-0,0.66667
0.48756,0.3318,4.8756,-0.2523,-25.513,297.72,3.2803,-1.0934,-1.7733,4.3738,-1.6775e-12,-0.88667,0,0,0.1,-4.737e-16,0,0.66667
0.34669,0.97758,3.4669,0.71637,83.998,455.2,-6.6229,2.2076,-0.17556,-8.8306,2.2604e-13,-0.08778,0,0,0.1,-0,-0,0.66667
0.35365,0.2922,3.5365,-0.3117,-36.211,446.33,2.9395,-0.97983,-1.652,3.9193,-8.8074e-12,-0.826,0,0,0.1,-0,-0,0.66667
0.25384,0.15639,2.5384,-0.51542,-64.136,568.58,3.4889,-1.163,-1.0559,4.6519,-1.0374e-12,-0.52797,0,0,0.1,-0,-0,0.66667
0.91102,0.86635,9.1102,0.54953,12.311,12.727,-13.35,4.4501,-0.92458,-17.8,9.1134e-08,-0.46229,0,0,0.1,9.4739e-16,0,0.66667
0.72564,0.35065,7.2564,-0.22403,-14.023,95.233,4.335,-1.445,-1.8189,5.78,4.0141e-12,-0.90946,0,0,0.1,-0,-0,0.66667
0.025926,0.00039345,0.25926,-0.74941,-99.853,868.19,0.51807,-0.17269,-0.0021154,0.69077,4.2227e-06,-0.0010577,0,0,0.1,-0,-0,0.66667
0.46152,0.83977,4.6152,0.50966,53.32,325.38,-6.2725,2.0908,-1.0742,-8.3633,-1.4029e-12,-0.53708,0,0,0.1,-4.737e-16,0,0.66667
0.2813,0.90316,2.813,0.60475,74.129,534.35,-4.5364,1.5121,-0.70552,-6.0486,9.8139e-12,-0.35276,0,0,0.1,-1.1842e-16,0,0.66667
0.028966,0.825,0.28966,0.4875,64.781,864.06,-0.37656,0.12552,-1.1559,-0.50208,2.9831e-06,-0.57794,0,0,0.1,-0,-0,0.66667
0.88468,0.16394,8.8468,-0.50409,-14.447,19.682,11.892,-3.9641,-1.0941,15.856,2.6831e-09,-0.54706,0,0,0.1,-0,-0,0.66667
0.77101,0.79759,7.7101,0.44638,23.969,68.508,-9.1776,3.0592,-1.289,-12.237,-5.4063e-11,-0.64452,0,0,0.1,-9.4739e-16,0,0.66667
0.32974,0.76462,3.2974,0.39694,47.004,474.9,-3.4902,1.1634,-1.4416,-4.6536,-4.8335e-12,-0.72082,0,0,0.1,-0,-0,0.66667
0.79656,0.31838,7.9656,-0.27242,-13.138,54.587,5.7867,-1.9289,-1.741,7.7156,2.5481e-11,-0.8705,0,0,0.1,-1.8948e-15,0,0.66667
0.32464,0.45433,3.2464,-0.0685,-8.1311,480.82,0.593,-0.19767,-1.9825,0.79067,-8.9115e-12,-0.99127,0,0,0.1,4.737e-16,0,0.66667
0.30788,0.95063,3.0788,0.67594,81.508,501.78,-5.5496,1.8499,-0.3736,-7.3995,2.9714e-12,-0.1868,0,0,0.1,-4.737e-16,-2.0896e-17,0.66667
0.92811,0.17568,9.2811,-0.48648,-8.8267,8.7205,12.04,-4.0134,-1.1557,16.054,-1.9121e-07,-0.57783,0,0,0.1,-0,-0,0.66667
0.97692,0.72747,9.7692,0.34121,1.9183,1.5375,-8.8889,2.963,-1.5831,-11.852,-1.1672e-06,-0.79156,0,0,0.1,-0,-0,0.66667
0.52356,0.16551,5.2356,-0.50174,-48.4,261.93,7.0051,-2.335,-1.1019,9.3401,-1.2581e-12,-0.55095,0,0,0.1,-0,-0,0.66667
0.95194,0.62382,9.5194,0.18573,2.2217,3.8578,-4.7148,1.5716,-1.8814,-6.2864,-7.141e-08,-0.94069,0,0,0.1,-2.3685e-15,0,0.66667
0.888,0.75097,8.88,0.37645,10.45,18.248,-8.9144,2.9715,-1.4979,-11.886,1.9526e-08,-0.74896,0,0,0.1,-0,-0,0.66667
0.51803,0.80664,5.1803,0.45996,44.702,267.28,-6.3539,2.118,-1.2491,-8.4719,-3.6593e-12,-0.62453,0,0,0.1,9.4739e-16,0,0.66667
0.37275,0.30877,3.7275,-0.28685,-32.789,423.93,2.8512,-0.95042,-1.7093,3.8017,-6.0265e-12,-0.85464,0,0,0.1,2.3685e-16,0,0.66667
0.71035,0.43003,7.1035,-0.10495,-6.8722,105.2,1.988,-0.66268,-1.9581,2.6507,2.921e-13,-0.97903,0,0,0.1,-0,-0,0.66667
0.45564,0.57075,4.5564,0.10612,11.152,331.14,-1.2895,0.42982,-1.9608,-1.7193,4.0656e-13,-0.9804,0,0,0.1,-9.4739e-16,0,0.66667
0.60521,0.28434,6.0521,-0.32348,-27.179,186.34,5.2207,-1.7402,-1.6275,6.961,-2.9323e-12,-0.81377,0,0,0.1,1.8948e-15,0,0.66667
0.99041,0.13647,9.9041,-0.54529,-1.2384,1.567,14.402,-4.8006,-0.94004,19.202,-8.1806e-06,-0.47002,0,0,0.1,-0,-0,0.66667
0.77392,0.72618,7.7392,0.33927,17.985,66.614,-7.0019,2.334,-1.5879,-9.3358,-3.3365e-11,-0.79397,0,0,0.1,-1.8948e-15,0,0.66667
0.33428,0.54121,3.3428,0.061818,7.2856,469.22,-0.55105,0.18368,-1.9837,-0.73474,-9.2036e-12,-0.99186,0,0,0.1,-0,-0,0.66667
0.088998,0.1752,0.88998,-0.4872,-64.281,783.54,1.1563,-0.38542,-1.1541,1.5417,1.0215e-08,-0.57704,0,0,0.1,-1.1842e-16,0,0.66667
0.18491,0.37657,1.8491,-0.18514,-23.74,656.73,0.91288,-0.30429,-1.8799,1.2172,-1.9356e-11,-0.93993,0,0,0.1,4.737e-16,0,0.66667
0.52685,0.65911,5.2685,0.23866,22.864,258.25,-3.3531,1.1177,-1.7969,-4.4708,-8.5421e-13,-0.89844,0,0,0.1,-0,-0,0.66667
0.4171,0.082519,4.171,-0.62622,-68.859,373.99,6.9653,-2.3218,-0.60376,9.287,4.6643e-12,-0.30188,0,0,0.1,-4.737e-16,0,0.66667
0.80066,0.55304,8.0066,0.079561,3.7618,52.308,-1.6987,0.56623,-1.9766,-2.2649,4.6629e-11,-0.98832,0,0,0.1,9.4739e-16,0,0.66667
0.9332,0.76516,9.332,0.39774,6.6814,7.4192,-9.8978,3.2993,-1.4359,-13.197,1.8047e-07,-0.71795,0,0,0.1,1.8948e-15,0,0.66667
0.17786,0.86688,1.7786,0.55031,70.906,666.12,-2.6102,0.87006,-0.92077,-3.4802,-5.8296e-10,-0.46039,0,0,0.1,-1.1842e-16,0,0.66667
0.86007,0.54226,8.6007,0.06339,2.1632,26.888,-1.4539,0.48462,-1.9893,-1.9385,3.2443e-10,-0.99467,0,0,0.1,-0,-0,0.66667
0.95739,0.25631,9.5739,-0.36553,-3.9019,3.5579,9.3322,-3.1107,-1.5239,12.443,-1.5102e-07,-0.76196,0,0,0.1,1.8948e-15,0,0.66667
0.95947,0.92697,9.5947,0.64046,6.6805,4.4838,-16.387,5.4622,-0.53875,-21.849,1.1342e-05,-0.26938,0,0,0.1,-9.4739e-16,0,0.66667
0.037863,0.65843,0.37863,0.23765,31.516,852.07,-0.23995,0.079982,-1.7974,-0.31993,2.0746e-07,-0.89868,0,0,0.1,-0,-0,0.66667
0.057584,0.57954,0.57584,0.11931,15.787,825.55,-0.18321,0.061069,-1.9472,-0.24427,3.1903e-08,-0.97362,0,0,0.1,-1.1842e-16,0,0.66667
0.0057974,0.91742,0.057974,0.62614,83.371,895.25,-0.096791,0.032256,-0.60347,-0.12906,-1.1871e-05,-0.30174,0,0,0.1,-0,2.1764e-16,0.66667
0.31268,0.087831,3.1268,-0.61825,-74.259,495.84,5.1551,-1.7184,-0.64607,6.8735,-8.2299e-12,-0.32304,0,0,0.1,-0,-0,0.66667
0.055698,0.099408,0.55698,-0.60089,-79.744,828.17,0.89249,-0.2975,-0.71376,1.19,-1.734e-06,-0.35688,0,0,0.1,-0,-0,0.66667
0.29386,0.77346,2.9386,0.41018,49.801,518.57,-3.2143,1.0714,-1.402,-4.2858,-1.5707e-12,-0.701,0,0,0.1,-0,-0,0.66667
0.35602,0.66579,3.5602,0.24868,28.826,443.48,-2.361,0.78698,-1.7797,-3.1479,-2.7018e-12,-0.88987,0,0,0.1,-9.4739e-16,0,0.66667
0.95368,0.36139,9.5368,-0.20791,-2.3968,3.6563,5.2875,-1.7625,-1.8501,7.05,8.8583e-08,-0.92504,0,0,0.1,-0,-0,0.66667
0.47695,0.64475,4.7695,0.21712,22.248,308.69,-2.7615,0.9205,-1.8292,-3.682,-9.4724e-13,-0.91462,0,0,0.1,-4.737e-16,0,0.66667
0.27824,0.46086,2.7824,-0.058716,-7.1887,537.71,0.43565,-0.14522,-1.988,0.58087,-6.3932e-13,-0.99398,0,0,0.1,2.3685e-16,0,0.66667
0.50301,0.026034,5.0301,-0.71095,-70.767,282.95,9.5363,-3.1788,-0.20341,12.715,2.859e-12,-0.1017,0,0,0.1,-4.737e-16,0,0.66667
0.64336,0.010162,6.4336,-0.73476,-57.401,156.03,12.606,-4.2019,-0.080834,16.808,8.864e-13,-0.040417,0,0,0.1,-0,-0,0.66667
0.11125,0.8304,1.1125,0.4956,65.099,753.88,-1.4702,0.49007,-1.1282,-1.9603,-1.3583e-08,-0.56408,0,0,0.1,1.1842e-16,0,0.66667
0.75806,0.53119,7.5806,0.046778,2.6257,75.186,-0.94562,0.31521,-1.9906,-1.2608,3.4445e-13,-0.99532,0,0,0.1,1.0946e-15,0,0.66667
0.85195,0.94539,8.5195,0.66809,24.344,31.572,-15.178,5.0593,-0.41016,-20.237,2.7108e-08,-0.20508,0,0,0.1,1.8948e-15,0,0.66667
0.84425,0.93885,8.4425,0.65828,25.123,34.497,-14.82,4.94,-0.46453,-19.76,3.9383e-08,-0.23226,0,0,0.1,-0,-0,0.66667
0.89051,0.89533,8.9051,0.593,16.237,18.344,-14.082,4.6939,-0.75448,-18.776,-2.7149e-08,-0.37724,0,0,0.1,-0,-0,0.66667
0.38184,0.47507,3.8184,-0.0374,-4.2378,413.27,0.38082,-0.12694,-1.9925,0.50776,3.333e-12,-0.99624,0,0,0.1,-0,-0,0.66667
0.44381,0.55685,4.4381,0.08528,9.0819,343.89,-1.0093,0.33642,-1.9719,-1.3457,-1.6396e-12,-0.98593,0,0,0.1,-0,-0,0.66667
0.10158,0.86618,1.0158,0.54926,72.331,766.78,-1.4879,0.49596,-0.92436,-1.9838,4.1482e-09,-0.46218,0,0,0.1,-0,-0,0.66667
0.22581,0.08274,2.2581,-0.62589,-79.086,604.29,3.7688,-1.2563,-0.60409,5.0251,1.3656e-10,-0.30205,0,0,0.1,-0,-0,0.66667
0.97132,0.04688,9.7132,-0.67968,-5.0527,3.4867,17.605,-5.8683,-0.35786,23.473,3.7577e-05,-0.17893,0,0,0.1,1.8948e-15,0,0.66667
0.28462,0.30902,2.8462,-0.28648,-34.96,529.88,2.1743,-0.72478,-1.7086,2.8991,-1.4426e-11,-0.85429,0,0,0.1,-0,-0,0.66667
0.9074,0.24996,9.074,-0.37507,-8.6691,12.96,9.0756,-3.0252,-1.5042,12.101,-3.8842e-08,-0.75208,0,0,0.1,-1.8948e-15,0,0.66667
0.89055,0.6129,8.9055,0.16935,4.5784,17.053,-4.0217,1.3406,-1.9028,-5.3623,1.6875e-08,-0.95141,0,0,0.1,-9.4739e-16,0,0.66667
0.9225,0.56707,9.225,0.10061,1.9409,8.9398,-2.4749,0.82498,-1.9685,-3.2999,5.7718e-08,-0.98423,0,0,0.1,1.8948e-15,0,0.66667
0.15615,0.86908,1.5615,0.55363,71.87,694.55,-2.3053,0.76843,-0.91552,-3.0737,-6.8239e-10,-0.45776,0,0,0.1,-0,7.6935e-17,0.66667
0.87972,0.90605,8.7972,0.60908,18.24,21.67,-14.288,4.7628,-0.68064,-19.051,-6.0758e-09,-0.34032,0,0,0.1,2.3981e-15,0,0.66667
0.63199,0.72483,6.3199,0.33724,26.848,163.95,-5.6836,1.8945,-1.5931,-7.5781,2.0459e-12,-0.79653,0,0,0.1,-0,-0,0.66667
0.21063,0.48226,2.1063,-0.026605,-3.3745,623.39,0.14943,-0.049811,-1.9942,0.19924,-1.0535e-11,-0.99712,0,0,0.1,-0,-0,0.66667
0.34512,0.46624,3.4512,-0.050647,-5.9192,456.28,0.46611,-0.15537,-1.9943,0.62147,1.7686e-13,-0.99717,0,0,0.1,2.3685e-16,0,0.66667
0.15992,0.33473,1.5992,-0.2479,-32.08,689.43,1.0572,-0.35239,-1.7808,1.4096,1.0734e-09,-0.8904,0,0,0.1,-1.1842e-16,0,0.66667
0.44435,0.066272,4.4435,-0.65059,-69.524,344.13,7.7091,-2.5697,-0.49286,10.279,-6.8643e-12,-0.24643,0,0,0.1,9.4739e-16,0,0.66667
0.083775,0.15423,0.83775,-0.51865,-68.51,790.53,1.1587,-0.38622,-1.0422,1.5449,7.6155e-09,-0.5211,0,0,0.1,1.1842e-16,0,0.66667
0.16532,0.40922,1.6532,-0.13616,-17.582,682.31,0.60027,-0.20009,-1.9321,0.80036,1.9782e-10,-0.96606,0,0,0.1,-0,-0,0.66667
0.1972,0.04087,1.972,-0.68869,-88.192,641.16,3.6215,-1.2072,-0.31104,4.8287,-1.1471e-09,-0.15552,0,0,0.1,-0,-0,0.66667
0.69103,0.95754,6.9103,0.68632,47.746,120,-12.647,4.2157,-0.32453,-16.863,1.9469e-12,-0.16227,0,0,0.1,-9.4739e-16,0,0.66667
0.5738,0.73962,5.738,0.35943,31.984,214.15,-5.4998,1.8333,-1.5392,-7.3331,1.017e-13,-0.76959,0,0,0.1,-4.737e-16,0,0.66667
0.87332,0.79489,8.7332,0.44233,13.827,23.047,-10.301,3.4337,-1.3061,-13.735,5.8214e-09,-0.65305,0,0,0.1,-0,-0,0.66667
0.24463,0.058835,2.4463,-0.66175,-82.867,580.39,4.317,-1.439,-0.4415,5.7559,9.4478e-11,-0.22075,0,0,0.1,-1.1842e-16,0,0.66667
0.62961,0.32692,6.2961,-0.25962,-20.761,165.77,4.359,-1.453,-1.7584,5.812,1.7542e-13,-0.87922,0,0,0.1,-0,-0,0.66667
0.034431,0.034899,0.34431,-0.69765,-92.855,856.75,0.64056,-0.21352,-0.27006,0.85409,5.1362e-06,-0.13503,0,0,0.1,-1.1842e-16,0,0.66667
0.5162,0.20014,5.162,-0.4498,-43.824,269.07,6.1916,-2.0639,-1.2844,8.2554,-1.636e-12,-0.64221,0,0,0.1,-0,-0,0.66667
0.86323,0.043143,8.6323,-0.68528,-23.219,27.545,15.775,-5.2583,-0.32916,21.033,-1.1095e-08,-0.16458,0,0,0.1,-1.8948e-15,0,0.66667
0.98413,0.86776,9.8413,0.55164,2.1688,1.8901,-14.477,4.8256,-0.92284,-19.303,1.4095e-06,-0.46142,0,0,0.1,-0,-9.0667e-17,0.66667
0.009873,0.063451,0.09873,-0.65482,-87.21,889.77,0.1724,-0.057436,-0.4742,0.22988,4.3456e-05,-0.2371,0,0,0.1,-0,-0,0.66667
0.25284,0.92044,2.5284,0.63067,78.605,569.98,-4.2522,1.4174,-0.58584,-5.6696,1.868e-11,-0.29292,0,0,0.1,4.737e-16,0,0.66667
0.22385,0.49,2.2385,-0.015003,-1.8914,606.4,0.08956,-0.029853,-1.9971,0.11941,3.2081e-12,-0.99856,0,0,0.1,-4.737e-16,0,0.66667
0.047538,0.057416,0.47538,-0.66388,-88.233,839.14,0.84157,-0.28052,-0.43725,1.1221,5.6185e-06,-0.21863,0,0,0.1,-8.8818e-17,0,0.66667
0.010172,0.97438,0.10172,0.71158,94.825,889.37,-0.19305,0.064297,-0.19793,-0.25743,-7.9964e-05,-0.098964,0,0,0.1,-0,-0,0.66667
0.4902,0.23232,4.902,-0.40152,-40.505,295.22,5.2486,-1.7495,-1.424,6.9982,-6.2594e-12,-0.71202,0,0,0.1,9.4739e-16,0,0.66667
0.045482,0.75299,0.45482,0.37948,50.329,841.84,-0.46026,0.15342,-1.4913,-0.61368,-1.8432e-07,-0.74565,0,0,0.1,-0,-0,0.66667
0.27833,0.47333,2.7833,-0.040001,-4.8971,537.59,0.29689,-0.098964,-1.9951,0.39586,-8.8424e-13,-0.99754,0,0,0.1,9.4739e-16,0,0.66667
0.63997,0.40484,6.3997,-0.14274,-11.157,157.24,2.436,-0.812,-1.9325,3.248,-1.4486e-12,-0.96626,0,0,0.1,9.4739e-16,0,0.66667
0.29469,0.98686,2.9469,0.73029,88.894,518.03,-5.739,1.913,-0.10471,-7.652,-1.5943e-13,-0.052357,0,0,0.1,-0,-0,0.66667
0.26965,0.55357,2.6965,0.080356,9.8887,548.42,-0.57782,0.19261,-1.976,-0.77043,-7.0555e-14,-0.98799,0,0,0.1,2.3685e-16,0,0.66667
0.59055,0.94633,5.9055,0.66949,58.055,200,-10.543,3.5144,-0.4062,-14.057,4.7073e-13,-0.2031,0,0,0.1,-0,-0,0.66667
0.38053,0.73494,3.8053,0.35241,40.024,414.99,-3.5761,1.192,-1.5558,-4.7682,-3.7181e-12,-0.77792,0,0,0.1,-4.737e-16,0,0.66667
0.70252,0.079398,7.0252,-0.6309,-42.496,111.75,11.819,-3.9398,-0.58841,15.759,-2.9665e-12,-0.29421,0,0,0.1,-9.4739e-16,1.1764e-16,0.66667
0.49612,0.76159,4.9612,0.39239,39.274,289.14,-5.1913,1.7304,-1.4515,-6.9217,-1.8705e-12,-0.72573,0,0,0.1,-0,-0,0.66667
0.63321,0.63443,6.3321,0.20165,15.997,162.76,-3.405,1.135,-1.8524,-4.54,-5.8908e-13,-0.92621,0,0,0.1,-0,-0,0.66667
0.35339,0.3823,3.5339,-0.17655,-20.502,446.52,1.6637,-0.55458,-1.8868,2.2183,-6.9839e-12,-0.94341,0,0,0.1,-0,-0,0.66667
0.28704,0.1526,2.8704,-0.5211,-63.598,527.12,3.9888,-1.3296,-1.0328,5.3184,-1.6798e-12,-0.51638,0,0,0.1,-0,-0,0.66667
0.13321,0.33248,1.3321,-0.25128,-32.78,724.65,0.89261,-0.29754,-1.7724,1.1901,5.9085e-09,-0.88618,0,0,0.1,-0,-0,0.66667
0.93708,0.22866,9.3708,-0.40701,-6.4467,6.7491,10.171,-3.3902,-1.4152,13.561,-1.688e-07,-0.70762,0,0,0.1,-0,-0,0.66667
0.80484,0.9553,8.0484,0.68296,32.007,51.915,-14.658,4.8859,-0.33834,-19.544,-1.1873e-09,-0.16917,0,0,0.1,-0,-0,0.66667
0.93803,0.6871,9.3803,0.28065,4.3535,6.2211,-7.0203,2.3401,-1.7254,-9.3604,7.6839e-08,-0.86268,0,0,0.1,3.2567e-16,0,0.66667
0.18538,0.96154,1.8538,0.69231,89.076,656.48,-3.4224,1.1408,-0.29738,-4.5632,-1.4786e-09,-0.14869,0,0,0.1,-1.1842e-16,8.4073e-17,0.66667
0.93316,0.26448,9.3316,-0.35328,-5.9263,7.2894,8.791,-2.9303,-1.5546,11.721,-1.4984e-07,-0.77729,0,0,0.1,-0,-0,0.66667
0.93575,0.86991,9.3575,0.55487,9.0544,7.5763,-13.846,4.6153,-0.90771,-18.461,1.2146e-07,-0.45386,0,0,0.1,1.4211e-15,0,0.66667
0.28354,0.31681,2.8354,-0.27478,-33.553,531.21,2.0777,-0.69255,-1.7332,2.7702,-9.7142e-12,-0.86661,0,0,0.1,-0,-0,0.66667
0.27463,0.91549,2.7463,0.62324,76.718,542.67,-4.5643,1.5214,-0.61612,-6.0858,1.6413e-11,-0.30806,0,0,0.1,4.737e-16,0,0.66667
0.55143,0.79023,5.5143,0.43535,40.228,234.99,-6.4017,2.1339,-1.3246,-8.5357,-1.8394e-12,-0.66228,0,0,0.1,9.4739e-16,0,0.66667
0.18529,0.0098651,1.8529,-0.7352,-94.645,656.65,3.6327,-1.2109,-0.079276,4.8436,-1.0464e-09,-0.039638,0,0,0.1,-0,-0,0.66667
0.4421,0.6481,4.421,0.22215,23.713,345.83,-2.619,0.87301,-1.823,-3.492,-2.8895e-12,-0.91151,0,0,0.1,-4.737e-16,0,0.66667
0.18532,0.44149,1.8532,-0.087767,-11.25,656.17,0.43373,-0.14458,-1.9745,0.57831,-1.6655e-10,-0.98725,0,0,0.1,-4.737e-16,0,0.66667
0.94738,0.48968,9.4738,-0.015483,-0.20253,4.3742,0.39116,-0.13039,-1.9966,0.52154,2.5065e-07,-0.99831,0,0,0.1,3.0167e-15,0,0.66667
0.49382,0.18125,4.9382,-0.47812,-48.038,291.65,6.2962,-2.0987,-1.1849,8.3949,-3.6384e-12,-0.59245,0,0,0.1,-0,-0,0.66667
0.96392,0.863,9.6392,0.5445,4.9944,3.4964,-13.996,4.6654,-0.94385,-18.661,1.3334e-06,-0.47192,0,0,0.1,9.4739e-16,0,0.66667
0.64494,0.24706,6.4494,-0.37941,-29.381,153.64,6.5253,-2.1751,-1.4876,8.7004,5.5556e-13,-0.74382,0,0,0.1,-9.4739e-16,0,0.66667
0.48432,0.030589,4.8432,-0.70412,-71.812,302,9.0937,-3.0312,-0.24352,12.125,-3.5358e-12,-0.12176,0,0,0.1,-5.9212e-16,9.8128e-18,0.66667
0.9677,0.57131,9.677,0.10697,0.84545,1.8834,-2.7603,0.9201,-1.9624,-3.6804,-2.2599e-07,-0.98122,0,0,0.1,-0,-0,0.66667
0.14319,0.12282,1.4319,-0.56577,-73.747,711.62,2.1603,-0.72011,-0.86352,2.8805,-4.0375e-11,-0.43176,0,0,0.1,-8.8818e-17,0,0.66667
0.63233,0.16212,6.3233,-0.50683,-40.396,164.08,8.5462,-2.8487,-1.0841,11.395,-7.2209e-13,-0.54205,0,0,0.1,-0,-0,0.66667
0.66189,0.45049,6.6189,-0.074261,-5.5208,140.05,1.3107,-0.43691,-1.9778,1.7476,-1.8383e-12,-0.98889,0,0,0.1,-0,-0,0.66667
0.43384,0.045179,4.3384,-0.68223,-73.774,355.65,7.8928,-2.6309,-0.34414,10.524,-3.3396e-12,-0.17207,0,0,0.1,-0,-0,0.66667
0.059357,0.21843,0.59357,-0.42235,-55.947,823.21,0.66853,-0.22284,-1.367,0.89137,1.0501e-07,-0.68351,0,0,0.1,1.8504e-17,0,0.66667
0.49272,0.24179,4.9272,-0.38731,-38.938,292.6,5.089,-1.6963,-1.4638,6.7853,-2.9621e-12,-0.73189,0,0,0.1,-4.737e-16,0,0.66667
0.46513,0.3874,4.6513,-0.16891,-17.555,321.07,2.095,-0.69835,-1.8977,2.7934,-3.5081e-12,-0.94885,0,0,0.1,-0,-0,0.66667
0.80675,0.077218,8.0675,-0.63417,-29.418,50.768,13.643,-4.5477,-0.56733,18.191,4.7538e-10,-0.28367,0,0,0.1,-0,-0,0.66667
0.25666,0.18852,2.5666,-0.46722,-58.026,564.97,3.1978,-1.0659,-1.2222,4.2637,-2.2511e-11,-0.61111,0,0,0.1,-0,-0,0.66667
0.39143,0.80879,3.9143,0.46318,52.128,402.63,-4.8348,1.6116,-1.2415,-6.4463,-2.6805e-12,-0.62073,0,0,0.1,-4.737e-16,0,0.66667
0.24017,0.85135,2.4017,0.52702,66.061,585.88,-3.3754,1.1251,-1.0101,-4.5005,8.2985e-12,-0.50507,0,0,0.1,-4.737e-16,0,0.66667
0.68644,0.19003,6.8644,-0.46495,-32.615,122.49,8.511,-2.837,-1.2354,11.348,-2.9665e-13,-0.61768,0,0,0.1,-0,-0,0.66667
0.98988,0.85641,9.8988,0.53462,1.2815,1.5367,-14.112,4.7041,-0.98125,-18.816,6.9331e-06,-0.49063,0,0,0.1,-1.8948e-15,0,0.66667
0.17743,0.94361,1.7743,0.66541,85.846,666.8,-3.1484,1.0495,-0.42372,-4.1978,-2.7877e-09,-0.21186,0,0,0.1,-0,-0,0.66667
0.82145,0.48853,8.2145,-0.017201,-0.73586,42.509,0.37679,-0.1256,-1.996,0.50239,1.538e-10,-0.99798,0,0,0.1,-0,-0,0.66667
0.23099,0.85755,2.3099,0.53632,67.541,597.57,-3.3036,1.1012,-0.97664,-4.4047,8.5626e-11,-0.48832,0,0,0.1,-0,-0,0.66667
0.057976,0.97748,0.57976,0.71622,95.138,825.15,-1.1073,0.3691,-0.17462,-1.4764,9.7752e-06,-0.08731,0,0,0.1,1.1842e-16,0,0.66667
0.13882,0.34127,1.3882,-0.23809,-31.009,717.22,0.88135,-0.29378,-1.8012,1.1751,4.0687e-09,-0.90059,0,0,0.1,8.8818e-17,0,0.66667
0.93515,0.11339,9.3515,-0.57991,-9.5669,7.8021,14.461,-4.8205,-0.80509,19.282,-3.2653e-08,-0.40255,0,0,0.1,9.4739e-16,0,0.66667
0.88854,0.56128,8.8854,0.09192,2.527,17.561,-2.178,0.72599,-1.9725,-2.904,1.1933e-08,-0.98625,0,0,0.1,-4.737e-16,0,0.66667
0.28926,0.57546,2.8926,0.11319,13.765,524.05,-0.87311,0.29104,-1.9512,-1.1642,-6.2356e-13,-0.97561,0,0,0.1,-0,-0,0.66667
0.94776,0.4443,9.4776,-0.083545,-1.0852,4.3442,2.1115,-0.70383,-1.9732,2.8153,2.5914e-08,-0.98662,0,0,0.1,-0,-0,0.66667
0.84993,0.76718,8.4993,0.40077,14.668,31.258,-9.0833,3.0278,-1.426,-12.111,1.5725e-09,-0.71301,0,0,0.1,-1.0065e-15,0,0.66667
0.43465,0.48949,4.3465,-0.015766,-1.6958,353.85,0.18274,-0.060914,-1.9993,0.24366,-8.5154e-13,-0.99965,0,0,0.1,-4.737e-16,0,0.66667
0.46805,0.087219,4.6805,-0.61917,-64.356,318.73,7.7281,-2.576,-0.64093,10.304,-7.7023e-12,-0.32047,0,0,0.1,2.3685e-16,7.8312e-17,0.66667
0.62985,0.41685,6.2985,-0.12472,-9.9614,165.43,2.0948,-0.69826,-1.9428,2.793,3.2447e-12,-0.97138,0,0,0.1,-1.8948e-15,0,0.66667
0.15803,0.44023,1.5803,-0.089652,-11.604,691.87,0.37781,-0.12594,-1.9742,0.50375,2.4285e-10,-0.98708,0,0,0.1,-0,-0,0.66667
0.014782,0.88683,0.14782,0.58024,77.213,883.16,-0.22872,0.076234,-0.80619,-0.30496,-7.8707e-06,-0.40309,0,0,0.1,2.9606e-17,0,0.66667
0.26551,0.85934,2.6551,0.53901,66.65,553.94,-3.8164,1.2721,-0.97161,-5.0885,1.2181e-11,-0.48581,0,0,0.1,-4.737e-16,-1.4816e-16,0.66667
0.015444,0.038171,0.15444,-0.69274,-92.284,882.28,0.28528,-0.09507,-0.29865,0.38038,3.4758e-05,-0.14932,0,0,0.1,2.9606e-17,0,0.66667
0.6745,0.69593,6.745,0.2939,21.214,130.81,-5.2863,1.7621,-1.6935,-7.0484,-4.543e-13,-0.84677,0,0,0.1,-0,-0,0.66667
0.55147,0.95866,5.5147,0.68798,63.77,235.65,-10.117,3.3725,-0.31539,-13.49,-2.1263e-12,-0.15769,0,0,0.1,-0,-0,0.66667
0.32165,0.38164,3.2165,-0.17753,-21.124,484.47,1.5228,-0.50758,-1.8855,2.0303,-9.8097e-12,-0.94273,0,0,0.1,-0,-0,0.66667
0.7802,0.66475,7.802,0.24713,12.765,63.021,-5.1417,1.7139,-1.786,-6.8555,-3.5536e-11,-0.89301,0,0,0.1,-0,-0,0.66667
0.14579,0.21052,1.4579,-0.43423,-56.498,708.11,1.6881,-0.5627,-1.3276,2.2508,2.1343e-09,-0.66382,0,0,0.1,-0,-0,0.66667
0.24488,0.48967,2.4488,-0.015494,-1.933,579.61,0.10118,-0.033726,-1.997,0.13491,-9.6363e-12,-0.99851,0,0,0.1,-7.1054e-16,0,0.66667
0.29231,0.29424,2.9231,-0.30865,-37.487,520.39,2.4059,-0.80197,-1.6595,3.2079,-9.2757e-12,-0.82973,0,0,0.1,4.737e-16,0,0.66667
0.19593,0.96608,1.9593,0.69912,89.584,642.81,-3.6528,1.2176,-0.26011,-4.8704,4.0825e-10,-0.13006,0,0,0.1,1.1842e-16,0,0.66667
0.087939,0.69379,0.87939,0.29068,38.314,784.89,-0.68166,0.22722,-1.6974,-0.90888,-4.674e-08,-0.84871,0,0,0.1,-0,-0,0.66667
0.86998,0.84083,8.6998,0.51125,16.414,24.417,-11.861,3.9536,-1.0695,-15.814,8.8856e-09,-0.53477,0,0,0.1,2.3685e-16,0,0.66667
0.088189,0.71431,0.88189,0.32146,42.375,784.57,-0.75598,0.25199,-1.6308,-1.008,-4.5799e-08,-0.81542,0,0,0.1,-0,-0,0.66667
0.68371,0.98802,6.8371,0.73203,51.958,125.43,-13.347,4.4488,-0.093679,-17.795,-6.0396e-13,-0.04684,0,0,0.1,-0,-0,0.66667
0.1204,0.8729,1.204,0.55935,73.353,741.76,-1.7959,0.59863,-0.88696,-2.3945,-2.3333e-08,-0.44348,0,0,0.1,8.8818e-17,0,0.66667
0.010699,0.77678,0.10699,0.41517,55.182,888.65,-0.11845,0.039483,-1.3858,-0.15793,-7.8103e-07,-0.69292,0,0,0.1,-8.4679e-18,0,0.66667
0.55727,0.74736,5.5727,0.37104,33.945,229.39,-5.5139,1.838,-1.5093,-7.3518,-3.4412e-12,-0.75464,0,0,0.1,2.3685e-16,0,0.66667
0.90711,0.68399,9.0711,0.27598,6.3796,12.772,-6.6758,2.2253,-1.7334,-8.9011,4.2297e-08,-0.86669,0,0,0.1,-2.3685e-15,0,0.66667
0.86046,0.46222,8.6046,-0.056668,-1.9287,26.744,1.3003,-0.43343,-1.9919,1.7337,9.1962e-10,-0.99596,0,0,0.1,9.4739e-16,0,0.66667
0.33845,0.13298,3.3845,-0.55053,-64.847,464.68,4.9687,-1.6562,-0.92035,6.6249,-1.8359e-12,-0.46018,0,0,0.1,-0,-0,0.66667
0.027159,0.41957,0.27159,-0.12065,-16.006,866.47,0.087379,-0.029127,-1.9468,0.11651,-3.0334e-07,-0.97342,0,0,0.1,-0,-0,0.66667
0.80086,0.91678,8.0086,0.62517,29.782,53.578,-13.351,4.4504,-0.60923,-17.802,7.3675e-10,-0.30461,0,0,0.1,-0,-0,0.66667
0.80598,0.82866,8.0598,0.49299,22.869,50.562,-10.596,3.532,-1.1328,-14.128,3.3297e-11,-0.5664,0,0,0.1,-0,-0,0.66667
0.86849,0.85845,8.6849,0.53768,17.464,25.029,-12.452,4.1508,-0.96905,-16.603,4.405e-09,-0.48452,0,0,0.1,-1.8948e-15,0,0.66667
0.66965,0.98154,6.6965,0.72232,53.091,135.72,-12.899,4.2995,-0.14585,-17.198,-2.1592e-12,-0.072926,0,0,0.1,9.4739e-16,1.1454e-16,0.66667
0.80778,0.31826,8.0778,-0.27262,-12.493,49.099,5.8724,-1.9575,-1.7344,7.8298,-2.4683e-11,-0.86721,0,0,0.1,-0,-0,0.66667
0.8975,0.81972,8.975,0.47957,12.271,15.9,-11.478,3.8259,-1.1796,-15.304,4.2465e-08,-0.58979,0,0,0.1,-0,-0,0.66667
0.45383,0.59213,4.5383,0.1382,14.553,333.1,-1.6725,0.55749,-1.9369,-2.23,-1.0516e-12,-0.96846,0,0,0.1,-1.125e-15,0,0.66667
0.55783,0.037263,5.5783,-0.6941,-63.691,229.73,10.325,-3.4417,-0.28568,13.767,2.5633e-12,-0.14284,0,0,0.1,-0,-7.7232e-17,0.66667
0.50613,0.7783,5.0613,0.41745,41.234,279.06,-5.6343,1.8781,-1.3786,-7.5124,-4.9516e-12,-0.6893,0,0,0.1,2.3685e-16,0,0.66667
0.69198,0.25839,6.9198,-0.36242,-25.021,118.28,6.6876,-2.2292,-1.5316,8.9168,-1.6089e-12,-0.76578,0,0,0.1,-0,-0,0.66667
0.68291,0.80952,6.8291,0.46427,32.867,125.04,-8.4548,2.8183,-1.2328,-11.273,-2.5366e-12,-0.61641,0,0,0.1,1.1842e-15,0,0.66667
0.52031,0.51394,5.2031,0.020906,2.0207,264.54,-0.29008,0.096692,-1.9965,-0.38677,1.7983e-12,-0.99824,0,0,0.1,-0,-0,0.66667
0.82847,0.8045,8.2847,0.45675,18.933,40.186,-10.091,3.3636,-1.2628,-13.454,-1.1731e-10,-0.6314,0,0,0.1,-0,-0,0.66667
0.50578,0.61833,5.0578,0.1775,17.514,279.09,-2.394,0.79799,-1.8858,-3.1919,-3.7892e-12,-0.94291,0,0,0.1,-0,-0,0.66667
0.82486,0.461,8.2486,-0.058505,-2.4592,41.005,1.2869,-0.42897,-1.9877,1.7159,-1.0584e-10,-0.99387,0,0,0.1,-9.4739e-16,0,0.66667
0.28185,0.84183,2.8185,0.51274,62.776,533.55,-3.8537,1.2846,-1.0702,-5.1383,7.0655e-12,-0.5351,0,0,0.1,-5.9212e-17,0,0.66667
0.17849,0.86814,1.7849,0.55221,71.134,665.3,-2.6284,0.87615,-0.91324,-3.5046,-6.6196e-10,-0.45662,0,0,0.1,-1.3116e-16,0,0.66667
0.96987,0.034845,9.6987,-0.69773,-5.4667,3.7235,18.046,-6.0152,-0.27279,24.061,3.7213e-05,-0.13639,0,0,0.1,-0,-0,0.66667
0.74194,0.28037,7.4194,-0.32945,-19.591,85.169,6.5182,-2.1727,-1.6123,8.6909,1.1481e-11,-0.80617,0,0,0.1,-1.2477e-15,0,0.66667
0.25979,0.94876,2.5979,0.67314,83.618,561.3,-4.6634,1.5545,-0.38629,-6.2178,1.8466e-11,-0.19314,0,0,0.1,-0,-0,0.66667
0.58124,0.77911,5.8124,0.41866,36.795,207.57,-6.4891,2.163,-1.3777,-8.6521,1.8874e-12,-0.68886,0,0,0.1,-1.1842e-15,0,0.66667
0.95526,0.45898,9.5526,-0.06153,-0.68198,3.2786,1.5674,-0.52247,-1.9878,2.0899,3.6283e-07,-0.9939,0,0,0.1,9.4739e-16,0,0.66667
0.080754,0.12323,0.80754,-0.56515,-74.719,794.59,1.217,-0.40567,-0.86603,1.6227,-2.8452e-09,-0.43301,0,0,0.1,1.4803e-16,0,0.66667
0.083534,0.64099,0.83534,0.21149,27.889,790.77,-0.47112,0.15704,-1.8385,-0.62815,-4.7091e-08,-0.91923,0,0,0.1,-0,-0,0.66667
0.61913,0.73643,6.1913,0.35464,28.999,174.6,-5.8552,1.9517,-1.5501,-7.807,3.7748e-13,-0.77503,0,0,0.1,-0,-0,0.66667
0.22449,0.55256,2.2449,0.078845,9.9374,605.58,-0.47201,0.15734,-1.9754,-0.62934,8.8205e-12,-0.98771,0,0,0.1,-0,-0,0.66667
0.76518,0.56241,7.6518,0.093611,5.1197,71.12,-1.9101,0.63671,-1.9745,-2.5468,1.0446e-12,-0.98725,0,0,0.1,-1.1324e-15,0,0.66667
0.56815,0.94366,5.6815,0.66549,60.007,220.1,-10.083,3.3609,-0.4233,-13.444,3.1841e-12,-0.21165,0,0,0.1,-0,-0,0.66667
0.66619,0.25035,6.6619,-0.37448,-27.607,137.19,6.6526,-2.2175,-1.5003,8.8701,9.6989e-13,-0.75017,0,0,0.1,-1.8948e-15,0,0.66667
0.10781,0.23544,1.0781,-0.39683,-52.129,758.41,1.1409,-0.3803,-1.442,1.5212,2.9937e-08,-0.72101,0,0,0.1,2.3685e-16,0,0.66667
0.084283,0.89781,0.84283,0.59672,78.87,789.88,-1.3412,0.44705,-0.7314,-1.7882,6.7368e-09,-0.3657,0,0,0.1,-0,-0,0.66667
0.62512,0.98917,6.2512,0.73376,59.584,170.77,-12.232,4.0772,-0.090463,-16.309,-4.6985e-13,-0.045231,0,0,0.1,9.4739e-16,0,0.66667
0.40973,0.45098,4.0973,-0.073524,-8.1149,381.52,0.80333,-0.26778,-1.98,1.0711,-3.0824e-12,-0.99002,0,0,0.1,-0,-0,0.66667
0.087253,0.96616,0.87253,0.69923,92.468,785.97,-1.6269,0.54231,-0.25972,-2.1692,2.2425e-06,-0.12986,0,0,0.1,-3.338e-17,0,0.66667
0.37106,0.93628,3.7106,0.65442,75.15,426.46,-6.4755,2.1585,-0.47746,-8.634,-5.6315e-12,-0.23873,0,0,0.1,-5.9212e-17,1.0935e-16,0.66667
0.67214,0.63611,6.7214,0.20417,14.813,132.43,-3.6594,1.2198,-1.8562,-4.8793,2.1494e-13,-0.92812,0,0,0.1,-0,-0,0.66667
0.18959,0.13587,1.8959,-0.54619,-70.058,650.87,2.7614,-0.92045,-0.94054,3.6818,-1.0132e-10,-0.47027,0,0,0.1,-0,-0,0.66667
0.89573,0.64069,8.9573,0.21103,5.4485,15.647,-5.0407,1.6802,-1.8394,-6.7209,2.575e-08,-0.91968,0,0,0.1,1.8948e-15,0,0.66667
0.94985,0.518,9.4985,0.026995,0.33626,4.0114,-0.68377,0.22792,-1.9969,-0.91169,-3.2974e-09,-0.99845,0,0,0.1,3.7896e-15,0,0.66667
0.96157,0.58244,9.6157,0.12366,1.1727,2.5534,-3.171,1.057,-1.9425,-4.228,-8.7513e-08,-0.97126,0,0,0.1,-9.4739e-16,0,0.66667
0.73008,0.1254,7.3008,-0.5619,-34.843,93.249,10.94,-3.6465,-0.87737,14.586,-3.0891e-12,-0.43869,0,0,0.1,-0,-0,0.66667
0.40629,0.42644,4.0629,-0.11034,-12.221,385.41,1.1955,-0.39849,-1.9616,1.594,-3.3672e-12,-0.98082,0,0,0.1,-0,-0,0.66667
0.74375,0.13895,7.4375,-0.54158,-32.115,84.674,10.741,-3.5804,-0.95418,14.322,2.7265e-11,-0.47709,0,0,0.1,-0,-0,0.66667
0.28799,0.83096,2.8799,0.49643,60.539,525.92,-3.8124,1.2708,-1.1207,-5.0832,-1.0549e-11,-0.56034,0,0,0.1,-0,-0,0.66667
0.31442,0.091493,3.1442,-0.61276,-73.506,493.72,5.1377,-1.7126,-0.66758,6.8502,-7.4944e-12,-0.33379,0,0,0.1,5.9212e-17,0,0.66667
0.6059,0.17256,6.059,-0.49116,-41.283,186.12,7.9358,-2.6453,-1.1415,10.581,-4.1611e-13,-0.57075,0,0,0.1,-9.4739e-16,0,0.66667
0.59485,0.28744,5.9485,-0.31884,-27.317,195.32,5.0576,-1.6859,-1.6419,6.7435,9.7744e-13,-0.82095,0,0,0.1,-1.8948e-15,0,0.66667
0.87866,0.75332,8.7866,0.37999,11.385,21.12,-8.9034,2.9678,-1.4867,-11.871,9.0605e-09,-0.74335,0,0,0.1,1.8948e-15,0,0.66667
0.2546,0.31942,2.546,-0.27088,-33.638,567.4,1.8391,-0.61302,-1.7377,2.4521,-1.934e-11,-0.86887,0,0,0.1,-0,-0,0.66667
0.76619,0.078077,7.6619,-0.63289,-34.741,71.886,12.931,-4.3103,-0.57957,17.241,-1.1694e-10,-0.28978,0,0,0.1,-0,-0,0.66667
0.94101,0.51154,9.4101,0.017305,0.25408,5.3848,-0.43424,0.14475,-1.9982,-0.57899,-4.4092e-07,-0.99912,0,0,0.1,-0,-0,0.66667
0.0010329,0.5002,0.010329,0.00029469,0.039119,901.66,-8.1274e-06,3.7879e-05,-2.0045,6.7481e-06,5.2754e-05,-1.0023,0,0,0.1,-0,-0,0.66667
0.47609,0.0022496,4.7609,-0.74663,-76.982,310.66,9.4789,-3.1596,-0.015957,12.639,4.5697e-12,-0.0079783,0,0,0.1,-0,-0,0.66667
0.65704,0.39292,6.5704,-0.16062,-12.081,143.83,2.8143,-0.93809,-1.9116,3.7524,-1.3856e-12,-0.9558,0,0,0.1,-0,-0,0.66667
0.84332,0.68375,8.4332,0.27563,10.475,33.525,-6.1985,2.0662,-1.7349,-8.2647,1.3924e-09,-0.86743,0,0,0.1,9.4739e-16,0,0.66667
0.18374,0.3694,1.8374,-0.19589,-25.131,658.25,0.95982,-0.31994,-1.8632,1.2798,8.9787e-12,-0.93159,0,0,0.1,1.1842e-16,0,0.66667
0.85616,0.21676,8.5616,-0.42486,-14.956,28.989,9.7,-3.2333,-1.359,12.933,-2.6136e-09,-0.67952,0,0,0.1,-1.8948e-15,0,0.66667
0.36437,0.2435,3.6437,-0.38475,-44.324,433.81,3.7384,-1.2461,-1.472,4.9846,-8.7264e-12,-0.73601,0,0,0.1,-0,-0,0.66667
0.89227,0.051908,8.9227,-0.67214,-18.191,18.235,15.993,-5.3309,-0.39567,21.324,1.5465e-08,-0.19784,0,0,0.1,-0,-0,0.66667
0.027712,0.30475,0.27712,-0.29288,-38.876,865.73,0.21643,-0.072144,-1.6946,0.28858,-7.8009e-07,-0.8473,0,0,0.1,-2.9606e-17,0,0.66667
0.08539,0.79016,0.8539,0.43524,57.44,788.34,-0.99107,0.33036,-1.3235,-1.3214,-3.1589e-08,-0.66176,0,0,0.1,-0,-0,0.66667
0.98141,0.81811,9.8141,0.47717,2.1777,1.7145,-12.488,4.1627,-1.191,-16.651,-2.2823e-06,-0.59549,0,0,0.1,-0,-0,0.66667
0.6095,0.99872,6.095,0.74808,62.687,183.9,-12.159,4.0529,-0.01627,-16.212,-2.6983e-12,-0.008135,0,0,0.1,2.8422e-15,0,0.66667
0.41763,0.48497,4.1763,-0.022552,-2.4694,372.67,0.25116,-0.083721,-1.9966,0.33488,-2.6527e-12,-0.99831,0,0,0.1,-9.4739e-16,0,0.66667
0.16921,0.92122,1.6921,0.63183,81.725,677.49,-2.8511,0.95035,-0.58085,-3.8014,5.7198e-09,-0.29042,0,0,0.1,-2.3685e-16,0,0.66667
0.6499,0.91786,6.499,0.62678,48.163,150.45,-10.863,3.6209,-0.60029,-14.483,5.2403e-14,-0.30014,0,0,0.1,-0,-0,0.66667
0.036975,0.71269,0.36975,0.31903,42.327,853.27,-0.31456,0.10485,-1.6361,-0.41942,2.0097e-07,-0.81803,0,0,0.1,-2.9606e-17,0,0.66667
0.31161,0.23791,3.1161,-0.39314,-47.162,496.82,3.2669,-1.089,-1.4537,4.3558,-2.1159e-12,-0.72683,0,0,0.1,-4.737e-16,0,0.66667
0.32348,0.62892,3.2348,0.19338,22.981,482.26,-1.6682,0.55605,-1.866,-2.2242,-1.508e-12,-0.93302,0,0,0.1,-0,-0,0.66667
0.60744,0.66326,6.0744,0.2449,20.477,184.31,-3.9669,1.3223,-1.7886,-5.2892,-1.7963e-13,-0.8943,0,0,0.1,-0,-0,0.66667
0.65083,0.04386,6.5083,-0.68421,-52.518,149.94,11.875,-3.9583,-0.33304,15.833,7.5939e-13,-0.16652,0,0,0.1,-0,-0,0.66667
0.84605,0.47027,8.4605,-0.044588,-1.6636,32.166,1.006,-0.33532,-1.9951,1.3413,-2.0633e-09,-0.99754,0,0,0.1,-0,-0,0.66667
0.92758,0.47058,9.2758,-0.044137,-0.79584,7.8578,1.0918,-0.36392,-1.9917,1.4557,8.8194e-08,-0.99586,0,0,0.1,-0,-0,0.66667
0.66046,0.88105,6.6046,0.57157,42.827,142.09,-10.067,3.3556,-0.83751,-13.422,3.0393e-12,-0.41875,0,0,0.1,-1.8948e-15,0,0.66667
0.57817,0.20679,5.7817,-0.43982,-38.871,210.36,6.7811,-2.2604,-1.3171,9.0415,-1.2967e-13,-0.65853,0,0,0.1,-0,-0,0.66667
0.39872,0.31854,3.9872,-0.27219,-30.385,394.09,2.894,-0.96468,-1.734,3.8587,-5.0804e-13,-0.86698,0,0,0.1,-0,-0,0.66667
0.96661,0.9752,9.6661,0.7128,6.2001,4.1256,-18.373,6.1245,-0.1951,-24.498,-3.5078e-06,-0.09755,0,0,0.1,-0,-0,0.66667
0.15408,0.1192,1.5408,-0.5712,-74.212,697.28,2.3469,-0.78231,-0.84158,3.1292,5.444e-10,-0.42079,0,0,0.1,-0,-1.5014e-16,0.66667
0.89509,0.2356,8.9509,-0.39661,-10.347,16.274,9.4666,-3.1555,-1.4389,12.622,-3.6788e-08,-0.71947,0,0,0.1,-0,-0,0.66667
0.31101,0.59706,3.1101,0.1456,17.453,497.37,-1.2075,0.40251,-1.9277,-1.61,-1.0912e-12,-0.96387,0,0,0.1,9.4739e-16,0,0.66667
0.54849,0.67908,5.4849,0.26862,24.905,237.48,-3.929,1.3097,-1.7456,-5.2387,-1.6871e-12,-0.87282,0,0,0.1,4.737e-16,0,0.66667
0.68207,0.7577,6.8207,0.38655,27.397,125.45,-7.0307,2.3436,-1.4666,-9.3743,6.1551e-13,-0.73332,0,0,0.1,-1.8948e-15,0,0.66667
0.23647,0.16106,2.3647,-0.5084,-63.836,590.56,3.2059,-1.0686,-1.0829,4.2746,-1.5613e-11,-0.54144,0,0,0.1,-0,-0,0.66667
0.16774,0.67084,1.6774,0.25626,33.075,679.18,-1.1463,0.38209,-1.765,-1.5283,-5.631e-10,-0.88251,0,0,0.1,2.3685e-16,0,0.66667
0.50848,0.47845,5.0848,-0.032325,-3.1768,276.31,0.43831,-0.1461,-1.9933,0.58441,-4.9686e-12,-0.99665,0,0,0.1,-0,-0,0.66667
0.79186,0.48576,7.9186,-0.021359,-1.0497,56.704,0.45103,-0.15034,-1.9962,0.60137,1.5139e-11,-0.99808,0,0,0.1,-9.4739e-16,0,0.66667
0.69241,0.62988,6.9241,0.19482,13.416,117.69,-3.5973,1.1991,-1.8637,-4.7964,-2.1398e-12,-0.93185,0,0,0.1,-0,-0,0.66667
0.11897,0.57724,1.1897,0.11586,15.164,743.49,-0.3676,0.12253,-1.9494,-0.49013,-5.2873e-09,-0.97471,0,0,0.1,-0,-0,0.66667
0.90074,0.34296,9.0074,-0.23556,-5.8016,14.33,5.658,-1.886,-1.8017,7.5441,-3.2287e-08,-0.90084,0,0,0.1,-4.737e-16,0,0.66667
0.47974,0.87081,4.7974,0.55622,56.948,306.34,-7.1157,2.3719,-0.89897,-9.4876,-1.2639e-12,-0.44948,0,0,0.1,1.2315e-15,0,0.66667
0.94668,0.024201,9.4668,-0.7137,-9.8385,6.6223,18.017,-6.0057,-0.18639,24.023,7.0758e-06,-0.093197,0,0,0.1,-1.8948e-15,0,0.66667
0.55343,0.97461,5.5343,0.71192,65.808,233.89,-10.507,3.5022,-0.19553,-14.009,-4.5635e-12,-0.097763,0,0,0.1,-0,-0,0.66667
0.084802,0.096035,0.84802,-0.60595,-80.089,789.19,1.3703,-0.45676,-0.69263,1.827,-3.185e-08,-0.34632,0,0,0.1,-2.3685e-16,0,0.66667
0.20246,0.23104,2.0246,-0.40343,-51.419,634.07,2.1781,-0.72605,-1.4249,2.9042,-4.4109e-11,-0.71246,0,0,0.1,-0,-0,0.66667
0.85424,0.84177,8.5424,0.51266,18.315,30.015,-11.678,3.8927,-1.0645,-15.571,-7.1324e-10,-0.53226,0,0,0.1,-7.1054e-16,0,0.66667
0.70593,0.004859,7.0593,-0.74271,-49.671,109.9,13.981,-4.6604,-0.039559,18.642,3.6096e-12,-0.019779,0,0,0.1,-0,-0,0.66667
0.89494,0.46809,8.9494,-0.047868,-1.2428,15.699,1.1424,-0.38079,-1.9918,1.5232,1.8811e-08,-0.99588,0,0,0.1,2.3685e-15,0,0.66667
0.32915,0.75698,3.2915,0.38547,45.663,475.6,-3.3834,1.1278,-1.4751,-4.5112,-3.2789e-12,-0.73753,0,0,0.1,-0,-0,0.66667
0.528,0.79567,5.28,0.44351,42.481,257.46,-6.2447,2.0816,-1.3001,-8.3262,6.1862e-13,-0.65006,0,0,0.1,-9.4739e-16,0,0.66667
0.6504,0.75362,6.504,0.38043,29.102,149.34,-6.5982,2.1994,-1.4837,-8.7976,-1.3189e-12,-0.74183,0,0,0.1,1.8948e-15,0,0.66667
0.59429,0.13512,5.9429,-0.54731,-47.053,196.33,8.6737,-2.8912,-0.9389,11.565,1.311e-12,-0.46945,0,0,0.1,-0,-0,0.66667
0.23146,0.73631,2.3146,0.35447,44.57,596.8,-2.1879,0.7293,-1.5532,-2.9172,2.6372e-11,-0.7766,0,0,0.1,4.737e-16,0,0.66667
0.42682,0.53126,4.2682,0.046883,5.0851,362.48,-0.53362,0.17787,-1.9917,-0.7115,-3.1832e-12,-0.99585,0,0,0.1,-0,-0,0.66667
0.24811,0.18445,2.4811,-0.47333,-59.06,575.76,3.1317,-1.0439,-1.2059,4.1756,9.4864e-12,-0.60295,0,0,0.1,1.9188e-16,0,0.66667
0.84561,0.17353,8.4561,-0.4897,-18.441,33.232,11.043,-3.6809,-1.1488,14.724,5.2532e-10,-0.5744,0,0,0.1,-0,-0,0.66667
0.98668,0.11002,9.8668,-0.58498,-1.9307,1.9249,15.392,-5.1305,-0.78406,20.522,-1.341e-05,-0.39203,0,0,0.1,-0,-0,0.66667
0.066571,0.30555,0.66571,-0.29168,-38.574,813.51,0.51779,-0.1726,-1.6966,0.69039,1.0773e-07,-0.84831,0,0,0.1,5.9212e-17,0,0.66667
0.71393,0.62743,7.1393,0.19115,12.392,102.88,-3.6392,1.2131,-1.8692,-4.8522,-2.9732e-12,-0.93461,0,0,0.1,-0,-0,0.66667
0.33012,0.37162,3.3012,-0.19257,-22.773,474.27,1.6952,-0.56508,-1.8704,2.2603,-9.1394e-13,-0.93521,0,0,0.1,-2.3685e-16,0,0.66667
0.62544,0.072902,6.2544,-0.64065,-51.905,170.16,10.685,-3.5616,-0.54487,14.247,2.6557e-13,-0.27243,0,0,0.1,-0,-0,0.66667
0.25813,0.57542,2.5813,0.11313,14.015,562.88,-0.77874,0.25958,-1.9513,-1.0383,6.5391e-12,-0.97564,0,0,0.1,-0,-0,0.66667
0.65101,0.80118,6.5101,0.45176,34.539,149.04,-7.8427,2.6142,-1.2721,-10.457,-7.7804e-13,-0.63604,0,0,0.1,9.4739e-16,0,0.66667
0.37115,0.73905,3.7115,0.35858,41.063,425.87,-3.5489,1.183,-1.5418,-4.7319,-1.0357e-11,-0.7709,0,0,0.1,-0,-0,0.66667
0.29482,0.13208,2.9482,-0.55189,-67.041,517.57,4.3389,-1.4463,-0.91871,5.7851,-7.0139e-12,-0.45935,0,0,0.1,-0,-7.0862e-17,0.66667
0.91176,0.66366,9.1176,0.24549,5.3937,11.57,-5.9688,1.9896,-1.7836,-7.9584,4.6161e-08,-0.89181,0,0,0.1,-0,-0,0.66667
0.9425,0.05954,9.425,-0.66069,-9.7531,6.967,16.605,-5.5351,-0.44685,22.14,4.7054e-06,-0.22343,0,0,0.1,4.2188e-17,0,0.66667
0.61355,0.56185,6.1355,0.092771,7.6597,178.97,-1.5179,0.50595,-1.9695,-2.0238,-1.2049e-12,-0.98473,0,0,0.1,1.1842e-15,0,0.66667
0.21447,0.81936,2.1447,0.47905,60.769,618.66,-2.7397,0.91324,-1.183,-3.653,-5.1963e-11,-0.59149,0,0,0.1,-4.737e-16,0,0.66667
0.93942,0.099735,9.3942,-0.6004,-9.2798,7.1578,15.041,-5.0135,-0.7203,20.054,1.2944e-06,-0.36015,0,0,0.1,-0,-0,0.66667
0.75045,0.25306,7.5045,-0.3704,-21.41,80.117,7.4125,-2.4708,-1.5172,9.8834,1.3347e-11,-0.75861,0,0,0.1,-0,-0,0.66667
0.75109,0.39933,7.5109,-0.151,-8.691,79.356,3.0245,-1.0082,-1.9222,4.0326,7.2056e-12,-0.9611,0,0,0.1,-9.4739e-16,0,0.66667
0.21172,0.16181,2.1172,-0.50729,-64.446,622.22,2.8641,-0.9547,-1.0825,3.8188,-1.495e-10,-0.54126,0,0,0.1,-0,-0,0.66667
0.83016,0.75935,8.3016,0.38903,15.957,39.249,-8.6121,2.8707,-1.4633,-11.483,2.8919e-10,-0.73167,0,0,0.1,-0,-0,0.66667
0.2401,0.054716,2.401,-0.66793,-83.842,586.15,4.2764,-1.4255,-0.41151,5.7019,3.6167e-11,-0.20575,0,0,0.1,3.7901e-16,0,0.66667
0.63162,0.51658,6.3162,0.024872,1.9787,163.94,-0.41892,0.13964,-1.9947,-0.55856,-1.5677e-12,-0.99736,0,0,0.1,-0,-0,0.66667
0.71074,0.039451,7.1074,-0.69082,-45.519,106.41,13.093,-4.3644,-0.30027,17.458,2.9514e-12,-0.15013,0,0,0.1,-0,-0,0.66667
0.74238,0.0051089,7.4238,-0.74234,-44.419,86.357,14.696,-4.8987,-0.038159,19.595,1.2163e-11,-0.01908,0,0,0.1,-3.7896e-15,0,0.66667
0.39026,0.51603,3.9026,0.024048,2.7041,403.59,-0.25027,0.083424,-2.0021,-0.3337,-5.1922e-12,-1.001,0,0,0.1,-9.4739e-16,0,0.66667
0.75983,0.1383,7.5983,-0.54255,-30.425,75.151,10.993,-3.6644,-0.95068,14.658,-3.2482e-11,-0.47534,0,0,0.1,-0,-0,0.66667
0.90294,0.30782,9.0294,-0.28827,-6.956,13.864,6.941,-2.3137,-1.7048,9.2547,-3.9691e-08,-0.8524,0,0,0.1,-0,-0,0.66667
0.58742,0.1235,5.8742,-0.56475,-49.174,202.43,8.8465,-2.9488,-0.8644,11.795,5.2429e-12,-0.4322,0,0,0.1,-1.4211e-15,0,0.66667
0.09041,0.72567,0.9041,0.3385,44.607,781.6,-0.8161,0.27203,-1.5925,-1.0881,-4.1333e-08,-0.79626,0,0,0.1,2.3685e-16,0,0.66667
0.12898,0.73047,1.2898,0.3457,45.168,730.28,-1.189,0.39633,-1.5739,-1.5853,-7.8276e-09,-0.78694,0,0,0.1,-0,-0,0.66667
0.10526,0.92111,1.0526,0.63166,83.181,761.92,-1.7731,0.59102,-0.5799,-2.3641,1.9117e-07,-0.28995,0,0,0.1,-0,-0,0.66667
0.17273,0.0034784,1.7273,-0.74478,-96.336,673.02,3.4305,-1.1435,-0.031939,4.574,1.9775e-09,-0.01597,0,0,0.1,-0,-0,0.66667
0.12643,0.37235,1.2643,-0.19148,-25.018,733.61,0.64558,-0.21519,-1.873,0.86077,7.4934e-09,-0.93648,0,0,0.1,1.1842e-16,0,0.66667
0.7783,0.32348,7.783,-0.26478,-13.783,64.074,5.4954,-1.8318,-1.7508,7.3272,3.5606e-11,-0.87538,0,0,0.1,1.8948e-15,0,0.66667
0.039412,0.10507,0.39412,-0.59239,-78.733,850.04,0.62259,-0.20753,-0.74911,0.83012,6.1194e-06,-0.37456,0,0,0.1,-0,-0,0.66667
0.24156,0.083162,2.4156,-0.62526,-78.392,584.24,4.0276,-1.3425,-0.60692,5.3702,-8.6146e-11,-0.30346,0,0,0.1,2.3685e-16,0,0.66667
0.87907,0.67981,8.7907,0.26972,8.0352,20.711,-6.3227,2.1076,-1.7404,-8.4303,1.143e-08,-0.87018,0,0,0.1,9.4739e-16,0,0.66667
0.97352,0.082767,9.7352,-0.62585,-4.2501,2.9965,16.247,-5.4158,-0.60543,21.663,2.1976e-05,-0.30272,0,0,0.1,9.4739e-16,0,0.66667
0.60542,0.22161,6.0542,-0.41759,-35.102,186.34,6.7418,-2.2473,-1.3798,8.989,-1.9553e-12,-0.68991,0,0,0.1,-0,-0,0.66667
0.97624,0.70405,9.7624,0.30608,1.7676,1.49,-7.9682,2.6561,-1.6636,-10.624,-9.0948e-07,-0.83182,0,0,0.1,-1.1561e-15,0,0.66667
0.043452,0.4648,0.43452,-0.052801,-6.9962,844.54,0.061181,-0.020394,-1.9903,0.081574,-5.6994e-07,-0.99516,0,0,0.1,-1.4803e-17,0,0.66667
0.94857,0.022026,9.4857,-0.71696,-9.5434,6.3616,18.136,-6.0452,-0.17074,24.181,2.5952e-06,-0.085368,0,0,0.1,-0,1.5738e-16,0.66667
0.3113,0.94095,3.113,0.66142,79.558,497.6,-5.4906,1.8302,-0.44809,-7.3208,-1.0081e-12,-0.22405,0,0,0.1,9.4739e-16,4.6507e-17,0.66667
0.79897,0.10573,7.9897,-0.5914,-28.386,54.362,12.6,-4.2001,-0.75758,16.801,-1.189e-09,-0.37879,0,0,0.1,-0,-0,0.66667
0.81063,0.70618,8.1063,0.30926,13.989,47.824,-6.6853,2.2284,-1.6614,-8.9137,4.099e-11,-0.83071,0,0,0.1,-0,-0,0.66667
0.86,0.018908,8.6,-0.72164,-25.024,28.888,16.55,-5.5165,-0.15209,22.066,-4.1905e-08,-0.076044,0,0,0.1,-0,-0,0.66667
0.45855,0.92955,4.5855,0.64433,67.747,328.86,-7.8788,2.6263,-0.52178,-10.505,2.3848e-12,-0.26089,0,0,0.1,-4.737e-16,0,0.66667
0.93064,0.47833,9.3064,-0.032503,-0.56137,7.2522,0.80664,-0.26888,-1.9933,1.0755,-2.9021e-08,-0.99667,0,0,0.1,-0,-0,0.66667
0.25789,0.0080365,2.5789,-0.73795,-91.835,563.79,5.075,-1.6917,-0.060897,6.7666,-1.1366e-11,-0.030448,0,0,0.1,-0,-0,0.66667
0.93445,0.98795,9.3445,0.73192,12.355,8.7582,-18.238,6.0795,-0.095083,-24.318,-1.2595e-07,-0.047541,0,0,0.1,-0,-0,0.66667
0.61912,0.65454,6.1912,0.2318,18.938,174.41,-3.827,1.2757,-1.8075,-5.1027,-2.5655e-12,-0.90376,0,0,0.1,4.737e-16,0,0.66667
0.98544,0.82198,9.8544,0.48298,1.696,1.5089,-12.692,4.2306,-1.1736,-16.923,5.4271e-07,-0.58682,0,0,0.1,-0,-0,0.66667
0.032644,0.10689,0.32644,-0.58967,-78.408,859.13,0.51331,-0.17111,-0.76596,0.68442,-2.2885e-06,-0.38298,0,0,0.1,-5.9212e-17,0,0.66667
0.72517,0.34428,7.2517,-0.23358,-14.644,95.554,4.517,-1.5057,-1.8046,6.0226,1.0876e-12,-0.90229,0,0,0.1,1.8948e-15,0,0.66667
0.56555,0.20203,5.6555,-0.44696,-40.365,221.87,6.7408,-2.2469,-1.2894,8.9878,-3.8036e-12,-0.64472,0,0,0.1,9.4739e-16,0,0.66667
0.49242,0.65104,4.9242,0.22656,22.763,292.69,-2.9751,0.9917,-1.815,-3.9668,-3.6446e-12,-0.90749,0,0,0.1,4.737e-16,0,0.66667
0.25922,0.49867,2.5922,-0.0020014,-0.24775,561.5,0.013835,-0.0046116,-1.9984,0.018446,-3.302e-12,-0.9992,0,0,0.1,-1.1842e-16,0,0.66667
0.32683,0.52068,3.2683,0.031027,3.6769,478.17,-0.27041,0.090138,-1.9991,-0.36055,-1.5302e-12,-0.99957,0,0,0.1,-0,-0,0.66667
0.24946,0.52909,2.4946,0.04363,5.4299,573.81,-0.29024,0.096746,-1.9983,-0.38698,-9.8764e-12,-0.99914,0,0,0.1,4.737e-16,0,0.66667
0.21927,0.23406,2.1927,-0.39891,-50.463,612.43,2.3325,-0.77749,-1.438,3.1099,-5.0837e-11,-0.71902,0,0,0.1,-0,-0,0.66667
0.79966,0.25893,7.9966,-0.3616,-17.221,53.243,7.7109,-2.5703,-1.5355,10.281,4.9465e-11,-0.76775,0,0,0.1,-0,-0,0.66667
0.5024,0.67891,5.024,0.26836,26.614,282.6,-3.5953,1.1984,-1.7449,-4.7937,-2.6033e-12,-0.87246,0,0,0.1,-4.737e-16,0,0.66667
0.08319,0.23104,0.8319,-0.40344,-53.253,791.27,0.89499,-0.29833,-1.4191,1.1933,5.2564e-08,-0.70954,0,0,0.1,-0,-0,0.66667
0.77698,0.10713,7.7698,-0.5893,-31.007,65.744,12.21,-4.07,-0.76369,16.28,-5.5008e-11,-0.38184,0,0,0.1,-0,-0,0.66667
0.53365,0.54138,5.3365,0.062073,5.8835,251.52,-0.88334,0.29445,-1.9871,-1.1778,-1.7729e-12,-0.99357,0,0,0.1,-0,-0,0.66667
0.73939,0.45409,7.3939,-0.068865,-4.1224,86.399,1.3578,-0.4526,-1.9809,1.8104,2.7197e-12,-0.99045,0,0,0.1,-0,-0,0.66667
0.51539,0.29858,5.1539,-0.30214,-29.436,269.62,4.1525,-1.3842,-1.6798,5.5367,-2.8697e-12,-0.83991,0,0,0.1,9.4739e-16,0,0.66667
0.39995,0.87552,3.9995,0.56327,62.947,393.12,-6.0074,2.0025,-0.87052,-8.0099,-3.0234e-12,-0.43526,0,0,0.1,-9.4739e-16,0,0.66667
0.98625,0.67703,9.8625,0.26555,0.83171,0.7549,-6.9839,2.328,-1.7509,-9.3118,2.7254e-08,-0.87544,0,0,0.1,-0,-0,0.66667
0.028243,0.26881,0.28243,-0.34679,-46.043,865.02,0.26118,-0.087061,-1.5723,0.34824,-1.0827e-06,-0.78613,0,0,0.1,-0,-0,0.66667
0.93276,0.78051,9.3276,0.42076,7.1223,7.579,-10.466,3.4887,-1.37,-13.955,1.9955e-07,-0.68502,0,0,0.1,2.6645e-15,0,0.66667
0.93085,0.95752,9.3085,0.68628,12.151,9.1558,-17.035,5.6784,-0.32246,-22.714,3.131e-06,-0.16123,0,0,0.1,-0,-0,0.66667
0.39092,0.035116,3.9092,-0.69733,-78.713,403.69,7.2693,-2.4231,-0.27628,9.6924,-5.2922e-12,-0.13814,0,0,0.1,9.4739e-16,0,0.66667
0.21446,0.23879,2.1446,-0.39182,-49.673,618.59,2.2408,-0.74695,-1.4527,2.9878,-5.8733e-11,-0.72633,0,0,0.1,-2.3685e-16,0,0.66667
0.61921,0.54579,6.1921,0.068688,5.6071,174.2,-1.1342,0.37807,-1.9805,-1.5123,-1.5908e-12,-0.99025,0,0,0.1,9.4739e-16,0,0.66667
0.17797,0.027285,1.7797,-0.70907,-91.504,666.14,3.3652,-1.1217,-0.21039,4.4869,-3.4246e-10,-0.10519,0,0,0.1,-0,-0,0.66667
0.80321,0.82878,8.0321,0.49317,23.17,51.905,-10.563,3.521,-1.1323,-14.084,2.1775e-11,-0.56613,0,0,0.1,9.4739e-16,0,0.66667
0.25393,0.60618,2.5393,0.15928,19.779,568.19,-1.0786,0.35952,-1.9086,-1.4381,1.1497e-11,-0.9543,0,0,0.1,-0,-0,0.66667
0.29081,0.30107,2.9081,-0.2984,-36.275,522.24,2.314,-0.77134,-1.6807,3.0854,-1.0307e-11,-0.84033,0,0,0.1,-4.737e-16,0,0.66667
0.91592,0.45719,9.1592,-0.064211,-1.342,10.371,1.5683,-0.52277,-1.9826,2.0911,-3.2215e-08,-0.99132,0,0,0.1,-0,-0,0.66667
0.90292,0.17205,9.0292,-0.49192,-11.953,14.507,11.844,-3.9481,-1.139,15.792,-4.3294e-08,-0.5695,0,0,0.1,-1.0693e-15,0,0.66667
0.53538,0.76354,5.3538,0.39531,37.434,250.2,-5.6438,1.8813,-1.4429,-7.525,-2.4616e-12,-0.72147,0,0,0.1,9.4739e-16,0,0.66667
0.86284,0.96779,8.6284,0.70169,23.854,27.768,-16.145,5.3817,-0.25012,-21.527,9.1873e-08,-0.12506,0,0,0.1,2.6053e-15,0,0.66667
0.35253,0.057412,3.5253,-0.66388,-77.433,448.18,6.2411,-2.0804,-0.43054,8.3214,-1.8665e-12,-0.21527,0,0,0.1,-2.3685e-16,0,0.66667
0.99788,0.27712,9.9788,-0.33433,-0.032128,0.53173,8.8965,-2.9655,-1.6045,11.862,-1.5342e-06,-0.80227,0,0,0.1,-0,-1.4354e-16,0.66667
0.43369,0.56475,4.3369,0.097129,10.459,354.93,-1.1233,0.37444,-1.9666,-1.4977,8.6831e-13,-0.98328,0,0,0.1,-0,-0,0.66667
0.29481,0.87567,2.9481,0.5635,68.46,517.6,-4.43,1.4767,-0.87369,-5.9067,1.5878e-11,-0.43684,0,0,0.1,-0,-0,0.66667
0.041574,0.025527,0.41574,-0.71171,-94.689,847.16,0.78904,-0.26299,-0.19725,1.0521,2.6019e-05,-0.098625,0,0,0.1,-0,-0,0.66667
0.98971,0.39489,9.8971,-0.15766,-0.3426,0.39586,4.161,-1.387,-1.9093,5.548,-1.2095e-07,-0.95464,0,0,0.1,-9.4739e-16,0,0.66667
0.46489,0.39844,4.6489,-0.15234,-15.837,321.32,1.8886,-0.62954,-1.9167,2.5182,-4.7364e-12,-0.95835,0,0,0.1,4.737e-16,0,0.66667
0.73459,0.069634,7.3459,-0.64555,-39.529,90.737,12.646,-4.2152,-0.52321,16.861,-7.0139e-12,-0.26161,0,0,0.1,-0,-0,0.66667
0.64081,0.48597,6.4081,-0.021039,-1.641,156.52,0.35952,-0.11984,-2.0029,0.47936,1.2462e-12,-1.0015,0,0,0.1,-9.4739e-16,0,0.66667
0.72309,0.824,7.2309,0.486,30.754,97.481,-9.3714,3.1238,-1.1586,-12.495,-5.171e-12,-0.57931,0,0,0.1,-0,-0,0.66667
0.051111,0.13883,0.51111,-0.54175,-71.894,834.31,0.73838,-0.24613,-0.95491,0.98451,3.1944e-07,-0.47746,0,0,0.1,-0,-0,0.66667
0.92005,0.70973,9.2005,0.3146,6.2883,9.8339,-7.7186,2.5729,-1.6499,-10.291,7.9676e-08,-0.82494,0,0,0.1,-0,-0,0.66667
0.92684,0.90289,9.2684,0.60434,11.235,9.503,-14.937,4.9789,-0.70028,-19.916,4.8934e-07,-0.35014,0,0,0.1,9.4739e-16,0,0.66667
0.552,0.351,5.52,-0.2235,-20.602,234.12,3.2899,-1.0966,-1.8206,4.3866,-1.8725e-12,-0.91028,0,0,0.1,-0,-0,0.66667
0.96392,0.17268,9.6392,-0.49098,-4.4755,3.2592,12.62,-4.2068,-1.1408,16.827,-5.5697e-07,-0.5704,0,0,0.1,-0,-0,0.66667
0.28096,0.26945,2.8096,-0.34583,-42.312,534.47,2.591,-0.86366,-1.5791,3.4547,-7.1938e-12,-0.78956,0,0,0.1,-0,-0,0.66667
0.60215,0.10684,6.0215,-0.58975,-49.991,189.63,9.4697,-3.1566,-0.76018,12.626,-7.1054e-15,-0.38009,0,0,0.1,-0,-0,0.66667
0.39646,0.74668,3.9646,0.37002,41.418,396.76,-3.912,1.304,-1.5115,-5.216,-6.4178e-12,-0.75574,0,0,0.1,-0,-0,0.66667
0.62802,0.93906,6.2802,0.6586,53.09,168.09,-11.03,3.6766,-0.45894,-14.706,1.7106e-12,-0.22947,0,0,0.1,-1.8948e-15,0,0.66667
0.30063,0.61927,3.0063,0.1789,21.599,510.07,-1.4342,0.47807,-1.8858,-1.9123,-1.7439e-12,-0.9429,0,0,0.1,2.3685e-16,0,0.66667
0.81936,0.65098,8.1936,0.22647,9.804,43.634,-4.9483,1.6494,-1.8152,-6.5977,1.7403e-10,-0.90761,0,0,0.1,-9.4739e-16,0,0.66667
0.069786,0.25627,0.69786,-0.36559,-48.345,809.21,0.68034,-0.22678,-1.5222,0.90712,1.5849e-07,-0.76108,0,0,0.1,-0,-0,0.66667
0.041878,0.59076,0.41878,0.13614,18.044,846.66,-0.15204,0.050679,-1.933,-0.20271,1.5279e-07,-0.9665,0,0,0.1,-8.8818e-17,0,0.66667
0.049396,0.098127,0.49396,-0.60281,-80.054,836.63,0.79404,-0.26468,-0.70932,1.0587,1.0771e-06,-0.35466,0,0,0.1,-1.1842e-16,0,0.66667
0.15046,0.30816,1.5046,-0.28776,-37.356,701.89,1.1545,-0.38484,-1.7037,1.5394,1.9463e-09,-0.85187,0,0,0.1,3.5527e-16,0,0.66667
0.39535,0.42659,3.9535,-0.11012,-12.325,397.81,1.161,-0.38699,-1.955,1.548,-2.2824e-12,-0.97751,0,0,0.1,4.737e-16,0,0.66667
0.95539,0.83906,9.5539,0.50859,5.755,4.3442,-12.957,4.3192,-1.082,-17.277,1.554e-06,-0.54098,0,0,0.1,-9.4739e-16,0,0.66667
0.1108,0.81344,1.108,0.47016,61.752,754.47,-1.3891,0.46304,-1.2177,-1.8521,-1.7747e-08,-0.60886,0,0,0.1,4.737e-16,0,0.66667
0.64755,0.082432,6.4755,-0.62635,-48.384,152.29,10.816,-3.6053,-0.60205,14.421,-1.4211e-12,-0.30103,0,0,0.1,9.4739e-16,0,0.66667
0.52762,0.49316,5.2762,-0.010262,-0.98134,257.37,0.14438,-0.048127,-1.9992,0.19251,-3.0938e-13,-0.99961,0,0,0.1,1.4211e-15,0,0.66667
0.35324,0.91869,3.5324,0.62803,73.179,447.27,-5.9159,1.972,-0.59477,-7.8879,2.6947e-12,-0.29739,0,0,0.1,-0,-0,0.66667
0.1982,0.10858,1.982,-0.58714,-75.077,639.75,3.1032,-1.0344,-0.77213,4.1376,1.1136e-09,-0.38607,0,0,0.1,-0,-0,0.66667
0.22059,0.94728,2.2059,0.67092,85.024,611.02,-3.9467,1.3156,-0.40125,-5.2622,-2.3576e-10,-0.20063,0,0,0.1,-0,-0,0.66667
0.043822,0.39758,0.43822,-0.15362,-20.358,844.05,0.17952,-0.05984,-1.9162,0.23936,-1.4131e-07,-0.95808,0,0,0.1,-2.9606e-17,0,0.66667
0.71316,0.25558,7.1316,-0.36662,-23.858,103.7,6.9723,-2.3241,-1.5202,9.2965,1.9584e-12,-0.76009,0,0,0.1,-0,-0,0.66667
0.65384,0.50928,6.5384,0.013915,1.054,146.24,-0.24261,0.080871,-2.0002,-0.32348,-8.7437e-13,-1.0001,0,0,0.1,-0,-0,0.66667
0.44377,0.84921,4.4377,0.52382,55.932,344.46,-6.1988,2.0663,-1.0222,-8.2651,-7.3808e-13,-0.51108,0,0,0.1,-0,-0,0.66667
0.71894,0.19793,7.1894,-0.4531,-29.02,100.1,8.6867,-2.8956,-1.2747,11.582,1.1058e-12,-0.63735,0,0,0.1,-0,-0,0.66667
0.10998,0.9803,1.0998,0.72044,94.865,755.71,-2.1128,0.70428,-0.15829,-2.8171,-2.8397e-07,-0.079147,0,0,0.1,-0,-0,0.66667
0.93872,0.75618,9.3872,0.38426,5.9217,6.3889,-9.6191,3.2064,-1.4781,-12.825,1.3283e-07,-0.73907,0,0,0.1,-0,-0,0.66667
0.84763,0.72608,8.4763,0.33912,12.572,31.976,-7.6652,2.5551,-1.5904,-10.22,1.7589e-09,-0.79519,0,0,0.1,1.8948e-15,0,0.66667
0.65904,0.61266,6.5904,0.169,12.653,142.31,-2.97,0.98999,-1.8986,-3.96,8.4288e-13,-0.94931,0,0,0.1,-0,-0,0.66667
0.37883,0.84554,3.7883,0.51832,59.033,417.2,-5.2361,1.7454,-1.045,-6.9815,-4.48e-12,-0.52248,0,0,0.1,-9.4739e-16,0,0.66667
0.41657,0.50484,4.1657,0.0072589,0.79567,373.86,-0.080636,0.026879,-1.9982,-0.10751,-2.1023e-12,-0.99909,0,0,0.1,-0,-0,0.66667
0.48215,0.83986,4.8215,0.50979,52.01,303.73,-6.5545,2.1848,-1.0778,-8.7394,-1.1648e-12,-0.53891,0,0,0.1,7.1054e-16,0,0.66667
0.93528,0.52966,9.3528,0.044485,0.717,6.3889,-1.1095,0.36983,-1.9952,-1.4793,6.0927e-08,-0.99762,0,0,0.1,-1.1842e-15,0,0.66667
0.86359,0.77173,8.6359,0.4076,13.648,26.251,-9.3866,3.1289,-1.408,-12.516,5.565e-09,-0.704,0,0,0.1,-9.4739e-16,0,0.66667
0.47792,0.60191,4.7792,0.15286,15.641,307.62,-1.9482,0.64939,-1.9143,-2.5976,3.4559e-12,-0.95714,0,0,0.1,-0,-0,0.66667
0.55452,0.99925,5.5452,0.74888,69.146,233.01,-11.074,3.6913,-0.0042537,-14.765,6.8683e-12,-0.0021268,0,0,0.1,-1.5987e-15,0,0.66667
0.8754,0.50913,8.754,0.0137,0.41883,21.605,-0.31981,0.1066,-2.0037,-0.42641,-7.7973e-09,-1.0018,0,0,0.1,-0,-0,0.66667
0.94926,0.84801,9.4926,0.52202,6.7265,5.2426,-13.214,4.4048,-1.0308,-17.619,3.188e-07,-0.5154,0,0,0.1,-0,-0,0.66667
0.63918,0.92265,6.3918,0.63397,49.889,158.96,-10.806,3.602,-0.57308,-14.408,-1.0658e-14,-0.28654,0,0,0.1,-9.4739e-16,0,0.66667
0.74852,0.89278,7.4852,0.58917,34.411,81.972,-11.76,3.9201,-0.76787,-15.68,-1.6204e-11,-0.38393,0,0,0.1,-0,-0,0.66667
0.35162,0.34528,3.5162,-0.23209,-26.997,448.65,2.1762,-0.7254,-1.8066,2.9016,-1.5534e-12,-0.9033,0,0,0.1,-0,-0,0.66667
0.91803,0.11432,9.1803,-0.57852,-11.991,11.241,14.163,-4.7209,-0.809,18.883,-1.4726e-08,-0.4045,0,0,0.1,-0,-0,0.66667
0.83675,0.5015,8.3675,0.0022474,0.088538,35.912,-0.050148,0.016716,-1.9982,-0.066864,9.6232e-10,-0.99909,0,0,0.1,-0,-0,0.66667
0.55206,0.80849,5.5206,0.46273,42.727,234.46,-6.8121,2.2707,-1.2373,-9.0828,1.6698e-13,-0.61863,0,0,0.1,-1.1842e-15,0,0.66667
0.86763,0.79823,8.6763,0.44734,14.578,24.979,-10.35,3.45,-1.2852,-13.8,5.8754e-09,-0.64262,0,0,0.1,-0,-0,0.66667
0.84987,0.34178,8.4987,-0.23733,-8.6636,30.887,5.3787,-1.7929,-1.7981,7.1716,-2.1677e-09,-0.89907,0,0,0.1,1.199e-15,0,0.66667
0.80841,0.63881,8.0841,0.20822,9.5068,48.686,-4.4887,1.4962,-1.8444,-5.9849,4.3214e-11,-0.92222,0,0,0.1,-0,-0,0.66667
0.13069,0.59766,1.3069,0.14649,19.116,727.95,-0.51053,0.17018,-1.922,-0.6807,-4.229e-09,-0.96099,0,0,0.1,-0,-0,0.66667
0.536,0.071404,5.36,-0.64289,-60.993,250.22,9.1891,-3.063,-0.52873,12.252,-9.5746e-13,-0.26436,0,0,0.1,-0,-0,0.66667
0.90078,0.69106,9.0078,0.28659,7.0635,14.426,-6.8841,2.2947,-1.7064,-9.1788,3.7273e-08,-0.85322,0,0,0.1,1.8948e-15,0,0.66667
0.77083,0.62552,7.7083,0.18828,10.085,68.043,-3.8702,1.2901,-1.8732,-5.1603,-1.5375e-11,-0.93659,0,0,0.1,1.8948e-15,0,0.66667
0.42071,0.054666,4.2071,-0.668,-73.221,370.07,7.4943,-2.4981,-0.41646,9.9924,1.7932e-12,-0.20823,0,0,0.1,-0,-0,0.66667
0.97788,0.3858,9.7788,-0.17131,-0.90456,1.0885,4.4671,-1.489,-1.8928,5.9562,2.5508e-07,-0.94639,0,0,0.1,-0,-0,0.66667
0.25077,0.43402,2.5077,-0.098967,-12.309,572.16,0.66182,-0.22061,-1.9695,0.88243,-1.7312e-11,-0.98477,0,0,0.1,5.9212e-16,0,0.66667
0.33361,0.76528,3.3361,0.39792,46.984,470.25,-3.54,1.18,-1.4345,-4.72,-3.0913e-12,-0.71723,0,0,0.1,-0,-0,0.66667
0.9542,0.5192,9.542,0.028797,0.32687,3.4064,-0.73274,0.24425,-1.9999,-0.97698,2.605e-07,-0.99996,0,0,0.1,-1.8948e-15,0,0.66667
0.80872,0.7709,8.0872,0.40635,18.578,48.979,-8.7633,2.9211,-1.412,-11.684,2.6357e-11,-0.70599,0,0,0.1,-9.4739e-16,0,0.66667
0.90034,0.82369,9.0034,0.48554,12.096,15.158,-11.657,3.8858,-1.1591,-15.543,4.5491e-08,-0.57956,0,0,0.1,-0,-0,0.66667
0.01159,0.9442,0.1159,0.66631,88.747,887.46,-0.20592,0.068604,-0.42063,-0.27458,-5.3981e-05,-0.21031,0,0,0.1,-0,-0,0.66667
0.37976,0.85097,3.7976,0.52646,59.915,416.13,-5.3315,1.7772,-1.013,-7.1086,-4.2704e-12,-0.5065,0,0,0.1,9.4739e-16,0,0.66667
0.23552,0.65821,2.3552,0.23732,29.762,591.55,-1.4905,0.49683,-1.8037,-1.9873,2.3122e-11,-0.90185,0,0,0.1,9.4739e-16,0,0.66667
0.29594,0.39715,2.9594,-0.15428,-18.683,515.83,1.2175,-0.40584,-1.9187,1.6233,-2.8596e-12,-0.95934,0,0,0.1,-0,-0,0.66667
0.738,0.88047,7.38,0.57071,34.51,88.315,-11.231,3.7438,-0.84171,-14.975,-4.9663e-11,-0.42086,0,0,0.1,-0,-0,0.66667
0.72408,0.13761,7.2408,-0.54358,-34.327,97.029,10.496,-3.4987,-0.947,13.995,-1.3649e-11,-0.4735,0,0,0.1,-0,-0,0.66667
0.4618,0.40829,4.618,-0.13757,-14.353,324.59,1.6941,-0.56471,-1.9308,2.2588,-5.4912e-12,-0.96541,0,0,0.1,1.8948e-15,0,0.66667
0.36527,0.60157,3.6527,0.15235,17.518,432.55,-1.484,0.49467,-1.9151,-1.9787,-4.7882e-12,-0.95755,0,0,0.1,-0,-0,0.66667
0.58469,0.65981,5.8469,0.23972,20.91,204.17,-3.7376,1.2459,-1.7936,-4.9835,-8.0269e-13,-0.89681,0,0,0.1,-0,-0,0.66667
0.53371,0.97983,5.3371,0.71974,68.597,252.68,-10.244,3.4145,-0.15881,-13.658,2.0384e-12,-0.079403,0,0,0.1,-0,-0,0.66667
0.55058,0.79119,5.5058,0.43678,40.415,235.79,-6.4129,2.1376,-1.3209,-8.5505,-2.2409e-12,-0.66044,0,0,0.1,-0,-0,0.66667
0.61548,0.080558,6.1548,-0.62916,-52.002,178.41,10.326,-3.4421,-0.5897,13.768,1.43e-13,-0.29485,0,0,0.1,-0,-0,0.66667
0.39565,0.51625,3.9565,0.024378,2.7274,397.45,-0.25721,0.085735,-1.9956,-0.34294,-5.1788e-12,-0.99782,0,0,0.1,-0,-0,0.66667
0.77172,0.86542,7.7172,0.54813,29.41,68.46,-11.28,3.76,-0.92913,-15.04,-1.862e-10,-0.46457,0,0,0.1,-0,-0,0.66667
0.2512,0.54343,2.512,0.065152,8.101,571.61,-0.43643,0.14548,-1.9875,-0.58191,4.8607e-12,-0.99377,0,0,0.1,-4.737e-16,0,0.66667
0.65576,0.19345,6.5576,-0.45983,-34.778,145.36,8.041,-2.6803,-1.2527,10.721,-5.7732e-13,-0.62636,0,0,0.1,-0,-0,0.66667
0.9604,0.34749,9.604,-0.22877,-2.2471,2.848,5.859,-1.953,-1.8117,7.812,1.6885e-07,-0.90583,0,0,0.1,-0,-0,0.66667
0.0035548,0.57727,0.035548,0.1159,15.388,898.27,-0.010987,0.0036626,-1.9514,-0.014649,4.7432e-07,-0.97569,0,0,0.1,-7.4015e-18,0,0.66667
0.72336,0.56502,7.2336,0.09753,6.1437,96.579,-1.8813,0.62711,-1.9655,-2.5084,-6.3876e-12,-0.98273,0,0,0.1,1.8948e-15,0,0.66667
0.109,0.47879,1.09,-0.031812,-4.1727,756.76,0.092463,-0.030821,-2.0007,0.12328,2.6778e-09,-1.0004,0,0,0.1,-0,-0,0.66667
0.54379,0.48529,5.4379,-0.022063,-2.059,241.77,0.31993,-0.10664,-1.998,0.42658,-5.5868e-12,-0.99898,0,0,0.1,9.4739e-16,0,0.66667
0.62692,0.93346,6.2692,0.65019,52.525,168.97,-10.87,3.6232,-0.49921,-14.493,-9.5923e-13,-0.24961,0,0,0.1,-0,-0,0.66667
0.24295,0.0050485,2.4295,-0.74243,-93.139,582.65,4.8099,-1.6033,-0.037762,6.4132,9.0985e-12,-0.018881,0,0,0.1,-0,-0,0.66667
0.91384,0.8233,9.1384,0.48495,10.497,11.789,-11.818,3.9393,-1.1607,-15.757,1.3328e-08,-0.58035,0,0,0.1,-0,-0,0.66667
0.62231,0.65042,6.2231,0.22563,18.313,171.74,-3.7443,1.2481,-1.8199,-4.9924,-2.2271e-12,-0.90994,0,0,0.1,9.4739e-16,0,0.66667
0.23169,0.051629,2.3169,-0.67256,-84.783,596.84,4.1554,-1.3851,-0.3921,5.5405,-2.5947e-10,-0.19605,0,0,0.1,2.3685e-16,0,0.66667
0.77013,0.68277,7.7013,0.27415,14.735,68.568,-5.6302,1.8767,-1.7318,-7.5069,-3.0588e-11,-0.86589,0,0,0.1,-0,-0,0.66667
0.10551,0.28883,1.0551,-0.31676,-41.612,761.45,0.89121,-0.29707,-1.6425,1.1883,3.0671e-08,-0.82125,0,0,0.1,-0,-0,0.66667
0.55523,0.22381,5.5523,-0.41429,-38.042,231.38,6.1339,-2.0446,-1.3873,8.1786,-2.9203e-12,-0.69364,0,0,0.1,-0,-0,0.66667
0.094956,0.23585,0.94956,-0.39623,-52.187,775.55,1.0033,-0.33444,-1.4443,1.3377,4.0114e-08,-0.72217,0,0,0.1,-0,-0,0.66667
0.58098,0.9953,5.8098,0.74295,65.615,208.76,-11.51,3.8368,-0.038264,-15.347,-1.0738e-12,-0.019132,0,0,0.1,2.3685e-16,0,0.66667
0.25298,0.54846,2.5298,0.072683,9.0289,569.37,-0.49033,0.16344,-1.9811,-0.65378,5.32e-12,-0.99053,0,0,0.1,4.737e-16,0,0.66667
0.64947,0.9985,6.4947,0.74775,57.643,151.27,-12.95,4.3168,-0.010256,-17.267,-1.7124e-12,-0.0051281,0,0,0.1,-9.6967e-16,0,0.66667
0.71583,0.086208,7.1583,-0.62069,-40.238,102.72,11.848,-3.9494,-0.63057,15.798,4.8095e-12,-0.31529,0,0,0.1,-0,-0,0.66667
0.52419,0.62285,5.2419,0.18428,17.719,260.81,-2.576,0.85865,-1.8773,-3.4346,-4.3621e-12,-0.93866,0,0,0.1,1.3027e-15,0,0.66667
0.65752,0.25229,6.5752,-0.37156,-27.96,143.79,6.515,-2.1717,-1.5128,8.6866,-1.3496e-12,-0.75639,0,0,0.1,-0,-0,0.66667
0.81329,0.72625,8.1329,0.33938,15.162,46.647,-7.3604,2.4535,-1.5942,-9.8139,5.2883e-11,-0.79711,0,0,0.1,1.8948e-15,0,0.66667
0.80751,0.60856,8.0751,0.16283,7.4633,49.054,-3.5064,1.1688,-1.9035,-4.6752,8.9271e-12,-0.95176,0,0,0.1,-0,-0,0.66667
0.61968,0.4162,6.1968,-0.1257,-10.253,173.84,2.0771,-0.69238,-1.9416,2.7695,-2.9998e-13,-0.9708,0,0,0.1,-0,-0,0.66667
0.4511,0.030396,4.511,-0.70441,-74.76,336.99,8.4736,-2.8245,-0.23849,11.298,-4.6301e-12,-0.11925,0,0,0.1,-1.7764e-16,0,0.66667
0.40795,7.8936e-05,4.0795,-0.74988,-83.344,384.54,8.1577,-2.7192,-0.0040226,10.877,1.4699e-12,-0.0020113,0,0,0.1,-0,-0,0.66667
0.87475,0.32057,8.7475,-0.26914,-8.2897,22.1,6.2781,-2.0927,-1.7472,8.3708,-9.7565e-09,-0.87359,0,0,0.1,-0,-0,0.66667
0.70293,0.94575,7.0293,0.66862,45.02,111.62,-12.533,4.1777,-0.41531,-16.711,1.2177e-12,-0.20765,0,0,0.1,-0,-0,0.66667
0.18494,0.10528,1.8494,-0.59208,-76.114,656.95,2.9199,-0.9733,-0.75408,3.8932,-2.7476e-09,-0.37704,0,0,0.1,-0,-0,0.66667
0.56573,0.46482,5.6573,-0.052771,-4.7536,221.21,0.79612,-0.26537,-1.9906,1.0615,-1.3339e-13,-0.99529,0,0,0.1,9.4739e-16,0,0.66667
0.90881,0.71955,9.0881,0.32933,7.4884,12.481,-7.9813,2.6604,-1.6163,-10.642,4.2284e-08,-0.80815,0,0,0.1,-0,-0,0.66667
0.15069,0.92776,1.5069,0.64164,83.508,701.8,-2.5784,0.85945,-0.53382,-3.4378,-3.7615e-08,-0.26691,0,0,0.1,-2.3685e-16,0,0.66667
0.84552,0.59636,8.4552,0.14453,5.413,32.448,-3.2588,1.0863,-1.9285,-4.3451,1.8016e-09,-0.96425,0,0,0.1,-1.8948e-15,0,0.66667
0.8202,0.73389,8.202,0.35084,15.149,43.515,-7.6735,2.5578,-1.5591,-10.231,1.6943e-10,-0.77954,0,0,0.1,-0,-0,0.66667
0.49934,0.42485,4.9934,-0.11272,-11.218,285.56,1.501,-0.50033,-1.9584,2.0013,1.1858e-12,-0.97921,0,0,0.1,-9.4739e-16,0,0.66667
0.037584,0.2307,0.37584,-0.40395,-53.617,852.46,0.40485,-0.13495,-1.4169,0.53981,1.0412e-07,-0.70846,0,0,0.1,-0,-0,0.66667
0.1475,0.010517,1.475,-0.73422,-95.749,706.08,2.888,-0.96267,-0.080271,3.8507,-6.4447e-09,-0.040135,0,0,0.1,-4.737e-16,0,0.66667
0.92264,0.22123,9.2264,-0.41816,-8.1247,9.5868,10.288,-3.4294,-1.3828,13.718,-1.2004e-07,-0.69142,0,0,0.1,-0,-0,0.66667
0.044155,0.73004,0.44155,0.34506,45.759,843.62,-0.40629,0.13543,-1.577,-0.54172,-8.4717e-08,-0.78849,0,0,0.1,-0,-0,0.66667
0.3725,0.76511,3.725,0.39767,45.499,424.35,-3.9502,1.3167,-1.4382,-5.2669,-6.8161e-12,-0.7191,0,0,0.1,-0,-0,0.66667
0.61904,0.72466,6.1904,0.33699,27.557,174.64,-5.5629,1.8543,-1.5941,-7.4173,1.898e-12,-0.79703,0,0,0.1,-0,-0,0.66667
0.19695,0.47846,1.9695,-0.032305,-4.1214,641.06,0.16966,-0.056554,-1.9936,0.22622,-3.4404e-11,-0.9968,0,0,0.1,-0,-0,0.66667
0.98108,0.74575,9.8108,0.36862,1.6791,1.3349,-9.6439,3.2146,-1.5172,-12.859,-1.0721e-06,-0.7586,0,0,0.1,2.4757e-15,0,0.66667
0.15598,0.58103,1.5598,0.12155,15.743,694.58,-0.50556,0.16852,-1.9518,-0.67408,-1.0012e-09,-0.97591,0,0,0.1,-0,-0,0.66667
0.53968,0.01942,5.3968,-0.72087,-68.09,246.94,10.374,-3.4581,-0.14921,13.832,-6.1551e-13,-0.074607,0,0,0.1,-0,-0,0.66667
0.61801,0.79139,6.1801,0.43708,35.851,175.72,-7.2033,2.4011,-1.3178,-9.6044,-3.0198e-14,-0.65888,0,0,0.1,-0,-0,0.66667
0.23099,0.092722,2.3099,-0.61092,-76.99,597.66,3.7631,-1.2544,-0.67382,5.0175,5.4351e-10,-0.33691,0,0,0.1,-5.3291e-16,1.2827e-19,0.66667
0.46631,0.95131,4.6631,0.67696,70.561,320.72,-8.4179,2.806,-0.37116,-11.224,-2.4558e-12,-0.18558,0,0,0.1,9.4739e-16,-1.1682e-16,0.66667
0.49101,0.89664,4.9101,0.59496,60.074,294.81,-7.7901,2.5967,-0.73859,-10.387,1.4388e-12,-0.36929,0,0,0.1,-4.737e-16,0,0.66667
0.76686,0.34878,7.6686,-0.22683,-12.338,70.317,4.6385,-1.5462,-1.8203,6.1847,2.9055e-11,-0.91017,0,0,0.1,-0,-0,0.66667
0.63428,0.42487,6.3428,-0.1127,-8.9168,161.81,1.9062,-0.63539,-1.9519,2.5416,1.4811e-12,-0.97595,0,0,0.1,-9.4739e-16,0,0.66667
0.46755,0.81144,4.6755,0.46716,48.505,318.91,-5.8246,1.9415,-1.2281,-7.7661,9.8987e-13,-0.61403,0,0,0.1,-1.3027e-15,0,0.66667
0.66694,0.55931,6.6694,0.08897,6.5348,136.22,-1.5823,0.52745,-1.9708,-2.1098,-6.9911e-13,-0.98538,0,0,0.1,1.1448e-15,0,0.66667
0.45338,0.79708,4.5338,0.44562,47.035,333.95,-5.3876,1.7959,-1.2983,-7.1834,-6.3505e-13,-0.64914,0,0,0.1,-9.4739e-16,0,0.66667
0.52571,0.23067,5.2571,-0.404,-38.812,259.61,5.6636,-1.8879,-1.4172,7.5515,-4.1256e-13,-0.70859,0,0,0.1,-0,-0,0.66667
0.65857,0.084514,6.5857,-0.62323,-46.944,143.72,10.945,-3.6483,-0.62,14.593,8.1712e-13,-0.31,0,0,0.1,-9.4739e-16,0,0.66667
0.1812,0.9867,1.812,0.73005,94.122,661.97,-3.5275,1.1758,-0.10205,-4.7033,1.2125e-09,-0.051025,0,0,0.1,4.737e-16,0,0.66667
0.78805,0.58696,7.8805,0.13045,6.5177,58.728,-2.7413,0.91376,-1.9369,-3.655,-3.1688e-12,-0.96845,0,0,0.1,4.737e-16,0,0.66667
0.60287,0.88024,6.0287,0.57037,48.269,188.95,-9.1694,3.0565,-0.84101,-12.226,2.3892e-12,-0.42051,0,0,0.1,-0,-0,0.66667
0.98033,0.026902,9.8033,-0.70965,-3.6418,2.9852,18.552,-6.1839,-0.20888,24.736,2.4458e-05,-0.10444,0,0,0.1,9.4739e-16,-5.6741e-17,0.66667
0.22238,0.37855,2.2238,-0.18218,-22.989,608.31,1.0803,-0.36011,-1.8821,1.4405,-3.9882e-11,-0.94103,0,0,0.1,-0,-0,0.66667
0.46627,0.28498,4.6627,-0.32254,-33.502,320.03,4.0103,-1.3368,-1.6316,5.3471,-5.4925e-12,-0.81581,0,0,0.1,-0,-0,0.66667
0.89564,0.66299,8.9564,0.24449,6.3213,15.732,-5.8393,1.9464,-1.7858,-7.7857,2.6702e-08,-0.89289,0,0,0.1,-0,-0,0.66667
0.60143,0.13909,6.0143,-0.54136,-45.921,190.1,8.6825,-2.8942,-0.9547,11.577,-4.1744e-14,-0.47735,0,0,0.1,-9.4739e-16,0,0.66667
0.72596,0.54431,7.2596,0.066464,4.153,94.881,-1.2867,0.42889,-1.9811,-1.7156,-3.0943e-12,-0.99055,0,0,0.1,-0,-0,0.66667
0.41367,0.0111,4.1367,-0.73335,-81.029,378.08,8.0897,-2.6966,-0.084698,10.786,4.8086e-12,-0.042349,0,0,0.1,-1.8948e-15,0,0.66667
0.68431,0.48235,6.8431,-0.026469,-1.8611,123.37,0.48302,-0.16101,-1.9971,0.64402,-7.2004e-13,-0.99855,0,0,0.1,-9.4739e-16,0,0.66667
0.94606,0.62019,9.4606,0.18029,2.4245,4.7112,-4.5484,1.5161,-1.882,-6.0645,-2.4567e-08,-0.94102,0,0,0.1,4.737e-16,0,0.66667
0.20019,0.039015,2.0019,-0.69148,-88.442,637.3,3.6913,-1.2304,-0.30026,4.9217,-9.7527e-10,-0.15013,0,0,0.1,-0,8.8456e-17,0.66667
0.80737,0.37334,8.0737,-0.18998,-8.7156,49.159,4.0903,-1.3634,-1.8707,5.4537,-4.9155e-11,-0.93535,0,0,0.1,-1.1842e-15,0,0.66667
0.96954,0.73929,9.6954,0.35894,2.7099,2.2113,-9.2801,3.0934,-1.5454,-12.373,-8.9794e-07,-0.77269,0,0,0.1,-0,-0,0.66667
0.014569,0.13907,0.14569,-0.5414,-72.02,883.44,0.21033,-0.070108,-0.96063,0.28044,3.5856e-06,-0.48032,0,0,0.1,2.9606e-17,1.4124e-16,0.66667
0.21521,0.82021,2.1521,0.48031,60.91,617.71,-2.7565,0.91883,-1.1793,-3.6753,-4.5957e-11,-0.58966,0,0,0.1,-0,-0,0.66667
0.11738,0.64385,1.1738,0.21577,28.258,745.63,-0.67538,0.22513,-1.8313,-0.90051,-1.2401e-08,-0.91563,0,0,0.1,-2.0578e-17,0,0.66667
0.76742,0.097061,7.6742,-0.60441,-33.003,71.072,12.369,-4.123,-0.70372,16.492,-4.1378e-10,-0.35186,0,0,0.1,-0,-0,0.66667
0.081217,0.84402,0.81217,0.51603,68.192,793.95,-1.1176,0.37254,-1.0545,-1.4902,-2.343e-08,-0.52726,0,0,0.1,2.3685e-16,0,0.66667
0.99841,0.88199,9.9841,0.57298,0.10301,1.4827,-15.255,5.0851,-0.83512,-20.34,-1.1393e-05,-0.41756,0,0,0.1,-0,-0,0.66667
0.38961,0.052719,3.8961,-0.67092,-75.799,405.12,6.9706,-2.3235,-0.40264,9.2942,-1.8803e-12,-0.20132,0,0,0.1,-4.737e-16,1.0186e-16,0.66667
0.9052,0.029718,9.052,-0.70542,-16.94,14.948,17.028,-5.676,-0.23489,22.704,1.0057e-06,-0.11744,0,0,0.1,-0,-0,0.66667
0.18858,0.53137,1.8858,0.047056,6.0236,651.93,-0.23663,0.078877,-1.9966,-0.31551,-1.8184e-10,-0.99829,0,0,0.1,-0,-0,0.66667
0.44087,0.55179,4.4087,0.077681,8.2995,347.08,-0.91326,0.30442,-1.9781,-1.2177,-2.8232e-12,-0.98903,0,0,0.1,-0,-0,0.66667
0.84481,0.54198,8.4481,0.062974,2.3674,32.663,-1.4187,0.4729,-1.9889,-1.8916,1.0572e-09,-0.99443,0,0,0.1,-1.8948e-15,0,0.66667
0.59527,0.9668,5.9527,0.70019,60.225,195.97,-11.115,3.7049,-0.26011,-14.82,-1.8305e-12,-0.13006,0,0,0.1,1.1842e-15,0,0.66667
0.46216,0.1416,4.6216,-0.53761,-56.218,324.76,6.6256,-2.2085,-0.96929,8.8341,-5.8309e-12,-0.48465,0,0,0.1,-0,-0,0.66667
0.51265,0.72997,5.1265,0.34495,33.747,272.41,-4.7157,1.5719,-1.5769,-6.2876,-3.0447e-12,-0.78845,0,0,0.1,-0,-0,0.66667
0.57389,0.35246,5.7389,-0.2213,-19.671,213.87,3.3867,-1.1289,-1.8246,4.5157,-6.3705e-12,-0.91231,0,0,0.1,1.8948e-15,0,0.66667
0.44032,0.031125,4.4032,-0.70331,-75.544,348.64,8.2582,-2.7527,-0.24297,11.011,-8.9493e-12,-0.12149,0,0,0.1,6.3653e-16,0,0.66667
0.19356,0.15228,1.9356,-0.52159,-66.782,645.69,2.6922,-0.8974,-1.0308,3.5896,6.979e-11,-0.51539,0,0,0.1,-1.8145e-16,0,0.66667
0.11397,0.72152,1.1397,0.33227,43.572,750.2,-1.0098,0.3366,-1.6067,-1.3464,-1.7284e-08,-0.80335,0,0,0.1,-0,-0,0.66667
0.15123,0.92531,1.5123,0.63796,83.014,701.09,-2.5727,0.85758,-0.55074,-3.4303,-3.1873e-08,-0.27537,0,0,0.1,-2.3685e-16,0,0.66667
0.052491,0.52225,0.52491,0.033374,4.4182,832.39,-0.046716,0.015572,-1.9937,-0.062287,4.8348e-08,-0.99685,0,0,0.1,-0,-0,0.66667
0.55868,0.15299,5.5868,-0.52052,-47.584,228.41,7.7548,-2.5849,-1.0366,10.34,-2.2737e-12,-0.51828,0,0,0.1,4.737e-16,0,0.66667
0.84772,0.018594,8.4772,-0.72211,-27.06,33.471,16.324,-5.4413,-0.14473,21.765,1.8123e-08,-0.072366,0,0,0.1,-1.8948e-15,0,0.66667
0.35912,0.44182,3.5912,-0.08727,-10.085,439.74,0.83574,-0.27858,-1.9781,1.1143,-1.5482e-12,-0.98907,0,0,0.1,-9.4739e-16,0,0.66667
0.075311,0.74036,0.75311,0.36053,47.637,801.81,-0.72406,0.24135,-1.5381,-0.96541,-1.2848e-07,-0.76907,0,0,0.1,-0,-0,0.66667
0.42572,0.52558,4.2572,0.038375,4.167,363.69,-0.43566,0.14522,-1.9943,-0.58088,-4.9409e-12,-0.99713,0,0,0.1,-0,-0,0.66667
0.60201,0.12138,6.0201,-0.56792,-48.139,189.68,9.1172,-3.0391,-0.85095,12.156,4.6096e-13,-0.42547,0,0,0.1,2.3685e-16,0,0.66667
0.4254,0.76747,4.254,0.40121,43.647,364.34,-4.5513,1.5171,-1.4269,-6.0685,-5.2136e-13,-0.71343,0,0,0.1,-0,-0,0.66667
0.81072,0.40872,8.1072,-0.13693,-6.18,47.504,2.9603,-0.98676,-1.9361,3.947,-9.8086e-11,-0.96806,0,0,0.1,-0,-0,0.66667
0.94189,0.77915,9.4189,0.41873,6.1324,5.9729,-10.517,3.5057,-1.3762,-14.023,9.032e-08,-0.68808,0,0,0.1,-2.8422e-15,0,0.66667
0.86991,0.85735,8.6991,0.53603,17.233,24.54,-12.435,4.1449,-0.97613,-16.579,4.5252e-09,-0.48807,0,0,0.1,-0,-0,0.66667
0.704,0.99253,7.04,0.73879,49.672,111.2,-13.87,4.6232,-0.062929,-18.493,-4.0057e-13,-0.031464,0,0,0.1,-1.4211e-15,0,0.66667
0.4703,0.56065,4.703,0.090975,9.3948,315.58,-1.1409,0.38031,-1.9738,-1.5213,2.5518e-12,-0.98692,0,0,0.1,1.0658e-15,0,0.66667
0.6827,0.3637,6.827,-0.20445,-14.445,124.66,3.7222,-1.2407,-1.8494,4.9629,-9.7211e-13,-0.92471,0,0,0.1,-0,-0,0.66667
0.013418,0.92086,0.13418,0.63129,84.049,885,-0.22588,0.075275,-0.58391,-0.30118,-2.7865e-05,-0.29195,0,0,0.1,-2.9606e-17,0,0.66667
0.98248,0.33626,9.8248,-0.24561,-1.0096,0.91866,6.4349,-2.145,-1.7874,8.5799,2.6439e-07,-0.89368,0,0,0.1,-9.4739e-16,0,0.66667
0.17208,0.80707,1.7208,0.46061,59.428,673.61,-2.1136,0.70453,-1.2508,-2.8181,1.349e-10,-0.62541,0,0,0.1,-0,-0,0.66667
0.90626,0.67173,9.0626,0.25759,6.0047,12.945,-6.2252,2.0751,-1.7689,-8.3003,4.131e-08,-0.88446,0,0,0.1,1.8948e-15,0,0.66667
0.80711,0.65161,8.0711,0.22742,10.449,49.337,-4.8948,1.6316,-1.8145,-6.5264,1.9139e-11,-0.90723,0,0,0.1,9.4739e-16,0,0.66667
0.80014,0.16455,8.0014,-0.50318,-23.976,53.442,10.736,-3.5788,-1.0996,14.315,-1.3291e-10,-0.54981,0,0,0.1,1.8948e-15,0,0.66667
0.26894,0.28425,2.6894,-0.32362,-39.875,549.43,2.3209,-0.77362,-1.6282,3.0945,-1.0795e-11,-0.81408,0,0,0.1,-9.4739e-16,0,0.66667
0.21915,0.7287,2.1915,0.34305,43.385,612.54,-2.0048,0.66827,-1.5858,-2.6731,4.0162e-11,-0.79292,0,0,0.1,-0,-0,0.66667
0.4288,0.18844,4.288,-0.46735,-50.689,360.7,5.344,-1.7813,-1.2218,7.1253,9.1127e-13,-0.61088,0,0,0.1,-0,-0,0.66667
0.84937,0.6116,8.4937,0.16739,6.1246,30.973,-3.7914,1.2638,-1.8978,-5.0552,1.7249e-09,-0.94888,0,0,0.1,9.4739e-16,0,0.66667
0.45038,0.84148,4.5038,0.51222,54.283,337.3,-6.1518,2.0506,-1.0685,-8.2025,-2.6934e-12,-0.53426,0,0,0.1,9.4739e-16,0,0.66667
0.93542,0.86102,9.3542,0.54152,8.8734,7.5751,-13.508,4.5027,-0.95846,-18.011,1.2265e-07,-0.47923,0,0,0.1,-0,-3.615e-17,0.66667
0.35268,0.9976,3.5268,0.7464,87.138,448.19,-7.0198,2.3399,-0.017243,-9.3597,-1.5987e-14,-0.0086214,0,0,0.1,-0,-0,0.66667
0.61939,0.70947,6.1939,0.31421,25.67,174.31,-5.1898,1.7299,-1.6466,-6.9197,1.1324e-13,-0.82331,0,0,0.1,4.737e-16,0,0.66667
0.9807,0.23522,9.807,-0.39716,-1.8577,1.4545,10.387,-3.4622,-1.4382,13.849,1.4175e-06,-0.71908,0,0,0.1,-0,-0,0.66667
0.64346,0.24047,6.4346,-0.38929,-30.248,154.83,6.6799,-2.2266,-1.4614,8.9065,-5.449e-13,-0.73072,0,0,0.1,-0,-0,0.66667
0.045498,0.82771,0.45498,0.49156,65.243,841.84,-0.59641,0.1988,-1.1431,-0.79521,-1.0954e-06,-0.57155,0,0,0.1,-0,-0,0.66667
0.46356,0.81284,4.6356,0.46927,48.957,323.14,-5.8009,1.9336,-1.2163,-7.7345,-6.4144e-12,-0.60815,0,0,0.1,1.8948e-15,0,0.66667
0.33475,0.47733,3.3475,-0.034,-4.0055,468.65,0.30351,-0.10117,-1.9931,0.40468,1.9449e-12,-0.99657,0,0,0.1,-0,-0,0.66667
0.53218,0.91172,5.3218,0.61758,58.906,253.83,-8.7643,2.9214,-0.64767,-11.686,-2.2355e-12,-0.32383,0,0,0.1,-0,-0,0.66667
0.28475,0.85375,2.8475,0.53062,64.858,529.98,-4.0291,1.343,-0.99834,-5.3721,-3.2019e-13,-0.49917,0,0,0.1,-0,-0,0.66667
0.12226,0.55383,1.2226,0.080749,10.559,739.12,-0.26327,0.087755,-1.9773,-0.35102,-2.4513e-09,-0.98865,0,0,0.1,-1.1842e-16,0,0.66667
0.66829,0.66226,6.6829,0.24339,17.832,135.36,-4.3375,1.4458,-1.7891,-5.7834,-3.5616e-13,-0.89456,0,0,0.1,-0,-0,0.66667
0.68136,0.011367,6.8136,-0.73295,-52.338,127.14,13.317,-4.4391,-0.087117,17.757,6.8745e-13,-0.043559,0,0,0.1,-0,-0,0.66667
0.86714,0.58087,8.6714,0.12131,3.9435,24.432,-2.8051,0.93503,-1.9444,-3.7401,4.1842e-09,-0.97222,0,0,0.1,-0,-0,0.66667
0.13238,0.30419,1.3238,-0.29372,-38.331,725.75,1.0369,-0.34562,-1.6904,1.3825,6.7418e-09,-0.84519,0,0,0.1,-1.1842e-16,0,0.66667
0.79862,0.13824,7.9862,-0.54264,-26.056,54.34,11.556,-3.8521,-0.95469,15.409,2.2625e-10,-0.47735,0,0,0.1,-0,-0,0.66667
0.82677,0.76499,8.2677,0.39749,16.605,40.736,-8.7635,2.9212,-1.4405,-11.685,2.0939e-10,-0.72026,0,0,0.1,-0,-0,0.66667
0.64655,0.9649,6.4655,0.69735,54.057,153.35,-12.023,4.0077,-0.26911,-16.031,-5.5156e-13,-0.13456,0,0,0.1,1.4211e-15,0,0.66667
0.20492,0.44138,2.0492,-0.087934,-11.182,630.75,0.48052,-0.16017,-1.975,0.6407,2.1106e-11,-0.98751,0,0,0.1,-4.737e-16,0,0.66667
0.26142,0.82186,2.6142,0.48279,59.808,559,-3.3656,1.1219,-1.17,-4.4875,5.8789e-12,-0.58499,0,0,0.1,-4.737e-16,0,0.66667
0.4185,0.92308,4.185,0.63463,69.692,372.46,-7.0824,2.3608,-0.56735,-9.4432,3.3564e-12,-0.28367,0,0,0.1,-0,-0,0.66667
0.5418,0.27956,5.418,-0.33066,-30.99,243.93,4.7773,-1.5924,-1.6103,6.3697,-2.7578e-12,-0.80517,0,0,0.1,1.1842e-15,0,0.66667
0.47744,0.035454,4.7744,-0.69682,-71.675,309.11,8.8717,-2.9572,-0.27131,11.829,-1.0334e-11,-0.13565,0,0,0.1,-0,-0,0.66667
0.46746,0.45925,4.6746,-0.06112,-6.3331,318.56,0.7619,-0.25397,-1.9894,1.0159,-1.9039e-12,-0.99469,0,0,0.1,-4.737e-16,0,0.66667
0.83984,0.81635,8.3984,0.47452,18.477,35.485,-10.627,3.5424,-1.1991,-14.17,5.0815e-10,-0.59956,0,0,0.1,-0,-0,0.66667
0.8701,0.53944,8.701,0.059161,1.8819,23.377,-1.3727,0.45757,-1.9858,-1.8303,1.2005e-09,-0.9929,0,0,0.1,-0,-0,0.66667
0.81675,0.19377,8.1675,-0.45935,-20.222,45.399,10.005,-3.3349,-1.2488,13.34,-4.4935e-10,-0.62439,0,0,0.1,-0,-0,0.66667
0.8778,0.82405,8.778,0.48608,14.707,21.752,-11.378,3.7927,-1.1601,-15.171,-1.5893e-09,-0.58005,0,0,0.1,-0,-0,0.66667
0.57101,0.2837,5.7101,-0.32445,-29.001,216.63,4.9403,-1.6468,-1.6237,6.5871,-3.4683e-12,-0.81186,0,0,0.1,1.8948e-15,0,0.66667
0.96404,0.96126,9.6404,0.69189,6.456,4.2645,-17.787,5.929,-0.29637,-23.716,1.453e-05,-0.14819,0,0,0.1,-9.4739e-16,6.8474e-17,0.66667
0.60654,0.54728,6.0654,0.07092,5.9362,184.93,-1.1471,0.38237,-1.9821,-1.5295,-6.5159e-13,-0.99107,0,0,0.1,9.4739e-16,0,0.66667
0.60395,0.028511,6.0395,-0.70723,-59.857,188.49,11.39,-3.7967,-0.22022,15.187,-3.884e-12,-0.11011,0,0,0.1,9.4739e-16,0,0.66667
0.3193,0.62087,3.193,0.18131,21.611,487.32,-1.5438,0.5146,-1.8809,-2.0584,-5.5866e-13,-0.94045,0,0,0.1,-5.9212e-16,0,0.66667
0.6812,0.86354,6.812,0.5453,38.818,126.52,-9.9057,3.3019,-0.93988,-13.208,-3.153e-13,-0.46994,0,0,0.1,-0,-0,0.66667
0.051966,0.71068,0.51966,0.31601,41.87,833.12,-0.43792,0.14597,-1.643,-0.58389,-2.1187e-08,-0.82152,0,0,0.1,5.9212e-17,0,0.66667
0.13455,0.95185,1.3455,0.67777,88.661,723.11,-2.4318,0.8106,-0.36379,-3.2424,2.0958e-08,-0.18189,0,0,0.1,2.3685e-16,0,0.66667
0.13024,0.96413,1.3024,0.6962,91.196,728.82,-2.418,0.806,-0.27508,-3.224,-1.9723e-08,-0.13754,0,0,0.1,-5.9212e-17,0,0.66667
0.6552,0.63891,6.552,0.20836,15.743,145.31,-3.6405,1.2135,-1.8485,-4.8539,1.2614e-12,-0.92424,0,0,0.1,-0,-0,0.66667
0.17533,0.66059,1.7533,0.24089,31.005,669.24,-1.1263,0.37542,-1.7938,-1.5017,-3.0815e-10,-0.89691,0,0,0.1,-0,-0,0.66667
0.34115,0.24595,3.4115,-0.38108,-44.732,461.23,3.4667,-1.1556,-1.4849,4.6223,-2.4316e-12,-0.74247,0,0,0.1,-2.3685e-16,0,0.66667
0.044312,0.12878,0.44312,-0.55684,-73.953,843.44,0.65798,-0.21932,-0.89892,0.87731,2.8006e-06,-0.44946,0,0,0.1,-0,-0,0.66667
0.23373,0.73166,2.3373,0.34749,43.642,593.9,-2.1659,0.72196,-1.5743,-2.8878,2.6985e-11,-0.78715,0,0,0.1,-0,-0,0.66667
0.96422,0.46068,9.6422,-0.058979,-0.51841,2.208,1.5165,-0.5055,-1.9862,2.022,1.7405e-07,-0.99309,0,0,0.1,-9.4739e-16,0,0.66667
0.50914,0.06572,5.0914,-0.65142,-64.248,276.61,8.8444,-2.9481,-0.48924,11.792,-1.7799e-12,-0.24462,0,0,0.1,1.8948e-15,0,0.66667
0.15107,0.61272,1.5107,0.16909,21.937,701.03,-0.68119,0.22706,-1.8961,-0.90825,-1.6446e-09,-0.94804,0,0,0.1,-2.3685e-16,0,0.66667
0.52301,0.87148,5.2301,0.55723,53.828,262.61,-7.7716,2.5905,-0.89377,-10.362,-2.895e-12,-0.44688,0,0,0.1,-2.3685e-16,0,0.66667
0.94351,0.70272,9.4351,0.30408,4.3031,5.3627,-7.6507,2.5502,-1.6684,-10.201,4.8834e-08,-0.83419,0,0,0.1,-0,-0,0.66667
0.86569,0.88042,8.6569,0.57063,18.925,26.132,-13.173,4.391,-0.84,-17.564,-1.1266e-09,-0.42,0,0,0.1,-1.8948e-15,0,0.66667
0.39207,0.75642,3.9207,0.38463,43.235,401.79,-4.0213,1.3404,-1.4767,-5.3618,-3.0211e-12,-0.73836,0,0,0.1,-0,-0,0.66667
0.28387,0.50436,2.8387,0.0065333,0.7971,530.71,-0.049456,0.016485,-2.0011,-0.065941,5.4273e-12,-1.0005,0,0,0.1,-1.8948e-15,0,0.66667
0.76173,0.81043,7.6173,0.46565,25.895,73.794,-9.4586,3.1529,-1.2291,-12.611,-1.6226e-11,-0.61455,0,0,0.1,-4.737e-16,0,0.66667
0.24048,0.032041,2.4048,-0.70194,-88.128,585.71,4.5015,-1.5005,-0.24676,6.002,3.7714e-11,-0.12338,0,0,0.1,-9.4739e-16,0,0.66667
0.25423,0.79581,2.5423,0.44372,55.17,568,-3.0082,1.0027,-1.2984,-4.0109,7.2253e-12,-0.6492,0,0,0.1,4.737e-16,0,0.66667
0.084086,0.81966,0.84086,0.4795,63.315,790.1,-1.0752,0.35839,-1.1802,-1.4336,-2.5382e-08,-0.5901,0,0,0.1,-0,-0,0.66667
0.86414,0.49605,8.6414,-0.0059298,-0.19677,25.419,0.13665,-0.045549,-1.9988,0.1822,-8.1605e-09,-0.99939,0,0,0.1,-2.8422e-15,0,0.66667
0.4479,0.29596,4.479,-0.30606,-32.472,339.63,3.6555,-1.2185,-1.6646,4.874,-1.3924e-12,-0.83228,0,0,0.1,-9.4739e-16,0,0.66667
0.56179,0.29995,5.6179,-0.30008,-27.236,225.07,4.4955,-1.4985,-1.6833,5.994,3.5971e-14,-0.84166,0,0,0.1,-9.4739e-16,0,0.66667
0.73671,0.42966,7.3671,-0.10552,-6.3728,88.083,2.0729,-0.69098,-1.9616,2.7639,1.4171e-12,-0.98078,0,0,0.1,-0,-0,0.66667
0.79649,0.48507,7.9649,-0.022395,-1.0786,54.361,0.47566,-0.15855,-2.0023,0.63421,-1.4769e-11,-1.0011,0,0,0.1,-0,-0,0.66667
0.44751,0.69123,4.4751,0.28684,30.444,340.03,-3.423,1.141,-1.7058,-4.5641,-1.8854e-12,-0.8529,0,0,0.1,-9.4739e-16,0,0.66667
0.18413,0.0044013,1.8413,-0.7434,-95.752,658.17,3.6501,-1.2167,-0.035284,4.8668,-1.3853e-09,-0.017642,0,0,0.1,-0,5.732e-17,0.66667
0.82873,0.32398,8.2873,-0.26403,-10.891,39.56,5.8349,-1.945,-1.7559,7.7799,-4.4835e-10,-0.87795,0,0,0.1,-0,-0,0.66667
0.030998,0.3266,0.30998,-0.2601,-34.514,861.31,0.21501,-0.071669,-1.7638,0.28667,-4.7833e-07,-0.8819,0,0,0.1,-0,-0,0.66667
0.94673,0.68627,9.4673,0.2794,3.723,4.7998,-7.0538,2.3513,-1.7209,-9.405,5.5435e-09,-0.86044,0,0,0.1,7.1054e-16,0,0.66667
0.57698,0.042983,5.7698,-0.68553,-60.909,212.15,10.548,-3.5158,-0.33183,14.063,-7.6117e-13,-0.16592,0,0,0.1,-0,-1.1108e-16,0.66667
0.87539,0.58041,8.7539,0.12061,3.6895,21.666,-2.8155,0.93848,-1.9524,-3.7539,5.9436e-09,-0.97619,0,0,0.1,-9.4739e-16,0,0.66667
0.60857,0.13023,6.0857,-0.55466,-46.418,184.02,9.0012,-3.0004,-0.91017,12.002,-3.9524e-13,-0.45509,0,0,0.1,-0,-0,0.66667
0.25166,0.26359,2.5166,-0.35462,-44.127,571.17,2.3798,-0.79327,-1.5547,3.1731,-1.4946e-11,-0.77734,0,0,0.1,-0,-0,0.66667
0.29613,0.71143,2.9613,0.31715,38.426,515.69,-2.5045,0.83482,-1.6462,-3.3393,-1.7275e-13,-0.82312,0,0,0.1,4.737e-16,0,0.66667
0.53292,0.073298,5.3292,-0.64005,-61.002,253.18,9.096,-3.032,-0.54531,12.128,-2.3626e-13,-0.27265,0,0,0.1,9.4739e-16,0,0.66667
0.96208,0.35193,9.6208,-0.22211,-2.0853,2.6413,5.6983,-1.8994,-1.8219,7.5977,1.928e-07,-0.91094,0,0,0.1,-0,-0,0.66667
0.1845,0.1729,1.845,-0.49066,-63.03,657.44,2.414,-0.80466,-1.1438,3.2186,-8.3243e-11,-0.57192,0,0,0.1,2.3685e-16,0,0.66667
0.5099,0.76365,5.099,0.39548,38.854,275.24,-5.3775,1.7925,-1.4412,-7.17,-2.5491e-12,-0.72061,0,0,0.1,-9.4739e-16,0,0.66667
0.34379,0.25253,3.4379,-0.3712,-43.481,458.07,3.4031,-1.1344,-1.516,4.5374,-4.5812e-12,-0.75802,0,0,0.1,-0,-0,0.66667
0.76973,0.073439,7.6973,-0.63984,-34.665,69.937,13.133,-4.3778,-0.54307,17.511,3.0446e-11,-0.27154,0,0,0.1,-0,-0,0.66667
0.80287,0.86783,8.0287,0.55175,25.998,52.289,-11.813,3.9376,-0.91525,-15.75,-5.451e-10,-0.45762,0,0,0.1,4.7539e-16,0,0.66667
0.42456,0.58573,4.2456,0.12859,13.982,365,-1.4559,0.48529,-1.9418,-1.9412,-3.1822e-12,-0.97092,0,0,0.1,-4.737e-16,0,0.66667
0.20412,0.39374,2.0412,-0.1594,-20.278,631.8,0.86763,-0.28921,-1.9126,1.1568,-3.0413e-11,-0.95632,0,0,0.1,-2.3685e-16,0,0.66667
0.067089,0.71998,0.67089,0.32998,43.644,812.82,-0.59034,0.19678,-1.6124,-0.78713,-1.3518e-07,-0.8062,0,0,0.1,2.3685e-16,0,0.66667
0.19865,0.22176,1.9865,-0.41736,-53.284,639.01,2.2109,-0.73696,-1.38,2.9478,6.3678e-12,-0.68999,0,0,0.1,-4.737e-16,0,0.66667
0.2724,0.77203,2.724,0.40805,50.202,545.18,-2.9641,0.98802,-1.4051,-3.9521,-3.0824e-12,-0.70257,0,0,0.1,2.3685e-16,0,0.66667
0.59879,0.40738,5.9879,-0.13893,-11.804,191.66,2.2184,-0.73946,-1.9306,2.9578,-3.1508e-13,-0.96529,0,0,0.1,-1.8948e-15,0,0.66667
0.87308,0.074503,8.7308,-0.63825,-20.128,23.947,14.86,-4.9533,-0.55306,19.813,-3.3834e-08,-0.27653,0,0,0.1,-0,1.1206e-16,0.66667
0.12823,0.93562,1.2823,0.65343,85.599,731.44,-2.2344,0.7448,-0.48272,-2.9792,-1.3912e-08,-0.24136,0,0,0.1,2.9606e-16,0,0.66667
0.95819,0.43692,9.5819,-0.09462,-0.9786,2.9288,2.4177,-0.8059,-1.9675,3.2236,-1.3662e-07,-0.98374,0,0,0.1,2.4277e-15,0,0.66667
0.68317,0.010479,6.8317,-0.73428,-52.192,125.83,13.377,-4.459,-0.081473,17.836,1.485e-12,-0.040736,0,0,0.1,-0,1.1889e-16,0.66667
0.74196,0.93562,7.4196,0.65344,39.07,86.204,-12.929,4.3096,-0.4799,-17.238,-1.0973e-11,-0.23995,0,0,0.1,-1.3027e-15,0,0.66667
0.98288,0.31946,9.8288,-0.27081,-1.0883,0.95146,7.0979,-2.366,-1.7418,9.4639,3.0646e-07,-0.87091,0,0,0.1,-0,-0,0.66667
0.4161,0.19303,4.161,-0.46046,-50.597,374.77,5.1093,-1.7031,-1.2441,6.8123,3.1397e-13,-0.62206,0,0,0.1,-0,-0,0.66667
0.53158,0.66128,5.3158,0.24192,23.015,253.65,-3.4293,1.1431,-1.7969,-4.5724,-3.1137e-12,-0.89844,0,0,0.1,-0,-0,0.66667
0.67921,0.25117,6.7921,-0.37325,-26.644,127.5,6.7605,-2.2535,-1.5029,9.0139,-1.9273e-13,-0.75143,0,0,0.1,-0,-0,0.66667
0.51288,0.12661,5.1288,-0.56008,-54.89,272.63,7.6601,-2.5534,-0.88616,10.213,-1.557e-12,-0.44308,0,0,0.1,1.8948e-15,0,0.66667
0.29911,0.79074,2.9911,0.43611,52.777,512.15,-3.4785,1.1595,-1.3249,-4.638,-2.4425e-12,-0.66245,0,0,0.1,-0,-0,0.66667
0.10538,0.15424,1.0538,-0.51865,-68.227,761.7,1.4575,-0.48584,-1.0435,1.9434,4.1944e-08,-0.52177,0,0,0.1,1.4803e-16,0,0.66667
0.28493,0.5065,2.8493,0.0097506,1.1888,529.39,-0.074087,0.024696,-1.9992,-0.098782,-1.5972e-12,-0.99962,0,0,0.1,-0,-0,0.66667
0.76885,0.78659,7.6885,0.42988,23.267,69.656,-8.8138,2.9379,-1.3432,-11.752,-1.7328e-11,-0.6716,0,0,0.1,-0,-0,0.66667
0.64078,0.23237,6.4078,-0.40144,-31.381,157,6.8596,-2.2865,-1.4316,9.1462,-9.8366e-13,-0.71578,0,0,0.1,-0,-0,0.66667
0.80133,0.75652,8.0133,0.38477,18.194,52.482,-8.2222,2.7407,-1.4724,-10.963,-4.7335e-11,-0.7362,0,0,0.1,-1.8948e-15,0,0.66667
0.51712,0.86078,5.1712,0.54117,52.709,268.37,-7.4627,2.4876,-0.96075,-9.9503,-4.281e-13,-0.48037,0,0,0.1,-9.4739e-16,0,0.66667
0.2321,0.45242,2.321,-0.071375,-8.9627,595.86,0.44176,-0.14725,-1.9827,0.58902,-1.2597e-11,-0.99135,0,0,0.1,-0,-0,0.66667
0.62796,0.61361,6.2796,0.17041,13.668,167.01,-2.8537,0.95123,-1.8967,-3.8049,-1.2492e-12,-0.94836,0,0,0.1,-0,-0,0.66667
0.30401,0.75399,3.0401,0.38098,45.938,506.09,-3.0885,1.0295,-1.4817,-4.118,3.8503e-13,-0.74083,0,0,0.1,-9.4739e-16,0,0.66667
0.029529,0.3851,0.29529,-0.17236,-22.865,863.28,0.13572,-0.04524,-1.8963,0.18096,-2.9358e-07,-0.94813,0,0,0.1,-0,-0,0.66667
0.90333,0.76211,9.0333,0.39316,9.4789,14.048,-9.4709,3.157,-1.4504,-12.628,4.1796e-08,-0.72519,0,0,0.1,1.8948e-15,0,0.66667
0.42037,0.25116,4.2037,-0.37326,-40.809,369.88,4.1842,-1.3947,-1.5081,5.5789,5.1292e-13,-0.75406,0,0,0.1,-1.8948e-15,0,0.66667
0.42613,0.98626,4.2613,0.72939,79.569,364.24,-8.2884,2.7628,-0.10684,-11.051,-3.7783e-12,-0.053421,0,0,0.1,4.737e-16,0,0.66667
0.74125,0.92708,7.4125,0.64063,38.383,86.586,-12.663,4.221,-0.53782,-16.884,1.1902e-11,-0.26891,0,0,0.1,-0,-0,0.66667
0.94846,0.77605,9.4846,0.41408,5.3767,4.9342,-10.473,3.491,-1.3892,-13.964,1.2251e-07,-0.69458,0,0,0.1,-9.4739e-16,0,0.66667
0.072516,0.58975,0.72516,0.13462,17.779,805.52,-0.26033,0.086776,-1.9339,-0.3471,-2.7017e-08,-0.96694,0,0,0.1,1.3332e-17,0,0.66667
0.1727,0.31226,1.727,-0.2816,-36.286,672.69,1.2969,-0.4323,-1.7229,1.7292,3.909e-10,-0.86146,0,0,0.1,8.8818e-17,0,0.66667
0.32236,0.69023,3.2236,0.28534,33.949,483.68,-2.4528,0.81761,-1.709,-3.2705,-1.211e-12,-0.85448,0,0,0.1,-0,-0,0.66667
0.24842,0.2848,2.4842,-0.3228,-40.23,575.23,2.1384,-0.71281,-1.6324,2.8512,-1.8445e-11,-0.81622,0,0,0.1,-9.4739e-16,0,0.66667
0.49549,0.43646,4.9549,-0.095311,-9.5334,289.46,1.2594,-0.41979,-1.9674,1.6791,2.5616e-12,-0.98368,0,0,0.1,2.9606e-16,0,0.66667
0.82446,0.8192,8.2446,0.4788,20.28,42.009,-10.527,3.5089,-1.1845,-14.035,1.0936e-10,-0.59224,0,0,0.1,-0,-0,0.66667
0.85397,0.03393,8.5397,-0.6991,-25.182,30.972,15.92,-5.3068,-0.2609,21.227,5.4838e-09,-0.13045,0,0,0.1,1.8948e-15,0,0.66667
0.59583,0.3374,5.9583,-0.2439,-20.847,194.34,3.8752,-1.2917,-1.7902,5.1669,-3.5749e-12,-0.8951,0,0,0.1,-0,-0,0.66667
0.24017,0.436,2.4017,-0.096,-12.007,585.59,0.61484,-0.20495,-1.9659,0.81979,-2.1043e-11,-0.98294,0,0,0.1,1.7764e-16,0,0.66667
0.18649,0.28082,1.8649,-0.32877,-42.157,654.73,1.635,-0.54501,-1.6202,2.18,2.9298e-11,-0.81009,0,0,0.1,-2.2204e-17,0,0.66667
0.74339,0.94737,7.4339,0.67106,39.95,85.411,-13.303,4.4343,-0.39601,-17.737,-1.5692e-11,-0.198,0,0,0.1,-0,-0,0.66667
0.23721,0.38557,2.3721,-0.17164,-21.503,589.37,1.0858,-0.36192,-1.8954,1.4477,-2.109e-11,-0.94772,0,0,0.1,-4.737e-16,0,0.66667
0.53949,0.81336,5.3949,0.47003,44.264,246.41,-6.7621,2.254,-1.2127,-9.0161,-1.8341e-12,-0.60637,0,0,0.1,1.8948e-15,0,0.66667
0.74928,0.94237,7.4928,0.66355,38.719,81.827,-13.258,4.4194,-0.43872,-17.678,2.9644e-11,-0.21936,0,0,0.1,1.8948e-15,0,0.66667
0.22825,0.064902,2.2825,-0.65265,-82.394,601.21,3.9724,-1.3241,-0.48384,5.2966,-2.8708e-10,-0.24192,0,0,0.1,-9.4739e-16,0,0.66667
0.1745,0.1187,1.745,-0.57195,-73.798,670.53,2.6615,-0.88717,-0.83779,3.5487,-6.4686e-11,-0.41889,0,0,0.1,1.1842e-16,0,0.66667
0.039736,0.94292,0.39736,0.66438,88.361,849.62,-0.70399,0.23465,-0.42809,-0.93866,-1.6021e-05,-0.21405,0,0,0.1,-0,-0,0.66667
0.14757,0.19773,1.4757,-0.45341,-58.97,705.77,1.7842,-0.59475,-1.2661,2.379,1.9725e-09,-0.63304,0,0,0.1,-0,-0,0.66667
0.85144,0.42452,8.5144,-0.11322,-4.0875,30.123,2.5706,-0.85685,-1.9512,3.4274,-8.524e-10,-0.9756,0,0,0.1,9.4739e-16,0,0.66667
0.10464,0.32075,1.0464,-0.26888,-35.321,762.6,0.75025,-0.25008,-1.7413,1.0003,2.8927e-08,-0.87065,0,0,0.1,-0,-0,0.66667
0.22365,0.90258,2.2365,0.60387,76.364,607.03,-3.6014,1.2005,-0.70231,-4.8018,-1.3535e-10,-0.35115,0,0,0.1,-3.5527e-16,0,0.66667
0.032757,0.79283,0.32757,0.43924,58.335,858.96,-0.38369,0.1279,-1.3161,-0.51159,6.9689e-07,-0.65807,0,0,0.1,-0,-0,0.66667
0.67636,0.40079,6.7636,-0.14882,-10.682,129.24,2.6841,-0.89469,-1.9202,3.5787,-2.3683e-12,-0.96009,0,0,0.1,4.737e-16,0,0.66667
0.2317,0.71796,2.317,0.32695,41.098,596.47,-2.0201,0.67337,-1.6217,-2.6935,2.7661e-11,-0.81086,0,0,0.1,-6.2172e-16,0,0.66667
0.41359,0.80115,4.1359,0.45172,49.759,377.56,-4.9821,1.6607,-1.2714,-6.6428,-1.3198e-12,-0.63568,0,0,0.1,-0,-0,0.66667
0.1393,0.71115,1.393,0.31672,41.259,716.61,-1.1765,0.39218,-1.6461,-1.5687,-4.3648e-09,-0.82305,0,0,0.1,-0,-0,0.66667
0.37722,0.66142,3.7722,0.24214,27.565,418.71,-2.4357,0.8119,-1.7932,-3.2476,-4.0554e-12,-0.8966,0,0,0.1,-0,-0,0.66667
0.42444,0.45268,4.2444,-0.070977,-7.7178,365.12,0.80335,-0.26778,-1.9825,1.0711,-3.1545e-12,-0.99124,0,0,0.1,-0,-0,0.66667
0.47296,0.58658,4.7296,0.12986,13.368,312.79,-1.6379,0.54597,-1.939,-2.1839,3.4537e-12,-0.96949,0,0,0.1,-4.737e-16,0,0.66667
0.42284,0.63929,4.2284,0.20893,22.764,366.96,-2.3559,0.78528,-1.8478,-3.1411,-3.2303e-12,-0.92389,0,0,0.1,-0,-0,0.66667
0.10276,0.34249,1.0276,-0.23627,-31.046,765.1,0.64742,-0.21581,-1.7999,0.86323,2.778e-08,-0.89993,0,0,0.1,-4.4409e-17,0,0.66667
0.77258,0.81601,7.7258,0.47402,25.312,67.725,-9.7658,3.2553,-1.1989,-13.021,-7.7661e-11,-0.59946,0,0,0.1,-1.8948e-15,0,0.66667
0.13721,0.82864,1.3721,0.49296,64.327,719.47,-1.8037,0.60122,-1.1353,-2.4049,-8.3267e-09,-0.56763,0,0,0.1,-2.3685e-16,0,0.66667
0.42429,0.023122,4.2429,-0.71532,-78.168,366.23,8.0934,-2.6978,-0.18169,10.791,-1.7781e-12,-0.090847,0,0,0.1,-0,-0,0.66667
0.27196,0.75338,2.7196,0.38008,46.764,545.71,-2.7564,0.91879,-1.4844,-3.6752,2.669e-13,-0.74221,0,0,0.1,-0,-0,0.66667
0.30101,0.57008,3.0101,0.10512,12.686,509.58,-0.84377,0.28126,-1.9597,-1.125,2.8296e-12,-0.97984,0,0,0.1,-0,-0,0.66667
0.67242,0.41213,6.7242,-0.1318,-9.5531,132.15,2.3634,-0.78778,-1.9427,3.1511,-1.4115e-12,-0.97133,0,0,0.1,-0,-0,0.66667
0.51779,0.71978,5.1779,0.32968,32.017,267.29,-4.552,1.5173,-1.616,-6.0694,-1.0103e-12,-0.80801,0,0,0.1,-0,-0,0.66667
0.19009,0.16025,1.9009,-0.50962,-65.334,650.18,2.5833,-0.86109,-1.0779,3.4444,-7.7752e-11,-0.53894,0,0,0.1,-0,-0,0.66667
0.46913,0.18239,4.6913,-0.47641,-49.376,317.26,5.9601,-1.9867,-1.1978,7.9468,-3.6451e-12,-0.59892,0,0,0.1,-2.3685e-16,0,0.66667
0.33954,0.93038,3.3954,0.64557,76.054,463.55,-5.8452,1.9484,-0.51716,-7.7936,-8.7352e-13,-0.25858,0,0,0.1,2.3685e-16,0,0.66667
0.7045,0.6643,7.045,0.24644,16.422,109.34,-4.6298,1.5433,-1.7867,-6.1731,-3.0926e-12,-0.89335,0,0,0.1,-0,-0,0.66667
0.2261,0.091557,2.261,-0.61266,-77.394,603.91,3.6939,-1.2313,-0.6634,4.9252,3.7272e-10,-0.3317,0,0,0.1,5.9212e-17,0,0.66667
0.84499,0.34797,8.4499,-0.22804,-8.5751,32.774,5.1385,-1.7128,-1.8185,6.8513,-1.5588e-09,-0.90925,0,0,0.1,-0,-0,0.66667
0.52623,0.059024,5.2623,-0.66146,-63.687,259.75,9.2822,-3.0941,-0.44311,12.376,2.8537e-12,-0.22155,0,0,0.1,-1.1842e-15,0,0.66667
0.50062,0.94457,5.0062,0.66685,66.548,285.22,-8.9023,2.9674,-0.42302,-11.87,-6.084e-13,-0.21151,0,0,0.1,-0,-0,0.66667
0.25369,0.24199,2.5369,-0.38701,-48.115,568.64,2.6181,-0.8727,-1.4669,3.4908,-1.5759e-11,-0.73343,0,0,0.1,2.3685e-16,0,0.66667
0.18616,0.96162,1.8616,0.69243,89.065,655.47,-3.4373,1.1458,-0.29805,-4.5831,-1.3985e-09,-0.14903,0,0,0.1,-0,-0,0.66667
0.47182,0.81109,4.7182,0.46664,48.201,314.42,-5.8711,1.957,-1.2269,-7.8282,-4.5186e-12,-0.61346,0,0,0.1,1.1842e-15,0,0.66667
0.98182,0.50909,9.8182,0.01364,0.05755,0.69617,-0.35712,0.11904,-2,-0.47616,2.072e-06,-1,0,0,0.1,-0,-0,0.66667
0.13291,0.039477,1.3291,-0.69078,-90.417,725.29,2.4483,-0.81609,-0.30045,3.2643,3.5406e-08,-0.15022,0,0,0.1,2.3685e-16,0,0.66667
0.28346,0.057857,2.8346,-0.66321,-81.239,531.77,5.0132,-1.6711,-0.43782,6.6843,1.5947e-12,-0.21891,0,0,0.1,-1.1842e-16,0,0.66667
0.80064,0.10194,8.0064,-0.59708,-28.451,53.563,12.748,-4.2493,-0.7317,16.997,-1.8608e-09,-0.36585,0,0,0.1,-0,-0,0.66667
0.66478,0.52854,6.6478,0.042809,3.1605,137.84,-0.7589,0.25297,-1.9914,-1.0119,1.846e-12,-0.99572,0,0,0.1,-9.4739e-16,0,0.66667
0.27876,0.71308,2.7876,0.31962,39.152,537.18,-2.3759,0.79198,-1.638,-3.1679,-1.9518e-12,-0.81898,0,0,0.1,-0,-0,0.66667
0.31465,0.99113,3.1465,0.73669,88.486,493.67,-6.1813,2.0604,-0.071666,-8.2417,-1.7333e-12,-0.035833,0,0,0.1,-7.1054e-16,0,0.66667
0.41995,0.23498,4.1995,-0.39753,-43.49,370.39,4.4518,-1.4839,-1.4394,5.9358,-7.4918e-13,-0.71972,0,0,0.1,9.4739e-16,0,0.66667
0.60279,0.77115,6.0279,0.40672,34.358,188.59,-6.5378,2.1793,-1.409,-8.717,3.7481e-13,-0.70448,0,0,0.1,-0,-0,0.66667
0.71934,0.47355,7.1934,-0.039673,-2.5295,99.183,0.76101,-0.25367,-1.9989,1.0147,4.0784e-13,-0.99945,0,0,0.1,-1.8948e-15,0,0.66667
0.8573,0.41572,8.573,-0.12642,-4.3957,27.942,2.89,-0.96335,-1.9446,3.8534,-2.0108e-09,-0.97228,0,0,0.1,1.8948e-15,0,0.66667
0.68111,0.25069,6.8111,-0.37396,-26.566,126.11,6.7922,-2.2641,-1.5013,9.0563,2.5802e-13,-0.75066,0,0,0.1,-0,-0,0.66667
0.23698,0.83918,2.3698,0.50878,63.867,589.91,-3.2152,1.0717,-1.0808,-4.287,1.8991e-11,-0.54041,0,0,0.1,-2.3685e-16,0,0.66667
0.92572,0.51923,9.2572,0.028851,0.53346,8.23,-0.71222,0.23741,-1.9959,-0.94963,6.5394e-08,-0.99797,0,0,0.1,-0,-0,0.66667
0.7812,0.11394,7.812,-0.57909,-29.956,63.442,12.064,-4.0212,-0.81255,16.085,2.4239e-11,-0.40627,0,0,0.1,-0,-1.0832e-16,0.66667
0.30738,0.49613,3.0738,-0.0057996,-0.69682,501.77,0.047538,-0.015846,-1.9985,0.063384,-1.2324e-11,-0.99927,0,0,0.1,2.0943e-16,0,0.66667
0.30497,0.48863,3.0497,-0.01706,-2.0532,504.72,0.13874,-0.046246,-1.9958,0.18499,-1.2667e-11,-0.99791,0,0,0.1,-0,-0,0.66667
0.88117,0.86905,8.8117,0.55357,16.353,20.966,-13.008,4.3359,-0.90816,-17.344,1.8158e-08,-0.45408,0,0,0.1,4.737e-16,0,0.66667
0.12608,0.013482,1.2608,-0.72978,-95.734,734.35,2.4536,-0.81786,-0.1092,3.2714,-5.958e-08,-0.054599,0,0,0.1,-0,-0,0.66667
0.63346,0.53289,6.3346,0.049335,3.9097,162.45,-0.83338,0.27779,-1.9895,-1.1112,-5.7331e-12,-0.99474,0,0,0.1,1.8948e-15,0,0.66667
0.27771,0.88961,2.7771,0.58441,71.778,538.78,-4.328,1.4427,-0.78479,-5.7706,-9.0252e-12,-0.3924,0,0,0.1,-0,-0,0.66667
0.8272,0.52638,8.272,0.039564,1.6426,39.973,-0.87272,0.29091,-1.9983,-1.1636,-1.6295e-10,-0.99914,0,0,0.1,-0,-0,0.66667
0.36452,0.116,3.6452,-0.576,-66.457,433.92,5.5991,-1.8664,-0.81833,7.4654,-5.2451e-12,-0.40916,0,0,0.1,-0,-0,0.66667
0.73337,0.36189,7.3337,-0.20717,-12.655,90.284,4.0515,-1.3505,-1.8503,5.402,6.9722e-12,-0.92517,0,0,0.1,-9.4739e-16,0,0.66667
0.19242,0.32021,1.9242,-0.26968,-34.489,647,1.3838,-0.46125,-1.7397,1.845,1.6464e-11,-0.86985,0,0,0.1,-0,-0,0.66667
0.48145,0.39505,4.8145,-0.15742,-16.036,303.96,2.021,-0.67368,-1.9119,2.6947,-3.6737e-12,-0.95596,0,0,0.1,-4.737e-16,0,0.66667
0.80359,0.072667,8.0359,-0.641,-30.175,52.316,13.736,-4.5787,-0.53618,18.315,1.4581e-09,-0.26809,0,0,0.1,-0,-0,0.66667
0.39699,0.93731,3.9699,0.65596,73.588,396.68,-6.9442,2.3147,-0.46876,-9.259,-6.5836e-12,-0.23438,0,0,0.1,-5.3296e-16,0,0.66667
0.16157,0.78485,1.6157,0.42728,55.315,687.34,-1.841,0.61367,-1.3494,-2.4547,-7.0557e-10,-0.67471,0,0,0.1,-0,-0,0.66667
0.64898,0.91393,6.4898,0.6209,47.805,151.15,-10.745,3.5818,-0.62647,-14.327,-1.1458e-13,-0.31324,0,0,0.1,-0,-0,0.66667
0.75333,0.81254,7.5333,0.46881,26.868,78.69,-9.4177,3.1392,-1.2197,-12.557,1.5814e-11,-0.60983,0,0,0.1,1.8948e-15,0,0.66667
0.28019,0.73733,2.8019,0.35599,43.578,535.43,-2.6599,0.88663,-1.5523,-3.5465,1.555e-12,-0.77613,0,0,0.1,-8.0551e-16,0,0.66667
0.45136,0.10988,4.5136,-0.58519,-61.995,336.4,7.0435,-2.3478,-0.78402,9.3913,-3.9231e-12,-0.39201,0,0,0.1,-0,-1.4984e-16,0.66667
0.90045,0.57259,9.0045,0.10888,2.6844,14.233,-2.6144,0.87147,-1.9553,-3.4859,2.1842e-08,-0.97766,0,0,0.1,1.8948e-15,0,0.66667
0.87199,0.004456,8.7199,-0.74332,-23.743,24.873,17.284,-5.7614,-0.03615,23.046,1.2924e-08,-0.018075,0,0,0.1,-0,-0,0.66667
0.70719,0.87298,7.0719,0.55947,37.144,108.29,-10.551,3.5169,-0.88699,-14.067,-1.4463e-11,-0.44349,0,0,0.1,-1.0658e-15,0,0.66667
0.5909,0.40418,5.909,-0.14373,-12.392,198.57,2.2649,-0.75495,-1.9278,3.0198,-5.7812e-12,-0.96392,0,0,0.1,3.5527e-16,0,0.66667
0.81738,0.75078,8.1738,0.37617,16.482,44.86,-8.1993,2.7331,-1.4963,-10.932,1.5943e-10,-0.74814,0,0,0.1,1.8948e-15,0,0.66667
0.90764,0.010909,9.0764,-0.73364,-17.215,14.502,17.757,-5.9189,-0.088689,23.676,4.0458e-07,-0.044345,0,0,0.1,-3.7896e-15,0,0.66667
0.0025076,0.92261,0.025076,0.63392,84.416,899.68,-0.042383,0.014145,-0.57171,-0.056501,2.6537e-05,-0.28586,0,0,0.1,-0,-0,0.66667
0.39723,0.48711,3.9723,-0.019334,-2.1598,395.65,0.2048,-0.068267,-1.9956,0.27307,-2.3439e-12,-0.99782,0,0,0.1,-0,-0,0.66667
0.56141,0.24989,5.6141,-0.37516,-34.091,225.55,5.6165,-1.8722,-1.504,7.4887,-8.2689e-13,-0.752,0,0,0.1,-1.4063e-16,0,0.66667
0.73392,0.44019,7.3392,-0.089712,-5.467,89.819,1.7558,-0.58526,-1.9765,2.341,4.6241e-13,-0.98825,0,0,0.1,-0,-0,0.66667
0.087473,0.34063,0.87473,-0.23905,-31.505,785.51,0.55762,-0.18587,-1.7949,0.74349,4.7347e-08,-0.89747,0,0,0.1,-1.4803e-16,0,0.66667
0.39975,0.93919,3.9975,0.65879,73.713,393.55,-7.0228,2.3409,-0.4552,-9.3637,-8.1934e-12,-0.2276,0,0,0.1,-0,-0,0.66667
0.27962,0.30149,2.7962,-0.29777,-36.452,536.09,2.2203,-0.74011,-1.6867,2.9604,-9.74e-12,-0.84335,0,0,0.1,-0,-0,0.66667
0.42351,0.045443,4.2351,-0.68183,-74.536,367.01,7.7004,-2.5668,-0.34885,10.267,7.887e-13,-0.17442,0,0,0.1,-0,-0,0.66667
0.49798,0.49162,4.9798,-0.012567,-1.2527,286.91,0.16688,-0.055626,-2.001,0.2225,1.865e-12,-1.0005,0,0,0.1,-0,-0,0.66667
0.66002,0.99133,6.6002,0.73699,55.444,143.06,-12.971,4.3238,-0.068006,-17.295,2.5615e-12,-0.034003,0,0,0.1,-9.4739e-16,0,0.66667
0.49624,0.47526,4.9624,-0.037117,-3.7087,288.69,0.49117,-0.16372,-1.9946,0.65489,4.4579e-12,-0.99729,0,0,0.1,-9.4739e-16,0,0.66667
0.62047,0.63776,6.2047,0.20664,16.834,173.26,-3.4191,1.1397,-1.8464,-4.5587,-4.6918e-13,-0.92319,0,0,0.1,-0,-0,0.66667
0.58244,0.67442,5.8244,0.26162,22.915,206.21,-4.0635,1.3545,-1.755,-5.4179,5.6088e-13,-0.87751,0,0,0.1,-0,-0,0.66667
0.42833,0.77768,4.2833,0.41652,45.179,361.13,-4.7576,1.5859,-1.3811,-6.3435,1.3394e-12,-0.69056,0,0,0.1,-1.1842e-16,0,0.66667
0.0049764,0.32716,0.049764,-0.25926,-34.434,896.35,0.034404,-0.011468,-1.7588,0.045873,7.4808e-07,-0.8794,0,0,0.1,7.4015e-18,0,0.66667
0.19452,0.8919,1.9452,0.58785,75.283,644.51,-3.0493,1.0164,-0.76811,-4.0657,-9.615e-10,-0.38406,0,0,0.1,2.3685e-16,0,0.66667
0.32021,0.038666,3.2021,-0.692,-82.746,486.85,5.9089,-1.9696,-0.29456,7.8785,6.7737e-12,-0.14728,0,0,0.1,-0,-0,0.66667
0.14698,0.086344,1.4698,-0.62048,-80.83,706.66,2.4319,-0.81065,-0.62858,3.2426,3.2308e-09,-0.31429,0,0,0.1,-0,-0,0.66667
0.59866,0.59796,5.9866,0.14693,12.487,191.77,-2.3457,0.78191,-1.922,-3.1276,2.2045e-12,-0.96099,0,0,0.1,-1.8948e-15,0,0.66667
0.6115,0.027467,6.115,-0.7088,-59.123,182.05,11.558,-3.8527,-0.21572,15.411,3.1175e-13,-0.10786,0,0,0.1,-9.4739e-16,0,0.66667
0.50009,0.58909,5.0009,0.13363,13.286,284.81,-1.7821,0.59404,-1.942,-2.3762,-3.4932e-12,-0.971,0,0,0.1,-0,-0,0.66667
0.32085,0.72846,3.2085,0.3427,40.831,485.56,-2.9321,0.97737,-1.5794,-3.9095,-6.1351e-12,-0.78972,0,0,0.1,-0,-0,0.66667
0.65326,0.81442,6.5326,0.47163,35.882,147.34,-8.2159,2.7386,-1.2103,-10.954,-1.2434e-13,-0.60513,0,0,0.1,-0,-0,0.66667
0.19028,0.88368,1.9028,0.57551,73.819,649.99,-2.9203,0.97343,-0.82277,-3.8937,-4.2765e-11,-0.41139,0,0,0.1,-0,-0,0.66667
0.005881,0.86649,0.05881,0.54974,73.147,895.14,-0.086209,0.028733,-0.92304,-0.11495,-5.1047e-06,-0.46152,0,0,0.1,-0,-1.2544e-16,0.66667
0.73494,0.94806,7.3494,0.67209,41.132,90.628,-13.172,4.3907,-0.39781,-17.563,-9.1029e-12,-0.19891,0,0,0.1,-1.8948e-15,0,0.66667
0.4435,0.12524,4.435,-0.56214,-60.066,344.83,6.6483,-2.2161,-0.87525,8.8644,-3.7654e-12,-0.43762,0,0,0.1,-0,-0,0.66667
0.69784,0.71755,6.9784,0.32633,22.167,114.08,-6.0727,2.0242,-1.6204,-8.0969,-1.9891e-12,-0.8102,0,0,0.1,-0,-0,0.66667
0.18504,0.80562,1.8504,0.45842,58.863,656.7,-2.2621,0.75403,-1.2539,-3.0161,-3.8288e-10,-0.62694,0,0,0.1,1.1842e-16,0,0.66667
0.06262,0.48742,0.6262,-0.018872,-2.4954,818.78,0.031514,-0.010505,-2.0034,0.042019,-2.0699e-07,-1.0017,0,0,0.1,-1.1842e-16,0,0.66667
0.37811,0.25503,3.7811,-0.36746,-41.827,417.81,3.7051,-1.235,-1.5204,4.9401,-6.8678e-13,-0.76018,0,0,0.1,-9.4739e-16,0,0.66667
0.696,0.35236,6.96,-0.22147,-15.107,115.2,4.1104,-1.3701,-1.8227,5.4805,-9.5257e-13,-0.91137,0,0,0.1,1.8948e-15,0,0.66667
0.10282,0.38054,1.0282,-0.17919,-23.541,765.01,0.49131,-0.16377,-1.8835,0.65508,2.443e-08,-0.94174,0,0,0.1,-2.3685e-16,0,0.66667
0.19583,0.081027,1.9583,-0.62846,-80.472,642.85,3.282,-1.094,-0.59251,4.376,6.2121e-11,-0.29625,0,0,0.1,-2.3685e-16,0,0.66667
0.45395,0.55058,4.5395,0.07587,7.9876,332.94,-0.91844,0.30615,-1.9829,-1.2246,-1.254e-12,-0.99143,0,0,0.1,-0,-0,0.66667
0.62115,0.86793,6.2115,0.5519,45.047,173.41,-9.1417,3.0472,-0.91632,-12.189,-5.5245e-13,-0.45816,0,0,0.1,-9.4739e-16,0,0.66667
0.75012,0.59935,7.5012,0.14902,8.6059,79.93,-2.981,0.99366,-1.9263,-3.9746,-8.5973e-12,-0.96317,0,0,0.1,-0,-0,0.66667
0.10974,0.20433,1.0974,-0.44351,-58.254,755.87,1.2978,-0.43261,-1.3048,1.7304,2.3382e-08,-0.65238,0,0,0.1,-0,-0,0.66667
0.62462,0.058156,6.2462,-0.66277,-53.807,170.91,11.039,-3.6798,-0.44317,14.719,-2.7995e-12,-0.22159,0,0,0.1,1.4211e-15,5.6693e-17,0.66667
0.38736,0.64797,3.8736,0.22195,25.035,407,-2.2927,0.76422,-1.8247,-3.0569,-6.7462e-12,-0.91235,0,0,0.1,-0,-0,0.66667
0.67009,0.59954,6.7009,0.1493,10.885,133.9,-2.6679,0.8893,-1.923,-3.5572,1.0119e-12,-0.96149,0,0,0.1,-0,-0,0.66667
0.20356,0.092263,2.0356,-0.61161,-78.049,632.84,3.32,-1.1067,-0.67537,4.4266,1.4125e-09,-0.33769,0,0,0.1,5.9212e-17,0,0.66667
0.52792,0.88719,5.2792,0.58078,55.72,257.87,-8.1761,2.7254,-0.80017,-10.902,-3.4328e-12,-0.40008,0,0,0.1,9.4739e-16,0,0.66667
0.17216,0.54261,1.7216,0.063922,8.2333,673.34,-0.29347,0.097822,-1.9899,-0.39129,-5.2624e-11,-0.99493,0,0,0.1,-0,-0,0.66667
0.018681,0.21477,0.18681,-0.42784,-56.858,877.9,0.21314,-0.071046,-1.3498,0.28418,-1.6377e-06,-0.67492,0,0,0.1,3.7007e-17,0,0.66667
0.48695,0.3608,4.8695,-0.2088,-21.126,298.3,2.7114,-0.90379,-1.8454,3.6152,-4.5473e-12,-0.92269,0,0,0.1,9.4739e-16,0,0.66667
0.18418,0.015697,1.8418,-0.72646,-93.549,658.08,3.5679,-1.1893,-0.12301,4.7572,-1.0684e-09,-0.061504,0,0,0.1,4.737e-16,-1.1842e-16,0.66667
0.63834,0.33396,6.3834,-0.24906,-19.547,158.67,4.2396,-1.4132,-1.7805,5.6528,-2.0393e-12,-0.89024,0,0,0.1,9.4739e-16,0,0.66667
0.53657,0.61863,5.3657,0.17794,16.797,248.76,-2.5461,0.84869,-1.8856,-3.3948,-1.7237e-12,-0.94278,0,0,0.1,4.737e-16,0,0.66667
0.77495,0.14834,7.7495,-0.52749,-27.939,66.613,10.901,-3.6336,-1.0081,14.534,3.6976e-11,-0.50405,0,0,0.1,4.737e-16,0,0.66667
0.39296,0.65092,3.9296,0.22637,25.402,400.6,-2.3721,0.79072,-1.8193,-3.1629,-6.3163e-12,-0.90963,0,0,0.1,7.1054e-16,0,0.66667
0.98945,0.018834,9.8945,-0.72175,-1.9882,2.588,19.044,-6.3479,-0.14582,25.391,-6.5899e-05,-0.072911,0,0,0.1,-0,-0,0.66667
0.51521,0.15826,5.1521,-0.5126,-50.045,270.19,7.0427,-2.3476,-1.0711,9.3902,4.8104e-12,-0.53553,0,0,0.1,-1.8948e-15,-1.0365e-16,0.66667
0.47882,0.23182,4.7882,-0.40227,-41.172,306.98,5.1364,-1.7121,-1.4221,6.8486,-5.6617e-12,-0.71104,0,0,0.1,9.4739e-16,0,0.66667
0.74944,0.96057,7.4944,0.69086,40.316,81.854,-13.807,4.6023,-0.30709,-18.409,2.567e-11,-0.15355,0,0,0.1,-4.737e-16,0,0.66667
0.57269,0.078966,5.7269,-0.63155,-56.482,215.85,9.6448,-3.2149,-0.57932,12.86,1.4939e-12,-0.28966,0,0,0.1,9.4739e-16,0,0.66667
0.36247,0.14557,3.6247,-0.53165,-61.419,436.25,5.1388,-1.7129,-0.99488,6.8517,-3.0513e-12,-0.49744,0,0,0.1,-0,-0,0.66667
0.48924,0.76299,4.8924,0.39448,39.841,296.18,-5.1466,1.7155,-1.4446,-6.8621,-2.8111e-13,-0.72231,0,0,0.1,-0,-0,0.66667
0.18914,0.049393,1.8914,-0.67591,-86.823,651.58,3.4091,-1.1364,-0.37747,4.5454,1.8499e-09,-0.18873,0,0,0.1,2.3685e-16,0,0.66667
0.39358,0.03785,3.9358,-0.69323,-78.053,400.64,7.2758,-2.4253,-0.29177,9.701,-3.8565e-12,-0.14588,0,0,0.1,-9.4739e-16,0,0.66667
0.029962,0.78925,0.29962,0.43387,57.629,862.72,-0.34666,0.11555,-1.3335,-0.46221,1.5636e-06,-0.66674,0,0,0.1,-0,-0,0.66667
0.46253,0.54319,4.6253,0.064779,6.7519,323.78,-0.79899,0.26633,-1.9822,-1.0653,-2.1645e-12,-0.99112,0,0,0.1,-0,-0,0.66667
0.27447,0.1732,2.7447,-0.49019,-60.271,542.68,3.5879,-1.196,-1.1425,4.7838,-9.5057e-12,-0.57125,0,0,0.1,-0,-0,0.66667
0.52672,0.24332,5.2672,-0.38502,-36.929,258.6,5.4079,-1.8026,-1.4716,7.2106,2.5446e-13,-0.73581,0,0,0.1,-0,-0,0.66667
0.029272,0.34476,0.29272,-0.23287,-30.899,863.63,0.18177,-0.060591,-1.8099,0.24236,-4.6177e-07,-0.90497,0,0,0.1,-0,-0,0.66667
0.55509,0.75952,5.5509,0.38928,35.746,231.46,-5.7623,1.9208,-1.4582,-7.683,-1.0019e-12,-0.72909,0,0,0.1,-9.4739e-16,0,0.66667
0.293,0.15396,2.93,-0.51905,-63.108,519.77,4.0555,-1.3518,-1.0421,5.4073,4.7202e-12,-0.52105,0,0,0.1,-5.9212e-16,0,0.66667
0.57749,0.82766,5.7749,0.49149,43.514,211.1,-7.5689,2.523,-1.1447,-10.092,3.1086e-14,-0.57234,0,0,0.1,9.4739e-16,0,0.66667
0.73277,0.38579,7.3277,-0.17131,-10.482,90.616,3.3475,-1.1158,-1.8977,4.4633,3.0003e-12,-0.94884,0,0,0.1,1.8948e-15,0,0.66667
0.44034,0.74866,4.4034,0.37299,39.925,347.92,-4.3798,1.4599,-1.5068,-5.8397,-5.8176e-13,-0.7534,0,0,0.1,-3.5527e-16,0,0.66667
0.66316,0.62919,6.6316,0.19379,14.37,139.18,-3.4271,1.1424,-1.8642,-4.5694,2.0961e-12,-0.93211,0,0,0.1,-0,-0,0.66667
0.23891,0.21644,2.3891,-0.42534,-53.307,587.38,2.7098,-0.90328,-1.3561,3.6131,-2.8159e-11,-0.67806,0,0,0.1,5.9212e-16,0,0.66667
0.9986,0.98727,9.986,0.7309,0.25139,2.3935,-19.463,6.4876,-0.10233,-25.951,-8.6893e-05,-0.051164,0,0,0.1,-1.8948e-15,0,0.66667
0.24288,0.21943,2.4288,-0.42085,-52.635,582.34,2.7258,-0.90859,-1.3686,3.6344,-3.3803e-11,-0.6843,0,0,0.1,-0,-0,0.66667
0.94083,0.90488,9.4083,0.60732,9.1774,6.9567,-15.237,5.0789,-0.68941,-20.316,-1.8968e-06,-0.3447,0,0,0.1,7.1054e-16,0,0.66667
0.21722,0.6298,2.1722,0.1947,24.629,614.94,-1.1278,0.37593,-1.868,-1.5037,4.9122e-11,-0.93401,0,0,0.1,-4.737e-16,0,0.66667
0.49756,0.75145,4.9756,0.37717,37.675,287.65,-5.0045,1.6682,-1.4962,-6.6727,-2.6792e-12,-0.74808,0,0,0.1,-0,-0,0.66667
0.82118,0.56522,8.2118,0.097829,4.1919,42.664,-2.1423,0.71409,-1.964,-2.8564,-7.5681e-11,-0.98198,0,0,0.1,-0,-0,0.66667
0.71659,0.62571,7.1659,0.18856,12.128,101.11,-3.6032,1.2011,-1.8761,-4.8042,-5.3877e-12,-0.93806,0,0,0.1,1.8948e-15,0,0.66667
0.70558,0.075836,7.0558,-0.63625,-42.495,109.67,11.971,-3.9904,-0.56126,15.962,-4.9392e-12,-0.28063,0,0,0.1,-0,-0,0.66667
0.44044,0.58317,4.4044,0.12475,13.336,347.57,-1.4652,0.4884,-1.9447,-1.9536,-2.2569e-12,-0.97236,0,0,0.1,4.737e-16,0,0.66667
0.75418,0.18171,7.5418,-0.47743,-27.285,78.217,9.6017,-3.2006,-1.1887,12.802,-7.1196e-12,-0.59436,0,0,0.1,1.4211e-15,0,0.66667
0.91995,0.63514,9.1995,0.20271,4.0441,9.6173,-4.9728,1.6576,-1.8555,-6.6304,5.3851e-08,-0.92773,0,0,0.1,1.8948e-15,0,0.66667
0.44135,0.94394,4.4135,0.66591,71.411,347.41,-7.8374,2.6125,-0.42273,-10.45,3.2854e-12,-0.21136,0,0,0.1,-0,-0,0.66667
0.52797,0.39689,5.2797,-0.15466,-14.787,257.09,2.1775,-0.72583,-1.9147,2.9033,-3.2123e-12,-0.95734,0,0,0.1,-0,-0,0.66667
0.066036,0.1883,0.66036,-0.46756,-61.902,814.26,0.82334,-0.27445,-1.2234,1.0978,2.1065e-07,-0.61171,0,0,0.1,-0,-0,0.66667
0.39077,0.48207,3.9077,-0.026899,-3.0232,403.01,0.2803,-0.093434,-2.002,0.37374,-1.9765e-12,-1.001,0,0,0.1,-0,-0,0.66667
0.46724,0.66215,4.6724,0.24322,25.223,318.91,-3.0304,1.0101,-1.7923,-4.0406,-1.2697e-12,-0.89617,0,0,0.1,9.4739e-16,0,0.66667
0.89514,0.65452,8.9514,0.23177,6.019,15.848,-5.5325,1.8442,-1.8085,-7.3767,2.511e-08,-0.90426,0,0,0.1,-2.2501e-15,0,0.66667
0.11056,0.3013,1.1056,-0.29806,-39.109,754.72,0.87873,-0.29291,-1.6868,1.1716,2.1867e-08,-0.84342,0,0,0.1,1.1842e-16,0,0.66667
0.73114,0.51735,7.3114,0.026019,1.5995,91.556,-0.50728,0.16909,-1.9971,-0.67638,-2.9198e-12,-0.99856,0,0,0.1,-0,-0,0.66667
0.54547,0.94781,5.4547,0.67172,62.836,241.26,-9.7707,3.2569,-0.39811,-13.028,-7.4074e-13,-0.19906,0,0,0.1,-0,-0,0.66667
0.60654,0.59221,6.0654,0.13832,11.58,184.97,-2.2372,0.74574,-1.9334,-2.983,-1.5026e-12,-0.96669,0,0,0.1,-0,-0,0.66667
0.029783,0.4091,0.29783,-0.13635,-18.087,862.94,0.10829,-0.036096,-1.9371,0.14439,-1.4979e-07,-0.96856,0,0,0.1,-0,-0,0.66667
0.14675,0.22104,1.4675,-0.41844,-54.423,706.83,1.6375,-0.54583,-1.3758,2.1833,1.8169e-09,-0.68789,0,0,0.1,-0,-0,0.66667
0.28398,0.21564,2.8398,-0.42655,-52.118,530.8,3.2302,-1.0767,-1.3544,4.3069,-6.6065e-12,-0.67718,0,0,0.1,1.1842e-16,0,0.66667
0.004872,0.14516,0.04872,-0.53225,-70.811,896.5,0.069148,-0.023047,-0.99075,0.092198,3.0363e-06,-0.49538,0,0,0.1,-0,2.1686e-16,0.66667
0.66916,0.64221,6.6916,0.21332,15.592,134.67,-3.8065,1.2688,-1.8384,-5.0753,5.127e-13,-0.9192,0,0,0.1,1.5495e-16,0,0.66667
0.87026,0.40426,8.7026,-0.14361,-4.5655,23.391,3.3327,-1.1109,-1.9259,4.4436,-4.7015e-09,-0.96297,0,0,0.1,2.3685e-16,0,0.66667
0.54697,0.56226,5.4697,0.093392,8.6732,238.77,-1.3622,0.45407,-1.9753,-1.8163,-2.2482e-12,-0.98765,0,0,0.1,5.9212e-17,0,0.66667
0.54316,0.57776,5.4316,0.11664,10.898,242.4,-1.6895,0.56317,-1.9506,-2.2527,-7.8382e-13,-0.97529,0,0,0.1,-9.4739e-16,0,0.66667
0.61573,0.47887,6.1573,-0.031693,-2.6053,177.12,0.52039,-0.17346,-1.9936,0.69385,2.7484e-13,-0.99682,0,0,0.1,-0,-0,0.66667
0.30218,0.58409,3.0218,0.12614,15.211,508.15,-1.0165,0.33882,-1.9412,-1.3553,2.4004e-12,-0.97062,0,0,0.1,-2.3685e-16,0,0.66667
0.36673,0.30941,3.6673,-0.28588,-32.849,430.94,2.7958,-0.93193,-1.7073,3.7277,-4.8785e-12,-0.85363,0,0,0.1,-1.2827e-16,0,0.66667
0.57494,0.057366,5.7494,-0.66395,-59.18,213.92,10.18,-3.3932,-0.43294,13.573,1.8607e-12,-0.21647,0,0,0.1,-9.4739e-16,0,0.66667
0.80922,0.8387,8.0922,0.50805,23.221,49.076,-10.963,3.6544,-1.0825,-14.618,-9.1305e-12,-0.54124,0,0,0.1,1.4211e-15,0,0.66667
0.2016,0.013761,2.016,-0.72936,-93.272,635.52,3.921,-1.307,-0.11058,5.228,7.6289e-11,-0.05529,0,0,0.1,-0,1.1674e-16,0.66667
0.32752,0.86471,3.2752,0.54707,64.968,477.77,-4.7781,1.5927,-0.93974,-6.3707,-1.9984e-14,-0.46987,0,0,0.1,-0,1.1745e-16,0.66667
0.74292,0.040584,7.4292,-0.68912,-41.107,85.778,13.652,-4.5508,-0.30856,18.203,2.0278e-11,-0.15428,0,0,0.1,-0,-0,0.66667
0.34092,0.65421,3.4092,0.23131,27.135,461.36,-2.1029,0.70098,-1.8111,-2.8039,-7.8835e-12,-0.90554,0,0,0.1,-5.9212e-17,0,0.66667
0.047611,0.94025,0.47611,0.66037,87.764,839.04,-0.83842,0.27947,-0.45399,-1.1179,-5.072e-06,-0.22699,0,0,0.1,1.1842e-16,0,0.66667
0.15636,0.26646,1.5636,-0.35032,-45.407,694.15,1.4607,-0.48688,-1.5683,1.9475,1.4256e-09,-0.78415,0,0,0.1,-0,-0,0.66667
0.19386,0.58058,1.9386,0.12086,15.441,645.07,-0.62483,0.20828,-1.9451,-0.83311,-3.1852e-11,-0.97255,0,0,0.1,-0,-0,0.66667
0.49511,0.78932,4.9511,0.43398,43.511,290.25,-5.7299,1.91,-1.3286,-7.6398,-3.6962e-12,-0.6643,0,0,0.1,9.4739e-16,0,0.66667
0.63512,0.63286,6.3512,0.19929,15.745,161.2,-3.3752,1.1251,-1.8566,-4.5003,-1.0481e-12,-0.92832,0,0,0.1,-0,-0,0.66667
0.88022,0.0020914,8.8022,-0.74686,-22.423,22.245,17.531,-5.8436,-0.015592,23.374,-1.9843e-08,-0.0077961,0,0,0.1,-0,-0,0.66667
0.90254,0.40366,9.0254,-0.14451,-3.4916,13.719,3.478,-1.1593,-1.9259,4.6373,-2.2802e-08,-0.96295,0,0,0.1,-9.4739e-16,0,0.66667
0.30716,0.062185,3.0716,-0.65672,-79.212,502.62,5.3792,-1.7931,-0.46572,7.1722,-8.2183e-12,-0.23286,0,0,0.1,5.4031e-16,0,0.66667
0.75338,0.33584,7.5338,-0.24625,-14.069,78.125,4.9471,-1.649,-1.7842,6.5961,1.4702e-11,-0.89208,0,0,0.1,-0,-0,0.66667
0.28243,0.7144,2.8243,0.3216,39.306,532.63,-2.4221,0.80736,-1.6357,-3.2294,-1.4588e-13,-0.81787,0,0,0.1,4.737e-16,0,0.66667
0.36858,0.63641,3.6858,0.20461,23.465,428.72,-2.0111,0.67035,-1.8482,-2.6814,-7.546e-12,-0.92412,0,0,0.1,-0,-0,0.66667
0.29273,0.73827,2.9273,0.3574,43.409,519.92,-2.7899,0.92997,-1.5444,-3.7199,2.8777e-13,-0.77222,0,0,0.1,-0,-0,0.66667
0.41369,0.29463,4.1369,-0.30806,-33.895,377.25,3.3984,-1.1328,-1.6594,4.5312,-1.551e-12,-0.82968,0,0,0.1,-0,-0,0.66667
0.21472,0.87385,2.1472,0.56078,71.179,618.43,-3.2109,1.0703,-0.88196,-4.2812,-4.3521e-10,-0.44098,0,0,0.1,5.3291e-16,0,0.66667
0.31899,0.42615,3.1899,-0.11077,-13.203,487.66,0.94223,-0.31408,-1.9535,1.2563,-8.6141e-12,-0.97673,0,0,0.1,-4.737e-16,0,0.66667
0.12192,0.71705,1.2192,0.32558,42.611,739.63,-1.0585,0.35284,-1.6242,-1.4114,-1.0676e-08,-0.81208,0,0,0.1,-2.9606e-16,0,0.66667
0.96302,0.1153,9.6302,-0.57705,-5.4482,3.7502,14.819,-4.9397,-0.81359,19.759,-3.2711e-06,-0.40679,0,0,0.1,-0,-0,0.66667
0.50398,0.67603,5.0398,0.26404,26.128,280.99,-3.5486,1.1829,-1.7509,-4.7315,-2.3521e-12,-0.87545,0,0,0.1,4.737e-16,0,0.66667
0.9231,0.88493,9.231,0.5774,11.248,10.14,-14.213,4.7378,-0.81733,-18.951,4.2011e-08,-0.40867,0,0,0.1,-0,-0,0.66667
0.74616,0.9877,7.4616,0.73155,43.213,84.014,-14.556,4.852,-0.096098,-19.408,3.4222e-12,-0.048049,0,0,0.1,-1.8948e-15,0,0.66667
0.45771,0.88457,4.5771,0.57686,60.664,329.59,-7.0409,2.347,-0.81518,-9.3878,2.5491e-13,-0.40759,0,0,0.1,-0,-0,0.66667
0.75462,0.99464,7.5462,0.74197,42.584,79.036,-14.931,4.9769,-0.041428,-19.908,8.5434e-12,-0.020714,0,0,0.1,2.3416e-15,0,0.66667
0.62802,0.44552,6.2802,-0.081714,-6.5509,166.9,1.3685,-0.45616,-1.9764,1.8246,-3.213e-13,-0.98822,0,0,0.1,-0,-0,0.66667
0.30376,0.47262,3.0376,-0.041073,-4.9472,506.2,0.3327,-0.1109,-1.9918,0.4436,-4.7967e-12,-0.9959,0,0,0.1,-0,-0,0.66667
0.52166,0.73312,5.2166,0.34968,33.776,263.5,-4.8643,1.6214,-1.5624,-6.4858,-2.5429e-12,-0.7812,0,0,0.1,9.4739e-16,0,0.66667
0.71231,0.97797,7.1231,0.71696,47.055,105.47,-13.619,4.5396,-0.16958,-18.158,-4.2188e-13,-0.08479,0,0,0.1,-1.8948e-15,0,0.66667
0.30531,0.19038,3.0531,-0.46442,-55.984,504.59,3.7812,-1.2604,-1.231,5.0416,4.3365e-13,-0.61551,0,0,0.1,9.4739e-16,0,0.66667
0.012523,0.6668,0.12523,0.2502,33.226,886.18,-0.083554,0.027851,-1.7773,-0.11141,-1.3432e-07,-0.88863,0,0,0.1,-0,-0,0.66667
0.26826,0.88778,2.6826,0.58167,71.839,550.55,-4.1611,1.387,-0.79737,-5.5481,-6.1435e-12,-0.39869,0,0,0.1,4.737e-16,0,0.66667
0.79675,0.20249,7.9675,-0.44626,-21.561,54.936,9.4815,-3.1605,-1.2965,12.642,1.0029e-10,-0.64826,0,0,0.1,-0,-0,0.66667
0.92999,0.8512,9.2999,0.52679,9.3345,8.5209,-13.064,4.3548,-1.0105,-17.419,1.8554e-07,-0.50525,0,0,0.1,-0,-0,0.66667
0.62533,0.44,6.2533,-0.089998,-7.2556,169.12,1.5008,-0.50025,-1.9766,2.001,5.0548e-13,-0.98829,0,0,0.1,-0,-0,0.66667
0.13281,0.95638,1.3281,0.68456,89.598,725.41,-2.4244,0.80813,-0.33057,-3.2325,-1.1851e-08,-0.16528,0,0,0.1,2.3685e-16,0,0.66667
0.75757,0.0092579,7.5757,-0.73611,-41.804,77.289,14.871,-4.957,-0.070387,19.828,-1.3535e-11,-0.035193,0,0,0.1,3.7896e-15,0,0.66667
0.52691,0.42966,5.2691,-0.10552,-10.103,258.09,1.4826,-0.4942,-1.9592,1.9768,-2.1195e-12,-0.97958,0,0,0.1,-0,-0,0.66667
0.75387,0.1487,7.5387,-0.52696,-30.175,78.564,10.593,-3.5312,-1.0119,14.125,1.0119e-11,-0.50597,0,0,0.1,9.4739e-16,0,0.66667
0.85861,0.76819,8.5861,0.40229,13.928,28.019,-9.2109,3.0703,-1.428,-12.281,3.4004e-09,-0.71399,0,0,0.1,9.4739e-16,0,0.66667
0.94754,0.89185,9.4754,0.58778,7.8744,5.8031,-14.852,4.9506,-0.769,-19.803,-4.9892e-07,-0.3845,0,0,0.1,1.8948e-15,0,0.66667
0.65454,0.021498,6.5454,-0.71775,-54.665,147.19,12.528,-4.176,-0.17021,16.704,-1.1546e-14,-0.085105,0,0,0.1,-0,-0,0.66667
0.85426,0.1742,8.5426,-0.4887,-17.445,29.916,11.133,-3.7109,-1.1486,14.844,-6.2823e-10,-0.57428,0,0,0.1,-0,-0,0.66667
0.74259,0.27224,7.4259,-0.34164,-20.275,84.799,6.7652,-2.2551,-1.5821,9.0203,1.244e-11,-0.79103,0,0,0.1,-9.4739e-16,0,0.66667
0.7271,0.47237,7.271,-0.041443,-2.5803,94.137,0.80355,-0.26785,-1.9917,1.0714,-6.4582e-13,-0.99583,0,0,0.1,-0,-0,0.66667
0.85879,0.72938,8.5879,0.34407,11.883,27.788,-7.8795,2.6265,-1.5829,-10.506,3.7136e-09,-0.79147,0,0,0.1,-0,-0,0.66667
0.923,0.33756,9.23,-0.24366,-4.6831,9.0361,5.9972,-1.9991,-1.7922,7.9963,-7.4143e-08,-0.89611,0,0,0.1,-0,-0,0.66667
0.90208,0.11229,9.0208,-0.58156,-14.307,15.111,13.99,-4.6632,-0.796,18.653,-3.3611e-08,-0.398,0,0,0.1,-0,-0,0.66667
0.39575,0.53705,3.9575,0.055571,6.2167,397.33,-0.58646,0.19549,-1.9874,-0.78194,-8.5988e-12,-0.99369,0,0,0.1,-0,-0,0.66667
0.084021,0.70793,0.84021,0.3119,41.143,790.14,-0.69884,0.23295,-1.6515,-0.93178,-5.8292e-08,-0.82574,0,0,0.1,1.1842e-16,0,0.66667
0.82957,0.33773,8.2957,-0.24341,-9.9926,39.159,5.3847,-1.7949,-1.7921,7.1796,-4.2436e-10,-0.89605,0,0,0.1,1.4211e-15,0,0.66667
0.53893,0.70795,5.3893,0.31193,29.36,246.65,-4.4829,1.4943,-1.6509,-5.9772,-7.8471e-13,-0.82546,0,0,0.1,-4.737e-16,0,0.66667
0.54208,0.18818,5.4208,-0.46772,-43.871,243.93,6.7611,-2.2537,-1.2217,9.0148,-1.3474e-12,-0.61083,0,0,0.1,-0,-0,0.66667
0.82518,0.04348,8.2518,-0.68478,-29.067,42.573,15.068,-5.0228,-0.33267,20.091,1.27e-09,-0.16633,0,0,0.1,-0,-0,0.66667
0.031984,0.64623,0.31984,0.21934,29.098,859.98,-0.18708,0.062359,-1.8326,-0.24944,3.3708e-07,-0.91628,0,0,0.1,2.9606e-17,0,0.66667
0.87796,0.85818,8.7796,0.53727,16.265,21.905,-12.579,4.1929,-0.97352,-16.772,4.1818e-09,-0.48676,0,0,0.1,1.8948e-15,0,0.66667
0.034634,0.10827,0.34634,-0.5876,-78.121,856.46,0.5427,-0.1809,-0.7717,0.7236,1.1508e-06,-0.38585,0,0,0.1,-0,-0,0.66667
0.69319,0.75452,6.9319,0.38179,26.279,117.47,-7.0574,2.3525,-1.4799,-9.4099,1.5024e-12,-0.73996,0,0,0.1,-1.8948e-15,0,0.66667
0.58748,0.6131,5.8748,0.16966,14.72,201.61,-2.6579,0.88596,-1.8948,-3.5438,1.3498e-12,-0.9474,0,0,0.1,-9.4739e-16,0,0.66667
0.64175,0.98961,6.4175,0.73441,57.576,157.3,-12.568,4.1894,-0.085151,-16.758,1.4095e-12,-0.042575,0,0,0.1,-1.8948e-15,0,0.66667
0.37408,0.89815,3.7408,0.59722,68.359,422.84,-5.9576,1.9859,-0.73526,-7.9435,-3.3533e-12,-0.36763,0,0,0.1,-0,9.0958e-17,0.66667
0.27546,0.88701,2.7546,0.58051,71.392,541.57,-4.2642,1.4214,-0.79916,-5.6856,-1.0422e-11,-0.39958,0,0,0.1,-4.737e-16,0,0.66667
0.50941,0.79628,5.0941,0.44442,43.711,275.83,-6.0371,2.0124,-1.2948,-8.0495,-2.5113e-12,-0.6474,0,0,0.1,-0,-0,0.66667
0.88582,0.53092,8.8582,0.046373,1.3044,18.346,-1.0954,0.36514,-1.9919,-1.4606,6.6641e-09,-0.99596,0,0,0.1,6.5133e-16,0,0.66667
0.56529,0.80762,5.6529,0.46144,41.697,222.15,-6.9559,2.3186,-1.2438,-9.2745,1.4424e-12,-0.62191,0,0,0.1,-9.4739e-16,0,0.66667
0.66315,0.6661,6.6315,0.24915,18.481,139.26,-4.4059,1.4686,-1.7764,-5.8745,2.1494e-13,-0.88818,0,0,0.1,-0,-0,0.66667
0.44138,0.72586,4.4138,0.33878,36.214,346.74,-3.9875,1.3292,-1.5912,-5.3167,-2.7593e-12,-0.7956,0,0,0.1,-0,-0,0.66667
0.97214,0.95255,9.7214,0.67883,4.9015,3.4109,-17.598,5.8659,-0.36093,-23.464,-4.0969e-05,-0.18046,0,0,0.1,-0,-0,0.66667
0.74252,0.69855,7.4252,0.29783,17.67,84.747,-5.8971,1.9657,-1.6815,-7.8628,-1.3857e-11,-0.84075,0,0,0.1,1.8948e-15,0,0.66667
0.3549,0.034236,3.549,-0.69865,-81.366,445.46,6.612,-2.204,-0.26384,8.816,-6.3993e-13,-0.13192,0,0,0.1,-0,-9.687e-17,0.66667
0.65353,0.85951,6.5353,0.53926,41.04,147.32,-9.3979,3.1326,-0.96622,-12.531,3.1264e-13,-0.48311,0,0,0.1,-7.7394e-16,0,0.66667
0.54262,0.68063,5.4262,0.27094,25.352,243.06,-3.9205,1.3068,-1.7379,-5.2273,1.3247e-12,-0.86896,0,0,0.1,-9.4739e-16,0,0.66667
0.88406,0.56841,8.8406,0.10262,2.9301,18.915,-2.4192,0.8064,-1.9601,-3.2256,4.151e-09,-0.98007,0,0,0.1,-0,-0,0.66667
0.27505,0.7112,2.7505,0.3168,38.893,541.79,-2.3237,0.77456,-1.6407,-3.0982,3.7474e-12,-0.82034,0,0,0.1,-2.3685e-16,0,0.66667
0.10807,0.49788,1.0807,-0.0031736,-0.41635,758,0.0091457,-0.0030485,-2.0036,0.012194,4.3894e-08,-1.0018,0,0,0.1,3.8488e-16,0,0.66667
0.19127,0.27824,1.9127,-0.33264,-42.573,648.52,1.6967,-0.56555,-1.6066,2.2622,5.0463e-12,-0.80329,0,0,0.1,2.9606e-16,0,0.66667
0.38705,0.027195,3.8705,-0.70921,-80.352,408.15,7.3199,-2.44,-0.21169,9.7599,3.1082e-12,-0.10584,0,0,0.1,-0,-0,0.66667
0.85406,0.008419,8.5406,-0.73737,-26.588,31.148,16.794,-5.5979,-0.064698,22.391,1.3395e-09,-0.032349,0,0,0.1,3.7896e-15,0,0.66667
0.27084,0.34259,2.7084,-0.23611,-29.048,546.99,1.7053,-0.56844,-1.8009,2.2737,-9.1317e-12,-0.90043,0,0,0.1,-6.5133e-16,0,0.66667
0.62636,0.29184,6.2636,-0.31224,-25.148,168.52,5.2153,-1.7384,-1.6558,6.9537,-5.3646e-13,-0.8279,0,0,0.1,-0,-0,0.66667
0.62355,0.55158,6.2355,0.077368,6.2602,170.59,-1.2865,0.42883,-1.981,-1.7153,-1.3253e-12,-0.9905,0,0,0.1,9.4739e-16,0,0.66667
0.40805,0.34272,4.0805,-0.23591,-26.094,383.51,2.567,-0.85568,-1.8051,3.4227,1.301e-12,-0.90257,0,0,0.1,-2.3685e-16,0,0.66667
0.050335,0.80148,0.50335,0.45223,59.976,835.33,-0.60701,0.20234,-1.2723,-0.80934,-2.3418e-07,-0.63613,0,0,0.1,-0,-0,0.66667
0.74483,0.34505,7.4483,-0.23243,-13.675,83.223,4.6165,-1.5388,-1.807,6.1554,1.1155e-11,-0.9035,0,0,0.1,-0,-0,0.66667
0.29573,0.0011921,2.9573,-0.74821,-91.035,516.8,5.9004,-1.9668,-0.013621,7.8672,-9.7167e-13,-0.0068105,0,0,0.1,-0,-0,0.66667
0.39846,0.50377,3.9846,0.0056558,0.63107,394.25,-0.060096,0.020032,-1.9976,-0.080128,-2.1353e-12,-0.99879,0,0,0.1,-0,-0,0.66667
0.37724,0.090199,3.7724,-0.6147,-70.179,419.22,6.1837,-2.0612,-0.65839,8.245,-6.9589e-12,-0.32919,0,0,0.1,-1.1842e-16,0,0.66667
0.6636,0.65591,6.636,0.23387,17.328,138.89,-4.1386,1.3795,-1.8039,-5.5181,3.4595e-13,-0.90195,0,0,0.1,-5.9212e-17,0,0.66667
0.086333,0.94906,0.86333,0.67359,89.067,787.18,-1.5508,0.51692,-0.3836,-2.0677,6.454e-07,-0.1918,0,0,0.1,-0,-0,0.66667
0.54989,0.84911,5.4989,0.52366,48.552,236.65,-7.6788,2.5596,-1.0255,-10.238,3.0598e-13,-0.51276,0,0,0.1,-0,-0,0.66667
0.015422,0.066782,0.15422,-0.64983,-86.529,882.3,0.26723,-0.089064,-0.50387,0.35631,1.9086e-05,-0.25193,0,0,0.1,5.9212e-17,0,0.66667
0.98304,0.22499,9.8304,-0.41252,-1.6821,1.3652,10.814,-3.6046,-1.3979,14.418,1.0267e-06,-0.69894,0,0,0.1,-0,-0,0.66667
0.59843,0.68225,5.9843,0.27337,23.258,192.12,-4.3624,1.4541,-1.7331,-5.8166,-6.6036e-13,-0.86654,0,0,0.1,4.737e-16,0,0.66667
0.38411,0.18432,3.8411,-0.47351,-53.654,411.03,4.8502,-1.6167,-1.2008,6.467,-4.7851e-12,-0.60041,0,0,0.1,5.9212e-16,0,0.66667
0.14675,0.18052,1.4675,-0.47922,-62.354,706.87,1.8753,-0.6251,-1.1811,2.5004,1.0814e-09,-0.59054,0,0,0.1,1.1842e-16,0,0.66667
0.69688,0.70564,6.9688,0.30847,21.006,114.72,-5.7324,1.9108,-1.6588,-7.6432,-2.8644e-12,-0.82939,0,0,0.1,9.4739e-16,0,0.66667
0.90581,0.105,9.0581,-0.5925,-14.051,14.206,14.312,-4.7706,-0.75589,19.082,-8.2789e-08,-0.37795,0,0,0.1,-0,-0,0.66667
0.31811,0.035867,3.1811,-0.6962,-83.377,489.4,5.9058,-1.9686,-0.27486,7.8744,1.6511e-12,-0.13743,0,0,0.1,9.4739e-16,0,0.66667
0.76649,0.77633,7.6649,0.41449,22.629,70.936,-8.4722,2.8241,-1.3931,-11.296,-1.2593e-11,-0.69655,0,0,0.1,-0,-0,0.66667
0.2875,0.49678,2.875,-0.0048277,-0.58767,526.21,0.037012,-0.012337,-1.998,0.04935,-2.0794e-12,-0.99902,0,0,0.1,8.2897e-16,0,0.66667
0.95723,0.087171,9.5723,-0.61924,-6.7974,4.642,15.807,-5.2689,-0.63571,21.076,-8.9777e-06,-0.31785,0,0,0.1,9.4739e-16,0,0.66667
0.70232,0.87702,7.0232,0.56552,38.068,111.65,-10.591,3.5305,-0.86742,-14.122,-1.025e-11,-0.43371,0,0,0.1,1.8948e-15,2.8595e-17,0.66667
0.62502,0.99442,6.2502,0.74162,60.245,170.89,-12.361,4.1202,-0.049959,-16.481,-1.8217e-12,-0.02498,0,0,0.1,-0,-0,0.66667
0.93073,0.56922,9.3073,0.10383,1.7919,7.275,-2.5769,0.85897,-1.9591,-3.4359,5.7322e-08,-0.97955,0,0,0.1,-0,-0,0.66667
0.26904,0.060942,2.6904,-0.65859,-81.368,549.69,4.725,-1.575,-0.4585,6.3,-6.8914e-12,-0.22925,0,0,0.1,-5.3291e-16,0,0.66667
0.92362,0.47562,9.2362,-0.036571,-0.69519,8.6688,0.90074,-0.30025,-1.9974,1.201,1.4567e-08,-0.99871,0,0,0.1,-0,-0,0.66667
0.67808,0.036546,6.7808,-0.69518,-50.015,129.36,12.57,-4.1901,-0.27949,16.761,1.2905e-12,-0.13975,0,0,0.1,-0,-0,0.66667
0.77136,0.4331,7.7136,-0.10035,-5.3614,67.661,2.0642,-0.68806,-1.9624,2.7522,-4.8397e-12,-0.98118,0,0,0.1,-4.737e-16,0,0.66667
0.57164,0.27649,5.7164,-0.33526,-29.938,216.08,5.1105,-1.7035,-1.5981,6.8141,-1.3589e-13,-0.79907,0,0,0.1,-1.1842e-15,0,0.66667
0.8339,0.78749,8.339,0.43123,17.345,37.789,-9.5894,3.1965,-1.3367,-12.786,4.055e-10,-0.66835,0,0,0.1,-0,-0,0.66667
0.69828,0.39135,6.9828,-0.16297,-11.044,113.53,3.0346,-1.0115,-1.9035,4.0462,-3.435e-13,-0.95173,0,0,0.1,9.4739e-16,0,0.66667
0.14661,0.36408,1.4661,-0.20388,-26.489,706.93,0.79706,-0.26569,-1.8495,1.0628,2.2076e-09,-0.92477,0,0,0.1,-0,-0,0.66667
0.61246,0.20542,6.1246,-0.44187,-36.648,180.4,7.2168,-2.4056,-1.3055,9.6224,-1.096e-12,-0.65275,0,0,0.1,9.4739e-16,0,0.66667
0.27932,0.22966,2.7932,-0.40551,-49.682,536.56,3.0205,-1.0068,-1.4168,4.0273,-8.8742e-12,-0.70841,0,0,0.1,-0,-0,0.66667
0.91588,0.58691,9.1588,0.13036,2.7276,10.432,-3.1839,1.0613,-1.9373,-4.2452,3.1538e-08,-0.96864,0,0,0.1,5.4231e-16,0,0.66667
0.19823,0.49436,1.9823,-0.008458,-1.0785,639.4,0.044711,-0.014904,-1.9983,0.059614,1.6038e-10,-0.99915,0,0,0.1,-0,-0,0.66667
0.28572,0.16717,2.8572,-0.49924,-60.969,528.73,3.8037,-1.2679,-1.1122,5.0717,-3.7932e-12,-0.55609,0,0,0.1,4.737e-16,0,0.66667
0.047655,0.83148,0.47655,0.49722,65.983,838.94,-0.63186,0.21062,-1.1244,-0.84248,-6.7861e-07,-0.56218,0,0,0.1,-5.9212e-17,0,0.66667
0.44758,0.19944,4.4758,-0.45084,-47.902,340.2,5.381,-1.7937,-1.2748,7.1747,-5.3255e-12,-0.6374,0,0,0.1,9.4739e-16,0,0.66667
0.55759,0.7771,5.5759,0.41565,38.021,229.18,-6.1803,2.0601,-1.3845,-8.2403,-2.7924e-12,-0.69225,0,0,0.1,1.5144e-15,0,0.66667
0.57356,0.51667,5.7356,0.024998,2.222,214.04,-0.38235,0.12745,-1.9959,-0.5098,-5.6093e-12,-0.99796,0,0,0.1,1.8948e-15,0,0.66667
0.90538,0.20224,9.0538,-0.44664,-10.569,13.705,10.783,-3.5945,-1.2938,14.378,-3.581e-08,-0.64692,0,0,0.1,-1.8948e-15,0,0.66667
0.34741,0.90464,3.4741,0.60696,71.038,454.12,-5.6231,1.8744,-0.69052,-7.4975,1.299e-12,-0.34526,0,0,0.1,-6.5133e-16,0,0.66667
0.44753,0.45731,4.4753,-0.06404,-6.7914,339.86,0.76426,-0.25475,-1.9829,1.019,-1.1568e-12,-0.99146,0,0,0.1,-0,-0,0.66667
0.85124,0.61128,8.5124,0.16691,6.0364,30.257,-3.7889,1.263,-1.8977,-5.0518,1.964e-09,-0.94885,0,0,0.1,-9.4739e-16,0,0.66667
0.57683,0.091069,5.7683,-0.6134,-54.455,212.04,9.4353,-3.1451,-0.66576,12.58,1.716e-12,-0.33288,0,0,0.1,1.1842e-16,0,0.66667
0.65399,0.08345,6.5399,-0.62483,-47.566,147.25,10.897,-3.6323,-0.61292,14.529,-1.2461e-12,-0.30646,0,0,0.1,9.4739e-16,-1.0467e-16,0.66667
0.27836,0.55505,2.7836,0.082573,10.109,537.56,-0.61293,0.20431,-1.9762,-0.81725,-3.5714e-12,-0.98809,0,0,0.1,-0,-0,0.66667
0.48747,0.0074161,4.8747,-0.73888,-75.094,298.85,9.6048,-3.2016,-0.059044,12.806,2.915e-12,-0.029522,0,0,0.1,-1.8948e-15,0,0.66667
0.62095,0.24362,6.2095,-0.38457,-31.339,173.14,6.368,-2.1227,-1.4734,8.4906,2.2693e-13,-0.73668,0,0,0.1,-9.4739e-16,0,0.66667
0.13339,0.17423,1.3339,-0.48866,-63.831,724.5,1.7383,-0.57942,-1.1478,2.3177,8.6639e-09,-0.57389,0,0,0.1,-0,-0,0.66667
0.032909,0.9427,0.32909,0.66404,88.359,858.79,-0.58275,0.19425,-0.43472,-0.777,4.4918e-06,-0.21736,0,0,0.1,-0,-0,0.66667
0.11341,0.72853,1.1341,0.3428,44.96,750.94,-1.0367,0.34557,-1.581,-1.3823,-1.784e-08,-0.79052,0,0,0.1,-0,-0,0.66667
0.47746,0.4321,4.7746,-0.10185,-10.426,308.07,1.2968,-0.43226,-1.9607,1.729,-3.9667e-12,-0.98034,0,0,0.1,-0,-0,0.66667
0.024027,0.41009,0.24027,-0.13487,-17.895,870.69,0.08641,-0.028803,-1.9331,0.11521,-1.6931e-07,-0.96653,0,0,0.1,-0,-0,0.66667
0.62621,0.93658,6.2621,0.65487,52.985,169.57,-10.936,3.6452,-0.47924,-14.581,-2.7027e-12,-0.23962,0,0,0.1,1.125e-15,0,0.66667
0.097583,0.47113,0.97583,-0.043299,-5.6931,771.98,0.11267,-0.037558,-1.9934,0.15023,8.2866e-09,-0.9967,0,0,0.1,-0,-0,0.66667
0.25096,0.46193,2.5096,-0.057099,-7.1005,571.91,0.38212,-0.12737,-1.9919,0.50949,-4.6497e-12,-0.99596,0,0,0.1,2.3685e-16,0,0.66667
0.42649,0.58072,4.2649,0.12108,13.139,362.86,-1.3771,0.45903,-1.946,-1.8361,-5.5644e-12,-0.973,0,0,0.1,-0,-0,0.66667
0.11583,0.15506,1.1583,-0.51741,-67.904,747.81,1.5981,-0.53271,-1.0466,2.1308,-6.0185e-09,-0.52329,0,0,0.1,-2.9606e-16,0,0.66667
0.27055,0.64958,2.7055,0.22436,27.606,547.35,-1.6187,0.53957,-1.8194,-2.1583,-3.5638e-13,-0.9097,0,0,0.1,1.602e-16,0,0.66667
0.02108,0.41103,0.2108,-0.13346,-17.712,874.66,0.075022,-0.025008,-1.935,0.10003,-1.5877e-07,-0.96748,0,0,0.1,-0,-0,0.66667
0.98505,0.91164,9.8505,0.61746,2.3278,2.1776,-16.219,5.4064,-0.64866,-21.626,1.5106e-05,-0.32433,0,0,0.1,-0,-0,0.66667
0.61157,0.91266,6.1157,0.61899,51.548,181.66,-10.095,3.3649,-0.63922,-13.46,1.7373e-12,-0.31961,0,0,0.1,-0,-0,0.66667
0.37835,0.31733,3.7835,-0.27401,-31.166,417.42,2.7646,-0.92154,-1.7332,3.6862,-4.4786e-12,-0.86661,0,0,0.1,-0,-0,0.66667
0.026528,0.47707,0.26528,-0.034398,-4.5632,867.32,0.024334,-0.0081116,-1.9942,0.032445,-3.3187e-07,-0.99708,0,0,0.1,-0,-0,0.66667
0.38984,0.1005,3.8984,-0.59925,-67.631,404.7,6.2296,-2.0765,-0.72704,8.3062,-3.8187e-12,-0.36352,0,0,0.1,-0,-8.0205e-17,0.66667
0.45256,0.60277,4.5256,0.15416,16.259,334.48,-1.8604,0.62014,-1.9195,-2.4806,2.2538e-14,-0.95976,0,0,0.1,-0,-0,0.66667
0.931,0.20014,9.31,-0.44978,-7.8221,8.016,11.167,-3.7222,-1.2777,14.889,-1.9709e-07,-0.63885,0,0,0.1,-0,-0,0.66667
0.2785,0.23484,2.785,-0.39774,-48.751,537.57,2.9539,-0.98463,-1.4377,3.9385,-8.0684e-12,-0.71884,0,0,0.1,-0,-0,0.66667
0.61478,0.45624,6.1478,-0.065639,-5.406,177.92,1.0761,-0.3587,-1.9822,1.4348,6.7457e-13,-0.99112,0,0,0.1,-0,-0,0.66667
0.66517,0.4662,6.6517,-0.050705,-3.7399,137.55,0.89939,-0.2998,-1.9889,1.1992,-2.1412e-12,-0.99447,0,0,0.1,4.737e-16,0,0.66667
0.18596,0.22814,1.8596,-0.40778,-52.323,655.47,2.0222,-0.67406,-1.411,2.6962,3.1611e-11,-0.7055,0,0,0.1,-0,-0,0.66667
0.50576,0.12311,5.0576,-0.56534,-55.954,279.76,7.6247,-2.5416,-0.86222,10.166,1.2257e-13,-0.43111,0,0,0.1,-3.5527e-16,0,0.66667
0.7865,0.58694,7.865,0.13041,6.5585,59.535,-2.7352,0.91174,-1.9377,-3.647,-9.1505e-13,-0.96883,0,0,0.1,4.737e-16,0,0.66667
0.096579,0.3125,0.96579,-0.28125,-37.009,773.35,0.72434,-0.24145,-1.7205,0.96579,3.9953e-08,-0.86024,0,0,0.1,-0,-0,0.66667
0.60604,0.021674,6.0604,-0.71749,-60.494,186.74,11.595,-3.8651,-0.16928,15.46,-8.7397e-13,-0.084639,0,0,0.1,-0,1.0067e-16,0.66667
0.02606,0.10322,0.2606,-0.59518,-79.175,867.99,0.41361,-0.13788,-0.73839,0.55147,-1.5442e-05,-0.3692,0,0,0.1,-5.9212e-17,0,0.66667
0.0070467,0.81731,0.070467,0.47597,63.293,893.57,-0.089439,0.029811,-1.1921,-0.11925,-2.7163e-06,-0.59606,0,0,0.1,-0,-0,0.66667
0.059529,0.029081,0.59529,-0.70638,-93.803,823.07,1.1213,-0.37378,-0.227,1.4951,-1.3421e-05,-0.1135,0,0,0.1,2.9606e-17,0,0.66667
0.4814,0.75066,4.814,0.376,38.351,304.25,-4.8268,1.6089,-1.4987,-6.4357,-2.8044e-12,-0.74937,0,0,0.1,1.8948e-15,0,0.66667
0.9257,0.30437,9.257,-0.29345,-5.453,8.5843,7.244,-2.4147,-1.693,9.6586,-1.0671e-07,-0.84652,0,0,0.1,-0,-0,0.66667
0.40556,0.40507,4.0556,-0.1424,-15.784,386.25,1.54,-0.51334,-1.9328,2.0534,-1.3363e-12,-0.96642,0,0,0.1,4.737e-16,0,0.66667
0.075033,0.5209,0.75033,0.031349,4.1381,802.14,-0.062725,0.020908,-1.9964,-0.083634,-3.6855e-08,-0.99819,0,0,0.1,-1.1842e-16,0,0.66667
0.86135,0.6872,8.6135,0.2808,9.5214,26.712,-6.4499,2.15,-1.7225,-8.5998,4.6741e-09,-0.86127,0,0,0.1,-7.1054e-16,0,0.66667
0.5193,0.30955,5.193,-0.28568,-27.676,265.73,3.9561,-1.3187,-1.7099,5.2748,-2.6623e-12,-0.85497,0,0,0.1,1.1842e-16,0,0.66667
0.31894,0.62751,3.1894,0.19127,22.804,487.76,-1.6267,0.54224,-1.8681,-2.169,-2.1766e-12,-0.93405,0,0,0.1,9.4739e-16,0,0.66667
0.96303,0.80991,9.6303,0.46486,4.3309,3.2483,-11.938,3.9793,-1.2302,-15.917,4.4263e-07,-0.61508,0,0,0.1,2.1316e-15,0,0.66667
0.93826,0.4091,9.3826,-0.13635,-2.0986,5.9296,3.4115,-1.1372,-1.9384,4.5487,-3.5657e-08,-0.96919,0,0,0.1,-0,-0,0.66667
0.26002,0.97233,2.6002,0.7085,88.035,561.07,-4.9126,1.6375,-0.2136,-6.5502,2.3201e-11,-0.1068,0,0,0.1,-0,-0,0.66667
0.20139,0.64727,2.0139,0.22091,28.142,635.35,-1.1864,0.39546,-1.8284,-1.5818,1.6261e-11,-0.91422,0,0,0.1,-0,-0,0.66667
0.58891,0.78847,5.8891,0.4327,37.516,200.76,-6.7953,2.2651,-1.3327,-9.0604,3.4328e-13,-0.66634,0,0,0.1,-0,-0,0.66667
0.84252,0.0061131,8.4252,-0.74083,-28.651,35.618,16.644,-5.5481,-0.051731,22.192,4.7635e-09,-0.025865,0,0,0.1,-0,-0,0.66667
0.33672,0.21691,3.3672,-0.42464,-50.031,466.56,3.8129,-1.271,-1.357,5.0839,-4.2231e-12,-0.6785,0,0,0.1,6.5133e-16,0,0.66667
0.58643,0.57577,5.8643,0.11366,9.8782,202.51,-1.7774,0.59248,-1.9509,-2.3699,1.1091e-12,-0.97543,0,0,0.1,-9.4739e-16,0,0.66667
0.16224,0.9534,1.6224,0.6801,88.223,686.66,-2.9425,0.98083,-0.35258,-3.9233,3.5436e-09,-0.17629,0,0,0.1,-0,-0,0.66667
0.19459,0.060445,1.9459,-0.65933,-84.495,644.49,3.4214,-1.1405,-0.45241,4.5618,-2.272e-09,-0.2262,0,0,0.1,3.5527e-16,0,0.66667
0.76134,0.9671,7.6134,0.70065,39.219,74.948,-14.225,4.7416,-0.2543,-18.966,1.1044e-11,-0.12715,0,0,0.1,1.1842e-16,0,0.66667
0.1501,0.4822,1.501,-0.026707,-3.4651,702.3,0.1069,-0.035632,-1.9946,0.14253,-2.2272e-10,-0.99729,0,0,0.1,2.3685e-16,0,0.66667
0.26591,0.28937,2.6591,-0.31595,-38.996,553.22,2.2403,-0.74678,-1.6497,2.9871,-1.3878e-11,-0.82487,0,0,0.1,-0,-0,0.66667
0.68949,0.45338,6.8949,-0.06993,-4.8509,119.66,1.2858,-0.42859,-1.9838,1.7144,-4.3243e-13,-0.99192,0,0,0.1,-0,-0,0.66667
0.015089,0.70277,0.15089,0.30415,40.396,882.73,-0.12239,0.040796,-1.6749,-0.16318,1.7312e-07,-0.83743,0,0,0.1,-2.9606e-17,0,0.66667
0.032194,0.21036,0.32194,-0.43446,-57.7,859.71,0.37299,-0.12433,-1.3322,0.49733,-8.4442e-07,-0.66612,0,0,0.1,-0,-0,0.66667
0.28753,0.13666,2.8753,-0.54502,-66.511,526.56,4.1788,-1.3929,-0.94099,5.5718,-3.8503e-12,-0.47049,0,0,0.1,4.737e-16,0,0.66667
0.33662,0.26819,3.3662,-0.34771,-40.949,466.59,3.1213,-1.0404,-1.567,4.1617,-4.1371e-12,-0.78348,0,0,0.1,-0,-0,0.66667
0.36222,0.8167,3.6222,0.47505,54.864,436.45,-4.5885,1.5295,-1.1985,-6.118,-5.6199e-12,-0.59927,0,0,0.1,-0,-0,0.66667
0.80719,0.88738,8.0719,0.58106,26.86,50.324,-12.507,4.1692,-0.79714,-16.677,3.9858e-10,-0.39857,0,0,0.1,-0,-0,0.66667
0.035981,0.10633,0.35981,-0.59051,-78.502,854.65,0.56659,-0.18886,-0.75822,0.75546,3.0794e-06,-0.37911,0,0,0.1,-0,-0,0.66667
0.3584,0.41538,3.584,-0.12693,-14.679,440.6,1.2131,-0.40437,-1.946,1.6175,-4.5259e-12,-0.97298,0,0,0.1,9.4739e-16,0,0.66667
0.63828,0.69615,6.3828,0.29422,23.102,158.79,-5.0079,1.6693,-1.6932,-6.6772,1.0569e-13,-0.84662,0,0,0.1,-0,-0,0.66667
0.143,0.43995,1.43,-0.09007,-11.712,711.66,0.34348,-0.11449,-1.973,0.45797,2.2086e-09,-0.98651,0,0,0.1,4.737e-16,0,0.66667
0.85774,0.92906,8.5774,0.64359,22.58,29.299,-14.721,4.907,-0.52941,-19.628,-2.4203e-08,-0.2647,0,0,0.1,-0,-9.3364e-17,0.66667
0.64556,0.89482,6.4556,0.59223,45.925,153.74,-10.195,3.3984,-0.75088,-13.594,-2.9488e-13,-0.37544,0,0,0.1,-0,-0,0.66667
0.11529,0.65348,1.1529,0.23022,30.166,748.41,-0.7078,0.23593,-1.8099,-0.94373,-1.5086e-08,-0.90495,0,0,0.1,1.4803e-16,0,0.66667
0.2081,0.95595,2.081,0.68393,87.175,627.08,-3.7953,1.2651,-0.3347,-5.0604,-1.3807e-10,-0.16735,0,0,0.1,-0,-0,0.66667
0.7455,0.23223,7.455,-0.40166,-23.624,83.175,7.985,-2.6617,-1.4246,10.647,1.0493e-11,-0.7123,0,0,0.1,-0,-0,0.66667
0.40341,0.77653,4.0341,0.41479,46.138,388.95,-4.4622,1.4874,-1.3891,-5.9495,-4.3463e-12,-0.69455,0,0,0.1,2.3886e-16,0,0.66667
0.48447,0.70486,4.8447,0.30728,31.206,300.97,-3.9699,1.3233,-1.669,-5.2931,-1.3984e-12,-0.83448,0,0,0.1,-0,-0,0.66667
0.88746,0.48642,8.8746,-0.020371,-0.5651,17.851,0.4821,-0.1607,-1.9981,0.64279,-2.7045e-09,-0.99907,0,0,0.1,9.4739e-16,0,0.66667
0.13744,0.35178,1.3744,-0.22233,-28.966,719.03,0.81488,-0.27163,-1.8242,1.0865,4.4514e-09,-0.91211,0,0,0.1,-0,-0,0.66667
0.96437,0.15595,9.6437,-0.51608,-4.6572,3.3186,13.272,-4.424,-1.053,17.696,-7.0762e-07,-0.52648,0,0,0.1,1.954e-15,0,0.66667
0.04263,0.63231,0.4263,0.19847,26.307,845.65,-0.22562,0.075206,-1.8588,-0.30082,1.0629e-07,-0.92942,0,0,0.1,-0,-0,0.66667
0.09944,0.69079,0.9944,0.28618,37.637,769.53,-0.75887,0.25296,-1.7072,-1.0118,-3.7006e-08,-0.85359,0,0,0.1,-0,-0,0.66667
0.22324,0.15437,2.2324,-0.51845,-65.523,607.45,3.0863,-1.0288,-1.0438,4.1151,-1.6736e-11,-0.52191,0,0,0.1,-1.1842e-16,0,0.66667
0.80659,0.14196,8.0659,-0.53706,-24.868,50.437,11.552,-3.8505,-0.97168,15.402,1.9871e-10,-0.48584,0,0,0.1,-9.4739e-16,0,0.66667
0.45587,0.70461,4.5587,0.30691,32.268,331.06,-3.731,1.2437,-1.6652,-4.9747,-1.5947e-12,-0.83262,0,0,0.1,-0,-0,0.66667
0.65325,0.76015,6.5325,0.39022,29.661,147.14,-6.7977,2.2659,-1.4586,-9.0636,3.7481e-13,-0.7293,0,0,0.1,-0,-0,0.66667
0.17432,0.64782,1.7432,0.22173,28.547,670.55,-1.0307,0.34357,-1.8261,-1.3743,-3.1069e-10,-0.91306,0,0,0.1,1.1842e-16,0,0.66667
0.16672,0.18163,1.6672,-0.47756,-61.739,680.63,2.1232,-0.70773,-1.1874,2.8309,1.1589e-10,-0.59371,0,0,0.1,9.8719e-17,0,0.66667
0.52085,0.11611,5.2085,-0.57583,-55.811,264.78,7.9978,-2.6659,-0.81898,10.664,1.1635e-12,-0.40949,0,0,0.1,-0,-0,0.66667
0.74029,0.50936,7.4029,0.014033,0.83744,85.824,-0.27702,0.09234,-1.9968,-0.36936,2.1408e-12,-0.99839,0,0,0.1,-0,-0,0.66667
0.46247,0.45731,4.6247,-0.064035,-6.6748,323.84,0.78972,-0.26324,-1.9826,1.053,-7.2981e-13,-0.99129,0,0,0.1,4.737e-16,0,0.66667
0.86961,0.95095,8.6961,0.67642,21.912,25.298,-15.686,5.2287,-0.37069,-20.915,-5.6154e-09,-0.18535,0,0,0.1,-0,-0,0.66667
0.66041,0.42284,6.6041,-0.11573,-8.635,141.2,2.0382,-0.67939,-1.9509,2.7176,-2.0015e-12,-0.97544,0,0,0.1,-0,-0,0.66667
0.24909,0.48536,2.4909,-0.021962,-2.7338,574.28,0.14588,-0.048627,-2.0014,0.19451,-9.7426e-12,-1.0007,0,0,0.1,-4.737e-16,0,0.66667
0.2349,0.11236,2.349,-0.58147,-73.116,592.64,3.6423,-1.2141,-0.80171,4.8565,-1.5609e-11,-0.40086,0,0,0.1,-2.3685e-16,0,0.66667
0.37405,0.95986,3.7405,0.6898,79.043,423.08,-6.8804,2.2935,-0.31151,-9.1739,-6.8212e-13,-0.15575,0,0,0.1,4.737e-16,0,0.66667
0.75662,0.29089,7.5662,-0.31367,-17.729,76.352,6.3287,-2.1096,-1.6473,8.4383,2.3717e-11,-0.82367,0,0,0.1,-1.8948e-15,0,0.66667
0.93794,0.59003,9.3794,0.13505,2.0894,5.9846,-3.3777,1.1259,-1.9401,-4.5036,3.3255e-08,-0.97006,0,0,0.1,2.3685e-15,0,0.66667
0.86191,0.86889,8.6191,0.55334,18.823,27.385,-12.718,4.2393,-0.91243,-16.957,-1.4591e-09,-0.45621,0,0,0.1,-0,-0,0.66667
0.26161,0.10899,2.6161,-0.58651,-72.716,558.89,4.0917,-1.3639,-0.77555,5.4556,7.4749e-12,-0.38777,0,0,0.1,-4.737e-16,0,0.66667
0.41228,0.82737,4.1228,0.49105,54.181,379.1,-5.3986,1.7995,-1.1398,-7.1982,-8.2157e-14,-0.5699,0,0,0.1,-0,-0,0.66667
0.61154,0.33883,6.1154,-0.24176,-20.053,180.81,3.9426,-1.3142,-1.7939,5.2568,-2.4514e-12,-0.89697,0,0,0.1,2.3685e-16,0,0.66667
0.54683,0.62379,5.4683,0.18569,17.254,238.95,-2.7078,0.9026,-1.8836,-3.6104,-8.0358e-13,-0.94181,0,0,0.1,-2.3685e-16,0,0.66667
0.38927,0.98299,3.8927,0.72448,81.932,405.63,-7.5206,2.5069,-0.13607,-10.027,1.7093e-12,-0.068037,0,0,0.1,-9.4739e-16,0,0.66667
0.10142,0.62979,1.0142,0.19469,25.586,766.87,-0.52656,0.17552,-1.8628,-0.70207,-2.84e-08,-0.93138,0,0,0.1,-0,-0,0.66667
0.71224,0.91716,7.1224,0.62575,40.997,105.13,-11.885,3.9616,-0.60489,-15.847,3.3333e-12,-0.30245,0,0,0.1,-0,-0,0.66667
0.088135,0.25882,0.88135,-0.36176,-47.699,784.65,0.85024,-0.28341,-1.5324,1.1337,4.1107e-08,-0.76618,0,0,0.1,-0,-0,0.66667
0.86608,0.13337,8.6608,-0.54994,-18.176,25.907,12.701,-4.2337,-0.92192,16.935,1.7156e-10,-0.46096,0,0,0.1,-0,-0,0.66667
0.86345,0.45144,8.6345,-0.072843,-2.4293,25.685,1.6772,-0.55908,-1.9797,2.2363,-1.6398e-09,-0.98987,0,0,0.1,-0,-0,0.66667
0.70845,0.56295,7.0845,0.094423,6.2167,106.48,-1.7838,0.59461,-1.9675,-2.3784,-1.1974e-12,-0.98373,0,0,0.1,-0,-0,0.66667
0.48642,0.019851,4.8642,-0.72022,-73.276,299.87,9.3423,-3.1141,-0.15692,12.456,-4.4516e-12,-0.078462,0,0,0.1,-0,-0,0.66667
0.69915,0.99142,6.9915,0.73713,50.228,114.53,-13.743,4.581,-0.067072,-18.324,-1.7231e-13,-0.033536,0,0,0.1,1.8948e-15,0,0.66667
0.39499,0.35642,3.9499,-0.21538,-24.121,398.28,2.2686,-0.75619,-1.8334,3.0247,-6.3061e-14,-0.91672,0,0,0.1,-0,-0,0.66667
0.7975,0.047867,7.975,-0.6782,-32.843,55.485,14.423,-4.8077,-0.36823,19.231,1.3669e-09,-0.18411,0,0,0.1,-0,-0,0.66667
0.78642,0.17392,7.8642,-0.48912,-24.719,60.355,10.257,-3.4191,-1.1471,13.676,1.9535e-11,-0.57354,0,0,0.1,-0,-0,0.66667
0.15553,0.89369,1.5553,0.59053,76.702,695.39,-2.4492,0.81639,-0.76358,-3.2656,4.1978e-09,-0.38179,0,0,0.1,-1.8418e-16,1.1388e-16,0.66667
0.31782,0.39291,3.1782,-0.16064,-19.165,489.1,1.3614,-0.4538,-1.9058,1.8152,-8.591e-12,-0.95292,0,0,0.1,-4.737e-16,0,0.66667
0.34398,0.73087,3.4398,0.3463,40.551,457.81,-3.1766,1.0589,-1.5781,-4.2354,-3.1586e-12,-0.78903,0,0,0.1,-0,-0,0.66667
0.36417,0.16084,3.6417,-0.50873,-58.675,434.22,4.9404,-1.6468,-1.0786,6.5872,-2.4656e-12,-0.53928,0,0,0.1,-9.4739e-16,0,0.66667
0.56665,0.61345,5.6665,0.17017,15.31,220.44,-2.5713,0.85711,-1.8957,-3.4284,7.4163e-13,-0.94783,0,0,0.1,-9.4739e-16,0,0.66667
0.041687,0.76339,0.41687,0.39508,52.42,846.94,-0.4392,0.1464,-1.4427,-0.5856,-3.0676e-07,-0.72134,0,0,0.1,-0,-0,0.66667
0.65997,0.70672,6.5997,0.31009,23.187,141.79,-5.4573,1.8191,-1.6572,-7.2764,-1.3092e-12,-0.82858,0,0,0.1,9.4739e-16,0,0.66667
0.20163,0.8168,2.0163,0.4752,60.619,635.2,-2.5551,0.8517,-1.2,-3.4068,2.2342e-10,-0.60001,0,0,0.1,4.737e-16,0,0.66667
0.41646,0.2235,4.1646,-0.41476,-45.541,374.29,4.6061,-1.5354,-1.3867,6.1415,-7.816e-14,-0.69334,0,0,0.1,9.4739e-16,0,0.66667
0.45089,0.16681,4.5089,-0.49979,-52.929,336.72,6.0094,-2.0031,-1.1129,8.0125,-3.4501e-12,-0.55645,0,0,0.1,-9.4739e-16,0,0.66667
0.34873,0.88002,3.4873,0.57003,66.621,452.5,-5.3009,1.767,-0.84326,-7.0679,-5.4161e-12,-0.42163,0,0,0.1,-0,-0,0.66667
0.38328,0.36035,3.8328,-0.20947,-23.714,411.68,2.141,-0.71366,-1.8407,2.8546,-2.1827e-12,-0.92037,0,0,0.1,-4.737e-16,0,0.66667
0.18031,0.54288,1.8031,0.064326,8.2607,662.7,-0.30929,0.1031,-1.9822,-0.41238,-1.8726e-10,-0.99108,0,0,0.1,-0,-0,0.66667
0.06813,0.81761,0.6813,0.47642,63.062,811.46,-0.86556,0.28852,-1.1911,-1.1541,-2.0801e-07,-0.59555,0,0,0.1,-0,-0,0.66667
0.55126,0.16418,5.5126,-0.50373,-46.593,235.31,7.4049,-2.4683,-1.0965,9.8733,-3.5754e-12,-0.54825,0,0,0.1,1.8948e-15,0,0.66667
0.59587,0.4447,5.9587,-0.082947,-7.085,194.17,1.318,-0.43934,-1.9771,1.7573,-1.7364e-13,-0.98854,0,0,0.1,-1.8948e-15,0,0.66667
0.1455,0.37933,1.455,-0.181,-23.524,708.38,0.7023,-0.2341,-1.8823,0.9364,2.3496e-09,-0.94114,0,0,0.1,-0,-0,0.66667
0.23094,0.15872,2.3094,-0.51192,-64.456,597.6,3.1526,-1.0509,-1.0687,4.2035,4.1251e-11,-0.53435,0,0,0.1,-0,-0,0.66667
0.28638,0.74191,2.8638,0.36287,44.252,527.77,-2.7711,0.9237,-1.5299,-3.6948,-4.3405e-12,-0.76496,0,0,0.1,4.737e-16,0,0.66667
0.83075,0.99515,8.3075,0.74273,30.676,40.473,-16.454,5.4846,-0.039708,-21.939,3.5432e-09,-0.019854,0,0,0.1,-0,-0,0.66667
0.15342,0.031936,1.5342,-0.7021,-91.359,698.26,2.8724,-0.95748,-0.24892,3.8299,-2.4365e-08,-0.12446,0,0,0.1,-0,-0,0.66667
0.55214,0.032638,5.5214,-0.70104,-64.925,235.06,10.322,-3.4407,-0.25158,13.763,4.432e-13,-0.12579,0,0,0.1,1.8948e-15,0,0.66667
0.56814,0.19799,5.6814,-0.45302,-40.738,219.51,6.8634,-2.2878,-1.2678,9.1512,-2.5437e-12,-0.63392,0,0,0.1,-0,-0,0.66667
0.34342,0.76378,3.4342,0.39568,46.368,458.54,-3.6235,1.2078,-1.4476,-4.8314,-4.408e-12,-0.72378,0,0,0.1,-0,-0,0.66667
0.35062,0.99772,3.5062,0.74658,87.303,450.62,-6.9804,2.3268,-0.016291,-9.3071,1.5756e-12,-0.0081454,0,0,0.1,-1.1842e-16,0,0.66667
0.95911,0.57855,9.5911,0.11782,1.1913,2.8371,-3.0134,1.0045,-1.9478,-4.0178,-3.0489e-08,-0.9739,0,0,0.1,1.8948e-15,0,0.66667
0.55334,0.21879,5.5334,-0.42181,-38.852,233.16,6.2241,-2.0747,-1.366,8.2988,-6.0192e-12,-0.68302,0,0,0.1,1.8948e-15,0,0.66667
0.65273,0.84955,6.5273,0.52433,39.968,147.9,-9.1265,3.0422,-1.0224,-12.169,1.7142e-13,-0.51118,0,0,0.1,-0,-0,0.66667
0.49074,0.44587,4.9074,-0.081192,-8.1717,294.32,1.0625,-0.35417,-1.9739,1.4167,2.8518e-12,-0.98696,0,0,0.1,-0,-0,0.66667
0.64665,0.085672,6.4665,-0.62149,-48.101,152.98,10.717,-3.5723,-0.6242,14.289,1.3385e-12,-0.3121,0,0,0.1,-9.4739e-16,0,0.66667
0.60525,0.7387,6.0525,0.35805,30.09,186.37,-5.7789,1.9263,-1.5428,-7.7052,1.7186e-13,-0.77142,0,0,0.1,9.4739e-16,0,0.66667
0.14517,0.082599,1.4517,-0.6261,-81.61,709.05,2.4238,-0.80794,-0.60449,3.2318,4.9884e-09,-0.30225,0,0,0.1,2.3685e-16,0,0.66667
0.33468,0.095343,3.3468,-0.60699,-71.744,469.28,5.4172,-1.8057,-0.68833,7.223,-2.7396e-12,-0.34416,0,0,0.1,-0,-0,0.66667
0.46043,0.92953,4.6043,0.64429,67.595,326.85,-7.9107,2.6369,-0.52122,-10.548,1.5459e-12,-0.26061,0,0,0.1,4.737e-16,0,0.66667
0.12782,0.81493,1.2782,0.47239,61.79,731.87,-1.6102,0.53673,-1.2078,-2.1469,-5.3898e-09,-0.60391,0,0,0.1,-0,-0,0.66667
0.36307,0.98364,3.6307,0.72547,83.951,435.93,-7.0239,2.3413,-0.12768,-9.3652,3.6775e-12,-0.063841,0,0,0.1,-4.737e-16,0,0.66667
0.22814,0.20279,2.2814,-0.44581,-56.179,601.11,2.7122,-0.90407,-1.2904,3.6163,-6.398e-11,-0.6452,0,0,0.1,-0,-0,0.66667
0.8475,0.71505,8.475,0.32258,11.964,31.983,-7.2903,2.4301,-1.6299,-9.7205,1.7322e-09,-0.81496,0,0,0.1,-4.737e-16,0,0.66667
0.34147,0.44094,3.4147,-0.08859,-10.384,460.63,0.8067,-0.2689,-1.9739,1.0756,-1.7116e-12,-0.98697,0,0,0.1,-0,-0,0.66667
0.22679,0.76364,2.2679,0.39547,49.85,602.8,-2.3917,0.79722,-1.4407,-3.1889,2.116e-11,-0.72034,0,0,0.1,-0,-0,0.66667
0.40818,0.28952,4.0818,-0.31572,-34.931,383.44,3.4366,-1.1455,-1.6473,4.5821,-3.362e-12,-0.82364,0,0,0.1,-0,-0,0.66667
0.68306,0.37592,6.8306,-0.18612,-13.135,124.38,3.3901,-1.13,-1.8766,4.5202,-4.8384e-13,-0.93829,0,0,0.1,-0,-0,0.66667
0.065622,0.75153,0.65622,0.3773,49.925,814.8,-0.66024,0.22008,-1.4949,-0.88032,-1.6558e-07,-0.74745,0,0,0.1,2.3685e-16,0,0.66667
0.18073,0.67955,1.8073,0.26933,34.601,662.2,-1.298,0.43267,-1.7394,-1.7307,-1.4992e-10,-0.86968,0,0,0.1,1.1842e-16,0,0.66667
0.69431,0.14693,6.9431,-0.5296,-36.419,117.1,9.8056,-3.2685,-0.99986,13.074,-3.0198e-14,-0.49993,0,0,0.1,9.4739e-16,0,0.66667
0.75226,0.021328,7.5226,-0.71801,-41.524,80.311,14.403,-4.8011,-0.16805,19.204,-4.169e-11,-0.084024,0,0,0.1,-0,-0,0.66667
0.61775,0.20667,6.1775,-0.43999,-36.109,175.94,7.2482,-2.4161,-1.3085,9.6643,-8.0291e-13,-0.65426,0,0,0.1,9.4739e-16,0,0.66667
0.8792,0.47542,8.792,-0.036873,-1.0946,20.39,0.86451,-0.28817,-1.9942,1.1527,-6.0285e-09,-0.99709,0,0,0.1,-0,-0,0.66667
0.1688,0.90146,1.688,0.6022,77.88,678.01,-2.7107,0.90356,-0.71114,-3.6143,-7.6665e-09,-0.35557,0,0,0.1,-1.369e-16,-8.4933e-17,0.66667
0.70355,0.018279,7.0355,-0.72258,-48.626,111.43,13.557,-4.5189,-0.1476,18.075,2.0259e-12,-0.073802,0,0,0.1,-0,-0,0.66667
0.91726,0.070885,9.1726,-0.64367,-13.515,11.737,15.744,-5.2481,-0.52533,20.993,-2.2365e-07,-0.26266,0,0,0.1,-0,-0,0.66667
0.15074,0.52781,1.5074,0.041709,5.4106,701.46,-0.16766,0.055886,-1.9923,-0.22355,-1.8815e-09,-0.99614,0,0,0.1,-2.3685e-16,0,0.66667
0.24376,0.012721,2.4376,-0.73092,-91.643,581.6,4.7512,-1.5837,-0.097583,6.335,2.5862e-11,-0.048791,0,0,0.1,-9.4739e-16,0,0.66667
0.54668,0.99856,5.4668,0.74785,69.91,240.37,-10.902,3.6341,-0.017347,-14.536,-4.9045e-12,-0.0086737,0,0,0.1,3.5527e-16,0,0.66667
0.34412,0.48962,3.4412,-0.01557,-1.8211,457.47,0.14288,-0.047626,-2.0034,0.1905,-1.2812e-12,-1.0017,0,0,0.1,4.737e-16,0,0.66667
0.69064,0.82371,6.9064,0.48556,33.697,119.55,-8.9427,2.9809,-1.1615,-11.924,1.1449e-12,-0.58073,0,0,0.1,-1.8948e-15,0,0.66667
0.057568,0.96696,0.57568,0.70045,93.031,825.69,-1.0753,0.35844,-0.25472,-1.4337,1.5235e-05,-0.12736,0,0,0.1,-1.4803e-17,0,0.66667
0.16076,0.2414,1.6076,-0.3879,-50.217,688.38,1.6629,-0.55431,-1.4635,2.2172,8.7651e-10,-0.73177,0,0,0.1,-0,-0,0.66667
0.71624,0.22011,7.1624,-0.41983,-27.093,101.79,8.0187,-2.6729,-1.3752,10.692,2.605e-12,-0.68759,0,0,0.1,-0,-0,0.66667
0.97062,0.96997,9.7062,0.70495,5.3942,3.6997,-18.246,6.0821,-0.23594,-24.329,-4.5299e-05,-0.11797,0,0,0.1,-0,-0,0.66667
0.92955,0.34051,9.2955,-0.23924,-4.2108,7.6966,5.9303,-1.9768,-1.7943,7.9071,-8.0457e-08,-0.89714,0,0,0.1,2.3685e-16,0,0.66667
0.90107,0.20697,9.0107,-0.43954,-10.854,14.795,10.561,-3.5205,-1.3108,14.082,-4.2428e-08,-0.65542,0,0,0.1,-0,-0,0.66667
0.12774,0.17241,1.2774,-0.49138,-64.285,731.98,1.6739,-0.55796,-1.1416,2.2319,5.4407e-09,-0.57081,0,0,0.1,-0,-0,0.66667
0.14593,0.30722,1.4593,-0.28918,-37.592,707.85,1.1253,-0.3751,-1.701,1.5004,2.7405e-09,-0.85049,0,0,0.1,-0,-0,0.66667
0.072265,0.42631,0.72265,-0.11053,-14.597,805.85,0.213,-0.070998,-1.9539,0.28399,6.1019e-08,-0.97696,0,0,0.1,-0,-0,0.66667
0.54254,0.11519,5.4254,-0.57721,-54.17,243.76,8.3509,-2.7836,-0.81397,11.135,-1.0516e-12,-0.40698,0,0,0.1,4.737e-16,0,0.66667
0.88249,0.37526,8.8249,-0.18711,-5.4167,19.493,4.4034,-1.4678,-1.8739,5.8711,-1.0223e-08,-0.93695,0,0,0.1,-0,-0,0.66667
0.53179,0.78252,5.3179,0.42378,40.356,253.73,-6.0097,2.0032,-1.3667,-8.0129,-5.862e-14,-0.68334,0,0,0.1,-0,-0,0.66667
0.78172,0.38596,7.8172,-0.17106,-8.7761,62.102,3.566,-1.1887,-1.9,4.7546,3.4686e-11,-0.95001,0,0,0.1,-1.8948e-15,0,0.66667
0.18845,0.301,1.8845,-0.2985,-38.24,652.16,1.5001,-0.50003,-1.6863,2.0001,3.7678e-11,-0.84315,0,0,0.1,-0,-0,0.66667
0.86311,0.71527,8.6311,0.32291,10.827,26.184,-7.4322,2.4774,-1.6292,-9.9096,5.0893e-09,-0.81461,0,0,0.1,-9.4739e-16,0,0.66667
0.18742,0.90243,1.8742,0.60365,77.536,653.73,-3.0171,1.0057,-0.71005,-4.0227,2.9353e-09,-0.35502,0,0,0.1,2.3685e-16,5.0771e-17,0.66667
0.054764,0.79497,0.54764,0.44246,58.65,829.38,-0.64616,0.21539,-1.3007,-0.86155,-8.8436e-08,-0.65033,0,0,0.1,-0,-0,0.66667
0.42149,0.62865,4.2149,0.19298,21.054,368.45,-2.169,0.723,-1.8727,-2.892,-2.2577e-12,-0.93634,0,0,0.1,-0,-0,0.66667
0.5551,0.16386,5.551,-0.50421,-46.351,231.7,7.4637,-2.4879,-1.0933,9.9516,-5.5156e-13,-0.54664,0,0,0.1,-0,-0,0.66667
0.97074,0.74895,9.7074,0.37342,2.707,2.1463,-9.6666,3.2222,-1.5069,-12.889,-1.1507e-06,-0.75346,0,0,0.1,1.1842e-16,0,0.66667
0.091754,0.59239,0.91754,0.13858,18.243,779.77,-0.33907,0.11302,-1.9344,-0.45209,-3.6996e-08,-0.96719,0,0,0.1,-1.3323e-16,0,0.66667
0.27392,0.28359,2.7392,-0.32461,-39.881,543.21,2.3711,-0.79038,-1.6233,3.1615,-1.1522e-11,-0.81166,0,0,0.1,-9.4739e-16,0,0.66667
0.10511,0.48108,1.0511,-0.028376,-3.7252,761.94,0.079534,-0.026511,-1.9956,0.10605,1.1822e-08,-0.9978,0,0,0.1,-0,-0,0.66667
0.39044,0.77681,3.9044,0.41522,46.755,403.69,-4.3231,1.441,-1.3924,-5.7641,-6.9882e-12,-0.69618,0,0,0.1,2.3685e-16,0,0.66667
0.28901,0.22681,2.8901,-0.40979,-49.907,524.56,3.1582,-1.0527,-1.4,4.211,-1.2885e-12,-0.70002,0,0,0.1,-0,-0,0.66667
0.5133,0.075364,5.133,-0.63695,-62.447,272.42,8.7186,-2.9062,-0.55826,11.625,5.0804e-13,-0.27913,0,0,0.1,9.4739e-16,1.3479e-16,0.66667
0.34826,0.67315,3.4826,0.25972,30.296,452.66,-2.412,0.80399,-1.7584,-3.2159,-5.8007e-12,-0.87918,0,0,0.1,-0,-0,0.66667
0.92823,0.41132,9.2823,-0.13302,-2.3794,7.7937,3.2927,-1.0976,-1.9349,4.3903,-2.9441e-08,-0.96743,0,0,0.1,-0,-0,0.66667
0.78995,0.43275,7.8995,-0.10088,-4.9992,57.722,2.125,-0.70833,-1.9615,2.8333,4.7203e-11,-0.98073,0,0,0.1,4.737e-16,0,0.66667
0.86101,0.8875,8.6101,0.58124,19.91,27.825,-13.346,4.4485,-0.80065,-17.794,1.2131e-09,-0.40032,0,0,0.1,-0,-0,0.66667
0.1295,0.053844,1.295,-0.66923,-87.655,729.78,2.3111,-0.77037,-0.40608,3.0815,-6.6646e-09,-0.20304,0,0,0.1,-1.1842e-16,0,0.66667
0.57507,0.27064,5.7507,-0.34403,-30.543,212.97,5.2758,-1.7586,-1.5791,7.0344,-2.4905e-12,-0.78954,0,0,0.1,4.737e-16,0,0.66667
0.21478,0.17028,2.1478,-0.49458,-62.739,618.27,2.8327,-0.94424,-1.129,3.777,-6.0655e-11,-0.56449,0,0,0.1,-0,-0,0.66667
0.86824,0.10273,8.6824,-0.59591,-19.43,25.368,13.797,-4.599,-0.73458,18.396,-1.2058e-08,-0.36729,0,0,0.1,-0,-0,0.66667
0.015019,0.60019,0.15019,0.15028,19.949,882.82,-0.060192,0.020064,-1.9239,-0.080255,9.4116e-08,-0.96196,0,0,0.1,2.9606e-17,0,0.66667
0.10574,0.29871,1.0574,-0.30193,-39.66,761.13,0.8514,-0.2838,-1.6749,1.1352,2.9604e-08,-0.83747,0,0,0.1,-1.2523e-16,0,0.66667
0.37606,0.61931,3.7606,0.17896,20.389,420.01,-1.7947,0.59822,-1.8896,-2.3929,-9.9309e-12,-0.94481,0,0,0.1,7.1054e-16,0,0.66667
0.40209,0.93865,4.0209,0.65798,73.458,390.9,-7.0552,2.3517,-0.46065,-9.4069,-7.9616e-12,-0.23032,0,0,0.1,9.4739e-16,-1.608e-19,0.66667
0.27722,0.74272,2.7722,0.36408,44.651,539.13,-2.6915,0.89715,-1.5278,-3.5886,-4.1278e-13,-0.76391,0,0,0.1,-0,-0,0.66667
0.096063,0.90372,0.96063,0.60558,79.876,774.16,-1.5513,0.5171,-0.69801,-2.0684,-5.49e-08,-0.34901,0,0,0.1,2.9606e-17,0,0.66667
0.11873,0.047085,1.1873,-0.67937,-89.235,744.05,2.151,-0.717,-0.35598,2.868,-3.4481e-08,-0.17799,0,0,0.1,-0,-0,0.66667
0.31794,0.85232,3.1794,0.52849,63.186,489.3,-4.4808,1.4936,-1.0048,-5.9744,2.5531e-12,-0.50238,0,0,0.1,-0,-0,0.66667
0.95079,0.10084,9.5079,-0.59873,-7.5365,5.3875,15.181,-5.0602,-0.72663,20.241,-1.1697e-06,-0.36331,0,0,0.1,-0,-0,0.66667
0.20741,0.15554,2.0741,-0.51669,-65.77,627.79,2.8577,-0.95257,-1.0507,3.8103,-8.5702e-11,-0.52536,0,0,0.1,4.737e-16,0,0.66667
0.74728,0.73713,7.4728,0.3557,20.781,81.983,-7.0882,2.3627,-1.5504,-9.451,-1.7037e-11,-0.77519,0,0,0.1,9.4739e-16,0,0.66667
0.25819,0.083307,2.5819,-0.62504,-77.672,563.24,4.3034,-1.4345,-0.60786,5.7379,4.3351e-11,-0.30393,0,0,0.1,-2.3685e-16,0,0.66667
0.03724,0.51511,0.3724,0.022668,3.005,852.9,-0.022511,0.0075034,-1.9953,-0.030015,-4.1144e-07,-0.99767,0,0,0.1,-1.1842e-16,0,0.66667
0.016052,0.10748,0.16052,-0.58878,-78.352,881.45,0.25203,-0.084006,-0.77142,0.33604,4.0053e-06,-0.38571,0,0,0.1,-0,-0,0.66667
0.15271,0.48613,1.5271,-0.020811,-2.698,698.87,0.084746,-0.028249,-1.9976,0.11299,-9.9471e-10,-0.99881,0,0,0.1,-4.737e-16,0,0.66667
0.46208,0.31167,4.6208,-0.2825,-29.483,324.41,3.4811,-1.1604,-1.7147,4.6414,-2.2351e-12,-0.85733,0,0,0.1,-9.77e-16,0,0.66667
0.7559,0.25769,7.559,-0.36347,-20.61,76.883,7.3266,-2.4422,-1.5279,9.7688,1.5988e-11,-0.76396,0,0,0.1,-0,-0,0.66667
0.72881,0.74553,7.2881,0.36829,22.859,93.472,-7.1578,2.3859,-1.516,-9.5437,-5.0826e-12,-0.758,0,0,0.1,-9.4739e-16,0,0.66667
0.35239,0.71762,3.5239,0.32643,37.965,447.83,-3.0675,1.0225,-1.6194,-4.09,-8.1661e-12,-0.8097,0,0,0.1,5.8507e-16,0,0.66667
0.47914,0.78415,4.7914,0.42622,43.615,306.69,-5.4459,1.8153,-1.3528,-7.2612,1.263e-12,-0.67641,0,0,0.1,-0,-0,0.66667
0.81407,0.49966,8.1407,-0.00050605,-0.022462,45.869,0.010986,-0.0036619,-2.0035,0.014648,5.1059e-10,-1.0018,0,0,0.1,-2.5461e-15,0,0.66667
0.8384,0.92464,8.384,0.63697,25.127,36.744,-14.241,4.747,-0.555,-18.988,-5.328e-09,-0.2775,0,0,0.1,9.4739e-16,0,0.66667
0.31992,0.86752,3.1992,0.55128,65.834,486.95,-4.7031,1.5677,-0.91662,-6.2708,3.1912e-12,-0.45831,0,0,0.1,-4.737e-16,0,0.66667
0.004265,0.70859,0.04265,0.31288,41.566,897.31,-0.035585,0.011861,-1.6505,-0.047447,-1.1112e-06,-0.82527,0,0,0.1,-0,-0,0.66667
0.046931,0.6721,0.46931,0.25816,34.212,839.88,-0.32308,0.10769,-1.7678,-0.43077,7.3112e-08,-0.88389,0,0,0.1,5.9212e-17,0,0.66667
0.73781,0.43735,7.3781,-0.093982,-5.6556,87.392,1.8491,-0.61636,-1.9695,2.4654,-2.6553e-12,-0.98477,0,0,0.1,1.3767e-15,0,0.66667
0.27263,0.27182,2.7263,-0.34226,-42.085,544.83,2.4883,-0.82944,-1.5806,3.3178,-1.0798e-11,-0.79028,0,0,0.1,-0,-0,0.66667
0.48149,0.45736,4.8149,-0.063954,-6.5133,303.87,0.82115,-0.27372,-1.9855,1.0949,-3.6883e-12,-0.99277,0,0,0.1,-0,-0,0.66667
0.19203,0.87317,1.9203,0.55976,71.738,647.71,-2.8664,0.95548,-0.88542,-3.8219,3.4015e-10,-0.44271,0,0,0.1,2.9606e-17,0,0.66667
0.84711,0.65464,8.4711,0.23197,8.6119,31.946,-5.24,1.7467,-1.8094,-6.9867,1.8126e-09,-0.90471,0,0,0.1,-2.1316e-15,0,0.66667
0.50338,0.3426,5.0338,-0.2361,-23.38,281.57,3.1693,-1.0564,-1.8026,4.2257,6.0973e-13,-0.9013,0,0,0.1,-1.2434e-15,0,0.66667
0.52716,0.59032,5.2716,0.13548,12.968,257.86,-1.9046,0.63486,-1.9343,-2.5395,-8.28e-13,-0.96717,0,0,0.1,-0,-0,0.66667
0.28808,0.59184,2.8808,0.13776,16.766,525.52,-1.0583,0.35277,-1.9307,-1.4111,-1.618e-12,-0.96534,0,0,0.1,-4.3105e-16,0,0.66667
0.512,0.0050055,5.12,-0.74249,-73.038,274.04,10.137,-3.3792,-0.039688,13.517,6.5015e-13,-0.019844,0,0,0.1,-0,-0,0.66667
0.0019636,0.26462,0.019636,-0.35307,-46.916,900.41,0.018488,-0.0061614,-1.558,0.024651,1.709e-06,-0.77902,0,0,0.1,3.7007e-18,0,0.66667
0.2773,0.82272,2.773,0.48407,59.415,539.17,-3.5795,1.1932,-1.1657,-4.7727,-1.4588e-13,-0.58287,0,0,0.1,-0,-0,0.66667
0.34876,0.43918,3.4876,-0.091233,-10.632,451.96,0.8485,-0.28283,-1.9695,1.1313,1.813e-13,-0.98476,0,0,0.1,9.4739e-16,0,0.66667
0.28395,0.056621,2.8395,-0.66507,-81.443,531.16,5.0359,-1.6786,-0.42819,6.7145,9.2415e-13,-0.21409,0,0,0.1,-4.737e-16,0,0.66667
0.085952,0.497,0.85952,-0.0044972,-0.59258,787.52,0.010308,-0.003436,-1.9978,0.013744,-1.0315e-07,-0.99888,0,0,0.1,1.4803e-16,0,0.66667
0.52178,0.62559,5.2178,0.18839,18.177,263.17,-2.6213,0.87376,-1.8725,-3.495,-4.8828e-13,-0.93624,0,0,0.1,-1.8948e-15,0,0.66667
0.78848,0.46064,7.8848,-0.059035,-2.9435,58.457,1.2413,-0.41376,-1.9848,1.655,-2.086e-11,-0.99238,0,0,0.1,-0,-0,0.66667
0.9426,0.42139,9.426,-0.11791,-1.6859,5.1805,2.9637,-0.98791,-1.9483,3.9517,3.7744e-08,-0.97414,0,0,0.1,-1.8948e-15,0,0.66667
0.49729,0.57243,4.9729,0.10864,10.841,287.64,-1.4407,0.48024,-1.9584,-1.9209,-4.8074e-12,-0.97922,0,0,0.1,-0,-0,0.66667
0.59375,0.57209,5.9375,0.10814,9.2733,196.04,-1.7122,0.57072,-1.9635,-2.2829,1.1402e-13,-0.98176,0,0,0.1,-0,-0,0.66667
0.29086,0.61677,2.9086,0.17516,21.282,522.1,-1.3586,0.45286,-1.8884,-1.8115,-2.655e-12,-0.94422,0,0,0.1,-0,-0,0.66667
0.14916,0.66568,1.4916,0.24852,32.27,703.58,-0.98852,0.32951,-1.7775,-1.318,-2.2564e-09,-0.88873,0,0,0.1,-0,-0,0.66667
0.13187,0.73447,1.3187,0.35171,45.919,726.45,-1.2368,0.41227,-1.557,-1.6491,-6.6125e-09,-0.77851,0,0,0.1,-2.3685e-16,0,0.66667
0.73236,0.34327,7.3236,-0.2351,-14.41,90.958,4.5914,-1.5305,-1.8063,6.1219,6.8505e-12,-0.90314,0,0,0.1,-2.9606e-16,0,0.66667
0.73447,0.44013,7.3447,-0.089805,-5.4631,89.476,1.7589,-0.5863,-1.9772,2.3452,1.6936e-12,-0.98858,0,0,0.1,-1.8948e-15,0,0.66667
0.17935,0.52526,1.7935,0.03789,4.8675,663.95,-0.18122,0.060405,-1.9923,-0.24162,-1.7333e-10,-0.99614,0,0,0.1,-0,-0,0.66667
0.41356,0.24938,4.1356,-0.37593,-41.387,377.48,4.1459,-1.382,-1.4958,5.5279,1.1013e-13,-0.74792,0,0,0.1,-1.7764e-16,0,0.66667
0.59414,0.30618,5.9414,-0.29072,-24.935,195.89,4.6062,-1.5354,-1.7041,6.1416,-1.3438e-12,-0.85207,0,0,0.1,-4.737e-16,0,0.66667
0.12528,0.028402,1.2528,-0.7074,-92.794,735.39,2.3633,-0.78777,-0.22618,3.1511,-1.5208e-07,-0.11309,0,0,0.1,-1.7764e-16,0,0.66667
0.78537,0.53462,7.8537,0.051929,2.6231,60.077,-1.0876,0.36252,-1.99,-1.4501,4.3506e-11,-0.995,0,0,0.1,-1.8948e-15,0,0.66667
0.61999,0.97729,6.1999,0.71594,58.728,174.95,-11.837,3.9456,-0.17564,-15.782,4.6718e-13,-0.087818,0,0,0.1,-0,-0,0.66667
0.61522,0.1438,6.1522,-0.53431,-44.123,178.32,8.7658,-2.9219,-0.98225,11.688,-8.5354e-13,-0.49113,0,0,0.1,9.4739e-16,0,0.66667
0.70121,0.72359,7.0121,0.33538,22.574,111.76,-6.2713,2.0904,-1.6022,-8.3617,-1.5334e-12,-0.80112,0,0,0.1,-0,-0,0.66667
0.98718,0.23065,9.8718,-0.40402,-1.2047,1.1158,10.636,-3.5453,-1.4198,14.181,-2.0418e-07,-0.70988,0,0,0.1,-0,-0,0.66667
0.56239,0.94628,5.6239,0.66942,60.946,225.41,-10.039,3.3465,-0.41162,-13.386,1.3145e-13,-0.20581,0,0,0.1,-0,-9.5718e-17,0.66667
0.86442,0.18481,8.6442,-0.47279,-15.769,26.182,10.898,-3.6327,-1.2042,14.531,-5.2488e-09,-0.60208,0,0,0.1,-1.1842e-15,0,0.66667
0.41871,0.46732,4.1871,-0.049024,-5.362,371.48,0.54738,-0.18246,-1.9925,0.72983,1.685e-12,-0.99623,0,0,0.1,-5.3291e-16,0,0.66667
0.65447,0.36218,6.5447,-0.20673,-15.646,145.87,3.608,-1.2027,-1.8497,4.8106,-1.0667e-12,-0.92483,0,0,0.1,-0,-0,0.66667
0.92526,0.89516,9.2526,0.59274,11.242,9.7658,-14.625,4.875,-0.75025,-19.5,3.0006e-07,-0.37513,0,0,0.1,9.4739e-16,0,0.66667
0.66415,0.023376,6.6415,-0.71494,-53.239,139.82,12.662,-4.2207,-0.17978,16.883,-5.258e-13,-0.089888,0,0,0.1,-0,-0,0.66667
0.30308,0.34674,3.0308,-0.2299,-27.716,507.1,1.8581,-0.61935,-1.8103,2.4774,-6.7013e-12,-0.90513,0,0,0.1,-0,-0,0.66667
0.61995,0.97933,6.1995,0.71899,58.987,175,-11.886,3.9621,-0.15989,-15.848,-7.5495e-14,-0.079943,0,0,0.1,-0,-0,0.66667
0.35132,0.026396,3.5132,-0.71041,-82.987,449.71,6.6554,-2.2185,-0.20313,8.8739,2.7343e-12,-0.10157,0,0,0.1,-0,-0,0.66667
0.32237,0.86407,3.2237,0.5461,65.097,483.98,-4.6945,1.5648,-0.93707,-6.2594,9.8144e-14,-0.46854,0,0,0.1,4.737e-16,0,0.66667
0.61021,0.77502,6.1021,0.41253,34.356,182.25,-6.7128,2.2376,-1.3987,-8.9504,2.1032e-12,-0.69937,0,0,0.1,-4.737e-16,0,0.66667
0.16032,0.98614,1.6032,0.72922,94.706,689.23,-3.1176,1.0392,-0.10791,-4.1568,5.2913e-10,-0.053957,0,0,0.1,-2.3685e-16,0,0.66667
0.48674,0.56437,4.8674,0.096555,9.7685,298.45,-1.2533,0.41775,-1.9689,-1.671,-2.951e-12,-0.98443,0,0,0.1,-0,-0,0.66667
0.94563,0.87144,9.4563,0.55716,7.7121,5.9442,-14.05,4.6832,-0.89402,-18.733,-1.6646e-07,-0.44701,0,0,0.1,-4.737e-16,0,0.66667
0.38391,0.026221,3.8391,-0.71067,-80.747,411.74,7.2756,-2.4252,-0.20193,9.7008,3.0003e-12,-0.10097,0,0,0.1,4.737e-16,0,0.66667
0.18896,0.3976,1.8896,-0.1536,-19.663,651.45,0.774,-0.258,-1.9185,1.032,7.3629e-11,-0.95927,0,0,0.1,-2.3685e-16,0,0.66667
0.46884,0.25317,4.6884,-0.37025,-38.352,317.38,4.629,-1.543,-1.5184,6.1719,-4.619e-12,-0.75918,0,0,0.1,-0,-0,0.66667
0.84091,0.14734,8.4091,-0.52898,-20.502,35.257,11.862,-3.954,-1.0054,15.816,2.1033e-10,-0.5027,0,0,0.1,-9.4739e-16,0,0.66667
0.84267,0.0057302,8.4267,-0.7414,-28.649,35.561,16.66,-5.5534,-0.049021,22.214,4.9867e-09,-0.024511,0,0,0.1,-0,7.0933e-17,0.66667
0.8278,0.069263,8.278,-0.64611,-27.017,41.242,14.263,-4.7542,-0.52047,19.017,8.0388e-09,-0.26024,0,0,0.1,1.8948e-15,-8.0327e-17,0.66667
0.011476,0.066649,0.11476,-0.65003,-86.564,887.61,0.19891,-0.066275,-0.49707,0.26523,4.1687e-05,-0.24854,0,0,0.1,2.9606e-17,0,0.66667
0.26704,0.75264,2.6704,0.37896,46.761,551.85,-2.6986,0.89954,-1.4927,-3.5982,4.9261e-12,-0.74637,0,0,0.1,9.4739e-16,0,0.66667
0.99988,0.8338,9.9988,0.50071,-0.14534,1.1159,-13.35,4.4502,-1.1134,-17.801,-1.9893e-06,-0.55672,0,0,0.1,-0,-7.293e-18,0.66667
0.11968,0.26451,1.1968,-0.35324,-46.263,742.61,1.1274,-0.37579,-1.5539,1.5032,1.1023e-08,-0.77696,0,0,0.1,-0,-0,0.66667
0.49009,0.72365,4.9009,0.33547,33.829,295.22,-4.3843,1.4614,-1.598,-5.8457,-3.8556e-12,-0.79898,0,0,0.1,1.8948e-15,0,0.66667
0.79003,0.21443,7.9003,-0.42836,-21.299,58.29,9.0244,-3.0081,-1.3453,12.033,5.3639e-11,-0.67266,0,0,0.1,-0,-0,0.66667
0.12221,0.62741,1.2221,0.19111,24.996,739.2,-0.62283,0.20761,-1.8715,-0.83044,-8.0709e-09,-0.93573,0,0,0.1,-4.737e-16,0,0.66667
0.66241,0.7714,6.6241,0.4071,30.295,140.13,-7.1911,2.397,-1.408,-9.5882,2.025e-13,-0.70402,0,0,0.1,-0,-0,0.66667
0.48808,0.77185,4.8808,0.40777,41.25,297.4,-5.3074,1.7691,-1.408,-7.0765,-5.3069e-13,-0.70401,0,0,0.1,4.737e-16,0,0.66667
0.19429,0.75179,1.9429,0.37768,48.292,644.63,-1.9568,0.65226,-1.491,-2.6091,2.7912e-11,-0.74551,0,0,0.1,-4.737e-16,0,0.66667
0.87863,0.66892,8.7863,0.25339,7.5723,20.816,-5.9369,1.979,-1.7708,-7.9158,1.1325e-08,-0.88541,0,0,0.1,-0,-0,0.66667
0.18149,0.54719,1.8149,0.070791,9.087,661.16,-0.3426,0.1142,-1.9793,-0.45681,-9.9148e-11,-0.98967,0,0,0.1,-2.3685e-16,0,0.66667
0.63905,0.6496,6.3905,0.22439,17.581,158.07,-3.824,1.2747,-1.8234,-5.0987,-1.8745e-12,-0.91172,0,0,0.1,4.737e-16,0,0.66667
0.74083,0.71345,7.4083,0.32018,19.108,85.833,-6.3253,2.1084,-1.6332,-8.4338,-1.1668e-11,-0.8166,0,0,0.1,-0,-0,0.66667
0.56267,0.3174,5.6267,-0.2739,-24.819,224.22,4.1098,-1.3699,-1.7386,5.4797,-1.442e-12,-0.86928,0,0,0.1,-0,-0,0.66667
0.62884,0.67071,6.2884,0.25606,20.508,166.39,-4.2939,1.4313,-1.7657,-5.7252,-2.9265e-13,-0.88285,0,0,0.1,-0,-0,0.66667
0.11897,0.69832,1.1897,0.29748,38.956,743.54,-0.94371,0.31457,-1.6827,-1.2583,-1.2458e-08,-0.84133,0,0,0.1,-0,-0,0.66667
0.30804,0.30569,3.0804,-0.29147,-35.031,501.08,2.3942,-0.79807,-1.6967,3.1923,-5.7498e-12,-0.84835,0,0,0.1,2.3685e-16,0,0.66667
0.58696,0.82402,5.8696,0.48602,42.312,202.62,-7.6074,2.5358,-1.1571,-10.143,2.478e-13,-0.57854,0,0,0.1,9.4739e-16,0,0.66667
0.39546,0.068938,3.9546,-0.64659,-72.633,398.39,6.8188,-2.2729,-0.51197,9.0917,-2.1707e-12,-0.25599,0,0,0.1,-0,-0,0.66667
0.66395,0.084435,6.6395,-0.62335,-46.362,139.62,11.037,-3.6788,-0.61545,14.715,-1.7994e-12,-0.30772,0,0,0.1,9.4739e-16,0,0.66667
0.85195,0.33421,8.5195,-0.24869,-8.9621,30.113,5.6499,-1.8833,-1.7771,7.5333,-2.4261e-09,-0.88855,0,0,0.1,-9.4739e-16,0,0.66667
0.19022,0.95525,1.9022,0.68287,87.687,650.18,-3.4639,1.1546,-0.3422,-4.6186,-7.4369e-10,-0.1711,0,0,0.1,-2.3685e-16,0,0.66667
0.90327,0.37994,9.0327,-0.18009,-4.3216,13.573,4.3379,-1.446,-1.8853,5.7839,-2.8922e-08,-0.94266,0,0,0.1,-0,-0,0.66667
0.38318,0.17095,3.8318,-0.49357,-55.984,412.14,5.0433,-1.6811,-1.1306,6.7245,-5.0893e-12,-0.56528,0,0,0.1,-0,-0,0.66667
0.94312,0.51738,9.4312,0.026069,0.36895,5.0398,-0.65563,0.21854,-1.995,-0.87417,-2.3537e-07,-0.99748,0,0,0.1,-0,-0,0.66667
0.61738,0.82548,6.1738,0.48822,40.12,176.37,-8.0378,2.6793,-1.1493,-10.717,-7.8071e-13,-0.57464,0,0,0.1,-0,-0,0.66667
0.7901,0.40025,7.901,-0.14963,-7.4124,57.688,3.1525,-1.0508,-1.9179,4.2033,-1.3096e-12,-0.95895,0,0,0.1,9.4739e-16,0,0.66667
0.51478,0.39592,5.1478,-0.15612,-15.213,270.08,2.1432,-0.71439,-1.9167,2.8576,-2.1185e-12,-0.95836,0,0,0.1,-0,-0,0.66667
0.53114,0.32311,5.3114,-0.26534,-25.262,254.1,3.7582,-1.2527,-1.7545,5.0109,-1.4608e-12,-0.87724,0,0,0.1,-0,-0,0.66667
0.32759,0.9063,3.2759,0.60945,72.418,477.79,-5.324,1.7747,-0.68486,-7.0987,-3.3529e-13,-0.34243,0,0,0.1,-0,-0,0.66667
0.12936,0.2785,1.2936,-0.33225,-43.403,729.76,1.1462,-0.38205,-1.607,1.5282,7.8671e-09,-0.80349,0,0,0.1,-2.3685e-16,0,0.66667
0.38382,0.86047,3.8382,0.54071,61.322,411.48,-5.5343,1.8448,-0.95734,-7.3791,-3.1721e-12,-0.47867,0,0,0.1,4.737e-16,0,0.66667
0.21498,0.73514,2.1498,0.35271,44.694,617.91,-2.022,0.67399,-1.5566,-2.6959,3.4214e-11,-0.77829,0,0,0.1,-0,-0,0.66667
0.032865,0.56739,0.32865,0.10109,13.406,858.79,-0.088593,0.029531,-1.9663,-0.11812,2.1726e-07,-0.98316,0,0,0.1,1.1842e-16,0,0.66667
0.27489,0.69785,2.7489,0.29677,36.434,541.98,-2.1754,0.72515,-1.684,-2.9006,5.9157e-12,-0.84202,0,0,0.1,-0,-0,0.66667
0.18058,0.11326,1.8058,-0.5801,-74.689,662.62,2.7934,-0.93114,-0.80041,3.7246,-1.3724e-09,-0.4002,0,0,0.1,-2.3685e-16,0,0.66667
0.87553,0.49453,8.7553,-0.008206,-0.25063,21.563,0.19159,-0.063863,-2.0043,0.25545,1.1564e-08,-1.0021,0,0,0.1,-0,-0,0.66667
0.081237,0.69773,0.81237,0.2966,39.14,793.86,-0.64253,0.21418,-1.6871,-0.85671,-6.971e-08,-0.84354,0,0,0.1,-2.3685e-16,0,0.66667
0.1839,0.31932,1.839,-0.27102,-34.776,658.08,1.329,-0.44301,-1.7385,1.772,8.3159e-11,-0.86923,0,0,0.1,-4.737e-16,0,0.66667
0.70403,0.1336,7.0403,-0.5496,-36.809,110.41,10.318,-3.4394,-0.92944,13.758,5.8265e-12,-0.46472,0,0,0.1,-0,-0,0.66667
0.91923,0.11438,9.1923,-0.57844,-11.819,10.976,14.179,-4.7263,-0.8108,18.905,-1.4979e-09,-0.4054,0,0,0.1,-0,1.3686e-17,0.66667
0.25146,0.13385,2.5146,-0.54922,-68.45,571.62,3.6828,-1.2276,-0.92991,4.9104,1.2627e-11,-0.46496,0,0,0.1,-0,-0,0.66667
0.021301,0.55831,0.21301,0.087459,11.606,874.36,-0.04968,0.01656,-1.971,-0.066239,1.5072e-07,-0.98552,0,0,0.1,-0,-0,0.66667
0.9605,0.04349,9.605,-0.68476,-7.0031,4.6137,17.539,-5.8464,-0.32961,23.386,-2.4511e-05,-0.16481,0,0,0.1,-0,-0,0.66667
0.68222,0.17197,6.8222,-0.49205,-34.908,125.62,8.9517,-2.9839,-1.1367,11.936,6.4926e-13,-0.56836,0,0,0.1,-9.4739e-16,0,0.66667
0.31066,0.6582,3.1066,0.23731,28.463,497.84,-1.9659,0.65531,-1.8026,-2.6212,1.2287e-12,-0.90128,0,0,0.1,-9.4739e-16,0,0.66667
0.47237,0.20238,4.7237,-0.44643,-46.073,313.8,5.6235,-1.8745,-1.2905,7.4979,-1.2581e-12,-0.64523,0,0,0.1,-9.4739e-16,0,0.66667
0.59926,0.48702,5.9926,-0.019466,-1.652,191.2,0.31107,-0.10369,-1.9961,0.41475,7.28e-13,-0.99806,0,0,0.1,-0,-0,0.66667
0.37387,0.86508,3.7387,0.54762,62.661,422.99,-5.4597,1.8199,-0.93662,-7.2796,-3.209e-12,-0.46831,0,0,0.1,-0,1.1456e-16,0.66667
0.87449,0.032853,8.7449,-0.70072,-21.929,23.812,16.341,-5.4469,-0.25939,21.787,1.3487e-07,-0.1297,0,0,0.1,-3.7896e-15,0,0.66667
0.72617,0.93322,7.2617,0.64983,40.86,96.092,-12.584,4.1946,-0.49619,-16.778,-5.0875e-12,-0.24809,0,0,0.1,9.4739e-16,0,0.66667
0.95434,0.26746,9.5434,-0.34881,-3.9906,3.9002,8.8769,-2.959,-1.5699,11.836,-8.1639e-08,-0.78497,0,0,0.1,-1.8948e-15,0,0.66667
0.35107,0.12445,3.5107,-0.56333,-65.71,449.72,5.2737,-1.7579,-0.87003,7.0316,-5.3242e-12,-0.43501,0,0,0.1,-5.4771e-16,0,0.66667
0.93717,0.3407,9.3717,-0.23895,-3.7523,6.2804,5.9717,-1.9906,-1.8023,7.9623,-5.9728e-08,-0.90114,0,0,0.1,7.1054e-16,0,0.66667
0.4791,0.76559,4.791,0.39838,40.758,306.68,-5.0897,1.6966,-1.4333,-6.7862,3.0176e-12,-0.71665,0,0,0.1,-9.4739e-16,0,0.66667
0.64232,0.090553,6.4232,-0.61417,-47.986,156.38,10.52,-3.5066,-0.66161,14.027,1.5659e-12,-0.3308,0,0,0.1,-9.4739e-16,0,0.66667
0.73665,0.31012,7.3665,-0.28482,-17.226,88.351,5.595,-1.865,-1.7136,7.46,8.0527e-12,-0.8568,0,0,0.1,-0,-0,0.66667
0.80934,0.89091,8.0934,0.58637,26.838,49.327,-12.655,4.2184,-0.7771,-16.874,6.3392e-11,-0.38855,0,0,0.1,-0,-0,0.66667
0.39626,0.89415,3.9626,0.59122,66.321,397.37,-6.2474,2.0825,-0.75463,-8.3298,-2.7223e-12,-0.37732,0,0,0.1,-0,-0,0.66667
0.44795,0.27074,4.4795,-0.34389,-36.494,339.63,4.1079,-1.3693,-1.5773,5.4772,-2.6277e-12,-0.78867,0,0,0.1,4.737e-16,0,0.66667
0.81728,0.33538,8.1728,-0.24692,-10.804,44.615,5.3815,-1.7938,-1.7815,7.1753,-1.4726e-10,-0.89076,0,0,0.1,-0,-0,0.66667
0.71756,0.077759,7.1756,-0.63336,-40.861,101.63,12.119,-4.0398,-0.57626,16.159,7.2324e-12,-0.28813,0,0,0.1,-0,-0,0.66667
0.94085,0.1697,9.4085,-0.49544,-7.4209,6.4374,12.43,-4.1434,-1.1266,16.574,3.0029e-08,-0.56332,0,0,0.1,-0,-0,0.66667
0.9796,0.28008,9.796,-0.32988,-1.6212,1.3141,8.6173,-2.8724,-1.6125,11.49,9.1427e-07,-0.80624,0,0,0.1,-7.1054e-16,0,0.66667
0.17891,0.3144,1.7891,-0.27841,-35.793,664.58,1.3283,-0.44276,-1.7225,1.771,1.6276e-10,-0.86126,0,0,0.1,4.737e-16,0,0.66667
0.22792,0.78968,2.2792,0.43452,54.758,601.39,-2.6409,0.88031,-1.326,-3.5212,2.598e-11,-0.66301,0,0,0.1,4.737e-16,0,0.66667
0.71599,0.98282,7.1599,0.72423,47.033,103.06,-13.828,4.6093,-0.13519,-18.437,1.3971e-12,-0.067596,0,0,0.1,-0,1.1725e-16,0.66667
0.74738,0.39468,7.4738,-0.15798,-9.2098,81.584,3.1485,-1.0495,-1.9117,4.198,9.4056e-12,-0.95585,0,0,0.1,-0,-0,0.66667
0.60318,0.78779,6.0318,0.43169,36.449,188.3,-6.9436,2.3145,-1.3351,-9.2581,1.7657e-12,-0.66753,0,0,0.1,-0,-0,0.66667
0.8773,0.2043,8.773,-0.44355,-13.454,21.758,10.377,-3.4589,-1.3013,13.836,-4.0554e-09,-0.65063,0,0,0.1,1.8948e-15,0,0.66667
0.25199,0.84827,2.5199,0.5224,65.074,570.92,-3.5104,1.1701,-1.0318,-4.6805,1.0987e-11,-0.51589,0,0,0.1,-9.4739e-16,0,0.66667
0.33949,0.70518,3.3949,0.30777,36.158,463.13,-2.7863,0.92876,-1.6616,-3.715,-3.05e-12,-0.83082,0,0,0.1,4.737e-16,0,0.66667
0.49465,0.91912,4.9465,0.62868,63.206,291.18,-8.2927,2.7642,-0.59227,-11.057,8.2689e-13,-0.29614,0,0,0.1,-0,-0,0.66667
0.31503,0.16911,3.1503,-0.49633,-59.448,492.8,4.1696,-1.3899,-1.1246,5.5594,-7.1916e-12,-0.5623,0,0,0.1,-4.737e-16,0,0.66667
0.54544,0.92985,5.4544,0.64477,60.295,241.2,-9.3782,3.1261,-0.52443,-12.504,-1.3793e-12,-0.26221,0,0,0.1,-4.737e-16,0,0.66667
0.68248,0.15082,6.8248,-0.52377,-37.151,125.53,9.5322,-3.1774,-1.0231,12.71,1.2781e-12,-0.51154,0,0,0.1,-1.4211e-15,0,0.66667
0.22037,0.13559,2.2037,-0.54661,-69.193,611.16,3.2121,-1.0707,-0.93967,4.2828,1.3579e-11,-0.46984,0,0,0.1,-4.737e-16,0,0.66667
0.48534,0.99547,4.8534,0.74321,75.744,301.06,-9.6188,3.2063,-0.039908,-12.825,5.163e-12,-0.019954,0,0,0.1,-1.1842e-15,0,0.66667
0.99298,0.84286,9.9298,0.51429,0.80021,1.3322,-13.618,4.5393,-1.0579,-18.157,4.3277e-06,-0.52896,0,0,0.1,-7.1054e-16,0,0.66667
0.32416,0.68034,3.2416,0.27052,32.141,481.49,-2.3384,0.77947,-1.739,-3.1179,-4.4937e-12,-0.8695,0,0,0.1,-2.3685e-16,0,0.66667
0.035362,0.8435,0.35362,0.51524,68.455,855.47,-0.48587,0.16196,-1.0563,-0.64782,-5.7877e-07,-0.52814,0,0,0.1,8.0491e-17,0,0.66667
0.81735,0.041681,8.1735,-0.68748,-30.362,46.077,14.984,-4.9948,-0.31762,19.979,-2.5616e-09,-0.15881,0,0,0.1,-1.8948e-15,0,0.66667
0.50331,0.40403,5.0331,-0.14396,-14.251,281.56,1.9322,-0.64405,-1.927,2.5762,-3.8221e-12,-0.9635,0,0,0.1,4.737e-16,0,0.66667
0.052784,0.58146,0.52784,0.12218,16.177,832,-0.17198,0.057328,-1.9442,-0.22931,4.6074e-08,-0.9721,0,0,0.1,5.9212e-17,0,0.66667
0.89031,0.67001,8.9031,0.25501,6.9189,17.269,-6.0544,2.0181,-1.773,-8.0725,2.1569e-08,-0.8865,0,0,0.1,-0,-0,0.66667
0.40451,0.62195,4.0451,0.18293,20.299,387.45,-1.9733,0.65776,-1.8838,-2.631,-4.2154e-12,-0.94188,0,0,0.1,-7.1054e-16,0,0.66667
0.92927,0.8715,9.2927,0.55725,9.9927,8.7969,-13.809,4.603,-0.89368,-18.412,7.8019e-08,-0.44684,0,0,0.1,1.4211e-15,0,0.66667
0.40208,0.55247,4.0208,0.078702,8.7517,390.16,-0.84385,0.28128,-1.9767,-1.1251,-5.5497e-12,-0.98834,0,0,0.1,4.737e-16,0,0.66667
0.076832,0.83446,0.76832,0.50168,66.334,799.81,-1.0279,0.34263,-1.1078,-1.3705,-1.0977e-07,-0.55389,0,0,0.1,-1.1842e-16,0,0.66667
0.2453,0.38432,2.453,-0.17351,-21.647,579.1,1.135,-0.37834,-1.8912,1.5133,-1.7077e-11,-0.94562,0,0,0.1,-0,-0,0.66667
0.35026,0.89047,3.5026,0.58571,68.38,450.71,-5.4707,1.8236,-0.7772,-7.2942,-1.8687e-12,-0.3886,0,0,0.1,4.737e-16,0,0.66667
0.75073,0.17119,7.5073,-0.49321,-28.535,80.307,9.8738,-3.2913,-1.1385,13.165,1.1558e-11,-0.56925,0,0,0.1,9.4739e-16,0,0.66667
0.18475,0.30903,1.8475,-0.28645,-36.747,656.98,1.4112,-0.47041,-1.7094,1.8816,4.9753e-11,-0.85471,0,0,0.1,1.7312e-16,0,0.66667
0.43097,0.14895,4.3097,-0.52657,-57.013,358.43,6.0517,-2.0172,-1.0116,8.0689,-2.5873e-12,-0.50578,0,0,0.1,4.737e-16,0,0.66667
0.87325,0.71206,8.7325,0.31809,9.9182,22.706,-7.4072,2.4691,-1.6424,-9.8763,9.119e-09,-0.82121,0,0,0.1,9.4739e-16,0,0.66667
0.53376,0.92753,5.3376,0.64129,61.044,252.37,-9.1279,3.0426,-0.53845,-12.171,-8.7574e-13,-0.26922,0,0,0.1,-4.737e-16,0,0.66667
0.10315,0.2647,1.0315,-0.35295,-46.398,764.6,0.97088,-0.32363,-1.5541,1.2945,3.5879e-08,-0.77707,0,0,0.1,-0,-0,0.66667
0.024522,0.50121,0.24522,0.0018121,0.24041,870.02,-0.001185,0.00039785,-1.9983,-0.0015786,4.2761e-06,-0.99916,0,0,0.1,-0,-0,0.66667
0.70581,0.36035,7.0581,-0.20947,-13.903,108.39,3.9426,-1.3142,-1.8442,5.2568,1.2752e-12,-0.92211,0,0,0.1,-9.4739e-16,0,0.66667
0.97913,0.22948,9.7913,-0.40577,-2.0675,1.5891,10.595,-3.5316,-1.4123,14.126,1.7602e-06,-0.70616,0,0,0.1,1.8948e-15,0,0.66667
0.78517,0.72889,7.8517,0.34334,17.398,60.586,-7.1887,2.3962,-1.5798,-9.585,-4.7772e-11,-0.78991,0,0,0.1,-0,-0,0.66667
0.76473,0.23788,7.6473,-0.39318,-21.6,71.875,8.018,-2.6727,-1.4535,10.691,2.5377e-11,-0.72676,0,0,0.1,-0,-0,0.66667
0.67545,0.56173,6.7545,0.092591,6.6599,129.88,-1.6677,0.55591,-1.9702,-2.2236,-1.1269e-12,-0.98509,0,0,0.1,1.125e-15,0,0.66667
0.7955,0.18289,7.955,-0.47567,-23.121,55.655,10.091,-3.3635,-1.1986,13.454,1.3182e-10,-0.59931,0,0,0.1,-0,-0,0.66667
0.040018,0.3316,0.40018,-0.2526,-33.496,849.17,0.26956,-0.089855,-1.77,0.35942,-1.5174e-07,-0.88502,0,0,0.1,-0,-0,0.66667
0.26468,0.2003,2.6468,-0.44954,-55.572,554.88,3.173,-1.0577,-1.2845,4.2306,-1.0508e-11,-0.64226,0,0,0.1,-4.737e-16,0,0.66667
0.6954,0.34,6.954,-0.24,-16.4,115.64,4.4505,-1.4835,-1.7929,5.934,1.0343e-12,-0.89645,0,0,0.1,-3.0969e-17,0,0.66667
0.86699,0.29003,8.6699,-0.31495,-10.277,24.81,7.2815,-2.4272,-1.6444,9.7087,-6.4647e-09,-0.82218,0,0,0.1,1.8948e-15,0,0.66667
0.67461,0.86005,6.7461,0.54008,39.087,131.35,-9.7158,3.2386,-0.96306,-12.954,5.258e-13,-0.48153,0,0,0.1,-0,-0,0.66667
0.17628,0.12409,1.7628,-0.56386,-72.703,668.21,2.6505,-0.88352,-0.86933,3.5341,4.4278e-10,-0.43466,0,0,0.1,-4.4409e-17,0,0.66667
0.93631,0.74351,9.3631,0.36527,5.8438,6.7515,-9.1201,3.04,-1.5288,-12.16,1.485e-07,-0.76438,0,0,0.1,-1.4211e-15,0,0.66667
0.90338,0.39915,9.0338,-0.15127,-3.6246,13.507,3.6441,-1.2147,-1.9191,4.8588,-2.5299e-08,-0.95956,0,0,0.1,-9.4739e-16,0,0.66667
0.086679,0.98346,0.86679,0.7252,95.939,786.75,-1.6762,0.55875,-0.1269,-2.235,8.3401e-07,-0.06345,0,0,0.1,3.2372e-16,0,0.66667
0.193,0.95178,1.93,0.67766,86.917,646.58,-3.4877,1.1626,-0.36463,-4.6503,6.5671e-10,-0.18232,0,0,0.1,4.737e-16,0,0.66667
0.27519,0.24525,2.7519,-0.38212,-46.926,541.67,2.8042,-0.93474,-1.4788,3.7389,-6.6873e-12,-0.73939,0,0,0.1,-0,-0,0.66667
0.73841,0.54548,7.3841,0.068225,4.0972,87.003,-1.3434,0.44781,-1.9821,-1.7912,-5.0331e-12,-0.99104,0,0,0.1,-0,-0,0.66667
0.85937,0.43075,8.5937,-0.10387,-3.5619,27.165,2.3804,-0.79345,-1.967,3.1738,-3.2805e-09,-0.98352,0,0,0.1,-0,-0,0.66667
0.57832,0.13276,5.7832,-0.55085,-48.734,210.51,8.4952,-2.8317,-0.92599,11.327,-5.187e-13,-0.46299,0,0,0.1,-0,-0,0.66667
0.19965,0.90285,1.9965,0.60427,77.235,637.89,-3.2171,1.0724,-0.70197,-4.2894,-2.4132e-09,-0.35099,0,0,0.1,-1.1842e-16,0,0.66667
0.41509,0.24887,4.1509,-0.37669,-41.408,375.77,4.1697,-1.3899,-1.4938,5.5595,-4.0323e-13,-0.7469,0,0,0.1,-9.4739e-16,0,0.66667
0.13786,0.83499,1.3786,0.50248,65.563,718.61,-1.8473,0.61575,-1.1027,-2.463,-9.6033e-09,-0.55135,0,0,0.1,1.1842e-16,0,0.66667
0.9174,0.070891,9.174,-0.64366,-13.494,11.707,15.747,-5.2488,-0.52549,20.995,-2.1958e-07,-0.26274,0,0,0.1,-1.8948e-15,0,0.66667
0.76453,0.35302,7.6453,-0.22047,-12.096,71.626,4.4949,-1.4983,-1.8302,5.9932,2.5124e-11,-0.9151,0,0,0.1,-0,-0,0.66667
0.51021,0.8731,5.1021,0.55965,55.051,275.28,-7.6145,2.5382,-0.88517,-10.153,-4.1451e-12,-0.44258,0,0,0.1,1.1842e-15,0,0.66667
0.45358,0.35125,4.5358,-0.22313,-23.511,333.44,2.6988,-0.89961,-1.8274,3.5985,-1.1022e-12,-0.91369,0,0,0.1,-0,-0,0.66667
0.097842,0.98906,0.97842,0.7336,96.858,771.86,-1.914,0.63801,-0.085246,-2.5521,5.4834e-08,-0.042623,0,0,0.1,1.1842e-16,0,0.66667
0.31868,0.31583,3.1868,-0.27626,-32.954,488.13,2.3476,-0.78254,-1.7268,3.1302,-3.8141e-12,-0.86339,0,0,0.1,-0,-0,0.66667
0.12063,0.30679,1.2063,-0.28982,-37.936,741.33,0.93231,-0.31077,-1.7003,1.2431,1.1467e-08,-0.85017,0,0,0.1,-0,-0,0.66667
0.78234,0.87581,7.8234,0.56372,29.016,62.774,-11.76,3.9202,-0.8744,-15.681,3.2003e-10,-0.4372,0,0,0.1,1.8948e-15,0,0.66667
0.54488,0.57959,5.4488,0.11939,11.125,240.76,-1.7348,0.57826,-1.9506,-2.313,-9.3636e-13,-0.97528,0,0,0.1,-9.4739e-16,0,0.66667
0.22728,0.29595,2.2728,-0.30608,-38.553,602.11,1.855,-0.61835,-1.6637,2.4734,-3.952e-11,-0.83185,0,0,0.1,-0,-0,0.66667
0.2242,0.18597,2.242,-0.47104,-59.482,606.17,2.8162,-0.93874,-1.21,3.755,-6.902e-11,-0.60498,0,0,0.1,5.033e-16,0,0.66667
0.2604,0.82258,2.604,0.48387,59.977,560.29,-3.36,1.12,-1.1653,-4.48,6.3127e-12,-0.58267,0,0,0.1,-0,-0,0.66667
0.30887,0.85683,3.0887,0.53525,64.405,500.34,-4.4086,1.4695,-0.98046,-5.8782,-2.5664e-12,-0.49023,0,0,0.1,-4.737e-16,0,0.66667
0.38771,0.72858,3.8771,0.34287,38.686,406.73,-3.5449,1.1816,-1.5821,-4.7265,-4.3752e-12,-0.79107,0,0,0.1,-0,-0,0.66667
0.29755,0.321,2.9755,-0.2685,-32.494,513.91,2.1304,-0.71015,-1.7475,2.8406,-1.0538e-11,-0.87377,0,0,0.1,-0,-0,0.66667
0.67956,0.63185,6.7956,0.19777,14.085,126.95,-3.5839,1.1946,-1.8582,-4.7786,4.9738e-14,-0.92909,0,0,0.1,-0,-0,0.66667
0.035074,0.57293,0.35074,0.1094,14.506,855.81,-0.10232,0.034107,-1.9565,-0.13643,9.9383e-08,-0.97824,0,0,0.1,-0,-0,0.66667
0.32811,0.48092,3.2811,-0.028619,-3.3884,476.63,0.25041,-0.083469,-2.002,0.33388,-3.6544e-12,-1.001,0,0,0.1,-9.4739e-16,0,0.66667
0.74529,0.026481,7.4529,-0.71028,-42.057,84.437,14.116,-4.7055,-0.20506,18.822,4.4746e-12,-0.10253,0,0,0.1,-0,1.463e-16,0.66667
0.94281,0.52096,9.4281,0.031446,0.44757,5.0924,-0.7906,0.26353,-1.9942,-1.0541,-1.0054e-07,-0.99712,0,0,0.1,-0,-0,0.66667
0.80273,0.23002,8.0273,-0.40498,-19.035,51.854,8.669,-2.8897,-1.4142,11.559,6.4411e-12,-0.70711,0,0,0.1,-0,-0,0.66667
0.24083,0.46578,2.4083,-0.051333,-6.4176,584.75,0.32966,-0.10989,-1.9887,0.43955,6.9704e-12,-0.99436,0,0,0.1,-2.3685e-16,0,0.66667
0.23292,0.0442,2.3292,-0.6837,-86.147,595.3,4.2465,-1.4155,-0.34012,5.662,-1.7843e-10,-0.17006,0,0,0.1,-0,-0,0.66667
0.19034,0.43366,1.9034,-0.099508,-12.73,649.65,0.50507,-0.16836,-1.9658,0.67343,-2.2484e-12,-0.98289,0,0,0.1,-2.9606e-16,0,0.66667
0.8825,0.96486,8.825,0.69729,20.51,21.26,-16.409,5.4698,-0.26895,-21.879,-2.1201e-07,-0.13448,0,0,0.1,1.4211e-15,0,0.66667
0.23786,0.66532,2.3786,0.24799,31.065,588.59,-1.5729,0.52431,-1.7809,-2.0972,2.0779e-11,-0.89043,0,0,0.1,-0,-0,0.66667
0.75818,0.80429,7.5818,0.45643,25.707,75.812,-9.2283,3.0761,-1.2564,-12.304,-1.9007e-12,-0.62819,0,0,0.1,9.4739e-16,0,0.66667
0.26105,0.29049,2.6105,-0.31427,-38.896,559.31,2.1877,-0.72924,-1.6472,2.917,-1.1336e-11,-0.82362,0,0,0.1,-0,-0,0.66667
0.033082,0.166,0.33082,-0.50099,-66.564,858.53,0.44197,-0.14732,-1.1093,0.58929,-6.6995e-07,-0.55465,0,0,0.1,-0,-0,0.66667
0.73345,0.31348,7.3345,-0.27978,-17.096,90.348,5.4721,-1.824,-1.7262,7.2961,6.1817e-12,-0.86311,0,0,0.1,-0,-0,0.66667
0.7262,0.072275,7.262,-0.64159,-40.331,96.039,12.425,-4.1415,-0.53338,16.566,7.3088e-12,-0.26669,0,0,0.1,-0,-0,0.66667
0.088959,0.9787,0.88959,0.71805,94.947,783.7,-1.7034,0.5678,-0.16495,-2.2712,1.5309e-06,-0.082474,0,0,0.1,-0,-0,0.66667
0.3267,0.20181,3.267,-0.44728,-53.104,478.61,3.8967,-1.2989,-1.2908,5.1956,-6.4826e-12,-0.64542,0,0,0.1,-0,-0,0.66667
0.94837,0.52731,9.4837,0.040972,0.52576,4.2323,-1.0362,0.34539,-1.9929,-1.3815,1.0907e-08,-0.99647,0,0,0.1,-1.8948e-15,0,0.66667
0.16295,0.60649,1.6295,0.15974,20.644,685.42,-0.6941,0.23137,-1.9062,-0.92547,-5.5047e-10,-0.95311,0,0,0.1,-2.3685e-16,0,0.66667
0.086672,0.311,0.86672,-0.2835,-37.374,786.58,0.65523,-0.21841,-1.7124,0.87365,4.9619e-08,-0.85621,0,0,0.1,-1.4803e-16,0,0.66667
0.5946,0.10846,5.946,-0.58732,-50.49,196.17,9.3125,-3.1042,-0.77673,12.417,9.9298e-13,-0.38836,0,0,0.1,-0,-0,0.66667
0.93099,0.41975,9.3099,-0.12038,-2.0704,7.2414,2.9885,-0.99618,-1.9455,3.9847,-4.2554e-08,-0.97273,0,0,0.1,-0,-0,0.66667
0.13378,0.9244,1.3378,0.63659,83.256,724.09,-2.271,0.757,-0.55599,-3.028,6.5914e-08,-0.278,0,0,0.1,-0,-0,0.66667
0.51301,0.60154,5.1301,0.15231,14.878,271.83,-2.0837,0.69456,-1.9183,-2.7782,-3.8258e-12,-0.95913,0,0,0.1,9.4739e-16,0,0.66667
0.684,0.41984,6.84,-0.12025,-8.4635,123.64,2.1933,-0.7311,-1.9478,2.9244,-4.1478e-13,-0.97391,0,0,0.1,-0,-0,0.66667
0.17183,0.15753,1.7183,-0.5137,-66.312,673.97,2.3538,-0.78461,-1.0679,3.1384,1.2146e-09,-0.53397,0,0,0.1,-0,-1.0889e-16,0.66667
0.01126,0.78351,0.1126,0.42526,56.526,887.89,-0.12769,0.042563,-1.3565,-0.17025,-7.5621e-07,-0.67827,0,0,0.1,-0,-0,0.66667
0.88768,0.07628,8.8768,-0.63558,-17.863,19.375,15.045,-5.0151,-0.56359,20.06,3.3329e-09,-0.2818,0,0,0.1,-0,-0,0.66667
0.035231,0.98496,0.35231,0.72744,96.846,855.68,-0.68344,0.22781,-0.11723,-0.91126,-7.0101e-06,-0.058615,0,0,0.1,-0,-0,0.66667
0.25746,0.23209,2.5746,-0.40187,-49.863,563.9,2.759,-0.91968,-1.4226,3.6787,-9.2326e-12,-0.71128,0,0,0.1,-0,-0,0.66667
0.65168,0.14148,6.5168,-0.53778,-41.099,148.76,9.3456,-3.1152,-0.96985,12.461,-1.3936e-12,-0.48493,0,0,0.1,-0,-0,0.66667
0.28578,0.30973,2.8578,-0.2854,-34.803,528.44,2.175,-0.725,-1.7097,2.9,-1.6169e-11,-0.85485,0,0,0.1,5.9212e-16,0,0.66667
0.0097076,0.94142,0.097076,0.66212,88.19,889.99,-0.1714,0.0571,-0.43938,-0.22855,-4.9449e-05,-0.21969,0,0,0.1,-0,-0,0.66667
0.57545,0.82088,5.7545,0.48132,42.76,212.92,-7.3861,2.462,-1.1769,-9.8481,9.2903e-13,-0.58844,0,0,0.1,-0,-0,0.66667
0.30779,0.67716,3.0779,0.26574,31.94,501.36,-2.1812,0.72705,-1.7471,-2.9082,-2.5868e-13,-0.87356,0,0,0.1,-0,-0,0.66667
0.15151,0.8789,1.5151,0.56835,73.899,700.65,-2.2963,0.76545,-0.85042,-3.0618,-1.4906e-09,-0.42521,0,0,0.1,-0,-0,0.66667
0.97128,0.84119,9.7128,0.51178,3.7033,2.6264,-13.256,4.4185,-1.0704,-17.674,-3.9124e-06,-0.53519,0,0,0.1,2.8422e-15,0,0.66667
0.16497,0.62094,1.6497,0.18141,23.43,682.77,-0.79805,0.26602,-1.8808,-1.0641,-7.804e-10,-0.94038,0,0,0.1,5.9212e-17,0,0.66667
0.72724,0.38019,7.2724,-0.17972,-11.191,94.15,3.4853,-1.1618,-1.8827,4.647,5.3404e-12,-0.94135,0,0,0.1,-1.8948e-15,0,0.66667
0.89072,0.65823,8.9072,0.23735,6.4139,17.113,-5.6376,1.8792,-1.8057,-7.5169,2.0907e-08,-0.90283,0,0,0.1,3.7896e-15,0,0.66667
0.85872,0.75999,8.5872,0.38998,13.489,27.944,-8.9301,2.9767,-1.463,-11.907,3.3992e-09,-0.73151,0,0,0.1,-0,-0,0.66667
0.18426,0.61874,1.8426,0.17811,22.843,657.57,-0.87513,0.29171,-1.8873,-1.1668,-4.2728e-11,-0.94366,0,0,0.1,1.1842e-16,0,0.66667
0.23681,0.011331,2.3681,-0.733,-92.234,590.42,4.6288,-1.5429,-0.090328,6.1718,-1.3599e-11,-0.045164,0,0,0.1,-0,-0,0.66667
0.018363,0.034815,0.18363,-0.69778,-92.951,878.35,0.34167,-0.1139,-0.26993,0.45556,-1.263e-05,-0.13497,0,0,0.1,-5.9212e-17,0,0.66667
0.93141,0.11443,9.3141,-0.57836,-10.08,8.4866,14.365,-4.7883,-0.80797,19.153,-1.9718e-07,-0.40398,0,0,0.1,9.4739e-16,0,0.66667
0.88712,0.7494,8.8712,0.3741,10.461,18.501,-8.8499,2.95,-1.5032,-11.8,1.8138e-08,-0.75159,0,0,0.1,4.737e-16,0,0.66667
0.59547,0.73087,5.9547,0.34631,29.643,194.82,-5.4991,1.833,-1.5753,-7.3321,6.9766e-13,-0.78767,0,0,0.1,-0,-0,0.66667
0.10937,0.85699,1.0937,0.53548,70.391,756.4,-1.5617,0.52057,-0.98535,-2.0823,-7.3277e-09,-0.49267,0,0,0.1,-0,-0,0.66667
0.17354,0.94325,1.7354,0.66487,85.897,671.87,-3.0769,1.0256,-0.43068,-4.1025,6.5201e-09,-0.21534,0,0,0.1,-0,-0,0.66667
0.57696,0.38179,5.7696,-0.17731,-15.674,211.04,2.728,-0.90933,-1.8914,3.6373,-2.2355e-12,-0.94569,0,0,0.1,-0,-0,0.66667
0.25166,0.617,2.5166,0.1755,21.821,571.07,-1.1778,0.39258,-1.8927,-1.5703,1.3145e-11,-0.94633,0,0,0.1,2.3685e-16,0,0.66667
0.30017,0.32765,3.0017,-0.25853,-31.232,510.68,2.0694,-0.6898,-1.7618,2.7592,-5.8993e-12,-0.8809,0,0,0.1,-4.737e-16,0,0.66667
0.17099,0.40007,1.7099,-0.14989,-19.317,674.89,0.68345,-0.22782,-1.9239,0.91127,1.4448e-10,-0.96193,0,0,0.1,-2.3685e-16,0,0.66667
0.18959,0.45801,1.8959,-0.062984,-8.0595,650.61,0.31843,-0.10614,-1.9871,0.42458,2.915e-11,-0.99357,0,0,0.1,-0,-0,0.66667
0.46342,0.76701,4.6342,0.40052,41.766,323.16,-4.9495,1.6498,-1.4272,-6.5994,-1.7839e-12,-0.7136,0,0,0.1,9.4739e-16,0,0.66667
0.50987,0.59604,5.0987,0.14405,14.133,274.96,-1.9587,0.65289,-1.9247,-2.6115,2.2335e-12,-0.96237,0,0,0.1,-1.8948e-15,0,0.66667
0.51158,0.87649,5.1158,0.56473,55.448,273.93,-7.7041,2.568,-0.86607,-10.272,1.1124e-12,-0.43304,0,0,0.1,-1.8948e-15,0,0.66667
0.99714,0.3853,9.9714,-0.17205,-0.035996,0.1827,4.5748,-1.5249,-1.8949,6.0998,-5.5765e-07,-0.94747,0,0,0.1,-0,-0,0.66667
0.1296,0.097212,1.296,-0.60418,-79.081,729.6,2.088,-0.696,-0.70122,2.784,1.3123e-08,-0.35061,0,0,0.1,-0,-0,0.66667
0.75617,0.18122,7.5617,-0.47817,-27.135,77.05,9.642,-3.214,-1.1847,12.856,-3.2365e-12,-0.59237,0,0,0.1,1.4211e-15,0,0.66667
0.79376,0.88384,7.9376,0.57575,28.262,56.907,-12.187,4.0623,-0.82134,-16.249,-7.311e-11,-0.41067,0,0,0.1,-1.8948e-15,0,0.66667
0.58488,0.072043,5.8488,-0.64194,-56.211,204.92,10.012,-3.3374,-0.53195,13.35,3.3671e-12,-0.26597,0,0,0.1,-0,-0,0.66667
0.46274,0.84465,4.6274,0.51697,54.012,324.1,-6.3793,2.1264,-1.0484,-8.5057,-8.3311e-13,-0.5242,0,0,0.1,1.8948e-15,0,0.66667
0.89343,0.92174,8.9343,0.63261,16.914,17.705,-15.072,5.0239,-0.57716,-20.096,-1.8675e-07,-0.28858,0,0,0.1,1.8948e-15,0,0.66667
0.82818,0.56253,8.2818,0.093788,3.8742,39.575,-2.0713,0.69043,-1.9752,-2.7617,6.4655e-10,-0.98758,0,0,0.1,-0,-0,0.66667
0.050291,0.91,0.50291,0.615,81.675,835.43,-0.82477,0.27492,-0.65547,-1.0997,-5.0603e-07,-0.32773,0,0,0.1,1.1842e-16,0,0.66667
0.96298,0.69259,9.6298,0.28889,2.6553,2.686,-7.4185,2.4728,-1.7013,-9.8913,-2.2017e-07,-0.85066,0,0,0.1,-0,-0,0.66667
0.0073399,0.77878,0.073399,0.41818,55.586,893.17,-0.081849,0.027282,-1.3762,-0.10913,-1.4869e-06,-0.6881,0,0,0.1,-1.1102e-17,0,0.66667
0.57313,0.69458,5.7313,0.29187,25.988,214.65,-4.4608,1.4869,-1.6954,-5.9477,9.3259e-15,-0.8477,0,0,0.1,-0,-0,0.66667
0.57243,0.39127,5.7243,-0.16309,-14.53,215.14,2.4896,-0.82986,-1.9027,3.3195,-1.5867e-12,-0.95137,0,0,0.1,-0,-0,0.66667
0.83438,0.63342,8.3438,0.20012,7.9982,37.049,-4.4528,1.4843,-1.855,-5.9371,7.9329e-10,-0.9275,0,0,0.1,-0,-0,0.66667
0.38472,0.93039,3.8472,0.64559,73.241,410.67,-6.6231,2.2077,-0.51581,-8.8309,4.5244e-12,-0.25791,0,0,0.1,-7.1054e-16,0,0.66667
0.091041,0.51944,0.91041,0.02916,3.8388,780.71,-0.070793,0.023598,-1.9973,-0.09439,1.0504e-08,-0.99863,0,0,0.1,-0,-0,0.66667
0.58169,0.17715,5.8169,-0.48428,-42.558,207.31,7.512,-2.504,-1.1654,10.016,3.7081e-13,-0.58272,0,0,0.1,-4.737e-16,0,0.66667
0.024846,0.30672,0.24846,-0.28992,-38.488,869.59,0.19209,-0.06403,-1.6988,0.25612,-8.1233e-07,-0.8494,0,0,0.1,-2.9606e-17,0,0.66667
0.3618,0.81508,3.618,0.47262,54.601,436.94,-4.5598,1.5199,-1.2076,-6.0797,-3.3391e-12,-0.60379,0,0,0.1,-0,-0,0.66667
0.98532,0.54813,9.8532,0.072202,0.2389,0.51684,-1.8971,0.63237,-1.9845,-2.5295,-8.1686e-07,-0.99224,0,0,0.1,-0,-0,0.66667
0.86878,0.45417,8.6878,-0.068743,-2.2079,23.832,1.5926,-0.53086,-1.9803,2.1235,-1.5242e-09,-0.99013,0,0,0.1,-0,-0,0.66667
0.1525,0.53753,1.525,0.056292,7.2984,699.14,-0.22892,0.076306,-1.9883,-0.30522,-1.9006e-09,-0.99413,0,0,0.1,-0,-0,0.66667
0.79883,0.36958,7.9883,-0.19563,-9.3327,53.328,4.1673,-1.3891,-1.866,5.5564,-2.0266e-11,-0.93298,0,0,0.1,-4.737e-16,0,0.66667
0.811,0.21045,8.11,-0.43432,-19.653,47.986,9.3929,-3.131,-1.3317,12.524,-2.4913e-11,-0.66585,0,0,0.1,-9.4739e-16,0,0.66667
0.92821,0.0032513,9.2821,-0.74512,-13.747,10.015,18.443,-6.1478,-0.024011,24.591,1.0581e-06,-0.012006,0,0,0.1,-0,-0,0.66667
0.22438,0.044699,2.2438,-0.68295,-86.407,606.18,4.0865,-1.3622,-0.33899,5.4487,-1.0794e-10,-0.1695,0,0,0.1,-0,-0,0.66667
0.49897,0.2008,4.9897,-0.4488,-44.774,286.36,5.9716,-1.9905,-1.2867,7.9622,-2.2533e-12,-0.64336,0,0,0.1,-0,-0,0.66667
0.82744,0.030681,8.2744,-0.70398,-29.55,41.684,15.533,-5.1778,-0.24301,20.711,-2.4749e-09,-0.1215,0,0,0.1,2.4869e-15,0,0.66667
0.66733,0.471,6.6733,-0.043495,-3.1914,135.91,0.77401,-0.258,-1.9927,1.032,-1.134e-12,-0.99633,0,0,0.1,-0,-0,0.66667
0.59394,0.9495,5.9394,0.67425,58.112,197.05,-10.679,3.5597,-0.38815,-14.239,1.2736e-12,-0.19408,0,0,0.1,-0,-0,0.66667
0.65198,0.6444,6.5198,0.21661,16.489,147.83,-3.7659,1.2553,-1.8317,-5.0212,5.238e-13,-0.91583,0,0,0.1,-0,-0,0.66667
0.23852,0.028947,2.3852,-0.70658,-88.805,588.21,4.4942,-1.4981,-0.22463,5.9922,8.145e-12,-0.11231,0,0,0.1,-1.1842e-16,0,0.66667
0.02554,0.77605,0.2554,0.41407,55.005,868.67,-0.28201,0.094005,-1.3885,-0.37601,2.0375e-06,-0.69423,0,0,0.1,-0,-0,0.66667
0.73626,0.50273,7.3626,0.004102,0.24806,88.329,-0.080536,0.026845,-2.0025,-0.10738,3.9329e-12,-1.0013,0,0,0.1,-0,-0,0.66667
0.32679,0.79698,3.2679,0.44547,52.884,478.5,-3.882,1.294,-1.2968,-5.176,-1.4031e-12,-0.64838,0,0,0.1,-8.6069e-16,0,0.66667
0.37676,0.50623,3.7676,0.0093459,1.0638,419.14,-0.093897,0.031299,-2.0019,-0.1252,-3.1819e-12,-1.001,0,0,0.1,-0,-0,0.66667
0.61262,0.62438,6.1262,0.18657,15.438,179.83,-3.0479,1.016,-1.8773,-4.0638,-6.7835e-13,-0.93866,0,0,0.1,1.0066e-15,0,0.66667
0.65717,0.2622,6.5717,-0.35671,-26.86,144.03,6.2511,-2.0837,-1.5507,8.3348,-7.7449e-13,-0.77537,0,0,0.1,-0,-0,0.66667
0.2029,0.44737,2.029,-0.078939,-10.046,633.37,0.42711,-0.14237,-1.9825,0.56948,2.6873e-11,-0.99123,0,0,0.1,-0,-0,0.66667
0.82603,0.012646,8.2603,-0.73103,-30.942,42.44,16.103,-5.3676,-0.10103,21.47,-8.8939e-10,-0.050514,0,0,0.1,-0,-0,0.66667
0.38021,0.38165,3.8021,-0.17752,-20.15,415.21,1.7998,-0.59995,-1.8861,2.3998,-3.7031e-12,-0.94307,0,0,0.1,9.4739e-16,0,0.66667
0.63174,0.62914,6.3174,0.19371,15.415,163.94,-3.2634,1.0878,-1.8644,-4.3511,-2.214e-12,-0.93219,0,0,0.1,-0,-0,0.66667
0.96641,0.9337,9.6641,0.65055,5.6351,3.7811,-16.765,5.5884,-0.49696,-22.354,-1.6228e-06,-0.24848,0,0,0.1,-4.737e-16,0,0.66667
0.56479,0.17086,5.6479,-0.49371,-44.667,222.69,7.4358,-2.4786,-1.1341,9.9144,-3.0331e-12,-0.56706,0,0,0.1,9.4739e-16,0,0.66667
0.35891,0.26251,3.5891,-0.35624,-41.219,440.17,3.4095,-1.1365,-1.5528,4.546,-6.2894e-12,-0.77639,0,0,0.1,-0,-0,0.66667
0.61897,0.67482,6.1897,0.26223,21.434,174.58,-4.3283,1.4428,-1.7527,-5.7711,-5.751e-13,-0.87635,0,0,0.1,-0,-0,0.66667
0.50179,0.47176,5.0179,-0.042359,-4.2011,283.05,0.56681,-0.18894,-1.9963,0.75575,9.6706e-13,-0.99814,0,0,0.1,-0,-0,0.66667
0.45238,0.67688,4.5238,0.26532,28.001,334.76,-3.2006,1.0669,-1.7533,-4.2675,-4.3221e-12,-0.87663,0,0,0.1,4.737e-16,0,0.66667
0.73227,0.793,7.3227,0.4395,27.009,91.464,-8.5821,2.8607,-1.3144,-11.443,-6.8505e-12,-0.65719,0,0,0.1,-0,-0,0.66667
0.92451,0.63185,9.2451,0.19778,3.7238,8.6371,-4.876,1.6253,-1.8617,-6.5013,6.8049e-08,-0.93087,0,0,0.1,-0,-0,0.66667
0.47927,0.71357,4.7927,0.32035,32.749,306.38,-4.0943,1.3648,-1.6336,-5.459,-3.2467e-12,-0.81679,0,0,0.1,7.1054e-16,0,0.66667
0.08823,0.94708,0.8823,0.67062,88.642,784.65,-1.5778,0.52595,-0.39862,-2.1038,5.0665e-07,-0.19931,0,0,0.1,2.3685e-16,0,0.66667
0.56965,0.58594,5.6965,0.12891,11.538,217.65,-1.9583,0.65276,-1.9381,-2.611,-2.4536e-12,-0.96906,0,0,0.1,-4.737e-16,0,0.66667
0.24495,0.44031,2.4495,-0.089532,-11.17,579.52,0.58482,-0.19494,-1.9704,0.77977,-2.233e-11,-0.98519,0,0,0.1,-0,-0,0.66667
0.039578,0.20941,0.39578,-0.43588,-57.858,849.78,0.46003,-0.15334,-1.3215,0.61338,5.2743e-07,-0.66075,0,0,0.1,-2.9606e-17,0,0.66667
0.78814,0.89843,7.8814,0.59764,30.06,59.872,-12.561,4.1869,-0.72729,-16.748,-8.6503e-10,-0.36365,0,0,0.1,-0,-0,0.66667
0.27277,0.71393,2.7277,0.3209,39.45,544.64,-2.3341,0.77805,-1.6315,-3.1122,-8.1024e-13,-0.81573,0,0,0.1,-3.5527e-16,0,0.66667
0.77707,0.58001,7.7707,0.12002,6.2712,64.547,-2.4869,0.82898,-1.9473,-3.3159,-1.7994e-11,-0.97364,0,0,0.1,9.4739e-16,0,0.66667
0.48821,0.89328,4.8821,0.58992,59.777,297.67,-7.68,2.56,-0.76154,-10.24,-3.2419e-13,-0.38077,0,0,0.1,9.4739e-16,0,0.66667
0.31794,0.42023,3.1794,-0.11966,-14.274,488.94,1.0145,-0.33818,-1.9466,1.3527,-1.0806e-11,-0.97329,0,0,0.1,-0,-0,0.66667
0.31403,0.9157,3.1403,0.62356,74.83,494.21,-5.2217,1.7406,-0.61977,-6.9622,3.59e-12,-0.30989,0,0,0.1,-0,-0,0.66667
0.042025,0.50116,0.42025,0.0017365,0.23012,846.46,-0.0019461,0.00064732,-1.9993,-0.0025955,-2.0642e-06,-0.99967,0,0,0.1,2.3685e-16,0,0.66667
0.5344,0.014319,5.344,-0.72852,-69.372,252.04,10.382,-3.4606,-0.11254,13.843,5.3291e-15,-0.056269,0,0,0.1,-0,-0,0.66667
0.82355,0.94548,8.2355,0.66823,28.588,43.205,-14.675,4.8917,-0.41087,-19.567,7.63e-10,-0.20544,0,0,0.1,-0,-0,0.66667
0.083895,0.67282,0.83895,0.25923,34.188,790.29,-0.57995,0.19332,-1.7583,-0.77327,-5.5607e-08,-0.87917,0,0,0.1,-0,-0,0.66667
0.10856,0.37041,1.0856,-0.19438,-25.506,757.36,0.56271,-0.18757,-1.8698,0.75028,2.1024e-08,-0.93488,0,0,0.1,-1.1842e-16,0,0.66667
0.52926,0.083308,5.2926,-0.62504,-59.883,256.69,8.8215,-2.9405,-0.61236,11.762,1.7808e-12,-0.30618,0,0,0.1,-4.737e-16,-1.0539e-16,0.66667
0.66014,0.12242,6.6014,-0.56637,-42.465,142.31,9.9703,-3.3234,-0.85941,13.294,-1.0623e-12,-0.42971,0,0,0.1,-2.3685e-16,0,0.66667
0.69475,0.84787,6.9475,0.5218,35.835,116.76,-9.6672,3.2224,-1.0296,-12.89,-2.6734e-12,-0.51479,0,0,0.1,-0,-0,0.66667
0.31322,0.72766,3.1322,0.34148,40.906,494.81,-2.8523,0.95075,-1.5891,-3.803,-3.503e-12,-0.79456,0,0,0.1,-0,-0,0.66667
0.037778,0.51168,0.37778,0.017517,2.322,852.17,-0.017647,0.0058818,-1.996,-0.023529,-6.7709e-07,-0.99798,0,0,0.1,1.1842e-16,0,0.66667
0.41456,0.82318,4.1456,0.48476,53.362,376.53,-5.3591,1.7864,-1.1614,-7.1454,-3.606e-13,-0.58069,0,0,0.1,-0,-0,0.66667
0.22604,0.66723,2.2604,0.25085,31.607,603.66,-1.5121,0.50402,-1.7732,-2.0161,2.7746e-11,-0.88659,0,0,0.1,-4.737e-16,0,0.66667
0.0011148,0.8879,0.011148,0.58185,77.445,901.55,-0.017293,0.0057761,-0.79904,-0.023052,1.746e-05,-0.39952,0,0,0.1,-1.8504e-18,0,0.66667
0.68572,0.62398,6.8572,0.18597,13.035,122.46,-3.4007,1.1336,-1.8801,-4.5342,1.2612e-13,-0.94004,0,0,0.1,-5.9212e-17,0,0.66667
0.95206,0.33799,9.5206,-0.24301,-2.9051,3.944,6.1696,-2.0565,-1.7935,8.2261,7.0665e-08,-0.89675,0,0,0.1,-9.4739e-16,0,0.66667
0.39115,0.18595,3.9115,-0.47108,-53.034,402.96,4.9137,-1.6379,-1.2162,6.5516,-1.5792e-12,-0.60808,0,0,0.1,-0,-0,0.66667
0.3003,0.96131,3.003,0.69196,83.881,511.08,-5.5412,1.8471,-0.29733,-7.3882,2.8062e-12,-0.14866,0,0,0.1,4.737e-16,0,0.66667
0.55375,0.33471,5.5375,-0.24793,-22.792,232.49,3.6611,-1.2204,-1.7786,4.8815,-9.9742e-13,-0.88929,0,0,0.1,4.737e-16,0,0.66667
0.85198,0.46698,8.5198,-0.049526,-1.7815,29.879,1.1252,-0.37507,-1.9894,1.5003,-2.1051e-09,-0.99468,0,0,0.1,-1.0658e-15,0,0.66667
0.79497,0.82856,7.9497,0.49283,24.02,55.983,-10.448,3.4826,-1.1378,-13.93,-7.0986e-11,-0.56889,0,0,0.1,-9.4739e-16,0,0.66667
0.68476,0.92505,6.8476,0.63758,45.047,124.28,-11.642,3.8808,-0.55485,-15.523,1.7009e-12,-0.27742,0,0,0.1,-9.4739e-16,0,0.66667
0.43211,0.81786,4.3211,0.47679,51.536,357.09,-5.494,1.8313,-1.19,-7.3253,-3.2081e-12,-0.59498,0,0,0.1,-0,-0,0.66667
0.69043,0.48274,6.9043,-0.025893,-1.7915,118.98,0.47672,-0.15891,-1.9975,0.63563,4.0054e-13,-0.99876,0,0,0.1,-9.4739e-16,0,0.66667
0.21603,0.31413,2.1603,-0.2788,-35.299,616.52,1.6061,-0.53537,-1.7252,2.1415,-5.9001e-11,-0.86258,0,0,0.1,-0,-0,0.66667
0.28394,0.64158,2.8394,0.21237,25.92,530.67,-1.6081,0.53602,-1.8399,-2.1441,-2.5215e-12,-0.91993,0,0,0.1,4.737e-16,0,0.66667
0.77782,0.85455,7.7782,0.53182,27.855,65.069,-11.031,3.677,-0.99382,-14.708,-4.9597e-11,-0.49691,0,0,0.1,-1.8948e-15,0,0.66667
0.92998,0.58147,9.2998,0.1222,2.1325,7.4381,-3.0306,1.0102,-1.9437,-4.0408,4.2841e-08,-0.97185,0,0,0.1,-0,-0,0.66667
0.19005,0.68764,1.9005,0.28146,36.031,650.08,-1.4264,0.47548,-1.7204,-1.9019,-4.5455e-11,-0.86021,0,0,0.1,-4.737e-16,0,0.66667
0.29606,0.87598,2.9606,0.56398,68.463,516.06,-4.4526,1.4842,-0.87384,-5.9368,1.0856e-11,-0.43692,0,0,0.1,-0,1.4447e-17,0.66667
0.0062103,0.86618,0.062103,0.54928,73.086,894.69,-0.09096,0.030316,-0.92466,-0.12128,-5.6385e-06,-0.46233,0,0,0.1,-0,-0,0.66667
0.43156,0.11637,4.3156,-0.57544,-62.298,357.88,6.6224,-2.2075,-0.82016,8.8298,-3.5012e-12,-0.41008,0,0,0.1,4.737e-16,0,0.66667
0.2103,0.57264,2.103,0.10896,13.824,623.83,-0.61105,0.20368,-1.9548,-0.81474,3.94e-11,-0.97738,0,0,0.1,-0,-0,0.66667
0.64142,0.3382,6.4142,-0.2427,-18.919,156.19,4.1512,-1.3837,-1.7946,5.535,-4.6807e-13,-0.89728,0,0,0.1,-9.4739e-16,0,0.66667
0.70959,0.78758,7.0959,0.43136,28.387,106.27,-8.1624,2.7208,-1.336,-10.883,-1.8057e-12,-0.66798,0,0,0.1,-0,-0,0.66667
0.11878,0.49182,1.1878,-0.012266,-1.6052,743.75,0.038851,-0.01295,-1.9969,0.051801,-1.3756e-08,-0.99845,0,0,0.1,1.1842e-16,0,0.66667
0.082144,0.80883,0.82144,0.46325,61.183,792.69,-1.0147,0.33825,-1.2366,-1.353,-4.6953e-08,-0.61831,0,0,0.1,-1.7764e-16,0,0.66667
0.90634,0.57723,9.0634,0.11584,2.6919,12.713,-2.7997,0.93325,-1.957,-3.733,1.8917e-08,-0.97849,0,0,0.1,-0,-0,0.66667
0.38924,0.23035,3.8924,-0.40447,-45.592,405.05,4.1983,-1.3994,-1.4207,5.5977,-3.7801e-12,-0.71033,0,0,0.1,-9.4739e-16,0,0.66667
0.5334,0.67716,5.334,0.26574,25.215,251.91,-3.7799,1.26,-1.7501,-5.0398,-3.1286e-13,-0.87505,0,0,0.1,-4.737e-16,0,0.66667
0.96324,0.52363,9.6324,0.035451,0.32048,2.3057,-0.91061,0.30354,-1.9934,-1.2142,2.8727e-09,-0.9967,0,0,0.1,-0,-0,0.66667
0.75905,0.78484,7.5905,0.42725,23.976,75.219,-8.6482,2.8827,-1.3489,-11.531,-3.0073e-11,-0.67444,0,0,0.1,1.8948e-15,0,0.66667
0.32554,0.55126,3.2554,0.076891,9.1212,479.73,-0.66749,0.2225,-1.9795,-0.88999,-2.983e-12,-0.98974,0,0,0.1,-0,-0,0.66667
0.085849,0.29063,0.85849,-0.31406,-41.415,787.69,0.71898,-0.23966,-1.6463,0.95865,5.1744e-08,-0.82315,0,0,0.1,2.3685e-16,0,0.66667
0.53602,0.83952,5.3602,0.50929,48.234,249.83,-7.2797,2.4266,-1.0766,-9.7063,-1.9527e-12,-0.53832,0,0,0.1,3.1739e-16,0,0.66667
0.33613,0.32556,3.3613,-0.26167,-30.813,467.11,2.3454,-0.7818,-1.7533,3.1272,-3.9293e-12,-0.87666,0,0,0.1,-0,-0,0.66667
0.021685,0.34446,0.21685,-0.23331,-30.97,873.84,0.13492,-0.044973,-1.8051,0.17989,-4.4464e-07,-0.90257,0,0,0.1,-5.9212e-17,0,0.66667
0.77115,0.89637,7.7115,0.59456,32.003,68.955,-12.227,4.0755,-0.74076,-16.302,3.0986e-10,-0.37038,0,0,0.1,9.4739e-16,0,0.66667
0.38491,0.65606,3.8491,0.23409,26.465,409.83,-2.4028,0.80093,-1.8041,-3.2037,-7.1638e-12,-0.90207,0,0,0.1,4.737e-16,0,0.66667
0.57132,0.93655,5.7132,0.65483,58.721,217.17,-9.9765,3.3255,-0.47372,-13.302,1.6431e-12,-0.23686,0,0,0.1,1.3027e-15,0,0.66667
0.75574,0.61748,7.5574,0.17622,9.979,76.636,-3.5513,1.1838,-1.8873,-4.7351,-1.8735e-11,-0.94367,0,0,0.1,4.737e-16,0,0.66667
0.94085,0.75185,9.4085,0.37778,5.6183,6.008,-9.4781,3.1594,-1.4933,-12.637,1.0592e-07,-0.74664,0,0,0.1,-0,-0,0.66667
0.61232,0.25147,6.1232,-0.37279,-30.905,180.37,6.0872,-2.0291,-1.5071,8.1162,-1.2124e-13,-0.75357,0,0,0.1,-0,-0,0.66667
0.3154,0.22927,3.154,-0.4061,-48.592,492.23,3.4155,-1.1385,-1.4138,4.554,-5.917e-12,-0.70688,0,0,0.1,-0,-0,0.66667
0.11008,0.74138,1.1008,0.36206,47.528,755.38,-1.0628,0.35426,-1.5377,-1.4171,-2.328e-08,-0.76885,0,0,0.1,-0,-0,0.66667
0.073919,0.94857,0.73919,0.67286,89.148,803.78,-1.3263,0.44211,-0.38885,-1.7684,-2.5501e-06,-0.19442,0,0,0.1,-0,-0,0.66667
0.31969,0.41931,3.1969,-0.12103,-14.419,486.81,1.0318,-0.34393,-1.9447,1.3757,-9.4842e-12,-0.97237,0,0,0.1,-4.737e-16,0,0.66667
0.66084,0.3612,6.6084,-0.2082,-15.525,140.97,3.669,-1.223,-1.844,4.8919,-1.972e-12,-0.922,0,0,0.1,9.4739e-16,0,0.66667
0.69515,0.36788,6.9515,-0.19818,-13.547,115.76,3.6738,-1.2246,-1.8576,4.8983,6.497e-13,-0.92879,0,0,0.1,-0,-0,0.66667
0.20772,0.73831,2.0772,0.35747,45.445,627.26,-1.9801,0.66002,-1.5439,-2.6401,3.0373e-11,-0.77193,0,0,0.1,-2.3685e-16,0,0.66667
0.082796,0.67823,0.82796,0.26735,35.266,791.77,-0.59027,0.19676,-1.7442,-0.78703,-5.9848e-08,-0.87209,0,0,0.1,-0,-0,0.66667
0.30551,0.52817,3.0551,0.042256,5.0837,504.06,-0.34426,0.11475,-1.9916,-0.45901,-9.541e-12,-0.99578,0,0,0.1,-4.737e-16,0,0.66667
0.54757,0.35916,5.4757,-0.21126,-19.609,238.28,3.0848,-1.0283,-1.8448,4.1131,3.304e-13,-0.92239,0,0,0.1,-9.4739e-16,0,0.66667
0.75467,0.17376,7.5467,-0.48936,-27.924,77.965,9.8482,-3.2827,-1.1466,13.131,1.4512e-11,-0.57329,0,0,0.1,-9.4739e-16,0,0.66667
0.52966,0.44107,5.2966,-0.088389,-8.4281,255.4,1.2484,-0.41614,-1.9751,1.6646,-4.1995e-12,-0.98756,0,0,0.1,-0,-0,0.66667
0.28698,0.80929,2.8698,0.46394,56.597,527.12,-3.5505,1.1835,-1.2331,-4.734,-2.8524e-12,-0.61654,0,0,0.1,-3.8873e-16,0,0.66667
0.62418,0.90794,6.2418,0.61191,49.682,171.09,-10.185,3.395,-0.6733,-13.58,-3.0846e-12,-0.33665,0,0,0.1,1.8948e-15,2.4191e-17,0.66667
0.26484,0.15852,2.6484,-0.51222,-63.347,554.75,3.6175,-1.2058,-1.0717,4.8233,8.1382e-12,-0.53584,0,0,0.1,-9.4739e-16,0,0.66667
0.65269,0.3553,6.5269,-0.21704,-16.495,147.27,3.7777,-1.2592,-1.8318,5.0369,-1.765e-12,-0.91588,0,0,0.1,-0,-0,0.66667
0.8419,0.89203,8.419,0.58805,22.701,35.106,-13.202,4.4007,-0.77194,-17.603,-2.3752e-10,-0.38597,0,0,0.1,9.4739e-16,1.4196e-16,0.66667
0.63895,0.18698,6.3895,-0.46953,-36.879,158.63,8.0001,-2.6667,-1.2195,10.667,2.065e-12,-0.60975,0,0,0.1,-1.3027e-15,0,0.66667
0.56563,0.34366,5.6563,-0.23452,-21.141,221.44,3.5373,-1.1791,-1.8058,4.7165,-2.4101e-12,-0.90289,0,0,0.1,3.7007e-17,0,0.66667
0.30714,0.19339,3.0714,-0.45992,-55.371,502.35,3.767,-1.2557,-1.2461,5.0226,-3.364e-13,-0.62304,0,0,0.1,-0,-0,0.66667
0.87678,0.66786,8.7678,0.25179,7.6335,21.406,-5.887,1.9623,-1.7763,-7.8493,1.0484e-08,-0.88814,0,0,0.1,-0,-0,0.66667
0.98882,0.96964,9.8882,0.70446,2.0397,2.5052,-18.575,6.1919,-0.23528,-24.767,9.3348e-05,-0.11764,0,0,0.1,-0,-0,0.66667
0.77748,0.33041,7.7748,-0.25439,-13.284,64.499,5.2742,-1.7581,-1.7688,7.0322,3.6703e-11,-0.88442,0,0,0.1,-9.4739e-16,0,0.66667
0.57364,0.040194,5.7364,-0.68971,-61.638,215.18,10.551,-3.5169,-0.30714,14.067,-2.438e-12,-0.15357,0,0,0.1,-0,6.0336e-17,0.66667
0.14128,0.53468,1.4128,0.052027,6.7682,713.94,-0.19601,0.065336,-1.995,-0.26134,6.5284e-10,-0.99748,0,0,0.1,4.737e-16,0,0.66667
0.31493,0.96343,3.1493,0.69515,83.436,493.25,-5.8379,1.946,-0.28318,-7.7839,-2.5677e-12,-0.14159,0,0,0.1,-2.3685e-16,0,0.66667
0.36686,0.80289,3.6686,0.45433,52.257,430.99,-4.4447,1.4816,-1.263,-5.9263,-4.2339e-12,-0.63152,0,0,0.1,-4.737e-16,0,0.66667
0.2919,0.9046,2.919,0.60691,73.904,521.26,-4.7241,1.5747,-0.68952,-6.2988,-6.8066e-12,-0.34476,0,0,0.1,-5.9212e-17,0,0.66667
0.44595,0.45973,4.4595,-0.06041,-6.4178,341.56,0.7184,-0.23947,-1.9841,0.95787,-1.7329e-12,-0.99205,0,0,0.1,-0,-0,0.66667
0.61063,0.26,6.1063,-0.36,-29.94,181.77,5.8621,-1.954,-1.5419,7.8161,2.2915e-13,-0.77093,0,0,0.1,-0,-0,0.66667
0.21291,0.26616,2.1291,-0.35077,-44.489,620.56,1.9916,-0.66385,-1.5598,2.6554,-5.4241e-11,-0.77989,0,0,0.1,4.737e-16,0,0.66667
0.24976,0.47458,2.4976,-0.038133,-4.7451,573.43,0.25398,-0.084659,-1.9999,0.33864,-1.4956e-12,-0.99993,0,0,0.1,-0,-0,0.66667
0.11215,0.21552,1.1215,-0.42672,-56.012,752.65,1.2762,-0.42539,-1.3537,1.7016,1.7321e-08,-0.67687,0,0,0.1,-2.9606e-16,0,0.66667
0.30759,0.83241,3.0759,0.49862,60.03,501.85,-4.0899,1.3633,-1.114,-5.4532,3.0465e-12,-0.55699,0,0,0.1,-0,-0,0.66667
0.49745,0.16486,4.9745,-0.50271,-50.28,288.01,6.6686,-2.2229,-1.1022,8.8914,-2.7249e-12,-0.5511,0,0,0.1,-0,-0,0.66667
0.48981,0.36145,4.8981,-0.20782,-20.95,295.36,2.7145,-0.90484,-1.8439,3.6193,-2.442e-12,-0.92197,0,0,0.1,-0,-0,0.66667
0.99558,0.89597,9.9558,0.59395,0.56975,1.6497,-15.769,5.2562,-0.74415,-21.025,2.6133e-06,-0.37207,0,0,0.1,-0,-0,0.66667
0.98111,0.77957,9.8111,0.41935,1.9244,1.5074,-10.971,3.6571,-1.3756,-14.628,-1.5924e-06,-0.68779,0,0,0.1,-2.3685e-16,0,0.66667
0.43656,0.84552,4.3656,0.51828,55.776,352.29,-6.0337,2.0112,-1.0493,-8.0449,3.5989e-12,-0.52464,0,0,0.1,-0,-1.3071e-16,0.66667
0.97202,0.93598,9.7202,0.65397,4.7196,3.2779,-16.951,5.6504,-0.48025,-22.602,-2.5837e-05,-0.24012,0,0,0.1,4.737e-16,0,0.66667
0.2144,0.87543,2.144,0.56315,71.492,618.84,-3.2197,1.0732,-0.87232,-4.2929,-4.4155e-10,-0.43616,0,0,0.1,-0,-0,0.66667
0.54112,0.71619,5.4112,0.32429,30.424,244.57,-4.6794,1.5598,-1.6246,-6.2392,-3.6326e-12,-0.81228,0,0,0.1,1.1842e-15,0,0.66667
0.45344,0.45992,4.5344,-0.060118,-6.3328,333.49,0.72692,-0.24231,-1.9917,0.96923,-7.9786e-13,-0.99585,0,0,0.1,4.737e-16,0,0.66667
0.96761,0.011828,9.6761,-0.73226,-6.2025,4.1486,18.894,-6.2981,-0.096256,25.192,-6.3427e-06,-0.048128,0,0,0.1,-0,1.1143e-16,0.66667
0.83618,0.93103,8.3618,0.64654,25.835,37.704,-14.417,4.8056,-0.51102,-19.222,-1.4607e-08,-0.25551,0,0,0.1,-4.737e-16,0,0.66667
0.21415,0.084764,2.1415,-0.62285,-79.126,619.23,3.5569,-1.1856,-0.61903,4.7425,-6.4913e-10,-0.30952,0,0,0.1,-0,-0,0.66667
0.43954,0.93456,4.3954,0.65184,70.028,349.35,-7.6402,2.5467,-0.49156,-10.187,7.1054e-14,-0.24578,0,0,0.1,1.1842e-16,0,0.66667
0.16848,0.84561,1.6848,0.51841,67.001,678.36,-2.3291,0.77636,-1.0451,-3.1054,-2.1124e-09,-0.52255,0,0,0.1,-0,-0,0.66667
0.52909,0.96164,5.2909,0.69245,66.422,257.06,-9.7698,3.2566,-0.29662,-13.026,1.136e-12,-0.14831,0,0,0.1,-0,-0,0.66667
0.79348,0.27304,7.9348,-0.34044,-16.654,56.285,7.2035,-2.4012,-1.5876,9.6046,4.0012e-11,-0.79382,0,0,0.1,-0,-0,0.66667
0.035879,0.48529,0.35879,-0.022063,-2.9251,854.73,0.02111,-0.0070364,-1.9963,0.028146,1.7971e-07,-0.99817,0,0,0.1,-5.9212e-17,0,0.66667
0.19136,0.026703,1.9136,-0.70995,-91.15,648.74,3.6228,-1.2076,-0.20758,4.8304,-9.6037e-11,-0.10379,0,0,0.1,-0,-0,0.66667
0.97746,0.28172,9.7746,-0.32742,-1.7916,1.4577,8.5344,-2.8448,-1.6173,11.379,1.0214e-06,-0.80863,0,0,0.1,-0,-0,0.66667
0.9608,0.01254,9.608,-0.73119,-7.4729,4.8607,18.734,-6.2447,-0.095889,24.979,-8.6189e-06,-0.047944,0,0,0.1,-0,-0,0.66667
0.55659,0.81711,5.5659,0.47566,43.608,230.24,-7.0599,2.3533,-1.1936,-9.4132,-2.0246e-12,-0.5968,0,0,0.1,-0,-0,0.66667
0.64609,0.68533,6.4609,0.278,21.454,152.54,-4.7896,1.5965,-1.7239,-6.3862,2.6921e-12,-0.86197,0,0,0.1,3.5527e-16,0,0.66667
0.27209,0.8454,2.7209,0.5181,63.808,545.69,-3.7592,1.2531,-1.0439,-5.0123,1.8368e-11,-0.52196,0,0,0.1,-0,-0,0.66667
0.95209,0.037442,9.5209,-0.69384,-8.5935,5.7273,17.616,-5.872,-0.29177,23.488,-9.1601e-06,-0.14588,0,0,0.1,-0,7.5263e-17,0.66667
0.66977,0.21161,6.6977,-0.43258,-31.635,134.63,7.7262,-2.5754,-1.3362,10.302,-1.2923e-13,-0.66811,0,0,0.1,-9.4739e-16,0,0.66667
0.66681,0.019403,6.6681,-0.7209,-53.35,137.84,12.819,-4.2729,-0.15003,17.092,-1.0614e-12,-0.075017,0,0,0.1,-0,-0,0.66667
0.011103,0.17334,0.11103,-0.49,-65.161,888.11,0.14508,-0.048358,-1.1445,0.19344,2.8973e-06,-0.57225,0,0,0.1,-0,-0,0.66667
0.85297,0.59001,8.5297,0.13502,4.8283,29.563,-3.0711,1.0237,-1.9332,-4.0947,2.1122e-09,-0.96658,0,0,0.1,-0,-0,0.66667
0.77833,0.0073443,7.7833,-0.73898,-38.829,65.707,15.338,-5.1126,-0.058707,20.45,-8.364e-12,-0.029354,0,0,0.1,-0,-8.5163e-17,0.66667
0.68492,0.67393,6.8492,0.26089,18.333,123.13,-4.7651,1.5884,-1.7584,-6.3534,-1.5077e-12,-0.8792,0,0,0.1,9.4739e-16,0,0.66667
0.74078,0.83099,7.4078,0.49649,29.709,86.334,-9.8077,3.2692,-1.1206,-13.077,1.7168e-12,-0.5603,0,0,0.1,-9.4739e-16,0,0.66667
0.15657,0.33546,1.5657,-0.24681,-31.973,693.82,1.0305,-0.3435,-1.788,1.374,1.4334e-09,-0.89399,0,0,0.1,-0,-0,0.66667
0.71878,0.57047,7.1878,0.1057,6.7519,99.584,-2.026,0.67535,-1.9655,-2.7014,-5.6459e-12,-0.98274,0,0,0.1,1.8948e-15,0,0.66667
0.096818,0.70117,0.96818,0.30175,39.709,773.03,-0.77907,0.25969,-1.676,-1.0388,-4.0499e-08,-0.838,0,0,0.1,-2.3685e-16,0,0.66667
0.70695,0.89364,7.0695,0.59046,39.25,108.57,-11.131,3.7104,-0.7593,-14.842,-1.7506e-12,-0.37965,0,0,0.1,9.4739e-16,0,0.66667
0.0026318,0.10243,0.026318,-0.59636,-79.386,899.51,0.041847,-0.013956,-0.73616,0.055793,-9.9136e-06,-0.36808,0,0,0.1,-0,-6.6465e-17,0.66667
0.77621,0.89618,7.7621,0.59427,31.368,66.186,-12.301,4.1002,-0.74228,-16.401,1.1872e-10,-0.37114,0,0,0.1,-0,-0,0.66667
0.49156,0.16976,4.9156,-0.49536,-49.926,294.01,6.4933,-2.1644,-1.1243,8.6577,-6.4233e-12,-0.56217,0,0,0.1,9.4739e-16,0,0.66667
0.20439,0.90836,2.0439,0.61254,78.141,631.78,-3.3385,1.1128,-0.66965,-4.4514,-9.9388e-10,-0.33483,0,0,0.1,-0,-0,0.66667
0.72925,0.41868,7.2925,-0.12197,-7.5452,92.806,2.372,-0.79066,-1.9449,3.1626,2.6357e-12,-0.97243,0,0,0.1,-0,-0,0.66667
0.31565,0.54415,3.1565,0.066219,7.9111,491.7,-0.55739,0.1858,-1.9841,-0.74319,-6.3738e-13,-0.99204,0,0,0.1,4.737e-16,0,0.66667
0.88382,0.91013,8.8382,0.61519,17.835,20.433,-14.499,4.8331,-0.65217,-19.332,1.6743e-08,-0.32609,0,0,0.1,-0,-0,0.66667
0.18023,0.3165,1.8023,-0.27525,-35.369,662.85,1.3229,-0.44098,-1.7283,1.7639,1.3807e-10,-0.86416,0,0,0.1,-0,-0,0.66667
0.93855,0.72397,9.3855,0.33595,5.1793,6.2728,-8.4083,2.8028,-1.6023,-11.211,1.0911e-07,-0.80114,0,0,0.1,1.8948e-15,0,0.66667
0.97075,0.41629,9.7075,-0.12557,-0.89391,1.6119,3.2506,-1.0835,-1.9454,4.3341,2.2998e-07,-0.97269,0,0,0.1,-0,-0,0.66667
0.30449,0.12282,3.0449,-0.56577,-68.3,505.74,4.5938,-1.5313,-0.85988,6.1251,-1.0187e-12,-0.42994,0,0,0.1,-2.3685e-16,0,0.66667
0.86249,0.39431,8.6249,-0.15854,-5.3255,26.102,3.6463,-1.2154,-1.9104,4.8617,-2.9311e-09,-0.9552,0,0,0.1,-9.4739e-16,0,0.66667
0.84218,0.12743,8.4218,-0.55885,-21.519,34.868,12.551,-4.1836,-0.89268,16.734,-4.8625e-10,-0.44634,0,0,0.1,-0,1.007e-16,0.66667
0.42461,0.24593,4.2461,-0.3811,-41.487,365.19,4.3152,-1.4384,-1.4847,5.7536,2.8151e-12,-0.74234,0,0,0.1,-0,-0,0.66667
0.36368,0.45678,3.6368,-0.064837,-7.4639,434.38,0.6288,-0.2096,-1.9835,0.83841,-7.7114e-12,-0.99175,0,0,0.1,-0,-0,0.66667
0.28244,0.41166,2.8244,-0.13251,-16.184,532.51,0.99802,-0.33267,-1.9409,1.3307,-6.4648e-12,-0.97043,0,0,0.1,-0,-0,0.66667
0.99324,0.54349,9.9324,0.065233,0.07948,0.17547,-1.7278,0.57593,-1.9818,-2.3037,7.5224e-07,-0.99091,0,0,0.1,-0,-0,0.66667
0.25575,0.16402,2.5575,-0.50397,-62.64,566.15,3.4371,-1.1457,-1.0947,4.5828,2.4336e-13,-0.54733,0,0,0.1,-0,-0,0.66667
0.92068,0.42194,9.2068,-0.1171,-2.3121,9.3478,2.8749,-0.9583,-1.9538,3.8332,-3.2782e-08,-0.9769,0,0,0.1,-0,-0,0.66667
0.42834,0.66732,4.2834,0.25098,27.195,360.92,-2.8668,0.9556,-1.7731,-3.8224,-2.1205e-12,-0.88657,0,0,0.1,-0,-0,0.66667
0.93543,0.38454,9.3543,-0.17318,-2.7902,6.4794,4.32,-1.44,-1.8947,5.76,-3.4435e-08,-0.94736,0,0,0.1,-0,-0,0.66667
0.83884,0.035132,8.3884,-0.6973,-27.497,36.864,15.598,-5.1994,-0.26999,20.797,-6.3556e-11,-0.13499,0,0,0.1,-0,-0,0.66667
0.15578,0.83278,1.5578,0.49918,64.779,695,-2.0736,0.6912,-1.1181,-2.7648,9.0822e-10,-0.55905,0,0,0.1,-0,-0,0.66667
0.57428,0.88002,5.7428,0.57003,50.798,214.22,-8.7296,2.9099,-0.84427,-11.64,3.6069e-12,-0.42213,0,0,0.1,-1.8948e-15,0,0.66667
0.6735,0.33368,6.735,-0.24948,-18.046,131.48,4.4807,-1.4936,-1.7807,5.9742,-2.4221e-12,-0.89037,0,0,0.1,9.4739e-16,0,0.66667
0.40582,0.83678,4.0582,0.50516,56.101,386.38,-5.4668,1.8223,-1.0972,-7.2891,-7.101e-13,-0.54858,0,0,0.1,2.3685e-16,0,0.66667
0.004877,0.40127,0.04877,-0.14809,-19.662,896.48,0.01926,-0.0064195,-1.9207,0.02568,5.8036e-07,-0.96034,0,0,0.1,-1.1102e-17,0,0.66667
0.32533,0.62406,3.2533,0.1861,22.085,480.02,-1.6145,0.53816,-1.8785,-2.1526,-2.3048e-12,-0.93923,0,0,0.1,1.1842e-16,0,0.66667
0.83894,0.15074,8.3894,-0.52389,-20.532,36.033,11.72,-3.9068,-1.0228,15.627,-6.7201e-10,-0.51139,0,0,0.1,-4.737e-16,0,0.66667
0.062824,0.53924,0.62824,0.058864,7.7834,818.51,-0.098615,0.032872,-1.9923,-0.13149,-9.0782e-08,-0.99614,0,0,0.1,-0,-0,0.66667
0.10542,0.076539,1.0542,-0.63519,-83.646,761.71,1.7856,-0.59522,-0.56416,2.3809,-2.2209e-07,-0.28208,0,0,0.1,-0,-0,0.66667
0.70179,0.9331,7.0179,0.64965,43.864,112.33,-12.158,4.0526,-0.50259,-16.21,5.1514e-14,-0.25129,0,0,0.1,1.1842e-15,-5.7311e-17,0.66667
0.51416,0.58594,5.1416,0.12891,12.571,270.67,-1.7675,0.58916,-1.9434,-2.3566,-2.2542e-12,-0.97171,0,0,0.1,-0,-0,0.66667
0.49817,0.097724,4.9817,-0.60341,-60.364,287.53,8.016,-2.672,-0.70783,10.688,-8.4555e-13,-0.35391,0,0,0.1,-0,5.4497e-17,0.66667
0.37361,0.13991,3.7361,-0.54014,-61.814,423.28,5.3813,-1.7938,-0.96489,7.1751,-5.3748e-12,-0.48245,0,0,0.1,4.737e-16,0,0.66667
0.60351,0.94096,6.0351,0.66144,55.984,188.69,-10.645,3.5483,-0.4427,-14.193,-4.9738e-14,-0.22135,0,0,0.1,1.8948e-15,0,0.66667
0.85147,0.35039,8.5147,-0.22442,-8.1096,30.254,5.0956,-1.6985,-1.8182,6.7942,-2.2082e-09,-0.90911,0,0,0.1,-0,-0,0.66667
0.27692,0.80696,2.7692,0.46044,56.517,539.6,-3.4002,1.1334,-1.2452,-4.5336,-8.4075e-12,-0.62262,0,0,0.1,-5.9212e-16,0,0.66667
0.84476,0.9507,8.4476,0.67605,25.74,34.384,-15.229,5.0765,-0.37786,-20.306,2.0607e-08,-0.18893,0,0,0.1,1.8948e-15,0,0.66667
0.41662,0.63669,4.1662,0.20504,22.483,373.88,-2.278,0.75932,-1.8482,-3.0373,-3.04e-12,-0.92411,0,0,0.1,-0,-0,0.66667
0.50098,0.51115,5.0098,0.016729,1.661,283.86,-0.2235,0.074499,-2.0021,-0.29799,-4.8094e-12,-1.001,0,0,0.1,1.8948e-15,0,0.66667
0.72962,0.98144,7.2962,0.72216,44.998,94.208,-14.051,4.6836,-0.14374,-18.734,1.2887e-12,-0.07187,0,0,0.1,-0,-0,0.66667
0.25872,0.98466,2.5872,0.72699,90.419,562.73,-5.0157,1.6719,-0.11764,-6.6876,1.0103e-11,-0.058822,0,0,0.1,-4.737e-16,0,0.66667
0.92164,0.60261,9.2164,0.15392,3.0044,9.181,-3.7828,1.2609,-1.9205,-5.0438,3.6913e-08,-0.96023,0,0,0.1,-0,-0,0.66667
0.70207,0.13128,7.0207,-0.55309,-37.249,111.77,10.355,-3.4516,-0.91576,13.806,4.1585e-12,-0.45788,0,0,0.1,-0,-0,0.66667
0.61893,0.33593,6.1893,-0.2461,-20.115,174.59,4.0618,-1.3539,-1.7822,5.4158,-1.5246e-12,-0.8911,0,0,0.1,9.4739e-16,0,0.66667
0.27301,0.9016,2.7301,0.60241,74.209,544.66,-4.3857,1.4619,-0.7073,-5.8475,1.518e-11,-0.35365,0,0,0.1,-5.9212e-16,0,0.66667
0.69585,0.70998,6.9585,0.31498,21.51,115.45,-5.8447,1.9482,-1.6443,-7.7929,-1.6227e-12,-0.82217,0,0,0.1,-0,-0,0.66667
0.25721,0.075316,2.5721,-0.63703,-79.214,564.49,4.3694,-1.4565,-0.55397,5.8259,1.5172e-11,-0.27698,0,0,0.1,-0,-0,0.66667
0.81645,0.36453,8.1645,-0.2032,-8.9233,44.921,4.4242,-1.4747,-1.8521,5.8989,-4.5566e-11,-0.92604,0,0,0.1,-0,-0,0.66667
0.011472,0.17335,0.11472,-0.48998,-65.158,887.61,0.1499,-0.049965,-1.1449,0.19987,2.7455e-06,-0.57245,0,0,0.1,-0,-0,0.66667
0.16654,0.077767,1.6654,-0.63335,-81.998,681,2.8127,-0.93757,-0.57129,3.7503,-8.3221e-09,-0.28565,0,0,0.1,-0,-0,0.66667
0.55783,0.50684,5.5783,0.010264,0.93667,228.53,-0.15268,0.050893,-1.9982,-0.20357,3.2697e-12,-0.9991,0,0,0.1,-0,-0,0.66667
0.71228,0.77762,7.1228,0.41642,27.186,104.42,-7.9096,2.6365,-1.3814,-10.546,-6.4615e-13,-0.6907,0,0,0.1,-1.1842e-15,0,0.66667
0.49248,0.13862,4.9248,-0.54208,-54.596,293.17,7.119,-2.373,-0.95197,9.492,-4.6638e-12,-0.47598,0,0,0.1,-9.4739e-16,0,0.66667
0.87781,0.14713,8.7781,-0.52931,-16.038,21.92,12.39,-4.1301,-1.0042,16.52,1.9467e-09,-0.5021,0,0,0.1,-0,-0,0.66667
0.97587,0.9162,9.7587,0.6243,3.8568,2.8023,-16.246,5.4154,-0.61121,-21.662,-2.1727e-05,-0.3056,0,0,0.1,-0,-0,0.66667
0.46428,0.87242,4.6428,0.55863,58.283,322.56,-6.9162,2.3054,-0.88984,-9.2216,-7.8781e-13,-0.44492,0,0,0.1,1.1842e-16,0,0.66667
0.76799,0.93882,7.6799,0.65824,35.912,70.988,-13.48,4.4935,-0.46158,-17.974,-3.1335e-10,-0.23079,0,0,0.1,-0,-0,0.66667
0.49477,0.59227,4.9477,0.13841,13.858,290.22,-1.8261,0.6087,-1.9309,-2.4348,-5.5277e-12,-0.96545,0,0,0.1,4.737e-16,0,0.66667
0.6651,0.07643,6.651,-0.63535,-47.135,138.79,11.269,-3.7562,-0.56159,15.025,-8.9173e-13,-0.2808,0,0,0.1,-0,-0,0.66667
0.22487,0.96408,2.2487,0.69613,88.067,605.57,-4.1744,1.3915,-0.27495,-5.5659,9.7569e-11,-0.13747,0,0,0.1,-2.3685e-16,0,0.66667
0.10954,0.38954,1.0954,-0.16569,-21.735,756.05,0.48399,-0.16133,-1.9069,0.64532,1.6109e-08,-0.95346,0,0,0.1,2.3685e-16,0,0.66667
0.97901,0.4721,9.7901,-0.041852,-0.20748,0.88843,1.0926,-0.36421,-1.9923,1.4568,-1.3001e-07,-0.99617,0,0,0.1,-0,-0,0.66667
0.81499,0.78087,8.1499,0.4213,18.694,46.085,-9.1562,3.0521,-1.371,-12.208,-6.8816e-12,-0.68552,0,0,0.1,1.0954e-15,0,0.66667
0.28538,0.52687,2.8538,0.040305,4.9129,528.83,-0.30673,0.10224,-1.9936,-0.40898,-2.4526e-12,-0.99682,0,0,0.1,2.3685e-16,0,0.66667
0.58583,0.1774,5.8583,-0.48391,-42.213,203.62,7.5596,-2.5199,-1.1643,10.08,4.17e-13,-0.58217,0,0,0.1,-0,-0,0.66667
0.38007,0.46947,3.8007,-0.045794,-5.1973,415.31,0.46414,-0.15471,-1.9918,0.61885,2.5394e-12,-0.99591,0,0,0.1,-0,-0,0.66667
0.17634,0.25812,1.7634,-0.36282,-46.71,667.98,1.7061,-0.56871,-1.5305,2.2748,2.1426e-10,-0.76527,0,0,0.1,4.737e-16,0,0.66667
0.41884,0.34825,4.1884,-0.22763,-24.906,371.43,2.5424,-0.84745,-1.8164,3.3898,-4.8739e-13,-0.9082,0,0,0.1,-9.4739e-16,0,0.66667
0.29719,0.94853,2.9719,0.6728,81.707,514.86,-5.332,1.7773,-0.3949,-7.1093,7.0166e-13,-0.19745,0,0,0.1,-0,-0,0.66667
0.016624,0.2961,0.16624,-0.30586,-40.621,880.66,0.13559,-0.045197,-1.6703,0.18079,-3.7978e-07,-0.83515,0,0,0.1,2.9606e-17,0,0.66667
0.38737,0.78577,3.8737,0.42866,48.41,407.23,-4.428,1.476,-1.347,-5.904,-1.4935e-12,-0.67351,0,0,0.1,-9.4739e-16,0,0.66667
0.92091,0.56351,9.2091,0.09527,1.8751,9.2774,-2.3396,0.77987,-1.9722,-3.1195,4.725e-08,-0.9861,0,0,0.1,-0,-0,0.66667
0.8282,0.44734,8.282,-0.078991,-3.2624,39.557,1.7445,-0.58151,-1.9827,2.326,-3.7888e-10,-0.99137,0,0,0.1,-0,-0,0.66667
0.57407,0.62939,5.7407,0.19409,17.244,213.67,-2.9713,0.99042,-1.8655,-3.9617,-1.7364e-12,-0.93277,0,0,0.1,1.8948e-15,0,0.66667
0.31865,0.24546,3.1865,-0.38181,-45.574,488.26,3.2443,-1.0814,-1.4796,4.3258,-1.809e-12,-0.73981,0,0,0.1,5.9212e-16,0,0.66667
0.23126,0.69081,2.3126,0.28621,35.978,597.01,-1.7651,0.58836,-1.7095,-2.3535,2.0317e-11,-0.85473,0,0,0.1,-0,-0,0.66667
0.95602,0.77061,9.5602,0.40591,4.4885,3.8643,-10.348,3.4494,-1.4143,-13.798,3.7966e-07,-0.70714,0,0,0.1,9.4739e-16,0,0.66667
0.56461,0.36265,5.6461,-0.20602,-18.602,222.34,3.102,-1.034,-1.8502,4.1359,-7.9603e-13,-0.9251,0,0,0.1,-9.4739e-16,0,0.66667
0.21761,0.47162,2.1761,-0.042574,-5.383,614.41,0.24705,-0.08235,-1.9973,0.3294,2.9138e-11,-0.99867,0,0,0.1,-0,-0,0.66667
0.24948,0.63019,2.4948,0.19528,24.31,573.82,-1.2992,0.43305,-1.869,-1.7322,1.3465e-11,-0.93449,0,0,0.1,-0,-0,0.66667
0.9596,0.90128,9.596,0.60192,6.2292,4.2648,-15.403,5.1342,-0.70957,-20.537,7.4075e-06,-0.35478,0,0,0.1,-2.3685e-15,0,0.66667
0.23881,0.26484,2.3881,-0.35274,-44.19,587.44,2.2464,-0.7488,-1.5558,2.9952,-2.5623e-11,-0.77791,0,0,0.1,-0,-0,0.66667
0.10671,0.92568,1.0671,0.63852,84.064,759.99,-1.8171,0.60568,-0.55071,-2.4227,2.355e-07,-0.27536,0,0,0.1,-2.448e-16,1.2833e-16,0.66667
0.18396,0.70113,1.8396,0.3017,38.717,658.01,-1.48,0.49334,-1.6756,-1.9734,-7.3599e-11,-0.83778,0,0,0.1,-0,-0,0.66667
0.76622,0.043036,7.6622,-0.68545,-37.67,72.101,14.005,-4.6685,-0.33323,18.674,1.347e-10,-0.16661,0,0,0.1,-0,-0,0.66667
0.70876,0.83208,7.0876,0.49812,32.89,107.02,-9.4147,3.1382,-1.1152,-12.553,1.0445e-12,-0.55762,0,0,0.1,-0,-0,0.66667
0.43794,0.41619,4.3794,-0.12571,-13.475,350.29,1.4681,-0.48937,-1.948,1.9575,-2.0969e-12,-0.974,0,0,0.1,-0,-0,0.66667
0.7938,0.15426,7.938,-0.5186,-25.418,56.662,10.978,-3.6593,-1.0448,14.637,1.5092e-11,-0.52238,0,0,0.1,-9.4739e-16,0,0.66667
0.51751,0.33621,5.1751,-0.24569,-23.857,267.45,3.3906,-1.1302,-1.7872,4.5208,-1.8239e-12,-0.89361,0,0,0.1,-4.737e-16,0,0.66667
0.4136,0.82155,4.136,0.48233,53.144,377.6,-5.3197,1.7732,-1.1699,-7.093,-1.1324e-12,-0.58494,0,0,0.1,-9.4739e-16,0,0.66667
0.11744,0.69551,1.1744,0.29327,38.418,745.57,-0.91846,0.30615,-1.6913,-1.2246,-1.3677e-08,-0.84566,0,0,0.1,-0,-0,0.66667
0.88391,0.27061,8.8391,-0.34409,-9.8751,19.383,8.1105,-2.7035,-1.5761,10.814,-1.4436e-08,-0.78804,0,0,0.1,-0,-0,0.66667
0.27559,0.84032,2.7559,0.51048,62.735,541.32,-3.7516,1.2505,-1.0718,-5.0021,2.049e-11,-0.53592,0,0,0.1,-1.1842e-16,0,0.66667
0.61626,0.071645,6.1626,-0.64253,-53.035,177.79,10.559,-3.5197,-0.52922,14.079,3.6238e-13,-0.26461,0,0,0.1,-0,-0,0.66667
0.98458,0.4275,9.8458,-0.10875,-0.38164,0.5856,2.8554,-0.9518,-1.9626,3.8072,-3.5827e-07,-0.9813,0,0,0.1,-0,-0,0.66667
0.18942,0.54934,1.8942,0.074005,9.4705,650.84,-0.37381,0.1246,-1.9819,-0.49841,-9.0723e-12,-0.99096,0,0,0.1,-0,-0,0.66667
0.96519,0.74377,9.6519,0.36566,3.1728,2.6639,-9.4114,3.1371,-1.5243,-12.549,-3.236e-07,-0.76217,0,0,0.1,-0,-0,0.66667
0.65272,0.27386,6.5272,-0.33921,-25.802,147.45,5.9042,-1.9681,-1.5905,7.8723,9.7655e-13,-0.79526,0,0,0.1,-9.4739e-16,0,0.66667
0.12873,0.62091,1.2873,0.18136,23.682,730.56,-0.6226,0.20753,-1.8829,-0.83013,-6.6547e-09,-0.94146,0,0,0.1,-0,-0,0.66667
0.77193,0.10576,7.7193,-0.59136,-31.734,68.514,12.173,-4.0577,-0.75372,16.231,-2.4899e-10,-0.37686,0,0,0.1,-0,-0,0.66667
0.95178,0.8465,9.5178,0.51975,6.3651,4.8768,-13.192,4.3972,-1.0429,-17.589,7.439e-07,-0.52147,0,0,0.1,-0,-0,0.66667
0.56278,0.8287,5.6278,0.49305,44.755,224.54,-7.3994,2.4665,-1.14,-9.8658,7.1099e-13,-0.56998,0,0,0.1,-9.4739e-16,0,0.66667
0.68856,0.084959,6.8856,-0.62256,-43.54,121.5,11.431,-3.8104,-0.62506,15.242,1.8821e-12,-0.31253,0,0,0.1,-0,-0,0.66667
0.026348,0.2432,0.26348,-0.3852,-51.159,867.58,0.27065,-0.090217,-1.4708,0.36086,-1.5862e-06,-0.73541,0,0,0.1,-4.4409e-17,0,0.66667
0.98908,0.41068,9.8908,-0.13399,-0.31252,0.39214,3.5339,-1.178,-1.9351,4.7119,-9.5e-08,-0.96753,0,0,0.1,-0,-0,0.66667
0.31846,0.66236,3.1846,0.24353,29.051,488.37,-2.0681,0.68938,-1.7869,-2.7575,-4.1556e-12,-0.89347,0,0,0.1,-0,-0,0.66667
0.023904,0.55138,0.23904,0.077066,10.225,870.85,-0.049125,0.016375,-1.9758,-0.0655,-1.0852e-07,-0.98789,0,0,0.1,-0,-0,0.66667
0.80856,0.51856,8.0856,0.027847,1.2693,48.46,-0.60044,0.20015,-1.996,-0.80058,2.0321e-11,-0.99801,0,0,0.1,1.8948e-15,0,0.66667
0.97325,0.66548,9.7325,0.24822,1.6178,1.5907,-6.4421,2.1474,-1.7794,-8.5894,-5.8011e-07,-0.8897,0,0,0.1,1.8948e-15,0,0.66667
0.73759,0.58605,7.3759,0.12907,7.7739,87.554,-2.5387,0.84625,-1.9407,-3.385,-8.5856e-12,-0.97037,0,0,0.1,-0,-0,0.66667
0.0027358,0.94114,0.027358,0.66171,88.142,899.37,-0.048282,0.016115,-0.44436,-0.064365,3.2329e-05,-0.22218,0,0,0.1,-7.4015e-18,5.648e-16,0.66667
0.063361,0.84953,0.63361,0.5243,69.469,817.87,-0.88586,0.29529,-1.0265,-1.1811,-1.3801e-07,-0.51323,0,0,0.1,-0,-0,0.66667
0.58427,0.26975,5.8427,-0.34538,-30.171,204.71,5.3812,-1.7937,-1.5731,7.1749,-7.0122e-13,-0.78654,0,0,0.1,-9.4739e-16,0,0.66667
0.33572,0.56652,3.3572,0.099784,11.748,467.51,-0.89331,0.29777,-1.9623,-1.1911,-2.0743e-12,-0.98113,0,0,0.1,-0,-0,0.66667
0.88183,0.85003,8.8183,0.52504,15.411,20.639,-12.347,4.1156,-1.0173,-16.462,-4.3937e-09,-0.50865,0,0,0.1,-0,-0,0.66667
0.87367,0.84528,8.7367,0.51792,16.188,23.214,-12.066,4.0221,-1.05,-16.089,-2.0414e-10,-0.52498,0,0,0.1,-0,-0,0.66667
0.98752,0.56755,9.8752,0.10132,0.27709,0.42862,-2.6682,0.8894,-1.9639,-3.5576,7.4525e-07,-0.98195,0,0,0.1,-0,-0,0.66667
0.71583,0.72078,7.1583,0.33118,21.375,101.84,-6.3218,2.1073,-1.6112,-8.4291,-3.9884e-12,-0.80562,0,0,0.1,-1.8948e-15,0,0.66667
0.87688,0.53042,8.7688,0.045626,1.3792,21.133,-1.0669,0.35563,-1.9955,-1.4225,1.1557e-08,-0.99777,0,0,0.1,-4.737e-16,0,0.66667
0.31965,0.95201,3.1965,0.67802,81.093,487.5,-5.7794,1.9265,-0.36228,-7.7059,-3.9622e-12,-0.18114,0,0,0.1,-4.737e-16,0,0.66667
0.11118,0.94499,1.1118,0.66749,87.818,754.07,-1.9789,0.65964,-0.41784,-2.6386,6.843e-08,-0.20892,0,0,0.1,-0,-0,0.66667
0.86536,0.52211,8.6536,0.033162,1.0912,24.996,-0.76527,0.25509,-1.9935,-1.0204,5.2809e-10,-0.99677,0,0,0.1,-0,-0,0.66667
0.30347,0.93564,3.0347,0.65346,79.012,507.12,-5.2882,1.7627,-0.47999,-7.0509,3.5749e-12,-0.23999,0,0,0.1,1.7764e-16,0,0.66667
0.41933,0.99204,4.1933,0.73806,81.09,371.79,-8.2531,2.751,-0.064005,-11.004,-1.1102e-12,-0.032003,0,0,0.1,-9.4739e-16,8.9926e-17,0.66667
0.64603,0.073512,6.4603,-0.63973,-49.596,153.54,11.021,-3.6737,-0.5425,14.695,-4.7606e-13,-0.27125,0,0,0.1,-0,-0,0.66667
0.6051,0.14723,6.051,-0.52916,-44.566,186.91,8.5385,-2.8462,-1.0031,11.385,-2.6628e-12,-0.50155,0,0,0.1,-0,-0,0.66667
0.42092,0.13332,4.2092,-0.55001,-60.194,369.57,6.1737,-2.0579,-0.92776,8.2316,3.5141e-12,-0.46388,0,0,0.1,-0,-0,0.66667
0.38615,0.62572,3.8615,0.18858,21.292,408.37,-1.9419,0.64731,-1.8733,-2.5892,-3.1641e-12,-0.93665,0,0,0.1,-9.4739e-16,0,0.66667
0.12268,0.35356,1.2268,-0.21966,-28.73,738.59,0.71862,-0.23954,-1.8294,0.95816,9.9418e-09,-0.91471,0,0,0.1,-0,-0,0.66667
0.53386,0.87758,5.3386,0.56637,53.851,252.06,-8.063,2.6877,-0.861,-10.751,-7.2742e-13,-0.4305,0,0,0.1,-0,-0,0.66667
0.23285,0.67426,2.3285,0.26138,32.828,594.97,-1.6231,0.54102,-1.7591,-2.1641,2.391e-11,-0.87956,0,0,0.1,2.3685e-16,0,0.66667
0.75481,0.99197,7.5481,0.73796,42.322,78.908,-14.854,4.9513,-0.062016,-19.805,1.5846e-11,-0.031008,0,0,0.1,-9.4739e-16,0,0.66667
0.67487,0.33042,6.7487,-0.25437,-18.337,130.47,4.5778,-1.5259,-1.7698,6.1037,-2.2911e-12,-0.8849,0,0,0.1,9.4739e-16,0,0.66667
0.071927,0.85321,0.71927,0.52982,70.122,806.39,-1.0162,0.33874,-0.99925,-1.355,-1.6129e-07,-0.49963,0,0,0.1,-0,-0,0.66667
0.98926,0.6389,9.8926,0.20835,0.48108,0.49598,-5.4963,1.8321,-1.8435,-7.3285,2.5073e-07,-0.92177,0,0,0.1,-1.8948e-15,0,0.66667
0.78046,0.28548,7.8046,-0.32179,-16.618,63.032,6.6971,-2.2324,-1.636,8.9294,4.4446e-11,-0.81802,0,0,0.1,-0,-0,0.66667
0.22783,0.58834,2.2783,0.13252,16.677,601.33,-0.80509,0.26836,-1.9352,-1.0735,3.2142e-11,-0.96761,0,0,0.1,3.5527e-16,0,0.66667
0.030743,0.30867,0.30743,-0.287,-38.087,861.65,0.23528,-0.078428,-1.7119,0.31371,-5.7785e-07,-0.85597,0,0,0.1,-1.4803e-17,0,0.66667
0.47837,0.3079,4.7837,-0.28816,-29.485,307.28,3.6759,-1.2253,-1.7028,4.9012,-3.8884e-12,-0.85139,0,0,0.1,2.3685e-16,0,0.66667
0.35274,0.37965,3.5274,-0.18053,-20.976,447.29,1.6981,-0.56604,-1.8819,2.2642,-5.5381e-12,-0.94094,0,0,0.1,-0,-0,0.66667
0.54651,0.75877,5.4651,0.38815,36.13,239.54,-5.6568,1.8856,-1.4688,-7.5423,-1.5361e-12,-0.73438,0,0,0.1,-0,-0,0.66667
0.65966,0.95569,6.5966,0.68353,51.411,143.11,-12.024,4.008,-0.33814,-16.032,-3.1459e-12,-0.16907,0,0,0.1,9.4739e-16,0,0.66667
0.79722,0.53956,7.9722,0.059346,2.8493,54.006,-1.2616,0.42055,-1.992,-1.6822,-4.7682e-11,-0.996,0,0,0.1,-0,-0,0.66667
0.013544,0.95853,0.13544,0.68779,91.625,884.83,-0.24841,0.082763,-0.31929,-0.33123,-6.1368e-05,-0.15964,0,0,0.1,-1.4803e-17,0,0.66667
0.7143,0.74003,7.143,0.36004,23.35,102.93,-6.858,2.286,-1.5375,-9.144,-3.0971e-12,-0.76877,0,0,0.1,-9.4739e-16,0,0.66667
0.29531,0.23865,2.9531,-0.39202,-47.545,516.77,3.0872,-1.0291,-1.4556,4.1162,-4.1842e-12,-0.72782,0,0,0.1,-0,-0,0.66667
0.9864,0.49396,9.864,-0.009055,-0.027323,0.43831,0.23818,-0.0794,-2.0015,0.31757,-9.3265e-06,-1.0008,0,0,0.1,2.8422e-15,0,0.66667
0.84624,0.47034,8.4624,-0.044487,-1.658,32.092,1.0039,-0.33464,-1.9948,1.3386,-2.083e-09,-0.99742,0,0,0.1,-0,-0,0.66667
0.5604,0.53674,5.604,0.055103,5.0078,226.14,-0.82346,0.27449,-1.991,-1.0979,-2.8691e-12,-0.9955,0,0,0.1,-0,-0,0.66667
0.59777,0.074711,5.9777,-0.63793,-54.562,193.58,10.169,-3.3896,-0.55176,13.559,1.3323e-12,-0.27588,0,0,0.1,-0,-0,0.66667
0.19208,0.76766,1.9208,0.4015,51.391,647.52,-2.0565,0.68549,-1.425,-2.742,-1.9746e-11,-0.7125,0,0,0.1,-0,-0,0.66667
0.22625,0.24048,2.2625,-0.38927,-49.08,603.48,2.3486,-0.78288,-1.4582,3.1315,-3.9067e-11,-0.7291,0,0,0.1,2.3685e-16,0,0.66667
0.15401,0.19809,1.5401,-0.45286,-58.781,697.29,1.8599,-0.61997,-1.2719,2.4799,1.2611e-09,-0.63593,0,0,0.1,-4.737e-16,0,0.66667
0.37781,0.86326,3.7781,0.54489,62.131,418.42,-5.4898,1.8299,-0.94449,-7.3197,-4.3552e-12,-0.47224,0,0,0.1,-0,-0,0.66667
0.11196,0.70221,1.1196,0.30331,39.786,752.86,-0.90552,0.30184,-1.6733,-1.2074,-1.9861e-08,-0.83664,0,0,0.1,-2.3685e-16,0,0.66667
0.51127,0.8317,5.1127,0.49755,48.836,274.08,-6.7836,2.2612,-1.1182,-9.0447,-4.3561e-12,-0.5591,0,0,0.1,4.737e-16,0,0.66667
0.63848,0.68781,6.3848,0.28172,22.109,158.61,-4.7965,1.5988,-1.7205,-6.3954,2.6743e-12,-0.86023,0,0,0.1,-1.8948e-15,0,0.66667
0.12221,0.059733,1.2221,-0.6604,-86.652,739.42,2.1522,-0.71741,-0.45056,2.8697,2.0403e-07,-0.22528,0,0,0.1,-8.8818e-17,0,0.66667
0.3442,0.67316,3.442,0.25974,30.396,457.48,-2.3841,0.79469,-1.7641,-3.1788,-6.8554e-12,-0.88204,0,0,0.1,4.737e-16,0,0.66667
0.070348,0.47901,0.70348,-0.031482,-4.1586,808.42,0.059059,-0.019686,-1.9934,0.078746,3.9622e-08,-0.9967,0,0,0.1,-0,-0,0.66667
0.52576,0.68992,5.2576,0.28488,27.342,259.37,-3.9941,1.3314,-1.7101,-5.3255,-6.1728e-12,-0.85505,0,0,0.1,1.8948e-15,0,0.66667
0.65029,0.34471,6.5029,-0.23294,-17.802,149.17,4.0394,-1.3465,-1.8058,5.3859,-5.0981e-13,-0.90288,0,0,0.1,-1.8948e-15,0,0.66667
0.61547,0.05929,6.1547,-0.66107,-54.667,178.52,10.85,-3.6166,-0.44438,14.466,3.1264e-13,-0.22219,0,0,0.1,-4.737e-16,0,0.66667
0.81387,0.55144,8.1387,0.077167,3.4292,45.985,-1.6748,0.55825,-1.9812,-2.233,-3.3651e-11,-0.99061,0,0,0.1,9.4739e-16,0,0.66667
0.23557,0.0050586,2.3557,-0.74241,-93.487,592.02,4.6637,-1.5546,-0.043609,6.2182,-4.5079e-12,-0.021805,0,0,0.1,-0,-0,0.66667
0.61818,0.93901,6.1818,0.65851,54.16,176.24,-10.855,3.6185,-0.45644,-14.474,-2.9656e-12,-0.22822,0,0,0.1,1.8948e-15,0,0.66667
0.30283,0.13792,3.0283,-0.54312,-65.624,507.73,4.3859,-1.462,-0.94842,5.8479,-1.9966e-12,-0.47421,0,0,0.1,-4.737e-16,0,0.66667
0.088768,0.53462,0.88768,0.051934,6.8398,783.75,-0.12293,0.040978,-1.9892,-0.16391,-6.0392e-08,-0.99462,0,0,0.1,-0,-0,0.66667
0.30526,0.22629,3.0526,-0.41057,-49.474,504.59,3.3422,-1.1141,-1.3979,4.4562,-4.2553e-12,-0.69894,0,0,0.1,-0,-0,0.66667
0.071356,0.71687,0.71356,0.3253,42.998,807.1,-0.61899,0.20633,-1.6219,-0.82532,-1.3169e-07,-0.81097,0,0,0.1,-1.3747e-16,0,0.66667
0.95857,0.85906,9.5857,0.53859,5.6743,4.0791,-13.767,4.5891,-0.96609,-18.356,2.7433e-06,-0.48304,0,0,0.1,1.8948e-15,0,0.66667
0.72717,0.20937,7.2717,-0.43594,-27.222,94.704,8.4533,-2.8178,-1.3213,11.271,5.0315e-12,-0.66066,0,0,0.1,-9.4739e-16,0,0.66667
0.10146,0.13603,1.0146,-0.54595,-71.894,766.94,1.4771,-0.49238,-0.9371,1.9695,1.6416e-09,-0.46855,0,0,0.1,-0,-0,0.66667
0.78627,0.78415,7.8627,0.42623,21.529,60.231,-8.9369,2.979,-1.3529,-11.916,-6.6715e-11,-0.67647,0,0,0.1,-1.8948e-15,0,0.66667
0.35216,0.82593,3.5216,0.4889,56.938,448.31,-4.5911,1.5304,-1.1469,-6.1215,-3.5869e-12,-0.57347,0,0,0.1,-0,-0,0.66667
0.91144,0.56666,9.1144,0.09999,2.1996,11.445,-2.4303,0.81008,-1.963,-3.2403,-2.3743e-09,-0.9815,0,0,0.1,-0,-0,0.66667
0.4955,0.889,4.955,0.58349,58.564,290.19,-7.7099,2.57,-0.78766,-10.28,1.2887e-12,-0.39383,0,0,0.1,-0,-0,0.66667
0.87269,0.78984,8.7269,0.43476,13.652,23.229,-10.118,3.3725,-1.329,-13.49,6.2043e-09,-0.66452,0,0,0.1,-0,-0,0.66667
0.22053,0.91023,2.2053,0.61535,77.939,611.03,-3.6187,1.2062,-0.6562,-4.825,3.5823e-10,-0.3281,0,0,0.1,-0,-0,0.66667
0.36719,0.030129,3.6719,-0.70481,-81.256,431.08,6.9013,-2.3004,-0.23196,9.2018,-9.6336e-12,-0.11598,0,0,0.1,-5.9212e-16,0,0.66667
0.36684,0.64267,3.6684,0.214,24.579,430.76,-2.0934,0.69781,-1.8339,-2.7913,-7.2256e-12,-0.91696,0,0,0.1,-0,-0,0.66667
0.097133,0.2981,0.97133,-0.30285,-39.851,772.62,0.78444,-0.26148,-1.6732,1.0459,4.0239e-08,-0.83662,0,0,0.1,-1.1842e-16,0,0.66667
0.33101,0.16031,3.3101,-0.50953,-60.334,473.51,4.4977,-1.4992,-1.0778,5.9969,-1.632e-12,-0.53889,0,0,0.1,-0,-0,0.66667
0.65971,0.87449,6.5971,0.56174,42.158,142.63,-9.8823,3.2941,-0.87888,-13.176,1.2834e-12,-0.43944,0,0,0.1,1.7764e-16,0,0.66667
0.46654,0.36704,4.6654,-0.19944,-20.696,319.6,2.4813,-0.8271,-1.8599,3.3084,-7.8046e-12,-0.92994,0,0,0.1,-0,-0,0.66667
0.87923,0.12808,8.7923,-0.55787,-16.736,21.591,13.08,-4.36,-0.89296,17.44,-2.1975e-08,-0.44648,0,0,0.1,-1.8948e-15,0,0.66667
0.26967,0.82695,2.6967,0.49043,60.471,548.68,-3.5268,1.1756,-1.1434,-4.7024,5.0908e-12,-0.57172,0,0,0.1,-0,-0,0.66667
0.35482,0.63572,3.5482,0.20358,23.617,444.86,-1.9263,0.64209,-1.8509,-2.5683,-6.7474e-12,-0.92547,0,0,0.1,9.4739e-16,0,0.66667
0.32035,0.41546,3.2035,-0.12681,-15.101,486.01,1.0833,-0.3611,-1.9398,1.4444,-9.3158e-12,-0.96992,0,0,0.1,-0,-0,0.66667
0.55174,0.82339,5.5174,0.48509,44.824,234.81,-7.1371,2.379,-1.1614,-9.5161,-1.9478e-12,-0.58069,0,0,0.1,-0,-0,0.66667
0.18822,0.16183,1.8822,-0.50726,-65.078,652.61,2.546,-0.84868,-1.0892,3.3947,-2.2052e-10,-0.54462,0,0,0.1,-0,-0,0.66667
0.17324,0.74696,1.7324,0.37045,47.747,672.02,-1.7114,0.57047,-1.5154,-2.2819,-2.4407e-10,-0.75772,0,0,0.1,2.3685e-16,0,0.66667
0.93948,0.53816,9.3948,0.057246,0.86269,5.6557,-1.4342,0.47806,-1.9901,-1.9123,1.7009e-07,-0.99506,0,0,0.1,-0,-0,0.66667
0.37665,0.70871,3.7665,0.31306,35.669,419.43,-3.1444,1.0481,-1.6535,-4.1925,-5.0489e-12,-0.82676,0,0,0.1,-4.737e-16,0,0.66667
0.5871,0.90861,5.871,0.61292,53.435,202.86,-9.5958,3.1986,-0.66243,-12.794,6.6613e-14,-0.33121,0,0,0.1,-0,-0,0.66667
0.055152,0.95702,0.55152,0.68553,91.061,828.93,-1.0082,0.33608,-0.32589,-1.3443,1.0272e-05,-0.16295,0,0,0.1,-5.9212e-17,0,0.66667
0.14086,0.28325,1.4086,-0.32512,-42.335,714.56,1.2212,-0.40708,-1.6298,1.6283,3.896e-09,-0.81492,0,0,0.1,-0,-0,0.66667
0.096359,0.44133,0.96359,-0.088012,-11.575,773.61,0.22615,-0.075384,-1.9738,0.30154,1.1684e-08,-0.98688,0,0,0.1,-0,-0,0.66667
0.81212,0.68719,8.1212,0.28078,12.606,47.066,-6.0808,2.0269,-1.7254,-8.1077,4.4914e-11,-0.8627,0,0,0.1,2.3389e-15,0,0.66667
0.10315,0.74702,1.0315,0.37053,48.714,764.62,-1.0192,0.33972,-1.51,-1.3589,-3.6817e-08,-0.75502,0,0,0.1,-5.9212e-17,0,0.66667
0.51632,0.57336,5.1632,0.11004,10.698,268.52,-1.515,0.50501,-1.9606,-2.0201,-2.5262e-12,-0.98029,0,0,0.1,-0,-0,0.66667
0.15558,0.22373,1.5558,-0.41441,-53.749,695.21,1.7193,-0.57309,-1.3937,2.2924,1.0606e-09,-0.69685,0,0,0.1,-0,-0,0.66667
0.27882,0.89741,2.7882,0.59612,73.175,537.42,-4.4322,1.4774,-0.73741,-5.9096,7.8408e-12,-0.3687,0,0,0.1,-0,-0,0.66667
0.8826,0.3607,8.826,-0.20895,-6.0451,19.492,4.9179,-1.6393,-1.8415,6.5573,-1.1845e-08,-0.92075,0,0,0.1,1.8948e-15,0,0.66667
0.63159,0.41182,6.3159,-0.13227,-10.526,164.01,2.2277,-0.74257,-1.9354,2.9703,3.4297e-12,-0.96771,0,0,0.1,-1.8948e-15,0,0.66667
0.96366,0.48145,9.6366,-0.02782,-0.24847,2.2573,0.71491,-0.2383,-1.995,0.95322,-1.5988e-07,-0.99751,0,0,0.1,-0,-0,0.66667
0.59971,0.20392,5.9971,-0.44412,-37.751,191.33,7.1026,-2.3675,-1.2959,9.4701,-2.0277e-12,-0.64793,0,0,0.1,9.4739e-16,0,0.66667
0.0095197,0.90442,0.095197,0.60663,80.754,890.24,-0.15399,0.051315,-0.69,-0.20533,-2.3489e-05,-0.345,0,0,0.1,3.2596e-18,0,0.66667
0.41564,0.27589,4.1564,-0.33617,-36.923,375.1,3.7261,-1.242,-1.596,4.9681,-8.2001e-13,-0.79798,0,0,0.1,4.737e-16,0,0.66667
0.022442,0.69757,0.22442,0.29636,39.348,872.83,-0.17735,0.059119,-1.6848,-0.23647,8.0777e-07,-0.84239,0,0,0.1,-0,-0,0.66667
0.31398,0.27115,3.1398,-0.34327,-41.099,493.88,2.8742,-0.95805,-1.5833,3.8322,-6.5488e-12,-0.79165,0,0,0.1,4.737e-16,0,0.66667
0.48162,0.09111,4.8162,-0.61333,-62.69,304.52,7.8773,-2.6258,-0.66379,10.503,-7.0037e-12,-0.33189,0,0,0.1,3.5527e-16,1.3589e-16,0.66667
0.57546,0.42752,5.7546,-0.10873,-9.6341,212.35,1.6685,-0.55616,-1.9584,2.2246,-5.1192e-13,-0.97922,0,0,0.1,-4.737e-16,0,0.66667
0.23865,0.34422,2.3865,-0.23366,-29.258,587.57,1.487,-0.49568,-1.8059,1.9827,-2.652e-11,-0.90293,0,0,0.1,-0,-0,0.66667
0.55829,0.65889,5.5829,0.23833,21.748,228.24,-3.5482,1.1827,-1.7977,-4.7309,-3.9542e-12,-0.89883,0,0,0.1,1.8948e-15,0,0.66667
0.39492,0.11675,3.9492,-0.57488,-64.558,398.85,6.0542,-2.0181,-0.82368,8.0723,-3.5785e-12,-0.41184,0,0,0.1,-4.737e-16,0,0.66667
0.50658,0.6597,5.0658,0.23955,23.618,278.34,-3.236,1.0787,-1.7939,-4.3147,-4.6807e-13,-0.89696,0,0,0.1,-0,-0,0.66667
0.19597,0.40206,1.9597,-0.14691,-18.753,642.35,0.7677,-0.2559,-1.921,1.0236,-6.4084e-11,-0.96048,0,0,0.1,-2.3924e-16,0,0.66667
0.15675,0.35344,1.5675,-0.21984,-28.474,693.58,0.91893,-0.30631,-1.8323,1.2252,1.3424e-09,-0.91613,0,0,0.1,-0,-0,0.66667
0.75452,0.037676,7.5452,-0.69349,-39.766,78.865,13.953,-4.6511,-0.28881,18.604,-6.939e-11,-0.14441,0,0,0.1,-0,-0,0.66667
0.32997,0.30211,3.2997,-0.29684,-35.123,474.51,2.612,-0.87067,-1.6884,3.4827,-1.7963e-13,-0.84418,0,0,0.1,-0,-0,0.66667
0.6442,0.52222,6.442,0.03333,2.5804,153.82,-0.57257,0.19086,-1.9955,-0.76342,-1.4203e-12,-0.99774,0,0,0.1,-0,-0,0.66667
0.56546,0.57795,5.6546,0.11692,10.539,221.49,-1.7631,0.58769,-1.9513,-2.3508,-1.4833e-12,-0.97563,0,0,0.1,-9.4739e-16,0,0.66667
0.89953,0.93405,8.9953,0.65108,16.474,16.126,-15.618,5.2059,-0.4907,-20.824,-2.6949e-07,-0.24535,0,0,0.1,2.6631e-16,0,0.66667
0.88068,0.73,8.8068,0.34499,10.163,20.383,-8.1021,2.7007,-1.5743,-10.803,1.1521e-08,-0.78714,0,0,0.1,-1.8948e-15,0,0.66667
0.44311,0.61645,4.4311,0.17468,18.621,344.69,-2.064,0.68801,-1.8892,-2.752,-5.1958e-14,-0.94461,0,0,0.1,-4.737e-16,0,0.66667
0.20474,0.85457,2.0474,0.53186,67.788,631.25,-2.9037,0.96791,-0.99623,-3.8717,-1.1635e-11,-0.49812,0,0,0.1,-0,-0,0.66667
0.63219,0.11451,6.3219,-0.57823,-46.147,164.41,9.7481,-3.2494,-0.80816,12.997,-2.1823e-12,-0.40408,0,0,0.1,9.4739e-16,0,0.66667
0.63684,0.6087,6.3684,0.16304,12.832,159.78,-2.7689,0.92295,-1.9044,-3.6918,-2.0628e-12,-0.95218,0,0,0.1,9.4739e-16,0,0.66667
0.69242,0.17986,6.9242,-0.4802,-33.164,118.28,8.8667,-2.9556,-1.1784,11.822,5.0537e-13,-0.5892,0,0,0.1,-9.4739e-16,0,0.66667
0.90747,0.84591,9.0747,0.51887,12.052,13.459,-12.556,4.1854,-1.0465,-16.742,1.8672e-08,-0.52327,0,0,0.1,-0,-0,0.66667
0.78258,0.79663,7.8258,0.44494,22.824,62.229,-9.2854,3.0951,-1.2984,-12.381,-3.9559e-12,-0.64921,0,0,0.1,-9.4739e-16,0,0.66667
0.62529,0.025064,6.2529,-0.7124,-57.808,170.54,11.879,-3.9596,-0.20037,15.839,1.247e-12,-0.10019,0,0,0.1,-0,-0,0.66667
0.60097,0.25755,6.0097,-0.36368,-30.816,190.07,5.8282,-1.9427,-1.527,7.771,-1.509e-12,-0.76348,0,0,0.1,-0,-0,0.66667
0.21276,0.05614,2.1276,-0.66579,-84.671,621.06,3.7774,-1.2591,-0.42167,5.0365,9.2356e-10,-0.21083,0,0,0.1,1.2598e-16,0,0.66667
0.65137,0.27906,6.5137,-0.33141,-25.285,148.48,5.7566,-1.9189,-1.6086,7.6754,4.1211e-13,-0.8043,0,0,0.1,1.1842e-16,0,0.66667
0.8145,0.42002,8.145,-0.11997,-5.3157,45.723,2.6057,-0.86855,-1.9501,3.4742,-6.2541e-11,-0.97504,0,0,0.1,-0,-0,0.66667
0.92232,0.14444,9.2232,-0.53334,-10.465,10.103,13.118,-4.3725,-0.99268,17.49,-4.2241e-08,-0.49634,0,0,0.1,9.4739e-16,0,0.66667
0.91665,0.8757,9.1665,0.56355,11.861,11.48,-13.775,4.5918,-0.86997,-18.367,5.7957e-08,-0.43499,0,0,0.1,-3.7896e-15,0,0.66667
0.5611,0.10312,5.611,-0.59532,-54.257,226.37,8.9075,-2.9692,-0.74236,11.877,-4.3254e-13,-0.37118,0,0,0.1,-0,1.1009e-16,0.66667
0.25983,0.23635,2.5983,-0.39548,-49.003,560.91,2.7402,-0.9134,-1.4412,3.6536,-7.1985e-12,-0.7206,0,0,0.1,-0,-0,0.66667
0.3338,0.068058,3.338,-0.64791,-76.667,470.42,5.7673,-1.9224,-0.50544,7.6897,-2.2031e-12,-0.25272,0,0,0.1,-0,-0,0.66667
0.99776,0.75501,9.9776,0.38251,0.062869,0.68728,-10.177,3.3925,-1.4814,-13.57,1.8942e-06,-0.74071,0,0,0.1,-0,-0,0.66667
0.5256,0.8604,5.256,0.5406,52.016,260.03,-7.577,2.5257,-0.95825,-10.103,-1.0396e-12,-0.47912,0,0,0.1,-9.4739e-16,0,0.66667
0.81591,0.42173,8.1591,-0.11741,-5.1663,45.072,2.5545,-0.85149,-1.9503,3.4059,-3.4383e-11,-0.97515,0,0,0.1,-0,-0,0.66667
0.59702,0.8014,5.9702,0.4521,38.626,193.69,-7.1976,2.3992,-1.2729,-9.5967,1.3896e-12,-0.63645,0,0,0.1,-0,-0,0.66667
0.50693,0.080306,5.0693,-0.62954,-62.26,278.76,8.5102,-2.8367,-0.58771,11.347,1.6032e-12,-0.29386,0,0,0.1,-0,-0,0.66667
0.34854,0.985,3.4854,0.7275,85.192,453.04,-6.7617,2.2539,-0.11612,-9.0156,-1.6898e-12,-0.058058,0,0,0.1,4.737e-16,0,0.66667
0.53777,0.72092,5.3777,0.33139,31.251,247.79,-4.7523,1.5841,-1.6077,-6.3364,2.0117e-12,-0.80387,0,0,0.1,-1.8948e-15,0,0.66667
0.0067347,0.70592,0.067347,0.30887,41.032,893.98,-0.055471,0.01849,-1.6577,-0.073962,-8.0378e-07,-0.82886,0,0,0.1,-7.4015e-18,0,0.66667
0.87669,0.31612,8.7669,-0.27582,-8.3715,21.485,6.4481,-2.1494,-1.7322,8.5975,-1.0375e-08,-0.86612,0,0,0.1,-0,-0,0.66667
0.56149,0.035161,5.6149,-0.69726,-63.603,226.34,10.44,-3.48,-0.27524,13.92,9.5302e-13,-0.13762,0,0,0.1,-0,-5.1861e-17,0.66667
0.024281,0.35853,0.24281,-0.2122,-28.163,870.35,0.1374,-0.0458,-1.8367,0.1832,-4.5112e-07,-0.91836,0,0,0.1,-0,-0,0.66667
0.81817,0.11886,8.1817,-0.57171,-25.06,45.173,12.474,-4.1579,-0.83581,16.631,1.8193e-10,-0.41791,0,0,0.1,4.737e-16,0,0.66667
0.13535,0.077722,1.3535,-0.63342,-82.802,722.01,2.2863,-0.7621,-0.57103,3.0484,-5.9811e-08,-0.28551,0,0,0.1,-0,-0,0.66667
0.030639,0.14839,0.30639,-0.52741,-70.1,861.82,0.43091,-0.14364,-1.015,0.57455,-3.0226e-06,-0.50752,0,0,0.1,2.9606e-17,0,0.66667
0.46234,0.58827,4.6234,0.13241,13.806,324.02,-1.6325,0.54417,-1.9354,-2.1767,-4.3381e-12,-0.96768,0,0,0.1,2.3685e-16,0,0.66667
0.96066,0.28815,9.6066,-0.31778,-3.1163,3.0253,8.1406,-2.7135,-1.6382,10.854,9.2927e-08,-0.81911,0,0,0.1,-0,-0,0.66667
0.093614,0.20254,0.93614,-0.44619,-58.802,777.36,1.1139,-0.37128,-1.2967,1.4851,3.2866e-08,-0.64836,0,0,0.1,-0,-0,0.66667
0.065599,0.53313,0.65599,0.049695,6.5686,814.79,-0.086931,0.028977,-1.9922,-0.11591,-2.9258e-08,-0.99611,0,0,0.1,2.3685e-16,0,0.66667
0.87994,0.49529,8.7994,-0.0070684,-0.2086,20.152,0.16586,-0.055287,-1.9985,0.22115,1.8707e-08,-0.99924,0,0,0.1,1.8948e-15,0,0.66667
0.82137,0.55112,8.2137,0.076686,3.2823,42.563,-1.6797,0.55989,-1.9761,-2.2396,7.9789e-11,-0.98804,0,0,0.1,-0,-0,0.66667
0.81997,0.68595,8.1997,0.27893,12.045,43.455,-6.099,2.033,-1.7215,-8.132,1.4443e-10,-0.86075,0,0,0.1,2.398e-16,0,0.66667
0.46782,0.12852,4.6782,-0.55723,-57.891,318.82,6.9515,-2.3172,-0.90005,9.2687,-4.1731e-12,-0.45002,0,0,0.1,-1.8948e-15,0,0.66667
0.42749,0.71754,4.2749,0.32631,35.402,361.93,-3.7199,1.24,-1.6202,-4.9598,-3.0713e-12,-0.81011,0,0,0.1,4.1448e-16,0,0.66667
0.40107,0.85402,4.0107,0.53103,59.26,391.79,-5.6794,1.8931,-0.99522,-7.5725,-1.8447e-12,-0.49761,0,0,0.1,9.4739e-16,0,0.66667
0.58222,0.013568,5.8222,-0.72965,-64.286,207.61,11.328,-3.7761,-0.10566,15.104,6.5787e-12,-0.052832,0,0,0.1,-1.8948e-15,0,0.66667
0.72897,0.23493,7.2897,-0.39761,-24.676,93.446,7.7292,-2.5764,-1.4354,10.306,6.8696e-12,-0.7177,0,0,0.1,-8.6327e-16,0,0.66667
0.78429,0.54908,7.8429,0.073622,3.7356,60.654,-1.5398,0.51326,-1.9805,-2.053,-2.1864e-11,-0.99026,0,0,0.1,9.4739e-16,0,0.66667
0.6548,0.36977,6.548,-0.19535,-14.772,145.6,3.411,-1.137,-1.8672,4.548,-2.6645e-15,-0.9336,0,0,0.1,-9.4739e-16,0,0.66667
0.56247,0.5296,5.6247,0.044395,4.0208,224.22,-0.66588,0.22196,-1.9991,-0.88785,-4.5e-12,-0.99957,0,0,0.1,-2.3685e-16,0,0.66667
0.41239,0.46755,4.1239,-0.048671,-5.3576,378.53,0.53525,-0.17842,-1.9901,0.71366,2.4059e-13,-0.99506,0,0,0.1,-5.9212e-17,0,0.66667
0.31992,0.81286,3.1992,0.4693,56.002,486.83,-4.0036,1.3345,-1.2153,-5.3381,-8.3298e-12,-0.60765,0,0,0.1,9.4739e-16,0,0.66667
0.28625,0.61132,2.8625,0.16698,20.347,527.8,-1.2746,0.42487,-1.8987,-1.6995,1.0775e-12,-0.94933,0,0,0.1,-0,-0,0.66667
0.29618,0.59724,2.9618,0.14587,17.661,515.53,-1.1521,0.38402,-1.9288,-1.5361,-2.0115e-12,-0.96442,0,0,0.1,-0,-0,0.66667
0.68275,0.51705,6.8275,0.025582,1.806,124.5,-0.46577,0.15526,-1.9957,-0.62102,-6.0929e-13,-0.99783,0,0,0.1,-0,-0,0.66667
0.76244,0.018706,7.6244,-0.72194,-40.271,74.419,14.678,-4.8928,-0.14649,19.571,1.8358e-11,-0.073244,0,0,0.1,-0,-0,0.66667
0.59762,0.58582,5.9762,0.12873,10.961,192.67,-2.0515,0.68384,-1.9403,-2.7354,1.2723e-12,-0.97014,0,0,0.1,-4.737e-16,0,0.66667
0.22286,0.38373,2.2286,-0.1744,-22.002,607.7,1.0365,-0.34549,-1.8907,1.382,-3.7651e-11,-0.94536,0,0,0.1,-0,-0,0.66667
0.1944,0.80605,1.944,0.45908,58.73,644.55,-2.3798,0.79327,-1.2481,-3.1731,1.9556e-10,-0.62404,0,0,0.1,-2.3685e-16,0,0.66667
0.76569,0.602,7.6569,0.153,8.3545,70.885,-3.124,1.0413,-1.9219,-4.1654,-2.6189e-11,-0.96094,0,0,0.1,-0,-0,0.66667
0.97869,0.68049,9.7869,0.27073,1.3845,1.2217,-7.0657,2.3552,-1.7372,-9.4209,-6.0782e-07,-0.86862,0,0,0.1,-0,-0,0.66667
0.01591,0.40263,0.1591,-0.14605,-19.386,881.62,0.061964,-0.020655,-1.9294,0.082619,-1.2109e-07,-0.96472,0,0,0.1,2.2204e-17,0,0.66667
0.2489,0.9486,2.489,0.6729,84.085,575.02,-4.4662,1.4887,-0.39293,-5.955,-5.3442e-11,-0.19646,0,0,0.1,-0,-0,0.66667
0.79231,0.16239,7.9231,-0.50642,-24.974,57.376,10.7,-3.5666,-1.0869,14.266,8.4237e-11,-0.54344,0,0,0.1,1.8948e-15,0,0.66667
0.71917,0.3993,7.1917,-0.15105,-9.639,99.365,2.8968,-0.96559,-1.9234,3.8624,4.4009e-13,-0.96171,0,0,0.1,9.4739e-16,0,0.66667
0.24598,0.85955,2.4598,0.53933,67.407,578.53,-3.5377,1.1792,-0.96443,-4.7169,-3.9388e-11,-0.48221,0,0,0.1,-4.737e-16,0,0.66667
0.55489,0.017995,5.5489,-0.72301,-66.689,232.56,10.698,-3.5661,-0.13814,14.265,3.5412e-12,-0.069068,0,0,0.1,-0,-0,0.66667
0.58559,0.028822,5.8559,-0.70677,-61.875,204.52,11.037,-3.6789,-0.22188,14.715,4.3334e-12,-0.11094,0,0,0.1,4.737e-16,0,0.66667
0.72138,0.0046581,7.2138,-0.74301,-47.506,99.607,14.293,-4.7644,-0.038226,19.058,-3.693e-12,-0.019113,0,0,0.1,-0,-0,0.66667
0.46367,0.96224,4.6367,0.69336,72.514,323.55,-8.5732,2.8577,-0.28897,-11.431,4.281e-13,-0.14448,0,0,0.1,-2.3685e-16,0,0.66667
0.40485,0.39068,4.0485,-0.16398,-18.189,387.06,1.7703,-0.59011,-1.9066,2.3604,1.0325e-12,-0.95329,0,0,0.1,-9.4739e-16,0,0.66667
0.30801,0.84948,3.0801,0.52422,63.108,501.38,-4.3057,1.4352,-1.0218,-5.7409,-3.5483e-13,-0.5109,0,0,0.1,-0,-0,0.66667
0.23831,0.48299,2.3831,-0.025513,-3.1937,587.95,0.16213,-0.054044,-1.9964,0.21618,-3.7711e-12,-0.99821,0,0,0.1,-0,-0,0.66667
0.092503,0.70356,0.92503,0.30534,40.215,778.8,-0.7532,0.25107,-1.671,-1.0043,-4.2522e-08,-0.83549,0,0,0.1,-0,-0,0.66667
0.64588,0.27362,6.4588,-0.33957,-26.231,152.81,5.8485,-1.9495,-1.5881,7.798,1.3398e-12,-0.79403,0,0,0.1,-4.737e-16,0,0.66667
0.66957,0.9191,6.6957,0.62865,46.132,135.4,-11.225,3.7415,-0.59567,-14.966,-1.0534e-12,-0.29783,0,0,0.1,-0,-1.5575e-16,0.66667
0.68734,0.37769,6.8734,-0.18346,-12.804,121.29,3.3627,-1.1209,-1.886,4.4836,3.8414e-14,-0.94302,0,0,0.1,-0,-0,0.66667
0.0031457,0.66448,0.031457,0.24672,32.767,898.82,-0.020696,0.0068981,-1.7836,-0.027595,-8.2925e-07,-0.89179,0,0,0.1,-0,-0,0.66667
0.43825,0.44637,4.3825,-0.080445,-8.6195,349.93,0.94014,-0.31338,-1.9807,1.2535,-1.6603e-12,-0.99034,0,0,0.1,-9.4739e-16,0,0.66667
0.12255,0.69273,1.2255,0.28909,37.823,738.78,-0.94478,0.31493,-1.7042,-1.2597,-1.0599e-08,-0.85208,0,0,0.1,-0,-0,0.66667
0.52661,0.36666,5.2661,-0.20001,-19.164,258.45,2.8088,-0.93625,-1.8562,3.745,-2.7347e-12,-0.9281,0,0,0.1,-0,-0,0.66667
0.97974,0.81182,9.7974,0.46773,2.3347,1.7833,-12.22,4.0734,-1.2218,-16.294,-2.7078e-06,-0.61088,0,0,0.1,-5.9212e-17,0,0.66667
0.49928,0.56382,4.9928,0.095735,9.5278,285.61,-1.2746,0.42487,-1.9723,-1.6995,-4.1802e-12,-0.98613,0,0,0.1,-0,-0,0.66667
0.37465,0.44306,3.7465,-0.085413,-9.7408,421.6,0.85334,-0.28445,-1.9789,1.1378,-4.9204e-12,-0.98946,0,0,0.1,-0,-0,0.66667
0.81384,0.48757,8.1384,-0.018645,-0.82858,45.978,0.40465,-0.13488,-2.0011,0.53953,1.4869e-10,-1.0006,0,0,0.1,-0,-0,0.66667
0.9682,0.31474,9.682,-0.27789,-2.179,2.1167,7.1747,-2.3916,-1.7304,9.5662,4.7829e-07,-0.86522,0,0,0.1,3.7896e-15,0,0.66667
0.28712,0.88204,2.8712,0.57307,69.971,527.1,-4.3878,1.4626,-0.83007,-5.8503,3.2325e-12,-0.41504,0,0,0.1,9.4739e-16,0,0.66667
0.803,0.64524,8.03,0.21786,10.201,51.307,-4.6651,1.555,-1.8285,-6.2201,3.6944e-12,-0.91425,0,0,0.1,-0,-0,0.66667
0.99614,0.49506,9.9614,-0.0074053,-0.0032803,0.074808,0.19671,-0.065557,-1.9994,0.26229,2.0368e-05,-0.9997,0,0,0.1,-0,-0,0.66667
0.11182,0.90163,1.1182,0.60245,79.198,753.17,-1.7965,0.59883,-0.71092,-2.3953,1.8026e-08,-0.35546,0,0,0.1,-0,-0,0.66667
0.53105,0.46964,5.3105,-0.045537,-4.3329,254.03,0.64486,-0.21495,-1.9986,0.85982,-3.1184e-12,-0.99929,0,0,0.1,-0,-0,0.66667
0.81353,0.69091,8.1353,0.28636,12.769,46.419,-6.2123,2.0708,-1.7123,-8.2831,5.1675e-11,-0.85617,0,0,0.1,-0,-0,0.66667
0.37629,0.50666,3.7629,0.0099884,1.1374,419.68,-0.10023,0.03341,-2.0026,-0.13364,1.5601e-12,-1.0013,0,0,0.1,-0,-0,0.66667
0.44577,0.54931,4.4577,0.07397,7.8601,341.75,-0.87931,0.2931,-1.9773,-1.1724,-1.5712e-12,-0.98867,0,0,0.1,-4.737e-16,0,0.66667
0.7509,0.28924,7.509,-0.31614,-18.233,79.725,6.3304,-2.1101,-1.6481,8.4406,1.7254e-11,-0.82406,0,0,0.1,-0,-0,0.66667
0.098346,0.82575,0.98346,0.48862,64.355,771.06,-1.2814,0.42715,-1.1493,-1.7086,-4.5086e-08,-0.57463,0,0,0.1,-0,-0,0.66667
0.36053,0.12265,3.6053,-0.56603,-65.519,438.59,5.4418,-1.8139,-0.86471,7.2557,-3.6624e-12,-0.43236,0,0,0.1,-7.1054e-16,0,0.66667
0.56371,0.36723,5.6371,-0.19915,-18.008,223.17,2.9937,-0.99789,-1.862,3.9916,-1.9758e-12,-0.93098,0,0,0.1,4.737e-16,0,0.66667
0.23859,0.27512,2.3859,-0.33732,-42.258,587.72,2.1461,-0.71536,-1.5945,2.8615,-2.7012e-11,-0.79726,0,0,0.1,2.3685e-16,0,0.66667
0.83995,0.80416,8.3995,0.45624,17.746,35.375,-10.219,3.4064,-1.2591,-13.626,4.7314e-10,-0.62957,0,0,0.1,9.4739e-16,0,0.66667
0.76585,0.22319,7.6585,-0.41521,-22.722,71.299,8.4797,-2.8266,-1.3923,11.306,1.3594e-11,-0.69615,0,0,0.1,-1.8948e-15,0,0.66667
0.96554,0.61717,9.6554,0.17575,1.4902,2.1857,-4.5253,1.5084,-1.8901,-6.0337,-2.2137e-07,-0.94507,0,0,0.1,-0,-0,0.66667
0.52299,0.88229,5.2299,0.57344,55.407,262.67,-7.9973,2.6658,-0.82806,-10.663,-3.4106e-12,-0.41403,0,0,0.1,-0,-0,0.66667
0.10652,0.22447,1.0652,-0.41329,-54.312,760.13,1.174,-0.39134,-1.3934,1.5653,3.5122e-08,-0.69669,0,0,0.1,-0,-0,0.66667
0.93662,0.71312,9.3662,0.31967,5.0793,6.5667,-7.9843,2.6614,-1.6405,-10.646,1.1392e-07,-0.82024,0,0,0.1,1.4211e-15,0,0.66667
0.83424,0.32772,8.3424,-0.25842,-10.343,37.208,5.7489,-1.9163,-1.7597,7.6652,-6.7267e-10,-0.87983,0,0,0.1,1.8948e-15,0,0.66667
0.54442,0.65691,5.4442,0.23536,21.956,241.3,-3.4169,1.139,-1.8052,-4.5559,-1.9815e-12,-0.90258,0,0,0.1,-0,-0,0.66667
0.8363,0.67029,8.363,0.25544,10.106,36.341,-5.6966,1.8989,-1.7648,-7.5955,7.9089e-10,-0.88238,0,0,0.1,-0,-0,0.66667
0.88169,0.6626,8.8169,0.24389,7.1122,19.836,-5.7344,1.9115,-1.786,-7.6458,1.325e-08,-0.893,0,0,0.1,1.8948e-15,0,0.66667
0.77608,0.26882,7.7608,-0.34678,-18.229,65.45,7.1767,-2.3922,-1.5702,9.5689,3.8046e-11,-0.78508,0,0,0.1,-0,-0,0.66667
0.57125,0.88668,5.7125,0.58002,51.963,217,-8.8357,2.9452,-0.80076,-11.781,-1.8652e-14,-0.40038,0,0,0.1,-0,-0,0.66667
0.6153,0.65155,6.153,0.22733,18.715,177.61,-3.73,1.2433,-1.8143,-4.9733,-1.9573e-12,-0.90714,0,0,0.1,-1.0937e-16,0,0.66667
0.84439,0.16263,8.4439,-0.50605,-19.204,33.776,11.395,-3.7983,-1.0936,15.193,1.691e-09,-0.54682,0,0,0.1,1.8948e-15,0,0.66667
0.62222,0.23257,6.2222,-0.40114,-32.611,172.13,6.6559,-2.2186,-1.428,8.8746,-9.5479e-13,-0.71398,0,0,0.1,9.4739e-16,0,0.66667
0.20648,0.93416,2.0648,0.65125,83.037,629.12,-3.5859,1.1953,-0.49243,-4.7811,2.0278e-10,-0.24622,0,0,0.1,-2.3685e-16,0,0.66667
0.69149,0.20646,6.9149,-0.44031,-30.468,118.82,8.1191,-2.7064,-1.3094,10.826,-7.2742e-13,-0.65471,0,0,0.1,-0,-0,0.66667
0.53201,0.87383,5.3201,0.56075,53.46,253.83,-7.9553,2.6518,-0.88681,-10.607,-3.6349e-12,-0.44341,0,0,0.1,1.3027e-15,0,0.66667
0.26325,0.39347,2.6325,-0.1598,-19.741,556.47,1.1218,-0.37392,-1.9099,1.4957,-1.6003e-11,-0.95496,0,0,0.1,-0,-0,0.66667
0.00078654,0.50475,0.0078654,0.0071234,0.94563,902,-0.00014963,7.9919e-05,-2.0039,-0.00018449,4.5061e-05,-1.002,0,0,0.1,-0,-0,0.66667
0.2355,0.038739,2.355,-0.69189,-87.076,592.03,4.345,-1.4483,-0.30106,5.7934,-6.5746e-11,-0.15053,0,0,0.1,-4.737e-16,0,0.66667
0.67357,0.21411,6.7357,-0.42884,-31.069,131.79,7.7028,-2.5676,-1.3487,10.27,-2.1467e-12,-0.67434,0,0,0.1,9.4739e-16,0,0.66667
0.87832,0.45599,8.7832,-0.06602,-1.9737,20.681,1.5463,-0.51544,-1.984,2.0618,-7.2926e-09,-0.99198,0,0,0.1,-0,-0,0.66667
0.8307,0.70722,8.307,0.31083,12.695,38.814,-6.8856,2.2952,-1.657,-9.1808,5.1505e-10,-0.82848,0,0,0.1,-9.4739e-16,0,0.66667
0.10811,0.54864,1.0811,0.072964,9.5727,757.94,-0.21035,0.070115,-1.9835,-0.28046,-7.1717e-09,-0.99176,0,0,0.1,-0,-0,0.66667
0.071125,0.11008,0.71125,-0.58488,-77.456,807.48,1.1093,-0.36977,-0.78051,1.4791,2.918e-07,-0.39026,0,0,0.1,-8.4229e-17,0,0.66667
0.76159,0.35928,7.6159,-0.21108,-11.706,73.29,4.2868,-1.4289,-1.8402,5.7157,2.0797e-11,-0.92011,0,0,0.1,9.4739e-16,0,0.66667
0.28483,0.901,2.8483,0.60151,73.569,529.97,-4.5688,1.5229,-0.71342,-6.0917,-5.5067e-14,-0.35671,0,0,0.1,4.737e-16,0,0.66667
0.2718,0.18837,2.718,-0.46745,-57.556,545.99,3.3881,-1.1294,-1.2217,4.5175,-1.9189e-12,-0.61084,0,0,0.1,9.4739e-16,0,0.66667
0.0020003,0.0071759,0.020003,-0.73924,-98.552,900.36,0.039959,-0.013332,-0.058173,0.053272,-1.8588e-05,-0.029087,0,0,0.1,-0,-0,0.66667
0.098539,0.62422,0.98539,0.18633,24.501,770.71,-0.48963,0.16321,-1.876,-0.65284,-2.9482e-08,-0.93801,0,0,0.1,1.6283e-16,0,0.66667
0.1356,0.41263,1.356,-0.13105,-17.078,721.46,0.47386,-0.15795,-1.9373,0.63181,2.6899e-09,-0.96864,0,0,0.1,-0,-0,0.66667
0.15936,0.67684,1.5936,0.26526,34.334,690.17,-1.1272,0.37575,-1.7497,-1.503,-1.1496e-09,-0.87483,0,0,0.1,-0,-0,0.66667
0.44531,0.34086,4.4531,-0.23871,-25.391,342.36,2.8347,-0.9449,-1.7952,3.7796,1.9553e-12,-0.89762,0,0,0.1,-1.1842e-15,0,0.66667
0.81414,0.92379,8.1414,0.63569,28.475,47.302,-13.801,4.6003,-0.56503,-18.401,1.9725e-09,-0.28252,0,0,0.1,-9.4739e-16,0,0.66667
0.8123,0.092795,8.123,-0.61081,-27.584,48.043,13.231,-4.4103,-0.67942,17.641,3.1683e-09,-0.33971,0,0,0.1,4.1448e-16,-1.4032e-17,0.66667
0.90999,0.89039,9.0999,0.58558,13.29,13.14,-14.21,4.7367,-0.7797,-18.947,6.0824e-08,-0.38985,0,0,0.1,-0,-0,0.66667
0.44359,0.03121,4.4359,-0.70318,-75.259,345.08,8.3181,-2.7727,-0.2407,11.091,-5.4996e-12,-0.12035,0,0,0.1,-1.8833e-16,0,0.66667
0.70871,0.38419,7.0871,-0.17371,-11.432,106.37,3.283,-1.0943,-1.8904,4.3773,2.1501e-12,-0.94519,0,0,0.1,-1.8948e-15,0,0.66667
0.48833,0.87911,4.8833,0.56867,57.6,297.48,-7.4054,2.4685,-0.8498,-9.8738,8.944e-13,-0.4249,0,0,0.1,-0,-0,0.66667
0.049843,0.39337,0.49843,-0.15994,-21.183,835.95,0.21258,-0.07086,-1.9089,0.28344,-5.038e-08,-0.95447,0,0,0.1,-5.9212e-17,0,0.66667
0.080431,0.2615,0.80431,-0.35774,-47.229,794.95,0.7673,-0.25577,-1.5458,1.0231,8.0623e-08,-0.77292,0,0,0.1,-0,-0,0.66667
0.24594,0.87117,2.4594,0.55676,69.599,578.6,-3.6515,1.2172,-0.89741,-4.8687,-1.2254e-10,-0.44871,0,0,0.1,4.737e-16,0,0.66667
0.98162,0.37245,9.8162,-0.19133,-0.8247,0.86772,5.0083,-1.6694,-1.8712,6.6778,1.8705e-07,-0.93558,0,0,0.1,-0,-0,0.66667
0.69192,0.28051,6.9192,-0.32923,-22.727,118.25,6.0747,-2.0249,-1.6144,8.0996,1.9043e-12,-0.8072,0,0,0.1,-1.0658e-15,0,0.66667
0.26801,0.50003,2.6801,4.1974e-05,0.00517,550.47,-0.00029998,9.9994e-05,-2.0024,-0.00039998,-1.9891e-12,-1.0012,0,0,0.1,-0,-0,0.66667
0.70626,0.83926,7.0626,0.50889,33.847,108.75,-9.5843,3.1948,-1.0797,-12.779,2.5713e-12,-0.53986,0,0,0.1,1.4211e-15,0,0.66667
0.66135,0.53672,6.6135,0.055081,4.1,140.46,-0.9714,0.3238,-1.9876,-1.2952,1.4552e-12,-0.99382,0,0,0.1,-0,-0,0.66667
0.04329,0.19648,0.4329,-0.45528,-60.422,844.8,0.52557,-0.17519,-1.2624,0.70076,8.2409e-07,-0.63121,0,0,0.1,-0,-0,0.66667
0.36149,0.42846,3.6149,-0.10731,-12.377,436.96,1.0345,-0.34482,-1.9604,1.3793,-6.2551e-12,-0.9802,0,0,0.1,4.737e-16,0,0.66667
0.77373,0.27243,7.7373,-0.34136,-18.109,66.723,7.0431,-2.3477,-1.5827,9.3909,3.5118e-11,-0.79137,0,0,0.1,-9.4739e-16,0,0.66667
0.078523,0.1796,0.78523,-0.48061,-63.521,797.54,1.0064,-0.33545,-1.1832,1.3418,7.4727e-08,-0.5916,0,0,0.1,-0,-0,0.66667
0.88438,0.88156,8.8438,0.57234,16.486,20.061,-13.498,4.4993,-0.83292,-17.997,9.0376e-09,-0.41646,0,0,0.1,-0,-0,0.66667
0.93087,0.21978,9.3087,-0.42033,-7.3128,7.9357,10.434,-3.478,-1.3702,13.912,-1.9796e-07,-0.6851,0,0,0.1,-0,-0,0.66667
0.85309,0.51708,8.5309,0.025622,0.91514,29.453,-0.58288,0.19429,-1.9947,-0.77717,-1.3123e-10,-0.99735,0,0,0.1,-1.8948e-15,0,0.66667
0.11738,0.68085,1.1738,0.27127,35.533,745.65,-0.84909,0.28303,-1.7356,-1.1321,-1.3834e-08,-0.86782,0,0,0.1,-0,-0,0.66667
0.56517,0.32986,5.6517,-0.25521,-23.027,221.88,3.8464,-1.2821,-1.7687,5.1285,-2.3739e-12,-0.88434,0,0,0.1,-0,-0,0.66667
0.70756,0.59401,7.0756,0.14102,9.3101,107.12,-2.6608,0.88695,-1.9292,-3.5478,-2.3619e-12,-0.96459,0,0,0.1,-0,-0,0.66667
0.88798,0.39999,8.8798,-0.15002,-4.1463,17.782,3.5524,-1.1841,-1.9209,4.7365,-1.3011e-08,-0.96044,0,0,0.1,-9.4739e-16,0,0.66667
0.095776,0.57822,0.95776,0.11733,15.434,774.39,-0.29967,0.099891,-1.9522,-0.39957,-2.0967e-08,-0.97612,0,0,0.1,-1.1842e-16,0,0.66667
0.81577,0.54341,8.1577,0.06511,2.8664,45.1,-1.4164,0.47213,-1.9845,-1.8885,1.4099e-10,-0.99224,0,0,0.1,-0,-0,0.66667
0.27802,0.97921,2.7802,0.71882,88.4,538.62,-5.3292,1.7764,-0.16255,-7.1055,-8.9102e-12,-0.081273,0,0,0.1,-0,-0,0.66667
0.59229,0.4139,5.9229,-0.12915,-11.106,197.34,2.0399,-0.67997,-1.9432,2.7199,-3.423e-12,-0.97162,0,0,0.1,-0,-0,0.66667
0.7198,0.32524,7.198,-0.26214,-16.709,99.097,5.0317,-1.6772,-1.7586,6.7089,2.2808e-12,-0.87928,0,0,0.1,-0,-0,0.66667
0.77702,0.94369,7.7702,0.66553,35.079,66.055,-13.79,4.5967,-0.42418,-18.387,-4.2757e-12,-0.21209,0,0,0.1,-0,4.6438e-18,0.66667
0.29466,0.88692,2.9466,0.58039,70.53,517.81,-4.5605,1.5202,-0.80331,-6.0807,5.9215e-12,-0.40166,0,0,0.1,-4.737e-16,0,0.66667
0.60738,0.23086,6.0738,-0.40372,-33.804,184.64,6.5389,-2.1796,-1.4218,8.7185,-2.3501e-12,-0.7109,0,0,0.1,9.4739e-16,0,0.66667
0.28747,0.85008,2.8747,0.52512,64.074,526.6,-4.0256,1.3419,-1.0172,-5.3674,-6.9464e-12,-0.5086,0,0,0.1,-0,-0,0.66667
0.99832,0.9494,9.9832,0.67409,0.22671,2.0439,-17.946,5.9818,-0.38622,-23.927,-6.5603e-05,-0.19311,0,0,0.1,-1.8948e-15,0,0.66667
0.81451,0.47683,8.1451,-0.034749,-1.5392,45.673,0.75476,-0.25159,-1.9973,1.0063,-1.3905e-10,-0.99866,0,0,0.1,-0,-0,0.66667
0.41398,0.67123,4.1398,0.25685,28.245,376.87,-2.8355,0.94515,-1.7622,-3.7806,-4.0412e-12,-0.88108,0,0,0.1,-0,-0,0.66667
0.87914,0.064453,8.7914,-0.65332,-19.691,22.071,15.316,-5.1054,-0.48221,20.422,-2.4615e-07,-0.24111,0,0,0.1,-3.7896e-15,0,0.66667
0.7325,0.067974,7.325,-0.64804,-39.948,92.057,12.658,-4.2195,-0.50897,16.878,-1.7124e-12,-0.25448,0,0,0.1,-0,-0,0.66667
0.92875,0.4071,9.2875,-0.13935,-2.475,7.6981,3.4513,-1.1504,-1.9293,4.6017,-2.0546e-08,-0.96466,0,0,0.1,3.7896e-15,0,0.66667
0.17161,0.74723,1.7161,0.37085,47.827,674.16,-1.6971,0.5657,-1.5165,-2.2628,-2.4709e-10,-0.75824,0,0,0.1,2.9606e-16,0,0.66667
0.29484,0.49468,2.9484,-0.0079807,-0.96694,517.16,0.062747,-0.020916,-2.0017,0.083662,-5.117e-12,-1.0008,0,0,0.1,-7.1054e-16,0,0.66667
0.093737,0.61069,0.93737,0.16603,21.851,777.12,-0.41502,0.13834,-1.9068,-0.55336,-3.0878e-08,-0.95341,0,0,0.1,1.1842e-16,0,0.66667
0.31798,0.069938,3.1798,-0.64509,-77.218,489.45,5.4701,-1.8234,-0.51829,7.2934,-2.879e-12,-0.25914,0,0,0.1,-0,-0,0.66667
0.38119,0.056603,3.8119,-0.6651,-75.711,414.77,6.7607,-2.2536,-0.42492,9.0143,-4.5834e-12,-0.21246,0,0,0.1,-0,-0,0.66667
0.63271,0.45312,6.3271,-0.070319,-5.5818,163.06,1.1865,-0.39548,-1.9791,1.5819,-1.6009e-12,-0.98957,0,0,0.1,9.4739e-16,0,0.66667
0.47152,0.25066,4.7152,-0.37401,-38.617,314.57,4.7027,-1.5676,-1.5043,6.2703,-6.5139e-12,-0.75216,0,0,0.1,1.8948e-15,0,0.66667
0.71767,0.51415,7.1767,0.021222,1.3598,100.28,-0.40614,0.13538,-2.0012,-0.54152,-3.2588e-12,-1.0006,0,0,0.1,1.8948e-15,0,0.66667
0.26922,0.0027919,2.6922,-0.74581,-92.229,549.61,5.3544,-1.7848,-0.022511,7.1392,2.3377e-12,-0.011256,0,0,0.1,-0,-0,0.66667
0.17306,0.095606,1.7306,-0.60659,-78.334,672.45,2.7993,-0.93311,-0.69563,3.7324,3.4713e-09,-0.34782,0,0,0.1,4.737e-16,0,0.66667
0.37912,0.55089,3.7912,0.07633,8.6704,416.42,-0.77169,0.25723,-1.9779,-1.0289,-7.1683e-12,-0.98897,0,0,0.1,4.737e-16,0,0.66667
0.43808,0.74618,4.3808,0.36927,39.623,350.37,-4.3138,1.4379,-1.5198,-5.7518,-1.5885e-12,-0.75992,0,0,0.1,-7.1054e-16,0,0.66667
0.42213,0.089047,4.2213,-0.61643,-67.428,368.38,6.939,-2.313,-0.65412,9.252,2.4016e-12,-0.32706,0,0,0.1,7.1054e-16,0,0.66667
0.91357,0.6794,9.1357,0.2691,5.7975,11.192,-6.5558,2.1853,-1.7397,-8.7411,4.9794e-08,-0.86983,0,0,0.1,-0,-0,0.66667
0.26957,0.055595,2.6957,-0.66661,-82.341,549.05,4.7919,-1.5973,-0.41928,6.3892,-1.9833e-12,-0.20964,0,0,0.1,-2.3685e-16,0,0.66667
0.35204,0.29457,3.5204,-0.30814,-35.845,448.22,2.8928,-0.96427,-1.6592,3.8571,-7.9154e-12,-0.82959,0,0,0.1,-9.4739e-16,0,0.66667
0.21521,0.32759,2.1521,-0.25861,-32.751,617.55,1.4841,-0.49471,-1.7614,1.9789,-4.5137e-11,-0.88068,0,0,0.1,-4.737e-16,0,0.66667
0.37192,0.22084,3.7192,-0.41875,-47.942,425.04,4.1531,-1.3844,-1.3775,5.5375,-5.9202e-12,-0.68876,0,0,0.1,-0,-0,0.66667
0.38986,0.3029,3.8986,-0.29565,-33.283,404.21,3.0736,-1.0245,-1.6928,4.0981,-2.9969e-12,-0.8464,0,0,0.1,-0,-0,0.66667
0.57543,0.20341,5.7543,-0.44489,-39.509,212.86,6.8266,-2.2755,-1.2965,9.1022,-1.3038e-12,-0.64824,0,0,0.1,-0,-0,0.66667
0.27836,0.34648,2.7836,-0.23028,-28.203,537.61,1.7094,-0.5698,-1.8126,2.2792,-9.703e-12,-0.90629,0,0,0.1,-0,-0,0.66667
0.25949,0.0021308,2.5949,-0.7468,-92.865,561.8,5.1677,-1.7226,-0.015379,6.8903,-2.5513e-12,-0.0076894,0,0,0.1,-0,-0,0.66667
0.71906,0.90357,7.1906,0.60536,38.858,100.53,-11.608,3.8692,-0.70243,-15.477,-1.7389e-11,-0.35122,0,0,0.1,-1.1842e-15,0,0.66667
0.91018,0.030298,9.1018,-0.70455,-16.069,13.715,17.1,-5.7002,-0.23528,22.801,2.5191e-06,-0.11764,0,0,0.1,-1.1842e-15,0,0.66667
0.1221,0.40545,1.221,-0.14182,-18.548,739.35,0.46177,-0.15392,-1.93,0.61569,1.0871e-08,-0.96498,0,0,0.1,3.1086e-16,0,0.66667
0.18229,0.24035,1.8229,-0.38947,-50.038,660.24,1.8932,-0.63108,-1.4585,2.5243,1.1037e-10,-0.72927,0,0,0.1,2.3685e-16,0,0.66667
0.13311,0.3601,1.3311,-0.20985,-27.371,724.76,0.74488,-0.24829,-1.8402,0.99318,5.9128e-09,-0.92008,0,0,0.1,-0,-0,0.66667
0.68361,0.78134,6.8361,0.42201,29.805,124.42,-7.6931,2.5644,-1.3672,-10.258,6.6169e-13,-0.68361,0,0,0.1,-0,-0,0.66667
0.21401,0.72615,2.1401,0.33923,43.002,619.14,-1.936,0.64532,-1.5893,-2.5813,3.9818e-11,-0.79464,0,0,0.1,-0,-0,0.66667
0.60457,0.082913,6.0457,-0.62563,-52.817,187.66,10.086,-3.3621,-0.60639,13.448,-8.9528e-13,-0.3032,0,0,0.1,9.4739e-16,0,0.66667
0.20168,0.51455,2.0168,0.021827,2.7792,634.94,-0.11739,0.03913,-2.0004,-0.15652,-4.6835e-11,-1.0002,0,0,0.1,-0,-0,0.66667
0.81776,0.27441,8.1776,-0.33839,-14.789,44.591,7.3791,-2.4597,-1.591,9.8388,-1.0822e-10,-0.7955,0,0,0.1,-0,-0,0.66667
0.31611,0.17578,3.1611,-0.48634,-58.201,491.47,4.0996,-1.3665,-1.1582,5.4661,-5.3655e-12,-0.57911,0,0,0.1,-0,-0,0.66667
0.66962,0.74389,6.6962,0.36583,26.744,134.59,-6.5325,2.1775,-1.5256,-8.71,1.3665e-12,-0.76281,0,0,0.1,-4.737e-16,0,0.66667
0.14873,0.14992,1.4873,-0.52512,-68.311,704.28,2.0828,-0.69425,-1.0169,2.777,-1.9348e-09,-0.50844,0,0,0.1,-0,-0,0.66667
0.30595,0.71867,3.0595,0.328,39.485,503.67,-2.676,0.89201,-1.6161,-3.568,-2.3894e-12,-0.80805,0,0,0.1,-1.1929e-16,0,0.66667
0.29724,0.091263,2.9724,-0.61311,-74.406,514.69,4.8597,-1.6199,-0.66879,6.4797,6.3722e-12,-0.33439,0,0,0.1,-1.1842e-16,0,0.66667
0.63508,0.65302,6.3508,0.22952,18.139,161.28,-3.8871,1.2957,-1.8112,-5.1828,-2.5693e-12,-0.90558,0,0,0.1,1.1842e-15,0,0.66667
0.68088,0.68528,6.8088,0.27792,19.737,126.09,-5.0461,1.682,-1.7235,-6.7281,-2.3843e-12,-0.86177,0,0,0.1,1.4211e-15,0,0.66667
0.84525,0.36392,8.4525,-0.20412,-7.6613,32.632,4.6008,-1.5336,-1.854,6.1344,-1.2475e-09,-0.92702,0,0,0.1,9.4739e-16,0,0.66667
0.18335,0.93796,1.8335,0.65693,84.557,659.09,-3.2119,1.0706,-0.46568,-4.2825,-9.6832e-09,-0.23284,0,0,0.1,-0,-0,0.66667
0.76043,0.21763,7.6043,-0.42355,-23.649,74.414,8.5888,-2.8629,-1.3613,11.452,2.8074e-11,-0.68063,0,0,0.1,-1.1901e-15,0,0.66667
0.71194,0.29792,7.1194,-0.30312,-19.783,104.39,5.7547,-1.9182,-1.6702,7.6729,8.1002e-13,-0.83509,0,0,0.1,1.0428e-16,0,0.66667
0.55754,0.24686,5.5754,-0.37971,-34.725,229.15,5.6454,-1.8818,-1.4863,7.5272,-1.4557e-12,-0.74313,0,0,0.1,2.3685e-16,0,0.66667
0.65016,0.73326,6.5016,0.34989,26.772,149.46,-6.0663,2.0221,-1.5618,-8.0884,9.7256e-13,-0.78092,0,0,0.1,-9.4739e-16,0,0.66667
0.089995,0.13806,0.89995,-0.5429,-71.65,782.23,1.3029,-0.4343,-0.95097,1.7372,7.2536e-08,-0.47549,0,0,0.1,-0,-0,0.66667
0.14688,0.48388,1.4688,-0.024173,-3.1394,706.55,0.094676,-0.031559,-1.995,0.12624,-2.631e-10,-0.99748,0,0,0.1,-0,-0,0.66667
0.41557,0.29715,4.1557,-0.30427,-33.415,375.14,3.3719,-1.124,-1.6678,4.4959,-3.9178e-12,-0.83392,0,0,0.1,9.4739e-16,0,0.66667
0.71137,0.52401,7.1137,0.036014,2.3509,104.48,-0.68317,0.22772,-1.9926,-0.9109,-1.5687e-12,-0.99631,0,0,0.1,-0,-0,0.66667
0.16782,0.14053,1.6782,-0.53921,-69.718,679.23,2.4131,-0.80437,-0.96482,3.2175,4.8831e-10,-0.48241,0,0,0.1,-0,-0,0.66667
0.38898,0.83404,3.8898,0.50106,56.538,405.5,-5.1974,1.7325,-1.1094,-6.9299,-3.8276e-12,-0.55468,0,0,0.1,-0,-0,0.66667
0.49795,0.92253,4.9795,0.63379,63.446,287.84,-8.4158,2.8053,-0.57292,-11.221,-7.6827e-13,-0.28646,0,0,0.1,9.4739e-16,1.1822e-16,0.66667
0.93505,0.55284,9.3505,0.079267,1.2827,6.4499,-1.9765,0.65883,-1.9785,-2.6353,2.8406e-09,-0.98923,0,0,0.1,-9.4739e-16,0,0.66667
0.055196,0.98,0.55196,0.72,95.675,828.88,-1.0598,0.35326,-0.15368,-1.413,7.0922e-06,-0.07684,0,0,0.1,-0,-0,0.66667
0.82901,0.96905,8.2901,0.70357,29.289,41.009,-15.554,5.1846,-0.24472,-20.738,4.2037e-09,-0.12236,0,0,0.1,-0,-0,0.66667
0.98416,0.73062,9.8416,0.34593,1.2908,1.0806,-9.0787,3.0262,-1.579,-12.105,-4.1027e-07,-0.78951,0,0,0.1,-0,-0,0.66667
0.26727,0.079996,2.6727,-0.63001,-77.892,551.86,4.4902,-1.4967,-0.59058,5.987,1.2581e-11,-0.29529,0,0,0.1,-0,-0,0.66667
0.89006,0.15945,8.9006,-0.51082,-13.993,18.116,12.124,-4.0414,-1.077,16.166,-2.153e-08,-0.53851,0,0,0.1,1.8948e-15,0,0.66667
0.2903,0.47104,2.903,-0.043437,-5.2782,522.75,0.33626,-0.11209,-1.9915,0.44834,-2.3639e-12,-0.99573,0,0,0.1,-0,-0,0.66667
0.79901,0.91405,7.9901,0.62108,29.829,54.472,-13.233,4.4111,-0.62993,-17.644,1.2607e-09,-0.31497,0,0,0.1,1.8948e-15,0,0.66667
0.45986,0.085968,4.5986,-0.62105,-65.181,327.41,7.6158,-2.5386,-0.62593,10.154,-2.7875e-12,-0.31296,0,0,0.1,-4.737e-16,0,0.66667
0.59761,0.95646,5.9761,0.68469,58.622,193.88,-10.911,3.6371,-0.33203,-14.549,-5.5955e-13,-0.16602,0,0,0.1,9.4739e-16,0,0.66667
0.23667,0.95245,2.3667,0.67867,85.349,590.52,-4.2832,1.4277,-0.36312,-5.7109,5.3491e-11,-0.18156,0,0,0.1,4.737e-16,0,0.66667
0.68761,0.71755,6.8761,0.32633,22.784,121.31,-5.9836,1.9945,-1.6275,-7.9782,-2.669e-13,-0.81373,0,0,0.1,-1.1842e-16,0,0.66667
0.14868,0.1198,1.4868,-0.5703,-74.218,704.38,2.2612,-0.75373,-0.84109,3.0149,5.2126e-10,-0.42054,0,0,0.1,-8.9597e-17,0,0.66667
0.55969,0.78058,5.5969,0.42086,38.369,227.24,-6.2814,2.0938,-1.3718,-8.3752,-9.6589e-13,-0.68592,0,0,0.1,1.2553e-15,0,0.66667
0.49433,0.88877,4.9433,0.58315,58.619,291.38,-7.6871,2.5624,-0.78824,-10.249,1.5894e-12,-0.39412,0,0,0.1,-0,-0,0.66667
0.83721,0.89265,8.3721,0.58897,23.355,37.015,-13.149,4.383,-0.7636,-17.532,3.9632e-09,-0.3818,0,0,0.1,-9.4739e-16,0,0.66667
0.48147,0.80111,4.8147,0.45167,46.094,304.32,-5.799,1.933,-1.2747,-7.7321,4.6452e-13,-0.63735,0,0,0.1,-4.737e-16,0,0.66667
0.78473,0.85756,7.8473,0.53634,27.322,61.407,-11.224,3.7412,-0.97643,-14.965,7.5986e-11,-0.48822,0,0,0.1,-0,-0,0.66667
0.40029,0.63914,4.0029,0.20871,23.257,392.24,-2.2279,0.74264,-1.8423,-2.9706,-4.4984e-12,-0.92115,0,0,0.1,-0,-0,0.66667
0.30791,0.64452,3.0791,0.21677,26.047,501.19,-1.7799,0.5933,-1.8311,-2.3732,3.32e-12,-0.91556,0,0,0.1,-8.3833e-16,0,0.66667
0.78723,0.13407,7.8723,-0.5489,-27.682,60.15,11.523,-3.8409,-0.92623,15.364,-2.6879e-10,-0.46311,0,0,0.1,-0,-0,0.66667
0.41846,0.55708,4.1846,0.085616,9.3672,371.76,-0.9554,0.31847,-1.974,-1.2739,-6.766e-12,-0.98698,0,0,0.1,-0,-0,0.66667
0.49677,0.43418,4.9677,-0.098732,-9.8591,288.17,1.3079,-0.43597,-1.9659,1.7439,2.1155e-12,-0.98296,0,0,0.1,2.3685e-16,0,0.66667
0.57732,0.25909,5.7732,-0.36137,-31.962,210.97,5.5634,-1.8545,-1.5393,7.4179,-1.136e-12,-0.76963,0,0,0.1,-0,-0,0.66667
0.81967,0.76601,8.1967,0.39901,17.291,43.889,-8.7215,2.9072,-1.4307,-11.629,1.06e-10,-0.71535,0,0,0.1,-9.4739e-16,0,0.66667
0.58132,0.42556,5.8132,-0.11166,-9.7927,207.07,1.7309,-0.57696,-1.9553,2.3078,-2.8088e-12,-0.97766,0,0,0.1,-0,-0,0.66667
0.40614,0.76356,4.0614,0.39534,43.85,385.83,-4.2817,1.4272,-1.449,-5.7089,-3.229e-12,-0.72448,0,0,0.1,-0,-0,0.66667
0.16059,0.9862,1.6059,0.7293,94.71,688.88,-3.1231,1.041,-0.10721,-4.1641,1.4713e-10,-0.053605,0,0,0.1,-2.3685e-16,0,0.66667
0.70211,0.45597,7.0211,-0.066047,-4.4269,110.8,1.2366,-0.4122,-1.9874,1.6488,-1.4373e-12,-0.99371,0,0,0.1,9.4739e-16,0,0.66667
0.88323,0.45637,8.8323,-0.065439,-1.8808,19.143,1.5413,-0.51376,-1.9816,2.055,-8.4457e-09,-0.99079,0,0,0.1,-9.4739e-16,0,0.66667
0.10838,0.86201,1.0838,0.54302,71.401,757.72,-1.5694,0.52313,-0.95454,-2.0925,3.7195e-09,-0.47727,0,0,0.1,-0,1.355e-16,0.66667
0.46621,0.14011,4.6621,-0.53984,-56.182,320.47,6.7115,-2.2372,-0.96424,8.9487,-6.835e-12,-0.48212,0,0,0.1,9.4739e-16,0,0.66667
0.93454,0.80444,9.3454,0.45665,7.5433,7.383,-11.38,3.7934,-1.2588,-15.174,2.0187e-07,-0.6294,0,0,0.1,-0,-0,0.66667
0.56351,0.462,5.6351,-0.056998,-5.1534,223.26,0.85651,-0.2855,-1.9919,1.142,1.6459e-12,-0.99594,0,0,0.1,-9.4739e-16,0,0.66667
0.54525,0.84944,5.4525,0.52416,48.954,241.04,-7.6213,2.5404,-1.0257,-10.162,-8.8551e-13,-0.51283,0,0,0.1,-0,-0,0.66667
0.063476,0.28965,0.63476,-0.31553,-41.749,817.66,0.53409,-0.17803,-1.6493,0.71212,1.1136e-07,-0.82467,0,0,0.1,-0,-0,0.66667
0.5353,0.3209,5.353,-0.26865,-25.419,250.08,3.8348,-1.2783,-1.7424,5.1131,-3.1457e-12,-0.87118,0,0,0.1,9.4739e-16,0,0.66667
0.65454,0.3904,6.5454,-0.16441,-12.438,145.77,2.8696,-0.95654,-1.9056,3.8262,-5.0449e-13,-0.95279,0,0,0.1,-9.4739e-16,0,0.66667
0.14659,0.15396,1.4659,-0.51906,-67.563,707.1,2.0291,-0.67635,-1.0405,2.7054,-1.3209e-09,-0.52024,0,0,0.1,-3.2567e-16,0,0.66667
0.95636,0.50805,9.5636,0.012075,0.13039,3.1205,-0.30795,0.10265,-1.9994,-0.4106,1.3666e-06,-0.99969,0,0,0.1,-0,-0,0.66667
0.19615,0.49968,1.9615,-0.00048224,-0.061543,642.1,0.0025225,-0.00084082,-1.9984,0.0033633,2.0187e-10,-0.99922,0,0,0.1,2.6645e-16,0,0.66667
0.67393,0.52099,6.7393,0.031492,2.2735,130.98,-0.56595,0.18865,-1.9978,-0.7546,-7.2731e-13,-0.99891,0,0,0.1,-0,-0,0.66667
0.27434,0.58863,2.7434,0.13294,16.316,542.58,-0.97255,0.32418,-1.9348,-1.2967,-4.0558e-12,-0.96738,0,0,0.1,4.737e-16,0,0.66667
0.10843,0.35218,1.0843,-0.22172,-29.098,757.53,0.64111,-0.2137,-1.8286,0.85482,2.1194e-08,-0.91429,0,0,0.1,-0,-0,0.66667
0.2609,0.33691,2.609,-0.24463,-30.27,559.45,1.702,-0.56733,-1.7858,2.2693,-2.182e-11,-0.89288,0,0,0.1,2.3685e-16,0,0.66667
0.33415,0.77339,3.3415,0.41008,48.405,469.62,-3.6541,1.218,-1.3996,-4.8722,-5.6333e-12,-0.69982,0,0,0.1,2.3685e-16,0,0.66667
0.46473,0.93001,4.6473,0.64502,67.33,322.3,-7.9936,2.6645,-0.51981,-10.658,1.0254e-12,-0.25991,0,0,0.1,-4.737e-16,0,0.66667
0.23436,0.72636,2.3436,0.33954,42.628,593.1,-2.1219,0.70731,-1.5954,-2.8293,2.5278e-11,-0.79768,0,0,0.1,-0,-0,0.66667
0.7275,0.094182,7.275,-0.60873,-38.086,95.071,11.809,-3.9365,-0.68094,15.746,2.1629e-11,-0.34047,0,0,0.1,-0,-0,0.66667
0.80719,0.53525,8.0719,0.052868,2.4255,49.123,-1.138,0.37933,-1.9886,-1.5173,-3.9218e-11,-0.99428,0,0,0.1,-0,-0,0.66667
0.79098,0.92435,7.9098,0.63652,31.668,58.581,-13.426,4.4753,-0.55667,-17.901,1.2512e-10,-0.27834,0,0,0.1,-0,-0,0.66667
0.71575,0.49834,7.1575,-0.0024972,-0.16093,101.55,0.047663,-0.015888,-2.0011,0.063551,3.7461e-12,-1.0006,0,0,0.1,-3.079e-15,0,0.66667
0.26964,0.72303,2.6964,0.33455,41.207,548.56,-2.4055,0.80185,-1.6016,-3.2074,-3.5474e-12,-0.8008,0,0,0.1,-0,-0,0.66667
0.21046,0.52258,2.1046,0.033873,4.2966,623.61,-0.1901,0.063367,-1.993,-0.25347,-1.7666e-11,-0.9965,0,0,0.1,4.737e-16,0,0.66667
0.10913,0.33713,1.0913,-0.24431,-32.059,756.61,0.71095,-0.23698,-1.7927,0.94794,2.1528e-08,-0.89635,0,0,0.1,-1.1842e-16,0,0.66667
0.39668,0.4187,3.9668,-0.12195,-13.632,396.3,1.29,-0.43,-1.9443,1.72,-2.2972e-12,-0.97216,0,0,0.1,-0,-0,0.66667
0.087267,0.25741,0.87267,-0.36388,-47.986,785.81,0.84679,-0.28226,-1.5266,1.1291,4.2963e-08,-0.76332,0,0,0.1,-0,-0,0.66667
0.65539,0.69228,6.5539,0.28842,21.794,145.28,-5.0407,1.6802,-1.7082,-6.721,4.4986e-12,-0.85411,0,0,0.1,-1.8948e-15,0,0.66667
0.94983,0.2142,9.4983,-0.4287,-5.4232,4.7867,10.858,-3.6195,-1.3469,14.478,-1.8403e-07,-0.67343,0,0,0.1,-1.3324e-15,0,0.66667
0.75563,0.7108,7.5563,0.31621,17.936,76.932,-6.3716,2.1239,-1.6423,-8.4955,-2.3304e-11,-0.82113,0,0,0.1,4.737e-16,0,0.66667
0.11689,0.275,1.1689,-0.33749,-44.227,746.31,1.052,-0.35067,-1.5924,1.4027,1.3794e-08,-0.79618,0,0,0.1,-1.1842e-16,0,0.66667
0.020481,0.45033,0.20481,-0.074498,-9.8858,875.46,0.040688,-0.013563,-1.9782,0.054251,2.4129e-08,-0.9891,0,0,0.1,-2.9606e-17,0,0.66667
0.33489,0.45488,3.3489,-0.067687,-7.9736,468.49,0.60447,-0.20149,-1.9806,0.80596,2.3518e-12,-0.9903,0,0,0.1,-3.9659e-16,0,0.66667
0.99288,0.53825,9.9288,0.057381,0.075332,0.18297,-1.5193,0.50642,-1.9856,-2.0257,6.3746e-07,-0.9928,0,0,0.1,-0,-0,0.66667
0.31283,0.21314,3.1283,-0.43029,-51.589,495.38,3.5896,-1.1965,-1.3466,4.7861,-5.274e-12,-0.67328,0,0,0.1,-4.737e-16,0,0.66667
0.73751,0.49241,7.3751,-0.011388,-0.68588,87.55,0.22397,-0.074657,-1.9996,0.29863,-2.9556e-12,-0.99981,0,0,0.1,-4.737e-16,0,0.66667
0.71653,0.9375,7.1653,0.65624,42.486,102.4,-12.539,4.1797,-0.47137,-16.719,7.9936e-14,-0.23569,0,0,0.1,3.839e-16,0,0.66667
0.57256,0.67636,5.7256,0.26453,23.573,215.13,-4.039,1.3463,-1.7487,-5.3853,-2.8111e-13,-0.87436,0,0,0.1,-0,-0,0.66667
0.36765,0.69952,3.6765,0.29928,34.363,429.88,-2.9341,0.97802,-1.6784,-3.9121,-3.1084e-12,-0.83919,0,0,0.1,-0,-0,0.66667
0.20827,0.14151,2.0827,-0.53773,-68.435,626.7,2.9864,-0.99547,-0.96957,3.9819,6.344e-11,-0.48479,0,0,0.1,-0,-0,0.66667
0.98,0.36891,9.8,-0.19664,-0.93147,0.98165,5.1389,-1.713,-1.8614,6.8519,2.8493e-07,-0.93072,0,0,0.1,1.054e-15,0,0.66667
0.065894,0.74339,0.65894,0.36508,48.304,814.43,-0.64151,0.21384,-1.526,-0.85535,-1.5684e-07,-0.76299,0,0,0.1,-0,-0,0.66667
0.23623,0.81295,2.3623,0.46942,58.93,590.83,-2.9571,0.98569,-1.2196,-3.9427,3.5091e-11,-0.60979,0,0,0.1,-0,-0,0.66667
0.3089,0.77446,3.089,0.41169,49.487,500.15,-3.3913,1.1304,-1.397,-4.5217,7.2276e-13,-0.6985,0,0,0.1,-2.3685e-16,0,0.66667
0.9095,0.47248,9.095,-0.041282,-0.92715,11.879,1.0012,-0.33374,-1.9944,1.335,-4.2128e-08,-0.99721,0,0,0.1,-0,-0,0.66667
0.71337,0.74036,7.1337,0.36054,23.447,103.55,-6.8586,2.2862,-1.5356,-9.1448,-4.7922e-12,-0.76779,0,0,0.1,9.4739e-16,0,0.66667
0.26537,0.87586,2.6537,0.56379,69.735,554.15,-3.9897,1.3299,-0.87569,-5.3196,3.9037e-11,-0.43784,0,0,0.1,9.4739e-16,0,0.66667
0.1645,0.15509,1.645,-0.51737,-66.958,683.56,2.2695,-0.75651,-1.0465,3.0261,2.1009e-09,-0.52325,0,0,0.1,3.1086e-16,0,0.66667
0.8805,0.82132,8.805,0.48199,14.277,20.885,-11.317,3.7723,-1.1718,-15.089,-8.3059e-10,-0.58588,0,0,0.1,-0,-0,0.66667
0.79378,0.65352,7.9378,0.23028,11.236,55.911,-4.8745,1.6248,-1.8123,-6.4993,-3.1412e-11,-0.90615,0,0,0.1,-9.4923e-16,0,0.66667
0.038387,0.32472,0.38387,-0.26292,-34.869,851.36,0.26914,-0.089713,-1.7511,0.35885,-1.847e-07,-0.87554,0,0,0.1,-0,-0,0.66667
0.8793,0.76816,8.793,0.40224,11.998,20.985,-9.4318,3.1439,-1.4231,-12.576,6.8349e-09,-0.71156,0,0,0.1,-0,-0,0.66667
0.58794,0.79362,5.8794,0.44043,38.256,201.64,-6.9052,2.3017,-1.3076,-9.2069,-7.0166e-14,-0.65382,0,0,0.1,9.4739e-16,0,0.66667
0.45754,0.80761,4.5754,0.46142,48.476,329.53,-5.6298,1.8766,-1.2421,-7.5064,-3.7863e-12,-0.62103,0,0,0.1,7.1054e-16,0,0.66667
0.67385,0.025757,6.7385,-0.71136,-51.738,132.55,12.783,-4.2609,-0.20272,17.044,2.1565e-12,-0.10136,0,0,0.1,-9.4739e-16,0,0.66667
0.039443,0.69116,0.39443,0.28674,38.029,849.95,-0.30159,0.10053,-1.7054,-0.40212,1.3702e-07,-0.8527,0,0,0.1,-0,-0,0.66667
0.33032,0.82292,3.3032,0.48437,57.372,474.31,-4.2666,1.4222,-1.1669,-5.6889,-5.2003e-12,-0.58346,0,0,0.1,-0,-0,0.66667
0.088048,0.50142,0.88048,0.0021283,0.28033,784.71,-0.0049972,0.0016658,-1.9987,-0.0066629,1.3723e-07,-0.99935,0,0,0.1,-0,-0,0.66667
0.68364,0.18775,6.8364,-0.46838,-33.097,124.52,8.5386,-2.8462,-1.2205,11.385,-1.0436e-12,-0.61023,0,0,0.1,1.8948e-15,0,0.66667
0.39801,0.78264,3.9801,0.42395,47.404,395.07,-4.4997,1.4999,-1.3591,-5.9996,-7.5389e-12,-0.67955,0,0,0.1,-0,-0,0.66667
0.47895,0.36755,4.7895,-0.19868,-20.306,306.58,2.5375,-0.84583,-1.8576,3.3833,-2.9337e-12,-0.9288,0,0,0.1,-4.737e-16,0,0.66667
0.2898,0.83643,2.898,0.50465,61.474,523.69,-3.9,1.3,-1.0918,-5.1999,-1.3973e-11,-0.54589,0,0,0.1,1.716e-16,0,0.66667
0.78829,0.78435,7.8829,0.42652,21.362,59.178,-8.966,2.9887,-1.3511,-11.955,-6.5729e-11,-0.67553,0,0,0.1,-0,-0,0.66667
0.046513,0.38134,0.46513,-0.17799,-23.583,840.43,0.22077,-0.073589,-1.8921,0.29436,-8.4169e-08,-0.94604,0,0,0.1,1.1842e-16,0,0.66667
0.28113,0.51985,2.8113,0.029777,3.6392,534.11,-0.22323,0.07441,-2.0016,-0.29764,-6.3105e-12,-1.0008,0,0,0.1,-0,-0,0.66667
0.5906,0.81796,5.906,0.47693,41.245,199.38,-7.5113,2.5038,-1.1916,-10.015,1.9966e-12,-0.59578,0,0,0.1,-0,-0,0.66667
0.79013,0.95734,7.9013,0.686,34.298,59.243,-14.454,4.8181,-0.32374,-19.272,3.455e-10,-0.16187,0,0,0.1,-0,-0,0.66667
0.6016,0.47447,6.016,-0.038298,-3.236,189.17,0.61441,-0.2048,-1.9922,0.81921,-9.3786e-13,-0.99609,0,0,0.1,-0,-0,0.66667
0.73049,0.70496,7.3049,0.30744,18.969,92.273,-5.9889,1.9963,-1.6627,-7.9852,-7.863e-12,-0.83136,0,0,0.1,-9.4739e-16,0,0.66667
0.023528,0.064396,0.23528,-0.65341,-86.981,871.4,0.40995,-0.13667,-0.48001,0.54659,-2.7716e-05,-0.24001,0,0,0.1,-0,-0,0.66667
0.25492,0.46422,2.5492,-0.053665,-6.6592,566.91,0.36482,-0.12161,-1.9885,0.48642,-1.1214e-11,-0.99423,0,0,0.1,-1.1842e-16,0,0.66667
0.042092,0.78866,0.42092,0.43298,57.46,846.4,-0.486,0.162,-1.3318,-0.648,-6.1195e-07,-0.66592,0,0,0.1,-0,-0,0.66667
0.50001,0.50244,5.0001,0.0036639,0.36424,284.85,-0.048853,0.016284,-2.006,-0.065137,-3.968e-14,-1.003,0,0,0.1,-0,-0,0.66667
0.98914,0.90718,9.8914,0.61078,1.6391,1.9504,-16.111,5.3702,-0.67306,-21.481,2.5345e-05,-0.33653,0,0,0.1,3.7896e-15,0,0.66667
0.013531,0.76749,0.13531,0.40124,53.321,884.83,-0.14477,0.048257,-1.4287,-0.19303,-1.3777e-08,-0.71434,0,0,0.1,-3.0826e-17,0,0.66667
0.44088,0.33311,4.4088,-0.25033,-26.76,347.18,2.943,-0.98102,-1.7767,3.9241,-1.5101e-12,-0.88835,0,0,0.1,-4.737e-16,0,0.66667
0.0047864,0.10515,0.047864,-0.59228,-78.838,896.61,0.075591,-0.025194,-0.75082,0.10079,4.6107e-06,-0.37541,0,0,0.1,7.4015e-18,0,0.66667
0.61289,0.027611,6.1289,-0.70858,-58.944,180.88,11.581,-3.8603,-0.21498,15.441,4.956e-13,-0.10749,0,0,0.1,-0,-0,0.66667
0.18336,0.69746,1.8336,0.29619,38.019,658.79,-1.4483,0.48275,-1.6868,-1.931,-8.0049e-11,-0.84341,0,0,0.1,-4.737e-16,0,0.66667
0.71274,0.82461,7.1274,0.48692,31.777,104.31,-9.2545,3.0848,-1.1543,-12.339,-2.7276e-12,-0.57713,0,0,0.1,-0,-0,0.66667
0.15965,0.53158,1.5965,0.047376,6.1283,689.74,-0.20169,0.067231,-1.993,-0.26893,-4.3335e-10,-0.99649,0,0,0.1,4.737e-16,0,0.66667
0.82858,0.085825,8.2858,-0.62126,-25.852,40.793,13.727,-4.5757,-0.63203,18.303,-2.1785e-09,-0.31602,0,0,0.1,9.4739e-16,0,0.66667
0.20618,0.40713,2.0618,-0.1393,-17.706,629.14,0.7659,-0.2553,-1.9323,1.0212,-3.3591e-11,-0.96613,0,0,0.1,-0,-0,0.66667
0.35222,0.51707,3.5222,0.025604,2.9754,447.86,-0.24048,0.080162,-1.9945,-0.32065,-5.268e-12,-0.99723,0,0,0.1,-9.4739e-16,0,0.66667
0.23058,0.27093,2.3058,-0.34361,-43.22,597.92,2.1128,-0.70425,-1.5793,2.817,-3.5322e-11,-0.78964,0,0,0.1,-2.3685e-16,0,0.66667
0.80768,0.74374,8.0768,0.3656,16.784,49.357,-7.8745,2.6248,-1.5233,-10.499,-4.4307e-12,-0.76163,0,0,0.1,-0,-0,0.66667
0.49027,0.032144,4.9027,-0.70178,-71.029,295.86,9.175,-3.0583,-0.24761,12.233,-4.4658e-12,-0.12381,0,0,0.1,-0,-0,0.66667
0.87383,0.81098,8.7383,0.46648,14.537,22.964,-10.87,3.6233,-1.2303,-14.493,5.1251e-09,-0.61516,0,0,0.1,-1.8948e-15,0,0.66667
0.13009,0.090971,1.3009,-0.61354,-80.303,728.96,2.1284,-0.70945,-0.66043,2.8378,6.2218e-09,-0.33021,0,0,0.1,5.9212e-17,0,0.66667
0.49896,0.47162,4.9896,-0.042576,-4.2388,285.92,0.5665,-0.18883,-1.9975,0.75533,4.9522e-12,-0.99876,0,0,0.1,-0,-0,0.66667
0.77661,0.80209,7.7661,0.45314,23.81,65.454,-9.3843,3.1281,-1.2682,-12.512,-5.0324e-11,-0.63409,0,0,0.1,9.4739e-16,0,0.66667
0.98121,0.96932,9.8121,0.70397,3.4453,2.8952,-18.42,6.14,-0.23907,-24.56,-1.8692e-05,-0.11953,0,0,0.1,-0,-0,0.66667
0.67338,0.02095,6.7338,-0.71858,-52.332,132.93,12.903,-4.3011,-0.16631,17.204,2.8777e-12,-0.083157,0,0,0.1,-1.8948e-15,0,0.66667
0.183,0.38086,1.83,-0.1787,-22.931,659.21,0.87209,-0.2907,-1.8853,1.1628,3.9374e-11,-0.94265,0,0,0.1,-0,-0,0.66667
0.75977,0.56098,7.5977,0.091473,5.1034,74.215,-1.8533,0.61777,-1.9689,-2.4711,-1.6838e-11,-0.98444,0,0,0.1,1.1842e-16,0,0.66667
0.074635,0.33789,0.74635,-0.24317,-32.115,802.69,0.48397,-0.16132,-1.7896,0.64529,8.0056e-08,-0.89482,0,0,0.1,5.9212e-17,0,0.66667
0.76277,0.55075,7.6277,0.076118,4.2001,72.483,-1.5483,0.51609,-1.9795,-2.0644,-8.5584e-12,-0.98975,0,0,0.1,-0,-0,0.66667
0.82782,0.7945,8.2782,0.44176,18.369,40.418,-9.7518,3.2506,-1.3104,-13.002,1.1636e-10,-0.6552,0,0,0.1,-0,-0,0.66667
0.55921,0.024074,5.5921,-0.71389,-65.38,228.51,10.646,-3.5486,-0.1879,14.194,3.09e-12,-0.093949,0,0,0.1,-0,-0,0.66667
0.49272,0.55737,4.9272,0.086054,8.6388,292.29,-1.1307,0.3769,-1.9712,-1.5076,-5.8477e-12,-0.9856,0,0,0.1,-2.3685e-16,0,0.66667
0.93653,0.075036,9.3653,-0.63745,-10.344,7.8485,15.92,-5.3065,-0.55827,21.226,9.1256e-07,-0.27914,0,0,0.1,-0,-0,0.66667
9.6951e-05,0.66354,0.00096951,0.2453,32.579,902.92,-0.0006339,0.00021061,-1.7912,-0.00084554,-1.0385e-06,-0.89559,0,0,0.1,2.313e-19,-3.0867e-16,0.66667
0.0095669,0.8698,0.095669,0.55471,73.808,890.18,-0.14151,0.047164,-0.90385,-0.18868,-9.2445e-06,-0.45192,0,0,0.1,7.4015e-18,0,0.66667
0.25195,0.53254,2.5195,0.048806,6.0661,570.66,-0.32791,0.1093,-1.9943,-0.43722,-3.5993e-12,-0.99713,0,0,0.1,-0,-0,0.66667
0.50568,0.16472,5.0568,-0.50291,-49.747,279.69,6.7816,-2.2605,-1.0984,9.0422,-1.5903e-12,-0.5492,0,0,0.1,9.4739e-16,0,0.66667
0.54042,0.17315,5.4042,-0.49027,-46.115,245.57,7.0654,-2.3551,-1.1423,9.4205,-2.486e-12,-0.57116,0,0,0.1,9.4739e-16,0,0.66667
0.37129,0.02789,3.7129,-0.70817,-81.36,426.32,7.0116,-2.3372,-0.21691,9.3489,-7.72e-12,-0.10846,0,0,0.1,-4.737e-16,-4.5459e-17,0.66667
0.29271,0.66384,2.9271,0.24577,29.833,519.85,-1.9184,0.63945,-1.7842,-2.5578,-3.6332e-12,-0.89209,0,0,0.1,-0,-0,0.66667
0.20237,0.94452,2.0237,0.66678,85.181,634.45,-3.5982,1.1994,-0.42309,-4.7977,1.9463e-09,-0.21155,0,0,0.1,-0,-0,0.66667
0.80028,0.0095423,8.0028,-0.73569,-35.252,54.397,15.7,-5.2334,-0.075175,20.934,-3.0069e-10,-0.037587,0,0,0.1,-0,-0,0.66667
0.31592,0.62313,3.1592,0.18469,22.066,491.41,-1.5559,0.51865,-1.8793,-2.0746,5.8897e-13,-0.93966,0,0,0.1,6.5133e-16,0,0.66667
0.49247,0.70933,4.9247,0.31399,31.561,292.75,-4.1235,1.3745,-1.6465,-5.498,-1.6915e-12,-0.82323,0,0,0.1,-0,-0,0.66667
0.81129,0.57736,8.1129,0.11603,5.222,47.217,-2.5103,0.83677,-1.9547,-3.3471,4.3457e-11,-0.97733,0,0,0.1,-0,-0,0.66667
0.61236,0.76847,6.1236,0.40271,33.393,180.4,-6.576,2.192,-1.4233,-8.768,1.4015e-12,-0.71163,0,0,0.1,-9.4739e-16,0,0.66667
0.40861,0.58763,4.0861,0.13144,14.525,382.81,-1.4322,0.47741,-1.9399,-1.9096,-3.9224e-12,-0.96994,0,0,0.1,4.737e-16,0,0.66667
0.1769,0.2461,1.769,-0.38085,-49.025,667.25,1.7966,-0.59887,-1.483,2.3955,1.8631e-10,-0.7415,0,0,0.1,-2.9606e-16,0,0.66667
0.39765,0.54835,3.9765,0.072522,8.0987,395.17,-0.76903,0.25634,-1.9781,-1.0254,-3.3253e-12,-0.98906,0,0,0.1,-4.737e-16,0,0.66667
0.48521,0.072983,4.8521,-0.64053,-65.196,300.89,8.2878,-2.7626,-0.54464,11.05,-4.9045e-12,-0.27232,0,0,0.1,-0,-0,0.66667
0.99058,0.50395,9.9058,0.005929,0.011353,0.25132,-0.15662,0.05221,-1.9979,-0.20882,5.8726e-06,-0.99894,0,0,0.1,-0,-0,0.66667
0.2842,0.34423,2.842,-0.23366,-28.515,530.37,1.7708,-0.59027,-1.8074,2.3611,-3.582e-12,-0.90368,0,0,0.1,-9.4739e-16,0,0.66667
0.16564,0.37379,1.6564,-0.18931,-24.446,681.9,0.83621,-0.27874,-1.8711,1.1149,8.474e-10,-0.93554,0,0,0.1,5.9212e-17,0,0.66667
0.22058,0.77582,2.2058,0.41373,52.312,610.77,-2.4336,0.81119,-1.3936,-3.2448,4.0554e-11,-0.6968,0,0,0.1,-3.5527e-16,0,0.66667
0.21147,0.9348,2.1147,0.65219,82.978,622.71,-3.6778,1.2259,-0.48554,-4.9037,-8.3555e-10,-0.24277,0,0,0.1,-5.9212e-17,0,0.66667
0.076048,0.51227,0.76048,0.018412,2.4301,800.78,-0.037339,0.012446,-2,-0.049786,-1.4924e-07,-0.99999,0,0,0.1,-2.3685e-16,0,0.66667
0.36491,0.34747,3.6491,-0.22879,-26.322,433.02,2.2263,-0.7421,-1.8123,2.9684,-6.2723e-12,-0.90614,0,0,0.1,-0,-0,0.66667
0.28473,0.46319,2.8473,-0.055211,-6.7326,529.64,0.41921,-0.13974,-1.9891,0.55895,-3.9044e-13,-0.99454,0,0,0.1,-0,-0,0.66667
0.88759,0.059514,8.8759,-0.66073,-18.607,19.532,15.639,-5.2129,-0.44866,20.852,2.9024e-08,-0.22433,0,0,0.1,2.3685e-15,0,0.66667
0.78026,0.49029,7.8026,-0.014563,-0.75111,62.779,0.30302,-0.10101,-2.0024,0.40402,1.7288e-11,-1.0012,0,0,0.1,1.8948e-15,0,0.66667
0.10906,0.92227,1.0906,0.63341,83.344,756.86,-1.8422,0.61407,-0.5777,-2.4563,1.3621e-07,-0.28885,0,0,0.1,-0,-1.1835e-16,0.66667
0.8505,0.95279,8.505,0.67918,24.981,32.175,-15.404,5.1346,-0.35674,-20.538,1.4115e-08,-0.17837,0,0,0.1,-1.8948e-15,0,0.66667
0.1096,0.88191,1.096,0.57287,75.326,756.12,-1.6743,0.55809,-0.83807,-2.2324,2.8316e-08,-0.41903,0,0,0.1,2.3685e-16,0,0.66667
0.72021,0.23833,7.2021,-0.39251,-25.022,99.1,7.5384,-2.5128,-1.4544,10.051,2.3119e-12,-0.72721,0,0,0.1,9.4739e-16,0,0.66667
0.57282,0.33338,5.7282,-0.24993,-22.26,214.87,3.8178,-1.2726,-1.7756,5.0904,-3.3777e-12,-0.88782,0,0,0.1,4.737e-16,0,0.66667
0.086808,0.87481,0.86808,0.56221,74.253,786.49,-1.3015,0.43382,-0.87464,-1.7353,-1.1315e-07,-0.43732,0,0,0.1,4.6259e-17,0,0.66667
0.90533,0.45149,9.0533,-0.072758,-1.7078,12.936,1.7565,-0.58551,-1.9842,2.342,-1.3767e-08,-0.99212,0,0,0.1,-0,-0,0.66667
0.87457,0.84426,8.7457,0.51639,16.031,22.914,-12.043,4.0143,-1.0575,-16.057,-3.3755e-09,-0.52874,0,0,0.1,-0,-0,0.66667
0.84385,0.23736,8.4385,-0.39396,-14.957,33.612,8.8653,-2.9551,-1.4529,11.82,-1.3274e-09,-0.72643,0,0,0.1,-9.4739e-16,0,0.66667
0.36957,0.5191,3.6957,0.028647,3.2812,427.5,-0.28232,0.094107,-1.9946,-0.37643,-4.2192e-12,-0.99732,0,0,0.1,-0,-0,0.66667
0.22295,0.43047,2.2295,-0.10429,-13.154,607.56,0.62003,-0.20668,-1.9603,0.82671,-1.7373e-11,-0.98015,0,0,0.1,-0,-0,0.66667
0.99711,0.50527,9.9711,0.0079011,0.0014629,0.052386,-0.21009,0.070011,-2.0005,-0.28013,-2.6805e-05,-1.0002,0,0,0.1,-0,-0,0.66667
0.81734,0.080668,8.1734,-0.629,-27.731,45.803,13.709,-4.5698,-0.59123,18.279,-8.709e-10,-0.29561,0,0,0.1,-9.4739e-16,0,0.66667
0.042128,0.96095,0.42128,0.69142,91.966,846.41,-0.77676,0.2589,-0.2986,-1.0357,-2.8776e-05,-0.1493,0,0,0.1,-0,-0,0.66667
0.37328,0.13563,3.7328,-0.54655,-62.57,423.67,5.4404,-1.8135,-0.93973,7.2539,-2.3768e-12,-0.46987,0,0,0.1,-0,-0,0.66667
0.81219,0.50778,8.1219,0.011666,0.52258,46.748,-0.25266,0.084219,-2.0042,-0.33687,-1.7621e-10,-1.0021,0,0,0.1,-0,-0,0.66667
0.52838,0.49377,5.2838,-0.0093479,-0.89295,256.62,0.13171,-0.043905,-2.0003,0.17562,3.1017e-12,-1.0001,0,0,0.1,-1.4211e-15,0,0.66667
0.24713,0.68265,2.4713,0.27397,34.16,576.84,-1.8055,0.60183,-1.7339,-2.4073,1.7725e-11,-0.86696,0,0,0.1,-0,-0,0.66667
0.79289,0.23283,7.9289,-0.40076,-19.675,56.745,8.4735,-2.8245,-1.4276,11.298,5.619e-11,-0.71382,0,0,0.1,-0,-0,0.66667
0.26175,0.72137,2.6175,0.33205,41.085,558.44,-2.3177,0.77258,-1.6079,-3.0903,-8.6486e-13,-0.80397,0,0,0.1,-0,-0,0.66667
0.00039838,0.38209,0.0039838,-0.17686,-23.484,902.52,0.0018786,-0.00062582,-1.8933,0.002505,5.8886e-07,-0.94667,0,0,0.1,-0,-0,0.66667
0.23132,0.81532,2.3132,0.47298,59.523,597.08,-2.9175,0.97252,-1.2055,-3.8901,7.7582e-11,-0.60274,0,0,0.1,-0,-0,0.66667
0.99337,0.47712,9.9337,-0.034323,-0.040502,0.15762,0.90922,-0.30307,-1.9931,1.2123,3.3661e-07,-0.99654,0,0,0.1,-0,-0,0.66667
0.6562,0.28182,6.562,-0.32727,-24.692,144.72,5.7268,-1.9089,-1.6255,7.6358,-1.2803e-12,-0.81276,0,0,0.1,-0,-0,0.66667
0.22067,0.98312,2.2067,0.72468,91.89,611,-4.2643,1.4214,-0.13415,-5.6858,-6.2351e-11,-0.067073,0,0,0.1,-0,-0,0.66667
0.68614,0.8728,6.8614,0.55921,39.314,123,-10.232,3.4106,-0.89167,-13.642,1.9273e-12,-0.44583,0,0,0.1,2.3685e-16,-1.0237e-16,0.66667
0.68694,0.31488,6.8694,-0.27768,-19.413,121.71,5.0866,-1.6955,-1.7308,6.7821,-2.4256e-12,-0.8654,0,0,0.1,1.8948e-15,0,0.66667
0.64074,0.58544,6.4074,0.12817,10,156.62,-2.1899,0.72997,-1.9466,-2.9199,1.5543e-13,-0.97329,0,0,0.1,4.737e-16,0,0.66667
0.070549,0.94505,0.70549,0.66758,88.487,808.29,-1.2559,0.41864,-0.41259,-1.6746,-1.713e-06,-0.2063,0,0,0.1,-0,-0,0.66667
0.24296,0.21133,2.4296,-0.43301,-54.158,582.24,2.8055,-0.93516,-1.3306,3.7406,-1.9652e-11,-0.66531,0,0,0.1,-0,-0,0.66667
0.87084,0.17019,8.7084,-0.49472,-15.776,24.063,11.489,-3.8295,-1.1283,15.318,-7.107e-09,-0.56415,0,0,0.1,-0,-0,0.66667
0.73474,0.14917,7.3474,-0.52624,-32.131,90.183,10.311,-3.4369,-1.02,13.748,-1.5143e-12,-0.50999,0,0,0.1,-0,-0,0.66667
0.16782,0.72634,1.6782,0.33951,43.835,679.11,-1.5193,0.50644,-1.5892,-2.0258,-5.1396e-10,-0.79461,0,0,0.1,-0,-0,0.66667
0.29859,0.30533,2.9859,-0.29201,-35.319,512.65,2.3251,-0.77503,-1.699,3.1001,-4.9873e-12,-0.8495,0,0,0.1,-2.3685e-16,0,0.66667
0.56272,0.36168,5.6272,-0.20748,-18.792,224.09,3.1134,-1.0378,-1.8514,4.1512,-1.1233e-12,-0.92569,0,0,0.1,-0,-0,0.66667
0.82645,0.99167,8.2645,0.73751,31.157,42.295,-16.254,5.4179,-0.068156,-21.672,1.2128e-09,-0.034078,0,0,0.1,-1.8635e-15,0,0.66667
0.20052,0.16403,2.0052,-0.50395,-64.331,636.67,2.6947,-0.89823,-1.0978,3.5929,1.1655e-10,-0.54888,0,0,0.1,-0,-0,0.66667
0.10167,0.99874,1.0167,0.74812,98.716,766.78,-2.0282,0.67607,-0.0082014,-2.7043,1.3606e-07,-0.0041007,0,0,0.1,2.3685e-16,0,0.66667
0.38187,0.53458,3.8187,0.051867,5.8771,413.24,-0.52817,0.17606,-1.9883,-0.70423,-7.8481e-12,-0.99416,0,0,0.1,-0,-0,0.66667
0.91235,0.24369,9.1235,-0.38447,-8.4268,11.784,9.3539,-3.118,-1.4721,12.472,-3.7178e-08,-0.73607,0,0,0.1,4.737e-16,0,0.66667
0.26051,0.52966,2.6051,0.044484,5.5028,559.87,-0.30903,0.10301,-1.992,-0.41204,1.11e-11,-0.99602,0,0,0.1,-2.3685e-16,0,0.66667
0.1083,0.56559,1.083,0.098388,12.908,757.68,-0.28416,0.094719,-1.9695,-0.37887,-1.9986e-08,-0.98473,0,0,0.1,-0,-0,0.66667
0.055943,0.15873,0.55943,-0.51191,-67.881,827.81,0.76367,-0.25456,-1.0664,1.0182,-1.1976e-07,-0.5332,0,0,0.1,-0,-0,0.66667
0.35167,0.32482,3.5167,-0.26277,-30.569,448.62,2.4642,-0.82141,-1.7513,3.2857,-5.7363e-12,-0.87564,0,0,0.1,-0,-0,0.66667
0.037627,0.37532,0.37627,-0.18702,-24.798,852.38,0.18765,-0.062551,-1.8743,0.2502,-1.6492e-07,-0.93714,0,0,0.1,1.1842e-16,0,0.66667
0.58303,0.57185,5.8303,0.10778,9.4242,205.53,-1.6757,0.55858,-1.9568,-2.2343,8.4932e-14,-0.97841,0,0,0.1,-0,-0,0.66667
0.67256,0.39057,6.7256,-0.16415,-11.895,132.07,2.944,-0.98133,-1.9077,3.9253,-7.2209e-13,-0.95385,0,0,0.1,-0,-0,0.66667
0.46048,0.89103,4.6048,0.58654,61.49,326.65,-7.2025,2.4008,-0.77352,-9.6033,1.5987e-12,-0.38676,0,0,0.1,-9.4739e-16,0,0.66667
0.74112,0.92567,7.4112,0.6385,38.271,86.659,-12.619,4.2063,-0.54742,-16.825,1.5933e-11,-0.27371,0,0,0.1,9.4739e-16,0,0.66667
0.50102,0.1426,5.0102,-0.53611,-53.384,284.46,7.1627,-2.3876,-0.98099,9.5503,-2.1321e-12,-0.49049,0,0,0.1,-0,-0,0.66667
0.70235,0.51993,7.0235,0.029896,2.0024,110.62,-0.55994,0.18665,-2.0003,-0.74658,-2.5213e-13,-1.0001,0,0,0.1,-0,-0,0.66667
0.23064,0.34984,2.3064,-0.22524,-28.315,597.77,1.3853,-0.46178,-1.8192,1.8471,-3.9796e-11,-0.90959,0,0,0.1,4.737e-16,0,0.66667
0.74461,0.047222,7.4461,-0.67917,-40.276,84.705,13.486,-4.4953,-0.35744,17.981,1.1158e-11,-0.17872,0,0,0.1,9.4739e-16,0,0.66667
0.50164,0.77911,5.0164,0.41867,41.607,283.59,-5.6005,1.8668,-1.3799,-7.4673,-2.7347e-12,-0.68993,0,0,0.1,-1.3027e-15,0,0.66667
0.70537,0.68015,7.0537,0.27022,17.966,108.78,-5.0829,1.6943,-1.7417,-6.7772,-2.3883e-12,-0.87085,0,0,0.1,-4.737e-16,0,0.66667
0.4467,0.08029,4.467,-0.62956,-67.084,341.53,7.4993,-2.4998,-0.58776,9.9991,-4.6079e-12,-0.29388,0,0,0.1,4.737e-16,0,0.66667
0.50594,0.34805,5.0594,-0.22793,-22.491,278.98,3.0752,-1.0251,-1.8134,4.1002,-5.0804e-13,-0.90668,0,0,0.1,-0,-0,0.66667
0.041535,0.68024,0.41535,0.27035,35.848,847.13,-0.29944,0.099815,-1.7381,-0.39926,1.0699e-07,-0.86907,0,0,0.1,2.9606e-17,0,0.66667
0.48931,0.53802,4.8931,0.057029,5.7503,295.79,-0.74413,0.24804,-1.9868,-0.99218,-5.9213e-12,-0.9934,0,0,0.1,-0,-0,0.66667
0.14229,0.87903,1.4229,0.56854,74.13,712.81,-2.1572,0.71908,-0.8534,-2.8763,8.1585e-10,-0.4267,0,0,0.1,-0,-0,0.66667
0.1425,0.33311,1.425,-0.25034,-32.571,712.37,0.95126,-0.31709,-1.7788,1.2683,3.4652e-09,-0.88939,0,0,0.1,-0,-0,0.66667
0.43335,0.40162,4.3335,-0.14758,-15.899,355.33,1.7054,-0.56846,-1.9219,2.2738,-3.6393e-13,-0.96096,0,0,0.1,-7.1054e-16,0,0.66667
0.57621,0.92844,5.7621,0.64267,57.138,212.69,-9.875,3.2917,-0.53315,-13.167,2.3981e-12,-0.26658,0,0,0.1,-9.4739e-16,0,0.66667
0.34305,0.49925,3.4305,-0.0011251,-0.1317,458.74,0.010293,-0.0034308,-2.005,0.013723,-4.9796e-13,-1.0025,0,0,0.1,-2.3685e-16,0,0.66667
0.16049,0.33873,1.6049,-0.2419,-31.296,688.67,1.0353,-0.34509,-1.7911,1.3804,1.0142e-09,-0.89557,0,0,0.1,3.5527e-16,0,0.66667
0.74141,0.77551,7.4141,0.41326,24.645,85.699,-8.1705,2.7235,-1.3903,-10.894,-4.0732e-12,-0.69513,0,0,0.1,-9.4739e-16,0,0.66667
0.96309,0.98507,9.6309,0.72761,7.0041,4.583,-18.687,6.2289,-0.11501,-24.916,9.3494e-06,-0.057505,0,0,0.1,-1.8948e-15,0,0.66667
0.73364,0.45643,7.3364,-0.065352,-3.9859,89.984,1.2785,-0.42618,-1.9883,1.7047,2.675e-12,-0.99415,0,0,0.1,-9.4739e-16,0,0.66667
0.077064,0.52718,0.77064,0.040764,5.3793,799.41,-0.083773,0.027924,-1.9978,-0.1117,4.4688e-08,-0.99891,0,0,0.1,-1.1842e-16,0,0.66667
0.84091,0.1331,8.4091,-0.55035,-21.343,35.343,12.341,-4.1137,-0.9235,16.455,1.5024e-10,-0.46175,0,0,0.1,1.8948e-15,0,0.66667
0.067514,0.3904,0.67514,-0.1644,-21.729,812.22,0.29599,-0.098663,-1.9017,0.39465,3.8454e-08,-0.95083,0,0,0.1,-1.1842e-16,0,0.66667
0.43631,0.89494,4.3631,0.5924,63.82,352.72,-6.8926,2.2975,-0.75491,-9.1901,7.6028e-13,-0.37745,0,0,0.1,-0,-0,0.66667
0.92886,0.65588,9.2886,0.23382,4.1546,7.8207,-5.7916,1.9305,-1.8041,-7.7221,7.7664e-08,-0.90203,0,0,0.1,7.9936e-16,0,0.66667
0.26318,0.68553,2.6318,0.2783,34.396,556.61,-1.9531,0.65104,-1.7265,-2.6042,1.2764e-11,-0.86325,0,0,0.1,-5.9212e-16,0,0.66667
0.12795,0.10336,1.2795,-0.59497,-77.901,731.77,2.0301,-0.67669,-0.74151,2.7068,1.1028e-08,-0.37075,0,0,0.1,-0,-0,0.66667
0.76224,0.22871,7.6224,-0.40693,-22.566,73.329,8.2714,-2.7571,-1.4108,11.028,2.4907e-11,-0.70539,0,0,0.1,-0,-0,0.66667
0.92861,0.36518,9.2861,-0.20223,-3.6032,7.8141,5.0078,-1.6693,-1.8517,6.6771,-7.156e-08,-0.92585,0,0,0.1,9.4739e-16,0,0.66667
0.32577,0.24551,3.2577,-0.38174,-45.332,479.66,3.3162,-1.1054,-1.4834,4.4216,-5.2596e-12,-0.74171,0,0,0.1,5.9212e-16,0,0.66667
0.23246,0.2141,2.3246,-0.42885,-53.921,595.59,2.6584,-0.88612,-1.3483,3.5445,-1.9183e-11,-0.67415,0,0,0.1,2.3685e-16,0,0.66667
0.18249,0.7706,1.8249,0.40591,52.151,659.99,-1.9753,0.65842,-1.4121,-2.6337,-6.5211e-11,-0.70606,0,0,0.1,-2.3685e-16,0,0.66667
0.96324,0.61619,9.6324,0.17428,1.581,2.431,-4.4767,1.4922,-1.8897,-5.9689,-1.8747e-07,-0.94487,0,0,0.1,-9.4739e-16,0,0.66667
0.57663,0.98105,5.7663,0.72157,64.188,212.59,-11.096,3.6985,-0.15087,-14.794,-1.7657e-12,-0.075437,0,0,0.1,1.8948e-15,0,0.66667
0.86009,0.31223,8.6009,-0.28165,-9.6321,27.169,6.4598,-2.1533,-1.723,8.6131,-4.3268e-09,-0.86152,0,0,0.1,2.2797e-15,0,0.66667
0.30834,0.77585,3.0834,0.41378,49.757,500.82,-3.4023,1.1341,-1.3905,-4.5364,-8.6198e-13,-0.69524,0,0,0.1,7.1054e-16,0,0.66667
0.056436,0.24122,0.56436,-0.38818,-51.426,827.12,0.58419,-0.19473,-1.4617,0.77893,8.3942e-08,-0.73085,0,0,0.1,-5.9212e-17,0,0.66667
0.4538,0.85581,4.538,0.53372,56.354,333.66,-6.4588,2.1529,-0.99077,-8.6117,8.6509e-13,-0.49538,0,0,0.1,-0,-0,0.66667
0.20711,0.3319,2.0711,-0.25215,-32.047,627.98,1.3926,-0.4642,-1.7727,1.8568,-3.8754e-11,-0.88636,0,0,0.1,-0,-0,0.66667
0.51898,0.38886,5.1898,-0.16671,-16.148,265.92,2.3072,-0.76906,-1.9006,3.0762,-4.0805e-12,-0.95028,0,0,0.1,9.4739e-16,0,0.66667
0.53799,0.30862,5.3799,-0.28707,-27.054,247.52,4.1183,-1.3728,-1.7048,5.4911,-1.0587e-12,-0.85242,0,0,0.1,-1.025e-15,0,0.66667
0.29429,0.54457,2.9429,0.066859,8.1038,517.84,-0.52469,0.1749,-1.9845,-0.69959,-1.0294e-12,-0.99225,0,0,0.1,-0,-0,0.66667
0.30745,0.34045,3.0745,-0.23933,-28.769,501.76,1.9622,-0.65407,-1.7951,2.6163,-9.8617e-12,-0.89757,0,0,0.1,5.6472e-16,0,0.66667
0.024174,0.36262,0.24174,-0.20608,-27.35,870.49,0.13284,-0.044281,-1.8459,0.17712,-4.3368e-07,-0.92293,0,0,0.1,-0,-0,0.66667
0.4204,0.86712,4.204,0.55069,60.3,370.15,-6.1736,2.0579,-0.92425,-8.2315,1.7666e-12,-0.46213,0,0,0.1,-4.737e-16,0,0.66667
0.32369,0.11956,3.2369,-0.57066,-67.976,482.43,4.9258,-1.6419,-0.84109,6.5677,-4.047e-12,-0.42055,0,0,0.1,-4.737e-16,0,0.66667
0.61949,0.2447,6.1949,-0.38296,-31.3,174.36,6.3263,-2.1088,-1.4767,8.4351,7.0965e-13,-0.73836,0,0,0.1,-4.737e-16,0,0.66667
0.85976,0.64633,8.5976,0.2195,7.5158,27.167,-5.0324,1.6775,-1.833,-6.7099,3.8105e-09,-0.9165,0,0,0.1,9.4739e-16,0,0.66667
0.49264,0.092421,4.9264,-0.61137,-61.613,293.18,8.0316,-2.6772,-0.66921,10.709,-1.3705e-12,-0.33461,0,0,0.1,-1.125e-15,0,0.66667
0.082708,0.71921,0.82708,0.32881,43.387,791.9,-0.72522,0.24174,-1.6153,-0.96696,-6.5689e-08,-0.80765,0,0,0.1,-2.3685e-16,0,0.66667
0.93348,0.034588,9.3348,-0.69812,-11.917,8.7334,17.378,-5.7927,-0.26683,23.171,-7.0981e-07,-0.13342,0,0,0.1,-0,-4.6546e-17,0.66667
0.80833,0.59907,8.0833,0.1486,6.7843,48.65,-3.2032,1.0677,-1.9207,-4.2709,1.4224e-11,-0.96036,0,0,0.1,-0,-0,0.66667
0.36552,0.88209,3.6552,0.57314,66.07,432.76,-5.5865,1.8622,-0.82964,-7.4486,-1.6764e-12,-0.41482,0,0,0.1,-0,-0,0.66667
0.33073,0.072396,3.3073,-0.64141,-76.066,474.08,5.6568,-1.8856,-0.5378,7.5425,-2.736e-12,-0.2689,0,0,0.1,-0,-0,0.66667
0.93793,0.86542,9.3793,0.54812,8.6414,7.1616,-13.709,4.5698,-0.93601,-18.279,4.0808e-08,-0.468,0,0,0.1,-9.4739e-16,0,0.66667
0.37489,0.79099,3.7489,0.43648,49.85,421.62,-4.3636,1.4545,-1.3275,-5.8181,-4.1123e-12,-0.66375,0,0,0.1,-0,-0,0.66667
0.6358,0.63864,6.358,0.20796,16.407,160.67,-3.526,1.1753,-1.8442,-4.7013,-7.4651e-13,-0.92208,0,0,0.1,-0,-0,0.66667
0.98534,0.328,9.8534,-0.258,-0.86823,0.78407,6.7793,-2.2598,-1.7663,9.039,4.2466e-08,-0.88314,0,0,0.1,-0,-0,0.66667
0.03674,0.65771,0.3674,0.23656,31.374,853.58,-0.23176,0.077255,-1.7999,-0.30902,2.3372e-07,-0.89994,0,0,0.1,-0,-0,0.66667
0.31463,0.0093527,3.1463,-0.73597,-88.399,493.69,6.1749,-2.0583,-0.075419,8.2332,-1.4335e-12,-0.037709,0,0,0.1,-0,-0,0.66667
0.23124,0.72638,2.3124,0.33958,42.698,597.08,-2.0939,0.69798,-1.5901,-2.7919,2.8391e-11,-0.79504,0,0,0.1,-4.737e-16,0,0.66667
0.92237,0.61519,9.2237,0.17279,3.3429,9.0503,-4.25,1.4167,-1.8979,-5.6667,5.0917e-08,-0.94897,0,0,0.1,-0,-0,0.66667
0.55114,0.35017,5.5114,-0.22475,-20.745,234.93,3.3031,-1.101,-1.8194,4.4041,4.5652e-13,-0.9097,0,0,0.1,-0,-0,0.66667
0.053714,0.80622,0.53714,0.45934,60.901,830.8,-0.65793,0.21931,-1.2473,-0.87725,-1.1158e-07,-0.62364,0,0,0.1,-5.9212e-17,0,0.66667
0.75525,0.52341,7.5525,0.035118,1.9911,76.826,-0.70728,0.23576,-1.9936,-0.94304,-4.8961e-14,-0.99682,0,0,0.1,-0,-0,0.66667
0.68408,0.71792,6.8408,0.32688,23.033,123.86,-5.963,1.9877,-1.6209,-7.9507,-8.0469e-13,-0.81046,0,0,0.1,1.1842e-15,0,0.66667
0.66217,0.34227,6.6217,-0.23659,-17.589,139.98,4.1777,-1.3926,-1.7996,5.5702,-3.1841e-12,-0.89979,0,0,0.1,1.1842e-15,0,0.66667
0.95573,0.022927,9.5573,-0.71561,-8.2238,5.377,18.238,-6.0794,-0.17992,24.317,-1.9414e-05,-0.089958,0,0,0.1,-0,-0,0.66667
0.8746,0.64374,8.746,0.21561,6.6425,22.047,-5.0286,1.6762,-1.8388,-6.7048,8.8974e-09,-0.91941,0,0,0.1,-9.4739e-16,0,0.66667
0.75325,0.43548,7.5325,-0.096785,-5.5272,78.03,1.9441,-0.64803,-1.9675,2.5921,1.6292e-11,-0.98374,0,0,0.1,3.5527e-16,0,0.66667
0.22267,0.40135,2.2267,-0.14798,-18.669,607.94,0.87867,-0.29289,-1.9217,1.1716,-3.2656e-11,-0.96084,0,0,0.1,3.5527e-16,0,0.66667
0.13801,0.47717,1.3801,-0.034245,-4.4591,718.25,0.12604,-0.042012,-1.9965,0.16805,-1.7384e-10,-0.99826,0,0,0.1,-0,-0,0.66667
0.22089,0.46397,2.2089,-0.054052,-6.8239,610.2,0.31838,-0.10613,-1.9914,0.42451,-1.0637e-11,-0.99572,0,0,0.1,-1.1842e-16,0,0.66667
0.20551,0.68147,2.0551,0.27221,34.624,630.06,-1.4918,0.49726,-1.7378,-1.989,2.4694e-11,-0.86892,0,0,0.1,-1.1842e-16,0,0.66667
0.56796,0.424,5.6796,-0.11399,-10.231,219.19,1.7265,-0.5755,-1.9513,2.302,5.1181e-14,-0.97564,0,0,0.1,-0,-0,0.66667
0.66304,0.12591,6.6304,-0.56114,-41.782,140.08,9.9216,-3.3072,-0.8788,13.229,1.1617e-12,-0.4394,0,0,0.1,-1.8948e-15,0,0.66667
0.52742,0.039493,5.2742,-0.69076,-66.42,258.68,9.7152,-3.2384,-0.30268,12.954,3.6682e-13,-0.15134,0,0,0.1,-0,-0,0.66667
0.056349,0.29911,0.56349,-0.30134,-39.904,827.23,0.45281,-0.15094,-1.6743,0.60374,4.6142e-08,-0.83713,0,0,0.1,-5.9212e-17,0,0.66667
0.36316,0.039103,3.6316,-0.69135,-79.962,435.75,6.6952,-2.2317,-0.29989,8.927,-8.9675e-12,-0.14994,0,0,0.1,-0,-0,0.66667
0.96773,0.87059,9.6773,0.55588,4.5606,3.16,-14.345,4.7817,-0.90507,-19.127,-1.7958e-06,-0.45253,0,0,0.1,1.4211e-15,5.9793e-17,0.66667
0.69551,0.87182,6.9551,0.55772,38.246,116.35,-10.344,3.448,-0.89183,-13.792,4.3991e-12,-0.44591,0,0,0.1,-1.1842e-15,0,0.66667
0.36974,0.69169,3.6974,0.28754,32.954,427.43,-2.835,0.94501,-1.7045,-3.78,-7.2631e-13,-0.85227,0,0,0.1,-0,-0,0.66667
0.67163,0.61842,6.7163,0.17763,12.903,132.78,-3.1813,1.0604,-1.8927,-4.2418,7.7516e-13,-0.94637,0,0,0.1,-4.737e-16,0,0.66667
0.26511,0.76073,2.6511,0.3911,48.315,554.28,-2.7649,0.92163,-1.4601,-3.6865,5.776e-12,-0.73007,0,0,0.1,-0,-0,0.66667
0.077478,0.81861,0.77478,0.47791,63.173,798.94,-0.98739,0.32913,-1.1921,-1.3165,-9.5628e-08,-0.59606,0,0,0.1,-0,-0,0.66667
0.52807,0.090709,5.2807,-0.61394,-58.913,257.82,8.6453,-2.8818,-0.66053,11.527,-1.3518e-12,-0.33027,0,0,0.1,1.1842e-15,0,0.66667
0.28977,0.06578,2.8977,-0.65133,-79.459,523.95,5.0329,-1.6776,-0.48947,6.7106,-8.6597e-13,-0.24474,0,0,0.1,-0,-0,0.66667
0.48165,0.58499,4.8165,0.12748,12.982,303.73,-1.6374,0.5458,-1.9427,-2.1832,1.0822e-12,-0.97136,0,0,0.1,-0,-0,0.66667
0.90199,0.6359,9.0199,0.20385,4.9563,13.943,-4.9032,1.6344,-1.8508,-6.5376,3.1548e-08,-0.92541,0,0,0.1,-0,-0,0.66667
0.65174,0.1193,6.5174,-0.57105,-43.658,148.82,9.9247,-3.3082,-0.8394,13.233,-1.2426e-12,-0.4197,0,0,0.1,-0,-0,0.66667
0.72332,0.28612,7.2332,-0.32082,-20.243,96.906,6.1882,-2.0627,-1.633,8.2509,3.0926e-12,-0.81648,0,0,0.1,1.8948e-15,0,0.66667
0.10259,0.07752,1.0259,-0.63372,-83.501,765.48,1.7336,-0.57788,-0.56895,2.3115,-2.0097e-07,-0.28447,0,0,0.1,-0,-0,0.66667
0.47966,0.16321,4.7966,-0.50519,-51.701,306.31,6.4619,-2.154,-1.0911,8.6158,-5.306e-12,-0.54554,0,0,0.1,9.4739e-16,0,0.66667
0.40434,0.72655,4.0434,0.33982,37.744,387.79,-3.6641,1.2214,-1.5912,-4.8855,-4.2819e-12,-0.7956,0,0,0.1,9.4739e-16,0,0.66667
0.64686,0.2863,6.4686,-0.32055,-24.703,152,5.5293,-1.8431,-1.6325,7.3724,1.148e-12,-0.81625,0,0,0.1,-0,-0,0.66667
0.28774,0.79918,2.8774,0.44878,54.715,526.18,-3.4434,1.1478,-1.2809,-4.5912,-2.5411e-12,-0.64045,0,0,0.1,-4.737e-16,0,0.66667
0.38306,0.18867,3.8306,-0.46699,-52.962,412.23,4.7703,-1.5901,-1.2228,6.3604,-2.9217e-12,-0.6114,0,0,0.1,-0,-0,0.66667
0.98102,0.27259,9.8102,-0.34111,-1.5525,1.2538,8.9236,-2.9745,-1.586,11.898,8.6403e-07,-0.79299,0,0,0.1,-9.4739e-16,0,0.66667
0.11481,0.20952,1.1481,-0.43572,-57.161,749.12,1.334,-0.44466,-1.3227,1.7787,1.0716e-08,-0.66137,0,0,0.1,1.1842e-16,0,0.66667
0.19991,0.41875,1.9991,-0.12187,-15.531,637.24,0.64968,-0.21656,-1.9468,0.86624,-1.5455e-11,-0.9734,0,0,0.1,-0,-0,0.66667
0.23905,0.42839,2.3905,-0.10741,-13.441,587.02,0.68468,-0.22823,-1.9573,0.91291,-1.5021e-11,-0.97866,0,0,0.1,-2.3685e-16,0,0.66667
0.69665,0.5648,6.9665,0.097198,6.6143,114.61,-1.8057,0.6019,-1.9646,-2.4076,1.9365e-12,-0.9823,0,0,0.1,-1.8948e-15,0,0.66667
0.71369,0.93119,7.1369,0.64679,42.216,104.25,-12.31,4.1032,-0.51091,-16.413,-6.5814e-13,-0.25545,0,0,0.1,1.4211e-15,0,0.66667
0.78475,0.092771,7.8475,-0.61084,-31.168,61.692,12.783,-4.261,-0.67401,17.044,1.2841e-09,-0.337,0,0,0.1,2.3685e-16,0,0.66667
0.38104,0.80416,3.8104,0.45624,51.831,414.54,-4.6359,1.5453,-1.2574,-6.1812,-7.9572e-12,-0.62871,0,0,0.1,-0,-0,0.66667
0.8524,0.41338,8.524,-0.12993,-4.663,29.772,2.9534,-0.98447,-1.9373,3.9379,-1.8266e-09,-0.96865,0,0,0.1,-0,-0,0.66667
0.69735,0.60291,6.9735,0.15437,10.487,114.17,-2.8707,0.9569,-1.9128,-3.8276,-1.4777e-12,-0.95641,0,0,0.1,-0,-0,0.66667
0.71326,0.81707,7.1326,0.47561,30.987,103.93,-9.0462,3.0154,-1.194,-12.062,-2.867e-12,-0.59701,0,0,0.1,-1.8948e-15,0,0.66667
0.82199,0.10694,8.2199,-0.58959,-25.365,43.535,12.924,-4.3079,-0.76116,17.232,1.9129e-09,-0.38058,0,0,0.1,-0,-0,0.66667
0.62892,0.28476,6.2892,-0.32287,-25.867,166.43,5.4149,-1.805,-1.6291,7.2198,-4.1132e-12,-0.81456,0,0,0.1,1.8948e-15,0,0.66667
0.42223,0.39104,4.2223,-0.16344,-17.816,367.61,1.8402,-0.6134,-1.9092,2.4536,-1.7972e-12,-0.95458,0,0,0.1,-9.4739e-16,0,0.66667
0.030799,0.44358,0.30799,-0.084627,-11.224,861.57,0.069504,-0.023168,-1.9791,0.092672,-2.0448e-07,-0.98956,0,0,0.1,5.9212e-17,0,0.66667
0.59546,0.31477,5.9546,-0.27785,-23.771,194.72,4.4119,-1.4706,-1.7284,5.8826,-1.1506e-12,-0.86422,0,0,0.1,-1.8948e-15,0,0.66667
0.56376,0.1086,5.6376,-0.5871,-53.267,223.88,8.8262,-2.9421,-0.7769,11.768,-1.7764e-12,-0.38845,0,0,0.1,9.4739e-16,0,0.66667
0.60081,0.042332,6.0081,-0.6865,-58.428,191.11,10.999,-3.6663,-0.32125,14.665,-2.4958e-13,-0.16063,0,0,0.1,-9.4739e-16,0,0.66667
0.32285,0.21016,3.2285,-0.43476,-51.758,483.24,3.7431,-1.2477,-1.3259,4.9908,-6.1395e-12,-0.66293,0,0,0.1,-2.3685e-16,0,0.66667
0.55488,0.28243,5.5488,-0.32636,-29.962,231.55,4.8291,-1.6097,-1.6195,6.4388,-1.2079e-13,-0.80974,0,0,0.1,-0,-0,0.66667
0.17166,0.64815,1.7166,0.22223,28.639,674.03,-1.0172,0.33908,-1.8292,-1.3563,-4.0224e-10,-0.91461,0,0,0.1,2.3685e-16,0,0.66667
0.64986,0.42536,6.4986,-0.11196,-8.5598,149.38,1.9402,-0.64674,-1.9525,2.587,-9.0228e-13,-0.97625,0,0,0.1,-9.4739e-16,0,0.66667
0.071673,0.80958,0.71673,0.46437,61.431,806.71,-0.88755,0.29585,-1.2314,-1.1834,-1.8232e-07,-0.61569,0,0,0.1,5.0826e-17,0,0.66667
0.87508,0.94955,8.7508,0.67433,20.985,23.479,-15.736,5.2453,-0.38799,-20.981,5.9065e-08,-0.194,0,0,0.1,-0,-0,0.66667
0.21614,0.28575,2.1614,-0.32137,-40.694,616.4,1.8523,-0.61742,-1.634,2.4697,-6.0626e-11,-0.81699,0,0,0.1,-0,-0,0.66667
0.29384,0.91009,2.9384,0.61514,74.819,518.87,-4.8201,1.6067,-0.65534,-6.4268,-5.8655e-12,-0.32767,0,0,0.1,-9.4739e-16,0,0.66667
0.88474,0.87537,8.8474,0.56306,16.166,19.913,-13.284,4.4281,-0.87159,-17.712,1.3856e-08,-0.4358,0,0,0.1,-0,-0,0.66667
0.88359,0.66685,8.8359,0.25028,7.1872,19.262,-5.8971,1.9657,-1.7743,-7.8629,1.4626e-08,-0.88713,0,0,0.1,-0,-0,0.66667
0.83627,0.8254,8.3627,0.4881,19.403,36.999,-10.885,3.6283,-1.1497,-14.513,8.5504e-10,-0.57485,0,0,0.1,-0,-0,0.66667
0.32694,0.67756,3.2694,0.26634,31.58,478.14,-2.322,0.774,-1.7506,-3.096,-1.4102e-12,-0.87529,0,0,0.1,-4.737e-16,0,0.66667
0.90234,0.30937,9.0234,-0.28594,-6.9401,14.013,6.8804,-2.2935,-1.7091,9.1739,-3.8972e-08,-0.85457,0,0,0.1,-1.8645e-15,0,0.66667
0.7718,0.9036,7.718,0.6054,32.514,68.641,-12.46,4.1533,-0.69512,-16.613,4.9361e-10,-0.34756,0,0,0.1,1.4211e-15,0,0.66667
0.65808,0.3206,6.5808,-0.2691,-20.205,143.17,4.7225,-1.5742,-1.7444,6.2966,-1.3305e-12,-0.8722,0,0,0.1,-0,-0,0.66667
0.8998,0.67711,8.998,0.26566,6.6072,14.64,-6.3745,2.1248,-1.7462,-8.4994,3.4026e-08,-0.87311,0,0,0.1,-0,-0,0.66667
0.78313,0.19468,7.8313,-0.45798,-23.446,61.978,9.5642,-3.1881,-1.2562,12.752,-5.2256e-11,-0.62808,0,0,0.1,-0,-0,0.66667
0.42475,0.25533,4.2475,-0.367,-39.942,365.02,4.1569,-1.3856,-1.5218,5.5425,-1.2861e-12,-0.76091,0,0,0.1,-0,-0,0.66667
0.32426,0.30159,3.2426,-0.29762,-35.364,481.4,2.5734,-0.85782,-1.684,3.4313,-3.5627e-12,-0.842,0,0,0.1,4.737e-16,0,0.66667
0.39388,0.39443,3.9388,-0.15835,-17.75,399.51,1.6632,-0.55441,-1.9104,2.2176,6.6436e-13,-0.95522,0,0,0.1,-4.737e-16,0,0.66667
0.061412,0.24962,0.61412,-0.37557,-49.723,820.44,0.61506,-0.20502,-1.5028,0.82008,1.3403e-07,-0.75142,0,0,0.1,-3.7007e-17,0,0.66667
0.36343,0.10731,3.6343,-0.58904,-68.033,435.23,5.7087,-1.9029,-0.76497,7.6115,-5.5369e-12,-0.38249,0,0,0.1,-0,-0,0.66667
0.35304,0.7713,3.5304,0.40695,47.329,447.15,-3.8312,1.2771,-1.4084,-5.1083,-2.1729e-12,-0.70421,0,0,0.1,-0,-0,0.66667
0.86562,0.6549,8.6562,0.23236,7.6442,25.109,-5.3636,1.7879,-1.8065,-7.1514,5.2602e-09,-0.90325,0,0,0.1,8.2897e-16,0,0.66667
0.8887,0.57654,8.887,0.11482,3.1527,17.533,-2.721,0.907,-1.9545,-3.628,1.1054e-08,-0.97724,0,0,0.1,-0,-0,0.66667
0.96305,0.81396,9.6305,0.47094,4.3879,3.2705,-12.094,4.0315,-1.2101,-16.126,5.038e-07,-0.60507,0,0,0.1,3.7896e-15,0,0.66667
0.3282,0.027373,3.282,-0.70894,-84.299,477.25,6.2046,-2.0682,-0.21866,8.2728,-3.4377e-12,-0.10933,0,0,0.1,-0,-0,0.66667
0.69332,0.95508,6.9332,0.68263,47.197,118.36,-12.621,4.2069,-0.34046,-16.828,1.7382e-12,-0.17023,0,0,0.1,-9.4739e-16,0,0.66667
0.63307,0.5994,6.3307,0.1491,11.829,162.82,-2.5171,0.83902,-1.9184,-3.3561,-9.4369e-13,-0.95919,0,0,0.1,-0,-0,0.66667
0.24244,0.79486,2.4244,0.4423,55.338,582.91,-2.8595,0.95317,-1.3012,-3.8127,1.2943e-11,-0.6506,0,0,0.1,4.737e-16,0,0.66667
0.86999,0.89016,8.6999,0.58524,18.838,24.727,-13.577,4.5258,-0.77999,-18.103,9.0883e-09,-0.38999,0,0,0.1,-0,-0,0.66667
0.2141,0.29111,2.141,-0.31333,-39.711,619.01,1.7889,-0.59631,-1.6492,2.3852,-6.1734e-11,-0.82461,0,0,0.1,-0,-0,0.66667
0.74771,0.97281,7.4771,0.70922,41.651,82.973,-14.141,4.7137,-0.21332,-18.855,1.2286e-11,-0.10666,0,0,0.1,-0,-5.3567e-17,0.66667
0.14466,0.96519,1.4466,0.69778,91.035,709.78,-2.6918,0.89727,-0.26845,-3.5891,-2.4927e-09,-0.13423,0,0,0.1,5.9212e-17,0,0.66667
0.10682,0.12218,1.0682,-0.56673,-74.56,759.81,1.6143,-0.53811,-0.85958,2.1524,-3.9769e-08,-0.42979,0,0,0.1,1.4803e-16,9.6323e-19,0.66667
0.72032,0.95738,7.2032,0.68608,43.947,100.04,-13.179,4.3929,-0.32843,-17.571,3.3733e-12,-0.16422,0,0,0.1,9.4739e-16,0,0.66667
0.52632,0.94254,5.2632,0.66382,63.907,259.67,-9.3167,3.1056,-0.43185,-12.422,1.6795e-12,-0.21592,0,0,0.1,-1.8948e-15,0,0.66667
0.44292,0.27849,4.4292,-0.33226,-35.455,345.06,3.9244,-1.3081,-1.6061,5.2325,-1.5787e-13,-0.80306,0,0,0.1,-3.5527e-16,0,0.66667
0.77818,0.95955,7.7818,0.68933,36.19,65.54,-14.305,4.7682,-0.3105,-19.073,4.8655e-11,-0.15525,0,0,0.1,-9.4739e-16,0,0.66667
0.35874,0.71202,3.5874,0.31804,36.795,440.33,-3.0425,1.0142,-1.6445,-4.0567,-7.9585e-12,-0.82226,0,0,0.1,-2.6128e-16,0,0.66667
0.85335,0.49528,8.5335,-0.007086,-0.25265,29.351,0.16125,-0.053749,-1.9978,0.215,1.4202e-09,-0.9989,0,0,0.1,-2.8422e-15,0,0.66667
0.96217,0.57067,9.6217,0.10601,0.98853,2.4678,-2.72,0.90667,-1.9574,-3.6267,-3.6969e-09,-0.97868,0,0,0.1,-0,-0,0.66667
0.97913,0.85427,9.7913,0.53141,2.7728,2.1016,-13.875,4.625,-0.99369,-18.5,-5.3063e-06,-0.49685,0,0,0.1,-0,-0,0.66667
0.27763,0.48881,2.7763,-0.016783,-2.0554,538.46,0.12425,-0.041417,-1.9982,0.16567,-5.0559e-13,-0.9991,0,0,0.1,-4.737e-16,0,0.66667
0.41501,0.88573,4.1501,0.5786,63.723,376.22,-6.4033,2.1344,-0.80668,-8.5377,6.7102e-13,-0.40334,0,0,0.1,-0,-0,0.66667
0.72501,0.30149,7.2501,-0.29776,-18.687,95.765,5.7569,-1.919,-1.6819,7.6758,4.631e-12,-0.84097,0,0,0.1,-0,-0,0.66667
0.89487,0.35344,8.9487,-0.21984,-5.7222,15.903,5.2461,-1.7487,-1.8268,6.9948,-2.4779e-08,-0.91341,0,0,0.1,-0,-0,0.66667
0.71131,0.15703,7.1131,-0.51445,-33.729,105.35,9.7583,-3.2528,-1.0573,13.011,-7.2493e-12,-0.52863,0,0,0.1,1.8948e-15,0,0.66667
0.75813,0.89858,7.5813,0.59787,33.771,76.342,-12.087,4.029,-0.72624,-16.116,-1.2964e-10,-0.36312,0,0,0.1,4.737e-16,0,0.66667
0.8834,0.36374,8.834,-0.20439,-5.8741,19.238,4.8149,-1.605,-1.8484,6.4198,-1.2098e-08,-0.92418,0,0,0.1,-9.4739e-16,0,0.66667
0.36695,0.32603,3.6695,-0.26096,-29.975,430.66,2.5535,-0.85118,-1.7546,3.4047,-4.2089e-12,-0.87731,0,0,0.1,-0,-0,0.66667
0.54254,0.69403,5.4254,0.29104,27.238,243.16,-4.2107,1.4036,-1.6977,-5.6143,-7.7227e-13,-0.84887,0,0,0.1,-0,-0,0.66667
0.53477,0.56825,5.3477,0.10238,9.6883,250.45,-1.46,0.48667,-1.9626,-1.9467,-1.5681e-12,-0.98129,0,0,0.1,-0,-0,0.66667
0.64758,0.45064,6.4758,-0.074034,-5.6889,151.15,1.2785,-0.42616,-1.9774,1.7047,-2.2671e-13,-0.98868,0,0,0.1,-9.4739e-16,0,0.66667
0.89518,0.59869,8.9518,0.14804,3.838,15.709,-3.534,1.178,-1.921,-4.7119,1.2923e-08,-0.9605,0,0,0.1,1.8948e-15,0,0.66667
0.60083,0.0087298,6.0083,-0.73691,-62.77,191.29,11.807,-3.9356,-0.066351,15.742,1.1058e-12,-0.033176,0,0,0.1,-0,-0,0.66667
0.96994,0.18092,9.6994,-0.47863,-3.6137,2.6062,12.38,-4.1266,-1.1886,16.506,2.1639e-06,-0.59431,0,0,0.1,9.4739e-16,0,0.66667
0.73214,0.71999,7.3214,0.32998,20.259,91.275,-6.4425,2.1475,-1.6151,-8.59,-8.9546e-12,-0.80757,0,0,0.1,-0,-0,0.66667
0.41529,0.77649,4.1529,0.41473,45.593,375.6,-4.5929,1.531,-1.3862,-6.1239,1.8123e-12,-0.69309,0,0,0.1,2.459e-16,0,0.66667
0.58114,0.78705,5.8114,0.43058,37.853,207.68,-6.6727,2.2242,-1.3413,-8.8969,8.6597e-13,-0.67064,0,0,0.1,-0,-0,0.66667
0.92232,0.76645,9.2232,0.39967,7.7905,9.5923,-9.83,3.2767,-1.436,-13.107,1.1203e-07,-0.718,0,0,0.1,-0,-0,0.66667
0.6185,0.055975,6.185,-0.66604,-54.751,176,10.985,-3.6617,-0.42026,14.647,3.3573e-13,-0.21013,0,0,0.1,-9.4739e-16,0,0.66667
0.70993,0.86622,7.0993,0.54933,36.181,106.4,-10.4,3.4665,-0.92424,-13.866,-9.8694e-12,-0.46212,0,0,0.1,-9.4739e-16,0,0.66667
0.66129,0.83645,6.6129,0.50468,37.703,141.24,-8.8998,2.9666,-1.0926,-11.866,-2.8679e-12,-0.54631,0,0,0.1,9.4739e-16,0,0.66667
0.33615,0.16339,3.3615,-0.50492,-59.554,467.36,4.526,-1.5087,-1.0908,6.0347,-1.5503e-12,-0.54539,0,0,0.1,-0,-0,0.66667
0.20333,0.68331,2.0333,0.27496,35.007,632.87,-1.4909,0.49698,-1.7365,-1.9879,1.8174e-11,-0.86826,0,0,0.1,-3.5527e-16,0,0.66667
0.40781,0.60288,4.0781,0.15432,17.068,383.71,-1.6782,0.5594,-1.9175,-2.2376,-5.5322e-12,-0.95877,0,0,0.1,9.4739e-16,0,0.66667
0.15077,0.59032,1.5077,0.13548,17.576,701.43,-0.54469,0.18156,-1.9332,-0.72625,-2.0074e-09,-0.96661,0,0,0.1,-2.5142e-16,0,0.66667
0.82633,0.26684,8.2633,-0.34973,-14.63,40.795,7.7066,-2.5689,-1.5667,10.275,-2.9126e-10,-0.78333,0,0,0.1,9.4739e-16,0,0.66667
0.71046,0.78904,7.1046,0.43356,28.461,105.68,-8.2141,2.738,-1.3288,-10.952,-2.9825e-12,-0.66441,0,0,0.1,-0,-0,0.66667
0.40106,0.61814,4.0106,0.17722,19.731,391.36,-1.8953,0.63176,-1.8865,-2.5271,-7.8904e-12,-0.94325,0,0,0.1,2.3747e-16,0,0.66667
0.17138,0.049424,1.7138,-0.67586,-87.394,674.7,3.0888,-1.0296,-0.37976,4.1184,-9.0958e-09,-0.18988,0,0,0.1,-0,1.1527e-16,0.66667
0.8758,0.63445,8.758,0.20168,6.1556,21.634,-4.7101,1.57,-1.8589,-6.2801,8.406e-09,-0.92946,0,0,0.1,1.8948e-15,0,0.66667
0.63906,0.89305,6.3906,0.58958,46.374,158.9,-10.047,3.3491,-0.76604,-13.397,-1.7675e-12,-0.38302,0,0,0.1,9.4739e-16,1.3668e-16,0.66667
0.9966,0.21687,9.966,-0.4247,-0.21575,0.86248,11.287,-3.7623,-1.3593,15.049,-2.024e-06,-0.67967,0,0,0.1,-5.6302e-16,0,0.66667
0.1011,0.98751,1.011,0.73126,96.484,767.53,-1.9714,0.65714,-0.09552,-2.6286,-1.4327e-07,-0.04776,0,0,0.1,1.1842e-16,0,0.66667
0.24485,0.66684,2.4485,0.25026,31.237,579.71,-1.634,0.54467,-1.7752,-2.1787,1.6968e-11,-0.88758,0,0,0.1,-0,-0,0.66667
0.083655,0.23528,0.83655,-0.39709,-52.407,790.65,0.88582,-0.29527,-1.4368,1.1811,5.0997e-08,-0.71839,0,0,0.1,-1.1842e-16,0,0.66667
0.74474,0.00090398,7.4474,-0.74864,-44.454,84.955,14.868,-4.956,-0.0063299,19.824,1.0874e-11,-0.0031649,0,0,0.1,-3.7896e-15,0,0.66667
0.15958,0.2859,1.5958,-0.32115,-41.577,689.91,1.3666,-0.45554,-1.6335,1.8222,1.1413e-09,-0.81676,0,0,0.1,4.737e-16,0,0.66667
0.88166,0.70227,8.8166,0.30341,8.8602,19.973,-7.1334,2.3778,-1.6696,-9.5112,1.2878e-08,-0.83479,0,0,0.1,-0,-0,0.66667
0.49148,0.99858,4.9148,0.74787,75.627,294.77,-9.8017,3.2672,-0.0095206,-13.069,3.439e-12,-0.0047603,0,0,0.1,-1.5987e-15,0,0.66667
0.52617,0.41923,5.2617,-0.12116,-11.613,258.82,1.7,-0.56666,-1.9456,2.2666,-3.6661e-12,-0.97279,0,0,0.1,-0,-0,0.66667
0.04252,0.78422,0.4252,0.42633,56.573,845.83,-0.4834,0.16113,-1.3532,-0.64454,-5.4421e-07,-0.67659,0,0,0.1,-0,-0,0.66667
0.61405,0.85366,6.1405,0.53049,43.907,179.29,-8.6866,2.8955,-0.99765,-11.582,-2.5819e-12,-0.49883,0,0,0.1,1.8948e-15,0,0.66667
0.22761,0.71451,2.2761,0.32177,40.526,601.69,-1.953,0.65101,-1.6297,-2.604,2.8554e-11,-0.81483,0,0,0.1,2.3685e-16,0,0.66667
0.2135,0.71716,2.135,0.32574,41.298,619.78,-1.8546,0.6182,-1.6217,-2.4728,4.3996e-11,-0.81085,0,0,0.1,1.1842e-16,0,0.66667
0.89532,0.2267,8.9532,-0.40995,-10.677,16.253,9.7877,-3.2626,-1.4009,13.05,-3.891e-08,-0.70044,0,0,0.1,-0,-0,0.66667
0.88801,0.79504,8.8801,0.44257,12.308,18.457,-10.48,3.4934,-1.3039,-13.973,1.6807e-08,-0.65197,0,0,0.1,-0,-0,0.66667
0.0052652,0.64798,0.052652,0.22198,29.478,895.96,-0.031166,0.010388,-1.8228,-0.041555,-5.6511e-07,-0.91138,0,0,0.1,-7.4015e-18,0,0.66667
0.8323,0.28814,8.323,-0.31778,-12.867,38.149,7.0532,-2.3511,-1.6399,9.4042,-5.8602e-10,-0.81997,0,0,0.1,-0,-0,0.66667
0.9023,0.90172,9.023,0.60259,14.808,15.153,-14.499,4.833,-0.70851,-19.332,4.2296e-08,-0.35426,0,0,0.1,-9.4739e-16,0,0.66667
0.51195,0.85414,5.1195,0.53122,52.111,273.48,-7.2521,2.4174,-0.99584,-9.6695,-4.3348e-12,-0.49792,0,0,0.1,9.4739e-16,0,0.66667
0.65617,0.66839,6.5617,0.25258,19.047,144.61,-4.4197,1.4732,-1.7779,-5.8929,-1.2967e-13,-0.88897,0,0,0.1,-0,-0,0.66667
0.76779,0.41411,7.6779,-0.12883,-6.9786,69.679,2.6378,-0.87925,-1.9424,3.517,2.6003e-11,-0.97119,0,0,0.1,-0,-0,0.66667
0.68544,0.83276,6.8544,0.49915,35.122,123.31,-9.1236,3.0412,-1.1154,-12.165,-9.8943e-13,-0.55771,0,0,0.1,-0,-0,0.66667
0.45912,0.97478,4.5912,0.71217,74.9,328.44,-8.7192,2.9064,-0.19447,-11.626,2.4984e-12,-0.097234,0,0,0.1,-0,-0,0.66667
0.57345,0.11401,5.7345,-0.57899,-51.675,215,8.8539,-2.9513,-0.80627,11.805,1.3918e-12,-0.40313,0,0,0.1,-9.4739e-16,0,0.66667
0.57406,0.77051,5.7406,0.40576,36.105,214.01,-6.2115,2.0705,-1.4134,-8.282,1.7173e-12,-0.70668,0,0,0.1,-4.737e-16,0,0.66667
0.84213,0.47502,8.4213,-0.037463,-1.4308,33.723,0.84129,-0.28043,-1.9975,1.1217,-6.5741e-10,-0.99873,0,0,0.1,1.8948e-15,0,0.66667
0.24044,0.97903,2.4044,0.71854,90.233,585.79,-4.6071,1.5357,-0.16157,-6.1429,-4.7016e-12,-0.080784,0,0,0.1,-0,-0,0.66667
0.75723,0.56479,7.5723,0.097187,5.4724,75.697,-1.9625,0.65416,-1.9644,-2.6166,-1.8201e-11,-0.98221,0,0,0.1,-1.8948e-15,0,0.66667
0.81234,0.75023,8.1234,0.37534,16.857,47.186,-8.1308,2.7103,-1.5053,-10.841,7.8109e-11,-0.75263,0,0,0.1,3.7896e-15,0,0.66667
0.79703,0.80607,7.9703,0.45911,22.16,54.834,-9.758,3.2527,-1.2557,-13.011,-1.776e-10,-0.62784,0,0,0.1,9.4739e-16,0,0.66667
0.80771,0.26664,8.0771,-0.35005,-16.064,49.306,7.5396,-2.5132,-1.5623,10.053,-4.0705e-12,-0.78114,0,0,0.1,-9.5652e-16,0,0.66667
0.82928,0.93794,8.2928,0.65691,27.264,40.658,-14.527,4.8423,-0.46991,-19.369,-1.9156e-08,-0.23496,0,0,0.1,-0,-0,0.66667
0.41752,0.65419,4.1752,0.23129,25.341,372.9,-2.5751,0.85837,-1.8094,-3.4335,-5.0582e-13,-0.9047,0,0,0.1,-0,-0,0.66667
0.61789,0.76972,6.1789,0.40459,33.182,175.75,-6.6664,2.2221,-1.4149,-8.8885,-1.5832e-12,-0.70744,0,0,0.1,9.4739e-16,0,0.66667
0.75525,0.51887,7.5525,0.028308,1.605,76.826,-0.57012,0.19004,-1.9948,-0.76016,-2.8922e-12,-0.99741,0,0,0.1,-0,-0,0.66667
0.76977,0.0099375,7.6977,-0.73509,-39.919,70.363,15.089,-5.0298,-0.077452,20.119,1.517e-11,-0.038726,0,0,0.1,3.7896e-15,0,0.66667
0.9586,0.017567,9.586,-0.72365,-7.7937,5.0707,18.498,-6.1662,-0.13556,24.665,-1.4583e-05,-0.067779,0,0,0.1,-2.2704e-15,0,0.66667
0.97508,0.037552,9.7508,-0.69367,-4.4946,3.2598,18.037,-6.0123,-0.28676,24.049,5.7652e-05,-0.14338,0,0,0.1,-0,-0,0.66667
0.56473,0.92279,5.6473,0.63418,57.485,223.13,-9.5506,3.1835,-0.57086,-12.734,7.6206e-13,-0.28543,0,0,0.1,-0,-0,0.66667
0.46574,0.80396,4.6574,0.45595,47.438,320.8,-5.6627,1.8876,-1.261,-7.5503,-1.1013e-12,-0.6305,0,0,0.1,-0,-0,0.66667
0.83553,0.050552,8.3553,-0.67417,-27.062,38.109,15.021,-5.007,-0.38081,20.028,1.0409e-08,-0.1904,0,0,0.1,-0,-0,0.66667
0.21996,0.088681,2.1996,-0.61698,-78.167,611.76,3.619,-1.2063,-0.64984,4.8253,-4.4237e-10,-0.32492,0,0,0.1,-3.5527e-16,0,0.66667
0.7664,0.7811,7.664,0.42165,23.03,71.009,-8.6174,2.8725,-1.3729,-11.49,-7.7911e-12,-0.68643,0,0,0.1,2.3685e-16,0,0.66667
0.19201,0.95311,1.9201,0.67967,87.21,647.86,-3.4801,1.16,-0.3557,-4.6401,1.5095e-10,-0.17785,0,0,0.1,2.3685e-16,0,0.66667
0.59163,0.43464,5.9163,-0.098046,-8.4408,197.9,1.5468,-0.51561,-1.968,2.0625,-2.0716e-12,-0.984,0,0,0.1,-4.737e-16,0,0.66667
0.60683,0.4064,6.0683,-0.1404,-11.748,184.72,2.272,-0.75734,-1.932,3.0294,3.1108e-13,-0.966,0,0,0.1,-1.8948e-15,0,0.66667
0.44184,0.77908,4.4184,0.41861,44.751,346.35,-4.9323,1.6441,-1.3765,-6.5764,-5.0049e-12,-0.68826,0,0,0.1,4.737e-16,0,0.66667
0.86455,0.66916,8.6455,0.25373,8.413,25.524,-5.8497,1.9499,-1.7688,-7.7997,5.1927e-09,-0.88439,0,0,0.1,-0,-0,0.66667
0.54348,0.82878,5.4348,0.49316,46.17,242.65,-7.1474,2.3825,-1.1346,-9.5298,-5.6488e-13,-0.56729,0,0,0.1,-0,-0,0.66667
0.49273,0.55387,4.9273,0.080802,8.1113,292.28,-1.0617,0.3539,-1.9739,-1.4156,-5.7362e-12,-0.98694,0,0,0.1,4.737e-16,0,0.66667
0.41813,0.22147,4.1813,-0.41779,-45.798,372.44,4.6584,-1.5528,-1.3795,6.2112,-2.5038e-12,-0.68973,0,0,0.1,9.4739e-16,0,0.66667
0.062225,0.86446,0.62225,0.54669,72.46,819.4,-0.90714,0.30238,-0.94183,-1.2095,-6.2323e-08,-0.47092,0,0,0.1,5.9212e-17,1.1936e-16,0.66667
0.36215,0.97278,3.6215,0.70917,82.111,436.98,-6.8487,2.2829,-0.21288,-9.1316,2.3559e-12,-0.10644,0,0,0.1,-0,-0,0.66667
0.092815,0.84327,0.92815,0.51491,67.904,778.45,-1.2744,0.42481,-1.062,-1.6992,-1.603e-08,-0.53098,0,0,0.1,-2.9606e-17,0,0.66667
0.56564,0.81434,5.6564,0.47151,42.587,221.85,-7.1121,2.3707,-1.2105,-9.4829,2.6645e-15,-0.60524,0,0,0.1,-0,-0,0.66667
0.6405,0.12523,6.405,-0.56215,-44.061,157.66,9.6016,-3.2005,-0.88264,12.802,1.2408e-12,-0.44132,0,0,0.1,-1.8948e-15,0,0.66667
0.76778,0.55578,7.6778,0.083668,4.5313,69.648,-1.713,0.57101,-1.9766,-2.284,9.3092e-13,-0.98832,0,0,0.1,-0,-0,0.66667
0.63254,0.38361,6.3254,-0.17458,-13.868,163.28,2.9448,-0.9816,-1.8887,3.9264,-9.4569e-13,-0.94435,0,0,0.1,-0,-0,0.66667
0.18706,0.16559,1.8706,-0.50162,-64.38,654.11,2.5022,-0.83407,-1.1096,3.3363,-2.1806e-10,-0.5548,0,0,0.1,-0,-0,0.66667
0.75024,0.28735,7.5024,-0.31897,-18.439,80.124,6.3816,-2.1272,-1.6432,8.5088,1.9315e-11,-0.82162,0,0,0.1,-1.8948e-15,0,0.66667
0.54886,0.83253,5.4886,0.49879,46.309,237.56,-7.3005,2.4335,-1.1168,-9.734,-5.7598e-13,-0.55839,0,0,0.1,-0,-0,0.66667
0.10217,0.51943,1.0217,0.029144,3.8284,765.85,-0.079405,0.026468,-1.9938,-0.10587,-1.1348e-08,-0.99692,0,0,0.1,-0,-0,0.66667
0.024827,0.7116,0.24827,0.3174,42.142,869.62,-0.21013,0.070046,-1.6393,-0.28018,9.9467e-07,-0.81964,0,0,0.1,-0,-0,0.66667
0.29875,0.048527,2.9875,-0.67721,-82.163,512.95,5.395,-1.7983,-0.37082,7.1934,-4.5652e-12,-0.18541,0,0,0.1,-4.737e-16,0,0.66667
0.69002,0.60901,6.9002,0.16351,11.33,119.36,-3.0086,1.0029,-1.9054,-4.0115,-5.318e-13,-0.9527,0,0,0.1,-0,-0,0.66667
0.93279,0.52742,9.3279,0.041127,0.68844,6.8475,-1.023,0.341,-1.993,-1.364,-3.2791e-09,-0.99648,0,0,0.1,1.8948e-15,0,0.66667
0.9665,0.089648,9.665,-0.61553,-5.2898,3.582,15.864,-5.2881,-0.65467,21.152,1.1195e-06,-0.32734,0,0,0.1,9.4739e-16,0,0.66667
0.76455,0.44707,7.6455,-0.079398,-4.3525,71.472,1.6188,-0.53959,-1.9806,2.1584,4.4458e-12,-0.9903,0,0,0.1,-0,-0,0.66667
0.29325,0.24457,2.9325,-0.38314,-46.527,519.3,2.9961,-0.99871,-1.4778,3.9948,-6.0305e-12,-0.73892,0,0,0.1,4.1049e-16,0,0.66667
0.62207,0.93099,6.2207,0.64648,52.745,172.96,-10.724,3.5747,-0.51448,-14.299,-4.5919e-13,-0.25724,0,0,0.1,4.737e-16,0,0.66667
0.2311,0.31647,2.311,-0.2753,-34.607,597.22,1.6965,-0.56551,-1.7309,2.2621,-4.1511e-11,-0.86547,0,0,0.1,9.4739e-16,0,0.66667
0.75069,0.24721,7.5069,-0.37919,-21.902,79.998,7.5907,-2.5302,-1.4934,10.121,1.3497e-11,-0.7467,0,0,0.1,9.4739e-16,0,0.66667
0.16587,0.0021379,1.6587,-0.74679,-96.829,681.99,3.3032,-1.1011,-0.015492,4.4042,3.0717e-09,-0.0077458,0,0,0.1,-9.4739e-16,0,0.66667
0.75647,0.56323,7.5647,0.094842,5.3547,76.137,-1.9132,0.63773,-1.9665,-2.5509,-1.8842e-11,-0.98326,0,0,0.1,-1.8948e-15,0,0.66667
0.86859,0.77441,8.6859,0.41161,13.309,24.532,-9.5339,3.178,-1.3951,-12.712,6.9215e-09,-0.69756,0,0,0.1,5.1431e-16,0,0.66667
0.51951,0.49522,5.1951,-0.0071758,-0.69436,265.34,0.09941,-0.033137,-1.9994,0.13255,-4.2497e-12,-0.99971,0,0,0.1,3.079e-15,0,0.66667
0.065635,0.96551,0.65635,0.69826,92.646,814.88,-1.2221,0.40738,-0.26713,-1.6295,8.039e-07,-0.13357,0,0,0.1,-0,-0,0.66667
0.44889,0.18768,4.4889,-0.46848,-49.711,338.81,5.6079,-1.8693,-1.2197,7.4773,-6.6422e-12,-0.60987,0,0,0.1,-0,-0,0.66667
0.83783,0.79776,8.3783,0.44664,17.581,36.211,-9.9789,3.3263,-1.2879,-13.305,3.3946e-10,-0.64396,0,0,0.1,-9.4739e-16,0,0.66667
0.17975,0.31887,1.7975,-0.27169,-34.917,663.48,1.3023,-0.43411,-1.7349,1.7364,1.5594e-10,-0.86743,0,0,0.1,-0,-0,0.66667
0.038559,0.64731,0.38559,0.22097,29.301,851.13,-0.22721,0.075738,-1.8235,-0.30295,1.7938e-07,-0.91173,0,0,0.1,-2.9606e-17,0,0.66667
0.73269,0.46514,7.3269,-0.052295,-3.1991,90.577,1.0218,-0.34059,-1.993,1.3624,1.4924e-12,-0.99651,0,0,0.1,9.4739e-16,0,0.66667
0.56304,0.50767,5.6304,0.011504,1.0409,223.69,-0.17272,0.057574,-2.0037,-0.23029,-3.0089e-12,-1.0019,0,0,0.1,-0,-0,0.66667
0.042061,0.4233,0.42061,-0.11506,-15.248,846.41,0.12905,-0.043016,-1.9509,0.17207,-6.2799e-09,-0.97543,0,0,0.1,-0,-0,0.66667
0.98489,0.79755,9.8489,0.44633,1.6172,1.3891,-11.722,3.9074,-1.2955,-15.63,-3.2533e-07,-0.64777,0,0,0.1,1.8948e-15,0,0.66667
0.56933,0.96942,5.6933,0.70413,63.403,219.15,-10.69,3.5634,-0.23559,-14.254,8.3489e-14,-0.11779,0,0,0.1,-0,-0,0.66667
0.58516,0.34209,5.8516,-0.23686,-20.643,203.75,3.696,-1.232,-1.7987,4.928,-4.5366e-12,-0.89935,0,0,0.1,-0,-0,0.66667
0.78991,0.25661,7.8991,-0.36508,-18.142,58.175,7.6901,-2.5634,-1.5235,10.253,3.5381e-11,-0.76174,0,0,0.1,1.8948e-15,0,0.66667
0.90263,0.44197,9.0263,-0.087045,-2.0999,13.64,2.0952,-0.6984,-1.973,2.7936,-1.3736e-08,-0.9865,0,0,0.1,1.8948e-15,0,0.66667
0.060751,0.48691,0.60751,-0.019642,-2.5978,821.29,0.03182,-0.010607,-2.0003,0.042427,-3.1705e-07,-1.0001,0,0,0.1,1.1842e-16,0,0.66667
0.34851,0.42516,3.4851,-0.11226,-13.086,452.27,1.0433,-0.34777,-1.9532,1.3911,1.345e-12,-0.97661,0,0,0.1,-4.737e-16,0,0.66667
0.20009,0.85509,2.0009,0.53263,68.02,637.24,-2.842,0.94734,-0.99118,-3.7894,4.0472e-11,-0.49559,0,0,0.1,-0,-0,0.66667
0.46515,0.11181,4.6515,-0.58229,-60.705,321.69,7.2228,-2.4076,-0.79357,9.6303,-6.1058e-12,-0.39679,0,0,0.1,-0,-0,0.66667
0.091468,0.023298,0.91468,-0.71505,-94.505,780.35,1.7441,-0.58137,-0.18325,2.3255,-1.61e-06,-0.091625,0,0,0.1,-0,8.9866e-17,0.66667
0.068086,0.34419,0.68086,-0.23372,-30.895,811.47,0.42434,-0.14145,-1.8048,0.56579,7.4444e-08,-0.90239,0,0,0.1,-2.3685e-16,0,0.66667
0.30089,0.64732,3.0089,0.22098,26.678,509.78,-1.7731,0.59102,-1.8253,-2.3641,-6.2139e-13,-0.91267,0,0,0.1,2.3685e-16,0,0.66667
0.90435,0.165,9.0435,-0.50251,-12.043,14.181,12.118,-4.0395,-1.1039,16.158,-3.8975e-08,-0.55194,0,0,0.1,-0,-0,0.66667
0.97554,0.09895,9.7554,-0.60157,-3.7504,2.7066,15.65,-5.2165,-0.71088,20.866,1.6942e-05,-0.35544,0,0,0.1,-0,-0,0.66667
0.76372,0.42414,7.6372,-0.11379,-6.2577,71.966,2.3174,-0.77247,-1.9554,3.0899,1.251e-11,-0.97768,0,0,0.1,9.4739e-16,0,0.66667
0.00074091,0.7009,0.0074091,0.30134,40.032,902.06,-0.0059535,0.0019835,-1.6805,-0.0079384,-1.4095e-06,-0.84027,0,0,0.1,-0,-0,0.66667
0.73522,0.5078,7.3522,0.011694,0.70957,88.982,-0.22927,0.076424,-2.0031,-0.30569,1.2391e-12,-1.0016,0,0,0.1,-0,-0,0.66667
0.021993,0.48901,0.21993,-0.016483,-2.1871,873.42,0.0096668,-0.0032232,-1.9962,0.012889,-1.3934e-06,-0.99809,0,0,0.1,-2.6044e-17,0,0.66667
0.16857,0.88915,1.6857,0.58373,75.485,678.3,-2.6239,0.87464,-0.78791,-3.4986,-3.2301e-09,-0.39396,0,0,0.1,-0,-0,0.66667
0.010514,0.5907,0.10514,0.13605,18.061,888.89,-0.038145,0.012715,-1.933,-0.05086,-8.1237e-08,-0.96649,0,0,0.1,1.7916e-17,0,0.66667
0.14913,0.66125,1.4913,0.24188,31.407,703.62,-0.96189,0.32063,-1.7896,-1.2825,-2.2884e-09,-0.89478,0,0,0.1,4.737e-16,0,0.66667
0.68751,0.849,6.8751,0.52349,36.651,121.91,-9.5975,3.1992,-1.0312,-12.797,-3.233e-12,-0.51561,0,0,0.1,1.8948e-15,0,0.66667
0.70202,0.66322,7.0202,0.24483,16.428,111.04,-4.5833,1.5278,-1.7901,-6.1111,-3.2925e-12,-0.89506,0,0,0.1,-0,-0,0.66667
0.37108,0.62406,3.7108,0.18608,21.293,425.8,-1.8414,0.61379,-1.8771,-2.4552,-7.4539e-12,-0.93856,0,0,0.1,6.2172e-16,0,0.66667
0.73119,0.38961,7.3119,-0.16559,-10.183,91.609,3.2288,-1.0763,-1.9021,4.305,4.1507e-12,-0.95104,0,0,0.1,-0,-0,0.66667
0.8473,0.93495,8.473,0.65242,24.445,33.272,-14.741,4.9138,-0.48689,-19.655,5.3799e-08,-0.24344,0,0,0.1,1.1842e-15,0,0.66667
0.13036,0.34722,1.3036,-0.22917,-29.915,728.41,0.79664,-0.26555,-1.8118,1.0622,6.8858e-09,-0.90591,0,0,0.1,4.737e-16,0,0.66667
0.087407,0.31784,0.87407,-0.27324,-36.015,785.6,0.63688,-0.21229,-1.7323,0.84918,4.7851e-08,-0.86614,0,0,0.1,-0,-0,0.66667
0.37192,0.38719,3.7192,-0.16922,-19.348,424.8,1.6783,-0.55944,-1.898,2.2378,-1.0467e-12,-0.94899,0,0,0.1,-0,-0,0.66667
0.40388,0.36851,4.0388,-0.19723,-21.901,388.17,2.1243,-0.70809,-1.8629,2.8323,1.3658e-12,-0.93147,0,0,0.1,-7.1054e-16,0,0.66667
0.2764,0.26887,2.764,-0.3467,-42.536,540.13,2.5555,-0.85182,-1.5706,3.4073,-1.0592e-11,-0.78529,0,0,0.1,4.737e-16,0,0.66667
0.75417,0.94955,7.5417,0.67432,38.696,78.981,-13.561,4.5205,-0.38182,-18.082,7.8282e-11,-0.19091,0,0,0.1,1.8948e-15,0,0.66667
0.32179,0.38059,3.2179,-0.17911,-21.31,484.3,1.5369,-0.51231,-1.8836,2.0492,-9.1204e-12,-0.94182,0,0,0.1,-0,-0,0.66667
0.80014,0.32556,8.0014,-0.26167,-12.418,52.783,5.5832,-1.8611,-1.7561,7.4443,1.8531e-11,-0.87803,0,0,0.1,-0,-0,0.66667
0.91131,0.010434,9.1131,-0.73435,-16.58,13.619,17.846,-5.9486,-0.080516,23.794,3.4772e-07,-0.040258,0,0,0.1,-0,-0,0.66667
0.51315,0.34174,5.1315,-0.23739,-23.193,271.77,3.2485,-1.0828,-1.8014,4.3313,6.2128e-13,-0.90072,0,0,0.1,-1.1842e-16,0,0.66667
0.42942,0.85161,4.2942,0.52741,57.198,360.13,-6.0395,2.0132,-1.0081,-8.0527,5.2078e-12,-0.50406,0,0,0.1,-0,-0,0.66667
0.091595,0.89346,0.91595,0.59018,77.9,780.11,-1.4415,0.48051,-0.76258,-1.9221,-6.3254e-08,-0.38129,0,0,0.1,-0,1.3439e-16,0.66667
0.27368,0.57463,2.7368,0.11194,13.744,543.4,-0.81696,0.27232,-1.9523,-1.0893,-1.2693e-12,-0.97613,0,0,0.1,-0,-0,0.66667
0.88665,0.22596,8.8665,-0.41106,-11.553,18.756,9.7191,-3.2397,-1.3984,12.959,-1.4986e-08,-0.6992,0,0,0.1,-0,-0,0.66667
0.24594,0.84764,2.4594,0.52147,65.166,578.55,-3.42,1.14,-1.0327,-4.5601,3.3886e-11,-0.51636,0,0,0.1,9.4739e-16,0,0.66667
0.62119,0.40113,6.2119,-0.14831,-12.061,172.6,2.4567,-0.8189,-1.9214,3.2756,1.5796e-12,-0.96071,0,0,0.1,-9.4739e-16,0,0.66667
0.49501,0.13347,4.9501,-0.5498,-55.195,290.61,7.2574,-2.4191,-0.92337,9.6766,-3.3706e-12,-0.46169,0,0,0.1,-0,-0,0.66667
0.094373,0.39387,0.94373,-0.15919,-20.948,776.27,0.40063,-0.13354,-1.9136,0.53417,3.0116e-08,-0.95679,0,0,0.1,-0,-0,0.66667
0.89937,0.2333,8.9937,-0.40005,-10.028,15.115,9.5945,-3.1982,-1.4278,12.793,-4.2395e-08,-0.7139,0,0,0.1,-0,-0,0.66667
0.067771,0.42028,0.67771,-0.11958,-15.803,811.88,0.21611,-0.072035,-1.9468,0.28814,3.8986e-08,-0.97338,0,0,0.1,1.1842e-16,0,0.66667
0.6807,0.99542,6.807,0.74312,53.164,127.66,-13.489,4.4964,-0.034218,-17.986,-4.9551e-12,-0.017109,0,0,0.1,1.6579e-15,0,0.66667
0.972,0.03792,9.72,-0.69312,-5.0441,3.5077,17.966,-5.9885,-0.29194,23.954,5.0157e-05,-0.14597,0,0,0.1,-0,-0,0.66667
0.70937,0.60707,7.0937,0.16061,10.549,105.91,-3.0381,1.0127,-1.9054,-4.0508,-4.5253e-12,-0.95268,0,0,0.1,1.8948e-15,0,0.66667
0.32591,0.44267,3.2591,-0.085998,-10.199,479.29,0.7474,-0.24913,-1.9754,0.99654,-7.761e-12,-0.98768,0,0,0.1,-0,-0,0.66667
0.07344,0.089115,0.7344,-0.61633,-81.617,804.39,1.207,-0.40234,-0.64825,1.6094,5.2582e-07,-0.32413,0,0,0.1,2.9606e-17,0,0.66667
0.57974,0.45462,5.7974,-0.068069,-5.9861,208.47,1.0523,-0.35077,-1.9854,1.4031,-1.4279e-12,-0.99269,0,0,0.1,-0,-0,0.66667
0.73352,0.54604,7.3352,0.069061,4.2138,90.064,-1.3509,0.45029,-1.9862,-1.8012,-4.5374e-12,-0.99311,0,0,0.1,9.4739e-16,0,0.66667
0.35885,0.30163,3.5885,-0.29756,-34.42,440.19,2.8474,-0.94914,-1.6891,3.7966,-7.9028e-12,-0.84457,0,0,0.1,4.737e-16,0,0.66667
0.65375,0.45072,6.5375,-0.073922,-5.6011,146.32,1.2887,-0.42957,-1.9811,1.7183,-2.1819e-12,-0.99055,0,0,0.1,-0,-0,0.66667
0.56659,0.28236,5.6659,-0.32645,-29.399,220.68,4.9324,-1.6441,-1.6211,6.5766,-2.8466e-12,-0.81056,0,0,0.1,-0,-0,0.66667
0.034106,0.81002,0.34106,0.46503,61.765,857.15,-0.42295,0.14098,-1.2323,-0.56393,2.7217e-07,-0.61615,0,0,0.1,-2.9606e-17,0,0.66667
0.92069,0.71045,9.2069,0.31568,6.2598,9.6954,-7.7505,2.5835,-1.6486,-10.334,8.4131e-08,-0.82432,0,0,0.1,-9.4739e-16,0,0.66667
0.38001,0.39284,3.8001,-0.16074,-18.248,415.43,1.6289,-0.54296,-1.9059,2.1718,-1.8235e-12,-0.95297,0,0,0.1,-0,-0,0.66667
0.3794,0.47358,3.794,-0.039633,-4.5006,416.09,0.40098,-0.13366,-1.9935,0.53464,-1.9786e-12,-0.99675,0,0,0.1,9.4739e-16,0,0.66667
0.84636,0.95139,8.4636,0.67708,25.537,33.764,-15.281,5.0938,-0.37033,-20.375,2.1163e-08,-0.18517,0,0,0.1,-0,-0,0.66667
0.48428,0.74198,4.8428,0.36298,36.884,301.25,-4.6875,1.5625,-1.5366,-6.25,4.3077e-14,-0.76831,0,0,0.1,-0,-0,0.66667
0.45107,0.58382,4.5107,0.12573,13.282,336.06,-1.5124,0.50413,-1.9452,-2.0165,-1.2096e-12,-0.97258,0,0,0.1,-4.737e-16,0,0.66667
0.63986,0.077903,6.3986,-0.63315,-49.751,158.42,10.803,-3.6011,-0.57801,14.404,1.5454e-13,-0.289,0,0,0.1,-9.4739e-16,0,0.66667
0.21177,0.37721,2.1177,-0.18419,-23.356,621.95,1.0402,-0.34672,-1.8774,1.3869,-6.2748e-11,-0.93872,0,0,0.1,-0,-0,0.66667
0.5283,0.65954,5.283,0.2393,22.876,256.84,-3.3713,1.1238,-1.7973,-4.4951,-4.2586e-12,-0.89866,0,0,0.1,-0,-0,0.66667
0.66857,0.73875,6.6857,0.35812,26.245,135.36,-6.3848,2.1283,-1.5436,-8.513,-5.0315e-13,-0.77178,0,0,0.1,-0,-0,0.66667
0.53878,0.53461,5.3878,0.051909,4.882,246.57,-0.7458,0.2486,-1.9882,-0.9944,-5.9863e-13,-0.9941,0,0,0.1,-0,-0,0.66667
0.70876,0.51033,7.0876,0.015493,1.019,106.24,-0.29282,0.097605,-1.9967,-0.39042,3.0614e-13,-0.99835,0,0,0.1,-0,-0,0.66667
0.59854,0.27236,5.9854,-0.34145,-29.059,192.14,5.4499,-1.8166,-1.5837,7.2666,-5.862e-14,-0.79186,0,0,0.1,-0,-0,0.66667
0.84141,0.97782,8.4141,0.71673,27.872,35.931,-16.082,5.3605,-0.1745,-21.442,-4.5307e-09,-0.087251,0,0,0.1,-0,-0,0.66667
0.87917,0.69178,8.7917,0.28767,8.5658,20.717,-6.7442,2.2481,-1.7052,-8.9923,1.1381e-08,-0.85258,0,0,0.1,-0,-0,0.66667
0.097839,0.91423,0.97839,0.62134,81.939,771.8,-1.6211,0.54037,-0.6263,-2.1615,1.8944e-08,-0.31315,0,0,0.1,-0,-0,0.66667
0.25859,0.81313,2.5859,0.46969,58.271,562.54,-3.2389,1.0796,-1.214,-4.3185,1.604e-11,-0.60699,0,0,0.1,-9.4739e-16,0,0.66667
0.054656,0.72675,0.54656,0.34013,45.057,829.51,-0.49573,0.16524,-1.5858,-0.66098,-5.6538e-08,-0.7929,0,0,0.1,-0,-0,0.66667
0.22889,0.72613,2.2889,0.3392,42.7,600.07,-2.0704,0.69013,-1.5888,-2.7605,2.7401e-11,-0.79442,0,0,0.1,-0,-0,0.66667
0.72092,0.92251,7.2092,0.63376,40.479,99.429,-12.184,4.0612,-0.57287,-16.245,-1.5422e-11,-0.28644,0,0,0.1,-0,-0,0.66667
0.078545,0.26805,0.78545,-0.34793,-45.945,797.47,0.72875,-0.24292,-1.5736,0.97167,9.5664e-08,-0.78681,0,0,0.1,-1.1842e-16,0,0.66667
0.15512,0.29818,1.5512,-0.30273,-39.245,695.75,1.2523,-0.41742,-1.6768,1.6697,1.5043e-09,-0.83841,0,0,0.1,-0,-0,0.66667
0.77077,0.53238,7.7077,0.04857,2.6005,67.965,-0.9983,0.33277,-1.9908,-1.3311,-3.3494e-11,-0.99538,0,0,0.1,-0,-0,0.66667
0.44433,0.61235,4.4433,0.16852,17.94,343.37,-1.9968,0.66559,-1.8959,-2.6624,-1.3519e-12,-0.94797,0,0,0.1,-0,-0,0.66667
0.29012,0.25853,2.9012,-0.36221,-44.067,523.14,2.8022,-0.93408,-1.5308,3.7363,-4.9498e-12,-0.76538,0,0,0.1,-0,-0,0.66667
0.64398,0.052056,6.4398,-0.67192,-52.357,155.28,11.539,-3.8463,-0.39432,15.385,3.6948e-13,-0.19716,0,0,0.1,-9.4739e-16,0,0.66667
0.88694,0.78263,8.8694,0.42394,11.891,18.712,-10.027,3.3423,-1.3614,-13.369,1.5098e-08,-0.68069,0,0,0.1,-0,-0,0.66667
0.037605,0.21276,0.37605,-0.43086,-57.199,852.44,0.43207,-0.14402,-1.3376,0.5761,2.7097e-07,-0.6688,0,0,0.1,-5.9212e-17,0,0.66667
0.69309,0.34974,6.9309,-0.22539,-15.496,117.24,4.1658,-1.3886,-1.8174,5.5544,1.1098e-12,-0.9087,0,0,0.1,-0,-0,0.66667
0.66855,0.79927,6.6855,0.4489,32.933,135.59,-8.003,2.6677,-1.283,-10.671,2.6734e-13,-0.64148,0,0,0.1,-0,-0,0.66667
0.86801,0.95452,8.6801,0.68178,22.344,25.869,-15.781,5.2604,-0.34412,-21.041,2.2423e-09,-0.17206,0,0,0.1,-1.0279e-15,0,0.66667
0.19637,0.81264,1.9637,0.46895,59.949,642,-2.4557,0.81857,-1.2166,-3.2743,3.1045e-10,-0.60831,0,0,0.1,-0,-0,0.66667
0.71279,0.15627,7.1279,-0.5156,-33.66,104.37,9.8004,-3.2668,-1.0537,13.067,-5.5884e-12,-0.52683,0,0,0.1,1.8948e-15,0,0.66667
0.1039,0.056099,1.039,-0.66585,-87.74,763.75,1.8449,-0.61496,-0.42166,2.4598,-1.2938e-07,-0.21083,0,0,0.1,5.9212e-17,0,0.66667
0.056626,0.54676,0.56626,0.070139,9.2813,826.83,-0.10591,0.035304,-1.9797,-0.14122,-8.4395e-08,-0.98986,0,0,0.1,-1.1842e-16,0,0.66667
0.6808,0.40741,6.808,-0.13889,-9.8573,125.98,2.5215,-0.84049,-1.9298,3.362,-3.9357e-12,-0.96488,0,0,0.1,1.8948e-15,0,0.66667
0.022635,0.96403,0.22635,0.69604,92.701,872.61,-0.42012,0.14007,-0.27505,-0.56014,5.272e-05,-0.13753,0,0,0.1,1.4803e-17,0,0.66667
0.044299,0.56065,0.44299,0.090972,12.054,843.4,-0.10747,0.035822,-1.9723,-0.14329,-9.4128e-08,-0.98614,0,0,0.1,1.4803e-17,0,0.66667
0.036953,0.65012,0.36953,0.22519,29.864,853.29,-0.2219,0.073967,-1.8176,-0.29587,2.1651e-07,-0.90882,0,0,0.1,-0,-0,0.66667
0.46541,0.98725,4.6541,0.73087,76.32,321.82,-9.0708,3.0236,-0.10016,-12.094,-9.1127e-13,-0.050079,0,0,0.1,4.737e-16,0,0.66667
0.75787,0.97817,7.5787,0.71726,40.67,77.023,-14.496,4.8319,-0.16778,-19.328,2.9557e-11,-0.083889,0,0,0.1,-0,-0,0.66667
0.9922,0.35965,9.922,-0.21052,-0.32308,0.38687,5.5701,-1.8567,-1.8391,7.4268,-3.9805e-07,-0.91957,0,0,0.1,-1.8948e-15,0,0.66667
0.22661,0.051699,2.2661,-0.67245,-84.979,603.33,4.0635,-1.3545,-0.38909,5.418,-2.3548e-10,-0.19455,0,0,0.1,-2.3685e-16,0,0.66667
0.79238,0.9928,7.9238,0.73919,36.665,58.363,-15.619,5.2064,-0.055897,-20.826,-3.2607e-11,-0.027949,0,0,0.1,-0,9.0318e-17,0.66667
0.79525,0.63474,7.9525,0.20211,9.7962,55.129,-4.286,1.4287,-1.8568,-5.7147,-1.8454e-11,-0.92841,0,0,0.1,-0,-0,0.66667
0.87224,0.73008,8.7224,0.34512,10.848,23.107,-8.0274,2.6758,-1.5768,-10.703,8.3418e-09,-0.78838,0,0,0.1,1.8948e-15,0,0.66667
0.31426,0.1988,3.1426,-0.4518,-54.123,493.67,3.7862,-1.2621,-1.276,5.0482,-6.0729e-12,-0.63798,0,0,0.1,-0,-0,0.66667
0.13293,0.97676,1.3293,0.71514,93.629,725.28,-2.5349,0.84498,-0.17873,-3.3799,-5.6131e-08,-0.089367,0,0,0.1,-0,-0,0.66667
0.7967,0.4663,7.967,-0.050555,-2.4328,54.262,1.0741,-0.35802,-1.9966,1.4321,7.4951e-11,-0.99831,0,0,0.1,9.4739e-16,0,0.66667
0.56746,0.72882,5.6746,0.34323,30.869,219.91,-5.1938,1.7313,-1.5792,-6.9251,-1.9806e-12,-0.78958,0,0,0.1,-0,-0,0.66667
0.41465,0.95374,4.1465,0.68061,75.075,376.85,-7.5258,2.5086,-0.34971,-10.034,2.9883e-12,-0.17485,0,0,0.1,-0,-0,0.66667
0.058642,0.28368,0.58642,-0.32448,-42.961,824.15,0.50741,-0.16914,-1.6257,0.67654,7.7927e-08,-0.81284,0,0,0.1,-0,-0,0.66667
0.0065569,0.5739,0.065569,0.11085,14.716,894.22,-0.019382,0.0064605,-1.9534,-0.025842,6.6122e-09,-0.97668,0,0,0.1,-0,-0,0.66667
0.31602,0.75669,3.1602,0.38504,46.046,491.45,-3.2448,1.0816,-1.4726,-4.3264,3.2241e-13,-0.7363,0,0,0.1,-0,-0,0.66667
0.27146,0.081049,2.7146,-0.62843,-77.506,546.63,4.5491,-1.5164,-0.59314,6.0655,-8.7113e-12,-0.29657,0,0,0.1,-0,-0,0.66667
0.47572,0.10702,4.7572,-0.58947,-60.677,310.6,7.478,-2.4927,-0.76138,9.9707,-3.9919e-12,-0.38069,0,0,0.1,-9.4739e-16,0,0.66667
0.92361,0.70004,9.2361,0.30007,5.7319,9.0338,-7.3905,2.4635,-1.6816,-9.8541,9.9515e-08,-0.84078,0,0,0.1,-0,-0,0.66667
0.41668,0.22976,4.1668,-0.40536,-44.497,374.03,4.5042,-1.5014,-1.4135,6.0056,2.8386e-12,-0.70677,0,0,0.1,-9.4739e-16,0,0.66667
0.28788,0.10823,2.8788,-0.58766,-71.728,526.18,4.5114,-1.5038,-0.76903,6.0152,1.5077e-12,-0.38451,0,0,0.1,-0,-0,0.66667
0.84525,0.91623,8.4525,0.62435,23.66,33.941,-14.073,4.6909,-0.61627,-18.764,5.4428e-09,-0.30813,0,0,0.1,-0,-0,0.66667
0.30695,0.78329,3.0695,0.42494,51.152,502.54,-3.4783,1.1594,-1.3566,-4.6377,2.4951e-12,-0.67832,0,0,0.1,-9.4739e-16,0,0.66667
0.91558,0.72742,9.1558,0.34113,7.1972,10.903,-8.3289,2.7763,-1.5836,-11.105,5.6232e-08,-0.7918,0,0,0.1,-0,-0,0.66667
0.86341,0.41234,8.6341,-0.13149,-4.388,25.744,3.0275,-1.0092,-1.9378,4.0367,-2.4447e-09,-0.96889,0,0,0.1,-0,-0,0.66667
0.63882,0.45407,6.3882,-0.068897,-5.3976,158.12,1.1737,-0.39123,-1.9847,1.5649,-1.3118e-12,-0.99233,0,0,0.1,9.4739e-16,0,0.66667
0.74768,0.11919,7.4768,-0.57122,-33.446,82.409,11.389,-3.7963,-0.84126,15.185,-1.6627e-11,-0.42063,0,0,0.1,-0,-0,0.66667
0.15732,0.51803,1.5732,0.02704,3.5003,692.79,-0.11344,0.037813,-2.0002,-0.15125,-1.9094e-10,-1.0001,0,0,0.1,-4.737e-16,0,0.66667
0.60287,0.40279,6.0287,-0.14582,-12.294,188.13,2.3442,-0.78141,-1.9224,3.1257,-3.314e-12,-0.96119,0,0,0.1,1.5996e-15,0,0.66667
0.32704,0.77317,3.2704,0.40975,48.623,478.16,-3.5734,1.1911,-1.4062,-4.7646,-2.2236e-12,-0.70309,0,0,0.1,-0,-0,0.66667
0.48868,0.32935,4.8868,-0.25597,-25.847,296.57,3.3357,-1.1119,-1.7654,4.4475,-2.2118e-12,-0.8827,0,0,0.1,-9.4739e-16,0,0.66667
0.22539,0.050825,2.2539,-0.67376,-85.196,604.89,4.0495,-1.3498,-0.38294,5.3993,-1.7779e-10,-0.19147,0,0,0.1,2.3685e-16,0,0.66667
0.90196,0.60304,9.0196,0.15455,3.7563,13.882,-3.7174,1.2391,-1.9137,-4.9565,2.2943e-08,-0.95686,0,0,0.1,-0,-0,0.66667
0.41153,0.42271,4.1153,-0.11593,-12.773,379.51,1.2722,-0.42408,-1.9498,1.6963,-3.301e-12,-0.9749,0,0,0.1,-0,-0,0.66667
0.47673,0.70617,4.7673,0.30926,31.713,309.01,-3.9316,1.3105,-1.6567,-5.2421,-2.3046e-12,-0.82836,0,0,0.1,4.737e-16,0,0.66667
0.7214,0.15836,7.214,-0.51246,-32.609,98.667,9.8584,-3.2861,-1.0678,13.145,1.4934e-11,-0.5339,0,0,0.1,-0,-0,0.66667
0.1222,0.17644,1.222,-0.48533,-63.58,739.33,1.5815,-0.52717,-1.1627,2.1087,-1.358e-09,-0.58135,0,0,0.1,1.1842e-16,0,0.66667
0.50307,0.68793,5.0307,0.28189,27.932,281.94,-3.7816,1.2605,-1.7188,-5.0421,-1.698e-12,-0.8594,0,0,0.1,-1.8948e-15,0,0.66667
0.81315,0.36156,8.1315,-0.20766,-9.2684,46.455,4.5028,-1.5009,-1.8503,6.0037,-5.0583e-11,-0.92514,0,0,0.1,-0,-0,0.66667
0.67734,0.69818,6.7734,0.29728,21.306,128.72,-5.3695,1.7898,-1.6834,-7.1594,-2.9203e-12,-0.8417,0,0,0.1,1.8948e-15,0,0.66667
0.32165,0.80098,3.2165,0.45147,53.8,484.71,-3.8724,1.2908,-1.2724,-5.1632,-3.8016e-12,-0.63619,0,0,0.1,4.737e-16,0,0.66667
0.71067,0.039029,7.1067,-0.69146,-45.571,106.46,13.104,-4.368,-0.2972,17.472,1.5214e-12,-0.1486,0,0,0.1,1.8948e-15,0,0.66667
0.93444,0.58484,9.3444,0.12727,2.0799,6.6017,-3.1713,1.0571,-1.9425,-4.2284,2.9907e-08,-0.97123,0,0,0.1,9.4739e-16,0,0.66667
0.89478,0.50953,8.9478,0.014295,0.37166,15.736,-0.34108,0.11369,-1.998,-0.45478,3.606e-08,-0.99902,0,0,0.1,-0,-0,0.66667
0.74223,0.14996,7.4223,-0.52505,-31.283,85.54,10.392,-3.4641,-1.0171,13.856,3.6895e-12,-0.50856,0,0,0.1,-4.737e-16,0,0.66667
0.2661,0.93073,2.661,0.64609,79.948,553.35,-4.5847,1.5282,-0.52023,-6.1129,-8.7739e-12,-0.26012,0,0,0.1,-0,-0,0.66667
0.37249,0.86234,3.7249,0.54351,62.263,424.59,-5.3987,1.7996,-0.95019,-7.1983,-1.7812e-12,-0.47509,0,0,0.1,3.2581e-17,0,0.66667
0.55842,0.31668,5.5842,-0.27499,-25.093,228.17,4.0948,-1.3649,-1.7306,5.4598,-4.2828e-12,-0.86532,0,0,0.1,1.8948e-15,0,0.66667
0.38105,0.070133,3.8105,-0.6448,-73.392,414.89,6.552,-2.184,-0.51929,8.736,-4.7971e-12,-0.25965,0,0,0.1,-0,-0,0.66667
0.45575,0.84494,4.5575,0.51742,54.501,331.55,-6.2883,2.0961,-1.0499,-8.3844,-6.4571e-13,-0.52494,0,0,0.1,-0,-0,0.66667
0.79353,0.18086,7.9353,-0.47872,-23.471,56.663,10.13,-3.3767,-1.1851,13.507,6.2922e-11,-0.59256,0,0,0.1,-4.737e-16,0,0.66667
0.10394,0.71371,1.0394,0.32057,42.128,763.54,-0.88853,0.29618,-1.6329,-1.1847,-3.3226e-08,-0.81644,0,0,0.1,1.7764e-16,0,0.66667
0.973,0.92263,9.73,0.63395,4.3977,3.0839,-16.449,5.4829,-0.56949,-21.932,-2.3288e-05,-0.28474,0,0,0.1,-1.8948e-15,0,0.66667
0.70462,0.8528,7.0462,0.52921,35.373,109.94,-9.9437,3.3146,-1.0066,-13.258,-1.0036e-13,-0.50329,0,0,0.1,-0,-0,0.66667
0.86473,0.52076,8.6473,0.031139,1.0292,25.218,-0.71806,0.23935,-1.9943,-0.95741,1.0057e-09,-0.99713,0,0,0.1,-0,-0,0.66667
0.78168,0.68811,7.8168,0.28216,14.493,62.296,-5.8816,1.9605,-1.7225,-7.8421,-4.4582e-11,-0.86124,0,0,0.1,-1.8948e-15,0,0.66667
0.43218,0.39892,4.3218,-0.15162,-16.355,356.61,1.7474,-0.58245,-1.9163,2.3298,-3.3762e-13,-0.95815,0,0,0.1,-0,-0,0.66667
0.94251,0.66326,9.4251,0.24489,3.5187,5.3877,-6.155,2.0517,-1.785,-8.2067,3.1772e-08,-0.89252,0,0,0.1,-0,-0,0.66667
0.25309,0.76368,2.5309,0.39553,49.192,569.4,-2.6694,0.8898,-1.4435,-3.5592,9.5635e-12,-0.72174,0,0,0.1,-0,-0,0.66667
0.046248,0.68612,0.46248,0.27918,37.004,840.8,-0.34431,0.11477,-1.7279,-0.45908,5.9976e-08,-0.86395,0,0,0.1,2.9051e-17,0,0.66667
0.096878,0.058385,0.96878,-0.66242,-87.409,773.1,1.7113,-0.57044,-0.44038,2.2818,6.8254e-09,-0.22019,0,0,0.1,5.9212e-17,0,0.66667
0.20074,0.92202,2.0074,0.63304,80.897,636.52,-3.3886,1.1295,-0.57581,-4.5182,1.8118e-10,-0.2879,0,0,0.1,-0,-0,0.66667
0.53908,0.92003,5.3908,0.63004,59.484,247.22,-9.0571,3.019,-0.58536,-12.076,-2.8386e-12,-0.29268,0,0,0.1,9.4739e-16,0,0.66667
0.2236,0.96428,2.236,0.69642,88.158,607.2,-4.1526,1.3842,-0.27429,-5.5368,4.907e-11,-0.13714,0,0,0.1,-0,-0,0.66667
0.83532,0.38831,8.3532,-0.16754,-6.6587,36.611,3.732,-1.244,-1.897,4.976,-5.6364e-10,-0.9485,0,0,0.1,-0,-0,0.66667
0.0093387,0.58342,0.093387,0.12514,16.613,890.47,-0.031163,0.010388,-1.9415,-0.041551,-2.5244e-07,-0.97077,0,0,0.1,-7.4015e-18,0,0.66667
0.7459,0.015099,7.459,-0.72735,-42.998,84.15,14.468,-4.8225,-0.11753,19.29,6.3949e-14,-0.058764,0,0,0.1,-1.8948e-15,0,0.66667
0.96901,0.0082624,9.6901,-0.73761,-5.9874,4.0496,19.06,-6.3533,-0.070218,25.413,-1.3549e-05,-0.035109,0,0,0.1,3.7896e-15,0,0.66667
0.26718,0.74307,2.6718,0.36461,44.981,551.66,-2.5978,0.86593,-1.5298,-3.4637,2.7522e-12,-0.7649,0,0,0.1,-2.3685e-16,0,0.66667
0.62382,0.32965,6.2382,-0.25552,-20.68,170.54,4.2506,-1.4169,-1.7704,5.6675,-1.4539e-12,-0.88522,0,0,0.1,9.4739e-16,0,0.66667
0.71478,0.52636,7.1478,0.039541,2.5556,102.2,-0.75369,0.25123,-1.9939,-1.0049,-1.3439e-12,-0.99697,0,0,0.1,-0,-0,0.66667
0.32696,0.7978,3.2696,0.4467,53.025,478.3,-3.8947,1.2982,-1.2931,-5.1929,-1.1708e-12,-0.64657,0,0,0.1,-3.872e-16,0,0.66667
0.43313,0.90443,4.3313,0.60665,65.59,356.24,-7.0068,2.3356,-0.69111,-9.3424,-1.6454e-12,-0.34555,0,0,0.1,7.1054e-16,0,0.66667
0.73441,0.54863,7.3441,0.072945,4.4381,89.505,-1.4286,0.47619,-1.9859,-1.9048,-3.6446e-12,-0.99294,0,0,0.1,-0,-0,0.66667
0.13115,0.57227,1.3115,0.10841,14.144,727.34,-0.37915,0.12638,-1.9555,-0.50554,-5.0093e-09,-0.97777,0,0,0.1,-0,-0,0.66667
0.14369,0.47577,1.4369,-0.036347,-4.7251,710.76,0.13927,-0.046423,-1.9955,0.18569,2.8005e-10,-0.99777,0,0,0.1,-0,-0,0.66667
0.37541,0.69567,3.7541,0.2935,33.474,420.85,-2.9382,0.9794,-1.6981,-3.9176,-5.9281e-12,-0.84907,0,0,0.1,-0,-0,0.66667
0.22841,0.19772,2.2841,-0.45343,-57.135,600.78,2.7618,-0.92059,-1.2664,3.6824,-7.7003e-11,-0.63319,0,0,0.1,-0,-0,0.66667
0.30699,0.88371,3.0699,0.57556,69.371,502.7,-4.7117,1.5706,-0.81991,-6.2823,-1.0663e-11,-0.40996,0,0,0.1,-0,-0,0.66667
0.15007,0.072026,1.5007,-0.64196,-83.567,702.62,2.569,-0.85632,-0.53204,3.4253,3.7349e-08,-0.26602,0,0,0.1,-0,-0,0.66667
0.096636,0.18496,0.96636,-0.47256,-62.254,773.33,1.2178,-0.40593,-1.2071,1.6237,4.0185e-08,-0.60357,0,0,0.1,-5.9212e-17,0,0.66667
0.91598,0.64756,9.1598,0.22134,4.6327,10.538,-5.4064,1.8021,-1.8234,-7.2085,4.8988e-08,-0.91168,0,0,0.1,9.4739e-16,0,0.66667
0.34589,0.11261,3.4589,-0.58109,-68.073,455.88,5.3599,-1.7866,-0.80049,7.1465,-1.4913e-12,-0.40024,0,0,0.1,4.737e-16,0,0.66667
0.56597,0.13305,5.6597,-0.55042,-49.733,221.75,8.3072,-2.7691,-0.92244,11.076,-1.6129e-12,-0.46122,0,0,0.1,-0,-0,0.66667
0.5472,0.55488,5.472,0.082323,7.6423,238.54,-1.2012,0.40042,-1.9805,-1.6017,-1.9739e-12,-0.99027,0,0,0.1,4.737e-16,0,0.66667
0.45036,0.74018,4.5036,0.36028,38.132,337.05,-4.3268,1.4423,-1.5388,-5.769,-2.1654e-12,-0.76942,0,0,0.1,-0,-0,0.66667
0.74782,0.86528,7.4782,0.54792,32.051,82.235,-10.926,3.6422,-0.93377,-14.569,3.0687e-12,-0.46689,0,0,0.1,9.4739e-16,0,0.66667
0.33158,0.45399,3.3158,-0.069014,-8.1503,472.46,0.61023,-0.20341,-1.9823,0.81363,-9.4796e-13,-0.99116,0,0,0.1,-4.737e-16,0,0.66667
0.89248,0.95819,8.9248,0.68728,18.583,18.259,-16.357,5.4523,-0.32213,-21.809,3.7636e-07,-0.16107,0,0,0.1,-0,-0,0.66667
0.068033,0.51241,0.68033,0.018622,2.4606,811.52,-0.033785,0.011262,-1.9962,-0.045047,-8.28e-08,-0.99812,0,0,0.1,-0,-0,0.66667
0.57489,0.96135,5.7489,0.69202,61.715,214.06,-10.609,3.5363,-0.29725,-14.145,3.0642e-12,-0.14863,0,0,0.1,-4.737e-16,-8.5628e-17,0.66667
0.33905,0.43135,3.3905,-0.10297,-12.093,463.52,0.93103,-0.31034,-1.9609,1.2414,-1.1784e-12,-0.98047,0,0,0.1,-2.3685e-16,0,0.66667
0.3639,0.66764,3.639,0.25147,28.959,434.22,-2.4402,0.81341,-1.7734,-3.2536,-3.4011e-12,-0.88672,0,0,0.1,-0,-0,0.66667
0.3051,0.37781,3.051,-0.18329,-22.063,504.6,1.4912,-0.49707,-1.8784,1.9883,-7.5486e-12,-0.93922,0,0,0.1,-9.4739e-16,0,0.66667
0.60359,0.94863,6.0359,0.67295,56.961,188.67,-10.832,3.6105,-0.38722,-14.442,5.0537e-13,-0.19361,0,0,0.1,9.4739e-16,0,0.66667
0.23441,0.46749,2.3441,-0.048765,-6.1164,592.92,0.30483,-0.10161,-1.9978,0.40643,-2.3585e-11,-0.99889,0,0,0.1,2.0724e-16,0,0.66667
0.29431,0.43836,2.9431,-0.092459,-11.207,517.82,0.72563,-0.24188,-1.9715,0.96751,-4.9713e-12,-0.98576,0,0,0.1,-0,-0,0.66667
0.28549,0.42049,2.8549,-0.11926,-14.537,528.71,0.90794,-0.30265,-1.9479,1.2106,-5.2025e-12,-0.97393,0,0,0.1,-0,-0,0.66667
0.0067954,0.58364,0.067954,0.12547,16.657,893.9,-0.022736,0.0075785,-1.9411,-0.030315,-2.0496e-07,-0.97055,0,0,0.1,-7.4015e-18,0,0.66667
0.37162,0.0048918,3.7162,-0.74266,-85.338,426.02,7.3597,-2.4532,-0.039085,9.8129,-3.141e-12,-0.019542,0,0,0.1,-0,-6.2543e-17,0.66667
0.048897,0.076676,0.48897,-0.63499,-84.358,837.31,0.82797,-0.27599,-0.56757,1.104,2.2538e-06,-0.28378,0,0,0.1,1.1842e-16,0,0.66667
0.87438,0.14969,8.7438,-0.52546,-16.341,23.013,12.252,-4.084,-1.0224,16.336,5.5087e-10,-0.51122,0,0,0.1,-4.737e-16,0,0.66667
0.72182,0.92676,7.2182,0.64014,40.78,98.865,-12.322,4.1073,-0.5429,-16.429,-1.0364e-11,-0.27145,0,0,0.1,-9.4739e-16,0,0.66667
0.59531,0.62135,5.9531,0.18202,15.569,194.73,-2.8896,0.9632,-1.8851,-3.8528,-1.8918e-13,-0.94257,0,0,0.1,2.3685e-16,0,0.66667
0.74388,0.72732,7.4388,0.34099,20.149,84.01,-6.764,2.2547,-1.584,-9.0187,-1.4321e-11,-0.79202,0,0,0.1,-0,-0,0.66667
0.90109,0.89498,9.0109,0.59247,14.724,15.42,-14.237,4.7455,-0.74973,-18.982,2.7637e-08,-0.37486,0,0,0.1,9.4739e-16,0,0.66667
0.69409,0.53893,6.9409,0.058402,4.0016,116.39,-1.081,0.36032,-1.9852,-1.4413,-1.8197e-13,-0.99262,0,0,0.1,-0,-0,0.66667
0.59076,0.78029,5.9076,0.42044,36.326,199.11,-6.6234,2.2078,-1.3728,-8.8312,3.0411e-12,-0.6864,0,0,0.1,-1.2434e-15,0,0.66667
0.12426,0.25482,1.2426,-0.36778,-48.117,736.54,1.2187,-0.40622,-1.5233,1.6249,9.1828e-09,-0.76164,0,0,0.1,4.737e-16,0,0.66667
0.40458,0.13421,4.0458,-0.54868,-61.034,387.85,5.9196,-1.9732,-0.93164,7.8929,-3.8805e-12,-0.46582,0,0,0.1,-0,-0,0.66667
0.57895,0.47578,5.7895,-0.036332,-3.1994,209.17,0.56091,-0.18697,-1.999,0.74789,-1.6898e-12,-0.99952,0,0,0.1,-0,-0,0.66667
0.60284,0.39327,6.0284,-0.16009,-13.499,188.16,2.5736,-0.85787,-1.9059,3.4315,-9.0306e-13,-0.95293,0,0,0.1,-7.1391e-16,0,0.66667
0.96078,0.57742,9.6078,0.11613,1.1247,2.6376,-2.9753,0.99178,-1.9488,-3.9671,-3.3734e-08,-0.97439,0,0,0.1,-0,-0,0.66667
0.2055,0.25097,2.055,-0.37355,-47.539,630.13,2.047,-0.68235,-1.506,2.7294,-5.9657e-11,-0.75302,0,0,0.1,-0,-0,0.66667
0.66315,0.28458,6.6315,-0.32312,-23.983,139.38,5.7141,-1.9047,-1.6267,7.6189,-8.6731e-13,-0.81333,0,0,0.1,-0,-0,0.66667
0.25643,0.71292,2.5643,0.31938,39.632,565.13,-2.184,0.72799,-1.635,-2.912,4.9525e-12,-0.81748,0,0,0.1,1.1842e-16,0,0.66667
0.41776,0.90282,4.1776,0.60424,66.38,373.2,-6.7314,2.2438,-0.70145,-8.9751,1.5543e-12,-0.35072,0,0,0.1,-5.8686e-16,0,0.66667
0.97195,0.79455,9.7195,0.44182,3.0901,2.2797,-11.451,3.8171,-1.3055,-15.269,-2.1986e-06,-0.65276,0,0,0.1,-0,-0,0.66667
0.33108,0.21938,3.3108,-0.42092,-49.803,473.32,3.7162,-1.2387,-1.3715,4.955,1.6356e-12,-0.68574,0,0,0.1,-9.4739e-16,0,0.66667
0.36202,0.80588,3.6202,0.45882,52.991,436.66,-4.4295,1.4765,-1.2523,-5.9059,-5.2229e-12,-0.62617,0,0,0.1,-0,-0,0.66667
0.43957,0.88818,4.3957,0.58227,62.5,349.15,-6.8253,2.2751,-0.79569,-9.1004,-7.4696e-13,-0.39784,0,0,0.1,-0,-0,0.66667
0.040668,0.2298,0.40668,-0.4053,-53.784,848.31,0.43954,-0.14651,-1.4131,0.58605,3.4202e-07,-0.70657,0,0,0.1,-0,-0,0.66667
0.39857,0.98348,3.9857,0.72522,81.308,395.05,-7.708,2.5693,-0.1267,-10.277,-4.583e-13,-0.063348,0,0,0.1,9.44e-16,0,0.66667
0.61899,0.75301,6.1899,0.37952,31.05,174.77,-6.2645,2.0882,-1.4861,-8.3526,1.9158e-12,-0.74307,0,0,0.1,-1.8948e-15,0,0.66667
0.57808,0.34732,5.7808,-0.22902,-20.211,210.09,3.5305,-1.1768,-1.8193,4.7073,-7.0115e-12,-0.90964,0,0,0.1,1.8948e-15,0,0.66667
0.87341,0.69227,8.7341,0.2884,8.9758,22.58,-6.7171,2.239,-1.707,-8.9561,9.2199e-09,-0.85349,0,0,0.1,-0,-0,0.66667
0.64119,0.48266,6.4119,-0.02601,-2.0271,156.22,0.44472,-0.14824,-2.0013,0.59296,-8.3464e-13,-1.0007,0,0,0.1,-0,-0,0.66667
0.55696,0.28943,5.5696,-0.31585,-28.898,229.59,4.691,-1.5637,-1.6431,6.2547,-1.275e-12,-0.82154,0,0,0.1,-0,-0,0.66667
0.64065,0.67751,6.4065,0.26626,20.795,156.85,-4.5488,1.5163,-1.753,-6.0651,1.8852e-12,-0.87648,0,0,0.1,-9.4739e-16,0,0.66667
0.047617,0.81433,0.47617,0.47149,62.557,838.99,-0.59869,0.19956,-1.2143,-0.79825,-4.7926e-07,-0.60715,0,0,0.1,-1.1842e-16,0,0.66667
0.99612,0.68887,9.9612,0.28331,0.15076,0.43039,-7.5255,2.5085,-1.7148,-10.034,9.5316e-07,-0.85741,0,0,0.1,-0,-0,0.66667
0.15171,0.22945,1.5171,-0.40583,-52.698,700.29,1.6418,-0.54726,-1.4127,2.189,1.3077e-09,-0.70636,0,0,0.1,-0,-0,0.66667
0.41845,0.81781,4.1845,0.47671,52.267,372.18,-5.3195,1.7732,-1.192,-7.0926,-2.3048e-13,-0.596,0,0,0.1,-0,-0,0.66667
0.29525,0.80281,2.9525,0.45422,55.116,516.91,-3.5763,1.1921,-1.2685,-4.7683,-2.1003e-12,-0.63425,0,0,0.1,-2.3685e-16,0,0.66667
0.57722,0.81039,5.7722,0.46559,41.228,211.29,-7.1666,2.3889,-1.2336,-9.5555,1.1022e-12,-0.6168,0,0,0.1,-3.5527e-16,0,0.66667
0.55956,0.38471,5.5956,-0.17294,-15.743,226.99,2.5805,-0.86016,-1.8938,3.4406,-6.1307e-13,-0.9469,0,0,0.1,-0,-0,0.66667
0.35211,0.38676,3.5211,-0.16986,-19.746,448.03,1.595,-0.53166,-1.8943,2.1266,-6.172e-12,-0.94714,0,0,0.1,-0,-0,0.66667
0.97363,0.5925,9.7363,0.13875,0.88466,1.3759,-3.6024,1.2008,-1.9309,-4.8032,-1.3565e-07,-0.96543,0,0,0.1,2.4869e-15,0,0.66667
0.75127,0.074357,7.5127,-0.63846,-36.979,80.533,12.791,-4.2636,-0.55315,17.055,3.8265e-11,-0.27657,0,0,0.1,-0,-0,0.66667
0.88984,0.47627,8.8984,-0.035598,-0.96739,17.151,0.8447,-0.28157,-1.9993,1.1263,2.9574e-10,-0.99963,0,0,0.1,-0,-0,0.66667
0.45541,0.35388,4.5541,-0.21918,-23.046,331.47,2.6618,-0.88727,-1.8302,3.5491,-3.9353e-12,-0.9151,0,0,0.1,9.4739e-16,0,0.66667
0.59941,0.38751,5.9941,-0.16873,-14.321,191.15,2.697,-0.89901,-1.8962,3.596,-6.8345e-13,-0.94809,0,0,0.1,-9.4739e-16,0,0.66667
0.41345,0.26606,4.1345,-0.3509,-38.629,377.57,3.8689,-1.2896,-1.559,5.1585,8.6908e-13,-0.77948,0,0,0.1,-9.4739e-16,0,0.66667
0.30426,0.81819,3.0426,0.47729,57.582,505.9,-3.8725,1.2908,-1.1875,-5.1633,-1.422e-12,-0.59373,0,0,0.1,-9.4739e-16,0,0.66667
0.52547,0.88331,5.2547,0.57497,55.356,260.24,-8.0567,2.6856,-0.82223,-10.742,-7.0166e-13,-0.41111,0,0,0.1,-9.4739e-16,0,0.66667
0.19097,0.46084,1.9097,-0.058738,-7.5121,648.82,0.29912,-0.099707,-1.9874,0.39883,8.464e-12,-0.99369,0,0,0.1,1.1842e-16,0,0.66667
0.2141,0.36253,2.141,-0.2062,-26.122,618.96,1.1773,-0.39242,-1.8469,1.5697,-5.3192e-11,-0.92347,0,0,0.1,-2.3685e-16,0,0.66667
0.51079,0.3033,5.1079,-0.29505,-28.93,274.2,4.0188,-1.3396,-1.6887,5.3584,-1.0885e-12,-0.84433,0,0,0.1,-4.737e-16,0,0.66667
0.013852,0.4555,0.13852,-0.066746,-8.8592,884.39,0.024656,-0.0082194,-1.9858,0.032874,-1.3954e-06,-0.99289,0,0,0.1,-0,-0,0.66667
0.44549,0.60343,4.4549,0.15514,16.494,342.1,-1.843,0.61434,-1.9114,-2.4574,-6.0085e-13,-0.9557,0,0,0.1,-0,-0,0.66667
0.9967,0.13602,9.967,-0.54597,-0.32982,1.3818,14.511,-4.8371,-0.93974,19.348,6.4011e-07,-0.46987,0,0,0.1,-0,-1.0813e-16,0.66667
0.82268,0.39534,8.2268,-0.157,-6.6777,42.046,3.4442,-1.1481,-1.91,4.5923,-2.594e-10,-0.95499,0,0,0.1,-0,-0,0.66667
0.083461,0.43763,0.83461,-0.093562,-12.334,790.85,0.20823,-0.069411,-1.9681,0.27764,9.8523e-09,-0.98405,0,0,0.1,-2.3685e-16,0,0.66667
0.65589,0.91258,6.5589,0.61887,46.903,145.76,-10.824,3.6081,-0.64296,-14.432,-1.2221e-12,-0.32148,0,0,0.1,-0,7.6509e-17,0.66667
0.22539,0.92737,2.2539,0.64106,81.031,604.84,-3.8531,1.2844,-0.53594,-5.1374,6.6586e-11,-0.26797,0,0,0.1,-0,-0,0.66667
0.11796,0.88753,1.1796,0.5813,76.293,745.02,-1.8285,0.60949,-0.7954,-2.438,-1.0189e-08,-0.3977,0,0,0.1,-0,-0,0.66667
0.34868,0.49436,3.4868,-0.0084663,-0.98665,452.05,0.07872,-0.02624,-1.9983,0.10496,-6.4934e-13,-0.99914,0,0,0.1,-1.6579e-15,0,0.66667
0.67717,0.62839,6.7717,0.19259,13.798,128.69,-3.4777,1.1592,-1.8667,-4.6369,1.0196e-12,-0.93337,0,0,0.1,-0,-0,0.66667
0.55076,0.47968,5.5076,-0.030475,-2.813,235.16,0.44759,-0.1492,-1.9956,0.59679,-1.1844e-12,-0.99781,0,0,0.1,-0,-0,0.66667
0.043963,0.78433,0.43963,0.42649,56.587,843.89,-0.49999,0.16666,-1.3543,-0.66666,-5.2078e-07,-0.67714,0,0,0.1,-0,-0,0.66667
0.85675,0.0087876,8.5675,-0.73682,-26.115,30.149,16.834,-5.6113,-0.070322,22.445,-8.3952e-09,-0.035161,0,0,0.1,-3.7896e-15,-9.5747e-17,0.66667
0.4776,0.76365,4.776,0.39548,40.536,308.24,-5.0367,1.6789,-1.4408,-6.7156,3.3542e-12,-0.7204,0,0,0.1,-9.4739e-16,0,0.66667
0.85678,0.40213,8.5678,-0.1468,-5.123,28.156,3.3541,-1.118,-1.9246,4.4721,-2.3236e-09,-0.96232,0,0,0.1,-9.4739e-16,0,0.66667
0.18765,0.18459,1.8765,-0.47311,-60.694,653.31,2.3675,-0.78916,-1.2098,3.1567,2.6536e-10,-0.60491,0,0,0.1,-0,-0,0.66667
0.083733,0.59121,0.83733,0.13681,18.037,790.49,-0.30549,0.10183,-1.932,-0.40732,-3.6974e-08,-0.96601,0,0,0.1,5.9212e-17,0,0.66667
0.51597,0.75327,5.1597,0.37991,37.004,269.17,-5.2272,1.7424,-1.4921,-6.9696,-5.2194e-12,-0.74603,0,0,0.1,1.8948e-15,0,0.66667
0.45454,0.079215,4.5454,-0.63118,-66.662,333.1,7.6506,-2.5502,-0.58569,10.201,2.9043e-13,-0.29285,0,0,0.1,-9.4739e-16,0,0.66667
0.013894,0.80385,0.13894,0.45578,60.591,884.35,-0.16887,0.056291,-1.2634,-0.22516,-3.2117e-07,-0.63169,0,0,0.1,1.4803e-17,0,0.66667
0.039355,0.13732,0.39355,-0.54401,-72.273,850.1,0.57092,-0.1903,-0.94454,0.76123,2.6618e-06,-0.47227,0,0,0.1,-5.9212e-17,0,0.66667
0.093633,0.42198,0.93633,-0.11702,-15.4,777.26,0.2922,-0.097399,-1.9559,0.3896,1.9734e-08,-0.97796,0,0,0.1,-1.1842e-16,0,0.66667
0.040677,0.40013,0.40677,-0.14981,-19.858,848.28,0.16251,-0.054169,-1.9179,0.21667,-1.7637e-07,-0.95895,0,0,0.1,-2.9606e-17,0,0.66667
0.17574,0.76862,1.7574,0.40294,51.898,668.79,-1.8883,0.62944,-1.4216,-2.5177,-1.6509e-10,-0.71079,0,0,0.1,-2.3685e-16,0,0.66667
0.57554,0.29493,5.7554,-0.3076,-27.279,212.49,4.7209,-1.5736,-1.664,6.2946,-2.2009e-12,-0.83198,0,0,0.1,9.4739e-16,0,0.66667
0.47675,0.54357,4.7675,0.065361,6.6961,308.8,-0.83096,0.27699,-1.9816,-1.1079,-4.195e-13,-0.9908,0,0,0.1,-0,-0,0.66667
0.97977,0.095186,9.7977,-0.60722,-3.1206,2.4343,15.865,-5.2883,-0.68848,21.153,1.1158e-05,-0.34424,0,0,0.1,-3.7896e-15,0,0.66667
0.070737,0.36442,0.70737,-0.20337,-26.87,807.91,0.38361,-0.12787,-1.8499,0.51149,7.1143e-08,-0.92494,0,0,0.1,-0,-0,0.66667
0.86742,0.45709,8.6742,-0.06437,-2.0877,24.296,1.489,-0.49632,-1.9821,1.9853,-4.8072e-10,-0.99105,0,0,0.1,-9.4739e-16,0,0.66667
0.57852,0.75118,5.7852,0.37678,33.259,209.92,-5.8126,1.9375,-1.5008,-7.7501,-7.3985e-13,-0.75038,0,0,0.1,-0,-0,0.66667
0.87648,0.76618,8.7648,0.39927,12.173,21.878,-9.3321,3.1107,-1.4353,-12.443,7.0787e-09,-0.71763,0,0,0.1,-1.8948e-15,0,0.66667
0.055714,0.13538,0.55714,-0.54694,-72.549,828.13,0.81258,-0.27086,-0.93344,1.0834,-2.3349e-07,-0.46672,0,0,0.1,-0,-0,0.66667
0.099154,0.065607,0.99154,-0.65159,-85.931,770.07,1.7229,-0.57429,-0.48901,2.2971,-1.9628e-07,-0.24451,0,0,0.1,-0,-0,0.66667
0.86309,0.33672,8.6309,-0.24493,-8.202,26.02,5.6372,-1.8791,-1.7862,7.5162,-4.629e-09,-0.89309,0,0,0.1,1.4211e-15,0,0.66667
0.57038,0.17495,5.7038,-0.48757,-43.695,217.54,7.4161,-2.472,-1.1515,9.8881,-3.2045e-12,-0.57577,0,0,0.1,9.4739e-16,0,0.66667
0.55849,0.65161,5.5849,0.22742,20.744,228.04,-3.387,1.129,-1.8156,-4.5161,-2.3239e-12,-0.9078,0,0,0.1,-2.3685e-16,0,0.66667
0.013013,0.89615,0.13013,0.59422,79.087,885.54,-0.20619,0.068719,-0.74505,-0.27493,-1.6735e-05,-0.37253,0,0,0.1,-0,-0,0.66667
0.64225,0.11172,6.4225,-0.58241,-45.488,156.33,9.9748,-3.3249,-0.7958,13.3,-2.3546e-12,-0.3979,0,0,0.1,9.4739e-16,0,0.66667
0.84766,0.59015,8.4766,0.13523,4.9987,31.597,-3.0568,1.0189,-1.9347,-4.0757,1.8667e-09,-0.96737,0,0,0.1,1.1842e-15,0,0.66667
0.99613,0.38683,9.9613,-0.16975,-0.081058,0.20251,4.5091,-1.503,-1.8964,6.0121,-5.2229e-07,-0.94822,0,0,0.1,-0,-0,0.66667
0.43295,0.31054,4.3295,-0.28419,-30.647,355.87,3.2811,-1.0937,-1.7123,4.3748,-9.801e-13,-0.85614,0,0,0.1,1.1842e-16,0,0.66667
0.31141,0.19017,3.1141,-0.46475,-55.79,497.15,3.8594,-1.2865,-1.2359,5.1459,2.5069e-13,-0.61797,0,0,0.1,-9.4739e-16,0,0.66667
0.40477,0.16796,4.0477,-0.49806,-55.365,387.55,5.376,-1.792,-1.1202,7.168,1.8141e-12,-0.56008,0,0,0.1,-9.4739e-16,0,0.66667
0.22803,0.4193,2.2803,-0.12104,-15.231,601.08,0.73602,-0.24534,-1.945,0.98136,-2.1893e-11,-0.97248,0,0,0.1,-0,-0,0.66667
0.2261,0.81613,2.261,0.4742,59.828,603.75,-2.8591,0.95302,-1.1982,-3.8121,6.1183e-11,-0.59912,0,0,0.1,-4.737e-16,0,0.66667
0.43364,0.22349,4.3364,-0.41477,-44.735,355.29,4.7963,-1.5988,-1.388,6.3951,-2.168e-12,-0.69398,0,0,0.1,-0,-0,0.66667
0.68454,0.32333,6.8454,-0.265,-18.641,123.42,4.8374,-1.6125,-1.7503,6.4499,-7.8071e-13,-0.87516,0,0,0.1,-0,-0,0.66667
0.66074,0.85717,6.6074,0.53576,40.095,141.76,-9.4399,3.1466,-0.97764,-12.587,-1.0036e-12,-0.48882,0,0,0.1,-0,-0,0.66667
0.77249,0.27764,7.7249,-0.33354,-17.778,67.385,6.8709,-2.2903,-1.6023,9.1612,3.2116e-11,-0.80114,0,0,0.1,-1.1842e-15,0,0.66667
0.21681,0.25066,2.1681,-0.37401,-47.36,615.56,2.1624,-0.72081,-1.5055,2.8832,-4.5833e-11,-0.75276,0,0,0.1,-0,-0,0.66667
0.72871,0.40707,7.2871,-0.1394,-8.6381,93.165,2.7088,-0.90292,-1.9298,3.6117,7.7671e-13,-0.96489,0,0,0.1,1.8948e-15,0,0.66667
0.79525,0.59001,7.9525,0.13502,6.541,55.045,-2.8633,0.95444,-1.938,-3.8178,-4.0541e-11,-0.969,0,0,0.1,-4.737e-16,0,0.66667
0.56181,0.50053,5.6181,0.00080059,0.072585,224.82,-0.011994,0.0039981,-2.0051,-0.015992,-7.2635e-12,-1.0025,0,0,0.1,3.7896e-15,0,0.66667
0.46567,0.96338,4.6567,0.69507,72.522,321.44,-8.6313,2.8771,-0.28266,-11.508,-2.9488e-13,-0.14133,0,0,0.1,-0,6.7388e-17,0.66667
0.1582,0.082714,1.582,-0.62593,-81.258,691.92,2.6406,-0.88019,-0.60843,3.5208,8.4619e-10,-0.30421,0,0,0.1,2.3685e-16,0,0.66667
0.046453,0.33579,0.46453,-0.24631,-32.642,840.52,0.30511,-0.1017,-1.7887,0.40682,-8.4022e-08,-0.89435,0,0,0.1,-0,-0,0.66667
0.46383,0.13498,4.6383,-0.54753,-57.149,323.01,6.7723,-2.2574,-0.93214,9.0298,-7.331e-12,-0.46607,0,0,0.1,-0,-0,0.66667
0.6543,0.80689,6.543,0.46033,34.933,146.49,-8.0318,2.6773,-1.2486,-10.709,-4.956e-13,-0.62429,0,0,0.1,-5.5997e-16,0,0.66667
0.21255,0.23422,2.1255,-0.39868,-50.588,621.07,2.2597,-0.75322,-1.4319,3.0129,-6.6215e-11,-0.71597,0,0,0.1,-4.737e-16,0,0.66667
0.39995,0.31306,3.9995,-0.28042,-31.267,392.7,2.9907,-0.99691,-1.719,3.9876,7.8582e-13,-0.85951,0,0,0.1,9.4739e-16,0,0.66667
0.49764,0.13385,4.9764,-0.54923,-54.947,287.93,7.2884,-2.4295,-0.92847,9.7179,-4.1367e-12,-0.46424,0,0,0.1,-0,-0,0.66667
0.9549,0.56247,9.549,0.093712,1.0477,3.3468,-2.3863,0.79543,-1.9721,-3.1817,1.2166e-07,-0.98603,0,0,0.1,-2.213e-15,0,0.66667
0.87745,0.93564,8.7745,0.65347,19.956,22.609,-15.29,5.0967,-0.4836,-20.387,2.2697e-07,-0.2418,0,0,0.1,1.1842e-15,0,0.66667
0.87405,0.9128,8.7405,0.61921,19.372,23.537,-14.432,4.8108,-0.64031,-19.243,1.7873e-08,-0.32016,0,0,0.1,-0,-0,0.66667
0.9966,0.1661,9.966,-0.50086,-0.29137,1.1748,13.311,-4.4369,-1.1076,17.748,-1.7388e-06,-0.55381,0,0,0.1,1.8948e-15,-1.0223e-16,0.66667
0.77345,0.46386,7.7345,-0.054206,-2.8723,66.483,1.118,-0.37267,-1.9871,1.4907,2.404e-11,-0.99354,0,0,0.1,-9.4739e-16,0,0.66667
0.20306,0.40338,2.0306,-0.14493,-18.446,633.17,0.78479,-0.2616,-1.9312,1.0464,-6.0667e-11,-0.96559,0,0,0.1,5.9212e-17,0,0.66667
0.83989,0.6164,8.3989,0.1746,6.7619,34.739,-3.9106,1.3035,-1.8907,-5.2142,8.8649e-10,-0.94537,0,0,0.1,-9.4739e-16,0,0.66667
0.16625,0.80773,1.6625,0.4616,59.678,681.24,-2.0464,0.68213,-1.2406,-2.7285,2.4447e-10,-0.6203,0,0,0.1,-0,-0,0.66667
0.88909,0.90186,8.8909,0.6028,16.716,18.803,-14.292,4.7639,-0.71089,-19.056,-2.0288e-08,-0.35545,0,0,0.1,-9.4739e-16,0,0.66667
0.33858,0.2391,3.3858,-0.39135,-46.032,464.3,3.5334,-1.1778,-1.4533,4.7112,-3.3231e-12,-0.72663,0,0,0.1,4.737e-16,0,0.66667
0.28794,0.9023,2.8794,0.60344,73.664,526.13,-4.6336,1.5445,-0.7031,-6.1781,-2.2888e-12,-0.35155,0,0,0.1,-1.1842e-16,0,0.66667
0.60622,0.68511,6.0622,0.27767,23.277,185.4,-4.4888,1.4963,-1.7267,-5.9851,-5.5289e-13,-0.86335,0,0,0.1,-1.0658e-15,0,0.66667
0.060612,0.36258,0.60612,-0.20613,-27.272,821.49,0.33317,-0.11106,-1.8504,0.44422,2.6858e-08,-0.9252,0,0,0.1,-5.9212e-17,0,0.66667
0.90709,0.46791,9.0709,-0.048132,-1.1092,12.479,1.1643,-0.38809,-1.9965,1.5523,-5.0279e-08,-0.99825,0,0,0.1,-0,-0,0.66667
0.38107,0.19756,3.8107,-0.45366,-51.537,414.51,4.6101,-1.5367,-1.2656,6.1468,-3.3378e-12,-0.63279,0,0,0.1,9.4739e-16,0,0.66667
0.78998,0.8593,7.8998,0.53894,26.862,58.687,-11.353,3.7845,-0.96409,-15.138,1.1367e-10,-0.48204,0,0,0.1,-0,-0,0.66667
0.71055,0.77097,7.1055,0.40645,26.665,105.55,-7.7014,2.5671,-1.4096,-10.269,-1.5388e-12,-0.70478,0,0,0.1,-0,-0,0.66667
0.70415,0.27606,7.0415,-0.3359,-22.424,109.74,6.3074,-2.1025,-1.6024,8.4098,-7.9492e-13,-0.80122,0,0,0.1,1.4211e-15,0,0.66667
0.53263,0.1956,5.3263,-0.45659,-43.441,252.99,6.4852,-2.1617,-1.2614,8.6469,-1.3762e-12,-0.63069,0,0,0.1,-0,-0,0.66667
0.46668,0.88395,4.6668,0.57593,59.929,320.07,-7.1672,2.3891,-0.82207,-9.5563,-2.5402e-13,-0.41103,0,0,0.1,-0,-0,0.66667
0.6454,0.052621,6.454,-0.67107,-52.128,154.15,11.55,-3.8498,-0.39699,15.399,8.9173e-13,-0.1985,0,0,0.1,-9.4739e-16,0,0.66667
0.69158,0.00065314,6.9158,-0.74902,-52.103,119.89,13.813,-4.6045,-0.0053688,18.418,6.839e-13,-0.0026844,0,0,0.1,-0,-0,0.66667
0.23582,0.80525,2.3582,0.45787,57.487,591.34,-2.8793,0.95977,-1.2572,-3.8391,2.9187e-11,-0.62861,0,0,0.1,2.3685e-16,0,0.66667
0.75381,0.46888,7.5381,-0.046674,-2.6599,77.677,0.93823,-0.31274,-1.9928,1.251,-7.7565e-12,-0.99639,0,0,0.1,-0,-0,0.66667
0.93662,0.86543,9.3662,0.54814,8.8222,7.392,-13.691,4.5636,-0.93507,-18.254,1.1188e-07,-0.46753,0,0,0.1,-9.4739e-16,-1.1175e-16,0.66667
0.8151,0.45436,8.151,-0.068458,-3.0238,45.412,1.488,-0.496,-1.9837,1.984,-8.5141e-11,-0.99185,0,0,0.1,-0,-0,0.66667
0.73061,0.045553,7.3061,-0.68167,-42.304,93.398,13.281,-4.427,-0.34674,17.708,-3.2125e-12,-0.17337,0,0,0.1,9.4739e-16,0,0.66667
0.82171,0.12038,8.2171,-0.56942,-24.518,43.574,12.477,-4.1591,-0.84496,16.636,-7.7256e-11,-0.42248,0,0,0.1,4.737e-16,0,0.66667
0.0069549,0.31145,0.069549,-0.28282,-37.567,893.69,0.052454,-0.017484,-1.7139,0.069939,6.6535e-07,-0.85695,0,0,0.1,1.5728e-17,0,0.66667
0.17482,0.55718,1.7482,0.085764,11.036,669.86,-0.39983,0.13328,-1.9745,-0.53311,-2.3172e-10,-0.98723,0,0,0.1,-0,-0,0.66667
0.34198,0.2631,3.4198,-0.35535,-41.678,460.21,3.2406,-1.0802,-1.5527,4.3208,-5.4472e-12,-0.77633,0,0,0.1,-0,-0,0.66667
0.73352,0.46297,7.3352,-0.055542,-3.3888,90.058,1.0864,-0.36214,-1.9929,1.4486,1.4255e-12,-0.99644,0,0,0.1,1.4211e-15,0,0.66667
0.97837,0.14085,9.7837,-0.53873,-2.9212,2.1875,14.055,-4.6851,-0.96523,18.741,6.2183e-06,-0.48261,0,0,0.1,-0,-0,0.66667
0.73288,0.21193,7.3288,-0.43211,-26.501,91.06,8.4449,-2.815,-1.3387,11.26,3.6513e-12,-0.66934,0,0,0.1,-0,-0,0.66667
0.47899,0.50457,4.7899,0.006852,0.69998,306.46,-0.087521,0.029174,-1.9982,-0.11669,5.4973e-12,-0.9991,0,0,0.1,-0,-0,0.66667
0.92105,0.61173,9.2105,0.1676,3.2963,9.3251,-4.1165,1.3722,-1.9034,-5.4887,4.5927e-08,-0.9517,0,0,0.1,-0,-0,0.66667
0.3777,0.35179,3.777,-0.22231,-25.294,418.14,2.2391,-0.74636,-1.8249,2.9854,-4.3889e-12,-0.91244,0,0,0.1,-0,-0,0.66667
0.64169,0.93411,6.4169,0.65117,50.978,157.02,-11.143,3.7142,-0.49621,-14.857,8.8107e-13,-0.2481,0,0,0.1,-1.1842e-15,0,0.66667
0.0015045,0.80301,0.015045,0.45452,60.435,901.03,-0.018234,0.0060768,-1.2677,-0.024312,-1.674e-06,-0.63387,0,0,0.1,-0,2.0028e-16,0.66667
0.17936,0.05775,1.7936,-0.66338,-85.52,664.28,3.1729,-1.0576,-0.43288,4.2305,5.9897e-09,-0.21644,0,0,0.1,-3.5527e-16,0,0.66667
0.29484,0.44,2.9484,-0.089995,-10.905,517.16,0.70758,-0.23586,-1.9736,0.94344,-7.1078e-12,-0.98679,0,0,0.1,-0,-0,0.66667
0.38699,0.65195,3.8699,0.22793,25.719,407.43,-2.3522,0.78406,-1.8152,-3.1362,-6.9436e-12,-0.90761,0,0,0.1,4.737e-16,0,0.66667
0.45982,0.095491,4.5982,-0.60676,-63.674,327.41,7.4401,-2.48,-0.68921,9.9201,-6.9336e-12,-0.34461,0,0,0.1,-0,-0,0.66667
0.79672,0.59366,7.9672,0.14049,6.7624,54.314,-2.9847,0.99492,-1.936,-3.9797,-6.864e-11,-0.96802,0,0,0.1,8.8818e-17,0,0.66667
0.27985,0.23424,2.7985,-0.39865,-48.824,535.9,2.9749,-0.99164,-1.4371,3.9666,-6.3667e-12,-0.71857,0,0,0.1,-0,-0,0.66667
0.082662,0.06807,0.82662,-0.6479,-85.7,792.07,1.4282,-0.47605,-0.50634,1.9042,2.3854e-07,-0.25317,0,0,0.1,-2.3685e-16,0,0.66667
0.52137,0.56691,5.2137,0.10036,9.6868,263.52,-1.3954,0.46513,-1.9624,-1.8605,-2.5551e-12,-0.98118,0,0,0.1,-0,-0,0.66667
0.98115,0.53115,9.8115,0.046732,0.20551,0.74729,-1.2227,0.40757,-1.9934,-1.6303,-5.7501e-07,-0.99672,0,0,0.1,1.0066e-15,0,0.66667
0.40076,0.89873,4.0076,0.59809,66.811,392.28,-6.3917,2.1306,-0.72602,-8.5223,-1.3856e-13,-0.36301,0,0,0.1,-7.1054e-16,0,0.66667
0.25719,0.32695,2.5719,-0.25957,-32.187,564.13,1.7803,-0.59342,-1.7572,2.3737,-1.9708e-11,-0.87861,0,0,0.1,-0,-0,0.66667
0.77634,0.79751,7.7634,0.44627,23.472,65.581,-9.2388,3.0796,-1.2897,-12.318,-4.728e-11,-0.64487,0,0,0.1,-0,-0,0.66667
0.61558,0.36792,6.1558,-0.19812,-16.298,177.34,3.2522,-1.0841,-1.858,4.3363,-2.4836e-12,-0.92901,0,0,0.1,9.4739e-16,0,0.66667
0.0075483,0.74472,0.075483,0.36707,48.778,892.89,-0.073888,0.024629,-1.5184,-0.098517,-9.8487e-07,-0.75919,0,0,0.1,-1.4803e-17,0,0.66667
0.98621,0.73741,9.8621,0.35612,1.1401,1.0038,-9.3654,3.1218,-1.5506,-12.487,-8.5979e-08,-0.77532,0,0,0.1,-0,-0,0.66667
0.48892,0.69282,4.8892,0.28922,29.201,296.36,-3.7709,1.257,-1.7015,-5.0278,-2.4523e-12,-0.85073,0,0,0.1,-0,-0,0.66667
0.30402,0.41774,3.0402,-0.12339,-14.861,505.9,1.0003,-0.33344,-1.9428,1.3338,-5.6917e-12,-0.97138,0,0,0.1,4.737e-16,0,0.66667
0.66508,0.70055,6.6508,0.30082,22.22,137.88,-5.3351,1.7784,-1.6752,-7.1135,5.862e-14,-0.83758,0,0,0.1,-9.4739e-16,0,0.66667
0.28556,0.65862,2.8556,0.23793,29.013,528.68,-1.8119,0.60395,-1.7983,-2.4158,1.4134e-12,-0.89915,0,0,0.1,-9.4739e-16,0,0.66667
0.46354,0.45538,4.6354,-0.066924,-6.9671,322.71,0.82726,-0.27575,-1.9817,1.103,-4.4037e-13,-0.99087,0,0,0.1,-0,-0,0.66667
0.65182,0.80568,6.5182,0.45852,34.993,148.42,-7.9699,2.6566,-1.2513,-10.627,-4.2633e-14,-0.62564,0,0,0.1,-0,-0,0.66667
0.12188,0.20821,1.2188,-0.43769,-57.324,739.73,1.4226,-0.47419,-1.3187,1.8968,4.0703e-09,-0.65934,0,0,0.1,-0,-0,0.66667
0.46722,0.709,4.6722,0.3135,32.524,319.01,-3.906,1.302,-1.6528,-5.208,-9.4214e-13,-0.82639,0,0,0.1,-4.737e-16,0,0.66667
0.73521,0.73287,7.3521,0.3493,21.24,89.386,-6.8482,2.2827,-1.5694,-9.1309,-1.0486e-11,-0.78471,0,0,0.1,-0,-0,0.66667
0.96052,0.8993,9.6052,0.59895,6.055,4.1418,-15.341,5.1138,-0.72175,-20.455,6.7799e-06,-0.36088,0,0,0.1,-0,-0,0.66667
0.021389,0.63735,0.21389,0.20602,27.346,874.24,-0.11751,0.039171,-1.8464,-0.15668,3.6622e-07,-0.92322,0,0,0.1,-0,-0,0.66667
0.83248,0.66735,8.3248,0.25102,10.144,37.934,-5.5725,1.8575,-1.7744,-7.43,5.5504e-10,-0.88721,0,0,0.1,-0,-0,0.66667
0.93915,0.50438,9.3915,0.00657,0.099535,5.6996,-0.16454,0.054846,-2.0025,-0.21938,-5.9997e-07,-1.0013,0,0,0.1,-0,-0,0.66667
0.98582,0.81944,9.8582,0.47916,1.6338,1.4737,-12.596,4.1988,-1.1863,-16.795,6.7435e-07,-0.59316,0,0,0.1,-0,-0,0.66667
0.93783,0.14503,9.3783,-0.53245,-8.3986,7.1088,13.316,-4.4387,-0.9963,17.755,-6.1272e-08,-0.49815,0,0,0.1,9.4739e-16,0,0.66667
0.12925,0.31695,1.2925,-0.27458,-35.86,729.89,0.9464,-0.31547,-1.7312,1.2619,7.9142e-09,-0.86561,0,0,0.1,4.737e-16,0,0.66667
0.88602,0.45458,8.8602,-0.068132,-1.9134,18.297,1.6098,-0.53659,-1.9816,2.1464,-7.4613e-09,-0.9908,0,0,0.1,-1.8948e-15,0,0.66667
0.15286,0.39646,1.5286,-0.15531,-20.138,698.68,0.6331,-0.21103,-1.9138,0.84413,1.7541e-09,-0.9569,0,0,0.1,-1.1842e-16,0,0.66667
0.36052,0.3097,3.6052,-0.28545,-32.971,438.22,2.7443,-0.91476,-1.7141,3.659,-3.4892e-12,-0.85704,0,0,0.1,-2.3685e-16,0,0.66667
0.36116,0.066237,3.6116,-0.65064,-75.343,438.01,6.2663,-2.0888,-0.49735,8.3551,-4.3872e-12,-0.24867,0,0,0.1,-0,-0,0.66667
0.27979,0.66117,2.7979,0.24175,29.584,535.85,-1.8037,0.60123,-1.7951,-2.4049,1.8628e-12,-0.89755,0,0,0.1,-0,-0,0.66667
0.3548,0.85379,3.548,0.53068,61.696,445.25,-5.021,1.6737,-0.99701,-6.6947,-2.2928e-12,-0.4985,0,0,0.1,-0,-0,0.66667
0.543,0.856,5.43,0.53399,50.052,243.21,-7.7323,2.5774,-0.985,-10.31,-3.3658e-12,-0.4925,0,0,0.1,9.4739e-16,0,0.66667
0.078517,0.23343,0.78517,-0.39986,-52.819,797.52,0.83722,-0.27907,-1.4356,1.1163,1.004e-07,-0.71779,0,0,0.1,-0,-0,0.66667
0.37287,0.14908,3.7287,-0.52638,-60.27,424.11,5.2339,-1.7446,-1.0164,6.9785,-4.7762e-12,-0.50819,0,0,0.1,4.737e-16,0,0.66667
0.58322,0.82772,5.8322,0.49158,43.086,205.96,-7.6454,2.5485,-1.1385,-10.194,1.4464e-12,-0.56924,0,0,0.1,-0,-0,0.66667
0.13425,0.012047,1.3425,-0.73193,-95.811,723.55,2.6203,-0.87343,-0.092301,3.4937,3.2571e-08,-0.04615,0,0,0.1,-0,-0,0.66667
0.24299,0.89676,2.4299,0.59514,74.538,582.39,-3.8563,1.2854,-0.73773,-5.1417,1.2481e-10,-0.36887,0,0,0.1,2.3685e-16,0,0.66667
0.31278,0.075172,3.1278,-0.63724,-76.55,495.75,5.3151,-1.7717,-0.56052,7.0868,-6.4211e-12,-0.28026,0,0,0.1,-4.737e-16,0,0.66667
0.074534,0.26455,0.74534,-0.35318,-46.668,802.85,0.70196,-0.23399,-1.5556,0.93595,1.3116e-07,-0.7778,0,0,0.1,1.1842e-16,0,0.66667
0.80769,0.34351,8.0769,-0.23473,-10.757,49.072,5.0558,-1.6853,-1.8037,6.7411,-1.9814e-11,-0.90183,0,0,0.1,8.8818e-16,0,0.66667
0.2634,0.12764,2.634,-0.55854,-69.16,556.61,3.9231,-1.3077,-0.89285,5.2308,-6.528e-11,-0.44643,0,0,0.1,-0,-9.9246e-17,0.66667
0.4106,0.45806,4.106,-0.062905,-6.9369,380.54,0.68877,-0.22959,-1.9844,0.91836,-2.58e-12,-0.99221,0,0,0.1,-0,-0,0.66667
0.40541,0.83519,4.0541,0.50278,55.858,386.83,-5.4356,1.8119,-1.1047,-7.2475,1.8194e-12,-0.55237,0,0,0.1,-4.737e-16,0,0.66667
0.30474,0.99385,3.0474,0.74077,89.586,505.74,-6.0197,2.0066,-0.046277,-8.0263,-2.2942e-12,-0.023138,0,0,0.1,1.6579e-15,0,0.66667
0.12774,0.27162,1.2774,-0.34257,-44.773,731.92,1.1669,-0.38898,-1.5831,1.5559,8.3918e-09,-0.79157,0,0,0.1,-0,-0,0.66667
0.89356,0.27205,8.9356,-0.34193,-9.0309,16.542,8.1476,-2.7159,-1.5845,10.864,-3.0237e-08,-0.79224,0,0,0.1,9.4739e-16,0,0.66667
0.68139,0.3169,6.8139,-0.27465,-19.478,125.71,4.9905,-1.6635,-1.7298,6.6539,1.5059e-12,-0.8649,0,0,0.1,-1.8948e-15,0,0.66667
0.26689,0.1912,2.6689,-0.46321,-57.194,552.12,3.2967,-1.0989,-1.2405,4.3956,-1.0366e-11,-0.62027,0,0,0.1,9.4739e-16,0,0.66667
0.092431,0.84151,0.92431,0.51226,67.559,778.96,-1.2626,0.42088,-1.0706,-1.6835,-1.3666e-08,-0.53528,0,0,0.1,2.7365e-17,0,0.66667
0.1235,0.73021,1.235,0.34532,45.181,737.55,-1.1372,0.37907,-1.5782,-1.5163,-9.6982e-09,-0.78908,0,0,0.1,-0,-0,0.66667
0.27644,0.3347,2.7644,-0.24795,-30.404,540.02,1.8278,-0.60926,-1.7796,2.437,-8.1334e-12,-0.88982,0,0,0.1,2.3685e-16,0,0.66667
0.049043,0.94023,0.49043,0.66035,87.749,837.12,-0.86362,0.28787,-0.45167,-1.1515,-2.4136e-06,-0.22583,0,0,0.1,1.1842e-16,0,0.66667
0.14515,0.37122,1.4515,-0.19317,-25.108,708.85,0.74767,-0.24922,-1.8665,0.99689,2.4469e-09,-0.93324,0,0,0.1,-3.5527e-16,0,0.66667
0.47503,0.7379,4.7503,0.35685,36.682,310.86,-4.5204,1.5068,-1.5444,-6.0271,1.4788e-13,-0.77218,0,0,0.1,-0,-0,0.66667
0.93598,0.14027,9.3598,-0.5396,-8.7654,7.4664,13.468,-4.4894,-0.96673,17.957,-1.1891e-07,-0.48337,0,0,0.1,-0,3.098e-17,0.66667
0.43407,0.47495,4.3407,-0.037572,-4.0439,354.5,0.4349,-0.14497,-1.9949,0.57987,-1.2687e-12,-0.99744,0,0,0.1,-0,-0,0.66667
0.70914,0.71212,7.0914,0.31818,20.937,106.3,-6.0169,2.0056,-1.6378,-8.0225,-4.1664e-12,-0.81888,0,0,0.1,4.737e-16,0,0.66667
0.57031,0.50896,5.7031,0.01344,1.2014,217.01,-0.2044,0.068135,-1.9964,-0.27254,-2.7229e-12,-0.99819,0,0,0.1,-0,-0,0.66667
0.97624,0.55261,9.7624,0.078916,0.44846,1.11,-2.0544,0.68481,-1.9748,-2.7392,4.2343e-08,-0.98741,0,0,0.1,-0,-0,0.66667
0.17821,0.58353,1.7821,0.1253,16.105,665.44,-0.59545,0.19848,-1.9414,-0.79393,-1.6166e-10,-0.9707,0,0,0.1,-2.3685e-16,0,0.66667
0.73911,0.70115,7.3911,0.30173,18.106,86.857,-5.9469,1.9823,-1.6743,-7.9292,-1.1016e-11,-0.83716,0,0,0.1,-0,-0,0.66667
0.35041,0.64576,3.5041,0.21864,25.456,450.08,-2.043,0.681,-1.8271,-2.724,-6.7926e-12,-0.91356,0,0,0.1,-4.737e-16,0,0.66667
0.99121,0.38334,9.9121,-0.17499,-0.31176,0.36204,4.6255,-1.5418,-1.8883,6.1673,-2.7197e-07,-0.94417,0,0,0.1,-0,-0,0.66667
0.35281,0.13027,3.5281,-0.55459,-64.594,447.64,5.2177,-1.7392,-0.9041,6.957,-8.8183e-12,-0.45205,0,0,0.1,9.4739e-16,0,0.66667
0.97878,0.15083,9.7878,-0.52375,-2.7753,2.0899,13.67,-4.5568,-1.0227,18.227,5.1255e-06,-0.51137,0,0,0.1,-1.8948e-15,0,0.66667
0.86037,0.64047,8.6037,0.2107,7.1843,26.933,-4.8341,1.6114,-1.8451,-6.4455,4.0245e-09,-0.92253,0,0,0.1,-0,-0,0.66667
0.59774,0.91003,5.9774,0.61505,52.589,193.53,-9.8037,3.2679,-0.65463,-13.072,-2.089e-12,-0.32731,0,0,0.1,1.8948e-15,0,0.66667
0.027448,0.32369,0.27448,-0.26446,-35.1,866.09,0.19357,-0.064524,-1.7503,0.25809,-6.4528e-07,-0.87516,0,0,0.1,-0,-0,0.66667
0.18553,0.038911,1.8553,-0.69163,-88.983,656.28,3.4219,-1.1406,-0.30089,4.5625,1.5957e-09,-0.15045,0,0,0.1,-0,-8.7658e-17,0.66667
0.056512,0.027569,0.56512,-0.70865,-94.14,827.11,1.0679,-0.35598,-0.21263,1.4239,-1.3016e-05,-0.10632,0,0,0.1,-0,-0,0.66667
0.79246,0.66157,7.9246,0.24235,11.894,56.603,-5.1215,1.7072,-1.7902,-6.8286,-2.8714e-11,-0.89508,0,0,0.1,-1.8948e-15,0,0.66667
0.073951,0.96627,0.73951,0.69941,92.691,803.75,-1.3792,0.45975,-0.26042,-1.839,-6.2045e-06,-0.13021,0,0,0.1,-4.4409e-17,1.0038e-16,0.66667
0.78646,0.98878,7.8646,0.73317,37.273,61.376,-15.376,5.1254,-0.086528,-20.502,-3.8003e-11,-0.043264,0,0,0.1,-9.4739e-16,0,0.66667
0.027952,0.91755,0.27952,0.62633,83.334,865.45,-0.46686,0.15563,-0.60478,-0.62247,1.9882e-05,-0.30239,0,0,0.1,-0,-0,0.66667
0.25521,0.65201,2.5521,0.22802,28.302,566.61,-1.5518,0.51726,-1.8137,-2.069,8.4044e-12,-0.90683,0,0,0.1,-0,-0,0.66667
0.29758,0.77834,2.9758,0.41751,50.571,514,-3.3132,1.1044,-1.3848,-4.4176,-2.7633e-12,-0.69239,0,0,0.1,5.9212e-16,0,0.66667
0.56461,0.38915,5.6461,-0.16628,-15.011,222.31,2.5035,-0.83451,-1.9028,3.3381,-1.066e-12,-0.95138,0,0,0.1,-0,-0,0.66667
0.56206,0.93534,5.6206,0.653,59.469,225.66,-9.7874,3.2625,-0.4891,-13.05,-3.6415e-13,-0.24455,0,0,0.1,1.1842e-16,3.0542e-17,0.66667
0.8874,0.7612,8.874,0.3918,10.936,18.471,-9.2716,3.0905,-1.4539,-12.362,1.7558e-08,-0.72693,0,0,0.1,-0,-0,0.66667
0.63738,0.98187,6.3738,0.7228,57.191,160.75,-12.285,4.0951,-0.14198,-16.38,-9.841e-13,-0.070992,0,0,0.1,-0,-0,0.66667
0.16146,0.39915,1.6146,-0.15127,-19.559,687.37,0.65133,-0.21711,-1.9168,0.86843,5.9701e-10,-0.95838,0,0,0.1,-2.2819e-17,0,0.66667
0.026995,0.37125,0.26995,-0.19313,-25.627,866.69,0.13903,-0.046343,-1.8668,0.18537,-4.1077e-07,-0.93339,0,0,0.1,2.9606e-17,0,0.66667
0.76198,0.9189,7.6198,0.62835,35.027,74.252,-12.768,4.2559,-0.59527,-17.024,1.8288e-11,-0.29764,0,0,0.1,-0,1.9409e-17,0.66667
0.53557,0.25423,5.3557,-0.36866,-34.892,249.97,5.2651,-1.755,-1.516,7.0202,-5.4179e-14,-0.75801,0,0,0.1,-0,-0,0.66667
0.57863,0.89551,5.7863,0.59327,52.489,210.36,-9.1542,3.0514,-0.75256,-12.206,4.059e-13,-0.37628,0,0,0.1,-4.737e-16,0,0.66667
0.41411,0.023823,4.1411,-0.71427,-78.865,377.55,7.8875,-2.6292,-0.18323,10.517,2.5602e-12,-0.091614,0,0,0.1,-0,-0,0.66667
0.58982,0.11237,5.8982,-0.58144,-50.42,200.36,9.1452,-3.0484,-0.79674,12.194,4.0501e-12,-0.39837,0,0,0.1,-9.4739e-16,0,0.66667
0.40563,0.5458,4.0563,0.068703,7.6135,386.14,-0.74315,0.24772,-1.9868,-0.99087,-5.6031e-12,-0.99342,0,0,0.1,-0,-0,0.66667
0.44569,0.43046,4.4569,-0.10431,-11.086,341.85,1.2397,-0.41325,-1.9586,1.653,-1.2703e-12,-0.97928,0,0,0.1,4.737e-16,0,0.66667
0.59274,0.62907,5.9274,0.19361,16.64,196.99,-3.0603,1.0201,-1.8705,-4.0804,3.1375e-13,-0.93527,0,0,0.1,-0,-0,0.66667
0.49234,0.31065,4.9234,-0.28402,-28.548,292.84,3.7289,-1.243,-1.7112,4.9719,-4.2986e-12,-0.85562,0,0,0.1,1.3027e-15,0,0.66667
0.059103,0.71322,0.59103,0.31983,42.343,823.53,-0.50409,0.16803,-1.6363,-0.67212,-7.9154e-08,-0.81816,0,0,0.1,2.9606e-17,0,0.66667
0.97679,0.42932,9.7679,-0.10602,-0.58797,1.0903,2.7616,-0.92053,-1.9571,3.6821,3.739e-07,-0.97857,0,0,0.1,-0,-0,0.66667
0.85514,0.54424,8.5514,0.066367,2.3397,28.698,-1.5134,0.50447,-1.9828,-2.0179,1.3566e-09,-0.9914,0,0,0.1,-0,-0,0.66667
0.37909,0.50191,3.7909,0.0028618,0.32507,416.45,-0.02893,0.0096433,-1.9999,-0.038573,1.6483e-12,-0.99993,0,0,0.1,-1.8948e-15,0,0.66667
0.54652,0.047108,5.4652,-0.67934,-63.452,240.29,9.9007,-3.3002,-0.36325,13.201,8.189e-13,-0.18163,0,0,0.1,-9.4739e-16,0,0.66667
0.93287,0.63826,9.3287,0.20739,3.476,7.0027,-5.1592,1.7197,-1.8452,-6.879,6.3374e-08,-0.92259,0,0,0.1,-0,-0,0.66667
0.39797,0.71966,3.9797,0.32949,36.819,395,-3.4966,1.1655,-1.6123,-4.6622,-4.8284e-12,-0.80613,0,0,0.1,-0,-0,0.66667
0.94477,0.71087,9.4477,0.3163,4.3779,5.1943,-7.9689,2.6563,-1.6415,-10.625,4.587e-08,-0.82073,0,0,0.1,-9.4739e-16,0,0.66667
0.030486,0.42722,0.30486,-0.10918,-14.481,861.99,0.088757,-0.029586,-1.9612,0.11834,-3.1408e-07,-0.98058,0,0,0.1,-2.9606e-17,0,0.66667
0.7458,0.91331,7.458,0.61997,36.57,83.732,-12.33,4.11,-0.63234,-16.44,-4.4196e-12,-0.31617,0,0,0.1,-0,-0,0.66667
0.79701,0.45601,7.9701,-0.06599,-3.1714,54.115,1.4025,-0.46751,-1.9892,1.87,1.6064e-11,-0.99458,0,0,0.1,-0,-0,0.66667
0.19384,0.65975,1.9384,0.23962,30.624,645.15,-1.2386,0.41286,-1.7939,-1.6515,-9.5696e-12,-0.89694,0,0,0.1,4.737e-16,0,0.66667
0.16287,0.049645,1.6287,-0.67553,-87.607,685.84,2.9339,-0.97797,-0.3744,3.9119,-6.5571e-09,-0.1872,0,0,0.1,-2.3685e-16,0,0.66667
0.59108,0.052066,5.9108,-0.6719,-58.21,199.54,10.591,-3.5302,-0.39527,14.121,2.7587e-12,-0.19764,0,0,0.1,-0,-1.0535e-16,0.66667
0.47969,0.053234,4.7969,-0.67015,-68.714,306.69,8.5724,-2.8575,-0.40151,11.43,-6.8257e-12,-0.20075,0,0,0.1,-0,1.0411e-17,0.66667
0.58654,0.50702,5.8654,0.010534,0.91518,202.37,-0.16476,0.054922,-1.9969,-0.21969,-6.0515e-13,-0.99844,0,0,0.1,-0,-0,0.66667
0.13227,0.082697,1.3227,-0.62595,-81.889,726.08,2.2079,-0.73596,-0.60377,2.9438,-2.8859e-08,-0.30189,0,0,0.1,-1.1842e-16,0,0.66667
0.27774,0.69664,2.7774,0.29496,36.148,538.43,-2.1845,0.72818,-1.6901,-2.9127,4.5022e-12,-0.84507,0,0,0.1,4.737e-16,0,0.66667
0.069672,0.33608,0.69672,-0.24588,-32.496,809.34,0.45682,-0.15227,-1.7823,0.60909,8.3993e-08,-0.89113,0,0,0.1,1.1842e-16,0,0.66667
0.108,0.11412,1.08,-0.57882,-76.139,758.25,1.667,-0.55565,-0.81117,2.2226,-3.2666e-08,-0.40558,0,0,0.1,-0,-0,0.66667
0.71638,0.17926,7.1638,-0.48111,-31.062,101.87,9.1909,-3.0636,-1.178,12.255,1.033e-12,-0.58902,0,0,0.1,-4.737e-16,0,0.66667
0.026402,0.13146,0.26402,-0.5528,-73.509,867.52,0.3892,-0.12974,-0.91192,0.51894,-7.8962e-06,-0.45596,0,0,0.1,-0,-0,0.66667
0.53965,0.9154,5.3965,0.6231,58.773,246.66,-8.9669,2.989,-0.61658,-11.956,-2.0597e-12,-0.30829,0,0,0.1,-0,-0,0.66667
0.29866,0.76246,2.9866,0.39369,47.643,512.65,-3.1354,1.0451,-1.4506,-4.1806,-1.6871e-12,-0.72528,0,0,0.1,4.737e-16,0,0.66667
0.8685,0.39235,8.685,-0.16147,-5.2001,24.01,3.7396,-1.2465,-1.9043,4.9861,-4.6608e-09,-0.95213,0,0,0.1,-9.4739e-16,0,0.66667
0.54504,0.88012,5.4504,0.57018,53.3,241.36,-8.2873,2.7624,-0.84631,-11.05,2.1556e-12,-0.42315,0,0,0.1,-1.8948e-15,1.477e-16,0.66667
0.99755,0.020554,9.9755,-0.71917,-0.43589,2.3359,19.131,-6.3768,-0.16161,25.508,8.1041e-05,-0.080805,0,0,0.1,-0,-3.1991e-16,0.66667
0.56108,0.72499,5.6108,0.33748,30.675,225.79,-5.0494,1.6831,-1.5978,-6.7326,-2.3523e-12,-0.79891,0,0,0.1,-0,-0,0.66667
0.5621,0.31103,5.621,-0.28346,-25.711,224.76,4.2488,-1.4163,-1.7198,5.6651,-7.2076e-13,-0.85988,0,0,0.1,-2.3685e-16,0,0.66667
0.33511,0.77139,3.3511,0.40708,48.015,468.47,-3.6378,1.2126,-1.4078,-4.8504,-5.7296e-12,-0.70391,0,0,0.1,4.737e-16,0,0.66667
0.25232,0.21904,2.5232,-0.42145,-52.447,570.39,2.8358,-0.94526,-1.3709,3.781,-1.6779e-11,-0.68543,0,0,0.1,-0,-0,0.66667
0.42737,0.8209,4.2737,0.48135,52.293,362.31,-5.4858,1.8286,-1.174,-7.3144,-2.8275e-12,-0.58699,0,0,0.1,-0,-0,0.66667
0.22718,0.12757,2.2718,-0.55865,-70.498,602.46,3.3843,-1.1281,-0.8883,4.5124,-2.5175e-10,-0.44415,0,0,0.1,-0,-0,0.66667
0.070876,0.2131,0.70876,-0.43035,-56.924,807.77,0.81338,-0.27113,-1.3389,1.0845,1.9017e-07,-0.66947,0,0,0.1,-5.9212e-17,0,0.66667
0.42505,0.76592,4.2505,0.39888,43.409,364.73,-4.5212,1.5071,-1.4339,-6.0283,-1.4708e-12,-0.71694,0,0,0.1,9.4739e-16,0,0.66667
0.10642,0.55692,1.0642,0.085385,11.207,760.2,-0.24231,0.080768,-1.9746,-0.32307,-1.7762e-08,-0.98732,0,0,0.1,5.9212e-17,0,0.66667
0.72312,0.39708,7.2312,-0.15438,-9.7343,96.781,2.9769,-0.99231,-1.9138,3.9693,2.5735e-12,-0.95692,0,0,0.1,-9.4739e-16,0,0.66667
0.29839,0.56864,2.9839,0.10296,12.446,512.79,-0.81924,0.27308,-1.9649,-1.0923,2.6055e-12,-0.98247,0,0,0.1,-0,-0,0.66667
0.49036,0.24559,4.9036,-0.38162,-38.483,295.01,4.9902,-1.6634,-1.4802,6.6536,-4.8574e-12,-0.74012,0,0,0.1,1.0009e-15,0,0.66667
0.19558,0.42938,1.9558,-0.10593,-13.523,642.84,0.55247,-0.18416,-1.9572,0.73662,7.4576e-11,-0.97861,0,0,0.1,-0,-0,0.66667
0.68083,0.02707,6.8083,-0.7094,-50.699,127.42,12.879,-4.2931,-0.2085,17.172,1.2168e-12,-0.10425,0,0,0.1,-0,-0,0.66667
0.83083,0.60977,8.3083,0.16466,6.7085,38.504,-3.6481,1.216,-1.9038,-4.8641,3.6297e-10,-0.9519,0,0,0.1,-0,-0,0.66667
0.22041,0.50139,2.2041,0.0020806,0.26272,610.82,-0.012229,0.0040762,-2.0032,-0.016305,3.3355e-11,-1.0016,0,0,0.1,-0,-0,0.66667
0.0078087,0.61138,0.078087,0.16707,22.182,892.53,-0.034789,0.011596,-1.8975,-0.046385,-2.9766e-07,-0.94875,0,0,0.1,-1.4803e-17,0,0.66667
0.2509,0.1504,2.509,-0.5244,-65.362,572.29,3.5087,-1.1696,-1.026,4.6782,-1.8604e-11,-0.51299,0,0,0.1,-1.1842e-16,0,0.66667
0.62764,0.88734,6.2764,0.58102,46.816,168.14,-9.7245,3.2415,-0.80008,-12.966,1.5987e-13,-0.40004,0,0,0.1,-0,-0,0.66667
0.31082,0.28871,3.1082,-0.31694,-38.024,497.71,2.6269,-0.87564,-1.645,3.5026,-2.5133e-12,-0.82252,0,0,0.1,9.4739e-16,0,0.66667
0.83621,0.88998,8.3621,0.58498,23.325,37.41,-13.044,4.3481,-0.78003,-17.392,3.62e-09,-0.39002,0,0,0.1,1.8948e-15,0,0.66667
0.85274,0.33432,8.5274,-0.24851,-8.9114,29.815,5.6511,-1.8837,-1.7776,7.5349,-2.5534e-09,-0.88879,0,0,0.1,-0,-0,0.66667
0.37174,0.67645,3.7174,0.26467,30.278,425.08,-2.6237,0.87457,-1.7506,-3.4983,-2.3865e-12,-0.87528,0,0,0.1,-0,-0,0.66667
0.36533,0.17567,3.6533,-0.48649,-56.043,432.82,4.7395,-1.5798,-1.1558,6.3193,-7.8497e-12,-0.57789,0,0,0.1,4.737e-16,0,0.66667
0.016563,0.1602,0.16563,-0.5097,-67.781,880.76,0.22512,-0.075039,-1.0803,0.30015,-9.7754e-07,-0.54013,0,0,0.1,-0,-0,0.66667
0.54968,0.67011,5.4968,0.25516,23.611,236.34,-3.7402,1.2467,-1.7686,-4.9869,-2.9223e-12,-0.88429,0,0,0.1,9.4739e-16,0,0.66667
0.15427,0.22486,1.5427,-0.4127,-53.55,696.92,1.6978,-0.56594,-1.3963,2.2637,1.0723e-09,-0.69815,0,0,0.1,-0,-0,0.66667
0.11268,0.77965,1.1268,0.41948,55.053,751.94,-1.2605,0.42015,-1.3752,-1.6806,-1.6239e-08,-0.68758,0,0,0.1,-2.9606e-16,0,0.66667
0.053338,0.17701,0.53338,-0.48449,-64.25,831.3,0.68911,-0.2297,-1.1625,0.91882,8.7592e-08,-0.58127,0,0,0.1,-0,-0,0.66667
0.17928,0.97401,1.7928,0.71102,91.713,664.43,-3.3993,1.1331,-0.19999,-4.5324,7.0235e-10,-0.099993,0,0,0.1,-0,-0,0.66667
0.15593,0.26048,1.5593,-0.35928,-46.578,694.71,1.4939,-0.49798,-1.5454,1.9919,1.4704e-09,-0.77272,0,0,0.1,-0,-0,0.66667
0.03549,0.11481,0.3549,-0.57778,-76.803,855.3,0.54682,-0.18227,-0.81168,0.72909,1.9245e-06,-0.40584,0,0,0.1,-2.9606e-17,0,0.66667
0.98243,0.08499,9.8243,-0.62252,-2.7777,2.3501,16.309,-5.4363,-0.62374,21.745,3.6923e-07,-0.31187,0,0,0.1,-0,-9.5564e-17,0.66667
0.6583,0.74969,6.583,0.37453,28.132,143.19,-6.5748,2.1916,-1.504,-8.7664,6.99e-13,-0.75202,0,0,0.1,1.125e-15,0,0.66667
0.38699,0.55282,3.8699,0.07923,8.9362,407.35,-0.81764,0.27255,-1.977,-1.0902,-7.7772e-12,-0.98849,0,0,0.1,-4.737e-16,0,0.66667
0.062485,0.063575,0.62485,-0.65464,-86.853,819.08,1.0908,-0.36361,-0.48257,1.4544,-1.4052e-06,-0.24129,0,0,0.1,-0,1.5731e-17,0.66667
0.047245,0.75793,0.47245,0.38689,51.305,839.47,-0.48744,0.16248,-1.4723,-0.64992,-1.4845e-07,-0.73615,0,0,0.1,-0,-0,0.66667
0.80495,0.90286,8.0495,0.60428,28.242,51.496,-12.971,4.3237,-0.69943,-17.295,1.9884e-09,-0.34971,0,0,0.1,-1.4211e-15,0,0.66667
0.42278,0.45365,4.2278,-0.069521,-7.5725,366.95,0.78379,-0.26126,-1.9859,1.0451,-5.0723e-12,-0.99295,0,0,0.1,9.4739e-16,0,0.66667
0.10826,0.93002,1.0826,0.64504,84.899,757.94,-1.8622,0.62073,-0.5238,-2.4829,2.4913e-07,-0.2619,0,0,0.1,-0,-8.6218e-17,0.66667
0.16703,0.48184,1.6703,-0.027247,-3.5156,680.05,0.12136,-0.040454,-1.9953,0.16182,2.2592e-10,-0.99765,0,0,0.1,-0,-0,0.66667
0.68019,0.93436,6.8019,0.65155,46.587,127.64,-11.818,3.9394,-0.48847,-15.757,3.4506e-12,-0.24423,0,0,0.1,-1.4211e-15,0,0.66667
0.42723,0.51986,4.2723,0.029795,3.2302,362.02,-0.33945,0.11315,-1.9945,-0.4526,-3.3335e-12,-0.99724,0,0,0.1,9.4739e-16,0,0.66667
0.096808,0.74691,0.96808,0.37036,48.755,773.07,-0.9561,0.3187,-1.5131,-1.2748,-4.1838e-08,-0.75657,0,0,0.1,2.9606e-17,0,0.66667
0.39201,0.345,3.9201,-0.2325,-26.113,401.69,2.4304,-0.81014,-1.8115,3.2406,1.946e-12,-0.90574,0,0,0.1,-9.4739e-16,0,0.66667
0.044756,0.050428,0.44756,-0.67436,-89.659,842.88,0.80483,-0.26827,-0.3842,1.0731,1.6587e-05,-0.1921,0,0,0.1,5.9212e-17,0,0.66667
0.27103,0.50175,2.7103,0.00262,0.32214,546.7,-0.018936,0.0063119,-1.9988,-0.025248,-5.8145e-12,-0.99941,0,0,0.1,-0,-0,0.66667
0.50308,0.93003,5.0308,0.64504,64.14,282.67,-8.6535,2.8845,-0.52079,-11.538,-5.2927e-12,-0.2604,0,0,0.1,4.737e-16,0,0.66667
0.45748,0.73319,4.5748,0.34979,36.718,329.4,-4.2673,1.4224,-1.5633,-5.6897,-5.179e-12,-0.78164,0,0,0.1,9.4739e-16,0,0.66667
0.76863,0.51012,7.6863,0.015173,0.819,69.147,-0.31101,0.10367,-1.9992,-0.41467,1.3493e-11,-0.99959,0,0,0.1,-0,-0,0.66667
0.16023,0.065735,1.6023,-0.6514,-84.53,689.28,2.7833,-0.92777,-0.49106,3.7111,-1.0419e-09,-0.24553,0,0,0.1,4.737e-16,0,0.66667
0.51004,0.47306,5.1004,-0.040405,-3.9623,274.75,0.54955,-0.18318,-1.9925,0.73273,-2.4411e-12,-0.99624,0,0,0.1,-0,-0,0.66667
0.14153,0.57578,1.4153,0.11367,14.787,713.62,-0.42898,0.14299,-1.9572,-0.57197,-2.4465e-09,-0.97859,0,0,0.1,2.3685e-16,0,0.66667
0.18937,0.87093,1.8937,0.55639,71.379,651.16,-2.8097,0.93656,-0.90167,-3.7462,-5.5498e-11,-0.45084,0,0,0.1,5.9212e-17,0,0.66667
0.4099,0.99863,4.099,0.74795,82.968,382.34,-8.1755,2.7252,-0.011389,-10.901,-8.9448e-12,-0.0056944,0,0,0.1,1.5395e-15,0,0.66667
0.14586,0.053295,1.4586,-0.67006,-87.361,708.18,2.6063,-0.86877,-0.40153,3.4751,9.5929e-09,-0.20077,0,0,0.1,-1.1842e-16,0,0.66667
0.56233,0.039981,5.6233,-0.69003,-62.849,225.54,10.347,-3.4491,-0.31189,13.796,-2.7267e-13,-0.15595,0,0,0.1,-0,-0,0.66667
0.45523,0.75448,4.5523,0.38172,40.183,331.85,-4.6338,1.5446,-1.4839,-6.1785,-3.3067e-12,-0.74193,0,0,0.1,-9.4739e-16,0,0.66667
0.9421,0.96945,9.421,0.70417,10.509,7.2805,-17.691,5.8968,-0.23663,-23.587,-1.5431e-05,-0.11832,0,0,0.1,-3.7896e-15,0,0.66667
0.66999,0.20952,6.6999,-0.43573,-31.849,134.47,7.7849,-2.595,-1.3266,10.38,-5.5378e-13,-0.66332,0,0,0.1,-4.737e-16,0,0.66667
0.10314,0.39609,1.0314,-0.15587,-20.474,764.57,0.42871,-0.1429,-1.9109,0.57161,1.6672e-08,-0.95544,0,0,0.1,-0,-0,0.66667
0.60711,0.34802,6.0711,-0.22797,-19.072,184.57,3.6907,-1.2302,-1.8169,4.9209,-1.0636e-12,-0.90847,0,0,0.1,-0,-0,0.66667
0.42033,0.68516,4.2033,0.27774,30.35,369.81,-3.1131,1.0377,-1.7289,-4.1509,-2.0699e-12,-0.86446,0,0,0.1,1.1842e-16,0,0.66667
0.50063,0.38817,5.0063,-0.16774,-16.667,284.28,2.2393,-0.74644,-1.9036,2.9858,-8.5665e-13,-0.9518,0,0,0.1,-9.4739e-16,0,0.66667
0.65581,0.97596,6.5581,0.71395,54.213,146.2,-12.486,4.1619,-0.19211,-16.647,-1.2372e-12,-0.096055,0,0,0.1,-0,-0,0.66667
0.18572,0.4786,1.8572,-0.032101,-4.1139,655.65,0.15898,-0.052994,-1.9981,0.21198,8.8696e-11,-0.99907,0,0,0.1,-0,-0,0.66667
0.35953,0.58538,3.5953,0.12807,14.796,439.26,-1.2279,0.40929,-1.9466,-1.6372,-3.9007e-12,-0.97329,0,0,0.1,-0,-0,0.66667
0.48038,0.92355,4.8038,0.63532,65.057,305.87,-8.1385,2.7128,-0.56355,-10.851,-5.0715e-13,-0.28177,0,0,0.1,-5.6888e-16,0,0.66667
0.61478,0.10255,6.1478,-0.59617,-49.317,178.88,9.7737,-3.2579,-0.73411,13.032,1.3483e-12,-0.36706,0,0,0.1,-0,-0,0.66667
0.28556,0.84647,2.8556,0.51971,63.486,528.96,-3.9575,1.3192,-1.0392,-5.2767,-4.7191e-12,-0.51959,0,0,0.1,-0,-0,0.66667
0.50277,0.28156,5.0277,-0.32766,-32.489,282.29,4.393,-1.4643,-1.62,5.8573,1.1027e-12,-0.81001,0,0,0.1,-0,-0,0.66667
0.27855,0.93816,2.7855,0.65723,80.743,537.85,-4.8819,1.6273,-0.46592,-6.5092,3.5394e-12,-0.23296,0,0,0.1,-9.4739e-16,0,0.66667
0.57239,0.9367,5.7239,0.65505,58.634,216.2,-9.9984,3.3328,-0.47319,-13.331,3.8343e-12,-0.2366,0,0,0.1,1.1842e-16,0,0.66667
0.34229,0.29746,3.4229,-0.30381,-35.614,459.78,2.7731,-0.92436,-1.6739,3.6974,-3.2505e-12,-0.83696,0,0,0.1,-0,-0,0.66667
0.83916,0.90905,8.3916,0.61358,24.082,36.326,-13.73,4.5768,-0.66067,-18.307,2.091e-09,-0.33033,0,0,0.1,-0,-0,0.66667
0.68591,0.55116,6.8591,0.076742,5.3739,122.23,-1.4037,0.4679,-1.9811,-1.8716,-7.2242e-13,-0.99054,0,0,0.1,-0,-0,0.66667
0.81613,0.50449,8.1613,0.0067357,0.29597,44.921,-0.14659,0.048864,-1.9998,-0.19546,-4.6447e-10,-0.99988,0,0,0.1,-0,-0,0.66667
0.15425,0.59451,1.5425,0.14176,18.372,696.85,-0.58309,0.19436,-1.9313,-0.77746,-1.9118e-09,-0.96566,0,0,0.1,-4.737e-16,0,0.66667
0.18519,0.774,1.8519,0.41099,52.752,656.47,-2.0297,0.67656,-1.4007,-2.7063,-3.7367e-11,-0.70033,0,0,0.1,1.1842e-16,0,0.66667
0.54259,0.58437,5.4259,0.12656,11.835,242.95,-1.8312,0.61041,-1.9417,-2.4416,-3.4475e-12,-0.97085,0,0,0.1,4.737e-16,0,0.66667
0.061398,0.40484,0.61398,-0.14274,-18.88,820.43,0.23371,-0.077903,-1.9317,0.31161,4.2407e-08,-0.96585,0,0,0.1,-1.5374e-16,0,0.66667
0.53806,0.35769,5.3806,-0.21347,-20.108,247.36,3.0629,-1.021,-1.8349,4.0838,-2.5309e-12,-0.91743,0,0,0.1,-0,-0,0.66667
0.336,0.87976,3.36,0.56965,67.238,467.64,-5.104,1.7013,-0.84378,-6.8053,-2.6614e-12,-0.42189,0,0,0.1,-0,-0,0.66667
0.32445,0.50967,3.2445,0.014503,1.7217,481.03,-0.12548,0.041828,-1.9985,-0.16731,-2.7449e-12,-0.99925,0,0,0.1,-0,-0,0.66667
0.22985,0.82909,2.2985,0.49364,62.178,598.97,-3.0257,1.0086,-1.1318,-4.0343,1.0556e-11,-0.56588,0,0,0.1,-4.737e-16,0,0.66667
0.0046867,0.61641,0.046867,0.17461,23.184,896.74,-0.021822,0.0072739,-1.89,-0.029097,-4.4779e-07,-0.94498,0,0,0.1,-0,-0,0.66667
0.68707,0.89772,6.8707,0.59658,41.866,122.46,-10.93,3.6435,-0.73891,-14.574,-1.6165e-13,-0.36945,0,0,0.1,9.4739e-16,9.4021e-17,0.66667
0.75278,0.68346,7.5278,0.2752,15.761,78.53,-5.5243,1.8414,-1.7318,-7.3658,-2.0742e-11,-0.86588,0,0,0.1,1.1842e-15,0,0.66667
0.33828,0.13222,3.3828,-0.55167,-64.991,464.88,4.9766,-1.6589,-0.91584,6.6354,-8.8685e-13,-0.45792,0,0,0.1,-0,-0,0.66667
0.4698,0.51337,4.698,0.02006,2.0726,316.08,-0.25131,0.08377,-2.0014,-0.33508,-9.5324e-13,-1.0007,0,0,0.1,-0,-0,0.66667
0.79738,0.22182,7.9738,-0.41728,-20.094,54.529,8.8728,-2.9576,-1.3858,11.83,2.1127e-11,-0.69292,0,0,0.1,-1.8948e-15,0,0.66667
0.64747,0.62309,6.4747,0.18463,14.196,151.33,-3.1878,1.0626,-1.877,-4.2504,3.8503e-13,-0.93848,0,0,0.1,9.4739e-16,0,0.66667
0.022978,0.49389,0.22978,-0.0091693,-1.2166,872.1,0.0056184,-0.0018745,-1.9971,0.0074904,-2.5759e-06,-0.99854,0,0,0.1,-1.4803e-17,0,0.66667
0.28397,0.53922,2.8397,0.05883,7.1773,530.58,-0.4455,0.1485,-1.9883,-0.59399,-1.5521e-12,-0.99414,0,0,0.1,-0,-0,0.66667
0.95439,0.38983,9.5439,-0.16526,-1.8722,3.4928,4.2059,-1.402,-1.9053,5.6078,1.0348e-07,-0.95266,0,0,0.1,-1.8948e-15,0,0.66667
0.88315,0.60933,8.8315,0.16399,4.7201,19.256,-3.8621,1.2874,-1.9011,-5.1495,1.1848e-08,-0.95056,0,0,0.1,-0,-0,0.66667
0.32522,0.93694,3.2522,0.65541,78.055,480.73,-5.684,1.8947,-0.47419,-7.5787,-2.9381e-12,-0.2371,0,0,0.1,-5.6251e-16,0,0.66667
0.91063,0.54656,9.1063,0.069836,1.5495,11.617,-1.6959,0.56529,-1.9809,-2.2611,2.9789e-08,-0.99047,0,0,0.1,-1.8948e-15,0,0.66667
0.47918,0.33199,4.7918,-0.25202,-25.756,306.4,3.2203,-1.0734,-1.7719,4.2937,-3.8742e-12,-0.88596,0,0,0.1,-0,-0,0.66667
0.20207,0.0064462,2.0207,-0.74033,-94.669,634.93,3.9893,-1.3298,-0.054631,5.319,2.3915e-10,-0.027316,0,0,0.1,-0,-7.7557e-17,0.66667
0.27145,0.14925,2.7145,-0.52613,-64.826,546.5,3.8085,-1.2695,-1.0135,5.0779,-8.733e-12,-0.50677,0,0,0.1,2.3685e-16,0,0.66667
0.24098,0.060174,2.4098,-0.65974,-82.77,585.02,4.2396,-1.4132,-0.45057,5.6528,5.3626e-11,-0.22529,0,0,0.1,-4.737e-16,0,0.66667
0.055575,0.050093,0.55575,-0.67486,-89.628,828.36,1.0002,-0.33339,-0.37757,1.3335,-7.98e-06,-0.18878,0,0,0.1,-5.9212e-17,0,0.66667
0.43714,0.88836,4.3714,0.58254,62.695,351.8,-6.7906,2.2635,-0.79757,-9.0542,-1.3056e-13,-0.39879,0,0,0.1,-0,-1.1593e-16,0.66667
0.90458,0.38064,9.0458,-0.17904,-4.2397,13.234,4.3188,-1.4396,-1.8885,5.7584,-2.9545e-08,-0.94424,0,0,0.1,-0,-0,0.66667
0.52576,0.082671,5.2576,-0.62599,-60.283,260.1,8.7765,-2.9255,-0.60428,11.702,1.9718e-13,-0.30214,0,0,0.1,-0,-0,0.66667
0.54546,0.030784,5.4546,-0.70382,-65.874,241.38,10.237,-3.4125,-0.24246,13.65,-4.2863e-12,-0.12123,0,0,0.1,8.2897e-16,-6.9651e-18,0.66667
0.227,0.55039,2.27,0.07558,9.5145,602.38,-0.45751,0.1525,-1.9765,-0.61002,4.1535e-12,-0.98826,0,0,0.1,2.3685e-16,0,0.66667
0.046401,0.57717,0.46401,0.11575,15.335,840.58,-0.14323,0.047743,-1.9563,-0.19097,3.1579e-08,-0.97813,0,0,0.1,-0,-0,0.66667
0.12581,0.61854,1.2581,0.17781,23.234,734.43,-0.59652,0.19884,-1.8914,-0.79535,-7.3164e-09,-0.94572,0,0,0.1,-0,-0,0.66667
0.21513,0.41516,2.1513,-0.12727,-16.111,617.61,0.73009,-0.24336,-1.9418,0.97345,-1.1644e-11,-0.97089,0,0,0.1,-0,-0,0.66667
0.87339,0.74188,8.7339,0.36282,11.312,22.775,-8.4502,2.8167,-1.5342,-11.267,8.5915e-09,-0.7671,0,0,0.1,-0,-0,0.66667
0.98833,0.9501,9.8833,0.67514,2.0143,2.3484,-17.794,5.9313,-0.37807,-23.725,6.2664e-05,-0.18903,0,0,0.1,-0,-0,0.66667
0.017766,0.46314,0.17766,-0.055283,-7.3367,879.12,0.026191,-0.008731,-1.9908,0.034922,-8.3356e-07,-0.99542,0,0,0.1,1.4803e-17,0,0.66667
0.44331,0.1646,4.4331,-0.5031,-53.736,344.91,5.9474,-1.9825,-1.0977,7.9299,-3.2641e-12,-0.54884,0,0,0.1,-9.4739e-16,0,0.66667
0.3692,0.049496,3.692,-0.67576,-77.745,428.68,6.653,-2.2177,-0.37368,8.8706,-7.5695e-12,-0.18684,0,0,0.1,-4.737e-16,0,0.66667
0.53646,0.41015,5.3646,-0.13478,-12.722,248.83,1.9281,-0.64268,-1.934,2.5707,2.3037e-12,-0.967,0,0,0.1,-1.8948e-15,0,0.66667
0.61652,0.96458,6.1652,0.69687,57.543,177.77,-11.457,3.819,-0.27104,-15.276,1.7524e-12,-0.13552,0,0,0.1,-1.4211e-15,0,0.66667
0.396,0.60956,3.96,0.16433,18.384,397.09,-1.7354,0.57846,-1.9015,-2.3138,-7.8205e-12,-0.95075,0,0,0.1,4.737e-16,0,0.66667
0.18386,0.15177,1.8386,-0.52235,-67.135,658.28,2.5611,-0.8537,-1.0298,3.4148,-6.2452e-10,-0.51489,0,0,0.1,1.1842e-16,0,0.66667
0.58527,0.1641,5.8527,-0.50386,-44.007,204.16,7.8638,-2.6213,-1.0945,10.485,2.2022e-12,-0.54727,0,0,0.1,-0,-0,0.66667
0.033297,0.65908,0.33297,0.23861,31.655,858.21,-0.21187,0.070623,-1.7999,-0.28249,3.3215e-07,-0.89993,0,0,0.1,1.1842e-16,0,0.66667
0.89398,0.57297,8.9398,0.10945,2.8679,16.007,-2.6093,0.86975,-1.957,-3.479,1.9936e-08,-0.97848,0,0,0.1,-0,-0,0.66667
0.64441,0.81161,6.4441,0.46741,36.275,154.27,-8.0322,2.6774,-1.2236,-10.71,4.0146e-13,-0.6118,0,0,0.1,-1.0658e-15,0,0.66667
0.094544,0.090236,0.94544,-0.61465,-81.102,776.19,1.5496,-0.51654,-0.66106,2.0662,6.5981e-08,-0.33053,0,0,0.1,-0,-0,0.66667
0.55137,0.38788,5.5137,-0.16818,-15.513,234.65,2.4728,-0.82425,-1.8977,3.297,-8.8041e-13,-0.94884,0,0,0.1,-0,-0,0.66667
0.12897,0.86454,1.2897,0.54682,71.547,730.39,-1.8807,0.62689,-0.93572,-2.5076,-3.428e-09,-0.46786,0,0,0.1,-1.1842e-16,0,0.66667
0.11882,0.62957,1.1882,0.19435,25.442,743.71,-0.61581,0.20527,-1.8636,-0.82108,-9.8126e-09,-0.93181,0,0,0.1,-0,-0,0.66667
0.26555,0.068562,2.6555,-0.64716,-80.106,554.04,4.5827,-1.5276,-0.51623,6.1103,5.6253e-12,-0.25811,0,0,0.1,-0,-7.4063e-17,0.66667
0.76291,0.97716,7.6291,0.71575,39.851,74.122,-14.561,4.8538,-0.17906,-19.415,-2.5335e-11,-0.08953,0,0,0.1,-0,-0,0.66667
0.69822,0.50659,6.9822,0.0098848,0.66967,113.49,-0.18405,0.061349,-1.9981,-0.2454,-2.0985e-12,-0.99903,0,0,0.1,-0,-0,0.66667
0.55885,0.20512,5.5885,-0.44233,-40.389,228.06,6.5919,-2.1973,-1.3034,8.7892,-2.3244e-12,-0.6517,0,0,0.1,-0,-0,0.66667
0.25523,0.70714,2.5523,0.31071,38.58,566.64,-2.1147,0.70491,-1.6545,-2.8196,4.6789e-12,-0.82723,0,0,0.1,-2.3685e-16,0,0.66667
0.51787,0.62492,5.1787,0.18738,18.181,267.04,-2.5877,0.86258,-1.8777,-3.4503,-5.8575e-12,-0.93885,0,0,0.1,1.0769e-15,0,0.66667
0.92975,0.75604,9.2975,0.38405,6.7765,8.0305,-9.522,3.174,-1.4729,-12.696,1.6892e-07,-0.73646,0,0,0.1,-0,-0,0.66667
0.18532,0.29997,1.8532,-0.30005,-38.485,656.24,1.4828,-0.49426,-1.6809,1.977,4.9805e-11,-0.84046,0,0,0.1,-2.3685e-16,0,0.66667
0.73421,0.71474,7.3421,0.32211,19.643,89.953,-6.3065,2.1022,-1.6366,-8.4087,-1.1151e-11,-0.81828,0,0,0.1,9.4739e-16,0,0.66667
0.87218,0.66614,8.7218,0.24921,7.822,22.906,-5.7962,1.9321,-1.7795,-7.7282,8.2864e-09,-0.88973,0,0,0.1,-0,-0,0.66667
0.66946,0.85609,6.6946,0.53414,39.147,135.16,-9.5356,3.1785,-0.98625,-12.714,-4.6452e-13,-0.49312,0,0,0.1,-0,-0,0.66667
0.2037,0.15554,2.037,-0.51669,-65.875,632.57,2.8066,-0.93553,-1.0561,3.7421,9.4984e-11,-0.52803,0,0,0.1,3.4047e-16,0,0.66667
0.12917,0.18059,1.2917,-0.47912,-62.651,730.09,1.6503,-0.5501,-1.1828,2.2004,6.2254e-09,-0.59141,0,0,0.1,-1.1842e-16,0,0.66667
0.51503,0.26628,5.1503,-0.35058,-34.185,270.05,4.8149,-1.605,-1.5667,6.4199,-1.1582e-12,-0.78334,0,0,0.1,-0,-0,0.66667
0.13031,0.5904,1.3031,0.13561,17.697,728.46,-0.47122,0.15707,-1.9332,-0.62829,-4.4116e-09,-0.96661,0,0,0.1,1.1842e-16,0,0.66667
0.8257,0.050328,8.257,-0.67451,-28.544,42.293,14.852,-4.9506,-0.38303,19.802,3.2549e-09,-0.19152,0,0,0.1,9.4739e-16,0,0.66667
0.52364,0.82894,5.2364,0.49341,47.586,261.83,-6.8899,2.2966,-1.1311,-9.1866,-1.1497e-12,-0.56556,0,0,0.1,-1.5675e-15,0,0.66667
0.29142,0.8793,2.9142,0.56895,69.276,521.78,-4.4215,1.4738,-0.84742,-5.8953,1.3805e-11,-0.42371,0,0,0.1,-9.4739e-16,0,0.66667
0.56813,0.71415,5.6813,0.32122,28.853,219.26,-4.8666,1.6222,-1.6313,-6.4888,-3.2299e-12,-0.81566,0,0,0.1,1.4211e-15,0,0.66667
0.26064,0.35571,2.6064,-0.21643,-26.781,559.77,1.5043,-0.50142,-1.8313,2.0057,-1.7891e-11,-0.91566,0,0,0.1,-0,-0,0.66667
0.58447,0.10427,5.8447,-0.5936,-51.98,205.13,9.2517,-3.0839,-0.74437,12.336,1.9398e-12,-0.37218,0,0,0.1,9.4739e-16,0,0.66667
0.23212,0.012567,2.3212,-0.73115,-92.213,596.38,4.5258,-1.5086,-0.10017,6.0344,-3.6969e-11,-0.050087,0,0,0.1,-0,1.1389e-16,0.66667
0.21905,0.75306,2.1905,0.37959,48.019,612.69,-2.2173,0.73911,-1.493,-2.9564,2.7301e-11,-0.74652,0,0,0.1,-0,-0,0.66667
0.51851,0.65488,5.1851,0.23231,22.525,266.45,-3.2122,1.0707,-1.8095,-4.2829,-6.2481e-12,-0.90475,0,0,0.1,1.1842e-15,0,0.66667
0.83542,0.9508,8.3542,0.67621,27.162,38.165,-15.064,5.0215,-0.37099,-20.086,-9.3705e-09,-0.1855,0,0,0.1,-1.8948e-15,0,0.66667
0.64477,0.94235,6.4477,0.66352,51.606,154.62,-11.408,3.8028,-0.43396,-15.211,5.7376e-13,-0.21698,0,0,0.1,-0,-0,0.66667
0.094191,0.083239,0.94191,-0.62514,-82.501,776.67,1.5702,-0.5234,-0.61463,2.0936,1.033e-07,-0.30732,0,0,0.1,1.1842e-16,0,0.66667
0.13407,0.96471,1.3407,0.69706,91.215,723.76,-2.4921,0.8307,-0.27026,-3.3228,-6.6857e-08,-0.13513,0,0,0.1,-5.9212e-17,0,0.66667
0.3903,0.50048,3.903,0.00071809,0.08074,403.55,-0.0074739,0.0024913,-2.0058,-0.0099652,-3.2303e-12,-1.0029,0,0,0.1,-0,-0,0.66667
0.31956,0.072127,3.1956,-0.64181,-76.735,487.53,5.4693,-1.8231,-0.53244,7.2924,-3.9946e-12,-0.26622,0,0,0.1,-0,-0,0.66667
0.89122,0.96181,8.9122,0.69271,18.942,18.647,-16.463,5.4876,-0.29807,-21.95,3.8931e-07,-0.14904,0,0,0.1,9.4739e-16,0,0.66667
0.89129,0.34245,8.9129,-0.23633,-6.3544,16.947,5.617,-1.8723,-1.8064,7.4894,-2.1362e-08,-0.90319,0,0,0.1,-2.3685e-16,0,0.66667
0.029824,0.14414,0.29824,-0.53379,-70.956,862.92,0.42453,-0.14151,-0.98914,0.56604,-4.1576e-06,-0.49457,0,0,0.1,-0,-0,0.66667
0.21052,0.79144,2.1052,0.43716,55.536,623.7,-2.4542,0.81805,-1.3175,-3.2722,1.5301e-11,-0.65873,0,0,0.1,-0,-0,0.66667
0.38835,0.20918,3.8835,-0.43623,-49.223,406.11,4.5176,-1.5059,-1.3245,6.0234,-2.9243e-12,-0.66224,0,0,0.1,-4.737e-16,0,0.66667
0.17637,0.45022,1.7637,-0.074676,-9.6039,667.83,0.35122,-0.11707,-1.9784,0.4683,1.4489e-10,-0.98921,0,0,0.1,-0,-0,0.66667
0.91869,0.54374,9.1869,0.06561,1.3268,9.7465,-1.6073,0.53578,-1.9843,-2.1431,1.8099e-08,-0.99217,0,0,0.1,-0,-0,0.66667
0.1896,0.32043,1.896,-0.26936,-34.487,650.66,1.3619,-0.45396,-1.7435,1.8158,3.4983e-11,-0.87176,0,0,0.1,-0,-0,0.66667
0.73399,0.41842,7.3399,-0.12237,-7.4564,89.802,2.3951,-0.79837,-1.9509,3.1935,4.285e-12,-0.97545,0,0,0.1,-0,-0,0.66667
0.95692,0.78192,9.5692,0.42288,4.5856,3.8103,-10.791,3.597,-1.3646,-14.388,5.0488e-07,-0.6823,0,0,0.1,3.7896e-15,0,0.66667
0.47772,0.45006,4.7772,-0.074904,-7.6647,307.8,0.95421,-0.31807,-1.977,1.2723,-4.8054e-12,-0.98851,0,0,0.1,-0,-0,0.66667
0.81422,0.39825,8.1422,-0.15262,-6.7733,45.885,3.3138,-1.1046,-1.9193,4.4184,-1.7155e-10,-0.95963,0,0,0.1,9.4739e-16,0,0.66667
0.42822,0.80021,4.2822,0.45031,48.864,361.31,-5.1422,1.7141,-1.2761,-6.8563,-2.0099e-12,-0.63804,0,0,0.1,4.737e-16,0,0.66667
0.81345,0.93087,8.1345,0.6463,29.055,47.669,-14.019,4.6732,-0.51841,-18.693,4.3188e-09,-0.2592,0,0,0.1,4.737e-16,0,0.66667
0.7617,0.55632,7.617,0.084486,4.6805,73.102,-1.7161,0.57202,-1.974,-2.2881,-1.096e-11,-0.98699,0,0,0.1,-0,-0,0.66667
0.9596,0.20572,9.596,-0.44142,-4.4907,3.5498,11.296,-3.7652,-1.3042,15.061,-6.4219e-07,-0.6521,0,0,0.1,-0,-0,0.66667
0.3366,0.22655,3.366,-0.41017,-48.325,466.69,3.6817,-1.2272,-1.399,4.9089,-4.2601e-12,-0.69951,0,0,0.1,-0,-0,0.66667
0.76659,0.68871,7.6659,0.28306,15.42,70.566,-5.7865,1.9288,-1.7195,-7.7153,-2.791e-11,-0.85977,0,0,0.1,-0,-0,0.66667
0.92162,0.40088,9.2162,-0.14868,-2.9025,9.1786,3.6539,-1.218,-1.9265,4.8719,-3.2887e-08,-0.96324,0,0,0.1,-0,-0,0.66667
0.81077,0.81939,8.1077,0.47909,21.723,48.239,-10.358,3.4527,-1.1861,-13.811,1.0475e-10,-0.59304,0,0,0.1,-0,-0,0.66667
0.81434,0.89498,8.1434,0.59247,26.48,47.017,-12.866,4.2886,-0.75353,-17.155,-2.5471e-09,-0.37676,0,0,0.1,-9.4739e-16,0,0.66667
0.9483,0.37711,9.483,-0.18434,-2.3747,4.3784,4.6615,-1.5538,-1.8784,6.2153,4.4504e-08,-0.93918,0,0,0.1,-3.7896e-15,0,0.66667
0.29068,0.29189,2.9068,-0.31216,-37.954,522.4,2.4197,-0.80658,-1.6508,3.2263,-8.4706e-12,-0.82538,0,0,0.1,-0,-0,0.66667
0.44015,0.95285,4.4015,0.67928,72.953,348.76,-7.9729,2.6576,-0.35966,-10.631,1.4717e-12,-0.17983,0,0,0.1,-0,-0,0.66667
0.10606,0.80128,1.0606,0.45191,59.41,760.77,-1.2781,0.42603,-1.2734,-1.7041,-3.438e-08,-0.6367,0,0,0.1,1.1842e-16,0,0.66667
0.87728,0.15756,8.7728,-0.51366,-15.619,22.025,12.017,-4.0056,-1.0641,16.022,1.0399e-08,-0.53205,0,0,0.1,-3.7896e-15,0,0.66667
0.3437,0.89534,3.437,0.59302,69.599,458.5,-5.4352,1.8117,-0.75453,-7.2469,-4.2135e-12,-0.37726,0,0,0.1,-0,-0,0.66667
0.90524,0.92055,9.0524,0.63083,15.077,14.537,-15.228,5.076,-0.588,-20.304,9.497e-08,-0.294,0,0,0.1,-0,-0,0.66667
0.20386,0.19547,2.0386,-0.45679,-58.207,632.31,2.4832,-0.82774,-1.2619,3.311,-1.3647e-10,-0.63095,0,0,0.1,-0,-0,0.66667
0.34961,0.80318,3.4961,0.45478,53.058,451.27,-4.2398,1.4133,-1.2621,-5.6531,-2.1654e-12,-0.63107,0,0,0.1,-0,-0,0.66667
0.69048,0.77674,6.9048,0.41511,28.792,119.47,-7.6434,2.5478,-1.388,-10.191,-1.9562e-12,-0.69401,0,0,0.1,4.737e-16,0,0.66667
0.92271,0.56264,9.2271,0.093958,1.8078,8.8916,-2.3119,0.77063,-1.9735,-3.0825,6.8046e-08,-0.98675,0,0,0.1,3.7896e-15,0,0.66667
0.68795,0.53771,6.8795,0.056569,3.9401,120.76,-1.0378,0.34593,-1.9932,-1.3837,-7.9758e-13,-0.99658,0,0,0.1,-0,-0,0.66667
0.34009,0.3772,3.4009,-0.1842,-21.619,462.31,1.6706,-0.55686,-1.8796,2.2274,-2.6782e-12,-0.93982,0,0,0.1,-0,-0,0.66667
0.040043,0.92407,0.40043,0.63611,84.574,849.2,-0.67925,0.22641,-0.5582,-0.90567,-1.0669e-05,-0.2791,0,0,0.1,5.9212e-17,0,0.66667
0.33175,0.17309,3.3175,-0.49037,-58.022,472.6,4.3381,-1.446,-1.1441,5.7841,-2.2551e-12,-0.57205,0,0,0.1,-0,-0,0.66667
0.47616,0.25174,4.7616,-0.37238,-38.23,309.7,4.7284,-1.5761,-1.505,6.3045,-4.5906e-12,-0.75252,0,0,0.1,-0,-0,0.66667
0.7304,0.22495,7.304,-0.41258,-25.495,92.575,8.036,-2.6787,-1.3941,10.715,4.5688e-12,-0.69703,0,0,0.1,1.8948e-15,0,0.66667
0.89363,0.85203,8.9363,0.52805,14.027,17.166,-12.583,4.1945,-1.0088,-16.778,2.2066e-08,-0.50438,0,0,0.1,-0,-0,0.66667
0.006309,0.32109,0.06309,-0.26836,-35.644,894.56,0.04515,-0.015049,-1.7413,0.0602,6.7336e-07,-0.87065,0,0,0.1,-1.4803e-17,0,0.66667
0.076734,0.73156,0.76734,0.34734,45.88,799.9,-0.71074,0.23691,-1.5733,-0.94766,-1.1239e-07,-0.78666,0,0,0.1,-0,-0,0.66667
0.28179,0.26187,2.8179,-0.3572,-43.684,533.45,2.6842,-0.89472,-1.5502,3.5789,-5.681e-12,-0.7751,0,0,0.1,-0,-0,0.66667
0.53562,0.1882,5.3562,-0.46771,-44.304,250.12,6.6803,-2.2268,-1.2221,8.9071,-1.2967e-12,-0.61104,0,0,0.1,-0,-0,0.66667
0.53579,0.95077,5.3579,0.67616,64.2,250.53,-9.6607,3.2202,-0.37261,-12.881,1.0871e-12,-0.18631,0,0,0.1,-0,-0,0.66667
0.42526,0.96481,4.2526,0.69721,76.094,365.11,-7.9066,2.6355,-0.27192,-10.542,2.8835e-12,-0.13596,0,0,0.1,7.1054e-16,0,0.66667
0.88364,0.033297,8.8364,-0.70005,-20.406,20.926,16.496,-5.4986,-0.25561,21.994,1.8827e-07,-0.1278,0,0,0.1,3.7896e-15,0,0.66667
0.72735,0.61572,7.2735,0.17358,10.804,94.068,-3.3669,1.1223,-1.8899,-4.4891,-4.3843e-12,-0.94497,0,0,0.1,-9.4739e-16,0,0.66667
0.13596,0.8092,1.3596,0.4638,60.53,721.09,-1.6816,0.56053,-1.2343,-2.2421,-4.5876e-09,-0.61713,0,0,0.1,2.3685e-16,0,0.66667
0.23514,0.12705,2.3514,-0.55942,-70.32,592.31,3.5077,-1.1692,-0.89193,4.677,-1.2605e-10,-0.44596,0,0,0.1,-9.4739e-16,0,0.66667
0.50531,0.11181,5.0531,-0.58228,-57.679,280.26,7.8461,-2.6154,-0.79209,10.461,3.5127e-13,-0.39604,0,0,0.1,-9.4739e-16,0,0.66667
0.36252,0.11994,3.6252,-0.5701,-65.883,436.26,5.5112,-1.8371,-0.84482,7.3483,-3.8929e-12,-0.42241,0,0,0.1,7.1054e-16,0,0.66667
0.80862,0.54022,8.0862,0.060326,2.7491,48.444,-1.3008,0.4336,-1.9862,-1.7344,1.4783e-12,-0.99308,0,0,0.1,-0,-0,0.66667
0.41934,0.064992,4.1934,-0.65251,-71.611,371.57,7.2966,-2.4322,-0.48777,9.7288,-8.7086e-13,-0.24389,0,0,0.1,9.4739e-16,0,0.66667
0.94116,0.03024,9.4116,-0.70464,-10.682,7.4356,17.685,-5.8949,-0.23512,23.58,1.4781e-05,-0.11756,0,0,0.1,-0,-0,0.66667
0.18246,0.41005,1.8246,-0.13493,-17.316,659.91,0.65651,-0.21884,-1.934,0.87534,2.395e-10,-0.96699,0,0,0.1,-0,-0,0.66667
0.48279,0.038145,4.8279,-0.69278,-70.781,303.54,8.9191,-2.973,-0.29594,11.892,-7.3657e-12,-0.14797,0,0,0.1,-0,8.1458e-17,0.66667
0.89425,0.90652,8.9425,0.60977,16.166,17.362,-14.541,4.847,-0.67867,-19.388,-5.4828e-09,-0.33933,0,0,0.1,-3.7896e-15,0,0.66667
0.065736,0.63568,0.65736,0.20352,26.909,814.61,-0.35676,0.11892,-1.8524,-0.47568,-5.575e-08,-0.9262,0,0,0.1,1.1842e-16,0,0.66667
0.27923,0.6332,2.7923,0.1998,24.455,536.52,-1.4878,0.49592,-1.8596,-1.9837,9.8122e-13,-0.92982,0,0,0.1,-0,-0,0.66667
0.20277,0.21508,2.0277,-0.42737,-54.472,633.69,2.3109,-0.77031,-1.3557,3.0812,-3.7401e-11,-0.67786,0,0,0.1,2.3685e-16,0,0.66667
0.98481,0.92867,9.8481,0.64301,2.4849,2.3308,-16.886,5.6288,-0.53418,-22.515,1.9874e-05,-0.26709,0,0,0.1,-0,1.9204e-16,0.66667
0.46845,0.39867,4.6845,-0.15199,-15.733,317.55,1.8987,-0.63289,-1.9226,2.5316,-5.6464e-12,-0.96128,0,0,0.1,4.737e-16,0,0.66667
0.88817,0.87912,8.8817,0.56868,15.869,18.914,-13.469,4.4896,-0.85163,-17.958,-9.9408e-09,-0.42582,0,0,0.1,-1.8948e-15,-2.0559e-18,0.66667
0.85393,0.94951,8.5393,0.67427,24.271,30.86,-15.354,5.118,-0.38108,-20.472,7.7975e-09,-0.19054,0,0,0.1,-0,-0,0.66667
0.10397,0.078431,1.0397,-0.63235,-83.296,763.64,1.7532,-0.5844,-0.57573,2.3376,-1.9919e-07,-0.28786,0,0,0.1,-0,-0,0.66667
0.34994,0.82452,3.4994,0.48679,56.792,450.92,-4.5426,1.5142,-1.1546,-6.0568,-1.6942e-12,-0.57731,0,0,0.1,-0,-0,0.66667
0.4967,0.0012393,4.967,-0.74814,-75.14,289.46,9.9093,-3.3031,-0.010778,13.212,-9.1571e-13,-0.0053889,0,0,0.1,-0,-0,0.66667
0.8789,0.34239,8.789,-0.23642,-7.0485,20.7,5.541,-1.847,-1.8015,7.388,-1.1667e-08,-0.90073,0,0,0.1,-2.4869e-15,0,0.66667
0.98185,0.26024,9.8185,-0.35964,-1.5629,1.2579,9.4164,-3.1388,-1.5408,12.555,8.879e-07,-0.77039,0,0,0.1,-0,-0,0.66667
0.33695,0.53122,3.3695,0.046824,5.5071,466.02,-0.42073,0.14024,-1.9908,-0.56097,-1.3464e-11,-0.99538,0,0,0.1,3.1641e-16,0,0.66667
0.78195,0.077452,7.8195,-0.63382,-32.731,63.272,13.216,-4.4055,-0.57509,17.622,1.5163e-10,-0.28755,0,0,0.1,-0,-0,0.66667
0.85872,0.044453,8.5872,-0.68332,-23.858,29.144,15.647,-5.2158,-0.3434,20.863,1.0608e-08,-0.1717,0,0,0.1,-0,-0,0.66667
0.28125,0.89533,2.8125,0.593,72.682,534.4,-4.4475,1.4825,-0.75472,-5.9299,7.9314e-13,-0.37736,0,0,0.1,-0,1.0769e-16,0.66667
0.19893,0.76491,1.9893,0.39737,50.719,638.64,-2.1079,0.70265,-1.437,-2.8106,2.955e-11,-0.71852,0,0,0.1,-0,-0,0.66667
0.64661,0.71678,6.4661,0.32517,25.074,152.21,-5.6068,1.8689,-1.6225,-7.4758,-2.9132e-13,-0.81126,0,0,0.1,1.0658e-15,0,0.66667
0.56414,0.77004,5.6414,0.40507,36.653,223.08,-6.0937,2.0312,-1.4185,-8.1249,5.147e-13,-0.70927,0,0,0.1,-9.4739e-16,0,0.66667
0.15458,0.13706,1.5458,-0.54441,-70.703,696.61,2.2441,-0.74802,-0.94804,2.9921,8.7277e-12,-0.47402,0,0,0.1,-0,-4.4647e-17,0.66667
0.74217,0.62283,7.4217,0.18425,10.934,84.78,-3.6465,1.2155,-1.8773,-4.8619,-1.0123e-11,-0.93864,0,0,0.1,-0,-0,0.66667
0.36009,0.84422,3.6009,0.51633,59.759,439.01,-4.958,1.6527,-1.0571,-6.6107,-2.828e-12,-0.52857,0,0,0.1,-0,-0,0.66667
0.60467,0.055232,6.0467,-0.66715,-56.348,187.71,10.758,-3.5859,-0.41595,14.343,-1.8714e-12,-0.20797,0,0,0.1,4.737e-16,-6.4059e-18,0.66667
0.006493,0.7986,0.06493,0.44789,59.549,894.31,-0.07755,0.025849,-1.2837,-0.1034,-2.0797e-06,-0.64185,0,0,0.1,7.4015e-18,0,0.66667
0.59052,0.79943,5.9052,0.44914,38.835,199.38,-7.0727,2.3576,-1.2823,-9.4302,-1.1728e-12,-0.64115,0,0,0.1,9.4739e-16,0,0.66667
0.73343,0.88798,7.3343,0.58197,35.721,91.21,-11.382,3.7941,-0.79882,-15.176,-1.1914e-11,-0.39941,0,0,0.1,-0,1.1503e-16,0.66667
0.34567,0.39184,3.4567,-0.16224,-18.956,455.66,1.4955,-0.4985,-1.9078,1.994,-2.9912e-12,-0.95388,0,0,0.1,-0,-0,0.66667
0.75933,0.75572,7.5933,0.38358,21.49,74.94,-7.767,2.589,-1.4746,-10.356,-2.3462e-11,-0.73729,0,0,0.1,-0,-0,0.66667
0.42697,0.74292,4.2697,0.36438,39.565,362.56,-4.1488,1.3829,-1.5261,-5.5317,-6.0809e-12,-0.76307,0,0,0.1,4.8966e-16,0,0.66667
0.4232,0.39173,4.232,-0.16241,-17.686,366.53,1.8328,-0.61094,-1.9086,2.4437,-2.7959e-12,-0.95428,0,0,0.1,-0,-0,0.66667
0.29935,0.95199,2.9935,0.67798,82.224,512.21,-5.4121,1.804,-0.36618,-7.2162,2.7955e-12,-0.18309,0,0,0.1,-0,-0,0.66667
0.74106,0.040197,7.4106,-0.6897,-41.397,86.919,13.63,-4.5432,-0.30585,18.173,2.5276e-11,-0.15292,0,0,0.1,-0,-0,0.66667
0.91708,0.19076,9.1708,-0.46386,-9.664,10.965,11.344,-3.7813,-1.234,15.125,-4.104e-08,-0.61698,0,0,0.1,-0,-0,0.66667
0.4431,0.36569,4.431,-0.20147,-21.479,344.72,2.3806,-0.79353,-1.8533,3.1741,7.8271e-13,-0.92666,0,0,0.1,-4.737e-16,0,0.66667
0.98698,0.79473,9.8698,0.4421,1.3561,1.2665,-11.636,3.8786,-1.3054,-15.514,5.2429e-07,-0.65271,0,0,0.1,-0,-0,0.66667
0.79949,0.64503,7.9949,0.21755,10.35,53.032,-4.6381,1.546,-1.8322,-6.1841,-1.4248e-11,-0.91609,0,0,0.1,9.4739e-16,0,0.66667
0.31124,0.50736,3.1124,0.011042,1.3233,497.07,-0.091648,0.030549,-2.0025,-0.1222,-1.8599e-12,-1.0012,0,0,0.1,-0,-0,0.66667
0.23311,0.98419,2.3311,0.72628,91.549,595.12,-4.5146,1.5049,-0.12694,-6.0195,5.6665e-11,-0.063471,0,0,0.1,-0,1.1841e-16,0.66667
0.35894,0.13272,3.5894,-0.55092,-63.845,440.43,5.2732,-1.7577,-0.92524,7.031,-6.6809e-12,-0.46262,0,0,0.1,9.4739e-16,9.532e-17,0.66667
0.40467,0.41456,4.0467,-0.12817,-14.218,387.25,1.3831,-0.46103,-1.9439,1.8441,-4.6866e-12,-0.97193,0,0,0.1,9.4739e-16,0,0.66667
0.4959,0.6795,4.959,0.26925,26.935,289.19,-3.5606,1.1869,-1.7412,-4.7474,-4.3712e-12,-0.8706,0,0,0.1,-0,-0,0.66667
0.70153,0.37924,7.0153,-0.18114,-12.166,111.29,3.3888,-1.1296,-1.8861,4.5183,-1.803e-12,-0.94306,0,0,0.1,1.8948e-15,0,0.66667
0.841,0.2069,8.41,-0.43965,-16.991,34.897,9.8599,-3.2866,-1.313,13.147,-7.2685e-10,-0.65648,0,0,0.1,-9.4739e-16,0,0.66667
0.059074,0.43867,0.59074,-0.091996,-12.17,823.55,0.14492,-0.048307,-1.9707,0.19323,-9.8385e-08,-0.98533,0,0,0.1,-2.3685e-16,0,0.66667
0.45307,0.78614,4.5307,0.42921,45.312,334.25,-5.1857,1.7286,-1.3505,-6.9143,-2.4456e-12,-0.67527,0,0,0.1,-0,-0,0.66667
0.42756,0.30497,4.2756,-0.29255,-31.731,361.82,3.3355,-1.1118,-1.6935,4.4473,-1.3831e-12,-0.84674,0,0,0.1,-4.737e-16,0,0.66667
0.42403,0.4577,4.2403,-0.063455,-6.9027,365.56,0.71752,-0.23917,-1.9868,0.95669,-3.0208e-12,-0.99341,0,0,0.1,-0,-0,0.66667
0.56368,0.41811,5.6368,-0.12283,-11.104,223.14,1.8463,-0.61545,-1.949,2.4618,-1.7197e-12,-0.97452,0,0,0.1,-0,-0,0.66667
0.9398,0.21483,9.398,-0.42776,-6.4916,6.3518,10.72,-3.5734,-1.3511,14.294,-1.1614e-07,-0.67557,0,0,0.1,-1.4211e-15,0,0.66667
0.33032,0.68057,3.3032,0.27085,32.035,474.07,-2.3858,0.79527,-1.7406,-3.1811,-6.5969e-13,-0.87031,0,0,0.1,-4.737e-16,0,0.66667
0.94897,0.44349,9.4897,-0.084761,-1.0752,4.1666,2.145,-0.71499,-1.9736,2.8599,2.5781e-08,-0.9868,0,0,0.1,1.8948e-15,0,0.66667
0.24588,0.58462,2.4588,0.12693,15.829,578.35,-0.83226,0.27742,-1.9416,-1.1097,-1.9756e-13,-0.97078,0,0,0.1,-0,-0,0.66667
0.54841,0.11128,5.4841,-0.58308,-54.228,238.21,8.5271,-2.8424,-0.79317,11.369,-2.5109e-12,-0.39658,0,0,0.1,9.4739e-16,0,0.66667
0.7134,0.87394,7.134,0.5609,36.581,104.11,-10.671,3.5569,-0.88038,-14.228,-7.6161e-12,-0.44019,0,0,0.1,-1.7764e-16,0,0.66667
0.88062,0.85869,8.8062,0.53803,15.953,21.069,-12.635,4.2116,-0.9681,-16.846,5.7069e-09,-0.48405,0,0,0.1,-1.8948e-15,0,0.66667
0.7817,0.32071,7.817,-0.26893,-13.81,62.261,5.6059,-1.8686,-1.7472,7.4745,3.9734e-11,-0.87359,0,0,0.1,1.8948e-15,0,0.66667
0.96576,0.29485,9.6576,-0.30772,-2.6122,2.4368,7.925,-2.6417,-1.6632,10.567,3.6914e-07,-0.83158,0,0,0.1,-1.8948e-15,0,0.66667
0.55114,0.15396,5.5114,-0.51907,-48.028,235.46,7.6288,-2.5429,-1.0417,10.172,-3.6859e-12,-0.52083,0,0,0.1,1.3027e-15,0,0.66667
0.90543,0.76401,9.0543,0.39601,9.3483,13.52,-9.5615,3.1872,-1.4457,-12.749,3.964e-08,-0.72283,0,0,0.1,-0,-0,0.66667
0.65468,0.78061,6.5468,0.42091,31.899,146.1,-7.3484,2.4495,-1.3736,-9.7978,-4.6319e-13,-0.68678,0,0,0.1,1.1842e-15,0,0.66667
0.16901,0.38375,1.6901,-0.17437,-22.489,677.48,0.78589,-0.26196,-1.8922,1.0479,5.1147e-10,-0.9461,0,0,0.1,-0,-0,0.66667
0.030661,0.79387,0.30661,0.4408,58.55,861.78,-0.36041,0.12014,-1.3129,-0.48055,1.4003e-06,-0.65643,0,0,0.1,-0,-0,0.66667
0.76078,0.52148,7.6078,0.03222,1.7908,73.609,-0.65366,0.21789,-1.9944,-0.87155,-4.9356e-12,-0.99722,0,0,0.1,-0,-0,0.66667
0.67762,0.93804,6.7762,0.65706,47.292,129.55,-11.873,3.9577,-0.46386,-15.831,3.1797e-12,-0.23193,0,0,0.1,-1.8948e-15,0,0.66667
0.28831,0.61978,2.8831,0.17967,21.866,525.25,-1.3814,0.46046,-1.8828,-1.8418,-2.2968e-12,-0.94139,0,0,0.1,-0,-0,0.66667
0.10602,0.11989,1.0602,-0.57016,-75.027,760.88,1.6119,-0.5373,-0.84428,2.1492,-3.7882e-08,-0.42214,0,0,0.1,-0,-0,0.66667
0.68946,0.0081631,6.8946,-0.73776,-51.594,121.34,13.564,-4.5214,-0.066445,18.085,3.455e-13,-0.033223,0,0,0.1,-0,-0,0.66667
0.74945,0.37868,7.4945,-0.18197,-10.535,80.368,3.6368,-1.2123,-1.887,4.8491,1.3583e-11,-0.94351,0,0,0.1,-0,-0,0.66667
0.55828,0.81749,5.5828,0.47623,43.541,228.67,-7.0899,2.3633,-1.1929,-9.4531,-3.6318e-12,-0.59643,0,0,0.1,1.8948e-15,0,0.66667
0.66524,0.27045,6.6524,-0.34432,-25.434,137.84,6.1081,-2.036,-1.5755,8.1441,-1.5743e-12,-0.78777,0,0,0.1,-0,-0,0.66667
0.40406,0.16452,4.0406,-0.50321,-55.979,388.36,5.4221,-1.8074,-1.101,7.2295,-8.4022e-13,-0.55048,0,0,0.1,9.4739e-16,0,0.66667
0.86609,0.64831,8.6609,0.22247,7.2941,24.93,-5.1381,1.7127,-1.8213,-6.8508,5.5309e-09,-0.91066,0,0,0.1,-0,-0,0.66667
0.5324,0.2351,5.324,-0.39735,-37.796,253.09,5.6413,-1.8804,-1.4413,7.5217,-2.4825e-13,-0.72063,0,0,0.1,-9.4739e-16,0,0.66667
0.89484,0.3014,8.9484,-0.29791,-7.7685,16.071,7.1087,-2.3696,-1.683,9.4783,-3.0268e-08,-0.84152,0,0,0.1,9.4739e-16,0,0.66667
0.73971,0.030675,7.3971,-0.70399,-42.456,87.814,13.887,-4.6289,-0.237,18.515,2.6342e-11,-0.1185,0,0,0.1,4.737e-16,0,0.66667
0.5229,0.73523,5.229,0.35284,34.022,262.28,-4.92,1.64,-1.5541,-6.56,-4.1056e-12,-0.77705,0,0,0.1,9.4739e-16,0,0.66667
0.71966,0.35729,7.1966,-0.21406,-13.645,99.115,4.1081,-1.3694,-1.8402,5.4775,2.264e-12,-0.92009,0,0,0.1,-0,-0,0.66667
0.88675,0.58768,8.8675,0.13152,3.6729,18.129,-3.1101,1.0367,-1.9379,-4.1468,1.0849e-08,-0.96896,0,0,0.1,1.4211e-15,0,0.66667
0.19451,0.80572,1.9451,0.45858,58.663,644.4,-2.3786,0.79288,-1.2496,-3.1715,2.0002e-10,-0.62481,0,0,0.1,2.3685e-16,0,0.66667
0.42981,0.76106,4.2981,0.39159,42.401,359.47,-4.4882,1.4961,-1.4516,-5.9843,-2.5837e-12,-0.72582,0,0,0.1,-0,-0,0.66667
0.85935,0.051229,8.5935,-0.67316,-23.396,28.863,15.426,-5.142,-0.39378,20.568,4.1437e-08,-0.19689,0,0,0.1,9.4739e-16,1.0923e-16,0.66667
0.030496,0.3059,0.30496,-0.29115,-38.639,861.99,0.23677,-0.078924,-1.7025,0.3157,-6.1138e-07,-0.85127,0,0,0.1,-2.9606e-17,0,0.66667
0.13308,0.81319,1.3308,0.46978,61.361,724.9,-1.6672,0.55573,-1.2136,-2.2229,-5.1765e-09,-0.6068,0,0,0.1,-4.737e-16,0,0.66667
0.40535,0.062281,4.0535,-0.65658,-73.07,387.23,7.0971,-2.3657,-0.47196,9.4628,2.9332e-12,-0.23598,0,0,0.1,-9.992e-16,3.2891e-18,0.66667
0.11236,0.96136,1.1236,0.69205,91.048,752.52,-2.0735,0.69118,-0.29744,-2.7647,-6.1397e-08,-0.14872,0,0,0.1,-1.1842e-16,0,0.66667
0.72615,0.042525,7.2615,-0.68621,-43.185,96.262,13.288,-4.4293,-0.3226,17.717,-8.2707e-12,-0.1613,0,0,0.1,-0,-0,0.66667
0.97481,0.36479,9.7481,-0.20282,-1.2355,1.374,5.2722,-1.7574,-1.8511,7.0296,4.3504e-07,-0.92554,0,0,0.1,-0,-0,0.66667
0.48907,0.64006,4.8907,0.21009,21.199,296.12,-2.74,0.91333,-1.8411,-3.6533,-3.4905e-13,-0.92054,0,0,0.1,-0,-0,0.66667
0.96027,0.59781,9.6027,0.14672,1.4413,2.7317,-3.757,1.2523,-1.9212,-5.0093,-1.8588e-07,-0.96059,0,0,0.1,-0,-0,0.66667
0.13577,0.63742,1.3577,0.20613,26.867,721.24,-0.74631,0.24877,-1.8469,-0.99508,-5.1689e-09,-0.92344,0,0,0.1,2.3685e-16,0,0.66667
0.70044,0.16041,7.0044,-0.50939,-34.436,112.75,9.5147,-3.1716,-1.0786,12.686,-1.0925e-13,-0.53928,0,0,0.1,-0,-0,0.66667
0.58286,0.50707,5.8286,0.010607,0.9276,205.66,-0.16486,0.054953,-1.9981,-0.21981,1.1602e-12,-0.99905,0,0,0.1,-0,-0,0.66667
0.79173,0.15422,7.9173,-0.51867,-25.648,57.715,10.951,-3.6502,-1.0425,14.601,8.2093e-11,-0.52123,0,0,0.1,-2.3929e-16,0,0.66667
0.5377,0.032374,5.377,-0.70144,-66.434,248.77,10.058,-3.3526,-0.24904,13.41,-3.4133e-12,-0.12452,0,0,0.1,-0,-0,0.66667
0.97989,0.7481,9.7989,0.37215,1.8117,1.4235,-9.7244,3.2415,-1.5071,-12.966,-1.2539e-06,-0.75355,0,0,0.1,-2.3685e-16,0,0.66667
0.43965,0.39214,4.3965,-0.16179,-17.312,348.44,1.8968,-0.63226,-1.9079,2.5291,-2.6912e-13,-0.95397,0,0,0.1,-0,-0,0.66667
0.95027,0.5597,9.5027,0.089546,1.1064,3.9809,-2.2691,0.75638,-1.9726,-3.0255,-1.8499e-08,-0.98632,0,0,0.1,-9.4739e-16,0,0.66667
0.91828,0.069413,9.1828,-0.64588,-13.403,11.522,15.816,-5.272,-0.51638,21.088,-1.9652e-07,-0.25819,0,0,0.1,1.8948e-15,0,0.66667
0.42387,0.83958,4.2387,0.50936,55.553,366.23,-5.7574,1.9191,-1.0797,-7.6766,2.0339e-13,-0.53983,0,0,0.1,2.3685e-16,0,0.66667
0.41052,0.40633,4.1052,-0.1405,-15.497,380.66,1.5381,-0.51269,-1.9299,2.0507,-3.1721e-12,-0.96495,0,0,0.1,-0,-0,0.66667
0.019947,0.15337,0.19947,-0.51994,-69.141,876.2,0.27657,-0.092192,-1.0383,0.36876,-4.1462e-06,-0.51913,0,0,0.1,3.7007e-17,0,0.66667
0.44849,0.183,4.4849,-0.47549,-50.481,339.25,5.6868,-1.8956,-1.195,7.5825,-6.9265e-12,-0.59752,0,0,0.1,2.3685e-16,0,0.66667
0.19941,0.66022,1.9941,0.24034,30.645,637.93,-1.278,0.42601,-1.7945,-1.704,3.0093e-11,-0.89727,0,0,0.1,-0,-0,0.66667
0.33593,0.65222,3.3593,0.22833,26.888,467.32,-2.0454,0.68179,-1.8123,-2.7272,-7.9003e-12,-0.90615,0,0,0.1,7.9103e-16,0,0.66667
0.28252,0.058519,2.8252,-0.66222,-81.164,532.94,4.989,-1.663,-0.44414,6.652,-1.7364e-12,-0.22207,0,0,0.1,7.1054e-16,0,0.66667
0.6702,0.42633,6.702,-0.11051,-8.053,133.79,1.975,-0.65832,-1.9585,2.6333,-2.3657e-12,-0.97923,0,0,0.1,9.4739e-16,0,0.66667
0.44017,0.44975,4.4017,-0.075378,-8.0596,347.84,0.88479,-0.29493,-1.9801,1.1797,-8.4399e-13,-0.99006,0,0,0.1,-0,-0,0.66667
0.60025,0.34235,6.0025,-0.23648,-20.046,190.49,3.7853,-1.2618,-1.7995,5.047,-4.1267e-12,-0.89976,0,0,0.1,1.0658e-15,0,0.66667
0.84352,0.70547,8.4352,0.3082,11.705,33.519,-6.9326,2.3109,-1.6667,-9.2435,1.432e-09,-0.83334,0,0,0.1,9.4739e-16,0,0.66667
0.83277,0.6182,8.3277,0.1773,7.1477,37.694,-3.9373,1.3124,-1.8868,-5.2497,6.2321e-10,-0.94342,0,0,0.1,4.737e-16,0,0.66667
0.58556,0.98599,5.8556,0.72899,63.848,204.63,-11.383,3.7944,-0.10723,-15.177,-8.8907e-13,-0.053616,0,0,0.1,9.4739e-16,0,0.66667
0.44054,0.038786,4.4054,-0.69182,-74.281,348.37,8.1273,-2.7091,-0.29847,10.836,-6.8434e-12,-0.14923,0,0,0.1,-0,-0,0.66667
0.40041,0.82476,4.0041,0.48715,54.375,392.46,-5.2015,1.7338,-1.1535,-6.9354,-1.8039e-12,-0.57677,0,0,0.1,-0,-0,0.66667
0.071127,0.73671,0.71127,0.35507,46.942,807.41,-0.67347,0.22449,-1.5486,-0.89796,-1.4848e-07,-0.77429,0,0,0.1,3.4192e-17,0,0.66667
0.46738,0.98111,4.6738,0.72167,75.172,319.72,-8.9945,2.9982,-0.15057,-11.993,-3.2374e-12,-0.075286,0,0,0.1,9.4739e-16,0,0.66667
0.40304,0.4091,4.0304,-0.13636,-15.15,389.09,1.4655,-0.48851,-1.9346,1.954,-3.4014e-12,-0.96729,0,0,0.1,9.4739e-16,0,0.66667
0.20153,0.61706,2.0153,0.17558,22.364,635.16,-0.94362,0.31454,-1.8927,-1.2582,-1.6451e-11,-0.94633,0,0,0.1,2.3685e-16,0,0.66667
0.80272,0.92677,8.0272,0.64015,30.253,52.734,-13.703,4.5677,-0.54036,-18.271,-1.3927e-09,-0.27018,0,0,0.1,-9.4739e-16,0,0.66667
0.69815,0.77512,6.9815,0.41268,28.037,114.07,-7.6829,2.561,-1.3929,-10.244,-9.6056e-13,-0.69645,0,0,0.1,-9.4739e-16,0,0.66667
0.97541,0.64526,9.7541,0.21789,1.2949,1.3539,-5.6674,1.8891,-1.8282,-7.5565,-4.6928e-07,-0.91412,0,0,0.1,-9.4739e-16,0,0.66667
0.38552,0.12996,3.8552,-0.55506,-62.862,409.57,5.7062,-1.9021,-0.90306,7.6083,-5.107e-12,-0.45153,0,0,0.1,9.4739e-16,0,0.66667
0.41693,0.73451,4.1693,0.35176,38.589,373.69,-3.9109,1.3036,-1.5579,-5.2146,-2.0861e-12,-0.77893,0,0,0.1,-0,-0,0.66667
0.51973,0.99757,5.1973,0.74636,72.629,266.4,-10.344,3.4481,-0.019131,-13.792,1.2168e-12,-0.0095657,0,0,0.1,9.4739e-16,0,0.66667
0.35329,0.024974,3.5329,-0.71254,-83.107,447.39,6.7129,-2.2376,-0.19253,8.9505,-1.2998e-12,-0.096264,0,0,0.1,4.737e-16,0,0.66667
0.54525,0.83111,5.4525,0.49666,46.372,240.98,-7.2215,2.4072,-1.1248,-9.6286,-6.537e-13,-0.5624,0,0,0.1,-0,-0,0.66667
0.88975,0.49816,8.8975,-0.0027625,-0.075125,17.172,0.065546,-0.021849,-2.0044,0.087394,-2.4724e-08,-1.0022,0,0,0.1,7.1054e-16,0,0.66667
0.73052,0.93548,7.3052,0.65321,40.524,93.332,-12.725,4.2416,-0.48299,-16.967,-2.1876e-12,-0.2415,0,0,0.1,-1.1842e-15,-1.0357e-16,0.66667
0.20651,0.14358,2.0651,-0.53462,-68.09,628.96,2.9442,-0.98139,-0.98313,3.9256,2.0463e-11,-0.49157,0,0,0.1,-2.3685e-16,0,0.66667
0.80015,0.65123,8.0015,0.22685,10.761,52.718,-4.8403,1.6134,-1.8173,-6.4537,-2.6065e-11,-0.90864,0,0,0.1,-1.4211e-15,0,0.66667
0.79531,0.20932,7.9531,-0.43601,-21.195,55.625,9.2471,-3.0824,-1.3262,12.329,4.9041e-11,-0.66312,0,0,0.1,9.4739e-16,0,0.66667
0.79909,0.59601,7.9909,0.14402,6.86,53.135,-3.069,1.023,-1.9284,-4.092,-8.5193e-11,-0.9642,0,0,0.1,-1.8948e-15,0,0.66667
0.3168,0.49343,3.168,-0.0098512,-1.1759,490.29,0.083224,-0.027741,-1.9986,0.11096,-6.9787e-12,-0.99929,0,0,0.1,-2.3685e-16,0,0.66667
0.61295,0.86959,6.1295,0.55439,46,180.29,-9.0617,3.0206,-0.90706,-12.082,1.9975e-12,-0.45353,0,0,0.1,-1.4211e-15,0,0.66667
0.65229,0.99038,6.5229,0.73556,56.329,149.01,-12.795,4.2649,-0.075207,-17.06,-1.779e-12,-0.037604,0,0,0.1,-0,-0,0.66667
0.12023,0.84892,1.2023,0.52339,68.62,741.97,-1.678,0.55933,-1.0247,-2.2373,6.9285e-09,-0.51236,0,0,0.1,-0,-0,0.66667
0.91868,0.46765,9.1868,-0.04853,-0.98146,9.741,1.1889,-0.3963,-1.9927,1.5852,-3.2034e-09,-0.99633,0,0,0.1,2.4869e-15,0,0.66667
0.36814,0.84175,3.6814,0.51262,58.927,429.6,-5.0324,1.6775,-1.0638,-6.7098,-2.3883e-12,-0.5319,0,0,0.1,-5.9212e-16,0,0.66667
0.68838,0.16083,6.8838,-0.50876,-35.53,121.24,9.3392,-3.1131,-1.0837,12.452,4.0563e-12,-0.54184,0,0,0.1,-1.8948e-15,0,0.66667
0.92834,0.017931,9.2834,-0.7231,-13.293,9.8561,17.901,-5.967,-0.13788,23.868,-2.6171e-06,-0.068939,0,0,0.1,1.8948e-15,0,0.66667
0.67487,0.62506,6.7487,0.18759,13.518,130.38,-3.376,1.1253,-1.8764,-4.5013,3.306e-12,-0.93819,0,0,0.1,-1.8948e-15,0,0.66667
0.93848,0.4245,9.3848,-0.11325,-1.7362,5.8682,2.8341,-0.94471,-1.9574,3.7789,1.9409e-08,-0.9787,0,0,0.1,-0,-0,0.66667
0.69911,0.84806,6.9911,0.52209,35.432,113.72,-9.7333,3.2444,-1.0304,-12.978,-9.9298e-13,-0.51518,0,0,0.1,-0,-0,0.66667
0.17086,0.74637,1.7086,0.36955,47.672,675.14,-1.6838,0.56125,-1.5183,-2.245,-2.697e-10,-0.75915,0,0,0.1,-5.9212e-17,0,0.66667
0.72891,0.18436,7.2891,-0.47346,-29.421,93.701,9.2028,-3.0676,-1.2015,12.27,2.7729e-12,-0.60076,0,0,0.1,2.158e-16,0,0.66667
0.40572,0.53414,4.0572,0.05121,5.6744,386.03,-0.55406,0.18469,-1.9956,-0.73874,-1.0664e-11,-0.9978,0,0,0.1,9.4739e-16,0,0.66667
0.31857,0.61105,3.1857,0.16657,19.863,488.19,-1.4151,0.47169,-1.8985,-1.8868,-1.1726e-12,-0.94924,0,0,0.1,4.737e-16,0,0.66667
0.78065,0.35957,7.8065,-0.21064,-10.857,62.725,4.385,-1.4617,-1.8459,5.8467,3.3328e-11,-0.92294,0,0,0.1,9.4739e-16,0,0.66667
0.79049,0.36944,7.9049,-0.19584,-9.6888,57.542,4.1282,-1.3761,-1.8613,5.5043,4.2286e-11,-0.93067,0,0,0.1,1.4211e-15,0,0.66667
0.94901,0.35226,9.4901,-0.22161,-2.8183,4.337,5.6082,-1.8694,-1.8243,7.4776,4.1185e-08,-0.91214,0,0,0.1,1.8948e-15,0,0.66667
0.20319,0.74756,2.0319,0.37134,47.304,633.12,-2.012,0.67067,-1.5157,-2.6827,4.4151e-11,-0.75783,0,0,0.1,5.9212e-17,0,0.66667
0.53266,0.3068,5.3266,-0.2898,-27.532,252.66,4.1164,-1.3721,-1.7043,5.4885,-1.6565e-12,-0.85213,0,0,0.1,-2.3685e-16,0,0.66667
0.77212,0.48237,7.7212,-0.026439,-1.4082,67.209,0.54439,-0.18146,-1.9945,0.72585,-5.1631e-13,-0.99725,0,0,0.1,1.8948e-15,0,0.66667
0.51635,0.57954,5.1635,0.11931,11.598,268.49,-1.6428,0.54759,-1.9528,-2.1903,-1.6764e-13,-0.97641,0,0,0.1,-9.4739e-16,0,0.66667
0.22879,0.53442,2.2879,0.051636,6.4944,600.09,-0.31503,0.10501,-1.989,-0.42004,2.6781e-11,-0.99449,0,0,0.1,-0,-0,0.66667
0.99529,0.92434,9.9529,0.63651,0.69362,1.8885,-16.894,5.6312,-0.55755,-22.525,1.6944e-06,-0.27877,0,0,0.1,-0,-0,0.66667
0.88932,0.73493,8.8932,0.35239,9.6649,17.79,-8.357,2.7857,-1.5608,-11.143,2.2146e-08,-0.78042,0,0,0.1,1.8948e-15,0,0.66667
0.57714,0.2361,5.7714,-0.39585,-35.033,211.2,6.0924,-2.0308,-1.4458,8.1232,-1.2776e-12,-0.7229,0,0,0.1,-0,-0,0.66667
0.53805,0.24345,5.3805,-0.38483,-36.291,247.62,5.5215,-1.8405,-1.4709,7.362,1.5943e-13,-0.73544,0,0,0.1,-9.4739e-16,0,0.66667
0.83998,0.28499,8.3998,-0.32251,-12.508,34.978,7.224,-2.408,-1.6301,9.632,-1.1076e-09,-0.81503,0,0,0.1,-1.8948e-15,0,0.66667
0.91463,0.66044,9.1463,0.24067,5.1188,10.885,-5.8699,1.9566,-1.7917,-7.8265,5.0962e-08,-0.89587,0,0,0.1,-1.8948e-15,0,0.66667
0.81959,0.85147,8.1959,0.5272,22.92,44.357,-11.522,3.8408,-1.009,-15.363,-2.9793e-10,-0.5045,0,0,0.1,-1.8948e-15,0,0.66667
0.43281,0.67654,4.3281,0.2648,28.558,356.01,-3.0563,1.0188,-1.7488,-4.075,-2.7012e-12,-0.87442,0,0,0.1,4.737e-16,0,0.66667
0.85562,0.96994,8.5562,0.70491,25.132,30.39,-16.084,5.3612,-0.23364,-21.445,7.6588e-09,-0.11682,0,0,0.1,-0,1.733e-17,0.66667
0.22561,0.09507,2.2561,-0.60739,-76.742,604.53,3.6542,-1.2181,-0.68653,4.8722,3.6192e-10,-0.34326,0,0,0.1,-0,-0,0.66667
0.54052,0.4383,5.4052,-0.092554,-8.682,244.92,1.3341,-0.44468,-1.9681,1.7787,2.2207e-12,-0.98404,0,0,0.1,-1.8948e-15,0,0.66667
0.31515,0.66325,3.1515,0.24488,29.28,492.39,-2.058,0.68599,-1.7876,-2.7439,-2.4698e-12,-0.89379,0,0,0.1,-0,-0,0.66667
0.11963,0.32401,1.1963,-0.26399,-34.56,742.65,0.8422,-0.28073,-1.7498,1.1229,1.2226e-08,-0.87492,0,0,0.1,-0,-0,0.66667
0.14551,0.41987,1.4551,-0.12019,-15.618,708.36,0.46638,-0.15546,-1.9465,0.62184,1.5775e-09,-0.97326,0,0,0.1,-2.3685e-16,0,0.66667
0.9366,0.14387,9.366,-0.5342,-8.591,7.3314,13.342,-4.4474,-0.98853,17.79,-1.1676e-07,-0.49427,0,0,0.1,9.4739e-16,0,0.66667
0.19499,0.99856,1.9499,0.74783,95.917,644.08,-3.8886,1.2962,-0.0096744,-5.1848,-3.7231e-10,-0.0048372,0,0,0.1,-0,-0,0.66667
0.64991,0.17651,6.4991,-0.48524,-37.206,149.99,8.4096,-2.8032,-1.16,11.213,-1.35e-13,-0.57999,0,0,0.1,-0,-0,0.66667
0.23912,0.45247,2.3912,-0.071301,-8.922,586.92,0.45466,-0.15155,-1.9799,0.60621,-5.4158e-12,-0.98995,0,0,0.1,-0,-0,0.66667
0.52547,0.34398,5.2547,-0.23402,-22.464,259.6,3.2793,-1.0931,-1.8042,4.3723,-6.2894e-12,-0.9021,0,0,0.1,1.8948e-15,0,0.66667
0.13063,0.85588,1.3063,0.53382,69.808,728.18,-1.8596,0.61987,-0.98423,-2.4795,-5.2046e-09,-0.49211,0,0,0.1,2.3685e-16,0,0.66667
0.28954,0.51812,2.8954,0.027185,3.3049,523.69,-0.20989,0.069965,-1.9942,-0.27986,-3.6193e-12,-0.99708,0,0,0.1,-0,-0,0.66667
0.40052,0.98596,4.0052,0.72894,81.577,392.85,-7.7855,2.5952,-0.10807,-10.381,6.1151e-13,-0.054034,0,0,0.1,9.4739e-16,0,0.66667
0.70668,0.93804,7.0668,0.65705,43.768,109.01,-12.382,4.1273,-0.46572,-16.509,3.7659e-12,-0.23286,0,0,0.1,-1.8948e-15,0,0.66667
0.90107,0.40516,9.0107,-0.14226,-3.4873,14.102,3.4183,-1.1394,-1.9272,4.5577,-1.9183e-08,-0.96358,0,0,0.1,-5.9212e-16,0,0.66667
0.42858,0.59949,4.2858,0.14924,16.16,360.58,-1.7056,0.56854,-1.9184,-2.2742,-7.4476e-12,-0.95919,0,0,0.1,-0,-0,0.66667
0.71382,0.00089213,7.1382,-0.74866,-48.957,104.61,14.251,-4.7503,-0.0064771,19.001,-1.6387e-12,-0.0032385,0,0,0.1,3.7896e-15,0,0.66667
0.13909,0.17137,1.3909,-0.49295,-64.291,716.98,1.8283,-0.60944,-1.138,2.4378,6.6428e-09,-0.56899,0,0,0.1,-0,-0,0.66667
0.10058,0.26769,1.0058,-0.34847,-45.833,768.04,0.93459,-0.31153,-1.5651,1.2461,3.8732e-08,-0.78257,0,0,0.1,-1.1842e-16,0,0.66667
0.44811,0.26291,4.4811,-0.35564,-37.736,339.47,4.2497,-1.4166,-1.5481,5.6663,-2.8066e-12,-0.77406,0,0,0.1,-0,-0,0.66667
0.76051,0.36574,7.6051,-0.20139,-11.213,73.901,4.0843,-1.3614,-1.8538,5.4457,2.0855e-11,-0.92688,0,0,0.1,-0,-0,0.66667
0.23162,0.18404,2.3162,-0.47394,-59.636,596.71,2.9273,-0.97575,-1.2025,3.903,-8.7832e-11,-0.60125,0,0,0.1,-4.9852e-17,0,0.66667
0.80913,0.60592,8.0913,0.15888,7.2264,48.278,-3.4281,1.1427,-1.9097,-4.5708,2.8664e-11,-0.95484,0,0,0.1,-0,-0,0.66667
0.25241,0.45778,2.5241,-0.06333,-7.8694,570.09,0.42627,-0.14209,-1.9865,0.56836,-1.0826e-11,-0.99325,0,0,0.1,-2.3685e-16,0,0.66667
0.083801,0.94775,0.83801,0.67162,88.842,790.56,-1.5009,0.50029,-0.39372,-2.0012,3.0632e-07,-0.19686,0,0,0.1,-0,-0,0.66667
0.513,0.18077,5.13,-0.47885,-46.879,272.31,6.5507,-2.1836,-1.1856,8.7343,6.5059e-13,-0.59279,0,0,0.1,3.0376e-16,0,0.66667
0.00097781,0.69041,0.0097781,0.28562,37.94,901.74,-0.0074472,0.0024816,-1.714,-0.00993,-1.2374e-06,-0.85701,0,0,0.1,-3.7007e-18,-2.7484e-16,0.66667
0.70811,0.81301,7.0811,0.46951,31.045,107.37,-8.8658,2.9553,-1.2156,-11.821,-4.2855e-12,-0.60779,0,0,0.1,-1.8948e-15,0,0.66667
0.73906,0.29006,7.3906,-0.31491,-18.902,86.912,6.2063,-2.0688,-1.6457,8.2751,1.0481e-11,-0.82287,0,0,0.1,-1.8948e-15,0,0.66667
0.97332,0.83098,9.7332,0.49647,3.3224,2.3848,-12.886,4.2953,-1.1218,-17.181,-4.2127e-06,-0.5609,0,0,0.1,9.4739e-16,0,0.66667
0.66316,0.7083,6.6316,0.31245,23.188,139.35,-5.5255,1.8418,-1.6499,-7.3674,-5.5822e-13,-0.82495,0,0,0.1,-0,-0,0.66667
0.49422,0.29566,4.9422,-0.30651,-30.737,290.95,4.0395,-1.3465,-1.6632,5.386,-6.3793e-12,-0.83162,0,0,0.1,9.4739e-16,0,0.66667
0.073623,0.5094,0.73623,0.014096,1.8611,804.03,-0.027675,0.0092248,-1.9977,-0.0369,-2.2181e-07,-0.99887,0,0,0.1,-0,-0,0.66667
0.5343,0.45209,5.343,-0.071862,-6.8048,250.89,1.0239,-0.34129,-1.9814,1.3652,-2.0248e-12,-0.9907,0,0,0.1,-0,-0,0.66667
0.14183,0.40311,1.4183,-0.14533,-18.906,713.22,0.54967,-0.18322,-1.9285,0.7329,2.1765e-09,-0.96426,0,0,0.1,-2.9606e-16,0,0.66667
0.80239,0.59772,8.0239,0.14658,6.8787,51.513,-3.1363,1.0454,-1.922,-4.1818,-7.7326e-11,-0.96099,0,0,0.1,-1.8948e-15,0,0.66667
0.57615,0.058198,5.7615,-0.6627,-58.945,212.82,10.182,-3.3939,-0.44065,13.576,1.7222e-12,-0.22032,0,0,0.1,-0,5.6229e-17,0.66667
0.21291,0.32221,2.1291,-0.26668,-33.81,620.51,1.5141,-0.50472,-1.7446,2.0189,-4.6585e-11,-0.87231,0,0,0.1,-0,-0,0.66667
0.70706,0.23416,7.0706,-0.39877,-26.421,107.9,7.5187,-2.5062,-1.4333,10.025,7.2964e-13,-0.71667,0,0,0.1,-9.4739e-16,0,0.66667
0.33301,0.48022,3.3301,-0.029665,-3.4995,470.74,0.26343,-0.087811,-1.9949,0.35125,-6.2672e-14,-0.99743,0,0,0.1,-0,-0,0.66667
0.6691,0.6906,6.691,0.2859,20.912,134.82,-5.1012,1.7004,-1.7106,-6.8017,-8.7352e-13,-0.85528,0,0,0.1,-0,-0,0.66667
0.77955,0.074944,7.7955,-0.63758,-33.247,64.567,13.254,-4.418,-0.55639,17.672,4.8996e-11,-0.27819,0,0,0.1,-0,-1.1351e-16,0.66667
0.086576,0.25356,0.86576,-0.36966,-48.755,786.73,0.85343,-0.28448,-1.5119,1.1379,4.4432e-08,-0.75597,0,0,0.1,2.3685e-16,0,0.66667
0.51066,0.065925,5.1066,-0.65111,-64.083,275.09,8.8665,-2.9555,-0.49147,11.822,4.2171e-12,-0.24573,0,0,0.1,-0,-0,0.66667
0.10367,0.17119,1.0367,-0.49321,-64.891,763.96,1.3635,-0.45452,-1.1324,1.8181,4.4702e-08,-0.56621,0,0,0.1,-0,-0,0.66667
0.64946,0.12302,6.4946,-0.56547,-43.451,150.58,9.7933,-3.2644,-0.86127,13.058,-2.407e-13,-0.43063,0,0,0.1,-1.0658e-15,0,0.66667
0.3155,0.033824,3.155,-0.69926,-83.901,492.56,5.8831,-1.961,-0.26244,7.8441,5.6368e-12,-0.13122,0,0,0.1,-9.4739e-16,0,0.66667
0.6435,0.067169,6.435,-0.64925,-50.625,155.57,11.141,-3.7137,-0.50206,14.855,-1.2763e-12,-0.25103,0,0,0.1,-0,-0,0.66667
0.048554,0.67673,0.48554,0.2651,35.128,837.69,-0.34324,0.11441,-1.752,-0.45766,4.8825e-08,-0.87601,0,0,0.1,-0,-0,0.66667
0.867,0.23599,8.67,-0.39602,-12.945,25.029,9.1559,-3.052,-1.4391,12.208,-6.3725e-09,-0.71956,0,0,0.1,-9.4739e-16,0,0.66667
0.47816,0.47888,4.7816,-0.031673,-3.2391,307.33,0.40386,-0.13462,-1.9937,0.53848,-6.0382e-12,-0.99685,0,0,0.1,-0,-0,0.66667
0.79355,0.50768,7.9355,0.011514,0.56171,55.842,-0.24365,0.081215,-1.9994,-0.32486,7.4322e-12,-0.99969,0,0,0.1,-0,-0,0.66667
0.22664,0.019746,2.2664,-0.72038,-91.085,603.36,4.3537,-1.4512,-0.15169,5.805,-4.9856e-11,-0.075843,0,0,0.1,-0,-0,0.66667
0.33497,0.25484,3.3497,-0.36774,-43.368,468.58,3.2849,-1.095,-1.5168,4.3799,-3.2661e-12,-0.75841,0,0,0.1,-0,-0,0.66667
0.76377,0.9978,7.6377,0.7467,41.478,73.784,-15.208,5.0695,-0.020262,-20.278,1.0254e-11,-0.010131,0,0,0.1,-1.8948e-15,0,0.66667
0.85342,0.91213,8.5342,0.61819,22.277,30.773,-14.069,4.6896,-0.63907,-18.758,5.4759e-10,-0.31953,0,0,0.1,-0,-0,0.66667
0.43712,0.35022,4.3712,-0.22467,-24.113,351.25,2.6189,-0.87296,-1.8252,3.4918,-1.7184e-12,-0.9126,0,0,0.1,9.4739e-16,0,0.66667
0.93033,0.55636,9.3033,0.084533,1.4671,7.3376,-2.0972,0.69905,-1.972,-2.7962,3.3856e-08,-0.986,0,0,0.1,-4.737e-16,0,0.66667
0.57961,0.018522,5.7961,-0.72222,-63.914,209.91,11.163,-3.721,-0.14754,14.884,1.5241e-12,-0.073771,0,0,0.1,-0,-0,0.66667
0.049097,0.99358,0.49097,0.74037,98.468,837.07,-0.96934,0.32312,-0.052479,-1.2925,4.3648e-06,-0.02624,0,0,0.1,-1.7764e-16,0,0.66667
0.45286,0.070823,4.5286,-0.64377,-68.133,334.94,7.7743,-2.5914,-0.53114,10.366,-8.8063e-13,-0.26557,0,0,0.1,-9.4739e-16,0,0.66667
0.1604,0.3685,1.604,-0.19726,-25.517,688.78,0.84373,-0.28124,-1.8607,1.125,1.0107e-09,-0.93037,0,0,0.1,1.1842e-16,0,0.66667
0.73282,0.089993,7.3282,-0.61501,-37.847,91.718,12.019,-4.0062,-0.65808,16.025,-2.5194e-11,-0.32904,0,0,0.1,-1.2041e-15,5.0105e-17,0.66667
0.34735,0.95256,3.4735,0.67885,79.52,454.34,-6.288,2.096,-0.36057,-8.384,1.5556e-12,-0.18028,0,0,0.1,-0,-0,0.66667
0.20118,0.56136,2.0118,0.092041,11.723,635.59,-0.49377,0.16459,-1.9727,-0.65837,-1.1165e-10,-0.98633,0,0,0.1,2.6645e-16,0,0.66667
0.84279,0.57898,8.4279,0.11847,4.5089,33.507,-2.6626,0.88753,-1.9531,-3.5501,8.5646e-10,-0.97654,0,0,0.1,-9.4739e-16,0,0.66667
0.8178,0.15611,8.178,-0.51584,-22.622,45.124,11.249,-3.7498,-1.0531,14.999,8.7978e-10,-0.52657,0,0,0.1,-2.2204e-16,0,0.66667
0.34365,0.11076,3.4365,-0.58386,-68.521,458.55,5.3504,-1.7835,-0.79259,7.1339,-3.6993e-12,-0.3963,0,0,0.1,4.737e-16,1.1749e-16,0.66667
0.40362,0.40093,4.0362,-0.14861,-16.503,388.44,1.5995,-0.53317,-1.9225,2.1327,1.0116e-12,-0.96126,0,0,0.1,-7.1054e-16,0,0.66667
0.0606,0.29818,0.606,-0.30274,-40.069,821.52,0.48922,-0.16307,-1.6755,0.6523,8.1004e-08,-0.83776,0,0,0.1,1.1842e-16,0,0.66667
0.17888,0.86191,1.7888,0.54286,69.914,664.79,-2.5896,0.8632,-0.94903,-3.4528,-3.7953e-10,-0.47452,0,0,0.1,-0,-0,0.66667
0.73592,0.10824,7.3592,-0.58764,-35.786,89.67,11.532,-3.844,-0.77416,15.376,-6.0973e-12,-0.38708,0,0,0.1,-0,-0,0.66667
0.56613,0.01939,5.6613,-0.72092,-65.283,222.15,10.884,-3.6278,-0.15126,14.511,-1.3616e-12,-0.07563,0,0,0.1,-0,-0,0.66667
0.82324,0.18884,8.2324,-0.46673,-19.889,42.507,10.246,-3.4154,-1.2247,13.662,-3.3382e-10,-0.61237,0,0,0.1,-0,-0,0.66667
0.50115,0.43709,5.0115,-0.094362,-9.3676,283.72,1.2611,-0.42035,-1.9726,1.6814,2.0266e-12,-0.9863,0,0,0.1,-1.2434e-15,0,0.66667
0.76786,0.59669,7.6786,0.14503,7.8545,69.651,-2.9697,0.98991,-1.9272,-3.9596,-3.5968e-11,-0.9636,0,0,0.1,-0,-0,0.66667
0.50992,0.59353,5.0992,0.1403,13.763,274.91,-1.9077,0.63591,-1.929,-2.5437,8.8762e-13,-0.96449,0,0,0.1,-1.0066e-15,0,0.66667
0.56807,0.60153,5.6807,0.1523,13.668,219.12,-2.3071,0.76904,-1.9153,-3.0762,-2.6814e-12,-0.95767,0,0,0.1,-0,-0,0.66667
0.18462,0.82906,1.8462,0.49358,63.405,657.28,-2.43,0.81,-1.1337,-3.24,1.5189e-10,-0.56687,0,0,0.1,2.3685e-16,0,0.66667
0.5444,0.11315,5.444,-0.58028,-54.304,242,8.4242,-2.8081,-0.80337,11.232,3.828e-13,-0.40168,0,0,0.1,-9.4739e-16,1.7041e-17,0.66667
0.20103,0.12017,2.0103,-0.56975,-72.756,636.06,3.0544,-1.0181,-0.84771,4.0725,-2.7453e-10,-0.42385,0,0,0.1,3.5527e-16,-1.4656e-16,0.66667
0.55622,0.11992,5.5622,-0.57011,-52.357,230.83,8.4562,-2.8187,-0.84215,11.275,-5.3291e-13,-0.42108,0,0,0.1,2.3685e-16,0,0.66667
0.14144,0.22933,1.4144,-0.406,-52.883,713.82,1.5313,-0.51044,-1.4173,2.0418,3.3975e-09,-0.70867,0,0,0.1,-0,-0,0.66667
0.18601,0.67068,1.8601,0.25602,32.823,655.32,-1.2699,0.42331,-1.769,-1.6932,-8.51e-11,-0.8845,0,0,0.1,-0,-0,0.66667
0.76478,0.26109,7.6478,-0.35837,-19.673,71.754,7.3086,-2.4362,-1.5467,9.7448,2.5864e-11,-0.77336,0,0,0.1,1.8948e-15,0,0.66667
0.070886,0.28377,0.70886,-0.32434,-42.874,807.73,0.6131,-0.20437,-1.6239,0.81747,1.3199e-07,-0.81197,0,0,0.1,-2.3685e-16,0,0.66667
0.36931,0.27069,3.6931,-0.34396,-39.448,427.99,3.3875,-1.1292,-1.5768,4.5166,-5.7634e-12,-0.78842,0,0,0.1,-4.737e-16,0,0.66667
0.87788,0.1537,8.7788,-0.51945,-15.726,21.858,12.16,-4.0535,-1.0418,16.214,9.3171e-09,-0.52088,0,0,0.1,9.4739e-16,0,0.66667
0.10434,0.81473,1.0434,0.4721,62.095,763.07,-1.3135,0.43785,-1.2065,-1.7514,-3.7354e-08,-0.60327,0,0,0.1,-0,-0,0.66667
0.35915,0.43564,3.5915,-0.096545,-11.157,439.7,0.92465,-0.30822,-1.9726,1.2329,-3.1074e-12,-0.98629,0,0,0.1,5.9212e-17,0,0.66667
0.11396,0.97971,1.1396,0.71957,94.663,750.41,-2.1867,0.72891,-0.15728,-2.9156,-6.0168e-10,-0.078639,0,0,0.1,-0,-0,0.66667
0.87654,0.071392,8.7654,-0.64291,-19.76,22.846,15.028,-5.0092,-0.53264,20.037,-1.484e-07,-0.26632,0,0,0.1,-0,-0,0.66667
0.12624,0.20061,1.2624,-0.44909,-58.756,733.96,1.5118,-0.50393,-1.2854,2.0157,5.5341e-09,-0.64272,0,0,0.1,2.3685e-16,0,0.66667
0.25456,0.13766,2.5456,-0.54352,-67.622,567.71,3.6895,-1.2298,-0.94785,4.9193,-2.3317e-11,-0.47393,0,0,0.1,-4.737e-16,0,0.66667
0.42191,0.18885,4.2191,-0.46673,-50.986,368.32,5.2511,-1.7504,-1.2317,7.0015,2.8315e-12,-0.61584,0,0,0.1,-0,-0,0.66667
0.66526,0.27306,6.6526,-0.34041,-25.143,137.82,6.0389,-2.013,-1.5853,8.0518,-1.4309e-12,-0.79264,0,0,0.1,-0,-0,0.66667
0.34471,0.26224,3.4471,-0.35664,-41.741,456.96,3.2783,-1.0928,-1.5508,4.3711,-5.2889e-12,-0.77541,0,0,0.1,-9.4739e-16,0,0.66667
0.2135,0.84467,2.135,0.517,65.633,619.94,-2.9435,0.98116,-1.0487,-3.9246,1.8826e-10,-0.52437,0,0,0.1,-0,-0,0.66667
0.37339,0.58753,3.7339,0.1313,14.992,423.08,-1.3073,0.43578,-1.9412,-1.7431,-6.5237e-12,-0.97058,0,0,0.1,7.1054e-16,0,0.66667
0.57102,0.974,5.7102,0.71101,63.847,217.64,-10.827,3.6089,-0.2001,-14.436,1.0667e-12,-0.10005,0,0,0.1,-0,-0,0.66667
0.99075,0.12581,9.9075,-0.56129,-1.2338,1.6319,14.829,-4.9431,-0.87838,19.772,-9.875e-06,-0.43919,0,0,0.1,3.7896e-15,0,0.66667
0.32717,0.63899,3.2717,0.20849,24.711,477.83,-1.819,0.60632,-1.8484,-2.4253,-4.8667e-12,-0.92422,0,0,0.1,4.737e-16,0,0.66667
0.3622,0.55245,3.622,0.078675,9.0684,436.12,-0.7599,0.2533,-1.9782,-1.0132,-4.0987e-12,-0.98912,0,0,0.1,-0,-0,0.66667
0.70624,0.099204,7.0624,-0.60119,-40.053,109.09,11.322,-3.7741,-0.71529,15.096,-6.5015e-12,-0.35764,0,0,0.1,-0,-0,0.66667
0.29894,0.44449,2.9894,-0.083263,-10.062,512.12,0.66374,-0.22125,-1.977,0.88499,-5.8485e-12,-0.9885,0,0,0.1,-0,-0,0.66667
0.3497,0.51382,3.497,0.020736,2.4146,450.84,-0.19337,0.064457,-1.9957,-0.25783,-5.8762e-12,-0.99784,0,0,0.1,-0,-0,0.66667
0.99471,0.016505,9.9471,-0.72524,-0.99329,2.4376,19.237,-6.4124,-0.12746,25.65,-6.8475e-06,-0.063732,0,0,0.1,-0,-0,0.66667
0.60427,0.94035,6.0427,0.66053,55.826,188.04,-10.644,3.5479,-0.44757,-14.191,2.2453e-12,-0.22378,0,0,0.1,-0,-0,0.66667
0.82881,0.22529,8.2881,-0.41207,-17.033,39.895,9.1074,-3.0358,-1.4003,12.143,-2.9041e-10,-0.70016,0,0,0.1,-0,-0,0.66667
0.031666,0.037053,0.31666,-0.69442,-92.439,860.47,0.58639,-0.19548,-0.29017,0.78184,-1.9271e-05,-0.14509,0,0,0.1,-1.1842e-16,0,0.66667
0.14549,0.46343,1.4549,-0.054849,-7.1265,708.38,0.2128,-0.070933,-1.9879,0.28373,1.3618e-09,-0.99396,0,0,0.1,2.9606e-16,0,0.66667
0.72773,0.63177,7.2773,0.19765,12.29,93.855,-3.8356,1.2785,-1.8586,-5.1141,-4.1962e-12,-0.92928,0,0,0.1,-1.8948e-15,0,0.66667
0.53974,0.8246,5.3974,0.4869,45.843,246.2,-7.008,2.336,-1.154,-9.344,-1.0436e-12,-0.57698,0,0,0.1,9.4739e-16,0,0.66667
0.99526,0.69767,9.9526,0.29651,0.22759,0.48591,-7.8695,2.6232,-1.6856,-10.493,9.5744e-07,-0.84279,0,0,0.1,1.8948e-15,0,0.66667
0.49563,0.63463,4.9563,0.20194,20.202,289.4,-2.669,0.88968,-1.8536,-3.5587,-1.9231e-12,-0.92678,0,0,0.1,-0,-0,0.66667
0.3841,0.69951,3.841,0.29927,33.869,410.81,-3.0654,1.0218,-1.6786,-4.0872,-4.0119e-12,-0.83929,0,0,0.1,-0,-0,0.66667
0.19437,0.49297,1.9437,-0.010542,-1.3463,644.4,0.05464,-0.018213,-1.997,0.072853,9.8021e-11,-0.99848,0,0,0.1,-7.1054e-16,0,0.66667
0.59017,0.13924,5.9017,-0.54114,-46.87,199.93,8.5163,-2.8388,-0.95794,11.355,2.0339e-12,-0.47897,0,0,0.1,-0,-0,0.66667
0.76663,0.18293,7.6663,-0.47561,-25.979,71.046,9.723,-3.241,-1.1995,12.964,6.2632e-11,-0.59974,0,0,0.1,9.4739e-16,0,0.66667
0.92444,0.35378,9.2444,-0.21933,-4.1355,8.6888,5.4069,-1.8023,-1.8296,7.2092,-7.0908e-08,-0.91478,0,0,0.1,-0,-0,0.66667
0.13763,0.68109,1.3763,0.27163,35.394,718.81,-0.99689,0.3323,-1.7381,-1.3292,-4.8485e-09,-0.86903,0,0,0.1,-0,-0,0.66667
0.0080899,0.92709,0.080899,0.64064,85.312,892.17,-0.1382,0.046046,-0.53767,-0.18428,-3.068e-05,-0.26883,0,0,0.1,7.4015e-18,0,0.66667
0.47796,0.63293,4.7796,0.1994,20.405,307.62,-2.5415,0.84715,-1.856,-3.3886,-3.2487e-12,-0.92801,0,0,0.1,9.4739e-16,0,0.66667
0.18295,0.61762,1.8295,0.17643,22.64,659.28,-0.86075,0.28692,-1.8879,-1.1477,-7.0248e-11,-0.94397,0,0,0.1,-0,-0,0.66667
0.61034,0.9303,6.1034,0.64544,53.903,182.8,-10.505,3.5017,-0.52223,-14.007,1.2488e-12,-0.26112,0,0,0.1,-0,-0,0.66667
0.62027,0.93104,6.2027,0.64656,52.944,174.46,-10.694,3.5648,-0.5122,-14.259,-1.819e-12,-0.2561,0,0,0.1,4.737e-16,0,0.66667
0.40963,0.15897,4.0963,-0.51155,-56.602,382.1,5.5879,-1.8626,-1.0701,7.4506,-1.0201e-12,-0.53503,0,0,0.1,9.4739e-16,0,0.66667
0.67721,0.13441,6.7721,-0.54838,-39.436,129.46,9.9031,-3.301,-0.92858,13.204,-4.9916e-13,-0.46429,0,0,0.1,-0,-0,0.66667
0.19967,0.42881,1.9967,-0.10679,-13.61,637.55,0.56861,-0.18954,-1.959,0.75815,6.1706e-11,-0.97952,0,0,0.1,-0,-0,0.66667
0.80858,0.53504,8.0858,0.052556,2.3954,48.459,-1.1332,0.37774,-1.9899,-1.511,7.0872e-12,-0.99495,0,0,0.1,-1.8948e-15,0,0.66667
0.05034,0.87518,0.5034,0.56276,74.702,835.35,-0.75545,0.25182,-0.87485,-1.0073,-4.9647e-07,-0.43742,0,0,0.1,-0,-0,0.66667
0.17186,0.51451,1.7186,0.021767,2.8038,673.73,-0.099756,0.033252,-2.0032,-0.13301,-2.3492e-10,-1.0016,0,0,0.1,-4.737e-16,0,0.66667
0.9806,0.35881,9.806,-0.21179,-0.97118,0.9688,5.5381,-1.846,-1.8394,7.3841,2.9606e-07,-0.91971,0,0,0.1,1.8948e-15,0,0.66667
0.90038,0.13807,9.0038,-0.5429,-13.553,15.384,13.035,-4.345,-0.9493,17.38,-1.6225e-08,-0.47465,0,0,0.1,-0,-0,0.66667
0.93973,0.94373,9.3973,0.66559,10.293,7.4502,-16.679,5.5598,-0.42632,-22.239,-4.7807e-06,-0.21316,0,0,0.1,1.8948e-15,0,0.66667
0.90844,0.39415,9.0844,-0.15877,-3.6104,12.234,3.8462,-1.2821,-1.9114,5.1283,-3.489e-08,-0.95569,0,0,0.1,9.4739e-16,0,0.66667
0.44142,0.70962,4.4142,0.31443,33.604,346.67,-3.7012,1.2337,-1.6475,-4.9349,-2.6898e-12,-0.82376,0,0,0.1,-0,-0,0.66667
0.9388,0.3666,9.388,-0.2001,-3.0571,5.9253,5.0094,-1.6698,-1.8604,6.6793,-2.5475e-08,-0.93018,0,0,0.1,-0,-0,0.66667
0.23741,0.2357,2.3741,-0.39645,-49.714,589.25,2.51,-0.83665,-1.4409,3.3466,-2.6386e-11,-0.72046,0,0,0.1,-0,-0,0.66667
0.049514,0.71385,0.49514,0.32078,42.513,836.41,-0.42355,0.14118,-1.6352,-0.56474,-7.9052e-09,-0.81761,0,0,0.1,-8.8818e-17,0,0.66667
0.55726,0.69712,5.5726,0.29569,27.036,229.27,-4.394,1.4647,-1.687,-5.8587,-8.6997e-13,-0.8435,0,0,0.1,-0,-0,0.66667
0.31332,0.828,3.1332,0.49199,58.996,494.86,-4.1107,1.3702,-1.1426,-5.4809,-3.1237e-12,-0.57129,0,0,0.1,4.737e-16,0,0.66667
0.53208,0.21201,5.3208,-0.43198,-41.123,253.47,6.1293,-2.0431,-1.3403,8.1723,-1.2479e-13,-0.67014,0,0,0.1,-4.737e-16,0,0.66667
0.47161,0.23088,4.7161,-0.40368,-41.686,314.52,5.0768,-1.6923,-1.4207,6.769,-3.9027e-12,-0.71033,0,0,0.1,-0,-0,0.66667
0.48313,0.64043,4.8313,0.21064,21.417,302.25,-2.7138,0.90459,-1.8447,-3.6184,-2.4785e-12,-0.92236,0,0,0.1,9.4739e-16,0,0.66667
0.57008,0.15658,5.7008,-0.51513,-46.204,217.89,7.8311,-2.6104,-1.0548,10.441,-3.6606e-12,-0.52742,0,0,0.1,-0,-0,0.66667
0.92344,0.43216,9.2344,-0.10176,-1.9398,8.7423,2.506,-0.83532,-1.9658,3.3413,-6.3197e-08,-0.98292,0,0,0.1,-0,-0,0.66667
0.23619,0.67009,2.3619,0.25513,31.989,590.71,-1.607,0.53565,-1.7701,-2.1426,2.257e-11,-0.88504,0,0,0.1,-0,-0,0.66667
0.87608,0.80874,8.7608,0.46311,14.188,22.22,-10.819,3.6064,-1.2412,-14.426,4.2027e-09,-0.62059,0,0,0.1,-9.4739e-16,0,0.66667
0.73384,0.74863,7.3384,0.37294,22.784,90.302,-7.298,2.4327,-1.5107,-9.7307,-1.169e-11,-0.75534,0,0,0.1,1.1842e-15,0,0.66667
0.079211,0.028411,0.79211,-0.70738,-93.68,796.72,1.4942,-0.49806,-0.22472,1.9923,2.361e-06,-0.11236,0,0,0.1,5.9212e-17,0,0.66667
0.83539,0.86492,8.3539,0.54738,21.901,37.592,-12.194,4.0647,-0.93164,-16.259,-3.0573e-10,-0.46582,0,0,0.1,-9.4739e-16,0,0.66667
0.39764,0.23577,3.9764,-0.39635,-44.324,395.45,4.2028,-1.4009,-1.4383,5.6038,-3.6877e-12,-0.71913,0,0,0.1,-4.737e-16,0,0.66667
0.33574,0.080976,3.3574,-0.62854,-74.249,468.06,5.6273,-1.8758,-0.59213,7.503,-3.1517e-12,-0.29607,0,0,0.1,4.737e-16,0,0.66667
0.000393,0.25022,0.00393,-0.37467,-49.792,902.53,0.0039259,-0.0013072,-1.5066,0.0052352,2.0952e-06,-0.75329,0,0,0.1,-9.2519e-19,-6.5485e-18,0.66667
0.24581,0.10531,2.4581,-0.59204,-74.039,578.82,3.8807,-1.2936,-0.75232,5.1743,-1.016e-10,-0.37616,0,0,0.1,-0,-0,0.66667
0.68795,0.24636,6.8795,-0.38046,-26.555,121.19,6.9796,-2.3265,-1.4903,9.3062,-1.3638e-12,-0.74515,0,0,0.1,-0,-0,0.66667
0.85117,0.098149,8.5117,-0.60278,-22.018,31.55,13.682,-4.5606,-0.70575,18.242,1.0899e-08,-0.35287,0,0,0.1,-0,-0,0.66667
0.24105,0.64252,2.4105,0.21378,26.733,584.51,-1.3742,0.45806,-1.8344,-1.8322,1.7058e-11,-0.91721,0,0,0.1,4.737e-16,0,0.66667
0.37094,0.38261,3.7094,-0.17608,-20.15,425.95,1.7417,-0.58057,-1.8888,2.3223,-3.031e-12,-0.9444,0,0,0.1,-0,-0,0.66667
0.15042,0.20899,1.5042,-0.43651,-56.717,702,1.751,-0.58366,-1.32,2.3346,1.3391e-09,-0.66,0,0,0.1,-2.3685e-16,0,0.66667
0.8035,0.51627,8.035,0.024406,1.139,50.897,-0.52295,0.17432,-1.9948,-0.69726,3.7797e-11,-0.9974,0,0,0.1,-0,-0,0.66667
0.71702,0.198,7.1702,-0.453,-29.179,101.36,8.6617,-2.8872,-1.2722,11.549,1.5987e-12,-0.6361,0,0,0.1,-0,-0,0.66667
0.70048,0.76957,7.0048,0.40436,27.293,112.43,-7.5531,2.5177,-1.419,-10.071,-6.0396e-14,-0.70952,0,0,0.1,-9.4739e-16,0,0.66667
0.67885,0.33448,6.7885,-0.24828,-17.719,127.53,4.4946,-1.4982,-1.7779,5.9928,-1.3856e-13,-0.88896,0,0,0.1,-9.4739e-16,0,0.66667
0.89205,0.13771,8.9205,-0.54343,-14.649,17.68,12.927,-4.309,-0.95221,17.236,5.0089e-09,-0.4761,0,0,0.1,-0,-0,0.66667
0.88303,0.78875,8.8303,0.43313,12.552,19.924,-10.199,3.3997,-1.3302,-13.599,7.3181e-09,-0.66508,0,0,0.1,-0,-0,0.66667
0.62537,0.21736,6.2537,-0.42396,-34.252,169.57,7.0701,-2.3567,-1.3665,9.4268,-4.8672e-13,-0.68323,0,0,0.1,1.1842e-15,0,0.66667
0.28878,0.70249,2.8878,0.30374,36.973,524.75,-2.339,0.77967,-1.6687,-3.1187,1.4013e-12,-0.83435,0,0,0.1,4.737e-16,0,0.66667
0.4031,0.8038,4.031,0.45569,50.719,389.36,-4.8984,1.6328,-1.2616,-6.5313,-1.636e-12,-0.63081,0,0,0.1,-4.737e-16,0,0.66667
0.028957,0.47567,0.28957,-0.036499,-4.8412,864.05,0.028185,-0.0093949,-1.9966,0.037579,-3.595e-09,-0.99829,0,0,0.1,-0,-0,0.66667
0.91648,0.81417,9.1648,0.47126,9.8907,11.129,-11.517,3.8391,-1.2092,-15.356,3.4066e-08,-0.60462,0,0,0.1,-0,-0,0.66667
0.68745,0.47236,6.8745,-0.041454,-2.891,121.11,0.75993,-0.25331,-1.9996,1.0132,6.678e-14,-0.99982,0,0,0.1,-0,-0,0.66667
0.90817,0.43877,9.0817,-0.091846,-2.0931,12.234,2.2243,-0.74144,-1.9728,2.9658,4.1629e-09,-0.9864,0,0,0.1,-3.7896e-15,0,0.66667
0.30209,0.58412,3.0209,0.12619,15.218,508.27,-1.0165,0.33884,-1.9413,-1.3553,6.7713e-13,-0.97063,0,0,0.1,-2.3685e-16,0,0.66667
0.94483,0.029775,9.4483,-0.70534,-10.044,6.8549,17.771,-5.9237,-0.22926,23.695,1.3326e-05,-0.11463,0,0,0.1,-7.1054e-16,0,0.66667
0.86403,0.035656,8.6403,-0.69652,-23.482,27.322,16.048,-5.3494,-0.27401,21.398,-6.904e-08,-0.137,0,0,0.1,-1.8948e-15,0,0.66667
0.88601,0.39178,8.8601,-0.16234,-4.563,18.384,3.8355,-1.2785,-1.9044,5.114,-1.3309e-08,-0.9522,0,0,0.1,1.8948e-15,0,0.66667
0.00014133,0.88439,0.0014133,0.57659,76.741,902.86,-0.002169,0.00073784,-0.82281,-0.0028846,2.227e-05,-0.41141,0,0,0.1,-0,3.9828e-16,0.66667
0.37724,0.44442,3.7724,-0.083376,-9.4867,418.6,0.83874,-0.27958,-1.9767,1.1183,-2.9263e-12,-0.98834,0,0,0.1,-0,-0,0.66667
0.12233,0.68876,1.2233,0.28315,37.046,739.08,-0.92362,0.30787,-1.7166,-1.2315,-1.0726e-08,-0.85831,0,0,0.1,-0,-0,0.66667
0.93281,0.82875,9.3281,0.49312,8.3755,7.8449,-12.266,4.0887,-1.1334,-16.355,2.1255e-07,-0.56672,0,0,0.1,-0,-0,0.66667
0.51371,0.7453,5.1371,0.36795,35.95,271.39,-5.0405,1.6802,-1.5208,-6.7206,-3.0882e-12,-0.76041,0,0,0.1,-4.737e-16,0,0.66667
0.48934,0.2351,4.8934,-0.39735,-40.127,296.09,5.1849,-1.7283,-1.4364,6.9133,-1.6995e-12,-0.71822,0,0,0.1,-9.4739e-16,0,0.66667
0.48692,0.82297,4.8692,0.48445,49.114,298.75,-6.2904,2.0968,-1.1661,-8.3872,-2.5757e-13,-0.58307,0,0,0.1,-0,-0,0.66667
0.57029,0.091207,5.7029,-0.61319,-55.049,217.97,9.3252,-3.1084,-0.66102,12.434,4.0501e-13,-0.33051,0,0,0.1,4.737e-16,0,0.66667
0.54451,0.97621,5.4451,0.71431,66.965,242.32,-10.372,3.4573,-0.18696,-13.829,1.7293e-12,-0.09348,0,0,0.1,-0,-8.6054e-17,0.66667
0.91711,0.83033,9.1711,0.4955,10.336,11.083,-12.118,4.0393,-1.125,-16.157,2.1775e-08,-0.56252,0,0,0.1,-0,-0,0.66667
0.88438,0.7742,8.8438,0.4113,11.78,19.438,-9.6998,3.2333,-1.3961,-12.933,1.0677e-08,-0.69804,0,0,0.1,4.737e-16,0,0.66667
0.78372,0.65947,7.8372,0.23921,12.179,61.136,-4.9993,1.6664,-1.7982,-6.6657,-2.8662e-11,-0.89908,0,0,0.1,-0,-0,0.66667
0.32273,0.018392,3.2273,-0.72241,-86.259,483.87,6.2171,-2.0724,-0.14198,8.2895,3.3351e-12,-0.070991,0,0,0.1,-0,-0,0.66667
0.78444,0.93563,7.8444,0.65345,33.422,62.047,-13.669,4.5563,-0.4827,-18.225,9.7341e-10,-0.24135,0,0,0.1,-1.1842e-15,0,0.66667
0.14519,0.66161,1.4519,0.24242,31.515,708.82,-0.93855,0.31285,-1.7899,-1.2514,-2.9134e-09,-0.89496,0,0,0.1,-0,-0,0.66667
0.86023,0.71005,8.6023,0.31507,10.772,27.195,-7.2276,2.4092,-1.6505,-9.6368,4.2276e-09,-0.82527,0,0,0.1,-0,-0,0.66667
0.773,0.017775,7.73,-0.72334,-38.787,68.52,14.91,-4.9701,-0.13645,19.881,3.9185e-11,-0.068223,0,0,0.1,-0,-0,0.66667
0.77597,0.17559,7.7597,-0.48661,-25.65,65.914,10.069,-3.3564,-1.1558,13.425,2.3221e-11,-0.57788,0,0,0.1,-9.4739e-16,0,0.66667
0.5287,0.12477,5.287,-0.56285,-53.926,257.06,7.9354,-2.6451,-0.87566,10.581,3.4714e-12,-0.43783,0,0,0.1,-1.3323e-15,6.693e-21,0.66667
0.45019,0.82772,4.5019,0.49158,52.097,337.46,-5.9014,1.9671,-1.1407,-7.8686,-9.2903e-13,-0.57034,0,0,0.1,-0,-0,0.66667
0.22663,0.51597,2.2663,0.023962,3.0169,602.84,-0.14482,0.048272,-1.9947,-0.19309,-3.8607e-12,-0.99734,0,0,0.1,9.4739e-16,0,0.66667
0.80868,0.1989,8.0868,-0.45165,-20.67,49.136,9.7396,-3.2465,-1.2737,12.986,5.1037e-11,-0.63684,0,0,0.1,-0,-0,0.66667
0.96593,0.60865,9.6593,0.16297,1.3649,2.1269,-4.1979,1.3993,-1.9056,-5.5972,-2.1158e-07,-0.9528,0,0,0.1,-1.8948e-15,0,0.66667
0.54353,0.27461,5.4353,-0.33809,-31.604,242.29,4.9003,-1.6334,-1.5935,6.5338,-4.9294e-13,-0.79676,0,0,0.1,-4.737e-16,0,0.66667
0.90221,0.12983,9.0221,-0.55525,-13.625,14.957,13.359,-4.4529,-0.90323,17.812,-2.6584e-08,-0.45162,0,0,0.1,-1.8948e-15,0,0.66667
0.28235,0.71523,2.8235,0.32284,39.461,532.72,-2.4308,0.81027,-1.6332,-3.2411,-2.5602e-12,-0.81658,0,0,0.1,7.1054e-16,0,0.66667
0.51776,0.9005,5.1776,0.60075,58.502,267.9,-8.2944,2.7648,-0.71852,-11.059,-1.4531e-12,-0.35926,0,0,0.1,-2.3685e-16,0,0.66667
0.32816,0.69209,3.2816,0.28813,34.137,476.68,-2.5214,0.84047,-1.7105,-3.3619,-4.0372e-12,-0.85523,0,0,0.1,-0,-0,0.66667
0.9918,0.18077,9.918,-0.47885,-0.87715,1.2163,12.665,-4.2216,-1.182,16.886,-2.8484e-06,-0.59101,0,0,0.1,-9.4739e-16,0,0.66667
0.25032,0.96076,2.5032,0.69114,86.317,573.26,-4.6134,1.5378,-0.30623,-6.1512,-2.4025e-11,-0.15312,0,0,0.1,-0,-0,0.66667
0.67876,0.94686,6.7876,0.67029,48.118,128.77,-12.132,4.0441,-0.39966,-16.176,1.5428e-12,-0.19983,0,0,0.1,-0,-0,0.66667
0.7642,0.57436,7.642,0.11153,6.1227,71.69,-2.2729,0.75764,-1.958,-3.0306,-1.5633e-11,-0.97901,0,0,0.1,1.8948e-15,0,0.66667
0.032227,0.52775,0.32227,0.041622,5.5196,859.64,-0.035769,0.011923,-1.9978,-0.047693,-3.0373e-07,-0.99891,0,0,0.1,5.9212e-17,0,0.66667
0.98227,0.045415,9.8227,-0.68188,-3.1261,2.6977,17.861,-5.9537,-0.34784,23.815,2.7747e-06,-0.17392,0,0,0.1,-1.8948e-15,-1.1739e-16,0.66667
0.091323,0.52092,0.91323,0.031385,4.1315,780.34,-0.076431,0.025477,-1.9973,-0.10191,3.8665e-10,-0.99864,0,0,0.1,-0,-0,0.66667
0.61407,0.67922,6.1407,0.26883,22.191,178.7,-4.4022,1.4674,-1.7414,-5.8695,-1.3363e-12,-0.87072,0,0,0.1,9.4739e-16,0,0.66667
0.14935,0.55675,1.4935,0.085122,11.047,703.29,-0.33902,0.11301,-1.9717,-0.45202,-2.6468e-10,-0.98587,0,0,0.1,-2.3685e-16,0,0.66667
0.5208,0.53773,5.208,0.056594,5.4663,264.07,-0.78597,0.26199,-1.9868,-1.048,2.004e-14,-0.99342,0,0,0.1,-1.8948e-15,0,0.66667
0.093345,0.67424,0.93345,0.26135,34.41,777.66,-0.65056,0.21685,-1.7612,-0.86741,-4.156e-08,-0.8806,0,0,0.1,-0,-0,0.66667
0.7812,0.40491,7.812,-0.14264,-7.3316,62.346,2.9714,-0.99046,-1.9338,3.9619,1.0756e-12,-0.96692,0,0,0.1,-1.3027e-15,0,0.66667
0.77293,0.22062,7.7293,-0.41907,-22.326,67.364,8.6376,-2.8792,-1.3737,11.517,7.0077e-12,-0.68683,0,0,0.1,-0,-0,0.66667
0.59815,0.038863,5.9815,-0.69171,-59.17,193.44,11.033,-3.6777,-0.29754,14.711,-1.3163e-12,-0.14877,0,0,0.1,-0,-0,0.66667
0.014543,0.58802,0.14543,0.13202,17.525,883.46,-0.051202,0.017067,-1.9415,-0.068269,3.907e-09,-0.97073,0,0,0.1,-2.2204e-17,0,0.66667
0.042024,0.38922,0.42024,-0.16617,-22.025,846.47,0.18622,-0.062073,-1.8997,0.24829,-1.384e-07,-0.94986,0,0,0.1,-5.9212e-17,0,0.66667
0.18097,0.21923,1.8097,-0.42116,-54.147,661.97,2.0325,-0.67749,-1.3679,2.71,8.6675e-12,-0.68394,0,0,0.1,-4.737e-16,0,0.66667
0.97203,0.24904,9.7203,-0.37644,-2.6041,2.0416,9.7576,-3.2525,-1.4971,13.01,1.3344e-06,-0.74856,0,0,0.1,-2.1316e-15,0,0.66667
0.2546,0.50729,2.546,0.010938,1.3575,567.32,-0.074262,0.024754,-1.9982,-0.099016,3.687e-12,-0.99908,0,0,0.1,-9.4739e-16,0,0.66667
0.75101,0.64354,7.5101,0.21531,12.401,79.483,-4.3121,1.4374,-1.8381,-5.7494,-1.6512e-11,-0.91906,0,0,0.1,-0,-0,0.66667
0.28124,0.96917,2.8124,0.70376,86.364,534.6,-5.2779,1.7593,-0.24545,-7.0372,-3.0451e-12,-0.12273,0,0,0.1,-0,-6.3304e-18,0.66667
0.25552,0.67688,2.5552,0.26532,32.93,566.24,-1.8078,0.6026,-1.7473,-2.4104,7.1134e-12,-0.87366,0,0,0.1,2.3685e-16,0,0.66667
0.25786,0.27749,2.5786,-0.33377,-41.387,563.33,2.2951,-0.76504,-1.6016,3.0601,-1.1613e-11,-0.80081,0,0,0.1,-2.3685e-16,0,0.66667
0.29705,0.4832,2.9705,-0.025193,-3.048,514.43,0.19956,-0.066521,-2.0022,0.26608,-6.3827e-12,-1.0011,0,0,0.1,-4.737e-16,0,0.66667
0.0089446,0.51066,0.089446,0.015989,2.1224,891,-0.0038137,0.0012692,-1.9962,-0.005086,-3.0378e-06,-0.99808,0,0,0.1,-0,-0,0.66667
0.98718,0.13731,9.8718,-0.54404,-1.6981,1.6985,14.322,-4.7739,-0.94777,19.096,-6.3822e-06,-0.47388,0,0,0.1,-0,-0,0.66667
0.56646,0.68432,5.6646,0.27648,24.896,220.73,-4.1764,1.3921,-1.728,-5.5685,-2.7045e-13,-0.864,0,0,0.1,9.4739e-16,0,0.66667
0.60184,0.57562,6.0184,0.11344,9.5817,188.99,-1.8206,0.60685,-1.951,-2.4274,-2.2162e-12,-0.97551,0,0,0.1,9.4739e-16,0,0.66667
0.53826,0.63507,5.3826,0.2026,19.077,247.16,-2.908,0.96934,-1.8511,-3.8774,-9.0683e-13,-0.92554,0,0,0.1,-0,-0,0.66667
0.043838,0.35541,0.43838,-0.21688,-28.746,844.03,0.25354,-0.084512,-1.8326,0.33805,-1.062e-07,-0.91631,0,0,0.1,-0,-0,0.66667
0.47152,0.65166,4.7152,0.22749,23.467,314.38,-2.8604,0.95346,-1.817,-3.8139,1.0312e-12,-0.90848,0,0,0.1,-0,-0,0.66667
0.53968,0.22309,5.3968,-0.41537,-39.084,246.11,5.9777,-1.9926,-1.3842,7.9703,-2.2782e-13,-0.69211,0,0,0.1,-0,-0,0.66667
0.67296,0.38852,6.7296,-0.16722,-12.106,131.78,3.0009,-1.0003,-1.9034,4.0012,-1.2284e-12,-0.95168,0,0,0.1,-0,-0,0.66667
0.53417,0.35692,5.3417,-0.21463,-20.336,251.11,3.0572,-1.0191,-1.8362,4.0763,-1.573e-12,-0.91808,0,0,0.1,-9.4739e-16,0,0.66667
0.055072,0.75775,0.55072,0.38662,51.228,828.96,-0.56779,0.18926,-1.4657,-0.75706,-8.0518e-08,-0.73285,0,0,0.1,-0,-0,0.66667
0.6201,0.41456,6.201,-0.12816,-10.445,173.49,2.1193,-0.70642,-1.9398,2.8257,-6.5237e-13,-0.96991,0,0,0.1,-0,-0,0.66667
0.58118,0.29494,5.8118,-0.30758,-27.01,207.41,4.7669,-1.589,-1.6634,6.3559,-2.4589e-12,-0.83169,0,0,0.1,-0,-0,0.66667
0.5456,0.18404,5.456,-0.47394,-44.215,240.59,6.8954,-2.2985,-1.2048,9.1939,-3.5256e-12,-0.6024,0,0,0.1,1.1089e-15,0,0.66667
0.84328,0.86172,8.4328,0.54257,20.747,34.36,-12.201,4.067,-0.95724,-16.268,-3.7375e-10,-0.47862,0,0,0.1,-0,-0,0.66667
0.44739,0.99378,4.4739,0.74067,78.979,341.09,-8.8365,2.9455,-0.047343,-11.782,3.8982e-12,-0.023672,0,0,0.1,9.4739e-16,0,0.66667
0.60357,0.14087,6.0357,-0.5387,-45.509,188.25,8.6704,-2.8901,-0.96544,11.561,-1.4619e-12,-0.48272,0,0,0.1,2.3263e-16,0,0.66667
0.12361,0.31378,1.2361,-0.27933,-36.535,737.37,0.92077,-0.30692,-1.7262,1.2277,1.0289e-08,-0.86312,0,0,0.1,-0,-0,0.66667
0.25238,0.80233,2.5238,0.45349,56.447,570.35,-3.0521,1.0174,-1.2696,-4.0694,6.3385e-12,-0.63482,0,0,0.1,2.3685e-16,0,0.66667
0.85035,0.95624,8.5035,0.68436,25.199,32.259,-15.519,5.1728,-0.33176,-20.691,5.409e-09,-0.16588,0,0,0.1,9.4739e-16,0,0.66667
0.016224,0.75945,0.16224,0.38918,51.711,881.21,-0.16838,0.056126,-1.4654,-0.2245,6.8221e-07,-0.7327,0,0,0.1,-0,-0,0.66667
0.15625,0.92654,1.5625,0.63981,83.123,694.49,-2.6659,0.88862,-0.54954,-3.5545,-1.6683e-08,-0.27477,0,0,0.1,2.3685e-16,0,0.66667
0.82338,0.089286,8.2338,-0.61607,-26.336,43.033,13.527,-4.509,-0.64936,18.036,7.8118e-10,-0.32468,0,0,0.1,4.737e-16,0,0.66667
0.22934,0.86686,2.2934,0.55029,69.364,599.69,-3.3654,1.1218,-0.92147,-4.4871,2.0223e-10,-0.46073,0,0,0.1,-0,-0,0.66667
0.25919,0.98398,2.5919,0.72597,90.266,562.14,-5.0178,1.6726,-0.12311,-6.6904,9.1176e-12,-0.061553,0,0,0.1,4.737e-16,0,0.66667
0.70079,0.54162,7.0079,0.062433,4.2001,111.71,-1.1667,0.38891,-1.9871,-1.5557,-6.4737e-13,-0.99353,0,0,0.1,-0,-0,0.66667
0.96653,0.84862,9.6653,0.52293,4.4331,3.1264,-13.478,4.4927,-1.0294,-17.971,-4.8433e-07,-0.5147,0,0,0.1,-0,-0,0.66667
0.19828,0.3819,1.9828,-0.17715,-22.594,639.37,0.93667,-0.31222,-1.8868,1.2489,1.2214e-11,-0.94342,0,0,0.1,-0,-0,0.66667
0.7475,0.68045,7.475,0.27068,15.787,81.676,-5.3955,1.7985,-1.7405,-7.194,-1.6479e-11,-0.87025,0,0,0.1,-3.1088e-17,0,0.66667
0.14051,0.45118,1.4051,-0.073233,-9.5293,714.96,0.27439,-0.091463,-1.9856,0.36585,1.8091e-09,-0.99278,0,0,0.1,2.3685e-16,0,0.66667
0.3825,0.61937,3.825,0.17905,20.282,412.57,-1.8263,0.60877,-1.8834,-2.4351,-7.4388e-12,-0.94172,0,0,0.1,-0,-0,0.66667
0.32329,0.091756,3.2329,-0.61237,-72.996,482.98,5.2792,-1.7597,-0.66589,7.039,-4.2144e-13,-0.33295,0,0,0.1,-5.9212e-16,0,0.66667
0.88379,0.90346,8.8379,0.60519,17.542,20.395,-14.263,4.7543,-0.69577,-19.017,-9.8393e-09,-0.34789,0,0,0.1,4.737e-16,0,0.66667
0.65538,0.015257,6.5538,-0.72711,-55.281,146.58,12.708,-4.2359,-0.12334,16.944,-1.9451e-13,-0.061672,0,0,0.1,-0,1.1836e-16,0.66667
0.33358,0.55525,3.3358,0.082877,9.7729,470.07,-0.73722,0.24574,-1.9735,-0.98295,-4.2866e-12,-0.98677,0,0,0.1,-0,-0,0.66667
0.021608,0.10227,0.21608,-0.5966,-79.381,873.98,0.34376,-0.1146,-0.73198,0.45835,-1.3008e-05,-0.36599,0,0,0.1,-0,-0,0.66667
0.36901,0.96566,3.6901,0.69848,80.396,428.95,-6.8733,2.2911,-0.26357,-9.1643,8.8463e-13,-0.13179,0,0,0.1,7.0137e-16,0,0.66667
0.97218,0.49908,9.7218,-0.001382,-0.0093023,1.4163,0.035829,-0.01194,-2.0008,0.047773,4.8907e-06,-1.0004,0,0,0.1,6.0396e-15,0,0.66667
0.5291,0.98487,5.291,0.7273,69.801,257.17,-10.262,3.4206,-0.12021,-13.682,2.0224e-12,-0.060103,0,0,0.1,9.4739e-16,0,0.66667
0.74214,0.58376,7.4214,0.12564,7.4542,84.737,-2.4865,0.82883,-1.9408,-3.3153,-7.877e-12,-0.97041,0,0,0.1,-9.4739e-16,0,0.66667
0.34539,0.49914,3.4539,-0.0012893,-0.15065,455.96,0.011875,-0.0039584,-2.0033,0.015834,-5.6226e-12,-1.0017,0,0,0.1,1.5691e-15,0,0.66667
0.46059,0.39488,4.6059,-0.15769,-16.477,325.89,1.9368,-0.64559,-1.9085,2.5824,-2.5021e-12,-0.95423,0,0,0.1,-0,-0,0.66667
0.21164,0.86318,2.1164,0.54477,69.233,622.37,-3.0745,1.0248,-0.94167,-4.0993,-2.0307e-10,-0.47083,0,0,0.1,-2.3685e-16,0,0.66667
0.83696,0.33704,8.3696,-0.24444,-9.6339,36.049,5.4557,-1.8186,-1.785,7.2743,-8.1011e-10,-0.89248,0,0,0.1,-0,-0,0.66667
0.35981,0.72877,3.5981,0.34316,39.672,439.1,-3.2925,1.0975,-1.5855,-4.3901,-8.1848e-12,-0.79276,0,0,0.1,-0,-0,0.66667
0.037088,0.10915,0.37088,-0.58628,-77.929,853.16,0.57984,-0.19328,-0.77513,0.77312,4.0044e-06,-0.38757,0,0,0.1,-5.9212e-17,0,0.66667
0.68899,0.76592,6.8899,0.39888,27.77,120.49,-7.3286,2.4429,-1.4363,-9.7715,-1.1102e-12,-0.71817,0,0,0.1,-0,-0,0.66667
0.15579,0.72701,1.5579,0.34052,44.143,694.89,-1.4147,0.47155,-1.592,-1.8862,-1.4708e-09,-0.79601,0,0,0.1,-0,-0,0.66667
0.79875,0.76671,7.9875,0.40006,19.143,53.798,-8.5213,2.8404,-1.4324,-11.362,-3.6664e-11,-0.71618,0,0,0.1,-0,-0,0.66667
0.015262,0.94685,0.15262,0.67028,89.271,882.52,-0.27279,0.090912,-0.4069,-0.36373,-2.7671e-05,-0.20345,0,0,0.1,2.9606e-17,0,0.66667
0.58562,0.11333,5.8562,-0.58001,-50.676,204.07,9.0578,-3.0193,-0.80072,12.077,2.0188e-12,-0.40036,0,0,0.1,9.4739e-16,0,0.66667
0.49552,0.19856,4.9552,-0.45216,-45.317,289.87,5.9747,-1.9916,-1.2714,7.9663,-2.1041e-12,-0.63571,0,0,0.1,-0,-0,0.66667
0.99746,0.078256,9.9746,-0.63262,-0.32114,1.8188,16.827,-5.609,-0.57752,22.436,2.5533e-05,-0.28876,0,0,0.1,1.8948e-15,4.1546e-16,0.66667
0.13437,0.36215,1.3437,-0.20677,-26.96,723.09,0.7409,-0.24697,-1.8451,0.98786,5.5607e-09,-0.92254,0,0,0.1,2.3685e-16,0,0.66667
0.67255,0.46955,6.7255,-0.045674,-3.3087,132,0.81916,-0.27305,-1.9976,1.0922,-1.5296e-12,-0.99881,0,0,0.1,-0,-0,0.66667
0.094945,0.52203,0.94945,0.033039,4.3462,775.5,-0.08365,0.027883,-1.999,-0.11153,-9.4063e-09,-0.99948,0,0,0.1,-0,-0,0.66667
0.16177,0.3222,1.6177,-0.2667,-34.493,687,1.1505,-0.3835,-1.7448,1.534,9.4991e-10,-0.87238,0,0,0.1,-0,-0,0.66667
0.98833,0.90904,9.8833,0.61356,1.7796,1.9997,-16.171,5.3903,-0.66132,-21.561,2.5734e-05,-0.33066,0,0,0.1,-3.7896e-15,0,0.66667
0.80667,0.64011,8.0667,0.21017,9.6749,49.523,-4.5209,1.507,-1.8402,-6.0278,3.5156e-11,-0.9201,0,0,0.1,-0,-0,0.66667
0.24464,0.76145,2.4464,0.39217,48.994,580.08,-2.5584,0.85281,-1.4508,-3.4112,2.1279e-11,-0.7254,0,0,0.1,-0,-0,0.66667
0.8463,0.39634,8.463,-0.1555,-5.7967,32.153,3.5093,-1.1698,-1.9147,4.679,-1.6542e-09,-0.95733,0,0,0.1,-9.4739e-16,0,0.66667
0.0356,0.97938,0.356,0.71907,95.721,855.19,-0.68265,0.22755,-0.16005,-0.9102,-8.1989e-06,-0.080027,0,0,0.1,-0,-0,0.66667
0.53561,0.24299,5.3561,-0.38551,-36.49,249.97,5.5062,-1.8354,-1.4704,7.3417,-8.0336e-13,-0.7352,0,0,0.1,-4.737e-16,0,0.66667
0.091475,0.94102,0.91475,0.66153,87.38,780.31,-1.6137,0.5379,-0.44583,-2.1516,-1.5945e-07,-0.22292,0,0,0.1,2.3685e-16,4.7359e-17,0.66667
0.97091,0.67899,9.7091,0.26848,1.9162,1.8408,-6.9512,2.3171,-1.745,-9.2683,-6.0752e-07,-0.87252,0,0,0.1,-0,-0,0.66667
0.5831,0.53256,5.831,0.048841,4.2696,205.45,-0.75944,0.25315,-1.9907,-1.0126,2.2846e-12,-0.99537,0,0,0.1,1.8948e-15,0,0.66667
0.55574,0.45343,5.5574,-0.069854,-6.3969,230.49,1.0352,-0.34507,-1.9795,1.3803,-5.4479e-13,-0.98976,0,0,0.1,-0,-0,0.66667
0.31797,0.3328,3.1797,-0.2508,-29.929,488.96,2.1266,-0.70887,-1.774,2.8355,-6.5976e-12,-0.88698,0,0,0.1,4.737e-16,0,0.66667
0.8499,0.65138,8.499,0.22708,8.2864,30.856,-5.1465,1.7155,-1.8146,-6.8619,2.0456e-09,-0.90728,0,0,0.1,-4.737e-16,0,0.66667
0.53015,0.10532,5.3015,-0.59202,-56.619,255.72,8.3696,-2.7899,-0.75668,11.159,-1.5543e-13,-0.37834,0,0,0.1,-0,-0,0.66667
0.017098,0.25339,0.17098,-0.36991,-49.144,880.03,0.16866,-0.056222,-1.5166,0.22488,-7.7801e-07,-0.7583,0,0,0.1,-0,-0,0.66667
0.18489,0.92979,1.8489,0.64469,82.921,657.06,-3.1786,1.0595,-0.52301,-4.2382,-5.2987e-09,-0.2615,0,0,0.1,2.3685e-16,0,0.66667
0.43347,0.2063,4.3347,-0.44055,-47.534,355.53,5.0924,-1.6975,-1.3086,6.7898,-1.1706e-12,-0.65431,0,0,0.1,-0,-0,0.66667
0.079976,0.81745,0.79976,0.47618,62.918,795.59,-1.0155,0.33852,-1.196,-1.3541,-6.0043e-08,-0.59802,0,0,0.1,-0,-0,0.66667
0.28066,0.34975,2.8066,-0.22538,-27.564,534.76,1.6868,-0.56226,-1.8237,2.249,-8.4452e-12,-0.91186,0,0,0.1,-0,-0,0.66667
0.2504,0.73175,2.504,0.34762,43.284,572.76,-2.3211,0.77372,-1.5744,-3.0949,1.1759e-11,-0.78722,0,0,0.1,-0,-0,0.66667
0.00060864,0.017586,0.0060864,-0.72362,-96.454,902.24,0.011996,-0.004096,-0.14142,0.015947,-0.00014589,-0.070708,0,0,0.1,-0,4.6624e-16,0.66667
0.69289,0.69241,6.9289,0.28862,19.864,117.49,-5.3328,1.7776,-1.7021,-7.1104,-3.6402e-12,-0.85106,0,0,0.1,1.8948e-15,0,0.66667
0.77389,0.37919,7.7389,-0.18121,-9.5917,66.346,3.7397,-1.2466,-1.8809,4.9863,1.9946e-11,-0.94045,0,0,0.1,-0,-0,0.66667
0.82035,0.78334,8.2035,0.425,18.363,43.659,-9.2974,3.0991,-1.3558,-12.396,7.4486e-11,-0.67788,0,0,0.1,-0,-0,0.66667
0.85163,0.53326,8.5163,0.049896,1.7987,30.011,-1.1331,0.37772,-1.9892,-1.5109,2.1617e-09,-0.99458,0,0,0.1,-0,-0,0.66667
0.15152,0.91505,1.5152,0.62257,80.991,700.68,-2.5156,0.83854,-0.62019,-3.3541,-6.8402e-09,-0.31009,0,0,0.1,-0,-0,0.66667
0.89004,0.09805,8.9004,-0.60292,-16.583,18.527,14.31,-4.77,-0.71206,19.08,2.2672e-08,-0.35603,0,0,0.1,-0,-0,0.66667
0.65821,0.5231,6.5821,0.034645,2.5979,142.86,-0.6081,0.2027,-1.9974,-0.8108,2.1345e-12,-0.9987,0,0,0.1,-9.4739e-16,0,0.66667
0.69613,0.44381,6.9613,-0.084278,-5.743,114.97,1.5645,-0.5215,-1.9722,2.086,-1.2728e-12,-0.98608,0,0,0.1,-0,-0,0.66667
0.56407,0.79889,5.6407,0.44834,40.59,223.24,-6.7439,2.248,-1.2872,-8.9918,1.0725e-12,-0.64362,0,0,0.1,-9.4739e-16,0,0.66667
0.93968,0.71298,9.3968,0.31947,4.831,6.0341,-8.0053,2.6684,-1.6387,-10.674,8.9221e-08,-0.81937,0,0,0.1,1.4211e-15,0,0.66667
0.25185,0.58609,2.5185,0.12913,16.052,570.81,-0.86724,0.28908,-1.9426,-1.1563,8.285e-12,-0.97131,0,0,0.1,-0,-0,0.66667
0.78688,0.73576,7.8688,0.35364,17.796,59.712,-7.4207,2.4736,-1.5527,-9.8943,-4.3185e-11,-0.77635,0,0,0.1,9.4739e-16,0,0.66667
0.49526,0.56889,4.9526,0.10334,10.34,289.71,-1.3648,0.45494,-1.9606,-1.8198,-2.8501e-12,-0.9803,0,0,0.1,-9.4739e-16,0,0.66667
0.8909,0.55864,8.909,0.087958,2.3688,16.869,-2.0896,0.69655,-1.9778,-2.7862,1.6519e-08,-0.98888,0,0,0.1,-1.4211e-15,0,0.66667
0.2762,0.55276,2.762,0.079134,9.7006,540.25,-0.58285,0.19428,-1.9757,-0.77713,-2.8811e-12,-0.98786,0,0,0.1,-0,-0,0.66667
0.015247,0.94548,0.15247,0.66822,88.995,882.54,-0.27168,0.090541,-0.41681,-0.36224,-2.6989e-05,-0.20841,0,0,0.1,2.9606e-17,0,0.66667
0.064891,0.3386,0.64891,-0.24211,-32.018,815.75,0.41895,-0.13965,-1.793,0.5586,7.0277e-08,-0.8965,0,0,0.1,5.9212e-17,0,0.66667
0.89964,0.49255,8.9964,-0.01117,-0.27743,14.404,0.26797,-0.089324,-1.9969,0.3573,-2.7422e-08,-0.99847,0,0,0.1,-1.8948e-15,0,0.66667
0.64115,0.15504,6.4115,-0.51744,-40.473,157.01,8.8468,-2.9489,-1.0533,11.796,-2.0117e-12,-0.52664,0,0,0.1,1.3027e-15,0,0.66667
0.73027,0.016781,7.3027,-0.72483,-45.076,93.811,14.115,-4.7051,-0.13056,18.82,4.7695e-13,-0.065279,0,0,0.1,-0,1.1778e-16,0.66667
0.50436,0.53648,5.0436,0.054718,5.4081,280.46,-0.73594,0.24531,-1.9884,-0.98125,3.4301e-12,-0.99421,0,0,0.1,-1.8948e-15,0,0.66667
0.55757,0.76151,5.5757,0.39226,35.875,229.15,-5.8324,1.9441,-1.4509,-7.7765,-6.0218e-13,-0.72543,0,0,0.1,-0,-0,0.66667
0.36389,0.93027,3.6389,0.6454,74.56,434.8,-6.2628,2.0876,-0.51763,-8.3505,-4.1185e-12,-0.25882,0,0,0.1,-2.3685e-16,0,0.66667
0.78264,0.24378,7.8264,-0.38433,-19.691,62.025,8.021,-2.6737,-1.4777,10.695,3.7543e-11,-0.73883,0,0,0.1,9.4739e-16,0,0.66667
0.75687,0.73244,7.5687,0.34866,19.698,76.285,-7.037,2.3457,-1.5646,-9.3827,-2.1431e-11,-0.78232,0,0,0.1,-0,-0,0.66667
0.70001,0.70832,7.0001,0.31249,21.098,112.55,-5.8331,1.9444,-1.6527,-7.7775,-3.2592e-12,-0.82633,0,0,0.1,9.4739e-16,0,0.66667
0.96189,0.49649,9.6189,-0.0052605,-0.049366,2.4516,0.13493,-0.044979,-1.9978,0.17991,-1.212e-06,-0.99888,0,0,0.1,2.3685e-15,0,0.66667
0.76884,0.29903,7.6884,-0.30145,-16.287,69.343,6.1804,-2.0601,-1.6765,8.2406,2.6695e-11,-0.83823,0,0,0.1,9.4739e-16,0,0.66667
0.97792,0.91334,9.7792,0.62001,3.4953,2.6286,-16.168,5.3895,-0.63067,-21.558,-1.7691e-05,-0.31534,0,0,0.1,-0,-0,0.66667
0.59028,0.93306,5.9028,0.64958,56.339,200.17,-10.225,3.4083,-0.4998,-13.633,2.1911e-12,-0.2499,0,0,0.1,-1.1842e-15,8.714e-17,0.66667
0.61926,0.066769,6.1926,-0.64985,-53.324,175.31,10.731,-3.5771,-0.49668,14.308,-1.2959e-12,-0.24834,0,0,0.1,-0,-0,0.66667
0.63905,0.57359,6.3905,0.11038,8.6442,157.96,-1.8811,0.62703,-1.9587,-2.5081,2.347e-12,-0.97937,0,0,0.1,-1.8948e-15,0,0.66667
0.32637,0.88039,3.2637,0.57059,67.834,479.19,-4.966,1.6553,-0.84476,-6.6213,3.9266e-12,-0.42238,0,0,0.1,-9.4739e-16,0,0.66667
0.033029,0.97528,0.33029,0.71291,94.911,858.64,-0.62792,0.20931,-0.19508,-0.83722,6.016e-06,-0.097541,0,0,0.1,-0,-0,0.66667
0.78818,0.97779,7.8818,0.71668,36.159,60.401,-15.063,5.0211,-0.17089,-20.084,8.1046e-11,-0.085446,0,0,0.1,-1.8948e-15,0,0.66667
0.71019,0.37933,7.1019,-0.18101,-11.862,105.38,3.428,-1.1427,-1.8812,4.5707,1.0125e-13,-0.9406,0,0,0.1,-0,-0,0.66667
0.079032,0.91686,0.79032,0.62529,82.741,796.92,-1.3178,0.43927,-0.61305,-1.7571,-1.1033e-07,-0.30653,0,0,0.1,-0,-0,0.66667
0.14858,0.17761,1.4858,-0.48359,-62.89,704.45,1.9161,-0.63869,-1.1655,2.5547,1.7872e-10,-0.58273,0,0,0.1,1.1842e-16,0,0.66667
0.68634,0.1682,6.8634,-0.4977,-34.938,122.66,9.1091,-3.0364,-1.122,12.146,1.485e-12,-0.56099,0,0,0.1,-0,-0,0.66667
0.53504,0.36214,5.3504,-0.2068,-19.568,250.27,2.9505,-0.9835,-1.8469,3.934,-2.4032e-12,-0.92344,0,0,0.1,-9.4739e-16,0,0.66667
0.19121,0.097002,1.9121,-0.6045,-77.529,648.81,3.0824,-1.0275,-0.70077,4.1098,1.2192e-10,-0.35038,0,0,0.1,-0,-0,0.66667
0.055953,0.99093,0.55953,0.7364,97.864,827.87,-1.0988,0.36626,-0.069105,-1.465,1.0073e-06,-0.034552,0,0,0.1,1.2547e-16,0,0.66667
0.61141,0.67982,6.1141,0.26973,22.383,180.96,-4.3978,1.4659,-1.7429,-5.8637,-1.438e-12,-0.87146,0,0,0.1,4.737e-16,0,0.66667
0.053612,0.54387,0.53612,0.065798,8.7098,830.88,-0.094068,0.031356,-1.9815,-0.12542,-8.1805e-08,-0.99077,0,0,0.1,-0,-0,0.66667
0.21358,0.92977,2.1358,0.64465,81.934,619.99,-3.6715,1.2238,-0.52048,-4.8953,-5.6555e-10,-0.26024,0,0,0.1,1.2646e-16,0,0.66667
0.50266,0.99747,5.0266,0.74621,74.351,283.41,-10.002,3.3342,-0.02161,-13.337,1.3731e-12,-0.010805,0,0,0.1,-2.8422e-15,0,0.66667
0.094031,0.81147,0.94031,0.46721,61.577,776.81,-1.1715,0.39051,-1.2297,-1.562,-3.5344e-08,-0.61483,0,0,0.1,-2.2204e-17,0,0.66667
0.40891,0.10233,4.0891,-0.5965,-66.107,383.09,6.5043,-2.1681,-0.73549,8.6725,3.5736e-12,-0.36775,0,0,0.1,-0,-0,0.66667
0.020116,0.081173,0.20116,-0.62824,-83.622,875.99,0.337,-0.11234,-0.5949,0.44933,-1.2821e-05,-0.29745,0,0,0.1,2.9606e-17,0,0.66667
0.11946,0.41425,1.1946,-0.12863,-16.833,742.84,0.40977,-0.13659,-1.939,0.54636,8.7235e-09,-0.96949,0,0,0.1,-0,-0,0.66667
0.94006,0.55475,9.4006,0.082129,1.226,5.5715,-2.0588,0.68628,-1.9768,-2.7451,-1.848e-08,-0.98842,0,0,0.1,-0,-0,0.66667
0.55886,0.66696,5.5886,0.25044,22.833,227.72,-3.7323,1.2441,-1.7762,-4.9764,-1.124e-12,-0.8881,0,0,0.1,-0,-0,0.66667
0.68646,0.79412,6.8646,0.44118,30.936,122.41,-8.076,2.692,-1.3108,-10.768,-3.979e-13,-0.65542,0,0,0.1,-0,-0,0.66667
0.37777,0.65512,3.7777,0.23268,26.474,418.06,-2.344,0.78135,-1.8091,-3.1254,-3.483e-12,-0.90454,0,0,0.1,2.3685e-16,0,0.66667
0.76312,0.33171,7.6312,-0.25244,-13.927,72.48,5.1371,-1.7124,-1.774,6.8495,2.4063e-11,-0.88699,0,0,0.1,-0,-0,0.66667
0.89639,0.78723,8.9639,0.43084,11.119,16.027,-10.299,3.4329,-1.3379,-13.732,4.1339e-08,-0.66897,0,0,0.1,-0,-0,0.66667
0.91019,0.22406,9.1019,-0.41391,-9.2996,12.397,10.046,-3.3488,-1.3903,13.395,-2.4387e-08,-0.69515,0,0,0.1,-0,-0,0.66667
0.49649,0.25482,4.9649,-0.36778,-36.786,288.73,4.8692,-1.6231,-1.5191,6.4923,-3.7272e-12,-0.75954,0,0,0.1,-0,-0,0.66667
0.76261,0.35026,7.6261,-0.22461,-12.412,72.727,4.5677,-1.5226,-1.821,6.0903,2.4794e-11,-0.9105,0,0,0.1,-1.8948e-15,0,0.66667
0.70896,0.44553,7.0896,-0.081707,-5.3714,106.12,1.5447,-0.51491,-1.9739,2.0596,-8.1302e-13,-0.98695,0,0,0.1,-0,-0,0.66667
0.9513,0.46996,9.513,-0.045058,-0.54475,3.8099,1.143,-0.38101,-1.9957,1.524,1.8299e-07,-0.99786,0,0,0.1,-0,-0,0.66667
0.24155,0.90823,2.4155,0.61234,76.763,584.23,-3.9444,1.3148,-0.66487,-5.2592,1.563e-10,-0.33243,0,0,0.1,-0,-0,0.66667
0.56134,0.021485,5.6134,-0.71777,-65.512,226.55,10.744,-3.5815,-0.17104,14.326,5.6133e-13,-0.085522,0,0,0.1,-0,-0,0.66667
0.043773,0.8784,0.43773,0.56761,75.394,844.17,-0.66256,0.22085,-0.85521,-0.88341,-3.5698e-06,-0.4276,0,0,0.1,-0,-0,0.66667
0.92318,0.64989,9.2318,0.22484,4.3097,8.963,-5.5351,1.845,-1.8232,-7.3801,6.8565e-08,-0.91161,0,0,0.1,-1.4211e-15,0,0.66667
0.94526,0.42456,9.4526,-0.11316,-1.5422,4.7522,2.8524,-0.95081,-1.9512,3.8033,6.2587e-08,-0.97562,0,0,0.1,-1.7202e-16,0,0.66667
0.50091,0.2533,5.0091,-0.37005,-36.797,284.25,4.943,-1.6477,-1.5172,6.5907,-2.0153e-12,-0.75862,0,0,0.1,-0,-0,0.66667
0.58612,0.86306,5.8612,0.5446,47.518,203.52,-8.5119,2.8373,-0.94229,-11.349,-3.1974e-14,-0.47115,0,0,0.1,9.4739e-16,0,0.66667
0.77194,0.98008,7.7194,0.72013,38.768,69.085,-14.824,4.9413,-0.1533,-19.765,-6.1872e-11,-0.076652,0,0,0.1,-0,-0,0.66667
0.24933,0.27881,2.4933,-0.33178,-41.332,574.09,2.206,-0.73533,-1.6133,2.9413,-1.8561e-11,-0.80667,0,0,0.1,1.7764e-16,0,0.66667
0.37899,0.96089,3.7899,0.69133,78.877,417.36,-6.9869,2.329,-0.29973,-9.3159,3.2774e-12,-0.14987,0,0,0.1,-4.737e-16,0,0.66667
0.28861,0.30959,2.8861,-0.28561,-34.767,524.95,2.1981,-0.73271,-1.7078,2.9308,-1.4146e-11,-0.85392,0,0,0.1,1.1842e-16,0,0.66667
0.5388,0.6625,5.388,0.24375,22.937,246.68,-3.5022,1.1674,-1.7861,-4.6696,-9.3436e-13,-0.89305,0,0,0.1,-0,-0,0.66667
0.94896,0.80237,9.4896,0.45355,5.8481,5.0055,-11.477,3.8258,-1.2673,-15.303,2.0301e-07,-0.63365,0,0,0.1,-9.4739e-16,0,0.66667
0.3854,0.40379,3.854,-0.14431,-16.303,409.21,1.4832,-0.49438,-1.9248,1.9775,-1.0055e-12,-0.96239,0,0,0.1,2.3253e-16,0,0.66667
0.04501,0.98117,0.4501,0.72176,96.008,842.55,-0.8663,0.28876,-0.14929,-1.1551,-1.2545e-05,-0.074646,0,0,0.1,1.1842e-16,1.1345e-16,0.66667
0.68252,0.34293,6.8252,-0.2356,-16.656,124.84,4.288,-1.4293,-1.802,5.7173,2.5535e-13,-0.90098,0,0,0.1,-1.125e-15,0,0.66667
0.49503,0.10967,4.9503,-0.5855,-58.802,290.67,7.729,-2.5763,-0.77893,10.305,-4.4009e-12,-0.38946,0,0,0.1,-0,-0,0.66667
0.29651,0.15754,2.9651,-0.51369,-62.312,515.44,4.0618,-1.3539,-1.0673,5.4157,3.8614e-12,-0.53366,0,0,0.1,-0,-0,0.66667
0.41589,0.082411,4.1589,-0.62638,-68.962,375.34,6.9468,-2.3156,-0.60225,9.2624,3.6238e-12,-0.30112,0,0,0.1,-0,-0,0.66667
0.86251,0.61661,8.6251,0.17492,5.8759,26.114,-4.0232,1.3411,-1.8912,-5.3643,4.1096e-09,-0.94561,0,0,0.1,-0,-0,0.66667
0.82102,0.6035,8.2102,0.15525,6.6599,42.788,-3.399,1.133,-1.9113,-4.5319,2.5429e-10,-0.95567,0,0,0.1,-0,-0,0.66667
0.17085,0.34657,1.7085,-0.23014,-29.668,675.1,1.0485,-0.3495,-1.8157,1.398,3.97e-10,-0.90784,0,0,0.1,-4.737e-16,0,0.66667
0.68513,0.38797,6.8513,-0.16805,-11.796,122.86,3.0703,-1.0234,-1.9003,4.0937,-7.1632e-13,-0.95016,0,0,0.1,-0,-0,0.66667
0.99766,0.59578,9.9766,0.14367,0.0086722,0.13197,-3.8222,1.2741,-1.9286,-5.0962,1.0032e-06,-0.96431,0,0,0.1,-3.7896e-15,0,0.66667
0.78436,0.50897,7.8436,0.013454,0.68242,60.6,-0.28142,0.093806,-1.9993,-0.37522,-4.9802e-11,-0.99967,0,0,0.1,-0,-0,0.66667
0.72505,0.71931,7.2505,0.32896,20.649,95.805,-6.3603,2.1201,-1.6139,-8.4804,-7.8471e-12,-0.80693,0,0,0.1,-0,-0,0.66667
0.31002,0.56698,3.1002,0.10047,12.051,498.56,-0.83059,0.27686,-1.9655,-1.1075,-2.1898e-12,-0.98274,0,0,0.1,9.4739e-16,0,0.66667
0.15947,0.76608,1.5947,0.39912,51.695,690.08,-1.6973,0.56575,-1.4332,-2.263,-9.8391e-10,-0.71658,0,0,0.1,-2.3685e-16,0,0.66667
0.86432,0.86753,8.6432,0.55129,18.445,26.524,-12.706,4.2355,-0.91767,-16.942,-1.0519e-09,-0.45884,0,0,0.1,9.4739e-16,0,0.66667
0.61035,0.2493,6.1035,-0.37605,-31.297,182.05,6.1205,-2.0402,-1.5017,8.1607,-1.7915e-12,-0.75086,0,0,0.1,1.1842e-16,0,0.66667
0.39009,0.15794,3.9009,-0.51309,-57.843,404.25,5.3374,-1.7791,-1.0691,7.1165,-5.4063e-12,-0.53454,0,0,0.1,-9.4739e-16,1.0598e-16,0.66667
0.75559,0.31295,7.5559,-0.28057,-15.911,76.886,5.6533,-1.8844,-1.7191,7.5377,1.9363e-11,-0.85955,0,0,0.1,-0,-0,0.66667
0.71863,0.3892,7.1863,-0.16619,-10.623,99.734,3.1848,-1.0616,-1.9064,4.2465,1.934e-12,-0.95321,0,0,0.1,-0,-0,0.66667
0.64733,0.20474,6.4733,-0.44288,-34.138,151.9,7.6451,-2.5484,-1.2995,10.194,-4.1567e-13,-0.64975,0,0,0.1,-0,-0,0.66667
0.20726,0.57026,2.0726,0.10539,13.388,627.73,-0.58249,0.19416,-1.9595,-0.77665,2.0544e-11,-0.97973,0,0,0.1,-0,-0,0.66667
0.88553,0.62153,8.8553,0.18229,5.1461,18.558,-4.3047,1.4349,-1.8806,-5.7396,1.31e-08,-0.94029,0,0,0.1,-1.4211e-15,0,0.66667
0.71901,0.40706,7.1901,-0.1394,-8.8997,99.459,2.6729,-0.89096,-1.9368,3.5638,-7.5051e-14,-0.96838,0,0,0.1,-0,-0,0.66667
0.30263,0.44428,3.0263,-0.08358,-10.075,507.59,0.67451,-0.22484,-1.973,0.89934,-3.9929e-12,-0.9865,0,0,0.1,-0,-0,0.66667
0.063598,0.012423,0.63598,-0.73136,-97.1,817.62,1.2404,-0.41346,-0.10096,1.6538,-9.4072e-07,-0.050478,0,0,0.1,-2.3685e-16,0,0.66667
0.9128,0.36657,9.128,-0.20015,-4.3429,11.242,4.8718,-1.6239,-1.8549,6.4958,-3.7402e-08,-0.92743,0,0,0.1,-0,-0,0.66667
0.79385,0.23741,7.9385,-0.39389,-19.255,56.238,8.3383,-2.7794,-1.4482,11.118,5.2708e-11,-0.7241,0,0,0.1,-0,-0,0.66667
0.49858,0.0023419,4.9858,-0.74649,-74.785,287.53,9.925,-3.3083,-0.022099,13.233,1.9078e-12,-0.011049,0,0,0.1,-0,3.2839e-17,0.66667
0.41393,0.8369,4.1393,0.50535,55.675,377.28,-5.5781,1.8594,-1.0892,-7.4375,-2.3448e-13,-0.54462,0,0,0.1,8.2454e-18,0,0.66667
0.61556,0.5883,6.1556,0.13245,10.893,177.3,-2.1741,0.72471,-1.9354,-2.8988,-1.8396e-12,-0.96771,0,0,0.1,4.737e-16,0,0.66667
0.39852,0.85424,3.9852,0.53135,59.441,394.68,-5.6467,1.8822,-0.99304,-7.529,1.3323e-15,-0.49652,0,0,0.1,-0,-0,0.66667
0.038918,0.58008,0.38918,0.12013,15.924,850.64,-0.12467,0.041557,-1.9454,-0.16623,6.1549e-08,-0.97272,0,0,0.1,-4.6088e-17,0,0.66667
0.30197,0.0025177,3.0197,-0.74622,-90.419,509.14,6.009,-2.003,-0.018997,8.0119,-4.1087e-12,-0.0094984,0,0,0.1,-0,-0,0.66667
0.24628,0.56327,2.4628,0.0949,11.831,577.84,-0.62325,0.20775,-1.9685,-0.831,8.3291e-12,-0.98424,0,0,0.1,-0,-0,0.66667
0.9723,0.88177,9.723,0.57265,4.0317,2.8228,-14.848,4.9492,-0.83373,-19.797,-9.651e-06,-0.41686,0,0,0.1,-0,-0,0.66667
0.7675,0.027742,7.675,-0.70839,-38.77,71.496,14.498,-4.8328,-0.21823,19.331,1.0345e-10,-0.10911,0,0,0.1,1.4211e-15,0,0.66667
0.4037,0.24004,4.037,-0.38994,-43.353,388.59,4.1978,-1.3993,-1.46,5.5971,-2.7591e-12,-0.73,0,0,0.1,4.737e-16,0,0.66667
0.73663,0.078431,7.3663,-0.63235,-38.457,89.407,12.422,-4.1405,-0.57908,16.562,-3.4462e-11,-0.28954,0,0,0.1,-0,-0,0.66667
0.30266,0.2965,3.0266,-0.30525,-36.823,507.67,2.4636,-0.8212,-1.666,3.2848,-4.575e-12,-0.83299,0,0,0.1,-0,-0,0.66667
0.5273,0.84864,5.273,0.52296,50.184,258.33,-7.3534,2.4511,-1.0271,-9.8046,-2.315e-12,-0.51356,0,0,0.1,-0,-0,0.66667
0.20714,0.25413,2.0714,-0.36881,-46.901,628,2.0372,-0.67907,-1.5159,2.7163,-5.4543e-11,-0.75797,0,0,0.1,4.737e-16,0,0.66667
0.25426,0.56078,2.5426,0.091172,11.318,567.75,-0.61817,0.20606,-1.9702,-0.82423,2.2228e-12,-0.9851,0,0,0.1,5.9212e-16,0,0.66667
0.43402,0.37209,4.3402,-0.19187,-20.659,354.62,2.2207,-0.74024,-1.8695,2.961,-6.7302e-13,-0.93473,0,0,0.1,-1.1842e-16,0,0.66667
0.082426,0.85079,0.82426,0.52618,69.525,792.34,-1.1566,0.38552,-1.0145,-1.5421,-2.7237e-08,-0.50723,0,0,0.1,-0,-0,0.66667
0.85329,0.51655,8.5329,0.024825,0.88553,29.376,-0.56488,0.18829,-1.9949,-0.75318,-1.7217e-10,-0.99746,0,0,0.1,-0,-0,0.66667
0.91633,0.15595,9.1633,-0.51608,-10.875,11.344,12.611,-4.2036,-1.0521,16.814,-2.2881e-09,-0.52603,0,0,0.1,2.9606e-17,0,0.66667
0.21311,0.096913,2.1311,-0.60463,-76.833,620.54,3.436,-1.1453,-0.6986,4.5814,-1.1905e-09,-0.3493,0,0,0.1,-0,-0,0.66667
0.47372,0.06042,4.7372,-0.65937,-68.099,312.88,8.3295,-2.7765,-0.45323,11.106,-6.6693e-12,-0.22662,0,0,0.1,3.5527e-16,0,0.66667
0.84146,0.25392,8.4146,-0.36912,-14.205,34.498,8.2827,-2.7609,-1.5173,11.044,-1.1569e-09,-0.75865,0,0,0.1,-1.8948e-15,0,0.66667
0.28828,0.099731,2.8828,-0.6004,-73.275,525.71,4.6156,-1.5385,-0.71573,6.1541,1.1481e-11,-0.35786,0,0,0.1,-0,-0,0.66667
0.61071,0.38536,6.1071,-0.17196,-14.281,181.44,2.8004,-0.93348,-1.8974,3.7339,-1.3216e-12,-0.94869,0,0,0.1,-0,-0,0.66667
0.44205,0.65647,4.4205,0.2347,25.055,345.89,-2.7667,0.92223,-1.8039,-3.6889,-1.5881e-12,-0.90197,0,0,0.1,-1.8948e-15,0,0.66667
0.39749,0.19711,3.9749,-0.45433,-50.839,395.71,4.8158,-1.6053,-1.2632,6.4211,-6.3656e-12,-0.63158,0,0,0.1,-0,-0,0.66667
0.78937,0.74594,7.8937,0.36891,18.375,58.459,-7.7656,2.5885,-1.5138,-10.354,-3.6972e-11,-0.75688,0,0,0.1,9.4739e-16,0,0.66667
0.46451,0.95143,4.6451,0.67715,70.733,322.62,-8.3879,2.796,-0.36809,-11.184,-9.166e-13,-0.18405,0,0,0.1,9.4739e-16,0,0.66667
0.4648,0.77752,4.648,0.41628,43.345,321.72,-5.1597,1.7199,-1.3836,-6.8796,2.2666e-12,-0.69178,0,0,0.1,2.3685e-16,0,0.66667
0.99203,0.85349,9.9203,0.53023,0.9679,1.437,-14.027,4.6756,-0.99733,-18.702,6.0381e-06,-0.49866,0,0,0.1,-1.8948e-15,0,0.66667
0.96223,0.57661,9.6223,0.11491,1.0701,2.4697,-2.9486,0.98288,-1.95,-3.9315,-4.7812e-08,-0.975,0,0,0.1,-0,-0,0.66667
0.23508,0.043853,2.3508,-0.68422,-86.121,592.55,4.2893,-1.4298,-0.33895,5.719,-8.9078e-11,-0.16948,0,0,0.1,-0,-0,0.66667
0.22695,0.52679,2.2695,0.040185,5.0587,602.43,-0.24321,0.081069,-1.9919,-0.32428,2.3326e-11,-0.99593,0,0,0.1,-0,-0,0.66667
0.66274,0.60061,6.6274,0.15091,11.199,139.46,-2.6671,0.88904,-1.9165,-3.5562,2.3226e-13,-0.95826,0,0,0.1,-0,-0,0.66667
0.41195,0.8053,4.1195,0.45795,50.531,379.41,-5.0307,1.6769,-1.2521,-6.7077,-7.7938e-13,-0.62607,0,0,0.1,-0,-0,0.66667
0.71875,0.53795,7.1875,0.056932,3.6364,99.573,-1.0912,0.36373,-1.9939,-1.4549,-2.7434e-13,-0.99694,0,0,0.1,-1.8948e-15,0,0.66667
0.73345,0.72526,7.3345,0.33788,20.659,90.461,-6.6086,2.2029,-1.5977,-8.8115,-9.6332e-12,-0.79885,0,0,0.1,-0,-0,0.66667
0.78329,0.81524,7.8329,0.47286,24.199,61.94,-9.8771,3.2924,-1.2073,-13.169,7.7811e-11,-0.60365,0,0,0.1,-0,-0,0.66667
0.26331,0.57555,2.6331,0.11333,13.998,556.37,-0.79574,0.26525,-1.9551,-1.061,3.8397e-12,-0.97757,0,0,0.1,-0,-0,0.66667
0.99836,0.56466,9.9836,0.096997,-0.013213,0.068659,-2.5823,0.86078,-1.9696,-3.4431,-2.6672e-06,-0.98481,0,0,0.1,-3.7896e-15,0,0.66667
0.4937,0.89602,4.937,0.59403,59.77,292.05,-7.8207,2.6069,-0.74255,-10.428,3.7303e-14,-0.37128,0,0,0.1,-0,-0,0.66667
0.083927,0.55091,0.83927,0.076359,10.065,790.23,-0.17089,0.056965,-1.9766,-0.22786,-2.3179e-08,-0.98832,0,0,0.1,-0,-0,0.66667
0.11202,0.027984,1.1202,-0.70802,-93.174,752.99,2.1149,-0.70498,-0.21896,2.8199,1.6456e-07,-0.10948,0,0,0.1,5.9212e-17,0,0.66667
0.5615,0.33473,5.615,-0.2479,-22.503,225.27,3.7119,-1.2373,-1.7847,4.9491,-2.3757e-12,-0.89236,0,0,0.1,-0,-0,0.66667
0.51011,0.7499,5.1011,0.37486,36.811,275,-5.0991,1.6997,-1.4995,-6.7989,-3.7037e-13,-0.74975,0,0,0.1,-1.1028e-15,0,0.66667
0.93484,0.86543,9.3484,0.54814,9.0658,7.7105,-13.665,4.5549,-0.93221,-18.219,1.2132e-07,-0.46611,0,0,0.1,-9.4739e-16,0,0.66667
0.90083,0.76864,9.0083,0.40295,9.961,14.735,-9.6798,3.2266,-1.4202,-12.906,4.2944e-08,-0.71011,0,0,0.1,-0,-0,0.66667
0.4654,0.73271,4.654,0.34907,36.302,320.98,-4.3322,1.4441,-1.5662,-5.7763,-1.0507e-12,-0.78308,0,0,0.1,-0,-0,0.66667
0.20648,0.32326,2.0648,-0.26511,-33.706,628.8,1.4597,-0.48657,-1.7496,1.9463,-3.8189e-11,-0.87482,0,0,0.1,-0,-0,0.66667
0.56442,0.76085,5.6442,0.39128,35.385,222.8,-5.8892,1.9631,-1.4572,-7.8523,-5.218e-13,-0.72858,0,0,0.1,-0,-0,0.66667
0.30873,0.30805,3.0873,-0.28792,-34.587,500.23,2.3704,-0.79015,-1.705,3.1606,-2.5986e-12,-0.85251,0,0,0.1,-2.3685e-16,0,0.66667
0.65059,0.52348,6.5059,0.035213,2.6873,148.78,-0.61091,0.20364,-1.9934,-0.81454,1.4105e-12,-0.99668,0,0,0.1,-9.4739e-16,0,0.66667
0.5151,0.81459,5.151,0.47188,46.057,270.21,-6.4818,2.1606,-1.2134,-8.6424,-8.0678e-12,-0.60668,0,0,0.1,1.8948e-15,-5.2896e-19,0.66667
0.84318,0.79205,8.4318,0.43807,16.715,34.017,-9.8499,3.2833,-1.3215,-13.133,9.5903e-10,-0.66077,0,0,0.1,-0,-0,0.66667
0.13174,0.20217,1.3174,-0.44674,-58.363,726.67,1.5694,-0.52314,-1.2873,2.0926,5.9585e-09,-0.64364,0,0,0.1,-0,-0,0.66667
0.25101,0.6546,2.5101,0.2319,28.85,571.91,-1.5522,0.51742,-1.813,-2.0697,9.107e-12,-0.90652,0,0,0.1,-1.1842e-16,0,0.66667
0.59753,0.81349,5.9753,0.47023,40.145,193.29,-7.4927,2.4976,-1.2142,-9.9903,3.0034e-12,-0.60709,0,0,0.1,-0,-0,0.66667
0.62521,0.40775,6.2521,-0.13838,-11.16,169.25,2.3071,-0.76904,-1.9377,3.0762,-3.8636e-13,-0.96886,0,0,0.1,-0,-0,0.66667
0.41259,0.43677,4.1259,-0.09485,-10.439,378.32,1.0436,-0.34786,-1.9666,1.3915,-5.5508e-12,-0.98328,0,0,0.1,6.5133e-16,0,0.66667
0.90059,0.93606,9.0059,0.65409,16.386,15.86,-15.709,5.2362,-0.47756,-20.945,-2.2243e-07,-0.23878,0,0,0.1,2.0132e-15,0,0.66667
0.81028,0.22525,8.1028,-0.41213,-18.705,48.258,8.905,-2.9683,-1.3976,11.873,-2.8702e-11,-0.69878,0,0,0.1,-0,-0,0.66667
0.54085,0.42281,5.4085,-0.11579,-10.856,244.61,1.6699,-0.55665,-1.9495,2.2266,-1.7203e-12,-0.97474,0,0,0.1,-0,-0,0.66667
0.40503,0.63919,4.0503,0.20879,23.159,386.89,-2.2551,0.7517,-1.8475,-3.0068,-3.5933e-12,-0.92376,0,0,0.1,-0,-0,0.66667
0.39718,0.33766,3.9718,-0.24351,-27.219,395.81,2.5791,-0.85971,-1.7867,3.4388,-4.3521e-13,-0.89336,0,0,0.1,-0,-0,0.66667
0.11399,0.36409,1.1399,-0.20387,-26.719,750.13,0.6197,-0.20657,-1.8505,0.82627,1.4398e-08,-0.92523,0,0,0.1,-0,-0,0.66667
0.93724,0.14245,9.3724,-0.53632,-8.5407,7.2283,13.404,-4.4682,-0.98162,17.873,-1.039e-07,-0.49081,0,0,0.1,-1.1099e-15,1.5374e-16,0.66667
0.23454,0.40188,2.3454,-0.14717,-18.461,592.77,0.92047,-0.30682,-1.9284,1.2273,-2.9042e-11,-0.9642,0,0,0.1,-1.1842e-16,0,0.66667
0.15282,0.067395,1.5282,-0.64891,-84.405,699.01,2.6444,-0.88146,-0.50291,3.5258,4.767e-08,-0.25145,0,0,0.1,-0,-0,0.66667
0.51002,0.8732,5.1002,0.55979,55.08,275.48,-7.6134,2.5378,-0.8845,-10.151,-4.0563e-12,-0.44225,0,0,0.1,1.1842e-16,0,0.66667
0.45504,0.037538,4.5504,-0.69369,-73.282,332.73,8.4176,-2.8059,-0.29099,11.224,1.7142e-13,-0.14549,0,0,0.1,-9.4739e-16,0,0.66667
0.074027,0.29194,0.74027,-0.31208,-41.233,803.52,0.61607,-0.20536,-1.6524,0.82143,1.1615e-07,-0.82621,0,0,0.1,1.1842e-16,0,0.66667
0.57557,0.92189,5.7557,0.63284,56.319,213.24,-9.7132,3.2377,-0.57646,-12.951,2.677e-12,-0.28823,0,0,0.1,-9.4739e-16,0,0.66667
0.69854,0.76841,6.9854,0.40261,27.321,113.77,-7.4998,2.4999,-1.4218,-9.9997,-1.2719e-12,-0.7109,0,0,0.1,-0,-0,0.66667
0.49055,0.93834,4.9055,0.65751,66.483,295.45,-8.601,2.867,-0.46148,-11.468,3.8911e-12,-0.23074,0,0,0.1,-0,-0,0.66667
0.072894,0.054061,0.72894,-0.66891,-88.634,805.15,1.3002,-0.43341,-0.40707,1.7337,2.0909e-06,-0.20354,0,0,0.1,-5.9212e-17,0,0.66667
0.17966,0.54278,1.7966,0.064163,8.2417,663.54,-0.30741,0.10247,-1.9822,-0.40987,-1.8867e-10,-0.9911,0,0,0.1,-0,-0,0.66667
0.11594,0.24126,1.1594,-0.38811,-50.887,747.6,1.1999,-0.39997,-1.4617,1.5999,1.2419e-08,-0.73084,0,0,0.1,-0,-0,0.66667
0.58346,0.72576,5.8346,0.33864,29.623,205.42,-5.2688,1.7563,-1.5903,-7.0251,-7.6694e-13,-0.79516,0,0,0.1,-0,-0,0.66667
0.085088,0.97073,0.85088,0.70609,93.417,788.86,-1.6021,0.53404,-0.22546,-2.1362,1.6091e-06,-0.11273,0,0,0.1,-0,-0,0.66667
0.38405,0.75733,3.8405,0.386,43.71,410.97,-3.9532,1.3177,-1.4676,-5.271,-5.0004e-12,-0.73382,0,0,0.1,-0,-0,0.66667
0.14716,0.11936,1.4716,-0.57095,-74.338,706.39,2.2405,-0.74684,-0.83857,2.9874,6.7866e-11,-0.41928,0,0,0.1,1.1842e-16,0,0.66667
0.41149,0.61001,4.1149,0.16502,18.185,379.59,-1.8107,0.60358,-1.9008,-2.4143,-2.6934e-12,-0.95039,0,0,0.1,-0,-0,0.66667
0.62527,0.24428,6.2527,-0.38358,-30.983,169.56,6.3958,-2.1319,-1.4818,8.5278,2.4203e-13,-0.74092,0,0,0.1,-0,-0,0.66667
0.35954,0.71342,3.5954,0.32013,37.014,439.4,-3.0693,1.0231,-1.6409,-4.0925,-7.194e-12,-0.82043,0,0,0.1,-0,-0,0.66667
0.89598,0.84621,8.9598,0.51932,13.498,16.473,-12.408,4.136,-1.0398,-16.544,4.411e-08,-0.51991,0,0,0.1,-0,-0,0.66667
0.41748,0.10465,4.1748,-0.59303,-65.16,373.49,6.6021,-2.2007,-0.748,8.8028,3.8978e-12,-0.374,0,0,0.1,-9.4739e-16,0,0.66667
0.93366,0.26282,9.3366,-0.35578,-5.9247,7.2042,8.8579,-2.9526,-1.5488,11.811,-1.5067e-07,-0.77441,0,0,0.1,-0,-0,0.66667
0.82046,0.32313,8.2046,-0.2653,-11.427,43.209,5.8045,-1.9348,-1.7466,7.7394,-1.7945e-10,-0.87332,0,0,0.1,-0,-0,0.66667
0.11664,0.87196,1.1664,0.55794,73.234,746.75,-1.7354,0.57848,-0.89104,-2.3139,-1.7493e-08,-0.44552,0,0,0.1,-2.3685e-16,0,0.66667
0.10397,0.85778,1.0397,0.53667,70.629,763.59,-1.4879,0.49595,-0.97347,-1.9838,-1.0018e-08,-0.48673,0,0,0.1,-0,-0,0.66667
0.13281,0.066259,1.3281,-0.65061,-85.124,725.38,2.3042,-0.76807,-0.49266,3.0723,-9.5267e-08,-0.24633,0,0,0.1,-0,-0,0.66667
0.63847,0.46753,6.3847,-0.048698,-3.818,158.4,0.82913,-0.27638,-1.994,1.1055,-7.8887e-13,-0.997,0,0,0.1,4.737e-16,0,0.66667
0.68459,0.35949,6.8459,-0.21077,-14.819,123.3,3.8478,-1.2826,-1.842,5.1304,3.797e-13,-0.92099,0,0,0.1,-8.1072e-16,0,0.66667
0.79001,0.30871,7.9001,-0.28694,-14.238,57.943,6.0449,-2.015,-1.7051,8.0599,4.5842e-11,-0.85254,0,0,0.1,-2.3685e-16,0,0.66667
0.54233,0.58307,5.4233,0.1246,11.657,243.2,-1.802,0.60066,-1.9431,-2.4027,-2.6378e-12,-0.97155,0,0,0.1,-0,-0,0.66667
0.67536,0.50057,6.7536,0.00085322,0.061376,129.92,-0.015366,0.005122,-2.0008,-0.020488,7.0997e-13,-1.0004,0,0,0.1,-0,-0,0.66667
0.68675,0.048312,6.8675,-0.67753,-47.659,123.01,12.408,-4.136,-0.37121,16.544,2.6557e-13,-0.18561,0,0,0.1,-0,-1.1742e-16,0.66667
0.33823,0.9943,3.3823,0.74145,87.541,465.31,-6.6875,2.2292,-0.043449,-8.9166,1.1338e-12,-0.021725,0,0,0.1,-7.1054e-16,0,0.66667
0.65052,0.79776,6.5052,0.44664,34.183,149.41,-7.748,2.5827,-1.288,-10.331,1.0898e-12,-0.644,0,0,0.1,-9.4739e-16,0,0.66667
0.4041,0.4784,4.041,-0.032399,-3.5956,387.86,0.34913,-0.11638,-1.9975,0.46551,-3.03e-12,-0.99875,0,0,0.1,-0,-0,0.66667
0.64016,0.85952,6.4016,0.53929,42.285,157.86,-9.2062,3.0687,-0.96987,-12.275,-2.1654e-12,-0.48493,0,0,0.1,9.4739e-16,-1.4746e-16,0.66667
0.93462,0.99731,9.3462,0.74597,12.576,8.8129,-18.592,6.1973,-0.022563,-24.789,1.5881e-06,-0.011282,0,0,0.1,-3.3159e-15,-3.7211e-17,0.66667
0.42997,0.85972,4.2997,0.53958,58.492,359.56,-6.1868,2.0623,-0.96154,-8.249,3.2565e-12,-0.48077,0,0,0.1,-9.4739e-16,0,0.66667
0.50617,0.36276,5.0617,-0.20586,-20.305,278.73,2.7787,-0.92623,-1.8465,3.7049,-3.1048e-12,-0.92324,0,0,0.1,4.737e-16,0,0.66667
0.33206,0.37787,3.3206,-0.18319,-21.631,471.92,1.6222,-0.54072,-1.8805,2.1629,-1.6528e-12,-0.94027,0,0,0.1,-0,-0,0.66667
0.57872,0.95167,5.7872,0.67751,60.007,210.55,-10.456,3.4852,-0.37161,-13.941,2.3865e-12,-0.18581,0,0,0.1,-0,-0,0.66667
0.86342,0.55627,8.6342,0.084402,2.8155,25.702,-1.9433,0.64777,-1.9739,-2.5911,3.9395e-09,-0.98695,0,0,0.1,-0,-0,0.66667
0.28365,0.12436,2.8365,-0.56347,-68.941,531.38,4.2621,-1.4207,-0.87333,5.6827,4.607e-12,-0.43666,0,0,0.1,7.4015e-17,0,0.66667
0.83439,0.1727,8.3439,-0.49095,-19.722,37.79,10.924,-3.6412,-1.1401,14.565,-9.9492e-10,-0.57003,0,0,0.1,-9.4739e-16,0,0.66667
0.51948,0.46244,5.1948,-0.056345,-5.4526,265.37,0.78053,-0.26018,-1.9881,1.0407,-4.6217e-12,-0.99406,0,0,0.1,4.737e-16,0,0.66667
0.22608,0.7184,2.2608,0.3276,41.293,603.66,-1.975,0.65834,-1.6168,-2.6333,3.4768e-11,-0.8084,0,0,0.1,-1.9244e-16,0,0.66667
0.41945,0.52088,4.1945,0.031315,3.4225,370.65,-0.35027,0.11676,-1.9973,-0.46702,-1.4229e-12,-0.99865,0,0,0.1,-9.4739e-16,0,0.66667
0.16699,0.77954,1.6699,0.4193,54.18,680.23,-1.8672,0.62241,-1.3741,-2.4897,-5.4614e-10,-0.68705,0,0,0.1,-2.6645e-16,0,0.66667
0.91239,0.74393,9.1239,0.3659,8.0108,11.718,-8.9025,2.9675,-1.5217,-11.87,4.1805e-08,-0.76085,0,0,0.1,9.4739e-16,0,0.66667
0.057947,0.30546,0.57947,-0.29181,-38.633,825.08,0.45092,-0.15031,-1.6959,0.60123,5.3433e-08,-0.84794,0,0,0.1,-0,-0,0.66667
0.604,0.14348,6.04,-0.53478,-45.138,187.86,8.6136,-2.8712,-0.9807,11.485,-1.5694e-12,-0.49035,0,0,0.1,-0,-0,0.66667
0.10395,0.11858,1.0395,-0.57213,-75.32,763.63,1.586,-0.52865,-0.83424,2.1146,-3.0568e-08,-0.41712,0,0,0.1,-1.7764e-16,0,0.66667
0.31348,0.43915,3.1348,-0.09127,-10.921,494.35,0.76296,-0.25432,-1.9747,1.0173,-1.0434e-11,-0.98735,0,0,0.1,-0,-0,0.66667
0.14294,0.17127,1.4294,-0.49309,-64.239,711.89,1.8796,-0.62652,-1.1362,2.5061,2.3969e-09,-0.56812,0,0,0.1,-0,-0,0.66667
0.49951,0.23049,4.9951,-0.40427,-40.286,285.72,5.385,-1.795,-1.4229,7.1799,-2.5082e-12,-0.71144,0,0,0.1,9.4739e-16,0,0.66667
0.6361,0.97022,6.361,0.70532,55.944,161.71,-11.964,3.988,-0.23074,-15.952,-2.0073e-12,-0.11537,0,0,0.1,-0,-1.2875e-16,0.66667
0.82926,0.41907,8.2926,-0.1214,-4.9865,39.132,2.6845,-0.89483,-1.9503,3.5793,-2.8291e-10,-0.97516,0,0,0.1,-0,-0,0.66667
0.45001,0.058475,4.5001,-0.66229,-70.337,338.04,7.9477,-2.6492,-0.44105,10.597,-6.1879e-12,-0.22053,0,0,0.1,7.1054e-16,-5.3154e-17,0.66667
0.76945,0.51411,7.6945,0.021163,1.1388,68.693,-0.43424,0.14475,-1.9973,-0.57898,5.0308e-12,-0.99863,0,0,0.1,-0,-0,0.66667
0.59534,0.24004,5.9534,-0.38995,-33.399,195.02,6.1907,-2.0636,-1.4615,8.2542,-8.411e-13,-0.73073,0,0,0.1,-9.4739e-16,0,0.66667
0.97226,0.218,9.7226,-0.42299,-2.9169,2.1822,10.967,-3.6557,-1.3646,14.623,1.9128e-06,-0.68228,0,0,0.1,-1.1842e-16,0,0.66667
0.11972,0.99152,1.1972,0.73728,96.881,742.79,-2.3537,0.78457,-0.065177,-3.1383,5.1196e-08,-0.032588,0,0,0.1,2.602e-16,0,0.66667
0.81632,0.66953,8.1632,0.25429,11.18,45.068,-5.5356,1.8452,-1.769,-7.3807,1.1769e-10,-0.88448,0,0,0.1,-0,-0,0.66667
0.83516,0.099316,8.3516,-0.60103,-24.117,37.916,13.385,-4.4618,-0.71313,17.847,-7.3928e-09,-0.35656,0,0,0.1,-1.8948e-15,0,0.66667
0.79157,0.72079,7.9157,0.33118,16.333,57.237,-6.9907,2.3302,-1.6089,-9.3209,-4.7436e-11,-0.80444,0,0,0.1,-0,-0,0.66667
0.45482,0.51049,4.5482,0.015738,1.6552,332,-0.19088,0.063628,-2.001,-0.25451,-3.3559e-12,-1.0005,0,0,0.1,-1.8948e-15,0,0.66667
0.52721,0.28593,5.2721,-0.3211,-30.761,258.01,4.5143,-1.5048,-1.6329,6.0191,-2.7023e-12,-0.81643,0,0,0.1,-0,-0,0.66667
0.98538,0.67792,9.8538,0.26688,0.89655,0.80234,-7.0127,2.3376,-1.7499,-9.3502,-5.0403e-08,-0.87495,0,0,0.1,-0,-0,0.66667
0.94464,0.25478,9.4464,-0.36782,-5.1172,5.3638,9.2656,-3.0885,-1.5166,12.354,-7.6008e-08,-0.75828,0,0,0.1,-3.7896e-15,0,0.66667
0.763,0.89419,7.63,0.59128,32.81,73.518,-12.031,4.0102,-0.75733,-16.041,7.4456e-12,-0.37866,0,0,0.1,-0,4.4643e-17,0.66667
0.46026,0.91705,4.6026,0.62558,65.63,326.99,-7.6781,2.5594,-0.60548,-10.238,3.2507e-12,-0.30274,0,0,0.1,-0,-0,0.66667
0.54024,0.41633,5.4024,-0.12551,-11.779,245.2,1.8081,-0.60271,-1.9411,2.4108,-2.4116e-12,-0.97055,0,0,0.1,-0,-0,0.66667
0.80456,0.51223,8.0456,0.018348,0.8521,50.381,-0.39366,0.13122,-1.9956,-0.52487,7.8195e-11,-0.9978,0,0,0.1,-0,-0,0.66667
0.27687,0.64853,2.7687,0.22279,27.31,539.47,-1.6449,0.54831,-1.8222,-2.1932,-1.0475e-12,-0.91112,0,0,0.1,2.3685e-16,0,0.66667
0.25653,0.92592,2.5653,0.63888,79.476,565.35,-4.3705,1.4568,-0.54578,-5.8274,-1.3771e-11,-0.27289,0,0,0.1,-0,-0,0.66667
0.21386,0.90675,2.1386,0.61013,77.51,619.58,-3.4796,1.1599,-0.67586,-4.6394,1.3414e-09,-0.33793,0,0,0.1,-0,-0,0.66667
0.55121,0.32995,5.5121,-0.25507,-23.545,234.9,3.7492,-1.2497,-1.767,4.9989,-1.0569e-12,-0.88352,0,0,0.1,-0,-0,0.66667
0.9514,0.80414,9.514,0.45621,5.6016,4.6675,-11.574,3.8581,-1.262,-15.432,3.4296e-07,-0.63101,0,0,0.1,-0,-0,0.66667
0.23774,0.12669,2.3774,-0.55996,-70.297,589.01,3.5499,-1.1833,-0.88586,4.7333,-1.0291e-11,-0.44293,0,0,0.1,-0,-0,0.66667
0.8016,0.91246,8.016,0.61869,29.37,53.187,-13.225,4.4083,-0.63764,-17.633,1.5995e-09,-0.31882,0,0,0.1,-0,-0,0.66667
0.03041,0.58781,0.3041,0.13171,17.47,862.09,-0.10681,0.035602,-1.9422,-0.14241,1.6992e-07,-0.97109,0,0,0.1,-0,-0,0.66667
0.50622,0.39804,5.0622,-0.15295,-15.081,278.63,2.0646,-0.68822,-1.9143,2.7529,-2.44e-12,-0.95713,0,0,0.1,-0,-0,0.66667
0.28403,0.33822,2.8403,-0.24266,-29.618,530.59,1.8379,-0.61264,-1.7914,2.4506,-6.2357e-12,-0.89572,0,0,0.1,-0,-0,0.66667
0.28272,0.82166,2.8272,0.48249,59.025,532.42,-3.6376,1.2125,-1.1746,-4.8502,-5.1783e-12,-0.58732,0,0,0.1,-0,-0,0.66667
0.39197,0.10458,3.9197,-0.59314,-66.804,402.25,6.1998,-2.0666,-0.75157,8.2664,-4.7913e-12,-0.37579,0,0,0.1,-0,-0,0.66667
0.53546,0.88598,5.3546,0.57897,54.926,250.56,-8.267,2.7557,-0.80675,-11.023,-1.9087e-12,-0.40338,0,0,0.1,-0,-0,0.66667
0.77289,0.018424,7.7289,-0.72236,-38.751,68.578,14.888,-4.9627,-0.14149,19.851,4.3585e-11,-0.070746,0,0,0.1,-0,-0,0.66667
0.96166,0.024513,9.6166,-0.71323,-7.1128,4.6524,18.29,-6.0968,-0.18865,24.387,-2.0168e-05,-0.094327,0,0,0.1,1.8948e-15,0,0.66667
0.15039,0.88174,1.5039,0.57261,74.482,702.14,-2.2963,0.76544,-0.83197,-3.0618,1.6817e-10,-0.41599,0,0,0.1,-0,-0,0.66667
0.39479,0.2005,3.9479,-0.44925,-50.396,398.78,4.7296,-1.5765,-1.2809,6.3061,-4.5972e-12,-0.64047,0,0,0.1,9.4739e-16,0,0.66667
0.16274,0.45097,1.6274,-0.073544,-9.5037,685.68,0.31916,-0.10639,-1.9778,0.42555,2.9567e-10,-0.98888,0,0,0.1,-2.3685e-16,0,0.66667
0.83664,0.37561,8.3664,-0.18659,-7.3623,36.087,4.1629,-1.3876,-1.8746,5.5506,-9.2033e-10,-0.93729,0,0,0.1,-0,-0,0.66667
0.084802,0.22377,0.84802,-0.41435,-54.681,789.12,0.937,-0.31233,-1.3873,1.2493,3.8438e-08,-0.69363,0,0,0.1,-0,-0,0.66667
0.85629,0.9379,8.5629,0.65685,23.275,29.897,-14.999,4.9996,-0.46724,-19.998,-1.2707e-08,-0.23362,0,0,0.1,-0,6.0322e-18,0.66667
0.74085,0.74376,7.4085,0.36563,21.831,85.924,-7.2234,2.4078,-1.5222,-9.6312,-1.2808e-11,-0.76112,0,0,0.1,-9.8242e-16,0,0.66667
0.85834,0.24122,8.5834,-0.38816,-13.459,28.076,8.8847,-2.9616,-1.4674,11.846,-3.3066e-09,-0.73372,0,0,0.1,-0,-0,0.66667
0.88992,0.0033146,8.8992,-0.74503,-20.66,19.319,17.68,-5.8935,-0.030943,23.574,-7.5177e-09,-0.015472,0,0,0.1,3.7896e-15,0,0.66667
0.15078,0.44213,1.5078,-0.086804,-11.261,701.41,0.34901,-0.11634,-1.9715,0.46535,-5.8494e-11,-0.98575,0,0,0.1,-0,-0,0.66667
0.55669,0.51067,5.5669,0.016011,1.4639,229.6,-0.23768,0.079227,-1.9965,-0.31691,8.6078e-13,-0.99826,0,0,0.1,-0,-0,0.66667
0.30252,0.76637,3.0252,0.39955,48.231,507.93,-3.2232,1.0744,-1.4297,-4.2976,-7.5784e-13,-0.71487,0,0,0.1,-0,-0,0.66667
0.27122,0.35213,2.7122,-0.22181,-27.281,546.51,1.6043,-0.53475,-1.8228,2.139,-1.2966e-11,-0.9114,0,0,0.1,-0,-0,0.66667
0.016434,0.18353,0.16434,-0.47471,-63.111,880.93,0.20804,-0.069347,-1.203,0.27739,-1.041e-06,-0.60149,0,0,0.1,1.4803e-17,0,0.66667
0.51518,0.65322,5.1518,0.22982,22.389,269.74,-3.1574,1.0525,-1.8173,-4.2098,-4.8321e-12,-0.90863,0,0,0.1,1.1842e-15,0,0.66667
0.019049,0.48891,0.19049,-0.016638,-2.2079,877.39,0.0084517,-0.0028166,-1.9984,0.011269,8.9264e-07,-0.99922,0,0,0.1,-2.9606e-17,0,0.66667
0.89823,0.79698,8.9823,0.44547,11.306,15.575,-10.67,3.5567,-1.2911,-14.227,4.1819e-08,-0.64557,0,0,0.1,-1.8948e-15,0,0.66667
0.26698,0.79501,2.6698,0.44252,54.629,551.99,-3.1505,1.0502,-1.306,-4.2007,-1.2206e-12,-0.65302,0,0,0.1,4.737e-16,0,0.66667
0.49337,0.90514,4.9337,0.60771,61.183,292.42,-7.9954,2.6651,-0.68526,-10.661,-1.6325e-12,-0.34263,0,0,0.1,-1.0066e-15,0,0.66667
0.63642,0.033281,6.3642,-0.70008,-55.484,161.43,11.881,-3.9604,-0.25713,15.842,1.1839e-12,-0.12856,0,0,0.1,-0,-0,0.66667
0.0014998,0.75922,0.014998,0.38883,51.678,901.03,-0.01555,0.005182,-1.4648,-0.020734,-2.0169e-06,-0.73238,0,0,0.1,-0,1.9707e-16,0.66667
0.11324,0.90119,1.1324,0.60179,79.084,751.29,-1.8172,0.60574,-0.71194,-2.423,1.4449e-08,-0.35597,0,0,0.1,-5.9212e-17,0,0.66667
0.46654,0.28062,4.6654,-0.32907,-34.171,319.75,4.094,-1.3647,-1.6175,5.4586,-4.3396e-12,-0.80873,0,0,0.1,1.0362e-15,0,0.66667
0.62328,0.50271,6.2328,0.0040617,0.3288,170.8,-0.067508,0.022503,-2.0028,-0.09001,-2.332e-13,-1.0014,0,0,0.1,-0,-0,0.66667
0.81967,0.030365,8.1967,-0.70445,-30.773,45.114,15.398,-5.1326,-0.23383,20.53,7.4313e-10,-0.11692,0,0,0.1,3.5818e-16,0,0.66667
0.41481,0.35281,4.1481,-0.22079,-24.255,375.92,2.4422,-0.81408,-1.8238,3.2563,-1.1589e-12,-0.91188,0,0,0.1,-9.4739e-16,0,0.66667
0.92685,0.49431,9.2685,-0.0085361,-0.15543,7.9962,0.21098,-0.070327,-1.9982,0.28131,-2.7993e-07,-0.99911,0,0,0.1,-1.4211e-15,0,0.66667
0.59738,0.84056,5.9738,0.51085,43.646,193.52,-8.1379,2.7126,-1.0723,-10.851,1.4886e-12,-0.53613,0,0,0.1,2.3685e-16,0,0.66667
0.0018308,0.99116,0.018308,0.73673,98.216,900.59,-0.036444,0.012175,-0.071407,-0.048578,4.0119e-05,-0.035704,0,0,0.1,-0,3.845e-16,0.66667
0.68004,0.8623,6.8004,0.54345,38.8,127.37,-9.8551,3.285,-0.94671,-13.14,-3.4106e-13,-0.47336,0,0,0.1,-0,-0,0.66667
0.21277,0.50727,2.1277,0.010899,1.381,620.62,-0.061839,0.020613,-1.9972,-0.082452,5.3303e-11,-0.99862,0,0,0.1,9.4739e-16,0,0.66667
0.015256,0.051402,0.15256,-0.6729,-89.622,882.53,0.27374,-0.091226,-0.39427,0.36499,2.8915e-05,-0.19714,0,0,0.1,-0,-0,0.66667
0.73575,0.59022,7.3575,0.13533,8.2002,88.707,-2.6553,0.88508,-1.9381,-3.5403,-8.7677e-12,-0.96907,0,0,0.1,-2.3685e-16,0,0.66667
0.55191,0.4465,5.5191,-0.080252,-7.3946,234.09,1.1811,-0.39371,-1.9752,1.5748,-2.9098e-12,-0.98758,0,0,0.1,9.4739e-16,0,0.66667
0.78362,0.30711,7.8362,-0.28934,-14.745,61.281,6.0462,-2.0154,-1.7037,8.0615,4.6605e-11,-0.85187,0,0,0.1,1.4211e-15,0,0.66667
0.088169,0.094568,0.88169,-0.60815,-80.335,784.7,1.4299,-0.47662,-0.68392,1.9065,-3.3961e-08,-0.34196,0,0,0.1,-0,-0,0.66667
0.3557,0.075972,3.557,-0.63604,-73.971,444.39,6.0331,-2.011,-0.56064,8.0441,-1.4211e-13,-0.28032,0,0,0.1,-0,3.8325e-17,0.66667
0.2997,0.58124,2.997,0.12186,14.719,511.19,-0.97391,0.32464,-1.9473,-1.2986,2.7928e-13,-0.97365,0,0,0.1,4.737e-16,0,0.66667
0.569,0.62994,5.69,0.19491,17.468,218.3,-2.9574,0.98581,-1.8627,-3.9432,-5.4334e-13,-0.93134,0,0,0.1,-0,-0,0.66667
0.51015,0.34994,5.1015,-0.22509,-22.081,274.75,3.0621,-1.0207,-1.8179,4.0828,-6.9478e-13,-0.90897,0,0,0.1,-0,-0,0.66667
0.78213,0.84185,7.8213,0.51278,26.387,62.696,-10.695,3.565,-1.0695,-14.26,-1.258e-10,-0.53477,0,0,0.1,9.4739e-16,0,0.66667
0.18706,0.10068,1.8706,-0.59898,-76.943,654.2,2.9878,-0.99595,-0.72883,3.9838,-2.6539e-09,-0.36442,0,0,0.1,4.737e-16,0,0.66667
0.5765,0.95686,5.765,0.68529,60.939,212.58,-10.535,3.5117,-0.33214,-14.047,3.7614e-12,-0.16607,0,0,0.1,-6.8271e-16,0,0.66667
0.64438,0.26259,6.4438,-0.35611,-27.605,154.04,6.1192,-2.0397,-1.5481,8.1589,-2.0428e-14,-0.77404,0,0,0.1,-0,-0,0.66667
0.45987,0.40907,4.5987,-0.13639,-14.263,326.64,1.6726,-0.55753,-1.9319,2.2301,-1.4536e-12,-0.96594,0,0,0.1,-0,-0,0.66667
0.55798,0.56017,5.5798,0.09025,8.235,228.41,-1.3429,0.44762,-1.9704,-1.7905,-3.7674e-12,-0.98522,0,0,0.1,1.0658e-15,0,0.66667
0.97433,0.008785,9.7433,-0.73682,-4.9648,3.586,19.144,-6.3814,-0.067234,25.526,1.3246e-05,-0.033617,0,0,0.1,-0,-0,0.66667
0.75167,0.15333,7.5167,-0.52,-30.002,79.837,10.423,-3.4744,-1.0415,13.898,3.4098e-11,-0.52073,0,0,0.1,-2.3685e-16,0,0.66667
0.38099,0.49936,3.8099,-0.00095643,-0.10845,414.25,0.009717,-0.003239,-1.9987,0.012956,-1.0809e-11,-0.99937,0,0,0.1,-2.9606e-17,0,0.66667
0.43402,0.37278,4.3402,-0.19082,-20.546,354.62,2.2085,-0.73618,-1.871,2.9447,-2.228e-12,-0.9355,0,0,0.1,9.4739e-16,0,0.66667
0.71283,0.58404,7.1283,0.12605,8.1956,103.55,-2.3962,0.79872,-1.9409,-3.1949,-2.7112e-12,-0.97047,0,0,0.1,-0,-0,0.66667
0.093712,0.91135,0.93712,0.61703,81.431,777.3,-1.5419,0.51398,-0.65188,-2.0559,-8.8381e-08,-0.32594,0,0,0.1,-2.3685e-16,6.4699e-17,0.66667
0.63781,0.83104,6.3781,0.49657,39.112,159.62,-8.4457,2.8152,-1.1234,-11.261,1.9629e-12,-0.56169,0,0,0.1,-1.7027e-15,0,0.66667
0.11436,0.68526,1.1436,0.27789,36.428,749.66,-0.84745,0.28248,-1.7245,-1.1299,-1.6765e-08,-0.86223,0,0,0.1,-5.4961e-17,0,0.66667
0.10185,0.1612,1.0185,-0.5082,-66.897,766.4,1.3803,-0.46008,-1.0792,1.8403,5.18e-08,-0.53962,0,0,0.1,-0,-0,0.66667
0.66667,0.38966,6.6667,-0.16551,-12.168,136.49,2.9425,-0.98082,-1.9002,3.9233,-1.5326e-12,-0.95011,0,0,0.1,9.4739e-16,0,0.66667
0.1671,0.48798,1.671,-0.018033,-2.3268,679.96,0.080356,-0.026785,-1.9969,0.10714,6.8103e-10,-0.99844,0,0,0.1,-4.3473e-16,0,0.66667
0.76472,0.57545,7.6472,0.11317,6.2006,71.398,-2.3078,0.76927,-1.9576,-3.0771,-1.4557e-11,-0.9788,0,0,0.1,-0,-0,0.66667
0.75059,0.76309,7.5059,0.39463,22.807,80.097,-7.8989,2.633,-1.45,-10.532,-1.8926e-11,-0.72499,0,0,0.1,-0,-0,0.66667
0.31202,0.34367,3.1202,-0.2345,-28.099,496.19,1.9512,-0.65039,-1.8101,2.6016,-6.8913e-12,-0.90503,0,0,0.1,9.2519e-17,0,0.66667
0.57086,0.56405,5.7086,0.096081,8.5808,216.52,-1.4627,0.48755,-1.9653,-1.9502,-1.6037e-12,-0.98266,0,0,0.1,-1.8948e-15,0,0.66667
0.64514,0.68013,6.4514,0.2702,20.895,153.28,-4.6485,1.5495,-1.7391,-6.198,2.1281e-12,-0.86953,0,0,0.1,-4.737e-16,0,0.66667
0.81146,0.63461,8.1146,0.20191,9.0852,47.234,-4.3692,1.4564,-1.8581,-5.8256,4.1484e-11,-0.92907,0,0,0.1,-0,-0,0.66667
0.20147,0.54579,2.0147,0.068685,8.7465,635.22,-0.369,0.123,-1.985,-0.492,2.6534e-14,-0.9925,0,0,0.1,-0,-0,0.66667
0.67624,0.97175,6.7624,0.70763,51.158,130.77,-12.761,4.2536,-0.219,-17.014,2.168e-12,-0.1095,0,0,0.1,-0,-0,0.66667
0.82289,0.74368,8.2289,0.36552,15.572,42.352,-8.0209,2.6736,-1.5232,-10.694,2.1802e-10,-0.76159,0,0,0.1,1.4211e-15,0,0.66667
0.41439,0.62937,4.1439,0.19406,21.326,376.36,-2.1444,0.71479,-1.8637,-2.8592,-4.8683e-12,-0.93186,0,0,0.1,-0,-0,0.66667
0.4937,0.79912,4.937,0.44868,45.074,291.72,-5.907,1.969,-1.2813,-7.8759,-1.3896e-12,-0.64064,0,0,0.1,-0,-0,0.66667
0.51425,0.092599,5.1425,-0.6111,-59.813,271.4,8.3802,-2.7934,-0.6759,11.174,2.828e-12,-0.33795,0,0,0.1,-8.7127e-16,0,0.66667
0.93933,0.20945,9.3933,-0.43583,-6.669,6.4612,10.917,-3.639,-1.3264,14.556,-1.2291e-07,-0.6632,0,0,0.1,-0,-0,0.66667
0.051651,0.18478,0.51651,-0.47283,-62.71,833.57,0.65126,-0.21709,-1.2042,0.86834,1.9179e-07,-0.6021,0,0,0.1,-2.9606e-17,0,0.66667
0.57155,0.32931,5.7155,-0.25603,-22.854,216.04,3.9023,-1.3008,-1.7639,5.2031,-2.8706e-12,-0.88193,0,0,0.1,-0,-0,0.66667
0.48976,0.46441,4.8976,-0.05338,-5.3791,295.32,0.69715,-0.23238,-1.9883,0.92954,1.3813e-12,-0.99413,0,0,0.1,7.6369e-16,0,0.66667
0.34383,0.10821,3.4383,-0.58769,-68.963,458.34,5.3884,-1.7961,-0.77668,7.1845,-2.4412e-12,-0.38834,0,0,0.1,4.737e-16,0,0.66667
0.66992,0.35388,6.6992,-0.21918,-15.991,134.11,3.9155,-1.3052,-1.8307,5.2206,-1.1171e-12,-0.91535,0,0,0.1,-0,-0,0.66667
0.76944,0.22449,7.6944,-0.41327,-22.312,69.28,8.4795,-2.8265,-1.3923,11.306,9.0905e-12,-0.69614,0,0,0.1,-1.8948e-15,0,0.66667
0.54006,0.79796,5.4006,0.44694,42.043,245.81,-6.4367,2.1456,-1.2866,-8.5822,-1.7506e-12,-0.64331,0,0,0.1,-0,-0,0.66667
0.041638,0.089342,0.41638,-0.61599,-81.872,847.05,0.68396,-0.22798,-0.64936,0.91195,8.9555e-06,-0.32468,0,0,0.1,-2.9606e-17,0,0.66667
0.23508,0.4534,2.3508,-0.069903,-8.7649,592.06,0.43821,-0.14607,-1.9861,0.58428,-1.0888e-11,-0.99304,0,0,0.1,-0,-0,0.66667
0.02044,0.65854,0.2044,0.2378,31.569,875.52,-0.12962,0.043206,-1.7981,-0.17282,4.1284e-07,-0.89904,0,0,0.1,5.9212e-17,0,0.66667
0.32778,0.89207,3.2778,0.58811,69.858,477.53,-5.1405,1.7135,-0.77438,-6.8541,1.6862e-12,-0.38719,0,0,0.1,-4.737e-16,1.174e-16,0.66667
0.46806,0.51805,4.6806,0.02708,2.8039,317.92,-0.338,0.11267,-2.0009,-0.45067,-1.3549e-12,-1.0005,0,0,0.1,9.4739e-16,0,0.66667
0.78457,0.58986,7.8457,0.13479,6.8332,60.552,-2.82,0.94,-1.9358,-3.76,7.4949e-12,-0.96789,0,0,0.1,2.3685e-16,0,0.66667
0.53227,0.86651,5.3227,0.54976,52.386,253.55,-7.8033,2.6011,-0.92859,-10.404,-1.3767e-12,-0.46429,0,0,0.1,-0,-0,0.66667
0.47743,0.57581,4.7743,0.11372,11.642,308.12,-1.4478,0.4826,-1.9509,-1.9304,1.0445e-12,-0.97544,0,0,0.1,-0,-0,0.66667
0.69795,0.16356,6.9795,-0.50466,-34.348,114.47,9.3927,-3.1309,-1.0926,12.524,1.4175e-12,-0.5463,0,0,0.1,-0,-0,0.66667
0.017417,0.65799,0.17417,0.23698,31.464,879.59,-0.11007,0.03669,-1.8032,-0.14676,2.3109e-07,-0.90161,0,0,0.1,-0,-0,0.66667
0.69499,0.7636,6.9499,0.3954,27.089,116.23,-7.3279,2.4426,-1.4409,-9.7706,-2.3879e-12,-0.72044,0,0,0.1,9.4739e-16,0,0.66667
0.31196,0.66653,3.1196,0.24979,29.934,496.27,-2.078,0.69266,-1.7821,-2.7706,-2.9792e-12,-0.89106,0,0,0.1,9.4739e-16,0,0.66667
0.55979,0.62212,5.5979,0.18318,16.67,226.78,-2.7344,0.91147,-1.882,-3.6459,-3.8702e-13,-0.94101,0,0,0.1,2.3685e-16,0,0.66667
0.60681,0.15223,6.0681,-0.52166,-43.787,185.42,8.4413,-2.8138,-1.0338,11.255,-6.5459e-13,-0.51688,0,0,0.1,-8.2494e-16,0,0.66667
0.18214,0.49022,1.8214,-0.014664,-1.8817,660.3,0.071224,-0.023741,-1.997,0.094965,-3.0253e-10,-0.9985,0,0,0.1,-0,-0,0.66667
0.25027,0.47403,2.5027,-0.038954,-4.8459,572.78,0.25998,-0.086659,-1.9997,0.34663,-4.6722e-12,-0.99983,0,0,0.1,-0,-0,0.66667
0.57882,0.25958,5.7882,-0.36063,-31.813,209.62,5.5664,-1.8555,-1.5413,7.4219,-2.0823e-12,-0.77066,0,0,0.1,-0,-0,0.66667
0.26262,0.56729,2.6262,0.10093,12.472,557.23,-0.70685,0.23562,-1.9644,-0.94247,9.4202e-13,-0.9822,0,0,0.1,-0,-0,0.66667
0.23942,0.14642,2.3942,-0.53036,-66.507,586.84,3.3861,-1.1287,-0.99785,4.5148,-1.0281e-12,-0.49892,0,0,0.1,-0,-0,0.66667
0.35903,0.53876,3.5903,0.058144,6.7195,439.83,-0.55668,0.18556,-1.9926,-0.74224,-5.2961e-12,-0.9963,0,0,0.1,-0,-0,0.66667
0.90441,0.57822,9.0441,0.11734,2.7812,13.204,-2.8298,0.94328,-1.9525,-3.7731,2.0906e-08,-0.97626,0,0,0.1,-0,-0,0.66667
0.86921,0.8369,8.6921,0.50535,16.312,24.653,-11.713,3.9045,-1.0898,-15.618,9.595e-09,-0.5449,0,0,0.1,-9.4739e-16,0,0.66667
0.51404,0.81544,5.1404,0.47316,46.252,271.27,-6.4859,2.162,-1.207,-8.6478,-5.0959e-12,-0.6035,0,0,0.1,1.8948e-15,0,0.66667
0.051748,0.067147,0.51748,-0.64928,-86.244,833.48,0.89596,-0.29865,-0.49981,1.1946,-7.3536e-07,-0.24991,0,0,0.1,-0,-0,0.66667
0.80034,0.68407,8.0034,0.2761,13.094,52.715,-5.8927,1.9642,-1.7292,-7.857,-9.2335e-12,-0.86461,0,0,0.1,-4.737e-16,0,0.66667
0.18119,0.35672,1.8119,-0.21492,-27.601,661.58,1.0384,-0.34615,-1.8328,1.3846,1.1519e-10,-0.91642,0,0,0.1,-0,-0,0.66667
0.66874,0.1063,6.6874,-0.59055,-43.395,135.88,10.531,-3.5104,-0.75973,14.042,-9.2371e-13,-0.37986,0,0,0.1,-0,-4.2391e-17,0.66667
0.83537,0.12587,8.3537,-0.56119,-22.465,37.655,12.501,-4.1672,-0.8785,16.669,1.3607e-09,-0.43925,0,0,0.1,-0,-0,0.66667
0.9648,0.024871,9.648,-0.71269,-6.5323,4.3098,18.336,-6.112,-0.19334,24.448,-7.7369e-06,-0.096671,0,0,0.1,-0,-7.696e-17,0.66667
0.12685,0.044622,1.2685,-0.68307,-89.542,733.3,2.3105,-0.77017,-0.34255,3.0807,5.5944e-10,-0.17127,0,0,0.1,-0,-0,0.66667
0.52331,0.95731,5.2331,0.68596,66.349,262.68,-9.5725,3.1908,-0.32382,-12.763,-2.0224e-12,-0.16191,0,0,0.1,4.737e-16,0,0.66667
0.85061,0.63851,8.5061,0.20777,7.5469,30.554,-4.7129,1.571,-1.8434,-6.2838,1.7892e-09,-0.92169,0,0,0.1,-0,-0,0.66667
0.53761,0.51156,5.3761,0.017343,1.634,247.69,-0.24864,0.08288,-1.996,-0.33152,-6.1348e-12,-0.99802,0,0,0.1,-0,-0,0.66667
0.73005,0.98469,7.3005,0.72704,45.248,93.962,-14.154,4.718,-0.11892,-18.872,1.1413e-12,-0.059461,0,0,0.1,-8.6455e-16,0,0.66667
0.78546,0.66195,7.8546,0.24292,12.28,60.226,-5.0881,1.696,-1.7893,-6.7842,-2.9877e-11,-0.89466,0,0,0.1,-0,-0,0.66667
0.8366,0.44765,8.366,-0.078532,-3.0971,36,1.752,-0.58399,-1.9751,2.336,-4.5154e-10,-0.98753,0,0,0.1,-0,-0,0.66667
0.66653,0.9183,6.6653,0.62745,46.383,137.68,-11.152,3.7175,-0.59781,-14.87,-1.1546e-12,-0.29891,0,0,0.1,-0,-0,0.66667
0.89774,0.63682,8.9774,0.20523,5.1996,15.084,-4.9131,1.6377,-1.8471,-6.5508,2.782e-08,-0.92356,0,0,0.1,-0,-0,0.66667
0.64779,0.7446,6.4779,0.36689,28.228,151.36,-6.3379,2.1126,-1.5189,-8.4505,1.0392e-12,-0.75944,0,0,0.1,-4.737e-16,0,0.66667
0.94464,0.42481,9.4464,-0.11278,-1.5546,4.8489,2.8409,-0.94698,-1.9516,3.7879,6.2649e-08,-0.97581,0,0,0.1,9.4739e-16,0,0.66667
0.6293,0.61683,6.293,0.17524,14.016,165.92,-2.9408,0.98028,-1.8896,-3.9211,-5.5467e-13,-0.94478,0,0,0.1,-4.737e-16,0,0.66667
0.87243,0.7129,8.7243,0.31936,10.019,22.979,-7.4298,2.4766,-1.6384,-9.9063,8.7412e-09,-0.81921,0,0,0.1,-1.4211e-15,0,0.66667
0.59566,0.60651,5.9566,0.15977,13.655,194.41,-2.5378,0.84592,-1.9107,-3.3837,-3.3107e-13,-0.95534,0,0,0.1,-0,-0,0.66667
0.34435,0.44667,3.4435,-0.080001,-9.3559,457.2,0.73462,-0.24487,-1.9812,0.9795,2.883e-12,-0.9906,0,0,0.1,-0,-0,0.66667
0.81346,0.022646,8.1346,-0.71603,-32.259,48.009,15.532,-5.1774,-0.18039,20.71,4.7558e-10,-0.090197,0,0,0.1,-0,-0,0.66667
0.43238,0.44689,4.3238,-0.079663,-8.59,356.36,0.91853,-0.30618,-1.9754,1.2247,-3.7368e-12,-0.9877,0,0,0.1,-0,-0,0.66667
0.12655,0.58318,1.2655,0.12477,16.299,733.44,-0.42104,0.14035,-1.9468,-0.56138,-6.0483e-09,-0.97339,0,0,0.1,-1.1842e-16,0,0.66667
0.96857,0.34168,9.6857,-0.23748,-1.8346,1.9915,6.1338,-2.0446,-1.8052,8.1784,3.9287e-07,-0.90262,0,0,0.1,-9.4739e-16,0,0.66667
0.85256,0.45814,8.5256,-0.062792,-2.2504,29.663,1.4276,-0.47586,-1.983,1.9034,-1.5554e-09,-0.9915,0,0,0.1,-0,-0,0.66667
0.56126,0.38188,5.6126,-0.17719,-16.085,225.42,2.6519,-0.88397,-1.8914,3.5359,-1.0909e-12,-0.94569,0,0,0.1,-0,-0,0.66667
0.67061,0.97878,6.7061,0.71817,52.658,134.98,-12.843,4.281,-0.16882,-17.124,-4.4409e-14,-0.08441,0,0,0.1,-0,1.0324e-16,0.66667
0.99772,0.18062,9.9772,-0.47907,-0.12493,1.0569,12.746,-4.2487,-1.1853,16.995,-1.4093e-06,-0.59267,0,0,0.1,-9.4739e-16,-8.1302e-17,0.66667
0.16131,0.51522,1.6131,0.02283,2.9515,687.56,-0.098206,0.032735,-1.9959,-0.13094,-3.2243e-10,-0.99794,0,0,0.1,4.737e-16,0,0.66667
0.53454,0.58657,5.3454,0.12986,12.294,250.69,-1.8511,0.61703,-1.94,-2.4681,-1.8588e-12,-0.96999,0,0,0.1,-4.737e-16,0,0.66667
0.39098,0.9898,3.9098,0.73471,82.969,403.71,-7.6601,2.5534,-0.08508,-10.213,1.0103e-12,-0.04254,0,0,0.1,-0,-0,0.66667
0.54115,0.97415,5.4115,0.71122,67.018,245.51,-10.263,3.4211,-0.19951,-13.684,6.4553e-12,-0.099754,0,0,0.1,-1.8948e-15,0,0.66667
0.10338,0.37075,1.0338,-0.19387,-25.468,764.26,0.53445,-0.17815,-1.8644,0.7126,2.6712e-08,-0.93221,0,0,0.1,1.7764e-16,0,0.66667
0.44074,0.055551,4.4074,-0.66667,-71.541,348.08,7.8355,-2.6118,-0.41975,10.447,-4.6252e-12,-0.20988,0,0,0.1,-4.737e-16,0,0.66667
0.46146,0.5814,4.6146,0.1221,12.744,324.94,-1.5025,0.50083,-1.9438,-2.0033,-1.4627e-12,-0.97191,0,0,0.1,-5.4648e-16,0,0.66667
0.59589,0.23974,5.9589,-0.39039,-33.403,194.54,6.2035,-2.0678,-1.4593,8.2713,-2.0424e-12,-0.72966,0,0,0.1,4.737e-16,0,0.66667
0.66238,0.4353,6.6238,-0.097048,-7.2069,139.69,1.7142,-0.5714,-1.9649,2.2856,-1.443e-12,-0.98244,0,0,0.1,-1.1842e-16,0,0.66667
0.59015,0.89184,5.9015,0.58776,50.942,200.08,-9.2498,3.0833,-0.77078,-12.333,7.9492e-13,-0.38539,0,0,0.1,-0,-0,0.66667
0.72938,0.65646,7.2938,0.23469,14.521,92.849,-4.5647,1.5216,-1.8036,-6.0863,-5.8078e-12,-0.9018,0,0,0.1,-1.8948e-15,0,0.66667
0.5809,0.85343,5.809,0.53015,46.679,208.14,-8.2125,2.7375,-1.001,-10.95,1.5534e-12,-0.50051,0,0,0.1,-0,-0,0.66667
0.4431,0.15497,4.431,-0.51754,-55.299,345.17,6.1153,-2.0384,-1.0465,8.1537,-5.1643e-12,-0.52323,0,0,0.1,6.5592e-17,0,0.66667
0.49679,0.92105,4.9679,0.63158,63.32,289.01,-8.367,2.789,-0.58127,-11.156,2.3368e-12,-0.29063,0,0,0.1,-9.4739e-16,1.509e-16,0.66667
0.43009,0.22275,4.3009,-0.41587,-45.024,359.2,4.7696,-1.5899,-1.3828,6.3595,8.7574e-13,-0.69138,0,0,0.1,-9.4739e-16,0,0.66667
0.21007,0.5939,2.1007,0.14084,17.871,624.12,-0.789,0.263,-1.928,-1.052,-1.6816e-11,-0.96398,0,0,0.1,-0,-0,0.66667
0.2268,0.012168,2.268,-0.73175,-92.527,603.17,4.4256,-1.4752,-0.092965,5.9009,-8.9719e-12,-0.046483,0,0,0.1,-0,-0,0.66667
0.45739,0.63807,4.5739,0.2071,21.725,329.34,-2.526,0.842,-1.8459,-3.368,-1.5528e-12,-0.92297,0,0,0.1,-0,-0,0.66667
0.43355,0.32222,4.3355,-0.26667,-28.737,355.2,3.0831,-1.0277,-1.7461,4.1108,-1.3123e-13,-0.87306,0,0,0.1,9.4739e-16,0,0.66667
0.77928,0.45019,7.7928,-0.07471,-3.8689,63.321,1.5525,-0.51752,-1.9815,2.0701,1.839e-11,-0.99074,0,0,0.1,-0,-0,0.66667
0.42086,0.38199,4.2086,-0.17701,-19.323,369.14,1.9865,-0.66218,-1.892,2.6487,1.4411e-13,-0.946,0,0,0.1,-9.4739e-16,0,0.66667
0.67337,0.689,6.7337,0.28349,20.518,131.63,-5.0906,1.6969,-1.7177,-6.7874,1.7129e-12,-0.85884,0,0,0.1,-1.8948e-15,0,0.66667
0.16604,0.71684,1.6604,0.32526,42.018,681.43,-1.4401,0.48005,-1.6224,-1.9202,-6.7521e-10,-0.8112,0,0,0.1,-6.4239e-17,0,0.66667
0.82406,0.98348,8.2406,0.72522,31.005,43.272,-15.937,5.3122,-0.12858,-21.249,4.4711e-12,-0.064289,0,0,0.1,-0,-0,0.66667
0.68541,0.30098,6.8541,-0.29852,-20.958,122.85,5.4563,-1.8188,-1.6843,7.275,-8.6153e-14,-0.84217,0,0,0.1,-0,-0,0.66667
0.78905,0.74114,7.8905,0.36171,18.039,58.607,-7.6109,2.537,-1.5319,-10.148,-3.8703e-11,-0.76593,0,0,0.1,-0,-0,0.66667
0.35948,0.98533,3.5948,0.72799,84.497,440.14,-6.9787,2.3262,-0.12031,-9.3049,-2.8777e-13,-0.060153,0,0,0.1,-0,-0,0.66667
0.66255,0.62731,6.6255,0.19097,14.181,139.64,-3.374,1.1247,-1.8686,-4.4987,2.7438e-12,-0.9343,0,0,0.1,-1.8948e-15,0,0.66667
0.21709,0.49256,2.1709,-0.011164,-1.4119,615.07,0.064631,-0.021544,-2.0018,0.086175,-4.8468e-11,-1.0009,0,0,0.1,-0,-0,0.66667
0.22101,0.67497,2.2101,0.26245,33.15,610.11,-1.5468,0.51559,-1.756,-2.0623,3.2508e-11,-0.878,0,0,0.1,-0,-0,0.66667
0.24246,0.15272,2.4246,-0.52092,-65.215,582.97,3.368,-1.1227,-1.0329,4.4907,-3.4244e-11,-0.51647,0,0,0.1,-4.737e-16,0,0.66667
0.26459,0.13852,2.6459,-0.54222,-67.083,555.1,3.8257,-1.2752,-0.95754,5.101,-2.8106e-11,-0.47877,0,0,0.1,-0,-0,0.66667
0.40841,0.23231,4.0841,-0.40153,-44.44,383.29,4.373,-1.4577,-1.4278,5.8307,-1.6849e-12,-0.71388,0,0,0.1,-0,-0,0.66667
0.8287,0.83192,8.287,0.49789,20.633,40.232,-11.003,3.6675,-1.1224,-14.67,6.8447e-10,-0.56121,0,0,0.1,9.4739e-16,0,0.66667
0.94742,0.63041,9.4742,0.19561,2.5643,4.5277,-4.942,1.6473,-1.862,-6.5893,-3.7671e-08,-0.931,0,0,0.1,-0,-0,0.66667
0.63246,0.10229,6.3246,-0.59657,-47.598,164.26,10.062,-3.3538,-0.73167,13.415,-2.1849e-12,-0.36584,0,0,0.1,-0,-0,0.66667
0.13474,0.43952,1.3474,-0.090721,-11.824,722.59,0.32596,-0.10865,-1.9692,0.43462,5.354e-09,-0.98462,0,0,0.1,4.737e-16,0,0.66667
0.41999,0.4292,4.1999,-0.1062,-11.601,370.06,1.1894,-0.39646,-1.9617,1.5858,-4.9892e-12,-0.98084,0,0,0.1,-0,-0,0.66667
0.93619,0.74681,9.3619,0.37021,5.9356,6.7886,-9.2423,3.0808,-1.5161,-12.323,1.5336e-07,-0.75806,0,0,0.1,7.1054e-16,0,0.66667
0.32054,0.37835,3.2054,-0.18248,-21.73,485.81,1.5598,-0.51993,-1.8794,2.0797,-7.8733e-12,-0.93969,0,0,0.1,-0,-0,0.66667
0.61928,0.15504,6.1928,-0.51744,-42.375,174.87,8.5451,-2.8484,-1.0468,11.393,2.724e-12,-0.52339,0,0,0.1,-1.3619e-15,0,0.66667
0.93513,0.66733,9.3513,0.25099,4.0707,6.6697,-6.259,2.0863,-1.7768,-8.3453,7.5231e-08,-0.88841,0,0,0.1,-0,-0,0.66667
0.46068,0.94583,4.6068,0.66875,70.163,326.65,-8.2155,2.7385,-0.40697,-10.954,2.0659e-12,-0.20348,0,0,0.1,-0,-0,0.66667
0.5004,0.9102,5.004,0.61531,61.381,285.3,-8.2106,2.7369,-0.65885,-10.948,-1.438e-12,-0.32943,0,0,0.1,-0,-0,0.66667
0.91869,0.20322,9.1869,-0.44518,-9.0915,10.536,10.906,-3.6354,-1.2949,14.541,-6.043e-08,-0.64747,0,0,0.1,-0,-0,0.66667
0.92982,0.53804,9.2982,0.057065,0.99733,7.4203,-1.415,0.47165,-1.9857,-1.8866,-6.0459e-08,-0.99284,0,0,0.1,1.8948e-15,0,0.66667
0.90449,0.61406,9.0449,0.1711,4.0551,13.247,-4.1268,1.3756,-1.8977,-5.5024,2.8666e-08,-0.94883,0,0,0.1,9.4739e-16,0,0.66667
0.51363,0.47578,5.1363,-0.036323,-3.5442,271.16,0.49751,-0.16584,-1.9971,0.66335,-2.77e-12,-0.99853,0,0,0.1,-0,-0,0.66667
0.63981,0.044453,6.3981,-0.68332,-53.745,158.64,11.659,-3.8862,-0.3431,15.545,-1.7328e-12,-0.17155,0,0,0.1,9.4739e-16,0,0.66667
0.58901,0.51044,5.8901,0.015665,1.3549,200.19,-0.24605,0.082015,-1.9973,-0.32806,2.3103e-12,-0.99864,0,0,0.1,-0,-0,0.66667
0.15849,0.46472,1.5849,-0.052914,-6.8473,691.25,0.22364,-0.074548,-1.9918,0.29819,6.5179e-10,-0.99592,0,0,0.1,-0,-0,0.66667
0.62345,0.88361,6.2345,0.57541,46.763,171.58,-9.5664,3.1888,-0.82505,-12.755,-1.1653e-12,-0.41253,0,0,0.1,-0,-0,0.66667
0.31914,0.89431,3.1914,0.59146,70.699,487.95,-5.0336,1.6779,-0.75317,-6.7115,2.3563e-12,-0.37658,0,0,0.1,4.737e-16,0,0.66667
0.13074,0.89931,1.3074,0.59896,78.37,728.09,-2.0882,0.69605,-0.72224,-2.7842,-1.2899e-08,-0.36112,0,0,0.1,1.1842e-16,0,0.66667
0.215,0.12075,2.15,-0.56888,-72.204,618.07,3.2616,-1.0872,-0.84915,4.3489,2.1323e-10,-0.42458,0,0,0.1,-3.5527e-16,0,0.66667
0.31366,0.18441,3.1366,-0.47338,-56.742,494.43,3.9595,-1.3198,-1.207,5.2793,-4.6509e-12,-0.60348,0,0,0.1,-5.9212e-16,0,0.66667
0.95145,0.24594,9.5145,-0.38108,-4.6489,4.3936,9.6689,-3.223,-1.4863,12.892,-1.1004e-07,-0.74316,0,0,0.1,-9.4739e-16,0,0.66667
0.99077,0.53119,9.9077,0.046786,0.087471,0.2537,-1.2361,0.41203,-1.9909,-1.6481,-1.6362e-06,-0.99545,0,0,0.1,1.5987e-15,0,0.66667
0.86689,0.43779,8.6689,-0.093308,-3.0381,24.497,2.157,-0.719,-1.9674,2.876,-5.7636e-09,-0.98371,0,0,0.1,-3.7896e-15,0,0.66667
0.46186,0.90018,4.6186,0.60027,62.837,325.22,-7.3931,2.4644,-0.71633,-9.8574,2.8617e-12,-0.35816,0,0,0.1,-7.1054e-16,0,0.66667
0.46562,0.73428,4.6562,0.35141,36.537,320.76,-4.3633,1.4544,-1.5606,-5.8178,-3.1548e-12,-0.78028,0,0,0.1,-0,-0,0.66667
0.76473,0.7609,7.6473,0.39135,21.498,71.869,-7.9807,2.6602,-1.4587,-10.641,-2.9109e-11,-0.72935,0,0,0.1,1.8948e-15,0,0.66667
0.098408,0.80443,0.98408,0.45664,60.129,770.96,-1.1983,0.39944,-1.257,-1.5978,-4.1208e-08,-0.62851,0,0,0.1,-1.1842e-16,0,0.66667
0.99404,0.64014,9.9404,0.21021,0.22024,0.32704,-5.5721,1.8574,-1.8401,-7.4294,4.7685e-07,-0.92003,0,0,0.1,-1.8948e-15,0,0.66667
0.69221,0.81168,6.9221,0.46752,32.3,118.38,-8.6299,2.8766,-1.2224,-11.507,1.8794e-12,-0.61119,0,0,0.1,-2.9606e-16,0,0.66667
0.29929,0.62281,2.9929,0.18422,22.261,511.73,-1.4702,0.49007,-1.8812,-1.9603,-2.4325e-13,-0.94061,0,0,0.1,5.9212e-16,0,0.66667
0.90885,0.68066,9.0885,0.27099,6.1493,12.329,-6.5677,2.1892,-1.7398,-8.757,4.2797e-08,-0.86989,0,0,0.1,4.737e-16,0,0.66667
0.55258,0.61331,5.5258,0.16997,15.649,233.52,-2.5046,0.83486,-1.8947,-3.3394,-1.8747e-12,-0.94735,0,0,0.1,9.4739e-16,0,0.66667
0.08519,0.40236,0.8519,-0.14646,-19.304,788.54,0.33271,-0.1109,-1.9215,0.44361,4.1817e-08,-0.96075,0,0,0.1,-1.7764e-16,0,0.66667
0.10825,0.20183,1.0825,-0.44725,-58.767,757.85,1.291,-0.43034,-1.2915,1.7214,2.8365e-08,-0.64573,0,0,0.1,-0,-0,0.66667
0.031665,0.03733,0.31665,-0.694,-92.383,860.47,0.58602,-0.19535,-0.29219,0.78135,-1.9139e-05,-0.1461,0,0,0.1,-0,-0,0.66667
0.21619,0.15132,2.1619,-0.52302,-66.32,616.49,3.0153,-1.0051,-1.0286,4.0204,-1.0706e-10,-0.51428,0,0,0.1,2.4644e-16,0,0.66667
0.051414,0.59795,0.51414,0.14693,19.457,833.84,-0.20145,0.067149,-1.9223,-0.2686,2.706e-08,-0.96115,0,0,0.1,-0,-0,0.66667
0.51027,0.037254,5.1027,-0.69412,-68.393,275.61,9.4451,-3.1484,-0.2851,12.593,4.186e-12,-0.14255,0,0,0.1,-0,-0,0.66667
0.08294,0.12949,0.8294,-0.55576,-73.446,791.66,1.2292,-0.40973,-0.90057,1.6389,5.1284e-08,-0.45029,0,0,0.1,-2.3685e-16,0,0.66667
0.44312,0.93707,4.4312,0.6556,70.159,345.47,-7.747,2.5823,-0.47075,-10.329,-8.2201e-13,-0.23537,0,0,0.1,1.0658e-15,0,0.66667
0.2362,0.86588,2.362,0.54883,68.945,590.95,-3.4569,1.1523,-0.93083,-4.6092,4.4686e-11,-0.46541,0,0,0.1,-0,-0,0.66667
0.55972,0.38976,5.5972,-0.16536,-15.049,226.83,2.4682,-0.82272,-1.9029,3.2909,-2.0057e-12,-0.95144,0,0,0.1,9.4739e-16,0,0.66667
0.43897,0.0036207,4.3897,-0.74457,-80.14,350.22,8.7158,-2.9053,-0.031954,11.621,-2.6175e-12,-0.015977,0,0,0.1,-0,-0,0.66667
0.83754,0.77516,8.3754,0.41273,16.26,36.221,-9.2182,3.0727,-1.392,-12.291,7.6476e-10,-0.696,0,0,0.1,-1.4211e-15,0,0.66667
0.33654,0.45015,3.3654,-0.074772,-8.7973,466.51,0.67105,-0.22368,-1.9769,0.89473,8.9539e-14,-0.98847,0,0,0.1,-0,-0,0.66667
0.23023,0.54214,2.3023,0.063215,7.9452,598.25,-0.38811,0.12937,-1.9845,-0.51748,1.6391e-11,-0.99223,0,0,0.1,-4.737e-16,0,0.66667
0.94012,0.40432,9.4012,-0.14353,-2.1427,5.6204,3.5982,-1.1994,-1.9284,4.7976,-4.2761e-08,-0.96419,0,0,0.1,2.8422e-15,0,0.66667
0.46636,0.43249,4.6636,-0.10127,-10.508,319.73,1.2594,-0.4198,-1.965,1.6792,-1.1878e-12,-0.98248,0,0,0.1,-2.3685e-16,0,0.66667
0.028158,0.27018,0.28158,-0.34473,-45.769,865.14,0.25885,-0.086285,-1.5773,0.34514,-1.0747e-06,-0.78864,0,0,0.1,2.9606e-17,0,0.66667
0.079436,0.52244,0.79436,0.03366,4.4401,796.24,-0.071302,0.023767,-1.9986,-0.09507,-2.6987e-09,-0.99932,0,0,0.1,-0,-0,0.66667
0.55557,0.05728,5.5557,-0.66408,-61.13,231.73,9.8385,-3.2795,-0.42957,13.118,-2.3919e-12,-0.21479,0,0,0.1,1.1842e-15,0,0.66667
0.21077,0.24305,2.1077,-0.38543,-48.942,623.34,2.1663,-0.72212,-1.469,2.8885,-5.5826e-11,-0.73452,0,0,0.1,-3.5527e-16,0,0.66667
0.14824,0.15645,1.4824,-0.51533,-67.042,704.93,2.0371,-0.67902,-1.0542,2.7161,-3.116e-09,-0.52708,0,0,0.1,-0,-0,0.66667
0.19553,0.38159,1.9553,-0.17762,-22.679,642.93,0.92614,-0.30871,-1.8851,1.2349,2.1746e-11,-0.94256,0,0,0.1,-0,-0,0.66667
0.74475,0.91589,7.4475,0.62384,36.931,84.384,-12.389,4.1298,-0.61411,-16.519,1.1782e-11,-0.30706,0,0,0.1,-0,-0,0.66667
0.94901,0.069248,9.4901,-0.64613,-8.4638,5.8904,16.352,-5.4505,-0.51471,21.802,-1.8224e-08,-0.25735,0,0,0.1,-0,-7.2801e-17,0.66667
0.12938,0.50742,1.2938,0.01113,1.4526,729.68,-0.038398,0.012799,-1.9983,-0.051197,-1.4204e-09,-0.99916,0,0,0.1,4.737e-16,0,0.66667
0.87978,0.84159,8.7978,0.51239,15.28,21.228,-12.021,4.007,-1.0657,-16.028,-1.2277e-08,-0.53287,0,0,0.1,2.3685e-16,0,0.66667
0.71192,0.8544,7.1192,0.5316,34.802,105,-10.092,3.3641,-0.99221,-13.456,-2.7587e-12,-0.49611,0,0,0.1,-0,-0,0.66667
0.55684,0.51423,5.5684,0.021348,1.9513,229.45,-0.31699,0.10566,-1.9957,-0.42266,1.0788e-12,-0.99787,0,0,0.1,-0,-0,0.66667
0.067019,0.071265,0.67019,-0.6431,-85.263,813,1.1493,-0.38311,-0.52798,1.5324,-1.2245e-07,-0.26399,0,0,0.1,1.1842e-16,0,0.66667
0.78774,0.15648,7.8774,-0.51528,-25.912,59.758,10.824,-3.6081,-1.0545,14.432,1.949e-10,-0.52727,0,0,0.1,-1.8948e-15,0,0.66667
0.81228,0.093668,8.1228,-0.6095,-27.526,48.045,13.202,-4.4007,-0.68525,17.603,3.3126e-09,-0.34263,0,0,0.1,-9.2507e-16,0,0.66667
0.75458,0.67652,7.5458,0.26479,15.067,77.449,-5.3281,1.776,-1.749,-7.1041,-1.9077e-11,-0.87449,0,0,0.1,-0,-0,0.66667
0.55049,0.64035,5.5049,0.21052,19.45,235.52,-3.0904,1.0301,-1.8415,-4.1205,-3.4732e-12,-0.92075,0,0,0.1,9.4739e-16,0,0.66667
0.6316,0.10491,6.316,-0.59263,-47.366,164.94,9.9816,-3.3272,-0.7483,13.309,-1.4619e-12,-0.37415,0,0,0.1,-0,-0,0.66667
0.43666,0.89167,4.3666,0.58751,63.266,352.33,-6.8412,2.2804,-0.77594,-9.1216,9.9343e-13,-0.38797,0,0,0.1,-0,1.1789e-16,0.66667
0.30785,0.48799,3.0785,-0.018015,-2.1639,501.2,0.14789,-0.049298,-1.997,0.19719,-1.0144e-11,-0.99849,0,0,0.1,4.737e-16,0,0.66667
0.20771,0.44408,2.0771,-0.083885,-10.654,627.15,0.46463,-0.15488,-1.9737,0.61951,-1.6324e-11,-0.98683,0,0,0.1,-0,-0,0.66667
0.77076,0.66046,7.7076,0.24068,12.901,68.159,-4.9469,1.649,-1.7926,-6.5959,-3.3834e-11,-0.89631,0,0,0.1,-1.8948e-15,0,0.66667
0.93478,0.97998,9.3478,0.71997,12.081,8.6265,-17.947,5.9823,-0.15725,-23.929,-1.2938e-06,-0.078623,0,0,0.1,-0,-1.0906e-16,0.66667
0.62152,0.31795,6.2152,-0.27308,-22.208,172.47,4.526,-1.5087,-1.7348,6.0346,-1.716e-12,-0.8674,0,0,0.1,1.8948e-15,0,0.66667
0.53425,0.80619,5.3425,0.45928,43.592,251.43,-6.5432,2.1811,-1.2504,-8.7243,4.3077e-13,-0.6252,0,0,0.1,-4.737e-16,0,0.66667
0.88327,0.24692,8.8327,-0.37962,-10.962,19.68,8.9415,-2.9805,-1.4855,11.922,-1.2406e-08,-0.74273,0,0,0.1,1.4457e-15,0,0.66667
0.044803,0.12335,0.44803,-0.56497,-75.036,842.79,0.67499,-0.225,-0.86758,0.89999,2.917e-06,-0.43379,0,0,0.1,2.2204e-17,-1.2992e-16,0.66667
0.30268,0.98015,3.0268,0.72022,87.199,508.22,-5.8132,1.9377,-0.15304,-7.7509,1.4242e-12,-0.07652,0,0,0.1,4.737e-16,0,0.66667
0.38247,0.83569,3.8247,0.50353,57.155,412.97,-5.1356,1.7119,-1.0956,-6.8475,-3.2476e-12,-0.54782,0,0,0.1,-2.3685e-16,0,0.66667
0.031099,0.038127,0.31099,-0.69281,-92.226,861.23,0.57457,-0.19154,-0.29851,0.76608,-2.467e-05,-0.14926,0,0,0.1,-5.9212e-17,8.1305e-17,0.66667
0.51993,0.45172,5.1993,-0.072419,-7.0037,264.93,1.0041,-0.33469,-1.9797,1.3388,-5.6644e-12,-0.98986,0,0,0.1,9.4739e-16,0,0.66667
0.94058,0.87963,9.4058,0.56945,8.6148,6.8122,-14.283,4.761,-0.8476,-19.044,-4.9653e-07,-0.4238,0,0,0.1,3.7896e-15,0,0.66667
0.79725,0.31631,7.9725,-0.27554,-13.249,54.249,5.8579,-1.9526,-1.7351,7.8106,2.1178e-11,-0.86757,0,0,0.1,-0,-0,0.66667
0.53509,0.91167,5.3509,0.6175,58.643,251.02,-8.8112,2.9371,-0.64379,-11.748,-1.6014e-12,-0.3219,0,0,0.1,-0,-0,0.66667
0.67654,0.87204,6.7654,0.55806,40.205,129.98,-10.068,3.356,-0.89186,-13.424,-1.8741e-13,-0.44593,0,0,0.1,-1.1842e-15,0,0.66667
0.78523,0.42885,7.8523,-0.10673,-5.3951,60.178,2.2349,-0.74496,-1.9585,2.9799,4.7984e-11,-0.97925,0,0,0.1,-0,-0,0.66667
0.26109,0.27632,2.6109,-0.33552,-41.53,559.27,2.336,-0.77868,-1.5987,3.1147,-1.1623e-11,-0.79935,0,0,0.1,-1.1842e-16,0,0.66667
0.27566,0.85734,2.7566,0.53601,65.884,541.26,-3.9402,1.3134,-0.97589,-5.2536,-7.5226e-12,-0.48795,0,0,0.1,-0,-0,0.66667
0.60522,0.35685,6.0522,-0.21473,-18.028,186.17,3.4655,-1.1552,-1.8346,4.6207,-1.3545e-12,-0.91731,0,0,0.1,-0,-0,0.66667
0.67418,0.58495,6.7418,0.12743,9.196,130.84,-2.291,0.76367,-1.9433,-3.0547,1.0161e-12,-0.97167,0,0,0.1,-9.4739e-16,0,0.66667
0.0036135,0.87296,0.036135,0.55944,74.446,898.19,-0.053903,0.017968,-0.88759,-0.071871,4.4959e-07,-0.44379,0,0,0.1,1.8504e-18,-5.7856e-17,0.66667
0.8557,0.026302,8.557,-0.71055,-25.326,30.392,16.214,-5.4046,-0.20468,21.618,-7.3653e-09,-0.10234,0,0,0.1,-9.4739e-16,0,0.66667
0.14491,0.82087,1.4491,0.48131,62.662,709.29,-1.8599,0.61998,-1.1751,-2.4799,-1.4848e-09,-0.58753,0,0,0.1,-0,-0,0.66667
0.51235,0.27029,5.1235,-0.34457,-33.724,272.71,4.7077,-1.5692,-1.5775,6.277,-8.8152e-13,-0.78874,0,0,0.1,-4.737e-16,0,0.66667
0.56218,0.13851,5.6218,-0.54223,-49.297,225.22,8.1289,-2.7096,-0.95884,10.839,-7.4163e-13,-0.47942,0,0,0.1,-9.4739e-16,1.3839e-16,0.66667
0.0071911,0.63552,0.071911,0.20328,26.993,893.37,-0.038983,0.012994,-1.85,-0.051977,-4.0289e-07,-0.92501,0,0,0.1,-0,-0,0.66667
0.42885,0.29313,4.2885,-0.31031,-33.615,360.42,3.5487,-1.1829,-1.6545,4.7316,-8.038e-14,-0.82727,0,0,0.1,-0,-0,0.66667
0.53374,0.97323,5.3374,0.70985,67.64,252.61,-10.103,3.3678,-0.20977,-13.471,2.9772e-12,-0.10488,0,0,0.1,-0,-0,0.66667
0.69071,0.66443,6.9071,0.24665,17.069,118.97,-4.543,1.5143,-1.7836,-6.0573,-7.212e-13,-0.89181,0,0,0.1,-1.8948e-15,0,0.66667
0.90317,0.71305,9.0317,0.31957,7.6994,13.879,-7.6968,2.5656,-1.6373,-10.262,4.1312e-08,-0.81864,0,0,0.1,-1.4211e-15,0,0.66667
0.068561,0.3189,0.68561,-0.27165,-35.912,810.83,0.49665,-0.16555,-1.7354,0.6622,9.9289e-08,-0.86768,0,0,0.1,-0,-0,0.66667
0.2831,0.42108,2.831,-0.11838,-14.452,531.68,0.8937,-0.2979,-1.9516,1.1916,-5.1466e-12,-0.97582,0,0,0.1,-4.737e-16,0,0.66667
0.52793,0.72903,5.2793,0.34355,32.881,257.34,-4.8366,1.6122,-1.58,-6.4487,1.0898e-12,-0.78998,0,0,0.1,-9.4739e-16,0,0.66667
0.29023,0.95158,2.9023,0.67737,82.635,523.42,-5.2426,1.7475,-0.36553,-6.9901,-1.1791e-12,-0.18277,0,0,0.1,-0,-0,0.66667
0.42013,0.45016,4.2013,-0.074766,-8.166,369.9,0.83764,-0.27921,-1.9818,1.1169,-1.4288e-12,-0.99091,0,0,0.1,-0,-0,0.66667
0.98205,0.077172,9.8205,-0.63424,-2.9027,2.437,16.61,-5.5365,-0.57044,22.146,2.1851e-06,-0.28522,0,0,0.1,-1.8948e-15,0,0.66667
0.056933,0.4301,0.56933,-0.10486,-13.876,826.42,0.1592,-0.053065,-1.9588,0.21226,-8.4123e-08,-0.97939,0,0,0.1,-0,-0,0.66667
0.92891,0.067207,9.2891,-0.64919,-11.774,9.3251,16.081,-5.3604,-0.49915,21.441,-3.4993e-07,-0.24958,0,0,0.1,-1.8948e-15,0,0.66667
0.66798,0.90439,6.6798,0.60659,44.668,136.51,-10.805,3.6017,-0.69182,-14.407,2.0606e-13,-0.34591,0,0,0.1,-3.5527e-16,0,0.66667
0.49858,0.99958,4.9858,0.74937,75.077,287.55,-9.9632,3.3211,-0.0071644,-13.284,-2.534e-12,-0.0035822,0,0,0.1,-8.8818e-17,-6.3195e-18,0.66667
0.4647,0.30432,4.647,-0.29352,-30.54,321.65,3.6373,-1.2124,-1.6927,4.8497,-3.7024e-12,-0.84633,0,0,0.1,4.737e-16,0,0.66667
0.55893,0.45056,5.5893,-0.074165,-6.7566,227.51,1.1054,-0.36848,-1.9796,1.4739,-7.8815e-13,-0.98981,0,0,0.1,-0,-0,0.66667
0.29159,0.22546,2.9159,-0.41181,-50.072,521.38,3.2021,-1.0674,-1.3951,4.2695,1.1786e-12,-0.69757,0,0,0.1,-0,-0,0.66667
0.1718,0.26951,1.718,-0.34574,-44.579,673.9,1.584,-0.52798,-1.5798,2.1119,3.3524e-10,-0.7899,0,0,0.1,-0,-0,0.66667
0.61974,0.038283,6.1974,-0.69258,-56.817,175.07,11.446,-3.8153,-0.29264,15.261,-1.3491e-12,-0.14632,0,0,0.1,1.8948e-15,0,0.66667
0.98848,0.44304,9.8848,-0.085442,-0.21183,0.37157,2.2522,-0.75073,-1.9733,3.0029,-2.2325e-07,-0.98665,0,0,0.1,-0,-0,0.66667
0.51622,0.018567,5.1622,-0.72215,-70.597,269.78,9.941,-3.3137,-0.1495,13.255,2.2098e-12,-0.074752,0,0,0.1,-0,-0,0.66667
0.67101,0.84887,6.7101,0.5233,38.201,133.97,-9.3637,3.1212,-1.0302,-12.485,3.0829e-12,-0.51512,0,0,0.1,-1.8948e-15,-1.4769e-16,0.66667
0.51953,0.52528,5.1953,0.03792,3.6692,265.31,-0.52535,0.17512,-1.9943,-0.70046,-7.1831e-14,-0.99715,0,0,0.1,-9.4739e-16,0,0.66667
0.20003,0.51937,2.0003,0.029061,3.7028,637.07,-0.15501,0.051671,-1.9968,-0.20668,-2.5433e-12,-0.99839,0,0,0.1,-0,-0,0.66667
0.5787,0.99398,5.787,0.74097,65.7,210.81,-11.435,3.8115,-0.052204,-15.246,1.7319e-13,-0.026102,0,0,0.1,-1.4211e-15,0,0.66667
0.95788,0.89281,9.5788,0.58922,6.3472,4.4069,-15.051,5.0169,-0.7636,-20.067,6.14e-06,-0.3818,0,0,0.1,-0,-0,0.66667
0.69242,0.21137,6.9242,-0.43295,-29.881,118.14,7.9942,-2.6647,-1.3318,10.659,-4.0279e-13,-0.66592,0,0,0.1,4.737e-16,0,0.66667
0.027337,0.20901,0.27337,-0.43649,-57.986,866.25,0.31819,-0.10607,-1.3216,0.42425,-2.2421e-06,-0.66079,0,0,0.1,-0,-0,0.66667
0.36312,0.53918,3.6312,0.058775,6.7693,435.04,-0.56913,0.18971,-1.9871,-0.75884,-1.1004e-11,-0.99353,0,0,0.1,9.4739e-16,0,0.66667
0.63389,0.62693,6.3389,0.19039,15.082,162.2,-3.2183,1.0728,-1.8693,-4.2911,-1.6018e-12,-0.93465,0,0,0.1,-0,-0,0.66667
0.56707,0.87729,5.6707,0.56594,51.051,220.78,-8.5581,2.8527,-0.86055,-11.411,3.161e-12,-0.43028,0,0,0.1,-1.8948e-15,0,0.66667
0.12133,0.2166,1.2133,-0.4251,-55.678,740.45,1.3754,-0.45848,-1.3577,1.8339,4.4408e-09,-0.67887,0,0,0.1,2.6645e-16,0,0.66667
0.93647,0.038718,9.3647,-0.69192,-11.289,8.1595,17.279,-5.7597,-0.30108,23.039,4.2852e-06,-0.15054,0,0,0.1,-0,-8.615e-17,0.66667
0.39384,0.036604,3.9384,-0.69509,-78.247,400.35,7.3001,-2.4334,-0.28239,9.7335,-3.3782e-12,-0.14119,0,0,0.1,-0,-0,0.66667
0.72926,0.50845,7.2926,0.01267,0.78348,92.748,-0.24638,0.082128,-1.9975,-0.32851,-3.0158e-12,-0.99874,0,0,0.1,-0,-0,0.66667
0.78569,0.071463,7.8569,-0.64281,-32.7,61.344,13.468,-4.4893,-0.5294,17.957,-4.4898e-10,-0.2647,0,0,0.1,-0,-0,0.66667
0.21299,0.19504,2.1299,-0.45744,-58.057,620.54,2.5982,-0.86606,-1.2537,3.4642,6.1032e-11,-0.62687,0,0,0.1,-0,-0,0.66667
0.66262,0.018374,6.6262,-0.72244,-54.001,141.01,12.765,-4.2552,-0.14133,17.021,-6.6613e-14,-0.070667,0,0,0.1,-0,-0,0.66667
0.52337,0.35384,5.2337,-0.21923,-21.107,261.64,3.0597,-1.0199,-1.826,4.0796,-3.8918e-12,-0.91302,0,0,0.1,9.4739e-16,0,0.66667
0.1783,0.75623,1.783,0.38435,49.452,665.44,-1.8274,0.60915,-1.4723,-2.4366,-1.8276e-10,-0.73617,0,0,0.1,-0,-0,0.66667
0.71844,0.8444,7.1844,0.5166,33.169,100.62,-9.8973,3.2991,-1.0569,-13.196,-1.2741e-11,-0.52844,0,0,0.1,1.8948e-15,1.2322e-16,0.66667
0.54058,0.53153,5.4058,0.047298,4.436,244.84,-0.68182,0.22727,-1.9907,-0.90909,1.1022e-12,-0.99536,0,0,0.1,-1.8948e-15,0,0.66667
0.21409,0.65289,2.1409,0.22933,29.055,618.98,-1.3093,0.43643,-1.8121,-1.7457,2.3004e-11,-0.90605,0,0,0.1,5.9212e-17,0,0.66667
0.41806,0.52392,4.1806,0.035881,3.9271,372.19,-0.40001,0.13334,-1.9948,-0.53335,-3.3807e-12,-0.99738,0,0,0.1,4.737e-16,0,0.66667
0.68076,0.60811,6.8076,0.16216,11.511,126.03,-2.9438,0.98128,-1.9034,-3.9251,-1.3478e-12,-0.95169,0,0,0.1,9.4739e-16,0,0.66667
0.99376,0.70561,9.9376,0.30842,0.36197,0.56032,-8.1731,2.7244,-1.6589,-10.897,8.5891e-07,-0.82944,0,0,0.1,-0,-0,0.66667
0.54844,0.24087,5.4844,-0.38869,-36.071,237.72,5.6846,-1.8949,-1.4651,7.5794,-2.228e-12,-0.73253,0,0,0.1,4.737e-16,0,0.66667
0.79392,0.92846,7.9392,0.64269,31.58,57.112,-13.606,4.5355,-0.53156,-18.142,-9.6252e-11,-0.26578,0,0,0.1,-9.4739e-16,-1.0732e-16,0.66667
0.33058,0.39259,3.3058,-0.16111,-19.045,473.7,1.4203,-0.47343,-1.9083,1.8937,-4.4873e-12,-0.95414,0,0,0.1,4.737e-16,0,0.66667
0.51156,0.74819,5.1156,0.37228,36.484,273.54,-5.0786,1.6929,-1.5071,-6.7714,-5.4636e-12,-0.75357,0,0,0.1,-3.5527e-16,0,0.66667
0.83503,0.060414,8.3503,-0.65938,-26.528,38.244,14.683,-4.8942,-0.45223,19.577,2.0795e-08,-0.22611,0,0,0.1,-7.0017e-16,0,0.66667
0.97046,0.96762,9.7046,0.70143,5.3928,3.6927,-18.152,6.0507,-0.25385,-24.203,-4.4898e-05,-0.12692,0,0,0.1,8.2897e-16,0,0.66667
0.17847,0.99939,1.7847,0.74909,96.696,665.54,-3.5651,1.1884,-0.0033555,-4.7535,6.8451e-10,-0.0016778,0,0,0.1,-2.8126e-16,0,0.66667
0.85131,0.80829,8.5131,0.46244,16.806,30.934,-10.498,3.4994,-1.2373,-13.998,1.9393e-09,-0.61864,0,0,0.1,9.7777e-16,0,0.66667
0.9884,0.29136,9.884,-0.31297,-0.81195,0.77337,8.2489,-2.7496,-1.6506,10.999,-2.3539e-07,-0.82529,0,0,0.1,-0,-0,0.66667
0.45046,0.0052165,4.5046,-0.74218,-78.868,337.79,8.9152,-2.9717,-0.042526,11.887,-4.7358e-12,-0.021263,0,0,0.1,-0,-0,0.66667
0.30796,0.75736,3.0796,0.38604,46.425,501.26,-3.1703,1.0568,-1.4688,-4.227,3.8836e-13,-0.73438,0,0,0.1,-0,-0,0.66667
0.91246,0.27683,9.1246,-0.33475,-7.316,11.614,8.1452,-2.7151,-1.5995,10.86,-4.6189e-08,-0.79976,0,0,0.1,-0,-0,0.66667
0.21986,0.012547,2.1986,-0.73118,-92.757,612.04,4.2868,-1.4289,-0.10189,5.7157,4.8018e-11,-0.050947,0,0,0.1,-0,-0,0.66667
0.98826,0.78533,9.8826,0.42799,1.1632,1.1537,-11.279,3.7597,-1.3484,-15.039,6.8471e-07,-0.67421,0,0,0.1,-0,-0,0.66667
0.40154,0.51792,4.0154,0.026887,2.9913,390.75,-0.2879,0.095968,-1.9955,-0.38387,-5.6535e-12,-0.99773,0,0,0.1,-0,-0,0.66667
0.092234,0.92904,0.92234,0.64356,84.979,779.29,-1.5829,0.52763,-0.52976,-2.1105,-2.8324e-07,-0.26488,0,0,0.1,5.9212e-17,-9.3524e-17,0.66667
0.13677,0.28011,1.3677,-0.32983,-42.999,719.95,1.203,-0.401,-1.6135,1.604,5.101e-09,-0.80674,0,0,0.1,-3.4047e-16,0,0.66667
0.47707,0.18478,4.7707,-0.47283,-48.529,308.93,6.0154,-2.0051,-1.203,8.0205,-6.1862e-12,-0.6015,0,0,0.1,9.4739e-16,0,0.66667
0.060948,0.26878,0.60948,-0.34683,-45.913,821.06,0.56369,-0.1879,-1.5743,0.75158,1.0995e-07,-0.78716,0,0,0.1,-0,-0,0.66667
0.25189,0.04275,2.5189,-0.68588,-85.582,571.27,4.607,-1.5357,-0.3289,6.1426,1.4005e-11,-0.16445,0,0,0.1,-4.737e-16,0,0.66667
0.795,0.45099,7.95,-0.073516,-3.5644,55.126,1.5585,-0.51951,-1.9822,2.078,-4.6483e-12,-0.99112,0,0,0.1,-0,-0,0.66667
0.78533,0.226,7.8533,-0.411,-20.834,60.677,8.6072,-2.8691,-1.3985,11.476,7.0474e-11,-0.69923,0,0,0.1,-0,-0,0.66667
0.81082,0.44991,8.1082,-0.075141,-3.3887,47.41,1.6247,-0.54156,-1.9817,2.1662,5.9993e-12,-0.99086,0,0,0.1,-0,-0,0.66667
0.046263,0.14681,0.46263,-0.52978,-70.331,840.82,0.65357,-0.21786,-1.006,0.87143,1.4704e-06,-0.50299,0,0,0.1,-5.9212e-17,1.5755e-16,0.66667
0.76645,0.18365,7.6645,-0.47452,-25.936,71.142,9.6986,-3.2329,-1.2036,12.931,6.3548e-11,-0.6018,0,0,0.1,1.1842e-15,0,0.66667
0.80685,0.25212,8.0685,-0.37181,-17.138,49.774,7.9999,-2.6666,-1.5071,10.667,1.6008e-11,-0.75354,0,0,0.1,1.8948e-15,0,0.66667
0.01605,0.0094212,0.1605,-0.73587,-98.074,881.47,0.31482,-0.10496,-0.079037,0.41975,-3.0193e-05,-0.039518,0,0,0.1,-5.9212e-17,0,0.66667
0.39133,0.044415,3.9133,-0.68338,-77.096,403.19,7.1313,-2.3771,-0.34303,9.5084,-3.0544e-12,-0.17152,0,0,0.1,-0,-0,0.66667
0.86558,0.98975,8.6558,0.73463,24.546,26.994,-16.957,5.6523,-0.078393,-22.609,2.7678e-08,-0.039197,0,0,0.1,-0,-0,0.66667
0.95847,0.019304,9.5847,-0.72104,-7.7868,5.0702,18.429,-6.1431,-0.14909,24.573,-1.7006e-05,-0.074545,0,0,0.1,-0,-0,0.66667
0.91959,0.75894,9.1959,0.38841,7.8276,10.145,-9.5247,3.1749,-1.4647,-12.7,7.9887e-08,-0.73236,0,0,0.1,1.8948e-15,0,0.66667
0.54699,0.71422,5.4699,0.32134,29.873,238.98,-4.6871,1.5624,-1.6383,-6.2495,-1.5246e-12,-0.81917,0,0,0.1,-2.3685e-16,0,0.66667
0.30992,0.40668,3.0992,-0.13998,-16.793,498.69,1.1569,-0.38563,-1.9323,1.5425,-5.886e-12,-0.96616,0,0,0.1,-0,-0,0.66667
0.58926,0.18277,5.8926,-0.47585,-41.25,200.55,7.4774,-2.4925,-1.1939,9.9699,-8.4421e-13,-0.59696,0,0,0.1,4.737e-16,0,0.66667
0.59599,0.35697,5.9599,-0.21455,-18.33,194.17,3.4098,-1.1366,-1.8372,4.5465,-7.6428e-13,-0.91862,0,0,0.1,-9.4739e-16,0,0.66667
0.66455,0.17444,6.6455,-0.48834,-36.192,138.71,8.654,-2.8847,-1.1489,11.539,-8.7397e-13,-0.57445,0,0,0.1,1.604e-16,0,0.66667
0.59082,0.61068,5.9082,0.16602,14.317,198.66,-2.6157,0.87188,-1.9019,-3.4875,1.4455e-12,-0.95095,0,0,0.1,-9.4739e-16,0,0.66667
0.86806,0.053434,8.6806,-0.66985,-21.935,25.792,15.506,-5.1686,-0.40175,20.674,3.8992e-08,-0.20088,0,0,0.1,9.4739e-16,0,0.66667
0.37398,0.44872,3.7398,-0.076926,-8.7779,422.38,0.76716,-0.25572,-1.982,1.0229,-2.481e-12,-0.99098,0,0,0.1,-0,-0,0.66667
0.24402,0.73298,2.4402,0.34947,43.662,580.83,-2.274,0.75802,-1.5629,-3.0321,1.7969e-11,-0.78147,0,0,0.1,-0,-0,0.66667
0.020487,0.25432,0.20487,-0.36852,-48.953,875.47,0.20133,-0.06711,-1.5159,0.26844,-1.2609e-06,-0.75795,0,0,0.1,-0,-0,0.66667
0.23269,0.16672,2.3269,-0.49991,-62.884,595.37,3.102,-1.034,-1.1133,4.136,-5.469e-12,-0.55666,0,0,0.1,-0,-0,0.66667
0.1616,0.25634,1.616,-0.36549,-47.297,687.27,1.5751,-0.52502,-1.5232,2.1001,8.1302e-10,-0.76158,0,0,0.1,-0,-0,0.66667
0.23816,0.78434,2.3816,0.42651,53.474,588.33,-2.7087,0.90291,-1.3532,-3.6116,2.6932e-11,-0.6766,0,0,0.1,-0,-0,0.66667
0.88096,0.085815,8.8096,-0.62128,-18.434,21.341,14.595,-4.8651,-0.62519,19.46,-6.0296e-08,-0.3126,0,0,0.1,9.4739e-16,0,0.66667
0.7316,0.53757,7.316,0.05635,3.4592,91.271,-1.0993,0.36645,-1.9894,-1.4658,-4.2509e-12,-0.99471,0,0,0.1,-0,-0,0.66667
0.24339,0.12656,2.4339,-0.56017,-70.12,581.84,3.6357,-1.2119,-0.88261,4.8476,1.2903e-10,-0.4413,0,0,0.1,-0,-0,0.66667
0.79305,0.58087,7.9305,0.12131,5.9329,56.147,-2.5654,0.85515,-1.9466,-3.4206,-2.3247e-11,-0.97329,0,0,0.1,-0,-0,0.66667
0.54412,0.8354,5.4412,0.5031,47.058,242.06,-7.2999,2.4333,-1.1006,-9.7332,-1.5929e-12,-0.55028,0,0,0.1,-0,-0,0.66667
0.40649,0.91017,4.0649,0.61526,68.362,385.85,-6.6691,2.223,-0.65941,-8.8922,1.9176e-12,-0.32971,0,0,0.1,-0,-0,0.66667
0.2058,0.52327,2.058,0.034898,4.4357,629.61,-0.19152,0.063841,-1.9963,-0.25536,1.2787e-11,-0.99816,0,0,0.1,-0,-0,0.66667
0.31073,0.31513,3.1073,-0.27731,-33.265,497.78,2.2978,-0.76595,-1.7293,3.0638,-1.6041e-12,-0.86467,0,0,0.1,-9.4739e-16,0,0.66667
0.079247,0.64631,0.79247,0.21946,28.961,796.51,-0.46378,0.15459,-1.8317,-0.61837,-5.9781e-08,-0.91583,0,0,0.1,1.1842e-16,0,0.66667
0.23362,0.88911,2.3362,0.58366,73.44,594.27,-3.6362,1.2121,-0.79214,-4.8482,-3.0512e-11,-0.39607,0,0,0.1,-0,-0,0.66667
0.66575,0.39219,6.6575,-0.16172,-11.915,137.18,2.871,-0.957,-1.9041,3.828,1.7819e-12,-0.95206,0,0,0.1,-1.7358e-15,0,0.66667
0.35102,0.56818,3.5102,0.10227,11.897,449.29,-0.95726,0.31909,-1.9603,-1.2763,-9.8118e-12,-0.98013,0,0,0.1,-0,-0,0.66667
0.81972,0.0065887,8.1972,-0.74012,-32.362,45.28,16.178,-5.3928,-0.049698,21.571,1.1753e-09,-0.024849,0,0,0.1,-0,-0,0.66667
0.66115,0.79381,6.6115,0.44072,32.907,141.17,-7.7702,2.5901,-1.3073,-10.36,-1.2248e-12,-0.65366,0,0,0.1,9.4739e-16,0,0.66667
0.62435,0.5208,6.2435,0.031199,2.5201,169.91,-0.51944,0.17315,-2.0003,-0.69258,-9.2854e-13,-1.0001,0,0,0.1,-0,-0,0.66667
0.42028,0.53119,4.2028,0.046788,5.1093,369.73,-0.52437,0.17479,-1.9958,-0.69916,-3.5382e-12,-0.99789,0,0,0.1,1.7764e-16,0,0.66667
0.645,0.33561,6.45,-0.24658,-19.071,153.35,4.2413,-1.4138,-1.7825,5.655,-3.0984e-12,-0.89125,0,0,0.1,4.737e-16,0,0.66667
0.87483,0.76858,8.7483,0.40287,12.438,22.422,-9.3985,3.1328,-1.4275,-12.531,7.4963e-09,-0.71374,0,0,0.1,9.4739e-16,0,0.66667
0.31127,0.97505,3.1127,0.71258,85.764,497.72,-5.9148,1.9716,-0.19772,-7.8864,-3.4639e-13,-0.098859,0,0,0.1,-0,-0,0.66667
0.34275,0.71128,3.4275,0.31692,37.14,459.25,-2.8967,0.96557,-1.6463,-3.8623,-3.0005e-12,-0.82313,0,0,0.1,-2.3685e-16,0,0.66667
0.84868,0.79629,8.4868,0.44443,16.409,31.879,-10.058,3.3527,-1.2955,-13.411,1.3636e-09,-0.64777,0,0,0.1,-0,-0,0.66667
0.52989,0.1128,5.2989,-0.5808,-55.56,255.95,8.207,-2.7357,-0.80295,10.943,-8.5354e-13,-0.40148,0,0,0.1,9.4739e-16,0,0.66667
0.92369,0.83095,9.2369,0.49643,9.5541,9.6599,-12.228,4.076,-1.1253,-16.304,1.2258e-07,-0.56266,0,0,0.1,-9.4739e-16,0,0.66667
0.18755,0.012216,1.8755,-0.73168,-94.104,653.71,3.6594,-1.2198,-0.10136,4.8792,-3.8882e-10,-0.050682,0,0,0.1,-0,-0,0.66667
0.21487,0.29796,2.1487,-0.30305,-38.394,618.01,1.7365,-0.57883,-1.6722,2.3153,-5.7986e-11,-0.83612,0,0,0.1,-0,-0,0.66667
0.86246,0.77279,8.6246,0.40918,13.808,26.657,-9.4107,3.1369,-1.4048,-12.548,5.1647e-09,-0.70238,0,0,0.1,-9.4739e-16,0,0.66667
0.09949,0.38882,0.9949,-0.16676,-21.923,769.44,0.44244,-0.14748,-1.8984,0.58992,2.3546e-08,-0.94922,0,0,0.1,-0,-0,0.66667
0.47166,0.6585,4.7166,0.23775,24.523,314.24,-2.9903,0.99676,-1.8002,-3.9871,-5.0606e-12,-0.9001,0,0,0.1,1.8948e-15,0,0.66667
0.8394,0.98559,8.394,0.72838,28.664,36.802,-16.304,5.4347,-0.11198,-21.739,-1.2677e-10,-0.055989,0,0,0.1,9.4739e-16,0,0.66667
0.69374,0.010883,6.9374,-0.73368,-50.725,118.29,13.573,-4.5242,-0.083319,18.097,-2.9221e-13,-0.04166,0,0,0.1,-0,-0,0.66667
0.46224,0.52394,4.6224,0.035911,3.7442,324.08,-0.44266,0.14755,-1.9928,-0.59021,-3.3251e-12,-0.99642,0,0,0.1,-0,-0,0.66667
0.1652,0.88897,1.652,0.58345,75.536,682.7,-2.5703,0.85675,-0.78656,-3.427,-3.5287e-09,-0.39328,0,0,0.1,-0,-0,0.66667
0.55082,0.30946,5.5082,-0.28581,-26.404,235.3,4.1982,-1.3994,-1.7094,5.5975,-1.0498e-12,-0.85469,0,0,0.1,-1.1842e-15,0,0.66667
0.98798,0.64704,9.8798,0.22056,0.58525,0.57573,-5.8108,1.9369,-1.8264,-7.7478,1.7266e-07,-0.9132,0,0,0.1,9.4739e-16,0,0.66667
0.80516,0.56896,8.0516,0.10344,4.7916,50.129,-2.2209,0.7403,-1.9593,-2.9612,8.2991e-11,-0.97965,0,0,0.1,-0,-0,0.66667
0.054929,0.72349,0.54929,0.33524,44.407,829.14,-0.49105,0.16368,-1.598,-0.65473,-5.501e-08,-0.79898,0,0,0.1,-0,-0,0.66667
0.71093,0.90805,7.1093,0.61207,40.243,105.96,-11.604,3.8679,-0.66603,-15.472,7.7494e-12,-0.33301,0,0,0.1,-0,-0,0.66667
0.97662,0.88206,9.7662,0.57309,3.3926,2.4802,-14.925,4.975,-0.82948,-19.9,-1.082e-05,-0.41474,0,0,0.1,-0,-0,0.66667
0.19337,0.9309,1.9337,0.64634,82.86,646.06,-3.333,1.111,-0.51242,-4.444,1.1747e-09,-0.25621,0,0,0.1,-0,-0,0.66667
0.95641,0.80361,9.5641,0.45541,5.0108,3.9959,-11.615,3.8716,-1.2624,-15.486,8.1221e-07,-0.63118,0,0,0.1,-0,-0,0.66667
0.23335,0.53065,2.3335,0.045981,5.7703,594.27,-0.28612,0.095373,-1.9969,-0.38149,1.8522e-11,-0.99846,0,0,0.1,5.3784e-16,0,0.66667
0.8194,0.5339,8.194,0.050845,2.1981,43.439,-1.111,0.37033,-1.9888,-1.4813,3.4406e-10,-0.99441,0,0,0.1,1.8948e-15,0,0.66667
0.14942,0.38342,1.4942,-0.17487,-22.699,703.22,0.69677,-0.23226,-1.8885,0.92902,1.7096e-09,-0.94424,0,0,0.1,-0,-0,0.66667
0.5141,0.23897,5.141,-0.39154,-38.241,271.04,5.3678,-1.7893,-1.4571,7.1571,-1.4153e-12,-0.72853,0,0,0.1,-0,-0,0.66667
0.36401,0.67803,3.6401,0.26705,30.753,434.1,-2.5923,0.86409,-1.7448,-3.4564,-3.2141e-12,-0.87238,0,0,0.1,-0,-0,0.66667
0.67069,0.36763,6.7069,-0.19855,-14.458,133.51,3.5512,-1.1837,-1.8629,4.7349,-1.7841e-12,-0.93144,0,0,0.1,9.4739e-16,0,0.66667
0.17912,0.55688,1.7912,0.085316,10.961,664.25,-0.40751,0.13584,-1.9716,-0.54335,2.3629e-11,-0.98579,0,0,0.1,3.5527e-16,0,0.66667
0.57975,0.60444,5.7975,0.15665,13.779,208.51,-2.4219,0.80729,-1.9147,-3.2291,1.1238e-12,-0.95737,0,0,0.1,-0,-0,0.66667
0.0024237,0.43417,0.024237,-0.098743,-13.109,899.79,0.0063818,-0.0021286,-1.967,0.0085084,-2.0452e-06,-0.98349,0,0,0.1,-0,-0,0.66667
0.42565,0.52367,4.2565,0.03551,3.8561,363.76,-0.40306,0.13435,-1.9949,-0.53741,-1.8743e-12,-0.99743,0,0,0.1,-0,-0,0.66667
0.51579,0.38209,5.1579,-0.17687,-17.211,269.08,2.4328,-0.81092,-1.8938,3.2437,-1.3534e-12,-0.94689,0,0,0.1,-9.4739e-16,0,0.66667
0.8378,0.85272,8.378,0.52908,20.874,36.523,-11.82,3.9401,-1.0022,-15.76,7.2228e-10,-0.5011,0,0,0.1,-0,-0,0.66667
0.75764,0.89539,7.5764,0.59309,33.556,76.61,-11.983,3.9942,-0.74621,-15.977,-1.0646e-10,-0.37311,0,0,0.1,-0,-0,0.66667
0.091892,0.55444,0.91892,0.081655,10.748,779.58,-0.20009,0.066697,-1.9781,-0.26679,-8.4732e-09,-0.98907,0,0,0.1,5.9212e-17,0,0.66667
0.62503,0.90707,6.2503,0.61061,49.488,170.38,-10.177,3.3924,-0.68066,-13.57,3.0953e-12,-0.34033,0,0,0.1,-1.8948e-15,0,0.66667
0.66,0.063188,6.6,-0.65522,-49.216,142.74,11.532,-3.844,-0.47404,15.376,8.5798e-13,-0.23702,0,0,0.1,-1.8948e-15,0,0.66667
0.73403,0.095351,7.3403,-0.60697,-37.203,90.928,11.881,-3.9603,-0.6956,15.841,-4.1887e-11,-0.3478,0,0,0.1,-0,2.3023e-17,0.66667
0.55486,0.55218,5.5486,0.078266,7.1776,231.32,-1.158,0.38602,-1.9751,-1.5441,-2.0501e-12,-0.98757,0,0,0.1,-0,-0,0.66667
0.10736,0.98554,1.0736,0.72831,95.965,759.2,-2.085,0.69501,-0.1152,-2.78,-3.0776e-07,-0.057599,0,0,0.1,2.3685e-16,0,0.66667
0.64035,0.87877,6.4035,0.56816,44.551,157.8,-9.7019,3.234,-0.85752,-12.936,2.097e-12,-0.42876,0,0,0.1,-1.8948e-15,0,0.66667
0.67053,0.61891,6.7053,0.17837,12.991,133.6,-3.1893,1.0631,-1.8898,-4.2524,-8.4732e-13,-0.94491,0,0,0.1,1.4211e-15,0,0.66667
0.25011,0.43582,2.5011,-0.096267,-11.977,573,0.64205,-0.21402,-1.973,0.85607,-2.5572e-11,-0.98652,0,0,0.1,5.9212e-17,0,0.66667
0.94828,0.49218,9.4828,-0.011734,-0.15081,4.2391,0.29672,-0.098905,-1.9978,0.39562,1.6955e-07,-0.99891,0,0,0.1,-9.4739e-16,0,0.66667
0.45265,0.40322,4.5265,-0.14518,-15.309,334.37,1.7524,-0.58412,-1.9301,2.3365,-2.9532e-14,-0.96503,0,0,0.1,5.9212e-16,0,0.66667
0.86672,0.87647,8.6672,0.5647,18.591,25.75,-13.052,4.3505,-0.86434,-17.402,-3.1845e-09,-0.43217,0,0,0.1,-0,-0,0.66667
0.65308,0.72567,6.5308,0.3385,25.726,147.16,-5.8951,1.965,-1.5927,-7.8602,4.0457e-13,-0.79636,0,0,0.1,-0,-0,0.66667
0.61654,0.038218,6.1654,-0.69267,-57.191,177.75,11.388,-3.7961,-0.29136,15.184,1.6618e-12,-0.14568,0,0,0.1,-0,-0,0.66667
0.5494,0.91583,5.494,0.62375,57.951,237.39,-9.1383,3.0461,-0.61737,-12.184,-8.7841e-13,-0.30868,0,0,0.1,-0,-0,0.66667
0.64757,0.21319,6.4757,-0.43022,-33.139,151.68,7.4292,-2.4764,-1.3394,9.9056,-1.0121e-12,-0.66972,0,0,0.1,9.4739e-16,0,0.66667
0.84434,0.22515,8.4434,-0.41228,-15.614,33.475,9.2826,-3.0942,-1.3999,12.377,-1.1005e-09,-0.69997,0,0,0.1,-0,-0,0.66667
0.77688,0.73211,7.7688,0.34816,18.245,65.02,-7.2128,2.4043,-1.5673,-9.617,-4.0427e-11,-0.78367,0,0,0.1,-0,-0,0.66667
0.67263,0.83184,6.7263,0.49777,36.179,132.68,-8.9283,2.9761,-1.1225,-11.904,1.4353e-12,-0.56125,0,0,0.1,-9.4739e-16,0,0.66667
0.031845,0.21756,0.31845,-0.42366,-56.262,860.18,0.35977,-0.11992,-1.367,0.4797,-8.8711e-07,-0.68348,0,0,0.1,7.0314e-17,0,0.66667
0.0086948,0.86808,0.086948,0.55212,73.464,891.35,-0.12801,0.042665,-0.91347,-0.17069,-8.6115e-06,-0.45674,0,0,0.1,-0,-0,0.66667
0.35854,0.070706,3.5854,-0.64394,-74.723,441.07,6.1567,-2.0522,-0.52924,8.209,-3.515e-12,-0.26462,0,0,0.1,-0,-0,0.66667
0.030634,0.46881,0.30634,-0.046782,-6.2045,861.79,0.038216,-0.012738,-1.9975,0.050955,9.7804e-07,-0.99877,0,0,0.1,1.1842e-16,0,0.66667
0.51785,0.3809,5.1785,-0.17865,-17.334,267.05,2.467,-0.82234,-1.8881,3.2894,-7.4609e-12,-0.94403,0,0,0.1,1.8948e-15,0,0.66667
0.0035539,0.40624,0.035539,-0.14064,-18.673,898.27,0.013329,-0.0044423,-1.9305,0.017772,8.358e-07,-0.96526,0,0,0.1,-1.568e-18,0,0.66667
0.48073,0.65258,4.8073,0.22887,23.343,304.76,-2.9341,0.97802,-1.8138,-3.9121,-2.9479e-12,-0.90689,0,0,0.1,7.1054e-16,0,0.66667
0.37761,0.94904,3.7761,0.67356,76.926,418.92,-6.7824,2.2608,-0.38737,-9.0432,1.8789e-12,-0.19368,0,0,0.1,-0,-0,0.66667
0.95746,0.5817,9.5746,0.12255,1.291,3.0446,-3.1291,1.043,-1.945,-4.1721,-5.7238e-08,-0.97251,0,0,0.1,-9.4739e-16,0,0.66667
0.055854,0.24063,0.55854,-0.38906,-51.546,827.91,0.57947,-0.19316,-1.459,0.77263,8.1992e-08,-0.72949,0,0,0.1,5.9212e-17,0,0.66667
0.065191,0.52445,0.65191,0.03667,4.8472,815.33,-0.063748,0.021249,-1.996,-0.084997,-2.3161e-08,-0.99799,0,0,0.1,-1.1842e-16,0,0.66667
0.84927,0.61228,8.4927,0.16841,6.166,31.014,-3.8141,1.2714,-1.8966,-5.0854,1.6901e-09,-0.94832,0,0,0.1,-0,-0,0.66667
0.79526,0.36054,7.9526,-0.2092,-10.14,55.133,4.4364,-1.4788,-1.8462,5.9152,2.3567e-11,-0.92312,0,0,0.1,-9.4739e-16,0,0.66667
0.93585,0.3409,9.3585,-0.23865,-3.8266,6.516,5.9557,-1.9852,-1.8004,7.9409,-6.5476e-08,-0.90021,0,0,0.1,-4.737e-16,0,0.66667
0.078237,0.9913,0.78237,0.73695,97.644,798.03,-1.5375,0.51251,-0.073928,-2.05,-2.0318e-07,-0.036964,0,0,0.1,1.7764e-16,0,0.66667
0.6201,0.32638,6.201,-0.26043,-21.238,173.63,4.3064,-1.4355,-1.7567,5.7419,-1.3043e-12,-0.87836,0,0,0.1,9.4739e-16,0,0.66667
0.5144,0.72858,5.144,0.34286,33.46,270.66,-4.7032,1.5677,-1.5848,-6.2709,-1.716e-12,-0.79239,0,0,0.1,-0,-0,0.66667
0.32157,0.92545,3.2157,0.63817,76.188,485.1,-5.4725,1.8242,-0.54896,-7.2967,-2.6015e-12,-0.27448,0,0,0.1,4.737e-16,0,0.66667
0.61081,0.55516,6.1081,0.082735,6.868,181.29,-1.3476,0.4492,-1.9783,-1.7968,-1.3002e-12,-0.98914,0,0,0.1,9.4739e-16,0,0.66667
0.91808,0.6612,9.1808,0.2418,4.9396,10.103,-5.9198,1.9733,-1.7918,-7.8931,5.8629e-08,-0.89589,0,0,0.1,1.8948e-15,0,0.66667
0.062566,0.96324,0.62566,0.69486,92.228,818.99,-1.1593,0.38645,-0.28869,-1.5458,6.8386e-06,-0.14435,0,0,0.1,-0,-0,0.66667
0.65973,0.050748,6.5973,-0.67388,-50.668,143.02,11.855,-3.9518,-0.38471,15.807,1.2186e-12,-0.19236,0,0,0.1,-9.4739e-16,0,0.66667
0.28517,0.9244,2.8517,0.63661,77.874,529.61,-4.8411,1.6137,-0.55783,-6.4548,-1.3771e-12,-0.27891,0,0,0.1,-0,-0,0.66667
0.40545,0.76995,4.0545,0.40493,44.947,386.63,-4.378,1.4593,-1.4204,-5.8374,-2.2107e-12,-0.71021,0,0,0.1,-0,-0,0.66667
0.84969,0.68059,8.4969,0.27088,9.904,31.019,-6.1378,2.0459,-1.7368,-8.1838,2.0082e-09,-0.86841,0,0,0.1,-0,-0,0.66667
0.12173,0.018045,1.2173,-0.72293,-94.933,740.11,2.3467,-0.78224,-0.14126,3.129,-1.6455e-07,-0.070631,0,0,0.1,4.737e-16,1.1558e-16,0.66667
0.84297,0.3251,8.4297,-0.26235,-9.989,33.639,5.8975,-1.9658,-1.7586,7.8634,-1.3646e-09,-0.87932,0,0,0.1,-0,-0,0.66667
0.40424,0.59201,4.0424,0.13801,15.317,387.73,-1.4877,0.49592,-1.9348,-1.9837,-5.3484e-12,-0.96742,0,0,0.1,6.5133e-16,0,0.66667
0.98389,0.60256,9.8389,0.15384,0.56969,0.67605,-4.0363,1.3454,-1.92,-5.3817,-9.3277e-08,-0.96002,0,0,0.1,-0,-0,0.66667
0.91802,0.68206,9.1802,0.27309,5.5875,10.183,-6.6853,2.2284,-1.7344,-8.9138,6.3557e-08,-0.86718,0,0,0.1,-9.4739e-16,0,0.66667
0.40767,0.91421,4.0767,0.62132,68.96,384.53,-6.7546,2.2515,-0.62999,-9.0061,2.5113e-12,-0.315,0,0,0.1,-0,-0,0.66667
0.29792,0.17841,2.9792,-0.48238,-58.444,513.67,3.8323,-1.2774,-1.1758,5.1098,-4.4587e-13,-0.58788,0,0,0.1,-4.737e-16,0,0.66667
0.22095,0.13257,2.2095,-0.55114,-69.75,610.42,3.2473,-1.0824,-0.92136,4.3297,9.821e-13,-0.46068,0,0,0.1,-0,-0,0.66667
0.21774,0.65951,2.1774,0.23926,30.264,614.3,-1.3892,0.46308,-1.8004,-1.8523,2.0403e-11,-0.9002,0,0,0.1,-4.737e-16,0,0.66667
0.76874,0.63348,7.6874,0.20022,10.811,69.225,-4.1045,1.3682,-1.8575,-5.4726,-2.0949e-11,-0.92874,0,0,0.1,1.8948e-15,0,0.66667
0.75544,0.15447,7.5544,-0.51829,-29.509,77.61,10.441,-3.4803,-1.0437,13.921,4.6143e-11,-0.52185,0,0,0.1,-0,-0,0.66667
0.97825,0.53983,9.7825,0.059749,0.30809,0.94962,-1.5587,0.51956,-1.9848,-2.0782,3.832e-07,-0.99238,0,0,0.1,-1.8948e-15,0,0.66667
0.08331,0.51249,0.8331,0.01873,2.469,791.05,-0.041609,0.01387,-1.9965,-0.055479,2.2055e-08,-0.99823,0,0,0.1,-0,-0,0.66667
0.22018,0.77882,2.2018,0.41823,52.892,611.27,-2.4557,0.81855,-1.3814,-3.2742,4.4019e-11,-0.69072,0,0,0.1,5.3291e-16,0,0.66667
0.98371,0.51229,9.8371,0.018433,0.068667,0.58413,-0.48354,0.16118,-2.0024,-0.64473,3.6168e-06,-1.0012,0,0,0.1,-0,-0,0.66667
0.54637,0.6823,5.4637,0.27346,25.438,239.49,-3.9843,1.3281,-1.7387,-5.3124,-2.5246e-12,-0.86936,0,0,0.1,5.6037e-16,0,0.66667
0.55367,0.87998,5.5367,0.56998,52.559,233.22,-8.4154,2.8051,-0.84255,-11.221,-4.4498e-13,-0.42127,0,0,0.1,-0,-0,0.66667
0.34877,0.58031,3.4877,0.12047,14.04,451.96,-1.1204,0.37348,-1.9462,-1.4939,-7.6621e-12,-0.97309,0,0,0.1,-0,-0,0.66667
0.70379,0.51064,7.0379,0.015955,1.0643,109.64,-0.29944,0.099812,-2.0028,-0.39925,1.375e-13,-1.0014,0,0,0.1,-0,-0,0.66667
0.49976,0.33378,4.9976,-0.24933,-24.812,285.24,3.3229,-1.1076,-1.7836,4.4305,-3.332e-12,-0.89178,0,0,0.1,-0,-0,0.66667
0.46949,0.67239,4.6949,0.25858,26.745,316.55,-3.2374,1.0791,-1.7656,-4.3166,-1.4613e-12,-0.88282,0,0,0.1,-0,-0,0.66667
0.54977,0.23752,5.4977,-0.39371,-36.462,236.47,5.7721,-1.924,-1.4489,7.6961,-1.0605e-12,-0.72443,0,0,0.1,-0,-0,0.66667
0.02518,0.33842,0.2518,-0.24237,-32.17,869.14,0.16275,-0.05425,-1.789,0.217,-5.5642e-07,-0.8945,0,0,0.1,-2.9606e-17,0,0.66667
0.53126,0.33415,5.3126,-0.24877,-23.679,253.97,3.5244,-1.1748,-1.785,4.6992,-3.6675e-12,-0.89252,0,0,0.1,4.737e-16,0,0.66667
0.13296,0.9488,1.3296,0.67321,88.097,725.2,-2.387,0.79567,-0.38545,-3.1827,3.4476e-08,-0.19273,0,0,0.1,-0,-0,0.66667
0.45893,0.75295,4.5893,0.37943,39.77,327.9,-4.6435,1.5478,-1.4865,-6.1913,-6.1409e-12,-0.74325,0,0,0.1,-0,-0,0.66667
0.082271,0.356,0.82271,-0.21601,-28.49,792.46,0.4739,-0.15797,-1.8327,0.63186,5.1138e-08,-0.91635,0,0,0.1,-0,-0,0.66667
0.88896,0.7388,8.8896,0.35819,9.856,17.911,-8.4912,2.8304,-1.5457,-11.322,2.1473e-08,-0.77286,0,0,0.1,-0,-0,0.66667
0.37843,0.63,3.7843,0.19501,22.171,417.28,-1.9679,0.65596,-1.8649,-2.6238,-4.9434e-12,-0.93243,0,0,0.1,-9.4739e-16,0,0.66667
0.43035,0.13911,4.3035,-0.54134,-58.659,359.14,6.2125,-2.0708,-0.95485,8.2833,-2.1076e-12,-0.47743,0,0,0.1,-0,-0,0.66667
0.74206,0.6167,7.4206,0.17505,10.391,84.838,-3.4639,1.1546,-1.8881,-4.6186,-1.1583e-11,-0.94407,0,0,0.1,9.4739e-16,0,0.66667
0.15577,0.78972,1.5577,0.43458,56.369,694.96,-1.8052,0.60174,-1.3328,-2.407,-9.9849e-10,-0.66638,0,0,0.1,-0,-0,0.66667
0.57502,0.93349,5.7502,0.65024,57.937,213.79,-9.9707,3.3236,-0.4973,-13.294,3.6797e-12,-0.24865,0,0,0.1,-9.4739e-16,0,0.66667
0.51105,0.038345,5.1105,-0.69248,-68.157,274.83,9.4371,-3.1457,-0.29362,12.583,4.3485e-12,-0.14681,0,0,0.1,-0,-0,0.66667
0.3683,0.76622,3.683,0.39933,45.854,429.23,-3.922,1.3073,-1.4299,-5.2293,-6.1435e-12,-0.71495,0,0,0.1,-9.0985e-16,0,0.66667
0.68334,0.18924,6.8334,-0.46614,-32.964,124.73,8.4942,-2.8314,-1.2273,11.326,-1.7302e-12,-0.61363,0,0,0.1,1.8948e-15,0,0.66667
0.79449,0.57925,7.9449,0.11887,5.7777,55.418,-2.5185,0.8395,-1.9504,-3.358,-2.105e-11,-0.9752,0,0,0.1,-0,-0,0.66667
0.46768,0.60175,4.6768,0.15263,15.814,318.36,-1.9035,0.63451,-1.9204,-2.5381,7.061e-14,-0.96018,0,0,0.1,-0,-0,0.66667
0.62735,0.076552,6.2735,-0.63517,-51.254,168.56,10.626,-3.542,-0.56624,14.168,-7.7716e-13,-0.28312,0,0,0.1,-0,-0,0.66667
0.91254,0.74859,9.1254,0.37289,8.1528,11.705,-9.074,3.0247,-1.5041,-12.099,4.1358e-08,-0.75203,0,0,0.1,-2.2501e-15,0,0.66667
0.45697,0.46272,4.5697,-0.05592,-5.8666,329.7,0.68144,-0.22715,-1.9883,0.90858,1.5805e-12,-0.99417,0,0,0.1,4.737e-16,0,0.66667
0.13502,0.97472,1.3502,0.71208,93.173,722.51,-2.5639,0.85463,-0.19513,-3.4185,-7.8729e-08,-0.097563,0,0,0.1,4.737e-16,0,0.66667
0.54323,0.79162,5.4323,0.43743,40.944,242.76,-6.3367,2.1122,-1.3189,-8.4489,-4.9249e-13,-0.65945,0,0,0.1,-0,-0,0.66667
0.43003,0.1151,4.3003,-0.57736,-62.608,359.57,6.6208,-2.2069,-0.81176,8.8277,-5.3424e-13,-0.40588,0,0,0.1,-0,-0,0.66667
0.76831,0.21489,7.6831,-0.42767,-23.193,69.951,8.7622,-2.9207,-1.3509,11.683,1.0002e-11,-0.67544,0,0,0.1,1.1842e-15,0,0.66667
0.79767,0.15509,7.9767,-0.51737,-24.932,54.715,11.005,-3.6684,-1.053,14.673,-1.8242e-10,-0.52652,0,0,0.1,-1.1842e-15,0,0.66667
0.17185,0.48559,1.7185,-0.021612,-2.784,673.75,0.099041,-0.033014,-2.0031,0.13205,2.3313e-10,-1.0016,0,0,0.1,-0,-0,0.66667
0.43794,0.82676,4.3794,0.49014,52.655,350.73,-5.7241,1.908,-1.1498,-7.6321,-7.5451e-13,-0.5749,0,0,0.1,-0,-0,0.66667
0.26682,0.55991,2.6682,0.089865,11.077,551.97,-0.63941,0.21314,-1.975,-0.85254,-1.0886e-12,-0.98752,0,0,0.1,-1.1842e-16,0,0.66667
0.95469,0.45745,9.5469,-0.063826,-0.71675,3.3552,1.6249,-0.54163,-1.9876,2.1665,2.9794e-07,-0.99378,0,0,0.1,9.4739e-16,0,0.66667
0.93687,0.26601,9.3687,-0.35098,-5.562,6.6089,8.7686,-2.9229,-1.5656,11.692,-1.3405e-07,-0.7828,0,0,0.1,-1.8948e-15,0,0.66667
0.43435,0.096443,4.3435,-0.60534,-65.361,354.9,7.0114,-2.3371,-0.69792,9.3485,-2.8777e-12,-0.34896,0,0,0.1,9.4739e-16,9.8892e-17,0.66667
0.43101,0.131,4.3101,-0.5535,-59.943,358.44,6.3617,-2.1206,-0.90832,8.4823,-4.0505e-12,-0.45416,0,0,0.1,-0,-0,0.66667
0.74648,0.33578,7.4648,-0.24633,-14.414,82.249,4.9035,-1.6345,-1.7838,6.5379,1.2121e-11,-0.89192,0,0,0.1,4.737e-16,0,0.66667
0.59598,0.24476,5.9598,-0.38286,-32.751,194.45,6.0846,-2.0282,-1.4805,8.1128,-1.4833e-13,-0.74023,0,0,0.1,-4.737e-16,0,0.66667
0.25907,0.45586,2.5907,-0.06621,-8.1971,561.69,0.45741,-0.15247,-1.9814,0.60989,-1.5659e-11,-0.9907,0,0,0.1,-3.068e-16,0,0.66667
0.48317,0.59661,4.8317,0.14491,14.73,302.16,-1.8672,0.62239,-1.929,-2.4895,1.4205e-12,-0.96451,0,0,0.1,-0,-0,0.66667
0.89011,0.55187,8.9011,0.077807,2.1099,17.092,-1.8468,0.61561,-1.9825,-2.4625,1.0344e-08,-0.99123,0,0,0.1,-0,-0,0.66667
0.68155,0.04317,6.8155,-0.68525,-48.859,126.79,12.454,-4.1514,-0.32773,16.606,9.468e-13,-0.16386,0,0,0.1,-0,-0,0.66667
0.56313,0.22848,5.6313,-0.40727,-36.915,224.02,6.1159,-2.0386,-1.4141,8.1546,-3.6628e-12,-0.70704,0,0,0.1,9.4739e-16,0,0.66667
0.87675,0.15357,8.7675,-0.51965,-15.868,22.219,12.149,-4.0498,-1.0427,16.199,7.6674e-09,-0.52134,0,0,0.1,7.1054e-16,0,0.66667
0.27628,0.88114,2.7628,0.57171,70.27,540.55,-4.212,1.404,-0.83629,-5.616,-2.7842e-11,-0.41814,0,0,0.1,-0,-0,0.66667
0.99685,0.59528,9.9685,0.14292,0.039607,0.14848,-3.7993,1.2664,-1.9284,-5.0657,8.7605e-07,-0.96419,0,0,0.1,3.7896e-15,0,0.66667
0.19984,0.7393,1.9984,0.35895,45.787,637.43,-1.9128,0.63762,-1.5415,-2.5505,3.9409e-11,-0.77076,0,0,0.1,-2.3685e-16,0,0.66667
0.83979,0.75664,8.3979,0.38496,14.963,35.217,-8.621,2.8737,-1.4724,-11.495,9.4199e-10,-0.73618,0,0,0.1,-0,-0,0.66667
0.74234,0.41112,7.4234,-0.13332,-7.9047,84.623,2.6391,-0.8797,-1.9343,3.5188,8.1144e-12,-0.96717,0,0,0.1,-0,-0,0.66667
0.86405,0.17985,8.6405,-0.48022,-16.061,26.336,11.065,-3.6884,-1.1785,14.753,-6.5562e-09,-0.58925,0,0,0.1,-0,-0,0.66667
0.58492,0.37206,5.8492,-0.19191,-16.729,203.92,2.9934,-0.99781,-1.867,3.9913,-3.6968e-12,-0.93351,0,0,0.1,1.1842e-15,0,0.66667
0.23238,0.27996,2.3238,-0.33006,-41.476,595.61,2.0453,-0.68178,-1.6153,2.7271,-3.6802e-11,-0.80766,0,0,0.1,1.1842e-16,0,0.66667
0.48352,0.030188,4.8352,-0.70472,-71.947,302.82,9.0865,-3.0288,-0.23887,12.115,-8.1553e-12,-0.11944,0,0,0.1,1.0905e-15,1.555e-17,0.66667
0.86238,0.081894,8.6238,-0.62716,-21.323,27.553,14.423,-4.8075,-0.6014,19.23,3.5214e-08,-0.3007,0,0,0.1,-0,-0,0.66667
0.7978,0.10732,7.978,-0.58902,-28.417,54.931,12.531,-4.1771,-0.76949,16.708,-7.9501e-10,-0.38474,0,0,0.1,-0,-0,0.66667
0.17351,0.08388,1.7351,-0.62418,-80.606,671.87,2.888,-0.96268,-0.61679,3.8507,8.4013e-10,-0.3084,0,0,0.1,-2.3685e-16,0,0.66667
0.99221,0.37599,9.9221,-0.18602,-0.28307,0.34364,4.9218,-1.6406,-1.8752,6.5623,-3.3646e-07,-0.93759,0,0,0.1,-0,-0,0.66667
0.030412,0.98132,0.30412,0.72197,96.143,862.16,-0.58552,0.19519,-0.14994,-0.78069,1.6027e-05,-0.074968,0,0,0.1,-0,-0,0.66667
0.39265,0.79194,3.9265,0.43791,49.218,401.2,-4.5852,1.5284,-1.3195,-6.1137,-3.8818e-12,-0.65975,0,0,0.1,-0,-0,0.66667
0.7544,0.023561,7.544,-0.71466,-41.019,79.032,14.377,-4.7923,-0.18276,19.169,-4.8725e-11,-0.091379,0,0,0.1,9.4739e-16,0,0.66667
0.97374,0.77146,9.7374,0.40719,2.6465,2.0009,-10.573,3.5244,-1.4085,-14.098,-1.8884e-06,-0.70425,0,0,0.1,-9.4739e-16,0,0.66667
0.14213,0.77632,1.4213,0.41448,53.98,712.92,-1.5709,0.52364,-1.392,-2.0945,-3.1958e-09,-0.696,0,0,0.1,2.3685e-16,0,0.66667
0.92404,0.439,9.2404,-0.091506,-1.7306,8.6087,2.2548,-0.7516,-1.9726,3.0064,-7.0738e-08,-0.9863,0,0,0.1,3.7896e-15,0,0.66667
0.21902,0.22511,2.1902,-0.41234,-52.173,612.76,2.4083,-0.80278,-1.4004,3.2111,-6.1659e-11,-0.70018,0,0,0.1,-0,-0,0.66667
0.55264,0.50474,5.5264,0.0071117,0.65448,233.39,-0.10481,0.034935,-1.9979,-0.13974,-6.3478e-12,-0.99896,0,0,0.1,3.7896e-15,0,0.66667
0.43281,0.30191,4.3281,-0.29714,-32.051,356.05,3.4294,-1.1431,-1.6843,4.5725,-2.859e-12,-0.84214,0,0,0.1,4.737e-16,0,0.66667
0.80806,0.51426,8.0806,0.021389,0.97726,48.702,-0.46089,0.15363,-1.9966,-0.61453,2.5516e-11,-0.99831,0,0,0.1,-0,-0,0.66667
0.13857,0.33453,1.3857,-0.24821,-32.33,717.55,0.91719,-0.30573,-1.7824,1.2229,4.2667e-09,-0.89119,0,0,0.1,-0,-0,0.66667
0.19087,0.099821,1.9087,-0.60027,-76.994,649.25,3.0553,-1.0184,-0.71884,4.0737,-2.6099e-11,-0.35942,0,0,0.1,-0,-0,0.66667
0.56751,0.683,5.6751,0.2745,24.674,219.76,-4.1542,1.3847,-1.7307,-5.5389,2.4025e-13,-0.86536,0,0,0.1,-1.1842e-15,0,0.66667
0.20995,0.5164,2.0995,0.024601,3.1212,624.26,-0.13773,0.045911,-1.9947,-0.18364,5.7414e-12,-0.99735,0,0,0.1,-0,-0,0.66667
0.87999,0.035636,8.7999,-0.69655,-20.897,22.032,16.345,-5.4485,-0.27359,21.794,2.4432e-07,-0.1368,0,0,0.1,1.8948e-15,0,0.66667
0.57835,0.11715,5.7835,-0.57427,-50.819,210.55,8.8568,-2.9523,-0.83224,11.809,9.4147e-14,-0.41612,0,0,0.1,4.737e-16,0,0.66667
0.91176,0.10797,9.1176,-0.58805,-13.095,12.729,14.298,-4.7658,-0.76792,19.063,-3.7991e-08,-0.38396,0,0,0.1,-1.8948e-15,0,0.66667
0.76434,0.49026,7.6434,-0.014611,-0.80145,71.569,0.2978,-0.099267,-2.0019,0.39707,-2.2887e-12,-1.0009,0,0,0.1,-2.8422e-15,0,0.66667
0.47494,0.59457,4.7494,0.14186,14.568,310.73,-1.7967,0.5989,-1.927,-2.3956,5.3676e-12,-0.96352,0,0,0.1,-0,-0,0.66667
0.69241,0.60405,6.9241,0.15608,10.746,117.65,-2.8819,0.96062,-1.9114,-3.8425,-8.8907e-13,-0.95571,0,0,0.1,-0,-0,0.66667
0.059802,0.57533,0.59802,0.11299,14.947,822.57,-0.18019,0.060065,-1.9549,-0.24026,3.7577e-08,-0.97743,0,0,0.1,-0,-0,0.66667
0.63126,0.33956,6.3126,-0.24066,-19.175,164.4,4.0511,-1.3504,-1.792,5.4015,1.5152e-12,-0.89602,0,0,0.1,-9.4739e-16,0,0.66667
0.98405,0.019628,9.8405,-0.72056,-3.0084,2.8343,18.908,-6.3028,-0.15826,25.211,-1.1642e-05,-0.07913,0,0,0.1,-0,1.1065e-16,0.66667
0.11938,0.074443,1.1938,-0.63834,-83.796,743.16,2.0322,-0.6774,-0.54867,2.7096,1.5838e-07,-0.27433,0,0,0.1,2.3685e-16,0,0.66667
0.45157,0.058123,4.5157,-0.66282,-70.27,336.38,7.9815,-2.6605,-0.44077,10.642,-5.3682e-12,-0.22039,0,0,0.1,2.3685e-16,-5.7057e-17,0.66667
0.018534,0.92438,0.18534,0.63657,84.743,878.12,-0.31461,0.10487,-0.55914,-0.41948,5.6881e-06,-0.27957,0,0,0.1,-2.9606e-17,0,0.66667
0.68813,0.68056,6.8813,0.27084,18.875,120.85,-4.9699,1.6566,-1.7433,-6.6266,-9.3481e-13,-0.87166,0,0,0.1,-4.737e-16,0,0.66667
0.019423,0.87546,0.19423,0.56319,74.921,876.91,-0.2917,0.097236,-0.87268,-0.38893,5.1953e-06,-0.43634,0,0,0.1,5.9212e-17,0,0.66667
0.45527,0.64893,4.5527,0.2234,23.494,331.62,-2.7122,0.90406,-1.824,-3.6163,-1.785e-12,-0.91202,0,0,0.1,4.737e-16,0,0.66667
0.21915,0.61545,2.1915,0.17318,21.886,612.46,-1.0121,0.33735,-1.8977,-1.3494,3.3456e-11,-0.94883,0,0,0.1,2.3685e-16,0,0.66667
0.80722,0.053099,8.0722,-0.67035,-31.062,50.713,14.43,-4.8099,-0.40007,19.24,7.2457e-10,-0.20004,0,0,0.1,9.4739e-16,0,0.66667
0.64564,0.84299,6.4564,0.51448,39.844,153.43,-8.8579,2.9526,-1.0582,-11.81,1.0392e-12,-0.52909,0,0,0.1,1.1842e-16,0,0.66667
0.66627,0.77702,6.6627,0.41553,30.641,137.22,-7.3827,2.4609,-1.3844,-9.8437,6.1862e-13,-0.69218,0,0,0.1,-7.8973e-16,0,0.66667
0.54989,0.81526,5.4989,0.47289,43.82,236.52,-6.9344,2.3115,-1.2058,-9.2458,9.0861e-13,-0.60291,0,0,0.1,-1.8948e-15,0,0.66667
0.25045,0.29479,2.5045,-0.30782,-38.319,572.67,2.0558,-0.68526,-1.6671,2.741,-1.8147e-11,-0.83354,0,0,0.1,-4.737e-16,0,0.66667
0.81569,0.9147,8.1569,0.62205,27.642,46.524,-13.531,4.5102,-0.62412,-18.041,-1.6185e-09,-0.31206,0,0,0.1,-0,-0,0.66667
0.88012,0.77327,8.8012,0.40991,12.151,20.751,-9.6206,3.2069,-1.4007,-12.827,6.3173e-09,-0.70033,0,0,0.1,-0,-0,0.66667
0.43832,0.8791,4.3832,0.56865,61.112,350.48,-6.6466,2.2155,-0.85444,-8.8622,-8.5132e-13,-0.42722,0,0,0.1,-9.4739e-16,0,0.66667
0.58633,0.74113,5.8633,0.3617,31.485,202.9,-5.6554,1.8851,-1.5319,-7.5405,-2.3013e-12,-0.76595,0,0,0.1,4.737e-16,0,0.66667
0.6243,0.18345,6.243,-0.47483,-38.469,170.58,7.905,-2.635,-1.2027,10.54,3.4359e-12,-0.60137,0,0,0.1,-1.1842e-15,-1.9932e-18,0.66667
0.72761,0.10077,7.2761,-0.59884,-37.448,94.967,11.619,-3.8731,-0.72232,15.492,1.444e-11,-0.36116,0,0,0.1,-0,-0,0.66667
0.5909,0.60245,5.909,0.15368,13.25,198.57,-2.4215,0.80717,-1.9164,-3.2287,6.0774e-13,-0.95819,0,0,0.1,-0,-0,0.66667
0.8066,0.035633,8.066,-0.69655,-32.394,51.137,14.982,-4.9941,-0.27299,19.976,3.354e-10,-0.1365,0,0,0.1,-0,-0,0.66667
0.82409,0.10417,8.2409,-0.59375,-25.273,42.624,13.048,-4.3493,-0.74535,17.397,8.9609e-10,-0.37267,0,0,0.1,-0,-0,0.66667
0.55655,0.97893,5.5655,0.71839,66.082,231,-10.662,3.554,-0.1624,-14.216,-3.2427e-12,-0.0812,0,0,0.1,-0,-0,0.66667
0.88295,0.62833,8.8295,0.1925,5.5518,19.357,-4.5324,1.5108,-1.866,-6.0433,1.0909e-08,-0.93301,0,0,0.1,-1.8948e-15,0,0.66667
0.20294,0.6236,2.0294,0.18541,23.601,633.34,-1.0034,0.33445,-1.8837,-1.3378,-2.4813e-11,-0.94183,0,0,0.1,5.9212e-17,0,0.66667
0.41362,0.76532,4.1362,0.39798,43.819,377.45,-4.3896,1.4632,-1.4336,-5.8528,-2.311e-12,-0.7168,0,0,0.1,9.4739e-16,0,0.66667
0.63011,0.75902,6.3011,0.38853,31.07,165.6,-6.5284,2.1761,-1.4613,-8.7046,3.1974e-14,-0.73063,0,0,0.1,-0,-0,0.66667
0.10257,0.91683,1.0257,0.62525,82.378,765.5,-1.7102,0.57007,-0.60705,-2.2803,1.2697e-07,-0.30352,0,0,0.1,-0,-0,0.66667
0.71864,0.8183,7.1864,0.47745,30.617,100.36,-9.1498,3.0499,-1.1948,-12.2,-2.2924e-12,-0.5974,0,0,0.1,-0,4.0794e-18,0.66667
0.47968,0.89464,4.7968,0.59196,60.637,306.48,-7.5721,2.524,-0.7522,-10.096,4.8805e-13,-0.3761,0,0,0.1,-0,-0,0.66667
0.37899,0.21618,3.7899,-0.42573,-48.443,416.86,4.3027,-1.4342,-1.3554,5.7369,-9.3729e-12,-0.67771,0,0,0.1,-5.9212e-16,0,0.66667
0.45185,0.012101,4.5185,-0.73185,-77.637,336.27,8.8182,-2.9394,-0.098135,11.758,-2.3848e-12,-0.049067,0,0,0.1,-0,1.124e-16,0.66667
0.36759,0.15763,3.6759,-0.51356,-59.063,430.24,5.034,-1.678,-1.0604,6.7121,-3.3777e-12,-0.53021,0,0,0.1,-0,-0,0.66667
0.23954,0.15483,2.3954,-0.51776,-64.915,586.67,3.3073,-1.1024,-1.0459,4.4097,-3.7975e-11,-0.52295,0,0,0.1,5.3876e-16,0,0.66667
0.91587,0.59212,9.1587,0.13818,2.8918,10.441,-3.3749,1.125,-1.9306,-4.4999,3.8631e-08,-0.96532,0,0,0.1,-2.6053e-15,0,0.66667
0.79936,0.081268,7.9936,-0.6281,-30.125,54.328,13.389,-4.4629,-0.59788,17.852,-4.2187e-10,-0.29894,0,0,0.1,-0,-0,0.66667
0.33394,0.58875,3.3394,0.13313,15.696,469.65,-1.1855,0.39518,-1.935,-1.5807,-1.0538e-11,-0.96751,0,0,0.1,7.1054e-16,0,0.66667
0.16905,0.84906,1.6905,0.52359,67.66,677.61,-2.3603,0.78678,-1.0261,-3.1471,-1.6705e-09,-0.51303,0,0,0.1,4.737e-16,0,0.66667
0.11663,0.21968,1.1663,-0.42048,-55.134,746.7,1.3077,-0.4359,-1.3696,1.7436,8.3124e-09,-0.68482,0,0,0.1,-4.737e-16,0,0.66667
0.79533,0.52872,7.9533,0.043074,2.0853,54.947,-0.91355,0.30452,-1.9966,-1.2181,-4.9607e-11,-0.99828,0,0,0.1,9.4739e-16,0,0.66667
0.70203,0.63458,7.0203,0.20186,13.541,110.97,-3.779,1.2597,-1.8581,-5.0387,-2.8031e-12,-0.92905,0,0,0.1,-0,-0,0.66667
0.075233,0.23456,0.75233,-0.39815,-52.62,801.92,0.79878,-0.26626,-1.4363,1.065,1.4251e-07,-0.71815,0,0,0.1,1.1842e-16,0,0.66667
0.11659,0.94458,1.1659,0.66687,87.626,746.88,-2.0734,0.69114,-0.41606,-2.7646,-8.6294e-08,-0.20803,0,0,0.1,-0,-0,0.66667
0.9138,0.083089,9.138,-0.62537,-13.644,12.431,15.239,-5.0797,-0.60638,20.319,-1.1948e-07,-0.30319,0,0,0.1,9.4739e-16,0,0.66667
0.86977,0.14118,8.6977,-0.53824,-17.322,24.596,12.484,-4.1613,-0.96757,16.645,-4.127e-09,-0.48378,0,0,0.1,1.8948e-15,0,0.66667
0.29195,0.079273,2.9195,-0.63109,-76.866,521.23,4.9133,-1.6378,-0.58175,6.5511,8.7526e-12,-0.29088,0,0,0.1,-4.737e-16,0,0.66667
0.102,0.12575,1.02,-0.56138,-73.927,766.22,1.5269,-0.50898,-0.87778,2.0359,-2.559e-08,-0.43889,0,0,0.1,-0,-0,0.66667
0.80889,0.6429,8.0889,0.21435,9.7649,48.467,-4.6235,1.5412,-1.8358,-6.1647,4.4035e-11,-0.91788,0,0,0.1,-0,-0,0.66667
0.026174,0.61649,0.26174,0.17474,23.186,867.8,-0.12196,0.040655,-1.8895,-0.16262,3.2425e-07,-0.94475,0,0,0.1,2.9606e-17,0,0.66667
0.63635,0.81808,6.3635,0.47713,37.69,160.75,-8.0965,2.6988,-1.1897,-10.795,-6.6613e-14,-0.59484,0,0,0.1,-0,-0,0.66667
0.16009,0.3699,1.6009,-0.19515,-25.247,689.19,0.83309,-0.2777,-1.8642,1.1108,1.0174e-09,-0.9321,0,0,0.1,2.3685e-16,0,0.66667
0.69162,0.84504,6.9162,0.51757,35.841,118.95,-9.5456,3.1819,-1.0475,-12.728,-4.6319e-12,-0.52376,0,0,0.1,-0,-0,0.66667
0.16802,0.53761,1.6802,0.056421,7.2777,678.76,-0.25279,0.084265,-1.9881,-0.33706,3.7049e-10,-0.99404,0,0,0.1,-4.737e-16,0,0.66667
0.34905,0.76668,3.4905,0.40002,46.671,451.86,-3.7234,1.2411,-1.4286,-4.9645,-2.9885e-12,-0.71431,0,0,0.1,-0,-0,0.66667
0.12209,0.43894,1.2209,-0.091597,-11.978,739.36,0.29821,-0.099403,-1.9715,0.39761,-6.9106e-10,-0.98575,0,0,0.1,4.737e-16,0,0.66667
0.28709,0.0035861,2.8709,-0.74462,-91.094,527.43,5.7006,-1.9002,-0.026838,7.6007,-1.3065e-12,-0.013419,0,0,0.1,-0,-0,0.66667
0.1291,0.82795,1.291,0.49192,64.333,730.19,-1.6935,0.56449,-1.1382,-2.258,-6.9366e-09,-0.56908,0,0,0.1,-0,-0,0.66667
0.46339,0.60416,4.6339,0.15624,16.272,322.92,-1.9307,0.64357,-1.9109,-2.5743,-2.4484e-12,-0.95545,0,0,0.1,-0,-0,0.66667
0.64941,0.9215,6.4941,0.63225,48.642,150.85,-10.949,3.6497,-0.57553,-14.599,6.1284e-13,-0.28777,0,0,0.1,-9.4739e-16,0,0.66667
0.39451,0.77,3.9451,0.40499,45.427,399.03,-4.2606,1.4202,-1.4157,-5.6809,-4.5217e-12,-0.70786,0,0,0.1,-0,-0,0.66667
0.95296,0.16314,9.5296,-0.50529,-6.0285,4.652,12.84,-4.2802,-1.0973,17.121,-8.4639e-07,-0.54863,0,0,0.1,-0,-0,0.66667
0.75487,0.80105,7.5487,0.45157,25.733,77.731,-9.0899,3.03,-1.273,-12.12,-1.5783e-12,-0.63649,0,0,0.1,-0,-0,0.66667
0.54438,0.34144,5.4438,-0.23784,-22.19,241.35,3.4527,-1.1509,-1.8006,4.6036,9.972e-13,-0.90029,0,0,0.1,-1.4211e-15,0,0.66667
0.56352,0.57896,5.6352,0.11844,10.71,223.28,-1.7798,0.59328,-1.953,-2.3731,-8.7341e-13,-0.9765,0,0,0.1,-9.4739e-16,0,0.66667
0.3206,0.8383,3.206,0.50745,60.545,486.05,-4.3384,1.4461,-1.0819,-5.7846,-2.1925e-12,-0.54094,0,0,0.1,-4.7012e-17,0,0.66667
0.51252,0.96563,5.1252,0.69845,68.611,273.38,-9.5459,3.182,-0.26624,-12.728,-5.5485e-12,-0.13312,0,0,0.1,9.4739e-16,-4.2512e-17,0.66667
0.75781,0.73982,7.5781,0.35973,20.258,75.76,-7.2695,2.4232,-1.5368,-9.6927,-1.9516e-11,-0.76841,0,0,0.1,-9.4739e-16,0,0.66667
0.0018096,0.16617,0.018096,-0.50075,-66.604,900.62,0.024162,-0.0080539,-1.1102,0.032216,1.4958e-07,-0.5551,0,0,0.1,-0,2.0525e-16,0.66667
0.48059,0.64674,4.8059,0.22011,22.452,304.9,-2.8209,0.94029,-1.8269,-3.7612,-8.733e-13,-0.91344,0,0,0.1,-0,-0,0.66667
0.90416,0.62556,9.0416,0.18833,4.4799,13.357,-4.5409,1.5136,-1.8766,-6.0545,3.0745e-08,-0.93828,0,0,0.1,-3.7896e-15,0,0.66667
0.8495,0.90819,8.495,0.61228,22.605,32.233,-13.87,4.6234,-0.66565,-18.494,-9.5106e-09,-0.33283,0,0,0.1,-0,-0,0.66667
0.221,0.75037,2.21,0.37556,47.465,610.2,-2.2132,0.73775,-1.501,-2.951,3.373e-11,-0.75049,0,0,0.1,-9.4739e-16,0,0.66667
0.73624,0.14126,7.3624,-0.53811,-32.705,89.29,10.565,-3.5216,-0.97189,14.086,1.9669e-11,-0.48595,0,0,0.1,-0,-0,0.66667
0.58487,0.63432,5.8487,0.20148,17.566,203.96,-3.1425,1.0475,-1.8528,-4.1899,-6.9722e-14,-0.9264,0,0,0.1,-0,-0,0.66667
0.52554,0.11453,5.2554,-0.57821,-55.665,260.19,8.1032,-2.7011,-0.80878,10.804,7.1232e-13,-0.40439,0,0,0.1,-4.737e-16,0,0.66667
0.66144,0.4526,6.6144,-0.071098,-5.2912,140.39,1.2541,-0.41802,-1.9797,1.6721,-1.8412e-12,-0.98983,0,0,0.1,-0,-0,0.66667
0.63207,0.60237,6.3207,0.15356,12.209,163.64,-2.5883,0.86277,-1.9133,-3.4511,-3.9702e-13,-0.95665,0,0,0.1,-0,-0,0.66667
0.071417,0.045138,0.71417,-0.68229,-90.44,807.13,1.2994,-0.43313,-0.3417,1.7325,3.7353e-06,-0.17085,0,0,0.1,-1.1842e-16,0,0.66667
0.41684,0.78662,4.1684,0.42994,47.196,373.89,-4.7791,1.593,-1.3413,-6.3721,-2.2418e-12,-0.67063,0,0,0.1,9.4739e-16,0,0.66667
0.1993,0.095559,1.993,-0.60666,-77.553,638.35,3.2242,-1.0747,-0.69159,4.2989,2.6283e-09,-0.3458,0,0,0.1,-0,-0,0.66667
0.70058,0.52862,7.0058,0.042923,2.8892,111.85,-0.80191,0.2673,-1.9951,-1.0692,-1.1119e-12,-0.99753,0,0,0.1,9.4739e-16,0,0.66667
0.27331,0.28183,2.7331,-0.32726,-40.22,543.97,2.3851,-0.79505,-1.6175,3.1802,-1.2343e-11,-0.80876,0,0,0.1,-0,-0,0.66667
0.43642,0.72147,4.3642,0.33221,35.702,352.14,-3.8662,1.2887,-1.6115,-5.155,-1.9909e-12,-0.80576,0,0,0.1,-9.4739e-16,0,0.66667
0.82163,0.66364,8.2163,0.24545,10.506,42.648,-5.3779,1.7926,-1.7832,-7.1705,2.3213e-10,-0.8916,0,0,0.1,-0,-0,0.66667
0.78306,0.18049,7.8306,-0.47927,-24.553,62.084,10.008,-3.336,-1.1853,13.344,-4.6776e-11,-0.59266,0,0,0.1,9.4739e-16,0,0.66667
0.85416,0.57525,8.5416,0.11288,4.0055,29.095,-2.5712,0.85705,-1.9524,-3.4282,1.2967e-09,-0.97618,0,0,0.1,-0,-0,0.66667
0.47905,0.26242,4.7905,-0.35636,-36.45,306.66,4.5525,-1.5175,-1.5461,6.07,-2.9772e-12,-0.77304,0,0,0.1,-0,-0,0.66667
0.92649,0.15387,9.2649,-0.5192,-9.6452,9.1787,12.828,-4.2759,-1.0408,17.103,-1.8101e-07,-0.52042,0,0,0.1,-0,-0,0.66667
0.031555,0.93274,0.31555,0.64911,86.366,860.61,-0.5462,0.18207,-0.50699,-0.72827,9.8273e-06,-0.25349,0,0,0.1,2.9606e-17,0,0.66667
0.93828,0.7027,9.3828,0.30404,4.7013,6.2339,-7.6075,2.5358,-1.6746,-10.143,9.0713e-08,-0.83731,0,0,0.1,-0,-0,0.66667
0.34863,0.066985,3.4863,-0.64952,-75.982,452.76,6.0385,-2.0128,-0.49872,8.0513,1.3101e-13,-0.24936,0,0,0.1,-0,-0,0.66667
0.81282,0.82677,8.1282,0.49016,22.012,47.318,-10.624,3.5414,-1.15,-14.166,3.3172e-11,-0.57499,0,0,0.1,-0,-0,0.66667
0.94832,0.039593,9.4832,-0.69061,-9.2101,6.242,17.465,-5.8215,-0.30249,23.286,4.9943e-06,-0.15124,0,0,0.1,-0,-6.3635e-17,0.66667
0.89181,0.40842,8.9181,-0.13737,-3.6713,16.65,3.2669,-1.089,-1.9367,4.3559,-1.0535e-08,-0.96837,0,0,0.1,-0,-0,0.66667
0.69802,0.9162,6.9802,0.62431,42.571,114.84,-11.621,3.8736,-0.61211,-15.494,-4.9649e-13,-0.30606,0,0,0.1,-0,-0,0.66667
0.67018,0.22221,6.7018,-0.41668,-30.436,134.28,7.4467,-2.4822,-1.3854,9.9289,-1.1657e-12,-0.69271,0,0,0.1,-0,-0,0.66667
0.97358,0.6843,9.7358,0.27645,1.7828,1.6276,-7.1773,2.3924,-1.7272,-9.5698,-7.2287e-07,-0.86362,0,0,0.1,-1.8546e-16,0,0.66667
0.46511,0.43215,4.6511,-0.10177,-10.576,321.06,1.2622,-0.42075,-1.963,1.683,-9.8666e-13,-0.98148,0,0,0.1,-0,-0,0.66667
0.10402,0.46534,1.0402,-0.051992,-6.8271,763.39,0.14422,-0.048072,-1.989,0.19229,-1.4363e-08,-0.99448,0,0,0.1,-1.7764e-16,0,0.66667
0.024147,0.41298,0.24147,-0.13053,-17.32,870.52,0.084054,-0.028018,-1.9368,0.11207,-2.0795e-07,-0.96838,0,0,0.1,5.9212e-17,0,0.66667
0.8813,0.92694,8.813,0.64042,18.967,21.331,-15.051,5.0169,-0.53895,-20.068,1.6625e-07,-0.26947,0,0,0.1,9.4739e-16,0,0.66667
0.026191,0.433,0.26191,-0.1005,-13.333,867.77,0.070189,-0.023397,-1.9627,0.093585,-5.0428e-07,-0.98134,0,0,0.1,-1.4803e-17,0,0.66667
0.95083,0.058909,9.5083,-0.66164,-8.3768,5.7176,16.776,-5.592,-0.44529,22.368,-2.1815e-06,-0.22264,0,0,0.1,-1.8948e-15,0,0.66667
0.56992,0.88755,5.6992,0.58133,52.199,218.22,-8.8349,2.945,-0.79522,-11.78,-5.0271e-13,-0.39761,0,0,0.1,9.4739e-16,0,0.66667
0.65757,0.77338,6.5757,0.41007,30.867,143.84,-7.1906,2.3969,-1.4049,-9.5875,5.6666e-13,-0.70244,0,0,0.1,-4.737e-16,0,0.66667
0.90917,0.27292,9.0917,-0.34062,-7.7178,12.422,8.2582,-2.7527,-1.5878,11.011,-4.0865e-08,-0.79388,0,0,0.1,9.4739e-16,0,0.66667
0.90195,0.84431,9.0195,0.51647,12.683,14.857,-12.422,4.1407,-1.0515,-16.563,4.7339e-08,-0.52577,0,0,0.1,-0,-0,0.66667
0.39086,0.59887,3.9086,0.1483,16.67,402.95,-1.5457,0.51525,-1.927,-2.061,-8.9138e-12,-0.96348,0,0,0.1,9.4739e-16,0,0.66667
0.61254,0.039673,6.1254,-0.69049,-57.461,181.1,11.279,-3.7596,-0.30476,15.038,8.2689e-13,-0.15238,0,0,0.1,-0,-0,0.66667
0.52184,0.63292,5.2184,0.19938,19.237,263.13,-2.7745,0.92485,-1.8561,-3.6994,-1.6687e-12,-0.92806,0,0,0.1,-0,-0,0.66667
0.81704,0.11365,8.1704,-0.57953,-25.552,45.721,12.627,-4.2089,-0.80411,16.836,1.2783e-09,-0.40206,0,0,0.1,-0,-0,0.66667
0.056183,0.87675,0.56183,0.56513,74.97,827.51,-0.84668,0.28223,-0.86281,-1.1289,4.1298e-07,-0.43141,0,0,0.1,-0,-0,0.66667
0.62698,0.98826,6.2698,0.73239,59.246,169.24,-12.245,4.0817,-0.094161,-16.327,-2.216e-12,-0.047081,0,0,0.1,-0,-0,0.66667
0.42974,0.92015,4.2974,0.63022,68.404,360.01,-7.2222,2.4074,-0.58453,-9.6296,-1.6382e-12,-0.29227,0,0,0.1,-0,-0,0.66667
0.86093,0.77428,8.6093,0.41142,14.029,27.209,-9.4454,3.1485,-1.4006,-12.594,4.5294e-09,-0.70032,0,0,0.1,9.4739e-16,0,0.66667
0.68787,0.75936,6.8787,0.38905,27.163,121.27,-7.1363,2.3788,-1.4662,-9.5151,-1.2084e-12,-0.73311,0,0,0.1,-0,-0,0.66667
0.26102,0.80646,2.6102,0.45969,56.948,559.47,-3.1997,1.0666,-1.2474,-4.2663,5.57e-12,-0.6237,0,0,0.1,2.3685e-16,0,0.66667
0.13424,0.024918,1.3424,-0.71262,-93.264,723.55,2.551,-0.85032,-0.19197,3.4013,7.3131e-08,-0.095987,0,0,0.1,-0,-0,0.66667
0.54134,0.32024,5.4134,-0.26964,-25.28,244.28,3.8925,-1.2975,-1.7393,5.19,-2.6865e-12,-0.86966,0,0,0.1,-0,-0,0.66667
0.9819,0.96711,9.819,0.70066,3.2993,2.8331,-18.346,6.1154,-0.25631,-24.461,-9.1478e-06,-0.12816,0,0,0.1,-3.2834e-16,0,0.66667
0.34991,0.32517,3.4991,-0.26224,-30.55,450.7,2.4469,-0.81564,-1.7526,3.2626,-5.6462e-12,-0.87632,0,0,0.1,-0,-0,0.66667
0.99541,0.68646,9.9541,0.27969,0.20095,0.43918,-7.4243,2.4748,-1.7214,-9.8991,8.6778e-07,-0.86072,0,0,0.1,5.9212e-16,0,0.66667
0.51808,0.83483,5.1808,0.50225,48.831,267.33,-6.9387,2.3129,-1.104,-9.2516,-3.3933e-12,-0.55199,0,0,0.1,-0,-0,0.66667
0.19034,0.60302,1.9034,0.15453,19.771,649.66,-0.78432,0.26144,-1.9154,-1.0458,-4.9532e-11,-0.9577,0,0,0.1,-0,-0,0.66667
0.030616,0.62382,0.30616,0.18574,24.64,861.82,-0.15164,0.050546,-1.8824,-0.20218,3.2592e-07,-0.9412,0,0,0.1,-8.1416e-17,0,0.66667
0.30302,0.21196,3.0302,-0.43206,-52.15,507.35,3.4913,-1.1638,-1.3339,4.6551,-2.9563e-12,-0.66695,0,0,0.1,2.3685e-16,0,0.66667
0.035078,0.79402,0.35078,0.44102,58.562,855.84,-0.41254,0.13751,-1.3073,-0.55005,1.0722e-07,-0.65367,0,0,0.1,-0,-0,0.66667
0.59005,0.69449,5.9005,0.29174,25.211,199.49,-4.5904,1.5301,-1.6969,-6.1205,-1.6587e-12,-0.84844,0,0,0.1,-0,-0,0.66667
0.70162,0.70425,7.0162,0.30638,20.592,111.42,-5.7323,1.9108,-1.6683,-7.6431,-1.9167e-12,-0.83414,0,0,0.1,-9.4739e-16,0,0.66667
0.66999,0.56748,6.6999,0.10121,7.3795,133.94,-1.8083,0.60278,-1.9658,-2.4111,6.104e-13,-0.98288,0,0,0.1,-0,-0,0.66667
0.35621,0.52222,3.5621,0.033323,3.8599,443.15,-0.31653,0.10551,-1.996,-0.42204,-5.2939e-12,-0.99798,0,0,0.1,-0,-0,0.66667
0.11164,0.33141,1.1164,-0.25288,-33.166,753.26,0.75287,-0.25096,-1.7735,1.0038,1.9191e-08,-0.88676,0,0,0.1,-0,-0,0.66667
0.64132,0.80213,6.4132,0.4532,35.406,156.69,-7.7506,2.5835,-1.2734,-10.334,-1.1235e-13,-0.63669,0,0,0.1,-0,-0,0.66667
0.063197,0.15304,0.63197,-0.52045,-68.958,818.08,0.87709,-0.29236,-1.0415,1.1695,1.4702e-07,-0.52074,0,0,0.1,1.4803e-16,0,0.66667
0.64436,0.39764,6.4436,-0.15354,-11.886,153.75,2.6383,-0.87943,-1.9155,3.5177,-1.7739e-12,-0.95773,0,0,0.1,-0,-0,0.66667
0.83529,0.12214,8.3529,-0.56679,-22.703,37.713,12.625,-4.2083,-0.85569,16.833,4.2329e-10,-0.42785,0,0,0.1,-2.3685e-16,0,0.66667
0.057159,0.43351,0.57159,-0.099729,-13.197,826.12,0.15201,-0.050671,-1.9631,0.20268,-1.0088e-07,-0.98156,0,0,0.1,1.2266e-16,0,0.66667
0.35587,0.93599,3.5587,0.65399,76.064,444.23,-6.2063,2.0688,-0.47987,-8.275,2.5571e-12,-0.23994,0,0,0.1,-1.1842e-16,1.0727e-16,0.66667
0.61872,0.37724,6.1872,-0.18414,-15.053,174.69,3.0382,-1.0127,-1.8777,4.051,-3.5048e-12,-0.93886,0,0,0.1,1.8948e-15,0,0.66667
0.6386,0.96193,6.386,0.6929,54.651,159.65,-11.8,3.9332,-0.29467,-15.733,7.9758e-13,-0.14734,0,0,0.1,-9.4739e-16,0,0.66667
0.19794,0.37041,1.9794,-0.19438,-24.796,639.81,1.026,-0.342,-1.8642,1.368,3.4552e-11,-0.93208,0,0,0.1,-2.3807e-16,0,0.66667
0.62336,0.9519,6.2336,0.67785,55.188,172,-11.268,3.756,-0.3681,-15.024,-1.2346e-12,-0.18405,0,0,0.1,-0,-0,0.66667
0.55754,0.80246,5.5754,0.45369,41.52,229.31,-6.7454,2.2485,-1.2662,-8.9939,-1.9136e-12,-0.63308,0,0,0.1,4.737e-16,0,0.66667
0.88572,0.99214,8.8572,0.73821,21.198,20.515,-17.436,5.8119,-0.060673,-23.248,1.0137e-08,-0.030337,0,0,0.1,-9.4739e-16,0,0.66667
0.69703,0.2449,6.9703,-0.38265,-26.067,114.78,7.1125,-2.3708,-1.4773,9.4833,-1.3349e-12,-0.73864,0,0,0.1,-0,-0,0.66667
0.36426,0.31484,3.6426,-0.27775,-31.979,433.82,2.6979,-0.89931,-1.7248,3.5972,-5.9623e-12,-0.8624,0,0,0.1,-0,-0,0.66667
0.22535,0.15108,2.2535,-0.52338,-66.083,604.76,3.1451,-1.0484,-1.0237,4.1935,-1.8571e-11,-0.51187,0,0,0.1,-1.0342e-16,0,0.66667
0.61091,0.73881,6.1091,0.35821,29.775,181.54,-5.8355,1.9452,-1.5459,-7.7807,1.0947e-12,-0.77294,0,0,0.1,-0,-0,0.66667
0.25557,0.89698,2.5557,0.59547,74.082,566.5,-4.0582,1.3527,-0.73693,-5.4109,-2.3197e-11,-0.36847,0,0,0.1,2.3685e-16,0,0.66667
0.075813,0.71899,0.75813,0.32849,43.392,801.13,-0.6641,0.22137,-1.6187,-0.88547,-1.1394e-07,-0.80937,0,0,0.1,-0,-0,0.66667
0.8227,0.6044,8.227,0.1566,6.6603,42.037,-3.4356,1.1452,-1.9105,-4.5809,2.5935e-10,-0.95523,0,0,0.1,-0,-0,0.66667
0.22795,0.71192,2.2795,0.31788,40.03,601.26,-1.9323,0.64411,-1.6382,-2.5764,2.6347e-11,-0.81911,0,0,0.1,-2.3685e-16,0,0.66667
0.37955,0.3177,3.7955,-0.27345,-31.069,416.04,2.7676,-0.92255,-1.733,3.6902,-3.7832e-12,-0.86652,0,0,0.1,-0,-0,0.66667
0.84649,0.95893,8.4649,0.68839,25.954,33.771,-15.539,5.1797,-0.31548,-20.719,1.005e-09,-0.15774,0,0,0.1,-9.4739e-16,0,0.66667
0.10315,0.53457,1.0315,0.051858,6.8107,764.55,-0.14265,0.047548,-1.9886,-0.19019,1.3518e-08,-0.99428,0,0,0.1,-0,-0,0.66667
0.96939,0.034086,9.6939,-0.69887,-5.5637,3.7745,18.066,-6.022,-0.26816,24.088,3.285e-05,-0.13408,0,0,0.1,-0,-0,0.66667
0.52282,0.72581,5.2282,0.33872,32.66,262.33,-4.7224,1.5741,-1.5893,-6.2966,-2.6219e-12,-0.79467,0,0,0.1,-0,-0,0.66667
0.67334,0.94224,6.7334,0.66336,48.263,132.73,-11.911,3.9704,-0.43831,-15.881,5.9419e-13,-0.21916,0,0,0.1,-0,-0,0.66667
0.73153,0.051846,7.3153,-0.67223,-41.589,92.774,13.114,-4.3712,-0.39345,17.485,1.5294e-12,-0.19672,0,0,0.1,-9.4739e-16,0,0.66667
0.98098,0.20338,9.8098,-0.44493,-2.0671,1.612,11.639,-3.8797,-1.2954,15.519,1.9499e-06,-0.64772,0,0,0.1,-3.0565e-15,0,0.66667
0.55276,0.046745,5.5276,-0.67988,-62.883,234.41,10.022,-3.3405,-0.35369,13.362,1.2506e-12,-0.17685,0,0,0.1,-0,-0,0.66667
0.69972,0.90663,6.9972,0.60995,41.387,113.6,-11.381,3.7937,-0.67814,-15.175,3.6451e-12,-0.33907,0,0,0.1,-1.8948e-15,0,0.66667
0.68269,0.78343,6.8269,0.42514,30.098,125.09,-7.7397,2.5799,-1.3565,-10.32,1.4033e-13,-0.67827,0,0,0.1,-0,-0,0.66667
0.63023,0.75449,6.3023,0.38173,30.516,165.48,-6.4154,2.1385,-1.4804,-8.5539,-2.3803e-13,-0.74018,0,0,0.1,-0,-0,0.66667
0.79934,0.48237,7.9934,-0.026446,-1.2577,52.938,0.56371,-0.1879,-1.9981,0.75161,-1.0115e-11,-0.99903,0,0,0.1,-0,-0,0.66667
0.34565,0.64796,3.4565,0.22194,25.938,455.72,-2.0457,0.6819,-1.8266,-2.7276,-5.2971e-12,-0.91331,0,0,0.1,-0,-0,0.66667
0.48189,0.93812,4.8189,0.65718,67.187,304.37,-8.445,2.815,-0.46649,-11.26,-1.2799e-12,-0.23325,0,0,0.1,-0,9.2021e-18,0.66667
0.078123,0.46139,0.78123,-0.057908,-7.6404,798,0.12064,-0.040213,-1.9934,0.16085,-2.9062e-08,-0.9967,0,0,0.1,1.1842e-16,0,0.66667
0.91011,0.19459,9.1011,-0.45811,-10.321,12.574,11.118,-3.7061,-1.2531,14.824,-2.1198e-08,-0.62656,0,0,0.1,1.8948e-15,0,0.66667
0.55923,0.050662,5.5923,-0.67401,-61.687,228.36,10.051,-3.3504,-0.38433,13.402,4.3521e-14,-0.19216,0,0,0.1,2.8513e-16,-1.1147e-16,0.66667
0.52499,0.16856,5.2499,-0.49716,-47.855,260.52,6.96,-2.32,-1.1183,9.28,-7.1498e-14,-0.55915,0,0,0.1,-0,-0,0.66667
0.26695,0.35196,2.6695,-0.22206,-27.38,551.85,1.5808,-0.52694,-1.8274,2.1078,-1.3633e-11,-0.91369,0,0,0.1,-0,-0,0.66667
0.89999,0.16742,8.9999,-0.49887,-12.477,15.303,11.973,-3.991,-1.1123,15.964,-4.8959e-08,-0.55614,0,0,0.1,-0,-0,0.66667
0.013914,0.98328,0.13914,0.72492,96.61,884.34,-0.26894,0.089623,-0.13337,-0.3586,-3.6504e-05,-0.066683,0,0,0.1,-2.9606e-17,1.1784e-16,0.66667
0.097001,0.59699,0.97001,0.14549,19.134,772.76,-0.37633,0.12544,-1.9253,-0.50178,-2.4009e-08,-0.96265,0,0,0.1,-0,-0,0.66667
0.060075,0.82778,0.60075,0.49167,65.155,822.26,-0.78765,0.26255,-1.1411,-1.0502,-1.8872e-08,-0.57054,0,0,0.1,-0,-0,0.66667
0.24092,0.83077,2.4092,0.49615,62.151,584.89,-3.1876,1.0625,-1.1217,-4.2501,2.711e-11,-0.56087,0,0,0.1,-0,-0,0.66667
0.49685,0.89628,4.9685,0.59442,59.562,288.84,-7.8757,2.6252,-0.74352,-10.501,-6.6214e-13,-0.37176,0,0,0.1,4.737e-16,0,0.66667
0.46352,0.045407,4.6352,-0.68189,-71.315,323.68,8.4286,-2.8095,-0.34439,11.238,1.9078e-12,-0.17219,0,0,0.1,-9.4739e-16,0,0.66667
0.27055,0.65899,2.7055,0.23849,29.346,547.36,-1.7206,0.57352,-1.7968,-2.2941,9.7689e-13,-0.89839,0,0,0.1,-0,-0,0.66667
0.55511,0.72119,5.5511,0.33179,30.451,231.34,-4.9115,1.6372,-1.6065,-6.5486,1.4539e-12,-0.80327,0,0,0.1,-1.8948e-15,0,0.66667
0.22734,0.9578,2.2734,0.6867,86.763,602.42,-4.163,1.3877,-0.3203,-5.5506,1.9275e-10,-0.16015,0,0,0.1,2.3685e-16,0,0.66667
0.3657,0.53423,3.657,0.051345,5.9006,432.02,-0.50071,0.1669,-1.9888,-0.66761,-8.6408e-12,-0.99438,0,0,0.1,9.4739e-16,0,0.66667
0.16996,0.63352,1.6996,0.20028,25.824,676.24,-0.90774,0.30258,-1.8591,-1.2103,-5.7356e-10,-0.92955,0,0,0.1,-0,-0,0.66667
0.66427,0.8092,6.6427,0.46379,34.385,138.86,-8.2156,2.7385,-1.233,-10.954,1.6493e-12,-0.61649,0,0,0.1,-1.1842e-15,0,0.66667
0.081667,0.11209,0.81667,-0.58187,-76.93,793.37,1.2672,-0.4224,-0.79538,1.6896,9.6462e-09,-0.39769,0,0,0.1,-0,-0,0.66667
0.34329,0.38553,3.4329,-0.1717,-20.101,458.5,1.5718,-0.52395,-1.8993,2.0958,-4.5959e-12,-0.94964,0,0,0.1,-0,-0,0.66667
0.53103,0.68641,5.3103,0.27962,26.629,254.24,-3.9596,1.3199,-1.7279,-5.2794,-1.1744e-12,-0.86394,0,0,0.1,2.3685e-16,0,0.66667
0.54953,0.13679,5.4953,-0.54482,-50.556,237.04,7.9839,-2.6613,-0.94497,10.645,-1.3989e-12,-0.47249,0,0,0.1,-0,-0,0.66667
0.36765,0.89809,3.6765,0.59714,68.729,430.31,-5.8544,1.9515,-0.72931,-7.8059,-1.0587e-12,-0.36466,0,0,0.1,-4.737e-16,0,0.66667
0.64375,0.6384,6.4375,0.2076,16.097,154.29,-3.5638,1.1879,-1.8464,-4.7518,1.0441e-12,-0.92322,0,0,0.1,-0,-0,0.66667
0.16445,0.23775,1.6445,-0.39338,-50.866,683.55,1.7251,-0.57503,-1.4466,2.3001,5.8461e-10,-0.7233,0,0,0.1,-1.9475e-16,0,0.66667
0.7243,0.38051,7.243,-0.17923,-11.262,96.044,3.4618,-1.1539,-1.8839,4.6158,2.8904e-12,-0.94195,0,0,0.1,-0,-0,0.66667
0.92525,0.66774,9.2525,0.25161,4.6977,8.5837,-6.2081,2.0694,-1.7744,-8.2774,8.4298e-08,-0.88718,0,0,0.1,-0,-0,0.66667
0.98983,0.045843,9.8983,-0.68124,-1.7693,2.3232,17.981,-5.9939,-0.3474,23.975,-7.0693e-05,-0.1737,0,0,0.1,1.8948e-15,0,0.66667
0.87848,0.077268,8.7848,-0.6341,-19.194,22.182,14.855,-4.9515,-0.5696,19.806,-1.2837e-07,-0.2848,0,0,0.1,-0,-0,0.66667
0.26092,0.73009,2.6092,0.34514,42.727,559.5,-2.4014,0.80047,-1.5746,-3.2019,5.5254e-12,-0.7873,0,0,0.1,-0,-0,0.66667
0.038093,0.33015,0.38093,-0.25478,-33.79,851.76,0.25881,-0.08627,-1.7661,0.34508,-1.9583e-07,-0.88304,0,0,0.1,-0,-0,0.66667
0.97403,0.18866,9.7403,-0.46701,-3.0259,2.2038,12.13,-4.0434,-1.2236,16.173,3.0875e-06,-0.61179,0,0,0.1,-0,-0,0.66667
0.55712,0.2772,5.5712,-0.3342,-30.573,229.47,4.965,-1.655,-1.6013,6.62,7.212e-13,-0.80067,0,0,0.1,-9.4739e-16,0,0.66667
0.53971,0.13165,5.3971,-0.55252,-52.063,246.4,7.952,-2.6507,-0.9119,10.603,-1.4095e-12,-0.45595,0,0,0.1,-0,-0,0.66667
0.14646,0.18103,1.4646,-0.47846,-62.26,707.24,1.8687,-0.62289,-1.1839,2.4916,1.2278e-09,-0.59194,0,0,0.1,-2.3685e-16,0,0.66667
0.91249,0.54032,9.1249,0.060483,1.3146,11.167,-1.4717,0.49058,-1.9843,-1.9623,4.5762e-08,-0.99217,0,0,0.1,-0,-0,0.66667
0.95761,0.19209,9.5761,-0.46187,-4.9431,3.8704,11.794,-3.9315,-1.2406,15.726,-9.1076e-07,-0.62028,0,0,0.1,-0,-0,0.66667
0.85963,0.29768,8.5963,-0.30348,-10.414,27.383,6.9568,-2.3189,-1.6769,9.2757,-4.1015e-09,-0.83844,0,0,0.1,1.8948e-15,0,0.66667
0.69276,0.072768,6.9276,-0.64085,-44.338,118.59,11.839,-3.9463,-0.53757,15.785,5.8176e-13,-0.26878,0,0,0.1,-0,-0,0.66667
0.3859,0.10849,3.859,-0.58727,-66.509,409.19,6.0434,-2.0145,-0.77174,8.0579,-7.8657e-12,-0.38587,0,0,0.1,-0,-0,0.66667
0.92673,0.36692,9.2673,-0.19962,-3.6492,8.1856,4.933,-1.6443,-1.8566,6.5774,-7.1354e-08,-0.9283,0,0,0.1,-0,-0,0.66667
0.85447,0.47745,8.5447,-0.033828,-1.1976,28.936,0.7708,-0.25693,-1.9941,1.0277,-4.8461e-10,-0.99705,0,0,0.1,-0,-0,0.66667
0.83789,0.0019632,8.3789,-0.74706,-29.674,37.522,16.692,-5.564,-0.014206,22.256,-8.1488e-10,-0.0071028,0,0,0.1,-0,-0,0.66667
0.58406,0.01764,5.8406,-0.72354,-63.534,205.95,11.269,-3.7563,-0.13585,15.025,1.4424e-12,-0.067926,0,0,0.1,1.8948e-15,0,0.66667
0.069977,0.02375,0.69977,-0.71437,-94.745,809.07,1.3331,-0.44435,-0.18268,1.7774,3.3901e-06,-0.091342,0,0,0.1,-1.1842e-16,0,0.66667
0.025655,0.76683,0.25655,0.40025,53.164,868.51,-0.27382,0.091275,-1.4278,-0.36509,1.8354e-06,-0.7139,0,0,0.1,-0,-0,0.66667
0.2256,0.52562,2.256,0.038427,4.8405,604.16,-0.23118,0.07706,-1.9923,-0.30824,1.5355e-11,-0.99614,0,0,0.1,-0,-0,0.66667
0.092302,0.687,0.92302,0.28049,36.94,779.06,-0.6904,0.23013,-1.724,-0.92054,-4.2615e-08,-0.86199,0,0,0.1,1.7393e-16,0,0.66667
0.74511,0.67919,7.4511,0.26878,15.805,83.118,-5.3406,1.7802,-1.7414,-7.1207,-1.461e-11,-0.87068,0,0,0.1,-0,-0,0.66667
0.85106,0.74144,8.5106,0.36216,13.151,30.717,-8.219,2.7397,-1.5308,-10.959,2.2203e-09,-0.76538,0,0,0.1,-9.4739e-16,0,0.66667
0.54047,0.17388,5.4047,-0.48918,-46.007,245.51,7.0503,-2.3501,-1.1462,9.4004,-7.625e-13,-0.57309,0,0,0.1,-0,-0,0.66667
0.61127,0.96831,6.1127,0.70246,58.614,182.22,-11.451,3.8168,-0.24851,-15.267,-7.1676e-13,-0.12425,0,0,0.1,8.8818e-17,0,0.66667
0.47314,0.62937,4.7314,0.19405,19.976,312.66,-2.4483,0.81611,-1.8653,-3.2644,-6.759e-13,-0.93264,0,0,0.1,-0,-0,0.66667
0.93519,0.83149,9.3519,0.49723,8.1525,7.4255,-12.4,4.1334,-1.1218,-16.533,1.9545e-07,-0.56088,0,0,0.1,-1.1075e-15,0,0.66667
0.61281,0.19283,6.1281,-0.46075,-38.195,180.15,7.5294,-2.5098,-1.2452,10.039,-3.4506e-13,-0.6226,0,0,0.1,-0,-0,0.66667
0.62036,0.7915,6.2036,0.43725,35.695,173.75,-7.2334,2.4111,-1.3185,-9.6446,-2.1201e-12,-0.65924,0,0,0.1,1.8948e-15,0,0.66667
0.85801,0.91771,8.5801,0.62657,21.93,29.119,-14.336,4.7787,-0.60649,-19.115,-7.8094e-09,-0.30325,0,0,0.1,-0,1.1003e-16,0.66667
0.38374,0.13184,3.8374,-0.55224,-62.642,411.6,5.6511,-1.8837,-0.91302,7.5348,-2.9452e-12,-0.45651,0,0,0.1,-9.4739e-16,0,0.66667
0.06411,0.67409,0.6411,0.26114,34.542,816.8,-0.44645,0.14882,-1.7594,-0.59526,-7.7917e-08,-0.87971,0,0,0.1,-0,-0,0.66667
0.74015,0.34466,7.4015,-0.23301,-13.925,86.093,4.5989,-1.533,-1.8058,6.1319,9.8823e-12,-0.90288,0,0,0.1,-0,-0,0.66667
0.84419,0.26199,8.4419,-0.35702,-13.517,33.374,8.0371,-2.679,-1.5509,10.716,-1.4817e-09,-0.77543,0,0,0.1,-0,-0,0.66667
0.52023,0.13977,5.2023,-0.54035,-52.396,265.29,7.4962,-2.4987,-0.95996,9.9949,2.1698e-12,-0.47998,0,0,0.1,-0,-0,0.66667
0.46764,0.72691,4.6764,0.34036,35.299,318.6,-4.2445,1.4148,-1.5912,-5.6593,-1.199e-12,-0.7956,0,0,0.1,-0,-0,0.66667
0.098624,0.57044,0.98624,0.10566,13.891,770.59,-0.27789,0.092629,-1.9586,-0.37052,-2.1048e-08,-0.97929,0,0,0.1,-0,-0,0.66667
0.31326,0.64746,3.1326,0.22118,26.479,494.67,-1.8477,0.61589,-1.8297,-2.4636,-1.4884e-12,-0.91487,0,0,0.1,2.3685e-16,0,0.66667
0.18739,0.077767,1.8739,-0.63335,-81.375,653.81,3.1648,-1.0549,-0.57838,4.2198,4.4055e-10,-0.28919,0,0,0.1,-2.3685e-16,0,0.66667
0.74742,0.024789,7.4742,-0.71282,-41.907,83.164,14.207,-4.7358,-0.19436,18.943,-1.0432e-11,-0.097178,0,0,0.1,-0,-7.7691e-17,0.66667
0.16037,0.77034,1.6037,0.40551,52.51,688.91,-1.7341,0.57805,-1.414,-2.3122,-8.9899e-10,-0.70701,0,0,0.1,2.3685e-16,0,0.66667
0.68463,0.69572,6.8463,0.29358,20.652,123.4,-5.3599,1.7866,-1.6939,-7.1465,-2.3537e-14,-0.84695,0,0,0.1,-0,-0,0.66667
0.44067,0.24092,4.4067,-0.38862,-41.588,347.58,4.5667,-1.5222,-1.4629,6.089,-1.8989e-12,-0.73146,0,0,0.1,-4.737e-16,0,0.66667
0.0042513,0.93655,0.042513,0.65482,87.217,897.33,-0.074236,0.024748,-0.47538,-0.09898,4.2308e-06,-0.23769,0,0,0.1,9.2519e-19,2.8041e-17,0.66667
0.70234,0.12995,7.0234,-0.55508,-37.356,111.59,10.396,-3.4654,-0.90858,13.862,5.163e-12,-0.45429,0,0,0.1,-0,-6.6069e-17,0.66667
0.79289,0.32764,7.9289,-0.25855,-12.668,56.413,5.4667,-1.8222,-1.761,7.2889,3.1516e-11,-0.8805,0,0,0.1,-0,-0,0.66667
0.33849,0.31614,3.3849,-0.27579,-32.42,464.29,2.4894,-0.82979,-1.7282,3.3192,-1.3953e-12,-0.86408,0,0,0.1,9.4739e-16,0,0.66667
0.47734,0.20532,4.7734,-0.44202,-45.339,308.6,5.6264,-1.8755,-1.3021,7.5019,-4.5142e-12,-0.65107,0,0,0.1,3.8211e-16,0,0.66667
0.048717,0.11058,0.48717,-0.58413,-77.565,837.53,0.75885,-0.25295,-0.78829,1.0118,1.2713e-06,-0.39415,0,0,0.1,-5.9212e-17,0,0.66667
0.22657,0.15863,2.2657,-0.51205,-64.609,603.18,3.0938,-1.0313,-1.0657,4.125,3.2728e-11,-0.53285,0,0,0.1,-0,-0,0.66667
0.69626,0.28613,6.9626,-0.3208,-21.885,115.18,5.9562,-1.9854,-1.6317,7.9416,2.971e-12,-0.81587,0,0,0.1,-1.8948e-15,0,0.66667
0.14114,0.030166,1.4114,-0.70475,-92.047,714.43,2.6524,-0.88415,-0.23935,3.5366,4.5484e-08,-0.11968,0,0,0.1,-0,-0,0.66667
0.23059,0.78913,2.3059,0.43369,54.582,597.98,-2.6668,0.88893,-1.3305,-3.5557,2.1917e-11,-0.66527,0,0,0.1,-0,-0,0.66667
0.69479,0.574,6.9479,0.11099,7.5918,115.93,-2.0564,0.68548,-1.9531,-2.7419,-1.1313e-12,-0.97654,0,0,0.1,-0,-0,0.66667
0.068365,0.09101,0.68365,-0.61349,-81.297,811.19,1.1184,-0.37281,-0.6602,1.4912,3.2721e-07,-0.3301,0,0,0.1,-0,-0,0.66667
0.72933,0.67694,7.2933,0.2654,16.428,92.931,-5.1618,1.7206,-1.7475,-6.8824,-8.8884e-12,-0.87373,0,0,0.1,9.4739e-16,0,0.66667
0.62746,0.66786,6.2746,0.25179,20.224,167.52,-4.213,1.4043,-1.7752,-5.6174,-9.992e-13,-0.88762,0,0,0.1,-0,-0,0.66667
0.65207,0.26076,6.5207,-0.35886,-27.342,147.99,6.24,-2.08,-1.5408,8.32,2.3137e-13,-0.77038,0,0,0.1,-0,-0,0.66667
0.32147,0.049843,3.2147,-0.67524,-80.653,485.29,5.7884,-1.9295,-0.37582,7.7179,1.1342e-12,-0.18791,0,0,0.1,-0,-0,0.66667
0.53844,0.55079,5.3844,0.076179,7.1684,246.9,-1.0938,0.3646,-1.9762,-1.4584,-4.5803e-12,-0.98812,0,0,0.1,9.4739e-16,0,0.66667
0.078783,0.4845,0.78783,-0.023243,-3.0663,797.11,0.04883,-0.016277,-2.0016,0.065107,5.0457e-08,-1.0008,0,0,0.1,-0,-0,0.66667
0.28452,0.3005,2.8452,-0.29925,-36.523,530.02,2.2704,-0.7568,-1.6812,3.0272,-1.1509e-11,-0.84059,0,0,0.1,-4.737e-16,0,0.66667
0.20287,0.72393,2.0287,0.33589,42.785,633.51,-1.8171,0.60569,-1.6039,-2.4228,2.4527e-11,-0.80197,0,0,0.1,4.737e-16,0,0.66667
0.51135,0.74782,5.1135,0.37173,36.441,273.75,-5.0689,1.6896,-1.5083,-6.7585,-1.64e-12,-0.75417,0,0,0.1,-1.4211e-15,0,0.66667
0.65221,0.47814,6.5221,-0.032787,-2.4929,147.51,0.57023,-0.19008,-1.9951,0.76031,-2.1672e-12,-0.99753,0,0,0.1,-0,-0,0.66667
0.61509,0.40338,6.1509,-0.14493,-11.932,177.71,2.3772,-0.7924,-1.9238,3.1696,-2.536e-12,-0.96188,0,0,0.1,1.1842e-15,0,0.66667
0.13364,0.5529,1.3364,0.079344,10.344,724.04,-0.28275,0.094251,-1.9747,-0.377,-3.0492e-09,-0.98734,0,0,0.1,-1.1842e-16,0,0.66667
0.18016,0.45509,1.8016,-0.067359,-8.6507,662.9,0.3236,-0.10787,-1.9806,0.43147,1.4846e-10,-0.99032,0,0,0.1,-0,-0,0.66667
0.49726,0.89243,4.9726,0.58865,58.947,288.41,-7.8056,2.6019,-0.76815,-10.407,1.5459e-12,-0.38408,0,0,0.1,-9.4739e-16,0,0.66667
0.020049,0.61707,0.20049,0.1756,23.308,876.05,-0.093885,0.031295,-1.889,-0.12518,2.1625e-07,-0.94451,0,0,0.1,-2.9606e-17,0,0.66667
0.73614,0.27412,7.3614,-0.33883,-20.538,88.779,6.6513,-2.2171,-1.5939,8.8684,7.7502e-12,-0.79696,0,0,0.1,4.737e-16,0,0.66667
0.59242,0.081343,5.9242,-0.62799,-54.235,198.21,9.9209,-3.307,-0.60021,13.228,2.558e-12,-0.30011,0,0,0.1,-0,-0,0.66667
0.15883,0.34742,1.5883,-0.22888,-29.626,690.84,0.96942,-0.32314,-1.8151,1.2926,1.1854e-09,-0.90755,0,0,0.1,-0,-0,0.66667
0.91731,0.97515,9.1731,0.71273,15.026,12.108,-17.434,5.8115,-0.19257,-23.246,-2.1446e-07,-0.096283,0,0,0.1,1.8948e-15,-1.5203e-16,0.66667
0.54373,0.84745,5.4373,0.52117,48.788,242.48,-7.5566,2.5189,-1.0349,-10.076,-9.7122e-13,-0.51743,0,0,0.1,-0,-0,0.66667
0.99776,0.065581,9.9776,-0.65163,-0.29513,1.9214,17.338,-5.7793,-0.49225,23.117,3.7788e-05,-0.24613,0,0,0.1,-0,1.263e-16,0.66667
0.042324,0.2771,0.42324,-0.33435,-44.343,846.08,0.37736,-0.12579,-1.6016,0.50314,3.0354e-08,-0.8008,0,0,0.1,-7.4015e-17,0,0.66667
0.81295,0.48425,8.1295,-0.023619,-1.0542,46.395,0.51202,-0.17067,-2.002,0.6827,3.9371e-11,-1.001,0,0,0.1,-0,-0,0.66667
0.077381,0.34908,0.77381,-0.22638,-29.884,799.01,0.46714,-0.15571,-1.8219,0.62285,6.7145e-08,-0.91095,0,0,0.1,-0,-0,0.66667
0.94025,0.052189,9.4025,-0.67172,-10.306,7.3977,16.842,-5.614,-0.39606,22.456,6.5458e-06,-0.19803,0,0,0.1,-0,-0,0.66667
0.36144,0.74681,3.6144,0.37022,42.751,437.23,-3.5683,1.1894,-1.5149,-4.7577,-8.1952e-12,-0.75744,0,0,0.1,2.3685e-16,0,0.66667
0.66661,0.32439,6.6661,-0.26341,-19.38,136.66,4.6825,-1.5608,-1.751,6.2433,9.317e-13,-0.87549,0,0,0.1,-1.8948e-15,0,0.66667
0.71461,0.3643,7.1461,-0.20355,-13.171,102.44,3.8789,-1.293,-1.8514,5.1719,1.6229e-12,-0.92568,0,0,0.1,-9.4739e-16,0,0.66667
0.7131,0.18449,7.131,-0.47327,-30.848,104.03,8.9997,-2.9999,-1.2021,12,2.1627e-12,-0.60103,0,0,0.1,-2.3685e-16,0,0.66667
0.69395,0.019381,6.9395,-0.72093,-49.802,118.09,13.341,-4.447,-0.14911,17.788,-2.1689e-12,-0.074555,0,0,0.1,-0,-0,0.66667
0.01165,0.79441,0.1165,0.44162,58.707,887.37,-0.13719,0.04573,-1.3053,-0.18292,-9.7601e-07,-0.65264,0,0,0.1,-0,-0,0.66667
0.22048,0.35625,2.2048,-0.21562,-27.237,610.77,1.2677,-0.42258,-1.8364,1.6903,-4.1367e-11,-0.91821,0,0,0.1,4.737e-16,0,0.66667
0.79727,0.76274,7.9727,0.39411,18.98,54.517,-8.3791,2.793,-1.4518,-11.172,-4.9103e-11,-0.72592,0,0,0.1,-0,-0,0.66667
0.78697,0.43065,7.8697,-0.10403,-5.2206,59.268,2.1831,-0.7277,-1.9594,2.9108,5.4447e-11,-0.97968,0,0,0.1,-4.737e-16,0,0.66667
0.80166,0.25381,8.0166,-0.36928,-17.431,52.278,7.8944,-2.6315,-1.514,10.526,5.5447e-11,-0.75702,0,0,0.1,-0,-0,0.66667
0.0078286,0.73778,0.078286,0.35666,47.391,892.51,-0.074458,0.024819,-1.5445,-0.099278,-8.9032e-07,-0.77225,0,0,0.1,7.4015e-18,0,0.66667
0.041346,0.66354,0.41346,0.2453,32.523,847.38,-0.27046,0.090154,-1.7839,-0.36062,1.3431e-07,-0.89197,0,0,0.1,-0,-0,0.66667
0.073826,0.71318,0.73826,0.31977,42.25,803.79,-0.62952,0.20984,-1.6355,-0.83936,-1.2073e-07,-0.81776,0,0,0.1,-0,-0,0.66667
0.87375,0.85433,8.7375,0.53149,16.61,23.244,-12.384,4.1279,-0.99824,-16.512,1.924e-09,-0.49912,0,0,0.1,-0,-1.3574e-17,0.66667
0.47744,0.18345,4.7744,-0.47483,-48.713,308.55,6.0454,-2.0151,-1.1961,8.0605,-5.4623e-12,-0.59806,0,0,0.1,4.737e-16,0,0.66667
0.73172,0.38486,7.3172,-0.17272,-10.603,91.279,3.3701,-1.1234,-1.8944,4.4935,4.0101e-12,-0.94722,0,0,0.1,-0,-0,0.66667
0.21832,0.011827,2.1832,-0.73226,-92.961,614.02,4.2631,-1.421,-0.097575,5.6841,4.4066e-11,-0.048787,0,0,0.1,-0,-0,0.66667
0.66983,0.74717,6.6983,0.37076,27.091,134.44,-6.6225,2.2075,-1.5136,-8.83,1.1835e-12,-0.75678,0,0,0.1,-0,-0,0.66667
0.44403,0.31563,4.4403,-0.27655,-29.464,343.79,3.2746,-1.0915,-1.7261,4.3661,-1.5092e-12,-0.86305,0,0,0.1,-0,-0,0.66667
0.98864,0.26339,9.8864,-0.35492,-0.90835,0.88575,9.357,-3.119,-1.5505,12.476,-3.2346e-07,-0.77527,0,0,0.1,-1.8948e-15,0,0.66667
0.28625,0.46239,2.8625,-0.05642,-6.8735,527.76,0.43067,-0.14356,-1.9871,0.57423,-2.813e-12,-0.99353,0,0,0.1,-0,-0,0.66667
0.10849,0.67679,1.0849,0.26519,34.807,757.46,-0.76723,0.25574,-1.7532,-1.023,-2.3712e-08,-0.87662,0,0,0.1,-0,-0,0.66667
0.5469,0.11601,5.469,-0.57598,-53.689,239.61,8.4001,-2.8,-0.82554,11.2,-1.6467e-12,-0.41277,0,0,0.1,-0,-0,0.66667
0.68117,0.99277,6.8117,0.73916,52.813,127.3,-13.427,4.4755,-0.054907,-17.902,-1.3856e-12,-0.027453,0,0,0.1,-1.4211e-15,0,0.66667
0.13472,0.42222,1.3472,-0.11667,-15.207,722.61,0.41914,-0.13971,-1.9488,0.55885,4.1274e-09,-0.9744,0,0,0.1,7.7307e-17,0,0.66667
0.53924,0.84777,5.3924,0.52165,49.172,246.77,-7.5013,2.5004,-1.0301,-10.002,-1.0214e-13,-0.51506,0,0,0.1,-1.8948e-15,0,0.66667
0.74439,0.19068,7.4439,-0.46399,-27.417,84.025,9.2103,-3.0701,-1.233,12.28,1.7996e-11,-0.6165,0,0,0.1,-1.8948e-15,0,0.66667
0.11184,0.55352,1.1184,0.080277,10.523,752.97,-0.23942,0.079808,-1.9779,-0.31923,-9.2639e-09,-0.98896,0,0,0.1,-0,-0,0.66667
0.78567,0.93562,7.8567,0.65343,33.252,61.4,-13.69,4.5634,-0.48146,-18.254,1.0255e-09,-0.24073,0,0,0.1,1.4211e-15,0,0.66667
0.54416,0.41552,5.4416,-0.12671,-11.821,241.45,1.8387,-0.61291,-1.9434,2.4516,6.9567e-13,-0.97169,0,0,0.1,-9.4739e-16,0,0.66667
0.010525,0.60215,0.10525,0.15322,20.342,888.87,-0.043002,0.014334,-1.9146,-0.057336,-8.396e-08,-0.9573,0,0,0.1,2.9606e-17,0,0.66667
0.5891,0.8754,5.891,0.5631,48.881,200.94,-8.8458,2.9486,-0.87229,-11.794,1.8332e-12,-0.43615,0,0,0.1,-0,-0,0.66667
0.80467,0.79198,8.0467,0.43798,20.417,51.012,-9.398,3.1327,-1.3148,-12.531,-9.1018e-11,-0.65742,0,0,0.1,-0,-0,0.66667
0.99094,0.46195,9.9094,-0.05707,-0.1041,0.25165,1.5081,-0.5027,-1.9859,2.0108,1.0338e-06,-0.99294,0,0,0.1,5.8676e-16,0,0.66667
0.99131,0.64842,9.9131,0.22264,0.39527,0.44187,-5.8854,1.9618,-1.821,-7.8471,3.7583e-07,-0.9105,0,0,0.1,-0,-0,0.66667
0.41395,0.13027,4.1395,-0.55459,-61.128,377.35,6.122,-2.0407,-0.90387,8.1627,6.7724e-13,-0.45193,0,0,0.1,-0,-0,0.66667
0.037335,0.10977,0.37335,-0.58534,-77.803,852.83,0.58277,-0.19425,-0.77891,0.77702,4.1533e-06,-0.38945,0,0,0.1,1.4998e-17,0,0.66667
0.97041,0.53089,9.7041,0.04634,0.33328,1.5841,-1.1992,0.39972,-1.9958,-1.5989,1.1283e-06,-0.99788,0,0,0.1,1.0066e-15,0,0.66667
0.22054,0.39546,2.2054,-0.15682,-19.804,610.67,0.92225,-0.30742,-1.9143,1.2297,-2.7651e-11,-0.95714,0,0,0.1,-2.3685e-16,0,0.66667
0.95501,0.65072,9.5501,0.22608,2.5314,3.5123,-5.7576,1.9192,-1.8204,-7.6768,-1.0182e-07,-0.91019,0,0,0.1,-0,-0,0.66667
0.96537,0.38426,9.6537,-0.17361,-1.4795,2.2002,4.4692,-1.4897,-1.8925,5.9589,2.1718e-07,-0.94623,0,0,0.1,-1.8948e-15,0,0.66667
0.32834,0.055942,3.2834,-0.66609,-79.155,477,5.832,-1.944,-0.4275,7.776,-3.364e-12,-0.21375,0,0,0.1,4.737e-16,0,0.66667
0.76276,0.99924,7.6276,0.74887,41.756,74.373,-15.232,5.0774,-0.00757,-20.309,1.1631e-11,-0.003785,0,0,0.1,5.9212e-17,-1.1185e-17,0.66667
0.63192,0.10669,6.3192,-0.58996,-47.119,164.67,9.9416,-3.3139,-0.75934,13.255,-2.0162e-13,-0.37967,0,0,0.1,-9.4739e-16,0,0.66667
0.84643,0.89218,8.4643,0.58827,22.109,33.312,-13.278,4.426,-0.76981,-17.704,-5.1101e-09,-0.3849,0,0,0.1,-0,-0,0.66667
0.9544,0.37234,9.544,-0.19148,-2.171,3.5319,4.8734,-1.6245,-1.8732,6.4979,8.4348e-08,-0.93661,0,0,0.1,2.1316e-15,0,0.66667
0.2058,0.9087,2.058,0.61306,78.16,629.95,-3.3645,1.1215,-0.66513,-4.486,-4.0243e-10,-0.33256,0,0,0.1,4.737e-16,0,0.66667
0.40934,0.34792,4.0934,-0.22812,-25.199,382.04,2.4902,-0.83005,-1.8156,3.3202,-1.4555e-12,-0.90779,0,0,0.1,-0,-0,0.66667
0.72856,0.051773,7.2856,-0.67234,-41.985,94.662,13.062,-4.3541,-0.39016,17.416,-3.7392e-12,-0.19508,0,0,0.1,-0,-0,0.66667
0.58992,0.70393,5.8992,0.30589,26.443,199.63,-4.812,1.604,-1.6661,-6.416,3.7925e-13,-0.83307,0,0,0.1,-0,-0,0.66667
0.9412,0.40722,9.412,-0.13917,-2.0397,5.4341,3.4929,-1.1643,-1.9316,4.6572,-3.9579e-08,-0.96581,0,0,0.1,-3.7896e-15,0,0.66667
0.44689,0.077457,4.4689,-0.63381,-67.526,341.34,7.5532,-2.5177,-0.56871,10.071,-2.84e-12,-0.28436,0,0,0.1,-9.4739e-16,0,0.66667
0.61758,0.92022,6.1758,0.63033,51.881,176.64,-10.381,3.4603,-0.58408,-13.841,1.4966e-12,-0.29204,0,0,0.1,-9.4739e-16,0,0.66667
0.082488,0.1309,0.82488,-0.55365,-73.171,792.26,1.2179,-0.40595,-0.90908,1.6238,4.3888e-08,-0.45454,0,0,0.1,-0,-0,0.66667
0.23041,0.76424,2.3041,0.39636,49.875,598.17,-2.4353,0.81178,-1.4401,-3.2471,1.7297e-11,-0.72007,0,0,0.1,-0,-0,0.66667
0.12199,0.112,1.2199,-0.582,-76.31,739.67,1.8932,-0.63108,-0.79549,2.5243,1.4974e-08,-0.39775,0,0,0.1,-0,-2.0491e-17,0.66667
0.76669,0.71463,7.6669,0.32194,17.54,70.592,-6.5821,2.194,-1.6352,-8.7761,-2.6976e-11,-0.8176,0,0,0.1,-9.4739e-16,0,0.66667
0.019268,0.29361,0.19268,-0.30959,-41.114,877.1,0.15908,-0.053026,-1.6583,0.2121,-6.9098e-07,-0.82916,0,0,0.1,-0,-0,0.66667
0.941,0.45598,9.41,-0.066025,-0.96995,5.4043,1.6568,-0.55226,-1.9838,2.209,-1.1717e-07,-0.99188,0,0,0.1,-0,-0,0.66667
0.83589,0.039249,8.3589,-0.69113,-27.703,38.045,15.405,-5.1352,-0.29879,20.541,8.3361e-10,-0.1494,0,0,0.1,-0,-0,0.66667
0.67901,0.97084,6.7901,0.70627,50.705,128.73,-12.788,4.2628,-0.22451,-17.051,2.5517e-12,-0.11225,0,0,0.1,-0,-0,0.66667
0.02865,0.93276,0.2865,0.64913,86.385,864.51,-0.49594,0.16533,-0.50296,-0.66125,2.2854e-05,-0.25148,0,0,0.1,1.4803e-17,0,0.66667
0.2579,0.43741,2.579,-0.093888,-11.632,563.17,0.64569,-0.21523,-1.9671,0.86092,-9.5515e-12,-0.98353,0,0,0.1,1.7949e-16,0,0.66667
0.13628,0.84959,1.3628,0.52439,68.464,720.71,-1.9057,0.63524,-1.0213,-2.541,-9.9212e-09,-0.51063,0,0,0.1,-0,-0,0.66667
0.7107,0.32717,7.107,-0.25925,-16.974,105.14,4.9132,-1.6377,-1.7578,6.551,-3.8192e-13,-0.87888,0,0,0.1,9.4739e-16,0,0.66667
0.069466,0.086263,0.69466,-0.62061,-82.234,809.72,1.1496,-0.38321,-0.62785,1.5328,3.7978e-07,-0.31392,0,0,0.1,-5.9212e-17,0,0.66667
0.88989,0.4529,8.8989,-0.070649,-1.9194,17.152,1.6765,-0.55884,-1.9856,2.2354,-6.8273e-09,-0.99282,0,0,0.1,-0,-0,0.66667
0.55437,0.26041,5.5437,-0.35939,-33.03,232.08,5.3129,-1.771,-1.5377,7.0839,-1.4717e-12,-0.76884,0,0,0.1,-0,-0,0.66667
0.10339,0.14302,1.0339,-0.53547,-70.48,764.36,1.4763,-0.49211,-0.97771,1.9684,1.3549e-08,-0.48886,0,0,0.1,-0,-0,0.66667
0.46053,0.62673,4.6053,0.1901,19.867,325.98,-2.3345,0.77818,-1.8696,-3.1127,7.8737e-13,-0.9348,0,0,0.1,-1.8948e-15,0,0.66667
0.14199,0.44494,1.4199,-0.082593,-10.743,713.01,0.31272,-0.10424,-1.9785,0.41696,2.3341e-09,-0.98924,0,0,0.1,-0,-0,0.66667
0.42314,0.39424,4.2314,-0.15863,-17.276,366.59,1.79,-0.59667,-1.913,2.3867,-1.4967e-12,-0.95652,0,0,0.1,-0,-0,0.66667
0.71387,0.435,7.1387,-0.097497,-6.3189,102.83,1.856,-0.61867,-1.9653,2.4747,3.6071e-13,-0.98264,0,0,0.1,4.737e-16,0,0.66667
0.69629,0.95678,6.9629,0.68517,46.998,116.29,-12.722,4.2407,-0.32775,-16.963,1.6493e-12,-0.16387,0,0,0.1,-9.4739e-16,0,0.66667
0.34815,0.67045,3.4815,0.25567,29.825,452.78,-2.3736,0.79121,-1.7659,-3.1648,-7.2307e-12,-0.88294,0,0,0.1,4.737e-16,0,0.66667
0.34876,0.60419,3.4876,0.15629,18.217,451.99,-1.4535,0.48451,-1.9111,-1.938,-4.2962e-12,-0.95555,0,0,0.1,-0,-0,0.66667
0.076125,0.95097,0.76125,0.67645,89.597,800.83,-1.3732,0.45773,-0.3743,-1.8309,-2.3869e-06,-0.18715,0,0,0.1,-1.1842e-16,0,0.66667
0.087513,0.65898,0.87513,0.23848,31.428,785.45,-0.55652,0.18551,-1.796,-0.74203,-4.729e-08,-0.898,0,0,0.1,-2.3685e-16,0,0.66667
0.049881,0.17337,0.49881,-0.48995,-65,835.95,0.65171,-0.21724,-1.1463,0.86895,3.5342e-07,-0.57315,0,0,0.1,5.9212e-17,0,0.66667
0.074476,0.088519,0.74476,-0.61722,-81.724,803.01,1.2258,-0.40861,-0.64525,1.6344,4.8416e-07,-0.32263,0,0,0.1,-0,3.3188e-18,0.66667
0.38509,0.84141,3.8509,0.51212,57.998,409.98,-5.259,1.753,-1.0661,-7.012,-1.3749e-12,-0.53307,0,0,0.1,1.1842e-16,0,0.66667
0.81637,0.95834,8.1637,0.68751,30.51,46.524,-14.967,4.989,-0.31839,-19.956,2.5974e-09,-0.1592,0,0,0.1,-9.4739e-16,0,0.66667
0.34118,0.49237,3.4118,-0.01145,-1.3423,460.97,0.10418,-0.034725,-2.0004,0.1389,-2.9526e-12,-1.0002,0,0,0.1,-7.1054e-16,0,0.66667
0.50612,0.15198,5.0612,-0.52203,-51.617,279.29,7.0455,-2.3485,-1.0291,9.394,-2.891e-13,-0.51454,0,0,0.1,-1.7401e-16,0,0.66667
0.62349,0.73148,6.2349,0.34721,28.139,170.96,-5.7729,1.9243,-1.5734,-7.6972,6.2528e-13,-0.78671,0,0,0.1,-0,-0,0.66667
0.58529,0.71946,5.8529,0.3292,28.702,203.77,-5.138,1.7127,-1.613,-6.8507,-2.5064e-12,-0.80651,0,0,0.1,-0,-0,0.66667
0.13388,0.96206,1.3388,0.69309,90.697,724.01,-2.4743,0.82478,-0.28941,-3.2991,-4.9005e-08,-0.14471,0,0,0.1,2.3685e-16,0,0.66667
0.61941,0.69096,6.1941,0.28644,23.396,174.24,-4.7313,1.5771,-1.7067,-6.3084,3.4603e-12,-0.85335,0,0,0.1,-1.8948e-15,0,0.66667
0.52236,0.29755,5.2236,-0.30367,-29.293,262.74,4.23,-1.41,-1.669,5.64,-1.5374e-12,-0.8345,0,0,0.1,-6.1859e-16,0,0.66667
0.75148,0.084566,7.5148,-0.62315,-36.053,80.346,12.488,-4.1625,-0.62168,16.65,1.2776e-10,-0.31084,0,0,0.1,-0,-0,0.66667
0.67568,0.23686,6.7568,-0.39471,-28.435,130.15,7.112,-2.3707,-1.445,9.4827,-8.753e-13,-0.72248,0,0,0.1,-0,-0,0.66667
0.47896,0.36711,4.7896,-0.19933,-20.373,306.58,2.5459,-0.84863,-1.8566,3.3945,-3.116e-12,-0.92831,0,0,0.1,-0,-0,0.66667
0.95613,0.64978,9.5613,0.22466,2.4511,3.3639,-5.7282,1.9094,-1.8209,-7.6376,-1.1004e-07,-0.91046,0,0,0.1,4.737e-16,0,0.66667
0.26092,0.3591,2.6092,-0.21135,-26.149,559.42,1.4706,-0.49018,-1.8392,1.9607,-1.7709e-11,-0.91959,0,0,0.1,-0,-0,0.66667
0.71065,0.80208,7.1065,0.45312,29.737,105.61,-8.5869,2.8623,-1.2669,-11.449,-6.0103e-12,-0.63345,0,0,0.1,9.4739e-16,0,0.66667
0.20164,0.60542,2.0164,0.15812,20.138,635.01,-0.85025,0.28342,-1.9133,-1.1337,2.8744e-11,-0.95664,0,0,0.1,-0,-0,0.66667
0.66362,0.81815,6.6362,0.47722,35.442,139.39,-8.4452,2.8151,-1.1877,-11.26,8.2867e-13,-0.59385,0,0,0.1,-0,-0,0.66667
0.24952,0.23314,2.4952,-0.4003,-49.883,573.91,2.6635,-0.88782,-1.4342,3.5513,-1.9982e-11,-0.71708,0,0,0.1,-0,-0,0.66667
0.20625,0.31008,2.0625,-0.28489,-36.227,629.11,1.5669,-0.52229,-1.7123,2.0891,-4.4212e-11,-0.85615,0,0,0.1,-0,-0,0.66667
0.37017,0.025093,3.7017,-0.71236,-81.926,427.63,7.0319,-2.344,-0.19424,9.3758,-9.7868e-12,-0.097118,0,0,0.1,4.737e-16,0,0.66667
0.50886,0.39287,5.0886,-0.16069,-15.788,275.99,2.1805,-0.72683,-1.9051,2.9073,-4.6956e-12,-0.95254,0,0,0.1,9.4739e-16,0,0.66667
0.68093,0.94056,6.8093,0.66084,47.172,127.15,-12,3.9999,-0.44526,-15.999,2.2009e-12,-0.22263,0,0,0.1,-0,-0,0.66667
0.3096,0.69843,3.096,0.29764,35.735,499.19,-2.4573,0.8191,-1.6851,-3.2764,-1.6853e-12,-0.84255,0,0,0.1,-0,-0,0.66667
0.38234,0.014758,3.8234,-0.72786,-82.837,413.6,7.421,-2.4737,-0.11307,9.8947,2.1481e-12,-0.056536,0,0,0.1,-0,-0,0.66667
0.76093,0.98273,7.6093,0.7241,40.616,75.294,-14.693,4.8976,-0.1338,-19.591,-2.6485e-12,-0.066901,0,0,0.1,-0,-0,0.66667
0.33003,0.69773,3.3003,0.29659,35.092,474.44,-2.6103,0.87009,-1.6888,-3.4803,-2.125e-12,-0.8444,0,0,0.1,-0,-0,0.66667
0.063799,0.90406,0.63799,0.60609,80.36,817.3,-1.0311,0.34372,-0.69754,-1.3749,3.3144e-07,-0.34877,0,0,0.1,1.4803e-16,0,0.66667
0.046104,0.46968,0.46104,-0.045476,-6.0242,840.97,0.055911,-0.018637,-1.9975,0.074547,-4.5147e-07,-0.99874,0,0,0.1,-0,-0,0.66667
0.13493,0.090602,1.3493,-0.6141,-80.271,722.56,2.2095,-0.73651,-0.65755,2.946,2.6163e-09,-0.32877,0,0,0.1,-2.9606e-16,0,0.66667
0.46952,0.8339,4.6952,0.50085,51.896,316.91,-6.2708,2.0903,-1.1117,-8.3611,2.8422e-14,-0.55584,0,0,0.1,-0,-0,0.66667
0.3841,0.41569,3.841,-0.12647,-14.303,410.69,1.2954,-0.4318,-1.9403,1.7272,-7.2109e-13,-0.97017,0,0,0.1,-0,-0,0.66667
0.6752,0.17222,6.752,-0.49167,-35.506,130.76,8.8527,-2.9509,-1.1399,11.804,-2.1201e-12,-0.56994,0,0,0.1,9.4739e-16,0,0.66667
0.095395,0.35155,0.95395,-0.22268,-29.302,774.92,0.56646,-0.18882,-1.8259,0.75528,3.6398e-08,-0.91296,0,0,0.1,-0,-0,0.66667
0.1618,0.388,1.618,-0.168,-21.72,686.93,0.72487,-0.24162,-1.8971,0.96649,7.2618e-10,-0.94855,0,0,0.1,-0,-0,0.66667
0.96914,0.34178,9.6914,-0.23733,-1.7981,1.9361,6.1334,-2.0445,-1.8051,8.1779,4.1717e-07,-0.90255,0,0,0.1,-9.4739e-16,0,0.66667
0.42449,0.22941,4.2449,-0.40589,-44.2,365.37,4.5945,-1.5315,-1.4147,6.126,1.334e-12,-0.70736,0,0,0.1,-0,-0,0.66667
0.91605,0.32726,9.1605,-0.25911,-5.4239,10.596,6.3297,-2.1099,-1.7585,8.4396,-5.5435e-08,-0.87926,0,0,0.1,-1.8948e-15,0,0.66667
0.23435,0.3619,2.3435,-0.20714,-25.991,593.04,1.2945,-0.4315,-1.8523,1.726,-2.7571e-11,-0.92614,0,0,0.1,-0,-0,0.66667
0.98255,0.069165,9.8255,-0.64625,-2.8843,2.4749,16.933,-5.6442,-0.51706,22.577,-1.392e-06,-0.25853,0,0,0.1,-0,-0,0.66667
0.12649,0.55562,1.2649,0.083424,10.897,733.52,-0.28139,0.093797,-1.9778,-0.37519,-2.4384e-09,-0.98892,0,0,0.1,-0,-0,0.66667
0.77992,0.33681,7.7992,-0.24479,-12.658,63.167,5.0911,-1.697,-1.7898,6.7882,3.4775e-11,-0.8949,0,0,0.1,-9.4739e-16,0,0.66667
0.98063,0.98689,9.8063,0.73033,3.7134,3.0961,-19.098,6.3661,-0.10247,-25.464,-2.317e-05,-0.051237,0,0,0.1,1.8948e-15,0,0.66667
0.48703,0.91383,4.8703,0.62075,63.02,298.96,-8.0619,2.6873,-0.63067,-10.749,1.8066e-12,-0.31534,0,0,0.1,-0,-0,0.66667
0.48989,0.0087591,4.8989,-0.73686,-74.655,296.37,9.6261,-3.2087,-0.067213,12.835,-2.1281e-12,-0.033607,0,0,0.1,-0,-0,0.66667
0.17515,0.1629,1.7515,-0.50564,-65.19,669.63,2.3616,-0.78721,-1.091,3.1489,8.9783e-11,-0.54548,0,0,0.1,-4.737e-16,0,0.66667
0.60894,0.28507,6.0894,-0.32239,-26.893,183.14,5.2352,-1.7451,-1.6354,6.9802,-2.037e-12,-0.8177,0,0,0.1,1.8948e-15,0,0.66667
0.24288,0.012775,2.4288,-0.73084,-91.675,582.72,4.7335,-1.5778,-0.097737,6.3114,2.0682e-11,-0.048868,0,0,0.1,-0,-0,0.66667
0.7168,0.099254,7.168,-0.60112,-38.843,102.01,11.49,-3.83,-0.71724,15.32,7.0859e-12,-0.35862,0,0,0.1,-1.8948e-15,7.2414e-17,0.66667
0.47407,0.30264,4.7407,-0.29604,-30.455,311.79,3.7424,-1.2475,-1.6862,4.9899,-4.9081e-12,-0.84309,0,0,0.1,4.737e-16,0,0.66667
0.23239,0.26393,2.3239,-0.35411,-44.504,595.62,2.1944,-0.73147,-1.5554,2.9259,-3.4552e-11,-0.77771,0,0,0.1,-0,-0,0.66667
0.46068,0.37624,4.6068,-0.18563,-19.397,325.81,2.2805,-0.76016,-1.8757,3.0406,-4.917e-12,-0.93783,0,0,0.1,-0,-0,0.66667
0.024607,0.50149,0.24607,0.002233,0.29625,869.9,-0.0014653,0.00049127,-1.9983,-0.0019523,4.2684e-06,-0.99914,0,0,0.1,-0,-0,0.66667
0.097131,0.43378,0.97131,-0.099325,-13.061,772.58,0.25727,-0.085756,-1.9653,0.34302,1.7164e-08,-0.98263,0,0,0.1,-0,-0,0.66667
0.10145,0.42528,1.0145,-0.11208,-14.726,766.81,0.30322,-0.10107,-1.9521,0.40429,2.1775e-08,-0.97607,0,0,0.1,-0,-0,0.66667
0.38922,0.12442,3.8922,-0.56338,-63.594,405.34,5.8474,-1.9491,-0.87527,7.7965,-3.6291e-12,-0.43764,0,0,0.1,-6.5133e-16,0,0.66667
0.71597,0.010907,7.1597,-0.73364,-47.658,103.12,14.007,-4.669,-0.08655,18.676,3.9506e-12,-0.043275,0,0,0.1,-3.7896e-15,1.0763e-16,0.66667
0.052882,0.3437,0.52882,-0.23445,-31.049,831.87,0.33062,-0.11021,-1.8034,0.44082,-1.4286e-08,-0.90171,0,0,0.1,5.5742e-17,0,0.66667
0.012488,0.55875,0.12488,0.088124,11.697,886.23,-0.029346,0.0097818,-1.973,-0.039129,-4.5636e-07,-0.9865,0,0,0.1,-1.8504e-17,0,0.66667
0.14747,0.85479,1.4747,0.53219,69.261,705.95,-2.0929,0.69762,-0.98996,-2.7905,2.8781e-10,-0.49498,0,0,0.1,-2.3685e-16,0,0.66667
0.93668,0.72859,9.3668,0.34288,5.4485,6.6204,-8.5645,2.8548,-1.5854,-11.419,1.2939e-07,-0.79272,0,0,0.1,-0,-0,0.66667
0.86574,0.22478,8.6574,-0.41283,-13.621,25.518,9.5306,-3.1769,-1.3917,12.707,-6.3654e-09,-0.69584,0,0,0.1,-0,-0,0.66667
0.40252,0.88777,4.0252,0.58166,64.854,390.25,-6.2434,2.0811,-0.79606,-8.3246,-2.4842e-12,-0.39803,0,0,0.1,-0,-0,0.66667
0.16129,0.76328,1.6129,0.39492,51.12,687.69,-1.6986,0.56621,-1.4432,-2.2649,-8.351e-10,-0.72162,0,0,0.1,-2.3685e-16,0,0.66667
0.35482,0.79219,3.5482,0.43828,50.912,445.09,-4.147,1.3823,-1.3153,-5.5293,-4.5968e-12,-0.65765,0,0,0.1,9.4739e-16,0,0.66667
0.93483,0.33782,9.3483,-0.24327,-3.9628,6.7085,6.0644,-2.0215,-1.7905,8.0858,-7.1923e-08,-0.89525,0,0,0.1,1.4211e-15,0,0.66667
0.64355,0.88129,6.4355,0.57194,44.536,155.27,-9.8152,3.2717,-0.83743,-13.087,-5.7465e-13,-0.41872,0,0,0.1,-0,-0,0.66667
0.47107,0.8897,4.7107,0.58454,60.51,315.46,-7.3429,2.4476,-0.78585,-9.7906,1.1822e-12,-0.39292,0,0,0.1,-9.4739e-16,0,0.66667
0.40237,0.24072,4.0237,-0.38892,-43.294,390.09,4.173,-1.391,-1.4613,5.564,-9.5035e-13,-0.73063,0,0,0.1,-0,-0,0.66667
0.89655,0.85186,8.9655,0.52779,13.651,16.351,-12.618,4.2061,-1.0072,-16.824,2.8384e-08,-0.50358,0,0,0.1,-0,-0,0.66667
0.97347,0.04841,9.7347,-0.67739,-4.6554,3.2909,17.584,-5.8614,-0.36654,23.446,4.4053e-05,-0.18327,0,0,0.1,-0,-0,0.66667
0.77868,0.38502,7.7868,-0.17247,-8.9575,63.733,3.5813,-1.1938,-1.8948,4.7751,3.0457e-11,-0.94742,0,0,0.1,-0,-0,0.66667
0.83334,0.52676,8.3334,0.040142,1.612,37.342,-0.89206,0.29735,-1.9928,-1.1894,-3.8744e-10,-0.99638,0,0,0.1,-9.4739e-16,0,0.66667
0.30709,0.11486,3.0709,-0.57771,-69.627,502.58,4.7309,-1.577,-0.81102,6.3079,-2.2409e-12,-0.40551,0,0,0.1,2.3685e-16,0,0.66667
0.93952,0.32229,9.3952,-0.26656,-4.0334,5.9326,6.6784,-2.2261,-1.7488,8.9045,-6.0151e-08,-0.8744,0,0,0.1,-0,-0,0.66667
0.4527,0.30996,4.527,-0.28506,-30.076,334.44,3.4412,-1.1471,-1.7163,4.5883,-4.5912e-12,-0.85814,0,0,0.1,2.5245e-16,0,0.66667
0.17931,0.46583,1.7931,-0.05126,-6.5852,664,0.2451,-0.0817,-1.9885,0.3268,2.9978e-10,-0.99426,0,0,0.1,2.9606e-16,0,0.66667
0.5963,0.74654,5.963,0.36981,31.612,194.14,-5.8806,1.9602,-1.5152,-7.8407,1.9291e-12,-0.75759,0,0,0.1,-1.4211e-15,0,0.66667
0.6841,0.58017,6.841,0.12026,8.4618,123.56,-2.1938,0.73127,-1.9479,-2.9251,-2.3292e-13,-0.97396,0,0,0.1,-0,-0,0.66667
0.43734,0.13403,4.3734,-0.54895,-59.045,351.5,6.4021,-2.134,-0.93339,8.5361,-3.3813e-12,-0.4667,0,0,0.1,-0,1.0726e-16,0.66667
0.37334,0.74478,3.7334,0.36716,41.969,423.33,-3.6554,1.2185,-1.5232,-4.8739,-6.4138e-12,-0.7616,0,0,0.1,-4.737e-16,0,0.66667
0.70431,0.47125,7.0431,-0.04312,-2.8723,109.28,0.80987,-0.26996,-1.9972,1.0798,-1.2926e-12,-0.99858,0,0,0.1,-0,-0,0.66667
0.25974,0.13312,2.5974,-0.55031,-68.277,561.19,3.8117,-1.2706,-0.92082,5.0823,-5.8553e-11,-0.46041,0,0,0.1,-0,-0,0.66667
0.68635,0.86072,6.8635,0.54109,38.008,122.79,-9.9033,3.3011,-0.96167,-13.204,1.0267e-12,-0.48083,0,0,0.1,-9.4739e-16,-3.4942e-17,0.66667
0.57492,0.71539,5.7492,0.32308,28.685,213.07,-4.9532,1.6511,-1.6295,-6.6043,-5.671e-13,-0.81473,0,0,0.1,-0,-0,0.66667
0.33501,0.38039,3.3501,-0.17942,-21.139,468.39,1.6028,-0.53427,-1.8831,2.1371,9.4968e-13,-0.94156,0,0,0.1,-9.4739e-16,0,0.66667
0.67669,0.88759,6.7669,0.58139,41.886,129.95,-10.491,3.4971,-0.79617,-13.988,-2.4638e-12,-0.39808,0,0,0.1,1.8948e-15,0,0.66667
0.042896,0.13669,0.42896,-0.54496,-72.378,845.34,0.62338,-0.20779,-0.94284,0.83117,2.8395e-06,-0.47142,0,0,0.1,-0,-0,0.66667
0.54883,0.72644,5.4883,0.33966,31.49,237.27,-4.9711,1.657,-1.5915,-6.6281,-1.481e-12,-0.79576,0,0,0.1,-0,-0,0.66667
0.5956,0.042348,5.956,-0.68648,-58.996,195.64,10.903,-3.6344,-0.32604,14.537,-1.954e-13,-0.16302,0,0,0.1,-0,-0,0.66667
0.28722,0.63992,2.8722,0.20988,25.562,526.61,-1.6075,0.53583,-1.8406,-2.1433,1.1733e-12,-0.92028,0,0,0.1,-0,-0,0.66667
0.35628,0.8629,3.5628,0.54435,63.217,443.53,-5.1718,1.7239,-0.94619,-6.8958,-2.9936e-12,-0.47309,0,0,0.1,-0,-0,0.66667
0.86302,0.97445,8.6302,0.71167,24.174,27.759,-16.378,5.4594,-0.19891,-21.838,8.0894e-08,-0.099457,0,0,0.1,1.8948e-15,0,0.66667
0.61937,0.28437,6.1937,-0.32345,-26.429,174.34,5.3423,-1.7808,-1.6265,7.123,-9.0949e-13,-0.81323,0,0,0.1,-0,-0,0.66667
0.63994,0.61974,6.3994,0.17961,14.042,157.3,-3.0651,1.0217,-1.8895,-4.0869,7.5184e-13,-0.94477,0,0,0.1,-0,-0,0.66667
0.10461,0.96779,1.0461,0.70168,92.482,762.83,-1.9574,0.65247,-0.24888,-2.6099,-9.2438e-07,-0.12444,0,0,0.1,2.8126e-16,0,0.66667
0.23792,0.6579,2.3792,0.23685,29.668,588.51,-1.5027,0.5009,-1.8011,-2.0036,2.4874e-11,-0.90053,0,0,0.1,-0,-0,0.66667
0.71928,0.009716,7.1928,-0.73543,-47.309,100.94,14.106,-4.702,-0.081005,18.808,-4.4666e-12,-0.040503,0,0,0.1,-0,-0,0.66667
0.69947,0.16882,6.9947,-0.49677,-33.667,113.39,9.266,-3.0887,-1.1216,12.355,-1.3829e-12,-0.56082,0,0,0.1,1.8948e-15,0,0.66667
0.44662,0.39028,4.4662,-0.16458,-17.475,340.88,1.9601,-0.65337,-1.9006,2.6135,-1.2857e-12,-0.95032,0,0,0.1,-0,-0,0.66667
0.039252,0.45917,0.39252,-0.06124,-8.1173,850.19,0.064102,-0.021367,-1.9836,0.085469,-3.9326e-07,-0.99182,0,0,0.1,-0,-0,0.66667
0.050396,0.52244,0.50396,0.033667,4.4579,835.2,-0.045245,0.015082,-1.9955,-0.060327,3.2446e-08,-0.99773,0,0,0.1,-0,-0,0.66667
0.088504,0.63435,0.88504,0.20153,26.55,784.12,-0.47562,0.15854,-1.8535,-0.63416,-3.6254e-08,-0.92674,0,0,0.1,-0,-0,0.66667
0.86433,0.31429,8.6433,-0.27857,-9.2547,25.653,6.4207,-2.1402,-1.7232,8.5609,-5.5548e-09,-0.86162,0,0,0.1,3.7896e-15,0,0.66667
0.13609,0.1409,1.3609,-0.53865,-70.338,720.96,1.9549,-0.65163,-0.96652,2.6065,4.1406e-09,-0.48326,0,0,0.1,2.3685e-16,0,0.66667
0.65826,0.20135,6.5826,-0.44797,-33.68,143.4,7.8636,-2.6212,-1.2877,10.485,6.3061e-14,-0.64385,0,0,0.1,-9.4739e-16,0,0.66667
0.57697,0.18307,5.7697,-0.47539,-42.119,211.54,7.3143,-2.4381,-1.1999,9.7524,4.6185e-14,-0.59997,0,0,0.1,2.3685e-16,0,0.66667
0.7266,0.93175,7.266,0.64763,40.666,95.811,-12.548,4.1828,-0.50612,-16.731,-4.9374e-12,-0.25306,0,0,0.1,4.737e-16,0,0.66667
0.58257,0.65481,5.8257,0.23222,20.332,206.06,-3.6076,1.2025,-1.8079,-4.8101,6.7102e-13,-0.90395,0,0,0.1,-1.1842e-15,0,0.66667
0.17942,0.46234,1.7942,-0.056495,-7.2574,663.86,0.2703,-0.0901,-1.986,0.3604,2.5686e-10,-0.99299,0,0,0.1,1.1842e-16,0,0.66667
0.73408,0.64469,7.3408,0.21704,13.228,89.846,-4.2487,1.4162,-1.8369,-5.665,-8.9297e-12,-0.91844,0,0,0.1,-0,-0,0.66667
0.59544,0.12312,5.9544,-0.56531,-48.508,195.37,8.9764,-2.9921,-0.86674,11.968,3.4017e-13,-0.43337,0,0,0.1,-2.3685e-16,0,0.66667
0.54618,0.031394,5.4618,-0.70291,-65.713,240.69,10.238,-3.4126,-0.24843,13.65,3.6593e-13,-0.12421,0,0,0.1,-0,-2.177e-18,0.66667
0.72712,0.81886,7.2712,0.47829,29.889,94.857,-9.2739,3.0913,-1.184,-12.365,-2.0401e-12,-0.592,0,0,0.1,-1.8948e-15,0,0.66667
0.31395,0.7762,3.1395,0.4143,49.627,494,-3.4685,1.1562,-1.3926,-4.6246,-1.336e-12,-0.69631,0,0,0.1,4.737e-16,0,0.66667
0.070608,0.36837,0.70608,-0.19745,-26.088,808.08,0.37178,-0.12393,-1.8587,0.4957,6.9614e-08,-0.92934,0,0,0.1,-1.1842e-16,0,0.66667
0.088214,0.24035,0.88214,-0.38947,-51.359,784.55,0.91618,-0.30539,-1.4583,1.2216,3.4152e-08,-0.72916,0,0,0.1,-0,-0,0.66667
0.32773,0.16596,3.2773,-0.50106,-59.471,477.45,4.379,-1.4597,-1.1116,5.8386,-2.2298e-12,-0.55582,0,0,0.1,-0,-5.6263e-17,0.66667
0.23168,0.27243,2.3168,-0.34135,-42.913,596.51,2.109,-0.70298,-1.5862,2.8119,-3.589e-11,-0.79312,0,0,0.1,-2.3685e-16,0,0.66667
0.74822,0.79584,7.4822,0.44375,25.875,81.654,-8.854,2.9513,-1.3014,-11.805,-1.5512e-11,-0.65071,0,0,0.1,9.4739e-16,0,0.66667
0.60764,0.93684,6.0764,0.65527,55.019,185.14,-10.618,3.5392,-0.47655,-14.157,2.7658e-12,-0.23828,0,0,0.1,-4.1448e-16,-9.7436e-18,0.66667
0.095431,0.94941,0.95431,0.67411,88.988,775.04,-1.7155,0.57184,-0.38608,-2.2873,7.904e-08,-0.19304,0,0,0.1,-0,-0,0.66667
0.71985,0.45678,7.1985,-0.064827,-4.1271,98.853,1.2444,-0.41481,-1.9879,1.6592,9.891e-13,-0.99394,0,0,0.1,-9.4739e-16,0,0.66667
0.9161,0.98994,9.161,0.73492,15.736,12.511,-17.953,5.9845,-0.07712,-23.938,-8.6469e-08,-0.03856,0,0,0.1,1.8948e-15,0,0.66667
0.82438,0.18212,8.2438,-0.47682,-20.204,42.037,10.482,-3.4941,-1.1913,13.976,-1.3114e-10,-0.59564,0,0,0.1,-9.4739e-16,0,0.66667
0.67331,0.43523,6.7331,-0.097159,-7.0259,131.46,1.7445,-0.58149,-1.9698,2.326,-1.0092e-13,-0.98491,0,0,0.1,2.3685e-16,0,0.66667
0.77664,0.41129,7.7664,-0.13306,-6.9652,64.792,2.7558,-0.91859,-1.9359,3.6744,2.2472e-11,-0.96796,0,0,0.1,-0,-0,0.66667
0.15012,0.97693,1.5012,0.71539,93.198,702.61,-2.8639,0.95464,-0.17782,-3.8186,2.0386e-08,-0.08891,0,0,0.1,-0,-0,0.66667
0.065513,0.43656,0.65513,-0.095165,-12.58,814.9,0.16625,-0.055418,-1.9691,0.22167,1.0176e-08,-0.98455,0,0,0.1,-5.181e-17,0,0.66667
0.74798,0.59705,7.4798,0.14558,8.4692,81.212,-2.9038,0.96792,-1.9269,-3.8717,-9.2628e-12,-0.96345,0,0,0.1,-0,-0,0.66667
0.98478,0.3791,9.8478,-0.18135,-0.63072,0.66671,4.7623,-1.5874,-1.888,6.3497,-1.9236e-08,-0.94401,0,0,0.1,3.7896e-15,0,0.66667
0.24024,0.34967,2.4024,-0.22549,-28.211,585.54,1.4446,-0.48154,-1.8171,1.9262,-2.2386e-11,-0.90855,0,0,0.1,-0,-0,0.66667
0.56194,0.65792,5.6194,0.23687,21.486,224.85,-3.5496,1.1832,-1.8056,-4.7327,-5.9917e-12,-0.90279,0,0,0.1,1.8948e-15,0,0.66667
0.080826,0.021624,0.80826,-0.71756,-95.015,794.56,1.5466,-0.51553,-0.1697,2.0621,7.7358e-07,-0.08485,0,0,0.1,1.1842e-16,0,0.66667
0.56119,0.93798,5.6119,0.65697,59.92,226.48,-9.8316,3.2772,-0.46934,-13.109,-2.1476e-12,-0.23467,0,0,0.1,1.8948e-15,-7.1718e-18,0.66667
0.45044,0.053266,4.5044,-0.6701,-71.14,337.61,8.049,-2.683,-0.40393,10.732,-4.2704e-12,-0.20197,0,0,0.1,-4.737e-16,-9.8612e-17,0.66667
0.24055,0.17723,2.4055,-0.48416,-60.655,585.35,3.1058,-1.0353,-1.1638,4.141,-1.5278e-11,-0.5819,0,0,0.1,-2.3685e-16,0,0.66667
0.56538,0.38539,5.6538,-0.17191,-15.5,221.6,2.5919,-0.86396,-1.8951,3.4558,-1.1764e-12,-0.94754,0,0,0.1,-0,-0,0.66667
0.65399,0.91808,6.5399,0.62713,47.743,147.26,-10.937,3.6457,-0.60258,-14.583,-7.2564e-13,-0.30129,0,0,0.1,-0,-0,0.66667
0.91167,0.98864,9.1167,0.73297,16.483,13.524,-17.819,5.9398,-0.087421,-23.759,-4.3376e-07,-0.04371,0,0,0.1,-0,-0,0.66667
0.78264,0.47761,7.8264,-0.03358,-1.7153,61.511,0.70084,-0.23361,-1.9985,0.93445,-1.2096e-11,-0.99926,0,0,0.1,-0,-0,0.66667
0.97683,0.18807,9.7683,-0.46789,-2.6909,1.9891,12.188,-4.0626,-1.2199,16.251,3.2163e-06,-0.60997,0,0,0.1,3.7896e-15,0,0.66667
0.44272,0.24631,4.4272,-0.38053,-40.628,345.34,4.4925,-1.4975,-1.4838,5.9899,-4.039e-12,-0.74188,0,0,0.1,7.1054e-16,0,0.66667
0.14102,0.98614,1.4102,0.72921,95.271,714.61,-2.7422,0.91408,-0.11341,-3.6563,-2.5149e-08,-0.056706,0,0,0.1,-2.3685e-16,0,0.66667
0.40997,0.3371,4.0997,-0.24435,-26.977,381.36,2.6714,-0.89046,-1.7872,3.5618,-3.6799e-12,-0.89361,0,0,0.1,-4.737e-16,0,0.66667
0.7923,0.71937,7.923,0.32906,16.178,56.862,-6.9524,2.3175,-1.6147,-9.2698,-4.6655e-11,-0.80734,0,0,0.1,-0,-0,0.66667
0.21104,0.72377,2.1104,0.33566,42.605,622.97,-1.889,0.62965,-1.5969,-2.5186,4.0381e-11,-0.79846,0,0,0.1,-0,-0,0.66667
0.17738,0.11632,1.7738,-0.57552,-74.184,666.78,2.7223,-0.90744,-0.82008,3.6297,-5.2766e-10,-0.41004,0,0,0.1,1.1842e-16,0,0.66667
0.6451,0.96021,6.451,0.69032,53.677,154.46,-11.875,3.9585,-0.30418,-15.834,-7.5673e-13,-0.15209,0,0,0.1,9.4739e-16,0,0.66667
0.94704,0.0022828,9.4704,-0.74658,-10.261,6.7704,18.854,-6.2848,-0.016567,25.139,7.0931e-07,-0.0082834,0,0,0.1,7.5791e-15,0,0.66667
0.40926,0.65573,4.0926,0.2336,25.807,382.14,-2.5494,0.84981,-1.8074,-3.3992,-2.9761e-12,-0.90368,0,0,0.1,-0,-0,0.66667
0.69687,0.18304,6.9687,-0.47544,-32.441,115.13,8.8352,-2.9451,-1.1942,11.78,4.3787e-13,-0.5971,0,0,0.1,-1.1842e-15,0,0.66667
0.40397,0.80808,4.0397,0.46212,51.393,388.39,-4.9783,1.6594,-1.2424,-6.6377,-4.0594e-12,-0.62119,0,0,0.1,2.3685e-16,0,0.66667
0.34982,0.86577,3.4982,0.54866,64.053,451.17,-5.1181,1.706,-0.92711,-6.8241,-2.1565e-12,-0.46355,0,0,0.1,-4.737e-16,0,0.66667
0.13297,0.8846,1.3297,0.57689,75.422,725.12,-2.0456,0.68186,-0.81366,-2.7274,-3.1043e-09,-0.40683,0,0,0.1,-0,-0,0.66667
0.019913,0.9709,0.19913,0.70634,94.095,876.27,-0.37506,0.12504,-0.22565,-0.50007,3.0082e-05,-0.11283,0,0,0.1,-5.9212e-17,0,0.66667
0.11967,0.35455,1.1967,-0.21818,-28.557,742.59,0.69625,-0.23208,-1.8285,0.92834,1.1176e-08,-0.91423,0,0,0.1,2.3685e-16,0,0.66667
0.44424,0.55486,4.4424,0.082295,8.7598,343.42,-0.9749,0.32497,-1.9732,-1.2999,-4.2611e-12,-0.98662,0,0,0.1,4.737e-16,0,0.66667
0.72978,0.088672,7.2978,-0.61699,-38.336,93.649,12.007,-4.0024,-0.64535,16.01,2.9114e-12,-0.32268,0,0,0.1,-0,-0,0.66667
0.05369,0.22257,0.5369,-0.41615,-55.159,830.82,0.59582,-0.19861,-1.3821,0.79443,9.2921e-08,-0.69104,0,0,0.1,-0,-0,0.66667
0.22167,0.46032,2.2167,-0.059516,-7.5111,609.2,0.35181,-0.11727,-1.9877,0.46908,-1.7903e-11,-0.99384,0,0,0.1,-0,-0,0.66667
0.031064,0.82726,0.31064,0.49088,65.224,861.24,-0.40664,0.13555,-1.1477,-0.54219,1.7877e-06,-0.57385,0,0,0.1,-0,2.6406e-17,0.66667
0.83332,0.0098636,8.3332,-0.7352,-29.937,39.346,16.338,-5.4459,-0.075991,21.784,-4.107e-09,-0.037995,0,0,0.1,-0,-0,0.66667
0.38188,0.25125,3.8188,-0.37313,-42.332,413.46,3.7997,-1.2666,-1.5033,5.0663,-1.6871e-12,-0.75163,0,0,0.1,-0,-0,0.66667
0.28458,0.86424,2.8458,0.54636,66.799,530.21,-4.1462,1.3821,-0.93818,-5.5283,-3.9835e-13,-0.46909,0,0,0.1,-0,-0,0.66667
0.78367,0.70085,7.8367,0.30128,15.353,61.278,-6.2962,2.0987,-1.6779,-8.3949,-4.9869e-11,-0.83894,0,0,0.1,-0,-0,0.66667
0.2789,0.33684,2.789,-0.24474,-29.967,536.95,1.8203,-0.60676,-1.7883,2.427,-5.0557e-12,-0.89413,0,0,0.1,-0,-0,0.66667
0.28082,0.65141,2.8082,0.22712,27.774,534.56,-1.7008,0.56693,-1.8214,-2.2677,1.2423e-12,-0.91069,0,0,0.1,-2.3685e-16,0,0.66667
0.935,0.29637,9.35,-0.30545,-4.9736,6.8196,7.6159,-2.5386,-1.6688,10.155,-1.1139e-07,-0.83438,0,0,0.1,1.8948e-15,0,0.66667
0.16421,0.064978,1.6421,-0.65253,-84.566,684.05,2.8575,-0.95249,-0.48398,3.81,-1.8839e-08,-0.24199,0,0,0.1,-0,-0,0.66667
0.03791,0.5235,0.3791,0.035257,4.6736,852,-0.035642,0.011881,-1.9929,-0.047523,-1.3072e-08,-0.99645,0,0,0.1,5.9212e-17,0,0.66667
0.95604,0.13779,9.5604,-0.54331,-6.0781,4.4155,13.851,-4.6172,-0.95041,18.469,-2.5759e-06,-0.4752,0,0,0.1,-1.8948e-15,0,0.66667
0.30613,0.047756,3.0613,-0.67837,-81.9,503.92,5.5379,-1.846,-0.3608,7.3839,-8.9226e-12,-0.1804,0,0,0.1,-0,-0,0.66667
0.41408,0.38982,4.1408,-0.16527,-18.167,376.69,1.825,-0.60832,-1.8996,2.4333,-2.3788e-12,-0.9498,0,0,0.1,-0,-0,0.66667
0.79679,0.41034,7.9679,-0.13448,-6.4711,54.271,2.8575,-0.95249,-1.9413,3.81,5.5845e-11,-0.97066,0,0,0.1,-0,-0,0.66667
0.35618,0.37755,3.5618,-0.18367,-21.282,443.23,1.7445,-0.58151,-1.8808,2.3261,-7.6409e-12,-0.94041,0,0,0.1,-0,-0,0.66667
0.10486,0.91812,1.0486,0.62719,82.595,762.45,-1.7537,0.58458,-0.59964,-2.3383,1.5253e-07,-0.29982,0,0,0.1,2.3685e-16,0,0.66667
0.7889,0.46697,7.889,-0.049539,-2.4656,58.235,1.0422,-0.34739,-1.9893,1.3896,-4.0186e-11,-0.99467,0,0,0.1,1.1842e-16,0,0.66667
0.12962,0.49695,1.2962,-0.0045743,-0.59699,729.37,0.015811,-0.0052702,-1.9991,0.021081,1.6137e-09,-0.99956,0,0,0.1,1.1842e-16,0,0.66667
0.19804,0.53091,1.9804,0.046363,5.9123,639.65,-0.24485,0.081615,-1.9917,-0.32646,1.3405e-10,-0.99585,0,0,0.1,3.1072e-16,0,0.66667
0.13971,0.60177,1.3971,0.15265,19.871,716.03,-0.56871,0.18957,-1.9206,-0.75828,-2.4297e-09,-0.9603,0,0,0.1,-0,-0,0.66667
0.22166,0.88614,2.2166,0.57921,73.297,609.54,-3.4236,1.1412,-0.80724,-4.5649,-5.0018e-12,-0.40362,0,0,0.1,-4.737e-16,0,0.66667
0.23535,0.57571,2.3535,0.11356,14.238,591.73,-0.71272,0.23757,-1.9571,-0.95029,1.1594e-11,-0.97857,0,0,0.1,-0,-0,0.66667
0.7264,0.42413,7.264,-0.11381,-7.1027,94.622,2.2046,-0.73487,-1.9507,2.9395,2.317e-12,-0.97535,0,0,0.1,-0,-0,0.66667
0.095244,0.43219,0.95244,-0.10171,-13.38,775.1,0.25833,-0.08611,-1.966,0.34444,1.2824e-08,-0.983,0,0,0.1,-1.1842e-16,0,0.66667
0.66824,0.85493,6.6824,0.53239,39.133,136.06,-9.4872,3.1624,-0.99139,-12.65,-2.4896e-12,-0.4957,0,0,0.1,1.8948e-15,0,0.66667
0.91093,0.42093,9.1093,-0.11861,-2.6242,11.582,2.8812,-0.96041,-1.948,3.8416,-1.8139e-08,-0.974,0,0,0.1,-0,-0,0.66667
0.63,0.97624,6.3,0.71437,57.406,166.69,-12.001,4.0004,-0.18377,-16.002,-9.5213e-13,-0.091886,0,0,0.1,-0,-0,0.66667
0.33688,0.39549,3.3688,-0.15677,-18.443,466.13,1.4084,-0.46946,-1.9096,1.8778,-1.3086e-12,-0.95481,0,0,0.1,-0,-0,0.66667
0.83945,0.86837,8.3945,0.55256,21.61,35.943,-12.369,4.1231,-0.91334,-16.492,-3.5849e-10,-0.45667,0,0,0.1,-9.4739e-16,0,0.66667
0.89856,0.29002,8.9856,-0.31498,-7.9366,15.088,7.5474,-2.5158,-1.6443,10.063,-3.6202e-08,-0.82215,0,0,0.1,-0,-0,0.66667
0.49346,0.18092,4.9346,-0.47861,-48.111,292.03,6.298,-2.0993,-1.183,8.3974,-3.3773e-12,-0.59151,0,0,0.1,-0,-0,0.66667
0.56348,0.58696,5.6348,0.13044,11.796,223.32,-1.96,0.65333,-1.943,-2.6133,-2.5233e-12,-0.97149,0,0,0.1,-0,-0,0.66667
0.58066,0.28307,5.8066,-0.32539,-28.603,207.9,5.0385,-1.6795,-1.6253,6.718,-4.6554e-12,-0.81265,0,0,0.1,1.8948e-15,0,0.66667
0.13276,0.87756,1.3276,0.56633,74.038,725.39,-2.0049,0.66831,-0.85753,-2.6732,1.7998e-09,-0.42877,0,0,0.1,4.737e-16,0,0.66667
0.37306,0.47912,3.7306,-0.031325,-3.5771,423.43,0.31163,-0.10388,-1.998,0.41551,-6.279e-12,-0.99901,0,0,0.1,9.4739e-16,0,0.66667
0.81161,0.54168,8.1161,0.06252,2.8087,47.03,-1.3531,0.45104,-1.9894,-1.8042,6.5597e-11,-0.9947,0,0,0.1,-0,-0,0.66667
0.5196,0.27096,5.196,-0.34356,-33.282,265.51,4.7604,-1.5868,-1.5792,6.3472,-1.6538e-12,-0.7896,0,0,0.1,-0,-0,0.66667
0.93958,0.2099,9.3958,-0.43515,-6.6305,6.4152,10.903,-3.6344,-1.3281,14.537,-1.1731e-07,-0.66407,0,0,0.1,9.4739e-16,0,0.66667
0.61582,0.15283,6.1582,-0.52076,-42.945,177.78,8.5518,-2.8506,-1.0338,11.402,-2.0712e-12,-0.51689,0,0,0.1,1.3666e-15,0,0.66667
0.77945,0.17475,7.7945,-0.48788,-25.365,64.035,10.141,-3.3803,-1.1553,13.521,5.1648e-12,-0.57764,0,0,0.1,-0,-0,0.66667
0.24803,0.048347,2.4803,-0.67748,-84.701,576.12,4.4809,-1.4936,-0.36936,5.9746,6.3045e-11,-0.18468,0,0,0.1,-0,1.1737e-16,0.66667
0.55931,0.99284,5.5931,0.73926,67.722,228.51,-11.026,3.6753,-0.056913,-14.701,4.1318e-12,-0.028457,0,0,0.1,-1.4211e-15,8.3642e-17,0.66667
0.81064,0.55802,8.1064,0.087028,3.9284,47.502,-1.8813,0.6271,-1.9754,-2.5084,-3.6845e-11,-0.98769,0,0,0.1,6.2998e-18,0,0.66667
0.15271,0.51122,1.5271,0.016834,2.1824,698.86,-0.068554,0.022851,-1.9983,-0.091405,1.5196e-09,-0.99914,0,0,0.1,-0,-0,0.66667
0.54016,0.65967,5.4016,0.23951,22.491,245.37,-3.4499,1.15,-1.794,-4.5999,-4.3476e-13,-0.89698,0,0,0.1,-0,-0,0.66667
0.6103,0.37096,6.103,-0.19356,-16.09,181.81,3.1501,-1.05,-1.8708,4.2001,-2.069e-12,-0.93539,0,0,0.1,9.4739e-16,0,0.66667
0.18706,0.859,1.8706,0.5385,69.135,654.15,-2.6861,0.89538,-0.97291,-3.5815,5.9761e-11,-0.48646,0,0,0.1,-2.3685e-16,0,0.66667
0.63689,0.4807,6.3689,-0.028956,-2.2779,159.67,0.49178,-0.16393,-1.996,0.65571,4.8705e-13,-0.99802,0,0,0.1,-0,-0,0.66667
0.067575,0.33906,0.67575,-0.24141,-31.914,812.15,0.43501,-0.145,-1.7913,0.58002,7.7849e-08,-0.89567,0,0,0.1,-5.9212e-17,0,0.66667
0.77954,0.66646,7.7954,0.24969,12.932,63.381,-5.1905,1.7302,-1.7802,-6.9207,-3.6528e-11,-0.89011,0,0,0.1,-0,-0,0.66667
0.32597,0.81993,3.2597,0.47989,57.021,479.53,-4.1715,1.3905,-1.1826,-5.562,-5.421e-12,-0.59132,0,0,0.1,-0,-0,0.66667
0.48278,0.54781,4.8278,0.07171,7.2913,302.53,-0.92321,0.30774,-1.9836,-1.2309,-3.1349e-12,-0.9918,0,0,0.1,9.4739e-16,0,0.66667
0.38231,0.48385,3.8231,-0.024218,-2.743,412.73,0.2469,-0.082302,-1.9947,0.32921,-5.0283e-12,-0.99733,0,0,0.1,-0,-0,0.66667
0.32698,0.33176,3.2698,-0.25236,-29.919,478.08,2.2004,-0.73346,-1.7763,2.9339,-4.1838e-12,-0.88815,0,0,0.1,-4.737e-16,0,0.66667
0.98768,0.060623,9.8768,-0.65907,-2.0643,2.2827,17.359,-5.7862,-0.45632,23.145,-4.4846e-05,-0.22816,0,0,0.1,-2.1316e-15,0,0.66667
0.879,0.40083,8.79,-0.14876,-4.4262,20.535,3.4869,-1.1623,-1.9207,4.6492,-1.0898e-08,-0.96035,0,0,0.1,-0,-0,0.66667
0.30229,0.1537,3.0229,-0.51946,-62.774,508.35,4.1874,-1.3958,-1.0393,5.5832,-7.9745e-12,-0.51963,0,0,0.1,-0,-0,0.66667
0.16065,0.60063,1.6065,0.15094,19.522,688.44,-0.64662,0.21554,-1.9178,-0.86216,-7.0036e-10,-0.9589,0,0,0.1,-0,-0,0.66667
0.52931,0.88366,5.2931,0.57549,55.096,256.49,-8.123,2.7077,-0.82411,-10.831,-3.6939e-12,-0.41205,0,0,0.1,9.4739e-16,0,0.66667
0.13806,0.40359,1.3806,-0.14461,-18.832,718.2,0.53239,-0.17746,-1.9272,0.70985,1.8547e-09,-0.96361,0,0,0.1,8.8818e-17,0,0.66667
0.64979,0.46835,6.4979,-0.047474,-3.6296,149.41,0.82261,-0.2742,-1.9906,1.0968,-8.7902e-13,-0.99529,0,0,0.1,3.7932e-16,0,0.66667
0.23295,0.057651,2.3295,-0.66352,-83.585,595.22,4.1219,-1.374,-0.4376,5.4958,-2.4799e-10,-0.2188,0,0,0.1,-3.5527e-16,0,0.66667
0.096557,0.62341,0.96557,0.18512,24.351,773.36,-0.47666,0.15889,-1.8796,-0.63555,-2.9979e-08,-0.93979,0,0,0.1,1.4803e-17,0,0.66667
0.021993,0.20103,0.21993,-0.44846,-59.597,873.44,0.26301,-0.087671,-1.282,0.35067,-2.6605e-06,-0.64098,0,0,0.1,-0,-0,0.66667
0.85906,0.79039,8.5906,0.43559,15.049,27.961,-9.9786,3.3262,-1.3299,-13.305,3.5461e-09,-0.66494,0,0,0.1,-0,-0,0.66667
0.14271,0.339,1.4271,-0.2415,-31.418,712.08,0.91906,-0.30635,-1.7945,1.2254,3.3687e-09,-0.89727,0,0,0.1,1.1842e-16,0,0.66667
0.40293,0.079167,4.0293,-0.63125,-70.395,389.9,6.7826,-2.2609,-0.58261,9.0435,-4.0057e-13,-0.29131,0,0,0.1,-4.7716e-16,0,0.66667
0.093564,0.2088,0.93564,-0.43681,-57.563,777.42,1.0899,-0.36328,-1.3263,1.4531,3.2546e-08,-0.66315,0,0,0.1,-0,-0,0.66667
0.11789,0.31406,1.1789,-0.27891,-36.53,744.96,0.87683,-0.29228,-1.7216,1.1691,1.3404e-08,-0.86079,0,0,0.1,-0,-0,0.66667
0.37482,0.21334,3.7482,-0.42999,-49.109,421.7,4.2978,-1.4326,-1.3478,5.7303,-8.459e-12,-0.67392,0,0,0.1,-4.737e-16,0,0.66667
0.16539,0.71545,1.6539,0.32318,41.758,682.28,-1.4253,0.47511,-1.6267,-1.9004,-7.1922e-10,-0.81333,0,0,0.1,-3.5527e-16,0,0.66667
0.71895,0.96239,7.1895,0.69359,44.618,100.97,-13.297,4.4325,-0.2946,-17.73,2.264e-12,-0.1473,0,0,0.1,9.4739e-16,0,0.66667
0.12585,0.32394,1.2585,-0.26409,-34.52,734.4,0.88631,-0.29544,-1.7553,1.1817,9.4049e-09,-0.87766,0,0,0.1,-0,-0,0.66667
0.73883,0.90311,7.3883,0.60467,36.489,87.927,-11.913,3.9711,-0.69931,-15.884,7.519e-11,-0.34966,0,0,0.1,2.3685e-16,0,0.66667
0.84138,0.72815,8.4138,0.34223,13.169,34.457,-7.6785,2.5595,-1.5845,-10.238,1.1835e-09,-0.79226,0,0,0.1,-0,-0,0.66667
0.082681,0.18035,0.82681,-0.47948,-63.328,791.98,1.0572,-0.35239,-1.1812,1.4096,3.4193e-08,-0.59061,0,0,0.1,5.9212e-17,0,0.66667
0.040078,0.45357,0.40078,-0.069646,-9.2309,849.08,0.074434,-0.024812,-1.9796,0.099246,-2.8385e-07,-0.98981,0,0,0.1,-4.7462e-17,0,0.66667
0.49353,0.80391,4.9353,0.45587,45.81,291.9,-5.9997,1.9999,-1.2584,-7.9996,-1.4064e-12,-0.6292,0,0,0.1,-0,-0,0.66667
0.60076,0.72083,6.0076,0.33125,28.071,190.19,-5.3066,1.7689,-1.608,-7.0755,-3.3014e-12,-0.80398,0,0,0.1,1.8948e-15,0,0.66667
0.684,0.14666,6.84,-0.53002,-37.451,124.45,9.6675,-3.2225,-1.0006,12.89,-9.9298e-13,-0.50032,0,0,0.1,-0,-0,0.66667
0.47827,0.095442,4.7827,-0.60684,-62.281,307.99,7.7396,-2.5799,-0.68913,10.319,-8.8183e-12,-0.34456,0,0,0.1,1.8948e-15,0,0.66667
0.54316,0.93769,5.4316,0.65654,61.623,243.41,-9.5094,3.1698,-0.46804,-12.679,-5.8273e-12,-0.23402,0,0,0.1,1.8948e-15,0,0.66667
0.54961,0.036507,5.4961,-0.69524,-64.64,237.42,10.19,-3.3965,-0.2823,13.586,5.5422e-13,-0.14115,0,0,0.1,-0,-0,0.66667
0.71378,0.61642,7.1378,0.17463,11.325,102.96,-3.324,1.108,-1.8897,-4.432,-3.1528e-12,-0.94486,0,0,0.1,-0,-0,0.66667
0.15616,0.46235,1.5616,-0.056475,-7.3137,694.32,0.23518,-0.078393,-1.9939,0.31357,1.1588e-09,-0.99696,0,0,0.1,-1.1842e-16,0,0.66667
0.021742,0.16427,0.21742,-0.50359,-66.952,873.79,0.29198,-0.09733,-1.0958,0.38931,-4.4342e-06,-0.5479,0,0,0.1,-0,-0,0.66667
0.50805,0.38281,5.0805,-0.17579,-17.292,276.81,2.3816,-0.79387,-1.8873,3.1755,-3.628e-12,-0.94364,0,0,0.1,9.4739e-16,0,0.66667
0.95369,0.26879,9.5369,-0.34681,-4.0249,3.9815,8.8201,-2.94,-1.5761,11.76,-6.1924e-08,-0.78807,0,0,0.1,-0,-0,0.66667
0.025153,0.49148,0.25153,-0.012773,-1.6946,869.17,0.0085677,-0.002858,-1.9969,0.011423,-3.1445e-06,-0.99844,0,0,0.1,5.9212e-17,0,0.66667
0.6128,0.036919,6.128,-0.69462,-57.779,180.9,11.351,-3.7837,-0.28442,15.135,7.5939e-13,-0.14221,0,0,0.1,-0,-0,0.66667
0.49388,0.50072,4.9388,0.0010843,0.10868,291.09,-0.014281,0.0047602,-1.9987,-0.019041,-3.6571e-12,-0.99933,0,0,0.1,-0,-0,0.66667
0.9002,0.24539,9.002,-0.38191,-9.4921,14.837,9.1679,-3.056,-1.4794,12.224,-4.1178e-08,-0.73969,0,0,0.1,-4.737e-16,0,0.66667
0.023607,0.37281,0.23607,-0.19078,-25.319,871.25,0.1201,-0.040034,-1.8686,0.16013,-3.834e-07,-0.93429,0,0,0.1,-4.4409e-17,0,0.66667
0.65951,0.43161,6.5951,-0.10258,-7.67,141.89,1.8041,-0.60138,-1.9627,2.4055,-1.8439e-12,-0.98137,0,0,0.1,-0,-0,0.66667
0.65622,0.57281,6.5622,0.10921,8.2287,144.43,-1.9111,0.63705,-1.9626,-2.5482,8.4643e-13,-0.98129,0,0,0.1,-0,-0,0.66667
0.88375,0.049455,8.8375,-0.67582,-19.658,20.76,15.927,-5.3089,-0.37295,21.236,1.6374e-09,-0.18648,0,0,0.1,-9.4739e-16,0,0.66667
0.53642,0.59916,5.3642,0.14874,14.042,248.88,-2.1277,0.70923,-1.9197,-2.8369,-3.1741e-12,-0.95986,0,0,0.1,-0,-0,0.66667
0.69065,0.99089,6.9065,0.73634,51.333,120.49,-13.561,4.5205,-0.072095,-18.082,1.2799e-12,-0.036048,0,0,0.1,-0,-0,0.66667
0.41267,0.89755,4.1267,0.59633,65.842,378.87,-6.5622,2.1874,-0.73294,-8.7497,2.8586e-12,-0.36647,0,0,0.1,-4.737e-16,0,0.66667
0.82659,0.28181,8.2659,-0.32729,-13.668,40.627,7.2142,-2.4047,-1.6227,9.6189,-3.2878e-10,-0.81135,0,0,0.1,-0,-0,0.66667
0.68501,0.61965,6.8501,0.17948,12.603,122.96,-3.2785,1.0928,-1.8867,-4.3714,-1.8279e-12,-0.94335,0,0,0.1,1.4211e-15,0,0.66667
0.10801,0.71761,1.0801,0.32642,42.86,758.12,-0.9402,0.3134,-1.6249,-1.2536,-2.6947e-08,-0.81245,0,0,0.1,-2.3685e-16,0,0.66667
0.13989,0.30359,1.3989,-0.29461,-38.368,715.82,1.0991,-0.36635,-1.6951,1.4654,4.2662e-09,-0.84756,0,0,0.1,1.1842e-16,0,0.66667
0.15807,0.40868,1.5807,-0.13698,-17.731,691.82,0.57742,-0.19247,-1.936,0.76989,1.0952e-09,-0.968,0,0,0.1,4.737e-16,0,0.66667
0.12054,0.52979,1.2054,0.044682,5.845,741.41,-0.14362,0.047875,-1.9925,-0.1915,-1.2484e-08,-0.99626,0,0,0.1,-1.7155e-16,0,0.66667
0.23028,0.076924,2.3028,-0.63461,-80.023,598.6,3.897,-1.299,-0.56662,5.196,6.8972e-11,-0.28331,0,0,0.1,4.737e-16,3.4331e-17,0.66667
0.42336,0.25686,4.2336,-0.36471,-39.75,366.55,4.1175,-1.3725,-1.5296,5.49,1.3678e-13,-0.76482,0,0,0.1,-0,-0,0.66667
0.67076,0.025758,6.7076,-0.71136,-52.132,134.84,12.724,-4.2414,-0.20418,16.965,2.4425e-13,-0.10209,0,0,0.1,-0,-0,0.66667
0.33662,0.78189,3.3662,0.42284,49.822,466.68,-3.7956,1.2652,-1.3626,-5.0608,-5.3257e-12,-0.68132,0,0,0.1,-0,-0,0.66667
0.51975,0.023978,5.1975,-0.71403,-69.446,266.27,9.8966,-3.2989,-0.18624,13.195,3.0811e-12,-0.093121,0,0,0.1,-0,-0,0.66667
0.82112,0.77866,8.2112,0.41799,17.987,43.292,-9.1524,3.0508,-1.3768,-12.203,6.2824e-11,-0.6884,0,0,0.1,-0,-0,0.66667
0.88459,0.13826,8.8459,-0.54262,-15.585,19.868,12.8,-4.2666,-0.95031,17.066,-8.0855e-09,-0.47516,0,0,0.1,-0,-0,0.66667
0.70449,0.98877,7.0449,0.73316,49.219,110.83,-13.774,4.5912,-0.091196,-18.365,-3.1077e-12,-0.045598,0,0,0.1,-0,-0,0.66667
0.83449,0.34166,8.3449,-0.2375,-9.4903,37.063,5.2852,-1.7617,-1.7977,7.0469,-6.2024e-10,-0.89886,0,0,0.1,2.4706e-16,0,0.66667
0.30908,0.21261,3.0908,-0.43108,-51.819,499.95,3.553,-1.1843,-1.3392,4.7373,-5.5516e-12,-0.66959,0,0,0.1,-0,-0,0.66667
0.79062,0.10312,7.9062,-0.59532,-29.631,58.587,12.551,-4.1837,-0.73721,16.735,5.4937e-10,-0.36861,0,0,0.1,-0,-0,0.66667
0.91666,0.41763,9.1666,-0.12355,-2.5611,10.246,3.0201,-1.0067,-1.9435,4.0268,-2.6444e-08,-0.97174,0,0,0.1,-0,-0,0.66667
0.038406,0.24269,0.38406,-0.38596,-51.22,851.35,0.39528,-0.13176,-1.4676,0.52704,7.9715e-08,-0.7338,0,0,0.1,-0,-0,0.66667
0.44563,0.91675,4.4563,0.62513,66.687,342.68,-7.4287,2.4762,-0.60745,-9.9049,2.2777e-12,-0.30373,0,0,0.1,-9.4739e-16,0,0.66667
0.23993,0.027215,2.3993,-0.70918,-89.07,586.43,4.5374,-1.5125,-0.21013,6.0499,2.3192e-11,-0.10507,0,0,0.1,2.3685e-16,0,0.66667
0.49402,0.38969,4.9402,-0.16547,-16.586,291.01,2.1799,-0.72662,-1.8998,2.9065,-1.7364e-12,-0.94991,0,0,0.1,-0,-0,0.66667
0.61748,0.3126,6.1748,-0.28111,-23.049,175.86,4.6287,-1.5429,-1.7175,6.1716,2.0384e-13,-0.85873,0,0,0.1,-0,-0,0.66667
0.20905,0.67929,2.0905,0.26893,34.154,625.49,-1.4992,0.49973,-1.7404,-1.9989,3.1409e-11,-0.87021,0,0,0.1,-2.3685e-16,0,0.66667
0.87443,0.52237,8.7443,0.033554,1.0335,21.928,-0.78241,0.2608,-2,-1.0432,3.1225e-09,-1,0,0,0.1,-0,-0,0.66667
0.25589,0.18965,2.5589,-0.46552,-57.838,565.93,3.1766,-1.0589,-1.228,4.2355,-2.0028e-11,-0.61398,0,0,0.1,9.4739e-16,0,0.66667
0.71361,0.64632,7.1361,0.21949,14.245,103.13,-4.1767,1.3922,-1.8266,-5.569,-3.284e-12,-0.9133,0,0,0.1,-0,-0,0.66667
0.85223,0.21904,8.5223,-0.42144,-15.212,30.447,9.5777,-3.1926,-1.3669,12.77,-1.5486e-09,-0.68346,0,0,0.1,-3.7896e-15,0,0.66667
0.93241,0.53865,9.3241,0.057971,0.97591,6.9252,-1.4414,0.48047,-1.9862,-1.9219,-2.3314e-08,-0.99312,0,0,0.1,-0,-0,0.66667
0.95573,0.86508,9.5573,0.54762,6.1726,4.4755,-13.957,4.6522,-0.9343,-18.609,2.5956e-06,-0.46715,0,0,0.1,-0,-0,0.66667
0.6802,0.24168,6.802,-0.38748,-27.595,126.81,7.0284,-2.3428,-1.4633,9.3712,-8.8152e-13,-0.73164,0,0,0.1,-0,-0,0.66667
0.62852,0.37471,6.2852,-0.18793,-15.056,166.57,3.1498,-1.0499,-1.8752,4.1997,1.309e-12,-0.93762,0,0,0.1,-1.199e-15,0,0.66667
0.59597,0.96345,5.9597,0.69518,59.712,195.35,-11.048,3.6827,-0.28333,-14.731,7.1676e-13,-0.14167,0,0,0.1,-9.4739e-16,0,0.66667
0.48512,0.090965,4.8512,-0.61355,-62.436,300.91,7.9373,-2.6458,-0.66605,10.583,-4.357e-12,-0.33303,0,0,0.1,9.4739e-16,0,0.66667
0.36043,0.40206,3.6043,-0.14692,-16.962,438.22,1.4121,-0.4707,-1.927,1.8828,-5.3336e-12,-0.96349,0,0,0.1,-1.1842e-16,0,0.66667
0.020765,0.37739,0.20765,-0.18391,-24.41,875.08,0.10184,-0.033947,-1.8786,0.13579,-2.7479e-07,-0.93932,0,0,0.1,-5.9212e-17,0,0.66667
0.74867,0.45036,7.4867,-0.074457,-4.3201,80.744,1.4865,-0.4955,-1.9827,1.982,5.8824e-12,-0.99133,0,0,0.1,-0,-0,0.66667
0.39368,0.29979,3.9368,-0.30031,-33.689,399.85,3.1527,-1.0509,-1.6791,4.2036,-2.522e-12,-0.83957,0,0,0.1,-0,-0,0.66667
0.27934,0.72659,2.7934,0.33988,41.624,536.48,-2.5318,0.84393,-1.591,-3.3757,-3.2574e-13,-0.79552,0,0,0.1,-0,-0,0.66667
0.77753,0.64453,7.7753,0.2168,11.315,64.41,-4.4951,1.4984,-1.8319,-5.9935,-3.0727e-11,-0.91597,0,0,0.1,-9.4739e-16,0,0.66667
0.66027,0.65236,6.6027,0.22854,17.067,141.43,-4.024,1.3413,-1.8139,-5.3653,1.4739e-12,-0.90695,0,0,0.1,-1.1842e-15,0,0.66667
0.9098,0.65141,9.098,0.22712,5.0964,12.009,-5.5102,1.8367,-1.8166,-7.3469,4.1859e-08,-0.90828,0,0,0.1,-1.4211e-15,0,0.66667
0.12761,0.97485,1.2761,0.71228,93.383,732.31,-2.4239,0.80798,-0.19707,-3.2319,5.2887e-08,-0.098536,0,0,0.1,-0,-0,0.66667
0.38236,0.40878,3.8236,-0.13683,-15.5,412.7,1.3951,-0.46505,-1.9314,1.8602,1.3112e-13,-0.96569,0,0,0.1,-0,-0,0.66667
0.57738,0.72787,5.7738,0.34181,30.223,210.88,-5.2628,1.7543,-1.5883,-7.0171,-9.6323e-13,-0.79414,0,0,0.1,-0,-0,0.66667
0.3545,0.83951,3.545,0.50927,59.209,445.58,-4.8142,1.6047,-1.0766,-6.419,-2.2027e-12,-0.53832,0,0,0.1,7.1054e-16,0,0.66667
0.34805,0.89432,3.4805,0.59148,69.18,453.34,-5.4897,1.8299,-0.75454,-7.3196,-1.7972e-12,-0.37727,0,0,0.1,4.737e-16,0,0.66667
0.48409,0.52926,4.8409,0.04389,4.4552,301.17,-0.56658,0.18886,-1.9987,-0.75544,-3.8721e-12,-0.99936,0,0,0.1,-4.737e-16,0,0.66667
0.071438,0.10391,0.71438,-0.59414,-78.685,807.07,1.1318,-0.37728,-0.74198,1.5091,3.9069e-07,-0.37099,0,0,0.1,-0,-0,0.66667
0.038686,0.98067,0.38686,0.72101,95.958,851.04,-0.74381,0.24793,-0.1485,-0.99175,-1.5128e-05,-0.07425,0,0,0.1,-5.9212e-17,0,0.66667
0.84061,0.71233,8.4061,0.31849,12.306,34.711,-7.1393,2.3798,-1.6396,-9.5191,1.1651e-09,-0.81978,0,0,0.1,1.4211e-15,0,0.66667
0.0073689,0.070195,0.073689,-0.64471,-85.858,893.14,0.12668,-0.042209,-0.51935,0.16892,2.7624e-05,-0.25967,0,0,0.1,-0,-0,0.66667
0.70376,0.67832,7.0376,0.26748,17.865,109.88,-5.0198,1.6733,-1.7495,-6.6931,-2.9701e-12,-0.87475,0,0,0.1,-0,-0,0.66667
0.44556,0.72811,4.4556,0.34217,36.407,342.2,-4.0655,1.3552,-1.5807,-5.4207,-3.8058e-12,-0.79036,0,0,0.1,-0,-0,0.66667
0.96951,0.49011,9.6951,-0.014832,-0.11011,1.6598,0.38347,-0.12782,-2.0028,0.5113,2.1748e-06,-1.0014,0,0,0.1,-2.8422e-15,0,0.66667
0.80992,0.38482,8.0992,-0.17278,-7.8298,47.921,3.7316,-1.2439,-1.8945,4.9755,-3.2219e-11,-0.94723,0,0,0.1,-0,-0,0.66667
0.39961,0.44953,3.9961,-0.075708,-8.4387,392.95,0.80677,-0.26892,-1.9766,1.0757,-2.0739e-12,-0.98831,0,0,0.1,-0,-0,0.66667
0.39383,0.58422,3.9383,0.12632,14.159,399.55,-1.3267,0.44222,-1.9431,-1.7689,-7.4912e-12,-0.97154,0,0,0.1,-0,-0,0.66667
0.12859,0.28239,1.2859,-0.32642,-42.648,730.78,1.1193,-0.37311,-1.6217,1.4925,8.2802e-09,-0.81086,0,0,0.1,4.737e-16,0,0.66667
0.36459,0.98041,3.6459,0.72061,83.278,434.15,-7.0061,2.3354,-0.15139,-9.3415,1.2803e-12,-0.075693,0,0,0.1,-0,-0,0.66667
0.20418,0.83573,2.0418,0.5036,64.186,631.93,-2.742,0.914,-1.1015,-3.656,7.0166e-12,-0.55074,0,0,0.1,-0,-0,0.66667
0.31607,0.38714,3.1607,-0.16929,-20.224,491.22,1.4269,-0.47563,-1.8973,1.9025,-9.3692e-12,-0.94865,0,0,0.1,4.737e-16,0,0.66667
0.56232,0.38288,5.6232,-0.17569,-15.921,224.44,2.6344,-0.87814,-1.8952,3.5126,7.7272e-13,-0.94758,0,0,0.1,-0,-0,0.66667
0.86191,0.49465,8.6191,-0.008032,-0.27065,26.211,0.18461,-0.061536,-2.0009,0.24615,-6.8672e-09,-1.0005,0,0,0.1,4.737e-16,0,0.66667
0.098202,0.83654,0.98202,0.50481,66.498,771.26,-1.322,0.44065,-1.0926,-1.7626,-4.7443e-08,-0.54632,0,0,0.1,-0,-0,0.66667
0.83006,0.91389,8.3006,0.62084,25.631,40.156,-13.742,4.5807,-0.63131,-18.323,1.9859e-09,-0.31565,0,0,0.1,-0,-0,0.66667
0.92067,0.33557,9.2067,-0.24664,-4.8825,9.5426,6.0553,-2.0184,-1.7866,8.0737,-6.7127e-08,-0.89332,0,0,0.1,-9.4739e-16,0,0.66667
0.22363,0.2116,2.2363,-0.4326,-54.627,606.87,2.5798,-0.85992,-1.333,3.4397,-4.5044e-11,-0.66649,0,0,0.1,-0,-0,0.66667
0.20085,0.73423,2.0085,0.35135,44.797,636.12,-1.8818,0.62727,-1.5619,-2.5091,3.3849e-11,-0.78094,0,0,0.1,-0,-0,0.66667
0.76844,0.32781,7.6844,-0.25828,-13.969,69.486,5.2925,-1.7642,-1.7629,7.0567,3.0073e-11,-0.88144,0,0,0.1,-0,-0,0.66667
0.020528,0.78497,0.20528,0.42745,56.801,875.41,-0.23399,0.077999,-1.3492,-0.31199,2.0278e-06,-0.6746,0,0,0.1,-0,-0,0.66667
0.48994,0.48942,4.8994,-0.015867,-1.5985,295.13,0.2073,-0.069101,-1.9967,0.2764,5.2245e-12,-0.99834,0,0,0.1,-0,-0,0.66667
0.022375,0.65851,0.22375,0.23776,31.56,872.91,-0.14187,0.047289,-1.7971,-0.18915,4.855e-07,-0.89856,0,0,0.1,-0,-0,0.66667
0.8073,0.44005,8.073,-0.089925,-4.124,49.091,1.9359,-0.6453,-1.9701,2.5812,-5.6879e-11,-0.98504,0,0,0.1,1.8948e-15,0,0.66667
0.024361,0.43118,0.24361,-0.10322,-13.696,870.24,0.067057,-0.022353,-1.9596,0.08941,-4.4066e-07,-0.97978,0,0,0.1,-4.4409e-17,0,0.66667
0.16055,0.69774,1.6055,0.29661,38.382,688.61,-1.2699,0.4233,-1.6858,-1.6932,-1.0847e-09,-0.84288,0,0,0.1,-0,-0,0.66667
0.24613,0.6043,2.4613,0.15645,19.509,578.05,-1.0268,0.34228,-1.9119,-1.3691,1.9678e-12,-0.95597,0,0,0.1,-0,-0,0.66667
0.99712,0.39689,9.9712,-0.15467,-0.032304,0.15799,4.1126,-1.3709,-1.9152,5.4835,-7.6675e-07,-0.95759,0,0,0.1,9.4739e-16,0,0.66667
0.42075,0.3075,4.2075,-0.28875,-31.541,369.36,3.2398,-1.0799,-1.707,4.3198,-3.0989e-12,-0.85351,0,0,0.1,-2.3685e-16,0,0.66667
0.072263,0.15535,0.72263,-0.51697,-68.411,805.93,0.99621,-0.33207,-1.0485,1.3283,2.0813e-07,-0.52424,0,0,0.1,-2.2204e-17,0,0.66667
0.25027,0.67356,2.5027,0.26034,32.404,572.86,-1.7375,0.57916,-1.7633,-2.3166,1.2899e-11,-0.88167,0,0,0.1,-0,-0,0.66667
0.41157,0.55579,4.1157,0.083679,9.2191,379.46,-0.91839,0.30613,-1.9732,-1.2245,-7.8465e-12,-0.9866,0,0,0.1,7.1054e-16,0,0.66667
0.42026,0.083525,4.2026,-0.62471,-68.472,370.47,7.0011,-2.3337,-0.61443,9.3348,2.8839e-12,-0.30721,0,0,0.1,-0,1.0428e-16,0.66667
0.12217,0.044824,1.2217,-0.68276,-89.608,739.49,2.2244,-0.74146,-0.34258,2.9659,-5.4679e-08,-0.17129,0,0,0.1,-2.3685e-16,0,0.66667
0.0095038,0.0064081,0.095038,-0.74039,-98.698,890.27,0.1878,-0.062561,-0.049029,0.25042,5.9586e-05,-0.024515,0,0,0.1,-0,-0,0.66667
0.81546,0.18651,8.1546,-0.47024,-20.84,46.031,10.226,-3.4085,-1.2151,13.634,-4.9396e-10,-0.60757,0,0,0.1,1.1842e-15,0,0.66667
0.24196,0.10642,2.4196,-0.59036,-73.976,583.69,3.8091,-1.2697,-0.75757,5.0788,-8.0346e-11,-0.37879,0,0,0.1,-0,-0,0.66667
0.083424,0.34088,0.83424,-0.23868,-31.478,790.92,0.53099,-0.177,-1.7961,0.70798,5.4754e-08,-0.89807,0,0,0.1,-0,-0,0.66667
0.39022,0.95234,3.9022,0.67852,76.621,404.44,-7.0606,2.3535,-0.36712,-9.4142,-2.6779e-13,-0.18356,0,0,0.1,-0,-0,0.66667
0.43254,0.22345,4.3254,-0.41482,-44.793,356.51,4.7847,-1.5949,-1.3868,6.3796,-1.5659e-12,-0.69341,0,0,0.1,-0,-0,0.66667
0.5241,0.48992,5.241,-0.01512,-1.4534,260.82,0.21131,-0.070436,-1.9962,0.28174,-8.8568e-14,-0.99809,0,0,0.1,4.737e-16,0,0.66667
0.76031,0.65454,7.6031,0.23181,12.918,74.056,-4.6999,1.5666,-1.8079,-6.2665,-2.1143e-11,-0.90393,0,0,0.1,-2.3685e-16,0,0.66667
0.78814,0.72111,7.8814,0.33166,16.597,59.007,-6.9705,2.3235,-1.607,-9.294,-5.2873e-11,-0.80348,0,0,0.1,-0,-0,0.66667
0.46938,0.10204,4.6938,-0.59694,-61.929,317.27,7.4718,-2.4906,-0.737,9.9624,-6.6485e-12,-0.3685,0,0,0.1,-0,-0,0.66667
0.88477,0.076088,8.8477,-0.63587,-18.309,20.247,15.003,-5.0009,-0.55964,20.003,-8.8632e-08,-0.27982,0,0,0.1,-0,-0,0.66667
0.079143,0.48168,0.79143,-0.027476,-3.6245,796.63,0.057987,-0.019329,-2.0002,0.077316,2.648e-08,-1.0001,0,0,0.1,-1.1842e-16,0,0.66667
0.35568,0.0088445,3.5568,-0.73673,-85.789,444.63,6.9878,-2.3293,-0.069431,9.317,-7.1858e-12,-0.034716,0,0,0.1,-0,-0,0.66667
0.35988,0.66214,3.5988,0.24321,28.102,438.93,-2.334,0.77802,-1.7942,-3.1121,-4.5315e-12,-0.89709,0,0,0.1,-9.4739e-16,0,0.66667
0.71091,0.88156,7.1091,0.57234,37.605,105.82,-10.85,3.6167,-0.83259,-14.467,-1.186e-11,-0.4163,0,0,0.1,1.8948e-15,0,0.66667
0.84544,0.59199,8.4544,0.13799,5.1699,32.47,-3.111,1.037,-1.9354,-4.1479,1.7664e-09,-0.96768,0,0,0.1,2.3685e-16,0,0.66667
0.72322,0.15864,7.2322,-0.51204,-32.403,97.481,9.8752,-3.2917,-1.0672,13.167,1.2616e-11,-0.53361,0,0,0.1,1.8948e-15,0,0.66667
0.11084,0.96872,1.1084,0.70308,92.542,754.55,-2.0781,0.69271,-0.24622,-2.7708,-3.2744e-07,-0.12311,0,0,0.1,-3.4463e-16,0,0.66667
0.59935,0.75124,5.9935,0.37687,32.034,191.5,-6.0233,2.0078,-1.4938,-8.0311,2.7813e-12,-0.74691,0,0,0.1,-0,-0,0.66667
0.50962,0.23845,5.0962,-0.39233,-38.558,275.51,5.3317,-1.7772,-1.45,7.1089,5.1914e-13,-0.725,0,0,0.1,-0,-0,0.66667
0.60538,0.94861,6.0538,0.67292,56.764,187.13,-10.863,3.6211,-0.38877,-14.484,5.3557e-13,-0.19438,0,0,0.1,9.4739e-16,0,0.66667
0.012168,0.64615,0.12168,0.21922,29.109,886.66,-0.071136,0.023712,-1.8286,-0.094849,-1.6411e-07,-0.91429,0,0,0.1,-1.4803e-17,0,0.66667
0.2884,0.44757,2.884,-0.078639,-9.5677,525.1,0.60479,-0.2016,-1.975,0.80638,-5.6242e-12,-0.9875,0,0,0.1,-0,-0,0.66667
0.051856,0.0098828,0.51856,-0.73518,-97.743,833.37,1.0166,-0.33888,-0.076287,1.3555,-1.9287e-06,-0.038143,0,0,0.1,-2.3685e-16,0,0.66667
0.38587,0.56979,3.8587,0.10468,11.819,408.65,-1.0772,0.35905,-1.9595,-1.4362,-8.0101e-12,-0.97974,0,0,0.1,-0,-0,0.66667
0.75909,0.45802,7.5909,-0.062976,-3.522,74.598,1.2748,-0.42492,-1.983,1.6997,2.9211e-12,-0.9915,0,0,0.1,-0,-0,0.66667
0.276,0.27136,2.76,-0.34296,-42.086,540.63,2.5242,-0.8414,-1.5796,3.3656,-1.0837e-11,-0.78981,0,0,0.1,2.3685e-16,0,0.66667
0.61411,0.69529,6.1411,0.29294,24.183,178.71,-4.7973,1.5991,-1.6933,-6.3964,-4.8983e-13,-0.84665,0,0,0.1,-0,-0,0.66667
0.62743,0.92974,6.2743,0.64461,52.014,168.53,-10.785,3.5951,-0.52359,-14.38,2.8066e-13,-0.26179,0,0,0.1,-4.737e-16,0,0.66667
0.25163,0.18691,2.5163,-0.46963,-58.486,571.31,3.1513,-1.0504,-1.2192,4.2017,-4.4587e-12,-0.6096,0,0,0.1,-4.4409e-17,0,0.66667
0.47504,0.35557,4.7504,-0.21665,-22.252,310.68,2.7445,-0.91483,-1.8302,3.6593,-3.5802e-12,-0.91512,0,0,0.1,-0,-0,0.66667
0.1435,0.19964,1.435,-0.45054,-58.667,711.14,1.724,-0.57467,-1.2783,2.2987,2.679e-09,-0.63917,0,0,0.1,-2.3685e-16,0,0.66667
0.070018,0.21387,0.70018,-0.4292,-56.778,808.92,0.80139,-0.26713,-1.3426,1.0685,1.945e-07,-0.67128,0,0,0.1,8.8818e-17,0,0.66667
0.79297,0.32549,7.9297,-0.26177,-12.822,56.381,5.5352,-1.8451,-1.7552,7.3803,3.185e-11,-0.87758,0,0,0.1,-0,-0,0.66667
0.17947,0.57966,1.7947,0.11949,15.351,663.79,-0.57189,0.19063,-1.946,-0.76253,-9.6632e-11,-0.97299,0,0,0.1,-2.3685e-16,0,0.66667
0.12621,0.82112,1.2621,0.48168,63.035,734.01,-1.6211,0.54037,-1.1779,-2.1615,-4.3382e-09,-0.58897,0,0,0.1,-0,-0,0.66667
0.96712,0.017,9.6712,-0.7245,-6.2206,4.1482,18.685,-6.2282,-0.13552,24.913,3.6597e-07,-0.067762,0,0,0.1,3.7896e-15,1.1751e-16,0.66667
0.055643,0.21923,0.55643,-0.42116,-55.812,828.2,0.62492,-0.20831,-1.3678,0.83322,8.1265e-08,-0.68389,0,0,0.1,-2.3685e-16,0,0.66667
0.68195,0.49211,6.8195,-0.011829,-0.83682,125.08,0.21512,-0.071705,-1.9973,0.28682,-2.6342e-12,-0.99866,0,0,0.1,4.737e-16,0,0.66667
0.37495,0.33703,3.7495,-0.24446,-27.884,421.34,2.4442,-0.81474,-1.7928,3.259,-2.2151e-12,-0.89642,0,0,0.1,-4.737e-16,0,0.66667
0.17349,0.642,1.7349,0.213,27.431,671.64,-0.9854,0.32847,-1.8405,-1.3139,-3.4861e-10,-0.92027,0,0,0.1,-2.3685e-16,0,0.66667
0.27286,0.16373,2.7286,-0.50441,-62.086,544.71,3.6702,-1.2234,-1.0926,4.8936,-1.5925e-11,-0.5463,0,0,0.1,-0,-0,0.66667
0.7317,0.81412,7.317,0.47118,29.023,91.921,-9.1936,3.0645,-1.2122,-12.258,-6.2954e-12,-0.60611,0,0,0.1,-1.8948e-15,0,0.66667
0.85547,0.51122,8.5547,0.016829,0.5919,28.557,-0.38391,0.12797,-1.9979,-0.51188,1.4047e-10,-0.99894,0,0,0.1,-0,-0,0.66667
0.26883,0.76578,2.6883,0.39867,49.147,549.63,-2.858,0.95266,-1.4344,-3.8106,1.8141e-12,-0.71722,0,0,0.1,-0,-0,0.66667
0.34714,0.13476,3.4714,-0.54785,-64.095,454.33,5.0716,-1.6905,-0.93239,6.7621,-6.3181e-12,-0.46619,0,0,0.1,-0,-0,0.66667
0.40955,0.22527,4.0955,-0.4121,-45.563,382.02,4.5007,-1.5002,-1.3962,6.001,4.1034e-13,-0.69809,0,0,0.1,-0,-0,0.66667
0.82745,0.94514,8.2745,0.66772,27.993,41.5,-14.733,4.9111,-0.41872,-19.644,-8.9376e-09,-0.20936,0,0,0.1,-1.8948e-15,0,0.66667
0.74992,0.86114,7.4992,0.54171,31.457,80.956,-10.833,3.611,-0.96134,-14.444,1.7966e-11,-0.48067,0,0,0.1,-0,-0,0.66667
0.20942,0.13551,2.0942,-0.54674,-69.552,625.22,3.0533,-1.0178,-0.93437,4.071,1.6476e-10,-0.46719,0,0,0.1,4.737e-16,0,0.66667
0.54285,0.51185,5.4285,0.01777,1.6607,242.66,-0.25724,0.085747,-1.9976,-0.34299,-6.093e-12,-0.99881,0,0,0.1,-0,-0,0.66667
0.76674,0.02665,7.6674,-0.71003,-38.972,71.929,14.517,-4.8392,-0.21107,19.357,9.3137e-11,-0.10553,0,0,0.1,-0,-0,0.66667
0.47874,0.99297,4.7874,0.73945,75.984,307.88,-9.4401,3.1467,-0.053749,-12.587,2.0979e-12,-0.026874,0,0,0.1,-9.4739e-16,0,0.66667
0.5555,0.99862,5.555,0.74793,68.949,232.09,-11.079,3.6931,-0.0092336,-14.773,1.7888e-12,-0.0046168,0,0,0.1,-2.3685e-16,0,0.66667
0.21251,0.41918,2.1251,-0.12123,-15.366,620.97,0.68704,-0.22901,-1.9448,0.91606,-2.9831e-11,-0.97242,0,0,0.1,-0,-0,0.66667
0.65934,0.47552,6.5934,-0.036724,-2.7466,141.99,0.6457,-0.21523,-1.9955,0.86093,-8.3583e-13,-0.99773,0,0,0.1,-0,-0,0.66667
0.072077,0.75977,0.72077,0.38966,51.518,806.15,-0.74894,0.24965,-1.4575,-0.99858,-1.6421e-07,-0.72876,0,0,0.1,-0,-0,0.66667
0.36173,0.15698,3.6173,-0.51453,-59.469,437.08,4.9633,-1.6544,-1.0609,6.6177,-2.7289e-12,-0.53046,0,0,0.1,-0,-0,0.66667
0.4004,0.13142,4.004,-0.55287,-61.75,392.59,5.9032,-1.9677,-0.91103,7.8709,1.4122e-13,-0.45552,0,0,0.1,-9.4739e-16,0,0.66667
0.60878,0.37436,6.0878,-0.18846,-15.712,183.1,3.0594,-1.0198,-1.879,4.0792,-1.4255e-12,-0.93948,0,0,0.1,1.3619e-15,0,0.66667
0.94867,0.29757,9.4867,-0.30364,-3.9015,4.5689,7.6815,-2.5605,-1.6704,10.242,-6.7572e-09,-0.8352,0,0,0.1,1.8948e-15,0,0.66667
0.21912,0.78268,2.1912,0.42401,53.652,612.64,-2.4776,0.82588,-1.3663,-3.3035,5.7717e-11,-0.68313,0,0,0.1,-9.4739e-16,0,0.66667
0.54416,0.02294,5.4416,-0.71559,-67.122,242.65,10.384,-3.4613,-0.17986,13.845,-1.6254e-13,-0.08993,0,0,0.1,-0,9.247e-17,0.66667
0.80224,0.70969,8.0224,0.31453,14.796,51.862,-6.7288,2.2429,-1.6461,-8.9718,-1.1799e-12,-0.82303,0,0,0.1,-9.4739e-16,0,0.66667
0.60296,0.95558,6.0296,0.68337,57.923,189.25,-10.988,3.6626,-0.33657,-14.65,1.406e-12,-0.16829,0,0,0.1,-0,-0,0.66667
0.73883,0.79025,7.3883,0.43538,26.194,87.352,-8.5779,2.8593,-1.3246,-11.437,-7.5895e-12,-0.66228,0,0,0.1,-0,-0,0.66667
0.11645,0.041796,1.1645,-0.68731,-90.334,747.08,2.1344,-0.71146,-0.31736,2.8458,-9.8702e-08,-0.15868,0,0,0.1,-0,-0,0.66667
0.83579,0.53313,8.3579,0.04969,1.9684,36.322,-1.1075,0.36916,-1.9893,-1.4766,-4.4311e-10,-0.99463,0,0,0.1,-1.8948e-15,0,0.66667
0.3113,0.32044,3.113,-0.26934,-32.295,497.09,2.2359,-0.74529,-1.745,2.9812,-4.8612e-12,-0.87251,0,0,0.1,-0,-0,0.66667
0.43711,0.48176,4.3711,-0.027365,-2.9356,351.17,0.31897,-0.10632,-2.0014,0.42529,-3.3475e-12,-1.0007,0,0,0.1,-0,-0,0.66667
0.08488,0.3365,0.8488,-0.24524,-32.336,788.97,0.5551,-0.18503,-1.7835,0.74014,5.2175e-08,-0.89175,0,0,0.1,-5.9212e-17,0,0.66667
0.68718,0.45155,6.8718,-0.072676,-5.0723,121.32,1.3318,-0.44392,-1.9854,1.7757,1.03e-12,-0.99272,0,0,0.1,-9.4739e-16,0,0.66667
0.84731,0.29003,8.4731,-0.31496,-11.694,32.041,7.1165,-2.3722,-1.6467,9.4887,-1.7075e-09,-0.82337,0,0,0.1,-0,-0,0.66667
0.48369,0.21661,4.8369,-0.42508,-43.249,301.97,5.4829,-1.8276,-1.3623,7.3105,-4.9223e-12,-0.68115,0,0,0.1,1.1842e-16,0,0.66667
0.10135,0.10131,1.0135,-0.59804,-78.792,767.11,1.6163,-0.53878,-0.72553,2.1551,1.1535e-08,-0.36277,0,0,0.1,-0,-0,0.66667
0.10296,0.97275,1.0296,0.70912,93.503,765.03,-1.9469,0.64898,-0.21,-2.5959,-7.46e-07,-0.105,0,0,0.1,-0,-0,0.66667
0.11563,0.75551,1.1563,0.38327,50.254,748.01,-1.1818,0.39392,-1.4755,-1.5757,-1.3321e-08,-0.73773,0,0,0.1,-2.3685e-16,0,0.66667
0.49491,0.68882,4.9491,0.28323,28.373,290.22,-3.738,1.246,-1.7139,-4.984,-2.1576e-12,-0.85696,0,0,0.1,-0,-0,0.66667
0.62202,0.1323,6.2202,-0.55155,-44.939,172.68,9.1488,-3.0496,-0.91868,12.198,1.4495e-12,-0.45934,0,0,0.1,-0,-0,0.66667
0.033262,0.19542,0.33262,-0.45687,-60.681,858.28,0.40524,-0.13508,-1.2595,0.54032,-5.5288e-07,-0.62973,0,0,0.1,-0,-0,0.66667
0.062583,0.89206,0.62583,0.58809,77.972,818.93,-0.98145,0.32715,-0.77503,-1.3086,2.8449e-07,-0.38751,0,0,0.1,-1.1842e-16,0,0.66667
0.98655,0.59929,9.8655,0.14894,0.44715,0.52788,-3.9182,1.3061,-1.9228,-5.2242,-6.9942e-08,-0.9614,0,0,0.1,-0,-0,0.66667
0.2911,0.77304,2.911,0.40955,49.812,521.97,-3.1793,1.0598,-1.4013,-4.239,-1.0787e-12,-0.70063,0,0,0.1,2.3685e-16,0,0.66667
0.47673,0.10996,4.7673,-0.58506,-60.145,309.54,7.4378,-2.4793,-0.77966,9.9171,-2.7374e-12,-0.38983,0,0,0.1,-1.512e-15,0,0.66667
0.63063,0.97467,6.3063,0.712,57.137,166.16,-11.974,3.9912,-0.19555,-15.965,-1.6023e-12,-0.097774,0,0,0.1,-0,-0,0.66667
0.7149,0.012412,7.149,-0.73138,-47.657,103.82,13.943,-4.6477,-0.096944,18.591,7.665e-13,-0.048472,0,0,0.1,-0,-1.1342e-16,0.66667
0.10945,0.82384,1.0945,0.48575,63.827,756.27,-1.4177,0.47257,-1.1659,-1.8903,-2.1636e-08,-0.58294,0,0,0.1,-0,-0,0.66667
0.10965,0.56197,1.0965,0.092961,12.192,755.89,-0.27183,0.09061,-1.9752,-0.36244,-1.7404e-08,-0.98758,0,0,0.1,3.0346e-16,0,0.66667
0.91206,0.57352,9.1206,0.11028,2.4095,11.303,-2.6823,0.8941,-1.9542,-3.5764,9.2904e-09,-0.97708,0,0,0.1,-1.8948e-15,0,0.66667
0.32409,0.27996,3.2409,-0.33006,-39.231,481.63,2.8526,-0.95085,-1.6127,3.8034,-4.9214e-12,-0.80635,0,0,0.1,7.1054e-16,0,0.66667
0.72386,0.56461,7.2386,0.09692,6.0959,96.254,-1.8708,0.62362,-1.9656,-2.4945,-6.3237e-12,-0.98278,0,0,0.1,1.8948e-15,0,0.66667
0.70962,0.68164,7.0962,0.27246,17.897,105.89,-5.1558,1.7186,-1.7337,-6.8744,-1.8447e-12,-0.86684,0,0,0.1,-1.4211e-15,0,0.66667
0.46881,0.42504,4.6881,-0.11244,-11.633,317.16,1.4057,-0.46855,-1.9599,1.8742,-3.8034e-12,-0.97993,0,0,0.1,-0,-0,0.66667
0.091311,0.92629,0.91311,0.63944,84.445,780.52,-1.557,0.519,-0.54692,-2.076,-2.5364e-07,-0.27346,0,0,0.1,-0,-0,0.66667
0.88983,0.77926,8.8983,0.41888,11.46,17.843,-9.9396,3.3132,-1.3807,-13.253,2.3488e-08,-0.69036,0,0,0.1,-2.1316e-15,0,0.66667
0.83452,0.93591,8.3452,0.65387,26.375,38.428,-14.551,4.8503,-0.47822,-19.401,-2.2382e-08,-0.23911,0,0,0.1,-1.0607e-15,0,0.66667
0.43167,0.451,4.3167,-0.073498,-7.9311,357.14,0.84605,-0.28202,-1.9781,1.1281,-3.379e-13,-0.98903,0,0,0.1,-0,-0,0.66667
0.4559,0.93917,4.559,0.65875,69.49,331.73,-8.0086,2.6695,-0.45854,-10.678,4.2046e-12,-0.22927,0,0,0.1,-0,-0,0.66667
0.5459,0.23233,5.459,-0.40151,-37.414,240.15,5.8449,-1.9483,-1.4298,7.7933,9.0594e-14,-0.71489,0,0,0.1,-9.4739e-16,0,0.66667
0.3785,0.91044,3.785,0.61566,70.211,417.77,-6.214,2.0713,-0.65244,-8.2853,-5.6466e-12,-0.32622,0,0,0.1,-0,-0,0.66667
0.50468,0.78521,5.0468,0.42782,42.345,280.54,-5.7576,1.9192,-1.3482,-7.6769,-4.5541e-12,-0.6741,0,0,0.1,-0,-0,0.66667
0.47267,0.58678,4.7267,0.13018,13.405,313.1,-1.6408,0.54694,-1.939,-2.1877,2.4132e-12,-0.9695,0,0,0.1,-4.737e-16,0,0.66667
0.28587,0.35413,2.8587,-0.2188,-26.673,528.29,1.668,-0.55599,-1.828,2.224,-5.1965e-12,-0.91402,0,0,0.1,-0,-0,0.66667
0.87249,0.90205,8.7249,0.60307,19.075,23.975,-14.031,4.6771,-0.70822,-18.708,1.0113e-08,-0.35411,0,0,0.1,-9.4739e-16,0,0.66667
0.04716,0.14232,0.4716,-0.53652,-71.225,839.61,0.67473,-0.22491,-0.9808,0.89964,1.2028e-06,-0.4904,0,0,0.1,-0,-0,0.66667
0.36431,0.56984,3.6431,0.10476,12.054,433.65,-1.0177,0.33924,-1.9593,-1.357,3.8747e-14,-0.97964,0,0,0.1,-0,-0,0.66667
0.77404,0.05246,7.7404,-0.67131,-35.803,67.703,13.856,-4.6188,-0.39464,18.475,2.0416e-10,-0.19732,0,0,0.1,-9.4739e-16,0,0.66667
0.48551,0.055455,4.8551,-0.66682,-67.87,300.65,8.6333,-2.8778,-0.42221,11.511,-4.3299e-12,-0.2111,0,0,0.1,-4.737e-16,0,0.66667
0.78628,0.75986,7.8628,0.38979,19.675,60.122,-8.1729,2.7243,-1.4578,-10.897,-4.795e-11,-0.72888,0,0,0.1,-0,-0,0.66667
0.48261,0.7558,4.8261,0.3837,39.079,303.02,-4.938,1.646,-1.4788,-6.584,4.9161e-13,-0.7394,0,0,0.1,-0,-0,0.66667
0.98946,0.88287,9.8946,0.5743,1.4664,1.7471,-15.153,5.0511,-0.82544,-20.204,1.3868e-05,-0.41272,0,0,0.1,-0,-0,0.66667
0.88404,0.16372,8.8404,-0.50441,-14.532,19.877,11.891,-3.9638,-1.0927,15.855,4.4127e-09,-0.54637,0,0,0.1,-0,-0,0.66667
0.007732,0.43667,0.07732,-0.094999,-12.611,892.64,0.019588,-0.0065291,-1.9662,0.026117,1.5978e-07,-0.98308,0,0,0.1,9.2519e-19,0,0.66667
0.47505,0.46144,4.7505,-0.057837,-5.9377,310.58,0.73268,-0.24423,-1.9856,0.9769,-7.094e-12,-0.99281,0,0,0.1,-0,-0,0.66667
0.85741,0.51545,8.5741,0.02318,0.80502,27.841,-0.52999,0.17666,-1.9994,-0.70666,7.9495e-10,-0.99969,0,0,0.1,-3.7896e-15,0,0.66667
0.34353,0.96147,3.4353,0.69221,81.343,458.9,-6.3411,2.1137,-0.30123,-8.4548,8.7441e-13,-0.15061,0,0,0.1,4.737e-16,-8.4625e-17,0.66667
0.72899,0.10651,7.2899,-0.59024,-36.745,94.048,11.474,-3.8247,-0.75887,15.299,5.9348e-12,-0.37943,0,0,0.1,-0,-0,0.66667
0.41832,0.21242,4.1832,-0.43138,-47.284,372.25,4.812,-1.604,-1.3381,6.416,1.9691e-12,-0.66905,0,0,0.1,-0,-0,0.66667
0.095764,0.39623,0.95764,-0.15565,-20.476,774.41,0.39749,-0.1325,-1.9153,0.52998,2.7337e-08,-0.95764,0,0,0.1,-0,-0,0.66667
0.31526,0.041313,3.1526,-0.68803,-82.556,492.84,5.7842,-1.9281,-0.31719,7.7122,3.3396e-12,-0.1586,0,0,0.1,-9.4739e-16,0,0.66667
0.31302,0.27078,3.1302,-0.34382,-41.193,495.06,2.8699,-0.95664,-1.5837,3.8266,-4.5193e-12,-0.79184,0,0,0.1,-0,-0,0.66667
0.65455,0.73351,6.5455,0.35026,26.533,146.04,-6.1137,2.0379,-1.5655,-8.1516,3.495e-13,-0.78275,0,0,0.1,-0,-0,0.66667
0.92687,0.083069,9.2687,-0.6254,-11.639,9.6036,15.458,-5.1526,-0.60729,20.61,-5.079e-07,-0.30365,0,0,0.1,-9.4739e-16,0,0.66667
0.70369,0.96115,7.0369,0.69172,46.499,111.2,-12.98,4.3267,-0.30292,-17.307,-1.1227e-12,-0.15146,0,0,0.1,-0,-0,0.66667
0.32303,0.79047,3.2303,0.43571,51.864,483.02,-3.7533,1.2511,-1.323,-5.0044,-2.2067e-12,-0.6615,0,0,0.1,-0,-0,0.66667
0.68312,0.04274,6.8312,-0.68589,-48.71,125.66,12.495,-4.1648,-0.32571,16.659,7.7094e-13,-0.16286,0,0,0.1,-0,-0,0.66667
0.084102,0.61924,0.84102,0.17887,23.582,790,-0.40115,0.13372,-1.8841,-0.53486,-4.0419e-08,-0.94205,0,0,0.1,-0,-0,0.66667
0.3755,0.39127,3.755,-0.16309,-18.589,420.64,1.6331,-0.54437,-1.9093,2.1775,-4.5022e-12,-0.95464,0,0,0.1,-0,-0,0.66667
0.19006,0.68785,1.9006,0.28177,36.071,650.07,-1.4281,0.47603,-1.7197,-1.9041,-4.6124e-11,-0.85987,0,0,0.1,-4.737e-16,0,0.66667
0.69305,0.01768,6.9305,-0.72348,-50.101,118.73,13.371,-4.4569,-0.13637,17.828,-1.5161e-12,-0.068186,0,0,0.1,-0,-0,0.66667
0.66211,0.71928,6.6211,0.32893,24.476,140.19,-5.8076,1.9359,-1.6141,-7.7434,-3.8947e-13,-0.80707,0,0,0.1,-0,-0,0.66667
0.35307,0.8519,3.5307,0.52785,61.451,447.29,-4.9698,1.6566,-1.0067,-6.6265,-3.0944e-12,-0.50337,0,0,0.1,-0,-0,0.66667
0.1806,0.83313,1.806,0.49969,64.291,662.51,-2.4066,0.80219,-1.1092,-3.2088,3.677e-10,-0.5546,0,0,0.1,-0,-0,0.66667
0.15666,0.13687,1.5666,-0.5447,-70.694,693.87,2.2755,-0.75851,-0.9492,3.0341,-2.2342e-10,-0.4746,0,0,0.1,-0,-0,0.66667
0.23699,0.95886,2.3699,0.68829,86.554,590.13,-4.3498,1.4499,-0.31614,-5.7997,3.9544e-11,-0.15807,0,0,0.1,-2.3685e-16,0,0.66667
0.32846,0.11359,3.2846,-0.57961,-68.808,476.7,5.0768,-1.6923,-0.8098,6.7691,-3.0651e-12,-0.4049,0,0,0.1,-4.737e-16,0,0.66667
0.8696,0.45428,8.696,-0.068585,-2.1898,23.554,1.5904,-0.53015,-1.9808,2.1206,-1.7465e-09,-0.99039,0,0,0.1,8.6497e-16,0,0.66667
0.12191,0.96751,1.2191,0.70126,92.06,739.85,-2.2798,0.75994,-0.25265,-3.0398,2.8794e-07,-0.12633,0,0,0.1,-3.5527e-16,0,0.66667
0.16814,0.20521,1.6814,-0.44219,-57.123,678.74,1.9827,-0.6609,-1.3037,2.6436,1.059e-10,-0.65187,0,0,0.1,-0,-0,0.66667
0.37046,0.67156,3.7046,0.25733,29.47,426.57,-2.5422,0.84739,-1.7627,-3.3895,-4.0596e-12,-0.88134,0,0,0.1,-4.737e-16,0,0.66667
0.60435,0.0019786,6.0435,-0.74703,-63.222,188.3,12.039,-4.013,-0.014852,16.052,9.5923e-14,-0.007426,0,0,0.1,-0,-0,0.66667
0.055815,0.26573,0.55815,-0.35141,-46.549,827.95,0.52304,-0.17435,-1.5578,0.69739,6.9851e-08,-0.77891,0,0,0.1,1.1842e-16,0,0.66667
0.24523,0.82851,2.4523,0.49276,61.587,579.43,-3.2224,1.0741,-1.1346,-4.2965,1.7291e-11,-0.5673,0,0,0.1,-0,-0,0.66667
0.83397,0.85241,8.3397,0.52862,21.306,38.108,-11.756,3.9187,-1.004,-15.675,1.3267e-09,-0.50201,0,0,0.1,-0,-0,0.66667
0.66288,0.18898,6.6288,-0.46653,-34.704,139.92,8.2468,-2.7489,-1.2244,10.996,-2.0091e-12,-0.61221,0,0,0.1,-0,-0,0.66667
0.35143,0.16828,3.5143,-0.49759,-57.988,449.18,4.6631,-1.5544,-1.1165,6.2175,-3.475e-12,-0.55824,0,0,0.1,-0,-0,0.66667
0.11421,0.84243,1.1421,0.51364,67.433,749.95,-1.5644,0.52146,-1.0613,-2.0858,1.137e-09,-0.53064,0,0,0.1,-3.2356e-16,0,0.66667
0.3249,0.45829,3.249,-0.062558,-7.4243,480.5,0.542,-0.18067,-1.9858,0.72267,-9.2498e-12,-0.9929,0,0,0.1,-4.737e-16,0,0.66667
0.24452,0.87613,2.4452,0.5642,70.586,580.41,-3.6788,1.2263,-0.8671,-4.9051,-1.3148e-10,-0.43355,0,0,0.1,9.4739e-16,0,0.66667
0.71057,0.57143,7.1057,0.10715,7.0119,105.06,-2.0303,0.67676,-1.9562,-2.7071,-2.3197e-12,-0.97811,0,0,0.1,-0,-0,0.66667
0.30055,0.45703,3.0055,-0.064461,-7.7811,510.14,0.51663,-0.17221,-1.9843,0.68884,-5.4795e-12,-0.99217,0,0,0.1,-4.737e-16,0,0.66667
0.67724,0.78096,6.7724,0.42143,30.251,129.06,-7.6109,2.537,-1.3677,-10.148,2.2622e-12,-0.68384,0,0,0.1,-1.3027e-15,0,0.66667
0.41266,0.20486,4.1266,-0.44271,-48.808,378.59,4.8717,-1.6239,-1.3001,6.4956,1.5064e-12,-0.65007,0,0,0.1,-4.737e-16,0,0.66667
0.34994,0.56267,3.4994,0.094,10.945,450.57,-0.87718,0.29239,-1.9673,-1.1696,-9.7994e-12,-0.98366,0,0,0.1,-9.4739e-16,0,0.66667
0.78582,0.50929,7.8582,0.013937,0.7026,59.831,-0.29204,0.097348,-1.9977,-0.38939,-5.0587e-11,-0.99885,0,0,0.1,-0,-0,0.66667
0.1854,0.90732,1.854,0.61098,78.544,656.36,-3.0207,1.0069,-0.67528,-4.0277,4.6528e-09,-0.33764,0,0,0.1,4.737e-16,1.5663e-17,0.66667
0.45682,0.96662,4.5682,0.69992,73.795,330.85,-8.5264,2.8421,-0.2584,-11.369,2.1982e-12,-0.1292,0,0,0.1,5.9212e-16,0,0.66667
0.58351,0.71058,5.8351,0.31587,27.625,205.33,-4.915,1.6383,-1.6431,-6.5534,-2.6867e-13,-0.82157,0,0,0.1,-4.737e-16,0,0.66667
0.3212,0.21449,3.212,-0.42826,-51.042,485.23,3.6682,-1.2227,-1.3456,4.8909,-8.006e-12,-0.67281,0,0,0.1,3.0861e-16,0,0.66667
0.70625,0.4274,7.0625,-0.1089,-7.2154,107.99,2.0509,-0.68365,-1.9577,2.7346,-1.271e-12,-0.97885,0,0,0.1,9.4739e-16,0,0.66667
0.91783,0.77585,9.1783,0.41377,8.5267,10.62,-10.127,3.3757,-1.3906,-13.503,5.8676e-08,-0.6953,0,0,0.1,5.4346e-16,0,0.66667
0.073071,0.43242,0.73071,-0.10138,-13.387,804.77,0.19754,-0.065846,-1.962,0.26338,7.4444e-08,-0.98098,0,0,0.1,1.4803e-16,0,0.66667
0.18143,0.4371,1.8143,-0.094346,-12.111,661.24,0.45645,-0.15215,-1.9671,0.6086,-2.2178e-10,-0.98355,0,0,0.1,-2.8866e-16,0,0.66667
0.50911,0.76859,5.0911,0.40288,39.627,276.04,-5.4697,1.8232,-1.4199,-7.2929,-4.5781e-12,-0.70994,0,0,0.1,-0,-0,0.66667
0.79988,0.60458,7.9988,0.15687,7.4463,52.757,-3.3461,1.1154,-1.9125,-4.4615,-4.8152e-11,-0.95623,0,0,0.1,-0,-0,0.66667
0.63096,0.5947,6.3096,0.14205,11.32,164.54,-2.39,0.79666,-1.9269,-3.1866,1.1569e-12,-0.96347,0,0,0.1,-1.8948e-15,0,0.66667
0.019691,0.4018,0.19691,-0.14731,-19.55,876.53,0.077348,-0.025783,-1.9223,0.10313,-1.3681e-07,-0.96116,0,0,0.1,1.4803e-17,0,0.66667
0.32998,0.85195,3.2998,0.52792,62.569,474.78,-4.6454,1.5485,-1.0109,-6.1939,-3.6486e-12,-0.50545,0,0,0.1,-0,-0,0.66667
0.65383,0.39671,6.5383,-0.15493,-11.74,146.32,2.7013,-0.90045,-1.9155,3.6018,-2.1569e-12,-0.95775,0,0,0.1,-0,-0,0.66667
0.68714,0.81893,6.8714,0.47839,33.503,122.03,-8.7659,2.922,-1.191,-11.688,-3.2685e-13,-0.59549,0,0,0.1,-0,-0,0.66667
0.48225,0.39361,4.8225,-0.15958,-16.24,303.13,2.0522,-0.68406,-1.9105,2.7363,-3.3764e-12,-0.95527,0,0,0.1,4.737e-16,0,0.66667
0.053735,0.41856,0.53735,-0.12216,-16.172,830.72,0.17505,-0.05835,-1.9439,0.2334,-4.2091e-08,-0.97193,0,0,0.1,-0,-0,0.66667
0.62779,0.3525,6.2779,-0.22126,-17.756,167.21,3.704,-1.2347,-1.8264,4.9387,-1.9762e-14,-0.91318,0,0,0.1,-0,-0,0.66667
0.50403,0.181,5.0403,-0.47851,-47.427,281.3,6.4315,-2.1438,-1.1851,8.5754,1.994e-13,-0.59255,0,0,0.1,-4.737e-16,0,0.66667
0.72541,0.45976,7.2541,-0.060359,-3.7779,95.231,1.1676,-0.3892,-1.9842,1.5568,2.0306e-13,-0.99212,0,0,0.1,-0,-0,0.66667
0.39049,0.88182,3.9049,0.57273,64.581,403.9,-5.964,1.988,-0.83882,-7.952,-3.3467e-12,-0.41941,0,0,0.1,-9.4739e-16,8.0846e-17,0.66667
0.83573,0.64832,8.3573,0.22248,8.8272,36.522,-4.9582,1.6527,-1.8211,-6.6109,7.5329e-10,-0.91057,0,0,0.1,-0,-0,0.66667
0.3075,0.47001,3.075,-0.044984,-5.4046,501.62,0.36887,-0.12296,-1.992,0.49183,-5.8407e-12,-0.99601,0,0,0.1,-0,-0,0.66667
0.86379,0.74578,8.6379,0.36867,12.316,26.067,-8.492,2.8307,-1.5159,-11.323,4.9317e-09,-0.75796,0,0,0.1,-9.4739e-16,0,0.66667
0.014481,0.16046,0.14481,-0.50931,-67.733,883.56,0.19667,-0.065555,-1.0813,0.26222,1.4352e-06,-0.54063,0,0,0.1,-0,-0,0.66667
0.76274,0.80242,7.6274,0.45363,25.128,73.178,-9.2267,3.0756,-1.2685,-12.302,-2.3501e-11,-0.63426,0,0,0.1,9.4739e-16,0,0.66667
0.82737,0.53621,8.2737,0.054319,2.2532,39.906,-1.1985,0.39949,-1.9937,-1.5979,-1.2748e-10,-0.99683,0,0,0.1,-0,-0,0.66667
0.6809,0.065784,6.809,-0.65132,-46.487,127.13,11.826,-3.9421,-0.48963,15.768,2.1521e-12,-0.24482,0,0,0.1,-1.8948e-15,0,0.66667
0.90273,0.99868,9.0273,0.74802,18.456,15.828,-18.007,6.0024,-0.011136,-24.009,4.0848e-08,-0.0055681,0,0,0.1,3.4343e-15,-1.9125e-17,0.66667
0.20173,0.82308,2.0173,0.48462,61.822,635.08,-2.6071,0.86902,-1.1673,-3.4761,1.2921e-10,-0.58367,0,0,0.1,-4.737e-16,0,0.66667
0.35195,0.74005,3.5195,0.36007,41.901,448.38,-3.3794,1.1265,-1.536,-4.5059,-3.0194e-12,-0.76799,0,0,0.1,-4.737e-16,0,0.66667
0.22914,0.20064,2.2914,-0.44904,-56.561,599.84,2.7438,-0.91462,-1.2807,3.6585,-6.4098e-11,-0.64035,0,0,0.1,-0,-0,0.66667
0.84492,0.2232,8.4492,-0.4152,-15.671,33.254,9.3548,-3.1183,-1.3905,12.473,-1.0402e-09,-0.69527,0,0,0.1,-1.8948e-15,0,0.66667
0.74641,0.26853,7.4641,-0.3472,-20.343,82.488,6.9108,-2.3036,-1.5705,9.2144,1.4396e-11,-0.78527,0,0,0.1,-0,-0,0.66667
0.86905,0.19166,8.6905,-0.46252,-14.926,24.546,10.719,-3.5729,-1.2375,14.292,-5.4121e-09,-0.61875,0,0,0.1,-1.8948e-15,0,0.66667
0.34762,0.9859,3.4762,0.72885,85.413,454.12,-6.7564,2.2521,-0.11,-9.0086,-2.3435e-12,-0.054999,0,0,0.1,4.737e-16,0,0.66667
0.15395,0.34567,1.5395,-0.23149,-30.012,697.26,0.95035,-0.31678,-1.8116,1.2671,1.6979e-09,-0.90578,0,0,0.1,-0,-0,0.66667
0.96828,0.26998,9.6828,-0.34503,-2.7132,2.2888,8.9089,-2.9696,-1.5808,11.879,6.6483e-07,-0.79039,0,0,0.1,9.4739e-16,0,0.66667
0.44892,0.38104,4.4892,-0.17843,-18.898,338.4,2.1361,-0.71203,-1.8859,2.8481,-3.8174e-12,-0.94295,0,0,0.1,9.4739e-16,0,0.66667
0.7299,0.33153,7.299,-0.2527,-15.612,92.546,4.9186,-1.6395,-1.7712,6.5581,4.4804e-12,-0.88562,0,0,0.1,9.4739e-16,0,0.66667
0.65417,0.049432,6.5417,-0.67585,-51.477,147.31,11.79,-3.93,-0.37705,15.72,-8.1535e-13,-0.18852,0,0,0.1,-0,-0,0.66667
0.14285,0.52089,1.4285,0.031338,4.0749,711.86,-0.11938,0.039792,-1.9976,-0.15917,-3.0406e-10,-0.99879,0,0,0.1,-0,-0,0.66667
0.84418,0.86043,8.4418,0.54065,20.564,33.997,-12.171,4.0569,-0.9647,-16.228,-5.534e-10,-0.48235,0,0,0.1,-9.4739e-16,0,0.66667
0.97846,0.028444,9.7846,-0.70733,-3.9729,3.0949,18.456,-6.152,-0.21939,24.608,4.3607e-05,-0.1097,0,0,0.1,-1.8948e-15,0,0.66667
0.96625,0.22659,9.6625,-0.41012,-3.4612,2.7023,10.567,-3.5224,-1.4029,14.09,4.4083e-07,-0.70144,0,0,0.1,-0,-0,0.66667
0.3364,0.46031,3.364,-0.059537,-7.0054,466.68,0.53409,-0.17803,-1.9845,0.71212,1.9955e-12,-0.99225,0,0,0.1,2.3685e-16,0,0.66667
0.92595,0.6871,9.2595,0.28065,5.196,8.504,-6.9298,2.3099,-1.7201,-9.2398,1.0202e-07,-0.86007,0,0,0.1,2.2501e-15,0,0.66667
0.13324,0.94588,1.3324,0.66881,87.512,724.82,-2.3764,0.79214,-0.40667,-3.1686,5.5927e-08,-0.20333,0,0,0.1,2.3685e-16,0,0.66667
0.93972,0.9198,9.3972,0.6297,9.7083,7.2571,-15.78,5.26,-0.59105,-21.04,-2.2704e-06,-0.29552,0,0,0.1,1.8948e-15,0,0.66667
0.0441,0.52136,0.441,0.03204,4.245,843.67,-0.037679,0.01256,-1.9967,-0.050239,-1.7125e-07,-0.99834,0,0,0.1,-0,-0,0.66667
0.40908,0.77445,4.0908,0.41167,45.536,382.56,-4.4908,1.4969,-1.398,-5.9878,-1.2061e-12,-0.699,0,0,0.1,-2.3685e-16,0,0.66667
0.84301,0.25814,8.4301,-0.36279,-13.834,33.86,8.1555,-2.7185,-1.5358,10.874,-1.3586e-09,-0.7679,0,0,0.1,-0,-0,0.66667
0.72623,0.86015,7.2623,0.54022,33.889,95.633,-10.462,3.4873,-0.9591,-13.949,9.5159e-12,-0.47955,0,0,0.1,-1.8074e-15,0,0.66667
0.72093,0.58245,7.2093,0.12367,7.8492,98.185,-2.3776,0.79252,-1.9467,-3.1701,-1.7892e-12,-0.97335,0,0,0.1,-9.4739e-16,0,0.66667
0.27735,0.50647,2.7735,0.0097109,1.1895,538.81,-0.071821,0.02394,-1.999,-0.095761,-1.6952e-12,-0.9995,0,0,0.1,-0,-0,0.66667
0.42121,0.15878,4.2121,-0.51183,-55.977,369.17,5.7491,-1.9164,-1.0733,7.6654,1.7475e-12,-0.53664,0,0,0.1,9.4739e-16,0,0.66667
0.58955,0.098303,5.8955,-0.60255,-52.291,200.66,9.4728,-3.1576,-0.70843,12.63,2.4665e-12,-0.35422,0,0,0.1,-0,-0,0.66667
0.38914,0.70633,3.8914,0.30949,34.867,405.05,-3.2116,1.0705,-1.6616,-4.2821,-5.4028e-12,-0.83078,0,0,0.1,-0,-0,0.66667
0.50598,0.72314,5.0598,0.33472,33.047,279.08,-4.5162,1.5054,-1.5997,-6.0216,-3.1894e-12,-0.79985,0,0,0.1,-0,-0,0.66667
0.54035,0.21788,5.4035,-0.42318,-39.781,245.48,6.0977,-2.0326,-1.3617,8.1303,1.2093e-12,-0.68087,0,0,0.1,-1.0658e-15,0,0.66667
0.82427,0.37278,8.2427,-0.19082,-8.0524,41.386,4.1944,-1.3981,-1.8706,5.5926,-2.5053e-10,-0.9353,0,0,0.1,-1.1842e-15,0,0.66667
0.72498,0.44651,7.2498,-0.080231,-5.0287,95.521,1.5511,-0.51703,-1.9745,2.0681,1.5479e-12,-0.98724,0,0,0.1,-0,-0,0.66667
0.66049,0.41929,6.6049,-0.12107,-9.0315,141.15,2.1324,-0.71079,-1.9464,2.8431,-2.1414e-12,-0.97318,0,0,0.1,9.4739e-16,0,0.66667
0.035884,0.8363,0.35884,0.50445,67.012,854.76,-0.48271,0.1609,-1.0938,-0.64361,-6.6334e-07,-0.54688,0,0,0.1,2.9606e-17,0,0.66667
0.15539,0.93296,1.5539,0.64944,84.406,695.63,-2.691,0.89701,-0.50438,-3.588,-3.5127e-08,-0.25219,0,0,0.1,-2.3685e-16,-5.8824e-17,0.66667
0.88653,0.021107,8.8653,-0.71834,-20.469,20.16,16.982,-5.6607,-0.16406,22.643,-2.9021e-08,-0.08203,0,0,0.1,-0,-0,0.66667
0.76576,0.83426,7.6576,0.50138,27.489,71.622,-10.238,3.4128,-1.111,-13.651,-9.1056e-12,-0.55551,0,0,0.1,-0,-0,0.66667
0.18038,0.79132,1.8038,0.43699,56.201,662.75,-2.102,0.70067,-1.318,-2.8027,-2.1019e-10,-0.65902,0,0,0.1,-0,-0,0.66667
0.065156,0.19595,0.65156,-0.45607,-60.384,815.44,0.79243,-0.26414,-1.2611,1.0566,2.008e-07,-0.63053,0,0,0.1,-0,-0,0.66667
0.16273,0.59753,1.6273,0.1463,18.908,685.7,-0.63487,0.21162,-1.9218,-0.84649,-4.1607e-10,-0.96092,0,0,0.1,-4.737e-16,0,0.66667
0.83741,0.24947,8.3741,-0.3758,-14.805,36.168,8.3919,-2.7973,-1.4965,11.189,-6.9249e-10,-0.74823,0,0,0.1,-3.5527e-16,0,0.66667
0.97311,0.56584,9.7311,0.098756,0.6421,1.3788,-2.5627,0.85423,-1.9647,-3.4169,-5.236e-07,-0.98234,0,0,0.1,-0,-0,0.66667
0.7551,0.55649,7.551,0.084735,4.8073,76.93,-1.7062,0.56874,-1.9728,-2.275,-1.7073e-11,-0.98641,0,0,0.1,9.4739e-16,0,0.66667
0.7846,0.48547,7.846,-0.021795,-1.1044,60.472,0.45602,-0.15201,-1.9977,0.60802,2.2868e-11,-0.99884,0,0,0.1,9.4739e-16,0,0.66667
0.029384,0.80094,0.29384,0.45141,59.968,863.5,-0.35372,0.11791,-1.277,-0.47162,1.9736e-06,-0.63852,0,0,0.1,-0,-0,0.66667
0.87464,0.12655,8.7464,-0.56018,-17.408,23.074,13.065,-4.3551,-0.88978,17.42,-1.3261e-08,-0.44489,0,0,0.1,-0,2.2611e-17,0.66667
0.68115,0.84575,6.8115,0.51863,36.909,126.48,-9.4204,3.1401,-1.0419,-12.56,8.1801e-13,-0.52097,0,0,0.1,-0,-0,0.66667
0.34905,0.69207,3.4905,0.2881,33.591,451.74,-2.6817,0.89388,-1.7033,-3.5755,-6.8157e-12,-0.85165,0,0,0.1,-0,-0,0.66667
0.49958,0.18161,4.9958,-0.47759,-47.62,285.79,6.3625,-2.1208,-1.1937,8.4834,-3.9178e-12,-0.59684,0,0,0.1,7.1054e-16,-4.2114e-18,0.66667
0.95006,0.90026,9.5006,0.60039,7.6704,5.4999,-15.211,5.0702,-0.71872,-20.281,6.6328e-07,-0.35936,0,0,0.1,-4.737e-16,7.7359e-17,0.66667
0.054088,0.81076,0.54088,0.46613,61.802,830.29,-0.67232,0.22411,-1.2256,-0.89643,-1.0237e-07,-0.61278,0,0,0.1,8.1416e-17,0,0.66667
0.1917,0.65963,1.917,0.23944,30.627,647.92,-1.224,0.40801,-1.7957,-1.632,-3.2389e-11,-0.89783,0,0,0.1,-0,-0,0.66667
0.15015,0.93317,1.5015,0.64975,84.585,702.51,-2.6016,0.8672,-0.49695,-3.4688,-4.9266e-08,-0.24847,0,0,0.1,3.5527e-16,0,0.66667
0.53825,0.75052,5.3825,0.37578,35.424,247.41,-5.3936,1.7979,-1.4963,-7.1915,2.7489e-13,-0.74817,0,0,0.1,-0,-0,0.66667
0.23563,0.25034,2.3563,-0.37449,-46.996,591.51,2.3531,-0.78435,-1.5055,3.1374,-2.4555e-11,-0.75273,0,0,0.1,-0,-0,0.66667
0.076734,0.46742,0.76734,-0.048864,-6.4485,799.86,0.099988,-0.033329,-1.9952,0.13332,-8.4955e-08,-0.99758,0,0,0.1,-1.4803e-16,0,0.66667
0.515,0.90438,5.15,0.60657,59.303,270.64,-8.3302,2.7767,-0.69676,-11.107,-3.0411e-12,-0.34838,0,0,0.1,3.5527e-16,0,0.66667
0.83625,0.84836,8.3625,0.52254,20.792,37.133,-11.653,3.8842,-1.0268,-15.537,1.5356e-09,-0.51338,0,0,0.1,-0,-0,0.66667
0.68195,0.55467,6.8195,0.082006,5.8019,125.1,-1.4913,0.4971,-1.9739,-1.9884,-8.8785e-13,-0.98696,0,0,0.1,4.737e-16,0,0.66667
0.036724,0.025988,0.36724,-0.71102,-94.633,853.67,0.6963,-0.23209,-0.20072,0.92841,1.5964e-05,-0.10036,0,0,0.1,-2.9606e-17,0,0.66667
0.04527,0.03859,0.4527,-0.69211,-92.033,842.19,0.83552,-0.27849,-0.29912,1.114,2.1586e-05,-0.14956,0,0,0.1,-0,-8.5129e-17,0.66667
0.53809,0.072325,5.3809,-0.64151,-60.669,248.21,9.205,-3.0683,-0.53383,12.273,7.3985e-13,-0.26692,0,0,0.1,-9.4739e-16,0,0.66667
0.14142,0.23022,1.4142,-0.40467,-52.709,713.86,1.5261,-0.50868,-1.4212,2.0347,3.3971e-09,-0.71058,0,0,0.1,-2.3685e-16,0,0.66667
0.70723,0.11713,7.0723,-0.5743,-38.135,108.31,10.831,-3.6104,-0.82626,14.441,7.3443e-12,-0.41313,0,0,0.1,9.4739e-16,0,0.66667
0.24745,0.18911,2.4745,-0.46633,-58.203,576.6,3.0771,-1.0257,-1.2286,4.1028,1.6099e-11,-0.61429,0,0,0.1,-9.4739e-16,0,0.66667
0.43996,0.88505,4.3996,0.57758,61.966,348.71,-6.7763,2.2588,-0.81465,-9.035,6.6125e-13,-0.40732,0,0,0.1,-0,-0,0.66667
0.62029,0.35326,6.2029,-0.22011,-17.939,173.42,3.6409,-1.2136,-1.826,4.8545,-1.3793e-12,-0.913,0,0,0.1,-0,-0,0.66667
0.97274,0.2423,9.7274,-0.38655,-2.6063,2.0141,10.027,-3.3423,-1.4678,13.369,1.5276e-06,-0.73392,0,0,0.1,-9.4739e-16,0,0.66667
0.19701,0.49506,1.9701,-0.0074058,-0.94479,640.99,0.038906,-0.012969,-1.9977,0.051875,1.6242e-10,-0.99885,0,0,0.1,-0,-0,0.66667
0.91184,0.9253,9.1184,0.63795,14.234,12.957,-15.512,5.1707,-0.55042,-20.683,2.5123e-07,-0.27521,0,0,0.1,-9.4739e-16,0,0.66667
0.35078,0.97482,3.5078,0.71223,83.239,450.36,-6.6622,2.2207,-0.19381,-8.8829,-2.2142e-12,-0.096903,0,0,0.1,-0,-0,0.66667
0.16192,0.63754,1.6192,0.2063,26.675,686.78,-0.89081,0.29694,-1.8461,-1.1878,-9.5299e-10,-0.92303,0,0,0.1,2.3685e-16,0,0.66667
0.42086,0.34494,4.2086,-0.23258,-25.396,369.17,2.6103,-0.8701,-1.812,3.4804,-6.6858e-13,-0.906,0,0,0.1,-0,-0,0.66667
0.84148,0.0782,8.4148,-0.6327,-24.519,35.478,14.197,-4.7325,-0.57749,18.93,-2.4828e-09,-0.28874,0,0,0.1,1.8948e-15,0,0.66667
0.043786,0.93575,0.43786,0.65362,86.89,844.17,-0.76318,0.25439,-0.48204,-1.0176,-1.1573e-05,-0.24102,0,0,0.1,-7.4015e-17,-2.5461e-17,0.66667
0.13697,0.14018,1.3697,-0.53974,-70.463,719.81,1.9714,-0.65714,-0.96324,2.6286,3.6674e-09,-0.48162,0,0,0.1,2.3685e-16,0,0.66667
0.58994,0.33376,5.8994,-0.24936,-21.547,199.53,3.9228,-1.3076,-1.778,5.2304,-2.2995e-12,-0.889,0,0,0.1,-4.737e-16,0,0.66667
0.40858,0.96915,4.0858,0.70372,78.116,383.71,-7.6674,2.5558,-0.24156,-10.223,-1.2168e-12,-0.12078,0,0,0.1,-0,-0,0.66667
0.47828,0.54932,4.7828,0.073976,7.5645,307.21,-0.9435,0.3145,-1.9777,-1.258,-7.0893e-13,-0.98885,0,0,0.1,-0,-0,0.66667
0.82205,0.36567,8.2205,-0.20149,-8.6016,42.385,4.4171,-1.4724,-1.853,5.8894,-1.6265e-10,-0.92652,0,0,0.1,-9.4739e-16,0,0.66667
0.16727,0.79239,1.6727,0.43858,56.673,679.88,-1.9563,0.65211,-1.3143,-2.6085,-2.1018e-10,-0.65715,0,0,0.1,-0,-0,0.66667
0.32202,0.70099,3.2202,0.30148,35.882,484.1,-2.5889,0.86297,-1.674,-3.4519,-3.4144e-12,-0.83699,0,0,0.1,-4.737e-16,0,0.66667
0.20551,0.45933,2.0551,-0.061004,-7.755,629.99,0.33432,-0.11144,-1.9877,0.44576,-1.4396e-11,-0.99384,0,0,0.1,-2.3685e-16,0,0.66667
0.099323,0.71998,0.99323,0.32997,43.407,769.7,-0.87396,0.29132,-1.6117,-1.1653,-3.9475e-08,-0.80586,0,0,0.1,-2.3685e-16,0,0.66667
0.52436,0.27671,5.2436,-0.33493,-32.223,260.82,4.6833,-1.5611,-1.5988,6.2444,-3.7295e-12,-0.79941,0,0,0.1,7.1054e-16,0,0.66667
0.21257,0.6649,2.1257,0.24735,31.362,620.94,-1.4021,0.46738,-1.7799,-1.8695,2.4224e-11,-0.88994,0,0,0.1,-4.737e-16,0,0.66667
0.90438,0.51361,9.0438,0.020417,0.48383,13.159,-0.49239,0.16413,-2,-0.65652,-8.3676e-09,-0.99998,0,0,0.1,-0,-0,0.66667
0.046031,0.22699,0.46031,-0.40952,-54.32,841.11,0.50268,-0.16756,-1.4073,0.67024,3.0482e-07,-0.70364,0,0,0.1,-1.1842e-16,0,0.66667
0.89727,0.77021,8.9727,0.40531,10.365,15.699,-9.698,3.2327,-1.4129,-12.931,4.1286e-08,-0.70647,0,0,0.1,-0,-0,0.66667
0.58773,0.0021656,5.8773,-0.74675,-65.169,202.77,11.704,-3.9013,-0.015704,15.605,-2.8608e-12,-0.0078519,0,0,0.1,3.7896e-15,0,0.66667
0.8616,0.33154,8.616,-0.25268,-8.5499,26.567,5.8056,-1.9352,-1.7739,7.7409,-4.3683e-09,-0.88697,0,0,0.1,-0,-0,0.66667
0.02917,0.4359,0.2917,-0.096156,-12.755,863.76,0.074798,-0.024933,-1.9696,0.09973,-4.9876e-07,-0.9848,0,0,0.1,4.3181e-18,0,0.66667
0.33301,0.64438,3.3301,0.21657,25.558,470.81,-1.9232,0.64107,-1.8312,-2.5643,-6.2079e-12,-0.9156,0,0,0.1,-0,-0,0.66667
0.50111,0.48759,5.0111,-0.018616,-1.848,283.74,0.24876,-0.08292,-2.0015,0.33168,8.1393e-14,-1.0008,0,0,0.1,-1.4211e-15,0,0.66667
0.21711,0.23808,2.1711,-0.39288,-49.748,615.19,2.2746,-0.75821,-1.4531,3.0328,-5.6311e-11,-0.72654,0,0,0.1,-0,-0,0.66667
0.4226,0.50424,4.226,0.0063536,0.69214,367.15,-0.0716,0.023867,-2.0042,-0.095467,2.5573e-12,-1.0021,0,0,0.1,-0,-0,0.66667
0.029533,0.25831,0.29533,-0.36254,-48.134,863.29,0.28551,-0.095171,-1.5347,0.38068,-1.0481e-06,-0.76736,0,0,0.1,-0,-0,0.66667
0.58718,0.57368,5.8718,0.11053,9.5926,201.84,-1.7306,0.57688,-1.9536,-2.3075,1.5656e-12,-0.97681,0,0,0.1,-9.4739e-16,0,0.66667
0.92973,0.69916,9.2973,0.29873,5.2543,7.7932,-7.4065,2.4688,-1.6795,-9.8753,1.173e-07,-0.83976,0,0,0.1,-0,-0,0.66667
0.075808,0.19848,0.75808,-0.45228,-59.789,801.17,0.91431,-0.30477,-1.2736,1.2191,1.3405e-07,-0.63679,0,0,0.1,-0,-0,0.66667
0.84182,0.40509,8.4182,-0.14237,-5.4501,33.918,3.196,-1.0653,-1.9307,4.2613,-1.1122e-09,-0.96537,0,0,0.1,1.3027e-15,0,0.66667
0.74778,0.026843,7.4778,-0.70973,-41.673,82.936,14.153,-4.7176,-0.21075,18.87,-1.4105e-11,-0.10538,0,0,0.1,-0,-0,0.66667
0.22999,0.47214,2.2999,-0.041792,-5.2532,598.56,0.25631,-0.085436,-1.9931,0.34174,-3.2048e-11,-0.99656,0,0,0.1,-0,-0,0.66667
0.51812,0.92372,5.1812,0.63557,61.89,267.64,-8.7814,2.9271,-0.56423,-11.709,-3.4523e-12,-0.28212,0,0,0.1,9.4739e-16,0,0.66667
0.31376,0.18887,3.1376,-0.4667,-55.933,494.3,3.9048,-1.3016,-1.2294,5.2064,-2.8022e-13,-0.61472,0,0,0.1,-9.4739e-16,0,0.66667
0.61579,0.20308,6.1579,-0.44539,-36.698,177.6,7.3137,-2.4379,-1.2917,9.7516,5.3602e-13,-0.64583,0,0,0.1,-0,-0,0.66667
0.21317,0.967,2.1317,0.7005,89.103,620.57,-3.9821,1.3274,-0.25403,-5.3094,-2.8056e-10,-0.12701,0,0,0.1,1.7764e-16,0,0.66667
0.43589,0.61309,4.3589,0.16964,18.227,352.56,-1.9718,0.65727,-1.8996,-2.6291,-5.315e-12,-0.94981,0,0,0.1,-0,-0,0.66667
0.78908,0.60201,7.8908,0.15301,7.6131,58.218,-3.2196,1.0732,-1.9139,-4.2928,-1.6416e-12,-0.95693,0,0,0.1,-0,-0,0.66667
0.46647,0.89657,4.6647,0.59486,61.927,320.33,-7.3995,2.4665,-0.74289,-9.866,1.533e-12,-0.37145,0,0,0.1,4.737e-16,0,0.66667
0.67355,0.026473,6.7355,-0.71029,-51.697,132.76,12.758,-4.2526,-0.20873,17.01,1.0276e-12,-0.10437,0,0,0.1,-0,-0,0.66667
0.88484,0.41989,8.8484,-0.12016,-3.4093,18.693,2.8352,-0.94507,-1.946,3.7803,-8.1704e-09,-0.97298,0,0,0.1,-0,-0,0.66667
0.93814,0.55829,9.3814,0.08743,1.3474,5.9054,-2.1872,0.72908,-1.9773,-2.9163,-4.4248e-08,-0.98866,0,0,0.1,-0,-0,0.66667
0.98474,0.47971,9.8474,-0.03044,-0.10522,0.52925,0.79934,-0.26645,-2.001,1.0658,-1.5922e-06,-1.0005,0,0,0.1,-0,-0,0.66667
0.88356,0.40096,8.8356,-0.14857,-4.2613,19.113,3.5004,-1.1668,-1.9191,4.6673,-1.2512e-08,-0.95953,0,0,0.1,-0,-0,0.66667
0.24358,0.51227,2.4358,0.018398,2.2967,581.25,-0.1195,0.039834,-1.9959,-0.15933,-2.9549e-12,-0.99793,0,0,0.1,9.4739e-16,0,0.66667
0.4083,0.74213,4.083,0.36319,40.19,383.36,-3.9545,1.3182,-1.5326,-5.2726,-1.1784e-12,-0.76628,0,0,0.1,-0,-0,0.66667
0.37481,0.2551,3.7481,-0.36736,-41.937,421.63,3.6717,-1.2239,-1.5254,4.8955,-4.0579e-12,-0.7627,0,0,0.1,-9.4739e-16,0,0.66667
0.15223,0.80743,1.5223,0.46115,59.894,699.64,-1.872,0.624,-1.2433,-2.496,-1.5639e-09,-0.62165,0,0,0.1,2.9606e-16,0,0.66667
0.070456,0.32084,0.70456,-0.26874,-35.518,808.29,0.50492,-0.16831,-1.7403,0.67323,9.9182e-08,-0.87015,0,0,0.1,-2.3685e-16,0,0.66667
0.29574,0.65293,2.9574,0.2294,27.79,516.11,-1.8091,0.60305,-1.8166,-2.4122,-4.8805e-13,-0.90831,0,0,0.1,5.9212e-16,0,0.66667
0.85996,0.73063,8.5996,0.34595,11.855,27.368,-7.9333,2.6444,-1.5783,-10.578,4.0013e-09,-0.78913,0,0,0.1,-1.8948e-15,0,0.66667
0.038983,0.89515,0.38983,0.59272,78.779,850.61,-0.61617,0.20538,-0.74774,-0.82156,-5.9351e-06,-0.37387,0,0,0.1,5.9212e-17,0,0.66667
0.21547,0.85315,2.1547,0.52972,67.196,617.43,-3.0437,1.0146,-1.002,-4.0582,1.44e-11,-0.50101,0,0,0.1,-0,-0,0.66667
0.34655,0.42606,3.4655,-0.11091,-12.949,454.6,1.025,-0.34167,-1.9565,1.3667,-1.541e-13,-0.97823,0,0,0.1,-4.737e-16,0,0.66667
0.64816,0.53466,6.4816,0.051989,3.9895,150.69,-0.8986,0.29953,-1.9882,-1.1981,1.2962e-13,-0.99408,0,0,0.1,-0,-0,0.66667
0.56317,0.93398,5.6317,0.65097,59.175,224.63,-9.7762,3.2587,-0.49782,-13.035,2.979e-12,-0.24891,0,0,0.1,-1.1842e-15,0,0.66667
0.79618,0.04826,7.9618,-0.67761,-33.003,56.138,14.387,-4.7956,-0.37094,19.182,9.527e-10,-0.18547,0,0,0.1,-9.4287e-16,0,0.66667
0.68696,0.38658,6.8696,-0.17013,-11.885,121.55,3.1167,-1.0389,-1.901,4.1556,-1.5787e-13,-0.95049,0,0,0.1,-0,-0,0.66667
0.8895,0.80695,8.895,0.46043,12.65,18.083,-10.921,3.6405,-1.2496,-14.562,1.9559e-08,-0.62482,0,0,0.1,1.4211e-15,0,0.66667
0.4869,0.91927,4.869,0.6289,63.865,299.11,-8.1657,2.7219,-0.5942,-10.888,1.3598e-12,-0.2971,0,0,0.1,9.4739e-16,0,0.66667
0.53592,0.51386,5.3592,0.020796,1.9643,249.31,-0.2972,0.099066,-1.9965,-0.39626,-6.1847e-12,-0.99826,0,0,0.1,-0,-0,0.66667
0.83765,0.31094,8.3765,-0.28359,-11.139,35.842,6.3346,-2.1115,-1.7125,8.4461,-9.635e-10,-0.85627,0,0,0.1,1.0658e-15,0,0.66667
0.0056932,0.87851,0.056932,0.56777,75.558,895.39,-0.086193,0.028727,-0.85219,-0.11493,-5.9534e-06,-0.4261,0,0,0.1,-1.4803e-17,0,0.66667
0.24257,0.67887,2.4257,0.2683,33.532,582.61,-1.7355,0.5785,-1.7411,-2.314,1.9894e-11,-0.87057,0,0,0.1,2.3685e-16,0,0.66667
0.22151,0.22852,2.2151,-0.40722,-51.465,609.57,2.4054,-0.8018,-1.4107,3.2072,-4.3702e-11,-0.70537,0,0,0.1,-0,-0,0.66667
0.56155,0.60838,5.6155,0.16258,14.751,225.14,-2.4345,0.81151,-1.909,-3.246,-3.5083e-13,-0.95451,0,0,0.1,-0,-0,0.66667
0.71761,0.1372,7.1761,-0.54421,-35.044,101.26,10.414,-3.4714,-0.94973,13.885,-3.6486e-12,-0.47486,0,0,0.1,-0,-0,0.66667
0.2525,0.85647,2.525,0.5347,66.595,570.29,-3.6002,1.2001,-0.984,-4.8003,4.8275e-12,-0.492,0,0,0.1,4.737e-16,0,0.66667
0.50602,0.12309,5.0602,-0.56537,-55.938,279.5,7.629,-2.543,-0.86197,10.172,-2.1538e-12,-0.43098,0,0,0.1,1.1842e-15,0,0.66667
0.73927,0.39609,7.3927,-0.15586,-9.3368,86.536,3.0726,-1.0242,-1.9117,4.0968,8.2605e-12,-0.95585,0,0,0.1,-0,-0,0.66667
0.7223,0.39672,7.223,-0.15492,-9.7928,97.314,2.984,-0.99466,-1.9141,3.9786,1.3296e-12,-0.95703,0,0,0.1,-0,-0,0.66667
0.46831,0.78613,4.6831,0.4292,44.508,318.04,-5.36,1.7867,-1.3498,-7.1467,2.7032e-12,-0.6749,0,0,0.1,-0,-0,0.66667
0.70619,0.12307,7.0619,-0.56539,-37.648,108.99,10.647,-3.5491,-0.86444,14.196,1.1473e-11,-0.43222,0,0,0.1,1.4211e-15,0,0.66667
0.55907,0.17539,5.5907,-0.48691,-44.466,227.96,7.2591,-2.4197,-1.1564,9.6788,-6.124e-13,-0.5782,0,0,0.1,-0,-0,0.66667
0.078411,0.80388,0.78411,0.45581,60.234,797.68,-0.95309,0.3177,-1.2659,-1.2708,-8.8735e-08,-0.63294,0,0,0.1,5.9212e-17,0,0.66667
0.9528,0.75248,9.528,0.37871,4.4893,4.1992,-9.6224,3.2075,-1.4955,-12.83,1.1828e-07,-0.74773,0,0,0.1,-0,-0,0.66667
0.97565,0.51169,9.7565,0.017535,0.10223,1.1301,-0.45623,0.15207,-1.9958,-0.6083,-2.3319e-06,-0.99792,0,0,0.1,3.7896e-15,0,0.66667
0.16201,0.17765,1.6201,-0.48352,-62.612,686.8,2.089,-0.69633,-1.1662,2.7853,6.4574e-10,-0.58312,0,0,0.1,-0,-0,0.66667
0.41783,0.48323,4.1783,-0.025161,-2.7545,372.45,0.28034,-0.093448,-1.9964,0.37379,-4.5201e-12,-0.99818,0,0,0.1,9.4739e-16,0,0.66667
0.61959,0.84469,6.1959,0.51704,42.315,174.61,-8.5428,2.8476,-1.0485,-11.39,-6.6702e-13,-0.52424,0,0,0.1,-0,-0,0.66667
0.56812,0.55051,5.6812,0.075765,6.7977,219.02,-1.1478,0.38261,-1.977,-1.5304,-2.7301e-12,-0.98852,0,0,0.1,-9.4739e-16,0,0.66667
0.37473,0.2973,3.7473,-0.30405,-34.699,421.65,3.0383,-1.0128,-1.6756,4.0511,-6.9766e-13,-0.8378,0,0,0.1,-9.1747e-16,0,0.66667
0.90355,0.70891,9.0355,0.31336,7.5197,13.764,-7.5503,2.5168,-1.6513,-10.067,4.1343e-08,-0.82566,0,0,0.1,-9.4739e-16,0,0.66667
0.67718,0.81142,6.7718,0.46713,33.555,129.23,-8.4355,2.8118,-1.2232,-11.247,-1.9069e-12,-0.61159,0,0,0.1,5.9212e-17,0,0.66667
0.11263,0.37792,1.1263,-0.18312,-24.005,751.94,0.54998,-0.18333,-1.8814,0.73331,1.5091e-08,-0.9407,0,0,0.1,-0,-0,0.66667
0.66956,0.74831,6.6956,0.37246,27.234,134.64,-6.6503,2.2168,-1.5089,-8.867,-1.0507e-12,-0.75443,0,0,0.1,1.0658e-15,0,0.66667
0.21799,0.38985,2.1799,-0.16522,-20.891,613.94,0.96046,-0.32015,-1.9063,1.2806,-3.6334e-11,-0.95315,0,0,0.1,4.737e-16,0,0.66667
0.086095,0.94362,0.86095,0.66542,87.983,787.5,-1.5277,0.50924,-0.42299,-2.037,1.537e-07,-0.2115,0,0,0.1,-0,-0,0.66667
0.35993,0.23136,3.5993,-0.40295,-46.599,439.03,3.8676,-1.2892,-1.4265,5.1568,-6.4566e-12,-0.71324,0,0,0.1,-0,-0,0.66667
0.049607,0.068751,0.49607,-0.64687,-85.941,836.36,0.85572,-0.28524,-0.51296,1.141,1.5803e-06,-0.25648,0,0,0.1,1.1842e-16,0,0.66667
0.14662,0.22325,1.4662,-0.41512,-53.991,707,1.623,-0.54101,-1.3853,2.164,1.8873e-09,-0.69266,0,0,0.1,-0,-0,0.66667
0.45307,0.36716,4.5307,-0.19926,-21.006,333.96,2.4074,-0.80246,-1.864,3.2098,-2.7909e-12,-0.932,0,0,0.1,-0,-0,0.66667
0.9832,0.067792,9.832,-0.64831,-2.784,2.4488,16.998,-5.666,-0.50887,22.664,-6.5703e-06,-0.25443,0,0,0.1,-0,-6.6633e-17,0.66667
0.84187,0.3386,8.4187,-0.2421,-9.2751,34.043,5.435,-1.8117,-1.7938,7.2466,-1.269e-09,-0.89689,0,0,0.1,-1.4211e-15,0,0.66667
0.013205,0.20892,0.13205,-0.43663,-58.038,885.27,0.15375,-0.05125,-1.323,0.205,3.7538e-07,-0.66149,0,0,0.1,-0,-0,0.66667
0.86889,0.16389,8.6889,-0.50417,-16.31,24.756,11.682,-3.894,-1.0938,15.576,-9.8268e-09,-0.54689,0,0,0.1,1.8948e-15,0,0.66667
0.28341,0.57191,2.8341,0.10787,13.165,531.29,-0.81523,0.27174,-1.9599,-1.087,-2.6307e-12,-0.97994,0,0,0.1,-0,-0,0.66667
0.19764,0.32075,1.9764,-0.26888,-34.313,640.23,1.4171,-0.47236,-1.7408,1.8894,-9.9301e-12,-0.87038,0,0,0.1,-0,-0,0.66667
0.30963,0.38352,3.0963,-0.17472,-20.966,499.06,1.4426,-0.48088,-1.8918,1.9235,-9.0828e-12,-0.9459,0,0,0.1,-0,-0,0.66667
0.52923,0.1359,5.2923,-0.54615,-52.275,256.5,7.7078,-2.5693,-0.94079,10.277,-4.3565e-13,-0.4704,0,0,0.1,-0,-0,0.66667
0.48269,0.68024,4.8269,0.27037,27.513,302.78,-3.4801,1.16,-1.7423,-4.6401,-1.3762e-12,-0.87115,0,0,0.1,-0,-0,0.66667
0.62987,0.90466,6.2987,0.60699,48.701,166.4,-10.195,3.3985,-0.68925,-13.594,1.8474e-13,-0.34462,0,0,0.1,-3.5527e-16,0,0.66667
0.16677,0.89205,1.6677,0.58808,76.098,680.65,-2.6153,0.87178,-0.76806,-3.4871,-4.6553e-09,-0.38403,0,0,0.1,2.3685e-16,0,0.66667
0.3743,0.98364,3.743,0.72546,83.149,422.87,-7.241,2.4137,-0.1322,-9.6546,5.0937e-13,-0.066099,0,0,0.1,-0,-1.1816e-16,0.66667
0.58249,0.14137,5.8249,-0.53794,-47.237,206.74,8.3558,-2.7853,-0.9694,11.141,2.3288e-12,-0.4847,0,0,0.1,-0,-0,0.66667
0.81078,0.18814,8.1078,-0.4678,-21.204,48.196,10.114,-3.3714,-1.2252,13.486,-1.3463e-10,-0.61258,0,0,0.1,-1.8948e-15,0,0.66667
0.36845,0.57641,3.6845,0.11461,13.142,428.83,-1.1261,0.37537,-1.9502,-1.5015,-2.1534e-12,-0.97512,0,0,0.1,-0,-0,0.66667
0.83938,0.49715,8.3938,-0.0042777,-0.16601,34.831,0.095749,-0.031916,-1.9994,0.12767,-1.5443e-10,-0.99969,0,0,0.1,3.079e-15,0,0.66667
0.41681,0.062978,4.1681,-0.65553,-72.129,374.38,7.2862,-2.4287,-0.47142,9.7149,2.8848e-12,-0.23571,0,0,0.1,-0,-0,0.66667
0.94249,0.79262,9.4249,0.43893,6.3698,5.9473,-11.032,3.6772,-1.3129,-14.709,7.6865e-08,-0.65644,0,0,0.1,-0,-0,0.66667
0.29636,0.61458,2.9636,0.17187,20.808,515.31,-1.3583,0.45276,-1.899,-1.8111,2.4936e-13,-0.94949,0,0,0.1,2.3685e-16,0,0.66667
0.3686,0.15679,3.686,-0.51481,-59.157,429.06,5.0603,-1.6868,-1.0562,6.7471,-4.2619e-12,-0.52812,0,0,0.1,-0,-0,0.66667
0.65273,0.37856,6.5273,-0.18216,-13.84,147.2,3.1707,-1.0569,-1.8822,4.2276,-4.2255e-13,-0.9411,0,0,0.1,-0,-0,0.66667
0.58342,0.50998,5.8342,0.014963,1.3073,205.16,-0.23279,0.077597,-1.997,-0.31039,8.4793e-15,-0.9985,0,0,0.1,-0,-0,0.66667
0.35417,0.54389,3.5417,0.065832,7.6385,445.56,-0.62175,0.20725,-1.9823,-0.82901,-8.011e-12,-0.99114,0,0,0.1,-0,-0,0.66667
0.48431,0.090671,4.8431,-0.61399,-62.546,301.75,7.9296,-2.6432,-0.66541,10.573,-3.4008e-12,-0.33271,0,0,0.1,-1.1842e-16,0,0.66667
0.66432,0.93303,6.6432,0.64955,48.29,139.43,-11.507,3.8356,-0.49746,-15.343,8.4643e-13,-0.24873,0,0,0.1,-1.1842e-15,0,0.66667
0.05634,0.4518,0.5634,-0.072304,-9.5682,827.22,0.10863,-0.03621,-1.9785,0.14484,6.4859e-08,-0.98925,0,0,0.1,-0,-0,0.66667
0.6064,0.11304,6.064,-0.58043,-48.797,185.94,9.386,-3.1287,-0.80205,12.515,1.2177e-12,-0.40103,0,0,0.1,-9.4739e-16,0,0.66667
0.74678,0.32404,7.4678,-0.26394,-15.431,82.094,5.2562,-1.7521,-1.7519,7.0083,1.3038e-11,-0.87597,0,0,0.1,-0,-0,0.66667
0.79397,0.52707,7.9397,0.040601,1.9772,55.635,-0.85962,0.28654,-1.995,-1.1462,-2.2973e-11,-0.99749,0,0,0.1,9.4025e-16,0,0.66667
0.21378,0.15008,2.1378,-0.52488,-66.629,619.59,2.9923,-0.99742,-1.0189,3.9897,-8.4805e-11,-0.50944,0,0,0.1,-0,-0,0.66667
0.64111,0.51463,6.4111,0.02194,1.7102,156.28,-0.37509,0.12503,-2.0022,-0.50011,-2.2683e-12,-1.0011,0,0,0.1,-0,-0,0.66667
0.73113,0.92557,7.3113,0.63836,39.513,92.88,-12.446,4.1487,-0.55072,-16.595,2.0357e-12,-0.27536,0,0,0.1,-0,-0,0.66667
0.095062,0.31706,0.95062,-0.27441,-36.119,775.37,0.69564,-0.23188,-1.7355,0.92752,4.0888e-08,-0.86773,0,0,0.1,-0,-0,0.66667
0.070073,0.1833,0.70073,-0.47505,-62.863,808.85,0.88769,-0.2959,-1.1952,1.1836,1.9896e-07,-0.59762,0,0,0.1,1.1842e-16,0,0.66667
0.88595,0.6207,8.8595,0.18105,5.0927,18.427,-4.2775,1.4258,-1.8824,-5.7033,1.3525e-08,-0.94119,0,0,0.1,4.737e-16,0,0.66667
0.36132,0.91635,3.6132,0.62453,72.287,437.76,-6.0175,2.0058,-0.61472,-8.0234,-1.2075e-12,-0.30736,0,0,0.1,-0,-0,0.66667
0.70343,0.4219,7.0343,-0.11715,-7.8244,109.92,2.1975,-0.73252,-1.9554,2.9301,-1.1866e-12,-0.97772,0,0,0.1,9.4739e-16,0,0.66667
0.56015,0.76839,5.6015,0.40258,36.668,226.77,-6.0135,2.0045,-1.4245,-8.018,-1.2461e-12,-0.71224,0,0,0.1,-0,-0,0.66667
0.33775,0.58366,3.3775,0.12549,14.753,465.09,-1.1303,0.37676,-1.9414,-1.507,-7.9159e-12,-0.97069,0,0,0.1,-0,-0,0.66667
0.34565,0.51714,3.4565,0.025704,3.0028,455.64,-0.23692,0.078975,-1.999,-0.3159,-8.866e-12,-0.99952,0,0,0.1,9.4739e-16,0,0.66667
0.90546,0.4408,9.0546,-0.088801,-2.0818,12.912,2.1442,-0.71472,-1.9763,2.8589,-6.2321e-09,-0.98816,0,0,0.1,3.7896e-15,0,0.66667
0.45348,0.48383,4.5348,-0.024261,-2.5554,333.44,0.29338,-0.097793,-2.002,0.39117,-3.2505e-12,-1.001,0,0,0.1,9.4739e-16,0,0.66667
0.48253,0.11957,4.8253,-0.57064,-58.23,303.48,7.3427,-2.4476,-0.84439,9.7903,-6.0756e-12,-0.42219,0,0,0.1,7.1054e-16,-1.4885e-16,0.66667
0.97915,0.53962,9.7915,0.059437,0.29261,0.88663,-1.5519,0.51731,-1.9854,-2.0692,2.0084e-07,-0.99271,0,0,0.1,-0,-0,0.66667
0.41169,0.62297,4.1169,0.18445,20.324,379.38,-2.0249,0.67498,-1.8778,-2.6999,-6.4833e-12,-0.9389,0,0,0.1,7.1054e-16,0,0.66667
0.36945,0.28011,3.6945,-0.32984,-37.821,427.82,3.2496,-1.0832,-1.612,4.3327,-6.6085e-12,-0.80602,0,0,0.1,5.9212e-17,0,0.66667
0.079963,0.4915,0.79963,-0.012749,-1.6815,795.53,0.027185,-0.0090616,-2.0013,0.036247,6.1479e-08,-1.0006,0,0,0.1,-0,-0,0.66667
0.38778,0.74477,3.8778,0.36715,41.429,406.67,-3.7967,1.2656,-1.5215,-5.0622,-9.3259e-15,-0.76074,0,0,0.1,7.1054e-16,0,0.66667
0.17793,0.79104,1.7793,0.43657,56.197,665.95,-2.0714,0.69048,-1.3197,-2.7619,-2.1757e-10,-0.65986,0,0,0.1,-0,-0,0.66667
0.13134,0.73756,1.3134,0.35634,46.531,727.15,-1.2481,0.41602,-1.5456,-1.6641,-6.7574e-09,-0.7728,0,0,0.1,-0,-0,0.66667
0.36767,0.8591,3.6767,0.53865,61.958,430.18,-5.2812,1.7604,-0.96514,-7.0416,-2.6583e-12,-0.48257,0,0,0.1,-0,-0,0.66667
0.15881,0.21267,1.5881,-0.431,-55.849,690.97,1.8253,-0.60842,-1.3406,2.4337,8.0967e-10,-0.67028,0,0,0.1,-0,-0,0.66667
0.30756,0.79601,3.0756,0.44401,53.433,501.81,-3.6417,1.2139,-1.2969,-4.8556,-2.1148e-12,-0.64843,0,0,0.1,-4.737e-16,0,0.66667
0.68798,0.24931,6.8798,-0.37603,-26.243,121.16,6.8988,-2.2996,-1.5027,9.1984,-3.0242e-13,-0.75134,0,0,0.1,-4.737e-16,0,0.66667
0.83844,0.54326,8.3844,0.064885,2.532,35.232,-1.4507,0.48358,-1.9827,-1.9343,1.7143e-10,-0.99134,0,0,0.1,-0,-0,0.66667
0.30482,0.83603,3.0482,0.50405,60.8,505.24,-4.0972,1.3657,-1.0938,-5.4629,1.9038e-12,-0.54691,0,0,0.1,-2.3685e-16,0,0.66667
0.3531,0.206,3.531,-0.441,-51.301,447.13,4.1524,-1.3841,-1.3056,5.5366,-2.7547e-12,-0.6528,0,0,0.1,-8.9185e-16,0,0.66667
0.73064,0.65868,7.3064,0.23802,14.669,92.053,-4.6376,1.5459,-1.7987,-6.1834,-6.3376e-12,-0.89936,0,0,0.1,-1.8948e-15,0,0.66667
0.77783,0.81568,7.7783,0.47352,24.771,64.86,-9.8219,3.274,-1.2031,-13.096,-2.5686e-11,-0.60157,0,0,0.1,-0,-0,0.66667
0.17703,0.72441,1.7703,0.33662,43.319,667.06,-1.5891,0.5297,-1.5955,-2.1188,-2.1378e-10,-0.79774,0,0,0.1,-4.737e-16,0,0.66667
0.40176,0.086231,4.0176,-0.62065,-69.282,391.2,6.6494,-2.2165,-0.62901,8.8658,-1.4198e-12,-0.31451,0,0,0.1,4.737e-16,0,0.66667
0.0029414,0.092431,0.029414,-0.61135,-81.393,899.1,0.047946,-0.015989,-0.67245,0.063924,-1.0703e-05,-0.33622,0,0,0.1,4.6259e-19,0,0.66667
0.4006,0.34493,4.006,-0.2326,-25.914,391.92,2.4848,-0.82826,-1.8064,3.313,8.0469e-13,-0.90322,0,0,0.1,-0,-0,0.66667
0.8932,0.77894,8.932,0.4184,11.111,16.874,-9.9659,3.322,-1.3792,-13.288,3.4964e-08,-0.68958,0,0,0.1,-1.1842e-15,0,0.66667
0.057463,0.40294,0.57463,-0.14558,-19.265,825.71,0.22308,-0.074361,-1.9235,0.29745,3.3868e-08,-0.96173,0,0,0.1,2.9606e-17,0,0.66667
0.38963,0.068362,3.8963,-0.64746,-73.126,405.04,6.7272,-2.2424,-0.51309,8.9695,-7.8972e-12,-0.25655,0,0,0.1,9.4739e-16,0,0.66667
0.26534,0.7912,2.6534,0.4368,53.972,554.03,-3.0908,1.0303,-1.3261,-4.121,-2.8859e-12,-0.66306,0,0,0.1,-0,-0,0.66667
0.036777,0.4591,0.36777,-0.061354,-8.1339,853.52,0.06017,-0.020057,-1.9843,0.080227,-2.5388e-07,-0.99214,0,0,0.1,2.9606e-17,0,0.66667
0.4005,0.90449,4.005,0.60674,67.8,392.58,-6.48,2.16,-0.68972,-8.64,-1.0409e-12,-0.34486,0,0,0.1,6.5133e-16,0,0.66667
0.23781,0.74657,2.3781,0.36985,46.362,588.73,-2.3455,0.78182,-1.5139,-3.1273,2.371e-11,-0.75697,0,0,0.1,2.3685e-16,0,0.66667
0.83097,0.80227,8.3097,0.45341,18.542,39.102,-10.047,3.349,-1.2693,-13.396,-1.1993e-10,-0.63464,0,0,0.1,-0,-0,0.66667
0.64363,0.54294,6.4363,0.064415,4.9934,154.28,-1.1056,0.36852,-1.9852,-1.4741,-5.3146e-13,-0.99258,0,0,0.1,-0,-0,0.66667
0.47657,0.7714,4.7657,0.40711,41.785,309.34,-5.1737,1.7246,-1.4077,-6.8983,9.4946e-13,-0.70383,0,0,0.1,-4.737e-16,0,0.66667
0.70881,0.93015,7.0881,0.64523,42.71,107.52,-12.196,4.0653,-0.51756,-16.261,3.2143e-12,-0.25878,0,0,0.1,-0,-0,0.66667
0.099384,0.78849,0.99384,0.43273,56.959,769.65,-1.1468,0.38228,-1.332,-1.5291,-4.323e-08,-0.66602,0,0,0.1,-0,-0,0.66667
0.75698,0.54939,7.5698,0.074088,4.1751,75.828,-1.4955,0.49851,-1.9773,-1.9941,-1.0585e-11,-0.98867,0,0,0.1,-0,-0,0.66667
0.29859,0.16286,2.9859,-0.50571,-61.256,512.87,4.0267,-1.3422,-1.0929,5.369,-1.9629e-12,-0.54646,0,0,0.1,-0,-0,0.66667
0.50277,0.54955,5.0277,0.074328,7.3623,282.07,-0.99654,0.33218,-1.9805,-1.3287,1.3439e-13,-0.99025,0,0,0.1,-9.4739e-16,0,0.66667
0.094178,0.89047,0.94178,0.58571,77.269,776.67,-1.471,0.49032,-0.78422,-1.9613,-8.8965e-08,-0.39211,0,0,0.1,1.1842e-16,0,0.66667
0.81456,0.35541,8.1456,-0.21688,-9.6149,45.816,4.711,-1.5703,-1.834,6.2814,-7.9043e-11,-0.917,0,0,0.1,-0,-0,0.66667
0.51047,0.15369,5.1047,-0.51947,-51.057,274.93,7.0712,-2.3571,-1.0394,9.4283,-1.6831e-13,-0.5197,0,0,0.1,1.3027e-15,0,0.66667
0.44197,0.071251,4.4197,-0.64312,-68.9,346.68,7.5798,-2.5266,-0.52793,10.106,-5.3588e-12,-0.26397,0,0,0.1,-0,-0,0.66667
0.13489,0.0659,1.3489,-0.65115,-85.147,722.63,2.3423,-0.78075,-0.4908,3.123,-1.1529e-07,-0.2454,0,0,0.1,-4.737e-16,0,0.66667
0.63488,0.46804,6.3488,-0.047942,-3.7879,161.3,0.81166,-0.27055,-1.9907,1.0822,-1.2671e-12,-0.99534,0,0,0.1,2.3685e-16,0,0.66667
0.35231,0.22836,3.5231,-0.40745,-47.417,448.01,3.828,-1.276,-1.4068,5.104,-4.9725e-12,-0.70338,0,0,0.1,-0,-0,0.66667
0.68271,0.11074,6.8271,-0.5839,-41.432,125.56,10.63,-3.5434,-0.78573,14.174,-4.6541e-13,-0.39287,0,0,0.1,1.389e-16,0,0.66667
0.76246,0.28724,7.6246,-0.31915,-17.663,72.989,6.4889,-2.163,-1.6381,8.6519,2.5798e-11,-0.81905,0,0,0.1,-0,-0,0.66667
0.0067478,0.4084,0.067478,-0.1374,-18.242,893.96,0.024724,-0.0082412,-1.931,0.032966,3.3703e-07,-0.96551,0,0,0.1,-0,-0,0.66667
0.25906,0.70363,2.5906,0.30544,37.844,561.81,-2.1101,0.70336,-1.6652,-2.8134,2.1834e-12,-0.83261,0,0,0.1,4.737e-16,0,0.66667
0.67791,0.25964,6.7791,-0.36053,-25.817,128.42,6.5176,-2.1725,-1.5352,8.6902,-4.3876e-13,-0.76761,0,0,0.1,-0,-0,0.66667
0.3361,0.91638,3.361,0.62456,73.756,467.62,-5.5977,1.8659,-0.60999,-7.4637,-4.4165e-12,-0.30499,0,0,0.1,-0,-0,0.66667
0.75013,0.95869,7.5013,0.68803,40.054,81.434,-13.763,4.5876,-0.32165,-18.351,3.2677e-11,-0.16083,0,0,0.1,9.4739e-16,0,0.66667
0.55698,0.90543,5.5698,0.60815,55.81,230.24,-9.0327,3.0109,-0.68395,-12.044,-8.0025e-13,-0.34197,0,0,0.1,1.1842e-15,0,0.66667
0.85824,0.25463,8.5824,-0.36806,-12.764,28.053,8.4235,-2.8078,-1.5219,11.231,-3.3913e-09,-0.76093,0,0,0.1,-0,-0,0.66667
0.57058,0.99432,5.7058,0.74148,66.668,218.15,-11.282,3.7607,-0.042596,-15.043,2.1689e-12,-0.021298,0,0,0.1,-1.4211e-15,0,0.66667
0.8894,0.98808,8.894,0.73211,20.378,19.394,-17.364,5.7879,-0.096849,-23.152,1.3137e-07,-0.048425,0,0,0.1,9.4739e-16,0,0.66667
0.22748,0.53957,2.2748,0.05935,7.4694,601.76,-0.36002,0.12001,-1.9847,-0.48003,2.1798e-11,-0.99234,0,0,0.1,-4.737e-16,0,0.66667
0.79398,0.89735,7.9398,0.59602,29.243,56.878,-12.619,4.2065,-0.73718,-16.826,8.8437e-11,-0.36859,0,0,0.1,-0,-6.0564e-17,0.66667
0.033947,0.88993,0.33947,0.58489,77.762,857.38,-0.52947,0.17649,-0.78386,-0.70597,-7.7182e-08,-0.39193,0,0,0.1,-0,-0,0.66667
0.077267,0.75948,0.77267,0.38922,51.42,799.19,-0.80197,0.26732,-1.4648,-1.0693,-1.1626e-07,-0.73239,0,0,0.1,-0,-0,0.66667
0.3959,0.79709,3.959,0.44563,49.936,397.51,-4.7047,1.5682,-1.2915,-6.2729,-5.576e-12,-0.64575,0,0,0.1,-0,-0,0.66667
0.18577,0.71553,1.8577,0.3233,41.466,655.67,-1.6016,0.53385,-1.6311,-2.1354,-5.8513e-11,-0.81554,0,0,0.1,2.9185e-16,0,0.66667
0.94419,0.54458,9.4419,0.066873,0.92871,4.8846,-1.6838,0.56125,-1.981,-2.245,1.068e-07,-0.99051,0,0,0.1,-0,-0,0.66667
0.77968,0.66242,7.7968,0.24363,12.61,63.293,-5.0654,1.6885,-1.7915,-6.7539,-3.4883e-11,-0.89575,0,0,0.1,-0,-0,0.66667
0.74367,0.74282,7.4367,0.36423,21.544,84.194,-7.2231,2.4077,-1.5258,-9.6307,-1.5974e-11,-0.76291,0,0,0.1,9.4739e-16,0,0.66667
0.492,0.27352,4.92,-0.33972,-34.174,293.27,4.457,-1.4857,-1.5868,5.9427,-6.6236e-12,-0.79341,0,0,0.1,4.737e-16,0,0.66667
0.49005,0.14433,4.9005,-0.53351,-53.898,295.64,6.9719,-2.324,-0.9854,9.2958,-5.4703e-12,-0.4927,0,0,0.1,4.737e-16,0,0.66667
0.58111,0.91334,5.8111,0.62002,54.638,208.22,-9.6079,3.2026,-0.63351,-12.811,-7.0965e-13,-0.31675,0,0,0.1,-0,-0,0.66667
0.59663,0.99058,5.9663,0.73588,63.175,194.93,-11.708,3.9026,-0.074856,-15.61,3.0536e-12,-0.037428,0,0,0.1,-1.4211e-15,0,0.66667
0.89803,0.58576,8.9803,0.12864,3.2468,14.904,-3.0805,1.0268,-1.9383,-4.1073,1.7097e-08,-0.96916,0,0,0.1,-0,-0,0.66667
0.12083,0.91703,1.2083,0.62555,82.077,741.22,-2.0157,0.67189,-0.60734,-2.6876,-8.3819e-08,-0.30367,0,0,0.1,-2.3685e-16,0,0.66667
0.50961,0.017617,5.0961,-0.72357,-71.392,276.36,9.8332,-3.2777,-0.13563,13.111,5.1363e-12,-0.067817,0,0,0.1,-0,-0,0.66667
0.99552,0.23744,9.9552,-0.39384,-0.30282,0.77649,10.455,-3.4851,-1.4468,13.94,-1.6913e-06,-0.72338,0,0,0.1,-1.8948e-15,1.9129e-17,0.66667
0.48143,0.36443,4.8143,-0.20336,-20.72,304.01,2.6107,-0.87023,-1.853,3.4809,-3.2843e-12,-0.92651,0,0,0.1,-4.737e-16,0,0.66667
0.83781,0.050104,8.3781,-0.67484,-26.745,37.17,15.077,-5.0257,-0.37801,20.103,5.1215e-09,-0.18901,0,0,0.1,-9.4739e-16,0,0.66667
0.60366,0.62256,6.0366,0.18384,15.479,187.49,-2.9593,0.98644,-1.8784,-3.9458,-1.9584e-12,-0.93918,0,0,0.1,1.3027e-15,0,0.66667
0.66437,0.83198,6.6437,0.49796,36.926,138.88,-8.8222,2.9407,-1.1152,-11.763,9.2371e-14,-0.55759,0,0,0.1,-0,-0,0.66667
0.27246,0.90328,2.7246,0.60492,74.545,545.35,-4.3951,1.465,-0.6969,-5.8601,1.2678e-11,-0.34845,0,0,0.1,5.9212e-16,0,0.66667
0.83093,0.65853,8.3093,0.23779,9.6896,38.567,-5.269,1.7563,-1.8003,-7.0253,4.4817e-10,-0.90013,0,0,0.1,-0,-0,0.66667
0.24447,0.96022,2.4447,0.69033,86.482,580.65,-4.5003,1.5001,-0.30334,-6.0005,-6.1511e-11,-0.15167,0,0,0.1,-2.3685e-16,0,0.66667
0.67336,0.97752,6.7336,0.71628,52.164,132.93,-12.862,4.2872,-0.17818,-17.149,-3.1797e-13,-0.089091,0,0,0.1,-0,-0,0.66667
0.08813,0.96777,0.8813,0.70165,92.775,784.8,-1.649,0.54966,-0.24842,-2.1986,2.507e-06,-0.12421,0,0,0.1,4.4409e-17,0,0.66667
0.018852,0.0022623,0.18852,-0.74661,-99.508,877.7,0.37518,-0.12509,-0.01883,0.50022,-5.0839e-05,-0.0094148,0,0,0.1,-0,-0,0.66667
0.47235,0.33858,4.7235,-0.24213,-24.955,313.53,3.0499,-1.0166,-1.7914,4.0665,-3.4754e-12,-0.8957,0,0,0.1,-0,-0,0.66667
0.939,0.26801,9.39,-0.34798,-5.3289,6.2307,8.7133,-2.9044,-1.5715,11.618,-1.1115e-07,-0.78577,0,0,0.1,9.4739e-16,0,0.66667
0.32557,0.055699,3.2557,-0.66645,-79.359,480.32,5.7861,-1.9287,-0.42173,7.7148,-8.1624e-13,-0.21087,0,0,0.1,-0,-0,0.66667
0.32215,0.1398,3.2215,-0.5403,-64.411,484.23,4.6416,-1.5472,-0.95923,6.1887,-4.1904e-12,-0.47962,0,0,0.1,-0,-0,0.66667
0.052031,0.84613,0.52031,0.5192,68.881,833.07,-0.72038,0.24013,-1.0404,-0.9605,-1.3559e-07,-0.52021,0,0,0.1,-0,-0,0.66667
0.67529,0.72947,6.7529,0.34421,24.807,130.32,-6.1983,2.0661,-1.5782,-8.2645,-2.3119e-12,-0.78911,0,0,0.1,1.8948e-15,0,0.66667
0.72174,0.55175,7.2174,0.077621,4.9136,97.623,-1.4939,0.49798,-1.9786,-1.9919,-4.4205e-12,-0.98928,0,0,0.1,9.4739e-16,0,0.66667
0.90372,0.87191,9.0372,0.55787,13.489,14.578,-13.444,4.4814,-0.89498,-17.926,5.1455e-08,-0.44749,0,0,0.1,-0,-0,0.66667
0.43715,0.36262,4.3715,-0.20608,-22.115,351.21,2.4023,-0.80077,-1.8532,3.2031,-4.2921e-13,-0.92661,0,0,0.1,4.737e-16,0,0.66667
0.10952,0.29585,1.0952,-0.30623,-40.192,756.11,0.89432,-0.29811,-1.6711,1.1924,2.3667e-08,-0.83557,0,0,0.1,2.3685e-16,0,0.66667
0.037607,0.80895,0.37607,0.46343,61.536,852.44,-0.46475,0.15492,-1.2344,-0.61967,-5.4704e-07,-0.6172,0,0,0.1,7.4015e-17,0,0.66667
0.88077,0.71417,8.8077,0.32125,9.4523,20.294,-7.5454,2.5151,-1.6312,-10.06,1.2155e-08,-0.81559,0,0,0.1,-4.2587e-16,0,0.66667
0.65226,0.3708,6.5226,-0.1938,-14.742,147.58,3.3709,-1.1236,-1.866,4.4946,-1.9562e-12,-0.93301,0,0,0.1,1.1842e-15,0,0.66667
0.9155,0.93726,9.155,0.65589,14.065,12.2,-16.012,5.3375,-0.46907,-21.35,3.5054e-07,-0.23454,0,0,0.1,2.0724e-15,0,0.66667
0.8806,0.63529,8.806,0.20293,5.966,20.105,-4.7653,1.5884,-1.8512,-6.3537,1.0119e-08,-0.92558,0,0,0.1,-0,-0,0.66667
0.47024,0.13954,4.7024,-0.54068,-55.998,316.23,6.78,-2.26,-0.96263,9.0401,-4.5612e-12,-0.48131,0,0,0.1,-9.4739e-16,0,0.66667
0.67034,0.30475,6.7034,-0.29287,-21.357,133.9,5.2352,-1.7451,-1.6974,6.9803,-2.1667e-12,-0.84872,0,0,0.1,4.737e-16,0,0.66667
0.74507,0.65826,7.4507,0.23739,13.957,83.089,-4.7166,1.5722,-1.7988,-6.2887,-1.5543e-11,-0.89938,0,0,0.1,1.8948e-15,0,0.66667
0.42221,0.73487,4.2221,0.35231,38.441,367.81,-3.9667,1.3222,-1.5628,-5.2889,-2.0528e-12,-0.78142,0,0,0.1,-9.4739e-16,0,0.66667
0.15392,0.28192,1.5392,-0.32712,-42.429,697.34,1.3427,-0.44756,-1.6218,1.7902,1.6032e-09,-0.8109,0,0,0.1,-4.737e-16,0,0.66667
0.28408,0.90538,2.8408,0.60806,74.411,530.91,-4.6064,1.5355,-0.68691,-6.1419,7.3417e-12,-0.34345,0,0,0.1,-6.8094e-16,0,0.66667
0.54848,0.071755,5.4848,-0.64237,-59.784,238.32,9.3953,-3.1318,-0.53499,12.527,-2.6281e-12,-0.2675,0,0,0.1,9.4739e-16,0,0.66667
0.25574,0.98992,2.5574,0.73488,91.558,566.5,-5.0116,1.6705,-0.07736,-6.6821,7.5824e-12,-0.03868,0,0,0.1,-4.737e-16,0,0.66667
0.89173,0.19672,8.9173,-0.45493,-12.255,17.418,10.818,-3.606,-1.2671,14.424,-2.7537e-08,-0.63357,0,0,0.1,-0,-0,0.66667
0.58075,0.82853,5.8075,0.4928,43.382,208.17,-7.6318,2.5439,-1.1368,-10.176,1.6462e-12,-0.56842,0,0,0.1,-0,-0,0.66667
0.71867,0.91353,7.1867,0.62029,39.874,100.84,-11.888,3.9625,-0.63715,-15.85,-1.7028e-11,-0.31857,0,0,0.1,-0,-0,0.66667
0.86203,0.93594,8.6203,0.6539,22.307,27.806,-15.032,5.0105,-0.48133,-20.042,-1.1721e-07,-0.24067,0,0,0.1,-5.9212e-16,0,0.66667
0.89656,0.84404,8.9656,0.51605,13.34,16.3,-12.338,4.1127,-1.0519,-16.451,5.175e-08,-0.52597,0,0,0.1,-0,-0,0.66667
0.95761,0.90462,9.5761,0.60693,6.5932,4.5303,-15.499,5.1662,-0.68985,-20.665,7.8622e-06,-0.34492,0,0,0.1,2.1316e-15,0,0.66667
0.62751,0.83674,6.2751,0.50511,40.667,168.02,-8.4522,2.8174,-1.0939,-11.27,-4.6008e-13,-0.54693,0,0,0.1,-4.737e-16,0,0.66667
0.99898,0.18864,9.9898,-0.46704,0.039923,0.98433,12.442,-4.1472,-1.2288,16.589,-1.3088e-06,-0.61439,0,0,0.1,-0,-0,0.66667
0.79051,0.61114,7.9051,0.16672,8.2455,57.495,-3.5144,1.1715,-1.8982,-4.6859,-1.9703e-11,-0.9491,0,0,0.1,-0,-0,0.66667
0.27082,0.39733,2.7082,-0.15401,-18.942,546.98,1.1122,-0.37075,-1.9136,1.483,-6.8754e-12,-0.95681,0,0,0.1,-0,-0,0.66667
0.99055,0.66225,9.9055,0.24337,0.48332,0.51325,-6.4285,2.1428,-1.7871,-8.5714,3.5985e-07,-0.89357,0,0,0.1,-0,-0,0.66667
0.80151,0.29131,8.0151,-0.31303,-14.774,52.218,6.6905,-2.2302,-1.6499,8.9207,4.5892e-12,-0.82494,0,0,0.1,-0,-0,0.66667
0.25311,0.42333,2.5311,-0.115,-14.285,569.2,0.77622,-0.25874,-1.9527,1.035,-1.5007e-11,-0.97633,0,0,0.1,4.737e-16,0,0.66667
0.031897,0.73674,0.31897,0.35511,47.139,860.11,-0.30205,0.10068,-1.5552,-0.40274,6.6973e-07,-0.77762,0,0,0.1,5.9212e-17,0,0.66667
0.95281,0.73377,9.5281,0.35066,4.1487,4.1117,-8.9096,2.9699,-1.567,-11.879,5.4732e-08,-0.78351,0,0,0.1,-0,-0,0.66667
0.55683,0.15503,5.5683,-0.51746,-47.444,230.12,7.6837,-2.5612,-1.0467,10.245,-2.355e-12,-0.52337,0,0,0.1,3.1928e-16,0,0.66667
0.55271,0.82495,5.5271,0.48743,44.972,233.91,-7.1841,2.3947,-1.1526,-9.5788,3.6415e-14,-0.57628,0,0,0.1,-9.4739e-16,0,0.66667
0.047378,0.51354,0.47378,0.02031,2.6901,839.26,-0.02566,0.008553,-2.0024,-0.034213,-4.0049e-07,-1.0012,0,0,0.1,-0,-0,0.66667
0.63904,0.34107,6.3904,-0.2384,-18.681,158.1,4.0626,-1.3542,-1.801,5.4168,1.7586e-13,-0.90049,0,0,0.1,2.3685e-16,0,0.66667
0.5001,0.19252,5.001,-0.46123,-45.949,285.23,6.151,-2.0503,-1.2491,8.2013,-1.1564e-12,-0.62453,0,0,0.1,-0,-0,0.66667
0.80429,0.95777,8.0429,0.68665,32.264,52.194,-14.727,4.9091,-0.32049,-19.636,-1.0872e-09,-0.16024,0,0,0.1,-9.4739e-16,0,0.66667
0.06955,0.88797,0.6955,0.58195,77.083,809.59,-1.0793,0.35977,-0.79269,-1.4391,-2.4462e-07,-0.39634,0,0,0.1,-0,-0,0.66667
0.56293,0.6373,5.6293,0.20595,18.647,223.9,-3.0916,1.0305,-1.8532,-4.1222,-1.8718e-13,-0.92662,0,0,0.1,-0,-0,0.66667
0.40868,0.27336,4.0868,-0.33996,-37.599,382.91,3.7049,-1.235,-1.5901,4.9398,-8.4088e-13,-0.79504,0,0,0.1,-0,-0,0.66667
0.55177,0.25238,5.5177,-0.37143,-34.283,234.55,5.4651,-1.8217,-1.5086,7.2868,-9.3747e-13,-0.75428,0,0,0.1,-0,-0,0.66667
0.35846,0.49466,3.5846,-0.0080068,-0.92572,440.5,0.076538,-0.025513,-2.0036,0.10205,-2.8867e-12,-1.0018,0,0,0.1,-0,-0,0.66667
0.99938,0.97886,9.9938,0.7183,0.084892,2.3011,-19.142,6.3807,-0.16901,-25.523,-0.00015533,-0.084504,0,0,0.1,-0,-3.1109e-16,0.66667
0.45032,0.75416,4.5032,0.38124,40.359,337.12,-4.5782,1.5261,-1.4842,-6.1043,-4.3867e-12,-0.7421,0,0,0.1,-0,-0,0.66667
0.34582,0.069376,3.4582,-0.64594,-75.728,456.08,5.9568,-1.9856,-0.51815,7.9424,3.4461e-13,-0.25907,0,0,0.1,-0,-0,0.66667
0.18973,0.48952,1.8973,-0.015713,-2.0104,650.44,0.079495,-0.026498,-2.0002,0.10599,-4.9166e-11,-1.0001,0,0,0.1,-0,-0,0.66667
0.92353,0.31245,9.2353,-0.28132,-5.3764,9.0067,6.9281,-2.3094,-1.7221,9.2375,-9.2964e-08,-0.86104,0,0,0.1,-2.3537e-15,0,0.66667
0.10429,0.64551,1.0429,0.21826,28.669,763.05,-0.60703,0.20234,-1.8285,-0.80937,-2.5718e-08,-0.91425,0,0,0.1,-1.1842e-16,0,0.66667
0.44034,0.14551,4.4034,-0.53174,-56.997,348.19,6.244,-2.0813,-0.99485,8.3253,-3.7033e-12,-0.49743,0,0,0.1,-0,-0,0.66667
0.6862,0.70325,6.862,0.30488,21.361,122.29,-5.5789,1.8596,-1.6719,-7.4385,-3.0198e-13,-0.83594,0,0,0.1,-0,-0,0.66667
0.14241,0.89648,1.4241,0.59472,77.56,712.67,-2.2585,0.75282,-0.74422,-3.0113,-1.8763e-10,-0.37211,0,0,0.1,1.1842e-16,0,0.66667
0.9315,0.088475,9.315,-0.61729,-10.774,8.6621,15.333,-5.1111,-0.64308,20.444,-3.0843e-07,-0.32154,0,0,0.1,-0,-0,0.66667
0.058875,0.82102,0.58875,0.48153,63.817,823.87,-0.75601,0.252,-1.175,-1.008,-2.3177e-08,-0.58748,0,0,0.1,-0,-0,0.66667
0.2181,0.50082,2.181,0.0012249,0.15483,613.78,-0.0071239,0.0023746,-2.0051,-0.0094985,5.9957e-11,-1.0025,0,0,0.1,-0,-0,0.66667
0.077195,0.8302,0.77195,0.49529,65.483,799.32,-1.0196,0.33986,-1.1308,-1.3594,-1.0016e-07,-0.56542,0,0,0.1,2.7006e-17,0,0.66667
0.41151,0.27601,4.1151,-0.33598,-37.055,379.72,3.6869,-1.229,-1.597,4.9159,-5.5622e-13,-0.79849,0,0,0.1,-4.737e-16,0,0.66667
0.59726,0.83998,5.9726,0.50996,43.58,193.63,-8.1221,2.7074,-1.0755,-10.83,3.5305e-12,-0.53775,0,0,0.1,-1.1842e-15,0,0.66667
0.73114,0.79938,7.3114,0.44908,27.7,92.206,-8.7557,2.9186,-1.2825,-11.674,-5.1026e-12,-0.64126,0,0,0.1,-8.6585e-16,0,0.66667
0.87843,0.5875,8.7843,0.13125,3.9219,20.695,-3.0745,1.0248,-1.9386,-4.0993,8.8472e-09,-0.96932,0,0,0.1,-1.4211e-15,0,0.66667
0.35325,0.77228,3.5325,0.40841,47.493,446.91,-3.8472,1.2824,-1.4043,-5.1297,-2.9923e-12,-0.70217,0,0,0.1,-0,-0,0.66667
0.70246,0.63224,7.0246,0.19836,13.29,110.67,-3.7158,1.2386,-1.8641,-4.9544,-1.8279e-12,-0.93206,0,0,0.1,-0,-0,0.66667
0.048616,0.39034,0.48616,-0.16448,-21.788,837.6,0.21324,-0.071081,-1.9054,0.28432,-6.6225e-08,-0.95272,0,0,0.1,-0,-0,0.66667
0.81926,0.70255,8.1926,0.30382,13.172,43.827,-6.6375,2.2125,-1.6687,-8.85,1.199e-10,-0.83433,0,0,0.1,-0,-0,0.66667
0.31828,0.8403,3.1828,0.51045,61.006,488.88,-4.3324,1.4441,-1.0719,-5.7765,-2.5846e-13,-0.53593,0,0,0.1,2.3685e-16,0,0.66667
0.22164,0.81954,2.2164,0.47931,60.603,609.46,-2.833,0.94432,-1.1836,-3.7773,6.7761e-12,-0.5918,0,0,0.1,4.737e-16,0,0.66667
0.36104,0.19907,3.6104,-0.45139,-52.172,437.8,4.3458,-1.4486,-1.2774,5.7944,-7.4376e-12,-0.63871,0,0,0.1,-0,-0,0.66667
0.11407,0.92768,1.1407,0.64152,84.322,750.21,-1.9514,0.65047,-0.53497,-2.6019,-6.6663e-08,-0.26749,0,0,0.1,1.1842e-16,0,0.66667
0.29371,0.39314,2.9371,-0.16029,-19.439,518.58,1.2554,-0.41846,-1.9083,1.6739,-3.3626e-12,-0.95414,0,0,0.1,-0,-0,0.66667
0.008789,0.091676,0.08789,-0.61249,-81.539,891.23,0.14354,-0.047832,-0.66431,0.1914,2.4053e-05,-0.33215,0,0,0.1,-1.8504e-17,0,0.66667
0.25326,0.0082937,2.5326,-0.73756,-92.019,569.61,4.9813,-1.6604,-0.065652,6.6417,2.4536e-12,-0.032826,0,0,0.1,-0,-0,0.66667
0.83771,0.76864,8.3771,0.40297,15.857,36.12,-9.0019,3.0006,-1.4198,-12.002,7.6545e-10,-0.70992,0,0,0.1,9.4739e-16,0,0.66667
0.80776,0.26752,8.0776,-0.34872,-15.999,49.279,7.5116,-2.5039,-1.5656,10.015,-6.7764e-12,-0.78281,0,0,0.1,9.4739e-16,0,0.66667
0.38257,0.11092,3.8257,-0.58361,-66.292,413.01,5.9539,-1.9846,-0.78571,7.9385,-5.9055e-12,-0.39285,0,0,0.1,-0,-0,0.66667
0.43068,0.60817,4.3068,0.16226,17.532,358.27,-1.8635,0.62118,-1.9032,-2.4847,-5.6708e-12,-0.95162,0,0,0.1,-0,-0,0.66667
0.18259,0.62822,1.8259,0.19233,24.684,659.75,-0.93646,0.31215,-1.8674,-1.2486,-1.4691e-11,-0.9337,0,0,0.1,-0,-0,0.66667
0.31687,0.04861,3.1687,-0.67708,-81.14,490.85,5.7214,-1.9071,-0.36829,7.6285,9.3259e-15,-0.18415,0,0,0.1,4.737e-16,0,0.66667
0.41737,0.18496,4.1737,-0.47255,-51.865,373.38,5.2594,-1.7531,-1.2054,7.0126,2.1214e-12,-0.6027,0,0,0.1,-7.1054e-16,0,0.66667
0.066468,0.93124,0.66468,0.64686,85.77,813.74,-1.1466,0.38219,-0.51155,-1.5287,2.562e-07,-0.25578,0,0,0.1,1.1842e-16,0,0.66667
0.33789,0.11261,3.3789,-0.58109,-68.497,465.4,5.2358,-1.7453,-0.79672,6.9811,-5.8176e-13,-0.39836,0,0,0.1,-4.737e-16,0,0.66667
0.49567,0.024039,4.9567,-0.71394,-71.765,290.39,9.4368,-3.1456,-0.18652,12.582,-1.6795e-12,-0.09326,0,0,0.1,-0,-1.5416e-16,0.66667
0.0067213,0.86003,0.067213,0.54005,71.852,894.01,-0.096793,0.03226,-0.95989,-0.12906,-5.807e-06,-0.47995,0,0,0.1,-0,-0,0.66667
0.43808,0.21982,4.3808,-0.42026,-45.113,350.46,4.9095,-1.6365,-1.3772,6.546,-1.3465e-12,-0.6886,0,0,0.1,-0,-0,0.66667
0.21869,0.84929,2.1869,0.52393,66.36,613.29,-3.0554,1.0185,-1.0294,-4.0739,7.2653e-11,-0.51471,0,0,0.1,-0,-0,0.66667
0.2134,0.64424,2.134,0.21636,27.418,619.86,-1.2312,0.41041,-1.8312,-1.6416,2.8954e-11,-0.91559,0,0,0.1,-0,-0,0.66667
0.24924,0.77146,2.4924,0.40719,50.752,574.27,-2.7063,0.90211,-1.4141,-3.6085,1.6682e-11,-0.70703,0,0,0.1,-0,-0,0.66667
0.12833,0.62819,1.2833,0.19229,25.112,731.1,-0.65802,0.21934,-1.869,-0.87737,-7.1628e-09,-0.93451,0,0,0.1,4.737e-16,0,0.66667
0.94481,0.17354,9.4481,-0.48969,-6.8437,5.7748,12.338,-4.1126,-1.1442,16.45,3.6741e-09,-0.57209,0,0,0.1,1.8948e-15,0,0.66667
0.16907,0.18691,1.6907,-0.46964,-60.662,677.54,2.1174,-0.70582,-1.2174,2.8233,-4.0802e-10,-0.60871,0,0,0.1,-2.9606e-16,0,0.66667
0.56761,0.46806,5.6761,-0.047908,-4.3019,219.48,0.72515,-0.24172,-1.9911,0.96687,3.238e-13,-0.99555,0,0,0.1,1.7764e-16,0,0.66667
0.17151,0.68881,1.7151,0.28322,36.51,674.25,-1.2953,0.43177,-1.7203,-1.7271,-4.595e-10,-0.86017,0,0,0.1,-0,-0,0.66667
0.26092,0.90297,2.6092,0.60446,74.984,559.79,-4.2057,1.4019,-0.69997,-5.6076,-7.6212e-11,-0.34998,0,0,0.1,7.1054e-16,0,0.66667
0.67678,0.24808,6.7678,-0.37788,-27.142,129.3,6.8197,-2.2732,-1.4915,9.0929,-2.1951e-12,-0.74573,0,0,0.1,1.4211e-15,0,0.66667
0.50327,0.022845,5.0327,-0.71573,-71.223,282.7,9.6054,-3.2018,-0.17843,12.807,3.177e-12,-0.089213,0,0,0.1,-0,-0,0.66667
0.15729,0.96524,1.5729,0.69785,90.69,693.18,-2.927,0.97568,-0.27231,-3.9027,5.4564e-09,-0.13616,0,0,0.1,-0,-0,0.66667
0.082507,0.62724,0.82507,0.19085,25.17,792.14,-0.41991,0.13997,-1.87,-0.55988,-4.4367e-08,-0.93502,0,0,0.1,-0,-0,0.66667
0.88189,0.79276,8.8189,0.43914,12.846,20.295,-10.327,3.4425,-1.3113,-13.77,5.807e-09,-0.65564,0,0,0.1,-0,-0,0.66667
0.24189,0.88857,2.4189,0.58285,73.031,583.76,-3.7596,1.2532,-0.78889,-5.0128,3.7861e-11,-0.39445,0,0,0.1,-0,-0,0.66667
0.95897,0.63286,9.5897,0.19929,2.0275,2.9639,-5.0964,1.6988,-1.8564,-6.7951,-1.2372e-07,-0.92822,0,0,0.1,-0,-0,0.66667
0.89236,0.43385,8.9236,-0.099221,-2.6378,16.457,2.3611,-0.78703,-1.9676,3.1481,-2.1085e-08,-0.98382,0,0,0.1,-0,-0,0.66667
0.15998,0.77837,1.5998,0.41755,54.081,689.43,-1.7813,0.59377,-1.3802,-2.3751,-8.8989e-10,-0.69008,0,0,0.1,3.5527e-16,0,0.66667
0.50371,0.66382,5.0371,0.24572,24.323,281.25,-3.3006,1.1002,-1.7847,-4.4008,-3.5092e-12,-0.89237,0,0,0.1,-0,-0,0.66667
0.11892,0.74561,1.1892,0.36841,48.264,743.63,-1.1683,0.38944,-1.5154,-1.5577,-1.1133e-08,-0.75771,0,0,0.1,5.9212e-17,0,0.66667
0.11084,0.31804,1.1084,-0.27295,-35.808,754.34,0.80674,-0.26891,-1.7379,1.0757,2.0978e-08,-0.86896,0,0,0.1,-0,-0,0.66667
0.6963,0.15929,6.963,-0.51106,-34.945,115.64,9.4894,-3.1631,-1.0693,12.652,3.5927e-12,-0.53465,0,0,0.1,-0,-0,0.66667
0.27155,0.6912,2.7155,0.28679,35.277,546.14,-2.0768,0.69226,-1.7057,-2.769,1.0235e-11,-0.85287,0,0,0.1,-0,-0,0.66667
0.96639,0.47602,9.6639,-0.035968,-0.29603,1.9712,0.9269,-0.30897,-1.9966,1.2359,2.3868e-09,-0.99828,0,0,0.1,-0,-0,0.66667
0.83925,0.38764,8.3925,-0.16853,-6.5506,34.993,3.7717,-1.2572,-1.8973,5.029,-8.0166e-10,-0.94863,0,0,0.1,-0,-0,0.66667
0.09252,0.63288,0.9252,0.19931,26.24,778.75,-0.49175,0.16392,-1.8617,-0.65566,-3.344e-08,-0.93083,0,0,0.1,-0,-0,0.66667
0.39056,0.17051,3.9056,-0.49424,-55.684,403.68,5.1475,-1.7158,-1.1362,6.8633,-3.5412e-12,-0.5681,0,0,0.1,-0,3.5023e-17,0.66667
0.12422,0.48099,1.2422,-0.028517,-3.727,736.52,0.094462,-0.031487,-2.0005,0.12595,4.5641e-10,-1.0002,0,0,0.1,-0,-0,0.66667
0.55539,0.68838,5.5539,0.28257,25.913,231,-4.185,1.395,-1.7144,-5.5799,-6.6525e-13,-0.85721,0,0,0.1,-0,-0,0.66667
0.16211,0.60796,1.6211,0.16194,20.935,686.53,-0.70004,0.23335,-1.904,-0.93339,-6.4038e-10,-0.952,0,0,0.1,-2.3685e-16,0,0.66667
0.83177,0.049378,8.3177,-0.67593,-27.699,39.692,14.992,-4.9975,-0.3746,19.99,1.1859e-08,-0.1873,0,0,0.1,-0,-0,0.66667
0.25769,0.24392,2.5769,-0.38412,-47.65,563.59,2.6396,-0.87988,-1.4727,3.5195,-1.2315e-11,-0.73637,0,0,0.1,-4.737e-16,0,0.66667
0.51057,0.17655,5.1057,-0.48517,-47.662,274.75,6.6056,-2.2019,-1.1609,8.8075,2.248e-12,-0.58047,0,0,0.1,-0,-0,0.66667
0.78245,0.19913,7.8245,-0.4513,-23.165,62.316,9.4166,-3.1389,-1.2785,12.556,-1.769e-11,-0.63924,0,0,0.1,-0,-0,0.66667
0.53834,0.56889,5.3834,0.10334,9.7266,247.01,-1.4836,0.49452,-1.9594,-1.9781,-1.1745e-12,-0.97971,0,0,0.1,-0,-0,0.66667
0.52882,0.91703,5.2882,0.62555,59.971,257.11,-8.8215,2.9405,-0.6094,-11.762,-9.0061e-13,-0.3047,0,0,0.1,-0,1.5785e-16,0.66667
0.85484,0.20663,8.5484,-0.44005,-15.629,29.528,10.031,-3.3437,-1.3097,13.375,-2.3202e-09,-0.65487,0,0,0.1,-9.4739e-16,0,0.66667
0.2451,0.082677,2.451,-0.62598,-78.34,579.75,4.0914,-1.3638,-0.60473,5.4553,-1.2432e-10,-0.30236,0,0,0.1,-2.3685e-16,0,0.66667
0.1271,0.87104,1.271,0.55656,72.864,732.88,-1.8864,0.62879,-0.90064,-2.5152,-7.0339e-09,-0.45032,0,0,0.1,-1.1842e-16,0,0.66667
0.56024,0.70531,5.6024,0.30797,28.024,226.52,-4.601,1.5337,-1.6637,-6.1346,-1.3634e-13,-0.83183,0,0,0.1,-9.4739e-16,0,0.66667
0.12838,0.63065,1.2838,0.19598,25.594,731.03,-0.67094,0.22365,-1.8635,-0.89458,-7.2359e-09,-0.93173,0,0,0.1,-4.737e-16,0,0.66667
0.33116,0.0071143,3.3116,-0.73933,-87.754,473.77,6.5289,-2.1763,-0.056781,8.7052,1.0756e-12,-0.02839,0,0,0.1,-0,-0,0.66667
0.32644,0.60926,3.2644,0.16389,19.433,478.68,-1.4267,0.47557,-1.9062,-1.9023,-4.8569e-12,-0.95311,0,0,0.1,-0,-0,0.66667
0.94804,0.79681,9.4804,0.44522,5.84,5.1081,-11.256,3.7519,-1.2929,-15.008,1.5618e-07,-0.64646,0,0,0.1,-0,-0,0.66667
0.37591,0.52619,3.7591,0.039288,4.4754,420.12,-0.39384,0.13128,-1.9984,-0.52512,-6.134e-12,-0.99918,0,0,0.1,-0,-0,0.66667
0.46911,0.15871,4.6911,-0.51194,-53.078,317.36,6.4042,-2.1347,-1.0735,8.5389,-5.167e-12,-0.53674,0,0,0.1,-0,-0,0.66667
0.94734,0.6721,9.4734,0.25815,3.3967,4.6588,-6.5215,2.1738,-1.7603,-8.6953,-6.5777e-09,-0.88016,0,0,0.1,-1.8948e-15,0,0.66667
0.82838,0.15169,8.2838,-0.52246,-21.702,40.461,11.541,-3.8471,-1.0346,15.388,-1.1982e-09,-0.51732,0,0,0.1,-1.4211e-15,0,0.66667
0.672,0.43977,6.72,-0.090339,-6.5539,132.43,1.6189,-0.53963,-1.9768,2.1585,-3.2607e-13,-0.98841,0,0,0.1,-0,-0,0.66667
0.26731,0.52533,2.6731,0.038,4.6826,551.34,-0.27088,0.090293,-1.9972,-0.36117,-1.2177e-12,-0.99862,0,0,0.1,-0,-0,0.66667
0.13326,0.44762,1.3326,-0.078572,-10.245,724.54,0.27923,-0.093075,-1.975,0.3723,2.8954e-09,-0.9875,0,0,0.1,-2.3685e-16,0,0.66667
0.33396,0.64467,3.3396,0.217,25.59,469.66,-1.9325,0.64418,-1.8299,-2.5767,-6.0475e-12,-0.91496,0,0,0.1,-0,-0,0.66667
0.15982,0.52645,1.5982,0.039673,5.1316,689.51,-0.16908,0.056361,-1.9943,-0.22544,-3.6464e-10,-0.99717,0,0,0.1,1.1842e-16,0,0.66667
0.9604,0.16475,9.604,-0.50287,-5.0437,3.7036,12.879,-4.2929,-1.098,17.172,-1.5954e-06,-0.549,0,0,0.1,-0,-0,0.66667
0.20094,0.87979,2.0094,0.56969,72.751,636.19,-3.0526,1.0175,-0.8478,-4.0701,2.6567e-10,-0.4239,0,0,0.1,-0,-0,0.66667
0.31067,0.37074,3.1067,-0.19389,-23.252,497.81,1.6063,-0.53543,-1.8687,2.1417,-5.7958e-12,-0.93436,0,0,0.1,-5.9212e-16,0,0.66667
0.66142,0.93218,6.6142,0.64828,48.527,141.63,-11.434,3.8114,-0.50413,-15.246,-2.6912e-13,-0.25206,0,0,0.1,-9.4739e-16,0,0.66667
0.43762,0.007813,4.3762,-0.73828,-79.572,351.67,8.6157,-2.8719,-0.067045,11.488,-3.4133e-12,-0.033523,0,0,0.1,-0,-0,0.66667
0.58983,0.1248,5.8983,-0.5628,-48.79,200.29,8.8523,-2.9508,-0.87419,11.803,3.0145e-12,-0.43709,0,0,0.1,2.9606e-17,0,0.66667
0.84885,0.71031,8.4885,0.31547,11.603,31.445,-7.1408,2.3803,-1.6442,-9.5211,1.8754e-09,-0.82211,0,0,0.1,-0,-0,0.66667
0.58815,0.055265,5.8815,-0.6671,-58.097,202.11,10.463,-3.4876,-0.41555,13.95,5.2935e-12,-0.20777,0,0,0.1,-9.4739e-16,0,0.66667
0.49698,0.79371,4.9698,0.44056,44.065,288.36,-5.8386,1.9462,-1.3097,-7.7849,-2.1592e-12,-0.65487,0,0,0.1,-0,-0,0.66667
0.83558,0.56519,8.3558,0.097782,3.8788,36.435,-2.1788,0.72626,-1.9639,-2.905,9.4427e-10,-0.98196,0,0,0.1,-0,-0,0.66667
0.79797,0.49385,7.9797,-0.009229,-0.44161,53.621,0.19639,-0.065462,-2.0031,0.26185,-1.224e-10,-1.0015,0,0,0.1,-0,-0,0.66667
0.98116,0.36389,9.8116,-0.20417,-0.90577,0.91899,5.342,-1.7807,-1.8515,7.1227,2.4756e-07,-0.92573,0,0,0.1,-0,-0,0.66667
0.94861,0.49415,9.4861,-0.0087718,-0.11201,4.1899,0.22189,-0.073964,-1.9986,0.29586,1.2712e-07,-0.99928,0,0,0.1,1.4211e-15,0,0.66667
0.91719,0.27032,9.1719,-0.34452,-7.1344,10.548,8.4264,-2.8088,-1.5762,11.235,-6.4256e-08,-0.78808,0,0,0.1,-0,-0,0.66667
0.49483,0.19346,4.9483,-0.45981,-46.129,290.59,6.0673,-2.0224,-1.2466,8.0898,-3.1668e-12,-0.62328,0,0,0.1,-0,-0,0.66667
0.73715,0.52341,7.3715,0.035108,2.117,87.775,-0.69013,0.23004,-1.9961,-0.92017,-4.882e-12,-0.99807,0,0,0.1,9.4739e-16,0,0.66667
0.60052,0.10126,6.0052,-0.59812,-50.862,191.06,9.5782,-3.1927,-0.72534,12.771,1.0036e-13,-0.36267,0,0,0.1,-0,-0,0.66667
0.738,0.39337,7.38,-0.15994,-9.6217,87.328,3.1476,-1.0492,-1.9082,4.1969,7.3443e-12,-0.95408,0,0,0.1,-0,-0,0.66667
0.37576,0.6771,3.7576,0.26566,30.284,420.42,-2.6619,0.88732,-1.7526,-3.5493,-2.3321e-12,-0.87631,0,0,0.1,-4.737e-16,0,0.66667
0.91111,0.45029,9.1111,-0.074558,-1.6458,11.506,1.8115,-0.60383,-1.9782,2.4153,-2.2463e-08,-0.98909,0,0,0.1,-0,-0,0.66667
0.87231,0.5237,8.7231,0.035555,1.1127,22.629,-0.82707,0.27569,-1.9962,-1.1028,2.5527e-09,-0.99809,0,0,0.1,-0,-0,0.66667
0.70467,0.62868,7.0467,0.19303,12.852,109.15,-3.6272,1.2091,-1.8705,-4.8362,2.4314e-13,-0.93524,0,0,0.1,-1.8948e-15,0,0.66667
0.26123,0.57984,2.6123,0.11975,14.809,558.99,-0.83422,0.27807,-1.9473,-1.1123,1.0531e-11,-0.97365,0,0,0.1,-4.737e-16,0,0.66667
0.50107,0.11302,5.0107,-0.58047,-57.828,284.53,7.7562,-2.5854,-0.80484,10.342,-2.5087e-12,-0.40242,0,0,0.1,-0,-0,0.66667
0.21771,0.55662,2.1771,0.084935,10.739,614.29,-0.49309,0.16436,-1.9778,-0.65745,4.7223e-11,-0.98892,0,0,0.1,2.3685e-16,0,0.66667
0.10252,0.64209,1.0252,0.21314,28.006,765.41,-0.5827,0.19423,-1.8353,-0.77694,-2.7643e-08,-0.91766,0,0,0.1,-0,-0,0.66667
0.57796,0.31422,5.7796,-0.27866,-24.604,210.26,4.2948,-1.4316,-1.7298,5.7265,-4.6212e-12,-0.86488,0,0,0.1,1.8948e-15,0,0.66667
0.4796,0.69801,4.796,0.29701,30.347,306.02,-3.7986,1.2662,-1.6845,-5.0648,-3.7703e-13,-0.84223,0,0,0.1,-0,-0,0.66667
0.24749,0.81062,2.4749,0.46593,58.152,576.54,-3.075,1.025,-1.2299,-4.1,-1.396e-11,-0.61496,0,0,0.1,1.7764e-16,0,0.66667
0.44668,0.003778,4.4668,-0.74433,-79.437,341.87,8.866,-2.9553,-0.028058,11.821,1.7488e-12,-0.014029,0,0,0.1,-0,-0,0.66667
0.13839,0.5755,1.3839,0.11325,14.746,717.76,-0.41793,0.13931,-1.9553,-0.55724,-3.5231e-09,-0.97766,0,0,0.1,-0,-0,0.66667
0.5228,0.10844,5.228,-0.58733,-56.774,262.89,8.1882,-2.7294,-0.77025,10.918,1.0676e-12,-0.38513,0,0,0.1,-0,-0,0.66667
0.97037,0.025917,9.7037,-0.71112,-5.4933,3.7595,18.401,-6.1338,-0.20455,24.535,3.5915e-05,-0.10227,0,0,0.1,-1.8948e-15,0,0.66667
0.82378,0.73619,8.2378,0.35428,15.021,41.928,-7.7827,2.5942,-1.5521,-10.377,2.3539e-10,-0.77603,0,0,0.1,-9.7555e-16,0,0.66667
0.0044396,0.58786,0.044396,0.13179,17.498,897.07,-0.015603,0.0052008,-1.9371,-0.020804,-3.5064e-07,-0.96857,0,0,0.1,-7.4015e-18,0,0.66667
0.09162,0.85325,0.9162,0.52987,69.901,780.05,-1.2946,0.43152,-1.003,-1.7261,-3.8116e-08,-0.50151,0,0,0.1,-0,1.0937e-17,0.66667
0.025576,0.10481,0.25576,-0.59279,-78.857,868.64,0.40429,-0.13477,-0.74806,0.53905,-1.5155e-05,-0.37403,0,0,0.1,-0,-0,0.66667
0.30843,0.74443,3.0843,0.36665,44.073,500.67,-3.0156,1.0052,-1.5213,-4.0208,-5.9019e-13,-0.76066,0,0,0.1,4.737e-16,0,0.66667
0.98064,0.89841,9.8064,0.59762,2.9277,2.3273,-15.628,5.2093,-0.72949,-20.837,-7.7641e-06,-0.36474,0,0,0.1,-0,-0,0.66667
0.4604,0.41938,4.604,-0.12092,-12.637,326.07,1.4846,-0.49488,-1.9448,1.9795,-1.1684e-12,-0.9724,0,0,0.1,-0,-0,0.66667
0.40975,0.4452,4.0975,-0.082201,-9.0727,381.51,0.89818,-0.29939,-1.9756,1.1976,-5.1762e-12,-0.98781,0,0,0.1,-0,-0,0.66667
0.40822,0.057261,4.0822,-0.66411,-73.708,384.01,7.2294,-2.4098,-0.43388,9.6392,1.6822e-12,-0.21694,0,0,0.1,2.3685e-16,0,0.66667
0.82481,0.81368,8.2481,0.47052,19.889,41.824,-10.349,3.4497,-1.2137,-13.799,1.5683e-10,-0.60686,0,0,0.1,-0,-0,0.66667
0.58171,0.29952,5.8171,-0.30072,-26.381,206.92,4.6649,-1.555,-1.6776,6.2198,-2.1112e-12,-0.8388,0,0,0.1,-0,-0,0.66667
0.11935,0.27295,1.1935,-0.34058,-44.606,743.05,1.084,-0.36132,-1.5853,1.4453,1.1633e-08,-0.79265,0,0,0.1,1.1842e-16,0,0.66667
0.44473,0.41263,4.4473,-0.13106,-13.944,342.91,1.5543,-0.51811,-1.9363,2.0724,-2.2385e-12,-0.96814,0,0,0.1,-0,-0,0.66667
0.1464,0.00071456,1.464,-0.74893,-97.715,707.53,2.9239,-0.97464,-0.0045374,3.8985,1.5188e-10,-0.0022687,0,0,0.1,-0,-0,0.66667
0.66607,0.41235,6.6607,-0.13148,-9.6786,136.91,2.3353,-0.77843,-1.9364,3.1137,-3.2283e-12,-0.96821,0,0,0.1,1.8948e-15,0,0.66667
0.12237,0.035943,1.2237,-0.69609,-91.365,739.24,2.2715,-0.75715,-0.27834,3.0286,-2.1299e-07,-0.13917,0,0,0.1,-0,-0,0.66667
0.086689,0.37305,0.86689,-0.19043,-25.095,786.55,0.44021,-0.14674,-1.8692,0.58694,3.5424e-08,-0.93459,0,0,0.1,1.4803e-16,0,0.66667
0.70336,0.16039,7.0336,-0.50941,-34.16,110.74,9.5547,-3.1849,-1.0826,12.74,-5.3388e-12,-0.54131,0,0,0.1,1.8948e-15,0,0.66667
0.41126,0.58077,4.1126,0.12116,13.353,379.83,-1.3287,0.4429,-1.9456,-1.7716,-2.5684e-12,-0.97281,0,0,0.1,-4.737e-16,0,0.66667
0.99611,0.19017,9.9611,-0.46474,-0.31402,1.0315,12.345,-4.115,-1.232,16.46,-2.1187e-06,-0.616,0,0,0.1,-3.7896e-15,0,0.66667
0.53405,0.89124,5.3405,0.58686,55.799,251.94,-8.3577,2.7859,-0.7755,-11.144,-2.264e-12,-0.38775,0,0,0.1,9.4739e-16,0,0.66667
0.77901,0.87135,7.7901,0.55703,29.053,64.521,-11.572,3.8572,-0.89865,-15.429,3.502e-11,-0.44932,0,0,0.1,-1.1842e-15,-9.239e-17,0.66667
0.86863,0.22467,8.6863,-0.413,-13.35,24.523,9.5664,-3.1888,-1.3912,12.755,-6.9375e-09,-0.6956,0,0,0.1,1.8948e-15,0,0.66667
0.79875,0.9449,7.9875,0.66735,32.13,54.813,-14.214,4.7381,-0.41843,-18.953,-2.3354e-09,-0.20921,0,0,0.1,-0,-0,0.66667
0.21409,0.55583,2.1409,0.083748,10.606,618.94,-0.47812,0.15937,-1.9737,-0.63749,4.5806e-11,-0.98683,0,0,0.1,3.5527e-16,0,0.66667
0.68037,0.69326,6.8037,0.28989,20.616,126.49,-5.2595,1.7532,-1.6987,-7.0126,-2.1148e-12,-0.84934,0,0,0.1,1.8948e-15,0,0.66667
0.0046244,0.54912,0.046244,0.073681,9.7813,896.82,-0.0090861,0.0030277,-1.9788,-0.012115,-1.5309e-06,-0.9894,0,0,0.1,-0,-0,0.66667
0.7958,0.13228,7.958,-0.55158,-26.821,55.782,11.705,-3.9018,-0.92151,15.607,1.6902e-10,-0.46075,0,0,0.1,-1.8948e-15,0,0.66667
0.21583,0.018666,2.1583,-0.722,-91.752,617.19,4.1555,-1.3852,-0.14651,5.5407,7.9286e-11,-0.073257,0,0,0.1,-0,1.1394e-16,0.66667
0.98672,0.63188,9.8672,0.19783,0.58838,0.59364,-5.2054,1.7351,-1.8621,-6.9405,1.2252e-07,-0.93104,0,0,0.1,-0,-0,0.66667
0.94415,0.26021,9.4415,-0.35968,-5.0461,5.4162,9.0558,-3.0186,-1.5371,12.074,-7.4258e-08,-0.76856,0,0,0.1,-0,-0,0.66667
0.58512,0.95673,5.8512,0.6851,60.007,204.86,-10.69,3.5632,-0.32805,-14.253,2.8972e-12,-0.16403,0,0,0.1,-6.9292e-16,0,0.66667
0.16047,0.66185,1.6047,0.24278,31.41,688.7,-1.0389,0.3463,-1.7896,-1.3852,-1.0293e-09,-0.89478,0,0,0.1,-4.737e-16,0,0.66667
0.7034,0.3659,7.034,-0.20115,-13.441,110.03,3.7731,-1.2577,-1.8607,5.0308,6.0041e-13,-0.93036,0,0,0.1,-0,-0,0.66667
0.41745,0.89585,4.1745,0.59377,65.244,373.52,-6.6099,2.2033,-0.74487,-8.8133,1.5916e-12,-0.37243,0,0,0.1,-4.737e-16,0,0.66667
0.46677,0.78309,4.6677,0.42463,44.114,319.66,-5.2855,1.7618,-1.3615,-7.0473,5.0182e-14,-0.68074,0,0,0.1,-0,-0,0.66667
0.30497,0.45951,3.0497,-0.060728,-7.3088,504.72,0.49387,-0.16462,-1.9839,0.65849,-6.5735e-12,-0.99195,0,0,0.1,-0,-0,0.66667
0.86917,0.59235,8.6917,0.13853,4.439,23.756,-3.2109,1.0703,-1.9304,-4.2812,3.9877e-09,-0.96521,0,0,0.1,3.5527e-16,0,0.66667
0.46942,0.84225,4.6942,0.51337,53.207,317.03,-6.4263,2.1421,-1.0679,-8.5684,-4.9916e-13,-0.53393,0,0,0.1,4.1448e-16,0,0.66667
0.80616,0.94861,8.0616,0.67291,31.336,51.231,-14.466,4.822,-0.38717,-19.288,-1.2097e-09,-0.19359,0,0,0.1,-1.8948e-15,0,0.66667
0.8068,0.5848,8.068,0.1272,5.8483,49.359,-2.7367,0.91222,-1.9401,-3.6489,1.4035e-11,-0.97005,0,0,0.1,-0,-0,0.66667
0.55703,0.23813,5.5703,-0.39281,-35.957,229.66,5.8348,-1.9449,-1.4489,7.7797,-8.5221e-13,-0.72447,0,0,0.1,-0,-0,0.66667
0.38613,0.75043,3.8613,0.37564,42.454,408.58,-3.8679,1.2893,-1.4981,-5.1572,-3.5052e-12,-0.74904,0,0,0.1,-9.4739e-16,0,0.66667
0.68707,0.25157,6.8707,-0.37265,-26.068,121.81,6.8276,-2.2759,-1.5116,9.1035,-1.2812e-12,-0.7558,0,0,0.1,-0,-0,0.66667
0.6809,0.43568,6.809,-0.096483,-6.8447,125.87,1.7519,-0.58396,-1.9651,2.3358,-3.5416e-13,-0.98257,0,0,0.1,5.7449e-16,0,0.66667
0.18194,0.85222,1.8194,0.52834,67.957,660.79,-2.5634,0.85446,-1.0053,-3.4178,3.2788e-10,-0.50263,0,0,0.1,-0,-0,0.66667
0.76415,0.2725,7.6415,-0.34125,-18.773,72.072,6.9538,-2.3179,-1.5884,9.2717,2.4766e-11,-0.79418,0,0,0.1,9.4739e-16,0,0.66667
0.16518,0.19291,1.6518,-0.46064,-59.575,682.64,2.029,-0.67632,-1.2432,2.7053,-1.6684e-10,-0.62159,0,0,0.1,-0,-0,0.66667
0.32411,0.22206,3.2411,-0.41691,-49.58,481.7,3.6033,-1.2011,-1.3817,4.8044,-4.4409e-12,-0.69085,0,0,0.1,9.4739e-16,0,0.66667
0.87021,0.71548,8.7021,0.32322,10.307,23.731,-7.5005,2.5002,-1.6276,-10.001,7.7583e-09,-0.81378,0,0,0.1,1.1842e-15,0,0.66667
0.57167,0.5681,5.7167,0.10215,9.1102,215.79,-1.5572,0.51906,-1.9606,-2.0762,-3.9025e-12,-0.98028,0,0,0.1,-0,-0,0.66667
0.2566,0.0028742,2.566,-0.74569,-92.874,565.43,5.1025,-1.7008,-0.02098,6.8033,-7.9421e-12,-0.01049,0,0,0.1,1.8948e-15,0,0.66667
0.92392,0.57012,9.2392,0.10518,1.9924,8.644,-2.5914,0.86381,-1.9623,-3.4552,6.1361e-08,-0.98113,0,0,0.1,-0,-0,0.66667
0.66058,0.12216,6.6058,-0.56676,-42.451,141.98,9.9837,-3.3279,-0.85739,13.312,-2.5295e-12,-0.42869,0,0,0.1,9.4739e-16,0,0.66667
0.55451,0.9045,5.5451,0.60674,55.902,232.54,-8.9719,2.9906,-0.68913,-11.963,-1.9584e-12,-0.34457,0,0,0.1,2.3685e-16,0,0.66667
0.99332,0.17595,9.9332,-0.48607,-0.69843,1.1971,12.875,-4.2917,-1.157,17.167,-3.1222e-06,-0.57848,0,0,0.1,-0,-0,0.66667
0.84555,0.95639,8.4555,0.68458,25.951,34.117,-15.436,5.1453,-0.3353,-20.581,8.2891e-09,-0.16765,0,0,0.1,-0,-0,0.66667
0.67719,0.3039,6.7719,-0.29415,-21.089,128.82,5.312,-1.7707,-1.6902,7.0826,2.8422e-13,-0.84512,0,0,0.1,-4.737e-16,0,0.66667
0.081731,0.85741,0.81731,0.53612,70.852,793.27,-1.1685,0.38949,-0.97716,-1.5579,-3.519e-08,-0.48858,0,0,0.1,-0,-0,0.66667
0.36445,0.54278,3.6445,0.064174,7.3829,433.48,-0.62368,0.20789,-1.9832,-0.83157,-5.4013e-12,-0.9916,0,0,0.1,9.4739e-16,0,0.66667
0.50217,0.48077,5.0217,-0.028847,-2.8596,282.67,0.3863,-0.12877,-1.9981,0.51506,-9.5257e-13,-0.99905,0,0,0.1,-0,-0,0.66667
0.61766,0.53276,6.1766,0.049133,4.0233,175.5,-0.80925,0.26975,-1.9896,-1.079,-3.6517e-12,-0.99478,0,0,0.1,1.8948e-15,0,0.66667
0.63988,0.045828,6.3988,-0.68126,-53.573,158.58,11.625,-3.8749,-0.35321,15.499,1.954e-13,-0.1766,0,0,0.1,-0,-1.1789e-16,0.66667
0.72511,0.27032,7.2511,-0.34452,-21.624,95.794,6.6617,-2.2206,-1.5751,8.8823,3.8818e-12,-0.78757,0,0,0.1,-0,-0,0.66667
0.91024,0.80438,9.1024,0.45656,10.27,12.536,-11.082,3.6941,-1.2579,-14.776,2.1088e-08,-0.62895,0,0,0.1,9.4739e-16,0,0.66667
0.56828,0.63492,5.6828,0.20238,18.16,218.97,-3.0669,1.0223,-1.8519,-4.0892,1.8687e-12,-0.92594,0,0,0.1,-0,-0,0.66667
0.98027,0.7613,9.8027,0.39194,1.8757,1.4645,-10.246,3.4152,-1.4525,-13.661,-1.4267e-06,-0.72624,0,0,0.1,-0,-0,0.66667
0.1132,0.87359,1.132,0.56038,73.616,751.32,-1.6916,0.56386,-0.88371,-2.2554,-3.2182e-09,-0.44186,0,0,0.1,-7.4015e-17,0,0.66667
0.46568,0.67703,4.6568,0.26555,27.593,320.58,-3.2977,1.0992,-1.7492,-4.3969,-1.1784e-12,-0.87459,0,0,0.1,-0,-0,0.66667
0.10167,0.90383,1.0167,0.60575,79.808,766.68,-1.6423,0.54745,-0.69331,-2.1898,-1.6666e-08,-0.34665,0,0,0.1,-1.1842e-16,0,0.66667
0.74245,0.35396,7.4245,-0.21906,-12.991,84.657,4.3371,-1.4457,-1.8263,5.7828,9.7335e-12,-0.91315,0,0,0.1,-0,-0,0.66667
0.80683,0.7336,8.0683,0.35039,16.147,49.728,-7.5388,2.5129,-1.5608,-10.052,-3.4563e-12,-0.7804,0,0,0.1,-0,-0,0.66667
0.52316,0.14529,5.2316,-0.53207,-51.372,262.4,7.4228,-2.4743,-0.99031,9.8971,3.4772e-13,-0.49515,0,0,0.1,4.737e-16,0,0.66667
0.43253,0.37518,4.3253,-0.18723,-20.191,356.25,2.1595,-0.71983,-1.8748,2.8793,-3.0072e-12,-0.93741,0,0,0.1,-0,-0,0.66667
0.066995,0.60593,0.66995,0.1589,21.003,812.92,-0.28388,0.094627,-1.9085,-0.37851,-3.4226e-08,-0.95425,0,0,0.1,-1.1842e-16,0,0.66667
0.56461,0.93203,5.6461,0.64805,58.765,223.29,-9.7573,3.2524,-0.50855,-13.01,9.1038e-13,-0.25427,0,0,0.1,-0,-0,0.66667
0.25483,0.3156,2.5483,-0.2766,-34.346,567.12,1.8796,-0.62655,-1.727,2.5062,-1.4583e-11,-0.86348,0,0,0.1,-0,-0,0.66667
0.082332,0.29831,0.82332,-0.30254,-39.917,792.39,0.66423,-0.22141,-1.673,0.88563,6.5018e-08,-0.83651,0,0,0.1,1.1842e-16,0,0.66667
0.73371,0.39424,7.3371,-0.15864,-9.6771,90.01,3.104,-1.0347,-1.9141,4.1386,5.0655e-12,-0.95707,0,0,0.1,-0,-0,0.66667
0.74344,0.52461,7.4344,0.036919,2.1803,83.896,-0.73192,0.24397,-1.9926,-0.97589,-3.103e-12,-0.99632,0,0,0.1,-9.4739e-16,0,0.66667
0.37108,0.52504,3.7108,0.037562,4.2967,425.74,-0.37169,0.1239,-1.9943,-0.49559,-6.0845e-12,-0.99717,0,0,0.1,4.737e-16,0,0.66667
0.18447,0.35779,1.8447,-0.21331,-27.359,657.3,1.0493,-0.34978,-1.838,1.3991,6.7779e-11,-0.91901,0,0,0.1,-0,-0,0.66667
0.51289,0.28806,5.1289,-0.3179,-31.085,272.13,4.348,-1.4493,-1.6414,5.7973,-5.3291e-13,-0.82068,0,0,0.1,-0,-0,0.66667
0.093456,0.74398,0.93456,0.36597,48.207,777.54,-0.91205,0.30402,-1.5287,-1.2161,-4.1078e-08,-0.76435,0,0,0.1,-6.3087e-17,0,0.66667
0.77844,0.91715,7.7844,0.62572,32.763,65.11,-12.989,4.3297,-0.60812,-17.319,-1.3886e-10,-0.30406,0,0,0.1,-0,-0,0.66667
0.47595,0.27968,4.7595,-0.33048,-33.927,309.86,4.1945,-1.3982,-1.6098,5.5927,-2.4971e-12,-0.80491,0,0,0.1,1.4211e-15,0,0.66667
0.96096,0.35202,9.6096,-0.22197,-2.1475,2.7688,5.6882,-1.8961,-1.8219,7.5843,1.719e-07,-0.91095,0,0,0.1,-0,-0,0.66667
0.10902,0.097227,1.0902,-0.60416,-79.473,756.9,1.7564,-0.58547,-0.70736,2.3419,-2.2291e-08,-0.35368,0,0,0.1,2.3685e-16,-4.6841e-17,0.66667
0.69796,0.66861,6.9796,0.25292,17.164,113.87,-4.7073,1.5691,-1.7703,-6.2765,-2.3261e-12,-0.88514,0,0,0.1,-0,-0,0.66667
0.80356,0.17973,8.0356,-0.4804,-22.528,51.689,10.294,-3.4314,-1.1767,13.726,1.5504e-10,-0.58837,0,0,0.1,-1.4211e-15,0,0.66667
0.72687,0.99026,7.2687,0.73538,46.23,96.025,-14.254,4.7514,-0.07417,-19.006,4.4702e-12,-0.037085,0,0,0.1,8.6079e-16,0,0.66667
0.46145,0.58701,4.6145,0.13051,13.623,324.95,-1.606,0.53535,-1.9367,-2.1414,-2.8243e-12,-0.96837,0,0,0.1,-2.0046e-16,0,0.66667
0.54611,0.65954,5.4611,0.23931,22.266,239.7,-3.485,1.1617,-1.8008,-4.6467,-2.4114e-12,-0.90039,0,0,0.1,-0,-0,0.66667
0.61519,0.61921,6.1519,0.17882,14.721,177.65,-2.9336,0.97786,-1.8842,-3.9114,-1.1315e-12,-0.94212,0,0,0.1,-0,-0,0.66667
0.059105,0.57011,0.59105,0.10517,13.914,823.51,-0.16576,0.055255,-1.9604,-0.22102,7.0562e-08,-0.98022,0,0,0.1,-0,-0,0.66667
0.99567,0.70411,9.9567,0.30616,0.20365,0.5011,-8.129,2.7097,-1.6651,-10.839,1.0618e-06,-0.83253,0,0,0.1,-0,-0,0.66667
0.25491,0.65454,2.5491,0.23182,28.778,566.99,-1.5758,0.52526,-1.8081,-2.101,6.9835e-12,-0.90406,0,0,0.1,5.9212e-16,0,0.66667
0.64341,0.60733,6.4341,0.16099,12.49,154.52,-2.7622,0.92074,-1.908,-3.683,1.0814e-12,-0.95398,0,0,0.1,-0,-0,0.66667
0.12643,0.1123,1.2643,-0.58154,-76.164,733.77,1.9607,-0.65357,-0.79974,2.6143,1.1772e-08,-0.39987,0,0,0.1,2.3685e-16,0,0.66667
0.16786,0.05337,1.6786,-0.66994,-86.73,679.3,2.9989,-0.99964,-0.40312,3.9985,-1.5996e-08,-0.20156,0,0,0.1,2.3685e-16,0,0.66667
0.4911,0.17172,4.911,-0.49242,-49.657,294.46,6.4488,-2.1496,-1.1347,8.5984,-3.5625e-12,-0.56737,0,0,0.1,-9.4739e-16,0,0.66667
0.2885,0.73032,2.885,0.34548,42.071,525.13,-2.6579,0.88596,-1.5725,-3.5438,-1.0179e-12,-0.78625,0,0,0.1,-0,-0,0.66667
0.50424,0.043184,5.0424,-0.68522,-68.067,281.62,9.2138,-3.0713,-0.32907,12.285,2.1982e-12,-0.16454,0,0,0.1,9.4739e-16,0,0.66667
0.10218,0.47686,1.0218,-0.034713,-4.5598,765.84,0.094586,-0.031529,-1.9929,0.12611,2.9966e-09,-0.99644,0,0,0.1,-2.3685e-16,0,0.66667
0.41929,0.31207,4.1929,-0.28189,-30.836,370.97,3.1519,-1.0506,-1.7195,4.2025,-1.964e-12,-0.85973,0,0,0.1,-4.4409e-17,0,0.66667
0.2686,0.46217,2.686,-0.056748,-6.9876,549.73,0.40647,-0.13549,-1.989,0.54196,-1.545e-12,-0.99448,0,0,0.1,-2.3685e-16,0,0.66667
0.5819,0.95133,5.819,0.677,59.628,207.7,-10.505,3.5017,-0.36932,-14.007,-4.3521e-13,-0.18466,0,0,0.1,9.4739e-16,0,0.66667
0.17171,0.71153,1.7171,0.31729,40.906,674.01,-1.4528,0.48427,-1.6471,-1.9371,-4.0719e-10,-0.82353,0,0,0.1,-2.3685e-16,0,0.66667
0.96232,0.3213,9.6232,-0.26806,-2.5062,2.7102,6.8788,-2.2929,-1.7418,9.1717,2.0434e-07,-0.87091,0,0,0.1,-0,-0,0.66667
0.54421,0.36037,5.4421,-0.20944,-19.542,241.47,3.0395,-1.0132,-1.8443,4.0526,-7.4962e-13,-0.92215,0,0,0.1,-9.4739e-16,0,0.66667
0.70195,0.51346,7.0195,0.020196,1.3542,110.9,-0.37804,0.12601,-2.0012,-0.50405,1.8121e-12,-1.0006,0,0,0.1,-1.8948e-15,0,0.66667
0.93237,0.113,9.3237,-0.5805,-9.9798,8.3162,14.433,-4.811,-0.79962,19.244,-1.7907e-07,-0.39981,0,0,0.1,-0,-0,0.66667
0.34537,0.84351,3.4537,0.51526,60.348,456.39,-4.7454,1.5818,-1.0595,-6.3273,-2.8542e-12,-0.52976,0,0,0.1,-5.7732e-16,0,0.66667
0.51572,0.419,5.1572,-0.12149,-11.822,269.12,1.6709,-0.55695,-1.9522,2.2278,-5.7343e-12,-0.97612,0,0,0.1,9.4739e-16,0,0.66667
0.78659,0.039177,7.8659,-0.69124,-35.079,61.098,14.499,-4.8331,-0.29908,19.332,-4.5636e-10,-0.14954,0,0,0.1,-0,-0,0.66667
0.06941,0.32548,0.6941,-0.26179,-34.603,809.69,0.48455,-0.16152,-1.7532,0.64607,9.3915e-08,-0.8766,0,0,0.1,-0,-0,0.66667
0.75322,0.42424,7.5322,-0.11364,-6.4908,78.059,2.2826,-0.76085,-1.9537,3.0434,1.1074e-11,-0.97683,0,0,0.1,-0,-0,0.66667
0.11748,0.95419,1.1748,0.68128,89.514,745.71,-2.1343,0.71144,-0.34644,-2.8457,5.4783e-08,-0.17322,0,0,0.1,-0,-0,0.66667
0.38913,0.64055,3.8913,0.21082,23.74,404.97,-2.1876,0.72921,-1.844,-2.9168,-5.0555e-12,-0.92201,0,0,0.1,-4.737e-16,0,0.66667
0.69699,0.57905,6.9699,0.11858,8.0623,114.39,-2.204,0.73465,-1.9471,-2.9386,-1.3656e-13,-0.97355,0,0,0.1,-9.4739e-16,0,0.66667
0.059872,0.71595,0.59872,0.32393,42.882,822.5,-0.51717,0.17239,-1.6284,-0.68957,-8.8182e-08,-0.81419,0,0,0.1,1.3323e-16,0,0.66667
0.66498,0.064142,6.6498,-0.65379,-48.533,138.95,11.594,-3.8645,-0.47842,15.458,2.4167e-12,-0.23921,0,0,0.1,-1.8948e-15,0,0.66667
0.97191,0.60156,9.7191,0.15234,1.0397,1.5399,-3.9483,1.3161,-1.9175,-5.2644,-1.9228e-07,-0.95876,0,0,0.1,-1.8948e-15,0,0.66667
0.24942,0.25854,2.4942,-0.36219,-45.125,574,2.409,-0.803,-1.5376,3.212,-1.7208e-11,-0.76881,0,0,0.1,-4.737e-16,0,0.66667
0.25914,0.33311,2.5914,-0.25034,-31.007,561.67,1.7299,-0.57664,-1.7743,2.3066,-2.1154e-11,-0.88715,0,0,0.1,-2.3685e-16,0,0.66667
0.087231,0.61674,0.87231,0.1751,23.073,785.82,-0.40732,0.13577,-1.8883,-0.54309,-3.6398e-08,-0.94415,0,0,0.1,-5.9212e-17,0,0.66667
0.093025,0.68387,0.93025,0.27581,36.317,778.09,-0.68419,0.22806,-1.7339,-0.91226,-4.2299e-08,-0.86697,0,0,0.1,-2.9606e-17,0,0.66667
0.31441,0.11066,3.1441,-0.584,-70.036,493.68,4.8964,-1.6321,-0.78872,6.5285,-5.199e-12,-0.39436,0,0,0.1,4.737e-16,0,0.66667
0.83253,0.30777,8.3253,-0.28835,-11.655,37.987,6.4015,-2.1338,-1.7035,8.5354,-6.4431e-10,-0.85174,0,0,0.1,1.4211e-15,0,0.66667
0.51242,0.21617,5.1242,-0.42575,-41.693,272.78,5.8177,-1.9392,-1.3562,7.7569,-3.6287e-12,-0.67812,0,0,0.1,6.254e-16,0,0.66667
0.38564,0.8473,3.8564,0.52094,58.972,409.36,-5.3572,1.7857,-1.0339,-7.143,-1.2452e-12,-0.51695,0,0,0.1,-0,-0,0.66667
0.1825,0.9761,1.825,0.71415,92.01,660.25,-3.4756,1.1585,-0.18488,-4.6342,1.0506e-09,-0.092439,0,0,0.1,4.737e-16,0,0.66667
0.97602,0.47668,9.7602,-0.03498,-0.20067,1.1058,0.91044,-0.30348,-1.9928,1.2139,2.3853e-07,-0.99641,0,0,0.1,-0,-0,0.66667
0.74144,0.91258,7.4144,0.61886,37.039,86.381,-12.236,4.0787,-0.63565,-16.315,5.6495e-11,-0.31782,0,0,0.1,1.8948e-15,0,0.66667
0.34016,0.79368,3.4016,0.44052,51.771,462.47,-3.9959,1.332,-1.3092,-5.3279,-4.8304e-12,-0.6546,0,0,0.1,-0,-0,0.66667
0.92233,0.0018629,9.2233,-0.74721,-14.871,11.223,18.378,-6.126,-0.020128,24.504,1.3283e-06,-0.010064,0,0,0.1,-0,-0,0.66667
0.58633,0.84497,5.8633,0.51746,45.117,203.26,-8.0907,2.6969,-1.0461,-10.788,2.1299e-12,-0.52307,0,0,0.1,-0,-0,0.66667
0.2652,0.4424,2.652,-0.086401,-10.66,554,0.61102,-0.20367,-1.9783,0.8147,-9.3158e-12,-0.98913,0,0,0.1,-0,-0,0.66667
0.48157,0.46284,4.8157,-0.055736,-5.6757,303.79,0.71575,-0.23858,-1.9897,0.95433,-7.5895e-12,-0.99484,0,0,0.1,4.737e-16,0,0.66667
0.43439,0.6225,4.3439,0.18375,19.777,354.21,-2.1285,0.70951,-1.8808,-2.838,-1.7726e-12,-0.94041,0,0,0.1,-5.9212e-16,0,0.66667
0.3025,0.62677,3.025,0.19016,22.931,507.79,-1.534,0.51133,-1.8701,-2.0453,-2.23e-12,-0.93506,0,0,0.1,-0,-0,0.66667
0.65676,0.83246,6.5676,0.49869,37.649,144.7,-8.7339,2.9113,-1.1197,-11.645,-9.3792e-13,-0.55986,0,0,0.1,-0,-0,0.66667
0.79219,0.17371,7.9219,-0.48944,-24.14,57.377,10.34,-3.4465,-1.1463,13.786,5.8507e-11,-0.57315,0,0,0.1,-0,-0,0.66667
0.35326,0.69306,3.5326,0.2896,33.65,446.76,-2.7281,0.90937,-1.6996,-3.6375,-7.7836e-12,-0.84981,0,0,0.1,-0,-0,0.66667
0.43787,0.45644,4.3787,-0.065336,-7.0033,350.34,0.7629,-0.2543,-1.989,1.0172,-3.9383e-12,-0.9945,0,0,0.1,4.737e-16,0,0.66667
0.96304,0.018192,9.6304,-0.72271,-6.962,4.5586,18.56,-6.1866,-0.14027,24.747,-1.1068e-05,-0.070133,0,0,0.1,-6.0705e-15,0,0.66667
0.25951,0.47543,2.5951,-0.036859,-4.5621,561.13,0.25508,-0.085025,-1.9928,0.3401,-1.2712e-11,-0.99642,0,0,0.1,-0,-0,0.66667
0.71926,0.8446,7.1926,0.5169,33.107,100.08,-9.9142,3.3047,-1.0554,-13.219,-1.0941e-11,-0.52769,0,0,0.1,-1.8948e-15,0,0.66667
0.85114,0.21637,8.5114,-0.42545,-15.463,30.874,9.6564,-3.2188,-1.3544,12.875,-1.3948e-09,-0.67719,0,0,0.1,-9.3225e-16,0,0.66667
0.74183,0.96338,7.4183,0.69508,41.618,86.47,-13.75,4.5834,-0.27967,-18.334,-2.2784e-11,-0.13984,0,0,0.1,-9.4739e-16,0,0.66667
0.21655,0.87343,2.1655,0.56015,71.04,616.07,-3.2347,1.0782,-0.88668,-4.313,-3.7776e-10,-0.44334,0,0,0.1,5.033e-16,0,0.66667
0.43531,0.60887,4.3531,0.1633,17.557,353.19,-1.8956,0.63187,-1.9061,-2.5275,-3.4368e-12,-0.95306,0,0,0.1,-9.4739e-16,0,0.66667
0.60876,0.65497,6.0876,0.23245,19.385,183.16,-3.7735,1.2578,-1.8129,-5.0314,-1.0967e-12,-0.90647,0,0,0.1,1.1842e-15,0,0.66667
0.59156,0.56195,5.9156,0.09293,8.0013,197.96,-1.466,0.48865,-1.9718,-1.9546,2.4943e-12,-0.98591,0,0,0.1,-1.3619e-15,0,0.66667
0.95189,0.15731,9.5189,-0.51403,-6.2776,4.8366,13.048,-4.3493,-1.0645,17.397,-7.041e-07,-0.53224,0,0,0.1,-0,-0,0.66667
0.3584,0.072437,3.584,-0.64134,-74.428,441.22,6.1296,-2.0432,-0.5407,8.1728,-3.6131e-12,-0.27035,0,0,0.1,-0,-1.0273e-16,0.66667
0.53179,0.92257,5.3179,0.63385,60.507,254.25,-8.9888,2.9963,-0.57526,-11.985,-4.5652e-13,-0.28763,0,0,0.1,-0,-0,0.66667
0.39838,0.20662,3.9838,-0.44007,-49.196,394.68,4.6751,-1.5584,-1.3082,6.2334,-3.1388e-12,-0.65411,0,0,0.1,-4.7177e-16,0,0.66667
0.61473,0.051728,6.1473,-0.67241,-55.698,179.19,11.023,-3.6742,-0.39011,14.697,7.5584e-13,-0.19505,0,0,0.1,-9.4739e-16,0,0.66667
0.46485,0.25474,4.6485,-0.36788,-38.289,321.6,4.5602,-1.5201,-1.5184,6.0803,-4.5373e-12,-0.75919,0,0,0.1,-9.4739e-16,0,0.66667
0.95549,0.54183,9.5549,0.062752,0.69195,3.25,-1.5989,0.53297,-1.9869,-2.1319,-3.5193e-07,-0.99343,0,0,0.1,-0,-0,0.66667
0.70849,0.44988,7.0849,-0.07518,-4.949,106.44,1.4204,-0.47346,-1.9775,1.8938,-2.7967e-13,-0.98875,0,0,0.1,-0,-0,0.66667
0.49885,0.94631,4.9885,0.66946,66.969,287.02,-8.9056,2.9685,-0.40945,-11.874,9.2637e-13,-0.20472,0,0,0.1,-0,-0,0.66667
0.49291,0.27747,4.9291,-0.33379,-33.536,292.33,4.3874,-1.4625,-1.6016,5.8499,-6.6072e-12,-0.80081,0,0,0.1,2.3685e-16,0,0.66667
0.2485,0.39876,2.485,-0.15187,-18.913,575.05,1.0063,-0.33545,-1.9205,1.3418,-1.0097e-11,-0.96024,0,0,0.1,-0,-0,0.66667
0.21539,0.16364,2.1539,-0.50455,-63.991,617.51,2.8979,-0.96598,-1.0947,3.8639,-1.2215e-10,-0.54735,0,0,0.1,-0,-0,0.66667
0.38386,0.34359,3.8386,-0.23461,-26.549,411.04,2.4016,-0.80052,-1.8028,3.2021,-3.094e-12,-0.90141,0,0,0.1,2.9606e-17,0,0.66667
0.26942,0.35289,2.6942,-0.22066,-27.168,548.77,1.5853,-0.52844,-1.826,2.1138,-1.1728e-11,-0.91302,0,0,0.1,-0,-0,0.66667
0.29831,0.33635,2.9831,-0.24547,-29.689,512.97,1.9526,-0.65088,-1.7884,2.6035,-7.8628e-12,-0.89419,0,0,0.1,-0,-0,0.66667
0.21497,0.020409,2.1497,-0.71939,-91.452,618.29,4.124,-1.3747,-0.15899,5.4987,8.9985e-11,-0.079496,0,0,0.1,-0,-0,0.66667
0.43072,0.15501,4.3072,-0.51749,-56.04,358.69,5.9437,-1.9812,-1.0462,7.9249,-2.5051e-12,-0.52308,0,0,0.1,4.1448e-16,0,0.66667
0.23735,0.75909,2.3735,0.38863,48.733,589.33,-2.4598,0.81993,-1.4631,-3.2797,2.2098e-11,-0.73156,0,0,0.1,-0,-0,0.66667
0.42905,0.17085,4.2905,-0.49372,-53.548,360.48,5.6488,-1.8829,-1.1301,7.5317,9.0106e-13,-0.56504,0,0,0.1,-9.4739e-16,0,0.66667
0.73823,0.60584,7.3823,0.15875,9.543,87.184,-3.1253,1.0418,-1.9093,-4.167,-9.6969e-12,-0.95464,0,0,0.1,-0,-0,0.66667
0.19031,0.11985,1.9031,-0.57023,-73.136,649.95,2.8939,-0.96463,-0.8447,3.8585,1.8162e-11,-0.42235,0,0,0.1,1.1842e-16,0,0.66667
0.98048,0.16187,9.8048,-0.50719,-2.4539,1.9024,13.261,-4.4204,-1.0848,17.681,3.4751e-06,-0.54241,0,0,0.1,-0,-0,0.66667
0.25094,0.1722,2.5094,-0.4917,-61.268,572.21,3.2903,-1.0968,-1.1434,4.3871,-1.0614e-11,-0.5717,0,0,0.1,4.737e-16,0,0.66667
0.091928,0.4598,0.91928,-0.060295,-7.9364,779.53,0.14781,-0.049269,-1.9889,0.19708,3.8269e-08,-0.99444,0,0,0.1,-0,-0,0.66667
0.6622,0.95684,6.622,0.68526,51.236,141.18,-12.101,4.0336,-0.32764,-16.135,-4.7873e-13,-0.16382,0,0,0.1,-9.4739e-16,0,0.66667
0.12414,0.13506,1.2414,-0.54741,-71.714,736.8,1.8121,-0.60403,-0.93792,2.4161,9.2726e-09,-0.46896,0,0,0.1,2.3685e-16,1.1568e-16,0.66667
0.45854,0.48308,4.5854,-0.025377,-2.6574,328.02,0.31031,-0.10344,-1.9952,0.41375,-2.1738e-12,-0.9976,0,0,0.1,-0,-0,0.66667
0.55491,0.83972,5.5491,0.50959,46.863,231.9,-7.5407,2.5136,-1.0744,-10.054,3.7836e-13,-0.53718,0,0,0.1,-2.3685e-16,0,0.66667
0.91222,0.64111,9.1222,0.21167,4.6237,11.399,-5.1489,1.7163,-1.8379,-6.8652,4.001e-08,-0.91894,0,0,0.1,-0,-0,0.66667
0.84078,0.79813,8.4078,0.44719,17.307,35.01,-10.026,3.3421,-1.2888,-13.368,6.4963e-10,-0.64441,0,0,0.1,9.4739e-16,0,0.66667
0.47647,0.52464,4.7647,0.036956,3.7872,309.09,-0.46956,0.15652,-1.9924,-0.62607,1.1107e-12,-0.99622,0,0,0.1,-0,-0,0.66667
0.8806,0.82029,8.806,0.48043,14.219,20.847,-11.282,3.7606,-1.1771,-15.043,-2.2934e-10,-0.58856,0,0,0.1,-0,-0,0.66667
0.81353,0.16821,8.1353,-0.49769,-22.278,47.016,10.797,-3.599,-1.1223,14.396,1.6952e-10,-0.56113,0,0,0.1,-0,-0,0.66667
0.19464,0.39622,1.9464,-0.15566,-19.882,644.08,0.80795,-0.26932,-1.9108,1.0773,-2.9669e-11,-0.95542,0,0,0.1,-0,-0,0.66667
0.67245,0.58822,6.7245,0.13233,9.591,132.13,-2.373,0.791,-1.9422,-3.164,-6.6236e-13,-0.97108,0,0,0.1,-0,-0,0.66667
0.71923,0.41989,7.1923,-0.12017,-7.666,99.297,2.3048,-0.76826,-1.9526,3.073,1.0476e-12,-0.97629,0,0,0.1,-0,-0,0.66667
0.65257,0.12506,6.5257,-0.56241,-42.911,148.14,9.7871,-3.2624,-0.87604,13.049,-2.3217e-12,-0.43802,0,0,0.1,-0,-0,0.66667
0.40566,0.80602,4.0566,0.45903,50.965,386.48,-4.9655,1.6552,-1.2551,-6.6207,-7.2964e-13,-0.62754,0,0,0.1,-0,-0,0.66667
0.04361,0.98809,0.4361,0.73213,97.411,844.43,-0.85143,0.28381,-0.093774,-1.1352,-4.8802e-06,-0.046887,0,0,0.1,7.5668e-18,0,0.66667
0.37899,0.23112,3.7899,-0.40332,-45.885,416.83,4.0762,-1.3587,-1.4204,5.4349,-6.3851e-12,-0.71018,0,0,0.1,-0,-0,0.66667
0.033161,0.86161,0.33161,0.54241,72.091,858.43,-0.47965,0.15989,-0.95533,-0.63954,8.3539e-07,-0.47766,0,0,0.1,-0,-0,0.66667
0.2442,0.48693,2.442,-0.019599,-2.446,580.46,0.12763,-0.042544,-1.9959,0.17018,-1.4293e-11,-0.99797,0,0,0.1,-0,-0,0.66667
0.84278,0.47684,8.4278,-0.034735,-1.3216,33.461,0.78065,-0.26022,-1.9991,1.0409,-6.2681e-10,-0.99954,0,0,0.1,-0,-0,0.66667
0.47471,0.64723,4.7471,0.22085,22.693,311.03,-2.7957,0.93191,-1.8241,-3.7276,4.7207e-13,-0.91203,0,0,0.1,-4.737e-16,0,0.66667
0.19554,0.60545,1.9554,0.15817,20.195,642.91,-0.82476,0.27492,-1.9079,-1.0997,2.1282e-11,-0.95394,0,0,0.1,-0,-0,0.66667
0.93344,0.088897,9.3344,-0.61665,-10.465,8.2967,15.35,-5.1165,-0.64736,20.466,-4.7692e-08,-0.32368,0,0,0.1,9.4739e-16,0,0.66667
0.17584,0.69495,1.7584,0.29243,37.641,668.59,-1.3713,0.45709,-1.6951,-1.8284,-2.6244e-10,-0.84755,0,0,0.1,-0,-0,0.66667
0.71019,0.86153,7.1019,0.54229,35.686,106.2,-10.27,3.4234,-0.95121,-13.694,-7.1321e-12,-0.4756,0,0,0.1,-0,-0,0.66667
0.25216,0.30615,2.5216,-0.29077,-36.16,570.49,1.9552,-0.65173,-1.701,2.6069,-1.5812e-11,-0.85049,0,0,0.1,2.3685e-16,0,0.66667
0.12576,0.67788,1.2576,0.26683,34.878,734.52,-0.89479,0.29826,-1.7505,-1.1931,-9.4846e-09,-0.87523,0,0,0.1,1.1842e-16,0,0.66667
0.42352,0.61043,4.2352,0.16565,18.033,366.18,-1.8708,0.62361,-1.9042,-2.4945,-4.9587e-12,-0.95212,0,0,0.1,4.737e-16,0,0.66667
0.30687,0.21702,3.0687,-0.42447,-51.097,502.63,3.4735,-1.1578,-1.3581,4.6314,-4.8037e-12,-0.67905,0,0,0.1,6.5133e-16,0,0.66667
0.55624,0.17689,5.5624,-0.48466,-44.463,230.6,7.189,-2.3963,-1.162,9.5853,-5.6799e-13,-0.58101,0,0,0.1,-4.737e-16,0,0.66667
0.0056956,0.16886,0.056956,-0.49671,-66.063,895.39,0.07544,-0.025144,-1.1201,0.10059,3.1909e-06,-0.56007,0,0,0.1,-0,-0,0.66667
0.40187,0.72846,4.0187,0.34268,38.154,390.59,-3.6724,1.2241,-1.581,-4.8966,-4.6814e-12,-0.7905,0,0,0.1,-0,-0,0.66667
0.32437,0.085679,3.2437,-0.62148,-74.032,481.69,5.3758,-1.7919,-0.62602,7.1677,-2.2067e-12,-0.31301,0,0,0.1,-0,-0,0.66667
0.20888,0.59186,2.0888,0.13778,17.492,625.66,-0.76747,0.25582,-1.9311,-1.0233,-8.2503e-12,-0.96555,0,0,0.1,-2.9606e-16,0,0.66667
0.7647,0.14669,7.647,-0.52996,-29.187,72.321,10.807,-3.6023,-1.0047,14.409,1.37e-11,-0.50234,0,0,0.1,-9.4739e-16,-1.5763e-16,0.66667
0.21573,0.59044,2.1573,0.13565,17.169,616.84,-0.78039,0.26013,-1.9354,-1.0405,-1.4488e-11,-0.9677,0,0,0.1,-3.5527e-16,0,0.66667
0.36723,0.19459,3.6723,-0.45811,-52.677,430.57,4.4862,-1.4954,-1.251,5.9816,-8.4341e-12,-0.62551,0,0,0.1,-0,-0,0.66667
0.061462,0.39229,0.61462,-0.16157,-21.371,820.35,0.26481,-0.08827,-1.91,0.35308,2.8311e-08,-0.95502,0,0,0.1,-1.1842e-16,0,0.66667
0.79907,0.030563,7.9907,-0.70416,-33.89,54.83,15.005,-5.0015,-0.23951,20.006,1.7174e-10,-0.11976,0,0,0.1,2.3685e-16,0,0.66667
0.85776,0.92974,8.5776,0.64461,22.613,29.295,-14.745,4.9149,-0.52485,-19.66,-2.5881e-08,-0.26243,0,0,0.1,-9.4739e-16,0,0.66667
0.979,0.76823,9.79,0.40235,2.062,1.5856,-10.504,3.5013,-1.422,-14.005,-1.7285e-06,-0.71099,0,0,0.1,-1.8948e-15,0,0.66667
0.95064,0.52667,9.5064,0.040011,0.49035,3.9007,-1.0143,0.3381,-1.9957,-1.3524,-8.2985e-08,-0.99783,0,0,0.1,9.4739e-16,0,0.66667
0.48709,0.67411,4.8709,0.26117,26.427,298.21,-3.3923,1.1308,-1.7577,-4.5231,-2.5773e-12,-0.87885,0,0,0.1,-0,-0,0.66667
0.29631,0.18938,2.9631,-0.46594,-56.503,515.62,3.6817,-1.2272,-1.2332,4.9089,-9.6858e-12,-0.61658,0,0,0.1,9.4739e-16,0,0.66667
0.69417,0.60314,6.9417,0.15471,10.602,116.41,-2.8639,0.95462,-1.9121,-3.8185,-9.3259e-13,-0.95603,0,0,0.1,-0,-0,0.66667
0.72461,0.63265,7.2461,0.19898,12.493,95.868,-3.8449,1.2816,-1.8569,-5.1265,-5.2331e-12,-0.92845,0,0,0.1,-0,-0,0.66667
0.86836,0.68137,8.6836,0.27205,8.7839,24.244,-6.2996,2.0999,-1.7344,-8.3995,6.8768e-09,-0.86719,0,0,0.1,-0,-0,0.66667
0.20632,0.21398,2.0632,-0.42903,-54.601,629.11,2.3605,-0.78683,-1.3459,3.1473,-4.9173e-11,-0.67296,0,0,0.1,-2.3685e-16,0,0.66667
0.39895,0.35357,3.9895,-0.21965,-24.508,393.77,2.3368,-0.77894,-1.8254,3.1158,-2.78e-13,-0.91272,0,0,0.1,-0,-0,0.66667
0.78884,0.11693,7.8884,-0.5746,-28.8,59.414,12.087,-4.0291,-0.82321,16.116,4.1775e-11,-0.4116,0,0,0.1,-0,-0,0.66667
0.22269,0.9841,2.2269,0.72615,91.992,608.41,-4.3121,1.4374,-0.12391,-5.7495,-2.2758e-11,-0.061957,0,0,0.1,-4.737e-16,0,0.66667
0.48218,0.71631,4.8218,0.32446,33.049,303.37,-4.172,1.3907,-1.6278,-5.5626,-2.3919e-12,-0.81392,0,0,0.1,2.433e-17,0,0.66667
0.78097,0.98027,7.8097,0.7204,37.437,64.202,-15.003,5.001,-0.15913,-20.004,1.1672e-10,-0.079566,0,0,0.1,-1.8948e-15,0,0.66667
0.60466,0.8741,6.0466,0.56114,47.32,187.38,-9.048,3.016,-0.87994,-12.064,3.4648e-12,-0.43997,0,0,0.1,1.6318e-16,0,0.66667
0.19904,0.019905,1.9904,-0.72014,-92.182,638.81,3.8223,-1.2741,-0.15477,5.0965,5.9378e-11,-0.077385,0,0,0.1,-0,-0,0.66667
0.49234,0.79671,4.9234,0.44506,44.789,293.1,-5.8432,1.9477,-1.2924,-7.7909,-1.1902e-12,-0.64622,0,0,0.1,-9.4739e-16,0,0.66667
0.98027,0.33228,9.8027,-0.25158,-1.18,1.0706,6.5763,-2.1921,-1.7736,8.7685,4.3536e-07,-0.88682,0,0,0.1,-9.4739e-16,0,0.66667
0.19192,0.006661,1.9192,-0.74001,-95.022,648.06,3.7872,-1.2624,-0.051751,5.0496,6.185e-11,-0.025875,0,0,0.1,-9.4739e-16,0,0.66667
0.24271,0.98931,2.4271,0.73397,92.079,582.94,-4.7504,1.5835,-0.081515,-6.3339,-8.7743e-12,-0.040757,0,0,0.1,-0,-0,0.66667
0.41545,0.075015,4.1545,-0.63748,-70.223,375.85,7.0625,-2.3542,-0.55215,9.4166,1.7648e-12,-0.27607,0,0,0.1,-0,-0,0.66667
0.79504,0.88159,7.9504,0.57238,27.938,56.244,-12.135,4.0451,-0.83718,-16.18,-1.0452e-10,-0.41859,0,0,0.1,-1.8948e-15,0,0.66667
0.85992,0.20208,8.5992,-0.44688,-15.355,27.688,10.247,-3.4158,-1.2937,13.663,-3.6893e-09,-0.64686,0,0,0.1,1.8948e-15,0,0.66667
0.76878,0.93642,7.6878,0.65463,35.606,70.526,-13.421,4.4735,-0.47737,-17.894,-3.1629e-10,-0.23869,0,0,0.1,1.1842e-16,0,0.66667
0.42266,0.42529,4.2266,-0.11206,-12.209,367.1,1.2631,-0.42102,-1.9587,1.6841,-3.4666e-12,-0.97937,0,0,0.1,4.737e-16,0,0.66667
0.26259,0.41026,2.6259,-0.1346,-16.634,557.28,0.94256,-0.31419,-1.9363,1.2568,-1.2716e-11,-0.96814,0,0,0.1,-0,-0,0.66667
0.59111,0.54918,5.9111,0.073766,6.3562,198.35,-1.1628,0.38759,-1.981,-1.5504,1.2484e-12,-0.99049,0,0,0.1,-0,-0,0.66667
0.55633,0.69535,5.5633,0.29302,26.832,230.14,-4.347,1.449,-1.6922,-5.7961,-1.3634e-12,-0.84611,0,0,0.1,-0,-0,0.66667
0.32302,0.30077,3.2302,-0.29885,-35.543,482.9,2.5743,-0.85809,-1.6802,3.4324,-1.0978e-12,-0.84012,0,0,0.1,9.1164e-17,0,0.66667
0.2448,0.59919,2.448,0.14879,18.566,579.73,-0.97129,0.32376,-1.9196,-1.2951,-2.4082e-12,-0.95982,0,0,0.1,-0,-0,0.66667
0.62917,0.66007,6.2917,0.2401,19.215,166.1,-4.0284,1.3428,-1.7945,-5.3712,6.8612e-13,-0.89724,0,0,0.1,-1.8948e-15,0,0.66667
0.36144,0.13262,3.6144,-0.55107,-63.729,437.49,5.3114,-1.7705,-0.92183,7.0819,-4.5466e-12,-0.46091,0,0,0.1,-0,-0,0.66667
0.44656,0.0040602,4.4656,-0.74391,-79.401,341.99,8.8587,-2.9529,-0.030211,11.812,1.6236e-12,-0.015106,0,0,0.1,-0,-0,0.66667
0.42369,0.47054,4.2369,-0.044197,-4.8094,365.94,0.49936,-0.16645,-1.9959,0.66581,-2.2241e-13,-0.99796,0,0,0.1,-0,-0,0.66667
0.60498,0.78444,6.0498,0.42666,35.899,186.74,-6.8833,2.2944,-1.3521,-9.1778,2.0175e-12,-0.67605,0,0,0.1,-0,-0,0.66667
0.067117,0.11203,0.67117,-0.58195,-77.109,812.85,1.0416,-0.34719,-0.79397,1.3888,1.6128e-07,-0.39699,0,0,0.1,1.1842e-16,0,0.66667
0.46478,0.8614,4.6478,0.5421,56.515,321.99,-6.7189,2.2396,-0.95384,-8.9586,-1.2119e-12,-0.47692,0,0,0.1,9.4739e-16,0,0.66667
0.93632,0.049022,9.3632,-0.67647,-11.048,8.0989,16.89,-5.6301,-0.37557,22.52,2.3481e-06,-0.18778,0,0,0.1,-0,-0,0.66667
0.14808,0.36654,1.4808,-0.20019,-25.998,704.98,0.79054,-0.26351,-1.8546,1.054,1.8743e-09,-0.9273,0,0,0.1,1.1842e-16,0,0.66667
0.88159,0.62735,8.8159,0.19102,5.5703,19.777,-4.4907,1.4969,-1.8684,-5.9876,9.8112e-09,-0.93421,0,0,0.1,-0,-0,0.66667
0.19859,0.79705,1.9859,0.44558,56.9,639.11,-2.3597,0.78656,-1.2922,-3.1463,1.5826e-10,-0.64611,0,0,0.1,-0,-0,0.66667
0.48283,0.46615,4.8283,-0.050771,-5.1618,302.48,0.6537,-0.2179,-1.994,0.87159,-5.5707e-12,-0.99699,0,0,0.1,9.4739e-16,0,0.66667
0.49097,0.46971,4.9097,-0.045434,-4.5712,294.08,0.59484,-0.19828,-1.9911,0.79312,3.1453e-12,-0.99554,0,0,0.1,-0,-0,0.66667
0.2348,0.76103,2.348,0.39155,49.163,592.58,-2.4516,0.81721,-1.459,-3.2689,2.0394e-11,-0.72951,0,0,0.1,-0,-0,0.66667
0.59658,0.98386,5.9658,0.72579,62.303,194.93,-11.547,3.8489,-0.12705,-15.395,5.4357e-13,-0.063524,0,0,0.1,-0,-0,0.66667
0.83706,0.94017,8.3706,0.66025,26.264,37.407,-14.738,4.9126,-0.44809,-19.65,-1.3966e-08,-0.22405,0,0,0.1,-0,-0,0.66667
0.24277,0.73399,2.4277,0.35099,43.88,582.41,-2.2723,0.75742,-1.5587,-3.0297,1.8033e-11,-0.77937,0,0,0.1,-0,-0,0.66667
0.50573,0.24703,5.0573,-0.37945,-37.489,279.4,5.1173,-1.7058,-1.4865,6.8231,-3.2196e-13,-0.74324,0,0,0.1,-2.3685e-16,0,0.66667
0.46839,0.64587,4.6839,0.21881,22.657,317.67,-2.733,0.911,-1.8341,-3.644,1.0545e-12,-0.91705,0,0,0.1,-4.737e-16,0,0.66667
0.8049,0.69937,8.049,0.29906,13.894,50.534,-6.419,2.1397,-1.6788,-8.5586,1.347e-11,-0.83942,0,0,0.1,-0,-0,0.66667
0.48547,0.79099,4.8547,0.43648,44.313,300.15,-5.6506,1.8835,-1.3256,-7.5341,1.1857e-13,-0.66279,0,0,0.1,-0,-0,0.66667
0.047994,0.56902,0.47994,0.10353,13.713,838.43,-0.1325,0.044167,-1.9652,-0.17667,5.4127e-09,-0.98258,0,0,0.1,-0,-0,0.66667
0.29891,0.054888,2.9891,-0.66767,-80.988,512.74,5.3219,-1.774,-0.41663,7.0959,-4.905e-12,-0.20831,0,0,0.1,-4.737e-16,0,0.66667
0.72163,0.78061,7.2163,0.42092,26.728,98.242,-8.1,2.7,-1.3716,-10.8,-8.4324e-12,-0.68579,0,0,0.1,-1.1842e-15,0,0.66667
0.54076,0.55602,5.4076,0.084023,7.8786,244.68,-1.2116,0.40388,-1.9726,-1.6155,-5.7787e-13,-0.98629,0,0,0.1,-4.737e-16,0,0.66667
0.71301,0.79379,7.1301,0.44069,28.718,103.99,-8.3792,2.7931,-1.3068,-11.172,-3.8822e-12,-0.65342,0,0,0.1,-0,-0,0.66667
0.89043,0.44086,8.9043,-0.088714,-2.3992,17.008,2.1065,-0.70216,-1.9775,2.8086,-1.586e-08,-0.98876,0,0,0.1,-1.8948e-15,0,0.66667
0.036948,0.26201,0.36948,-0.35698,-47.372,853.31,0.35173,-0.11724,-1.5443,0.46897,-1.3579e-07,-0.77215,0,0,0.1,-5.9212e-17,0,0.66667
0.16157,0.6831,1.6157,0.27465,35.526,687.26,-1.1834,0.39446,-1.7302,-1.5779,-9.9578e-10,-0.86511,0,0,0.1,-2.9606e-16,0,0.66667
0.20618,0.93382,2.0618,0.65073,82.981,629.51,-3.5778,1.1926,-0.49515,-4.7704,2.7681e-10,-0.24757,0,0,0.1,2.9606e-16,0,0.66667
0.54819,0.36489,5.4819,-0.20266,-18.792,237.68,2.9626,-0.98753,-1.8565,3.9501,-1.5534e-12,-0.92826,0,0,0.1,-0,-0,0.66667
0.6875,0.13204,6.875,-0.55194,-38.661,122,10.119,-3.373,-0.9222,13.492,-2.534e-12,-0.4611,0,0,0.1,-0,-0,0.66667
0.34233,0.21535,3.4233,-0.42697,-50.09,459.87,3.8978,-1.2993,-1.355,5.197,-5.0155e-12,-0.67751,0,0,0.1,5.9212e-16,0,0.66667
0.8698,0.73147,8.698,0.3472,11.111,23.932,-8.0532,2.6844,-1.5691,-10.738,7.301e-09,-0.78454,0,0,0.1,-0,-0,0.66667
0.8792,0.14304,8.792,-0.53544,-16.053,21.506,12.553,-4.1845,-0.97915,16.738,-3.1046e-09,-0.48958,0,0,0.1,-0,-0,0.66667
0.19012,0.73826,1.9012,0.35738,45.768,650.03,-1.8119,0.60397,-1.5463,-2.4159,-2.8894e-11,-0.77315,0,0,0.1,-0,-0,0.66667
0.53183,0.077815,5.3183,-0.63328,-60.449,254.22,8.9812,-2.9937,-0.57778,11.975,2.4629e-12,-0.28889,0,0,0.1,-9.4739e-16,0,0.66667
0.98953,0.23623,9.8953,-0.39565,-0.93206,0.98227,10.44,-3.4801,-1.4411,13.92,-6.9115e-07,-0.72055,0,0,0.1,-1.1718e-15,0,0.66667
0.057573,0.18054,0.57573,-0.4792,-63.516,825.62,0.7357,-0.24523,-1.1819,0.98093,1.7247e-08,-0.59094,0,0,0.1,-5.9212e-17,0,0.66667
0.083431,0.12343,0.83431,-0.56485,-74.647,791.01,1.2567,-0.4189,-0.86451,1.6756,5.6938e-08,-0.43226,0,0,0.1,1.6283e-16,0,0.66667
0.41763,0.37178,4.1763,-0.19233,-21.066,372.74,2.1419,-0.71398,-1.868,2.8559,-2.9108e-12,-0.93398,0,0,0.1,-5.9212e-16,0,0.66667
0.85461,0.86451,8.5461,0.54677,19.508,30.013,-12.461,4.1535,-0.9352,-16.614,1.6696e-09,-0.4676,0,0,0.1,-0,-0,0.66667
0.39859,0.87339,3.9859,0.56008,62.669,394.66,-5.9531,1.9844,-0.88274,-7.9375,-2.3657e-12,-0.44137,0,0,0.1,-5.9212e-17,0,0.66667
0.0099489,0.23513,0.099489,-0.3973,-52.802,889.66,0.10541,-0.035135,-1.4361,0.14054,8.1056e-07,-0.71804,0,0,0.1,-1.1782e-17,0,0.66667
0.64554,0.83317,6.4554,0.49976,38.704,153.47,-8.6031,2.8677,-1.11,-11.471,2.9576e-13,-0.55499,0,0,0.1,-0,-0,0.66667
0.2938,0.61627,2.938,0.1744,21.15,518.47,-1.3664,0.45547,-1.8919,-1.8219,-3.6001e-12,-0.94595,0,0,0.1,2.3685e-16,0,0.66667
0.14993,0.39599,1.4993,-0.15601,-20.246,702.54,0.62374,-0.20791,-1.9107,0.83166,2.0424e-09,-0.95534,0,0,0.1,1.1842e-16,0,0.66667
0.10779,0.76584,1.0779,0.39876,52.383,758.45,-1.1461,0.38204,-1.4365,-1.5282,-3.0172e-08,-0.71826,0,0,0.1,-2.3685e-16,0,0.66667
0.8689,0.90366,8.689,0.60549,19.658,25.188,-14.03,4.6765,-0.69476,-18.706,1.4968e-08,-0.34738,0,0,0.1,2.0398e-17,0,0.66667
0.0032652,0.16902,0.032652,-0.49647,-66.033,898.66,0.043227,-0.014408,-1.1232,0.057637,1.6865e-06,-0.56158,0,0,0.1,-0,-0,0.66667
0.51859,0.51887,5.1859,0.028305,2.7426,266.25,-0.39143,0.13048,-1.9971,-0.52191,8.6137e-13,-0.99854,0,0,0.1,-0,-0,0.66667
0.55082,0.56016,5.5082,0.090235,8.3291,235.12,-1.3254,0.44181,-1.971,-1.7672,-1.8002e-12,-0.9855,0,0,0.1,-0,-0,0.66667
0.11595,0.8304,1.1595,0.4956,65.029,747.63,-1.5324,0.5108,-1.1236,-2.0432,1.7268e-09,-0.56182,0,0,0.1,-1.1842e-16,0,0.66667
0.20004,0.71909,2.0004,0.32864,41.91,637.15,-1.7531,0.58436,-1.6173,-2.3375,8.4768e-12,-0.80866,0,0,0.1,4.737e-16,0,0.66667
0.86222,0.77056,8.6222,0.40584,13.716,26.731,-9.3312,3.1104,-1.4146,-12.442,4.9925e-09,-0.70728,0,0,0.1,-9.4739e-16,0,0.66667
0.11697,0.99245,1.1697,0.73867,97.129,746.43,-2.3041,0.76803,-0.057146,-3.0721,2.0438e-08,-0.028573,0,0,0.1,-3.5527e-16,0,0.66667
0.8247,0.20683,8.247,-0.43975,-18.586,41.77,9.671,-3.2237,-1.3118,12.895,-2.0939e-10,-0.6559,0,0,0.1,-0,-0,0.66667
0.19309,0.65675,1.9309,0.23513,30.058,646.11,-1.2107,0.40356,-1.8024,-1.6142,-1.5219e-11,-0.9012,0,0,0.1,-0,-0,0.66667
0.99555,0.84449,9.9555,0.51673,0.45401,1.271,-13.718,4.5727,-1.0504,-18.291,2.6162e-06,-0.5252,0,0,0.1,-0,1.0911e-17,0.66667
0.47141,0.5506,4.7141,0.075894,7.8266,314.4,-0.95406,0.31802,-1.9799,-1.2721,3.7137e-14,-0.98994,0,0,0.1,-0,-0,0.66667
0.54727,0.051508,5.4727,-0.67274,-62.756,239.56,9.8179,-3.2726,-0.39504,13.09,-9.3259e-14,-0.19752,0,0,0.1,-4.737e-16,0,0.66667
0.082274,0.82521,0.82274,0.48782,64.438,792.53,-1.0703,0.35675,-1.1525,-1.427,-3.1783e-08,-0.57623,0,0,0.1,-0,-0,0.66667
0.051293,0.18006,0.51293,-0.47992,-63.655,834.05,0.65644,-0.21881,-1.1798,0.87525,2.1556e-07,-0.58991,0,0,0.1,2.9606e-17,0,0.66667
0.20742,0.92561,2.0742,0.63842,81.357,627.89,-3.5313,1.1771,-0.54929,-4.7084,-9.5854e-11,-0.27465,0,0,0.1,-2.3685e-16,0,0.66667
0.16079,0.48158,1.6079,-0.027637,-3.5736,688.24,0.1185,-0.0395,-1.9955,0.158,2.5173e-10,-0.99774,0,0,0.1,-0,-0,0.66667
0.45106,0.29321,4.5106,-0.31018,-32.793,336.23,3.7309,-1.2436,-1.6591,4.9746,-2.2589e-12,-0.82957,0,0,0.1,-0,-0,0.66667
0.62995,0.83047,6.2995,0.49571,39.703,165.99,-8.3272,2.7757,-1.1242,-11.103,-6.4571e-13,-0.56208,0,0,0.1,-0,-0,0.66667
0.72633,0.68441,7.2633,0.27661,17.285,94.875,-5.3577,1.7859,-1.7258,-7.1436,-7.589e-12,-0.86289,0,0,0.1,1.1842e-15,0,0.66667
0.45605,0.7094,4.5605,0.3141,33.019,330.88,-3.8199,1.2733,-1.6494,-5.0932,-3.0496e-12,-0.8247,0,0,0.1,4.737e-16,0,0.66667
0.37693,0.88298,3.7693,0.57448,65.576,419.5,-5.7743,1.9248,-0.82833,-7.6991,-3.94e-12,-0.41416,0,0,0.1,-0,-0,0.66667
0.064415,0.017369,0.64415,-0.72395,-96.097,816.53,1.2435,-0.41451,-0.13792,1.6581,-1.7281e-06,-0.06896,0,0,0.1,-0,-0,0.66667
0.53834,0.38627,5.3834,-0.17059,-16.059,247.06,2.4489,-0.81631,-1.8934,3.2653,-2.0763e-12,-0.94672,0,0,0.1,-0,-0,0.66667
0.45104,0.69432,4.5104,0.29148,30.813,336.23,-3.5058,1.1686,-1.6995,-4.6744,-3.1859e-12,-0.84977,0,0,0.1,-9.4739e-16,0,0.66667
0.40236,0.24368,4.0236,-0.38448,-42.8,390.09,4.1253,-1.3751,-1.4738,5.5004,-3.7619e-12,-0.73688,0,0,0.1,7.1194e-16,0,0.66667
0.073837,0.21207,0.73837,-0.43189,-57.103,803.8,0.85039,-0.28346,-1.3357,1.1339,1.6581e-07,-0.66785,0,0,0.1,-5.9212e-17,0,0.66667
0.19382,0.35916,1.9382,-0.21126,-26.997,645.16,1.0919,-0.36397,-1.8383,1.4559,2.4626e-11,-0.91916,0,0,0.1,-2.3685e-16,0,0.66667
0.60843,0.69692,6.0843,0.29538,24.659,183.53,-4.7926,1.5975,-1.693,-6.3901,-2.1316e-14,-0.84652,0,0,0.1,-0,-0,0.66667
0.91508,0.77214,9.1508,0.40821,8.6835,11.223,-9.9612,3.3204,-1.4047,-13.282,3.9695e-08,-0.70234,0,0,0.1,9.4739e-16,0,0.66667
0.63152,0.47343,6.3152,-0.039862,-3.1721,164.03,0.6713,-0.22377,-1.9921,0.89507,-1.7364e-13,-0.99607,0,0,0.1,-0,-0,0.66667
0.57768,0.17616,5.7768,-0.48577,-42.99,210.92,7.4831,-2.4944,-1.1651,9.9774,-2.2742e-12,-0.58254,0,0,0.1,9.4739e-16,-1.5604e-17,0.66667
0.34238,0.69081,3.4238,0.28622,33.546,459.66,-2.6132,0.87108,-1.712,-3.4843,-7.8626e-12,-0.85602,0,0,0.1,-0,-0,0.66667
0.13547,0.12426,1.3547,-0.56361,-73.625,721.8,2.0361,-0.67869,-0.86978,2.7148,-5.1135e-09,-0.43489,0,0,0.1,-3.2567e-16,0,0.66667
0.50839,0.27324,5.0839,-0.34014,-33.473,276.66,4.6113,-1.5371,-1.5858,6.1484,9.9476e-13,-0.7929,0,0,0.1,-4.737e-16,0,0.66667
0.64626,0.39138,6.4626,-0.16293,-12.56,152.25,2.8079,-0.93595,-1.903,3.7438,-1.4955e-12,-0.95148,0,0,0.1,-0,-0,0.66667
0.96752,0.81559,9.6752,0.47339,3.8679,2.8156,-12.214,4.0712,-1.2068,-16.285,-8.5343e-07,-0.6034,0,0,0.1,-0,-0,0.66667
0.76195,0.85486,7.6195,0.53229,29.614,73.892,-10.815,3.6052,-0.99174,-14.421,-2.3643e-12,-0.49587,0,0,0.1,-0,-0,0.66667
0.183,0.64412,1.83,0.21618,27.743,659.23,-1.055,0.35165,-1.8321,-1.4066,-1.0272e-10,-0.91605,0,0,0.1,2.3685e-16,0,0.66667
0.23966,0.22336,2.3966,-0.41496,-51.982,586.41,2.652,-0.88399,-1.3862,3.536,-2.6886e-11,-0.69309,0,0,0.1,-0,-0,0.66667
0.95701,0.3396,9.5701,-0.2406,-2.5733,3.2846,6.1401,-2.0467,-1.7939,8.1868,1.1689e-07,-0.89694,0,0,0.1,4.737e-16,0,0.66667
0.758,0.23111,7.58,-0.40333,-22.712,75.763,8.1527,-2.7176,-1.4184,10.87,2.6987e-11,-0.70919,0,0,0.1,-0,-0,0.66667
0.19292,0.84703,1.9292,0.52055,66.666,646.52,-2.678,0.89266,-1.0351,-3.5706,-6.5421e-11,-0.51755,0,0,0.1,-0,-0,0.66667
0.70195,0.38441,7.0195,-0.17338,-11.631,110.99,3.2455,-1.0818,-1.896,4.3273,-1.3449e-12,-0.94799,0,0,0.1,1.8948e-15,0,0.66667
0.83347,0.60193,8.3347,0.15289,6.1385,37.367,-3.3981,1.1327,-1.9148,-4.5308,2.3978e-10,-0.9574,0,0,0.1,-0,-0,0.66667
0.43625,0.13515,4.3625,-0.54728,-58.934,352.69,6.3667,-2.1222,-0.93774,8.4889,-1.9371e-12,-0.46887,0,0,0.1,-0,-0,0.66667
0.0094767,0.45364,0.094767,-0.069545,-9.2316,890.29,0.017575,-0.0058587,-1.9799,0.023433,-6.3949e-07,-0.98995,0,0,0.1,-0,-0,0.66667
0.66811,0.47907,6.6811,-0.031388,-2.2987,135.32,0.55922,-0.18641,-1.9956,0.74563,-3.1163e-12,-0.9978,0,0,0.1,1.8948e-15,0,0.66667
0.069735,0.47072,0.69735,-0.043927,-5.8029,809.24,0.081688,-0.027229,-1.9912,0.10892,-6.0552e-08,-0.9956,0,0,0.1,-0,-0,0.66667
0.2378,0.35642,2.378,-0.21538,-26.978,588.64,1.3658,-0.45526,-1.8344,1.821,-2.6261e-11,-0.91721,0,0,0.1,-0,-0,0.66667
0.097031,0.025205,0.97031,-0.71219,-94.024,772.93,1.8428,-0.61426,-0.19666,2.4571,-2.3554e-07,-0.098328,0,0,0.1,-1.1842e-16,0,0.66667
0.87047,0.11661,8.7047,-0.57508,-18.44,24.52,13.349,-4.4497,-0.82262,17.799,-6.4836e-09,-0.41131,0,0,0.1,9.4739e-16,0,0.66667
0.83404,0.4647,8.3404,-0.05295,-2.1182,37.054,1.1777,-0.39255,-1.9882,1.5702,4.7161e-10,-0.99408,0,0,0.1,4.9385e-16,0,0.66667
0.23516,0.93252,2.3516,0.64878,81.625,592.4,-4.0685,1.3562,-0.50749,-5.4246,6.9737e-11,-0.25375,0,0,0.1,-1.1842e-16,0,0.66667
0.75438,0.78506,7.5438,0.4276,24.399,77.944,-8.6019,2.8673,-1.3492,-11.469,-2.9043e-11,-0.67458,0,0,0.1,-0,-0,0.66667
0.50836,0.37029,5.0836,-0.19457,-19.132,276.51,2.6376,-0.87921,-1.863,3.5169,-1.7768e-12,-0.93149,0,0,0.1,-0,-0,0.66667
0.42116,0.14188,4.2116,-0.53718,-58.767,369.29,6.0329,-2.011,-0.97745,8.0439,5.369e-13,-0.48873,0,0,0.1,-0,-1.5222e-16,0.66667
0.21872,0.14525,2.1872,-0.53212,-67.401,613.25,3.1036,-1.0345,-0.99818,4.1382,-2.9523e-11,-0.49909,0,0,0.1,2.3685e-16,1.5778e-16,0.66667
0.22166,0.93891,2.2166,0.65837,83.382,609.64,-3.8916,1.2972,-0.46017,-5.1887,-1.6865e-10,-0.23008,0,0,0.1,9.4739e-16,0,0.66667
0.090802,0.76097,0.90802,0.39146,51.598,781.09,-0.94787,0.31596,-1.4552,-1.2638,-3.2153e-08,-0.72759,0,0,0.1,-0,-0,0.66667
0.24882,0.026728,2.4882,-0.70991,-88.751,575.18,4.7103,-1.5701,-0.21155,6.2804,4.2728e-11,-0.10577,0,0,0.1,2.3685e-16,5.8632e-17,0.66667
0.58965,0.62878,5.8965,0.19316,16.695,199.72,-3.0373,1.0124,-1.8669,-4.0497,4.019e-14,-0.93344,0,0,0.1,-0,-0,0.66667
0.88221,0.63154,8.8221,0.19731,5.7253,19.593,-4.6419,1.5473,-1.8589,-6.1892,1.0699e-08,-0.92946,0,0,0.1,-0,-0,0.66667
0.15505,0.93265,1.5505,0.64898,84.355,696.07,-2.6833,0.89442,-0.50586,-3.5777,-3.6963e-08,-0.25293,0,0,0.1,3.8787e-16,0,0.66667
0.26188,0.66923,2.6188,0.25385,31.394,558.23,-1.7728,0.59092,-1.7699,-2.3637,6.2069e-12,-0.88493,0,0,0.1,-0,-0,0.66667
0.63358,0.49126,6.3358,-0.01311,-1.0387,162.34,0.2215,-0.073834,-1.9965,0.29534,3.8673e-12,-0.99826,0,0,0.1,-1.4211e-15,0,0.66667
0.1012,0.7394,1.012,0.35909,47.227,767.21,-0.96904,0.32301,-1.5384,-1.2921,-3.8559e-08,-0.76921,0,0,0.1,1.1842e-16,0,0.66667
0.51534,0.57134,5.1534,0.10701,10.417,269.48,-1.4705,0.49017,-1.9639,-1.9607,9.2415e-13,-0.98195,0,0,0.1,-9.4739e-16,0,0.66667
0.44685,0.77241,4.4685,0.40861,43.435,340.91,-4.869,1.623,-1.4037,-6.492,-3.9084e-12,-0.70186,0,0,0.1,-0,-0,0.66667
0.050434,0.58372,0.50434,0.12559,16.631,835.16,-0.1689,0.056301,-1.9433,-0.22521,5.3793e-08,-0.97164,0,0,0.1,-0,-0,0.66667
0.76578,0.93336,7.6578,0.65005,35.752,72.193,-13.274,4.4248,-0.50303,-17.699,-1.0945e-10,-0.25152,0,0,0.1,-0,-0,0.66667
0.095195,0.17618,0.95195,-0.48573,-64.013,775.26,1.233,-0.41101,-1.1634,1.6441,3.8036e-08,-0.58169,0,0,0.1,-0,-0,0.66667
0.33837,0.15823,3.3837,-0.51265,-60.368,464.71,4.6258,-1.5419,-1.0644,6.1677,-1.9775e-12,-0.53218,0,0,0.1,-0,-0,0.66667
0.57897,0.89137,5.7897,0.58705,51.904,210.04,-9.0636,3.0212,-0.77784,-12.085,1.6689e-12,-0.38892,0,0,0.1,-9.4739e-16,0,0.66667
0.85085,0.17392,8.5085,-0.48912,-17.839,31.203,11.098,-3.6993,-1.1462,14.797,5.9961e-10,-0.57309,0,0,0.1,-0,-0,0.66667
0.26085,0.13156,2.6085,-0.55266,-68.527,559.8,3.8444,-1.2815,-0.91253,5.1258,-6.4136e-11,-0.45627,0,0,0.1,-0,-0,0.66667
0.81028,0.34521,8.1028,-0.23218,-10.51,47.838,5.0169,-1.6723,-1.8106,6.6892,-5.9731e-11,-0.90531,0,0,0.1,1.8948e-15,0,0.66667
0.43666,0.88637,4.3666,0.57956,62.404,352.31,-6.7486,2.2495,-0.80906,-8.9982,5.3069e-13,-0.40453,0,0,0.1,-9.4739e-16,0,0.66667
0.82762,0.9403,8.2762,0.66046,27.657,41.391,-14.576,4.8587,-0.45404,-19.435,-1.1422e-08,-0.22702,0,0,0.1,-1.8948e-15,-3.8692e-17,0.66667
0.92159,0.2574,9.2159,-0.36391,-7.1482,9.636,8.9433,-2.9811,-1.5339,11.924,-9.9479e-08,-0.76695,0,0,0.1,-0,-0,0.66667
0.4382,0.095884,4.382,-0.60617,-65.181,350.69,7.0834,-2.3611,-0.69825,9.4446,-2.5349e-12,-0.34913,0,0,0.1,-0,-0,0.66667
0.26206,0.77643,2.6206,0.41464,51.321,558.13,-2.8976,0.96586,-1.3886,-3.8634,-6.6858e-12,-0.69432,0,0,0.1,-0,-0,0.66667
0.46144,0.92486,4.6144,0.63729,66.776,325.76,-7.842,2.614,-0.55274,-10.456,1.1999e-12,-0.27637,0,0,0.1,4.737e-16,0,0.66667
0.094812,0.0021036,0.94812,-0.74684,-98.68,775.91,1.8883,-0.62942,-0.020868,2.5177,1.6915e-07,-0.010434,0,0,0.1,-0,-0,0.66667
0.65878,0.3059,6.5878,-0.29115,-21.828,142.67,5.1148,-1.7049,-1.6996,6.8197,-3.2285e-13,-0.84981,0,0,0.1,-4.737e-16,0,0.66667
0.63235,0.068554,6.3235,-0.64717,-51.689,164.52,10.913,-3.6376,-0.50822,14.551,-3.4905e-13,-0.25411,0,0,0.1,-0,-0,0.66667
0.4968,0.75362,4.968,0.38042,38.039,288.43,-5.0399,1.68,-1.486,-6.7198,-3.0229e-12,-0.743,0,0,0.1,-0,-0,0.66667
0.47016,0.6291,4.7016,0.19365,20.008,315.79,-2.4279,0.80932,-1.8698,-3.2373,-1.3869e-12,-0.93489,0,0,0.1,-0,-0,0.66667
0.12851,0.39432,1.2851,-0.15852,-20.699,730.85,0.54322,-0.18107,-1.9099,0.7243,5.8694e-09,-0.95497,0,0,0.1,-1.1842e-16,0,0.66667
0.33439,0.65505,3.3439,0.23257,27.42,469.16,-2.0738,0.69128,-1.8062,-2.7651,-5.2991e-12,-0.90309,0,0,0.1,6.5133e-16,0,0.66667
0.2686,0.044112,2.686,-0.68383,-84.532,550.29,4.898,-1.6327,-0.33722,6.5307,-8.5838e-12,-0.16861,0,0,0.1,-0,-0,0.66667
0.53581,0.33024,5.3581,-0.25463,-24.073,249.57,3.6383,-1.2128,-1.7676,4.851,-2.3701e-12,-0.88381,0,0,0.1,-0,-0,0.66667
0.41981,0.20545,4.1981,-0.44183,-48.36,370.61,4.9462,-1.6487,-1.3071,6.5949,1.1093e-12,-0.65354,0,0,0.1,-4.737e-16,0,0.66667
0.83603,0.20952,8.3603,-0.43572,-17.321,36.916,9.7141,-3.238,-1.322,12.952,-4.1551e-10,-0.66098,0,0,0.1,-0,-0,0.66667
0.70121,0.67707,7.0121,0.26561,17.866,111.63,-4.9666,1.6555,-1.7507,-6.6221,-1.5801e-12,-0.87535,0,0,0.1,-9.4739e-16,0,0.66667
0.4959,0.20641,4.959,-0.44038,-44.11,289.46,5.8236,-1.9412,-1.3091,7.7648,-2.1454e-12,-0.65454,0,0,0.1,-0,-0,0.66667
0.59952,0.74057,5.9952,0.36086,30.659,191.32,-5.7692,1.9231,-1.5345,-7.6922,-3.4861e-13,-0.76727,0,0,0.1,9.4739e-16,0,0.66667
0.39672,0.19321,3.9672,-0.46018,-51.533,396.6,4.8683,-1.6228,-1.2449,6.4911,-3.7019e-12,-0.62243,0,0,0.1,-9.4739e-16,0,0.66667
0.21745,0.25738,2.1745,-0.36393,-46.067,614.74,2.1103,-0.70343,-1.5319,2.8137,-5.2195e-11,-0.76597,0,0,0.1,-0,-0,0.66667
0.74224,0.067516,7.4224,-0.64873,-38.749,86.016,12.84,-4.2801,-0.50117,17.12,5.2678e-12,-0.25058,0,0,0.1,-0,-0,0.66667
0.92264,0.03978,9.2264,-0.69033,-13.629,10.824,16.985,-5.6615,-0.30928,22.646,-3.1698e-06,-0.15464,0,0,0.1,-0,-0,0.66667
0.26129,0.86916,2.6129,0.55373,68.644,559.26,-3.8582,1.2861,-0.90879,-5.1443,5.1311e-11,-0.45439,0,0,0.1,5.9212e-16,0,0.66667
0.63229,0.85857,6.3229,0.53785,42.89,164.2,-9.0687,3.0229,-0.96821,-12.092,8.1091e-13,-0.4841,0,0,0.1,-9.4739e-16,0,0.66667
0.70958,0.56351,7.0958,0.095258,6.2514,105.72,-1.8025,0.60083,-1.9662,-2.4033,-1.2094e-12,-0.9831,0,0,0.1,-0,-0,0.66667
0.73708,0.73766,7.3708,0.35649,21.547,88.232,-7.0069,2.3356,-1.5484,-9.3426,-1.271e-11,-0.77421,0,0,0.1,9.4739e-16,0,0.66667
0.27022,0.14358,2.7022,-0.53463,-65.925,548.05,3.8524,-1.2841,-0.98189,5.1366,-3.5552e-12,-0.49094,0,0,0.1,-0,-0,0.66667
0.10234,0.55983,1.0234,0.089748,11.789,765.63,-0.24494,0.081646,-1.9693,-0.32658,-2.2514e-08,-0.98467,0,0,0.1,5.9212e-17,0,0.66667
0.71856,0.61273,7.1856,0.16909,10.811,99.785,-3.24,1.08,-1.9029,-4.32,-3.6222e-12,-0.95144,0,0,0.1,9.6449e-17,0,0.66667
0.44319,0.60296,4.4319,0.15443,16.46,344.59,-1.8252,0.60839,-1.9128,-2.4336,-2.682e-12,-0.9564,0,0,0.1,9.4739e-16,0,0.66667
0.6827,0.5378,6.827,0.056698,4.0034,124.54,-1.0322,0.34407,-1.9871,-1.3763,-1.4756e-12,-0.99354,0,0,0.1,-0,-0,0.66667
0.058429,0.079962,0.58429,-0.63006,-83.613,824.51,0.9817,-0.32723,-0.58715,1.3089,-2.7556e-06,-0.29358,0,0,0.1,-0,2.3053e-17,0.66667
0.65428,0.65854,6.5428,0.23781,18.01,146.06,-4.1493,1.3831,-1.8014,-5.5324,-2.2733e-12,-0.90072,0,0,0.1,1.8948e-15,0,0.66667
0.28838,0.50181,2.8838,0.0027126,0.33001,525.12,-0.02086,0.0069532,-1.9981,-0.027813,-6.5711e-12,-0.99905,0,0,0.1,-0,-0,0.66667
0.87785,0.94264,8.7785,0.66396,20.223,22.536,-15.543,5.1809,-0.43334,-20.724,1.6452e-07,-0.21667,0,0,0.1,-0,-0,0.66667
0.1653,0.16239,1.653,-0.50642,-65.516,682.51,2.2323,-0.74409,-1.0857,2.9764,1.8686e-09,-0.54285,0,0,0.1,-0,-0,0.66667
0.44557,0.6772,4.4557,0.2658,28.269,342.11,-3.1582,1.0527,-1.7457,-4.211,-3.3478e-12,-0.87286,0,0,0.1,-0,-0,0.66667
0.96915,0.79812,9.6915,0.44718,3.4535,2.5539,-11.557,3.8523,-1.293,-15.409,-1.381e-06,-0.64652,0,0,0.1,1.8948e-15,0,0.66667
0.086128,0.09899,0.86128,-0.60151,-79.482,787.42,1.3815,-0.46051,-0.71101,1.842,-1.9972e-08,-0.3555,0,0,0.1,-0,-0,0.66667
0.40046,0.55068,4.0046,0.076022,8.4668,391.98,-0.81184,0.27061,-1.9768,-1.0825,-5.2195e-12,-0.98841,0,0,0.1,4.737e-16,0,0.66667
0.28546,0.22438,2.8546,-0.41343,-50.465,528.95,3.1472,-1.0491,-1.3914,4.1962,-3.3642e-12,-0.6957,0,0,0.1,-0,-0,0.66667
0.082679,0.83941,0.82679,0.50912,67.258,791.99,-1.1225,0.37416,-1.0774,-1.4967,-1.3578e-08,-0.53871,0,0,0.1,-5.9212e-17,0,0.66667
0.70977,0.10768,7.0977,-0.58848,-38.804,106.65,11.138,-3.7128,-0.7656,14.851,-6.2172e-14,-0.3828,0,0,0.1,-0,-0,0.66667
0.56244,0.5588,5.6244,0.088205,7.9896,224.26,-1.3229,0.44098,-1.9781,-1.7639,-2.7655e-12,-0.98903,0,0,0.1,-0,-0,0.66667
0.98804,0.26266,9.8804,-0.35601,-0.96751,0.91576,9.3802,-3.1267,-1.5484,12.507,-2.2603e-07,-0.77421,0,0,0.1,-1.8948e-15,0,0.66667
0.22761,0.11116,2.2761,-0.58326,-73.604,601.94,3.5401,-1.18,-0.78733,4.7202,9.9878e-11,-0.39366,0,0,0.1,-2.6954e-16,0,0.66667
0.10466,0.077583,1.0466,-0.63363,-83.452,762.72,1.7684,-0.58948,-0.57051,2.3579,-2.1119e-07,-0.28525,0,0,0.1,2.3685e-16,0,0.66667
0.46991,0.1978,4.6991,-0.4533,-46.926,316.4,5.6803,-1.8934,-1.2722,7.5737,-4.6834e-12,-0.63611,0,0,0.1,-0,-0,0.66667
0.72526,0.37891,7.2526,-0.18163,-11.379,95.423,3.5127,-1.1709,-1.8806,4.6836,5.2582e-12,-0.94031,0,0,0.1,-1.8948e-15,0,0.66667
0.20312,0.70621,2.0312,0.30932,39.391,633.16,-1.6754,0.55847,-1.6647,-2.2339,2.1185e-11,-0.83236,0,0,0.1,-0,-0,0.66667
0.19345,0.1337,1.9345,-0.54945,-70.37,645.86,2.8344,-0.94481,-0.92411,3.7792,-3.9206e-10,-0.46206,0,0,0.1,-4.737e-16,0,0.66667
0.01645,0.13756,0.1645,-0.54366,-72.318,880.91,0.23848,-0.079492,-0.95237,0.31797,1.7464e-08,-0.47619,0,0,0.1,-2.9606e-17,0,0.66667
0.61338,0.56042,6.1338,0.090624,7.4851,179.12,-1.4823,0.49411,-1.9707,-1.9764,2.1759e-12,-0.98537,0,0,0.1,-1.3027e-15,0,0.66667
0.58667,0.097704,5.8667,-0.60344,-52.642,203.21,9.4406,-3.1469,-0.70301,12.587,3.1495e-12,-0.3515,0,0,0.1,-0,-0,0.66667
0.46014,0.28463,4.6014,-0.32305,-33.8,326.53,3.964,-1.3213,-1.6268,5.2854,-3.1093e-12,-0.81339,0,0,0.1,-0,-0,0.66667
0.7062,0.97831,7.062,0.71747,47.918,109.6,-13.511,4.5038,-0.16969,-18.015,-3.3298e-12,-0.084843,0,0,0.1,-0,-0,0.66667
0.059315,0.41156,0.59315,-0.13265,-17.55,823.23,0.20982,-0.06994,-1.9378,0.27976,2.1441e-08,-0.96888,0,0,0.1,-0,-0,0.66667
0.66498,0.37536,6.6498,-0.18695,-13.802,137.79,3.3152,-1.1051,-1.8742,4.4203,1.0429e-12,-0.93709,0,0,0.1,-0,-0,0.66667
0.18851,0.4474,1.8851,-0.078903,-10.101,652.02,0.39664,-0.13221,-1.981,0.52886,-3.2712e-11,-0.99049,0,0,0.1,-0,-0,0.66667
0.13418,0.26542,1.3418,-0.35187,-45.911,723.39,1.2591,-0.41969,-1.5568,1.6788,5.765e-09,-0.77838,0,0,0.1,-0,-0,0.66667
0.89487,0.59422,8.9487,0.14133,3.6743,15.788,-3.3726,1.1242,-1.929,-4.4968,1.0607e-08,-0.9645,0,0,0.1,-0,-0,0.66667
0.68858,0.36354,6.8858,-0.20469,-14.241,120.43,3.7586,-1.2529,-1.8539,5.0115,1.3278e-12,-0.92696,0,0,0.1,-9.4739e-16,0,0.66667
0.63478,0.56155,6.3478,0.092321,7.2963,161.39,-1.5628,0.52092,-1.9684,-2.0837,-1.5872e-12,-0.98422,0,0,0.1,1.4211e-15,0,0.66667
0.062431,0.3765,0.62431,-0.18525,-24.503,819.05,0.30842,-0.1028,-1.8841,0.41122,2.2715e-08,-0.94204,0,0,0.1,-2.3685e-16,0,0.66667
0.10037,0.94613,1.0037,0.66919,88.247,768.45,-1.7911,0.59704,-0.40501,-2.3882,1.7927e-09,-0.2025,0,0,0.1,2.3685e-16,0,0.66667
0.41814,0.0010114,4.1814,-0.74848,-82.347,373.14,8.346,-2.782,-0.0085164,11.128,1.3429e-12,-0.0042582,0,0,0.1,-0,-0,0.66667
0.77618,0.4522,7.7618,-0.071707,-3.7595,65.001,1.4842,-0.49473,-1.9794,1.9789,1.2963e-11,-0.98972,0,0,0.1,-0,-0,0.66667
0.0092608,0.82901,0.092608,0.49352,65.633,890.59,-0.12187,0.040622,-1.131,-0.1625,-3.5765e-06,-0.56551,0,0,0.1,-1.4803e-17,0,0.66667
0.46474,0.586,4.6474,0.12901,13.413,321.46,-1.5988,0.53293,-1.9399,-2.1317,-3.0079e-12,-0.96995,0,0,0.1,2.7518e-16,0,0.66667
0.20022,0.36077,2.0022,-0.20884,-26.617,636.86,1.1151,-0.37169,-1.8449,1.4868,-2.3959e-12,-0.92244,0,0,0.1,-0,-0,0.66667
0.89358,0.11128,8.9358,-0.58308,-15.532,17.421,13.894,-4.6314,-0.79104,18.526,2.9058e-08,-0.39552,0,0,0.1,9.4739e-16,0,0.66667
0.59828,0.60656,5.9828,0.15984,13.595,192.11,-2.5502,0.85006,-1.9074,-3.4002,1.1791e-13,-0.95368,0,0,0.1,-0,-0,0.66667
0.68755,0.3002,6.8755,-0.2997,-20.923,121.31,5.495,-1.8317,-1.6855,7.3266,7.7716e-13,-0.84273,0,0,0.1,-9.4739e-16,0,0.66667
0.80757,0.22143,8.0757,-0.41786,-19.211,49.556,8.9987,-2.9996,-1.3782,11.998,-2.4246e-11,-0.68909,0,0,0.1,-1.8948e-15,0,0.66667
0.5879,0.87413,5.879,0.56119,48.82,201.99,-8.7979,2.9326,-0.87899,-11.731,-1.5064e-12,-0.43949,0,0,0.1,1.4211e-15,0,0.66667
0.84743,0.9362,8.4743,0.6543,24.499,33.233,-14.786,4.9287,-0.47826,-19.715,5.7222e-08,-0.23913,0,0,0.1,-1.3027e-15,0,0.66667
0.47046,0.23204,4.7046,-0.40194,-41.563,315.73,5.0425,-1.6808,-1.4273,6.7234,-1.3438e-12,-0.71365,0,0,0.1,-9.4739e-16,0,0.66667
0.17437,0.54799,1.7437,0.07199,9.2652,670.45,-0.33475,0.11158,-1.9821,-0.44634,-1.8388e-10,-0.99103,0,0,0.1,-0,-0,0.66667
0.64155,0.75616,6.4155,0.38425,29.981,156.35,-6.5737,2.1912,-1.4787,-8.7649,2.2471e-13,-0.73936,0,0,0.1,-0,-0,0.66667
0.97645,0.26735,9.7645,-0.34897,-2.0066,1.5961,9.0868,-3.0289,-1.5637,12.116,1.2532e-06,-0.78187,0,0,0.1,-1.8948e-15,0,0.66667
0.35024,0.7531,3.5024,0.37965,44.246,450.42,-3.5458,1.1819,-1.4856,-4.7278,1.382e-12,-0.74279,0,0,0.1,-0,-0,0.66667
0.80271,0.2252,8.0271,-0.41221,-19.38,51.887,8.8235,-2.9412,-1.3937,11.765,-5.79e-12,-0.69685,0,0,0.1,-0,-0,0.66667
0.67727,0.43628,6.7727,-0.095581,-6.8436,128.53,1.7263,-0.57542,-1.9665,2.3017,-1.8818e-13,-0.98323,0,0,0.1,-2.3685e-16,0,0.66667
0.52046,0.0078146,5.2046,-0.73828,-71.759,265.65,10.247,-3.4155,-0.060351,13.662,5.0733e-12,-0.030175,0,0,0.1,-1.8948e-15,0,0.66667
0.14443,0.17836,1.4443,-0.48246,-62.82,709.92,1.8582,-0.6194,-1.1715,2.4776,1.6038e-09,-0.58577,0,0,0.1,-1.1842e-16,0,0.66667
0.83883,0.18186,8.3883,-0.47721,-18.691,35.904,10.675,-3.5582,-1.1888,14.233,-4.768e-10,-0.59441,0,0,0.1,-4.737e-16,0,0.66667
0.42617,0.24512,4.2617,-0.38231,-41.552,363.46,4.3449,-1.4483,-1.4795,5.7932,3.2419e-13,-0.73974,0,0,0.1,-0,-0,0.66667
0.78295,0.31725,7.8295,-0.27413,-14.006,61.606,5.7234,-1.9078,-1.7353,7.6312,4.4103e-11,-0.86767,0,0,0.1,-0,-0,0.66667
0.59163,0.19987,5.9163,-0.45019,-38.847,198.4,7.1026,-2.3675,-1.2805,9.4701,8.2112e-13,-0.64025,0,0,0.1,-9.4739e-16,0,0.66667
0.25054,0.27554,2.5054,-0.33669,-41.917,572.57,2.2494,-0.74981,-1.6014,2.9992,-1.9916e-11,-0.8007,0,0,0.1,-1.1842e-16,0,0.66667
0.17356,0.66649,1.7356,0.24973,32.165,671.55,-1.1558,0.38528,-1.7802,-1.5411,-3.5428e-10,-0.89009,0,0,0.1,-4.737e-16,0,0.66667
0.73804,0.070876,7.3804,-0.64369,-38.976,88.576,12.668,-4.2228,-0.52619,16.891,-8.8267e-12,-0.2631,0,0,0.1,-0,-0,0.66667
0.11212,0.81803,1.1212,0.47704,62.64,752.72,-1.4262,0.47541,-1.1917,-1.9017,-1.2785e-08,-0.59586,0,0,0.1,-0,-0,0.66667
0.21762,0.74417,2.1762,0.36626,46.359,614.52,-2.1255,0.7085,-1.5264,-2.834,2.6525e-11,-0.7632,0,0,0.1,-0,-0,0.66667
0.86531,0.047775,8.6531,-0.67834,-22.652,26.782,15.653,-5.2175,-0.36113,20.87,1.8653e-08,-0.18057,0,0,0.1,-0,-0,0.66667
0.9046,0.7924,9.046,0.4386,10.457,13.873,-10.58,3.5267,-1.318,-14.107,3.7655e-08,-0.65898,0,0,0.1,-0,-0,0.66667
0.093513,0.8345,0.93513,0.50175,66.154,777.51,-1.2512,0.41707,-1.1095,-1.6683,-2.754e-08,-0.55476,0,0,0.1,-1.1842e-16,-5.871e-17,0.66667
0.014555,0.89052,0.14555,0.58578,77.954,883.47,-0.22736,0.075779,-0.78273,-0.30315,-9.7855e-06,-0.39137,0,0,0.1,-0,-0,0.66667
0.30404,0.056843,3.0404,-0.66474,-80.355,506.45,5.3895,-1.7965,-0.42637,7.186,-7.5056e-12,-0.21318,0,0,0.1,-2.3685e-16,0,0.66667
0.12829,0.83822,1.2829,0.50733,66.37,731.27,-1.7356,0.57852,-1.085,-2.3141,-5.7053e-09,-0.54251,0,0,0.1,-2.9606e-16,0,0.66667
0.25704,0.59827,2.5704,0.1474,18.272,564.26,-1.0104,0.33679,-1.9204,-1.3472,1.2071e-11,-0.9602,0,0,0.1,-0,-0,0.66667
0.50233,0.45725,5.0233,-0.064124,-6.3553,282.51,0.85897,-0.28632,-1.9862,1.1453,6.3005e-14,-0.99311,0,0,0.1,-0,-0,0.66667
0.56141,0.43258,5.6141,-0.10113,-9.176,225.22,1.514,-0.50466,-1.9672,2.0186,-1.5494e-12,-0.98359,0,0,0.1,4.737e-16,0,0.66667
0.98057,0.62685,9.8057,0.19027,0.87261,0.93346,-4.9753,1.6584,-1.8715,-6.6337,-2.3998e-07,-0.93573,0,0,0.1,3.7896e-15,0,0.66667
0.42958,0.18921,4.2958,-0.46619,-50.522,359.85,5.3404,-1.7801,-1.2253,7.1205,1.9638e-12,-0.61266,0,0,0.1,-0,-0,0.66667
0.67931,0.31843,6.7931,-0.27236,-19.419,127.23,4.9337,-1.6446,-1.7336,6.5783,-1.0441e-12,-0.86682,0,0,0.1,-0,-0,0.66667
0.88941,0.93667,8.8941,0.655,18.157,18.968,-15.535,5.1784,-0.47862,-20.714,-1.6797e-07,-0.23931,0,0,0.1,-2.6645e-15,0,0.66667
0.15189,0.8952,1.5189,0.5928,77.087,700.18,-2.4011,0.80036,-0.74899,-3.2015,7.6448e-09,-0.3745,0,0,0.1,-2.3685e-16,0,0.66667
0.09317,0.76162,0.9317,0.39243,51.703,777.93,-0.97499,0.325,-1.4563,-1.3,-3.6877e-08,-0.72813,0,0,0.1,-0,-0,0.66667
0.29675,0.39727,2.9675,-0.15409,-18.65,514.83,1.2194,-0.40646,-1.9205,1.6258,-6.2587e-12,-0.96024,0,0,0.1,-0,-0,0.66667
0.12968,0.40991,1.2968,-0.13513,-17.638,729.29,0.46729,-0.15576,-1.9341,0.62305,4.7791e-09,-0.96705,0,0,0.1,-0,-0,0.66667
0.16102,0.81612,1.6102,0.47418,61.419,688.09,-2.0361,0.67871,-1.1995,-2.7149,-3.9208e-10,-0.59975,0,0,0.1,-0,-0,0.66667
0.34358,0.97471,3.4358,0.71206,83.693,458.88,-6.524,2.1747,-0.20239,-8.6986,3.4266e-12,-0.1012,0,0,0.1,-9.4739e-16,0,0.66667
0.31134,0.46702,3.1134,-0.049475,-5.9286,496.95,0.41076,-0.13692,-1.9953,0.54768,-1.0346e-11,-0.99763,0,0,0.1,5.9212e-16,0,0.66667
0.76235,0.29486,7.6235,-0.30771,-17.034,73.023,6.2556,-2.0852,-1.6628,8.3408,2.5606e-11,-0.83142,0,0,0.1,-0,-0,0.66667
0.94892,0.56358,9.4892,0.095363,1.2111,4.1821,-2.4131,0.80437,-1.9676,-3.2175,-5.6387e-08,-0.9838,0,0,0.1,-0,-0,0.66667
0.58072,0.58003,5.8072,0.12005,10.54,207.61,-1.8591,0.61968,-1.9491,-2.4787,-8.9451e-13,-0.97457,0,0,0.1,-0,-0,0.66667
0.98347,0.50288,9.8347,0.0043156,0.016343,0.59649,-0.11318,0.037731,-2.0042,-0.15091,6.1582e-06,-1.0021,0,0,0.1,-0,-0,0.66667
0.95183,0.40946,9.5183,-0.1358,-1.6258,3.8046,3.447,-1.149,-1.9379,4.596,8.4662e-08,-0.96894,0,0,0.1,3.7896e-15,0,0.66667
0.25764,0.23644,2.5764,-0.39533,-49.046,563.66,2.7162,-0.90538,-1.4411,3.6215,-8.9857e-12,-0.72053,0,0,0.1,-0,-0,0.66667
0.30135,0.78665,3.0135,0.42998,51.956,509.39,-3.4554,1.1518,-1.3416,-4.6072,-2.7378e-12,-0.67078,0,0,0.1,9.4739e-16,0,0.66667
0.84189,0.8618,8.4189,0.5427,20.921,34.915,-12.184,4.0613,-0.95429,-16.245,-2.8292e-10,-0.47714,0,0,0.1,-0,-0,0.66667
0.58489,0.39145,5.8489,-0.16282,-14.192,203.91,2.5395,-0.84651,-1.9026,3.386,-2.6079e-12,-0.9513,0,0,0.1,-0,-0,0.66667
0.17505,0.14134,1.7505,-0.53799,-69.382,669.78,2.5114,-0.83712,-0.97049,3.3485,3.8608e-10,-0.48524,0,0,0.1,-0,-0,0.66667
0.052125,0.49578,0.52125,-0.0063334,-0.83846,832.88,0.0088034,-0.0029347,-1.9984,0.011738,-2.6143e-07,-0.99918,0,0,0.1,-2.0724e-16,0,0.66667
0.54514,0.32836,5.4514,-0.25746,-23.994,240.64,3.7426,-1.2475,-1.766,4.9902,-2.7192e-12,-0.88298,0,0,0.1,-0,-0,0.66667
0.14795,0.34725,1.4795,-0.22912,-29.759,705.17,0.90394,-0.30131,-1.8111,1.2053,2.3727e-09,-0.90556,0,0,0.1,-0,-0,0.66667
0.77243,0.82979,7.7243,0.49468,26.441,67.875,-10.189,3.3965,-1.1268,-13.586,-1.0097e-11,-0.5634,0,0,0.1,-0,-0,0.66667
0.60364,0.78353,6.0364,0.42529,35.875,187.89,-6.8459,2.282,-1.3554,-9.1279,1.8061e-12,-0.67772,0,0,0.1,-0,-0,0.66667
0.2545,0.086973,2.545,-0.61954,-77.14,567.88,4.2045,-1.4015,-0.634,5.6061,1.9811e-12,-0.317,0,0,0.1,2.3685e-16,0,0.66667
0.0097104,0.56805,0.097104,0.10207,13.55,889.97,-0.026431,0.0088099,-1.9609,-0.035241,-5.4513e-07,-0.98043,0,0,0.1,-0,-0,0.66667
0.29272,0.16565,2.9272,-0.50153,-60.979,520.09,3.9148,-1.3049,-1.1044,5.2197,3.344e-12,-0.55222,0,0,0.1,-9.4739e-16,0,0.66667
0.61384,0.18713,6.1384,-0.46931,-38.83,179.31,7.682,-2.5607,-1.2167,10.243,2.8422e-14,-0.60837,0,0,0.1,-2.6645e-16,0,0.66667
0.19308,0.60797,1.9308,0.16195,20.699,646.09,-0.83389,0.27796,-1.9041,-1.1119,-1.0838e-11,-0.95207,0,0,0.1,-0,-0,0.66667
0.29108,0.9694,2.9108,0.7041,85.876,522.42,-5.4653,1.8218,-0.23617,-7.2871,3.3791e-12,-0.11808,0,0,0.1,-0,-0,0.66667
0.98264,0.34097,9.8264,-0.23854,-0.96943,0.89382,6.2507,-2.0836,-1.8005,8.3342,2.3113e-07,-0.90024,0,0,0.1,-0,-0,0.66667
0.77969,0.5394,7.7969,0.059102,3.0554,63.095,-1.2288,0.40961,-1.9899,-1.6384,-3.5215e-12,-0.99495,0,0,0.1,-0,-0,0.66667
0.23048,0.27843,2.3048,-0.33235,-41.804,598.04,2.0426,-0.68088,-1.6072,2.7235,-3.7566e-11,-0.80358,0,0,0.1,2.3685e-16,0,0.66667
0.27348,0.64063,2.7348,0.21095,25.91,543.69,-1.5384,0.5128,-1.8385,-2.0512,2.4731e-12,-0.91925,0,0,0.1,-0,-0,0.66667
0.68583,0.59511,6.8583,0.14266,9.9941,122.33,-2.6091,0.8697,-1.9308,-3.4788,-1.0814e-13,-0.96541,0,0,0.1,-0,-0,0.66667
0.97299,0.56159,9.7299,0.092385,0.60334,1.3834,-2.397,0.79902,-1.9696,-3.1961,-5.1984e-07,-0.98479,0,0,0.1,-3.5527e-16,0,0.66667
0.36782,0.57037,3.6782,0.10556,12.11,429.55,-1.0354,0.34513,-1.9576,-1.3805,3.1719e-13,-0.97879,0,0,0.1,-9.4739e-16,0,0.66667
0.02374,0.36914,0.2374,-0.19628,-26.05,871.08,0.12426,-0.04142,-1.8604,0.16568,-4.0084e-07,-0.93021,0,0,0.1,2.9606e-17,0,0.66667
0.81142,0.74186,8.1142,0.36279,16.362,47.582,-7.85,2.6167,-1.5352,-10.467,4.9478e-11,-0.76759,0,0,0.1,-0,-0,0.66667
0.45963,0.17044,4.5963,-0.49434,-51.825,327.36,6.059,-2.0197,-1.1281,8.0786,-4.4649e-12,-0.56404,0,0,0.1,-9.4739e-16,0,0.66667
0.58271,0.16764,5.8271,-0.49854,-43.739,206.44,7.7467,-2.5822,-1.1145,10.329,1.2492e-12,-0.55727,0,0,0.1,-0,-0,0.66667
0.55146,0.5329,5.5146,0.049349,4.5502,234.5,-0.72571,0.2419,-1.9908,-0.96761,-8.7702e-13,-0.99541,0,0,0.1,-0,-0,0.66667
0.63102,0.039716,6.3102,-0.69043,-55.34,165.77,11.618,-3.8726,-0.30262,15.491,-5.5955e-13,-0.15131,0,0,0.1,-0,-0,0.66667
0.72115,0.65868,7.2115,0.23803,15.107,98.175,-4.5774,1.5258,-1.8004,-6.1032,-3.2281e-12,-0.9002,0,0,0.1,-1.8948e-15,0,0.66667
0.37326,0.32717,3.7326,-0.25924,-29.616,423.31,2.5804,-0.86013,-1.7627,3.4405,-5.1534e-12,-0.88135,0,0,0.1,-0,-0,0.66667
0.86276,0.27615,8.6276,-0.33578,-11.289,26.342,7.7253,-2.5751,-1.5992,10.3,-4.9062e-09,-0.79961,0,0,0.1,-4.737e-16,0,0.66667
0.044935,0.49823,0.44935,-0.0026499,-0.35105,842.55,0.0031752,-0.0010573,-2.0026,0.0042342,1.7302e-06,-1.0013,0,0,0.1,-2.9606e-17,0,0.66667
0.63268,0.76952,6.3268,0.40429,32.16,163.53,-6.8209,2.2736,-1.4157,-9.0946,-2.2755e-12,-0.70784,0,0,0.1,9.4739e-16,0,0.66667
0.32943,0.69593,3.2943,0.29389,34.788,475.17,-2.5818,0.86059,-1.6956,-3.4424,-3.0835e-12,-0.84781,0,0,0.1,-0,-0,0.66667
0.5372,0.78836,5.372,0.43254,40.86,248.52,-6.1963,2.0654,-1.3325,-8.2617,-1.9158e-12,-0.66624,0,0,0.1,-0,-0,0.66667
0.25122,0.80612,2.5122,0.45918,57.193,571.81,-3.0762,1.0254,-1.2534,-4.1016,6.1966e-12,-0.62671,0,0,0.1,-2.3685e-16,0,0.66667
0.30016,0.31266,3.0016,-0.28101,-33.952,510.72,2.2493,-0.74975,-1.7204,2.999,-4.75e-12,-0.86018,0,0,0.1,-9.4739e-16,0,0.66667
0.68492,0.93824,6.8492,0.65737,46.443,124.25,-12.006,4.0021,-0.46546,-16.009,3.7126e-13,-0.23273,0,0,0.1,-0,-0,0.66667
0.30867,0.061581,3.0867,-0.65763,-79.241,500.79,5.413,-1.8043,-0.46265,7.2174,-5.2673e-12,-0.23133,0,0,0.1,-6.8094e-16,-1.2508e-16,0.66667
0.48557,0.87777,4.8557,0.56666,57.598,300.32,-7.3374,2.4458,-0.86202,-9.7832,-9.4147e-13,-0.43101,0,0,0.1,-0,-0,0.66667
0.72351,0.48597,7.2351,-0.021049,-1.3251,96.451,0.40611,-0.13537,-1.9964,0.54148,1.9347e-12,-0.9982,0,0,0.1,-1.8948e-15,0,0.66667
0.93934,0.28048,9.3934,-0.32929,-5.0097,6.1185,8.2483,-2.7494,-1.6175,10.998,-9.8308e-08,-0.80874,0,0,0.1,2.2501e-15,0,0.66667
0.18872,0.52448,1.8872,0.036714,4.6995,651.74,-0.18477,0.061589,-1.9983,-0.24635,-1.0394e-10,-0.99913,0,0,0.1,-0,-0,0.66667
0.52997,0.4294,5.2997,-0.1059,-10.093,255.1,1.4966,-0.49886,-1.9629,1.9954,-1.6593e-12,-0.98147,0,0,0.1,-4.737e-16,0,0.66667
0.74163,0.24219,7.4163,-0.38671,-23.036,85.493,7.6479,-2.5493,-1.4655,10.197,1.1304e-11,-0.73273,0,0,0.1,-9.4739e-16,0,0.66667
0.53447,0.5874,5.3447,0.1311,12.413,250.75,-1.8685,0.62285,-1.939,-2.4914,-2.9752e-12,-0.96951,0,0,0.1,4.737e-16,0,0.66667
0.78526,0.015055,7.8526,-0.72742,-37.158,61.974,15.232,-5.0774,-0.11728,20.31,-2.6183e-11,-0.058639,0,0,0.1,-0,-0,0.66667
0.74517,0.86547,7.4517,0.5482,32.357,83.834,-10.893,3.6311,-0.92964,-14.525,-2.531e-11,-0.46482,0,0,0.1,-0,-0,0.66667
0.76862,0.49539,7.6862,-0.0069182,-0.37344,69.156,0.1418,-0.047266,-2.0005,0.18906,-2.8944e-11,-1.0002,0,0,0.1,1.4211e-15,0,0.66667
0.77155,0.9836,7.7155,0.72541,39.116,69.327,-14.925,4.975,-0.12621,-19.9,-4.558e-11,-0.063107,0,0,0.1,-6.738e-17,0,0.66667
0.88414,0.19785,8.8414,-0.45323,-13.024,19.655,10.686,-3.5619,-1.2668,14.248,-8.1576e-09,-0.63339,0,0,0.1,-0,-0,0.66667
0.45436,0.36201,4.5436,-0.20699,-21.79,332.58,2.508,-0.836,-1.8502,3.344,-3.5649e-12,-0.92509,0,0,0.1,-0,-0,0.66667
0.45973,0.72499,4.5973,0.33749,35.331,326.98,-4.1375,1.3792,-1.5925,-5.5167,-4.1172e-12,-0.79627,0,0,0.1,-0,-0,0.66667
0.14676,0.58809,1.4676,0.13214,17.164,706.71,-0.51716,0.17239,-1.9357,-0.68955,-1.9826e-09,-0.96785,0,0,0.1,1.1842e-16,0,0.66667
0.23564,0.030415,2.3564,-0.70438,-88.654,591.86,4.4261,-1.4754,-0.23988,5.9015,-5.1545e-11,-0.11994,0,0,0.1,2.9606e-16,0,0.66667
0.26969,0.0085646,2.6969,-0.73715,-91.124,549.02,5.3014,-1.7671,-0.066869,7.0686,-3.5056e-12,-0.033434,0,0,0.1,9.4739e-16,0,0.66667
0.73747,0.54593,7.3747,0.068902,4.1507,87.59,-1.355,0.45167,-1.9828,-1.8067,-5.4583e-12,-0.99141,0,0,0.1,9.4739e-16,0,0.66667
0.15702,0.43756,1.5702,-0.093663,-12.127,693.2,0.39219,-0.13073,-1.9738,0.52292,1.9818e-11,-0.98692,0,0,0.1,-0,-0,0.66667
0.72315,0.84583,7.2315,0.51875,32.838,97.55,-10.004,3.3345,-1.0428,-13.338,-1.4468e-11,-0.52138,0,0,0.1,-0,-0,0.66667
0.59594,0.15424,5.9594,-0.51863,-44.435,194.8,8.242,-2.7473,-1.0459,10.989,4.4409e-13,-0.52293,0,0,0.1,-1.4211e-15,0,0.66667
0.9303,0.58654,9.303,0.12982,2.2554,7.3847,-3.2205,1.0735,-1.9373,-4.294,3.3641e-08,-0.96867,0,0,0.1,-0,-0,0.66667
0.72528,0.87418,7.2528,0.56127,35.327,96.323,-10.855,3.6185,-0.87837,-14.474,2.8469e-11,-0.43919,0,0,0.1,1.3619e-15,0,0.66667
0.69888,0.4145,6.9888,-0.12825,-8.6755,113.08,2.3902,-0.79675,-1.9403,3.187,1.9118e-13,-0.97015,0,0,0.1,-0,-0,0.66667
0.075963,0.58761,0.75963,0.13141,17.346,800.9,-0.26619,0.088731,-1.9402,-0.35493,-3.0153e-08,-0.9701,0,0,0.1,-0,-0,0.66667
0.50651,0.51371,5.0651,0.020562,2.0262,278.29,-0.27773,0.092576,-1.9955,-0.3703,-3.4874e-12,-0.99773,0,0,0.1,1.8948e-15,0,0.66667
0.76296,0.79402,7.6296,0.44103,24.405,73.014,-8.9731,2.991,-1.3087,-11.964,-2.1528e-11,-0.65436,0,0,0.1,-0,-0,0.66667
0.29181,0.026241,2.9181,-0.71064,-86.641,521.54,5.5299,-1.8433,-0.20293,7.3732,-1.223e-12,-0.10147,0,0,0.1,-2.3685e-16,0,0.66667
0.49858,0.83079,4.9858,0.49618,49.55,286.85,-6.5969,2.199,-1.1268,-8.7959,-2.2724e-12,-0.56342,0,0,0.1,-0,-0,0.66667
0.30177,0.7986,3.0177,0.44789,54.113,508.91,-3.6043,1.2014,-1.2846,-4.8057,3.8267e-12,-0.6423,0,0,0.1,-8.3106e-16,0,0.66667
0.4502,0.77404,4.502,0.41105,43.531,337.3,-4.9348,1.6449,-1.3996,-6.5798,-1.7537e-12,-0.69982,0,0,0.1,-0,-0,0.66667
0.24377,0.95846,2.4377,0.68769,86.179,581.53,-4.4703,1.4901,-0.31578,-5.9604,-6.1442e-11,-0.15789,0,0,0.1,-0,-0,0.66667
0.5657,0.12472,5.657,-0.56292,-50.894,222.03,8.4918,-2.8306,-0.87452,11.322,-2.0339e-13,-0.43726,0,0,0.1,-1.4063e-15,0,0.66667
0.94963,0.34226,9.4963,-0.23662,-2.9737,4.2756,5.992,-1.9973,-1.8015,7.9893,4.2842e-08,-0.90077,0,0,0.1,2.4869e-15,0,0.66667
0.2179,0.39203,2.179,-0.16195,-20.478,614.06,0.94103,-0.31368,-1.9099,1.2547,-3.0776e-11,-0.95497,0,0,0.1,2.3685e-16,0,0.66667
0.4385,0.10384,4.385,-0.59423,-63.867,350.34,6.9486,-2.3162,-0.7476,9.2648,-2.8515e-12,-0.3738,0,0,0.1,-0,-0,0.66667
0.76894,0.080707,7.6894,-0.62894,-34.167,70.327,12.896,-4.2988,-0.59301,17.195,-1.9482e-10,-0.2965,0,0,0.1,9.4739e-16,0,0.66667
0.14093,0.63588,1.4093,0.20383,26.527,714.42,-0.76602,0.25534,-1.8567,-1.0214,-3.7273e-09,-0.92833,0,0,0.1,-0,-0,0.66667
0.9131,0.24378,9.131,-0.38434,-8.3537,11.607,9.3584,-3.1195,-1.4723,12.478,-3.935e-08,-0.73613,0,0,0.1,-1.4211e-15,0,0.66667
0.39416,0.29986,3.9416,-0.30021,-33.662,399.3,3.1555,-1.0518,-1.6788,4.2073,-6.8923e-13,-0.83939,0,0,0.1,-4.737e-16,0,0.66667
0.32525,0.83584,3.2525,0.50377,59.902,480.44,-4.3693,1.4564,-1.0981,-5.8257,-2.1587e-12,-0.54903,0,0,0.1,-2.3685e-16,0,0.66667
0.57673,0.40088,5.7673,-0.14868,-13.146,211.23,2.2865,-0.76218,-1.9244,3.0487,-3.7477e-12,-0.96218,0,0,0.1,4.737e-16,0,0.66667
0.24807,0.98425,2.4807,0.72637,90.863,576.15,-4.8051,1.6017,-0.12538,-6.4068,-2.4455e-11,-0.06269,0,0,0.1,-4.737e-16,1.1842e-16,0.66667
0.81192,0.36376,8.1192,-0.20436,-9.1754,47.022,4.4247,-1.4749,-1.8553,5.8996,-4.6851e-11,-0.92767,0,0,0.1,9.4739e-16,0,0.66667
0.88291,0.59285,8.8291,0.13928,4.0158,19.303,-3.2791,1.093,-1.9293,-4.3722,1.2271e-08,-0.96463,0,0,0.1,-2.4869e-15,0,0.66667
0.83441,0.64376,8.3441,0.21564,8.6182,37.059,-4.7982,1.5994,-1.8318,-6.3976,7.1065e-10,-0.91588,0,0,0.1,-9.4739e-16,0,0.66667
0.35124,0.25397,3.5124,-0.36904,-42.972,449.23,3.4566,-1.1522,-1.5134,4.6088,-5.9759e-12,-0.75672,0,0,0.1,-9.4739e-16,0,0.66667
0.14604,0.26902,1.4604,-0.34647,-45.052,707.72,1.3493,-0.44978,-1.5707,1.7991,2.6794e-09,-0.78537,0,0,0.1,-0,-0,0.66667
0.60481,0.18451,6.0481,-0.47324,-39.851,187.01,7.6325,-2.5442,-1.203,10.177,6.7235e-13,-0.60148,0,0,0.1,-1.4211e-15,0,0.66667
0.9963,0.96892,9.963,0.70338,0.64262,2.2614,-18.687,6.2291,-0.24163,-24.916,-1.0844e-05,-0.12082,0,0,0.1,-0,-0,0.66667
0.80367,0.81149,8.0367,0.46724,21.894,51.591,-10.013,3.3378,-1.2221,-13.351,-3.128e-10,-0.61107,0,0,0.1,1.3027e-15,0,0.66667
0.74154,0.58003,7.4154,0.12004,7.1359,85.102,-2.3737,0.79123,-1.9456,-3.1649,-7.8355e-12,-0.97278,0,0,0.1,-0,-0,0.66667
0.38666,0.13967,3.8666,-0.54049,-61.14,408.22,5.573,-1.8577,-0.96001,7.4307,-5.8882e-12,-0.48,0,0,0.1,-0,-0,0.66667
0.40617,0.50856,4.0617,0.01284,1.4221,385.52,-0.13908,0.046359,-2.0045,-0.18543,-4.0817e-12,-1.0022,0,0,0.1,1.8948e-15,0,0.66667
0.29465,0.0027351,2.9465,-0.7459,-90.814,518.12,5.8607,-1.9536,-0.023858,7.8142,-7.637e-12,-0.011929,0,0,0.1,-0,-0,0.66667
0.29924,0.72252,2.9924,0.33377,40.362,511.89,-2.6634,0.8878,-1.6056,-3.5512,-2.1878e-12,-0.80278,0,0,0.1,9.4739e-16,0,0.66667
0.65307,0.7729,6.5307,0.40934,31.134,147.33,-7.1288,2.3763,-1.4042,-9.505,7.4696e-13,-0.70208,0,0,0.1,-4.737e-16,0,0.66667
0.042617,0.90375,0.42617,0.60563,80.481,845.73,-0.68827,0.22942,-0.69547,-0.9177,-7.6541e-06,-0.34773,0,0,0.1,-1.4803e-17,0,0.66667
0.60103,0.23314,6.0103,-0.40028,-33.924,190.09,6.4156,-2.1385,-1.4271,8.5541,-2.0108e-12,-0.71354,0,0,0.1,-0,-0,0.66667
0.45501,0.80477,4.5501,0.45715,48.166,332.22,-5.5469,1.849,-1.2588,-7.3958,-2.6041e-12,-0.62939,0,0,0.1,-0,-0,0.66667
0.38402,0.73484,3.8402,0.35227,39.882,410.97,-3.6074,1.2025,-1.5557,-4.8099,-3.0707e-12,-0.77785,0,0,0.1,-4.737e-16,0,0.66667
0.72104,0.75542,7.2104,0.38312,24.36,98.532,-7.3666,2.4555,-1.4796,-9.8222,-4.1398e-12,-0.73981,0,0,0.1,-0,-0,0.66667
0.090843,0.66278,0.90843,0.24417,32.159,781,-0.59148,0.19716,-1.7885,-0.78865,-4.2991e-08,-0.89427,0,0,0.1,-0,-0,0.66667
0.24894,0.2326,2.4894,-0.4011,-49.998,574.64,2.6626,-0.88755,-1.4308,3.5502,-1.996e-11,-0.7154,0,0,0.1,-0,-0,0.66667
0.16059,0.26301,1.6059,-0.35548,-46.014,688.59,1.5223,-0.50743,-1.5491,2.0297,9.4294e-10,-0.77454,0,0,0.1,-2.3685e-16,0,0.66667
0.67252,0.43446,6.7252,-0.098317,-7.1236,132.05,1.7632,-0.58774,-1.9703,2.351,-4.593e-13,-0.98515,0,0,0.1,-2.3685e-16,0,0.66667
0.19789,0.31044,1.9789,-0.28435,-36.286,639.91,1.5005,-0.50018,-1.7114,2.0007,5.6677e-13,-0.85571,0,0,0.1,-5.9212e-17,0,0.66667
0.47419,0.44472,4.7419,-0.082925,-8.5227,311.49,1.0486,-0.34953,-1.9735,1.3981,-5.6363e-12,-0.98676,0,0,0.1,-0,-0,0.66667
0.95248,0.16332,9.5248,-0.50502,-6.0866,4.7162,12.827,-4.2757,-1.0973,17.103,-7.5683e-07,-0.54863,0,0,0.1,-0,-0,0.66667
0.79059,0.82106,7.9059,0.4816,23.912,58.169,-10.153,3.3844,-1.1727,-13.538,-1.2784e-11,-0.58636,0,0,0.1,1.8948e-15,0,0.66667
0.6679,0.30867,6.679,-0.287,-21.053,135.73,5.1117,-1.7039,-1.7068,6.8155,-1.5961e-12,-0.85339,0,0,0.1,-2.3685e-16,0,0.66667
0.85654,0.90607,8.5654,0.60911,21.51,29.574,-13.913,4.6375,-0.68254,-18.55,-9.502e-10,-0.34127,0,0,0.1,2.7692e-15,-1.1707e-16,0.66667
0.28897,0.98897,2.8897,0.73346,89.61,525.08,-5.652,1.884,-0.084106,-7.536,3.8973e-12,-0.042053,0,0,0.1,4.737e-16,0,0.66667
0.77802,0.63128,7.7802,0.19692,10.256,64.118,-4.0855,1.3618,-1.8623,-5.4473,-3.0763e-11,-0.93113,0,0,0.1,-0,-0,0.66667
0.019068,0.51385,0.19068,0.02077,2.7562,877.36,-0.010561,0.0035199,-1.9978,-0.014082,-6.6052e-07,-0.99888,0,0,0.1,-5.9212e-17,0,0.66667
0.87353,0.51688,8.7353,0.025323,0.78526,22.22,-0.58988,0.19663,-1.9998,-0.78651,3.4421e-10,-0.99991,0,0,0.1,-0,-0,0.66667
0.24772,0.057296,2.4772,-0.66406,-83.024,576.5,4.3866,-1.4622,-0.43366,5.8489,7.9016e-11,-0.21683,0,0,0.1,2.3685e-16,0,0.66667
0.12308,0.25167,1.2308,-0.37249,-48.749,738.11,1.2225,-0.40751,-1.5094,1.6301,9.1843e-09,-0.75469,0,0,0.1,-0,-0,0.66667
0.12635,0.28386,1.2635,-0.3242,-42.383,733.75,1.0924,-0.36412,-1.6298,1.4565,9.3119e-09,-0.81488,0,0,0.1,-0,-0,0.66667
0.58781,0.20525,5.8781,-0.44212,-38.413,201.76,6.9302,-2.3101,-1.3022,9.2402,6.2972e-13,-0.6511,0,0,0.1,-0,-0,0.66667
0.89189,0.26146,8.9189,-0.35781,-9.5965,17.061,8.51,-2.8367,-1.5473,11.347,-2.7481e-08,-0.77367,0,0,0.1,-0,-0,0.66667
0.092472,0.81384,0.92472,0.47077,62.066,778.89,-1.1609,0.38696,-1.2159,-1.5478,-2.8019e-08,-0.60793,0,0,0.1,-0,-0,0.66667
0.48349,0.19925,4.8349,-0.45113,-45.921,302.23,5.8163,-1.9388,-1.2796,7.7551,-1.5001e-12,-0.6398,0,0,0.1,-0,-0,0.66667
0.88532,0.85798,8.8532,0.53698,15.328,19.625,-12.677,4.2257,-0.97234,-16.903,5.6894e-09,-0.48617,0,0,0.1,-0,-0,0.66667
0.95716,0.88716,9.5716,0.58073,6.3568,4.4538,-14.823,4.9409,-0.79959,-19.764,5.1163e-06,-0.3998,0,0,0.1,-0,-0,0.66667
0.99077,0.98505,9.9077,0.72757,1.7568,2.5748,-19.223,6.4076,-0.11509,-25.63,5.8046e-05,-0.057543,0,0,0.1,1.8948e-15,0,0.66667
0.36192,0.079453,3.6192,-0.63082,-72.985,437.08,6.0881,-2.0294,-0.58555,8.1175,-5.5369e-12,-0.29278,0,0,0.1,4.737e-16,0,0.66667
0.58532,0.88982,5.8532,0.58474,51.121,204.35,-9.1269,3.0423,-0.78107,-12.169,-9.3259e-14,-0.39053,0,0,0.1,-0,-0,0.66667
0.38493,0.55988,3.8493,0.089824,10.15,409.73,-0.92201,0.30734,-1.9698,-1.2294,-9.0862e-12,-0.98491,0,0,0.1,4.737e-16,0,0.66667
0.13587,0.62579,1.3587,0.18868,24.59,721.11,-0.68363,0.22788,-1.8729,-0.91151,-5.4049e-09,-0.93646,0,0,0.1,-4.737e-16,0,0.66667
0.76152,0.28575,7.6152,-0.32138,-17.848,73.528,6.5264,-2.1755,-1.6322,8.7018,2.6942e-11,-0.81609,0,0,0.1,-1.8948e-15,0,0.66667
0.22086,0.91893,2.2086,0.6284,79.59,610.62,-3.701,1.2337,-0.59709,-4.9346,1.6977e-10,-0.29855,0,0,0.1,-0,-0,0.66667
0.6968,0.81949,6.968,0.47924,32.709,115.19,-8.9048,2.9683,-1.1809,-11.873,-5.6577e-13,-0.59047,0,0,0.1,-0,-0,0.66667
0.80946,0.14408,8.0946,-0.53388,-24.389,49.057,11.524,-3.8414,-0.98641,15.365,1.662e-10,-0.49321,0,0,0.1,-0,-0,0.66667
0.27256,0.92771,2.7256,0.64157,79.087,545.28,-4.6631,1.5544,-0.53356,-6.2175,6.7133e-12,-0.26678,0,0,0.1,-0,-0,0.66667
0.5085,0.79705,5.085,0.44557,43.88,276.74,-6.042,2.014,-1.2909,-8.056,-1.0116e-12,-0.64544,0,0,0.1,-9.4739e-16,0,0.66667
0.42229,0.85988,4.2229,0.53982,58.989,368.03,-6.079,2.0263,-0.96789,-8.1054,2.8542e-12,-0.48395,0,0,0.1,-9.4739e-16,0,0.66667
0.054664,0.58636,0.54664,0.12953,17.146,829.47,-0.18882,0.062941,-1.9375,-0.25176,1.646e-08,-0.96877,0,0,0.1,-0,-0,0.66667
0.74161,0.59326,7.4161,0.13989,8.3153,85.08,-2.7666,0.92219,-1.9288,-3.6888,-1.2635e-11,-0.96439,0,0,0.1,1.4485e-15,0,0.66667
0.80872,0.17886,8.0872,-0.48171,-22.056,49.219,10.389,-3.4628,-1.1742,13.851,-5.0733e-12,-0.58708,0,0,0.1,-9.4739e-16,0,0.66667
0.53813,0.90951,5.3813,0.61427,58.067,248.09,-8.8149,2.9383,-0.6563,-11.753,9.5923e-14,-0.32815,0,0,0.1,-1.8948e-15,0,0.66667
0.75933,0.96086,7.5933,0.69129,38.966,76.055,-13.998,4.666,-0.2983,-18.664,4.1704e-11,-0.14915,0,0,0.1,-0,-0,0.66667
0.041085,0.10174,0.41085,-0.59739,-79.39,847.79,0.65451,-0.21816,-0.72878,0.87268,7.0488e-06,-0.36439,0,0,0.1,-0,-0,0.66667
0.18226,0.92309,1.8226,0.63464,81.702,660.48,-3.0845,1.0282,-0.56556,-4.1127,-2.7921e-09,-0.28278,0,0,0.1,-0,-0,0.66667
0.5671,0.98912,5.671,0.73368,66.345,221.3,-11.095,3.6984,-0.084347,-14.794,1.0036e-12,-0.042173,0,0,0.1,-4.737e-16,0,0.66667
0.62121,0.67436,6.2121,0.26155,21.281,172.71,-4.3326,1.4442,-1.7557,-5.7768,-6.8123e-13,-0.87785,0,0,0.1,-0,-0,0.66667
0.78202,0.95959,7.8202,0.68938,35.642,63.491,-14.376,4.7921,-0.31387,-19.168,3.509e-10,-0.15693,0,0,0.1,-9.4739e-16,0,0.66667
0.60149,0.78602,6.0149,0.42903,36.34,189.76,-6.8816,2.2939,-1.3431,-9.1754,-6.9722e-14,-0.67154,0,0,0.1,-0,-0,0.66667
0.56027,0.64982,5.6027,0.22473,20.439,226.38,-3.3575,1.1192,-1.8219,-4.4767,-2.776e-12,-0.91095,0,0,0.1,3.3175e-16,0,0.66667
0.66962,0.97796,6.6962,0.71694,52.693,135.72,-12.802,4.2674,-0.17356,-17.069,1.3376e-12,-0.086779,0,0,0.1,-1.8948e-15,9.8465e-17,0.66667
0.18539,0.29702,1.8539,-0.30447,-39.053,656.15,1.5052,-0.50175,-1.6714,2.007,4.8272e-11,-0.83572,0,0,0.1,-2.3685e-16,0,0.66667
0.14813,0.40063,1.4813,-0.14906,-19.354,704.91,0.5888,-0.19627,-1.9184,0.78506,2.3e-09,-0.95922,0,0,0.1,-3.0712e-17,0,0.66667
0.2334,0.74877,2.334,0.37315,46.88,594.35,-2.3225,0.77416,-1.5093,-3.0967,3.1179e-11,-0.75465,0,0,0.1,2.3685e-16,0,0.66667
0.88661,0.57757,8.8661,0.11635,3.2526,18.156,-2.751,0.91699,-1.9505,-3.6679,8.8891e-09,-0.97525,0,0,0.1,-0,-0,0.66667
0.62684,0.65672,6.2684,0.23508,18.905,168.01,-3.9296,1.3099,-1.8066,-5.2395,-1.1149e-12,-0.90329,0,0,0.1,-0,-0,0.66667
0.65717,0.14509,6.5717,-0.53236,-40.172,144.48,9.3294,-3.1098,-0.99551,12.439,-1.3998e-12,-0.49775,0,0,0.1,-0,-0,0.66667
0.3064,0.70785,3.064,0.31177,37.517,503.1,-2.5474,0.84913,-1.6517,-3.3965,-3.7521e-12,-0.82583,0,0,0.1,-0,-0,0.66667
0.25905,0.83032,2.5905,0.49548,61.467,562,-3.4227,1.1409,-1.1241,-4.5637,-4.1842e-12,-0.56204,0,0,0.1,-4.737e-16,0,0.66667
0.59709,0.85008,5.9709,0.52512,44.898,193.82,-8.3611,2.787,-1.0195,-11.148,1.4655e-12,-0.50977,0,0,0.1,-0,-0,0.66667
0.21493,0.16032,2.1493,-0.50952,-64.637,618.1,2.9202,-0.97341,-1.0767,3.8936,-1.604e-10,-0.53836,0,0,0.1,-4.737e-16,0,0.66667
0.93549,0.81204,9.3549,0.46806,7.6255,7.2542,-11.676,3.8922,-1.2239,-15.569,2.0956e-07,-0.61193,0,0,0.1,-5.3291e-16,0,0.66667
0.80368,0.67108,8.0368,0.25662,11.984,51.044,-5.4997,1.8332,-1.7627,-7.3329,-8.3817e-12,-0.88136,0,0,0.1,-0,-0,0.66667
0.077647,0.31879,0.77647,-0.27182,-35.886,798.66,0.56283,-0.18761,-1.7418,0.75044,8.3006e-08,-0.8709,0,0,0.1,-0,-0,0.66667
0.17487,0.50876,1.7487,0.013146,1.6915,669.79,-0.061303,0.020434,-1.9995,-0.081737,-1.0753e-10,-0.99976,0,0,0.1,-0,-0,0.66667
0.48717,0.46685,4.8717,-0.049732,-5.0283,297.99,0.64608,-0.21536,-1.9926,0.86144,-3.2818e-12,-0.9963,0,0,0.1,1.0658e-15,0,0.66667
0.26934,0.37478,2.6934,-0.18783,-23.125,548.85,1.3491,-0.44969,-1.8752,1.7987,-9.8285e-12,-0.93759,0,0,0.1,-5.4771e-16,0,0.66667
0.2902,0.61015,2.902,0.16523,20.084,522.91,-1.2787,0.42622,-1.8998,-1.7049,-2.0172e-12,-0.94991,0,0,0.1,-0,-0,0.66667
0.96137,0.73957,9.6137,0.35936,3.469,3.0632,-9.2127,3.0709,-1.5378,-12.284,-1.4225e-08,-0.76889,0,0,0.1,-9.4739e-16,0,0.66667
0.34206,0.85788,3.4206,0.53682,63.048,460.36,-4.8966,1.6322,-0.97711,-6.5288,-3.4048e-12,-0.48856,0,0,0.1,-4.737e-16,2.4204e-17,0.66667
0.8359,0.38975,8.359,-0.16538,-6.5515,36.369,3.6863,-1.2288,-1.8995,4.9151,-5.5903e-10,-0.94974,0,0,0.1,-0,-0,0.66667
0.34459,0.88581,3.4459,0.57872,67.863,457.42,-5.3179,1.7726,-0.81256,-7.0905,-1.8496e-12,-0.40628,0,0,0.1,-0,-0,0.66667
0.72145,0.95561,7.2145,0.68341,43.626,99.293,-13.148,4.3826,-0.33964,-17.53,5.8353e-12,-0.16982,0,0,0.1,-9.4739e-16,0,0.66667
0.18399,0.30215,1.8399,-0.29678,-38.085,657.97,1.4561,-0.48538,-1.6862,1.9415,6.2597e-11,-0.84311,0,0,0.1,2.3685e-16,0,0.66667
0.68595,0.46095,6.8595,-0.058575,-4.1012,122.19,1.0715,-0.35715,-1.9902,1.4286,-1.3041e-12,-0.99509,0,0,0.1,9.4739e-16,0,0.66667
0.57425,0.40398,5.7425,-0.14402,-12.79,213.47,2.2055,-0.73517,-1.9263,2.9407,1.954e-14,-0.96314,0,0,0.1,-7.7738e-16,0,0.66667
0.72788,0.25412,7.2788,-0.36881,-22.959,94.073,7.1587,-2.3862,-1.5142,9.5449,2.3794e-12,-0.75712,0,0,0.1,1.8948e-15,0,0.66667
0.43689,0.28551,4.3689,-0.32173,-34.556,351.6,3.7483,-1.2494,-1.6365,4.9978,3.7503e-13,-0.81826,0,0,0.1,-9.4739e-16,0,0.66667
0.94886,0.7014,9.4886,0.3021,3.8667,4.5367,-7.644,2.548,-1.6739,-10.192,3.8909e-09,-0.83696,0,0,0.1,1.8948e-15,0,0.66667
0.98993,0.48451,9.8993,-0.02324,-0.048526,0.27957,0.61351,-0.2045,-1.9955,0.81801,-3.2805e-06,-0.99774,0,0,0.1,7.2246e-16,0,0.66667
0.37841,0.39853,3.7841,-0.1522,-17.302,417.27,1.5358,-0.51193,-1.9174,2.0477,-3.3793e-12,-0.95869,0,0,0.1,2.3685e-16,0,0.66667
0.75586,0.011683,7.5586,-0.73248,-41.846,78.263,14.764,-4.9214,-0.089703,19.685,-1.9727e-11,-0.044851,0,0,0.1,-0,-0,0.66667
0.93393,0.78293,9.3393,0.42439,7.0622,7.3764,-10.569,3.5231,-1.3601,-14.092,1.9751e-07,-0.68005,0,0,0.1,3.7896e-15,0,0.66667
0.81266,0.43779,8.1266,-0.09331,-4.1712,46.556,2.0221,-0.67404,-1.9752,2.6962,1.4274e-10,-0.9876,0,0,0.1,-0,-0,0.66667
0.44965,0.018959,4.4965,-0.72156,-76.725,338.6,8.652,-2.884,-0.1481,11.536,-2.8342e-12,-0.074051,0,0,0.1,-0,1.1303e-16,0.66667
0.0019673,0.20045,0.019673,-0.44933,-59.742,900.41,0.023571,-0.0078558,-1.2835,0.031429,1.8369e-06,-0.64174,0,0,0.1,-0,-0,0.66667
0.94677,0.115,9.4677,-0.5775,-7.8424,5.8686,14.58,-4.8601,-0.81142,19.44,4.7066e-07,-0.40571,0,0,0.1,-9.4739e-16,0,0.66667
0.34939,0.57471,3.4939,0.11206,13.054,451.23,-1.0441,0.34804,-1.9528,-1.3922,-8.7909e-12,-0.97639,0,0,0.1,-0,-0,0.66667
0.037035,0.09806,0.37035,-0.60291,-80.153,853.23,0.59544,-0.19848,-0.70572,0.79392,5.0931e-06,-0.35286,0,0,0.1,1.1842e-16,0,0.66667
0.24443,0.3046,2.4443,-0.2931,-36.6,580.26,1.9105,-0.63683,-1.6924,2.5473,-2.3391e-11,-0.84618,0,0,0.1,-0,-0,0.66667
0.96294,0.67631,9.6294,0.26446,2.43,2.6329,-6.791,2.2637,-1.7487,-9.0547,-2.2479e-07,-0.87436,0,0,0.1,9.4739e-16,0,0.66667
0.46377,0.11732,4.6377,-0.57402,-59.935,323.14,7.099,-2.3663,-0.82669,9.4653,-4.0563e-12,-0.41335,0,0,0.1,-4.737e-16,0,0.66667
0.12421,0.10987,1.2421,-0.5852,-76.69,736.72,1.9384,-0.64612,-0.78566,2.5845,1.3047e-08,-0.39283,0,0,0.1,-2.3685e-16,1.1831e-16,0.66667
0.66748,0.057237,6.6748,-0.66414,-49.016,137.1,11.821,-3.9405,-0.43072,15.762,3.3218e-13,-0.21536,0,0,0.1,-4.737e-16,0,0.66667
0.013877,0.98545,0.13877,0.72818,97.048,884.39,-0.26943,0.089792,-0.11651,-0.35926,-2.9833e-05,-0.058253,0,0,0.1,2.9606e-17,-1.1786e-16,0.66667
0.79892,0.42357,7.9892,-0.11465,-5.4643,53.193,2.4426,-0.81419,-1.9544,3.2568,-1.4374e-11,-0.97722,0,0,0.1,-9.4739e-16,0,0.66667
0.53493,0.28333,5.3493,-0.32501,-30.78,250.52,4.6362,-1.5454,-1.6247,6.1817,1.3278e-13,-0.81235,0,0,0.1,-0,-0,0.66667
0.85021,0.49177,8.5021,-0.012342,-0.44887,30.545,0.27982,-0.093274,-1.9968,0.3731,2.0693e-09,-0.9984,0,0,0.1,1.8948e-15,0,0.66667
0.2292,0.39748,2.292,-0.15379,-19.342,599.58,0.93994,-0.31331,-1.9139,1.2533,-3.6131e-11,-0.95694,0,0,0.1,-2.3685e-16,0,0.66667
0.090134,0.75312,0.90134,0.37968,50.047,781.98,-0.91258,0.30419,-1.4876,-1.2168,-3.5589e-08,-0.74381,0,0,0.1,2.3685e-16,0,0.66667
0.6928,0.87025,6.928,0.55538,38.362,118.25,-10.26,3.4201,-0.9017,-13.68,4.9027e-12,-0.45085,0,0,0.1,-4.737e-16,0,0.66667
0.81499,0.88573,8.1499,0.57859,25.768,46.656,-12.575,4.1915,-0.81038,-16.766,-9.2728e-10,-0.40519,0,0,0.1,-0,-0,0.66667
0.63154,0.75341,6.3154,0.38012,30.303,164.41,-6.4017,2.1339,-1.4842,-8.5355,-1.2959e-12,-0.74212,0,0,0.1,1.8948e-15,0,0.66667
0.77283,0.25272,7.7283,-0.37091,-19.754,67.291,7.6441,-2.548,-1.5088,10.192,4.1614e-11,-0.75438,0,0,0.1,-1.8948e-15,0,0.66667
0.63111,0.69567,6.3111,0.2935,23.402,164.6,-4.9395,1.6465,-1.6912,-6.586,3.0953e-13,-0.8456,0,0,0.1,-0,-0,0.66667
0.89066,0.21171,8.9066,-0.43243,-11.751,17.648,10.271,-3.4235,-1.3404,13.694,-2.5655e-08,-0.67021,0,0,0.1,9.4739e-16,0,0.66667
0.99276,0.68328,9.9276,0.27491,0.39005,0.50578,-7.278,2.426,-1.7289,-9.704,6.1359e-07,-0.86447,0,0,0.1,-0,-0,0.66667
0.17377,0.15252,1.7377,-0.52122,-67.241,671.44,2.4153,-0.80509,-1.0364,3.2204,5.8806e-10,-0.51822,0,0,0.1,2.9606e-16,0,0.66667
0.54939,0.89922,5.4939,0.59883,55.618,237.33,-8.7731,2.9244,-0.72597,-11.697,-1.0258e-12,-0.36298,0,0,0.1,-4.737e-16,0,0.66667
0.11999,0.51846,1.1999,0.027697,3.6237,742.13,-0.088628,0.029543,-1.9951,-0.11817,1.6345e-09,-0.99755,0,0,0.1,-0,-0,0.66667
0.76715,0.62586,7.6715,0.18879,10.255,70.103,-3.8621,1.2874,-1.8768,-5.1495,-1.4065e-11,-0.9384,0,0,0.1,-0,-0,0.66667
0.22811,0.13594,2.2811,-0.54608,-68.873,601.26,3.3218,-1.1073,-0.9369,4.429,-1.7345e-10,-0.46845,0,0,0.1,-0,-0,0.66667
0.11092,0.93622,1.1092,0.65434,86.08,754.41,-1.9354,0.64515,-0.48107,-2.5806,1.3615e-07,-0.24053,0,0,0.1,2.8126e-16,0,0.66667
0.96882,0.67706,9.6882,0.2656,2.0383,2.0281,-6.8618,2.2873,-1.7541,-9.149,-4.8266e-07,-0.87704,0,0,0.1,-0,-0,0.66667
0.44753,0.59294,4.4753,0.13941,14.786,339.89,-1.6637,0.55456,-1.9298,-2.2182,-6.5226e-13,-0.96491,0,0,0.1,-3.2215e-16,0,0.66667
0.82994,0.93803,8.2994,0.65705,27.174,40.375,-14.542,4.8472,-0.46813,-19.389,-2.1152e-08,-0.23406,0,0,0.1,-0,-0,0.66667
0.025977,0.7558,0.25977,0.38369,50.959,868.08,-0.2658,0.0886,-1.4748,-0.35439,1.5887e-06,-0.7374,0,0,0.1,-0,-0,0.66667
0.090511,0.88705,0.90511,0.58058,76.64,781.56,-1.4013,0.4671,-0.80112,-1.8684,-8.0144e-08,-0.40056,0,0,0.1,-0,-0,0.66667
0.81523,0.42493,8.1523,-0.1126,-4.9714,45.382,2.4479,-0.81595,-1.9552,3.2638,1.8483e-11,-0.97758,0,0,0.1,-9.4739e-16,0,0.66667
0.90936,0.78987,9.0936,0.4348,9.8644,12.67,-10.544,3.5146,-1.3278,-14.058,2.2353e-08,-0.66391,0,0,0.1,-1.8948e-15,0,0.66667
0.068241,0.54807,0.68241,0.072099,9.5267,811.24,-0.1312,0.043734,-1.9788,-0.17493,5.3136e-09,-0.98941,0,0,0.1,-0,-0,0.66667
0.65027,0.57187,6.5027,0.1078,8.2341,149.05,-1.8694,0.62312,-1.9561,-2.4925,1.2303e-12,-0.97806,0,0,0.1,-0,-0,0.66667
0.55332,0.81868,5.5332,0.47802,44.057,233.31,-7.0532,2.3511,-1.1852,-9.4042,1.7e-12,-0.59258,0,0,0.1,-1.8948e-15,0,0.66667
0.20654,0.83462,2.0654,0.50193,63.908,628.89,-2.7645,0.9215,-1.1038,-3.686,6.4148e-11,-0.55191,0,0,0.1,-0,-0,0.66667
0.4248,0.36788,4.248,-0.19818,-21.549,364.78,2.245,-0.74834,-1.8608,2.9933,-4.2506e-12,-0.93038,0,0,0.1,-0,-0,0.66667
0.4726,0.24122,4.726,-0.38816,-40.03,313.45,4.8919,-1.6306,-1.4634,6.5226,-3.201e-12,-0.73171,0,0,0.1,-4.737e-16,0,0.66667
0.011484,0.19768,0.11484,-0.45348,-60.288,887.59,0.13887,-0.04629,-1.2676,0.18516,1.244e-06,-0.63378,0,0,0.1,-0,-0,0.66667
0.54494,0.030193,5.4494,-0.70471,-66.01,241.87,10.241,-3.4136,-0.23706,13.654,-1.2683e-12,-0.11853,0,0,0.1,7.1054e-16,-1.5487e-17,0.66667
0.7824,0.56254,7.824,0.093817,4.7977,61.666,-1.9574,0.65247,-1.973,-2.6099,-6.4364e-11,-0.98652,0,0,0.1,1.8948e-15,0,0.66667
0.91446,0.69653,9.1446,0.2948,6.2913,11.042,-7.189,2.3963,-1.688,-9.5853,5.2503e-08,-0.84402,0,0,0.1,-1.8948e-15,0,0.66667
0.046043,0.5624,0.46043,0.093599,12.4,841.06,-0.11492,0.038307,-1.9738,-0.15323,-9.8318e-08,-0.98688,0,0,0.1,-2.1279e-17,0,0.66667
0.79178,0.84718,7.9178,0.52077,25.748,57.701,-10.996,3.6652,-1.0345,-14.661,-6.0878e-11,-0.51724,0,0,0.1,-0,-0,0.66667
0.43939,0.49438,4.3939,-0.0084251,-0.90155,348.68,0.098717,-0.032906,-2.0018,0.13162,-3.1482e-12,-1.0009,0,0,0.1,-4.737e-16,0,0.66667
0.70462,0.8257,7.0462,0.48855,32.635,109.81,-9.1798,3.0599,-1.1534,-12.24,-9.2371e-13,-0.57672,0,0,0.1,-0,-0,0.66667
0.60938,0.72096,6.0938,0.33144,27.625,182.78,-5.3859,1.7953,-1.6155,-7.1812,8.8152e-13,-0.80776,0,0,0.1,-0,-0,0.66667
0.91416,0.091372,9.1416,-0.61294,-13.31,12.286,14.942,-4.9807,-0.66213,19.923,7.4244e-09,-0.33107,0,0,0.1,1.1842e-15,0,0.66667
0.67954,0.21584,6.7954,-0.42624,-30.42,127.39,7.724,-2.5747,-1.3519,10.299,1.4166e-13,-0.67594,0,0,0.1,-9.4739e-16,0,0.66667
0.20458,0.61786,2.0458,0.17679,22.488,631.22,-0.96448,0.32149,-1.8915,-1.286,2.2153e-12,-0.94574,0,0,0.1,2.3685e-16,0,0.66667
0.98969,0.11041,9.8969,-0.58438,-1.4638,1.7892,15.423,-5.141,-0.78331,20.564,-1.7063e-05,-0.39165,0,0,0.1,-0,-0,0.66667
0.80836,0.96883,8.0836,0.70325,32.446,50.331,-15.159,5.0531,-0.24178,-20.213,-2.1354e-10,-0.12089,0,0,0.1,-0,-0,0.66667
0.05115,0.84838,0.5115,0.52257,69.337,834.25,-0.71279,0.2376,-1.0283,-0.95039,-2.6031e-07,-0.51413,0,0,0.1,1.1842e-16,0,0.66667
0.99025,0.55421,9.9025,0.081317,0.1636,0.29366,-2.1473,0.71576,-1.9741,-2.8631,-4.032e-08,-0.98704,0,0,0.1,9.4739e-16,0,0.66667
0.084374,0.42204,0.84374,-0.11695,-15.415,789.63,0.26313,-0.087709,-1.9484,0.35084,2.0233e-08,-0.97421,0,0,0.1,-0,-0,0.66667
0.41597,0.6851,4.1597,0.27765,30.475,374.66,-3.0799,1.0266,-1.7243,-4.1065,-6.5445e-12,-0.86217,0,0,0.1,5.9212e-16,0,0.66667
0.88805,0.48665,8.8805,-0.020019,-0.55251,17.675,0.47408,-0.15803,-1.999,0.6321,-4.5153e-09,-0.99949,0,0,0.1,-0,-0,0.66667
0.76211,0.85011,7.6211,0.52516,29.196,73.775,-10.673,3.5576,-1.0192,-14.231,-7.8106e-12,-0.50959,0,0,0.1,-1.8948e-15,0,0.66667
0.67305,0.223,6.7305,-0.4155,-30.136,132.15,7.4573,-2.4858,-1.3897,9.9431,9.4191e-13,-0.69484,0,0,0.1,-1.8948e-15,0,0.66667
0.53369,0.95804,5.3369,0.68706,65.451,252.59,-9.7781,3.2594,-0.32233,-13.037,1.8714e-12,-0.16117,0,0,0.1,-0,-0,0.66667
0.34698,0.67441,3.4698,0.26161,30.548,454.18,-2.4206,0.80688,-1.7562,-3.2275,-6.3543e-12,-0.87811,0,0,0.1,-4.737e-16,0,0.66667
0.89994,0.24899,8.9994,-0.37652,-9.3791,14.887,9.0358,-3.0119,-1.4945,12.048,-4.054e-08,-0.74723,0,0,0.1,4.737e-16,0,0.66667
0.81896,0.76853,8.1896,0.40279,17.519,44.22,-8.7965,2.9322,-1.4202,-11.729,8.388e-11,-0.71008,0,0,0.1,9.4739e-16,0,0.66667
0.94589,0.56327,9.4589,0.094906,1.2778,4.6375,-2.3939,0.79796,-1.9663,-3.1918,-1.0397e-07,-0.98314,0,0,0.1,3.7896e-15,0,0.66667
0.39956,0.6123,3.9956,0.16845,18.782,393.05,-1.7949,0.59829,-1.896,-2.3932,-7.9866e-12,-0.94802,0,0,0.1,-0,-0,0.66667
0.23362,0.88896,2.3362,0.58343,73.411,594.27,-3.6347,1.2116,-0.79308,-4.8463,-2.5535e-11,-0.39654,0,0,0.1,-4.737e-16,0,0.66667
0.72322,0.45298,7.2322,-0.070529,-4.4444,96.656,1.3602,-0.4534,-1.9805,1.8136,-3.3806e-13,-0.99026,0,0,0.1,9.4739e-16,0,0.66667
0.6891,0.71709,6.891,0.32564,22.647,120.25,-5.9839,1.9946,-1.6262,-7.9785,-1.2323e-12,-0.8131,0,0,0.1,1.1842e-15,0,0.66667
0.54337,0.36183,5.4337,-0.20725,-19.363,242.27,3.003,-1.001,-1.8465,4.004,-3.8396e-12,-0.92325,0,0,0.1,9.4739e-16,0,0.66667
0.53711,0.91797,5.3711,0.62695,59.368,249.11,-8.9797,2.9932,-0.59977,-11.973,-3.2934e-12,-0.29988,0,0,0.1,9.4739e-16,0,0.66667
0.80969,0.85471,8.0969,0.53207,24.278,48.942,-11.488,3.8294,-0.99365,-15.318,-1.6771e-10,-0.49682,0,0,0.1,1.8948e-15,0,0.66667
0.79958,0.93922,7.9958,0.65883,31.594,54.359,-14.048,4.6826,-0.45824,-18.73,-3.122e-09,-0.22912,0,0,0.1,-0,-0,0.66667
0.84777,0.23007,8.4777,-0.40489,-15.017,32.103,9.1535,-3.0512,-1.4159,12.205,-1.2908e-09,-0.70794,0,0,0.1,-0,-0,0.66667
0.19036,0.017808,1.9036,-0.72329,-92.914,650.05,3.6716,-1.2239,-0.13995,4.8955,-1.9413e-11,-0.069974,0,0,0.1,4.737e-16,0,0.66667
0.20027,0.21397,2.0027,-0.42905,-54.744,636.92,2.2914,-0.7638,-1.3463,3.0552,-4.6654e-11,-0.67315,0,0,0.1,-2.3685e-16,0,0.66667
0.77366,0.37533,7.7366,-0.18701,-9.9075,66.478,3.8582,-1.2861,-1.874,5.1443,1.8593e-11,-0.93701,0,0,0.1,-1.8948e-15,0,0.66667
0.56553,0.59476,5.6553,0.14214,12.811,221.44,-2.1436,0.71453,-1.9294,-2.8581,4.2033e-13,-0.96471,0,0,0.1,-1.8948e-15,0,0.66667
0.2689,0.094748,2.689,-0.60788,-75.068,549.79,4.3589,-1.453,-0.68712,5.8119,2.6783e-12,-0.34356,0,0,0.1,-0,-0,0.66667
0.47936,0.47423,4.7936,-0.038656,-3.9473,306.08,0.49413,-0.16471,-1.9932,0.65884,-6.1781e-12,-0.99658,0,0,0.1,-0,-0,0.66667
0.67466,0.39539,6.7466,-0.15692,-11.312,130.51,2.823,-0.94101,-1.9127,3.7641,-1.3696e-12,-0.95635,0,0,0.1,-0,-0,0.66667
0.68423,0.27147,6.8423,-0.34279,-24.15,123.78,6.2547,-2.0849,-1.5819,8.3396,7.0521e-13,-0.79095,0,0,0.1,-9.4739e-16,0,0.66667
0.82139,0.41112,8.2139,-0.13332,-5.7074,42.597,2.9202,-0.97338,-1.9345,3.8935,-2.3237e-10,-0.96724,0,0,0.1,-1.8948e-15,0,0.66667
0.36466,0.0047454,3.6466,-0.74288,-85.871,434.12,7.2241,-2.408,-0.036178,9.6321,-3.63e-12,-0.018089,0,0,0.1,-0,-0,0.66667
0.67275,0.24439,6.7275,-0.38341,-27.819,132.29,6.8784,-2.2928,-1.4811,9.1713,-2.0144e-12,-0.74057,0,0,0.1,1.4211e-15,0,0.66667
0.55308,0.35718,5.5308,-0.21423,-19.712,233.09,3.1596,-1.0532,-1.8339,4.2129,8.5709e-13,-0.91696,0,0,0.1,-9.4739e-16,0,0.66667
0.40642,0.13019,4.0642,-0.55471,-61.598,385.8,6.0118,-2.0039,-0.91122,8.0157,-6.2172e-15,-0.45561,0,0,0.1,-0,-0,0.66667
0.39796,0.34808,3.9796,-0.22788,-25.451,394.91,2.4183,-0.80609,-1.813,3.2244,-8.3711e-13,-0.9065,0,0,0.1,9.4739e-16,0,0.66667
0.61288,0.81187,6.1288,0.4678,38.778,180.11,-7.6454,2.5485,-1.2227,-10.194,-2.0473e-12,-0.61134,0,0,0.1,1.3915e-15,0,0.66667
0.061349,0.072785,0.61349,-0.64082,-85.021,820.6,1.0484,-0.34946,-0.54273,1.3978,-2.0175e-06,-0.27137,0,0,0.1,1.1842e-16,1.0459e-16,0.66667
0.7645,0.67763,7.645,0.26644,14.627,71.72,-5.4319,1.8106,-1.7505,-7.2425,-2.7208e-11,-0.87525,0,0,0.1,-0,-0,0.66667
0.23365,0.93904,2.3365,0.65856,82.927,594.33,-4.1032,1.3677,-0.46273,-5.471,2.348e-10,-0.23137,0,0,0.1,-0,-0,0.66667
0.16594,0.55642,1.6594,0.084633,10.925,681.49,-0.3745,0.12483,-1.9724,-0.49934,-6.9684e-10,-0.98618,0,0,0.1,2.1668e-16,0,0.66667
0.42348,0.15657,4.2348,-0.51515,-56.209,366.66,5.8175,-1.9392,-1.0599,7.7567,-8.3622e-13,-0.52997,0,0,0.1,-0,-0,0.66667
0.46845,0.72071,4.6845,0.33106,34.299,317.74,-4.1356,1.3785,-1.6159,-5.5141,-9.5923e-13,-0.80793,0,0,0.1,-0,-0,0.66667
0.27444,0.64514,2.7444,0.21771,26.726,542.5,-1.5933,0.5311,-1.8285,-2.1244,8.6597e-15,-0.91423,0,0,0.1,2.3685e-16,0,0.66667
0.31013,0.37143,3.1013,-0.19285,-23.135,498.46,1.5949,-0.53164,-1.8694,2.1265,-6.8026e-12,-0.93472,0,0,0.1,-5.003e-16,0,0.66667
0.67315,0.48338,6.7315,-0.024926,-1.803,131.56,0.44743,-0.14914,-2.0002,0.59658,-5.9877e-13,-1.0001,0,0,0.1,-0,-0,0.66667
0.030054,0.92243,0.30054,0.63365,84.304,862.62,-0.50784,0.16929,-0.57497,-0.67711,1.5022e-05,-0.28749,0,0,0.1,-5.9212e-17,-1.1827e-16,0.66667
0.65518,0.84641,6.5518,0.51961,39.384,145.98,-9.0785,3.0262,-1.044,-12.105,-1.1058e-12,-0.52198,0,0,0.1,-0,1.3601e-16,0.66667
0.52145,0.99389,5.2145,0.74083,71.908,264.69,-10.302,3.4339,-0.046482,-13.735,3.8547e-12,-0.023241,0,0,0.1,-1.4211e-15,0,0.66667
0.47871,0.60007,4.7871,0.15011,15.344,306.8,-1.9162,0.63875,-1.9178,-2.555,3.0758e-12,-0.95891,0,0,0.1,-0,-0,0.66667
0.72049,0.077973,7.2049,-0.63304,-40.484,99.706,12.163,-4.0542,-0.57678,16.217,1.3993e-11,-0.28839,0,0,0.1,-0,-0,0.66667
0.68825,0.062768,6.8825,-0.65585,-45.934,121.85,12.037,-4.0123,-0.47564,16.049,2.6255e-12,-0.23782,0,0,0.1,-1.8948e-15,0,0.66667
0.064811,0.85186,0.64811,0.52779,69.921,815.92,-0.91217,0.30406,-1.0107,-1.2162,-1.5287e-07,-0.50535,0,0,0.1,-0,-0,0.66667
0.80024,0.17718,8.0024,-0.48423,-23.054,53.328,10.333,-3.4444,-1.1659,13.778,1.3269e-10,-0.58293,0,0,0.1,9.4739e-16,0,0.66667
0.039175,0.31591,0.39175,-0.27613,-36.622,850.31,0.28847,-0.096155,-1.7267,0.38462,-1.5639e-07,-0.86333,0,0,0.1,-0,-0,0.66667
0.027013,0.73317,0.27013,0.34976,46.441,866.68,-0.25194,0.083982,-1.5635,-0.33593,1.1939e-06,-0.78174,0,0,0.1,-0,-0,0.66667
0.52587,0.23344,5.2587,-0.39983,-38.402,259.46,5.6069,-1.869,-1.4291,7.4759,-2.482e-12,-0.71455,0,0,0.1,-0,-0,0.66667
0.7348,0.49708,7.348,-0.0043849,-0.26642,89.243,0.08592,-0.02864,-2.0051,0.11456,-5.5446e-12,-1.0025,0,0,0.1,1.1842e-15,0,0.66667
0.50557,0.70884,5.0557,0.31326,30.941,279.45,-4.2234,1.4078,-1.6487,-5.6312,-4.1283e-12,-0.82435,0,0,0.1,4.737e-16,0,0.66667
0.29367,0.9591,2.9367,0.68866,83.839,519.21,-5.393,1.7977,-0.31358,-7.1906,4.0772e-12,-0.15679,0,0,0.1,2.3685e-16,-1.0108e-16,0.66667
0.18618,0.37326,1.8618,-0.19011,-24.365,655.07,0.94386,-0.31462,-1.8752,1.2585,-1.8042e-11,-0.93759,0,0,0.1,-2.9606e-16,0,0.66667
0.66274,0.91465,6.6274,0.62198,46.392,140.52,-10.992,3.6641,-0.62182,-14.656,-3.7161e-12,-0.31091,0,0,0.1,1.8948e-15,0,0.66667
0.94213,0.57844,9.4213,0.11766,1.6964,5.2574,-2.9561,0.98536,-1.9488,-3.9414,-3.5829e-08,-0.97442,0,0,0.1,-0,-0,0.66667
0.15878,0.65999,1.5878,0.23998,31.065,690.92,-1.0161,0.3387,-1.7967,-1.3548,-1.2008e-09,-0.89833,0,0,0.1,4.737e-16,0,0.66667
0.27586,0.95722,2.7586,0.68583,84.42,541.23,-5.0453,1.6818,-0.3252,-6.727,-3.2401e-12,-0.1626,0,0,0.1,-0,-0,0.66667
0.99109,0.69236,9.9109,0.28855,0.53887,0.59835,-7.626,2.542,-1.7017,-10.168,4.9775e-07,-0.85083,0,0,0.1,-0,-0,0.66667
0.83374,0.1849,8.3374,-0.47265,-19.047,37.997,10.508,-3.5028,-1.2043,14.011,1.5319e-10,-0.60213,0,0,0.1,1.1842e-15,0,0.66667
0.75016,0.47517,7.5016,-0.037248,-2.15,79.842,0.74512,-0.24837,-2.0002,0.9935,-1.395e-13,-1.0001,0,0,0.1,-1.8948e-15,0,0.66667
0.042073,0.27303,0.42073,-0.34046,-45.157,846.42,0.38198,-0.12733,-1.5862,0.50931,4.9537e-08,-0.79309,0,0,0.1,5.9212e-17,0,0.66667
0.027017,0.59236,0.27017,0.13854,18.38,866.66,-0.099809,0.03327,-1.9316,-0.13308,1.377e-07,-0.9658,0,0,0.1,1.1102e-17,0,0.66667
0.48721,0.38564,4.8721,-0.17154,-17.348,298,2.2287,-0.74291,-1.8956,2.9716,-2.8801e-12,-0.94778,0,0,0.1,9.4739e-16,0,0.66667
0.032196,0.75526,0.32196,0.38289,50.834,859.71,-0.32873,0.10958,-1.4825,-0.43831,6.9654e-07,-0.74125,0,0,0.1,-0,-0,0.66667
0.10153,0.068736,1.0153,-0.6469,-85.267,766.9,1.7514,-0.58379,-0.50942,2.3352,-2.8468e-07,-0.25471,0,0,0.1,-2.3685e-16,0,0.66667
0.56329,0.20885,5.6329,-0.43673,-39.586,223.93,6.5602,-2.1867,-1.3253,8.747,-2.5477e-12,-0.66267,0,0,0.1,-0,-0,0.66667
0.4278,0.23171,4.278,-0.40244,-43.671,361.7,4.5911,-1.5304,-1.4214,6.1215,-9.4236e-13,-0.71069,0,0,0.1,-0,-0,0.66667
0.79087,0.71861,7.9087,0.32791,16.22,57.59,-6.9155,2.3052,-1.6165,-9.2207,-5.1465e-11,-0.80826,0,0,0.1,1.3027e-15,0,0.66667
0.27399,0.50562,2.7399,0.0084336,1.0351,543,-0.061619,0.02054,-1.9972,-0.082159,-2.5177e-13,-0.9986,0,0,0.1,-1.8948e-15,0,0.66667
0.27245,0.50798,2.7245,0.011964,1.4698,544.92,-0.08692,0.028973,-1.9967,-0.11589,-5.4104e-13,-0.99837,0,0,0.1,-0,-0,0.66667
0.40582,0.33431,4.0582,-0.24854,-27.552,386.03,2.6896,-0.89655,-1.7846,3.5862,-1.1831e-12,-0.89231,0,0,0.1,-0,-0,0.66667
0.67323,0.63754,6.7323,0.20631,14.929,131.62,-3.7039,1.2346,-1.851,-4.9385,3.646e-13,-0.9255,0,0,0.1,-0,-0,0.66667
0.9815,0.87609,9.815,0.56413,2.6146,2.104,-14.765,4.9217,-0.86991,-19.687,-3.7544e-06,-0.43495,0,0,0.1,-3.7896e-15,-1.4298e-19,0.66667
0.39748,0.70174,3.9748,0.30262,33.826,395.52,-3.2076,1.0692,-1.6712,-4.2768,-5.7381e-12,-0.83562,0,0,0.1,-0,-0,0.66667
0.74457,0.49309,7.4457,-0.010359,-0.60942,83.202,0.20568,-0.068559,-1.9976,0.27424,-1.0222e-13,-0.99881,0,0,0.1,-4.737e-16,0,0.66667
0.85672,0.19742,8.5672,-0.45388,-15.931,28.877,10.369,-3.4564,-1.268,13.826,-2.699e-09,-0.63402,0,0,0.1,-0,-0,0.66667
0.67501,0.62333,6.7501,0.185,13.326,130.28,-3.3301,1.11,-1.8793,-4.4401,-5.6355e-13,-0.93966,0,0,0.1,3.5527e-16,0,0.66667
0.77949,0.11469,7.7949,-0.57797,-30.103,64.351,12.014,-4.0046,-0.81406,16.018,-8.4484e-12,-0.40703,0,0,0.1,-0,-0,0.66667
0.81192,0.48144,8.1192,-0.027839,-1.2487,46.874,0.60276,-0.20092,-2.001,0.80368,-2.6739e-11,-1.0005,0,0,0.1,-0,-0,0.66667
0.59693,0.29305,5.9693,-0.31043,-26.492,193.49,4.9414,-1.6471,-1.6571,6.5886,-9.4458e-13,-0.82853,0,0,0.1,-0,-0,0.66667
0.439,0.91189,4.39,0.61784,66.387,349.85,-7.2328,2.4109,-0.64549,-9.6437,1.3824e-12,-0.32275,0,0,0.1,-0,-0,0.66667
0.16875,0.6492,1.6875,0.22381,28.872,677.84,-1.0071,0.33571,-1.8221,-1.3428,-5.045e-10,-0.91103,0,0,0.1,-1.8504e-17,0,0.66667
0.78139,0.85571,7.8139,0.53357,27.551,63.161,-11.118,3.706,-0.99242,-14.824,-7.3399e-12,-0.49621,0,0,0.1,1.8948e-15,0,0.66667
0.19409,0.21275,1.9409,-0.43088,-55.117,644.93,2.2301,-0.74337,-1.3375,2.9735,-3.6191e-11,-0.66873,0,0,0.1,2.3685e-16,0,0.66667
0.99872,0.067145,9.9872,-0.64928,-0.12642,1.8916,17.292,-5.764,-0.50439,23.056,5.559e-05,-0.2522,0,0,0.1,-0,-0,0.66667
0.5426,0.83692,5.426,0.50537,47.383,243.51,-7.3125,2.4375,-1.0908,-9.75,-1.5148e-12,-0.54541,0,0,0.1,-0,-0,0.66667
0.0093665,0.55067,0.093665,0.076006,10.089,890.43,-0.018984,0.0063283,-1.9766,-0.025312,2.7906e-07,-0.9883,0,0,0.1,-0,-0,0.66667
0.4188,0.72064,4.188,0.33096,36.233,371.57,-3.6962,1.2321,-1.6116,-4.9282,-2.1485e-12,-0.80578,0,0,0.1,-0,-0,0.66667
0.24105,0.44452,2.4105,-0.083227,-10.404,584.47,0.53499,-0.17833,-1.9728,0.71331,-1.4419e-11,-0.98639,0,0,0.1,-4.737e-16,0,0.66667
0.053138,0.55421,0.53138,0.081314,10.764,831.52,-0.11522,0.038408,-1.9739,-0.15363,1.4393e-08,-0.98695,0,0,0.1,-5.9212e-17,0,0.66667
0.71613,0.503,7.1613,0.0045025,0.28982,101.3,-0.085983,0.028661,-2.0014,-0.11464,1.6431e-13,-1.0007,0,0,0.1,-0,-0,0.66667
0.31649,0.553,3.1649,0.079499,9.4922,490.68,-0.67095,0.22365,-1.9765,-0.8946,-2.6658e-12,-0.98823,0,0,0.1,2.3685e-16,0,0.66667
0.82107,0.47779,8.2107,-0.033312,-1.4279,42.681,0.72938,-0.24313,-1.9932,0.97251,-8.4777e-11,-0.99658,0,0,0.1,-0,-0,0.66667
0.76442,0.10543,7.6442,-0.59186,-32.671,72.713,12.065,-4.0216,-0.75716,16.086,-5.9531e-11,-0.37858,0,0,0.1,-0,-1.2741e-16,0.66667
0.065672,0.63317,0.65672,0.19975,26.41,814.7,-0.34981,0.1166,-1.8581,-0.46641,-5.3536e-08,-0.92906,0,0,0.1,-0,-0,0.66667
0.71272,0.63446,7.1272,0.20169,13.123,103.7,-3.8334,1.2778,-1.8528,-5.1112,-2.8157e-12,-0.92638,0,0,0.1,-0,-0,0.66667
0.19497,0.38152,1.9497,-0.17772,-22.698,643.66,0.92401,-0.308,-1.885,1.232,2.3549e-11,-0.9425,0,0,0.1,-0,-0,0.66667
0.77656,0.66816,7.7656,0.25223,13.22,64.996,-5.2233,1.7411,-1.7719,-6.9644,-3.6932e-11,-0.88595,0,0,0.1,-0,-0,0.66667
0.25043,0.5076,2.5043,0.011397,1.4176,572.58,-0.076109,0.02537,-2.004,-0.10148,6.3019e-12,-1.002,0,0,0.1,-0,-0,0.66667
0.40375,0.97453,4.0375,0.7118,79.394,389.17,-7.6636,2.5545,-0.19972,-10.218,2.3634e-12,-0.099861,0,0,0.1,-0,-0,0.66667
0.8833,0.82686,8.833,0.49029,14.204,20.05,-11.548,3.8495,-1.1421,-15.398,-1.3412e-09,-0.57103,0,0,0.1,-1.8948e-15,0,0.66667
0.65698,0.97919,6.5698,0.71879,54.438,145.31,-12.593,4.1976,-0.1666,-16.79,-4.4853e-13,-0.083298,0,0,0.1,-0,-0,0.66667
0.081501,0.95598,0.81501,0.68396,90.522,793.64,-1.4865,0.4955,-0.33608,-1.982,-1.0504e-07,-0.16804,0,0,0.1,-0,-0,0.66667
0.13451,0.37497,1.3451,-0.18754,-24.451,722.91,0.67269,-0.22423,-1.8737,0.89692,5.7754e-09,-0.93687,0,0,0.1,3.6545e-17,0,0.66667
0.007682,0.092827,0.07682,-0.61076,-81.31,892.72,0.12511,-0.041689,-0.67192,0.16682,2.0376e-05,-0.33596,0,0,0.1,-4.6259e-18,0,0.66667
0.98219,0.018289,9.8219,-0.72257,-3.3707,2.9519,18.925,-6.3084,-0.14461,25.234,8.3567e-06,-0.072306,0,0,0.1,-0,-1.1498e-16,0.66667
0.047674,0.90892,0.47674,0.61338,81.48,838.94,-0.7798,0.25993,-0.6667,-1.0397,-2.9559e-06,-0.33335,0,0,0.1,-0,-0,0.66667
0.10538,0.80014,1.0538,0.45022,59.194,761.67,-1.2651,0.42172,-1.278,-1.6869,-3.6151e-08,-0.63902,0,0,0.1,1.1842e-16,0,0.66667
0.45747,0.79156,4.5747,0.43734,45.94,329.56,-5.3351,1.7784,-1.3185,-7.1135,-4.4764e-13,-0.65924,0,0,0.1,-0,-0,0.66667
0.054401,0.030179,0.54401,-0.70473,-93.638,829.94,1.0223,-0.34079,-0.23235,1.3631,-1.2405e-05,-0.11618,0,0,0.1,1.1842e-16,0,0.66667
0.28909,0.93075,2.8909,0.64612,78.852,524.79,-4.9809,1.6603,-0.51293,-6.6412,-7.5837e-12,-0.25647,0,0,0.1,-6.5674e-17,0,0.66667
0.67797,0.15526,6.7797,-0.5171,-37.097,128.79,9.3489,-3.1163,-1.0479,12.465,-1.7026e-12,-0.52393,0,0,0.1,-5.9212e-17,0,0.66667
0.048629,0.10223,0.48629,-0.59665,-79.237,837.66,0.77372,-0.2579,-0.73622,1.0316,1.5652e-06,-0.36811,0,0,0.1,-0,-0,0.66667
0.45797,0.27436,4.5797,-0.33847,-35.506,328.86,4.1335,-1.3778,-1.5911,5.5114,-5.2975e-12,-0.79555,0,0,0.1,-0,-0,0.66667
0.57276,0.1317,5.7276,-0.55245,-49.348,215.55,8.4378,-2.8126,-0.91293,11.25,-1.1147e-12,-0.45646,0,0,0.1,-0,-0,0.66667
0.19927,0.979,1.9927,0.7185,91.962,638.52,-3.818,1.2727,-0.16345,-5.0906,-3.6068e-11,-0.081727,0,0,0.1,-4.737e-16,0,0.66667
0.18617,0.27618,1.8617,-0.33574,-43.057,655.15,1.6668,-0.55559,-1.6023,2.2223,3.7852e-11,-0.80116,0,0,0.1,-1.2661e-16,0,0.66667
0.10269,0.15264,1.0269,-0.52104,-68.582,765.29,1.4268,-0.47559,-1.0326,1.9024,4.2853e-08,-0.51631,0,0,0.1,1.4803e-16,0,0.66667
0.0688,0.62323,0.688,0.18485,24.428,810.5,-0.33913,0.11304,-1.8769,-0.45218,-5.955e-08,-0.93844,0,0,0.1,4.4409e-17,0,0.66667
0.16898,0.44195,1.6898,-0.087082,-11.229,677.5,0.39242,-0.13081,-1.9739,0.52322,7.1421e-10,-0.98693,0,0,0.1,-0,-0,0.66667
0.060817,0.56416,0.60817,0.09624,12.729,821.21,-0.15608,0.052027,-1.9702,-0.20811,8.2752e-08,-0.98508,0,0,0.1,-0,-0,0.66667
0.55168,0.48582,5.5168,-0.02127,-1.9604,234.29,0.31291,-0.1043,-1.9963,0.41721,1.0084e-13,-0.99817,0,0,0.1,-9.4739e-16,0,0.66667
0.80791,0.36717,8.0791,-0.19925,-9.1184,48.914,4.2927,-1.4309,-1.8574,5.7236,-4.6343e-11,-0.92868,0,0,0.1,9.4739e-16,0,0.66667
0.80434,0.79191,8.0434,0.43787,20.442,51.171,-9.3918,3.1306,-1.3152,-12.522,-9.4726e-11,-0.65761,0,0,0.1,1.8948e-15,0,0.66667
0.63118,0.95628,6.3118,0.68443,54.834,165.61,-11.52,3.84,-0.33158,-15.36,-6.2172e-15,-0.16579,0,0,0.1,-9.4739e-16,0,0.66667
0.54175,0.27632,5.4175,-0.33551,-31.449,243.99,4.847,-1.6157,-1.5982,6.4627,-2.6459e-12,-0.79911,0,0,0.1,1.1842e-15,0,0.66667
0.46714,0.39516,4.6714,-0.15726,-16.305,318.95,1.959,-0.653,-1.9141,2.612,-5.4955e-12,-0.95703,0,0,0.1,4.737e-16,0,0.66667
0.96014,0.44631,9.6014,-0.080539,-0.79263,2.6829,2.0621,-0.68736,-1.9741,2.7495,1.0634e-07,-0.98703,0,0,0.1,-0,-0,0.66667
0.2899,0.52914,2.899,0.043714,5.3133,523.25,-0.33793,0.11264,-1.9913,-0.45058,-3.0994e-12,-0.99565,0,0,0.1,-1.1842e-16,0,0.66667
0.36643,0.44034,3.6643,-0.089489,-10.278,431.17,0.87445,-0.29148,-1.9695,1.1659,-7.4533e-12,-0.98473,0,0,0.1,-0,-0,0.66667
0.57534,0.97488,5.7534,0.71232,63.496,213.72,-10.929,3.6429,-0.19664,-14.572,1.827e-12,-0.09832,0,0,0.1,-0,-0,0.66667
0.51258,0.54727,5.1258,0.07091,6.9295,272.22,-0.96925,0.32308,-1.9819,-1.2923,-5.454e-13,-0.99094,0,0,0.1,-0,-0,0.66667
0.67424,0.021483,6.7424,-0.71778,-52.162,132.29,12.905,-4.3018,-0.16909,17.207,2.1299e-12,-0.084546,0,0,0.1,-0,-0,0.66667
0.77467,0.9113,7.7467,0.61695,32.778,67.115,-12.745,4.2483,-0.64438,-16.993,2.4278e-10,-0.32219,0,0,0.1,-0,-0,0.66667
0.18244,0.86178,1.8244,0.54267,69.797,660.15,-2.6401,0.88005,-0.95068,-3.5202,-2.7728e-10,-0.47534,0,0,0.1,-0,-0,0.66667
0.6289,0.1619,6.289,-0.50715,-40.715,166.88,8.5052,-2.8351,-1.085,11.34,-9.7078e-13,-0.54249,0,0,0.1,-0,-0,0.66667
0.69402,0.58745,6.9402,0.13118,8.9917,116.48,-2.4278,0.80926,-1.9364,-3.237,-6.3394e-13,-0.96818,0,0,0.1,-0,-0,0.66667
0.27231,0.79202,2.7231,0.43804,53.906,545.33,-3.1808,1.0603,-1.3148,-4.2411,-2.7711e-12,-0.65741,0,0,0.1,-0,-0,0.66667
0.92808,0.17284,9.2808,-0.49073,-8.9097,8.7438,12.145,-4.0484,-1.1408,16.193,-1.9408e-07,-0.57041,0,0,0.1,1.8948e-15,0,0.66667
0.34525,0.51288,3.4525,0.019322,2.2579,456.12,-0.17789,0.059297,-2.0008,-0.23719,-2.7308e-12,-1.0004,0,0,0.1,-0,-0,0.66667
0.63808,0.87711,6.3808,0.56566,44.572,159.61,-9.625,3.2083,-0.86402,-12.833,-3.1974e-14,-0.43201,0,0,0.1,-0,-0,0.66667
0.9258,0.6681,9.258,0.25216,4.6739,8.4727,-6.2252,2.0751,-1.7728,-8.3002,8.5742e-08,-0.88638,0,0,0.1,-0,-0,0.66667
0.98063,0.70771,9.8063,0.31157,1.4433,1.1946,-8.1476,2.7159,-1.6539,-10.864,-7.1142e-07,-0.82696,0,0,0.1,-0,-0,0.66667
0.24873,0.16139,2.4873,-0.50792,-63.372,575.02,3.3689,-1.123,-1.0859,4.4919,-3.6424e-11,-0.54296,0,0,0.1,-0,-0,0.66667
0.94195,0.0028303,9.4195,-0.74575,-11.204,7.5563,18.732,-6.2441,-0.021931,24.977,-3.5834e-06,-0.010966,0,0,0.1,-0,-0,0.66667
0.90908,0.0056606,9.0908,-0.74151,-17.151,14.198,17.976,-5.9919,-0.045754,23.968,-1.1358e-07,-0.022877,0,0,0.1,3.7896e-15,0,0.66667
0.25098,0.69021,2.5098,0.28532,35.504,571.98,-1.9096,0.63652,-1.7147,-2.5461,1.0776e-11,-0.85733,0,0,0.1,9.4739e-16,0,0.66667
0.10105,0.12034,1.0105,-0.5695,-75.017,767.49,1.5346,-0.51155,-0.84443,2.0462,-1.2032e-08,-0.42222,0,0,0.1,5.9212e-17,0,0.66667
0.36236,0.45733,3.6236,-0.064002,-7.3761,435.93,0.61844,-0.20615,-1.9854,0.82459,-4.2945e-12,-0.99269,0,0,0.1,-0,-0,0.66667
0.92363,0.63064,9.2363,0.19596,3.7319,8.8185,-4.8264,1.6088,-1.8658,-6.4353,6.5582e-08,-0.93289,0,0,0.1,1.8948e-15,0,0.66667
0.84527,0.95444,8.4527,0.68165,25.881,34.213,-15.365,5.1216,-0.34991,-20.486,1.2976e-08,-0.17496,0,0,0.1,9.4739e-16,0,0.66667
0.25812,0.29777,2.5812,-0.30335,-37.604,562.99,2.088,-0.69601,-1.6695,2.784,-1.2526e-11,-0.83477,0,0,0.1,1.6802e-16,0,0.66667
0.27562,0.96631,2.7562,0.69947,86.124,541.56,-5.141,1.7137,-0.25901,-6.8546,-1.7728e-12,-0.1295,0,0,0.1,-7.1054e-16,0,0.66667
0.29828,0.38595,2.9828,-0.17108,-20.686,512.96,1.3608,-0.45359,-1.8983,1.8144,-4.9014e-12,-0.94914,0,0,0.1,-0,-0,0.66667
0.081417,0.65253,0.81417,0.22879,30.182,793.6,-0.49673,0.16558,-1.8143,-0.66231,-5.6796e-08,-0.90716,0,0,0.1,-1.4803e-16,0,0.66667
0.16833,0.73778,1.6833,0.35666,46.046,678.44,-1.601,0.53368,-1.5469,-2.1347,-4.0313e-10,-0.77347,0,0,0.1,2.3685e-16,0,0.66667
0.61444,0.93696,6.1444,0.65544,54.308,179.37,-10.739,3.5798,-0.47183,-14.319,2.2302e-12,-0.23592,0,0,0.1,-1.2138e-15,0,0.66667
0.4924,0.90732,4.924,0.61098,61.593,293.43,-8.0226,2.6742,-0.67091,-10.697,2.1219e-12,-0.33545,0,0,0.1,-0,-0,0.66667
0.41191,0.2003,4.1191,-0.44955,-49.602,379.44,4.9379,-1.646,-1.2788,6.5839,4.9871e-13,-0.63942,0,0,0.1,-0,-0,0.66667
0.5157,0.56419,5.157,0.096291,9.3691,269.12,-1.3242,0.4414,-1.9731,-1.7656,-4.0161e-12,-0.98654,0,0,0.1,1.8948e-15,0,0.66667
0.88736,0.49583,8.8736,-0.0062554,-0.17365,17.877,0.14802,-0.049341,-2.0003,0.19736,-4.5513e-09,-1.0001,0,0,0.1,-4.737e-16,0,0.66667
0.9551,0.1493,9.551,-0.52605,-6.0014,4.4586,13.398,-4.4661,-1.0179,17.864,-1.8739e-06,-0.50893,0,0,0.1,9.4739e-16,0,0.66667
0.25568,0.73144,2.5568,0.34715,43.102,566.1,-2.3669,0.78897,-1.5689,-3.1559,6.9875e-12,-0.78444,0,0,0.1,-0,-0,0.66667
0.23367,0.23431,2.3367,-0.39854,-50.07,594.03,2.4833,-0.82777,-1.4387,3.3111,-2.7682e-11,-0.71936,0,0,0.1,-0,-0,0.66667
0.070154,0.19109,0.70154,-0.46336,-61.31,808.74,0.86684,-0.28895,-1.2343,1.1558,1.9426e-07,-0.61717,0,0,0.1,-0,-0,0.66667
0.2597,0.13872,2.597,-0.54193,-67.232,561.23,3.753,-1.251,-0.95301,5.004,-3.9546e-11,-0.4765,0,0,0.1,-4.737e-16,0,0.66667
0.17421,0.29027,1.7421,-0.31459,-40.521,670.73,1.4615,-0.48716,-1.6491,1.9486,2.9379e-10,-0.82457,0,0,0.1,-0,-0,0.66667
0.027562,0.31251,0.27562,-0.28124,-37.329,865.93,0.20671,-0.068905,-1.7195,0.27562,-7.2017e-07,-0.85973,0,0,0.1,-1.1842e-16,0,0.66667
0.17447,0.00024811,1.7447,-0.74963,-96.907,670.75,3.4877,-1.1626,-0.003988,4.6502,1.1332e-09,-0.001994,0,0,0.1,-0,-0,0.66667
0.78046,0.34589,7.8046,-0.23116,-11.926,62.859,4.8109,-1.6036,-1.8146,6.4146,2.7982e-11,-0.90728,0,0,0.1,1.8948e-15,0,0.66667
0.92026,0.96037,9.2026,0.69055,14.036,11.332,-16.946,5.6488,-0.30671,-22.595,1.2758e-06,-0.15336,0,0,0.1,-0,-0,0.66667
0.72159,0.58927,7.2159,0.1339,8.4819,97.761,-2.5766,0.85887,-1.9371,-3.4355,-1.0318e-12,-0.96857,0,0,0.1,-9.4739e-16,0,0.66667
0.29842,0.88849,2.9842,0.58273,70.643,513.2,-4.6373,1.5458,-0.79461,-6.183,-1.9922e-12,-0.39731,0,0,0.1,-0,-0,0.66667
0.63146,0.25681,6.3146,-0.36478,-29.082,164.45,6.1426,-2.0475,-1.5244,8.1901,1.9984e-13,-0.76219,0,0,0.1,-0,-0,0.66667
0.77018,0.0001895,7.7018,-0.74972,-40.666,70.205,15.398,-5.1326,-0.0013118,20.53,-4.1835e-11,-0.00065591,0,0,0.1,3.7896e-15,0,0.66667
0.4425,0.25967,4.425,-0.3605,-38.493,345.55,4.2539,-1.418,-1.5359,5.6718,-2.5713e-12,-0.76797,0,0,0.1,-0,-0,0.66667
0.61945,0.28477,6.1945,-0.32285,-26.375,174.28,5.3329,-1.7776,-1.6278,7.1106,1.5041e-12,-0.81391,0,0,0.1,-1.8948e-15,0,0.66667
0.57375,0.57005,5.7375,0.10507,9.3376,213.9,-1.6076,0.53586,-1.9595,-2.1434,-4.9204e-12,-0.97975,0,0,0.1,1.8948e-15,0,0.66667
0.90274,0.61167,9.0274,0.16751,4.0402,13.694,-4.0324,1.3441,-1.8995,-5.3765,2.6221e-08,-0.94973,0,0,0.1,-0,-0,0.66667
0.75239,0.17289,7.5239,-0.49067,-28.223,79.313,9.8446,-3.2815,-1.1446,13.126,1.2375e-11,-0.57232,0,0,0.1,-0,-0,0.66667
0.26495,0.048723,2.6495,-0.67692,-83.846,554.84,4.7827,-1.5942,-0.37433,6.377,-1.3547e-11,-0.18717,0,0,0.1,-0,-0,0.66667
0.22937,0.136,2.2937,-0.546,-68.82,599.65,3.3396,-1.1132,-0.93795,4.4527,-1.767e-10,-0.46897,0,0,0.1,4.737e-16,0,0.66667
0.6936,0.33972,6.936,-0.24042,-16.508,116.91,4.4468,-1.4823,-1.7925,5.929,1.759e-12,-0.89627,0,0,0.1,-9.4739e-16,0,0.66667
0.23301,0.65629,2.3301,0.23443,29.437,594.75,-1.4567,0.48556,-1.8086,-1.9422,3.3789e-11,-0.90428,0,0,0.1,-0,-0,0.66667
0.62193,0.28459,6.2193,-0.32311,-26.264,172.21,5.3586,-1.7862,-1.6296,7.1449,-3.2774e-13,-0.81479,0,0,0.1,-0,-0,0.66667
0.25494,0.67987,2.5494,0.26981,33.5,566.97,-1.8343,0.61142,-1.7394,-2.4457,1.0188e-11,-0.86972,0,0,0.1,-0,-0,0.66667
0.92042,0.50062,9.2042,0.00092674,0.018343,9.3475,-0.022746,0.0075822,-2.0037,-0.030328,1.2412e-07,-1.0018,0,0,0.1,-0,-0,0.66667
0.30256,0.49417,3.0256,-0.0087448,-1.0541,507.67,0.070554,-0.023518,-1.9977,0.094072,-7.612e-12,-0.99886,0,0,0.1,-0,-0,0.66667
0.84854,0.45807,8.4854,-0.062901,-2.3117,31.202,1.4233,-0.47444,-1.984,1.8978,-1.5209e-09,-0.99202,0,0,0.1,-0,-0,0.66667
0.22971,0.052843,2.2971,-0.67074,-84.634,599.37,4.1086,-1.3695,-0.39869,5.4782,-2.9765e-10,-0.19935,0,0,0.1,2.3685e-16,-1.1309e-17,0.66667
0.5721,0.47714,5.721,-0.034287,-3.0553,215.38,0.52307,-0.17436,-1.9933,0.69743,-2.8864e-12,-0.99666,0,0,0.1,1.8948e-15,0,0.66667
0.1889,0.92066,1.889,0.631,81.023,651.84,-3.1786,1.0595,-0.58654,-4.2381,1.6446e-10,-0.29327,0,0,0.1,-0,-0,0.66667
0.42001,0.78668,4.2001,0.43001,47.053,370.37,-4.8163,1.6054,-1.3447,-6.4217,4.6283e-12,-0.67235,0,0,0.1,-9.4739e-16,0,0.66667
0.37624,0.11005,3.7624,-0.58493,-66.817,420.31,5.8686,-1.9562,-0.78597,7.8249,-4.3419e-12,-0.39299,0,0,0.1,-4.737e-16,0,0.66667
0.039037,0.31379,0.39037,-0.27932,-37.045,850.49,0.29076,-0.096922,-1.7208,0.38769,-1.5871e-07,-0.86038,0,0,0.1,-0,-0,0.66667
0.12795,0.87577,1.2795,0.56366,73.781,731.75,-1.9232,0.64107,-0.87177,-2.5643,-6.3016e-09,-0.43589,0,0,0.1,4.737e-16,0,0.66667
0.75376,0.24184,7.5376,-0.38724,-22.131,78.2,7.7836,-2.5945,-1.4661,10.378,1.7698e-11,-0.73307,0,0,0.1,4.737e-16,0,0.66667
0.41261,0.29163,4.1261,-0.31256,-34.429,378.46,3.4391,-1.1464,-1.6498,4.5855,-1.65e-12,-0.82492,0,0,0.1,-0,-0,0.66667
0.80409,0.41005,8.0409,-0.13493,-6.2824,50.674,2.8931,-0.96438,-1.933,3.8575,5.3566e-11,-0.96651,0,0,0.1,-1.8948e-15,0,0.66667
0.6699,0.66664,6.699,0.24996,18.242,134.16,-4.4652,1.4884,-1.7793,-5.9536,4.3343e-13,-0.88965,0,0,0.1,-0,-0,0.66667
0.38282,0.14763,3.8282,-0.52855,-59.991,412.61,5.3958,-1.7986,-1.0037,7.1944,-3.3848e-12,-0.50187,0,0,0.1,-0,-0,0.66667
0.49483,0.50932,4.9483,0.013973,1.3987,290.12,-0.18438,0.061459,-1.9972,-0.24584,-9.5752e-12,-0.99862,0,0,0.1,1.8948e-15,0,0.66667
0.95056,0.12666,9.5056,-0.56,-7.0566,5.2313,14.195,-4.7317,-0.88671,18.927,-7.2171e-07,-0.44336,0,0,0.1,-0,-0,0.66667
0.94795,0.81977,9.4795,0.47965,6.3193,5.2568,-12.125,4.0416,-1.1801,-16.167,1.6643e-07,-0.59006,0,0,0.1,-0,-0,0.66667
0.48498,0.57913,4.8498,0.1187,12.036,300.27,-1.5351,0.5117,-1.9536,-2.0468,-1.4255e-12,-0.97678,0,0,0.1,-0,-0,0.66667
0.71243,0.94193,7.1243,0.66289,43.44,105.16,-12.594,4.1979,-0.4355,-16.792,-3.0198e-14,-0.21775,0,0,0.1,-0,-0,0.66667
0.74983,0.30181,7.4983,-0.29728,-17.205,80.326,5.9442,-1.9814,-1.6905,7.9256,1.5663e-11,-0.84523,0,0,0.1,-0,-0,0.66667
0.5106,0.31647,5.106,-0.2753,-26.998,274.36,3.7485,-1.2495,-1.7292,4.9979,3.3284e-13,-0.86462,0,0,0.1,-1.8948e-15,0,0.66667
0.44701,0.71743,4.4701,0.32615,34.643,340.62,-3.8878,1.2959,-1.6203,-5.1838,-5.2069e-13,-0.81016,0,0,0.1,-1.1842e-15,0,0.66667
0.76902,0.19985,7.6902,-0.45023,-24.361,69.623,9.233,-3.0777,-1.2787,12.311,5.6947e-11,-0.63933,0,0,0.1,-0,-0,0.66667
0.41563,0.8541,4.1563,0.53114,58.431,375.43,-5.8869,1.9623,-0.99416,-7.8492,-6.1728e-13,-0.49708,0,0,0.1,-0,-0,0.66667
0.50009,0.39768,5.0009,-0.15349,-15.261,284.82,2.0468,-0.68228,-1.9213,2.7291,-7.7316e-13,-0.96063,0,0,0.1,-4.737e-16,0,0.66667
0.08748,0.21866,0.8748,-0.42201,-55.669,785.54,0.98445,-0.32815,-1.3655,1.3126,2.4257e-08,-0.68276,0,0,0.1,2.4055e-17,0,0.66667
0.90434,0.31461,9.0434,-0.27809,-6.6149,13.479,6.7063,-2.2354,-1.7277,8.9417,-4.0581e-08,-0.86384,0,0,0.1,3.7896e-15,0,0.66667
0.45473,0.95554,4.5473,0.68331,72.201,333.04,-8.2859,2.762,-0.34177,-11.048,-4.8939e-13,-0.17088,0,0,0.1,4.737e-16,0,0.66667
0.59906,0.65771,5.9906,0.23657,20.099,191.52,-3.7792,1.2597,-1.8,-5.0389,-2.9319e-12,-0.89999,0,0,0.1,1.8948e-15,0,0.66667
0.070556,0.64267,0.70556,0.21401,28.278,808.15,-0.40265,0.13422,-1.8339,-0.53687,-7.3312e-08,-0.91696,0,0,0.1,1.1842e-16,0,0.66667
0.52944,0.98419,5.2944,0.72629,69.667,256.83,-10.254,3.418,-0.12599,-13.672,9.3525e-13,-0.062996,0,0,0.1,9.4739e-16,0,0.66667
0.22131,0.21307,2.2131,-0.43039,-54.407,609.84,2.54,-0.84668,-1.3425,3.3867,-4.7619e-11,-0.67123,0,0,0.1,-2.3685e-16,0,0.66667
0.38519,0.50439,3.8519,0.0065848,0.74386,409.41,-0.067637,0.022546,-1.9982,-0.090183,-3.7101e-12,-0.9991,0,0,0.1,-0,-0,0.66667
0.56,0.28796,5.6,-0.31806,-28.957,226.76,4.7497,-1.5832,-1.6413,6.3329,-1.6218e-12,-0.82067,0,0,0.1,-0,-0,0.66667
0.81503,0.43318,8.1503,-0.10022,-4.4288,45.461,2.1783,-0.72609,-1.9656,2.9043,1.553e-10,-0.98281,0,0,0.1,-0,-0,0.66667
0.26284,0.84909,2.6284,0.52364,64.838,557.27,-3.6702,1.2234,-1.0259,-4.8936,-5.3997e-12,-0.51296,0,0,0.1,-0,-0,0.66667
0.72782,0.47373,7.2782,-0.039407,-2.4481,93.678,0.76482,-0.25494,-1.9922,1.0198,-4.4759e-13,-0.9961,0,0,0.1,-0,-0,0.66667
0.49204,0.3654,4.9204,-0.2019,-20.293,293.06,2.6492,-0.88306,-1.852,3.5323,-2.0997e-12,-0.92602,0,0,0.1,-0,-0,0.66667
0.30424,0.35736,3.0424,-0.21396,-25.773,505.66,1.7359,-0.57864,-1.834,2.3146,-8.1377e-12,-0.917,0,0,0.1,-0,-0,0.66667
0.29041,0.19412,2.9041,-0.45881,-55.848,522.89,3.5531,-1.1844,-1.249,4.7375,-7.3077e-12,-0.62452,0,0,0.1,-9.4739e-16,0,0.66667
0.2411,0.039655,2.411,-0.69052,-86.656,584.91,4.4396,-1.4799,-0.3019,5.9195,4.9293e-11,-0.15095,0,0,0.1,-0,-0,0.66667
0.073163,0.15515,0.73163,-0.51727,-68.442,804.73,1.0092,-0.3364,-1.0479,1.3456,1.9381e-07,-0.52396,0,0,0.1,2.2204e-17,0,0.66667
0.58112,0.341,5.8112,-0.2385,-20.936,207.36,3.6959,-1.232,-1.7987,4.9279,-3.2199e-12,-0.89936,0,0,0.1,-9.4739e-16,0,0.66667
0.62494,0.43467,6.2494,-0.097991,-7.9066,169.45,1.633,-0.54434,-1.9717,2.1774,3.3007e-13,-0.98587,0,0,0.1,-1.1842e-15,0,0.66667
0.23524,0.52149,2.3524,0.03224,4.042,591.85,-0.20225,0.067415,-1.9997,-0.26966,-1.0415e-12,-0.99985,0,0,0.1,-0,-0,0.66667
0.56429,0.40065,5.6429,-0.14902,-13.459,222.59,2.2424,-0.74747,-1.9233,2.9899,-1.6942e-12,-0.96165,0,0,0.1,4.737e-16,0,0.66667
0.8726,0.7893,8.726,0.43395,13.635,23.258,-10.098,3.3659,-1.3315,-13.464,6.2503e-09,-0.66573,0,0,0.1,1.8948e-15,0,0.66667
0.80766,0.36148,8.0766,-0.20778,-9.5203,49.044,4.475,-1.4917,-1.8444,5.9667,-4.1146e-11,-0.92221,0,0,0.1,-9.4739e-16,0,0.66667
0.40735,0.52843,4.0735,0.042652,4.7185,384.2,-0.46331,0.15444,-1.9974,-0.61775,-7.8966e-12,-0.9987,0,0,0.1,-2.3685e-16,0,0.66667
0.49622,0.41891,4.9622,-0.12163,-12.155,288.73,1.6095,-0.53649,-1.9464,2.146,-1.1184e-12,-0.97318,0,0,0.1,9.4739e-16,0,0.66667
0.70639,0.042664,7.0639,-0.686,-45.761,109.33,12.922,-4.3074,-0.32635,17.23,2.6095e-12,-0.16318,0,0,0.1,-0,-0,0.66667
0.57792,0.82615,5.7792,0.48922,43.279,210.71,-7.5395,2.5132,-1.1535,-10.053,1.8923e-12,-0.57674,0,0,0.1,-9.4739e-16,-2.2589e-17,0.66667
0.75469,0.004817,7.5469,-0.74277,-42.621,79.001,14.948,-4.9828,-0.037186,19.931,-7.7964e-12,-0.018593,0,0,0.1,-0,-0,0.66667
0.95016,0.2406,9.5016,-0.3891,-4.8768,4.6027,9.8589,-3.2863,-1.4618,13.145,-1.1377e-07,-0.7309,0,0,0.1,-0,-0,0.66667
0.17702,0.42636,1.7702,-0.11047,-14.204,666.99,0.52147,-0.17382,-1.9544,0.6953,7.6185e-11,-0.97721,0,0,0.1,-0,-0,0.66667
0.78926,0.94083,7.8926,0.66124,33.159,59.575,-13.917,4.639,-0.44316,-18.556,8.0612e-10,-0.22158,0,0,0.1,-1.8948e-15,0,0.66667
0.33497,0.19395,3.3497,-0.45907,-54.174,468.71,4.1006,-1.3669,-1.2481,5.4675,-4.1163e-12,-0.62405,0,0,0.1,-0,-0,0.66667
0.56378,0.40497,5.6378,-0.14254,-12.884,223.05,2.143,-0.71432,-1.9316,2.8573,-7.8826e-14,-0.9658,0,0,0.1,-1.1842e-16,0,0.66667
0.20689,0.20808,2.0689,-0.43789,-55.717,628.38,2.4158,-0.80528,-1.3173,3.2211,-4.1945e-11,-0.65866,0,0,0.1,-2.3685e-16,0,0.66667
0.74097,0.045532,7.4097,-0.6817,-40.92,86.936,13.47,-4.49,-0.3446,17.96,2.4754e-11,-0.1723,0,0,0.1,-0,-0,0.66667
0.98,0.51363,9.8,0.020449,0.096034,0.8148,-0.53441,0.17814,-1.9968,-0.71254,6.7891e-09,-0.99842,0,0,0.1,-0,-0,0.66667
0.83333,0.19865,8.3333,-0.45203,-18.248,38.098,10.045,-3.3484,-1.2712,13.393,5.1674e-11,-0.63562,0,0,0.1,1.8948e-15,0,0.66667
0.62051,0.48939,6.2051,-0.015914,-1.2956,173.1,0.26333,-0.087776,-1.9975,0.3511,-1.2108e-12,-0.99873,0,0,0.1,-0,-0,0.66667
0.49211,0.53688,4.9211,0.055317,5.5574,292.91,-0.72592,0.24197,-1.9865,-0.9679,-6.9422e-12,-0.99327,0,0,0.1,-0,-0,0.66667
0.52358,0.46563,5.2358,-0.051553,-4.9595,261.33,0.71978,-0.23993,-1.9884,0.95971,-5.4724e-12,-0.99418,0,0,0.1,9.4739e-16,0,0.66667
0.93153,0.69868,9.3153,0.29802,5.1084,7.4452,-7.403,2.4677,-1.6815,-9.8706,1.1595e-07,-0.84076,0,0,0.1,1.8948e-15,0,0.66667
0.15835,0.40239,1.5835,-0.14642,-18.951,691.46,0.61828,-0.20609,-1.9258,0.82437,1.0435e-09,-0.96291,0,0,0.1,3.5527e-16,0,0.66667
0.59051,0.34256,5.9051,-0.23616,-20.384,199.01,3.7189,-1.2396,-1.8027,4.9585,-6.6991e-12,-0.90133,0,0,0.1,1.1842e-15,0,0.66667
0.63801,0.24598,6.3801,-0.38104,-29.96,159.18,6.4828,-2.1609,-1.485,8.6437,4.8939e-13,-0.74251,0,0,0.1,-9.4739e-16,0,0.66667
0.90792,0.27379,9.0792,-0.33932,-7.7904,12.726,8.2153,-2.7384,-1.5928,10.954,-4.1209e-08,-0.79642,0,0,0.1,-0,-0,0.66667
0.2694,0.3406,2.694,-0.2391,-29.441,548.8,1.7177,-0.57256,-1.7967,2.2902,-8.9911e-12,-0.89836,0,0,0.1,-7.1054e-16,0,0.66667
0.71075,0.50843,7.1075,0.012651,0.82732,104.9,-0.23978,0.079928,-1.9965,-0.31971,4.6269e-13,-0.99826,0,0,0.1,-0,-0,0.66667
0.35033,0.7624,3.5033,0.3936,45.873,450.34,-3.677,1.2257,-1.4462,-4.9027,-2.3967e-12,-0.72309,0,0,0.1,-0,-0,0.66667
0.36439,0.96919,3.6439,0.70378,81.329,434.35,-6.8386,2.2795,-0.23828,-9.1182,4.2131e-12,-0.11914,0,0,0.1,-0,-0,0.66667
0.081405,0.23915,0.81405,-0.39128,-51.659,793.66,0.8494,-0.28313,-1.4553,1.1325,7.0119e-08,-0.72763,0,0,0.1,1.1842e-16,0,0.66667
0.3283,0.55945,3.283,0.08917,10.557,476.4,-0.78066,0.26022,-1.9773,-1.0409,-1.6385e-12,-0.98866,0,0,0.1,-4.737e-16,0,0.66667
0.32443,0.42529,3.2443,-0.11206,-13.305,481.08,0.96949,-0.32316,-1.9544,1.2927,-8.5405e-12,-0.97721,0,0,0.1,-0,-0,0.66667
0.029581,0.22891,0.29581,-0.40663,-54.003,863.23,0.32076,-0.10692,-1.4141,0.42768,-1.3835e-06,-0.70703,0,0,0.1,-5.9212e-17,0,0.66667
0.54957,0.33671,5.4957,-0.24494,-22.667,236.43,3.5896,-1.1965,-1.7874,4.7862,-9.4191e-13,-0.8937,0,0,0.1,-0,-0,0.66667
0.70674,0.3877,7.0674,-0.16844,-11.148,107.7,3.1746,-1.0582,-1.8982,4.2328,-1.6758e-12,-0.94912,0,0,0.1,1.8948e-15,0,0.66667
0.4985,0.88039,4.985,0.57059,57.032,287.1,-7.585,2.5283,-0.84518,-10.113,-3.193e-13,-0.42259,0,0,0.1,-0,-1.4871e-16,0.66667
0.5273,0.29545,5.273,-0.30682,-29.386,257.9,4.3144,-1.4381,-1.664,5.7525,-4.7007e-12,-0.832,0,0,0.1,9.4739e-16,0,0.66667
0.10581,0.53832,1.0581,0.057485,7.5455,761,-0.16221,0.054069,-1.9879,-0.21628,8.8163e-09,-0.99395,0,0,0.1,2.3685e-16,0,0.66667
0.68474,0.87934,6.8474,0.56901,40.155,124.04,-10.39,3.4634,-0.84982,-13.853,1.1484e-12,-0.42491,0,0,0.1,-0,2.2854e-18,0.66667
0.47114,0.11289,4.7114,-0.58066,-60.1,315.38,7.2953,-2.4318,-0.8019,9.7271,-6.0409e-12,-0.40095,0,0,0.1,-0,-0,0.66667
0.22927,0.8793,2.2927,0.56895,71.732,599.8,-3.4785,1.1595,-0.84763,-4.638,1.7141e-10,-0.42381,0,0,0.1,4.737e-16,0,0.66667
0.85572,0.85186,8.5572,0.52778,18.686,29.524,-12.044,4.0145,-1.009,-16.058,1.6052e-09,-0.5045,0,0,0.1,-0,-0,0.66667
0.56519,0.76802,5.6519,0.40204,36.314,222.11,-6.0594,2.0198,-1.4256,-8.0792,4.885e-13,-0.71278,0,0,0.1,-0,-0,0.66667
0.99916,0.89649,9.9916,0.59473,0.0039479,1.5835,-15.846,5.282,-0.74588,-21.128,-2.5029e-05,-0.37294,0,0,0.1,-0,-0,0.66667
0.077097,0.31797,0.77097,-0.27304,-36.051,799.4,0.56135,-0.18712,-1.7385,0.74847,8.6312e-08,-0.86925,0,0,0.1,-0,-0,0.66667
0.515,0.17398,5.15,-0.48903,-47.747,270.35,6.7161,-2.2387,-1.1533,8.9548,2.6601e-13,-0.57666,0,0,0.1,9.4739e-16,2.2174e-17,0.66667
0.30396,0.20562,3.0396,-0.44158,-53.269,506.22,3.5792,-1.1931,-1.3035,4.7722,-3.0553e-13,-0.65177,0,0,0.1,-0,-0,0.66667
0.86161,0.78636,8.6161,0.42953,14.586,27.025,-9.8691,3.2897,-1.3456,-13.159,4.8982e-09,-0.67282,0,0,0.1,-0,-0,0.66667
0.16178,0.44413,1.6178,-0.083803,-10.833,686.95,0.36153,-0.12051,-1.973,0.48203,5.4073e-10,-0.98651,0,0,0.1,4.737e-16,0,0.66667
0.0013843,0.43984,0.013843,-0.090236,-11.98,901.19,0.0033307,-0.0011116,-1.9745,0.0044403,-1.9613e-06,-0.98726,0,0,0.1,3.7007e-18,0,0.66667
0.44299,0.16485,4.4299,-0.50272,-53.714,345.26,5.9386,-1.9795,-1.0992,7.9182,-5.9268e-12,-0.5496,0,0,0.1,-0,-0,0.66667
0.67716,0.99973,6.7716,0.7496,54.116,130.28,-13.536,4.512,-0.0013561,-18.048,-5.7918e-12,-0.00067803,0,0,0.1,1.2286e-15,0,0.66667
0.96791,0.35873,9.6791,-0.2119,-1.6706,2.0063,5.4694,-1.8231,-1.8435,7.2925,3.212e-07,-0.92177,0,0,0.1,-1.8948e-15,0,0.66667
0.62011,0.12849,6.2011,-0.55726,-45.584,174.29,9.215,-3.0717,-0.89475,12.287,4.5031e-13,-0.44738,0,0,0.1,-0,-0,0.66667
0.19035,0.92635,1.9035,0.63953,82.079,649.96,-3.2463,1.0821,-0.54591,-4.3284,-1.9249e-10,-0.27296,0,0,0.1,2.3685e-16,0,0.66667
0.36217,0.29186,3.6217,-0.31221,-36.017,436.3,3.0153,-1.0051,-1.6537,4.0204,-6.7926e-12,-0.82683,0,0,0.1,-0,-0,0.66667
0.78006,0.16497,7.8006,-0.50254,-26.072,63.763,10.454,-3.4845,-1.1049,13.938,3.4122e-11,-0.55247,0,0,0.1,1.8948e-15,0,0.66667
0.32974,0.15921,3.2974,-0.51119,-60.588,475.04,4.495,-1.4983,-1.0738,5.9933,-2.1343e-12,-0.53692,0,0,0.1,-0,-0,0.66667
0.16424,0.31847,1.6424,-0.27229,-35.189,683.76,1.1926,-0.39753,-1.7338,1.5901,7.9443e-10,-0.86688,0,0,0.1,4.737e-16,0,0.66667
0.28507,0.99317,2.8507,0.73975,90.606,529.91,-5.6235,1.8745,-0.053682,-7.498,-1.3798e-12,-0.026841,0,0,0.1,2.3685e-16,0,0.66667
0.04034,0.82931,0.4034,0.49397,65.593,848.77,-0.53139,0.17713,-1.1294,-0.70852,-1.4798e-06,-0.56468,0,0,0.1,5.9212e-17,0,0.66667
0.75512,0.97231,7.5512,0.70847,40.555,78.583,-14.266,4.7554,-0.21407,-19.021,5.4878e-11,-0.10704,0,0,0.1,-0,-0,0.66667
0.28529,0.94636,2.8529,0.66953,81.926,529.52,-5.0936,1.6979,-0.40507,-6.7914,-1.3576e-12,-0.20254,0,0,0.1,-0,-0,0.66667
0.7645,0.31156,7.645,-0.28265,-15.519,71.752,5.7624,-1.9208,-1.7201,7.6831,2.5085e-11,-0.86006,0,0,0.1,1.2434e-15,0,0.66667
0.84257,0.63037,8.4257,0.19556,7.4573,33.685,-4.394,1.4647,-1.8673,-5.8586,1.0908e-09,-0.93367,0,0,0.1,-1.8948e-15,0,0.66667
0.45502,0.68833,4.5502,0.28249,29.726,331.95,-3.4277,1.1426,-1.7192,-4.5702,-6.3853e-12,-0.85959,0,0,0.1,1.8948e-15,0,0.66667
0.85839,0.65863,8.5839,0.23794,8.2243,27.698,-5.4466,1.8155,-1.8029,-7.2621,3.5563e-09,-0.90143,0,0,0.1,-0,-0,0.66667
0.99143,0.94876,9.9143,0.67314,1.4552,2.2156,-17.796,5.9322,-0.38587,-23.729,5.5274e-05,-0.19294,0,0,0.1,1.8948e-15,0,0.66667
0.94175,0.82043,9.4175,0.48064,7.083,6.228,-12.07,4.0235,-1.1774,-16.094,1.6543e-08,-0.58872,0,0,0.1,1.8948e-15,0,0.66667
0.97927,0.49542,9.7927,-0.0068697,-0.033563,0.86269,0.1794,-0.059798,-1.9984,0.23919,7.0159e-07,-0.99919,0,0,0.1,4.737e-16,0,0.66667
0.95065,0.89175,9.5065,0.58762,7.4092,5.3513,-14.897,4.9656,-0.77279,-19.862,9.5321e-07,-0.3864,0,0,0.1,-1.8948e-15,0,0.66667
0.96389,0.84945,9.6389,0.52417,4.8003,3.4067,-13.473,4.4911,-1.0217,-17.964,1.0235e-06,-0.51083,0,0,0.1,1.8948e-15,0,0.66667
0.69794,0.65299,6.9794,0.22948,15.572,113.85,-4.271,1.4237,-1.8115,-5.6947,-2.3825e-12,-0.90573,0,0,0.1,2.3685e-16,0,0.66667
0.15618,0.43843,1.5618,-0.092353,-11.96,694.3,0.38464,-0.12821,-1.9759,0.51286,-1.4715e-10,-0.98795,0,0,0.1,-0,-0,0.66667
0.64676,0.28654,6.4676,-0.32019,-24.681,152.08,5.5223,-1.8408,-1.6333,7.363,1.6147e-12,-0.81666,0,0,0.1,-1.8948e-15,0,0.66667
0.99073,0.98547,9.9073,0.7282,1.7682,2.5806,-19.238,6.4129,-0.11185,-25.651,5.8015e-05,-0.055925,0,0,0.1,-1.8948e-15,0,0.66667
0.24429,0.35672,2.4429,-0.21492,-26.83,580.4,1.4,-0.46668,-1.8331,1.8667,-2.3182e-11,-0.91657,0,0,0.1,4.737e-16,0,0.66667
0.68176,0.52694,6.8176,0.040405,2.8598,125.22,-0.73458,0.24486,-1.9924,-0.97944,-2.0872e-12,-0.99619,0,0,0.1,9.4739e-16,0,0.66667
0.12926,0.94433,1.2926,0.66649,87.299,730.09,-2.2974,0.76579,-0.41953,-3.0632,5.4248e-09,-0.20976,0,0,0.1,-0,-0,0.66667
0.99818,0.4018,9.9818,-0.1473,0.011342,0.12645,3.9208,-1.3069,-1.9252,5.2278,-1.0294e-06,-0.96262,0,0,0.1,4.737e-16,0,0.66667
0.41986,0.3835,4.1986,-0.17476,-19.097,370.25,1.9566,-0.65221,-1.893,2.6088,-4.6066e-12,-0.94648,0,0,0.1,-0,-0,0.66667
0.35068,0.69955,3.5068,0.29933,34.855,449.82,-2.7991,0.93304,-1.6783,-3.7322,-6.7848e-12,-0.83917,0,0,0.1,-0,-0,0.66667
0.20659,0.19178,2.0659,-0.46233,-58.846,628.79,2.547,-0.849,-1.2401,3.396,-4.6771e-11,-0.62007,0,0,0.1,-0,-0,0.66667
0.85016,0.0082616,8.5016,-0.73761,-27.251,32.62,16.722,-5.5741,-0.062907,22.296,9.2191e-09,-0.031453,0,0,0.1,3.7896e-15,0,0.66667
0.6124,0.82578,6.124,0.48866,40.555,180.57,-7.9803,2.6601,-1.1508,-10.64,1.6476e-13,-0.57538,0,0,0.1,-0,-0,0.66667
0.57534,0.67458,5.7534,0.26187,23.224,212.61,-4.0177,1.3392,-1.7563,-5.3569,8.1357e-13,-0.87815,0,0,0.1,-0,-0,0.66667
0.24805,0.19061,2.4805,-0.46409,-57.904,575.83,3.0698,-1.0233,-1.2366,4.093,1.0325e-11,-0.6183,0,0,0.1,-0,-0,0.66667
0.13351,0.054195,1.3351,-0.66871,-87.492,724.48,2.3807,-0.79358,-0.40722,3.1743,-5.8579e-08,-0.20361,0,0,0.1,-1.1842e-16,0,0.66667
0.064967,0.69842,0.64967,0.29763,39.37,815.66,-0.51562,0.17187,-1.6857,-0.68749,-1.058e-07,-0.84286,0,0,0.1,-0,-0,0.66667
0.60725,0.31245,6.0725,-0.28132,-23.537,184.52,4.5556,-1.5185,-1.7213,6.0741,-2.7471e-12,-0.86067,0,0,0.1,1.1722e-15,0,0.66667
0.72959,0.57936,7.2959,0.11904,7.3557,92.582,-2.3161,0.77202,-1.9476,-3.0881,-5.5826e-12,-0.97378,0,0,0.1,9.4739e-16,0,0.66667
0.4249,0.43766,4.249,-0.093517,-10.164,364.61,1.0596,-0.3532,-1.9704,1.4128,-8.2664e-12,-0.98518,0,0,0.1,1.8948e-15,0,0.66667
0.099,0.91922,0.99,0.62883,82.914,770.26,-1.6601,0.55337,-0.59166,-2.2135,8.7143e-08,-0.29583,0,0,0.1,-0,-0,0.66667
0.089276,0.6007,0.89276,0.15104,19.894,783.08,-0.35959,0.11986,-1.9176,-0.47945,-3.9583e-08,-0.95881,0,0,0.1,-0,-0,0.66667
0.52952,0.48026,5.2952,-0.029606,-2.8234,255.52,0.41805,-0.13935,-1.9987,0.5574,-3.0466e-12,-0.99933,0,0,0.1,-0,-0,0.66667
0.33597,0.25846,3.3597,-0.36231,-42.693,467.39,3.246,-1.082,-1.5304,4.328,-3.0105e-12,-0.76518,0,0,0.1,-0,-0,0.66667
0.6614,0.58679,6.614,0.13019,9.6917,140.46,-2.2962,0.76541,-1.9379,-3.0616,8.3356e-13,-0.96896,0,0,0.1,-4.737e-16,0,0.66667
0.9539,0.7147,9.539,0.32206,3.7149,3.8833,-8.1922,2.7307,-1.6355,-10.923,3.9994e-09,-0.81774,0,0,0.1,9.4739e-16,0,0.66667
0.048989,0.1339,0.48989,-0.54915,-72.895,837.16,0.71739,-0.23913,-0.92915,0.95652,8.0823e-07,-0.46457,0,0,0.1,-0,-0,0.66667
0.12125,0.59496,1.2125,0.14244,18.633,740.47,-0.46057,0.15352,-1.9282,-0.61409,-1.1278e-08,-0.96411,0,0,0.1,-0,-0,0.66667
0.60823,0.069076,6.0823,-0.64639,-54.204,184.6,10.484,-3.4947,-0.51766,13.979,-1.1875e-12,-0.25883,0,0,0.1,-0,-7.8704e-17,0.66667
0.29619,0.84512,2.9619,0.51768,62.81,515.83,-4.0889,1.363,-1.0521,-5.4518,-1.3068e-11,-0.52604,0,0,0.1,9.4739e-16,1.281e-16,0.66667
0.71874,0.77776,7.1874,0.41664,26.687,100.12,-7.9856,2.6619,-1.3887,-10.647,-7.164e-12,-0.69433,0,0,0.1,2.3685e-16,0,0.66667
0.48481,0.8088,4.8481,0.4632,47.076,300.88,-5.9884,1.9961,-1.2421,-7.9845,-4.361e-13,-0.62106,0,0,0.1,-0,-0,0.66667
0.95416,0.90269,9.5416,0.60404,7.0904,4.9553,-15.369,5.1231,-0.70657,-20.492,4.8483e-06,-0.35329,0,0,0.1,-9.4739e-16,0,0.66667
0.35878,0.25036,3.5878,-0.37446,-43.337,440.35,3.5826,-1.1942,-1.5067,4.7768,-1.0408e-11,-0.75336,0,0,0.1,9.4739e-16,0,0.66667
0.72512,0.76654,7.2512,0.39981,25.111,95.922,-7.7309,2.577,-1.4287,-10.308,-6.9091e-12,-0.71433,0,0,0.1,-9.4739e-16,0,0.66667
0.59297,0.27261,5.9297,-0.34108,-29.329,197,5.3933,-1.7978,-1.59,7.191,7.816e-13,-0.79501,0,0,0.1,-9.4739e-16,0,0.66667
0.70173,0.86943,7.0173,0.55415,37.356,112.01,-10.37,3.4565,-0.91107,-13.826,-6.0805e-12,-0.45553,0,0,0.1,1.4211e-15,0,0.66667
0.28609,0.64282,2.8609,0.21423,26.112,528.02,-1.6344,0.5448,-1.8347,-2.1792,9.8288e-13,-0.91737,0,0,0.1,-4.737e-16,0,0.66667
0.55036,0.0073181,5.5036,-0.73902,-68.677,236.87,10.846,-3.6154,-0.057809,14.462,1.295e-12,-0.028904,0,0,0.1,-0,-0,0.66667
0.0072068,0.9965,0.072068,0.74475,99.288,893.36,-0.14347,0.047772,-0.025997,-0.19131,-7.4503e-05,-0.012998,0,0,0.1,1.8504e-17,0,0.66667
0.95089,0.73424,9.5089,0.35136,4.3286,4.3808,-8.9095,2.9698,-1.5619,-11.879,5.2963e-08,-0.78095,0,0,0.1,-0,-0,0.66667
0.43824,0.37122,4.3824,-0.19317,-20.704,350.01,2.2574,-0.75246,-1.8717,3.0098,-3.3258e-12,-0.93586,0,0,0.1,7.1054e-16,0,0.66667
0.35615,0.7316,3.5615,0.34739,40.285,443.42,-3.2993,1.0998,-1.5705,-4.399,-4.8601e-12,-0.78524,0,0,0.1,-9.4739e-16,0,0.66667
0.10194,0.58169,1.0194,0.12254,16.1,766.17,-0.33311,0.11104,-1.9434,-0.44415,-1.8884e-08,-0.97172,0,0,0.1,-0,-0,0.66667
0.23738,0.33081,2.3738,-0.25378,-31.799,589.2,1.6065,-0.53549,-1.7709,2.1419,-2.7424e-11,-0.88543,0,0,0.1,-2.3685e-16,0,0.66667
0.29709,0.17858,2.9709,-0.48213,-58.445,514.69,3.8196,-1.2732,-1.1782,5.0928,-1.4861e-12,-0.58912,0,0,0.1,2.3685e-16,0,0.66667
0.47856,0.18239,4.7856,-0.47641,-48.808,307.39,6.0798,-2.0266,-1.191,8.1064,-3.3227e-12,-0.59551,0,0,0.1,2.3685e-16,0,0.66667
0.41502,0.63324,4.1502,0.19986,21.95,375.66,-2.2119,0.73729,-1.8552,-2.9492,-4.9192e-12,-0.9276,0,0,0.1,-0,-0,0.66667
0.056184,0.26058,0.56184,-0.35913,-47.572,827.46,0.53807,-0.17936,-1.5386,0.71742,7.5878e-08,-0.76931,0,0,0.1,1.1842e-16,0,0.66667
0.58894,0.62004,5.8894,0.18006,15.582,200.33,-2.8278,0.94261,-1.8834,-3.7704,7.1365e-13,-0.94172,0,0,0.1,-0,-0,0.66667
0.067005,0.13597,0.67005,-0.54605,-72.33,812.99,0.97568,-0.32523,-0.93816,1.3009,1.2724e-07,-0.46908,0,0,0.1,-0,-0,0.66667
0.27883,0.90532,2.7883,0.60798,74.639,537.42,-4.5206,1.5069,-0.68785,-6.0275,2.7082e-11,-0.34393,0,0,0.1,-5.4188e-16,0,0.66667
0.93135,0.66958,9.3135,0.25437,4.3656,7.3805,-6.3176,2.1059,-1.7671,-8.4235,8.8048e-08,-0.88353,0,0,0.1,-0,-0,0.66667
0.70165,0.30499,7.0165,-0.29252,-19.656,111.37,5.4732,-1.8244,-1.6983,7.2976,-7.2697e-13,-0.84915,0,0,0.1,4.737e-16,0,0.66667
0.68369,0.22207,6.8369,-0.41689,-29.435,124.34,7.6007,-2.5336,-1.382,10.134,-9.126e-13,-0.69098,0,0,0.1,-0,-0,0.66667
0.35623,0.23193,3.5623,-0.4021,-46.643,443.38,3.8197,-1.2732,-1.4248,5.093,-6.4302e-12,-0.71239,0,0,0.1,-0,-0,0.66667
0.59594,0.52362,5.9594,0.035423,3.0251,194.1,-0.56293,0.18764,-1.9969,-0.75057,-8.0991e-14,-0.99846,0,0,0.1,9.4739e-16,0,0.66667
0.82071,0.68626,8.2071,0.27939,12.02,43.123,-6.1147,2.0382,-1.7206,-8.1529,1.634e-10,-0.86032,0,0,0.1,-4.737e-16,0,0.66667
0.77901,0.60893,7.7901,0.16339,8.4741,63.541,-3.3943,1.1314,-1.9059,-4.5257,-2.8367e-11,-0.95297,0,0,0.1,-0,-0,0.66667
0.75092,0.77838,7.5092,0.41756,24.113,79.966,-8.3615,2.7872,-1.3843,-11.149,-2.7714e-11,-0.69213,0,0,0.1,2.3685e-16,0,0.66667
0.53154,0.056081,5.3154,-0.66588,-63.617,254.6,9.4384,-3.1461,-0.42835,12.585,1.3207e-12,-0.21417,0,0,0.1,-0,-0,0.66667
0.74519,0.8227,7.4519,0.48404,28.535,83.603,-9.6188,3.2063,-1.1651,-12.825,-7.9057e-12,-0.58253,0,0,0.1,-0,-0,0.66667
0.21772,0.41978,2.1772,-0.12033,-15.215,614.28,0.69859,-0.23286,-1.9514,0.93146,-2.3333e-11,-0.9757,0,0,0.1,-0,-0,0.66667
0.51855,0.57939,5.1855,0.11908,11.54,266.31,-1.6466,0.54888,-1.9495,-2.1955,1.2845e-13,-0.97475,0,0,0.1,-9.4739e-16,0,0.66667
0.81265,0.86599,8.1265,0.54898,24.71,47.621,-11.897,3.9656,-0.93329,-15.862,2.0312e-10,-0.46664,0,0,0.1,-0,-0,0.66667
0.27694,0.25652,2.7694,-0.36522,-44.798,539.48,2.6971,-0.89905,-1.5247,3.5962,-7.2724e-12,-0.76234,0,0,0.1,-0,-0,0.66667
0.50368,0.54304,5.0368,0.064559,6.3867,281.15,-0.86711,0.28904,-1.9843,-1.1561,1.3295e-13,-0.99214,0,0,0.1,-0,-0,0.66667
0.65239,0.09754,6.5239,-0.60369,-46.11,148.43,10.502,-3.5008,-0.70399,14.003,1.7852e-13,-0.35199,0,0,0.1,-0,-0,0.66667
0.08124,0.28293,0.8124,-0.32561,-42.974,793.86,0.70539,-0.23513,-1.6241,0.94052,7.368e-08,-0.81203,0,0,0.1,2.3685e-16,0,0.66667
0.14553,0.27324,1.4553,-0.34014,-44.233,708.4,1.32,-0.43999,-1.5869,1.7599,2.7855e-09,-0.79345,0,0,0.1,-1.1842e-16,0,0.66667
0.59348,0.93421,5.9348,0.65132,56.161,197.36,-10.308,3.4359,-0.49706,-13.744,-3.8192e-14,-0.24853,0,0,0.1,9.4739e-16,-4.4608e-17,0.66667
0.41393,0.024229,4.1393,-0.71366,-78.812,377.75,7.8774,-2.6258,-0.18637,10.503,3.3551e-12,-0.093187,0,0,0.1,-0,-0,0.66667
0.13115,0.39261,1.3115,-0.16109,-21.019,727.35,0.56335,-0.18778,-1.9049,0.75114,4.7685e-09,-0.95243,0,0,0.1,-0,-0,0.66667
0.80877,0.86814,8.0877,0.55221,25.319,49.455,-11.91,3.9699,-0.91527,-15.879,-2.2748e-10,-0.45763,0,0,0.1,9.4739e-16,0,0.66667
0.71564,0.28785,7.1564,-0.31823,-20.548,101.95,6.073,-2.0243,-1.6402,8.0973,1.4184e-12,-0.82008,0,0,0.1,-0,-0,0.66667
0.97583,0.28545,9.7583,-0.32183,-1.896,1.5642,8.3746,-2.7915,-1.6294,11.166,1.0221e-06,-0.81472,0,0,0.1,-0,-0,0.66667
0.040034,0.77323,0.40034,0.40984,54.39,849.17,-0.43753,0.14584,-1.4,-0.58337,-3.4001e-07,-0.70002,0,0,0.1,-2.9606e-17,0,0.66667
0.80309,0.78713,8.0309,0.43069,20.22,51.755,-9.2237,3.0746,-1.3382,-12.298,-4.5685e-11,-0.66909,0,0,0.1,-0,-0,0.66667
0.49155,0.76403,4.9155,0.39604,39.88,293.82,-5.1913,1.7304,-1.4391,-6.9218,-3.6584e-12,-0.71955,0,0,0.1,9.4739e-16,0,0.66667
0.19478,0.51431,1.9478,0.02147,2.7415,643.88,-0.11151,0.037172,-1.9951,-0.14869,-6.6451e-11,-0.99756,0,0,0.1,-0,-0,0.66667
0.14213,0.99615,1.4213,0.74423,97.219,713.16,-2.8208,0.94026,-0.033665,-3.761,-9.9123e-09,-0.016832,0,0,0.1,-1.7764e-16,0,0.66667
0.19893,0.33177,1.9893,-0.25234,-32.184,638.55,1.3386,-0.44622,-1.7722,1.7849,-3.1135e-11,-0.88608,0,0,0.1,-0,-0,0.66667
0.0073553,0.33649,0.073553,-0.24526,-32.572,893.15,0.048106,-0.016035,-1.7834,0.064141,5.173e-07,-0.89168,0,0,0.1,-0,-0,0.66667
0.12102,0.53567,1.2102,0.053511,6.9992,740.77,-0.17269,0.057564,-1.9894,-0.23026,-1.1857e-08,-0.99469,0,0,0.1,-0,-0,0.66667
0.69054,0.31819,6.9054,-0.27271,-18.885,119.13,5.0218,-1.6739,-1.736,6.6958,-5.2713e-13,-0.86801,0,0,0.1,-0,-0,0.66667
0.2922,0.89439,2.922,0.59159,72.014,520.86,-4.6096,1.5365,-0.75376,-6.1462,1.1742e-12,-0.37688,0,0,0.1,-4.737e-16,0,0.66667
0.49257,0.89587,4.9257,0.5938,59.834,293.21,-7.7996,2.5999,-0.74326,-10.4,4.6585e-13,-0.37163,0,0,0.1,-0,-0,0.66667
0.88095,0.81143,8.8095,0.46714,13.781,20.69,-10.974,3.658,-1.2228,-14.632,4.237e-09,-0.61139,0,0,0.1,-0,-0,0.66667
0.5238,0.641,5.238,0.2115,20.349,261.21,-2.9542,0.98473,-1.8377,-3.9389,-3.5394e-12,-0.91884,0,0,0.1,-0,-0,0.66667
0.70601,0.66852,7.0601,0.25279,16.774,108.31,-4.7592,1.5864,-1.7728,-6.3456,-3.3804e-12,-0.88641,0,0,0.1,-0,-0,0.66667
0.15105,0.79881,1.5105,0.44821,58.23,701.18,-1.8054,0.60181,-1.2834,-2.4073,-1.4558e-09,-0.64168,0,0,0.1,2.3685e-16,0,0.66667
0.43644,0.12165,4.3644,-0.56753,-61.115,352.52,6.6051,-2.2017,-0.85865,8.8068,-5.4841e-12,-0.42933,0,0,0.1,5.9212e-16,4.5356e-17,0.66667
0.89086,0.94844,8.9086,0.67266,18.431,18.641,-15.98,5.3266,-0.39575,-21.306,-5.2112e-08,-0.19787,0,0,0.1,-0,-0,0.66667
0.15977,0.19566,1.5977,-0.45651,-59.147,689.73,1.945,-0.64832,-1.2586,2.5933,5.0865e-10,-0.62929,0,0,0.1,-0,-0,0.66667
0.11866,0.40741,1.1866,-0.13889,-18.179,743.92,0.43946,-0.14649,-1.9299,0.58595,1.1879e-08,-0.96494,0,0,0.1,-0,-0,0.66667
0.82221,0.86054,8.2221,0.54081,23.21,43.237,-11.857,3.9525,-0.95731,-15.81,3.3894e-10,-0.47865,0,0,0.1,-0,-0,0.66667
0.058073,0.36444,0.58073,-0.20334,-26.91,824.9,0.31489,-0.10496,-1.8514,0.41985,8.0086e-09,-0.92571,0,0,0.1,-0,-0,0.66667
0.23225,0.68184,2.3225,0.27276,34.268,595.75,-1.6892,0.56308,-1.7372,-2.2523,2.3804e-11,-0.8686,0,0,0.1,2.3685e-16,0,0.66667
0.59496,0.98912,5.9496,0.73367,63.178,196.37,-11.64,3.88,-0.088826,-15.52,-1.7648e-12,-0.044413,0,0,0.1,9.4739e-16,0,0.66667
0.71146,0.41434,7.1146,-0.12848,-8.3871,104.47,2.4376,-0.81255,-1.9385,3.2502,2.6912e-13,-0.96923,0,0,0.1,-0,-0,0.66667
0.43296,0.072959,4.3296,-0.64056,-69.297,356.51,7.3956,-2.4652,-0.53942,9.8608,-3.4439e-12,-0.26971,0,0,0.1,9.4739e-16,0,0.66667
0.47992,0.005084,4.7992,-0.74237,-76.176,306.67,9.5008,-3.1669,-0.039464,12.668,-4.5999e-12,-0.019732,0,0,0.1,-0,-6.7661e-17,0.66667
0.086929,0.78992,0.86929,0.43489,57.378,786.28,-1.0081,0.33604,-1.3247,-1.3442,-2.5243e-08,-0.66237,0,0,0.1,-2.3685e-16,0,0.66667
0.61004,0.94796,6.1004,0.67194,56.173,183.15,-10.931,3.6436,-0.39837,-14.575,7.736e-13,-0.19919,0,0,0.1,-0,-0,0.66667
0.28032,0.88183,2.8032,0.57274,70.226,535.52,-4.2814,1.4271,-0.83723,-5.7085,-1.7858e-11,-0.41862,0,0,0.1,-0,8.0888e-17,0.66667
0.91892,0.34558,9.1892,-0.23163,-4.6831,9.897,5.676,-1.892,-1.8104,7.568,-5.8402e-08,-0.90521,0,0,0.1,-0,-0,0.66667
0.23822,0.098807,2.3822,-0.60179,-75.56,588.45,3.8229,-1.2743,-0.71195,5.0971,-1.0703e-11,-0.35598,0,0,0.1,-0,-0,0.66667
0.75065,0.098175,7.5065,-0.60274,-34.956,80.752,12.065,-4.0218,-0.71272,16.087,1.2819e-10,-0.35636,0,0,0.1,-0,-0,0.66667
0.70514,0.74125,7.0514,0.36188,24.097,109.11,-6.8047,2.2682,-1.5359,-9.0729,-3.2445e-12,-0.76795,0,0,0.1,9.4739e-16,0,0.66667
0.12278,0.10137,1.2278,-0.59794,-78.396,738.62,1.9578,-0.65259,-0.73011,2.6104,5.7512e-09,-0.36506,0,0,0.1,-0,-0,0.66667
0.20873,0.73491,2.0873,0.35236,44.775,625.95,-1.9613,0.65376,-1.5559,-2.615,3.1117e-11,-0.77796,0,0,0.1,4.737e-16,0,0.66667
0.19717,0.33817,1.9717,-0.24274,-30.981,640.83,1.2763,-0.42544,-1.7884,1.7018,-3.1628e-11,-0.89419,0,0,0.1,3.5527e-16,0,0.66667
0.78433,0.68777,7.8433,0.28165,14.31,60.891,-5.8908,1.9636,-1.7193,-7.8544,-4.9404e-11,-0.85965,0,0,0.1,-0,-0,0.66667
0.55115,0.047646,5.5115,-0.67853,-62.917,235.92,9.9726,-3.3242,-0.3614,13.297,5.4712e-13,-0.1807,0,0,0.1,-0,-0,0.66667
0.50799,0.84727,5.0799,0.5209,51.374,277.42,-7.0562,2.3521,-1.033,-9.4083,-9.7344e-13,-0.5165,0,0,0.1,-0,-0,0.66667
0.74258,0.32315,7.4258,-0.26527,-15.731,84.653,5.2529,-1.751,-1.7467,7.0038,1.0137e-11,-0.87336,0,0,0.1,-0,-0,0.66667
0.87749,0.77433,8.7749,0.41149,12.452,21.591,-9.6288,3.2096,-1.399,-12.838,5.6906e-09,-0.69949,0,0,0.1,-9.4739e-16,0,0.66667
0.070046,0.20967,0.70046,-0.4355,-57.613,808.88,0.81346,-0.27115,-1.3227,1.0846,1.9323e-07,-0.66135,0,0,0.1,-5.9212e-17,0,0.66667
0.37632,0.79928,3.7632,0.44891,51.211,419.98,-4.505,1.5017,-1.2858,-6.0066,-8.2436e-12,-0.64292,0,0,0.1,4.737e-16,0,0.66667
0.34177,0.35177,3.4177,-0.22235,-26.065,460.33,2.0265,-0.67548,-1.8259,2.7019,-4.6652e-12,-0.91294,0,0,0.1,-0,-0,0.66667
0.84428,0.24471,8.4428,-0.38294,-14.498,33.41,8.6215,-2.8738,-1.4831,11.495,-1.4565e-09,-0.74157,0,0,0.1,1.4211e-15,0,0.66667
0.76885,0.67753,7.6885,0.2663,14.382,69.267,-5.4599,1.82,-1.7476,-7.2798,-3.1513e-11,-0.8738,0,0,0.1,9.4739e-16,0,0.66667
0.5325,0.78639,5.325,0.42958,40.868,253.06,-6.1,2.0333,-1.3471,-8.1334,-1.1835e-12,-0.67354,0,0,0.1,-0,-0,0.66667
0.089548,0.037124,0.89548,-0.69431,-91.775,782.9,1.658,-0.55266,-0.28509,2.2106,-2.0442e-06,-0.14254,0,0,0.1,-0,-0,0.66667
0.92511,0.70405,9.2511,0.30607,5.7349,8.7377,-7.5506,2.5169,-1.6664,-10.067,1.0962e-07,-0.83322,0,0,0.1,-0,-0,0.66667
0.55794,0.054578,5.5794,-0.66813,-61.272,229.53,9.9408,-3.3136,-0.41134,13.254,4.432e-13,-0.20567,0,0,0.1,-9.4739e-16,-7.6102e-18,0.66667
0.023909,0.61852,0.23909,0.17778,23.592,870.85,-0.11335,0.037783,-1.885,-0.15113,3.2281e-07,-0.94248,0,0,0.1,-1.5449e-17,0,0.66667
0.64606,0.72693,6.4606,0.34039,26.284,152.67,-5.8644,1.9548,-1.5859,-7.8192,5.5067e-13,-0.79294,0,0,0.1,-0,-0,0.66667
0.27371,0.95235,2.7371,0.67852,83.62,543.91,-4.9525,1.6508,-0.35979,-6.6033,-5.0582e-13,-0.1799,0,0,0.1,-4.737e-16,0,0.66667
0.45368,0.64093,4.5368,0.21139,22.271,333.32,-2.5574,0.85247,-1.8449,-3.4099,5.0626e-14,-0.92243,0,0,0.1,-9.4739e-16,0,0.66667
0.89562,0.55546,8.9562,0.083191,2.1469,15.528,-1.9869,0.66228,-1.9737,-2.6491,1.6343e-08,-0.98684,0,0,0.1,-0,-0,0.66667
0.20404,0.24962,2.0404,-0.37557,-47.827,632.01,2.0435,-0.68118,-1.5032,2.7247,-6.5238e-11,-0.75158,0,0,0.1,5.6991e-16,0,0.66667
0.11364,0.12572,1.1364,-0.56142,-73.745,750.74,1.7013,-0.5671,-0.87927,2.2684,5.6344e-09,-0.43964,0,0,0.1,-4.737e-16,0,0.66667
0.61817,0.82868,6.1817,0.49303,40.453,175.73,-8.1273,2.7091,-1.1326,-10.836,-4.8672e-13,-0.56629,0,0,0.1,-0,-0,0.66667
0.67549,0.37953,6.7549,-0.1807,-13.001,129.92,3.255,-1.085,-1.8838,4.34,-1.2759e-12,-0.94191,0,0,0.1,-0,-0,0.66667
0.98885,0.48398,9.8885,-0.024031,-0.057042,0.32552,0.63368,-0.21123,-1.9961,0.8449,-3.8703e-06,-0.99807,0,0,0.1,-0,-0,0.66667
0.32157,0.57126,3.2157,0.10689,12.717,484.54,-0.91658,0.30553,-1.9566,-1.2221,-5.5437e-12,-0.97832,0,0,0.1,-0,-0,0.66667
0.90723,0.6197,9.0723,0.17955,4.1373,12.565,-4.3438,1.4479,-1.8891,-5.7918,3.0825e-08,-0.94453,0,0,0.1,-9.4739e-16,0,0.66667
0.59047,0.84133,5.9047,0.512,44.306,199.58,-8.0619,2.6873,-1.0686,-10.749,-7.6383e-14,-0.5343,0,0,0.1,1.0658e-15,0,0.66667
0.076837,0.81593,0.76837,0.47389,62.647,799.8,-0.971,0.32367,-1.2049,-1.2947,-1.0939e-07,-0.60247,0,0,0.1,-2.3685e-16,0,0.66667
0.93059,0.025954,9.3059,-0.71107,-12.663,9.3499,17.646,-5.8819,-0.19982,23.528,-3.4857e-06,-0.09991,0,0,0.1,-0,-0,0.66667
0.54246,0.74558,5.4246,0.36837,34.5,243.36,-5.3287,1.7762,-1.5167,-7.105,3.1175e-13,-0.75833,0,0,0.1,-9.4739e-16,0,0.66667
0.47386,0.94375,4.7386,0.66563,68.74,312.75,-8.4111,2.8037,-0.42297,-11.215,-3.3999e-12,-0.21149,0,0,0.1,-0,-0,0.66667
0.54448,0.051543,5.4448,-0.67268,-63.025,242.21,9.767,-3.2557,-0.39187,13.023,-1.1928e-12,-0.19594,0,0,0.1,-0,-0,0.66667
0.52734,0.99163,5.2734,0.73745,70.969,258.92,-10.37,3.4568,-0.06548,-13.827,5.8948e-12,-0.03274,0,0,0.1,-1.4211e-15,-9.2861e-17,0.66667
0.66148,0.11325,6.6148,-0.58013,-43.37,141.34,10.233,-3.4111,-0.80109,13.644,-1.5277e-12,-0.40054,0,0,0.1,-0,-0,0.66667
0.64445,0.93366,6.4445,0.65049,50.617,154.83,-11.179,3.7263,-0.49532,-14.905,-6.7502e-14,-0.24766,0,0,0.1,-2.3685e-16,0,0.66667
0.17293,0.29964,1.7293,-0.30054,-38.726,672.4,1.3859,-0.46198,-1.6817,1.8479,3.5849e-10,-0.84085,0,0,0.1,-2.3685e-16,0,0.66667
0.50754,0.067573,5.0754,-0.64864,-64.112,278.2,8.7789,-2.9263,-0.50157,11.705,2.2506e-12,-0.25078,0,0,0.1,-0,-0,0.66667
0.17819,0.88408,1.7819,0.57612,74.24,665.73,-2.7375,0.91252,-0.81716,-3.6501,6.6264e-10,-0.40858,0,0,0.1,-4.737e-16,0,0.66667
0.46566,0.75635,4.6566,0.38453,39.988,320.76,-4.775,1.5917,-1.4746,-6.3666,-6.4837e-13,-0.73728,0,0,0.1,-9.4739e-16,0,0.66667
0.095605,0.1393,0.95605,-0.54106,-71.33,774.74,1.3794,-0.4598,-0.9606,1.8392,4.6571e-08,-0.4803,0,0,0.1,-0,-0,0.66667
0.90893,0.29188,9.0893,-0.31218,-7.0854,12.405,7.5667,-2.5222,-1.6539,10.089,-4.2544e-08,-0.82694,0,0,0.1,-0,-0,0.66667
0.84302,0.68888,8.4302,0.28332,10.788,33.664,-6.3692,2.1231,-1.7194,-8.4922,1.3713e-09,-0.85971,0,0,0.1,-0,-0,0.66667
0.20466,0.17407,2.0466,-0.48889,-62.291,631.3,2.6682,-0.8894,-1.1522,3.5576,-1.0035e-10,-0.57608,0,0,0.1,-0,-0,0.66667
0.22201,0.42071,2.2201,-0.11894,-15.009,608.78,0.70413,-0.23471,-1.9492,0.93884,-2.2521e-11,-0.9746,0,0,0.1,4.737e-16,0,0.66667
0.56481,0.059662,5.6481,-0.66051,-59.887,223.15,9.9483,-3.3161,-0.45072,13.264,-1.1902e-13,-0.22536,0,0,0.1,-2.3685e-16,0,0.66667
0.041276,0.55519,0.41276,0.082792,10.972,847.47,-0.091129,0.030376,-1.9735,-0.1215,5.6498e-08,-0.98674,0,0,0.1,-2.9606e-17,0,0.66667
0.97916,0.80337,9.7916,0.45505,2.3348,1.7715,-11.882,3.9606,-1.2617,-15.842,-2.5993e-06,-0.63083,0,0,0.1,-9.4739e-16,0,0.66667
0.34441,0.22292,3.4441,-0.41563,-48.675,457.38,3.8173,-1.2724,-1.3902,5.0897,-7.1585e-12,-0.69512,0,0,0.1,9.4739e-16,0,0.66667
0.29624,0.012106,2.9624,-0.73184,-88.995,516.13,5.7814,-1.9271,-0.099354,7.7086,-1.1733e-11,-0.049677,0,0,0.1,9.4739e-16,0,0.66667
0.92794,0.47992,9.2794,-0.030121,-0.54038,7.7809,0.74536,-0.24845,-1.994,0.99381,-5.5636e-08,-0.99702,0,0,0.1,-0,-0,0.66667
0.24446,0.30123,2.4446,-0.29816,-37.232,580.24,1.9436,-0.64788,-1.6815,2.5915,-2.184e-11,-0.84073,0,0,0.1,2.3685e-16,0,0.66667
0.40519,0.92071,4.0519,0.63107,70.221,387.35,-6.8187,2.2729,-0.5868,-9.0916,5.1603e-13,-0.2934,0,0,0.1,-0,-0,0.66667
0.1838,0.8968,1.838,0.59519,76.55,658.43,-2.9173,0.97242,-0.73967,-3.8897,3.4618e-09,-0.36983,0,0,0.1,-0,-0,0.66667
0.086017,0.79136,0.86017,0.43704,57.673,787.5,-1.0025,0.33416,-1.3178,-1.3366,-2.8472e-08,-0.6589,0,0,0.1,-0,-0,0.66667
0.91325,0.62485,9.1325,0.18727,4.0417,11.114,-4.5608,1.5203,-1.8738,-6.081,3.4579e-08,-0.93689,0,0,0.1,-2.1168e-15,0,0.66667
0.27731,0.32441,2.7731,-0.26338,-32.282,538.94,1.9477,-0.64922,-1.7522,2.5969,-7.671e-12,-0.87609,0,0,0.1,4.737e-16,0,0.66667
0.7783,0.62723,7.783,0.19084,9.9275,63.956,-3.9608,1.3203,-1.8716,-5.2811,-3.2409e-11,-0.93582,0,0,0.1,-0,-0,0.66667
0.16216,0.50909,1.6216,0.013641,1.7631,686.45,-0.058987,0.019662,-1.9968,-0.078649,-5.2421e-10,-0.99842,0,0,0.1,-0,-0,0.66667
0.66577,0.30113,6.6577,-0.2983,-21.998,137.35,5.2959,-1.7653,-1.6808,7.0613,-1.1857e-13,-0.84042,0,0,0.1,-9.4739e-16,0,0.66667
0.27436,0.80006,2.7436,0.45009,55.326,542.78,-3.293,1.0977,-1.2766,-4.3906,-5.139e-12,-0.63831,0,0,0.1,-0,-0,0.66667
0.72525,0.54699,7.2525,0.070492,4.4144,95.337,-1.3633,0.45444,-1.9793,-1.8178,-4.3363e-12,-0.98964,0,0,0.1,9.4739e-16,0,0.66667
0.057234,0.30616,0.57234,-0.29077,-38.498,826.04,0.44378,-0.14793,-1.6976,0.59171,4.705e-08,-0.84879,0,0,0.1,-5.9212e-17,0,0.66667
0.66212,0.32105,6.6212,-0.26843,-19.963,140.07,4.7395,-1.5798,-1.7414,6.3194,-1.8083e-12,-0.87069,0,0,0.1,-0,-0,0.66667
0.056097,0.61804,0.56097,0.17707,23.437,827.55,-0.26488,0.088292,-1.886,-0.35317,6.7427e-09,-0.94302,0,0,0.1,2.9606e-17,0,0.66667
0.65752,0.77573,6.5752,0.41359,31.136,143.89,-7.2518,2.4173,-1.3949,-9.6691,1.9806e-13,-0.69747,0,0,0.1,-0,-0,0.66667
0.34971,0.85953,3.4971,0.53929,62.96,451.28,-5.0292,1.6764,-0.96309,-6.7056,-4.2193e-12,-0.48155,0,0,0.1,4.737e-16,0,0.66667
0.73581,0.79016,7.3581,0.43524,26.443,89.226,-8.5401,2.8467,-1.3289,-11.387,-4.4285e-12,-0.66446,0,0,0.1,-1.8948e-15,0,0.66667
0.41791,0.029688,4.1791,-0.70547,-77.587,373.29,7.8619,-2.6206,-0.23053,10.483,2.2742e-12,-0.11526,0,0,0.1,4.737e-16,-2.2489e-17,0.66667
0.55544,0.54425,5.5544,0.066382,6.0819,230.77,-0.98323,0.32774,-1.9812,-1.311,-3.2044e-12,-0.99059,0,0,0.1,-0,-0,0.66667
0.18966,0.79106,1.8966,0.43659,55.949,650.68,-2.2081,0.73602,-1.3235,-2.9441,-1.7708e-11,-0.66175,0,0,0.1,-0,-0,0.66667
0.27767,0.57146,2.7767,0.1072,13.13,538.42,-0.79376,0.26459,-1.9586,-1.0583,-2.7147e-12,-0.97928,0,0,0.1,-0,-0,0.66667
0.48609,0.32394,4.8609,-0.26408,-26.756,299.24,3.4232,-1.1411,-1.7538,4.5642,-2.6092e-12,-0.87691,0,0,0.1,-0,-0,0.66667
0.04653,0.67694,0.4653,0.26541,35.176,840.41,-0.32933,0.10978,-1.7539,-0.4391,6.8815e-08,-0.87693,0,0,0.1,-0,-0,0.66667
0.84893,0.83095,8.4893,0.49643,18.325,31.966,-11.238,3.7461,-1.1214,-14.984,-1.7771e-09,-0.56072,0,0,0.1,-0,-0,0.66667
0.43861,0.11627,4.3861,-0.57559,-61.843,350.17,6.7324,-2.2441,-0.82505,8.9765,-2.0073e-12,-0.41253,0,0,0.1,-0,-0,0.66667
0.1903,0.8332,1.903,0.4998,64.065,649.9,-2.5363,0.84544,-1.1121,-3.3818,-6.867e-12,-0.55603,0,0,0.1,-2.3685e-16,0,0.66667
0.1496,0.48883,1.496,-0.016748,-2.1733,702.96,0.066811,-0.02227,-1.996,0.089081,-1.4942e-09,-0.99802,0,0,0.1,4.737e-16,0,0.66667
0.12624,0.20331,1.2624,-0.44503,-58.224,733.96,1.4981,-0.49938,-1.2983,1.9975,5.6517e-09,-0.64914,0,0,0.1,-2.3685e-16,0,0.66667
0.48221,0.23428,4.8221,-0.39858,-40.62,303.45,5.1253,-1.7084,-1.4361,6.8338,-4.7624e-12,-0.71806,0,0,0.1,-0,-0,0.66667
0.99442,0.70979,9.9442,0.31468,0.31573,0.55821,-8.3447,2.7816,-1.6456,-11.126,9.6692e-07,-0.8228,0,0,0.1,-0,-0,0.66667
0.83565,0.99353,8.3565,0.7403,29.768,38.406,-16.497,5.4989,-0.048737,-21.996,2.9222e-09,-0.024369,0,0,0.1,-4.737e-16,0,0.66667
0.87993,0.21715,8.7993,-0.42427,-12.6,20.857,9.9554,-3.3185,-1.3592,13.274,-4.8176e-09,-0.67959,0,0,0.1,-2.0132e-15,0,0.66667
0.51326,0.48015,5.1326,-0.029782,-2.9075,271.53,0.40762,-0.13587,-1.9976,0.5435,-3.9435e-12,-0.99882,0,0,0.1,-0,-0,0.66667
0.013105,0.87556,0.13105,0.56333,74.955,885.42,-0.19686,0.065616,-0.8737,-0.26249,-8.1044e-06,-0.43685,0,0,0.1,-0,-0,0.66667
0.78924,0.063982,7.8924,-0.65403,-32.793,59.55,13.765,-4.5883,-0.47723,18.353,-8.1441e-10,-0.23861,0,0,0.1,-0,-0,0.66667
0.91445,0.39321,9.1445,-0.16019,-3.4091,10.797,3.9063,-1.3021,-1.9055,5.2084,-4.0531e-08,-0.95277,0,0,0.1,-1.3553e-16,0,0.66667
0.063162,0.50324,0.63162,0.0048624,0.64289,818.06,-0.0081898,0.0027302,-2.0045,-0.01092,3.5632e-07,-1.0023,0,0,0.1,-0,-0,0.66667
0.17499,0.31232,1.7499,-0.28153,-36.246,669.7,1.3137,-0.43791,-1.7195,1.7516,2.9872e-10,-0.85976,0,0,0.1,2.5535e-16,0,0.66667
0.50956,0.72985,5.0956,0.34477,33.875,275.5,-4.6848,1.5616,-1.5746,-6.2464,-4.154e-12,-0.78731,0,0,0.1,-0,-0,0.66667
0.43088,0.94451,4.3088,0.66676,72.315,358.85,-7.6611,2.5537,-0.41673,-10.215,7.4873e-13,-0.20837,0,0,0.1,-0,-0,0.66667
0.95888,0.52057,9.5888,0.030855,0.31345,2.8105,-0.78898,0.26299,-1.9941,-1.052,2.7505e-07,-0.99704,0,0,0.1,-0,-0,0.66667
0.98461,0.16511,9.8461,-0.50233,-1.884,1.6364,13.189,-4.3965,-1.1075,17.586,-2.5508e-07,-0.55374,0,0,0.1,1.8948e-15,0,0.66667
0.15433,0.54281,1.5433,0.064213,8.3206,696.73,-0.26427,0.088089,-1.9868,-0.35236,-1.1285e-09,-0.9934,0,0,0.1,2.3685e-16,0,0.66667
0.3531,0.004495,3.531,-0.74326,-86.737,447.68,6.9986,-2.3329,-0.033701,9.3315,3.9808e-12,-0.01685,0,0,0.1,-1.8948e-15,0,0.66667
0.57686,0.067872,5.7686,-0.64819,-57.571,212.13,9.971,-3.3237,-0.50928,13.295,2.732e-12,-0.25464,0,0,0.1,-0,-6.7429e-17,0.66667
0.42223,0.36136,4.2223,-0.20796,-22.672,367.64,2.3415,-0.78049,-1.8504,3.1219,-2.5171e-12,-0.9252,0,0,0.1,-0,-0,0.66667
0.5079,0.84339,5.079,0.51509,50.803,277.49,-6.9763,2.3254,-1.055,-9.3018,-1.4118e-12,-0.5275,0,0,0.1,-1.1842e-15,0,0.66667
0.87702,0.051475,8.7702,-0.67279,-20.63,22.845,15.735,-5.2449,-0.39194,20.979,-6.5827e-08,-0.19597,0,0,0.1,-0,-0,0.66667
0.060464,0.9197,0.60464,0.62954,83.524,821.78,-1.0151,0.33835,-0.59205,-1.3534,2.1928e-06,-0.29602,0,0,0.1,1.1842e-16,0,0.66667
0.91535,0.011289,9.1535,-0.73307,-15.827,12.669,17.894,-5.9646,-0.086363,23.858,2.0069e-07,-0.043181,0,0,0.1,3.7896e-15,0,0.66667
0.31256,0.86811,3.1256,0.55217,66.283,495.88,-4.6023,1.5341,-0.9212,-6.1364,-5.1328e-12,-0.4606,0,0,0.1,-0,-0,0.66667
0.72914,0.59123,7.2914,0.13685,8.4688,92.888,-2.6609,0.88695,-1.9322,-3.5478,-4.0516e-12,-0.96611,0,0,0.1,-9.4739e-16,0,0.66667
0.27511,0.53398,2.7511,0.050977,6.2528,541.6,-0.37398,0.12466,-1.989,-0.49864,-7.8529e-12,-0.99451,0,0,0.1,-0,-0,0.66667
0.72986,0.26527,7.2986,-0.35209,-21.777,92.767,6.8527,-2.2842,-1.5574,9.137,5.8051e-12,-0.7787,0,0,0.1,-9.4739e-16,0,0.66667
0.78436,0.72778,7.8436,0.34168,17.372,61.008,-7.1466,2.3822,-1.5849,-9.5287,-4.8567e-11,-0.79244,0,0,0.1,-0,-0,0.66667
0.56721,0.29885,5.6721,-0.30172,-27.139,220.08,4.5637,-1.5212,-1.6743,6.0849,-9.2371e-14,-0.83717,0,0,0.1,-0,-0,0.66667
0.11097,0.68494,1.1097,0.27741,36.393,754.17,-0.8209,0.27363,-1.7294,-1.0945,-2.0977e-08,-0.86472,0,0,0.1,-2.9606e-17,0,0.66667
0.1247,0.32071,1.247,-0.26894,-35.164,735.92,0.89432,-0.29811,-1.7475,1.1924,9.9556e-09,-0.87373,0,0,0.1,-0,-0,0.66667
0.85571,0.090777,8.5571,-0.61383,-21.797,29.902,14.007,-4.669,-0.66042,18.676,1.5053e-09,-0.33021,0,0,0.1,7.2704e-16,-1.0718e-18,0.66667
0.93388,0.010177,9.3388,-0.73474,-12.509,8.8773,18.298,-6.0992,-0.079862,24.397,-2.0663e-07,-0.039931,0,0,0.1,-0,-0,0.66667
0.64865,0.4219,6.4865,-0.11715,-8.9812,150.33,2.0264,-0.67547,-1.9479,2.7019,-2.3128e-12,-0.97396,0,0,0.1,1.7923e-16,0,0.66667
0.18497,0.72501,1.8497,0.33751,43.305,656.71,-1.6648,0.55494,-1.596,-2.2198,-7.4135e-11,-0.79801,0,0,0.1,-0,-0,0.66667
0.72233,0.58377,7.2233,0.12566,7.9414,97.273,-2.4204,0.8068,-1.9432,-3.2272,-2.1529e-12,-0.9716,0,0,0.1,-9.4739e-16,0,0.66667
0.22405,0.94462,2.2405,0.66693,84.379,606.59,-3.9846,1.3282,-0.41658,-5.3128,9.4948e-11,-0.20829,0,0,0.1,-4.737e-16,0,0.66667
0.75275,0.83358,7.5275,0.50037,28.751,79.135,-10.044,3.348,-1.1101,-13.392,-2.748e-11,-0.55507,0,0,0.1,-9.4739e-16,0,0.66667
0.99863,0.73645,9.9863,0.35467,-0.030869,0.58032,-9.4449,3.1483,-1.555,-12.593,1.8011e-06,-0.77751,0,0,0.1,1.8948e-15,0,0.66667
0.92131,0.72646,9.2131,0.33969,6.6902,9.6273,-8.3456,2.7819,-1.5939,-11.127,9.3198e-08,-0.79694,0,0,0.1,-0,-0,0.66667
0.52727,0.85522,5.2727,0.53282,51.139,258.38,-7.4918,2.4973,-0.98936,-9.989,-3.2059e-12,-0.49468,0,0,0.1,-0,-0,0.66667
0.62264,0.69028,6.2264,0.28543,23.16,171.55,-4.7392,1.5797,-1.7122,-6.3189,-7.2387e-14,-0.85609,0,0,0.1,-0,-0,0.66667
0.31542,0.25648,3.1542,-0.36528,-43.696,492.16,3.0724,-1.0241,-1.5261,4.0965,-6.0256e-12,-0.76304,0,0,0.1,-0,-0,0.66667
0.88054,0.50339,8.8054,0.0050788,0.14916,19.964,-0.11925,0.039752,-1.9984,-0.15901,-2.0021e-08,-0.99918,0,0,0.1,-0,-0,0.66667
0.86029,0.74133,8.6029,0.36199,12.382,27.293,-8.3045,2.7682,-1.5375,-11.073,3.9386e-09,-0.76874,0,0,0.1,-0,-0,0.66667
0.060565,0.46919,0.60565,-0.04621,-6.1119,821.54,0.074632,-0.024877,-1.9953,0.09951,2.4245e-07,-0.99767,0,0,0.1,-0,-0,0.66667
0.54964,0.49547,5.4964,-0.006794,-0.62823,236.21,0.099581,-0.033194,-2.0008,0.13277,-5.1695e-15,-1.0004,0,0,0.1,-1.8948e-15,0,0.66667
0.38057,0.38521,3.8057,-0.17219,-19.538,414.79,1.7474,-0.58248,-1.8922,2.3299,-3.7153e-12,-0.94609,0,0,0.1,-0,-0,0.66667
0.55684,0.59003,5.5684,0.13504,12.346,229.49,-2.0052,0.6684,-1.9335,-2.6736,-3.6315e-12,-0.96675,0,0,0.1,1.1122e-15,0,0.66667
0.18217,0.57512,1.8217,0.11268,14.461,660.27,-0.54738,0.18246,-1.9525,-0.72984,9.9342e-12,-0.97623,0,0,0.1,-4.737e-16,0,0.66667
0.79219,0.59841,7.9219,0.14761,7.2474,56.612,-3.1183,1.0394,-1.9214,-4.1578,-9.8646e-12,-0.96069,0,0,0.1,-0,-0,0.66667
0.11789,0.92298,1.1789,0.63447,83.314,745.13,-1.9947,0.66488,-0.56552,-2.6595,-1.2722e-07,-0.28276,0,0,0.1,9.7233e-17,0,0.66667
0.20303,0.13783,2.0303,-0.54325,-69.297,633.46,2.9413,-0.98042,-0.95539,3.9217,-1.6974e-10,-0.47769,0,0,0.1,-0,-1.3461e-16,0.66667
0.02395,0.25079,0.2395,-0.37382,-49.65,870.8,0.23874,-0.079582,-1.5014,0.31833,-1.5014e-06,-0.75072,0,0,0.1,-5.9212e-17,0,0.66667
0.058498,0.37725,0.58498,-0.18413,-24.365,824.33,0.28723,-0.095743,-1.8794,0.38297,2.813e-10,-0.93968,0,0,0.1,-0,-0,0.66667
0.11918,0.33199,1.1918,-0.25201,-32.994,743.25,0.80092,-0.26697,-1.7715,1.0679,1.2611e-08,-0.88577,0,0,0.1,-1.1842e-16,0,0.66667
0.45136,0.15015,4.5136,-0.52478,-55.559,336.26,6.3164,-2.1055,-1.0231,8.4219,-4.4049e-12,-0.51154,0,0,0.1,-4.737e-16,0,0.66667
0.89569,0.94915,8.9569,0.67372,17.687,17.289,-16.092,5.3639,-0.38398,-21.456,1.0013e-07,-0.19199,0,0,0.1,1.8948e-15,0,0.66667
0.10377,0.30876,1.0377,-0.28686,-37.693,763.76,0.79378,-0.26459,-1.7058,1.0584,3.1686e-08,-0.85289,0,0,0.1,-1.7764e-16,0,0.66667
0.99739,0.48015,9.9739,-0.029776,-0.0033826,0.050126,0.79194,-0.26398,-1.9973,1.0559,7.0016e-06,-0.99865,0,0,0.1,-0,-0,0.66667
0.92242,0.27988,9.2242,-0.33017,-6.4105,9.3636,8.1216,-2.7072,-1.6176,10.829,-1.0113e-07,-0.80879,0,0,0.1,1.1842e-16,0,0.66667
0.12597,0.54934,1.2597,0.074016,9.6694,734.2,-0.24863,0.082878,-1.9835,-0.33151,-3.0696e-09,-0.99176,0,0,0.1,-0,-0,0.66667
0.56161,0.92168,5.6161,0.63252,57.629,226.01,-9.4727,3.1576,-0.5806,-12.63,-8.3489e-14,-0.2903,0,0,0.1,-0,1.1841e-16,0.66667
0.57872,0.79049,5.7872,0.43574,38.472,209.86,-6.7246,2.2415,-1.3289,-8.9661,1.0538e-12,-0.66443,0,0,0.1,-0,-0,0.66667
0.78149,0.63883,7.8149,0.20824,10.696,62.273,-4.3397,1.4466,-1.8502,-5.7863,-3.7644e-11,-0.9251,0,0,0.1,-0,-0,0.66667
0.099377,0.19821,0.99377,-0.45268,-59.594,769.67,1.1996,-0.39988,-1.2689,1.5995,4.1794e-08,-0.63445,0,0,0.1,-0,-0,0.66667
0.089059,0.7685,0.89059,0.40274,53.106,783.43,-0.95648,0.31883,-1.4214,-1.2753,-2.836e-08,-0.71068,0,0,0.1,-1.1842e-16,0,0.66667
0.94471,0.51726,9.4471,0.025891,0.3561,4.7868,-0.65226,0.21742,-1.9944,-0.86968,-2.2187e-07,-0.9972,0,0,0.1,-3.7896e-15,0,0.66667
0.42548,0.32683,4.2548,-0.25975,-28.231,364.08,2.9472,-0.9824,-1.7592,3.9296,-6.0085e-13,-0.8796,0,0,0.1,-0,-0,0.66667
0.81916,0.75611,8.1916,0.38416,16.685,44.075,-8.3917,2.7972,-1.4728,-11.189,1.541e-10,-0.7364,0,0,0.1,-1.8948e-15,0,0.66667
0.78299,0.12535,7.8299,-0.56198,-28.849,62.422,11.734,-3.9113,-0.88035,15.645,-3.8111e-10,-0.44017,0,0,0.1,-0,-0,0.66667
0.8379,0.22923,8.379,-0.40616,-15.966,36.053,9.0752,-3.0251,-1.4109,12.1,-7.8274e-10,-0.70544,0,0,0.1,1.8948e-15,0,0.66667
0.13975,0.37112,1.3975,-0.19332,-25.167,715.98,0.72045,-0.24015,-1.8712,0.9606,4.1972e-09,-0.93561,0,0,0.1,5.9212e-17,0,0.66667
0.091732,0.80778,0.91732,0.46167,60.871,779.88,-1.1293,0.37645,-1.2442,-1.5058,-2.5262e-08,-0.62209,0,0,0.1,-5.9212e-17,0,0.66667
0.44285,0.43537,4.4285,-0.096951,-10.336,344.93,1.1449,-0.38164,-1.9654,1.5266,-2.2451e-12,-0.98269,0,0,0.1,-2.3685e-16,0,0.66667
0.8081,0.926,8.081,0.63901,29.46,50.144,-13.77,4.5901,-0.54656,-18.36,-3.8606e-10,-0.27328,0,0,0.1,-0,-0,0.66667
0.14031,0.93136,1.4031,0.64705,84.478,715.47,-2.421,0.80701,-0.51625,-3.2281,6.398e-08,-0.25812,0,0,0.1,-1.1842e-16,0,0.66667
0.17975,0.85749,1.7975,0.53624,69.035,663.66,-2.5703,0.85677,-0.97434,-3.4271,-1.0932e-10,-0.48717,0,0,0.1,-0,-0,0.66667
0.1606,0.044473,1.606,-0.68329,-88.688,688.82,2.9263,-0.97542,-0.33832,3.9017,1.0067e-10,-0.16916,0,0,0.1,-2.3685e-16,0,0.66667
0.23062,0.062793,2.3062,-0.65581,-82.701,598.19,4.0332,-1.3444,-0.47136,5.3775,-3.5514e-10,-0.23568,0,0,0.1,9.4739e-16,0,0.66667
0.32804,0.40405,3.2804,-0.14392,-17.044,476.73,1.259,-0.41968,-1.9323,1.6787,-5.4021e-12,-0.96615,0,0,0.1,-1.1842e-16,0,0.66667
0.06778,0.081351,0.6778,-0.62797,-83.236,811.98,1.135,-0.37835,-0.59551,1.5134,1.2275e-07,-0.29776,0,0,0.1,-8.0267e-17,0,0.66667
0.38652,0.61918,3.8652,0.17877,20.177,407.93,-1.8426,0.61421,-1.8856,-2.4569,-9.2834e-12,-0.9428,0,0,0.1,-0,-0,0.66667
0.28048,0.76723,2.8048,0.40084,49.074,535.11,-2.9981,0.99938,-1.4321,-3.9975,-4.5519e-13,-0.71603,0,0,0.1,-0,-0,0.66667
0.15318,0.87575,1.5318,0.56363,73.244,698.45,-2.3024,0.76746,-0.87176,-3.0698,-2.8711e-09,-0.43588,0,0,0.1,-0,6.8472e-20,0.66667
0.31327,0.55583,3.1327,0.083742,10.022,494.59,-0.69958,0.23319,-1.9789,-0.93277,5.8636e-13,-0.98947,0,0,0.1,-2.3685e-16,0,0.66667
0.49926,0.70099,4.9926,0.30148,30.031,285.81,-4.0138,1.3379,-1.6802,-5.3518,-2.9505e-12,-0.84012,0,0,0.1,-0,-0,0.66667
0.67091,0.26949,6.7091,-0.34577,-25.192,133.58,6.1862,-2.0621,-1.578,8.2482,-1.3345e-12,-0.78899,0,0,0.1,-0,-0,0.66667
0.29158,0.70152,2.9158,0.30228,36.729,521.29,-2.3503,0.78344,-1.6727,-3.1338,8.491e-13,-0.83635,0,0,0.1,-0,-0,0.66667
0.48683,0.93705,4.8683,0.65557,66.603,299.26,-8.5107,2.8369,-0.47407,-11.348,4.3867e-12,-0.23704,0,0,0.1,1.7764e-16,0,0.66667
0.69406,0.034591,6.9406,-0.69811,-48.188,117.91,12.921,-4.307,-0.26514,17.228,-3.0127e-12,-0.13257,0,0,0.1,-0,-0,0.66667
0.94232,0.17582,9.4232,-0.48626,-7.0995,6.1584,12.219,-4.073,-1.1573,16.292,1.5416e-08,-0.57865,0,0,0.1,-9.4739e-16,0,0.66667
0.11331,0.60785,1.1331,0.16178,21.204,751.03,-0.48885,0.16295,-1.9057,-0.6518,-1.362e-08,-0.95284,0,0,0.1,-0,-0,0.66667
0.37705,0.53276,3.7705,0.049137,5.5916,418.81,-0.49406,0.16469,-1.994,-0.65874,-5.4368e-12,-0.99698,0,0,0.1,-9.4739e-16,0,0.66667
0.86667,0.21037,8.6667,-0.43445,-14.248,25.264,10.041,-3.3469,-1.326,13.387,-6.2595e-09,-0.66302,0,0,0.1,-9.4739e-16,0,0.66667
0.76793,0.81183,7.6793,0.46774,25.421,70.288,-9.5785,3.1928,-1.2244,-12.771,-8.9534e-11,-0.61222,0,0,0.1,5.9212e-17,0,0.66667
0.82594,0.12599,8.2594,-0.56102,-23.63,41.673,12.357,-4.1188,-0.88336,16.475,-4.3e-11,-0.44168,0,0,0.1,-0,-0,0.66667
0.036904,0.38288,0.36904,-0.17568,-23.295,853.35,0.17289,-0.057629,-1.888,0.23051,-1.8487e-07,-0.94401,0,0,0.1,-0,-0,0.66667
0.80406,0.38067,8.0406,-0.17899,-8.3376,50.738,3.8378,-1.2793,-1.8836,5.117,-3.2062e-11,-0.94178,0,0,0.1,-0,-0,0.66667
0.095263,0.42336,0.95263,-0.11496,-15.123,775.08,0.29204,-0.097345,-1.955,0.38938,1.9723e-08,-0.97752,0,0,0.1,-1.1842e-16,0,0.66667
0.35271,0.098327,3.5271,-0.60251,-70.216,447.85,5.6669,-1.889,-0.70702,7.5559,2.4358e-12,-0.35351,0,0,0.1,-9.4739e-16,0,0.66667
0.23302,0.85235,2.3302,0.52852,66.488,594.97,-3.2842,1.0947,-1.0094,-4.379,1.856e-11,-0.50472,0,0,0.1,-0,8.9621e-18,0.66667
0.98438,0.12663,9.8438,-0.56006,-2.1701,1.9172,14.702,-4.9005,-0.89096,19.602,-2.3009e-06,-0.44548,0,0,0.1,-0,-0,0.66667
0.48234,0.089524,4.8234,-0.61571,-62.878,303.79,7.9196,-2.6399,-0.65416,10.559,-3.5265e-12,-0.32708,0,0,0.1,-4.737e-16,0,0.66667
0.28033,0.85604,2.8033,0.53407,65.459,535.46,-3.9924,1.3308,-0.98898,-5.3232,-3.032e-12,-0.49449,0,0,0.1,-4.737e-16,1.5662e-16,0.66667
0.42077,0.1314,4.2077,-0.5529,-60.52,369.75,6.2039,-2.068,-0.9164,8.2718,-1.0418e-12,-0.4582,0,0,0.1,9.4739e-16,0,0.66667
0.13901,0.42191,1.3901,-0.11714,-15.25,716.95,0.43421,-0.14474,-1.953,0.57895,3.0422e-09,-0.97652,0,0,0.1,-1.6462e-16,0,0.66667
0.78121,0.59495,7.8121,0.14243,7.3206,62.339,-2.9671,0.98904,-1.9341,-3.9561,-8.733e-13,-0.96705,0,0,0.1,-0,-0,0.66667
0.82105,0.86609,8.2105,0.54913,23.711,43.784,-12.023,4.0077,-0.92496,-16.031,5.831e-10,-0.46248,0,0,0.1,9.4739e-16,0,0.66667
0.0059699,0.80743,0.059699,0.46114,61.315,895.02,-0.073411,0.024469,-1.2419,-0.097881,-2.2776e-06,-0.62093,0,0,0.1,3.7007e-18,0,0.66667
0.35861,0.90751,3.5861,0.61127,70.902,440.92,-5.8455,1.9485,-0.67624,-7.7941,6.4926e-13,-0.33812,0,0,0.1,-0,-0,0.66667
0.92793,0.57732,9.2793,0.11597,2.0825,7.835,-2.8698,0.95659,-1.9493,-3.8264,5.3351e-08,-0.97466,0,0,0.1,-1.8948e-15,0,0.66667
0.55859,0.34121,5.5859,-0.23818,-21.723,227.96,3.5478,-1.1826,-1.7982,4.7305,-1.4879e-12,-0.89912,0,0,0.1,-7.1472e-17,0,0.66667
0.17029,0.65394,1.7029,0.23091,29.774,675.82,-1.0486,0.34954,-1.8135,-1.3982,-4.1945e-10,-0.90677,0,0,0.1,-2.9606e-16,0,0.66667
0.39769,0.27575,3.9769,-0.33638,-37.6,395.33,3.5672,-1.1891,-1.5952,4.7563,-6.5978e-12,-0.7976,0,0,0.1,-0,-0,0.66667
0.63071,0.012783,6.3071,-0.73083,-58.659,166.18,12.292,-4.0972,-0.09832,16.389,3.5927e-12,-0.04916,0,0,0.1,-1.8948e-15,0,0.66667
0.7635,0.13408,7.635,-0.54888,-30.373,73.069,11.175,-3.7251,-0.93017,14.9,3.3878e-11,-0.46508,0,0,0.1,1.8948e-15,-5.959e-17,0.66667
0.98548,0.12831,9.8548,-0.55753,-1.9975,1.8469,14.652,-4.8839,-0.89855,19.536,-4.8505e-06,-0.44927,0,0,0.1,-0,-0,0.66667
0.97769,0.7979,9.7769,0.44685,2.4611,1.8427,-11.65,3.8834,-1.2869,-15.533,-2.6643e-06,-0.64347,0,0,0.1,-0,-0,0.66667
0.44414,0.81817,4.4414,0.47725,50.915,343.97,-5.6524,1.8841,-1.1878,-7.5365,-2.5007e-12,-0.59388,0,0,0.1,-0,-0,0.66667
0.91798,0.25069,9.1798,-0.37396,-7.6799,10.457,9.1543,-3.0514,-1.5031,12.206,-6.8724e-08,-0.75155,0,0,0.1,-0,-0,0.66667
0.72376,0.76704,7.2376,0.40056,25.264,96.805,-7.731,2.577,-1.4273,-10.308,-7.4833e-12,-0.71364,0,0,0.1,-0,-0,0.66667
0.15494,0.29825,1.5494,-0.30262,-39.233,695.99,1.2503,-0.41678,-1.6768,1.6671,1.5161e-09,-0.83838,0,0,0.1,5.3363e-17,0,0.66667
0.56932,0.47383,5.6932,-0.039254,-3.5146,217.92,0.59595,-0.19865,-1.9921,0.7946,5.8847e-13,-0.99607,0,0,0.1,-0,-0,0.66667
0.52955,0.08678,5.2955,-0.61983,-59.354,256.39,8.7529,-2.9176,-0.63622,11.671,1.4593e-12,-0.31811,0,0,0.1,-4.737e-16,-8.2089e-17,0.66667
0.93954,0.47528,9.3954,-0.037087,-0.55826,5.6375,0.92919,-0.30973,-1.9968,1.2389,-5.2634e-08,-0.99842,0,0,0.1,-0,-0,0.66667
0.69262,0.80615,6.9262,0.45922,31.689,118.07,-8.4818,2.8273,-1.2485,-11.309,1.8234e-12,-0.62424,0,0,0.1,-4.737e-16,0,0.66667
0.53942,0.84989,5.3942,0.52484,49.46,246.6,-7.5496,2.5165,-1.018,-10.066,-1.8083e-12,-0.50898,0,0,0.1,-0,-0,0.66667
0.91872,0.2421,9.1872,-0.38684,-7.8779,10.332,9.4774,-3.1591,-1.468,12.637,-7.2103e-08,-0.73398,0,0,0.1,-0,-0,0.66667
0.080916,0.2071,0.80916,-0.43935,-58.028,794.32,0.94802,-0.31601,-1.3139,1.264,6.6213e-08,-0.65693,0,0,0.1,-1.1842e-16,0,0.66667
0.30942,0.1449,3.0942,-0.53265,-64.066,499.66,4.395,-1.465,-0.99109,5.86,-5.5995e-12,-0.49554,0,0,0.1,4.737e-16,0,0.66667
0.36636,0.72165,3.6636,0.33247,38.223,431.42,-3.2481,1.0827,-1.6049,-4.3307,-9.2151e-12,-0.80247,0,0,0.1,-0,-0,0.66667
0.011747,0.3301,0.11747,-0.25485,-33.843,887.23,0.079832,-0.02661,-1.7679,0.10644,1.9712e-07,-0.88394,0,0,0.1,1.4803e-17,0,0.66667
0.54516,0.50094,5.4516,0.0014064,0.13097,240.46,-0.020446,0.0068152,-2.0032,-0.027261,-4.0983e-12,-1.0016,0,0,0.1,-0,-0,0.66667
0.38558,0.59638,3.8558,0.14457,16.329,409.01,-1.4865,0.49549,-1.9246,-1.982,-8.7986e-12,-0.9623,0,0,0.1,-0,-0,0.66667
0.46514,0.19373,4.6514,-0.4594,-47.833,321.44,5.6983,-1.8994,-1.2493,7.5978,-4.2588e-12,-0.62465,0,0,0.1,-0,-0,0.66667
0.052614,0.35369,0.52614,-0.21947,-29.065,832.23,0.30793,-0.10264,-1.8263,0.41057,-2.5139e-08,-0.91313,0,0,0.1,-1.1842e-16,0,0.66667
0.98055,0.26454,9.8055,-0.35319,-1.6538,1.3204,9.2351,-3.0784,-1.5553,12.313,1.0137e-06,-0.77766,0,0,0.1,-1.8948e-15,0,0.66667
0.87537,0.80673,8.7537,0.4601,14.171,22.438,-10.74,3.5801,-1.2521,-14.32,4.7337e-09,-0.62605,0,0,0.1,-4.737e-16,0,0.66667
0.31262,0.25213,3.1262,-0.37181,-44.566,495.57,3.0996,-1.0332,-1.5144,4.1328,-5.7283e-12,-0.75718,0,0,0.1,9.4739e-16,0,0.66667
0.081769,0.19176,0.81769,-0.46237,-61.069,793.19,1.0082,-0.33607,-1.2398,1.3443,5.0303e-08,-0.61991,0,0,0.1,-0,-0,0.66667
0.1066,0.10151,1.066,-0.59774,-78.666,760.12,1.6992,-0.5664,-0.73015,2.2656,-1.7682e-08,-0.36508,0,0,0.1,-0,-6.6939e-17,0.66667
0.11128,0.15852,1.1128,-0.51222,-67.291,753.85,1.52,-0.50666,-1.0698,2.0266,1.3379e-08,-0.53488,0,0,0.1,4.737e-16,0,0.66667
0.31416,0.97084,3.1416,0.70625,84.826,494.2,-5.9168,1.9723,-0.22955,-7.889,-8.8329e-13,-0.11478,0,0,0.1,-9.4739e-16,0,0.66667
0.74672,0.34448,7.4672,-0.23328,-13.638,82.081,4.6453,-1.5484,-1.8075,6.1937,1.1471e-11,-0.90376,0,0,0.1,-0,-0,0.66667
0.86782,0.0019669,8.6782,-0.74705,-24.588,26.293,17.288,-5.7627,-0.013781,23.051,1.3706e-09,-0.0068906,0,0,0.1,-0,-0,0.66667
0.45038,0.92507,4.5038,0.6376,67.666,337.58,-7.6577,2.5526,-0.55475,-10.21,2.0215e-12,-0.27737,0,0,0.1,-0,-1.3222e-16,0.66667
0.7354,0.7774,7.354,0.41609,25.307,89.431,-8.1599,2.72,-1.3882,-10.88,-3.5678e-12,-0.69412,0,0,0.1,2.3685e-16,0,0.66667
0.19541,0.90556,1.9541,0.60834,77.893,643.38,-3.1701,1.0567,-0.68244,-4.2267,-2.3243e-09,-0.34122,0,0,0.1,8.8818e-17,0,0.66667
0.1939,0.052008,1.939,-0.67199,-86.152,645.4,3.4747,-1.1582,-0.3916,4.6329,-1.2882e-09,-0.1958,0,0,0.1,-0,-0,0.66667
0.36744,0.091851,3.6744,-0.61222,-70.489,430.59,5.9989,-1.9996,-0.66536,7.9985,-2.6059e-12,-0.33268,0,0,0.1,-5.9212e-16,0,0.66667
0.34924,0.47648,3.4924,-0.035287,-4.1105,451.39,0.32863,-0.10954,-1.9934,0.43817,-3.0346e-12,-0.99672,0,0,0.1,-0,-0,0.66667
0.30208,0.6383,3.0208,0.20745,25.024,508.31,-1.6711,0.55702,-1.8447,-2.2281,-1.5175e-12,-0.92233,0,0,0.1,4.737e-16,0,0.66667
0.54976,0.12317,5.4976,-0.56524,-52.445,236.88,8.2866,-2.7622,-0.86531,11.049,6.164e-13,-0.43265,0,0,0.1,-1.0658e-15,0,0.66667
0.012695,0.45907,0.12695,-0.061393,-8.1489,885.95,0.020784,-0.0069293,-1.9867,0.027712,-1.9516e-06,-0.99337,0,0,0.1,-0,-0,0.66667
0.35923,0.86273,3.5923,0.54409,63.033,440.07,-5.2121,1.7374,-0.95208,-6.9495,-4.2175e-12,-0.47604,0,0,0.1,-0,-1.3125e-16,0.66667
0.68499,0.67585,6.8499,0.26377,18.533,123.09,-4.8182,1.6061,-1.7532,-6.4242,1.2346e-13,-0.8766,0,0,0.1,-9.4739e-16,0,0.66667
0.20754,0.64976,2.0754,0.22464,28.542,627.41,-1.2432,0.41442,-1.8194,-1.6577,2.1363e-11,-0.90971,0,0,0.1,-0,-0,0.66667
0.18084,0.94673,1.8084,0.6701,86.346,662.37,-3.2314,1.0771,-0.40062,-4.3086,-5.9195e-09,-0.20031,0,0,0.1,-0,-0,0.66667
0.29412,0.78172,2.9412,0.42259,51.302,518.28,-3.3144,1.1048,-1.3668,-4.4192,6.4038e-13,-0.68339,0,0,0.1,-0,-0,0.66667
0.0056085,0.85954,0.056085,0.53931,71.754,895.5,-0.080656,0.026883,-0.96321,-0.10754,-4.2831e-06,-0.4816,0,0,0.1,-0,-6.0485e-17,0.66667
0.34478,0.093471,3.4478,-0.60979,-71.52,457.24,5.6066,-1.8689,-0.68236,7.4755,-1.5699e-12,-0.34118,0,0,0.1,2.9606e-17,0,0.66667
0.8284,0.54598,8.284,0.068969,2.8453,39.463,-1.5236,0.50786,-1.9874,-2.0314,1.5298e-10,-0.99369,0,0,0.1,-0,-0,0.66667
0.022289,0.46279,0.22289,-0.055819,-7.4065,873.03,0.033178,-0.011059,-1.9865,0.044237,5.6537e-07,-0.99323,0,0,0.1,-0,-0,0.66667
0.030319,0.51366,0.30319,0.020497,2.7185,862.21,-0.016572,0.0055252,-2.0016,-0.022096,1.6443e-06,-1.0008,0,0,0.1,-1.1842e-16,0,0.66667
0.37436,0.48691,3.7436,-0.019641,-2.2404,421.93,0.19608,-0.065358,-2.0022,0.26143,-4.6673e-12,-1.0011,0,0,0.1,-0,-0,0.66667
0.06536,0.46196,0.6536,-0.057059,-7.5422,815.11,0.09945,-0.03315,-1.989,0.1326,2.4681e-08,-0.99448,0,0,0.1,-1.1842e-16,0,0.66667
0.85305,0.87188,8.5305,0.55782,20.108,30.645,-12.689,4.2298,-0.89174,-16.919,2.5317e-09,-0.44587,0,0,0.1,1.4211e-15,0,0.66667
0.36355,0.95926,3.6355,0.68889,79.649,435.29,-6.6785,2.2262,-0.31141,-8.9047,-1.7395e-12,-0.1557,0,0,0.1,4.737e-16,0,0.66667
0.70869,0.054388,7.0869,-0.66842,-44.282,107.7,12.632,-4.2107,-0.40923,16.843,8.1624e-13,-0.20461,0,0,0.1,-0,-0,0.66667
0.34251,0.84271,3.4251,0.51407,60.343,459.79,-4.6953,1.5651,-1.0643,-6.2604,-4.5812e-12,-0.53217,0,0,0.1,5.3291e-16,0,0.66667
0.28541,0.31991,2.8541,-0.27014,-32.947,528.89,2.056,-0.68534,-1.7395,2.7413,-1.1911e-11,-0.86975,0,0,0.1,-0,-0,0.66667
0.0054914,0.54289,0.054914,0.064328,8.5396,895.66,-0.00942,0.0031387,-1.9828,-0.012561,-1.9138e-06,-0.99142,0,0,0.1,-0,-0,0.66667
0.27003,0.96627,2.7003,0.69941,86.402,548.52,-5.0364,1.6788,-0.26018,-6.7152,9.8943e-13,-0.13009,0,0,0.1,4.737e-16,0,0.66667
0.55821,0.31488,5.5821,-0.27767,-25.347,228.37,4.1333,-1.3778,-1.7255,5.5111,-3.5341e-12,-0.86273,0,0,0.1,1.8948e-15,0,0.66667
0.39521,0.10285,3.9521,-0.59572,-66.895,398.57,6.2783,-2.0928,-0.7366,8.371,-4.4902e-12,-0.3683,0,0,0.1,-0,-0,0.66667
0.84515,0.74048,8.4515,0.36073,13.58,33.003,-8.1298,2.7099,-1.5398,-10.84,1.5638e-09,-0.7699,0,0,0.1,-0,-0,0.66667
0.25356,0.77002,2.5356,0.40503,50.364,568.81,-2.7387,0.91289,-1.416,-3.6515,5.8418e-12,-0.70799,0,0,0.1,-0,-0,0.66667
0.92019,0.55431,9.2019,0.081458,1.6175,9.4249,-1.9988,0.66628,-1.9785,-2.6651,2.9483e-08,-0.98926,0,0,0.1,-9.4739e-16,0,0.66667
0.14496,0.19467,1.4496,-0.458,-59.616,709.21,1.7704,-0.59014,-1.253,2.3606,2.3867e-09,-0.6265,0,0,0.1,4.737e-16,0,0.66667
0.48392,0.9817,4.8392,0.72256,73.75,302.47,-9.3242,3.1081,-0.14767,-12.432,3.0909e-13,-0.073836,0,0,0.1,-0,-0,0.66667
0.20199,0.34741,2.0199,-0.22888,-29.152,634.59,1.2328,-0.41095,-1.8174,1.6438,-4.763e-11,-0.90869,0,0,0.1,-4.737e-16,0,0.66667
0.11218,0.70238,1.1218,0.30357,39.819,752.56,-0.90814,0.30271,-1.6724,-1.2109,-1.9545e-08,-0.8362,0,0,0.1,-0,-0,0.66667
0.078936,0.89002,0.78936,0.58504,77.385,797.03,-1.2315,0.41049,-0.7863,-1.642,3.2762e-09,-0.39315,0,0,0.1,-0,-0,0.66667
0.097961,0.085307,0.97961,-0.62204,-82.029,771.64,1.625,-0.54165,-0.62304,2.1666,-2.5016e-08,-0.31152,0,0,0.1,-0,-0,0.66667
0.44342,0.31687,4.4342,-0.27469,-29.286,344.44,3.2482,-1.0827,-1.7298,4.3309,-9.6079e-13,-0.86489,0,0,0.1,-0,-0,0.66667
0.49394,0.86576,4.9394,0.54864,55.156,291.7,-7.2264,2.4088,-0.92719,-9.6352,1.914e-13,-0.46359,0,0,0.1,4.737e-16,0,0.66667
0.29445,0.90543,2.9445,0.60815,73.935,518.11,-4.7752,1.5917,-0.68712,-6.3669,-1.1433e-11,-0.34356,0,0,0.1,-2.0724e-16,0,0.66667
0.71033,0.70738,7.1033,0.31106,20.398,105.48,-5.8922,1.9641,-1.6529,-7.8563,-4.226e-12,-0.82643,0,0,0.1,-0,-0,0.66667
0.0215,0.4948,0.215,-0.007805,-1.0356,874.09,0.0044748,-0.0014926,-1.9978,0.005966,-1.4789e-06,-0.99888,0,0,0.1,-3.1678e-17,0,0.66667
0.30959,0.66677,3.0959,0.25015,30.027,499.15,-2.0652,0.68841,-1.7776,-2.7536,-2.5004e-12,-0.88881,0,0,0.1,-0,-0,0.66667
0.84278,0.99771,8.4278,0.74657,28.835,35.544,-16.779,5.5928,-0.022476,-22.371,-4.9675e-09,-0.011238,0,0,0.1,1.1842e-15,3.2147e-17,0.66667
0.54746,0.3655,5.4746,-0.20176,-18.729,238.38,2.9454,-0.9818,-1.8592,3.9272,-3.0687e-13,-0.92961,0,0,0.1,-4.737e-16,0,0.66667
0.05517,0.16096,0.5517,-0.50857,-67.442,828.85,0.7482,-0.2494,-1.078,0.9976,-8.0497e-08,-0.53899,0,0,0.1,-0,-0,0.66667
0.51017,0.8193,5.1017,0.47895,47.074,275.14,-6.5159,2.172,-1.1824,-8.6878,-2.1103e-12,-0.59119,0,0,0.1,-0,-0,0.66667
0.29425,0.90758,2.9425,0.61137,74.339,518.36,-4.7973,1.5991,-0.67275,-6.3964,-1.1257e-11,-0.33638,0,0,0.1,-0,1.2788e-16,0.66667
0.16633,0.020615,1.6633,-0.71908,-93.191,681.36,3.1894,-1.0631,-0.15909,4.2525,5.2086e-09,-0.079547,0,0,0.1,-0,-0,0.66667
0.67928,0.38913,6.7928,-0.1663,-11.85,127.11,3.0125,-1.0042,-1.8984,4.0166,-1.5328e-12,-0.94921,0,0,0.1,9.4739e-16,0,0.66667
0.19682,0.54707,1.9682,0.070602,9.0082,641.24,-0.37055,0.12352,-1.9793,-0.49407,-6.8631e-12,-0.98965,0,0,0.1,-0,-0,0.66667
0.39589,0.89271,3.9589,0.58907,66.101,397.78,-6.2189,2.073,-0.76384,-8.2918,-1.6023e-12,-0.38192,0,0,0.1,-0,-0,0.66667
0.72776,0.28688,7.2776,-0.31969,-19.896,94.036,6.2042,-2.0681,-1.6342,8.2723,5.0453e-12,-0.81712,0,0,0.1,-0,-0,0.66667
0.80994,0.72485,8.0994,0.33727,15.313,48.217,-7.2844,2.4281,-1.5966,-9.7125,2.6229e-11,-0.79829,0,0,0.1,1.8948e-15,0,0.66667
0.60148,0.7141,6.0148,0.32115,27.176,189.54,-5.1512,1.7171,-1.6308,-6.8682,1.6893e-12,-0.81542,0,0,0.1,-4.737e-16,0,0.66667
0.13081,0.80871,1.3081,0.46306,60.517,727.91,-1.6153,0.53842,-1.2358,-2.1537,-5.4107e-09,-0.61792,0,0,0.1,5.9212e-17,0,0.66667
0.01089,0.87638,0.1089,0.56457,75.125,888.4,-0.16395,0.054644,-0.86609,-0.21861,-1.0687e-05,-0.43304,0,0,0.1,2.9606e-17,0,0.66667
0.29257,0.67485,2.9257,0.26227,31.842,520.03,-2.0462,0.68208,-1.7538,-2.7283,-3.1939e-12,-0.87692,0,0,0.1,4.737e-16,0,0.66667
0.48388,0.98115,4.8388,0.72172,73.667,302.5,-9.3128,3.1043,-0.15191,-12.417,1.8865e-12,-0.075953,0,0,0.1,9.4739e-16,1.1338e-16,0.66667
0.075671,0.54659,0.75671,0.069881,9.2236,801.28,-0.14101,0.047004,-1.9832,-0.18802,1.008e-08,-0.99159,0,0,0.1,1.1842e-16,0,0.66667
0.083491,0.55471,0.83491,0.082062,10.818,790.81,-0.18271,0.060902,-1.974,-0.24361,-1.9407e-08,-0.987,0,0,0.1,1.1842e-16,0,0.66667
0.97949,0.95961,9.7949,0.68942,3.6688,2.9165,-18.008,6.0025,-0.30816,-24.01,-3.4072e-05,-0.15408,0,0,0.1,-0,-0,0.66667
0.62427,0.98317,6.2427,0.72475,58.946,171.44,-12.065,4.0217,-0.1358,-16.087,-2.0135e-12,-0.067902,0,0,0.1,9.4739e-16,-1.1772e-16,0.66667
0.82291,0.23267,8.2291,-0.401,-17.093,42.444,8.7996,-2.9332,-1.4259,11.733,-1.4129e-10,-0.71295,0,0,0.1,-0,-0,0.66667
0.78101,0.77624,7.8101,0.41436,21.38,62.973,-8.6297,2.8766,-1.3947,-11.506,-5.6186e-11,-0.69735,0,0,0.1,-1.1244e-17,0,0.66667
0.51024,0.88808,5.1024,0.58212,57.274,275.32,-7.9206,2.6402,-0.79269,-10.561,-2.9097e-12,-0.39634,0,0,0.1,9.4739e-16,0,0.66667
0.60696,0.87777,6.0696,0.56665,47.578,185.42,-9.1716,3.0572,-0.86009,-12.229,3.5003e-12,-0.43005,0,0,0.1,-1.8948e-15,0,0.66667
0.28245,0.58043,2.8245,0.12065,14.735,532.49,-0.90874,0.30291,-1.9508,-1.2117,-4.6663e-12,-0.97541,0,0,0.1,-0,-0,0.66667
0.936,0.6952,9.36,0.2928,4.6926,6.6089,-7.3082,2.4361,-1.6976,-9.7442,9.7741e-08,-0.84882,0,0,0.1,-0,-0,0.66667
0.61687,0.87202,6.1687,0.55803,45.946,177,-9.1796,3.0599,-0.89064,-12.239,-7.3541e-13,-0.44532,0,0,0.1,-0,-0,0.66667
0.40685,0.23849,4.0685,-0.39227,-43.479,385.03,4.2558,-1.4186,-1.4567,5.6744,-1.6134e-12,-0.72833,0,0,0.1,4.737e-16,0,0.66667
0.050178,0.86192,0.50178,0.54289,72.052,835.56,-0.72643,0.24214,-0.95156,-0.96857,-5.0527e-07,-0.47578,0,0,0.1,5.9212e-17,0,0.66667
0.10484,0.33565,1.0484,-0.24652,-32.38,762.32,0.68924,-0.22975,-1.7825,0.91898,2.6345e-08,-0.89124,0,0,0.1,1.1842e-16,0,0.66667
0.44394,0.88971,4.4394,0.58457,62.448,344.41,-6.9204,2.3068,-0.78196,-9.2272,1.7941e-13,-0.39098,0,0,0.1,-0,-0,0.66667
0.023763,0.31514,0.23763,-0.2773,-36.812,871.05,0.17571,-0.058572,-1.7245,0.23429,-7.2264e-07,-0.86226,0,0,0.1,-0,-0,0.66667
0.28857,0.67346,2.8857,0.26019,31.669,524.97,-2.0022,0.6674,-1.7561,-2.6696,-2.0703e-12,-0.87803,0,0,0.1,4.737e-16,0,0.66667
0.2149,0.54192,2.149,0.062874,7.9597,617.9,-0.3603,0.1201,-1.9849,-0.4804,-7.2158e-12,-0.99246,0,0,0.1,-0,-0,0.66667
0.22151,0.077142,2.2151,-0.63429,-80.317,609.8,3.7467,-1.2489,-0.56966,4.9956,-8.3434e-11,-0.28483,0,0,0.1,-0,-0,0.66667
0.19268,0.10631,1.9268,-0.59054,-75.684,646.89,3.0343,-1.0114,-0.75777,4.0457,6.8059e-10,-0.37888,0,0,0.1,-0,-0,0.66667
0.83915,0.32154,8.3915,-0.26769,-10.422,35.192,5.9902,-1.9967,-1.7436,7.987,-1.0337e-09,-0.87181,0,0,0.1,-0,-0,0.66667
0.46604,0.14617,4.6604,-0.53074,-55.241,320.63,6.596,-2.1987,-0.99885,8.7947,-5.3686e-12,-0.49942,0,0,0.1,-4.737e-16,0,0.66667
0.54314,0.98238,5.4314,0.72357,67.986,243.65,-10.48,3.4933,-0.13746,-13.973,2.8182e-12,-0.068729,0,0,0.1,-1.8948e-15,1.1649e-16,0.66667
0.58082,0.14268,5.8082,-0.53598,-47.202,208.23,8.3015,-2.7672,-0.97883,11.069,2.7214e-12,-0.48942,0,0,0.1,-9.4739e-16,0,0.66667
0.094346,0.70767,0.94346,0.31151,41.015,776.34,-0.78373,0.26124,-1.6588,-1.045,-4.2968e-08,-0.82939,0,0,0.1,-0,-0,0.66667
0.064011,0.39216,0.64011,-0.16175,-21.389,816.92,0.27611,-0.092035,-1.909,0.36814,3.118e-08,-0.9545,0,0,0.1,1.1842e-16,0,0.66667
0.98681,0.23433,9.8681,-0.39851,-1.2256,1.1142,10.487,-3.4956,-1.4359,13.982,-9.2395e-08,-0.71796,0,0,0.1,-1.8948e-15,0,0.66667
0.28383,0.89667,2.8383,0.595,72.814,531.2,-4.5035,1.5012,-0.74185,-6.0046,1.5485e-12,-0.37093,0,0,0.1,-2.3685e-16,0,0.66667
0.1419,0.27554,1.419,-0.33669,-43.831,713.18,1.274,-0.42468,-1.6,1.6987,3.5835e-09,-0.80002,0,0,0.1,-2.3685e-16,0,0.66667
0.018779,0.25641,0.18779,-0.36538,-48.538,877.76,0.18297,-0.060992,-1.5255,0.24396,-1.0258e-06,-0.76276,0,0,0.1,-0,-0,0.66667
0.87071,0.11263,8.7071,-0.58105,-18.603,24.466,13.491,-4.4971,-0.79801,17.988,-8.5434e-09,-0.39901,0,0,0.1,-0,-0,0.66667
0.17375,0.67566,1.7375,0.26349,33.937,671.32,-1.2208,0.40694,-1.7547,-1.6278,-3.5645e-10,-0.87733,0,0,0.1,-0,-0,0.66667
0.17154,0.66201,1.7154,0.24301,31.321,674.2,-1.1116,0.37053,-1.7949,-1.4821,-3.9879e-10,-0.89744,0,0,0.1,-0,-0,0.66667
0.3727,0.75567,3.727,0.38351,43.867,424.1,-3.8115,1.2705,-1.4785,-5.082,-7.4813e-12,-0.73925,0,0,0.1,-0,-0,0.66667
0.18251,0.071959,1.8251,-0.64206,-82.657,660.16,3.1248,-1.0416,-0.53229,4.1665,5.221e-09,-0.26615,0,0,0.1,-0,-0,0.66667
0.44101,0.26331,4.4101,-0.35503,-37.97,347.16,4.1752,-1.3917,-1.5511,5.567,-7.7316e-13,-0.77553,0,0,0.1,-0,-0,0.66667
0.57868,0.74507,5.7868,0.36761,32.438,209.76,-5.6727,1.8909,-1.5241,-7.5635,-9.7167e-13,-0.76204,0,0,0.1,-0,-0,0.66667
0.83616,0.99925,8.3616,0.74887,30.037,38.242,-16.698,5.566,-0.0042821,-22.264,1.9271e-09,-0.002141,0,0,0.1,-6.158e-15,0,0.66667
0.58829,0.88145,5.8829,0.57217,49.747,201.67,-8.9761,2.992,-0.83404,-11.968,-1.3856e-13,-0.41702,0,0,0.1,-0,-0,0.66667
0.92403,0.29377,9.2403,-0.30934,-5.8788,8.9691,7.6224,-2.5408,-1.6608,10.163,-1.053e-07,-0.83041,0,0,0.1,-0,-0,0.66667
0.48128,0.086455,4.8128,-0.62032,-63.436,304.9,7.9613,-2.6538,-0.63202,10.615,-5.7394e-12,-0.31601,0,0,0.1,-4.737e-16,0,0.66667
0.62184,0.13831,6.2184,-0.54254,-44.215,172.81,8.9967,-2.9989,-0.95307,11.996,3.3218e-13,-0.47653,0,0,0.1,-0,-0,0.66667
0.44171,0.99171,4.4171,0.73757,79.141,347.23,-8.6877,2.8959,-0.064574,-11.584,2.1583e-12,-0.032287,0,0,0.1,1.4211e-15,0,0.66667
0.91251,0.81749,9.1251,0.47623,10.459,12.067,-11.588,3.8628,-1.1914,-15.451,1.666e-08,-0.59572,0,0,0.1,-0,-0,0.66667
0.71041,0.32137,7.1041,-0.26794,-17.559,105.35,5.076,-1.692,-1.7418,6.768,6.5903e-13,-0.8709,0,0,0.1,-0,-0,0.66667
0.6028,0.34505,6.028,-0.23242,-19.606,188.28,3.7361,-1.2454,-1.8063,4.9814,-4.5266e-12,-0.90314,0,0,0.1,1.8948e-15,0,0.66667
0.84339,0.48622,8.4339,-0.020668,-0.78351,33.216,0.46483,-0.15494,-2.0026,0.61977,3.2861e-10,-1.0013,0,0,0.1,1.8948e-15,0,0.66667
0.9065,0.013038,9.065,-0.73044,-17.34,14.768,17.657,-5.8857,-0.10734,23.543,5.1547e-07,-0.05367,0,0,0.1,-0,-0,0.66667
0.57799,0.65976,5.7799,0.23964,21.152,210.18,-3.6935,1.2312,-1.8014,-4.9247,1.7659e-12,-0.90071,0,0,0.1,-1.8948e-15,0,0.66667
0.2076,0.6129,2.076,0.16935,21.513,627.32,-0.93751,0.3125,-1.8963,-1.25,1.1798e-11,-0.94816,0,0,0.1,-2.3685e-16,0,0.66667
0.33309,0.014867,3.3309,-0.7277,-86.237,471.43,6.4637,-2.1546,-0.11497,8.6183,-3.8849e-12,-0.057484,0,0,0.1,-0,-0,0.66667
0.92001,0.49872,9.2001,-0.0019155,-0.038105,9.4367,0.046994,-0.015665,-2.0029,0.062659,-9.801e-08,-1.0014,0,0,0.1,-3.4343e-15,0,0.66667
0.49116,0.22704,4.9116,-0.40944,-41.255,294.25,5.3627,-1.7876,-1.4012,7.1503,-3.4701e-12,-0.70058,0,0,0.1,-0,-0,0.66667
0.84515,0.33226,8.4515,-0.25161,-9.4549,32.752,5.6705,-1.8902,-1.7772,7.5607,-1.5773e-09,-0.88862,0,0,0.1,9.4739e-16,0,0.66667
0.49158,0.99983,4.9158,0.74975,75.81,294.68,-9.8283,3.2761,0.00023358,-13.104,-7.4429e-13,0.00011679,0,0,0.1,-4.0708e-16,0,0.66667
0.048249,0.91957,0.48249,0.62936,83.61,838.17,-0.80974,0.26991,-0.59396,-1.0797,-2.8977e-06,-0.29698,0,0,0.1,-0,-0,0.66667
0.58842,0.035467,5.8842,-0.6968,-60.683,201.97,10.934,-3.6446,-0.27212,14.578,4.0146e-12,-0.13606,0,0,0.1,-0,-0,0.66667
0.97989,0.095195,9.7989,-0.60721,-3.1017,2.4264,15.867,-5.2888,-0.68864,21.155,1.0808e-05,-0.34432,0,0,0.1,3.7896e-15,0,0.66667
0.15147,0.91791,1.5147,0.62686,81.554,700.76,-2.5319,0.84398,-0.60087,-3.3759,-1.3808e-08,-0.30043,0,0,0.1,2.3685e-16,0,0.66667
0.62692,0.7816,6.2692,0.4224,34.016,168.29,-7.0616,2.3539,-1.3686,-9.4155,-4.1434e-12,-0.6843,0,0,0.1,1.8948e-15,0,0.66667
0.64441,0.94021,6.4441,0.66032,51.394,154.89,-11.347,3.7824,-0.44975,-15.13,-3.3307e-13,-0.22488,0,0,0.1,-0,-0,0.66667
0.10623,0.51827,1.0623,0.027401,3.5962,760.45,-0.077618,0.025873,-1.997,-0.10349,-1.2401e-08,-0.9985,0,0,0.1,-0,-0,0.66667
0.29898,0.936,2.9898,0.654,79.314,512.63,-5.2141,1.738,-0.48169,-6.9522,-6.9367e-13,-0.24085,0,0,0.1,-4.737e-16,0,0.66667
0.38954,0.42618,3.8954,-0.11073,-12.461,404.45,1.1502,-0.38342,-1.9593,1.5337,-1.0691e-13,-0.97964,0,0,0.1,4.737e-16,0,0.66667
0.95436,0.18962,9.5436,-0.46557,-5.3697,4.3006,11.849,-3.9495,-1.2331,15.798,-7.061e-07,-0.61654,0,0,0.1,-0,-0,0.66667
0.57675,0.84837,5.7675,0.52255,46.34,211.85,-8.0369,2.679,-1.0322,-10.716,5.4179e-13,-0.51611,0,0,0.1,-0,-0,0.66667
0.087358,0.64723,0.87358,0.22084,29.103,785.65,-0.51446,0.17149,-1.8239,-0.68595,-4.3327e-08,-0.91194,0,0,0.1,1.1842e-16,0,0.66667
0.10716,0.037267,1.0716,-0.6941,-91.426,759.43,1.9835,-0.66115,-0.28857,2.6446,5.926e-07,-0.14428,0,0,0.1,-0,7.3649e-17,0.66667
0.95368,0.43728,9.5368,-0.094083,-1.0811,3.5098,2.3927,-0.79756,-1.9739,3.1902,-8.9853e-08,-0.98696,0,0,0.1,-8.8818e-17,0,0.66667
0.80534,0.53954,8.0534,0.059309,2.7446,50.013,-1.2737,0.42457,-1.9846,-1.6983,-5.7772e-11,-0.99232,0,0,0.1,-0,-0,0.66667
0.4283,0.67811,4.283,0.26717,28.952,360.97,-3.0515,1.0172,-1.7435,-4.0686,-2.9492e-12,-0.87173,0,0,0.1,-0,-0,0.66667
0.67249,0.83457,6.7249,0.50186,36.491,132.8,-8.9999,3,-1.1084,-12,1.0525e-12,-0.5542,0,0,0.1,-4.737e-16,0,0.66667
0.21193,0.078488,2.1193,-0.63227,-80.409,622.09,3.5732,-1.1911,-0.57547,4.7643,-7.3435e-11,-0.28774,0,0,0.1,-2.5097e-16,0,0.66667
0.52016,0.56299,5.2016,0.09449,9.1356,264.71,-1.3107,0.43689,-1.968,-1.7476,-2.0606e-12,-0.984,0,0,0.1,-0,-0,0.66667
0.97554,0.0057962,9.7554,-0.74131,-4.766,3.5202,19.285,-6.4282,-0.043476,25.713,1.3516e-05,-0.021738,0,0,0.1,-0,-0,0.66667
0.83042,0.74754,8.3042,0.37132,15.204,39.085,-8.2227,2.7409,-1.5118,-10.964,2.8272e-10,-0.75588,0,0,0.1,-0,-0,0.66667
0.21598,0.68595,2.1598,0.27893,35.315,616.58,-1.6065,0.53549,-1.7249,-2.142,4.5766e-11,-0.86243,0,0,0.1,-2.9606e-16,0,0.66667
0.44842,0.3499,4.4842,-0.22516,-23.865,338.98,2.6924,-0.89747,-1.8184,3.5899,1.9762e-13,-0.90919,0,0,0.1,-0,-0,0.66667
0.57268,0.07627,5.7268,-0.63559,-56.848,215.87,9.7065,-3.2355,-0.56112,12.942,2.1743e-12,-0.28056,0,0,0.1,-9.4739e-16,0,0.66667
0.5708,0.13038,5.708,-0.55443,-49.692,217.34,8.4392,-2.8131,-0.90452,11.252,-1.9096e-12,-0.45226,0,0,0.1,-0,-0,0.66667
0.93053,0.94964,9.3053,0.67447,11.986,9.1521,-16.736,5.5787,-0.37946,-22.315,2.1893e-06,-0.18973,0,0,0.1,1.8948e-15,0,0.66667
0.2551,0.60925,2.551,0.16388,20.338,566.72,-1.1148,0.3716,-1.9022,-1.4864,1.2176e-11,-0.95111,0,0,0.1,-0,-0,0.66667
0.65634,0.52892,6.5634,0.04338,3.2672,144.31,-0.75926,0.25309,-1.9992,-1.0123,-1.2335e-13,-0.99961,0,0,0.1,9.4739e-16,0,0.66667
0.78125,0.10612,7.8125,-0.59082,-30.564,63.462,12.309,-4.1029,-0.76381,16.412,2.9956e-10,-0.3819,0,0,0.1,-0,-0,0.66667
0.11597,0.14207,1.1597,-0.53689,-70.47,747.62,1.6604,-0.55346,-0.97203,2.2138,5.4938e-09,-0.48601,0,0,0.1,2.3685e-16,0,0.66667
0.52639,0.76906,5.2639,0.40359,38.735,258.95,-5.6653,1.8884,-1.4188,-7.5537,9.8233e-13,-0.7094,0,0,0.1,-9.4739e-16,0,0.66667
0.41234,0.50357,4.1234,0.0053589,0.5899,378.58,-0.058925,0.019642,-1.998,-0.078567,5.9002e-13,-0.99901,0,0,0.1,-0,-0,0.66667
0.50229,0.04608,5.0229,-0.68088,-67.81,283.57,9.12,-3.04,-0.35244,12.16,9.8321e-13,-0.17622,0,0,0.1,9.4739e-16,0,0.66667
0.065315,0.70099,0.65315,0.30149,39.879,815.19,-0.52511,0.17504,-1.6769,-0.70015,-1.0995e-07,-0.83845,0,0,0.1,-0,-0,0.66667
0.26954,0.92971,2.6954,0.64456,79.6,549.06,-4.6329,1.5443,-0.52197,-6.1772,-3.018e-12,-0.26099,0,0,0.1,2.3685e-16,0,0.66667
0.25,0.74757,2.5,0.37135,46.255,573.28,-2.4757,0.82523,-1.5158,-3.3009,8.5376e-12,-0.75788,0,0,0.1,5.9212e-16,0,0.66667
0.66868,0.45537,6.6868,-0.066951,-4.8966,134.91,1.1938,-0.39794,-1.9837,1.5918,-9.1405e-13,-0.99183,0,0,0.1,-9.4739e-16,0,0.66667
0.050074,0.06621,0.50074,-0.65069,-86.447,835.73,0.86886,-0.28962,-0.49515,1.1585,1.0425e-06,-0.24757,0,0,0.1,-1.1842e-16,0,0.66667
0.97313,0.305,9.7313,-0.2925,-1.9227,1.7043,7.5905,-2.5302,-1.6945,10.121,8.0531e-07,-0.84727,0,0,0.1,9.4739e-16,0,0.66667
0.37569,0.52209,3.7569,0.033132,3.7748,420.38,-0.33192,0.11064,-1.9999,-0.44257,-5.4347e-12,-0.99994,0,0,0.1,-0,-0,0.66667
0.87187,0.85284,8.7187,0.52926,16.77,23.855,-12.305,4.1018,-1.004,-16.407,3.9365e-09,-0.50198,0,0,0.1,-0,-0,0.66667
0.69429,0.93895,6.9429,0.65843,45.384,117.58,-12.19,4.0635,-0.45683,-16.254,1.0987e-12,-0.22842,0,0,0.1,-1.8948e-15,0,0.66667
0.029579,0.41966,0.29579,-0.1205,-15.985,863.21,0.09505,-0.031683,-1.9502,0.12673,-2.6159e-07,-0.97508,0,0,0.1,5.9212e-17,0,0.66667
0.087271,0.76168,0.87271,0.39252,51.771,785.81,-0.91347,0.30449,-1.4493,-1.218,-3.5275e-08,-0.72463,0,0,0.1,-0,-0,0.66667
0.094963,0.37423,0.94963,-0.18865,-24.823,775.49,0.47773,-0.15924,-1.8775,0.63697,3.0958e-08,-0.93877,0,0,0.1,-1.7764e-16,0,0.66667
0.56423,0.50795,5.6423,0.011919,1.0763,222.59,-0.17934,0.059778,-2.0016,-0.23911,-2.4518e-12,-1.0008,0,0,0.1,-0,-0,0.66667
0.56604,0.2336,5.6604,-0.39961,-36.042,221.32,6.0318,-2.0106,-1.4314,8.0424,-1.2972e-12,-0.71569,0,0,0.1,-9.4739e-16,0,0.66667
0.31061,0.384,3.1061,-0.174,-20.866,497.87,1.4412,-0.4804,-1.8941,1.9216,-7.7064e-12,-0.94703,0,0,0.1,-0,-0,0.66667
0.11319,0.87245,1.1319,0.55867,73.39,751.33,-1.6863,0.56212,-0.8903,-2.2485,-3.5819e-09,-0.44515,0,0,0.1,2.9606e-17,0,0.66667
0.76861,0.52494,7.6861,0.037417,2.0199,69.167,-0.76691,0.25564,-1.9955,-1.0225,-1.9698e-11,-0.99773,0,0,0.1,-0,-0,0.66667
0.1382,0.84383,1.382,0.51574,67.294,718.17,-1.9007,0.63355,-1.0565,-2.5342,-1.1821e-08,-0.52827,0,0,0.1,-4.737e-16,0,0.66667
0.58503,0.095523,5.8503,-0.60672,-53.086,204.67,9.4653,-3.1551,-0.68936,12.62,1.9194e-12,-0.34468,0,0,0.1,1.8948e-15,0,0.66667
0.50868,0.97428,5.0868,0.71142,70.27,277.26,-9.6502,3.2167,-0.19799,-12.867,-4.2935e-12,-0.098995,0,0,0.1,-0,-0,0.66667
0.51012,0.013825,5.1012,-0.72926,-71.909,275.87,9.9204,-3.3068,-0.10652,13.227,7.681e-12,-0.053262,0,0,0.1,-1.8948e-15,0,0.66667
0.35934,0.72806,3.5934,0.34209,39.564,439.66,-3.278,1.0927,-1.589,-4.3707,-8.6144e-12,-0.79449,0,0,0.1,-0,-0,0.66667
0.055479,0.14494,0.55479,-0.53259,-70.64,828.44,0.78794,-0.26265,-0.98837,1.0506,-1.7365e-07,-0.49419,0,0,0.1,-5.9212e-17,0,0.66667
0.33619,0.049735,3.3619,-0.6754,-79.8,467.6,6.0551,-2.0184,-0.37488,8.0734,-4.7962e-12,-0.18744,0,0,0.1,-4.737e-16,0,0.66667
0.94985,0.013907,9.4985,-0.72914,-9.4828,6.2519,18.469,-6.1562,-0.10918,24.625,8.3224e-07,-0.054591,0,0,0.1,3.7896e-15,0,0.66667
0.94833,0.78205,9.4833,0.42308,5.5103,4.9845,-10.699,3.5664,-1.363,-14.266,1.2936e-07,-0.68152,0,0,0.1,-0,-0,0.66667
0.42932,0.44979,4.2932,-0.075315,-8.1477,359.73,0.86225,-0.28742,-1.9766,1.1497,-2.2447e-12,-0.98832,0,0,0.1,-0,-0,0.66667
0.74205,0.14857,7.4205,-0.52714,-31.428,85.661,10.431,-3.477,-1.0091,13.908,7.2111e-12,-0.50457,0,0,0.1,-4.737e-16,0,0.66667
0.55762,0.17284,5.5762,-0.49073,-44.923,229.32,7.2971,-2.4324,-1.1416,9.7294,3.5083e-13,-0.57081,0,0,0.1,-9.4739e-16,0,0.66667
0.914,0.87556,9.14,0.56334,12.22,12.085,-13.731,4.5768,-0.86994,-18.307,1.0167e-07,-0.43497,0,0,0.1,-0,-0,0.66667
0.73641,0.39326,7.3641,-0.16011,-9.682,88.318,3.1442,-1.0481,-1.9101,4.1923,6.2614e-12,-0.95503,0,0,0.1,-0,-0,0.66667
0.39393,0.63678,3.9393,0.20517,23,399.48,-2.1553,0.71843,-1.8499,-2.8737,-6.4528e-12,-0.92493,0,0,0.1,-0,-0,0.66667
0.060535,0.75189,0.60535,0.37783,50.029,821.62,-0.60993,0.20331,-1.495,-0.81324,-1.2213e-07,-0.74751,0,0,0.1,2.3685e-16,0,0.66667
0.81061,0.58738,8.1061,0.13107,5.9186,47.549,-2.8333,0.94443,-1.9409,-3.7777,8.3527e-11,-0.97046,0,0,0.1,-0,-0,0.66667
0.31642,0.97422,3.1642,0.71133,85.306,491.47,-6.0021,2.0007,-0.20041,-8.0028,-3.8223e-12,-0.1002,0,0,0.1,-0,-0,0.66667
0.49421,0.68121,4.9421,0.27181,27.252,290.92,-3.5822,1.1941,-1.7352,-4.7762,-3.5267e-12,-0.86759,0,0,0.1,4.737e-16,0,0.66667
0.54153,0.6435,5.4153,0.21525,20.168,244.04,-3.1084,1.0361,-1.8328,-4.1445,-5.9441e-13,-0.91642,0,0,0.1,-0,-0,0.66667
0.51753,0.78627,5.1753,0.42941,41.751,267.71,-5.9262,1.9754,-1.3465,-7.9016,3.1175e-13,-0.67327,0,0,0.1,-0,-0,0.66667
0.14619,0.13214,1.4619,-0.5518,-71.853,707.65,2.1512,-0.71705,-0.91531,2.8682,1.9419e-09,-0.45765,0,0,0.1,-0,-0,0.66667
0.35934,0.096238,3.5934,-0.60564,-70.202,440.05,5.8036,-1.9345,-0.70181,7.7381,-2.0952e-12,-0.35091,0,0,0.1,-0,3.4709e-17,0.66667
0.36131,0.63708,3.6131,0.20562,23.726,437.22,-1.9811,0.66037,-1.8511,-2.6415,-7.4977e-12,-0.92555,0,0,0.1,-0,-0,0.66667
0.2158,0.83074,2.158,0.49611,62.905,616.97,-2.8549,0.95163,-1.1248,-3.8065,5.5484e-11,-0.56239,0,0,0.1,2.3685e-16,0,0.66667
0.036849,0.61652,0.36849,0.17478,23.176,853.43,-0.17175,0.057249,-1.8891,-0.229,1.8606e-07,-0.94456,0,0,0.1,-0,-0,0.66667
0.92418,0.69037,9.2418,0.28556,5.4125,8.8806,-7.0376,2.3459,-1.712,-9.3834,9.742e-08,-0.85598,0,0,0.1,-0,-0,0.66667
0.35432,0.80691,3.5432,0.46037,53.509,445.72,-4.3498,1.4499,-1.2449,-5.7997,-1.9069e-12,-0.62243,0,0,0.1,-7.1054e-16,0,0.66667
0.1958,0.54138,1.958,0.062064,7.922,642.56,-0.32405,0.10802,-1.9833,-0.43207,3.5655e-11,-0.99163,0,0,0.1,-0,-0,0.66667
0.86409,0.83363,8.6409,0.50044,16.743,26.399,-11.531,3.8438,-1.1078,-15.375,1.0522e-08,-0.55388,0,0,0.1,-0,-0,0.66667
0.49805,0.99137,4.9805,0.73706,73.882,288.04,-9.7892,3.2631,-0.070088,-13.052,3.6682e-13,-0.035044,0,0,0.1,4.737e-16,-9.4686e-17,0.66667
0.81993,0.12919,8.1993,-0.55622,-24.159,44.319,12.162,-4.0538,-0.89764,16.215,-8.6493e-10,-0.44882,0,0,0.1,-0,-0,0.66667
0.76332,0.76385,7.6332,0.39578,21.857,72.682,-8.0562,2.6854,-1.4438,-10.742,-2.6784e-11,-0.72191,0,0,0.1,-0,-0,0.66667
0.11672,0.11806,1.1672,-0.57291,-75.208,746.65,1.7833,-0.59443,-0.83024,2.3777,1.2672e-08,-0.41512,0,0,0.1,-1.1842e-16,0,0.66667
0.51608,0.038475,5.1608,-0.69229,-67.661,269.83,9.5273,-3.1758,-0.30039,12.703,4.1007e-12,-0.15019,0,0,0.1,-0,-0,0.66667
0.33424,0.051297,3.3424,-0.67305,-79.639,469.93,5.999,-1.9997,-0.38656,7.9987,-5.4925e-12,-0.19328,0,0,0.1,-0,-0,0.66667
0.68594,0.59465,6.8594,0.14198,9.9436,122.25,-2.5971,0.8657,-1.9318,-3.4628,1.7e-12,-0.96589,0,0,0.1,-1.8948e-15,0,0.66667
0.78722,0.7192,7.8722,0.3288,16.517,59.479,-6.9024,2.3008,-1.6144,-9.2032,-5.5289e-11,-0.80719,0,0,0.1,-0,-0,0.66667
0.28471,0.056333,2.8471,-0.6655,-81.458,530.23,5.0527,-1.6842,-0.42515,6.7369,-4.4329e-12,-0.21257,0,0,0.1,2.3685e-16,0,0.66667
0.42001,0.21253,4.2001,-0.4312,-47.183,370.37,4.8295,-1.6098,-1.3409,6.4394,2.5802e-13,-0.67047,0,0,0.1,1.1846e-17,0,0.66667
0.88235,0.1231,8.8235,-0.56535,-16.551,20.65,13.302,-4.4341,-0.86164,17.736,-2.0694e-08,-0.43082,0,0,0.1,-1.1842e-15,0,0.66667
0.764,0.17385,7.64,-0.48922,-26.991,72.573,9.9672,-3.3224,-1.1509,13.29,3.1159e-11,-0.57544,0,0,0.1,-9.0476e-16,0,0.66667
0.2849,0.58467,2.849,0.127,15.487,529.45,-0.96486,0.32162,-1.942,-1.2865,-3.0763e-12,-0.97099,0,0,0.1,-2.3685e-16,0,0.66667
0.72388,0.24783,7.2388,-0.37826,-23.842,96.67,7.3017,-2.4339,-1.4902,9.7356,2.4563e-12,-0.74511,0,0,0.1,-2.3685e-16,0,0.66667
0.02714,0.88026,0.2714,0.57039,75.855,866.53,-0.41281,0.13761,-0.84253,-0.55041,9.7134e-06,-0.42127,0,0,0.1,-5.9212e-17,0,0.66667
0.5633,0.13067,5.633,-0.554,-50.282,224.22,8.3218,-2.7739,-0.91272,11.096,8.8818e-16,-0.45636,0,0,0.1,-0,-0,0.66667
0.041077,0.30632,0.41077,-0.29052,-38.527,847.75,0.31824,-0.10608,-1.6978,0.42432,-8.8457e-08,-0.84889,0,0,0.1,2.9606e-17,0,0.66667
0.12608,0.92068,1.2608,0.63102,82.69,734.27,-2.1216,0.70719,-0.58701,-2.8288,-3.869e-08,-0.29351,0,0,0.1,-0,-0,0.66667
0.8206,0.68309,8.206,0.27464,11.821,43.163,-6.0098,2.0033,-1.7294,-8.013,1.6772e-10,-0.86472,0,0,0.1,4.737e-16,0,0.66667
0.68161,0.36204,6.8161,-0.20694,-14.662,125.46,3.7614,-1.2538,-1.845,5.0152,-1.892e-12,-0.9225,0,0,0.1,9.4739e-16,0,0.66667
0.43883,0.27458,4.3883,-0.33813,-36.245,349.51,3.9568,-1.3189,-1.5964,5.2758,-2.7895e-12,-0.79819,0,0,0.1,-0,-0,0.66667
0.39571,0.61688,3.9571,0.17532,19.619,397.43,-1.85,0.61668,-1.8888,-2.4667,-7.6134e-12,-0.94441,0,0,0.1,-0,-0,0.66667
0.8758,0.4865,8.758,-0.02025,-0.61723,21.478,0.47292,-0.15764,-2.0019,0.63056,4.5712e-09,-1.0009,0,0,0.1,-9.4739e-16,0,0.66667
0.23877,0.5567,2.3877,0.085047,10.644,587.37,-0.5415,0.1805,-1.9732,-0.72201,3.5271e-12,-0.98662,0,0,0.1,-0,-0,0.66667
0.39398,0.001837,3.9398,-0.74724,-84.164,400.32,7.8507,-2.6169,-0.015363,10.468,4.5741e-12,-0.0076813,0,0,0.1,-1.8948e-15,0,0.66667
0.14348,0.50665,1.4348,0.0099806,1.2975,711.03,-0.038187,0.012729,-2.0002,-0.050915,-1.0077e-09,-1.0001,0,0,0.1,-0,-0,0.66667
0.67243,0.68583,6.7243,0.27874,20.221,132.32,-4.9982,1.6661,-1.7289,-6.6643,-3.5705e-13,-0.86443,0,0,0.1,2.3685e-16,0,0.66667
0.17561,0.1644,1.7561,-0.5034,-64.889,669.03,2.3574,-0.78579,-1.0983,3.1432,2.2842e-12,-0.54915,0,0,0.1,-0,-0,0.66667
0.99975,0.58791,9.9975,0.13187,-0.065893,0.08085,-3.5157,1.1719,-1.9432,-4.6876,4.8987e-07,-0.9716,0,0,0.1,-4.737e-16,0,0.66667
0.96443,0.061345,9.6443,-0.65798,-6.0414,4.0264,16.922,-5.6407,-0.46048,22.563,-5.3159e-06,-0.23024,0,0,0.1,6.1646e-16,1.6185e-19,0.66667
0.067754,0.62595,0.67754,0.18893,24.971,811.91,-0.34134,0.11378,-1.8722,-0.45513,-5.8616e-08,-0.93609,0,0,0.1,-0,-0,0.66667
0.070849,0.68179,0.70849,0.27268,36.037,807.77,-0.51518,0.17173,-1.7331,-0.68691,-1.0181e-07,-0.86653,0,0,0.1,1.0116e-16,0,0.66667
0.24709,0.98977,2.4709,0.73466,91.956,577.4,-4.8407,1.6136,-0.081116,-6.4543,-1.977e-11,-0.040558,0,0,0.1,-0,-0,0.66667
0.31125,0.94493,3.1125,0.66739,80.284,497.66,-5.5394,1.8465,-0.41925,-7.3858,1.2239e-12,-0.20962,0,0,0.1,-0,-8.5826e-17,0.66667
0.79794,0.47305,7.9794,-0.040429,-1.9348,53.641,0.86025,-0.28675,-1.9979,1.147,8.5142e-11,-0.99894,0,0,0.1,-0,-0,0.66667
0.75286,0.039929,7.5286,-0.69011,-39.798,79.821,13.855,-4.6183,-0.307,18.473,-6.404e-11,-0.1535,0,0,0.1,-0,-0,0.66667
0.1789,0.62924,1.789,0.19387,24.916,664.56,-0.9249,0.3083,-1.8641,-1.2332,-1.129e-10,-0.93204,0,0,0.1,-0,-0,0.66667
0.74052,0.97561,7.4052,0.71342,42.92,87.358,-14.088,4.696,-0.18796,-18.784,-2.1688e-11,-0.09398,0,0,0.1,-0,-0,0.66667
0.37683,0.39631,3.7683,-0.15553,-17.706,419.1,1.5629,-0.52097,-1.9157,2.0839,-2.6423e-14,-0.95785,0,0,0.1,-4.737e-16,0,0.66667
0.31534,0.70013,3.1534,0.30019,35.898,492.2,-2.5243,0.84144,-1.6797,-3.3658,-1.9929e-12,-0.83984,0,0,0.1,-4.737e-16,0,0.66667
0.20011,0.44566,2.0011,-0.081505,-10.385,636.97,0.43493,-0.14498,-1.9766,0.57991,5.4999e-11,-0.98828,0,0,0.1,4.737e-16,0,0.66667
0.55685,0.91835,5.5685,0.62753,57.616,230.42,-9.3183,3.1061,-0.59728,-12.424,-2.6983e-12,-0.29864,0,0,0.1,9.4739e-16,0,0.66667
0.50796,0.50437,5.0796,0.0065619,0.64534,276.83,-0.088885,0.029628,-1.9975,-0.11851,-6.3472e-12,-0.99873,0,0,0.1,3.7896e-15,0,0.66667
0.90452,0.70466,9.0452,0.30699,7.2943,13.5,-7.4048,2.4683,-1.6666,-9.873,4.1902e-08,-0.83329,0,0,0.1,1.8948e-15,0,0.66667
0.16445,0.34793,1.6445,-0.22811,-29.471,683.48,1.0003,-0.33344,-1.8126,1.3338,7.0558e-10,-0.90632,0,0,0.1,-0,-0,0.66667
0.026083,0.59446,0.26083,0.14169,18.799,867.92,-0.098551,0.032851,-1.9278,-0.1314,1.2441e-07,-0.96391,0,0,0.1,-1.1842e-16,0,0.66667
0.13921,0.95529,1.3921,0.68293,89.225,716.96,-2.5351,0.84504,-0.34391,-3.3802,8.1897e-09,-0.17196,0,0,0.1,-0,-0,0.66667
0.036355,0.54886,0.36355,0.073286,9.7162,854.09,-0.071048,0.023683,-1.9786,-0.094731,1.6416e-07,-0.98931,0,0,0.1,5.9212e-17,0,0.66667
0.56867,0.14428,5.6867,-0.53358,-47.983,219.22,8.0915,-2.6972,-0.98488,10.789,-3.0065e-12,-0.49244,0,0,0.1,-0,-0,0.66667
0.77158,0.8076,7.7158,0.4614,24.728,68.237,-9.4935,3.1645,-1.241,-12.658,-8.6358e-11,-0.62052,0,0,0.1,4.5687e-16,0,0.66667
0.98718,0.43122,9.8718,-0.10317,-0.29148,0.4466,2.7159,-0.90529,-1.9628,3.6212,-6.9598e-07,-0.98142,0,0,0.1,-0,-0,0.66667
0.84725,0.28018,8.4725,-0.32974,-12.25,32.101,7.4498,-2.4833,-1.6141,9.9331,-1.7122e-09,-0.80705,0,0,0.1,8.2897e-16,0,0.66667
0.16958,0.98056,1.6958,0.72084,93.316,677.11,-3.2597,1.0866,-0.15337,-4.3462,-4.335e-09,-0.076687,0,0,0.1,-0,-0,0.66667
0.97796,0.71129,9.7796,0.31693,1.6904,1.3918,-8.2651,2.755,-1.6403,-11.02,-9.2852e-07,-0.82016,0,0,0.1,-0,-0,0.66667
0.57851,0.90904,5.7851,0.61356,54.311,210.53,-9.4654,3.1551,-0.6667,-12.62,-2.0783e-13,-0.33335,0,0,0.1,-0,-0,0.66667
0.81024,0.79035,8.1024,0.43552,19.779,48.347,-9.41,3.1367,-1.3267,-12.547,1.0035e-11,-0.66336,0,0,0.1,-0,-0,0.66667
0.011419,0.15292,0.11419,-0.52062,-69.249,887.68,0.15853,-0.052841,-1.0358,0.21138,4.7788e-06,-0.5179,0,0,0.1,7.4015e-18,0,0.66667
0.19796,0.603,1.9796,0.15449,19.706,639.78,-0.81555,0.27185,-1.9131,-1.0874,4.6348e-11,-0.95653,0,0,0.1,-0,-0,0.66667
0.92504,0.52199,9.2504,0.032981,0.61537,8.3713,-0.81356,0.27119,-1.996,-1.0848,2.1074e-08,-0.99801,0,0,0.1,-0,-0,0.66667
0.24256,0.74135,2.4256,0.36202,45.268,582.69,-2.3417,0.78055,-1.5311,-3.1222,1.6864e-11,-0.76554,0,0,0.1,-2.3685e-16,0,0.66667
0.53957,0.25709,5.3957,-0.36437,-34.276,246.12,5.2427,-1.7476,-1.5252,6.9903,-1.104e-12,-0.7626,0,0,0.1,-0,-0,0.66667
0.72603,0.70667,7.2603,0.31001,19.396,95.128,-6.0021,2.0007,-1.6551,-8.0027,-7.8781e-12,-0.82757,0,0,0.1,-0,-0,0.66667
0.10091,0.60359,1.0091,0.15539,20.42,767.54,-0.41814,0.13938,-1.9112,-0.55752,-1.8895e-08,-0.95558,0,0,0.1,-0,-0,0.66667
0.57273,0.81592,5.7273,0.47388,42.292,215.37,-7.2375,2.4125,-1.2001,-9.65,5.1159e-12,-0.60005,0,0,0.1,-1.8948e-15,0,0.66667
0.21267,0.59838,2.1267,0.14757,18.704,620.78,-0.83693,0.27898,-1.9205,-1.1159,-1.8647e-11,-0.96026,0,0,0.1,4.737e-16,0,0.66667
0.35815,0.26562,3.5815,-0.35157,-40.704,441.07,3.3577,-1.1192,-1.563,4.477,-7.111e-12,-0.78151,0,0,0.1,-0,-0,0.66667
0.44382,0.0011254,4.4382,-0.74831,-80.12,344.97,8.8564,-2.9521,-0.0074786,11.809,2.4967e-12,-0.0037393,0,0,0.1,-0,-0,0.66667
0.74936,0.8214,7.4936,0.48211,28.02,81.09,-9.6338,3.2113,-1.1775,-12.845,-3.9986e-12,-0.58874,0,0,0.1,-0,-0,0.66667
0.91396,0.3715,9.1396,-0.19275,-4.127,10.956,4.6978,-1.5659,-1.8656,6.2638,-3.7106e-08,-0.93282,0,0,0.1,-1.4211e-15,0,0.66667
0.96955,0.19833,9.6955,-0.4525,-3.451,2.5378,11.699,-3.8997,-1.2754,15.599,1.5864e-06,-0.63771,0,0,0.1,-0,-0,0.66667
0.38163,0.5754,3.8163,0.1131,12.819,413.53,-1.151,0.38367,-1.9515,-1.5347,-1.0289e-11,-0.97574,0,0,0.1,9.4739e-16,0,0.66667
0.2518,0.72976,2.518,0.34464,42.879,570.99,-2.3141,0.77136,-1.5794,-3.0854,1.1602e-11,-0.78969,0,0,0.1,-0,-0,0.66667
0.27102,0.27498,2.7102,-0.33753,-41.542,546.84,2.4394,-0.81313,-1.593,3.2525,-1.1469e-11,-0.79652,0,0,0.1,-0,-0,0.66667
0.76456,0.37618,7.6456,-0.18573,-10.186,71.559,3.7867,-1.2622,-1.8816,5.049,1.6706e-11,-0.9408,0,0,0.1,-0,-0,0.66667
0.84258,0.21958,8.4258,-0.42063,-16.1,34.201,9.451,-3.1503,-1.375,12.601,-9.7486e-10,-0.68752,0,0,0.1,-3.7896e-15,0,0.66667
0.16474,0.29683,1.6474,-0.30476,-39.384,683.12,1.3389,-0.44629,-1.6665,1.7852,7.6804e-10,-0.83327,0,0,0.1,-0,-0,0.66667
0.029941,0.43297,0.29941,-0.10055,-13.337,862.72,0.080279,-0.02676,-1.9673,0.10704,-4.1752e-07,-0.98364,0,0,0.1,1.4803e-17,0,0.66667
0.84738,0.81486,8.4738,0.4723,17.589,32.479,-10.672,3.5575,-1.2072,-14.23,1.2565e-09,-0.60358,0,0,0.1,-0,-0,0.66667
0.15971,0.19924,1.5971,-0.45114,-58.45,689.81,1.9213,-0.64044,-1.2757,2.5618,5.545e-10,-0.63785,0,0,0.1,-0,-0,0.66667
0.94524,0.14806,9.4524,-0.5279,-7.3421,5.8714,13.307,-4.4355,-1.0062,17.742,1.1802e-07,-0.50312,0,0,0.1,9.4739e-16,0,0.66667
0.96751,0.35581,9.6751,-0.21629,-1.7277,2.0535,5.5803,-1.8601,-1.8362,7.4404,3.1691e-07,-0.91812,0,0,0.1,-0,-0,0.66667
0.57819,0.83392,5.7819,0.50088,44.297,210.5,-7.7228,2.5743,-1.1129,-10.297,1.3234e-12,-0.55647,0,0,0.1,-0,-0,0.66667
0.48604,0.63591,4.8604,0.20386,20.651,299.24,-2.6423,0.88076,-1.8541,-3.523,7.8049e-13,-0.92707,0,0,0.1,-0,-0,0.66667
0.35393,0.35613,3.5393,-0.21581,-25.055,445.91,2.0368,-0.67894,-1.8319,2.7158,-3.9613e-12,-0.91597,0,0,0.1,-0,-0,0.66667
0.6594,0.29794,6.594,-0.30309,-22.692,142.21,5.3295,-1.7765,-1.673,7.106,-8.0647e-13,-0.8365,0,0,0.1,-0,-0,0.66667
0.38436,0.38127,3.8436,-0.1781,-20.14,410.42,1.8254,-0.60848,-1.8849,2.4339,-4.2314e-12,-0.94243,0,0,0.1,9.4739e-16,0,0.66667
0.4349,0.90146,4.349,0.60219,64.982,354.29,-6.9838,2.3279,-0.71177,-9.3117,5.7065e-13,-0.35589,0,0,0.1,-4.5303e-16,0,0.66667
0.6133,0.52098,6.133,0.031468,2.5993,179.16,-0.51465,0.17155,-1.9954,-0.6862,-5.9397e-14,-0.99771,0,0,0.1,-0,-0,0.66667
0.034635,0.203,0.34635,-0.4455,-59.161,856.43,0.41146,-0.13715,-1.2937,0.54862,-1.9341e-07,-0.64683,0,0,0.1,-5.9212e-17,0,0.66667
0.2188,0.11224,2.188,-0.58163,-73.703,613.2,3.3937,-1.1312,-0.80197,4.5249,-8.6642e-11,-0.40098,0,0,0.1,-2.3685e-16,0,0.66667
0.020192,0.93538,0.20192,0.65307,86.949,875.89,-0.35164,0.11722,-0.48291,-0.46885,1.6169e-05,-0.24146,0,0,0.1,-1.4803e-17,0,0.66667
0.76313,0.32398,7.6313,-0.26403,-14.567,72.493,5.373,-1.791,-1.7528,7.164,2.5861e-11,-0.87638,0,0,0.1,-1.8948e-15,0,0.66667
0.38987,0.84046,3.8987,0.51069,57.583,404.5,-5.3094,1.7698,-1.0771,-7.0792,-2.2222e-12,-0.53856,0,0,0.1,5.9212e-16,0,0.66667
0.42267,0.73317,4.2267,0.34975,38.143,367.3,-3.9421,1.314,-1.5684,-5.2562,-2.7898e-12,-0.78418,0,0,0.1,-0,-0,0.66667
0.54968,0.94503,5.4968,0.66754,62.032,237.26,-9.785,3.2617,-0.41611,-13.047,-2.4203e-12,-0.20805,0,0,0.1,-0,-0,0.66667
0.38846,0.4312,3.8846,-0.1032,-11.625,405.68,1.0691,-0.35636,-1.9637,1.4255,-1.6498e-12,-0.98185,0,0,0.1,4.6686e-16,0,0.66667
0.81063,0.04767,8.1063,-0.67849,-30.947,49.136,14.667,-4.889,-0.36462,19.556,-1.5124e-09,-0.18231,0,0,0.1,-9.4739e-16,1.1812e-16,0.66667
0.4359,0.39591,4.359,-0.15614,-16.775,352.53,1.8149,-0.60498,-1.9154,2.4199,-1.2156e-12,-0.95769,0,0,0.1,-0,-0,0.66667
0.58016,0.32005,5.8016,-0.26993,-23.74,208.27,4.176,-1.392,-1.7426,5.568,-2.7498e-12,-0.87128,0,0,0.1,-0,-0,0.66667
0.97117,0.91384,9.7117,0.62076,4.5893,3.1691,-16.076,5.3588,-0.63094,-21.435,-1.6656e-05,-0.31547,0,0,0.1,-0,-0,0.66667
0.9921,0.033589,9.921,-0.69962,-1.4151,2.3531,18.509,-6.1697,-0.25767,24.679,-7.751e-05,-0.12883,0,0,0.1,-0,-0,0.66667
0.20287,0.55308,2.0287,0.079624,10.134,633.4,-0.43076,0.14359,-1.9821,-0.57435,-4.5112e-11,-0.99103,0,0,0.1,2.3685e-16,0,0.66667
0.44452,0.55972,4.4452,0.089585,9.5329,343.12,-1.0619,0.35398,-1.9694,-1.4159,-1.5944e-12,-0.98471,0,0,0.1,2.3685e-16,0,0.66667
0.47475,0.43021,4.7475,-0.10468,-10.751,310.91,1.3252,-0.44174,-1.9587,1.767,-5.14e-12,-0.97934,0,0,0.1,-4.737e-16,0,0.66667
0.29764,0.31278,2.9764,-0.28082,-33.985,513.81,2.2289,-0.74297,-1.7246,2.9719,-8.028e-12,-0.8623,0,0,0.1,-0,-0,0.66667
0.2835,0.33054,2.835,-0.25418,-31.036,531.24,1.9217,-0.64056,-1.7712,2.5622,-7.0052e-12,-0.88558,0,0,0.1,-4.737e-16,0,0.66667
0.83962,0.2301,8.3962,-0.40485,-15.759,35.345,9.0645,-3.0215,-1.4159,12.086,-8.9913e-10,-0.70795,0,0,0.1,-0,-0,0.66667
0.96209,0.37044,9.6209,-0.19434,-1.8214,2.5901,4.9859,-1.662,-1.8635,6.6479,1.654e-07,-0.93173,0,0,0.1,-0,-0,0.66667
0.21069,0.41499,2.1069,-0.12752,-16.175,623.32,0.71643,-0.23881,-1.9392,0.95524,-1.9881e-11,-0.96962,0,0,0.1,-0,-0,0.66667
0.89173,0.15768,8.9173,-0.51348,-13.863,17.643,12.21,-4.0701,-1.0667,16.28,-3.3209e-08,-0.53333,0,0,0.1,-3.7896e-15,0,0.66667
0.39198,0.69947,3.9198,0.2992,33.617,401.79,-3.1274,1.0425,-1.6841,-4.1699,-6.728e-12,-0.84204,0,0,0.1,-0,-0,0.66667
0.65143,0.76837,6.5143,0.40255,30.73,148.59,-6.9928,2.3309,-1.4218,-9.3238,-7.4829e-13,-0.7109,0,0,0.1,9.4739e-16,0,0.66667
0.28386,0.45812,2.8386,-0.062823,-7.6651,530.72,0.47555,-0.15852,-1.9865,0.63406,-3.2041e-12,-0.99323,0,0,0.1,2.3685e-16,0,0.66667
0.94108,0.78644,9.4108,0.42966,6.3833,6.1443,-10.783,3.5942,-1.3435,-14.377,9.4108e-08,-0.67174,0,0,0.1,-0,-0,0.66667
0.78682,0.96331,7.8682,0.69497,35.239,60.999,-14.582,4.8605,-0.28086,-19.442,3.7918e-10,-0.14043,0,0,0.1,1.4211e-15,0,0.66667
0.19277,0.17672,1.9277,-0.48492,-62.088,646.68,2.4928,-0.83092,-1.1617,3.3237,-3.164e-11,-0.58084,0,0,0.1,-0,-0,0.66667
0.61504,0.38579,6.1504,-0.17132,-14.107,177.77,2.8098,-0.93661,-1.8931,3.7464,-9.3392e-13,-0.94657,0,0,0.1,-0,-0,0.66667
0.9688,0.42481,9.688,-0.11279,-0.85958,1.7815,2.9139,-0.9713,-1.9596,3.8852,2.504e-07,-0.97979,0,0,0.1,-0,-0,0.66667
0.28459,0.53069,2.8459,0.046028,5.6133,529.82,-0.3493,0.11643,-1.9934,-0.46574,-2.7431e-12,-0.99672,0,0,0.1,5.3291e-16,0,0.66667
0.36153,0.84654,3.6153,0.51981,60.091,437.33,-5.0114,1.6705,-1.0414,-6.6819,-4.8135e-12,-0.52071,0,0,0.1,9.4739e-16,0,0.66667
0.20361,0.49983,2.0361,-0.00025463,-0.032394,632.44,0.0013825,-0.00046084,-2.0055,0.0018434,1.1723e-10,-1.0028,0,0,0.1,-1.1102e-16,0,0.66667
0.63877,0.44604,6.3877,-0.080933,-6.3414,158.17,1.3786,-0.45953,-1.9785,1.8381,6.4171e-13,-0.98925,0,0,0.1,-0,-0,0.66667
0.89282,0.80222,8.9282,0.45332,12.094,17.103,-10.793,3.5977,-1.2704,-14.391,3.1158e-08,-0.63522,0,0,0.1,-0,-0,0.66667
0.3417,0.99116,3.417,0.73675,86.748,461.17,-6.7132,2.2377,-0.07153,-8.9509,2.1507e-12,-0.035765,0,0,0.1,4.0465e-16,9.6071e-17,0.66667
0.1244,0.22631,1.244,-0.41054,-53.723,736.38,1.3619,-0.45396,-1.4049,1.8158,6.5399e-09,-0.70243,0,0,0.1,-0,-0,0.66667
0.34768,0.83832,3.4768,0.50749,59.325,453.64,-4.7051,1.5684,-1.0838,-6.2735,-2.6783e-12,-0.54188,0,0,0.1,-7.1054e-16,0,0.66667
0.62672,0.4387,6.2672,-0.091952,-7.3919,167.98,1.5368,-0.51225,-1.9731,2.049,5.1092e-13,-0.98653,0,0,0.1,-0,-0,0.66667
0.73484,0.11031,7.3484,-0.58453,-35.718,90.334,11.454,-3.8181,-0.78907,15.272,6.243e-12,-0.39453,0,0,0.1,-0,-0,0.66667
0.60653,0.35974,6.0653,-0.21039,-17.619,185.04,3.4028,-1.1343,-1.8426,4.5371,-1.8618e-12,-0.92132,0,0,0.1,-0,-0,0.66667
0.076207,0.20659,0.76207,-0.44012,-58.173,800.63,0.8944,-0.29813,-1.3127,1.1925,1.3264e-07,-0.65635,0,0,0.1,1.1842e-16,0,0.66667
0.93982,0.37668,9.3982,-0.18498,-2.7779,5.7272,4.636,-1.5453,-1.8804,6.1814,-9.6282e-09,-0.94022,0,0,0.1,-3.7896e-15,0,0.66667
0.18939,0.16917,1.8939,-0.49625,-63.63,651.08,2.5063,-0.83543,-1.1258,3.3417,-1.479e-11,-0.56292,0,0,0.1,-0,-0,0.66667
0.57409,0.40738,5.7409,-0.13893,-12.34,213.61,2.1268,-0.70894,-1.9315,2.8358,-3.2259e-12,-0.96573,0,0,0.1,1.8948e-15,0,0.66667
0.90683,0.96701,9.0683,0.70051,16.541,14.511,-16.94,5.6466,-0.26028,-22.586,-1.619e-06,-0.13014,0,0,0.1,-2.3685e-16,0,0.66667
0.97339,0.91148,9.7339,0.61722,4.2059,2.9611,-16.021,5.3403,-0.64431,-21.361,-1.978e-05,-0.32215,0,0,0.1,-0,-0,0.66667
0.85777,0.33699,8.5777,-0.24451,-8.4868,27.936,5.593,-1.8643,-1.7898,7.4573,-3.4841e-09,-0.89492,0,0,0.1,-0,-0,0.66667
0.12909,0.67561,1.2909,0.26341,34.401,730.1,-0.90676,0.30225,-1.752,-1.209,-7.8256e-09,-0.87598,0,0,0.1,-0,-0,0.66667
0.90702,0.55242,9.0702,0.078634,1.8137,12.512,-1.9019,0.63398,-1.9816,-2.5359,1.1232e-08,-0.99078,0,0,0.1,-0,-0,0.66667
0.32751,0.93172,3.2751,0.64759,76.987,477.96,-5.6558,1.8853,-0.51322,-7.5411,-8.0602e-13,-0.25661,0,0,0.1,-2.3685e-16,7.1367e-17,0.66667
0.58239,0.57344,5.8239,0.11016,9.6432,206.11,-1.7108,0.57027,-1.9554,-2.2811,-1.7579e-12,-0.9777,0,0,0.1,-0,-0,0.66667
0.14046,0.33923,1.4046,-0.24115,-31.393,715.05,0.90326,-0.30109,-1.7986,1.2043,3.8098e-09,-0.8993,0,0,0.1,-1.7764e-16,0,0.66667
0.51272,0.75428,5.1272,0.38142,37.322,272.4,-5.2151,1.7384,-1.4836,-6.9534,-7.8004e-12,-0.74178,0,0,0.1,1.8948e-15,0,0.66667
0.46733,0.73781,4.6733,0.35671,37.013,318.95,-4.4454,1.4818,-1.5498,-5.9271,-1.5055e-12,-0.77492,0,0,0.1,-4.737e-16,0,0.66667
0.005313,0.8455,0.05313,0.51825,68.94,895.9,-0.073422,0.024472,-1.044,-0.097898,-3.4173e-06,-0.52198,0,0,0.1,1.4803e-17,-2.6112e-16,0.66667
0.28621,0.26495,2.8621,-0.35258,-42.999,527.97,2.691,-0.89699,-1.5558,3.588,-6.3778e-12,-0.7779,0,0,0.1,-4.737e-16,0,0.66667
0.14345,0.76977,1.4345,0.40465,52.676,711.17,-1.5479,0.51597,-1.418,-2.0639,-2.8006e-09,-0.70898,0,0,0.1,2.3685e-16,0,0.66667
0.35352,0.5611,3.5352,0.091657,10.641,446.33,-0.86408,0.28803,-1.9688,-1.1521,-9.3516e-12,-0.98439,0,0,0.1,-4.737e-16,0,0.66667
0.27167,0.78087,2.7167,0.42131,51.86,546.1,-3.0522,1.0174,-1.3676,-4.0696,-5.2198e-12,-0.68382,0,0,0.1,-1.4803e-16,0,0.66667
0.47113,0.40292,4.7113,-0.14562,-15.025,314.73,1.8295,-0.60983,-1.9263,2.4393,-4.5215e-12,-0.96316,0,0,0.1,-4.737e-16,0,0.66667
0.77155,0.78178,7.7155,0.42266,22.639,68.134,-8.6962,2.8987,-1.3636,-11.595,-5.1887e-12,-0.6818,0,0,0.1,-0,-0,0.66667
0.020636,0.78947,0.20636,0.43421,57.702,875.27,-0.23895,0.079651,-1.3278,-0.3186,2.1646e-06,-0.66389,0,0,0.1,-0,-0,0.66667
0.22758,0.69633,2.2758,0.29449,37.086,601.72,-1.7872,0.59573,-1.6888,-2.3829,2.4186e-11,-0.84441,0,0,0.1,4.737e-16,0,0.66667
0.98353,0.72375,9.8353,0.33562,1.3052,1.0854,-8.8024,2.9341,-1.6035,-11.737,-4.7785e-07,-0.80174,0,0,0.1,-0,-0,0.66667
0.059609,0.94837,0.59609,0.67256,89.279,822.95,-1.0691,0.35637,-0.39179,-1.4254,6.8569e-06,-0.19589,0,0,0.1,-0,-0,0.66667
0.59551,0.4806,5.9551,-0.029103,-2.4874,194.47,0.46216,-0.15405,-1.9987,0.61622,-1.888e-12,-0.99935,0,0,0.1,-0,-0,0.66667
0.99828,0.55498,9.9828,0.082467,-0.0097696,0.058514,-2.1954,0.73178,-1.9779,-2.9271,6.595e-07,-0.98897,0,0,0.1,-0,-0,0.66667
0.60079,0.1093,6.0079,-0.58606,-49.803,190.79,9.3892,-3.1297,-0.7756,12.519,-4.8406e-13,-0.3878,0,0,0.1,-0,-0,0.66667
0.052634,0.76507,0.52634,0.3976,52.7,832.23,-0.55806,0.18602,-1.4352,-0.74408,-9.3955e-08,-0.7176,0,0,0.1,-0,-0,0.66667
0.12467,0.73391,1.2467,0.35087,45.895,735.99,-1.1665,0.38883,-1.5665,-1.5553,-9.4735e-09,-0.78324,0,0,0.1,-0,-0,0.66667
0.89515,0.24952,8.9515,-0.37573,-9.7907,16.194,8.9688,-2.9896,-1.4978,11.958,-3.4511e-08,-0.74891,0,0,0.1,-2.9606e-16,0,0.66667
0.86842,0.58992,8.6842,0.13488,4.3453,24.007,-3.1236,1.0412,-1.9332,-4.1648,3.7877e-09,-0.9666,0,0,0.1,-9.4739e-16,0,0.66667
0.54878,0.017173,5.4878,-0.72424,-67.455,238.31,10.599,-3.5329,-0.13641,14.131,2.319e-12,-0.068207,0,0,0.1,-0,-0,0.66667
0.26258,0.71088,2.6258,0.31632,39.117,557.39,-2.2149,0.73831,-1.6444,-2.9533,5.4572e-12,-0.8222,0,0,0.1,2.3685e-16,0,0.66667
0.51035,0.25884,5.1035,-0.36175,-35.508,274.74,4.9231,-1.641,-1.5326,6.5641,-1.1147e-12,-0.76631,0,0,0.1,9.4739e-16,0,0.66667
0.25377,0.88673,2.5377,0.58009,72.228,568.74,-3.9256,1.3085,-0.80254,-5.2342,-7.6064e-12,-0.40127,0,0,0.1,4.737e-16,0,0.66667
0.69013,0.83257,6.9013,0.49885,34.672,119.95,-9.1806,3.0602,-1.1156,-12.241,-1.9504e-12,-0.55782,0,0,0.1,-0,-0,0.66667
0.60412,0.32563,6.0412,-0.26155,-22.012,187.18,4.2135,-1.4045,-1.7544,5.618,-2.9723e-12,-0.8772,0,0,0.1,9.4739e-16,0,0.66667
0.78798,0.0058695,7.8798,-0.7412,-37.453,60.627,15.575,-5.1915,-0.04422,20.766,1.04e-10,-0.02211,0,0,0.1,-0,-0,0.66667
0.48764,0.90576,4.8764,0.60864,61.734,298.3,-7.9146,2.6382,-0.68394,-10.553,1.7679e-12,-0.34197,0,0,0.1,-8.8818e-17,0,0.66667
0.038361,0.48819,0.38361,-0.01771,-2.3475,851.39,0.018116,-0.0060382,-1.9958,0.024155,7.7362e-07,-0.99789,0,0,0.1,-4.5428e-17,0,0.66667
0.79002,0.70615,7.9002,0.30923,15.347,57.984,-6.5145,2.1715,-1.6569,-8.686,-5.0399e-11,-0.82846,0,0,0.1,-0,-0,0.66667
0.20938,0.27453,2.0938,-0.33821,-42.96,625.11,1.8883,-0.62944,-1.5909,2.5178,-5.5139e-11,-0.79545,0,0,0.1,3.5527e-16,0,0.66667
0.22664,0.40856,2.2664,-0.13716,-17.272,602.85,0.82896,-0.27632,-1.9311,1.1053,-3.9309e-11,-0.96553,0,0,0.1,9.4739e-16,0,0.66667
0.54164,0.76662,5.4164,0.39992,37.513,244.21,-5.7764,1.9255,-1.4289,-7.7018,-1.8385e-13,-0.71447,0,0,0.1,-9.4739e-16,0,0.66667
0.82259,0.0084223,8.2259,-0.73737,-31.775,43.983,16.175,-5.3916,-0.064586,21.566,5.0134e-10,-0.032293,0,0,0.1,-0,-0,0.66667
0.94909,0.71515,9.4909,0.32272,4.116,4.5572,-8.1678,2.7226,-1.6293,-10.89,1.8567e-08,-0.81467,0,0,0.1,-2.3685e-15,0,0.66667
0.24077,0.50711,2.4077,0.010662,1.333,584.82,-0.068457,0.022819,-1.9971,-0.091276,-5.45e-13,-0.99854,0,0,0.1,-9.4739e-16,0,0.66667
0.8962,0.13221,8.962,-0.55168,-14.331,16.552,13.184,-4.3948,-0.91574,17.579,1.8425e-08,-0.45787,0,0,0.1,1.8948e-15,0,0.66667
0.91103,0.70208,9.1103,0.30312,6.7236,11.873,-7.364,2.4547,-1.6713,-9.8186,4.4669e-08,-0.83563,0,0,0.1,-1.8948e-15,0,0.66667
0.74442,0.56573,7.4442,0.0986,5.8047,83.327,-1.9573,0.65244,-1.9639,-2.6098,-5.6156e-12,-0.98195,0,0,0.1,-0,-0,0.66667
0.37426,0.45901,3.7426,-0.061478,-7.0133,422.04,0.61357,-0.20452,-1.9902,0.8181,-2.8729e-12,-0.9951,0,0,0.1,-0,-0,0.66667
0.54785,0.78507,5.4785,0.42761,39.733,238.35,-6.2471,2.0824,-1.3538,-8.3295,-2.5033e-12,-0.6769,0,0,0.1,-0,-0,0.66667
0.13763,0.7112,1.3763,0.31681,41.289,718.81,-1.1627,0.38758,-1.6434,-1.5503,-4.8655e-09,-0.82171,0,0,0.1,-1.1842e-16,0,0.66667
0.57527,0.60766,5.7527,0.16149,14.316,212.55,-2.4773,0.82577,-1.9073,-3.3031,7.6206e-13,-0.95365,0,0,0.1,-9.4739e-16,0,0.66667
0.57561,0.7919,5.7561,0.43786,38.869,212.67,-6.721,2.2403,-1.319,-8.9613,8.8063e-13,-0.65949,0,0,0.1,-0,-0,0.66667
0.58347,0.96086,5.8347,0.69129,60.732,206.35,-10.756,3.5853,-0.29882,-14.341,2.2267e-12,-0.14941,0,0,0.1,-4.737e-16,0,0.66667
0.92023,0.62228,9.2023,0.18341,3.6453,9.5263,-4.5009,1.5003,-1.8833,-6.0011,5.1033e-08,-0.94167,0,0,0.1,2.1316e-15,0,0.66667
0.5331,0.60474,5.331,0.15711,14.907,252.1,-2.2335,0.74448,-1.9138,-2.9779,-2.9405e-12,-0.95692,0,0,0.1,-0,-0,0.66667
0.24089,0.49877,2.4089,-0.0018469,-0.23089,584.66,0.011864,-0.0039548,-1.9984,0.015819,-1.3071e-11,-0.99919,0,0,0.1,6.2778e-16,0,0.66667
0.54523,0.50459,5.4523,0.0068881,0.64136,240.39,-0.10015,0.033383,-2.0025,-0.13353,-4.5394e-12,-1.0012,0,0,0.1,-0,-0,0.66667
0.12737,0.98434,1.2737,0.72651,95.27,732.64,-2.4677,0.82257,-0.12398,-3.2903,4.0789e-08,-0.06199,0,0,0.1,-0,-0,0.66667
0.074781,0.44489,0.74781,-0.082665,-10.913,802.48,0.16485,-0.054949,-1.9756,0.21979,3.9265e-08,-0.98778,0,0,0.1,-0,-0,0.66667
0.83061,0.94063,8.3061,0.66094,27.24,40.109,-14.64,4.8798,-0.44839,-19.519,-2.0462e-08,-0.2242,0,0,0.1,1.8948e-15,0,0.66667
0.72316,0.23692,7.2316,-0.39463,-24.934,97.183,7.61,-2.5367,-1.4446,10.147,5.0138e-12,-0.7223,0,0,0.1,-9.4739e-16,0,0.66667
0.083912,0.90251,0.83912,0.60377,79.812,790.38,-1.351,0.45034,-0.70212,-1.8014,2.1843e-08,-0.35106,0,0,0.1,1.7764e-16,0,0.66667
0.55758,0.55523,5.5758,0.082841,7.5637,228.78,-1.2317,0.41058,-1.9739,-1.6423,-3.5002e-12,-0.98696,0,0,0.1,8.0385e-16,0,0.66667
0.52511,0.32076,5.2511,-0.26886,-25.827,260,3.7648,-1.2549,-1.7404,5.0198,-2.1962e-12,-0.87022,0,0,0.1,-0,-0,0.66667
0.50731,0.95254,5.0731,0.67881,67.142,278.52,-9.1831,3.061,-0.35843,-12.244,-3.1282e-12,-0.17922,0,0,0.1,-9.4739e-16,0,0.66667
0.032405,0.61453,0.32405,0.1718,22.788,859.41,-0.14846,0.049486,-1.8979,-0.19794,2.4626e-07,-0.94894,0,0,0.1,2.9606e-17,0,0.66667
0.96037,0.12888,9.6037,-0.55668,-5.6205,3.9504,14.256,-4.7522,-0.8959,19.009,-3.1117e-06,-0.44795,0,0,0.1,-0,-0,0.66667
0.92765,0.54602,9.2765,0.069027,1.2437,7.8556,-1.7075,0.56918,-1.9803,-2.2767,-2.2882e-08,-0.99017,0,0,0.1,-0,-0,0.66667
0.96441,0.47711,9.6441,-0.03433,-0.29999,2.1776,0.88289,-0.2943,-1.9945,1.1772,-9.8843e-09,-0.99725,0,0,0.1,-0,-0,0.66667
0.53338,0.30599,5.3338,-0.29102,-27.619,251.97,4.1393,-1.3798,-1.7005,5.519,-2.4687e-12,-0.85024,0,0,0.1,-0,-0,0.66667
0.12664,0.59951,1.2664,0.14926,19.498,733.32,-0.50406,0.16802,-1.9233,-0.67208,-7.042e-09,-0.96163,0,0,0.1,-0,-0,0.66667
0.73229,0.44414,7.3229,-0.083789,-5.1327,90.847,1.6362,-0.5454,-1.9767,2.1816,8.1546e-13,-0.98835,0,0,0.1,-0,-0,0.66667
0.94973,0.71303,9.4973,0.31954,4.0231,4.4558,-8.0928,2.6976,-1.637,-10.79,1.1801e-08,-0.81848,0,0,0.1,9.4739e-16,0,0.66667
0.25927,0.054636,2.5927,-0.66805,-83.005,561.95,4.6187,-1.5396,-0.41063,6.1583,-2.2716e-11,-0.20532,0,0,0.1,2.3685e-16,0,0.66667
0.28377,0.82477,2.8377,0.48716,59.56,531.13,-3.6864,1.2288,-1.1567,-4.9152,-6.3349e-12,-0.57835,0,0,0.1,-0,-0,0.66667
0.44706,0.55404,4.4706,0.081064,8.6016,340.37,-0.9664,0.32213,-1.9741,-1.2885,-2.4776e-12,-0.98706,0,0,0.1,-0,-0,0.66667
0.15862,0.62229,1.5862,0.18343,23.742,691.11,-0.77588,0.25863,-1.8822,-1.0345,-9.8998e-10,-0.9411,0,0,0.1,-0,-0,0.66667
0.56858,0.50253,5.6858,0.0037911,0.33985,218.59,-0.057481,0.01916,-1.9983,-0.076642,1.9044e-13,-0.99913,0,0,0.1,-3.7896e-15,0,0.66667
0.44953,0.50934,4.4953,0.014017,1.4831,337.68,-0.16803,0.056011,-1.9987,-0.22404,-5.0312e-12,-0.99933,0,0,0.1,-0,-0,0.66667
0.88742,0.349,8.8742,-0.2265,-6.2967,18.061,5.3599,-1.7866,-1.8179,7.1466,-1.7108e-08,-0.90895,0,0,0.1,1.8948e-15,0,0.66667
0.21483,0.29622,2.1483,-0.30566,-38.725,618.07,1.7511,-0.5837,-1.6665,2.3348,-5.7784e-11,-0.83327,0,0,0.1,-0,-0,0.66667
0.16795,0.5515,1.6795,0.077251,9.965,678.85,-0.34598,0.11533,-1.9777,-0.46131,-4.0491e-10,-0.98883,0,0,0.1,2.3685e-16,0,0.66667
0.49563,0.8242,4.9563,0.4863,48.748,289.82,-6.4274,2.1425,-1.1576,-8.5699,-1.8381e-12,-0.57878,0,0,0.1,-0,-0,0.66667
0.51663,0.25116,5.1663,-0.37326,-36.321,268.51,5.1423,-1.7141,-1.509,6.8563,-4.0417e-12,-0.7545,0,0,0.1,1.8948e-15,0,0.66667
0.4062,0.61194,4.062,0.16791,18.601,385.54,-1.8188,0.60626,-1.9045,-2.425,-5.0521e-12,-0.95227,0,0,0.1,-0,-0,0.66667
0.2368,0.32077,2.368,-0.26885,-33.699,589.95,1.6976,-0.56588,-1.744,2.2635,-2.8047e-11,-0.87199,0,0,0.1,-4.737e-16,0,0.66667
0.53636,0.87708,5.3636,0.56562,53.577,249.65,-8.0901,2.6967,-0.86146,-10.787,-1.128e-12,-0.43073,0,0,0.1,-0,-0,0.66667
0.96214,0.73626,9.6214,0.35439,3.3495,2.9604,-9.0926,3.0309,-1.5504,-12.123,-7.6658e-08,-0.77519,0,0,0.1,-1.8948e-15,0,0.66667
0.25644,0.95506,2.5644,0.68259,84.959,565.53,-4.6678,1.5559,-0.34034,-6.2237,1.2147e-11,-0.17017,0,0,0.1,-4.737e-16,0,0.66667
0.28319,0.24158,2.8319,-0.38763,-47.374,531.74,2.9273,-0.97577,-1.4674,3.9031,-5.9102e-12,-0.73371,0,0,0.1,2.3685e-16,0,0.66667
0.031465,0.052704,0.31465,-0.67094,-89.293,860.73,0.56297,-0.18767,-0.40409,0.75063,-1.4027e-05,-0.20205,0,0,0.1,-0,-0,0.66667
0.87611,0.46468,8.7611,-0.052978,-1.6111,21.387,1.2377,-0.41257,-1.9937,1.6503,-9.3792e-09,-0.99684,0,0,0.1,-9.4739e-16,0,0.66667
0.27438,0.46598,2.7438,-0.051032,-6.2624,542.51,0.3734,-0.12447,-1.9887,0.49787,3.3717e-12,-0.99437,0,0,0.1,1.7764e-16,0,0.66667
0.059762,0.85756,0.59762,0.53633,71.103,822.7,-0.85474,0.28491,-0.9774,-1.1397,1.7003e-07,-0.4887,0,0,0.1,-0,-0,0.66667
0.75205,0.16012,7.5205,-0.50983,-29.37,79.577,10.224,-3.4081,-1.0779,13.633,4.0488e-11,-0.53897,0,0,0.1,-0,-0,0.66667
0.92919,0.20933,9.2919,-0.436,-7.7731,8.3159,10.803,-3.6011,-1.3211,14.405,-1.8937e-07,-0.66056,0,0,0.1,-9.4739e-16,0,0.66667
0.42393,0.7859,4.2393,0.42884,46.735,366.02,-4.848,1.616,-1.3481,-6.464,9.4325e-13,-0.67404,0,0,0.1,-0,-0,0.66667
0.32511,0.2952,3.2511,-0.30719,-36.481,480.38,2.6632,-0.88774,-1.6643,3.5509,-3.0891e-12,-0.83214,0,0,0.1,4.737e-16,0,0.66667
0.68882,0.61071,6.8882,0.16606,11.544,120.21,-3.0504,1.0168,-1.9043,-4.0671,-7.8848e-13,-0.95215,0,0,0.1,-0,-0,0.66667
0.20706,0.41949,2.0706,-0.12076,-15.343,628,0.66681,-0.22227,-1.9469,0.88908,-2.87e-11,-0.97345,0,0,0.1,-0,-0,0.66667
0.55152,0.052301,5.5152,-0.67155,-62.227,235.55,9.8766,-3.2922,-0.39479,13.169,7.3896e-13,-0.19739,0,0,0.1,-0,-0,0.66667
0.49453,0.83767,4.9453,0.50651,50.857,290.99,-6.6797,2.2266,-1.0859,-8.9062,1.3691e-12,-0.54295,0,0,0.1,-4.737e-16,0,0.66667
0.58736,0.97762,5.8736,0.71643,62.533,202.99,-11.221,3.7405,-0.17234,-14.962,1.2035e-12,-0.086168,0,0,0.1,-0,-0,0.66667
0.83524,0.090806,8.3524,-0.61379,-24.628,37.939,13.671,-4.557,-0.65839,18.228,-5.8273e-09,-0.3292,0,0,0.1,-1.4211e-15,0,0.66667
0.68413,0.90375,6.8413,0.60562,42.833,124.62,-11.049,3.6829,-0.69645,-14.731,2.0304e-12,-0.34823,0,0,0.1,-1.4211e-15,0,0.66667
0.88239,0.43633,8.8239,-0.095512,-2.7646,19.422,2.2474,-0.74914,-1.9658,2.9966,-8.5995e-10,-0.98288,0,0,0.1,2.3685e-16,0,0.66667
0.27936,0.75831,2.7936,0.38746,47.464,536.5,-2.8864,0.96213,-1.468,-3.8485,-1.5634e-12,-0.73399,0,0,0.1,-0,-0,0.66667
0.24996,0.66143,2.4996,0.24215,30.142,573.25,-1.614,0.53801,-1.797,-2.152,1.0635e-11,-0.89852,0,0,0.1,-0,-0,0.66667
0.18811,0.33757,1.8811,-0.24365,-31.21,652.58,1.2222,-0.4074,-1.7932,1.6296,6.6493e-11,-0.89659,0,0,0.1,-0,-0,0.66667
0.008355,0.78295,0.08355,0.42443,56.419,891.8,-0.094563,0.03152,-1.3576,-0.12608,-1.3903e-06,-0.6788,0,0,0.1,2.9606e-17,0,0.66667
0.65746,0.6255,6.5746,0.18826,14.148,143.54,-3.3005,1.1002,-1.8781,-4.4007,2.7445e-13,-0.93906,0,0,0.1,1.8948e-15,0,0.66667
0.37182,0.28747,3.7182,-0.3188,-36.478,425.05,3.161,-1.0537,-1.6388,4.2146,-5.9577e-12,-0.81941,0,0,0.1,9.4739e-16,0,0.66667
0.16613,0.63802,1.6613,0.20704,26.731,681.27,-0.91718,0.30573,-1.8449,-1.2229,-7.3074e-10,-0.92246,0,0,0.1,-2.3685e-16,0,0.66667
0.25918,0.63243,2.5918,0.19865,24.599,561.6,-1.3729,0.45764,-1.8571,-1.8306,6.375e-12,-0.92857,0,0,0.1,-0,-0,0.66667
0.1825,0.91907,1.825,0.62861,80.914,660.16,-3.0593,1.0198,-0.59285,-4.079,-7.6758e-10,-0.29642,0,0,0.1,4.737e-16,0,0.66667
0.17807,0.60414,1.7807,0.15621,20.08,665.63,-0.74177,0.24726,-1.9105,-0.98902,-2.6072e-10,-0.95525,0,0,0.1,-0,-0,0.66667
0.22777,0.66862,2.2777,0.25292,31.843,601.45,-1.5362,0.51207,-1.7695,-2.0483,2.9098e-11,-0.88477,0,0,0.1,-0,-0,0.66667
0.096411,0.63322,0.96411,0.19983,26.288,773.56,-0.51376,0.17125,-1.8587,-0.68501,-3.2237e-08,-0.92933,0,0,0.1,-0,-0,0.66667
0.54411,0.1649,5.4411,-0.50265,-47.017,242.08,7.2932,-2.4311,-1.1021,9.7243,-8.975e-13,-0.55105,0,0,0.1,-0,-0,0.66667
0.8362,0.28579,8.362,-0.32132,-12.733,36.526,7.1649,-2.3883,-1.6305,9.5532,-8.1914e-10,-0.81525,0,0,0.1,-0,-0,0.66667
0.34664,0.87965,3.4664,0.56948,66.666,454.97,-5.2641,1.7547,-0.8477,-7.0188,-1.9105e-12,-0.42385,0,0,0.1,-0,-0,0.66667
0.9126,0.72889,9.126,0.34334,7.4941,11.605,-8.3555,2.7852,-1.5781,-11.141,4.5292e-08,-0.78904,0,0,0.1,-0,-0,0.66667
0.68392,0.50132,6.8392,0.0019736,0.13891,123.65,-0.035994,0.011998,-2.0005,-0.047992,4.5152e-12,-1.0003,0,0,0.1,-3.7896e-15,0,0.66667
0.82604,0.59318,8.2604,0.13978,5.8415,40.547,-3.079,1.0263,-1.9332,-4.1053,1.7128e-10,-0.9666,0,0,0.1,-1.1842e-15,0,0.66667
0.92485,0.033422,9.2485,-0.69987,-13.445,10.418,17.261,-5.7536,-0.25954,23.014,-5.8967e-06,-0.12977,0,0,0.1,-0,-0,0.66667
0.71895,0.17543,7.1895,-0.48685,-31.197,100.19,9.3339,-3.1113,-1.1618,12.445,1.7364e-12,-0.58089,0,0,0.1,-0,-0,0.66667
0.77043,0.47319,7.7043,-0.040215,-2.156,68.151,0.82621,-0.2754,-1.9931,1.1016,2.4657e-11,-0.99653,0,0,0.1,-1.8247e-15,0,0.66667
0.074018,0.61092,0.74018,0.16638,21.971,803.51,-0.32841,0.10947,-1.9001,-0.43788,-4.7097e-08,-0.95007,0,0,0.1,-1.1842e-16,0,0.66667
0.18869,0.72992,1.8869,0.34488,44.188,651.89,-1.7353,0.57844,-1.5798,-2.3137,-4.0313e-11,-0.7899,0,0,0.1,-4.737e-16,0,0.66667
0.31405,0.81501,3.1405,0.47252,56.622,493.95,-3.9572,1.3191,-1.2093,-5.2763,-4.3006e-12,-0.60464,0,0,0.1,-0,-0,0.66667
0.33439,0.44806,3.3439,-0.077912,-9.1817,469.09,0.69475,-0.23158,-1.9756,0.92633,-2.8859e-12,-0.98782,0,0,0.1,-0,-0,0.66667
0.4653,0.025686,4.653,-0.71147,-74.283,321.88,8.828,-2.9427,-0.20018,11.771,-1.8048e-12,-0.10009,0,0,0.1,-0,6.9328e-17,0.66667
0.095259,0.88944,0.95259,0.58416,77.047,775.22,-1.4839,0.49463,-0.78873,-1.9785,-7.244e-08,-0.39436,0,0,0.1,-0,-0,0.66667
0.34423,0.71265,3.4423,0.31898,37.339,457.49,-2.928,0.97601,-1.6428,-3.904,-2.8069e-12,-0.82138,0,0,0.1,-4.737e-16,0,0.66667
0.073158,0.40136,0.73158,-0.14797,-19.54,804.66,0.28866,-0.096221,-1.9208,0.38488,2.6583e-08,-0.96038,0,0,0.1,-1.7764e-16,0,0.66667
0.32341,0.54665,3.2341,0.06998,8.3142,482.3,-0.60353,0.20118,-1.9806,-0.80471,6.517e-14,-0.99029,0,0,0.1,-0,-0,0.66667
0.6615,0.7247,6.615,0.33706,25.119,140.67,-5.9457,1.9819,-1.5943,-7.9276,1.0303e-12,-0.79716,0,0,0.1,-1.8948e-15,0,0.66667
0.0029211,0.10146,0.029211,-0.59781,-79.581,899.12,0.046561,-0.015526,-0.72968,0.062079,-7.9022e-06,-0.36484,0,0,0.1,-0,-0,0.66667
0.28436,0.25204,2.8436,-0.37194,-45.419,530.27,2.8205,-0.94015,-1.5091,3.7606,-4.2559e-12,-0.75454,0,0,0.1,-0,-0,0.66667
0.072846,0.45065,0.72846,-0.074032,-9.7758,805.07,0.14381,-0.047938,-1.9781,0.19175,-7.779e-10,-0.98906,0,0,0.1,-0,-0,0.66667
0.71076,0.6475,7.1076,0.22125,14.479,105.04,-4.1935,1.3978,-1.823,-5.5913,-3.8143e-12,-0.9115,0,0,0.1,4.737e-16,0,0.66667
0.84127,0.39577,8.4127,-0.15634,-6.0051,34.157,3.5073,-1.1691,-1.9138,4.6764,-9.5204e-10,-0.95689,0,0,0.1,-0,-0,0.66667
0.97833,0.89073,9.7833,0.5861,3.217,2.4222,-15.291,5.0969,-0.77575,-20.388,-1.1498e-05,-0.38787,0,0,0.1,1.8948e-15,0,0.66667
0.61717,0.25578,6.1717,-0.36634,-30.077,176.27,6.0291,-2.0097,-1.5202,8.0388,-7.3763e-13,-0.76012,0,0,0.1,-0,-0,0.66667
0.2249,0.6899,2.249,0.28486,35.918,605.14,-1.7084,0.56946,-1.7098,-2.2778,1.9706e-11,-0.8549,0,0,0.1,9.4739e-16,0,0.66667
0.22831,0.26414,2.2831,-0.35379,-44.552,600.82,2.154,-0.71799,-1.5521,2.872,-4.1109e-11,-0.77605,0,0,0.1,4.737e-16,0,0.66667
0.49353,0.036673,4.9353,-0.69499,-70.038,292.51,9.1466,-3.0489,-0.28031,12.195,-4.4853e-12,-0.14015,0,0,0.1,-0,-0,0.66667
0.93135,0.709,9.3135,0.31351,5.3916,7.52,-7.7862,2.5954,-1.6479,-10.382,1.2609e-07,-0.82393,0,0,0.1,-0,-0,0.66667
0.62806,0.62162,6.2806,0.18244,14.63,166.95,-3.0555,1.0185,-1.8824,-4.074,-1.6958e-12,-0.94122,0,0,0.1,2.3685e-16,0,0.66667
0.1814,0.49029,1.814,-0.01456,-1.8689,661.27,0.070431,-0.023477,-1.9966,0.093908,-2.909e-10,-0.9983,0,0,0.1,-0,-0,0.66667
0.51601,0.12173,5.1601,-0.5674,-55.368,269.54,7.8076,-2.6025,-0.86045,10.41,2.1663e-12,-0.43022,0,0,0.1,-1.1842e-15,0,0.66667
0.40912,0.8039,4.0912,0.45585,50.439,382.58,-4.9733,1.6578,-1.2615,-6.6311,-4.13e-14,-0.63073,0,0,0.1,-4.737e-16,0,0.66667
0.86907,0.3015,8.6907,-0.29776,-9.5693,24.057,6.9006,-2.3002,-1.6821,9.2008,-7.3046e-09,-0.84105,0,0,0.1,-0,-0,0.66667
0.10442,0.9808,1.0442,0.7212,95.08,763.1,-2.0081,0.66937,-0.14855,-2.6775,-4.9608e-07,-0.074276,0,0,0.1,-2.3685e-16,0,0.66667
0.21763,0.476,2.1763,-0.035993,-4.5509,614.38,0.20888,-0.069628,-1.9986,0.27851,1.7245e-11,-0.99928,0,0,0.1,-0,-0,0.66667
0.75933,0.064672,7.5933,-0.65299,-36.773,75.883,13.222,-4.4074,-0.48221,17.63,-3.437e-11,-0.24111,0,0,0.1,-1.8948e-15,0,0.66667
0.97325,0.54082,9.7325,0.061235,0.39554,1.341,-1.5892,0.52975,-1.9851,-2.119,7.8351e-07,-0.99255,0,0,0.1,-0,-0,0.66667
0.80883,0.11109,8.0883,-0.58336,-26.762,49.554,12.582,-4.1941,-0.78903,16.777,-1.8756e-10,-0.39452,0,0,0.1,-9.5785e-16,0,0.66667
0.57043,0.53734,5.7043,0.056008,5.0053,216.9,-0.85196,0.28399,-1.9862,-1.136,-1.0362e-12,-0.9931,0,0,0.1,-1.8948e-15,0,0.66667
0.80961,0.67375,8.0961,0.26062,11.839,48.207,-5.6266,1.8755,-1.7585,-7.5021,3.6226e-11,-0.87923,0,0,0.1,-0,-0,0.66667
0.37864,0.82315,3.7864,0.48473,55.2,417.36,-4.8943,1.6314,-1.1638,-6.5258,-6.9527e-12,-0.58189,0,0,0.1,9.4739e-16,0,0.66667
0.23981,0.65583,2.3981,0.23375,29.251,586.1,-1.4948,0.49827,-1.8048,-1.9931,1.754e-11,-0.90241,0,0,0.1,2.3685e-16,0,0.66667
0.44234,0.028268,4.4234,-0.7076,-75.841,346.46,8.3466,-2.7822,-0.21877,11.129,-8.1846e-12,-0.10939,0,0,0.1,4.737e-16,0,0.66667
0.29305,0.53837,2.9305,0.05755,6.981,519.37,-0.44973,0.14991,-1.9876,-0.59964,-1.4222e-13,-0.99378,0,0,0.1,-0,-0,0.66667
0.64436,0.15151,6.4436,-0.52273,-40.602,154.47,8.982,-2.994,-1.0282,11.976,-1.7808e-12,-0.51411,0,0,0.1,-0,-0,0.66667
0.91612,0.28807,9.1612,-0.3179,-6.6601,10.718,7.7663,-2.5888,-1.6385,10.355,-5.9228e-08,-0.81925,0,0,0.1,-0,-0,0.66667
0.6714,0.85817,6.714,0.53725,39.19,133.72,-9.6189,3.2063,-0.97763,-12.825,-7.8959e-13,-0.48882,0,0,0.1,9.4739e-16,0,0.66667
0.78373,0.73189,7.8373,0.34784,17.732,61.352,-7.2697,2.4232,-1.5704,-9.6929,-4.731e-11,-0.78518,0,0,0.1,1.8948e-15,0,0.66667
0.9199,0.35328,9.199,-0.22009,-4.3953,9.6586,5.3989,-1.7996,-1.8293,7.1985,-5.7595e-08,-0.91465,0,0,0.1,-0,-0,0.66667
0.73198,0.51299,7.3198,0.019487,1.1948,91.022,-0.38037,0.12679,-1.9993,-0.50716,-2.0659e-12,-0.99966,0,0,0.1,-0,-0,0.66667
0.45633,0.46793,4.5633,-0.048108,-5.0507,330.38,0.58542,-0.19514,-1.9928,0.78056,4.1556e-13,-0.99642,0,0,0.1,2.0724e-16,0,0.66667
0.7422,0.56875,7.422,0.10312,6.1167,84.689,-2.041,0.68034,-1.9595,-2.7214,-5.1568e-12,-0.97976,0,0,0.1,-0,-0,0.66667
0.99059,0.28398,9.9059,-0.32403,-0.65563,0.71327,8.5596,-2.8532,-1.6249,11.413,-5.2378e-07,-0.81245,0,0,0.1,-0,-0,0.66667
0.67386,0.21786,6.7386,-0.42322,-30.637,131.57,7.605,-2.535,-1.3659,10.14,-3.8103e-13,-0.68296,0,0,0.1,-4.1448e-16,0,0.66667
0.72714,0.38533,7.2714,-0.17201,-10.713,94.205,3.3353,-1.1118,-1.8918,4.4471,3.0109e-12,-0.94588,0,0,0.1,-0,-0,0.66667
0.13533,0.76684,1.3533,0.40027,52.224,721.89,-1.4445,0.4815,-1.4279,-1.926,-5.7636e-09,-0.71396,0,0,0.1,-2.3685e-16,0,0.66667
0.81734,0.63433,8.1734,0.20149,8.8089,44.511,-4.3917,1.4639,-1.8538,-5.8556,4.8512e-11,-0.92691,0,0,0.1,-0,-0,0.66667
0.92918,0.5976,9.2918,0.14641,2.5849,7.6215,-3.6277,1.2092,-1.9215,-4.8369,2.4649e-08,-0.96075,0,0,0.1,-0,-0,0.66667
0.082941,0.033855,0.82941,-0.69922,-92.534,791.73,1.5465,-0.5155,-0.26077,2.062,-6.0357e-07,-0.13039,0,0,0.1,-0,-0,0.66667
0.92221,0.87325,9.2221,0.55988,11.017,10.245,-13.769,4.5896,-0.89098,-18.358,-6.5964e-08,-0.44549,0,0,0.1,-2.3685e-15,0,0.66667
0.76001,0.14426,7.6001,-0.53361,-29.898,75.01,10.815,-3.6049,-0.98505,14.42,-1.0265e-11,-0.49253,0,0,0.1,4.7355e-17,0,0.66667
0.25267,0.75756,2.5267,0.38634,48.057,569.91,-2.6031,0.86771,-1.47,-3.4709,1.1167e-11,-0.735,0,0,0.1,-4.737e-16,0,0.66667
0.03478,0.67228,0.3478,0.25841,34.281,856.22,-0.23967,0.07989,-1.7617,-0.31956,3.0362e-07,-0.88087,0,0,0.1,-5.9212e-17,0,0.66667
0.59333,0.70625,5.9333,0.30937,26.578,196.63,-4.8949,1.6316,-1.6638,-6.5266,1.2985e-12,-0.83188,0,0,0.1,-7.0264e-16,0,0.66667
0.14,0.62224,1.4,0.18336,23.868,715.65,-0.68453,0.22818,-1.8852,-0.9127,-4.0406e-09,-0.94261,0,0,0.1,-3.2567e-16,0,0.66667
0.88064,0.77223,8.8064,0.40835,12.054,20.584,-9.5895,3.1965,-1.4048,-12.786,6.7922e-09,-0.70239,0,0,0.1,-0,-0,0.66667
0.64348,0.1922,6.4348,-0.4617,-35.902,154.99,7.9225,-2.6408,-1.2429,10.563,2.4847e-12,-0.62146,0,0,0.1,-1.8948e-15,0,0.66667
0.041189,0.84822,0.41189,0.52233,69.368,847.63,-0.57371,0.19124,-1.0282,-0.76495,-2.2261e-06,-0.51408,0,0,0.1,-1.1842e-16,0,0.66667
0.19441,0.39428,1.9441,-0.15858,-20.256,644.37,0.82213,-0.27404,-1.9075,1.0962,-2.2899e-11,-0.95375,0,0,0.1,2.3685e-16,0,0.66667
0.62451,0.53799,6.2451,0.056992,4.6022,169.79,-0.94913,0.31638,-1.9929,-1.2655,-1.5615e-12,-0.99644,0,0,0.1,-0,-0,0.66667
0.52665,0.45775,5.2665,-0.063379,-6.0699,258.32,0.8901,-0.2967,-1.984,1.1868,-4.911e-12,-0.99198,0,0,0.1,4.737e-16,0,0.66667
0.29026,0.019888,2.9026,-0.72017,-87.9,523.47,5.5742,-1.8581,-0.15298,7.4323,-1.632e-12,-0.076489,0,0,0.1,-0,-0,0.66667
0.39512,0.075653,3.9512,-0.63652,-71.516,398.76,6.7067,-2.2356,-0.55767,8.9422,-3.7867e-12,-0.27883,0,0,0.1,-0,-0,0.66667
0.24657,0.21184,2.4657,-0.43224,-53.959,577.67,2.842,-0.94734,-1.3355,3.7894,-1.8171e-11,-0.66776,0,0,0.1,-0,-0,0.66667
0.99839,0.95592,9.9839,0.68388,0.22625,2.1016,-18.208,6.0691,-0.33903,-24.277,-7.4783e-05,-0.16951,0,0,0.1,1.8948e-15,0,0.66667
0.88329,0.29313,8.8329,-0.3103,-8.9433,19.485,7.3089,-2.4363,-1.6545,9.7452,-1.4255e-08,-0.82725,0,0,0.1,-1.8948e-15,0,0.66667
0.74097,0.82559,7.4097,0.48839,29.202,86.192,-9.6501,3.2167,-1.1489,-12.867,-6.0778e-12,-0.57444,0,0,0.1,-0,-0,0.66667
0.24654,0.84546,2.4654,0.51818,64.734,577.8,-3.4067,1.1356,-1.0459,-4.5423,4.4128e-11,-0.52294,0,0,0.1,-0,-0,0.66667
0.088881,0.35991,0.88881,-0.21013,-27.683,783.62,0.49804,-0.16601,-1.8409,0.66406,3.8338e-08,-0.92044,0,0,0.1,-0,-0,0.66667
0.096131,0.070874,0.96131,-0.64369,-84.933,774.09,1.6501,-0.55003,-0.52783,2.2001,3.4715e-08,-0.26391,0,0,0.1,-2.3685e-16,0,0.66667
0.88147,0.090076,8.8147,-0.61489,-18.165,21.151,14.454,-4.8178,-0.65365,19.271,-2.2748e-08,-0.32683,0,0,0.1,-0,-0,0.66667
0.22391,0.4644,2.2391,-0.053407,-6.7329,606.33,0.31889,-0.1063,-1.9884,0.42519,-2.7818e-11,-0.9942,0,0,0.1,-3.5527e-16,0,0.66667
0.055036,0.94558,0.55036,0.66836,88.765,829.08,-0.9809,0.32697,-0.40883,-1.3079,6.0715e-06,-0.20441,0,0,0.1,-1.1842e-16,0,0.66667
0.60875,0.47549,6.0875,-0.036769,-3.0644,183.03,0.59688,-0.19896,-1.9993,0.79584,2.0928e-12,-0.99967,0,0,0.1,-1.8948e-15,0,0.66667
0.75404,0.80218,7.5404,0.45328,25.906,78.221,-9.1144,3.0381,-1.2683,-12.152,8.6153e-13,-0.63414,0,0,0.1,-9.4739e-16,0,0.66667
0.90554,0.18437,9.0554,-0.47345,-11.197,13.764,11.433,-3.8109,-1.2075,15.243,-3.6318e-08,-0.60377,0,0,0.1,-0,-1.1885e-18,0.66667
0.48403,0.70618,4.8403,0.30927,31.425,301.43,-3.9918,1.3306,-1.6641,-5.3224,-1.3514e-12,-0.83207,0,0,0.1,4.737e-16,0,0.66667
0.71854,0.10451,7.1854,-0.59323,-38.129,100.82,11.367,-3.789,-0.75333,15.156,3.209e-12,-0.37666,0,0,0.1,-0,-0,0.66667
0.046842,0.66656,0.46842,0.24983,33.108,839.99,-0.31207,0.10402,-1.7831,-0.4161,8.0074e-08,-0.89153,0,0,0.1,-0,-0,0.66667
0.30454,0.83813,3.0454,0.50719,61.193,505.59,-4.119,1.373,-1.0828,-5.492,2.1223e-12,-0.54138,0,0,0.1,-2.3685e-16,0,0.66667
0.087153,0.047862,0.87153,-0.67821,-89.669,786.09,1.5762,-0.5254,-0.36149,2.1016,-9.7191e-07,-0.18075,0,0,0.1,-1.0321e-16,0,0.66667
0.40034,0.78815,4.0034,0.43223,48.226,392.45,-4.6143,1.5381,-1.3335,-6.1524,-5.9313e-12,-0.66674,0,0,0.1,-0,-0,0.66667
0.19936,0.032605,1.9936,-0.70109,-89.712,638.38,3.7271,-1.2424,-0.25266,4.9695,-3.3658e-10,-0.12633,0,0,0.1,-0,-0,0.66667
0.49854,0.11921,4.9854,-0.57118,-57.089,287.07,7.5934,-2.5311,-0.84278,10.125,-1.2239e-12,-0.42139,0,0,0.1,-1.1842e-15,-1.501e-16,0.66667
0.24179,0.37391,2.4179,-0.18913,-23.64,583.56,1.2195,-0.40649,-1.871,1.626,-2.2734e-11,-0.93552,0,0,0.1,1.1842e-16,0,0.66667
0.19127,0.6201,1.9127,0.18014,23.041,648.45,-0.91884,0.30628,-1.8843,-1.2251,-4.1518e-11,-0.94216,0,0,0.1,-0,-0,0.66667
0.60179,0.17706,6.0179,-0.48441,-41.033,189.64,7.7736,-2.5912,-1.1626,10.365,-3.1877e-12,-0.58129,0,0,0.1,9.4739e-16,0,0.66667
0.48061,0.05945,4.8061,-0.66083,-67.672,305.71,8.4692,-2.8231,-0.44733,11.292,-5.4392e-12,-0.22366,0,0,0.1,-1.0658e-15,0,0.66667
0.38153,0.7681,3.8153,0.40215,45.647,413.9,-4.0915,1.3638,-1.422,-5.4553,-3.8733e-12,-0.71099,0,0,0.1,-0,-0,0.66667
0.41901,0.46244,4.1901,-0.056342,-6.1606,371.14,0.62954,-0.20985,-1.9893,0.83939,-4.4306e-12,-0.99465,0,0,0.1,-0,-0,0.66667
0.94696,0.10093,9.4696,-0.5986,-8.1157,5.9446,15.116,-5.0387,-0.72353,20.155,9.6122e-07,-0.36177,0,0,0.1,-0,-0,0.66667
0.61125,0.60044,6.1125,0.15066,12.498,180.96,-2.4558,0.8186,-1.9213,-3.2744,-6.0751e-13,-0.96063,0,0,0.1,-0,-0,0.66667
0.2018,0.14639,2.018,-0.53041,-67.687,635.04,2.8543,-0.95143,-1.0023,3.8057,4.621e-12,-0.50113,0,0,0.1,-0,-0,0.66667
0.26679,0.73983,2.6679,0.35975,44.391,552.15,-2.5594,0.85312,-1.5427,-3.4125,5.2363e-12,-0.77133,0,0,0.1,-0,-0,0.66667
0.29971,0.4323,2.9971,-0.10155,-12.265,511.18,0.81158,-0.27053,-1.9641,1.0821,-6.5917e-12,-0.98206,0,0,0.1,-0,-0,0.66667
0.71146,0.17728,7.1146,-0.48407,-31.708,105.16,9.184,-3.0613,-1.1638,12.245,1.1076e-12,-0.5819,0,0,0.1,-9.4739e-16,0,0.66667
0.50952,0.084347,5.0952,-0.62348,-61.437,276.15,8.4713,-2.8238,-0.61524,11.295,2.0801e-12,-0.30762,0,0,0.1,-4.737e-16,0,0.66667
0.21262,0.44045,2.1262,-0.089324,-11.32,620.83,0.50645,-0.16882,-1.9698,0.67527,-6.9457e-11,-0.98492,0,0,0.1,4.737e-16,0,0.66667
0.58056,0.6026,5.8056,0.15389,13.517,207.78,-2.3825,0.79418,-1.9167,-3.1767,-1.1753e-12,-0.95834,0,0,0.1,1.8948e-15,0,0.66667
0.87572,0.12346,8.7572,-0.5648,-17.413,22.743,13.19,-4.3965,-0.87058,17.586,-1.8438e-08,-0.43529,0,0,0.1,-1.4211e-15,0,0.66667
0.12633,0.85927,1.2633,0.5389,70.555,733.89,-1.8154,0.60515,-0.96973,-2.4206,-3.6694e-09,-0.48486,0,0,0.1,-2.3685e-16,0,0.66667
0.99245,0.1879,9.9245,-0.46814,-0.7718,1.1493,12.39,-4.1299,-1.2191,16.519,-2.3369e-06,-0.60956,0,0,0.1,-0,-0,0.66667
0.57331,0.26331,5.7331,-0.35504,-31.618,214.59,5.4279,-1.8093,-1.5498,7.2372,-1.3229e-12,-0.77489,0,0,0.1,-0,-0,0.66667
0.075515,0.74022,0.75515,0.36033,47.608,801.53,-0.7256,0.24187,-1.5389,-0.96747,-1.2676e-07,-0.76947,0,0,0.1,-1.1842e-16,0,0.66667
0.9247,0.52843,9.247,0.04264,0.79919,8.4447,-1.0514,0.35048,-1.9947,-1.4019,-7.1659e-08,-0.99736,0,0,0.1,-1.4211e-15,0,0.66667
0.6613,0.52629,6.613,0.039431,2.9353,140.49,-0.69535,0.23178,-1.993,-0.92713,1.6241e-12,-0.9965,0,0,0.1,-9.4739e-16,0,0.66667
0.25836,0.64804,2.5836,0.22205,27.513,562.63,-1.5299,0.50996,-1.8218,-2.0398,4.4852e-12,-0.91091,0,0,0.1,-2.3685e-16,0,0.66667
0.011312,0.80925,0.11312,0.46387,61.674,887.82,-0.13992,0.04664,-1.2344,-0.18657,-1.4794e-06,-0.61718,0,0,0.1,1.8152e-17,0,0.66667
0.82783,0.24416,8.2783,-0.38376,-15.937,40.236,8.4716,-2.8239,-1.4813,11.295,-2.2378e-10,-0.74065,0,0,0.1,-1.4211e-15,0,0.66667
0.19681,0.63224,1.9681,0.19836,25.316,641.28,-1.0411,0.34702,-1.8576,-1.3881,-4.9283e-11,-0.9288,0,0,0.1,-0,-0,0.66667
0.91039,0.78621,9.1039,0.42932,9.6309,12.402,-10.423,3.4742,-1.344,-13.897,2.1501e-08,-0.67198,0,0,0.1,-0,-0,0.66667
0.26207,0.64751,2.6207,0.22127,27.359,557.98,-1.5463,0.51544,-1.8254,-2.0618,4.206e-12,-0.91269,0,0,0.1,2.3685e-16,0,0.66667
0.30754,0.49221,3.0754,-0.011683,-1.4035,501.58,0.09581,-0.031937,-1.9977,0.12775,-1.1082e-11,-0.99887,0,0,0.1,-0,-0,0.66667
0.429,0.64334,4.29,0.21501,23.277,360.15,-2.4597,0.81991,-1.8325,-3.2797,-3.3717e-12,-0.91623,0,0,0.1,-0,-0,0.66667
0.84952,0.52675,8.4952,0.04013,1.4658,30.816,-0.9091,0.30303,-1.9924,-1.2121,1.6439e-09,-0.99621,0,0,0.1,-0,-0,0.66667
0.37631,0.37417,3.7631,-0.18875,-21.499,419.72,1.8941,-0.63136,-1.8772,2.5254,-1.2721e-12,-0.93861,0,0,0.1,-8.8818e-17,0,0.66667
0.66908,0.8686,6.6908,0.5529,40.57,135.5,-9.865,3.2883,-0.91375,-13.153,2.5491e-13,-0.45687,0,0,0.1,3.9618e-16,0,0.66667
0.73119,0.59031,7.3119,0.13547,8.3291,91.583,-2.6414,0.88046,-1.9354,-3.5218,-6.5357e-12,-0.96768,0,0,0.1,4.737e-16,0,0.66667
0.89467,0.62265,8.9467,0.18397,4.7945,15.9,-4.3892,1.4631,-1.8795,-5.8523,2.3829e-08,-0.93975,0,0,0.1,1.8948e-15,0,0.66667
0.93853,0.92277,9.3853,0.63416,9.9708,7.4837,-15.871,5.2904,-0.57297,-21.162,-1.8129e-06,-0.28648,0,0,0.1,-1.8948e-15,0,0.66667
0.87235,0.034354,8.7235,-0.69847,-22.204,24.501,16.248,-5.4161,-0.26676,21.664,4.4175e-08,-0.13338,0,0,0.1,-0,-0,0.66667
0.45255,0.87015,4.5255,0.55523,58.722,335.06,-6.7005,2.2335,-0.90842,-8.9339,-5.2669e-13,-0.45421,0,0,0.1,2.3685e-16,0,0.66667
0.55083,0.5097,5.5083,0.014555,1.3434,235.09,-0.2138,0.071268,-1.9982,-0.28507,1.4428e-12,-0.99909,0,0,0.1,-0,-0,0.66667
0.57742,0.59246,5.7742,0.13869,12.248,210.59,-2.1355,0.71183,-1.9365,-2.8473,-1.3636e-12,-0.96825,0,0,0.1,8.5476e-17,0,0.66667
0.48558,0.16027,4.8558,-0.5096,-51.766,300.18,6.5987,-2.1996,-1.0801,8.7983,-8.0753e-12,-0.54007,0,0,0.1,-0,-0,0.66667
0.91406,0.59597,9.1406,0.14395,3.0765,10.868,-3.5089,1.1696,-1.9243,-4.6785,4.2314e-08,-0.96215,0,0,0.1,-0,-0,0.66667
0.78635,0.18571,7.8635,-0.47144,-23.824,60.333,9.8857,-3.2952,-1.2088,13.181,-1.0249e-10,-0.6044,0,0,0.1,1.0658e-15,0,0.66667
0.093327,0.43908,0.93327,-0.091375,-12.025,777.66,0.22741,-0.075803,-1.9757,0.30321,4.5698e-10,-0.98785,0,0,0.1,-0,-0,0.66667
0.99093,0.33241,9.9093,-0.25138,-0.4749,0.51602,6.6427,-2.2142,-1.7724,8.857,-4.0394e-07,-0.88619,0,0,0.1,-0,-0,0.66667
0.19126,0.7397,1.9126,0.35955,46.025,648.55,-1.8338,0.61128,-1.5394,-2.4451,-1.3868e-11,-0.76972,0,0,0.1,-0,-0,0.66667
0.26939,0.24188,2.6939,-0.38717,-47.711,548.92,2.7814,-0.92712,-1.4663,3.7085,-9.42e-12,-0.73315,0,0,0.1,-0,-0,0.66667
0.15118,0.96321,1.5118,0.69481,90.467,701.19,-2.8012,0.93374,-0.28193,-3.7349,1.2763e-08,-0.14097,0,0,0.1,-1.1842e-16,0,0.66667
0.26352,0.17172,2.6352,-0.49243,-60.934,556.38,3.4604,-1.1535,-1.1389,4.6138,-4.9862e-12,-0.56945,0,0,0.1,-4.737e-16,0,0.66667
0.37276,0.77219,3.7276,0.40828,46.706,424.05,-4.0585,1.3528,-1.4085,-5.4113,-6.7271e-12,-0.70423,0,0,0.1,4.737e-16,0,0.66667
0.97389,0.51343,9.7389,0.02015,0.12673,1.2729,-0.5233,0.17443,-1.9963,-0.69774,-2.2982e-06,-0.99813,0,0,0.1,-0,-0,0.66667
0.16693,0.92485,1.6693,0.63728,82.499,680.49,-2.8368,0.9456,-0.55389,-3.7824,1.123e-08,-0.27694,0,0,0.1,-2.3685e-16,0,0.66667
0.61018,0.0055709,6.1018,-0.74164,-62.059,183.3,12.068,-4.0226,-0.048286,16.09,2.6832e-12,-0.024143,0,0,0.1,-0,-0,0.66667
0.44789,0.90494,4.4789,0.6074,64.619,340.2,-7.2546,2.4182,-0.68725,-9.6728,4.0012e-13,-0.34362,0,0,0.1,-0,-0,0.66667
0.58703,0.91303,5.8703,0.61954,54.025,202.94,-9.6983,3.2328,-0.6327,-12.931,-1.3323e-14,-0.31635,0,0,0.1,-0,-0,0.66667
0.053649,0.45305,0.53649,-0.070432,-9.3232,830.83,0.10076,-0.033588,-1.9792,0.13435,5.5156e-08,-0.98961,0,0,0.1,-1.1842e-16,0,0.66667
0.30933,0.17926,3.0933,-0.48111,-57.845,499.71,3.9686,-1.3229,-1.177,5.2915,-2.9639e-12,-0.58849,0,0,0.1,2.3685e-16,0,0.66667
0.090911,0.37388,0.90911,-0.18918,-24.912,780.9,0.45862,-0.15287,-1.8742,0.6115,3.1071e-08,-0.93712,0,0,0.1,-1.3323e-16,0,0.66667
0.46345,0.02857,4.6345,-0.70715,-73.989,323.83,8.7393,-2.9131,-0.22076,11.652,-2.51e-12,-0.11038,0,0,0.1,2.3685e-16,0,0.66667
0.89199,0.63494,8.9199,0.20241,5.4058,16.688,-4.8146,1.6049,-1.8568,-6.4195,2.1606e-08,-0.92841,0,0,0.1,1.8948e-15,0,0.66667
0.82138,0.32526,8.2138,-0.2621,-11.235,42.786,5.741,-1.9137,-1.7527,7.6547,-2.0722e-10,-0.87633,0,0,0.1,-0,-0,0.66667
0.87215,0.678,8.7215,0.267,8.3847,22.951,-6.2097,2.0699,-1.7468,-8.2796,8.4415e-09,-0.8734,0,0,0.1,9.4739e-16,0,0.66667
0.3996,0.87241,3.996,0.55862,62.444,393.51,-5.9526,1.9842,-0.88857,-7.9368,-1.0556e-12,-0.44428,0,0,0.1,-5.9212e-16,0,0.66667
0.50934,0.78161,5.0934,0.42241,41.542,275.85,-5.7373,1.9124,-1.3642,-7.6498,-4.3023e-12,-0.68212,0,0,0.1,-0,-0,0.66667
0.25721,0.7528,2.5721,0.3792,47.051,564.2,-2.6009,0.86696,-1.4866,-3.4678,7.1834e-12,-0.74332,0,0,0.1,9.4739e-16,0,0.66667
0.60699,0.23631,6.0699,-0.39554,-33.141,184.95,6.4023,-2.1341,-1.4444,8.5364,-3.2863e-14,-0.7222,0,0,0.1,-9.4739e-16,0,0.66667
0.44631,0.86443,4.4631,0.54665,58.219,341.76,-6.506,2.1687,-0.93453,-8.6747,-4.1744e-14,-0.46727,0,0,0.1,-0,-0,0.66667
0.49641,0.1338,4.9641,-0.5493,-55.044,289.18,7.2714,-2.4238,-0.92658,9.6952,-3.5767e-12,-0.46329,0,0,0.1,-9.4739e-16,0,0.66667
0.54096,0.077607,5.4096,-0.63359,-59.651,245.43,9.14,-3.0467,-0.56988,12.187,-4.2455e-13,-0.28494,0,0,0.1,-0,-0,0.66667
0.58046,0.78111,5.8046,0.42167,37.111,208.27,-6.527,2.1757,-1.3702,-8.7027,1.2612e-12,-0.6851,0,0,0.1,-3.0346e-16,0,0.66667
0.46466,0.17761,4.6466,-0.48359,-50.392,322,5.9921,-1.9974,-1.1673,7.9895,-4.5453e-12,-0.58366,0,0,0.1,-4.737e-16,0,0.66667
0.79849,0.22844,7.9849,-0.40735,-19.516,53.95,8.6736,-2.8912,-1.4121,11.565,2.6687e-11,-0.70606,0,0,0.1,-0,-0,0.66667
0.40923,0.14912,4.0923,-0.52633,-58.268,382.58,5.7438,-1.9146,-1.0154,7.6583,-1.4371e-12,-0.50769,0,0,0.1,7.1054e-16,0,0.66667
0.043632,0.37543,0.43632,-0.18685,-24.763,844.3,0.2174,-0.072467,-1.877,0.28987,-9.315e-08,-0.93849,0,0,0.1,-0,-0,0.66667
0.83341,0.74806,8.3341,0.3721,14.989,37.82,-8.2696,2.7565,-1.5066,-11.026,4.0153e-10,-0.7533,0,0,0.1,1.1842e-15,0,0.66667
0.48479,0.98389,4.8479,0.72583,74.006,301.57,-9.3834,3.1278,-0.13083,-12.511,3.6886e-12,-0.065416,0,0,0.1,-9.4739e-16,0,0.66667
0.47847,0.9387,4.7847,0.65805,67.564,307.92,-8.3962,2.7987,-0.45902,-11.195,-1.89e-12,-0.22951,0,0,0.1,-0,-0,0.66667
0.17683,0.54051,1.7683,0.060764,7.8133,667.23,-0.28654,0.095513,-1.985,-0.38205,-1.7355e-10,-0.99248,0,0,0.1,-0,-0,0.66667
0.443,0.81566,4.43,0.47349,50.576,345.19,-5.5935,1.8645,-1.2014,-7.458,-5.1958e-13,-0.6007,0,0,0.1,-9.4739e-16,0,0.66667
0.14347,0.67351,1.4347,0.26027,33.855,711.08,-0.99577,0.33192,-1.7592,-1.3277,-3.2961e-09,-0.87958,0,0,0.1,-0,-0,0.66667
0.041238,0.90283,0.41238,0.60425,80.306,847.59,-0.66448,0.22149,-0.7002,-0.88597,-7.757e-06,-0.3501,0,0,0.1,-7.4015e-17,0,0.66667
0.96316,0.75195,9.6316,0.37792,3.4796,2.9204,-9.7067,3.2356,-1.4909,-12.942,-9.5163e-08,-0.74543,0,0,0.1,-0,-0,0.66667
0.26195,0.74864,2.6195,0.37295,46.151,558.23,-2.6052,0.8684,-1.5059,-3.4736,9.4773e-12,-0.75293,0,0,0.1,8.8818e-17,0,0.66667
0.1361,0.86276,1.361,0.54413,71.057,720.96,-1.9748,0.65828,-0.9455,-2.6331,-1.8886e-09,-0.47275,0,0,0.1,-0,-0,0.66667
0.68806,0.48984,6.8806,-0.015242,-1.0613,120.67,0.27966,-0.093221,-2.0031,0.37288,-3.4906e-12,-1.0016,0,0,0.1,1.8948e-15,0,0.66667
0.37393,0.092253,3.7393,-0.61162,-70.027,423.04,6.0988,-2.0329,-0.67412,8.1317,-6.5099e-12,-0.33706,0,0,0.1,-5.9212e-17,0,0.66667
0.62308,0.2787,6.2308,-0.33195,-26.922,171.27,5.5156,-1.8385,-1.6107,7.3541,-3.1086e-14,-0.80537,0,0,0.1,-0,-0,0.66667
0.70645,0.33904,7.0645,-0.24144,-15.999,108,4.5483,-1.5161,-1.793,6.0644,-8.8818e-16,-0.89649,0,0,0.1,4.737e-16,0,0.66667
0.66211,0.47136,6.6211,-0.042962,-3.1921,139.87,0.75855,-0.25285,-1.9918,1.0114,-5.2464e-13,-0.99592,0,0,0.1,-0,-0,0.66667
0.22691,0.73541,2.2691,0.35312,44.498,602.61,-2.1367,0.71224,-1.5534,-2.849,3.1771e-11,-0.7767,0,0,0.1,-0,-0,0.66667
0.78337,0.81728,7.8337,0.47591,24.349,61.909,-9.9418,3.3139,-1.1965,-13.256,6.327e-11,-0.59827,0,0,0.1,-0,-0,0.66667
0.07097,0.90321,0.7097,0.60482,80.113,807.7,-1.1446,0.38155,-0.69723,-1.5262,-4.9325e-07,-0.34862,0,0,0.1,-1.4803e-16,0,0.66667
0.78814,0.58143,7.8814,0.12214,6.1002,58.672,-2.5671,0.85571,-1.9439,-3.4228,-1.9227e-11,-0.97193,0,0,0.1,-0,-0,0.66667
0.16235,0.17138,1.6235,-0.49294,-63.829,686.37,2.134,-0.71134,-1.1332,2.8454,9.9686e-10,-0.56658,0,0,0.1,-2.3685e-16,0,0.66667
0.40501,0.55042,4.0501,0.075625,8.3857,386.84,-0.81677,0.27226,-1.9822,-1.089,-3.4884e-12,-0.99111,0,0,0.1,-4.737e-16,0,0.66667
0.0061978,0.37221,0.061978,-0.19169,-25.453,894.7,0.031681,-0.01056,-1.8676,0.042241,3.8723e-07,-0.93379,0,0,0.1,1.1087e-17,0,0.66667
0.16285,0.26133,1.6285,-0.358,-46.307,685.62,1.5547,-0.51824,-1.5413,2.073,7.2589e-10,-0.77067,0,0,0.1,-0,-0,0.66667
0.67786,0.57348,6.7786,0.11022,7.8804,128.11,-1.9924,0.66412,-1.9541,-2.6565,5.1292e-14,-0.97706,0,0,0.1,-0,-0,0.66667
0.75014,0.64889,7.5014,0.22334,12.903,80.011,-4.4676,1.4892,-1.8277,-5.9568,-1.497e-11,-0.91384,0,0,0.1,-4.737e-16,0,0.66667
0.91019,0.70456,9.1019,0.30684,6.8695,12.085,-7.4476,2.4825,-1.664,-9.9302,4.3533e-08,-0.83198,0,0,0.1,-0,-0,0.66667
0.42023,0.48293,4.2023,-0.025606,-2.7963,369.78,0.28694,-0.095647,-1.9995,0.38259,-1.6123e-12,-0.99973,0,0,0.1,-9.4739e-16,0,0.66667
0.61033,0.52186,6.1033,0.032795,2.7248,181.68,-0.53376,0.17792,-1.9994,-0.71168,1.0301e-12,-0.99972,0,0,0.1,-9.4739e-16,0,0.66667
0.49204,0.39577,4.9204,-0.15634,-15.712,293.03,2.0514,-0.68381,-1.91,2.7352,-1.6356e-12,-0.955,0,0,0.1,-0,-0,0.66667
0.025408,0.65798,0.25408,0.23697,31.452,868.83,-0.16056,0.053522,-1.7989,-0.21409,5.2981e-07,-0.89946,0,0,0.1,-0,-0,0.66667
0.44827,0.95793,4.4827,0.6869,73.118,339.98,-8.2112,2.7371,-0.32043,-10.948,1.9433e-12,-0.16021,0,0,0.1,-4.737e-16,-5.0632e-17,0.66667
0.68945,0.66929,6.8945,0.25393,17.633,119.87,-4.6687,1.5562,-1.7721,-6.2249,-1.4722e-12,-0.88604,0,0,0.1,-0,-0,0.66667
0.67687,0.89353,6.7687,0.59029,42.515,129.85,-10.655,3.5516,-0.75893,-14.206,-1.0134e-12,-0.37946,0,0,0.1,9.4739e-16,0,0.66667
0.29344,0.72719,2.9344,0.34079,41.368,519.03,-2.6667,0.88889,-1.5867,-3.5555,8.3045e-14,-0.79335,0,0,0.1,-0,-0,0.66667
0.87748,0.2359,8.7748,-0.39615,-11.984,21.547,9.2697,-3.0899,-1.4425,12.36,-7.2137e-09,-0.72127,0,0,0.1,9.4739e-16,0,0.66667
0.77122,0.94106,7.7122,0.66159,35.659,69.204,-13.606,4.5354,-0.44213,-18.142,-3.3358e-10,-0.22107,0,0,0.1,-0,-0,0.66667
0.85372,0.43231,8.5372,-0.10153,-3.6127,29.25,2.3115,-0.77049,-1.9614,3.0819,-8.4112e-10,-0.98072,0,0,0.1,-9.4739e-16,0,0.66667
0.93715,0.13402,9.3715,-0.54897,-8.7627,7.3018,13.719,-4.5731,-0.93291,18.292,-1.0871e-07,-0.46645,0,0,0.1,-0,-1.0711e-16,0.66667
0.235,0.6695,2.35,0.25426,31.897,592.22,-1.5934,0.53112,-1.7738,-2.1245,2.3521e-11,-0.88689,0,0,0.1,-0,-0,0.66667
0.71728,0.81253,7.1728,0.4688,30.18,101.23,-8.967,2.989,-1.2224,-11.956,-2.6619e-12,-0.61119,0,0,0.1,-0,-0,0.66667
0.043952,0.86911,0.43952,0.55367,73.533,843.93,-0.64894,0.21631,-0.91061,-0.86525,-2.8416e-06,-0.45531,0,0,0.1,-2.9606e-17,0,0.66667
0.30362,0.79505,3.0362,0.44257,53.401,506.63,-3.5833,1.1944,-1.3005,-4.7778,-1.6649e-12,-0.65024,0,0,0.1,-0,-0,0.66667
0.48305,0.92466,4.8305,0.63698,65.01,303.11,-8.2052,2.7351,-0.55972,-10.94,2.5695e-12,-0.27986,0,0,0.1,-5.7204e-16,0,0.66667
0.36442,0.80167,3.6442,0.4525,52.153,433.84,-4.3974,1.4658,-1.2699,-5.8632,-7.4594e-12,-0.63493,0,0,0.1,4.737e-16,0,0.66667
0.19847,0.22597,1.9847,-0.41105,-52.479,639.24,2.1755,-0.72517,-1.3978,2.9007,-6.6396e-12,-0.6989,0,0,0.1,-0,-0,0.66667
0.69868,0.42282,6.9868,-0.11577,-7.835,113.21,2.157,-0.71901,-1.9506,2.876,-4.0123e-13,-0.97529,0,0,0.1,-0,-0,0.66667
0.9253,0.78752,9.253,0.43128,8.1016,9.0775,-10.642,3.5473,-1.3385,-14.189,1.5615e-07,-0.66927,0,0,0.1,-0,-0,0.66667
0.099858,0.00096794,0.99858,-0.74855,-98.809,769.19,1.9933,-0.66443,-0.006345,2.6577,-8.6836e-08,-0.0031725,0,0,0.1,-0,-0,0.66667
0.23014,0.6117,2.3014,0.16755,21.064,598.39,-1.0282,0.34275,-1.8986,-1.371,2.2743e-11,-0.94932,0,0,0.1,-0,-0,0.66667
0.28485,0.40123,2.8485,-0.14815,-18.067,529.52,1.1253,-0.37511,-1.9218,1.5004,-5.5254e-12,-0.96092,0,0,0.1,5.9212e-16,0,0.66667
0.66797,0.87084,6.6797,0.55626,40.929,136.34,-9.9085,3.3028,-0.89949,-13.211,-1.6698e-13,-0.44974,0,0,0.1,4.737e-16,0,0.66667
0.38662,0.087595,3.8662,-0.61861,-70.037,408.43,6.3777,-2.1259,-0.63866,8.5036,-6.0609e-12,-0.31933,0,0,0.1,4.737e-16,-4.5934e-18,0.66667
0.7656,0.041936,7.656,-0.6871,-37.85,72.462,14.028,-4.6759,-0.32639,18.704,1.0544e-10,-0.1632,0,0,0.1,-0,-0,0.66667
0.095646,0.59141,0.95646,0.13712,18.038,774.57,-0.34972,0.11657,-1.9358,-0.4663,-2.6906e-08,-0.96789,0,0,0.1,5.9212e-17,0,0.66667
0.46018,0.46724,4.6018,-0.049146,-5.1366,326.28,0.6031,-0.20103,-1.9896,0.80413,-3.279e-13,-0.9948,0,0,0.1,1.0658e-15,0,0.66667
0.29262,0.89562,2.9262,0.59343,72.22,520.35,-4.6306,1.5435,-0.74644,-6.1741,-5.1159e-13,-0.37322,0,0,0.1,-0,-0,0.66667
0.51342,0.20598,5.1342,-0.44103,-43.136,271.82,6.0382,-2.0127,-1.3094,8.051,2.5802e-13,-0.65468,0,0,0.1,-1.5554e-15,0,0.66667
0.13575,0.89206,1.3575,0.58809,76.835,721.46,-2.1288,0.7096,-0.7682,-2.8384,-6.4722e-09,-0.3841,0,0,0.1,-0,-0,0.66667
0.446,0.69126,4.46,0.28688,30.5,341.67,-3.412,1.1373,-1.7051,-4.5493,-5.5655e-12,-0.85257,0,0,0.1,-0,-0,0.66667
0.51639,0.36523,5.1639,-0.20216,-19.658,268.52,2.7838,-0.92795,-1.8583,3.7118,-1.0949e-12,-0.92914,0,0,0.1,-0,-0,0.66667
0.34421,0.82876,3.4421,0.49314,57.798,457.73,-4.5264,1.5088,-1.1393,-6.0353,-2.2076e-12,-0.56964,0,0,0.1,-4.737e-16,0,0.66667
0.55465,0.76869,5.5465,0.40304,37.04,231.9,-5.9613,1.9871,-1.4192,-7.9484,-1.2608e-12,-0.70961,0,0,0.1,-0,-0,0.66667
0.71429,0.66933,7.1429,0.25399,16.456,102.73,-4.8379,1.6126,-1.7689,-6.4506,-3.654e-12,-0.88445,0,0,0.1,-0,-0,0.66667
0.66388,0.75389,6.6388,0.38083,28.233,138.95,-6.7421,2.2474,-1.482,-8.9894,1.7866e-12,-0.741,0,0,0.1,-0,-0,0.66667
0.35567,0.59937,3.5567,0.14906,17.277,443.82,-1.4138,0.47126,-1.9207,-1.885,-6.0755e-12,-0.96033,0,0,0.1,-0,-0,0.66667
0.076579,0.96099,0.76579,0.69149,91.597,800.23,-1.4121,0.4707,-0.30227,-1.8828,-3.922e-06,-0.15113,0,0,0.1,-1.1842e-16,0,0.66667
0.83367,0.51761,8.3367,0.026408,1.0585,37.2,-0.58708,0.19569,-1.9949,-0.78277,2.884e-10,-0.99747,0,0,0.1,-0,-0,0.66667
0.92624,0.11474,9.2624,-0.57789,-10.81,9.4944,14.274,-4.7579,-0.8111,19.032,-1.7961e-07,-0.40555,0,0,0.1,-0,-0,0.66667
0.23416,0.23332,2.3416,-0.40003,-50.245,593.39,2.4979,-0.83264,-1.4355,3.3305,-2.7501e-11,-0.71773,0,0,0.1,-0,-0,0.66667
0.0015237,0.90798,0.015237,0.61196,81.476,901,-0.024858,0.0083034,-0.67183,-0.033135,2.6034e-05,-0.33592,0,0,0.1,-0,-0,0.66667
0.47964,0.20775,4.7964,-0.43837,-44.834,306.19,5.6069,-1.869,-1.3149,7.4758,-3.161e-12,-0.65743,0,0,0.1,-0,-0,0.66667
0.61534,0.84279,6.1534,0.51418,42.44,178.16,-8.4373,2.8124,-1.0586,-11.25,1.3012e-12,-0.52932,0,0,0.1,-4.1448e-16,0,0.66667
0.65285,0.19172,6.5285,-0.46241,-35.21,147.63,8.0503,-2.6834,-1.2399,10.734,-3.1619e-13,-0.61997,0,0,0.1,-0,-0,0.66667
0.60356,0.52104,6.0356,0.031566,2.6572,187.48,-0.50805,0.16935,-1.9939,-0.67741,-2.5593e-12,-0.99696,0,0,0.1,9.4739e-16,0,0.66667
0.67867,0.19472,6.7867,-0.45792,-32.767,128.11,8.2873,-2.7624,-1.2518,11.05,-1.4229e-12,-0.6259,0,0,0.1,1.8948e-15,0,0.66667
0.73325,0.6589,7.3325,0.23835,14.569,90.405,-4.6605,1.5535,-1.8019,-6.214,-9.5741e-12,-0.90093,0,0,0.1,-0,-0,0.66667
0.84341,0.81726,8.4341,0.47589,18.15,34.054,-10.703,3.5677,-1.1998,-14.271,9.5381e-10,-0.59988,0,0,0.1,-0,-0,0.66667
0.57512,0.82441,5.7512,0.48662,43.257,213.23,-7.4631,2.4877,-1.1579,-9.9508,6.4659e-13,-0.57897,0,0,0.1,-0,-0,0.66667
0.033325,0.7909,0.33325,0.43635,57.946,858.19,-0.38777,0.12926,-1.3244,-0.51703,5.3856e-07,-0.6622,0,0,0.1,-0,-0,0.66667
0.93264,0.028532,9.3264,-0.7072,-12.23,8.942,17.588,-5.8628,-0.22079,23.451,-1.6865e-06,-0.1104,0,0,0.1,-9.4739e-16,1.3634e-16,0.66667
0.41723,0.58885,4.1723,0.13327,14.601,373.15,-1.4828,0.49425,-1.9357,-1.977,-1.1435e-13,-0.96785,0,0,0.1,4.737e-16,0,0.66667
0.46721,0.33871,4.6721,-0.24194,-25.091,318.94,3.0143,-1.0048,-1.7946,4.0191,-3.1539e-12,-0.89731,0,0,0.1,4.737e-16,0,0.66667
0.61906,0.97474,6.1906,0.7121,58.519,175.71,-11.756,3.9186,-0.19484,-15.674,2.0695e-13,-0.097421,0,0,0.1,-0,-0,0.66667
0.27646,0.49105,2.7646,-0.013427,-1.6456,539.92,0.098988,-0.032996,-1.9976,0.13198,-5.3723e-13,-0.9988,0,0,0.1,-0,-0,0.66667
0.90942,0.73548,9.0942,0.35323,7.9851,12.396,-8.5662,2.8554,-1.556,-11.422,3.9355e-08,-0.77799,0,0,0.1,-1.8948e-15,0,0.66667
0.6579,0.68892,6.579,0.28338,21.288,143.33,-4.9717,1.6572,-1.7177,-6.6289,-1.6387e-13,-0.85883,0,0,0.1,1.8948e-15,0,0.66667
0.13349,0.75606,1.3349,0.38408,50.133,724.32,-1.3672,0.45574,-1.4729,-1.823,-5.9999e-09,-0.73645,0,0,0.1,-0,-0,0.66667
0.37351,0.26203,3.7351,-0.35696,-40.793,423.12,3.5554,-1.1851,-1.5491,4.7406,-2.7167e-12,-0.77455,0,0,0.1,-0,-0,0.66667
0.21324,0.5171,2.1324,0.025649,3.2494,620.02,-0.14585,0.048618,-1.9951,-0.19447,8.2046e-12,-0.99755,0,0,0.1,-3.1365e-17,0,0.66667
0.44333,0.22543,4.4333,-0.41186,-43.954,344.73,4.869,-1.623,-1.3947,6.492,-3.1584e-12,-0.69734,0,0,0.1,-0,-0,0.66667
0.20627,0.73535,2.0627,0.35302,44.907,629.12,-1.9418,0.64728,-1.5565,-2.5891,3.2682e-11,-0.77826,0,0,0.1,2.3685e-16,0,0.66667
0.097915,0.20319,0.97915,-0.44521,-58.624,771.62,1.1625,-0.38749,-1.2937,1.55,4.1291e-08,-0.64686,0,0,0.1,-1.1842e-16,0,0.66667
0.32046,0.4094,3.2046,-0.13589,-16.182,485.89,1.1613,-0.3871,-1.9321,1.5484,-7.1053e-12,-0.96607,0,0,0.1,-9.4739e-16,0,0.66667
0.13448,0.34687,1.3448,-0.22969,-29.95,722.95,0.82373,-0.27458,-1.8106,1.0983,5.2478e-09,-0.9053,0,0,0.1,-4.737e-16,0,0.66667
0.035025,0.019489,0.35025,-0.72077,-95.952,855.96,0.6732,-0.2244,-0.15189,0.89761,5.966e-06,-0.075945,0,0,0.1,-0,-0,0.66667
0.49839,0.64258,4.9839,0.21388,21.319,286.59,-2.8425,0.9475,-1.8392,-3.79,-2.111e-12,-0.91962,0,0,0.1,-0,-0,0.66667
0.60463,0.69489,6.0463,0.29233,24.583,186.78,-4.7134,1.5711,-1.6946,-6.2845,-8.5798e-13,-0.8473,0,0,0.1,-0,-0,0.66667
0.19647,0.84492,1.9647,0.51738,66.163,641.92,-2.7107,0.90356,-1.0466,-3.6142,-2.8722e-10,-0.5233,0,0,0.1,4.737e-16,0,0.66667
0.35053,0.25142,3.5053,-0.37287,-43.444,450.08,3.4854,-1.1618,-1.5039,4.6472,-3.5467e-12,-0.75196,0,0,0.1,-0,-0,0.66667
0.45356,0.39422,4.5356,-0.15867,-16.715,333.4,1.9191,-0.63969,-1.9145,2.5588,-2.6593e-12,-0.95727,0,0,0.1,4.737e-16,0,0.66667
0.25284,0.94633,2.5284,0.66949,83.48,570.04,-4.514,1.5047,-0.40667,-6.0186,-9.5395e-12,-0.20333,0,0,0.1,4.737e-16,0,0.66667
0.33803,0.19921,3.3803,-0.45119,-53.117,465.03,4.0671,-1.3557,-1.2736,5.4228,-2.621e-12,-0.6368,0,0,0.1,-0,-0,0.66667
0.26085,0.77415,2.6085,0.41122,50.931,559.65,-2.8604,0.95347,-1.3972,-3.8139,-4.722e-12,-0.6986,0,0,0.1,2.3685e-16,0,0.66667
0.66262,0.034337,6.6262,-0.69849,-52.188,140.92,12.342,-4.1141,-0.26336,16.456,1.5641e-12,-0.13168,0,0,0.1,-1.8948e-15,0,0.66667
0.38944,0.52973,3.8944,0.04459,5.0178,404.54,-0.46307,0.15436,-1.9969,-0.61742,-6.0364e-12,-0.99844,0,0,0.1,-0,-0,0.66667
0.46579,0.52334,4.6579,0.035004,3.6342,320.32,-0.43478,0.14493,-1.9959,-0.57971,-2.7583e-12,-0.99796,0,0,0.1,-0,-0,0.66667
0.25898,0.74408,2.5898,0.36611,45.378,561.96,-2.5284,0.84279,-1.521,-3.3712,7.7909e-12,-0.76049,0,0,0.1,3.9019e-16,0,0.66667
0.57889,0.11708,5.7889,-0.57438,-50.781,210.07,8.8668,-2.9556,-0.83072,11.822,2.4283e-12,-0.41536,0,0,0.1,-4.737e-16,0,0.66667
0.41565,0.79434,4.1565,0.44151,48.529,375.24,-4.8938,1.6313,-1.304,-6.525,-4.0901e-13,-0.652,0,0,0.1,-0,-0,0.66667
0.45718,0.89451,4.5718,0.59177,62.28,330.18,-7.2146,2.4049,-0.75359,-9.6194,-2.4025e-13,-0.37679,0,0,0.1,4.737e-16,0,0.66667
0.20956,0.98251,2.0956,0.72377,92.235,625.25,-4.0447,1.3482,-0.13444,-5.3929,1.3575e-11,-0.06722,0,0,0.1,2.2652e-17,0,0.66667
0.51169,0.50405,5.1169,0.006078,0.59467,273.1,-0.082935,0.027645,-1.9995,-0.11058,-1.5133e-12,-0.99976,0,0,0.1,-0,-0,0.66667
0.42103,0.47639,4.2103,-0.035419,-3.8648,368.89,0.39767,-0.13256,-1.9992,0.53023,-7.7546e-13,-0.99959,0,0,0.1,-9.4739e-16,0,0.66667
0.53816,0.18836,5.3816,-0.46746,-44.11,247.68,6.7086,-2.2362,-1.2214,8.9448,-3.0109e-12,-0.61069,0,0,0.1,-0,-0,0.66667
0.51553,0.88346,5.1553,0.5752,56.172,270.03,-7.9074,2.6358,-0.82866,-10.543,-2.5935e-12,-0.41433,0,0,0.1,-0,-0,0.66667
0.71232,0.1739,7.1232,-0.48915,-31.964,104.6,9.2915,-3.0972,-1.1463,12.389,1.1289e-12,-0.57313,0,0,0.1,-1.7909e-15,0,0.66667
0.34543,0.73174,3.4543,0.34762,40.659,456.09,-3.2021,1.0674,-1.5721,-4.2694,-4.0656e-12,-0.78607,0,0,0.1,-0,-0,0.66667
0.22924,0.70296,2.2924,0.30444,38.311,599.6,-1.8611,0.62037,-1.6681,-2.4815,2.2553e-11,-0.83406,0,0,0.1,4.737e-16,0,0.66667
0.91895,0.74021,9.1895,0.36031,7.3106,10.201,-8.8296,2.9432,-1.5385,-11.773,7.5832e-08,-0.76927,0,0,0.1,-9.4739e-16,0,0.66667
0.39408,0.018967,3.9408,-0.72155,-81.234,400.14,7.5827,-2.5276,-0.14818,10.11,-4.0079e-12,-0.07409,0,0,0.1,-0,-0,0.66667
0.81515,0.54034,8.1515,0.060503,2.6717,45.386,-1.3152,0.43839,-1.9876,-1.7536,1.9194e-10,-0.99378,0,0,0.1,-0,-0,0.66667
0.88049,0.10059,8.8049,-0.59911,-17.826,21.382,14.067,-4.689,-0.72176,18.756,-3.7122e-10,-0.36088,0,0,0.1,-0,-0,0.66667
0.65189,0.73021,6.5189,0.34532,26.317,148.1,-6.0029,2.001,-1.5745,-8.0039,-1.3856e-13,-0.78723,0,0,0.1,-0,-0,0.66667
0.76748,0.18938,7.6748,-0.46592,-25.365,70.537,9.5356,-3.1785,-1.2309,12.714,8.0354e-11,-0.61546,0,0,0.1,-0,-0,0.66667
0.89753,0.70632,8.9753,0.30949,7.8735,15.355,-7.4073,2.4691,-1.6563,-9.8764,3.4572e-08,-0.82817,0,0,0.1,-9.4739e-16,0,0.66667
0.49849,0.80594,4.9849,0.45891,45.816,286.86,-6.1003,2.0334,-1.2538,-8.1337,-2.0486e-12,-0.6269,0,0,0.1,-4.737e-16,0,0.66667
0.42176,0.59375,4.2176,0.14062,15.335,368.12,-1.5816,0.52719,-1.936,-2.1088,-1.3123e-12,-0.96801,0,0,0.1,-2.021e-16,0,0.66667
0.72854,0.76544,7.2854,0.39816,24.743,93.721,-7.7354,2.5785,-1.4336,-10.314,-8.0274e-12,-0.71679,0,0,0.1,-0,-0,0.66667
0.57844,0.42862,5.7844,-0.10707,-9.4379,209.65,1.6515,-0.55051,-1.9638,2.202,-2.5892e-12,-0.98188,0,0,0.1,9.4739e-16,0,0.66667
0.070112,0.92544,0.70112,0.63816,84.567,808.86,-1.1931,0.39772,-0.54882,-1.5909,-3.3217e-07,-0.27441,0,0,0.1,-0,-0,0.66667
0.80706,0.25358,8.0706,-0.36963,-17.02,49.665,7.9551,-2.6517,-1.5127,10.607,1.3254e-11,-0.75635,0,0,0.1,-0,-0,0.66667
0.20204,0.24198,2.0204,-0.38703,-49.331,634.6,2.0852,-0.69508,-1.4706,2.7803,-6.2005e-11,-0.73529,0,0,0.1,-0,-0,0.66667
0.21501,0.11833,2.1501,-0.57251,-72.666,618.06,3.2825,-1.0942,-0.8341,4.3767,7.7754e-11,-0.41705,0,0,0.1,1.1842e-16,0,0.66667
0.87429,0.12618,8.7429,-0.56072,-17.471,23.19,13.073,-4.3576,-0.887,17.431,-1.2366e-08,-0.4435,0,0,0.1,-3.7896e-15,-1.7445e-17,0.66667
0.81023,0.13172,8.1023,-0.55242,-25.155,48.765,11.936,-3.9786,-0.91634,15.914,5.4475e-11,-0.45817,0,0,0.1,-1.8948e-15,0,0.66667
0.78716,0.30499,7.8716,-0.29251,-14.691,59.433,6.1401,-2.0467,-1.6934,8.1868,4.9536e-11,-0.84672,0,0,0.1,-0,-0,0.66667
0.97848,0.71176,9.7848,0.31764,1.6514,1.3569,-8.288,2.7627,-1.639,-11.051,-9.0677e-07,-0.8195,0,0,0.1,-9.4739e-16,0,0.66667
0.93575,0.91383,9.3575,0.62074,10.18,7.8996,-15.489,5.1631,-0.63206,-20.653,-4.7006e-07,-0.31603,0,0,0.1,1.8948e-15,0,0.66667
0.12932,0.10887,1.2932,-0.5867,-76.785,729.96,2.0232,-0.67439,-0.77449,2.6976,9.9079e-09,-0.38724,0,0,0.1,-0,-0,0.66667
0.46825,0.41579,4.6825,-0.12631,-13.077,317.75,1.5772,-0.52574,-1.9474,2.103,-2.3829e-12,-0.97369,0,0,0.1,-9.4739e-16,0,0.66667
0.30416,0.10865,3.0416,-0.58702,-70.896,506.17,4.7614,-1.5871,-0.77152,6.3485,-7.6432e-12,-0.38576,0,0,0.1,4.737e-16,0,0.66667
0.89049,0.0028373,8.9049,-0.74574,-20.581,19.159,17.709,-5.9029,-0.02835,23.612,4.5946e-09,-0.014175,0,0,0.1,-0,-0,0.66667
0.13731,0.18525,1.3731,-0.47213,-61.597,719.31,1.7288,-0.57626,-1.2081,2.305,4.5644e-09,-0.60406,0,0,0.1,5.9212e-17,0,0.66667
0.047972,0.52968,0.47972,0.04452,5.8965,838.46,-0.056953,0.018984,-1.9971,-0.075937,2.4123e-07,-0.99853,0,0,0.1,2.9606e-17,0,0.66667
0.97746,0.31795,9.7746,-0.27307,-1.4846,1.3156,7.1178,-2.3726,-1.7324,9.4905,6.6916e-07,-0.86621,0,0,0.1,3.7896e-15,0,0.66667
0.56486,0.76435,5.6486,0.39653,35.834,222.4,-5.9729,1.991,-1.4416,-7.9638,-1.1631e-12,-0.72082,0,0,0.1,9.4739e-16,0,0.66667
0.28488,0.94533,2.8488,0.668,81.757,530.02,-5.0747,1.6916,-0.4129,-6.7663,4.7473e-13,-0.20645,0,0,0.1,-9.4739e-16,0,0.66667
0.33181,0.20233,3.3181,-0.44651,-52.812,472.48,3.9508,-1.3169,-1.2901,5.2677,-3.7848e-12,-0.64507,0,0,0.1,4.737e-16,0,0.66667
0.13838,0.077767,1.3838,-0.63335,-82.723,718.01,2.3372,-0.77907,-0.57461,3.1163,-4.946e-08,-0.28731,0,0,0.1,2.3685e-16,-1.1836e-16,0.66667
0.99127,0.13503,9.9127,-0.54745,-1.1202,1.5455,14.471,-4.8237,-0.93144,19.295,-8.1449e-06,-0.46572,0,0,0.1,-0,-0,0.66667
0.87071,0.91708,8.7071,0.62562,20.064,24.672,-14.526,4.8421,-0.60689,-19.368,-8.151e-09,-0.30345,0,0,0.1,-0,-0,0.66667
0.24165,0.65454,2.4165,0.23181,28.981,583.76,-1.4938,0.49793,-1.807,-1.9917,1.8438e-11,-0.90352,0,0,0.1,-5.9212e-17,0,0.66667
0.33244,0.2656,3.3244,-0.3516,-41.539,471.6,3.117,-1.039,-1.5588,4.156,-4.5488e-12,-0.7794,0,0,0.1,4.737e-16,0,0.66667
0.16541,0.25694,1.6541,-0.36459,-47.12,682.27,1.6082,-0.53608,-1.5249,2.1443,5.0278e-10,-0.76243,0,0,0.1,-0,-0,0.66667
0.51303,0.97731,5.1303,0.71596,70.299,272.93,-9.795,3.265,-0.17811,-13.06,-3.9719e-12,-0.089054,0,0,0.1,-9.4739e-16,0,0.66667
0.97972,0.097678,9.7972,-0.60348,-3.1066,2.4179,15.767,-5.2555,-0.70408,21.022,1.0921e-05,-0.35204,0,0,0.1,-0,-0,0.66667
0.59628,0.15725,5.9628,-0.51412,-44.018,194.5,8.1749,-2.725,-1.0621,10.9,-1.0916e-12,-0.53106,0,0,0.1,-0,-0,0.66667
0.66446,0.059258,6.6446,-0.66111,-49.144,139.37,11.714,-3.9048,-0.44378,15.619,1.2141e-12,-0.22189,0,0,0.1,-4.737e-16,0,0.66667
0.67117,0.20017,6.7117,-0.44975,-32.785,133.63,8.0495,-2.6832,-1.2843,10.733,-7.1854e-13,-0.64217,0,0,0.1,-0,-0,0.66667
0.19112,0.94306,1.9112,0.66458,85.291,649,-3.387,1.129,-0.42938,-4.5161,-4.8871e-10,-0.21469,0,0,0.1,-0,-0,0.66667
0.24088,0.36424,2.4088,-0.20364,-25.466,584.72,1.3081,-0.43603,-1.8497,1.7441,-2.3471e-11,-0.92483,0,0,0.1,-0,-0,0.66667
0.50091,0.16016,5.0091,-0.50976,-50.754,284.52,6.8092,-2.2697,-1.0801,9.079,-8.3222e-13,-0.54005,0,0,0.1,-0,-0,0.66667
0.46695,0.04271,4.6695,-0.68593,-71.451,320.07,8.5412,-2.8471,-0.32874,11.388,-1.6271e-12,-0.16437,0,0,0.1,-0,-1.1001e-16,0.66667
0.32409,0.63384,3.2409,0.20076,23.848,481.53,-1.7351,0.57837,-1.8556,-2.3135,-3.4641e-12,-0.92782,0,0,0.1,-0,-0,0.66667
0.72003,0.15895,7.2003,-0.51157,-32.687,99.559,9.8227,-3.2742,-1.0731,13.097,1.1596e-11,-0.53653,0,0,0.1,-0,-0,0.66667
0.27597,0.20702,2.7597,-0.43946,-53.964,540.77,3.2341,-1.078,-1.311,4.3121,-4.6902e-12,-0.6555,0,0,0.1,-0,-0,0.66667
0.89558,0.50801,8.9558,0.012018,0.31015,15.51,-0.28702,0.095673,-1.9977,-0.38269,4.0345e-08,-0.99885,0,0,0.1,3.7896e-15,0,0.66667
0.12274,0.80724,1.2274,0.46085,60.354,738.6,-1.5084,0.50281,-1.2464,-2.0112,-3.7148e-09,-0.62321,0,0,0.1,-2.9606e-16,0,0.66667
0.92163,0.81815,9.2163,0.47722,9.4164,10.018,-11.729,3.9095,-1.1953,-15.638,7.8041e-08,-0.59766,0,0,0.1,-0,-0,0.66667
0.10352,0.98292,1.0352,0.72438,95.521,764.3,-1.9996,0.66654,-0.13155,-2.6661,-3.9375e-07,-0.065774,0,0,0.1,2.4518e-16,0,0.66667
0.19298,0.15219,1.9298,-0.52172,-66.815,646.44,2.6849,-0.89495,-1.0306,3.5798,4.109e-11,-0.5153,0,0,0.1,-0,-0,0.66667
0.45235,0.78545,4.5235,0.42817,45.24,335.03,-5.1648,1.7216,-1.3524,-6.8864,-1.0019e-12,-0.67619,0,0,0.1,-0,-0,0.66667
0.88235,0.31956,8.8235,-0.27066,-7.8549,19.686,6.3685,-2.1228,-1.7368,8.4914,-1.3613e-08,-0.86839,0,0,0.1,-0,-0,0.66667
0.30753,0.56002,3.0753,0.090036,10.818,501.6,-0.73837,0.24612,-1.9702,-0.98449,-1.2024e-12,-0.98509,0,0,0.1,5.9212e-16,0,0.66667
0.65742,0.57882,6.5742,0.11823,8.8832,143.5,-2.0727,0.69089,-1.9529,-2.7636,1.06e-12,-0.97645,0,0,0.1,-0,-0,0.66667
0.33893,0.81709,3.3893,0.47563,55.967,463.99,-4.2989,1.433,-1.1944,-5.7318,-4.7407e-12,-0.5972,0,0,0.1,9.4739e-16,0,0.66667
0.016138,0.50406,0.16138,0.0060839,0.80742,881.31,-0.002618,0.0008683,-2.0046,-0.0034929,-6.5683e-06,-1.0023,0,0,0.1,-0,-0,0.66667
0.62443,0.33254,6.2443,-0.25119,-20.303,170.02,4.1826,-1.3942,-1.7795,5.5768,1.2359e-12,-0.88976,0,0,0.1,-9.4739e-16,0,0.66667
0.23807,0.99076,2.3807,0.73614,92.573,588.83,-4.6734,1.5578,-0.07252,-6.2312,1.4358e-11,-0.03626,0,0,0.1,-2.3685e-16,0,0.66667
0.19454,0.27031,1.9454,-0.34453,-44.041,644.29,1.7873,-0.59577,-1.5749,2.3831,-1.5518e-11,-0.78745,0,0,0.1,-0,-0,0.66667
0.80885,0.463,8.0885,-0.0555,-2.5264,48.331,1.1971,-0.39903,-1.9888,1.5961,-1.2731e-11,-0.99438,0,0,0.1,-0,-0,0.66667
0.61735,0.18407,6.1735,-0.47389,-38.938,176.36,7.8016,-2.6005,-1.1993,10.402,1.3967e-12,-0.59964,0,0,0.1,-4.737e-16,0,0.66667
0.79544,0.85,7.9544,0.525,25.553,55.862,-11.136,3.712,-1.0228,-14.848,3.8747e-11,-0.51138,0,0,0.1,-0,-0,0.66667
0.26534,0.7397,2.6534,0.35954,44.402,553.96,-2.5441,0.84802,-1.5449,-3.3921,3.578e-12,-0.77243,0,0,0.1,-2.3685e-16,0,0.66667
0.047177,0.7115,0.47177,0.31725,42.053,839.55,-0.39912,0.13304,-1.6469,-0.53215,1.0802e-08,-0.82344,0,0,0.1,-0,-0,0.66667
0.85345,0.52958,8.5345,0.044363,1.5809,29.32,-1.0096,0.33655,-1.9916,-1.3462,1.4989e-09,-0.99578,0,0,0.1,-9.4739e-16,0,0.66667
0.76433,0.44983,7.6433,-0.07525,-4.1284,71.594,1.5337,-0.51125,-1.9823,2.045,5.4168e-12,-0.99116,0,0,0.1,-0,-0,0.66667
0.0045005,0.36677,0.045005,-0.19984,-26.536,896.99,0.023983,-0.0079941,-1.8566,0.031978,4.6718e-07,-0.92829,0,0,0.1,3.7007e-18,0,0.66667
0.69985,0.38001,6.9985,-0.17998,-12.145,112.46,3.3589,-1.1196,-1.8851,4.4785,2.7258e-12,-0.94254,0,0,0.1,-1.8948e-15,0,0.66667
0.24166,0.68772,2.4166,0.28158,35.211,583.78,-1.8146,0.60486,-1.7165,-2.4195,2.127e-11,-0.85825,0,0,0.1,-0,-0,0.66667
0.35967,0.78951,3.5967,0.43426,50.243,439.38,-4.1652,1.3884,-1.3341,-5.5535,-4.9289e-12,-0.66705,0,0,0.1,-0,-0,0.66667
0.78074,0.57833,7.8074,0.1175,6.0498,62.568,-2.4462,0.81541,-1.9547,-3.2617,-1.8875e-11,-0.97737,0,0,0.1,-0,-0,0.66667
0.98652,0.59454,9.8652,0.14181,0.42668,0.52043,-3.7306,1.2435,-1.931,-4.9742,-1.1797e-07,-0.96552,0,0,0.1,-3.7896e-15,0,0.66667
0.24556,0.09409,2.4556,-0.60886,-76.165,579.14,3.9871,-1.329,-0.68177,5.3161,-2.562e-10,-0.34088,0,0,0.1,9.4739e-16,0,0.66667
0.4675,0.46054,4.675,-0.059187,-6.1326,318.52,0.73787,-0.24596,-1.9904,0.98383,-1.9998e-12,-0.99519,0,0,0.1,-0,-0,0.66667
0.40034,0.24305,4.0034,-0.38542,-42.988,392.38,4.1146,-1.3715,-1.4695,5.4861,-1.1724e-13,-0.73477,0,0,0.1,-7.1054e-16,0,0.66667
0.55826,0.97012,5.5826,0.70518,64.673,229.36,-10.498,3.4993,-0.23174,-13.997,-4.8583e-13,-0.11587,0,0,0.1,-1.8948e-15,1.2813e-16,0.66667
0.52926,0.33967,5.2926,-0.2405,-22.958,255.9,3.3943,-1.1314,-1.7965,4.5258,-3.4679e-12,-0.89826,0,0,0.1,4.737e-16,0,0.66667
0.65803,0.67544,6.5803,0.26316,19.76,143.2,-4.6178,1.5393,-1.7554,-6.1571,2.0273e-12,-0.87771,0,0,0.1,-9.4739e-16,0,0.66667
0.49673,0.93022,4.9673,0.64534,64.716,289.1,-8.5482,2.8494,-0.51921,-11.398,2.1734e-12,-0.25961,0,0,0.1,-4.737e-16,0,0.66667
0.68538,0.31345,6.8538,-0.27982,-19.643,122.83,5.1142,-1.7047,-1.7242,6.819,-3.7614e-13,-0.86208,0,0,0.1,-0,-0,0.66667
0.31286,0.26721,3.1286,-0.34919,-41.842,495.26,2.9133,-0.97109,-1.5706,3.8843,-2.9119e-12,-0.7853,0,0,0.1,-4.737e-16,0,0.66667
0.21438,0.67299,2.1438,0.25948,32.874,618.63,-1.4834,0.49446,-1.7589,-1.9779,3.3615e-11,-0.87945,0,0,0.1,-0,-0,0.66667
0.90718,0.53264,9.0718,0.048955,1.1271,12.457,-1.1843,0.39476,-1.9959,-1.579,4.9776e-08,-0.99797,0,0,0.1,-0,-0,0.66667
0.5576,0.59978,5.576,0.14967,13.667,228.79,-2.2255,0.74183,-1.9188,-2.9673,-1.1988e-12,-0.95942,0,0,0.1,-0,-0,0.66667
0.029017,0.013314,0.29017,-0.73003,-97.233,864.03,0.5649,-0.18831,-0.10593,0.7532,-1.072e-05,-0.052964,0,0,0.1,-0,-0,0.66667
0.12197,0.56446,1.2197,0.096696,12.646,739.52,-0.3145,0.10483,-1.9678,-0.41933,4.8784e-10,-0.98391,0,0,0.1,-0,-0,0.66667
0.6814,0.32724,6.814,-0.25913,-18.376,125.69,4.7086,-1.5695,-1.7584,6.2782,-7.212e-13,-0.87918,0,0,0.1,-0,-0,0.66667
0.80871,0.53475,8.0871,0.052121,2.3742,48.398,-1.124,0.37467,-1.9902,-1.4987,9.5896e-12,-0.99512,0,0,0.1,1.8948e-15,0,0.66667
0.82348,0.99343,8.2348,0.74015,31.754,43.607,-16.253,5.4177,-0.050838,-21.671,-1.4875e-10,-0.025419,0,0,0.1,-4.737e-16,0,0.66667
0.4331,0.96494,4.331,0.69741,75.491,356.5,-8.0545,2.6848,-0.2699,-10.739,3.4204e-12,-0.13495,0,0,0.1,1.2822e-16,0,0.66667
0.58043,0.8931,5.8043,0.58965,52.002,208.73,-9.1268,3.0423,-0.76456,-12.169,1.3261e-12,-0.38228,0,0,0.1,-9.4739e-16,0,0.66667
0.80756,0.54538,8.0756,0.068067,3.1175,48.951,-1.4658,0.48861,-1.9814,-1.9544,-7.4524e-12,-0.99068,0,0,0.1,-0,-0,0.66667
0.95758,0.17055,9.5758,-0.49418,-5.308,4.0051,12.619,-4.2064,-1.1299,16.826,-1.5308e-06,-0.56496,0,0,0.1,-0,-0,0.66667
0.87975,0.007039,8.7975,-0.73944,-22.274,22.348,17.347,-5.7824,-0.0544,23.13,3.7509e-08,-0.0272,0,0,0.1,-0,-0,0.66667
0.38851,0.84028,3.8851,0.51042,57.623,406.05,-5.2881,1.7627,-1.0758,-7.0508,-5.7554e-13,-0.53788,0,0,0.1,-4.737e-16,0,0.66667
0.96148,0.032333,9.6148,-0.7015,-7.0151,4.6011,17.986,-5.9954,-0.24854,23.982,-2.8841e-05,-0.12427,0,0,0.1,-0,-0,0.66667
0.13705,0.30939,1.3705,-0.28591,-37.263,719.58,1.0449,-0.3483,-1.7096,1.3932,5.1376e-09,-0.85478,0,0,0.1,2.3685e-16,0,0.66667
0.90874,0.8535,9.0874,0.53024,12.161,13.195,-12.849,4.2831,-1.0011,-17.133,3.8251e-08,-0.50053,0,0,0.1,-0,-0,0.66667
0.52131,0.26241,5.2131,-0.35639,-34.444,263.85,4.9544,-1.6515,-1.5458,6.6059,-1.0538e-12,-0.77289,0,0,0.1,-9.4739e-16,0,0.66667
0.71489,0.51258,7.1489,0.018864,1.2188,102.12,-0.35962,0.11987,-1.9976,-0.47949,-4.3332e-13,-0.9988,0,0,0.1,-0,-0,0.66667
0.78467,0.85618,7.8467,0.53426,27.222,61.431,-11.179,3.7264,-0.98447,-14.906,4.7077e-11,-0.49224,0,0,0.1,-0,-0,0.66667
0.33468,0.95295,3.3468,0.67943,80.373,469.42,-6.0638,2.0213,-0.35559,-8.0851,6.4215e-13,-0.17779,0,0,0.1,-0,-0,0.66667
0.87769,0.17375,8.7769,-0.48937,-14.822,21.801,11.454,-3.8179,-1.1487,15.272,2.5285e-09,-0.57437,0,0,0.1,-9.4739e-16,0,0.66667
0.25801,0.39871,2.5801,-0.15194,-18.825,563.05,1.0454,-0.34847,-1.9151,1.3939,-1.6444e-11,-0.95755,0,0,0.1,3.8962e-16,0,0.66667
0.083575,0.99267,0.83575,0.73901,97.833,790.9,-1.647,0.549,-0.056147,-2.196,4.2569e-10,-0.028074,0,0,0.1,1.7764e-16,0,0.66667
0.75937,0.67058,7.5937,0.25587,14.311,74.641,-5.1813,1.7271,-1.7643,-6.9084,-2.1732e-11,-0.88214,0,0,0.1,-0,-0,0.66667
0.89508,0.6414,8.9508,0.2121,5.5089,15.829,-5.0625,1.6875,-1.8383,-6.75,2.5043e-08,-0.91914,0,0,0.1,-1.8948e-15,0,0.66667
0.92645,0.20862,9.2645,-0.43707,-8.0889,8.8648,10.798,-3.5993,-1.3191,14.397,-1.6732e-07,-0.65956,0,0,0.1,-9.4739e-16,0,0.66667
0.37407,0.017349,3.7407,-0.72398,-82.994,423.13,7.2218,-2.4073,-0.13945,9.6291,-2.9354e-13,-0.069723,0,0,0.1,-0,-1.1698e-16,0.66667
0.34146,0.90198,3.4146,0.60297,70.897,461.18,-5.4904,1.8301,-0.709,-7.3205,-3.5896e-12,-0.3545,0,0,0.1,-4.737e-16,5.8127e-17,0.66667
0.25569,0.40847,2.5569,-0.13729,-17.031,565.97,0.93607,-0.31202,-1.9316,1.2481,-1.4925e-11,-0.96578,0,0,0.1,-0,-0,0.66667
0.47079,0.10481,4.7079,-0.59278,-61.389,315.77,7.442,-2.4807,-0.75193,9.9227,-6.6396e-12,-0.37596,0,0,0.1,-0,-0,0.66667
0.96717,0.76345,9.6717,0.39517,3.2359,2.5573,-10.192,3.3974,-1.4467,-13.589,-6.0979e-07,-0.72335,0,0,0.1,-0,-0,0.66667
0.49887,0.13493,4.9887,-0.5476,-54.694,286.68,7.2848,-2.4283,-0.93669,9.7131,-3.0296e-12,-0.46835,0,0,0.1,-0,-0,0.66667
0.23907,0.0486,2.3907,-0.6771,-85.047,587.46,4.3167,-1.4389,-0.36794,5.7556,1.4657e-11,-0.18397,0,0,0.1,-4.737e-16,0,0.66667
0.20791,0.67548,2.0791,0.26322,33.444,626.95,-1.4594,0.48646,-1.7517,-1.9459,2.7326e-11,-0.87584,0,0,0.1,2.3685e-16,0,0.66667
0.92671,0.2321,9.2671,-0.40186,-7.399,8.6904,9.9308,-3.3103,-1.4238,13.241,-1.6255e-07,-0.71188,0,0,0.1,-0,-0,0.66667
0.68793,0.44692,6.8793,-0.079618,-5.5459,120.78,1.4606,-0.48686,-1.9817,1.9474,5.2069e-14,-0.99085,0,0,0.1,-0,-0,0.66667
0.70478,0.51191,7.0478,0.017863,1.1883,108.95,-0.33572,0.11191,-2.0007,-0.44763,-2.9571e-13,-1.0004,0,0,0.1,-0,-0,0.66667
0.5889,0.30196,5.889,-0.29706,-25.725,200.52,4.6649,-1.555,-1.6843,6.2199,-1.9886e-12,-0.84216,0,0,0.1,-0,-0,0.66667
0.61873,0.89418,6.1873,0.59128,48.526,175.56,-9.7557,3.2519,-0.75407,-13.008,-7.1054e-14,-0.37703,0,0,0.1,-0,-0,0.66667
0.045998,0.26669,0.45998,-0.34996,-46.403,841.14,0.42926,-0.14309,-1.5677,0.57235,7.8039e-08,-0.78384,0,0,0.1,-5.9212e-17,0,0.66667
0.35616,0.15751,3.5616,-0.51374,-59.65,443.63,4.8793,-1.6264,-1.0626,6.5057,-6.4073e-12,-0.53129,0,0,0.1,-0,-0,0.66667
0.079759,0.31915,0.79759,-0.27128,-35.802,795.83,0.57698,-0.19233,-1.7407,0.76931,7.2433e-08,-0.87036,0,0,0.1,-0,-0,0.66667
0.32577,0.26516,3.2577,-0.35227,-41.824,479.62,3.0602,-1.0201,-1.5595,4.0803,-4.4587e-12,-0.77974,0,0,0.1,4.737e-16,0,0.66667
0.71057,0.86564,7.1057,0.54846,36.056,105.97,-10.392,3.4642,-0.92747,-13.857,-1.0093e-11,-0.46373,0,0,0.1,-0,-0,0.66667
0.072478,0.94864,0.72478,0.67296,89.18,805.71,-1.3007,0.43355,-0.38725,-1.7342,-2.6397e-06,-0.19362,0,0,0.1,-1.1842e-16,0,0.66667
0.89901,0.46539,8.9901,-0.051917,-1.2974,14.583,1.2446,-0.41488,-1.9882,1.6595,8.3475e-09,-0.99412,0,0,0.1,-2.1316e-15,0,0.66667
0.35431,0.52119,3.5431,0.031781,3.687,445.39,-0.30027,0.10009,-1.9943,-0.40036,-8.3004e-12,-0.99717,0,0,0.1,-0,-0,0.66667
0.089774,0.16373,0.89774,-0.5044,-66.55,782.51,1.2075,-0.40251,-1.0945,1.61,1.6014e-09,-0.54727,0,0,0.1,-0,-0,0.66667
0.10048,0.3792,1.0048,-0.1812,-23.817,768.13,0.48551,-0.16184,-1.881,0.64734,2.6824e-08,-0.94052,0,0,0.1,-0,-0,0.66667
0.14697,0.39758,1.4697,-0.15364,-19.956,706.43,0.60214,-0.20071,-1.9134,0.80286,2.3201e-09,-0.95671,0,0,0.1,1.1842e-16,0,0.66667
0.70481,0.67651,7.0481,0.26476,17.63,109.16,-4.9761,1.6587,-1.7526,-6.6349,-3.5953e-12,-0.87632,0,0,0.1,9.4739e-16,0,0.66667
0.94314,0.62989,9.4314,0.19483,2.7642,5.1935,-4.9002,1.6334,-1.8632,-6.5336,-7.4414e-09,-0.93159,0,0,0.1,-1.8948e-15,0,0.66667
0.76054,0.50738,7.6054,0.011072,0.6159,73.744,-0.22455,0.07485,-1.9977,-0.2994,-5.0098e-12,-0.99887,0,0,0.1,-0,-0,0.66667
0.39221,0.48698,3.9221,-0.019537,-2.1928,401.37,0.20433,-0.068111,-2.0006,0.27245,-2.0918e-12,-1.0003,0,0,0.1,-4.737e-16,0,0.66667
0.76781,0.75678,7.6781,0.38517,20.914,70.113,-7.8863,2.6288,-1.474,-10.515,-3.0944e-11,-0.737,0,0,0.1,-0,-0,0.66667
0.83593,0.072058,8.3593,-0.64191,-25.681,37.784,14.309,-4.7697,-0.5319,19.079,1.2521e-08,-0.26595,0,0,0.1,-1.8948e-15,0,0.66667
0.061478,0.8206,0.61478,0.4809,63.712,820.38,-0.78839,0.2628,-1.181,-1.0512,-1.2107e-07,-0.59049,0,0,0.1,-0,-0,0.66667
0.31055,0.99724,3.1055,0.74587,89.853,498.67,-6.1767,2.0589,-0.024438,-8.2356,-1.14e-12,-0.012219,0,0,0.1,-9.4739e-16,0,0.66667
0.74228,0.9939,7.4228,0.74086,44.344,86.414,-14.665,4.8882,-0.04583,-19.553,-9.4733e-12,-0.022915,0,0,0.1,-0,-0,0.66667
0.26043,0.072377,2.6043,-0.64143,-79.624,560.46,4.4546,-1.4849,-0.53497,5.9394,1.6188e-11,-0.26748,0,0,0.1,-0,-0,0.66667
0.91053,0.052706,9.1053,-0.67094,-15.214,13.444,16.291,-5.4303,-0.39804,21.721,4.9821e-07,-0.19902,0,0,0.1,9.4739e-16,0,0.66667
0.24225,0.72889,2.4225,0.34334,42.934,583.07,-2.218,0.73932,-1.5778,-2.9573,1.8636e-11,-0.7889,0,0,0.1,4.737e-16,0,0.66667
0.78725,0.76106,7.8725,0.39159,19.687,59.623,-8.2208,2.7403,-1.4521,-10.961,-5.137e-11,-0.72604,0,0,0.1,-0,-0,0.66667
0.39894,0.64504,3.9894,0.21756,24.275,393.78,-2.3145,0.77149,-1.8286,-3.086,-5.4887e-12,-0.9143,0,0,0.1,-0,-0,0.66667
0.88796,0.10982,8.8796,-0.58527,-16.373,19.051,13.859,-4.6195,-0.78232,18.478,1.4376e-08,-0.39116,0,0,0.1,-0,-0,0.66667
0.28813,0.41267,2.8813,-0.131,-15.942,525.45,1.0065,-0.3355,-1.9364,1.342,-4.7078e-12,-0.96821,0,0,0.1,9.4739e-16,0,0.66667
0.57639,0.28541,5.7639,-0.32189,-28.507,211.74,4.9476,-1.6492,-1.6342,6.5968,2.8688e-13,-0.81708,0,0,0.1,-1.8948e-15,0,0.66667
0.015374,0.97498,0.15374,0.71246,94.932,882.38,-0.29207,0.097333,-0.20013,-0.38944,-3.4038e-05,-0.10006,0,0,0.1,-0,-0,0.66667
0.80519,0.4797,8.0519,-0.030446,-1.4099,50.08,0.65372,-0.21791,-1.9936,0.87163,2.0478e-13,-0.9968,0,0,0.1,-0,-0,0.66667
0.033564,0.84901,0.33564,0.52351,69.567,857.88,-0.46857,0.15619,-1.027,-0.62476,4.278e-07,-0.51352,0,0,0.1,-0,-0,0.66667
0.64091,0.62328,6.4091,0.18493,14.427,156.53,-3.1606,1.0535,-1.884,-4.2141,1.0094e-12,-0.94202,0,0,0.1,-1.3027e-15,0,0.66667
0.56365,0.89242,5.6365,0.58864,53.418,223.99,-8.8476,2.9492,-0.77069,-11.797,-1.438e-12,-0.38534,0,0,0.1,9.4739e-16,0,0.66667
0.92841,0.097254,9.2841,-0.60412,-10.996,9.1901,14.957,-4.9855,-0.70033,19.942,-4.9785e-07,-0.35017,0,0,0.1,-0,-0,0.66667
0.91911,0.48623,9.1911,-0.020661,-0.41559,9.6359,0.5064,-0.1688,-1.9986,0.6752,-1.8931e-08,-0.99931,0,0,0.1,-1.0884e-15,0,0.66667
0.24888,0.1898,2.4888,-0.4653,-58.03,574.78,3.0881,-1.0294,-1.2342,4.1174,9.2799e-12,-0.61708,0,0,0.1,-9.4739e-16,0,0.66667
0.26552,0.39479,2.6552,-0.15782,-19.471,553.62,1.1174,-0.37248,-1.9162,1.4899,-1.2903e-11,-0.9581,0,0,0.1,2.3685e-16,0,0.66667
0.65743,0.069376,6.5743,-0.64594,-48.803,144.68,11.324,-3.7747,-0.51963,15.099,-3.2347e-12,-0.25982,0,0,0.1,1.8948e-15,0,0.66667
0.28227,0.29315,2.8227,-0.31028,-37.925,532.81,2.3355,-0.77851,-1.6607,3.114,-1.2023e-11,-0.83033,0,0,0.1,4.737e-16,0,0.66667
0.17582,0.39995,1.7582,-0.15008,-19.308,668.57,0.70367,-0.23456,-1.9192,0.93822,2.4533e-10,-0.95962,0,0,0.1,3.5527e-16,0,0.66667
0.17263,0.92572,1.7263,0.63858,82.504,673.04,-2.9397,0.97989,-0.55357,-3.9196,3.817e-09,-0.27679,0,0,0.1,-2.3685e-16,0,0.66667
0.027872,0.40841,0.27872,-0.13738,-18.226,865.51,0.10211,-0.034036,-1.9335,0.13614,-1.4736e-07,-0.96675,0,0,0.1,-0,-0,0.66667
0.46709,0.0049423,4.6709,-0.74259,-77.402,320.09,9.2494,-3.0831,-0.041902,12.333,-7.736e-13,-0.020951,0,0,0.1,-0,-0,0.66667
0.48856,0.11444,4.8856,-0.57834,-58.569,297.27,7.5348,-2.5116,-0.80941,10.046,-5.3011e-12,-0.40471,0,0,0.1,-0,-0,0.66667
0.42371,0.52207,4.2371,0.033105,3.6023,365.91,-0.37405,0.12468,-1.9979,-0.49874,-2.0982e-12,-0.99894,0,0,0.1,-0,-0,0.66667
0.98837,0.83094,9.8837,0.49641,1.3684,1.427,-13.084,4.3612,-1.1225,-17.445,3.0298e-06,-0.56126,0,0,0.1,-1.8948e-15,0,0.66667
0.64354,0.43627,6.4354,-0.095602,-7.4131,154.37,1.6406,-0.54688,-1.9689,2.1875,-1.1111e-12,-0.98444,0,0,0.1,-1.1842e-16,0,0.66667
0.56225,0.96832,5.6225,0.70247,64.003,225.65,-10.532,3.5108,-0.25141,-14.043,-1.3483e-12,-0.1257,0,0,0.1,-3.2567e-16,-6.4866e-18,0.66667
0.086457,0.071829,0.86457,-0.64226,-84.894,787,1.4807,-0.49358,-0.53039,1.9743,2.8565e-07,-0.26519,0,0,0.1,2.3685e-16,0,0.66667
0.45235,0.17326,4.5235,-0.49011,-51.812,335.13,5.912,-1.9707,-1.1493,7.8827,-4.1216e-12,-0.57464,0,0,0.1,-0,-2.4579e-17,0.66667
0.069724,0.16381,0.69724,-0.50429,-66.75,809.33,0.93762,-0.31254,-1.093,1.2502,2.2162e-07,-0.54651,0,0,0.1,-0,-0,0.66667
0.48716,0.80888,4.8716,0.46332,46.948,298.46,-6.0189,2.0063,-1.2379,-8.0252,5.9197e-13,-0.61893,0,0,0.1,-9.4739e-16,0,0.66667
0.01559,0.68949,0.1559,0.28424,37.748,882.05,-0.11817,0.039391,-1.7188,-0.15756,1.7505e-07,-0.85941,0,0,0.1,-0,-0,0.66667
0.14153,0.99532,1.4153,0.74299,97.073,713.95,-2.8041,0.93469,-0.041152,-3.7388,-1.2614e-08,-0.020576,0,0,0.1,-2.9606e-16,0,0.66667
0.61893,0.79952,6.1893,0.44927,36.788,174.98,-7.4152,2.4717,-1.2795,-9.8869,-1.4877e-13,-0.63975,0,0,0.1,-0,-0,0.66667
0.67615,0.453,6.7615,-0.070506,-5.0622,129.34,1.2713,-0.42376,-1.9807,1.695,4.2988e-13,-0.99035,0,0,0.1,-9.4739e-16,0,0.66667
0.60372,0.039058,6.0372,-0.69141,-58.527,188.62,11.131,-3.7104,-0.29803,14.842,-2.3848e-12,-0.14901,0,0,0.1,-0,-0,0.66667
0.25097,0.0015909,2.5097,-0.74761,-93.4,572.52,5.0035,-1.6678,-0.017038,6.6714,1.0405e-11,-0.0085189,0,0,0.1,-0,-0,0.66667
0.066186,0.65806,0.66186,0.23709,31.349,814.01,-0.41846,0.13949,-1.8005,-0.55794,-7.1738e-08,-0.90023,0,0,0.1,-2.3685e-16,0,0.66667
0.67727,0.69347,6.7727,0.29021,20.801,128.76,-5.2414,1.7471,-1.6987,-6.9885,-1.6493e-12,-0.84934,0,0,0.1,1.8948e-15,0,0.66667
0.76834,0.83041,7.6834,0.49562,26.908,70.15,-10.155,3.3849,-1.1268,-13.54,-1.3665e-11,-0.56342,0,0,0.1,-0,-0,0.66667
0.11928,0.61932,1.1928,0.17898,23.426,743.1,-0.56926,0.18975,-1.8841,-0.75902,-9.6015e-09,-0.94205,0,0,0.1,-5.9212e-17,0,0.66667
0.73956,0.43683,7.3956,-0.094753,-5.6693,86.305,1.8687,-0.62289,-1.9673,2.4916,-2.4775e-12,-0.98364,0,0,0.1,1.1798e-15,0,0.66667
0.77319,0.22674,7.7319,-0.40989,-21.812,67.196,8.4514,-2.8171,-1.3998,11.268,1.3829e-11,-0.69988,0,0,0.1,-0,-0,0.66667
0.10997,0.99691,1.0997,0.74537,98.175,755.73,-2.1859,0.72862,-0.029372,-2.9145,-2.9586e-09,-0.014686,0,0,0.1,-2.0724e-16,0,0.66667
0.48647,0.34491,4.8647,-0.23263,-23.555,298.82,3.0178,-1.0059,-1.8101,4.0238,1.5321e-13,-0.90506,0,0,0.1,-1.8948e-15,0,0.66667
0.005725,0.5176,0.05725,0.026396,3.504,895.34,-0.00403,0.0013454,-1.9948,-0.0053722,3.1686e-06,-0.99742,0,0,0.1,-0,-0,0.66667
0.62591,0.6763,6.2591,0.26446,21.312,168.82,-4.414,1.4713,-1.7545,-5.8854,-8.2556e-13,-0.87727,0,0,0.1,-0,-0,0.66667
0.85898,0.92844,8.5898,0.64266,22.363,28.842,-14.721,4.9069,-0.5359,-19.628,-4.1596e-08,-0.26795,0,0,0.1,9.4739e-16,9.7535e-17,0.66667
0.86017,0.92623,8.6017,0.63934,22.071,28.397,-14.665,4.8884,-0.55005,-19.554,-5.1759e-08,-0.27502,0,0,0.1,-0,-0,0.66667
0.93728,0.49991,9.3728,-0.00014202,-0.0022179,6.0244,0.0035496,-0.0011829,-2.0061,0.0047329,4.923e-07,-1.003,0,0,0.1,-6.1358e-15,0,0.66667
0.78384,0.16209,7.8384,-0.50686,-25.899,61.769,10.595,-3.5316,-1.0876,14.126,1.1945e-10,-0.54378,0,0,0.1,-0,-0,0.66667
0.43204,0.63106,4.3204,0.19659,21.212,356.8,-2.2649,0.75496,-1.8607,-3.0198,-2.695e-12,-0.93034,0,0,0.1,-9.4739e-16,0,0.66667
0.77402,0.82197,7.7402,0.48296,25.651,66.965,-9.9686,3.3229,-1.1677,-13.291,-4.3154e-11,-0.58384,0,0,0.1,-0,-0,0.66667
0.98356,0.79208,9.8356,0.43813,1.7371,1.4307,-11.491,3.8304,-1.3209,-15.322,-9.5334e-07,-0.66044,0,0,0.1,-0,-0,0.66667
0.36725,0.30389,3.6725,-0.29416,-33.786,430.34,2.8808,-0.96028,-1.6894,3.8411,-5.4947e-12,-0.8447,0,0,0.1,-0,-0,0.66667
0.035895,0.38261,0.35895,-0.17608,-23.35,854.71,0.16854,-0.056181,-1.8883,0.22473,-1.9932e-07,-0.94413,0,0,0.1,-0,-0,0.66667
0.50774,0.93897,5.0774,0.65846,65.073,278.03,-8.9153,2.9718,-0.45656,-11.887,-8.3125e-12,-0.22828,0,0,0.1,-0,-0,0.66667
0.3525,0.28517,3.525,-0.32224,-37.473,447.69,3.029,-1.0097,-1.6286,4.0387,-7.3654e-12,-0.8143,0,0,0.1,-0,-0,0.66667
0.17606,0.8255,1.7606,0.48825,62.918,668.42,-2.2923,0.76411,-1.1509,-3.0564,-2.9017e-11,-0.57546,0,0,0.1,-0,-0,0.66667
0.9343,0.093621,9.343,-0.60957,-10.208,8.1026,15.187,-5.0624,-0.68009,20.25,-4.7947e-10,-0.34004,0,0,0.1,6.6862e-16,-1.194e-16,0.66667
0.11962,0.29154,1.1962,-0.31269,-40.945,742.68,0.99744,-0.33248,-1.6501,1.3299,1.1927e-08,-0.82503,0,0,0.1,-0,-0,0.66667
0.65426,0.067241,6.5426,-0.64914,-49.408,147.14,11.325,-3.7752,-0.50383,15.101,-4.0146e-13,-0.25191,0,0,0.1,-0,-0,0.66667
0.16873,0.39863,1.6873,-0.15206,-19.613,677.84,0.68419,-0.22806,-1.9179,0.91225,1.6575e-10,-0.95893,0,0,0.1,1.1842e-16,0,0.66667
0.79644,0.5388,7.9644,0.058205,2.8042,54.397,-1.2362,0.41206,-1.9924,-1.6482,-4.0806e-11,-0.99619,0,0,0.1,-0,-0,0.66667
0.25811,0.11011,2.5811,-0.58483,-72.649,563.29,4.0253,-1.3418,-0.78065,5.367,-2.6956e-13,-0.39032,0,0,0.1,-0,-0,0.66667
0.69801,0.40249,6.9801,-0.14627,-9.9183,113.7,2.7225,-0.90751,-1.9226,3.63,7.5118e-13,-0.9613,0,0,0.1,-0,-0,0.66667
0.62789,0.78602,6.2789,0.42902,34.482,167.5,-7.1835,2.3945,-1.3463,-9.578,1.0782e-12,-0.67317,0,0,0.1,-1.8948e-15,0,0.66667
0.7158,0.76846,7.158,0.40269,26.015,102.03,-7.6866,2.5622,-1.4233,-10.249,-2.6583e-12,-0.71167,0,0,0.1,-9.4739e-16,0,0.66667
0.25083,0.34714,2.5083,-0.22928,-28.527,572.13,1.5336,-0.51121,-1.8173,2.0449,-2.157e-11,-0.90867,0,0,0.1,-0,-0,0.66667
0.50402,0.10931,5.0402,-0.58603,-58.155,281.56,7.8767,-2.6256,-0.77753,10.502,-5.2447e-13,-0.38876,0,0,0.1,-0,-0,0.66667
0.34213,0.071777,3.4213,-0.64233,-75.519,460.46,5.8604,-1.9535,-0.53512,7.8138,-1.5756e-12,-0.26756,0,0,0.1,-0,9.8878e-17,0.66667
0.1803,0.45204,1.803,-0.071934,-9.2378,662.71,0.34586,-0.11529,-1.9784,0.46114,9.3526e-11,-0.98919,0,0,0.1,-2.3685e-16,0,0.66667
0.47551,0.66229,4.7551,0.24344,24.993,310.22,-3.0869,1.029,-1.7868,-4.1158,-1.3209e-12,-0.8934,0,0,0.1,9.4739e-16,0,0.66667
0.91212,0.0070378,9.1212,-0.73944,-16.555,13.456,17.986,-5.9952,-0.053641,23.981,-1.4336e-08,-0.026821,0,0,0.1,-0,-0,0.66667
0.56794,0.72272,5.6794,0.33408,30.02,219.45,-5.0597,1.6866,-1.6016,-6.7462,-1.6671e-12,-0.80079,0,0,0.1,-0,-0,0.66667
0.63089,0.86916,6.3089,0.55374,44.298,165.39,-9.3159,3.1053,-0.90766,-12.421,-9.0772e-13,-0.45383,0,0,0.1,9.4739e-16,0,0.66667
0.54925,0.27158,5.4925,-0.34263,-31.744,236.87,5.0184,-1.6728,-1.5835,6.6912,8.4155e-13,-0.79175,0,0,0.1,-4.737e-16,0,0.66667
0.04503,0.67377,0.4503,0.26065,34.55,842.43,-0.31299,0.10433,-1.7599,-0.41732,7.6683e-08,-0.87996,0,0,0.1,-0,-0,0.66667
0.86867,0.98423,8.6867,0.72634,23.741,25.888,-16.825,5.6084,-0.1212,-22.434,2.0604e-08,-0.060598,0,0,0.1,2.0574e-15,0,0.66667
0.12479,0.15424,1.2479,-0.51864,-67.917,735.91,1.7259,-0.57531,-1.0493,2.3012,-4.7993e-09,-0.52467,0,0,0.1,8.8818e-17,1.3218e-16,0.66667
0.73641,0.81132,7.3641,0.46697,28.331,88.949,-9.1702,3.0567,-1.2273,-12.227,-2.1067e-11,-0.61365,0,0,0.1,1.1842e-15,0,0.66667
0.45176,0.65296,4.5176,0.22943,24.227,335.39,-2.764,0.92132,-1.8162,-3.6853,-3.1752e-14,-0.90808,0,0,0.1,-4.737e-16,0,0.66667
0.71027,0.3137,7.1027,-0.27946,-18.323,105.46,5.2931,-1.7644,-1.7206,7.0575,2.6548e-12,-0.86028,0,0,0.1,-1.8948e-15,0,0.66667
0.86113,0.44997,8.6113,-0.075042,-2.5427,26.512,1.7232,-0.5744,-1.9817,2.2976,-2.0342e-09,-0.99083,0,0,0.1,-0,-0,0.66667
0.69657,0.46552,6.9657,-0.051721,-3.52,114.65,0.96073,-0.32024,-1.9885,1.281,-1.462e-12,-0.99425,0,0,0.1,1.1842e-15,0,0.66667
0.8539,0.69472,8.539,0.29208,10.403,29.467,-6.6509,2.217,-1.6946,-8.8679,2.6988e-09,-0.84731,0,0,0.1,-0,-0,0.66667
0.48707,0.91018,4.8707,0.61527,62.457,298.9,-7.9915,2.6638,-0.65518,-10.655,3.8991e-13,-0.32759,0,0,0.1,-0,-0,0.66667
0.091798,0.17658,0.91798,-0.48514,-63.975,779.8,1.1876,-0.39586,-1.1646,1.5834,2.0517e-08,-0.58231,0,0,0.1,-0,-0,0.66667
0.37859,0.86533,3.7859,0.54799,62.444,417.53,-5.5323,1.8441,-0.93164,-7.3765,-2.3612e-12,-0.46582,0,0,0.1,-0,-0,0.66667
0.19142,0.84459,1.9142,0.51689,66.235,648.46,-2.6384,0.87948,-1.0503,-3.5179,-1.2539e-11,-0.52516,0,0,0.1,-0,-0,0.66667
0.76352,0.74686,7.6352,0.3703,20.427,72.504,-7.5394,2.5131,-1.5146,-10.052,-2.7367e-11,-0.75731,0,0,0.1,-4.737e-16,0,0.66667
0.69537,0.86598,6.9537,0.54896,37.654,116.41,-10.18,3.3932,-0.92552,-13.573,2.8653e-12,-0.46276,0,0,0.1,-9.4739e-16,0,0.66667
0.57953,0.73197,5.7953,0.34795,30.653,208.96,-5.3773,1.7924,-1.5718,-7.1698,-1.3021e-12,-0.78588,0,0,0.1,-0,-0,0.66667
0.76884,0.2495,7.6884,-0.37575,-20.321,69.513,7.7038,-2.5679,-1.4991,10.272,3.8007e-11,-0.74956,0,0,0.1,-1.3915e-15,0,0.66667
0.36936,0.33561,3.6936,-0.24659,-28.264,427.83,2.4288,-0.8096,-1.7815,3.2384,-4.9585e-12,-0.89077,0,0,0.1,-4.737e-16,0,0.66667
0.36918,0.26958,3.6918,-0.34564,-39.645,428.15,3.4027,-1.1342,-1.5726,4.5369,-6.2446e-12,-0.7863,0,0,0.1,-0,-0,0.66667
0.70021,0.80624,7.0021,0.45936,31.051,112.76,-8.5772,2.8591,-1.2503,-11.436,-7.3985e-13,-0.62514,0,0,0.1,-0,-0,0.66667
0.4523,0.48638,4.523,-0.020432,-2.1551,334.7,0.24644,-0.082148,-2.0018,0.32859,-3.433e-12,-1.0009,0,0,0.1,4.737e-16,0,0.66667
0.81192,0.41743,8.1192,-0.12386,-5.5578,46.93,2.6817,-0.89391,-1.9493,3.5756,-8.5628e-11,-0.97464,0,0,0.1,-0,-0,0.66667
0.15461,0.13783,1.5461,-0.54326,-70.552,696.56,2.2398,-0.74661,-0.95252,2.9864,-1.4906e-10,-0.47626,0,0,0.1,2.3685e-16,-4.1146e-17,0.66667
0.58986,0.062843,5.8986,-0.65574,-56.921,200.56,10.314,-3.4381,-0.47155,13.753,1.4655e-13,-0.23578,0,0,0.1,1.8948e-15,0,0.66667
0.37357,0.91616,3.7357,0.62424,71.505,423.49,-6.2186,2.0729,-0.61687,-8.2914,-3.8831e-12,-0.30843,0,0,0.1,-0,-1.0258e-16,0.66667
0.24708,0.90333,2.4708,0.605,75.619,577.22,-3.9862,1.3287,-0.69962,-5.3149,2.0274e-10,-0.34981,0,0,0.1,1.7764e-16,0,0.66667
0.25433,0.54885,2.5433,0.073281,9.0965,567.66,-0.497,0.16567,-1.9793,-0.66267,6.5568e-12,-0.98963,0,0,0.1,-4.737e-16,0,0.66667
0.74375,0.974,7.4375,0.711,42.318,85.376,-14.101,4.7005,-0.2004,-18.802,-1.3542e-11,-0.1002,0,0,0.1,-0,-0,0.66667
0.32886,0.76158,3.2886,0.39237,46.491,475.94,-3.4409,1.147,-1.4561,-4.5879,-2.9932e-12,-0.72806,0,0,0.1,-0,-0,0.66667
0.22792,0.93173,2.2792,0.6476,81.765,601.63,-3.9359,1.312,-0.5065,-5.2479,1.8957e-10,-0.25325,0,0,0.1,-1.0189e-16,0,0.66667
0.90536,0.10871,9.0536,-0.58694,-13.98,14.293,14.17,-4.7235,-0.77822,18.894,-8.0594e-08,-0.38911,0,0,0.1,1.8948e-15,0,0.66667
0.41629,0.82019,4.1629,0.48029,52.775,374.59,-5.3317,1.7772,-1.1776,-7.109,-1.3731e-12,-0.58882,0,0,0.1,-0,-0,0.66667
0.5344,0.68411,5.344,0.27616,26.167,250.97,-3.9355,1.3118,-1.7295,-5.2473,-2.4527e-12,-0.86475,0,0,0.1,1.1842e-15,0,0.66667
0.37206,0.68099,3.7206,0.27149,31.05,424.72,-2.6936,0.89787,-1.7384,-3.5915,-5.385e-12,-0.8692,0,0,0.1,7.1054e-16,0,0.66667
0.23386,0.78922,2.3386,0.43383,54.512,593.81,-2.7054,0.90181,-1.335,-3.6072,1.921e-11,-0.66752,0,0,0.1,-0,-0,0.66667
0.10234,0.046824,1.0234,-0.67976,-89.615,765.83,1.8552,-0.6184,-0.35385,2.4736,2.6963e-07,-0.17693,0,0,0.1,-0,-0,0.66667
0.055182,0.11138,0.55182,-0.58293,-77.352,828.86,0.85779,-0.28593,-0.78859,1.1437,-1.0063e-06,-0.39429,0,0,0.1,-5.9212e-17,0,0.66667
0.87287,0.84851,8.7287,0.52276,16.439,23.497,-12.168,4.056,-1.0302,-16.224,2.2433e-09,-0.5151,0,0,0.1,-0,-0,0.66667
0.17297,0.49719,1.7297,-0.0042215,-0.54356,672.28,0.019472,-0.0064905,-2.0038,0.025962,5.458e-10,-1.0019,0,0,0.1,-3.5527e-16,0,0.66667
0.53895,0.14865,5.3895,-0.52702,-49.703,247.06,7.5744,-2.5248,-1.0096,10.099,-8.3666e-13,-0.5048,0,0,0.1,-4.737e-16,0,0.66667
0.97872,0.76989,9.7872,0.40483,2.105,1.6136,-10.566,3.5219,-1.4148,-14.088,-1.7941e-06,-0.70738,0,0,0.1,-9.4739e-16,0,0.66667
0.16733,0.61453,1.6733,0.1718,22.17,679.68,-0.76659,0.25553,-1.8934,-1.0221,-5.2823e-10,-0.94669,0,0,0.1,2.3685e-16,0,0.66667
0.59576,0.51283,5.9576,0.019248,1.6443,194.25,-0.30579,0.10193,-1.9999,-0.40772,-3.8919e-13,-0.99997,0,0,0.1,-0,-0,0.66667
0.75137,0.4879,7.5137,-0.018156,-1.0435,79.117,0.36377,-0.12126,-2.0012,0.48503,5.7614e-12,-1.0006,0,0,0.1,-9.4739e-16,0,0.66667
0.079887,0.045654,0.79887,-0.68152,-90.22,795.8,1.4519,-0.48395,-0.35017,1.9358,7.6162e-07,-0.17508,0,0,0.1,-0,-0,0.66667
0.45273,0.53329,4.5273,0.049934,5.2643,334.25,-0.60284,0.20095,-1.9965,-0.80379,2.0616e-12,-0.99824,0,0,0.1,-1.8948e-15,0,0.66667
0.79183,0.43959,7.9183,-0.090617,-4.4547,56.75,1.9134,-0.6378,-1.9698,2.5512,2.7397e-11,-0.98491,0,0,0.1,-0,-0,0.66667
0.72178,0.43784,7.2178,-0.093233,-5.9014,97.607,1.7945,-0.59817,-1.9705,2.3927,-1.4422e-13,-0.98525,0,0,0.1,1.8948e-15,0,0.66667
0.67856,0.73304,6.7856,0.34957,24.988,127.92,-6.3254,2.1085,-1.5624,-8.4339,-6.0618e-13,-0.78121,0,0,0.1,-0,-0,0.66667
0.76669,0.72132,7.6669,0.33197,18.089,70.615,-6.7872,2.2624,-1.6121,-9.0497,-2.6557e-11,-0.80607,0,0,0.1,-1.8948e-15,0,0.66667
0.5821,0.8082,5.821,0.4623,40.587,206.89,-7.1762,2.3921,-1.2397,-9.5683,-6.759e-13,-0.61983,0,0,0.1,1.4211e-15,0,0.66667
0.3749,0.9999,3.749,0.74985,85.928,422.24,-7.4964,2.4988,-0.0071288,-9.9953,-2.3102e-12,-0.0035644,0,0,0.1,-5.8865e-16,1.5095e-18,0.66667
0.44709,0.66049,4.4709,0.24073,25.556,340.43,-2.8702,0.95672,-1.792,-3.8269,-2.8124e-12,-0.896,0,0,0.1,-9.4739e-16,0,0.66667
0.28043,0.33445,2.8043,-0.24833,-30.377,535.06,1.857,-0.619,-1.7843,2.476,-6.2282e-12,-0.89213,0,0,0.1,-0,-0,0.66667
0.33926,0.57442,3.3926,0.11163,13.108,463.28,-1.0099,0.33665,-1.954,-1.3466,-6.8571e-12,-0.97699,0,0,0.1,-0,-0,0.66667
0.88017,0.72153,8.8017,0.3323,9.8268,20.512,-7.7994,2.5998,-1.6062,-10.399,1.1595e-08,-0.8031,0,0,0.1,-0,-0,0.66667
0.53635,0.94941,5.3635,0.67411,63.95,249.98,-9.6416,3.2139,-0.38205,-12.855,-5.5511e-13,-0.19102,0,0,0.1,9.4739e-16,0,0.66667
0.073744,0.57596,0.73744,0.11395,15.045,803.87,-0.22408,0.074692,-1.9522,-0.29877,-5.5876e-08,-0.97608,0,0,0.1,-0,-0,0.66667
0.67227,0.53905,6.7227,0.058574,4.2463,132.22,-1.0501,0.35002,-1.9923,-1.4001,-9.106e-13,-0.99614,0,0,0.1,-0,-0,0.66667
0.72976,0.45935,7.2976,-0.060976,-3.7651,92.444,1.1866,-0.39554,-1.9851,1.5821,1.9721e-12,-0.99256,0,0,0.1,-9.4739e-16,0,0.66667
0.39561,0.54769,3.9561,0.071529,8.0032,397.5,-0.7546,0.25153,-1.9796,-1.0061,-5.0376e-12,-0.9898,0,0,0.1,-0,-0,0.66667
0.34753,0.54108,3.4753,0.061626,7.1886,453.41,-0.57112,0.19037,-1.9856,-0.76149,-7.1623e-12,-0.99281,0,0,0.1,-0,-0,0.66667
0.10753,0.50883,1.0753,0.013243,1.7376,758.71,-0.037976,0.012659,-2.0012,-0.050634,-3.1604e-08,-1.0006,0,0,0.1,4.737e-16,0,0.66667
0.54663,0.89977,5.4663,0.59965,55.937,239.94,-8.741,2.9137,-0.72641,-11.655,-3.3484e-13,-0.36321,0,0,0.1,-9.4739e-16,-7.7861e-17,0.66667
0.26282,0.012239,2.6282,-0.73164,-90.793,557.6,5.1278,-1.7093,-0.09686,6.837,-2.152e-11,-0.04843,0,0,0.1,9.4739e-16,-1.1286e-16,0.66667
0.91802,0.83585,9.1802,0.50377,10.401,10.914,-12.332,4.1108,-1.0969,-16.443,2.3418e-08,-0.54844,0,0,0.1,-9.4739e-16,0,0.66667
0.85065,0.4232,8.5065,-0.1152,-4.18,30.428,2.6132,-0.87108,-1.9497,3.4843,-8.7087e-10,-0.97483,0,0,0.1,-9.4739e-16,0,0.66667
0.65361,0.49038,6.5361,-0.014427,-1.0934,146.42,0.25145,-0.083816,-1.9998,0.33526,-1.9823e-13,-0.9999,0,0,0.1,-0,-0,0.66667
0.87584,0.21553,8.7584,-0.42671,-13.083,22.172,9.9661,-3.322,-1.3569,13.288,-5.2618e-09,-0.67844,0,0,0.1,4.737e-16,0,0.66667
0.96891,0.19836,9.6891,-0.45247,-3.525,2.5974,11.691,-3.8969,-1.2768,15.588,1.3127e-06,-0.63839,0,0,0.1,-0,-0,0.66667
0.59079,0.73037,5.9079,0.34556,29.835,198.93,-5.4441,1.8147,-1.5754,-7.2588,8.0247e-13,-0.78769,0,0,0.1,-9.4739e-16,0,0.66667
0.98013,0.033586,9.8013,-0.69962,-3.6169,2.9366,18.286,-6.0953,-0.25927,24.381,3.2061e-05,-0.12963,0,0,0.1,-3.7896e-15,0,0.66667
0.54926,0.30971,5.4926,-0.28544,-26.434,236.77,4.1808,-1.3936,-1.7121,5.5745,-3.006e-12,-0.85605,0,0,0.1,1.1842e-16,0,0.66667
0.2936,0.073799,2.936,-0.6393,-77.791,519.22,5.0052,-1.6684,-0.54641,6.6736,3.2854e-12,-0.27321,0,0,0.1,-4.737e-16,4.8268e-17,0.66667
0.49124,0.8718,4.9124,0.55769,56.27,294.48,-7.3056,2.4352,-0.89206,-9.7408,4.4897e-12,-0.44603,0,0,0.1,-1.1842e-15,0,0.66667
0.40509,0.61358,4.0509,0.17038,18.895,386.8,-1.8405,0.61349,-1.8995,-2.454,-3.4514e-12,-0.94976,0,0,0.1,-4.737e-16,0,0.66667
0.59978,0.57004,5.9978,0.10506,8.9091,190.78,-1.6804,0.56013,-1.9584,-2.2405,-2.0239e-13,-0.97918,0,0,0.1,-0,-0,0.66667
0.4807,0.31034,4.807,-0.28449,-29.025,304.85,3.6468,-1.2156,-1.7125,4.8624,-1.4309e-12,-0.85625,0,0,0.1,-1.4211e-15,0,0.66667
0.2867,0.94749,2.867,0.67124,82.063,527.77,-5.1319,1.7106,-0.3957,-6.8425,-2.3013e-12,-0.19785,0,0,0.1,-0,-0,0.66667
0.62519,0.16494,6.2519,-0.50259,-40.658,169.92,8.3789,-2.793,-1.1067,11.172,2.7711e-13,-0.55335,0,0,0.1,-0,-0,0.66667
0.8054,0.1257,8.054,-0.56145,-26.156,51.102,12.058,-4.0195,-0.87754,16.078,6.4443e-10,-0.43877,0,0,0.1,-1.8948e-15,0,0.66667
0.078748,0.48361,0.78748,-0.024585,-3.2433,797.16,0.051627,-0.017209,-2.0015,0.068835,4.4565e-08,-1.0007,0,0,0.1,-0,-0,0.66667
0.42362,0.43576,4.2362,-0.096361,-10.487,366.03,1.0886,-0.36285,-1.97,1.4514,-2.4857e-12,-0.98498,0,0,0.1,-1.0066e-15,0,0.66667
0.645,0.31715,6.45,-0.27427,-21.217,153.39,4.7175,-1.5725,-1.7317,6.2901,-1.2257e-12,-0.86583,0,0,0.1,-0,-0,0.66667
0.0072838,0.8853,0.072838,0.57796,76.92,893.25,-0.11225,0.03741,-0.80929,-0.14968,-1.1765e-05,-0.40464,0,0,0.1,-0,-0,0.66667
0.87569,0.96509,8.7569,0.69764,21.634,23.406,-16.291,5.4304,-0.27399,-21.721,-1.6337e-07,-0.13699,0,0,0.1,4.737e-16,0,0.66667
0.69402,0.26173,6.9402,-0.3574,-24.54,116.83,6.6146,-2.2049,-1.5429,8.8194,-2.9949e-12,-0.77143,0,0,0.1,1.8948e-15,0,0.66667
0.74977,0.22196,7.4977,-0.41706,-24.18,80.648,8.3387,-2.7796,-1.387,11.118,2.2152e-11,-0.6935,0,0,0.1,-0,-0,0.66667
0.5233,0.5541,5.233,0.081157,7.811,261.62,-1.1325,0.3775,-1.9737,-1.51,-1.6785e-12,-0.98683,0,0,0.1,-4.737e-16,0,0.66667
0.97547,0.29674,9.7547,-0.30489,-1.8217,1.5465,7.931,-2.6437,-1.6664,10.575,9.1022e-07,-0.83318,0,0,0.1,1.8948e-15,0,0.66667
0.15309,0.88948,1.5309,0.58421,75.936,698.6,-2.3849,0.79498,-0.78608,-3.1799,3.905e-09,-0.39304,0,0,0.1,2.3685e-16,2.5412e-17,0.66667
0.95582,0.484,9.5582,-0.023994,-0.26248,3.1929,0.61158,-0.20386,-1.9982,0.81544,-6.242e-07,-0.99908,0,0,0.1,1.8948e-15,0,0.66667
0.9956,0.87184,9.956,0.55776,0.50778,1.4648,-14.808,4.936,-0.89326,-19.744,1.9267e-06,-0.44663,0,0,0.1,1.8948e-15,0,0.66667
0.078553,0.7022,0.78553,0.30331,40.043,797.45,-0.63535,0.21178,-1.6769,-0.84714,-8.6259e-08,-0.83845,0,0,0.1,-0,-0,0.66667
0.33688,0.25567,3.3688,-0.36649,-43.157,466.3,3.2924,-1.0975,-1.52,4.3899,-4.1604e-12,-0.75998,0,0,0.1,-9.4739e-16,0,0.66667
0.99274,0.98649,9.9274,0.72974,1.3842,2.5224,-19.318,6.4395,-0.10358,-25.758,4.3711e-05,-0.05179,0,0,0.1,-1.8948e-15,0,0.66667
0.42676,0.4349,4.2676,-0.097643,-10.592,362.56,1.1112,-0.3704,-1.9651,1.4816,-5.6057e-12,-0.98257,0,0,0.1,5.9212e-16,0,0.66667
0.82335,0.29932,8.2335,-0.30102,-12.78,41.992,6.6092,-2.2031,-1.6758,8.8122,-2.2833e-10,-0.83791,0,0,0.1,-0,-0,0.66667
0.28812,0.71248,2.8812,0.31872,38.816,525.58,-2.4488,0.81626,-1.6363,-3.265,-8.0913e-13,-0.81813,0,0,0.1,2.3685e-16,0,0.66667
0.51209,0.28474,5.1209,-0.32289,-31.608,272.93,4.4093,-1.4698,-1.6295,5.8791,3.0331e-13,-0.81475,0,0,0.1,-0,-0,0.66667
0.4661,0.86649,4.661,0.54973,57.225,320.61,-6.8328,2.2776,-0.92613,-9.1104,1.2013e-12,-0.46307,0,0,0.1,-0,-0,0.66667
0.33294,0.43147,3.3294,-0.1028,-12.129,470.83,0.91272,-0.30424,-1.961,1.217,-4.6679e-12,-0.98049,0,0,0.1,-0,-0,0.66667
0.52708,0.20816,5.2708,-0.43776,-41.984,258.34,6.153,-2.051,-1.3173,8.204,-1.823e-12,-0.65865,0,0,0.1,-0,-0,0.66667
0.080511,0.20781,0.80511,-0.43828,-57.89,794.87,0.94097,-0.31366,-1.3178,1.2546,7.0971e-08,-0.65891,0,0,0.1,-1.1842e-16,0,0.66667
0.2212,0.53078,2.212,0.046176,5.8287,609.81,-0.27237,0.09079,-1.9946,-0.36316,-8.4918e-13,-0.99729,0,0,0.1,8.8818e-17,0,0.66667
0.33596,0.6173,3.3596,0.17594,20.714,467.25,-1.5763,0.52542,-1.8871,-2.1017,-8.003e-12,-0.94355,0,0,0.1,2.3685e-16,0,0.66667
0.96887,0.9425,9.6887,0.66376,5.3396,3.6164,-17.149,5.7164,-0.43894,-22.866,-1.4485e-05,-0.21947,0,0,0.1,-0,-0,0.66667
0.44075,0.56262,4.4075,0.09393,10.037,347.21,-1.104,0.368,-1.9698,-1.472,-5.506e-12,-0.9849,0,0,0.1,1.8948e-15,0,0.66667
0.96131,0.79919,9.6131,0.44878,4.3722,3.3784,-11.504,3.8348,-1.2807,-15.339,5.6528e-07,-0.64034,0,0,0.1,-0,-0,0.66667
0.57362,0.43295,5.7362,-0.10057,-8.9397,214.02,1.5384,-0.5128,-1.9631,2.0512,-1.6427e-12,-0.98154,0,0,0.1,4.737e-16,0,0.66667
0.046616,0.072969,0.46616,-0.64055,-85.119,840.37,0.79625,-0.26541,-0.54566,1.0617,5.8559e-06,-0.27283,0,0,0.1,-0,-0,0.66667
0.65871,0.64037,6.5871,0.21056,15.78,142.6,-3.6986,1.2329,-1.8429,-4.9315,1.2943e-12,-0.92145,0,0,0.1,-0,-0,0.66667
0.014774,0.088352,0.14774,-0.61747,-82.196,883.17,0.24326,-0.081075,-0.64825,0.32435,1.6177e-05,-0.32412,0,0,0.1,-7.4015e-18,0,0.66667
0.74247,0.058514,7.4247,-0.66223,-39.537,85.932,13.112,-4.3705,-0.4384,17.482,1.775e-11,-0.2192,0,0,0.1,4.3963e-16,0,0.66667
0.4207,0.057161,4.207,-0.66426,-72.808,370.07,7.4522,-2.4841,-0.43449,9.9362,2.6064e-12,-0.21724,0,0,0.1,-7.1054e-16,6.7105e-17,0.66667
0.53388,0.85369,5.3388,0.53053,50.421,251.95,-7.5532,2.5177,-0.99975,-10.071,-2.6206e-12,-0.49987,0,0,0.1,-0,-0,0.66667
0.78883,0.89574,7.8883,0.59361,29.769,59.498,-12.487,4.1623,-0.74401,-16.649,-6.8506e-10,-0.37201,0,0,0.1,-0,-0,0.66667
0.9056,0.80456,9.056,0.45685,10.79,13.687,-11.032,3.6775,-1.2619,-14.71,3.5538e-08,-0.63094,0,0,0.1,-0,-0,0.66667
0.98688,0.4475,9.8688,-0.078753,-0.22832,0.44157,2.0725,-0.69084,-1.9786,2.7634,3.6005e-07,-0.98932,0,0,0.1,-0,-0,0.66667
0.80208,0.46438,8.0208,-0.053425,-2.5097,51.6,1.1427,-0.3809,-1.9884,1.5236,1.1682e-10,-0.99418,0,0,0.1,-1.4211e-15,0,0.66667
0.0025426,0.083103,0.025426,-0.62534,-83.268,899.63,0.042392,-0.014146,-0.61021,0.056516,-2.2164e-05,-0.3051,0,0,0.1,3.7007e-18,-5.2856e-16,0.66667
0.60009,0.70987,6.0009,0.31481,26.708,190.75,-5.0377,1.6792,-1.645,-6.7169,9.277e-13,-0.82248,0,0,0.1,-9.4739e-16,0,0.66667
0.28885,0.91693,2.8885,0.62539,76.317,525.05,-4.8171,1.6057,-0.60628,-6.4228,-7.3102e-12,-0.30314,0,0,0.1,4.737e-16,0,0.66667
0.70972,0.14026,7.0972,-0.53962,-35.557,106.51,10.213,-3.4042,-0.96159,13.617,4.3165e-12,-0.4808,0,0,0.1,-0,-0,0.66667
0.30554,0.87356,3.0554,0.56034,67.592,504.44,-4.5655,1.5218,-0.88186,-6.0874,-9.3401e-12,-0.44093,0,0,0.1,-5.3291e-16,0,0.66667
0.55587,0.94912,5.5587,0.67368,61.994,231.48,-9.9861,3.3287,-0.38333,-13.315,-2.0215e-12,-0.19167,0,0,0.1,-0,-0,0.66667
0.91807,0.86761,9.1807,0.55142,11.406,11.107,-13.5,4.4999,-0.91821,-18,3.5839e-08,-0.45911,0,0,0.1,9.4739e-16,0,0.66667
0.24787,0.50561,2.4787,0.0084075,1.0472,575.82,-0.055573,0.018524,-2.0015,-0.074097,-4.0797e-12,-1.0007,0,0,0.1,-0,-0,0.66667
0.11184,0.14628,1.1184,-0.53058,-69.704,753.11,1.5824,-0.52747,-0.99981,2.1099,7.713e-09,-0.49991,0,0,0.1,-0,-0,0.66667
0.51354,0.80635,5.1354,0.45953,44.945,271.73,-6.293,2.0977,-1.2509,-8.3907,-5.0591e-12,-0.62545,0,0,0.1,1.2515e-15,0,0.66667
0.91372,0.69013,9.1372,0.2852,6.1368,11.194,-6.9492,2.3164,-1.7087,-9.2656,5.0528e-08,-0.85435,0,0,0.1,-0,-0,0.66667
0.17924,0.021707,1.7924,-0.71744,-92.55,664.5,3.4291,-1.143,-0.16689,4.5722,-8.304e-10,-0.083446,0,0,0.1,4.737e-16,0,0.66667
0.25588,0.41531,2.5588,-0.12704,-15.758,565.72,0.86685,-0.28895,-1.9401,1.1558,-1.3281e-11,-0.97007,0,0,0.1,-0,-0,0.66667
0.033996,0.77354,0.33996,0.4103,54.476,857.29,-0.37196,0.12399,-1.402,-0.49595,3.9444e-07,-0.701,0,0,0.1,-2.9606e-17,0,0.66667
0.015372,0.36256,0.15372,-0.20617,-27.371,882.35,0.08451,-0.02817,-1.8533,0.11268,-2.1151e-08,-0.92664,0,0,0.1,-1.4803e-17,0,0.66667
0.54222,0.41705,5.4222,-0.12443,-11.642,243.3,1.7991,-0.5997,-1.9432,2.3988,2.0739e-13,-0.97158,0,0,0.1,-9.4739e-16,0,0.66667
0.85536,0.16426,8.5536,-0.50362,-17.859,29.563,11.487,-3.8291,-1.0973,15.316,-7.5266e-10,-0.54863,0,0,0.1,1.8948e-15,0,0.66667
0.44652,0.60834,4.4652,0.16251,17.258,340.99,-1.9351,0.64504,-1.903,-2.5801,1.3839e-12,-0.95151,0,0,0.1,-9.4739e-16,0,0.66667
0.23564,0.36975,2.3564,-0.19538,-24.498,591.39,1.2277,-0.40923,-1.8675,1.6369,-2.6338e-11,-0.93373,0,0,0.1,-0,-0,0.66667
0.93653,0.16722,9.3653,-0.49918,-8.0179,7.1932,12.467,-4.1555,-1.1172,16.622,-1.758e-07,-0.55858,0,0,0.1,-0,-0,0.66667
0.61921,0.32406,6.1921,-0.26391,-21.561,174.38,4.3577,-1.4526,-1.7497,5.8102,6.4171e-13,-0.87487,0,0,0.1,-0,-0,0.66667
0.86458,0.36069,8.6458,-0.20897,-6.923,25.435,4.8178,-1.6059,-1.8424,6.4237,-5.2221e-09,-0.92119,0,0,0.1,-0,-0,0.66667
0.12811,0.42107,1.2811,-0.11839,-15.459,731.36,0.40445,-0.13482,-1.9498,0.53927,5.1876e-09,-0.97492,0,0,0.1,-2.3685e-16,0,0.66667
0.44124,0.88525,4.4124,0.57787,61.912,347.32,-6.7995,2.2665,-0.8118,-9.066,-6.4837e-14,-0.4059,0,0,0.1,-0,-0,0.66667
0.85755,0.79179,8.5755,0.43768,15.273,28.518,-10.009,3.3363,-1.3206,-13.345,3.0372e-09,-0.66028,0,0,0.1,-0,-0,0.66667
0.89819,0.44224,8.9819,-0.086644,-2.1826,14.823,2.0753,-0.69176,-1.9709,2.767,-1.9191e-08,-0.98543,0,0,0.1,-0,-0,0.66667
0.87726,0.8731,8.7726,0.55965,17.048,22.224,-13.092,4.3641,-0.8885,-17.456,2.0989e-08,-0.44425,0,0,0.1,-2.3685e-16,0,0.66667
0.62547,0.15694,6.2547,-0.51459,-41.611,169.72,8.583,-2.861,-1.0639,11.444,-7.5584e-13,-0.53197,0,0,0.1,-0,-0,0.66667
0.75811,0.024344,7.5811,-0.71348,-40.417,76.865,14.424,-4.808,-0.18727,19.232,-3.4881e-11,-0.093637,0,0,0.1,9.4739e-16,0,0.66667
0.6755,0.68234,6.755,0.27351,19.69,130.04,-4.9269,1.6423,-1.7338,-6.5692,3.4728e-13,-0.86692,0,0,0.1,-9.4739e-16,0,0.66667
0.84516,0.259,8.4516,-0.3615,-13.609,33,8.1474,-2.7158,-1.5378,10.863,-1.567e-09,-0.76892,0,0,0.1,-0,-0,0.66667
0.63245,0.49056,6.3245,-0.014166,-1.125,163.27,0.23892,-0.079639,-1.9963,0.31856,2.9989e-12,-0.99814,0,0,0.1,-1.4211e-15,0,0.66667
0.17189,0.57356,1.7189,0.11033,14.214,673.7,-0.50574,0.16858,-1.9617,-0.67432,-3.7839e-10,-0.98084,0,0,0.1,-4.737e-16,0,0.66667
0.65052,0.90597,6.5052,0.60895,46.713,149.9,-10.564,3.5212,-0.68047,-14.085,-5.7021e-13,-0.34023,0,0,0.1,-7.4015e-17,0,0.66667
0.45534,0.8052,4.5534,0.4578,48.217,331.87,-5.5588,1.8529,-1.2562,-7.4117,-1.7204e-12,-0.62811,0,0,0.1,4.737e-16,0,0.66667
0.058851,0.69431,0.58851,0.29147,38.583,823.87,-0.45741,0.15247,-1.6975,-0.60988,-6.0414e-08,-0.84876,0,0,0.1,-1.1842e-16,0,0.66667
0.53586,0.73053,5.3586,0.3458,32.708,249.65,-4.9414,1.6471,-1.573,-6.5885,-2.7356e-13,-0.78651,0,0,0.1,-0,-0,0.66667
0.43929,0.37989,4.3929,-0.18017,-19.287,348.85,2.1105,-0.70351,-1.8869,2.8141,8.3933e-13,-0.94347,0,0,0.1,-9.4739e-16,0,0.66667
0.87473,0.45892,8.7473,-0.061626,-1.894,21.84,1.4375,-0.47916,-1.991,1.9166,-5.336e-09,-0.99551,0,0,0.1,-0,-0,0.66667
0.66072,0.46659,6.6072,-0.050122,-3.7363,140.93,0.88311,-0.29437,-1.9905,1.1775,-9.5368e-13,-0.99527,0,0,0.1,-1.0658e-15,0,0.66667
0.26079,0.53682,2.6079,0.055233,6.8315,559.53,-0.38411,0.12804,-1.9878,-0.51215,3.4995e-12,-0.99388,0,0,0.1,-0,-0,0.66667
0.21677,0.18658,2.1677,-0.47012,-59.571,615.7,2.7175,-0.90584,-1.2169,3.6234,8.3536e-11,-0.60846,0,0,0.1,5.9212e-16,0,0.66667
0.097323,0.65904,0.97323,0.23855,31.381,772.35,-0.61912,0.20637,-1.7979,-0.82549,-3.528e-08,-0.89896,0,0,0.1,-0,-0,0.66667
0.46914,0.55838,4.6914,0.087563,9.055,316.79,-1.0955,0.36515,-1.9777,-1.4606,6.7124e-13,-0.98886,0,0,0.1,-2.3685e-16,0,0.66667
0.3498,0.79795,3.498,0.44692,52.13,451.03,-4.1689,1.3896,-1.287,-5.5585,-7.2564e-13,-0.64348,0,0,0.1,-8.8794e-16,0,0.66667
0.57735,0.45172,5.7735,-0.07242,-6.3955,210.62,1.115,-0.37166,-1.9847,1.4866,-1.086e-12,-0.99234,0,0,0.1,-0,-0,0.66667
0.056942,0.55061,0.56942,0.075913,10.045,826.41,-0.11527,0.038423,-1.977,-0.15369,-3.5039e-08,-0.9885,0,0,0.1,5.9212e-17,0,0.66667
0.24992,0.80474,2.4992,0.45711,56.974,573.46,-3.0464,1.0155,-1.2622,-4.0619,2.184e-12,-0.63109,0,0,0.1,-0,-0,0.66667
0.51229,0.63404,5.1229,0.20106,19.663,272.59,-2.7467,0.91556,-1.856,-3.6622,-3.5676e-12,-0.92799,0,0,0.1,-0,-0,0.66667
0.37596,0.96171,3.7596,0.69256,79.23,420.87,-6.9433,2.3144,-0.29809,-9.2578,-1.0916e-12,-0.14904,0,0,0.1,7.1054e-16,0,0.66667
0.6269,0.60129,6.269,0.15194,12.212,167.87,-2.54,0.84667,-1.9198,-3.3867,-7.2564e-13,-0.95988,0,0,0.1,-0,-0,0.66667
0.37322,0.20451,3.7322,-0.44324,-50.698,423.57,4.4113,-1.4704,-1.3031,5.8818,-5.9366e-12,-0.65153,0,0,0.1,-4.737e-16,0,0.66667
0.46031,0.28821,4.6031,-0.31768,-33.23,326.34,3.8995,-1.2998,-1.6385,5.1994,-5.1417e-12,-0.81923,0,0,0.1,-0,-0,0.66667
0.23422,0.70824,2.3422,0.31236,39.213,593.26,-1.9509,0.65031,-1.6578,-2.6013,2.5872e-11,-0.8289,0,0,0.1,-2.3685e-16,0,0.66667
0.29959,0.60307,2.9959,0.15461,18.678,511.34,-1.2352,0.41173,-1.9155,-1.6469,1.1912e-12,-0.95773,0,0,0.1,-0,-0,0.66667
0.11528,0.094586,1.1528,-0.60812,-79.884,748.58,1.8695,-0.62317,-0.68385,2.4927,-1.3001e-08,-0.34192,0,0,0.1,-0,-0,0.66667
0.77244,0.28268,7.7244,-0.32598,-17.376,67.396,6.7147,-2.2382,-1.6204,8.9529,2.9696e-11,-0.81022,0,0,0.1,-0,-0,0.66667
0.79388,0.78427,7.9388,0.4264,20.853,56.315,-9.027,3.009,-1.3545,-12.036,-4.697e-11,-0.67723,0,0,0.1,-1.8948e-15,0,0.66667
0.043936,0.23636,0.43936,-0.39546,-52.46,843.92,0.46333,-0.15444,-1.4439,0.61777,3.1664e-07,-0.72193,0,0,0.1,-0,-0,0.66667
0.16096,0.63162,1.6096,0.19743,25.534,688.04,-0.84741,0.28247,-1.86,-1.1299,-9.9307e-10,-0.92999,0,0,0.1,-4.737e-16,0,0.66667
0.80286,0.88437,8.0286,0.57656,27.185,52.394,-12.344,4.1146,-0.81549,-16.459,3.11e-10,-0.40774,0,0,0.1,-1.8948e-15,0,0.66667
0.91048,0.99515,9.1048,0.74272,16.929,13.867,-18.033,6.0109,-0.037883,-24.044,2.2728e-07,-0.018941,0,0,0.1,4.737e-16,0,0.66667
0.36919,0.63703,3.6919,0.20554,23.559,428,-2.0236,0.67452,-1.8471,-2.6981,-4.976e-12,-0.92357,0,0,0.1,-0,-0,0.66667
0.67531,0.033632,6.7531,-0.69955,-50.684,131.42,12.598,-4.1992,-0.26051,16.797,1.5863e-12,-0.13025,0,0,0.1,-0,-0,0.66667
0.18999,0.32843,1.8999,-0.25735,-32.943,650.14,1.3039,-0.43462,-1.765,1.7385,3.2961e-11,-0.8825,0,0,0.1,2.3685e-16,0,0.66667
0.87123,0.85711,8.7123,0.53567,17.056,24.094,-12.445,4.1484,-0.9787,-16.593,4.1073e-09,-0.48935,0,0,0.1,-0,-0,0.66667
0.82471,0.78802,8.2471,0.43203,18.257,41.744,-9.5013,3.1671,-1.3362,-12.668,1.8748e-10,-0.6681,0,0,0.1,1.8948e-15,0,0.66667
0.25001,0.37891,2.5001,-0.18163,-22.604,573.14,1.2109,-0.40365,-1.8885,1.6146,-1.7869e-11,-0.94425,0,0,0.1,-9.4739e-16,0,0.66667
0.59285,0.94613,5.9285,0.66919,57.786,197.98,-10.579,3.5265,-0.41118,-14.106,7.4785e-13,-0.20559,0,0,0.1,-0,-0,0.66667
0.73576,0.090402,7.3576,-0.6144,-37.455,89.873,12.055,-4.0182,-0.66111,16.073,-6.533e-11,-0.33056,0,0,0.1,2.3685e-16,0,0.66667
0.88384,0.16515,8.8384,-0.50228,-14.493,19.93,11.838,-3.9461,-1.1002,15.784,4.2274e-09,-0.55008,0,0,0.1,-0,-0,0.66667
0.46773,0.82289,4.6773,0.48433,50.285,318.76,-6.0409,2.0136,-1.169,-8.0546,-1.4864e-12,-0.5845,0,0,0.1,-0,-0,0.66667
0.13462,0.68661,1.3462,0.27991,36.505,722.78,-1.0048,0.33495,-1.7201,-1.3398,-5.9387e-09,-0.86005,0,0,0.1,-2.5165e-16,0,0.66667
0.1094,0.23772,1.094,-0.39342,-51.662,756.3,1.1477,-0.38256,-1.4546,1.5303,2.4976e-08,-0.72728,0,0,0.1,-0,-0,0.66667
0.52968,0.01156,5.2968,-0.73266,-70.261,256.63,10.349,-3.4495,-0.093439,13.798,-5.6399e-13,-0.04672,0,0,0.1,-0,1.1041e-16,0.66667
0.049289,0.51906,0.49289,0.028594,3.7866,836.69,-0.037583,0.012528,-1.9978,-0.050111,-3.3005e-08,-0.99889,0,0,0.1,-0,-0,0.66667
0.6209,0.66251,6.209,0.24377,19.845,172.95,-4.0362,1.3454,-1.7879,-5.3815,-2.3421e-12,-0.89394,0,0,0.1,-0,-0,0.66667
0.033328,0.056907,0.33328,-0.66464,-88.437,858.23,0.59071,-0.1969,-0.43118,0.78761,-2.4242e-06,-0.21559,0,0,0.1,-7.4015e-17,0,0.66667
0.021184,0.32907,0.21184,-0.2564,-34.04,874.52,0.14484,-0.048281,-1.7637,0.19312,-5.3262e-07,-0.88183,0,0,0.1,-0,-0,0.66667
0.075209,0.42609,0.75209,-0.11087,-14.635,801.9,0.22235,-0.074117,-1.9563,0.29647,5.7129e-08,-0.97817,0,0,0.1,1.1842e-16,0,0.66667
0.36803,0.49041,3.6803,-0.01438,-1.6493,429.29,0.14113,-0.047043,-1.9963,0.18817,-5.9563e-12,-0.99817,0,0,0.1,-0,-0,0.66667
0.38175,0.093219,3.8175,-0.61017,-69.379,414,6.2116,-2.0705,-0.67469,8.2821,-7.4412e-12,-0.33735,0,0,0.1,1.4803e-16,0,0.66667
0.76697,0.43912,7.6697,-0.091327,-4.9614,70.109,1.8679,-0.62262,-1.974,2.4905,-7.0359e-12,-0.98701,0,0,0.1,-0,-0,0.66667
0.84595,0.37439,8.4595,-0.18842,-7.0411,32.334,4.2504,-1.4168,-1.8763,5.6672,-1.0136e-09,-0.93814,0,0,0.1,-5.3291e-16,0,0.66667
0.7272,0.097796,7.272,-0.60331,-37.778,95.244,11.699,-3.8998,-0.70357,15.599,1.9448e-11,-0.35178,0,0,0.1,-0,-0,0.66667
0.88443,0.38569,8.8443,-0.17147,-4.8842,18.874,4.0441,-1.348,-1.8927,5.3922,-1.2367e-08,-0.94635,0,0,0.1,-0,-0,0.66667
0.5749,0.039434,5.749,-0.69085,-61.607,214.04,10.591,-3.5304,-0.30295,14.122,-1.5419e-12,-0.15147,0,0,0.1,-0,-9.157e-17,0.66667
0.93988,0.11588,9.3988,-0.57618,-8.8212,6.9603,14.441,-4.8137,-0.82056,19.255,6.3673e-07,-0.41028,0,0,0.1,9.4739e-16,0,0.66667
0.90679,0.31882,9.0679,-0.27176,-6.3024,12.842,6.5715,-2.1905,-1.7418,8.762,-4.2057e-08,-0.87089,0,0,0.1,1.8948e-15,0,0.66667
0.44844,0.65083,4.4844,0.22625,23.98,338.97,-2.7055,0.90184,-1.8168,-3.6073,-2.8995e-12,-0.90838,0,0,0.1,-0,-0,0.66667
0.47973,0.64494,4.7973,0.21741,22.201,305.79,-2.7813,0.9271,-1.8301,-3.7084,-4.2899e-13,-0.91506,0,0,0.1,-0,-0,0.66667
0.85666,0.2846,8.5666,-0.3231,-11.312,28.515,7.381,-2.4603,-1.6301,9.8413,-3.2768e-09,-0.81503,0,0,0.1,-0,-0,0.66667
0.39841,0.34605,3.9841,-0.23092,-25.78,394.4,2.4533,-0.81777,-1.8084,3.2711,2.5164e-12,-0.90418,0,0,0.1,-0,-0,0.66667
0.942,0.66282,9.42,0.24423,3.5404,5.4699,-6.1349,2.045,-1.7867,-8.1799,3.5267e-08,-0.89334,0,0,0.1,1.8948e-15,0,0.66667
0.29331,0.63861,2.9331,0.20792,25.225,519.09,-1.6263,0.54208,-1.8454,-2.1683,5.197e-13,-0.92272,0,0,0.1,-0,-0,0.66667
0.25901,0.26035,2.5901,-0.35948,-44.553,561.91,2.4829,-0.82762,-1.5376,3.3105,-1.2017e-11,-0.76882,0,0,0.1,-0,-0,0.66667
0.10893,0.16492,1.0893,-0.50262,-66.06,756.97,1.46,-0.48666,-1.106,1.9467,2.6563e-08,-0.55302,0,0,0.1,-0,-0,0.66667
0.24704,0.2299,2.4704,-0.40515,-50.556,577.05,2.6691,-0.88968,-1.4164,3.5587,-2.6005e-11,-0.70819,0,0,0.1,-0,-0,0.66667
0.53775,0.05872,5.3775,-0.66192,-62.649,248.59,9.492,-3.164,-0.4401,12.656,2.6334e-12,-0.22005,0,0,0.1,-1.1842e-15,0,0.66667
0.98024,0.80962,9.8024,0.46443,2.2563,1.737,-12.14,4.0467,-1.2327,-16.187,-2.4971e-06,-0.61637,0,0,0.1,-2.1316e-15,0,0.66667
0.20773,0.99949,2.0773,0.74924,95.586,627.64,-4.1504,1.3835,-0.003765,-5.5338,-1.0535e-11,-0.0018825,0,0,0.1,9.0298e-16,0,0.66667
0.54702,0.60911,5.4702,0.16367,15.201,238.76,-2.3874,0.79581,-1.9093,-3.1832,-1.6076e-13,-0.95466,0,0,0.1,-9.4739e-16,0,0.66667
0.87839,0.96393,8.7839,0.6959,21.139,22.532,-16.301,5.4335,-0.27827,-21.734,-2.2537e-07,-0.13914,0,0,0.1,1.4211e-15,0,0.66667
0.58966,0.79035,5.8966,0.43552,37.71,200.11,-6.8483,2.2828,-1.3245,-9.131,1.7941e-13,-0.66223,0,0,0.1,-0,-0,0.66667
0.83528,0.30487,8.3528,-0.29269,-11.653,36.844,6.5195,-2.1732,-1.6926,8.6926,-7.9649e-10,-0.84631,0,0,0.1,-0,-0,0.66667
0.23929,0.53627,2.3929,0.054402,6.8067,586.71,-0.34713,0.11571,-1.9881,-0.46285,-1.0765e-11,-0.99405,0,0,0.1,-0,-0,0.66667
0.07308,0.85908,0.7308,0.53862,71.281,804.85,-1.0497,0.34989,-0.96622,-1.3996,-1.1475e-07,-0.48311,0,0,0.1,-0,-0,0.66667
0.95297,0.91679,9.5297,0.62519,7.5455,5.225,-15.888,5.2958,-0.61499,-21.183,4.2953e-06,-0.30749,0,0,0.1,1.8948e-15,1.0588e-16,0.66667
0.11233,0.57609,1.1233,0.11413,14.961,752.33,-0.34188,0.11396,-1.9536,-0.45584,-9.8322e-09,-0.97679,0,0,0.1,-0,-0,0.66667
0.8024,0.95493,8.024,0.68239,32.337,53.093,-14.601,4.8671,-0.34176,-19.468,-1.5983e-09,-0.17088,0,0,0.1,-0,-0,0.66667
0.65102,0.20137,6.5102,-0.44795,-34.245,149.02,7.7766,-2.5922,-1.2842,10.369,4.5608e-13,-0.64208,0,0,0.1,-9.4739e-16,0,0.66667
0.86511,0.54174,8.6511,0.062611,2.0639,25.094,-1.4444,0.48147,-1.9835,-1.9259,-3.3868e-10,-0.99177,0,0,0.1,-0,-0,0.66667
0.62975,0.28445,6.2975,-0.32333,-25.86,165.76,5.4298,-1.8099,-1.6273,7.2397,-1.191e-12,-0.81367,0,0,0.1,-0,-0,0.66667
0.29818,0.96827,2.9818,0.7024,85.276,513.7,-5.5851,1.8617,-0.24979,-7.4468,3.165e-12,-0.12489,0,0,0.1,1.4803e-17,0,0.66667
0.93148,0.26834,9.3148,-0.3475,-5.9725,7.5873,8.6316,-2.8772,-1.5679,11.509,-1.4743e-07,-0.78393,0,0,0.1,-0,-0,0.66667
0.6923,0.4791,6.923,-0.031351,-2.1584,117.65,0.57878,-0.19293,-1.9946,0.7717,-1.4899e-13,-0.99731,0,0,0.1,-0,-0,0.66667
0.87664,0.56446,8.7664,0.096688,2.9291,21.241,-2.2603,0.75342,-1.9699,-3.0137,3.957e-11,-0.98494,0,0,0.1,-0,-0,0.66667
0.81549,0.062906,8.1549,-0.65564,-29.193,46.771,14.258,-4.7526,-0.47303,19.01,-9.1427e-09,-0.23651,0,0,0.1,-0,-0,0.66667
0.136,0.45519,1.36,-0.067214,-8.7572,720.91,0.24377,-0.081256,-1.982,0.32502,5.0575e-10,-0.99102,0,0,0.1,2.3685e-16,0,0.66667
0.69941,0.6629,6.9941,0.24435,16.515,112.84,-4.5574,1.5191,-1.7872,-6.0766,-4.1767e-12,-0.89361,0,0,0.1,1.8948e-15,0,0.66667
0.68101,0.63531,6.8101,0.20296,14.401,125.89,-3.6858,1.2286,-1.8507,-4.9144,-7.585e-13,-0.92534,0,0,0.1,-0,-0,0.66667
0.7558,0.78704,7.558,0.43056,24.447,77.124,-8.6778,2.8926,-1.3388,-11.57,-2.5795e-11,-0.6694,0,0,0.1,-0,-0,0.66667
0.79965,0.40427,7.9965,-0.14359,-6.8223,52.857,3.0619,-1.0206,-1.9281,4.0825,8.9649e-11,-0.96405,0,0,0.1,1.1842e-15,0,0.66667
0.94145,0.19147,9.4145,-0.4628,-6.8475,6.2078,11.619,-3.8729,-1.2381,15.491,-7.7486e-08,-0.61907,0,0,0.1,-0,-0,0.66667
0.065147,0.88475,0.65147,0.57712,76.486,815.49,-1.0026,0.33421,-0.81626,-1.3368,-6.4841e-08,-0.40813,0,0,0.1,-0,-0,0.66667
0.50862,0.23227,5.0862,-0.40159,-39.527,276.54,5.4468,-1.8156,-1.4234,7.2624,-2.3896e-12,-0.7117,0,0,0.1,-0,-0,0.66667
0.49966,0.59384,4.9966,0.14076,14.004,285.25,-1.8756,0.62519,-1.9354,-2.5008,-1.3965e-12,-0.9677,0,0,0.1,-1.8948e-15,0,0.66667
0.70076,0.70143,7.0076,0.30215,20.355,112,-5.6462,1.8821,-1.6761,-7.5283,-2.2671e-12,-0.83805,0,0,0.1,-0,-0,0.66667
0.9956,0.22599,9.956,-0.41102,-0.31306,0.83563,10.912,-3.6375,-1.3981,14.55,-1.8445e-06,-0.69905,0,0,0.1,-0,-6.9935e-17,0.66667
0.90798,0.076073,9.0798,-0.63589,-14.781,13.879,15.397,-5.1322,-0.56396,20.529,-2.1228e-07,-0.28198,0,0,0.1,1.8948e-15,0,0.66667
0.29689,0.17247,2.9689,-0.49129,-59.568,514.95,3.8895,-1.2965,-1.1466,5.186,-2.1469e-12,-0.57332,0,0,0.1,-0,-0,0.66667
0.33575,0.44506,3.3575,-0.082416,-9.7025,467.46,0.73791,-0.24597,-1.973,0.98387,-2.7298e-12,-0.98651,0,0,0.1,-0,-0,0.66667
0.82017,0.48657,8.2017,-0.020145,-0.86742,43.082,0.44059,-0.14686,-1.9953,0.58745,1.4898e-10,-0.99766,0,0,0.1,-1.8948e-15,0,0.66667
0.36161,0.93164,3.6161,0.64746,74.943,437.47,-6.2435,2.0812,-0.51101,-8.3247,-4.325e-12,-0.25551,0,0,0.1,4.737e-16,0,0.66667
0.32537,0.59323,3.2537,0.13985,16.593,479.95,-1.2134,0.40447,-1.9322,-1.6179,-3.8552e-12,-0.9661,0,0,0.1,-5.6251e-16,0,0.66667
0.4447,0.12857,4.447,-0.55714,-59.449,343.52,6.607,-2.2023,-0.89413,8.8093,-3.8698e-12,-0.44707,0,0,0.1,-0,-0,0.66667
0.27712,0.74117,2.7712,0.36175,44.367,539.25,-2.6733,0.8911,-1.5336,-3.5644,-2.1636e-12,-0.76678,0,0,0.1,2.3685e-16,0,0.66667
0.74901,0.10613,7.4901,-0.59081,-34.451,81.688,11.801,-3.9335,-0.76189,15.734,2.5207e-11,-0.38095,0,0,0.1,-0,1.133e-16,0.66667
0.45268,0.27907,4.5268,-0.33139,-34.975,334.52,4.0003,-1.3334,-1.6147,5.3337,-1.5445e-12,-0.80737,0,0,0.1,-9.4739e-16,0,0.66667
0.16392,0.69707,1.6392,0.29561,38.21,684.19,-1.2922,0.43073,-1.6863,-1.7229,-8.4596e-10,-0.84314,0,0,0.1,-0,-0,0.66667
0.99046,0.051395,9.9046,-0.67291,-1.627,2.2493,17.773,-5.9244,-0.38729,23.697,-5.9956e-05,-0.19365,0,0,0.1,-0,-0,0.66667
0.338,0.93037,3.38,0.64555,76.143,465.39,-5.8185,1.9395,-0.51605,-7.7581,-2.3785e-12,-0.25802,0,0,0.1,-0,-0,0.66667
0.30176,0.57693,3.0176,0.1154,13.92,508.66,-0.92863,0.30954,-1.9505,-1.2382,7.61e-13,-0.97526,0,0,0.1,4.737e-16,0,0.66667
0.22533,0.64868,2.2533,0.22302,28.108,604.56,-1.3401,0.44669,-1.8205,-1.7868,2.7125e-11,-0.91026,0,0,0.1,2.3685e-16,0,0.66667
0.42574,0.23449,4.2574,-0.39826,-43.309,363.96,4.5215,-1.5072,-1.4348,6.0287,1.3816e-12,-0.71742,0,0,0.1,-9.4739e-16,0,0.66667
0.69512,0.84104,6.9512,0.51156,35.091,116.47,-9.4826,3.1609,-1.0674,-12.644,-4.1274e-12,-0.53371,0,0,0.1,4.4264e-16,0,0.66667
0.60241,0.003976,6.0241,-0.74404,-63.197,189.95,11.952,-3.9841,-0.029444,15.936,2.6494e-12,-0.014722,0,0,0.1,-0,-0,0.66667
0.18146,0.58104,1.8146,0.12157,15.606,661.2,-0.58826,0.19609,-1.9447,-0.78434,-9.9219e-11,-0.97233,0,0,0.1,-2.1489e-16,0,0.66667
0.26456,0.74613,2.6456,0.36919,45.617,554.95,-2.6046,0.86821,-1.5191,-3.4728,6.6904e-12,-0.75956,0,0,0.1,-1.5852e-16,0,0.66667
0.59825,0.35817,5.9825,-0.21275,-18.1,192.2,3.394,-1.1313,-1.8373,4.5254,-3.2758e-12,-0.91863,0,0,0.1,9.4739e-16,0,0.66667
0.85805,0.25402,8.5805,-0.36897,-12.812,28.126,8.4424,-2.8141,-1.5192,11.257,-3.3467e-09,-0.75961,0,0,0.1,1.8948e-15,0,0.66667
0.41292,0.66773,4.1292,0.2516,27.696,378.06,-2.7704,0.92345,-1.7719,-3.6938,-2.9055e-12,-0.88597,0,0,0.1,-0,-0,0.66667
0.21585,0.56912,2.1585,0.10368,13.121,616.68,-0.59679,0.19893,-1.9623,-0.79572,5.206e-11,-0.98114,0,0,0.1,-0,-0,0.66667
0.32339,0.9004,3.2339,0.6006,71.58,482.84,-5.1794,1.7265,-0.71608,-6.9059,1.4238e-12,-0.35804,0,0,0.1,1.9148e-16,0,0.66667
0.69169,0.52444,6.9169,0.036663,2.5283,118.09,-0.67626,0.22542,-1.9942,-0.90168,1.0562e-12,-0.99712,0,0,0.1,-9.4739e-16,0,0.66667
0.70095,0.91847,7.0095,0.62771,42.463,112.82,-11.733,3.911,-0.60008,-15.644,2.3652e-12,-0.30004,0,0,0.1,-0,-0,0.66667
0.22335,0.13333,2.2335,-0.55001,-69.528,607.34,3.2759,-1.092,-0.92287,4.3678,-1.071e-10,-0.46144,0,0,0.1,-0,-0,0.66667
0.3965,0.12683,3.965,-0.55976,-62.756,397.03,5.9184,-1.9728,-0.8845,7.8912,-8.0069e-13,-0.44225,0,0,0.1,-9.4739e-16,0,0.66667
0.69933,0.048643,6.9933,-0.67703,-46.05,114.14,12.626,-4.2086,-0.36911,16.835,-2.0055e-12,-0.18455,0,0,0.1,-0,1.5359e-16,0.66667
0.72057,0.2263,7.2057,-0.41056,-26.15,98.906,7.889,-2.6297,-1.4026,10.519,5.4063e-12,-0.70132,0,0,0.1,-0,-0,0.66667
0.13052,0.82631,1.3052,0.48946,63.985,728.31,-1.7035,0.56784,-1.1456,-2.2714,-7.8624e-09,-0.57282,0,0,0.1,-0,-0,0.66667
0.60937,0.96806,6.0937,0.70209,58.8,183.83,-11.409,3.803,-0.25376,-15.212,-1.3731e-12,-0.12688,0,0,0.1,1.0658e-15,0,0.66667
0.88607,0.62622,8.8607,0.18934,5.3214,18.406,-4.4737,1.4912,-1.8721,-5.965,1.3725e-08,-0.93606,0,0,0.1,-0,-0,0.66667
0.58236,0.70985,5.8236,0.31477,27.585,206.36,-4.8883,1.6294,-1.6464,-6.5177,-1.0676e-12,-0.82322,0,0,0.1,4.737e-16,0,0.66667
0.30721,0.081108,3.0721,-0.62834,-75.762,502.52,5.1475,-1.7158,-0.59386,6.8633,-1.214e-11,-0.29693,0,0,0.1,-0,-0,0.66667
0.74514,0.96178,7.4514,0.69267,41.018,84.447,-13.764,4.5879,-0.29246,-18.352,-8.5558e-12,-0.14623,0,0,0.1,-1.4211e-15,7.1502e-17,0.66667
0.9777,0.55144,9.777,0.077155,0.40923,1.0002,-2.0116,0.67053,-1.9759,-2.6821,7.0092e-08,-0.98793,0,0,0.1,9.4739e-16,0,0.66667
0.90462,0.7658,9.0462,0.3987,9.4899,13.734,-9.6179,3.206,-1.4366,-12.824,4.0417e-08,-0.71832,0,0,0.1,-0,-0,0.66667
0.8716,0.55652,8.716,0.084787,2.6679,22.887,-1.9707,0.6569,-1.9744,-2.6276,3.1192e-09,-0.9872,0,0,0.1,-4.737e-16,0,0.66667
0.00029225,0.37539,0.0029225,-0.18692,-24.821,902.66,0.0014565,-0.00048525,-1.8817,0.0019421,3.7554e-07,-0.94083,0,0,0.1,-9.2519e-19,0,0.66667
0.58262,0.84825,5.8262,0.52237,45.851,206.58,-8.1158,2.7053,-1.0288,-10.821,1.6298e-12,-0.51442,0,0,0.1,-0,-0,0.66667
0.26272,0.06977,2.6272,-0.64535,-80.009,557.59,4.5212,-1.5071,-0.51963,6.0283,2.5602e-12,-0.25982,0,0,0.1,-0,9.0969e-17,0.66667
0.81301,0.72228,8.1301,0.33342,14.915,46.767,-7.2285,2.4095,-1.6096,-9.638,4.8866e-11,-0.8048,0,0,0.1,-1.8948e-15,0,0.66667
0.52348,0.22613,5.2348,-0.4108,-39.596,261.82,5.7346,-1.9115,-1.3972,7.6461,-2.0624e-12,-0.69858,0,0,0.1,-0,-0,0.66667
0.8939,0.33131,8.939,-0.25303,-6.6484,16.236,6.0315,-2.0105,-1.7719,8.042,-2.554e-08,-0.88595,0,0,0.1,-0,-0,0.66667
0.52374,0.36309,5.2374,-0.20536,-19.76,261.26,2.8682,-0.95608,-1.8469,3.8243,-2.6708e-12,-0.92344,0,0,0.1,-0,-0,0.66667
0.89114,0.12556,8.9114,-0.56165,-15.274,18.02,13.347,-4.449,-0.8838,17.796,3.1345e-08,-0.4419,0,0,0.1,-3.7896e-15,0,0.66667
0.44972,0.2729,4.4972,-0.34065,-36.076,337.71,4.0853,-1.3618,-1.5871,5.4471,-2.371e-12,-0.79354,0,0,0.1,-4.737e-16,0,0.66667
0.5615,0.42539,5.615,-0.11191,-10.153,225.15,1.6757,-0.55857,-1.9585,2.2343,1.7963e-13,-0.97923,0,0,0.1,-9.4739e-16,0,0.66667
0.81248,0.84382,8.1248,0.51573,23.212,47.569,-11.174,3.7247,-1.0608,-14.899,-4.706e-10,-0.53041,0,0,0.1,3.7896e-15,0,0.66667
0.40317,0.14155,4.0317,-0.53767,-59.884,389.43,5.7806,-1.9269,-0.97184,7.7075,-2.6912e-13,-0.48592,0,0,0.1,-4.737e-16,0,0.66667
0.56867,0.74954,5.6867,0.37432,33.605,218.86,-5.6763,1.8921,-1.5005,-7.5684,1.2035e-13,-0.75025,0,0,0.1,-5.9212e-17,0,0.66667
0.89846,0.012079,8.9846,-0.73188,-18.791,16.859,17.535,-5.845,-0.09227,23.38,-1.5117e-07,-0.046135,0,0,0.1,-0,-0,0.66667
0.48462,0.68094,4.8462,0.27141,27.551,300.77,-3.5075,1.1692,-1.743,-4.6767,-1.0725e-12,-0.87151,0,0,0.1,-4.737e-16,0,0.66667
0.59059,0.70032,5.9059,0.30048,25.943,199.03,-4.7323,1.5774,-1.6786,-6.3097,-1.4397e-12,-0.83931,0,0,0.1,9.4739e-16,0,0.66667
0.93638,0.18917,9.3638,-0.46624,-7.4915,7.0883,11.642,-3.8807,-1.2311,15.523,-2.0474e-07,-0.61557,0,0,0.1,-0,-0,0.66667
0.88325,0.71393,8.8325,0.3209,9.2544,19.524,-7.5582,2.5194,-1.6314,-10.078,1.421e-08,-0.81571,0,0,0.1,-0,-0,0.66667
0.75772,0.44919,7.5772,-0.076217,-4.2837,75.397,1.54,-0.51335,-1.9762,2.0534,9.1183e-12,-0.98809,0,0,0.1,-0,-0,0.66667
0.71123,0.3525,7.1123,-0.22125,-14.459,104.73,4.1962,-1.3987,-1.823,5.595,7.9048e-13,-0.91151,0,0,0.1,-0,-0,0.66667
0.8192,0.10243,8.192,-0.59635,-26.026,44.816,13.027,-4.3425,-0.73273,17.37,3.5894e-09,-0.36637,0,0,0.1,-0,-0,0.66667
0.10608,0.27711,1.0608,-0.33433,-43.92,760.69,0.94578,-0.31526,-1.6029,1.261,3.0576e-08,-0.80146,0,0,0.1,-1.1842e-16,0,0.66667
0.38103,0.26441,3.8103,-0.35338,-40.117,414.41,3.5907,-1.1969,-1.5531,4.7876,-9.0439e-13,-0.77657,0,0,0.1,-0,-0,0.66667
0.54579,0.42325,5.4579,-0.11512,-10.711,239.89,1.6755,-0.55851,-1.9556,2.234,-3.8369e-13,-0.97782,0,0,0.1,-9.4739e-16,0,0.66667
0.85851,0.27145,8.5851,-0.34283,-11.862,27.887,7.8486,-2.6162,-1.5855,10.465,-3.6545e-09,-0.79275,0,0,0.1,-0,-0,0.66667
0.1464,0.84828,1.464,0.52243,68.007,707.35,-2.0396,0.67986,-1.0277,-2.7194,7.5697e-10,-0.51386,0,0,0.1,-0,-0,0.66667
0.71404,0.54564,7.1404,0.06846,4.4344,102.7,-1.3035,0.43451,-1.9813,-1.7381,-1.3922e-12,-0.99067,0,0,0.1,-9.4739e-16,0,0.66667
0.59097,0.2553,5.9097,-0.36705,-31.685,198.81,5.7844,-1.9281,-1.5218,7.7125,-2.3128e-12,-0.7609,0,0,0.1,-0,-0,0.66667
0.60872,0.12504,6.0872,-0.56243,-47.06,183.91,9.1297,-3.0432,-0.88051,12.173,6.99e-13,-0.44026,0,0,0.1,-1.8948e-15,6.7447e-19,0.66667
0.37262,0.0050429,3.7262,-0.74244,-85.238,424.86,7.3772,-2.4591,-0.041574,9.8363,-3.4062e-13,-0.020787,0,0,0.1,-0,6.4106e-17,0.66667
0.91582,0.18974,9.1582,-0.46539,-9.8402,11.257,11.366,-3.7886,-1.2283,15.154,-3.2868e-08,-0.61414,0,0,0.1,-0,-0,0.66667
0.71391,0.00034991,7.1391,-0.74948,-48.999,104.56,14.268,-4.756,-0.0023235,19.024,3.4008e-12,-0.0011617,0,0,0.1,-0,-0,0.66667
0.6683,0.3937,6.683,-0.15944,-11.675,135.25,2.8415,-0.94716,-1.9088,3.7886,-1.4093e-12,-0.95439,0,0,0.1,-0,-0,0.66667
0.22147,0.53332,2.2147,0.049978,6.3079,609.46,-0.29516,0.098387,-1.9926,-0.39355,2.6482e-12,-0.99629,0,0,0.1,-0,-0,0.66667
0.81288,0.28447,8.1288,-0.32329,-14.469,46.804,7.0079,-2.336,-1.6336,9.3438,-4.734e-11,-0.81678,0,0,0.1,-0,-0,0.66667
0.49585,0.80812,4.9585,0.46219,46.306,289.55,-6.1114,2.0371,-1.2399,-8.1485,-2.9905e-12,-0.61994,0,0,0.1,9.4739e-16,0,0.66667
0.50837,0.49238,5.0837,-0.011432,-1.1237,276.42,0.15498,-0.05166,-1.9967,0.20664,-1.1266e-11,-0.99837,0,0,0.1,4.737e-16,0,0.66667
0.084733,0.15079,0.84733,-0.52381,-69.184,789.25,1.1836,-0.39453,-1.0221,1.5781,1.6216e-08,-0.51103,0,0,0.1,5.9212e-17,0,0.66667
0.43727,0.60212,4.3727,0.15318,16.433,351.04,-1.7862,0.59539,-1.9213,-2.3816,-6.2375e-12,-0.96066,0,0,0.1,-0,-0,0.66667
0.8632,0.82505,8.632,0.48757,16.406,26.664,-11.223,3.7411,-1.1537,-14.964,7.559e-09,-0.57683,0,0,0.1,-0,-0,0.66667
0.68024,0.2775,6.8024,-0.33375,-23.753,126.67,6.0541,-2.018,-1.6017,8.0722,-4.4498e-13,-0.80085,0,0,0.1,-4.737e-16,0,0.66667
0.18942,0.26118,1.8942,-0.35823,-45.889,650.93,1.8095,-0.60318,-1.5452,2.4127,2.674e-11,-0.7726,0,0,0.1,-0,-0,0.66667
0.58407,0.23967,5.8407,-0.3905,-34.138,204.97,6.0822,-2.0274,-1.4552,8.1095,-5.5955e-14,-0.72759,0,0,0.1,-4.737e-16,0,0.66667
0.94401,0.98578,9.4401,0.72866,10.552,7.1232,-18.343,6.1143,-0.10912,-24.457,-3.9967e-06,-0.054561,0,0,0.1,-1.8948e-15,0,0.66667
0.50746,0.85823,5.0746,0.53735,53.044,277.98,-7.2716,2.4239,-0.9701,-9.6954,-2.4016e-12,-0.48505,0,0,0.1,-0,-0,0.66667
0.9674,0.60625,9.674,0.15938,1.274,1.9725,-4.1115,1.3705,-1.912,-5.482,-2.1209e-07,-0.95602,0,0,0.1,-0,-0,0.66667
0.36627,0.70819,3.6627,0.31228,35.901,431.51,-3.0501,1.0167,-1.6503,-4.0668,-7.5979e-12,-0.82514,0,0,0.1,-0,-0,0.66667
0.29075,0.73922,2.9075,0.35882,43.637,522.36,-2.7821,0.92735,-1.5395,-3.7094,-2.7185e-12,-0.76973,0,0,0.1,-4.737e-16,0,0.66667
0.83985,0.49044,8.3985,-0.014336,-0.55484,34.641,0.32106,-0.10702,-1.9983,0.42808,-1.3276e-10,-0.99914,0,0,0.1,9.4739e-16,0,0.66667
0.86973,0.26113,8.6973,-0.3583,-11.475,23.988,8.31,-2.77,-1.5413,11.08,-7.1398e-09,-0.77063,0,0,0.1,-0,-0,0.66667
0.20167,0.75065,2.0167,0.37597,47.927,635.08,-2.0219,0.67396,-1.5011,-2.6958,6.0206e-11,-0.75054,0,0,0.1,-4.737e-16,0,0.66667
0.71945,0.51063,7.1945,0.015949,1.0165,99.104,-0.30598,0.10199,-2.0027,-0.40798,-1.0685e-12,-1.0014,0,0,0.1,-0,-0,0.66667
0.59211,0.84253,5.9211,0.51379,44.329,198.15,-8.1125,2.7042,-1.0646,-10.817,1.0756e-12,-0.53232,0,0,0.1,-9.4739e-16,0,0.66667
0.89451,0.93034,8.9451,0.64551,17.103,17.466,-15.398,5.1326,-0.51774,-20.53,-3.173e-07,-0.25887,0,0,0.1,-0,-0,0.66667
0.14945,0.91249,1.4945,0.61873,80.54,703.41,-2.4658,0.82193,-0.63629,-3.2877,-1.2238e-09,-0.31814,0,0,0.1,-0,-0,0.66667
0.76303,0.2317,7.6303,-0.40244,-22.251,72.867,8.1887,-2.7296,-1.4245,10.918,2.4064e-11,-0.71227,0,0,0.1,-0,-0,0.66667
0.68996,0.26555,6.8996,-0.35167,-24.408,119.7,6.4704,-2.1568,-1.5608,8.6272,-1.0409e-12,-0.78041,0,0,0.1,-0,-0,0.66667
0.79502,0.1713,7.9502,-0.49305,-24.026,55.96,10.453,-3.4843,-1.1371,13.937,7.0253e-11,-0.56854,0,0,0.1,-0,-0,0.66667
0.45329,0.7585,4.5329,0.38774,40.911,333.95,-4.6869,1.5623,-1.4703,-6.2492,-1.8567e-12,-0.73516,0,0,0.1,-0,-0,0.66667
0.22843,0.5811,2.2843,0.12165,15.304,600.56,-0.74101,0.247,-1.9446,-0.98802,1.9827e-11,-0.97231,0,0,0.1,2.3685e-16,0,0.66667
0.28605,0.91735,2.8605,0.62602,76.529,528.5,-4.7754,1.5918,-0.60464,-6.3672,-1.3509e-12,-0.30232,0,0,0.1,-0,-0,0.66667
0.3043,0.45483,3.043,-0.06775,-8.1577,505.54,0.54978,-0.18326,-1.9804,0.73303,-6.4208e-12,-0.99022,0,0,0.1,-0,-0,0.66667
0.84027,0.44294,8.4027,-0.085587,-3.3052,34.498,1.9178,-0.63926,-1.9739,2.557,-4.42e-10,-0.98695,0,0,0.1,-0,-0,0.66667
0.53716,0.36892,5.3716,-0.19662,-18.544,248.21,2.8164,-0.93878,-1.8604,3.7551,-2.0188e-12,-0.9302,0,0,0.1,-4.737e-16,0,0.66667
0.56358,0.94969,5.6358,0.67454,61.297,224.33,-10.138,3.3792,-0.38503,-13.517,6.9633e-13,-0.19252,0,0,0.1,-0,-0,0.66667
0.28417,0.072337,2.8417,-0.64149,-78.525,530.86,4.8611,-1.6204,-0.53698,6.4815,1.1191e-13,-0.26849,0,0,0.1,-4.737e-16,0,0.66667
0.83416,0.37351,8.3416,-0.18973,-7.5913,37.127,4.2204,-1.4068,-1.8705,5.6272,-8.4108e-10,-0.93527,0,0,0.1,3.5527e-16,0,0.66667
0.70493,0.97027,7.0493,0.7054,47.268,110.41,-13.26,4.4201,-0.23371,-17.68,-3.4373e-12,-0.11685,0,0,0.1,-0,-0,0.66667
0.87814,0.99427,8.7814,0.7414,22.615,22.867,-17.361,5.7872,-0.045898,-23.149,-2.8955e-08,-0.022949,0,0,0.1,2.8422e-15,0,0.66667
0.13153,0.58815,1.3153,0.13222,17.25,726.84,-0.46374,0.15458,-1.9355,-0.61833,-3.9688e-09,-0.96774,0,0,0.1,1.1842e-16,0,0.66667
0.8496,0.42671,8.496,-0.10994,-4.015,30.825,2.4907,-0.83025,-1.9544,3.321,-4.668e-10,-0.97721,0,0,0.1,9.4739e-16,0,0.66667
0.052112,0.35642,0.52112,-0.21536,-28.522,832.91,0.29928,-0.099761,-1.8328,0.39904,-3.2103e-08,-0.91638,0,0,0.1,-0,-0,0.66667
0.87713,0.71102,8.7713,0.31654,9.5826,21.436,-7.4038,2.4679,-1.6452,-9.8718,1.0365e-08,-0.82261,0,0,0.1,9.4739e-16,0,0.66667
0.23974,0.65169,2.3974,0.22753,28.473,586.18,-1.4546,0.48488,-1.8143,-1.9395,2.1212e-11,-0.90715,0,0,0.1,-4.737e-16,0,0.66667
0.88566,0.19819,8.8566,-0.45272,-12.846,19.192,10.692,-3.5641,-1.2692,14.256,-1.0828e-08,-0.63462,0,0,0.1,-0,-0,0.66667
0.37931,0.60389,3.7931,0.15584,17.702,416.23,-1.5763,0.52543,-1.9122,-2.1017,-8.3952e-12,-0.95611,0,0,0.1,-0,-0,0.66667
0.84292,0.60335,8.4292,0.15503,5.8974,33.493,-3.4847,1.1616,-1.918,-4.6463,1.1945e-09,-0.95901,0,0,0.1,-1.8948e-15,0,0.66667
0.53961,0.25804,5.3961,-0.36294,-34.139,246.08,5.2226,-1.7409,-1.5288,6.9634,-1.1684e-12,-0.7644,0,0,0.1,-0,-0,0.66667
0.56418,0.19308,5.6418,-0.46038,-41.678,223.17,6.9263,-2.3088,-1.2488,9.235,2.7045e-13,-0.62442,0,0,0.1,-0,-0,0.66667
0.98402,0.10745,9.8402,-0.58883,-2.3572,2.0813,15.451,-5.1504,-0.77135,20.602,-4.3167e-06,-0.38567,0,0,0.1,-0,1.1662e-16,0.66667
0.96375,0.83041,9.6375,0.49562,4.5416,3.2969,-12.737,4.2458,-1.1244,-16.983,6.7433e-07,-0.56221,0,0,0.1,-0,-0,0.66667
0.11432,0.097176,1.1432,-0.60424,-79.388,749.85,1.8421,-0.61403,-0.70071,2.4561,-1.2915e-08,-0.35036,0,0,0.1,-0,-0,0.66667
0.36415,0.51586,3.6415,0.023785,2.737,433.83,-0.23097,0.07699,-1.9959,-0.30796,-3.1067e-12,-0.99797,0,0,0.1,-0,-0,0.66667
0.25055,0.26194,2.5055,-0.35709,-44.463,572.58,2.3858,-0.79528,-1.5505,3.1811,-1.6612e-11,-0.77523,0,0,0.1,4.737e-16,0,0.66667
0.4483,0.24406,4.483,-0.3839,-40.735,339.31,4.5894,-1.5298,-1.4745,6.1192,-2.8582e-12,-0.73727,0,0,0.1,2.3685e-16,0,0.66667
0.12635,0.2501,1.2635,-0.37485,-49.018,733.77,1.263,-0.42101,-1.5044,1.684,8.581e-09,-0.75218,0,0,0.1,-4.737e-16,0,0.66667
0.51157,0.74802,5.1157,0.37203,36.459,273.53,-5.0752,1.6917,-1.5078,-6.7669,-2.919e-12,-0.7539,0,0,0.1,-2.3685e-16,0,0.66667
0.86558,0.36385,8.6558,-0.20423,-6.7183,25.076,4.7141,-1.5714,-1.8489,6.2855,-5.5833e-09,-0.92445,0,0,0.1,-0,-0,0.66667
0.35235,0.12157,3.5235,-0.56765,-66.149,448.21,5.3337,-1.7779,-0.85214,7.1116,-7.2973e-12,-0.42607,0,0,0.1,5.9212e-16,0,0.66667
0.15564,0.32128,1.5564,-0.26808,-34.741,695.05,1.1126,-0.37088,-1.7484,1.4835,1.4716e-09,-0.87422,0,0,0.1,-4.737e-16,0,0.66667
0.30726,0.72654,3.0726,0.33981,40.873,502.07,-2.7843,0.9281,-1.5875,-3.7124,-1.7097e-12,-0.79373,0,0,0.1,-0,-0,0.66667
0.74287,0.56136,7.4287,0.092041,5.4467,84.266,-1.8233,0.60778,-1.9681,-2.4311,-3.639e-12,-0.98406,0,0,0.1,-4.737e-16,0,0.66667
0.091276,0.13024,0.91276,-0.55464,-73.189,780.52,1.35,-0.45001,-0.90749,1.8,1.0669e-07,-0.45374,0,0,0.1,-0,-0,0.66667
0.73558,0.53741,7.3558,0.056109,3.4007,88.762,-1.1006,0.36687,-1.992,-1.4675,-5.444e-12,-0.99598,0,0,0.1,-0,-0,0.66667
0.61392,0.7415,6.1392,0.36226,29.934,178.99,-5.9306,1.9769,-1.5319,-7.9074,1.2004e-12,-0.76595,0,0,0.1,-4.737e-16,0,0.66667
0.74026,0.93412,7.4026,0.65118,39.153,87.24,-12.855,4.2848,-0.49057,-17.139,-9.674e-12,-0.24528,0,0,0.1,-2.3685e-16,0,0.66667
0.0090497,0.26556,0.090497,-0.35167,-46.725,890.87,0.084866,-0.028288,-1.5572,0.11315,6.803e-07,-0.7786,0,0,0.1,-0,-0,0.66667
0.72047,0.90883,7.2047,0.61324,39.204,99.638,-11.782,3.9273,-0.66575,-15.709,-2.8333e-11,-0.33287,0,0,0.1,-0,-0,0.66667
0.32058,0.86544,3.2058,0.54817,65.428,486.14,-4.6862,1.5621,-0.92859,-6.2483,3.1033e-12,-0.4643,0,0,0.1,-2.3685e-16,0,0.66667
0.63297,0.80922,6.3297,0.46383,36.899,163.44,-7.8291,2.6097,-1.2328,-10.439,9.5568e-13,-0.61642,0,0,0.1,-7.5999e-16,0,0.66667
0.053837,0.48802,0.53837,-0.017965,-2.378,830.58,0.025792,-0.0085975,-1.9958,0.034389,-3.1753e-07,-0.99788,0,0,0.1,1.1842e-16,0,0.66667
0.55643,0.78756,5.5643,0.43133,39.536,230.29,-6.4002,2.1334,-1.3362,-8.5337,9.3259e-15,-0.66811,0,0,0.1,-0,-0,0.66667
0.9416,0.29454,9.416,-0.30819,-4.5101,5.6839,7.7384,-2.5795,-1.6609,10.318,-6.6573e-08,-0.83045,0,0,0.1,-0,-0,0.66667
0.32009,0.57024,3.2009,0.10537,12.549,486.33,-0.89936,0.29979,-1.9577,-1.1991,-3.7512e-12,-0.97884,0,0,0.1,-0,-0,0.66667
0.52274,0.47237,5.2274,-0.041452,-3.9926,262.16,0.57783,-0.19261,-1.9917,0.77044,-3.2346e-12,-0.99584,0,0,0.1,-0,-0,0.66667
0.40771,0.63552,4.0771,0.20328,22.489,383.86,-2.2101,0.73671,-1.8554,-2.9468,-4.5486e-12,-0.92768,0,0,0.1,-0,-0,0.66667
0.56965,0.35774,5.6965,-0.21339,-19.104,217.72,3.2415,-1.0805,-1.8349,4.322,-2.4403e-12,-0.91745,0,0,0.1,-0,-0,0.66667
0.068319,0.51919,0.68319,0.028778,3.8024,811.14,-0.052429,0.017476,-1.9944,-0.069906,-4.4789e-08,-0.9972,0,0,0.1,-0,-0,0.66667
0.36188,0.86321,3.6188,0.54482,62.979,436.96,-5.2576,1.7525,-0.94519,-7.0101,-3.2863e-12,-0.4726,0,0,0.1,4.737e-16,0,0.66667
0.52066,0.050126,5.2066,-0.67481,-65.509,265.25,9.3692,-3.1231,-0.37873,12.492,4.1611e-12,-0.18937,0,0,0.1,-6.1658e-16,0,0.66667
0.084824,0.046696,0.84824,-0.67996,-89.938,789.2,1.538,-0.51268,-0.35301,2.0507,-7.9728e-07,-0.1765,0,0,0.1,-1.1842e-16,0,0.66667
0.46765,0.22172,4.6765,-0.41742,-43.317,318.72,5.2055,-1.7352,-1.3843,6.9407,-3.9186e-12,-0.69216,0,0,0.1,-0,-0,0.66667
0.77223,0.17722,7.7223,-0.48416,-25.894,67.952,9.9703,-3.3234,-1.1636,13.294,4.4221e-11,-0.58182,0,0,0.1,-9.4739e-16,0,0.66667
0.443,0.71653,4.43,0.32479,34.653,344.96,-3.8369,1.279,-1.6236,-5.1159,-4.5342e-12,-0.8118,0,0,0.1,1.0658e-15,0,0.66667
0.39093,0.36022,3.9093,-0.20967,-23.571,402.91,2.1857,-0.72858,-1.8479,2.9143,-1.0711e-12,-0.92397,0,0,0.1,4.737e-16,0,0.66667
0.27288,0.33928,2.7288,-0.24107,-29.623,544.46,1.7542,-0.58474,-1.791,2.339,-6.8221e-12,-0.8955,0,0,0.1,-2.3685e-16,0,0.66667
0.051852,0.1545,0.51852,-0.51826,-68.757,833.31,0.7166,-0.23887,-1.0442,0.95546,1.5397e-07,-0.52208,0,0,0.1,-2.9606e-17,0,0.66667
0.76182,0.7215,7.6182,0.33225,18.434,73.381,-6.7497,2.2499,-1.6075,-8.9996,-2.3983e-11,-0.80376,0,0,0.1,-1.8948e-15,0,0.66667
0.48578,0.75677,4.8578,0.38515,39.07,299.74,-4.9893,1.6631,-1.4753,-6.6524,2.029e-12,-0.73765,0,0,0.1,-9.4739e-16,0,0.66667
0.16135,0.88404,1.6135,0.57606,74.671,687.75,-2.4786,0.82619,-0.81809,-3.3048,-1.4145e-09,-0.40905,0,0,0.1,-0,-0,0.66667
0.066079,0.95797,0.66079,0.68696,91.13,814.28,-1.2105,0.4035,-0.32136,-1.614,-1.6534e-07,-0.16068,0,0,0.1,5.9212e-17,0,0.66667
0.7579,0.037452,7.579,-0.69382,-39.312,76.894,14.023,-4.6742,-0.28573,18.697,-5.979e-11,-0.14287,0,0,0.1,1.8948e-15,0,0.66667
0.58841,0.78504,5.8841,0.42755,37.101,201.19,-6.7088,2.2363,-1.3485,-8.945,-5.9996e-13,-0.67427,0,0,0.1,-0,-0,0.66667
0.55876,0.074462,5.5876,-0.63831,-58.433,228.67,9.511,-3.1703,-0.55037,12.681,-2.5517e-12,-0.27518,0,0,0.1,9.4739e-16,4.5113e-17,0.66667
0.20632,0.73958,2.0632,0.35938,45.715,629.05,-1.9773,0.6591,-1.5405,-2.6364,2.9445e-11,-0.77027,0,0,0.1,2.3685e-16,0,0.66667
0.59434,0.29369,5.9434,-0.30947,-26.537,195.74,4.9048,-1.6349,-1.6632,6.5398,-1.3229e-12,-0.83161,0,0,0.1,-0,-0,0.66667
0.93421,0.46812,9.3421,-0.047826,-0.78363,6.5856,1.1914,-0.39715,-1.9929,1.5886,-2.5399e-08,-0.99644,0,0,0.1,2.9606e-16,0,0.66667
0.72548,0.45783,7.2548,-0.063254,-3.9583,95.189,1.2237,-0.4079,-1.9828,1.6316,7.8049e-14,-0.9914,0,0,0.1,-0,-0,0.66667
0.5866,0.51537,5.866,0.023059,2.0031,202.33,-0.3607,0.12023,-1.9949,-0.48093,1.59e-12,-0.99744,0,0,0.1,-0,-0,0.66667
0.8653,0.82494,8.653,0.48742,16.165,25.929,-11.247,3.749,-1.1526,-14.996,8.3209e-09,-0.57628,0,0,0.1,-0,-0,0.66667
0.99657,0.72698,9.9657,0.34047,0.15327,0.57779,-9.048,3.016,-1.5875,-12.064,1.412e-06,-0.79375,0,0,0.1,-0,-8.2129e-18,0.66667
0.86511,0.50145,8.6511,0.0021719,0.071589,25.081,-0.050106,0.016702,-1.9987,-0.066808,8.9809e-09,-0.99934,0,0,0.1,-0,-0,0.66667
0.17918,0.052346,1.7918,-0.67148,-86.579,664.52,3.2085,-1.0695,-0.39381,4.278,4.3044e-09,-0.1969,0,0,0.1,2.3685e-16,0,0.66667
0.69466,0.17494,6.9466,-0.48758,-33.475,116.71,9.0322,-3.0107,-1.1516,12.043,8.2867e-13,-0.57578,0,0,0.1,-0,-0,0.66667
0.29623,0.45335,2.9623,-0.069972,-8.4704,515.44,0.55274,-0.18425,-1.9862,0.73699,-4.1236e-12,-0.99308,0,0,0.1,-0,-0,0.66667
0.059534,0.045189,0.59534,-0.68222,-90.571,823.05,1.0831,-0.36103,-0.34505,1.4441,-9.2704e-06,-0.17252,0,0,0.1,-0,-0,0.66667
0.10804,0.69653,1.0804,0.29479,38.701,758.07,-0.84934,0.28311,-1.6936,-1.1325,-2.5828e-08,-0.84682,0,0,0.1,-0,-0,0.66667
0.76279,0.29964,7.6279,-0.30054,-16.609,72.757,6.1133,-2.0378,-1.6789,8.151,2.5696e-11,-0.83947,0,0,0.1,-0,-0,0.66667
